    1C
    1UUSER                                                              
    1UDATE              27.october.2022                                 
    1UTIME              01:16:11                                        
    1UHOST                                                              
    1UPGM               CalculiX                                        
    1UVERSION           Version 2.17                             
    1UCOMPILETIME       Thu Jul 23 21:43:50 CEST 2020                    
    1UDIR                                                               
    1UDBN                                                               
    1UMAT    1SOLIDMATERIAL                                             
    2C                          4311                                     1
 -1         1 8.45455E+01 1.63687E+01 0.00000E+00
 -1         2 9.69022E+01 1.18626E+01 0.00000E+00
 -1         3 1.50000E+02 0.00000E+00 0.00000E+00
 -1         4 1.50000E+02 5.00000E+01 0.00000E+00
 -1         5 0.00000E+00 0.00000E+00 0.00000E+00
 -1         6 0.00000E+00 5.00000E+01 0.00000E+00
 -1         7 0.00000E+00 4.70500E+01 0.00000E+00
 -1         8 0.00000E+00 4.41000E+01 0.00000E+00
 -1         9 0.00000E+00 4.11500E+01 0.00000E+00
 -1        10 0.00000E+00 3.82000E+01 0.00000E+00
 -1        11 0.00000E+00 3.52500E+01 0.00000E+00
 -1        12 0.00000E+00 3.23500E+01 0.00000E+00
 -1        13 0.00000E+00 2.94000E+01 0.00000E+00
 -1        14 0.00000E+00 2.64500E+01 0.00000E+00
 -1        15 0.00000E+00 2.35000E+01 0.00000E+00
 -1        16 0.00000E+00 2.05500E+01 0.00000E+00
 -1        17 0.00000E+00 1.76000E+01 0.00000E+00
 -1        18 0.00000E+00 1.47000E+01 0.00000E+00
 -1        19 0.00000E+00 1.17500E+01 0.00000E+00
 -1        20 0.00000E+00 8.80000E+00 0.00000E+00
 -1        21 0.00000E+00 5.85000E+00 0.00000E+00
 -1        22 0.00000E+00 2.90000E+00 0.00000E+00
 -1        23 3.15000E+00 5.00000E+01 0.00000E+00
 -1        24 6.15000E+00 5.00000E+01 0.00000E+00
 -1        25 9.15000E+00 5.00000E+01 0.00000E+00
 -1        26 1.21500E+01 5.00000E+01 0.00000E+00
 -1        27 1.51500E+01 5.00000E+01 0.00000E+00
 -1        28 1.81500E+01 5.00000E+01 0.00000E+00
 -1        29 2.11500E+01 5.00000E+01 0.00000E+00
 -1        30 2.41500E+01 5.00000E+01 0.00000E+00
 -1        31 2.71500E+01 5.00000E+01 0.00000E+00
 -1        32 3.01500E+01 5.00000E+01 0.00000E+00
 -1        33 3.31500E+01 5.00000E+01 0.00000E+00
 -1        34 3.61500E+01 5.00000E+01 0.00000E+00
 -1        35 3.91500E+01 5.00000E+01 0.00000E+00
 -1        36 4.21500E+01 5.00000E+01 0.00000E+00
 -1        37 4.51500E+01 5.00000E+01 0.00000E+00
 -1        38 4.81500E+01 5.00000E+01 0.00000E+00
 -1        39 5.11500E+01 5.00000E+01 0.00000E+00
 -1        40 5.41500E+01 5.00000E+01 0.00000E+00
 -1        41 5.71500E+01 5.00000E+01 0.00000E+00
 -1        42 6.01500E+01 5.00000E+01 0.00000E+00
 -1        43 6.31500E+01 5.00000E+01 0.00000E+00
 -1        44 6.61500E+01 5.00000E+01 0.00000E+00
 -1        45 6.91500E+01 5.00000E+01 0.00000E+00
 -1        46 7.21500E+01 5.00000E+01 0.00000E+00
 -1        47 7.51500E+01 5.00000E+01 0.00000E+00
 -1        48 7.81500E+01 5.00000E+01 0.00000E+00
 -1        49 8.11500E+01 5.00000E+01 0.00000E+00
 -1        50 8.41500E+01 5.00000E+01 0.00000E+00
 -1        51 8.71500E+01 5.00000E+01 0.00000E+00
 -1        52 9.01500E+01 5.00000E+01 0.00000E+00
 -1        53 9.31500E+01 5.00000E+01 0.00000E+00
 -1        54 9.61500E+01 5.00000E+01 0.00000E+00
 -1        55 9.91500E+01 5.00000E+01 0.00000E+00
 -1        56 1.02150E+02 5.00000E+01 0.00000E+00
 -1        57 1.05150E+02 5.00000E+01 0.00000E+00
 -1        58 1.08150E+02 5.00000E+01 0.00000E+00
 -1        59 1.11150E+02 5.00000E+01 0.00000E+00
 -1        60 1.14150E+02 5.00000E+01 0.00000E+00
 -1        61 1.17150E+02 5.00000E+01 0.00000E+00
 -1        62 1.20150E+02 5.00000E+01 0.00000E+00
 -1        63 1.23150E+02 5.00000E+01 0.00000E+00
 -1        64 1.26150E+02 5.00000E+01 0.00000E+00
 -1        65 1.29150E+02 5.00000E+01 0.00000E+00
 -1        66 1.32150E+02 5.00000E+01 0.00000E+00
 -1        67 1.35150E+02 5.00000E+01 0.00000E+00
 -1        68 1.38150E+02 5.00000E+01 0.00000E+00
 -1        69 1.41150E+02 5.00000E+01 0.00000E+00
 -1        70 1.44150E+02 5.00000E+01 0.00000E+00
 -1        71 1.47150E+02 5.00000E+01 0.00000E+00
 -1        72 3.15000E+00 0.00000E+00 0.00000E+00
 -1        73 6.15000E+00 0.00000E+00 0.00000E+00
 -1        74 9.15000E+00 0.00000E+00 0.00000E+00
 -1        75 1.21500E+01 0.00000E+00 0.00000E+00
 -1        76 1.51500E+01 0.00000E+00 0.00000E+00
 -1        77 1.81500E+01 0.00000E+00 0.00000E+00
 -1        78 2.11500E+01 0.00000E+00 0.00000E+00
 -1        79 2.41500E+01 0.00000E+00 0.00000E+00
 -1        80 2.71500E+01 0.00000E+00 0.00000E+00
 -1        81 3.01500E+01 0.00000E+00 0.00000E+00
 -1        82 3.33000E+01 0.00000E+00 0.00000E+00
 -1        83 3.63000E+01 0.00000E+00 0.00000E+00
 -1        84 3.93000E+01 0.00000E+00 0.00000E+00
 -1        85 4.23000E+01 0.00000E+00 0.00000E+00
 -1        86 4.53000E+01 0.00000E+00 0.00000E+00
 -1        87 4.83000E+01 0.00000E+00 0.00000E+00
 -1        88 5.13000E+01 0.00000E+00 0.00000E+00
 -1        89 5.43000E+01 0.00000E+00 0.00000E+00
 -1        90 5.73000E+01 0.00000E+00 0.00000E+00
 -1        91 6.03000E+01 0.00000E+00 0.00000E+00
 -1        92 6.34500E+01 0.00000E+00 0.00000E+00
 -1        93 6.64500E+01 0.00000E+00 0.00000E+00
 -1        94 6.94500E+01 0.00000E+00 0.00000E+00
 -1        95 7.24500E+01 0.00000E+00 0.00000E+00
 -1        96 7.54500E+01 0.00000E+00 0.00000E+00
 -1        97 7.84500E+01 0.00000E+00 0.00000E+00
 -1        98 8.14500E+01 0.00000E+00 0.00000E+00
 -1        99 8.43000E+01 0.00000E+00 0.00000E+00
 -1       100 8.67000E+01 0.00000E+00 0.00000E+00
 -1       101 8.91000E+01 0.00000E+00 0.00000E+00
 -1       102 9.13500E+01 0.00000E+00 0.00000E+00
 -1       103 9.33000E+01 0.00000E+00 0.00000E+00
 -1       104 9.58500E+01 0.00000E+00 0.00000E+00
 -1       105 9.88500E+01 0.00000E+00 0.00000E+00
 -1       106 1.01850E+02 0.00000E+00 0.00000E+00
 -1       107 1.04850E+02 0.00000E+00 0.00000E+00
 -1       108 1.07850E+02 0.00000E+00 0.00000E+00
 -1       109 1.10850E+02 0.00000E+00 0.00000E+00
 -1       110 1.13850E+02 0.00000E+00 0.00000E+00
 -1       111 1.16850E+02 0.00000E+00 0.00000E+00
 -1       112 1.20000E+02 0.00000E+00 0.00000E+00
 -1       113 1.23000E+02 0.00000E+00 0.00000E+00
 -1       114 1.26000E+02 0.00000E+00 0.00000E+00
 -1       115 1.29000E+02 0.00000E+00 0.00000E+00
 -1       116 1.32000E+02 0.00000E+00 0.00000E+00
 -1       117 1.35000E+02 0.00000E+00 0.00000E+00
 -1       118 1.38000E+02 0.00000E+00 0.00000E+00
 -1       119 1.41000E+02 0.00000E+00 0.00000E+00
 -1       120 1.44000E+02 0.00000E+00 0.00000E+00
 -1       121 1.47000E+02 0.00000E+00 0.00000E+00
 -1       122 1.50000E+02 2.95000E+00 0.00000E+00
 -1       123 1.50000E+02 5.90000E+00 0.00000E+00
 -1       124 1.50000E+02 8.85000E+00 0.00000E+00
 -1       125 1.50000E+02 1.18000E+01 0.00000E+00
 -1       126 1.50000E+02 1.47500E+01 0.00000E+00
 -1       127 1.50000E+02 1.76500E+01 0.00000E+00
 -1       128 1.50000E+02 2.06000E+01 0.00000E+00
 -1       129 1.50000E+02 2.35500E+01 0.00000E+00
 -1       130 1.50000E+02 2.65000E+01 0.00000E+00
 -1       131 1.50000E+02 2.94500E+01 0.00000E+00
 -1       132 1.50000E+02 3.24000E+01 0.00000E+00
 -1       133 1.50000E+02 3.53000E+01 0.00000E+00
 -1       134 1.50000E+02 3.82500E+01 0.00000E+00
 -1       135 1.50000E+02 4.12000E+01 0.00000E+00
 -1       136 1.50000E+02 4.41500E+01 0.00000E+00
 -1       137 1.50000E+02 4.71000E+01 0.00000E+00
 -1       138 9.67166E+01 1.02614E+01 0.00000E+00
 -1       139 9.62162E+01 8.84042E+00 0.00000E+00
 -1       140 9.53949E+01 7.52321E+00 0.00000E+00
 -1       141 9.43503E+01 6.45756E+00 0.00000E+00
 -1       142 9.31076E+01 5.63964E+00 0.00000E+00
 -1       143 9.17698E+01 5.11635E+00 0.00000E+00
 -1       144 9.03153E+01 4.87481E+00 0.00000E+00
 -1       145 8.88904E+01 4.93612E+00 0.00000E+00
 -1       146 8.73959E+01 5.32667E+00 0.00000E+00
 -1       147 8.60993E+01 5.98569E+00 0.00000E+00
 -1       148 8.49969E+01 6.86877E+00 0.00000E+00
 -1       149 8.40859E+01 7.96766E+00 0.00000E+00
 -1       150 8.33720E+01 9.34149E+00 0.00000E+00
 -1       151 8.29757E+01 1.08510E+01 0.00000E+00
 -1       152 8.29126E+01 1.22446E+01 0.00000E+00
 -1       153 8.31477E+01 1.37000E+01 0.00000E+00
 -1       154 8.36899E+01 1.50887E+01 0.00000E+00
 -1       155 8.55614E+01 1.73541E+01 0.00000E+00
 -1       156 8.67180E+01 1.80964E+01 0.00000E+00
 -1       157 8.80142E+01 1.86032E+01 0.00000E+00
 -1       158 8.94713E+01 1.88493E+01 0.00000E+00
 -1       159 9.09267E+01 1.87872E+01 0.00000E+00
 -1       160 9.22829E+01 1.84453E+01 0.00000E+00
 -1       161 9.35418E+01 1.78420E+01 0.00000E+00
 -1       162 9.46521E+01 1.70044E+01 0.00000E+00
 -1       163 9.56153E+01 1.59074E+01 0.00000E+00
 -1       164 9.63216E+01 1.46538E+01 0.00000E+00
 -1       165 9.67570E+01 1.32807E+01 0.00000E+00
 -1       166 2.59800E+00 4.55750E+01 0.00000E+00
 -1       167 2.59800E+00 4.26250E+01 0.00000E+00
 -1       168 2.59800E+00 3.96750E+01 0.00000E+00
 -1       169 2.59800E+00 3.67250E+01 0.00000E+00
 -1       170 2.59800E+00 3.38250E+01 0.00000E+00
 -1       171 2.59800E+00 3.08750E+01 0.00000E+00
 -1       172 2.59800E+00 2.79250E+01 0.00000E+00
 -1       173 2.59800E+00 2.49750E+01 0.00000E+00
 -1       174 2.59800E+00 2.20250E+01 0.00000E+00
 -1       175 2.59800E+00 1.90750E+01 0.00000E+00
 -1       176 2.59800E+00 1.61750E+01 0.00000E+00
 -1       177 2.59800E+00 1.32250E+01 0.00000E+00
 -1       178 2.59800E+00 1.02750E+01 0.00000E+00
 -1       179 2.59800E+00 7.32500E+00 0.00000E+00
 -1       180 2.59800E+00 4.37500E+00 0.00000E+00
 -1       181 2.87400E+00 2.18750E+00 0.00000E+00
 -1       182 4.65000E+00 4.74020E+01 0.00000E+00
 -1       183 7.65000E+00 4.74020E+01 0.00000E+00
 -1       184 1.06500E+01 4.74020E+01 0.00000E+00
 -1       185 1.36500E+01 4.74020E+01 0.00000E+00
 -1       186 1.66500E+01 4.74020E+01 0.00000E+00
 -1       187 1.96500E+01 4.74020E+01 0.00000E+00
 -1       188 2.26500E+01 4.74020E+01 0.00000E+00
 -1       189 2.56500E+01 4.74020E+01 0.00000E+00
 -1       190 2.86500E+01 4.74020E+01 0.00000E+00
 -1       191 3.16500E+01 4.74020E+01 0.00000E+00
 -1       192 3.46500E+01 4.74020E+01 0.00000E+00
 -1       193 3.76500E+01 4.74020E+01 0.00000E+00
 -1       194 4.06500E+01 4.74020E+01 0.00000E+00
 -1       195 4.36500E+01 4.74020E+01 0.00000E+00
 -1       196 4.66500E+01 4.74020E+01 0.00000E+00
 -1       197 4.96500E+01 4.74020E+01 0.00000E+00
 -1       198 5.26500E+01 4.74020E+01 0.00000E+00
 -1       199 5.56500E+01 4.74020E+01 0.00000E+00
 -1       200 5.86500E+01 4.74020E+01 0.00000E+00
 -1       201 6.16500E+01 4.74020E+01 0.00000E+00
 -1       202 6.46500E+01 4.74020E+01 0.00000E+00
 -1       203 6.76500E+01 4.74020E+01 0.00000E+00
 -1       204 7.06500E+01 4.74020E+01 0.00000E+00
 -1       205 7.36500E+01 4.74020E+01 0.00000E+00
 -1       206 7.66500E+01 4.74020E+01 0.00000E+00
 -1       207 7.96500E+01 4.74020E+01 0.00000E+00
 -1       208 8.26500E+01 4.74020E+01 0.00000E+00
 -1       209 8.56500E+01 4.74020E+01 0.00000E+00
 -1       210 8.86500E+01 4.74020E+01 0.00000E+00
 -1       211 9.16500E+01 4.74020E+01 0.00000E+00
 -1       212 9.46500E+01 4.74020E+01 0.00000E+00
 -1       213 9.76500E+01 4.74020E+01 0.00000E+00
 -1       214 1.00650E+02 4.74020E+01 0.00000E+00
 -1       215 1.03650E+02 4.74020E+01 0.00000E+00
 -1       216 1.06650E+02 4.74020E+01 0.00000E+00
 -1       217 1.09650E+02 4.74020E+01 0.00000E+00
 -1       218 1.12650E+02 4.74020E+01 0.00000E+00
 -1       219 1.15650E+02 4.74020E+01 0.00000E+00
 -1       220 1.18650E+02 4.74020E+01 0.00000E+00
 -1       221 1.21650E+02 4.74020E+01 0.00000E+00
 -1       222 1.24650E+02 4.74020E+01 0.00000E+00
 -1       223 1.27650E+02 4.74020E+01 0.00000E+00
 -1       224 1.30650E+02 4.74020E+01 0.00000E+00
 -1       225 1.33650E+02 4.74020E+01 0.00000E+00
 -1       226 1.36650E+02 4.74020E+01 0.00000E+00
 -1       227 1.39650E+02 4.74020E+01 0.00000E+00
 -1       228 1.42650E+02 4.74020E+01 0.00000E+00
 -1       229 1.45650E+02 4.74020E+01 0.00000E+00
 -1       230 5.87400E+00 2.18750E+00 0.00000E+00
 -1       231 8.87400E+00 2.18750E+00 0.00000E+00
 -1       232 1.18740E+01 2.18750E+00 0.00000E+00
 -1       233 1.48740E+01 2.18750E+00 0.00000E+00
 -1       234 1.78740E+01 2.18750E+00 0.00000E+00
 -1       235 2.08740E+01 2.18750E+00 0.00000E+00
 -1       236 2.38740E+01 2.18750E+00 0.00000E+00
 -1       237 2.68740E+01 2.18750E+00 0.00000E+00
 -1       238 2.98740E+01 2.18750E+00 0.00000E+00
 -1       239 3.30240E+01 2.18750E+00 0.00000E+00
 -1       240 3.60240E+01 2.18750E+00 0.00000E+00
 -1       241 3.90240E+01 2.18750E+00 0.00000E+00
 -1       242 4.20240E+01 2.18750E+00 0.00000E+00
 -1       243 4.50240E+01 2.18750E+00 0.00000E+00
 -1       244 4.80240E+01 2.18750E+00 0.00000E+00
 -1       245 5.10240E+01 2.18750E+00 0.00000E+00
 -1       246 5.40240E+01 2.18750E+00 0.00000E+00
 -1       247 5.70240E+01 2.18750E+00 0.00000E+00
 -1       248 6.00240E+01 2.18750E+00 0.00000E+00
 -1       249 6.31740E+01 2.18750E+00 0.00000E+00
 -1       250 6.61740E+01 2.18750E+00 0.00000E+00
 -1       251 6.91740E+01 2.18750E+00 0.00000E+00
 -1       252 7.21740E+01 2.18750E+00 0.00000E+00
 -1       253 7.51740E+01 2.18750E+00 0.00000E+00
 -1       254 7.81740E+01 2.18750E+00 0.00000E+00
 -1       255 8.11740E+01 2.18750E+00 0.00000E+00
 -1       256 8.40240E+01 2.18750E+00 0.00000E+00
 -1       257 8.64240E+01 2.18750E+00 0.00000E+00
 -1       258 8.88240E+01 2.18750E+00 0.00000E+00
 -1       259 9.10740E+01 2.18750E+00 0.00000E+00
 -1       260 9.30240E+01 2.18750E+00 0.00000E+00
 -1       261 9.55740E+01 2.18750E+00 0.00000E+00
 -1       262 1.00350E+02 2.59800E+00 0.00000E+00
 -1       263 1.03350E+02 2.59800E+00 0.00000E+00
 -1       264 1.06350E+02 2.59800E+00 0.00000E+00
 -1       265 1.09350E+02 2.59800E+00 0.00000E+00
 -1       266 1.12350E+02 2.59800E+00 0.00000E+00
 -1       267 1.15350E+02 2.59800E+00 0.00000E+00
 -1       268 1.18500E+02 2.59800E+00 0.00000E+00
 -1       269 1.21500E+02 2.59800E+00 0.00000E+00
 -1       270 1.24500E+02 2.59800E+00 0.00000E+00
 -1       271 1.27500E+02 2.59800E+00 0.00000E+00
 -1       272 1.30500E+02 2.59800E+00 0.00000E+00
 -1       273 1.33500E+02 2.59800E+00 0.00000E+00
 -1       274 1.36500E+02 2.59800E+00 0.00000E+00
 -1       275 1.39500E+02 2.59800E+00 0.00000E+00
 -1       276 1.42500E+02 2.59800E+00 0.00000E+00
 -1       277 1.45500E+02 2.59800E+00 0.00000E+00
 -1       278 1.47750E+02 2.77400E+00 0.00000E+00
 -1       279 1.47750E+02 5.72400E+00 0.00000E+00
 -1       280 1.47750E+02 8.67400E+00 0.00000E+00
 -1       281 1.47750E+02 1.16240E+01 0.00000E+00
 -1       282 1.47750E+02 1.45740E+01 0.00000E+00
 -1       283 1.47750E+02 1.74740E+01 0.00000E+00
 -1       284 1.47750E+02 2.04240E+01 0.00000E+00
 -1       285 1.47750E+02 2.33740E+01 0.00000E+00
 -1       286 1.47750E+02 2.63240E+01 0.00000E+00
 -1       287 1.47750E+02 2.92740E+01 0.00000E+00
 -1       288 1.47750E+02 3.22240E+01 0.00000E+00
 -1       289 1.47750E+02 3.51240E+01 0.00000E+00
 -1       290 1.47750E+02 3.80740E+01 0.00000E+00
 -1       291 1.47750E+02 4.10240E+01 0.00000E+00
 -1       292 1.47750E+02 4.39740E+01 0.00000E+00
 -1       293 9.81802E+01 1.09031E+01 0.00000E+00
 -1       294 9.76100E+01 9.14820E+00 0.00000E+00
 -1       295 9.71187E+01 7.36303E+00 0.00000E+00
 -1       296 9.60741E+01 6.29737E+00 0.00000E+00
 -1       297 9.44416E+01 4.96589E+00 0.00000E+00
 -1       298 9.28804E+01 4.24890E+00 0.00000E+00
 -1       299 9.12549E+01 3.71690E+00 0.00000E+00
 -1       300 8.95507E+01 3.69419E+00 0.00000E+00
 -1       301 8.77942E+01 3.79627E+00 0.00000E+00
 -1       302 8.61983E+01 4.57539E+00 0.00000E+00
 -1       303 8.47901E+01 5.48100E+00 0.00000E+00
 -1       304 8.36081E+01 6.64441E+00 0.00000E+00
 -1       305 8.25044E+01 8.01825E+00 0.00000E+00
 -1       306 8.17580E+01 9.72460E+00 0.00000E+00
 -1       307 8.17330E+01 1.14930E+01 0.00000E+00
 -1       308 8.17505E+01 1.31789E+01 0.00000E+00
 -1       309 8.22114E+01 1.48658E+01 0.00000E+00
 -1       310 8.28311E+01 1.65886E+01 0.00000E+00
 -1       311 8.42093E+01 1.77317E+01 0.00000E+00
 -1       312 8.54848E+01 1.87456E+01 0.00000E+00
 -1       313 8.67811E+01 1.92524E+01 0.00000E+00
 -1       314 8.85268E+01 2.00043E+01 0.00000E+00
 -1       315 9.02507E+01 2.00296E+01 0.00000E+00
 -1       316 9.19012E+01 1.97919E+01 0.00000E+00
 -1       317 9.34363E+01 1.92370E+01 0.00000E+00
 -1       318 9.48776E+01 1.84580E+01 0.00000E+00
 -1       319 9.60448E+01 1.72558E+01 0.00000E+00
 -1       320 9.70248E+01 1.58758E+01 0.00000E+00
 -1       321 9.77749E+01 1.43591E+01 0.00000E+00
 -1       322 9.80357E+01 1.26951E+01 0.00000E+00
 -1       323 9.73500E+01 2.59800E+00 0.00000E+00
 -1       324 5.19600E+00 4.11500E+01 0.00000E+00
 -1       325 5.19600E+00 4.41000E+01 0.00000E+00
 -1       326 5.19600E+00 3.52750E+01 0.00000E+00
 -1       327 5.19600E+00 3.23250E+01 0.00000E+00
 -1       328 5.19600E+00 2.93750E+01 0.00000E+00
 -1       329 5.19600E+00 2.64250E+01 0.00000E+00
 -1       330 5.19600E+00 2.34750E+01 0.00000E+00
 -1       331 5.19600E+00 2.05250E+01 0.00000E+00
 -1       332 5.19600E+00 1.76250E+01 0.00000E+00
 -1       333 5.19600E+00 1.46750E+01 0.00000E+00
 -1       334 5.19600E+00 1.17250E+01 0.00000E+00
 -1       335 5.19600E+00 8.77500E+00 0.00000E+00
 -1       336 5.19600E+00 5.82500E+00 0.00000E+00
 -1       337 5.53500E+00 4.00625E+00 0.00000E+00
 -1       338 8.53500E+00 4.00625E+00 0.00000E+00
 -1       339 8.71412E+01 2.08188E+01 0.00000E+00
 -1       340 9.15000E+00 4.48040E+01 0.00000E+00
 -1       341 1.21500E+01 4.48040E+01 0.00000E+00
 -1       342 1.51500E+01 4.48040E+01 0.00000E+00
 -1       343 1.81500E+01 4.48040E+01 0.00000E+00
 -1       344 2.11500E+01 4.48040E+01 0.00000E+00
 -1       345 2.41500E+01 4.48040E+01 0.00000E+00
 -1       346 2.71500E+01 4.48040E+01 0.00000E+00
 -1       347 3.01500E+01 4.48040E+01 0.00000E+00
 -1       348 3.31500E+01 4.48040E+01 0.00000E+00
 -1       349 3.61500E+01 4.48040E+01 0.00000E+00
 -1       350 3.91500E+01 4.48040E+01 0.00000E+00
 -1       351 4.21500E+01 4.48040E+01 0.00000E+00
 -1       352 4.51500E+01 4.48040E+01 0.00000E+00
 -1       353 4.81500E+01 4.48040E+01 0.00000E+00
 -1       354 5.11500E+01 4.48040E+01 0.00000E+00
 -1       355 5.41500E+01 4.48040E+01 0.00000E+00
 -1       356 5.71500E+01 4.48040E+01 0.00000E+00
 -1       357 6.01500E+01 4.48040E+01 0.00000E+00
 -1       358 6.31500E+01 4.48040E+01 0.00000E+00
 -1       359 6.61500E+01 4.48040E+01 0.00000E+00
 -1       360 6.91500E+01 4.48040E+01 0.00000E+00
 -1       361 7.21500E+01 4.48040E+01 0.00000E+00
 -1       362 7.51500E+01 4.48040E+01 0.00000E+00
 -1       363 7.81500E+01 4.48040E+01 0.00000E+00
 -1       364 8.11500E+01 4.48040E+01 0.00000E+00
 -1       365 8.41500E+01 4.48040E+01 0.00000E+00
 -1       366 8.71500E+01 4.48040E+01 0.00000E+00
 -1       367 9.01500E+01 4.48040E+01 0.00000E+00
 -1       368 9.31500E+01 4.48040E+01 0.00000E+00
 -1       369 9.61500E+01 4.48040E+01 0.00000E+00
 -1       370 9.91500E+01 4.48040E+01 0.00000E+00
 -1       371 1.02150E+02 4.48040E+01 0.00000E+00
 -1       372 1.05150E+02 4.48040E+01 0.00000E+00
 -1       373 1.08150E+02 4.48040E+01 0.00000E+00
 -1       374 1.11150E+02 4.48040E+01 0.00000E+00
 -1       375 1.14150E+02 4.48040E+01 0.00000E+00
 -1       376 1.17150E+02 4.48040E+01 0.00000E+00
 -1       377 1.20150E+02 4.48040E+01 0.00000E+00
 -1       378 1.23150E+02 4.48040E+01 0.00000E+00
 -1       379 1.26150E+02 4.48040E+01 0.00000E+00
 -1       380 1.29150E+02 4.48040E+01 0.00000E+00
 -1       381 1.32150E+02 4.48040E+01 0.00000E+00
 -1       382 1.35150E+02 4.48040E+01 0.00000E+00
 -1       383 1.38150E+02 4.48040E+01 0.00000E+00
 -1       384 1.41150E+02 4.48040E+01 0.00000E+00
 -1       385 1.44150E+02 4.48040E+01 0.00000E+00
 -1       386 1.07850E+02 5.19600E+00 0.00000E+00
 -1       387 1.15350E+01 4.00625E+00 0.00000E+00
 -1       388 1.45350E+01 4.00625E+00 0.00000E+00
 -1       389 1.75350E+01 4.00625E+00 0.00000E+00
 -1       390 2.05350E+01 4.00625E+00 0.00000E+00
 -1       391 2.35350E+01 4.00625E+00 0.00000E+00
 -1       392 2.65350E+01 4.00625E+00 0.00000E+00
 -1       393 2.95350E+01 4.00625E+00 0.00000E+00
 -1       394 3.26850E+01 4.00625E+00 0.00000E+00
 -1       395 3.56850E+01 4.00625E+00 0.00000E+00
 -1       396 3.86850E+01 4.00625E+00 0.00000E+00
 -1       397 4.16850E+01 4.00625E+00 0.00000E+00
 -1       398 4.46850E+01 4.00625E+00 0.00000E+00
 -1       399 4.76850E+01 4.00625E+00 0.00000E+00
 -1       400 5.06850E+01 4.00625E+00 0.00000E+00
 -1       401 5.36850E+01 4.00625E+00 0.00000E+00
 -1       402 5.66850E+01 4.00625E+00 0.00000E+00
 -1       403 5.96850E+01 4.00625E+00 0.00000E+00
 -1       404 6.28350E+01 4.00625E+00 0.00000E+00
 -1       405 6.58350E+01 4.00625E+00 0.00000E+00
 -1       406 6.88350E+01 4.00625E+00 0.00000E+00
 -1       407 7.18350E+01 4.00625E+00 0.00000E+00
 -1       408 7.48350E+01 4.00625E+00 0.00000E+00
 -1       409 7.78350E+01 4.00625E+00 0.00000E+00
 -1       410 8.08350E+01 4.00625E+00 0.00000E+00
 -1       411 1.04850E+02 5.19600E+00 0.00000E+00
 -1       412 9.60003E+01 4.39034E+00 0.00000E+00
 -1       413 1.01850E+02 5.19600E+00 0.00000E+00
 -1       414 1.10850E+02 5.19600E+00 0.00000E+00
 -1       415 1.13850E+02 5.19600E+00 0.00000E+00
 -1       416 1.17000E+02 5.19600E+00 0.00000E+00
 -1       417 1.20000E+02 5.19600E+00 0.00000E+00
 -1       418 1.23000E+02 5.19600E+00 0.00000E+00
 -1       419 1.26000E+02 5.19600E+00 0.00000E+00
 -1       420 1.29000E+02 5.19600E+00 0.00000E+00
 -1       421 1.32000E+02 5.19600E+00 0.00000E+00
 -1       422 1.35000E+02 5.19600E+00 0.00000E+00
 -1       423 1.38000E+02 5.19600E+00 0.00000E+00
 -1       424 1.41000E+02 5.19600E+00 0.00000E+00
 -1       425 1.44000E+02 5.19600E+00 0.00000E+00
 -1       426 1.45875E+02 5.46000E+00 0.00000E+00
 -1       427 1.45152E+02 1.01490E+01 0.00000E+00
 -1       428 1.45514E+02 7.80450E+00 0.00000E+00
 -1       429 1.45152E+02 1.30990E+01 0.00000E+00
 -1       430 1.45152E+02 1.59990E+01 0.00000E+00
 -1       431 1.45152E+02 1.89490E+01 0.00000E+00
 -1       432 1.45152E+02 2.18990E+01 0.00000E+00
 -1       433 1.45152E+02 2.48490E+01 0.00000E+00
 -1       434 1.45152E+02 2.77990E+01 0.00000E+00
 -1       435 1.45152E+02 3.07490E+01 0.00000E+00
 -1       436 1.45152E+02 3.36490E+01 0.00000E+00
 -1       437 1.45152E+02 3.65990E+01 0.00000E+00
 -1       438 1.45152E+02 3.95490E+01 0.00000E+00
 -1       439 1.44651E+02 4.21765E+01 0.00000E+00
 -1       440 9.98175E+01 1.19370E+01 0.00000E+00
 -1       441 9.92872E+01 9.57332E+00 0.00000E+00
 -1       442 9.75819E+01 5.86419E+00 0.00000E+00
 -1       443 8.58450E+01 2.03121E+01 0.00000E+00
 -1       444 9.12965E+01 2.14425E+01 0.00000E+00
 -1       445 5.19600E+00 3.82125E+01 0.00000E+00
 -1       446 8.46571E+01 3.72660E+00 0.00000E+00
 -1       447 8.32311E+01 5.07919E+00 0.00000E+00
 -1       448 8.19804E+01 6.46709E+00 0.00000E+00
 -1       449 8.09437E+01 8.35197E+00 0.00000E+00
 -1       450 8.01982E+01 1.05869E+01 0.00000E+00
 -1       451 8.02157E+01 1.22728E+01 0.00000E+00
 -1       452 8.04881E+01 1.44302E+01 0.00000E+00
 -1       453 8.11078E+01 1.61530E+01 0.00000E+00
 -1       454 8.26927E+01 1.81579E+01 0.00000E+00
 -1       455 8.40405E+01 1.92533E+01 0.00000E+00
 -1       456 8.95727E+01 2.14172E+01 0.00000E+00
 -1       457 9.89251E+01 4.79317E+00 0.00000E+00
 -1       458 9.31379E+01 2.08122E+01 0.00000E+00
 -1       459 9.48131E+01 2.00615E+01 0.00000E+00
 -1       460 9.64513E+01 1.88182E+01 0.00000E+00
 -1       461 9.75916E+01 1.73162E+01 0.00000E+00
 -1       462 9.85617E+01 1.56921E+01 0.00000E+00
 -1       463 9.95567E+01 1.36009E+01 0.00000E+00
 -1       464 9.87960E+01 7.78815E+00 0.00000E+00
 -1       465 8.81870E+01 2.22317E+01 0.00000E+00
 -1       466 8.25990E+01 4.23775E+00 0.00000E+00
 -1       467 9.42990E+01 3.81883E+00 0.00000E+00
 -1       468 8.09694E+01 1.77222E+01 0.00000E+00
 -1       469 7.79400E+00 3.08500E+01 0.00000E+00
 -1       470 7.79400E+00 3.38000E+01 0.00000E+00
 -1       471 7.79400E+00 2.49500E+01 0.00000E+00
 -1       472 7.79400E+00 2.20000E+01 0.00000E+00
 -1       473 7.79400E+00 1.91000E+01 0.00000E+00
 -1       474 7.79400E+00 1.61500E+01 0.00000E+00
 -1       475 7.79400E+00 1.32000E+01 0.00000E+00
 -1       476 7.79400E+00 1.02500E+01 0.00000E+00
 -1       477 7.79400E+00 7.30000E+00 0.00000E+00
 -1       478 8.16450E+00 5.65312E+00 0.00000E+00
 -1       479 1.06500E+01 4.22060E+01 0.00000E+00
 -1       480 1.60350E+01 6.60425E+00 0.00000E+00
 -1       481 1.30350E+01 6.60425E+00 0.00000E+00
 -1       482 7.92300E+00 4.16780E+01 0.00000E+00
 -1       483 1.09350E+02 7.79400E+00 0.00000E+00
 -1       484 1.36500E+01 4.22060E+01 0.00000E+00
 -1       485 1.66500E+01 4.22060E+01 0.00000E+00
 -1       486 1.96500E+01 4.22060E+01 0.00000E+00
 -1       487 2.26500E+01 4.22060E+01 0.00000E+00
 -1       488 2.56500E+01 4.22060E+01 0.00000E+00
 -1       489 2.86500E+01 4.22060E+01 0.00000E+00
 -1       490 3.16500E+01 4.22060E+01 0.00000E+00
 -1       491 3.46500E+01 4.22060E+01 0.00000E+00
 -1       492 3.76500E+01 4.22060E+01 0.00000E+00
 -1       493 4.06500E+01 4.22060E+01 0.00000E+00
 -1       494 4.36500E+01 4.22060E+01 0.00000E+00
 -1       495 4.66500E+01 4.22060E+01 0.00000E+00
 -1       496 4.96500E+01 4.22060E+01 0.00000E+00
 -1       497 5.26500E+01 4.22060E+01 0.00000E+00
 -1       498 5.56500E+01 4.22060E+01 0.00000E+00
 -1       499 5.86500E+01 4.22060E+01 0.00000E+00
 -1       500 6.16500E+01 4.22060E+01 0.00000E+00
 -1       501 6.46500E+01 4.22060E+01 0.00000E+00
 -1       502 6.76500E+01 4.22060E+01 0.00000E+00
 -1       503 7.06500E+01 4.22060E+01 0.00000E+00
 -1       504 7.36500E+01 4.22060E+01 0.00000E+00
 -1       505 7.66500E+01 4.22060E+01 0.00000E+00
 -1       506 7.96500E+01 4.22060E+01 0.00000E+00
 -1       507 8.26500E+01 4.22060E+01 0.00000E+00
 -1       508 8.56500E+01 4.22060E+01 0.00000E+00
 -1       509 8.86500E+01 4.22060E+01 0.00000E+00
 -1       510 9.16500E+01 4.22060E+01 0.00000E+00
 -1       511 9.46500E+01 4.22060E+01 0.00000E+00
 -1       512 9.76500E+01 4.22060E+01 0.00000E+00
 -1       513 1.00650E+02 4.22060E+01 0.00000E+00
 -1       514 1.03650E+02 4.22060E+01 0.00000E+00
 -1       515 1.06650E+02 4.22060E+01 0.00000E+00
 -1       516 1.09650E+02 4.22060E+01 0.00000E+00
 -1       517 1.12650E+02 4.22060E+01 0.00000E+00
 -1       518 1.15650E+02 4.22060E+01 0.00000E+00
 -1       519 1.18650E+02 4.22060E+01 0.00000E+00
 -1       520 1.21650E+02 4.22060E+01 0.00000E+00
 -1       521 1.24650E+02 4.22060E+01 0.00000E+00
 -1       522 1.27650E+02 4.22060E+01 0.00000E+00
 -1       523 1.30650E+02 4.22060E+01 0.00000E+00
 -1       524 1.33650E+02 4.22060E+01 0.00000E+00
 -1       525 1.36650E+02 4.22060E+01 0.00000E+00
 -1       526 1.39650E+02 4.22060E+01 0.00000E+00
 -1       527 1.42150E+02 4.21912E+01 0.00000E+00
 -1       528 1.12350E+02 7.79400E+00 0.00000E+00
 -1       529 1.05997E+01 6.12869E+00 0.00000E+00
 -1       530 1.90350E+01 6.60425E+00 0.00000E+00
 -1       531 2.20350E+01 6.60425E+00 0.00000E+00
 -1       532 2.50350E+01 6.60425E+00 0.00000E+00
 -1       533 2.80350E+01 6.60425E+00 0.00000E+00
 -1       534 3.11850E+01 6.60425E+00 0.00000E+00
 -1       535 3.41850E+01 6.60425E+00 0.00000E+00
 -1       536 3.71850E+01 6.60425E+00 0.00000E+00
 -1       537 4.01850E+01 6.60425E+00 0.00000E+00
 -1       538 4.31850E+01 6.60425E+00 0.00000E+00
 -1       539 4.61850E+01 6.60425E+00 0.00000E+00
 -1       540 4.91850E+01 6.60425E+00 0.00000E+00
 -1       541 5.21850E+01 6.60425E+00 0.00000E+00
 -1       542 5.51850E+01 6.60425E+00 0.00000E+00
 -1       543 5.81850E+01 6.60425E+00 0.00000E+00
 -1       544 6.13350E+01 6.60425E+00 0.00000E+00
 -1       545 6.43350E+01 6.60425E+00 0.00000E+00
 -1       546 6.73350E+01 6.60425E+00 0.00000E+00
 -1       547 7.03350E+01 6.60425E+00 0.00000E+00
 -1       548 7.33350E+01 6.60425E+00 0.00000E+00
 -1       549 7.63350E+01 6.60425E+00 0.00000E+00
 -1       550 8.24434E+01 1.98415E+01 0.00000E+00
 -1       551 1.00534E+02 8.27016E+00 0.00000E+00
 -1       552 7.92619E+01 9.03273E+00 0.00000E+00
 -1       553 1.06350E+02 7.79400E+00 0.00000E+00
 -1       554 1.15500E+02 7.79400E+00 0.00000E+00
 -1       555 1.18500E+02 7.79400E+00 0.00000E+00
 -1       556 1.21500E+02 7.79400E+00 0.00000E+00
 -1       557 1.24500E+02 7.79400E+00 0.00000E+00
 -1       558 1.27500E+02 7.79400E+00 0.00000E+00
 -1       559 1.30500E+02 7.79400E+00 0.00000E+00
 -1       560 1.33500E+02 7.79400E+00 0.00000E+00
 -1       561 1.36500E+02 7.79400E+00 0.00000E+00
 -1       562 1.39500E+02 7.79400E+00 0.00000E+00
 -1       563 1.42500E+02 7.79400E+00 0.00000E+00
 -1       564 1.42554E+02 1.45490E+01 0.00000E+00
 -1       565 1.42554E+02 1.74990E+01 0.00000E+00
 -1       566 1.42554E+02 1.15990E+01 0.00000E+00
 -1       567 1.42554E+02 2.04490E+01 0.00000E+00
 -1       568 1.42554E+02 2.33990E+01 0.00000E+00
 -1       569 1.42554E+02 2.63490E+01 0.00000E+00
 -1       570 1.42554E+02 2.92990E+01 0.00000E+00
 -1       571 1.42554E+02 3.21990E+01 0.00000E+00
 -1       572 1.42554E+02 3.51490E+01 0.00000E+00
 -1       573 1.42554E+02 3.80990E+01 0.00000E+00
 -1       574 1.00381E+02 1.52754E+01 0.00000E+00
 -1       575 8.58686E+01 2.21628E+01 0.00000E+00
 -1       576 1.01299E+02 1.30216E+01 0.00000E+00
 -1       577 1.01226E+02 1.03797E+01 0.00000E+00
 -1       578 9.04046E+01 2.34799E+01 0.00000E+00
 -1       579 1.03350E+02 7.79400E+00 0.00000E+00
 -1       580 8.01795E+01 6.70410E+00 0.00000E+00
 -1       581 7.79400E+00 2.79000E+01 0.00000E+00
 -1       582 9.46084E+01 2.18491E+01 0.00000E+00
 -1       583 7.87432E+01 1.14451E+01 0.00000E+00
 -1       584 9.95491E+01 1.73836E+01 0.00000E+00
 -1       585 7.92629E+01 1.58437E+01 0.00000E+00
 -1       586 9.66691E+01 2.08060E+01 0.00000E+00
 -1       587 7.87334E+01 1.35559E+01 0.00000E+00
 -1       588 9.26912E+01 2.25122E+01 0.00000E+00
 -1       589 8.40641E+01 2.11041E+01 0.00000E+00
 -1       590 9.82540E+01 1.90030E+01 0.00000E+00
 -1       591 7.79400E+00 3.67375E+01 0.00000E+00
 -1       592 1.00078E+02 6.53792E+00 0.00000E+00
 -1       593 8.07201E+01 1.94059E+01 0.00000E+00
 -1       594 1.42352E+02 4.01451E+01 0.00000E+00
 -1       595 7.91245E+01 1.74130E+01 0.00000E+00
 -1       596 1.03920E+01 3.23250E+01 0.00000E+00
 -1       597 1.03920E+01 2.05500E+01 0.00000E+00
 -1       598 1.03920E+01 2.35000E+01 0.00000E+00
 -1       599 1.03920E+01 1.46750E+01 0.00000E+00
 -1       600 1.03920E+01 1.17250E+01 0.00000E+00
 -1       601 2.35350E+01 9.20225E+00 0.00000E+00
 -1       602 2.05350E+01 9.20225E+00 0.00000E+00
 -1       603 9.78035E+00 3.93914E+01 0.00000E+00
 -1       604 1.75350E+01 9.20225E+00 0.00000E+00
 -1       605 1.27804E+01 3.93914E+01 0.00000E+00
 -1       606 1.10850E+02 1.03470E+01 0.00000E+00
 -1       607 1.57804E+01 3.93914E+01 0.00000E+00
 -1       608 1.87804E+01 3.93914E+01 0.00000E+00
 -1       609 2.17804E+01 3.93914E+01 0.00000E+00
 -1       610 2.47804E+01 3.93914E+01 0.00000E+00
 -1       611 2.77804E+01 3.93914E+01 0.00000E+00
 -1       612 3.07804E+01 3.93914E+01 0.00000E+00
 -1       613 3.37803E+01 3.93914E+01 0.00000E+00
 -1       614 3.67803E+01 3.93914E+01 0.00000E+00
 -1       615 3.97803E+01 3.93914E+01 0.00000E+00
 -1       616 4.27803E+01 3.93914E+01 0.00000E+00
 -1       617 4.57803E+01 3.93914E+01 0.00000E+00
 -1       618 4.87803E+01 3.93914E+01 0.00000E+00
 -1       619 5.17803E+01 3.93914E+01 0.00000E+00
 -1       620 5.47803E+01 3.93914E+01 0.00000E+00
 -1       621 5.77803E+01 3.93914E+01 0.00000E+00
 -1       622 6.07803E+01 3.93914E+01 0.00000E+00
 -1       623 6.37803E+01 3.93914E+01 0.00000E+00
 -1       624 6.67803E+01 3.93914E+01 0.00000E+00
 -1       625 6.97803E+01 3.93914E+01 0.00000E+00
 -1       626 7.27803E+01 3.93914E+01 0.00000E+00
 -1       627 7.57803E+01 3.93914E+01 0.00000E+00
 -1       628 7.87803E+01 3.93914E+01 0.00000E+00
 -1       629 8.17803E+01 3.93914E+01 0.00000E+00
 -1       630 8.47803E+01 3.93914E+01 0.00000E+00
 -1       631 8.77803E+01 3.93914E+01 0.00000E+00
 -1       632 9.07803E+01 3.93914E+01 0.00000E+00
 -1       633 9.37803E+01 3.93914E+01 0.00000E+00
 -1       634 9.67803E+01 3.93914E+01 0.00000E+00
 -1       635 9.97803E+01 3.93914E+01 0.00000E+00
 -1       636 1.02780E+02 3.93914E+01 0.00000E+00
 -1       637 1.05780E+02 3.93914E+01 0.00000E+00
 -1       638 1.08780E+02 3.93914E+01 0.00000E+00
 -1       639 1.11780E+02 3.93914E+01 0.00000E+00
 -1       640 1.14780E+02 3.93914E+01 0.00000E+00
 -1       641 1.17780E+02 3.93914E+01 0.00000E+00
 -1       642 1.20780E+02 3.93914E+01 0.00000E+00
 -1       643 1.23780E+02 3.93914E+01 0.00000E+00
 -1       644 1.26780E+02 3.93914E+01 0.00000E+00
 -1       645 1.29780E+02 3.93914E+01 0.00000E+00
 -1       646 1.32780E+02 3.93914E+01 0.00000E+00
 -1       647 1.35780E+02 3.93914E+01 0.00000E+00
 -1       648 1.38780E+02 3.93914E+01 0.00000E+00
 -1       649 1.03144E+02 1.16487E+01 0.00000E+00
 -1       650 2.65350E+01 9.20225E+00 0.00000E+00
 -1       651 2.96850E+01 9.20225E+00 0.00000E+00
 -1       652 3.26850E+01 9.20225E+00 0.00000E+00
 -1       653 3.56850E+01 9.20225E+00 0.00000E+00
 -1       654 3.86850E+01 9.20225E+00 0.00000E+00
 -1       655 4.16850E+01 9.20225E+00 0.00000E+00
 -1       656 4.46850E+01 9.20225E+00 0.00000E+00
 -1       657 4.76850E+01 9.20225E+00 0.00000E+00
 -1       658 5.06850E+01 9.20225E+00 0.00000E+00
 -1       659 5.36850E+01 9.20225E+00 0.00000E+00
 -1       660 5.66850E+01 9.20225E+00 0.00000E+00
 -1       661 5.98350E+01 9.20225E+00 0.00000E+00
 -1       662 6.28350E+01 9.20225E+00 0.00000E+00
 -1       663 6.58350E+01 9.20225E+00 0.00000E+00
 -1       664 6.88350E+01 9.20225E+00 0.00000E+00
 -1       665 7.18350E+01 9.20225E+00 0.00000E+00
 -1       666 7.48350E+01 9.20225E+00 0.00000E+00
 -1       667 1.02430E+02 8.81629E+00 0.00000E+00
 -1       668 8.21997E+01 2.18258E+01 0.00000E+00
 -1       669 1.07850E+02 1.03470E+01 0.00000E+00
 -1       670 1.03920E+01 1.76125E+01 0.00000E+00
 -1       671 1.20000E+02 1.03920E+01 0.00000E+00
 -1       672 1.23000E+02 1.03920E+01 0.00000E+00
 -1       673 1.26000E+02 1.03920E+01 0.00000E+00
 -1       674 1.29000E+02 1.03920E+01 0.00000E+00
 -1       675 1.32000E+02 1.03920E+01 0.00000E+00
 -1       676 1.35000E+02 1.03920E+01 0.00000E+00
 -1       677 1.38000E+02 1.03920E+01 0.00000E+00
 -1       678 1.40277E+02 1.09955E+01 0.00000E+00
 -1       679 8.69769E+01 2.39116E+01 0.00000E+00
 -1       680 1.39956E+02 2.19240E+01 0.00000E+00
 -1       681 1.39956E+02 1.60240E+01 0.00000E+00
 -1       682 1.39956E+02 1.89740E+01 0.00000E+00
 -1       683 1.40117E+02 1.35098E+01 0.00000E+00
 -1       684 1.39956E+02 2.48740E+01 0.00000E+00
 -1       685 1.39956E+02 2.78240E+01 0.00000E+00
 -1       686 1.39956E+02 3.07240E+01 0.00000E+00
 -1       687 1.39956E+02 3.36740E+01 0.00000E+00
 -1       688 1.39956E+02 3.66240E+01 0.00000E+00
 -1       689 1.17000E+02 1.03920E+01 0.00000E+00
 -1       690 1.45350E+01 9.20225E+00 0.00000E+00
 -1       691 8.41408E+01 2.30405E+01 0.00000E+00
 -1       692 1.02428E+02 1.47954E+01 0.00000E+00
 -1       693 7.73258E+01 9.87840E+00 0.00000E+00
 -1       694 7.71070E+01 1.24929E+01 0.00000E+00
 -1       695 9.42652E+01 2.39599E+01 0.00000E+00
 -1       696 9.63259E+01 2.29169E+01 0.00000E+00
 -1       697 1.13925E+02 1.03695E+01 0.00000E+00
 -1       698 8.91944E+01 2.51598E+01 0.00000E+00
 -1       699 1.01596E+02 1.69035E+01 0.00000E+00
 -1       700 1.00241E+02 1.92645E+01 0.00000E+00
 -1       701 9.19786E+01 2.49275E+01 0.00000E+00
 -1       702 9.87497E+01 2.10369E+01 0.00000E+00
 -1       703 7.73272E+01 1.50865E+01 0.00000E+00
 -1       704 1.15351E+01 9.20228E+00 0.00000E+00
 -1       705 1.03920E+01 2.64500E+01 0.00000E+00
 -1       706 1.03920E+01 8.77500E+00 0.00000E+00
 -1       707 1.04274E+02 1.34225E+01 0.00000E+00
 -1       708 8.04765E+01 2.13902E+01 0.00000E+00
 -1       709 7.88752E+01 1.90966E+01 0.00000E+00
 -1       710 1.05332E+02 1.01091E+01 0.00000E+00
 -1       711 1.03920E+01 3.52625E+01 0.00000E+00
 -1       712 8.52491E+01 2.47893E+01 0.00000E+00
 -1       713 7.71889E+01 1.66557E+01 0.00000E+00
 -1       714 1.03920E+01 2.93875E+01 0.00000E+00
 -1       715 9.84066E+01 2.31477E+01 0.00000E+00
 -1       716 7.46163E+01 1.18167E+01 0.00000E+00
 -1       717 1.29900E+01 1.32000E+01 0.00000E+00
 -1       718 2.20350E+01 1.18003E+01 0.00000E+00
 -1       719 8.21716E+01 2.40291E+01 0.00000E+00
 -1       720 2.81100E+01 1.18003E+01 0.00000E+00
 -1       721 1.12804E+01 3.67934E+01 0.00000E+00
 -1       722 1.72804E+01 3.67934E+01 0.00000E+00
 -1       723 2.02804E+01 3.67934E+01 0.00000E+00
 -1       724 2.32804E+01 3.67934E+01 0.00000E+00
 -1       725 2.62804E+01 3.67934E+01 0.00000E+00
 -1       726 2.92804E+01 3.67934E+01 0.00000E+00
 -1       727 3.22803E+01 3.67934E+01 0.00000E+00
 -1       728 3.52803E+01 3.67934E+01 0.00000E+00
 -1       729 3.82803E+01 3.67934E+01 0.00000E+00
 -1       730 4.12803E+01 3.67934E+01 0.00000E+00
 -1       731 4.42803E+01 3.67934E+01 0.00000E+00
 -1       732 4.72803E+01 3.67934E+01 0.00000E+00
 -1       733 5.02803E+01 3.67934E+01 0.00000E+00
 -1       734 5.32803E+01 3.67934E+01 0.00000E+00
 -1       735 5.62803E+01 3.67934E+01 0.00000E+00
 -1       736 5.92803E+01 3.67934E+01 0.00000E+00
 -1       737 6.22803E+01 3.67934E+01 0.00000E+00
 -1       738 6.52803E+01 3.67934E+01 0.00000E+00
 -1       739 6.82803E+01 3.67934E+01 0.00000E+00
 -1       740 7.12803E+01 3.67934E+01 0.00000E+00
 -1       741 7.42803E+01 3.67934E+01 0.00000E+00
 -1       742 7.72803E+01 3.67934E+01 0.00000E+00
 -1       743 8.02803E+01 3.67934E+01 0.00000E+00
 -1       744 8.32803E+01 3.67934E+01 0.00000E+00
 -1       745 8.62803E+01 3.67934E+01 0.00000E+00
 -1       746 8.92803E+01 3.67934E+01 0.00000E+00
 -1       747 9.22803E+01 3.67934E+01 0.00000E+00
 -1       748 9.52803E+01 3.67934E+01 0.00000E+00
 -1       749 9.82803E+01 3.67934E+01 0.00000E+00
 -1       750 1.01280E+02 3.67934E+01 0.00000E+00
 -1       751 1.04280E+02 3.67934E+01 0.00000E+00
 -1       752 1.07280E+02 3.67934E+01 0.00000E+00
 -1       753 1.10280E+02 3.67934E+01 0.00000E+00
 -1       754 1.13280E+02 3.67934E+01 0.00000E+00
 -1       755 1.16280E+02 3.67934E+01 0.00000E+00
 -1       756 1.19280E+02 3.67934E+01 0.00000E+00
 -1       757 1.22280E+02 3.67934E+01 0.00000E+00
 -1       758 1.25280E+02 3.67934E+01 0.00000E+00
 -1       759 1.28280E+02 3.67934E+01 0.00000E+00
 -1       760 1.31280E+02 3.67934E+01 0.00000E+00
 -1       761 1.34280E+02 3.67934E+01 0.00000E+00
 -1       762 1.37118E+02 3.67087E+01 0.00000E+00
 -1       763 2.50350E+01 1.18003E+01 0.00000E+00
 -1       764 1.06398E+02 1.22692E+01 0.00000E+00
 -1       765 3.41850E+01 1.18003E+01 0.00000E+00
 -1       766 3.71850E+01 1.18003E+01 0.00000E+00
 -1       767 4.01850E+01 1.18003E+01 0.00000E+00
 -1       768 4.31850E+01 1.18003E+01 0.00000E+00
 -1       769 4.61850E+01 1.18003E+01 0.00000E+00
 -1       770 4.91850E+01 1.18003E+01 0.00000E+00
 -1       771 5.21850E+01 1.18003E+01 0.00000E+00
 -1       772 5.51850E+01 1.18003E+01 0.00000E+00
 -1       773 5.83350E+01 1.18003E+01 0.00000E+00
 -1       774 6.13350E+01 1.18003E+01 0.00000E+00
 -1       775 6.43350E+01 1.18003E+01 0.00000E+00
 -1       776 6.73350E+01 1.18003E+01 0.00000E+00
 -1       777 7.03350E+01 1.18003E+01 0.00000E+00
 -1       778 7.84720E+01 7.74457E+00 0.00000E+00
 -1       779 1.27500E+02 1.29900E+01 0.00000E+00
 -1       780 1.21500E+02 1.29900E+01 0.00000E+00
 -1       781 1.30500E+02 1.29900E+01 0.00000E+00
 -1       782 1.33500E+02 1.29900E+01 0.00000E+00
 -1       783 1.36500E+02 1.29900E+01 0.00000E+00
 -1       784 1.38308E+02 1.32499E+01 0.00000E+00
 -1       785 1.37358E+02 2.92740E+01 0.00000E+00
 -1       786 1.37358E+02 2.63240E+01 0.00000E+00
 -1       787 1.37358E+02 2.33740E+01 0.00000E+00
 -1       788 1.37358E+02 3.22240E+01 0.00000E+00
 -1       789 1.37238E+02 3.44663E+01 0.00000E+00
 -1       790 8.74667E+01 2.60375E+01 0.00000E+00
 -1       791 7.48364E+01 1.44104E+01 0.00000E+00
 -1       792 1.18500E+02 1.29900E+01 0.00000E+00
 -1       793 1.60350E+01 1.18003E+01 0.00000E+00
 -1       794 1.37358E+02 2.04240E+01 0.00000E+00
 -1       795 1.09350E+02 1.25648E+01 0.00000E+00
 -1       796 1.37358E+02 1.74740E+01 0.00000E+00
 -1       797 9.07430E+01 2.69198E+01 0.00000E+00
 -1       798 3.11850E+01 1.18003E+01 0.00000E+00
 -1       799 1.42804E+01 3.67934E+01 0.00000E+00
 -1       800 1.90350E+01 1.18003E+01 0.00000E+00
 -1       801 9.62215E+01 2.52677E+01 0.00000E+00
 -1       802 1.29900E+01 2.20250E+01 0.00000E+00
 -1       803 1.00936E+02 2.13628E+01 0.00000E+00
 -1       804 1.02551E+02 1.90214E+01 0.00000E+00
 -1       805 1.24500E+02 1.29900E+01 0.00000E+00
 -1       806 9.39349E+01 2.62353E+01 0.00000E+00
 -1       807 1.03608E+02 1.64789E+01 0.00000E+00
 -1       808 8.04483E+01 2.35935E+01 0.00000E+00
 -1       809 1.29900E+01 1.90875E+01 0.00000E+00
 -1       810 1.29900E+01 1.61375E+01 0.00000E+00
 -1       811 7.86316E+01 2.10809E+01 0.00000E+00
 -1       812 8.90153E+01 2.77975E+01 0.00000E+00
 -1       813 1.37833E+02 1.53619E+01 0.00000E+00
 -1       814 7.46981E+01 1.59796E+01 0.00000E+00
 -1       815 1.29900E+01 2.49750E+01 0.00000E+00
 -1       816 7.69395E+01 1.83394E+01 0.00000E+00
 -1       817 8.32799E+01 2.57779E+01 0.00000E+00
 -1       818 1.12425E+02 1.25873E+01 0.00000E+00
 -1       819 1.29900E+01 3.08563E+01 0.00000E+00
 -1       820 1.00593E+02 2.34737E+01 0.00000E+00
 -1       821 1.29900E+01 3.37938E+01 0.00000E+00
 -1       822 1.15425E+02 1.29675E+01 0.00000E+00
 -1       823 1.05453E+02 1.51061E+01 0.00000E+00
 -1       824 8.54974E+01 2.70261E+01 0.00000E+00
 -1       825 2.35350E+01 1.43982E+01 0.00000E+00
 -1       826 2.17804E+01 3.41954E+01 0.00000E+00
 -1       827 2.47804E+01 3.41954E+01 0.00000E+00
 -1       828 2.77804E+01 3.41954E+01 0.00000E+00
 -1       829 3.07804E+01 3.41954E+01 0.00000E+00
 -1       830 3.37803E+01 3.41954E+01 0.00000E+00
 -1       831 3.67803E+01 3.41954E+01 0.00000E+00
 -1       832 3.97803E+01 3.41954E+01 0.00000E+00
 -1       833 4.27803E+01 3.41954E+01 0.00000E+00
 -1       834 4.57803E+01 3.41954E+01 0.00000E+00
 -1       835 4.87803E+01 3.41954E+01 0.00000E+00
 -1       836 5.17803E+01 3.41954E+01 0.00000E+00
 -1       837 5.47803E+01 3.41954E+01 0.00000E+00
 -1       838 5.77803E+01 3.41954E+01 0.00000E+00
 -1       839 6.07803E+01 3.41954E+01 0.00000E+00
 -1       840 6.37803E+01 3.41954E+01 0.00000E+00
 -1       841 6.67803E+01 3.41954E+01 0.00000E+00
 -1       842 6.97803E+01 3.41954E+01 0.00000E+00
 -1       843 7.27803E+01 3.41954E+01 0.00000E+00
 -1       844 7.57803E+01 3.41954E+01 0.00000E+00
 -1       845 7.87803E+01 3.41954E+01 0.00000E+00
 -1       846 8.17803E+01 3.41954E+01 0.00000E+00
 -1       847 8.47803E+01 3.41954E+01 0.00000E+00
 -1       848 8.77803E+01 3.41954E+01 0.00000E+00
 -1       849 9.07803E+01 3.41954E+01 0.00000E+00
 -1       850 9.37803E+01 3.41954E+01 0.00000E+00
 -1       851 9.67803E+01 3.41954E+01 0.00000E+00
 -1       852 9.97803E+01 3.41954E+01 0.00000E+00
 -1       853 1.02780E+02 3.41954E+01 0.00000E+00
 -1       854 1.05780E+02 3.41954E+01 0.00000E+00
 -1       855 1.08780E+02 3.41954E+01 0.00000E+00
 -1       856 1.11780E+02 3.41954E+01 0.00000E+00
 -1       857 1.14780E+02 3.41954E+01 0.00000E+00
 -1       858 1.17780E+02 3.41954E+01 0.00000E+00
 -1       859 1.20780E+02 3.41954E+01 0.00000E+00
 -1       860 1.23780E+02 3.41954E+01 0.00000E+00
 -1       861 1.26780E+02 3.41954E+01 0.00000E+00
 -1       862 1.29780E+02 3.41954E+01 0.00000E+00
 -1       863 1.32780E+02 3.41954E+01 0.00000E+00
 -1       864 1.35009E+02 3.43309E+01 0.00000E+00
 -1       865 3.86850E+01 1.43982E+01 0.00000E+00
 -1       866 2.66100E+01 1.43982E+01 0.00000E+00
 -1       867 3.56850E+01 1.43982E+01 0.00000E+00
 -1       868 4.46850E+01 1.43982E+01 0.00000E+00
 -1       869 4.76850E+01 1.43982E+01 0.00000E+00
 -1       870 5.06850E+01 1.43982E+01 0.00000E+00
 -1       871 5.36850E+01 1.43982E+01 0.00000E+00
 -1       872 5.68350E+01 1.43982E+01 0.00000E+00
 -1       873 5.98350E+01 1.43982E+01 0.00000E+00
 -1       874 6.28350E+01 1.43982E+01 0.00000E+00
 -1       875 6.58350E+01 1.43982E+01 0.00000E+00
 -1       876 6.88350E+01 1.43982E+01 0.00000E+00
 -1       877 1.23000E+02 1.55880E+01 0.00000E+00
 -1       878 1.57804E+01 3.41954E+01 0.00000E+00
 -1       879 1.60350E+01 1.47378E+01 0.00000E+00
 -1       880 1.32000E+02 1.55880E+01 0.00000E+00
 -1       881 1.26000E+02 1.55880E+01 0.00000E+00
 -1       882 1.03569E+02 2.14517E+01 0.00000E+00
 -1       883 1.29000E+02 1.55880E+01 0.00000E+00
 -1       884 1.34760E+02 2.77990E+01 0.00000E+00
 -1       885 9.89750E+01 2.59197E+01 0.00000E+00
 -1       886 1.34760E+02 3.07490E+01 0.00000E+00
 -1       887 1.34760E+02 2.48490E+01 0.00000E+00
 -1       888 3.26850E+01 1.43982E+01 0.00000E+00
 -1       889 1.34760E+02 2.18990E+01 0.00000E+00
 -1       890 1.20000E+02 1.55880E+01 0.00000E+00
 -1       891 1.08405E+02 1.54016E+01 0.00000E+00
 -1       892 4.16850E+01 1.43982E+01 0.00000E+00
 -1       893 1.29900E+01 2.79188E+01 0.00000E+00
 -1       894 1.34760E+02 1.89490E+01 0.00000E+00
 -1       895 2.96475E+01 1.43982E+01 0.00000E+00
 -1       896 1.87804E+01 3.41954E+01 0.00000E+00
 -1       897 9.28040E+01 2.87461E+01 0.00000E+00
 -1       898 1.04973E+02 1.85368E+01 0.00000E+00
 -1       899 9.59425E+01 2.77939E+01 0.00000E+00
 -1       900 7.18357E+01 1.44043E+01 0.00000E+00
 -1       901 8.70460E+01 2.87861E+01 0.00000E+00
 -1       902 8.07253E+01 2.61240E+01 0.00000E+00
 -1       903 7.86034E+01 2.32842E+01 0.00000E+00
 -1       904 1.55880E+01 2.93875E+01 0.00000E+00
 -1       905 1.55880E+01 2.05562E+01 0.00000E+00
 -1       906 1.16925E+02 1.55655E+01 0.00000E+00
 -1       907 7.44487E+01 1.76632E+01 0.00000E+00
 -1       908 9.10762E+01 2.96237E+01 0.00000E+00
 -1       909 1.35630E+02 1.59695E+01 0.00000E+00
 -1       910 7.66959E+01 2.03237E+01 0.00000E+00
 -1       911 1.55880E+01 2.35063E+01 0.00000E+00
 -1       912 1.11480E+02 1.54242E+01 0.00000E+00
 -1       913 2.05350E+01 1.43982E+01 0.00000E+00
 -1       914 7.31422E+01 1.60338E+01 0.00000E+00
 -1       915 1.03226E+02 2.35625E+01 0.00000E+00
 -1       916 1.56842E+01 3.17914E+01 0.00000E+00
 -1       917 1.06818E+02 1.71639E+01 0.00000E+00
 -1       918 1.58115E+01 1.76470E+01 0.00000E+00
 -1       919 2.62804E+01 3.15974E+01 0.00000E+00
 -1       920 2.92804E+01 3.15974E+01 0.00000E+00
 -1       921 3.22803E+01 3.15974E+01 0.00000E+00
 -1       922 3.52803E+01 3.15974E+01 0.00000E+00
 -1       923 3.82803E+01 3.15974E+01 0.00000E+00
 -1       924 4.12803E+01 3.15974E+01 0.00000E+00
 -1       925 4.42803E+01 3.15974E+01 0.00000E+00
 -1       926 4.72803E+01 3.15974E+01 0.00000E+00
 -1       927 5.02803E+01 3.15974E+01 0.00000E+00
 -1       928 5.32803E+01 3.15974E+01 0.00000E+00
 -1       929 5.62803E+01 3.15974E+01 0.00000E+00
 -1       930 5.92803E+01 3.15974E+01 0.00000E+00
 -1       931 6.22803E+01 3.15974E+01 0.00000E+00
 -1       932 6.52803E+01 3.15974E+01 0.00000E+00
 -1       933 6.82803E+01 3.15974E+01 0.00000E+00
 -1       934 7.12803E+01 3.15974E+01 0.00000E+00
 -1       935 7.42803E+01 3.15974E+01 0.00000E+00
 -1       936 7.72803E+01 3.15974E+01 0.00000E+00
 -1       937 8.02803E+01 3.15974E+01 0.00000E+00
 -1       938 8.32803E+01 3.15974E+01 0.00000E+00
 -1       939 8.62803E+01 3.15974E+01 0.00000E+00
 -1       940 9.22803E+01 3.15974E+01 0.00000E+00
 -1       941 9.52803E+01 3.15974E+01 0.00000E+00
 -1       942 9.82803E+01 3.15974E+01 0.00000E+00
 -1       943 1.01280E+02 3.15974E+01 0.00000E+00
 -1       944 1.04280E+02 3.15974E+01 0.00000E+00
 -1       945 1.07280E+02 3.15974E+01 0.00000E+00
 -1       946 1.10280E+02 3.15974E+01 0.00000E+00
 -1       947 1.13280E+02 3.15974E+01 0.00000E+00
 -1       948 1.16280E+02 3.15974E+01 0.00000E+00
 -1       949 1.19280E+02 3.15974E+01 0.00000E+00
 -1       950 1.22280E+02 3.15974E+01 0.00000E+00
 -1       951 1.25280E+02 3.15974E+01 0.00000E+00
 -1       952 1.28280E+02 3.15974E+01 0.00000E+00
 -1       953 1.31280E+02 3.15974E+01 0.00000E+00
 -1       954 1.86842E+01 3.17914E+01 0.00000E+00
 -1       955 2.50725E+01 1.69963E+01 0.00000E+00
 -1       956 3.71850E+01 1.69963E+01 0.00000E+00
 -1       957 4.91850E+01 1.69963E+01 0.00000E+00
 -1       958 4.61850E+01 1.69963E+01 0.00000E+00
 -1       959 5.52600E+01 1.69963E+01 0.00000E+00
 -1       960 5.82600E+01 1.69963E+01 0.00000E+00
 -1       961 6.12600E+01 1.69963E+01 0.00000E+00
 -1       962 6.42600E+01 1.69963E+01 0.00000E+00
 -1       963 6.72600E+01 1.69963E+01 0.00000E+00
 -1       964 1.24500E+02 1.81860E+01 0.00000E+00
 -1       965 1.32162E+02 2.92740E+01 0.00000E+00
 -1       966 1.32162E+02 2.63240E+01 0.00000E+00
 -1       967 3.41850E+01 1.69963E+01 0.00000E+00
 -1       968 1.32162E+02 2.33740E+01 0.00000E+00
 -1       969 1.21500E+02 1.81860E+01 0.00000E+00
 -1       970 1.55880E+01 2.64469E+01 0.00000E+00
 -1       971 1.32162E+02 2.04240E+01 0.00000E+00
 -1       972 9.88246E+01 2.90668E+01 0.00000E+00
 -1       973 5.21850E+01 1.69963E+01 0.00000E+00
 -1       974 2.32804E+01 3.15974E+01 0.00000E+00
 -1       975 7.88804E+01 2.58147E+01 0.00000E+00
 -1       976 1.06612E+02 2.11215E+01 0.00000E+00
 -1       977 8.31143E+01 2.86660E+01 0.00000E+00
 -1       978 1.01608E+02 2.60086E+01 0.00000E+00
 -1       979 7.02607E+01 1.70023E+01 0.00000E+00
 -1       980 1.14203E+02 1.54948E+01 0.00000E+00
 -1       981 2.09823E+01 3.16944E+01 0.00000E+00
 -1       982 1.82901E+01 1.93006E+01 0.00000E+00
 -1       983 7.66678E+01 2.25270E+01 0.00000E+00
 -1       984 1.18425E+02 1.81635E+01 0.00000E+00
 -1       985 2.81100E+01 1.69963E+01 0.00000E+00
 -1       986 8.92803E+01 3.15974E+01 0.00000E+00
 -1       987 4.01850E+01 1.69963E+01 0.00000E+00
 -1       988 1.09260E+02 1.77667E+01 0.00000E+00
 -1       989 1.27500E+02 1.81860E+01 0.00000E+00
 -1       990 1.81860E+01 2.79172E+01 0.00000E+00
 -1       991 8.00266E+01 2.91741E+01 0.00000E+00
 -1       992 1.07936E+02 1.94441E+01 0.00000E+00
 -1       993 3.11475E+01 1.69963E+01 0.00000E+00
 -1       994 1.29831E+02 1.93050E+01 0.00000E+00
 -1       995 7.42051E+01 1.96475E+01 0.00000E+00
 -1       996 1.82901E+01 2.22506E+01 0.00000E+00
 -1       997 4.31850E+01 1.69963E+01 0.00000E+00
 -1       998 2.20725E+01 1.69963E+01 0.00000E+00
 -1       999 1.84351E+01 2.98543E+01 0.00000E+00
 -1      1000 1.89420E+01 1.73216E+01 0.00000E+00
 -1      1001 1.06269E+02 2.32324E+01 0.00000E+00
 -1      1002 1.29831E+02 2.22550E+01 0.00000E+00
 -1      1003 2.77804E+01 2.89994E+01 0.00000E+00
 -1      1004 6.87551E+01 1.95973E+01 0.00000E+00
 -1      1005 4.76850E+01 1.95942E+01 0.00000E+00
 -1      1006 7.69947E+01 2.83333E+01 0.00000E+00
 -1      1007 3.07804E+01 2.89994E+01 0.00000E+00
 -1      1008 3.37803E+01 2.89994E+01 0.00000E+00
 -1      1009 3.67803E+01 2.89994E+01 0.00000E+00
 -1      1010 3.97803E+01 2.89994E+01 0.00000E+00
 -1      1011 4.27803E+01 2.89994E+01 0.00000E+00
 -1      1012 4.57803E+01 2.89994E+01 0.00000E+00
 -1      1013 4.87803E+01 2.89994E+01 0.00000E+00
 -1      1014 5.17803E+01 2.89994E+01 0.00000E+00
 -1      1015 5.47803E+01 2.89994E+01 0.00000E+00
 -1      1016 5.77803E+01 2.89994E+01 0.00000E+00
 -1      1017 6.07803E+01 2.89994E+01 0.00000E+00
 -1      1018 6.37803E+01 2.89994E+01 0.00000E+00
 -1      1019 6.67803E+01 2.89994E+01 0.00000E+00
 -1      1020 6.97803E+01 2.89994E+01 0.00000E+00
 -1      1021 7.27803E+01 2.89994E+01 0.00000E+00
 -1      1022 1.02780E+02 2.89994E+01 0.00000E+00
 -1      1023 1.05780E+02 2.89994E+01 0.00000E+00
 -1      1024 1.08780E+02 2.89994E+01 0.00000E+00
 -1      1025 1.11780E+02 2.89994E+01 0.00000E+00
 -1      1026 1.14780E+02 2.89994E+01 0.00000E+00
 -1      1027 1.17780E+02 2.89994E+01 0.00000E+00
 -1      1028 1.20780E+02 2.89994E+01 0.00000E+00
 -1      1029 1.23780E+02 2.89994E+01 0.00000E+00
 -1      1030 1.26780E+02 2.89994E+01 0.00000E+00
 -1      1031 1.29471E+02 2.91367E+01 0.00000E+00
 -1      1032 7.16019E+01 1.86302E+01 0.00000E+00
 -1      1033 5.97600E+01 1.95942E+01 0.00000E+00
 -1      1034 5.67600E+01 1.95942E+01 0.00000E+00
 -1      1035 6.57551E+01 1.95973E+01 0.00000E+00
 -1      1036 5.36850E+01 1.95942E+01 0.00000E+00
 -1      1037 7.69448E+01 2.50574E+01 0.00000E+00
 -1      1038 3.56850E+01 1.95942E+01 0.00000E+00
 -1      1039 1.04584E+02 2.62187E+01 0.00000E+00
 -1      1040 1.29831E+02 2.52050E+01 0.00000E+00
 -1      1041 1.23000E+02 2.07840E+01 0.00000E+00
 -1      1042 1.82381E+01 2.50839E+01 0.00000E+00
 -1      1043 5.06850E+01 1.95942E+01 0.00000E+00
 -1      1044 6.27576E+01 1.95958E+01 0.00000E+00
 -1      1045 2.47804E+01 2.89994E+01 0.00000E+00
 -1      1046 1.12256E+02 1.83825E+01 0.00000E+00
 -1      1047 7.41770E+01 2.18508E+01 0.00000E+00
 -1      1048 1.19925E+02 2.07615E+01 0.00000E+00
 -1      1049 1.10932E+02 2.00599E+01 0.00000E+00
 -1      1050 4.46850E+01 1.95942E+01 0.00000E+00
 -1      1051 3.86850E+01 1.95942E+01 0.00000E+00
 -1      1052 2.35725E+01 1.95942E+01 0.00000E+00
 -1      1053 1.26000E+02 2.07840E+01 0.00000E+00
 -1      1054 1.09607E+02 2.17374E+01 0.00000E+00
 -1      1055 2.08881E+01 2.07756E+01 0.00000E+00
 -1      1056 3.26475E+01 1.95942E+01 0.00000E+00
 -1      1057 2.66100E+01 1.95942E+01 0.00000E+00
 -1      1058 2.08873E+01 2.85544E+01 0.00000E+00
 -1      1059 1.15703E+02 1.80928E+01 0.00000E+00
 -1      1060 2.09394E+01 2.57211E+01 0.00000E+00
 -1      1061 3.22803E+01 2.64014E+01 0.00000E+00
 -1      1062 3.52803E+01 2.64014E+01 0.00000E+00
 -1      1063 3.82803E+01 2.64014E+01 0.00000E+00
 -1      1064 4.12803E+01 2.64014E+01 0.00000E+00
 -1      1065 4.42803E+01 2.64014E+01 0.00000E+00
 -1      1066 4.72803E+01 2.64014E+01 0.00000E+00
 -1      1067 5.02803E+01 2.64014E+01 0.00000E+00
 -1      1068 5.32803E+01 2.64014E+01 0.00000E+00
 -1      1069 5.62803E+01 2.64014E+01 0.00000E+00
 -1      1070 5.92803E+01 2.64014E+01 0.00000E+00
 -1      1071 6.22803E+01 2.64014E+01 0.00000E+00
 -1      1072 6.52803E+01 2.64014E+01 0.00000E+00
 -1      1073 6.82803E+01 2.64014E+01 0.00000E+00
 -1      1074 7.12803E+01 2.64014E+01 0.00000E+00
 -1      1075 4.91850E+01 2.21922E+01 0.00000E+00
 -1      1076 7.15738E+01 2.08335E+01 0.00000E+00
 -1      1077 1.07584E+02 2.62187E+01 0.00000E+00
 -1      1078 1.10584E+02 2.62187E+01 0.00000E+00
 -1      1079 1.13584E+02 2.62187E+01 0.00000E+00
 -1      1080 1.16584E+02 2.62187E+01 0.00000E+00
 -1      1081 1.19584E+02 2.62187E+01 0.00000E+00
 -1      1082 1.22584E+02 2.62187E+01 0.00000E+00
 -1      1083 1.25584E+02 2.62187E+01 0.00000E+00
 -1      1084 1.27708E+02 2.57118E+01 0.00000E+00
 -1      1085 5.82600E+01 2.21922E+01 0.00000E+00
 -1      1086 6.72551E+01 2.21953E+01 0.00000E+00
 -1      1087 5.51850E+01 2.21922E+01 0.00000E+00
 -1      1088 7.41126E+01 2.57294E+01 0.00000E+00
 -1      1089 7.41448E+01 2.37901E+01 0.00000E+00
 -1      1090 2.96287E+01 1.95942E+01 0.00000E+00
 -1      1091 2.09138E+01 2.32484E+01 0.00000E+00
 -1      1092 2.35981E+01 2.20670E+01 0.00000E+00
 -1      1093 1.27915E+02 2.15195E+01 0.00000E+00
 -1      1094 2.62804E+01 2.64014E+01 0.00000E+00
 -1      1095 4.16850E+01 1.95942E+01 0.00000E+00
 -1      1096 2.92804E+01 2.64014E+01 0.00000E+00
 -1      1097 5.21850E+01 2.21922E+01 0.00000E+00
 -1      1098 2.36099E+01 2.60612E+01 0.00000E+00
 -1      1099 1.21443E+02 2.33707E+01 0.00000E+00
 -1      1100 1.13633E+02 2.08309E+01 0.00000E+00
 -1      1101 4.61850E+01 2.21922E+01 0.00000E+00
 -1      1102 6.42576E+01 2.21938E+01 0.00000E+00
 -1      1103 1.17203E+02 2.06908E+01 0.00000E+00
 -1      1104 1.24443E+02 2.33707E+01 0.00000E+00
 -1      1105 6.12588E+01 2.21930E+01 0.00000E+00
 -1      1106 1.12309E+02 2.25084E+01 0.00000E+00
 -1      1107 3.41662E+01 2.21922E+01 0.00000E+00
 -1      1108 1.27233E+02 2.37300E+01 0.00000E+00
 -1      1109 3.71662E+01 2.21922E+01 0.00000E+00
 -1      1110 3.11475E+01 2.21922E+01 0.00000E+00
 -1      1111 4.27803E+01 2.38034E+01 0.00000E+00
 -1      1112 7.15416E+01 2.27728E+01 0.00000E+00
 -1      1113 3.07804E+01 2.38034E+01 0.00000E+00
 -1      1114 1.18084E+02 2.36207E+01 0.00000E+00
 -1      1115 2.36040E+01 2.40641E+01 0.00000E+00
 -1      1116 2.67526E+01 2.28386E+01 0.00000E+00
 -1      1117 1.15108E+02 2.35248E+01 0.00000E+00
 -1      1118 3.97803E+01 2.38034E+01 0.00000E+00
 -1      1119 7.02918E+01 2.36831E+01 0.00000E+00
 -1      1120 0.00000E+00 4.85250E+01 0.00000E+00
 -1      1121 0.00000E+00 4.55750E+01 0.00000E+00
 -1      1122 0.00000E+00 4.26250E+01 0.00000E+00
 -1      1123 0.00000E+00 3.96750E+01 0.00000E+00
 -1      1124 0.00000E+00 3.67250E+01 0.00000E+00
 -1      1125 0.00000E+00 3.38000E+01 0.00000E+00
 -1      1126 0.00000E+00 3.08750E+01 0.00000E+00
 -1      1127 0.00000E+00 2.79250E+01 0.00000E+00
 -1      1128 0.00000E+00 2.49750E+01 0.00000E+00
 -1      1129 0.00000E+00 2.20250E+01 0.00000E+00
 -1      1130 0.00000E+00 1.90750E+01 0.00000E+00
 -1      1131 0.00000E+00 1.61500E+01 0.00000E+00
 -1      1132 0.00000E+00 1.32250E+01 0.00000E+00
 -1      1133 0.00000E+00 1.02750E+01 0.00000E+00
 -1      1134 0.00000E+00 7.32500E+00 0.00000E+00
 -1      1135 0.00000E+00 4.37500E+00 0.00000E+00
 -1      1136 0.00000E+00 1.45000E+00 0.00000E+00
 -1      1137 1.57500E+00 5.00000E+01 0.00000E+00
 -1      1138 4.65000E+00 5.00000E+01 0.00000E+00
 -1      1139 7.65000E+00 5.00000E+01 0.00000E+00
 -1      1140 1.06500E+01 5.00000E+01 0.00000E+00
 -1      1141 1.36500E+01 5.00000E+01 0.00000E+00
 -1      1142 1.66500E+01 5.00000E+01 0.00000E+00
 -1      1143 1.96500E+01 5.00000E+01 0.00000E+00
 -1      1144 2.26500E+01 5.00000E+01 0.00000E+00
 -1      1145 2.56500E+01 5.00000E+01 0.00000E+00
 -1      1146 2.86500E+01 5.00000E+01 0.00000E+00
 -1      1147 3.16500E+01 5.00000E+01 0.00000E+00
 -1      1148 3.46500E+01 5.00000E+01 0.00000E+00
 -1      1149 3.76500E+01 5.00000E+01 0.00000E+00
 -1      1150 4.06500E+01 5.00000E+01 0.00000E+00
 -1      1151 4.36500E+01 5.00000E+01 0.00000E+00
 -1      1152 4.66500E+01 5.00000E+01 0.00000E+00
 -1      1153 4.96500E+01 5.00000E+01 0.00000E+00
 -1      1154 5.26500E+01 5.00000E+01 0.00000E+00
 -1      1155 5.56500E+01 5.00000E+01 0.00000E+00
 -1      1156 5.86500E+01 5.00000E+01 0.00000E+00
 -1      1157 6.16500E+01 5.00000E+01 0.00000E+00
 -1      1158 6.46500E+01 5.00000E+01 0.00000E+00
 -1      1159 6.76500E+01 5.00000E+01 0.00000E+00
 -1      1160 7.06500E+01 5.00000E+01 0.00000E+00
 -1      1161 7.36500E+01 5.00000E+01 0.00000E+00
 -1      1162 7.66500E+01 5.00000E+01 0.00000E+00
 -1      1163 7.96500E+01 5.00000E+01 0.00000E+00
 -1      1164 8.26500E+01 5.00000E+01 0.00000E+00
 -1      1165 8.56500E+01 5.00000E+01 0.00000E+00
 -1      1166 8.86500E+01 5.00000E+01 0.00000E+00
 -1      1167 9.16500E+01 5.00000E+01 0.00000E+00
 -1      1168 9.46500E+01 5.00000E+01 0.00000E+00
 -1      1169 9.76500E+01 5.00000E+01 0.00000E+00
 -1      1170 1.00650E+02 5.00000E+01 0.00000E+00
 -1      1171 1.03650E+02 5.00000E+01 0.00000E+00
 -1      1172 1.06650E+02 5.00000E+01 0.00000E+00
 -1      1173 1.09650E+02 5.00000E+01 0.00000E+00
 -1      1174 1.12650E+02 5.00000E+01 0.00000E+00
 -1      1175 1.15650E+02 5.00000E+01 0.00000E+00
 -1      1176 1.18650E+02 5.00000E+01 0.00000E+00
 -1      1177 1.21650E+02 5.00000E+01 0.00000E+00
 -1      1178 1.24650E+02 5.00000E+01 0.00000E+00
 -1      1179 1.27650E+02 5.00000E+01 0.00000E+00
 -1      1180 1.30650E+02 5.00000E+01 0.00000E+00
 -1      1181 1.33650E+02 5.00000E+01 0.00000E+00
 -1      1182 1.36650E+02 5.00000E+01 0.00000E+00
 -1      1183 1.39650E+02 5.00000E+01 0.00000E+00
 -1      1184 1.42650E+02 5.00000E+01 0.00000E+00
 -1      1185 1.45650E+02 5.00000E+01 0.00000E+00
 -1      1186 1.48575E+02 5.00000E+01 0.00000E+00
 -1      1187 1.57500E+00 0.00000E+00 0.00000E+00
 -1      1188 4.65000E+00 0.00000E+00 0.00000E+00
 -1      1189 7.65000E+00 0.00000E+00 0.00000E+00
 -1      1190 1.06500E+01 0.00000E+00 0.00000E+00
 -1      1191 1.36500E+01 0.00000E+00 0.00000E+00
 -1      1192 1.66500E+01 0.00000E+00 0.00000E+00
 -1      1193 1.96500E+01 0.00000E+00 0.00000E+00
 -1      1194 2.26500E+01 0.00000E+00 0.00000E+00
 -1      1195 2.56500E+01 0.00000E+00 0.00000E+00
 -1      1196 2.86500E+01 0.00000E+00 0.00000E+00
 -1      1197 3.17250E+01 0.00000E+00 0.00000E+00
 -1      1198 3.48000E+01 0.00000E+00 0.00000E+00
 -1      1199 3.78000E+01 0.00000E+00 0.00000E+00
 -1      1200 4.08000E+01 0.00000E+00 0.00000E+00
 -1      1201 4.38000E+01 0.00000E+00 0.00000E+00
 -1      1202 4.68000E+01 0.00000E+00 0.00000E+00
 -1      1203 4.98000E+01 0.00000E+00 0.00000E+00
 -1      1204 5.28000E+01 0.00000E+00 0.00000E+00
 -1      1205 5.58000E+01 0.00000E+00 0.00000E+00
 -1      1206 5.88000E+01 0.00000E+00 0.00000E+00
 -1      1207 6.18750E+01 0.00000E+00 0.00000E+00
 -1      1208 6.49500E+01 0.00000E+00 0.00000E+00
 -1      1209 6.79500E+01 0.00000E+00 0.00000E+00
 -1      1210 7.09500E+01 0.00000E+00 0.00000E+00
 -1      1211 7.39500E+01 0.00000E+00 0.00000E+00
 -1      1212 7.69500E+01 0.00000E+00 0.00000E+00
 -1      1213 7.99500E+01 0.00000E+00 0.00000E+00
 -1      1214 8.28750E+01 0.00000E+00 0.00000E+00
 -1      1215 8.55000E+01 0.00000E+00 0.00000E+00
 -1      1216 8.79000E+01 0.00000E+00 0.00000E+00
 -1      1217 9.02250E+01 0.00000E+00 0.00000E+00
 -1      1218 9.23250E+01 0.00000E+00 0.00000E+00
 -1      1219 9.45750E+01 0.00000E+00 0.00000E+00
 -1      1220 9.73500E+01 0.00000E+00 0.00000E+00
 -1      1221 1.00350E+02 0.00000E+00 0.00000E+00
 -1      1222 1.03350E+02 0.00000E+00 0.00000E+00
 -1      1223 1.06350E+02 0.00000E+00 0.00000E+00
 -1      1224 1.09350E+02 0.00000E+00 0.00000E+00
 -1      1225 1.12350E+02 0.00000E+00 0.00000E+00
 -1      1226 1.15350E+02 0.00000E+00 0.00000E+00
 -1      1227 1.18425E+02 0.00000E+00 0.00000E+00
 -1      1228 1.21500E+02 0.00000E+00 0.00000E+00
 -1      1229 1.24500E+02 0.00000E+00 0.00000E+00
 -1      1230 1.27500E+02 0.00000E+00 0.00000E+00
 -1      1231 1.30500E+02 0.00000E+00 0.00000E+00
 -1      1232 1.33500E+02 0.00000E+00 0.00000E+00
 -1      1233 1.36500E+02 0.00000E+00 0.00000E+00
 -1      1234 1.39500E+02 0.00000E+00 0.00000E+00
 -1      1235 1.42500E+02 0.00000E+00 0.00000E+00
 -1      1236 1.45500E+02 0.00000E+00 0.00000E+00
 -1      1237 1.48500E+02 0.00000E+00 0.00000E+00
 -1      1238 1.50000E+02 1.47500E+00 0.00000E+00
 -1      1239 1.50000E+02 4.42500E+00 0.00000E+00
 -1      1240 1.50000E+02 7.37500E+00 0.00000E+00
 -1      1241 1.50000E+02 1.03250E+01 0.00000E+00
 -1      1242 1.50000E+02 1.32750E+01 0.00000E+00
 -1      1243 1.50000E+02 1.62000E+01 0.00000E+00
 -1      1244 1.50000E+02 1.91250E+01 0.00000E+00
 -1      1245 1.50000E+02 2.20750E+01 0.00000E+00
 -1      1246 1.50000E+02 2.50250E+01 0.00000E+00
 -1      1247 1.50000E+02 2.79750E+01 0.00000E+00
 -1      1248 1.50000E+02 3.09250E+01 0.00000E+00
 -1      1249 1.50000E+02 3.38500E+01 0.00000E+00
 -1      1250 1.50000E+02 3.67750E+01 0.00000E+00
 -1      1251 1.50000E+02 3.97250E+01 0.00000E+00
 -1      1252 1.50000E+02 4.26750E+01 0.00000E+00
 -1      1253 1.50000E+02 4.56250E+01 0.00000E+00
 -1      1254 1.50000E+02 4.85500E+01 0.00000E+00
 -1      1255 9.68557E+01 1.10567E+01 0.00000E+00
 -1      1256 9.65047E+01 9.53742E+00 0.00000E+00
 -1      1257 9.58422E+01 8.15898E+00 0.00000E+00
 -1      1258 9.49011E+01 6.96247E+00 0.00000E+00
 -1      1259 9.37507E+01 6.01549E+00 0.00000E+00
 -1      1260 9.24522E+01 5.34358E+00 0.00000E+00
 -1      1261 9.10489E+01 4.95717E+00 0.00000E+00
 -1      1262 8.96012E+01 4.86908E+00 0.00000E+00
 -1      1263 8.81323E+01 5.09005E+00 0.00000E+00
 -1      1264 8.67305E+01 5.62242E+00 0.00000E+00
 -1      1265 8.55258E+01 6.39935E+00 0.00000E+00
 -1      1266 8.45133E+01 7.39493E+00 0.00000E+00
 -1      1267 8.36908E+01 8.63478E+00 0.00000E+00
 -1      1268 8.31316E+01 1.00852E+01 0.00000E+00
 -1      1269 8.29094E+01 1.15462E+01 0.00000E+00
 -1      1270 8.29917E+01 1.29785E+01 0.00000E+00
 -1      1271 8.33817E+01 1.44088E+01 0.00000E+00
 -1      1272 8.40824E+01 1.57523E+01 0.00000E+00
 -1      1273 8.50284E+01 1.68872E+01 0.00000E+00
 -1      1274 8.61214E+01 1.77537E+01 0.00000E+00
 -1      1275 8.73535E+01 1.83821E+01 0.00000E+00
 -1      1276 8.87362E+01 1.87648E+01 0.00000E+00
 -1      1277 9.02006E+01 1.88562E+01 0.00000E+00
 -1      1278 9.16134E+01 1.86502E+01 0.00000E+00
 -1      1279 9.29274E+01 1.81751E+01 0.00000E+00
 -1      1280 9.41178E+01 1.74509E+01 0.00000E+00
 -1      1281 9.51624E+01 1.64811E+01 0.00000E+00
 -1      1282 9.60008E+01 1.52988E+01 0.00000E+00
 -1      1283 9.65748E+01 1.39785E+01 0.00000E+00
 -1      1284 9.68658E+01 1.25754E+01 0.00000E+00
 -1      1285 1.57500E+00 4.85250E+01 0.00000E+00
 -1      1286 1.29900E+00 4.48375E+01 0.00000E+00
 -1      1287 1.29900E+00 4.63125E+01 0.00000E+00
 -1      1288 1.29900E+00 4.18875E+01 0.00000E+00
 -1      1289 1.29900E+00 4.33625E+01 0.00000E+00
 -1      1290 2.59800E+00 4.41000E+01 0.00000E+00
 -1      1291 1.29900E+00 3.89375E+01 0.00000E+00
 -1      1292 1.29900E+00 4.04125E+01 0.00000E+00
 -1      1293 2.59800E+00 4.11500E+01 0.00000E+00
 -1      1294 1.29900E+00 3.59875E+01 0.00000E+00
 -1      1295 1.29900E+00 3.74625E+01 0.00000E+00
 -1      1296 2.59800E+00 3.82000E+01 0.00000E+00
 -1      1297 1.29900E+00 3.30875E+01 0.00000E+00
 -1      1298 1.29900E+00 3.45375E+01 0.00000E+00
 -1      1299 2.59800E+00 3.52750E+01 0.00000E+00
 -1      1300 1.29900E+00 3.01375E+01 0.00000E+00
 -1      1301 1.29900E+00 3.16125E+01 0.00000E+00
 -1      1302 2.59800E+00 3.23500E+01 0.00000E+00
 -1      1303 1.29900E+00 2.71875E+01 0.00000E+00
 -1      1304 1.29900E+00 2.86625E+01 0.00000E+00
 -1      1305 2.59800E+00 2.94000E+01 0.00000E+00
 -1      1306 1.29900E+00 2.42375E+01 0.00000E+00
 -1      1307 1.29900E+00 2.57125E+01 0.00000E+00
 -1      1308 2.59800E+00 2.64500E+01 0.00000E+00
 -1      1309 1.29900E+00 2.12875E+01 0.00000E+00
 -1      1310 1.29900E+00 2.27625E+01 0.00000E+00
 -1      1311 2.59800E+00 2.35000E+01 0.00000E+00
 -1      1312 1.29900E+00 1.83375E+01 0.00000E+00
 -1      1313 1.29900E+00 1.98125E+01 0.00000E+00
 -1      1314 2.59800E+00 2.05500E+01 0.00000E+00
 -1      1315 1.29900E+00 1.54375E+01 0.00000E+00
 -1      1316 1.29900E+00 1.68875E+01 0.00000E+00
 -1      1317 2.59800E+00 1.76250E+01 0.00000E+00
 -1      1318 1.29900E+00 1.24875E+01 0.00000E+00
 -1      1319 1.29900E+00 1.39625E+01 0.00000E+00
 -1      1320 2.59800E+00 1.47000E+01 0.00000E+00
 -1      1321 1.29900E+00 9.53750E+00 0.00000E+00
 -1      1322 1.29900E+00 1.10125E+01 0.00000E+00
 -1      1323 2.59800E+00 1.17500E+01 0.00000E+00
 -1      1324 1.29900E+00 6.58750E+00 0.00000E+00
 -1      1325 1.29900E+00 8.06250E+00 0.00000E+00
 -1      1326 2.59800E+00 8.80000E+00 0.00000E+00
 -1      1327 1.29900E+00 3.63750E+00 0.00000E+00
 -1      1328 1.29900E+00 5.11250E+00 0.00000E+00
 -1      1329 2.59800E+00 5.85000E+00 0.00000E+00
 -1      1330 1.43700E+00 1.09375E+00 0.00000E+00
 -1      1331 1.43700E+00 2.54375E+00 0.00000E+00
 -1      1332 2.73600E+00 3.28125E+00 0.00000E+00
 -1      1333 3.01200E+00 1.09375E+00 0.00000E+00
 -1      1334 3.90000E+00 4.87010E+01 0.00000E+00
 -1      1335 5.40000E+00 4.87010E+01 0.00000E+00
 -1      1336 6.90000E+00 4.87010E+01 0.00000E+00
 -1      1337 8.40000E+00 4.87010E+01 0.00000E+00
 -1      1338 6.15000E+00 4.74020E+01 0.00000E+00
 -1      1339 9.90000E+00 4.87010E+01 0.00000E+00
 -1      1340 1.14000E+01 4.87010E+01 0.00000E+00
 -1      1341 9.15000E+00 4.74020E+01 0.00000E+00
 -1      1342 1.29000E+01 4.87010E+01 0.00000E+00
 -1      1343 1.44000E+01 4.87010E+01 0.00000E+00
 -1      1344 1.21500E+01 4.74020E+01 0.00000E+00
 -1      1345 1.59000E+01 4.87010E+01 0.00000E+00
 -1      1346 1.74000E+01 4.87010E+01 0.00000E+00
 -1      1347 1.51500E+01 4.74020E+01 0.00000E+00
 -1      1348 1.89000E+01 4.87010E+01 0.00000E+00
 -1      1349 2.04000E+01 4.87010E+01 0.00000E+00
 -1      1350 1.81500E+01 4.74020E+01 0.00000E+00
 -1      1351 2.19000E+01 4.87010E+01 0.00000E+00
 -1      1352 2.34000E+01 4.87010E+01 0.00000E+00
 -1      1353 2.11500E+01 4.74020E+01 0.00000E+00
 -1      1354 2.49000E+01 4.87010E+01 0.00000E+00
 -1      1355 2.64000E+01 4.87010E+01 0.00000E+00
 -1      1356 2.41500E+01 4.74020E+01 0.00000E+00
 -1      1357 2.79000E+01 4.87010E+01 0.00000E+00
 -1      1358 2.94000E+01 4.87010E+01 0.00000E+00
 -1      1359 2.71500E+01 4.74020E+01 0.00000E+00
 -1      1360 3.09000E+01 4.87010E+01 0.00000E+00
 -1      1361 3.24000E+01 4.87010E+01 0.00000E+00
 -1      1362 3.01500E+01 4.74020E+01 0.00000E+00
 -1      1363 3.39000E+01 4.87010E+01 0.00000E+00
 -1      1364 3.54000E+01 4.87010E+01 0.00000E+00
 -1      1365 3.31500E+01 4.74020E+01 0.00000E+00
 -1      1366 3.69000E+01 4.87010E+01 0.00000E+00
 -1      1367 3.84000E+01 4.87010E+01 0.00000E+00
 -1      1368 3.61500E+01 4.74020E+01 0.00000E+00
 -1      1369 3.99000E+01 4.87010E+01 0.00000E+00
 -1      1370 4.14000E+01 4.87010E+01 0.00000E+00
 -1      1371 3.91500E+01 4.74020E+01 0.00000E+00
 -1      1372 4.29000E+01 4.87010E+01 0.00000E+00
 -1      1373 4.44000E+01 4.87010E+01 0.00000E+00
 -1      1374 4.21500E+01 4.74020E+01 0.00000E+00
 -1      1375 4.59000E+01 4.87010E+01 0.00000E+00
 -1      1376 4.74000E+01 4.87010E+01 0.00000E+00
 -1      1377 4.51500E+01 4.74020E+01 0.00000E+00
 -1      1378 4.89000E+01 4.87010E+01 0.00000E+00
 -1      1379 5.04000E+01 4.87010E+01 0.00000E+00
 -1      1380 4.81500E+01 4.74020E+01 0.00000E+00
 -1      1381 5.19000E+01 4.87010E+01 0.00000E+00
 -1      1382 5.34000E+01 4.87010E+01 0.00000E+00
 -1      1383 5.11500E+01 4.74020E+01 0.00000E+00
 -1      1384 5.49000E+01 4.87010E+01 0.00000E+00
 -1      1385 5.64000E+01 4.87010E+01 0.00000E+00
 -1      1386 5.41500E+01 4.74020E+01 0.00000E+00
 -1      1387 5.79000E+01 4.87010E+01 0.00000E+00
 -1      1388 5.94000E+01 4.87010E+01 0.00000E+00
 -1      1389 5.71500E+01 4.74020E+01 0.00000E+00
 -1      1390 6.09000E+01 4.87010E+01 0.00000E+00
 -1      1391 6.24000E+01 4.87010E+01 0.00000E+00
 -1      1392 6.01500E+01 4.74020E+01 0.00000E+00
 -1      1393 6.39000E+01 4.87010E+01 0.00000E+00
 -1      1394 6.54000E+01 4.87010E+01 0.00000E+00
 -1      1395 6.31500E+01 4.74020E+01 0.00000E+00
 -1      1396 6.69000E+01 4.87010E+01 0.00000E+00
 -1      1397 6.84000E+01 4.87010E+01 0.00000E+00
 -1      1398 6.61500E+01 4.74020E+01 0.00000E+00
 -1      1399 6.99000E+01 4.87010E+01 0.00000E+00
 -1      1400 7.14000E+01 4.87010E+01 0.00000E+00
 -1      1401 6.91500E+01 4.74020E+01 0.00000E+00
 -1      1402 7.29000E+01 4.87010E+01 0.00000E+00
 -1      1403 7.44000E+01 4.87010E+01 0.00000E+00
 -1      1404 7.21500E+01 4.74020E+01 0.00000E+00
 -1      1405 7.59000E+01 4.87010E+01 0.00000E+00
 -1      1406 7.74000E+01 4.87010E+01 0.00000E+00
 -1      1407 7.51500E+01 4.74020E+01 0.00000E+00
 -1      1408 7.89000E+01 4.87010E+01 0.00000E+00
 -1      1409 8.04000E+01 4.87010E+01 0.00000E+00
 -1      1410 7.81500E+01 4.74020E+01 0.00000E+00
 -1      1411 8.19000E+01 4.87010E+01 0.00000E+00
 -1      1412 8.34000E+01 4.87010E+01 0.00000E+00
 -1      1413 8.11500E+01 4.74020E+01 0.00000E+00
 -1      1414 8.49000E+01 4.87010E+01 0.00000E+00
 -1      1415 8.64000E+01 4.87010E+01 0.00000E+00
 -1      1416 8.41500E+01 4.74020E+01 0.00000E+00
 -1      1417 8.79000E+01 4.87010E+01 0.00000E+00
 -1      1418 8.94000E+01 4.87010E+01 0.00000E+00
 -1      1419 8.71500E+01 4.74020E+01 0.00000E+00
 -1      1420 9.09000E+01 4.87010E+01 0.00000E+00
 -1      1421 9.24000E+01 4.87010E+01 0.00000E+00
 -1      1422 9.01500E+01 4.74020E+01 0.00000E+00
 -1      1423 9.39000E+01 4.87010E+01 0.00000E+00
 -1      1424 9.54000E+01 4.87010E+01 0.00000E+00
 -1      1425 9.31500E+01 4.74020E+01 0.00000E+00
 -1      1426 9.69000E+01 4.87010E+01 0.00000E+00
 -1      1427 9.84000E+01 4.87010E+01 0.00000E+00
 -1      1428 9.61500E+01 4.74020E+01 0.00000E+00
 -1      1429 9.99000E+01 4.87010E+01 0.00000E+00
 -1      1430 1.01400E+02 4.87010E+01 0.00000E+00
 -1      1431 9.91500E+01 4.74020E+01 0.00000E+00
 -1      1432 1.02900E+02 4.87010E+01 0.00000E+00
 -1      1433 1.04400E+02 4.87010E+01 0.00000E+00
 -1      1434 1.02150E+02 4.74020E+01 0.00000E+00
 -1      1435 1.05900E+02 4.87010E+01 0.00000E+00
 -1      1436 1.07400E+02 4.87010E+01 0.00000E+00
 -1      1437 1.05150E+02 4.74020E+01 0.00000E+00
 -1      1438 1.08900E+02 4.87010E+01 0.00000E+00
 -1      1439 1.10400E+02 4.87010E+01 0.00000E+00
 -1      1440 1.08150E+02 4.74020E+01 0.00000E+00
 -1      1441 1.11900E+02 4.87010E+01 0.00000E+00
 -1      1442 1.13400E+02 4.87010E+01 0.00000E+00
 -1      1443 1.11150E+02 4.74020E+01 0.00000E+00
 -1      1444 1.14900E+02 4.87010E+01 0.00000E+00
 -1      1445 1.16400E+02 4.87010E+01 0.00000E+00
 -1      1446 1.14150E+02 4.74020E+01 0.00000E+00
 -1      1447 1.17900E+02 4.87010E+01 0.00000E+00
 -1      1448 1.19400E+02 4.87010E+01 0.00000E+00
 -1      1449 1.17150E+02 4.74020E+01 0.00000E+00
 -1      1450 1.20900E+02 4.87010E+01 0.00000E+00
 -1      1451 1.22400E+02 4.87010E+01 0.00000E+00
 -1      1452 1.20150E+02 4.74020E+01 0.00000E+00
 -1      1453 1.23900E+02 4.87010E+01 0.00000E+00
 -1      1454 1.25400E+02 4.87010E+01 0.00000E+00
 -1      1455 1.23150E+02 4.74020E+01 0.00000E+00
 -1      1456 1.26900E+02 4.87010E+01 0.00000E+00
 -1      1457 1.28400E+02 4.87010E+01 0.00000E+00
 -1      1458 1.26150E+02 4.74020E+01 0.00000E+00
 -1      1459 1.29900E+02 4.87010E+01 0.00000E+00
 -1      1460 1.31400E+02 4.87010E+01 0.00000E+00
 -1      1461 1.29150E+02 4.74020E+01 0.00000E+00
 -1      1462 1.32900E+02 4.87010E+01 0.00000E+00
 -1      1463 1.34400E+02 4.87010E+01 0.00000E+00
 -1      1464 1.32150E+02 4.74020E+01 0.00000E+00
 -1      1465 1.35900E+02 4.87010E+01 0.00000E+00
 -1      1466 1.37400E+02 4.87010E+01 0.00000E+00
 -1      1467 1.35150E+02 4.74020E+01 0.00000E+00
 -1      1468 1.38900E+02 4.87010E+01 0.00000E+00
 -1      1469 1.40400E+02 4.87010E+01 0.00000E+00
 -1      1470 1.38150E+02 4.74020E+01 0.00000E+00
 -1      1471 1.41900E+02 4.87010E+01 0.00000E+00
 -1      1472 1.43400E+02 4.87010E+01 0.00000E+00
 -1      1473 1.41150E+02 4.74020E+01 0.00000E+00
 -1      1474 1.44900E+02 4.87010E+01 0.00000E+00
 -1      1475 1.46400E+02 4.87010E+01 0.00000E+00
 -1      1476 1.44150E+02 4.74020E+01 0.00000E+00
 -1      1477 1.48575E+02 4.85500E+01 0.00000E+00
 -1      1478 1.47825E+02 4.72510E+01 0.00000E+00
 -1      1479 6.01200E+00 1.09375E+00 0.00000E+00
 -1      1480 4.51200E+00 1.09375E+00 0.00000E+00
 -1      1481 4.37400E+00 2.18750E+00 0.00000E+00
 -1      1482 9.01200E+00 1.09375E+00 0.00000E+00
 -1      1483 7.51200E+00 1.09375E+00 0.00000E+00
 -1      1484 7.37400E+00 2.18750E+00 0.00000E+00
 -1      1485 1.20120E+01 1.09375E+00 0.00000E+00
 -1      1486 1.05120E+01 1.09375E+00 0.00000E+00
 -1      1487 1.03740E+01 2.18750E+00 0.00000E+00
 -1      1488 1.50120E+01 1.09375E+00 0.00000E+00
 -1      1489 1.35120E+01 1.09375E+00 0.00000E+00
 -1      1490 1.33740E+01 2.18750E+00 0.00000E+00
 -1      1491 1.80120E+01 1.09375E+00 0.00000E+00
 -1      1492 1.65120E+01 1.09375E+00 0.00000E+00
 -1      1493 1.63740E+01 2.18750E+00 0.00000E+00
 -1      1494 2.10120E+01 1.09375E+00 0.00000E+00
 -1      1495 1.95120E+01 1.09375E+00 0.00000E+00
 -1      1496 1.93740E+01 2.18750E+00 0.00000E+00
 -1      1497 2.40120E+01 1.09375E+00 0.00000E+00
 -1      1498 2.25120E+01 1.09375E+00 0.00000E+00
 -1      1499 2.23740E+01 2.18750E+00 0.00000E+00
 -1      1500 2.70120E+01 1.09375E+00 0.00000E+00
 -1      1501 2.55120E+01 1.09375E+00 0.00000E+00
 -1      1502 2.53740E+01 2.18750E+00 0.00000E+00
 -1      1503 3.00120E+01 1.09375E+00 0.00000E+00
 -1      1504 2.85120E+01 1.09375E+00 0.00000E+00
 -1      1505 2.83740E+01 2.18750E+00 0.00000E+00
 -1      1506 3.31620E+01 1.09375E+00 0.00000E+00
 -1      1507 3.15870E+01 1.09375E+00 0.00000E+00
 -1      1508 3.14490E+01 2.18750E+00 0.00000E+00
 -1      1509 3.61620E+01 1.09375E+00 0.00000E+00
 -1      1510 3.46620E+01 1.09375E+00 0.00000E+00
 -1      1511 3.45240E+01 2.18750E+00 0.00000E+00
 -1      1512 3.91620E+01 1.09375E+00 0.00000E+00
 -1      1513 3.76620E+01 1.09375E+00 0.00000E+00
 -1      1514 3.75240E+01 2.18750E+00 0.00000E+00
 -1      1515 4.21620E+01 1.09375E+00 0.00000E+00
 -1      1516 4.06620E+01 1.09375E+00 0.00000E+00
 -1      1517 4.05240E+01 2.18750E+00 0.00000E+00
 -1      1518 4.51620E+01 1.09375E+00 0.00000E+00
 -1      1519 4.36620E+01 1.09375E+00 0.00000E+00
 -1      1520 4.35240E+01 2.18750E+00 0.00000E+00
 -1      1521 4.81620E+01 1.09375E+00 0.00000E+00
 -1      1522 4.66620E+01 1.09375E+00 0.00000E+00
 -1      1523 4.65240E+01 2.18750E+00 0.00000E+00
 -1      1524 5.11620E+01 1.09375E+00 0.00000E+00
 -1      1525 4.96620E+01 1.09375E+00 0.00000E+00
 -1      1526 4.95240E+01 2.18750E+00 0.00000E+00
 -1      1527 5.41620E+01 1.09375E+00 0.00000E+00
 -1      1528 5.26620E+01 1.09375E+00 0.00000E+00
 -1      1529 5.25240E+01 2.18750E+00 0.00000E+00
 -1      1530 5.71620E+01 1.09375E+00 0.00000E+00
 -1      1531 5.56620E+01 1.09375E+00 0.00000E+00
 -1      1532 5.55240E+01 2.18750E+00 0.00000E+00
 -1      1533 6.01620E+01 1.09375E+00 0.00000E+00
 -1      1534 5.86620E+01 1.09375E+00 0.00000E+00
 -1      1535 5.85240E+01 2.18750E+00 0.00000E+00
 -1      1536 6.33120E+01 1.09375E+00 0.00000E+00
 -1      1537 6.17370E+01 1.09375E+00 0.00000E+00
 -1      1538 6.15990E+01 2.18750E+00 0.00000E+00
 -1      1539 6.63120E+01 1.09375E+00 0.00000E+00
 -1      1540 6.48120E+01 1.09375E+00 0.00000E+00
 -1      1541 6.46740E+01 2.18750E+00 0.00000E+00
 -1      1542 6.93120E+01 1.09375E+00 0.00000E+00
 -1      1543 6.78120E+01 1.09375E+00 0.00000E+00
 -1      1544 6.76740E+01 2.18750E+00 0.00000E+00
 -1      1545 7.23120E+01 1.09375E+00 0.00000E+00
 -1      1546 7.08120E+01 1.09375E+00 0.00000E+00
 -1      1547 7.06740E+01 2.18750E+00 0.00000E+00
 -1      1548 7.53120E+01 1.09375E+00 0.00000E+00
 -1      1549 7.38120E+01 1.09375E+00 0.00000E+00
 -1      1550 7.36740E+01 2.18750E+00 0.00000E+00
 -1      1551 7.83120E+01 1.09375E+00 0.00000E+00
 -1      1552 7.68120E+01 1.09375E+00 0.00000E+00
 -1      1553 7.66740E+01 2.18750E+00 0.00000E+00
 -1      1554 8.13120E+01 1.09375E+00 0.00000E+00
 -1      1555 7.98120E+01 1.09375E+00 0.00000E+00
 -1      1556 7.96740E+01 2.18750E+00 0.00000E+00
 -1      1557 8.41620E+01 1.09375E+00 0.00000E+00
 -1      1558 8.27370E+01 1.09375E+00 0.00000E+00
 -1      1559 8.25990E+01 2.18750E+00 0.00000E+00
 -1      1560 8.65620E+01 1.09375E+00 0.00000E+00
 -1      1561 8.53620E+01 1.09375E+00 0.00000E+00
 -1      1562 8.52240E+01 2.18750E+00 0.00000E+00
 -1      1563 8.89620E+01 1.09375E+00 0.00000E+00
 -1      1564 8.77620E+01 1.09375E+00 0.00000E+00
 -1      1565 8.76240E+01 2.18750E+00 0.00000E+00
 -1      1566 9.12120E+01 1.09375E+00 0.00000E+00
 -1      1567 9.00870E+01 1.09375E+00 0.00000E+00
 -1      1568 8.99490E+01 2.18750E+00 0.00000E+00
 -1      1569 9.31620E+01 1.09375E+00 0.00000E+00
 -1      1570 9.21870E+01 1.09375E+00 0.00000E+00
 -1      1571 9.20490E+01 2.18750E+00 0.00000E+00
 -1      1572 9.57120E+01 1.09375E+00 0.00000E+00
 -1      1573 9.44370E+01 1.09375E+00 0.00000E+00
 -1      1574 9.42990E+01 2.18750E+00 0.00000E+00
 -1      1575 1.01100E+02 1.29900E+00 0.00000E+00
 -1      1576 9.96000E+01 1.29900E+00 0.00000E+00
 -1      1577 1.04100E+02 1.29900E+00 0.00000E+00
 -1      1578 1.02600E+02 1.29900E+00 0.00000E+00
 -1      1579 1.01850E+02 2.59800E+00 0.00000E+00
 -1      1580 1.07100E+02 1.29900E+00 0.00000E+00
 -1      1581 1.05600E+02 1.29900E+00 0.00000E+00
 -1      1582 1.04850E+02 2.59800E+00 0.00000E+00
 -1      1583 1.10100E+02 1.29900E+00 0.00000E+00
 -1      1584 1.08600E+02 1.29900E+00 0.00000E+00
 -1      1585 1.07850E+02 2.59800E+00 0.00000E+00
 -1      1586 1.13100E+02 1.29900E+00 0.00000E+00
 -1      1587 1.11600E+02 1.29900E+00 0.00000E+00
 -1      1588 1.10850E+02 2.59800E+00 0.00000E+00
 -1      1589 1.16100E+02 1.29900E+00 0.00000E+00
 -1      1590 1.14600E+02 1.29900E+00 0.00000E+00
 -1      1591 1.13850E+02 2.59800E+00 0.00000E+00
 -1      1592 1.19250E+02 1.29900E+00 0.00000E+00
 -1      1593 1.17675E+02 1.29900E+00 0.00000E+00
 -1      1594 1.16925E+02 2.59800E+00 0.00000E+00
 -1      1595 1.22250E+02 1.29900E+00 0.00000E+00
 -1      1596 1.20750E+02 1.29900E+00 0.00000E+00
 -1      1597 1.20000E+02 2.59800E+00 0.00000E+00
 -1      1598 1.25250E+02 1.29900E+00 0.00000E+00
 -1      1599 1.23750E+02 1.29900E+00 0.00000E+00
 -1      1600 1.23000E+02 2.59800E+00 0.00000E+00
 -1      1601 1.28250E+02 1.29900E+00 0.00000E+00
 -1      1602 1.26750E+02 1.29900E+00 0.00000E+00
 -1      1603 1.26000E+02 2.59800E+00 0.00000E+00
 -1      1604 1.31250E+02 1.29900E+00 0.00000E+00
 -1      1605 1.29750E+02 1.29900E+00 0.00000E+00
 -1      1606 1.29000E+02 2.59800E+00 0.00000E+00
 -1      1607 1.34250E+02 1.29900E+00 0.00000E+00
 -1      1608 1.32750E+02 1.29900E+00 0.00000E+00
 -1      1609 1.32000E+02 2.59800E+00 0.00000E+00
 -1      1610 1.37250E+02 1.29900E+00 0.00000E+00
 -1      1611 1.35750E+02 1.29900E+00 0.00000E+00
 -1      1612 1.35000E+02 2.59800E+00 0.00000E+00
 -1      1613 1.40250E+02 1.29900E+00 0.00000E+00
 -1      1614 1.38750E+02 1.29900E+00 0.00000E+00
 -1      1615 1.38000E+02 2.59800E+00 0.00000E+00
 -1      1616 1.43250E+02 1.29900E+00 0.00000E+00
 -1      1617 1.41750E+02 1.29900E+00 0.00000E+00
 -1      1618 1.41000E+02 2.59800E+00 0.00000E+00
 -1      1619 1.46250E+02 1.29900E+00 0.00000E+00
 -1      1620 1.44750E+02 1.29900E+00 0.00000E+00
 -1      1621 1.44000E+02 2.59800E+00 0.00000E+00
 -1      1622 1.48875E+02 1.38700E+00 0.00000E+00
 -1      1623 1.47375E+02 1.38700E+00 0.00000E+00
 -1      1624 1.46625E+02 2.68600E+00 0.00000E+00
 -1      1625 1.48875E+02 2.86200E+00 0.00000E+00
 -1      1626 1.48875E+02 5.81200E+00 0.00000E+00
 -1      1627 1.48875E+02 4.33700E+00 0.00000E+00
 -1      1628 1.47750E+02 4.24900E+00 0.00000E+00
 -1      1629 1.48875E+02 8.76200E+00 0.00000E+00
 -1      1630 1.48875E+02 7.28700E+00 0.00000E+00
 -1      1631 1.47750E+02 7.19900E+00 0.00000E+00
 -1      1632 1.48875E+02 1.17120E+01 0.00000E+00
 -1      1633 1.48875E+02 1.02370E+01 0.00000E+00
 -1      1634 1.47750E+02 1.01490E+01 0.00000E+00
 -1      1635 1.48875E+02 1.46620E+01 0.00000E+00
 -1      1636 1.48875E+02 1.31870E+01 0.00000E+00
 -1      1637 1.47750E+02 1.30990E+01 0.00000E+00
 -1      1638 1.48875E+02 1.75620E+01 0.00000E+00
 -1      1639 1.48875E+02 1.61120E+01 0.00000E+00
 -1      1640 1.47750E+02 1.60240E+01 0.00000E+00
 -1      1641 1.48875E+02 2.05120E+01 0.00000E+00
 -1      1642 1.48875E+02 1.90370E+01 0.00000E+00
 -1      1643 1.47750E+02 1.89490E+01 0.00000E+00
 -1      1644 1.48875E+02 2.34620E+01 0.00000E+00
 -1      1645 1.48875E+02 2.19870E+01 0.00000E+00
 -1      1646 1.47750E+02 2.18990E+01 0.00000E+00
 -1      1647 1.48875E+02 2.64120E+01 0.00000E+00
 -1      1648 1.48875E+02 2.49370E+01 0.00000E+00
 -1      1649 1.47750E+02 2.48490E+01 0.00000E+00
 -1      1650 1.48875E+02 2.93620E+01 0.00000E+00
 -1      1651 1.48875E+02 2.78870E+01 0.00000E+00
 -1      1652 1.47750E+02 2.77990E+01 0.00000E+00
 -1      1653 1.48875E+02 3.23120E+01 0.00000E+00
 -1      1654 1.48875E+02 3.08370E+01 0.00000E+00
 -1      1655 1.47750E+02 3.07490E+01 0.00000E+00
 -1      1656 1.48875E+02 3.52120E+01 0.00000E+00
 -1      1657 1.48875E+02 3.37620E+01 0.00000E+00
 -1      1658 1.47750E+02 3.36740E+01 0.00000E+00
 -1      1659 1.48875E+02 3.81620E+01 0.00000E+00
 -1      1660 1.48875E+02 3.66870E+01 0.00000E+00
 -1      1661 1.47750E+02 3.65990E+01 0.00000E+00
 -1      1662 1.48875E+02 4.11120E+01 0.00000E+00
 -1      1663 1.48875E+02 3.96370E+01 0.00000E+00
 -1      1664 1.47750E+02 3.95490E+01 0.00000E+00
 -1      1665 1.48875E+02 4.40620E+01 0.00000E+00
 -1      1666 1.48875E+02 4.25870E+01 0.00000E+00
 -1      1667 1.47750E+02 4.24990E+01 0.00000E+00
 -1      1668 1.48875E+02 4.55370E+01 0.00000E+00
 -1      1669 9.74484E+01 1.05823E+01 0.00000E+00
 -1      1670 9.75412E+01 1.13829E+01 0.00000E+00
 -1      1671 9.69131E+01 8.99431E+00 0.00000E+00
 -1      1672 9.71633E+01 9.70482E+00 0.00000E+00
 -1      1673 9.62568E+01 7.44312E+00 0.00000E+00
 -1      1674 9.66675E+01 8.10173E+00 0.00000E+00
 -1      1675 9.52122E+01 6.37747E+00 0.00000E+00
 -1      1676 9.57345E+01 6.91029E+00 0.00000E+00
 -1      1677 9.65964E+01 6.83020E+00 0.00000E+00
 -1      1678 9.37746E+01 5.30276E+00 0.00000E+00
 -1      1679 9.43959E+01 5.71172E+00 0.00000E+00
 -1      1680 9.23251E+01 4.68262E+00 0.00000E+00
 -1      1681 9.29940E+01 4.94427E+00 0.00000E+00
 -1      1682 9.07851E+01 4.29585E+00 0.00000E+00
 -1      1683 9.15123E+01 4.41663E+00 0.00000E+00
 -1      1684 8.92205E+01 4.31516E+00 0.00000E+00
 -1      1685 8.99330E+01 4.28450E+00 0.00000E+00
 -1      1686 8.75951E+01 4.56147E+00 0.00000E+00
 -1      1687 8.83423E+01 4.36620E+00 0.00000E+00
 -1      1688 8.61488E+01 5.28054E+00 0.00000E+00
 -1      1689 8.67971E+01 4.95103E+00 0.00000E+00
 -1      1690 8.48935E+01 6.17488E+00 0.00000E+00
 -1      1691 8.54447E+01 5.73334E+00 0.00000E+00
 -1      1692 8.38470E+01 7.30603E+00 0.00000E+00
 -1      1693 8.43025E+01 6.75659E+00 0.00000E+00
 -1      1694 8.29382E+01 8.67987E+00 0.00000E+00
 -1      1695 8.32952E+01 7.99295E+00 0.00000E+00
 -1      1696 8.23669E+01 1.02878E+01 0.00000E+00
 -1      1697 8.25650E+01 9.53305E+00 0.00000E+00
 -1      1698 8.23228E+01 1.18688E+01 0.00000E+00
 -1      1699 8.23543E+01 1.11720E+01 0.00000E+00
 -1      1700 8.24491E+01 1.34395E+01 0.00000E+00
 -1      1701 8.23316E+01 1.27117E+01 0.00000E+00
 -1      1702 8.29507E+01 1.49773E+01 0.00000E+00
 -1      1703 8.26795E+01 1.42829E+01 0.00000E+00
 -1      1704 8.36883E+01 1.64787E+01 0.00000E+00
 -1      1705 8.32605E+01 1.58387E+01 0.00000E+00
 -1      1706 8.48853E+01 1.75429E+01 0.00000E+00
 -1      1707 8.43774E+01 1.70502E+01 0.00000E+00
 -1      1708 8.61014E+01 1.84210E+01 0.00000E+00
 -1      1709 8.55231E+01 1.80499E+01 0.00000E+00
 -1      1710 8.73976E+01 1.89278E+01 0.00000E+00
 -1      1711 8.67495E+01 1.86744E+01 0.00000E+00
 -1      1712 8.61329E+01 1.89990E+01 0.00000E+00
 -1      1713 8.89990E+01 1.94268E+01 0.00000E+00
 -1      1714 8.82705E+01 1.93038E+01 0.00000E+00
 -1      1715 9.05887E+01 1.94084E+01 0.00000E+00
 -1      1716 8.98610E+01 1.94395E+01 0.00000E+00
 -1      1717 9.20921E+01 1.91186E+01 0.00000E+00
 -1      1718 9.14140E+01 1.92896E+01 0.00000E+00
 -1      1719 9.34891E+01 1.85395E+01 0.00000E+00
 -1      1720 9.28596E+01 1.88412E+01 0.00000E+00
 -1      1721 9.47649E+01 1.77312E+01 0.00000E+00
 -1      1722 9.42097E+01 1.81500E+01 0.00000E+00
 -1      1723 9.58301E+01 1.65816E+01 0.00000E+00
 -1      1724 9.53485E+01 1.71301E+01 0.00000E+00
 -1      1725 9.66732E+01 1.52648E+01 0.00000E+00
 -1      1726 9.63200E+01 1.58916E+01 0.00000E+00
 -1      1727 9.72660E+01 1.38199E+01 0.00000E+00
 -1      1728 9.70483E+01 1.45064E+01 0.00000E+00
 -1      1729 9.74690E+01 1.22789E+01 0.00000E+00
 -1      1730 9.73964E+01 1.29879E+01 0.00000E+00
 -1      1731 9.52579E+01 5.63163E+00 0.00000E+00
 -1      1732 9.81000E+01 1.29900E+00 0.00000E+00
 -1      1733 9.66000E+01 1.29900E+00 0.00000E+00
 -1      1734 9.64620E+01 2.39275E+00 0.00000E+00
 -1      1735 1.46700E+02 4.56880E+01 0.00000E+00
 -1      1736 9.81080E+01 1.17991E+01 0.00000E+00
 -1      1737 9.73643E+01 8.25562E+00 0.00000E+00
 -1      1738 9.78951E+01 1.00257E+01 0.00000E+00
 -1      1739 9.36610E+01 4.60739E+00 0.00000E+00
 -1      1740 9.20676E+01 3.98290E+00 0.00000E+00
 -1      1741 9.04028E+01 3.70555E+00 0.00000E+00
 -1      1742 8.86725E+01 3.74523E+00 0.00000E+00
 -1      1743 8.69962E+01 4.18583E+00 0.00000E+00
 -1      1744 8.54942E+01 5.02819E+00 0.00000E+00
 -1      1745 8.41991E+01 6.06270E+00 0.00000E+00
 -1      1746 8.30563E+01 7.33133E+00 0.00000E+00
 -1      1747 8.21312E+01 8.87142E+00 0.00000E+00
 -1      1748 8.17455E+01 1.06088E+01 0.00000E+00
 -1      1749 8.17418E+01 1.23360E+01 0.00000E+00
 -1      1750 8.19810E+01 1.40224E+01 0.00000E+00
 -1      1751 8.25212E+01 1.57272E+01 0.00000E+00
 -1      1752 8.35202E+01 1.71602E+01 0.00000E+00
 -1      1753 8.48470E+01 1.82387E+01 0.00000E+00
 -1      1754 8.93887E+01 2.00170E+01 0.00000E+00
 -1      1755 9.10759E+01 1.99107E+01 0.00000E+00
 -1      1756 9.26688E+01 1.95145E+01 0.00000E+00
 -1      1757 9.41570E+01 1.88475E+01 0.00000E+00
 -1      1758 9.54612E+01 1.78569E+01 0.00000E+00
 -1      1759 9.65348E+01 1.65658E+01 0.00000E+00
 -1      1760 9.73998E+01 1.51174E+01 0.00000E+00
 -1      1761 9.79053E+01 1.35271E+01 0.00000E+00
 -1      1762 2.87400E+00 4.77875E+01 0.00000E+00
 -1      1763 8.76539E+01 1.96284E+01 0.00000E+00
 -1      1764 9.88500E+01 2.59800E+00 0.00000E+00
 -1      1765 3.89700E+00 4.04125E+01 0.00000E+00
 -1      1766 3.89700E+00 4.18875E+01 0.00000E+00
 -1      1767 3.89700E+00 4.33625E+01 0.00000E+00
 -1      1768 3.89700E+00 4.48375E+01 0.00000E+00
 -1      1769 5.19600E+00 4.26250E+01 0.00000E+00
 -1      1770 3.89700E+00 3.45500E+01 0.00000E+00
 -1      1771 3.89700E+00 3.60000E+01 0.00000E+00
 -1      1772 3.89700E+00 3.16000E+01 0.00000E+00
 -1      1773 3.89700E+00 3.30750E+01 0.00000E+00
 -1      1774 5.19600E+00 3.38000E+01 0.00000E+00
 -1      1775 3.89700E+00 2.86500E+01 0.00000E+00
 -1      1776 3.89700E+00 3.01250E+01 0.00000E+00
 -1      1777 5.19600E+00 3.08500E+01 0.00000E+00
 -1      1778 3.89700E+00 2.57000E+01 0.00000E+00
 -1      1779 3.89700E+00 2.71750E+01 0.00000E+00
 -1      1780 5.19600E+00 2.79000E+01 0.00000E+00
 -1      1781 3.89700E+00 2.27500E+01 0.00000E+00
 -1      1782 3.89700E+00 2.42250E+01 0.00000E+00
 -1      1783 5.19600E+00 2.49500E+01 0.00000E+00
 -1      1784 3.89700E+00 1.98000E+01 0.00000E+00
 -1      1785 3.89700E+00 2.12750E+01 0.00000E+00
 -1      1786 5.19600E+00 2.20000E+01 0.00000E+00
 -1      1787 3.89700E+00 1.69000E+01 0.00000E+00
 -1      1788 3.89700E+00 1.83500E+01 0.00000E+00
 -1      1789 5.19600E+00 1.90750E+01 0.00000E+00
 -1      1790 3.89700E+00 1.39500E+01 0.00000E+00
 -1      1791 3.89700E+00 1.54250E+01 0.00000E+00
 -1      1792 5.19600E+00 1.61500E+01 0.00000E+00
 -1      1793 3.89700E+00 1.10000E+01 0.00000E+00
 -1      1794 3.89700E+00 1.24750E+01 0.00000E+00
 -1      1795 5.19600E+00 1.32000E+01 0.00000E+00
 -1      1796 3.89700E+00 8.05000E+00 0.00000E+00
 -1      1797 3.89700E+00 9.52500E+00 0.00000E+00
 -1      1798 5.19600E+00 1.02500E+01 0.00000E+00
 -1      1799 3.89700E+00 5.10000E+00 0.00000E+00
 -1      1800 3.89700E+00 6.57500E+00 0.00000E+00
 -1      1801 5.19600E+00 7.30000E+00 0.00000E+00
 -1      1802 4.20450E+00 3.09687E+00 0.00000E+00
 -1      1803 4.06650E+00 4.19063E+00 0.00000E+00
 -1      1804 5.36550E+00 4.91563E+00 0.00000E+00
 -1      1805 5.70450E+00 3.09687E+00 0.00000E+00
 -1      1806 3.62400E+00 4.64885E+01 0.00000E+00
 -1      1807 8.70450E+00 3.09687E+00 0.00000E+00
 -1      1808 7.20450E+00 3.09687E+00 0.00000E+00
 -1      1809 7.03500E+00 4.00625E+00 0.00000E+00
 -1      1810 8.78340E+01 2.04116E+01 0.00000E+00
 -1      1811 8.69611E+01 2.00356E+01 0.00000E+00
 -1      1812 4.92300E+00 4.57510E+01 0.00000E+00
 -1      1813 8.40000E+00 4.61030E+01 0.00000E+00
 -1      1814 9.90000E+00 4.61030E+01 0.00000E+00
 -1      1815 1.14000E+01 4.61030E+01 0.00000E+00
 -1      1816 1.29000E+01 4.61030E+01 0.00000E+00
 -1      1817 1.06500E+01 4.48040E+01 0.00000E+00
 -1      1818 1.44000E+01 4.61030E+01 0.00000E+00
 -1      1819 1.59000E+01 4.61030E+01 0.00000E+00
 -1      1820 1.36500E+01 4.48040E+01 0.00000E+00
 -1      1821 1.74000E+01 4.61030E+01 0.00000E+00
 -1      1822 1.89000E+01 4.61030E+01 0.00000E+00
 -1      1823 1.66500E+01 4.48040E+01 0.00000E+00
 -1      1824 2.04000E+01 4.61030E+01 0.00000E+00
 -1      1825 2.19000E+01 4.61030E+01 0.00000E+00
 -1      1826 1.96500E+01 4.48040E+01 0.00000E+00
 -1      1827 2.34000E+01 4.61030E+01 0.00000E+00
 -1      1828 2.49000E+01 4.61030E+01 0.00000E+00
 -1      1829 2.26500E+01 4.48040E+01 0.00000E+00
 -1      1830 2.64000E+01 4.61030E+01 0.00000E+00
 -1      1831 2.79000E+01 4.61030E+01 0.00000E+00
 -1      1832 2.56500E+01 4.48040E+01 0.00000E+00
 -1      1833 2.94000E+01 4.61030E+01 0.00000E+00
 -1      1834 3.09000E+01 4.61030E+01 0.00000E+00
 -1      1835 2.86500E+01 4.48040E+01 0.00000E+00
 -1      1836 3.24000E+01 4.61030E+01 0.00000E+00
 -1      1837 3.39000E+01 4.61030E+01 0.00000E+00
 -1      1838 3.16500E+01 4.48040E+01 0.00000E+00
 -1      1839 3.54000E+01 4.61030E+01 0.00000E+00
 -1      1840 3.69000E+01 4.61030E+01 0.00000E+00
 -1      1841 3.46500E+01 4.48040E+01 0.00000E+00
 -1      1842 3.84000E+01 4.61030E+01 0.00000E+00
 -1      1843 3.99000E+01 4.61030E+01 0.00000E+00
 -1      1844 3.76500E+01 4.48040E+01 0.00000E+00
 -1      1845 4.14000E+01 4.61030E+01 0.00000E+00
 -1      1846 4.29000E+01 4.61030E+01 0.00000E+00
 -1      1847 4.06500E+01 4.48040E+01 0.00000E+00
 -1      1848 4.44000E+01 4.61030E+01 0.00000E+00
 -1      1849 4.59000E+01 4.61030E+01 0.00000E+00
 -1      1850 4.36500E+01 4.48040E+01 0.00000E+00
 -1      1851 4.74000E+01 4.61030E+01 0.00000E+00
 -1      1852 4.89000E+01 4.61030E+01 0.00000E+00
 -1      1853 4.66500E+01 4.48040E+01 0.00000E+00
 -1      1854 5.04000E+01 4.61030E+01 0.00000E+00
 -1      1855 5.19000E+01 4.61030E+01 0.00000E+00
 -1      1856 4.96500E+01 4.48040E+01 0.00000E+00
 -1      1857 5.34000E+01 4.61030E+01 0.00000E+00
 -1      1858 5.49000E+01 4.61030E+01 0.00000E+00
 -1      1859 5.26500E+01 4.48040E+01 0.00000E+00
 -1      1860 5.64000E+01 4.61030E+01 0.00000E+00
 -1      1861 5.79000E+01 4.61030E+01 0.00000E+00
 -1      1862 5.56500E+01 4.48040E+01 0.00000E+00
 -1      1863 5.94000E+01 4.61030E+01 0.00000E+00
 -1      1864 6.09000E+01 4.61030E+01 0.00000E+00
 -1      1865 5.86500E+01 4.48040E+01 0.00000E+00
 -1      1866 6.24000E+01 4.61030E+01 0.00000E+00
 -1      1867 6.39000E+01 4.61030E+01 0.00000E+00
 -1      1868 6.16500E+01 4.48040E+01 0.00000E+00
 -1      1869 6.54000E+01 4.61030E+01 0.00000E+00
 -1      1870 6.69000E+01 4.61030E+01 0.00000E+00
 -1      1871 6.46500E+01 4.48040E+01 0.00000E+00
 -1      1872 6.84000E+01 4.61030E+01 0.00000E+00
 -1      1873 6.99000E+01 4.61030E+01 0.00000E+00
 -1      1874 6.76500E+01 4.48040E+01 0.00000E+00
 -1      1875 7.14000E+01 4.61030E+01 0.00000E+00
 -1      1876 7.29000E+01 4.61030E+01 0.00000E+00
 -1      1877 7.06500E+01 4.48040E+01 0.00000E+00
 -1      1878 7.44000E+01 4.61030E+01 0.00000E+00
 -1      1879 7.59000E+01 4.61030E+01 0.00000E+00
 -1      1880 7.36500E+01 4.48040E+01 0.00000E+00
 -1      1881 7.74000E+01 4.61030E+01 0.00000E+00
 -1      1882 7.89000E+01 4.61030E+01 0.00000E+00
 -1      1883 7.66500E+01 4.48040E+01 0.00000E+00
 -1      1884 8.04000E+01 4.61030E+01 0.00000E+00
 -1      1885 8.19000E+01 4.61030E+01 0.00000E+00
 -1      1886 7.96500E+01 4.48040E+01 0.00000E+00
 -1      1887 8.34000E+01 4.61030E+01 0.00000E+00
 -1      1888 8.49000E+01 4.61030E+01 0.00000E+00
 -1      1889 8.26500E+01 4.48040E+01 0.00000E+00
 -1      1890 8.64000E+01 4.61030E+01 0.00000E+00
 -1      1891 8.79000E+01 4.61030E+01 0.00000E+00
 -1      1892 8.56500E+01 4.48040E+01 0.00000E+00
 -1      1893 8.94000E+01 4.61030E+01 0.00000E+00
 -1      1894 9.09000E+01 4.61030E+01 0.00000E+00
 -1      1895 8.86500E+01 4.48040E+01 0.00000E+00
 -1      1896 9.24000E+01 4.61030E+01 0.00000E+00
 -1      1897 9.39000E+01 4.61030E+01 0.00000E+00
 -1      1898 9.16500E+01 4.48040E+01 0.00000E+00
 -1      1899 9.54000E+01 4.61030E+01 0.00000E+00
 -1      1900 9.69000E+01 4.61030E+01 0.00000E+00
 -1      1901 9.46500E+01 4.48040E+01 0.00000E+00
 -1      1902 9.84000E+01 4.61030E+01 0.00000E+00
 -1      1903 9.99000E+01 4.61030E+01 0.00000E+00
 -1      1904 9.76500E+01 4.48040E+01 0.00000E+00
 -1      1905 1.01400E+02 4.61030E+01 0.00000E+00
 -1      1906 1.02900E+02 4.61030E+01 0.00000E+00
 -1      1907 1.00650E+02 4.48040E+01 0.00000E+00
 -1      1908 1.04400E+02 4.61030E+01 0.00000E+00
 -1      1909 1.05900E+02 4.61030E+01 0.00000E+00
 -1      1910 1.03650E+02 4.48040E+01 0.00000E+00
 -1      1911 1.07400E+02 4.61030E+01 0.00000E+00
 -1      1912 1.08900E+02 4.61030E+01 0.00000E+00
 -1      1913 1.06650E+02 4.48040E+01 0.00000E+00
 -1      1914 1.10400E+02 4.61030E+01 0.00000E+00
 -1      1915 1.11900E+02 4.61030E+01 0.00000E+00
 -1      1916 1.09650E+02 4.48040E+01 0.00000E+00
 -1      1917 1.13400E+02 4.61030E+01 0.00000E+00
 -1      1918 1.14900E+02 4.61030E+01 0.00000E+00
 -1      1919 1.12650E+02 4.48040E+01 0.00000E+00
 -1      1920 1.16400E+02 4.61030E+01 0.00000E+00
 -1      1921 1.17900E+02 4.61030E+01 0.00000E+00
 -1      1922 1.15650E+02 4.48040E+01 0.00000E+00
 -1      1923 1.19400E+02 4.61030E+01 0.00000E+00
 -1      1924 1.20900E+02 4.61030E+01 0.00000E+00
 -1      1925 1.18650E+02 4.48040E+01 0.00000E+00
 -1      1926 1.22400E+02 4.61030E+01 0.00000E+00
 -1      1927 1.23900E+02 4.61030E+01 0.00000E+00
 -1      1928 1.21650E+02 4.48040E+01 0.00000E+00
 -1      1929 1.25400E+02 4.61030E+01 0.00000E+00
 -1      1930 1.26900E+02 4.61030E+01 0.00000E+00
 -1      1931 1.24650E+02 4.48040E+01 0.00000E+00
 -1      1932 1.28400E+02 4.61030E+01 0.00000E+00
 -1      1933 1.29900E+02 4.61030E+01 0.00000E+00
 -1      1934 1.27650E+02 4.48040E+01 0.00000E+00
 -1      1935 1.31400E+02 4.61030E+01 0.00000E+00
 -1      1936 1.32900E+02 4.61030E+01 0.00000E+00
 -1      1937 1.30650E+02 4.48040E+01 0.00000E+00
 -1      1938 1.34400E+02 4.61030E+01 0.00000E+00
 -1      1939 1.35900E+02 4.61030E+01 0.00000E+00
 -1      1940 1.33650E+02 4.48040E+01 0.00000E+00
 -1      1941 1.37400E+02 4.61030E+01 0.00000E+00
 -1      1942 1.38900E+02 4.61030E+01 0.00000E+00
 -1      1943 1.36650E+02 4.48040E+01 0.00000E+00
 -1      1944 1.40400E+02 4.61030E+01 0.00000E+00
 -1      1945 1.41900E+02 4.61030E+01 0.00000E+00
 -1      1946 1.39650E+02 4.48040E+01 0.00000E+00
 -1      1947 1.43400E+02 4.61030E+01 0.00000E+00
 -1      1948 1.44900E+02 4.61030E+01 0.00000E+00
 -1      1949 1.42650E+02 4.48040E+01 0.00000E+00
 -1      1950 1.08600E+02 3.89700E+00 0.00000E+00
 -1      1951 1.07100E+02 3.89700E+00 0.00000E+00
 -1      1952 1.17045E+01 3.09687E+00 0.00000E+00
 -1      1953 1.02045E+01 3.09687E+00 0.00000E+00
 -1      1954 1.00350E+01 4.00625E+00 0.00000E+00
 -1      1955 1.47045E+01 3.09687E+00 0.00000E+00
 -1      1956 1.32045E+01 3.09687E+00 0.00000E+00
 -1      1957 1.30350E+01 4.00625E+00 0.00000E+00
 -1      1958 1.77045E+01 3.09687E+00 0.00000E+00
 -1      1959 1.62045E+01 3.09687E+00 0.00000E+00
 -1      1960 1.60350E+01 4.00625E+00 0.00000E+00
 -1      1961 2.07045E+01 3.09687E+00 0.00000E+00
 -1      1962 1.92045E+01 3.09687E+00 0.00000E+00
 -1      1963 1.90350E+01 4.00625E+00 0.00000E+00
 -1      1964 2.37045E+01 3.09687E+00 0.00000E+00
 -1      1965 2.22045E+01 3.09687E+00 0.00000E+00
 -1      1966 2.20350E+01 4.00625E+00 0.00000E+00
 -1      1967 2.67045E+01 3.09687E+00 0.00000E+00
 -1      1968 2.52045E+01 3.09687E+00 0.00000E+00
 -1      1969 2.50350E+01 4.00625E+00 0.00000E+00
 -1      1970 2.97045E+01 3.09687E+00 0.00000E+00
 -1      1971 2.82045E+01 3.09687E+00 0.00000E+00
 -1      1972 2.80350E+01 4.00625E+00 0.00000E+00
 -1      1973 3.28545E+01 3.09687E+00 0.00000E+00
 -1      1974 3.12795E+01 3.09687E+00 0.00000E+00
 -1      1975 3.11100E+01 4.00625E+00 0.00000E+00
 -1      1976 3.58545E+01 3.09687E+00 0.00000E+00
 -1      1977 3.43545E+01 3.09687E+00 0.00000E+00
 -1      1978 3.41850E+01 4.00625E+00 0.00000E+00
 -1      1979 3.88545E+01 3.09687E+00 0.00000E+00
 -1      1980 3.73545E+01 3.09687E+00 0.00000E+00
 -1      1981 3.71850E+01 4.00625E+00 0.00000E+00
 -1      1982 4.18545E+01 3.09687E+00 0.00000E+00
 -1      1983 4.03545E+01 3.09687E+00 0.00000E+00
 -1      1984 4.01850E+01 4.00625E+00 0.00000E+00
 -1      1985 4.48545E+01 3.09687E+00 0.00000E+00
 -1      1986 4.33545E+01 3.09687E+00 0.00000E+00
 -1      1987 4.31850E+01 4.00625E+00 0.00000E+00
 -1      1988 4.78545E+01 3.09687E+00 0.00000E+00
 -1      1989 4.63545E+01 3.09687E+00 0.00000E+00
 -1      1990 4.61850E+01 4.00625E+00 0.00000E+00
 -1      1991 5.08545E+01 3.09687E+00 0.00000E+00
 -1      1992 4.93545E+01 3.09687E+00 0.00000E+00
 -1      1993 4.91850E+01 4.00625E+00 0.00000E+00
 -1      1994 5.38545E+01 3.09687E+00 0.00000E+00
 -1      1995 5.23545E+01 3.09687E+00 0.00000E+00
 -1      1996 5.21850E+01 4.00625E+00 0.00000E+00
 -1      1997 5.68545E+01 3.09687E+00 0.00000E+00
 -1      1998 5.53545E+01 3.09687E+00 0.00000E+00
 -1      1999 5.51850E+01 4.00625E+00 0.00000E+00
 -1      2000 5.98545E+01 3.09687E+00 0.00000E+00
 -1      2001 5.83545E+01 3.09687E+00 0.00000E+00
 -1      2002 5.81850E+01 4.00625E+00 0.00000E+00
 -1      2003 6.30045E+01 3.09687E+00 0.00000E+00
 -1      2004 6.14295E+01 3.09687E+00 0.00000E+00
 -1      2005 6.12600E+01 4.00625E+00 0.00000E+00
 -1      2006 6.60045E+01 3.09687E+00 0.00000E+00
 -1      2007 6.45045E+01 3.09687E+00 0.00000E+00
 -1      2008 6.43350E+01 4.00625E+00 0.00000E+00
 -1      2009 6.90045E+01 3.09687E+00 0.00000E+00
 -1      2010 6.75045E+01 3.09687E+00 0.00000E+00
 -1      2011 6.73350E+01 4.00625E+00 0.00000E+00
 -1      2012 7.20045E+01 3.09687E+00 0.00000E+00
 -1      2013 7.05045E+01 3.09687E+00 0.00000E+00
 -1      2014 7.03350E+01 4.00625E+00 0.00000E+00
 -1      2015 7.50045E+01 3.09687E+00 0.00000E+00
 -1      2016 7.35045E+01 3.09687E+00 0.00000E+00
 -1      2017 7.33350E+01 4.00625E+00 0.00000E+00
 -1      2018 7.80045E+01 3.09687E+00 0.00000E+00
 -1      2019 7.65045E+01 3.09687E+00 0.00000E+00
 -1      2020 7.63350E+01 4.00625E+00 0.00000E+00
 -1      2021 8.10045E+01 3.09687E+00 0.00000E+00
 -1      2022 7.95045E+01 3.09687E+00 0.00000E+00
 -1      2023 7.93350E+01 4.00625E+00 0.00000E+00
 -1      2024 8.83091E+01 2.99188E+00 0.00000E+00
 -1      2025 8.71091E+01 2.99188E+00 0.00000E+00
 -1      2026 9.03123E+01 2.94084E+00 0.00000E+00
 -1      2027 8.91873E+01 2.94084E+00 0.00000E+00
 -1      2028 9.21394E+01 2.95220E+00 0.00000E+00
 -1      2029 9.11644E+01 2.95220E+00 0.00000E+00
 -1      2030 1.45950E+02 4.43890E+01 0.00000E+00
 -1      2031 1.05600E+02 3.89700E+00 0.00000E+00
 -1      2032 1.04100E+02 3.89700E+00 0.00000E+00
 -1      2033 1.06350E+02 5.19600E+00 0.00000E+00
 -1      2034 9.66751E+01 3.49417E+00 0.00000E+00
 -1      2035 9.57871E+01 3.28892E+00 0.00000E+00
 -1      2036 1.02600E+02 3.89700E+00 0.00000E+00
 -1      2037 1.01100E+02 3.89700E+00 0.00000E+00
 -1      2038 1.03350E+02 5.19600E+00 0.00000E+00
 -1      2039 1.11600E+02 3.89700E+00 0.00000E+00
 -1      2040 1.10100E+02 3.89700E+00 0.00000E+00
 -1      2041 1.09350E+02 5.19600E+00 0.00000E+00
 -1      2042 1.14600E+02 3.89700E+00 0.00000E+00
 -1      2043 1.13100E+02 3.89700E+00 0.00000E+00
 -1      2044 1.12350E+02 5.19600E+00 0.00000E+00
 -1      2045 1.17750E+02 3.89700E+00 0.00000E+00
 -1      2046 1.16175E+02 3.89700E+00 0.00000E+00
 -1      2047 1.15425E+02 5.19600E+00 0.00000E+00
 -1      2048 1.20750E+02 3.89700E+00 0.00000E+00
 -1      2049 1.19250E+02 3.89700E+00 0.00000E+00
 -1      2050 1.18500E+02 5.19600E+00 0.00000E+00
 -1      2051 1.23750E+02 3.89700E+00 0.00000E+00
 -1      2052 1.22250E+02 3.89700E+00 0.00000E+00
 -1      2053 1.21500E+02 5.19600E+00 0.00000E+00
 -1      2054 1.26750E+02 3.89700E+00 0.00000E+00
 -1      2055 1.25250E+02 3.89700E+00 0.00000E+00
 -1      2056 1.24500E+02 5.19600E+00 0.00000E+00
 -1      2057 1.29750E+02 3.89700E+00 0.00000E+00
 -1      2058 1.28250E+02 3.89700E+00 0.00000E+00
 -1      2059 1.27500E+02 5.19600E+00 0.00000E+00
 -1      2060 1.32750E+02 3.89700E+00 0.00000E+00
 -1      2061 1.31250E+02 3.89700E+00 0.00000E+00
 -1      2062 1.30500E+02 5.19600E+00 0.00000E+00
 -1      2063 1.35750E+02 3.89700E+00 0.00000E+00
 -1      2064 1.34250E+02 3.89700E+00 0.00000E+00
 -1      2065 1.33500E+02 5.19600E+00 0.00000E+00
 -1      2066 1.38750E+02 3.89700E+00 0.00000E+00
 -1      2067 1.37250E+02 3.89700E+00 0.00000E+00
 -1      2068 1.36500E+02 5.19600E+00 0.00000E+00
 -1      2069 1.41750E+02 3.89700E+00 0.00000E+00
 -1      2070 1.40250E+02 3.89700E+00 0.00000E+00
 -1      2071 1.39500E+02 5.19600E+00 0.00000E+00
 -1      2072 1.44750E+02 3.89700E+00 0.00000E+00
 -1      2073 1.43250E+02 3.89700E+00 0.00000E+00
 -1      2074 1.42500E+02 5.19600E+00 0.00000E+00
 -1      2075 1.46813E+02 4.11700E+00 0.00000E+00
 -1      2076 1.45688E+02 4.02900E+00 0.00000E+00
 -1      2077 1.44938E+02 5.32800E+00 0.00000E+00
 -1      2078 1.46813E+02 5.59200E+00 0.00000E+00
 -1      2079 1.46451E+02 1.08865E+01 0.00000E+00
 -1      2080 1.46451E+02 9.41150E+00 0.00000E+00
 -1      2081 1.46632E+02 8.23925E+00 0.00000E+00
 -1      2082 1.46632E+02 6.76425E+00 0.00000E+00
 -1      2083 1.45694E+02 6.63225E+00 0.00000E+00
 -1      2084 1.45333E+02 8.97675E+00 0.00000E+00
 -1      2085 1.46451E+02 1.38365E+01 0.00000E+00
 -1      2086 1.46451E+02 1.23615E+01 0.00000E+00
 -1      2087 1.45152E+02 1.16240E+01 0.00000E+00
 -1      2088 1.46451E+02 1.67365E+01 0.00000E+00
 -1      2089 1.46451E+02 1.52865E+01 0.00000E+00
 -1      2090 1.45152E+02 1.45490E+01 0.00000E+00
 -1      2091 1.46451E+02 1.96865E+01 0.00000E+00
 -1      2092 1.46451E+02 1.82115E+01 0.00000E+00
 -1      2093 1.45152E+02 1.74740E+01 0.00000E+00
 -1      2094 1.46451E+02 2.26365E+01 0.00000E+00
 -1      2095 1.46451E+02 2.11615E+01 0.00000E+00
 -1      2096 1.45152E+02 2.04240E+01 0.00000E+00
 -1      2097 1.46451E+02 2.55865E+01 0.00000E+00
 -1      2098 1.46451E+02 2.41115E+01 0.00000E+00
 -1      2099 1.45152E+02 2.33740E+01 0.00000E+00
 -1      2100 1.46451E+02 2.85365E+01 0.00000E+00
 -1      2101 1.46451E+02 2.70615E+01 0.00000E+00
 -1      2102 1.45152E+02 2.63240E+01 0.00000E+00
 -1      2103 1.46451E+02 3.14865E+01 0.00000E+00
 -1      2104 1.46451E+02 3.00115E+01 0.00000E+00
 -1      2105 1.45152E+02 2.92740E+01 0.00000E+00
 -1      2106 1.46451E+02 3.43865E+01 0.00000E+00
 -1      2107 1.46451E+02 3.29365E+01 0.00000E+00
 -1      2108 1.45152E+02 3.21990E+01 0.00000E+00
 -1      2109 1.46451E+02 3.73365E+01 0.00000E+00
 -1      2110 1.46451E+02 3.58615E+01 0.00000E+00
 -1      2111 1.45152E+02 3.51240E+01 0.00000E+00
 -1      2112 1.46451E+02 4.02865E+01 0.00000E+00
 -1      2113 1.46451E+02 3.88115E+01 0.00000E+00
 -1      2114 1.45152E+02 3.80740E+01 0.00000E+00
 -1      2115 1.46201E+02 4.30752E+01 0.00000E+00
 -1      2116 1.46201E+02 4.16003E+01 0.00000E+00
 -1      2117 1.44902E+02 4.08628E+01 0.00000E+00
 -1      2118 1.44400E+02 4.34902E+01 0.00000E+00
 -1      2119 9.89989E+01 1.14201E+01 0.00000E+00
 -1      2120 9.89266E+01 1.23160E+01 0.00000E+00
 -1      2121 9.84486E+01 9.36076E+00 0.00000E+00
 -1      2122 9.87337E+01 1.02382E+01 0.00000E+00
 -1      2123 9.68280E+01 6.08078E+00 0.00000E+00
 -1      2124 9.73503E+01 6.61361E+00 0.00000E+00
 -1      2125 9.29522E+01 3.21820E+00 0.00000E+00
 -1      2126 8.63130E+01 1.97822E+01 0.00000E+00
 -1      2127 8.56649E+01 1.95288E+01 0.00000E+00
 -1      2128 8.64931E+01 2.05654E+01 0.00000E+00
 -1      2129 9.15989E+01 2.06172E+01 0.00000E+00
 -1      2130 9.07736E+01 2.07360E+01 0.00000E+00
 -1      2131 9.52209E+01 4.67811E+00 0.00000E+00
 -1      2132 9.60372E+01 5.34386E+00 0.00000E+00
 -1      2133 3.89700E+00 3.74688E+01 0.00000E+00
 -1      2134 3.89700E+00 3.89437E+01 0.00000E+00
 -1      2135 5.19600E+00 3.96813E+01 0.00000E+00
 -1      2136 5.19600E+00 3.67438E+01 0.00000E+00
 -1      2137 8.63111E+01 3.38144E+00 0.00000E+00
 -1      2138 8.47236E+01 4.60380E+00 0.00000E+00
 -1      2139 8.54277E+01 4.15099E+00 0.00000E+00
 -1      2140 8.34196E+01 5.86180E+00 0.00000E+00
 -1      2141 8.40106E+01 5.28009E+00 0.00000E+00
 -1      2142 8.22424E+01 7.24267E+00 0.00000E+00
 -1      2143 8.27943E+01 6.55575E+00 0.00000E+00
 -1      2144 8.13509E+01 9.03828E+00 0.00000E+00
 -1      2145 8.17241E+01 8.18511E+00 0.00000E+00
 -1      2146 8.09656E+01 1.10399E+01 0.00000E+00
 -1      2147 8.09781E+01 1.01557E+01 0.00000E+00
 -1      2148 8.09831E+01 1.27258E+01 0.00000E+00
 -1      2149 8.09743E+01 1.18829E+01 0.00000E+00
 -1      2150 8.02069E+01 1.14298E+01 0.00000E+00
 -1      2151 8.13498E+01 1.46480E+01 0.00000E+00
 -1      2152 8.11193E+01 1.38046E+01 0.00000E+00
 -1      2153 8.19694E+01 1.63708E+01 0.00000E+00
 -1      2154 8.16596E+01 1.55094E+01 0.00000E+00
 -1      2155 8.07980E+01 1.52916E+01 0.00000E+00
 -1      2156 8.34510E+01 1.79448E+01 0.00000E+00
 -1      2157 8.27619E+01 1.73733E+01 0.00000E+00
 -1      2158 8.47627E+01 1.89995E+01 0.00000E+00
 -1      2159 8.41249E+01 1.84925E+01 0.00000E+00
 -1      2160 8.99117E+01 2.07234E+01 0.00000E+00
 -1      2161 8.90498E+01 2.07108E+01 0.00000E+00
 -1      2162 9.04346E+01 2.14298E+01 0.00000E+00
 -1      2163 9.96376E+01 3.69558E+00 0.00000E+00
 -1      2164 9.81376E+01 3.69558E+00 0.00000E+00
 -1      2165 9.74627E+01 4.59175E+00 0.00000E+00
 -1      2166 1.00388E+02 4.99458E+00 0.00000E+00
 -1      2167 9.32871E+01 2.00246E+01 0.00000E+00
 -1      2168 9.25195E+01 2.03021E+01 0.00000E+00
 -1      2169 9.48453E+01 1.92597E+01 0.00000E+00
 -1      2170 9.41247E+01 1.96492E+01 0.00000E+00
 -1      2171 9.62480E+01 1.80370E+01 0.00000E+00
 -1      2172 9.56644E+01 1.86381E+01 0.00000E+00
 -1      2173 9.73082E+01 1.65960E+01 0.00000E+00
 -1      2174 9.68182E+01 1.72860E+01 0.00000E+00
 -1      2175 9.81683E+01 1.50256E+01 0.00000E+00
 -1      2176 9.77932E+01 1.57839E+01 0.00000E+00
 -1      2177 9.87962E+01 1.31480E+01 0.00000E+00
 -1      2178 9.86658E+01 1.39800E+01 0.00000E+00
 -1      2179 9.96871E+01 1.27689E+01 0.00000E+00
 -1      2180 9.79574E+01 7.57559E+00 0.00000E+00
 -1      2181 9.82030E+01 8.46818E+00 0.00000E+00
 -1      2182 9.90416E+01 8.68074E+00 0.00000E+00
 -1      2183 8.83569E+01 2.11180E+01 0.00000E+00
 -1      2184 8.76641E+01 2.15253E+01 0.00000E+00
 -1      2185 8.88798E+01 2.18245E+01 0.00000E+00
 -1      2186 6.42300E+00 4.57510E+01 0.00000E+00
 -1      2187 7.17300E+00 4.44520E+01 0.00000E+00
 -1      2188 8.03519E+01 1.33515E+01 0.00000E+00
 -1      2189 8.26058E+01 5.77314E+00 0.00000E+00
 -1      2190 8.33115E+01 3.21262E+00 0.00000E+00
 -1      2191 8.18865E+01 3.21262E+00 0.00000E+00
 -1      2192 8.55406E+01 2.95705E+00 0.00000E+00
 -1      2193 8.43406E+01 2.95705E+00 0.00000E+00
 -1      2194 9.49365E+01 3.00316E+00 0.00000E+00
 -1      2195 9.36615E+01 3.00316E+00 0.00000E+00
 -1      2196 8.05709E+01 9.46943E+00 0.00000E+00
 -1      2197 9.39755E+01 2.04369E+01 0.00000E+00
 -1      2198 9.22172E+01 2.11274E+01 0.00000E+00
 -1      2199 9.95524E+01 1.07551E+01 0.00000E+00
 -1      2200 9.35897E+01 4.03386E+00 0.00000E+00
 -1      2201 9.43703E+01 4.39236E+00 0.00000E+00
 -1      2202 9.81889E+01 6.82617E+00 0.00000E+00
 -1      2203 9.90592E+01 1.46465E+01 0.00000E+00
 -1      2204 8.19002E+01 1.71554E+01 0.00000E+00
 -1      2205 8.10386E+01 1.69376E+01 0.00000E+00
 -1      2206 8.18311E+01 1.79401E+01 0.00000E+00
 -1      2207 9.80766E+01 1.65042E+01 0.00000E+00
 -1      2208 9.70214E+01 1.80672E+01 0.00000E+00
 -1      2209 8.49427E+01 1.97827E+01 0.00000E+00
 -1      2210 8.14621E+01 7.40953E+00 0.00000E+00
 -1      2211 8.39441E+01 4.40289E+00 0.00000E+00
 -1      2212 8.17170E+01 4.12200E+00 0.00000E+00
 -1      2213 8.33666E+01 1.87056E+01 0.00000E+00
 -1      2214 9.56322E+01 1.94398E+01 0.00000E+00
 -1      2215 8.36281E+01 3.98217E+00 0.00000E+00
 -1      2216 9.51496E+01 4.10458E+00 0.00000E+00
 -1      2217 6.49500E+00 3.01125E+01 0.00000E+00
 -1      2218 6.49500E+00 3.15875E+01 0.00000E+00
 -1      2219 6.49500E+00 3.30625E+01 0.00000E+00
 -1      2220 6.49500E+00 3.45375E+01 0.00000E+00
 -1      2221 7.79400E+00 3.23250E+01 0.00000E+00
 -1      2222 6.49500E+00 2.42125E+01 0.00000E+00
 -1      2223 6.49500E+00 2.56875E+01 0.00000E+00
 -1      2224 6.49500E+00 2.12625E+01 0.00000E+00
 -1      2225 6.49500E+00 2.27375E+01 0.00000E+00
 -1      2226 7.79400E+00 2.34750E+01 0.00000E+00
 -1      2227 6.49500E+00 1.83625E+01 0.00000E+00
 -1      2228 6.49500E+00 1.98125E+01 0.00000E+00
 -1      2229 7.79400E+00 2.05500E+01 0.00000E+00
 -1      2230 6.49500E+00 1.54125E+01 0.00000E+00
 -1      2231 6.49500E+00 1.68875E+01 0.00000E+00
 -1      2232 7.79400E+00 1.76250E+01 0.00000E+00
 -1      2233 6.49500E+00 1.24625E+01 0.00000E+00
 -1      2234 6.49500E+00 1.39375E+01 0.00000E+00
 -1      2235 7.79400E+00 1.46750E+01 0.00000E+00
 -1      2236 6.49500E+00 9.51250E+00 0.00000E+00
 -1      2237 6.49500E+00 1.09875E+01 0.00000E+00
 -1      2238 7.79400E+00 1.17250E+01 0.00000E+00
 -1      2239 6.49500E+00 6.56250E+00 0.00000E+00
 -1      2240 6.49500E+00 8.03750E+00 0.00000E+00
 -1      2241 7.79400E+00 8.77500E+00 0.00000E+00
 -1      2242 6.84975E+00 4.82969E+00 0.00000E+00
 -1      2243 6.68025E+00 5.73906E+00 0.00000E+00
 -1      2244 7.97925E+00 6.47656E+00 0.00000E+00
 -1      2245 8.34975E+00 4.82969E+00 0.00000E+00
 -1      2246 9.90000E+00 4.35050E+01 0.00000E+00
 -1      2247 1.14000E+01 4.35050E+01 0.00000E+00
 -1      2248 1.67850E+01 5.30525E+00 0.00000E+00
 -1      2249 1.52850E+01 5.30525E+00 0.00000E+00
 -1      2250 1.37850E+01 5.30525E+00 0.00000E+00
 -1      2251 1.22850E+01 5.30525E+00 0.00000E+00
 -1      2252 1.45350E+01 6.60425E+00 0.00000E+00
 -1      2253 6.55950E+00 4.28890E+01 0.00000E+00
 -1      2254 8.53650E+00 4.32410E+01 0.00000E+00
 -1      2255 9.28650E+00 4.19420E+01 0.00000E+00
 -1      2256 6.55950E+00 4.14140E+01 0.00000E+00
 -1      2257 1.10100E+02 6.49500E+00 0.00000E+00
 -1      2258 1.08600E+02 6.49500E+00 0.00000E+00
 -1      2259 1.29000E+01 4.35050E+01 0.00000E+00
 -1      2260 1.44000E+01 4.35050E+01 0.00000E+00
 -1      2261 1.21500E+01 4.22060E+01 0.00000E+00
 -1      2262 1.59000E+01 4.35050E+01 0.00000E+00
 -1      2263 1.74000E+01 4.35050E+01 0.00000E+00
 -1      2264 1.51500E+01 4.22060E+01 0.00000E+00
 -1      2265 1.89000E+01 4.35050E+01 0.00000E+00
 -1      2266 2.04000E+01 4.35050E+01 0.00000E+00
 -1      2267 1.81500E+01 4.22060E+01 0.00000E+00
 -1      2268 2.19000E+01 4.35050E+01 0.00000E+00
 -1      2269 2.34000E+01 4.35050E+01 0.00000E+00
 -1      2270 2.11500E+01 4.22060E+01 0.00000E+00
 -1      2271 2.49000E+01 4.35050E+01 0.00000E+00
 -1      2272 2.64000E+01 4.35050E+01 0.00000E+00
 -1      2273 2.41500E+01 4.22060E+01 0.00000E+00
 -1      2274 2.79000E+01 4.35050E+01 0.00000E+00
 -1      2275 2.94000E+01 4.35050E+01 0.00000E+00
 -1      2276 2.71500E+01 4.22060E+01 0.00000E+00
 -1      2277 3.09000E+01 4.35050E+01 0.00000E+00
 -1      2278 3.24000E+01 4.35050E+01 0.00000E+00
 -1      2279 3.01500E+01 4.22060E+01 0.00000E+00
 -1      2280 3.39000E+01 4.35050E+01 0.00000E+00
 -1      2281 3.54000E+01 4.35050E+01 0.00000E+00
 -1      2282 3.31500E+01 4.22060E+01 0.00000E+00
 -1      2283 3.69000E+01 4.35050E+01 0.00000E+00
 -1      2284 3.84000E+01 4.35050E+01 0.00000E+00
 -1      2285 3.61500E+01 4.22060E+01 0.00000E+00
 -1      2286 3.99000E+01 4.35050E+01 0.00000E+00
 -1      2287 4.14000E+01 4.35050E+01 0.00000E+00
 -1      2288 3.91500E+01 4.22060E+01 0.00000E+00
 -1      2289 4.29000E+01 4.35050E+01 0.00000E+00
 -1      2290 4.44000E+01 4.35050E+01 0.00000E+00
 -1      2291 4.21500E+01 4.22060E+01 0.00000E+00
 -1      2292 4.59000E+01 4.35050E+01 0.00000E+00
 -1      2293 4.74000E+01 4.35050E+01 0.00000E+00
 -1      2294 4.51500E+01 4.22060E+01 0.00000E+00
 -1      2295 4.89000E+01 4.35050E+01 0.00000E+00
 -1      2296 5.04000E+01 4.35050E+01 0.00000E+00
 -1      2297 4.81500E+01 4.22060E+01 0.00000E+00
 -1      2298 5.19000E+01 4.35050E+01 0.00000E+00
 -1      2299 5.34000E+01 4.35050E+01 0.00000E+00
 -1      2300 5.11500E+01 4.22060E+01 0.00000E+00
 -1      2301 5.49000E+01 4.35050E+01 0.00000E+00
 -1      2302 5.64000E+01 4.35050E+01 0.00000E+00
 -1      2303 5.41500E+01 4.22060E+01 0.00000E+00
 -1      2304 5.79000E+01 4.35050E+01 0.00000E+00
 -1      2305 5.94000E+01 4.35050E+01 0.00000E+00
 -1      2306 5.71500E+01 4.22060E+01 0.00000E+00
 -1      2307 6.09000E+01 4.35050E+01 0.00000E+00
 -1      2308 6.24000E+01 4.35050E+01 0.00000E+00
 -1      2309 6.01500E+01 4.22060E+01 0.00000E+00
 -1      2310 6.39000E+01 4.35050E+01 0.00000E+00
 -1      2311 6.54000E+01 4.35050E+01 0.00000E+00
 -1      2312 6.31500E+01 4.22060E+01 0.00000E+00
 -1      2313 6.69000E+01 4.35050E+01 0.00000E+00
 -1      2314 6.84000E+01 4.35050E+01 0.00000E+00
 -1      2315 6.61500E+01 4.22060E+01 0.00000E+00
 -1      2316 6.99000E+01 4.35050E+01 0.00000E+00
 -1      2317 7.14000E+01 4.35050E+01 0.00000E+00
 -1      2318 6.91500E+01 4.22060E+01 0.00000E+00
 -1      2319 7.29000E+01 4.35050E+01 0.00000E+00
 -1      2320 7.44000E+01 4.35050E+01 0.00000E+00
 -1      2321 7.21500E+01 4.22060E+01 0.00000E+00
 -1      2322 7.59000E+01 4.35050E+01 0.00000E+00
 -1      2323 7.74000E+01 4.35050E+01 0.00000E+00
 -1      2324 7.51500E+01 4.22060E+01 0.00000E+00
 -1      2325 7.89000E+01 4.35050E+01 0.00000E+00
 -1      2326 8.04000E+01 4.35050E+01 0.00000E+00
 -1      2327 7.81500E+01 4.22060E+01 0.00000E+00
 -1      2328 8.19000E+01 4.35050E+01 0.00000E+00
 -1      2329 8.34000E+01 4.35050E+01 0.00000E+00
 -1      2330 8.11500E+01 4.22060E+01 0.00000E+00
 -1      2331 8.49000E+01 4.35050E+01 0.00000E+00
 -1      2332 8.64000E+01 4.35050E+01 0.00000E+00
 -1      2333 8.41500E+01 4.22060E+01 0.00000E+00
 -1      2334 8.79000E+01 4.35050E+01 0.00000E+00
 -1      2335 8.94000E+01 4.35050E+01 0.00000E+00
 -1      2336 8.71500E+01 4.22060E+01 0.00000E+00
 -1      2337 9.09000E+01 4.35050E+01 0.00000E+00
 -1      2338 9.24000E+01 4.35050E+01 0.00000E+00
 -1      2339 9.01500E+01 4.22060E+01 0.00000E+00
 -1      2340 9.39000E+01 4.35050E+01 0.00000E+00
 -1      2341 9.54000E+01 4.35050E+01 0.00000E+00
 -1      2342 9.31500E+01 4.22060E+01 0.00000E+00
 -1      2343 9.69000E+01 4.35050E+01 0.00000E+00
 -1      2344 9.84000E+01 4.35050E+01 0.00000E+00
 -1      2345 9.61500E+01 4.22060E+01 0.00000E+00
 -1      2346 9.99000E+01 4.35050E+01 0.00000E+00
 -1      2347 1.01400E+02 4.35050E+01 0.00000E+00
 -1      2348 9.91500E+01 4.22060E+01 0.00000E+00
 -1      2349 1.02900E+02 4.35050E+01 0.00000E+00
 -1      2350 1.04400E+02 4.35050E+01 0.00000E+00
 -1      2351 1.02150E+02 4.22060E+01 0.00000E+00
 -1      2352 1.05900E+02 4.35050E+01 0.00000E+00
 -1      2353 1.07400E+02 4.35050E+01 0.00000E+00
 -1      2354 1.05150E+02 4.22060E+01 0.00000E+00
 -1      2355 1.08900E+02 4.35050E+01 0.00000E+00
 -1      2356 1.10400E+02 4.35050E+01 0.00000E+00
 -1      2357 1.08150E+02 4.22060E+01 0.00000E+00
 -1      2358 1.11900E+02 4.35050E+01 0.00000E+00
 -1      2359 1.13400E+02 4.35050E+01 0.00000E+00
 -1      2360 1.11150E+02 4.22060E+01 0.00000E+00
 -1      2361 1.14900E+02 4.35050E+01 0.00000E+00
 -1      2362 1.16400E+02 4.35050E+01 0.00000E+00
 -1      2363 1.14150E+02 4.22060E+01 0.00000E+00
 -1      2364 1.17900E+02 4.35050E+01 0.00000E+00
 -1      2365 1.19400E+02 4.35050E+01 0.00000E+00
 -1      2366 1.17150E+02 4.22060E+01 0.00000E+00
 -1      2367 1.20900E+02 4.35050E+01 0.00000E+00
 -1      2368 1.22400E+02 4.35050E+01 0.00000E+00
 -1      2369 1.20150E+02 4.22060E+01 0.00000E+00
 -1      2370 1.23900E+02 4.35050E+01 0.00000E+00
 -1      2371 1.25400E+02 4.35050E+01 0.00000E+00
 -1      2372 1.23150E+02 4.22060E+01 0.00000E+00
 -1      2373 1.26900E+02 4.35050E+01 0.00000E+00
 -1      2374 1.28400E+02 4.35050E+01 0.00000E+00
 -1      2375 1.26150E+02 4.22060E+01 0.00000E+00
 -1      2376 1.29900E+02 4.35050E+01 0.00000E+00
 -1      2377 1.31400E+02 4.35050E+01 0.00000E+00
 -1      2378 1.29150E+02 4.22060E+01 0.00000E+00
 -1      2379 1.32900E+02 4.35050E+01 0.00000E+00
 -1      2380 1.34400E+02 4.35050E+01 0.00000E+00
 -1      2381 1.32150E+02 4.22060E+01 0.00000E+00
 -1      2382 1.35900E+02 4.35050E+01 0.00000E+00
 -1      2383 1.37400E+02 4.35050E+01 0.00000E+00
 -1      2384 1.35150E+02 4.22060E+01 0.00000E+00
 -1      2385 1.38900E+02 4.35050E+01 0.00000E+00
 -1      2386 1.40400E+02 4.35050E+01 0.00000E+00
 -1      2387 1.38150E+02 4.22060E+01 0.00000E+00
 -1      2388 1.41650E+02 4.34976E+01 0.00000E+00
 -1      2389 1.43150E+02 4.34976E+01 0.00000E+00
 -1      2390 1.43401E+02 4.21839E+01 0.00000E+00
 -1      2391 1.40900E+02 4.21986E+01 0.00000E+00
 -1      2392 1.13100E+02 6.49500E+00 0.00000E+00
 -1      2393 1.11600E+02 6.49500E+00 0.00000E+00
 -1      2394 1.10850E+02 7.79400E+00 0.00000E+00
 -1      2395 1.10674E+01 5.06747E+00 0.00000E+00
 -1      2396 9.56738E+00 5.06747E+00 0.00000E+00
 -1      2397 9.38212E+00 5.89091E+00 0.00000E+00
 -1      2398 1.18174E+01 6.36647E+00 0.00000E+00
 -1      2399 1.97850E+01 5.30525E+00 0.00000E+00
 -1      2400 1.82850E+01 5.30525E+00 0.00000E+00
 -1      2401 1.75350E+01 6.60425E+00 0.00000E+00
 -1      2402 2.27850E+01 5.30525E+00 0.00000E+00
 -1      2403 2.12850E+01 5.30525E+00 0.00000E+00
 -1      2404 2.05350E+01 6.60425E+00 0.00000E+00
 -1      2405 2.57850E+01 5.30525E+00 0.00000E+00
 -1      2406 2.42850E+01 5.30525E+00 0.00000E+00
 -1      2407 2.35350E+01 6.60425E+00 0.00000E+00
 -1      2408 2.87850E+01 5.30525E+00 0.00000E+00
 -1      2409 2.72850E+01 5.30525E+00 0.00000E+00
 -1      2410 2.65350E+01 6.60425E+00 0.00000E+00
 -1      2411 3.19350E+01 5.30525E+00 0.00000E+00
 -1      2412 3.03600E+01 5.30525E+00 0.00000E+00
 -1      2413 2.96100E+01 6.60425E+00 0.00000E+00
 -1      2414 3.49350E+01 5.30525E+00 0.00000E+00
 -1      2415 3.34350E+01 5.30525E+00 0.00000E+00
 -1      2416 3.26850E+01 6.60425E+00 0.00000E+00
 -1      2417 3.79350E+01 5.30525E+00 0.00000E+00
 -1      2418 3.64350E+01 5.30525E+00 0.00000E+00
 -1      2419 3.56850E+01 6.60425E+00 0.00000E+00
 -1      2420 4.09350E+01 5.30525E+00 0.00000E+00
 -1      2421 3.94350E+01 5.30525E+00 0.00000E+00
 -1      2422 3.86850E+01 6.60425E+00 0.00000E+00
 -1      2423 4.39350E+01 5.30525E+00 0.00000E+00
 -1      2424 4.24350E+01 5.30525E+00 0.00000E+00
 -1      2425 4.16850E+01 6.60425E+00 0.00000E+00
 -1      2426 4.69350E+01 5.30525E+00 0.00000E+00
 -1      2427 4.54350E+01 5.30525E+00 0.00000E+00
 -1      2428 4.46850E+01 6.60425E+00 0.00000E+00
 -1      2429 4.99350E+01 5.30525E+00 0.00000E+00
 -1      2430 4.84350E+01 5.30525E+00 0.00000E+00
 -1      2431 4.76850E+01 6.60425E+00 0.00000E+00
 -1      2432 5.29350E+01 5.30525E+00 0.00000E+00
 -1      2433 5.14350E+01 5.30525E+00 0.00000E+00
 -1      2434 5.06850E+01 6.60425E+00 0.00000E+00
 -1      2435 5.59350E+01 5.30525E+00 0.00000E+00
 -1      2436 5.44350E+01 5.30525E+00 0.00000E+00
 -1      2437 5.36850E+01 6.60425E+00 0.00000E+00
 -1      2438 5.89350E+01 5.30525E+00 0.00000E+00
 -1      2439 5.74350E+01 5.30525E+00 0.00000E+00
 -1      2440 5.66850E+01 6.60425E+00 0.00000E+00
 -1      2441 6.20850E+01 5.30525E+00 0.00000E+00
 -1      2442 6.05100E+01 5.30525E+00 0.00000E+00
 -1      2443 5.97600E+01 6.60425E+00 0.00000E+00
 -1      2444 6.50850E+01 5.30525E+00 0.00000E+00
 -1      2445 6.35850E+01 5.30525E+00 0.00000E+00
 -1      2446 6.28350E+01 6.60425E+00 0.00000E+00
 -1      2447 6.80850E+01 5.30525E+00 0.00000E+00
 -1      2448 6.65850E+01 5.30525E+00 0.00000E+00
 -1      2449 6.58350E+01 6.60425E+00 0.00000E+00
 -1      2450 7.10850E+01 5.30525E+00 0.00000E+00
 -1      2451 6.95850E+01 5.30525E+00 0.00000E+00
 -1      2452 6.88350E+01 6.60425E+00 0.00000E+00
 -1      2453 7.40850E+01 5.30525E+00 0.00000E+00
 -1      2454 7.25850E+01 5.30525E+00 0.00000E+00
 -1      2455 7.18350E+01 6.60425E+00 0.00000E+00
 -1      2456 7.70850E+01 5.30525E+00 0.00000E+00
 -1      2457 7.55850E+01 5.30525E+00 0.00000E+00
 -1      2458 7.48350E+01 6.60425E+00 0.00000E+00
 -1      2459 8.32419E+01 1.95474E+01 0.00000E+00
 -1      2460 8.25680E+01 1.89997E+01 0.00000E+00
 -1      2461 9.96648E+01 8.02915E+00 0.00000E+00
 -1      2462 9.99104E+01 8.92174E+00 0.00000E+00
 -1      2463 7.97300E+01 9.80981E+00 0.00000E+00
 -1      2464 8.01028E+01 8.69235E+00 0.00000E+00
 -1      2465 1.07100E+02 6.49500E+00 0.00000E+00
 -1      2466 1.05600E+02 6.49500E+00 0.00000E+00
 -1      2467 1.07850E+02 7.79400E+00 0.00000E+00
 -1      2468 1.16250E+02 6.49500E+00 0.00000E+00
 -1      2469 1.14675E+02 6.49500E+00 0.00000E+00
 -1      2470 1.13925E+02 7.79400E+00 0.00000E+00
 -1      2471 1.19250E+02 6.49500E+00 0.00000E+00
 -1      2472 1.17750E+02 6.49500E+00 0.00000E+00
 -1      2473 1.17000E+02 7.79400E+00 0.00000E+00
 -1      2474 1.22250E+02 6.49500E+00 0.00000E+00
 -1      2475 1.20750E+02 6.49500E+00 0.00000E+00
 -1      2476 1.20000E+02 7.79400E+00 0.00000E+00
 -1      2477 1.25250E+02 6.49500E+00 0.00000E+00
 -1      2478 1.23750E+02 6.49500E+00 0.00000E+00
 -1      2479 1.23000E+02 7.79400E+00 0.00000E+00
 -1      2480 1.28250E+02 6.49500E+00 0.00000E+00
 -1      2481 1.26750E+02 6.49500E+00 0.00000E+00
 -1      2482 1.26000E+02 7.79400E+00 0.00000E+00
 -1      2483 1.31250E+02 6.49500E+00 0.00000E+00
 -1      2484 1.29750E+02 6.49500E+00 0.00000E+00
 -1      2485 1.29000E+02 7.79400E+00 0.00000E+00
 -1      2486 1.34250E+02 6.49500E+00 0.00000E+00
 -1      2487 1.32750E+02 6.49500E+00 0.00000E+00
 -1      2488 1.32000E+02 7.79400E+00 0.00000E+00
 -1      2489 1.37250E+02 6.49500E+00 0.00000E+00
 -1      2490 1.35750E+02 6.49500E+00 0.00000E+00
 -1      2491 1.35000E+02 7.79400E+00 0.00000E+00
 -1      2492 1.40250E+02 6.49500E+00 0.00000E+00
 -1      2493 1.38750E+02 6.49500E+00 0.00000E+00
 -1      2494 1.38000E+02 7.79400E+00 0.00000E+00
 -1      2495 1.43250E+02 6.49500E+00 0.00000E+00
 -1      2496 1.41750E+02 6.49500E+00 0.00000E+00
 -1      2497 1.41000E+02 7.79400E+00 0.00000E+00
 -1      2498 1.44757E+02 6.50025E+00 0.00000E+00
 -1      2499 1.43853E+02 1.52740E+01 0.00000E+00
 -1      2500 1.43853E+02 1.38240E+01 0.00000E+00
 -1      2501 1.43853E+02 1.82240E+01 0.00000E+00
 -1      2502 1.43853E+02 1.67490E+01 0.00000E+00
 -1      2503 1.42554E+02 1.60240E+01 0.00000E+00
 -1      2504 9.67911E+01 5.12727E+00 0.00000E+00
 -1      2505 1.43853E+02 1.23490E+01 0.00000E+00
 -1      2506 1.43853E+02 1.08740E+01 0.00000E+00
 -1      2507 1.42554E+02 1.30740E+01 0.00000E+00
 -1      2508 1.43853E+02 2.11740E+01 0.00000E+00
 -1      2509 1.43853E+02 1.96990E+01 0.00000E+00
 -1      2510 1.42554E+02 1.89740E+01 0.00000E+00
 -1      2511 1.43853E+02 2.41240E+01 0.00000E+00
 -1      2512 1.43853E+02 2.26490E+01 0.00000E+00
 -1      2513 1.42554E+02 2.19240E+01 0.00000E+00
 -1      2514 1.43853E+02 2.70740E+01 0.00000E+00
 -1      2515 1.43853E+02 2.55990E+01 0.00000E+00
 -1      2516 1.42554E+02 2.48740E+01 0.00000E+00
 -1      2517 1.43853E+02 3.00240E+01 0.00000E+00
 -1      2518 1.43853E+02 2.85490E+01 0.00000E+00
 -1      2519 1.42554E+02 2.78240E+01 0.00000E+00
 -1      2520 1.43853E+02 3.29240E+01 0.00000E+00
 -1      2521 1.43853E+02 3.14740E+01 0.00000E+00
 -1      2522 1.42554E+02 3.07490E+01 0.00000E+00
 -1      2523 1.43853E+02 3.58740E+01 0.00000E+00
 -1      2524 1.43853E+02 3.43990E+01 0.00000E+00
 -1      2525 1.42554E+02 3.36740E+01 0.00000E+00
 -1      2526 1.43853E+02 3.88240E+01 0.00000E+00
 -1      2527 1.43853E+02 3.73490E+01 0.00000E+00
 -1      2528 1.42554E+02 3.66240E+01 0.00000E+00
 -1      2529 9.99688E+01 1.44382E+01 0.00000E+00
 -1      2530 9.94713E+01 1.54837E+01 0.00000E+00
 -1      2531 8.65049E+01 2.14908E+01 0.00000E+00
 -1      2532 8.58568E+01 2.12374E+01 0.00000E+00
 -1      2533 1.00558E+02 1.24793E+01 0.00000E+00
 -1      2534 1.00428E+02 1.33112E+01 0.00000E+00
 -1      2535 1.00257E+02 9.97649E+00 0.00000E+00
 -1      2536 1.00522E+02 1.11583E+01 0.00000E+00
 -1      2537 9.08505E+01 2.24612E+01 0.00000E+00
 -1      2538 8.99886E+01 2.24486E+01 0.00000E+00
 -1      2539 1.04100E+02 6.49500E+00 0.00000E+00
 -1      2540 1.02600E+02 6.49500E+00 0.00000E+00
 -1      2541 1.04850E+02 7.79400E+00 0.00000E+00
 -1      2542 8.05616E+01 7.52803E+00 0.00000E+00
 -1      2543 8.10800E+01 6.58559E+00 0.00000E+00
 -1      2544 6.49500E+00 2.71625E+01 0.00000E+00
 -1      2545 6.49500E+00 2.86375E+01 0.00000E+00
 -1      2546 7.79400E+00 2.93750E+01 0.00000E+00
 -1      2547 7.79400E+00 2.64250E+01 0.00000E+00
 -1      2548 9.47107E+01 2.09553E+01 0.00000E+00
 -1      2549 9.38731E+01 2.13307E+01 0.00000E+00
 -1      2550 7.94795E+01 1.18589E+01 0.00000E+00
 -1      2551 7.94707E+01 1.10160E+01 0.00000E+00
 -1      2552 9.90554E+01 1.65378E+01 0.00000E+00
 -1      2553 9.85704E+01 1.73499E+01 0.00000E+00
 -1      2554 8.01854E+01 1.59984E+01 0.00000E+00
 -1      2555 7.98755E+01 1.51370E+01 0.00000E+00
 -1      2556 9.65602E+01 1.98121E+01 0.00000E+00
 -1      2557 9.57411E+01 2.04338E+01 0.00000E+00
 -1      2558 7.96108E+01 1.39930E+01 0.00000E+00
 -1      2559 7.94746E+01 1.29143E+01 0.00000E+00
 -1      2560 9.29145E+01 2.16622E+01 0.00000E+00
 -1      2561 9.19939E+01 2.19774E+01 0.00000E+00
 -1      2562 8.49545E+01 2.07081E+01 0.00000E+00
 -1      2563 8.40523E+01 2.01787E+01 0.00000E+00
 -1      2564 8.49664E+01 2.16334E+01 0.00000E+00
 -1      2565 9.79228E+01 1.81596E+01 0.00000E+00
 -1      2566 9.73526E+01 1.89106E+01 0.00000E+00
 -1      2567 9.82535E+01 5.32868E+00 0.00000E+00
 -1      2568 7.79400E+00 3.52687E+01 0.00000E+00
 -1      2569 6.49500E+00 3.60062E+01 0.00000E+00
 -1      2570 6.49500E+00 3.74750E+01 0.00000E+00
 -1      2571 6.55950E+00 3.99453E+01 0.00000E+00
 -1      2572 7.90026E+01 1.02389E+01 0.00000E+00
 -1      2573 9.36498E+01 2.21807E+01 0.00000E+00
 -1      2574 9.94372E+01 7.16303E+00 0.00000E+00
 -1      2575 1.00306E+02 7.40404E+00 0.00000E+00
 -1      2576 8.15817E+01 1.96237E+01 0.00000E+00
 -1      2577 8.17064E+01 1.87819E+01 0.00000E+00
 -1      2578 8.08448E+01 1.85640E+01 0.00000E+00
 -1      2579 7.90073E+01 5.35517E+00 0.00000E+00
 -1      2580 7.82573E+01 6.65417E+00 0.00000E+00
 -1      2581 8.32537E+01 2.04728E+01 0.00000E+00
 -1      2582 8.05073E+01 5.35517E+00 0.00000E+00
 -1      2583 1.00880E+02 9.32491E+00 0.00000E+00
 -1      2584 9.56387E+01 2.13276E+01 0.00000E+00
 -1      2585 7.97207E+01 7.86841E+00 0.00000E+00
 -1      2586 8.14077E+01 5.23667E+00 0.00000E+00
 -1      2587 1.44007E+02 7.79925E+00 0.00000E+00
 -1      2588 8.70278E+01 2.21973E+01 0.00000E+00
 -1      2589 1.43826E+02 8.97150E+00 0.00000E+00
 -1      2590 9.99650E+01 1.63295E+01 0.00000E+00
 -1      2591 1.00840E+02 1.41485E+01 0.00000E+00
 -1      2592 1.43502E+02 4.11608E+01 0.00000E+00
 -1      2593 1.43752E+02 3.98471E+01 0.00000E+00
 -1      2594 1.42453E+02 3.91221E+01 0.00000E+00
 -1      2595 1.42251E+02 4.11682E+01 0.00000E+00
 -1      2596 9.74615E+01 1.99045E+01 0.00000E+00
 -1      2597 1.42527E+02 9.69650E+00 0.00000E+00
 -1      2598 9.88302E+01 6.20106E+00 0.00000E+00
 -1      2599 1.01262E+02 1.17006E+01 0.00000E+00
 -1      2600 8.92958E+01 2.28558E+01 0.00000E+00
 -1      2601 7.89982E+01 1.46998E+01 0.00000E+00
 -1      2602 8.01162E+01 1.67830E+01 0.00000E+00
 -1      2603 7.91937E+01 1.66283E+01 0.00000E+00
 -1      2604 8.00470E+01 1.75676E+01 0.00000E+00
 -1      2605 8.22897E+01 5.35242E+00 0.00000E+00
 -1      2606 7.87383E+01 1.25005E+01 0.00000E+00
 -1      2607 9.95018E+01 5.66554E+00 0.00000E+00
 -1      2608 9.15479E+01 2.29961E+01 0.00000E+00
 -1      2609 8.29151E+01 4.65847E+00 0.00000E+00
 -1      2610 9.89016E+01 1.81933E+01 0.00000E+00
 -1      2611 1.00964E+02 5.86696E+00 0.00000E+00
 -1      2612 1.01714E+02 7.16596E+00 0.00000E+00
 -1      2613 9.09300E+00 3.15875E+01 0.00000E+00
 -1      2614 9.09300E+00 3.30625E+01 0.00000E+00
 -1      2615 9.09300E+00 1.98250E+01 0.00000E+00
 -1      2616 9.09300E+00 2.12750E+01 0.00000E+00
 -1      2617 9.09300E+00 2.27500E+01 0.00000E+00
 -1      2618 9.09300E+00 2.42250E+01 0.00000E+00
 -1      2619 1.03920E+01 2.20250E+01 0.00000E+00
 -1      2620 9.09300E+00 1.39375E+01 0.00000E+00
 -1      2621 9.09300E+00 1.54125E+01 0.00000E+00
 -1      2622 9.09300E+00 1.09875E+01 0.00000E+00
 -1      2623 9.09300E+00 1.24625E+01 0.00000E+00
 -1      2624 1.03920E+01 1.32000E+01 0.00000E+00
 -1      2625 9.19687E+00 6.71434E+00 0.00000E+00
 -1      2626 2.42850E+01 7.90325E+00 0.00000E+00
 -1      2627 2.27850E+01 7.90325E+00 0.00000E+00
 -1      2628 2.12850E+01 7.90325E+00 0.00000E+00
 -1      2629 1.97850E+01 7.90325E+00 0.00000E+00
 -1      2630 2.20350E+01 9.20225E+00 0.00000E+00
 -1      2631 8.85168E+00 4.05347E+01 0.00000E+00
 -1      2632 1.02152E+01 4.07987E+01 0.00000E+00
 -1      2633 1.82850E+01 7.90325E+00 0.00000E+00
 -1      2634 1.67850E+01 7.90325E+00 0.00000E+00
 -1      2635 1.90350E+01 9.20225E+00 0.00000E+00
 -1      2636 1.17152E+01 4.07987E+01 0.00000E+00
 -1      2637 1.32152E+01 4.07987E+01 0.00000E+00
 -1      2638 1.12804E+01 3.93914E+01 0.00000E+00
 -1      2639 1.11600E+02 9.07048E+00 0.00000E+00
 -1      2640 1.10100E+02 9.07048E+00 0.00000E+00
 -1      2641 1.47152E+01 4.07987E+01 0.00000E+00
 -1      2642 1.62152E+01 4.07987E+01 0.00000E+00
 -1      2643 1.42804E+01 3.93914E+01 0.00000E+00
 -1      2644 1.77152E+01 4.07987E+01 0.00000E+00
 -1      2645 1.92152E+01 4.07987E+01 0.00000E+00
 -1      2646 1.72804E+01 3.93914E+01 0.00000E+00
 -1      2647 2.07152E+01 4.07987E+01 0.00000E+00
 -1      2648 2.22152E+01 4.07987E+01 0.00000E+00
 -1      2649 2.02804E+01 3.93914E+01 0.00000E+00
 -1      2650 2.37152E+01 4.07987E+01 0.00000E+00
 -1      2651 2.52152E+01 4.07987E+01 0.00000E+00
 -1      2652 2.32804E+01 3.93914E+01 0.00000E+00
 -1      2653 2.67152E+01 4.07987E+01 0.00000E+00
 -1      2654 2.82152E+01 4.07987E+01 0.00000E+00
 -1      2655 2.62804E+01 3.93914E+01 0.00000E+00
 -1      2656 2.97152E+01 4.07987E+01 0.00000E+00
 -1      2657 3.12152E+01 4.07987E+01 0.00000E+00
 -1      2658 2.92804E+01 3.93914E+01 0.00000E+00
 -1      2659 3.27152E+01 4.07987E+01 0.00000E+00
 -1      2660 3.42152E+01 4.07987E+01 0.00000E+00
 -1      2661 3.22803E+01 3.93914E+01 0.00000E+00
 -1      2662 3.57152E+01 4.07987E+01 0.00000E+00
 -1      2663 3.72152E+01 4.07987E+01 0.00000E+00
 -1      2664 3.52803E+01 3.93914E+01 0.00000E+00
 -1      2665 3.87152E+01 4.07987E+01 0.00000E+00
 -1      2666 4.02152E+01 4.07987E+01 0.00000E+00
 -1      2667 3.82803E+01 3.93914E+01 0.00000E+00
 -1      2668 4.17152E+01 4.07987E+01 0.00000E+00
 -1      2669 4.32152E+01 4.07987E+01 0.00000E+00
 -1      2670 4.12803E+01 3.93914E+01 0.00000E+00
 -1      2671 4.47152E+01 4.07987E+01 0.00000E+00
 -1      2672 4.62152E+01 4.07987E+01 0.00000E+00
 -1      2673 4.42803E+01 3.93914E+01 0.00000E+00
 -1      2674 4.77152E+01 4.07987E+01 0.00000E+00
 -1      2675 4.92152E+01 4.07987E+01 0.00000E+00
 -1      2676 4.72803E+01 3.93914E+01 0.00000E+00
 -1      2677 5.07152E+01 4.07987E+01 0.00000E+00
 -1      2678 5.22152E+01 4.07987E+01 0.00000E+00
 -1      2679 5.02803E+01 3.93914E+01 0.00000E+00
 -1      2680 5.37152E+01 4.07987E+01 0.00000E+00
 -1      2681 5.52152E+01 4.07987E+01 0.00000E+00
 -1      2682 5.32803E+01 3.93914E+01 0.00000E+00
 -1      2683 5.67152E+01 4.07987E+01 0.00000E+00
 -1      2684 5.82152E+01 4.07987E+01 0.00000E+00
 -1      2685 5.62803E+01 3.93914E+01 0.00000E+00
 -1      2686 5.97152E+01 4.07987E+01 0.00000E+00
 -1      2687 6.12152E+01 4.07987E+01 0.00000E+00
 -1      2688 5.92803E+01 3.93914E+01 0.00000E+00
 -1      2689 6.27152E+01 4.07987E+01 0.00000E+00
 -1      2690 6.42152E+01 4.07987E+01 0.00000E+00
 -1      2691 6.22803E+01 3.93914E+01 0.00000E+00
 -1      2692 6.57152E+01 4.07987E+01 0.00000E+00
 -1      2693 6.72152E+01 4.07987E+01 0.00000E+00
 -1      2694 6.52803E+01 3.93914E+01 0.00000E+00
 -1      2695 6.87152E+01 4.07987E+01 0.00000E+00
 -1      2696 7.02152E+01 4.07987E+01 0.00000E+00
 -1      2697 6.82803E+01 3.93914E+01 0.00000E+00
 -1      2698 7.17152E+01 4.07987E+01 0.00000E+00
 -1      2699 7.32152E+01 4.07987E+01 0.00000E+00
 -1      2700 7.12803E+01 3.93914E+01 0.00000E+00
 -1      2701 7.47152E+01 4.07987E+01 0.00000E+00
 -1      2702 7.62152E+01 4.07987E+01 0.00000E+00
 -1      2703 7.42803E+01 3.93914E+01 0.00000E+00
 -1      2704 7.77152E+01 4.07987E+01 0.00000E+00
 -1      2705 7.92152E+01 4.07987E+01 0.00000E+00
 -1      2706 7.72803E+01 3.93914E+01 0.00000E+00
 -1      2707 8.07152E+01 4.07987E+01 0.00000E+00
 -1      2708 8.22152E+01 4.07987E+01 0.00000E+00
 -1      2709 8.02803E+01 3.93914E+01 0.00000E+00
 -1      2710 8.37152E+01 4.07987E+01 0.00000E+00
 -1      2711 8.52152E+01 4.07987E+01 0.00000E+00
 -1      2712 8.32803E+01 3.93914E+01 0.00000E+00
 -1      2713 8.67152E+01 4.07987E+01 0.00000E+00
 -1      2714 8.82152E+01 4.07987E+01 0.00000E+00
 -1      2715 8.62803E+01 3.93914E+01 0.00000E+00
 -1      2716 8.97152E+01 4.07987E+01 0.00000E+00
 -1      2717 9.12152E+01 4.07987E+01 0.00000E+00
 -1      2718 8.92803E+01 3.93914E+01 0.00000E+00
 -1      2719 9.27152E+01 4.07987E+01 0.00000E+00
 -1      2720 9.42152E+01 4.07987E+01 0.00000E+00
 -1      2721 9.22803E+01 3.93914E+01 0.00000E+00
 -1      2722 9.57152E+01 4.07987E+01 0.00000E+00
 -1      2723 9.72152E+01 4.07987E+01 0.00000E+00
 -1      2724 9.52803E+01 3.93914E+01 0.00000E+00
 -1      2725 9.87152E+01 4.07987E+01 0.00000E+00
 -1      2726 1.00215E+02 4.07987E+01 0.00000E+00
 -1      2727 9.82803E+01 3.93914E+01 0.00000E+00
 -1      2728 1.01715E+02 4.07987E+01 0.00000E+00
 -1      2729 1.03215E+02 4.07987E+01 0.00000E+00
 -1      2730 1.01280E+02 3.93914E+01 0.00000E+00
 -1      2731 1.04715E+02 4.07987E+01 0.00000E+00
 -1      2732 1.06215E+02 4.07987E+01 0.00000E+00
 -1      2733 1.04280E+02 3.93914E+01 0.00000E+00
 -1      2734 1.07715E+02 4.07987E+01 0.00000E+00
 -1      2735 1.09215E+02 4.07987E+01 0.00000E+00
 -1      2736 1.07280E+02 3.93914E+01 0.00000E+00
 -1      2737 1.10715E+02 4.07987E+01 0.00000E+00
 -1      2738 1.12215E+02 4.07987E+01 0.00000E+00
 -1      2739 1.10280E+02 3.93914E+01 0.00000E+00
 -1      2740 1.13715E+02 4.07987E+01 0.00000E+00
 -1      2741 1.15215E+02 4.07987E+01 0.00000E+00
 -1      2742 1.13280E+02 3.93914E+01 0.00000E+00
 -1      2743 1.16715E+02 4.07987E+01 0.00000E+00
 -1      2744 1.18215E+02 4.07987E+01 0.00000E+00
 -1      2745 1.16280E+02 3.93914E+01 0.00000E+00
 -1      2746 1.19715E+02 4.07987E+01 0.00000E+00
 -1      2747 1.21215E+02 4.07987E+01 0.00000E+00
 -1      2748 1.19280E+02 3.93914E+01 0.00000E+00
 -1      2749 1.22715E+02 4.07987E+01 0.00000E+00
 -1      2750 1.24215E+02 4.07987E+01 0.00000E+00
 -1      2751 1.22280E+02 3.93914E+01 0.00000E+00
 -1      2752 1.25715E+02 4.07987E+01 0.00000E+00
 -1      2753 1.27215E+02 4.07987E+01 0.00000E+00
 -1      2754 1.25280E+02 3.93914E+01 0.00000E+00
 -1      2755 1.28715E+02 4.07987E+01 0.00000E+00
 -1      2756 1.30215E+02 4.07987E+01 0.00000E+00
 -1      2757 1.28280E+02 3.93914E+01 0.00000E+00
 -1      2758 1.31715E+02 4.07987E+01 0.00000E+00
 -1      2759 1.33215E+02 4.07987E+01 0.00000E+00
 -1      2760 1.31280E+02 3.93914E+01 0.00000E+00
 -1      2761 1.34715E+02 4.07987E+01 0.00000E+00
 -1      2762 1.36215E+02 4.07987E+01 0.00000E+00
 -1      2763 1.34280E+02 3.93914E+01 0.00000E+00
 -1      2764 1.37715E+02 4.07987E+01 0.00000E+00
 -1      2765 1.39215E+02 4.07987E+01 0.00000E+00
 -1      2766 1.37280E+02 3.93914E+01 0.00000E+00
 -1      2767 1.02185E+02 1.10142E+01 0.00000E+00
 -1      2768 1.02222E+02 1.23351E+01 0.00000E+00
 -1      2769 2.72850E+01 7.90325E+00 0.00000E+00
 -1      2770 2.57850E+01 7.90325E+00 0.00000E+00
 -1      2771 2.50350E+01 9.20225E+00 0.00000E+00
 -1      2772 3.04350E+01 7.90325E+00 0.00000E+00
 -1      2773 2.88600E+01 7.90325E+00 0.00000E+00
 -1      2774 2.81100E+01 9.20225E+00 0.00000E+00
 -1      2775 3.34350E+01 7.90325E+00 0.00000E+00
 -1      2776 3.19350E+01 7.90325E+00 0.00000E+00
 -1      2777 3.11850E+01 9.20225E+00 0.00000E+00
 -1      2778 3.64350E+01 7.90325E+00 0.00000E+00
 -1      2779 3.49350E+01 7.90325E+00 0.00000E+00
 -1      2780 3.41850E+01 9.20225E+00 0.00000E+00
 -1      2781 3.94350E+01 7.90325E+00 0.00000E+00
 -1      2782 3.79350E+01 7.90325E+00 0.00000E+00
 -1      2783 3.71850E+01 9.20225E+00 0.00000E+00
 -1      2784 4.24350E+01 7.90325E+00 0.00000E+00
 -1      2785 4.09350E+01 7.90325E+00 0.00000E+00
 -1      2786 4.01850E+01 9.20225E+00 0.00000E+00
 -1      2787 4.54350E+01 7.90325E+00 0.00000E+00
 -1      2788 4.39350E+01 7.90325E+00 0.00000E+00
 -1      2789 4.31850E+01 9.20225E+00 0.00000E+00
 -1      2790 4.84350E+01 7.90325E+00 0.00000E+00
 -1      2791 4.69350E+01 7.90325E+00 0.00000E+00
 -1      2792 4.61850E+01 9.20225E+00 0.00000E+00
 -1      2793 5.14350E+01 7.90325E+00 0.00000E+00
 -1      2794 4.99350E+01 7.90325E+00 0.00000E+00
 -1      2795 4.91850E+01 9.20225E+00 0.00000E+00
 -1      2796 5.44350E+01 7.90325E+00 0.00000E+00
 -1      2797 5.29350E+01 7.90325E+00 0.00000E+00
 -1      2798 5.21850E+01 9.20225E+00 0.00000E+00
 -1      2799 5.74350E+01 7.90325E+00 0.00000E+00
 -1      2800 5.59350E+01 7.90325E+00 0.00000E+00
 -1      2801 5.51850E+01 9.20225E+00 0.00000E+00
 -1      2802 6.05850E+01 7.90325E+00 0.00000E+00
 -1      2803 5.90100E+01 7.90325E+00 0.00000E+00
 -1      2804 5.82600E+01 9.20225E+00 0.00000E+00
 -1      2805 6.35850E+01 7.90325E+00 0.00000E+00
 -1      2806 6.20850E+01 7.90325E+00 0.00000E+00
 -1      2807 6.13350E+01 9.20225E+00 0.00000E+00
 -1      2808 6.65850E+01 7.90325E+00 0.00000E+00
 -1      2809 6.50850E+01 7.90325E+00 0.00000E+00
 -1      2810 6.43350E+01 9.20225E+00 0.00000E+00
 -1      2811 6.95850E+01 7.90325E+00 0.00000E+00
 -1      2812 6.80850E+01 7.90325E+00 0.00000E+00
 -1      2813 6.73350E+01 9.20225E+00 0.00000E+00
 -1      2814 7.25850E+01 7.90325E+00 0.00000E+00
 -1      2815 7.10850E+01 7.90325E+00 0.00000E+00
 -1      2816 7.03350E+01 9.20225E+00 0.00000E+00
 -1      2817 7.55850E+01 7.90325E+00 0.00000E+00
 -1      2818 7.40850E+01 7.90325E+00 0.00000E+00
 -1      2819 7.33350E+01 9.20225E+00 0.00000E+00
 -1      2820 1.01482E+02 8.54322E+00 0.00000E+00
 -1      2821 1.01828E+02 9.59798E+00 0.00000E+00
 -1      2822 8.31319E+01 2.14650E+01 0.00000E+00
 -1      2823 8.23215E+01 2.08337E+01 0.00000E+00
 -1      2824 1.08600E+02 9.07048E+00 0.00000E+00
 -1      2825 1.07100E+02 9.07048E+00 0.00000E+00
 -1      2826 1.09350E+02 1.03470E+01 0.00000E+00
 -1      2827 9.09300E+00 1.68813E+01 0.00000E+00
 -1      2828 9.09300E+00 1.83563E+01 0.00000E+00
 -1      2829 1.03920E+01 1.90812E+01 0.00000E+00
 -1      2830 1.03920E+01 1.61437E+01 0.00000E+00
 -1      2831 1.20750E+02 9.09300E+00 0.00000E+00
 -1      2832 1.19250E+02 9.09300E+00 0.00000E+00
 -1      2833 1.23750E+02 9.09300E+00 0.00000E+00
 -1      2834 1.22250E+02 9.09300E+00 0.00000E+00
 -1      2835 1.21500E+02 1.03920E+01 0.00000E+00
 -1      2836 1.26750E+02 9.09300E+00 0.00000E+00
 -1      2837 1.25250E+02 9.09300E+00 0.00000E+00
 -1      2838 1.24500E+02 1.03920E+01 0.00000E+00
 -1      2839 1.29750E+02 9.09300E+00 0.00000E+00
 -1      2840 1.28250E+02 9.09300E+00 0.00000E+00
 -1      2841 1.27500E+02 1.03920E+01 0.00000E+00
 -1      2842 1.32750E+02 9.09300E+00 0.00000E+00
 -1      2843 1.31250E+02 9.09300E+00 0.00000E+00
 -1      2844 1.30500E+02 1.03920E+01 0.00000E+00
 -1      2845 1.35750E+02 9.09300E+00 0.00000E+00
 -1      2846 1.34250E+02 9.09300E+00 0.00000E+00
 -1      2847 1.33500E+02 1.03920E+01 0.00000E+00
 -1      2848 1.38750E+02 9.09300E+00 0.00000E+00
 -1      2849 1.37250E+02 9.09300E+00 0.00000E+00
 -1      2850 1.36500E+02 1.03920E+01 0.00000E+00
 -1      2851 1.41389E+02 9.39475E+00 0.00000E+00
 -1      2852 1.39889E+02 9.39475E+00 0.00000E+00
 -1      2853 1.39139E+02 1.06938E+01 0.00000E+00
 -1      2854 1.41415E+02 1.12972E+01 0.00000E+00
 -1      2855 8.75819E+01 2.30716E+01 0.00000E+00
 -1      2856 8.64227E+01 2.30372E+01 0.00000E+00
 -1      2857 1.41255E+02 2.26615E+01 0.00000E+00
 -1      2858 1.41255E+02 2.11865E+01 0.00000E+00
 -1      2859 1.41255E+02 1.67615E+01 0.00000E+00
 -1      2860 1.41255E+02 1.52865E+01 0.00000E+00
 -1      2861 1.41255E+02 1.97115E+01 0.00000E+00
 -1      2862 1.41255E+02 1.82365E+01 0.00000E+00
 -1      2863 1.39956E+02 2.04490E+01 0.00000E+00
 -1      2864 1.41335E+02 1.40294E+01 0.00000E+00
 -1      2865 1.41335E+02 1.25544E+01 0.00000E+00
 -1      2866 1.40197E+02 1.22526E+01 0.00000E+00
 -1      2867 1.40036E+02 1.47669E+01 0.00000E+00
 -1      2868 1.41255E+02 2.56115E+01 0.00000E+00
 -1      2869 1.41255E+02 2.41365E+01 0.00000E+00
 -1      2870 1.39956E+02 2.33990E+01 0.00000E+00
 -1      2871 1.41255E+02 2.85615E+01 0.00000E+00
 -1      2872 1.41255E+02 2.70865E+01 0.00000E+00
 -1      2873 1.39956E+02 2.63490E+01 0.00000E+00
 -1      2874 1.41255E+02 3.14615E+01 0.00000E+00
 -1      2875 1.41255E+02 3.00115E+01 0.00000E+00
 -1      2876 1.39956E+02 2.92740E+01 0.00000E+00
 -1      2877 1.41255E+02 3.44115E+01 0.00000E+00
 -1      2878 1.41255E+02 3.29365E+01 0.00000E+00
 -1      2879 1.39956E+02 3.21990E+01 0.00000E+00
 -1      2880 1.41255E+02 3.73615E+01 0.00000E+00
 -1      2881 1.41255E+02 3.58865E+01 0.00000E+00
 -1      2882 1.39956E+02 3.51490E+01 0.00000E+00
 -1      2883 1.17750E+02 9.09300E+00 0.00000E+00
 -1      2884 1.16250E+02 9.09300E+00 0.00000E+00
 -1      2885 1.18500E+02 1.03920E+01 0.00000E+00
 -1      2886 1.52850E+01 7.90325E+00 0.00000E+00
 -1      2887 1.37850E+01 7.90325E+00 0.00000E+00
 -1      2888 1.60350E+01 9.20225E+00 0.00000E+00
 -1      2889 8.50047E+01 2.26016E+01 0.00000E+00
 -1      2890 8.41025E+01 2.20723E+01 0.00000E+00
 -1      2891 1.01864E+02 1.39085E+01 0.00000E+00
 -1      2892 1.01405E+02 1.50354E+01 0.00000E+00
 -1      2893 7.48818E+00 3.88019E+01 0.00000E+00
 -1      2894 7.80345E+01 1.06617E+01 0.00000E+00
 -1      2895 7.82938E+01 9.45556E+00 0.00000E+00
 -1      2896 7.79202E+01 1.30244E+01 0.00000E+00
 -1      2897 7.79251E+01 1.19690E+01 0.00000E+00
 -1      2898 9.44368E+01 2.29045E+01 0.00000E+00
 -1      2899 9.34782E+01 2.32361E+01 0.00000E+00
 -1      2900 9.64975E+01 2.18614E+01 0.00000E+00
 -1      2901 9.54672E+01 2.23830E+01 0.00000E+00
 -1      2902 9.52956E+01 2.34384E+01 0.00000E+00
 -1      2903 1.14713E+02 9.08174E+00 0.00000E+00
 -1      2904 1.13137E+02 9.08174E+00 0.00000E+00
 -1      2905 1.12387E+02 1.03582E+01 0.00000E+00
 -1      2906 1.15463E+02 1.03807E+01 0.00000E+00
 -1      2907 8.97995E+01 2.43198E+01 0.00000E+00
 -1      2908 8.86907E+01 2.36957E+01 0.00000E+00
 -1      2909 8.80856E+01 2.45357E+01 0.00000E+00
 -1      2910 1.00989E+02 1.60895E+01 0.00000E+00
 -1      2911 1.00573E+02 1.71436E+01 0.00000E+00
 -1      2912 1.02012E+02 1.58494E+01 0.00000E+00
 -1      2913 9.98951E+01 1.83241E+01 0.00000E+00
 -1      2914 9.92475E+01 1.91338E+01 0.00000E+00
 -1      2915 9.23349E+01 2.37199E+01 0.00000E+00
 -1      2916 9.11916E+01 2.42037E+01 0.00000E+00
 -1      2917 9.31219E+01 2.44437E+01 0.00000E+00
 -1      2918 9.85018E+01 2.00199E+01 0.00000E+00
 -1      2919 9.77094E+01 2.09215E+01 0.00000E+00
 -1      2920 7.82951E+01 1.54651E+01 0.00000E+00
 -1      2921 7.80303E+01 1.43212E+01 0.00000E+00
 -1      2922 1.30350E+01 9.20226E+00 0.00000E+00
 -1      2923 1.22850E+01 7.90326E+00 0.00000E+00
 -1      2924 1.03920E+01 2.49750E+01 0.00000E+00
 -1      2925 9.09300E+00 2.57000E+01 0.00000E+00
 -1      2926 9.09300E+00 2.71750E+01 0.00000E+00
 -1      2927 9.09300E+00 8.03750E+00 0.00000E+00
 -1      2928 9.09300E+00 9.51250E+00 0.00000E+00
 -1      2929 8.31703E+01 2.24331E+01 0.00000E+00
 -1      2930 8.78718E+00 3.80644E+01 0.00000E+00
 -1      2931 9.05865E+01 2.50437E+01 0.00000E+00
 -1      2932 1.03709E+02 1.25356E+01 0.00000E+00
 -1      2933 1.02786E+02 1.32220E+01 0.00000E+00
 -1      2934 1.03351E+02 1.41089E+01 0.00000E+00
 -1      2935 1.02787E+02 1.02325E+01 0.00000E+00
 -1      2936 1.41001E+02 4.11756E+01 0.00000E+00
 -1      2937 8.14599E+01 2.06158E+01 0.00000E+00
 -1      2938 8.05983E+01 2.03980E+01 0.00000E+00
 -1      2939 8.13381E+01 2.16080E+01 0.00000E+00
 -1      2940 1.10674E+01 7.66548E+00 0.00000E+00
 -1      2941 7.97977E+01 1.92512E+01 0.00000E+00
 -1      2942 7.99223E+01 1.84094E+01 0.00000E+00
 -1      2943 7.89999E+01 1.82548E+01 0.00000E+00
 -1      2944 1.40566E+02 3.97682E+01 0.00000E+00
 -1      2945 7.68304E+01 8.24132E+00 0.00000E+00
 -1      2946 7.60804E+01 9.54032E+00 0.00000E+00
 -1      2947 1.06591E+02 1.02280E+01 0.00000E+00
 -1      2948 1.05841E+02 8.95155E+00 0.00000E+00
 -1      2949 1.01942E+02 8.03208E+00 0.00000E+00
 -1      2950 1.00919E+02 1.80840E+01 0.00000E+00
 -1      2951 9.09300E+00 3.45313E+01 0.00000E+00
 -1      2952 9.09300E+00 3.60000E+01 0.00000E+00
 -1      2953 1.03920E+01 3.37938E+01 0.00000E+00
 -1      2954 1.39956E+02 1.74990E+01 0.00000E+00
 -1      2955 8.55588E+01 2.34760E+01 0.00000E+00
 -1      2956 8.46950E+01 2.39149E+01 0.00000E+00
 -1      2957 8.61130E+01 2.43504E+01 0.00000E+00
 -1      2958 7.82259E+01 1.62497E+01 0.00000E+00
 -1      2959 7.72580E+01 1.58711E+01 0.00000E+00
 -1      2960 7.81567E+01 1.70343E+01 0.00000E+00
 -1      2961 9.94953E+01 2.01507E+01 0.00000E+00
 -1      2962 1.40667E+02 3.87452E+01 0.00000E+00
 -1      2963 9.09300E+00 2.86437E+01 0.00000E+00
 -1      2964 9.09300E+00 3.01187E+01 0.00000E+00
 -1      2965 1.03920E+01 3.08563E+01 0.00000E+00
 -1      2966 1.03920E+01 2.79188E+01 0.00000E+00
 -1      2967 7.72164E+01 1.11856E+01 0.00000E+00
 -1      2968 9.75378E+01 2.19769E+01 0.00000E+00
 -1      2969 9.73662E+01 2.30323E+01 0.00000E+00
 -1      2970 9.85781E+01 2.20923E+01 0.00000E+00
 -1      2971 1.03920E+01 1.02500E+01 0.00000E+00
 -1      2972 1.04341E+02 8.95155E+00 0.00000E+00
 -1      2973 1.39368E+02 3.80077E+01 0.00000E+00
 -1      2974 7.72171E+01 1.37897E+01 0.00000E+00
 -1      2975 7.58616E+01 1.21548E+01 0.00000E+00
 -1      2976 7.59710E+01 1.08476E+01 0.00000E+00
 -1      2977 7.47256E+01 1.05095E+01 0.00000E+00
 -1      2978 1.16910E+01 1.24625E+01 0.00000E+00
 -1      2979 1.16910E+01 1.39375E+01 0.00000E+00
 -1      2980 2.27850E+01 1.05013E+01 0.00000E+00
 -1      2981 2.12850E+01 1.05013E+01 0.00000E+00
 -1      2982 8.31562E+01 2.35348E+01 0.00000E+00
 -1      2983 8.21857E+01 2.29275E+01 0.00000E+00
 -1      2984 2.88975E+01 1.05013E+01 0.00000E+00
 -1      2985 2.73225E+01 1.05013E+01 0.00000E+00
 -1      2986 1.05304E+01 3.80924E+01 0.00000E+00
 -1      2987 1.20304E+01 3.80924E+01 0.00000E+00
 -1      2988 1.65304E+01 3.80924E+01 0.00000E+00
 -1      2989 1.80304E+01 3.80924E+01 0.00000E+00
 -1      2990 1.95304E+01 3.80924E+01 0.00000E+00
 -1      2991 2.10304E+01 3.80924E+01 0.00000E+00
 -1      2992 1.87804E+01 3.67934E+01 0.00000E+00
 -1      2993 2.25304E+01 3.80924E+01 0.00000E+00
 -1      2994 2.40304E+01 3.80924E+01 0.00000E+00
 -1      2995 2.17804E+01 3.67934E+01 0.00000E+00
 -1      2996 2.55304E+01 3.80924E+01 0.00000E+00
 -1      2997 2.70304E+01 3.80924E+01 0.00000E+00
 -1      2998 2.47804E+01 3.67934E+01 0.00000E+00
 -1      2999 2.85304E+01 3.80924E+01 0.00000E+00
 -1      3000 3.00304E+01 3.80924E+01 0.00000E+00
 -1      3001 2.77804E+01 3.67934E+01 0.00000E+00
 -1      3002 3.15304E+01 3.80924E+01 0.00000E+00
 -1      3003 3.30303E+01 3.80924E+01 0.00000E+00
 -1      3004 3.07804E+01 3.67934E+01 0.00000E+00
 -1      3005 3.45303E+01 3.80924E+01 0.00000E+00
 -1      3006 3.60303E+01 3.80924E+01 0.00000E+00
 -1      3007 3.37803E+01 3.67934E+01 0.00000E+00
 -1      3008 3.75303E+01 3.80924E+01 0.00000E+00
 -1      3009 3.90303E+01 3.80924E+01 0.00000E+00
 -1      3010 3.67803E+01 3.67934E+01 0.00000E+00
 -1      3011 4.05303E+01 3.80924E+01 0.00000E+00
 -1      3012 4.20303E+01 3.80924E+01 0.00000E+00
 -1      3013 3.97803E+01 3.67934E+01 0.00000E+00
 -1      3014 4.35303E+01 3.80924E+01 0.00000E+00
 -1      3015 4.50303E+01 3.80924E+01 0.00000E+00
 -1      3016 4.27803E+01 3.67934E+01 0.00000E+00
 -1      3017 4.65303E+01 3.80924E+01 0.00000E+00
 -1      3018 4.80303E+01 3.80924E+01 0.00000E+00
 -1      3019 4.57803E+01 3.67934E+01 0.00000E+00
 -1      3020 4.95303E+01 3.80924E+01 0.00000E+00
 -1      3021 5.10303E+01 3.80924E+01 0.00000E+00
 -1      3022 4.87803E+01 3.67934E+01 0.00000E+00
 -1      3023 5.25303E+01 3.80924E+01 0.00000E+00
 -1      3024 5.40303E+01 3.80924E+01 0.00000E+00
 -1      3025 5.17803E+01 3.67934E+01 0.00000E+00
 -1      3026 5.55303E+01 3.80924E+01 0.00000E+00
 -1      3027 5.70303E+01 3.80924E+01 0.00000E+00
 -1      3028 5.47803E+01 3.67934E+01 0.00000E+00
 -1      3029 5.85303E+01 3.80924E+01 0.00000E+00
 -1      3030 6.00303E+01 3.80924E+01 0.00000E+00
 -1      3031 5.77803E+01 3.67934E+01 0.00000E+00
 -1      3032 6.15303E+01 3.80924E+01 0.00000E+00
 -1      3033 6.30303E+01 3.80924E+01 0.00000E+00
 -1      3034 6.07803E+01 3.67934E+01 0.00000E+00
 -1      3035 6.45303E+01 3.80924E+01 0.00000E+00
 -1      3036 6.60303E+01 3.80924E+01 0.00000E+00
 -1      3037 6.37803E+01 3.67934E+01 0.00000E+00
 -1      3038 6.75303E+01 3.80924E+01 0.00000E+00
 -1      3039 6.90303E+01 3.80924E+01 0.00000E+00
 -1      3040 6.67803E+01 3.67934E+01 0.00000E+00
 -1      3041 7.05303E+01 3.80924E+01 0.00000E+00
 -1      3042 7.20303E+01 3.80924E+01 0.00000E+00
 -1      3043 6.97803E+01 3.67934E+01 0.00000E+00
 -1      3044 7.35303E+01 3.80924E+01 0.00000E+00
 -1      3045 7.50303E+01 3.80924E+01 0.00000E+00
 -1      3046 7.27803E+01 3.67934E+01 0.00000E+00
 -1      3047 7.65303E+01 3.80924E+01 0.00000E+00
 -1      3048 7.80303E+01 3.80924E+01 0.00000E+00
 -1      3049 7.57803E+01 3.67934E+01 0.00000E+00
 -1      3050 7.95303E+01 3.80924E+01 0.00000E+00
 -1      3051 8.10303E+01 3.80924E+01 0.00000E+00
 -1      3052 7.87803E+01 3.67934E+01 0.00000E+00
 -1      3053 8.25303E+01 3.80924E+01 0.00000E+00
 -1      3054 8.40303E+01 3.80924E+01 0.00000E+00
 -1      3055 8.17803E+01 3.67934E+01 0.00000E+00
 -1      3056 8.55303E+01 3.80924E+01 0.00000E+00
 -1      3057 8.70303E+01 3.80924E+01 0.00000E+00
 -1      3058 8.47803E+01 3.67934E+01 0.00000E+00
 -1      3059 8.85303E+01 3.80924E+01 0.00000E+00
 -1      3060 9.00303E+01 3.80924E+01 0.00000E+00
 -1      3061 8.77803E+01 3.67934E+01 0.00000E+00
 -1      3062 9.15303E+01 3.80924E+01 0.00000E+00
 -1      3063 9.30303E+01 3.80924E+01 0.00000E+00
 -1      3064 9.07803E+01 3.67934E+01 0.00000E+00
 -1      3065 9.45303E+01 3.80924E+01 0.00000E+00
 -1      3066 9.60303E+01 3.80924E+01 0.00000E+00
 -1      3067 9.37803E+01 3.67934E+01 0.00000E+00
 -1      3068 9.75303E+01 3.80924E+01 0.00000E+00
 -1      3069 9.90303E+01 3.80924E+01 0.00000E+00
 -1      3070 9.67803E+01 3.67934E+01 0.00000E+00
 -1      3071 1.00530E+02 3.80924E+01 0.00000E+00
 -1      3072 1.02030E+02 3.80924E+01 0.00000E+00
 -1      3073 9.97803E+01 3.67934E+01 0.00000E+00
 -1      3074 1.03530E+02 3.80924E+01 0.00000E+00
 -1      3075 1.05030E+02 3.80924E+01 0.00000E+00
 -1      3076 1.02780E+02 3.67934E+01 0.00000E+00
 -1      3077 1.06530E+02 3.80924E+01 0.00000E+00
 -1      3078 1.08030E+02 3.80924E+01 0.00000E+00
 -1      3079 1.05780E+02 3.67934E+01 0.00000E+00
 -1      3080 1.09530E+02 3.80924E+01 0.00000E+00
 -1      3081 1.11030E+02 3.80924E+01 0.00000E+00
 -1      3082 1.08780E+02 3.67934E+01 0.00000E+00
 -1      3083 1.12530E+02 3.80924E+01 0.00000E+00
 -1      3084 1.14030E+02 3.80924E+01 0.00000E+00
 -1      3085 1.11780E+02 3.67934E+01 0.00000E+00
 -1      3086 1.15530E+02 3.80924E+01 0.00000E+00
 -1      3087 1.17030E+02 3.80924E+01 0.00000E+00
 -1      3088 1.14780E+02 3.67934E+01 0.00000E+00
 -1      3089 1.18530E+02 3.80924E+01 0.00000E+00
 -1      3090 1.20030E+02 3.80924E+01 0.00000E+00
 -1      3091 1.17780E+02 3.67934E+01 0.00000E+00
 -1      3092 1.21530E+02 3.80924E+01 0.00000E+00
 -1      3093 1.23030E+02 3.80924E+01 0.00000E+00
 -1      3094 1.20780E+02 3.67934E+01 0.00000E+00
 -1      3095 1.24530E+02 3.80924E+01 0.00000E+00
 -1      3096 1.26030E+02 3.80924E+01 0.00000E+00
 -1      3097 1.23780E+02 3.67934E+01 0.00000E+00
 -1      3098 1.27530E+02 3.80924E+01 0.00000E+00
 -1      3099 1.29030E+02 3.80924E+01 0.00000E+00
 -1      3100 1.26780E+02 3.67934E+01 0.00000E+00
 -1      3101 1.30530E+02 3.80924E+01 0.00000E+00
 -1      3102 1.32030E+02 3.80924E+01 0.00000E+00
 -1      3103 1.29780E+02 3.67934E+01 0.00000E+00
 -1      3104 1.33530E+02 3.80924E+01 0.00000E+00
 -1      3105 1.35030E+02 3.80924E+01 0.00000E+00
 -1      3106 1.32780E+02 3.67934E+01 0.00000E+00
 -1      3107 1.36449E+02 3.80500E+01 0.00000E+00
 -1      3108 1.37949E+02 3.80500E+01 0.00000E+00
 -1      3109 1.38537E+02 3.66663E+01 0.00000E+00
 -1      3110 1.35699E+02 3.67510E+01 0.00000E+00
 -1      3111 2.57850E+01 1.05013E+01 0.00000E+00
 -1      3112 2.42850E+01 1.05013E+01 0.00000E+00
 -1      3113 2.35350E+01 1.18003E+01 0.00000E+00
 -1      3114 1.07124E+02 1.13081E+01 0.00000E+00
 -1      3115 1.05865E+02 1.11892E+01 0.00000E+00
 -1      3116 3.49350E+01 1.05013E+01 0.00000E+00
 -1      3117 3.34350E+01 1.05013E+01 0.00000E+00
 -1      3118 3.79350E+01 1.05013E+01 0.00000E+00
 -1      3119 3.64350E+01 1.05013E+01 0.00000E+00
 -1      3120 3.56850E+01 1.18003E+01 0.00000E+00
 -1      3121 4.09350E+01 1.05013E+01 0.00000E+00
 -1      3122 3.94350E+01 1.05013E+01 0.00000E+00
 -1      3123 3.86850E+01 1.18003E+01 0.00000E+00
 -1      3124 4.39350E+01 1.05013E+01 0.00000E+00
 -1      3125 4.24350E+01 1.05013E+01 0.00000E+00
 -1      3126 4.16850E+01 1.18003E+01 0.00000E+00
 -1      3127 4.69350E+01 1.05013E+01 0.00000E+00
 -1      3128 4.54350E+01 1.05013E+01 0.00000E+00
 -1      3129 4.46850E+01 1.18003E+01 0.00000E+00
 -1      3130 4.99350E+01 1.05013E+01 0.00000E+00
 -1      3131 4.84350E+01 1.05013E+01 0.00000E+00
 -1      3132 4.76850E+01 1.18003E+01 0.00000E+00
 -1      3133 5.29350E+01 1.05013E+01 0.00000E+00
 -1      3134 5.14350E+01 1.05013E+01 0.00000E+00
 -1      3135 5.06850E+01 1.18003E+01 0.00000E+00
 -1      3136 5.59350E+01 1.05013E+01 0.00000E+00
 -1      3137 5.44350E+01 1.05013E+01 0.00000E+00
 -1      3138 5.36850E+01 1.18003E+01 0.00000E+00
 -1      3139 5.90850E+01 1.05013E+01 0.00000E+00
 -1      3140 5.75100E+01 1.05013E+01 0.00000E+00
 -1      3141 5.67600E+01 1.18003E+01 0.00000E+00
 -1      3142 6.20850E+01 1.05013E+01 0.00000E+00
 -1      3143 6.05850E+01 1.05013E+01 0.00000E+00
 -1      3144 5.98350E+01 1.18003E+01 0.00000E+00
 -1      3145 6.50850E+01 1.05013E+01 0.00000E+00
 -1      3146 6.35850E+01 1.05013E+01 0.00000E+00
 -1      3147 6.28350E+01 1.18003E+01 0.00000E+00
 -1      3148 6.80850E+01 1.05013E+01 0.00000E+00
 -1      3149 6.65850E+01 1.05013E+01 0.00000E+00
 -1      3150 6.58350E+01 1.18003E+01 0.00000E+00
 -1      3151 7.10850E+01 1.05013E+01 0.00000E+00
 -1      3152 6.95850E+01 1.05013E+01 0.00000E+00
 -1      3153 6.88350E+01 1.18003E+01 0.00000E+00
 -1      3154 7.32256E+01 1.05095E+01 0.00000E+00
 -1      3155 7.74035E+01 7.17441E+00 0.00000E+00
 -1      3156 7.78989E+01 8.81148E+00 0.00000E+00
 -1      3157 1.02890E+02 8.30515E+00 0.00000E+00
 -1      3158 1.28250E+02 1.16910E+01 0.00000E+00
 -1      3159 1.26750E+02 1.16910E+01 0.00000E+00
 -1      3160 1.22250E+02 1.16910E+01 0.00000E+00
 -1      3161 1.20750E+02 1.16910E+01 0.00000E+00
 -1      3162 1.31250E+02 1.16910E+01 0.00000E+00
 -1      3163 1.29750E+02 1.16910E+01 0.00000E+00
 -1      3164 1.29000E+02 1.29900E+01 0.00000E+00
 -1      3165 1.34250E+02 1.16910E+01 0.00000E+00
 -1      3166 1.32750E+02 1.16910E+01 0.00000E+00
 -1      3167 1.32000E+02 1.29900E+01 0.00000E+00
 -1      3168 1.37250E+02 1.16910E+01 0.00000E+00
 -1      3169 1.35750E+02 1.16910E+01 0.00000E+00
 -1      3170 1.35000E+02 1.29900E+01 0.00000E+00
 -1      3171 1.39293E+02 1.21227E+01 0.00000E+00
 -1      3172 1.38154E+02 1.18209E+01 0.00000E+00
 -1      3173 1.37404E+02 1.31199E+01 0.00000E+00
 -1      3174 1.39212E+02 1.33798E+01 0.00000E+00
 -1      3175 1.38657E+02 2.99990E+01 0.00000E+00
 -1      3176 1.38657E+02 2.85490E+01 0.00000E+00
 -1      3177 1.38657E+02 2.70740E+01 0.00000E+00
 -1      3178 1.38657E+02 2.55990E+01 0.00000E+00
 -1      3179 1.37358E+02 2.77990E+01 0.00000E+00
 -1      3180 1.38657E+02 2.41240E+01 0.00000E+00
 -1      3181 1.38657E+02 2.26490E+01 0.00000E+00
 -1      3182 1.37358E+02 2.48490E+01 0.00000E+00
 -1      3183 1.38657E+02 3.29490E+01 0.00000E+00
 -1      3184 1.38657E+02 3.14740E+01 0.00000E+00
 -1      3185 1.37358E+02 3.07490E+01 0.00000E+00
 -1      3186 1.38597E+02 3.55452E+01 0.00000E+00
 -1      3187 1.38597E+02 3.40702E+01 0.00000E+00
 -1      3188 1.37298E+02 3.33452E+01 0.00000E+00
 -1      3189 1.37178E+02 3.55875E+01 0.00000E+00
 -1      3190 8.83305E+01 2.55986E+01 0.00000E+00
 -1      3191 8.72218E+01 2.49745E+01 0.00000E+00
 -1      3192 8.63579E+01 2.54134E+01 0.00000E+00
 -1      3193 7.60818E+01 1.47484E+01 0.00000E+00
 -1      3194 7.59717E+01 1.34516E+01 0.00000E+00
 -1      3195 7.47264E+01 1.31136E+01 0.00000E+00
 -1      3196 1.19250E+02 1.16910E+01 0.00000E+00
 -1      3197 1.17750E+02 1.16910E+01 0.00000E+00
 -1      3198 1.20000E+02 1.29900E+01 0.00000E+00
 -1      3199 1.67850E+01 1.05013E+01 0.00000E+00
 -1      3200 1.52850E+01 1.05013E+01 0.00000E+00
 -1      3201 1.38657E+02 2.11740E+01 0.00000E+00
 -1      3202 1.38657E+02 1.96990E+01 0.00000E+00
 -1      3203 1.37358E+02 2.18990E+01 0.00000E+00
 -1      3204 7.93258E+01 7.22433E+00 0.00000E+00
 -1      3205 1.10100E+02 1.14559E+01 0.00000E+00
 -1      3206 1.08600E+02 1.14559E+01 0.00000E+00
 -1      3207 1.38657E+02 1.82240E+01 0.00000E+00
 -1      3208 1.38657E+02 1.67490E+01 0.00000E+00
 -1      3209 1.37358E+02 1.89490E+01 0.00000E+00
 -1      3210 9.13608E+01 2.59237E+01 0.00000E+00
 -1      3211 8.99687E+01 2.60398E+01 0.00000E+00
 -1      3212 3.19350E+01 1.05013E+01 0.00000E+00
 -1      3213 3.04350E+01 1.05013E+01 0.00000E+00
 -1      3214 3.26850E+01 1.18003E+01 0.00000E+00
 -1      3215 1.35304E+01 3.80924E+01 0.00000E+00
 -1      3216 1.50304E+01 3.80924E+01 0.00000E+00
 -1      3217 1.27804E+01 3.67934E+01 0.00000E+00
 -1      3218 1.97850E+01 1.05013E+01 0.00000E+00
 -1      3219 1.82850E+01 1.05013E+01 0.00000E+00
 -1      3220 1.75350E+01 1.18003E+01 0.00000E+00
 -1      3221 2.05350E+01 1.18003E+01 0.00000E+00
 -1      3222 1.03881E+02 9.46270E+00 0.00000E+00
 -1      3223 9.62737E+01 2.40923E+01 0.00000E+00
 -1      3224 9.52434E+01 2.46138E+01 0.00000E+00
 -1      3225 1.16910E+01 2.12875E+01 0.00000E+00
 -1      3226 1.16910E+01 2.27625E+01 0.00000E+00
 -1      3227 1.00588E+02 2.03137E+01 0.00000E+00
 -1      3228 9.98428E+01 2.11999E+01 0.00000E+00
 -1      3229 7.88669E+01 8.38865E+00 0.00000E+00
 -1      3230 1.02074E+02 1.79625E+01 0.00000E+00
 -1      3231 1.01396E+02 1.91430E+01 0.00000E+00
 -1      3232 1.25250E+02 1.16910E+01 0.00000E+00
 -1      3233 1.23750E+02 1.16910E+01 0.00000E+00
 -1      3234 1.26000E+02 1.29900E+01 0.00000E+00
 -1      3235 9.41000E+01 2.50976E+01 0.00000E+00
 -1      3236 9.29567E+01 2.55814E+01 0.00000E+00
 -1      3237 9.50782E+01 2.57515E+01 0.00000E+00
 -1      3238 1.03018E+02 1.56371E+01 0.00000E+00
 -1      3239 1.02602E+02 1.66912E+01 0.00000E+00
 -1      3240 1.04238E+02 1.08789E+01 0.00000E+00
 -1      3241 1.04771E+02 1.19589E+01 0.00000E+00
 -1      3242 1.04959E+01 7.45184E+00 0.00000E+00
 -1      3243 8.13100E+01 2.38113E+01 0.00000E+00
 -1      3244 8.13240E+01 2.27097E+01 0.00000E+00
 -1      3245 8.04624E+01 2.24918E+01 0.00000E+00
 -1      3246 2.65725E+01 1.18003E+01 0.00000E+00
 -1      3247 1.16910E+01 1.83500E+01 0.00000E+00
 -1      3248 1.16910E+01 1.98188E+01 0.00000E+00
 -1      3249 1.29900E+01 2.05562E+01 0.00000E+00
 -1      3250 1.29900E+01 1.46687E+01 0.00000E+00
 -1      3251 1.16910E+01 1.54063E+01 0.00000E+00
 -1      3252 1.16910E+01 1.68750E+01 0.00000E+00
 -1      3253 1.05336E+02 1.28458E+01 0.00000E+00
 -1      3254 7.96758E+01 2.02434E+01 0.00000E+00
 -1      3255 7.87534E+01 2.00887E+01 0.00000E+00
 -1      3256 7.95540E+01 2.12355E+01 0.00000E+00
 -1      3257 1.07874E+02 1.24170E+01 0.00000E+00
 -1      3258 1.57804E+01 3.67934E+01 0.00000E+00
 -1      3259 7.24756E+01 1.18085E+01 0.00000E+00
 -1      3260 1.23000E+02 1.29900E+01 0.00000E+00
 -1      3261 1.03080E+02 1.77502E+01 0.00000E+00
 -1      3262 9.23389E+01 2.65776E+01 0.00000E+00
 -1      3263 1.45125E+01 1.25001E+01 0.00000E+00
 -1      3264 1.37625E+01 1.12011E+01 0.00000E+00
 -1      3265 1.01744E+02 2.01921E+01 0.00000E+00
 -1      3266 8.91048E+01 2.64786E+01 0.00000E+00
 -1      3267 8.82410E+01 2.69175E+01 0.00000E+00
 -1      3268 8.98791E+01 2.73587E+01 0.00000E+00
 -1      3269 1.38895E+02 1.56930E+01 0.00000E+00
 -1      3270 1.38975E+02 1.44358E+01 0.00000E+00
 -1      3271 1.38071E+02 1.43059E+01 0.00000E+00
 -1      3272 1.37596E+02 1.64180E+01 0.00000E+00
 -1      3273 7.60126E+01 1.55330E+01 0.00000E+00
 -1      3274 7.47673E+01 1.51950E+01 0.00000E+00
 -1      3275 7.59435E+01 1.63177E+01 0.00000E+00
 -1      3276 1.16910E+01 2.42375E+01 0.00000E+00
 -1      3277 1.16910E+01 2.57125E+01 0.00000E+00
 -1      3278 1.29900E+01 2.35000E+01 0.00000E+00
 -1      3279 1.22625E+01 1.12011E+01 0.00000E+00
 -1      3280 7.80320E+01 1.78762E+01 0.00000E+00
 -1      3281 7.70642E+01 1.74975E+01 0.00000E+00
 -1      3282 7.79074E+01 1.87180E+01 0.00000E+00
 -1      3283 8.42645E+01 2.52836E+01 0.00000E+00
 -1      3284 8.37104E+01 2.44092E+01 0.00000E+00
 -1      3285 8.27257E+01 2.49035E+01 0.00000E+00
 -1      3286 1.11637E+02 1.14671E+01 0.00000E+00
 -1      3287 1.10887E+02 1.25760E+01 0.00000E+00
 -1      3288 1.13175E+02 1.14784E+01 0.00000E+00
 -1      3289 1.16910E+01 3.01219E+01 0.00000E+00
 -1      3290 1.16910E+01 3.15906E+01 0.00000E+00
 -1      3291 2.96475E+01 1.18003E+01 0.00000E+00
 -1      3292 9.53718E+00 3.67654E+01 0.00000E+00
 -1      3293 9.96712E+01 2.22553E+01 0.00000E+00
 -1      3294 9.94997E+01 2.33107E+01 0.00000E+00
 -1      3295 1.00764E+02 2.24182E+01 0.00000E+00
 -1      3296 1.29900E+01 3.23250E+01 0.00000E+00
 -1      3297 1.16910E+01 3.30594E+01 0.00000E+00
 -1      3298 1.16910E+01 3.45281E+01 0.00000E+00
 -1      3299 9.73140E+01 2.42077E+01 0.00000E+00
 -1      3300 1.16213E+02 1.16797E+01 0.00000E+00
 -1      3301 1.14675E+02 1.16685E+01 0.00000E+00
 -1      3302 1.16963E+02 1.29787E+01 0.00000E+00
 -1      3303 1.03941E+02 1.49507E+01 0.00000E+00
 -1      3304 1.04531E+02 1.57925E+01 0.00000E+00
 -1      3305 1.04864E+02 1.42643E+01 0.00000E+00
 -1      3306 1.09635E+01 1.04636E+01 0.00000E+00
 -1      3307 8.64820E+01 2.65318E+01 0.00000E+00
 -1      3308 8.53733E+01 2.59077E+01 0.00000E+00
 -1      3309 8.43886E+01 2.64020E+01 0.00000E+00
 -1      3310 2.42850E+01 1.30992E+01 0.00000E+00
 -1      3311 2.27850E+01 1.30992E+01 0.00000E+00
 -1      3312 2.10304E+01 3.54944E+01 0.00000E+00
 -1      3313 2.25304E+01 3.54944E+01 0.00000E+00
 -1      3314 2.40304E+01 3.54944E+01 0.00000E+00
 -1      3315 2.55304E+01 3.54944E+01 0.00000E+00
 -1      3316 2.32804E+01 3.41954E+01 0.00000E+00
 -1      3317 2.70304E+01 3.54944E+01 0.00000E+00
 -1      3318 2.85304E+01 3.54944E+01 0.00000E+00
 -1      3319 2.62804E+01 3.41954E+01 0.00000E+00
 -1      3320 3.00304E+01 3.54944E+01 0.00000E+00
 -1      3321 3.15304E+01 3.54944E+01 0.00000E+00
 -1      3322 2.92804E+01 3.41954E+01 0.00000E+00
 -1      3323 3.30303E+01 3.54944E+01 0.00000E+00
 -1      3324 3.45303E+01 3.54944E+01 0.00000E+00
 -1      3325 3.22803E+01 3.41954E+01 0.00000E+00
 -1      3326 3.60303E+01 3.54944E+01 0.00000E+00
 -1      3327 3.75303E+01 3.54944E+01 0.00000E+00
 -1      3328 3.52803E+01 3.41954E+01 0.00000E+00
 -1      3329 3.90303E+01 3.54944E+01 0.00000E+00
 -1      3330 4.05303E+01 3.54944E+01 0.00000E+00
 -1      3331 3.82803E+01 3.41954E+01 0.00000E+00
 -1      3332 4.20303E+01 3.54944E+01 0.00000E+00
 -1      3333 4.35303E+01 3.54944E+01 0.00000E+00
 -1      3334 4.12803E+01 3.41954E+01 0.00000E+00
 -1      3335 4.50303E+01 3.54944E+01 0.00000E+00
 -1      3336 4.65303E+01 3.54944E+01 0.00000E+00
 -1      3337 4.42803E+01 3.41954E+01 0.00000E+00
 -1      3338 4.80303E+01 3.54944E+01 0.00000E+00
 -1      3339 4.95303E+01 3.54944E+01 0.00000E+00
 -1      3340 4.72803E+01 3.41954E+01 0.00000E+00
 -1      3341 5.10303E+01 3.54944E+01 0.00000E+00
 -1      3342 5.25303E+01 3.54944E+01 0.00000E+00
 -1      3343 5.02803E+01 3.41954E+01 0.00000E+00
 -1      3344 5.40303E+01 3.54944E+01 0.00000E+00
 -1      3345 5.55303E+01 3.54944E+01 0.00000E+00
 -1      3346 5.32803E+01 3.41954E+01 0.00000E+00
 -1      3347 5.70303E+01 3.54944E+01 0.00000E+00
 -1      3348 5.85303E+01 3.54944E+01 0.00000E+00
 -1      3349 5.62803E+01 3.41954E+01 0.00000E+00
 -1      3350 6.00303E+01 3.54944E+01 0.00000E+00
 -1      3351 6.15303E+01 3.54944E+01 0.00000E+00
 -1      3352 5.92803E+01 3.41954E+01 0.00000E+00
 -1      3353 6.30303E+01 3.54944E+01 0.00000E+00
 -1      3354 6.45303E+01 3.54944E+01 0.00000E+00
 -1      3355 6.22803E+01 3.41954E+01 0.00000E+00
 -1      3356 6.60303E+01 3.54944E+01 0.00000E+00
 -1      3357 6.75303E+01 3.54944E+01 0.00000E+00
 -1      3358 6.52803E+01 3.41954E+01 0.00000E+00
 -1      3359 6.90303E+01 3.54944E+01 0.00000E+00
 -1      3360 7.05303E+01 3.54944E+01 0.00000E+00
 -1      3361 6.82803E+01 3.41954E+01 0.00000E+00
 -1      3362 7.20303E+01 3.54944E+01 0.00000E+00
 -1      3363 7.35303E+01 3.54944E+01 0.00000E+00
 -1      3364 7.12803E+01 3.41954E+01 0.00000E+00
 -1      3365 7.50303E+01 3.54944E+01 0.00000E+00
 -1      3366 7.65303E+01 3.54944E+01 0.00000E+00
 -1      3367 7.42803E+01 3.41954E+01 0.00000E+00
 -1      3368 7.80303E+01 3.54944E+01 0.00000E+00
 -1      3369 7.95303E+01 3.54944E+01 0.00000E+00
 -1      3370 7.72803E+01 3.41954E+01 0.00000E+00
 -1      3371 8.10303E+01 3.54944E+01 0.00000E+00
 -1      3372 8.25303E+01 3.54944E+01 0.00000E+00
 -1      3373 8.02803E+01 3.41954E+01 0.00000E+00
 -1      3374 8.40303E+01 3.54944E+01 0.00000E+00
 -1      3375 8.55303E+01 3.54944E+01 0.00000E+00
 -1      3376 8.32803E+01 3.41954E+01 0.00000E+00
 -1      3377 8.70303E+01 3.54944E+01 0.00000E+00
 -1      3378 8.85303E+01 3.54944E+01 0.00000E+00
 -1      3379 8.62803E+01 3.41954E+01 0.00000E+00
 -1      3380 9.00303E+01 3.54944E+01 0.00000E+00
 -1      3381 9.15303E+01 3.54944E+01 0.00000E+00
 -1      3382 8.92803E+01 3.41954E+01 0.00000E+00
 -1      3383 9.30303E+01 3.54944E+01 0.00000E+00
 -1      3384 9.45303E+01 3.54944E+01 0.00000E+00
 -1      3385 9.22803E+01 3.41954E+01 0.00000E+00
 -1      3386 9.60303E+01 3.54944E+01 0.00000E+00
 -1      3387 9.75303E+01 3.54944E+01 0.00000E+00
 -1      3388 9.52803E+01 3.41954E+01 0.00000E+00
 -1      3389 9.90303E+01 3.54944E+01 0.00000E+00
 -1      3390 1.00530E+02 3.54944E+01 0.00000E+00
 -1      3391 9.82803E+01 3.41954E+01 0.00000E+00
 -1      3392 1.02030E+02 3.54944E+01 0.00000E+00
 -1      3393 1.03530E+02 3.54944E+01 0.00000E+00
 -1      3394 1.01280E+02 3.41954E+01 0.00000E+00
 -1      3395 1.05030E+02 3.54944E+01 0.00000E+00
 -1      3396 1.06530E+02 3.54944E+01 0.00000E+00
 -1      3397 1.04280E+02 3.41954E+01 0.00000E+00
 -1      3398 1.08030E+02 3.54944E+01 0.00000E+00
 -1      3399 1.09530E+02 3.54944E+01 0.00000E+00
 -1      3400 1.07280E+02 3.41954E+01 0.00000E+00
 -1      3401 1.11030E+02 3.54944E+01 0.00000E+00
 -1      3402 1.12530E+02 3.54944E+01 0.00000E+00
 -1      3403 1.10280E+02 3.41954E+01 0.00000E+00
 -1      3404 1.14030E+02 3.54944E+01 0.00000E+00
 -1      3405 1.15530E+02 3.54944E+01 0.00000E+00
 -1      3406 1.13280E+02 3.41954E+01 0.00000E+00
 -1      3407 1.17030E+02 3.54944E+01 0.00000E+00
 -1      3408 1.18530E+02 3.54944E+01 0.00000E+00
 -1      3409 1.16280E+02 3.41954E+01 0.00000E+00
 -1      3410 1.20030E+02 3.54944E+01 0.00000E+00
 -1      3411 1.21530E+02 3.54944E+01 0.00000E+00
 -1      3412 1.19280E+02 3.41954E+01 0.00000E+00
 -1      3413 1.23030E+02 3.54944E+01 0.00000E+00
 -1      3414 1.24530E+02 3.54944E+01 0.00000E+00
 -1      3415 1.22280E+02 3.41954E+01 0.00000E+00
 -1      3416 1.26030E+02 3.54944E+01 0.00000E+00
 -1      3417 1.27530E+02 3.54944E+01 0.00000E+00
 -1      3418 1.25280E+02 3.41954E+01 0.00000E+00
 -1      3419 1.29030E+02 3.54944E+01 0.00000E+00
 -1      3420 1.30530E+02 3.54944E+01 0.00000E+00
 -1      3421 1.28280E+02 3.41954E+01 0.00000E+00
 -1      3422 1.32030E+02 3.54944E+01 0.00000E+00
 -1      3423 1.33530E+02 3.54944E+01 0.00000E+00
 -1      3424 1.31280E+02 3.41954E+01 0.00000E+00
 -1      3425 1.34645E+02 3.55621E+01 0.00000E+00
 -1      3426 1.36064E+02 3.55198E+01 0.00000E+00
 -1      3427 1.36124E+02 3.43986E+01 0.00000E+00
 -1      3428 1.33895E+02 3.42631E+01 0.00000E+00
 -1      3429 3.94350E+01 1.30992E+01 0.00000E+00
 -1      3430 3.79350E+01 1.30992E+01 0.00000E+00
 -1      3431 2.73600E+01 1.30992E+01 0.00000E+00
 -1      3432 2.58225E+01 1.30992E+01 0.00000E+00
 -1      3433 2.50725E+01 1.43982E+01 0.00000E+00
 -1      3434 3.64350E+01 1.30992E+01 0.00000E+00
 -1      3435 3.49350E+01 1.30992E+01 0.00000E+00
 -1      3436 3.71850E+01 1.43982E+01 0.00000E+00
 -1      3437 4.54350E+01 1.30992E+01 0.00000E+00
 -1      3438 4.39350E+01 1.30992E+01 0.00000E+00
 -1      3439 4.84350E+01 1.30992E+01 0.00000E+00
 -1      3440 4.69350E+01 1.30992E+01 0.00000E+00
 -1      3441 4.61850E+01 1.43982E+01 0.00000E+00
 -1      3442 5.14350E+01 1.30992E+01 0.00000E+00
 -1      3443 4.99350E+01 1.30992E+01 0.00000E+00
 -1      3444 4.91850E+01 1.43982E+01 0.00000E+00
 -1      3445 5.44350E+01 1.30992E+01 0.00000E+00
 -1      3446 5.29350E+01 1.30992E+01 0.00000E+00
 -1      3447 5.21850E+01 1.43982E+01 0.00000E+00
 -1      3448 5.75850E+01 1.30992E+01 0.00000E+00
 -1      3449 5.60100E+01 1.30992E+01 0.00000E+00
 -1      3450 5.52600E+01 1.43982E+01 0.00000E+00
 -1      3451 6.05850E+01 1.30992E+01 0.00000E+00
 -1      3452 5.90850E+01 1.30992E+01 0.00000E+00
 -1      3453 5.83350E+01 1.43982E+01 0.00000E+00
 -1      3454 6.35850E+01 1.30992E+01 0.00000E+00
 -1      3455 6.20850E+01 1.30992E+01 0.00000E+00
 -1      3456 6.13350E+01 1.43982E+01 0.00000E+00
 -1      3457 6.65850E+01 1.30992E+01 0.00000E+00
 -1      3458 6.50850E+01 1.30992E+01 0.00000E+00
 -1      3459 6.43350E+01 1.43982E+01 0.00000E+00
 -1      3460 6.95850E+01 1.30992E+01 0.00000E+00
 -1      3461 6.80850E+01 1.30992E+01 0.00000E+00
 -1      3462 6.73350E+01 1.43982E+01 0.00000E+00
 -1      3463 1.23750E+02 1.42890E+01 0.00000E+00
 -1      3464 1.22250E+02 1.42890E+01 0.00000E+00
 -1      3465 1.50304E+01 3.54944E+01 0.00000E+00
 -1      3466 1.65304E+01 3.54944E+01 0.00000E+00
 -1      3467 1.60350E+01 1.32690E+01 0.00000E+00
 -1      3468 1.45125E+01 1.39689E+01 0.00000E+00
 -1      3469 1.45125E+01 1.54376E+01 0.00000E+00
 -1      3470 1.09635E+01 8.98864E+00 0.00000E+00
 -1      3471 1.32750E+02 1.42890E+01 0.00000E+00
 -1      3472 1.31250E+02 1.42890E+01 0.00000E+00
 -1      3473 1.26750E+02 1.42890E+01 0.00000E+00
 -1      3474 1.25250E+02 1.42890E+01 0.00000E+00
 -1      3475 1.24500E+02 1.55880E+01 0.00000E+00
 -1      3476 1.05926E+02 1.36876E+01 0.00000E+00
 -1      3477 1.03060E+02 2.02365E+01 0.00000E+00
 -1      3478 1.02253E+02 2.14072E+01 0.00000E+00
 -1      3479 1.29750E+02 1.42890E+01 0.00000E+00
 -1      3480 1.28250E+02 1.42890E+01 0.00000E+00
 -1      3481 1.27500E+02 1.55880E+01 0.00000E+00
 -1      3482 1.30500E+02 1.55880E+01 0.00000E+00
 -1      3483 1.36059E+02 2.85365E+01 0.00000E+00
 -1      3484 1.36059E+02 2.70615E+01 0.00000E+00
 -1      3485 9.86908E+01 2.45337E+01 0.00000E+00
 -1      3486 9.75983E+01 2.55937E+01 0.00000E+00
 -1      3487 1.36059E+02 3.14865E+01 0.00000E+00
 -1      3488 1.36059E+02 3.00115E+01 0.00000E+00
 -1      3489 1.34760E+02 2.92740E+01 0.00000E+00
 -1      3490 1.36059E+02 2.55865E+01 0.00000E+00
 -1      3491 1.36059E+02 2.41115E+01 0.00000E+00
 -1      3492 1.34760E+02 2.63240E+01 0.00000E+00
 -1      3493 3.34350E+01 1.30992E+01 0.00000E+00
 -1      3494 3.19350E+01 1.30992E+01 0.00000E+00
 -1      3495 3.41850E+01 1.43982E+01 0.00000E+00
 -1      3496 1.36059E+02 2.26365E+01 0.00000E+00
 -1      3497 1.36059E+02 2.11615E+01 0.00000E+00
 -1      3498 1.34760E+02 2.33740E+01 0.00000E+00
 -1      3499 1.20750E+02 1.42890E+01 0.00000E+00
 -1      3500 1.19250E+02 1.42890E+01 0.00000E+00
 -1      3501 1.21500E+02 1.55880E+01 0.00000E+00
 -1      3502 1.08878E+02 1.39832E+01 0.00000E+00
 -1      3503 1.07402E+02 1.38354E+01 0.00000E+00
 -1      3504 1.06929E+02 1.52539E+01 0.00000E+00
 -1      3505 4.24350E+01 1.30992E+01 0.00000E+00
 -1      3506 4.09350E+01 1.30992E+01 0.00000E+00
 -1      3507 4.01850E+01 1.43982E+01 0.00000E+00
 -1      3508 4.31850E+01 1.43982E+01 0.00000E+00
 -1      3509 1.16910E+01 2.71844E+01 0.00000E+00
 -1      3510 1.16910E+01 2.86531E+01 0.00000E+00
 -1      3511 1.29900E+01 2.93875E+01 0.00000E+00
 -1      3512 1.36059E+02 1.96865E+01 0.00000E+00
 -1      3513 1.36059E+02 1.82115E+01 0.00000E+00
 -1      3514 1.34760E+02 2.04240E+01 0.00000E+00
 -1      3515 3.04163E+01 1.30992E+01 0.00000E+00
 -1      3516 2.88787E+01 1.30992E+01 0.00000E+00
 -1      3517 2.81287E+01 1.43982E+01 0.00000E+00
 -1      3518 3.11663E+01 1.43982E+01 0.00000E+00
 -1      3519 1.80304E+01 3.54944E+01 0.00000E+00
 -1      3520 1.95304E+01 3.54944E+01 0.00000E+00
 -1      3521 1.72804E+01 3.41954E+01 0.00000E+00
 -1      3522 1.08362E+01 3.60279E+01 0.00000E+00
 -1      3523 9.33694E+01 2.74907E+01 0.00000E+00
 -1      3524 9.17735E+01 2.78330E+01 0.00000E+00
 -1      3525 1.04290E+02 1.75079E+01 0.00000E+00
 -1      3526 1.03762E+02 1.87791E+01 0.00000E+00
 -1      3527 9.60820E+01 2.65308E+01 0.00000E+00
 -1      3528 9.49387E+01 2.70146E+01 0.00000E+00
 -1      3529 7.32260E+01 1.31105E+01 0.00000E+00
 -1      3530 7.10854E+01 1.31023E+01 0.00000E+00
 -1      3531 7.03354E+01 1.44013E+01 0.00000E+00
 -1      3532 7.33361E+01 1.44073E+01 0.00000E+00
 -1      3533 8.72563E+01 2.74118E+01 0.00000E+00
 -1      3534 8.62717E+01 2.79061E+01 0.00000E+00
 -1      3535 8.80306E+01 2.82918E+01 0.00000E+00
 -1      3536 8.14485E+01 2.50765E+01 0.00000E+00
 -1      3537 8.05868E+01 2.48587E+01 0.00000E+00
 -1      3538 7.95259E+01 2.34389E+01 0.00000E+00
 -1      3539 7.95399E+01 2.23372E+01 0.00000E+00
 -1      3540 7.86175E+01 2.21826E+01 0.00000E+00
 -1      3541 1.29900E+01 1.76125E+01 0.00000E+00
 -1      3542 1.75350E+01 1.32690E+01 0.00000E+00
 -1      3543 9.43733E+01 2.82700E+01 0.00000E+00
 -1      3544 1.42890E+01 2.86531E+01 0.00000E+00
 -1      3545 1.42890E+01 3.01219E+01 0.00000E+00
 -1      3546 1.21352E+01 3.52936E+01 0.00000E+00
 -1      3547 1.42890E+01 1.98219E+01 0.00000E+00
 -1      3548 1.42890E+01 2.12906E+01 0.00000E+00
 -1      3549 1.18463E+02 1.55767E+01 0.00000E+00
 -1      3550 1.17713E+02 1.42777E+01 0.00000E+00
 -1      3551 1.16175E+02 1.42665E+01 0.00000E+00
 -1      3552 1.04271E+02 1.99942E+01 0.00000E+00
 -1      3553 9.97839E+01 2.46967E+01 0.00000E+00
 -1      3554 1.37167E+02 1.41760E+01 0.00000E+00
 -1      3555 1.36184E+02 3.32774E+01 0.00000E+00
 -1      3556 7.58188E+01 1.71595E+01 0.00000E+00
 -1      3557 7.45734E+01 1.68214E+01 0.00000E+00
 -1      3558 7.56941E+01 1.80013E+01 0.00000E+00
 -1      3559 9.74588E+01 2.68568E+01 0.00000E+00
 -1      3560 9.09096E+01 2.82718E+01 0.00000E+00
 -1      3561 9.00457E+01 2.87106E+01 0.00000E+00
 -1      3562 9.19401E+01 2.91849E+01 0.00000E+00
 -1      3563 1.36494E+02 1.67218E+01 0.00000E+00
 -1      3564 1.36732E+02 1.56657E+01 0.00000E+00
 -1      3565 1.36065E+02 1.44797E+01 0.00000E+00
 -1      3566 1.35195E+02 1.74592E+01 0.00000E+00
 -1      3567 7.76637E+01 2.07023E+01 0.00000E+00
 -1      3568 7.77855E+01 1.97101E+01 0.00000E+00
 -1      3569 7.68177E+01 1.93315E+01 0.00000E+00
 -1      3570 1.29900E+01 2.64469E+01 0.00000E+00
 -1      3571 1.42890E+01 2.27656E+01 0.00000E+00
 -1      3572 1.42890E+01 2.42406E+01 0.00000E+00
 -1      3573 1.55880E+01 2.20313E+01 0.00000E+00
 -1      3574 1.10415E+02 1.39945E+01 0.00000E+00
 -1      3575 1.09943E+02 1.54129E+01 0.00000E+00
 -1      3576 1.11953E+02 1.40057E+01 0.00000E+00
 -1      3577 1.36352E+01 3.52936E+01 0.00000E+00
 -1      3578 1.43852E+01 3.39946E+01 0.00000E+00
 -1      3579 1.34885E+02 3.25399E+01 0.00000E+00
 -1      3580 2.20350E+01 1.43982E+01 0.00000E+00
 -1      3581 2.12850E+01 1.30992E+01 0.00000E+00
 -1      3582 1.97850E+01 1.30992E+01 0.00000E+00
 -1      3583 1.34565E+02 1.44797E+01 0.00000E+00
 -1      3584 1.13925E+02 1.27774E+01 0.00000E+00
 -1      3585 7.39202E+01 1.60067E+01 0.00000E+00
 -1      3586 7.39893E+01 1.52221E+01 0.00000E+00
 -1      3587 7.24890E+01 1.52190E+01 0.00000E+00
 -1      3588 7.37955E+01 1.68485E+01 0.00000E+00
 -1      3589 1.02081E+02 2.24627E+01 0.00000E+00
 -1      3590 1.01909E+02 2.35181E+01 0.00000E+00
 -1      3591 1.03398E+02 2.25071E+01 0.00000E+00
 -1      3592 1.43371E+01 3.13238E+01 0.00000E+00
 -1      3593 1.43371E+01 3.27926E+01 0.00000E+00
 -1      3594 1.57323E+01 3.29934E+01 0.00000E+00
 -1      3595 1.56361E+01 3.05895E+01 0.00000E+00
 -1      3596 1.33815E+02 1.57788E+01 0.00000E+00
 -1      3597 1.05213E+02 1.68214E+01 0.00000E+00
 -1      3598 1.05896E+02 1.78504E+01 0.00000E+00
 -1      3599 1.06136E+02 1.61350E+01 0.00000E+00
 -1      3600 2.02804E+01 3.41954E+01 0.00000E+00
 -1      3601 8.20026E+01 2.59509E+01 0.00000E+00
 -1      3602 1.44008E+01 1.68923E+01 0.00000E+00
 -1      3603 1.44008E+01 1.83673E+01 0.00000E+00
 -1      3604 1.56997E+01 1.91016E+01 0.00000E+00
 -1      3605 1.59233E+01 1.61924E+01 0.00000E+00
 -1      3606 2.55304E+01 3.28964E+01 0.00000E+00
 -1      3607 2.70304E+01 3.28964E+01 0.00000E+00
 -1      3608 2.85304E+01 3.28964E+01 0.00000E+00
 -1      3609 3.00304E+01 3.28964E+01 0.00000E+00
 -1      3610 2.77804E+01 3.15974E+01 0.00000E+00
 -1      3611 3.15304E+01 3.28964E+01 0.00000E+00
 -1      3612 3.30303E+01 3.28964E+01 0.00000E+00
 -1      3613 3.07804E+01 3.15974E+01 0.00000E+00
 -1      3614 3.45303E+01 3.28964E+01 0.00000E+00
 -1      3615 3.60303E+01 3.28964E+01 0.00000E+00
 -1      3616 3.37803E+01 3.15974E+01 0.00000E+00
 -1      3617 3.75303E+01 3.28964E+01 0.00000E+00
 -1      3618 3.90303E+01 3.28964E+01 0.00000E+00
 -1      3619 3.67803E+01 3.15974E+01 0.00000E+00
 -1      3620 4.05303E+01 3.28964E+01 0.00000E+00
 -1      3621 4.20303E+01 3.28964E+01 0.00000E+00
 -1      3622 3.97803E+01 3.15974E+01 0.00000E+00
 -1      3623 4.35303E+01 3.28964E+01 0.00000E+00
 -1      3624 4.50303E+01 3.28964E+01 0.00000E+00
 -1      3625 4.27803E+01 3.15974E+01 0.00000E+00
 -1      3626 4.65303E+01 3.28964E+01 0.00000E+00
 -1      3627 4.80303E+01 3.28964E+01 0.00000E+00
 -1      3628 4.57803E+01 3.15974E+01 0.00000E+00
 -1      3629 4.95303E+01 3.28964E+01 0.00000E+00
 -1      3630 5.10303E+01 3.28964E+01 0.00000E+00
 -1      3631 4.87803E+01 3.15974E+01 0.00000E+00
 -1      3632 5.25303E+01 3.28964E+01 0.00000E+00
 -1      3633 5.40303E+01 3.28964E+01 0.00000E+00
 -1      3634 5.17803E+01 3.15974E+01 0.00000E+00
 -1      3635 5.55303E+01 3.28964E+01 0.00000E+00
 -1      3636 5.70303E+01 3.28964E+01 0.00000E+00
 -1      3637 5.47803E+01 3.15974E+01 0.00000E+00
 -1      3638 5.85303E+01 3.28964E+01 0.00000E+00
 -1      3639 6.00303E+01 3.28964E+01 0.00000E+00
 -1      3640 5.77803E+01 3.15974E+01 0.00000E+00
 -1      3641 6.15303E+01 3.28964E+01 0.00000E+00
 -1      3642 6.30303E+01 3.28964E+01 0.00000E+00
 -1      3643 6.07803E+01 3.15974E+01 0.00000E+00
 -1      3644 6.45303E+01 3.28964E+01 0.00000E+00
 -1      3645 6.60303E+01 3.28964E+01 0.00000E+00
 -1      3646 6.37803E+01 3.15974E+01 0.00000E+00
 -1      3647 6.75303E+01 3.28964E+01 0.00000E+00
 -1      3648 6.90303E+01 3.28964E+01 0.00000E+00
 -1      3649 6.67803E+01 3.15974E+01 0.00000E+00
 -1      3650 7.05303E+01 3.28964E+01 0.00000E+00
 -1      3651 7.20303E+01 3.28964E+01 0.00000E+00
 -1      3652 6.97803E+01 3.15974E+01 0.00000E+00
 -1      3653 7.35303E+01 3.28964E+01 0.00000E+00
 -1      3654 7.50303E+01 3.28964E+01 0.00000E+00
 -1      3655 7.27803E+01 3.15974E+01 0.00000E+00
 -1      3656 7.65303E+01 3.28964E+01 0.00000E+00
 -1      3657 7.80303E+01 3.28964E+01 0.00000E+00
 -1      3658 7.57803E+01 3.15974E+01 0.00000E+00
 -1      3659 7.95303E+01 3.28964E+01 0.00000E+00
 -1      3660 8.10303E+01 3.28964E+01 0.00000E+00
 -1      3661 7.87803E+01 3.15974E+01 0.00000E+00
 -1      3662 8.25303E+01 3.28964E+01 0.00000E+00
 -1      3663 8.40303E+01 3.28964E+01 0.00000E+00
 -1      3664 8.17803E+01 3.15974E+01 0.00000E+00
 -1      3665 8.55303E+01 3.28964E+01 0.00000E+00
 -1      3666 8.70303E+01 3.28964E+01 0.00000E+00
 -1      3667 8.47803E+01 3.15974E+01 0.00000E+00
 -1      3668 9.15303E+01 3.28964E+01 0.00000E+00
 -1      3669 9.30303E+01 3.28964E+01 0.00000E+00
 -1      3670 9.45303E+01 3.28964E+01 0.00000E+00
 -1      3671 9.60303E+01 3.28964E+01 0.00000E+00
 -1      3672 9.37803E+01 3.15974E+01 0.00000E+00
 -1      3673 9.75303E+01 3.28964E+01 0.00000E+00
 -1      3674 9.90303E+01 3.28964E+01 0.00000E+00
 -1      3675 9.67803E+01 3.15974E+01 0.00000E+00
 -1      3676 1.00530E+02 3.28964E+01 0.00000E+00
 -1      3677 1.02030E+02 3.28964E+01 0.00000E+00
 -1      3678 9.97803E+01 3.15974E+01 0.00000E+00
 -1      3679 1.03530E+02 3.28964E+01 0.00000E+00
 -1      3680 1.05030E+02 3.28964E+01 0.00000E+00
 -1      3681 1.02780E+02 3.15974E+01 0.00000E+00
 -1      3682 1.06530E+02 3.28964E+01 0.00000E+00
 -1      3683 1.08030E+02 3.28964E+01 0.00000E+00
 -1      3684 1.05780E+02 3.15974E+01 0.00000E+00
 -1      3685 1.09530E+02 3.28964E+01 0.00000E+00
 -1      3686 1.11030E+02 3.28964E+01 0.00000E+00
 -1      3687 1.08780E+02 3.15974E+01 0.00000E+00
 -1      3688 1.12530E+02 3.28964E+01 0.00000E+00
 -1      3689 1.14030E+02 3.28964E+01 0.00000E+00
 -1      3690 1.11780E+02 3.15974E+01 0.00000E+00
 -1      3691 1.15530E+02 3.28964E+01 0.00000E+00
 -1      3692 1.17030E+02 3.28964E+01 0.00000E+00
 -1      3693 1.14780E+02 3.15974E+01 0.00000E+00
 -1      3694 1.18530E+02 3.28964E+01 0.00000E+00
 -1      3695 1.20030E+02 3.28964E+01 0.00000E+00
 -1      3696 1.17780E+02 3.15974E+01 0.00000E+00
 -1      3697 1.21530E+02 3.28964E+01 0.00000E+00
 -1      3698 1.23030E+02 3.28964E+01 0.00000E+00
 -1      3699 1.20780E+02 3.15974E+01 0.00000E+00
 -1      3700 1.24530E+02 3.28964E+01 0.00000E+00
 -1      3701 1.26030E+02 3.28964E+01 0.00000E+00
 -1      3702 1.23780E+02 3.15974E+01 0.00000E+00
 -1      3703 1.27530E+02 3.28964E+01 0.00000E+00
 -1      3704 1.29030E+02 3.28964E+01 0.00000E+00
 -1      3705 1.26780E+02 3.15974E+01 0.00000E+00
 -1      3706 1.30530E+02 3.28964E+01 0.00000E+00
 -1      3707 1.32030E+02 3.28964E+01 0.00000E+00
 -1      3708 1.29780E+02 3.15974E+01 0.00000E+00
 -1      3709 1.33770E+02 3.24722E+01 0.00000E+00
 -1      3710 1.72323E+01 3.29934E+01 0.00000E+00
 -1      3711 1.87323E+01 3.29934E+01 0.00000E+00
 -1      3712 1.71842E+01 3.17914E+01 0.00000E+00
 -1      3713 2.58412E+01 1.56973E+01 0.00000E+00
 -1      3714 2.43037E+01 1.56973E+01 0.00000E+00
 -1      3715 3.79350E+01 1.56973E+01 0.00000E+00
 -1      3716 3.64350E+01 1.56973E+01 0.00000E+00
 -1      3717 4.99350E+01 1.56973E+01 0.00000E+00
 -1      3718 4.84350E+01 1.56973E+01 0.00000E+00
 -1      3719 4.69350E+01 1.56973E+01 0.00000E+00
 -1      3720 4.54350E+01 1.56973E+01 0.00000E+00
 -1      3721 4.76850E+01 1.69963E+01 0.00000E+00
 -1      3722 5.60475E+01 1.56973E+01 0.00000E+00
 -1      3723 5.44725E+01 1.56973E+01 0.00000E+00
 -1      3724 5.90475E+01 1.56973E+01 0.00000E+00
 -1      3725 5.75475E+01 1.56973E+01 0.00000E+00
 -1      3726 5.67600E+01 1.69963E+01 0.00000E+00
 -1      3727 6.20475E+01 1.56973E+01 0.00000E+00
 -1      3728 6.05475E+01 1.56973E+01 0.00000E+00
 -1      3729 5.97600E+01 1.69963E+01 0.00000E+00
 -1      3730 6.50475E+01 1.56973E+01 0.00000E+00
 -1      3731 6.35475E+01 1.56973E+01 0.00000E+00
 -1      3732 6.27600E+01 1.69963E+01 0.00000E+00
 -1      3733 6.80475E+01 1.56973E+01 0.00000E+00
 -1      3734 6.65475E+01 1.56973E+01 0.00000E+00
 -1      3735 6.57600E+01 1.69963E+01 0.00000E+00
 -1      3736 1.07612E+02 1.62828E+01 0.00000E+00
 -1      3737 1.25250E+02 1.68870E+01 0.00000E+00
 -1      3738 1.23750E+02 1.68870E+01 0.00000E+00
 -1      3739 1.33461E+02 3.00115E+01 0.00000E+00
 -1      3740 1.33461E+02 2.85365E+01 0.00000E+00
 -1      3741 1.33461E+02 2.70615E+01 0.00000E+00
 -1      3742 1.33461E+02 2.55865E+01 0.00000E+00
 -1      3743 1.32162E+02 2.77990E+01 0.00000E+00
 -1      3744 3.49350E+01 1.56973E+01 0.00000E+00
 -1      3745 3.34350E+01 1.56973E+01 0.00000E+00
 -1      3746 3.56850E+01 1.69963E+01 0.00000E+00
 -1      3747 1.33380E+02 1.72685E+01 0.00000E+00
 -1      3748 1.33461E+02 2.41115E+01 0.00000E+00
 -1      3749 1.33461E+02 2.26365E+01 0.00000E+00
 -1      3750 1.32162E+02 2.48490E+01 0.00000E+00
 -1      3751 1.22250E+02 1.68870E+01 0.00000E+00
 -1      3752 1.20750E+02 1.68870E+01 0.00000E+00
 -1      3753 1.23000E+02 1.81860E+01 0.00000E+00
 -1      3754 1.82850E+01 1.45680E+01 0.00000E+00
 -1      3755 1.42890E+01 2.57109E+01 0.00000E+00
 -1      3756 1.42890E+01 2.71828E+01 0.00000E+00
 -1      3757 1.55880E+01 2.79172E+01 0.00000E+00
 -1      3758 1.55880E+01 2.49766E+01 0.00000E+00
 -1      3759 1.33461E+02 2.11615E+01 0.00000E+00
 -1      3760 1.33461E+02 1.96865E+01 0.00000E+00
 -1      3761 1.32162E+02 2.18990E+01 0.00000E+00
 -1      3762 9.88998E+01 2.74933E+01 0.00000E+00
 -1      3763 9.73836E+01 2.84304E+01 0.00000E+00
 -1      3764 5.29350E+01 1.56973E+01 0.00000E+00
 -1      3765 5.14350E+01 1.56973E+01 0.00000E+00
 -1      3766 5.06850E+01 1.69963E+01 0.00000E+00
 -1      3767 2.25304E+01 3.28964E+01 0.00000E+00
 -1      3768 2.40304E+01 3.28964E+01 0.00000E+00
 -1      3769 2.47804E+01 3.15974E+01 0.00000E+00
 -1      3770 7.98029E+01 2.59693E+01 0.00000E+00
 -1      3771 7.96644E+01 2.47041E+01 0.00000E+00
 -1      3772 7.87419E+01 2.45494E+01 0.00000E+00
 -1      3773 1.05792E+02 1.98292E+01 0.00000E+00
 -1      3774 1.05090E+02 2.12866E+01 0.00000E+00
 -1      3775 8.43058E+01 2.78461E+01 0.00000E+00
 -1      3776 8.31971E+01 2.72220E+01 0.00000E+00
 -1      3777 1.01101E+02 2.47411E+01 0.00000E+00
 -1      3778 1.00292E+02 2.59641E+01 0.00000E+00
 -1      3779 1.02417E+02 2.47855E+01 0.00000E+00
 -1      3780 7.10482E+01 1.57033E+01 0.00000E+00
 -1      3781 6.95479E+01 1.57003E+01 0.00000E+00
 -1      3782 6.87604E+01 1.69993E+01 0.00000E+00
 -1      3783 1.14814E+02 1.42312E+01 0.00000E+00
 -1      3784 1.13314E+02 1.40411E+01 0.00000E+00
 -1      3785 1.12841E+02 1.54595E+01 0.00000E+00
 -1      3786 1.15564E+02 1.55302E+01 0.00000E+00
 -1      3787 8.19198E+01 2.73950E+01 0.00000E+00
 -1      3788 1.98813E+01 3.29449E+01 0.00000E+00
 -1      3789 2.13813E+01 3.29449E+01 0.00000E+00
 -1      3790 2.21313E+01 3.16459E+01 0.00000E+00
 -1      3791 1.98332E+01 3.17429E+01 0.00000E+00
 -1      3792 1.32081E+02 1.80060E+01 0.00000E+00
 -1      3793 1.70508E+01 1.84738E+01 0.00000E+00
 -1      3794 1.69391E+01 1.99284E+01 0.00000E+00
 -1      3795 7.76356E+01 2.29056E+01 0.00000E+00
 -1      3796 7.76497E+01 2.18039E+01 0.00000E+00
 -1      3797 7.66818E+01 2.14253E+01 0.00000E+00
 -1      3798 1.19213E+02 1.68757E+01 0.00000E+00
 -1      3799 1.17675E+02 1.68645E+01 0.00000E+00
 -1      3800 1.19963E+02 1.81747E+01 0.00000E+00
 -1      3801 2.88787E+01 1.56973E+01 0.00000E+00
 -1      3802 2.73600E+01 1.56973E+01 0.00000E+00
 -1      3803 2.65912E+01 1.69963E+01 0.00000E+00
 -1      3804 1.33020E+02 3.11732E+01 0.00000E+00
 -1      3805 8.85303E+01 3.28964E+01 0.00000E+00
 -1      3806 9.00303E+01 3.28964E+01 0.00000E+00
 -1      3807 9.07803E+01 3.15974E+01 0.00000E+00
 -1      3808 3.94350E+01 1.56973E+01 0.00000E+00
 -1      3809 3.86850E+01 1.69963E+01 0.00000E+00
 -1      3810 4.09350E+01 1.56973E+01 0.00000E+00
 -1      3811 1.31721E+02 3.04357E+01 0.00000E+00
 -1      3812 5.37225E+01 1.69963E+01 0.00000E+00
 -1      3813 1.08833E+02 1.65842E+01 0.00000E+00
 -1      3814 1.08039E+02 1.74653E+01 0.00000E+00
 -1      3815 1.26750E+02 1.68870E+01 0.00000E+00
 -1      3816 1.26000E+02 1.81860E+01 0.00000E+00
 -1      3817 1.28250E+02 1.68870E+01 0.00000E+00
 -1      3818 8.91478E+01 2.96974E+01 0.00000E+00
 -1      3819 8.81632E+01 3.01918E+01 0.00000E+00
 -1      3820 8.77803E+01 3.15974E+01 0.00000E+00
 -1      3821 1.68870E+01 2.71820E+01 0.00000E+00
 -1      3822 1.68870E+01 2.86523E+01 0.00000E+00
 -1      3823 8.15705E+01 2.89201E+01 0.00000E+00
 -1      3824 8.03760E+01 2.76490E+01 0.00000E+00
 -1      3825 1.07377E+02 1.83040E+01 0.00000E+00
 -1      3826 1.06454E+02 1.89905E+01 0.00000E+00
 -1      3827 1.07274E+02 2.02828E+01 0.00000E+00
 -1      3828 1.08598E+02 1.86054E+01 0.00000E+00
 -1      3829 3.26662E+01 1.69963E+01 0.00000E+00
 -1      3830 3.19163E+01 1.56973E+01 0.00000E+00
 -1      3831 3.03975E+01 1.56973E+01 0.00000E+00
 -1      3832 1.30915E+02 1.74465E+01 0.00000E+00
 -1      3833 1.29415E+02 1.74465E+01 0.00000E+00
 -1      3834 1.28665E+02 1.87455E+01 0.00000E+00
 -1      3835 1.30997E+02 1.98645E+01 0.00000E+00
 -1      3836 7.55723E+01 1.89934E+01 0.00000E+00
 -1      3837 7.43269E+01 1.86554E+01 0.00000E+00
 -1      3838 7.54505E+01 1.99856E+01 0.00000E+00
 -1      3839 8.50801E+01 2.87261E+01 0.00000E+00
 -1      3840 9.56114E+01 2.96957E+01 0.00000E+00
 -1      3841 9.40422E+01 3.01717E+01 0.00000E+00
 -1      3842 1.69391E+01 2.14034E+01 0.00000E+00
 -1      3843 1.69391E+01 2.28784E+01 0.00000E+00
 -1      3844 1.82901E+01 2.07756E+01 0.00000E+00
 -1      3845 4.39350E+01 1.56973E+01 0.00000E+00
 -1      3846 4.24350E+01 1.56973E+01 0.00000E+00
 -1      3847 4.16850E+01 1.69963E+01 0.00000E+00
 -1      3848 4.46850E+01 1.69963E+01 0.00000E+00
 -1      3849 2.28037E+01 1.56973E+01 0.00000E+00
 -1      3850 2.13037E+01 1.56973E+01 0.00000E+00
 -1      3851 2.35725E+01 1.69963E+01 0.00000E+00
 -1      3852 1.00216E+02 2.75377E+01 0.00000E+00
 -1      3853 1.70115E+01 2.96209E+01 0.00000E+00
 -1      3854 1.70596E+01 3.08229E+01 0.00000E+00
 -1      3855 1.85596E+01 3.08229E+01 0.00000E+00
 -1      3856 1.83105E+01 2.88857E+01 0.00000E+00
 -1      3857 7.94535E+01 2.74944E+01 0.00000E+00
 -1      3858 1.97385E+01 1.58599E+01 0.00000E+00
 -1      3859 1.74885E+01 1.60297E+01 0.00000E+00
 -1      3860 1.73768E+01 1.74843E+01 0.00000E+00
 -1      3861 2.05072E+01 1.71589E+01 0.00000E+00
 -1      3862 1.04919E+02 2.23420E+01 0.00000E+00
 -1      3863 1.04747E+02 2.33974E+01 0.00000E+00
 -1      3864 1.06440E+02 2.21770E+01 0.00000E+00
 -1      3865 1.10370E+02 1.65954E+01 0.00000E+00
 -1      3866 7.17015E+01 1.65180E+01 0.00000E+00
 -1      3867 9.71114E+01 2.96957E+01 0.00000E+00
 -1      3868 1.30997E+02 2.28145E+01 0.00000E+00
 -1      3869 1.30997E+02 2.13395E+01 0.00000E+00
 -1      3870 1.29831E+02 2.07800E+01 0.00000E+00
 -1      3871 2.70304E+01 3.02984E+01 0.00000E+00
 -1      3872 2.85304E+01 3.02984E+01 0.00000E+00
 -1      3873 6.95079E+01 1.82998E+01 0.00000E+00
 -1      3874 6.80076E+01 1.82968E+01 0.00000E+00
 -1      3875 4.84350E+01 1.82952E+01 0.00000E+00
 -1      3876 4.69350E+01 1.82952E+01 0.00000E+00
 -1      3877 7.85107E+01 2.87537E+01 0.00000E+00
 -1      3878 7.79376E+01 2.70740E+01 0.00000E+00
 -1      3879 3.00304E+01 3.02984E+01 0.00000E+00
 -1      3880 3.15304E+01 3.02984E+01 0.00000E+00
 -1      3881 2.92804E+01 2.89994E+01 0.00000E+00
 -1      3882 3.30303E+01 3.02984E+01 0.00000E+00
 -1      3883 3.45303E+01 3.02984E+01 0.00000E+00
 -1      3884 3.22803E+01 2.89994E+01 0.00000E+00
 -1      3885 3.60303E+01 3.02984E+01 0.00000E+00
 -1      3886 3.75303E+01 3.02984E+01 0.00000E+00
 -1      3887 3.52803E+01 2.89994E+01 0.00000E+00
 -1      3888 3.90303E+01 3.02984E+01 0.00000E+00
 -1      3889 4.05303E+01 3.02984E+01 0.00000E+00
 -1      3890 3.82803E+01 2.89994E+01 0.00000E+00
 -1      3891 4.20303E+01 3.02984E+01 0.00000E+00
 -1      3892 4.35303E+01 3.02984E+01 0.00000E+00
 -1      3893 4.12803E+01 2.89994E+01 0.00000E+00
 -1      3894 4.50303E+01 3.02984E+01 0.00000E+00
 -1      3895 4.65303E+01 3.02984E+01 0.00000E+00
 -1      3896 4.42803E+01 2.89994E+01 0.00000E+00
 -1      3897 4.80303E+01 3.02984E+01 0.00000E+00
 -1      3898 4.95303E+01 3.02984E+01 0.00000E+00
 -1      3899 4.72803E+01 2.89994E+01 0.00000E+00
 -1      3900 5.10303E+01 3.02984E+01 0.00000E+00
 -1      3901 5.25303E+01 3.02984E+01 0.00000E+00
 -1      3902 5.02803E+01 2.89994E+01 0.00000E+00
 -1      3903 5.40303E+01 3.02984E+01 0.00000E+00
 -1      3904 5.55303E+01 3.02984E+01 0.00000E+00
 -1      3905 5.32803E+01 2.89994E+01 0.00000E+00
 -1      3906 5.70303E+01 3.02984E+01 0.00000E+00
 -1      3907 5.85303E+01 3.02984E+01 0.00000E+00
 -1      3908 5.62803E+01 2.89994E+01 0.00000E+00
 -1      3909 6.00303E+01 3.02984E+01 0.00000E+00
 -1      3910 6.15303E+01 3.02984E+01 0.00000E+00
 -1      3911 5.92803E+01 2.89994E+01 0.00000E+00
 -1      3912 6.30303E+01 3.02984E+01 0.00000E+00
 -1      3913 6.45303E+01 3.02984E+01 0.00000E+00
 -1      3914 6.22803E+01 2.89994E+01 0.00000E+00
 -1      3915 6.60303E+01 3.02984E+01 0.00000E+00
 -1      3916 6.75303E+01 3.02984E+01 0.00000E+00
 -1      3917 6.52803E+01 2.89994E+01 0.00000E+00
 -1      3918 6.90303E+01 3.02984E+01 0.00000E+00
 -1      3919 7.05303E+01 3.02984E+01 0.00000E+00
 -1      3920 6.82803E+01 2.89994E+01 0.00000E+00
 -1      3921 7.20303E+01 3.02984E+01 0.00000E+00
 -1      3922 7.35303E+01 3.02984E+01 0.00000E+00
 -1      3923 7.12803E+01 2.89994E+01 0.00000E+00
 -1      3924 7.56375E+01 2.99653E+01 0.00000E+00
 -1      3925 7.71375E+01 2.99653E+01 0.00000E+00
 -1      3926 7.86535E+01 3.03858E+01 0.00000E+00
 -1      3927 8.01535E+01 3.03858E+01 0.00000E+00
 -1      3928 8.16973E+01 3.01317E+01 0.00000E+00
 -1      3929 8.31973E+01 3.01317E+01 0.00000E+00
 -1      3930 8.46973E+01 3.01317E+01 0.00000E+00
 -1      3931 1.02030E+02 3.02984E+01 0.00000E+00
 -1      3932 1.03530E+02 3.02984E+01 0.00000E+00
 -1      3933 1.05030E+02 3.02984E+01 0.00000E+00
 -1      3934 1.06530E+02 3.02984E+01 0.00000E+00
 -1      3935 1.04280E+02 2.89994E+01 0.00000E+00
 -1      3936 1.08030E+02 3.02984E+01 0.00000E+00
 -1      3937 1.09530E+02 3.02984E+01 0.00000E+00
 -1      3938 1.07280E+02 2.89994E+01 0.00000E+00
 -1      3939 1.11030E+02 3.02984E+01 0.00000E+00
 -1      3940 1.12530E+02 3.02984E+01 0.00000E+00
 -1      3941 1.10280E+02 2.89994E+01 0.00000E+00
 -1      3942 1.14030E+02 3.02984E+01 0.00000E+00
 -1      3943 1.15530E+02 3.02984E+01 0.00000E+00
 -1      3944 1.13280E+02 2.89994E+01 0.00000E+00
 -1      3945 1.17030E+02 3.02984E+01 0.00000E+00
 -1      3946 1.18530E+02 3.02984E+01 0.00000E+00
 -1      3947 1.16280E+02 2.89994E+01 0.00000E+00
 -1      3948 1.20030E+02 3.02984E+01 0.00000E+00
 -1      3949 1.21530E+02 3.02984E+01 0.00000E+00
 -1      3950 1.19280E+02 2.89994E+01 0.00000E+00
 -1      3951 1.23030E+02 3.02984E+01 0.00000E+00
 -1      3952 1.24530E+02 3.02984E+01 0.00000E+00
 -1      3953 1.22280E+02 2.89994E+01 0.00000E+00
 -1      3954 1.26030E+02 3.02984E+01 0.00000E+00
 -1      3955 1.27530E+02 3.02984E+01 0.00000E+00
 -1      3956 1.25280E+02 2.89994E+01 0.00000E+00
 -1      3957 1.28876E+02 3.03670E+01 0.00000E+00
 -1      3958 1.30376E+02 3.03670E+01 0.00000E+00
 -1      3959 1.30817E+02 2.92053E+01 0.00000E+00
 -1      3960 1.28126E+02 2.90680E+01 0.00000E+00
 -1      3961 1.86161E+01 1.83111E+01 0.00000E+00
 -1      3962 7.23721E+01 1.73320E+01 0.00000E+00
 -1      3963 7.09313E+01 1.78163E+01 0.00000E+00
 -1      3964 7.01785E+01 1.91138E+01 0.00000E+00
 -1      3965 7.30253E+01 1.81467E+01 0.00000E+00
 -1      3966 6.05100E+01 1.82952E+01 0.00000E+00
 -1      3967 5.90100E+01 1.82952E+01 0.00000E+00
 -1      3968 5.75100E+01 1.82952E+01 0.00000E+00
 -1      3969 5.60100E+01 1.82952E+01 0.00000E+00
 -1      3970 5.82600E+01 1.95942E+01 0.00000E+00
 -1      3971 6.65076E+01 1.82968E+01 0.00000E+00
 -1      3972 6.50076E+01 1.82968E+01 0.00000E+00
 -1      3973 6.72551E+01 1.95973E+01 0.00000E+00
 -1      3974 5.44725E+01 1.82952E+01 0.00000E+00
 -1      3975 5.29350E+01 1.82952E+01 0.00000E+00
 -1      3976 5.52225E+01 1.95942E+01 0.00000E+00
 -1      3977 9.01783E+01 3.06106E+01 0.00000E+00
 -1      3978 8.66632E+01 3.01918E+01 0.00000E+00
 -1      3979 7.79126E+01 2.54361E+01 0.00000E+00
 -1      3980 7.77741E+01 2.41708E+01 0.00000E+00
 -1      3981 7.68063E+01 2.37922E+01 0.00000E+00
 -1      3982 9.25422E+01 3.01717E+01 0.00000E+00
 -1      3983 9.16783E+01 3.06106E+01 0.00000E+00
 -1      3984 3.64350E+01 1.82952E+01 0.00000E+00
 -1      3985 3.49350E+01 1.82952E+01 0.00000E+00
 -1      3986 1.03905E+02 2.48906E+01 0.00000E+00
 -1      3987 1.03096E+02 2.61136E+01 0.00000E+00
 -1      3988 1.30997E+02 2.57645E+01 0.00000E+00
 -1      3989 1.30997E+02 2.42895E+01 0.00000E+00
 -1      3990 1.29831E+02 2.37300E+01 0.00000E+00
 -1      3991 1.23750E+02 1.94850E+01 0.00000E+00
 -1      3992 1.22250E+02 1.94850E+01 0.00000E+00
 -1      3993 9.85525E+01 3.03321E+01 0.00000E+00
 -1      3994 1.69130E+01 2.42951E+01 0.00000E+00
 -1      3995 1.69130E+01 2.57654E+01 0.00000E+00
 -1      3996 1.82120E+01 2.65005E+01 0.00000E+00
 -1      3997 1.82641E+01 2.36673E+01 0.00000E+00
 -1      3998 5.14350E+01 1.82952E+01 0.00000E+00
 -1      3999 4.99350E+01 1.82952E+01 0.00000E+00
 -1      4000 5.21850E+01 1.95942E+01 0.00000E+00
 -1      4001 6.35088E+01 1.82960E+01 0.00000E+00
 -1      4002 6.20088E+01 1.82960E+01 0.00000E+00
 -1      4003 6.12588E+01 1.95950E+01 0.00000E+00
 -1      4004 6.42563E+01 1.95965E+01 0.00000E+00
 -1      4005 2.40304E+01 3.02984E+01 0.00000E+00
 -1      4006 2.55304E+01 3.02984E+01 0.00000E+00
 -1      4007 2.62804E+01 2.89994E+01 0.00000E+00
 -1      4008 1.02194E+02 2.75040E+01 0.00000E+00
 -1      4009 1.00802E+02 2.90331E+01 0.00000E+00
 -1      4010 1.30817E+02 2.77303E+01 0.00000E+00
 -1      4011 1.11868E+02 1.69033E+01 0.00000E+00
 -1      4012 1.10758E+02 1.80746E+01 0.00000E+00
 -1      4013 1.00052E+02 3.03321E+01 0.00000E+00
 -1      4014 7.54224E+01 2.21889E+01 0.00000E+00
 -1      4015 7.54364E+01 2.10873E+01 0.00000E+00
 -1      4016 7.41910E+01 2.07492E+01 0.00000E+00
 -1      4017 1.20713E+02 1.94737E+01 0.00000E+00
 -1      4018 1.19175E+02 1.94625E+01 0.00000E+00
 -1      4019 1.21463E+02 2.07727E+01 0.00000E+00
 -1      4020 2.96287E+01 1.69963E+01 0.00000E+00
 -1      4021 1.10096E+02 1.89133E+01 0.00000E+00
 -1      4022 1.09434E+02 1.97520E+01 0.00000E+00
 -1      4023 1.11594E+02 1.92212E+01 0.00000E+00
 -1      4024 4.61850E+01 1.95942E+01 0.00000E+00
 -1      4025 4.54350E+01 1.82952E+01 0.00000E+00
 -1      4026 4.39350E+01 1.82952E+01 0.00000E+00
 -1      4027 7.69697E+01 2.66954E+01 0.00000E+00
 -1      4028 7.48875E+01 2.86663E+01 0.00000E+00
 -1      4029 4.91850E+01 1.95942E+01 0.00000E+00
 -1      4030 3.94350E+01 1.82952E+01 0.00000E+00
 -1      4031 3.79350E+01 1.82952E+01 0.00000E+00
 -1      4032 3.71850E+01 1.95942E+01 0.00000E+00
 -1      4033 2.43225E+01 1.82952E+01 0.00000E+00
 -1      4034 2.28225E+01 1.82952E+01 0.00000E+00
 -1      4035 7.29035E+01 1.91389E+01 0.00000E+00
 -1      4036 1.05426E+02 2.47255E+01 0.00000E+00
 -1      4037 1.26750E+02 1.94850E+01 0.00000E+00
 -1      4038 1.25250E+02 1.94850E+01 0.00000E+00
 -1      4039 1.24500E+02 2.07840E+01 0.00000E+00
 -1      4040 1.13229E+02 1.69387E+01 0.00000E+00
 -1      4041 1.08772E+02 2.05907E+01 0.00000E+00
 -1      4042 1.08110E+02 2.14295E+01 0.00000E+00
 -1      4043 1.10270E+02 2.08987E+01 0.00000E+00
 -1      4044 1.29651E+02 2.71708E+01 0.00000E+00
 -1      4045 1.95891E+01 2.00381E+01 0.00000E+00
 -1      4046 1.95891E+01 2.15131E+01 0.00000E+00
 -1      4047 3.41662E+01 1.95942E+01 0.00000E+00
 -1      4048 3.34162E+01 1.82952E+01 0.00000E+00
 -1      4049 3.18975E+01 1.82952E+01 0.00000E+00
 -1      4050 2.73600E+01 1.82952E+01 0.00000E+00
 -1      4051 2.58412E+01 1.82952E+01 0.00000E+00
 -1      4052 2.50912E+01 1.95942E+01 0.00000E+00
 -1      4053 1.03682E+02 2.76090E+01 0.00000E+00
 -1      4054 1.95367E+01 2.82358E+01 0.00000E+00
 -1      4055 1.96612E+01 2.92044E+01 0.00000E+00
 -1      4056 1.17064E+02 1.81282E+01 0.00000E+00
 -1      4057 1.16314E+02 1.68292E+01 0.00000E+00
 -1      4058 1.14953E+02 1.67938E+01 0.00000E+00
 -1      4059 1.97087E+01 3.07744E+01 0.00000E+00
 -1      4060 2.20838E+01 3.00759E+01 0.00000E+00
 -1      4061 2.28338E+01 2.87769E+01 0.00000E+00
 -1      4062 1.07938E+02 2.24849E+01 0.00000E+00
 -1      4063 1.95887E+01 2.54025E+01 0.00000E+00
 -1      4064 1.95627E+01 2.68192E+01 0.00000E+00
 -1      4065 2.09134E+01 2.71378E+01 0.00000E+00
 -1      4066 2.09348E+01 3.01244E+01 0.00000E+00
 -1      4067 3.15304E+01 2.77004E+01 0.00000E+00
 -1      4068 3.30303E+01 2.77004E+01 0.00000E+00
 -1      4069 3.45303E+01 2.77004E+01 0.00000E+00
 -1      4070 3.60303E+01 2.77004E+01 0.00000E+00
 -1      4071 3.37803E+01 2.64014E+01 0.00000E+00
 -1      4072 3.75303E+01 2.77004E+01 0.00000E+00
 -1      4073 3.90303E+01 2.77004E+01 0.00000E+00
 -1      4074 3.67803E+01 2.64014E+01 0.00000E+00
 -1      4075 4.05303E+01 2.77004E+01 0.00000E+00
 -1      4076 4.20303E+01 2.77004E+01 0.00000E+00
 -1      4077 3.97803E+01 2.64014E+01 0.00000E+00
 -1      4078 4.35303E+01 2.77004E+01 0.00000E+00
 -1      4079 4.50303E+01 2.77004E+01 0.00000E+00
 -1      4080 4.27803E+01 2.64014E+01 0.00000E+00
 -1      4081 4.65303E+01 2.77004E+01 0.00000E+00
 -1      4082 4.80303E+01 2.77004E+01 0.00000E+00
 -1      4083 4.57803E+01 2.64014E+01 0.00000E+00
 -1      4084 4.95303E+01 2.77004E+01 0.00000E+00
 -1      4085 5.10303E+01 2.77004E+01 0.00000E+00
 -1      4086 4.87803E+01 2.64014E+01 0.00000E+00
 -1      4087 5.25303E+01 2.77004E+01 0.00000E+00
 -1      4088 5.40303E+01 2.77004E+01 0.00000E+00
 -1      4089 5.17803E+01 2.64014E+01 0.00000E+00
 -1      4090 5.55303E+01 2.77004E+01 0.00000E+00
 -1      4091 5.70303E+01 2.77004E+01 0.00000E+00
 -1      4092 5.47803E+01 2.64014E+01 0.00000E+00
 -1      4093 5.85303E+01 2.77004E+01 0.00000E+00
 -1      4094 6.00303E+01 2.77004E+01 0.00000E+00
 -1      4095 5.77803E+01 2.64014E+01 0.00000E+00
 -1      4096 6.15303E+01 2.77004E+01 0.00000E+00
 -1      4097 6.30303E+01 2.77004E+01 0.00000E+00
 -1      4098 6.07803E+01 2.64014E+01 0.00000E+00
 -1      4099 6.45303E+01 2.77004E+01 0.00000E+00
 -1      4100 6.60303E+01 2.77004E+01 0.00000E+00
 -1      4101 6.37803E+01 2.64014E+01 0.00000E+00
 -1      4102 6.75303E+01 2.77004E+01 0.00000E+00
 -1      4103 6.90303E+01 2.77004E+01 0.00000E+00
 -1      4104 6.67803E+01 2.64014E+01 0.00000E+00
 -1      4105 7.05303E+01 2.77004E+01 0.00000E+00
 -1      4106 7.20303E+01 2.77004E+01 0.00000E+00
 -1      4107 6.97803E+01 2.64014E+01 0.00000E+00
 -1      4108 4.99350E+01 2.08932E+01 0.00000E+00
 -1      4109 4.84350E+01 2.08932E+01 0.00000E+00
 -1      4110 1.05182E+02 2.76090E+01 0.00000E+00
 -1      4111 7.28895E+01 2.02405E+01 0.00000E+00
 -1      4112 7.15879E+01 1.97319E+01 0.00000E+00
 -1      4113 7.28754E+01 2.13422E+01 0.00000E+00
 -1      4114 1.06682E+02 2.76090E+01 0.00000E+00
 -1      4115 1.08182E+02 2.76090E+01 0.00000E+00
 -1      4116 1.06084E+02 2.62187E+01 0.00000E+00
 -1      4117 1.09682E+02 2.76090E+01 0.00000E+00
 -1      4118 1.11182E+02 2.76090E+01 0.00000E+00
 -1      4119 1.09084E+02 2.62187E+01 0.00000E+00
 -1      4120 1.12682E+02 2.76090E+01 0.00000E+00
 -1      4121 1.14182E+02 2.76090E+01 0.00000E+00
 -1      4122 1.12084E+02 2.62187E+01 0.00000E+00
 -1      4123 1.15682E+02 2.76090E+01 0.00000E+00
 -1      4124 1.17182E+02 2.76090E+01 0.00000E+00
 -1      4125 1.15084E+02 2.62187E+01 0.00000E+00
 -1      4126 1.18682E+02 2.76090E+01 0.00000E+00
 -1      4127 1.20182E+02 2.76090E+01 0.00000E+00
 -1      4128 1.18084E+02 2.62187E+01 0.00000E+00
 -1      4129 1.21682E+02 2.76090E+01 0.00000E+00
 -1      4130 1.23182E+02 2.76090E+01 0.00000E+00
 -1      4131 1.21084E+02 2.62187E+01 0.00000E+00
 -1      4132 1.24682E+02 2.76090E+01 0.00000E+00
 -1      4133 1.26182E+02 2.76090E+01 0.00000E+00
 -1      4134 1.24084E+02 2.62187E+01 0.00000E+00
 -1      4135 1.27244E+02 2.73556E+01 0.00000E+00
 -1      4136 1.28589E+02 2.74243E+01 0.00000E+00
 -1      4137 1.28769E+02 2.54584E+01 0.00000E+00
 -1      4138 1.26646E+02 2.59653E+01 0.00000E+00
 -1      4139 5.90100E+01 2.08932E+01 0.00000E+00
 -1      4140 5.75100E+01 2.08932E+01 0.00000E+00
 -1      4141 6.80051E+01 2.08963E+01 0.00000E+00
 -1      4142 6.65051E+01 2.08963E+01 0.00000E+00
 -1      4143 5.59725E+01 2.08932E+01 0.00000E+00
 -1      4144 5.44350E+01 2.08932E+01 0.00000E+00
 -1      4145 5.67225E+01 2.21922E+01 0.00000E+00
 -1      4146 2.22303E+01 2.01849E+01 0.00000E+00
 -1      4147 2.14803E+01 1.88859E+01 0.00000E+00
 -1      4148 7.34464E+01 2.73644E+01 0.00000E+00
 -1      4149 7.55536E+01 2.70314E+01 0.00000E+00
 -1      4150 7.55287E+01 2.53934E+01 0.00000E+00
 -1      4151 7.26964E+01 2.60654E+01 0.00000E+00
 -1      4152 7.01645E+01 2.02154E+01 0.00000E+00
 -1      4153 2.01813E+01 1.81484E+01 0.00000E+00
 -1      4154 7.55448E+01 2.44238E+01 0.00000E+00
 -1      4155 7.54063E+01 2.31586E+01 0.00000E+00
 -1      4156 7.41609E+01 2.28205E+01 0.00000E+00
 -1      4157 7.41287E+01 2.47598E+01 0.00000E+00
 -1      4158 1.13979E+02 1.82377E+01 0.00000E+00
 -1      4159 3.03881E+01 1.82952E+01 0.00000E+00
 -1      4160 2.88694E+01 1.82952E+01 0.00000E+00
 -1      4161 2.81194E+01 1.95942E+01 0.00000E+00
 -1      4162 3.11381E+01 1.95942E+01 0.00000E+00
 -1      4163 1.96019E+01 2.27495E+01 0.00000E+00
 -1      4164 1.95759E+01 2.41661E+01 0.00000E+00
 -1      4165 2.09266E+01 2.44848E+01 0.00000E+00
 -1      4166 2.09009E+01 2.20120E+01 0.00000E+00
 -1      4167 1.06926E+02 2.47255E+01 0.00000E+00
 -1      4168 2.35853E+01 2.08306E+01 0.00000E+00
 -1      4169 2.22431E+01 2.14213E+01 0.00000E+00
 -1      4170 2.22559E+01 2.26577E+01 0.00000E+00
 -1      4171 1.28873E+02 2.04123E+01 0.00000E+00
 -1      4172 1.27708E+02 1.98528E+01 0.00000E+00
 -1      4173 1.26958E+02 2.11518E+01 0.00000E+00
 -1      4174 1.28873E+02 2.18873E+01 0.00000E+00
 -1      4175 2.55304E+01 2.77004E+01 0.00000E+00
 -1      4176 2.70304E+01 2.77004E+01 0.00000E+00
 -1      4177 4.24350E+01 1.82952E+01 0.00000E+00
 -1      4178 4.09350E+01 1.82952E+01 0.00000E+00
 -1      4179 4.01850E+01 1.95942E+01 0.00000E+00
 -1      4180 4.31850E+01 1.95942E+01 0.00000E+00
 -1      4181 2.85304E+01 2.77004E+01 0.00000E+00
 -1      4182 3.00304E+01 2.77004E+01 0.00000E+00
 -1      4183 3.07804E+01 2.64014E+01 0.00000E+00
 -1      4184 1.08596E+02 2.39780E+01 0.00000E+00
 -1      4185 5.29350E+01 2.08932E+01 0.00000E+00
 -1      4186 5.14350E+01 2.08932E+01 0.00000E+00
 -1      4187 5.36850E+01 2.21922E+01 0.00000E+00
 -1      4188 2.22486E+01 2.73078E+01 0.00000E+00
 -1      4189 2.41951E+01 2.75303E+01 0.00000E+00
 -1      4190 2.49451E+01 2.62313E+01 0.00000E+00
 -1      4191 2.22746E+01 2.58912E+01 0.00000E+00
 -1      4192 1.22222E+02 2.20773E+01 0.00000E+00
 -1      4193 1.20684E+02 2.20661E+01 0.00000E+00
 -1      4194 1.12944E+02 1.96067E+01 0.00000E+00
 -1      4195 1.12282E+02 2.04454E+01 0.00000E+00
 -1      4196 4.69350E+01 2.08932E+01 0.00000E+00
 -1      4197 4.54350E+01 2.08932E+01 0.00000E+00
 -1      4198 4.76850E+01 2.21922E+01 0.00000E+00
 -1      4199 6.94145E+01 2.15144E+01 0.00000E+00
 -1      4200 5.06850E+01 2.21922E+01 0.00000E+00
 -1      4201 2.77804E+01 2.64014E+01 0.00000E+00
 -1      4202 6.50063E+01 2.08955E+01 0.00000E+00
 -1      4203 6.35076E+01 2.08948E+01 0.00000E+00
 -1      4204 6.57563E+01 2.21945E+01 0.00000E+00
 -1      4205 1.18564E+02 2.07262E+01 0.00000E+00
 -1      4206 1.17814E+02 1.94272E+01 0.00000E+00
 -1      4207 1.16453E+02 1.93918E+01 0.00000E+00
 -1      4208 1.23722E+02 2.20773E+01 0.00000E+00
 -1      4209 1.22943E+02 2.33707E+01 0.00000E+00
 -1      4210 1.25222E+02 2.20773E+01 0.00000E+00
 -1      4211 6.20082E+01 2.08944E+01 0.00000E+00
 -1      4212 6.05094E+01 2.08936E+01 0.00000E+00
 -1      4213 5.97594E+01 2.21926E+01 0.00000E+00
 -1      4214 6.27582E+01 2.21934E+01 0.00000E+00
 -1      4215 1.11620E+02 2.12842E+01 0.00000E+00
 -1      4216 1.10958E+02 2.21229E+01 0.00000E+00
 -1      4217 1.12971E+02 2.16697E+01 0.00000E+00
 -1      4218 3.49256E+01 2.08932E+01 0.00000E+00
 -1      4219 3.34069E+01 2.08932E+01 0.00000E+00
 -1      4220 1.28532E+02 2.44675E+01 0.00000E+00
 -1      4221 1.28532E+02 2.29925E+01 0.00000E+00
 -1      4222 2.51041E+01 2.08306E+01 0.00000E+00
 -1      4223 1.14668E+02 1.94619E+01 0.00000E+00
 -1      4224 1.10096E+02 2.39780E+01 0.00000E+00
 -1      4225 3.79256E+01 2.08932E+01 0.00000E+00
 -1      4226 3.64256E+01 2.08932E+01 0.00000E+00
 -1      4227 3.56662E+01 2.21922E+01 0.00000E+00
 -1      4228 1.11446E+02 2.43635E+01 0.00000E+00
 -1      4229 1.27470E+02 2.47209E+01 0.00000E+00
 -1      4230 1.27574E+02 2.26248E+01 0.00000E+00
 -1      4231 3.26569E+01 2.21922E+01 0.00000E+00
 -1      4232 3.18975E+01 2.08932E+01 0.00000E+00
 -1      4233 3.03881E+01 2.08932E+01 0.00000E+00
 -1      4234 3.62233E+01 2.42968E+01 0.00000E+00
 -1      4235 3.77233E+01 2.42968E+01 0.00000E+00
 -1      4236 4.20303E+01 2.51024E+01 0.00000E+00
 -1      4237 4.35303E+01 2.51024E+01 0.00000E+00
 -1      4238 4.52327E+01 2.42968E+01 0.00000E+00
 -1      4239 4.67327E+01 2.42968E+01 0.00000E+00
 -1      4240 4.82327E+01 2.42968E+01 0.00000E+00
 -1      4241 4.97327E+01 2.42968E+01 0.00000E+00
 -1      4242 5.12327E+01 2.42968E+01 0.00000E+00
 -1      4243 5.27327E+01 2.42968E+01 0.00000E+00
 -1      4244 5.42327E+01 2.42968E+01 0.00000E+00
 -1      4245 5.57327E+01 2.42968E+01 0.00000E+00
 -1      4246 5.72702E+01 2.42968E+01 0.00000E+00
 -1      4247 5.87702E+01 2.42968E+01 0.00000E+00
 -1      4248 6.02696E+01 2.42972E+01 0.00000E+00
 -1      4249 6.17696E+01 2.42972E+01 0.00000E+00
 -1      4250 6.32690E+01 2.42976E+01 0.00000E+00
 -1      4251 6.47690E+01 2.42976E+01 0.00000E+00
 -1      4252 6.62677E+01 2.42983E+01 0.00000E+00
 -1      4253 6.77677E+01 2.42983E+01 0.00000E+00
 -1      4254 1.26617E+02 2.22570E+01 0.00000E+00
 -1      4255 1.25838E+02 2.35503E+01 0.00000E+00
 -1      4256 7.28593E+01 2.23118E+01 0.00000E+00
 -1      4257 7.15577E+01 2.18032E+01 0.00000E+00
 -1      4258 7.28432E+01 2.32815E+01 0.00000E+00
 -1      4259 1.26409E+02 2.49743E+01 0.00000E+00
 -1      4260 3.00304E+01 2.51024E+01 0.00000E+00
 -1      4261 3.15304E+01 2.51024E+01 0.00000E+00
 -1      4262 1.12946E+02 2.43635E+01 0.00000E+00
 -1      4263 1.17334E+02 2.49197E+01 0.00000E+00
 -1      4264 1.18834E+02 2.49197E+01 0.00000E+00
 -1      4265 1.20514E+02 2.47947E+01 0.00000E+00
 -1      4266 1.22014E+02 2.47947E+01 0.00000E+00
 -1      4267 1.23514E+02 2.47947E+01 0.00000E+00
 -1      4268 1.25014E+02 2.47947E+01 0.00000E+00
 -1      4269 2.22589E+01 2.36563E+01 0.00000E+00
 -1      4270 2.22717E+01 2.48926E+01 0.00000E+00
 -1      4271 2.36069E+01 2.50627E+01 0.00000E+00
 -1      4272 2.36011E+01 2.30656E+01 0.00000E+00
 -1      4273 2.66813E+01 2.12164E+01 0.00000E+00
 -1      4274 2.51754E+01 2.24528E+01 0.00000E+00
 -1      4275 1.15418E+02 2.07609E+01 0.00000E+00
 -1      4276 2.65165E+01 2.46200E+01 0.00000E+00
 -1      4277 2.80165E+01 2.46200E+01 0.00000E+00
 -1      4278 3.32233E+01 2.42968E+01 0.00000E+00
 -1      4279 3.47233E+01 2.42968E+01 0.00000E+00
 -1      4280 1.19764E+02 2.34957E+01 0.00000E+00
 -1      4281 1.19005E+02 2.21911E+01 0.00000E+00
 -1      4282 1.13709E+02 2.30166E+01 0.00000E+00
 -1      4283 1.14346E+02 2.48717E+01 0.00000E+00
 -1      4284 1.15846E+02 2.48717E+01 0.00000E+00
 -1      4285 1.14371E+02 2.21779E+01 0.00000E+00
 -1      4286 4.44827E+01 2.29978E+01 0.00000E+00
 -1      4287 4.37327E+01 2.16988E+01 0.00000E+00
 -1      4288 3.90303E+01 2.51024E+01 0.00000E+00
 -1      4289 4.05303E+01 2.51024E+01 0.00000E+00
 -1      4290 2.51812E+01 2.44499E+01 0.00000E+00
 -1      4291 6.87735E+01 2.29392E+01 0.00000E+00
 -1      4292 6.92861E+01 2.50422E+01 0.00000E+00
 -1      4293 7.07861E+01 2.50422E+01 0.00000E+00
 -1      4294 1.17643E+02 2.21557E+01 0.00000E+00
 -1      4295 2.87665E+01 2.33210E+01 0.00000E+00
 -1      4296 3.84733E+01 2.29978E+01 0.00000E+00
 -1      4297 1.16596E+02 2.35727E+01 0.00000E+00
 -1      4298 4.12803E+01 2.38034E+01 0.00000E+00
 -1      4299 7.14110E+01 2.45871E+01 0.00000E+00
 -1      4300 7.28271E+01 2.42511E+01 0.00000E+00
 -1      4301 1.16156E+02 2.21078E+01 0.00000E+00
 -1      4302 2.81907E+01 2.12164E+01 0.00000E+00
 -1      4303 4.22327E+01 2.16988E+01 0.00000E+00
 -1      4304 6.93984E+01 2.24841E+01 0.00000E+00
 -1      4305 3.92327E+01 2.16988E+01 0.00000E+00
 -1      4306 4.07327E+01 2.16988E+01 0.00000E+00
 -1      4307 2.51783E+01 2.34514E+01 0.00000E+00
 -1      4308 3.17139E+01 2.42968E+01 0.00000E+00
 -1      4309 7.09167E+01 2.32280E+01 0.00000E+00
 -1      4310 2.89501E+01 2.25154E+01 0.00000E+00
 -1      4311 3.09639E+01 2.29978E+01 0.00000E+00
 -3
    3C                          2073                                     1
 -1       166    8    0    1
 -2         6         7        23      1120      1285      1137
 -1       167    8    0    1
 -2         7         8       166      1121      1286      1287
 -1       168    8    0    1
 -2         8         9       167      1122      1288      1289
 -1       169    8    0    1
 -2         8       167       166      1289      1290      1286
 -1       170    8    0    1
 -2         9        10       168      1123      1291      1292
 -1       171    8    0    1
 -2         9       168       167      1292      1293      1288
 -1       172    8    0    1
 -2        10        11       169      1124      1294      1295
 -1       173    8    0    1
 -2        10       169       168      1295      1296      1291
 -1       174    8    0    1
 -2        11        12       170      1125      1297      1298
 -1       175    8    0    1
 -2        11       170       169      1298      1299      1294
 -1       176    8    0    1
 -2        12        13       171      1126      1300      1301
 -1       177    8    0    1
 -2        12       171       170      1301      1302      1297
 -1       178    8    0    1
 -2        13        14       172      1127      1303      1304
 -1       179    8    0    1
 -2        13       172       171      1304      1305      1300
 -1       180    8    0    1
 -2        14        15       173      1128      1306      1307
 -1       181    8    0    1
 -2        14       173       172      1307      1308      1303
 -1       182    8    0    1
 -2        15        16       174      1129      1309      1310
 -1       183    8    0    1
 -2        15       174       173      1310      1311      1306
 -1       184    8    0    1
 -2        16        17       175      1130      1312      1313
 -1       185    8    0    1
 -2        16       175       174      1313      1314      1309
 -1       186    8    0    1
 -2        17        18       176      1131      1315      1316
 -1       187    8    0    1
 -2        17       176       175      1316      1317      1312
 -1       188    8    0    1
 -2        18        19       177      1132      1318      1319
 -1       189    8    0    1
 -2        18       177       176      1319      1320      1315
 -1       190    8    0    1
 -2        19        20       178      1133      1321      1322
 -1       191    8    0    1
 -2        19       178       177      1322      1323      1318
 -1       192    8    0    1
 -2        20        21       179      1134      1324      1325
 -1       193    8    0    1
 -2        20       179       178      1325      1326      1321
 -1       194    8    0    1
 -2        21        22       180      1135      1327      1328
 -1       195    8    0    1
 -2        21       180       179      1328      1329      1324
 -1       196    8    0    1
 -2        22         5       181      1136      1330      1331
 -1       197    8    0    1
 -2       180        22       181      1327      1331      1332
 -1       198    8    0    1
 -2         5        72       181      1187      1333      1330
 -1       199    8    0    1
 -2        24        23       182      1138      1334      1335
 -1       200    8    0    1
 -2        25        24       183      1139      1336      1337
 -1       201    8    0    1
 -2        24       182       183      1335      1338      1336
 -1       202    8    0    1
 -2        26        25       184      1140      1339      1340
 -1       203    8    0    1
 -2        25       183       184      1337      1341      1339
 -1       204    8    0    1
 -2        27        26       185      1141      1342      1343
 -1       205    8    0    1
 -2        26       184       185      1340      1344      1342
 -1       206    8    0    1
 -2        28        27       186      1142      1345      1346
 -1       207    8    0    1
 -2        27       185       186      1343      1347      1345
 -1       208    8    0    1
 -2        29        28       187      1143      1348      1349
 -1       209    8    0    1
 -2        28       186       187      1346      1350      1348
 -1       210    8    0    1
 -2        30        29       188      1144      1351      1352
 -1       211    8    0    1
 -2        29       187       188      1349      1353      1351
 -1       212    8    0    1
 -2        31        30       189      1145      1354      1355
 -1       213    8    0    1
 -2        30       188       189      1352      1356      1354
 -1       214    8    0    1
 -2        32        31       190      1146      1357      1358
 -1       215    8    0    1
 -2        31       189       190      1355      1359      1357
 -1       216    8    0    1
 -2        33        32       191      1147      1360      1361
 -1       217    8    0    1
 -2        32       190       191      1358      1362      1360
 -1       218    8    0    1
 -2        34        33       192      1148      1363      1364
 -1       219    8    0    1
 -2        33       191       192      1361      1365      1363
 -1       220    8    0    1
 -2        35        34       193      1149      1366      1367
 -1       221    8    0    1
 -2        34       192       193      1364      1368      1366
 -1       222    8    0    1
 -2        36        35       194      1150      1369      1370
 -1       223    8    0    1
 -2        35       193       194      1367      1371      1369
 -1       224    8    0    1
 -2        37        36       195      1151      1372      1373
 -1       225    8    0    1
 -2        36       194       195      1370      1374      1372
 -1       226    8    0    1
 -2        38        37       196      1152      1375      1376
 -1       227    8    0    1
 -2        37       195       196      1373      1377      1375
 -1       228    8    0    1
 -2        39        38       197      1153      1378      1379
 -1       229    8    0    1
 -2        38       196       197      1376      1380      1378
 -1       230    8    0    1
 -2        40        39       198      1154      1381      1382
 -1       231    8    0    1
 -2        39       197       198      1379      1383      1381
 -1       232    8    0    1
 -2        41        40       199      1155      1384      1385
 -1       233    8    0    1
 -2        40       198       199      1382      1386      1384
 -1       234    8    0    1
 -2        42        41       200      1156      1387      1388
 -1       235    8    0    1
 -2        41       199       200      1385      1389      1387
 -1       236    8    0    1
 -2        43        42       201      1157      1390      1391
 -1       237    8    0    1
 -2        42       200       201      1388      1392      1390
 -1       238    8    0    1
 -2        44        43       202      1158      1393      1394
 -1       239    8    0    1
 -2        43       201       202      1391      1395      1393
 -1       240    8    0    1
 -2        45        44       203      1159      1396      1397
 -1       241    8    0    1
 -2        44       202       203      1394      1398      1396
 -1       242    8    0    1
 -2        46        45       204      1160      1399      1400
 -1       243    8    0    1
 -2        45       203       204      1397      1401      1399
 -1       244    8    0    1
 -2        47        46       205      1161      1402      1403
 -1       245    8    0    1
 -2        46       204       205      1400      1404      1402
 -1       246    8    0    1
 -2        48        47       206      1162      1405      1406
 -1       247    8    0    1
 -2        47       205       206      1403      1407      1405
 -1       248    8    0    1
 -2        49        48       207      1163      1408      1409
 -1       249    8    0    1
 -2        48       206       207      1406      1410      1408
 -1       250    8    0    1
 -2        50        49       208      1164      1411      1412
 -1       251    8    0    1
 -2        49       207       208      1409      1413      1411
 -1       252    8    0    1
 -2        51        50       209      1165      1414      1415
 -1       253    8    0    1
 -2        50       208       209      1412      1416      1414
 -1       254    8    0    1
 -2        52        51       210      1166      1417      1418
 -1       255    8    0    1
 -2        51       209       210      1415      1419      1417
 -1       256    8    0    1
 -2        53        52       211      1167      1420      1421
 -1       257    8    0    1
 -2        52       210       211      1418      1422      1420
 -1       258    8    0    1
 -2        54        53       212      1168      1423      1424
 -1       259    8    0    1
 -2        53       211       212      1421      1425      1423
 -1       260    8    0    1
 -2        55        54       213      1169      1426      1427
 -1       261    8    0    1
 -2        54       212       213      1424      1428      1426
 -1       262    8    0    1
 -2        56        55       214      1170      1429      1430
 -1       263    8    0    1
 -2        55       213       214      1427      1431      1429
 -1       264    8    0    1
 -2        57        56       215      1171      1432      1433
 -1       265    8    0    1
 -2        56       214       215      1430      1434      1432
 -1       266    8    0    1
 -2        58        57       216      1172      1435      1436
 -1       267    8    0    1
 -2        57       215       216      1433      1437      1435
 -1       268    8    0    1
 -2        59        58       217      1173      1438      1439
 -1       269    8    0    1
 -2        58       216       217      1436      1440      1438
 -1       270    8    0    1
 -2        60        59       218      1174      1441      1442
 -1       271    8    0    1
 -2        59       217       218      1439      1443      1441
 -1       272    8    0    1
 -2        61        60       219      1175      1444      1445
 -1       273    8    0    1
 -2        60       218       219      1442      1446      1444
 -1       274    8    0    1
 -2        62        61       220      1176      1447      1448
 -1       275    8    0    1
 -2        61       219       220      1445      1449      1447
 -1       276    8    0    1
 -2        63        62       221      1177      1450      1451
 -1       277    8    0    1
 -2        62       220       221      1448      1452      1450
 -1       278    8    0    1
 -2        64        63       222      1178      1453      1454
 -1       279    8    0    1
 -2        63       221       222      1451      1455      1453
 -1       280    8    0    1
 -2        65        64       223      1179      1456      1457
 -1       281    8    0    1
 -2        64       222       223      1454      1458      1456
 -1       282    8    0    1
 -2        66        65       224      1180      1459      1460
 -1       283    8    0    1
 -2        65       223       224      1457      1461      1459
 -1       284    8    0    1
 -2        67        66       225      1181      1462      1463
 -1       285    8    0    1
 -2        66       224       225      1460      1464      1462
 -1       286    8    0    1
 -2        68        67       226      1182      1465      1466
 -1       287    8    0    1
 -2        67       225       226      1463      1467      1465
 -1       288    8    0    1
 -2        69        68       227      1183      1468      1469
 -1       289    8    0    1
 -2        68       226       227      1466      1470      1468
 -1       290    8    0    1
 -2        70        69       228      1184      1471      1472
 -1       291    8    0    1
 -2        69       227       228      1469      1473      1471
 -1       292    8    0    1
 -2        71        70       229      1185      1474      1475
 -1       293    8    0    1
 -2        70       228       229      1472      1476      1474
 -1       294    8    0    1
 -2         4        71       137      1186      1477      1254
 -1       295    8    0    1
 -2       137        71       229      1477      1475      1478
 -1       296    8    0    1
 -2        72        73       230      1188      1479      1480
 -1       297    8    0    1
 -2        72       230       181      1480      1481      1333
 -1       298    8    0    1
 -2        73        74       231      1189      1482      1483
 -1       299    8    0    1
 -2        73       231       230      1483      1484      1479
 -1       300    8    0    1
 -2        74        75       232      1190      1485      1486
 -1       301    8    0    1
 -2        74       232       231      1486      1487      1482
 -1       302    8    0    1
 -2        75        76       233      1191      1488      1489
 -1       303    8    0    1
 -2        75       233       232      1489      1490      1485
 -1       304    8    0    1
 -2        76        77       234      1192      1491      1492
 -1       305    8    0    1
 -2        76       234       233      1492      1493      1488
 -1       306    8    0    1
 -2        77        78       235      1193      1494      1495
 -1       307    8    0    1
 -2        77       235       234      1495      1496      1491
 -1       308    8    0    1
 -2        78        79       236      1194      1497      1498
 -1       309    8    0    1
 -2        78       236       235      1498      1499      1494
 -1       310    8    0    1
 -2        79        80       237      1195      1500      1501
 -1       311    8    0    1
 -2        79       237       236      1501      1502      1497
 -1       312    8    0    1
 -2        80        81       238      1196      1503      1504
 -1       313    8    0    1
 -2        80       238       237      1504      1505      1500
 -1       314    8    0    1
 -2        81        82       239      1197      1506      1507
 -1       315    8    0    1
 -2        81       239       238      1507      1508      1503
 -1       316    8    0    1
 -2        82        83       240      1198      1509      1510
 -1       317    8    0    1
 -2        82       240       239      1510      1511      1506
 -1       318    8    0    1
 -2        83        84       241      1199      1512      1513
 -1       319    8    0    1
 -2        83       241       240      1513      1514      1509
 -1       320    8    0    1
 -2        84        85       242      1200      1515      1516
 -1       321    8    0    1
 -2        84       242       241      1516      1517      1512
 -1       322    8    0    1
 -2        85        86       243      1201      1518      1519
 -1       323    8    0    1
 -2        85       243       242      1519      1520      1515
 -1       324    8    0    1
 -2        86        87       244      1202      1521      1522
 -1       325    8    0    1
 -2        86       244       243      1522      1523      1518
 -1       326    8    0    1
 -2        87        88       245      1203      1524      1525
 -1       327    8    0    1
 -2        87       245       244      1525      1526      1521
 -1       328    8    0    1
 -2        88        89       246      1204      1527      1528
 -1       329    8    0    1
 -2        88       246       245      1528      1529      1524
 -1       330    8    0    1
 -2        89        90       247      1205      1530      1531
 -1       331    8    0    1
 -2        89       247       246      1531      1532      1527
 -1       332    8    0    1
 -2        90        91       248      1206      1533      1534
 -1       333    8    0    1
 -2        90       248       247      1534      1535      1530
 -1       334    8    0    1
 -2        91        92       249      1207      1536      1537
 -1       335    8    0    1
 -2        91       249       248      1537      1538      1533
 -1       336    8    0    1
 -2        92        93       250      1208      1539      1540
 -1       337    8    0    1
 -2        92       250       249      1540      1541      1536
 -1       338    8    0    1
 -2        93        94       251      1209      1542      1543
 -1       339    8    0    1
 -2        93       251       250      1543      1544      1539
 -1       340    8    0    1
 -2        94        95       252      1210      1545      1546
 -1       341    8    0    1
 -2        94       252       251      1546      1547      1542
 -1       342    8    0    1
 -2        95        96       253      1211      1548      1549
 -1       343    8    0    1
 -2        95       253       252      1549      1550      1545
 -1       344    8    0    1
 -2        96        97       254      1212      1551      1552
 -1       345    8    0    1
 -2        96       254       253      1552      1553      1548
 -1       346    8    0    1
 -2        97        98       255      1213      1554      1555
 -1       347    8    0    1
 -2        97       255       254      1555      1556      1551
 -1       348    8    0    1
 -2        98        99       256      1214      1557      1558
 -1       349    8    0    1
 -2        98       256       255      1558      1559      1554
 -1       350    8    0    1
 -2        99       100       257      1215      1560      1561
 -1       351    8    0    1
 -2        99       257       256      1561      1562      1557
 -1       352    8    0    1
 -2       100       101       258      1216      1563      1564
 -1       353    8    0    1
 -2       100       258       257      1564      1565      1560
 -1       354    8    0    1
 -2       101       102       259      1217      1566      1567
 -1       355    8    0    1
 -2       101       259       258      1567      1568      1563
 -1       356    8    0    1
 -2       102       103       260      1218      1569      1570
 -1       357    8    0    1
 -2       102       260       259      1570      1571      1566
 -1       358    8    0    1
 -2       103       104       261      1219      1572      1573
 -1       359    8    0    1
 -2       103       261       260      1573      1574      1569
 -1       360    8    0    1
 -2       105       106       262      1221      1575      1576
 -1       361    8    0    1
 -2       106       107       263      1222      1577      1578
 -1       362    8    0    1
 -2       106       263       262      1578      1579      1575
 -1       363    8    0    1
 -2       107       108       264      1223      1580      1581
 -1       364    8    0    1
 -2       107       264       263      1581      1582      1577
 -1       365    8    0    1
 -2       108       109       265      1224      1583      1584
 -1       366    8    0    1
 -2       108       265       264      1584      1585      1580
 -1       367    8    0    1
 -2       109       110       266      1225      1586      1587
 -1       368    8    0    1
 -2       109       266       265      1587      1588      1583
 -1       369    8    0    1
 -2       110       111       267      1226      1589      1590
 -1       370    8    0    1
 -2       110       267       266      1590      1591      1586
 -1       371    8    0    1
 -2       111       112       268      1227      1592      1593
 -1       372    8    0    1
 -2       111       268       267      1593      1594      1589
 -1       373    8    0    1
 -2       112       113       269      1228      1595      1596
 -1       374    8    0    1
 -2       112       269       268      1596      1597      1592
 -1       375    8    0    1
 -2       113       114       270      1229      1598      1599
 -1       376    8    0    1
 -2       113       270       269      1599      1600      1595
 -1       377    8    0    1
 -2       114       115       271      1230      1601      1602
 -1       378    8    0    1
 -2       114       271       270      1602      1603      1598
 -1       379    8    0    1
 -2       115       116       272      1231      1604      1605
 -1       380    8    0    1
 -2       115       272       271      1605      1606      1601
 -1       381    8    0    1
 -2       116       117       273      1232      1607      1608
 -1       382    8    0    1
 -2       116       273       272      1608      1609      1604
 -1       383    8    0    1
 -2       117       118       274      1233      1610      1611
 -1       384    8    0    1
 -2       117       274       273      1611      1612      1607
 -1       385    8    0    1
 -2       118       119       275      1234      1613      1614
 -1       386    8    0    1
 -2       118       275       274      1614      1615      1610
 -1       387    8    0    1
 -2       119       120       276      1235      1616      1617
 -1       388    8    0    1
 -2       119       276       275      1617      1618      1613
 -1       389    8    0    1
 -2       120       121       277      1236      1619      1620
 -1       390    8    0    1
 -2       120       277       276      1620      1621      1616
 -1       391    8    0    1
 -2       121         3       278      1237      1622      1623
 -1       392    8    0    1
 -2       277       121       278      1619      1623      1624
 -1       393    8    0    1
 -2         3       122       278      1238      1625      1622
 -1       394    8    0    1
 -2       122       123       279      1239      1626      1627
 -1       395    8    0    1
 -2       122       279       278      1627      1628      1625
 -1       396    8    0    1
 -2       123       124       280      1240      1629      1630
 -1       397    8    0    1
 -2       123       280       279      1630      1631      1626
 -1       398    8    0    1
 -2       124       125       281      1241      1632      1633
 -1       399    8    0    1
 -2       124       281       280      1633      1634      1629
 -1       400    8    0    1
 -2       125       126       282      1242      1635      1636
 -1       401    8    0    1
 -2       125       282       281      1636      1637      1632
 -1       402    8    0    1
 -2       126       127       283      1243      1638      1639
 -1       403    8    0    1
 -2       126       283       282      1639      1640      1635
 -1       404    8    0    1
 -2       127       128       284      1244      1641      1642
 -1       405    8    0    1
 -2       127       284       283      1642      1643      1638
 -1       406    8    0    1
 -2       128       129       285      1245      1644      1645
 -1       407    8    0    1
 -2       128       285       284      1645      1646      1641
 -1       408    8    0    1
 -2       129       130       286      1246      1647      1648
 -1       409    8    0    1
 -2       129       286       285      1648      1649      1644
 -1       410    8    0    1
 -2       130       131       287      1247      1650      1651
 -1       411    8    0    1
 -2       130       287       286      1651      1652      1647
 -1       412    8    0    1
 -2       131       132       288      1248      1653      1654
 -1       413    8    0    1
 -2       131       288       287      1654      1655      1650
 -1       414    8    0    1
 -2       132       133       289      1249      1656      1657
 -1       415    8    0    1
 -2       132       289       288      1657      1658      1653
 -1       416    8    0    1
 -2       133       134       290      1250      1659      1660
 -1       417    8    0    1
 -2       133       290       289      1660      1661      1656
 -1       418    8    0    1
 -2       134       135       291      1251      1662      1663
 -1       419    8    0    1
 -2       134       291       290      1663      1664      1659
 -1       420    8    0    1
 -2       135       136       292      1252      1665      1666
 -1       421    8    0    1
 -2       135       292       291      1666      1667      1662
 -1       422    8    0    1
 -2       136       137       292      1253      1668      1665
 -1       423    8    0    1
 -2         2       138       293      1255      1669      1670
 -1       424    8    0    1
 -2       138       139       294      1256      1671      1672
 -1       425    8    0    1
 -2       139       140       295      1257      1673      1674
 -1       426    8    0    1
 -2       140       141       296      1258      1675      1676
 -1       427    8    0    1
 -2       140       296       295      1676      1677      1673
 -1       428    8    0    1
 -2       141       142       297      1259      1678      1679
 -1       429    8    0    1
 -2       142       143       298      1260      1680      1681
 -1       430    8    0    1
 -2       143       144       299      1261      1682      1683
 -1       431    8    0    1
 -2       144       145       300      1262      1684      1685
 -1       432    8    0    1
 -2       145       146       301      1263      1686      1687
 -1       433    8    0    1
 -2       146       147       302      1264      1688      1689
 -1       434    8    0    1
 -2       147       148       303      1265      1690      1691
 -1       435    8    0    1
 -2       148       149       304      1266      1692      1693
 -1       436    8    0    1
 -2       149       150       305      1267      1694      1695
 -1       437    8    0    1
 -2       150       151       306      1268      1696      1697
 -1       438    8    0    1
 -2       151       152       307      1269      1698      1699
 -1       439    8    0    1
 -2       152       153       308      1270      1700      1701
 -1       440    8    0    1
 -2       153       154       309      1271      1702      1703
 -1       441    8    0    1
 -2       154         1       310      1272      1704      1705
 -1       442    8    0    1
 -2         1       155       311      1273      1706      1707
 -1       443    8    0    1
 -2       155       156       312      1274      1708      1709
 -1       444    8    0    1
 -2       156       157       313      1275      1710      1711
 -1       445    8    0    1
 -2       156       313       312      1711      1712      1708
 -1       446    8    0    1
 -2       157       158       314      1276      1713      1714
 -1       447    8    0    1
 -2       158       159       315      1277      1715      1716
 -1       448    8    0    1
 -2       159       160       316      1278      1717      1718
 -1       449    8    0    1
 -2       160       161       317      1279      1719      1720
 -1       450    8    0    1
 -2       161       162       318      1280      1721      1722
 -1       451    8    0    1
 -2       162       163       319      1281      1723      1724
 -1       452    8    0    1
 -2       163       164       320      1282      1725      1726
 -1       453    8    0    1
 -2       164       165       321      1283      1727      1728
 -1       454    8    0    1
 -2       165         2       322      1284      1729      1730
 -1       455    8    0    1
 -2       296       141       297      1675      1679      1731
 -1       456    8    0    1
 -2       104       105       323      1220      1732      1733
 -1       457    8    0    1
 -2       104       323       261      1733      1734      1572
 -1       458    8    0    1
 -2       292       137       229      1668      1478      1735
 -1       459    8    0    1
 -2         2       293       322      1670      1736      1729
 -1       460    8    0    1
 -2       294       139       295      1671      1674      1737
 -1       461    8    0    1
 -2       293       138       294      1669      1672      1738
 -1       462    8    0    1
 -2       297       142       298      1678      1681      1739
 -1       463    8    0    1
 -2       143       299       298      1683      1740      1680
 -1       464    8    0    1
 -2       144       300       299      1685      1741      1682
 -1       465    8    0    1
 -2       145       301       300      1687      1742      1684
 -1       466    8    0    1
 -2       146       302       301      1689      1743      1686
 -1       467    8    0    1
 -2       147       303       302      1691      1744      1688
 -1       468    8    0    1
 -2       148       304       303      1693      1745      1690
 -1       469    8    0    1
 -2       149       305       304      1695      1746      1692
 -1       470    8    0    1
 -2       150       306       305      1697      1747      1694
 -1       471    8    0    1
 -2       151       307       306      1699      1748      1696
 -1       472    8    0    1
 -2       152       308       307      1701      1749      1698
 -1       473    8    0    1
 -2       153       309       308      1703      1750      1700
 -1       474    8    0    1
 -2       154       310       309      1705      1751      1702
 -1       475    8    0    1
 -2         1       311       310      1707      1752      1704
 -1       476    8    0    1
 -2       155       312       311      1709      1753      1706
 -1       477    8    0    1
 -2       314       158       315      1713      1716      1754
 -1       478    8    0    1
 -2       159       316       315      1718      1755      1715
 -1       479    8    0    1
 -2       160       317       316      1720      1756      1717
 -1       480    8    0    1
 -2       161       318       317      1722      1757      1719
 -1       481    8    0    1
 -2       162       319       318      1724      1758      1721
 -1       482    8    0    1
 -2       163       320       319      1726      1759      1723
 -1       483    8    0    1
 -2       164       321       320      1728      1760      1725
 -1       484    8    0    1
 -2       165       322       321      1730      1761      1727
 -1       485    8    0    1
 -2        23         7       166      1285      1287      1762
 -1       486    8    0    1
 -2       157       314       313      1714      1763      1710
 -1       487    8    0    1
 -2       323       105       262      1732      1576      1764
 -1       488    8    0    1
 -2       167       168       324      1293      1765      1766
 -1       489    8    0    1
 -2       166       167       325      1290      1767      1768
 -1       490    8    0    1
 -2       167       324       325      1766      1769      1767
 -1       491    8    0    1
 -2       169       170       326      1299      1770      1771
 -1       492    8    0    1
 -2       170       171       327      1302      1772      1773
 -1       493    8    0    1
 -2       170       327       326      1773      1774      1770
 -1       494    8    0    1
 -2       171       172       328      1305      1775      1776
 -1       495    8    0    1
 -2       171       328       327      1776      1777      1772
 -1       496    8    0    1
 -2       172       173       329      1308      1778      1779
 -1       497    8    0    1
 -2       172       329       328      1779      1780      1775
 -1       498    8    0    1
 -2       173       174       330      1311      1781      1782
 -1       499    8    0    1
 -2       173       330       329      1782      1783      1778
 -1       500    8    0    1
 -2       174       175       331      1314      1784      1785
 -1       501    8    0    1
 -2       174       331       330      1785      1786      1781
 -1       502    8    0    1
 -2       175       176       332      1317      1787      1788
 -1       503    8    0    1
 -2       175       332       331      1788      1789      1784
 -1       504    8    0    1
 -2       176       177       333      1320      1790      1791
 -1       505    8    0    1
 -2       176       333       332      1791      1792      1787
 -1       506    8    0    1
 -2       177       178       334      1323      1793      1794
 -1       507    8    0    1
 -2       177       334       333      1794      1795      1790
 -1       508    8    0    1
 -2       178       179       335      1326      1796      1797
 -1       509    8    0    1
 -2       178       335       334      1797      1798      1793
 -1       510    8    0    1
 -2       179       180       336      1329      1799      1800
 -1       511    8    0    1
 -2       179       336       335      1800      1801      1796
 -1       512    8    0    1
 -2       180       181       337      1332      1802      1803
 -1       513    8    0    1
 -2       336       180       337      1799      1803      1804
 -1       514    8    0    1
 -2       181       230       337      1481      1805      1802
 -1       515    8    0    1
 -2       182        23       166      1334      1762      1806
 -1       516    8    0    1
 -2       230       231       338      1484      1807      1808
 -1       517    8    0    1
 -2       230       338       337      1808      1809      1805
 -1       518    8    0    1
 -2       313       314       339      1763      1810      1811
 -1       519    8    0    1
 -2       182       166       325      1806      1768      1812
 -1       520    8    0    1
 -2       184       183       340      1341      1813      1814
 -1       521    8    0    1
 -2       185       184       341      1344      1815      1816
 -1       522    8    0    1
 -2       184       340       341      1814      1817      1815
 -1       523    8    0    1
 -2       186       185       342      1347      1818      1819
 -1       524    8    0    1
 -2       185       341       342      1816      1820      1818
 -1       525    8    0    1
 -2       187       186       343      1350      1821      1822
 -1       526    8    0    1
 -2       186       342       343      1819      1823      1821
 -1       527    8    0    1
 -2       188       187       344      1353      1824      1825
 -1       528    8    0    1
 -2       187       343       344      1822      1826      1824
 -1       529    8    0    1
 -2       189       188       345      1356      1827      1828
 -1       530    8    0    1
 -2       188       344       345      1825      1829      1827
 -1       531    8    0    1
 -2       190       189       346      1359      1830      1831
 -1       532    8    0    1
 -2       189       345       346      1828      1832      1830
 -1       533    8    0    1
 -2       191       190       347      1362      1833      1834
 -1       534    8    0    1
 -2       190       346       347      1831      1835      1833
 -1       535    8    0    1
 -2       192       191       348      1365      1836      1837
 -1       536    8    0    1
 -2       191       347       348      1834      1838      1836
 -1       537    8    0    1
 -2       193       192       349      1368      1839      1840
 -1       538    8    0    1
 -2       192       348       349      1837      1841      1839
 -1       539    8    0    1
 -2       194       193       350      1371      1842      1843
 -1       540    8    0    1
 -2       193       349       350      1840      1844      1842
 -1       541    8    0    1
 -2       195       194       351      1374      1845      1846
 -1       542    8    0    1
 -2       194       350       351      1843      1847      1845
 -1       543    8    0    1
 -2       196       195       352      1377      1848      1849
 -1       544    8    0    1
 -2       195       351       352      1846      1850      1848
 -1       545    8    0    1
 -2       197       196       353      1380      1851      1852
 -1       546    8    0    1
 -2       196       352       353      1849      1853      1851
 -1       547    8    0    1
 -2       198       197       354      1383      1854      1855
 -1       548    8    0    1
 -2       197       353       354      1852      1856      1854
 -1       549    8    0    1
 -2       199       198       355      1386      1857      1858
 -1       550    8    0    1
 -2       198       354       355      1855      1859      1857
 -1       551    8    0    1
 -2       200       199       356      1389      1860      1861
 -1       552    8    0    1
 -2       199       355       356      1858      1862      1860
 -1       553    8    0    1
 -2       201       200       357      1392      1863      1864
 -1       554    8    0    1
 -2       200       356       357      1861      1865      1863
 -1       555    8    0    1
 -2       202       201       358      1395      1866      1867
 -1       556    8    0    1
 -2       201       357       358      1864      1868      1866
 -1       557    8    0    1
 -2       203       202       359      1398      1869      1870
 -1       558    8    0    1
 -2       202       358       359      1867      1871      1869
 -1       559    8    0    1
 -2       204       203       360      1401      1872      1873
 -1       560    8    0    1
 -2       203       359       360      1870      1874      1872
 -1       561    8    0    1
 -2       205       204       361      1404      1875      1876
 -1       562    8    0    1
 -2       204       360       361      1873      1877      1875
 -1       563    8    0    1
 -2       206       205       362      1407      1878      1879
 -1       564    8    0    1
 -2       205       361       362      1876      1880      1878
 -1       565    8    0    1
 -2       207       206       363      1410      1881      1882
 -1       566    8    0    1
 -2       206       362       363      1879      1883      1881
 -1       567    8    0    1
 -2       208       207       364      1413      1884      1885
 -1       568    8    0    1
 -2       207       363       364      1882      1886      1884
 -1       569    8    0    1
 -2       209       208       365      1416      1887      1888
 -1       570    8    0    1
 -2       208       364       365      1885      1889      1887
 -1       571    8    0    1
 -2       210       209       366      1419      1890      1891
 -1       572    8    0    1
 -2       209       365       366      1888      1892      1890
 -1       573    8    0    1
 -2       211       210       367      1422      1893      1894
 -1       574    8    0    1
 -2       210       366       367      1891      1895      1893
 -1       575    8    0    1
 -2       212       211       368      1425      1896      1897
 -1       576    8    0    1
 -2       211       367       368      1894      1898      1896
 -1       577    8    0    1
 -2       213       212       369      1428      1899      1900
 -1       578    8    0    1
 -2       212       368       369      1897      1901      1899
 -1       579    8    0    1
 -2       214       213       370      1431      1902      1903
 -1       580    8    0    1
 -2       213       369       370      1900      1904      1902
 -1       581    8    0    1
 -2       215       214       371      1434      1905      1906
 -1       582    8    0    1
 -2       214       370       371      1903      1907      1905
 -1       583    8    0    1
 -2       216       215       372      1437      1908      1909
 -1       584    8    0    1
 -2       215       371       372      1906      1910      1908
 -1       585    8    0    1
 -2       217       216       373      1440      1911      1912
 -1       586    8    0    1
 -2       216       372       373      1909      1913      1911
 -1       587    8    0    1
 -2       218       217       374      1443      1914      1915
 -1       588    8    0    1
 -2       217       373       374      1912      1916      1914
 -1       589    8    0    1
 -2       219       218       375      1446      1917      1918
 -1       590    8    0    1
 -2       218       374       375      1915      1919      1917
 -1       591    8    0    1
 -2       220       219       376      1449      1920      1921
 -1       592    8    0    1
 -2       219       375       376      1918      1922      1920
 -1       593    8    0    1
 -2       221       220       377      1452      1923      1924
 -1       594    8    0    1
 -2       220       376       377      1921      1925      1923
 -1       595    8    0    1
 -2       222       221       378      1455      1926      1927
 -1       596    8    0    1
 -2       221       377       378      1924      1928      1926
 -1       597    8    0    1
 -2       223       222       379      1458      1929      1930
 -1       598    8    0    1
 -2       222       378       379      1927      1931      1929
 -1       599    8    0    1
 -2       224       223       380      1461      1932      1933
 -1       600    8    0    1
 -2       223       379       380      1930      1934      1932
 -1       601    8    0    1
 -2       225       224       381      1464      1935      1936
 -1       602    8    0    1
 -2       224       380       381      1933      1937      1935
 -1       603    8    0    1
 -2       226       225       382      1467      1938      1939
 -1       604    8    0    1
 -2       225       381       382      1936      1940      1938
 -1       605    8    0    1
 -2       227       226       383      1470      1941      1942
 -1       606    8    0    1
 -2       226       382       383      1939      1943      1941
 -1       607    8    0    1
 -2       228       227       384      1473      1944      1945
 -1       608    8    0    1
 -2       227       383       384      1942      1946      1944
 -1       609    8    0    1
 -2       229       228       385      1476      1947      1948
 -1       610    8    0    1
 -2       228       384       385      1945      1949      1947
 -1       611    8    0    1
 -2       264       265       386      1585      1950      1951
 -1       612    8    0    1
 -2       231       232       387      1487      1952      1953
 -1       613    8    0    1
 -2       231       387       338      1953      1954      1807
 -1       614    8    0    1
 -2       232       233       388      1490      1955      1956
 -1       615    8    0    1
 -2       232       388       387      1956      1957      1952
 -1       616    8    0    1
 -2       233       234       389      1493      1958      1959
 -1       617    8    0    1
 -2       233       389       388      1959      1960      1955
 -1       618    8    0    1
 -2       234       235       390      1496      1961      1962
 -1       619    8    0    1
 -2       234       390       389      1962      1963      1958
 -1       620    8    0    1
 -2       235       236       391      1499      1964      1965
 -1       621    8    0    1
 -2       235       391       390      1965      1966      1961
 -1       622    8    0    1
 -2       236       237       392      1502      1967      1968
 -1       623    8    0    1
 -2       236       392       391      1968      1969      1964
 -1       624    8    0    1
 -2       237       238       393      1505      1970      1971
 -1       625    8    0    1
 -2       237       393       392      1971      1972      1967
 -1       626    8    0    1
 -2       238       239       394      1508      1973      1974
 -1       627    8    0    1
 -2       238       394       393      1974      1975      1970
 -1       628    8    0    1
 -2       239       240       395      1511      1976      1977
 -1       629    8    0    1
 -2       239       395       394      1977      1978      1973
 -1       630    8    0    1
 -2       240       241       396      1514      1979      1980
 -1       631    8    0    1
 -2       240       396       395      1980      1981      1976
 -1       632    8    0    1
 -2       241       242       397      1517      1982      1983
 -1       633    8    0    1
 -2       241       397       396      1983      1984      1979
 -1       634    8    0    1
 -2       242       243       398      1520      1985      1986
 -1       635    8    0    1
 -2       242       398       397      1986      1987      1982
 -1       636    8    0    1
 -2       243       244       399      1523      1988      1989
 -1       637    8    0    1
 -2       243       399       398      1989      1990      1985
 -1       638    8    0    1
 -2       244       245       400      1526      1991      1992
 -1       639    8    0    1
 -2       244       400       399      1992      1993      1988
 -1       640    8    0    1
 -2       245       246       401      1529      1994      1995
 -1       641    8    0    1
 -2       245       401       400      1995      1996      1991
 -1       642    8    0    1
 -2       246       247       402      1532      1997      1998
 -1       643    8    0    1
 -2       246       402       401      1998      1999      1994
 -1       644    8    0    1
 -2       247       248       403      1535      2000      2001
 -1       645    8    0    1
 -2       247       403       402      2001      2002      1997
 -1       646    8    0    1
 -2       248       249       404      1538      2003      2004
 -1       647    8    0    1
 -2       248       404       403      2004      2005      2000
 -1       648    8    0    1
 -2       249       250       405      1541      2006      2007
 -1       649    8    0    1
 -2       249       405       404      2007      2008      2003
 -1       650    8    0    1
 -2       250       251       406      1544      2009      2010
 -1       651    8    0    1
 -2       250       406       405      2010      2011      2006
 -1       652    8    0    1
 -2       251       252       407      1547      2012      2013
 -1       653    8    0    1
 -2       251       407       406      2013      2014      2009
 -1       654    8    0    1
 -2       252       253       408      1550      2015      2016
 -1       655    8    0    1
 -2       252       408       407      2016      2017      2012
 -1       656    8    0    1
 -2       253       254       409      1553      2018      2019
 -1       657    8    0    1
 -2       253       409       408      2019      2020      2015
 -1       658    8    0    1
 -2       254       255       410      1556      2021      2022
 -1       659    8    0    1
 -2       254       410       409      2022      2023      2018
 -1       660    8    0    1
 -2       257       258       301      1565      2024      2025
 -1       661    8    0    1
 -2       258       259       300      1568      2026      2027
 -1       662    8    0    1
 -2       259       260       299      1571      2028      2029
 -1       663    8    0    1
 -2       292       229       385      1735      1948      2030
 -1       664    8    0    1
 -2       263       264       411      1582      2031      2032
 -1       665    8    0    1
 -2       264       386       411      1951      2033      2031
 -1       666    8    0    1
 -2       261       323       412      1734      2034      2035
 -1       667    8    0    1
 -2       262       263       413      1579      2036      2037
 -1       668    8    0    1
 -2       263       411       413      2032      2038      2036
 -1       669    8    0    1
 -2       265       266       414      1588      2039      2040
 -1       670    8    0    1
 -2       265       414       386      2040      2041      1950
 -1       671    8    0    1
 -2       266       267       415      1591      2042      2043
 -1       672    8    0    1
 -2       266       415       414      2043      2044      2039
 -1       673    8    0    1
 -2       267       268       416      1594      2045      2046
 -1       674    8    0    1
 -2       267       416       415      2046      2047      2042
 -1       675    8    0    1
 -2       268       269       417      1597      2048      2049
 -1       676    8    0    1
 -2       268       417       416      2049      2050      2045
 -1       677    8    0    1
 -2       269       270       418      1600      2051      2052
 -1       678    8    0    1
 -2       269       418       417      2052      2053      2048
 -1       679    8    0    1
 -2       270       271       419      1603      2054      2055
 -1       680    8    0    1
 -2       270       419       418      2055      2056      2051
 -1       681    8    0    1
 -2       271       272       420      1606      2057      2058
 -1       682    8    0    1
 -2       271       420       419      2058      2059      2054
 -1       683    8    0    1
 -2       272       273       421      1609      2060      2061
 -1       684    8    0    1
 -2       272       421       420      2061      2062      2057
 -1       685    8    0    1
 -2       273       274       422      1612      2063      2064
 -1       686    8    0    1
 -2       273       422       421      2064      2065      2060
 -1       687    8    0    1
 -2       274       275       423      1615      2066      2067
 -1       688    8    0    1
 -2       274       423       422      2067      2068      2063
 -1       689    8    0    1
 -2       275       276       424      1618      2069      2070
 -1       690    8    0    1
 -2       275       424       423      2070      2071      2066
 -1       691    8    0    1
 -2       276       277       425      1621      2072      2073
 -1       692    8    0    1
 -2       276       425       424      2073      2074      2069
 -1       693    8    0    1
 -2       277       278       426      1624      2075      2076
 -1       694    8    0    1
 -2       425       277       426      2072      2076      2077
 -1       695    8    0    1
 -2       278       279       426      1628      2078      2075
 -1       696    8    0    1
 -2       280       281       427      1634      2079      2080
 -1       697    8    0    1
 -2       279       280       428      1631      2081      2082
 -1       698    8    0    1
 -2       426       279       428      2078      2082      2083
 -1       699    8    0    1
 -2       280       427       428      2080      2084      2081
 -1       700    8    0    1
 -2       281       282       429      1637      2085      2086
 -1       701    8    0    1
 -2       281       429       427      2086      2087      2079
 -1       702    8    0    1
 -2       282       283       430      1640      2088      2089
 -1       703    8    0    1
 -2       282       430       429      2089      2090      2085
 -1       704    8    0    1
 -2       283       284       431      1643      2091      2092
 -1       705    8    0    1
 -2       283       431       430      2092      2093      2088
 -1       706    8    0    1
 -2       284       285       432      1646      2094      2095
 -1       707    8    0    1
 -2       284       432       431      2095      2096      2091
 -1       708    8    0    1
 -2       285       286       433      1649      2097      2098
 -1       709    8    0    1
 -2       285       433       432      2098      2099      2094
 -1       710    8    0    1
 -2       286       287       434      1652      2100      2101
 -1       711    8    0    1
 -2       286       434       433      2101      2102      2097
 -1       712    8    0    1
 -2       287       288       435      1655      2103      2104
 -1       713    8    0    1
 -2       287       435       434      2104      2105      2100
 -1       714    8    0    1
 -2       288       289       436      1658      2106      2107
 -1       715    8    0    1
 -2       288       436       435      2107      2108      2103
 -1       716    8    0    1
 -2       289       290       437      1661      2109      2110
 -1       717    8    0    1
 -2       289       437       436      2110      2111      2106
 -1       718    8    0    1
 -2       290       291       438      1664      2112      2113
 -1       719    8    0    1
 -2       290       438       437      2113      2114      2109
 -1       720    8    0    1
 -2       291       292       439      1667      2115      2116
 -1       721    8    0    1
 -2       438       291       439      2112      2116      2117
 -1       722    8    0    1
 -2       292       385       439      2030      2118      2115
 -1       723    8    0    1
 -2       322       293       440      1736      2119      2120
 -1       724    8    0    1
 -2       293       294       441      1738      2121      2122
 -1       725    8    0    1
 -2       295       296       442      1677      2123      2124
 -1       726    8    0    1
 -2       298       299       260      1740      2028      2125
 -1       727    8    0    1
 -2       312       313       443      1712      2126      2127
 -1       728    8    0    1
 -2       313       339       443      1811      2128      2126
 -1       729    8    0    1
 -2       315       316       444      1755      2129      2130
 -1       730    8    0    1
 -2       300       259       299      2026      2029      1741
 -1       731    8    0    1
 -2       296       297       412      1731      2131      2132
 -1       732    8    0    1
 -2       168       169       445      1296      2133      2134
 -1       733    8    0    1
 -2       324       168       445      1765      2134      2135
 -1       734    8    0    1
 -2       169       326       445      1771      2136      2133
 -1       735    8    0    1
 -2       300       301       258      1742      2024      2027
 -1       736    8    0    1
 -2       301       302       257      1743      2137      2025
 -1       737    8    0    1
 -2       302       303       446      1744      2138      2139
 -1       738    8    0    1
 -2       303       304       447      1745      2140      2141
 -1       739    8    0    1
 -2       304       305       448      1746      2142      2143
 -1       740    8    0    1
 -2       305       306       449      1747      2144      2145
 -1       741    8    0    1
 -2       306       307       450      1748      2146      2147
 -1       742    8    0    1
 -2       307       308       451      1749      2148      2149
 -1       743    8    0    1
 -2       307       451       450      2149      2150      2146
 -1       744    8    0    1
 -2       308       309       452      1750      2151      2152
 -1       745    8    0    1
 -2       309       310       453      1751      2153      2154
 -1       746    8    0    1
 -2       309       453       452      2154      2155      2151
 -1       747    8    0    1
 -2       310       311       454      1752      2156      2157
 -1       748    8    0    1
 -2       311       312       455      1753      2158      2159
 -1       749    8    0    1
 -2       314       315       456      1754      2160      2161
 -1       750    8    0    1
 -2       315       444       456      2130      2162      2160
 -1       751    8    0    1
 -2       323       262       457      1764      2163      2164
 -1       752    8    0    1
 -2       412       323       457      2034      2164      2165
 -1       753    8    0    1
 -2       262       413       457      2037      2166      2163
 -1       754    8    0    1
 -2       316       317       458      1756      2167      2168
 -1       755    8    0    1
 -2       317       318       459      1757      2169      2170
 -1       756    8    0    1
 -2       318       319       460      1758      2171      2172
 -1       757    8    0    1
 -2       319       320       461      1759      2173      2174
 -1       758    8    0    1
 -2       320       321       462      1760      2175      2176
 -1       759    8    0    1
 -2       321       322       463      1761      2177      2178
 -1       760    8    0    1
 -2       322       440       463      2120      2179      2177
 -1       761    8    0    1
 -2       294       295       464      1737      2180      2181
 -1       762    8    0    1
 -2       294       464       441      2181      2182      2121
 -1       763    8    0    1
 -2       339       314       465      1810      2183      2184
 -1       764    8    0    1
 -2       314       456       465      2161      2185      2183
 -1       765    8    0    1
 -2       183       182       325      1338      1812      2186
 -1       766    8    0    1
 -2       340       183       325      1813      2186      2187
 -1       767    8    0    1
 -2       308       452       451      2152      2188      2148
 -1       768    8    0    1
 -2       447       304       448      2140      2143      2189
 -1       769    8    0    1
 -2       255       256       466      1559      2190      2191
 -1       770    8    0    1
 -2       256       257       446      1562      2192      2193
 -1       771    8    0    1
 -2       257       302       446      2137      2139      2192
 -1       772    8    0    1
 -2       260       261       467      1574      2194      2195
 -1       773    8    0    1
 -2       449       306       450      2144      2147      2196
 -1       774    8    0    1
 -2       458       317       459      2167      2170      2197
 -1       775    8    0    1
 -2       316       458       444      2168      2198      2129
 -1       776    8    0    1
 -2       440       293       441      2119      2122      2199
 -1       777    8    0    1
 -2       297       298       467      1739      2200      2201
 -1       778    8    0    1
 -2       295       442       464      2124      2202      2180
 -1       779    8    0    1
 -2       298       260       467      2125      2195      2200
 -1       780    8    0    1
 -2       462       321       463      2175      2178      2203
 -1       781    8    0    1
 -2       453       310       468      2153      2204      2205
 -1       782    8    0    1
 -2       310       454       468      2157      2206      2204
 -1       783    8    0    1
 -2       461       320       462      2173      2176      2207
 -1       784    8    0    1
 -2       460       319       461      2171      2174      2208
 -1       785    8    0    1
 -2       455       312       443      2158      2127      2209
 -1       786    8    0    1
 -2       448       305       449      2142      2145      2210
 -1       787    8    0    1
 -2       446       303       447      2138      2141      2211
 -1       788    8    0    1
 -2       255       466       410      2191      2212      2021
 -1       789    8    0    1
 -2       454       311       455      2156      2159      2213
 -1       790    8    0    1
 -2       459       318       460      2169      2172      2214
 -1       791    8    0    1
 -2       466       256       446      2190      2193      2215
 -1       792    8    0    1
 -2       297       467       412      2201      2216      2131
 -1       793    8    0    1
 -2       261       412       467      2035      2216      2194
 -1       794    8    0    1
 -2       327       328       469      1777      2217      2218
 -1       795    8    0    1
 -2       326       327       470      1774      2219      2220
 -1       796    8    0    1
 -2       327       469       470      2218      2221      2219
 -1       797    8    0    1
 -2       329       330       471      1783      2222      2223
 -1       798    8    0    1
 -2       330       331       472      1786      2224      2225
 -1       799    8    0    1
 -2       330       472       471      2225      2226      2222
 -1       800    8    0    1
 -2       331       332       473      1789      2227      2228
 -1       801    8    0    1
 -2       331       473       472      2228      2229      2224
 -1       802    8    0    1
 -2       332       333       474      1792      2230      2231
 -1       803    8    0    1
 -2       332       474       473      2231      2232      2227
 -1       804    8    0    1
 -2       333       334       475      1795      2233      2234
 -1       805    8    0    1
 -2       333       475       474      2234      2235      2230
 -1       806    8    0    1
 -2       334       335       476      1798      2236      2237
 -1       807    8    0    1
 -2       334       476       475      2237      2238      2233
 -1       808    8    0    1
 -2       335       336       477      1801      2239      2240
 -1       809    8    0    1
 -2       335       477       476      2240      2241      2236
 -1       810    8    0    1
 -2       336       337       478      1804      2242      2243
 -1       811    8    0    1
 -2       477       336       478      2239      2243      2244
 -1       812    8    0    1
 -2       337       338       478      1809      2245      2242
 -1       813    8    0    1
 -2       341       340       479      1817      2246      2247
 -1       814    8    0    1
 -2       388       389       480      1960      2248      2249
 -1       815    8    0    1
 -2       387       388       481      1957      2250      2251
 -1       816    8    0    1
 -2       388       480       481      2249      2252      2250
 -1       817    8    0    1
 -2       340       325       482      2187      2253      2254
 -1       818    8    0    1
 -2       479       340       482      2246      2254      2255
 -1       819    8    0    1
 -2       325       324       482      1769      2256      2253
 -1       820    8    0    1
 -2       386       414       483      2041      2257      2258
 -1       821    8    0    1
 -2       342       341       484      1820      2259      2260
 -1       822    8    0    1
 -2       341       479       484      2247      2261      2259
 -1       823    8    0    1
 -2       343       342       485      1823      2262      2263
 -1       824    8    0    1
 -2       342       484       485      2260      2264      2262
 -1       825    8    0    1
 -2       344       343       486      1826      2265      2266
 -1       826    8    0    1
 -2       343       485       486      2263      2267      2265
 -1       827    8    0    1
 -2       345       344       487      1829      2268      2269
 -1       828    8    0    1
 -2       344       486       487      2266      2270      2268
 -1       829    8    0    1
 -2       346       345       488      1832      2271      2272
 -1       830    8    0    1
 -2       345       487       488      2269      2273      2271
 -1       831    8    0    1
 -2       347       346       489      1835      2274      2275
 -1       832    8    0    1
 -2       346       488       489      2272      2276      2274
 -1       833    8    0    1
 -2       348       347       490      1838      2277      2278
 -1       834    8    0    1
 -2       347       489       490      2275      2279      2277
 -1       835    8    0    1
 -2       349       348       491      1841      2280      2281
 -1       836    8    0    1
 -2       348       490       491      2278      2282      2280
 -1       837    8    0    1
 -2       350       349       492      1844      2283      2284
 -1       838    8    0    1
 -2       349       491       492      2281      2285      2283
 -1       839    8    0    1
 -2       351       350       493      1847      2286      2287
 -1       840    8    0    1
 -2       350       492       493      2284      2288      2286
 -1       841    8    0    1
 -2       352       351       494      1850      2289      2290
 -1       842    8    0    1
 -2       351       493       494      2287      2291      2289
 -1       843    8    0    1
 -2       353       352       495      1853      2292      2293
 -1       844    8    0    1
 -2       352       494       495      2290      2294      2292
 -1       845    8    0    1
 -2       354       353       496      1856      2295      2296
 -1       846    8    0    1
 -2       353       495       496      2293      2297      2295
 -1       847    8    0    1
 -2       355       354       497      1859      2298      2299
 -1       848    8    0    1
 -2       354       496       497      2296      2300      2298
 -1       849    8    0    1
 -2       356       355       498      1862      2301      2302
 -1       850    8    0    1
 -2       355       497       498      2299      2303      2301
 -1       851    8    0    1
 -2       357       356       499      1865      2304      2305
 -1       852    8    0    1
 -2       356       498       499      2302      2306      2304
 -1       853    8    0    1
 -2       358       357       500      1868      2307      2308
 -1       854    8    0    1
 -2       357       499       500      2305      2309      2307
 -1       855    8    0    1
 -2       359       358       501      1871      2310      2311
 -1       856    8    0    1
 -2       358       500       501      2308      2312      2310
 -1       857    8    0    1
 -2       360       359       502      1874      2313      2314
 -1       858    8    0    1
 -2       359       501       502      2311      2315      2313
 -1       859    8    0    1
 -2       361       360       503      1877      2316      2317
 -1       860    8    0    1
 -2       360       502       503      2314      2318      2316
 -1       861    8    0    1
 -2       362       361       504      1880      2319      2320
 -1       862    8    0    1
 -2       361       503       504      2317      2321      2319
 -1       863    8    0    1
 -2       363       362       505      1883      2322      2323
 -1       864    8    0    1
 -2       362       504       505      2320      2324      2322
 -1       865    8    0    1
 -2       364       363       506      1886      2325      2326
 -1       866    8    0    1
 -2       363       505       506      2323      2327      2325
 -1       867    8    0    1
 -2       365       364       507      1889      2328      2329
 -1       868    8    0    1
 -2       364       506       507      2326      2330      2328
 -1       869    8    0    1
 -2       366       365       508      1892      2331      2332
 -1       870    8    0    1
 -2       365       507       508      2329      2333      2331
 -1       871    8    0    1
 -2       367       366       509      1895      2334      2335
 -1       872    8    0    1
 -2       366       508       509      2332      2336      2334
 -1       873    8    0    1
 -2       368       367       510      1898      2337      2338
 -1       874    8    0    1
 -2       367       509       510      2335      2339      2337
 -1       875    8    0    1
 -2       369       368       511      1901      2340      2341
 -1       876    8    0    1
 -2       368       510       511      2338      2342      2340
 -1       877    8    0    1
 -2       370       369       512      1904      2343      2344
 -1       878    8    0    1
 -2       369       511       512      2341      2345      2343
 -1       879    8    0    1
 -2       371       370       513      1907      2346      2347
 -1       880    8    0    1
 -2       370       512       513      2344      2348      2346
 -1       881    8    0    1
 -2       372       371       514      1910      2349      2350
 -1       882    8    0    1
 -2       371       513       514      2347      2351      2349
 -1       883    8    0    1
 -2       373       372       515      1913      2352      2353
 -1       884    8    0    1
 -2       372       514       515      2350      2354      2352
 -1       885    8    0    1
 -2       374       373       516      1916      2355      2356
 -1       886    8    0    1
 -2       373       515       516      2353      2357      2355
 -1       887    8    0    1
 -2       375       374       517      1919      2358      2359
 -1       888    8    0    1
 -2       374       516       517      2356      2360      2358
 -1       889    8    0    1
 -2       376       375       518      1922      2361      2362
 -1       890    8    0    1
 -2       375       517       518      2359      2363      2361
 -1       891    8    0    1
 -2       377       376       519      1925      2364      2365
 -1       892    8    0    1
 -2       376       518       519      2362      2366      2364
 -1       893    8    0    1
 -2       378       377       520      1928      2367      2368
 -1       894    8    0    1
 -2       377       519       520      2365      2369      2367
 -1       895    8    0    1
 -2       379       378       521      1931      2370      2371
 -1       896    8    0    1
 -2       378       520       521      2368      2372      2370
 -1       897    8    0    1
 -2       380       379       522      1934      2373      2374
 -1       898    8    0    1
 -2       379       521       522      2371      2375      2373
 -1       899    8    0    1
 -2       381       380       523      1937      2376      2377
 -1       900    8    0    1
 -2       380       522       523      2374      2378      2376
 -1       901    8    0    1
 -2       382       381       524      1940      2379      2380
 -1       902    8    0    1
 -2       381       523       524      2377      2381      2379
 -1       903    8    0    1
 -2       383       382       525      1943      2382      2383
 -1       904    8    0    1
 -2       382       524       525      2380      2384      2382
 -1       905    8    0    1
 -2       384       383       526      1946      2385      2386
 -1       906    8    0    1
 -2       383       525       526      2383      2387      2385
 -1       907    8    0    1
 -2       385       384       527      1949      2388      2389
 -1       908    8    0    1
 -2       439       385       527      2118      2389      2390
 -1       909    8    0    1
 -2       384       526       527      2386      2391      2388
 -1       910    8    0    1
 -2       414       415       528      2044      2392      2393
 -1       911    8    0    1
 -2       414       528       483      2393      2394      2257
 -1       912    8    0    1
 -2       338       387       529      1954      2395      2396
 -1       913    8    0    1
 -2       478       338       529      2245      2396      2397
 -1       914    8    0    1
 -2       387       481       529      2251      2398      2395
 -1       915    8    0    1
 -2       389       390       530      1963      2399      2400
 -1       916    8    0    1
 -2       389       530       480      2400      2401      2248
 -1       917    8    0    1
 -2       390       391       531      1966      2402      2403
 -1       918    8    0    1
 -2       390       531       530      2403      2404      2399
 -1       919    8    0    1
 -2       391       392       532      1969      2405      2406
 -1       920    8    0    1
 -2       391       532       531      2406      2407      2402
 -1       921    8    0    1
 -2       392       393       533      1972      2408      2409
 -1       922    8    0    1
 -2       392       533       532      2409      2410      2405
 -1       923    8    0    1
 -2       393       394       534      1975      2411      2412
 -1       924    8    0    1
 -2       393       534       533      2412      2413      2408
 -1       925    8    0    1
 -2       394       395       535      1978      2414      2415
 -1       926    8    0    1
 -2       394       535       534      2415      2416      2411
 -1       927    8    0    1
 -2       395       396       536      1981      2417      2418
 -1       928    8    0    1
 -2       395       536       535      2418      2419      2414
 -1       929    8    0    1
 -2       396       397       537      1984      2420      2421
 -1       930    8    0    1
 -2       396       537       536      2421      2422      2417
 -1       931    8    0    1
 -2       397       398       538      1987      2423      2424
 -1       932    8    0    1
 -2       397       538       537      2424      2425      2420
 -1       933    8    0    1
 -2       398       399       539      1990      2426      2427
 -1       934    8    0    1
 -2       398       539       538      2427      2428      2423
 -1       935    8    0    1
 -2       399       400       540      1993      2429      2430
 -1       936    8    0    1
 -2       399       540       539      2430      2431      2426
 -1       937    8    0    1
 -2       400       401       541      1996      2432      2433
 -1       938    8    0    1
 -2       400       541       540      2433      2434      2429
 -1       939    8    0    1
 -2       401       402       542      1999      2435      2436
 -1       940    8    0    1
 -2       401       542       541      2436      2437      2432
 -1       941    8    0    1
 -2       402       403       543      2002      2438      2439
 -1       942    8    0    1
 -2       402       543       542      2439      2440      2435
 -1       943    8    0    1
 -2       403       404       544      2005      2441      2442
 -1       944    8    0    1
 -2       403       544       543      2442      2443      2438
 -1       945    8    0    1
 -2       404       405       545      2008      2444      2445
 -1       946    8    0    1
 -2       404       545       544      2445      2446      2441
 -1       947    8    0    1
 -2       405       406       546      2011      2447      2448
 -1       948    8    0    1
 -2       405       546       545      2448      2449      2444
 -1       949    8    0    1
 -2       406       407       547      2014      2450      2451
 -1       950    8    0    1
 -2       406       547       546      2451      2452      2447
 -1       951    8    0    1
 -2       407       408       548      2017      2453      2454
 -1       952    8    0    1
 -2       407       548       547      2454      2455      2450
 -1       953    8    0    1
 -2       408       409       549      2020      2456      2457
 -1       954    8    0    1
 -2       408       549       548      2457      2458      2453
 -1       955    8    0    1
 -2       454       455       550      2213      2459      2460
 -1       956    8    0    1
 -2       441       464       551      2182      2461      2462
 -1       957    8    0    1
 -2       449       450       552      2196      2463      2464
 -1       958    8    0    1
 -2       411       386       553      2033      2465      2466
 -1       959    8    0    1
 -2       386       483       553      2258      2467      2465
 -1       960    8    0    1
 -2       415       416       554      2047      2468      2469
 -1       961    8    0    1
 -2       415       554       528      2469      2470      2392
 -1       962    8    0    1
 -2       416       417       555      2050      2471      2472
 -1       963    8    0    1
 -2       416       555       554      2472      2473      2468
 -1       964    8    0    1
 -2       417       418       556      2053      2474      2475
 -1       965    8    0    1
 -2       417       556       555      2475      2476      2471
 -1       966    8    0    1
 -2       418       419       557      2056      2477      2478
 -1       967    8    0    1
 -2       418       557       556      2478      2479      2474
 -1       968    8    0    1
 -2       419       420       558      2059      2480      2481
 -1       969    8    0    1
 -2       419       558       557      2481      2482      2477
 -1       970    8    0    1
 -2       420       421       559      2062      2483      2484
 -1       971    8    0    1
 -2       420       559       558      2484      2485      2480
 -1       972    8    0    1
 -2       421       422       560      2065      2486      2487
 -1       973    8    0    1
 -2       421       560       559      2487      2488      2483
 -1       974    8    0    1
 -2       422       423       561      2068      2489      2490
 -1       975    8    0    1
 -2       422       561       560      2490      2491      2486
 -1       976    8    0    1
 -2       423       424       562      2071      2492      2493
 -1       977    8    0    1
 -2       423       562       561      2493      2494      2489
 -1       978    8    0    1
 -2       424       425       563      2074      2495      2496
 -1       979    8    0    1
 -2       424       563       562      2496      2497      2492
 -1       980    8    0    1
 -2       425       426       428      2077      2083      2498
 -1       981    8    0    1
 -2       429       430       564      2090      2499      2500
 -1       982    8    0    1
 -2       430       431       565      2093      2501      2502
 -1       983    8    0    1
 -2       430       565       564      2502      2503      2499
 -1       984    8    0    1
 -2       442       296       412      2123      2132      2504
 -1       985    8    0    1
 -2       427       429       566      2087      2505      2506
 -1       986    8    0    1
 -2       429       564       566      2500      2507      2505
 -1       987    8    0    1
 -2       431       432       567      2096      2508      2509
 -1       988    8    0    1
 -2       431       567       565      2509      2510      2501
 -1       989    8    0    1
 -2       432       433       568      2099      2511      2512
 -1       990    8    0    1
 -2       432       568       567      2512      2513      2508
 -1       991    8    0    1
 -2       433       434       569      2102      2514      2515
 -1       992    8    0    1
 -2       433       569       568      2515      2516      2511
 -1       993    8    0    1
 -2       434       435       570      2105      2517      2518
 -1       994    8    0    1
 -2       434       570       569      2518      2519      2514
 -1       995    8    0    1
 -2       435       436       571      2108      2520      2521
 -1       996    8    0    1
 -2       435       571       570      2521      2522      2517
 -1       997    8    0    1
 -2       436       437       572      2111      2523      2524
 -1       998    8    0    1
 -2       436       572       571      2524      2525      2520
 -1       999    8    0    1
 -2       437       438       573      2114      2526      2527
 -1      1000    8    0    1
 -2       437       573       572      2527      2528      2523
 -1      1001    8    0    1
 -2       462       463       574      2203      2529      2530
 -1      1002    8    0    1
 -2       443       339       575      2128      2531      2532
 -1      1003    8    0    1
 -2       463       440       576      2179      2533      2534
 -1      1004    8    0    1
 -2       440       441       577      2199      2535      2536
 -1      1005    8    0    1
 -2       456       444       578      2162      2537      2538
 -1      1006    8    0    1
 -2       413       411       579      2038      2539      2540
 -1      1007    8    0    1
 -2       411       553       579      2466      2541      2539
 -1      1008    8    0    1
 -2       448       449       580      2210      2542      2543
 -1      1009    8    0    1
 -2       328       329       581      1780      2544      2545
 -1      1010    8    0    1
 -2       469       328       581      2217      2545      2546
 -1      1011    8    0    1
 -2       329       471       581      2223      2547      2544
 -1      1012    8    0    1
 -2       458       459       582      2197      2548      2549
 -1      1013    8    0    1
 -2       450       451       583      2150      2550      2551
 -1      1014    8    0    1
 -2       461       462       584      2207      2552      2553
 -1      1015    8    0    1
 -2       452       453       585      2155      2554      2555
 -1      1016    8    0    1
 -2       459       460       586      2214      2556      2557
 -1      1017    8    0    1
 -2       451       452       587      2188      2558      2559
 -1      1018    8    0    1
 -2       444       458       588      2198      2560      2561
 -1      1019    8    0    1
 -2       455       443       589      2209      2562      2563
 -1      1020    8    0    1
 -2       443       575       589      2532      2564      2562
 -1      1021    8    0    1
 -2       460       461       590      2208      2565      2566
 -1      1022    8    0    1
 -2       442       412       457      2504      2165      2567
 -1      1023    8    0    1
 -2       326       470       591      2220      2568      2569
 -1      1024    8    0    1
 -2       326       591       445      2569      2570      2136
 -1      1025    8    0    1
 -2       482       324       445      2256      2135      2571
 -1      1026    8    0    1
 -2       552       450       583      2463      2551      2572
 -1      1027    8    0    1
 -2       588       458       582      2560      2549      2573
 -1      1028    8    0    1
 -2       551       464       592      2461      2574      2575
 -1      1029    8    0    1
 -2       454       550       593      2460      2576      2577
 -1      1030    8    0    1
 -2       454       593       468      2577      2578      2206
 -1      1031    8    0    1
 -2       549       409       580      2456      2579      2580
 -1      1032    8    0    1
 -2       550       455       589      2459      2563      2581
 -1      1033    8    0    1
 -2       409       410       580      2023      2582      2579
 -1      1034    8    0    1
 -2       441       551       577      2462      2583      2535
 -1      1035    8    0    1
 -2       582       459       586      2548      2557      2584
 -1      1036    8    0    1
 -2       449       552       580      2464      2585      2542
 -1      1037    8    0    1
 -2       448       580       410      2543      2582      2586
 -1      1038    8    0    1
 -2       425       428       563      2498      2587      2495
 -1      1039    8    0    1
 -2       575       339       465      2531      2184      2588
 -1      1040    8    0    1
 -2       428       427       563      2084      2589      2587
 -1      1041    8    0    1
 -2       462       574       584      2530      2590      2552
 -1      1042    8    0    1
 -2       574       463       576      2529      2534      2591
 -1      1043    8    0    1
 -2       438       439       594      2117      2592      2593
 -1      1044    8    0    1
 -2       573       438       594      2526      2593      2594
 -1      1045    8    0    1
 -2       439       527       594      2390      2595      2592
 -1      1046    8    0    1
 -2       460       590       586      2566      2596      2556
 -1      1047    8    0    1
 -2       563       427       566      2589      2506      2597
 -1      1048    8    0    1
 -2       464       442       592      2202      2598      2574
 -1      1049    8    0    1
 -2       440       577       576      2536      2599      2533
 -1      1050    8    0    1
 -2       456       578       465      2538      2600      2185
 -1      1051    8    0    1
 -2       587       452       585      2558      2555      2601
 -1      1052    8    0    1
 -2       585       453       595      2554      2602      2603
 -1      1053    8    0    1
 -2       453       468       595      2205      2604      2602
 -1      1054    8    0    1
 -2       448       410       466      2586      2212      2605
 -1      1055    8    0    1
 -2       583       451       587      2550      2559      2606
 -1      1056    8    0    1
 -2       592       442       457      2598      2567      2607
 -1      1057    8    0    1
 -2       578       444       588      2537      2561      2608
 -1      1058    8    0    1
 -2       446       447       466      2211      2609      2215
 -1      1059    8    0    1
 -2       461       584       590      2553      2610      2565
 -1      1060    8    0    1
 -2       457       413       592      2166      2611      2607
 -1      1061    8    0    1
 -2       592       413       579      2611      2540      2612
 -1      1062    8    0    1
 -2       470       469       596      2221      2613      2614
 -1      1063    8    0    1
 -2       472       473       597      2229      2615      2616
 -1      1064    8    0    1
 -2       471       472       598      2226      2617      2618
 -1      1065    8    0    1
 -2       472       597       598      2616      2619      2617
 -1      1066    8    0    1
 -2       474       475       599      2235      2620      2621
 -1      1067    8    0    1
 -2       475       476       600      2238      2622      2623
 -1      1068    8    0    1
 -2       475       600       599      2623      2624      2620
 -1      1069    8    0    1
 -2       477       478       529      2244      2397      2625
 -1      1070    8    0    1
 -2       531       532       601      2407      2626      2627
 -1      1071    8    0    1
 -2       530       531       602      2404      2628      2629
 -1      1072    8    0    1
 -2       531       601       602      2627      2630      2628
 -1      1073    8    0    1
 -2       479       482       603      2255      2631      2632
 -1      1074    8    0    1
 -2       480       530       604      2401      2633      2634
 -1      1075    8    0    1
 -2       530       602       604      2629      2635      2633
 -1      1076    8    0    1
 -2       484       479       605      2261      2636      2637
 -1      1077    8    0    1
 -2       479       603       605      2632      2638      2636
 -1      1078    8    0    1
 -2       483       528       606      2394      2639      2640
 -1      1079    8    0    1
 -2       485       484       607      2264      2641      2642
 -1      1080    8    0    1
 -2       484       605       607      2637      2643      2641
 -1      1081    8    0    1
 -2       486       485       608      2267      2644      2645
 -1      1082    8    0    1
 -2       485       607       608      2642      2646      2644
 -1      1083    8    0    1
 -2       487       486       609      2270      2647      2648
 -1      1084    8    0    1
 -2       486       608       609      2645      2649      2647
 -1      1085    8    0    1
 -2       488       487       610      2273      2650      2651
 -1      1086    8    0    1
 -2       487       609       610      2648      2652      2650
 -1      1087    8    0    1
 -2       489       488       611      2276      2653      2654
 -1      1088    8    0    1
 -2       488       610       611      2651      2655      2653
 -1      1089    8    0    1
 -2       490       489       612      2279      2656      2657
 -1      1090    8    0    1
 -2       489       611       612      2654      2658      2656
 -1      1091    8    0    1
 -2       491       490       613      2282      2659      2660
 -1      1092    8    0    1
 -2       490       612       613      2657      2661      2659
 -1      1093    8    0    1
 -2       492       491       614      2285      2662      2663
 -1      1094    8    0    1
 -2       491       613       614      2660      2664      2662
 -1      1095    8    0    1
 -2       493       492       615      2288      2665      2666
 -1      1096    8    0    1
 -2       492       614       615      2663      2667      2665
 -1      1097    8    0    1
 -2       494       493       616      2291      2668      2669
 -1      1098    8    0    1
 -2       493       615       616      2666      2670      2668
 -1      1099    8    0    1
 -2       495       494       617      2294      2671      2672
 -1      1100    8    0    1
 -2       494       616       617      2669      2673      2671
 -1      1101    8    0    1
 -2       496       495       618      2297      2674      2675
 -1      1102    8    0    1
 -2       495       617       618      2672      2676      2674
 -1      1103    8    0    1
 -2       497       496       619      2300      2677      2678
 -1      1104    8    0    1
 -2       496       618       619      2675      2679      2677
 -1      1105    8    0    1
 -2       498       497       620      2303      2680      2681
 -1      1106    8    0    1
 -2       497       619       620      2678      2682      2680
 -1      1107    8    0    1
 -2       499       498       621      2306      2683      2684
 -1      1108    8    0    1
 -2       498       620       621      2681      2685      2683
 -1      1109    8    0    1
 -2       500       499       622      2309      2686      2687
 -1      1110    8    0    1
 -2       499       621       622      2684      2688      2686
 -1      1111    8    0    1
 -2       501       500       623      2312      2689      2690
 -1      1112    8    0    1
 -2       500       622       623      2687      2691      2689
 -1      1113    8    0    1
 -2       502       501       624      2315      2692      2693
 -1      1114    8    0    1
 -2       501       623       624      2690      2694      2692
 -1      1115    8    0    1
 -2       503       502       625      2318      2695      2696
 -1      1116    8    0    1
 -2       502       624       625      2693      2697      2695
 -1      1117    8    0    1
 -2       504       503       626      2321      2698      2699
 -1      1118    8    0    1
 -2       503       625       626      2696      2700      2698
 -1      1119    8    0    1
 -2       505       504       627      2324      2701      2702
 -1      1120    8    0    1
 -2       504       626       627      2699      2703      2701
 -1      1121    8    0    1
 -2       506       505       628      2327      2704      2705
 -1      1122    8    0    1
 -2       505       627       628      2702      2706      2704
 -1      1123    8    0    1
 -2       507       506       629      2330      2707      2708
 -1      1124    8    0    1
 -2       506       628       629      2705      2709      2707
 -1      1125    8    0    1
 -2       508       507       630      2333      2710      2711
 -1      1126    8    0    1
 -2       507       629       630      2708      2712      2710
 -1      1127    8    0    1
 -2       509       508       631      2336      2713      2714
 -1      1128    8    0    1
 -2       508       630       631      2711      2715      2713
 -1      1129    8    0    1
 -2       510       509       632      2339      2716      2717
 -1      1130    8    0    1
 -2       509       631       632      2714      2718      2716
 -1      1131    8    0    1
 -2       511       510       633      2342      2719      2720
 -1      1132    8    0    1
 -2       510       632       633      2717      2721      2719
 -1      1133    8    0    1
 -2       512       511       634      2345      2722      2723
 -1      1134    8    0    1
 -2       511       633       634      2720      2724      2722
 -1      1135    8    0    1
 -2       513       512       635      2348      2725      2726
 -1      1136    8    0    1
 -2       512       634       635      2723      2727      2725
 -1      1137    8    0    1
 -2       514       513       636      2351      2728      2729
 -1      1138    8    0    1
 -2       513       635       636      2726      2730      2728
 -1      1139    8    0    1
 -2       515       514       637      2354      2731      2732
 -1      1140    8    0    1
 -2       514       636       637      2729      2733      2731
 -1      1141    8    0    1
 -2       516       515       638      2357      2734      2735
 -1      1142    8    0    1
 -2       515       637       638      2732      2736      2734
 -1      1143    8    0    1
 -2       517       516       639      2360      2737      2738
 -1      1144    8    0    1
 -2       516       638       639      2735      2739      2737
 -1      1145    8    0    1
 -2       518       517       640      2363      2740      2741
 -1      1146    8    0    1
 -2       517       639       640      2738      2742      2740
 -1      1147    8    0    1
 -2       519       518       641      2366      2743      2744
 -1      1148    8    0    1
 -2       518       640       641      2741      2745      2743
 -1      1149    8    0    1
 -2       520       519       642      2369      2746      2747
 -1      1150    8    0    1
 -2       519       641       642      2744      2748      2746
 -1      1151    8    0    1
 -2       521       520       643      2372      2749      2750
 -1      1152    8    0    1
 -2       520       642       643      2747      2751      2749
 -1      1153    8    0    1
 -2       522       521       644      2375      2752      2753
 -1      1154    8    0    1
 -2       521       643       644      2750      2754      2752
 -1      1155    8    0    1
 -2       523       522       645      2378      2755      2756
 -1      1156    8    0    1
 -2       522       644       645      2753      2757      2755
 -1      1157    8    0    1
 -2       524       523       646      2381      2758      2759
 -1      1158    8    0    1
 -2       523       645       646      2756      2760      2758
 -1      1159    8    0    1
 -2       525       524       647      2384      2761      2762
 -1      1160    8    0    1
 -2       524       646       647      2759      2763      2761
 -1      1161    8    0    1
 -2       526       525       648      2387      2764      2765
 -1      1162    8    0    1
 -2       525       647       648      2762      2766      2764
 -1      1163    8    0    1
 -2       576       577       649      2599      2767      2768
 -1      1164    8    0    1
 -2       532       533       650      2410      2769      2770
 -1      1165    8    0    1
 -2       532       650       601      2770      2771      2626
 -1      1166    8    0    1
 -2       533       534       651      2413      2772      2773
 -1      1167    8    0    1
 -2       533       651       650      2773      2774      2769
 -1      1168    8    0    1
 -2       534       535       652      2416      2775      2776
 -1      1169    8    0    1
 -2       534       652       651      2776      2777      2772
 -1      1170    8    0    1
 -2       535       536       653      2419      2778      2779
 -1      1171    8    0    1
 -2       535       653       652      2779      2780      2775
 -1      1172    8    0    1
 -2       536       537       654      2422      2781      2782
 -1      1173    8    0    1
 -2       536       654       653      2782      2783      2778
 -1      1174    8    0    1
 -2       537       538       655      2425      2784      2785
 -1      1175    8    0    1
 -2       537       655       654      2785      2786      2781
 -1      1176    8    0    1
 -2       538       539       656      2428      2787      2788
 -1      1177    8    0    1
 -2       538       656       655      2788      2789      2784
 -1      1178    8    0    1
 -2       539       540       657      2431      2790      2791
 -1      1179    8    0    1
 -2       539       657       656      2791      2792      2787
 -1      1180    8    0    1
 -2       540       541       658      2434      2793      2794
 -1      1181    8    0    1
 -2       540       658       657      2794      2795      2790
 -1      1182    8    0    1
 -2       541       542       659      2437      2796      2797
 -1      1183    8    0    1
 -2       541       659       658      2797      2798      2793
 -1      1184    8    0    1
 -2       542       543       660      2440      2799      2800
 -1      1185    8    0    1
 -2       542       660       659      2800      2801      2796
 -1      1186    8    0    1
 -2       543       544       661      2443      2802      2803
 -1      1187    8    0    1
 -2       543       661       660      2803      2804      2799
 -1      1188    8    0    1
 -2       544       545       662      2446      2805      2806
 -1      1189    8    0    1
 -2       544       662       661      2806      2807      2802
 -1      1190    8    0    1
 -2       545       546       663      2449      2808      2809
 -1      1191    8    0    1
 -2       545       663       662      2809      2810      2805
 -1      1192    8    0    1
 -2       546       547       664      2452      2811      2812
 -1      1193    8    0    1
 -2       546       664       663      2812      2813      2808
 -1      1194    8    0    1
 -2       547       548       665      2455      2814      2815
 -1      1195    8    0    1
 -2       547       665       664      2815      2816      2811
 -1      1196    8    0    1
 -2       548       549       666      2458      2817      2818
 -1      1197    8    0    1
 -2       548       666       665      2818      2819      2814
 -1      1198    8    0    1
 -2       577       551       667      2583      2820      2821
 -1      1199    8    0    1
 -2       550       589       668      2581      2822      2823
 -1      1200    8    0    1
 -2       553       483       669      2467      2824      2825
 -1      1201    8    0    1
 -2       483       606       669      2640      2826      2824
 -1      1202    8    0    1
 -2       473       474       670      2232      2827      2828
 -1      1203    8    0    1
 -2       597       473       670      2615      2828      2829
 -1      1204    8    0    1
 -2       474       599       670      2621      2830      2827
 -1      1205    8    0    1
 -2       555       556       671      2476      2831      2832
 -1      1206    8    0    1
 -2       556       557       672      2479      2833      2834
 -1      1207    8    0    1
 -2       556       672       671      2834      2835      2831
 -1      1208    8    0    1
 -2       557       558       673      2482      2836      2837
 -1      1209    8    0    1
 -2       557       673       672      2837      2838      2833
 -1      1210    8    0    1
 -2       558       559       674      2485      2839      2840
 -1      1211    8    0    1
 -2       558       674       673      2840      2841      2836
 -1      1212    8    0    1
 -2       559       560       675      2488      2842      2843
 -1      1213    8    0    1
 -2       559       675       674      2843      2844      2839
 -1      1214    8    0    1
 -2       560       561       676      2491      2845      2846
 -1      1215    8    0    1
 -2       560       676       675      2846      2847      2842
 -1      1216    8    0    1
 -2       561       562       677      2494      2848      2849
 -1      1217    8    0    1
 -2       561       677       676      2849      2850      2845
 -1      1218    8    0    1
 -2       562       563       678      2497      2851      2852
 -1      1219    8    0    1
 -2       677       562       678      2848      2852      2853
 -1      1220    8    0    1
 -2       563       566       678      2597      2854      2851
 -1      1221    8    0    1
 -2       575       465       679      2588      2855      2856
 -1      1222    8    0    1
 -2       567       568       680      2513      2857      2858
 -1      1223    8    0    1
 -2       564       565       681      2503      2859      2860
 -1      1224    8    0    1
 -2       565       567       682      2510      2861      2862
 -1      1225    8    0    1
 -2       567       680       682      2858      2863      2861
 -1      1226    8    0    1
 -2       566       564       683      2507      2864      2865
 -1      1227    8    0    1
 -2       678       566       683      2854      2865      2866
 -1      1228    8    0    1
 -2       564       681       683      2860      2867      2864
 -1      1229    8    0    1
 -2       568       569       684      2516      2868      2869
 -1      1230    8    0    1
 -2       568       684       680      2869      2870      2857
 -1      1231    8    0    1
 -2       569       570       685      2519      2871      2872
 -1      1232    8    0    1
 -2       569       685       684      2872      2873      2868
 -1      1233    8    0    1
 -2       570       571       686      2522      2874      2875
 -1      1234    8    0    1
 -2       570       686       685      2875      2876      2871
 -1      1235    8    0    1
 -2       571       572       687      2525      2877      2878
 -1      1236    8    0    1
 -2       571       687       686      2878      2879      2874
 -1      1237    8    0    1
 -2       572       573       688      2528      2880      2881
 -1      1238    8    0    1
 -2       572       688       687      2881      2882      2877
 -1      1239    8    0    1
 -2       554       555       689      2473      2883      2884
 -1      1240    8    0    1
 -2       555       671       689      2832      2885      2883
 -1      1241    8    0    1
 -2       481       480       690      2252      2886      2887
 -1      1242    8    0    1
 -2       480       604       690      2634      2888      2886
 -1      1243    8    0    1
 -2       589       575       691      2564      2889      2890
 -1      1244    8    0    1
 -2       574       576       692      2591      2891      2892
 -1      1245    8    0    1
 -2       482       445       603      2571      2893      2631
 -1      1246    8    0    1
 -2       552       583       693      2572      2894      2895
 -1      1247    8    0    1
 -2       447       448       466      2189      2605      2609
 -1      1248    8    0    1
 -2       583       587       694      2606      2896      2897
 -1      1249    8    0    1
 -2       588       582       695      2573      2898      2899
 -1      1250    8    0    1
 -2       582       586       696      2584      2900      2901
 -1      1251    8    0    1
 -2       582       696       695      2901      2902      2898
 -1      1252    8    0    1
 -2       528       554       697      2470      2903      2904
 -1      1253    8    0    1
 -2       606       528       697      2639      2904      2905
 -1      1254    8    0    1
 -2       554       689       697      2884      2906      2903
 -1      1255    8    0    1
 -2       465       578       698      2600      2907      2908
 -1      1256    8    0    1
 -2       465       698       679      2908      2909      2855
 -1      1257    8    0    1
 -2       584       574       699      2590      2910      2911
 -1      1258    8    0    1
 -2       574       692       699      2892      2912      2910
 -1      1259    8    0    1
 -2       590       584       700      2610      2913      2914
 -1      1260    8    0    1
 -2       578       588       701      2608      2915      2916
 -1      1261    8    0    1
 -2       588       695       701      2899      2917      2915
 -1      1262    8    0    1
 -2       586       590       702      2596      2918      2919
 -1      1263    8    0    1
 -2       587       585       703      2601      2920      2921
 -1      1264    8    0    1
 -2       481       690       704      2887      2922      2923
 -1      1265    8    0    1
 -2       471       598       705      2618      2924      2925
 -1      1266    8    0    1
 -2       471       705       581      2925      2926      2547
 -1      1267    8    0    1
 -2       476       477       706      2241      2927      2928
 -1      1268    8    0    1
 -2       589       691       668      2890      2929      2822
 -1      1269    8    0    1
 -2       445       591       603      2570      2930      2893
 -1      1270    8    0    1
 -2       698       578       701      2907      2916      2931
 -1      1271    8    0    1
 -2       576       649       707      2768      2932      2933
 -1      1272    8    0    1
 -2       576       707       692      2933      2934      2891
 -1      1273    8    0    1
 -2       649       577       667      2767      2821      2935
 -1      1274    8    0    1
 -2       527       526       594      2391      2936      2595
 -1      1275    8    0    1
 -2       593       550       708      2576      2937      2938
 -1      1276    8    0    1
 -2       550       668       708      2823      2939      2937
 -1      1277    8    0    1
 -2       529       481       704      2398      2923      2940
 -1      1278    8    0    1
 -2       468       593       709      2578      2941      2942
 -1      1279    8    0    1
 -2       468       709       595      2942      2943      2604
 -1      1280    8    0    1
 -2       594       526       648      2936      2765      2944
 -1      1281    8    0    1
 -2       666       549       693      2817      2945      2946
 -1      1282    8    0    1
 -2       553       669       710      2825      2947      2948
 -1      1283    8    0    1
 -2       551       592       579      2575      2612      2949
 -1      1284    8    0    1
 -2       584       699       700      2911      2950      2913
 -1      1285    8    0    1
 -2       591       470       711      2568      2951      2952
 -1      1286    8    0    1
 -2       470       596       711      2614      2953      2951
 -1      1287    8    0    1
 -2       565       682       681      2862      2954      2859
 -1      1288    8    0    1
 -2       691       575       712      2889      2955      2956
 -1      1289    8    0    1
 -2       575       679       712      2856      2957      2955
 -1      1290    8    0    1
 -2       703       585       713      2920      2958      2959
 -1      1291    8    0    1
 -2       585       595       713      2603      2960      2958
 -1      1292    8    0    1
 -2       590       700       702      2914      2961      2918
 -1      1293    8    0    1
 -2       573       594       648      2594      2944      2962
 -1      1294    8    0    1
 -2       469       581       714      2546      2963      2964
 -1      1295    8    0    1
 -2       596       469       714      2613      2964      2965
 -1      1296    8    0    1
 -2       581       705       714      2926      2966      2963
 -1      1297    8    0    1
 -2       693       583       694      2894      2897      2967
 -1      1298    8    0    1
 -2       696       586       715      2900      2968      2969
 -1      1299    8    0    1
 -2       586       702       715      2919      2970      2968
 -1      1300    8    0    1
 -2       476       706       600      2928      2971      2622
 -1      1301    8    0    1
 -2       579       553       710      2541      2948      2972
 -1      1302    8    0    1
 -2       573       648       688      2962      2973      2880
 -1      1303    8    0    1
 -2       694       587       703      2896      2921      2974
 -1      1304    8    0    1
 -2       693       694       716      2967      2975      2976
 -1      1305    8    0    1
 -2       693       716       666      2976      2977      2946
 -1      1306    8    0    1
 -2       599       600       717      2624      2978      2979
 -1      1307    8    0    1
 -2       602       601       718      2630      2980      2981
 -1      1308    8    0    1
 -2       668       691       719      2929      2982      2983
 -1      1309    8    0    1
 -2       650       651       720      2774      2984      2985
 -1      1310    8    0    1
 -2       605       603       721      2638      2986      2987
 -1      1311    8    0    1
 -2       608       607       722      2646      2988      2989
 -1      1312    8    0    1
 -2       609       608       723      2649      2990      2991
 -1      1313    8    0    1
 -2       608       722       723      2989      2992      2990
 -1      1314    8    0    1
 -2       610       609       724      2652      2993      2994
 -1      1315    8    0    1
 -2       609       723       724      2991      2995      2993
 -1      1316    8    0    1
 -2       611       610       725      2655      2996      2997
 -1      1317    8    0    1
 -2       610       724       725      2994      2998      2996
 -1      1318    8    0    1
 -2       612       611       726      2658      2999      3000
 -1      1319    8    0    1
 -2       611       725       726      2997      3001      2999
 -1      1320    8    0    1
 -2       613       612       727      2661      3002      3003
 -1      1321    8    0    1
 -2       612       726       727      3000      3004      3002
 -1      1322    8    0    1
 -2       614       613       728      2664      3005      3006
 -1      1323    8    0    1
 -2       613       727       728      3003      3007      3005
 -1      1324    8    0    1
 -2       615       614       729      2667      3008      3009
 -1      1325    8    0    1
 -2       614       728       729      3006      3010      3008
 -1      1326    8    0    1
 -2       616       615       730      2670      3011      3012
 -1      1327    8    0    1
 -2       615       729       730      3009      3013      3011
 -1      1328    8    0    1
 -2       617       616       731      2673      3014      3015
 -1      1329    8    0    1
 -2       616       730       731      3012      3016      3014
 -1      1330    8    0    1
 -2       618       617       732      2676      3017      3018
 -1      1331    8    0    1
 -2       617       731       732      3015      3019      3017
 -1      1332    8    0    1
 -2       619       618       733      2679      3020      3021
 -1      1333    8    0    1
 -2       618       732       733      3018      3022      3020
 -1      1334    8    0    1
 -2       620       619       734      2682      3023      3024
 -1      1335    8    0    1
 -2       619       733       734      3021      3025      3023
 -1      1336    8    0    1
 -2       621       620       735      2685      3026      3027
 -1      1337    8    0    1
 -2       620       734       735      3024      3028      3026
 -1      1338    8    0    1
 -2       622       621       736      2688      3029      3030
 -1      1339    8    0    1
 -2       621       735       736      3027      3031      3029
 -1      1340    8    0    1
 -2       623       622       737      2691      3032      3033
 -1      1341    8    0    1
 -2       622       736       737      3030      3034      3032
 -1      1342    8    0    1
 -2       624       623       738      2694      3035      3036
 -1      1343    8    0    1
 -2       623       737       738      3033      3037      3035
 -1      1344    8    0    1
 -2       625       624       739      2697      3038      3039
 -1      1345    8    0    1
 -2       624       738       739      3036      3040      3038
 -1      1346    8    0    1
 -2       626       625       740      2700      3041      3042
 -1      1347    8    0    1
 -2       625       739       740      3039      3043      3041
 -1      1348    8    0    1
 -2       627       626       741      2703      3044      3045
 -1      1349    8    0    1
 -2       626       740       741      3042      3046      3044
 -1      1350    8    0    1
 -2       628       627       742      2706      3047      3048
 -1      1351    8    0    1
 -2       627       741       742      3045      3049      3047
 -1      1352    8    0    1
 -2       629       628       743      2709      3050      3051
 -1      1353    8    0    1
 -2       628       742       743      3048      3052      3050
 -1      1354    8    0    1
 -2       630       629       744      2712      3053      3054
 -1      1355    8    0    1
 -2       629       743       744      3051      3055      3053
 -1      1356    8    0    1
 -2       631       630       745      2715      3056      3057
 -1      1357    8    0    1
 -2       630       744       745      3054      3058      3056
 -1      1358    8    0    1
 -2       632       631       746      2718      3059      3060
 -1      1359    8    0    1
 -2       631       745       746      3057      3061      3059
 -1      1360    8    0    1
 -2       633       632       747      2721      3062      3063
 -1      1361    8    0    1
 -2       632       746       747      3060      3064      3062
 -1      1362    8    0    1
 -2       634       633       748      2724      3065      3066
 -1      1363    8    0    1
 -2       633       747       748      3063      3067      3065
 -1      1364    8    0    1
 -2       635       634       749      2727      3068      3069
 -1      1365    8    0    1
 -2       634       748       749      3066      3070      3068
 -1      1366    8    0    1
 -2       636       635       750      2730      3071      3072
 -1      1367    8    0    1
 -2       635       749       750      3069      3073      3071
 -1      1368    8    0    1
 -2       637       636       751      2733      3074      3075
 -1      1369    8    0    1
 -2       636       750       751      3072      3076      3074
 -1      1370    8    0    1
 -2       638       637       752      2736      3077      3078
 -1      1371    8    0    1
 -2       637       751       752      3075      3079      3077
 -1      1372    8    0    1
 -2       639       638       753      2739      3080      3081
 -1      1373    8    0    1
 -2       638       752       753      3078      3082      3080
 -1      1374    8    0    1
 -2       640       639       754      2742      3083      3084
 -1      1375    8    0    1
 -2       639       753       754      3081      3085      3083
 -1      1376    8    0    1
 -2       641       640       755      2745      3086      3087
 -1      1377    8    0    1
 -2       640       754       755      3084      3088      3086
 -1      1378    8    0    1
 -2       642       641       756      2748      3089      3090
 -1      1379    8    0    1
 -2       641       755       756      3087      3091      3089
 -1      1380    8    0    1
 -2       643       642       757      2751      3092      3093
 -1      1381    8    0    1
 -2       642       756       757      3090      3094      3092
 -1      1382    8    0    1
 -2       644       643       758      2754      3095      3096
 -1      1383    8    0    1
 -2       643       757       758      3093      3097      3095
 -1      1384    8    0    1
 -2       645       644       759      2757      3098      3099
 -1      1385    8    0    1
 -2       644       758       759      3096      3100      3098
 -1      1386    8    0    1
 -2       646       645       760      2760      3101      3102
 -1      1387    8    0    1
 -2       645       759       760      3099      3103      3101
 -1      1388    8    0    1
 -2       647       646       761      2763      3104      3105
 -1      1389    8    0    1
 -2       646       760       761      3102      3106      3104
 -1      1390    8    0    1
 -2       648       647       762      2766      3107      3108
 -1      1391    8    0    1
 -2       688       648       762      2973      3108      3109
 -1      1392    8    0    1
 -2       647       761       762      3105      3110      3107
 -1      1393    8    0    1
 -2       601       650       763      2771      3111      3112
 -1      1394    8    0    1
 -2       601       763       718      3112      3113      2980
 -1      1395    8    0    1
 -2       710       669       764      2947      3114      3115
 -1      1396    8    0    1
 -2       652       653       765      2780      3116      3117
 -1      1397    8    0    1
 -2       653       654       766      2783      3118      3119
 -1      1398    8    0    1
 -2       653       766       765      3119      3120      3116
 -1      1399    8    0    1
 -2       654       655       767      2786      3121      3122
 -1      1400    8    0    1
 -2       654       767       766      3122      3123      3118
 -1      1401    8    0    1
 -2       655       656       768      2789      3124      3125
 -1      1402    8    0    1
 -2       655       768       767      3125      3126      3121
 -1      1403    8    0    1
 -2       656       657       769      2792      3127      3128
 -1      1404    8    0    1
 -2       656       769       768      3128      3129      3124
 -1      1405    8    0    1
 -2       657       658       770      2795      3130      3131
 -1      1406    8    0    1
 -2       657       770       769      3131      3132      3127
 -1      1407    8    0    1
 -2       658       659       771      2798      3133      3134
 -1      1408    8    0    1
 -2       658       771       770      3134      3135      3130
 -1      1409    8    0    1
 -2       659       660       772      2801      3136      3137
 -1      1410    8    0    1
 -2       659       772       771      3137      3138      3133
 -1      1411    8    0    1
 -2       660       661       773      2804      3139      3140
 -1      1412    8    0    1
 -2       660       773       772      3140      3141      3136
 -1      1413    8    0    1
 -2       661       662       774      2807      3142      3143
 -1      1414    8    0    1
 -2       661       774       773      3143      3144      3139
 -1      1415    8    0    1
 -2       662       663       775      2810      3145      3146
 -1      1416    8    0    1
 -2       662       775       774      3146      3147      3142
 -1      1417    8    0    1
 -2       663       664       776      2813      3148      3149
 -1      1418    8    0    1
 -2       663       776       775      3149      3150      3145
 -1      1419    8    0    1
 -2       664       665       777      2816      3151      3152
 -1      1420    8    0    1
 -2       664       777       776      3152      3153      3148
 -1      1421    8    0    1
 -2       665       666       716      2819      2977      3154
 -1      1422    8    0    1
 -2       693       549       778      2945      3155      3156
 -1      1423    8    0    1
 -2       551       579       667      2949      3157      2820
 -1      1424    8    0    1
 -2       673       674       779      2841      3158      3159
 -1      1425    8    0    1
 -2       671       672       780      2835      3160      3161
 -1      1426    8    0    1
 -2       674       675       781      2844      3162      3163
 -1      1427    8    0    1
 -2       674       781       779      3163      3164      3158
 -1      1428    8    0    1
 -2       675       676       782      2847      3165      3166
 -1      1429    8    0    1
 -2       675       782       781      3166      3167      3162
 -1      1430    8    0    1
 -2       676       677       783      2850      3168      3169
 -1      1431    8    0    1
 -2       676       783       782      3169      3170      3165
 -1      1432    8    0    1
 -2       677       678       784      2853      3171      3172
 -1      1433    8    0    1
 -2       783       677       784      3168      3172      3173
 -1      1434    8    0    1
 -2       678       683       784      2866      3174      3171
 -1      1435    8    0    1
 -2       685       686       785      2876      3175      3176
 -1      1436    8    0    1
 -2       684       685       786      2873      3177      3178
 -1      1437    8    0    1
 -2       685       785       786      3176      3179      3177
 -1      1438    8    0    1
 -2       680       684       787      2870      3180      3181
 -1      1439    8    0    1
 -2       684       786       787      3178      3182      3180
 -1      1440    8    0    1
 -2       686       687       788      2879      3183      3184
 -1      1441    8    0    1
 -2       686       788       785      3184      3185      3175
 -1      1442    8    0    1
 -2       687       688       789      2882      3186      3187
 -1      1443    8    0    1
 -2       788       687       789      3183      3187      3188
 -1      1444    8    0    1
 -2       688       762       789      3109      3189      3186
 -1      1445    8    0    1
 -2       679       698       790      2909      3190      3191
 -1      1446    8    0    1
 -2       679       790       712      3191      3192      2957
 -1      1447    8    0    1
 -2       694       703       791      2974      3193      3194
 -1      1448    8    0    1
 -2       694       791       716      3194      3195      2975
 -1      1449    8    0    1
 -2       689       671       792      2885      3196      3197
 -1      1450    8    0    1
 -2       671       780       792      3161      3198      3196
 -1      1451    8    0    1
 -2       690       604       793      2888      3199      3200
 -1      1452    8    0    1
 -2       682       680       794      2863      3201      3202
 -1      1453    8    0    1
 -2       680       787       794      3181      3203      3201
 -1      1454    8    0    1
 -2       549       580       778      2580      3204      3155
 -1      1455    8    0    1
 -2       669       606       795      2826      3205      3206
 -1      1456    8    0    1
 -2       681       682       796      2954      3207      3208
 -1      1457    8    0    1
 -2       682       794       796      3202      3209      3207
 -1      1458    8    0    1
 -2       698       701       797      2931      3210      3211
 -1      1459    8    0    1
 -2       651       652       798      2777      3212      3213
 -1      1460    8    0    1
 -2       652       765       798      3117      3214      3212
 -1      1461    8    0    1
 -2       607       605       799      2643      3215      3216
 -1      1462    8    0    1
 -2       605       721       799      2987      3217      3215
 -1      1463    8    0    1
 -2       604       602       800      2635      3218      3219
 -1      1464    8    0    1
 -2       793       604       800      3199      3219      3220
 -1      1465    8    0    1
 -2       602       718       800      2981      3221      3218
 -1      1466    8    0    1
 -2       579       710       667      2972      3222      3157
 -1      1467    8    0    1
 -2       695       696       801      2902      3223      3224
 -1      1468    8    0    1
 -2       598       597       802      2619      3225      3226
 -1      1469    8    0    1
 -2       702       700       803      2961      3227      3228
 -1      1470    8    0    1
 -2       580       552       778      2585      3229      3204
 -1      1471    8    0    1
 -2       700       699       804      2950      3230      3231
 -1      1472    8    0    1
 -2       672       673       805      2838      3232      3233
 -1      1473    8    0    1
 -2       673       779       805      3159      3234      3232
 -1      1474    8    0    1
 -2       701       695       806      2917      3235      3236
 -1      1475    8    0    1
 -2       695       801       806      3224      3237      3235
 -1      1476    8    0    1
 -2       699       692       807      2912      3238      3239
 -1      1477    8    0    1
 -2       693       778       552      3156      3229      2895
 -1      1478    8    0    1
 -2       667       710       649      3222      3240      2935
 -1      1479    8    0    1
 -2       649       710       764      3240      3115      3241
 -1      1480    8    0    1
 -2       706       477       529      2927      2625      3242
 -1      1481    8    0    1
 -2       668       719       808      2983      3243      3244
 -1      1482    8    0    1
 -2       668       808       708      3244      3245      2939
 -1      1483    8    0    1
 -2       650       720       763      2985      3246      3111
 -1      1484    8    0    1
 -2       597       670       809      2829      3247      3248
 -1      1485    8    0    1
 -2       597       809       802      3248      3249      3225
 -1      1486    8    0    1
 -2       599       717       810      2979      3250      3251
 -1      1487    8    0    1
 -2       599       810       670      3251      3252      2830
 -1      1488    8    0    1
 -2       707       649       764      2932      3241      3253
 -1      1489    8    0    1
 -2       709       593       811      2941      3254      3255
 -1      1490    8    0    1
 -2       593       708       811      2938      3256      3254
 -1      1491    8    0    1
 -2       764       669       795      3114      3206      3257
 -1      1492    8    0    1
 -2       607       799       722      3216      3258      2988
 -1      1493    8    0    1
 -2       665       716       777      3154      3259      3151
 -1      1494    8    0    1
 -2       780       672       805      3160      3233      3260
 -1      1495    8    0    1
 -2       699       807       804      3239      3261      3230
 -1      1496    8    0    1
 -2       701       806       797      3236      3262      3210
 -1      1497    8    0    1
 -2       690       793       717      3200      3263      3264
 -1      1498    8    0    1
 -2       700       804       803      3231      3265      3227
 -1      1499    8    0    1
 -2       790       698       812      3190      3266      3267
 -1      1500    8    0    1
 -2       698       797       812      3211      3268      3266
 -1      1501    8    0    1
 -2       683       681       813      2867      3269      3270
 -1      1502    8    0    1
 -2       784       683       813      3174      3270      3271
 -1      1503    8    0    1
 -2       681       796       813      3208      3272      3269
 -1      1504    8    0    1
 -2       791       703       814      3193      3273      3274
 -1      1505    8    0    1
 -2       703       713       814      2959      3275      3273
 -1      1506    8    0    1
 -2       705       598       815      2924      3276      3277
 -1      1507    8    0    1
 -2       598       802       815      3226      3278      3276
 -1      1508    8    0    1
 -2       704       690       717      2922      3264      3279
 -1      1509    8    0    1
 -2       713       595       816      2960      3280      3281
 -1      1510    8    0    1
 -2       595       709       816      2943      3282      3280
 -1      1511    8    0    1
 -2       691       712       817      2956      3283      3284
 -1      1512    8    0    1
 -2       691       817       719      3284      3285      2982
 -1      1513    8    0    1
 -2       795       606       818      3205      3286      3287
 -1      1514    8    0    1
 -2       606       697       818      2905      3288      3286
 -1      1515    8    0    1
 -2       596       714       819      2965      3289      3290
 -1      1516    8    0    1
 -2       651       798       720      3213      3291      2984
 -1      1517    8    0    1
 -2       603       591       721      2930      3292      2986
 -1      1518    8    0    1
 -2       715       702       820      2970      3293      3294
 -1      1519    8    0    1
 -2       702       803       820      3228      3295      3293
 -1      1520    8    0    1
 -2       596       819       821      3290      3296      3297
 -1      1521    8    0    1
 -2       596       821       711      3297      3298      2953
 -1      1522    8    0    1
 -2       801       696       715      3223      2969      3299
 -1      1523    8    0    1
 -2       697       689       822      2906      3300      3301
 -1      1524    8    0    1
 -2       689       792       822      3197      3302      3300
 -1      1525    8    0    1
 -2       807       692       823      3238      3303      3304
 -1      1526    8    0    1
 -2       692       707       823      2934      3305      3303
 -1      1527    8    0    1
 -2       717       600       704      2978      3306      3279
 -1      1528    8    0    1
 -2       712       790       824      3192      3307      3308
 -1      1529    8    0    1
 -2       712       824       817      3308      3309      3283
 -1      1530    8    0    1
 -2       718       763       825      3113      3310      3311
 -1      1531    8    0    1
 -2       724       723       826      2995      3312      3313
 -1      1532    8    0    1
 -2       725       724       827      2998      3314      3315
 -1      1533    8    0    1
 -2       724       826       827      3313      3316      3314
 -1      1534    8    0    1
 -2       726       725       828      3001      3317      3318
 -1      1535    8    0    1
 -2       725       827       828      3315      3319      3317
 -1      1536    8    0    1
 -2       727       726       829      3004      3320      3321
 -1      1537    8    0    1
 -2       726       828       829      3318      3322      3320
 -1      1538    8    0    1
 -2       728       727       830      3007      3323      3324
 -1      1539    8    0    1
 -2       727       829       830      3321      3325      3323
 -1      1540    8    0    1
 -2       729       728       831      3010      3326      3327
 -1      1541    8    0    1
 -2       728       830       831      3324      3328      3326
 -1      1542    8    0    1
 -2       730       729       832      3013      3329      3330
 -1      1543    8    0    1
 -2       729       831       832      3327      3331      3329
 -1      1544    8    0    1
 -2       731       730       833      3016      3332      3333
 -1      1545    8    0    1
 -2       730       832       833      3330      3334      3332
 -1      1546    8    0    1
 -2       732       731       834      3019      3335      3336
 -1      1547    8    0    1
 -2       731       833       834      3333      3337      3335
 -1      1548    8    0    1
 -2       733       732       835      3022      3338      3339
 -1      1549    8    0    1
 -2       732       834       835      3336      3340      3338
 -1      1550    8    0    1
 -2       734       733       836      3025      3341      3342
 -1      1551    8    0    1
 -2       733       835       836      3339      3343      3341
 -1      1552    8    0    1
 -2       735       734       837      3028      3344      3345
 -1      1553    8    0    1
 -2       734       836       837      3342      3346      3344
 -1      1554    8    0    1
 -2       736       735       838      3031      3347      3348
 -1      1555    8    0    1
 -2       735       837       838      3345      3349      3347
 -1      1556    8    0    1
 -2       737       736       839      3034      3350      3351
 -1      1557    8    0    1
 -2       736       838       839      3348      3352      3350
 -1      1558    8    0    1
 -2       738       737       840      3037      3353      3354
 -1      1559    8    0    1
 -2       737       839       840      3351      3355      3353
 -1      1560    8    0    1
 -2       739       738       841      3040      3356      3357
 -1      1561    8    0    1
 -2       738       840       841      3354      3358      3356
 -1      1562    8    0    1
 -2       740       739       842      3043      3359      3360
 -1      1563    8    0    1
 -2       739       841       842      3357      3361      3359
 -1      1564    8    0    1
 -2       741       740       843      3046      3362      3363
 -1      1565    8    0    1
 -2       740       842       843      3360      3364      3362
 -1      1566    8    0    1
 -2       742       741       844      3049      3365      3366
 -1      1567    8    0    1
 -2       741       843       844      3363      3367      3365
 -1      1568    8    0    1
 -2       743       742       845      3052      3368      3369
 -1      1569    8    0    1
 -2       742       844       845      3366      3370      3368
 -1      1570    8    0    1
 -2       744       743       846      3055      3371      3372
 -1      1571    8    0    1
 -2       743       845       846      3369      3373      3371
 -1      1572    8    0    1
 -2       745       744       847      3058      3374      3375
 -1      1573    8    0    1
 -2       744       846       847      3372      3376      3374
 -1      1574    8    0    1
 -2       746       745       848      3061      3377      3378
 -1      1575    8    0    1
 -2       745       847       848      3375      3379      3377
 -1      1576    8    0    1
 -2       747       746       849      3064      3380      3381
 -1      1577    8    0    1
 -2       746       848       849      3378      3382      3380
 -1      1578    8    0    1
 -2       748       747       850      3067      3383      3384
 -1      1579    8    0    1
 -2       747       849       850      3381      3385      3383
 -1      1580    8    0    1
 -2       749       748       851      3070      3386      3387
 -1      1581    8    0    1
 -2       748       850       851      3384      3388      3386
 -1      1582    8    0    1
 -2       750       749       852      3073      3389      3390
 -1      1583    8    0    1
 -2       749       851       852      3387      3391      3389
 -1      1584    8    0    1
 -2       751       750       853      3076      3392      3393
 -1      1585    8    0    1
 -2       750       852       853      3390      3394      3392
 -1      1586    8    0    1
 -2       752       751       854      3079      3395      3396
 -1      1587    8    0    1
 -2       751       853       854      3393      3397      3395
 -1      1588    8    0    1
 -2       753       752       855      3082      3398      3399
 -1      1589    8    0    1
 -2       752       854       855      3396      3400      3398
 -1      1590    8    0    1
 -2       754       753       856      3085      3401      3402
 -1      1591    8    0    1
 -2       753       855       856      3399      3403      3401
 -1      1592    8    0    1
 -2       755       754       857      3088      3404      3405
 -1      1593    8    0    1
 -2       754       856       857      3402      3406      3404
 -1      1594    8    0    1
 -2       756       755       858      3091      3407      3408
 -1      1595    8    0    1
 -2       755       857       858      3405      3409      3407
 -1      1596    8    0    1
 -2       757       756       859      3094      3410      3411
 -1      1597    8    0    1
 -2       756       858       859      3408      3412      3410
 -1      1598    8    0    1
 -2       758       757       860      3097      3413      3414
 -1      1599    8    0    1
 -2       757       859       860      3411      3415      3413
 -1      1600    8    0    1
 -2       759       758       861      3100      3416      3417
 -1      1601    8    0    1
 -2       758       860       861      3414      3418      3416
 -1      1602    8    0    1
 -2       760       759       862      3103      3419      3420
 -1      1603    8    0    1
 -2       759       861       862      3417      3421      3419
 -1      1604    8    0    1
 -2       761       760       863      3106      3422      3423
 -1      1605    8    0    1
 -2       760       862       863      3420      3424      3422
 -1      1606    8    0    1
 -2       762       761       864      3110      3425      3426
 -1      1607    8    0    1
 -2       789       762       864      3189      3426      3427
 -1      1608    8    0    1
 -2       761       863       864      3423      3428      3425
 -1      1609    8    0    1
 -2       766       767       865      3123      3429      3430
 -1      1610    8    0    1
 -2       763       720       866      3246      3431      3432
 -1      1611    8    0    1
 -2       763       866       825      3432      3433      3310
 -1      1612    8    0    1
 -2       765       766       867      3120      3434      3435
 -1      1613    8    0    1
 -2       766       865       867      3430      3436      3434
 -1      1614    8    0    1
 -2       768       769       868      3129      3437      3438
 -1      1615    8    0    1
 -2       769       770       869      3132      3439      3440
 -1      1616    8    0    1
 -2       769       869       868      3440      3441      3437
 -1      1617    8    0    1
 -2       770       771       870      3135      3442      3443
 -1      1618    8    0    1
 -2       770       870       869      3443      3444      3439
 -1      1619    8    0    1
 -2       771       772       871      3138      3445      3446
 -1      1620    8    0    1
 -2       771       871       870      3446      3447      3442
 -1      1621    8    0    1
 -2       772       773       872      3141      3448      3449
 -1      1622    8    0    1
 -2       772       872       871      3449      3450      3445
 -1      1623    8    0    1
 -2       773       774       873      3144      3451      3452
 -1      1624    8    0    1
 -2       773       873       872      3452      3453      3448
 -1      1625    8    0    1
 -2       774       775       874      3147      3454      3455
 -1      1626    8    0    1
 -2       774       874       873      3455      3456      3451
 -1      1627    8    0    1
 -2       775       776       875      3150      3457      3458
 -1      1628    8    0    1
 -2       775       875       874      3458      3459      3454
 -1      1629    8    0    1
 -2       776       777       876      3153      3460      3461
 -1      1630    8    0    1
 -2       776       876       875      3461      3462      3457
 -1      1631    8    0    1
 -2       780       805       877      3260      3463      3464
 -1      1632    8    0    1
 -2       722       799       878      3258      3465      3466
 -1      1633    8    0    1
 -2       717       793       879      3263      3467      3468
 -1      1634    8    0    1
 -2       717       879       810      3468      3469      3250
 -1      1635    8    0    1
 -2       529       704       706      2940      3470      3242
 -1      1636    8    0    1
 -2       781       782       880      3167      3471      3472
 -1      1637    8    0    1
 -2       805       779       881      3234      3473      3474
 -1      1638    8    0    1
 -2       805       881       877      3474      3475      3463
 -1      1639    8    0    1
 -2       707       764       823      3253      3476      3305
 -1      1640    8    0    1
 -2       803       804       882      3265      3477      3478
 -1      1641    8    0    1
 -2       779       781       883      3164      3479      3480
 -1      1642    8    0    1
 -2       881       779       883      3473      3480      3481
 -1      1643    8    0    1
 -2       781       880       883      3472      3482      3479
 -1      1644    8    0    1
 -2       786       785       884      3179      3483      3484
 -1      1645    8    0    1
 -2       801       715       885      3299      3485      3486
 -1      1646    8    0    1
 -2       785       788       886      3185      3487      3488
 -1      1647    8    0    1
 -2       785       886       884      3488      3489      3483
 -1      1648    8    0    1
 -2       787       786       887      3182      3490      3491
 -1      1649    8    0    1
 -2       786       884       887      3484      3492      3490
 -1      1650    8    0    1
 -2       798       765       888      3214      3493      3494
 -1      1651    8    0    1
 -2       765       867       888      3435      3495      3493
 -1      1652    8    0    1
 -2       794       787       889      3203      3496      3497
 -1      1653    8    0    1
 -2       787       887       889      3491      3498      3496
 -1      1654    8    0    1
 -2       792       780       890      3198      3499      3500
 -1      1655    8    0    1
 -2       780       877       890      3464      3501      3499
 -1      1656    8    0    1
 -2       764       795       891      3257      3502      3503
 -1      1657    8    0    1
 -2       764       891       823      3503      3504      3476
 -1      1658    8    0    1
 -2       767       768       892      3126      3505      3506
 -1      1659    8    0    1
 -2       865       767       892      3429      3506      3507
 -1      1660    8    0    1
 -2       768       868       892      3438      3508      3505
 -1      1661    8    0    1
 -2       714       705       893      2966      3509      3510
 -1      1662    8    0    1
 -2       714       893       819      3510      3511      3289
 -1      1663    8    0    1
 -2       796       794       894      3209      3512      3513
 -1      1664    8    0    1
 -2       794       889       894      3497      3514      3512
 -1      1665    8    0    1
 -2       720       798       895      3291      3515      3516
 -1      1666    8    0    1
 -2       866       720       895      3431      3516      3517
 -1      1667    8    0    1
 -2       798       888       895      3494      3518      3515
 -1      1668    8    0    1
 -2       723       722       896      2992      3519      3520
 -1      1669    8    0    1
 -2       722       878       896      3466      3521      3519
 -1      1670    8    0    1
 -2       721       591       711      3292      2952      3522
 -1      1671    8    0    1
 -2       600       706       704      2971      3470      3306
 -1      1672    8    0    1
 -2       797       806       897      3262      3523      3524
 -1      1673    8    0    1
 -2       804       807       898      3261      3525      3526
 -1      1674    8    0    1
 -2       806       801       899      3237      3527      3528
 -1      1675    8    0    1
 -2       777       716       900      3259      3529      3530
 -1      1676    8    0    1
 -2       876       777       900      3460      3530      3531
 -1      1677    8    0    1
 -2       716       791       900      3195      3532      3529
 -1      1678    8    0    1
 -2       824       790       901      3307      3533      3534
 -1      1679    8    0    1
 -2       790       812       901      3267      3535      3533
 -1      1680    8    0    1
 -2       808       719       902      3243      3536      3537
 -1      1681    8    0    1
 -2       708       808       903      3245      3538      3539
 -1      1682    8    0    1
 -2       708       903       811      3539      3540      3256
 -1      1683    8    0    1
 -2       809       670       810      3247      3252      3541
 -1      1684    8    0    1
 -2       793       800       879      3220      3542      3467
 -1      1685    8    0    1
 -2       897       806       899      3523      3528      3543
 -1      1686    8    0    1
 -2       819       893       904      3511      3544      3545
 -1      1687    8    0    1
 -2       721       711       821      3522      3298      3546
 -1      1688    8    0    1
 -2       802       809       905      3249      3547      3548
 -1      1689    8    0    1
 -2       792       890       906      3500      3549      3550
 -1      1690    8    0    1
 -2       792       906       822      3550      3551      3302
 -1      1691    8    0    1
 -2       882       804       898      3477      3526      3552
 -1      1692    8    0    1
 -2       885       715       820      3485      3294      3553
 -1      1693    8    0    1
 -2       783       784       813      3173      3271      3554
 -1      1694    8    0    1
 -2       788       789       864      3188      3427      3555
 -1      1695    8    0    1
 -2       814       713       907      3275      3556      3557
 -1      1696    8    0    1
 -2       713       816       907      3281      3558      3556
 -1      1697    8    0    1
 -2       801       885       899      3486      3559      3527
 -1      1698    8    0    1
 -2       812       797       908      3268      3560      3561
 -1      1699    8    0    1
 -2       797       897       908      3524      3562      3560
 -1      1700    8    0    1
 -2       813       796       909      3272      3563      3564
 -1      1701    8    0    1
 -2       783       813       909      3554      3564      3565
 -1      1702    8    0    1
 -2       796       894       909      3513      3566      3563
 -1      1703    8    0    1
 -2       709       811       910      3255      3567      3568
 -1      1704    8    0    1
 -2       709       910       816      3568      3569      3282
 -1      1705    8    0    1
 -2       893       705       815      3509      3277      3570
 -1      1706    8    0    1
 -2       815       802       911      3278      3571      3572
 -1      1707    8    0    1
 -2       802       905       911      3548      3573      3571
 -1      1708    8    0    1
 -2       891       795       912      3502      3574      3575
 -1      1709    8    0    1
 -2       795       818       912      3287      3576      3574
 -1      1710    8    0    1
 -2       878       799       821      3465      3577      3578
 -1      1711    8    0    1
 -2       788       864       886      3555      3579      3487
 -1      1712    8    0    1
 -2       718       825       913      3311      3580      3581
 -1      1713    8    0    1
 -2       718       913       800      3581      3582      3221
 -1      1714    8    0    1
 -2       782       783       909      3170      3565      3583
 -1      1715    8    0    1
 -2       818       697       822      3288      3301      3584
 -1      1716    8    0    1
 -2       791       814       914      3274      3585      3586
 -1      1717    8    0    1
 -2       900       791       914      3532      3586      3587
 -1      1718    8    0    1
 -2       814       907       914      3557      3588      3585
 -1      1719    8    0    1
 -2       820       803       915      3295      3589      3590
 -1      1720    8    0    1
 -2       803       882       915      3478      3591      3589
 -1      1721    8    0    1
 -2       821       819       916      3296      3592      3593
 -1      1722    8    0    1
 -2       878       821       916      3578      3593      3594
 -1      1723    8    0    1
 -2       819       904       916      3545      3595      3592
 -1      1724    8    0    1
 -2       799       721       821      3217      3546      3577
 -1      1725    8    0    1
 -2       782       909       880      3583      3596      3471
 -1      1726    8    0    1
 -2       898       807       917      3525      3597      3598
 -1      1727    8    0    1
 -2       807       823       917      3304      3599      3597
 -1      1728    8    0    1
 -2       826       723       896      3312      3520      3600
 -1      1729    8    0    1
 -2       719       817       902      3285      3601      3536
 -1      1730    8    0    1
 -2       809       810       918      3541      3602      3603
 -1      1731    8    0    1
 -2       905       809       918      3547      3603      3604
 -1      1732    8    0    1
 -2       810       879       918      3469      3605      3602
 -1      1733    8    0    1
 -2       828       827       919      3319      3606      3607
 -1      1734    8    0    1
 -2       829       828       920      3322      3608      3609
 -1      1735    8    0    1
 -2       828       919       920      3607      3610      3608
 -1      1736    8    0    1
 -2       830       829       921      3325      3611      3612
 -1      1737    8    0    1
 -2       829       920       921      3609      3613      3611
 -1      1738    8    0    1
 -2       831       830       922      3328      3614      3615
 -1      1739    8    0    1
 -2       830       921       922      3612      3616      3614
 -1      1740    8    0    1
 -2       832       831       923      3331      3617      3618
 -1      1741    8    0    1
 -2       831       922       923      3615      3619      3617
 -1      1742    8    0    1
 -2       833       832       924      3334      3620      3621
 -1      1743    8    0    1
 -2       832       923       924      3618      3622      3620
 -1      1744    8    0    1
 -2       834       833       925      3337      3623      3624
 -1      1745    8    0    1
 -2       833       924       925      3621      3625      3623
 -1      1746    8    0    1
 -2       835       834       926      3340      3626      3627
 -1      1747    8    0    1
 -2       834       925       926      3624      3628      3626
 -1      1748    8    0    1
 -2       836       835       927      3343      3629      3630
 -1      1749    8    0    1
 -2       835       926       927      3627      3631      3629
 -1      1750    8    0    1
 -2       837       836       928      3346      3632      3633
 -1      1751    8    0    1
 -2       836       927       928      3630      3634      3632
 -1      1752    8    0    1
 -2       838       837       929      3349      3635      3636
 -1      1753    8    0    1
 -2       837       928       929      3633      3637      3635
 -1      1754    8    0    1
 -2       839       838       930      3352      3638      3639
 -1      1755    8    0    1
 -2       838       929       930      3636      3640      3638
 -1      1756    8    0    1
 -2       840       839       931      3355      3641      3642
 -1      1757    8    0    1
 -2       839       930       931      3639      3643      3641
 -1      1758    8    0    1
 -2       841       840       932      3358      3644      3645
 -1      1759    8    0    1
 -2       840       931       932      3642      3646      3644
 -1      1760    8    0    1
 -2       842       841       933      3361      3647      3648
 -1      1761    8    0    1
 -2       841       932       933      3645      3649      3647
 -1      1762    8    0    1
 -2       843       842       934      3364      3650      3651
 -1      1763    8    0    1
 -2       842       933       934      3648      3652      3650
 -1      1764    8    0    1
 -2       844       843       935      3367      3653      3654
 -1      1765    8    0    1
 -2       843       934       935      3651      3655      3653
 -1      1766    8    0    1
 -2       845       844       936      3370      3656      3657
 -1      1767    8    0    1
 -2       844       935       936      3654      3658      3656
 -1      1768    8    0    1
 -2       846       845       937      3373      3659      3660
 -1      1769    8    0    1
 -2       845       936       937      3657      3661      3659
 -1      1770    8    0    1
 -2       847       846       938      3376      3662      3663
 -1      1771    8    0    1
 -2       846       937       938      3660      3664      3662
 -1      1772    8    0    1
 -2       848       847       939      3379      3665      3666
 -1      1773    8    0    1
 -2       847       938       939      3663      3667      3665
 -1      1774    8    0    1
 -2       850       849       940      3385      3668      3669
 -1      1775    8    0    1
 -2       851       850       941      3388      3670      3671
 -1      1776    8    0    1
 -2       850       940       941      3669      3672      3670
 -1      1777    8    0    1
 -2       852       851       942      3391      3673      3674
 -1      1778    8    0    1
 -2       851       941       942      3671      3675      3673
 -1      1779    8    0    1
 -2       853       852       943      3394      3676      3677
 -1      1780    8    0    1
 -2       852       942       943      3674      3678      3676
 -1      1781    8    0    1
 -2       854       853       944      3397      3679      3680
 -1      1782    8    0    1
 -2       853       943       944      3677      3681      3679
 -1      1783    8    0    1
 -2       855       854       945      3400      3682      3683
 -1      1784    8    0    1
 -2       854       944       945      3680      3684      3682
 -1      1785    8    0    1
 -2       856       855       946      3403      3685      3686
 -1      1786    8    0    1
 -2       855       945       946      3683      3687      3685
 -1      1787    8    0    1
 -2       857       856       947      3406      3688      3689
 -1      1788    8    0    1
 -2       856       946       947      3686      3690      3688
 -1      1789    8    0    1
 -2       858       857       948      3409      3691      3692
 -1      1790    8    0    1
 -2       857       947       948      3689      3693      3691
 -1      1791    8    0    1
 -2       859       858       949      3412      3694      3695
 -1      1792    8    0    1
 -2       858       948       949      3692      3696      3694
 -1      1793    8    0    1
 -2       860       859       950      3415      3697      3698
 -1      1794    8    0    1
 -2       859       949       950      3695      3699      3697
 -1      1795    8    0    1
 -2       861       860       951      3418      3700      3701
 -1      1796    8    0    1
 -2       860       950       951      3698      3702      3700
 -1      1797    8    0    1
 -2       862       861       952      3421      3703      3704
 -1      1798    8    0    1
 -2       861       951       952      3701      3705      3703
 -1      1799    8    0    1
 -2       863       862       953      3424      3706      3707
 -1      1800    8    0    1
 -2       862       952       953      3704      3708      3706
 -1      1801    8    0    1
 -2       864       863       886      3428      3709      3579
 -1      1802    8    0    1
 -2       896       878       954      3521      3710      3711
 -1      1803    8    0    1
 -2       878       916       954      3594      3712      3710
 -1      1804    8    0    1
 -2       825       866       955      3433      3713      3714
 -1      1805    8    0    1
 -2       867       865       956      3436      3715      3716
 -1      1806    8    0    1
 -2       869       870       957      3444      3717      3718
 -1      1807    8    0    1
 -2       868       869       958      3441      3719      3720
 -1      1808    8    0    1
 -2       869       957       958      3718      3721      3719
 -1      1809    8    0    1
 -2       871       872       959      3450      3722      3723
 -1      1810    8    0    1
 -2       872       873       960      3453      3724      3725
 -1      1811    8    0    1
 -2       872       960       959      3725      3726      3722
 -1      1812    8    0    1
 -2       873       874       961      3456      3727      3728
 -1      1813    8    0    1
 -2       873       961       960      3728      3729      3724
 -1      1814    8    0    1
 -2       874       875       962      3459      3730      3731
 -1      1815    8    0    1
 -2       874       962       961      3731      3732      3727
 -1      1816    8    0    1
 -2       875       876       963      3462      3733      3734
 -1      1817    8    0    1
 -2       875       963       962      3734      3735      3730
 -1      1818    8    0    1
 -2       823       891       917      3504      3736      3599
 -1      1819    8    0    1
 -2       877       881       964      3475      3737      3738
 -1      1820    8    0    1
 -2       884       886       965      3489      3739      3740
 -1      1821    8    0    1
 -2       887       884       966      3492      3741      3742
 -1      1822    8    0    1
 -2       884       965       966      3740      3743      3741
 -1      1823    8    0    1
 -2       888       867       967      3495      3744      3745
 -1      1824    8    0    1
 -2       867       956       967      3716      3746      3744
 -1      1825    8    0    1
 -2       909       894       880      3566      3747      3596
 -1      1826    8    0    1
 -2       889       887       968      3498      3748      3749
 -1      1827    8    0    1
 -2       887       966       968      3742      3750      3748
 -1      1828    8    0    1
 -2       890       877       969      3501      3751      3752
 -1      1829    8    0    1
 -2       877       964       969      3738      3753      3751
 -1      1830    8    0    1
 -2       879       800       913      3542      3582      3754
 -1      1831    8    0    1
 -2       893       815       970      3570      3755      3756
 -1      1832    8    0    1
 -2       904       893       970      3544      3756      3757
 -1      1833    8    0    1
 -2       815       911       970      3572      3758      3755
 -1      1834    8    0    1
 -2       894       889       971      3514      3759      3760
 -1      1835    8    0    1
 -2       889       968       971      3749      3761      3759
 -1      1836    8    0    1
 -2       899       885       972      3559      3762      3763
 -1      1837    8    0    1
 -2       870       871       973      3447      3764      3765
 -1      1838    8    0    1
 -2       870       973       957      3765      3766      3717
 -1      1839    8    0    1
 -2       827       826       974      3316      3767      3768
 -1      1840    8    0    1
 -2       827       974       919      3768      3769      3606
 -1      1841    8    0    1
 -2       808       902       975      3537      3770      3771
 -1      1842    8    0    1
 -2       808       975       903      3771      3772      3538
 -1      1843    8    0    1
 -2       882       898       976      3552      3773      3774
 -1      1844    8    0    1
 -2       817       824       977      3309      3775      3776
 -1      1845    8    0    1
 -2       885       820       978      3553      3777      3778
 -1      1846    8    0    1
 -2       820       915       978      3590      3779      3777
 -1      1847    8    0    1
 -2       876       900       979      3531      3780      3781
 -1      1848    8    0    1
 -2       876       979       963      3781      3782      3733
 -1      1849    8    0    1
 -2       818       822       980      3584      3783      3784
 -1      1850    8    0    1
 -2       912       818       980      3576      3784      3785
 -1      1851    8    0    1
 -2       822       906       980      3551      3786      3783
 -1      1852    8    0    1
 -2       902       817       977      3601      3776      3787
 -1      1853    8    0    1
 -2       826       896       981      3600      3788      3789
 -1      1854    8    0    1
 -2       974       826       981      3767      3789      3790
 -1      1855    8    0    1
 -2       896       954       981      3711      3791      3788
 -1      1856    8    0    1
 -2       880       894       971      3747      3760      3792
 -1      1857    8    0    1
 -2       905       918       982      3604      3793      3794
 -1      1858    8    0    1
 -2       811       903       983      3540      3795      3796
 -1      1859    8    0    1
 -2       811       983       910      3796      3797      3567
 -1      1860    8    0    1
 -2       906       890       984      3549      3798      3799
 -1      1861    8    0    1
 -2       890       969       984      3752      3800      3798
 -1      1862    8    0    1
 -2       866       895       985      3517      3801      3802
 -1      1863    8    0    1
 -2       866       985       955      3802      3803      3713
 -1      1864    8    0    1
 -2       886       863       953      3709      3707      3804
 -1      1865    8    0    1
 -2       849       848       986      3382      3805      3806
 -1      1866    8    0    1
 -2       849       986       940      3806      3807      3668
 -1      1867    8    0    1
 -2       956       865       987      3715      3808      3809
 -1      1868    8    0    1
 -2       865       892       987      3507      3810      3808
 -1      1869    8    0    1
 -2       886       953       965      3804      3811      3739
 -1      1870    8    0    1
 -2       871       959       973      3723      3812      3764
 -1      1871    8    0    1
 -2       917       891       988      3736      3813      3814
 -1      1872    8    0    1
 -2       964       881       989      3737      3815      3816
 -1      1873    8    0    1
 -2       881       883       989      3481      3817      3815
 -1      1874    8    0    1
 -2       901       812       986      3535      3818      3819
 -1      1875    8    0    1
 -2       848       939       986      3666      3820      3805
 -1      1876    8    0    1
 -2       904       970       990      3757      3821      3822
 -1      1877    8    0    1
 -2       902       977       991      3787      3823      3824
 -1      1878    8    0    1
 -2       898       917       992      3598      3825      3826
 -1      1879    8    0    1
 -2       976       898       992      3773      3826      3827
 -1      1880    8    0    1
 -2       917       988       992      3814      3828      3825
 -1      1881    8    0    1
 -2       888       967       993      3745      3829      3830
 -1      1882    8    0    1
 -2       888       993       895      3830      3831      3518
 -1      1883    8    0    1
 -2       883       880       994      3482      3832      3833
 -1      1884    8    0    1
 -2       989       883       994      3817      3833      3834
 -1      1885    8    0    1
 -2       880       971       994      3792      3835      3832
 -1      1886    8    0    1
 -2       907       816       995      3558      3836      3837
 -1      1887    8    0    1
 -2       816       910       995      3569      3838      3836
 -1      1888    8    0    1
 -2       824       901       977      3534      3839      3775
 -1      1889    8    0    1
 -2       897       899       941      3543      3840      3841
 -1      1890    8    0    1
 -2       911       905       996      3573      3842      3843
 -1      1891    8    0    1
 -2       905       982       996      3794      3844      3842
 -1      1892    8    0    1
 -2       892       868       997      3508      3845      3846
 -1      1893    8    0    1
 -2       987       892       997      3810      3846      3847
 -1      1894    8    0    1
 -2       868       958       997      3720      3848      3845
 -1      1895    8    0    1
 -2       913       825       998      3580      3849      3850
 -1      1896    8    0    1
 -2       825       955       998      3714      3851      3849
 -1      1897    8    0    1
 -2       972       885       978      3762      3778      3852
 -1      1898    8    0    1
 -2       916       904       999      3595      3853      3854
 -1      1899    8    0    1
 -2       954       916       999      3712      3854      3855
 -1      1900    8    0    1
 -2       904       990       999      3822      3856      3853
 -1      1901    8    0    1
 -2       975       902       991      3770      3824      3857
 -1      1902    8    0    1
 -2       879       913      1000      3754      3858      3859
 -1      1903    8    0    1
 -2       918       879      1000      3605      3859      3860
 -1      1904    8    0    1
 -2       913       998      1000      3850      3861      3858
 -1      1905    8    0    1
 -2       915       882      1001      3591      3862      3863
 -1      1906    8    0    1
 -2       882       976      1001      3774      3864      3862
 -1      1907    8    0    1
 -2       891       912       988      3575      3865      3813
 -1      1908    8    0    1
 -2       979       900       914      3780      3587      3866
 -1      1909    8    0    1
 -2       941       899       942      3840      3867      3675
 -1      1910    8    0    1
 -2       971       968      1002      3761      3868      3869
 -1      1911    8    0    1
 -2       971      1002       994      3869      3870      3835
 -1      1912    8    0    1
 -2       920       919      1003      3610      3871      3872
 -1      1913    8    0    1
 -2       963       979      1004      3782      3873      3874
 -1      1914    8    0    1
 -2       958       957      1005      3721      3875      3876
 -1      1915    8    0    1
 -2       975       991      1006      3857      3877      3878
 -1      1916    8    0    1
 -2       921       920      1007      3613      3879      3880
 -1      1917    8    0    1
 -2       920      1003      1007      3872      3881      3879
 -1      1918    8    0    1
 -2       922       921      1008      3616      3882      3883
 -1      1919    8    0    1
 -2       921      1007      1008      3880      3884      3882
 -1      1920    8    0    1
 -2       923       922      1009      3619      3885      3886
 -1      1921    8    0    1
 -2       922      1008      1009      3883      3887      3885
 -1      1922    8    0    1
 -2       924       923      1010      3622      3888      3889
 -1      1923    8    0    1
 -2       923      1009      1010      3886      3890      3888
 -1      1924    8    0    1
 -2       925       924      1011      3625      3891      3892
 -1      1925    8    0    1
 -2       924      1010      1011      3889      3893      3891
 -1      1926    8    0    1
 -2       926       925      1012      3628      3894      3895
 -1      1927    8    0    1
 -2       925      1011      1012      3892      3896      3894
 -1      1928    8    0    1
 -2       927       926      1013      3631      3897      3898
 -1      1929    8    0    1
 -2       926      1012      1013      3895      3899      3897
 -1      1930    8    0    1
 -2       928       927      1014      3634      3900      3901
 -1      1931    8    0    1
 -2       927      1013      1014      3898      3902      3900
 -1      1932    8    0    1
 -2       929       928      1015      3637      3903      3904
 -1      1933    8    0    1
 -2       928      1014      1015      3901      3905      3903
 -1      1934    8    0    1
 -2       930       929      1016      3640      3906      3907
 -1      1935    8    0    1
 -2       929      1015      1016      3904      3908      3906
 -1      1936    8    0    1
 -2       931       930      1017      3643      3909      3910
 -1      1937    8    0    1
 -2       930      1016      1017      3907      3911      3909
 -1      1938    8    0    1
 -2       932       931      1018      3646      3912      3913
 -1      1939    8    0    1
 -2       931      1017      1018      3910      3914      3912
 -1      1940    8    0    1
 -2       933       932      1019      3649      3915      3916
 -1      1941    8    0    1
 -2       932      1018      1019      3913      3917      3915
 -1      1942    8    0    1
 -2       934       933      1020      3652      3918      3919
 -1      1943    8    0    1
 -2       933      1019      1020      3916      3920      3918
 -1      1944    8    0    1
 -2       935       934      1021      3655      3921      3922
 -1      1945    8    0    1
 -2       934      1020      1021      3919      3923      3921
 -1      1946    8    0    1
 -2       936       935      1006      3658      3924      3925
 -1      1947    8    0    1
 -2       937       936       991      3661      3926      3927
 -1      1948    8    0    1
 -2       938       937       977      3664      3928      3929
 -1      1949    8    0    1
 -2       939       938       977      3667      3929      3930
 -1      1950    8    0    1
 -2       944       943      1022      3681      3931      3932
 -1      1951    8    0    1
 -2       945       944      1023      3684      3933      3934
 -1      1952    8    0    1
 -2       944      1022      1023      3932      3935      3933
 -1      1953    8    0    1
 -2       946       945      1024      3687      3936      3937
 -1      1954    8    0    1
 -2       945      1023      1024      3934      3938      3936
 -1      1955    8    0    1
 -2       947       946      1025      3690      3939      3940
 -1      1956    8    0    1
 -2       946      1024      1025      3937      3941      3939
 -1      1957    8    0    1
 -2       948       947      1026      3693      3942      3943
 -1      1958    8    0    1
 -2       947      1025      1026      3940      3944      3942
 -1      1959    8    0    1
 -2       949       948      1027      3696      3945      3946
 -1      1960    8    0    1
 -2       948      1026      1027      3943      3947      3945
 -1      1961    8    0    1
 -2       950       949      1028      3699      3948      3949
 -1      1962    8    0    1
 -2       949      1027      1028      3946      3950      3948
 -1      1963    8    0    1
 -2       951       950      1029      3702      3951      3952
 -1      1964    8    0    1
 -2       950      1028      1029      3949      3953      3951
 -1      1965    8    0    1
 -2       952       951      1030      3705      3954      3955
 -1      1966    8    0    1
 -2       951      1029      1030      3952      3956      3954
 -1      1967    8    0    1
 -2       953       952      1031      3708      3957      3958
 -1      1968    8    0    1
 -2       965       953      1031      3811      3958      3959
 -1      1969    8    0    1
 -2       952      1030      1031      3955      3960      3957
 -1      1970    8    0    1
 -2       991       977       937      3823      3928      3927
 -1      1971    8    0    1
 -2       991       936      1006      3926      3925      3877
 -1      1972    8    0    1
 -2       982       918      1000      3793      3860      3961
 -1      1973    8    0    1
 -2       979       914      1032      3866      3962      3963
 -1      1974    8    0    1
 -2      1004       979      1032      3873      3963      3964
 -1      1975    8    0    1
 -2       914       907      1032      3588      3965      3962
 -1      1976    8    0    1
 -2       960       961      1033      3729      3966      3967
 -1      1977    8    0    1
 -2       959       960      1034      3726      3968      3969
 -1      1978    8    0    1
 -2       960      1033      1034      3967      3970      3968
 -1      1979    8    0    1
 -2       962       963      1035      3735      3971      3972
 -1      1980    8    0    1
 -2       963      1004      1035      3874      3973      3971
 -1      1981    8    0    1
 -2       973       959      1036      3812      3974      3975
 -1      1982    8    0    1
 -2       959      1034      1036      3969      3976      3974
 -1      1983    8    0    1
 -2       986       812       908      3818      3561      3977
 -1      1984    8    0    1
 -2       986       939       901      3820      3978      3819
 -1      1985    8    0    1
 -2       903       975      1037      3772      3979      3980
 -1      1986    8    0    1
 -2       903      1037       983      3980      3981      3795
 -1      1987    8    0    1
 -2       908       897       940      3562      3982      3983
 -1      1988    8    0    1
 -2       967       956      1038      3746      3984      3985
 -1      1989    8    0    1
 -2       978       915      1039      3779      3986      3987
 -1      1990    8    0    1
 -2       968       966      1040      3750      3988      3989
 -1      1991    8    0    1
 -2       968      1040      1002      3989      3990      3868
 -1      1992    8    0    1
 -2       969       964      1041      3753      3991      3992
 -1      1993    8    0    1
 -2       897       941       940      3841      3672      3982
 -1      1994    8    0    1
 -2       899       972       942      3763      3993      3867
 -1      1995    8    0    1
 -2       970       911      1042      3758      3994      3995
 -1      1996    8    0    1
 -2       990       970      1042      3821      3995      3996
 -1      1997    8    0    1
 -2       911       996      1042      3843      3997      3994
 -1      1998    8    0    1
 -2       977       901       939      3839      3978      3930
 -1      1999    8    0    1
 -2       957       973      1043      3766      3998      3999
 -1      2000    8    0    1
 -2       973      1036      1043      3975      4000      3998
 -1      2001    8    0    1
 -2       908       940       986      3983      3807      3977
 -1      2002    8    0    1
 -2       961       962      1044      3732      4001      4002
 -1      2003    8    0    1
 -2      1033       961      1044      3966      4002      4003
 -1      2004    8    0    1
 -2       962      1035      1044      3972      4004      4001
 -1      2005    8    0    1
 -2       919       974      1045      3769      4005      4006
 -1      2006    8    0    1
 -2       919      1045      1003      4006      4007      3871
 -1      2007    8    0    1
 -2       972       978      1022      3852      4008      4009
 -1      2008    8    0    1
 -2       966       965      1031      3743      3959      4010
 -1      2009    8    0    1
 -2       988       912      1046      3865      4011      4012
 -1      2010    8    0    1
 -2       942       972       943      3993      4013      3678
 -1      2011    8    0    1
 -2       943       972      1022      4013      4009      3931
 -1      2012    8    0    1
 -2       910       983      1047      3797      4014      4015
 -1      2013    8    0    1
 -2       910      1047       995      4015      4016      3838
 -1      2014    8    0    1
 -2       984       969      1048      3800      4017      4018
 -1      2015    8    0    1
 -2       969      1041      1048      3992      4019      4017
 -1      2016    8    0    1
 -2       985       895       993      3801      3831      4020
 -1      2017    8    0    1
 -2       992       988      1049      3828      4021      4022
 -1      2018    8    0    1
 -2       988      1046      1049      4012      4023      4021
 -1      2019    8    0    1
 -2       958      1005      1050      3876      4024      4025
 -1      2020    8    0    1
 -2       958      1050       997      4025      4026      3848
 -1      2021    8    0    1
 -2       975      1006      1037      3878      4027      3979
 -1      2022    8    0    1
 -2       935      1021      1006      3922      4028      3924
 -1      2023    8    0    1
 -2       957      1043      1005      3999      4029      3875
 -1      2024    8    0    1
 -2       956       987      1051      3809      4030      4031
 -1      2025    8    0    1
 -2       956      1051      1038      4031      4032      3984
 -1      2026    8    0    1
 -2       998       955      1052      3851      4033      4034
 -1      2027    8    0    1
 -2      1032       907       995      3965      3837      4035
 -1      2028    8    0    1
 -2       915      1001      1039      3863      4036      3986
 -1      2029    8    0    1
 -2       964       989      1053      3816      4037      4038
 -1      2030    8    0    1
 -2       964      1053      1041      4038      4039      3991
 -1      2031    8    0    1
 -2       912       980      1046      3785      4040      4011
 -1      2032    8    0    1
 -2       976       992      1054      3827      4041      4042
 -1      2033    8    0    1
 -2       992      1049      1054      4022      4043      4041
 -1      2034    8    0    1
 -2      1040       966      1031      3988      4010      4044
 -1      2035    8    0    1
 -2       996       982      1055      3844      4045      4046
 -1      2036    8    0    1
 -2       967      1038      1056      3985      4047      4048
 -1      2037    8    0    1
 -2       967      1056       993      4048      4049      3829
 -1      2038    8    0    1
 -2       955       985      1057      3803      4050      4051
 -1      2039    8    0    1
 -2       955      1057      1052      4051      4052      4033
 -1      2040    8    0    1
 -2       978      1039      1022      3987      4053      4008
 -1      2041    8    0    1
 -2       999       990      1058      3856      4054      4055
 -1      2042    8    0    1
 -2       906       984      1059      3799      4056      4057
 -1      2043    8    0    1
 -2       906      1059       980      4057      4058      3786
 -1      2044    8    0    1
 -2       954       999       981      3855      4059      3791
 -1      2045    8    0    1
 -2      1045       974      1058      4005      4060      4061
 -1      2046    8    0    1
 -2       976      1054      1001      4042      4062      3864
 -1      2047    8    0    1
 -2       990      1042      1060      3996      4063      4064
 -1      2048    8    0    1
 -2       990      1060      1058      4064      4065      4054
 -1      2049    8    0    1
 -2      1058       974       981      4060      3790      4066
 -1      2050    8    0    1
 -2      1008      1007      1061      3884      4067      4068
 -1      2051    8    0    1
 -2      1009      1008      1062      3887      4069      4070
 -1      2052    8    0    1
 -2      1008      1061      1062      4068      4071      4069
 -1      2053    8    0    1
 -2      1010      1009      1063      3890      4072      4073
 -1      2054    8    0    1
 -2      1009      1062      1063      4070      4074      4072
 -1      2055    8    0    1
 -2      1011      1010      1064      3893      4075      4076
 -1      2056    8    0    1
 -2      1010      1063      1064      4073      4077      4075
 -1      2057    8    0    1
 -2      1012      1011      1065      3896      4078      4079
 -1      2058    8    0    1
 -2      1011      1064      1065      4076      4080      4078
 -1      2059    8    0    1
 -2      1013      1012      1066      3899      4081      4082
 -1      2060    8    0    1
 -2      1012      1065      1066      4079      4083      4081
 -1      2061    8    0    1
 -2      1014      1013      1067      3902      4084      4085
 -1      2062    8    0    1
 -2      1013      1066      1067      4082      4086      4084
 -1      2063    8    0    1
 -2      1015      1014      1068      3905      4087      4088
 -1      2064    8    0    1
 -2      1014      1067      1068      4085      4089      4087
 -1      2065    8    0    1
 -2      1016      1015      1069      3908      4090      4091
 -1      2066    8    0    1
 -2      1015      1068      1069      4088      4092      4090
 -1      2067    8    0    1
 -2      1017      1016      1070      3911      4093      4094
 -1      2068    8    0    1
 -2      1016      1069      1070      4091      4095      4093
 -1      2069    8    0    1
 -2      1018      1017      1071      3914      4096      4097
 -1      2070    8    0    1
 -2      1017      1070      1071      4094      4098      4096
 -1      2071    8    0    1
 -2      1019      1018      1072      3917      4099      4100
 -1      2072    8    0    1
 -2      1018      1071      1072      4097      4101      4099
 -1      2073    8    0    1
 -2      1020      1019      1073      3920      4102      4103
 -1      2074    8    0    1
 -2      1019      1072      1073      4100      4104      4102
 -1      2075    8    0    1
 -2      1021      1020      1074      3923      4105      4106
 -1      2076    8    0    1
 -2      1020      1073      1074      4103      4107      4105
 -1      2077    8    0    1
 -2      1005      1043      1075      4029      4108      4109
 -1      2078    8    0    1
 -2      1022      1039      1023      4053      4110      3935
 -1      2079    8    0    1
 -2      1032       995      1076      4035      4111      4112
 -1      2080    8    0    1
 -2       995      1047      1076      4016      4113      4111
 -1      2081    8    0    1
 -2      1024      1023      1077      3938      4114      4115
 -1      2082    8    0    1
 -2      1023      1039      1077      4110      4116      4114
 -1      2083    8    0    1
 -2      1025      1024      1078      3941      4117      4118
 -1      2084    8    0    1
 -2      1024      1077      1078      4115      4119      4117
 -1      2085    8    0    1
 -2      1026      1025      1079      3944      4120      4121
 -1      2086    8    0    1
 -2      1025      1078      1079      4118      4122      4120
 -1      2087    8    0    1
 -2      1027      1026      1080      3947      4123      4124
 -1      2088    8    0    1
 -2      1026      1079      1080      4121      4125      4123
 -1      2089    8    0    1
 -2      1028      1027      1081      3950      4126      4127
 -1      2090    8    0    1
 -2      1027      1080      1081      4124      4128      4126
 -1      2091    8    0    1
 -2      1029      1028      1082      3953      4129      4130
 -1      2092    8    0    1
 -2      1028      1081      1082      4127      4131      4129
 -1      2093    8    0    1
 -2      1030      1029      1083      3956      4132      4133
 -1      2094    8    0    1
 -2      1029      1082      1083      4130      4134      4132
 -1      2095    8    0    1
 -2      1031      1030      1084      3960      4135      4136
 -1      2096    8    0    1
 -2      1040      1031      1084      4044      4136      4137
 -1      2097    8    0    1
 -2      1030      1083      1084      4133      4138      4135
 -1      2098    8    0    1
 -2      1034      1033      1085      3970      4139      4140
 -1      2099    8    0    1
 -2      1035      1004      1086      3973      4141      4142
 -1      2100    8    0    1
 -2      1036      1034      1087      3976      4143      4144
 -1      2101    8    0    1
 -2      1034      1085      1087      4140      4145      4143
 -1      2102    8    0    1
 -2       998      1052      1055      4034      4146      4147
 -1      2103    8    0    1
 -2      1006      1021      1088      4028      4148      4149
 -1      2104    8    0    1
 -2      1037      1006      1088      4027      4149      4150
 -1      2105    8    0    1
 -2      1021      1074      1088      4106      4151      4148
 -1      2106    8    0    1
 -2      1004      1032      1076      3964      4112      4152
 -1      2107    8    0    1
 -2      1055       982       998      4045      4153      4147
 -1      2108    8    0    1
 -2       983      1037      1089      3981      4154      4155
 -1      2109    8    0    1
 -2      1047       983      1089      4014      4155      4156
 -1      2110    8    0    1
 -2      1037      1088      1089      4150      4157      4154
 -1      2111    8    0    1
 -2      1058       981       999      4066      4059      4055
 -1      2112    8    0    1
 -2      1046       980      1059      4040      4058      4158
 -1      2113    8    0    1
 -2       985       993      1090      4020      4159      4160
 -1      2114    8    0    1
 -2      1057       985      1090      4050      4160      4161
 -1      2115    8    0    1
 -2       993      1056      1090      4049      4162      4159
 -1      2116    8    0    1
 -2      1042       996      1091      3997      4163      4164
 -1      2117    8    0    1
 -2      1060      1042      1091      4063      4164      4165
 -1      2118    8    0    1
 -2       996      1055      1091      4046      4166      4163
 -1      2119    8    0    1
 -2      1039      1001      1077      4036      4167      4116
 -1      2120    8    0    1
 -2      1055      1052      1092      4146      4168      4169
 -1      2121    8    0    1
 -2      1055      1092      1091      4169      4170      4166
 -1      2122    8    0    1
 -2       989       994      1093      3834      4171      4172
 -1      2123    8    0    1
 -2      1053       989      1093      4037      4172      4173
 -1      2124    8    0    1
 -2       994      1002      1093      3870      4174      4171
 -1      2125    8    0    1
 -2      1003      1045      1094      4007      4175      4176
 -1      2126    8    0    1
 -2       987       997      1095      3847      4177      4178
 -1      2127    8    0    1
 -2      1051       987      1095      4030      4178      4179
 -1      2128    8    0    1
 -2       997      1050      1095      4026      4180      4177
 -1      2129    8    0    1
 -2      1007      1003      1096      3881      4181      4182
 -1      2130    8    0    1
 -2      1007      1096      1061      4182      4183      4067
 -1      2131    8    0    1
 -2      1001      1054      1077      4062      4184      4167
 -1      2132    8    0    1
 -2      1043      1036      1097      4000      4185      4186
 -1      2133    8    0    1
 -2      1036      1087      1097      4144      4187      4185
 -1      2134    8    0    1
 -2      1045      1058      1098      4061      4188      4189
 -1      2135    8    0    1
 -2      1094      1045      1098      4175      4189      4190
 -1      2136    8    0    1
 -2      1058      1060      1098      4065      4191      4188
 -1      2137    8    0    1
 -2      1048      1041      1099      4019      4192      4193
 -1      2138    8    0    1
 -2      1049      1046      1100      4023      4194      4195
 -1      2139    8    0    1
 -2      1050      1005      1101      4024      4196      4197
 -1      2140    8    0    1
 -2      1005      1075      1101      4109      4198      4196
 -1      2141    8    0    1
 -2      1004      1076      1086      4152      4199      4141
 -1      2142    8    0    1
 -2      1075      1043      1097      4108      4186      4200
 -1      2143    8    0    1
 -2      1096      1003      1094      4181      4176      4201
 -1      2144    8    0    1
 -2      1044      1035      1102      4004      4202      4203
 -1      2145    8    0    1
 -2      1035      1086      1102      4142      4204      4202
 -1      2146    8    0    1
 -2       984      1048      1103      4018      4205      4206
 -1      2147    8    0    1
 -2       984      1103      1059      4206      4207      4056
 -1      2148    8    0    1
 -2      1099      1041      1104      4192      4208      4209
 -1      2149    8    0    1
 -2      1041      1053      1104      4039      4210      4208
 -1      2150    8    0    1
 -2      1033      1044      1105      4003      4211      4212
 -1      2151    8    0    1
 -2      1085      1033      1105      4139      4212      4213
 -1      2152    8    0    1
 -2      1044      1102      1105      4203      4214      4211
 -1      2153    8    0    1
 -2      1054      1049      1106      4043      4215      4216
 -1      2154    8    0    1
 -2      1049      1100      1106      4195      4217      4215
 -1      2155    8    0    1
 -2      1056      1038      1107      4047      4218      4219
 -1      2156    8    0    1
 -2      1002      1040      1108      3990      4220      4221
 -1      2157    8    0    1
 -2      1092      1052      1057      4168      4052      4222
 -1      2158    8    0    1
 -2       998       982      1000      4153      3961      3861
 -1      2159    8    0    1
 -2      1046      1059      1100      4158      4223      4194
 -1      2160    8    0    1
 -2      1077      1054      1078      4184      4224      4119
 -1      2161    8    0    1
 -2      1038      1051      1109      4032      4225      4226
 -1      2162    8    0    1
 -2      1038      1109      1107      4226      4227      4218
 -1      2163    8    0    1
 -2      1078      1054      1106      4224      4216      4228
 -1      2164    8    0    1
 -2      1108      1040      1084      4220      4137      4229
 -1      2165    8    0    1
 -2      1002      1108      1093      4221      4230      4174
 -1      2166    8    0    1
 -2      1056      1107      1110      4219      4231      4232
 -1      2167    8    0    1
 -2      1056      1110      1090      4232      4233      4162
 -1      2168    8    0    1
 -2      1063      1062      1109      4074      4234      4235
 -1      2169    8    0    1
 -2      1065      1064      1111      4080      4236      4237
 -1      2170    8    0    1
 -2      1066      1065      1101      4083      4238      4239
 -1      2171    8    0    1
 -2      1067      1066      1075      4086      4240      4241
 -1      2172    8    0    1
 -2      1068      1067      1097      4089      4242      4243
 -1      2173    8    0    1
 -2      1069      1068      1087      4092      4244      4245
 -1      2174    8    0    1
 -2      1070      1069      1085      4095      4246      4247
 -1      2175    8    0    1
 -2      1071      1070      1105      4098      4248      4249
 -1      2176    8    0    1
 -2      1072      1071      1102      4101      4250      4251
 -1      2177    8    0    1
 -2      1073      1072      1086      4104      4252      4253
 -1      2178    8    0    1
 -2      1086      1072      1102      4252      4251      4204
 -1      2179    8    0    1
 -2      1093      1108      1053      4230      4254      4173
 -1      2180    8    0    1
 -2      1053      1108      1104      4254      4255      4210
 -1      2181    8    0    1
 -2      1076      1047      1112      4113      4256      4257
 -1      2182    8    0    1
 -2      1047      1089      1112      4156      4258      4256
 -1      2183    8    0    1
 -2      1108      1084      1083      4229      4138      4259
 -1      2184    8    0    1
 -2      1061      1096      1113      4183      4260      4261
 -1      2185    8    0    1
 -2      1079      1078      1106      4122      4228      4262
 -1      2186    8    0    1
 -2      1081      1080      1114      4128      4263      4264
 -1      2187    8    0    1
 -2      1082      1081      1099      4131      4265      4266
 -1      2188    8    0    1
 -2      1083      1082      1104      4134      4267      4268
 -1      2189    8    0    1
 -2      1075      1097      1067      4200      4242      4241
 -1      2190    8    0    1
 -2      1060      1091      1115      4165      4269      4270
 -1      2191    8    0    1
 -2      1098      1060      1115      4191      4270      4271
 -1      2192    8    0    1
 -2      1091      1092      1115      4170      4272      4269
 -1      2193    8    0    1
 -2      1092      1057      1116      4222      4273      4274
 -1      2194    8    0    1
 -2      1085      1069      1087      4246      4245      4145
 -1      2195    8    0    1
 -2      1100      1059      1103      4223      4207      4275
 -1      2196    8    0    1
 -2      1087      1068      1097      4244      4243      4187
 -1      2197    8    0    1
 -2      1075      1066      1101      4240      4239      4198
 -1      2198    8    0    1
 -2      1096      1094      1116      4201      4276      4277
 -1      2199    8    0    1
 -2      1062      1061      1107      4071      4278      4279
 -1      2200    8    0    1
 -2      1048      1099      1114      4193      4280      4281
 -1      2201    8    0    1
 -2      1070      1085      1105      4247      4213      4248
 -1      2202    8    0    1
 -2      1108      1083      1104      4259      4268      4255
 -1      2203    8    0    1
 -2      1099      1081      1114      4265      4264      4280
 -1      2204    8    0    1
 -2      1079      1106      1117      4262      4282      4283
 -1      2205    8    0    1
 -2      1080      1079      1117      4125      4283      4284
 -1      2206    8    0    1
 -2      1106      1100      1117      4217      4285      4282
 -1      2207    8    0    1
 -2      1082      1099      1104      4266      4209      4267
 -1      2208    8    0    1
 -2      1062      1107      1109      4279      4227      4234
 -1      2209    8    0    1
 -2      1050      1101      1111      4197      4286      4287
 -1      2210    8    0    1
 -2      1065      1111      1101      4237      4286      4238
 -1      2211    8    0    1
 -2      1064      1063      1118      4077      4288      4289
 -1      2212    8    0    1
 -2      1116      1094      1098      4276      4190      4290
 -1      2213    8    0    1
 -2      1071      1105      1102      4249      4214      4250
 -1      2214    8    0    1
 -2      1073      1086      1119      4253      4291      4292
 -1      2215    8    0    1
 -2      1074      1073      1119      4107      4292      4293
 -1      2216    8    0    1
 -2      1103      1048      1114      4205      4281      4294
 -1      2217    8    0    1
 -2      1113      1096      1116      4260      4277      4295
 -1      2218    8    0    1
 -2      1118      1063      1109      4288      4235      4296
 -1      2219    8    0    1
 -2      1114      1080      1117      4263      4284      4297
 -1      2220    8    0    1
 -2      1111      1064      1118      4236      4289      4298
 -1      2221    8    0    1
 -2      1088      1074      1112      4151      4299      4300
 -1      2222    8    0    1
 -2      1117      1100      1103      4285      4275      4301
 -1      2223    8    0    1
 -2      1057      1090      1116      4161      4302      4273
 -1      2224    8    0    1
 -2      1095      1050      1111      4180      4287      4303
 -1      2225    8    0    1
 -2      1086      1076      1112      4199      4257      4304
 -1      2226    8    0    1
 -2      1109      1051      1118      4225      4305      4296
 -1      2227    8    0    1
 -2      1118      1051      1095      4305      4179      4306
 -1      2228    8    0    1
 -2      1092      1116      1115      4274      4307      4272
 -1      2229    8    0    1
 -2      1117      1103      1114      4301      4294      4297
 -1      2230    8    0    1
 -2      1118      1095      1111      4306      4303      4298
 -1      2231    8    0    1
 -2      1107      1061      1110      4278      4308      4231
 -1      2232    8    0    1
 -2      1074      1119      1112      4293      4309      4299
 -1      2233    8    0    1
 -2      1090      1110      1116      4233      4310      4302
 -1      2234    8    0    1
 -2      1089      1088      1112      4157      4300      4258
 -1      2235    8    0    1
 -2      1086      1112      1119      4304      4309      4291
 -1      2236    8    0    1
 -2      1116      1098      1115      4290      4271      4307
 -1      2237    8    0    1
 -2      1061      1113      1110      4261      4311      4308
 -1      2238    8    0    1
 -2      1116      1110      1113      4310      4311      4295
 -3
    1PSTEP                         1           1           1          
  100CL  101 1.000000000        4311                     0    1           1
 -4  DISP        4    1
 -5  D1          1    2    1    0
 -5  D2          1    2    2    0
 -5  D3          1    2    3    0
 -5  ALL         1    2    0    0    1ALL
 -1         1 7.51231E-03 2.23749E-04-2.47486E-14
 -1         2 1.21857E-02 1.24357E-03-3.28793E-14
 -1         3 1.72553E-02 5.19717E-03-8.00142E-14
 -1         4 1.35238E-02 3.77610E-03-7.64961E-14
 -1         5 0.00000E+00 0.00000E+00 0.00000E+00
 -1         6 0.00000E+00 0.00000E+00 0.00000E+00
 -1         7 0.00000E+00 0.00000E+00 0.00000E+00
 -1         8 0.00000E+00 0.00000E+00 0.00000E+00
 -1         9 0.00000E+00 0.00000E+00 0.00000E+00
 -1        10 0.00000E+00 0.00000E+00 0.00000E+00
 -1        11 0.00000E+00 0.00000E+00 0.00000E+00
 -1        12 0.00000E+00 0.00000E+00 0.00000E+00
 -1        13 0.00000E+00 0.00000E+00 0.00000E+00
 -1        14 0.00000E+00 0.00000E+00 0.00000E+00
 -1        15 0.00000E+00 0.00000E+00 0.00000E+00
 -1        16 0.00000E+00 0.00000E+00 0.00000E+00
 -1        17 0.00000E+00 0.00000E+00 0.00000E+00
 -1        18 0.00000E+00 0.00000E+00 0.00000E+00
 -1        19 0.00000E+00 0.00000E+00 0.00000E+00
 -1        20 0.00000E+00 0.00000E+00 0.00000E+00
 -1        21 0.00000E+00 0.00000E+00 0.00000E+00
 -1        22 0.00000E+00 0.00000E+00 0.00000E+00
 -1        23 4.11346E-04-2.60693E-04 3.67341E-17
 -1        24 7.03318E-04-4.00886E-04 1.28885E-17
 -1        25 9.73391E-04-4.98200E-04-7.46846E-17
 -1        26 1.23790E-03-5.66869E-04-2.26168E-16
 -1        27 1.50146E-03-6.16034E-04-4.42046E-16
 -1        28 1.76619E-03-6.51078E-04-7.23580E-16
 -1        29 2.03304E-03-6.75711E-04-1.07323E-15
 -1        30 2.30239E-03-6.92635E-04-1.49268E-15
 -1        31 2.57431E-03-7.03878E-04-1.98335E-15
 -1        32 2.84869E-03-7.10983E-04-2.54157E-15
 -1        33 3.12533E-03-7.15133E-04-3.16476E-15
 -1        34 3.40397E-03-7.17235E-04-3.84775E-15
 -1        35 3.68436E-03-7.17993E-04-4.59504E-15
 -1        36 3.96626E-03-7.17960E-04-5.40373E-15
 -1        37 4.24940E-03-7.17592E-04-6.27096E-15
 -1        38 4.53353E-03-7.17275E-04-7.19493E-15
 -1        39 4.81836E-03-7.17358E-04-8.17629E-15
 -1        40 5.10348E-03-7.18148E-04-9.21649E-15
 -1        41 5.38837E-03-7.19900E-04-1.03145E-14
 -1        42 5.67226E-03-7.22744E-04-1.14749E-14
 -1        43 5.95410E-03-7.26585E-04-1.27058E-14
 -1        44 6.23250E-03-7.30930E-04-1.40135E-14
 -1        45 6.50574E-03-7.34675E-04-1.53956E-14
 -1        46 6.77190E-03-7.35861E-04-1.68600E-14
 -1        47 7.02911E-03-7.31497E-04-1.84018E-14
 -1        48 7.27593E-03-7.17520E-04-2.00220E-14
 -1        49 7.51184E-03-6.89026E-04-2.17146E-14
 -1        50 7.73766E-03-6.40825E-04-2.34778E-14
 -1        51 7.95572E-03-5.68275E-04-2.53060E-14
 -1        52 8.16971E-03-4.68192E-04-2.71934E-14
 -1        53 8.38407E-03-3.39564E-04-2.91430E-14
 -1        54 8.60317E-03-1.83782E-04-3.11501E-14
 -1        55 8.83050E-03-4.31689E-06-3.32081E-14
 -1        56 9.06817E-03 1.94046E-04-3.53209E-14
 -1        57 9.31674E-03 4.06125E-04-3.74922E-14
 -1        58 9.57554E-03 6.27141E-04-3.97122E-14
 -1        59 9.84302E-03 8.53212E-04-4.19860E-14
 -1        60 1.01173E-02 1.08154E-03-4.43116E-14
 -1        61 1.03966E-02 1.31033E-03-4.67023E-14
 -1        62 1.06792E-02 1.53860E-03-4.91720E-14
 -1        63 1.09638E-02 1.76594E-03-5.17230E-14
 -1        64 1.12496E-02 1.99229E-03-5.43358E-14
 -1        65 1.15359E-02 2.21776E-03-5.70084E-14
 -1        66 1.18223E-02 2.44257E-03-5.97379E-14
 -1        67 1.21087E-02 2.66692E-03-6.25082E-14
 -1        68 1.23948E-02 2.89102E-03-6.53067E-14
 -1        69 1.26808E-02 3.11501E-03-6.81158E-14
 -1        70 1.29667E-02 3.33903E-03-7.09323E-14
 -1        71 1.32524E-02 3.56313E-03-7.37772E-14
 -1        72 4.13793E-04 2.61402E-04 2.47334E-17
 -1        73 7.03139E-04 4.03607E-04-2.20229E-17
 -1        74 9.73911E-04 4.99989E-04-1.38734E-16
 -1        75 1.23869E-03 5.68593E-04-3.23790E-16
 -1        76 1.50236E-03 6.17805E-04-5.76745E-16
 -1        77 1.76712E-03 6.52930E-04-8.98353E-16
 -1        78 2.03396E-03 6.77652E-04-1.28564E-15
 -1        79 2.30327E-03 6.94649E-04-1.73556E-15
 -1        80 2.57510E-03 7.05925E-04-2.24779E-15
 -1        81 2.84936E-03 7.12992E-04-2.82931E-15
 -1        82 3.13970E-03 7.17114E-04-3.51783E-15
 -1        83 3.41824E-03 7.18760E-04-4.24228E-15
 -1        84 3.69853E-03 7.18775E-04-5.03530E-15
 -1        85 3.98040E-03 7.17547E-04-5.89853E-15
 -1        86 4.26377E-03 7.15304E-04-6.83005E-15
 -1        87 4.54874E-03 7.12139E-04-7.82823E-15
 -1        88 4.83559E-03 7.08042E-04-8.89055E-15
 -1        89 5.12498E-03 7.02944E-04-1.00152E-14
 -1        90 5.41816E-03 6.96795E-04-1.11974E-14
 -1        91 5.71732E-03 6.89755E-04-1.24399E-14
 -1        92 6.04203E-03 6.82257E-04-1.38049E-14
 -1        93 6.36801E-03 6.77514E-04-1.51645E-14
 -1        94 6.72099E-03 6.81204E-04-1.65797E-14
 -1        95 7.11709E-03 7.07161E-04-1.80545E-14
 -1        96 7.57801E-03 7.84483E-04-1.95928E-14
 -1        97 8.12355E-03 9.67528E-04-2.11872E-14
 -1        98 8.74544E-03 1.33501E-03-2.28177E-14
 -1        99 9.33206E-03 1.89706E-03-2.44263E-14
 -1       100 9.71925E-03 2.44326E-03-2.58467E-14
 -1       101 9.95964E-03 2.83035E-03-2.73365E-14
 -1       102 1.01309E-02 2.86582E-03-2.88003E-14
 -1       103 1.03425E-02 2.65714E-03-3.01377E-14
 -1       104 1.07692E-02 2.26570E-03-3.19703E-14
 -1       105 1.13951E-02 1.92587E-03-3.42244E-14
 -1       106 1.20082E-02 1.81782E-03-3.65467E-14
 -1       107 1.25395E-02 1.88086E-03-3.89311E-14
 -1       108 1.29882E-02 2.03869E-03-4.13779E-14
 -1       109 1.33758E-02 2.24152E-03-4.38667E-14
 -1       110 1.37234E-02 2.46340E-03-4.63846E-14
 -1       111 1.40462E-02 2.69221E-03-4.89574E-14
 -1       112 1.43691E-02 2.93420E-03-5.17154E-14
 -1       113 1.46676E-02 3.16428E-03-5.44012E-14
 -1       114 1.49608E-02 3.39331E-03-5.71411E-14
 -1       115 1.52509E-02 3.62123E-03-5.99254E-14
 -1       116 1.55390E-02 3.84817E-03-6.27311E-14
 -1       117 1.58261E-02 4.07428E-03-6.55704E-14
 -1       118 1.61124E-02 4.29972E-03-6.84345E-14
 -1       119 1.63983E-02 4.52462E-03-7.13354E-14
 -1       120 1.66840E-02 4.74907E-03-7.42283E-14
 -1       121 1.69697E-02 4.97319E-03-7.71237E-14
 -1       122 1.70351E-02 5.11285E-03-7.98956E-14
 -1       123 1.68150E-02 5.02851E-03-7.97839E-14
 -1       124 1.65952E-02 4.94425E-03-7.96139E-14
 -1       125 1.63756E-02 4.86019E-03-7.94249E-14
 -1       126 1.61561E-02 4.77641E-03-7.92390E-14
 -1       127 1.59404E-02 4.69430E-03-7.90223E-14
 -1       128 1.57208E-02 4.61097E-03-7.88132E-14
 -1       129 1.55009E-02 4.52773E-03-7.86637E-14
 -1       130 1.52808E-02 4.44448E-03-7.84910E-14
 -1       131 1.50605E-02 4.36113E-03-7.82795E-14
 -1       132 1.48400E-02 4.27762E-03-7.80668E-14
 -1       133 1.46231E-02 4.19535E-03-7.78085E-14
 -1       134 1.44024E-02 4.11147E-03-7.75317E-14
 -1       135 1.41817E-02 4.02743E-03-7.72712E-14
 -1       136 1.39611E-02 3.94324E-03-7.70177E-14
 -1       137 1.37406E-02 3.85897E-03-7.67561E-14
 -1       138 1.22445E-02 1.46172E-03-3.27297E-14
 -1       139 1.21783E-02 1.67855E-03-3.23475E-14
 -1       140 1.19771E-02 1.91497E-03-3.17451E-14
 -1       141 1.16542E-02 2.15947E-03-3.09972E-14
 -1       142 1.12048E-02 2.39779E-03-3.01241E-14
 -1       143 1.06597E-02 2.57942E-03-2.92078E-14
 -1       144 1.00233E-02 2.65010E-03-2.82418E-14
 -1       145 9.37707E-03 2.56428E-03-2.73290E-14
 -1       146 8.71329E-03 2.31784E-03-2.64025E-14
 -1       147 8.16071E-03 2.00646E-03-2.56215E-14
 -1       148 7.71992E-03 1.69140E-03-2.49746E-14
 -1       149 7.37741E-03 1.39450E-03-2.44501E-14
 -1       150 7.12317E-03 1.11051E-03-2.40356E-14
 -1       151 6.98845E-03 8.64054E-04-2.38048E-14
 -1       152 6.96951E-03 6.70375E-04-2.37675E-14
 -1       153 7.04956E-03 4.94647E-04-2.39044E-14
 -1       154 7.22991E-03 3.45119E-04-2.42288E-14
 -1       155 7.84833E-03 1.43105E-04-2.53761E-14
 -1       156 8.23283E-03 9.68758E-05-2.60942E-14
 -1       157 8.67006E-03 8.34638E-05-2.69107E-14
 -1       158 9.16523E-03 1.08268E-04-2.78451E-14
 -1       159 9.67241E-03 1.70247E-04-2.87963E-14
 -1       160 1.01574E-02 2.62397E-04-2.96945E-14
 -1       161 1.06238E-02 3.82193E-04-3.05435E-14
 -1       162 1.10542E-02 5.24322E-04-3.13042E-14
 -1       163 1.14544E-02 6.91658E-04-3.19808E-14
 -1       164 1.17816E-02 8.69456E-04-3.24808E-14
 -1       165 1.20295E-02 1.05440E-03-3.27889E-14
 -1       166 2.40407E-04-1.25487E-04-9.08019E-19
 -1       167 2.25280E-04-9.45819E-05-1.26479E-17
 -1       168 2.19519E-04-7.27404E-05-2.00069E-17
 -1       169 2.16720E-04-5.50684E-05-2.45606E-17
 -1       170 2.15223E-04-3.99364E-05-2.75320E-17
 -1       171 2.14384E-04-2.58963E-05-2.94564E-17
 -1       172 2.13965E-04-1.26366E-05-3.07981E-17
 -1       173 2.13843E-04 2.68713E-07-3.19433E-17
 -1       174 2.13986E-04 1.31872E-05-3.24448E-17
 -1       175 2.14429E-04 2.64892E-05-3.25498E-17
 -1       176 2.15274E-04 4.03631E-05-3.19331E-17
 -1       177 2.16825E-04 5.58791E-05-3.04322E-17
 -1       178 2.19687E-04 7.37821E-05-2.74269E-17
 -1       179 2.25444E-04 9.59897E-05-2.15180E-17
 -1       180 2.39333E-04 1.27562E-04-1.05100E-17
 -1       181 2.97698E-04 1.85469E-04 9.21572E-19
 -1       182 4.68615E-04-2.63485E-04-6.95922E-18
 -1       183 7.66762E-04-3.82014E-04-7.96211E-17
 -1       184 1.05063E-03-4.64822E-04-2.13066E-16
 -1       185 1.32804E-03-5.23508E-04-4.09747E-16
 -1       186 1.60269E-03-5.65087E-04-6.69891E-16
 -1       187 1.87665E-03-5.94248E-04-9.95562E-16
 -1       188 2.15107E-03-6.14296E-04-1.38803E-15
 -1       189 2.42654E-03-6.27660E-04-1.84884E-15
 -1       190 2.70335E-03-6.36162E-04-2.37803E-15
 -1       191 2.98157E-03-6.41184E-04-2.97279E-15
 -1       192 3.26118E-03-6.43776E-04-3.63067E-15
 -1       193 3.54207E-03-6.44743E-04-4.34908E-15
 -1       194 3.82411E-03-6.44710E-04-5.13102E-15
 -1       195 4.10715E-03-6.44178E-04-5.97257E-15
 -1       196 4.39099E-03-6.43566E-04-6.87256E-15
 -1       197 4.67544E-03-6.43252E-04-7.83041E-15
 -1       198 4.96022E-03-6.43583E-04-8.84710E-15
 -1       199 5.24499E-03-6.44879E-04-9.92100E-15
 -1       200 5.52924E-03-6.47391E-04-1.10555E-14
 -1       201 5.81232E-03-6.51217E-04-1.22540E-14
 -1       202 6.09337E-03-6.56162E-04-1.35265E-14
 -1       203 6.37131E-03-6.61531E-04-1.48739E-14
 -1       204 6.64489E-03-6.65870E-04-1.63006E-14
 -1       205 6.91283E-03-6.66718E-04-1.78068E-14
 -1       206 7.17403E-03-6.60444E-04-1.93878E-14
 -1       207 7.42783E-03-6.42319E-04-2.10434E-14
 -1       208 7.67437E-03-6.06902E-04-2.27709E-14
 -1       209 7.91474E-03-5.48808E-04-2.45681E-14
 -1       210 8.15102E-03-4.63699E-04-2.64273E-14
 -1       211 8.38602E-03-3.49234E-04-2.83480E-14
 -1       212 8.62279E-03-2.05624E-04-3.03282E-14
 -1       213 8.86405E-03-3.55821E-05-3.23650E-14
 -1       214 9.11174E-03 1.56322E-04-3.44549E-14
 -1       215 9.36678E-03 3.64641E-04-3.66012E-14
 -1       216 9.62917E-03 5.84026E-04-3.88026E-14
 -1       217 9.89818E-03 8.09924E-04-4.10589E-14
 -1       218 1.01727E-02 1.03892E-03-4.33670E-14
 -1       219 1.04514E-02 1.26874E-03-4.57318E-14
 -1       220 1.07331E-02 1.49809E-03-4.81637E-14
 -1       221 1.10169E-02 1.72638E-03-5.06749E-14
 -1       222 1.13019E-02 1.95347E-03-5.32568E-14
 -1       223 1.15877E-02 2.17947E-03-5.58999E-14
 -1       224 1.18737E-02 2.40462E-03-5.85994E-14
 -1       225 1.21599E-02 2.62916E-03-6.13490E-14
 -1       226 1.24460E-02 2.85333E-03-6.41382E-14
 -1       227 1.27320E-02 3.07731E-03-6.69485E-14
 -1       228 1.30179E-02 3.30127E-03-6.97685E-14
 -1       229 1.33037E-02 3.52530E-03-7.25991E-14
 -1       230 6.04551E-04 3.30967E-04-5.52299E-17
 -1       231 8.93644E-04 4.32517E-04-1.76264E-16
 -1       232 1.17253E-03 5.04174E-04-3.63235E-16
 -1       233 1.44689E-03 5.55165E-04-6.16447E-16
 -1       234 1.71974E-03 5.91289E-04-9.36368E-16
 -1       235 1.99270E-03 6.16522E-04-1.32157E-15
 -1       236 2.26661E-03 6.33727E-04-1.77026E-15
 -1       237 2.54189E-03 6.45025E-04-2.28219E-15
 -1       238 2.81870E-03 6.52003E-04-2.86049E-15
 -1       239 3.11100E-03 6.55967E-04-3.54264E-15
 -1       240 3.39089E-03 6.57433E-04-4.26172E-15
 -1       241 3.67215E-03 6.57255E-04-5.04884E-15
 -1       242 3.95473E-03 6.55825E-04-5.90435E-15
 -1       243 4.23862E-03 6.53364E-04-6.82681E-15
 -1       244 4.52393E-03 6.49945E-04-7.81514E-15
 -1       245 4.81091E-03 6.45516E-04-8.86678E-15
 -1       246 5.10012E-03 6.39930E-04-9.98286E-15
 -1       247 5.39247E-03 6.33004E-04-1.11589E-14
 -1       248 5.68952E-03 6.24667E-04-1.23912E-14
 -1       249 6.00921E-03 6.14809E-04-1.37478E-14
 -1       250 6.32514E-03 6.06118E-04-1.50989E-14
 -1       251 6.65814E-03 6.02966E-04-1.65090E-14
 -1       252 7.01631E-03 6.17171E-04-1.79759E-14
 -1       253 7.40976E-03 6.74882E-04-1.95045E-14
 -1       254 7.84878E-03 8.28170E-04-2.10871E-14
 -1       255 8.33914E-03 1.16030E-03-2.27194E-14
 -1       256 8.84681E-03 1.70653E-03-2.43298E-14
 -1       257 9.28884E-03 2.28210E-03-2.57453E-14
 -1       258 9.73608E-03 2.73333E-03-2.72249E-14
 -1       259 1.01535E-02 2.80754E-03-2.86849E-14
 -1       260 1.05172E-02 2.59506E-03-3.00114E-14
 -1       261 1.09894E-02 2.17469E-03-3.18288E-14
 -1       262 1.18479E-02 1.70127E-03-3.54275E-14
 -1       263 1.22888E-02 1.71046E-03-3.77740E-14
 -1       264 1.26853E-02 1.84581E-03-4.01727E-14
 -1       265 1.30474E-02 2.04218E-03-4.26271E-14
 -1       266 1.33842E-02 2.26422E-03-4.51215E-14
 -1       267 1.37035E-02 2.49531E-03-4.76620E-14
 -1       268 1.40260E-02 2.73998E-03-5.03799E-14
 -1       269 1.43253E-02 2.97223E-03-5.30225E-14
 -1       270 1.46196E-02 3.20294E-03-5.57225E-14
 -1       271 1.49108E-02 3.43211E-03-5.84680E-14
 -1       272 1.51999E-02 3.65995E-03-6.12503E-14
 -1       273 1.54876E-02 3.88673E-03-6.40707E-14
 -1       274 1.57745E-02 4.11266E-03-6.69189E-14
 -1       275 1.60609E-02 4.33792E-03-6.97970E-14
 -1       276 1.63469E-02 4.56264E-03-7.26825E-14
 -1       277 1.66328E-02 4.78694E-03-7.55719E-14
 -1       278 1.68340E-02 4.94994E-03-7.77372E-14
 -1       279 1.66138E-02 4.86569E-03-7.76112E-14
 -1       280 1.63940E-02 4.78156E-03-7.74599E-14
 -1       281 1.61745E-02 4.69761E-03-7.72899E-14
 -1       282 1.59551E-02 4.61387E-03-7.71079E-14
 -1       283 1.57394E-02 4.53173E-03-7.69160E-14
 -1       284 1.55198E-02 4.44831E-03-7.67235E-14
 -1       285 1.53000E-02 4.36494E-03-7.65365E-14
 -1       286 1.50799E-02 4.28156E-03-7.63415E-14
 -1       287 1.48596E-02 4.19809E-03-7.61467E-14
 -1       288 1.46390E-02 4.11449E-03-7.59280E-14
 -1       289 1.44221E-02 4.03216E-03-7.56874E-14
 -1       290 1.42014E-02 3.94826E-03-7.54306E-14
 -1       291 1.39807E-02 3.86422E-03-7.51646E-14
 -1       292 1.37600E-02 3.78007E-03-7.49005E-14
 -1       293 1.22678E-02 1.37614E-03-3.38473E-14
 -1       294 1.22276E-02 1.49219E-03-3.34086E-14
 -1       295 1.20109E-02 1.62981E-03-3.30336E-14
 -1       296 1.17394E-02 1.82113E-03-3.22532E-14
 -1       297 1.12172E-02 2.17714E-03-3.10592E-14
 -1       298 1.07384E-02 2.49573E-03-2.99528E-14
 -1       299 1.02540E-02 2.72458E-03-2.88395E-14
 -1       300 9.78180E-03 2.73190E-03-2.77240E-14
 -1       301 9.29585E-03 2.48964E-03-2.66175E-14
 -1       302 8.72747E-03 2.07688E-03-2.56590E-14
 -1       303 8.19673E-03 1.66297E-03-2.48381E-14
 -1       304 7.71893E-03 1.31620E-03-2.41662E-14
 -1       305 7.32720E-03 1.02600E-03-2.35489E-14
 -1       306 7.04655E-03 8.33984E-04-2.31429E-14
 -1       307 6.93828E-03 7.29325E-04-2.31353E-14
 -1       308 6.97967E-03 6.31335E-04-2.31563E-14
 -1       309 7.16035E-03 5.30008E-04-2.34230E-14
 -1       310 7.46589E-03 4.20345E-04-2.37892E-14
 -1       311 7.80961E-03 2.69267E-04-2.45890E-14
 -1       312 8.17879E-03 1.47107E-04-2.53544E-14
 -1       313 8.49411E-03 6.79330E-05-2.61468E-14
 -1       314 8.94815E-03 1.33790E-05-2.72424E-14
 -1       315 9.35428E-03 5.58129E-05-2.83512E-14
 -1       316 9.76422E-03 1.72353E-04-2.94416E-14
 -1       317 1.01874E-02 3.48561E-04-3.04821E-14
 -1       318 1.06164E-02 5.64673E-04-3.14829E-14
 -1       319 1.10802E-02 7.78532E-04-3.23078E-14
 -1       320 1.15125E-02 9.79388E-04-3.30143E-14
 -1       321 1.18734E-02 1.15014E-03-3.35628E-14
 -1       322 1.21344E-02 1.26436E-03-3.37462E-14
 -1       323 1.13538E-02 1.90688E-03-3.31490E-14
 -1       324 4.55404E-04-1.64730E-04-7.26111E-17
 -1       325 4.74272E-04-2.12905E-04-5.16555E-17
 -1       326 4.40447E-04-9.39527E-05-9.63856E-17
 -1       327 4.37479E-04-6.48649E-05-1.03199E-16
 -1       328 4.35854E-04-3.78790E-05-1.07888E-16
 -1       329 4.35143E-04-1.20137E-05-1.11381E-16
 -1       330 4.35176E-04 1.35164E-05-1.13479E-16
 -1       331 4.35958E-04 3.94415E-05-1.13939E-16
 -1       332 4.37630E-04 6.60824E-05-1.13004E-16
 -1       333 4.40691E-04 9.53478E-05-1.09989E-16
 -1       334 4.46084E-04 1.28256E-04-1.04117E-16
 -1       335 4.55997E-04 1.67242E-04-9.33871E-17
 -1       336 4.75888E-04 2.16905E-04-7.54944E-17
 -1       337 5.31985E-04 2.69887E-04-6.90603E-17
 -1       338 8.24486E-04 3.73359E-04-1.91867E-16
 -1       339 8.71112E-03 8.50991E-06-2.63775E-14
 -1       340 8.63296E-04-3.57230E-04-1.87831E-16
 -1       341 1.14967E-03-4.25905E-04-3.65681E-16
 -1       342 1.43249E-03-4.74971E-04-6.05913E-16
 -1       343 1.71325E-03-5.09576E-04-9.09195E-16
 -1       344 1.99310E-03-5.33521E-04-1.27727E-15
 -1       345 2.27280E-03-5.49630E-04-1.71086E-15
 -1       346 2.55282E-03-5.60023E-04-2.21129E-15
 -1       347 2.83343E-03-5.66307E-04-2.77843E-15
 -1       348 3.11477E-03-5.69695E-04-3.40958E-15
 -1       349 3.39686E-03-5.71110E-04-4.10221E-15
 -1       350 3.67969E-03-5.71261E-04-4.85654E-15
 -1       351 3.96321E-03-5.70701E-04-5.67249E-15
 -1       352 4.24733E-03-5.69883E-04-6.54739E-15
 -1       353 4.53197E-03-5.69199E-04-7.48063E-15
 -1       354 4.81700E-03-5.69013E-04-8.47248E-15
 -1       355 5.10225E-03-5.69672E-04-9.52251E-15
 -1       356 5.38752E-03-5.71491E-04-1.06316E-14
 -1       357 5.67248E-03-5.74704E-04-1.18013E-14
 -1       358 5.95671E-03-5.79352E-04-1.30403E-14
 -1       359 6.23959E-03-5.85113E-04-1.43522E-14
 -1       360 6.52036E-03-5.91055E-04-1.57419E-14
 -1       361 6.79807E-03-5.95350E-04-1.72115E-14
 -1       362 7.07172E-03-5.95004E-04-1.87581E-14
 -1       363 7.34041E-03-5.85734E-04-2.03757E-14
 -1       364 7.60363E-03-5.62137E-04-2.20676E-14
 -1       365 7.86157E-03-5.18278E-04-2.38312E-14
 -1       366 8.11533E-03-4.48690E-04-2.56619E-14
 -1       367 8.36685E-03-3.49548E-04-2.75528E-14
 -1       368 8.61857E-03-2.19622E-04-2.95040E-14
 -1       369 8.87291E-03-6.06002E-05-3.15161E-14
 -1       370 9.13168E-03 1.23355E-04-3.35854E-14
 -1       371 9.39582E-03 3.26631E-04-3.57095E-14
 -1       372 9.66541E-03 5.43335E-04-3.78904E-14
 -1       373 9.93984E-03 7.68239E-04-4.01246E-14
 -1       374 1.02182E-02 9.97284E-04-4.24137E-14
 -1       375 1.04995E-02 1.22770E-03-4.47572E-14
 -1       376 1.07829E-02 1.45784E-03-4.71601E-14
 -1       377 1.10676E-02 1.68690E-03-4.96341E-14
 -1       378 1.13531E-02 1.91465E-03-5.21820E-14
 -1       379 1.16390E-02 2.14115E-03-5.47931E-14
 -1       380 1.19251E-02 2.36663E-03-5.74666E-14
 -1       381 1.22112E-02 2.59138E-03-6.01936E-14
 -1       382 1.24973E-02 2.81564E-03-6.29655E-14
 -1       383 1.27833E-02 3.03963E-03-6.57711E-14
 -1       384 1.30692E-02 3.26354E-03-6.85919E-14
 -1       385 1.33550E-02 3.48748E-03-7.14201E-14
 -1       386 1.28042E-02 1.86435E-03-4.14006E-14
 -1       387 1.10995E-03 4.47593E-04-3.78583E-16
 -1       388 1.39076E-03 5.00570E-04-6.30250E-16
 -1       389 1.66911E-03 5.38056E-04-9.47349E-16
 -1       390 1.94657E-03 5.64180E-04-1.32870E-15
 -1       391 2.22408E-03 5.81939E-04-1.77396E-15
 -1       392 2.50220E-03 5.93560E-04-2.28168E-15
 -1       393 2.78120E-03 6.00704E-04-2.85427E-15
 -1       394 3.07525E-03 6.04733E-04-3.52983E-15
 -1       395 3.35637E-03 6.06196E-04-4.24245E-15
 -1       396 3.63852E-03 6.05979E-04-5.02182E-15
 -1       397 3.92170E-03 6.04492E-04-5.86807E-15
 -1       398 4.20592E-03 6.01966E-04-6.78077E-15
 -1       399 4.49124E-03 5.98478E-04-7.75901E-15
 -1       400 4.77782E-03 5.93975E-04-8.80140E-15
 -1       401 5.06598E-03 5.88296E-04-9.90872E-15
 -1       402 5.35620E-03 5.81232E-04-1.10752E-14
 -1       403 5.64923E-03 5.72648E-04-1.22980E-14
 -1       404 5.96111E-03 5.62273E-04-1.36444E-14
 -1       405 6.26366E-03 5.52518E-04-1.49884E-14
 -1       406 6.57349E-03 5.46987E-04-1.63901E-14
 -1       407 6.89303E-03 5.55677E-04-1.78507E-14
 -1       408 7.22590E-03 6.00576E-04-1.93693E-14
 -1       409 7.58047E-03 7.25534E-04-2.09433E-14
 -1       410 7.97436E-03 1.00555E-03-2.25693E-14
 -1       411 1.25085E-02 1.68530E-03-3.89899E-14
 -1       412 1.13636E-02 1.95470E-03-3.21831E-14
 -1       413 1.22059E-02 1.58056E-03-3.66296E-14
 -1       414 1.30995E-02 2.07781E-03-4.38642E-14
 -1       415 1.33944E-02 2.30546E-03-4.63725E-14
 -1       416 1.37028E-02 2.54934E-03-4.90555E-14
 -1       417 1.39949E-02 2.78193E-03-5.16582E-14
 -1       418 1.42856E-02 3.01337E-03-5.43216E-14
 -1       419 1.45749E-02 3.24329E-03-5.70336E-14
 -1       420 1.48631E-02 3.47180E-03-5.97858E-14
 -1       421 1.51506E-02 3.69913E-03-6.25768E-14
 -1       422 1.54375E-02 3.92550E-03-6.54080E-14
 -1       423 1.57239E-02 4.15112E-03-6.82634E-14
 -1       424 1.60101E-02 4.37613E-03-7.11376E-14
 -1       425 1.62960E-02 4.60065E-03-7.40173E-14
 -1       426 1.64549E-02 4.73324E-03-7.58118E-14
 -1       427 1.60369E-02 4.54568E-03-7.48859E-14
 -1       428 1.62458E-02 4.63939E-03-7.53547E-14
 -1       429 1.58175E-02 4.46192E-03-7.47196E-14
 -1       430 1.56019E-02 4.37978E-03-7.45425E-14
 -1       431 1.53825E-02 4.29635E-03-7.43583E-14
 -1       432 1.51628E-02 4.21298E-03-7.41633E-14
 -1       433 1.49428E-02 4.12958E-03-7.39677E-14
 -1       434 1.47226E-02 4.04609E-03-7.37693E-14
 -1       435 1.45021E-02 3.96247E-03-7.35607E-14
 -1       436 1.42851E-02 3.88013E-03-7.33338E-14
 -1       437 1.40644E-02 3.79623E-03-7.30950E-14
 -1       438 1.38436E-02 3.71222E-03-7.28410E-14
 -1       439 1.35993E-02 3.59989E-03-7.21359E-14
 -1       440 1.22300E-02 1.39364E-03-3.50973E-14
 -1       441 1.22834E-02 1.43599E-03-3.46862E-14
 -1       442 1.18187E-02 1.66814E-03-3.33722E-14
 -1       443 8.44961E-03 7.58060E-05-2.55840E-14
 -1       444 9.46486E-03 8.11471E-05-2.90402E-14
 -1       445 4.45686E-04-1.26341E-04-8.68175E-17
 -1       446 8.64914E-03 1.74592E-03-2.47306E-14
 -1       447 8.08976E-03 1.32930E-03-2.39313E-14
 -1       448 7.62279E-03 1.02293E-03-2.32416E-14
 -1       449 7.20496E-03 8.10286E-04-2.26872E-14
 -1       450 6.95487E-03 6.91060E-04-2.23015E-14
 -1       451 6.92088E-03 6.53569E-04-2.23261E-14
 -1       452 7.04506E-03 5.97307E-04-2.24899E-14
 -1       453 7.27067E-03 5.24413E-04-2.28385E-14
 -1       454 7.70745E-03 3.61597E-04-2.37298E-14
 -1       455 8.04114E-03 2.26107E-04-2.45103E-14
 -1       456 9.16099E-03-5.59792E-06-2.79123E-14
 -1       457 1.18406E-02 1.63926E-03-3.43722E-14
 -1       458 9.85541E-03 2.65920E-04-3.02810E-14
 -1       459 1.02555E-02 4.98960E-04-3.14416E-14
 -1       460 1.07466E-02 7.78666E-04-3.26076E-14
 -1       461 1.12150E-02 1.00227E-03-3.34382E-14
 -1       462 1.16445E-02 1.18586E-03-3.41565E-14
 -1       463 1.20476E-02 1.34099E-03-3.49023E-14
 -1       464 1.21575E-02 1.50119E-03-3.43045E-14
 -1       465 8.91654E-03-3.42417E-05-2.70305E-14
 -1       466 8.18911E-03 1.26637E-03-2.35584E-14
 -1       467 1.09628E-02 2.27808E-03-3.09433E-14
 -1       468 7.45661E-03 4.51919E-04-2.27701E-14
 -1       469 6.65825E-04-7.50770E-05-2.28509E-16
 -1       470 6.69798E-04-1.15810E-04-2.17650E-16
 -1       471 6.63152E-04 1.09276E-06-2.41211E-16
 -1       472 6.63879E-04 3.87204E-05-2.43559E-16
 -1       473 6.66027E-04 7.67454E-05-2.42936E-16
 -1       474 6.70128E-04 1.17636E-04-2.39304E-16
 -1       475 6.77138E-04 1.62241E-04-2.31538E-16
 -1       476 6.89046E-04 2.12614E-04-2.17518E-16
 -1       477 7.09789E-04 2.71599E-04-1.95139E-16
 -1       478 7.63509E-04 3.20398E-04-1.96129E-16
 -1       479 9.76336E-04-3.28413E-04-3.12816E-16
 -1       480 1.50133E-03 4.49808E-04-8.37949E-16
 -1       481 1.21720E-03 4.06271E-04-5.45886E-16
 -1       482 7.12672E-04-2.51595E-04-1.70938E-16
 -1       483 1.28620E-02 1.91810E-03-4.26170E-14
 -1       484 1.26225E-03-3.83199E-04-5.33065E-16
 -1       485 1.54730E-03-4.22832E-04-8.15127E-16
 -1       486 1.83146E-03-4.50751E-04-1.16018E-15
 -1       487 2.11505E-03-4.69854E-04-1.56844E-15
 -1       488 2.39838E-03-4.82434E-04-2.04184E-15
 -1       489 2.68171E-03-4.90266E-04-2.58219E-15
 -1       490 2.96521E-03-4.94711E-04-3.18622E-15
 -1       491 3.24898E-03-4.96805E-04-3.85239E-15
 -1       492 3.53308E-03-4.97336E-04-4.58076E-15
 -1       493 3.81752E-03-4.96909E-04-5.36966E-15
 -1       494 4.10233E-03-4.96001E-04-6.21838E-15
 -1       495 4.38751E-03-4.95012E-04-7.12622E-15
 -1       496 4.67307E-03-4.94297E-04-8.09335E-15
 -1       497 4.95903E-03-4.94194E-04-9.11987E-15
 -1       498 5.24540E-03-4.95037E-04-1.02044E-14
 -1       499 5.53219E-03-4.97127E-04-1.13485E-14
 -1       500 5.81933E-03-5.00680E-04-1.25563E-14
 -1       501 6.10666E-03-5.05700E-04-1.38342E-14
 -1       502 6.39383E-03-5.11779E-04-1.51874E-14
 -1       503 6.68025E-03-5.17814E-04-1.66185E-14
 -1       504 6.96501E-03-5.21658E-04-1.81295E-14
 -1       505 7.24698E-03-5.19796E-04-1.97124E-14
 -1       506 7.52502E-03-5.07208E-04-2.13684E-14
 -1       507 7.79840E-03-4.77642E-04-2.30959E-14
 -1       508 8.06723E-03-4.24472E-04-2.48912E-14
 -1       509 8.33276E-03-3.42083E-04-2.67543E-14
 -1       510 8.59721E-03-2.27350E-04-2.86776E-14
 -1       511 8.86314E-03-8.05669E-05-3.06640E-14
 -1       512 9.13266E-03 9.46436E-05-3.27101E-14
 -1       513 9.40683E-03 2.92406E-04-3.48125E-14
 -1       514 9.68560E-03 5.06096E-04-3.69735E-14
 -1       515 9.96815E-03 7.29646E-04-3.91877E-14
 -1       516 1.02533E-02 9.58302E-04-4.14549E-14
 -1       517 1.05400E-02 1.18881E-03-4.37776E-14
 -1       518 1.08273E-02 1.41923E-03-4.61588E-14
 -1       519 1.11148E-02 1.64860E-03-4.86004E-14
 -1       520 1.14022E-02 1.87662E-03-5.11111E-14
 -1       521 1.16892E-02 2.10333E-03-5.36934E-14
 -1       522 1.19760E-02 2.32895E-03-5.63372E-14
 -1       523 1.22624E-02 2.55377E-03-5.90366E-14
 -1       524 1.25487E-02 2.77804E-03-6.17891E-14
 -1       525 1.28347E-02 3.00201E-03-6.45833E-14
 -1       526 1.31207E-02 3.22584E-03-6.74052E-14
 -1       527 1.33600E-02 3.41283E-03-6.97707E-14
 -1       528 1.31178E-02 2.13329E-03-4.50943E-14
 -1       529 9.90887E-04 3.70919E-04-3.48896E-16
 -1       530 1.78412E-03 4.80552E-04-1.19308E-15
 -1       531 2.06617E-03 5.01716E-04-1.61118E-15
 -1       532 2.34801E-03 5.15792E-04-2.09129E-15
 -1       533 2.62998E-03 5.24677E-04-2.63415E-15
 -1       534 2.92643E-03 5.29974E-04-3.27532E-15
 -1       535 3.20924E-03 5.32273E-04-3.95657E-15
 -1       536 3.49260E-03 5.32655E-04-4.70297E-15
 -1       537 3.77651E-03 5.31633E-04-5.51504E-15
 -1       538 4.06097E-03 5.29529E-04-6.39262E-15
 -1       539 4.34598E-03 5.26509E-04-7.33592E-15
 -1       540 4.63151E-03 5.22610E-04-8.34328E-15
 -1       541 4.91752E-03 5.17772E-04-9.41488E-15
 -1       542 5.20388E-03 5.11890E-04-1.05489E-14
 -1       543 5.49033E-03 5.04916E-04-1.17410E-14
 -1       544 5.79055E-03 4.96673E-04-1.30521E-14
 -1       545 6.07475E-03 4.88950E-04-1.43636E-14
 -1       546 6.35509E-03 4.83992E-04-1.57347E-14
 -1       547 6.62810E-03 4.87669E-04-1.71649E-14
 -1       548 6.88931E-03 5.11934E-04-1.86533E-14
 -1       549 7.13632E-03 5.79822E-04-2.01976E-14
 -1       550 7.87921E-03 2.82255E-04-2.35975E-14
 -1       551 1.22765E-02 1.47757E-03-3.56368E-14
 -1       552 7.05790E-03 6.68961E-04-2.17825E-14
 -1       553 1.26270E-02 1.72327E-03-4.01911E-14
 -1       554 1.34008E-02 2.36948E-03-4.77367E-14
 -1       555 1.36784E-02 2.59816E-03-5.03043E-14
 -1       556 1.39603E-02 2.82763E-03-5.29273E-14
 -1       557 1.42445E-02 3.05668E-03-5.56042E-14
 -1       558 1.45299E-02 3.28489E-03-5.83276E-14
 -1       559 1.48157E-02 3.51220E-03-6.10903E-14
 -1       560 1.51017E-02 3.73869E-03-6.38954E-14
 -1       561 1.53877E-02 3.96449E-03-6.67355E-14
 -1       562 1.56737E-02 4.18969E-03-6.95882E-14
 -1       563 1.59595E-02 4.41440E-03-7.24607E-14
 -1       564 1.54626E-02 4.22686E-03-7.21553E-14
 -1       565 1.52433E-02 4.14354E-03-7.19756E-14
 -1       566 1.56818E-02 4.31036E-03-7.23212E-14
 -1       567 1.50238E-02 4.06029E-03-7.17865E-14
 -1       568 1.48039E-02 3.97700E-03-7.15918E-14
 -1       569 1.45837E-02 3.89359E-03-7.13935E-14
 -1       570 1.43633E-02 3.81001E-03-7.11891E-14
 -1       571 1.41463E-02 3.72767E-03-7.09758E-14
 -1       572 1.39256E-02 3.64374E-03-7.07445E-14
 -1       573 1.37047E-02 3.55969E-03-7.05044E-14
 -1       574 1.18268E-02 1.34735E-03-3.55248E-14
 -1       575 8.55464E-03 1.66267E-05-2.56026E-14
 -1       576 1.21636E-02 1.44408E-03-3.62291E-14
 -1       577 1.23266E-02 1.46444E-03-3.61749E-14
 -1       578 9.21267E-03 9.68980E-06-2.84523E-14
 -1       579 1.24201E-02 1.56786E-03-3.78180E-14
 -1       580 7.42485E-03 7.98692E-04-2.22510E-14
 -1       581 6.63759E-04-3.64976E-05-2.36217E-16
 -1       582 9.96580E-03 4.04746E-04-3.12967E-14
 -1       583 6.89986E-03 6.17300E-04-2.15303E-14
 -1       584 1.13921E-02 1.20095E-03-3.48913E-14
 -1       585 7.11054E-03 5.45616E-04-2.18396E-14
 -1       586 1.04201E-02 7.02363E-04-3.27609E-14
 -1       587 6.92666E-03 5.92641E-04-2.15434E-14
 -1       588 9.60564E-03 1.81704E-04-2.99760E-14
 -1       589 8.22497E-03 1.37502E-04-2.45316E-14
 -1       590 1.09461E-02 9.88242E-04-3.39232E-14
 -1       591 6.76638E-04-1.60013E-04-2.03349E-16
 -1       592 1.21332E-02 1.52500E-03-3.52748E-14
 -1       593 7.60850E-03 3.64087E-04-2.26339E-14
 -1       594 1.35324E-02 3.48628E-03-7.01386E-14
 -1       595 7.24481E-03 4.82899E-04-2.17666E-14
 -1       596 9.03835E-04-1.22099E-04-3.89113E-16
 -1       597 8.99768E-04 7.40262E-05-4.20084E-16
 -1       598 8.97665E-04 2.51384E-05-4.18807E-16
 -1       599 9.11864E-04 1.78075E-04-4.08449E-16
 -1       600 9.24192E-04 2.36603E-04-3.92729E-16
 -1       601 2.19084E-03 4.36637E-04-1.89924E-15
 -1       602 1.90580E-03 4.20095E-04-1.44604E-15
 -1       603 8.72367E-04-2.46945E-04-2.93968E-16
 -1       604 1.62043E-03 3.95774E-04-1.05424E-15
 -1       605 1.15616E-03-2.99171E-04-5.07529E-16
 -1       606 1.28602E-02 1.98577E-03-4.38210E-14
 -1       607 1.44190E-03-3.38473E-04-7.82333E-16
 -1       608 1.72822E-03-3.66895E-04-1.11858E-15
 -1       609 2.01455E-03-3.86728E-04-1.51644E-15
 -1       610 2.30073E-03-4.00018E-04-1.97762E-15
 -1       611 2.58673E-03-4.08455E-04-2.50494E-15
 -1       612 2.87259E-03-4.13378E-04-3.09678E-15
 -1       613 3.15837E-03-4.15823E-04-3.75001E-15
 -1       614 3.44411E-03-4.16580E-04-4.46485E-15
 -1       615 3.72988E-03-4.16251E-04-5.24047E-15
 -1       616 4.01574E-03-4.15296E-04-6.07490E-15
 -1       617 4.30178E-03-4.14085E-04-6.96994E-15
 -1       618 4.58812E-03-4.12933E-04-7.92458E-15
 -1       619 4.87494E-03-4.12131E-04-8.93924E-15
 -1       620 5.16245E-03-4.11975E-04-1.00137E-14
 -1       621 5.45094E-03-4.12769E-04-1.11465E-14
 -1       622 5.74070E-03-4.14805E-04-1.23398E-14
 -1       623 6.03200E-03-4.18304E-04-1.36008E-14
 -1       624 6.32497E-03-4.23273E-04-1.49337E-14
 -1       625 6.61939E-03-4.29261E-04-1.63459E-14
 -1       626 6.91458E-03-4.34972E-04-1.78348E-14
 -1       627 7.20927E-03-4.37767E-04-1.93976E-14
 -1       628 7.50169E-03-4.33166E-04-2.10302E-14
 -1       629 7.79009E-03-4.14697E-04-2.27350E-14
 -1       630 8.07348E-03-3.74466E-04-2.45123E-14
 -1       631 8.35242E-03-3.04753E-04-2.63576E-14
 -1       632 8.62915E-03-2.00257E-04-2.82665E-14
 -1       633 8.90683E-03-5.99610E-05-3.02382E-14
 -1       634 9.18822E-03 1.12465E-04-3.22739E-14
 -1       635 9.47460E-03 3.10033E-04-3.43657E-14
 -1       636 9.76555E-03 5.24682E-04-3.65177E-14
 -1       637 1.00595E-02 7.49232E-04-3.87294E-14
 -1       638 1.03547E-02 9.78378E-04-4.09894E-14
 -1       639 1.06496E-02 1.20878E-03-4.33026E-14
 -1       640 1.09432E-02 1.43867E-03-4.56736E-14
 -1       641 1.12352E-02 1.66730E-03-4.81043E-14
 -1       642 1.15257E-02 1.89455E-03-5.06003E-14
 -1       643 1.18147E-02 2.12058E-03-5.31635E-14
 -1       644 1.21026E-02 2.34566E-03-5.57917E-14
 -1       645 1.23897E-02 2.57006E-03-5.84764E-14
 -1       646 1.26763E-02 2.79403E-03-6.12115E-14
 -1       647 1.29625E-02 3.01777E-03-6.39981E-14
 -1       648 1.32485E-02 3.24143E-03-6.68184E-14
 -1       649 1.23310E-02 1.53526E-03-3.76557E-14
 -1       650 2.47568E-03 4.47390E-04-2.41371E-15
 -1       651 2.77467E-03 4.54138E-04-3.02233E-15
 -1       652 3.05946E-03 4.57460E-04-3.67075E-15
 -1       653 3.34433E-03 4.58626E-04-4.38504E-15
 -1       654 3.62931E-03 4.58253E-04-5.16464E-15
 -1       655 3.91440E-03 4.56763E-04-6.00811E-15
 -1       656 4.19952E-03 4.54423E-04-6.91628E-15
 -1       657 4.48455E-03 4.51391E-04-7.89002E-15
 -1       658 4.76925E-03 4.47755E-04-8.92728E-15
 -1       659 5.05319E-03 4.43592E-04-1.00273E-14
 -1       660 5.33559E-03 4.39072E-04-1.11857E-14
 -1       661 5.62903E-03 4.34438E-04-1.24646E-14
 -1       662 5.90321E-03 4.31208E-04-1.37423E-14
 -1       663 6.16854E-03 4.31365E-04-1.50823E-14
 -1       664 6.41931E-03 4.39046E-04-1.64835E-14
 -1       665 6.64724E-03 4.61169E-04-1.79425E-14
 -1       666 6.84127E-03 5.09690E-04-1.94585E-14
 -1       667 1.23789E-02 1.51926E-03-3.71020E-14
 -1       668 7.99188E-03 1.80817E-04-2.34547E-14
 -1       669 1.26444E-02 1.79115E-03-4.13809E-14
 -1       670 9.04233E-04 1.24493E-04-4.17015E-16
 -1       671 1.36426E-02 2.64881E-03-5.15461E-14
 -1       672 1.39195E-02 2.87442E-03-5.41847E-14
 -1       673 1.42002E-02 3.10067E-03-5.68724E-14
 -1       674 1.44833E-02 3.32691E-03-5.96071E-14
 -1       675 1.47676E-02 3.55285E-03-6.23819E-14
 -1       676 1.50526E-02 3.77841E-03-6.51994E-14
 -1       677 1.53380E-02 4.00356E-03-6.80386E-14
 -1       678 1.55099E-02 4.15710E-03-7.01788E-14
 -1       679 8.72847E-03-4.68633E-05-2.62739E-14
 -1       680 1.46670E-02 3.82516E-03-6.92172E-14
 -1       681 1.51061E-02 3.99120E-03-6.95893E-14
 -1       682 1.48868E-02 3.90820E-03-6.94082E-14
 -1       683 1.53080E-02 4.07404E-03-6.98900E-14
 -1       684 1.44469E-02 3.74195E-03-6.90197E-14
 -1       685 1.42264E-02 3.65849E-03-6.88184E-14
 -1       686 1.40094E-02 3.57618E-03-6.86108E-14
 -1       687 1.37886E-02 3.49222E-03-6.83890E-14
 -1       688 1.35677E-02 3.40809E-03-6.81592E-14
 -1       689 1.33721E-02 2.42516E-03-4.89615E-14
 -1       690 1.33471E-03 3.61253E-04-7.24891E-16
 -1       691 8.32078E-03 5.11968E-05-2.45721E-14
 -1       692 1.20053E-02 1.47221E-03-3.70890E-14
 -1       693 6.92253E-03 5.75492E-04-2.07619E-14
 -1       694 6.84764E-03 5.56878E-04-2.06734E-14
 -1       695 9.71800E-03 3.04090E-04-3.10485E-14
 -1       696 1.01042E-02 5.60023E-04-3.25007E-14
 -1       697 1.31074E-02 2.20096E-03-4.63667E-14
 -1       698 8.99061E-03-4.20239E-05-2.76627E-14
 -1       699 1.16521E-02 1.36813E-03-3.64382E-14
 -1       700 1.11418E-02 1.16093E-03-3.53968E-14
 -1       701 9.35201E-03 9.31116E-05-2.94869E-14
 -1       702 1.06831E-02 9.21080E-04-3.42710E-14
 -1       703 6.93948E-03 5.30666E-04-2.08031E-14
 -1       704 1.04905E-03 3.13754E-04-4.57296E-16
 -1       705 8.97596E-04-2.31476E-05-4.13250E-16
 -1       706 9.43871E-04 3.01532E-04-3.67395E-16
 -1       707 1.22439E-02 1.57829E-03-3.85262E-14
 -1       708 7.72758E-03 2.54483E-04-2.24891E-14
 -1       709 7.36507E-03 4.01490E-04-2.16273E-14
 -1       710 1.25020E-02 1.64772E-03-3.93754E-14
 -1       711 9.11238E-04-1.75490E-04-3.70343E-16
 -1       712 8.49003E-03-3.64669E-05-2.52181E-14
 -1       713 7.02539E-03 4.87267E-04-2.07313E-14
 -1       714 8.99542E-04-7.17663E-05-4.03242E-16
 -1       715 1.03732E-02 7.70224E-04-3.39945E-14
 -1       716 6.74441E-03 4.92995E-04-1.93738E-14
 -1       717 1.16159E-03 2.43407E-04-6.17179E-16
 -1       718 2.03281E-03 3.56980E-04-1.70577E-15
 -1       719 8.06581E-03 7.15793E-05-2.34209E-14
 -1       720 2.61396E-03 3.77271E-04-2.75601E-15
 -1       721 9.99889E-04-2.18407E-04-4.21314E-16
 -1       722 1.56928E-03-2.86056E-04-9.87729E-16
 -1       723 1.85655E-03-3.07032E-04-1.36242E-15
 -1       724 2.14432E-03-3.21537E-04-1.79836E-15
 -1       725 2.43217E-03-3.31078E-04-2.29863E-15
 -1       726 2.71989E-03-3.36928E-04-2.86323E-15
 -1       727 3.00738E-03-3.40111E-04-3.48975E-15
 -1       728 3.29462E-03-3.41417E-04-4.17742E-15
 -1       729 3.58164E-03-3.41449E-04-4.92674E-15
 -1       730 3.86850E-03-3.40656E-04-5.73583E-15
 -1       731 4.15532E-03-3.39376E-04-6.60500E-15
 -1       732 4.44226E-03-3.37874E-04-7.53548E-15
 -1       733 4.72957E-03-3.36371E-04-8.52378E-15
 -1       734 5.01758E-03-3.35083E-04-9.57416E-15
 -1       735 5.30675E-03-3.34246E-04-1.06830E-14
 -1       736 5.59766E-03-3.34145E-04-1.18508E-14
 -1       737 5.89094E-03-3.35117E-04-1.30817E-14
 -1       738 6.18723E-03-3.37521E-04-1.43819E-14
 -1       739 6.48695E-03-3.41610E-04-1.57549E-14
 -1       740 6.79002E-03-3.47239E-04-1.72067E-14
 -1       741 7.09556E-03-3.53319E-04-1.87301E-14
 -1       742 7.40164E-03-3.57008E-04-2.03270E-14
 -1       743 7.70552E-03-3.52815E-04-2.19945E-14
 -1       744 8.00452E-03-3.32305E-04-2.37362E-14
 -1       745 8.29744E-03-2.85104E-04-2.55470E-14
 -1       746 8.58571E-03-2.01864E-04-2.74264E-14
 -1       747 8.87306E-03-7.78120E-05-2.93691E-14
 -1       748 9.16372E-03 8.50204E-05-3.13795E-14
 -1       749 9.46022E-03 2.78757E-04-3.34492E-14
 -1       750 9.76234E-03 4.93034E-04-3.55799E-14
 -1       751 1.00678E-02 7.18383E-04-3.77718E-14
 -1       752 1.03739E-02 9.48101E-04-4.00169E-14
 -1       753 1.06781E-02 1.17835E-03-4.23112E-14
 -1       754 1.09792E-02 1.40745E-03-4.46651E-14
 -1       755 1.12768E-02 1.63494E-03-4.70761E-14
 -1       756 1.15711E-02 1.86097E-03-4.95452E-14
 -1       757 1.18628E-02 2.08589E-03-5.20762E-14
 -1       758 1.21523E-02 2.31005E-03-5.46743E-14
 -1       759 1.24404E-02 2.53375E-03-5.73321E-14
 -1       760 1.27275E-02 2.75720E-03-6.00413E-14
 -1       761 1.30140E-02 2.98056E-03-6.27992E-14
 -1       762 1.32910E-02 3.19429E-03-6.54646E-14
 -1       763 2.31987E-03 3.69315E-04-2.19281E-15
 -1       764 1.24461E-02 1.69431E-03-4.02051E-14
 -1       765 3.19437E-03 3.83798E-04-4.06977E-15
 -1       766 3.48066E-03 3.84172E-04-4.81575E-15
 -1       767 3.76668E-03 3.83400E-04-5.62709E-15
 -1       768 4.05236E-03 3.81843E-04-6.50223E-15
 -1       769 4.33753E-03 3.79768E-04-7.44123E-15
 -1       770 4.62189E-03 3.77401E-04-8.44404E-15
 -1       771 4.90493E-03 3.74994E-04-9.50989E-15
 -1       772 5.18580E-03 3.72925E-04-1.06356E-14
 -1       773 5.47685E-03 3.71860E-04-1.18792E-14
 -1       774 5.74806E-03 3.73151E-04-1.31260E-14
 -1       775 6.00992E-03 3.78855E-04-1.44329E-14
 -1       776 6.25728E-03 3.92451E-04-1.58024E-14
 -1       777 6.48266E-03 4.19203E-04-1.72340E-14
 -1       778 7.16202E-03 6.49090E-04-2.13439E-14
 -1       779 1.41526E-02 3.14408E-03-5.81276E-14
 -1       780 1.35970E-02 2.69792E-03-5.27756E-14
 -1       781 1.44347E-02 3.36859E-03-6.08738E-14
 -1       782 1.47184E-02 3.59331E-03-6.36622E-14
 -1       783 1.50029E-02 3.81803E-03-6.64864E-14
 -1       784 1.51554E-02 3.94609E-03-6.81828E-14
 -1       785 1.38708E-02 3.42429E-03-6.62511E-14
 -1       786 1.40916E-02 3.50791E-03-6.64619E-14
 -1       787 1.43122E-02 3.59113E-03-6.66647E-14
 -1       788 1.36498E-02 3.34029E-03-6.60338E-14
 -1       789 1.34704E-02 3.26735E-03-6.57509E-14
 -1       790 8.75325E-03-7.66199E-05-2.65633E-14
 -1       791 6.77194E-03 4.78196E-04-1.95019E-14
 -1       792 1.33272E-02 2.47848E-03-5.01764E-14
 -1       793 1.45900E-03 3.12377E-04-9.14443E-16
 -1       794 1.45323E-02 3.67398E-03-6.68581E-14
 -1       795 1.26147E-02 1.86279E-03-4.25656E-14
 -1       796 1.47518E-02 3.75661E-03-6.70414E-14
 -1       797 9.11106E-03 4.11260E-06-2.86492E-14
 -1       798 2.90785E-03 3.81776E-04-3.38666E-15
 -1       799 1.28327E-03-2.56994E-04-6.74038E-16
 -1       800 1.74577E-03 3.38616E-04-1.27980E-15
 -1       801 9.88198E-03 4.57346E-04-3.23984E-14
 -1       802 1.13824E-03 5.89681E-05-6.41834E-16
 -1       803 1.09244E-02 1.10327E-03-3.58863E-14
 -1       804 1.14284E-02 1.34192E-03-3.71386E-14
 -1       805 1.38728E-02 2.92025E-03-5.54276E-14
 -1       806 9.52545E-03 2.23252E-04-3.07955E-14
 -1       807 1.18660E-02 1.49445E-03-3.79796E-14
 -1       808 7.82110E-03 1.34631E-04-2.24509E-14
 -1       809 1.14237E-03 1.17658E-04-6.40635E-16
 -1       810 1.14983E-03 1.78912E-04-6.32866E-16
 -1       811 7.47236E-03 2.97080E-04-2.14785E-14
 -1       812 8.88112E-03-6.79483E-05-2.75205E-14
 -1       813 1.49536E-02 3.85124E-03-6.76138E-14
 -1       814 6.81141E-03 4.49186E-04-1.94320E-14
 -1       815 1.13685E-03 1.17611E-06-6.37169E-16
 -1       816 7.11399E-03 4.23198E-04-2.05934E-14
 -1       817 8.22882E-03-2.57547E-05-2.40402E-14
 -1       818 1.28427E-02 2.06018E-03-4.50774E-14
 -1       819 1.14200E-03-1.15075E-04-6.10108E-16
 -1       820 1.06305E-02 9.59973E-04-3.55907E-14
 -1       821 1.14920E-03-1.75952E-04-5.87898E-16
 -1       822 1.30621E-02 2.25944E-03-4.75686E-14
 -1       823 1.21493E-02 1.61681E-03-3.94302E-14
 -1       824 8.49336E-03-9.16165E-05-2.53411E-14
 -1       825 2.16419E-03 2.91349E-04-1.97203E-15
 -1       826 1.98919E-03-2.44106E-04-1.61938E-15
 -1       827 2.27805E-03-2.53969E-04-2.09309E-15
 -1       828 2.56709E-03-2.60288E-04-2.62996E-15
 -1       829 2.85599E-03-2.63970E-04-3.22923E-15
 -1       830 3.14459E-03-2.65743E-04-3.88991E-15
 -1       831 3.43281E-03-2.66163E-04-4.61242E-15
 -1       832 3.72067E-03-2.65641E-04-5.39527E-15
 -1       833 4.00826E-03-2.64468E-04-6.23896E-15
 -1       834 4.29572E-03-2.62845E-04-7.14382E-15
 -1       835 4.58332E-03-2.60908E-04-8.10830E-15
 -1       836 4.87142E-03-2.58761E-04-9.13144E-15
 -1       837 5.16054E-03-2.56515E-04-1.02162E-14
 -1       838 5.45139E-03-2.54332E-04-1.13601E-14
 -1       839 5.74488E-03-2.52490E-04-1.25637E-14
 -1       840 6.04208E-03-2.51445E-04-1.38327E-14
 -1       841 6.34408E-03-2.51862E-04-1.51703E-14
 -1       842 6.65171E-03-2.54527E-04-1.65823E-14
 -1       843 6.96505E-03-2.59984E-04-1.80688E-14
 -1       844 7.28289E-03-2.67717E-04-1.96247E-14
 -1       845 7.60225E-03-2.74639E-04-2.12546E-14
 -1       846 7.91890E-03-2.73519E-04-2.29574E-14
 -1       847 8.22887E-03-2.52330E-04-2.47325E-14
 -1       848 8.53123E-03-1.96478E-04-2.65805E-14
 -1       849 8.82935E-03-9.46641E-05-2.84938E-14
 -1       850 9.12932E-03 5.53998E-05-3.04754E-14
 -1       851 9.43602E-03 2.45576E-04-3.25253E-14
 -1       852 9.75024E-03 4.61850E-04-3.46351E-14
 -1       853 1.00690E-02 6.90648E-04-3.68046E-14
 -1       854 1.03879E-02 9.22701E-04-3.90334E-14
 -1       855 1.07033E-02 1.15342E-03-4.13136E-14
 -1       856 1.10132E-02 1.38143E-03-4.36486E-14
 -1       857 1.13173E-02 1.60696E-03-4.60426E-14
 -1       858 1.16161E-02 1.83080E-03-4.84930E-14
 -1       859 1.19107E-02 2.05368E-03-5.09954E-14
 -1       860 1.22021E-02 2.27615E-03-5.35621E-14
 -1       861 1.24912E-02 2.49855E-03-5.61956E-14
 -1       862 1.27789E-02 2.72105E-03-5.88797E-14
 -1       863 1.30656E-02 2.94376E-03-6.16099E-14
 -1       864 1.32681E-02 3.10548E-03-6.36659E-14
 -1       865 3.61830E-03 3.09283E-04-5.24925E-15
 -1       866 2.45987E-03 3.00160E-04-2.50600E-15
 -1       867 3.33114E-03 3.09340E-04-4.47082E-15
 -1       868 4.19066E-03 3.07330E-04-6.99566E-15
 -1       869 4.47544E-03 3.06096E-04-7.96586E-15
 -1       870 4.75876E-03 3.05166E-04-8.99799E-15
 -1       871 5.03992E-03 3.05051E-04-1.00892E-14
 -1       872 5.33159E-03 3.06679E-04-1.12996E-14
 -1       873 5.60426E-03 3.11207E-04-1.25136E-14
 -1       874 5.86946E-03 3.20670E-04-1.37876E-14
 -1       875 6.12381E-03 3.38041E-04-1.51233E-14
 -1       876 6.36281E-03 3.67365E-04-1.65238E-14
 -1       877 1.35449E-02 2.74384E-03-5.39926E-14
 -1       878 1.41448E-03-2.09400E-04-8.56533E-16
 -1       879 1.44358E-03 2.38951E-04-9.39400E-16
 -1       880 1.43847E-02 3.40949E-03-6.21337E-14
 -1       881 1.38221E-02 2.96406E-03-5.66567E-14
 -1       882 1.12251E-02 1.29867E-03-3.78645E-14
 -1       883 1.41024E-02 3.18624E-03-5.93703E-14
 -1       884 1.37342E-02 3.27349E-03-6.39160E-14
 -1       885 1.01893E-02 6.93493E-04-3.43514E-14
 -1       886 1.35129E-02 3.18950E-03-6.36985E-14
 -1       887 1.39553E-02 3.35691E-03-6.41233E-14
 -1       888 3.04349E-03 3.08254E-04-3.75575E-15
 -1       889 1.41760E-02 3.43971E-03-6.43262E-14
 -1       890 1.32724E-02 2.52692E-03-5.13764E-14
 -1       891 1.23247E-02 1.77064E-03-4.17541E-14
 -1       892 3.90486E-03 3.08499E-04-6.09044E-15
 -1       893 1.13805E-03-5.64656E-05-6.26506E-16
 -1       894 1.43960E-02 3.52198E-03-6.45131E-14
 -1       895 2.75183E-03 3.05437E-04-3.09710E-15
 -1       896 1.70105E-03-2.29631E-04-1.20787E-15
 -1       897 9.26587E-03 9.80682E-05-2.99867E-14
 -1       898 1.17223E-02 1.50719E-03-3.89997E-14
 -1       899 9.67898E-03 3.53119E-04-3.21540E-14
 -1       900 6.58092E-03 4.13097E-04-1.79850E-14
 -1       901 8.62927E-03-1.18880E-04-2.62636E-14
 -1       902 7.90067E-03 9.04495E-06-2.25659E-14
 -1       903 7.56979E-03 1.79341E-04-2.14371E-14
 -1       904 1.38383E-03-9.69668E-05-8.79952E-16
 -1       905 1.38415E-03 9.98221E-05-9.08694E-16
 -1       906 1.30017E-02 2.31066E-03-4.87551E-14
 -1       907 6.85931E-03 4.02613E-04-1.92983E-14
 -1       908 9.03903E-03-9.33104E-06-2.88210E-14
 -1       909 1.46996E-02 3.66972E-03-6.54996E-14
 -1       910 7.20645E-03 3.34375E-04-2.04486E-14
 -1       911 1.38096E-03 3.38982E-05-9.06437E-16
 -1       912 1.25577E-02 1.95317E-03-4.42359E-14
 -1       913 1.87590E-03 2.78209E-04-1.51270E-15
 -1       914 6.70182E-03 4.13805E-04-1.86391E-14
 -1       915 1.09488E-02 1.17179E-03-3.75531E-14
 -1       916 1.39786E-03-1.52260E-04-8.70957E-16
 -1       917 1.20330E-02 1.64850E-03-4.04657E-14
 -1       918 1.41186E-03 1.67725E-04-9.28185E-16
 -1       919 2.41523E-03-1.84174E-04-2.39825E-15
 -1       920 2.70508E-03-1.87862E-04-2.96898E-15
 -1       921 2.99474E-03-1.89828E-04-3.60220E-15
 -1       922 3.28399E-03-1.90528E-04-4.29746E-15
 -1       923 3.57276E-03-1.90300E-04-5.05348E-15
 -1       924 3.86106E-03-1.89367E-04-5.87172E-15
 -1       925 4.14898E-03-1.87857E-04-6.75139E-15
 -1       926 4.43674E-03-1.85815E-04-7.69142E-15
 -1       927 4.72464E-03-1.83230E-04-8.68889E-15
 -1       928 5.01316E-03-1.80054E-04-9.74709E-15
 -1       929 5.30300E-03-1.76259E-04-1.08671E-14
 -1       930 5.59514E-03-1.71911E-04-1.20455E-14
 -1       931 5.89087E-03-1.67295E-04-1.32850E-14
 -1       932 6.19180E-03-1.63075E-04-1.45889E-14
 -1       933 6.49967E-03-1.60451E-04-1.59635E-14
 -1       934 6.81598E-03-1.61179E-04-1.74118E-14
 -1       935 7.14115E-03-1.67031E-04-1.89283E-14
 -1       936 7.47350E-03-1.78859E-04-2.05184E-14
 -1       937 7.80872E-03-1.93004E-04-2.21827E-14
 -1       938 8.14022E-03-1.98959E-04-2.39183E-14
 -1       939 8.46190E-03-1.77380E-04-2.57268E-14
 -1       940 9.08577E-03 2.18127E-05-2.95645E-14
 -1       941 9.40357E-03 2.06845E-04-3.15887E-14
 -1       942 9.73133E-03 4.28139E-04-3.36795E-14
 -1       943 1.00658E-02 6.64806E-04-3.58313E-14
 -1       944 1.03999E-02 9.02214E-04-3.80384E-14
 -1       945 1.07284E-02 1.13469E-03-4.03035E-14
 -1       946 1.10483E-02 1.36150E-03-4.26235E-14
 -1       947 1.13593E-02 1.58419E-03-4.50008E-14
 -1       948 1.16626E-02 1.80467E-03-4.74331E-14
 -1       949 1.19599E-02 2.02440E-03-4.99190E-14
 -1       950 1.22528E-02 2.24425E-03-5.24572E-14
 -1       951 1.25427E-02 2.46464E-03-5.50626E-14
 -1       952 1.28306E-02 2.68571E-03-5.77227E-14
 -1       953 1.31174E-02 2.90741E-03-6.04316E-14
 -1       954 1.68394E-03-1.67780E-04-1.22550E-15
 -1       955 2.30290E-03 2.23414E-04-2.25147E-15
 -1       956 3.46971E-03 2.34412E-04-4.87414E-15
 -1       957 4.61400E-03 2.33693E-04-8.49132E-15
 -1       958 4.32970E-03 2.33546E-04-7.49228E-15
 -1       959 5.18331E-03 2.37982E-04-1.06947E-14
 -1       960 5.45957E-03 2.44059E-04-1.18736E-14
 -1       961 5.73095E-03 2.54856E-04-1.31126E-14
 -1       962 5.99585E-03 2.72712E-04-1.44134E-14
 -1       963 6.25260E-03 3.00543E-04-1.57794E-14
 -1       964 1.34898E-02 2.78635E-03-5.51978E-14
 -1       965 1.33762E-02 3.03930E-03-6.14019E-14
 -1       966 1.35980E-02 3.12323E-03-6.16146E-14
 -1       967 3.18141E-03 2.33883E-04-4.12750E-15
 -1       968 1.38196E-02 3.20625E-03-6.18173E-14
 -1       969 1.32132E-02 2.57026E-03-5.25687E-14
 -1       970 1.38086E-03-3.13030E-05-8.96676E-16
 -1       971 1.40404E-02 3.28834E-03-6.20070E-14
 -1       972 9.94407E-03 5.55584E-04-3.41546E-14
 -1       973 4.89645E-03 2.34873E-04-9.54882E-15
 -1       974 2.12554E-03-1.78176E-04-1.88954E-15
 -1       975 7.66401E-03 4.97231E-05-2.15437E-14
 -1       976 1.15858E-02 1.51232E-03-4.02075E-14
 -1       977 8.18061E-03-1.16300E-04-2.38929E-14
 -1       978 1.05142E-02 9.21866E-04-3.62742E-14
 -1       979 6.50028E-03 3.41105E-04-1.72075E-14
 -1       980 1.27742E-02 2.12726E-03-4.64786E-14
 -1       981 1.90434E-03-1.74159E-04-1.53970E-15
 -1       982 1.64382E-03 1.40525E-04-1.23229E-15
 -1       983 7.30454E-03 2.27975E-04-2.04052E-14
 -1       984 1.29356E-02 2.35437E-03-4.99295E-14
 -1       985 2.59599E-03 2.28989E-04-2.81122E-15
 -1       986 8.77483E-03-1.08157E-04-2.76115E-14
 -1       987 3.75730E-03 2.34290E-04-5.68376E-15
 -1       988 1.21723E-02 1.77285E-03-4.23856E-14
 -1       989 1.37692E-02 3.00565E-03-5.78747E-14
 -1       990 1.62894E-03-7.00610E-05-1.19680E-15
 -1       991 7.80960E-03-1.05555E-04-2.21058E-14
 -1       992 1.18899E-02 1.65032E-03-4.12893E-14
 -1       993 2.88891E-03 2.32255E-04-3.43679E-15
 -1       994 1.39043E-02 3.14695E-03-5.99316E-14
 -1       995 6.92050E-03 3.33895E-04-1.91577E-14
 -1       996 1.63887E-03 6.78886E-05-1.23316E-15
 -1       997 4.04403E-03 2.33883E-04-6.55514E-15
 -1       998 2.01367E-03 2.14855E-04-1.75933E-15
 -1       999 1.65562E-03-1.18350E-04-1.21310E-15
 -1      1000 1.71170E-03 1.93348E-04-1.31148E-15
 -1      1001 1.13295E-02 1.40566E-03-3.98810E-14
 -1      1002 1.36832E-02 3.06575E-03-5.97532E-14
 -1      1003 2.55546E-03-1.12382E-04-2.71150E-15
 -1      1004 6.41680E-03 2.56256E-04-1.64626E-14
 -1      1005 4.47000E-03 1.60567E-04-7.98832E-15
 -1      1006 7.45346E-03-4.64834E-05-2.04593E-14
 -1      1007 2.84580E-03-1.14063E-04-3.31650E-15
 -1      1008 3.13582E-03-1.14776E-04-3.98331E-15
 -1      1009 3.42532E-03-1.14741E-04-4.71194E-15
 -1      1010 3.71423E-03-1.14090E-04-5.50277E-15
 -1      1011 4.00257E-03-1.12870E-04-6.35680E-15
 -1      1012 4.29042E-03-1.11041E-04-7.27075E-15
 -1      1013 4.57801E-03-1.08486E-04-8.24564E-15
 -1      1014 4.86568E-03-1.05014E-04-9.27711E-15
 -1      1015 5.15398E-03-1.00389E-04-1.03699E-14
 -1      1016 5.44374E-03-9.43942E-05-1.15240E-14
 -1      1017 5.73619E-03-8.69519E-05-1.27373E-14
 -1      1018 6.03307E-03-7.83416E-05-1.40104E-14
 -1      1019 6.33667E-03-6.95201E-05-1.53492E-14
 -1      1020 6.64973E-03-6.25108E-05-1.67605E-14
 -1      1021 6.97479E-03-6.07491E-05-1.82428E-14
 -1      1022 1.04146E-02 8.86495E-04-3.70348E-14
 -1      1023 1.07584E-02 1.12295E-03-3.92839E-14
 -1      1024 1.10890E-02 1.34851E-03-4.15892E-14
 -1      1025 1.14066E-02 1.56725E-03-4.39493E-14
 -1      1026 1.17135E-02 1.78294E-03-4.63657E-14
 -1      1027 1.20124E-02 1.99820E-03-4.88359E-14
 -1      1028 1.23058E-02 2.21438E-03-5.13531E-14
 -1      1029 1.25957E-02 2.43200E-03-5.39341E-14
 -1      1030 1.28834E-02 2.65109E-03-5.65719E-14
 -1      1031 1.31301E-02 2.84475E-03-5.89682E-14
 -1      1032 6.64875E-03 3.23881E-04-1.78543E-14
 -1      1033 5.60096E-03 1.83085E-04-1.24752E-14
 -1      1034 5.32354E-03 1.72591E-04-1.12701E-14
 -1      1035 6.14661E-03 2.23190E-04-1.50688E-14
 -1      1036 5.03643E-03 1.66056E-04-1.00980E-14
 -1      1037 7.41194E-03 1.03046E-04-2.05092E-14
 -1      1038 3.32143E-03 1.58950E-04-4.50257E-15
 -1      1039 1.08528E-02 1.15100E-03-3.84906E-14
 -1      1040 1.34611E-02 2.98324E-03-5.95622E-14
 -1      1041 1.31534E-02 2.60951E-03-5.37487E-14
 -1      1042 1.63236E-03-1.18119E-06-1.21900E-15
 -1      1043 4.75410E-03 1.62440E-04-9.01398E-15
 -1      1044 5.87518E-03 1.99303E-04-1.37400E-14
 -1      1045 2.26516E-03-1.09432E-04-2.16918E-15
 -1      1046 1.23720E-02 1.94001E-03-4.47810E-14
 -1      1047 7.00072E-03 2.46892E-04-1.91145E-14
 -1      1048 1.28696E-02 2.39232E-03-5.10946E-14
 -1      1049 1.21035E-02 1.81390E-03-4.36523E-14
 -1      1050 4.18446E-03 1.59738E-04-7.02238E-15
 -1      1051 3.61001E-03 1.59291E-04-5.27949E-15
 -1      1052 2.15131E-03 1.48230E-04-2.00716E-15
 -1      1053 1.34337E-02 2.82603E-03-5.63912E-14
 -1      1054 1.18205E-02 1.67940E-03-4.25392E-14
 -1      1055 1.89020E-03 1.10831E-04-1.59139E-15
 -1      1056 3.02850E-03 1.58076E-04-3.78073E-15
 -1      1057 2.44491E-03 1.53220E-04-2.53693E-15
 -1      1058 1.88881E-03-9.14598E-05-1.55952E-15
 -1      1059 1.26982E-02 2.17051E-03-4.76397E-14
 -1      1060 1.89152E-03-1.78011E-05-1.58672E-15
 -1      1061 2.98887E-03-3.92187E-05-3.67202E-15
 -1      1062 3.27889E-03-3.91350E-05-4.37194E-15
 -1      1063 3.56828E-03-3.86855E-05-5.13467E-15
 -1      1064 3.85694E-03-3.78261E-05-5.95972E-15
 -1      1065 4.14490E-03-3.64411E-05-6.84868E-15
 -1      1066 4.43223E-03-3.43293E-05-7.79797E-15
 -1      1067 4.71909E-03-3.11956E-05-8.80589E-15
 -1      1068 5.00581E-03-2.66439E-05-9.87142E-15
 -1      1069 5.29290E-03-2.02022E-05-1.09995E-14
 -1      1070 5.58123E-03-1.13847E-05-1.21866E-14
 -1      1071 5.87222E-03 1.20528E-07-1.34322E-14
 -1      1072 6.16806E-03 1.41343E-05-1.47393E-14
 -1      1073 6.47210E-03 2.93354E-05-1.61165E-14
 -1      1074 6.78781E-03 4.27854E-05-1.75634E-14
 -1      1075 4.61208E-03 8.81600E-05-8.48143E-15
 -1      1076 6.70598E-03 2.55911E-04-1.78164E-14
 -1      1077 1.11914E-02 1.37281E-03-4.07849E-14
 -1      1078 1.15121E-02 1.58463E-03-4.31351E-14
 -1      1079 1.18184E-02 1.79285E-03-4.55393E-14
 -1      1080 1.21154E-02 2.00180E-03-4.80022E-14
 -1      1081 1.24067E-02 2.21319E-03-5.05152E-14
 -1      1082 1.26947E-02 2.42741E-03-5.30754E-14
 -1      1083 1.29808E-02 2.64421E-03-5.56953E-14
 -1      1084 1.32212E-02 2.81336E-03-5.76155E-14
 -1      1085 5.46936E-03 1.06897E-04-1.18440E-14
 -1      1086 6.31740E-03 1.64127E-04-1.57242E-14
 -1      1087 5.17999E-03 9.75987E-05-1.06434E-14
 -1      1088 7.09165E-03 7.77499E-05-1.90073E-14
 -1      1089 7.05481E-03 1.63361E-04-1.90655E-14
 -1      1090 2.73684E-03 1.56309E-04-3.12654E-15
 -1      1091 1.88964E-03 4.64227E-05-1.59241E-15
 -1      1092 2.14969E-03 8.07661E-05-2.01199E-15
 -1      1093 1.35580E-02 2.94562E-03-5.80632E-14
 -1      1094 2.40780E-03-3.82007E-05-2.45714E-15
 -1      1095 3.89774E-03 1.59443E-04-6.11863E-15
 -1      1096 2.69841E-03-3.89211E-05-3.03319E-15
 -1      1097 4.89661E-03 9.17642E-05-9.53304E-15
 -1      1098 2.14924E-03-2.78641E-05-1.99873E-15
 -1      1099 1.28075E-02 2.42772E-03-5.22618E-14
 -1      1100 1.22831E-02 1.96444E-03-4.58171E-14
 -1      1101 4.32641E-03 8.60399E-05-7.48846E-15
 -1      1102 6.03287E-03 1.39229E-04-1.43666E-14
 -1      1103 1.26238E-02 2.20615E-03-4.87907E-14
 -1      1104 1.30905E-02 2.64232E-03-5.48663E-14
 -1      1105 5.75091E-03 1.20337E-04-1.30740E-14
 -1      1106 1.20113E-02 1.82866E-03-4.46711E-14
 -1      1107 3.17214E-03 8.31894E-05-4.13225E-15
 -1      1108 1.33266E-02 2.83456E-03-5.73173E-14
 -1      1109 3.46156E-03 8.37069E-05-4.87494E-15
 -1      1110 2.88027E-03 8.23744E-05-3.44804E-15
 -1      1111 4.00058E-03 3.81679E-05-6.42355E-15
 -1      1112 6.75105E-03 1.86528E-04-1.77704E-14
 -1      1113 2.84369E-03 3.57895E-05-3.36323E-15
 -1      1114 1.24697E-02 2.18495E-03-4.93943E-14
 -1      1115 2.14871E-03 2.64412E-05-2.00801E-15
 -1      1116 2.45415E-03 6.19421E-05-2.56208E-15
 -1      1117 1.21933E-02 1.98383E-03-4.69169E-14
 -1      1118 3.71250E-03 3.73159E-05-5.56402E-15
 -1      1119 6.64138E-03 1.41594E-04-1.71404E-14
 -1      1120 0.00000E+00 0.00000E+00 0.00000E+00
 -1      1121 0.00000E+00 0.00000E+00 0.00000E+00
 -1      1122 0.00000E+00 0.00000E+00 0.00000E+00
 -1      1123 0.00000E+00 0.00000E+00 0.00000E+00
 -1      1124 0.00000E+00 0.00000E+00 0.00000E+00
 -1      1125 0.00000E+00 0.00000E+00 0.00000E+00
 -1      1126 0.00000E+00 0.00000E+00 0.00000E+00
 -1      1127 0.00000E+00 0.00000E+00 0.00000E+00
 -1      1128 0.00000E+00 0.00000E+00 0.00000E+00
 -1      1129 0.00000E+00 0.00000E+00 0.00000E+00
 -1      1130 0.00000E+00 0.00000E+00 0.00000E+00
 -1      1131 0.00000E+00 0.00000E+00 0.00000E+00
 -1      1132 0.00000E+00 0.00000E+00 0.00000E+00
 -1      1133 0.00000E+00 0.00000E+00 0.00000E+00
 -1      1134 0.00000E+00 0.00000E+00 0.00000E+00
 -1      1135 0.00000E+00 0.00000E+00 0.00000E+00
 -1      1136 0.00000E+00 0.00000E+00 0.00000E+00
 -1      1137 2.11644E-04-1.48312E-04 1.71033E-17
 -1      1138 5.51586E-04-3.37441E-04 1.66832E-17
 -1      1139 8.33398E-04-4.58867E-04-3.84892E-17
 -1      1140 1.10298E-03-5.40472E-04-1.58592E-16
 -1      1141 1.36842E-03-5.97630E-04-3.42865E-16
 -1      1142 1.63328E-03-6.38231E-04-5.92069E-16
 -1      1143 1.89942E-03-6.66923E-04-9.07992E-16
 -1      1144 2.16770E-03-6.86829E-04-1.29245E-15
 -1      1145 2.43843E-03-7.00239E-04-1.74722E-15
 -1      1146 2.71163E-03-7.08891E-04-2.27208E-15
 -1      1147 2.98716E-03-7.14111E-04-2.86258E-15
 -1      1148 3.26480E-03-7.16918E-04-3.51561E-15
 -1      1149 3.54431E-03-7.18096E-04-4.23094E-15
 -1      1150 3.82543E-03-7.18257E-04-5.00905E-15
 -1      1151 4.10792E-03-7.17891E-04-5.84640E-15
 -1      1152 4.39153E-03-7.17411E-04-6.74172E-15
 -1      1153 4.67596E-03-7.17182E-04-7.69407E-15
 -1      1154 4.96087E-03-7.17538E-04-8.70543E-15
 -1      1155 5.24580E-03-7.18779E-04-9.77415E-15
 -1      1156 5.53010E-03-7.21130E-04-1.09035E-14
 -1      1157 5.81285E-03-7.24659E-04-1.21007E-14
 -1      1158 6.09285E-03-7.29137E-04-1.33716E-14
 -1      1159 6.36856E-03-7.33834E-04-1.47161E-14
 -1      1160 6.63817E-03-7.37277E-04-1.61373E-14
 -1      1161 6.89982E-03-7.37010E-04-1.76416E-14
 -1      1162 7.15185E-03-7.29453E-04-1.92225E-14
 -1      1163 7.39329E-03-7.09979E-04-2.08801E-14
 -1      1164 7.62429E-03-6.73308E-04-2.26079E-14
 -1      1165 7.84640E-03-6.14244E-04-2.44022E-14
 -1      1166 8.06263E-03-5.28624E-04-2.62605E-14
 -1      1167 8.27701E-03-4.14207E-04-2.81756E-14
 -1      1168 8.49393E-03-2.71194E-04-3.01557E-14
 -1      1169 8.71732E-03-1.02184E-04-3.21870E-14
 -1      1170 8.94995E-03 8.84348E-05-3.42708E-14
 -1      1171 9.19314E-03 2.95402E-04-3.64150E-14
 -1      1172 9.44683E-03 5.13519E-04-3.86130E-14
 -1      1173 9.70992E-03 7.38326E-04-4.08581E-14
 -1      1174 9.98073E-03 9.66444E-04-4.31586E-14
 -1      1175 1.02574E-02 1.19561E-03-4.55165E-14
 -1      1176 1.05382E-02 1.42449E-03-4.79466E-14
 -1      1177 1.08217E-02 1.65246E-03-5.04579E-14
 -1      1178 1.11068E-02 1.87935E-03-5.30394E-14
 -1      1179 1.13928E-02 2.10525E-03-5.56783E-14
 -1      1180 1.16791E-02 2.33034E-03-5.83829E-14
 -1      1181 1.19655E-02 2.55486E-03-6.11349E-14
 -1      1182 1.22518E-02 2.77903E-03-6.39144E-14
 -1      1183 1.25378E-02 3.00303E-03-6.67125E-14
 -1      1184 1.28237E-02 3.22701E-03-6.95224E-14
 -1      1185 1.31095E-02 3.45105E-03-7.23542E-14
 -1      1186 1.33881E-02 3.66960E-03-7.51401E-14
 -1      1187 2.28403E-04 1.60688E-04 1.28885E-17
 -1      1188 5.53759E-04 3.42086E-04-6.46456E-18
 -1      1189 8.34318E-04 4.61062E-04-8.85387E-17
 -1      1190 1.10385E-03 5.42184E-04-2.40286E-16
 -1      1191 1.36928E-03 5.99327E-04-4.59742E-16
 -1      1192 1.63416E-03 6.40011E-04-7.47557E-16
 -1      1193 1.90031E-03 6.68798E-04-1.10234E-15
 -1      1194 2.16857E-03 6.88793E-04-1.52038E-15
 -1      1195 2.43925E-03 7.02270E-04-2.00111E-15
 -1      1196 2.71235E-03 7.10937E-04-2.54733E-15
 -1      1197 2.99466E-03 7.16174E-04-3.18200E-15
 -1      1198 3.27914E-03 7.18736E-04-3.88993E-15
 -1      1199 3.55856E-03 7.19365E-04-4.64863E-15
 -1      1200 3.83965E-03 7.18619E-04-5.47678E-15
 -1      1201 4.12230E-03 7.16790E-04-6.37366E-15
 -1      1202 4.40652E-03 7.14022E-04-7.33818E-15
 -1      1203 4.69252E-03 7.10333E-04-8.36829E-15
 -1      1204 4.98078E-03 7.05637E-04-9.46248E-15
 -1      1205 5.27229E-03 6.99789E-04-1.06156E-14
 -1      1206 5.56880E-03 6.92672E-04-1.18275E-14
 -1      1207 5.88106E-03 6.84169E-04-1.31306E-14
 -1      1208 6.20712E-03 6.75482E-04-1.44936E-14
 -1      1209 6.54696E-03 6.69861E-04-1.58793E-14
 -1      1210 6.92105E-03 6.75289E-04-1.73242E-14
 -1      1211 7.34760E-03 7.11599E-04-1.88326E-14
 -1      1212 7.84827E-03 8.21699E-04-2.04018E-14
 -1      1213 8.43520E-03 1.08220E-03-2.20161E-14
 -1      1214 9.05574E-03 1.56603E-03-2.36321E-14
 -1      1215 9.55400E-03 2.18236E-03-2.51501E-14
 -1      1216 9.86157E-03 2.71926E-03-2.66125E-14
 -1      1217 1.00405E-02 2.95046E-03-2.80929E-14
 -1      1218 1.02160E-02 2.82130E-03-2.94930E-14
 -1      1219 1.05282E-02 2.46188E-03-3.10745E-14
 -1      1220 1.10683E-02 2.03675E-03-3.31155E-14
 -1      1221 1.17022E-02 1.80421E-03-3.54014E-14
 -1      1222 1.22757E-02 1.79817E-03-3.77484E-14
 -1      1223 1.27630E-02 1.92861E-03-4.01588E-14
 -1      1224 1.31796E-02 2.12331E-03-4.26306E-14
 -1      1225 1.35470E-02 2.34414E-03-4.51303E-14
 -1      1226 1.38827E-02 2.57398E-03-4.76752E-14
 -1      1227 1.42063E-02 2.81165E-03-5.03385E-14
 -1      1228 1.45173E-02 3.04876E-03-5.30622E-14
 -1      1229 1.48135E-02 3.27875E-03-5.57808E-14
 -1      1230 1.51054E-02 3.50740E-03-5.85484E-14
 -1      1231 1.53947E-02 3.73489E-03-6.13347E-14
 -1      1232 1.56824E-02 3.96142E-03-6.41559E-14
 -1      1233 1.59691E-02 4.18718E-03-6.70023E-14
 -1      1234 1.62553E-02 4.41232E-03-6.98827E-14
 -1      1235 1.65411E-02 4.63697E-03-7.27835E-14
 -1      1236 1.68268E-02 4.86121E-03-7.56756E-14
 -1      1237 1.71125E-02 5.08522E-03-7.85649E-14
 -1      1238 1.71452E-02 5.15504E-03-7.99492E-14
 -1      1239 1.69250E-02 5.07071E-03-7.98472E-14
 -1      1240 1.67050E-02 4.98640E-03-7.97071E-14
 -1      1241 1.64853E-02 4.90224E-03-7.95101E-14
 -1      1242 1.62658E-02 4.81831E-03-7.93244E-14
 -1      1243 1.60483E-02 4.73537E-03-7.91356E-14
 -1      1244 1.58306E-02 4.65264E-03-7.89073E-14
 -1      1245 1.56109E-02 4.56935E-03-7.87327E-14
 -1      1246 1.53910E-02 4.48610E-03-7.85839E-14
 -1      1247 1.51707E-02 4.40279E-03-7.83908E-14
 -1      1248 1.49503E-02 4.31936E-03-7.81703E-14
 -1      1249 1.47316E-02 4.23646E-03-7.79331E-14
 -1      1250 1.45128E-02 4.15339E-03-7.76630E-14
 -1      1251 1.42921E-02 4.06943E-03-7.73935E-14
 -1      1252 1.40714E-02 3.98532E-03-7.71427E-14
 -1      1253 1.38508E-02 3.90109E-03-7.68903E-14
 -1      1254 1.36322E-02 3.81752E-03-7.66351E-14
 -1      1255 1.22840E-02 1.33730E-03-3.28390E-14
 -1      1256 1.22681E-02 1.52324E-03-3.25654E-14
 -1      1257 1.21093E-02 1.73347E-03-3.20745E-14
 -1      1258 1.18167E-02 1.98206E-03-3.14055E-14
 -1      1259 1.14064E-02 2.26140E-03-3.06014E-14
 -1      1260 1.09034E-02 2.52491E-03-2.97122E-14
 -1      1261 1.03252E-02 2.69658E-03-2.87724E-14
 -1      1262 9.70628E-03 2.69976E-03-2.78229E-14
 -1      1263 9.07076E-03 2.50455E-03-2.68934E-14
 -1      1264 8.46802E-03 2.17153E-03-2.60311E-14
 -1      1265 7.95858E-03 1.81070E-03-2.53051E-14
 -1      1266 7.54039E-03 1.48013E-03-2.47140E-14
 -1      1267 7.21040E-03 1.19033E-03-2.42355E-14
 -1      1268 6.99379E-03 9.47859E-04-2.39034E-14
 -1      1269 6.91342E-03 7.60066E-04-2.37663E-14
 -1      1270 6.95493E-03 6.04106E-04-2.38118E-14
 -1      1271 7.11056E-03 4.59787E-04-2.40469E-14
 -1      1272 7.37265E-03 3.25193E-04-2.44767E-14
 -1      1273 7.70847E-03 2.08348E-04-2.50674E-14
 -1      1274 8.08116E-03 1.19113E-04-2.57524E-14
 -1      1275 8.48743E-03 6.27726E-05-2.65273E-14
 -1      1276 8.93600E-03 4.95267E-05-2.74097E-14
 -1      1277 9.41234E-03 8.76705E-05-2.83602E-14
 -1      1278 9.88501E-03 1.76811E-04-2.92893E-14
 -1      1279 1.03483E-02 3.06101E-04-3.01600E-14
 -1      1280 1.07992E-02 4.64851E-04-3.09578E-14
 -1      1281 1.12332E-02 6.42404E-04-3.16754E-14
 -1      1282 1.16250E-02 8.25458E-04-3.22613E-14
 -1      1283 1.19422E-02 1.00039E-03-3.26683E-14
 -1      1284 1.21663E-02 1.16586E-03-3.28648E-14
 -1      1285 1.66689E-04-1.10325E-04 7.23705E-18
 -1      1286 1.12542E-04-5.69608E-05-6.85758E-18
 -1      1287 1.17621E-04-6.75697E-05-3.19840E-18
 -1      1288 1.08425E-04-4.34746E-05-1.32002E-17
 -1      1289 1.10288E-04-4.95903E-05-1.11537E-17
 -1      1290 2.26335E-04-1.07593E-04-2.63461E-17
 -1      1291 1.06845E-04-3.35966E-05-1.73337E-17
 -1      1292 1.07690E-04-3.83179E-05-1.60868E-17
 -1      1293 2.19111E-04-8.24235E-05-3.84079E-17
 -1      1294 1.06066E-04-2.53366E-05-1.99222E-17
 -1      1295 1.06497E-04-2.93688E-05-1.91362E-17
 -1      1296 2.15875E-04-6.32453E-05-4.63496E-17
 -1      1297 1.05662E-04-1.80792E-05-2.17518E-17
 -1      1298 1.05893E-04-2.16450E-05-2.12639E-17
 -1      1299 2.14215E-04-4.71576E-05-5.16351E-17
 -1      1300 1.05441E-04-1.12321E-05-2.29851E-17
 -1      1301 1.05564E-04-1.46146E-05-2.27005E-17
 -1      1302 2.13296E-04-3.27312E-05-5.53621E-17
 -1      1303 1.05341E-04-4.68741E-06-2.39338E-17
 -1      1304 1.05394E-04-7.93801E-06-2.37169E-17
 -1      1305 2.12799E-04-1.91784E-05-5.80048E-17
 -1      1306 1.05330E-04 1.73944E-06-2.46385E-17
 -1      1307 1.05328E-04-1.47137E-06-2.44894E-17
 -1      1308 2.12585E-04-6.15932E-06-6.00241E-17
 -1      1309 1.05403E-04 8.21662E-06-2.47876E-17
 -1      1310 1.05346E-04 4.95903E-06-2.47334E-17
 -1      1311 2.12594E-04 6.69913E-06-6.11355E-17
 -1      1312 1.05582E-04 1.49204E-05-2.47876E-17
 -1      1313 1.05454E-04 1.15221E-05-2.47876E-17
 -1      1314 2.12827E-04 1.97459E-05-6.12710E-17
 -1      1315 1.05916E-04 2.19371E-05-2.41913E-17
 -1      1316 1.05680E-04 1.83470E-05-2.43810E-17
 -1      1317 2.13340E-04 3.32418E-05-6.07831E-17
 -1      1318 1.06540E-04 2.98024E-05-2.29851E-17
 -1      1319 1.06100E-04 2.57260E-05-2.33375E-17
 -1      1320 2.14282E-04 4.77653E-05-5.89128E-17
 -1      1321 1.07737E-04 3.89017E-05-2.07625E-17
 -1      1322 1.06885E-04 3.41058E-05-2.16434E-17
 -1      1323 2.15994E-04 6.41737E-05-5.56060E-17
 -1      1324 1.10268E-04 5.03398E-05-1.65612E-17
 -1      1325 1.08436E-04 4.41572E-05-1.83908E-17
 -1      1326 2.19230E-04 8.36845E-05-4.94261E-17
 -1      1327 1.16926E-04 6.76040E-05-9.21572E-18
 -1      1328 1.12178E-04 5.77589E-05-1.28071E-17
 -1      1329 2.26308E-04 1.09420E-04-3.90042E-17
 -1      1330 1.57566E-04 1.09841E-04 2.33103E-18
 -1      1331 1.35654E-04 8.60741E-05-5.13641E-18
 -1      1332 2.56023E-04 1.52058E-04-2.62106E-17
 -1      1333 3.35059E-04 2.20697E-04-7.26415E-18
 -1      1334 4.21514E-04-2.61682E-04 1.38236E-18
 -1      1335 5.74605E-04-3.36709E-04-1.46774E-17
 -1      1336 7.21792E-04-3.97277E-04-4.72848E-17
 -1      1337 8.64962E-04-4.46536E-04-9.56266E-17
 -1      1338 6.12059E-04-3.30786E-04-5.20010E-17
 -1      1339 1.00499E-03-4.87568E-04-1.58971E-16
 -1      1340 1.14284E-03-5.21514E-04-2.38037E-16
 -1      1341 9.05300E-04-4.31409E-04-1.55515E-16
 -1      1342 1.27935E-03-5.50241E-04-3.33162E-16
 -1      1343 1.41501E-03-5.74226E-04-4.44713E-16
 -1      1344 1.18775E-03-5.00743E-04-3.20802E-16
 -1      1345 1.55028E-03-5.94534E-04-5.72201E-16
 -1      1346 1.68541E-03-6.11499E-04-7.16102E-16
 -1      1347 1.46472E-03-5.49409E-04-5.49501E-16
 -1      1348 1.82063E-03-6.25749E-04-8.76388E-16
 -1      1349 1.95607E-03-6.37577E-04-1.05363E-15
 -1      1350 1.73947E-03-5.83585E-04-8.42425E-16
 -1      1351 2.09184E-03-6.47386E-04-1.24805E-15
 -1      1352 2.22800E-03-6.55425E-04-1.45977E-15
 -1      1353 2.01387E-03-6.07252E-04-1.20168E-15
 -1      1354 2.36459E-03-6.61971E-04-1.68869E-15
 -1      1355 2.50163E-03-6.67230E-04-1.93477E-15
 -1      1356 2.28892E-03-6.23226E-04-1.62846E-15
 -1      1357 2.63915E-03-6.71399E-04-2.19813E-15
 -1      1358 2.77712E-03-6.74644E-04-2.47840E-15
 -1      1359 2.56512E-03-6.33586E-04-2.12349E-15
 -1      1360 2.91555E-03-6.77108E-04-2.77432E-15
 -1      1361 3.05441E-03-6.78924E-04-3.08618E-15
 -1      1362 2.84265E-03-6.39899E-04-2.68528E-15
 -1      1363 3.19370E-03-6.80197E-04-3.41353E-15
 -1      1364 3.33340E-03-6.81032E-04-3.75641E-15
 -1      1365 3.12157E-03-6.43354E-04-3.31098E-15
 -1      1366 3.47347E-03-6.81506E-04-4.11566E-15
 -1      1367 3.61390E-03-6.81704E-04-4.49059E-15
 -1      1368 3.40180E-03-6.44857E-04-3.99955E-15
 -1      1369 3.75466E-03-6.81687E-04-4.88020E-15
 -1      1370 3.89573E-03-6.81520E-04-5.28429E-15
 -1      1371 3.68325E-03-6.45104E-04-4.75023E-15
 -1      1372 4.03708E-03-6.81256E-04-5.70391E-15
 -1      1373 4.17868E-03-6.80948E-04-6.13854E-15
 -1      1374 3.96576E-03-6.44643E-04-5.56133E-15
 -1      1375 4.32050E-03-6.80644E-04-6.58737E-15
 -1      1376 4.46252E-03-6.80389E-04-7.05013E-15
 -1      1377 4.24916E-03-6.43924E-04-6.43166E-15
 -1      1378 4.60469E-03-6.80230E-04-7.52755E-15
 -1      1379 4.74698E-03-6.80205E-04-8.02001E-15
 -1      1380 4.53327E-03-6.43340E-04-7.36007E-15
 -1      1381 4.88934E-03-6.80366E-04-8.52627E-15
 -1      1382 5.03171E-03-6.80737E-04-9.04759E-15
 -1      1383 4.81783E-03-6.43254E-04-8.34662E-15
 -1      1384 5.17405E-03-6.81375E-04-9.58435E-15
 -1      1385 5.31627E-03-6.82289E-04-1.01346E-14
 -1      1386 5.10252E-03-6.44012E-04-9.39183E-15
 -1      1387 5.45828E-03-6.83533E-04-1.07015E-14
 -1      1388 5.60000E-03-6.85086E-04-1.12840E-14
 -1      1389 5.38693E-03-6.45924E-04-1.04976E-14
 -1      1390 5.74130E-03-6.86988E-04-1.18833E-14
 -1      1391 5.88207E-03-6.89174E-04-1.25017E-14
 -1      1392 5.67048E-03-6.49204E-04-1.16653E-14
 -1      1393 6.02214E-03-6.91641E-04-1.31375E-14
 -1      1394 6.16136E-03-6.94258E-04-1.37915E-14
 -1      1395 5.95241E-03-6.53861E-04-1.29019E-14
 -1      1396 6.29956E-03-6.96948E-04-1.44651E-14
 -1      1397 6.43654E-03-6.99486E-04-1.51567E-14
 -1      1398 6.23176E-03-6.59519E-04-1.42124E-14
 -1      1399 6.57212E-03-7.01676E-04-1.58694E-14
 -1      1400 6.70612E-03-7.03177E-04-1.66016E-14
 -1      1401 6.50738E-03-6.65170E-04-1.55997E-14
 -1      1402 6.83833E-03-7.03638E-04-1.73531E-14
 -1      1403 6.96862E-03-7.02589E-04-1.81251E-14
 -1      1404 6.77804E-03-6.68901E-04-1.70662E-14
 -1      1405 7.09683E-03-6.99505E-04-1.89163E-14
 -1      1406 7.22288E-03-6.93798E-04-1.97248E-14
 -1      1407 7.04257E-03-6.67659E-04-1.86095E-14
 -1      1408 7.34673E-03-6.84794E-04-2.05534E-14
 -1      1409 7.46840E-03-6.71839E-04-2.14008E-14
 -1      1410 7.30010E-03-6.57171E-04-2.02287E-14
 -1      1411 7.58798E-03-6.54187E-04-2.22631E-14
 -1      1412 7.70564E-03-6.31202E-04-2.31435E-14
 -1      1413 7.55040E-03-6.32162E-04-2.19196E-14
 -1      1414 7.82162E-03-6.02198E-04-2.40409E-14
 -1      1415 7.93621E-03-5.66670E-04-2.49551E-14
 -1      1416 7.79405E-03-5.86952E-04-2.36801E-14
 -1      1417 8.04981E-03-5.24138E-04-2.58841E-14
 -1      1418 8.16280E-03-4.74332E-04-2.68275E-14
 -1      1419 8.03262E-03-5.16397E-04-2.55071E-14
 -1      1420 8.27566E-03-4.17098E-04-2.77874E-14
 -1      1421 8.38880E-03-3.52460E-04-2.87617E-14
 -1      1422 8.26854E-03-4.16941E-04-2.73966E-14
 -1      1423 8.50268E-03-2.80630E-04-2.97515E-14
 -1      1424 8.61768E-03-2.01922E-04-3.07553E-14
 -1      1425 8.50471E-03-2.87449E-04-2.93473E-14
 -1      1426 8.73418E-03-1.16856E-04-3.17714E-14
 -1      1427 8.85244E-03-2.59673E-05-3.28008E-14
 -1      1428 8.74397E-03-1.29481E-04-3.13553E-14
 -1      1429 8.97269E-03 7.00406E-05-3.38453E-14
 -1      1430 9.09507E-03 1.70523E-04-3.49039E-14
 -1      1431 8.98863E-03 5.30889E-05-3.34186E-14
 -1      1432 9.21964E-03 2.74739E-04-3.59759E-14
 -1      1433 9.34641E-03 3.82043E-04-3.70619E-14
 -1      1434 9.24010E-03 2.54967E-04-3.55372E-14
 -1      1435 9.47532E-03 4.91783E-04-3.81616E-14
 -1      1436 9.60627E-03 6.03391E-04-3.92747E-14
 -1      1437 9.49884E-03 4.70497E-04-3.77112E-14
 -1      1438 9.73911E-03 7.16372E-04-4.04003E-14
 -1      1439 9.87368E-03 8.30278E-04-4.15375E-14
 -1      1440 9.76449E-03 6.94555E-04-3.99388E-14
 -1      1441 1.00098E-02 9.44788E-04-4.26900E-14
 -1      1442 1.01473E-02 1.05958E-03-4.38583E-14
 -1      1443 1.00361E-02 9.23079E-04-4.22220E-14
 -1      1444 1.02859E-02 1.17449E-03-4.50409E-14
 -1      1445 1.04255E-02 1.28931E-03-4.62373E-14
 -1      1446 1.03126E-02 1.15323E-03-4.45598E-14
 -1      1447 1.05660E-02 1.40397E-03-4.74540E-14
 -1      1448 1.07071E-02 1.51836E-03-4.86903E-14
 -1      1449 1.05927E-02 1.38327E-03-4.69611E-14
 -1      1450 1.08488E-02 1.63248E-03-4.99440E-14
 -1      1451 1.09909E-02 1.74628E-03-5.12182E-14
 -1      1452 1.08753E-02 1.61234E-03-4.94314E-14
 -1      1453 1.11334E-02 1.85981E-03-5.25092E-14
 -1      1454 1.12760E-02 1.97303E-03-5.38127E-14
 -1      1455 1.11596E-02 1.84013E-03-5.19776E-14
 -1      1456 1.14189E-02 2.08602E-03-5.51335E-14
 -1      1457 1.15619E-02 2.19876E-03-5.64686E-14
 -1      1458 1.14449E-02 2.06669E-03-5.45882E-14
 -1      1459 1.17049E-02 2.31132E-03-5.78198E-14
 -1      1460 1.18480E-02 2.42370E-03-5.91848E-14
 -1      1461 1.17308E-02 2.29223E-03-5.72596E-14
 -1      1462 1.19911E-02 2.53596E-03-6.05575E-14
 -1      1463 1.21342E-02 2.64811E-03-6.19422E-14
 -1      1464 1.20168E-02 2.51703E-03-5.99834E-14
 -1      1465 1.22773E-02 2.76019E-03-6.33339E-14
 -1      1466 1.24203E-02 2.87221E-03-6.47271E-14
 -1      1467 1.23029E-02 2.74133E-03-6.27497E-14
 -1      1468 1.25634E-02 2.98419E-03-6.61280E-14
 -1      1469 1.27064E-02 3.09617E-03-6.75331E-14
 -1      1470 1.25890E-02 2.96536E-03-6.55450E-14
 -1      1471 1.28493E-02 3.20814E-03-6.89446E-14
 -1      1472 1.29922E-02 3.32013E-03-7.03549E-14
 -1      1473 1.28749E-02 3.18929E-03-6.83598E-14
 -1      1474 1.31351E-02 3.43215E-03-7.17685E-14
 -1      1475 1.32780E-02 3.54420E-03-7.31913E-14
 -1      1476 1.31608E-02 3.41326E-03-7.11857E-14
 -1      1477 1.34964E-02 3.71102E-03-7.52719E-14
 -1      1478 1.35221E-02 3.69209E-03-7.46768E-14
 -1      1479 6.43037E-04 3.71936E-04-5.70155E-17
 -1      1480 4.92919E-04 3.03632E-04-2.32697E-17
 -1      1481 4.44860E-04 2.65836E-04-3.74592E-17
 -1      1482 9.28615E-04 4.71833E-04-1.76793E-16
 -1      1483 7.87757E-04 4.26376E-04-1.08502E-16
 -1      1484 7.44720E-04 3.90606E-04-1.24859E-16
 -1      1485 1.20350E-03 5.41156E-04-3.63004E-16
 -1      1486 1.06684E-03 5.09527E-04-2.61482E-16
 -1      1487 1.03076E-03 4.75970E-04-2.79467E-16
 -1      1488 1.47406E-03 5.90243E-04-6.16599E-16
 -1      1489 1.33900E-03 5.67842E-04-4.81413E-16
 -1      1490 1.30869E-03 5.35690E-04-4.99966E-16
 -1      1491 1.74363E-03 6.25012E-04-9.37252E-16
 -1      1492 1.60880E-03 6.09178E-04-7.68374E-16
 -1      1493 1.58294E-03 5.77859E-04-7.86724E-16
 -1      1494 2.01388E-03 6.49313E-04-1.32265E-15
 -1      1495 1.87858E-03 6.38299E-04-1.12207E-15
 -1      1496 1.85615E-03 6.07443E-04-1.13914E-15
 -1      1497 2.28565E-03 6.65886E-04-1.77180E-15
 -1      1498 2.14954E-03 6.58435E-04-1.53934E-15
 -1      1499 2.12973E-03 6.27812E-04-1.55580E-15
 -1      1500 2.55925E-03 6.76761E-04-2.28437E-15
 -1      1501 2.42220E-03 6.71935E-04-2.01995E-15
 -1      1502 2.40440E-03 6.41404E-04-2.03583E-15
 -1      1503 2.83477E-03 6.83463E-04-2.86450E-15
 -1      1504 2.69677E-03 6.80558E-04-2.56586E-15
 -1      1505 2.68048E-03 6.50034E-04-2.58070E-15
 -1      1506 3.12605E-03 6.87251E-04-3.54976E-15
 -1      1507 2.98016E-03 6.85710E-04-3.19730E-15
 -1      1508 2.96503E-03 6.55142E-04-3.21001E-15
 -1      1509 3.40521E-03 6.88625E-04-4.27146E-15
 -1      1510 3.26542E-03 6.88168E-04-3.90230E-15
 -1      1511 3.25115E-03 6.57526E-04-3.91180E-15
 -1      1512 3.68595E-03 6.88409E-04-5.06165E-15
 -1      1513 3.54540E-03 6.88686E-04-4.65806E-15
 -1      1514 3.53172E-03 6.57958E-04-4.66483E-15
 -1      1515 3.96818E-03 6.86981E-04-5.92088E-15
 -1      1516 3.82689E-03 6.87826E-04-5.48265E-15
 -1      1517 3.81365E-03 6.57004E-04-5.48586E-15
 -1      1518 4.25187E-03 6.84552E-04-6.84685E-15
 -1      1519 4.10984E-03 6.85878E-04-6.37602E-15
 -1      1520 4.09691E-03 6.54954E-04-6.37472E-15
 -1      1521 4.53714E-03 6.81186E-04-7.83977E-15
 -1      1522 4.39430E-03 6.82975E-04-7.33509E-15
 -1      1523 4.38155E-03 6.51938E-04-7.32992E-15
 -1      1524 4.82433E-03 6.76826E-04-8.89806E-15
 -1      1525 4.68047E-03 6.79118E-04-8.36108E-15
 -1      1526 4.66778E-03 6.47940E-04-8.35048E-15
 -1      1527 5.11410E-03 6.71307E-04-1.00161E-14
 -1      1528 4.96885E-03 6.74187E-04-9.44905E-15
 -1      1529 4.95603E-03 6.42819E-04-9.43459E-15
 -1      1530 5.40766E-03 6.64416E-04-1.11952E-14
 -1      1531 5.26033E-03 6.67981E-04-1.05984E-14
 -1      1532 5.24705E-03 6.36330E-04-1.05793E-14
 -1      1533 5.70703E-03 6.56003E-04-1.24320E-14
 -1      1534 5.55648E-03 6.60287E-04-1.18066E-14
 -1      1535 5.54214E-03 6.28189E-04-1.17828E-14
 -1      1536 6.03127E-03 6.45793E-04-1.37937E-14
 -1      1537 5.86762E-03 6.50810E-04-1.31051E-14
 -1      1538 5.85100E-03 6.17964E-04-1.30771E-14
 -1      1539 6.35503E-03 6.36179E-04-1.51486E-14
 -1      1540 6.19092E-03 6.40480E-04-1.44639E-14
 -1      1541 6.16972E-03 6.06368E-04-1.44319E-14
 -1      1542 6.70151E-03 6.31161E-04-1.65593E-14
 -1      1543 6.52479E-03 6.32152E-04-1.58468E-14
 -1      1544 6.49502E-03 5.95954E-04-1.58114E-14
 -1      1545 7.08190E-03 6.42391E-04-1.80346E-14
 -1      1546 6.88654E-03 6.32971E-04-1.72889E-14
 -1      1547 6.84102E-03 5.93204E-04-1.72512E-14
 -1      1548 7.51002E-03 6.97364E-04-1.95655E-14
 -1      1549 7.28889E-03 6.61206E-04-1.87919E-14
 -1      1550 7.21599E-03 6.15186E-04-1.87499E-14
 -1      1551 7.99861E-03 8.53065E-04-2.11538E-14
 -1      1552 7.74635E-03 7.57678E-04-2.03527E-14
 -1      1553 7.63000E-03 7.00485E-04-2.03048E-14
 -1      1554 8.54794E-03 1.20121E-03-2.27877E-14
 -1      1555 8.26751E-03 9.97810E-04-2.19651E-14
 -1      1556 8.09360E-03 9.22243E-04-2.19125E-14
 -1      1557 9.09288E-03 1.78322E-03-2.44009E-14
 -1      1558 8.82290E-03 1.46514E-03-2.35868E-14
 -1      1559 8.59907E-03 1.36756E-03-2.35354E-14
 -1      1560 9.51208E-03 2.39261E-03-2.58245E-14
 -1      1561 9.31047E-03 2.08990E-03-2.51041E-14
 -1      1562 9.08493E-03 1.98792E-03-2.50539E-14
 -1      1563 9.85683E-03 2.85275E-03-2.73186E-14
 -1      1564 9.69104E-03 2.66176E-03-2.65632E-14
 -1      1565 9.52869E-03 2.58476E-03-2.65073E-14
 -1      1566 1.01471E-02 2.90424E-03-2.87826E-14
 -1      1567 9.99941E-03 2.92647E-03-2.80424E-14
 -1      1568 9.94500E-03 2.88647E-03-2.79843E-14
 -1      1569 1.04298E-02 2.65689E-03-3.01110E-14
 -1      1570 1.02822E-02 2.80152E-03-2.94375E-14
 -1      1571 1.03195E-02 2.77416E-03-2.93783E-14
 -1      1572 1.08737E-02 2.20062E-03-3.19287E-14
 -1      1573 1.06453E-02 2.42875E-03-3.10078E-14
 -1      1574 1.07346E-02 2.39068E-03-3.09398E-14
 -1      1575 1.18947E-02 1.70889E-03-3.60069E-14
 -1      1576 1.16284E-02 1.75618E-03-3.48510E-14
 -1      1577 1.23825E-02 1.75927E-03-3.83640E-14
 -1      1578 1.21464E-02 1.71493E-03-3.71787E-14
 -1      1579 1.20691E-02 1.64408E-03-3.66121E-14
 -1      1580 1.28116E-02 1.92030E-03-4.07875E-14
 -1      1581 1.26036E-02 1.83076E-03-3.95678E-14
 -1      1582 1.24850E-02 1.73911E-03-3.89826E-14
 -1      1583 1.31937E-02 2.12987E-03-4.32568E-14
 -1      1584 1.30076E-02 2.02153E-03-4.20173E-14
 -1      1585 1.28626E-02 1.92217E-03-4.14083E-14
 -1      1586 1.35420E-02 2.35773E-03-4.57642E-14
 -1      1587 1.33713E-02 2.24271E-03-4.45072E-14
 -1      1588 1.32121E-02 2.14188E-03-4.38818E-14
 -1      1589 1.38674E-02 2.59085E-03-4.83209E-14
 -1      1590 1.37070E-02 2.47417E-03-4.70353E-14
 -1      1591 1.35410E-02 2.37424E-03-4.63986E-14
 -1      1592 1.41931E-02 2.83589E-03-5.10579E-14
 -1      1593 1.40318E-02 2.71359E-03-4.96825E-14
 -1      1594 1.38628E-02 2.61519E-03-4.90274E-14
 -1      1595 1.44937E-02 3.06781E-03-5.37238E-14
 -1      1596 1.43443E-02 2.95212E-03-5.23841E-14
 -1      1597 1.41743E-02 2.85515E-03-5.17095E-14
 -1      1598 1.47885E-02 3.29803E-03-5.64454E-14
 -1      1599 1.46417E-02 3.18317E-03-5.50762E-14
 -1      1600 1.44716E-02 3.08730E-03-5.43811E-14
 -1      1601 1.50798E-02 3.52673E-03-5.92064E-14
 -1      1602 1.49345E-02 3.41258E-03-5.78208E-14
 -1      1603 1.47647E-02 3.31754E-03-5.71020E-14
 -1      1604 1.53688E-02 3.75418E-03-6.20001E-14
 -1      1605 1.52245E-02 3.64061E-03-6.06011E-14
 -1      1606 1.50550E-02 3.54616E-03-5.98671E-14
 -1      1607 1.56565E-02 3.98064E-03-6.48292E-14
 -1      1608 1.55128E-02 3.86753E-03-6.34120E-14
 -1      1609 1.53435E-02 3.77351E-03-6.26684E-14
 -1      1610 1.59432E-02 4.20632E-03-6.76817E-14
 -1      1611 1.57999E-02 4.09357E-03-6.62515E-14
 -1      1612 1.56309E-02 3.99986E-03-6.55011E-14
 -1      1613 1.62295E-02 4.43138E-03-7.05618E-14
 -1      1614 1.60864E-02 4.31892E-03-6.91190E-14
 -1      1615 1.59176E-02 4.22545E-03-6.83572E-14
 -1      1616 1.65154E-02 4.65594E-03-7.34561E-14
 -1      1617 1.63725E-02 4.54372E-03-7.20075E-14
 -1      1618 1.62039E-02 4.45042E-03-7.12384E-14
 -1      1619 1.68012E-02 4.88012E-03-7.63468E-14
 -1      1620 1.66583E-02 4.76807E-03-7.49052E-14
 -1      1621 1.64898E-02 4.67490E-03-7.41274E-14
 -1      1622 1.70446E-02 5.07358E-03-7.88714E-14
 -1      1623 1.69018E-02 4.96160E-03-7.74255E-14
 -1      1624 1.67333E-02 4.86850E-03-7.66534E-14
 -1      1625 1.69345E-02 5.03143E-03-7.88150E-14
 -1      1626 1.67144E-02 4.94715E-03-7.86949E-14
 -1      1627 1.68244E-02 4.98928E-03-7.87560E-14
 -1      1628 1.67238E-02 4.90784E-03-7.76711E-14
 -1      1629 1.64946E-02 4.86298E-03-7.85339E-14
 -1      1630 1.66044E-02 4.90505E-03-7.86199E-14
 -1      1631 1.65039E-02 4.82365E-03-7.75353E-14
 -1      1632 1.62750E-02 4.77899E-03-7.83460E-14
 -1      1633 1.63848E-02 4.82096E-03-7.84438E-14
 -1      1634 1.62842E-02 4.73961E-03-7.73693E-14
 -1      1635 1.60556E-02 4.69522E-03-7.81709E-14
 -1      1636 1.61653E-02 4.73708E-03-7.82565E-14
 -1      1637 1.60648E-02 4.65576E-03-7.71944E-14
 -1      1638 1.58399E-02 4.61307E-03-7.79668E-14
 -1      1639 1.59478E-02 4.65412E-03-7.80703E-14
 -1      1640 1.58472E-02 4.57282E-03-7.70062E-14
 -1      1641 1.56203E-02 4.52966E-03-7.77613E-14
 -1      1642 1.57301E-02 4.57135E-03-7.78619E-14
 -1      1643 1.56296E-02 4.49003E-03-7.68089E-14
 -1      1644 1.54005E-02 4.44633E-03-7.75972E-14
 -1      1645 1.55104E-02 4.48799E-03-7.76777E-14
 -1      1646 1.54100E-02 4.40663E-03-7.66210E-14
 -1      1647 1.51804E-02 4.36298E-03-7.74223E-14
 -1      1648 1.52905E-02 4.40466E-03-7.75112E-14
 -1      1649 1.51900E-02 4.32325E-03-7.64423E-14
 -1      1650 1.49601E-02 4.27955E-03-7.72087E-14
 -1      1651 1.50703E-02 4.32128E-03-7.73185E-14
 -1      1652 1.49698E-02 4.23981E-03-7.62468E-14
 -1      1653 1.47395E-02 4.19599E-03-7.69876E-14
 -1      1654 1.48498E-02 4.23779E-03-7.71011E-14
 -1      1655 1.47493E-02 4.15627E-03-7.60341E-14
 -1      1656 1.45226E-02 4.11368E-03-7.67421E-14
 -1      1657 1.46311E-02 4.15485E-03-7.68678E-14
 -1      1658 1.45306E-02 4.07330E-03-7.58021E-14
 -1      1659 1.43019E-02 4.02980E-03-7.64739E-14
 -1      1660 1.44123E-02 4.07176E-03-7.66089E-14
 -1      1661 1.43118E-02 3.99019E-03-7.55528E-14
 -1      1662 1.40812E-02 3.94577E-03-7.62155E-14
 -1      1663 1.41915E-02 3.98781E-03-7.63441E-14
 -1      1664 1.40910E-02 3.90622E-03-7.52924E-14
 -1      1665 1.38605E-02 3.86162E-03-7.59587E-14
 -1      1666 1.39708E-02 3.90371E-03-7.60868E-14
 -1      1667 1.38703E-02 3.82214E-03-7.50316E-14
 -1      1668 1.37502E-02 3.81951E-03-7.58265E-14
 -1      1669 1.23132E-02 1.37520E-03-3.32903E-14
 -1      1670 1.22893E-02 1.32285E-03-3.33648E-14
 -1      1671 1.22376E-02 1.50962E-03-3.28779E-14
 -1      1672 1.22928E-02 1.44466E-03-3.30706E-14
 -1      1673 1.19857E-02 1.67716E-03-3.23954E-14
 -1      1674 1.21195E-02 1.58513E-03-3.26960E-14
 -1      1675 1.16610E-02 1.91845E-03-3.16377E-14
 -1      1676 1.18405E-02 1.79076E-03-3.20129E-14
 -1      1677 1.18828E-02 1.65379E-03-3.26513E-14
 -1      1678 1.11533E-02 2.27388E-03-3.06175E-14
 -1      1679 1.13758E-02 2.11847E-03-3.10537E-14
 -1      1680 1.06597E-02 2.58807E-03-2.96195E-14
 -1      1681 1.08915E-02 2.45160E-03-3.00756E-14
 -1      1682 1.01423E-02 2.78125E-03-2.85852E-14
 -1      1683 1.03795E-02 2.71615E-03-2.90705E-14
 -1      1684 9.63275E-03 2.73508E-03-2.75664E-14
 -1      1685 9.86805E-03 2.78667E-03-2.80275E-14
 -1      1686 9.09379E-03 2.44035E-03-2.65475E-14
 -1      1687 9.35363E-03 2.60736E-03-2.70088E-14
 -1      1688 8.51703E-03 2.01877E-03-2.56705E-14
 -1      1689 8.77131E-03 2.21824E-03-2.60632E-14
 -1      1690 7.99937E-03 1.61398E-03-2.49280E-14
 -1      1691 8.23133E-03 1.79407E-03-2.52516E-14
 -1      1692 7.54719E-03 1.28240E-03-2.43275E-14
 -1      1693 7.74599E-03 1.42599E-03-2.45871E-14
 -1      1694 7.18553E-03 1.01252E-03-2.38097E-14
 -1      1695 7.34355E-03 1.12031E-03-2.40145E-14
 -1      1696 6.95579E-03 8.32545E-04-2.34836E-14
 -1      1697 7.04152E-03 9.02620E-04-2.35974E-14
 -1      1698 6.89444E-03 7.21094E-04-2.34530E-14
 -1      1699 6.90317E-03 7.70958E-04-2.34716E-14
 -1      1700 6.97714E-03 6.17700E-04-2.35303E-14
 -1      1701 6.92087E-03 6.64752E-04-2.34604E-14
 -1      1702 7.19153E-03 5.05559E-04-2.38286E-14
 -1      1703 7.07735E-03 5.58703E-04-2.36666E-14
 -1      1704 7.52511E-03 3.84429E-04-2.42793E-14
 -1      1705 7.36318E-03 4.48122E-04-2.40211E-14
 -1      1706 7.88075E-03 2.33921E-04-2.50026E-14
 -1      1707 7.70900E-03 2.95368E-04-2.46902E-14
 -1      1708 8.26020E-03 1.14783E-04-2.57521E-14
 -1      1709 8.08440E-03 1.67680E-04-2.53940E-14
 -1      1710 8.61285E-03 3.73438E-05-2.65596E-14
 -1      1711 8.43121E-03 7.03858E-05-2.61539E-14
 -1      1712 8.38215E-03 9.88612E-05-2.57780E-14
 -1      1713 9.05700E-03 2.37715E-06-2.75791E-14
 -1      1714 8.86653E-03 6.23663E-06-2.71119E-14
 -1      1715 9.47577E-03 5.94869E-05-2.86125E-14
 -1      1716 9.28217E-03 2.40558E-05-2.81374E-14
 -1      1717 9.89617E-03 1.86025E-04-2.96093E-14
 -1      1718 9.70215E-03 1.19605E-04-2.91575E-14
 -1      1719 1.03306E-02 3.66743E-04-3.05427E-14
 -1      1720 1.01279E-02 2.77527E-04-3.01217E-14
 -1      1721 1.07687E-02 5.79858E-04-3.14160E-14
 -1      1722 1.05629E-02 4.80699E-04-3.10347E-14
 -1      1723 1.12323E-02 7.90644E-04-3.21587E-14
 -1      1724 1.10215E-02 6.91272E-04-3.18204E-14
 -1      1725 1.16498E-02 9.81501E-04-3.27564E-14
 -1      1726 1.14644E-02 8.97871E-04-3.25068E-14
 -1      1727 1.19881E-02 1.14103E-03-3.31857E-14
 -1      1728 1.18419E-02 1.07571E-03-3.30279E-14
 -1      1729 1.22175E-02 1.25690E-03-3.33178E-14
 -1      1730 1.21280E-02 1.20448E-03-3.32730E-14
 -1      1731 1.14681E-02 1.94543E-03-3.16711E-14
 -1      1732 1.13495E-02 1.86761E-03-3.37100E-14
 -1      1733 1.10662E-02 2.04954E-03-3.25874E-14
 -1      1734 1.11621E-02 1.99957E-03-3.25101E-14
 -1      1735 1.35318E-02 3.65267E-03-7.37522E-14
 -1      1736 1.22664E-02 1.32552E-03-3.38005E-14
 -1      1737 1.21643E-02 1.50315E-03-3.32255E-14
 -1      1738 1.23121E-02 1.39800E-03-3.36299E-14
 -1      1739 1.09422E-02 2.33749E-03-3.05327E-14
 -1      1740 1.04587E-02 2.67053E-03-2.94323E-14
 -1      1741 1.00105E-02 2.82775E-03-2.83202E-14
 -1      1742 9.55565E-03 2.69990E-03-2.72056E-14
 -1      1743 9.05555E-03 2.31555E-03-2.61691E-14
 -1      1744 8.49458E-03 1.84378E-03-2.52738E-14
 -1      1745 7.96648E-03 1.42795E-03-2.45217E-14
 -1      1746 7.49956E-03 1.09923E-03-2.38754E-14
 -1      1747 7.13397E-03 8.75345E-04-2.33600E-14
 -1      1748 6.92623E-03 7.64842E-04-2.31457E-14
 -1      1749 6.89843E-03 6.91572E-04-2.31454E-14
 -1      1750 7.02918E-03 6.18945E-04-2.32887E-14
 -1      1751 7.30339E-03 5.23070E-04-2.36116E-14
 -1      1752 7.65805E-03 3.86073E-04-2.42008E-14
 -1      1753 8.03632E-03 2.26341E-04-2.49937E-14
 -1      1754 9.15741E-03-1.62562E-05-2.78294E-14
 -1      1755 9.53967E-03 6.80300E-05-2.89331E-14
 -1      1756 9.93581E-03 2.33558E-04-2.99948E-14
 -1      1757 1.03565E-02 4.57017E-04-3.10063E-14
 -1      1758 1.08115E-02 7.00005E-04-3.19112E-14
 -1      1759 1.12854E-02 9.24686E-04-3.26712E-14
 -1      1760 1.17126E-02 1.11287E-03-3.32969E-14
 -1      1761 1.20513E-02 1.23808E-03-3.36616E-14
 -1      1762 2.85229E-04-1.76194E-04-4.45878E-18
 -1      1763 8.76133E-03 4.35883E-06-2.67241E-14
 -1      1764 1.16008E-02 1.72791E-03-3.43024E-14
 -1      1765 3.32180E-04-1.16712E-04-6.36156E-17
 -1      1766 3.36331E-04-1.32959E-04-5.62565E-17
 -1      1767 3.42220E-04-1.51947E-04-4.80302E-17
 -1      1768 3.51768E-04-1.73951E-04-3.73508E-17
 -1      1769 4.58343E-04-1.88001E-04-8.17488E-17
 -1      1770 3.24564E-04-6.53309E-05-8.09221E-17
 -1      1771 3.25712E-04-7.66161E-05-7.76560E-17
 -1      1772 3.23074E-04-4.38531E-05-8.61805E-17
 -1      1773 3.23727E-04-5.43341E-05-8.37953E-17
 -1      1774 4.36506E-04-7.92290E-05-1.22610E-16
 -1      1775 3.22291E-04-2.37531E-05-8.97990E-17
 -1      1776 3.22622E-04-3.36570E-05-8.81050E-17
 -1      1777 4.34512E-04-5.12745E-05-1.29372E-16
 -1      1778 3.21999E-04-4.33851E-06-9.24147E-17
 -1      1779 3.22095E-04-1.39808E-05-9.11814E-17
 -1      1780 4.33493E-04-2.49052E-05-1.34062E-16
 -1      1781 3.22123E-04 1.49601E-05-9.36344E-17
 -1      1782 3.22008E-04 5.30717E-06-9.32278E-17
 -1      1783 4.33197E-04 7.48979E-07-1.37246E-16
 -1      1784 3.22691E-04 3.46923E-05-9.36209E-17
 -1      1785 3.22339E-04 2.47544E-05-9.36480E-17
 -1      1786 4.33556E-04 2.64332E-05-1.38426E-16
 -1      1787 3.23820E-04 5.51171E-05-9.23876E-17
 -1      1788 3.23157E-04 4.47603E-05-9.32549E-17
 -1      1789 4.34635E-04 5.26668E-05-1.37856E-16
 -1      1790 3.25875E-04 7.77598E-05-8.92705E-17
 -1      1791 3.24679E-04 6.61830E-05-9.11001E-17
 -1      1792 4.36691E-04 8.05308E-05-1.35661E-16
 -1      1793 3.29569E-04 1.03590E-04-8.34023E-17
 -1      1794 3.27414E-04 9.02458E-05-8.67768E-17
 -1      1795 4.40336E-04 1.11493E-04-1.30497E-16
 -1      1796 3.36641E-04 1.35077E-04-7.32108E-17
 -1      1797 3.32478E-04 1.18550E-04-7.91468E-17
 -1      1798 4.46847E-04 1.47267E-04-1.21309E-16
 -1      1799 3.52253E-04 1.77519E-04-5.62701E-17
 -1      1800 3.42786E-04 1.54679E-04-6.59195E-17
 -1      1801 4.59289E-04 1.91355E-04-1.05913E-16
 -1      1802 4.07662E-04 2.33619E-04-4.50486E-17
 -1      1803 3.78061E-04 2.02606E-04-5.26245E-17
 -1      1804 4.95840E-04 2.43932E-04-9.18319E-17
 -1      1805 5.58512E-04 3.02424E-04-8.06104E-17
 -1      1806 3.40018E-04-1.90856E-04-2.00442E-17
 -1      1807 8.53570E-04 4.06975E-04-2.03261E-16
 -1      1808 7.07163E-04 3.59264E-04-1.33736E-16
 -1      1809 6.73427E-04 3.28704E-04-1.40838E-16
 -1      1810 8.85068E-03-2.71464E-05-2.68400E-14
 -1      1811 8.66528E-03 1.65644E-05-2.62954E-14
 -1      1812 4.58955E-04-2.36635E-04-4.68511E-17
 -1      1813 8.07238E-04-3.73940E-04-1.48983E-16
 -1      1814 9.52514E-04-4.15080E-04-2.19402E-16
 -1      1815 1.09536E-03-4.49721E-04-3.05216E-16
 -1      1816 1.23705E-03-4.78564E-04-4.06752E-16
 -1      1817 1.00396E-03-3.97672E-04-2.87056E-16
 -1      1818 1.37747E-03-5.02989E-04-5.23900E-16
 -1      1819 1.51718E-03-5.23297E-04-6.57054E-16
 -1      1820 1.28967E-03-4.55531E-04-4.96063E-16
 -1      1821 1.65638E-03-5.40404E-04-8.06253E-16
 -1      1822 1.79526E-03-5.54551E-04-9.71540E-16
 -1      1823 1.57212E-03-4.96344E-04-7.67724E-16
 -1      1824 1.93402E-03-5.66345E-04-1.15314E-15
 -1      1825 2.07273E-03-5.75990E-04-1.35157E-15
 -1      1826 1.85280E-03-5.24731E-04-1.10320E-15
 -1      1827 2.21154E-03-5.83904E-04-1.56738E-15
 -1      1828 2.35045E-03-5.90259E-04-1.79918E-15
 -1      1829 2.13279E-03-5.44027E-04-1.50424E-15
 -1      1830 2.48958E-03-5.95351E-04-2.04785E-15
 -1      1831 2.62889E-03-5.99323E-04-2.31355E-15
 -1      1832 2.41278E-03-5.56690E-04-1.97145E-15
 -1      1833 2.76847E-03-6.02389E-04-2.59591E-15
 -1      1834 2.90827E-03-6.04664E-04-2.89399E-15
 -1      1835 2.69317E-03-5.64559E-04-2.50536E-15
 -1      1836 3.04836E-03-6.06305E-04-3.20777E-15
 -1      1837 3.18867E-03-6.07403E-04-3.53699E-15
 -1      1838 2.97418E-03-5.69021E-04-3.10414E-15
 -1      1839 3.32926E-03-6.08075E-04-3.88246E-15
 -1      1840 3.47008E-03-6.08392E-04-4.24403E-15
 -1      1841 3.25591E-03-5.71127E-04-3.76522E-15
 -1      1842 3.61114E-03-6.08445E-04-4.62007E-15
 -1      1843 3.75241E-03-6.08289E-04-5.01160E-15
 -1      1844 3.53838E-03-5.71675E-04-4.48927E-15
 -1      1845 3.89391E-03-6.07996E-04-5.41754E-15
 -1      1846 4.03558E-03-6.07613E-04-5.83926E-15
 -1      1847 3.82154E-03-5.71281E-04-5.27388E-15
 -1      1848 4.17745E-03-6.07200E-04-6.27552E-15
 -1      1849 4.31946E-03-6.06797E-04-6.72631E-15
 -1      1850 4.10534E-03-5.70439E-04-6.11825E-15
 -1      1851 4.46161E-03-6.06461E-04-7.19231E-15
 -1      1852 4.60387E-03-6.06227E-04-7.67217E-15
 -1      1853 4.38969E-03-5.69563E-04-7.02278E-15
 -1      1854 4.74624E-03-6.06153E-04-8.16706E-15
 -1      1855 4.88864E-03-6.06267E-04-8.67584E-15
 -1      1856 4.67447E-03-5.69031E-04-7.98560E-15
 -1      1857 5.03108E-03-6.06630E-04-9.19852E-15
 -1      1858 5.17348E-03-6.07264E-04-9.73753E-15
 -1      1859 4.95956E-03-5.69203E-04-9.00563E-15
 -1      1860 5.31584E-03-6.08227E-04-1.02924E-14
 -1      1861 5.45805E-03-6.09527E-04-1.08615E-14
 -1      1862 5.24475E-03-5.70427E-04-1.00858E-14
 -1      1863 5.60011E-03-6.11209E-04-1.14463E-14
 -1      1864 5.74186E-03-6.13258E-04-1.20481E-14
 -1      1865 5.52979E-03-5.73008E-04-1.12272E-14
 -1      1866 5.88331E-03-6.15681E-04-1.26682E-14
 -1      1867 6.02427E-03-6.18421E-04-1.33054E-14
 -1      1868 5.81430E-03-5.77128E-04-1.24334E-14
 -1      1869 6.16474E-03-6.21418E-04-1.39609E-14
 -1      1870 6.30446E-03-6.24548E-04-1.46361E-14
 -1      1871 6.09777E-03-5.82705E-04-1.37100E-14
 -1      1872 6.44347E-03-6.27640E-04-1.53302E-14
 -1      1873 6.58148E-03-6.30473E-04-1.60441E-14
 -1      1874 6.37955E-03-5.89180E-04-1.50613E-14
 -1      1875 6.71850E-03-6.32723E-04-1.67786E-14
 -1      1876 6.85426E-03-6.34047E-04-1.75310E-14
 -1      1877 6.65879E-03-5.95230E-04-1.64903E-14
 -1      1878 6.98876E-03-6.33934E-04-1.83021E-14
 -1      1879 7.12180E-03-6.31905E-04-1.90936E-14
 -1      1880 6.93451E-03-5.98470E-04-1.79971E-14
 -1      1881 7.25336E-03-6.27267E-04-1.99028E-14
 -1      1882 7.38337E-03-6.19427E-04-2.07305E-14
 -1      1883 7.20577E-03-5.95226E-04-1.95782E-14
 -1      1884 7.51182E-03-6.07564E-04-2.15769E-14
 -1      1885 7.63881E-03-5.91032E-04-2.24390E-14
 -1      1886 7.47184E-03-5.80522E-04-2.12333E-14
 -1      1887 7.76433E-03-5.69004E-04-2.33203E-14
 -1      1888 7.88873E-03-5.40887E-04-2.42181E-14
 -1      1889 7.73253E-03-5.48463E-04-2.29605E-14
 -1      1890 8.01198E-03-5.06007E-04-2.51316E-14
 -1      1891 8.13465E-03-4.63950E-04-2.60609E-14
 -1      1892 7.98844E-03-4.93063E-04-2.47560E-14
 -1      1893 8.25670E-03-4.14350E-04-2.70053E-14
 -1      1894 8.37882E-03-3.57072E-04-2.79667E-14
 -1      1895 8.24109E-03-4.09406E-04-2.66148E-14
 -1      1896 8.50098E-03-2.92151E-04-2.89428E-14
 -1      1897 8.62386E-03-2.19769E-04-2.99329E-14
 -1      1898 8.49271E-03-2.94809E-04-2.85370E-14
 -1      1899 8.74742E-03-1.40351E-04-3.09374E-14
 -1      1900 8.87220E-03-5.43474E-05-3.19558E-14
 -1      1901 8.74576E-03-1.49514E-04-3.05188E-14
 -1      1902 8.99817E-03 3.75338E-05-3.29886E-14
 -1      1903 9.12564E-03 1.34681E-04-3.40361E-14
 -1      1904 9.00239E-03 2.33703E-05-3.25587E-14
 -1      1905 9.25460E-03 2.36263E-04-3.50978E-14
 -1      1906 9.38513E-03 3.41635E-04-3.61718E-14
 -1      1907 9.26395E-03 2.18680E-04-3.46562E-14
 -1      1908 9.51721E-03 4.49995E-04-3.72607E-14
 -1      1909 9.65074E-03 5.60765E-04-3.83631E-14
 -1      1910 9.53093E-03 4.30382E-04-3.68089E-14
 -1      1911 9.78572E-03 6.73284E-04-3.94785E-14
 -1      1912 9.92191E-03 7.87095E-04-4.06086E-14
 -1      1913 9.80303E-03 6.52704E-04-3.90180E-14
 -1      1914 1.00593E-02 9.01724E-04-4.17510E-14
 -1      1915 1.01977E-02 1.01685E-03-4.29078E-14
 -1      1916 1.00795E-02 8.80887E-04-4.12795E-14
 -1      1917 1.03371E-02 1.13218E-03-4.40786E-14
 -1      1918 1.04772E-02 1.24750E-03-4.52649E-14
 -1      1919 1.03593E-02 1.11149E-03-4.35965E-14
 -1      1920 1.06179E-02 1.36269E-03-4.64673E-14
 -1      1921 1.07592E-02 1.47761E-03-4.76856E-14
 -1      1922 1.06416E-02 1.34235E-03-4.59725E-14
 -1      1923 1.09009E-02 1.59224E-03-4.89210E-14
 -1      1924 1.10430E-02 1.70651E-03-5.01757E-14
 -1      1925 1.09256E-02 1.57229E-03-4.84110E-14
 -1      1926 1.11854E-02 1.82046E-03-5.14477E-14
 -1      1927 1.13280E-02 1.93405E-03-5.27367E-14
 -1      1928 1.12106E-02 1.80087E-03-5.09203E-14
 -1      1929 1.14707E-02 2.04735E-03-5.40433E-14
 -1      1930 1.16136E-02 2.16036E-03-5.53641E-14
 -1      1931 1.14962E-02 2.02806E-03-5.34988E-14
 -1      1932 1.17565E-02 2.27313E-03-5.66988E-14
 -1      1933 1.18995E-02 2.38569E-03-5.80492E-14
 -1      1934 1.17822E-02 2.25405E-03-5.61414E-14
 -1      1935 1.20425E-02 2.49808E-03-5.94115E-14
 -1      1936 1.21856E-02 2.61032E-03-6.07854E-14
 -1      1937 1.20682E-02 2.47914E-03-5.88387E-14
 -1      1938 1.23286E-02 2.72246E-03-6.21681E-14
 -1      1939 1.24716E-02 2.83451E-03-6.35601E-14
 -1      1940 1.23543E-02 2.70360E-03-6.15860E-14
 -1      1941 1.26146E-02 2.94652E-03-6.49588E-14
 -1      1942 1.27576E-02 3.05848E-03-6.63615E-14
 -1      1943 1.26403E-02 2.92768E-03-6.43691E-14
 -1      1944 1.29006E-02 3.17044E-03-6.77706E-14
 -1      1945 1.30435E-02 3.28240E-03-6.91846E-14
 -1      1946 1.29263E-02 3.15160E-03-6.71823E-14
 -1      1947 1.31864E-02 3.39437E-03-7.05977E-14
 -1      1948 1.33293E-02 3.50637E-03-7.20123E-14
 -1      1949 1.32121E-02 3.37549E-03-7.00076E-14
 -1      1950 1.29118E-02 1.93548E-03-4.20252E-14
 -1      1951 1.27470E-02 1.83082E-03-4.08039E-14
 -1      1952 1.13862E-03 4.79829E-04-3.90055E-16
 -1      1953 9.96848E-04 4.46642E-04-2.88344E-16
 -1      1954 9.64510E-04 4.17214E-04-2.95486E-16
 -1      1955 1.41775E-03 5.31190E-04-6.42837E-16
 -1      1956 1.27858E-03 5.07805E-04-5.08166E-16
 -1      1957 1.24897E-03 4.79674E-04-5.14562E-16
 -1      1958 1.69417E-03 5.67350E-04-9.61240E-16
 -1      1959 1.55612E-03 5.50928E-04-7.93975E-16
 -1      1960 1.52927E-03 5.23760E-04-7.99193E-16
 -1      1961 1.96980E-03 5.92464E-04-1.34383E-15
 -1      1962 1.83199E-03 5.81118E-04-1.14447E-15
 -1      1963 1.80756E-03 5.54590E-04-1.14820E-15
 -1      1964 2.24573E-03 6.09479E-04-1.79033E-15
 -1      1965 2.10768E-03 6.01859E-04-1.55911E-15
 -1      1966 2.08525E-03 5.75736E-04-1.56099E-15
 -1      1967 2.52252E-03 6.20561E-04-2.30064E-15
 -1      1968 2.38400E-03 6.15669E-04-2.03749E-15
 -1      1969 2.36318E-03 5.89794E-04-2.03726E-15
 -1      1970 2.80046E-03 6.27321E-04-2.87690E-15
 -1      1971 2.66135E-03 6.24412E-04-2.58050E-15
 -1      1972 2.64180E-03 5.98678E-04-2.57791E-15
 -1      1973 3.09364E-03 6.31071E-04-3.55502E-15
 -1      1974 2.94688E-03 6.29568E-04-3.20600E-15
 -1      1975 2.92835E-03 6.03906E-04-3.20054E-15
 -1      1976 3.37412E-03 6.32353E-04-4.27075E-15
 -1      1977 3.23373E-03 6.31954E-04-3.90461E-15
 -1      1978 3.21597E-03 6.06316E-04-3.89548E-15
 -1      1979 3.65582E-03 6.32016E-04-5.05386E-15
 -1      1980 3.51483E-03 6.32362E-04-4.65403E-15
 -1      1981 3.49762E-03 6.06722E-04-4.64136E-15
 -1      1982 3.93871E-03 6.30447E-04-5.90509E-15
 -1      1983 3.79713E-03 6.31369E-04-5.47125E-15
 -1      1984 3.78030E-03 6.05711E-04-5.45427E-15
 -1      1985 4.22281E-03 6.27858E-04-6.82198E-15
 -1      1986 4.08061E-03 6.29270E-04-6.35519E-15
 -1      1987 4.06403E-03 6.03588E-04-6.33404E-15
 -1      1988 4.50823E-03 6.24306E-04-7.80481E-15
 -1      1989 4.36535E-03 6.26197E-04-7.30569E-15
 -1      1990 4.34884E-03 6.00490E-04-7.27925E-15
 -1      1991 4.79521E-03 6.19705E-04-8.85347E-15
 -1      1992 4.65150E-03 6.22133E-04-8.32070E-15
 -1      1993 4.63488E-03 5.96405E-04-8.29024E-15
 -1      1994 5.08422E-03 6.13850E-04-9.96276E-15
 -1      1995 4.93942E-03 6.16929E-04-9.40076E-15
 -1      1996 4.92239E-03 5.91186E-04-9.36482E-15
 -1      1997 5.37604E-03 6.06446E-04-1.11330E-14
 -1      1998 5.22970E-03 6.10324E-04-1.05405E-14
 -1      1999 5.21180E-03 5.84575E-04-1.05007E-14
 -1      2000 5.67187E-03 5.97211E-04-1.23605E-14
 -1      2001 5.52332E-03 6.02012E-04-1.17393E-14
 -1      2002 5.50376E-03 5.76261E-04-1.16945E-14
 -1      2003 5.98885E-03 5.85559E-04-1.37134E-14
 -1      2004 5.82930E-03 5.91510E-04-1.30293E-14
 -1      2005 5.80663E-03 5.65755E-04-1.29797E-14
 -1      2006 6.29954E-03 5.73592E-04-1.50601E-14
 -1      2007 6.14273E-03 5.79428E-04-1.43795E-14
 -1      2008 6.11448E-03 5.53612E-04-1.43256E-14
 -1      2009 6.62240E-03 5.64437E-04-1.64655E-14
 -1      2010 6.45885E-03 5.68129E-04-1.57563E-14
 -1      2011 6.42116E-03 5.42041E-04-1.56988E-14
 -1      2012 6.96191E-03 5.67987E-04-1.79321E-14
 -1      2013 6.78922E-03 5.63483E-04-1.71908E-14
 -1      2014 6.73577E-03 5.36391E-04-1.71306E-14
 -1      2015 7.32386E-03 6.07819E-04-1.94534E-14
 -1      2016 7.13906E-03 5.81031E-04-1.86851E-14
 -1      2017 7.06058E-03 5.50744E-04-1.86193E-14
 -1      2018 7.71818E-03 7.33820E-04-2.10302E-14
 -1      2019 7.51608E-03 6.55320E-04-2.02355E-14
 -1      2020 7.40078E-03 6.15885E-04-2.01650E-14
 -1      2021 8.16421E-03 1.03329E-03-2.26626E-14
 -1      2022 7.93539E-03 8.55235E-04-2.18393E-14
 -1      2023 7.77317E-03 7.94744E-04-2.17651E-14
 -1      2024 9.57030E-03 2.68100E-03-2.69567E-14
 -1      2025 9.31969E-03 2.42650E-03-2.62099E-14
 -1      2026 9.99890E-03 2.86727E-03-2.82420E-14
 -1      2027 9.75583E-03 2.81173E-03-2.75143E-14
 -1      2028 1.03783E-02 2.72488E-03-2.94601E-14
 -1      2029 1.01722E-02 2.83514E-03-2.88061E-14
 -1      2030 1.35575E-02 3.63373E-03-7.31610E-14
 -1      2031 1.25801E-02 1.73697E-03-3.95931E-14
 -1      2032 1.24073E-02 1.65849E-03-3.83974E-14
 -1      2033 1.26574E-02 1.74843E-03-4.02021E-14
 -1      2034 1.13271E-02 1.88356E-03-3.26861E-14
 -1      2035 1.11418E-02 2.03280E-03-3.20304E-14
 -1      2036 1.22288E-02 1.60363E-03-3.72127E-14
 -1      2037 1.20414E-02 1.58396E-03-3.60469E-14
 -1      2038 1.23629E-02 1.58773E-03-3.78154E-14
 -1      2039 1.32313E-02 2.16065E-03-4.45032E-14
 -1      2040 1.30722E-02 2.04597E-03-4.32579E-14
 -1      2041 1.29506E-02 1.95628E-03-4.26393E-14
 -1      2042 1.35415E-02 2.39462E-03-4.70284E-14
 -1      2043 1.33870E-02 2.27708E-03-4.57605E-14
 -1      2044 1.32451E-02 2.18372E-03-4.51243E-14
 -1      2045 1.38596E-02 2.64167E-03-4.97293E-14
 -1      2046 1.37011E-02 2.51821E-03-4.83722E-14
 -1      2047 1.35470E-02 2.42339E-03-4.77191E-14
 -1      2048 1.41570E-02 2.87554E-03-5.23550E-14
 -1      2049 1.40087E-02 2.75886E-03-5.10359E-14
 -1      2050 1.38476E-02 2.66375E-03-5.03640E-14
 -1      2051 1.44506E-02 3.10740E-03-5.50337E-14
 -1      2052 1.43041E-02 2.99174E-03-5.36864E-14
 -1      2053 1.41393E-02 2.89681E-03-5.29962E-14
 -1      2054 1.47415E-02 3.33736E-03-5.77590E-14
 -1      2055 1.45963E-02 3.22262E-03-5.63908E-14
 -1      2056 1.44296E-02 3.12802E-03-5.56821E-14
 -1      2057 1.50307E-02 3.56576E-03-6.05274E-14
 -1      2058 1.48862E-02 3.45175E-03-5.91386E-14
 -1      2059 1.47186E-02 3.35749E-03-5.84145E-14
 -1      2060 1.53186E-02 3.79292E-03-6.33336E-14
 -1      2061 1.51747E-02 3.67948E-03-6.19258E-14
 -1      2062 1.50066E-02 3.58552E-03-6.11852E-14
 -1      2063 1.56057E-02 4.01912E-03-6.61686E-14
 -1      2064 1.54622E-02 3.90613E-03-6.47478E-14
 -1      2065 1.52938E-02 3.81242E-03-6.39957E-14
 -1      2066 1.58922E-02 4.24458E-03-6.90283E-14
 -1      2067 1.57490E-02 4.13194E-03-6.75954E-14
 -1      2068 1.55806E-02 4.03843E-03-6.68351E-14
 -1      2069 1.61784E-02 4.46945E-03-7.19067E-14
 -1      2070 1.60353E-02 4.35709E-03-7.04669E-14
 -1      2071 1.58669E-02 4.26374E-03-6.96963E-14
 -1      2072 1.64643E-02 4.69385E-03-7.47963E-14
 -1      2073 1.63214E-02 4.58170E-03-7.33504E-14
 -1      2074 1.61530E-02 4.48850E-03-7.25732E-14
 -1      2075 1.66444E-02 4.84162E-03-7.67726E-14
 -1      2076 1.65438E-02 4.76012E-03-7.56944E-14
 -1      2077 1.63754E-02 4.66701E-03-7.49134E-14
 -1      2078 1.65343E-02 4.79952E-03-7.67084E-14
 -1      2079 1.61056E-02 4.62173E-03-7.60824E-14
 -1      2080 1.62154E-02 4.66368E-03-7.61669E-14
 -1      2081 1.63199E-02 4.71055E-03-7.64034E-14
 -1      2082 1.64298E-02 4.75258E-03-7.64776E-14
 -1      2083 1.63503E-02 4.68634E-03-7.55812E-14
 -1      2084 1.61413E-02 4.59255E-03-7.51168E-14
 -1      2085 1.58863E-02 4.53797E-03-7.59100E-14
 -1      2086 1.59960E-02 4.57982E-03-7.59969E-14
 -1      2087 1.59271E-02 4.50380E-03-7.47981E-14
 -1      2088 1.56707E-02 4.45581E-03-7.57254E-14
 -1      2089 1.57785E-02 4.49687E-03-7.58193E-14
 -1      2090 1.57097E-02 4.42086E-03-7.46274E-14
 -1      2091 1.54512E-02 4.37235E-03-7.55305E-14
 -1      2092 1.55609E-02 4.41407E-03-7.56292E-14
 -1      2093 1.54922E-02 4.33807E-03-7.44416E-14
 -1      2094 1.52314E-02 4.28895E-03-7.53452E-14
 -1      2095 1.53413E-02 4.33065E-03-7.54369E-14
 -1      2096 1.52727E-02 4.25466E-03-7.42518E-14
 -1      2097 1.50114E-02 4.20553E-03-7.51558E-14
 -1      2098 1.51215E-02 4.24725E-03-7.52506E-14
 -1      2099 1.50529E-02 4.17128E-03-7.40617E-14
 -1      2100 1.47911E-02 4.12203E-03-7.49542E-14
 -1      2101 1.49013E-02 4.16379E-03-7.50578E-14
 -1      2102 1.48328E-02 4.08783E-03-7.38669E-14
 -1      2103 1.45706E-02 4.03841E-03-7.47353E-14
 -1      2104 1.46809E-02 4.08024E-03-7.48485E-14
 -1      2105 1.46124E-02 4.00427E-03-7.36621E-14
 -1      2106 1.43536E-02 3.95607E-03-7.45094E-14
 -1      2107 1.44621E-02 3.99726E-03-7.46254E-14
 -1      2108 1.43937E-02 3.92129E-03-7.34449E-14
 -1      2109 1.41329E-02 3.87218E-03-7.42578E-14
 -1      2110 1.42433E-02 3.91415E-03-7.43847E-14
 -1      2111 1.41748E-02 3.83817E-03-7.32120E-14
 -1      2112 1.39121E-02 3.78817E-03-7.39983E-14
 -1      2113 1.40225E-02 3.83019E-03-7.41265E-14
 -1      2114 1.39540E-02 3.75421E-03-7.29614E-14
 -1      2115 1.36796E-02 3.68994E-03-7.35140E-14
 -1      2116 1.37900E-02 3.73201E-03-7.36463E-14
 -1      2117 1.37215E-02 3.65604E-03-7.24816E-14
 -1      2118 1.34771E-02 3.54368E-03-7.17764E-14
 -1      2119 1.22977E-02 1.37066E-03-3.44775E-14
 -1      2120 1.22279E-02 1.35345E-03-3.44276E-14
 -1      2121 1.22956E-02 1.41038E-03-3.40520E-14
 -1      2122 1.23257E-02 1.39053E-03-3.42718E-14
 -1      2123 1.17623E-02 1.66988E-03-3.28250E-14
 -1      2124 1.19135E-02 1.58330E-03-3.32154E-14
 -1      2125 1.05683E-02 2.57268E-03-3.00210E-14
 -1      2126 8.52263E-03 5.85486E-05-2.58951E-14
 -1      2127 8.38006E-03 1.13741E-04-2.54989E-14
 -1      2128 8.62083E-03 2.32983E-05-2.60091E-14
 -1      2129 9.56960E-03 8.86981E-05-2.92783E-14
 -1      2130 9.40827E-03 2.17848E-05-2.87308E-14
 -1      2131 1.12498E-02 2.02002E-03-3.16395E-14
 -1      2132 1.15181E-02 1.82719E-03-3.22363E-14
 -1      2133 3.27181E-04-8.89090E-05-7.37664E-17
 -1      2134 3.29262E-04-1.02075E-04-6.89824E-17
 -1      2135 4.46303E-04-1.45017E-04-1.00370E-16
 -1      2136 4.40012E-04-1.09859E-04-1.13286E-16
 -1      2137 9.08351E-03 2.18983E-03-2.57330E-14
 -1      2138 8.47810E-03 1.66330E-03-2.48105E-14
 -1      2139 8.73117E-03 1.89330E-03-2.52214E-14
 -1      2140 7.92903E-03 1.25756E-03-2.40695E-14
 -1      2141 8.17558E-03 1.43487E-03-2.44037E-14
 -1      2142 7.46330E-03 9.61003E-04-2.34169E-14
 -1      2143 7.67843E-03 1.09000E-03-2.37212E-14
 -1      2144 7.08591E-03 7.83588E-04-2.29302E-14
 -1      2145 7.24063E-03 8.49399E-04-2.31337E-14
 -1      2146 6.89702E-03 7.08365E-04-2.27265E-14
 -1      2147 6.95366E-03 7.24477E-04-2.27319E-14
 -1      2148 6.90598E-03 6.73466E-04-2.27425E-14
 -1      2149 6.88233E-03 6.89335E-04-2.27326E-14
 -1      2150 6.88373E-03 6.69336E-04-2.23215E-14
 -1      2151 7.08324E-03 6.18339E-04-2.29570E-14
 -1      2152 6.98193E-03 6.45321E-04-2.28233E-14
 -1      2153 7.37357E-03 5.28460E-04-2.33193E-14
 -1      2154 7.21423E-03 5.77915E-04-2.31362E-14
 -1      2155 7.13571E-03 6.02174E-04-2.26667E-14
 -1      2156 7.79907E-03 3.57693E-04-2.41760E-14
 -1      2157 7.61636E-03 4.36727E-04-2.37750E-14
 -1      2158 8.15945E-03 2.02361E-04-2.49544E-14
 -1      2159 7.98223E-03 2.79168E-04-2.45728E-14
 -1      2160 9.24504E-03-2.16364E-05-2.81683E-14
 -1      2161 9.08570E-03-4.19138E-05-2.76110E-14
 -1      2162 9.30694E-03-6.28239E-06-2.85072E-14
 -1      2163 1.18244E-02 1.61822E-03-3.49202E-14
 -1      2164 1.16012E-02 1.71240E-03-3.37814E-14
 -1      2165 1.16037E-02 1.71195E-03-3.32871E-14
 -1      2166 1.20365E-02 1.53900E-03-3.55102E-14
 -1      2167 9.95830E-03 2.92837E-04-3.04147E-14
 -1      2168 9.77825E-03 1.88400E-04-2.98965E-14
 -1      2169 1.03714E-02 5.46417E-04-3.14884E-14
 -1      2170 1.01725E-02 4.20271E-04-3.09896E-14
 -1      2171 1.08632E-02 8.20110E-04-3.24771E-14
 -1      2172 1.06358E-02 6.99038E-04-3.20640E-14
 -1      2173 1.13437E-02 1.04345E-03-3.32390E-14
 -1      2174 1.11187E-02 9.40756E-04-3.28849E-14
 -1      2175 1.17715E-02 1.21372E-03-3.38706E-14
 -1      2176 1.15771E-02 1.14169E-03-3.35935E-14
 -1      2177 1.21279E-02 1.32545E-03-3.43326E-14
 -1      2178 1.19913E-02 1.29557E-03-3.42392E-14
 -1      2179 1.21864E-02 1.38368E-03-3.50084E-14
 -1      2180 1.21028E-02 1.49083E-03-3.36745E-14
 -1      2181 1.22224E-02 1.44616E-03-3.38625E-14
 -1      2182 1.22671E-02 1.42387E-03-3.45039E-14
 -1      2183 8.96238E-03-5.16354E-05-2.71715E-14
 -1      2184 8.85278E-03-4.46237E-05-2.67365E-14
 -1      2185 9.04253E-03-5.85856E-05-2.75044E-14
 -1      2186 6.07880E-04-2.98006E-04-8.42425E-17
 -1      2187 6.63611E-04-2.92270E-04-1.26255E-16
 -1      2188 6.93177E-03 6.49449E-04-2.24099E-14
 -1      2189 7.85185E-03 1.10852E-03-2.36070E-14
 -1      2190 8.53302E-03 1.44187E-03-2.39646E-14
 -1      2191 8.28987E-03 1.16179E-03-2.31571E-14
 -1      2192 9.00790E-03 2.01555E-03-2.52613E-14
 -1      2193 8.77762E-03 1.70066E-03-2.45554E-14
 -1      2194 1.09417E-02 2.20841E-03-3.14117E-14
 -1      2195 1.06908E-02 2.45211E-03-3.05078E-14
 -1      2196 7.01701E-03 7.11693E-04-2.25086E-14
 -1      2197 1.00128E-02 3.69589E-04-3.08885E-14
 -1      2198 9.62829E-03 1.37676E-04-2.96905E-14
 -1      2199 1.23245E-02 1.39683E-03-3.49006E-14
 -1      2200 1.08136E-02 2.39535E-03-3.04764E-14
 -1      2201 1.10376E-02 2.20579E-03-3.10282E-14
 -1      2202 1.20189E-02 1.51637E-03-3.38489E-14
 -1      2203 1.18851E-02 1.30592E-03-3.45377E-14
 -1      2204 7.49005E-03 4.92988E-04-2.32899E-14
 -1      2205 7.37176E-03 5.28491E-04-2.28126E-14
 -1      2206 7.59791E-03 4.49484E-04-2.32598E-14
 -1      2207 1.14319E-02 1.14127E-03-3.38081E-14
 -1      2208 1.09551E-02 9.27302E-04-3.30386E-14
 -1      2209 8.28897E-03 1.52856E-04-2.50678E-14
 -1      2210 7.37624E-03 8.51995E-04-2.29828E-14
 -1      2211 8.39006E-03 1.49030E-03-2.43536E-14
 -1      2212 8.09050E-03 1.07479E-03-2.30800E-14
 -1      2213 7.90769E-03 3.22223E-04-2.41363E-14
 -1      2214 1.04597E-02 6.52875E-04-3.20452E-14
 -1      2215 8.43364E-03 1.45336E-03-2.41639E-14
 -1      2216 1.11364E-02 2.08121E-03-3.15813E-14
 -1      2217 5.47779E-04-5.52581E-05-1.86564E-16
 -1      2218 5.48817E-04-7.19624E-05-1.82769E-16
 -1      2219 5.50240E-04-8.92751E-05-1.78270E-16
 -1      2220 5.52107E-04-1.07249E-04-1.72930E-16
 -1      2221 6.65281E-04-9.54169E-05-2.46127E-16
 -1      2222 5.46398E-04 8.83859E-06-1.95685E-16
 -1      2223 5.46376E-04-6.98375E-06-1.94221E-16
 -1      2224 5.47159E-04 4.08214E-05-1.96783E-16
 -1      2225 5.46656E-04 2.47605E-05-1.96539E-16
 -1      2226 6.61330E-04 1.98996E-05-2.66117E-16
 -1      2227 5.48994E-04 7.34205E-05-1.95726E-16
 -1      2228 5.47927E-04 5.69387E-05-1.96593E-16
 -1      2229 6.62665E-04 5.77214E-05-2.67012E-16
 -1      2230 5.52393E-04 1.08878E-04-1.91741E-16
 -1      2231 5.50466E-04 9.08094E-05-1.94072E-16
 -1      2232 6.65539E-04 9.71628E-05-2.64735E-16
 -1      2233 5.58273E-04 1.48207E-04-1.83664E-16
 -1      2234 5.54955E-04 1.27984E-04-1.88326E-16
 -1      2235 6.70639E-04 1.39916E-04-2.58474E-16
 -1      2236 5.68647E-04 1.93803E-04-1.70044E-16
 -1      2237 5.62764E-04 1.70091E-04-1.77728E-16
 -1      2238 6.79291E-04 1.87461E-04-2.46792E-16
 -1      2239 5.88033E-04 2.49380E-04-1.48021E-16
 -1      2240 5.76907E-04 2.20120E-04-1.60286E-16
 -1      2241 6.94227E-04 2.42349E-04-2.27655E-16
 -1      2242 6.42148E-04 3.01205E-04-1.43914E-16
 -1      2243 6.14431E-04 2.73713E-04-1.47601E-16
 -1      2244 7.31584E-04 2.97708E-04-2.15350E-16
 -1      2245 7.88601E-04 3.49592E-04-2.13398E-16
 -1      2246 9.15212E-04-3.46156E-04-2.66578E-16
 -1      2247 1.05932E-03-3.79431E-04-3.58668E-16
 -1      2248 1.58454E-03 4.96605E-04-9.11529E-16
 -1      2249 1.44359E-03 4.78352E-04-7.51257E-16
 -1      2250 1.30210E-03 4.56406E-04-6.07262E-16
 -1      2251 1.15977E-03 4.30522E-04-4.79163E-16
 -1      2252 1.35786E-03 4.32361E-04-7.02482E-16
 -1      2253 5.88490E-04-2.37856E-04-1.22122E-16
 -1      2254 7.81321E-04-3.04621E-04-1.99981E-16
 -1      2255 8.40753E-04-2.93409E-04-2.55452E-16
 -1      2256 5.78978E-04-2.10087E-04-1.35823E-16
 -1      2257 1.29771E-02 1.98486E-03-4.32514E-14
 -1      2258 1.28429E-02 1.87585E-03-4.20229E-14
 -1      2259 1.20258E-03-4.07766E-04-4.66193E-16
 -1      2260 1.34540E-03-4.31580E-04-5.88939E-16
 -1      2261 1.11701E-03-3.60239E-04-4.34196E-16
 -1      2262 1.48758E-03-4.51726E-04-7.27174E-16
 -1      2263 1.62938E-03-4.68490E-04-8.81646E-16
 -1      2264 1.40335E-03-4.06878E-04-6.85216E-16
 -1      2265 1.77083E-03-4.82537E-04-1.05162E-15
 -1      2266 1.91203E-03-4.94087E-04-1.23762E-15
 -1      2267 1.68851E-03-4.39960E-04-9.98442E-16
 -1      2268 2.05309E-03-5.03630E-04-1.43986E-15
 -1      2269 2.19405E-03-5.11345E-04-1.65902E-15
 -1      2270 1.97273E-03-4.62824E-04-1.37475E-15
 -1      2271 2.33499E-03-5.17589E-04-1.89443E-15
 -1      2272 2.47593E-03-5.22511E-04-2.14599E-15
 -1      2273 2.25641E-03-4.78108E-04-1.81590E-15
 -1      2274 2.61693E-03-5.26371E-04-2.41423E-15
 -1      2275 2.75799E-03-5.29289E-04-2.69913E-15
 -1      2276 2.53989E-03-4.87852E-04-2.32290E-15
 -1      2277 2.89917E-03-5.31456E-04-2.99970E-15
 -1      2278 3.04044E-03-5.32968E-04-3.31588E-15
 -1      2279 2.82340E-03-4.93615E-04-2.89455E-15
 -1      2280 3.18184E-03-5.33965E-04-3.64758E-15
 -1      2281 3.32335E-03-5.34524E-04-3.99522E-15
 -1      2282 3.10709E-03-4.96582E-04-3.52969E-15
 -1      2283 3.46501E-03-5.34750E-04-4.35841E-15
 -1      2284 3.60677E-03-5.34701E-04-4.73677E-15
 -1      2285 3.39105E-03-4.97653E-04-4.22652E-15
 -1      2286 3.74868E-03-5.34460E-04-5.12927E-15
 -1      2287 3.89070E-03-5.34073E-04-5.53722E-15
 -1      2288 3.67533E-03-4.97511E-04-4.98476E-15
 -1      2289 4.03284E-03-5.33608E-04-5.96058E-15
 -1      2290 4.17509E-03-5.33104E-04-6.39887E-15
 -1      2291 3.95995E-03-4.96690E-04-5.80218E-15
 -1      2292 4.31747E-03-5.32620E-04-6.85237E-15
 -1      2293 4.45993E-03-5.32190E-04-7.32049E-15
 -1      2294 4.24492E-03-4.95618E-04-6.68089E-15
 -1      2295 4.60250E-03-5.31870E-04-7.80308E-15
 -1      2296 4.74515E-03-5.31694E-04-8.30019E-15
 -1      2297 4.53026E-03-4.94669E-04-7.61869E-15
 -1      2298 4.88789E-03-5.31718E-04-8.81188E-15
 -1      2299 5.03068E-03-5.31973E-04-9.33728E-15
 -1      2300 4.81598E-03-4.94193E-04-8.61605E-15
 -1      2301 5.17355E-03-5.32515E-04-9.87833E-15
 -1      2302 5.31643E-03-5.33371E-04-1.04356E-14
 -1      2303 5.10209E-03-4.94533E-04-9.67137E-15
 -1      2304 5.45935E-03-5.34588E-04-1.10076E-14
 -1      2305 5.60224E-03-5.36183E-04-1.15944E-14
 -1      2306 5.38861E-03-4.96027E-04-1.07869E-14
 -1      2307 5.74512E-03-5.38182E-04-1.21988E-14
 -1      2308 5.88788E-03-5.40577E-04-1.28205E-14
 -1      2309 5.67552E-03-4.98966E-04-1.19642E-14
 -1      2310 6.03056E-03-5.43345E-04-1.34589E-14
 -1      2311 6.17299E-03-5.46432E-04-1.41159E-14
 -1      2312 5.96273E-03-5.03505E-04-1.32076E-14
 -1      2313 6.31521E-03-5.49733E-04-1.47936E-14
 -1      2314 6.45701E-03-5.53113E-04-1.54885E-14
 -1      2315 6.25001E-03-5.09502E-04-1.45250E-14
 -1      2316 6.59842E-03-5.56342E-04-1.62037E-14
 -1      2317 6.73918E-03-5.59164E-04-1.69390E-14
 -1      2318 6.53690E-03-5.16270E-04-1.59180E-14
 -1      2319 6.87932E-03-5.61183E-04-1.76920E-14
 -1      2320 7.01856E-03-5.61982E-04-1.84640E-14
 -1      2321 6.82266E-03-5.22241E-04-1.73876E-14
 -1      2322 7.15689E-03-5.60980E-04-1.92550E-14
 -1      2323 7.29411E-03-5.57580E-04-2.00644E-14
 -1      2324 7.10625E-03-5.24608E-04-1.89329E-14
 -1      2325 7.43017E-03-5.51035E-04-2.08920E-14
 -1      2326 7.56501E-03-5.40601E-04-2.17376E-14
 -1      2327 7.38649E-03-5.19051E-04-2.05514E-14
 -1      2328 7.69855E-03-5.25445E-04-2.26015E-14
 -1      2329 7.83096E-03-5.04778E-04-2.34821E-14
 -1      2330 7.66233E-03-4.99770E-04-2.22425E-14
 -1      2331 7.96216E-03-4.77825E-04-2.43797E-14
 -1      2332 8.09257E-03-4.43915E-04-2.52937E-14
 -1      2333 7.93338E-03-4.60049E-04-2.40031E-14
 -1      2334 8.22212E-03-4.02506E-04-2.62241E-14
 -1      2335 8.35143E-03-3.53218E-04-2.71704E-14
 -1      2336 8.20032E-03-3.93431E-04-2.58324E-14
 -1      2337 8.48045E-03-2.95883E-04-2.81323E-14
 -1      2338 8.60987E-03-2.30524E-04-2.91096E-14
 -1      2339 8.46494E-03-2.95262E-04-2.77266E-14
 -1      2340 8.73962E-03-1.57397E-04-3.00993E-14
 -1      2341 8.87032E-03-7.69189E-05-3.11055E-14
 -1      2342 8.72978E-03-1.64018E-04-2.96797E-14
 -1      2343 9.00187E-03 1.03023E-05-3.21281E-14
 -1      2344 9.13467E-03 1.03578E-04-3.31637E-14
 -1      2345 8.99731E-03-1.78020E-06-3.16956E-14
 -1      2346 9.26863E-03 2.02106E-04-3.42131E-14
 -1      2347 9.40388E-03 3.05098E-04-3.52776E-14
 -1      2348 9.26915E-03 1.86409E-04-3.37694E-14
 -1      2349 9.54035E-03 4.11731E-04-3.63559E-14
 -1      2350 9.67795E-03 5.21277E-04-3.74480E-14
 -1      2351 9.54579E-03 3.93953E-04-3.59005E-14
 -1      2352 9.81664E-03 6.33023E-04-3.85536E-14
 -1      2353 9.95619E-03 7.46394E-04-3.96722E-14
 -1      2354 9.82668E-03 6.14229E-04-3.80895E-14
 -1      2355 1.00966E-02 8.60852E-04-4.08061E-14
 -1      2356 1.02376E-02 9.75999E-04-4.19517E-14
 -1      2357 1.01108E-02 8.41674E-04-4.03308E-14
 -1      2358 1.03792E-02 1.09148E-03-4.31113E-14
 -1      2359 1.05212E-02 1.20706E-03-4.42872E-14
 -1      2360 1.03968E-02 1.07224E-03-4.26267E-14
 -1      2361 1.06636E-02 1.32254E-03-4.54760E-14
 -1      2362 1.08062E-02 1.43779E-03-4.66812E-14
 -1      2363 1.06839E-02 1.30337E-03-4.49803E-14
 -1      2364 1.09491E-02 1.55273E-03-4.79030E-14
 -1      2365 1.10920E-02 1.66732E-03-4.91399E-14
 -1      2366 1.09714E-02 1.53367E-03-4.73927E-14
 -1      2367 1.12351E-02 1.78155E-03-5.03951E-14
 -1      2368 1.13781E-02 1.89541E-03-5.16675E-14
 -1      2369 1.12588E-02 1.76259E-03-4.98708E-14
 -1      2370 1.15213E-02 2.00894E-03-5.29574E-14
 -1      2371 1.16644E-02 2.12214E-03-5.42640E-14
 -1      2372 1.15459E-02 1.99006E-03-5.24188E-14
 -1      2373 1.18076E-02 2.23508E-03-5.55849E-14
 -1      2374 1.19507E-02 2.34777E-03-5.69199E-14
 -1      2375 1.18327E-02 2.21626E-03-5.50294E-14
 -1      2376 1.20938E-02 2.46026E-03-5.82676E-14
 -1      2377 1.22369E-02 2.57258E-03-5.96303E-14
 -1      2378 1.21193E-02 2.44147E-03-5.76998E-14
 -1      2379 1.23800E-02 2.68477E-03-6.10061E-14
 -1      2380 1.25230E-02 2.79685E-03-6.23887E-14
 -1      2381 1.24056E-02 2.66599E-03-6.04228E-14
 -1      2382 1.26660E-02 2.90886E-03-6.37816E-14
 -1      2383 1.28090E-02 3.02082E-03-6.51821E-14
 -1      2384 1.26918E-02 2.89008E-03-6.31922E-14
 -1      2385 1.29520E-02 3.13276E-03-6.65897E-14
 -1      2386 1.30949E-02 3.24468E-03-6.80033E-14
 -1      2387 1.29777E-02 3.11394E-03-6.59971E-14
 -1      2388 1.32146E-02 3.33819E-03-6.91808E-14
 -1      2389 1.33575E-02 3.45014E-03-7.05976E-14
 -1      2390 1.34797E-02 3.50633E-03-7.09489E-14
 -1      2391 1.32404E-02 3.31933E-03-6.85871E-14
 -1      2392 1.32522E-02 2.21128E-03-4.57412E-14
 -1      2393 1.31131E-02 2.09663E-03-4.44900E-14
 -1      2394 1.29901E-02 2.01647E-03-4.38597E-14
 -1      2395 1.04701E-03 4.12274E-04-3.83130E-16
 -1      2396 9.02791E-04 3.76825E-04-2.84942E-16
 -1      2397 8.73703E-04 3.50460E-04-2.85782E-16
 -1      2398 1.10163E-03 3.92947E-04-4.60691E-16
 -1      2399 1.86533E-03 5.24600E-04-1.27901E-15
 -1      2400 1.72508E-03 5.11949E-04-1.08728E-15
 -1      2401 1.64191E-03 4.68709E-04-1.02553E-15
 -1      2402 2.14548E-03 5.43638E-04-1.71027E-15
 -1      2403 2.00545E-03 5.35103E-04-1.48681E-15
 -1      2404 1.92469E-03 4.93929E-04-1.41186E-15
 -1      2405 2.42563E-03 5.56114E-04-2.20417E-15
 -1      2406 2.28554E-03 5.50592E-04-1.94917E-15
 -1      2407 2.20685E-03 5.10930E-04-1.86095E-15
 -1      2408 2.70619E-03 5.63814E-04-2.76304E-15
 -1      2409 2.56586E-03 5.60480E-04-2.47552E-15
 -1      2410 2.48890E-03 5.21906E-04-2.37265E-15
 -1      2411 3.00145E-03 5.68208E-04-3.42123E-15
 -1      2412 2.85374E-03 5.66415E-04-3.08305E-15
 -1      2413 2.77819E-03 5.28627E-04-2.96444E-15
 -1      2414 3.28341E-03 5.69881E-04-4.11718E-15
 -1      2415 3.14234E-03 5.69304E-04-3.76030E-15
 -1      2416 3.06789E-03 5.32063E-04-3.62632E-15
 -1      2417 3.56614E-03 5.69797E-04-4.87966E-15
 -1      2418 3.42468E-03 5.70026E-04-4.48998E-15
 -1      2419 3.35102E-03 5.33162E-04-4.33880E-15
 -1      2420 3.84966E-03 5.68404E-04-5.70900E-15
 -1      2421 3.70780E-03 5.69241E-04-5.28605E-15
 -1      2422 3.63469E-03 5.32658E-04-5.11822E-15
 -1      2423 4.13400E-03 5.65965E-04-6.60408E-15
 -1      2424 3.99173E-03 5.67301E-04-6.14861E-15
 -1      2425 3.91891E-03 5.30953E-04-5.96350E-15
 -1      2426 4.41919E-03 5.62582E-04-7.56452E-15
 -1      2427 4.27648E-03 5.64384E-04-7.07611E-15
 -1      2428 4.20370E-03 5.28275E-04-6.87438E-15
 -1      2429 4.70530E-03 5.58215E-04-8.59024E-15
 -1      2430 4.56211E-03 5.60519E-04-8.06917E-15
 -1      2431 4.48904E-03 5.24704E-04-7.84954E-15
 -1      2432 4.99247E-03 5.52705E-04-9.67770E-15
 -1      2433 4.84872E-03 5.55604E-04-9.12595E-15
 -1      2434 4.77490E-03 5.20194E-04-8.88885E-15
 -1      2435 5.28087E-03 5.45809E-04-1.08270E-14
 -1      2436 5.13646E-03 5.49433E-04-1.02451E-14
 -1      2437 5.06123E-03 5.14610E-04-9.99071E-15
 -1      2438 5.57067E-03 5.37282E-04-1.20334E-14
 -1      2439 5.42550E-03 5.41748E-04-1.14234E-14
 -1      2440 5.34783E-03 5.07781E-04-1.11528E-14
 -1      2441 5.87660E-03 5.26553E-04-1.33653E-14
 -1      2442 5.72327E-03 5.32125E-04-1.26919E-14
 -1      2443 5.64143E-03 4.99401E-04-1.24048E-14
 -1      2444 6.16935E-03 5.15381E-04-1.46920E-14
 -1      2445 6.02257E-03 5.21029E-04-1.40204E-14
 -1      2446 5.93387E-03 4.89963E-04-1.37170E-14
 -1      2447 6.46265E-03 5.05903E-04-1.60790E-14
 -1      2448 6.31559E-03 5.10279E-04-1.53781E-14
 -1      2449 6.21617E-03 4.81054E-04-1.50590E-14
 -1      2450 6.75495E-03 5.04893E-04-1.75250E-14
 -1      2451 6.60842E-03 5.03930E-04-1.67945E-14
 -1      2452 6.49224E-03 4.75926E-04-1.64601E-14
 -1      2453 7.04489E-03 5.27892E-04-1.90263E-14
 -1      2454 6.89937E-03 5.12262E-04-1.82685E-14
 -1      2455 6.75729E-03 4.82257E-04-1.79185E-14
 -1      2456 7.33539E-03 6.06407E-04-2.05839E-14
 -1      2457 7.18856E-03 5.57958E-04-1.97987E-14
 -1      2458 7.00679E-03 5.16072E-04-1.94340E-14
 -1      2459 7.99771E-03 2.78965E-04-2.40725E-14
 -1      2460 7.83319E-03 3.51633E-04-2.36840E-14
 -1      2461 1.22441E-02 1.43612E-03-3.49769E-14
 -1      2462 1.23103E-02 1.42388E-03-3.51697E-14
 -1      2463 6.96556E-03 6.59261E-04-2.20559E-14
 -1      2464 7.09783E-03 6.92059E-04-2.22485E-14
 -1      2465 1.27137E-02 1.77356E-03-4.08091E-14
 -1      2466 1.25868E-02 1.67831E-03-3.96060E-14
 -1      2467 1.27474E-02 1.80508E-03-4.14107E-14
 -1      2468 1.35486E-02 2.45467E-03-4.84068E-14
 -1      2469 1.33994E-02 2.33248E-03-4.70687E-14
 -1      2470 1.32584E-02 2.24609E-03-4.64187E-14
 -1      2471 1.38342E-02 2.68729E-03-5.09959E-14
 -1      2472 1.36909E-02 2.57097E-03-4.96952E-14
 -1      2473 1.35386E-02 2.48100E-03-4.90292E-14
 -1      2474 1.41211E-02 2.91893E-03-5.36363E-14
 -1      2475 1.39775E-02 2.80326E-03-5.23101E-14
 -1      2476 1.38185E-02 2.71141E-03-5.16243E-14
 -1      2477 1.44084E-02 3.14912E-03-5.63262E-14
 -1      2478 1.42647E-02 3.03421E-03-5.49738E-14
 -1      2479 1.41018E-02 2.94142E-03-5.42711E-14
 -1      2480 1.46956E-02 3.37788E-03-5.90652E-14
 -1      2481 1.45520E-02 3.26367E-03-5.76911E-14
 -1      2482 1.43867E-02 3.17046E-03-5.69687E-14
 -1      2483 1.49826E-02 3.60543E-03-6.18439E-14
 -1      2484 1.48391E-02 3.49180E-03-6.04488E-14
 -1      2485 1.46725E-02 3.39843E-03-5.97143E-14
 -1      2486 1.52692E-02 3.83200E-03-6.46560E-14
 -1      2487 1.51259E-02 3.71883E-03-6.32441E-14
 -1      2488 1.49585E-02 3.62544E-03-6.24947E-14
 -1      2489 1.55556E-02 4.05778E-03-6.74982E-14
 -1      2490 1.54124E-02 3.94498E-03-6.60747E-14
 -1      2491 1.52446E-02 3.85164E-03-6.53129E-14
 -1      2492 1.58417E-02 4.28292E-03-7.03615E-14
 -1      2493 1.56987E-02 4.17043E-03-6.89295E-14
 -1      2494 1.55306E-02 4.07716E-03-6.81597E-14
 -1      2495 1.61277E-02 4.50755E-03-7.32386E-14
 -1      2496 1.59847E-02 4.39530E-03-7.17976E-14
 -1      2497 1.58165E-02 4.30213E-03-7.10239E-14
 -1      2498 1.62708E-02 4.62006E-03-7.46848E-14
 -1      2499 1.55322E-02 4.30337E-03-7.33463E-14
 -1      2500 1.56400E-02 4.34441E-03-7.34320E-14
 -1      2501 1.53129E-02 4.21997E-03-7.31588E-14
 -1      2502 1.54226E-02 4.26166E-03-7.32554E-14
 -1      2503 1.53530E-02 4.18518E-03-7.20615E-14
 -1      2504 1.15891E-02 1.74466E-03-3.27919E-14
 -1      2505 1.57496E-02 4.38621E-03-7.35140E-14
 -1      2506 1.58592E-02 4.42805E-03-7.35948E-14
 -1      2507 1.55721E-02 4.26859E-03-7.22333E-14
 -1      2508 1.50933E-02 4.13663E-03-7.29731E-14
 -1      2509 1.52031E-02 4.17830E-03-7.30669E-14
 -1      2510 1.51336E-02 4.10191E-03-7.18789E-14
 -1      2511 1.48734E-02 4.05327E-03-7.27796E-14
 -1      2512 1.49834E-02 4.09496E-03-7.28747E-14
 -1      2513 1.49139E-02 4.01864E-03-7.16899E-14
 -1      2514 1.46532E-02 3.96980E-03-7.25788E-14
 -1      2515 1.47633E-02 4.01155E-03-7.26790E-14
 -1      2516 1.46939E-02 3.93530E-03-7.14922E-14
 -1      2517 1.44327E-02 3.88618E-03-7.23680E-14
 -1      2518 1.45430E-02 3.92801E-03-7.24765E-14
 -1      2519 1.44736E-02 3.85180E-03-7.12889E-14
 -1      2520 1.42158E-02 3.80384E-03-7.21520E-14
 -1      2521 1.43242E-02 3.84503E-03-7.22596E-14
 -1      2522 1.42549E-02 3.76884E-03-7.10785E-14
 -1      2523 1.39950E-02 3.71993E-03-7.19138E-14
 -1      2524 1.41054E-02 3.76190E-03-7.20358E-14
 -1      2525 1.40360E-02 3.68570E-03-7.08564E-14
 -1      2526 1.37742E-02 3.63591E-03-7.16676E-14
 -1      2527 1.38846E-02 3.67793E-03-7.17930E-14
 -1      2528 1.38152E-02 3.60171E-03-7.06210E-14
 -1      2529 1.19610E-02 1.37147E-03-3.52252E-14
 -1      2530 1.17490E-02 1.31146E-03-3.48493E-14
 -1      2531 8.66552E-03-6.24861E-06-2.60178E-14
 -1      2532 8.55288E-03 3.45180E-05-2.56227E-14
 -1      2533 1.22313E-02 1.42386E-03-3.56724E-14
 -1      2534 1.21369E-02 1.41467E-03-3.55741E-14
 -1      2535 1.23427E-02 1.41973E-03-3.54372E-14
 -1      2536 1.23211E-02 1.42775E-03-3.56428E-14
 -1      2537 9.31673E-03 9.27264E-06-2.87771E-14
 -1      2538 9.19371E-03-3.48731E-05-2.82142E-14
 -1      2539 1.24657E-02 1.59632E-03-3.84151E-14
 -1      2540 1.23453E-02 1.52988E-03-3.72382E-14
 -1      2541 1.25318E-02 1.61940E-03-3.90119E-14
 -1      2542 7.29521E-03 7.56252E-04-2.24874E-14
 -1      2543 7.51186E-03 8.43549E-04-2.27629E-14
 -1      2544 5.46589E-04-2.28883E-05-1.92202E-16
 -1      2545 5.47047E-04-3.89142E-05-1.89573E-16
 -1      2546 6.62504E-04-5.57717E-05-2.55804E-16
 -1      2547 6.61273E-04-1.76985E-05-2.62363E-16
 -1      2548 1.00579E-02 4.48505E-04-3.13969E-14
 -1      2549 9.87643E-03 3.22152E-04-3.08171E-14
 -1      2550 6.87234E-03 6.40989E-04-2.19342E-14
 -1      2551 6.88810E-03 6.40145E-04-2.19264E-14
 -1      2552 1.15108E-02 1.23551E-03-3.45358E-14
 -1      2553 1.12920E-02 1.14915E-03-3.41745E-14
 -1      2554 7.18196E-03 5.77727E-04-2.23417E-14
 -1      2555 7.06568E-03 6.03941E-04-2.21674E-14
 -1      2556 1.05327E-02 7.61233E-04-3.27085E-14
 -1      2557 1.02995E-02 6.12086E-04-3.21237E-14
 -1      2558 6.95608E-03 6.26325E-04-2.20190E-14
 -1      2559 6.89095E-03 6.33619E-04-2.19385E-14
 -1      2560 9.68771E-03 2.00113E-04-3.01606E-14
 -1      2561 9.51971E-03 1.00028E-04-2.95380E-14
 -1      2562 8.37568E-03 1.06865E-04-2.50797E-14
 -1      2563 8.18738E-03 1.93700E-04-2.45440E-14
 -1      2564 8.42761E-03 6.66117E-05-2.50873E-14
 -1      2565 1.10487E-02 1.03393E-03-3.36966E-14
 -1      2566 1.08177E-02 9.17777E-04-3.32805E-14
 -1      2567 1.18188E-02 1.59288E-03-3.38886E-14
 -1      2568 6.70216E-04-1.37879E-04-2.32751E-16
 -1      2569 5.54583E-04-1.26150E-04-1.66832E-16
 -1      2570 5.57767E-04-1.46153E-04-1.59527E-16
 -1      2571 5.71746E-04-1.85216E-04-1.47058E-16
 -1      2572 6.92194E-03 6.22808E-04-2.16696E-14
 -1      2573 9.75415E-03 2.70679E-04-3.06594E-14
 -1      2574 1.21558E-02 1.46145E-03-3.47986E-14
 -1      2575 1.22331E-02 1.45670E-03-3.54667E-14
 -1      2576 7.76375E-03 3.50461E-04-2.31299E-14
 -1      2577 7.69030E-03 4.02233E-04-2.31964E-14
 -1      2578 7.55348E-03 4.38771E-04-2.27151E-14
 -1      2579 7.52310E-03 7.09884E-04-2.16124E-14
 -1      2580 7.26946E-03 6.24809E-04-2.12303E-14
 -1      2581 8.08714E-03 2.21797E-04-2.40821E-14
 -1      2582 7.68737E-03 8.44007E-04-2.24291E-14
 -1      2583 1.23495E-02 1.44128E-03-3.59141E-14
 -1      2584 1.01575E-02 5.51860E-04-3.20484E-14
 -1      2585 7.19594E-03 6.85386E-04-2.20328E-14
 -1      2586 7.81903E-03 9.55586E-04-2.29257E-14
 -1      2587 1.61026E-02 4.52698E-03-7.39040E-14
 -1      2588 8.75792E-03-4.07589E-05-2.63397E-14
 -1      2589 1.59982E-02 4.48011E-03-7.36721E-14
 -1      2590 1.16245E-02 1.31166E-03-3.52192E-14
 -1      2591 1.20369E-02 1.42223E-03-3.58883E-14
 -1      2592 1.35658E-02 3.54305E-03-7.11326E-14
 -1      2593 1.36880E-02 3.59922E-03-7.14824E-14
 -1      2594 1.36186E-02 3.52298E-03-7.03166E-14
 -1      2595 1.34462E-02 3.44955E-03-6.99496E-14
 -1      2596 1.06528E-02 8.66285E-04-3.33583E-14
 -1      2597 1.58205E-02 4.36235E-03-7.23895E-14
 -1      2598 1.19942E-02 1.51724E-03-3.43313E-14
 -1      2599 1.23018E-02 1.45356E-03-3.62125E-14
 -1      2600 9.08153E-03-5.58931E-05-2.77670E-14
 -1      2601 6.98455E-03 5.97124E-04-2.16967E-14
 -1      2602 7.26784E-03 5.44546E-04-2.23086E-14
 -1      2603 7.17256E-03 5.43804E-04-2.18085E-14
 -1      2604 7.35242E-03 5.04819E-04-2.22736E-14
 -1      2605 7.90782E-03 1.08300E-03-2.34227E-14
 -1      2606 6.86718E-03 6.12248E-04-2.15455E-14
 -1      2607 1.20046E-02 1.52299E-03-3.48388E-14
 -1      2608 9.38766E-03 5.51959E-05-2.92355E-14
 -1      2609 8.16061E-03 1.24529E-03-2.37655E-14
 -1      2610 1.11605E-02 1.13067E-03-3.44191E-14
 -1      2611 1.21693E-02 1.50556E-03-3.59621E-14
 -1      2612 1.23091E-02 1.48742E-03-3.65531E-14
 -1      2613 7.81724E-04-9.78842E-05-3.26440E-16
 -1      2614 7.84038E-04-1.21221E-04-3.19257E-16
 -1      2615 7.80199E-04 7.72477E-05-3.48585E-16
 -1      2616 7.78932E-04 5.54044E-05-3.48896E-16
 -1      2617 7.78080E-04 3.35130E-05-3.48381E-16
 -1      2618 7.77653E-04 1.18706E-05-3.46945E-16
 -1      2619 8.96486E-04 4.96120E-05-4.42205E-16
 -1      2620 7.91564E-04 1.72994E-04-3.35330E-16
 -1      2621 7.87556E-04 1.47587E-04-3.40724E-16
 -1      2622 8.03421E-04 2.28180E-04-3.19447E-16
 -1      2623 7.96791E-04 1.99799E-04-3.28581E-16
 -1      2624 9.14863E-04 2.07646E-04-4.22310E-16
 -1      2625 8.46262E-04 3.25034E-04-2.85620E-16
 -1      2626 2.26937E-03 4.77585E-04-2.01283E-15
 -1      2627 2.12751E-03 4.70878E-04-1.77203E-15
 -1      2628 1.98556E-03 4.62531E-04-1.54655E-15
 -1      2629 1.84350E-03 4.52382E-04-1.33643E-15
 -1      2630 2.04774E-03 4.30552E-04-1.68270E-15
 -1      2631 7.88846E-04-2.52328E-04-2.48526E-16
 -1      2632 9.20056E-04-2.88092E-04-3.24217E-16
 -1      2633 1.70126E-03 4.40011E-04-1.14203E-15
 -1      2634 1.55879E-03 4.25220E-04-9.63463E-16
 -1      2635 1.76220E-03 4.10655E-04-1.26064E-15
 -1      2636 1.06288E-03-3.17196E-04-4.25089E-16
 -1      2637 1.20615E-03-3.42320E-04-5.41234E-16
 -1      2638 1.01137E-03-2.76216E-04-4.13135E-16
 -1      2639 1.29912E-02 2.05128E-03-4.44644E-14
 -1      2640 1.28718E-02 1.94442E-03-4.32323E-14
 -1      2641 1.34935E-03-3.63844E-04-6.72571E-16
 -1      2642 1.49259E-03-3.82038E-04-8.19399E-16
 -1      2643 1.29704E-03-3.21901E-04-6.56823E-16
 -1      2644 1.63563E-03-3.97422E-04-9.81813E-16
 -1      2645 1.77859E-03-4.10208E-04-1.15973E-15
 -1      2646 1.58371E-03-3.55393E-04-9.62040E-16
 -1      2647 1.92139E-03-4.20862E-04-1.35357E-15
 -1      2648 2.06409E-03-4.29554E-04-1.56315E-15
 -1      2649 1.87048E-03-3.79071E-04-1.32916E-15
 -1      2650 2.20668E-03-4.36661E-04-1.78901E-15
 -1      2651 2.34921E-03-4.42319E-04-2.03142E-15
 -1      2652 2.15704E-03-3.95195E-04-1.75905E-15
 -1      2653 2.49168E-03-4.46821E-04-2.28939E-15
 -1      2654 2.63411E-03-4.50273E-04-2.56414E-15
 -1      2655 2.44335E-03-4.05668E-04-2.25304E-15
 -1      2656 2.77653E-03-4.52900E-04-2.85434E-15
 -1      2657 2.91893E-03-4.54784E-04-3.16083E-15
 -1      2658 2.72943E-03-4.12017E-04-2.81139E-15
 -1      2659 3.06136E-03-4.56095E-04-3.48324E-15
 -1      2660 3.20379E-03-4.56896E-04-3.82044E-15
 -1      2661 3.01535E-03-4.15427E-04-3.43348E-15
 -1      2662 3.34626E-03-4.57316E-04-4.17342E-15
 -1      2663 3.48875E-03-4.57403E-04-4.54216E-15
 -1      2664 3.30117E-03-4.16806E-04-4.11738E-15
 -1      2665 3.63129E-03-4.57254E-04-4.92537E-15
 -1      2666 3.77386E-03-4.56907E-04-5.32278E-15
 -1      2667 3.58696E-03-4.16840E-04-4.86206E-15
 -1      2668 3.91650E-03-4.56439E-04-5.73662E-15
 -1      2669 4.05919E-03-4.55881E-04-6.16464E-15
 -1      2670 3.87279E-03-4.16054E-04-5.66730E-15
 -1      2671 4.20195E-03-4.55295E-04-6.60825E-15
 -1      2672 4.34477E-03-4.54709E-04-7.06646E-15
 -1      2673 4.15873E-03-4.14856E-04-6.53258E-15
 -1      2674 4.48770E-03-4.54179E-04-7.53941E-15
 -1      2675 4.63070E-03-4.53733E-04-8.02814E-15
 -1      2676 4.44490E-03-4.13583E-04-7.45786E-15
 -1      2677 4.77383E-03-4.53422E-04-8.53100E-15
 -1      2678 4.91707E-03-4.53277E-04-9.04828E-15
 -1      2679 4.73144E-03-4.12538E-04-8.44211E-15
 -1      2680 5.06046E-03-4.53348E-04-9.57993E-15
 -1      2681 5.20400E-03-4.53671E-04-1.01270E-14
 -1      2682 5.01856E-03-4.12018E-04-9.48616E-15
 -1      2683 5.34774E-03-4.54289E-04-1.06893E-14
 -1      2684 5.49165E-03-4.55240E-04-1.12672E-14
 -1      2685 5.30651E-03-4.12334E-04-1.05896E-14
 -1      2686 5.63582E-03-4.56557E-04-1.18609E-14
 -1      2687 5.78016E-03-4.58269E-04-1.24705E-14
 -1      2688 5.59560E-03-4.13805E-04-1.17541E-14
 -1      2689 5.92479E-03-4.60383E-04-1.30971E-14
 -1      2690 6.06958E-03-4.62904E-04-1.37410E-14
 -1      2691 5.88614E-03-4.16725E-04-1.29831E-14
 -1      2692 6.21465E-03-4.65787E-04-1.44040E-14
 -1      2693 6.35982E-03-4.68978E-04-1.50864E-14
 -1      2694 6.17835E-03-4.21261E-04-1.42817E-14
 -1      2695 6.50517E-03-4.72348E-04-1.57868E-14
 -1      2696 6.65045E-03-4.75730E-04-1.65076E-14
 -1      2697 6.47223E-03-4.27269E-04-1.56541E-14
 -1      2698 6.79573E-03-4.78871E-04-1.72467E-14
 -1      2699 6.94067E-03-4.81424E-04-1.80039E-14
 -1      2700 6.76735E-03-4.33965E-04-1.71028E-14
 -1      2701 7.08528E-03-4.82968E-04-1.87821E-14
 -1      2702 7.22922E-03-4.82915E-04-1.95767E-14
 -1      2703 7.06271E-03-4.39464E-04-1.86279E-14
 -1      2704 7.37240E-03-4.80652E-04-2.03888E-14
 -1      2705 7.51459E-03-4.75333E-04-2.12200E-14
 -1      2706 7.35671E-03-4.40235E-04-2.02250E-14
 -1      2707 7.65563E-03-4.66174E-04-2.20705E-14
 -1      2708 7.79549E-03-4.52156E-04-2.29374E-14
 -1      2709 7.64742E-03-4.30700E-04-2.18937E-14
 -1      2710 7.93402E-03-4.32415E-04-2.38199E-14
 -1      2711 8.07151E-03-4.05979E-04-2.47206E-14
 -1      2712 7.93329E-03-4.03383E-04-2.36339E-14
 -1      2713 8.20782E-03-3.72081E-04-2.56396E-14
 -1      2714 8.34359E-03-3.30071E-04-2.65745E-14
 -1      2715 8.21399E-03-3.50029E-04-2.54438E-14
 -1      2716 8.47872E-03-2.79488E-04-2.75246E-14
 -1      2717 8.61403E-03-2.20238E-04-2.84911E-14
 -1      2718 8.49100E-03-2.63679E-04-2.73205E-14
 -1      2719 8.74946E-03-1.52311E-04-2.94733E-14
 -1      2720 8.88576E-03-7.62099E-05-3.04692E-14
 -1      2721 8.76730E-03-1.40939E-04-2.92607E-14
 -1      2722 9.02284E-03 7.62831E-06-3.14815E-14
 -1      2723 9.16119E-03 9.82755E-05-3.25100E-14
 -1      2724 9.04618E-03 1.67492E-05-3.12654E-14
 -1      2725 9.30069E-03 1.94991E-04-3.35517E-14
 -1      2726 9.44148E-03 2.96709E-04-3.46063E-14
 -1      2727 9.32984E-03 2.03662E-04-3.33284E-14
 -1      2728 9.58341E-03 4.02588E-04-3.56758E-14
 -1      2729 9.72635E-03 5.11682E-04-3.67626E-14
 -1      2730 9.61868E-03 4.11807E-04-3.54492E-14
 -1      2731 9.87017E-03 6.23222E-04-3.78630E-14
 -1      2732 1.00146E-02 7.36517E-04-3.89745E-14
 -1      2733 9.91156E-03 6.33206E-04-3.76309E-14
 -1      2734 1.01595E-02 8.50962E-04-4.00996E-14
 -1      2735 1.03047E-02 9.66137E-04-4.12393E-14
 -1      2736 1.02066E-02 8.61456E-04-3.98667E-14
 -1      2737 1.04501E-02 1.08162E-03-4.23932E-14
 -1      2738 1.05954E-02 1.19721E-03-4.35592E-14
 -1      2739 1.05020E-02 1.09222E-03-4.21551E-14
 -1      2740 1.07407E-02 1.31264E-03-4.47399E-14
 -1      2741 1.08858E-02 1.42786E-03-4.59357E-14
 -1      2742 1.07965E-02 1.32301E-03-4.44991E-14
 -1      2743 1.10307E-02 1.54272E-03-4.71495E-14
 -1      2744 1.11754E-02 1.65724E-03-4.83770E-14
 -1      2745 1.10894E-02 1.55266E-03-4.69028E-14
 -1      2746 1.13199E-02 1.77137E-03-4.96197E-14
 -1      2747 1.14642E-02 1.88515E-03-5.08801E-14
 -1      2748 1.13807E-02 1.78083E-03-4.93687E-14
 -1      2749 1.16083E-02 1.99858E-03-5.21575E-14
 -1      2750 1.17521E-02 2.11171E-03-5.34510E-14
 -1      2751 1.16704E-02 2.00758E-03-5.18966E-14
 -1      2752 1.18959E-02 2.22456E-03-5.47599E-14
 -1      2753 1.20394E-02 2.33718E-03-5.60847E-14
 -1      2754 1.19588E-02 2.23317E-03-5.44913E-14
 -1      2755 1.21828E-02 2.44960E-03-5.74238E-14
 -1      2756 1.23262E-02 2.56185E-03-5.87735E-14
 -1      2757 1.22463E-02 2.45792E-03-5.71469E-14
 -1      2758 1.24694E-02 2.67398E-03-6.01395E-14
 -1      2759 1.26125E-02 2.78601E-03-6.15173E-14
 -1      2760 1.25331E-02 2.68209E-03-5.98556E-14
 -1      2761 1.27556E-02 2.89797E-03-6.29030E-14
 -1      2762 1.28986E-02 3.00988E-03-6.42998E-14
 -1      2763 1.28195E-02 2.90592E-03-6.26126E-14
 -1      2764 1.30416E-02 3.12176E-03-6.57048E-14
 -1      2765 1.31846E-02 3.23363E-03-6.71169E-14
 -1      2766 1.31056E-02 3.12960E-03-6.54119E-14
 -1      2767 1.23594E-02 1.48790E-03-3.69243E-14
 -1      2768 1.22788E-02 1.49456E-03-3.69532E-14
 -1      2769 2.55299E-03 4.87156E-04-2.54216E-15
 -1      2770 2.41119E-03 4.82968E-04-2.26926E-15
 -1      2771 2.33291E-03 4.43734E-04-2.16643E-15
 -1      2772 2.85084E-03 4.92946E-04-3.16831E-15
 -1      2773 2.70190E-03 4.90521E-04-2.84621E-15
 -1      2774 2.62498E-03 4.52133E-04-2.72760E-15
 -1      2775 3.13470E-03 4.95563E-04-3.83143E-15
 -1      2776 2.99274E-03 4.94556E-04-3.49190E-15
 -1      2777 2.91698E-03 4.56799E-04-3.35712E-15
 -1      2778 3.41884E-03 4.96174E-04-4.56128E-15
 -1      2779 3.27673E-03 4.96083E-04-4.18830E-15
 -1      2780 3.20189E-03 4.58791E-04-4.03812E-15
 -1      2781 3.70329E-03 4.95335E-04-5.35726E-15
 -1      2782 3.56103E-03 4.95910E-04-4.95094E-15
 -1      2783 3.48688E-03 4.58989E-04-4.78442E-15
 -1      2784 3.98806E-03 4.93411E-04-6.21794E-15
 -1      2785 3.84564E-03 4.94493E-04-5.77938E-15
 -1      2786 3.77197E-03 4.57898E-04-5.59607E-15
 -1      2787 4.27311E-03 4.90606E-04-7.14369E-15
 -1      2788 4.13055E-03 4.92110E-04-6.67259E-15
 -1      2789 4.05712E-03 4.55848E-04-6.47213E-15
 -1      2790 4.55837E-03 4.86995E-04-8.13424E-15
 -1      2791 4.41572E-03 4.88899E-04-7.63060E-15
 -1      2792 4.34227E-03 4.53035E-04-7.41322E-15
 -1      2793 4.84368E-03 4.82563E-04-9.18807E-15
 -1      2794 4.70102E-03 4.84885E-04-8.65387E-15
 -1      2795 4.62721E-03 4.49554E-04-8.41880E-15
 -1      2796 5.12871E-03 4.77245E-04-1.03030E-14
 -1      2797 4.98622E-03 4.80022E-04-9.73759E-15
 -1      2798 4.91164E-03 4.45450E-04-9.48684E-15
 -1      2799 5.41286E-03 4.71022E-04-1.14774E-14
 -1      2800 5.27089E-03 4.74256E-04-1.08829E-14
 -1      2801 5.19494E-03 4.40786E-04-1.06146E-14
 -1      2802 5.70907E-03 4.63724E-04-1.27756E-14
 -1      2803 5.56126E-03 4.67481E-04-1.21184E-14
 -1      2804 5.48304E-03 4.35637E-04-1.18331E-14
 -1      2805 5.98700E-03 4.56870E-04-1.40698E-14
 -1      2806 5.84858E-03 4.60293E-04-1.34155E-14
 -1      2807 5.76689E-03 4.30749E-04-1.31136E-14
 -1      2808 6.25733E-03 4.52153E-04-1.54251E-14
 -1      2809 6.12318E-03 4.54240E-04-1.47396E-14
 -1      2810 6.03650E-03 4.27654E-04-1.44224E-14
 -1      2811 6.51446E-03 4.53960E-04-1.68407E-14
 -1      2812 6.38766E-03 4.52221E-04-1.61255E-14
 -1      2813 6.29384E-03 4.29089E-04-1.57917E-14
 -1      2814 6.75053E-03 4.70495E-04-1.83128E-14
 -1      2815 6.63520E-03 4.60271E-04-1.75696E-14
 -1      2816 6.53125E-03 4.40200E-04-1.72216E-14
 -1      2817 6.95622E-03 5.17349E-04-1.98416E-14
 -1      2818 6.85676E-03 4.89995E-04-1.90710E-14
 -1      2819 6.73763E-03 4.69594E-04-1.87086E-14
 -1      2820 1.23537E-02 1.46310E-03-3.63777E-14
 -1      2821 1.23814E-02 1.47311E-03-3.66467E-14
 -1      2822 8.13754E-03 1.69369E-04-2.40103E-14
 -1      2823 7.97409E-03 2.45273E-04-2.35476E-14
 -1      2824 1.27597E-02 1.84275E-03-4.20105E-14
 -1      2825 1.26554E-02 1.74476E-03-4.08022E-14
 -1      2826 1.27549E-02 1.88017E-03-4.26075E-14
 -1      2827 7.84403E-04 1.23343E-04-3.44465E-16
 -1      2828 7.82010E-04 9.99211E-05-3.46999E-16
 -1      2829 8.99614E-04 9.93352E-05-4.40986E-16
 -1      2830 9.05368E-04 1.51439E-04-4.34697E-16
 -1      2831 1.38006E-02 2.73604E-03-5.22496E-14
 -1      2832 1.36617E-02 2.62192E-03-5.09406E-14
 -1      2833 1.40812E-02 2.96422E-03-5.49020E-14
 -1      2834 1.39404E-02 2.85011E-03-5.35713E-14
 -1      2835 1.37804E-02 2.76047E-03-5.28718E-14
 -1      2836 1.43644E-02 3.19198E-03-5.76099E-14
 -1      2837 1.42226E-02 3.07816E-03-5.62497E-14
 -1      2838 1.40594E-02 2.98691E-03-5.55348E-14
 -1      2839 1.46490E-02 3.41909E-03-6.03595E-14
 -1      2840 1.45066E-02 3.30562E-03-5.89808E-14
 -1      2841 1.43414E-02 3.21346E-03-5.82473E-14
 -1      2842 1.49343E-02 3.64551E-03-6.31444E-14
 -1      2843 1.47916E-02 3.53238E-03-6.17457E-14
 -1      2844 1.46252E-02 3.43973E-03-6.09978E-14
 -1      2845 1.52199E-02 3.87131E-03-6.59655E-14
 -1      2846 1.50771E-02 3.75849E-03-6.45509E-14
 -1      2847 1.49099E-02 3.66558E-03-6.37895E-14
 -1      2848 1.55056E-02 4.09657E-03-6.88176E-14
 -1      2849 1.53628E-02 3.98401E-03-6.73895E-14
 -1      2850 1.51951E-02 3.89100E-03-6.66179E-14
 -1      2851 1.57345E-02 4.28571E-03-7.13180E-14
 -1      2852 1.55917E-02 4.17336E-03-6.98862E-14
 -1      2853 1.54238E-02 4.08036E-03-6.91096E-14
 -1      2854 1.55958E-02 4.23377E-03-7.12447E-14
 -1      2855 8.83736E-03-6.61208E-05-2.66845E-14
 -1      2856 8.67546E-03-3.87680E-05-2.59663E-14
 -1      2857 1.47355E-02 3.90106E-03-7.04068E-14
 -1      2858 1.48454E-02 3.94267E-03-7.05039E-14
 -1      2859 1.51747E-02 4.06739E-03-7.07812E-14
 -1      2860 1.52843E-02 4.10899E-03-7.08693E-14
 -1      2861 1.49553E-02 3.98425E-03-7.05975E-14
 -1      2862 1.50650E-02 4.02582E-03-7.06884E-14
 -1      2863 1.47770E-02 3.86667E-03-6.93174E-14
 -1      2864 1.53852E-02 4.15048E-03-7.10194E-14
 -1      2865 1.54948E-02 4.19217E-03-7.11011E-14
 -1      2866 1.54089E-02 4.11553E-03-7.00341E-14
 -1      2867 1.52070E-02 4.03258E-03-6.97407E-14
 -1      2868 1.45153E-02 3.81773E-03-7.02087E-14
 -1      2869 1.46255E-02 3.85942E-03-7.03086E-14
 -1      2870 1.45571E-02 3.78356E-03-6.91265E-14
 -1      2871 1.42949E-02 3.73420E-03-7.00021E-14
 -1      2872 1.44051E-02 3.77599E-03-7.01059E-14
 -1      2873 1.43367E-02 3.70023E-03-6.89251E-14
 -1      2874 1.40779E-02 3.65187E-03-6.97903E-14
 -1      2875 1.41864E-02 3.69306E-03-6.98971E-14
 -1      2876 1.41180E-02 3.61734E-03-6.87167E-14
 -1      2877 1.38571E-02 3.56793E-03-6.95665E-14
 -1      2878 1.39675E-02 3.60992E-03-6.96797E-14
 -1      2879 1.38991E-02 3.53421E-03-6.85002E-14
 -1      2880 1.36362E-02 3.48385E-03-6.93291E-14
 -1      2881 1.37467E-02 3.52590E-03-6.94490E-14
 -1      2882 1.36782E-02 3.45016E-03-6.82746E-14
 -1      2883 1.35246E-02 2.50818E-03-4.96464E-14
 -1      2884 1.33892E-02 2.39467E-03-4.83635E-14
 -1      2885 1.35067E-02 2.53499E-03-5.02603E-14
 -1      2886 1.41609E-03 4.07467E-04-8.00304E-16
 -1      2887 1.27303E-03 3.86498E-04-6.52812E-16
 -1      2888 1.47613E-03 3.81781E-04-9.00565E-16
 -1      2889 8.46388E-03 2.57753E-05-2.51081E-14
 -1      2890 8.31384E-03 9.21026E-05-2.45746E-14
 -1      2891 1.21089E-02 1.47141E-03-3.66702E-14
 -1      2892 1.19342E-02 1.43545E-03-3.63148E-14
 -1      2893 6.52860E-04-1.88286E-04-1.95373E-16
 -1      2894 6.87811E-03 5.86821E-04-2.11576E-14
 -1      2895 6.95977E-03 5.93932E-04-2.12844E-14
 -1      2896 6.85766E-03 5.85651E-04-2.11146E-14
 -1      2897 6.84474E-03 5.84714E-04-2.11108E-14
 -1      2898 9.80397E-03 3.40344E-04-3.11986E-14
 -1      2899 9.64121E-03 2.25132E-04-3.05368E-14
 -1      2900 1.02213E-02 6.32830E-04-3.26541E-14
 -1      2901 1.00067E-02 4.80606E-04-3.19203E-14
 -1      2902 9.88253E-03 4.19243E-04-3.17917E-14
 -1      2903 1.32540E-02 2.27971E-03-4.70632E-14
 -1      2904 1.31182E-02 2.16263E-03-4.57419E-14
 -1      2905 1.29842E-02 2.08783E-03-4.50996E-14
 -1      2906 1.32393E-02 2.30967E-03-4.76711E-14
 -1      2907 9.09726E-03-4.54092E-05-2.80839E-14
 -1      2908 8.97734E-03-7.04125E-05-2.73778E-14
 -1      2909 8.87771E-03-7.87480E-05-2.69903E-14
 -1      2910 1.17439E-02 1.38493E-03-3.59938E-14
 -1      2911 1.15277E-02 1.31908E-03-3.56722E-14
 -1      2912 1.18501E-02 1.44490E-03-3.67724E-14
 -1      2913 1.12518E-02 1.21020E-03-3.51551E-14
 -1      2914 1.10297E-02 1.10566E-03-3.46694E-14
 -1      2915 9.45123E-03 1.11124E-04-2.97577E-14
 -1      2916 9.27924E-03 2.31796E-05-2.89933E-14
 -1      2917 9.51318E-03 1.70441E-04-3.02843E-14
 -1      2918 1.07820E-02 9.76476E-04-3.41144E-14
 -1      2919 1.05283E-02 8.29902E-04-3.35323E-14
 -1      2920 7.00649E-03 5.64813E-04-2.13262E-14
 -1      2921 6.91459E-03 5.77641E-04-2.11816E-14
 -1      2922 1.18967E-03 3.41174E-04-6.02437E-16
 -1      2923 1.12981E-03 3.61645E-04-5.20986E-16
 -1      2924 8.95450E-04 9.94215E-07-4.38831E-16
 -1      2925 7.77621E-04-9.72371E-06-3.44695E-16
 -1      2926 7.77984E-04-3.13485E-05-3.41524E-16
 -1      2927 8.23222E-04 2.91083E-04-2.94239E-16
 -1      2928 8.12141E-04 2.58531E-04-3.08306E-16
 -1      2929 8.18590E-03 1.15660E-04-2.40283E-14
 -1      2930 7.69955E-04-2.02275E-04-2.68177E-16
 -1      2931 9.16627E-03-1.20659E-05-2.85900E-14
 -1      2932 1.23125E-02 1.55745E-03-3.81023E-14
 -1      2933 1.22186E-02 1.51705E-03-3.73833E-14
 -1      2934 1.21484E-02 1.53661E-03-3.78133E-14
 -1      2935 1.24020E-02 1.51169E-03-3.73931E-14
 -1      2936 1.33265E-02 3.35607E-03-6.87677E-14
 -1      2937 7.83272E-03 2.90696E-04-2.30605E-14
 -1      2938 7.69385E-03 3.27668E-04-2.25786E-14
 -1      2939 7.87929E-03 2.31104E-04-2.29862E-14
 -1      2940 1.01563E-03 3.44448E-04-4.22446E-16
 -1      2941 7.49458E-03 4.10356E-04-2.21409E-14
 -1      2942 7.42871E-03 4.60113E-04-2.22080E-14
 -1      2943 7.31166E-03 4.67419E-04-2.17063E-14
 -1      2944 1.33905E-02 3.36382E-03-6.84766E-14
 -1      2945 7.00163E-03 5.50019E-04-2.04954E-14
 -1      2946 6.86906E-03 5.23136E-04-2.01198E-14
 -1      2947 1.25817E-02 1.70855E-03-4.03883E-14
 -1      2948 1.25789E-02 1.67000E-03-3.97987E-14
 -1      2949 1.23611E-02 1.48243E-03-3.67323E-14
 -1      2950 1.14023E-02 1.29598E-03-3.59252E-14
 -1      2951 7.87088E-04-1.45351E-04-3.11098E-16
 -1      2952 7.90970E-04-1.70492E-04-3.01584E-16
 -1      2953 9.04866E-04-1.48933E-04-4.01887E-16
 -1      2954 1.49964E-02 3.94967E-03-6.95026E-14
 -1      2955 8.55488E-03-2.27200E-05-2.54376E-14
 -1      2956 8.43518E-03-6.38100E-06-2.49163E-14
 -1      2957 8.62596E-03-5.89085E-05-2.57704E-14
 -1      2958 7.06392E-03 5.41416E-04-2.12911E-14
 -1      2959 6.96887E-03 5.27220E-04-2.07787E-14
 -1      2960 7.12484E-03 5.12162E-04-2.12553E-14
 -1      2961 1.08974E-02 1.06379E-03-3.48436E-14
 -1      2962 1.34767E-02 3.40055E-03-6.86603E-14
 -1      2963 7.78763E-04-5.31108E-05-3.37377E-16
 -1      2964 7.79983E-04-7.52784E-05-3.32349E-16
 -1      2965 8.99309E-04-9.70064E-05-4.18882E-16
 -1      2966 8.96343E-04-4.74889E-05-4.31052E-16
 -1      2967 6.84052E-03 5.60061E-04-2.07306E-14
 -1      2968 1.03615E-02 7.47560E-04-3.33987E-14
 -1      2969 1.02180E-02 6.69272E-04-3.32612E-14
 -1      2970 1.04998E-02 8.53412E-04-3.41481E-14
 -1      2971 9.30160E-04 2.69693E-04-4.01467E-16
 -1      2972 1.24925E-02 1.58535E-03-3.86096E-14
 -1      2973 1.34081E-02 3.32478E-03-6.74899E-14
 -1      2974 6.85740E-03 5.57602E-04-2.07504E-14
 -1      2975 6.77906E-03 5.22203E-04-2.00302E-14
 -1      2976 6.80720E-03 5.20720E-04-2.00763E-14
 -1      2977 6.76411E-03 4.91195E-04-1.94307E-14
 -1      2978 1.04030E-03 2.43055E-04-5.19116E-16
 -1      2979 1.03369E-03 2.11337E-04-5.28318E-16
 -1      2980 2.11118E-03 3.97952E-04-1.82009E-15
 -1      2981 1.96794E-03 3.90146E-04-1.59267E-15
 -1      2982 8.21423E-03 6.22203E-05-2.40135E-14
 -1      2983 8.05994E-03 1.27980E-04-2.34585E-14
 -1      2984 2.69424E-03 4.16555E-04-2.90774E-15
 -1      2985 2.54409E-03 4.13423E-04-2.60200E-15
 -1      2986 9.33113E-04-2.34816E-04-3.75825E-16
 -1      2987 1.07479E-03-2.58970E-04-4.84896E-16
 -1      2988 1.50351E-03-3.14119E-04-9.02625E-16
 -1      2989 1.64708E-03-3.27392E-04-1.07266E-15
 -1      2990 1.79073E-03-3.38580E-04-1.25838E-15
 -1      2991 1.93445E-03-3.47844E-04-1.45940E-15
 -1      2992 1.71160E-03-2.98547E-04-1.18713E-15
 -1      2993 2.07815E-03-3.55500E-04-1.67600E-15
 -1      2994 2.22184E-03-3.61688E-04-1.90862E-15
 -1      2995 1.99951E-03-3.15967E-04-1.59279E-15
 -1      2996 2.36547E-03-3.66676E-04-2.15717E-15
 -1      2997 2.50905E-03-3.70576E-04-2.42161E-15
 -1      2998 2.28761E-03-3.27671E-04-2.06110E-15
 -1      2999 2.65258E-03-3.73602E-04-2.70205E-15
 -1      3000 2.79604E-03-3.75842E-04-2.99809E-15
 -1      3001 2.57560E-03-3.35079E-04-2.59271E-15
 -1      3002 2.93946E-03-3.77463E-04-3.30997E-15
 -1      3003 3.08281E-03-3.78532E-04-3.63780E-15
 -1      3004 2.86335E-03-3.39348E-04-3.18707E-15
 -1      3005 3.22612E-03-3.79177E-04-3.98105E-15
 -1      3006 3.36938E-03-3.79447E-04-4.33944E-15
 -1      3007 3.15082E-03-3.41387E-04-3.84404E-15
 -1      3008 3.51261E-03-3.79438E-04-4.71244E-15
 -1      3009 3.65581E-03-3.79190E-04-5.10070E-15
 -1      3010 3.43802E-03-3.41890E-04-4.56230E-15
 -1      3011 3.79901E-03-3.78774E-04-5.50429E-15
 -1      3012 3.94219E-03-3.78220E-04-5.92297E-15
 -1      3013 3.72500E-03-3.41376E-04-5.34112E-15
 -1      3014 4.08540E-03-3.77583E-04-6.35731E-15
 -1      3015 4.22863E-03-3.76890E-04-6.80609E-15
 -1      3016 4.01185E-03-3.40235E-04-6.18097E-15
 -1      3017 4.37192E-03-3.76185E-04-7.26945E-15
 -1      3018 4.51528E-03-3.75494E-04-7.74790E-15
 -1      3019 4.29872E-03-3.38762E-04-7.08118E-15
 -1      3020 4.65875E-03-3.74852E-04-8.24141E-15
 -1      3021 4.80236E-03-3.74293E-04-8.74988E-15
 -1      3022 4.58581E-03-3.37197E-04-8.04021E-15
 -1      3023 4.94616E-03-3.73845E-04-9.27280E-15
 -1      3024 5.09017E-03-3.73554E-04-9.81028E-15
 -1      3025 4.87343E-03-3.35757E-04-9.05902E-15
 -1      3026 5.23448E-03-3.73440E-04-1.03641E-14
 -1      3027 5.37911E-03-3.73565E-04-1.09321E-14
 -1      3028 5.16197E-03-3.34670E-04-1.01380E-14
 -1      3029 5.52416E-03-3.73942E-04-1.15159E-14
 -1      3030 5.66963E-03-3.74647E-04-1.21155E-14
 -1      3031 5.45197E-03-3.34204E-04-1.12772E-14
 -1      3032 5.81566E-03-3.75679E-04-1.27303E-14
 -1      3033 5.96222E-03-3.77124E-04-1.33628E-14
 -1      3034 5.74406E-03-3.34688E-04-1.24782E-14
 -1      3035 6.10945E-03-3.78954E-04-1.40126E-14
 -1      3036 6.25727E-03-3.81240E-04-1.46805E-14
 -1      3037 6.03891E-03-3.36504E-04-1.37442E-14
 -1      3038 6.40581E-03-3.83906E-04-1.53671E-14
 -1      3039 6.55489E-03-3.86960E-04-1.60735E-14
 -1      3040 6.33711E-03-3.40019E-04-1.50821E-14
 -1      3041 6.70462E-03-3.90245E-04-1.67974E-14
 -1      3042 6.85467E-03-3.93616E-04-1.75405E-14
 -1      3043 6.63888E-03-3.45390E-04-1.64933E-14
 -1      3044 7.00507E-03-3.96784E-04-1.83027E-14
 -1      3045 7.15540E-03-3.99337E-04-1.90838E-14
 -1      3046 6.94377E-03-3.52140E-04-1.79796E-14
 -1      3047 7.30555E-03-4.00791E-04-1.98824E-14
 -1      3048 7.45507E-03-4.00350E-04-2.06976E-14
 -1      3049 7.25029E-03-3.58460E-04-1.95394E-14
 -1      3050 7.60375E-03-3.97292E-04-2.15318E-14
 -1      3051 7.75127E-03-3.90425E-04-2.23849E-14
 -1      3052 7.55594E-03-3.60253E-04-2.11713E-14
 -1      3053 7.89736E-03-3.78837E-04-2.32549E-14
 -1      3054 8.04206E-03-3.61076E-04-2.41420E-14
 -1      3055 7.85769E-03-3.50419E-04-2.28749E-14
 -1      3056 8.18517E-03-3.36212E-04-2.50464E-14
 -1      3057 8.32721E-03-3.02983E-04-2.59683E-14
 -1      3058 8.15326E-03-3.19065E-04-2.46494E-14
 -1      3059 8.46810E-03-2.60711E-04-2.69074E-14
 -1      3060 8.60877E-03-2.08773E-04-2.78620E-14
 -1      3061 8.44270E-03-2.55578E-04-2.64936E-14
 -1      3062 8.74923E-03-1.47012E-04-2.88340E-14
 -1      3063 8.89049E-03-7.57390E-05-2.98219E-14
 -1      3064 8.72891E-03-1.52262E-04-2.84054E-14
 -1      3065 9.03252E-03 4.61926E-06-3.08250E-14
 -1      3066 9.17603E-03 9.29682E-05-3.18426E-14
 -1      3067 9.01651E-03-7.60810E-06-3.03829E-14
 -1      3068 9.32088E-03 1.88469E-04-3.28773E-14
 -1      3069 9.46728E-03 2.89690E-04-3.39261E-14
 -1      3070 9.30937E-03 1.72950E-04-3.24238E-14
 -1      3071 9.61500E-03 3.95670E-04-3.49882E-14
 -1      3072 9.76382E-03 5.05101E-04-3.60647E-14
 -1      3073 9.60873E-03 3.79540E-04-3.45248E-14
 -1      3074 9.91352E-03 6.17142E-04-3.71577E-14
 -1      3075 1.00637E-02 7.30863E-04-3.82658E-14
 -1      3076 9.91311E-03 6.01627E-04-3.66840E-14
 -1      3077 1.02141E-02 8.45654E-04-3.93853E-14
 -1      3078 1.03644E-02 9.60985E-04-4.05177E-14
 -1      3079 1.02196E-02 8.30849E-04-3.89016E-14
 -1      3080 1.05144E-02 1.07647E-03-4.16652E-14
 -1      3081 1.06640E-02 1.19189E-03-4.28259E-14
 -1      3082 1.05254E-02 1.06194E-03-4.11726E-14
 -1      3083 1.08130E-02 1.30702E-03-4.39996E-14
 -1      3084 1.09614E-02 1.42185E-03-4.51878E-14
 -1      3085 1.08285E-02 1.29226E-03-4.34984E-14
 -1      3086 1.11091E-02 1.53625E-03-4.63904E-14
 -1      3087 1.12562E-02 1.65028E-03-4.76109E-14
 -1      3088 1.11281E-02 1.52091E-03-4.58809E-14
 -1      3089 1.14027E-02 1.76390E-03-4.88463E-14
 -1      3090 1.15486E-02 1.87720E-03-5.00955E-14
 -1      3091 1.14242E-02 1.74785E-03-4.83228E-14
 -1      3092 1.16939E-02 1.99017E-03-5.13609E-14
 -1      3093 1.18389E-02 2.10288E-03-5.26421E-14
 -1      3094 1.17172E-02 1.97341E-03-5.08259E-14
 -1      3095 1.19834E-02 2.21535E-03-5.39384E-14
 -1      3096 1.21276E-02 2.32764E-03-5.52515E-14
 -1      3097 1.20078E-02 2.19798E-03-5.33893E-14
 -1      3098 1.22715E-02 2.43977E-03-5.65789E-14
 -1      3099 1.24152E-02 2.55178E-03-5.79202E-14
 -1      3100 1.22966E-02 2.42192E-03-5.60145E-14
 -1      3101 1.25586E-02 2.66369E-03-5.92763E-14
 -1      3102 1.27020E-02 2.77554E-03-6.06432E-14
 -1      3103 1.25841E-02 2.64549E-03-5.86977E-14
 -1      3104 1.28452E-02 2.88735E-03-6.20227E-14
 -1      3105 1.29883E-02 2.99912E-03-6.34122E-14
 -1      3106 1.28709E-02 2.86888E-03-6.14316E-14
 -1      3107 1.31268E-02 3.10606E-03-6.47393E-14
 -1      3108 1.32697E-02 3.21783E-03-6.61483E-14
 -1      3109 1.34294E-02 3.30117E-03-6.68118E-14
 -1      3110 1.31525E-02 3.08742E-03-6.41408E-14
 -1      3111 2.39746E-03 4.09355E-04-2.32098E-15
 -1      3112 2.25435E-03 4.04309E-04-2.06278E-15
 -1      3113 2.17569E-03 3.64810E-04-1.95918E-15
 -1      3114 1.25589E-02 1.73665E-03-4.08031E-14
 -1      3115 1.24955E-02 1.66537E-03-3.98039E-14
 -1      3116 3.26948E-03 4.21761E-04-4.24532E-15
 -1      3117 3.12661E-03 4.21273E-04-3.88840E-15
 -1      3118 3.55517E-03 4.21636E-04-5.00847E-15
 -1      3119 3.41234E-03 4.21867E-04-4.61884E-15
 -1      3120 3.33748E-03 3.84548E-04-4.45350E-15
 -1      3121 3.84074E-03 4.20389E-04-5.83503E-15
 -1      3122 3.69797E-03 4.21133E-04-5.41356E-15
 -1      3123 3.62371E-03 3.84184E-04-5.23213E-15
 -1      3124 4.12613E-03 4.18331E-04-6.72718E-15
 -1      3125 3.98347E-03 4.19449E-04-6.27326E-15
 -1      3126 3.90963E-03 3.82878E-04-6.07470E-15
 -1      3127 4.41119E-03 4.15663E-04-7.68260E-15
 -1      3128 4.26871E-03 4.17066E-04-7.19643E-15
 -1      3129 4.19511E-03 3.80929E-04-6.98165E-15
 -1      3130 4.69564E-03 4.12526E-04-8.70293E-15
 -1      3131 4.55351E-03 4.14150E-04-8.18495E-15
 -1      3132 4.47995E-03 3.78564E-04-7.95256E-15
 -1      3133 4.97895E-03 4.09063E-04-9.78440E-15
 -1      3134 4.83746E-03 4.10835E-04-9.23614E-15
 -1      3135 4.76372E-03 3.75995E-04-8.98615E-15
 -1      3136 5.26026E-03 4.05517E-04-1.09246E-14
 -1      3137 5.11991E-03 4.07299E-04-1.03473E-14
 -1      3138 5.04576E-03 3.73500E-04-1.00814E-14
 -1      3139 5.55185E-03 4.02250E-04-1.21884E-14
 -1      3140 5.40664E-03 4.03820E-04-1.15480E-14
 -1      3141 5.33186E-03 3.71509E-04-1.12650E-14
 -1      3142 5.82337E-03 4.00685E-04-1.34511E-14
 -1      3143 5.68852E-03 4.01274E-04-1.28118E-14
 -1      3144 5.61294E-03 3.71020E-04-1.25115E-14
 -1      3145 6.08483E-03 4.02698E-04-1.47744E-14
 -1      3146 5.95560E-03 4.01241E-04-1.41059E-14
 -1      3147 5.87929E-03 3.73619E-04-1.37890E-14
 -1      3148 6.33004E-03 4.11953E-04-1.61597E-14
 -1      3149 6.20986E-03 4.06443E-04-1.54592E-14
 -1      3150 6.13328E-03 3.82020E-04-1.51271E-14
 -1      3151 6.54989E-03 4.34236E-04-1.76031E-14
 -1      3152 6.44376E-03 4.21644E-04-1.68737E-14
 -1      3153 6.36813E-03 4.00613E-04-1.65268E-14
 -1      3154 6.68401E-03 4.64523E-04-1.86678E-14
 -1      3155 7.14213E-03 5.77910E-04-2.07834E-14
 -1      3156 7.00302E-03 5.80772E-04-2.10676E-14
 -1      3157 1.24170E-02 1.51905E-03-3.74713E-14
 -1      3158 1.43177E-02 3.23486E-03-5.88785E-14
 -1      3159 1.41767E-02 3.12212E-03-5.75136E-14
 -1      3160 1.37583E-02 2.78466E-03-5.34914E-14
 -1      3161 1.36210E-02 2.67269E-03-5.21756E-14
 -1      3162 1.46009E-02 3.46033E-03-6.16345E-14
 -1      3163 1.44591E-02 3.34760E-03-6.02526E-14
 -1      3164 1.42934E-02 3.25603E-03-5.95061E-14
 -1      3165 1.48853E-02 3.68563E-03-6.44327E-14
 -1      3166 1.47430E-02 3.57301E-03-6.30290E-14
 -1      3167 1.45764E-02 3.48079E-03-6.22694E-14
 -1      3168 1.51703E-02 3.91067E-03-6.72641E-14
 -1      3169 1.50277E-02 3.79818E-03-6.58434E-14
 -1      3170 1.48605E-02 3.70560E-03-6.50728E-14
 -1      3171 1.53325E-02 4.05152E-03-6.91799E-14
 -1      3172 1.52466E-02 3.97476E-03-6.81162E-14
 -1      3173 1.50791E-02 3.88203E-03-6.73338E-14
 -1      3174 1.52316E-02 4.01005E-03-6.90355E-14
 -1      3175 1.39401E-02 3.50017E-03-6.74330E-14
 -1      3176 1.40487E-02 3.54135E-03-6.75402E-14
 -1      3177 1.41590E-02 3.58315E-03-6.76418E-14
 -1      3178 1.42693E-02 3.62487E-03-6.77464E-14
 -1      3179 1.39813E-02 3.46613E-03-6.63661E-14
 -1      3180 1.43795E-02 3.66650E-03-6.78457E-14
 -1      3181 1.44897E-02 3.70806E-03-6.79450E-14
 -1      3182 1.42020E-02 3.54955E-03-6.65691E-14
 -1      3183 1.37192E-02 3.41620E-03-6.72144E-14
 -1      3184 1.38297E-02 3.45822E-03-6.73240E-14
 -1      3185 1.37603E-02 3.38231E-03-6.61528E-14
 -1      3186 1.35191E-02 3.33766E-03-6.69579E-14
 -1      3187 1.36295E-02 3.37976E-03-6.70721E-14
 -1      3188 1.35601E-02 3.30383E-03-6.59020E-14
 -1      3189 1.33807E-02 3.23083E-03-6.56168E-14
 -1      3190 8.87632E-03-8.39126E-05-2.71365E-14
 -1      3191 8.75937E-03-8.28398E-05-2.64491E-14
 -1      3192 8.64134E-03-8.12953E-05-2.59100E-14
 -1      3193 6.83954E-03 5.15749E-04-2.01597E-14
 -1      3194 6.79357E-03 5.21829E-04-2.00972E-14
 -1      3195 6.73185E-03 4.89260E-04-1.94520E-14
 -1      3196 1.34855E-02 2.56142E-03-5.08742E-14
 -1      3197 1.33521E-02 2.45078E-03-4.95845E-14
 -1      3198 1.34617E-02 2.58680E-03-5.14831E-14
 -1      3199 1.53791E-03 3.55267E-04-1.00324E-15
 -1      3200 1.39453E-03 3.38952E-04-8.37275E-16
 -1      3201 1.45996E-02 3.74955E-03-6.80417E-14
 -1      3202 1.47095E-02 3.79099E-03-6.81346E-14
 -1      3203 1.44223E-02 3.63256E-03-6.67687E-14
 -1      3204 7.26654E-03 6.73173E-04-2.18124E-14
 -1      3205 1.27453E-02 1.91881E-03-4.32030E-14
 -1      3206 1.26423E-02 1.82322E-03-4.19890E-14
 -1      3207 1.48192E-02 3.83240E-03-6.82266E-14
 -1      3208 1.49288E-02 3.87380E-03-6.83160E-14
 -1      3209 1.46421E-02 3.71527E-03-6.69571E-14
 -1      3210 9.22040E-03 2.51363E-05-2.90893E-14
 -1      3211 9.05450E-03-4.35562E-05-2.81780E-14
 -1      3212 2.98371E-03 4.20306E-04-3.54783E-15
 -1      3213 2.84078E-03 4.18800E-04-3.22355E-15
 -1      3214 3.05098E-03 3.83550E-04-3.73941E-15
 -1      3215 1.21717E-03-2.80130E-04-6.08929E-16
 -1      3216 1.36020E-03-2.98423E-04-7.48249E-16
 -1      3217 1.13910E-03-2.40049E-04-5.60682E-16
 -1      3218 1.82465E-03 3.80580E-04-1.38115E-15
 -1      3219 1.68128E-03 3.69078E-04-1.18471E-15
 -1      3220 1.60098E-03 3.27869E-04-1.10837E-15
 -1      3221 1.88833E-03 3.49839E-04-1.50326E-15
 -1      3222 1.24628E-02 1.56093E-03-3.82474E-14
 -1      3223 9.96351E-03 5.02078E-04-3.24699E-14
 -1      3224 9.78223E-03 3.72476E-04-3.17420E-14
 -1      3225 1.01655E-03 6.81105E-05-5.47454E-16
 -1      3226 1.01537E-03 4.11582E-05-5.46682E-16
 -1      3227 1.10146E-02 1.14975E-03-3.56523E-14
 -1      3228 1.07910E-02 1.03086E-03-3.50882E-14
 -1      3229 7.08578E-03 6.26596E-04-2.15788E-14
 -1      3230 1.15359E-02 1.37592E-03-3.67998E-14
 -1      3231 1.12843E-02 1.27599E-03-3.62728E-14
 -1      3232 1.40364E-02 3.00947E-03-5.61603E-14
 -1      3233 1.38968E-02 2.89691E-03-5.48188E-14
 -1      3234 1.40124E-02 3.03164E-03-5.67825E-14
 -1      3235 9.59891E-03 2.47592E-04-3.09459E-14
 -1      3236 9.42942E-03 1.38962E-04-3.01607E-14
 -1      3237 9.68463E-03 3.23770E-04-3.16094E-14
 -1      3238 1.19456E-02 1.49856E-03-3.75461E-14
 -1      3239 1.17693E-02 1.45194E-03-3.72180E-14
 -1      3240 1.24347E-02 1.58202E-03-3.85250E-14
 -1      3241 1.23989E-02 1.60847E-03-3.89362E-14
 -1      3242 9.63083E-04 3.37654E-04-3.78861E-16
 -1      3243 7.96051E-03 1.06490E-04-2.29520E-14
 -1      3244 7.92957E-03 1.66820E-04-2.29712E-14
 -1      3245 7.79884E-03 2.01795E-04-2.24893E-14
 -1      3246 2.46650E-03 3.74630E-04-2.48406E-15
 -1      3247 1.02084E-03 1.23089E-04-5.44622E-16
 -1      3248 1.01836E-03 9.53440E-05-5.46750E-16
 -1      3249 1.13812E-03 8.84320E-05-6.63450E-16
 -1      3250 1.15310E-03 2.11584E-04-6.46401E-16
 -1      3251 1.02834E-03 1.80978E-04-5.35637E-16
 -1      3252 1.02416E-03 1.51668E-04-5.41085E-16
 -1      3253 1.23612E-02 1.63581E-03-3.93705E-14
 -1      3254 7.56060E-03 3.52577E-04-2.20702E-14
 -1      3255 7.43266E-03 3.66961E-04-2.15664E-14
 -1      3256 7.61079E-03 2.92652E-04-2.19962E-14
 -1      3257 1.25358E-02 1.77401E-03-4.13921E-14
 -1      3258 1.42445E-03-2.73786E-04-8.43238E-16
 -1      3259 6.61283E-03 4.46081E-04-1.83029E-14
 -1      3260 1.37345E-02 2.80820E-03-5.41077E-14
 -1      3261 1.16581E-02 1.44023E-03-3.75701E-14
 -1      3262 9.30623E-03 8.26368E-05-2.97314E-14
 -1      3263 1.30801E-03 2.79535E-04-7.78403E-16
 -1      3264 1.24439E-03 3.02085E-04-6.92236E-16
 -1      3265 1.11725E-02 1.24395E-03-3.65191E-14
 -1      3266 8.93893E-03-7.38148E-05-2.76177E-14
 -1      3267 8.82645E-03-9.42240E-05-2.70646E-14
 -1      3268 8.99433E-03-5.34953E-05-2.81020E-14
 -1      3269 1.50298E-02 3.92120E-03-6.86047E-14
 -1      3270 1.51307E-02 3.96255E-03-6.87524E-14
 -1      3271 1.50545E-02 3.89860E-03-6.79033E-14
 -1      3272 1.48527E-02 3.80385E-03-6.73339E-14
 -1      3273 6.86937E-03 5.01450E-04-2.01248E-14
 -1      3274 6.77792E-03 4.72193E-04-1.94807E-14
 -1      3275 6.90542E-03 4.83220E-04-2.00885E-14
 -1      3276 1.01477E-03 1.44137E-05-5.44663E-16
 -1      3277 1.01473E-03-1.22308E-05-5.41342E-16
 -1      3278 1.13544E-03 3.01071E-05-6.61797E-16
 -1      3279 1.10154E-03 2.80441E-04-5.56562E-16
 -1      3280 7.18265E-03 4.76449E-04-2.11869E-14
 -1      3281 7.06563E-03 4.73504E-04-2.06747E-14
 -1      3282 7.23645E-03 4.35333E-04-2.11188E-14
 -1      3283 8.37480E-03-3.94459E-05-2.46469E-14
 -1      3284 8.30226E-03 7.54751E-06-2.43281E-14
 -1      3285 8.17019E-03 1.63797E-05-2.37486E-14
 -1      3286 1.28586E-02 2.02027E-03-4.44627E-14
 -1      3287 1.27307E-02 1.95702E-03-4.38291E-14
 -1      3288 1.29786E-02 2.12625E-03-4.57338E-14
 -1      3289 1.01807E-03-9.28968E-05-5.23656E-16
 -1      3290 1.02045E-03-1.20579E-04-5.15186E-16
 -1      3291 2.76066E-03 3.80552E-04-3.08160E-15
 -1      3292 8.34652E-04-1.91561E-04-3.23336E-16
 -1      3293 1.06319E-02 9.52224E-04-3.49454E-14
 -1      3294 1.04884E-02 8.73586E-04-3.48007E-14
 -1      3295 1.07600E-02 1.04071E-03-3.57479E-14
 -1      3296 1.14324E-03-1.45737E-04-6.21058E-16
 -1      3297 1.02365E-03-1.48946E-04-5.05414E-16
 -1      3298 1.02770E-03-1.78136E-04-4.93990E-16
 -1      3299 1.00992E-02 6.06829E-04-3.32057E-14
 -1      3300 1.32189E-02 2.33908E-03-4.82753E-14
 -1      3301 1.30892E-02 2.22862E-03-4.69802E-14
 -1      3302 1.31945E-02 2.36680E-03-4.88787E-14
 -1      3303 1.20859E-02 1.55420E-03-3.82623E-14
 -1      3304 1.20241E-02 1.56759E-03-3.87122E-14
 -1      3305 1.22112E-02 1.60364E-03-3.89865E-14
 -1      3306 9.82992E-04 2.75597E-04-4.45363E-16
 -1      3307 8.63194E-03-1.00871E-04-2.59742E-14
 -1      3308 8.51047E-03-7.80193E-05-2.53053E-14
 -1      3309 8.37900E-03-7.42002E-05-2.47065E-14
 -1      3310 2.24126E-03 3.31103E-04-2.10014E-15
 -1      3311 2.09722E-03 3.25417E-04-1.85590E-15
 -1      3312 1.92137E-03-2.76836E-04-1.50917E-15
 -1      3313 2.06564E-03-2.83421E-04-1.72909E-15
 -1      3314 2.20998E-03-2.88812E-04-1.96474E-15
 -1      3315 2.35434E-03-2.93125E-04-2.21620E-15
 -1      3316 2.13271E-03-2.50230E-04-1.86857E-15
 -1      3317 2.49868E-03-2.96547E-04-2.48299E-15
 -1      3318 2.64297E-03-2.99166E-04-2.76537E-15
 -1      3319 2.42192E-03-2.58099E-04-2.37340E-15
 -1      3320 2.78720E-03-3.01138E-04-3.06386E-15
 -1      3321 2.93135E-03-3.02531E-04-3.37760E-15
 -1      3322 2.71109E-03-2.62897E-04-2.94056E-15
 -1      3323 3.07542E-03-3.03466E-04-3.70705E-15
 -1      3324 3.21940E-03-3.03992E-04-4.05218E-15
 -1      3325 2.99999E-03-2.65450E-04-3.57024E-15
 -1      3326 3.36330E-03-3.04204E-04-4.41212E-15
 -1      3327 3.50711E-03-3.04137E-04-4.78700E-15
 -1      3328 3.28850E-03-2.66403E-04-4.26165E-15
 -1      3329 3.65085E-03-3.03861E-04-5.17801E-15
 -1      3330 3.79452E-03-3.03399E-04-5.58360E-15
 -1      3331 3.57661E-03-2.66237E-04-5.01442E-15
 -1      3332 3.93816E-03-3.02806E-04-6.00348E-15
 -1      3333 4.08176E-03-3.02096E-04-6.44024E-15
 -1      3334 3.86437E-03-2.65300E-04-5.82764E-15
 -1      3335 4.22537E-03-3.01309E-04-6.89162E-15
 -1      3336 4.36899E-03-3.00460E-04-7.35752E-15
 -1      3337 4.15190E-03-2.63834E-04-6.70105E-15
 -1      3338 4.51269E-03-2.99574E-04-7.83831E-15
 -1      3339 4.65648E-03-2.98672E-04-8.33369E-15
 -1      3340 4.43942E-03-2.62002E-04-7.63623E-15
 -1      3341 4.80043E-03-2.97769E-04-8.84496E-15
 -1      3342 4.94459E-03-2.96895E-04-9.37005E-15
 -1      3343 4.72723E-03-2.59921E-04-8.62979E-15
 -1      3344 5.08905E-03-2.96061E-04-9.91035E-15
 -1      3345 5.23385E-03-2.95315E-04-1.04665E-14
 -1      3346 5.01579E-03-2.57693E-04-9.68335E-15
 -1      3347 5.37912E-03-2.94660E-04-1.10372E-14
 -1      3348 5.52492E-03-2.94174E-04-1.16236E-14
 -1      3349 5.30572E-03-2.55451E-04-1.07973E-14
 -1      3350 5.67141E-03-2.93856E-04-1.22257E-14
 -1      3351 5.81864E-03-2.93819E-04-1.28431E-14
 -1      3352 5.59786E-03-2.53415E-04-1.19725E-14
 -1      3353 5.96679E-03-2.94056E-04-1.34772E-14
 -1      3354 6.11588E-03-2.94717E-04-1.41284E-14
 -1      3355 5.89323E-03-2.51961E-04-1.32100E-14
 -1      3356 6.26612E-03-2.95783E-04-1.47975E-14
 -1      3357 6.41745E-03-2.97415E-04-1.54852E-14
 -1      3358 6.19296E-03-2.51680E-04-1.45138E-14
 -1      3359 6.57005E-03-2.99564E-04-1.61907E-14
 -1      3360 6.72371E-03-3.02342E-04-1.69144E-14
 -1      3361 6.49811E-03-2.53373E-04-1.58886E-14
 -1      3362 6.87857E-03-3.05630E-04-1.76573E-14
 -1      3363 7.03419E-03-3.09332E-04-1.84185E-14
 -1      3364 6.80922E-03-2.57869E-04-1.73362E-14
 -1      3365 7.19056E-03-3.13193E-04-1.91988E-14
 -1      3366 7.34707E-03-3.16707E-04-1.99960E-14
 -1      3367 7.12574E-03-2.65427E-04-1.88581E-14
 -1      3368 7.50353E-03-3.19332E-04-2.08110E-14
 -1      3369 7.65922E-03-3.19974E-04-2.16446E-14
 -1      3370 7.44548E-03-2.74550E-04-2.04519E-14
 -1      3371 7.81381E-03-3.17765E-04-2.24957E-14
 -1      3372 7.96682E-03-3.10921E-04-2.33650E-14
 -1      3373 7.76446E-03-2.80217E-04-2.21172E-14
 -1      3374 8.11789E-03-2.98345E-04-2.42521E-14
 -1      3375 8.26718E-03-2.77809E-04-2.51570E-14
 -1      3376 8.07796E-03-2.72638E-04-2.38543E-14
 -1      3377 8.41446E-03-2.48304E-04-2.60781E-14
 -1      3378 8.56076E-03-2.08241E-04-2.70181E-14
 -1      3379 8.38297E-03-2.37370E-04-2.56632E-14
 -1      3380 8.70602E-03-1.57041E-04-2.79758E-14
 -1      3381 8.85171E-03-9.43507E-05-2.89493E-14
 -1      3382 8.68085E-03-1.60244E-04-2.75442E-14
 -1      3383 8.99784E-03-2.04008E-05-2.99385E-14
 -1      3384 9.14569E-03 6.35872E-05-3.09443E-14
 -1      3385 8.97729E-03-3.35716E-05-2.94924E-14
 -1      3386 9.29512E-03 1.56753E-04-3.19663E-14
 -1      3387 9.44663E-03 2.57025E-04-3.30054E-14
 -1      3388 9.27891E-03 1.39361E-04-3.15077E-14
 -1      3389 9.59990E-03 3.63264E-04-3.40575E-14
 -1      3390 9.75467E-03 4.73499E-04-3.51238E-14
 -1      3391 9.58905E-03 3.46139E-04-3.35872E-14
 -1      3392 9.91058E-03 5.86719E-04-3.62083E-14
 -1      3393 1.00670E-02 7.01511E-04-3.73047E-14
 -1      3394 9.90626E-03 5.71834E-04-3.57287E-14
 -1      3395 1.02236E-02 8.17233E-04-3.84164E-14
 -1      3396 1.03797E-02 9.33134E-04-3.95402E-14
 -1      3397 1.02262E-02 8.04462E-04-3.79281E-14
 -1      3398 1.05353E-02 1.04886E-03-4.06769E-14
 -1      3399 1.06898E-02 1.16419E-03-4.18297E-14
 -1      3400 1.05444E-02 1.03713E-03-4.01816E-14
 -1      3401 1.08434E-02 1.27895E-03-4.29950E-14
 -1      3402 1.09956E-02 1.39319E-03-4.41750E-14
 -1      3403 1.08578E-02 1.26710E-03-4.24893E-14
 -1      3404 1.11468E-02 1.50684E-03-4.53708E-14
 -1      3405 1.12967E-02 1.62006E-03-4.65788E-14
 -1      3406 1.11653E-02 1.49412E-03-4.48563E-14
 -1      3407 1.14456E-02 1.73281E-03-4.77979E-14
 -1      3408 1.15934E-02 1.84527E-03-4.90371E-14
 -1      3409 1.14670E-02 1.71888E-03-4.72776E-14
 -1      3410 1.17404E-02 1.95741E-03-5.02918E-14
 -1      3411 1.18866E-02 2.06937E-03-5.15582E-14
 -1      3412 1.17637E-02 1.94224E-03-4.97551E-14
 -1      3413 1.20322E-02 2.18115E-03-5.28416E-14
 -1      3414 1.21772E-02 2.29283E-03-5.41388E-14
 -1      3415 1.20567E-02 2.16491E-03-5.22926E-14
 -1      3416 1.23217E-02 2.40443E-03-5.54509E-14
 -1      3417 1.24658E-02 2.51598E-03-5.67785E-14
 -1      3418 1.23469E-02 2.38733E-03-5.48910E-14
 -1      3419 1.26096E-02 2.62751E-03-5.81212E-14
 -1      3420 1.27532E-02 2.73903E-03-5.94759E-14
 -1      3421 1.26352E-02 2.60977E-03-5.75473E-14
 -1      3422 1.28966E-02 2.85056E-03-6.08438E-14
 -1      3423 1.30398E-02 2.96210E-03-6.22224E-14
 -1      3424 1.29223E-02 2.83238E-03-6.02566E-14
 -1      3425 1.31411E-02 3.04305E-03-6.32503E-14
 -1      3426 1.32795E-02 3.14983E-03-6.45770E-14
 -1      3427 1.33693E-02 3.18639E-03-6.47195E-14
 -1      3428 1.31669E-02 3.02459E-03-6.26523E-14
 -1      3429 3.69252E-03 3.46665E-04-5.45575E-15
 -1      3430 3.54925E-03 3.47039E-04-5.05097E-15
 -1      3431 2.53645E-03 3.39419E-04-2.64917E-15
 -1      3432 2.38888E-03 3.35784E-04-2.36634E-15
 -1      3433 2.31136E-03 2.96990E-04-2.24911E-15
 -1      3434 3.40587E-03 3.47172E-04-4.66176E-15
 -1      3435 3.26239E-03 3.47033E-04-4.28830E-15
 -1      3436 3.47467E-03 3.09699E-04-4.87028E-15
 -1      3437 4.26412E-03 3.43702E-04-7.23603E-15
 -1      3438 4.12149E-03 3.44599E-04-6.76724E-15
 -1      3439 4.54863E-03 3.41815E-04-8.22211E-15
 -1      3440 4.40652E-03 3.42771E-04-7.72093E-15
 -1      3441 4.33321E-03 3.06702E-04-7.49093E-15
 -1      3442 4.83167E-03 3.40054E-04-9.26970E-15
 -1      3443 4.69036E-03 3.40908E-04-8.73847E-15
 -1      3444 4.61732E-03 3.05463E-04-8.49155E-15
 -1      3445 5.11242E-03 3.38858E-04-1.03775E-14
 -1      3446 4.97239E-03 3.39370E-04-9.81629E-15
 -1      3447 4.89961E-03 3.04738E-04-9.55243E-15
 -1      3448 5.40329E-03 3.39000E-04-1.16053E-14
 -1      3449 5.25846E-03 3.38721E-04-1.09830E-14
 -1      3450 5.18611E-03 3.05179E-04-1.07025E-14
 -1      3451 5.67441E-03 3.41773E-04-1.28353E-14
 -1      3452 5.53974E-03 3.40029E-04-1.22125E-14
 -1      3453 5.46820E-03 3.07891E-04-1.19148E-14
 -1      3454 5.93656E-03 3.49228E-04-1.41268E-14
 -1      3455 5.80686E-03 3.44868E-04-1.34734E-14
 -1      3456 5.73697E-03 3.14390E-04-1.31591E-14
 -1      3457 6.18505E-03 3.64681E-04-1.54800E-14
 -1      3458 6.06292E-03 3.55913E-04-1.47958E-14
 -1      3459 5.99627E-03 3.27249E-04-1.44642E-14
 -1      3460 6.41335E-03 3.92933E-04-1.68936E-14
 -1      3461 6.30238E-03 3.77222E-04-1.61790E-14
 -1      3462 6.24192E-03 3.50184E-04-1.58324E-14
 -1      3463 1.37094E-02 2.83114E-03-5.47203E-14
 -1      3464 1.35719E-02 2.72074E-03-5.33984E-14
 -1      3465 1.34672E-03-2.34854E-04-7.83661E-16
 -1      3466 1.48980E-03-2.48040E-04-9.41860E-16
 -1      3467 1.44911E-03 2.76435E-04-9.47674E-16
 -1      3468 1.30041E-03 2.44159E-04-7.89923E-16
 -1      3469 1.29423E-03 2.09734E-04-7.99138E-16
 -1      3470 9.93742E-04 3.09906E-04-4.30564E-16
 -1      3471 1.45515E-02 3.50112E-03-6.29027E-14
 -1      3472 1.44098E-02 3.38899E-03-6.15138E-14
 -1      3473 1.39875E-02 3.05343E-03-5.74046E-14
 -1      3474 1.38480E-02 2.94204E-03-5.60573E-14
 -1      3475 1.36833E-02 2.85328E-03-5.53342E-14
 -1      3476 1.23225E-02 1.66060E-03-3.98266E-14
 -1      3477 1.13166E-02 1.33346E-03-3.75128E-14
 -1      3478 1.10713E-02 1.21681E-03-3.68804E-14
 -1      3479 1.42686E-02 3.27697E-03-6.01328E-14
 -1      3480 1.41278E-02 3.16508E-03-5.87622E-14
 -1      3481 1.39620E-02 3.07471E-03-5.80206E-14
 -1      3482 1.42433E-02 3.29760E-03-6.07578E-14
 -1      3483 1.38025E-02 3.34882E-03-6.50926E-14
 -1      3484 1.39130E-02 3.39065E-03-6.51962E-14
 -1      3485 1.02572E-02 7.31333E-04-3.41904E-14
 -1      3486 1.00227E-02 5.73923E-04-3.33834E-14
 -1      3487 1.35814E-02 3.26482E-03-6.48777E-14
 -1      3488 1.36919E-02 3.30687E-03-6.49867E-14
 -1      3489 1.36236E-02 3.23155E-03-6.38257E-14
 -1      3490 1.40235E-02 3.43235E-03-6.52991E-14
 -1      3491 1.41338E-02 3.47393E-03-6.54006E-14
 -1      3492 1.38449E-02 3.31526E-03-6.40356E-14
 -1      3493 3.11881E-03 3.46539E-04-3.93083E-15
 -1      3494 2.97515E-03 3.45645E-04-3.58986E-15
 -1      3495 3.18717E-03 3.09342E-04-4.12365E-15
 -1      3496 1.42441E-02 3.51537E-03-6.54989E-14
 -1      3497 1.43542E-02 3.55671E-03-6.55969E-14
 -1      3498 1.40658E-02 3.39835E-03-6.42373E-14
 -1      3499 1.34358E-02 2.61121E-03-5.20901E-14
 -1      3500 1.33015E-02 2.50257E-03-5.07950E-14
 -1      3501 1.34085E-02 2.63441E-03-5.26936E-14
 -1      3502 1.24847E-02 1.81791E-03-4.21752E-14
 -1      3503 1.23995E-02 1.73587E-03-4.09965E-14
 -1      3504 1.22423E-02 1.69566E-03-4.05986E-14
 -1      3505 3.97866E-03 3.45408E-04-6.31407E-15
 -1      3506 3.83566E-03 3.46115E-04-5.87648E-15
 -1      3507 3.76160E-03 3.09141E-04-5.67993E-15
 -1      3508 4.04786E-03 3.08036E-04-6.55290E-15
 -1      3509 1.01525E-03-3.89037E-05-5.36667E-16
 -1      3510 1.01634E-03-6.57108E-05-5.30798E-16
 -1      3511 1.13784E-03-8.58880E-05-6.40533E-16
 -1      3512 1.44641E-02 3.59795E-03-6.56900E-14
 -1      3513 1.45738E-02 3.63913E-03-6.57788E-14
 -1      3514 1.42861E-02 3.48084E-03-6.44286E-14
 -1      3515 2.82959E-03 3.44220E-04-3.26129E-15
 -1      3516 2.68216E-03 3.42178E-04-2.94494E-15
 -1      3517 2.60541E-03 3.03761E-04-2.81256E-15
 -1      3518 2.89739E-03 3.07584E-04-3.43710E-15
 -1      3519 1.63334E-03-2.59317E-04-1.11563E-15
 -1      3520 1.77725E-03-2.68851E-04-1.30489E-15
 -1      3521 1.55609E-03-2.21103E-04-1.04453E-15
 -1      3522 9.52903E-04-1.97317E-04-4.16686E-16
 -1      3523 9.38159E-03 1.43441E-04-3.04106E-14
 -1      3524 9.18635E-03 3.33061E-05-2.93349E-14
 -1      3525 1.17948E-02 1.51365E-03-3.85048E-14
 -1      3526 1.15806E-02 1.44062E-03-3.80759E-14
 -1      3527 9.76154E-03 3.94975E-04-3.22926E-14
 -1      3528 9.59225E-03 2.77859E-04-3.14900E-14
 -1      3529 6.65016E-03 4.53128E-04-1.86884E-14
 -1      3530 6.51775E-03 4.14481E-04-1.76237E-14
 -1      3531 6.46861E-03 3.88298E-04-1.72615E-14
 -1      3532 6.66974E-03 4.46753E-04-1.87500E-14
 -1      3533 8.69919E-03-1.11674E-04-2.64410E-14
 -1      3534 8.57309E-03-1.22174E-04-2.58229E-14
 -1      3535 8.75810E-03-1.11328E-04-2.69094E-14
 -1      3536 8.00075E-03 4.09108E-05-2.30134E-14
 -1      3537 7.88242E-03 7.06721E-05-2.25292E-14
 -1      3538 7.70707E-03 1.64918E-04-2.19584E-14
 -1      3539 7.66692E-03 2.28225E-04-2.19783E-14
 -1      3540 7.53758E-03 2.47789E-04-2.14737E-14
 -1      3541 1.14374E-03 1.48520E-04-6.58788E-16
 -1      3542 1.59260E-03 2.89413E-04-1.12361E-15
 -1      3543 9.45968E-03 2.05229E-04-3.10755E-14
 -1      3544 1.25864E-03-7.62481E-05-7.69445E-16
 -1      3545 1.26075E-03-1.07659E-04-7.60324E-16
 -1      3546 1.07192E-03-1.99228E-04-5.22897E-16
 -1      3547 1.26111E-03 1.10392E-04-7.90112E-16
 -1      3548 1.25889E-03 7.89418E-05-7.90966E-16
 -1      3549 1.31371E-02 2.41741E-03-5.00732E-14
 -1      3550 1.31667E-02 2.39303E-03-4.94766E-14
 -1      3551 1.30348E-02 2.28503E-03-4.81742E-14
 -1      3552 1.14762E-02 1.42009E-03-3.84423E-14
 -1      3553 1.03894E-02 8.27065E-04-3.49798E-14
 -1      3554 1.49783E-02 3.83462E-03-6.70540E-14
 -1      3555 1.34590E-02 3.22292E-03-6.48599E-14
 -1      3556 6.94106E-03 4.58062E-04-2.00223E-14
 -1      3557 6.82734E-03 4.36331E-04-1.93800E-14
 -1      3558 6.97794E-03 4.28261E-04-1.99538E-14
 -1      3559 9.91447E-03 5.11803E-04-3.32556E-14
 -1      3560 9.07270E-03-1.69263E-05-2.87586E-14
 -1      3561 8.96274E-03-5.78761E-05-2.81891E-14
 -1      3562 9.14718E-03 2.77341E-05-2.94201E-14
 -1      3563 1.47257E-02 3.71314E-03-6.62767E-14
 -1      3564 1.48266E-02 3.76039E-03-6.65632E-14
 -1      3565 1.48513E-02 3.74372E-03-6.59967E-14
 -1      3566 1.45479E-02 3.59573E-03-6.50140E-14
 -1      3567 7.34201E-03 3.32359E-04-2.09743E-14
 -1      3568 7.29397E-03 3.85844E-04-2.10479E-14
 -1      3569 7.16390E-03 3.94127E-04-2.05356E-14
 -1      3570 1.13535E-03-2.76808E-05-6.54031E-16
 -1      3571 1.25741E-03 4.76984E-05-7.90045E-16
 -1      3572 1.25667E-03 1.66741E-05-7.87280E-16
 -1      3573 1.38057E-03 6.69720E-05-9.29188E-16
 -1      3574 1.25937E-02 1.90913E-03-4.34162E-14
 -1      3575 1.24441E-02 1.86099E-03-4.30039E-14
 -1      3576 1.27086E-02 2.00599E-03-4.46713E-14
 -1      3577 1.21345E-03-2.16202E-04-6.52392E-16
 -1      3578 1.27964E-03-1.93916E-04-7.36512E-16
 -1      3579 1.33905E-02 3.14752E-03-6.37025E-14
 -1      3580 2.01908E-03 2.86282E-04-1.75349E-15
 -1      3581 1.95320E-03 3.18392E-04-1.62735E-15
 -1      3582 1.80921E-03 3.09914E-04-1.41418E-15
 -1      3583 1.47091E-02 3.63154E-03-6.45888E-14
 -1      3584 1.29531E-02 2.15695E-03-4.63293E-14
 -1      3585 6.74859E-03 4.38267E-04-1.90465E-14
 -1      3586 6.72890E-03 4.52209E-04-1.90819E-14
 -1      3587 6.62955E-03 4.17844E-04-1.83246E-14
 -1      3588 6.76927E-03 4.17848E-04-1.89816E-14
 -1      3589 1.09228E-02 1.14732E-03-3.67294E-14
 -1      3590 1.07837E-02 1.07560E-03-3.65758E-14
 -1      3591 1.10784E-02 1.24385E-03-3.77191E-14
 -1      3592 1.26764E-03-1.34009E-04-7.56109E-16
 -1      3593 1.27130E-03-1.66439E-04-7.43587E-16
 -1      3594 1.40421E-03-1.81270E-04-8.84804E-16
 -1      3595 1.38893E-03-1.24870E-04-8.96988E-16
 -1      3596 1.45420E-02 3.53948E-03-6.38191E-14
 -1      3597 1.19523E-02 1.58002E-03-3.92302E-14
 -1      3598 1.18869E-02 1.58820E-03-3.97428E-14
 -1      3599 1.20978E-02 1.64009E-03-3.99592E-14
 -1      3600 1.84387E-03-2.38284E-04-1.42586E-15
 -1      3601 8.07730E-03-1.07586E-05-2.33160E-14
 -1      3602 1.27866E-03 1.75594E-04-7.94436E-16
 -1      3603 1.27469E-03 1.42757E-04-7.99003E-16
 -1      3604 1.39593E-03 1.33897E-04-9.39881E-16
 -1      3605 1.42557E-03 2.03681E-04-9.54952E-16
 -1      3606 2.34551E-03-2.19867E-04-2.26440E-15
 -1      3607 2.49035E-03-2.22593E-04-2.53276E-15
 -1      3608 2.63518E-03-2.24709E-04-2.81769E-15
 -1      3609 2.77995E-03-2.26273E-04-3.11764E-15
 -1      3610 2.55953E-03-1.86655E-04-2.69491E-15
 -1      3611 2.92465E-03-2.27394E-04-3.43351E-15
 -1      3612 3.06925E-03-2.28112E-04-3.76482E-15
 -1      3613 2.84948E-03-1.89350E-04-3.29709E-15
 -1      3614 3.21373E-03-2.28515E-04-4.11112E-15
 -1      3615 3.35811E-03-2.28628E-04-4.47296E-15
 -1      3616 3.13907E-03-1.90573E-04-3.96101E-15
 -1      3617 3.50236E-03-2.28518E-04-4.85061E-15
 -1      3618 3.64651E-03-2.28200E-04-5.24326E-15
 -1      3619 3.42818E-03-1.90721E-04-4.68664E-15
 -1      3620 3.79055E-03-2.27721E-04-5.65075E-15
 -1      3621 3.93451E-03-2.27087E-04-6.07332E-15
 -1      3622 3.71677E-03-1.90073E-04-5.47354E-15
 -1      3623 4.07840E-03-2.26331E-04-6.51112E-15
 -1      3624 4.22225E-03-2.25455E-04-6.96489E-15
 -1      3625 4.00492E-03-1.88802E-04-6.32136E-15
 -1      3626 4.36609E-03-2.24475E-04-7.43359E-15
 -1      3627 4.50996E-03-2.23392E-04-7.91683E-15
 -1      3628 4.29276E-03-1.86992E-04-7.23061E-15
 -1      3629 4.65392E-03-2.22213E-04-8.41470E-15
 -1      3630 4.79801E-03-2.20944E-04-8.92763E-15
 -1      3631 4.58057E-03-1.84654E-04-8.19935E-15
 -1      3632 4.94231E-03-2.19579E-04-9.45615E-15
 -1      3633 5.08691E-03-2.18142E-04-9.99873E-15
 -1      3634 4.86873E-03-1.81753E-04-9.22750E-15
 -1      3635 5.23191E-03-2.16618E-04-1.05571E-14
 -1      3636 5.37741E-03-2.15060E-04-1.11304E-14
 -1      3637 5.15785E-03-1.78238E-04-1.03164E-14
 -1      3638 5.52357E-03-2.13450E-04-1.17187E-14
 -1      3639 5.67050E-03-2.11890E-04-1.23231E-14
 -1      3640 5.44878E-03-1.74116E-04-1.14656E-14
 -1      3641 5.81841E-03-2.10363E-04-1.29425E-14
 -1      3642 5.96743E-03-2.09046E-04-1.35777E-14
 -1      3643 5.74267E-03-1.69544E-04-1.26750E-14
 -1      3644 6.11781E-03-2.07928E-04-1.42313E-14
 -1      3645 6.26963E-03-2.07276E-04-1.49009E-14
 -1      3646 6.04104E-03-1.64989E-04-1.39479E-14
 -1      3647 6.42319E-03-2.07095E-04-1.55887E-14
 -1      3648 6.57846E-03-2.07713E-04-1.62941E-14
 -1      3649 6.34564E-03-1.61407E-04-1.52889E-14
 -1      3650 6.73571E-03-2.09142E-04-1.70174E-14
 -1      3651 6.89469E-03-2.11701E-04-1.77589E-14
 -1      3652 6.65823E-03-1.60366E-04-1.66998E-14
 -1      3653 7.05560E-03-2.15358E-04-1.85189E-14
 -1      3654 7.21783E-03-2.20143E-04-1.92970E-14
 -1      3655 6.97992E-03-1.63963E-04-1.81826E-14
 -1      3656 7.38139E-03-2.25792E-04-2.00940E-14
 -1      3657 7.54520E-03-2.31749E-04-2.09077E-14
 -1      3658 7.31025E-03-1.73849E-04-1.97366E-14
 -1      3659 7.70906E-03-2.37380E-04-2.17395E-14
 -1      3660 7.87176E-03-2.40966E-04-2.25892E-14
 -1      3661 7.64589E-03-1.89104E-04-2.13638E-14
 -1      3662 8.03281E-03-2.41441E-04-2.34572E-14
 -1      3663 8.19156E-03-2.35805E-04-2.43438E-14
 -1      3664 7.98038E-03-2.03293E-04-2.30609E-14
 -1      3665 8.34756E-03-2.22513E-04-2.52489E-14
 -1      3666 8.50144E-03-1.98341E-04-2.61702E-14
 -1      3667 8.30668E-03-2.01403E-04-2.48326E-14
 -1      3668 8.95418E-03-4.76221E-05-2.90457E-14
 -1      3669 9.10637E-03 3.01019E-05-3.00373E-14
 -1      3670 9.26016E-03 1.20397E-04-3.10467E-14
 -1      3671 9.41682E-03 2.20196E-04-3.20727E-14
 -1      3672 9.24001E-03 9.93426E-05-3.05836E-14
 -1      3673 9.57589E-03 3.28046E-04-3.31156E-14
 -1      3674 9.73722E-03 4.40805E-04-3.41733E-14
 -1      3675 9.56130E-03 3.07918E-04-3.26404E-14
 -1      3676 9.90029E-03 5.57115E-04-3.52474E-14
 -1      3677 1.00640E-02 6.74733E-04-3.63354E-14
 -1      3678 9.89314E-03 5.41631E-04-3.47635E-14
 -1      3679 1.02280E-02 7.92852E-04-3.74373E-14
 -1      3680 1.03911E-02 9.10395E-04-3.85531E-14
 -1      3681 1.02292E-02 7.81756E-04-3.69439E-14
 -1      3682 1.05533E-02 1.02702E-03-3.96817E-14
 -1      3683 1.07137E-02 1.14257E-03-4.08242E-14
 -1      3684 1.05622E-02 1.01836E-03-3.91802E-14
 -1      3685 1.08725E-02 1.25695E-03-4.19823E-14
 -1      3686 1.10292E-02 1.37039E-03-4.31542E-14
 -1      3687 1.08876E-02 1.24850E-03-4.14729E-14
 -1      3688 1.11842E-02 1.48289E-03-4.43391E-14
 -1      3689 1.13373E-02 1.59481E-03-4.55408E-14
 -1      3690 1.12037E-02 1.47326E-03-4.38214E-14
 -1      3691 1.14888E-02 1.70614E-03-4.67537E-14
 -1      3692 1.16387E-02 1.81719E-03-4.79779E-14
 -1      3693 1.15112E-02 1.69469E-03-4.62254E-14
 -1      3694 1.17874E-02 1.92796E-03-4.92196E-14
 -1      3695 1.19349E-02 2.03866E-03-5.04768E-14
 -1      3696 1.18116E-02 1.91464E-03-4.86847E-14
 -1      3697 1.20814E-02 2.14928E-03-5.17480E-14
 -1      3698 1.22272E-02 2.25995E-03-5.30313E-14
 -1      3699 1.21067E-02 2.13433E-03-5.11997E-14
 -1      3700 1.23723E-02 2.37064E-03-5.43321E-14
 -1      3701 1.25168E-02 2.48143E-03-5.56463E-14
 -1      3702 1.23980E-02 2.35439E-03-5.37732E-14
 -1      3703 1.26609E-02 2.59230E-03-5.69725E-14
 -1      3704 1.28047E-02 2.70328E-03-5.83157E-14
 -1      3705 1.26869E-02 2.57510E-03-5.64031E-14
 -1      3706 1.29482E-02 2.81435E-03-5.96719E-14
 -1      3707 1.30915E-02 2.92552E-03-6.10384E-14
 -1      3708 1.29742E-02 2.79648E-03-5.90864E-14
 -1      3709 1.32893E-02 3.06676E-03-6.26727E-14
 -1      3710 1.54723E-03-1.90918E-04-1.05365E-15
 -1      3711 1.69086E-03-1.99206E-04-1.23759E-15
 -1      3712 1.53909E-03-1.61165E-04-1.06134E-15
 -1      3713 2.38058E-03 2.62274E-04-2.39651E-15
 -1      3714 2.23234E-03 2.58348E-04-2.12916E-15
 -1      3715 3.54386E-03 2.72150E-04-5.07970E-15
 -1      3716 3.40003E-03 2.72179E-04-4.69045E-15
 -1      3717 4.68620E-03 2.69524E-04-8.76041E-15
 -1      3718 4.54455E-03 2.69672E-04-8.24574E-15
 -1      3719 4.40247E-03 2.69957E-04-7.74660E-15
 -1      3720 4.26003E-03 2.70358E-04-7.26186E-15
 -1      3721 4.47198E-03 2.33487E-04-8.00171E-15
 -1      3722 5.25686E-03 2.72411E-04-1.10126E-14
 -1      3723 5.11111E-03 2.70928E-04-1.04083E-14
 -1      3724 5.53089E-03 2.77784E-04-1.22086E-14
 -1      3725 5.39455E-03 2.74663E-04-1.16034E-14
 -1      3726 5.32157E-03 2.40298E-04-1.12931E-14
 -1      3727 5.79851E-03 2.88105E-04-1.34660E-14
 -1      3728 5.66569E-03 2.82248E-04-1.28297E-14
 -1      3729 5.59524E-03 2.48479E-04-1.25018E-14
 -1      3730 6.05709E-03 3.06167E-04-1.47859E-14
 -1      3731 5.92920E-03 2.96068E-04-1.41182E-14
 -1      3732 5.86303E-03 2.62608E-04-1.37729E-14
 -1      3733 6.30348E-03 3.35724E-04-1.61672E-14
 -1      3734 6.18220E-03 3.19418E-04-1.54686E-14
 -1      3735 6.12315E-03 2.85541E-04-1.51057E-14
 -1      3736 1.21899E-02 1.71488E-03-4.11220E-14
 -1      3737 1.36565E-02 2.87474E-03-5.59389E-14
 -1      3738 1.35179E-02 2.76520E-03-5.46090E-14
 -1      3739 1.34446E-02 3.11430E-03-6.25665E-14
 -1      3740 1.35553E-02 3.15637E-03-6.26715E-14
 -1      3741 1.36661E-02 3.19827E-03-6.27758E-14
 -1      3742 1.37768E-02 3.23999E-03-6.28792E-14
 -1      3743 1.34872E-02 3.08135E-03-6.15257E-14
 -1      3744 3.25604E-03 2.71976E-04-4.31718E-15
 -1      3745 3.11191E-03 2.71509E-04-3.95964E-15
 -1      3746 3.32541E-03 2.34497E-04-4.51120E-15
 -1      3747 1.43904E-02 3.46585E-03-6.33297E-14
 -1      3748 1.38874E-02 3.28150E-03-6.29815E-14
 -1      3749 1.39979E-02 3.32283E-03-6.30790E-14
 -1      3750 1.37090E-02 3.16483E-03-6.17314E-14
 -1      3751 1.33802E-02 2.65654E-03-5.32934E-14
 -1      3752 1.32437E-02 2.54885E-03-5.19896E-14
 -1      3753 1.33515E-02 2.67763E-03-5.38902E-14
 -1      3754 1.65807E-03 2.61227E-04-1.22865E-15
 -1      3755 1.25662E-03-1.41864E-05-7.83065E-16
 -1      3756 1.25727E-03-4.51317E-05-7.77007E-16
 -1      3757 1.38035E-03-6.42478E-05-9.10201E-16
 -1      3758 1.37895E-03 1.29838E-06-9.23347E-16
 -1      3759 1.41082E-02 3.36396E-03-6.31730E-14
 -1      3760 1.42182E-02 3.40495E-03-6.32653E-14
 -1      3761 1.39302E-02 3.24735E-03-6.19256E-14
 -1      3762 1.00496E-02 6.18728E-04-3.42695E-14
 -1      3763 9.80406E-03 4.49699E-04-3.31636E-14
 -1      3764 4.96785E-03 2.70031E-04-9.83428E-15
 -1      3765 4.82734E-03 2.69635E-04-9.29019E-15
 -1      3766 4.75539E-03 2.33995E-04-9.02906E-15
 -1      3767 2.05598E-03-2.12109E-04-1.77259E-15
 -1      3768 2.20070E-03-2.16398E-04-2.01083E-15
 -1      3769 2.26951E-03-1.81959E-04-2.15530E-15
 -1      3770 7.79295E-03 3.03078E-05-2.20715E-14
 -1      3771 7.75814E-03 9.54569E-05-2.20168E-14
 -1      3772 7.63395E-03 1.16915E-04-2.15096E-14
 -1      3773 1.16484E-02 1.51822E-03-3.96187E-14
 -1      3774 1.14081E-02 1.41682E-03-3.90401E-14
 -1      3775 8.34528E-03-1.12861E-04-2.46351E-14
 -1      3776 8.22144E-03-7.95247E-05-2.39885E-14
 -1      3777 1.05565E-02 9.43496E-04-3.59459E-14
 -1      3778 1.03428E-02 8.10213E-04-3.53205E-14
 -1      3779 1.07195E-02 1.05152E-03-3.69225E-14
 -1      3780 6.53447E-03 3.81328E-04-1.76100E-14
 -1      3781 6.42140E-03 3.56375E-04-1.68808E-14
 -1      3782 6.37406E-03 3.20691E-04-1.65009E-14
 -1      3783 1.29225E-02 2.19205E-03-4.70327E-14
 -1      3784 1.28137E-02 2.09418E-03-4.57909E-14
 -1      3785 1.26675E-02 2.03894E-03-4.53637E-14
 -1      3786 1.28887E-02 2.21756E-03-4.76223E-14
 -1      3787 8.06107E-03-6.48635E-05-2.32443E-14
 -1      3788 1.80104E-03-2.03403E-04-1.38913E-15
 -1      3789 1.94539E-03-2.09486E-04-1.60020E-15
 -1      3790 2.01384E-03-1.76923E-04-1.72949E-15
 -1      3791 1.79280E-03-1.71822E-04-1.39808E-15
 -1      3792 1.42130E-02 3.34897E-03-6.20849E-14
 -1      3793 1.52603E-03 1.55730E-04-1.09519E-15
 -1      3794 1.51206E-03 1.20251E-04-1.08457E-15
 -1      3795 7.44350E-03 2.13807E-04-2.09344E-14
 -1      3796 7.39858E-03 2.73820E-04-2.09559E-14
 -1      3797 7.26415E-03 2.91912E-04-2.04440E-14
 -1      3798 1.31060E-02 2.44018E-03-5.06665E-14
 -1      3799 1.29701E-02 2.33307E-03-4.93558E-14
 -1      3800 1.30745E-02 2.46143E-03-5.12554E-14
 -1      3801 2.67335E-03 2.67681E-04-2.97356E-15
 -1      3802 2.52699E-03 2.65340E-04-2.67695E-15
 -1      3803 2.44879E-03 2.27038E-04-2.54232E-15
 -1      3804 1.33153E-02 3.04840E-03-6.20738E-14
 -1      3805 8.65272E-03-1.62077E-04-2.71106E-14
 -1      3806 8.80366E-03-1.11920E-04-2.80703E-14
 -1      3807 8.92910E-03-6.14685E-05-2.85951E-14
 -1      3808 3.68752E-03 2.71962E-04-5.48418E-15
 -1      3809 3.61345E-03 2.34578E-04-5.28935E-15
 -1      3810 3.83099E-03 2.71637E-04-5.90416E-15
 -1      3811 1.32469E-02 2.97342E-03-6.09336E-14
 -1      3812 5.04007E-03 2.35926E-04-1.01302E-14
 -1      3813 1.22544E-02 1.77637E-03-4.20862E-14
 -1      3814 1.21054E-02 1.71404E-03-4.14347E-14
 -1      3815 1.37960E-02 2.98489E-03-5.72833E-14
 -1      3816 1.36294E-02 2.89550E-03-5.65430E-14
 -1      3817 1.39360E-02 3.09556E-03-5.86357E-14
 -1      3818 8.83062E-03-9.95816E-05-2.75906E-14
 -1      3819 8.70967E-03-1.31237E-04-2.69557E-14
 -1      3820 8.62139E-03-1.60402E-04-2.66783E-14
 -1      3821 1.50296E-03-5.02010E-05-1.06233E-15
 -1      3822 1.50450E-03-8.47650E-05-1.05313E-15
 -1      3823 8.00255E-03-1.15729E-04-2.30108E-14
 -1      3824 7.86926E-03-5.18412E-05-2.23594E-14
 -1      3825 1.19632E-02 1.65613E-03-4.08919E-14
 -1      3826 1.18063E-02 1.58514E-03-4.01532E-14
 -1      3827 1.17413E-02 1.58904E-03-4.07595E-14
 -1      3828 1.20371E-02 1.71714E-03-4.18492E-14
 -1      3829 3.03488E-03 2.33560E-04-3.79289E-15
 -1      3830 2.96583E-03 2.70677E-04-3.61454E-15
 -1      3831 2.81965E-03 2.69440E-04-3.28576E-15
 -1      3832 1.41448E-02 3.27782E-03-6.10404E-14
 -1      3833 1.40038E-02 3.16667E-03-5.96656E-14
 -1      3834 1.38367E-02 3.07615E-03-5.89123E-14
 -1      3835 1.39723E-02 3.21754E-03-6.09768E-14
 -1      3836 7.02019E-03 3.90349E-04-1.98844E-14
 -1      3837 6.88736E-03 3.78707E-04-1.92445E-14
 -1      3838 7.05932E-03 3.47661E-04-1.98129E-14
 -1      3839 8.41525E-03-1.37522E-04-2.50817E-14
 -1      3840 9.52771E-03 2.68277E-04-3.18897E-14
 -1      3841 9.33176E-03 1.43300E-04-3.08036E-14
 -1      3842 1.50960E-03 8.52486E-05-1.08537E-15
 -1      3843 1.50799E-03 5.05154E-05-1.08399E-15
 -1      3844 1.63955E-03 1.04411E-04-1.25330E-15
 -1      3845 4.11727E-03 2.70792E-04-6.79383E-15
 -1      3846 3.97425E-03 2.71241E-04-6.34120E-15
 -1      3847 3.90069E-03 2.34200E-04-6.12986E-15
 -1      3848 4.18695E-03 2.33712E-04-7.03433E-15
 -1      3849 2.08778E-03 2.53559E-04-1.88398E-15
 -1      3850 1.94331E-03 2.47704E-04-1.65414E-15
 -1      3851 2.15736E-03 2.20149E-04-2.01644E-15
 -1      3852 1.02097E-02 7.33189E-04-3.52200E-14
 -1      3853 1.51786E-03-1.08128E-04-1.06070E-15
 -1      3854 1.52482E-03-1.37105E-04-1.05599E-15
 -1      3855 1.66825E-03-1.43396E-04-1.24030E-15
 -1      3856 1.64072E-03-9.43824E-05-1.22576E-15
 -1      3857 7.75523E-03-3.29730E-05-2.18461E-14
 -1      3858 1.79213E-03 2.35981E-04-1.43098E-15
 -1      3859 1.57563E-03 2.18582E-04-1.13844E-15
 -1      3860 1.55998E-03 1.81679E-04-1.13179E-15
 -1      3861 1.86138E-03 2.05161E-04-1.54652E-15
 -1      3862 1.12715E-02 1.35887E-03-3.88800E-14
 -1      3863 1.11390E-02 1.29732E-03-3.87196E-14
 -1      3864 1.14550E-02 1.46588E-03-4.00570E-14
 -1      3865 1.23741E-02 1.86529E-03-4.33197E-14
 -1      3866 6.59899E-03 3.80008E-04-1.79300E-14
 -1      3867 9.69854E-03 3.87091E-04-3.29349E-14
 -1      3868 1.37514E-02 3.13590E-03-6.07975E-14
 -1      3869 1.38620E-02 3.17685E-03-6.08894E-14
 -1      3870 1.37940E-02 3.10642E-03-5.98566E-14
 -1      3871 2.48429E-03-1.48838E-04-2.57281E-15
 -1      3872 2.62946E-03-1.50299E-04-2.85889E-15
 -1      3873 6.45716E-03 3.02640E-04-1.68503E-14
 -1      3874 6.32855E-03 2.81670E-04-1.61384E-14
 -1      3875 4.54184E-03 1.97270E-04-8.25537E-15
 -1      3876 4.39957E-03 1.96946E-04-7.75705E-15
 -1      3877 7.63893E-03-7.70072E-05-2.12948E-14
 -1      3878 7.56776E-03 2.24020E-06-2.10222E-14
 -1      3879 2.77459E-03-1.51391E-04-3.16056E-15
 -1      3880 2.91965E-03-1.52143E-04-3.47828E-15
 -1      3881 2.70006E-03-1.13579E-04-3.02498E-15
 -1      3882 3.06461E-03-1.52623E-04-3.81113E-15
 -1      3883 3.20944E-03-1.52847E-04-4.15881E-15
 -1      3884 2.99041E-03-1.14707E-04-3.66100E-15
 -1      3885 3.35414E-03-1.52870E-04-4.52264E-15
 -1      3886 3.49869E-03-1.52697E-04-4.90204E-15
 -1      3887 3.28030E-03-1.14991E-04-4.35931E-15
 -1      3888 3.64311E-03-1.52366E-04-5.29603E-15
 -1      3889 3.78738E-03-1.51873E-04-5.70567E-15
 -1      3890 3.56960E-03-1.14609E-04-5.11852E-15
 -1      3891 3.93153E-03-1.51242E-04-6.13119E-15
 -1      3892 4.07556E-03-1.50462E-04-6.57170E-15
 -1      3893 3.85828E-03-1.13649E-04-5.94009E-15
 -1      3894 4.21951E-03-1.49543E-04-7.02746E-15
 -1      3895 4.36340E-03-1.48467E-04-7.49832E-15
 -1      3896 4.14640E-03-1.12114E-04-6.82370E-15
 -1      3897 4.50727E-03-1.47229E-04-7.98341E-15
 -1      3898 4.65118E-03-1.45814E-04-8.48373E-15
 -1      3899 4.43412E-03-1.09920E-04-7.76754E-15
 -1      3900 4.79516E-03-1.44201E-04-8.99943E-15
 -1      3901 4.93931E-03-1.42380E-04-9.52968E-15
 -1      3902 4.72172E-03-1.06908E-04-8.77044E-15
 -1      3903 5.08370E-03-1.40316E-04-1.00750E-14
 -1      3904 5.22846E-03-1.38022E-04-1.06357E-14
 -1      3905 5.00965E-03-1.02853E-04-9.83297E-15
 -1      3906 5.37369E-03-1.35452E-04-1.12106E-14
 -1      3907 5.51957E-03-1.32663E-04-1.18014E-14
 -1      3908 5.29859E-03-9.75065E-05-1.09558E-14
 -1      3909 5.66626E-03-1.29604E-04-1.24070E-14
 -1      3910 5.81399E-03-1.26417E-04-1.30280E-14
 -1      3911 5.58961E-03-9.06888E-05-1.21387E-14
 -1      3912 5.96298E-03-1.23060E-04-1.36654E-14
 -1      3913 6.11349E-03-1.19804E-04-1.43192E-14
 -1      3914 5.88420E-03-8.24563E-05-1.33827E-14
 -1      3915 6.26583E-03-1.16637E-04-1.49904E-14
 -1      3916 6.42024E-03-1.14014E-04-1.56777E-14
 -1      3917 6.18447E-03-7.33852E-05-1.46912E-14
 -1      3918 6.57710E-03-1.11990E-04-1.63839E-14
 -1      3919 6.73649E-03-1.11168E-04-1.71071E-14
 -1      3920 6.49305E-03-6.49689E-05-1.60683E-14
 -1      3921 6.89886E-03-1.11654E-04-1.78478E-14
 -1      3922 7.06388E-03-1.14207E-04-1.86057E-14
 -1      3923 6.81286E-03-5.99723E-05-1.75151E-14
 -1      3924 7.30151E-03-1.07895E-04-1.97110E-14
 -1      3925 7.47339E-03-1.16049E-04-2.05133E-14
 -1      3926 7.64550E-03-1.43296E-04-2.13298E-14
 -1      3927 7.81791E-03-1.54244E-04-2.21666E-14
 -1      3928 7.99932E-03-1.57578E-04-2.30538E-14
 -1      3929 8.16993E-03-1.65818E-04-2.39278E-14
 -1      3930 8.33764E-03-1.68387E-04-2.48199E-14
 -1      3931 1.02306E-02 7.71828E-04-3.64474E-14
 -1      3932 1.04021E-02 8.92868E-04-3.75549E-14
 -1      3933 1.05723E-02 1.01157E-03-3.86776E-14
 -1      3934 1.07395E-02 1.12792E-03-3.98110E-14
 -1      3935 1.05836E-02 1.00639E-03-3.81693E-14
 -1      3936 1.09042E-02 1.24202E-03-4.09590E-14
 -1      3937 1.10658E-02 1.35444E-03-4.21238E-14
 -1      3938 1.09227E-02 1.23756E-03-4.04445E-14
 -1      3939 1.12248E-02 1.46531E-03-4.32997E-14
 -1      3940 1.13811E-02 1.57532E-03-4.44914E-14
 -1      3941 1.12478E-02 1.45922E-03-4.27765E-14
 -1      3942 1.15350E-02 1.68455E-03-4.56973E-14
 -1      3943 1.16868E-02 1.79352E-03-4.69152E-14
 -1      3944 1.15604E-02 1.67584E-03-4.51649E-14
 -1      3945 1.18368E-02 1.90226E-03-4.81465E-14
 -1      3946 1.19854E-02 2.01110E-03-4.93929E-14
 -1      3947 1.18634E-02 1.89088E-03-4.76078E-14
 -1      3948 1.21326E-02 2.12000E-03-5.06517E-14
 -1      3949 1.22788E-02 2.22917E-03-5.19261E-14
 -1      3950 1.21595E-02 2.10634E-03-5.01033E-14
 -1      3951 1.24242E-02 2.33855E-03-5.32142E-14
 -1      3952 1.25689E-02 2.44822E-03-5.45163E-14
 -1      3953 1.24511E-02 2.32311E-03-5.26542E-14
 -1      3954 1.27131E-02 2.55814E-03-5.58333E-14
 -1      3955 1.28569E-02 2.66833E-03-5.71605E-14
 -1      3956 1.27398E-02 2.54141E-03-5.52614E-14
 -1      3957 1.29804E-02 2.76537E-03-5.83594E-14
 -1      3958 1.31237E-02 2.87600E-03-5.97152E-14
 -1      3959 1.32532E-02 2.94191E-03-6.01981E-14
 -1      3960 1.30069E-02 2.74780E-03-5.77808E-14
 -1      3961 1.67624E-03 1.67244E-04-1.29160E-15
 -1      3962 6.67263E-03 3.75925E-04-1.82612E-14
 -1      3963 6.56763E-03 3.37336E-04-1.75449E-14
 -1      3964 6.53239E-03 2.92460E-04-1.71681E-14
 -1      3965 6.75309E-03 3.68978E-04-1.85858E-14
 -1      3966 5.66523E-03 2.19551E-04-1.28102E-14
 -1      3967 5.52873E-03 2.13451E-04-1.21917E-14
 -1      3968 5.39107E-03 2.08651E-04-1.15876E-14
 -1      3969 5.25250E-03 2.05036E-04-1.09994E-14
 -1      3970 5.46214E-03 1.77210E-04-1.18825E-14
 -1      3971 6.19834E-03 2.63866E-04-1.54402E-14
 -1      3972 6.06721E-03 2.49170E-04-1.47591E-14
 -1      3973 6.28014E-03 2.40257E-04-1.57750E-14
 -1      3974 5.10956E-03 2.02220E-04-1.04116E-14
 -1      3975 4.96589E-03 2.00214E-04-9.83977E-15
 -1      3976 5.18002E-03 1.68802E-04-1.06922E-14
 -1      3977 8.90437E-03-7.34216E-05-2.82322E-14
 -1      3978 8.55002E-03-1.58003E-04-2.60184E-14
 -1      3979 7.54597E-03 8.04674E-05-2.10422E-14
 -1      3980 7.50151E-03 1.46476E-04-2.09890E-14
 -1      3981 7.37003E-03 1.71215E-04-2.04765E-14
 -1      3982 9.17004E-03 4.82301E-05-2.97956E-14
 -1      3983 9.06115E-03-5.54482E-06-2.92123E-14
 -1      3984 3.39526E-03 1.96922E-04-4.70617E-15
 -1      3985 3.25088E-03 1.96691E-04-4.33310E-15
 -1      3986 1.08905E-02 1.16431E-03-3.80360E-14
 -1      3987 1.06795E-02 1.04132E-03-3.73889E-14
 -1      3988 1.35295E-02 3.05314E-03-6.06012E-14
 -1      3989 1.36406E-02 3.09466E-03-6.07014E-14
 -1      3990 1.35723E-02 3.02464E-03-5.96762E-14
 -1      3991 1.33225E-02 2.69784E-03-5.44838E-14
 -1      3992 1.31837E-02 2.59021E-03-5.31747E-14
 -1      3993 9.82787E-03 4.85379E-04-3.39330E-14
 -1      3994 1.50473E-03 1.72998E-05-1.07778E-15
 -1      3995 1.50471E-03-1.70755E-05-1.07238E-15
 -1      3996 1.62889E-03-3.57212E-05-1.22897E-15
 -1      3997 1.63386E-03 3.33907E-05-1.24675E-15
 -1      3998 4.82506E-03 1.98805E-04-9.29656E-15
 -1      3999 4.68369E-03 1.97876E-04-8.76859E-15
 -1      4000 4.89534E-03 1.63894E-04-9.56407E-15
 -1      4001 5.93451E-03 2.37079E-04-1.40950E-14
 -1      4002 5.80054E-03 2.27364E-04-1.34438E-14
 -1      4003 5.73770E-03 1.90534E-04-1.31182E-14
 -1      4004 6.01007E-03 2.10815E-04-1.44138E-14
 -1      4005 2.19407E-03-1.44520E-04-2.04742E-15
 -1      4006 2.33914E-03-1.46925E-04-2.30251E-15
 -1      4007 2.40952E-03-1.11342E-04-2.45175E-15
 -1      4008 1.04536E-02 9.03354E-04-3.66717E-14
 -1      4009 1.01736E-02 7.20667E-04-3.55981E-14
 -1      4010 1.33644E-02 2.98409E-03-6.02997E-14
 -1      4011 1.24695E-02 1.94969E-03-4.45263E-14
 -1      4012 1.22733E-02 1.85696E-03-4.35906E-14
 -1      4013 1.00001E-02 6.08238E-04-3.50085E-14
 -1      4014 7.15242E-03 2.48018E-04-1.97721E-14
 -1      4015 7.10886E-03 2.99700E-04-1.97932E-14
 -1      4016 6.96259E-03 2.99377E-04-1.91543E-14
 -1      4017 1.30429E-02 2.48141E-03-5.18433E-14
 -1      4018 1.29030E-02 2.37398E-03-5.05265E-14
 -1      4019 1.30117E-02 2.50036E-03-5.24271E-14
 -1      4020 2.74201E-03 2.31275E-04-3.13511E-15
 -1      4021 1.21382E-02 1.79677E-03-4.30347E-14
 -1      4022 1.19977E-02 1.73451E-03-4.24805E-14
 -1      4023 1.22415E-02 1.87967E-03-4.42305E-14
 -1      4024 4.32728E-03 1.60046E-04-7.51394E-15
 -1      4025 4.25694E-03 1.96794E-04-7.27436E-15
 -1      4026 4.11398E-03 1.96786E-04-6.80730E-15
 -1      4027 7.44609E-03 2.81180E-05-2.05067E-14
 -1      4028 7.21442E-03-5.03074E-05-1.93552E-14
 -1      4029 4.61212E-03 1.61283E-04-8.50881E-15
 -1      4030 3.68344E-03 1.97000E-04-5.49883E-15
 -1      4031 3.53945E-03 1.97018E-04-5.09495E-15
 -1      4032 3.46557E-03 1.59299E-04-4.90135E-15
 -1      4033 2.22600E-03 1.86032E-04-2.14729E-15
 -1      4034 2.08114E-03 1.82403E-04-1.90142E-15
 -1      4035 6.77771E-03 3.37080E-04-1.85164E-14
 -1      4036 1.10848E-02 1.28475E-03-3.91964E-14
 -1      4037 1.36020E-02 2.91566E-03-5.71444E-14
 -1      4038 1.34620E-02 2.80636E-03-5.58061E-14
 -1      4039 1.32936E-02 2.71730E-03-5.50765E-14
 -1      4040 1.25799E-02 2.03480E-03-4.56390E-14
 -1      4041 1.18530E-02 1.66898E-03-4.19295E-14
 -1      4042 1.17035E-02 1.60023E-03-4.13825E-14
 -1      4043 1.19647E-02 1.75088E-03-4.31104E-14
 -1      4044 1.32957E-02 2.91428E-03-5.92837E-14
 -1      4045 1.76547E-03 1.26874E-04-1.42600E-15
 -1      4046 1.76294E-03 8.92227E-05-1.42655E-15
 -1      4047 3.17470E-03 1.58790E-04-4.15198E-15
 -1      4048 3.10452E-03 1.96247E-04-3.97173E-15
 -1      4049 2.95801E-03 1.95562E-04-3.62694E-15
 -1      4050 2.51961E-03 1.91366E-04-2.69302E-15
 -1      4051 2.37279E-03 1.89018E-04-2.41213E-15
 -1      4052 2.29724E-03 1.51333E-04-2.28360E-15
 -1      4053 1.06235E-02 1.01961E-03-3.77748E-14
 -1      4054 1.75736E-03-8.09371E-05-1.39190E-15
 -1      4055 1.77073E-03-1.05885E-04-1.40099E-15
 -1      4056 1.28174E-02 2.26171E-03-4.87919E-14
 -1      4057 1.28532E-02 2.24066E-03-4.82082E-14
 -1      4058 1.27383E-02 2.15001E-03-4.70701E-14
 -1      4059 1.77840E-03-1.46306E-04-1.39213E-15
 -1      4060 2.00561E-03-1.34531E-04-1.74132E-15
 -1      4061 2.07577E-03-1.00925E-04-1.87140E-15
 -1      4062 1.15793E-02 1.54996E-03-4.12129E-14
 -1      4063 1.76041E-03-9.28096E-06-1.41678E-15
 -1      4064 1.75849E-03-4.50877E-05-1.40576E-15
 -1      4065 1.88861E-03-5.47672E-05-1.59387E-15
 -1      4066 1.89494E-03-1.33044E-04-1.57062E-15
 -1      4067 2.91657E-03-7.68828E-05-3.51233E-15
 -1      4068 3.06173E-03-7.70681E-05-3.84638E-15
 -1      4069 3.20676E-03-7.71194E-05-4.19566E-15
 -1      4070 3.35163E-03-7.70285E-05-4.56105E-15
 -1      4071 3.13355E-03-3.92808E-05-4.03349E-15
 -1      4072 3.49634E-03-7.68205E-05-4.94160E-15
 -1      4073 3.64088E-03-7.64811E-05-5.33708E-15
 -1      4074 3.42337E-03-3.90105E-05-4.76454E-15
 -1      4075 3.78525E-03-7.60249E-05-5.74906E-15
 -1      4076 3.92945E-03-7.54271E-05-6.17665E-15
 -1      4077 3.71247E-03-3.83668E-05-5.55799E-15
 -1      4078 4.07349E-03-7.46920E-05-6.61885E-15
 -1      4079 4.21739E-03-7.37879E-05-7.07683E-15
 -1      4080 4.00083E-03-3.72589E-05-6.41418E-15
 -1      4081 4.36117E-03-7.26994E-05-7.54973E-15
 -1      4082 4.50486E-03-7.13950E-05-8.03757E-15
 -1      4083 4.28850E-03-3.55315E-05-7.33142E-15
 -1      4084 4.64850E-03-6.98379E-05-8.54065E-15
 -1      4085 4.79213E-03-6.79956E-05-9.05818E-15
 -1      4086 4.57559E-03-3.29387E-05-8.31004E-15
 -1      4087 4.93581E-03-6.58089E-05-9.59027E-15
 -1      4088 5.07963E-03-6.32553E-05-1.01378E-14
 -1      4089 4.86234E-03-2.91225E-05-9.34661E-15
 -1      4090 5.22368E-03-6.02524E-05-1.06999E-14
 -1      4091 5.36809E-03-5.68048E-05-1.12769E-14
 -1      4092 5.14917E-03-2.36286E-05-1.04433E-14
 -1      4093 5.51298E-03-5.28112E-05-1.18698E-14
 -1      4094 5.65859E-03-4.83402E-05-1.24775E-14
 -1      4095 5.43678E-03-1.59424E-05-1.16004E-14
 -1      4096 5.80510E-03-4.32823E-05-1.31000E-14
 -1      4097 5.95284E-03-3.78305E-05-1.37385E-14
 -1      4098 5.72631E-03-5.60759E-06-1.28174E-14
 -1      4099 6.10208E-03-3.18912E-05-1.43939E-14
 -1      4100 6.25325E-03-2.58884E-05-1.50656E-14
 -1      4101 6.01958E-03 7.53658E-06-1.40961E-14
 -1      4102 6.40675E-03-1.97981E-05-1.57531E-14
 -1      4103 6.56301E-03-1.43107E-05-1.64594E-14
 -1      4104 6.31942E-03 2.28665E-05-1.54403E-14
 -1      4105 6.72264E-03-9.53638E-06-1.71826E-14
 -1      4106 6.88597E-03-6.70509E-06-1.79226E-14
 -1      4107 6.62961E-03 3.81099E-05-1.68516E-14
 -1      4108 4.68294E-03 1.25445E-04-8.76226E-15
 -1      4109 4.54067E-03 1.24288E-04-8.25053E-15
 -1      4110 1.07984E-02 1.13722E-03-3.89048E-14
 -1      4111 6.81426E-03 3.00310E-04-1.84979E-14
 -1      4112 6.67535E-03 2.96252E-04-1.78528E-14
 -1      4113 6.84940E-03 2.59331E-04-1.84771E-14
 -1      4114 1.09692E-02 1.25059E-03-4.00472E-14
 -1      4115 1.11354E-02 1.36118E-03-4.12021E-14
 -1      4116 1.10211E-02 1.26620E-03-3.96444E-14
 -1      4117 1.12976E-02 1.46938E-03-4.23742E-14
 -1      4118 1.14561E-02 1.57644E-03-4.35581E-14
 -1      4119 1.13520E-02 1.48153E-03-4.19662E-14
 -1      4120 1.16114E-02 1.68240E-03-4.47577E-14
 -1      4121 1.17639E-02 1.78830E-03-4.59697E-14
 -1      4122 1.16658E-02 1.69010E-03-4.43464E-14
 -1      4123 1.19142E-02 1.89409E-03-4.71951E-14
 -1      4124 1.20627E-02 2.00029E-03-4.84349E-14
 -1      4125 1.19675E-02 1.89786E-03-4.67780E-14
 -1      4126 1.22097E-02 2.10685E-03-4.96859E-14
 -1      4127 1.23556E-02 2.21399E-03-5.09505E-14
 -1      4128 1.22616E-02 2.10758E-03-4.92660E-14
 -1      4129 1.25005E-02 2.32162E-03-5.22307E-14
 -1      4130 1.26448E-02 2.42983E-03-5.35230E-14
 -1      4131 1.25511E-02 2.32016E-03-5.18027E-14
 -1      4132 1.27886E-02 2.53853E-03-5.48298E-14
 -1      4133 1.29320E-02 2.64772E-03-5.61496E-14
 -1      4134 1.28380E-02 2.53559E-03-5.43944E-14
 -1      4135 1.30525E-02 2.73255E-03-5.71104E-14
 -1      4136 1.31755E-02 2.82910E-03-5.83101E-14
 -1      4137 1.33413E-02 2.89820E-03-5.86031E-14
 -1      4138 1.31012E-02 2.72870E-03-5.66696E-14
 -1      4139 5.53503E-03 1.45495E-04-1.21755E-14
 -1      4140 5.39535E-03 1.39961E-04-1.15736E-14
 -1      4141 6.36806E-03 2.12854E-04-1.61113E-14
 -1      4142 6.22882E-03 1.96623E-04-1.54145E-14
 -1      4143 5.25164E-03 1.35390E-04-1.09722E-14
 -1      4144 5.10749E-03 1.31834E-04-1.03869E-14
 -1      4145 5.32450E-03 1.01805E-04-1.12515E-14
 -1      4146 2.01955E-03 1.29756E-04-1.81292E-15
 -1      4147 1.95011E-03 1.62661E-04-1.69602E-15
 -1      4148 7.04093E-03 8.61387E-06-1.86462E-14
 -1      4149 7.28036E-03 1.91584E-05-1.97470E-14
 -1      4150 7.25476E-03 9.52588E-05-1.97699E-14
 -1      4151 6.94096E-03 6.30875E-05-1.82980E-14
 -1      4152 6.55618E-03 2.60590E-04-1.71502E-14
 -1      4153 1.82701E-03 1.77823E-04-1.50409E-15
 -1      4154 7.23562E-03 1.41305E-04-1.97975E-14
 -1      4155 7.18416E-03 2.02285E-04-1.97481E-14
 -1      4156 7.03223E-03 2.11179E-04-1.91085E-14
 -1      4157 7.07858E-03 1.24284E-04-1.90562E-14
 -1      4158 1.25365E-02 2.05429E-03-4.62138E-14
 -1      4159 2.81227E-03 1.94560E-04-3.30056E-15
 -1      4160 2.66552E-03 1.93189E-04-2.98794E-15
 -1      4161 2.59025E-03 1.55251E-04-2.84327E-15
 -1      4162 2.88225E-03 1.57576E-04-3.46493E-15
 -1      4163 1.76273E-03 5.78511E-05-1.42700E-15
 -1      4164 1.75933E-03 2.19629E-05-1.42002E-15
 -1      4165 1.88912E-03 1.43480E-05-1.61042E-15
 -1      4166 1.88845E-03 7.88103E-05-1.61259E-15
 -1      4167 1.12535E-02 1.39179E-03-4.03480E-14
 -1      4168 2.14928E-03 1.14757E-04-2.02973E-15
 -1      4169 2.01867E-03 9.66040E-05-1.81536E-15
 -1      4170 2.01841E-03 6.35218E-05-1.81603E-15
 -1      4171 1.37315E-02 3.04609E-03-5.90060E-14
 -1      4172 1.36640E-02 2.97581E-03-5.79867E-14
 -1      4173 1.34959E-02 2.88567E-03-5.72377E-14
 -1      4174 1.36207E-02 3.00556E-03-5.89219E-14
 -1      4175 2.33531E-03-7.42770E-05-2.33143E-15
 -1      4176 2.48062E-03-7.52492E-05-2.60291E-15
 -1      4177 3.97072E-03 1.96840E-04-6.35554E-15
 -1      4178 3.82720E-03 1.96935E-04-5.91875E-15
 -1      4179 3.75382E-03 1.59451E-04-5.70933E-15
 -1      4180 4.04111E-03 1.59582E-04-6.58054E-15
 -1      4181 2.62598E-03-7.59963E-05-2.89079E-15
 -1      4182 2.77131E-03-7.65237E-05-3.19405E-15
 -1      4183 2.84314E-03-3.91958E-05-3.36474E-15
 -1      4184 1.15038E-02 1.53554E-03-4.16757E-14
 -1      4185 4.96637E-03 1.29105E-04-9.83062E-15
 -1      4186 4.82486E-03 1.27034E-04-9.28925E-15
 -1      4187 5.03823E-03 9.43248E-05-1.00963E-14
 -1      4188 2.01751E-03-6.06663E-05-1.79267E-15
 -1      4189 2.20588E-03-6.85030E-05-2.10385E-15
 -1      4190 2.27759E-03-3.30701E-05-2.24115E-15
 -1      4191 2.01918E-03-2.28340E-05-1.80650E-15
 -1      4192 1.29814E-02 2.51898E-03-5.30161E-14
 -1      4193 1.28385E-02 2.41049E-03-5.16920E-14
 -1      4194 1.23281E-02 1.95437E-03-4.53149E-14
 -1      4195 1.21937E-02 1.89003E-03-4.47449E-14
 -1      4196 4.39804E-03 1.23431E-04-7.75362E-15
 -1      4197 4.25511E-03 1.22841E-04-7.27238E-15
 -1      4198 4.46924E-03 8.69216E-05-7.99348E-15
 -1      4199 6.51259E-03 2.10684E-04-1.67720E-14
 -1      4200 4.75433E-03 8.96944E-05-9.01484E-15
 -1      4201 2.55239E-03-3.87022E-05-2.75702E-15
 -1      4202 6.09002E-03 1.82697E-04-1.47350E-14
 -1      4203 5.95169E-03 1.70759E-04-1.40729E-14
 -1      4204 6.17403E-03 1.52158E-04-1.50560E-14
 -1      4205 1.27472E-02 2.29890E-03-4.99496E-14
 -1      4206 1.27818E-02 2.28095E-03-4.93733E-14
 -1      4207 1.26615E-02 2.18940E-03-4.82264E-14
 -1      4208 1.31220E-02 2.62617E-03-5.43244E-14
 -1      4209 1.29493E-02 2.53468E-03-5.35724E-14
 -1      4210 1.32628E-02 2.73428E-03-5.56424E-14
 -1      4211 5.81302E-03 1.60685E-04-1.34242E-14
 -1      4212 5.67430E-03 1.52365E-04-1.27922E-14
 -1      4213 5.60976E-03 1.13222E-04-1.24673E-14
 -1      4214 5.89122E-03 1.29622E-04-1.37308E-14
 -1      4215 1.20565E-02 1.82379E-03-4.41799E-14
 -1      4216 1.19161E-02 1.75570E-03-4.36169E-14
 -1      4217 1.21491E-02 1.89891E-03-4.52576E-14
 -1      4218 3.24632E-03 1.21209E-04-4.33494E-15
 -1      4219 3.09967E-03 1.20858E-04-3.97445E-15
 -1      4220 1.33937E-02 2.90876E-03-5.84530E-14
 -1      4221 1.35052E-02 2.94997E-03-5.85460E-14
 -1      4222 2.29619E-03 1.16893E-04-2.28719E-15
 -1      4223 1.24949E-02 2.06922E-03-4.67374E-14
 -1      4224 1.16591E-02 1.63562E-03-4.28568E-14
 -1      4225 3.53544E-03 1.21640E-04-5.09442E-15
 -1      4226 3.39098E-03 1.21463E-04-4.70690E-15
 -1      4227 3.31661E-03 8.35399E-05-4.51394E-15
 -1      4228 1.17614E-02 1.71181E-03-4.39180E-14
 -1      4229 1.32740E-02 2.82405E-03-5.74845E-14
 -1      4230 1.34426E-02 2.89015E-03-5.77072E-14
 -1      4231 3.02583E-03 8.29328E-05-3.80074E-15
 -1      4232 2.95376E-03 1.20353E-04-3.63216E-15
 -1      4233 2.80773E-03 1.19679E-04-3.30594E-15
 -1      4234 3.36943E-03 2.23004E-05-4.64212E-15
 -1      4235 3.51412E-03 2.25471E-05-5.02629E-15
 -1      4236 3.92848E-03 1.95244E-07-6.20919E-15
 -1      4237 4.07241E-03 8.22059E-07-6.65356E-15
 -1      4238 4.23533E-03 2.49998E-05-7.18566E-15
 -1      4239 4.37875E-03 2.59704E-05-7.66314E-15
 -1      4240 4.52196E-03 2.71847E-05-8.15569E-15
 -1      4241 4.66499E-03 2.87302E-05-8.66341E-15
 -1      4242 4.80783E-03 3.06485E-05-9.18513E-15
 -1      4243 4.95055E-03 3.30403E-05-9.72222E-15
 -1      4244 5.09313E-03 3.59749E-05-1.02744E-14
 -1      4245 5.23570E-03 3.95600E-05-1.08411E-14
 -1      4246 5.38181E-03 4.40151E-05-1.14377E-14
 -1      4247 5.52455E-03 4.92097E-05-1.20350E-14
 -1      4248 5.66744E-03 5.53766E-05-1.26472E-14
 -1      4249 5.81096E-03 6.25419E-05-1.32741E-14
 -1      4250 5.95502E-03 7.08681E-05-1.39173E-14
 -1      4251 6.10036E-03 8.01710E-05-1.45780E-14
 -1      4252 6.24687E-03 9.06342E-05-1.52521E-14
 -1      4253 6.39570E-03 1.01672E-04-1.59440E-14
 -1      4254 1.33802E-02 2.83051E-03-5.68698E-14
 -1      4255 1.32086E-02 2.73816E-03-5.61038E-14
 -1      4256 6.87699E-03 2.21395E-04-1.84548E-14
 -1      4257 6.72924E-03 2.26229E-04-1.78118E-14
 -1      4258 6.90177E-03 1.81304E-04-1.84298E-14
 -1      4259 1.31541E-02 2.73956E-03-5.65213E-14
 -1      4260 2.77021E-03-1.71283E-06-3.21710E-15
 -1      4261 2.91554E-03-1.63166E-06-3.53694E-15
 -1      4262 1.19114E-02 1.81259E-03-4.51270E-14
 -1      4263 1.22932E-02 2.09481E-03-4.87080E-14
 -1      4264 1.24376E-02 2.19948E-03-4.99673E-14
 -1      4265 1.26080E-02 2.32139E-03-5.13991E-14
 -1      4266 1.27508E-02 2.42795E-03-5.26847E-14
 -1      4267 1.28933E-02 2.53535E-03-5.39865E-14
 -1      4268 1.30356E-02 2.64349E-03-5.52994E-14
 -1      4269 2.01794E-03 3.68433E-05-1.81403E-15
 -1      4270 2.01878E-03 3.82626E-06-1.81117E-15
 -1      4271 2.14782E-03-7.10513E-07-2.02313E-15
 -1      4272 2.14805E-03 5.37248E-05-2.02987E-15
 -1      4273 2.44833E-03 1.07807E-04-2.57125E-15
 -1      4274 2.30096E-03 7.18357E-05-2.29855E-15
 -1      4275 1.24546E-02 2.08483E-03-4.73074E-14
 -1      4276 2.42963E-03 1.17750E-05-2.53118E-15
 -1      4277 2.57503E-03 1.19702E-05-2.81517E-15
 -1      4278 3.07952E-03 2.19033E-05-3.92092E-15
 -1      4279 3.22456E-03 2.21038E-05-4.27350E-15
 -1      4280 1.26392E-02 2.30599E-03-5.08319E-14
 -1      4281 1.26714E-02 2.28965E-03-5.02538E-14
 -1      4282 1.21022E-02 1.90669E-03-4.58046E-14
 -1      4283 1.20063E-02 1.89076E-03-4.62409E-14
 -1      4284 1.21531E-02 1.99354E-03-4.74745E-14
 -1      4285 1.22374E-02 1.97568E-03-4.63817E-14
 -1      4286 4.16353E-03 6.20866E-05-6.96351E-15
 -1      4287 4.09214E-03 9.92147E-05-6.74176E-15
 -1      4288 3.64000E-03-6.84498E-07-5.36752E-15
 -1      4289 3.78434E-03-2.93207E-07-5.78056E-15
 -1      4290 2.30029E-03 1.63264E-05-2.29297E-15
 -1      4291 6.47613E-03 1.56655E-04-1.64441E-14
 -1      4292 6.56016E-03 8.65668E-05-1.66465E-14
 -1      4293 6.71727E-03 9.60586E-05-1.73727E-14
 -1      4294 1.25468E-02 2.19673E-03-4.91058E-14
 -1      4295 2.64825E-03 4.92200E-05-2.96868E-15
 -1      4296 3.58675E-03 6.05163E-05-5.23267E-15
 -1      4297 1.23322E-02 2.08442E-03-4.81615E-14
 -1      4298 3.85645E-03 3.76886E-05-6.00437E-15
 -1      4299 6.77590E-03 1.18055E-04-1.76890E-14
 -1      4300 6.92238E-03 1.40402E-04-1.84040E-14
 -1      4301 1.24112E-02 2.09690E-03-4.78637E-14
 -1      4302 2.59452E-03 1.09029E-04-2.85897E-15
 -1      4303 3.94852E-03 9.88679E-05-6.29306E-15
 -1      4304 6.52991E-03 1.78292E-04-1.67493E-14
 -1      4305 3.66054E-03 9.83952E-05-5.44351E-15
 -1      4306 3.80465E-03 9.85954E-05-5.86076E-15
 -1      4307 2.30042E-03 4.40726E-05-2.29642E-15
 -1      4308 2.93342E-03 2.17209E-05-3.58207E-15
 -1      4309 6.69722E-03 1.67054E-04-1.74732E-14
 -1      4310 2.66664E-03 7.23378E-05-3.00750E-15
 -1      4311 2.86137E-03 5.91510E-05-3.42516E-15
 -3
    1PSTEP                         2           1           1          
  100CL  101 1.000000000        4311                     0    1           1
 -4  STRESS      6    1
 -5  SXX         1    4    1    1
 -5  SYY         1    4    2    2
 -5  SZZ         1    4    3    3
 -5  SXY         1    4    1    2
 -5  SYZ         1    4    2    3
 -5  SZX         1    4    3    1
 -1         1 8.37536E+00 9.32309E+00-2.94071E-01 8.97633E+00-2.40730E-12-2.04020E-12
 -1         2-7.60000E-01-2.80355E+01-3.49302E+00-3.93752E-01-7.53675E-13 1.91312E-13
 -1         3 1.99993E+01-6.05503E-04 2.06539E-03-3.99606E-04 5.64356E-14 6.00305E-14
 -1         4 1.99994E+01-3.70856E-04 7.45118E-04 3.74390E-04 1.78508E-13 6.49706E-14
 -1         5 3.27636E+01 6.14181E+00 2.74171E+00 6.22341E+00-2.04906E-14 1.39423E-12
 -1         6 3.57469E+01 1.22614E+01 5.12435E+00-8.64539E+00-6.45595E-14 1.63476E-12
 -1         7 2.08177E+01 6.09937E+00-1.28535E-01-4.72465E+00-1.19904E-14 5.53849E-13
 -1         8 1.96718E+01 5.93493E+00 5.10444E-02-3.27374E+00-1.73334E-14 1.74031E-13
 -1         9 1.91374E+01 5.77199E+00 4.91439E-02-2.52541E+00-1.81920E-14-5.85083E-14
 -1        10 1.88959E+01 5.69230E+00 5.10775E-02-1.95026E+00-1.45101E-14-1.89529E-13
 -1        11 1.87746E+01 5.65146E+00 5.02656E-02-1.45510E+00-1.04187E-14-2.71902E-13
 -1        12 1.87109E+01 5.62979E+00 4.87159E-02-1.01440E+00-9.11424E-15-3.20289E-13
 -1        13 1.86773E+01 5.61836E+00 4.73748E-02-5.94954E-01-5.79907E-15-3.46646E-13
 -1        14 1.86632E+01 5.61354E+00 4.66589E-02-1.91168E-01-1.50211E-15-3.67978E-13
 -1        15 1.86638E+01 5.61372E+00 4.67075E-02 2.07896E-01-1.27312E-15-3.87656E-13
 -1        16 1.86790E+01 5.61891E+00 4.75409E-02 6.12582E-01 3.31582E-15-3.98046E-13
 -1        17 1.87138E+01 5.63063E+00 4.90688E-02 1.03413E+00 2.69251E-15-4.02581E-13
 -1        18 1.87786E+01 5.65265E+00 5.08253E-02 1.47806E+00 2.26078E-15-3.79341E-13
 -1        19 1.89019E+01 5.69411E+00 5.17276E-02 1.97910E+00 1.15628E-14-3.43656E-13
 -1        20 1.91436E+01 5.77472E+00 4.91757E-02 2.56310E+00 1.55449E-14-2.53195E-13
 -1        21 1.96665E+01 5.94937E+00 4.58512E-02 3.30804E+00 2.12191E-14-4.92635E-14
 -1        22 2.11999E+01 6.38099E+00 1.39501E-01 4.52217E+00 5.30131E-15 3.86592E-13
 -1        23 2.30269E+01-1.37910E+00-9.38315E-01-7.10963E-01-3.37126E-14 1.39841E-12
 -1        24 1.93656E+01-9.94931E-02-3.09805E-01 6.32299E-02-2.36660E-14 1.19448E-12
 -1        25 1.86782E+01-5.63368E-02-6.87807E-02 6.07132E-02 3.59521E-16 9.60737E-13
 -1        26 1.84768E+01-2.21164E-02-6.50996E-03 3.29554E-02 1.01170E-14 8.21083E-13
 -1        27 1.84895E+01-1.18440E-02 1.52421E-03 2.26045E-02-4.80302E-16 6.84003E-13
 -1        28 1.86058E+01-6.29333E-03 1.71737E-03 1.63185E-02 2.75512E-15 6.22283E-13
 -1        29 1.87685E+01-3.15340E-03 1.63699E-03 1.21882E-02 3.27958E-15 4.82066E-13
 -1        30 1.89468E+01-1.31436E-03 1.79066E-03 9.26426E-03 2.51845E-15 3.27864E-13
 -1        31 1.91231E+01-2.32474E-04 1.91901E-03 7.09307E-03-2.99007E-15 2.37073E-13
 -1        32 1.92880E+01 3.88544E-04 1.91865E-03 5.44749E-03 7.31945E-15 1.46176E-13
 -1        33 1.94370E+01 7.27659E-04 1.80521E-03 4.20332E-03 2.74036E-14 1.45032E-13
 -1        34 1.95682E+01 9.05597E-04 1.63213E-03 3.28340E-03 1.38375E-15 9.83601E-14
 -1        35 1.96817E+01 1.01389E-03 1.46133E-03 2.63113E-03-7.22216E-15 1.28520E-13
 -1        36 1.97778E+01 1.13025E-03 1.36012E-03 2.19518E-03 9.29735E-15 1.43029E-13
 -1        37 1.98564E+01 1.32678E-03 1.40545E-03 1.91686E-03-1.18334E-14 2.07945E-13
 -1        38 1.99157E+01 1.67260E-03 1.68739E-03 1.71647E-03-3.38874E-14 1.80002E-13
 -1        39 1.99512E+01 2.23016E-03 2.30644E-03 1.47766E-03-4.21576E-14 1.15006E-13
 -1        40 1.99549E+01 3.04302E-03 3.35889E-03 1.03163E-03 3.40706E-14 1.70352E-13
 -1        41 1.99137E+01 4.11268E-03 4.90273E-03 1.47268E-04 1.59245E-14 1.94746E-13
 -1        42 1.98097E+01 5.36460E-03 6.89833E-03-1.46044E-03-5.88423E-14-4.85918E-15
 -1        43 1.96205E+01 6.60897E-03 9.12639E-03-4.08574E-03-1.70653E-14-6.35978E-14
 -1        44 1.93223E+01 7.51232E-03 1.11052E-02-7.93127E-03 2.15216E-14 2.51461E-14
 -1        45 1.88956E+01 7.60895E-03 1.20599E-02-1.29442E-02-3.32254E-14 5.77359E-14
 -1        46 1.83334E+01 6.38734E-03 1.10245E-02-1.86196E-02 2.33662E-15-2.38662E-13
 -1        47 1.76513E+01 3.47188E-03 7.14763E-03-2.38649E-02-2.07967E-14-1.51832E-13
 -1        48 1.68962E+01-1.13119E-03 1.78182E-04-2.70759E-02-1.78268E-14-9.33923E-14
 -1        49 1.61480E+01-6.82999E-03-9.05625E-03-2.65575E-02 4.53047E-14 3.84666E-14
 -1        50 1.55098E+01-1.24448E-02-1.85349E-02-2.12462E-02 3.23423E-14 1.32061E-13
 -1        51 1.50858E+01-1.65139E-02-2.55667E-02-1.14277E-02-2.59894E-14 2.74866E-13
 -1        52 1.49529E+01-1.78399E-02-2.78696E-02 1.03268E-03-1.32028E-14 4.02840E-13
 -1        53 1.51363E+01-1.60129E-02-2.46536E-02 1.32404E-02-1.95254E-14 8.64521E-14
 -1        54 1.56014E+01-1.16012E-02-1.70234E-02 2.24006E-02 5.19758E-14 8.90815E-14
 -1        55 1.62648E+01-5.88880E-03-7.42025E-03 2.68923E-02-6.30809E-14 1.09479E-13
 -1        56 1.70208E+01-3.25301E-04 1.51416E-03 2.66903E-02 1.21524E-14-7.67424E-14
 -1        57 1.77691E+01 3.99484E-03 7.94901E-03 2.30204E-02 1.95124E-14 4.33611E-14
 -1        58 1.84355E+01 6.58427E-03 1.12673E-02 1.76084E-02 6.35901E-14 3.98286E-13
 -1        59 1.89790E+01 7.51545E-03 1.18566E-02 1.19930E-02-1.00676E-13 4.76260E-13
 -1        60 1.93889E+01 7.20021E-03 1.06123E-02 7.16992E-03-3.27290E-14 3.93485E-13
 -1        61 1.96756E+01 6.15002E-03 8.47694E-03 3.56236E-03 1.95291E-14 2.28220E-13
 -1        62 1.98609E+01 4.81043E-03 6.17352E-03 1.17516E-03-1.15749E-13-2.00337E-14
 -1        63 1.99699E+01 3.48957E-03 4.13171E-03-2.10074E-04 2.23164E-14 2.72913E-14
 -1        64 2.00256E+01 2.35574E-03 2.53132E-03-8.80159E-04-5.77562E-14 1.66066E-13
 -1        65 2.00470E+01 1.46952E-03 1.38698E-03-1.09866E-03-1.93899E-14-2.45441E-13
 -1        66 2.00483E+01 8.23829E-04 6.27004E-04-1.06701E-03 7.16951E-14-4.44905E-13
 -1        67 2.00391E+01 3.77753E-04 1.47652E-04-9.18298E-04 6.48211E-14 7.81448E-14
 -1        68 2.00260E+01 8.04073E-05-1.56666E-04-7.24478E-04 6.95383E-14 7.39137E-13
 -1        69 2.00132E+01-1.13040E-04-3.70607E-04-5.04555E-04-4.74768E-15 7.80240E-13
 -1        70 2.00036E+01-1.97456E-04-4.84596E-04-2.01764E-04-2.19064E-14 4.25723E-13
 -1        71 1.99993E+01 2.28042E-05-1.75284E-04 1.97209E-04 9.93813E-15 1.91865E-13
 -1        72 2.10398E+01-4.05041E-01-9.80460E-01-3.11599E-01 1.81487E-14 1.25347E-12
 -1        73 1.93295E+01-6.59741E-02-2.90780E-01-5.39774E-02 1.79752E-14 8.64633E-13
 -1        74 1.86866E+01-2.04236E-02-6.37356E-02-2.03614E-02 8.82270E-15 6.14094E-13
 -1        75 1.84847E+01-9.90698E-03-9.07363E-03-1.53821E-02-4.28433E-15 5.00362E-13
 -1        76 1.84967E+01-5.19600E-03 5.54349E-04-1.23354E-02 1.67248E-14 3.63929E-13
 -1        77 1.86111E+01-2.64975E-03 1.65847E-03-1.00454E-02-1.07719E-14 2.85841E-13
 -1        78 1.87715E+01-1.19509E-03 1.82193E-03-8.28368E-03-7.85948E-15 4.06110E-13
 -1        79 1.89469E+01-3.53770E-04 2.01055E-03-6.82211E-03-4.03178E-15 4.66684E-13
 -1        80 1.91199E+01 1.24149E-04 2.12686E-03-5.54120E-03 7.82560E-15 4.05521E-13
 -1        81 1.92817E+01 3.02226E-04 2.11186E-03-4.41392E-03 1.24204E-14 1.92672E-13
 -1        82 1.94340E+01 3.40442E-04 1.87921E-03-3.32487E-03-1.03646E-14 8.15385E-14
 -1        83 1.95629E+01 2.22288E-04 1.57386E-03-2.32737E-03 2.55840E-15 9.92124E-14
 -1        84 1.96781E+01-6.22909E-05 1.10423E-03-1.38203E-03 3.69407E-14 4.87585E-14
 -1        85 1.97848E+01-5.38549E-04 4.45093E-04-3.93849E-04-2.41257E-14 9.53767E-15
 -1        86 1.98911E+01-1.29279E-03-5.23367E-04 7.14935E-04 1.73831E-14-1.55894E-14
 -1        87 2.00097E+01-2.47478E-03-2.02938E-03 2.04891E-03-1.36569E-14-1.89823E-13
 -1        88 2.01607E+01-4.32753E-03-4.49478E-03 3.72701E-03 6.29269E-14-2.43436E-13
 -1        89 2.03759E+01-7.22138E-03-8.69802E-03 5.84353E-03-3.53699E-14-1.86335E-13
 -1        90 2.07077E+01-1.16889E-02-1.60961E-02 8.41002E-03 1.92378E-14-1.63480E-13
 -1        91 2.12412E+01-1.92415E-02-2.94875E-02 1.25095E-02-1.08023E-14-8.66043E-14
 -1        92 2.21753E+01-2.69253E-02-5.39577E-02 9.79557E-03 1.41720E-14-9.09012E-14
 -1        93 2.36599E+01-3.91584E-02-9.39268E-02 1.94506E-03-1.63723E-14-1.12552E-13
 -1        94 2.60722E+01-4.65252E-02-1.45766E-01-2.92555E-02 5.40110E-14-2.49890E-13
 -1        95 2.98475E+01-3.30150E-02-1.67252E-01-1.12898E-01 2.33455E-14-3.94129E-13
 -1        96 3.52561E+01 3.16760E-02-2.36972E-02-2.81516E-01-8.95334E-16-4.05814E-13
 -1        97 4.14823E+01 1.51980E-01 4.56681E-01-4.79065E-01-5.95322E-14-1.34004E-13
 -1        98 4.47603E+01 1.68261E-01 1.01224E+00-2.27875E-01-9.34496E-14 8.25243E-13
 -1        99 3.89394E+01-1.02191E-01 3.45586E-01 1.06853E+00 1.10056E-13 5.17919E-13
 -1       100 2.56975E+01-3.18608E-01-1.93087E+00 2.03966E+00 1.04507E-13-3.09752E-13
 -1       101 1.51624E+01-2.11175E-01-3.95403E+00 1.02248E+00-1.34240E-13-4.25299E-13
 -1       102 1.78223E+01-3.53832E-02-3.44640E+00-1.08364E+00 2.88450E-14-5.44370E-13
 -1       103 2.90605E+01 9.48153E-02-1.35077E+00-1.92162E+00 4.20705E-14-1.38034E-12
 -1       104 4.11225E+01 1.26593E-01 5.32932E-01-1.36743E+00 1.50112E-13-1.55143E-12
 -1       105 4.47299E+01 2.25785E-01 9.60193E-01 9.65151E-02-1.31329E-13-1.06166E-12
 -1       106 4.03077E+01 7.58912E-02 3.14324E-01 4.24416E-01 1.24761E-14-3.91756E-13
 -1       107 3.40982E+01-2.22095E-02-7.89421E-02 3.32254E-01 2.19651E-14-6.77944E-13
 -1       108 2.90259E+01-5.82821E-02-1.64756E-01 1.87879E-01-1.09578E-14-8.64517E-13
 -1       109 2.55571E+01-5.63906E-02-1.30969E-01 9.30586E-02-8.37767E-14-6.90975E-14
 -1       110 2.33575E+01-4.28189E-02-8.22749E-02 4.25255E-02 1.61214E-13-2.11664E-13
 -1       111 2.20055E+01-3.04962E-02-4.81168E-02 1.95326E-02 1.36594E-14-7.45803E-13
 -1       112 2.11646E+01-1.83343E-02-2.52113E-02 6.20233E-03 2.27040E-14-1.17372E-12
 -1       113 2.06892E+01-1.21938E-02-1.42867E-02 1.79943E-03 1.75354E-13-1.78190E-12
 -1       114 2.04038E+01-7.66856E-03-8.03034E-03-5.01433E-05-2.26882E-13-1.56541E-12
 -1       115 2.02320E+01-4.80860E-03-4.54222E-03-6.68259E-04 7.59562E-14-3.14650E-13
 -1       116 2.01282E+01-3.02211E-03-2.60087E-03-7.61434E-04 4.25862E-14 6.10223E-14
 -1       117 2.00651E+01-1.92509E-03-1.54375E-03-6.67434E-04-9.29491E-14 4.49552E-14
 -1       118 2.00272E+01-1.26598E-03-1.01667E-03-5.51415E-04 2.67003E-13-4.81976E-13
 -1       119 2.00056E+01-8.72878E-04-8.07587E-04-5.17143E-04-2.64084E-14-7.26025E-13
 -1       120 1.99960E+01-6.04736E-04-6.24492E-04-6.90248E-04-7.54525E-15-1.55093E-13
 -1       121 1.99960E+01-1.67345E-04 2.96308E-04-1.19954E-03-3.20921E-14 4.61135E-14
 -1       122 1.99996E+01-4.20992E-03 2.10075E-05-1.21581E-03-7.91214E-13 4.42728E-15
 -1       123 1.99995E+01-3.08524E-03-8.87935E-04-5.22725E-04 6.72261E-13-4.82895E-14
 -1       124 1.99997E+01 8.07226E-03-7.46979E-04 1.82374E-04 2.06897E-12 2.28939E-13
 -1       125 1.99999E+01 2.61681E-02-2.45497E-04 6.51829E-04 1.25849E-12-5.17676E-14
 -1       126 2.00001E+01 4.59563E-02 2.58804E-04 8.30410E-04 7.32123E-13 7.06700E-14
 -1       127 2.00001E+01 6.23377E-02 5.84434E-04 7.78936E-04 1.54090E-12 1.36837E-13
 -1       128 2.00001E+01 7.25746E-02 6.97613E-04 5.62980E-04-7.36633E-13-2.63216E-13
 -1       129 2.00001E+01 7.51731E-02 6.32304E-04 2.84630E-04-1.57252E-12 1.48579E-13
 -1       130 2.00000E+01 7.07837E-02 4.57590E-04 2.77633E-05-3.12453E-13 2.13641E-13
 -1       131 1.99999E+01 6.12411E-02 2.52203E-04-1.59910E-04-5.60468E-14-4.49433E-14
 -1       132 1.99998E+01 4.87774E-02 7.47956E-05-2.69248E-04 5.63269E-13 1.02901E-13
 -1       133 1.99997E+01 3.55976E-02-5.14736E-05-3.20131E-04 1.48825E-12 1.21552E-13
 -1       134 1.99997E+01 2.27527E-02-1.51992E-04-3.47012E-04 5.42506E-13-1.27464E-13
 -1       135 1.99996E+01 1.15522E-02-2.84335E-04-3.50431E-04-4.41760E-13-1.73519E-13
 -1       136 1.99998E+01 2.94384E-03-4.82183E-04-6.41491E-05-7.07369E-13 1.08474E-13
 -1       137 1.99997E+01-2.12180E-04-4.87316E-05 4.02693E-04-5.97315E-13 1.52737E-13
 -1       138-2.10838E+00-2.68856E+01-3.72940E+00-5.88040E+00 2.01783E-14-1.29592E-13
 -1       139-4.21825E+00-1.67219E+01-3.58392E+00-7.36058E+00 9.37583E-13 5.74207E-13
 -1       140-5.65819E-01-3.76932E+00-2.85255E+00-1.39888E+00 1.89115E-12 1.45678E-12
 -1       141 1.29203E+01 6.50036E+00-1.28789E+00 9.46021E+00 1.57752E-12 2.05991E-12
 -1       142 4.06817E+01 9.29689E+00 1.85231E+00 1.90899E+01 1.09024E-12 2.07601E-12
 -1       143 7.34477E+01 5.76650E+00 5.73882E+00 1.83164E+01 4.91052E-13 1.54943E-12
 -1       144 9.43229E+01 1.99614E+00 8.31918E+00 5.22355E+00 1.44940E-13 4.20858E-13
 -1       145 8.83339E+01 3.22802E+00 7.58683E+00-1.19381E+01-2.88840E-14 3.79474E-13
 -1       146 5.86081E+01 7.86606E+00 3.98282E+00-2.01295E+01 3.07365E-13-4.37650E-13
 -1       147 2.63017E+01 9.16735E+00 2.50096E-01-1.55065E+01 6.85674E-13-1.07403E-12
 -1       148 5.44933E+00 3.32993E+00-2.10282E+00-4.76706E+00 6.33826E-13-6.14175E-13
 -1       149-3.03731E+00-8.30313E+00-3.25518E+00 4.32868E+00 1.21159E-12-7.98361E-13
 -1       150-3.59972E+00-2.11413E+01-3.67479E+00 7.39911E+00 1.82915E-12-7.41338E-13
 -1       151-1.48378E+00-2.83897E+01-3.66947E+00 4.27928E+00 1.76498E-12-3.15165E-13
 -1       152-7.31754E-01-2.66441E+01-3.36029E+00-1.20870E+00 7.87759E-13 2.86750E-14
 -1       153-1.43749E+00-1.64932E+01-2.70127E+00-3.74272E+00-6.51923E-13-2.21878E-13
 -1       154 9.64181E-02-2.31270E+00-1.63351E+00-1.07363E-01-1.68954E-12-9.65339E-13
 -1       155 2.36316E+01 1.35999E+01 1.05918E+00 1.76737E+01-1.93640E-12-2.28478E-12
 -1       156 4.28267E+01 1.10393E+01 2.17555E+00 2.12968E+01-1.13529E-12-2.12230E-12
 -1       157 6.17459E+01 5.21152E+00 3.17285E+00 1.66103E+01-3.92658E-13-1.36380E-12
 -1       158 7.21938E+01 1.04243E+00 3.58611E+00 4.37228E+00-4.13523E-14-7.50608E-13
 -1       159 6.94213E+01 2.17601E+00 3.48731E+00-9.90843E+00-1.55480E-13 5.41789E-13
 -1       160 5.53146E+01 7.40243E+00 2.85126E+00-1.92500E+01-7.12971E-13 1.64674E-12
 -1       161 3.55317E+01 1.25224E+01 1.80557E+00-2.06243E+01-1.26016E-12 2.15589E-12
 -1       162 1.70380E+01 1.29286E+01 5.49177E-01-1.46643E+01-1.50063E-12 1.75299E-12
 -1       163 4.00477E+00 5.92279E+00-8.29265E-01-5.07658E+00-1.35458E-12 7.82263E-13
 -1       164-1.01001E+00-6.91728E+00-2.03389E+00 2.08795E+00-1.13942E-12 6.76514E-13
 -1       165-1.23472E+00-2.00999E+01-2.92736E+00 3.60291E+00-1.44434E-12 1.26212E-13
 -1       166 2.10130E+01 3.69367E+00-5.73576E-02-3.60932E+00-2.00614E-13 3.22551E-13
 -1       167 1.99913E+01 4.20726E+00-4.57845E-02-2.80796E+00-2.11096E-13 8.20108E-14
 -1       168 1.95073E+01 4.47825E+00-3.16942E-02-2.19383E+00-1.88855E-13-7.96672E-14
 -1       169 1.92688E+01 4.61493E+00-2.37949E-02-1.67367E+00-1.53407E-13-1.79193E-13
 -1       170 1.91376E+01 4.69788E+00-1.95674E-02-1.21807E+00-1.20081E-13-2.31232E-13
 -1       171 1.90637E+01 4.74880E+00-1.74428E-02-7.91532E-01-9.34371E-14-2.74103E-13
 -1       172 1.90266E+01 4.77670E+00-1.64161E-02-3.86676E-01-5.17462E-14-2.88461E-13
 -1       173 1.90158E+01 4.78524E+00-1.61210E-02 8.12248E-03-1.81183E-14-3.17212E-13
 -1       174 1.90284E+01 4.77536E+00-1.64534E-02 4.03279E-01 1.01866E-14-3.25314E-13
 -1       175 1.90678E+01 4.74567E+00-1.75081E-02 8.09270E-01 4.75842E-14-3.39883E-13
 -1       176 1.91423E+01 4.69309E+00-1.96810E-02 1.23061E+00 7.28166E-14-3.22130E-13
 -1       177 1.92778E+01 4.60586E+00-2.39701E-02 1.69714E+00 1.31168E-13-2.91262E-13
 -1       178 1.95251E+01 4.45968E+00-3.25551E-02 2.22480E+00 1.70437E-13-2.38667E-13
 -1       179 2.00125E+01 4.18405E+00-4.71697E-02 2.84689E+00 2.01918E-13-1.09711E-13
 -1       180 2.11342E+01 3.46323E+00-6.00606E-02 3.53535E+00 2.01034E-13 1.40846E-13
 -1       181 2.24178E+01 1.14334E+00-3.36535E-01 3.01416E+00 1.58810E-13 4.82836E-13
 -1       182 2.19706E+01 8.58214E-01 6.08365E-04-1.95812E+00-1.55681E-13 5.84404E-13
 -1       183 2.04471E+01 1.90075E-01-9.97821E-03-7.63393E-01-1.38289E-13 5.02872E-13
 -1       184 1.96724E+01 1.01743E-01 1.35739E-02-2.84875E-01-9.81689E-14 4.17328E-13
 -1       185 1.93338E+01 4.73739E-02 1.00072E-02-6.67655E-02-9.31987E-14 3.24238E-13
 -1       186 1.92057E+01 2.27858E-02 5.17164E-03 4.10733E-02-6.10314E-14 2.79132E-13
 -1       187 1.91945E+01 9.81799E-03 2.44677E-03 9.43814E-02-9.40897E-14 2.26838E-13
 -1       188 1.92461E+01 2.52105E-03 1.14667E-03 1.17671E-01-8.45829E-14 1.88718E-13
 -1       189 1.93292E+01-1.60810E-03 5.14441E-04 1.23751E-01-6.83445E-14 1.49575E-13
 -1       190 1.94251E+01-3.81781E-03 1.78290E-04 1.20021E-01-5.19841E-14 1.30186E-13
 -1       191 1.95230E+01-4.83738E-03-1.46750E-05 1.11007E-01-2.49878E-14 1.06379E-13
 -1       192 1.96163E+01-5.15561E-03-1.31463E-04 9.94764E-02-4.82632E-14 3.44490E-14
 -1       193 1.97015E+01-5.14374E-03-2.08952E-04 8.69749E-02-1.62144E-14-1.92463E-14
 -1       194 1.97764E+01-5.12117E-03-2.72837E-04 7.40861E-02 1.35406E-14 2.68195E-14
 -1       195 1.98396E+01-5.39603E-03-3.43668E-04 6.05407E-02 3.15296E-14 4.31070E-14
 -1       196 1.98890E+01-6.28850E-03-4.38358E-04 4.52378E-02-3.26825E-14 8.52813E-14
 -1       197 1.99215E+01-8.13316E-03-5.69407E-04 2.62301E-02-3.35287E-14 5.96798E-14
 -1       198 1.99319E+01-1.12484E-02-7.42177E-04 7.46630E-04-3.72729E-14 2.68103E-14
 -1       199 1.99126E+01-1.58548E-02-9.50478E-04-3.46432E-02-3.01029E-14-8.81647E-14
 -1       200 1.98530E+01-2.19258E-02-1.17137E-03-8.35769E-02-1.52659E-13-1.26071E-13
 -1       201 1.97399E+01-2.89680E-02-1.36133E-03-1.48990E-01-2.72074E-14-1.03368E-13
 -1       202 1.95589E+01-3.57697E-02-1.45713E-03-2.31634E-01 3.01495E-15-4.97333E-14
 -1       203 1.92972E+01-4.02318E-02-1.38588E-03-3.28085E-01-6.02569E-14-1.53770E-13
 -1       204 1.89481E+01-3.94836E-02-1.08535E-03-4.28710E-01-5.81067E-14-1.69383E-13
 -1       205 1.85166E+01-3.05290E-02-5.31358E-04-5.16582E-01 3.21762E-14-1.56010E-13
 -1       206 1.80248E+01-1.15313E-02 2.39373E-04-5.68790E-01 6.90729E-14-1.26693E-13
 -1       207 1.75154E+01 1.65668E-02 1.12275E-03-5.61354E-01 5.79283E-14-2.44125E-14
 -1       208 1.70487E+01 4.89674E-02 1.97142E-03-4.77512E-01 4.10161E-14 2.78989E-14
 -1       209 1.66926E+01 7.76039E-02 2.63194E-03-3.16650E-01 1.52914E-14-7.13104E-14
 -1       210 1.65064E+01 9.38525E-02 2.98497E-03-9.91467E-02-3.74967E-14-6.24648E-14
 -1       211 1.65235E+01 9.23291E-02 2.96705E-03 1.36958E-01-1.09331E-13 4.96733E-14
 -1       212 1.67407E+01 7.35604E-02 2.57783E-03 3.47486E-01-8.66577E-14 9.79963E-14
 -1       213 1.71196E+01 4.37228E-02 1.88569E-03 4.96704E-01 1.33178E-14-6.07446E-14
 -1       214 1.75983E+01 1.16171E-02 1.01860E-03 5.67751E-01 1.41403E-14 4.21063E-14
 -1       215 1.81094E+01-1.50952E-02 1.38224E-04 5.64478E-01 9.69169E-14 1.67425E-14
 -1       216 1.85954E+01-3.22747E-02-6.05036E-04 5.05563E-01 1.46918E-13 6.00090E-14
 -1       217 1.90172E+01-3.95412E-02-1.11484E-03 4.15383E-01 1.12897E-13 1.13865E-13
 -1       218 1.93563E+01-3.90213E-02-1.36514E-03 3.16185E-01-1.16018E-13 1.12529E-13
 -1       219 1.96105E+01-3.37465E-02-1.38929E-03 2.23823E-01-9.40001E-14 1.51906E-13
 -1       220 1.97886E+01-2.64747E-02-1.25461E-03 1.46944E-01-1.55464E-13 1.46734E-13
 -1       221 1.99048E+01-1.91472E-02-1.03428E-03 8.83104E-02-6.18034E-14 3.06161E-13
 -1       222 1.99742E+01-1.28350E-02-7.89080E-04 4.68760E-02-1.08742E-13 9.87182E-14
 -1       223 2.00108E+01-7.93265E-03-5.59655E-04 1.97011E-02-1.64400E-13-1.18314E-13
 -1       224 2.00260E+01-4.41116E-03-3.67077E-04 3.33212E-03-7.53170E-14-7.57865E-14
 -1       225 2.00283E+01-2.03148E-03-2.17923E-04-5.39460E-03 2.70851E-13-1.53773E-14
 -1       226 2.00237E+01-4.85469E-04-1.10819E-04-8.98949E-03 2.89220E-13 8.28206E-14
 -1       227 2.00166E+01 5.23314E-04-4.21766E-05-9.23038E-03 1.14211E-13-1.82707E-13
 -1       228 2.00094E+01 1.23128E-03-3.89945E-06-7.26099E-03-1.20407E-13 5.19960E-14
 -1       229 2.00036E+01 1.80379E-03 3.39434E-05-3.93297E-03-8.61507E-14 3.84818E-13
 -1       230 2.09630E+01 2.77885E-01-5.07403E-02 1.16481E+00 1.76369E-13 4.01161E-13
 -1       231 1.98677E+01 1.27877E-01 8.86057E-03 4.43655E-01 1.13808E-13 3.02111E-13
 -1       232 1.93620E+01 5.78621E-02 1.26648E-02 1.49499E-01 7.37895E-14 1.95202E-13
 -1       233 1.91537E+01 2.77834E-02 7.52892E-03 1.00868E-02 7.72858E-14 1.51954E-13
 -1       234 1.91052E+01 1.31500E-02 3.77761E-03-5.92373E-02 1.02631E-15 1.81626E-13
 -1       235 1.91427E+01 5.28108E-03 1.90893E-03-9.21057E-02-2.93961E-14 1.72097E-13
 -1       236 1.92244E+01 8.08536E-04 1.02396E-03-1.04522E-01 4.14221E-15 1.67951E-13
 -1       237 1.93257E+01-1.68767E-03 5.72586E-04-1.05273E-01 5.89233E-14 1.27617E-13
 -1       238 1.94328E+01-2.87708E-03 3.38448E-04-9.97422E-02 7.06202E-14 1.22373E-13
 -1       239 1.95428E+01-3.25760E-03 1.86800E-04-9.09758E-02 1.62726E-14 5.18334E-14
 -1       240 1.96418E+01-2.88683E-03 1.42488E-04-8.24053E-02 2.20386E-14 8.00820E-14
 -1       241 1.97357E+01-1.98280E-03 1.55575E-04-7.57043E-02 2.14624E-14 8.06514E-16
 -1       242 1.98271E+01-4.25880E-04 2.34473E-04-7.28548E-02 3.09472E-14-4.09350E-14
 -1       243 1.99220E+01 2.01496E-03 3.90294E-04-7.63016E-02 7.28444E-14-1.30745E-13
 -1       244 2.00301E+01 5.83010E-03 6.45669E-04-8.95912E-02 5.35322E-14-1.97674E-13
 -1       245 2.01665E+01 1.19033E-02 1.03186E-03-1.18312E-01 5.58256E-16-1.50611E-13
 -1       246 2.03548E+01 2.17486E-02 1.56917E-03-1.71549E-01-6.90528E-14-4.40989E-14
 -1       247 2.06311E+01 3.78671E-02 2.18421E-03-2.64123E-01 4.51455E-14-2.47483E-14
 -1       248 2.10503E+01 6.40782E-02 2.65831E-03-4.19249E-01-6.74374E-16-1.28782E-13
 -1       249 2.17338E+01 1.09291E-01 1.40285E-03-6.90719E-01 2.91152E-14-1.31278E-13
 -1       250 2.27414E+01 1.76384E-01-2.59750E-03-1.10858E+00 2.37007E-14-9.01709E-14
 -1       251 2.42444E+01 2.67133E-01-1.14055E-02-1.73775E+00 8.80676E-14-2.24609E-13
 -1       252 2.63902E+01 3.52645E-01-1.68958E-02-2.58785E+00-7.48880E-15-1.54520E-13
 -1       253 2.92267E+01 2.94310E-01 1.05078E-02-3.45882E+00-6.66203E-14-6.98087E-14
 -1       254 3.25206E+01-2.21795E-01 1.25005E-01-3.55878E+00-1.62682E-13 1.04418E-13
 -1       255 3.56267E+01-1.63072E+00 1.96192E-01-1.24633E+00-4.08774E-13-5.84029E-14
 -1       256 3.76593E+01-2.48432E+00 1.96324E-02 3.69170E+00 4.15785E-13 4.08614E-14
 -1       257 3.87049E+01-5.38879E-01-3.25997E-01 7.12692E+00 5.12007E-13-4.79061E-14
 -1       258 3.93643E+01 3.61739E+00-2.73521E-01 3.67510E+00 3.30291E-14-4.55490E-13
 -1       259 3.96711E+01 3.65569E+00-1.90536E-01-3.37133E+00 2.97429E-13-5.23220E-13
 -1       260 3.93238E+01 4.70253E-01-1.46052E-01-7.00057E+00 3.94851E-13-6.30315E-13
 -1       261 3.85146E+01-2.47262E+00 7.72161E-02-4.50423E+00-8.18443E-15-7.62867E-13
 -1       262 3.22833E+01-1.07876E+00 1.05405E-01 3.39768E+00-4.14523E-13-4.79480E-13
 -1       263 2.91868E+01 1.52942E-01 3.15036E-02 4.18059E+00-2.76237E-14-1.08203E-13
 -1       264 2.65875E+01 4.69077E-01 3.04640E-03 3.44771E+00 1.11790E-13-8.89358E-14
 -1       265 2.45338E+01 4.21726E-01 2.31946E-03 2.43004E+00-6.25064E-14-3.46399E-13
 -1       266 2.30250E+01 2.99174E-01 6.45018E-03 1.59143E+00 5.99729E-14-5.07239E-13
 -1       267 2.19730E+01 1.93788E-01 7.49557E-03 1.00479E+00 1.74061E-13-1.31492E-13
 -1       268 2.12421E+01 1.17130E-01 6.77588E-03 6.08917E-01 2.31029E-13 3.35359E-14
 -1       269 2.07918E+01 7.10495E-02 4.73112E-03 3.74328E-01 2.26284E-13 2.22448E-14
 -1       270 2.04999E+01 4.28405E-02 3.20495E-03 2.29949E-01-1.18073E-13 2.25081E-13
 -1       271 2.03125E+01 2.57657E-02 2.08031E-03 1.41478E-01-3.98130E-13-2.56505E-13
 -1       272 2.01923E+01 1.55425E-02 1.32772E-03 8.73699E-02-2.72475E-13-4.78323E-13
 -1       273 2.01154E+01 9.49082E-03 8.44437E-04 5.41045E-02 5.24777E-14-2.72978E-13
 -1       274 2.00661E+01 5.99901E-03 5.37573E-04 3.32762E-02 1.43942E-13 2.38786E-14
 -1       275 2.00350E+01 4.09512E-03 3.35380E-04 1.96472E-02 1.95932E-13 3.44733E-13
 -1       276 2.00161E+01 3.17931E-03 2.00322E-04 1.00095E-02-1.46182E-13-1.43982E-13
 -1       277 2.00054E+01 2.45517E-03 1.64787E-04 2.69652E-03-7.15324E-14-1.32367E-13
 -1       278 2.00012E+01 8.69171E-04 7.27118E-05-7.54027E-04 1.99396E-13-1.69024E-13
 -1       279 2.00022E+01 6.73572E-03-6.28026E-05 4.70142E-03 4.77235E-13 8.73558E-13
 -1       280 2.00015E+01 1.75319E-02-4.61767E-05 1.02816E-02 5.43769E-13 2.37446E-13
 -1       281 2.00003E+01 3.14885E-02-1.32758E-05 1.32580E-02 3.51874E-13-1.40240E-13
 -1       282 1.99991E+01 4.56724E-02 3.45928E-06 1.28084E-02 5.78638E-13-1.56643E-13
 -1       283 1.99984E+01 5.69721E-02-6.26345E-06 9.59067E-03-4.64038E-14-1.82589E-13
 -1       284 1.99980E+01 6.37364E-02-2.34778E-05 4.70566E-03 5.83845E-14-9.27041E-13
 -1       285 1.99982E+01 6.49177E-02-3.78414E-05-4.55992E-04 1.11991E-13-4.88148E-15
 -1       286 1.99986E+01 6.09791E-02-4.31442E-05-4.80361E-03-2.14753E-13 3.54906E-13
 -1       287 1.99991E+01 5.32124E-02-3.78492E-05-7.74213E-03-3.81465E-13-6.27597E-14
 -1       288 1.99996E+01 4.32420E-02-2.39122E-05-9.17448E-03 3.81240E-14 5.96379E-13
 -1       289 1.99999E+01 3.27695E-02-6.52149E-06-9.35539E-03 2.28738E-14 4.77865E-14
 -1       290 2.00002E+01 2.25943E-02 7.08527E-06-8.62636E-03 5.85562E-14-4.98306E-13
 -1       291 2.00004E+01 1.37660E-02 7.99216E-06-7.19769E-03-1.09788E-13-3.06917E-13
 -1       292 2.00007E+01 6.93304E-03 2.49648E-05-4.95591E-03-1.19477E-13 1.93281E-14
 -1       293-1.92860E+00-1.17510E+01-9.15813E-01-1.00742E+00-9.69381E-14 2.34063E-13
 -1       294 4.93703E-01-1.15859E+01-1.11553E+00 8.32347E-01 1.27426E-13 5.54043E-13
 -1       295 9.74393E+00-8.06799E+00-7.15498E-01 4.43482E+00 2.06779E-13 9.35400E-13
 -1       296 1.81882E+01-6.32965E+00-7.83681E-01 4.80439E+00 7.29805E-13 1.01194E-12
 -1       297 3.56756E+01-2.36982E+00 3.77783E-02 4.08815E+00 7.84317E-13 9.37417E-13
 -1       298 4.99324E+01 1.78522E+00 1.23199E+00 2.01500E+00 5.75407E-13 5.23415E-13
 -1       299 5.70319E+01 5.77651E+00 2.02551E+00-4.17200E-01 5.38569E-13 2.72588E-13
 -1       300 6.03372E+01 7.20603E+00 2.55765E+00 1.74451E-01-7.33857E-14 3.15012E-13
 -1       301 5.38672E+01 4.08201E+00 1.60514E+00 6.85229E-01 4.36401E-13 2.29872E-13
 -1       302 4.39456E+01-7.14501E-02 6.97198E-01-3.09511E+00 2.93904E-13 1.64313E-14
 -1       303 2.85629E+01-3.49993E+00-3.42019E-01-5.09406E+00 9.79772E-14-3.03146E-13
 -1       304 1.45089E+01-6.45132E+00-9.15115E-01-4.48672E+00 4.00013E-13-6.46705E-15
 -1       305 5.30947E+00-9.25514E+00-9.27843E-01-2.95914E+00 4.89109E-13 3.36536E-15
 -1       306-3.90395E-01-1.06681E+01-8.37088E-01-8.16583E-01 3.03021E-13-1.69531E-13
 -1       307-1.94724E+00-1.28308E+01-1.01987E+00 1.76127E+00 4.66141E-13-4.86444E-13
 -1       308 1.82349E-01-1.04830E+01-8.19586E-01 3.73010E+00 1.09940E-13-7.20674E-13
 -1       309 5.68236E+00-6.92862E+00-5.63400E-01 5.91232E+00-2.86882E-13-7.81988E-13
 -1       310 1.56490E+01-3.42583E+00-1.80519E-01 8.22446E+00-3.56104E-13-1.04503E-12
 -1       311 2.40984E+01 1.92485E+00 1.06613E-01 9.23135E+00-1.08391E-12-9.66199E-13
 -1       312 3.46478E+01 4.89904E+00 5.15073E-01 9.27126E+00-1.00370E-12-8.96228E-13
 -1       313 4.35772E+01 6.62751E+00 9.09775E-01 9.02606E+00-8.30426E-13-7.16149E-13
 -1       314 4.93735E+01 7.53440E+00 9.25712E-01 3.39441E+00-4.57759E-13-5.17156E-13
 -1       315 5.18762E+01 7.48966E+00 1.07930E+00-1.04441E+00-5.39263E-13-1.76428E-13
 -1       316 4.82930E+01 7.11444E+00 9.61881E-01-5.37327E+00-6.56392E-13 1.33227E-13
 -1       317 4.06762E+01 6.00935E+00 6.98188E-01-8.36370E+00-6.36130E-13 4.48752E-13
 -1       318 3.08902E+01 3.46538E+00 3.22712E-01-9.08224E+00-5.28105E-13 8.27671E-13
 -1       319 1.99709E+01 5.40230E-01-3.65114E-02-8.85894E+00-4.21413E-13 9.07052E-13
 -1       320 1.03720E+01-3.94410E+00-4.29248E-01-6.95176E+00-4.37594E-13 3.33344E-13
 -1       321 3.62138E+00-8.23059E+00-6.73751E-01-5.19701E+00-5.56749E-13 1.24567E-13
 -1       322-7.61246E-01-1.17181E+01-9.22898E-01-3.00734E+00-3.06671E-13 4.50126E-13
 -1       323 3.57616E+01-2.96872E+00 9.68438E-02-4.70460E-01-2.12969E-13-5.25167E-13
 -1       324 2.01465E+01 3.01524E+00-1.78014E-02-2.10878E+00-2.21293E-13 4.64186E-14
 -1       325 2.07551E+01 2.20991E+00-1.78649E-02-2.36216E+00-2.21329E-13 1.98789E-13
 -1       326 1.95831E+01 3.69324E+00-1.55683E-02-1.31694E+00-1.68830E-13-1.35292E-13
 -1       327 1.94605E+01 3.84985E+00-1.37005E-02-9.22901E-01-1.18930E-13-1.81463E-13
 -1       328 1.93914E+01 3.94104E+00-1.27014E-02-5.43387E-01-7.94193E-14-2.01209E-13
 -1       329 1.93609E+01 3.98250E+00-1.22836E-02-1.73198E-01-3.39768E-14-2.21881E-13
 -1       330 1.93623E+01 3.98084E+00-1.23027E-02 1.93979E-01-3.24149E-15-2.27514E-13
 -1       331 1.93959E+01 3.93572E+00-1.27509E-02 5.64547E-01 3.17294E-14-2.66552E-13
 -1       332 1.94670E+01 3.84209E+00-1.37694E-02 9.38226E-01 8.47806E-14-2.48037E-13
 -1       333 1.95940E+01 3.67937E+00-1.57162E-02 1.33222E+00 1.37331E-13-2.05936E-13
 -1       334 1.98091E+01 3.41032E+00-1.90698E-02 1.73779E+00 1.85670E-13-1.78380E-13
 -1       335 2.01749E+01 2.95149E+00-2.33637E-02 2.12341E+00 2.18355E-13-1.08400E-13
 -1       336 2.07601E+01 2.10568E+00-2.94998E-02 2.30571E+00 2.30361E-13 3.61343E-14
 -1       337 2.10926E+01 1.18630E+00-2.40559E-02 1.91410E+00 2.12561E-13 1.90926E-13
 -1       338 2.03821E+01 4.91740E-01 8.70821E-03 9.21694E-01 1.68207E-13 1.32649E-13
 -1       339 3.91123E+01 6.66444E+00 8.46136E-02 1.32387E+00-4.31891E-13-2.45137E-13
 -1       340 2.04593E+01 6.75350E-01 1.25756E-02-1.02431E+00-1.68457E-13 2.06383E-13
 -1       341 2.00378E+01 3.37925E-01 7.20897E-03-4.56001E-01-1.55356E-13 1.59919E-13
 -1       342 1.97849E+01 1.77547E-01 4.18991E-03-1.46075E-01-1.21670E-13 1.24535E-13
 -1       343 1.96510E+01 9.16619E-02 1.93945E-03 2.60732E-02-9.09657E-14 1.01359E-13
 -1       344 1.95975E+01 4.28163E-02 8.23294E-04 1.18579E-01-8.63590E-14 1.01672E-13
 -1       345 1.95946E+01 1.41790E-02 2.99569E-04 1.63474E-01-9.51426E-14 9.78695E-14
 -1       346 1.96217E+01-2.48627E-03 3.87919E-05 1.79632E-01-3.75420E-14 9.18453E-14
 -1       347 1.96649E+01-1.17309E-02-9.89375E-05 1.78712E-01-6.23130E-14 6.30739E-14
 -1       348 1.97152E+01-1.63866E-02-1.72126E-04 1.68062E-01-4.46306E-14 8.32396E-14
 -1       349 1.97669E+01-1.84281E-02-2.10947E-04 1.52185E-01-5.85147E-14 4.60517E-14
 -1       350 1.98163E+01-1.93991E-02-2.35828E-04 1.33516E-01-1.12179E-14 1.05667E-13
 -1       351 1.98611E+01-2.06532E-02-2.63549E-04 1.12811E-01 3.77552E-14 6.46581E-14
 -1       352 1.98993E+01-2.34952E-02-3.09216E-04 8.93223E-02 1.62895E-15 7.89356E-14
 -1       353 1.99291E+01-2.92401E-02-3.86534E-04 6.08586E-02-7.88130E-14-7.80451E-14
 -1       354 1.99478E+01-3.91653E-02-5.06600E-04 2.38254E-02-7.34175E-14-3.61202E-14
 -1       355 1.99518E+01-5.43049E-02-6.74915E-04-2.66113E-02-5.47806E-14-1.02891E-13
 -1       356 1.99358E+01-7.50223E-02-8.86494E-04-9.60506E-02-4.67096E-14-1.08072E-13
 -1       357 1.98927E+01-1.00325E-01-1.11959E-03-1.89821E-01-4.36755E-14-5.49374E-14
 -1       358 1.98134E+01-1.26981E-01-1.33002E-03-3.11140E-01-5.27470E-15-7.93087E-14
 -1       359 1.96881E+01-1.48705E-01-1.44897E-03-4.58371E-01 3.03707E-14 1.03025E-14
 -1       360 1.95072E+01-1.55990E-01-1.39219E-03-6.21667E-01-8.34091E-14-2.80721E-14
 -1       361 1.92652E+01-1.37430E-01-1.08090E-03-7.80050E-01-6.82566E-14-1.24504E-13
 -1       362 1.89652E+01-8.33128E-02-4.75610E-04-9.00875E-01 7.13780E-14-4.05827E-14
 -1       363 1.86245E+01 8.71036E-03 3.94148E-04-9.44192E-01 1.45086E-13-1.09003E-13
 -1       364 1.82775E+01 1.28002E-01 1.40456E-03-8.73533E-01 7.49732E-14-1.02363E-13
 -1       365 1.79742E+01 2.49392E-01 2.36691E-03-6.71359E-01-4.92796E-14-1.99315E-13
 -1       366 1.77688E+01 3.39339E-01 3.06931E-03-3.52643E-01-1.25929E-14-1.62342E-13
 -1       367 1.77040E+01 3.69168E-01 3.34161E-03 3.23589E-02 1.14254E-14-8.87624E-14
 -1       368 1.77939E+01 3.28725E-01 3.09980E-03 4.11152E-01-1.32728E-13-1.58763E-13
 -1       369 1.80191E+01 2.31670E-01 2.39074E-03 7.13445E-01-7.74718E-14-6.32686E-14
 -1       370 1.83340E+01 1.08523E-01 1.38177E-03 8.94438E-01 7.43031E-14-1.94445E-13
 -1       371 1.86839E+01-7.61812E-03 3.13067E-04 9.45255E-01 1.34279E-13-2.01903E-13
 -1       372 1.90213E+01-9.36046E-02-5.89162E-04 8.87779E-01 1.99505E-13 4.92084E-14
 -1       373 1.93147E+01-1.41101E-01-1.19319E-03 7.60134E-01 1.79942E-13 2.95947E-14
 -1       374 1.95498E+01-1.54037E-01-1.47380E-03 6.01730E-01-1.45147E-13 6.50515E-16
 -1       375 1.97257E+01-1.42717E-01-1.48456E-03 4.43584E-01-6.85820E-14 1.28915E-13
 -1       376 1.98492E+01-1.18407E-01-1.31853E-03 3.04937E-01-4.67477E-14 2.48077E-13
 -1       377 1.99306E+01-9.01335E-02-1.06653E-03 1.94319E-01-4.32278E-14 3.86858E-13
 -1       378 1.99802E+01-6.36495E-02-7.97909E-04 1.12630E-01-1.61188E-13 2.87862E-13
 -1       379 2.00075E+01-4.17625E-02-5.55213E-04 5.64232E-02-3.34749E-13 1.93761E-13
 -1       380 2.00198E+01-2.51989E-02-3.57859E-04 2.04902E-02-3.91144E-14 2.39278E-13
 -1       381 2.00229E+01-1.34863E-02-2.09210E-04-4.80705E-04 1.42515E-13 3.59138E-13
 -1       382 2.00208E+01-5.62291E-03-1.03711E-04-1.10430E-02 6.81124E-14 1.69156E-14
 -1       383 2.00161E+01-4.95387E-04-3.34717E-05-1.46800E-02-1.70373E-13-2.31050E-13
 -1       384 2.00107E+01 2.85705E-03 1.17489E-05-1.38319E-02 1.51304E-13-3.07497E-13
 -1       385 2.00056E+01 5.00690E-03 3.39717E-05-1.02400E-02 1.25192E-13-1.50107E-13
 -1       386 2.10681E+01 1.48304E+00 1.96852E-02 3.81847E+00 2.33260E-13-9.01515E-14
 -1       387 1.98847E+01 2.35602E-01 1.11281E-02 3.99075E-01 1.30217E-13 8.42577E-14
 -1       388 1.96032E+01 1.15303E-01 5.85395E-03 1.18766E-01 8.27801E-14 4.21427E-14
 -1       389 1.94697E+01 5.79911E-02 2.73647E-03-3.05553E-02 1.30819E-14 3.66353E-14
 -1       390 1.94317E+01 2.63319E-02 1.17771E-03-1.08209E-01-4.40906E-14 1.42736E-14
 -1       391 1.94499E+01 8.12970E-03 4.68587E-04-1.44551E-01-1.52082E-14 3.05045E-14
 -1       392 1.94995E+01-2.19721E-03 1.30297E-04-1.56661E-01 7.44383E-14 7.32047E-14
 -1       393 1.95649E+01-7.49829E-03-2.59965E-05-1.55005E-01 8.94201E-14 6.29593E-14
 -1       394 1.96403E+01-9.49001E-03-1.02607E-04-1.45998E-01 6.49644E-14 5.99749E-14
 -1       395 1.97133E+01-8.73088E-03-9.94097E-05-1.35490E-01 1.57579E-15-2.35386E-14
 -1       396 1.97861E+01-5.79606E-03-3.38299E-05-1.26998E-01 4.70436E-14-6.79551E-14
 -1       397 1.98593E+01-5.04191E-04 9.88163E-05-1.24104E-01 1.09997E-13-9.93254E-14
 -1       398 1.99363E+01 7.90043E-03 3.22584E-04-1.30932E-01 9.77066E-14-1.53196E-13
 -1       399 2.00230E+01 2.09743E-02 6.82085E-04-1.53109E-01 8.14475E-14-1.35679E-13
 -1       400 2.01282E+01 4.14797E-02 1.25235E-03-1.99081E-01-5.44251E-14-1.50389E-13
 -1       401 2.02650E+01 7.40203E-02 2.14318E-03-2.82006E-01-3.80237E-14-6.39087E-14
 -1       402 2.04515E+01 1.25954E-01 3.47513E-03-4.22468E-01-1.53571E-14-5.67948E-14
 -1       403 2.07116E+01 2.08194E-01 5.34243E-03-6.51665E-01 8.58408E-14-4.86431E-14
 -1       404 2.10943E+01 3.44040E-01 7.46428E-03-1.03798E+00 5.03118E-14-1.69713E-13
 -1       405 2.15961E+01 5.36452E-01 9.05323E-03-1.61098E+00-2.17764E-14-1.99833E-13
 -1       406 2.22551E+01 7.83630E-01 9.06379E-03-2.44380E+00 4.05223E-14-1.54654E-13
 -1       407 2.30894E+01 9.97164E-01 1.07560E-02-3.54383E+00-7.50372E-14-1.84514E-14
 -1       408 2.41328E+01 8.79018E-01 3.02447E-02-4.73525E+00-1.09363E-13 1.43319E-13
 -1       409 2.58072E+01-3.42888E-01 9.18341E-02-5.30437E+00-1.68435E-13 2.67126E-13
 -1       410 2.89482E+01-3.42056E+00 1.20151E-01-4.06098E+00-4.52624E-14-1.89557E-13
 -1       411 2.10693E+01 1.27777E+00 4.23092E-02 5.10651E+00 9.59875E-14-1.46044E-13
 -1       412 3.31400E+01-6.03790E+00-8.34293E-02 1.27777E+00-4.33958E-14-2.91295E-13
 -1       413 2.15637E+01-4.18897E-01 1.19819E-01 5.98486E+00-4.20143E-13-2.21122E-13
 -1       414 2.10136E+01 1.18820E+00 1.29854E-02 2.67641E+00-9.22296E-14-4.73181E-14
 -1       415 2.08680E+01 8.32147E-01 9.94892E-03 1.79813E+00-2.11016E-14 2.25246E-14
 -1       416 2.06786E+01 5.34589E-01 7.34911E-03 1.15394E+00-8.12709E-14 4.54673E-13
 -1       417 2.05088E+01 3.40065E-01 5.00046E-03 7.44785E-01 2.36029E-13 5.56473E-13
 -1       418 2.03670E+01 2.12662E-01 3.23664E-03 4.76849E-01 1.03543E-13 4.25225E-13
 -1       419 2.02575E+01 1.31961E-01 2.03455E-03 3.04380E-01-4.62951E-14 3.00632E-13
 -1       420 2.01765E+01 8.17114E-02 1.25955E-03 1.94328E-01-9.39302E-14 2.11519E-13
 -1       421 2.01182E+01 5.08162E-02 7.77842E-04 1.24273E-01-2.25048E-13 1.61923E-13
 -1       422 2.00768E+01 3.21278E-02 4.84953E-04 7.94256E-02-2.22124E-13 1.68075E-13
 -1       423 2.00478E+01 2.11448E-02 3.08491E-04 5.01397E-02 2.62485E-14 2.39146E-13
 -1       424 2.00276E+01 1.48955E-02 1.96263E-04 3.02745E-02 4.20859E-14 5.60302E-13
 -1       425 2.00136E+01 1.13210E-02 1.38535E-04 1.61660E-02-5.43814E-14 1.03465E-12
 -1       426 2.00069E+01 9.85486E-03 1.98945E-05 9.92870E-03-4.22459E-14 9.71737E-13
 -1       427 2.00039E+01 3.15299E-02 4.85999E-05 2.42515E-02-1.06386E-13-2.40444E-13
 -1       428 2.00066E+01 1.99429E-02 6.77063E-05 1.81720E-02-7.57752E-14 3.56243E-13
 -1       429 1.99985E+01 4.47769E-02-7.97271E-06 2.49029E-02-1.26296E-13-2.12842E-13
 -1       430 1.99942E+01 5.51145E-02-5.43328E-05 2.01729E-02-1.50981E-14-4.40941E-13
 -1       431 1.99918E+01 6.11816E-02-8.08530E-05 1.16463E-02 1.30622E-13-1.03604E-13
 -1       432 1.99915E+01 6.20675E-02-8.89844E-05 1.80960E-03 2.74646E-13-6.67935E-13
 -1       433 1.99930E+01 5.82351E-02-8.02268E-05-7.09460E-03 2.56632E-14-7.95751E-15
 -1       434 1.99953E+01 5.09449E-02-5.94310E-05-1.36015E-02-2.68993E-13 8.35133E-15
 -1       435 1.99978E+01 4.17893E-02-3.36832E-05-1.71930E-02-2.48527E-13 4.65957E-13
 -1       436 1.99997E+01 3.24148E-02-8.02348E-06-1.81490E-02-2.70070E-13 1.70317E-13
 -1       437 2.00011E+01 2.35579E-02 1.48777E-05-1.71840E-02-5.71741E-13-7.92616E-14
 -1       438 2.00022E+01 1.59147E-02 3.72428E-05-1.48934E-02-2.53096E-13-4.72329E-13
 -1       439 2.00037E+01 9.85917E-03 4.60289E-05-1.30657E-02 2.35041E-13 3.05909E-14
 -1       440 1.18841E+00-3.05696E+00 8.71588E-02-2.73155E+00 7.98424E-14 3.67123E-13
 -1       441 2.56130E+00-4.45108E+00-3.08839E-02 2.66031E+00-9.44106E-14 4.91385E-13
 -1       442 2.12832E+01-6.59942E+00-1.01355E-01 5.48761E+00-2.46581E-13 3.84522E-13
 -1       443 3.70149E+01 3.79525E+00 1.25730E-01 2.68849E+00-6.71310E-13-5.79536E-14
 -1       444 3.88352E+01 8.80714E+00 3.34560E-02-4.02435E-02-7.89813E-13 5.44287E-14
 -1       445 1.98029E+01 3.43179E+00-1.78816E-02-1.73719E+00-2.04370E-13-6.93785E-14
 -1       446 3.80458E+01-4.54766E+00-2.27748E-02 1.57897E+00 2.41425E-13-1.67200E-13
 -1       447 2.81997E+01-6.69401E+00-1.26255E-01-3.55073E+00 8.10463E-15-2.09305E-13
 -1       448 1.71642E+01-6.60031E+00-1.74044E-01-5.97740E+00 2.05030E-13 3.83554E-13
 -1       449 6.44048E+00-5.34400E+00-1.05171E-01-4.81006E+00-1.10884E-14-1.22971E-13
 -1       450 1.08834E+00-3.68836E+00 1.50568E-02-4.74891E-01-1.52711E-13-1.42636E-13
 -1       451 1.15902E+00-3.94685E+00 1.14730E-02 3.56887E+00-9.52641E-14-7.09821E-13
 -1       452 6.47185E+00-4.49324E+00 3.67379E-02 7.58420E+00 2.75335E-14-7.64389E-13
 -1       453 1.38373E+01-5.02817E+00 3.30750E-02 8.85331E+00 7.29555E-14-7.54983E-13
 -1       454 2.44907E+01-3.73381E+00 3.08967E-03 7.31085E+00-1.25816E-13-4.79186E-13
 -1       455 3.09826E+01-7.56046E-01 2.44406E-02 5.30219E+00-5.66713E-13-7.51343E-14
 -1       456 3.95866E+01 9.44947E+00 3.27830E-02 4.03051E-02-7.19536E-13-4.84855E-14
 -1       457 2.54469E+01-4.21956E+00 7.37825E-02 4.97955E+00-4.02248E-13-1.19096E-13
 -1       458 3.80793E+01 5.67748E+00 5.98096E-02-1.34875E+00-6.70311E-13 1.15088E-13
 -1       459 3.45760E+01 1.61719E+00 4.56273E-02-3.26690E+00-3.73920E-13 1.47299E-13
 -1       460 2.81987E+01-2.41128E+00 6.75688E-03-6.19545E+00-2.72837E-14 3.28501E-13
 -1       461 1.99658E+01-4.45807E+00-1.77474E-02-8.34553E+00 2.35645E-14 2.72164E-13
 -1       462 1.13952E+01-5.26363E+00-3.46572E-02-8.58650E+00-1.41581E-13 1.03490E-13
 -1       463 3.97995E+00-4.09636E+00 3.71493E-02-6.33320E+00-9.03444E-14 2.42681E-13
 -1       464 9.35659E+00-5.23073E+00-5.53590E-02 5.61091E+00-2.55407E-13 7.59615E-13
 -1       465 3.50180E+01 8.39208E+00-1.22851E-01-8.73323E-01-6.39114E-13-1.36037E-13
 -1       466 3.10217E+01-5.54185E+00 7.56396E-03-2.30870E+00-8.85264E-14-4.96339E-13
 -1       467 4.05185E+01-2.94475E+00 4.80284E-02-1.91789E+00 4.87315E-13-8.42104E-14
 -1       468 2.07203E+01-5.14443E+00 6.04815E-02 8.07080E+00 3.32193E-13-5.90183E-13
 -1       469 1.97327E+01 3.10619E+00-5.36603E-03-6.32887E-01-8.75244E-14-1.59796E-13
 -1       470 1.98291E+01 2.93238E+00-5.82248E-03-9.48564E-01-1.34430E-13-1.19844E-13
 -1       471 1.96649E+01 3.22930E+00-5.01853E-03 8.57638E-03-1.05132E-14-1.99632E-13
 -1       472 1.96837E+01 3.19610E+00-5.10101E-03 3.29583E-01 1.15748E-14-2.31574E-13
 -1       473 1.97378E+01 3.09890E+00-5.41813E-03 6.44516E-01 5.12434E-14-2.30560E-13
 -1       474 1.98367E+01 2.92047E+00-5.99185E-03 9.59808E-01 1.10367E-13-1.89830E-13
 -1       475 1.99923E+01 2.63443E+00-6.77792E-03 1.25513E+00 1.41319E-13-1.77695E-13
 -1       476 2.02188E+01 2.19310E+00-6.61353E-03 1.48655E+00 1.80374E-13-1.18534E-13
 -1       477 2.04939E+01 1.53215E+00-1.53926E-03 1.53500E+00 2.12975E-13-4.53426E-14
 -1       478 2.05315E+01 9.91501E-01 3.53311E-03 1.29509E+00 2.06299E-13 3.18541E-14
 -1       479 2.03444E+01 9.74485E-01 3.14579E-03-9.37918E-01-1.75530E-13 7.62883E-14
 -1       480 1.99268E+01 2.46927E-01 2.37003E-03 1.56142E-01 5.57630E-14-1.21425E-14
 -1       481 2.01137E+01 4.52402E-01 3.38641E-03 4.63671E-01 1.00253E-13-2.36073E-14
 -1       482 2.03981E+01 1.75637E+00-5.89350E-03-1.53484E+00-2.03098E-13 7.70824E-14
 -1       483 1.78582E+01 2.23550E+00 1.41200E-02 2.61434E+00-5.95701E-14 5.92501E-13
 -1       484 2.01726E+01 5.47612E-01 2.34003E-03-4.64720E-01-1.72310E-13 7.93167E-14
 -1       485 2.00264E+01 3.07347E-01 1.23540E-03-1.62991E-01-1.06041E-13 8.70176E-14
 -1       486 1.99270E+01 1.65452E-01 5.54961E-04 2.01334E-02-9.22427E-14 9.66171E-14
 -1       487 1.98696E+01 7.94932E-02 2.31819E-04 1.24840E-01-1.05854E-13 8.82389E-14
 -1       488 1.98438E+01 2.72217E-02 7.80975E-05 1.78681E-01-8.67596E-14 9.84324E-14
 -1       489 1.98396E+01-3.88716E-03-1.48798E-06 2.00169E-01-5.59251E-14 1.22757E-14
 -1       490 1.98491E+01-2.15125E-02-4.46855E-05 2.01687E-01-3.64730E-14 5.55242E-14
 -1       491 1.98667E+01-3.08119E-02-6.84022E-05 1.91369E-01-7.44439E-14 4.74292E-14
 -1       492 1.98884E+01-3.55961E-02-8.26362E-05 1.74259E-01 5.29020E-14 1.02377E-13
 -1       493 1.99119E+01-3.89827E-02-9.54351E-05 1.52989E-01-5.91211E-15 1.59172E-13
 -1       494 1.99356E+01-4.37902E-02-1.14310E-04 1.28149E-01-6.02050E-14 1.82725E-14
 -1       495 1.99587E+01-5.27604E-02-1.46610E-04 9.84622E-02-1.14093E-13-1.28770E-13
 -1       496 1.99808E+01-6.85997E-02-1.99322E-04 6.08393E-02-1.26477E-13-6.64827E-14
 -1       497 2.00012E+01-9.37690E-02-2.77991E-04 1.04565E-02-4.46392E-14-8.42435E-14
 -1       498 2.00191E+01-1.29906E-01-3.84440E-04-5.89874E-02-8.43292E-14-3.24158E-14
 -1       499 2.00322E+01-1.76760E-01-5.13047E-04-1.54572E-01-3.21329E-14 4.67487E-15
 -1       500 2.00365E+01-2.30621E-01-6.45672E-04-2.82681E-01-3.22518E-14 5.49894E-14
 -1       501 2.00249E+01-2.82475E-01-7.47686E-04-4.46407E-01-1.65205E-15-1.42948E-14
 -1       502 1.99867E+01-3.16629E-01-7.62593E-04-6.41669E-01-4.88047E-14-8.10365E-14
 -1       503 1.99084E+01-3.11250E-01-6.30342E-04-8.52457E-01-2.13655E-14 4.06107E-14
 -1       504 1.97767E+01-2.42722E-01-3.12079E-04-1.04678E+00 7.76905E-15 1.15826E-13
 -1       505 1.95853E+01-9.51537E-02 1.73293E-04-1.17652E+00 2.67944E-14-7.83590E-14
 -1       506 1.93440E+01 1.26461E-01 7.42489E-04-1.18539E+00 1.12919E-13-2.06853E-13
 -1       507 1.90862E+01 3.85986E-01 1.20369E-03-1.02739E+00-4.36118E-14-2.23504E-13
 -1       508 1.88666E+01 6.18654E-01 1.43985E-03-6.91429E-01-7.76874E-15-1.29863E-13
 -1       509 1.87440E+01 7.52598E-01 1.41862E-03-2.19242E-01 5.89952E-14-7.57207E-14
 -1       510 1.87557E+01 7.41640E-01 1.21529E-03 2.99138E-01-1.34918E-13-9.38363E-16
 -1       511 1.88987E+01 5.89735E-01 9.45441E-04 7.55781E-01-1.03932E-13 1.14038E-13
 -1       512 1.91304E+01 3.48920E-01 6.37381E-04 1.06628E+00-1.18257E-13-7.41356E-15
 -1       513 1.93909E+01 9.21666E-02 2.98948E-04 1.19727E+00 1.21837E-14-6.26931E-14
 -1       514 1.96278E+01-1.19031E-01-3.05021E-05 1.16694E+00 2.26354E-13-2.80172E-13
 -1       515 1.98117E+01-2.53431E-01-3.07992E-04 1.02490E+00 2.33862E-13-3.71655E-13
 -1       516 1.99358E+01-3.09963E-01-4.91983E-04 8.27540E-01 1.44129E-14-3.58147E-13
 -1       517 2.00088E+01-3.06343E-01-5.61745E-04 6.21102E-01-1.71978E-13-3.66980E-13
 -1       518 2.00447E+01-2.66283E-01-5.42638E-04 4.35222E-01 1.43896E-14-2.96360E-13
 -1       519 2.00571E+01-2.10782E-01-4.68591E-04 2.83979E-01 6.52379E-14-1.41427E-13
 -1       520 2.00566E+01-1.54469E-01-3.71154E-04 1.70252E-01-1.90725E-13-3.04980E-14
 -1       521 2.00500E+01-1.05447E-01-2.72838E-04 9.04239E-02-1.90956E-13-1.08227E-13
 -1       522 2.00412E+01-6.68217E-02-1.86596E-04 3.80736E-02-3.90601E-14 2.09653E-13
 -1       523 2.00323E+01-3.85620E-02-1.17716E-04 6.33942E-03-6.94758E-15 1.40129E-13
 -1       524 2.00242E+01-1.90633E-02-6.58336E-05-1.08357E-02-1.11661E-13-2.91798E-14
 -1       525 2.00172E+01-6.17248E-03-2.90459E-05-1.82301E-02 2.39377E-14 9.97279E-14
 -1       526 2.00113E+01 2.24101E-03 6.82063E-06-1.93298E-02-6.96978E-14 2.12708E-13
 -1       527 2.00072E+01 6.68794E-03 2.77504E-07-1.70705E-02 4.09907E-15 7.49000E-14
 -1       528 1.89189E+01 1.67970E+00 5.81796E-03 1.89568E+00-6.85538E-14 6.22444E-13
 -1       529 2.02883E+01 6.56262E-01 6.17624E-03 8.11045E-01 1.54933E-13-9.45945E-15
 -1       530 1.98131E+01 1.30362E-01 1.01843E-03-2.31936E-02 7.85204E-15-2.89117E-14
 -1       531 1.97569E+01 6.15826E-02 3.78758E-04-1.23372E-01-7.39319E-15-6.76202E-14
 -1       532 1.97407E+01 2.07138E-02 9.99049E-05-1.73764E-01-9.12004E-15-1.35995E-13
 -1       533 1.97502E+01-2.67742E-03-2.99529E-05-1.93657E-01 1.60163E-14-4.21898E-14
 -1       534 1.97770E+01-1.47943E-02-8.37934E-05-1.95730E-01 5.29087E-14 7.22658E-14
 -1       535 1.98113E+01-1.79194E-02-9.86063E-05-1.88988E-01 9.47977E-14 5.87740E-14
 -1       536 1.98505E+01-1.45999E-02-7.20192E-05-1.80478E-01 1.37609E-13-5.10314E-14
 -1       537 1.98924E+01-5.25073E-03-1.13512E-05-1.75639E-01 9.30317E-14-1.78815E-13
 -1       538 1.99361E+01 1.09797E-02 9.30226E-05-1.79758E-01 1.15682E-13-1.93208E-13
 -1       539 1.99819E+01 3.65069E-02 2.59671E-04-1.98969E-01 4.97266E-14-1.93601E-13
 -1       540 2.00298E+01 7.58833E-02 5.22590E-04-2.41403E-01-4.74436E-14 1.23289E-14
 -1       541 2.00793E+01 1.36717E-01 9.35775E-04-3.18634E-01-9.51969E-14 5.77885E-14
 -1       542 2.01266E+01 2.30947E-01 1.57343E-03-4.47438E-01 1.06111E-14-8.11397E-15
 -1       543 2.01620E+01 3.75976E-01 2.46478E-03-6.51716E-01 5.60126E-14-1.08970E-13
 -1       544 2.01595E+01 6.09322E-01 3.89121E-03-9.83034E-01 9.62610E-14-7.45665E-14
 -1       545 2.00682E+01 9.36251E-01 5.28321E-03-1.45366E+00-8.00575E-16-3.29787E-15
 -1       546 1.98055E+01 1.37235E+00 7.15184E-03-2.11875E+00-9.30723E-15-1.15683E-13
 -1       547 1.92448E+01 1.85036E+00 1.14425E-02-3.01401E+00-8.12756E-14-9.15667E-15
 -1       548 1.82762E+01 2.08170E+00 2.98103E-02-4.13738E+00-1.88396E-13 9.76823E-15
 -1       549 1.70160E+01 1.43893E+00 1.38564E-01-5.50759E+00-2.16632E-13-3.71578E-14
 -1       550 2.86894E+01-3.75628E+00-3.68668E-02 4.30475E+00-1.64264E-13 4.27644E-14
 -1       551 9.37571E+00-1.34646E+00 1.88943E-01 5.02872E+00-5.40054E-14 5.45758E-13
 -1       552 6.50060E+00-1.20765E+00 1.58624E-01-3.91558E+00-1.78246E-13-2.73434E-13
 -1       553 1.61479E+01 2.51090E+00 3.96830E-02 3.50178E+00-4.07968E-14 3.87630E-13
 -1       554 1.95379E+01 1.14611E+00 3.52984E-03 1.31444E+00-3.13873E-13 5.61210E-13
 -1       555 1.98397E+01 7.62646E-01 2.55345E-03 9.06911E-01 1.02211E-13 6.48219E-13
 -1       556 1.99829E+01 4.95301E-01 1.66917E-03 6.15376E-01 1.90488E-13 1.00141E-12
 -1       557 2.00419E+01 3.17290E-01 1.06039E-03 4.13292E-01 2.31726E-13 9.36452E-13
 -1       558 2.00591E+01 2.01821E-01 6.58906E-04 2.75988E-01 5.93189E-14 6.57668E-13
 -1       559 2.00571E+01 1.28215E-01 4.04983E-04 1.83850E-01-1.13897E-13 6.67282E-13
 -1       560 2.00476E+01 8.19926E-02 2.47619E-04 1.22336E-01-1.50833E-13 6.70181E-13
 -1       561 2.00362E+01 5.35601E-02 1.62254E-04 8.10926E-02 8.94451E-14 5.28599E-13
 -1       562 2.00252E+01 3.66629E-02 1.45622E-04 5.30837E-02-4.65432E-14 2.27801E-13
 -1       563 2.00154E+01 2.65688E-02 1.08884E-04 3.32591E-02-4.60672E-13 3.41285E-13
 -1       564 1.99901E+01 6.02177E-02-4.00044E-05 3.22466E-02-8.31146E-14 1.53048E-13
 -1       565 1.99829E+01 6.72412E-02-3.78063E-05 2.04380E-02 3.67190E-13-2.09626E-13
 -1       566 2.00009E+01 4.74297E-02-4.44404E-05 3.78546E-02-4.92793E-13-1.85442E-13
 -1       567 1.99806E+01 6.76351E-02-3.92356E-05 5.86001E-03 1.09400E-13-2.93576E-13
 -1       568 1.99827E+01 6.21749E-02-3.90346E-05-8.00044E-03 1.24922E-13-4.96994E-13
 -1       569 1.99875E+01 5.27174E-02-3.23574E-05-1.85796E-02-1.63107E-13-1.99426E-13
 -1       570 1.99932E+01 4.15184E-02-2.18627E-05-2.47170E-02-1.15283E-13 9.37880E-14
 -1       571 1.99982E+01 3.07869E-02-7.83110E-06-2.65948E-02-1.62132E-13 4.46973E-13
 -1       572 2.00019E+01 2.14885E-02 6.40066E-06-2.53569E-02-2.14655E-13-2.86285E-13
 -1       573 2.00042E+01 1.44326E-02 1.29345E-05-2.22725E-02-2.64422E-13 2.01883E-13
 -1       574 1.06897E+01-3.07223E+00 1.51127E-01-8.22991E+00-1.57582E-13-5.99937E-14
 -1       575 3.33100E+01 3.96223E+00-1.60235E-01-1.07960E+00-4.75321E-13-3.17094E-13
 -1       576 5.76058E+00-2.84080E-01 2.16770E-01-4.65789E+00 7.84095E-14 7.75560E-13
 -1       577 4.86754E+00 3.16891E-01 2.11818E-01 1.06982E+00 1.23512E-14 1.50449E-13
 -1       578 3.14331E+01 8.70385E+00-2.40105E-01 4.36589E-01-8.62518E-13 1.11937E-13
 -1       579 1.36774E+01 1.82594E+00 1.35191E-01 4.60613E+00 9.95887E-14 3.79356E-13
 -1       580 1.56047E+01-3.32476E+00 9.59817E-02-6.55941E+00-8.67362E-15 1.66797E-13
 -1       581 1.96805E+01 3.20064E+00-5.09826E-03-3.12461E-01-4.25625E-14-1.82634E-13
 -1       582 3.31897E+01 2.41883E+00-1.19357E-01 5.13697E-01-3.69357E-13-1.18433E-13
 -1       583 3.85591E+00-8.65284E-02 2.02580E-01 1.35874E+00-1.35935E-13-4.60340E-13
 -1       584 1.87330E+01-4.80582E+00 8.82377E-02-8.40539E+00-1.02682E-13 3.41324E-14
 -1       585 1.28305E+01-3.14144E+00 1.65600E-01 8.36819E+00 2.21351E-13-5.53980E-13
 -1       586 3.08813E+01-2.32625E+00-6.19789E-02-2.14722E+00-7.28645E-14 9.77066E-14
 -1       587 6.34550E+00-9.85695E-01 1.91420E-01 5.73558E+00-1.65173E-13-6.32633E-13
 -1       588 3.35271E+01 6.56657E+00-1.65667E-01 1.27483E+00-5.89126E-13-1.11633E-13
 -1       589 3.23074E+01-3.51813E-01-8.79300E-02 1.11906E+00-5.03127E-13-2.63678E-14
 -1       590 2.55260E+01-4.88273E+00 7.08659E-03-6.22137E+00 2.75654E-13 4.18145E-13
 -1       591 1.99796E+01 2.64712E+00-8.15137E-03-1.23898E+00-1.78570E-13-7.89417E-14
 -1       592 1.62888E+01-2.54841E+00 1.37596E-01 6.43920E+00-3.07587E-13 3.66256E-13
 -1       593 2.50959E+01-4.92716E+00 2.65059E-02 5.80226E+00 2.17364E-13-2.47254E-13
 -1       594 2.00056E+01 1.01116E-02-7.79645E-06-1.99135E-02-3.50753E-14 2.94789E-13
 -1       595 1.80597E+01-3.95163E+00 1.02423E-01 7.94260E+00 3.63438E-13-4.35700E-13
 -1       596 2.00182E+01 2.30860E+00-1.50470E-03-6.27168E-01-9.27781E-14-8.76328E-14
 -1       597 1.99600E+01 2.45254E+00-1.59227E-03 3.92705E-01 3.40588E-14-2.03564E-13
 -1       598 1.99277E+01 2.52784E+00-1.51369E-03 1.35020E-01-3.31006E-15-2.11494E-13
 -1       599 2.01208E+01 2.04840E+00-1.67212E-03 8.47652E-01 1.10983E-13-1.49971E-13
 -1       600 2.02413E+01 1.69122E+00-2.07242E-04 9.96435E-01 1.21556E-13-1.38476E-13
 -1       601 1.99781E+01 9.24175E-02 7.70579E-05-1.27407E-01 4.33206E-14-1.33727E-13
 -1       602 2.00304E+01 1.92569E-01 2.38633E-04-2.68100E-02 1.76431E-14-1.29972E-13
 -1       603 2.02793E+01 1.67107E+00-1.59274E-03-1.13135E+00-1.87320E-13-2.52153E-15
 -1       604 2.01086E+01 3.53085E-01 5.18183E-04 1.45447E-01 5.69033E-14-9.37866E-14
 -1       605 2.02844E+01 1.03942E+00 2.93876E-04-6.73121E-01-1.61330E-13 1.66091E-14
 -1       606 1.67884E+01 2.32484E+00 6.00538E-03 1.01628E+00 8.76074E-14 6.30603E-13
 -1       607 2.02340E+01 6.27495E-01 1.61827E-04-3.32209E-01-9.66785E-14 3.83488E-14
 -1       608 2.01666E+01 3.64991E-01-2.83376E-05-9.86491E-02-8.56338E-14 6.69311E-14
 -1       609 2.01061E+01 1.97395E-01-7.83927E-05 5.01051E-02-7.43050E-14 7.44548E-14
 -1       610 2.00595E+01 9.09240E-02-7.49398E-05 1.37425E-01-5.94842E-14 1.38115E-13
 -1       611 2.00267E+01 2.46167E-02-6.29171E-05 1.82515E-01-7.47567E-14 1.87571E-13
 -1       612 2.00056E+01-1.51440E-02-5.22176E-05 1.99803E-01-4.41642E-14 2.00968E-13
 -1       613 1.99936E+01-3.77330E-02-4.48108E-05 1.99610E-01-5.24437E-14 1.37613E-13
 -1       614 1.99887E+01-5.00643E-02-3.99497E-05 1.88925E-01-1.57444E-14 1.67949E-13
 -1       615 1.99896E+01-5.76607E-02-3.76685E-05 1.72050E-01 6.20071E-15 2.94193E-14
 -1       616 1.99959E+01-6.53463E-02-3.86984E-05 1.51016E-01-9.57052E-14-5.25628E-14
 -1       617 2.00081E+01-7.76905E-02-4.40278E-05 1.25811E-01-1.75500E-13 3.80602E-14
 -1       618 2.00278E+01-9.92112E-02-5.47122E-05 9.44389E-02-1.04817E-13-2.57966E-16
 -1       619 2.00572E+01-1.34252E-01-7.16135E-05 5.28781E-02-2.16105E-14 7.47428E-14
 -1       620 2.00994E+01-1.86367E-01-9.50767E-05-4.94845E-03 1.25762E-16 1.02038E-13
 -1       621 2.01568E+01-2.56993E-01-1.24336E-04-8.69931E-02-4.70645E-14 2.01630E-14
 -1       622 2.02308E+01-3.43221E-01-1.56451E-04-2.02335E-01-4.88035E-14 3.91724E-14
 -1       623 2.03186E+01-4.34749E-01-1.84016E-04-3.59322E-01 4.12017E-14 1.39732E-14
 -1       624 2.04109E+01-5.10666E-01-1.97070E-04-5.61931E-01 1.33251E-14 1.71007E-13
 -1       625 2.04891E+01-5.37843E-01-1.58848E-04-8.03787E-01 6.28731E-14 1.91791E-13
 -1       626 2.05259E+01-4.74240E-01-7.19209E-05-1.06029E+00 6.55876E-14 1.88400E-13
 -1       627 2.04911E+01-2.80870E-01 3.53072E-05-1.28172E+00-8.36637E-14 1.91111E-13
 -1       628 2.03663E+01 5.53807E-02 1.32393E-04-1.39397E+00-1.82864E-15 8.38709E-14
 -1       629 2.01641E+01 4.96177E-01 2.69359E-04-1.31630E+00-2.79692E-14 8.15643E-14
 -1       630 1.99393E+01 9.40058E-01 3.52129E-04-9.97685E-01 6.82742E-14 7.81999E-14
 -1       631 1.97757E+01 1.24860E+00 4.37246E-04-4.59817E-01 1.00167E-13 3.30832E-14
 -1       632 1.97441E+01 1.30934E+00 4.41123E-04 1.89895E-01-4.94292E-14 4.04089E-14
 -1       633 1.98596E+01 1.09841E+00 4.49801E-04 7.93449E-01 4.31662E-15 1.11862E-13
 -1       634 2.00709E+01 6.96159E-01 4.39514E-04 1.21390E+00-1.79915E-13 2.49780E-13
 -1       635 2.02933E+01 2.39152E-01 3.38025E-04 1.39200E+00-2.65742E-14 4.13496E-13
 -1       636 2.04562E+01-1.49321E-01 1.70847E-04 1.35222E+00-2.37961E-14 2.70675E-13
 -1       637 2.05291E+01-4.03218E-01-3.58571E-05 1.16854E+00 4.73343E-14 6.37207E-14
 -1       638 2.05199E+01-5.16493E-01-1.92238E-04 9.21671E-01-4.58812E-15-3.40998E-13
 -1       639 2.04560E+01-5.20169E-01-2.33767E-04 6.72889E-01-7.69816E-14-4.53256E-13
 -1       640 2.03673E+01-4.56974E-01-2.11377E-04 4.57220E-01 9.62945E-14-3.86694E-13
 -1       641 2.02768E+01-3.64655E-01-1.62689E-04 2.88055E-01 1.74792E-13-5.40102E-13
 -1       642 2.01975E+01-2.69369E-01-1.12361E-04 1.65155E-01 5.33630E-14-3.58340E-13
 -1       643 2.01346E+01-1.85629E-01-7.04491E-05 8.16204E-02-1.38383E-13-1.52216E-13
 -1       644 2.00882E+01-1.19145E-01-3.90232E-05 2.85180E-02 1.87584E-13-7.56913E-14
 -1       645 2.00559E+01-7.01570E-02-1.78162E-05-2.62676E-03-9.45461E-14-3.31657E-14
 -1       646 2.00343E+01-3.61227E-02-2.28438E-06-1.87587E-02-9.34603E-14 1.46795E-13
 -1       647 2.00205E+01-1.35987E-02 8.03119E-06-2.51338E-02 8.29390E-15 1.86337E-13
 -1       648 2.00116E+01 1.03557E-03 2.50926E-05-2.54908E-02 2.03276E-13 1.67714E-13
 -1       649 8.08108E+00 2.14997E+00 1.81510E-01-1.21608E+00-1.70429E-13 1.85872E-13
 -1       650 1.99481E+01 3.14007E-02 1.71492E-05-1.80691E-01-4.70830E-14-1.29394E-13
 -1       651 1.99346E+01-4.79575E-03-1.96204E-05-2.04212E-01-7.33126E-15-1.26261E-13
 -1       652 1.99333E+01-2.05800E-02-3.21403E-05-2.08712E-01 4.52203E-14-6.70733E-14
 -1       653 1.99394E+01-2.30361E-02-2.77540E-05-2.05014E-01 1.40842E-13-5.56880E-14
 -1       654 1.99496E+01-1.42799E-02-1.46283E-05-2.00091E-01 1.59816E-13-3.40677E-14
 -1       655 1.99608E+01 5.52491E-03 1.11352E-05-1.99780E-01 1.19737E-13-4.33833E-15
 -1       656 1.99699E+01 3.83936E-02 5.32422E-05-2.09639E-01 9.65718E-15 1.09774E-13
 -1       657 1.99721E+01 8.90001E-02 1.19614E-04-2.35708E-01-8.44251E-14 1.37424E-13
 -1       658 1.99594E+01 1.65508E-01 2.23748E-04-2.85229E-01 7.33893E-15 5.79504E-14
 -1       659 1.99179E+01 2.80712E-01 3.87128E-04-3.67178E-01 7.84561E-15-1.03952E-14
 -1       660 1.98234E+01 4.52959E-01 5.55081E-04-4.92578E-01 7.18993E-14-2.19124E-14
 -1       661 1.96193E+01 7.22672E-01 1.01418E-03-6.83435E-01 5.71846E-14-1.06006E-14
 -1       662 1.92475E+01 1.09410E+00 1.37797E-03-9.32192E-01-1.85338E-14 1.80269E-13
 -1       663 1.85844E+01 1.59459E+00 2.36138E-03-1.24918E+00 7.77162E-14 1.42230E-13
 -1       664 1.74489E+01 2.19878E+00 6.54596E-03-1.62487E+00-1.12053E-13 8.36290E-14
 -1       665 1.55938E+01 2.78414E+00 2.59877E-02-2.06917E+00-5.46722E-14-2.79321E-14
 -1       666 1.28328E+01 2.74291E+00 1.03124E-01-2.55578E+00-1.47043E-13-1.42554E-13
 -1       667 1.00182E+01 1.53658E+00 1.76075E-01 3.68061E+00 8.67188E-14 4.43152E-13
 -1       668 2.94591E+01-2.73032E+00-7.06599E-02 1.31340E+00-1.51467E-13 1.10467E-14
 -1       669 1.46391E+01 2.86805E+00 3.28750E-02 1.08744E+00-1.86797E-13 7.01221E-13
 -1       670 2.00244E+01 2.29744E+00-1.66974E-03 6.35897E-01 8.30192E-14-1.68755E-13
 -1       671 1.94292E+01 8.11396E-01 4.88527E-04 5.24744E-01 4.67438E-15 6.07226E-13
 -1       672 1.97008E+01 5.40152E-01 3.24693E-04 3.88124E-01 1.22003E-13 4.44139E-13
 -1       673 1.98527E+01 3.54993E-01 2.10839E-04 2.80613E-01 3.06515E-13 5.94939E-13
 -1       674 1.99347E+01 2.31800E-01 1.31778E-04 1.99945E-01 9.76031E-14 5.65920E-13
 -1       675 1.99769E+01 1.51338E-01 7.62870E-05 1.41134E-01-1.15858E-13 7.41938E-13
 -1       676 1.99970E+01 9.98151E-02 4.49693E-05 9.90179E-02 1.08641E-13 2.01644E-13
 -1       677 2.00049E+01 6.77910E-02 3.97957E-05 6.89479E-02 4.26883E-13-8.14287E-14
 -1       678 2.00028E+01 5.57950E-02 3.28417E-05 5.15263E-02 2.75888E-14-1.26406E-13
 -1       679 3.02780E+01 5.99901E+00-1.72414E-01-1.74653E+00-5.69426E-13-2.48794E-14
 -1       680 1.99668E+01 7.40681E-02-1.33735E-05-8.54101E-03 2.05242E-13-8.00196E-13
 -1       681 1.99727E+01 8.04823E-02-4.58169E-05 3.27096E-02 2.64277E-13 5.78939E-14
 -1       682 1.99654E+01 8.16881E-02-1.27078E-05 1.19334E-02 3.96498E-13-1.86141E-13
 -1       683 1.99861E+01 7.09313E-02-4.03855E-05 4.58368E-02 2.13026E-13 6.16755E-13
 -1       684 1.99745E+01 6.04938E-02-1.46644E-05-2.46209E-02-7.89582E-15-7.09145E-13
 -1       685 1.99849E+01 4.44714E-02-1.03846E-05-3.41136E-02-1.73808E-13-2.13645E-13
 -1       686 1.99949E+01 2.95173E-02-4.08901E-06-3.70070E-02-1.23696E-13 3.67564E-13
 -1       687 2.00025E+01 1.74101E-02 1.23693E-05-3.47544E-02-2.54457E-13 1.55138E-13
 -1       688 2.00070E+01 9.33920E-03 1.97920E-05-2.96539E-02 8.15645E-14 4.48175E-14
 -1       689 1.89576E+01 1.19394E+00 7.19047E-04 6.85352E-01-1.41288E-13 6.93586E-13
 -1       690 2.02137E+01 6.13505E-01 1.29426E-03 4.21146E-01 1.02429E-13-6.69653E-14
 -1       691 3.05879E+01 8.68520E-01-1.10001E-01-1.18809E+00-3.24036E-13-1.98827E-13
 -1       692 1.09518E+01-3.98416E-01 1.46821E-01-6.29776E+00 1.06030E-13 3.28883E-13
 -1       693 8.00401E+00 1.81631E+00 1.81106E-01-2.04317E+00-1.47226E-13-1.56972E-13
 -1       694 7.62049E+00 1.43387E+00 1.79641E-01 2.96102E+00-3.36120E-14-6.31890E-13
 -1       695 2.99863E+01 3.61366E+00-1.39488E-01 2.04758E+00-4.51403E-13 1.22295E-13
 -1       696 3.01705E+01-1.98335E-01-1.00040E-01 7.22237E-01-3.83776E-13 1.56829E-13
 -1       697 1.81434E+01 1.71089E+00 9.20561E-04 8.59850E-01-2.03666E-13 6.69763E-13
 -1       698 2.80988E+01 7.41752E+00-1.69335E-01-5.94427E-01-8.70394E-13 1.54190E-13
 -1       699 1.61563E+01-2.92281E+00 1.01762E-01-7.73896E+00-1.61142E-13-5.86753E-14
 -1       700 2.32368E+01-4.71312E+00 4.84606E-02-6.29841E+00 4.81247E-14 1.53582E-13
 -1       701 2.85822E+01 6.67706E+00-1.55013E-01 1.52544E+00-7.56895E-13 3.57318E-14
 -1       702 2.77371E+01-4.09920E+00-1.23901E-02-3.19830E+00 1.56117E-13 4.84630E-13
 -1       703 1.16493E+01-5.80220E-01 1.60527E-01 6.48096E+00 1.98144E-13-3.20695E-13
 -1       704 2.03091E+01 1.05265E+00 1.00856E-03 8.34424E-01 1.21793E-13-4.91463E-14
 -1       705 1.99266E+01 2.52963E+00-1.50440E-03-1.26445E-01-1.78277E-14-1.66479E-13
 -1       706 2.03348E+01 1.19922E+00-7.18059E-04 1.01335E+00 1.37848E-13-4.29523E-14
 -1       707 1.07954E+01 1.78251E+00 9.26453E-02-3.41706E+00-8.65887E-15 3.04760E-13
 -1       708 2.71608E+01-4.08799E+00-9.58281E-03 3.04191E+00 9.58131E-14-6.22384E-14
 -1       709 2.20795E+01-4.31145E+00 5.11361E-02 6.37822E+00 3.29702E-13-4.62874E-13
 -1       710 1.21196E+01 3.00187E+00 9.87284E-02 1.36450E+00-5.31036E-14 5.07087E-13
 -1       711 2.01077E+01 2.06613E+00-2.24562E-03-8.39816E-01-1.39069E-13-5.92806E-14
 -1       712 2.87546E+01 3.23568E+00-1.01425E-01-2.17933E+00-3.48357E-13 1.25039E-14
 -1       713 1.54422E+01-1.78820E+00 1.01336E-01 6.93733E+00 1.78964E-13-4.22037E-13
 -1       714 1.99564E+01 2.45855E+00-1.54243E-03-3.83347E-01-4.76602E-14-1.23453E-13
 -1       715 2.83851E+01-2.53770E+00-4.96521E-02-4.33437E-01-1.94571E-15 1.68301E-13
 -1       716 1.11730E+01 2.79755E+00 7.75458E-02 8.80271E-01-5.94798E-14-2.73344E-13
 -1       717 2.02743E+01 1.30624E+00-1.61579E-04 6.32613E-01 1.17996E-13-1.53866E-13
 -1       718 2.01730E+01 2.29885E-01 3.09998E-05-3.97339E-02 2.41009E-14-1.11300E-13
 -1       719 2.84247E+01-1.21222E+00-5.92801E-02-6.63876E-01-7.21263E-14-1.80897E-14
 -1       720 2.00921E+01 3.38163E-02-7.42115E-06-1.75692E-01-3.35917E-14-2.02562E-13
 -1       721 2.02196E+01 1.67240E+00-2.05513E-04-8.25837E-01-1.42666E-13-4.14313E-14
 -1       722 2.02901E+01 6.77731E-01 2.22987E-05-2.39998E-01-7.54483E-14 1.94320E-14
 -1       723 2.02615E+01 4.00876E-01 1.85704E-05-5.78046E-02-6.19581E-14 3.06365E-14
 -1       724 2.02214E+01 2.16085E-01-1.72783E-06 6.11392E-02-2.96455E-14 8.39366E-14
 -1       725 2.01802E+01 9.56916E-02-7.45054E-06 1.32089E-01-4.61073E-14 8.78686E-14
 -1       726 2.01425E+01 1.98029E-02-9.34540E-06 1.69002E-01-4.39673E-14 1.33864E-13
 -1       727 2.01105E+01-2.58361E-02-1.02500E-05 1.83155E-01-1.14826E-13 6.86157E-14
 -1       728 2.00848E+01-5.18399E-02-1.04125E-05 1.83026E-01-6.67867E-14 2.91040E-14
 -1       729 2.00660E+01-6.65254E-02-9.35856E-06 1.74555E-01-9.49481E-14-5.71760E-15
 -1       730 2.00547E+01-7.68757E-02-7.53820E-06 1.61502E-01-8.91647E-14-2.89227E-14
 -1       731 2.00525E+01-8.92519E-02-5.28262E-06 1.45693E-01-7.63835E-14-5.37051E-15
 -1       732 2.00622E+01-1.09872E-01-2.97593E-06 1.27114E-01-5.76739E-14 1.77075E-13
 -1       733 2.00880E+01-1.44990E-01-1.28692E-06 1.03816E-01-9.56647E-14 3.20336E-13
 -1       734 2.01354E+01-2.00627E-01-1.68420E-06 7.16282E-02-5.45513E-14 1.40741E-13
 -1       735 2.02116E+01-2.81549E-01-6.70046E-06 2.37500E-02-6.08829E-14 7.38029E-14
 -1       736 2.03236E+01-3.89139E-01-1.99550E-05-4.95964E-02-3.90342E-14 1.99907E-13
 -1       737 2.04762E+01-5.17812E-01-4.36491E-05-1.60955E-01 2.18682E-14 2.46267E-13
 -1       738 2.06680E+01-6.50028E-01-7.15676E-05-3.23981E-01 8.87126E-14 1.93881E-13
 -1       739 2.08858E+01-7.50889E-01-1.01086E-04-5.48853E-01 1.57041E-13 1.99232E-13
 -1       740 2.10992E+01-7.65384E-01-1.45206E-05-8.33063E-01 2.93602E-14 2.63887E-13
 -1       741 2.12598E+01-6.24879E-01 8.96853E-05-1.14748E+00-1.91054E-14 1.74537E-13
 -1       742 2.13119E+01-2.69387E-01 1.07841E-04-1.42119E+00-1.31900E-13 1.80484E-13
 -1       743 2.12212E+01 3.05963E-01-7.34899E-05-1.54266E+00 3.45980E-14 1.22483E-13
 -1       744 2.10097E+01 1.00893E+00 2.86305E-04-1.39076E+00-3.61361E-14 1.91613E-14
 -1       745 2.07754E+01 1.63319E+00 3.05824E-04-9.07001E-01-2.73393E-14-1.39810E-13
 -1       746 2.06465E+01 1.94731E+00 3.79220E-04-1.67918E-01 2.47800E-14-2.87152E-13
 -1       747 2.07023E+01 1.81438E+00 1.69200E-04 6.22546E-01 2.93769E-14-3.68787E-13
 -1       748 2.09082E+01 1.29327E+00-5.61064E-05 1.23020E+00-1.92791E-14-2.06509E-13
 -1       749 2.11444E+01 5.95370E-01 9.26569E-05 1.51984E+00 1.75711E-14 2.71091E-14
 -1       750 2.12928E+01-4.99172E-02 2.52944E-04 1.50024E+00 6.18983E-14 2.18445E-13
 -1       751 2.12983E+01-4.98482E-01 1.31756E-04 1.27631E+00-1.74073E-13 1.34324E-13
 -1       752 2.11765E+01-7.20468E-01-1.34099E-04 9.70504E-01-2.41365E-13 4.27202E-14
 -1       753 2.09783E+01-7.58774E-01-1.94823E-04 6.71871E-01-1.69307E-13-2.04822E-13
 -1       754 2.07571E+01-6.82016E-01-1.71132E-04 4.25639E-01-8.78581E-14-3.96443E-13
 -1       755 2.05511E+01-5.52286E-01-1.20040E-04 2.43902E-01 1.44368E-13-3.89272E-13
 -1       756 2.03800E+01-4.12872E-01-7.83329E-05 1.20649E-01 3.14320E-13-2.09301E-13
 -1       757 2.02493E+01-2.88021E-01-4.95433E-05 4.30902E-02 1.12998E-13 5.82782E-14
 -1       758 2.01559E+01-1.87696E-01-2.94630E-05-1.94996E-03-3.57186E-14 2.58536E-13
 -1       759 2.00929E+01-1.13069E-01-1.67234E-05-2.53700E-02 1.37538E-13-2.59386E-14
 -1       760 2.00527E+01-6.08513E-02-6.38637E-06-3.52327E-02 8.29416E-14 2.39056E-13
 -1       761 2.00282E+01-2.60457E-02 1.50529E-05-3.67824E-02-7.07661E-14 3.15645E-13
 -1       762 2.00147E+01-4.63210E-03 1.20013E-05-3.44473E-02 1.10252E-13 2.35945E-13
 -1       763 2.01287E+01 1.09432E-01-4.92080E-06-1.27437E-01 2.26539E-14-1.20102E-13
 -1       764 1.26824E+01 2.69964E+00 4.97899E-02-1.10332E+00-2.26898E-13 9.80778E-14
 -1       765 2.00431E+01-2.47918E-02-1.01190E-05-2.01615E-01 5.09564E-14-1.67183E-13
 -1       766 2.00262E+01-2.36788E-02-8.68175E-06-1.99492E-01 1.09626E-13-4.38972E-14
 -1       767 2.00101E+01-6.79926E-03-4.47156E-06-1.96278E-01 7.57367E-14 4.51468E-14
 -1       768 1.99908E+01 2.61483E-02 1.78934E-06-1.96730E-01 5.73425E-15 5.15519E-14
 -1       769 1.99618E+01 7.83032E-02 1.01943E-05-2.04694E-01-1.02167E-14-2.58340E-15
 -1       770 1.99132E+01 1.56127E-01 2.22591E-05-2.23238E-01-8.10502E-14-1.28549E-14
 -1       771 1.98290E+01 2.70069E-01 4.24059E-05-2.54301E-01-5.79699E-15 1.55200E-13
 -1       772 1.96839E+01 4.34885E-01 3.01283E-06-2.97908E-01 8.31944E-14 9.15481E-14
 -1       773 1.94201E+01 6.84051E-01 1.14583E-04-3.50944E-01 7.00332E-14 8.30491E-14
 -1       774 1.89935E+01 1.01601E+00 7.77473E-05-3.93018E-01-9.05948E-14 1.48580E-13
 -1       775 1.82958E+01 1.45316E+00 3.58929E-04-3.95234E-01 5.99844E-14 1.20611E-13
 -1       776 1.71766E+01 1.98137E+00 2.50036E-03-3.01168E-01 2.27235E-14 1.13502E-13
 -1       777 1.54489E+01 2.51087E+00 5.79949E-03-2.88991E-02 6.11668E-14-2.10069E-14
 -1       778 1.20777E+01-2.24233E-01 2.08658E-01-5.07963E+00-2.42435E-13-9.41330E-14
 -1       779 1.97787E+01 3.34757E-01 1.83032E-06 1.44181E-01 2.07105E-13 3.29889E-13
 -1       780 1.93347E+01 7.20895E-01-2.15917E-05 1.77638E-01 1.39873E-13 6.27738E-14
 -1       781 1.98785E+01 2.25024E-01-1.32727E-05 1.16057E-01-2.41767E-13 2.99941E-13
 -1       782 1.99363E+01 1.51723E-01-6.63696E-06 9.00747E-02 2.67374E-13 2.98154E-13
 -1       783 1.99689E+01 1.03924E-01 1.42049E-05 6.86032E-02 4.02204E-13 3.92962E-13
 -1       784 1.99791E+01 8.51984E-02 4.54482E-05 5.61435E-02 1.59775E-13 4.95245E-13
 -1       785 1.99888E+01 2.96608E-02-3.69121E-06-5.21933E-02 3.99312E-13 2.07209E-14
 -1       786 1.99710E+01 5.27821E-02-4.15712E-06-4.77673E-02 2.35870E-13-2.91408E-13
 -1       787 1.99540E+01 7.66834E-02-9.98174E-06-3.28728E-02 1.76123E-13-1.01347E-12
 -1       788 2.00032E+01 1.13281E-02 1.87973E-05-4.83111E-02 4.02348E-14 1.37113E-13
 -1       789 2.00103E+01 1.19609E-03-8.85860E-05-4.21031E-02 9.67958E-14 1.31713E-13
 -1       790 2.71047E+01 5.70501E+00-1.04101E-01-1.63170E+00-7.00169E-13 2.23844E-13
 -1       791 1.26191E+01 1.35514E+00 8.31878E-02 4.00608E+00 1.12815E-13-2.00111E-13
 -1       792 1.88882E+01 1.02904E+00-1.64188E-04 1.45858E-01 5.21960E-14-4.81323E-14
 -1       793 2.02698E+01 7.05871E-01 1.05800E-03 3.29263E-01 8.92822E-14-1.55413E-13
 -1       794 1.99437E+01 9.60340E-02 2.44134E-05-8.26657E-03-8.94848E-14-5.41639E-13
 -1       795 1.53119E+01 2.40225E+00 1.19046E-02-5.78274E-01-6.32191E-14-4.37344E-14
 -1       796 1.99452E+01 1.05357E-01-2.42469E-05 2.22645E-02 2.63871E-14 2.33275E-13
 -1       797 2.59797E+01 6.14277E+00-8.66129E-02 6.00635E-01-6.28574E-13 1.68222E-13
 -1       798 2.00640E+01-7.80478E-03-4.59830E-06-1.96612E-01-3.02994E-14-2.15813E-13
 -1       799 2.02868E+01 1.08683E+00 9.25277E-05-4.96686E-01-1.04942E-13 1.63984E-14
 -1       800 2.02249E+01 4.12224E-01-4.45035E-04 1.05903E-01 4.23601E-14-1.28259E-13
 -1       801 2.80268E+01 1.02365E+00-5.90382E-02 1.93594E+00-3.17801E-13-9.27088E-14
 -1       802 2.01378E+01 1.89339E+00-3.35911E-04 1.97868E-01-3.95873E-15-1.52287E-13
 -1       803 2.52108E+01-4.10040E+00 1.45466E-02-3.82089E+00 1.49388E-13 3.48545E-13
 -1       804 2.04638E+01-3.27223E+00 4.37764E-02-6.14312E+00 7.21870E-14-5.07684E-14
 -1       805 1.96112E+01 4.94414E-01 4.35140E-06 1.68800E-01 6.23406E-14-4.45129E-15
 -1       806 2.70330E+01 4.01369E+00-8.16148E-02 2.16437E+00-3.44832E-13-1.60963E-13
 -1       807 1.51644E+01-9.46070E-01 7.37934E-02-6.21594E+00-6.05679E-14-3.81709E-14
 -1       808 2.74008E+01-2.77149E+00-2.11793E-02 7.07414E-01 1.59481E-13 1.45561E-14
 -1       809 2.01709E+01 1.77918E+00-3.98035E-04 3.79325E-01 4.98888E-14-1.39078E-13
 -1       810 2.02202E+01 1.58401E+00-2.28560E-04 5.31711E-01 8.27099E-14-1.57276E-13
 -1       811 2.46964E+01-4.10412E+00 1.51891E-02 4.14873E+00 3.00136E-13-8.91602E-14
 -1       812 2.51567E+01 5.53292E+00-5.50849E-02-5.43743E-01-7.15357E-13 1.93079E-13
 -1       813 1.99601E+01 9.84913E-02 2.79761E-05 4.21456E-02-1.15795E-14 2.63872E-13
 -1       814 1.48017E+01 2.60178E-01 5.79397E-02 4.89971E+00 1.88362E-13-4.69329E-13
 -1       815 2.01257E+01 1.93197E+00-3.20064E-04 2.81317E-03-2.31957E-14-1.84945E-13
 -1       816 1.89952E+01-2.70236E+00 5.40185E-02 6.33970E+00 1.58597E-13-5.10555E-13
 -1       817 2.74344E+01 8.16537E-01-5.21863E-02-1.94630E+00-2.27986E-13 2.07452E-13
 -1       818 1.70716E+01 1.92894E+00-3.40567E-04-9.37113E-02-1.52553E-13 2.55945E-13
 -1       819 2.01667E+01 1.78639E+00-4.51302E-04-3.73813E-01-4.92630E-14-8.28797E-14
 -1       820 2.64003E+01-3.27287E+00-1.73166E-02-1.46438E+00 2.36723E-13 5.66318E-14
 -1       821 2.02151E+01 1.59720E+00 1.20216E-05-5.26971E-01-9.33541E-14-4.51901E-14
 -1       822 1.81608E+01 1.43191E+00-5.15074E-04 2.81352E-02-1.77255E-13 6.88481E-14
 -1       823 1.38144E+01 1.03009E+00 6.32242E-02-4.19896E+00 7.28332E-14 2.42610E-13
 -1       824 2.62731E+01 3.47367E+00-4.90977E-02-2.10833E+00-3.56583E-13 1.72399E-13
 -1       825 2.02690E+01 2.39006E-01-2.99089E-05-5.43131E-02 1.77811E-14-8.54029E-14
 -1       826 2.03283E+01 3.98260E-01 4.12506E-05-1.81291E-02-1.49069E-14-6.16729E-14
 -1       827 2.02996E+01 2.09461E-01-1.23517E-05 6.79254E-02-9.55602E-15-1.04443E-14
 -1       828 2.02607E+01 8.57001E-02-2.97403E-06 1.19524E-01-4.57154E-14 3.24729E-14
 -1       829 2.02194E+01 7.68650E-03 7.01161E-08 1.46256E-01-9.91025E-14 5.45426E-14
 -1       830 2.01797E+01-3.87742E-02-2.55527E-08 1.56630E-01-1.18130E-13 5.97173E-14
 -1       831 2.01447E+01-6.49080E-02 6.60459E-07 1.57253E-01-1.11225E-13 3.48098E-14
 -1       832 2.01165E+01-7.99226E-02 1.53104E-06 1.53008E-01-1.31773E-13 2.52737E-14
 -1       833 2.00977E+01-9.18902E-02 1.65148E-06 1.47252E-01-5.29630E-14-2.43899E-15
 -1       834 2.00916E+01-1.08476E-01 1.17136E-06 1.41939E-01-1.73483E-16 1.00368E-14
 -1       835 2.01033E+01-1.37453E-01 4.88953E-07 1.37562E-01 7.42262E-14 7.19740E-14
 -1       836 2.01399E+01-1.86910E-01-1.37023E-06 1.32837E-01-2.98808E-14 2.74460E-13
 -1       837 2.02111E+01-2.64896E-01-6.32506E-06 1.23986E-01-7.85351E-14 3.06752E-13
 -1       838 2.03289E+01-3.78029E-01-1.85074E-05 1.03585E-01-1.34765E-14 2.51538E-13
 -1       839 2.05064E+01-5.28432E-01-4.38895E-05 5.91539E-02 7.83226E-15 3.72046E-13
 -1       840 2.07540E+01-7.08340E-01-8.16542E-05-2.78869E-02 6.21251E-14 4.65666E-13
 -1       841 2.10732E+01-8.92072E-01-1.09740E-04-1.81464E-01 6.35394E-14 3.98036E-13
 -1       842 2.14466E+01-1.02624E+00-1.79198E-04-4.25153E-01 1.16382E-13 2.24276E-13
 -1       843 2.18274E+01-1.02369E+00 2.11579E-04-7.66796E-01-2.93515E-14 2.59295E-13
 -1       844 2.21347E+01-7.72498E-01 4.38933E-04-1.17572E+00-8.49418E-14 2.51216E-13
 -1       845 2.22728E+01-1.83158E-01-7.04922E-04-1.54128E+00-1.52440E-13 3.32140E-13
 -1       846 2.21847E+01 7.35350E-01-1.52942E-03-1.68684E+00-8.26411E-14 2.13578E-13
 -1       847 2.19238E+01 1.78240E+00 3.82665E-04-1.41457E+00-4.90497E-14 1.77811E-13
 -1       848 2.16684E+01 2.56208E+00-1.43937E-04-6.92753E-01-1.04414E-13 3.07575E-14
 -1       849 2.16171E+01 2.71219E+00 2.19963E-05 2.94269E-01-1.21496E-13-3.29333E-14
 -1       850 2.18051E+01 2.16015E+00-1.49357E-03 1.16687E+00 7.68077E-14-1.57050E-13
 -1       851 2.20895E+01 1.17520E+00-1.85660E-03 1.63283E+00 1.15057E-14-3.47964E-13
 -1       852 2.22637E+01 1.71052E-01-9.01251E-05 1.64367E+00 1.19759E-13-4.85343E-13
 -1       853 2.22173E+01-5.64183E-01 4.86848E-04 1.34353E+00-5.47411E-14-5.45297E-13
 -1       854 2.19681E+01-9.45472E-01-1.95717E-04 9.38379E-01-2.52301E-13-3.41489E-13
 -1       855 2.16058E+01-1.03362E+00-2.41892E-04 5.64551E-01-2.48203E-13-3.60321E-13
 -1       856 2.12200E+01-9.39297E-01-1.75931E-04 2.82991E-01-2.62732E-13-3.96748E-13
 -1       857 2.08720E+01-7.62015E-01-7.37387E-05 9.92750E-02 7.95383E-14-2.71095E-13
 -1       858 2.05902E+01-5.68922E-01-2.20982E-05-5.97124E-03 3.40087E-13-1.14400E-13
 -1       859 2.03794E+01-3.96263E-01-8.11975E-06-5.75053E-02 1.49993E-13-2.66652E-13
 -1       860 2.02316E+01-2.58175E-01 7.99187E-07-7.63748E-02 9.55162E-14-3.88442E-13
 -1       861 2.01335E+01-1.55953E-01 5.13105E-06-7.74200E-02 8.17887E-14-2.04015E-13
 -1       862 2.00719E+01-8.47386E-02 8.03338E-06-7.00205E-02 1.91502E-13-2.98275E-13
 -1       863 2.00357E+01-3.78023E-02 1.19330E-05-5.95899E-02 2.45296E-13-2.14320E-13
 -1       864 2.00198E+01-1.49743E-02-8.29907E-05-5.05476E-02-3.13855E-14 8.51505E-14
 -1       865 2.00768E+01-2.07174E-02-2.87255E-06-1.74319E-01 2.81498E-14-8.62182E-14
 -1       866 2.02290E+01 1.07632E-01 1.17137E-06-1.23005E-01 2.35236E-14-8.71317E-14
 -1       867 2.01131E+01-2.76284E-02-4.41832E-06-1.77690E-01 4.60374E-14-1.28430E-13
 -1       868 1.99900E+01 5.06372E-02-3.14674E-06-1.62771E-01 3.97933E-14-6.79416E-14
 -1       869 1.99253E+01 1.18926E-01-8.26167E-06-1.56980E-01-9.45683E-14-4.62503E-15
 -1       870 1.98301E+01 2.16484E-01-1.57591E-05-1.48625E-01-1.13260E-13-8.09828E-15
 -1       871 1.96845E+01 3.52305E-01-8.06882E-05-1.30992E-01 1.06742E-13 2.74550E-15
 -1       872 1.94439E+01 5.48524E-01-1.38585E-05-8.61806E-02 8.19957E-14-1.86836E-14
 -1       873 1.90847E+01 7.96528E-01-6.40322E-05 9.25462E-03 4.71303E-15-1.42911E-13
 -1       874 1.85369E+01 1.10452E+00 1.64175E-05 2.02625E-01-3.03791E-14-2.15164E-13
 -1       875 1.77183E+01 1.44932E+00 1.12106E-03 5.69751E-01 6.68732E-14-1.75996E-13
 -1       876 1.65262E+01 1.75744E+00 6.66331E-03 1.22450E+00 5.75449E-14-2.99095E-13
 -1       877 1.94204E+01 5.58133E-01-3.11350E-05-6.42297E-02 1.74558E-13-8.21031E-14
 -1       878 2.03063E+01 1.06530E+00 1.33862E-04-3.29820E-01-7.76848E-14-2.80765E-14
 -1       879 2.03144E+01 9.38685E-01 2.32973E-04 3.24843E-01 8.17118E-14-1.12045E-13
 -1       880 1.98681E+01 1.96059E-01-1.13936E-04 4.56771E-02-3.73204E-14-1.64885E-13
 -1       881 1.96396E+01 3.97528E-01-7.58573E-05 6.00538E-03 3.49949E-14-1.60509E-13
 -1       882 2.27652E+01-3.13931E+00 1.55662E-02-4.02170E+00 3.19719E-13-3.34789E-14
 -1       883 1.97804E+01 2.79322E-01-8.29896E-05 3.64561E-02 5.43197E-15-1.18639E-13
 -1       884 1.99779E+01 3.34370E-02-1.35439E-05-7.58700E-02 4.50598E-13-1.51817E-14
 -1       885 2.66840E+01-1.29682E+00-2.00023E-02 9.68536E-01 6.74101E-14-3.38583E-13
 -1       886 2.00032E+01 4.24602E-03 4.69363E-05-7.02031E-02 4.95398E-13-9.87231E-14
 -1       887 1.99482E+01 6.92434E-02-2.61645E-05-6.82352E-02 3.44256E-13-7.13354E-13
 -1       888 2.01496E+01-1.31640E-02-2.18881E-06-1.74753E-01-4.17348E-15-1.14384E-13
 -1       889 1.99227E+01 1.04496E-01-1.01186E-05-4.37728E-02-5.30012E-15-3.76052E-13
 -1       890 1.90875E+01 7.64154E-01-1.03263E-04-2.06173E-01 6.12994E-14-1.30081E-13
 -1       891 1.57033E+01 1.41076E+00 1.11240E-02-2.71004E+00-3.41359E-14 2.03735E-14
 -1       892 2.00377E+01 5.21345E-03-7.60506E-07-1.68609E-01 5.70096E-14-1.39276E-14
 -1       893 2.01359E+01 1.89679E+00-3.38746E-04-1.92016E-01-3.07142E-14-1.22460E-13
 -1       894 1.99092E+01 1.30911E-01-1.51268E-04-6.30814E-03-1.91580E-13-2.51406E-13
 -1       895 2.01885E+01 2.88382E-02-4.01126E-06-1.59291E-01-1.73607E-14-1.09950E-13
 -1       896 2.03360E+01 6.74306E-01 1.58186E-04-1.48065E-01-6.80077E-14-5.18567E-14
 -1       897 2.46290E+01 4.20227E+00-3.26449E-02 1.49234E+00-2.70731E-13-2.94302E-13
 -1       898 1.85369E+01-1.50366E+00 2.01247E-02-5.19061E+00 1.67373E-13-3.25416E-13
 -1       899 2.57324E+01 1.79043E+00-3.37927E-02 2.15242E+00-2.03198E-13-4.77740E-13
 -1       900 1.48722E+01 1.86833E+00 2.40715E-02 2.32553E+00 1.18632E-13-1.32853E-13
 -1       901 2.46024E+01 4.19737E+00-2.92288E-02-1.47568E+00-6.10721E-13 2.67427E-13
 -1       902 2.64891E+01-1.25830E+00-1.88833E-02-9.79722E-01 6.00006E-14 3.19665E-13
 -1       903 2.58365E+01-3.38013E+00-2.80738E-04 1.92421E+00 3.09851E-13 9.15461E-14
 -1       904 2.02812E+01 1.34705E+00-1.54844E-04-1.91081E-01-4.89535E-14-7.99713E-14
 -1       905 2.02840E+01 1.34338E+00-3.85520E-05 1.94531E-01 1.42875E-14-1.01828E-13
 -1       906 1.85798E+01 1.01424E+00 4.04203E-04-4.79082E-01-1.04075E-13-2.87259E-13
 -1       907 1.72497E+01-7.86717E-01 2.73173E-02 5.04856E+00 1.48499E-13-4.27733E-13
 -1       908 2.38469E+01 4.48160E+00-3.11878E-02 6.01323E-01-3.35558E-13-2.77043E-13
 -1       909 1.99322E+01 1.27037E-01 6.63570E-05 3.91880E-02 1.28057E-13-9.40475E-14
 -1       910 2.19568E+01-3.23490E+00 2.16065E-02 4.91139E+00 2.60100E-13-2.16527E-13
 -1       911 2.02731E+01 1.41237E+00-6.38514E-05 6.78963E-02 6.87445E-15-1.77543E-13
 -1       912 1.70252E+01 1.45282E+00 5.26944E-03-1.53195E+00-1.62584E-13 6.60422E-14
 -1       913 2.03034E+01 4.33443E-01 3.74515E-04 5.67422E-02 8.84954E-15-9.78875E-14
 -1       914 1.55131E+01 7.39517E-01 2.81838E-02 3.89884E+00 1.28196E-13-4.77030E-13
 -1       915 2.42746E+01-3.10701E+00-2.93887E-03-2.30714E+00 4.67751E-13-1.32377E-14
 -1       916 2.02970E+01 1.22634E+00 1.36958E-04-2.72256E-01-6.79533E-14-2.54073E-14
 -1       917 1.67690E+01 1.28550E-01 2.26573E-02-4.14123E+00 2.73610E-13-1.40922E-13
 -1       918 2.03055E+01 1.17205E+00 4.40319E-06 2.82889E-01 5.13556E-14-8.97438E-14
 -1       919 2.03491E+01 1.82073E-01 4.24233E-06 6.54783E-02-3.71788E-14-2.74763E-14
 -1       920 2.03092E+01 6.40618E-02 1.99330E-06 9.82545E-02-4.84773E-14-1.72739E-14
 -1       921 2.02637E+01-9.14701E-03 5.30070E-07 1.15512E-01-6.85029E-14 1.83107E-14
 -1       922 2.02180E+01-5.14657E-02 8.90767E-07 1.23170E-01-1.27030E-13 5.34903E-14
 -1       923 2.01761E+01-7.41535E-02 1.78415E-06 1.26261E-01-1.17912E-13 8.33129E-14
 -1       924 2.01413E+01-8.67669E-02 3.72413E-06 1.28912E-01-3.12297E-14 1.66155E-13
 -1       925 2.01173E+01-9.80174E-02 4.69991E-06 1.34478E-01 3.74537E-15 2.39555E-13
 -1       926 2.01089E+01-1.16556E-01 5.31249E-06 1.45617E-01 6.93236E-14 1.89525E-13
 -1       927 2.01231E+01-1.51554E-01 7.46841E-06 1.64130E-01 1.22145E-13 1.45436E-13
 -1       928 2.01700E+01-2.13175E-01 9.96784E-06 1.90336E-01-6.86054E-15 1.87885E-13
 -1       929 2.02641E+01-3.12280E-01 1.13722E-05 2.21729E-01-1.85436E-14 2.84751E-13
 -1       930 2.04240E+01-4.58896E-01 3.36336E-06 2.50678E-01 7.49986E-14 3.00815E-13
 -1       931 2.06717E+01-6.58157E-01-2.52673E-05 2.61156E-01 9.68507E-14 3.11465E-13
 -1       932 2.10277E+01-9.02525E-01-7.07764E-05 2.25333E-01 7.14826E-14 3.41948E-13
 -1       933 2.15020E+01-1.15896E+00-6.04004E-05 1.01670E-01-6.85865E-14 3.60432E-13
 -1       934 2.20771E+01-1.35017E+00-2.23451E-04-1.60201E-01 5.51708E-14 2.44648E-13
 -1       935 2.26793E+01-1.34637E+00-6.86086E-04-5.87815E-01 5.09879E-15 2.32195E-13
 -1       936 2.31746E+01-9.35873E-01-1.21613E-03-1.14418E+00 4.38973E-14 5.30008E-13
 -1       937 2.34114E+01-4.81563E-03-5.56160E-04-1.66009E+00-5.32004E-14 7.40453E-13
 -1       938 2.33361E+01 1.44595E+00 1.33176E-03-1.86197E+00-1.61991E-13 7.24266E-13
 -1       939 2.29778E+01 2.92133E+00-1.08063E-02-1.37494E+00-3.04626E-13 3.73515E-13
 -1       940 2.28488E+01 3.34381E+00-9.51378E-03 9.70534E-01-1.61072E-13-1.63504E-13
 -1       941 2.31614E+01 2.08536E+00-7.02067E-03 1.74415E+00 5.20721E-15-3.90545E-13
 -1       942 2.34172E+01 5.45002E-01 2.54197E-03 1.80023E+00-8.92103E-14-4.57811E-13
 -1       943 2.33251E+01-6.23981E-01-1.82362E-03 1.38124E+00 6.12739E-14-6.11896E-13
 -1       944 2.29121E+01-1.21874E+00-7.40567E-04 8.16612E-01 1.08132E-14-4.01920E-13
 -1       945 2.23270E+01-1.36536E+00-6.11831E-04 3.21825E-01-1.68742E-13-3.56766E-13
 -1       946 2.17250E+01-1.23369E+00-3.95667E-04-4.51029E-03-1.59489E-13-2.68154E-13
 -1       947 2.12010E+01-9.85777E-01-7.18929E-05-1.75970E-01 1.00598E-14-6.37266E-15
 -1       948 2.07905E+01-7.22345E-01 4.00012E-05-2.38090E-01 1.51836E-13-2.24812E-14
 -1       949 2.04934E+01-4.93354E-01 3.07424E-05-2.36815E-01 2.50113E-13-1.17741E-13
 -1       950 2.02909E+01-3.15023E-01 2.34653E-05-2.06051E-01 2.46427E-13 1.74625E-13
 -1       951 2.01604E+01-1.86097E-01 3.27073E-05-1.66203E-01 7.10915E-14 2.01142E-13
 -1       952 2.00807E+01-9.82709E-02 5.10808E-05-1.27720E-01 1.37060E-14-4.86799E-14
 -1       953 2.00349E+01-4.10851E-02 6.25956E-05-9.50976E-02 1.31801E-13-2.22331E-13
 -1       954 2.03594E+01 7.98829E-01 4.32897E-04-1.32761E-01-6.70498E-14-2.03010E-14
 -1       955 2.03320E+01 2.20740E-01-9.91326E-05-6.15566E-02 2.27274E-14-5.79332E-14
 -1       956 2.01507E+01-3.02417E-02-4.88451E-06-1.38820E-01 3.41117E-14-9.81995E-14
 -1       957 1.98844E+01 1.42436E-01-3.91348E-06-6.62534E-02-4.87433E-14-1.13965E-13
 -1       958 1.99735E+01 6.83172E-02-1.31737E-06-9.77029E-02-1.55447E-14-1.12618E-14
 -1       959 1.95837E+01 3.72252E-01 5.71086E-05 7.89271E-02 5.41346E-14-1.41295E-13
 -1       960 1.93346E+01 5.28077E-01 4.09879E-05 2.36196E-01 7.60650E-14-1.04738E-13
 -1       961 1.89853E+01 7.01623E-01 7.36170E-05 5.02957E-01 5.73416E-14-6.91652E-14
 -1       962 1.85108E+01 8.60882E-01 2.86061E-04 9.44429E-01 1.87501E-14-2.12290E-13
 -1       963 1.79003E+01 9.33103E-01 1.70266E-03 1.65153E+00 1.29603E-13-2.38499E-13
 -1       964 1.95768E+01 3.81129E-01-6.19574E-05-1.94587E-01 7.38385E-14-3.97080E-13
 -1       965 2.00011E+01-2.90691E-03-6.91251E-05-1.04953E-01 3.22547E-13 1.39779E-13
 -1       966 1.99585E+01 4.41792E-02 1.52983E-04-1.13237E-01 3.32428E-13-3.43554E-14
 -1       967 2.01996E+01-2.08217E-02-2.15518E-06-1.40214E-01 3.65354E-14-9.32182E-14
 -1       968 1.99111E+01 9.85093E-02 1.51520E-05-9.75069E-02-6.31682E-14-5.50478E-13
 -1       969 1.93722E+01 4.91000E-01-5.53840E-06-3.74559E-01 5.91404E-14-3.99073E-13
 -1       970 2.02722E+01 1.41367E+00-8.56877E-05-6.54875E-02-5.54453E-15-1.13633E-13
 -1       971 1.98733E+01 1.50710E-01 1.55305E-04-5.71791E-02-1.52045E-14-3.72303E-13
 -1       972 2.48289E+01-1.14434E-01-6.52141E-05 1.68548E+00-1.68989E-13-7.05156E-13
 -1       973 1.97620E+01 2.41394E-01-2.48850E-05-1.40027E-02-5.90345E-14-1.69383E-13
 -1       974 2.03759E+01 3.60456E-01-3.15741E-04 9.14968E-03 1.50037E-14-7.58951E-15
 -1       975 2.57909E+01-2.22865E+00-2.84937E-03 1.54598E-02 2.64235E-13 5.86532E-14
 -1       976 2.06840E+01-1.74060E+00-5.10276E-04-3.63341E+00 6.93121E-14-1.91682E-13
 -1       977 2.50972E+01 1.27470E+00-2.80327E-02-2.08539E+00-1.44380E-13 2.62528E-13
 -1       978 2.54112E+01-2.35989E+00-7.63165E-03-1.95300E-01 2.55593E-13-2.32494E-13
 -1       979 1.72106E+01 7.71554E-01 5.30609E-03 2.72823E+00 1.12260E-13-3.52667E-13
 -1       980 1.79204E+01 1.26339E+00 3.79627E-03-8.86637E-01-2.50460E-14-1.85299E-13
 -1       981 2.03774E+01 5.50656E-01-4.59478E-04-5.29693E-02-2.48457E-14 5.65333E-15
 -1       982 2.03661E+01 8.82590E-01 4.26533E-04 1.33709E-01 3.14282E-14-6.93305E-14
 -1       983 2.38742E+01-3.27544E+00 4.51085E-03 3.10957E+00 1.65292E-13 5.82592E-14
 -1       984 1.90845E+01 6.03895E-01 2.29711E-04-6.81654E-01-1.28981E-13-6.76462E-13
 -1       985 2.02933E+01 9.34750E-02-1.67876E-05-1.08112E-01 1.75127E-14-5.34252E-14
 -1       986 2.27244E+01 3.70575E+00-7.00043E-03-2.63731E-01-2.06366E-13-3.60007E-14
 -1       987 2.00993E+01-1.71919E-02-4.65870E-06-1.30938E-01 4.23532E-14-1.60745E-13
 -1       988 1.76587E+01 4.09394E-01 5.16977E-03-2.99740E+00-6.73928E-14-4.79876E-13
 -1       989 1.97207E+01 2.86093E-01-3.19951E-04-9.04774E-02 1.57869E-13-4.27110E-13
 -1       990 2.03648E+01 9.78595E-01 3.68107E-04-7.50131E-02-8.19214E-15-6.23796E-14
 -1       991 2.46358E+01-5.79399E-01-5.49502E-03-1.46125E+00-8.05606E-15 2.95179E-13
 -1       992 1.89992E+01-6.57077E-01 1.20047E-02-3.59339E+00 2.78328E-13-4.53681E-14
 -1       993 2.02478E+01 1.73729E-02 9.08372E-06-1.31773E-01 3.24933E-15-4.06138E-14
 -1       994 1.98096E+01 2.07519E-01-5.48186E-05-7.36819E-02-3.08019E-14-3.59695E-13
 -1       995 1.97078E+01-1.68612E+00 1.30710E-02 4.51811E+00 2.41363E-13-1.65278E-13
 -1       996 2.03670E+01 9.66997E-01-3.25075E-05 6.98536E-02 2.98791E-14-1.64015E-13
 -1       997 2.00422E+01 1.57045E-02-5.07790E-06-1.17691E-01-1.91899E-15-1.08432E-13
 -1       998 2.03582E+01 4.10615E-01-5.40366E-04 1.63738E-02-2.43332E-15-6.12988E-14
 -1       999 2.03679E+01 8.95744E-01 5.64454E-04-1.11511E-01-5.16609E-14-3.64855E-15
 -1      1000 2.03593E+01 7.24216E-01 4.57459E-04 1.31497E-01 3.14173E-14-5.86626E-14
 -1      1001 2.22300E+01-2.24705E+00 4.56475E-03-2.67975E+00 1.41713E-13-2.27470E-13
 -1      1002 1.98623E+01 1.36566E-01 1.13831E-04-1.35776E-01-2.40731E-13-4.72309E-13
 -1      1003 2.03738E+01 1.40456E-01-2.62423E-05 5.02179E-02-4.36741E-14-3.08115E-14
 -1      1004 1.89061E+01-8.79011E-03 2.04192E-03 2.43434E+00 1.57023E-13-2.12194E-13
 -1      1005 1.99602E+01 6.69375E-02-1.68537E-05-8.16035E-03-1.97835E-14 1.31932E-14
 -1      1006 2.42577E+01-1.80077E+00-3.54652E-04-3.48688E-01 2.33459E-13 1.41479E-13
 -1      1007 2.03300E+01 3.60706E-02 4.59624E-06 6.77047E-02-2.24479E-14-5.50277E-14
 -1      1008 2.02800E+01-2.66754E-02-1.12339E-05 7.80074E-02-5.16646E-14-3.89668E-14
 -1      1009 2.02290E+01-6.03519E-02-8.98877E-06 8.51120E-02-8.06898E-14 9.09304E-14
 -1      1010 2.01815E+01-7.58769E-02 4.44150E-06 9.28920E-02-6.51474E-14 1.75168E-13
 -1      1011 2.01410E+01-8.27312E-02 1.09070E-05 1.05170E-01 7.41193E-15 9.90385E-14
 -1      1012 2.01113E+01-8.95557E-02 1.55676E-05 1.25900E-01-6.02725E-15 1.62046E-13
 -1      1013 2.00980E+01-1.05519E-01 2.42398E-05 1.59222E-01 1.16288E-13 1.80669E-13
 -1      1014 2.01095E+01-1.41050E-01 4.16414E-05 2.09410E-01 9.57117E-14 1.00659E-13
 -1      1015 2.01588E+01-2.08784E-01 6.76047E-05 2.79749E-01 8.47395E-14 1.10486E-13
 -1      1016 2.02653E+01-3.23731E-01 1.03830E-04 3.70729E-01-1.06112E-15 1.54569E-13
 -1      1017 2.04568E+01-5.02034E-01 1.46009E-04 4.75957E-01-1.87547E-14 5.28956E-14
 -1      1018 2.07691E+01-7.56536E-01 2.15350E-04 5.75976E-01 3.15373E-14-9.33056E-14
 -1      1019 2.12387E+01-1.08400E+00 1.51755E-04 6.30763E-01 4.26706E-14-1.02116E-13
 -1      1020 2.19032E+01-1.45218E+00 9.92102E-04 5.72888E-01-3.05733E-14-2.28348E-14
 -1      1021 2.27404E+01-1.74267E+00 2.03090E-03 3.03806E-01 1.05591E-13 1.46638E-13
 -1      1022 2.40673E+01-1.59049E+00 1.75467E-03 5.79593E-01 1.01888E-13-5.25804E-13
 -1      1023 2.31374E+01-1.79475E+00-1.53853E-04-1.09716E-01 5.25513E-14-2.96172E-13
 -1      1024 2.22268E+01-1.57332E+00-1.93970E-04-4.87878E-01-7.59781E-14 1.05292E-13
 -1      1025 2.14830E+01-1.21470E+00 4.21777E-04-6.21464E-01-2.56900E-14 7.60731E-14
 -1      1026 2.09264E+01-8.53118E-01 2.37230E-04-6.00966E-01 8.56101E-14 6.33679E-14
 -1      1027 2.05453E+01-5.56503E-01 3.74447E-05-5.08540E-01 2.12862E-13 4.05892E-14
 -1      1028 2.02994E+01-3.37447E-01 2.38025E-05-3.97608E-01 3.59728E-13 1.14192E-13
 -1      1029 2.01492E+01-1.86780E-01 5.42384E-05-2.94829E-01 3.59265E-13 1.31880E-13
 -1      1030 2.00633E+01-8.90815E-02 2.17373E-04-2.10227E-01-1.67522E-13 4.65157E-13
 -1      1031 2.00231E+01-3.64062E-02 1.27234E-04-1.50147E-01-1.28629E-13 2.69019E-13
 -1      1032 1.82800E+01-2.42616E-01 4.06533E-03 3.53493E+00 1.93940E-13-2.48036E-13
 -1      1033 1.94158E+01 3.53508E-01 1.32968E-04 5.91323E-01 3.51308E-14-3.24874E-14
 -1      1034 1.95985E+01 2.86224E-01 7.15223E-05 3.28249E-01-2.26896E-14-1.30842E-13
 -1      1035 1.90096E+01 2.85692E-01 9.32600E-05 1.59621E+00 1.65715E-13-5.73049E-14
 -1      1036 1.97503E+01 2.05126E-01 1.69801E-05 1.58309E-01 4.41739E-14-1.66007E-13
 -1      1037 2.47552E+01-2.77131E+00-7.96024E-04 1.22430E+00 1.66230E-13-4.62602E-15
 -1      1038 2.02215E+01-3.07959E-02-6.39035E-06-9.46099E-02 2.26687E-14-7.52088E-14
 -1      1039 2.38342E+01-2.37598E+00 2.41388E-03-9.93533E-01 3.55585E-13-5.03243E-14
 -1      1040 1.99326E+01 5.73423E-02-1.13352E-04-1.61316E-01-6.21888E-14-2.04202E-14
 -1      1041 1.96376E+01 2.61790E-01-6.58758E-06-4.09142E-01 2.89382E-13-5.12236E-13
 -1      1042 2.03661E+01 9.98983E-01-2.99202E-05-1.69538E-03 1.97988E-14-1.53043E-13
 -1      1043 1.98672E+01 1.30400E-01 2.46875E-06 5.54946E-02 8.66036E-15-3.76755E-14
 -1      1044 1.92083E+01 3.74526E-01 2.38735E-04 9.95448E-01 1.02528E-13 7.23135E-15
 -1      1045 2.04043E+01 3.02208E-01 1.31578E-04 2.10694E-02-1.24353E-14-1.00066E-14
 -1      1046 1.83892E+01 5.27939E-01 2.19086E-04-1.98047E+00-3.35713E-14-4.64258E-13
 -1      1047 2.17162E+01-2.31178E+00 4.12228E-03 3.49420E+00 2.10377E-13-1.98224E-13
 -1      1048 1.95187E+01 2.74843E-01 5.45957E-05-6.84775E-01-2.03408E-14-1.68862E-13
 -1      1049 1.91648E+01-1.67271E-01 3.35165E-03-2.45700E+00-1.41867E-14-3.16590E-13
 -1      1050 2.00373E+01 1.68972E-02-1.54729E-05-4.75955E-02-3.86740E-14-1.13384E-13
 -1      1051 2.01642E+01-3.41741E-02 4.79036E-06-8.73629E-02 8.07283E-14-3.32891E-14
 -1      1052 2.03944E+01 3.67211E-01 4.10358E-04-1.00614E-02-3.73124E-15-9.38584E-14
 -1      1053 1.97365E+01 2.25515E-01 1.41661E-05-2.38698E-01 1.38276E-13-8.46522E-13
 -1      1054 2.02600E+01-9.84695E-01 3.82168E-03-2.66855E+00 2.60414E-13-7.11963E-14
 -1      1055 2.04030E+01 6.22772E-01-3.07283E-04 4.00981E-02 1.77823E-14-1.11666E-13
 -1      1056 2.02767E+01 5.29567E-04-1.59622E-05-9.37744E-02 2.20463E-15-6.91925E-14
 -1      1057 2.03690E+01 1.82773E-01-1.95230E-04-5.57285E-02 3.20519E-15-7.52666E-14
 -1      1058 2.04067E+01 6.35901E-01-7.85025E-05-3.66945E-02-6.45353E-15 4.04807E-15
 -1      1059 1.87410E+01 6.82837E-01-1.91761E-06-1.10289E+00 1.50973E-13-6.09928E-13
 -1      1060 2.04148E+01 6.62383E-01-2.19469E-06-6.48956E-03-1.11083E-14-1.10567E-13
 -1      1061 2.03268E+01 8.22835E-03 3.42656E-05 2.85937E-02 6.16906E-15-1.42369E-14
 -1      1062 2.02721E+01-3.99002E-02 3.49073E-05 3.55143E-02-6.57134E-15 3.23964E-14
 -1      1063 2.02157E+01-6.12137E-02-4.39693E-05 4.45048E-02-2.50617E-14 5.10080E-14
 -1      1064 2.01627E+01-6.64205E-02 3.90625E-06 5.86719E-02-2.70295E-14 7.11185E-14
 -1      1065 2.01159E+01-6.39179E-02 3.51388E-05 8.24578E-02 4.82019E-14 1.29780E-13
 -1      1066 2.00772E+01-6.09266E-02 4.41761E-05 1.21498E-01 8.76613E-14 7.91091E-14
 -1      1067 2.00522E+01-6.73462E-02 9.00495E-05 1.81781E-01 2.82711E-14 4.02479E-14
 -1      1068 2.00496E+01-9.45606E-02 1.20447E-04 2.71427E-01 8.27655E-14-2.46588E-15
 -1      1069 2.00846E+01-1.58142E-01 1.42730E-04 3.98819E-01 4.76927E-14-7.51958E-14
 -1      1070 2.01819E+01-2.78813E-01 2.10429E-04 5.70281E-01-5.39721E-14-7.97094E-14
 -1      1071 2.03799E+01-4.82953E-01 2.01115E-04 7.84792E-01 2.25898E-14-7.43409E-14
 -1      1072 2.07350E+01-7.99685E-01-1.26354E-04 1.02509E+00 1.08502E-13-4.23113E-14
 -1      1073 2.13057E+01-1.23397E+00 4.83255E-04 1.22943E+00 5.65434E-14 3.07575E-14
 -1      1074 2.21818E+01-1.75784E+00 3.05721E-03 1.30655E+00 1.19417E-13 3.53188E-14
 -1      1075 1.99689E+01 3.60584E-02-8.83127E-05 9.25693E-02-4.47564E-15-1.88183E-13
 -1      1076 1.99610E+01-1.08112E+00 5.25274E-04 3.21788E+00 1.18419E-13-2.57993E-13
 -1      1077 2.25198E+01-1.95037E+00 1.70534E-03-1.35885E+00 2.61053E-13 7.25124E-14
 -1      1078 2.15082E+01-1.37717E+00-2.21337E-03-1.33270E+00-2.55074E-14 3.38715E-14
 -1      1079 2.08281E+01-8.69407E-01-5.09361E-04-1.11813E+00-8.41680E-14 4.20871E-14
 -1      1080 2.04137E+01-5.04932E-01 2.90933E-04-8.68736E-01 1.08138E-13 3.19073E-14
 -1      1081 2.01746E+01-2.65007E-01 8.48175E-07-6.36822E-01 3.65768E-13 1.04562E-13
 -1      1082 2.00458E+01-1.14248E-01-3.89784E-05-4.45266E-01 2.92285E-13-3.60446E-14
 -1      1083 1.99839E+01-2.62947E-02 6.52434E-06-2.99901E-01 1.77221E-13-2.41366E-13
 -1      1084 1.99478E+01 2.44452E-02-5.55121E-04-2.24584E-01-1.38322E-13-2.59764E-13
 -1      1085 1.97605E+01 8.86785E-02-2.83277E-04 5.54690E-01-3.52079E-14-2.58111E-13
 -1      1086 1.99575E+01-4.82949E-01-1.69543E-03 1.88801E+00 2.46524E-13-5.05479E-15
 -1      1087 1.98259E+01 9.36020E-02-1.92046E-04 3.31020E-01 4.47984E-14-2.57638E-13
 -1      1088 2.32726E+01-2.34207E+00 4.46523E-03 1.42711E+00 3.04437E-13 5.94309E-14
 -1      1089 2.27560E+01-2.43821E+00 3.95605E-03 2.40952E+00 2.11118E-13 2.07230E-13
 -1      1090 2.03277E+01 6.61923E-02-2.25517E-04-8.20067E-02-3.30323E-16-7.70348E-14
 -1      1091 2.04136E+01 6.57426E-01-3.43310E-05 1.89853E-02-1.18341E-14-1.78456E-13
 -1      1092 2.04195E+01 3.98409E-01 2.67288E-04-4.37964E-03-1.88406E-14-9.82687E-14
 -1      1093 1.98101E+01 1.75894E-01 7.03761E-04-1.80303E-01-3.40300E-13-4.36036E-13
 -1      1094 2.04098E+01 2.33142E-01-9.77254E-06 1.16245E-02-3.74520E-14-6.55876E-14
 -1      1095 2.01037E+01-1.72356E-02-2.76789E-05-7.23162E-02 2.86732E-14-3.40698E-14
 -1      1096 2.03754E+01 9.22244E-02-1.27329E-04 2.17694E-02-4.07480E-14-6.75888E-14
 -1      1097 1.98980E+01 6.99582E-02-1.36226E-04 1.86423E-01 6.86285E-14-1.75613E-13
 -1      1098 2.04277E+01 4.10312E-01-1.36598E-04 2.56094E-03-4.03595E-14-1.01854E-13
 -1      1099 1.98306E+01 4.72070E-02 7.14993E-06-5.76774E-01 2.78570E-13-4.47792E-13
 -1      1100 1.93974E+01-3.97924E-03-2.23509E-04-1.71990E+00 1.24101E-14-2.42820E-13
 -1      1101 2.00365E+01 1.54955E-03-1.14521E-04 3.28374E-02-7.65346E-14-8.43555E-14
 -1      1102 1.97725E+01-1.46544E-01-7.30546E-04 1.31307E+00 1.43760E-13-1.18813E-13
 -1      1103 1.94057E+01 2.40913E-01-2.68178E-04-1.04275E+00 5.05214E-14-8.28791E-14
 -1      1104 1.98378E+01 9.58257E-02-2.89763E-05-3.68221E-01 3.25934E-13-2.97047E-13
 -1      1105 1.97275E+01 2.50060E-02-4.41074E-04 8.72986E-01-3.31061E-15-2.79126E-13
 -1      1106 2.01166E+01-5.74716E-01-6.64772E-04-1.90220E+00-1.51927E-13 9.08333E-14
 -1      1107 2.02817E+01-1.94861E-02-1.26350E-05-4.64034E-02 1.34413E-16-3.06101E-14
 -1      1108 1.98753E+01 9.46306E-02-2.76405E-05-2.37561E-01-1.46255E-13-3.05080E-13
 -1      1109 2.02233E+01-4.26346E-02 1.72775E-05-4.09885E-02 2.30602E-14-8.13021E-14
 -1      1110 2.03362E+01 3.63617E-02 3.74543E-04-4.46351E-02-1.49110E-14-5.42385E-14
 -1      1111 2.01234E+01-4.35926E-02 5.89767E-05 2.35358E-02 7.02291E-14 6.66660E-14
 -1      1112 2.11191E+01-1.60395E+00-1.19856E-02 2.64628E+00 1.71556E-13 1.21337E-13
 -1      1113 2.03520E+01 4.72035E-02 2.87690E-04-1.90541E-02-5.90278E-15-6.04974E-14
 -1      1114 1.99241E+01-1.19509E-01-1.22109E-04-9.05838E-01 1.13483E-13-2.41614E-13
 -1      1115 2.04279E+01 4.15129E-01 1.10663E-03 8.02782E-04-4.02422E-14-1.63341E-13
 -1      1116 2.04052E+01 1.97497E-01-5.40968E-04-2.19276E-02-9.51206E-15-1.04334E-13
 -1      1117 2.00888E+01-3.57864E-01-6.84883E-04-1.30512E+00 1.43838E-13 2.44799E-14
 -1      1118 2.01821E+01-5.22365E-02 4.71190E-05 1.78898E-03-3.44864E-15 2.96876E-14
 -1      1119 2.11616E+01-1.36085E+00 9.95477E-03 2.12146E+00 2.21299E-13 1.29112E-13
 -1      1120 2.79602E+01 9.08561E+00 2.32493E+00-6.69735E+00-1.65423E-14 1.08014E-12
 -1      1121 2.05469E+01 6.22704E+00 2.09804E-01-3.90322E+00-1.31561E-14 4.00770E-13
 -1      1122 1.94345E+01 5.85296E+00 7.53580E-02-2.88700E+00-9.45077E-15 6.37546E-14
 -1      1123 1.90265E+01 5.72610E+00 6.04463E-02-2.23417E+00-8.08728E-15-1.17735E-13
 -1      1124 1.88404E+01 5.66938E+00 5.75534E-02-1.70063E+00-5.46438E-15-2.20045E-13
 -1      1125 1.87468E+01 5.64071E+00 5.55106E-02-1.23335E+00-3.83634E-15-2.91018E-13
 -1      1126 1.86977E+01 5.62543E+00 5.37104E-02-8.03835E-01-4.04624E-15-3.25211E-13
 -1      1127 1.86737E+01 5.61786E+00 5.24798E-02-3.92668E-01-1.64842E-15-3.50015E-13
 -1      1128 1.86669E+01 5.61571E+00 5.20938E-02 8.34167E-03-1.48384E-15-3.69088E-13
 -1      1129 1.86749E+01 5.61826E+00 5.26174E-02 4.09794E-01 2.81242E-16-3.86479E-13
 -1      1130 1.87001E+01 5.62624E+00 5.40183E-02 8.22417E-01 1.55475E-15-3.92850E-13
 -1      1131 1.87508E+01 5.64211E+00 5.62366E-02 1.25469E+00 2.11203E-15-3.83821E-13
 -1      1132 1.88460E+01 5.67136E+00 5.85259E-02 1.72638E+00 4.01242E-15-3.51104E-13
 -1      1133 1.90326E+01 5.72799E+00 6.07292E-02 2.26755E+00 7.00134E-15-2.90047E-13
 -1      1134 1.94314E+01 5.85028E+00 6.94967E-02 2.92805E+00 1.00336E-14-1.41500E-13
 -1      1135 2.04521E+01 6.18154E+00 1.52969E-01 3.87789E+00 1.13798E-14 1.70867E-13
 -1      1136 2.52148E+01 7.99349E+00 1.43002E+00 5.84556E+00 2.70894E-14 8.46684E-13
 -1      1137 2.88090E+01 3.61570E+00 1.27082E+00-4.21645E+00-7.35245E-14 1.52972E-12
 -1      1138 2.02258E+01-1.77771E-01-6.16337E-01-1.09829E-01-2.55629E-14 1.36807E-12
 -1      1139 1.88328E+01-9.63697E-02-2.36338E-01 6.25272E-02-1.26739E-14 1.06764E-12
 -1      1140 1.84997E+01-4.81006E-02-5.96280E-02 4.04964E-02 8.14106E-15 9.00280E-13
 -1      1141 1.84458E+01-2.46905E-02-1.52893E-02 2.67880E-02-3.38379E-15 7.61762E-13
 -1      1142 1.85293E+01-1.31402E-02-5.09213E-03 1.90787E-02-2.40021E-15 6.64573E-13
 -1      1143 1.86787E+01-6.72202E-03-1.61866E-03 1.41510E-02-2.42579E-15 5.74790E-13
 -1      1144 1.88547E+01-2.98209E-03 3.75732E-04 1.07485E-02-2.83627E-15 4.04735E-13
 -1      1145 1.90351E+01-7.77953E-04 1.64553E-03 8.25503E-03 3.69511E-15 2.85617E-13
 -1      1146 1.92075E+01 4.95026E-04 2.34486E-03 6.36641E-03-3.38605E-15 1.93264E-13
 -1      1147 1.93653E+01 1.19069E-03 2.62203E-03 4.92377E-03 1.53608E-14 1.30189E-13
 -1      1148 1.95057E+01 1.53919E-03 2.63410E-03 3.83429E-03 4.91758E-15 1.66127E-13
 -1      1149 1.96282E+01 1.70802E-03 2.52741E-03 3.03455E-03 3.27787E-15 1.06074E-13
 -1      1150 1.97331E+01 1.83405E-03 2.43955E-03 2.47160E-03 6.51036E-16 1.35861E-13
 -1      1151 1.98207E+01 2.04179E-03 2.50993E-03 2.08995E-03-8.74653E-16 1.67489E-13
 -1      1152 1.98903E+01 2.45278E-03 2.88878E-03 1.81900E-03-1.98797E-14 2.18987E-13
 -1      1153 1.99390E+01 3.18614E-03 3.73795E-03 1.55903E-03-2.62842E-14 1.44266E-13
 -1      1154 1.99606E+01 4.34681E-03 5.21569E-03 1.16626E-03-2.31575E-15 1.58026E-13
 -1      1155 1.99448E+01 5.99653E-03 7.43606E-03 4.41182E-04 2.13582E-14 1.87501E-13
 -1      1156 1.98760E+01 8.10323E-03 1.03934E-02-8.70799E-04-2.81103E-14 1.04087E-13
 -1      1157 1.97338E+01 1.04700E-02 1.38511E-02-3.05174E-03-5.68729E-15-4.47138E-14
 -1      1158 1.94942E+01 1.26593E-02 1.72141E-02-6.33835E-03-7.71226E-15-4.93026E-14
 -1      1159 1.91342E+01 1.39496E-02 1.94462E-02-1.07918E-02 1.97039E-14 1.34585E-13
 -1      1160 1.86388E+01 1.33899E-02 1.91342E-02-1.61222E-02-3.11751E-14-1.12561E-13
 -1      1161 1.80106E+01 1.00246E-02 1.48183E-02-2.15285E-02-1.26613E-15-2.10842E-13
 -1      1162 1.72799E+01 3.31474E-03 5.62947E-03-2.56736E-02-2.53964E-14-1.15533E-13
 -1      1163 1.65108E+01-6.35188E-03-7.93322E-03-2.69303E-02 3.21454E-14-3.22901E-14
 -1      1164 1.57978E+01-1.73352E-02-2.35167E-02-2.39444E-02 3.12992E-14 1.21618E-13
 -1      1165 1.52494E+01-2.69585E-02-3.72389E-02-1.63421E-02 6.89553E-15 1.56077E-13
 -1      1166 1.49612E+01-3.23938E-02-4.49974E-02-5.19567E-03 8.63329E-15 4.18855E-13
 -1      1167 1.49873E+01-3.18854E-02-4.42515E-02 7.13464E-03-3.91844E-14 2.49002E-13
 -1      1168 1.53229E+01-2.56065E-02-3.52577E-02 1.78297E-02 2.29664E-14 5.03382E-14
 -1      1169 1.59052E+01-1.55726E-02-2.09414E-02 2.46993E-02 1.34181E-15 1.10838E-13
 -1      1170 1.66345E+01-4.67377E-03-5.49526E-03 2.69201E-02-3.89069E-14 4.73684E-14
 -1      1171 1.74033E+01 4.54026E-03 7.39148E-03 2.50751E-02 1.68664E-14 1.12584E-14
 -1      1172 1.81217E+01 1.06421E-02 1.56881E-02 2.06148E-02 4.02211E-14 2.14738E-13
 -1      1173 1.87316E+01 1.34279E-02 1.91744E-02 1.51504E-02-3.13239E-14 4.57613E-13
 -1      1174 1.92084E+01 1.35370E-02 1.88663E-02 9.94042E-03-3.86061E-14 4.61631E-13
 -1      1175 1.95537E+01 1.19432E-02 1.62432E-02 5.69837E-03-2.95183E-14 3.13392E-13
 -1      1176 1.97854E+01 9.56552E-03 1.26617E-02 2.65035E-03-3.41526E-14 1.29655E-13
 -1      1177 1.99280E+01 7.07665E-03 9.07781E-03 7.03391E-04-3.73975E-14-5.83240E-14
 -1      1178 2.00063E+01 4.86897E-03 6.01448E-03-3.83807E-04-5.88380E-15 2.09793E-13
 -1      1179 2.00417E+01 3.10713E-03 3.65774E-03-8.79408E-04-5.31525E-14-4.63980E-14
 -1      1180 2.00507E+01 1.80621E-03 1.98390E-03-1.01288E-03 1.03757E-14-3.48384E-13
 -1      1181 2.00451E+01 9.01776E-04 8.66178E-04-9.51304E-04 9.36834E-14-2.29522E-13
 -1      1182 2.00330E+01 2.99459E-04 1.44910E-04-7.98730E-04 3.71766E-14 4.39867E-13
 -1      1183 2.00194E+01-9.36195E-05-3.29026E-04-6.03075E-04 4.29062E-14 7.73468E-13
 -1      1184 2.00077E+01-3.46785E-04-6.41592E-04-3.57438E-04-2.29254E-14 6.86472E-13
 -1      1185 2.00006E+01-5.38446E-04-6.70267E-04 2.06704E-05-7.70978E-14 3.74521E-14
 -1      1186 1.99993E+01 1.61519E-04 3.23180E-04 2.04797E-04 1.76012E-13 2.44123E-13
 -1      1187 2.77890E+01 5.25600E-01 3.76682E-01 1.96639E+00-2.04559E-14 1.41515E-12
 -1      1188 2.00830E+01-6.65351E-02-5.73614E-01 1.29493E-01 9.95037E-15 1.08522E-12
 -1      1189 1.89064E+01-4.09247E-02-1.92867E-01 1.93352E-02 1.49785E-14 7.28978E-13
 -1      1190 1.85275E+01-2.13191E-02-5.01189E-02 1.45107E-03 4.19109E-15 5.61825E-13
 -1      1191 1.84570E+01-1.24433E-02-1.33857E-02-4.03283E-03 3.34108E-15 4.46049E-13
 -1      1192 1.85334E+01-7.45941E-03-4.81492E-03-5.48712E-03 1.80272E-14 3.10127E-13
 -1      1193 1.86785E+01-4.40660E-03-2.05112E-03-5.65560E-03-1.61749E-14 3.57787E-13
 -1      1194 1.88513E+01-2.46249E-03-4.67127E-04-5.34932E-03-2.78548E-15 4.37686E-13
 -1      1195 1.90287E+01-1.23225E-03 6.19278E-04-4.81311E-03-1.26621E-14 4.63032E-13
 -1      1196 1.91980E+01-5.74632E-04 1.22839E-03-4.13518E-03 1.43284E-14 3.06426E-13
 -1      1197 1.93565E+01-1.11437E-04 1.49866E-03-3.41665E-03 5.73479E-15 1.28603E-13
 -1      1198 1.94979E+01-7.46843E-05 1.44589E-03-2.59592E-03-4.45276E-15 9.34882E-14
 -1      1199 1.96200E+01-3.14532E-04 1.03695E-03-1.75559E-03 4.83428E-15 8.25486E-14
 -1      1200 1.97305E+01-8.95792E-04 2.73816E-04-8.13310E-04 4.79750E-15-4.55040E-15
 -1      1201 1.98357E+01-1.95275E-03-9.97092E-04 3.10412E-04-3.05395E-15 1.69687E-14
 -1      1202 1.99459E+01-3.74274E-03-3.08279E-03 1.74355E-03 4.86121E-15-1.22096E-13
 -1      1203 2.00766E+01-6.71471E-03-6.55250E-03 3.67702E-03 2.04621E-14-2.40655E-13
 -1      1204 2.02525E+01-1.16168E-02-1.24307E-02 6.37131E-03 9.18753E-15-2.53893E-13
 -1      1205 2.05135E+01-1.96746E-02-2.25584E-02 1.01584E-02 1.15229E-14-1.40585E-13
 -1      1206 2.09245E+01-3.37009E-02-4.06004E-02 1.55864E-02-1.77323E-14-1.19862E-13
 -1      1207 2.16189E+01-5.26269E-02-7.09816E-02 2.27432E-02-4.54324E-15-8.29545E-14
 -1      1208 2.27692E+01-8.37983E-02-1.22562E-01 2.54473E-02 3.22745E-15-1.39937E-13
 -1      1209 2.46283E+01-1.19764E-01-1.93846E-01 1.97439E-02 6.13398E-15-9.23289E-14
 -1      1210 2.76174E+01-1.42795E-01-2.57831E-01-1.69961E-02 1.83482E-14-3.87940E-13
 -1      1211 3.21753E+01-9.09395E-02-1.99366E-01-1.23018E-01 3.25052E-14-4.09894E-13
 -1      1212 3.82757E+01 1.44310E-01 2.05193E-01-3.18201E-01-1.09895E-15-3.61156E-13
 -1      1213 4.39941E+01 5.38479E-01 1.00288E+00-4.25536E-01-8.17610E-14 3.34052E-13
 -1      1214 4.38175E+01 5.58980E-01 1.27898E+00 1.35066E-01 1.14908E-14 7.56062E-13
 -1      1215 3.38172E+01 6.45486E-02-3.37999E-01 1.30641E+00 4.23064E-14 4.88498E-14
 -1      1216 1.97628E+01-7.39467E-01-3.22215E+00 1.50904E+00-3.57631E-14-4.14557E-13
 -1      1217 1.43462E+01-6.16093E-01-4.40890E+00 1.27152E-01-4.88221E-14-3.40589E-13
 -1      1218 2.17696E+01-3.29658E-01-2.93458E+00-1.26030E+00 5.91471E-14-1.03051E-12
 -1      1219 3.51624E+01 3.79700E-01-3.20453E-01-1.53357E+00 7.55715E-14-1.49669E-12
 -1      1220 4.43509E+01 4.90514E-01 1.19402E+00-5.96886E-01-2.74780E-14-1.38256E-12
 -1      1221 4.32181E+01 2.17160E-01 7.92820E-01 2.68892E-01-2.11428E-14-6.10227E-13
 -1      1222 3.71957E+01-3.62775E-02 9.11147E-02 3.81659E-01 1.41107E-14-4.29046E-13
 -1      1223 3.13146E+01-1.18978E-01-1.98979E-01 2.61539E-01-1.47278E-15-9.17960E-13
 -1      1224 2.70425E+01-1.16711E-01-2.19348E-01 1.43791E-01-8.94475E-14-5.34794E-13
 -1      1225 2.42712E+01-8.93909E-02-1.59639E-01 7.13660E-02 5.85686E-14 7.28306E-14
 -1      1226 2.25593E+01-6.23069E-02-1.00939E-01 3.33028E-02 3.92264E-14-5.80959E-13
 -1      1227 2.15068E+01-3.73094E-02-5.81079E-02 1.63431E-02 8.23916E-14-8.53151E-13
 -1      1228 2.08796E+01-2.52193E-02-3.41544E-02 5.35866E-03 1.34745E-14-1.41486E-12
 -1      1229 2.05175E+01-1.58370E-02-2.00050E-02 1.64312E-03 4.10156E-14-1.81537E-12
 -1      1230 2.03003E+01-9.88257E-03-1.17493E-02 1.05038E-04-1.39502E-13-9.75475E-13
 -1      1231 2.01694E+01-6.16586E-03-6.94658E-03-4.35233E-04 7.36718E-14 2.61991E-14
 -1      1232 2.00900E+01-3.87871E-03-4.17662E-03-5.48443E-04-3.13314E-14 1.08053E-13
 -1      1233 2.00420E+01-2.49998E-03-2.62733E-03-5.12959E-04 7.23613E-14-1.44950E-13
 -1      1234 2.00136E+01-1.69151E-03-1.82430E-03-4.78443E-04 6.31051E-14-8.86988E-13
 -1      1235 1.99987E+01-1.21801E-03-1.39123E-03-5.67131E-04 3.96914E-14-3.66311E-13
 -1      1236 1.99945E+01-7.31295E-04-6.59507E-04-8.59210E-04-5.92089E-14 2.03997E-14
 -1      1237 1.99981E+01-4.88799E-04 1.17951E-03-8.22917E-04-1.76067E-14-4.85310E-14
 -1      1238 1.99994E+01-1.62049E-03 1.15817E-03-6.01113E-04-2.00354E-13-5.87681E-15
 -1      1239 1.99993E+01-4.57695E-03-7.45096E-04-8.80753E-04-4.42645E-13-8.64102E-16
 -1      1240 1.99994E+01 1.30639E-03-1.13162E-03-3.84816E-04 1.48956E-12 2.79300E-13
 -1      1241 1.99997E+01 1.62706E-02-6.86673E-04 1.86992E-04 1.82578E-12 1.11036E-14
 -1      1242 2.00000E+01 3.58181E-02 1.27250E-06 5.96331E-04 7.06910E-13-9.90646E-14
 -1      1243 2.00003E+01 5.44710E-02 5.78407E-04 7.74900E-04 1.32534E-12 1.98318E-13
 -1      1244 2.00004E+01 6.81809E-02 8.92299E-04 7.51957E-04 7.45667E-13-1.12455E-13
 -1      1245 2.00003E+01 7.47681E-02 9.44463E-04 5.74840E-04-1.72840E-12-2.00130E-13
 -1      1246 2.00002E+01 7.38233E-02 7.91081E-04 3.30707E-04-1.06332E-12 1.65244E-13
 -1      1247 2.00000E+01 6.66716E-02 5.34391E-04 9.29251E-05 2.67034E-13 1.47943E-13
 -1      1248 1.99999E+01 5.54343E-02 2.69037E-04-9.34897E-05-2.05855E-13-7.05954E-14
 -1      1249 1.99998E+01 4.24064E-02 5.64436E-05-2.16496E-04 1.24217E-12 2.12436E-13
 -1      1250 1.99997E+01 2.92210E-02-1.08253E-04-2.92807E-04 1.20752E-12 4.25313E-14
 -1      1251 1.99996E+01 1.70373E-02-2.65140E-04-3.43587E-04-1.17042E-13-1.88851E-13
 -1      1252 1.99997E+01 7.05323E-03-4.07097E-04-2.94608E-04-6.38887E-13-2.23390E-14
 -1      1253 1.99998E+01 9.70204E-04-3.20973E-04 4.25908E-04-5.02525E-13 4.99496E-14
 -1      1254 2.00000E+01-5.00669E-04 3.85903E-04 1.48361E-04-3.35483E-13 8.50724E-14
 -1      1255-1.49101E+00-2.93312E+01-4.11527E+00-3.34051E+00-2.66454E-13-4.15709E-14
 -1      1256-3.38142E+00-2.35855E+01-4.19563E+00-7.56768E+00 2.72116E-13 1.67116E-13
 -1      1257-3.36622E+00-1.09644E+01-3.66853E+00-5.19231E+00 1.56763E-12 1.11178E-12
 -1      1258 5.24296E+00 1.46255E+00-2.28138E+00 3.46045E+00 1.96532E-12 1.83498E-12
 -1      1259 2.61462E+01 8.60864E+00 2.83688E-01 1.46852E+01 1.38378E-12 2.21911E-12
 -1      1260 5.85574E+01 8.38077E+00 4.45329E+00 1.99432E+01 7.24643E-13 1.92868E-12
 -1      1261 8.78758E+01 4.47906E+00 8.29542E+00 1.27753E+01 3.04368E-13 8.51319E-13
 -1      1262 9.66961E+01 2.86116E+00 9.52544E+00-3.69117E+00 3.98848E-14 3.95572E-13
 -1      1263 7.64035E+01 6.29556E+00 6.78992E+00-1.72945E+01 3.79141E-14 6.48370E-14
 -1      1264 4.28690E+01 9.41527E+00 2.50636E+00-1.87823E+01 5.48228E-13-8.96616E-13
 -1      1265 1.48804E+01 6.69828E+00-1.06332E+00-1.00266E+01 6.59472E-13-9.49463E-13
 -1      1266 1.03848E-01-2.81163E+00-3.07078E+00 5.70766E-01 8.35110E-13-6.21725E-13
 -1      1267-4.06002E+00-1.59657E+01-4.00057E+00 6.86094E+00 1.68887E-12-8.97060E-13
 -1      1268-2.81875E+00-2.65741E+01-4.22626E+00 6.43534E+00 1.94411E-12-5.53627E-13
 -1      1269-1.08272E+00-2.95971E+01-4.08864E+00 1.56917E+00 1.32527E-12-1.53877E-13
 -1      1270-1.23461E+00-2.30692E+01-3.47510E+00-2.95115E+00 1.59095E-13-1.36571E-13
 -1      1271-1.08834E+00-1.01308E+01-2.46891E+00-2.67370E+00-1.27054E-12-5.47118E-13
 -1      1272 3.64069E+00 3.72034E+00-1.06315E+00 4.07822E+00-2.14517E-12-1.55564E-12
 -1      1273 1.56813E+01 1.21599E+01 4.77504E-01 1.35555E+01-2.34346E-12-2.35634E-12
 -1      1274 3.37447E+01 1.30403E+01 1.95545E+00 2.01020E+01-1.48426E-12-2.20313E-12
 -1      1275 5.36360E+01 8.68188E+00 3.21276E+00 2.00061E+01-7.77212E-13-1.78968E-12
 -1      1276 6.89878E+01 3.42673E+00 4.01878E+00 1.08844E+01-1.23644E-13-1.05260E-12
 -1      1277 7.32948E+01 1.69574E+00 4.25186E+00-2.90990E+00-1.15345E-13-2.16327E-13
 -1      1278 6.42617E+01 5.17153E+00 3.80906E+00-1.52473E+01-4.18415E-13 1.15874E-12
 -1      1279 4.65026E+01 1.06431E+01 2.82118E+00-2.07912E+01-9.90319E-13 2.07034E-12
 -1      1280 2.65174E+01 1.35878E+01 1.48747E+00-1.81549E+01-1.52545E-12 2.03793E-12
 -1      1281 1.01508E+01 1.00744E+01-5.42087E-02-9.90474E+00-1.38356E-12 1.16351E-12
 -1      1282 9.69776E-01-6.30729E-01-1.60960E+00-9.59212E-01-1.39844E-12 8.31002E-13
 -1      1283-1.48325E+00-1.44441E+01-2.83229E+00 3.45289E+00-1.11444E-12 3.84248E-13
 -1      1284-1.03579E+00-2.58299E+01-3.71138E+00 2.00178E+00-1.27320E-12 2.61541E-13
 -1      1285 2.22649E+01 1.83811E+00-7.25803E-01-2.79016E+00-2.43972E-14 9.62064E-13
 -1      1286 2.03592E+01 4.68999E+00-4.86111E-02-3.30618E+00-1.08344E-13 2.43555E-13
 -1      1287 2.08660E+01 4.81030E+00-1.13341E-01-4.16040E+00-1.29868E-13 4.16257E-13
 -1      1288 1.95317E+01 4.99316E+00-1.96771E-02-2.65343E+00-1.19640E-13-1.44502E-14
 -1      1289 1.98299E+01 5.09000E+00 2.83985E-04-3.04457E+00-1.32117E-13 1.03528E-13
 -1      1290 2.05261E+01 3.95253E+00-2.58870E-02-3.07403E+00-1.95333E-13 2.23752E-13
 -1      1291 1.91845E+01 5.08460E+00-3.53271E-03-2.06978E+00-1.07615E-13-1.64060E-13
 -1      1292 1.93330E+01 5.13975E+00 1.05902E-02-2.36257E+00-1.15880E-13-9.42579E-14
 -1      1293 1.97535E+01 4.36592E+00-2.44992E-02-2.48817E+00-1.86266E-13 3.64986E-15
 -1      1294 1.90100E+01 5.13112E+00 3.28377E-03-1.56369E+00-8.48896E-14-2.52201E-13
 -1      1295 1.90875E+01 5.16067E+00 1.25636E-02-1.81371E+00-9.47471E-14-2.07584E-13
 -1      1296 1.93922E+01 4.55524E+00-1.99886E-02-1.93097E+00-1.64611E-13-1.25004E-13
 -1      1297 1.89162E+01 5.16117E+00 6.50805E-03-1.11625E+00-6.70978E-14-3.04486E-13
 -1      1298 1.89586E+01 5.17750E+00 1.26944E-02-1.33757E+00-7.32782E-14-2.76449E-13
 -1      1299 1.92065E+01 4.66212E+00-1.60950E-02-1.44352E+00-1.30117E-13-1.98105E-13
 -1      1300 1.88647E+01 5.18100E+00 8.16651E-03-6.93386E-01-5.14042E-14-3.37686E-13
 -1      1301 1.88876E+01 5.18984E+00 1.19571E-02-9.03438E-01-5.87135E-14-3.24197E-13
 -1      1302 1.91033E+01 4.72769E+00-1.40211E-02-1.00357E+00-1.02629E-13-2.52603E-13
 -1      1303 1.88408E+01 5.19294E+00 9.27365E-03-2.89057E-01-2.70335E-14-3.58670E-13
 -1      1304 1.88506E+01 5.19676E+00 1.10475E-02-4.90994E-01-3.46971E-14-3.45054E-13
 -1      1305 1.90476E+01 4.76665E+00-1.29238E-02-5.88427E-01-6.91339E-14-2.75946E-13
 -1      1306 1.88372E+01 5.19789E+00 1.02128E-02 1.07988E-01-9.90701E-15-3.84807E-13
 -1      1307 1.88368E+01 5.19775E+00 1.01345E-02-9.15055E-02-1.37914E-14-3.73694E-13
 -1      1308 1.90235E+01 4.78469E+00-1.24637E-02-1.89073E-01-3.05379E-14-2.99056E-13
 -1      1309 1.88526E+01 5.19639E+00 1.11594E-02 5.08106E-01 9.94300E-15-3.92230E-13
 -1      1310 1.88419E+01 5.19227E+00 9.21100E-03 3.05720E-01 1.90207E-15-3.86304E-13
 -1      1311 1.90244E+01 4.78403E+00-1.24783E-02 2.05459E-01-6.00976E-15-3.18183E-13
 -1      1312 1.88912E+01 5.18864E+00 1.20997E-02 9.22141E-01 2.86039E-14-4.02831E-13
 -1      1313 1.88674E+01 5.17961E+00 8.12279E-03 7.11071E-01 2.40977E-14-3.98782E-13
 -1      1314 1.90505E+01 4.76449E+00-1.29648E-02 6.05549E-01 3.01014E-14-3.30229E-13
 -1      1315 1.89631E+01 5.17557E+00 1.29055E-02 1.35522E+00 4.49259E-14-3.78694E-13
 -1      1316 1.89198E+01 5.15883E+00 6.44230E-03 1.13239E+00 3.73811E-14-3.91494E-13
 -1      1317 1.91080E+01 4.72390E+00-1.39921E-02 1.01866E+00 5.53273E-14-3.29958E-13
 -1      1318 1.90958E+01 5.15709E+00 1.29377E-02 1.83976E+00 8.30499E-14-3.45387E-13
 -1      1319 1.90162E+01 5.12670E+00 3.15405E-03 1.58700E+00 6.64052E-14-3.65175E-13
 -1      1320 1.92134E+01 4.65540E+00-1.61372E-02 1.46165E+00 9.72252E-14-3.03774E-13
 -1      1321 1.93449E+01 5.13331E+00 1.04645E-02 2.39688E+00 1.07084E-13-2.72258E-13
 -1      1322 1.91946E+01 5.07653E+00-4.13546E-03 2.09948E+00 9.37375E-14-3.20483E-13
 -1      1323 1.94060E+01 4.54273E+00-1.98817E-02 1.95701E+00 1.45349E-13-2.59837E-13
 -1      1324 1.98543E+01 5.09938E+00 6.04366E-03 3.08349E+00 1.29105E-13-1.05804E-13
 -1      1325 1.95437E+01 4.98460E+00-2.02316E-02 2.69630E+00 1.12958E-13-2.09093E-13
 -1      1326 1.97744E+01 4.34583E+00-2.46946E-02 2.52748E+00 1.79636E-13-1.69725E-13
 -1      1327 2.11016E+01 4.90619E+00 7.97965E-03 4.05308E+00 1.15907E-13 2.32619E-13
 -1      1328 2.03329E+01 4.73369E+00-4.80874E-02 3.41536E+00 1.10315E-13 2.35090E-14
 -1      1329 2.05621E+01 3.91570E+00-2.29325E-02 3.17794E+00 1.92058E-13 2.24265E-14
 -1      1330 2.71996E+01 3.20492E+00 9.28685E-01 4.58165E+00 5.89251E-14 8.95561E-13
 -1      1331 2.20181E+01 3.52191E+00-1.82101E-01 3.88439E+00 6.16174E-14 4.29629E-13
 -1      1332 2.21117E+01 2.56140E+00-3.25246E-02 3.45615E+00 1.94031E-13 3.22686E-13
 -1      1333 2.14245E+01 3.59559E-01-7.63582E-01 1.18355E+00 1.05187E-13 8.52873E-13
 -1      1334 2.19991E+01 1.31403E-01-4.00864E-01-1.28528E+00-8.73468E-14 9.76996E-13
 -1      1335 2.06769E+01 3.06679E-01-1.64818E-01-8.05389E-01-9.51877E-14 8.84744E-13
 -1      1336 2.00796E+01 1.53480E-01-7.35097E-02-4.01790E-01-7.53599E-14 8.25689E-13
 -1      1337 1.96102E+01 9.11897E-02-1.49163E-02-3.29637E-01-7.17065E-14 7.26873E-13
 -1      1338 2.09714E+01 3.69016E-01-1.04287E-01-1.27316E+00-1.57416E-13 5.52010E-13
 -1      1339 1.92532E+01 6.45331E-02 3.04233E-03-1.34981E-01-4.68349E-14 6.85476E-13
 -1      1340 1.90994E+01 4.13230E-02 1.32236E-02-1.17162E-01-4.16854E-14 6.12191E-13
 -1      1341 1.99214E+01 1.33937E-01-3.51498E-02-5.03273E-01-1.16521E-13 4.79070E-13
 -1      1342 1.89395E+01 3.16100E-02 1.32352E-02-2.74851E-02-4.28004E-14 5.57603E-13
 -1      1343 1.89208E+01 1.94835E-02 1.10548E-02-1.80570E-02-4.61432E-14 4.90923E-13
 -1      1344 1.94450E+01 5.55410E-02-8.54990E-03-1.69092E-01-1.03704E-13 3.70984E-13
 -1      1345 1.88654E+01 1.61152E-02 8.77109E-03 2.58157E-02-2.27695E-14 4.66455E-13
 -1      1346 1.89088E+01 9.18986E-03 6.44020E-03 3.04995E-02-2.93129E-14 4.40016E-13
 -1      1347 1.92374E+01 2.45641E-02-3.54042E-03-9.78447E-03-7.00976E-14 3.08147E-13
 -1      1348 1.89099E+01 7.98985E-03 4.67013E-03 5.19442E-02-4.08994E-14 4.03106E-13
 -1      1349 1.89816E+01 3.65360E-03 3.64928E-03 5.39073E-02-4.50269E-14 3.44083E-13
 -1      1350 1.91824E+01 1.03922E-02-2.25781E-03 6.94984E-02-8.24245E-14 2.59650E-13
 -1      1351 1.90125E+01 3.36691E-03 2.43949E-03 6.30741E-02-3.81855E-14 3.18742E-13
 -1      1352 1.90951E+01 5.25360E-04 2.21771E-03 6.34398E-02-4.94537E-14 2.55248E-13
 -1      1353 1.92109E+01 3.04482E-03-1.37217E-03 1.07109E-01-8.10435E-14 2.12420E-13
 -1      1354 1.91405E+01 6.72334E-04 1.32379E-03 6.55968E-02-2.83386E-14 2.32917E-13
 -1      1355 1.92240E+01-1.22589E-03 1.44154E-03 6.50394E-02-3.57156E-14 1.93474E-13
 -1      1356 1.92832E+01-9.51297E-04-6.18894E-04 1.21391E-01-7.50340E-14 1.73931E-13
 -1      1357 1.92750E+01-8.64378E-04 7.28680E-04 6.32240E-02-3.85398E-14 1.66262E-13
 -1      1358 1.93542E+01-2.13573E-03 9.63104E-04 6.21739E-02-3.22612E-14 1.30840E-13
 -1      1359 1.93757E+01-3.07033E-03-7.11944E-05 1.22309E-01-6.13192E-14 1.39335E-13
 -1      1360 1.94055E+01-1.67883E-03 3.75823E-04 5.82401E-02-1.48001E-14 1.22080E-13
 -1      1361 1.94776E+01-2.52886E-03 6.33977E-04 5.69729E-02-6.28067E-15 1.07021E-13
 -1      1362 1.94744E+01-4.06266E-03 2.72952E-04 1.15769E-01-4.44465E-14 1.15886E-13
 -1      1363 1.95260E+01-2.05146E-03 1.47230E-04 5.20509E-02 1.20916E-15 7.41243E-14
 -1      1364 1.95899E+01-2.62929E-03 3.89618E-04 5.07319E-02-2.31500E-14 4.22323E-14
 -1      1365 1.95710E+01-4.38258E-03 4.63067E-04 1.05389E-01-3.14387E-14 6.59296E-14
 -1      1366 1.96340E+01-2.18615E-03-1.12959E-05 4.54491E-02 1.49037E-15 2.72349E-14
 -1      1367 1.96894E+01-2.61109E-03 1.95818E-04 4.41561E-02-1.55136E-14 3.02974E-14
 -1      1368 1.96608E+01-4.34994E-03 5.55711E-04 9.33133E-02-3.55293E-14 2.37231E-14
 -1      1369 1.97280E+01-2.25074E-03-1.28318E-04 3.87434E-02-8.52589E-16 7.68309E-14
 -1      1370 1.97749E+01-2.62637E-03 3.08355E-05 3.74778E-02 4.90276E-15 8.56476E-14
 -1      1371 1.97412E+01-4.22402E-03 6.02235E-04 8.05988E-02 4.99996E-15-1.54935E-14
 -1      1372 1.98075E+01-2.40104E-03-2.19166E-04 3.18135E-02 1.09325E-14 8.93552E-14
 -1      1373 1.98457E+01-2.82241E-03-1.19507E-04 3.05005E-02 8.65855E-15 1.00176E-13
 -1      1374 1.98106E+01-4.24453E-03 6.49395E-04 6.74007E-02-5.21772E-16 4.05243E-14
 -1      1375 1.98711E+01-2.79528E-03-2.89053E-04 2.41178E-02-2.10112E-14 1.36127E-13
 -1      1376 1.98996E+01-3.34989E-03-2.62104E-04 2.26027E-02-5.56099E-14 1.25087E-13
 -1      1377 1.98674E+01-4.65618E-03 7.42774E-04 5.30339E-02 2.37706E-14 5.96426E-14
 -1      1378 1.99165E+01-3.59880E-03-3.32875E-04 1.46823E-02-2.43274E-14 9.90599E-14
 -1      1379 1.99329E+01-4.35970E-03-3.94932E-04 1.27239E-02-3.80087E-14 7.50848E-14
 -1      1380 1.99092E+01-5.71825E-03 9.29157E-04 3.59740E-02-4.46074E-14 8.02450E-14
 -1      1381 1.99386E+01-4.97447E-03-3.34167E-04 2.10340E-03-2.83555E-14 7.02889E-14
 -1      1382 1.99388E+01-5.98220E-03-5.04885E-04-6.24817E-04 1.79988E-15 8.00329E-14
 -1      1383 1.99320E+01-7.69225E-03 1.25585E-03 1.38575E-02-3.13705E-14 6.66720E-14
 -1      1384 1.99294E+01-7.05082E-03-2.65243E-04-1.53832E-02-3.46077E-16 3.61312E-14
 -1      1385 1.99070E+01-8.28097E-03-5.66893E-04-1.92727E-02-1.78105E-14 6.28701E-14
 -1      1386 1.99294E+01-1.07953E-02 1.76476E-03-1.64306E-02-3.59550E-14-5.50143E-14
 -1      1387 1.98771E+01-9.85928E-03-9.13098E-05-3.96917E-02-5.19016E-14 1.18527E-14
 -1      1388 1.98235E+01-1.11753E-02-5.47179E-04-4.51407E-02-1.29701E-13-7.59451E-14
 -1      1389 1.98924E+01-1.51047E-02 2.47850E-03-5.84561E-02-8.65696E-14-1.03314E-13
 -1      1390 1.97661E+01-1.32367E-02 2.18167E-04-7.24466E-02-4.55083E-14-6.76330E-14
 -1      1391 1.96708E+01-1.43356E-02-4.13941E-04-7.97437E-02-4.95060E-14-1.03341E-13
 -1      1392 1.98089E+01-2.04054E-02 3.37608E-03-1.15563E-01-9.67076E-14-1.05117E-13
 -1      1393 1.95783E+01-1.67054E-02 6.68856E-04-1.14244E-01-7.93679E-15-5.78136E-14
 -1      1394 1.94303E+01-1.70783E-02-1.57398E-04-1.23381E-01 2.48803E-14-3.19315E-14
 -1      1395 1.96647E+01-2.59981E-02 4.35903E-03-1.89680E-01-3.24849E-14-8.61413E-14
 -1      1396 1.92960E+01-1.93744E-02 1.21409E-03-1.63634E-01-2.71532E-14-6.23876E-14
 -1      1397 1.90867E+01-1.83241E-02 1.84437E-04-1.74066E-01-6.81326E-14-8.48236E-14
 -1      1398 1.94455E+01-3.05304E-02 5.21584E-03-2.79576E-01-3.03273E-15-9.13241E-14
 -1      1399 1.89067E+01-1.99484E-02 1.73319E-03-2.16029E-01-6.83292E-14-1.07302E-13
 -1      1400 1.86337E+01-1.67186E-02 5.07195E-04-2.26448E-01-5.08317E-14-2.12146E-13
 -1      1401 1.91404E+01-3.19848E-02 5.60524E-03-3.78809E-01-7.68201E-14-1.57880E-13
 -1      1402 1.84105E+01-1.69613E-02 2.03738E-03-2.63041E-01 2.29699E-14-1.62405E-13
 -1      1403 1.80824E+01-1.10136E-02 6.51064E-04-2.71309E-01 4.28776E-14-1.82430E-13
 -1      1404 1.87473E+01-2.80046E-02 5.09374E-03-4.74108E-01-3.07215E-14-1.37127E-13
 -1      1405 1.78272E+01-9.31199E-03 1.92679E-03-2.92978E-01 2.27177E-14-1.30340E-13
 -1      1406 1.74669E+01-7.14442E-04 4.59411E-04-2.96406E-01 1.38740E-14-1.08132E-13
 -1      1407 1.82789E+01-1.66901E-02 3.28269E-03-5.45404E-01 8.35964E-14-1.83053E-13
 -1      1408 1.72019E+01 2.98171E-03 1.29517E-03-2.93184E-01 3.00316E-14-6.00024E-14
 -1      1409 1.68473E+01 1.32187E-02-1.20860E-04-2.89264E-01 6.91519E-14-4.64524E-14
 -1      1410 1.77677E+01 2.23923E-03 2.91077E-05-5.68904E-01 4.09151E-14-4.66537E-14
 -1      1411 1.66040E+01 1.81613E-02 2.38570E-04-2.54223E-01 3.32022E-14 5.93570E-14
 -1      1412 1.63031E+01 2.80627E-02-9.51595E-04-2.41692E-01 8.70528E-15 7.47145E-14
 -1      1413 1.72663E+01 2.64061E-02-4.31777E-03-5.23754E-01 8.61221E-14 2.53842E-14
 -1      1414 1.61173E+01 3.27620E-02-9.24386E-04-1.74633E-01 3.58515E-14 1.82424E-14
 -1      1415 1.59181E+01 3.98776E-02-1.70727E-03-1.54411E-01-2.61770E-15 5.20729E-14
 -1      1416 1.68416E+01 5.06586E-02-8.82397E-03-4.00856E-01 1.78837E-14-3.14926E-14
 -1      1417 1.58208E+01 4.26404E-02-1.77108E-03-6.38348E-02-4.73337E-14 1.11184E-13
 -1      1418 1.57585E+01 4.49536E-02-2.01145E-03-3.92241E-02-2.18298E-14 1.31817E-13
 -1      1419 1.65607E+01 6.84204E-02-1.21959E-02-2.10026E-01-1.72050E-14-6.41483E-14
 -1      1420 1.57674E+01 4.46931E-02-1.99247E-03 5.90709E-02-8.18438E-14 1.93075E-13
 -1      1421 1.58534E+01 4.15095E-02-1.64732E-03 8.32689E-02-7.06319E-14 9.18345E-14
 -1      1422 1.64730E+01 7.42323E-02-1.33071E-02 1.91115E-02-7.28419E-14-7.83965E-14
 -1      1423 1.59669E+01 3.83312E-02-1.56655E-03 1.70951E-01-4.79994E-14 1.18478E-13
 -1      1424 1.61854E+01 3.06078E-02-7.00695E-04 1.90081E-01 4.01588E-16 1.27030E-13
 -1      1425 1.65944E+01 6.62130E-02-1.17623E-02 2.44692E-01-1.01118E-13 1.19539E-13
 -1      1426 1.63831E+01 2.57533E-02-7.58670E-04 2.52304E-01 5.02434E-14 4.13055E-14
 -1      1427 1.66962E+01 1.56506E-02 4.80388E-04 2.63431E-01-7.00026E-15 7.45931E-15
 -1      1428 1.69030E+01 4.69649E-02-8.11099E-03 4.26037E-01-2.79139E-14 1.71703E-14
 -1      1429 1.69456E+01 1.08366E-02 4.73651E-05 2.93149E-01 3.29814E-16 4.10505E-14
 -1      1430 1.73044E+01 7.84242E-04 1.47857E-03 2.95760E-01 2.07907E-14-4.66294E-14
 -1      1431 1.73453E+01 2.23327E-02-3.55384E-03 5.36518E-01 2.54332E-14-3.36389E-14
 -1      1432 1.75701E+01-2.59585E-03 5.56402E-04 2.94516E-01 4.18305E-14-1.96839E-14
 -1      1433 1.79278E+01-1.07630E-02 2.01487E-03 2.90164E-01 6.02445E-14 2.21108E-14
 -1      1434 1.78533E+01-1.18487E-03 6.44593E-04 5.69773E-01 8.97459E-15 6.30477E-14
 -1      1435 1.81797E+01-1.21004E-02 6.73431E-04 2.65686E-01 5.89446E-14 1.44242E-14
 -1      1436 1.85009E+01-1.75417E-02 2.03979E-03 2.56984E-01 9.58569E-14 1.46251E-13
 -1      1437 1.83618E+01-1.88450E-02 3.64594E-03 5.37507E-01 1.29372E-13 1.69374E-14
 -1      1438 1.87189E+01-1.69949E-02 4.81618E-04 2.19411E-01 1.18496E-13 2.30350E-13
 -1      1439 1.89833E+01-1.97696E-02 1.68624E-03 2.09000E-01 1.59282E-14 2.48034E-13
 -1      1440 1.88217E+01-2.87566E-02 5.19761E-03 4.61717E-01 1.54062E-13 8.18995E-14
 -1      1441 1.91579E+01-1.79452E-02 1.44820E-04 1.67617E-01-6.44537E-14 3.06397E-13
 -1      1442 1.93594E+01-1.86512E-02 1.15812E-03 1.57515E-01-7.44552E-14 2.04265E-13
 -1      1443 1.92042E+01-3.15462E-02 5.50239E-03 3.66030E-01-2.12981E-15 1.34835E-13
 -1      1444 1.94898E+01-1.62486E-02-1.85711E-04 1.18955E-01-5.40228E-14 2.62455E-13
 -1      1445 1.96325E+01-1.56464E-02 6.33243E-04 1.10346E-01-2.61785E-14 1.74300E-13
 -1      1446 1.95001E+01-2.92519E-02 4.97559E-03 2.69612E-01-1.41573E-13 7.78744E-14
 -1      1447 1.97233E+01-1.32266E-02-4.19716E-04 7.82402E-02-7.42269E-14 1.53283E-13
 -1      1448 1.98170E+01-1.19879E-02 2.17220E-04 7.15803E-02-1.67138E-13 8.48377E-15
 -1      1449 1.97138E+01-2.42038E-02 4.03885E-03 1.84688E-01-1.34755E-13 1.58692E-13
 -1      1450 1.98758E+01-9.89147E-03-5.31252E-04 4.70940E-02-1.11452E-13 1.24060E-13
 -1      1451 1.99320E+01-8.49248E-03-5.52807E-05 4.23454E-02-1.35070E-14 9.06913E-14
 -1      1452 1.98579E+01-1.83107E-02 3.01103E-03 1.16871E-01-1.26346E-13 2.02782E-13
 -1      1453 1.99669E+01-6.85950E-03-5.37576E-04 2.50468E-02-4.05199E-14 5.16033E-14
 -1      1454 1.99965E+01-5.57623E-03-1.97123E-04 2.19121E-02-6.53317E-14 1.22099E-13
 -1      1455 1.99477E+01-1.28027E-02 2.08255E-03 6.69143E-02-7.03946E-14 2.07881E-13
 -1      1456 2.00147E+01-4.40893E-03-4.74364E-04 1.05738E-02-1.24731E-13-6.99668E-15
 -1      1457 2.00270E+01-3.36208E-03-2.42637E-04 8.67132E-03-9.45064E-14-1.87845E-13
 -1      1458 1.99981E+01-8.27967E-03 1.33666E-03 3.27456E-02-1.52910E-13-4.06581E-15
 -1      1459 2.00343E+01-2.58879E-03-3.77820E-04 1.84849E-03-6.67478E-14-1.40819E-13
 -1      1460 2.00362E+01-1.79924E-03-2.29253E-04 8.16896E-04-7.72364E-15-2.34677E-13
 -1      1461 2.00219E+01-4.89112E-03 7.85866E-04 1.11165E-02-1.07632E-13-8.69164E-14
 -1      1462 2.00370E+01-1.32184E-03-2.76351E-04-2.81411E-03 1.53029E-13-2.67523E-13
 -1      1463 2.00334E+01-7.57433E-04-1.88872E-04-3.26682E-03 1.74135E-13-2.60279E-14
 -1      1464 2.00291E+01-2.52623E-03 4.04961E-04-1.30880E-03 8.24309E-14-5.49000E-14
 -1      1465 2.00308E+01-4.78710E-04-1.89987E-04-4.75564E-03 1.84726E-13 8.15688E-14
 -1      1466 2.00250E+01-8.69540E-05-1.46662E-04-4.83818E-03 2.09463E-13 3.74878E-13
 -1      1467 2.00269E+01-9.59185E-04 1.53973E-04-7.37740E-03 2.90501E-13 2.76263E-14
 -1      1468 2.00211E+01 7.65419E-05-1.33542E-04-4.92700E-03 6.99817E-14 3.05229E-13
 -1      1469 2.00152E+01 3.46279E-04-1.20483E-04-4.76928E-03 4.11250E-14 3.37601E-13
 -1      1470 2.00204E+01 5.89616E-05-8.55482E-06-9.23406E-03 1.98698E-13-6.35666E-14
 -1      1471 2.00115E+01 4.60340E-04-1.14360E-04-3.93480E-03-2.62946E-14 3.77188E-13
 -1      1472 2.00070E+01 6.31538E-04-1.03487E-04-3.59375E-03-4.39245E-14 3.29329E-13
 -1      1473 2.00128E+01 7.50141E-04-1.13458E-04-8.33524E-03-8.53458E-15-1.25436E-13
 -1      1474 2.00040E+01 8.08612E-04-8.83257E-05-2.15672E-03-6.59547E-14 4.02471E-13
 -1      1475 2.00018E+01 7.62384E-04-3.01578E-05-1.66231E-03-5.04223E-14 2.86591E-13
 -1      1476 2.00061E+01 1.24554E-03-1.71371E-04-5.66821E-03-1.21143E-13 2.50559E-13
 -1      1477 1.99999E+01 2.53367E-04 5.66887E-05 3.49934E-05-3.00765E-13 2.88527E-13
 -1      1478 2.00011E+01 1.01799E-03-1.17242E-04-1.68268E-03-2.69745E-13 3.56554E-13
 -1      1479 2.02576E+01 7.59709E-02-1.51696E-01 4.83596E-01 1.06117E-13 6.28525E-13
 -1      1480 2.15279E+01 2.16112E-01-2.29206E-01 7.20969E-01 8.85680E-14 7.96016E-13
 -1      1481 2.17272E+01 8.82199E-01-8.52311E-02 2.06490E+00 1.68504E-13 4.84890E-13
 -1      1482 1.93291E+01 3.27421E-02-2.09622E-02 1.86030E-01 5.73673E-14 4.55747E-13
 -1      1483 1.97501E+01 1.13538E-01-6.23561E-02 2.38147E-01 6.09235E-14 5.55027E-13
 -1      1484 2.03022E+01 1.88092E-01-5.47259E-02 7.86459E-01 1.43704E-13 3.52116E-13
 -1      1485 1.89483E+01 1.49354E-02 5.74035E-03 5.32676E-02 3.07818E-14 3.51073E-13
 -1      1486 1.90867E+01 5.16191E-02 1.28913E-03 7.94045E-02 4.22336E-14 4.04392E-13
 -1      1487 1.95569E+01 7.27816E-02-1.17530E-02 2.98770E-01 9.83831E-14 2.61100E-13
 -1      1488 1.88386E+01 7.13858E-03 6.86973E-03-9.29707E-03 4.88281E-14 2.62851E-13
 -1      1489 1.88529E+01 2.59324E-02 1.11432E-02 5.12517E-03 3.57635E-14 3.22568E-13
 -1      1490 1.92225E+01 3.10473E-02-2.54426E-03 8.28717E-02 6.71529E-14 1.75006E-13
 -1      1491 1.88657E+01 3.24588E-03 4.72762E-03-3.96486E-02-6.66676E-15 2.23281E-13
 -1      1492 1.88214E+01 1.38374E-02 8.43885E-03-3.14976E-02 1.54020E-14 2.54876E-13
 -1      1493 1.91070E+01 1.33013E-02-1.70647E-03-2.21943E-02 4.86338E-14 1.62795E-13
 -1      1494 1.89613E+01 1.11394E-03 3.27576E-03-5.32870E-02-1.82519E-14 2.88141E-13
 -1      1495 1.88901E+01 7.35835E-03 5.34765E-03-4.87730E-02-2.81927E-14 2.38932E-13
 -1      1496 1.91095E+01 4.62514E-03-1.67867E-03-7.40013E-02-2.67115E-14 1.91778E-13
 -1      1497 1.90878E+01-1.06507E-04 2.50448E-03-5.75513E-02 4.98381E-15 3.08533E-13
 -1      1498 1.90067E+01 3.56269E-03 3.44023E-03-5.52730E-02-4.36725E-15 2.79986E-13
 -1      1499 1.91742E+01 2.83007E-05-1.40613E-03-9.71533E-02-1.03397E-14 1.75899E-13
 -1      1500 1.92238E+01-7.75685E-04 2.03838E-03-5.65051E-02 4.00011E-14 2.57854E-13
 -1      1501 1.91421E+01 1.28377E-03 2.35378E-03-5.56186E-02 2.54702E-14 2.81643E-13
 -1      1502 1.92690E+01-2.42990E-03-1.03692E-03-1.04093E-01 3.16676E-14 1.53188E-13
 -1      1503 1.93575E+01-1.07586E-03 1.72304E-03-5.27337E-02 4.00479E-14 1.69701E-13
 -1      1504 1.92801E+01-3.28731E-06 1.70431E-03-5.26052E-02 4.05290E-14 2.51303E-13
 -1      1505 1.93753E+01-3.63521E-03-7.19183E-04-1.01944E-01 6.42780E-14 1.28439E-13
 -1      1506 1.94884E+01-1.14097E-03 1.38432E-03-4.75151E-02 3.87291E-15 6.57287E-14
 -1      1507 1.94148E+01-6.55979E-04 1.28335E-03-4.78855E-02 1.83167E-14 1.14584E-13
 -1      1508 1.94852E+01-3.90175E-03-4.97531E-04-9.49138E-02 5.35569E-14 1.01205E-13
 -1      1509 1.96022E+01-8.97159E-04 1.14151E-03-4.26109E-02 2.15212E-14 8.77215E-14
 -1      1510 1.95394E+01-8.53905E-04 9.56459E-04-4.31268E-02 8.59881E-15 8.47261E-14
 -1      1511 1.95906E+01-3.72821E-03-3.37012E-04-8.63714E-02 1.78101E-14 7.50313E-14
 -1      1512 1.97069E+01-5.05703E-04 9.13907E-04-3.88799E-02 3.49215E-14 4.73915E-14
 -1      1513 1.96503E+01-6.24069E-04 7.67743E-04-3.92630E-02 4.48936E-15 5.34529E-14
 -1      1514 1.96874E+01-2.99218E-03-2.81446E-04-7.87497E-02 1.11833E-14 3.14187E-14
 -1      1515 1.98064E+01 1.32647E-04 7.03619E-04-3.72521E-02-8.51926E-15-1.26885E-14
 -1      1516 1.97534E+01 5.81122E-05 6.79888E-04-3.72370E-02 3.28459E-14 1.45248E-14
 -1      1517 1.97798E+01-1.86505E-03-3.40819E-04-7.39103E-02 4.38698E-14-1.14066E-14
 -1      1518 1.99078E+01 1.12431E-03 4.91440E-04-3.89920E-02 3.68747E-14-4.69720E-14
 -1      1519 1.98544E+01 1.29092E-03 6.87458E-04-3.82227E-02 2.22242E-14-4.27305E-14
 -1      1520 1.98722E+01-1.93408E-04-5.36142E-04-7.40370E-02 4.20141E-14-9.55727E-14
 -1      1521 2.00226E+01 2.67512E-03 2.39280E-04-4.59695E-02 1.55548E-14-1.52248E-13
 -1      1522 1.99624E+01 3.34549E-03 8.01522E-04-4.39048E-02 3.67461E-14-1.06107E-13
 -1      1523 1.99720E+01 2.29194E-03-9.36258E-04-8.20727E-02 7.19054E-14-1.68737E-13
 -1      1524 2.01686E+01 5.14468E-03-1.34171E-04-6.11814E-02 2.46004E-14-1.66866E-13
 -1      1525 2.00915E+01 6.72409E-03 1.03962E-03-5.69294E-02-5.95899E-15-1.59572E-13
 -1      1526 2.00914E+01 6.10621E-03-1.67070E-03-1.02489E-01 2.50882E-14-1.87416E-13
 -1      1527 2.03743E+01 9.13387E-03-8.14661E-04-8.95626E-02-6.32233E-14-1.38739E-13
 -1      1528 2.02641E+01 1.23012E-02 1.40872E-03-8.16064E-02-2.27726E-15-1.45074E-13
 -1      1529 2.02489E+01 1.21556E-02-2.97885E-03-1.42457E-01-2.60560E-14-7.92177E-14
 -1      1530 2.06846E+01 1.55800E-02-2.25182E-03-1.39268E-01 3.37612E-14-9.95501E-14
 -1      1531 2.05152E+01 2.15473E-02 1.84824E-03-1.25003E-01 5.31779E-15-1.33370E-13
 -1      1532 2.04729E+01 2.19612E-02-5.31581E-03-2.13650E-01-8.93209E-15-6.13680E-14
 -1      1533 2.11713E+01 2.55964E-02-5.50790E-03-2.23846E-01-8.61203E-15-1.00992E-13
 -1      1534 2.09007E+01 3.72812E-02 2.27247E-03-1.98573E-01 4.48860E-15-1.52218E-13
 -1      1535 2.08072E+01 3.76125E-02-9.70672E-03-3.34877E-01 2.61883E-14-2.66011E-14
 -1      1536 2.19970E+01 4.32519E-02-1.30389E-02-3.72380E-01 5.03850E-15-1.11782E-13
 -1      1537 2.15258E+01 6.28855E-02 1.31193E-03-3.25134E-01 9.35016E-16-1.22948E-13
 -1      1538 2.13350E+01 6.60598E-02-1.71677E-02-5.41718E-01 6.29011E-15-1.56823E-13
 -1      1539 2.32677E+01 6.86510E-02-2.62981E-02-6.02538E-01 2.58881E-14-1.19800E-13
 -1      1540 2.25283E+01 1.03736E-01-2.53009E-03-5.28211E-01 4.50334E-14-8.05640E-14
 -1      1541 2.21487E+01 1.07961E-01-3.16002E-02-8.81283E-01 2.73132E-14-9.92171E-14
 -1      1542 2.52538E+01 1.00135E-01-4.61849E-02-9.54144E-01 7.34187E-14-2.30219E-13
 -1      1543 2.40697E+01 1.58746E-01-1.17472E-02-8.34397E-01 1.96509E-14-1.70461E-13
 -1      1544 2.33578E+01 1.70241E-01-5.27390E-02-1.39539E+00 3.55757E-14-1.61178E-13
 -1      1545 2.82269E+01 1.23228E-01-5.38894E-02-1.43516E+00 1.37217E-14-2.52992E-13
 -1      1546 2.64160E+01 2.17156E-01-2.20839E-02-1.25981E+00 2.13302E-14-2.64413E-13
 -1      1547 2.51307E+01 2.39942E-01-7.62103E-02-2.12844E+00 2.86091E-14-2.15158E-13
 -1      1548 3.22919E+01 7.84989E-02 1.19655E-02-1.92600E+00-6.15445E-14-2.40780E-13
 -1      1549 2.97820E+01 2.13320E-01-1.00946E-02-1.72799E+00 3.56399E-15-2.37199E-13
 -1      1550 2.75938E+01 2.54097E-01-7.23302E-02-2.99931E+00 2.51127E-14-1.07095E-13
 -1      1551 3.68262E+01-1.50646E-01 2.26446E-01-1.95524E+00-1.04784E-13-1.28092E-14
 -1      1552 3.40856E+01-1.14930E-02 7.95407E-02-1.89486E+00-4.80067E-14-1.50796E-13
 -1      1553 3.07286E+01 1.41660E-02 1.95204E-02-3.54457E+00-1.19793E-13 1.47798E-15
 -1      1554 3.96759E+01-6.53550E-01 4.50287E-01-5.19078E-01-2.42431E-13 4.01484E-13
 -1      1555 3.83901E+01-6.58657E-01 2.54543E-01-9.98612E-01-2.36450E-13-8.42382E-15
 -1      1556 3.41515E+01-7.97843E-01 2.17176E-01-2.57397E+00-3.25323E-13 3.54404E-14
 -1      1557 3.76703E+01-9.15200E-01 6.08463E-02 2.67698E+00 3.06657E-13 3.28293E-13
 -1      1558 4.02504E+01-1.34448E+00 2.78877E-01 1.53636E+00 1.19724E-13 4.46143E-13
 -1      1559 3.69345E+01-2.01165E+00 2.47946E-01 1.03159E+00-4.20150E-14-4.78090E-14
 -1      1560 3.20686E+01-4.84242E-02-1.04283E+00 4.54836E+00 2.83162E-13-2.22544E-13
 -1      1561 3.73245E+01-8.23996E-01-2.99008E-01 3.87477E+00 2.57794E-13 1.62759E-13
 -1      1562 3.83441E+01-1.29796E+00 6.36235E-03 5.33074E+00 4.55164E-13 2.07473E-14
 -1      1563 2.79057E+01 1.52074E+00-1.87518E+00 2.25179E+00-2.46470E-14-4.96131E-13
 -1      1564 3.18916E+01 1.08261E+00-1.17805E+00 3.07956E+00 1.33837E-13-3.74922E-13
 -1      1565 3.95906E+01 1.86079E+00-3.76414E-02 5.79568E+00 3.26184E-13-2.75752E-13
 -1      1566 2.96361E+01 1.37378E+00-1.54233E+00-2.41148E+00 1.49492E-13-5.46119E-13
 -1      1567 2.82430E+01 1.88774E+00-1.71590E+00-1.01895E+00 7.56062E-14-5.05256E-13
 -1      1568 3.99906E+01 4.12266E+00-5.85675E-02 2.07432E-01 1.48992E-13-4.77198E-13
 -1      1569 3.44899E+01 8.82020E-02-5.98478E-01-4.51104E+00 2.23266E-13-1.01874E-12
 -1      1570 2.99501E+01 8.12909E-01-1.31053E+00-3.93866E+00 2.50244E-13-6.74349E-13
 -1      1571 3.96335E+01 2.05931E+00-1.07381E-01-5.21629E+00 3.45501E-13-5.37043E-13
 -1      1572 3.95304E+01-1.02809E+00 2.85917E-01-2.85817E+00 1.21306E-13-1.19643E-12
 -1      1573 3.47686E+01-6.98427E-01-3.90080E-01-3.38278E+00 5.84532E-14-1.03961E-12
 -1      1574 3.84554E+01-1.38477E+00-2.35997E-01-5.89105E+00 1.74305E-13-6.35728E-13
 -1      1575 3.61707E+01-3.03248E-01 1.84031E-01 1.89508E+00-2.20997E-13-5.09814E-13
 -1      1576 3.80165E+01-6.62415E-01 3.02494E-01 1.60993E+00-2.63303E-13-7.90139E-13
 -1      1577 3.17632E+01 1.41139E-01-4.70100E-03 2.21318E+00-1.27329E-14-4.32487E-13
 -1      1578 3.45446E+01-5.39114E-02 1.02743E-01 2.27540E+00-3.80980E-14-2.96735E-13
 -1      1579 3.07432E+01-4.42497E-01 7.68145E-02 3.93180E+00-2.40891E-13-2.11199E-13
 -1      1580 2.79708E+01 2.27646E-01-5.20541E-02 1.77230E+00 6.63063E-14-4.50431E-13
 -1      1581 3.03557E+01 1.69913E-01-9.90588E-03 1.90681E+00 1.20964E-13-3.74034E-13
 -1      1582 2.78216E+01 2.69260E-01-1.31223E-02 3.85102E+00 1.19156E-13-8.12336E-14
 -1      1583 2.51788E+01 1.88085E-01-3.91490E-02 1.22634E+00-1.25502E-13-2.33813E-13
 -1      1584 2.68665E+01 1.87248E-01-2.79899E-02 1.33743E+00-8.23803E-14-4.59160E-13
 -1      1585 2.54543E+01 3.93416E-01-4.08872E-02 2.93598E+00-2.36061E-14-2.06141E-13
 -1      1586 2.32820E+01 1.29760E-01-1.95231E-02 7.92888E-01 1.03475E-13-2.98699E-13
 -1      1587 2.43777E+01 1.43674E-01-1.60013E-02 8.68017E-01-2.36269E-14-2.81372E-13
 -1      1588 2.36753E+01 3.15471E-01-3.60428E-02 1.99943E+00-2.00256E-14-5.44568E-13
 -1      1589 2.20471E+01 8.23184E-02-8.11998E-03 4.95931E-01 3.35253E-14-3.97574E-13
 -1      1590 2.27321E+01 9.75422E-02-4.40511E-03 5.42971E-01 1.45130E-13-2.04919E-13
 -1      1591 2.24166E+01 2.12939E-01-2.43996E-02 1.28817E+00 1.43222E-13-2.68172E-13
 -1      1592 2.12366E+01 4.94731E-02-1.72811E-03 2.97873E-01 1.65297E-13-5.99925E-13
 -1      1593 2.16662E+01 6.00921E-02 5.93540E-04 3.27812E-01 9.85358E-14-3.82513E-13
 -1      1594 2.15478E+01 1.34915E-01-1.36097E-02 7.99871E-01 1.31013E-13 2.19148E-14
 -1      1595 2.07608E+01 3.04578E-02 3.59704E-04 1.82252E-01 2.02462E-13-9.86642E-13
 -1      1596 2.10068E+01 3.78956E-02 2.82458E-03 1.98886E-01 1.52244E-13-6.73709E-13
 -1      1597 2.09769E+01 7.87368E-02-9.20617E-03 4.87028E-01 2.90979E-13 1.23391E-13
 -1      1598 2.04639E+01 1.84191E-02 8.40884E-04 1.11371E-01-1.75695E-13-7.36912E-13
 -1      1599 2.06124E+01 2.30411E-02 2.53848E-03 1.21400E-01 7.12139E-14-7.83858E-13
 -1      1600 2.06190E+01 4.72918E-02-5.64129E-03 2.99315E-01 2.83072E-14 9.90991E-14
 -1      1601 2.02794E+01 1.11182E-02 8.24963E-04 6.82163E-02-1.93835E-13-4.48491E-13
 -1      1602 2.03693E+01 1.40582E-02 1.96030E-03 7.42219E-02-3.35966E-13-8.03014E-13
 -1      1603 2.03888E+01 2.80961E-02-3.54583E-03 1.83961E-01-2.76161E-13 2.89757E-14
 -1      1604 2.01645E+01 6.74146E-03 6.69737E-04 4.19583E-02-1.18787E-13-2.18037E-13
 -1      1605 2.02191E+01 8.58215E-03 1.40052E-03 4.55698E-02-9.62774E-14-3.03811E-13
 -1      1606 2.02412E+01 1.66850E-02-2.25272E-03 1.13359E-01-3.33020E-13-3.71561E-13
 -1      1607 2.00929E+01 4.15098E-03 4.99020E-04 2.58762E-02-8.40864E-15-6.91944E-14
 -1      1608 2.01261E+01 5.28233E-03 9.60036E-04 2.80777E-02 6.00470E-14-1.01655E-13
 -1      1609 2.01467E+01 9.97296E-03-1.44497E-03 7.00976E-02-8.12345E-14-4.23655E-13
 -1      1610 2.00483E+01 2.65886E-03 3.41470E-04 1.58139E-02 2.55449E-13-2.07387E-13
 -1      1611 2.00684E+01 3.33527E-03 6.33486E-04 1.72079E-02 4.87563E-14 1.26620E-14
 -1      1612 2.00861E+01 6.09402E-03-9.45810E-04 4.33160E-02 7.59820E-14 4.77710E-15
 -1      1613 2.00215E+01 1.84413E-03 1.96708E-04 9.18657E-03 9.27565E-15-1.55404E-13
 -1      1614 2.00330E+01 2.23500E-03 3.82310E-04 1.01508E-02 2.39264E-13-6.75015E-14
 -1      1615 2.00475E+01 3.93959E-03-6.50267E-04 2.62534E-02 2.14223E-13 1.75621E-13
 -1      1616 2.00068E+01 1.44589E-03 1.21373E-04 4.39352E-03-1.19224E-13-1.82206E-13
 -1      1617 2.00122E+01 1.66904E-03 1.76005E-04 5.16979E-03-9.73983E-14-3.24195E-13
 -1      1618 2.00235E+01 2.86113E-03-4.77309E-04 1.47158E-02-1.50225E-14 1.62954E-13
 -1      1619 2.00010E+01 1.10177E-03 3.57575E-04 7.24787E-04-2.51576E-14 4.64370E-14
 -1      1620 2.00017E+01 1.21494E-03 4.58947E-05 1.30329E-03 4.26524E-15-1.00683E-13
 -1      1621 2.00093E+01 2.38896E-03-3.16737E-04 6.24484E-03-1.30427E-13-2.09619E-13
 -1      1622 2.00002E+01 8.87319E-05 1.03273E-03-5.35035E-04 7.29502E-14-1.19076E-13
 -1      1623 1.99990E+01 5.72451E-04 2.71045E-04-8.99908E-04 4.16040E-14-1.24044E-13
 -1      1624 2.00028E+01 1.48150E-03-1.00647E-04 8.90891E-04 6.81927E-14-9.33936E-14
 -1      1625 2.00003E+01-1.44807E-03 2.96807E-05-8.70851E-04-1.76862E-13-1.23360E-13
 -1      1626 2.00006E+01 2.21189E-03-4.52969E-04 2.31508E-03 6.34283E-13 3.68826E-13
 -1      1627 2.00009E+01 1.15923E-03 5.60126E-05 1.49220E-03-1.73555E-13 4.85849E-13
 -1      1628 2.00018E+01 3.60834E-03 3.35482E-06 1.88178E-03 3.17894E-13 3.56141E-13
 -1      1629 2.00004E+01 1.31424E-02-3.55848E-04 5.42037E-03 1.25963E-12 3.38093E-13
 -1      1630 2.00008E+01 7.70961E-03-1.95797E-04 4.58681E-03 7.35019E-13 2.83944E-13
 -1      1631 2.00018E+01 1.16965E-02-1.92097E-04 7.50293E-03 5.97552E-13 6.26938E-13
 -1      1632 1.99999E+01 2.89704E-02-1.13575E-04 6.98927E-03 8.29618E-13-1.20072E-13
 -1      1633 2.00003E+01 2.04760E-02-1.32962E-04 6.53627E-03 1.11812E-12-9.87205E-14
 -1      1634 2.00007E+01 2.41378E-02-1.91792E-04 1.18727E-02 4.07867E-13-7.89288E-14
 -1      1635 1.99995E+01 4.57504E-02 1.06662E-04 6.72479E-03 6.61650E-13 3.47593E-14
 -1      1636 1.99997E+01 3.64991E-02-1.40317E-05 6.75067E-03 8.00927E-13-1.09191E-13
 -1      1637 1.99997E+01 3.85696E-02-1.09184E-05 1.31559E-02 4.27163E-13-2.11030E-13
 -1      1638 1.99992E+01 5.94216E-02 2.33751E-04 4.99271E-03 7.26810E-13 2.39975E-14
 -1      1639 1.99992E+01 5.17372E-02 6.82422E-05 5.39175E-03 4.37469E-13 7.64816E-14
 -1      1640 1.99989E+01 5.17297E-02 1.53870E-04 1.12934E-02 3.53378E-13-1.40187E-14
 -1      1641 1.99991E+01 6.78397E-02 2.68053E-04 2.40585E-03-2.16980E-13-6.63148E-13
 -1      1642 1.99989E+01 6.30065E-02 9.67439E-05 3.02908E-03 6.08940E-13-5.17795E-13
 -1      1643 1.99985E+01 6.10698E-02 2.53157E-04 7.20848E-03-4.06379E-14-5.94901E-13
 -1      1644 1.99992E+01 6.97236E-02 2.28606E-04-2.98706E-04-7.30237E-13 1.84598E-13
 -1      1645 1.99989E+01 6.84660E-02 8.21933E-05 3.60675E-04-4.39131E-13-1.43349E-13
 -1      1646 1.99984E+01 6.51543E-02 2.80040E-04 2.14011E-03 7.09233E-14-6.15427E-13
 -1      1647 1.99993E+01 6.56123E-02 1.50040E-04-2.54991E-03-3.20904E-13 2.55477E-13
 -1      1648 1.99990E+01 6.76597E-02 4.64433E-05-1.99624E-03-6.33703E-13 2.48056E-13
 -1      1649 1.99987E+01 6.37135E-02 2.44373E-04-2.64716E-03-1.26021E-14 2.54065E-13
 -1      1650 1.99995E+01 5.70371E-02 6.59511E-05-4.04907E-03-1.33997E-13-5.80998E-14
 -1      1651 1.99993E+01 6.15577E-02 8.64096E-06-3.67446E-03-2.76128E-13 1.23498E-13
 -1      1652 1.99991E+01 5.76762E-02 1.72668E-04-6.30609E-03-4.46848E-13 1.69248E-13
 -1      1653 1.99997E+01 4.58984E-02-3.22818E-07-4.76032E-03 2.37039E-13 4.14809E-13
 -1      1654 1.99995E+01 5.18556E-02-1.77098E-05-4.57256E-03-1.72593E-13 3.11001E-13
 -1      1655 1.99994E+01 4.85756E-02 9.36953E-05-8.49205E-03-1.32394E-13 1.77731E-13
 -1      1656 1.99999E+01 3.41426E-02-4.06102E-05-4.83108E-03 7.45753E-13 1.17711E-13
 -1      1657 1.99997E+01 4.04789E-02-2.88471E-05-4.78905E-03 4.33848E-13 1.64163E-13
 -1      1658 1.99998E+01 3.81358E-02 2.97057E-05-9.28834E-03 6.34253E-14 3.81969E-13
 -1      1659 2.00000E+01 2.26998E-02-6.71111E-05-4.44294E-03 3.39037E-13-2.85990E-13
 -1      1660 1.99999E+01 2.88907E-02-3.01567E-05-4.50375E-03 6.87733E-13-1.41661E-13
 -1      1661 2.00000E+01 2.76381E-02-1.72355E-05-9.01002E-03 2.24771E-14-2.22769E-13
 -1      1662 2.00000E+01 1.27524E-02-1.10244E-04-3.67982E-03-3.20369E-13-3.12219E-13
 -1      1663 2.00000E+01 1.81267E-02-4.04583E-05-3.83201E-03 1.40841E-13-3.00082E-13
 -1      1664 2.00002E+01 1.79686E-02-6.11246E-05-7.93813E-03 5.52446E-14-4.92699E-13
 -1      1665 2.00002E+01 5.03564E-03-2.14570E-04-2.51459E-03-4.04376E-13 8.32263E-14
 -1      1666 2.00001E+01 9.20733E-03-9.06359E-05-2.83555E-03-2.28028E-13-5.05019E-14
 -1      1667 2.00004E+01 1.00574E-02-9.11540E-05-6.12212E-03-2.08337E-13-1.28899E-13
 -1      1668 2.00001E+01 3.19603E-03-4.86030E-05-1.98807E-03-3.48688E-13 4.69441E-14
 -1      1669-1.46177E+00-1.86129E+01-1.93563E+00-3.01236E+00 1.29896E-14 1.08358E-13
 -1      1670-1.05285E+00-1.90603E+01-1.85282E+00-1.07280E+00-3.91714E-13 1.96954E-13
 -1      1671-1.04837E+00-1.36885E+01-1.93768E+00-3.05726E+00 4.84501E-13 5.45730E-13
 -1      1672-9.27920E-01-1.82835E+01-2.18006E+00-2.66511E+00 3.28071E-14 1.64146E-13
 -1      1673 5.65364E+00-5.89746E+00-1.39081E+00 1.52600E+00 9.94316E-13 1.11577E-12
 -1      1674 2.71893E+00-1.14988E+01-1.93812E+00-8.92067E-01 6.18283E-13 7.83068E-13
 -1      1675 1.57755E+01 1.09549E-02-8.57122E-01 6.57929E+00 1.19105E-12 1.38867E-12
 -1      1676 8.69126E+00-4.74453E+00-1.79832E+00 2.16271E+00 1.26565E-12 1.19760E-12
 -1      1677 1.36200E+01-7.67949E+00-9.72156E-01 4.35841E+00 4.98046E-13 1.05438E-12
 -1      1678 3.76159E+01 3.52694E+00 8.74894E-01 1.09763E+01 1.00298E-12 1.44218E-12
 -1      1679 2.44452E+01 1.76511E+00-7.65708E-01 7.31413E+00 1.06293E-12 1.58540E-12
 -1      1680 5.96771E+01 3.94608E+00 2.99332E+00 1.02512E+01 5.30159E-13 1.09002E-12
 -1      1681 4.53213E+01 4.78923E+00 1.22749E+00 1.07898E+01 7.59504E-13 1.28031E-12
 -1      1682 7.35419E+01 3.61450E+00 4.43130E+00 2.97551E+00 3.54716E-13 3.72813E-13
 -1      1683 6.45564E+01 4.72167E+00 3.24528E+00 8.12235E+00 4.83169E-13 8.36664E-13
 -1      1684 7.28182E+01 4.32641E+00 4.29701E+00-5.09830E+00-3.67484E-14 3.14526E-13
 -1      1685 7.54037E+01 3.95169E+00 4.63850E+00 1.76079E+00 2.45359E-14 3.94712E-13
 -1      1686 5.59360E+01 4.77094E+00 2.23087E+00-9.13226E+00 3.55577E-13-6.50591E-14
 -1      1687 6.86671E+01 3.48854E+00 3.86017E+00-5.80961E+00 2.05336E-13 3.15525E-13
 -1      1688 3.49739E+01 3.86271E+00 1.58466E-01-9.84352E+00 4.34541E-13-4.99600E-13
 -1      1689 4.95319E+01 4.03989E+00 1.95608E+00-1.15449E+01 3.76588E-13-2.16271E-13
 -1      1690 1.69740E+01-1.24901E-01-1.30585E+00-5.59157E+00 3.58158E-13-4.88054E-13
 -1      1691 2.72980E+01 3.06620E+00 6.85161E-02-9.85833E+00 3.72369E-13-6.50591E-13
 -1      1692 5.56732E+00-6.73222E+00-1.98884E+00-5.96653E-01 7.60281E-13-3.90243E-13
 -1      1693 1.06604E+01-1.27822E+00-1.15864E+00-4.37420E+00 5.17808E-13-2.99760E-13
 -1      1694 7.75685E-01-1.41052E+01-2.02921E+00 1.95647E+00 1.06870E-12-3.80945E-13
 -1      1695 2.17192E+00-8.47631E+00-1.64028E+00 5.47309E-01 8.55982E-13-3.48110E-13
 -1      1696-8.87196E-01-1.84251E+01-1.91369E+00 1.84821E+00 1.00098E-12-2.27263E-13
 -1      1697-1.13763E+00-1.52801E+01-1.78726E+00 2.85917E+00 1.04561E-12-3.63987E-13
 -1      1698-9.83577E-01-1.90395E+01-1.85780E+00 5.79872E-01 6.30884E-13-2.49023E-13
 -1      1699-1.32278E+00-1.97985E+01-1.98494E+00 2.63062E+00 1.08371E-12-3.56326E-13
 -1      1700 4.21692E-02-1.31232E+01-1.41298E+00 2.60877E-01-1.96509E-13-4.59729E-13
 -1      1701-2.67509E-01-1.76632E+01-1.83957E+00 1.07814E+00 4.13336E-13-2.97318E-13
 -1      1702 3.43110E+00-4.51244E+00-8.53060E-01 2.82265E+00-9.59677E-13-8.13793E-13
 -1      1703 1.82155E+00-1.09393E+01-1.52696E+00 1.15988E+00-4.92717E-13-4.73260E-13
 -1      1704 1.24455E+01 2.71313E+00-1.03068E-01 8.20025E+00-1.35358E-12-1.43918E-12
 -1      1705 7.84368E+00-2.46042E+00-8.65116E-01 4.64322E+00-1.00853E-12-1.02685E-12
 -1      1706 2.36395E+01 7.95039E+00 6.15547E-01 1.30396E+01-1.56142E-12-1.60116E-12
 -1      1707 1.60660E+01 5.54201E+00-2.23029E-01 9.48172E+00-1.66933E-12-1.51268E-12
 -1      1708 3.81114E+01 7.99714E+00 1.21165E+00 1.48875E+01-1.06914E-12-1.51057E-12
 -1      1709 2.91015E+01 8.53471E+00 5.09979E-01 1.36013E+01-1.37668E-12-1.59739E-12
 -1      1710 5.14840E+01 6.02195E+00 1.74129E+00 1.29522E+01-6.44429E-13-1.06137E-12
 -1      1711 4.26612E+01 8.26979E+00 1.20527E+00 1.49990E+01-9.84157E-13-1.41354E-12
 -1      1712 3.95886E+01 6.33605E+00 1.04133E+00 9.20289E+00-9.39582E-13-8.61755E-13
 -1      1713 5.96334E+01 4.07782E+00 1.85404E+00 4.28519E+00-2.82718E-13-6.25611E-13
 -1      1714 5.51535E+01 5.67098E+00 1.67747E+00 9.52434E+00-4.25812E-13-9.60898E-13
 -1      1715 5.98039E+01 4.31093E+00 1.85699E+00-4.96551E+00-3.69288E-13 1.17240E-13
 -1      1716 6.10294E+01 3.88358E+00 1.91001E+00 1.24635E+00-3.10529E-13-4.24681E-13
 -1      1717 5.13157E+01 6.41752E+00 1.47902E+00-1.19807E+01-6.03337E-13 8.18456E-13
 -1      1718 5.76772E+01 4.60312E+00 1.87672E+00-7.88369E+00-3.96322E-13 3.79696E-13
 -1      1719 3.78583E+01 8.43594E+00 8.86293E-01-1.44359E+01-8.69249E-13 1.33649E-12
 -1      1720 4.69904E+01 6.86675E+00 1.55402E+00-1.36698E+01-7.13485E-13 1.09002E-12
 -1      1721 2.39455E+01 7.52728E+00 1.73047E-01-1.21075E+01-9.98313E-13 1.29341E-12
 -1      1722 3.26466E+01 8.03334E+00 9.58197E-01-1.43843E+01-9.09495E-13 1.39844E-12
 -1      1723 1.17718E+01 3.17958E+00-5.64225E-01-7.36255E+00-8.64198E-13 8.15792E-13
 -1      1724 1.83998E+01 6.76919E+00 2.87905E-01-1.13273E+01-9.58789E-13 1.29075E-12
 -1      1725 4.44868E+00-4.91390E+00-1.19129E+00-2.72076E+00-8.13571E-13 5.41400E-13
 -1      1726 7.64619E+00 1.01706E+00-4.33560E-01-5.77936E+00-9.07718E-13 5.56222E-13
 -1      1727 1.05144E+00-1.32999E+01-1.62584E+00-8.43980E-01-9.92095E-13 8.81413E-14
 -1      1728 2.02579E+00-7.44445E+00-1.05768E+00-1.64195E+00-8.01803E-13 3.67012E-13
 -1      1729-6.58592E-01-1.90069E+01-1.93130E+00-1.35264E+00-5.04152E-13 3.96932E-13
 -1      1730-4.50595E-01-1.54404E+01-1.59221E+00 6.07680E-02-9.15712E-13 2.72948E-13
 -1      1731 2.68539E+01-4.40802E+00-3.91468E-01 4.58218E+00 7.79377E-13 1.10334E-12
 -1      1732 3.96454E+01-1.11606E+00 4.36066E-01-1.88971E-01-2.12691E-13-8.50542E-13
 -1      1733 3.83126E+01-1.37230E+00 1.77712E-01-1.21764E+00-1.49047E-14-1.02612E-12
 -1      1734 3.72680E+01-2.60107E+00 1.65780E-01-2.45707E+00-9.54271E-14-6.44117E-13
 -1      1735 2.00022E+01 4.35262E-03 4.24972E-05-4.52048E-03-9.53636E-14 2.03647E-13
 -1      1736-1.90725E+00-1.28647E+01-1.36963E+00-2.03062E+00-1.96232E-13 4.07063E-13
 -1      1737 4.48776E+00-1.03586E+01-1.23994E+00 2.60844E+00 1.66755E-13 9.06081E-13
 -1      1738-1.31252E+00-1.28009E+01-1.46331E+00-2.59672E-01-1.86517E-14 3.01870E-13
 -1      1739 4.35347E+01-3.08549E-02 9.03607E-01 3.33430E+00 7.54563E-13 6.65468E-13
 -1      1740 5.54103E+01 4.77333E+00 2.43674E+00 6.64225E-01 5.50004E-13 3.66152E-13
 -1      1741 6.11318E+01 7.87929E+00 3.35849E+00 7.97334E-02 2.58127E-13 3.57714E-13
 -1      1742 5.90870E+01 6.83143E+00 2.96852E+00 4.67377E-01 1.58318E-13 2.75446E-13
 -1      1743 5.08192E+01 2.71744E+00 1.86218E+00-1.15709E+00 4.42826E-13 1.16573E-13
 -1      1744 3.68773E+01-1.56728E+00 4.40793E-01-4.35394E+00 1.26121E-13-2.04725E-13
 -1      1745 2.12275E+01-5.15322E+00-7.57684E-01-4.81276E+00 2.41474E-13-1.98397E-13
 -1      1746 9.29730E+00-8.57492E+00-1.26623E+00-3.47855E+00 5.20917E-13 1.01585E-14
 -1      1747 1.84061E+00-1.08991E+01-1.29244E+00-1.69883E+00 4.21219E-13-1.81632E-13
 -1      1748-1.78660E+00-1.27770E+01-1.37394E+00 5.75649E-01 4.42701E-13-2.99150E-13
 -1      1749-1.41770E+00-1.26733E+01-1.34199E+00 2.72954E+00 2.94986E-13-6.36546E-13
 -1      1750 2.50043E+00-9.45669E+00-1.00314E+00 4.70509E+00-6.47260E-14-8.01637E-13
 -1      1751 1.04696E+01-5.13797E+00-4.25773E-01 7.23236E+00-3.87024E-13-9.06164E-13
 -1      1752 1.95982E+01-1.00626E+00-1.47958E-01 8.44859E+00-7.27862E-13-1.06404E-12
 -1      1753 2.97587E+01 3.75627E+00 5.06795E-01 9.44018E+00-1.11477E-12-9.65672E-13
 -1      1754 5.20097E+01 8.07368E+00 1.53010E+00 1.20130E+00-4.91607E-13-3.06338E-13
 -1      1755 5.14745E+01 8.02419E+00 1.60765E+00-3.29713E+00-6.25056E-13-2.68674E-14
 -1      1756 4.56204E+01 7.18536E+00 1.32165E+00-7.09284E+00-6.58695E-13 3.41061E-13
 -1      1757 3.63760E+01 5.23152E+00 8.24713E-01-8.85285E+00-6.08347E-13 6.85230E-13
 -1      1758 2.58234E+01 2.33227E+00 3.41884E-01-9.14924E+00-4.96936E-13 9.39693E-13
 -1      1759 1.50792E+01-1.76006E+00-2.66021E-01-7.90197E+00-4.64073E-13 5.67435E-13
 -1      1760 6.69726E+00-6.64860E+00-7.77481E-01-5.92916E+00-4.08340E-13 3.03896E-13
 -1      1761 9.43647E-01-1.07507E+01-1.14851E+00-4.07611E+00-5.56666E-13 2.29317E-13
 -1      1762 2.28581E+01 1.98477E+00-2.35964E-02-2.72179E+00-1.16164E-13 8.11906E-13
 -1      1763 4.80004E+01 7.48380E+00 1.39461E+00 6.61594E+00-6.18755E-13-6.62359E-13
 -1      1764 3.41027E+01-1.90549E+00 1.96433E-01 1.64915E+00-3.32678E-13-5.61086E-13
 -1      1765 1.98238E+01 3.71465E+00-3.55463E-02-2.15077E+00-2.01108E-13 1.73125E-15
 -1      1766 2.00589E+01 3.56224E+00-4.02418E-02-2.44379E+00-2.17448E-13 7.91173E-14
 -1      1767 2.03641E+01 3.18175E+00-4.57132E-02-2.58383E+00-2.13344E-13 1.70038E-13
 -1      1768 2.05837E+01 2.80989E+00-1.42505E-01-2.85230E+00-2.13225E-13 2.81691E-13
 -1      1769 2.04241E+01 2.69359E+00-4.44587E-03-2.22472E+00-2.20622E-13 1.30104E-13
 -1      1770 1.93548E+01 4.19043E+00-2.01752E-02-1.26963E+00-1.43928E-13-1.58479E-13
 -1      1771 1.94283E+01 4.14982E+00-1.74855E-02-1.49382E+00-1.64681E-13-1.30286E-13
 -1      1772 1.92584E+01 4.29585E+00-1.68049E-02-8.58982E-01-1.08170E-13-2.02848E-13
 -1      1773 1.93012E+01 4.27203E+00-1.43286E-02-1.06954E+00-1.21322E-13-1.81487E-13
 -1      1774 1.95269E+01 3.78420E+00-9.21432E-03-1.11900E+00-1.38153E-13-1.59928E-13
 -1      1775 1.92069E+01 4.35639E+00-1.48046E-02-4.66418E-01-6.54951E-14-2.14799E-13
 -1      1776 1.92288E+01 4.34355E+00-1.33127E-02-6.66534E-01-8.69364E-14-2.08970E-13
 -1      1777 1.94297E+01 3.90477E+00-9.19673E-03-7.32540E-01-9.84694E-14-1.91803E-13
 -1      1778 1.91875E+01 4.38206E+00-1.36641E-02-8.36736E-02-2.58459E-14-2.39773E-13
 -1      1779 1.91939E+01 4.37814E+00-1.32118E-02-2.78919E-01-4.36240E-14-2.29384E-13
 -1      1780 1.93793E+01 3.96947E+00-9.14097E-03-3.58000E-01-5.27876E-14-2.12028E-13
 -1      1781 1.91957E+01 4.37671E+00-1.31611E-02 2.97658E-01 5.28210E-15-2.48336E-13
 -1      1782 1.91880E+01 4.38120E+00-1.37504E-02 1.02241E-01-8.66768E-15-2.44627E-13
 -1      1783 1.93646E+01 3.98892E+00-9.12625E-03 1.03772E-02-1.83619E-14-2.26905E-13
 -1      1784 1.92332E+01 4.33935E+00-1.33170E-02 6.86042E-01 4.31317E-14-2.70815E-13
 -1      1785 1.92099E+01 4.35310E+00-1.49180E-02 4.85390E-01 2.44516E-14-2.66148E-13
 -1      1786 1.93822E+01 3.96608E+00-9.17016E-03 3.78963E-01 1.31345E-14-2.47018E-13
 -1      1787 1.93069E+01 4.26571E+00-1.44022E-02 1.08348E+00 7.77095E-14-2.59532E-13
 -1      1788 1.92635E+01 4.29024E+00-1.69800E-02 8.75602E-01 6.49847E-14-2.63220E-13
 -1      1789 1.94353E+01 3.89831E+00-9.18228E-03 7.50770E-01 5.90819E-14-2.57773E-13
 -1      1790 1.94386E+01 4.13828E+00-1.74190E-02 1.51339E+00 1.36201E-13-2.21132E-13
 -1      1791 1.93621E+01 4.18089E+00-2.05265E-02 1.28392E+00 1.02246E-13-2.36722E-13
 -1      1792 1.95352E+01 3.77401E+00-9.26151E-03 1.13434E+00 1.05133E-13-2.25590E-13
 -1      1793 1.96674E+01 3.92156E+00-2.52751E-02 1.97844E+00 1.82292E-13-1.80918E-13
 -1      1794 1.95350E+01 3.99849E+00-2.69000E-02 1.72108E+00 1.55464E-13-2.04649E-13
 -1      1795 1.97085E+01 3.56643E+00-8.87250E-03 1.53401E+00 1.58769E-13-1.92575E-13
 -1      1796 2.00787E+01 3.52275E+00-4.43077E-02 2.47504E+00 2.14951E-13-8.81170E-14
 -1      1797 1.98417E+01 3.68408E+00-3.78709E-02 2.18038E+00 1.88424E-13-1.48499E-13
 -1      1798 2.00027E+01 3.22149E+00-6.59230E-03 1.93081E+00 1.97297E-13-1.43998E-13
 -1      1799 2.09187E+01 2.66911E+00-6.21726E-02 2.85426E+00 2.18042E-13 1.02522E-13
 -1      1800 2.04126E+01 3.10010E+00-4.97235E-02 2.61200E+00 2.09620E-13-1.24067E-14
 -1      1801 2.04976E+01 2.60863E+00-9.65560E-04 2.23746E+00 2.26452E-13-3.46077E-14
 -1      1802 2.17285E+01 1.21135E+00-1.23355E-01 2.32812E+00 1.91305E-13 3.55341E-13
 -1      1803 2.12767E+01 2.27242E+00 3.36035E-03 2.74089E+00 2.07685E-13 1.90722E-13
 -1      1804 2.09594E+01 1.68873E+00-1.35786E-02 2.14480E+00 2.28782E-13 1.11151E-13
 -1      1805 2.09585E+01 7.78844E-01-6.05516E-02 1.52281E+00 1.96662E-13 3.01242E-13
 -1      1806 2.17968E+01 2.45804E+00 9.08398E-02-3.04718E+00-1.68409E-13 4.71789E-13
 -1      1807 2.01046E+01 2.97855E-01-7.83785E-03 6.57083E-01 1.46730E-13 2.19274E-13
 -1      1808 2.06490E+01 4.39016E-01-1.40799E-02 1.03408E+00 1.57999E-13 2.67741E-13
 -1      1809 2.07481E+01 8.46394E-01 5.43997E-03 1.40866E+00 1.81771E-13 1.68886E-13
 -1      1810 4.37025E+01 7.15256E+00 3.90893E-01 2.52557E+00-4.19109E-13-3.92686E-13
 -1      1811 4.15728E+01 6.25882E+00 4.10432E-01 4.75950E+00-6.05987E-13-3.76588E-13
 -1      1812 2.15074E+01 1.74269E+00 7.94348E-02-2.33601E+00-1.82757E-13 3.86850E-13
 -1      1813 2.05224E+01 5.00569E-01 3.25384E-02-9.20412E-01-1.46511E-13 3.56620E-13
 -1      1814 2.00909E+01 3.52055E-01 7.62118E-03-6.28550E-01-1.31718E-13 3.09327E-13
 -1      1815 1.98965E+01 2.57681E-01 2.74050E-02-3.89970E-01-1.28767E-13 2.84493E-13
 -1      1816 1.97062E+01 1.78557E-01 1.04442E-02-2.51859E-01-1.29239E-13 2.44399E-13
 -1      1817 2.02010E+01 4.84323E-01-5.68772E-03-7.21292E-01-1.62537E-13 1.87659E-13
 -1      1818 1.95847E+01 1.33216E-01 1.66676E-02-1.17956E-01-1.01875E-13 2.39441E-13
 -1      1819 1.95075E+01 9.36116E-02 7.02075E-03-4.68514E-02-8.87424E-14 2.08343E-13
 -1      1820 1.98757E+01 2.45043E-01-5.62905E-03-2.93376E-01-1.43625E-13 1.48749E-13
 -1      1821 1.94433E+01 6.89478E-02 8.69253E-03 2.70227E-02-8.03958E-14 1.93730E-13
 -1      1822 1.94298E+01 4.73714E-02 4.17312E-03 6.35713E-02-9.72247E-14 1.74716E-13
 -1      1823 1.96944E+01 1.26238E-01-4.55053E-03-5.57239E-02-1.05540E-13 1.08977E-13
 -1      1824 1.94046E+01 3.30912E-02 4.24643E-03 1.02770E-01-8.68231E-14 1.75800E-13
 -1      1825 1.94258E+01 2.07841E-02 2.50153E-03 1.20008E-01-7.64742E-14 1.42753E-13
 -1      1826 1.96093E+01 6.20545E-02-3.42494E-03 7.48559E-02-9.48782E-14 1.05502E-13
 -1      1827 1.94251E+01 1.22200E-02 1.86773E-03 1.38571E-01-8.38541E-14 1.51408E-13
 -1      1828 1.94640E+01 5.17090E-03 1.52435E-03 1.44571E-01-7.09568E-14 1.34644E-13
 -1      1829 1.95870E+01 2.54029E-02-2.33786E-03 1.42558E-01-9.52487E-14 9.54059E-14
 -1      1830 1.94778E+01 4.64625E-05 5.67867E-04 1.50743E-01-6.34930E-14 1.37933E-13
 -1      1831 1.95243E+01-3.82883E-03 9.13217E-04 1.50203E-01-3.23239E-14 1.44571E-13
 -1      1832 1.96030E+01 4.12812E-03-1.46223E-03 1.72477E-01-7.49512E-14 1.02029E-13
 -1      1833 1.95459E+01-6.78297E-03-1.55365E-04 1.49067E-01-6.10173E-14 1.24158E-13
 -1      1834 1.95941E+01-8.70417E-03 5.08125E-04 1.44877E-01-4.10841E-14 1.07752E-13
 -1      1835 1.96406E+01-7.92790E-03-8.30086E-04 1.79713E-01-5.08605E-14 7.94432E-14
 -1      1836 1.96191E+01-1.02907E-02-5.48759E-04 1.39625E-01-3.25606E-14 1.05237E-13
 -1      1837 1.96655E+01-1.10580E-02 2.23838E-04 1.33565E-01-5.64527E-14 9.62767E-14
 -1      1838 1.96890E+01-1.43016E-02-3.99808E-04 1.73684E-01-5.50471E-14 6.26819E-14
 -1      1839 1.96911E+01-1.18462E-02-7.45186E-04 1.26149E-01-6.04041E-14 6.80876E-14
 -1      1840 1.97336E+01-1.20485E-02 1.45871E-06 1.19233E-01-3.36842E-14 4.46417E-14
 -1      1841 1.97411E+01-1.72868E-02-1.15523E-04 1.60276E-01-4.38418E-14 6.47306E-14
 -1      1842 1.97581E+01-1.24893E-02-8.25645E-04 1.10693E-01-1.09713E-14 4.65487E-14
 -1      1843 1.97955E+01-1.26149E-02-2.09754E-04 1.03339E-01 1.01727E-14 5.79936E-14
 -1      1844 1.97923E+01-1.85607E-02 7.25182E-05 1.42937E-01-3.02083E-14 7.49772E-14
 -1      1845 1.98177E+01-1.31068E-02-8.44589E-04 9.39794E-02 2.07257E-14 2.13589E-14
 -1      1846 1.98491E+01-1.36095E-02-4.58957E-04 8.60829E-02 2.88529E-14 5.97491E-14
 -1      1847 1.98399E+01-1.95065E-02 2.05300E-04 1.23250E-01-1.83466E-15 6.54068E-14
 -1      1848 1.98682E+01-1.45373E-02-8.40930E-04 7.55401E-02 2.28515E-14 7.01651E-14
 -1      1849 1.98925E+01-1.58728E-02-7.95308E-04 6.65002E-02-1.02208E-14 9.25428E-14
 -1      1850 1.98819E+01-2.13974E-02 3.17323E-04 1.01217E-01 3.63893E-14 8.01289E-14
 -1      1851 1.99076E+01-1.76236E-02-8.43368E-04 5.37660E-02-4.28332E-14 1.93972E-15
 -1      1852 1.99231E+01-2.02543E-02-1.26543E-03 4.24840E-02-4.76474E-14-5.20035E-15
 -1      1853 1.99165E+01-2.54928E-02 4.39278E-04 7.53679E-02-5.92241E-14 1.32425E-14
 -1      1854 1.99329E+01-2.32023E-02-8.73033E-04 2.59205E-02-4.74058E-14 3.44412E-14
 -1      1855 1.99368E+01-2.75568E-02-1.90542E-03 1.08216E-02-6.24959E-14 3.75314E-14
 -1      1856 1.99415E+01-3.30423E-02 5.99904E-04 4.28075E-02-6.39718E-14-7.57012E-14
 -1      1857 1.99396E+01-3.20010E-02-9.44479E-04-1.17693E-02-6.87473E-14-2.59350E-14
 -1      1858 1.99281E+01-3.83661E-02-2.72575E-03-3.26333E-02-3.48920E-14-1.03031E-13
 -1      1859 1.99539E+01-4.51610E-02 8.26494E-04-6.89433E-04-8.28591E-14-3.83710E-14
 -1      1860 1.99212E+01-4.44026E-02-1.06545E-03-6.37960E-02-4.20704E-14-1.16459E-13
 -1      1861 1.98890E+01-5.27282E-02-3.68849E-03-9.24818E-02-9.48244E-14-1.18643E-13
 -1      1862 1.99493E+01-6.25192E-02 1.14307E-03-6.03694E-02-5.86365E-14-1.25047E-13
 -1      1863 1.98690E+01-6.00443E-02-1.23533E-03-1.34638E-01-1.00666E-13-4.81628E-14
 -1      1864 1.98096E+01-6.96607E-02-4.68003E-03-1.72787E-01-3.22602E-14-4.26608E-14
 -1      1865 1.99214E+01-8.47988E-02 1.56445E-03-1.41757E-01-4.01997E-14-8.07643E-14
 -1      1866 1.97718E+01-7.72695E-02-1.44161E-03-2.27399E-01 6.04161E-15-6.61157E-14
 -1      1867 1.96785E+01-8.65686E-02-5.48885E-03-2.75395E-01-7.98775E-15-5.56060E-14
 -1      1868 1.98620E+01-1.09930E-01 2.08362E-03-2.49230E-01-4.07725E-14-7.51835E-14
 -1      1869 1.96177E+01-9.25632E-02-1.65215E-03-3.41715E-01-1.23651E-14 9.74692E-15
 -1      1870 1.94847E+01-9.87904E-02-5.80730E-03-3.97550E-01-1.66768E-14-3.87185E-14
 -1      1871 1.97614E+01-1.33271E-01 2.65035E-03-3.83724E-01 4.49122E-14-2.25668E-14
 -1      1872 1.93957E+01-1.00291E-01-1.80256E-03-4.71102E-01-6.93300E-14-5.53716E-14
 -1      1873 1.92206E+01-9.97066E-02-5.28370E-03-5.29226E-01-5.38985E-14-8.91143E-14
 -1      1874 1.96093E+01-1.47146E-01 3.14170E-03-5.39661E-01-5.05342E-14-1.19969E-14
 -1      1875 1.91002E+01-9.32614E-02-1.77734E-03-6.00497E-01-5.56981E-14-1.34320E-13
 -1      1876 1.88865E+01-8.19778E-02-3.64358E-03-6.51184E-01-3.08742E-14-1.37704E-13
 -1      1877 1.93975E+01-1.41441E-01 3.33592E-03-7.01743E-01-8.23330E-14-8.37514E-14
 -1      1878 1.87355E+01-6.46533E-02-1.39736E-03-7.05421E-01 3.98566E-14-1.04041E-13
 -1      1879 1.84950E+01-4.02938E-02-8.66781E-04-7.35493E-01 7.67226E-14-6.59943E-14
 -1      1880 1.91239E+01-1.06030E-01 2.92290E-03-8.43112E-01 2.58040E-14-1.16051E-13
 -1      1881 1.83219E+01-1.14064E-02-4.39330E-04-7.54730E-01 8.89094E-14-1.20739E-13
 -1      1882 1.80757E+01 2.48080E-02 2.65726E-03-7.50332E-01 6.06481E-14-5.62935E-14
 -1      1883 1.87981E+01-3.52665E-02 1.60000E-03-9.27135E-01 1.03582E-13-4.51180E-14
 -1      1884 1.78980E+01 6.19638E-02 1.26652E-03-7.18291E-01 5.39146E-14-3.69444E-14
 -1      1885 1.76747E+01 1.03816E-01 6.12563E-03-6.69651E-01 7.70616E-14-4.86362E-14
 -1      1886 1.84460E+01 6.66394E-02-7.26537E-04-9.14946E-01 1.00772E-13-6.73634E-14
 -1      1887 1.75185E+01 1.41490E-01 3.67591E-03-5.78640E-01 3.56572E-15-1.15046E-13
 -1      1888 1.73494E+01 1.78515E-01 8.57236E-03-4.85281E-01-1.18807E-14-8.54054E-14
 -1      1889 1.81111E+01 1.82323E-01-3.71640E-03-7.78741E-01 1.29274E-14-1.91651E-13
 -1      1890 1.72433E+01 2.06382E-01 6.36693E-03-3.42164E-01 7.70954E-15-1.24147E-13
 -1      1891 1.71553E+01 2.27379E-01 9.30022E-03-2.15828E-01 1.57860E-16-5.99440E-14
 -1      1892 1.78481E+01 2.83685E-01-6.51694E-03-5.16720E-01-2.59237E-14-2.04590E-13
 -1      1893 1.71218E+01 2.36619E-01 8.55643E-03-4.31403E-02-8.85056E-15-9.93596E-14
 -1      1894 1.71297E+01 2.34598E-01 8.23688E-03 9.40755E-02-3.25855E-14-4.00000E-14
 -1      1895 1.77082E+01 3.41136E-01-8.08433E-03-1.61705E-01-4.35936E-15-7.97935E-14
 -1      1896 1.71764E+01 2.22089E-01 9.38266E-03 2.63974E-01-1.10041E-13-1.08466E-14
 -1      1897 1.72790E+01 1.97753E-01 5.94685E-03 3.86334E-01-1.17364E-13-3.27247E-14
 -1      1898 1.77214E+01 3.36240E-01-7.76021E-03 2.23923E-01-4.56961E-14-1.26017E-13
 -1      1899 1.73955E+01 1.67703E-01 8.35620E-03 5.22063E-01-1.24710E-13-2.25106E-14
 -1      1900 1.75755E+01 1.29098E-01 3.29558E-03 6.08777E-01-5.24047E-14-5.08836E-14
 -1      1901 1.78848E+01 2.70559E-01-5.70049E-03 5.67435E-01-1.27043E-13-1.08446E-13
 -1      1902 1.77375E+01 9.08968E-02 5.66561E-03 6.90238E-01 1.97134E-14-1.06249E-13
 -1      1903 1.79670E+01 4.94559E-02 1.01078E-03 7.31569E-01 4.90233E-14-3.19616E-14
 -1      1904 1.81639E+01 1.64942E-01-2.77648E-03 8.10363E-01-6.43843E-15-1.01269E-13
 -1      1905 1.81459E+01 1.32767E-02 2.09661E-03 7.54640E-01 4.61007E-14-1.33081E-14
 -1      1906 1.83936E+01-2.10756E-02-5.52991E-04 7.52904E-01 1.00552E-13-2.13933E-14
 -1      1907 1.85057E+01 4.96967E-02-1.62710E-05 9.25786E-01 1.18238E-13-2.22583E-13
 -1      1908 1.85645E+01-4.81130E-02-1.36766E-03 7.27252E-01 1.64678E-13 3.36248E-14
 -1      1909 1.88028E+01-7.00331E-02-1.38948E-03 6.93315E-01 1.94707E-13 8.63769E-14
 -1      1910 1.88568E+01-4.80818E-02 1.91344E-03 9.20812E-01 1.62434E-13-5.84264E-14
 -1      1911 1.89501E+01-8.53447E-02-3.97493E-03 6.35989E-01 1.96718E-13 8.25188E-14
 -1      1912 1.91596E+01-9.43547E-02-1.68060E-03 5.83939E-01 1.44161E-13 9.20496E-14
 -1      1913 1.91769E+01-1.12976E-01 2.85648E-03 8.26258E-01 1.89071E-13 5.30107E-14
 -1      1914 1.92763E+01-9.91041E-02-5.41023E-03 5.12671E-01-2.87999E-14 8.35597E-14
 -1      1915 1.94469E+01-9.79658E-02-1.63965E-03 4.55323E-01-1.22202E-13 7.12499E-14
 -1      1916 1.94431E+01-1.42592E-01 3.01005E-03 6.81512E-01 2.86980E-14 2.20591E-14
 -1      1917 1.95331E+01-9.52609E-02-5.75274E-03 3.84126E-01-9.39871E-14 1.47247E-13
 -1      1918 1.96627E+01-8.79101E-02-1.43253E-03 3.30608E-01-8.24430E-14 1.64546E-13
 -1      1919 1.96486E+01-1.43647E-01 2.69109E-03 5.22071E-01-9.01332E-14 4.21196E-14
 -1      1920 1.97225E+01-8.11563E-02-5.30548E-03 2.68196E-01-1.10329E-13 2.17961E-13
 -1      1921 1.98146E+01-7.11869E-02-1.16570E-03 2.23510E-01-1.12817E-13 2.87413E-13
 -1      1922 1.97970E+01-1.26533E-01 2.17229E-03 3.73076E-01-1.09779E-13 1.81794E-13
 -1      1923 1.98533E+01-6.31160E-02-4.42240E-03 1.73751E-01-1.95473E-14 3.74519E-13
 -1      1924 1.99144E+01-5.30753E-02-8.97360E-04 1.39531E-01-7.60611E-15 4.20695E-13
 -1      1925 1.98976E+01-1.01101E-01 1.63000E-03 2.48276E-01 3.55922E-15 3.46361E-13
 -1      1926 1.99376E+01-4.54347E-02-3.39890E-03 1.02833E-01-1.46873E-13 3.48567E-13
 -1      1927 1.99749E+01-3.67449E-02-6.55730E-04 7.85237E-02-1.37987E-13 2.43961E-13
 -1      1928 1.99613E+01-7.45575E-02 1.15328E-03 1.52222E-01-1.58158E-13 3.28467E-13
 -1      1929 1.99873E+01-3.03960E-02-2.43113E-03 5.33198E-02-2.58107E-13 1.39838E-13
 -1      1930 2.00076E+01-2.35959E-02-4.51755E-04 3.72702E-02-2.44291E-13 9.06568E-14
 -1      1931 1.99980E+01-5.10901E-02 7.72715E-04 8.34987E-02-2.11739E-13 1.99363E-13
 -1      1932 2.00130E+01-1.87746E-02-1.62047E-03 2.11977E-02-9.95322E-14 5.66108E-14
 -1      1933 2.00220E+01-1.38426E-02-2.86685E-04 1.14435E-02-4.15582E-14 4.93824E-14
 -1      1934 2.00165E+01-3.24337E-02 4.87452E-04 3.76816E-02-1.98217E-13 2.14591E-13
 -1      1935 2.00230E+01-1.04236E-02-9.98337E-04 2.09659E-03 7.08754E-14 1.57501E-13
 -1      1936 2.00251E+01-7.05516E-03-1.56540E-04-3.17602E-03 2.56189E-13 3.11117E-13
 -1      1937 2.00231E+01-1.87195E-02 2.83228E-04 9.45735E-03 9.96865E-14 2.79632E-13
 -1      1938 2.00237E+01-4.75198E-03-5.54609E-04-7.85472E-03 1.61592E-13 7.23125E-14
 -1      1939 2.00221E+01-2.54662E-03-5.52166E-05-1.00985E-02 1.80704E-13 4.90670E-14
 -1      1940 2.00228E+01-9.23143E-03 1.42924E-04-6.12889E-03 4.68935E-14 2.75269E-13
 -1      1941 2.00195E+01-1.03660E-03-2.60612E-04-1.16765E-02-1.83561E-14-6.35497E-14
 -1      1942 2.00163E+01 3.88088E-04 2.02751E-05-1.19352E-02 1.87467E-14-2.55940E-13
 -1      1943 2.00189E+01-2.94073E-03 5.01720E-05-1.31002E-02-2.37733E-14-1.87094E-13
 -1      1944 2.00135E+01 1.38219E-03-8.37869E-05-1.15063E-02 9.67105E-14-3.31628E-13
 -1      1945 2.00101E+01 2.32340E-03 7.29307E-05-1.04851E-02-2.70116E-14-2.13237E-13
 -1      1946 2.00135E+01 1.15935E-03-6.42543E-06-1.44020E-02-2.85016E-14-2.56253E-13
 -1      1947 2.00075E+01 2.95851E-03 1.22604E-05-8.75621E-03-5.58654E-14 4.69843E-14
 -1      1948 2.00048E+01 3.55151E-03 1.29153E-04-7.07858E-03-3.74140E-14 2.81429E-14
 -1      1949 2.00081E+01 3.91833E-03-8.01970E-06-1.20956E-02 1.82960E-13-1.94982E-13
 -1      1950 2.28067E+01 9.33167E-01-1.54718E-02 3.12136E+00 1.39275E-13-3.00690E-13
 -1      1951 2.38517E+01 9.87974E-01 4.96028E-02 3.64123E+00 1.26557E-13-2.15293E-13
 -1      1952 1.96198E+01 1.40569E-01 7.39477E-03 2.57161E-01 1.09000E-13 1.31117E-13
 -1      1953 1.98872E+01 2.04888E-01 1.54513E-02 4.30983E-01 1.27023E-13 1.98048E-13
 -1      1954 2.01052E+01 3.57838E-01 2.21100E-03 6.56669E-01 1.49518E-13 1.15595E-13
 -1      1955 1.93790E+01 7.19487E-02 6.79646E-03 5.53249E-02 7.99482E-14 8.83313E-14
 -1      1956 1.94930E+01 1.01894E-01 1.39935E-02 1.44021E-01 7.61500E-14 1.13652E-13
 -1      1957 1.97136E+01 1.64729E-01-1.77062E-03 2.55248E-01 1.04772E-13 6.91070E-14
 -1      1958 1.92897E+01 3.64058E-02 4.38846E-03-5.05663E-02 2.93645E-15 1.04653E-13
 -1      1959 1.93192E+01 5.21642E-02 8.25504E-03-3.17794E-03 4.02304E-14 9.02165E-14
 -1      1960 1.95126E+01 8.09105E-02-3.01931E-03 4.26066E-02 5.52653E-14 3.87121E-14
 -1      1961 1.92898E+01 1.66277E-02 2.87835E-03-1.03717E-01-3.32737E-14 8.31921E-14
 -1      1962 1.92737E+01 2.54311E-02 4.34847E-03-7.88039E-02-2.30629E-14 1.22297E-13
 -1      1963 1.94351E+01 3.79328E-02-2.90213E-03-7.00331E-02-2.28387E-14 3.10559E-14
 -1      1964 1.93397E+01 5.17586E-03 2.03003E-03-1.26762E-01-8.61746E-15 1.00825E-13
 -1      1965 1.93000E+01 1.01439E-02 2.18047E-03-1.14912E-01-2.17883E-14 1.06541E-13
 -1      1966 1.94307E+01 1.43450E-02-2.34592E-03-1.26611E-01-2.72919E-14 2.40498E-14
 -1      1967 1.94149E+01-1.35212E-03 1.50928E-03-1.32336E-01 6.78383E-14 1.08849E-13
 -1      1968 1.93645E+01 1.30039E-03 1.00487E-03-1.28228E-01 3.74271E-14 1.11544E-13
 -1      1969 1.94683E+01 1.06555E-03-1.73151E-03-1.50611E-01 2.38348E-14 4.75731E-14
 -1      1970 1.95008E+01-4.68552E-03 1.18358E-03-1.28269E-01 7.18054E-14 7.75535E-14
 -1      1971 1.94470E+01-3.50662E-03 3.73854E-04-1.28500E-01 6.91655E-14 9.66770E-14
 -1      1972 1.95282E+01-6.11511E-03-1.23470E-03-1.55727E-01 9.41098E-14 8.00626E-14
 -1      1973 1.95933E+01-5.91068E-03 9.51278E-04-1.19029E-01 3.70167E-14 4.73749E-14
 -1      1974 1.95378E+01-5.69139E-03 2.33194E-05-1.21699E-01 7.18654E-14 7.04809E-14
 -1      1975 1.96000E+01-9.20401E-03-8.72798E-04-1.50292E-01 7.14331E-14 5.33489E-14
 -1      1976 1.96792E+01-5.30755E-03 8.33766E-04-1.09273E-01 1.25161E-14 2.67213E-14
 -1      1977 1.96288E+01-5.88450E-03-1.23643E-04-1.12413E-01-4.29290E-16 1.73334E-14
 -1      1978 1.96752E+01-9.59317E-03-5.98959E-04-1.40462E-01 3.33401E-14 2.78588E-14
 -1      1979 1.97625E+01-3.27263E-03 8.56576E-04-1.01674E-01 3.66901E-14-4.35721E-14
 -1      1980 1.97146E+01-4.47278E-03-1.25419E-04-1.04042E-01 3.46551E-14 5.06137E-15
 -1      1981 1.97485E+01-7.63173E-03-4.46135E-04-1.30889E-01 3.06549E-14-3.96581E-14
 -1      1982 1.98451E+01 3.72667E-04 1.03415E-03-9.89570E-02 8.23317E-14-6.98852E-14
 -1      1983 1.97981E+01-1.48711E-03 7.51388E-06-9.92323E-02 5.83535E-14-6.38576E-14
 -1      1984 1.98214E+01-3.55292E-03-3.76900E-04-1.25071E-01 7.04087E-14-8.87508E-14
 -1      1985 1.99317E+01 6.18596E-03 1.43901E-03-1.04443E-01 9.76984E-14-1.80601E-13
 -1      1986 1.98825E+01 3.43832E-03 2.75321E-04-1.01025E-01 7.46487E-14-1.18537E-13
 -1      1987 1.98959E+01 3.11362E-03-3.75872E-04-1.26831E-01 1.14037E-13-1.05954E-13
 -1      1988 2.00302E+01 1.52811E-02 2.18842E-03-1.22798E-01 7.56011E-14-1.75117E-13
 -1      1989 1.99737E+01 1.11651E-02 7.11246E-04-1.13398E-01 7.65417E-14-1.50567E-13
 -1      1990 1.99766E+01 1.34938E-02-4.33791E-04-1.40983E-01 8.36115E-14-1.38814E-13
 -1      1991 2.01532E+01 2.96201E-02 3.47273E-03-1.61183E-01-3.03957E-14-1.79418E-13
 -1      1992 2.00813E+01 2.32807E-02 1.37953E-03-1.42231E-01-3.93132E-15-1.94796E-13
 -1      1993 2.00706E+01 2.96874E-02-5.40572E-04-1.74470E-01 3.18578E-14-1.28134E-13
 -1      1994 2.03194E+01 5.24634E-02 5.57663E-03-2.30950E-01-7.71893E-14-3.99314E-14
 -1      1995 2.02196E+01 4.24768E-02 2.37562E-03-1.96706E-01-3.55620E-14-9.95400E-14
 -1      1996 2.01888E+01 5.52783E-02-6.80450E-04-2.37943E-01-4.85096E-14-1.03583E-13
 -1      1997 2.05568E+01 8.89934E-02 8.86265E-03-3.50167E-01 3.26844E-14-3.98835E-14
 -1      1998 2.04099E+01 7.31179E-02 3.80480E-03-2.91341E-01-2.33940E-14-5.57174E-14
 -1      1999 2.03462E+01 9.60977E-02-8.37192E-04-3.48033E-01-2.69845E-14-4.80057E-14
 -1      2000 2.09068E+01 1.46844E-01 1.38150E-02-5.47353E-01 6.54234E-14-4.34887E-14
 -1      2001 2.06831E+01 1.22232E-01 5.79840E-03-4.48894E-01 6.23130E-14 7.42895E-15
 -1      2002 2.05635E+01 1.61129E-01-1.08800E-03-5.30409E-01 1.63966E-14-2.48347E-14
 -1      2003 2.14559E+01 2.42730E-01 2.02066E-02-8.83434E-01 4.87258E-14-1.30645E-13
 -1      2004 2.10933E+01 2.01633E-01 7.92527E-03-7.11685E-01 5.11223E-15-1.47685E-13
 -1      2005 2.08760E+01 2.66347E-01-1.70084E-03-8.32875E-01 7.83661E-14-9.60408E-14
 -1      2006 2.22317E+01 3.76705E-01 2.66063E-02-1.38750E+00-1.30434E-14-1.59390E-13
 -1      2007 2.17010E+01 3.21145E-01 9.28117E-03-1.12765E+00 1.75953E-14-1.07119E-13
 -1      2008 2.13110E+01 4.26638E-01-2.54569E-03-1.30830E+00 8.05953E-15-1.80855E-13
 -1      2009 2.33366E+01 5.44502E-01 3.00973E-02-2.13088E+00 7.17221E-14-1.72723E-13
 -1      2010 2.25544E+01 4.80524E-01 7.92280E-03-1.73964E+00 9.64853E-15-1.14998E-13
 -1      2011 2.18838E+01 6.41979E-01-4.42300E-03-2.00368E+00 2.52263E-14-1.96261E-13
 -1      2012 2.48393E+01 6.73835E-01 2.99946E-02-3.11787E+00-7.38394E-14-6.32723E-14
 -1      2013 2.37477E+01 6.46629E-01 4.87657E-03-2.58710E+00 4.29518E-15-1.17874E-13
 -1      2014 2.26258E+01 8.69226E-01-6.10335E-03-2.96580E+00-1.50904E-14-1.00185E-13
 -1      2015 2.67422E+01 5.11970E-01 2.95719E-02-4.15622E+00-6.50920E-14 5.52336E-14
 -1      2016 2.53658E+01 6.73149E-01 1.36396E-02-3.58357E+00-2.25904E-14-1.78607E-14
 -1      2017 2.35666E+01 9.20743E-01 2.64121E-03-4.11332E+00-7.06701E-14 5.41000E-14
 -1      2018 2.90940E+01-4.79322E-01 6.02400E-02-4.46074E+00-1.57707E-13 2.23784E-13
 -1      2019 2.75870E+01 1.30023E-01 6.68768E-02-4.29438E+00-1.40325E-13 1.33824E-13
 -1      2020 2.48807E+01 2.22993E-01 2.95544E-02-5.07624E+00-1.60594E-13 1.97353E-13
 -1      2021 3.22815E+01-2.72991E+00 1.00144E-01-2.56878E+00-2.30871E-13-1.76428E-13
 -1      2022 3.06623E+01-1.54432E+00 1.61393E-01-3.72197E+00-1.92429E-13-1.92832E-14
 -1      2023 2.70994E+01-1.76613E+00 7.52712E-02-4.79693E+00-1.49630E-13 9.50490E-14
 -1      2024 4.59386E+01 4.08731E+00 3.88236E-01 2.38980E+00 2.01617E-13-8.34888E-14
 -1      2025 4.54270E+01 1.08087E+00 3.19813E-01 3.78052E+00 5.24636E-13 8.45990E-14
 -1      2026 4.89241E+01 5.41835E+00 8.46423E-01-1.20096E+00 1.61759E-13-6.35395E-14
 -1      2027 4.93621E+01 5.24771E+00 9.35393E-01 1.41071E+00-9.37028E-14-8.07687E-14
 -1      2028 4.64056E+01 2.43333E+00 4.40965E-01-3.61117E+00 4.15779E-13-1.56042E-13
 -1      2029 4.70623E+01 4.54586E+00 5.01907E-01-2.30695E+00 3.83804E-13-1.03695E-13
 -1      2030 2.00029E+01 6.00562E-03-3.63755E-05-7.65050E-03 2.67862E-14-1.19725E-13
 -1      2031 2.38555E+01 9.10108E-01 7.06923E-03 4.27037E+00 9.32813E-14-1.24154E-13
 -1      2032 2.51539E+01 6.04329E-01 5.72583E-02 4.64567E+00 1.05773E-13-1.14870E-13
 -1      2033 2.11117E+01 1.40944E+00 4.05045E-02 4.45491E+00 1.55604E-13-1.27288E-13
 -1      2034 3.47827E+01-4.60442E+00 1.09962E-01 3.00960E-01-1.40887E-13-3.72286E-13
 -1      2035 3.59546E+01-4.09287E+00-2.24469E-02-1.68534E+00-4.21468E-14-4.98407E-13
 -1      2036 2.54985E+01 5.99830E-02 1.10138E-01 5.05165E+00-2.61034E-13-1.45656E-13
 -1      2037 2.69424E+01-1.07431E+00 7.09869E-02 4.76253E+00-4.04773E-13-2.12219E-13
 -1      2038 2.12947E+01 4.04796E-01 4.69278E-02 5.59977E+00-1.56590E-13-2.08333E-13
 -1      2039 2.20277E+01 7.13722E-01-1.09808E-02 2.12840E+00 1.41432E-14-3.75721E-13
 -1      2040 2.28037E+01 8.48119E-01 4.30508E-02 2.56995E+00 7.60156E-15-2.84021E-13
 -1      2041 2.10710E+01 1.34383E+00 2.26583E-02 3.23529E+00 5.96051E-14-6.75699E-14
 -1      2042 2.14303E+01 4.86391E-01-5.15913E-03 1.39578E+00 1.08608E-13-1.97520E-13
 -1      2043 2.19786E+01 6.08711E-01 3.62820E-02 1.71264E+00 3.40509E-14-2.41834E-13
 -1      2044 2.09488E+01 1.00885E+00 1.20948E-02 2.22443E+00-8.53770E-14-2.60441E-14
 -1      2045 2.09685E+01 3.07852E-01-9.56696E-04 8.75309E-01 6.15038E-14 2.22478E-13
 -1      2046 2.13497E+01 3.97416E-01 2.72549E-02 1.09295E+00 4.76320E-14 9.43540E-14
 -1      2047 2.07695E+01 6.79571E-01 6.98921E-03 1.46492E+00-6.47503E-14 2.35783E-13
 -1      2048 2.06583E+01 1.94088E-01 8.99493E-04 5.55294E-01 2.17395E-13 4.15477E-13
 -1      2049 2.08970E+01 2.52403E-01 1.95911E-02 6.87334E-01 2.60343E-13 3.09839E-13
 -1      2050 2.05831E+01 4.31585E-01 2.08050E-03 9.41773E-01 8.10437E-14 5.35296E-13
 -1      2051 2.04395E+01 1.20684E-01 1.20687E-03 3.50303E-01-4.49909E-14 3.44050E-13
 -1      2052 2.05944E+01 1.57499E-01 1.30186E-02 4.32961E-01 1.17670E-13 3.23826E-13
 -1      2053 2.04269E+01 2.71507E-01 3.34054E-04 6.05680E-01 1.62226E-13 4.85911E-13
 -1      2054 2.02893E+01 7.45799E-02 1.08216E-03 2.20752E-01-2.30259E-13 3.34216E-14
 -1      2055 2.03891E+01 9.75603E-02 8.45950E-03 2.72119E-01-1.05170E-13 2.56848E-13
 -1      2056 2.03030E+01 1.68582E-01-4.43614E-04 3.87270E-01-5.99846E-15 3.12276E-13
 -1      2057 2.01874E+01 4.60809E-02 8.63910E-04 1.39348E-01-1.70537E-13-2.14822E-13
 -1      2058 2.02515E+01 6.02351E-02 5.39843E-03 1.71181E-01-2.17795E-13-1.02443E-13
 -1      2059 2.02099E+01 1.04104E-01-6.89429E-04 2.47222E-01-3.70873E-14 2.79645E-13
 -1      2060 2.01188E+01 2.86799E-02 6.62802E-04 8.81598E-02-1.11730E-13-1.80270E-13
 -1      2061 2.01599E+01 3.72863E-02 3.41235E-03 1.07969E-01-2.14906E-13-3.16860E-13
 -1      2062 2.01422E+01 6.43166E-02-6.84435E-04 1.57960E-01-1.54285E-13 2.24845E-13
 -1      2063 2.00729E+01 1.82550E-02 5.09052E-04 5.56388E-02-7.79257E-14 1.17128E-13
 -1      2064 2.00991E+01 2.33753E-02 2.14661E-03 6.81675E-02-1.10609E-13-1.17337E-13
 -1      2065 2.00938E+01 4.01032E-02-5.82603E-04 1.01021E-01-2.41234E-13 1.67030E-13
 -1      2066 2.00424E+01 1.22139E-02 3.92068E-04 3.43867E-02 1.33581E-13 2.74730E-13
 -1      2067 2.00590E+01 1.51544E-02 1.34467E-03 4.26260E-02 2.44449E-14 1.18595E-13
 -1      2068 2.00597E+01 2.56779E-02-4.60106E-04 6.42852E-02-1.19536E-13 2.64007E-13
 -1      2069 2.00225E+01 8.87495E-03 3.04905E-04 1.97947E-02-2.04148E-14 2.91704E-13
 -1      2070 2.00326E+01 1.04755E-02 8.28580E-04 2.55604E-02 1.55608E-13 3.84390E-13
 -1      2071 2.00359E+01 1.73257E-02-3.58659E-04 3.98960E-02 9.61527E-14 3.86068E-13
 -1      2072 2.00099E+01 6.89444E-03 3.08599E-04 9.21379E-03-7.86827E-14 2.60464E-13
 -1      2073 2.00156E+01 7.80767E-03 4.67991E-04 1.34402E-02 4.43427E-14 3.12930E-13
 -1      2074 2.00194E+01 1.26955E-02-2.44825E-04 2.29981E-02 1.73024E-14 8.64482E-13
 -1      2075 2.00044E+01 5.46833E-03 2.74096E-04 4.48848E-03 1.29818E-13 4.16385E-13
 -1      2076 2.00066E+01 6.33032E-03 2.02631E-04 6.37933E-03-1.00839E-13 3.76126E-13
 -1      2077 2.00097E+01 1.04481E-02-1.14004E-04 1.30430E-02-9.94421E-14 1.02601E-12
 -1      2078 2.00043E+01 8.29501E-03-1.13295E-04 7.36583E-03 1.67398E-13 8.99483E-13
 -1      2079 2.00016E+01 3.12376E-02-1.38166E-04 1.87513E-02 1.72592E-13-1.42014E-13
 -1      2080 2.00031E+01 2.47069E-02 1.20343E-04 1.71250E-02 1.85169E-13-1.92319E-13
 -1      2081 2.00037E+01 1.87490E-02-8.30034E-05 1.42889E-02 2.67843E-13 1.26045E-13
 -1      2082 2.00047E+01 1.34790E-02 1.40067E-04 1.13483E-02 2.30832E-13 6.49268E-13
 -1      2083 2.00069E+01 1.47474E-02 3.38339E-05 1.41155E-02-3.67376E-14 7.82975E-13
 -1      2084 2.00048E+01 2.56503E-02-1.09907E-04 2.11761E-02-9.18536E-14-3.35169E-14
 -1      2085 1.99983E+01 4.47299E-02-1.90195E-04 1.86717E-02 2.74472E-13-2.68352E-13
 -1      2086 1.99998E+01 3.80958E-02 5.67968E-05 1.91013E-02 2.12266E-13-8.20198E-14
 -1      2087 2.00013E+01 3.84605E-02 1.32828E-04 2.49346E-02-8.29745E-14-1.74209E-13
 -1      2088 1.99959E+01 5.54289E-02-2.02771E-04 1.45889E-02-6.37679E-14-3.55147E-13
 -1      2089 1.99969E+01 5.00018E-02-9.06829E-05 1.65763E-02 3.34714E-13-2.88394E-13
 -1      2090 1.99967E+01 5.06452E-02 2.46912E-04 2.27614E-02-2.84891E-14-3.11466E-13
 -1      2091 1.99947E+01 6.18561E-02-1.79835E-04 7.85467E-03 1.26372E-13-3.19464E-13
 -1      2092 1.99951E+01 5.84721E-02-2.16443E-04 1.07727E-02-7.13489E-15-2.76624E-13
 -1      2093 1.99934E+01 5.90928E-02 3.08415E-04 1.60319E-02-2.89926E-14-3.38574E-13
 -1      2094 1.99949E+01 6.30118E-02-1.32964E-04 3.95999E-04 2.02903E-13-3.27941E-13
 -1      2095 1.99946E+01 6.22153E-02-2.89238E-04 3.42943E-03 3.10230E-13-8.33869E-13
 -1      2096 1.99921E+01 6.25972E-02 3.00873E-04 6.73074E-03 2.65853E-13-4.37360E-13
 -1      2097 1.99959E+01 5.93046E-02-7.79404E-05-6.14807E-03-5.40785E-14 1.68688E-13
 -1      2098 1.99953E+01 6.09603E-02-2.93423E-04-3.62103E-03 1.33363E-13-4.47539E-14
 -1      2099 1.99926E+01 6.09691E-02 2.33365E-04-2.72852E-03 5.28991E-14-2.01975E-13
 -1      2100 1.99974E+01 5.19581E-02-2.85064E-05-1.07774E-02-3.78966E-13 4.48847E-14
 -1      2101 1.99966E+01 5.55151E-02-2.39540E-04-9.09211E-03-3.70182E-13 1.61489E-13
 -1      2102 1.99944E+01 5.51375E-02 1.35787E-04-1.04786E-02-1.43644E-13-1.11815E-13
 -1      2103 1.99989E+01 4.25442E-02 6.77971E-06-1.32086E-02-5.70008E-14 4.61387E-13
 -1      2104 1.99981E+01 4.72622E-02-1.51220E-04-1.24128E-02-2.48655E-13 2.06303E-13
 -1      2105 1.99966E+01 4.66153E-02 3.84823E-05-1.55305E-02-2.88807E-13 2.88146E-13
 -1      2106 2.00000E+01 3.27240E-02 3.17739E-05-1.37190E-02-1.48197E-13 6.28132E-14
 -1      2107 1.99995E+01 3.77849E-02-5.59554E-05-1.36528E-02-8.06999E-14 3.46778E-13
 -1      2108 1.99987E+01 3.70925E-02-3.41581E-05-1.77719E-02-2.17122E-13 3.46444E-13
 -1      2109 2.00008E+01 2.32770E-02 5.48246E-05-1.28360E-02-2.09748E-13-2.39827E-13
 -1      2110 2.00004E+01 2.82598E-02 2.23379E-05-1.32959E-02-2.73133E-13-4.32085E-14
 -1      2111 2.00003E+01 2.77914E-02-7.82428E-05-1.77330E-02-4.54094E-13-2.82792E-14
 -1      2112 2.00014E+01 1.51335E-02 9.23204E-05-1.09557E-02-1.46308E-13-4.20879E-13
 -1      2113 2.00011E+01 1.94547E-02 7.23135E-05-1.17996E-02-4.45882E-14-6.35384E-13
 -1      2114 2.00015E+01 1.94388E-02-8.67474E-05-1.60917E-02-3.70350E-13-3.01020E-13
 -1      2115 2.00024E+01 8.69315E-03 1.13941E-04-8.85510E-03 4.62267E-14 6.13208E-15
 -1      2116 2.00020E+01 1.20721E-02 7.88768E-05-1.02040E-02 2.47255E-14-8.26158E-14
 -1      2117 2.00027E+01 1.25114E-02-9.27868E-05-1.39951E-02-3.89364E-14-2.01785E-13
 -1      2118 2.00045E+01 7.15452E-03-7.42341E-05-1.16680E-02 2.10094E-13-3.15616E-14
 -1      2119-1.89863E-01-6.88492E+00-2.45297E-01-1.62850E+00-5.55493E-14 3.00038E-13
 -1      2120 3.83304E-01-6.95111E+00-2.62722E-01-3.18856E+00-1.13382E-13 4.93605E-13
 -1      2121 1.94795E+00-7.85701E+00-4.18830E-01 2.06130E+00 1.63203E-14 4.49862E-13
 -1      2122 2.28908E-01-7.63012E+00-3.77236E-01 6.98761E-01-1.27204E-13 2.46303E-13
 -1      2123 2.03066E+01-6.36018E+00-2.65693E-01 5.28535E+00 2.55795E-13 7.08211E-13
 -1      2124 1.54772E+01-7.09527E+00-4.27189E-01 4.87422E+00 8.43769E-15 6.03968E-13
 -1      2125 4.42718E+01 7.94933E-01 3.08442E-01-3.46848E+00 4.17222E-13-9.14824E-14
 -1      2126 4.00545E+01 5.14868E+00 4.77294E-01 5.80343E+00-7.54299E-13-3.28293E-13
 -1      2127 3.57623E+01 3.99256E+00 1.39112E-01 5.85725E+00-8.15681E-13-3.47500E-13
 -1      2128 3.85133E+01 5.55444E+00 3.26540E-01 2.00314E+00-5.79869E-13-1.99618E-13
 -1      2129 4.31299E+01 7.63478E+00 2.67110E-01-2.28565E+00-7.33358E-13 5.56222E-14
 -1      2130 4.46497E+01 8.02516E+00 3.52171E-01-8.48584E-01-6.30995E-13-1.01294E-13
 -1      2131 3.45322E+01-4.11453E+00 1.31368E-01 2.75647E+00 3.82361E-13 3.66374E-13
 -1      2132 2.58433E+01-6.07143E+00-4.82247E-01 3.28551E+00 3.39506E-13 3.95406E-13
 -1      2133 1.95245E+01 4.01830E+00-2.49377E-02-1.69876E+00-1.79638E-13-1.03847E-13
 -1      2134 1.96483E+01 3.94429E+00-2.47077E-02-1.95480E+00-2.01429E-13-4.69971E-14
 -1      2135 1.99644E+01 3.23771E+00-1.88439E-02-1.92425E+00-2.07387E-13-1.24623E-14
 -1      2136 1.96951E+01 3.59030E+00-6.81534E-03-1.51899E+00-1.85265E-13-9.93997E-14
 -1      2137 4.19274E+01-6.82904E-01 3.43068E-02 2.96270E+00 4.69152E-13 9.50351E-14
 -1      2138 3.31730E+01-4.34479E+00-3.88529E-01-1.43687E+00 1.62870E-13-1.91513E-13
 -1      2139 4.03959E+01-2.64591E+00 1.69173E-01-4.98490E-01 2.35728E-13-7.91589E-14
 -1      2140 2.11632E+01-6.62134E+00-6.60770E-01-4.02589E+00 1.57652E-13-6.93889E-14
 -1      2141 2.84291E+01-5.11210E+00-1.55143E-01-4.23842E+00 5.92859E-14-2.33591E-13
 -1      2142 1.10665E+01-7.64566E+00-5.60202E-01-4.48259E+00 3.27183E-13 1.92353E-13
 -1      2143 1.62624E+01-6.51092E+00-3.66623E-01-5.27846E+00 3.20632E-13 2.54463E-13
 -1      2144 2.91448E+00-7.71855E+00-4.58364E-01-2.68975E+00 1.21292E-13-2.23543E-13
 -1      2145 6.27613E+00-7.18568E+00-3.73393E-01-4.05923E+00 2.59570E-13-2.41196E-14
 -1      2146-3.79080E-01-7.83574E+00-4.08125E-01 8.75995E-01 1.03084E-13-3.06422E-13
 -1      2147 5.95907E-01-6.84294E+00-2.53341E-01-8.54442E-01 7.08600E-14-1.33116E-13
 -1      2148 7.69225E-01-6.86212E+00-2.55188E-01 3.88459E+00 1.38778E-14-7.25364E-13
 -1      2149-2.31679E-01-7.96126E+00-3.79528E-01 2.45478E+00 1.79551E-13-5.68157E-13
 -1      2150 9.35022E-01-4.21805E+00-1.59645E-01 1.56658E+00-1.23741E-13-4.72233E-13
 -1      2151 6.31584E+00-5.62529E+00-1.40770E-01 6.94218E+00-1.38667E-13-7.97334E-13
 -1      2152 3.32755E+00-7.14603E+00-3.47252E-01 5.56891E+00 6.63913E-14-7.44627E-13
 -1      2153 1.45093E+01-4.33958E+00-1.08987E-01 8.43926E+00-1.20237E-13-8.76701E-13
 -1      2154 9.76378E+00-6.01230E+00-3.28275E-01 7.32994E+00-1.12022E-13-7.61587E-13
 -1      2155 1.01419E+01-4.97532E+00-9.35254E-03 8.25296E+00 1.67644E-14-7.82985E-13
 -1      2156 2.44542E+01-8.46965E-01 1.68562E-01 8.32871E+00-6.18061E-13-7.12375E-13
 -1      2157 2.00707E+01-3.26371E+00-5.91958E-02 7.87510E+00-2.74003E-13-7.96807E-13
 -1      2158 3.26242E+01 2.19856E+00 2.98802E-01 7.31580E+00-8.01192E-13-4.19331E-13
 -1      2159 2.75323E+01 2.82741E-01-7.72395E-02 7.24648E+00-8.35998E-13-5.37237E-13
 -1      2160 4.53241E+01 8.39886E+00 4.35752E-01-1.38726E-01-5.98577E-13-1.01662E-13
 -1      2161 4.41535E+01 8.35803E+00 3.39537E-01 1.37150E+00-5.71876E-13-2.56989E-13
 -1      2162 3.99031E+01 9.58942E+00 3.54898E-01-5.54153E-02-7.29583E-13 8.19483E-15
 -1      2163 2.92367E+01-2.35275E+00 2.27660E-01 4.12067E+00-3.79974E-13-2.68062E-13
 -1      2164 3.08453E+01-3.99392E+00 3.65399E-02 2.42046E+00-2.70117E-13-3.33178E-13
 -1      2165 2.87882E+01-5.37928E+00-6.94311E-02 3.21975E+00-2.56850E-13-2.53964E-13
 -1      2166 2.31945E+01-2.27183E+00 3.18049E-02 5.64223E+00-4.11005E-13-1.39541E-13
 -1      2167 3.91331E+01 5.40779E+00 1.54600E-01-4.55594E+00-6.13259E-13 1.85518E-13
 -1      2168 4.25539E+01 6.38939E+00 3.67481E-01-3.44331E+00-7.11181E-13 9.91984E-14
 -1      2169 3.26010E+01 2.18973E+00-3.19554E-03-6.01335E+00-3.85830E-13 4.79616E-13
 -1      2170 3.72801E+01 3.84302E+00 3.34890E-01-5.79578E+00-4.98337E-13 2.53242E-13
 -1      2171 2.41174E+01-1.25090E+00-1.51195E-01-7.49107E+00-1.96676E-13 6.30440E-13
 -1      2172 2.92920E+01 5.68120E-01 1.62687E-01-7.61420E+00-2.99927E-13 5.73319E-13
 -1      2173 1.50904E+01-4.21400E+00-3.09877E-01-7.65420E+00-2.25153E-13 3.79280E-13
 -1      2174 2.00088E+01-1.94831E+00 3.85423E-02-8.57707E+00-2.13052E-13 6.22502E-13
 -1      2175 7.44199E+00-6.49446E+00-3.45804E-01-6.83182E+00-2.75335E-13 1.43635E-13
 -1      2176 1.11347E+01-4.50748E+00-1.04029E-01-7.89508E+00-2.79443E-13 1.34372E-13
 -1      2177 1.73046E+00-7.42132E+00-3.37811E-01-4.59249E+00-1.78635E-13 3.01870E-13
 -1      2178 3.95499E+00-5.94570E+00-1.65442E-01-6.01166E+00-3.18967E-13 1.09024E-13
 -1      2179 2.46830E+00-3.98749E+00-1.05655E-01-4.54257E+00-1.11300E-14 4.36873E-13
 -1      2180 9.69240E+00-6.49767E+00-2.69698E-01 5.09994E+00-5.62883E-14 8.67806E-13
 -1      2181 4.90463E+00-8.09139E+00-5.66161E-01 3.22366E+00-5.59552E-14 7.26863E-13
 -1      2182 5.70676E+00-5.16616E+00-1.97365E-01 4.15137E+00-1.08913E-13 6.56641E-13
 -1      2183 4.13874E+01 8.04772E+00 2.80322E-01 9.77614E-01-5.44009E-13-2.74725E-13
 -1      2184 3.72038E+01 7.59849E+00 2.28166E-02 1.95630E-01-5.08482E-13-2.41390E-13
 -1      2185 3.71326E+01 8.89757E+00-9.85071E-02-4.10138E-01-7.11986E-13-8.92203E-14
 -1      2186 2.07356E+01 1.10850E+00-2.08945E-02-1.61458E+00-1.79336E-13 3.38016E-13
 -1      2187 2.06276E+01 1.33237E+00-1.78508E-02-1.67595E+00-1.94568E-13 2.12969E-13
 -1      2188 3.51483E+00-4.60955E+00-1.15977E-01 5.64365E+00 1.66533E-16-7.56561E-13
 -1      2189 2.22984E+01-6.83935E+00-2.97237E-01-4.73548E+00 1.57430E-13 1.09524E-13
 -1      2190 3.48346E+01-4.15092E+00 8.06111E-04 7.44583E-01 1.62176E-13-2.91406E-13
 -1      2191 3.34784E+01-3.57901E+00 1.55869E-01-1.53675E+00-2.59653E-13-3.48527E-13
 -1      2192 3.99167E+01-2.03107E+00 1.82869E-01 4.37394E+00 3.73410E-13-5.02931E-14
 -1      2193 3.85902E+01-3.76456E+00 1.21110E-01 2.81524E+00 3.50907E-13-7.18314E-14
 -1      2194 3.97446E+01-3.16983E+00 1.13002E-01-3.26837E+00 1.65867E-13-3.71148E-13
 -1      2195 4.08243E+01-6.86061E-01 2.00337E-01-4.27453E+00 4.61770E-13-3.14471E-13
 -1      2196 3.40374E+00-4.89559E+00-1.69644E-01-2.63021E+00-2.40641E-14-1.92735E-13
 -1      2197 3.68386E+01 3.95176E+00 2.73237E-01-2.33762E+00-5.20445E-13 1.94456E-13
 -1      2198 3.92591E+01 7.59297E+00 3.34733E-01-7.40866E-01-7.93310E-13 9.75331E-14
 -1      2199 1.42247E+00-4.22205E+00-1.45573E-01-1.06112E-01-6.77791E-14 2.83717E-13
 -1      2200 4.44968E+01-7.18057E-01 4.56527E-01 3.28010E-02 5.93435E-13 2.33480E-13
 -1      2201 3.76392E+01-2.63565E+00-1.19720E-01 8.59491E-01 6.41598E-13 3.07421E-13
 -1      2202 1.50556E+01-6.27887E+00-2.01644E-01 5.69771E+00-2.42528E-13 6.44290E-13
 -1      2203 7.41060E+00-5.11358E+00-1.13557E-01-7.48315E+00-1.61426E-13 1.76775E-13
 -1      2204 1.85175E+01-4.45327E+00-2.77457E-02 8.18880E+00 3.44169E-14-8.27394E-13
 -1      2205 1.76120E+01-4.83602E+00 1.89265E-01 8.61189E+00 2.24820E-13-6.89185E-13
 -1      2206 2.22483E+01-4.85639E+00-1.45315E-01 7.59334E+00 1.16240E-13-5.56347E-13
 -1      2207 1.56694E+01-5.03496E+00-6.95711E-02-8.49251E+00-4.81837E-14 1.53565E-13
 -1      2208 2.43212E+01-3.37978E+00 7.59205E-02-7.37322E+00 1.85407E-14 3.31790E-13
 -1      2209 3.44264E+01 1.66063E+00 2.08673E-01 4.09358E+00-6.15209E-13-4.08007E-14
 -1      2210 1.15662E+01-6.22841E+00-2.18666E-01-5.43488E+00 7.21090E-14 1.61954E-13
 -1      2211 3.33257E+01-5.54689E+00-1.16591E-02-1.20810E+00 1.29785E-13-2.39808E-13
 -1      2212 2.97265E+01-4.55368E+00 5.40341E-03-3.20820E+00-5.06539E-14-3.83065E-13
 -1      2213 2.78126E+01-2.28625E+00 3.23593E-02 6.32966E+00-3.71092E-13-3.22187E-13
 -1      2214 3.18085E+01-2.74998E-01 1.69685E-01-4.78518E+00-1.99979E-13 2.38476E-13
 -1      2215 3.39670E+01-5.17360E+00-1.30767E-01-4.28586E-01 9.92539E-14-3.79030E-13
 -1      2216 3.69428E+01-4.62031E+00 9.09896E-03-5.69828E-01 1.94400E-13-1.67422E-13
 -1      2217 1.95598E+01 3.51798E+00-1.11264E-02-5.90780E-01-8.63832E-14-1.83006E-13
 -1      2218 1.95954E+01 3.47188E+00-1.05249E-02-7.75023E-01-1.04327E-13-1.70614E-13
 -1      2219 1.96423E+01 3.38327E+00-1.28120E-02-9.39109E-01-1.20185E-13-1.53319E-13
 -1      2220 1.97031E+01 3.30245E+00-1.28766E-02-1.12888E+00-1.53291E-13-1.27124E-13
 -1      2221 1.97866E+01 3.03527E+00 2.35025E-04-7.90874E-01-1.02199E-13-1.42328E-13
 -1      2222 1.95125E+01 3.60077E+00-9.61714E-03 9.91255E-02-5.33429E-15-2.12550E-13
 -1      2223 1.95118E+01 3.60161E+00-9.62791E-03-8.01437E-02-2.59988E-14-2.09031E-13
 -1      2224 1.95389E+01 3.56117E+00-9.71676E-03 4.44748E-01 2.39976E-14-2.50189E-13
 -1      2225 1.95213E+01 3.58383E+00-1.01454E-02 2.64093E-01 1.38178E-15-2.31295E-13
 -1      2226 1.96786E+01 3.22394E+00-8.82566E-04 1.69065E-01 3.04495E-15-2.18557E-13
 -1      2227 1.96011E+01 3.46427E+00-1.06103E-02 7.88427E-01 7.20389E-14-2.44399E-13
 -1      2228 1.95646E+01 3.51143E+00-1.12225E-02 6.07100E-01 3.73553E-14-2.53216E-13
 -1      2229 1.97157E+01 3.16013E+00-4.89197E-04 4.87037E-01 2.91518E-14-2.28817E-13
 -1      2230 1.97121E+01 3.28999E+00-1.30003E-02 1.14164E+00 1.27206E-13-1.98279E-13
 -1      2231 1.96493E+01 3.37355E+00-1.29164E-02 9.52403E-01 9.47422E-14-2.21588E-13
 -1      2232 1.97931E+01 3.02600E+00 2.60426E-04 8.02391E-01 7.91679E-14-2.14743E-13
 -1      2233 1.98913E+01 3.00420E+00-1.82901E-02 1.48853E+00 1.64424E-13-1.81170E-13
 -1      2234 1.97917E+01 3.14529E+00-1.53616E-02 1.29833E+00 1.40756E-13-1.91607E-13
 -1      2235 1.99227E+01 2.80023E+00 1.86951E-03 1.10853E+00 1.24973E-13-1.79892E-13
 -1      2236 2.01698E+01 2.53851E+00-2.79782E-02 1.78836E+00 1.98878E-13-1.14428E-13
 -1      2237 2.00190E+01 2.78403E+00-1.71961E-02 1.61972E+00 1.81906E-13-1.50328E-13
 -1      2238 2.01180E+01 2.44800E+00 5.32272E-03 1.37431E+00 1.57858E-13-1.48033E-13
 -1      2239 2.05854E+01 1.78510E+00-2.94784E-02 1.88673E+00 2.15831E-13-7.12451E-15
 -1      2240 2.03623E+01 2.22632E+00-1.09606E-02 1.84932E+00 2.12926E-13-7.53321E-14
 -1      2241 2.03755E+01 1.91144E+00 1.07173E-02 1.52717E+00 1.96545E-13-8.16899E-14
 -1      2242 2.07905E+01 1.06831E+00-1.78644E-02 1.59016E+00 2.00888E-13 1.06139E-13
 -1      2243 2.06803E+01 1.54233E+00 3.21340E-03 1.79405E+00 2.09516E-13 4.10956E-14
 -1      2244 2.05305E+01 1.28426E+00 1.01353E-02 1.42619E+00 2.08411E-13-8.96202E-16
 -1      2245 2.04504E+01 7.40987E-01-2.25810E-03 1.10611E+00 1.95878E-13 7.49999E-14
 -1      2246 2.04024E+01 8.55764E-01 1.33642E-02-9.97792E-01-1.70927E-13 1.42679E-13
 -1      2247 2.01908E+01 6.27966E-01-4.48487E-03-6.90046E-01-1.67505E-13 1.16413E-13
 -1      2248 1.97072E+01 1.44010E-01 3.22248E-03 5.78037E-02 3.65714E-14 1.95895E-14
 -1      2249 1.97852E+01 1.98539E-01 1.21962E-02 1.44470E-01 6.69720E-14 9.09819E-15
 -1      2250 1.98714E+01 2.69592E-01 4.38828E-03 2.83828E-01 9.28181E-14 7.02867E-15
 -1      2251 2.00225E+01 3.67495E-01 1.62186E-02 4.43848E-01 1.12600E-13 2.23129E-14
 -1      2252 1.99953E+01 3.40247E-01-4.40209E-03 3.01486E-01 8.48254E-14-2.42670E-14
 -1      2253 2.05478E+01 1.95534E+00-1.37526E-02-1.89409E+00-2.04441E-13 1.37296E-13
 -1      2254 2.04104E+01 1.20943E+00-8.67681E-03-1.28770E+00-1.85153E-13 1.38703E-13
 -1      2255 2.03839E+01 1.38727E+00 9.98397E-03-1.23639E+00-1.86875E-13 8.55856E-14
 -1      2256 2.02957E+01 2.39826E+00 7.66618E-04-1.83417E+00-2.10834E-13 7.13249E-14
 -1      2257 1.93766E+01 1.66891E+00-2.63285E-02 2.67335E+00-7.70746E-14 2.79351E-13
 -1      2258 1.94155E+01 1.87500E+00 2.88875E-02 3.18882E+00 6.76924E-14 2.78864E-13
 -1      2259 2.01251E+01 4.70250E-01 1.58817E-02-4.71875E-01-1.61838E-13 1.19850E-13
 -1      2260 1.99860E+01 3.45580E-01 2.72626E-04-3.00878E-01-1.50380E-13 1.05150E-13
 -1      2261 2.02468E+01 7.53097E-01 3.65958E-04-6.91603E-01-1.76731E-13 7.13375E-14
 -1      2262 1.99215E+01 2.60357E-01 1.05356E-02-1.62285E-01-1.22658E-13 9.68596E-14
 -1      2263 1.98447E+01 1.89404E-01 8.86411E-04-6.52284E-02-9.59493E-14 9.37230E-14
 -1      2264 2.00838E+01 4.21274E-01-2.29710E-03-3.08297E-01-1.44636E-13 9.02924E-14
 -1      2265 1.97998E+01 1.39995E-01 6.19655E-03 1.79548E-02-8.38808E-14 9.92248E-14
 -1      2266 1.97665E+01 9.81107E-02 8.80205E-04 7.15618E-02-9.33742E-14 1.04241E-13
 -1      2267 1.99632E+01 2.31747E-01-2.78562E-03-6.80542E-02-8.77428E-14 8.66641E-14
 -1      2268 1.97405E+01 6.83504E-02 3.45407E-03 1.18328E-01-9.73932E-14 9.48051E-14
 -1      2269 1.97349E+01 4.32398E-02 7.81017E-04 1.45583E-01-9.83554E-14 8.55781E-14
 -1      2270 1.98880E+01 1.19114E-01-2.48014E-03 7.45363E-02-1.10653E-13 9.81183E-14
 -1      2271 1.97234E+01 2.51219E-02 1.77438E-03 1.68894E-01-9.43444E-14 8.54816E-14
 -1      2272 1.97345E+01 1.02536E-02 6.58352E-04 1.80023E-01-5.43870E-14 8.30595E-14
 -1      2273 1.98493E+01 5.09833E-02-1.94200E-03 1.52984E-01-9.71242E-14 9.81423E-14
 -1      2274 1.97329E+01-5.86098E-04 7.41913E-04 1.88531E-01-3.14029E-14 2.28668E-14
 -1      2275 1.97532E+01-9.00463E-03 5.29884E-04 1.89918E-01-3.83864E-14 1.32053E-14
 -1      2276 1.98366E+01 1.00226E-02-1.42449E-03 1.90125E-01-7.38022E-14 5.95526E-14
 -1      2277 1.97580E+01-1.52054E-02 1.15835E-04 1.89384E-01-4.19193E-14 3.50745E-14
 -1      2278 1.97826E+01-1.95923E-02 4.01533E-04 1.85083E-01-3.78376E-14 5.31693E-14
 -1      2279 1.98409E+01-1.38093E-02-1.00194E-03 2.01299E-01-3.90271E-14 4.04693E-14
 -1      2280 1.97912E+01-2.29237E-02-2.43767E-04 1.79275E-01-5.25761E-14 4.95091E-14
 -1      2281 1.98168E+01-2.49758E-02 2.67140E-04 1.71795E-01-6.02928E-14 1.93232E-14
 -1      2282 1.98557E+01-2.68785E-02-6.77561E-04 1.96704E-01-6.77505E-14 7.62346E-14
 -1      2283 1.98275E+01-2.67521E-02-4.23043E-04 1.63037E-01-9.97021E-15 7.17289E-14
 -1      2284 1.98521E+01-2.77879E-02 1.10188E-04 1.53757E-01 3.49378E-14 1.32648E-13
 -1      2285 1.98763E+01-3.36238E-02-4.32619E-04 1.82898E-01-8.69588E-15 4.65533E-14
 -1      2286 1.98637E+01-2.90936E-02-4.77226E-04 1.43244E-01-1.04063E-14 1.49514E-13
 -1      2287 1.98860E+01-3.02525E-02-9.42677E-05 1.32630E-01 9.89612E-15 1.32893E-13
 -1      2288 1.98996E+01-3.74698E-02-2.44145E-04 1.63702E-01 2.30545E-14 1.40143E-13
 -1      2289 1.98978E+01-3.20768E-02-4.42047E-04 1.20605E-01 5.88884E-16 6.70964E-14
 -1      2290 1.99166E+01-3.44398E-02-3.77590E-04 1.08310E-01-1.47387E-14 1.65211E-14
 -1      2291 1.99238E+01-4.13480E-02-8.98292E-05 1.40720E-01-2.35790E-14 1.34146E-13
 -1      2292 1.99285E+01-3.77505E-02-3.40813E-04 9.41326E-02-6.95861E-14-4.86981E-14
 -1      2293 1.99427E+01-4.23941E-02-7.74543E-04 7.90351E-02-1.22339E-13-6.21018E-14
 -1      2294 1.99477E+01-4.80039E-02 5.16324E-05 1.13611E-01-9.64293E-14-1.25540E-13
 -1      2295 1.99545E+01-4.81477E-02-1.90476E-04 6.12128E-02-1.02025E-13-6.64113E-14
 -1      2296 1.99626E+01-5.61142E-02-1.31733E-03 4.14461E-02-8.13564E-14-6.16616E-14
 -1      2297 1.99708E+01-6.01271E-02 2.01711E-04 8.01891E-02-1.14942E-13-6.66236E-14
 -1      2298 1.99743E+01-6.51745E-02-8.40359E-06 1.76587E-02-5.78074E-14-6.18735E-14
 -1      2299 1.99742E+01-7.73193E-02-2.02433E-03-9.29758E-03-4.54910E-14-5.79449E-14
 -1      2300 1.99927E+01-8.02679E-02 3.83958E-04 3.64934E-02-7.57833E-14-7.03861E-14
 -1      2301 1.99853E+01-9.02425E-02 1.79239E-04-4.20756E-02-6.58518E-14-7.15705E-14
 -1      2302 1.99744E+01-1.06909E-01-2.88145E-03-7.91422E-02-6.00337E-14-5.47130E-14
 -1      2303 2.00127E+01-1.10445E-01 6.25892E-04-2.30631E-02-8.15310E-14-4.27732E-14
 -1      2304 1.99839E+01-1.23553E-01 3.27949E-04-1.24308E-01-3.00846E-14-3.07437E-14
 -1      2305 1.99586E+01-1.44041E-01-3.81599E-03-1.74262E-01-2.86138E-14-6.02417E-14
 -1      2306 2.00292E+01-1.51333E-01 9.59024E-04-1.05227E-01-6.29060E-14-1.92626E-14
 -1      2307 1.99644E+01-1.62993E-01 3.67445E-04-2.34877E-01-2.15141E-14-4.50399E-14
 -1      2308 1.99205E+01-1.84862E-01-4.66714E-03-2.99391E-01-3.08064E-14-2.84539E-14
 -1      2309 2.00393E+01-2.00960E-01 1.41319E-03-2.16836E-01-3.05625E-14 1.69638E-14
 -1      2310 1.99185E+01-2.02779E-01 2.03589E-04-3.76927E-01 6.37641E-15-3.43625E-14
 -1      2311 1.98519E+01-2.21168E-01-5.16531E-03-4.55130E-01 5.58664E-14-3.10820E-14
 -1      2312 2.00372E+01-2.53024E-01 1.99869E-03-3.62796E-01-1.53077E-14 5.99916E-14
 -1      2313 1.98359E+01-2.32304E-01-2.55292E-04-5.47614E-01-1.34724E-14-8.65506E-14
 -1      2314 1.97429E+01-2.39715E-01-4.94802E-03-6.34323E-01-6.23379E-14-5.76303E-14
 -1      2315 2.00141E+01-2.95338E-01 2.66918E-03-5.42832E-01-3.06464E-14-1.09360E-13
 -1      2316 1.97051E+01-2.36168E-01-1.04218E-03-7.34078E-01-4.73648E-14-2.02244E-14
 -1      2317 1.95844E+01-2.23396E-01-3.65136E-03-8.18228E-01-6.14051E-14-4.53016E-14
 -1      2318 1.99572E+01-3.09446E-01 3.26637E-03-7.47120E-01-2.79061E-14-2.94404E-14
 -1      2319 1.95169E+01-1.96755E-01-2.03721E-03-9.10001E-01-1.95997E-14 8.13260E-16
 -1      2320 1.93715E+01-1.55638E-01-1.10270E-03-9.74291E-01 6.25730E-14 1.92797E-14
 -1      2321 1.98526E+01-2.73084E-01 3.46201E-03-9.51753E-01-1.85804E-14 1.03129E-13
 -1      2322 1.92704E+01-1.00474E-01-2.87866E-03-1.03528E+00 2.28842E-14-4.04066E-14
 -1      2323 1.91094E+01-2.84971E-02 2.42829E-03-1.05842E+00 8.77469E-14-1.15628E-13
 -1      2324 1.96892E+01-1.66993E-01 2.79724E-03-1.11643E+00 9.92641E-15 3.89029E-14
 -1      2325 1.89800E+01 5.29442E-02-2.96780E-03-1.06213E+00 1.51195E-13-1.43992E-13
 -1      2326 1.88195E+01 1.47806E-01 6.07702E-03-1.02460E+00 9.61915E-14-1.21054E-13
 -1      2327 1.94680E+01 1.41394E-02 9.21667E-04-1.18821E+00 9.02904E-14-1.83866E-13
 -1      2328 1.86804E+01 2.42093E-01-1.72426E-03-9.49521E-01 5.30284E-14-2.09310E-13
 -1      2329 1.85419E+01 3.39648E-01 8.54783E-03-8.41948E-01-2.07518E-14-2.06963E-13
 -1      2330 1.92111E+01 2.50408E-01-2.03620E-03-1.11477E+00 3.34859E-14-2.48577E-13
 -1      2331 1.84239E+01 4.23388E-01 1.02791E-03-6.82941E-01-6.57590E-14-2.12123E-13
 -1      2332 1.83301E+01 4.95998E-01 8.76593E-03-5.13560E-01-3.91289E-14-1.92526E-13
 -1      2333 1.89642E+01 4.93023E-01-5.15663E-03-8.66456E-01-4.09172E-14-1.53844E-13
 -1      2334 1.82656E+01 5.43699E-01 4.66238E-03-2.90048E-01 3.02044E-14-1.13106E-13
 -1      2335 1.82341E+01 5.67420E-01 6.58877E-03-8.61461E-02 2.52057E-14-6.18547E-14
 -1      2336 1.87873E+01 6.75621E-01-6.94914E-03-4.58497E-01 7.48819E-14-8.10525E-14
 -1      2337 1.82431E+01 5.63053E-01 7.84442E-03 1.59905E-01-7.87406E-14-3.38027E-14
 -1      2338 1.82806E+01 5.29436E-01 3.00922E-03 3.59335E-01-1.33467E-13-7.53524E-14
 -1      2339 1.87312E+01 7.39865E-01-6.39091E-03 4.19890E-02-9.11609E-14-2.29153E-14
 -1      2340 1.83602E+01 4.74741E-01 9.19172E-03 5.77271E-01-1.16203E-13-1.52722E-14
 -1      2341 1.84598E+01 3.95469E-01-4.02791E-04 7.35055E-01-4.68798E-14 2.86607E-14
 -1      2342 1.88130E+01 6.63347E-01-3.69604E-03 5.33912E-01-1.01021E-13 4.95910E-14
 -1      2343 1.85857E+01 3.08948E-01 8.09603E-03 8.84606E-01-9.03305E-14-8.47933E-14
 -1      2344 1.87293E+01 2.09675E-01-2.48105E-03 9.77820E-01-3.89903E-14-1.09703E-13
 -1      2345 1.90075E+01 4.71476E-01-3.20669E-04 9.19469E-01-1.12247E-13 3.06220E-14
 -1      2346 1.88682E+01 1.17087E-01 5.06785E-03 1.04227E+00 1.69595E-14-2.10987E-13
 -1      2347 1.90324E+01 2.50251E-02-2.95413E-03 1.06726E+00 6.59080E-14-2.28161E-13
 -1      2348 1.92602E+01 2.24939E-01 2.16845E-03 1.13954E+00-9.56302E-14-2.97608E-14
 -1      2349 1.91562E+01-5.18276E-02 1.32468E-03 1.05428E+00 2.11120E-13-2.99557E-13
 -1      2350 1.93191E+01-1.18353E-01-2.27853E-03 1.02329E+00 2.33195E-13-1.63317E-13
 -1      2351 1.95129E+01-9.15554E-03 3.07769E-03 1.18749E+00 1.38417E-13-1.60480E-13
 -1      2352 1.94126E+01-1.68170E-01-1.94801E-03 9.55970E-01 1.99803E-13-2.15798E-13
 -1      2353 1.95584E+01-2.03293E-01-1.15871E-03 8.89202E-01 1.84709E-13-2.07288E-13
 -1      2354 1.97245E+01-1.83406E-01 2.66702E-03 1.09851E+00 2.32828E-13-3.43591E-13
 -1      2355 1.96191E+01-2.25375E-01-4.08787E-03 7.94457E-01 7.63990E-14-1.64018E-13
 -1      2356 1.97391E+01-2.33048E-01-1.34584E-04 7.12319E-01-9.09437E-14-1.52069E-13
 -1      2357 1.98779E+01-2.80505E-01 1.63689E-03 9.26504E-01 1.15223E-13-3.38067E-13
 -1      2358 1.97724E+01-2.33432E-01-5.00022E-03 6.12584E-01-1.61451E-13-1.10134E-13
 -1      2359 1.98647E+01-2.22353E-01 5.48391E-04 5.30911E-01-1.02883E-13-1.13152E-13
 -1      2360 1.99751E+01-3.08145E-01 6.02386E-04 7.23146E-01-6.75302E-14-3.44172E-13
 -1      2361 1.98787E+01-2.09358E-01-4.95096E-03 4.40773E-01-4.71923E-14-1.43589E-13
 -1      2362 1.99452E+01-1.88618E-01 8.65196E-04 3.69286E-01-1.14686E-14-3.61784E-14
 -1      2363 2.00284E+01-2.86913E-01-1.27827E-04 5.26320E-01-1.06739E-13-4.32872E-13
 -1      2364 1.99477E+01-1.69731E-01-4.31977E-03 2.95795E-01 7.53226E-14 2.69587E-14
 -1      2365 1.99928E+01-1.46404E-01 9.08843E-04 2.38758E-01 1.55321E-14 3.95821E-14
 -1      2366 2.00517E+01-2.39299E-01-5.06337E-04 3.57655E-01 3.70284E-14-1.59768E-13
 -1      2367 1.99893E+01-1.26910E-01-3.44132E-03 1.83454E-01-1.99642E-13 1.28194E-13
 -1      2368 2.00178E+01-1.05393E-01 7.97304E-04 1.41278E-01-1.65178E-13 1.25606E-13
 -1      2369 2.00572E+01-1.83314E-01-6.15160E-04 2.25385E-01-3.43908E-14-5.30495E-14
 -1      2370 2.00119E+01-8.82738E-02-2.54665E-03 1.02469E-01-1.61200E-13 7.04913E-14
 -1      2371 2.00283E+01-7.06369E-02 6.26490E-04 7.33796E-02-2.30877E-13 4.18050E-14
 -1      2372 2.00534E+01-1.30478E-01-5.66862E-04 1.28953E-01-1.99370E-13-5.31309E-14
 -1      2373 2.00222E+01-5.70763E-02-1.76367E-03 4.79571E-02-2.18273E-13 2.24983E-13
 -1      2374 2.00303E+01-4.37867E-02 4.57035E-04 2.92974E-02-8.41460E-14 2.68173E-13
 -1      2375 2.00456E+01-8.64859E-02-4.53174E-04 6.32219E-02-1.11314E-13 2.20851E-14
 -1      2376 2.00246E+01-3.38301E-02-1.14299E-03 1.39139E-02-1.29730E-15 2.69694E-13
 -1      2377 2.00275E+01-2.44529E-02 3.18539E-04 2.97503E-03 7.99634E-14 1.39178E-13
 -1      2378 2.00367E+01-5.29138E-02-3.31267E-04 2.14898E-02-4.06887E-14 3.01813E-13
 -1      2379 2.00227E+01-1.75625E-02-6.87207E-04-5.33148E-03-6.41820E-14 6.14447E-14
 -1      2380 2.00225E+01-1.12790E-02 2.20404E-04-1.08783E-02-4.94164E-14-3.57231E-15
 -1      2381 2.00282E+01-2.89507E-02-2.28500E-04-2.72346E-03-3.10973E-14-9.07769E-15
 -1      2382 2.00185E+01-6.70832E-03-3.74836E-04-1.44427E-02 3.12115E-14 4.81681E-14
 -1      2383 2.00167E+01-2.64256E-03 1.54166E-04-1.63851E-02-6.25528E-14-2.38664E-14
 -1      2384 2.00207E+01-1.27077E-02-1.49383E-04-1.48404E-02-5.03484E-14-2.25966E-14
 -1      2385 2.00135E+01 3.64718E-04-1.65885E-04-1.69123E-02-1.20744E-13 2.20294E-14
 -1      2386 2.00110E+01 2.92690E-03 9.40526E-05-1.64882E-02 5.04732E-14 5.19454E-14
 -1      2387 2.00142E+01-2.10175E-03-9.16601E-05-1.89625E-02-2.48924E-14 1.62669E-13
 -1      2388 2.00089E+01 4.53759E-03-5.25469E-05-1.53851E-02 1.13361E-13-1.13703E-13
 -1      2389 2.00065E+01 6.17167E-03 9.31384E-05-1.35816E-02 1.51667E-13-1.00690E-13
 -1      2390 2.00055E+01 8.44848E-03 5.89208E-05-1.51249E-02 1.51088E-13 6.89507E-14
 -1      2391 2.00092E+01 4.50167E-03 1.58306E-06-1.82193E-02-8.88781E-14 1.70074E-13
 -1      2392 1.98545E+01 1.21932E+00-2.10977E-02 1.86294E+00-1.06503E-13 2.98426E-13
 -1      2393 1.99400E+01 1.45677E+00 2.01797E-02 2.27307E+00-1.01748E-13 3.10221E-13
 -1      2394 1.85022E+01 1.99575E+00 4.64901E-02 2.24805E+00 8.98587E-16 6.52959E-13
 -1      2395 2.00966E+01 4.35757E-01 6.59790E-03 5.95210E-01 1.37995E-13 3.67662E-14
 -1      2396 2.03417E+01 5.98039E-01 1.22394E-02 8.74373E-01 1.64427E-13 5.67415E-14
 -1      2397 2.03855E+01 8.11571E-01-5.46580E-03 1.04290E+00 1.85064E-13 1.32463E-14
 -1      2398 2.01718E+01 5.45343E-01-5.70150E-03 6.27662E-01 1.24611E-13-1.92658E-14
 -1      2399 1.96277E+01 7.36719E-02 2.11374E-03-6.92525E-02-2.65085E-14-2.19237E-14
 -1      2400 1.96542E+01 1.05170E-01 6.89367E-03-2.26122E-02 1.26225E-14 9.28684E-15
 -1      2401 1.98521E+01 1.82047E-01-3.91163E-03 6.23392E-02 2.92883E-14-8.01789E-15
 -1      2402 1.96064E+01 3.22812E-02 1.41217E-03-1.36382E-01-1.18103E-14-4.23898E-14
 -1      2403 1.96020E+01 5.09431E-02 3.70067E-03-1.13189E-01-2.92885E-14-3.82264E-14
 -1      2404 1.97726E+01 9.15646E-02-3.20755E-03-7.58762E-02-3.96981E-15-5.55458E-14
 -1      2405 1.96215E+01 7.90758E-03 9.74506E-04-1.66848E-01 3.31152E-14-4.76884E-14
 -1      2406 1.95996E+01 1.87782E-02 1.84432E-03-1.57623E-01-6.05194E-15-6.35149E-14
 -1      2407 1.97407E+01 3.83044E-02-2.32889E-03-1.50171E-01 1.99030E-15-9.18727E-14
 -1      2408 1.96581E+01-5.70228E-03 7.10376E-04-1.75471E-01 7.17038E-14 2.44066E-14
 -1      2409 1.96270E+01 2.40248E-04 7.72104E-04-1.74296E-01 5.31948E-14 1.89063E-14
 -1      2410 1.97403E+01 7.20882E-03-1.58682E-03-1.84681E-01 5.39235E-16-1.06956E-13
 -1      2411 1.97088E+01-1.21628E-02 5.73027E-04-1.71649E-01 5.50509E-14 7.73136E-14
 -1      2412 1.96720E+01-9.66069E-03 1.26969E-04-1.74904E-01 7.66392E-14 8.23576E-14
 -1      2413 1.97603E+01-9.69222E-03-1.01597E-03-1.95270E-01 4.21258E-14 2.47744E-14
 -1      2414 1.97624E+01-1.28308E-02 5.56222E-04-1.62841E-01 4.68292E-14 1.11270E-14
 -1      2415 1.97259E+01-1.30892E-02-2.53169E-04-1.67344E-01 7.73101E-14 7.10908E-14
 -1      2416 1.97923E+01-1.69458E-02-6.36248E-04-1.92557E-01 6.94982E-14 5.33971E-14
 -1      2417 1.98185E+01-9.23488E-03 6.78568E-04-1.54344E-01 8.94556E-14-7.76152E-14
 -1      2418 1.97818E+01-1.17314E-02-4.39976E-04-1.57984E-01 7.32652E-14-1.12438E-14
 -1      2419 1.98298E+01-1.65891E-02-4.02078E-04-1.84704E-01 1.15278E-13 2.36772E-14
 -1      2420 1.98765E+01-1.34906E-03 9.62043E-04-1.50639E-01 9.66512E-14-1.61113E-13
 -1      2421 1.98390E+01-6.13450E-03-5.02281E-04-1.51382E-01 7.38933E-14-1.38292E-13
 -1      2422 1.98706E+01-1.01678E-02-2.67851E-04-1.77815E-01 1.31753E-13-1.36642E-13
 -1      2423 1.99376E+01 1.17526E-02 1.47058E-03-1.56464E-01 9.49452E-14-1.54036E-13
 -1      2424 1.98978E+01 4.04929E-03-4.98784E-04-1.52008E-01 1.19820E-13-1.63289E-13
 -1      2425 1.99133E+01 2.59020E-03-1.93868E-04-1.77224E-01 9.05471E-14-1.85512E-13
 -1      2426 2.00049E+01 3.22126E-02 2.30421E-03-1.77759E-01 5.09308E-14-1.55367E-13
 -1      2427 1.99596E+01 2.02729E-02-4.69301E-04-1.65023E-01 4.71288E-14-1.52619E-13
 -1      2428 1.99578E+01 2.33449E-02-1.35228E-04-1.88600E-01 8.68270E-14-1.92215E-13
 -1      2429 2.00829E+01 6.39008E-02 3.61588E-03-2.22905E-01-3.12032E-14-5.17891E-14
 -1      2430 2.00274E+01 4.54152E-02-4.57584E-04-1.97344E-01 3.53373E-14-1.20515E-13
 -1      2431 2.00042E+01 5.56129E-02-2.43110E-05-2.19018E-01 1.09426E-14-1.27338E-13
 -1      2432 2.01777E+01 1.13201E-01 5.61871E-03-3.04399E-01-4.63888E-14-3.26949E-14
 -1      2433 2.01055E+01 8.44161E-02-5.26888E-04-2.59052E-01-8.07257E-14-6.19101E-14
 -1      2434 2.00526E+01 1.05531E-01 2.55705E-04-2.78258E-01-7.63195E-14 8.53633E-14
 -1      2435 2.02965E+01 1.90118E-01 8.58072E-03-4.41049E-01-1.55054E-14-6.56308E-14
 -1      2436 2.01982E+01 1.45206E-01-7.94642E-04-3.65246E-01 5.23323E-15-7.79843E-14
 -1      2437 2.01012E+01 1.82997E-01 9.14220E-04-3.80414E-01-3.39637E-14 1.54589E-14
 -1      2438 2.04466E+01 3.09577E-01 1.31123E-02-6.60525E-01 3.53077E-14-1.08353E-13
 -1      2439 2.03090E+01 2.39814E-01-1.52270E-03-5.38521E-01-9.79035E-15-1.02475E-13
 -1      2440 2.01439E+01 3.03215E-01 2.32837E-03-5.45766E-01 3.64001E-14-7.58552E-14
 -1      2441 2.06359E+01 5.01582E-01 1.87052E-02-1.02355E+00 8.28001E-14-9.31121E-14
 -1      2442 2.04383E+01 3.90701E-01-3.10264E-03-8.19438E-01 8.72015E-14-1.12277E-13
 -1      2443 2.01647E+01 4.91635E-01 4.39335E-03-8.11295E-01 7.46254E-14-1.06365E-13
 -1      2444 2.08350E+01 7.66813E-01 2.37824E-02-1.54819E+00-2.23164E-14-1.10146E-13
 -1      2445 2.05788E+01 6.15544E-01-6.42195E-03-1.25318E+00 2.54293E-14-1.09703E-13
 -1      2446 2.01295E+01 7.77020E-01 1.01580E-02-1.21086E+00 2.54371E-14-1.18580E-14
 -1      2447 2.10202E+01 1.11087E+00 2.89424E-02-2.29865E+00 1.91444E-14-1.44135E-13
 -1      2448 2.06897E+01 9.21639E-01-1.18753E-02-1.87853E+00 1.22298E-15-1.80808E-13
 -1      2449 1.99748E+01 1.16514E+00 1.86027E-02-1.77648E+00 1.22667E-14-3.42213E-14
 -1      2450 2.11381E+01 1.44309E+00 3.51891E-02-3.29375E+00-5.70741E-14-3.21470E-14
 -1      2451 2.07261E+01 1.28026E+00-1.75985E-02-2.75317E+00-3.04470E-14-8.71516E-14
 -1      2452 1.95992E+01 1.63586E+00 3.25894E-02-2.55477E+00-6.02218E-14-9.44995E-14
 -1      2453 2.11668E+01 1.44452E+00 5.29382E-02-4.43833E+00-1.57368E-13 8.83894E-14
 -1      2454 2.06560E+01 1.51375E+00-9.55635E-03-3.87569E+00-1.06060E-13 8.42902E-15
 -1      2455 1.88795E+01 2.01222E+00 5.61639E-02-3.56363E+00-1.09900E-13 1.38852E-14
 -1      2456 2.13688E+01 2.99711E-01 8.53514E-02-5.42990E+00-2.02005E-13 1.07261E-13
 -1      2457 2.05879E+01 1.18683E+00 7.24918E-02-5.09804E+00-2.07785E-13 6.78277E-14
 -1      2458 1.78199E+01 1.77901E+00 1.16220E-01-4.77560E+00-2.10998E-13-4.51306E-14
 -1      2459 2.96975E+01-2.30397E+00-1.85606E-02 4.89280E+00-3.66485E-13 2.63123E-14
 -1      2460 2.66803E+01-3.62607E+00-7.28935E-04 5.80588E+00-1.67782E-13-2.00368E-13
 -1      2461 9.27179E+00-3.21787E+00 5.59873E-02 5.46028E+00-1.70863E-13 5.20084E-13
 -1      2462 5.97676E+00-2.76988E+00 7.89349E-02 3.81080E+00-4.34930E-14 5.85476E-13
 -1      2463 3.73201E+00-2.39655E+00 7.42686E-02-2.15272E+00-1.32158E-13-1.84408E-13
 -1      2464 6.52204E+00-3.28943E+00 2.87458E-02-4.46339E+00-9.09273E-14-2.71061E-13
 -1      2465 1.85339E+01 1.96593E+00-1.68525E-02 3.70885E+00 8.80546E-14 1.98222E-13
 -1      2466 1.85549E+01 1.90330E+00 6.20386E-02 4.26545E+00 1.61208E-14 5.63681E-14
 -1      2467 1.71704E+01 2.44136E+00 7.75425E-02 3.04958E+00-7.07030E-14 4.59028E-13
 -1      2468 2.00853E+01 8.13328E-01-1.35704E-02 1.24153E+00-1.80890E-13 5.83956E-13
 -1      2469 2.01905E+01 1.01168E+00 1.63920E-02 1.54982E+00-1.27226E-13 4.59683E-13
 -1      2470 1.92972E+01 1.43306E+00 2.70267E-02 1.59768E+00-2.37145E-13 5.87602E-13
 -1      2471 2.01635E+01 5.32480E-01-7.76742E-03 8.28950E-01 2.27415E-13 6.68702E-13
 -1      2472 2.02594E+01 6.67844E-01 1.34479E-02 1.03074E+00 8.64304E-14 6.84143E-13
 -1      2473 1.97227E+01 9.65389E-01 1.51829E-02 1.10491E+00-1.07313E-13 5.97263E-13
 -1      2474 2.01698E+01 3.41379E-01-4.53352E-03 5.47318E-01 1.38109E-13 7.03266E-13
 -1      2475 2.02491E+01 4.32522E-01 1.00869E-02 6.81781E-01 2.04441E-13 7.59852E-13
 -1      2476 1.99277E+01 6.33639E-01 8.14865E-03 7.56504E-01 1.54563E-13 7.76025E-13
 -1      2477 2.01475E+01 2.16446E-01-2.59754E-03 3.59127E-01 7.22294E-14 5.74370E-13
 -1      2478 2.02085E+01 2.75701E-01 7.15128E-03 4.47082E-01 2.13630E-13 6.81687E-13
 -1      2479 2.00194E+01 4.08132E-01 4.15515E-03 5.10979E-01 2.25052E-13 1.00563E-12
 -1      2480 2.01170E+01 1.36572E-01-1.45770E-03 2.35063E-01-8.81066E-15 4.11461E-13
 -1      2481 2.01620E+01 1.74347E-01 4.90321E-03 2.91969E-01 4.57312E-14 4.70469E-13
 -1      2482 2.00528E+01 2.60032E-01 1.96979E-03 3.42297E-01 1.11882E-13 7.33880E-13
 -1      2483 2.00875E+01 8.62754E-02-7.93463E-04 1.53833E-01-2.09263E-13 4.69853E-13
 -1      2484 2.01198E+01 1.10012E-01 3.28726E-03 1.90507E-01-1.58810E-13 5.29273E-13
 -1      2485 2.00583E+01 1.64901E-01 8.26560E-04 2.28332E-01-3.38073E-14 6.80128E-13
 -1      2486 2.00624E+01 5.50833E-02-4.07818E-04 1.00630E-01-1.23093E-13 4.11460E-13
 -1      2487 2.00851E+01 6.97552E-02 2.16977E-03 1.24363E-01-1.21049E-13 5.03162E-13
 -1      2488 2.00517E+01 1.04773E-01 2.62520E-04 1.52040E-01-1.80505E-13 6.52684E-13
 -1      2489 2.00422E+01 3.61894E-02-1.80535E-04 6.53858E-02 7.96702E-15 3.49812E-13
 -1      2490 2.00581E+01 4.50324E-02 1.41681E-03 8.10160E-02-1.02152E-13 3.85495E-13
 -1      2491 2.00410E+01 6.74019E-02 5.83359E-06 1.01029E-01-4.30513E-14 6.61237E-13
 -1      2492 2.00265E+01 2.50601E-02-7.87937E-05 4.13119E-02-2.51796E-14 3.63243E-13
 -1      2493 2.00375E+01 3.03382E-02 9.35137E-04 5.20372E-02 4.99729E-14 2.44373E-13
 -1      2494 2.00297E+01 4.46757E-02-1.21800E-04 6.66442E-02 1.03673E-13 3.75198E-13
 -1      2495 2.00145E+01 1.86662E-02 5.94602E-05 2.44426E-02-3.25068E-13 7.78745E-13
 -1      2496 2.00222E+01 2.16215E-02 6.07960E-04 3.20185E-02-2.19409E-13 4.45864E-13
 -1      2497 2.00193E+01 3.08870E-02-3.14245E-04 4.27412E-02-2.59763E-13 3.14725E-13
 -1      2498 2.00103E+01 1.60337E-02 2.69944E-04 1.74242E-02-1.58150E-13 8.61543E-13
 -1      2499 1.99914E+01 5.70701E-02-3.53136E-04 2.58416E-02-4.77550E-14-2.63136E-13
 -1      2500 1.99949E+01 5.23456E-02 5.51933E-05 2.86473E-02-1.98059E-13-7.71264E-15
 -1      2501 1.99869E+01 6.36812E-02-2.63022E-04 1.57276E-02 2.04630E-13-1.65359E-13
 -1      2502 1.99888E+01 6.08276E-02-1.38622E-04 2.05088E-02 1.62267E-13-3.05330E-13
 -1      2503 1.99869E+01 6.48251E-02 3.91445E-04 2.65381E-02 1.56161E-13-1.38297E-13
 -1      2504 2.70679E+01-6.67190E+00-2.44882E-01 3.61366E+00-1.27176E-13 2.60347E-14
 -1      2505 1.99986E+01 4.55863E-02-3.88247E-04 3.09668E-02-4.06024E-13-2.49081E-13
 -1      2506 2.00031E+01 3.96786E-02 2.43902E-04 3.11668E-02-2.68759E-13-1.84903E-13
 -1      2507 1.99959E+01 5.47853E-02 3.51771E-04 3.53197E-02-3.16417E-13 8.75341E-14
 -1      2508 1.99860E+01 6.44966E-02-1.29033E-04 3.61467E-03 1.84483E-13-4.87552E-13
 -1      2509 1.99860E+01 6.39182E-02-2.84113E-04 9.02218E-03 1.10913E-13-1.77767E-13
 -1      2510 1.99823E+01 6.85116E-02 4.05691E-04 1.31931E-02 1.71908E-13-2.20599E-13
 -1      2511 1.99881E+01 6.00513E-02-4.33811E-06-7.65612E-03 4.40785E-14-1.66670E-13
 -1      2512 1.99867E+01 6.16055E-02-3.52441E-04-2.82945E-03 1.89244E-13-5.02626E-13
 -1      2513 1.99820E+01 6.57540E-02 3.08212E-04-1.17415E-03 1.75138E-13-5.00497E-13
 -1      2514 1.99918E+01 5.18509E-02 8.34751E-05-1.60965E-02-1.44025E-13-1.24185E-13
 -1      2515 1.99897E+01 5.50430E-02-3.33569E-04-1.26280E-02-7.08584E-14-1.19570E-13
 -1      2516 1.99853E+01 5.79507E-02 1.64195E-04-1.34803E-02-6.95127E-14-3.76147E-13
 -1      2517 1.99959E+01 4.17884E-02 1.21669E-04-2.08896E-02-1.71383E-13 2.47115E-13
 -1      2518 1.99938E+01 4.59504E-02-2.48607E-04-1.90393E-02-1.44786E-13 4.51375E-14
 -1      2519 1.99904E+01 4.72598E-02 1.97220E-05-2.18582E-02-1.86076E-13-9.49961E-14
 -1      2520 1.99993E+01 3.17859E-02 1.22421E-04-2.22683E-02-2.49726E-13 2.99174E-13
 -1      2521 1.99977E+01 3.61735E-02-1.33236E-04-2.18564E-02-2.35627E-13 4.40228E-13
 -1      2522 1.99957E+01 3.60014E-02-8.54089E-05-2.58252E-02-1.22612E-13 3.09072E-13
 -1      2523 2.00018E+01 2.27186E-02 1.07397E-04-2.11514E-02-4.50264E-13-2.36908E-13
 -1      2524 2.00006E+01 2.69724E-02-2.64473E-05-2.17871E-02-2.61455E-13-2.76907E-14
 -1      2525 1.99999E+01 2.58054E-02-1.43551E-04-2.60913E-02-1.61535E-13 1.34689E-13
 -1      2526 2.00034E+01 1.53837E-02 1.10633E-04-1.84321E-02-3.24464E-13-4.49271E-14
 -1      2527 2.00026E+01 1.90250E-02 3.89467E-05-1.97572E-02-4.91482E-13 1.30094E-13
 -1      2528 2.00029E+01 1.74474E-02-1.72804E-04-2.38771E-02-2.82978E-13-6.09742E-14
 -1      2529 7.33094E+00-3.43542E+00 1.12259E-01-7.21314E+00-1.42386E-13 1.06637E-13
 -1      2530 1.09769E+01-4.24300E+00 3.95023E-02-8.52037E+00-1.67311E-13 3.05589E-14
 -1      2531 3.60039E+01 5.19206E+00-9.46662E-02 2.89113E-01-4.33514E-13-3.02702E-13
 -1      2532 3.50415E+01 3.82060E+00-6.95759E-02 6.09168E-01-5.77344E-13-2.00728E-13
 -1      2533 3.64915E+00-1.56103E+00 1.95888E-01-3.59275E+00 1.05832E-13 5.96023E-13
 -1      2534 4.87650E+00-2.12287E+00 1.28028E-01-5.58418E+00-3.60267E-14 5.50338E-13
 -1      2535 3.86799E+00-1.95708E+00 1.38072E-01 1.94736E+00-5.83422E-14 3.72813E-13
 -1      2536 2.87306E+00-1.34651E+00 1.16195E-01-8.41313E-01 8.66425E-14 1.00364E-13
 -1      2537 3.49284E+01 8.66801E+00-1.61084E-01 3.95819E-01-7.98861E-13 1.00225E-13
 -1      2538 3.54561E+01 8.98675E+00-1.07021E-01 8.79289E-03-7.95475E-13 3.55445E-15
 -1      2539 1.73519E+01 1.58928E+00 6.67804E-02 4.93190E+00 2.10075E-14 9.65686E-14
 -1      2540 1.74357E+01 4.91326E-01 8.98841E-02 5.42682E+00-1.40832E-13 7.77156E-14
 -1      2541 1.51364E+01 2.21997E+00 1.26307E-01 4.00016E+00 4.06619E-15 3.25198E-13
 -1      2542 1.10509E+01-4.16920E+00 3.48018E-02-5.57491E+00-4.55747E-14 1.00336E-13
 -1      2543 1.62359E+01-5.12512E+00-8.97839E-02-6.28633E+00 1.15075E-13 3.13388E-13
 -1      2544 1.95191E+01 3.58695E+00-1.00979E-02-2.45091E-01-3.79426E-14-2.05030E-13
 -1      2545 1.95351E+01 3.56620E+00-9.66489E-03-4.25609E-01-6.55338E-14-1.95234E-13
 -1      2546 1.97113E+01 3.16603E+00-5.54319E-04-4.72664E-01-6.74274E-14-1.67105E-13
 -1      2547 1.96770E+01 3.22613E+00-8.96080E-04-1.51936E-01-2.87285E-14-1.96099E-13
 -1      2548 3.38318E+01 2.00269E+00-7.92229E-02-1.21490E+00-4.09950E-13 9.62563E-14
 -1      2549 3.53190E+01 3.92515E+00-1.09904E-01-5.23108E-01-4.88387E-13 4.81837E-14
 -1      2550 2.53412E+00-1.95771E+00 9.72835E-02 2.54205E+00-1.53488E-13-6.02407E-13
 -1      2551 2.63982E+00-1.78925E+00 1.49727E-01 3.59514E-01-1.43330E-13-2.86549E-13
 -1      2552 1.52615E+01-4.88363E+00 5.49791E-02-8.46138E+00-7.02771E-14 1.25726E-13
 -1      2553 1.92256E+01-4.74521E+00 4.43946E-03-8.44690E+00-3.89133E-14 5.37244E-14
 -1      2554 1.31920E+01-4.15941E+00 5.68232E-02 8.63975E+00 1.55098E-13-6.61346E-13
 -1      2555 9.82444E+00-3.74812E+00 1.22455E-01 7.89074E+00 1.15741E-13-6.46261E-13
 -1      2556 2.96975E+01-2.32697E+00-2.13693E-02-4.03821E+00-6.53227E-14 1.79523E-13
 -1      2557 3.23800E+01-5.08611E-01-9.78183E-02-2.78065E+00-2.24109E-13 7.71605E-14
 -1      2558 6.25445E+00-2.74145E+00 8.55237E-02 6.72093E+00-5.98133E-14-6.73406E-13
 -1      2559 3.89235E+00-2.33152E+00 1.40524E-01 4.57152E+00-1.50574E-13-6.33771E-13
 -1      2560 3.57653E+01 6.04581E+00-9.02949E-02 1.28514E-01-6.58085E-13 8.38218E-15
 -1      2561 3.58824E+01 7.56431E+00-1.70855E-01 5.14661E-01-6.99552E-13-7.74381E-15
 -1      2562 3.42934E+01 1.62428E+00-6.25823E-02 1.92856E+00-5.99708E-13-8.75411E-14
 -1      2563 3.17070E+01-5.75873E-01-6.33499E-02 3.08082E+00-5.27585E-13-1.27676E-14
 -1      2564 3.31604E+01 1.92439E+00-1.52754E-02 6.23170E-02-5.21236E-13-1.68282E-13
 -1      2565 2.28835E+01-4.61757E+00 5.27628E-03-7.19134E+00 1.98452E-13 2.59626E-13
 -1      2566 2.65633E+01-3.77106E+00-7.13898E-02-6.26331E+00 1.89737E-13 3.65208E-13
 -1      2567 2.35907E+01-5.25071E+00 9.70621E-02 4.97226E+00-3.54217E-13 1.12500E-13
 -1      2568 1.99118E+01 2.81197E+00 6.00055E-04-1.09480E+00-1.60004E-13-9.43781E-14
 -1      2569 1.97829E+01 3.15810E+00-1.53466E-02-1.28494E+00-1.71975E-13-1.10778E-13
 -1      2570 1.98826E+01 3.01057E+00-1.98288E-02-1.47811E+00-1.91166E-13-7.84147E-14
 -1      2571 2.01192E+01 2.61429E+00-9.93341E-03-1.67466E+00-2.03571E-13 1.30278E-15
 -1      2572 4.97068E+00-7.07719E-01 1.62515E-01-1.24289E+00-1.32123E-13-3.40949E-13
 -1      2573 3.36881E+01 4.63298E+00-2.42834E-02 9.04634E-01-4.77229E-13-1.67699E-13
 -1      2574 1.31489E+01-3.65537E+00 1.55737E-01 5.88238E+00-2.67564E-13 5.50227E-13
 -1      2575 1.27143E+01-2.11361E+00 7.93010E-02 5.88475E+00-1.76165E-13 4.27491E-13
 -1      2576 2.67463E+01-4.51989E+00-6.42898E-02 5.01215E+00 3.94129E-14-1.70919E-13
 -1      2577 2.49476E+01-4.53945E+00 1.92357E-02 6.52433E+00 8.02136E-14-3.01953E-13
 -1      2578 2.30519E+01-4.77612E+00 1.35085E-01 7.04125E+00 2.28650E-13-3.82909E-13
 -1      2579 2.11419E+01-1.52702E+00 1.91266E-01-5.89955E+00-9.47020E-14 1.34920E-13
 -1      2580 1.62891E+01-6.97033E-01 1.11403E-01-6.02771E+00-1.43927E-13 1.90958E-14
 -1      2581 3.07629E+01-2.08007E+00-8.46854E-03 2.74800E+00-3.23998E-13 8.38773E-14
 -1      2582 2.26588E+01-3.66384E+00 1.27229E-01-5.43891E+00 3.22797E-14 3.45696E-14
 -1      2583 7.02452E+00-6.39913E-01 1.83619E-01 3.03985E+00 1.26982E-14 4.47420E-13
 -1      2584 3.22772E+01 6.93345E-02-2.67819E-02-7.96587E-01-2.43014E-13 2.04836E-14
 -1      2585 1.08408E+01-2.38947E+00 1.22308E-01-5.33184E+00-1.03834E-13-6.41154E-15
 -1      2586 2.36642E+01-4.93886E+00 7.54784E-02-4.94908E+00 1.47271E-13 5.24164E-14
 -1      2587 2.00105E+01 2.32550E-02 3.77909E-05 2.54279E-02-3.38424E-13 3.40212E-13
 -1      2588 3.44402E+01 6.21616E+00-9.31058E-02-1.03735E+00-5.11063E-13-2.80553E-13
 -1      2589 2.00087E+01 2.89993E-02-1.22336E-04 2.86506E-02-3.00180E-13 2.04592E-14
 -1      2590 1.47541E+01-4.05849E+00 1.10012E-01-8.44596E+00-8.29892E-14-4.93910E-14
 -1      2591 8.01405E+00-1.82622E+00 1.48079E-01-6.47371E+00-8.51264E-14 3.87718E-13
 -1      2592 2.00048E+01 1.02159E-02 8.95689E-05-1.63865E-02 8.93172E-14 1.22839E-13
 -1      2593 2.00039E+01 1.32023E-02 6.27479E-05-1.74670E-02-1.44731E-13-6.40865E-14
 -1      2594 2.00046E+01 1.20076E-02-1.48072E-04-2.10989E-02-8.70687E-14 2.09293E-13
 -1      2595 2.00064E+01 8.17037E-03-4.38730E-05-1.84695E-02-8.93381E-14 2.53079E-13
 -1      2596 2.85270E+01-3.58149E+00 4.73810E-02-4.26855E+00 1.08441E-13 2.41834E-13
 -1      2597 2.00087E+01 3.77805E-02 3.31848E-04 3.62938E-02-3.77463E-13 1.05820E-14
 -1      2598 1.84925E+01-4.67683E+00-9.97939E-03 6.02822E+00-3.01870E-13 3.95961E-13
 -1      2599 5.06318E+00-8.33569E-02 1.90952E-01-1.85016E+00 7.57831E-14 3.99680E-13
 -1      2600 3.34548E+01 8.72203E+00-1.09209E-01-1.82662E-01-7.77267E-13-1.90369E-14
 -1      2601 9.54489E+00-2.19802E+00 1.72018E-01 7.16856E+00 3.00870E-14-5.68962E-13
 -1      2602 1.62305E+01-4.47878E+00 1.02177E-01 8.42677E+00 2.61569E-13-5.95760E-13
 -1      2603 1.55673E+01-3.53888E+00 1.52731E-01 8.22248E+00 3.17163E-13-5.05249E-13
 -1      2604 1.91004E+01-4.68378E+00-1.93898E-02 7.91608E+00 3.62765E-13-5.17669E-13
 -1      2605 2.44668E+01-5.99362E+00-5.97664E-03-4.32173E+00 6.65579E-14-3.53051E-14
 -1      2606 5.07871E+00-6.55736E-01 1.77665E-01 3.57822E+00-1.64924E-13-5.88585E-13
 -1      2607 2.08642E+01-3.70192E+00 3.60302E-02 5.87016E+00-3.71925E-13 1.26427E-13
 -1      2608 3.28238E+01 7.84540E+00-9.83866E-02 8.62287E-01-7.11986E-13 3.12805E-14
 -1      2609 2.98988E+01-6.09409E+00 4.01118E-02-2.96333E+00-3.28626E-14-3.86635E-13
 -1      2610 2.22605E+01-4.91150E+00 8.76281E-02-7.32404E+00 4.17999E-14 2.37130E-13
 -1      2611 1.91602E+01-1.16585E+00 2.47577E-01 6.06918E+00-3.50456E-13 2.52021E-14
 -1      2612 1.46371E+01-2.07676E-01 1.07218E-01 5.56561E+00-8.65141E-14 3.55660E-13
 -1      2613 1.98746E+01 2.69947E+00-6.01426E-03-6.33819E-01-8.28492E-14-1.28053E-13
 -1      2614 1.99177E+01 2.61008E+00-7.45429E-03-7.82697E-01-1.15394E-13-1.03424E-13
 -1      2615 1.98451E+01 2.76763E+00-6.30332E-03 5.14894E-01 4.30095E-14-2.12570E-13
 -1      2616 1.98201E+01 2.81757E+00-5.71327E-03 3.64261E-01 1.90996E-14-2.17265E-13
 -1      2617 1.98030E+01 2.85528E+00-5.61635E-03 2.29082E-01 7.27241E-15-2.22217E-13
 -1      2618 1.97943E+01 2.87226E+00-5.44389E-03 7.47616E-02-4.72671E-15-2.02777E-13
 -1      2619 1.99493E+01 2.50449E+00 3.65967E-03 2.64134E-01 1.44544E-14-2.16193E-13
 -1      2620 2.00449E+01 2.32518E+00-1.08311E-02 1.04375E+00 1.29158E-13-1.65669E-13
 -1      2621 1.99801E+01 2.47465E+00-6.42299E-03 9.08418E-01 1.07516E-13-1.64768E-13
 -1      2622 2.02066E+01 1.91784E+00-1.43585E-02 1.22798E+00 1.54262E-13-1.29952E-13
 -1      2623 2.01221E+01 2.14711E+00-6.11293E-03 1.13214E+00 1.31374E-13-1.55394E-13
 -1      2624 2.01914E+01 1.89000E+00 6.99950E-03 9.25406E-01 1.23254E-13-1.45867E-13
 -1      2625 2.04096E+01 1.07894E+00 6.75810E-03 1.16390E+00 1.86418E-13-1.89289E-14
 -1      2626 1.98615E+01 5.32095E-02 1.38907E-04-1.51640E-01 1.69217E-14-1.10903E-13
 -1      2627 1.98741E+01 8.44334E-02 3.16353E-03-1.22113E-01 2.69238E-14-9.14554E-14
 -1      2628 1.98963E+01 1.21582E-01-1.77574E-04-7.65288E-02-6.54370E-16-9.19484E-14
 -1      2629 1.99311E+01 1.72877E-01 5.29362E-03-2.01541E-02 1.29119E-14-6.82261E-14
 -1      2630 1.99958E+01 1.39396E-01-2.33245E-03-7.95124E-02 3.45216E-14-1.49505E-13
 -1      2631 2.03203E+01 1.70745E+00-1.07631E-02-1.32865E+00-1.97533E-13 3.27952E-14
 -1      2632 2.02904E+01 1.32801E+00-6.21154E-03-1.03344E+00-1.83217E-13 4.17597E-14
 -1      2633 1.99640E+01 2.32963E-01-7.42645E-04 5.91695E-02 3.24145E-14-6.10797E-14
 -1      2634 2.00308E+01 3.16529E-01 8.40650E-03 1.57365E-01 5.98374E-14-3.83354E-14
 -1      2635 2.00586E+01 2.68682E-01-2.80362E-03 5.56413E-02 3.27329E-14-1.23138E-13
 -1      2636 2.03134E+01 1.01618E+00 3.89534E-03-8.07682E-01-1.63931E-13 3.74345E-14
 -1      2637 2.02214E+01 7.84816E-01-5.10396E-03-5.67748E-01-1.65723E-13 4.38856E-14
 -1      2638 2.02813E+01 1.36547E+00 4.64658E-03-8.93953E-01-1.73943E-13 8.87720E-15
 -1      2639 1.77715E+01 1.97502E+00-2.72976E-02 1.48983E+00 3.17804E-14 6.97487E-13
 -1      2640 1.72324E+01 2.26611E+00-5.52768E-03 1.77197E+00 1.73247E-14 6.80225E-13
 -1      2641 2.02098E+01 6.00640E-01 5.48898E-03-4.03990E-01-1.34001E-13 5.07677E-14
 -1      2642 2.01292E+01 4.59780E-01-2.95206E-03-2.45690E-01-9.97504E-14 6.80132E-14
 -1      2643 2.02566E+01 8.34120E-01 1.42215E-03-4.98603E-01-1.33172E-13 2.88078E-14
 -1      2644 2.01049E+01 3.47221E-01 4.59459E-03-1.35994E-01-8.42342E-14 8.02655E-14
 -1      2645 2.00485E+01 2.59812E-01-1.51077E-03-3.73738E-02-8.57726E-14 7.95828E-14
 -1      2646 2.01934E+01 4.94998E-01-8.17994E-04-2.11986E-01-8.80241E-14 6.38389E-14
 -1      2647 2.00244E+01 1.89659E-01 3.32845E-03 3.11048E-02-8.06359E-14 8.10489E-14
 -1      2648 1.99905E+01 1.34931E-01-5.81203E-04 8.91096E-02-8.86607E-14 8.46697E-14
 -1      2649 2.01288E+01 2.79362E-01-1.64360E-03-2.17575E-02-8.19665E-14 6.00325E-14
 -1      2650 1.99711E+01 9.09576E-02 2.24047E-03 1.28282E-01-8.60358E-14 1.01202E-13
 -1      2651 1.99544E+01 5.69497E-02-2.68118E-05 1.59406E-01-8.39871E-14 1.18571E-13
 -1      2652 2.00760E+01 1.42335E-01-1.71659E-03 9.54815E-02-6.26243E-14 1.02633E-13
 -1      2653 1.99404E+01 2.97405E-02 1.40851E-03 1.78687E-01-8.68691E-14 1.32271E-13
 -1      2654 1.99356E+01 9.19187E-03 2.74591E-04 1.92428E-01-8.70822E-14 1.04128E-13
 -1      2655 2.00376E+01 5.61742E-02-1.51262E-03 1.61075E-01-7.59763E-14 1.71134E-13
 -1      2656 1.99265E+01-7.09176E-03 8.11727E-04 1.98772E-01-4.94402E-14 1.16190E-13
 -1      2657 1.99295E+01-1.88932E-02 4.12667E-04 2.01596E-01-3.07691E-14 1.02289E-13
 -1      2658 2.00118E+01 3.42920E-03-1.23961E-03 1.91826E-01-5.07316E-14 2.18638E-13
 -1      2659 1.99242E+01-2.81509E-02 4.08837E-04 1.99917E-01-4.74541E-14 9.95676E-14
 -1      2660 1.99319E+01-3.44966E-02 4.40793E-04 1.96137E-01-7.58801E-14 1.28303E-13
 -1      2661 1.99963E+01-2.74689E-02-9.82677E-04 2.00076E-01-4.74559E-14 1.54308E-13
 -1      2662 1.99297E+01-3.95530E-02 1.60661E-04 1.89726E-01-3.11149E-14 1.15989E-13
 -1      2663 1.99399E+01-4.29344E-02 3.85652E-04 1.82059E-01 2.36147E-14 1.20648E-13
 -1      2664 1.99887E+01-4.46873E-02-7.70067E-04 1.94455E-01-4.23363E-14 1.71385E-13
 -1      2665 1.99405E+01-4.60234E-02 3.62828E-05 1.72903E-01 3.44428E-14 6.02717E-14
 -1      2666 1.99517E+01-4.85050E-02 2.54252E-04 1.62817E-01 8.28468E-15 8.85605E-14
 -1      2667 1.99873E+01-5.44485E-02-6.08326E-04 1.80589E-01-7.31850E-15 8.83914E-14
 -1      2668 1.99549E+01-5.15684E-02 1.41508E-05 1.51801E-01-4.96005E-14 5.56677E-14
 -1      2669 1.99662E+01-5.50266E-02 3.93523E-05 1.39710E-01-9.62577E-14 2.65415E-14
 -1      2670 1.99913E+01-6.19226E-02-4.96736E-04 1.61633E-01-2.81609E-14-1.04358E-14
 -1      2671 1.99725E+01-5.99003E-02 8.07939E-05 1.26724E-01-1.35945E-13 7.05860E-16
 -1      2672 1.99833E+01-6.61621E-02-2.76351E-04 1.12077E-01-1.34911E-13-6.71434E-14
 -1      2673 2.00009E+01-7.18007E-02-4.31899E-04 1.38598E-01-1.54062E-13-8.64641E-15
 -1      2674 1.99936E+01-7.46609E-02 2.27241E-04 9.60429E-02-7.79872E-14-8.24688E-14
 -1      2675 2.00035E+01-8.55291E-02-7.15710E-04 7.73618E-02-1.32578E-13-7.32775E-14
 -1      2676 2.00170E+01-8.86214E-02-4.08101E-04 1.10481E-01-1.25813E-13 2.54658E-14
 -1      2677 2.00190E+01-9.93991E-02 4.42794E-04 5.62177E-02-1.15109E-13-3.29009E-14
 -1      2678 2.00276E+01-1.16514E-01-1.29974E-03 3.11297E-02-4.44472E-14-4.95807E-14
 -1      2679 2.00416E+01-1.16811E-01-4.14287E-04 7.42815E-02-7.35996E-14 4.21060E-14
 -1      2680 2.00499E+01-1.37187E-01 7.05287E-04 1.82833E-03-2.55293E-14-2.84414E-14
 -1      2681 2.00564E+01-1.61645E-01-2.03443E-03-3.28183E-02-4.93615E-14 1.81054E-14
 -1      2682 2.00773E+01-1.60311E-01-4.27482E-04 2.49515E-02-1.63627E-15 1.06221E-13
 -1      2683 2.00871E+01-1.89707E-01 9.67701E-04-7.41847E-02-5.26773E-14 7.83589E-15
 -1      2684 2.00904E+01-2.21352E-01-2.88862E-03-1.22000E-01-4.63544E-14 4.52126E-14
 -1      2685 2.01272E+01-2.21600E-01-4.03488E-04-4.45382E-02-2.42027E-14 7.53374E-14
 -1      2686 2.01298E+01-2.55659E-01 1.14368E-03-1.79776E-01-4.28706E-14 3.50960E-14
 -1      2687 2.01280E+01-2.92018E-01-3.76147E-03-2.44132E-01-5.33576E-14 4.94802E-14
 -1      2688 2.01932E+01-2.99907E-01-2.67774E-04-1.42755E-01-4.79727E-14 2.46230E-14
 -1      2689 2.01746E+01-3.28487E-01 1.09986E-03-3.22119E-01 1.24621E-14 4.38733E-14
 -1      2690 2.01645E+01-3.63498E-01-4.44384E-03-4.04895E-01 1.09478E-14-1.26703E-14
 -1      2691 2.02749E+01-3.88566E-01 8.59966E-05-2.78532E-01-7.14015E-15 4.12431E-14
 -1      2692 2.02132E+01-3.93839E-01 6.67801E-04-5.04502E-01-2.41579E-14 9.84080E-14
 -1      2693 2.01905E+01-4.16850E-01-4.58840E-03-6.04147E-01-3.74679E-14 5.37298E-14
 -1      2694 2.03665E+01-4.71877E-01 7.73801E-04-4.58253E-01 3.72731E-14 1.08473E-13
 -1      2695 2.02310E+01-4.27947E-01-2.86048E-04-7.21501E-01 3.12689E-14 7.89864E-14
 -1      2696 2.01905E+01-4.23979E-01-3.74228E-03-8.30534E-01 4.37309E-14 8.06409E-14
 -1      2697 2.04542E+01-5.22748E-01 1.85422E-03-6.81066E-01 2.25994E-14 1.49578E-13
 -1      2698 2.02079E+01-3.99189E-01-1.76795E-03-9.52855E-01 3.70301E-14 1.40563E-13
 -1      2699 2.01450E+01-3.51881E-01-1.52710E-03-1.05554E+00 3.52370E-14 1.39243E-13
 -1      2700 2.05149E+01-5.03613E-01 3.19479E-03-9.31903E-01 7.04577E-14 1.97205E-13
 -1      2701 2.01228E+01-2.75673E-01-3.48635E-03-1.15827E+00-3.98750E-14 1.30750E-13
 -1      2702 2.00364E+01-1.74056E-01 2.00814E-03-1.22998E+00 1.61128E-16 8.10650E-14
 -1      2703 2.05186E+01-3.74272E-01 4.27159E-03-1.17390E+00-3.88177E-15 1.48129E-13
 -1      2704 1.99646E+01-4.07751E-02-4.73239E-03-1.27786E+00 2.47316E-14 3.84049E-14
 -1      2705 1.98597E+01 1.11097E-01 6.04611E-03-1.28870E+00 2.39674E-14-8.22174E-14
 -1      2706 2.04390E+01-1.09476E-01 4.17388E-03-1.34482E+00-2.75094E-14 2.05204E-13
 -1      2707 1.97452E+01 2.87275E-01-4.51474E-03-1.24453E+00 1.92738E-14-8.88303E-14
 -1      2708 1.96357E+01 4.62742E-01 8.89398E-03-1.16877E+00-7.95904E-14-8.77170E-14
 -1      2709 2.02716E+01 2.77329E-01 2.14399E-03-1.36590E+00-2.71147E-14 7.10283E-15
 -1      2710 1.95089E+01 6.43047E-01-2.22504E-03-1.01047E+00-1.22035E-14-4.52480E-14
 -1      2711 1.94161E+01 7.95091E-01 8.75340E-03-8.40345E-01 5.33705E-14-7.04317E-14
 -1      2712 2.00502E+01 7.16026E-01-1.71059E-03-1.16895E+00 3.77466E-14 1.26709E-13
 -1      2713 1.93236E+01 9.25540E-01 1.78097E-03-5.79567E-01 6.96748E-14-1.53045E-14
 -1      2714 1.92702E+01 1.00389E+00 5.12518E-03-3.36024E-01 9.19678E-14-3.37628E-14
 -1      2715 1.98478E+01 1.08848E+00-5.60373E-03-7.37409E-01 9.05135E-14 1.51333E-14
 -1      2716 1.92517E+01 1.03872E+00 5.85753E-03-2.35662E-02-5.47804E-15-7.69597E-14
 -1      2717 1.92531E+01 1.01459E+00-5.18319E-04 2.45501E-01-6.63813E-14 2.61295E-14
 -1      2718 1.97467E+01 1.27194E+00-7.04415E-03-1.36346E-01 1.00088E-14-1.98562E-14
 -1      2719 1.93176E+01 9.40892E-01 8.06101E-03 5.36121E-01-5.66283E-14 2.51915E-14
 -1      2720 1.93746E+01 8.23448E-01-5.36601E-03 7.72742E-01-4.48473E-14 1.18025E-13
 -1      2721 1.97926E+01 1.19985E+00-4.68231E-03 4.98370E-01-2.93614E-14 1.35323E-13
 -1      2722 1.94941E+01 6.68920E-01 7.40656E-03 9.77199E-01-1.37519E-13 2.17176E-13
 -1      2723 1.95916E+01 4.99995E-01-7.34319E-03 1.13669E+00-9.74415E-14 2.01017E-13
 -1      2724 1.99647E+01 8.98639E-01 8.85932E-05 1.01527E+00-6.51759E-14 1.51681E-13
 -1      2725 1.97188E+01 3.16656E-01 4.52422E-03 1.22583E+00-1.01720E-13 2.47286E-13
 -1      2726 1.98333E+01 1.47945E-01-6.25148E-03 1.29160E+00 3.64644E-15 2.54666E-13
 -1      2727 2.01892E+01 4.73219E-01 4.26192E-03 1.31470E+00-1.33056E-13 2.95191E-13
 -1      2728 1.99283E+01-1.42110E-02 1.00109E-03 1.27529E+00 2.97025E-14 1.66323E-13
 -1      2729 2.00368E+01-1.43969E-01-3.35211E-03 1.25815E+00 6.08993E-14 1.03845E-14
 -1      2730 2.03847E+01 5.15351E-02 5.84486E-03 1.38051E+00 1.50196E-14 3.49424E-13
 -1      2731 2.00819E+01-2.55491E-01-1.77581E-03 1.17048E+00 1.41111E-13-8.47457E-14
 -1      2732 2.01700E+01-3.30675E-01-2.49486E-04 1.09708E+00 1.84432E-13-1.03546E-13
 -1      2733 2.05004E+01-2.71465E-01 4.77940E-03 1.26439E+00 1.27770E-14 1.39965E-13
 -1      2734 2.01687E+01-3.85796E-01-3.24413E-03 9.76648E-01 1.18836E-13-2.94418E-13
 -1      2735 2.02313E+01-4.10481E-01 2.04466E-03 8.76221E-01 8.27614E-15-3.28832E-13
 -1      2736 2.05277E+01-4.57921E-01 2.42105E-03 1.04554E+00 2.24127E-14-1.28255E-13
 -1      2737 2.01987E+01-4.19445E-01-3.55324E-03 7.53235E-01 1.35379E-15-4.42161E-13
 -1      2738 2.02381E+01-4.07986E-01 3.25155E-03 6.49161E-01-1.06523E-13-4.36196E-13
 -1      2739 2.04867E+01-5.18895E-01 1.29314E-04 7.95585E-01-2.97342E-14-4.41392E-13
 -1      2740 2.01908E+01-3.87224E-01-3.15481E-03 5.41471E-01-9.48484E-14-3.89755E-13
 -1      2741 2.02123E+01-3.55785E-01 3.52290E-03 4.48370E-01 2.51630E-14-3.62732E-13
 -1      2742 2.04076E+01-4.90669E-01-1.41092E-03 5.62516E-01-2.89356E-14-3.70678E-13
 -1      2743 2.01631E+01-3.20784E-01-2.47658E-03 3.63233E-01 1.17547E-13-3.08431E-13
 -1      2744 2.01727E+01-2.82436E-01 3.19522E-03 2.87830E-01 7.05025E-14-3.08968E-13
 -1      2745 2.03169E+01-4.13491E-01-2.11359E-03 3.70081E-01 1.81427E-13-5.00374E-13
 -1      2746 2.01292E+01-2.44482E-01-1.78552E-03 2.25592E-01 1.12942E-13-2.05884E-13
 -1      2747 2.01317E+01-2.07676E-01 2.58910E-03 1.69071E-01-2.33767E-14-2.14756E-13
 -1      2748 2.02321E+01-3.19608E-01-2.18745E-03 2.24436E-01 1.18506E-13-4.17936E-13
 -1      2749 2.00970E+01-1.73387E-01-1.20461E-03 1.26560E-01-1.91117E-13-1.48054E-13
 -1      2750 2.00958E+01-1.42397E-01 1.93104E-03 8.69662E-02-1.35626E-13-1.07516E-13
 -1      2751 2.01618E+01-2.29676E-01-1.90520E-03 1.21728E-01-8.83696E-14-3.13090E-13
 -1      2752 2.00700E+01-1.14663E-01-7.65356E-04 5.98332E-02-3.27900E-14-1.14005E-13
 -1      2753 2.00671E+01-9.08018E-02 1.34671E-03 3.38994E-02 1.14578E-13 2.56210E-14
 -1      2754 2.01082E+01-1.54044E-01-1.48725E-03 5.38891E-02 3.50804E-14-1.00177E-13
 -1      2755 2.00491E+01-7.00783E-02-4.56109E-04 1.79228E-02-6.62143E-15 8.74323E-14
 -1      2756 2.00457E+01-5.29197E-02 8.86502E-04 2.21392E-03-3.78318E-14 8.59056E-14
 -1      2757 2.00698E+01-9.58239E-02-1.07070E-03 1.21551E-02 7.30927E-14-1.71148E-14
 -1      2758 2.00336E+01-3.83631E-02-2.50813E-04-6.11275E-03-4.64826E-14 4.08314E-14
 -1      2759 2.00302E+01-2.66872E-02 5.55285E-04-1.46033E-02-7.74786E-14 1.26417E-13
 -1      2760 2.00436E+01-5.39167E-02-7.18505E-04-1.12006E-02-6.78632E-14 3.90211E-14
 -1      2761 2.00225E+01-1.69730E-02-1.28154E-04-1.79411E-02-1.11109E-14 1.09363E-13
 -1      2762 2.00194E+01-9.33702E-03 3.32782E-04-2.16014E-02 9.28155E-14 1.04523E-13
 -1      2763 2.00265E+01-2.53224E-02-4.42112E-04-2.22560E-02-6.34433E-14 1.87382E-13
 -1      2764 2.00144E+01-3.02645E-03-5.35221E-05-2.17959E-02 4.06519E-14 8.51221E-14
 -1      2765 2.00116E+01 1.76290E-03 1.06416E-04-2.23786E-02 4.90040E-14 1.38130E-13
 -1      2766 2.00156E+01-6.58037E-03-2.31263E-04-2.54427E-02 7.75564E-14 1.58003E-13
 -1      2767 6.50458E+00 1.27849E+00 2.14846E-01-7.83983E-02-9.15379E-14 1.23845E-13
 -1      2768 6.77568E+00 9.39193E-01 1.60915E-01-2.88185E+00-4.93702E-14 4.48475E-13
 -1      2769 1.98507E+01 1.23417E-02 2.79804E-04-1.87941E-01-2.02763E-14-8.80754E-14
 -1      2770 1.98488E+01 3.08367E-02 1.79053E-03-1.75026E-01-3.23023E-14-1.18921E-13
 -1      2771 1.99570E+01 5.96422E-02-1.79759E-03-1.55609E-01-3.96189E-15-1.15360E-13
 -1      2772 1.98569E+01-1.07185E-02 3.94722E-04-2.00503E-01 1.95889E-14-2.67092E-14
 -1      2773 1.98453E+01-8.50844E-04 8.71742E-04-1.97525E-01-7.87949E-15-6.64409E-14
 -1      2774 1.99369E+01 1.17868E-02-1.25850E-03-1.93525E-01-2.92932E-14-1.35778E-13
 -1      2775 1.98733E+01-1.93428E-02 5.20543E-04-1.99217E-01 7.47803E-14-1.99395E-16
 -1      2776 1.98567E+01-1.62477E-02 2.29823E-04-2.01391E-01 6.06906E-14-3.21975E-15
 -1      2777 1.99310E+01-1.36923E-02-8.88794E-04-2.06962E-01 2.88889E-14-1.00762E-13
 -1      2778 1.98958E+01-1.82818E-02 6.44948E-04-1.93071E-01 1.33813E-13-5.32198E-14
 -1      2779 1.98762E+01-2.01100E-02-1.94925E-04-1.96555E-01 1.24494E-13 1.40257E-14
 -1      2780 1.99344E+01-2.24754E-02-5.80135E-04-2.07047E-01 8.55762E-14-4.56544E-14
 -1      2781 1.99219E+01-8.63351E-03 8.18430E-04-1.88207E-01 1.25177E-13-6.37491E-14
 -1      2782 1.99003E+01-1.48783E-02-4.89136E-04-1.90082E-01 1.54722E-13-4.10880E-14
 -1      2783 1.99433E+01-1.90739E-02-3.40684E-04-2.02479E-01 1.50203E-13-7.05097E-14
 -1      2784 1.99495E+01 1.00499E-02 1.08249E-03-1.90178E-01 1.13053E-13-1.06364E-13
 -1      2785 1.99264E+01-1.05279E-03-7.46879E-04-1.87678E-01 1.05934E-13-7.52448E-14
 -1      2786 1.99545E+01-4.60174E-03-1.24616E-04-1.99627E-01 1.39207E-13 1.23979E-16
 -1      2787 1.99771E+01 4.00780E-02 1.47495E-03-2.04807E-01 4.64856E-14-5.31386E-14
 -1      2788 1.99524E+01 2.26559E-02-1.04624E-03-1.94815E-01 7.85670E-14-3.59011E-14
 -1      2789 1.99653E+01 2.19213E-02 1.27405E-04-2.04161E-01 5.50833E-14 4.28407E-14
 -1      2790 2.00022E+01 8.61575E-02 2.03774E-03-2.39139E-01-9.93957E-14 6.37298E-14
 -1      2791 1.99758E+01 5.96265E-02-1.48149E-03-2.17644E-01-1.94426E-14-1.19802E-14
 -1      2792 1.99717E+01 6.39184E-02 5.05121E-04-2.21844E-01-2.28170E-14 1.28607E-13
 -1      2793 2.00204E+01 1.56248E-01 2.80440E-03-3.02490E-01-6.21171E-14 8.60083E-14
 -1      2794 1.99925E+01 1.16012E-01-2.18071E-03-2.63944E-01-5.64263E-14 1.02401E-13
 -1      2795 1.99679E+01 1.27935E-01 1.15506E-03-2.59287E-01-5.67508E-14 9.39520E-14
 -1      2796 2.00225E+01 2.62758E-01 3.78679E-03-4.07543E-01 4.15423E-15 1.33353E-14
 -1      2797 1.99946E+01 2.01758E-01-3.33431E-03-3.44155E-01-4.99548E-14 1.24862E-14
 -1      2798 1.99436E+01 2.24667E-01 2.32375E-03-3.24589E-01 1.65396E-14-6.51065E-15
 -1      2799 1.99912E+01 4.23747E-01 5.09708E-03-5.71263E-01 8.75964E-14-6.76975E-14
 -1      2800 1.99675E+01 3.31610E-01-5.32041E-03-4.72404E-01 4.30644E-14 9.05062E-15
 -1      2801 1.98805E+01 3.70376E-01 4.45241E-03-4.27707E-01 4.14515E-14-5.98523E-15
 -1      2802 1.98820E+01 6.77276E-01 6.13882E-03-8.30146E-01 7.64501E-14-2.76055E-14
 -1      2803 1.98786E+01 5.33762E-01-8.36335E-03-6.72104E-01 7.39940E-14-4.36620E-14
 -1      2804 1.97413E+01 5.92777E-01 7.66300E-03-5.85202E-01 7.46737E-14-6.74390E-14
 -1      2805 1.96391E+01 1.02565E+00 5.55278E-03-1.18436E+00-1.78525E-14 5.31069E-14
 -1      2806 1.96792E+01 8.30779E-01-1.32796E-02-9.66868E-01 3.72760E-14 5.24165E-14
 -1      2807 1.94706E+01 9.21068E-01 1.46616E-02-8.04747E-01 1.47260E-14 1.05093E-13
 -1      2808 1.91568E+01 1.49117E+00 4.33011E-03-1.66549E+00 4.06689E-14 3.40559E-15
 -1      2809 1.92855E+01 1.23683E+00-2.02574E-02-1.36804E+00 6.98278E-14 3.77364E-14
 -1      2810 1.89834E+01 1.36648E+00 2.51374E-02-1.08769E+00 3.76872E-14 1.93068E-13
 -1      2811 1.82782E+01 2.02814E+00 5.02212E-03-2.28317E+00-9.89061E-14 4.79248E-14
 -1      2812 1.85601E+01 1.74753E+00-2.88414E-02-1.90150E+00-6.50452E-14-1.03572E-14
 -1      2813 1.81324E+01 1.93534E+00 4.31087E-02-1.43534E+00-3.51995E-14 1.00250E-13
 -1      2814 1.68012E+01 2.39798E+00 9.43209E-03-3.03532E+00-1.22700E-13-1.49603E-14
 -1      2815 1.73128E+01 2.24592E+00-3.50440E-02-2.58496E+00-5.89498E-14 2.21177E-14
 -1      2816 1.67143E+01 2.54780E+00 7.94608E-02-1.84323E+00-6.65236E-14 1.94202E-14
 -1      2817 1.45731E+01 1.99556E+00 5.26545E-02-3.97642E+00-1.74860E-13-1.13617E-13
 -1      2818 1.53285E+01 2.41227E+00-6.74453E-03-3.41701E+00-1.98171E-13-8.14140E-14
 -1      2819 1.44169E+01 2.84631E+00 1.19749E-01-2.34975E+00-1.11503E-13-1.11192E-13
 -1      2820 9.84618E+00 1.94542E-01 2.33339E-01 4.25275E+00 5.09592E-14 5.17947E-13
 -1      2821 7.39993E+00 9.06537E-01 1.58986E-01 2.38585E+00 4.93147E-14 3.53328E-13
 -1      2822 3.06821E+01-1.67983E+00-1.39366E-01 1.31388E+00-3.20414E-13-6.38378E-16
 -1      2823 2.91769E+01-3.15923E+00-3.34932E-02 2.74886E+00-1.54602E-13 5.38597E-14
 -1      2824 1.61273E+01 2.51624E+00-2.42403E-02 1.91334E+00-1.23619E-13 6.65771E-13
 -1      2825 1.52594E+01 2.67859E+00 2.22012E-02 2.23261E+00-9.85712E-14 6.67327E-13
 -1      2826 1.58927E+01 2.65485E+00 7.19972E-02 1.05726E+00-7.59375E-15 5.84115E-13
 -1      2827 1.99240E+01 2.59793E+00-7.93135E-03 7.92729E-01 9.87012E-14-1.81174E-13
 -1      2828 1.98800E+01 2.69041E+00-6.14767E-03 6.43883E-01 6.38083E-14-1.96480E-13
 -1      2829 1.99984E+01 2.39146E+00 4.33419E-03 5.15072E-01 5.60046E-14-1.82682E-13
 -1      2830 2.00803E+01 2.19316E+00 5.57827E-03 7.43705E-01 9.53005E-14-1.58271E-13
 -1      2831 1.96897E+01 6.40690E-01-8.79832E-03 5.76311E-01 8.61217E-14 8.07685E-13
 -1      2832 1.96200E+01 7.90490E-01 8.78791E-04 7.09473E-01-1.98827E-14 5.37760E-13
 -1      2833 1.98621E+01 4.19748E-01-5.63160E-03 4.04122E-01 1.77394E-13 7.97650E-13
 -1      2834 1.98353E+01 5.22262E-01 1.80683E-03 4.98979E-01 1.53810E-13 8.03417E-13
 -1      2835 1.95902E+01 6.84193E-01 9.63294E-03 4.55091E-01 6.78073E-14 4.97424E-13
 -1      2836 1.99507E+01 2.72244E-01-3.55031E-03 2.80117E-01 1.84192E-13 6.67798E-13
 -1      2837 1.99448E+01 3.40421E-01 1.90171E-03 3.45956E-01 2.52609E-13 8.09877E-13
 -1      2838 1.97907E+01 4.52193E-01 5.51700E-03 3.33053E-01 1.84732E-13 5.33898E-13
 -1      2839 1.99930E+01 1.75878E-01-2.20715E-03 1.92827E-01 3.99424E-14 6.69372E-13
 -1      2840 1.99963E+01 2.20330E-01 1.64370E-03 2.37797E-01 5.55101E-14 6.77352E-13
 -1      2841 1.99011E+01 2.95844E-01 3.07401E-03 2.39190E-01 2.09738E-13 4.26264E-13
 -1      2842 2.00108E+01 1.13948E-01-1.35647E-03 1.32187E-01-2.18700E-13 5.22824E-13
 -1      2843 2.00172E+01 1.42462E-01 1.29098E-03 1.62665E-01-4.27736E-14 7.23171E-13
 -1      2844 1.99596E+01 1.92814E-01 1.66000E-03 1.69708E-01 1.27020E-14 8.57072E-13
 -1      2845 2.00158E+01 7.49645E-02-8.01565E-04 9.02261E-02 1.31081E-13 3.50464E-13
 -1      2846 2.00228E+01 9.28504E-02 9.57537E-04 1.10932E-01-9.37643E-15 4.22469E-13
 -1      2847 1.99888E+01 1.26152E-01 8.62106E-04 1.19465E-01-3.43066E-14 3.46435E-13
 -1      2848 2.00150E+01 5.12233E-02-2.93296E-04 6.09536E-02 1.91866E-13 1.55134E-13
 -1      2849 2.00212E+01 6.19993E-02 7.36766E-04 7.50675E-02 3.46699E-13 2.26662E-13
 -1      2850 2.00015E+01 8.38170E-02 3.30174E-04 8.34954E-02 2.62260E-13 3.90906E-14
 -1      2851 2.00098E+01 4.06248E-02-9.62375E-07 4.26469E-02-2.72452E-13 1.22874E-13
 -1      2852 2.00148E+01 4.74455E-02 6.48244E-04 5.28680E-02-1.06277E-13 5.06586E-14
 -1      2853 2.00027E+01 6.12279E-02-3.60941E-04 5.96913E-02 2.39721E-13-5.69522E-14
 -1      2854 2.00009E+01 5.05526E-02-5.36970E-04 4.43784E-02-2.43787E-13-1.19416E-13
 -1      2855 3.24871E+01 7.07957E+00-1.87709E-01-1.22242E+00-6.20282E-13-8.61672E-14
 -1      2856 3.17689E+01 5.11421E+00-1.60847E-01-1.42861E+00-5.29715E-13-1.94844E-13
 -1      2857 1.99751E+01 6.79931E-02 6.96144E-05-8.37709E-03 1.95070E-13-6.84113E-13
 -1      2858 1.99732E+01 7.02323E-02-3.96157E-04-1.03098E-03 2.35282E-13-4.75157E-13
 -1      2859 1.99772E+01 7.31748E-02-3.41177E-04 2.61032E-02 3.65392E-13-9.58119E-14
 -1      2860 1.99818E+01 6.99308E-02-1.04325E-04 3.25330E-02 1.62830E-13 9.46328E-14
 -1      2861 1.99729E+01 7.41994E-02-1.44370E-04 8.61778E-03 2.38390E-13-2.46876E-13
 -1      2862 1.99741E+01 7.39118E-02-2.66341E-04 1.64859E-02 3.59340E-13-2.50187E-13
 -1      2863 1.99666E+01 7.89832E-02 4.66586E-04 1.57630E-03 2.97253E-13-3.55455E-13
 -1      2864 1.99872E+01 6.47323E-02-4.72340E-04 3.86045E-02 9.67569E-14 5.02091E-13
 -1      2865 1.99942E+01 5.88200E-02-7.54505E-07 4.17781E-02-2.14748E-13 2.62982E-13
 -1      2866 1.99954E+01 6.46400E-02 6.40717E-04 4.89981E-02 1.71836E-13 2.35022E-13
 -1      2867 1.99799E+01 7.70139E-02 4.89563E-04 3.95483E-02 3.34124E-13 3.77531E-13
 -1      2868 1.99816E+01 5.67528E-02 2.16633E-04-2.15518E-02-1.46940E-13-3.93723E-13
 -1      2869 1.99778E+01 6.07925E-02-4.19901E-04-1.60656E-02 1.30146E-14-6.04925E-13
 -1      2870 1.99709E+01 6.78993E-02 2.53616E-04-1.68513E-02 1.50453E-13-8.50055E-13
 -1      2871 1.99898E+01 4.33073E-02 2.73049E-04-2.92604E-02-1.57304E-13-5.36613E-14
 -1      2872 1.99855E+01 4.82323E-02-3.41980E-04-2.62135E-02-2.05633E-13-1.91966E-13
 -1      2873 1.99797E+01 5.25666E-02 2.47273E-05-2.96890E-02-1.21261E-13-4.13358E-13
 -1      2874 1.99971E+01 3.05195E-02 2.61137E-04-3.16007E-02-1.19630E-13 4.06507E-13
 -1      2875 1.99935E+01 3.53752E-02-2.05072E-04-3.08235E-02-1.41638E-13 2.68344E-13
 -1      2876 1.99897E+01 3.66503E-02-1.58206E-04-3.58228E-02-1.53067E-13 1.25520E-13
 -1      2877 2.00026E+01 1.98069E-02 1.99616E-04-2.99236E-02-2.10146E-13-8.37416E-14
 -1      2878 2.00000E+01 2.41302E-02-7.24322E-05-3.07562E-02-1.85117E-13 2.92664E-13
 -1      2879 1.99984E+01 2.28192E-02-2.59226E-04-3.60582E-02-1.50797E-13 2.56378E-13
 -1      2880 2.00058E+01 1.23230E-02 1.90945E-04-2.59737E-02 2.28531E-14 1.35674E-13
 -1      2881 2.00043E+01 1.55927E-02 4.36405E-05-2.76379E-02-4.08414E-14-1.71405E-13
 -1      2882 2.00046E+01 1.27383E-02-1.95534E-04-3.22439E-02-1.54768E-13-3.76321E-15
 -1      2883 1.93703E+01 9.60955E-01-1.35293E-02 8.07413E-01-2.31717E-14 6.49740E-13
 -1      2884 1.92207E+01 1.16956E+00-1.43140E-03 9.87087E-01-1.93946E-13 5.55038E-13
 -1      2885 1.92374E+01 1.01764E+00 1.63957E-02 6.04115E-01-4.21947E-14 7.02882E-13
 -1      2886 2.00715E+01 4.16994E-01-1.49404E-03 2.85254E-01 7.96312E-14-4.20722E-14
 -1      2887 2.01810E+01 5.54308E-01 1.25435E-02 4.48748E-01 9.28773E-14-3.25716E-14
 -1      2888 2.01468E+01 4.77953E-01-2.54072E-03 2.77171E-01 8.29802E-14-7.39463E-14
 -1      2889 3.17305E+01 2.33528E+00-1.90212E-01-1.07403E+00-4.31141E-13-2.21545E-13
 -1      2890 3.15196E+01 3.48208E-01-7.59611E-02-1.39179E-01-3.90535E-13-1.42469E-13
 -1      2891 8.36323E+00-3.17939E-01 1.69053E-01-5.53949E+00 8.53068E-14 5.34017E-13
 -1      2892 1.07055E+01-1.73535E+00 1.26617E-01-7.30271E+00-4.44089E-14 9.56457E-14
 -1      2893 2.00859E+01 2.53117E+00-1.06198E-03-1.45375E+00-1.94974E-13-3.42833E-14
 -1      2894 5.88401E+00 8.91750E-01 1.83632E-01-3.05302E-01-1.15522E-13-2.75113E-13
 -1      2895 7.39454E+00 3.90494E-01 2.12777E-01-3.00533E+00-1.59761E-13-2.33202E-13
 -1      2896 6.81901E+00 1.95489E-01 1.30385E-01 4.35458E+00-9.84768E-14-6.61610E-13
 -1      2897 5.86170E+00 6.77820E-01 2.03812E-01 2.07393E+00-8.00575E-14-5.62522E-13
 -1      2898 3.15721E+01 3.12932E+00-1.11024E-01 1.38402E+00-4.19942E-13-4.67959E-14
 -1      2899 3.15162E+01 4.94835E+00-2.19888E-01 1.58975E+00-5.16920E-13-5.62606E-14
 -1      2900 3.05702E+01-1.13129E+00-6.30244E-02-6.73770E-01-1.98494E-13 1.14520E-13
 -1      2901 3.15342E+01 9.62712E-01-1.57612E-01 5.24033E-01-3.76546E-13-4.99600E-15
 -1      2902 3.03022E+01 1.68831E+00-7.92461E-02 1.42597E+00-4.58578E-13 2.23016E-13
 -1      2903 1.87923E+01 1.40755E+00-2.04818E-02 1.11051E+00-2.79608E-13 5.47154E-13
 -1      2904 1.84792E+01 1.68988E+00-4.91810E-03 1.35400E+00-5.22724E-14 6.17125E-13
 -1      2905 1.75831E+01 2.05185E+00 4.03215E-02 9.38885E-01-3.44100E-14 6.69842E-13
 -1      2906 1.86214E+01 1.47852E+00 2.57988E-02 7.73266E-01-2.58851E-13 6.73927E-13
 -1      2907 2.96065E+01 8.03784E+00-2.42491E-01-8.37660E-02-8.59146E-13 1.17281E-13
 -1      2908 3.13853E+01 7.92477E+00-1.54568E-01-8.01598E-01-7.58671E-13 3.28557E-14
 -1      2909 2.93619E+01 6.84595E+00-1.15690E-01-1.23782E+00-7.51177E-13 9.00044E-14
 -1      2910 1.36236E+01-2.86939E+00 1.69847E-01-7.89916E+00-1.33393E-13-6.67522E-15
 -1      2911 1.71341E+01-3.97540E+00-3.07171E-04-8.13832E+00-1.00586E-13-4.36595E-14
 -1      2912 1.35721E+01-1.68808E+00 1.54806E-01-7.07674E+00-8.20316E-14 1.02585E-13
 -1      2913 2.11839E+01-4.61514E+00 1.31692E-01-7.24043E+00-9.25371E-14 9.80761E-14
 -1      2914 2.40853E+01-4.92581E+00-6.83656E-02-6.33647E+00 1.03445E-13 3.34347E-13
 -1      2915 3.10086E+01 6.65832E+00-1.48135E-01 1.49533E+00-6.82121E-13-1.73472E-14
 -1      2916 2.98829E+01 7.66159E+00-2.26838E-01 9.30420E-01-8.13738E-13 6.99683E-14
 -1      2917 2.94410E+01 5.20942E+00-1.09945E-01 1.80771E+00-5.91499E-13 6.51215E-14
 -1      2918 2.68362E+01-4.37635E+00 4.85521E-02-4.60244E+00 1.90806E-13 3.49387E-13
 -1      2919 2.90095E+01-3.35032E+00-1.19828E-01-2.71547E+00 2.51119E-14 3.80182E-13
 -1      2920 1.20447E+01-1.92721E+00 1.13596E-01 7.43961E+00 1.70544E-13-4.52915E-13
 -1      2921 9.15490E+00-7.25840E-01 2.14359E-01 6.09772E+00 1.49047E-14-4.72122E-13
 -1      2922 2.02482E+01 8.24758E-01-2.18704E-03 6.18555E-01 1.11421E-13-5.94496E-14
 -1      2923 2.02192E+01 7.37072E-01-5.42820E-04 6.47724E-01 1.11577E-13-3.42392E-14
 -1      2924 1.99324E+01 2.54228E+00 3.45288E-03 4.29070E-03-1.04281E-14-1.88641E-13
 -1      2925 1.97936E+01 2.87316E+00-5.48914E-03-6.19650E-02-1.58236E-14-1.89948E-13
 -1      2926 1.98010E+01 2.85850E+00-5.54970E-03-2.16343E-01-3.16262E-14-1.76689E-13
 -1      2927 2.03863E+01 1.34341E+00-1.26329E-02 1.25620E+00 1.80647E-13-4.58635E-14
 -1      2928 2.02998E+01 1.68227E+00-3.37072E-04 1.25874E+00 1.54689E-13-8.07904E-14
 -1      2929 3.02621E+01-9.60698E-01-4.98335E-02 5.40505E-02-2.19824E-13-1.87489E-13
 -1      2930 2.01453E+01 2.17070E+00 3.56578E-04-1.20288E+00-1.80814E-13-4.49671E-14
 -1      2931 2.85265E+01 7.14505E+00-1.23821E-01 4.73850E-01-7.82763E-13 6.56177E-14
 -1      2932 9.50840E+00 1.92370E+00 1.30859E-01-2.45848E+00-1.13645E-13 2.74697E-13
 -1      2933 8.59585E+00 8.37695E-01 1.82245E-01-3.99360E+00 7.28237E-14 5.10939E-13
 -1      2934 1.07922E+01 7.36732E-01 1.14911E-01-4.72417E+00 1.36911E-13 3.64930E-13
 -1      2935 8.88238E+00 1.82579E+00 2.04401E-01 1.23027E+00-1.89328E-14 3.50608E-13
 -1      2936 2.00085E+01 6.16760E-03 6.26216E-05-1.96326E-02-6.53171E-14 2.38949E-13
 -1      2937 2.79431E+01-4.03032E+00-2.40806E-02 3.68645E+00-3.81153E-14-5.27772E-14
 -1      2938 2.61934E+01-4.38953E+00 3.30021E-02 4.45192E+00 1.51018E-13-1.72869E-13
 -1      2939 2.83127E+01-3.45314E+00-3.40005E-02 2.15829E+00-4.59806E-14 2.27596E-14
 -1      2940 2.03096E+01 8.74539E-01 8.08307E-03 8.37424E-01 1.39586E-13-2.84554E-14
 -1      2941 2.33965E+01-4.73322E+00-3.12210E-02 6.02868E+00 2.84078E-13-3.57780E-13
 -1      2942 2.15103E+01-4.69408E+00 7.80020E-02 7.18645E+00 3.18204E-13-4.71532E-13
 -1      2943 2.01499E+01-4.06393E+00 1.07556E-01 7.24278E+00 2.83523E-13-4.67439E-13
 -1      2944 2.00086E+01 5.90893E-03 3.42541E-05-2.27930E-02 1.84637E-13 3.03099E-13
 -1      2945 1.23828E+01 1.45788E+00 1.00490E-01-4.04491E+00-1.27509E-13-1.31506E-13
 -1      2946 1.07082E+01 2.38209E+00 2.02319E-01-2.25567E+00-1.18513E-13-1.07345E-13
 -1      2947 1.36044E+01 2.99276E+00 1.32837E-01 1.22016E+00-1.28597E-13 6.34118E-13
 -1      2948 1.39457E+01 2.68170E+00-7.31129E-04 2.52486E+00-6.16000E-14 4.71984E-13
 -1      2949 1.18587E+01 5.09834E-01 2.62239E-01 4.67502E+00 2.18159E-14 4.59632E-13
 -1      2950 1.97803E+01-3.89738E+00 1.01303E-01-7.14920E+00-4.41452E-14-1.29757E-14
 -1      2951 1.99726E+01 2.49084E+00-5.58566E-03-9.01276E-01-1.40803E-13-8.93677E-14
 -1      2952 2.00376E+01 2.34563E+00-8.23066E-03-1.03057E+00-1.61562E-13-5.98397E-14
 -1      2953 2.00722E+01 2.20419E+00 4.62628E-03-7.35828E-01-1.19163E-13-7.20779E-14
 -1      2954 1.99695E+01 8.24983E-02 5.43503E-04 2.24675E-02 3.40925E-13-1.28787E-13
 -1      2955 3.09688E+01 3.57019E+00-1.11271E-01-1.67792E+00-4.45047E-13-1.37695E-13
 -1      2956 2.97479E+01 2.12035E+00-7.74195E-02-1.65062E+00-3.58338E-13-2.90740E-15
 -1      2957 2.94362E+01 4.57148E+00-1.57820E-01-2.00170E+00-4.45935E-13-6.26305E-14
 -1      2958 1.43335E+01-2.42560E+00 1.73814E-01 7.59257E+00 2.13024E-13-4.97713E-13
 -1      2959 1.35614E+01-1.24977E+00 1.13736E-01 6.79441E+00 1.62592E-13-3.88106E-13
 -1      2960 1.65664E+01-2.92246E+00 6.48663E-02 7.40541E+00 2.98747E-13-4.27547E-13
 -1      2961 2.56933E+01-4.46011E+00 5.89837E-02-4.74924E+00 1.70676E-13 2.18991E-13
 -1      2962 2.00078E+01 7.89505E-03 3.35730E-05-2.41494E-02 1.07993E-13 1.48485E-13
 -1      2963 1.98167E+01 2.82292E+00-5.69524E-03-3.51074E-01-4.16268E-14-1.51990E-13
 -1      2964 1.98409E+01 2.77439E+00-6.20970E-03-5.04396E-01-7.19482E-14-1.46912E-13
 -1      2965 1.99934E+01 2.39958E+00 4.27371E-03-5.06200E-01-6.79557E-14-1.15002E-13
 -1      2966 1.99470E+01 2.50825E+00 3.66612E-03-2.55173E-01-3.23361E-14-1.41729E-13
 -1      2967 7.69032E+00 1.57230E+00 1.78290E-01 5.06062E-01-1.22053E-13-4.01262E-13
 -1      2968 2.96281E+01-2.45854E+00-3.01729E-02-1.23810E+00-4.34080E-14 2.38753E-13
 -1      2969 2.91704E+01-1.49428E+00-1.22050E-01 1.44774E-01-1.90500E-13 1.41720E-13
 -1      2970 2.81183E+01-3.23030E+00-4.69791E-03-1.87140E+00 4.38460E-14 4.40946E-13
 -1      2971 2.03077E+01 1.46833E+00 9.47130E-03 1.01599E+00 1.24549E-13-9.16855E-14
 -1      2972 1.27920E+01 2.35534E+00 1.01337E-01 2.87662E+00 3.72697E-14 4.58605E-13
 -1      2973 2.00092E+01 4.62155E-03-1.29439E-04-2.76361E-02 1.78399E-13 1.59865E-13
 -1      2974 9.55832E+00 4.09369E-01 1.86830E-01 4.83239E+00 1.11494E-13-4.69291E-13
 -1      2975 9.46831E+00 2.17100E+00 1.40580E-01 1.96129E+00-7.37639E-14-4.38760E-13
 -1      2976 9.46046E+00 2.41113E+00 1.06789E-01-4.08573E-01-1.30611E-13-2.09749E-13
 -1      2977 1.18712E+01 2.70862E+00 6.61702E-02-8.76883E-01-8.23924E-14-1.77802E-13
 -1      2978 2.02369E+01 1.49341E+00-6.54521E-03 8.05476E-01 1.14375E-13-1.47927E-13
 -1      2979 2.02008E+01 1.67164E+00-8.14964E-04 7.43413E-01 1.09793E-13-1.45520E-13
 -1      2980 2.00766E+01 1.55764E-01-1.07196E-03-8.44481E-02 3.58739E-14-1.35929E-13
 -1      2981 2.01086E+01 2.20356E-01 3.78708E-03-2.99104E-02 2.66084E-14-1.18752E-13
 -1      2982 2.93844E+01-2.69887E-01-1.20900E-01-8.88234E-01-2.07806E-13-1.29417E-13
 -1      2983 2.89999E+01-1.89072E+00-4.89895E-02 2.62912E-01-1.04104E-13-7.83679E-14
 -1      2984 2.00143E+01 1.23766E-02-6.16073E-05-1.90596E-01-1.72189E-14-1.74807E-13
 -1      2985 2.00237E+01 3.68760E-02 1.53898E-03-1.76393E-01-4.26043E-14-1.66246E-13
 -1      2986 2.02417E+01 1.66938E+00-4.20200E-03-9.76237E-01-1.60958E-13-2.55065E-14
 -1      2987 2.02458E+01 1.34661E+00-5.83894E-03-7.51882E-01-1.57012E-13-1.34801E-14
 -1      2988 2.02673E+01 6.63141E-01 3.97201E-03-2.88983E-01-8.94455E-14 3.30454E-14
 -1      2989 2.02272E+01 5.11837E-01-3.20380E-03-1.69440E-01-9.02857E-14 3.77889E-14
 -1      2990 2.02195E+01 3.92094E-01 3.53368E-03-8.11196E-02-7.35241E-14 4.53243E-14
 -1      2991 2.01837E+01 2.92108E-01-1.97033E-03-3.51796E-03-7.69171E-14 5.89270E-14
 -1      2992 2.02726E+01 5.37787E-01-2.73700E-04-1.45970E-01-6.96994E-14 1.18977E-14
 -1      2993 2.01684E+01 2.13836E-01 2.70912E-03 5.31491E-02-5.41568E-14 8.21608E-14
 -1      2994 2.01408E+01 1.48738E-01-1.05401E-03 9.97768E-02-2.65318E-14 1.10510E-13
 -1      2995 2.02374E+01 3.06771E-01-7.96867E-04 4.01094E-03-5.68171E-14 6.16204E-14
 -1      2996 2.01233E+01 9.84427E-02 1.89838E-03 1.32770E-01-3.96329E-14 1.27861E-13
 -1      2997 2.01040E+01 5.71310E-02-4.28581E-04 1.57820E-01-6.00095E-14 1.37718E-13
 -1      2998 2.01968E+01 1.54358E-01-9.43685E-04 9.83236E-02-1.99623E-14 7.80740E-14
 -1      2999 2.00871E+01 2.57356E-02 1.23222E-03 1.74222E-01-4.38085E-14 1.60494E-13
 -1      3000 2.00747E+01 5.58921E-04-2.94627E-05 1.84884E-01-4.42768E-14 1.58045E-13
 -1      3001 2.01578E+01 5.64440E-02-9.13861E-04 1.51710E-01-5.42122E-14 1.23938E-13
 -1      3002 2.00597E+01-1.81773E-02 7.38240E-04 1.90320E-01-9.24610E-14 1.38820E-13
 -1      3003 2.00527E+01-3.27027E-02 2.05702E-04 1.91807E-01-8.59467E-14 6.76668E-14
 -1      3004 2.01236E+01-4.09971E-03-8.19038E-04 1.76827E-01-7.85056E-14 9.77053E-14
 -1      3005 2.00403E+01-4.33235E-02 4.07679E-04 1.90456E-01-6.28368E-14 5.20371E-14
 -1      3006 2.00374E+01-5.13397E-02 3.25570E-04 1.86343E-01-5.73793E-14 7.43846E-14
 -1      3007 2.00953E+01-3.97262E-02-7.18464E-04 1.83540E-01-9.25075E-14 4.13781E-14
 -1      3008 2.00281E+01-5.73646E-02 2.24394E-04 1.81096E-01-6.21747E-14 7.46515E-14
 -1      3009 2.00284E+01-6.22142E-02 3.61486E-04 1.73621E-01-5.39666E-14-1.83122E-15
 -1      3010 2.00734E+01-5.99264E-02-6.46560E-04 1.79041E-01-7.87886E-14 2.55893E-14
 -1      3011 2.00227E+01-6.65875E-02 1.76883E-04 1.66273E-01-6.07397E-14-8.98112E-15
 -1      3012 2.00258E+01-7.11971E-02 3.29518E-04 1.56545E-01-8.47960E-14-6.40077E-14
 -1      3013 2.00585E+01-7.23681E-02-6.27396E-04 1.68166E-01-9.27360E-14-2.55867E-14
 -1      3014 2.00249E+01-7.65994E-02 2.63398E-04 1.47916E-01-8.01765E-14-3.13540E-14
 -1      3015 2.00309E+01-8.37451E-02 2.32972E-04 1.36027E-01-1.16671E-13 4.29648E-14
 -1      3016 2.00518E+01-8.37407E-02-6.81952E-04 1.53699E-01-8.11559E-14-2.38421E-14
 -1      3017 2.00362E+01-9.27888E-02 4.91997E-04 1.26007E-01-1.09640E-13 1.29496E-13
 -1      3018 2.00456E+01-1.05238E-01 6.29261E-05 1.11067E-01-8.66921E-14 1.46887E-13
 -1      3019 2.00553E+01-1.00354E-01-8.30611E-04 1.36548E-01-5.93614E-14 4.88493E-14
 -1      3020 2.00595E+01-1.20523E-01 8.76780E-04 9.85643E-02-1.00956E-13 1.99551E-13
 -1      3021 2.00733E+01-1.41003E-01-2.02339E-04 7.86803E-02-2.77704E-14 2.13567E-13
 -1      3022 2.00724E+01-1.28468E-01-1.09165E-03 1.15738E-01-8.20158E-14 3.11273E-13
 -1      3023 2.00988E+01-1.64964E-01 1.42867E-03 6.14863E-02-1.09409E-14 1.08751E-13
 -1      3024 2.01182E+01-1.95855E-01-5.96697E-04 3.37350E-02-1.01718E-14 1.15428E-13
 -1      3025 2.01081E+01-1.74237E-01-1.47313E-03 8.82253E-02-7.10647E-14 2.14357E-13
 -1      3026 2.01590E+01-2.30285E-01 2.13738E-03 8.33841E-03-2.48764E-14 7.38969E-14
 -1      3027 2.01851E+01-2.72891E-01-1.15969E-03-3.11715E-02-6.48308E-14 4.68730E-14
 -1      3028 2.01686E+01-2.43055E-01-1.95638E-03 4.85456E-02-4.81954E-14 8.25491E-14
 -1      3029 2.02450E+01-3.17993E-01 2.94188E-03-6.97079E-02-4.13611E-14 5.89249E-14
 -1      3030 2.02779E+01-3.71246E-01-1.91704E-03-1.25518E-01-2.61776E-14 1.22374E-13
 -1      3031 2.02613E+01-3.37948E-01-2.47031E-03-1.15791E-02-4.69541E-14 1.39554E-13
 -1      3032 2.03593E+01-4.24116E-01 3.69013E-03-1.83368E-01 3.63776E-15 1.57935E-13
 -1      3033 2.03977E+01-4.82666E-01-2.83645E-03-2.59829E-01 3.50571E-14 1.63979E-13
 -1      3034 2.03924E+01-4.56681E-01-2.85856E-03-1.03333E-01-2.14820E-14 2.22973E-13
 -1      3035 2.04995E+01-5.35299E-01 4.09823E-03-3.43456E-01 7.75868E-14 1.26233E-13
 -1      3036 2.05391E+01-5.87258E-01-3.75257E-03-4.42998E-01 1.05298E-13 1.78168E-13
 -1      3037 2.05642E+01-5.87437E-01-2.85148E-03-2.39924E-01 5.89958E-14 2.11782E-13
 -1      3038 2.06535E+01-6.24591E-01 3.72568E-03-5.56747E-01 9.68404E-14 1.70310E-13
 -1      3039 2.06862E+01-6.49867E-01-4.25268E-03-6.76950E-01 6.58827E-14 2.16500E-13
 -1      3040 2.07703E+01-7.03573E-01-2.07828E-03-4.33542E-01 1.41221E-13 1.96787E-13
 -1      3041 2.07963E+01-6.49170E-01 2.11812E-03-8.18457E-01 5.21485E-14 2.56174E-13
 -1      3042 2.08108E+01-6.20517E-01-3.65643E-03-9.47932E-01 5.97862E-14 2.09691E-13
 -1      3043 2.09898E+01-7.59710E-01-1.76091E-04-6.88562E-01 8.30225E-14 2.54387E-13
 -1      3044 2.08898E+01-5.54726E-01-1.09387E-03-1.10149E+00-7.78766E-15 1.80763E-13
 -1      3045 2.08746E+01-4.44245E-01-1.26431E-03-1.21602E+00-7.27624E-14 1.45230E-13
 -1      3046 2.11834E+01-6.93649E-01 2.90137E-03-9.89869E-01-6.03289E-15 2.17417E-13
 -1      3047 2.08920E+01-2.91461E-01-5.58479E-03-1.34602E+00-1.01119E-13 2.07072E-13
 -1      3048 2.08413E+01-8.57620E-02 2.99315E-03-1.40788E+00-4.19007E-14 1.44119E-13
 -1      3049 2.12973E+01-4.41741E-01 6.16876E-03-1.28829E+00-5.44484E-14 1.77243E-13
 -1      3050 2.07793E+01 1.52962E-01-9.81836E-03-1.46033E+00-4.30873E-15 6.56838E-14
 -1      3051 2.06998E+01 4.33806E-01 8.00437E-03-1.42702E+00 1.30807E-14 1.38050E-13
 -1      3052 2.12829E+01 2.65555E-02 7.72408E-03-1.49177E+00-8.39616E-14 1.37988E-13
 -1      3053 2.05720E+01 7.19276E-01-1.09946E-02-1.34550E+00 4.72600E-14 1.50503E-13
 -1      3054 2.04852E+01 1.00944E+00 1.09936E-02-1.18795E+00 4.00715E-14 1.23440E-13
 -1      3055 2.11298E+01 6.65007E-01 5.88175E-03-1.48201E+00 6.28500E-14 1.11109E-13
 -1      3056 2.03484E+01 1.26013E+00-7.45870E-03-9.47566E-01-1.74247E-14-1.62483E-14
 -1      3057 2.02854E+01 1.46383E+00 9.07225E-03-6.75745E-01 4.00536E-14-6.37556E-14
 -1      3058 2.08973E+01 1.32325E+00 4.85012E-04-1.16413E+00-7.74479E-14-6.56835E-14
 -1      3059 2.02124E+01 1.58984E+00 4.03483E-05-3.14179E-01 7.79527E-14-1.22858E-13
 -1      3060 2.01981E+01 1.62731E+00 2.15566E-03 1.58669E-02-1.90727E-14-1.14567E-13
 -1      3061 2.07058E+01 1.78590E+00-5.27150E-03-5.45838E-01 2.05537E-14-2.26984E-13
 -1      3062 2.02331E+01 1.57614E+00 7.55531E-03 4.02438E-01-2.37990E-14-1.09813E-13
 -1      3063 2.02737E+01 1.43139E+00-6.15560E-03 7.06327E-01 3.54948E-14-5.50359E-14
 -1      3064 2.06674E+01 1.87542E+00-6.35900E-03 2.31113E-01-2.85378E-15-3.47751E-13
 -1      3065 2.03962E+01 1.22482E+00 1.09484E-02 1.00778E+00 4.24183E-15-8.77781E-15
 -1      3066 2.04747E+01 9.57434E-01-1.11844E-02 1.21415E+00-1.13466E-13 3.95475E-14
 -1      3067 2.08062E+01 1.55311E+00-2.22057E-03 9.39978E-01 4.25253E-14-2.73937E-13
 -1      3068 2.06160E+01 6.76052E-01 9.19980E-03 1.36459E+00-1.17103E-13 1.13200E-13
 -1      3069 2.07023E+01 3.82288E-01-1.09657E-02 1.44565E+00 1.50129E-15 2.38873E-13
 -1      3070 2.10380E+01 9.50000E-01 3.95637E-03 1.39113E+00-3.51040E-15-8.47134E-14
 -1      3071 2.07949E+01 1.16260E-01 4.39146E-03 1.44554E+00 2.91085E-14 3.57811E-13
 -1      3072 2.08617E+01-1.22608E-01-6.93713E-03 1.41760E+00 9.86667E-15 2.76151E-13
 -1      3073 2.12356E+01 2.81411E-01 7.78872E-03 1.52237E+00 4.32663E-14 1.91714E-13
 -1      3074 2.08740E+01-3.13917E-01-4.77005E-04 1.31412E+00-7.48168E-14 1.92296E-13
 -1      3075 2.09071E+01-4.60149E-01-2.03279E-03 1.21759E+00-6.49025E-14 5.05508E-14
 -1      3076 2.13098E+01-2.67319E-01 7.32439E-03 1.39422E+00-8.31811E-14 1.66681E-13
 -1      3077 2.08475E+01-5.60965E-01-3.50823E-03 1.06904E+00-1.54999E-13-1.26087E-14
 -1      3078 2.08473E+01-6.17362E-01 1.78454E-03 9.44937E-01-1.43854E-13-1.68778E-13
 -1      3079 2.12443E+01-6.06500E-01 4.16096E-03 1.12429E+00-1.93106E-13 4.21827E-14
 -1      3080 2.07441E+01-6.41783E-01-4.46473E-03 7.95724E-01-9.81388E-14-2.92988E-13
 -1      3081 2.07200E+01-6.32591E-01 3.96517E-03 6.73739E-01-1.21920E-13-3.89674E-13
 -1      3082 2.10768E+01-7.40171E-01 7.19282E-04 8.19227E-01-2.01692E-13-2.64185E-14
 -1      3083 2.06030E+01-6.06907E-01-4.05409E-03 5.47882E-01-9.78382E-14-3.22138E-13
 -1      3084 2.05669E+01-5.60679E-01 4.64634E-03 4.43983E-01 2.40105E-14-3.78493E-13
 -1      3085 2.08620E+01-7.23148E-01-1.70198E-03 5.45831E-01-1.08746E-13-3.37419E-13
 -1      3086 2.04572E+01-5.10158E-01-3.09560E-03 3.49142E-01 1.57510E-13-3.95778E-13
 -1      3087 2.04189E+01-4.50060E-01 4.34952E-03 2.68761E-01 1.79774E-13-5.00930E-13
 -1      3088 2.06460E+01-6.20740E-01-2.88318E-03 3.31960E-01 1.91905E-14-4.79356E-13
 -1      3089 2.03275E+01-3.93202E-01-2.10574E-03 2.03112E-01 2.91682E-13-4.23074E-13
 -1      3090 2.02931E+01-3.34182E-01 3.58014E-03 1.45369E-01 1.56331E-13-2.39533E-13
 -1      3091 2.04573E+01-4.86082E-01-3.11206E-03 1.80021E-01 2.52899E-13-2.69154E-13
 -1      3092 2.02232E+01-2.81919E-01-1.30889E-03 1.03160E-01 5.92448E-14-1.39781E-13
 -1      3093 2.01953E+01-2.31607E-01 2.69732E-03 6.42980E-02 3.28915E-14-1.55742E-14
 -1      3094 2.03076E+01-3.53390E-01-2.78498E-03 8.02424E-02 1.77121E-13-3.18192E-14
 -1      3095 2.01454E+01-1.88848E-01-7.48276E-04 3.91531E-02-9.80073E-14 6.75799E-14
 -1      3096 2.01245E+01-1.49755E-01 1.89807E-03 1.46915E-02 1.07494E-13 5.13089E-14
 -1      3097 2.01971E+01-2.40103E-01-2.22627E-03 1.94777E-02 4.44866E-14 1.66322E-13
 -1      3098 2.00909E+01-1.17510E-01-3.88140E-04 1.12817E-03 1.64237E-13-6.14050E-14
 -1      3099 2.00761E+01-8.91794E-02 1.25816E-03-1.30419E-02-3.24345E-14-1.06638E-13
 -1      3100 2.01204E+01-1.51975E-01-1.64222E-03-1.43528E-02 4.97151E-14 1.24673E-13
 -1      3101 2.00546E+01-6.63602E-02-1.75840E-04-1.91922E-02-2.55910E-14 7.40020E-14
 -1      3102 2.00446E+01-4.69117E-02 8.01100E-04-2.63927E-02 2.23983E-14 1.85991E-13
 -1      3103 2.00701E+01-8.80242E-02-1.13669E-03-3.07033E-02 9.82049E-14 3.11027E-14
 -1      3104 2.00315E+01-3.16862E-02-8.82068E-05-2.79691E-02-7.97226E-14 2.83781E-13
 -1      3105 2.00251E+01-1.89294E-02 4.84239E-04-3.07104E-02-4.52458E-14 2.47723E-13
 -1      3106 2.00387E+01-4.40105E-02-6.93833E-04-3.62700E-02-4.62862E-15 3.24877E-13
 -1      3107 2.00177E+01-9.58775E-03-6.95462E-05-2.98637E-02-2.58699E-14 2.45117E-13
 -1      3108 2.00136E+01-1.28502E-03 2.91093E-04-2.97750E-02 1.39591E-13 2.50864E-13
 -1      3109 2.00105E+01 2.39468E-03-9.67330E-05-3.21911E-02 7.86180E-14 1.63795E-13
 -1      3110 2.00206E+01-1.54870E-02-2.99635E-04-3.57568E-02 4.22277E-14 2.40609E-13
 -1      3111 2.00396E+01 6.69502E-02-4.51661E-04-1.54751E-01-1.17596E-14-1.34098E-13
 -1      3112 2.00584E+01 1.07328E-01 2.47520E-03-1.24862E-01 2.54719E-14-1.26684E-13
 -1      3113 2.01456E+01 1.67566E-01-1.37583E-03-8.56584E-02 1.79505E-14-1.18369E-13
 -1      3114 1.35569E+01 2.72769E+00 1.20901E-03 6.68023E-02-2.57752E-13 4.06383E-13
 -1      3115 1.24182E+01 2.76539E+00 5.64190E-02 5.81008E-02-1.40962E-13 3.98806E-13
 -1      3116 1.99922E+01-2.40034E-02 4.48048E-04-2.03711E-01 8.47880E-14-1.09182E-13
 -1      3117 1.99897E+01-2.14508E-02 2.54919E-04-2.04380E-01 3.24066E-14-1.07408E-13
 -1      3118 1.99886E+01-1.84802E-02 5.73318E-04-2.00119E-01 1.29741E-13-7.54874E-14
 -1      3119 1.99835E+01-2.30911E-02-1.57874E-04-2.01809E-01 1.28720E-13-5.44152E-14
 -1      3120 2.00330E+01-2.48335E-02-4.31819E-04-2.00713E-01 8.43649E-14-1.01651E-13
 -1      3121 1.99861E+01 3.48337E-04 6.72045E-04-1.98278E-01 8.99508E-14 2.15176E-15
 -1      3122 1.99799E+01-1.10859E-02-5.20256E-04-1.98025E-01 1.22707E-13-4.93807E-15
 -1      3123 2.00173E+01-1.55451E-02-1.58721E-04-1.97820E-01 9.90799E-14 1.14287E-15
 -1      3124 1.99806E+01 3.36785E-02 7.47067E-04-2.03308E-01-2.98322E-14 7.06235E-14
 -1      3125 1.99752E+01 1.45170E-02-9.04868E-04-1.98378E-01 5.19370E-14 2.81324E-14
 -1      3126 2.00006E+01 9.70430E-03 1.84715E-04-1.96256E-01 4.41191E-14 2.94148E-14
 -1      3127 1.99666E+01 8.54130E-02 7.76095E-04-2.20087E-01-4.38622E-14 6.34765E-14
 -1      3128 1.99643E+01 5.61846E-02-1.39314E-03-2.07638E-01-1.62588E-14 5.88748E-14
 -1      3129 1.99777E+01 5.27127E-02 6.76863E-04-2.00312E-01-2.10533E-14 2.34630E-14
 -1      3130 1.99349E+01 1.62787E-01 6.93046E-04-2.53646E-01-2.06694E-14 7.30168E-15
 -1      3131 1.99398E+01 1.19375E-01-2.08613E-03-2.30456E-01-6.04574E-14 3.86419E-14
 -1      3132 1.99409E+01 1.18408E-01 1.44579E-03-2.13443E-01-3.21309E-14-2.91939E-14
 -1      3133 1.98699E+01 2.77238E-01 3.65820E-04-3.09230E-01 3.90974E-15 1.01631E-13
 -1      3134 1.98893E+01 2.13294E-01-3.11674E-03-2.71582E-01 1.93473E-14 1.01494E-13
 -1      3135 1.98779E+01 2.15443E-01 2.69432E-03-2.38189E-01-5.09157E-14 7.50622E-14
 -1      3136 1.97463E+01 4.45002E-01-4.41555E-04-3.91794E-01 6.57524E-14 6.76800E-14
 -1      3137 1.97924E+01 3.51513E-01-4.75441E-03-3.35618E-01 5.58903E-14 9.42550E-14
 -1      3138 1.97687E+01 3.56984E-01 4.77300E-03-2.75505E-01 4.32551E-14 1.43378E-13
 -1      3139 1.95047E+01 7.01886E-01-2.31684E-03-5.10421E-01 8.14494E-14 1.12567E-16
 -1      3140 1.96086E+01 5.60148E-01-6.98975E-03-4.27669E-01 9.24434E-14 1.97467E-14
 -1      3141 1.95744E+01 5.66153E-01 7.88851E-03-3.24419E-01 9.80456E-14 7.42290E-14
 -1      3142 1.90925E+01 1.04749E+00-6.45371E-03-6.49949E-01-5.49246E-14 1.64378E-13
 -1      3143 1.92824E+01 8.59140E-01-1.04451E-02-5.47971E-01-6.29835E-15 9.96340E-14
 -1      3144 1.92441E+01 8.63445E-01 1.36648E-02-3.72651E-01-3.93819E-14 1.32069E-13
 -1      3145 1.83908E+01 1.50610E+00-1.28690E-02-7.99529E-01 6.90272E-14 1.73557E-13
 -1      3146 1.87334E+01 1.26142E+00-1.48825E-02-6.80186E-01 2.14252E-14 1.84385E-13
 -1      3147 1.87072E+01 1.25607E+00 2.20428E-02-3.96740E-01-2.29767E-14 1.03191E-13
 -1      3148 1.72283E+01 2.05615E+00-2.10781E-02-9.24894E-01-6.01398E-14 1.06868E-13
 -1      3149 1.78184E+01 1.77334E+00-2.03930E-02-8.02434E-01 4.31417E-14 1.30418E-13
 -1      3150 1.78380E+01 1.75206E+00 3.58702E-02-3.53772E-01 4.98566E-14 8.63506E-14
 -1      3151 1.54092E+01 2.61134E+00-1.76986E-02-9.73462E-01-1.36054E-14-5.53464E-14
 -1      3152 1.63294E+01 2.33723E+00-2.51096E-02-8.67223E-01-3.02935E-14-9.38485E-16
 -1      3153 1.64627E+01 2.30317E+00 6.12625E-02-1.71493E-01 4.21531E-14 6.51798E-14
 -1      3154 1.33181E+01 2.84240E+00 3.21848E-02-7.59075E-01-5.59414E-14-1.06644E-13
 -1      3155 1.48335E+01 9.07122E-01 2.93866E-01-5.33865E+00-2.28435E-13-4.97102E-14
 -1      3156 9.76994E+00 7.26178E-01 1.40908E-01-3.67489E+00-1.95344E-13-1.67144E-13
 -1      3157 1.18746E+01 1.59329E+00 9.76879E-02 4.12047E+00 1.24352E-13 3.73812E-13
 -1      3158 1.98515E+01 2.80114E-01-2.73057E-03 1.74095E-01 1.35879E-13 4.26357E-13
 -1      3159 1.98103E+01 3.44172E-01-1.08748E-03 2.10017E-01 2.66825E-13 4.13917E-13
 -1      3160 1.95038E+01 6.25763E-01-5.88094E-03 2.88765E-01 1.35717E-13 1.33941E-13
 -1      3161 1.93637E+01 7.58920E-01-5.51014E-03 3.43007E-01 1.16886E-13 2.74802E-13
 -1      3162 1.99246E+01 1.85927E-01-1.80448E-03 1.29807E-01-1.77872E-13 6.25473E-13
 -1      3163 1.99038E+01 2.28769E-01-3.23880E-04 1.56822E-01-3.30221E-14 4.29394E-13
 -1      3164 1.98367E+01 2.82786E-01 3.11741E-03 1.29955E-01-9.25108E-15 3.60880E-13
 -1      3165 1.99649E+01 1.24004E-01-1.21536E-03 9.54035E-02 2.10686E-13 3.21575E-13
 -1      3166 1.99553E+01 1.52022E-01-2.56208E-05 1.15142E-01 1.30341E-13 4.93238E-13
 -1      3167 1.99122E+01 1.90276E-01 1.94221E-03 1.02949E-01-1.79262E-14 3.15057E-13
 -1      3168 1.99864E+01 8.49943E-02-5.08885E-04 6.91897E-02 3.85460E-13 5.52975E-14
 -1      3169 1.99825E+01 1.02543E-01 1.95605E-04 8.34241E-02 2.28582E-13 2.55637E-13
 -1      3170 1.99551E+01 1.28633E-01 1.01889E-03 7.91299E-02 3.20490E-13 3.61142E-13
 -1      3171 1.99911E+01 6.99261E-02-1.63633E-04 5.39881E-02 1.97617E-13 1.37653E-13
 -1      3172 1.99922E+01 7.76383E-02 4.21955E-04 6.30645E-02 3.25729E-13 8.88778E-14
 -1      3173 1.99746E+01 9.47890E-02 2.97002E-04 6.20864E-02 3.07144E-13 4.96365E-13
 -1      3174 1.99820E+01 7.69947E-02-4.74269E-04 5.08279E-02 1.49422E-13 5.59077E-13
 -1      3175 1.99927E+01 3.02436E-02 4.47166E-04-4.42616E-02 1.53138E-13 2.18432E-13
 -1      3176 1.99860E+01 3.68665E-02-3.26803E-04-4.31293E-02 1.19229E-13-7.88545E-14
 -1      3177 1.99791E+01 4.91559E-02 4.69149E-04-4.06817E-02 3.78099E-14-2.95223E-13
 -1      3178 1.99716E+01 5.60918E-02-5.13385E-04-3.59999E-02 7.94814E-14-5.30058E-13
 -1      3179 1.99796E+01 4.06790E-02-2.25694E-04-5.04279E-02 3.25586E-13-1.35599E-13
 -1      3180 1.99652E+01 6.88221E-02 3.47487E-04-2.86645E-02 1.17647E-13-9.62590E-13
 -1      3181 1.99594E+01 7.45918E-02-5.83939E-04-2.03594E-02 1.46664E-13-9.51698E-13
 -1      3182 1.99625E+01 6.48859E-02 7.40739E-05-4.08126E-02 2.05791E-13-7.43129E-13
 -1      3183 2.00034E+01 1.49707E-02 3.50931E-04-4.11692E-02-6.20432E-14 2.36495E-13
 -1      3184 1.99985E+01 2.05734E-02-8.90755E-05-4.28325E-02-5.43869E-14 2.92180E-13
 -1      3185 1.99954E+01 1.95651E-02-4.24322E-04-5.05765E-02 1.94546E-13 1.45780E-13
 -1      3186 2.00091E+01 5.85113E-03 2.26742E-04-3.55495E-02 3.78356E-14 5.42700E-14
 -1      3187 2.00061E+01 9.74807E-03-1.58939E-06-3.84938E-02-1.11467E-13 1.54782E-13
 -1      3188 2.00064E+01 5.60608E-03-3.10273E-04-4.52746E-02 1.05124E-13 1.27316E-13
 -1      3189 2.00128E+01-2.14124E-03-7.48238E-05-3.81683E-02 1.40403E-13 1.54167E-13
 -1      3190 2.75519E+01 6.57225E+00-1.52067E-01-1.12043E+00-8.28601E-13 1.89414E-13
 -1      3191 2.87734E+01 5.83865E+00-1.19860E-01-1.76124E+00-6.40196E-13 1.26357E-13
 -1      3192 2.80288E+01 4.54757E+00-9.17323E-02-1.91984E+00-5.05651E-13 5.94663E-14
 -1      3193 1.20410E+01 4.07487E-01 9.82428E-02 5.21492E+00 1.92492E-13-2.46414E-13
 -1      3194 1.01412E+01 1.44487E+00 1.14522E-01 3.52136E+00 5.45328E-14-4.22912E-13
 -1      3195 1.18809E+01 2.03245E+00 9.75219E-02 2.47177E+00-3.30638E-15-2.77736E-13
 -1      3196 1.91361E+01 9.14981E-01-8.41379E-03 3.44983E-01 3.19133E-14 2.78803E-13
 -1      3197 1.88923E+01 1.09629E+00-1.03232E-02 4.00909E-01-1.00652E-13 3.12257E-13
 -1      3198 1.91491E+01 8.88438E-01 1.34821E-02 1.64042E-01 1.16109E-13-1.80795E-14
 -1      3199 2.01862E+01 5.17628E-01-3.75407E-03 2.32556E-01 7.30311E-14-1.21172E-13
 -1      3200 2.02450E+01 6.68890E-01 3.47698E-03 3.80398E-01 9.61092E-14-1.17209E-13
 -1      3201 1.99557E+01 8.47997E-02 9.67829E-05-8.55719E-03 1.40927E-14-6.04284E-13
 -1      3202 1.99539E+01 8.80286E-02-4.74247E-04 2.27273E-03 1.92957E-13-2.31589E-13
 -1      3203 1.99493E+01 8.72876E-02 4.35292E-04-2.09544E-02-2.19667E-14-6.82096E-13
 -1      3204 1.36865E+01-1.92971E+00 1.00299E-01-5.87818E+00-1.15463E-13 3.17524E-14
 -1      3205 1.59896E+01 2.35804E+00-9.42466E-03 2.69453E-01 2.76758E-14 3.42081E-13
 -1      3206 1.49039E+01 2.57955E+00-1.13329E-02 1.91698E-01-1.08512E-13 2.84172E-13
 -1      3207 1.99550E+01 9.27738E-02-2.39501E-04 1.65205E-02 2.16080E-13 3.78163E-14
 -1      3208 1.99590E+01 9.24366E-02-2.24322E-04 2.78286E-02-5.18077E-15 1.00537E-13
 -1      3209 1.99454E+01 1.02226E-01 7.49273E-04 6.92969E-03 4.15620E-14-1.63357E-13
 -1      3210 2.72872E+01 6.46455E+00-1.04934E-01 1.06747E+00-6.32994E-13 4.29101E-14
 -1      3211 2.70433E+01 6.76281E+00-1.24729E-01 2.99125E-02-7.13971E-13 2.04062E-13
 -1      3212 1.99997E+01-1.50610E-02 2.61599E-04-2.03117E-01-5.73876E-15-1.49101E-13
 -1      3213 2.00016E+01-3.68600E-03 8.23751E-04-1.99170E-01-6.95110E-15-1.79686E-13
 -1      3214 2.00511E+01-1.71732E-02-6.80650E-04-1.99541E-01 1.40487E-15-1.85521E-13
 -1      3215 2.02882E+01 1.07225E+00 3.06579E-03-5.86653E-01-1.36031E-13 2.08223E-14
 -1      3216 2.02575E+01 8.45585E-01-4.49405E-03-4.15410E-01-1.05600E-13 2.73275E-14
 -1      3217 2.02554E+01 1.38211E+00 2.42631E-03-6.57531E-01-1.21091E-13-1.16370E-14
 -1      3218 2.01267E+01 2.98055E-01-1.87070E-03 3.87148E-02 1.87412E-14-1.19830E-13
 -1      3219 2.01758E+01 3.97970E-01 5.83081E-03 1.31544E-01 4.34574E-14-1.09945E-13
 -1      3220 2.02394E+01 5.46459E-01-4.43284E-03 2.10695E-01 7.23096E-14-1.48731E-13
 -1      3221 2.01909E+01 3.22296E-01-1.37109E-03 2.92599E-02 3.19264E-14-1.11371E-13
 -1      3222 1.11084E+01 2.36641E+00 1.65965E-01 2.49606E+00-3.55965E-15 4.35679E-13
 -1      3223 2.92299E+01 5.23678E-01-2.01135E-02 1.41167E+00-3.81792E-13 1.10634E-13
 -1      3224 2.88376E+01 2.18612E+00-1.53202E-01 1.92194E+00-4.02733E-13 5.90292E-14
 -1      3225 2.00443E+01 2.16453E+00-4.31816E-03 2.91263E-01 1.95997E-14-1.83087E-13
 -1      3226 2.00309E+01 2.20354E+00-3.33203E-03 1.69882E-01-7.87686E-15-1.89857E-13
 -1      3227 2.44268E+01-4.27937E+00 9.90661E-02-4.94147E+00 1.12649E-13 2.19727E-13
 -1      3228 2.62365E+01-4.20517E+00-7.39975E-02-3.54846E+00 1.75526E-13 4.67043E-13
 -1      3229 9.28761E+00-7.29069E-01 1.62549E-01-4.49680E+00-2.13288E-13-1.50463E-13
 -1      3230 1.85183E+01-2.97287E+00 1.37745E-01-6.87894E+00-4.70110E-14-1.00309E-13
 -1      3231 2.15396E+01-4.13932E+00-6.31246E-02-6.28666E+00 5.30617E-14 1.14627E-13
 -1      3232 1.97233E+01 4.20680E-01-4.04662E-03 2.28195E-01 1.93916E-13 3.22614E-13
 -1      3233 1.96458E+01 5.14427E-01-2.63816E-03 2.73969E-01 1.17426E-13 1.42077E-13
 -1      3234 1.97089E+01 4.19412E-01 5.20633E-03 1.56752E-01 1.01391E-13 1.18779E-13
 -1      3235 2.85463E+01 3.87876E+00-7.30714E-02 2.14426E+00-3.60684E-13-2.72282E-14
 -1      3236 2.77164E+01 5.27958E+00-1.47856E-01 1.80983E+00-5.57152E-13-3.01113E-14
 -1      3237 2.75960E+01 2.47398E+00-6.98029E-02 2.05805E+00-2.74711E-13-1.71124E-13
 -1      3238 1.31066E+01-6.61296E-01 1.12338E-01-6.24216E+00-8.92342E-15 2.45193E-13
 -1      3239 1.54542E+01-2.00492E+00 1.86838E-02-7.01138E+00-1.66325E-13-1.58346E-14
 -1      3240 1.00466E+01 2.56706E+00 9.98630E-02 1.29428E-01-8.62726E-14 3.69205E-13
 -1      3241 1.06765E+01 2.46880E+00 1.37439E-01-1.10724E+00-1.86066E-13 2.18089E-13
 -1      3242 2.03278E+01 9.45222E-01 8.97535E-03 9.22983E-01 1.53618E-13-2.02804E-14
 -1      3243 2.79757E+01-1.99255E+00-1.76491E-02-1.45568E-02 5.11639E-14-4.80865E-15
 -1      3244 2.83827E+01-2.81442E+00-5.75996E-02 1.05349E+00-3.94997E-14 4.02248E-14
 -1      3245 2.72857E+01-3.37992E+00-1.99733E-02 1.87059E+00 5.23969E-14-1.97828E-14
 -1      3246 2.01061E+01 7.01150E-02-1.13272E-03-1.52963E-01-8.01899E-15-1.64762E-13
 -1      3247 2.00904E+01 2.02801E+00-5.54288E-03 5.02401E-01 7.36346E-14-1.53670E-13
 -1      3248 2.00650E+01 2.10899E+00-3.04168E-03 3.89365E-01 4.18628E-14-1.70812E-13
 -1      3249 2.01604E+01 1.85240E+00 5.37546E-03 2.89444E-01 2.01521E-14-1.50058E-13
 -1      3250 2.02537E+01 1.46488E+00 7.05394E-03 5.83305E-01 1.00404E-13-1.50563E-13
 -1      3251 2.01590E+01 1.80352E+00-7.22551E-03 6.83135E-01 9.53624E-14-1.62626E-13
 -1      3252 2.01240E+01 1.93404E+00-2.42300E-03 5.87734E-01 8.34276E-14-1.63763E-13
 -1      3253 1.16860E+01 2.25150E+00 6.11576E-02-2.21786E+00-1.23691E-13 2.45894E-13
 -1      3254 2.49506E+01-4.49764E+00 3.37004E-02 4.94080E+00 2.91892E-13-2.04330E-13
 -1      3255 2.34342E+01-4.16193E+00 4.27299E-02 5.30785E+00 3.43392E-13-2.54533E-13
 -1      3256 2.58557E+01-4.14170E+00-1.81042E-02 3.57204E+00 2.31482E-13-1.38535E-13
 -1      3257 1.41890E+01 2.58792E+00 8.11525E-02-8.43838E-01-1.35184E-13-6.73957E-14
 -1      3258 2.02879E+01 8.81150E-01 9.80222E-04-3.65007E-01-9.42625E-14 2.29448E-14
 -1      3259 1.36448E+01 2.71154E+00 9.02340E-02 3.84433E-01 4.15900E-15-1.45467E-13
 -1      3260 1.94961E+01 6.15805E-01 8.46291E-03 1.74190E-01 1.16099E-13 5.15555E-14
 -1      3261 1.78686E+01-2.12661E+00 9.27676E-02-6.29503E+00 4.02456E-15-1.77160E-13
 -1      3262 2.65620E+01 5.19502E+00-7.85759E-02 1.42909E+00-5.01391E-13-5.49213E-15
 -1      3263 2.02774E+01 9.96299E-01 4.32542E-04 4.82069E-01 1.08236E-13-1.54449E-13
 -1      3264 2.02557E+01 9.53350E-01-1.56403E-03 5.36564E-01 1.14067E-13-1.22741E-13
 -1      3265 2.29934E+01-3.77645E+00 5.66730E-02-5.03333E+00 5.79953E-14 1.16761E-13
 -1      3266 2.66060E+01 6.32655E+00-1.22134E-01-5.10976E-01-7.69759E-13 1.89050E-13
 -1      3267 2.61073E+01 5.67125E+00-7.32127E-02-1.03356E+00-6.99198E-13 2.70458E-13
 -1      3268 2.56048E+01 5.88085E+00-4.83465E-02-4.09531E-02-6.96512E-13 2.12989E-13
 -1      3269 1.99660E+01 8.82716E-02-4.72388E-04 3.72673E-02 5.61923E-14 1.99700E-13
 -1      3270 1.99732E+01 8.42793E-02-1.89773E-04 4.42318E-02 7.48999E-14 4.70467E-13
 -1      3271 1.99690E+01 9.25051E-02 7.77177E-05 4.91448E-02 5.04012E-14 4.58290E-13
 -1      3272 1.99535E+01 1.03206E-01 6.18697E-04 3.27412E-02-4.71432E-15 1.77883E-13
 -1      3273 1.33788E+01-1.04136E-01 1.26164E-01 5.59368E+00 2.01013E-13-3.85220E-13
 -1      3274 1.37620E+01 7.62863E-01 7.94386E-02 4.48979E+00 1.34594E-13-3.03757E-13
 -1      3275 1.49849E+01-7.21891E-01 5.77840E-02 5.87427E+00 1.85293E-13-4.43187E-13
 -1      3276 2.00237E+01 2.22247E+00-3.67532E-03 6.53888E-02-1.39712E-14-1.96096E-13
 -1      3277 2.00231E+01 2.22341E+00-3.63999E-03-5.82584E-02-1.80584E-14-1.69733E-13
 -1      3278 2.01375E+01 1.92727E+00 4.98146E-03 1.00587E-01-1.80257E-14-1.75796E-13
 -1      3279 2.02976E+01 1.20191E+00 6.29225E-03 7.41777E-01 1.11861E-13-1.12766E-13
 -1      3280 1.86176E+01-3.26590E+00 1.15890E-01 7.12567E+00 2.81844E-13-4.65940E-13
 -1      3281 1.72102E+01-2.28505E+00 6.10469E-02 6.71329E+00 1.92762E-13-4.79214E-13
 -1      3282 2.04087E+01-3.55430E+00 2.60846E-02 6.33297E+00 2.50300E-13-5.18158E-13
 -1      3283 2.79894E+01 1.96201E+00-1.10804E-01-2.05118E+00-2.74621E-13 1.04944E-13
 -1      3284 2.89985E+01 8.64663E-01-5.77455E-02-1.59337E+00-2.68924E-13 4.62269E-14
 -1      3285 2.79731E+01-1.89025E-01-5.06435E-02-1.26699E+00-1.33466E-13 1.59824E-13
 -1      3286 1.68705E+01 2.08436E+00-2.32571E-02 4.27388E-01-3.60944E-14 3.85432E-13
 -1      3287 1.63262E+01 2.20188E+00 4.44247E-02-3.21012E-01-1.03566E-13 1.13724E-13
 -1      3288 1.75614E+01 1.81480E+00-1.56169E-02 4.08628E-01-1.82138E-13 5.51868E-13
 -1      3289 2.00618E+01 2.11552E+00-2.87932E-03-3.82294E-01-4.75161E-14-1.02924E-13
 -1      3290 2.00862E+01 2.03794E+00-4.97502E-03-4.96280E-01-7.91620E-14-8.41646E-14
 -1      3291 2.00747E+01 1.17015E-02-9.22734E-04-1.87057E-01-1.56300E-14-2.16373E-13
 -1      3292 2.01107E+01 2.16354E+00 1.87247E-03-1.03469E+00-1.59493E-13-5.70642E-14
 -1      3293 2.71400E+01-3.61728E+00 2.35575E-02-2.27381E+00 1.79228E-13 3.45220E-13
 -1      3294 2.72092E+01-2.96769E+00-8.93504E-02-9.72237E-01 8.54655E-14 6.97064E-14
 -1      3295 2.58356E+01-3.65378E+00 2.67007E-03-2.66054E+00 2.57855E-13 3.00789E-13
 -1      3296 2.01958E+01 1.70609E+00 4.48639E-03-4.51832E-01-7.65412E-14-5.73305E-14
 -1      3297 2.01185E+01 1.94650E+00-2.00201E-03-5.82620E-01-9.73792E-14-5.76753E-14
 -1      3298 2.01571E+01 1.83186E+00-1.50049E-03-6.78621E-01-1.15551E-13-5.03866E-14
 -1      3299 2.83546E+01-7.73901E-01-5.39369E-02 7.79905E-01-1.66988E-13 3.90660E-14
 -1      3300 1.85264E+01 1.30984E+00-1.10292E-02 3.74701E-01-2.43085E-13 3.25743E-13
 -1      3301 1.81125E+01 1.54733E+00-1.40341E-02 4.18186E-01-2.40607E-13 4.14865E-13
 -1      3302 1.85852E+01 1.25238E+00 2.06221E-02 9.31871E-02-7.80137E-14-2.55141E-14
 -1      3303 1.25469E+01 3.50345E-01 1.19643E-01-5.19640E+00 9.35224E-14 4.02733E-13
 -1      3304 1.44511E+01 1.03113E-01 8.32015E-02-5.13412E+00 9.06063E-14 2.07487E-13
 -1      3305 1.22075E+01 1.35459E+00 4.63449E-02-3.81743E+00-3.46320E-14 2.41702E-13
 -1      3306 2.02834E+01 1.37256E+00 1.00626E-03 9.20827E-01 1.15378E-13-9.34669E-14
 -1      3307 2.66575E+01 4.59464E+00-7.88913E-02-1.89306E+00-4.88394E-13 2.09190E-13
 -1      3308 2.75515E+01 3.39867E+00-5.47880E-02-2.15661E+00-3.23089E-13 1.25462E-13
 -1      3309 2.69337E+01 2.10266E+00-5.78257E-02-2.02243E+00-2.91205E-13 1.36925E-13
 -1      3310 2.01989E+01 1.69637E-01-1.31176E-03-9.11290E-02 2.87977E-14-1.00513E-13
 -1      3311 2.02252E+01 2.41466E-01 2.49853E-03-4.47003E-02 1.91493E-14-9.69573E-14
 -1      3312 2.02981E+01 4.05774E-01 2.11834E-03-4.01128E-02-3.87482E-14-3.55179E-15
 -1      3313 2.02745E+01 3.01535E-01-1.79828E-03 2.15420E-02-3.45457E-14 1.48690E-14
 -1      3314 2.02639E+01 2.18239E-01 1.90867E-03 6.26886E-02-2.26315E-14 3.76273E-14
 -1      3315 2.02398E+01 1.48857E-01-1.10331E-03 1.00235E-01-3.11089E-14 3.46178E-14
 -1      3316 2.03122E+01 3.02097E-01-2.34008E-04 2.66991E-02-7.88956E-15-3.30992E-14
 -1      3317 2.02233E+01 9.47951E-02 1.44121E-03 1.24306E-01-5.45572E-14 7.16683E-14
 -1      3318 2.02021E+01 5.03534E-02-5.14004E-04 1.44611E-01-4.94267E-14 1.05210E-13
 -1      3319 2.02776E+01 1.46673E-01-4.17354E-04 9.50102E-02-2.92670E-14 1.94302E-14
 -1      3320 2.01832E+01 1.65968E-02 9.88080E-04 1.56438E-01-7.29509E-14 9.86896E-14
 -1      3321 2.01656E+01-1.04384E-02-1.00065E-04 1.65112E-01-9.96845E-14 9.00073E-14
 -1      3322 2.02375E+01 4.57398E-02-5.63642E-04 1.33750E-01-6.66484E-14 2.99003E-14
 -1      3323 2.01469E+01-3.04261E-02 6.38211E-04 1.68972E-01-1.15012E-13 8.26821E-14
 -1      3324 2.01331E+01-4.59271E-02 1.75408E-04 1.70257E-01-8.95197E-14 7.01948E-14
 -1      3325 2.01971E+01-1.64488E-02-6.24228E-04 1.51980E-01-1.16631E-13 6.94775E-14
 -1      3326 2.01161E+01-5.71959E-02 4.00321E-04 1.69426E-01-7.14960E-14 5.81850E-14
 -1      3327 2.01063E+01-6.58301E-02 3.55728E-04 1.66345E-01-8.88723E-14 3.18628E-14
 -1      3328 2.01599E+01-5.26836E-02-6.51029E-04 1.57237E-01-1.08294E-13 3.81060E-14
 -1      3329 2.00923E+01-7.24924E-02 2.76104E-04 1.63200E-01-1.14649E-13 1.20580E-14
 -1      3330 2.00866E+01-7.81961E-02 4.73289E-04 1.57720E-01-9.21382E-14 1.08521E-14
 -1      3331 2.01284E+01-7.32237E-02-6.89618E-04 1.55252E-01-1.27349E-13 2.12582E-14
 -1      3332 2.00772E+01-8.38511E-02 2.70487E-04 1.53839E-01-6.68443E-14-3.15327E-15
 -1      3333 2.00763E+01-9.02142E-02 5.49695E-04 1.46995E-01-7.01840E-14-2.99049E-14
 -1      3334 2.01048E+01-8.67444E-02-7.80851E-04 1.50139E-01-8.22479E-14 2.27676E-14
 -1      3335 2.00733E+01-9.82728E-02 3.98447E-04 1.43214E-01-4.77678E-14-7.90671E-16
 -1      3336 2.00783E+01-1.08822E-01 5.94314E-04 1.35158E-01-3.01104E-14 4.57136E-14
 -1      3337 2.00921E+01-1.01155E-01-9.65758E-04 1.44549E-01-2.97612E-14-1.70040E-14
 -1      3338 2.00845E+01-1.22712E-01 6.87200E-04 1.31539E-01-4.50940E-16 9.75827E-14
 -1      3339 2.00974E+01-1.41061E-01 5.99025E-04 1.21500E-01-1.22559E-14 1.65582E-13
 -1      3340 2.00942E+01-1.24219E-01-1.28612E-03 1.39712E-01 3.96600E-14 4.31530E-14
 -1      3341 2.01165E+01-1.64269E-01 1.17506E-03 1.17163E-01-8.45975E-14 2.48892E-13
 -1      3342 2.01398E+01-1.94055E-01 5.29176E-04 1.03303E-01-7.19344E-14 2.43182E-13
 -1      3343 2.01171E+01-1.63920E-01-1.78431E-03 1.35253E-01 2.64237E-14 1.58981E-13
 -1      3344 2.01770E+01-2.29881E-01 1.90283E-03 9.60825E-02-7.95587E-14 2.61000E-13
 -1      3345 2.02139E+01-2.74325E-01 3.15237E-04 7.52667E-02-6.58212E-14 1.95537E-13
 -1      3346 2.01692E+01-2.28370E-01-2.48840E-03 1.28681E-01-5.92332E-14 3.19983E-13
 -1      3347 2.02755E+01-3.25155E-01 2.89141E-03 6.11777E-02-3.52508E-14 1.87516E-13
 -1      3348 2.03292E+01-3.85996E-01-1.50153E-04 2.87417E-02-1.02143E-14 2.27053E-13
 -1      3349 2.02613E+01-3.24923E-01-3.38952E-03 1.14456E-01-5.25032E-14 2.60542E-13
 -1      3350 2.04220E+01-4.51857E-01 4.09806E-03 1.37495E-03-2.19406E-14 2.90778E-13
 -1      3351 2.04941E+01-5.27395E-01-9.92380E-04-4.88899E-02-7.22518E-15 3.08025E-13
 -1      3352 2.04062E+01-4.57898E-01-4.39581E-03 8.26961E-02 1.83755E-14 2.96302E-13
 -1      3353 2.06237E+01-6.03582E-01 5.34724E-03-9.87077E-02 6.82520E-14 3.58986E-13
 -1      3354 2.07131E+01-6.85686E-01-2.28609E-03-1.73918E-01 9.18074E-14 3.49246E-13
 -1      3355 2.06162E+01-6.24277E-01-5.26800E-03 1.79106E-02 1.90039E-14 4.02155E-13
 -1      3356 2.08799E+01-7.59511E-01 6.23797E-03-2.57470E-01 5.84607E-14 2.81563E-13
 -1      3357 2.09798E+01-8.29793E-01-3.90943E-03-3.63623E-01 1.34959E-13 2.46553E-13
 -1      3358 2.08983E+01-8.06949E-01-5.55052E-03-1.01214E-01 6.36232E-14 4.47036E-13
 -1      3359 2.11740E+01-8.77177E-01 6.00618E-03-4.91119E-01 1.39357E-13 1.75650E-13
 -1      3360 2.12707E+01-9.03766E-01-5.23838E-03-6.28738E-01 4.99327E-14 2.40311E-13
 -1      3361 2.12462E+01-9.65564E-01-4.55101E-03-2.98811E-01 1.00251E-13 3.04054E-13
 -1      3362 2.14663E+01-8.88001E-01 3.88102E-03-8.01734E-01-2.26509E-14 2.50523E-13
 -1      3363 2.15393E+01-8.27231E-01-5.03155E-03-9.58543E-01-2.16955E-14 2.14528E-13
 -1      3364 2.16296E+01-1.02900E+00-1.44053E-03-5.91587E-01 3.81533E-14 2.12861E-13
 -1      3365 2.16912E+01-7.04240E-01-1.23798E-03-1.15812E+00-3.57657E-14 2.29217E-13
 -1      3366 2.17190E+01-5.10881E-01-1.98373E-03-1.30065E+00-1.28271E-13 2.34905E-13
 -1      3367 2.19856E+01-8.95952E-01 4.48568E-03-9.69485E-01-4.92430E-14 2.75116E-13
 -1      3368 2.17757E+01-2.49994E-01-9.01100E-03-1.47125E+00-1.62435E-13 2.35413E-13
 -1      3369 2.17473E+01 8.99524E-02 3.73266E-03-1.54374E+00-5.08865E-14 1.87066E-13
 -1      3370 2.22214E+01-4.69219E-01 9.17303E-03-1.36348E+00-1.41372E-13 2.68092E-13
 -1      3371 2.16789E+01 4.77269E-01-1.62184E-02-1.60032E+00-1.31297E-16 1.60231E-13
 -1      3372 2.16055E+01 9.16753E-01 1.10994E-02-1.53783E+00-8.24150E-14 3.74846E-14
 -1      3373 2.22558E+01 2.87746E-01 1.04799E-02-1.62913E+00-1.05778E-13 2.89997E-13
 -1      3374 2.14427E+01 1.34520E+00-1.66892E-02-1.39137E+00-1.19154E-13 5.04631E-14
 -1      3375 2.13623E+01 1.74860E+00 1.40572E-02-1.15546E+00-5.32208E-14 3.02924E-14
 -1      3376 2.20773E+01 1.27107E+00 7.64575E-03-1.57482E+00-5.94583E-14 1.49058E-13
 -1      3377 2.12102E+01 2.06147E+00-9.67868E-03-7.94942E-01-4.87195E-14-3.77552E-14
 -1      3378 2.11661E+01 2.26948E+00 7.73716E-03-4.23235E-01-4.82544E-14-1.10986E-13
 -1      3379 2.18089E+01 2.17782E+00 1.47764E-03-1.07497E+00-8.23256E-14 1.05838E-13
 -1      3380 2.11348E+01 2.33055E+00 3.15966E-03 5.92570E-02-6.90970E-14-1.86033E-13
 -1      3381 2.11536E+01 2.24207E+00-4.61799E-03 4.58003E-01-5.48424E-14-2.52071E-13
 -1      3382 2.16426E+01 2.63248E+00-6.87717E-03-2.02511E-01-1.27940E-13-3.36559E-14
 -1      3383 2.12661E+01 2.02077E+00 1.19183E-02 8.88272E-01 3.84608E-14-3.02622E-13
 -1      3384 2.13370E+01 1.67956E+00-1.55561E-02 1.18906E+00 1.12234E-14-2.86567E-13
 -1      3385 2.17152E+01 2.43625E+00-4.34688E-03 7.45410E-01-3.93793E-15-7.99382E-15
 -1      3386 2.15099E+01 1.28012E+00 1.25202E-02 1.42813E+00-9.91633E-15-3.20418E-13
 -1      3387 2.15915E+01 8.36954E-01-1.77797E-02 1.56185E+00 4.30764E-14-2.07218E-13
 -1      3388 2.19654E+01 1.67443E+00 2.63623E-03 1.42424E+00 3.64090E-14-2.79545E-13
 -1      3389 2.17076E+01 4.18973E-01 7.21386E-03 1.58216E+00 4.49848E-14-2.48477E-13
 -1      3390 2.17580E+01 2.74143E-02-1.19286E-02 1.55952E+00 8.07009E-14-1.95137E-13
 -1      3391 2.22035E+01 6.87063E-01 1.03312E-02 1.65744E+00 8.04518E-14-4.08573E-13
 -1      3392 2.17520E+01-2.90432E-01 1.90859E-04 1.42444E+00 3.33490E-14-2.45910E-13
 -1      3393 2.17476E+01-5.43698E-01-3.97884E-03 1.30418E+00-1.17332E-13-1.52971E-13
 -1      3394 2.22643E+01-1.84552E-01 1.19901E-02 1.50264E+00 2.18705E-15-5.81835E-13
 -1      3395 2.16284E+01-7.20572E-01-4.43920E-03 1.10926E+00-2.19252E-13-1.03828E-13
 -1      3396 2.15722E+01-8.30173E-01 1.99352E-03 9.54228E-01-2.08056E-13-9.34688E-14
 -1      3397 2.21027E+01-7.50465E-01 6.34906E-03 1.14140E+00-1.47467E-13-4.54112E-13
 -1      3398 2.13877E+01-8.83608E-01-5.67578E-03 7.67808E-01-2.15386E-13-9.89803E-14
 -1      3399 2.12983E+01-8.85711E-01 5.39614E-03 6.21511E-01-2.23070E-13-1.90042E-13
 -1      3400 2.17840E+01-9.91695E-01 3.33352E-04 7.47639E-01-2.24787E-13-3.41703E-13
 -1      3401 2.10982E+01-8.57575E-01-4.70392E-03 4.76361E-01-2.12939E-13-3.38297E-13
 -1      3402 2.09975E+01-7.98390E-01 6.38254E-03 3.58948E-01-1.72608E-13-4.80729E-13
 -1      3403 2.14013E+01-9.92172E-01-3.60039E-03 4.19046E-01-2.72002E-13-4.07284E-13
 -1      3404 2.08157E+01-7.29384E-01-3.05758E-03 2.60669E-01-3.35958E-14-4.07206E-13
 -1      3405 2.07205E+01-6.46271E-01 5.88704E-03 1.76133E-01 1.19163E-13-3.68433E-13
 -1      3406 2.10310E+01-8.57386E-01-5.27951E-03 1.87135E-01-1.06121E-13-3.77850E-13
 -1      3407 2.05730E+01-5.65832E-01-1.59353E-03 1.17019E-01 2.89373E-13-2.12496E-13
 -1      3408 2.04927E+01-4.82537E-01 4.72847E-03 6.11143E-02 3.35559E-13-2.19240E-13
 -1      3409 2.07164E+01-6.71732E-01-5.39241E-03 4.38273E-02 2.42905E-13-1.67772E-13
 -1      3410 2.03824E+01-4.07798E-01-5.93215E-04 2.98256E-02 2.00376E-13-2.44456E-13
 -1      3411 2.03203E+01-3.36290E-01 3.46395E-03-4.37789E-03 1.10150E-13-1.70904E-13
 -1      3412 2.04725E+01-4.87685E-01-4.66972E-03-3.34923E-02 2.12047E-13-1.54553E-13
 -1      3413 2.02429E+01-2.74865E-01-2.63163E-05-1.80380E-02 3.70908E-14-1.50101E-13
 -1      3414 2.01980E+01-2.19114E-01 2.37174E-03-3.71918E-02 2.74460E-14-6.39632E-14
 -1      3415 2.02961E+01-3.31013E-01-3.65119E-03-6.79191E-02 1.03558E-13-3.05972E-13
 -1      3416 2.01467E+01-1.72662E-01 2.33597E-04-4.07173E-02 1.87254E-15 7.04508E-14
 -1      3417 2.01160E+01-1.32167E-01 1.53142E-03-5.01078E-02 1.11081E-13-5.92266E-16
 -1      3418 2.01758E+01-2.09717E-01-2.65193E-03-7.73853E-02 1.23787E-13-3.51781E-13
 -1      3419 2.00839E+01-9.92051E-02 3.09463E-04-4.84014E-02 1.45709E-13-1.54392E-13
 -1      3420 2.00641E+01-7.14423E-02 9.32794E-04-5.17924E-02 1.09982E-13-3.36515E-14
 -1      3421 2.00982E+01-1.22091E-01-1.80955E-03-7.39241E-02 8.48472E-14-2.27190E-13
 -1      3422 2.00450E+01-4.93230E-02 2.51385E-04-4.78074E-02 1.41611E-13 5.81425E-14
 -1      3423 2.00329E+01-3.10660E-02 5.49795E-04-4.75306E-02 6.43780E-14 1.31754E-13
 -1      3424 2.00507E+01-6.24048E-02-1.26537E-03-6.48715E-02 2.36154E-13-2.58464E-13
 -1      3425 2.00248E+01-2.08564E-02 1.00370E-04-4.35330E-02-1.02448E-13 1.48053E-13
 -1      3426 2.00177E+01-9.17505E-03 2.58279E-04-4.19968E-02 3.68256E-14 1.45546E-13
 -1      3427 2.00147E+01-6.20408E-03-1.34884E-07-4.63413E-02 4.31325E-14 2.30787E-13
 -1      3428 2.00269E+01-2.72115E-02-5.43085E-04-5.48594E-02 1.08845E-13-1.18470E-13
 -1      3429 2.00438E+01-1.35476E-02 3.28029E-04-1.85478E-01 5.73581E-14-9.16224E-15
 -1      3430 2.00520E+01-2.19508E-02-1.67209E-04-1.86560E-01 6.68869E-14-6.36320E-14
 -1      3431 2.01610E+01 6.77969E-02-6.36422E-04-1.49809E-01-7.75224E-15-1.45257E-13
 -1      3432 2.01825E+01 1.13537E-01 1.80298E-03-1.23407E-01 2.64819E-14-9.79500E-14
 -1      3433 2.02459E+01 1.72024E-01-6.05314E-04-9.01687E-02 2.15482E-14-8.82291E-14
 -1      3434 2.00702E+01-2.58100E-02 2.88260E-04-1.88906E-01 5.48689E-14-9.43046E-14
 -1      3435 2.00792E+01-2.51727E-02 1.98206E-04-1.88997E-01 4.72674E-14-1.48453E-13
 -1      3436 2.00939E+01-2.46027E-02-2.25578E-04-1.76166E-01 3.01966E-14-1.27134E-13
 -1      3437 1.99749E+01 6.46894E-02 2.17926E-05-1.83328E-01 2.72205E-14-5.23274E-14
 -1      3438 1.99893E+01 3.74544E-02-8.98285E-04-1.80085E-01 4.60584E-14 1.06564E-14
 -1      3439 1.99169E+01 1.37195E-01-4.58454E-04-1.89082E-01-7.82223E-14-1.16798E-14
 -1      3440 1.99413E+01 9.72077E-02-1.36626E-03-1.81663E-01-4.73699E-15-6.75496E-15
 -1      3441 1.99607E+01 8.58624E-02 1.25265E-03-1.59876E-01-2.80176E-14-5.13957E-14
 -1      3442 1.98248E+01 2.41694E-01-1.35599E-03-1.99392E-01-7.23086E-14 6.69927E-14
 -1      3443 1.98678E+01 1.84527E-01-1.97218E-03-1.87481E-01-1.20359E-13 3.31943E-14
 -1      3444 1.98837E+01 1.69829E-01 2.30123E-03-1.52972E-01-1.05476E-13-1.63343E-15
 -1      3445 1.96754E+01 3.89588E-01-3.01602E-03-2.10510E-01 1.03000E-13 2.51236E-14
 -1      3446 1.97502E+01 3.09231E-01-2.80954E-03-1.95162E-01 5.79209E-14 7.86122E-14
 -1      3447 1.97676E+01 2.88242E-01 3.90153E-03-1.40278E-01-2.51917E-14 9.30178E-15
 -1      3448 1.94164E+01 6.07586E-01-5.85119E-03-2.11553E-01 5.89214E-14 6.06642E-14
 -1      3449 1.95541E+01 4.90320E-01-3.71873E-03-1.97019E-01 7.94918E-14 1.97908E-16
 -1      3450 1.95820E+01 4.56117E-01 6.21498E-03-1.10178E-01 1.25740E-13-2.79561E-14
 -1      3451 1.90128E+01 8.89618E-01-1.07055E-02-1.80214E-01-6.97639E-14 5.97900E-15
 -1      3452 1.92357E+01 7.40287E-01-4.98196E-03-1.78016E-01-2.50532E-15 3.10616E-15
 -1      3453 1.92918E+01 6.82638E-01 9.91536E-03-4.11431E-02 4.24960E-14-1.77748E-14
 -1      3454 1.83735E+01 1.24933E+00-1.81487E-02-7.70322E-02 1.61514E-14 7.88177E-15
 -1      3455 1.87401E+01 1.06357E+00-6.01481E-03-1.06676E-01-5.83093E-14-2.70551E-14
 -1      3456 1.88536E+01 9.65745E-01 1.48838E-02 1.00656E-01-2.79657E-14-2.23345E-13
 -1      3457 1.73789E+01 1.66657E+00-2.82511E-02 1.65643E-01 2.68873E-14-3.20135E-14
 -1      3458 1.79680E+01 1.46027E+00-6.51085E-03 6.93430E-02 6.35011E-14-1.26559E-14
 -1      3459 1.81919E+01 1.29981E+00 2.23168E-02 3.76820E-01 2.19699E-14-1.70617E-13
 -1      3460 1.58667E+01 2.05304E+00-3.93767E-02 6.49245E-01 8.04200E-14-1.54560E-13
 -1      3461 1.67888E+01 1.88638E+00-4.34216E-03 4.33620E-01 3.97987E-14-8.63472E-14
 -1      3462 1.72171E+01 1.63682E+00 3.47066E-02 8.81321E-01 6.06908E-14-2.24212E-13
 -1      3463 1.95068E+01 5.27633E-01-2.32950E-03 5.63698E-02 1.26647E-13 3.96703E-14
 -1      3464 1.93613E+01 6.27452E-01-7.34775E-03 4.93246E-02 1.56793E-13 1.07445E-13
 -1      3465 2.02959E+01 1.08105E+00 6.12866E-04-4.16276E-01-9.49326E-14-7.34547E-15
 -1      3466 2.02965E+01 8.64964E-01-2.95764E-03-2.86346E-01-7.56178E-14 2.24498E-15
 -1      3467 2.02996E+01 8.39780E-01 6.79670E-03 3.33399E-01 8.40716E-14-1.28493E-13
 -1      3468 2.02804E+01 1.11049E+00-5.79531E-03 4.67716E-01 1.08088E-13-1.31267E-13
 -1      3469 2.02697E+01 1.25546E+00-4.67302E-04 4.32149E-01 8.53760E-14-1.30345E-13
 -1      3470 2.03041E+01 1.12865E+00-5.37781E-03 9.21391E-01 1.33166E-13-4.04545E-14
 -1      3471 1.99009E+01 1.72401E-01-1.10002E-03 6.90323E-02 2.33256E-15 8.49903E-16
 -1      3472 1.98709E+01 2.07973E-01-1.37054E-03 7.96018E-02-2.17798E-13 1.36896E-14
 -1      3473 1.97032E+01 3.65916E-01-2.00939E-03 7.76863E-02 1.04506E-13-5.29931E-15
 -1      3474 1.96156E+01 4.39295E-01-4.21856E-03 8.30165E-02-1.64402E-14-1.32833E-13
 -1      3475 1.95467E+01 4.83961E-01 6.05442E-03-2.68846E-02 1.19042E-13-7.21525E-14
 -1      3476 1.30488E+01 1.87946E+00 4.95493E-02-2.66887E+00-9.54831E-14 6.47538E-14
 -1      3477 2.18216E+01-3.11272E+00 9.15841E-02-5.01315E+00 2.04699E-13-4.24287E-14
 -1      3478 2.37980E+01-3.70391E+00-4.48440E-02-3.95319E+00 2.10760E-13 1.24784E-13
 -1      3479 1.98255E+01 2.51644E-01-1.59205E-03 7.83623E-02-1.03482E-13 5.08526E-14
 -1      3480 1.97747E+01 3.03750E-01-2.07934E-03 8.83657E-02 2.01024E-13 1.18018E-13
 -1      3481 1.97221E+01 3.41576E-01 4.09616E-03 2.22105E-02 4.52266E-14-1.34663E-13
 -1      3482 1.98320E+01 2.41476E-01 3.03673E-03 4.22681E-02-7.27219E-14-1.85722E-13
 -1      3483 1.99849E+01 3.25851E-02 7.47460E-04-6.35748E-02 3.87474E-13-5.78389E-14
 -1      3484 1.99730E+01 4.27313E-02-5.53766E-04-6.17658E-02 3.62850E-13-7.24885E-14
 -1      3485 2.76302E+01-1.75971E+00 2.90293E-02 3.25903E-01 7.93948E-14-1.37459E-13
 -1      3486 2.72382E+01-2.65070E-01-8.93190E-02 1.41524E+00-1.30104E-13-2.67467E-13
 -1      3487 2.00041E+01 8.22656E-03 3.90792E-04-5.86493E-02 2.31111E-13-8.65717E-14
 -1      3488 1.99950E+01 1.70087E-02-2.46722E-04-6.11613E-02 4.63865E-13-5.75299E-14
 -1      3489 1.99900E+01 1.74952E-02-5.23253E-04-7.32943E-02 5.12190E-13-2.80559E-14
 -1      3490 1.99614E+01 6.17904E-02 7.27594E-04-5.76195E-02 2.78835E-13-5.78338E-13
 -1      3491 1.99494E+01 7.20843E-02-8.05027E-04-5.01939E-02 3.86655E-13-9.02104E-13
 -1      3492 1.99626E+01 5.05428E-02-3.46386E-04-7.27829E-02 3.17351E-13-3.42151E-13
 -1      3493 2.00971E+01-1.97296E-02 1.38291E-04-1.88571E-01 3.83584E-14-1.55755E-13
 -1      3494 2.01087E+01-8.38584E-03 6.43532E-04-1.84667E-01-1.63471E-14-1.58702E-13
 -1      3495 2.01295E+01-2.10744E-02-4.49797E-04-1.76584E-01 3.08618E-14-1.26034E-13
 -1      3496 1.99397E+01 9.08485E-02 4.82532E-04-3.82955E-02 4.11458E-14-6.09768E-13
 -1      3497 1.99319E+01 9.91573E-02-7.62641E-04-2.54569E-02-5.86457E-14-5.37854E-13
 -1      3498 1.99355E+01 8.72141E-02 1.56513E-04-5.67824E-02 2.55264E-13-3.95560E-13
 -1      3499 1.91974E+01 7.46448E-01-2.70591E-03-8.13085E-03 8.50288E-14 1.20572E-13
 -1      3500 1.89616E+01 8.75526E-01-1.25041E-02-4.23477E-02 7.21427E-14 7.89554E-15
 -1      3501 1.92791E+01 6.70607E-01 9.04140E-03-1.31476E-01 9.59003E-14-1.62915E-13
 -1      3502 1.54051E+01 1.93141E+00 5.67230E-03-1.62757E+00-2.04222E-14-1.09555E-13
 -1      3503 1.40944E+01 1.98646E+00-1.01100E-02-2.03973E+00-4.62755E-14-6.14439E-14
 -1      3504 1.48688E+01 1.26330E+00 6.80408E-02-3.44383E+00 5.95461E-14 1.30777E-13
 -1      3505 2.00141E+01 1.60343E-02 2.53748E-04-1.82630E-01 5.91801E-14 4.94420E-15
 -1      3506 2.00237E+01-1.18785E-03-5.15668E-04-1.82412E-01 6.94085E-14 2.79893E-14
 -1      3507 2.00571E+01-7.83118E-03 9.93097E-05-1.71491E-01 4.36387E-14-3.01663E-14
 -1      3508 2.00150E+01 2.83213E-02 5.64386E-04-1.65658E-01 5.77089E-14-5.33801E-14
 -1      3509 2.00293E+01 2.20612E+00-3.34258E-03-1.62618E-01-2.03747E-14-1.37857E-13
 -1      3510 2.00416E+01 2.16931E+00-4.26687E-03-2.83732E-01-4.13153E-14-1.17754E-13
 -1      3511 2.01572E+01 1.85709E+00 5.10041E-03-2.83817E-01-3.89287E-14-1.02253E-13
 -1      3512 1.99271E+01 1.12882E-01-6.25739E-05-7.62086E-03-1.65390E-13-4.72229E-13
 -1      3513 1.99272E+01 1.18364E-01-1.68719E-04 9.14847E-03-5.43892E-14 8.01911E-15
 -1      3514 1.99176E+01 1.18847E-01 7.64015E-04-2.55172E-02-6.23715E-14-4.15991E-13
 -1      3515 2.01269E+01 8.76942E-03-1.69965E-04-1.78415E-01-2.46946E-14-1.77225E-13
 -1      3516 2.01430E+01 3.47884E-02 1.18409E-03-1.66062E-01-2.29714E-14-1.64767E-13
 -1      3517 2.02058E+01 6.71764E-02-6.61809E-04-1.42231E-01 6.06762E-15-1.04418E-13
 -1      3518 2.01666E+01 6.87917E-03-6.03462E-04-1.67729E-01-2.28790E-14-1.01899E-13
 -1      3519 2.03152E+01 6.82552E-01 1.92530E-03-1.96885E-01-6.31308E-14-1.31251E-14
 -1      3520 2.02981E+01 5.30744E-01-2.36432E-03-1.03695E-01-6.19082E-14-6.34350E-15
 -1      3521 2.03224E+01 8.66784E-01 6.88289E-04-2.37088E-01-7.76797E-14-3.98634E-14
 -1      3522 2.01613E+01 1.87117E+00-1.42001E-03-8.33491E-01-1.39360E-13-4.70151E-14
 -1      3523 2.58466E+01 4.21973E+00-2.81765E-02 1.85226E+00-3.49096E-13-1.90584E-13
 -1      3524 2.52618E+01 5.12746E+00-8.02923E-02 1.05879E+00-4.70783E-13-7.13422E-14
 -1      3525 1.69554E+01-1.19317E+00 6.91230E-02-5.68870E+00 5.33462E-14-2.32821E-13
 -1      3526 1.92635E+01-2.47796E+00-4.72521E-02-5.71292E+00 9.61696E-14-1.79468E-13
 -1      3527 2.69589E+01 1.54402E+00 1.19905E-02 2.08643E+00-2.36582E-13-3.55060E-13
 -1      3528 2.62913E+01 2.80543E+00-9.63467E-02 2.09792E+00-2.35881E-13-3.22438E-13
 -1      3529 1.30203E+01 2.25859E+00 1.29098E-02 1.73659E+00 1.40148E-14-2.38580E-13
 -1      3530 1.50917E+01 2.23361E+00 1.56783E-02 1.08124E+00 1.02975E-13-1.07735E-13
 -1      3531 1.58179E+01 1.86908E+00 6.17278E-02 1.74816E+00 9.56858E-14-2.60670E-13
 -1      3532 1.38334E+01 1.63286E+00 7.19285E-02 3.16152E+00 8.97997E-14-1.23550E-13
 -1      3533 2.58067E+01 4.80454E+00-9.02789E-02-1.51274E+00-6.17006E-13 2.74968E-13
 -1      3534 2.54676E+01 3.92511E+00-1.04709E-02-1.81338E+00-5.05061E-13 2.68335E-13
 -1      3535 2.48860E+01 4.90282E+00-3.09983E-02-1.02254E+00-6.75082E-13 2.39567E-13
 -1      3536 2.74541E+01-1.28540E+00-4.03900E-02-7.96873E-01 9.15934E-15 1.35829E-13
 -1      3537 2.69271E+01-1.97078E+00-2.77511E-02-1.40505E-01 1.65531E-13 1.26319E-13
 -1      3538 2.66210E+01-3.07666E+00-9.66454E-04 1.30885E+00 2.39519E-13 6.90351E-14
 -1      3539 2.64967E+01-3.72823E+00-1.71920E-03 2.47116E+00 2.04786E-13-1.48492E-15
 -1      3540 2.52665E+01-3.72691E+00-1.66795E-03 3.04792E+00 2.54409E-13-1.01447E-14
 -1      3541 2.02025E+01 1.70009E+00 6.14468E-03 4.57441E-01 7.19963E-14-1.31105E-13
 -1      3542 2.02735E+01 6.61255E-01-2.59883E-03 2.18394E-01 6.67993E-14-1.29365E-13
 -1      3543 2.52204E+01 3.04687E+00-3.38041E-02 1.87204E+00-2.04704E-13-2.75856E-13
 -1      3544 2.02088E+01 1.61586E+00-1.82535E-03-1.95291E-01-3.69583E-14-1.08202E-13
 -1      3545 2.02185E+01 1.55772E+00-4.08027E-03-2.78739E-01-4.32709E-14-8.59141E-14
 -1      3546 2.02144E+01 1.64145E+00 4.20649E-04-6.75473E-01-1.14454E-13-3.83442E-14
 -1      3547 2.02207E+01 1.55113E+00-4.67535E-03 2.83069E-01 3.03163E-14-1.31287E-13
 -1      3548 2.02103E+01 1.61157E+00-2.09378E-03 1.99684E-01 2.09774E-15-1.24426E-13
 -1      3549 1.88713E+01 9.03913E-01 1.31952E-02-3.34478E-01 4.26986E-15-1.93160E-13
 -1      3550 1.87129E+01 1.03194E+00-2.55603E-03-1.55304E-01-1.38075E-14-1.11151E-13
 -1      3551 1.83280E+01 1.19229E+00-1.91802E-02-2.43959E-01-1.26022E-13-1.41572E-13
 -1      3552 2.07551E+01-2.39107E+00 3.94664E-02-4.71034E+00 2.22017E-13-1.70072E-13
 -1      3553 2.66211E+01-2.32762E+00-2.50262E-02-2.73603E-01 1.65153E-13-1.40249E-13
 -1      3554 1.99629E+01 1.00749E-01-4.78424E-04 5.51079E-02 2.33532E-13 3.34998E-13
 -1      3555 2.00114E+01-1.24681E-03 1.29490E-04-4.98515E-02 6.01279E-14 1.14041E-13
 -1      3556 1.64637E+01-1.21192E+00 9.50124E-02 5.92611E+00 1.34101E-13-3.94740E-13
 -1      3557 1.59606E+01-3.19758E-01 1.40021E-02 5.01791E+00 1.72799E-13-4.38087E-13
 -1      3558 1.80071E+01-1.71124E+00 2.84109E-02 5.67007E+00 1.44470E-13-4.57200E-13
 -1      3559 2.63046E+01 2.24114E-01-3.00159E-02 1.61731E+00-1.51735E-13-4.26877E-13
 -1      3560 2.48962E+01 5.20656E+00-6.63811E-02 6.14735E-01-5.29167E-13-7.38294E-14
 -1      3561 2.44846E+01 5.02945E+00-4.59804E-02 8.17975E-02-5.33781E-13-6.29713E-14
 -1      3562 2.42629E+01 4.33652E+00-3.04488E-02 1.00003E+00-2.78989E-13-3.50215E-13
 -1      3563 1.99374E+01 1.14491E-01-8.41917E-04 3.06174E-02 9.08706E-14 1.76376E-13
 -1      3564 1.99476E+01 1.13368E-01 6.12904E-04 4.09523E-02 8.91541E-14 1.04894E-14
 -1      3565 1.99489E+01 1.16026E-01-3.45115E-04 5.43468E-02 2.44609E-13 5.04054E-14
 -1      3566 1.99202E+01 1.30720E-01 3.14750E-04 1.74389E-02-5.45178E-14-6.45416E-14
 -1      3567 2.32742E+01-3.69742E+00 1.09041E-02 4.51961E+00 2.98532E-13-1.51944E-13
 -1      3568 2.20676E+01-3.71934E+00 6.25609E-02 5.63750E+00 3.04187E-13-3.34078E-13
 -1      3569 2.04794E+01-3.00841E+00 1.78622E-02 5.67339E+00 1.80710E-13-3.45116E-13
 -1      3570 2.01364E+01 1.92896E+00 4.96772E-03-9.48022E-02-2.43729E-14-1.49293E-13
 -1      3571 2.02013E+01 1.64496E+00-3.37808E-03 1.29130E-01 2.26368E-15-1.55687E-13
 -1      3572 2.01971E+01 1.66516E+00-2.63205E-03 3.89460E-02-1.33717E-14-1.85613E-13
 -1      3573 2.02842E+01 1.39221E+00 5.05352E-03 1.31488E-01 9.98423E-15-1.33736E-13
 -1      3574 1.60844E+01 1.85553E+00-3.44620E-02-1.10611E+00-1.17379E-13-3.40413E-14
 -1      3575 1.64829E+01 1.48555E+00 5.17346E-02-2.09640E+00-9.98914E-14 7.26190E-14
 -1      3576 1.69972E+01 1.70644E+00-8.08583E-04-7.93506E-01-1.42798E-13 7.60943E-14
 -1      3577 2.02492E+01 1.33994E+00-2.54711E-03-5.16110E-01-9.54381E-14-2.03940E-14
 -1      3578 2.02635E+01 1.33061E+00 1.39005E-03-4.29354E-01-8.01616E-14-4.31697E-14
 -1      3579 2.00126E+01-6.70088E-03-9.01940E-05-6.08786E-02 2.60878E-13-9.33281E-14
 -1      3580 2.02826E+01 3.36109E-01-4.15944E-04-3.55104E-05 1.00994E-14-8.61496E-14
 -1      3581 2.02367E+01 3.24616E-01-2.72859E-03 8.46925E-03 1.22213E-14-1.03482E-13
 -1      3582 2.02711E+01 4.32780E-01 4.29188E-03 8.23690E-02 3.17117E-14-1.21693E-13
 -1      3583 1.99319E+01 1.38465E-01-6.73838E-04 6.32857E-02 1.88235E-13 1.58341E-14
 -1      3584 1.77074E+01 1.70928E+00 3.01058E-02-2.95793E-02-1.56536E-13 2.56627E-13
 -1      3585 1.51649E+01 4.86801E-01 4.87956E-02 4.39796E+00 1.47680E-13-4.71144E-13
 -1      3586 1.40567E+01 1.01594E+00 3.32386E-02 3.94023E+00 1.20895E-13-3.08125E-13
 -1      3587 1.51721E+01 1.30277E+00 2.90383E-02 3.06974E+00 1.31525E-13-2.65139E-13
 -1      3588 1.63230E+01-3.25359E-02 2.59226E-02 4.48108E+00 1.47650E-13-4.58036E-13
 -1      3589 2.48008E+01-3.51728E+00 4.24360E-02-2.99042E+00 3.33201E-13 1.59341E-13
 -1      3590 2.51895E+01-3.23804E+00-5.02492E-02-1.91024E+00 3.75687E-13 1.99580E-15
 -1      3591 2.34998E+01-3.13022E+00-8.30487E-03-3.18603E+00 3.78900E-13 4.65392E-14
 -1      3592 2.02340E+01 1.50126E+00-6.21721E-04-3.26300E-01-4.92676E-14-4.94879E-14
 -1      3593 2.02505E+01 1.40397E+00-3.29852E-03-3.93623E-01-7.41017E-14-3.40097E-14
 -1      3594 2.03009E+01 1.15462E+00 1.90757E-03-3.01638E-01-6.74312E-14-2.69432E-14
 -1      3595 2.02944E+01 1.29890E+00 4.49381E-03-2.32527E-01-5.85600E-14-4.74743E-14
 -1      3596 1.99056E+01 1.60342E-01 1.16123E-03 4.22097E-02 9.55907E-14-8.72362E-14
 -1      3597 1.60379E+01-3.66130E-01 5.51436E-02-5.14710E+00 1.18735E-13-9.22457E-14
 -1      3598 1.76326E+01-6.31985E-01 4.11867E-02-4.61897E+00 2.81716E-13-2.78826E-13
 -1      3599 1.52383E+01 5.33812E-01 4.72163E-03-4.21658E+00 1.82944E-13 8.18755E-14
 -1      3600 2.03319E+01 5.33776E-01 2.50394E-04-8.11923E-02-4.28791E-14-5.25379E-14
 -1      3601 2.69440E+01-2.59563E-01-4.07010E-02-1.45285E+00-1.03043E-13 2.80213E-13
 -1      3602 2.02545E+01 1.36472E+00-5.68326E-03 4.02851E-01 6.67533E-14-1.23621E-13
 -1      3603 2.02414E+01 1.46822E+00-1.04705E-03 3.34997E-01 4.56623E-14-1.10388E-13
 -1      3604 2.03005E+01 1.27240E+00 5.03492E-03 2.40643E-01 3.47355E-14-1.01699E-13
 -1      3605 2.03127E+01 1.07043E+00 3.75121E-03 3.06303E-01 6.93676E-14-1.00407E-13
 -1      3606 2.03266E+01 1.99572E-01 1.24789E-03 6.55749E-02-2.50338E-14-1.64389E-14
 -1      3607 2.03048E+01 1.31224E-01-8.80889E-04 9.26303E-02-4.57314E-14-5.94507E-15
 -1      3608 2.02869E+01 7.76693E-02 9.24432E-04 1.07830E-01-4.94123E-14-8.75564E-15
 -1      3609 2.02647E+01 3.42792E-02-3.67634E-04 1.22577E-01-6.73292E-14-1.15273E-14
 -1      3610 2.03275E+01 1.22426E-01-1.23881E-04 8.26688E-02-5.12773E-14-2.67988E-14
 -1      3611 2.02432E+01 1.20800E-03 6.65735E-04 1.29973E-01-8.97171E-14 2.61791E-14
 -1      3612 2.02224E+01-2.47346E-02 7.50753E-06 1.36495E-01-9.65538E-14 3.08244E-14
 -1      3613 2.02845E+01 2.67182E-02-3.72897E-04 1.07411E-01-5.05260E-14-2.06135E-15
 -1      3614 2.02003E+01-4.38849E-02 4.48056E-04 1.39143E-01-1.18233E-13 3.69417E-14
 -1      3615 2.01823E+01-5.83255E-02 2.84446E-04 1.40703E-01-1.24826E-13 3.90032E-14
 -1      3616 2.02388E+01-3.10900E-02-5.16288E-04 1.19634E-01-1.00496E-13 3.61251E-14
 -1      3617 2.01616E+01-6.88329E-02 2.93285E-04 1.41123E-01-1.33362E-13 4.52205E-14
 -1      3618 2.01475E+01-7.66836E-02 5.00609E-04 1.40185E-01-1.26444E-13 5.57202E-14
 -1      3619 2.01949E+01-6.36179E-02-6.20686E-04 1.24817E-01-1.27973E-13 6.34994E-14
 -1      3620 2.01300E+01-8.30196E-02 2.14202E-04 1.40392E-01-9.48089E-14 1.04034E-13
 -1      3621 2.01209E+01-8.85861E-02 6.90471E-04 1.38714E-01-5.27649E-14 1.17322E-13
 -1      3622 2.01565E+01-8.13102E-02-7.32168E-04 1.27531E-01-6.86000E-14 1.22958E-13
 -1      3623 2.01087E+01-9.48268E-02 2.26751E-04 1.40284E-01-2.87749E-14 1.28851E-13
 -1      3624 2.01062E+01-1.02199E-01 8.80943E-04 1.38980E-01 1.48731E-14 1.26353E-13
 -1      3625 2.01268E+01-9.33362E-02-8.95804E-04 1.31508E-01-1.97707E-14 2.07515E-13
 -1      3626 2.01018E+01-1.12368E-01 3.62299E-04 1.43067E-01 3.46146E-14 1.08300E-13
 -1      3627 2.01084E+01-1.25731E-01 1.08727E-03 1.42590E-01 7.71950E-14 1.48497E-13
 -1      3628 2.01100E+01-1.08458E-01-1.17955E-03 1.39761E-01 3.92797E-14 2.07745E-13
 -1      3629 2.01153E+01-1.44032E-01 6.72505E-04 1.49836E-01 7.78652E-14 1.46730E-13
 -1      3630 2.01345E+01-1.67878E-01 1.29794E-03 1.49833E-01 4.97669E-14 2.02549E-13
 -1      3631 2.01117E+01-1.35658E-01-1.65123E-03 1.54525E-01 9.27044E-14 1.91272E-13
 -1      3632 2.01582E+01-1.98792E-01 1.23276E-03 1.60046E-01-2.38968E-14 2.07275E-13
 -1      3633 2.01945E+01-2.37887E-01 1.45929E-03 1.58999E-01-5.68455E-14 2.16202E-13
 -1      3634 2.01404E+01-1.84680E-01-2.38041E-03 1.76901E-01 6.78172E-14 1.32514E-13
 -1      3635 2.02426E+01-2.85879E-01 2.13743E-03 1.70480E-01-5.26646E-14 2.46988E-13
 -1      3636 2.03014E+01-3.44750E-01 1.45028E-03 1.65115E-01-1.37446E-14 2.32440E-13
 -1      3637 2.02082E+01-2.66132E-01-3.43576E-03 2.05869E-01-2.30456E-14 2.23243E-13
 -1      3638 2.03838E+01-4.13344E-01 3.47634E-03 1.73562E-01 2.18310E-14 2.79252E-13
 -1      3639 2.04710E+01-4.94874E-01 1.06317E-03 1.58057E-01 5.34951E-14 3.10396E-13
 -1      3640 2.03315E+01-3.90532E-01-4.84822E-03 2.36489E-01 3.26557E-14 2.88907E-13
 -1      3641 2.05993E+01-5.84627E-01 5.27207E-03 1.55060E-01 4.75820E-14 3.55919E-13
 -1      3642 2.07189E+01-6.87260E-01 2.57157E-05 1.20348E-01 5.44790E-14 3.90917E-13
 -1      3643 2.05306E+01-5.65466E-01-6.54658E-03 2.57101E-01 7.54211E-14 2.75059E-13
 -1      3644 2.09040E+01-7.92218E-01 7.36907E-03 9.19777E-02 4.05963E-14 4.44211E-13
 -1      3645 2.10555E+01-9.05372E-01-1.92134E-03 2.58372E-02 6.24826E-14 4.33399E-13
 -1      3646 2.08276E+01-7.89466E-01-8.21181E-03 2.45923E-01 1.11735E-13 3.37381E-13
 -1      3647 2.13025E+01-1.00770E+00 9.24730E-03-4.78377E-02-9.39477E-15 4.52167E-13
 -1      3648 2.14763E+01-1.10492E+00-4.82135E-03-1.58474E-01 3.15334E-14 3.43421E-13
 -1      3649 2.12393E+01-1.04189E+00-9.20451E-03 1.68414E-01-1.15055E-14 3.67148E-13
 -1      3650 2.17747E+01-1.16819E+00 9.49576E-03-2.99518E-01 8.69688E-14 2.62943E-13
 -1      3651 2.19490E+01-1.19933E+00-7.28411E-03-4.61966E-01 3.66371E-14 2.47455E-13
 -1      3652 2.17644E+01-1.26587E+00-8.35155E-03-2.13392E-02-8.09604E-15 2.98921E-13
 -1      3653 2.22603E+01-1.17013E+00 5.78676E-03-6.79702E-01-5.00616E-14 3.06811E-13
 -1      3654 2.24043E+01-1.06315E+00-7.15771E-03-8.85655E-01-7.37943E-14 2.66219E-13
 -1      3655 2.23617E+01-1.35410E+00-5.11466E-03-3.65336E-01 3.04100E-14 2.14745E-13
 -1      3656 2.26488E+01-8.57102E-01-2.61337E-03-1.15562E+00-5.43569E-14 3.68262E-13
 -1      3657 2.27303E+01-5.43206E-01-1.47087E-03-1.34589E+00-8.94649E-14 4.60309E-13
 -1      3658 2.29399E+01-1.12070E+00 1.03741E-02-8.74327E-01 1.24924E-14 3.22206E-13
 -1      3659 2.28201E+01-1.22211E-01-1.58690E-02-1.59390E+00-9.19525E-14 5.55016E-13
 -1      3660 2.28053E+01 4.16008E-01 4.92739E-03-1.67696E+00-7.90934E-14 5.25365E-13
 -1      3661 2.33297E+01-4.79506E-01 7.91380E-03-1.41435E+00 9.40220E-16 6.37779E-13
 -1      3662 2.27189E+01 1.02188E+00-2.43355E-02-1.75490E+00-1.25184E-13 4.67434E-13
 -1      3663 2.26250E+01 1.68606E+00 1.56628E-02-1.63622E+00-6.58588E-14 4.39983E-13
 -1      3664 2.34082E+01 6.78903E-01 2.72715E-03-1.76940E+00-1.23441E-13 7.52532E-13
 -1      3665 2.24164E+01 2.26137E+00-2.91281E-02-1.36321E+00-1.43184E-13 3.02927E-13
 -1      3666 2.23377E+01 2.77225E+00 1.14488E-02-1.02875E+00-2.00119E-13 1.99357E-13
 -1      3667 2.31859E+01 2.24851E+00 1.12886E-02-1.64574E+00-2.28813E-13 5.74101E-13
 -1      3668 2.22391E+01 3.06466E+00 7.91967E-03 6.25874E-01-1.25910E-13-6.42039E-14
 -1      3669 2.23064E+01 2.70040E+00-2.01771E-02 1.05669E+00-1.16101E-14-8.48917E-14
 -1      3670 2.25045E+01 2.18818E+00 1.40436E-02 1.44328E+00 2.81424E-14-2.97023E-13
 -1      3671 2.25948E+01 1.55650E+00-3.04615E-02 1.66508E+00-4.26634E-15-2.81619E-13
 -1      3672 2.30387E+01 2.70366E+00-7.47237E-03 1.37557E+00-1.09872E-13-2.87241E-13
 -1      3673 2.27641E+01 9.29534E-01 1.18595E-02 1.72067E+00-9.39370E-14-3.76674E-13
 -1      3674 2.28084E+01 3.19289E-01-2.00040E-02 1.71013E+00 5.16102E-14-4.32153E-13
 -1      3675 2.33339E+01 1.31117E+00 7.41475E-03 1.80964E+00-3.28661E-14-3.84958E-13
 -1      3676 2.27956E+01-1.94970E-01 1.11756E-03 1.51973E+00 1.20064E-13-5.36496E-13
 -1      3677 2.27548E+01-6.05057E-01-7.36740E-03 1.35366E+00 2.48543E-15-4.86352E-13
 -1      3678 2.34068E+01-3.60325E-02 1.00583E-02 1.61330E+00 3.88188E-15-6.08355E-13
 -1      3679 2.25568E+01-8.89627E-01-6.55291E-03 1.08379E+00-6.58528E-14-4.69578E-13
 -1      3680 2.24411E+01-1.07388E+00 3.58924E-03 8.77613E-01-1.36769E-13-3.29179E-13
 -1      3681 2.31289E+01-9.03722E-01 8.18691E-03 1.09988E+00 3.95020E-14-4.95339E-13
 -1      3682 2.21424E+01-1.16758E+00-8.74219E-03 6.30139E-01-2.34173E-13-3.09442E-13
 -1      3683 2.19778E+01-1.18061E+00 8.70995E-03 4.49541E-01-2.04198E-13-3.37630E-13
 -1      3684 2.26106E+01-1.29831E+00-1.71593E-03 5.60657E-01-7.38894E-14-2.98423E-13
 -1      3685 2.16656E+01-1.14716E+00-6.28149E-03 2.77451E-01-2.18532E-13-2.50168E-13
 -1      3686 2.14874E+01-1.06718E+00 9.56700E-03 1.47170E-01-2.36966E-13-2.04069E-13
 -1      3687 2.20037E+01-1.31081E+00-7.57656E-03 1.50421E-01-1.58131E-13-3.30570E-13
 -1      3688 2.12144E+01-9.72554E-01-3.14394E-03 4.98031E-02-1.17518E-13-8.54018E-14
 -1      3689 2.10505E+01-8.58486E-01 8.28121E-03-3.10378E-02 2.51728E-14-6.64606E-14
 -1      3690 2.14371E+01-1.12127E+00-9.25087E-03-9.62256E-02-7.91683E-14-1.59845E-13
 -1      3691 2.08369E+01-7.47993E-01-7.49610E-04-7.32387E-02 1.33649E-13-1.11515E-14
 -1      3692 2.07018E+01-6.35042E-01 6.20522E-03-1.16271E-01 2.31746E-13-1.38496E-14
 -1      3693 2.09720E+01-8.64098E-01-8.68044E-03-2.10659E-01 3.88889E-14 2.16799E-14
 -1      3694 2.05476E+01-5.33617E-01 6.21783E-04-1.24716E-01 2.70071E-13-1.43547E-13
 -1      3695 2.04448E+01-4.38290E-01 4.20622E-03-1.43050E-01 2.01742E-13-1.43690E-13
 -1      3696 2.06230E+01-6.15551E-01-7.08933E-03-2.39215E-01 2.24732E-13-1.27282E-13
 -1      3697 2.03402E+01-3.56076E-01 1.18566E-03-1.34386E-01 1.49610E-13-5.55356E-14
 -1      3698 2.02670E+01-2.82950E-01 2.65956E-03-1.38480E-01 1.83026E-13-8.12651E-14
 -1      3699 2.03782E+01-4.09684E-01-5.30471E-03-2.22043E-01 2.03969E-13 8.07808E-14
 -1      3700 2.01999E+01-2.21549E-01 1.27031E-03-1.23202E-01 1.37531E-13-1.19738E-13
 -1      3701 2.01506E+01-1.69185E-01 1.58688E-03-1.20102E-01 1.24175E-13-7.81884E-14
 -1      3702 2.02160E+01-2.54226E-01-3.70529E-03-1.86137E-01 1.65657E-13 2.45632E-13
 -1      3703 2.01100E+01-1.26234E-01 1.09767E-03-1.03945E-01 3.31832E-14-1.61490E-13
 -1      3704 2.00787E+01-9.07519E-02 9.09693E-04-9.79854E-02 8.45265E-14-2.16123E-13
 -1      3705 2.01143E+01-1.44419E-01-2.39688E-03-1.46740E-01 4.30054E-14 1.09840E-13
 -1      3706 2.00555E+01-6.21342E-02 8.76625E-04-8.34508E-02 2.00435E-13-2.54829E-13
 -1      3707 2.00370E+01-3.90750E-02 6.30489E-04-7.70708E-02 2.35033E-13-2.17405E-13
 -1      3708 2.00539E+01-7.10545E-02-1.50154E-03-1.11018E-01 3.38537E-14-2.23450E-13
 -1      3709 2.00201E+01-1.65154E-02 3.34089E-04-6.62763E-02 3.33641E-13-2.23254E-13
 -1      3710 2.03307E+01 9.26898E-01-1.55592E-03-2.26313E-01-7.57440E-14-3.26701E-14
 -1      3711 2.03447E+01 7.40335E-01-1.74745E-04-1.39551E-01-7.78518E-14-3.71011E-14
 -1      3712 2.03302E+01 1.00820E+00 4.65925E-04-2.03173E-01-6.84241E-14-2.77647E-14
 -1      3713 2.02803E+01 1.60714E-01-1.16248E-03-9.24575E-02 1.79135E-14-6.88481E-14
 -1      3714 2.03034E+01 2.34613E-01 1.55462E-03-5.63544E-02 1.60330E-14-8.57122E-14
 -1      3715 2.01140E+01-2.58607E-02 6.32790E-05-1.56751E-01 2.03650E-14-9.77404E-14
 -1      3716 2.01327E+01-2.80250E-02 1.52384E-04-1.57742E-01 4.94036E-14-1.01617E-13
 -1      3717 1.98530E+01 1.76199E-01-1.91038E-03-1.05536E-01-6.82054E-14-7.28562E-14
 -1      3718 1.99026E+01 1.31006E-01-7.72940E-04-1.12559E-01-9.61989E-14-3.83912E-14
 -1      3719 1.99471E+01 9.20089E-02-9.22129E-04-1.26346E-01-8.45525E-14-2.42407E-15
 -1      3720 1.99806E+01 5.95545E-02-5.67625E-04-1.30675E-01 2.90424E-15-2.62427E-14
 -1      3721 1.99329E+01 1.06812E-01 1.54077E-03-8.25699E-02-4.12280E-14-6.15886E-14
 -1      3722 1.95016E+01 4.49115E-01-6.18742E-03 2.32846E-03 8.68385E-14-9.50489E-14
 -1      3723 1.96287E+01 3.65362E-01-7.57157E-04-2.89948E-02 8.63476E-14-7.31913E-14
 -1      3724 1.91910E+01 6.43678E-01-1.00891E-02 1.31875E-01 7.31587E-14-1.28543E-13
 -1      3725 1.93813E+01 5.44380E-01-2.65450E-04 7.12126E-02 8.72950E-14-6.33956E-14
 -1      3726 1.94754E+01 4.56433E-01 5.93559E-03 1.54113E-01 6.90370E-14-1.24396E-13
 -1      3727 1.87334E+01 8.73278E-01-1.57858E-02 3.66623E-01 2.17338E-14-2.33015E-13
 -1      3728 1.90247E+01 7.60547E-01 1.11068E-03 2.50346E-01 6.16998E-14-1.64698E-13
 -1      3729 1.91830E+01 6.23528E-01 8.05897E-03 3.63804E-01 8.04015E-14-5.86779E-14
 -1      3730 1.80753E+01 1.10960E+00-2.31181E-02 7.77097E-01 2.89560E-14-2.21843E-13
 -1      3731 1.85107E+01 1.00258E+00 3.97681E-03 5.65360E-01-2.05876E-14-2.36231E-13
 -1      3732 1.87784E+01 7.92919E-01 1.03644E-02 7.14519E-01 2.72197E-14-1.58090E-13
 -1      3733 1.71611E+01 1.27997E+00-3.01744E-02 1.46559E+00 1.04888E-13-2.32664E-13
 -1      3734 1.77936E+01 1.22266E+00 9.98066E-03 1.09953E+00 9.81038E-14-2.23547E-13
 -1      3735 1.82421E+01 9.11571E-01 1.26601E-02 1.28378E+00 5.69442E-14-2.56407E-13
 -1      3736 1.62064E+01 7.91765E-01 2.44703E-02-3.39177E+00 3.64304E-14 3.77927E-14
 -1      3737 1.96038E+01 3.93798E-01 7.95162E-05-9.20945E-02 1.08142E-13-2.07041E-13
 -1      3738 1.94868E+01 4.57185E-01-6.68183E-03-1.34794E-01 1.60643E-13-2.42046E-13
 -1      3739 2.00038E+01 2.12391E-03 8.66366E-04-8.66129E-02 4.33468E-13 6.39945E-14
 -1      3740 1.99877E+01 1.55546E-02-4.69101E-04-9.07446E-02 4.07974E-13-8.06395E-14
 -1      3741 1.99710E+01 4.00201E-02 1.19201E-03-9.32035E-02 4.12284E-13-6.17813E-14
 -1      3742 1.99513E+01 5.60306E-02-7.72571E-04-9.04806E-02 2.67852E-13-3.65289E-13
 -1      3743 1.99782E+01 1.87829E-02-9.12790E-04-1.09559E-01 3.49910E-13 4.72943E-14
 -1      3744 2.01568E+01-2.49153E-02 1.24742E-05-1.59243E-01 6.26908E-14-1.09695E-13
 -1      3745 2.01760E+01-1.53687E-02 4.67026E-04-1.56698E-01 2.64473E-14-9.86853E-14
 -1      3746 2.01738E+01-2.60151E-02-2.58376E-04-1.39832E-01 3.13370E-14-9.32252E-14
 -1      3747 1.98880E+01 1.62260E-01-2.66337E-04 1.65860E-02-4.65406E-14-8.42816E-14
 -1      3748 1.99323E+01 8.48735E-02 1.03264E-03-8.21347E-02 1.28829E-13-5.55374E-13
 -1      3749 1.99143E+01 1.00128E-01-1.21657E-03-7.02673E-02-1.24297E-14-3.37519E-13
 -1      3750 1.99338E+01 7.01479E-02-5.22477E-04-1.06469E-01 9.79009E-14-3.70496E-13
 -1      3751 1.93908E+01 5.32990E-01 1.25980E-03-2.16530E-01 1.06988E-13-3.24805E-13
 -1      3752 1.92122E+01 6.07622E-01-1.05003E-02-2.98759E-01 6.83116E-14-3.70976E-13
 -1      3753 1.94880E+01 4.41311E-01 4.78761E-03-2.80611E-01 6.32604E-14-3.42098E-13
 -1      3754 2.03078E+01 6.73549E-01-7.38020E-04 1.84761E-01 4.76154E-14-1.09067E-13
 -1      3755 2.01966E+01 1.66566E+00-2.71485E-03-3.48242E-02-1.08774E-14-1.48933E-13
 -1      3756 2.01999E+01 1.64742E+00-3.35181E-03-1.24954E-01-2.14864E-14-1.25685E-13
 -1      3757 2.02819E+01 1.39508E+00 4.84069E-03-1.29152E-01-3.04181E-14-9.81907E-14
 -1      3758 2.02783E+01 1.42716E+00 5.01292E-03 1.20992E-03 1.40975E-15-1.55477E-13
 -1      3759 1.99006E+01 1.27222E-01 6.60594E-04-4.98626E-02 1.61185E-14-4.34817E-13
 -1      3760 1.98907E+01 1.38807E-01-7.98806E-04-3.11200E-02-7.55863E-14-3.55956E-13
 -1      3761 1.98921E+01 1.24567E-01 8.77858E-05-7.82668E-02-1.71483E-14-4.14089E-13
 -1      3762 2.58289E+01-5.67336E-01 3.74614E-02 1.39083E+00-7.61544E-14-5.03807E-13
 -1      3763 2.52238E+01 7.43401E-01-4.35137E-02 1.89572E+00-2.32009E-13-5.99757E-13
 -1      3764 1.97157E+01 2.90706E-01-3.60738E-03-6.91560E-02 1.64116E-14-1.10919E-13
 -1      3765 1.97924E+01 2.30084E-01-9.16465E-04-8.28920E-02-6.37031E-14-1.02095E-13
 -1      3766 1.98300E+01 1.94487E-01 2.57728E-03-4.11838E-02-5.12827E-14-1.09550E-13
 -1      3767 2.03543E+01 3.83758E-01 1.15622E-03-5.74002E-03 1.49056E-14-3.93769E-14
 -1      3768 2.03365E+01 2.82247E-01-1.39858E-03 3.84973E-02 1.33463E-14-1.87736E-14
 -1      3769 2.03608E+01 2.71903E-01 2.56889E-04 3.89035E-02-1.16904E-14-7.63961E-15
 -1      3770 2.61511E+01-1.69904E+00 9.42887E-03-4.76854E-01 1.74669E-13 2.00111E-13
 -1      3771 2.65707E+01-2.50966E+00-1.68362E-02 3.69260E-01 2.88000E-13-3.33414E-15
 -1      3772 2.58033E+01-2.80476E+00-1.66474E-02 9.65219E-01 3.18405E-13 6.82128E-14
 -1      3773 1.97500E+01-1.60560E+00 3.48579E-02-4.39864E+00 1.60041E-13-2.36812E-13
 -1      3774 2.15896E+01-2.47739E+00-2.70351E-02-3.85232E+00 1.86015E-13-1.83638E-13
 -1      3775 2.56108E+01 2.25137E+00-7.99827E-02-2.07271E+00-2.48281E-13 1.82576E-13
 -1      3776 2.62946E+01 1.11148E+00-1.31422E-02-2.02096E+00-2.02165E-13 1.98551E-13
 -1      3777 2.60045E+01-2.69765E+00 4.63142E-02-7.98132E-01 2.39258E-13-1.86753E-13
 -1      3778 2.59479E+01-1.90962E+00-5.59549E-02 3.37055E-01 1.69644E-13-2.74265E-13
 -1      3779 2.48995E+01-2.79026E+00-1.03080E-02-1.27519E+00 3.63508E-13-1.70217E-13
 -1      3780 1.59995E+01 1.22613E+00-2.40510E-02 2.57395E+00 9.86672E-14-2.86019E-13
 -1      3781 1.68374E+01 1.30224E+00 1.88169E-02 1.96924E+00 7.68303E-14-3.67520E-13
 -1      3782 1.75856E+01 8.80591E-01 1.91465E-02 2.17170E+00 1.66177E-13-2.42486E-13
 -1      3783 1.80044E+01 1.35110E+00-5.69717E-03-4.20736E-01-1.19621E-13-9.31601E-14
 -1      3784 1.74360E+01 1.54795E+00-2.52040E-02-5.29818E-01-1.46603E-13 8.29198E-16
 -1      3785 1.75528E+01 1.40199E+00 3.76716E-02-1.19211E+00-1.25655E-13-6.85030E-14
 -1      3786 1.83099E+01 1.15228E+00 2.03038E-02-6.73241E-01-4.58624E-14-2.58341E-13
 -1      3787 2.58707E+01 1.75875E-02-2.34211E-02-1.55752E+00-4.43916E-14 2.77675E-13
 -1      3788 2.03572E+01 6.13539E-01-3.08038E-05-9.87024E-02-4.44810E-14-2.89881E-14
 -1      3789 2.03507E+01 4.74454E-01-1.27803E-03-3.43047E-02-1.99435E-14-3.00210E-14
 -1      3790 2.03749E+01 4.55841E-01-6.17590E-04-1.96244E-02-8.52486E-15 6.16396E-15
 -1      3791 2.03667E+01 6.71257E-01-1.18458E-03-9.34311E-02-4.17915E-14-6.99649E-15
 -1      3792 1.98657E+01 1.76596E-01-7.91191E-05-7.23191E-03-2.91698E-14-2.52831E-13
 -1      3793 2.03276E+01 1.01920E+00-4.47165E-03 2.03775E-01 4.13374E-14-8.64309E-14
 -1      3794 2.03240E+01 1.11075E+00-5.84530E-04 1.67201E-01 1.62161E-14-8.04528E-14
 -1      3795 2.48646E+01-3.31937E+00 1.50319E-02 2.50827E+00 2.56861E-13 4.20289E-14
 -1      3796 2.42902E+01-3.66162E+00 1.91536E-02 3.62617E+00 2.20917E-13-1.96572E-14
 -1      3797 2.29195E+01-3.29843E+00-9.01307E-03 4.02587E+00 2.19246E-13-8.35903E-14
 -1      3798 1.90790E+01 6.99261E-01 3.31179E-03-4.38657E-01-1.37207E-14-4.37555E-13
 -1      3799 1.88097E+01 7.80492E-01-1.41534E-02-5.91226E-01-8.04152E-14-4.78472E-13
 -1      3800 1.92462E+01 5.55560E-01 6.42938E-03-5.21215E-01-7.14790E-14-5.40574E-13
 -1      3801 2.02411E+01 5.88956E-02-5.87131E-04-1.33916E-01 8.11958E-15-6.34567E-14
 -1      3802 2.02636E+01 1.04357E-01 1.26339E-03-1.14213E-01 2.37469E-14-6.30406E-14
 -1      3803 2.03106E+01 1.56276E-01-3.11419E-04-8.60722E-02 1.76912E-14-4.58316E-14
 -1      3804 2.00164E+01-1.81189E-02-6.63374E-04-8.25874E-02 3.15891E-13-1.54008E-13
 -1      3805 2.21862E+01 3.10402E+00-1.32097E-02-4.71243E-01-1.40649E-13-4.03367E-15
 -1      3806 2.21764E+01 3.20197E+00-2.98280E-03 1.63218E-02-1.71497E-13-2.54716E-14
 -1      3807 2.28112E+01 3.56229E+00-7.31830E-03 3.58586E-01-1.84049E-13-1.19065E-13
 -1      3808 2.00883E+01-1.85238E-02-1.04422E-04-1.52393E-01 1.90067E-14-1.03317E-13
 -1      3809 2.01244E+01-2.40025E-02-6.34872E-05-1.35107E-01 4.88959E-14-1.34844E-13
 -1      3810 2.00683E+01-6.35815E-03-4.42633E-05-1.49729E-01 2.60018E-14-5.71212E-14
 -1      3811 2.00194E+01-2.17198E-02 4.83391E-04-1.00224E-01 1.48328E-13 4.00646E-14
 -1      3812 1.96839E+01 3.10779E-01 3.98817E-03 3.02853E-02-1.04231E-14-1.76145E-13
 -1      3813 1.66084E+01 8.36760E-01-3.25263E-02-2.87133E+00-1.57049E-13-2.28233E-13
 -1      3814 1.72754E+01 2.92104E-01 3.68257E-02-3.54771E+00 7.67155E-14-3.77082E-13
 -1      3815 1.96729E+01 3.35287E-01-3.95539E-03-4.48705E-02 9.28027E-14-1.68315E-13
 -1      3816 1.96599E+01 3.36667E-01 3.49102E-03-1.39555E-01 9.83311E-14-3.88673E-13
 -1      3817 1.97441E+01 2.82883E-01-2.05193E-03-2.64252E-02 4.58314E-14-1.71131E-13
 -1      3818 2.38792E+01 4.50805E+00-5.26204E-02-3.89942E-01-4.90405E-13 4.94656E-15
 -1      3819 2.36168E+01 4.02451E+00-1.00745E-02-8.07523E-01-4.25295E-13 6.10900E-14
 -1      3820 2.28926E+01 3.35460E+00 6.46844E-03-8.55400E-01-2.39065E-13 1.42962E-13
 -1      3821 2.03171E+01 1.18994E+00-1.84205E-03-7.42015E-02-5.17624E-15-8.93273E-14
 -1      3822 2.03183E+01 1.15520E+00-3.12042E-03-1.30269E-01-3.54821E-14-7.57704E-14
 -1      3823 2.48932E+01 2.88064E-01-1.26072E-02-1.76112E+00-4.77231E-14 2.54751E-13
 -1      3824 2.55618E+01-8.89405E-01-1.18131E-02-1.24388E+00 3.02449E-14 2.88637E-13
 -1      3825 1.78500E+01-3.14893E-01-8.54146E-03-3.89063E+00 3.09294E-13-1.35395E-13
 -1      3826 1.87640E+01-1.06569E+00 8.62761E-03-4.37254E+00 2.43064E-13-2.27696E-13
 -1      3827 1.99149E+01-1.18870E+00 3.16324E-02-3.58890E+00 2.03582E-13-6.91550E-14
 -1      3828 1.83377E+01-1.04623E-01 2.35816E-02-3.29920E+00 1.33785E-13-2.79038E-13
 -1      3829 2.02219E+01-2.43458E-03-3.58499E-04-1.36504E-01 2.45145E-14-8.09721E-14
 -1      3830 2.01991E+01 7.39661E-04-2.05811E-04-1.53591E-01-1.62406E-14-7.74196E-14
 -1      3831 2.02201E+01 2.57122E-02 8.42793E-04-1.44463E-01-1.31913E-14-4.43687E-14
 -1      3832 1.98329E+01 2.03137E-01-1.61468E-03-1.09115E-02-9.31502E-15-2.65814E-13
 -1      3833 1.97897E+01 2.42135E-01-1.57007E-03-2.09894E-02-8.64219E-15-2.59651E-13
 -1      3834 1.97735E+01 2.50918E-01 3.45650E-03-8.22206E-02 1.08062E-13-4.47221E-13
 -1      3835 1.98461E+01 1.81597E-01 2.06826E-03-6.56911E-02-6.31130E-14-3.21043E-13
 -1      3836 1.94494E+01-2.12296E+00 6.63802E-02 5.38030E+00 1.50447E-13-3.21384E-13
 -1      3837 1.84512E+01-1.28634E+00-4.16734E-03 4.83833E+00 1.79226E-13-3.15501E-13
 -1      3838 2.07497E+01-2.44546E+00 1.13379E-02 4.71020E+00 2.32485E-13-1.89114E-13
 -1      3839 2.49328E+01 2.80801E+00-8.01481E-03-1.88377E+00-4.04690E-13 3.12819E-13
 -1      3840 2.44083E+01 2.05560E+00 3.71554E-03 1.95076E+00-7.55195E-14-4.21716E-13
 -1      3841 2.38346E+01 3.05766E+00-4.29427E-02 1.61456E+00-1.49037E-13-3.25494E-13
 -1      3842 2.03209E+01 1.14778E+00-3.22199E-03 1.27740E-01 1.98581E-14-1.21478E-13
 -1      3843 2.03192E+01 1.18317E+00-1.75585E-03 7.17834E-02 1.51670E-14-1.58563E-13
 -1      3844 2.03699E+01 9.39855E-01 4.51128E-03 1.02785E-01 3.07360E-14-1.09687E-13
 -1      3845 2.00151E+01 3.24537E-02-3.45826E-04-1.39810E-01 1.93606E-14-6.10049E-14
 -1      3846 2.00395E+01 1.06146E-02-3.39988E-04-1.43215E-01 3.04912E-14-6.05778E-14
 -1      3847 2.00712E+01-6.56088E-04 2.69967E-04-1.24552E-01 1.47542E-14-1.47488E-13
 -1      3848 2.00097E+01 4.26945E-02 7.98358E-04-1.08015E-01-2.45629E-15-3.20168E-14
 -1      3849 2.03117E+01 3.22961E-01-1.65999E-03-1.99823E-02 6.91069E-15-5.52868E-14
 -1      3850 2.03332E+01 4.31198E-01 2.26113E-03 3.98591E-02-3.00541E-15-7.32016E-14
 -1      3851 2.03425E+01 3.16682E-01-1.58220E-04-2.54153E-02 2.72017E-14-6.88061E-14
 -1      3852 2.52058E+01-1.27259E+00-1.71188E-02 8.17585E-01 6.46839E-14-4.20649E-13
 -1      3853 2.03236E+01 1.11641E+00-8.31160E-04-1.52553E-01-4.91954E-14-3.54993E-14
 -1      3854 2.03273E+01 1.05427E+00-2.90633E-03-1.87724E-01-7.12572E-14-1.74275E-14
 -1      3855 2.03671E+01 8.54210E-01 3.20804E-03-1.23600E-01-5.52054E-14-2.38229E-15
 -1      3856 2.03706E+01 9.47254E-01 4.43299E-03-9.39635E-02-3.39659E-14-4.05951E-14
 -1      3857 2.52392E+01-1.37732E+00-1.13885E-02-7.59259E-01 1.10642E-13 1.68887E-13
 -1      3858 2.03278E+01 5.73729E-01-2.43139E-03 9.24485E-02 2.40304E-14-7.17216E-14
 -1      3859 2.03343E+01 8.32211E-01-3.94226E-04 2.24099E-01 5.74290E-14-9.12658E-14
 -1      3860 2.03354E+01 9.49867E-01 2.37554E-03 2.10078E-01 4.43177E-14-6.59217E-14
 -1      3861 2.03546E+01 5.59267E-01-2.63367E-03 7.09911E-02 5.10808E-15-6.43237E-14
 -1      3862 2.25381E+01-2.60658E+00 4.24512E-02-3.28015E+00 2.14312E-13-1.17742E-13
 -1      3863 2.31351E+01-2.70974E+00-3.16288E-02-2.52150E+00 3.09096E-13-1.19640E-13
 -1      3864 2.13811E+01-2.00070E+00-1.93808E-02-3.20069E+00 5.39751E-14-2.47160E-13
 -1      3865 1.72860E+01 9.67122E-01 7.80629E-03-2.25696E+00-9.56128E-14-6.78320E-14
 -1      3866 1.64751E+01 7.67552E-01 3.83676E-02 3.30160E+00 1.04277E-13-4.23604E-13
 -1      3867 2.45008E+01 1.07698E+00-2.31243E-02 1.92996E+00-1.37691E-13-4.66959E-13
 -1      3868 1.98910E+01 1.19442E-01 1.82338E-03-1.16230E-01-9.00246E-14-5.22524E-13
 -1      3869 1.98633E+01 1.41478E-01-1.93337E-03-9.58310E-02-1.04064E-13-3.57190E-13
 -1      3870 1.98351E+01 1.70397E-01-5.67426E-04-1.06263E-01-2.18202E-13-3.98908E-13
 -1      3871 2.03626E+01 1.63395E-01 5.54072E-04 5.70535E-02-4.03596E-14-3.10151E-14
 -1      3872 2.03415E+01 1.00821E-01-5.52736E-04 7.43961E-02-5.23343E-14-1.66326E-14
 -1      3873 1.80391E+01 3.23553E-01-2.20205E-02 2.59859E+00 1.70520E-13-2.88889E-13
 -1      3874 1.84114E+01 4.86911E-01 1.81300E-02 2.05493E+00 1.74216E-13-2.47624E-13
 -1      3875 1.99192E+01 1.01062E-01-1.81601E-03-3.58341E-02-1.81825E-14-5.49313E-14
 -1      3876 1.99662E+01 6.92311E-02 1.35839E-04-5.32611E-02 2.74168E-15-3.26109E-14
 -1      3877 2.45016E+01-1.20060E+00 9.96625E-03-9.20183E-01 1.25778E-13 1.82618E-13
 -1      3878 2.49708E+01-2.03884E+00-2.24931E-02-1.61461E-01 2.25967E-13 9.40316E-14
 -1      3879 2.03209E+01 5.17194E-02 5.08869E-04 8.22475E-02-2.36889E-14-3.07910E-14
 -1      3880 2.02974E+01 1.27434E-02-1.40162E-04 9.19794E-02-4.01667E-14-1.57766E-14
 -1      3881 2.03506E+01 8.79246E-02-2.06919E-05 5.93939E-02-2.63030E-14-6.22808E-14
 -1      3882 2.02730E+01-1.67943E-02 3.69271E-04 9.60917E-02-6.01779E-14-4.97130E-15
 -1      3883 2.02498E+01-3.91356E-02 1.81391E-04 1.01053E-01-8.87698E-14 3.51940E-14
 -1      3884 2.03032E+01 4.07067E-03-3.17998E-04 7.30879E-02-4.05248E-14-5.15281E-14
 -1      3885 2.02246E+01-5.53226E-02 2.33439E-04 1.03539E-01-1.16579E-13 8.24233E-14
 -1      3886 2.02037E+01-6.67999E-02 4.43327E-04 1.06227E-01-1.06563E-13 1.04247E-13
 -1      3887 2.02526E+01-4.42632E-02-4.99323E-04 8.15839E-02-7.62549E-14 2.80590E-14
 -1      3888 2.01797E+01-7.48896E-02 1.23052E-04 1.09042E-01-9.06229E-14 1.47123E-13
 -1      3889 2.01628E+01-8.03797E-02 6.87174E-04 1.11542E-01-3.99664E-14 1.70767E-13
 -1      3890 2.02033E+01-6.89197E-02-6.06480E-04 8.88840E-02-6.55906E-14 1.39600E-13
 -1      3891 2.01421E+01-8.49957E-02 4.64840E-05 1.16568E-01 1.66014E-15 1.27965E-13
 -1      3892 2.01309E+01-8.89036E-02 9.67167E-04 1.20595E-01 1.03936E-14 1.75272E-13
 -1      3893 2.01591E+01-8.00890E-02-7.04729E-04 9.87798E-02-2.54652E-14 1.29159E-13
 -1      3894 2.01153E+01-9.43397E-02 1.82106E-05 1.29692E-01-2.81113E-14 1.97679E-13
 -1      3895 2.01124E+01-1.01041E-01 1.31168E-03 1.36743E-01 2.41110E-14 1.67493E-13
 -1      3896 2.01236E+01-8.70145E-02-8.86423E-04 1.15077E-01-1.04459E-14 1.41684E-13
 -1      3897 2.01048E+01-1.11746E-01 9.21331E-05 1.51761E-01 9.71649E-14 1.97779E-13
 -1      3898 2.01137E+01-1.25932E-01 1.74086E-03 1.63013E-01 1.34398E-13 1.70029E-13
 -1      3899 2.01013E+01-9.87359E-02-1.23804E-03 1.41906E-01 7.40284E-14 1.68717E-13
 -1      3900 2.01184E+01-1.46881E-01 3.54583E-04 1.85752E-01 1.11676E-13 1.03134E-13
 -1      3901 2.01441E+01-1.74002E-01 2.25183E-03 2.01747E-01 6.19060E-14 1.44346E-13
 -1      3902 2.00990E+01-1.24991E-01-1.81486E-03 1.83460E-01 9.24154E-14 1.51100E-13
 -1      3903 2.01679E+01-2.10881E-01 9.29220E-04 2.33361E-01 4.27958E-14 1.94589E-13
 -1      3904 2.02173E+01-2.57203E-01 2.77949E-03 2.53386E-01 1.49477E-14 2.26474E-13
 -1      3905 2.01269E+01-1.77533E-01-2.75149E-03 2.43588E-01 1.18093E-13 9.61381E-14
 -1      3906 2.02705E+01-3.16251E-01 2.00535E-03 2.93415E-01-2.10555E-14 2.85020E-13
 -1      3907 2.03524E+01-3.88512E-01 3.14502E-03 3.14358E-01 3.43384E-14 2.48970E-13
 -1      3908 2.02010E+01-2.70357E-01-4.20549E-03 3.24280E-01 3.03103E-14 1.20017E-13
 -1      3909 2.04497E+01-4.75493E-01 3.80885E-03 3.58744E-01 3.49781E-14 2.31598E-13
 -1      3910 2.05738E+01-5.79264E-01 2.98897E-03 3.73421E-01 3.97557E-14 1.92459E-13
 -1      3911 2.03443E+01-4.19234E-01-6.29379E-03 4.22800E-01-1.67432E-14 1.08194E-13
 -1      3912 2.07343E+01-6.96941E-01 6.53659E-03 4.11525E-01 6.99599E-14 1.22933E-13
 -1      3913 2.09089E+01-8.32774E-01 1.85381E-03 4.06616E-01 6.77505E-14 6.50616E-14
 -1      3914 2.05885E+01-6.38871E-01-9.05731E-03 5.26643E-01 1.36344E-14-2.22764E-14
 -1      3915 2.11532E+01-9.75592E-01 1.01453E-02 4.17919E-01 3.17933E-14 7.81509E-14
 -1      3916 2.13806E+01-1.13242E+00-9.74910E-04 3.72867E-01-2.19899E-14 8.36094E-14
 -1      3917 2.09714E+01-9.34135E-01-1.20627E-02 6.05914E-01 5.03601E-14-9.52548E-14
 -1      3918 2.17257E+01-1.27745E+00 1.42589E-02 3.23876E-01-5.86582E-14 1.43393E-13
 -1      3919 2.19967E+01-1.41970E+00-5.03544E-03 2.12918E-01 8.56997E-15 1.50916E-13
 -1      3920 2.15290E+01-1.28576E+00-1.45097E-02 6.09414E-01-8.56541E-15-9.25568E-14
 -1      3921 2.24345E+01-1.51039E+00 1.70462E-02 6.07511E-02 5.59457E-14 1.95348E-13
 -1      3922 2.27028E+01-1.57035E+00-1.00914E-02-1.24840E-01 9.36135E-14 2.56159E-13
 -1      3923 2.22731E+01-1.61777E+00-1.60658E-02 4.45534E-01 4.76684E-14 2.76790E-14
 -1      3924 2.34390E+01-1.55137E+00 5.91140E-03-4.70714E-01 1.82700E-13 1.99396E-13
 -1      3925 2.36951E+01-1.31864E+00-1.61366E-04-7.68841E-01 1.77527E-13 3.61374E-13
 -1      3926 2.38573E+01-8.20042E-01-1.96712E-02-1.25561E+00 4.50206E-14 4.65507E-13
 -1      3927 2.39873E+01-2.44934E-01 5.38961E-03-1.53959E+00-4.45997E-14 5.45649E-13
 -1      3928 2.42170E+01 5.34098E-01-1.86668E-02-1.80865E+00-7.39808E-14 4.59601E-13
 -1      3929 2.41654E+01 1.36913E+00-2.34718E-02-1.94949E+00-1.73620E-13 5.03620E-13
 -1      3930 2.40449E+01 2.26733E+00-3.50339E-03-1.77435E+00-2.88960E-13 3.57712E-13
 -1      3931 2.36734E+01-1.09326E+00-7.73566E-03 9.81766E-01 3.88093E-14-6.22862E-13
 -1      3932 2.34903E+01-1.38182E+00 8.55616E-03 7.01708E-01 6.75952E-14-5.82136E-13
 -1      3933 2.30116E+01-1.52761E+00-1.44409E-02 3.49314E-01 2.72822E-14-4.74585E-13
 -1      3934 2.27516E+01-1.54067E+00 1.65603E-02 1.19932E-01-5.44563E-14-3.72690E-13
 -1      3935 2.35632E+01-1.71890E+00-1.26903E-02 2.14376E-01 5.30578E-14-4.82636E-13
 -1      3936 2.22778E+01-1.49155E+00-8.79865E-03-8.98203E-02-1.22009E-13-2.45776E-13
 -1      3937 2.20005E+01-1.37140E+00 1.54914E-02-2.31521E-01-5.42411E-14-1.72202E-13
 -1      3938 2.26322E+01-1.71321E+00-1.85198E-02-3.16559E-01 1.76367E-15-8.64819E-14
 -1      3939 2.16115E+01-1.23719E+00-2.77336E-03-3.19540E-01-8.14768E-14-2.25358E-13
 -1      3940 2.13618E+01-1.07673E+00 1.18610E-02-3.86279E-01-3.78734E-15-1.09398E-13
 -1      3941 2.18085E+01-1.41842E+00-1.74818E-02-5.62946E-01-3.24637E-14 1.60198E-13
 -1      3942 2.10742E+01-9.25096E-01 9.71545E-04-3.94346E-01 6.65568E-14-1.07138E-13
 -1      3943 2.08737E+01-7.73873E-01 7.84594E-03-4.10552E-01 9.67511E-14-8.30511E-14
 -1      3944 2.11650E+01-1.05013E+00-1.41729E-02-6.15844E-01 2.08187E-14 2.40593E-14
 -1      3945 2.06783E+01-6.40005E-01 2.71307E-03-3.77956E-01 2.08249E-13-1.10870E-13
 -1      3946 2.05299E+01-5.18146E-01 4.57364E-03-3.66837E-01 2.72494E-13-1.06576E-13
 -1      3947 2.07074E+01-7.15393E-01-1.03381E-02-5.56244E-01 1.42435E-13 7.63240E-14
 -1      3948 2.04051E+01-4.13438E-01 3.09122E-03-3.20641E-01 2.55251E-13-5.51848E-14
 -1      3949 2.03018E+01-3.23734E-01 2.37685E-03-2.98228E-01 3.18802E-13 7.64350E-14
 -1      3950 2.04036E+01-4.53696E-01-6.99775E-03-4.52882E-01 2.77229E-13 8.45184E-14
 -1      3951 2.02266E+01-2.48001E-01 2.81101E-03-2.52777E-01 3.34201E-13 9.29581E-14
 -1      3952 2.01586E+01-1.85978E-01 1.13528E-03-2.28409E-01 1.97695E-13 1.14774E-13
 -1      3953 2.02123E+01-2.66031E-01-4.42037E-03-3.45224E-01 3.49609E-13 1.12381E-13
 -1      3954 2.01157E+01-1.34706E-01 2.12428E-03-1.89531E-01-2.63480E-14 3.34807E-13
 -1      3955 2.00739E+01-9.41649E-02 4.49911E-04-1.67499E-01-3.16269E-14 2.78302E-13
 -1      3956 2.00980E+01-1.39464E-01-2.67583E-03-2.51572E-01 1.74639E-13 2.97134E-13
 -1      3957 2.00549E+01-6.54313E-02 1.52383E-03-1.39330E-01-1.49720E-15 6.41600E-14
 -1      3958 2.00299E+01-3.86783E-02 3.05136E-04-1.21383E-01 8.21843E-15-4.38264E-14
 -1      3959 2.00106E+01-1.84016E-02-5.75314E-05-1.26690E-01 1.04200E-13 2.93189E-13
 -1      3960 2.00386E+01-6.58247E-02-2.14186E-03-1.78696E-01-1.99295E-13 3.86704E-13
 -1      3961 2.03688E+01 8.09821E-01 4.06929E-03 1.35091E-01 3.20644E-14-6.64267E-14
 -1      3962 1.69136E+01 1.83991E-01-9.40960E-03 3.76247E+00 1.56291E-13-4.17251E-13
 -1      3963 1.77371E+01 2.76870E-01 1.00734E-02 3.11099E+00 1.58357E-13-2.90436E-13
 -1      3964 1.86544E+01-9.14536E-02 2.82999E-02 2.96212E+00 1.66593E-13-1.99919E-13
 -1      3965 1.78489E+01-4.68900E-01 4.31324E-02 4.26929E+00 1.83752E-13-3.83513E-13
 -1      3966 1.91844E+01 5.04694E-01-1.11663E-02 5.54560E-01 4.60568E-14 2.13310E-14
 -1      3967 1.93737E+01 4.54481E-01 4.36678E-03 4.11971E-01 4.80854E-14-5.91495E-14
 -1      3968 1.94545E+01 3.91739E-01-7.70617E-03 2.87659E-01 1.28197E-14-1.30001E-13
 -1      3969 1.95893E+01 3.37620E-01 2.28359E-03 2.02153E-01 4.13727E-14-1.39626E-13
 -1      3970 1.95154E+01 3.23440E-01 2.85101E-03 4.54710E-01-2.70783E-14-1.01320E-13
 -1      3971 1.84339E+01 5.68357E-01-1.85470E-02 1.63401E+00 1.30245E-13-2.02949E-13
 -1      3972 1.87649E+01 6.04782E-01 1.37246E-02 1.26952E+00 1.07858E-13-1.12379E-13
 -1      3973 1.89496E+01 1.35430E-01-2.41897E-03 2.00517E+00 1.62594E-13-1.38347E-13
 -1      3974 1.96589E+01 2.78467E-01-5.05956E-03 1.22357E-01 4.12606E-14-1.48626E-13
 -1      3975 1.97547E+01 2.28356E-01 1.09679E-03 7.10477E-02-1.83001E-14-1.63295E-13
 -1      3976 1.96814E+01 2.48049E-01 2.32269E-03 2.39822E-01 2.59592E-14-1.42295E-13
 -1      3977 2.32976E+01 4.14630E+00 1.15939E-04 1.50159E-01-2.81398E-13-1.38273E-13
 -1      3978 2.37188E+01 3.48344E+00-5.45649E-02-1.40808E+00-4.48244E-13 2.21600E-13
 -1      3979 2.53121E+01-2.45772E+00 2.49787E-02 5.88156E-01 2.11991E-13 6.04855E-14
 -1      3980 2.52705E+01-3.07088E+00-7.91457E-03 1.56920E+00 2.41297E-13 4.22145E-14
 -1      3981 2.43379E+01-3.04364E+00-9.11365E-03 2.15856E+00 1.51124E-13 1.78910E-14
 -1      3982 2.37325E+01 3.77296E+00-8.89934E-03 1.22633E+00-2.28706E-13-2.57112E-13
 -1      3983 2.33412E+01 3.90181E+00-2.51632E-02 7.64914E-01-2.64837E-13-2.46393E-13
 -1      3984 2.01863E+01-3.11686E-02-1.02039E-04-1.16905E-01 3.99917E-14-9.44828E-14
 -1      3985 2.02116E+01-2.44835E-02 3.55687E-04-1.16805E-01 1.84994E-14-8.00935E-14
 -1      3986 2.41605E+01-2.64610E+00 5.05001E-02-1.62081E+00 4.38727E-13-9.83480E-14
 -1      3987 2.45028E+01-2.40188E+00-3.22786E-02-6.37394E-01 3.16363E-13-1.40946E-13
 -1      3988 1.99482E+01 5.37728E-02 1.65557E-03-1.37373E-01 1.50453E-13 8.80460E-14
 -1      3989 1.99175E+01 7.75432E-02-1.40764E-03-1.29059E-01-3.52721E-14-3.20711E-13
 -1      3990 1.98968E+01 9.60949E-02-3.51977E-04-1.49648E-01-1.13803E-13-4.14071E-13
 -1      3991 1.96070E+01 3.30706E-01 3.01673E-03-3.01074E-01 1.49067E-13-4.85976E-13
 -1      3992 1.94946E+01 3.60704E-01-7.50692E-03-3.96453E-01 1.68694E-13-4.19123E-13
 -1      3993 2.40631E+01 2.68325E-01 5.60794E-03 1.70078E+00-1.32847E-13-5.86654E-13
 -1      3994 2.03166E+01 1.19851E+00-2.71651E-03 2.92508E-02 1.72373E-14-1.74675E-13
 -1      3995 2.03166E+01 1.19938E+00-2.47817E-03-3.06073E-02 7.40146E-15-1.31391E-13
 -1      3996 2.03700E+01 1.00149E+00 4.45427E-03-3.82094E-02 6.72421E-15-1.03837E-13
 -1      3997 2.03718E+01 9.95641E-01 4.54950E-03 3.46190E-02 2.19637E-14-1.66743E-13
 -1      3998 1.98093E+01 1.79760E-01-3.12907E-03 2.31314E-02-2.78902E-14-8.55003E-14
 -1      3999 1.98746E+01 1.39224E-01 4.00548E-04-6.03770E-03-9.24480E-15-8.18711E-14
 -1      4000 1.98138E+01 1.69780E-01 1.86248E-03 1.04832E-01 3.06250E-14-1.05125E-13
 -1      4001 1.88398E+01 5.85633E-01-1.51935E-02 9.79346E-01 8.73356E-14-8.75382E-14
 -1      4002 1.90972E+01 5.59537E-01 8.01344E-03 7.47529E-01 6.10522E-14-9.37851E-15
 -1      4003 1.93195E+01 3.67719E-01 2.41606E-03 7.85893E-01 7.74663E-14 5.89416E-15
 -1      4004 1.91111E+01 3.33007E-01 2.83423E-04 1.28525E+00 1.37284E-13-4.00905E-15
 -1      4005 2.03913E+01 3.33609E-01 6.66642E-04 1.47265E-02-2.01762E-15-1.35123E-14
 -1      4006 2.03759E+01 2.39894E-01-1.06879E-03 4.35638E-02-1.59667E-14-2.79500E-14
 -1      4007 2.03883E+01 2.20754E-01 1.87835E-04 3.64376E-02-2.83001E-14-1.94833E-14
 -1      4008 2.47859E+01-1.90586E+00 2.80147E-02 2.21909E-01 1.74815E-13-3.01478E-13
 -1      4009 2.44600E+01-9.33939E-01-9.56954E-03 1.13248E+00-6.25064E-15-5.73273E-13
 -1      4010 1.99876E+01 4.93754E-03-3.76740E-04-1.33389E-01 1.13143E-13 1.67646E-13
 -1      4011 1.76442E+01 9.24770E-01-3.18122E-02-1.79113E+00-6.31110E-14-2.56832E-13
 -1      4012 1.80793E+01 4.97568E-01 2.11474E-02-2.46934E+00-3.59721E-14-4.25628E-13
 -1      4013 2.40480E+01-4.28202E-01-8.31512E-03 1.49400E+00-7.00592E-14-6.99553E-13
 -1      4014 2.27685E+01-2.77673E+00 1.36725E-02 3.30502E+00 1.73456E-13-6.33786E-14
 -1      4015 2.18906E+01-2.71865E+00 3.72863E-02 4.16441E+00 2.47870E-13-2.07310E-13
 -1      4016 2.07051E+01-2.06983E+00-1.81261E-02 4.04016E+00 2.65557E-13-1.64009E-13
 -1      4017 1.94474E+01 3.96860E-01 5.36059E-03-5.28218E-01 9.98843E-15-3.54612E-13
 -1      4018 1.92906E+01 4.18352E-01-9.55805E-03-6.89672E-01-1.17003E-13-3.91264E-13
 -1      4019 1.95836E+01 2.70191E-01 1.43916E-03-5.41077E-01 1.39975E-13-4.19708E-13
 -1      4020 2.02685E+01 5.46844E-02-3.53529E-04-1.20707E-01 3.45833E-15-3.36795E-14
 -1      4021 1.84029E+01 7.47997E-02-1.82683E-02-2.73451E+00 5.61140E-15-3.48707E-13
 -1      4022 1.90697E+01-4.06032E-01 4.18537E-03-3.01488E+00 1.27441E-13-1.74597E-13
 -1      4023 1.88017E+01 2.11341E-01 1.97424E-02-2.20819E+00-5.14851E-14-3.82747E-13
 -1      4024 2.00003E+01 4.27260E-02 7.08568E-04-2.87012E-02-2.31597E-14-5.46026E-14
 -1      4025 2.00035E+01 4.07675E-02-9.54848E-04-7.20208E-02-3.49371E-14-7.24512E-14
 -1      4026 2.00396E+01 1.75611E-02 1.49684E-04-8.26516E-02-3.96602E-14-1.09090E-13
 -1      4027 2.45500E+01-2.22073E+00 1.53964E-02 3.85942E-01 1.74256E-13 8.78681E-14
 -1      4028 2.34305E+01-1.82823E+00-1.71904E-02 2.11404E-02 1.68021E-13 1.97647E-13
 -1      4029 1.99170E+01 9.98657E-02 1.22965E-03 2.23556E-02-1.01139E-14 2.87797E-14
 -1      4030 2.01316E+01-2.66084E-02-1.97246E-04-1.09405E-01 7.97927E-14-1.00238E-13
 -1      4031 2.01579E+01-3.13314E-02 1.93360E-04-1.12771E-01 6.82459E-14-8.22439E-14
 -1      4032 2.01915E+01-3.29932E-02-2.31744E-04-9.12584E-02 6.13590E-14-5.46899E-14
 -1      4033 2.03617E+01 2.90478E-01-1.46611E-03-3.71288E-02 1.59824E-14-6.88047E-14
 -1      4034 2.03761E+01 3.90821E-01-5.24755E-04 3.39800E-03 1.27487E-14-7.51199E-14
 -1      4035 1.89096E+01-9.47641E-01 9.34782E-04 4.01684E+00 2.32110E-13-2.12667E-13
 -1      4036 2.31212E+01-2.37616E+00 5.69920E-03-1.85724E+00 3.19701E-13-1.39591E-13
 -1      4037 1.97253E+01 2.58790E-01-1.37516E-04-1.63628E-01 1.36784E-13-7.96592E-13
 -1      4038 1.96493E+01 2.94045E-01-4.79427E-03-2.19043E-01 5.38591E-14-7.26353E-13
 -1      4039 1.96928E+01 2.46215E-01 2.00659E-03-3.19804E-01 2.18834E-13-7.01608E-13
 -1      4040 1.81186E+01 9.28538E-01 7.54344E-03-1.43462E+00 6.38658E-14-3.32700E-13
 -1      4041 1.96224E+01-8.05598E-01 4.16330E-03-3.09128E+00 2.68072E-13-3.93262E-14
 -1      4042 2.04567E+01-1.32117E+00 1.31011E-02-3.13363E+00 1.63283E-13-1.06311E-13
 -1      4043 1.97257E+01-5.28443E-01 2.47637E-02-2.54289E+00 1.12890E-13-9.28936E-14
 -1      4044 1.99795E+01 9.60187E-03 3.44435E-04-1.58703E-01-1.25567E-13 1.90357E-13
 -1      4045 2.03811E+01 7.45870E-01-2.81222E-03 8.46858E-02 2.69713E-14-9.06867E-14
 -1      4046 2.03847E+01 7.89659E-01-1.36672E-03 5.80607E-02 2.42494E-14-1.32500E-13
 -1      4047 2.02476E+01-1.57985E-02-2.83025E-04-9.45833E-02 2.37210E-15-7.23120E-14
 -1      4048 2.02384E+01-1.11820E-02-2.21626E-04-1.17243E-01 4.94112E-15-9.60169E-14
 -1      4049 2.02637E+01 1.08654E-02 5.94429E-04-1.11983E-01 1.42397E-14-6.53865E-14
 -1      4050 2.03302E+01 1.36756E-01-9.40086E-04-8.29706E-02 1.67894E-14-7.43293E-14
 -1      4051 2.03528E+01 2.06124E-01 1.25822E-03-5.76581E-02 9.20302E-15-4.99642E-14
 -1      4052 2.03797E+01 2.70263E-01-1.10491E-03-3.52025E-02-6.20282E-15-7.86488E-14
 -1      4053 2.39670E+01-2.03101E+00-1.46542E-02-2.07319E-01 2.08168E-13-2.56104E-13
 -1      4054 2.03832E+01 8.03366E-01-1.16849E-03-5.72210E-02-1.10539E-14-2.34079E-14
 -1      4055 2.03822E+01 7.60502E-01-2.77792E-03-7.22246E-02-3.35359E-14-1.78719E-14
 -1      4056 1.89340E+01 6.45440E-01 5.46190E-03-8.85842E-01 4.59468E-14-6.84208E-13
 -1      4057 1.86562E+01 8.64884E-01 5.75299E-03-7.87959E-01-2.28996E-14-5.05764E-13
 -1      4058 1.82965E+01 9.29518E-01-2.12651E-02-1.00346E+00 7.28284E-14-3.98664E-13
 -1      4059 2.03745E+01 7.20115E-01-4.10881E-05-8.62067E-02-3.43043E-14 2.79849E-15
 -1      4060 2.03935E+01 4.95440E-01-5.18045E-04-1.71803E-02-3.86111E-17-9.16301E-15
 -1      4061 2.04069E+01 4.63264E-01 1.61084E-04-7.37627E-03-3.67931E-15 8.16563E-15
 -1      4062 2.11000E+01-1.65515E+00-3.50238E-02-2.73487E+00 1.56862E-13-2.10151E-13
 -1      4063 2.03889E+01 8.24887E-01-1.66501E-03-6.46144E-03 5.42066E-15-1.29543E-13
 -1      4064 2.03872E+01 8.15604E-01-2.03980E-03-3.71994E-02-1.63202E-15-8.00332E-14
 -1      4065 2.04131E+01 6.59628E-01 2.87920E-03-1.98908E-02-6.62908E-15-4.66599E-14
 -1      4066 2.03948E+01 6.03369E-01 2.44064E-03-4.81186E-02-2.03480E-14-3.28124E-15
 -1      4067 2.03286E+01 2.27597E-02 2.32978E-04 4.77577E-02-6.81760E-15-1.73801E-14
 -1      4068 2.03037E+01-9.30307E-03 2.25698E-04 5.41439E-02-1.03328E-14-2.26742E-14
 -1      4069 2.02762E+01-3.29926E-02 1.14130E-04 5.59769E-02-3.24500E-14-1.34241E-14
 -1      4070 2.02512E+01-4.94413E-02 5.01515E-04 6.09509E-02-3.89550E-14 4.91760E-14
 -1      4071 2.02966E+01-1.72725E-02-6.95485E-04 3.17701E-02-6.35458E-15 1.83985E-14
 -1      4072 2.02230E+01-6.10403E-02 4.08836E-06 6.39760E-02-3.22768E-14 6.56850E-14
 -1      4073 2.01996E+01-6.75695E-02 5.88864E-04 6.90770E-02-3.49702E-14 9.48980E-14
 -1      4074 2.02417E+01-5.19149E-02-7.11552E-04 3.97488E-02-9.32157E-15 4.09621E-14
 -1      4075 2.01727E+01-7.16425E-02-8.34420E-05 7.54260E-02-6.16859E-14 1.00007E-13
 -1      4076 2.01534E+01-7.30186E-02 8.87715E-04 8.26001E-02-2.35779E-14 7.87058E-14
 -1      4077 2.01871E+01-6.45567E-02-5.73721E-04 5.13238E-02-2.58072E-14 6.05300E-14
 -1      4078 2.01285E+01-7.40825E-02-2.70085E-04 9.35582E-02 1.81823E-14 9.45664E-14
 -1      4079 2.01158E+01-7.40333E-02 1.48600E-03 1.05129E-01 3.58939E-14 1.43309E-13
 -1      4080 2.01370E+01-6.55462E-02-6.40884E-04 6.99758E-02 4.46798E-15 7.85513E-14
 -1      4081 2.00940E+01-7.66493E-02-5.20085E-04 1.22907E-01 5.15712E-14 1.22968E-13
 -1      4082 2.00906E+01-7.94460E-02 2.08498E-03 1.41160E-01 9.86765E-14 1.31316E-13
 -1      4083 2.00937E+01-6.35776E-02-1.06149E-03 1.00742E-01 7.19062E-14 1.15902E-13
 -1      4084 2.00747E+01-8.81639E-02-6.44370E-04 1.69299E-01 6.42469E-14 1.32874E-13
 -1      4085 2.00850E+01-9.89823E-02 2.93195E-03 1.96609E-01 6.29377E-14 1.09981E-13
 -1      4086 2.00602E+01-6.59446E-02-1.71309E-03 1.49862E-01 6.89275E-14 4.51232E-14
 -1      4087 2.00793E+01-1.19550E-01-6.20022E-04 2.38543E-01 8.58663E-14 9.05838E-14
 -1      4088 2.01101E+01-1.44790E-01 4.02134E-03 2.77106E-01 8.70527E-14 4.67532E-14
 -1      4089 2.00439E+01-8.37973E-02-2.72811E-03 2.24139E-01 5.50419E-14 4.40938E-14
 -1      4090 2.01220E+01-1.84210E-01-1.75428E-04 3.36299E-01 6.53414E-14-1.01983E-14
 -1      4091 2.01829E+01-2.32203E-01 5.33735E-03 3.87312E-01 3.61063E-14-5.76806E-15
 -1      4092 2.00554E+01-1.31178E-01-4.61987E-03 3.31915E-01 5.91536E-14-3.23067E-14
 -1      4093 2.02253E+01-2.99565E-01 9.86282E-04 4.65690E-01-1.10436E-14-2.52501E-15
 -1      4094 2.03293E+01-3.80524E-01 6.57759E-03 5.27130E-01-4.97494E-14-1.76353E-14
 -1      4095 2.01132E+01-2.27210E-01-7.98396E-03 4.80770E-01 1.88249E-14-1.17308E-13
 -1      4096 2.04229E+01-4.85446E-01 3.43509E-03 6.22757E-01 1.80188E-15-4.30396E-14
 -1      4097 2.05861E+01-6.10481E-01 7.28268E-03 6.86604E-01 3.96342E-14-5.48407E-14
 -1      4098 2.02474E+01-3.95099E-01-1.30422E-02 6.73727E-01-4.35610E-14-2.20945E-14
 -1      4099 2.07623E+01-7.61925E-01 7.71732E-03 7.87826E-01 4.53484E-14 9.06369E-15
 -1      4100 2.09975E+01-9.38784E-01 5.33594E-03 8.35403E-01 8.97697E-14-7.04482E-15
 -1      4101 2.05050E+01-6.63043E-01-2.00811E-02 9.02137E-01 7.84678E-14-4.26616E-14
 -1      4102 2.12994E+01-1.13026E+00 1.55193E-02 9.08049E-01 5.47966E-14-2.18819E-14
 -1      4103 2.16130E+01-1.34913E+00 1.71296E-03 9.04550E-01 1.26106E-14 2.85048E-15
 -1      4104 2.09638E+01-1.05145E+00-2.46549E-02 1.13274E+00 1.11291E-13-1.21620E-14
 -1      4105 2.20763E+01-1.57368E+00 1.99556E-02 9.23423E-01 6.32811E-14-1.99939E-14
 -1      4106 2.25044E+01-1.77592E+00 4.37987E-03 8.00212E-01 1.32242E-13 1.73180E-14
 -1      4107 2.16480E+01-1.50768E+00-2.53997E-02 1.27338E+00 6.00785E-14 2.64008E-14
 -1      4108 1.99138E+01 7.83584E-02-2.59895E-03 7.43034E-02 1.05007E-14-1.23965E-13
 -1      4109 1.99652E+01 5.56320E-02 1.34855E-03 4.15692E-02-7.28885E-15-6.71312E-14
 -1      4110 2.35423E+01-2.01418E+00 3.45946E-02-5.15369E-01 1.39835E-13-1.02685E-13
 -1      4111 1.98998E+01-1.32904E+00 3.66482E-02 3.84366E+00 2.10285E-13-1.98584E-13
 -1      4112 1.90731E+01-7.26248E-01-2.70707E-02 3.41094E+00 1.52266E-13-2.10691E-13
 -1      4113 2.08056E+01-1.68805E+00 3.96620E-03 3.36577E+00 1.59556E-13-2.56457E-13
 -1      4114 2.28349E+01-1.89929E+00-7.31527E-03-7.31473E-01 1.94154E-13 3.36725E-14
 -1      4115 2.24232E+01-1.69432E+00 3.16560E-02-8.79352E-01 9.97167E-14 1.60564E-13
 -1      4116 2.30377E+01-2.21628E+00-4.68461E-02-1.20593E+00 2.80260E-13 5.91745E-14
 -1      4117 2.18944E+01-1.49070E+00 3.08930E-03-9.21359E-01-7.83408E-14 2.04634E-13
 -1      4118 2.15243E+01-1.26475E+00 1.53515E-02-9.60010E-01 1.07110E-14 1.70692E-13
 -1      4119 2.19307E+01-1.72323E+00-3.72361E-02-1.35968E+00 8.89638E-14 6.94484E-14
 -1      4120 2.11831E+01-1.04113E+00 9.20645E-03-8.83591E-01-8.23676E-14 2.06662E-13
 -1      4121 2.08983E+01-8.49461E-01 8.31107E-03-8.52965E-01-2.56763E-14 1.78510E-13
 -1      4122 2.10916E+01-1.14509E+00-2.66516E-02-1.22826E+00-4.69054E-14 6.50456E-14
 -1      4123 2.06889E+01-6.73504E-01 7.95612E-03-7.44151E-01 8.71069E-14 1.30528E-13
 -1      4124 2.04934E+01-5.28657E-01 3.89640E-03-6.83787E-01 9.56181E-14 1.22751E-13
 -1      4125 2.05774E+01-6.99466E-01-1.51058E-02-9.93988E-01 3.15617E-14-1.80591E-14
 -1      4126 2.03730E+01-4.03335E-01 6.38576E-03-5.78895E-01 2.87000E-13 1.68990E-13
 -1      4127 2.02445E+01-3.03075E-01 1.02482E-03-5.14535E-01 4.21243E-13 1.89417E-13
 -1      4128 2.02720E+01-3.93817E-01-8.66001E-03-7.50735E-01 2.20659E-13 6.83063E-14
 -1      4129 2.01819E+01-2.18544E-01 5.09732E-03-4.25278E-01 2.87866E-13 8.26617E-14
 -1      4130 2.01010E+01-1.54475E-01-4.64301E-04-3.68926E-01 2.68937E-13 9.24982E-14
 -1      4131 2.00988E+01-1.93021E-01-4.30156E-03-5.38452E-01 2.98720E-13 5.23161E-14
 -1      4132 2.00727E+01-1.00713E-01 3.68288E-03-2.99444E-01 2.82353E-13 6.29051E-14
 -1      4133 2.00271E+01-6.00232E-02 2.89563E-04-2.55160E-01 1.77195E-15 8.01695E-14
 -1      4134 2.00085E+01-7.09677E-02-2.13916E-03-3.69798E-01 2.85114E-13-9.30268E-14
 -1      4135 2.00105E+01-2.91722E-02 2.29114E-03-2.19411E-01-1.96057E-13 9.45596E-14
 -1      4136 1.99902E+01-7.43796E-03 6.56493E-04-1.87117E-01-2.04101E-13 8.85551E-14
 -1      4137 1.99380E+01 3.89110E-02-1.61185E-03-1.92563E-01-1.46663E-13-1.00573E-13
 -1      4138 1.99613E+01-1.10754E-03-1.65726E-03-2.61400E-01 4.91487E-14-3.55139E-13
 -1      4139 1.95768E+01 2.07033E-01-7.47734E-03 5.72767E-01-2.65528E-14-1.50167E-13
 -1      4140 1.96830E+01 2.03444E-01 6.38763E-03 4.39652E-01-5.03616E-14-1.94895E-13
 -1      4141 1.94185E+01-2.71588E-01-1.58949E-02 2.15181E+00 1.88070E-13-8.45646E-14
 -1      4142 1.95121E+01-7.07610E-02 1.90334E-02 1.74964E+00 2.08205E-13-2.66042E-14
 -1      4143 1.97035E+01 1.79151E-01-5.68447E-03 3.29735E-01 2.47419E-15-1.80602E-13
 -1      4144 1.97903E+01 1.59765E-01 3.93467E-03 2.43075E-01 4.25930E-14-1.96835E-13
 -1      4145 1.97861E+01 8.74747E-02-3.68819E-03 4.37389E-01 3.46018E-15-2.73326E-13
 -1      4146 2.03989E+01 4.95436E-01 4.99457E-04 1.74621E-02 5.68132E-15-1.10337E-13
 -1      4147 2.03855E+01 5.23742E-01 1.79327E-03 3.13069E-02 7.18067E-15-9.25711E-14
 -1      4148 2.30560E+01-1.98435E+00 2.59218E-02 8.15330E-01 2.09428E-13 5.78643E-14
 -1      4149 2.38396E+01-2.12731E+00 3.34516E-03 5.44366E-01 2.32338E-13 1.16846E-13
 -1      4150 2.39172E+01-2.63018E+00-3.72059E-02 1.36028E+00 2.42545E-13 4.32341E-14
 -1      4151 2.26454E+01-2.07402E+00-2.38156E-02 1.38127E+00 2.25547E-13 2.44024E-14
 -1      4152 1.94071E+01-5.16933E-01 6.82641E-03 2.81160E+00 1.17018E-13-2.03074E-13
 -1      4153 2.03657E+01 6.39051E-01 1.91181E-04 7.70430E-02 1.08075E-14-7.14897E-14
 -1      4154 2.38081E+01-2.63805E+00 1.95709E-02 1.84793E+00 2.15490E-13 4.17304E-14
 -1      4155 2.33009E+01-2.84850E+00 5.64659E-03 2.75312E+00 1.75740E-13 1.65034E-13
 -1      4156 2.21881E+01-2.39104E+00-1.92545E-02 2.96518E+00 1.81521E-13 9.26256E-15
 -1      4157 2.30734E+01-2.34981E+00 3.28518E-02 1.90481E+00 2.72051E-13 1.22988E-13
 -1      4158 1.85815E+01 6.31465E-01 1.03947E-02-1.52558E+00 5.65227E-14-4.86934E-13
 -1      4159 2.02874E+01 4.11939E-02-4.78362E-04-1.07064E-01 5.73321E-15-6.07651E-14
 -1      4160 2.03127E+01 8.32621E-02 1.02764E-03-9.38254E-02 3.46552E-15-6.34343E-14
 -1      4161 2.03461E+01 1.22948E-01-9.70663E-04-7.11709E-02 5.95564E-15-7.56933E-14
 -1      4162 2.02999E+01 3.38701E-02-2.78172E-04-8.85858E-02 8.48123E-15-7.55704E-14
 -1      4163 2.03874E+01 8.06047E-01-2.33518E-03 4.20931E-02 1.21639E-14-1.77203E-13
 -1      4164 2.03880E+01 8.22627E-01-2.02246E-03 1.16571E-02 4.14183E-15-1.60712E-13
 -1      4165 2.04187E+01 6.70291E-01 3.83132E-03 6.71132E-03-1.39167E-14-1.41170E-13
 -1      4166 2.04129E+01 6.50039E-01 3.65038E-03 2.99011E-02 5.15773E-15-1.42883E-13
 -1      4167 2.25080E+01-2.03197E+00 5.20201E-02-1.99973E+00 2.09876E-13-1.30266E-13
 -1      4168 2.04105E+01 3.89693E-01 2.99990E-03-6.08888E-03-1.27265E-14-1.03759E-13
 -1      4169 2.04071E+01 5.06529E-01-2.16199E-03 1.44405E-02 6.29767E-15-1.06537E-13
 -1      4170 2.04138E+01 5.23713E-01-1.56220E-03 8.77587E-03-1.95526E-14-1.41902E-13
 -1      4171 1.98047E+01 1.89589E-01-1.87384E-03-1.27103E-01-2.41831E-13-4.80260E-13
 -1      4172 1.97618E+01 2.28399E-01-1.27854E-03-1.38721E-01-7.72732E-14-6.68829E-13
 -1      4173 1.97783E+01 2.02149E-01 2.15728E-03-2.09186E-01-7.95381E-14-6.69347E-13
 -1      4174 1.98407E+01 1.58321E-01 2.24221E-03-1.56963E-01-3.23583E-13-3.18530E-13
 -1      4175 2.04071E+01 2.67078E-01-5.30378E-04 1.55002E-02-3.18205E-14-3.20741E-14
 -1      4176 2.03916E+01 1.85251E-01-6.37799E-04 3.15666E-02-3.92698E-14-3.40901E-14
 -1      4177 2.00719E+01-1.92505E-03-4.97071E-04-9.49518E-02 1.06602E-14-9.79251E-14
 -1      4178 2.01018E+01-1.62408E-02 1.86543E-04-1.01377E-01 4.47434E-14-1.00168E-13
 -1      4179 2.01334E+01-2.64424E-02-1.98302E-04-8.03663E-02 4.66497E-14 8.51831E-16
 -1      4180 2.00705E+01-3.10611E-04 4.16153E-05-6.08001E-02-8.43246E-15-6.91703E-14
 -1      4181 2.03757E+01 1.17849E-01 4.05949E-04 3.54782E-02-3.65438E-14-4.23587E-14
 -1      4182 2.03526E+01 6.41214E-02-2.18260E-04 4.50359E-02-3.51854E-14-6.13034E-14
 -1      4183 2.03483E+01 4.99236E-02-2.03082E-04 2.52889E-02-7.17430E-15-6.20750E-14
 -1      4184 2.14761E+01-1.52245E+00 1.31715E-02-2.08037E+00 2.04625E-13-2.15814E-13
 -1      4185 1.98178E+01 1.30127E-01-3.97998E-03 1.72805E-01 6.65023E-14-1.55926E-13
 -1      4186 1.98837E+01 1.06754E-01 2.30844E-03 1.19901E-01 4.46229E-14-8.84495E-14
 -1      4187 1.98593E+01 7.98480E-02-1.69690E-03 2.54939E-01 6.48352E-14-2.04165E-13
 -1      4188 2.04162E+01 5.20508E-01-1.15336E-03-1.44607E-02-1.66687E-14-3.99065E-14
 -1      4189 2.04169E+01 3.59603E-01 7.64602E-04 1.18395E-02-2.91740E-14-3.79349E-14
 -1      4190 2.04184E+01 3.20255E-01-3.18438E-04 5.92933E-03-3.45480E-14-9.09069E-14
 -1      4191 2.04186E+01 5.32578E-01-1.46739E-03-5.23620E-03-2.63449E-14-1.09445E-13
 -1      4192 1.97406E+01 1.66770E-01 5.95588E-03-4.93009E-01 2.92492E-13-4.41399E-13
 -1      4193 1.96700E+01 1.47039E-01-5.82115E-03-6.31346E-01 1.43427E-13-2.34204E-13
 -1      4194 1.88766E+01 2.16175E-01-2.06972E-02-1.85466E+00-2.76525E-14-3.29530E-13
 -1      4195 1.92894E+01-9.43828E-02 2.00514E-04-2.07763E+00-2.90512E-14-3.23118E-13
 -1      4196 1.99955E+01 3.13566E-02-1.64661E-03 1.21658E-02-6.64072E-14-5.17940E-14
 -1      4197 2.00369E+01 1.14709E-02 5.42254E-04-7.67199E-03-4.11103E-14-1.08312E-13
 -1      4198 2.00022E+01 1.82346E-02-4.26500E-04 6.09201E-02-4.06446E-14-1.35353E-13
 -1      4199 1.99848E+01-7.37761E-01 1.30302E-02 2.50188E+00 1.92353E-13-7.90327E-14
 -1      4200 1.99324E+01 5.18601E-02-8.63024E-04 1.36862E-01 3.14805E-14-2.06471E-13
 -1      4201 2.03921E+01 1.62081E-01 2.94183E-05 1.81869E-02-3.90209E-14-6.28608E-14
 -1      4202 1.93811E+01 5.27186E-02-8.94314E-03 1.44963E+00 1.55341E-13-6.09267E-14
 -1      4203 1.95010E+01 1.45264E-01 1.48181E-02 1.15507E+00 1.25558E-13-3.82204E-14
 -1      4204 1.98236E+01-3.40102E-01-2.10521E-02 1.58973E+00 1.56729E-13-2.81070E-14
 -1      4205 1.94682E+01 2.58998E-01 1.22874E-03-8.58300E-01-1.04622E-14-2.03782E-14
 -1      4206 1.92554E+01 4.40304E-01 9.45110E-03-8.61765E-01-2.90889E-14-4.01425E-13
 -1      4207 1.90598E+01 4.29457E-01-1.44292E-02-1.07888E+00 1.47325E-13-3.44691E-13
 -1      4208 1.97325E+01 1.68093E-01-4.79918E-03-3.90307E-01 3.92828E-13-3.64157E-13
 -1      4209 1.98326E+01 7.16226E-02-7.32245E-04-4.68729E-01 3.22659E-13-4.23659E-13
 -1      4210 1.97891E+01 1.67612E-01 2.82060E-03-3.03241E-01 3.01612E-13-4.57943E-13
 -1      4211 1.94556E+01 1.83074E-01-8.77376E-03 9.32409E-01 6.14832E-14-1.00619E-13
 -1      4212 1.95776E+01 2.12214E-01 9.85934E-03 7.30730E-01 2.21994E-14-1.49503E-13
 -1      4213 1.97281E+01 4.98849E-02-7.31653E-03 7.06988E-01-3.27838E-14-2.74246E-13
 -1      4214 1.97179E+01-7.26973E-02-1.34687E-02 1.08494E+00 8.71731E-14-1.81474E-13
 -1      4215 1.96108E+01-3.86419E-01-1.23993E-02-2.16733E+00-6.40252E-14-7.63273E-14
 -1      4216 2.01331E+01-8.02953E-01-2.41949E-02-2.26616E+00 8.58467E-14 8.83227E-14
 -1      4217 1.97695E+01-2.52813E-01 1.66220E-02-1.80290E+00-9.94444E-14 3.14202E-16
 -1      4218 2.02512E+01-2.58391E-02-1.59966E-04-7.10780E-02-9.55409E-15-6.19017E-14
 -1      4219 2.02799E+01-8.13732E-03 4.92955E-04-6.93703E-02-8.97341E-15-5.18990E-14
 -1      4220 1.99088E+01 7.62804E-02 1.26006E-03-1.96523E-01-8.24539E-14-3.50084E-13
 -1      4221 1.98645E+01 1.16373E-01-1.04696E-03-1.85502E-01-1.85700E-13-4.34221E-13
 -1      4222 2.03948E+01 2.85484E-01-9.51198E-04-2.76704E-02-1.24991E-14-8.78619E-14
 -1      4223 1.90712E+01 3.77353E-01 1.56033E-02-1.41858E+00 1.68843E-13-4.34735E-13
 -1      4224 2.09971E+01-1.18127E+00 2.00519E-02-1.98994E+00 1.14817E-13-1.28160E-13
 -1      4225 2.01939E+01-3.87033E-02 9.58361E-05-6.39412E-02 5.82667E-14-4.94479E-14
 -1      4226 2.02230E+01-3.55378E-02 4.79974E-04-6.70478E-02 1.58274E-14-7.43890E-14
 -1      4227 2.02497E+01-3.22409E-02-6.90081E-04-4.44268E-02 6.69859E-15-6.11869E-14
 -1      4228 2.08821E+01-9.61011E-01 2.34827E-02-1.64098E+00-1.06219E-13-1.01578E-13
 -1      4229 1.99122E+01 5.82354E-02-4.65187E-04-2.31046E-01-9.97499E-14-4.12037E-13
 -1      4230 1.98405E+01 1.35484E-01-1.75411E-04-2.10008E-01-2.43540E-13-2.00791E-13
 -1      4231 2.03069E+01 7.16599E-03-5.49734E-04-4.63232E-02-4.04547E-15-2.89049E-14
 -1      4232 2.03064E+01 1.71962E-02-3.32299E-04-7.03324E-02-8.74179E-15-6.07059E-14
 -1      4233 2.03329E+01 5.25486E-02 5.84392E-04-6.29049E-02-1.14970E-14-8.57726E-14
 -1      4234 2.02503E+01-4.17331E-02 1.66781E-04-2.74201E-03 5.58449E-15-1.36799E-14
 -1      4235 2.02219E+01-5.03743E-02 5.14252E-04 2.58323E-03-9.62257E-15-9.99359E-15
 -1      4236 2.01427E+01-5.61982E-02-4.53783E-04 4.04415E-02 1.25885E-14 1.02115E-13
 -1      4237 2.01210E+01-5.18396E-02 9.87796E-04 5.32744E-02 3.29580E-14 1.05853E-13
 -1      4238 2.00781E+01-3.38933E-02-3.62998E-04 5.87665E-02-6.76626E-15 5.81764E-14
 -1      4239 2.00595E+01-2.60274E-02 1.67557E-03 7.95972E-02 9.89925E-15-7.83948E-15
 -1      4240 2.00257E+01-1.59878E-02-3.95132E-04 1.09411E-01 2.59828E-14-4.04643E-14
 -1      4241 2.00148E+01-1.07470E-02 2.64989E-03 1.40492E-01-1.53740E-15-9.15767E-14
 -1      4242 1.99795E+01-3.75343E-03-3.65376E-04 1.87603E-01 3.62920E-14-8.61857E-14
 -1      4243 1.99807E+01-5.50986E-03 4.10430E-03 2.33897E-01 8.27024E-14-1.17920E-13
 -1      4244 1.99458E+01-7.16507E-03-2.60877E-06 3.06062E-01 7.61380E-14-1.60101E-13
 -1      4245 1.99674E+01-2.31661E-02 6.39817E-03 3.72369E-01 3.03193E-14-1.74620E-13
 -1      4246 1.99382E+01-4.26716E-02 1.20989E-03 4.82267E-01 1.44752E-14-1.86617E-13
 -1      4247 1.99931E+01-8.40904E-02 9.72060E-03 5.73287E-01-3.68465E-14-1.90969E-13
 -1      4248 1.99830E+01-1.34531E-01 3.83745E-03 7.27018E-01-5.03211E-14-1.89189E-13
 -1      4249 2.00903E+01-2.17249E-01 1.38843E-02 8.43931E-01-1.03327E-14-1.62293E-13
 -1      4250 2.01234E+01-3.19108E-01 8.18257E-03 1.05109E+00 8.50353E-14-1.51889E-13
 -1      4251 2.03090E+01-4.63693E-01 1.76989E-02 1.18872E+00 1.26998E-13-1.30174E-13
 -1      4252 2.04265E+01-6.44138E-01 1.35985E-02 1.44381E+00 1.56152E-13-9.48117E-14
 -1      4253 2.06954E+01-8.90704E-01 7.51696E-03 1.59207E+00 1.65689E-13-2.87218E-14
 -1      4254 1.98044E+01 1.53945E-01-2.16466E-03-2.41756E-01-2.44091E-14-3.53454E-13
 -1      4255 1.98587E+01 9.59410E-02 6.00131E-04-3.00263E-01 4.49901E-14-2.16861E-13
 -1      4256 2.14457E+01-1.89692E+00 2.25776E-02 3.05129E+00 1.56083E-13-7.48029E-14
 -1      4257 2.04978E+01-1.33625E+00-1.71351E-02 2.93980E+00 1.54860E-13-1.56716E-13
 -1      4258 2.18831E+01-2.04801E+00-2.26690E-02 2.56564E+00 1.50057E-13 1.83296E-13
 -1      4259 1.99315E+01 3.91762E-02 2.19742E-03-2.69950E-01 1.76868E-14-3.32259E-13
 -1      4260 2.03644E+01 6.93945E-02-3.71166E-05 7.66753E-04-1.92300E-14-7.14778E-14
 -1      4261 2.03389E+01 2.88176E-02-1.24223E-04 5.12764E-03-1.05190E-15-5.34701E-14
 -1      4262 2.05257E+01-7.31223E-01 7.65025E-03-1.50582E+00-1.31708E-13-5.00587E-14
 -1      4263 2.01891E+01-2.99246E-01 1.01798E-02-8.89152E-01 1.56184E-13-1.10944E-13
 -1      4264 2.00549E+01-1.99544E-01-1.58307E-03-7.66904E-01 2.52633E-13-7.79861E-14
 -1      4265 2.00114E+01-9.61266E-02 7.07493E-03-6.11900E-01 2.90380E-13-2.19147E-13
 -1      4266 1.99380E+01-4.26083E-02-3.01492E-03-5.12399E-01 3.07893E-13-2.89826E-13
 -1      4267 1.99463E+01 4.09391E-04 4.55796E-03-4.09872E-01 3.24358E-13-2.56065E-13
 -1      4268 1.99093E+01 2.79663E-02-2.56546E-03-3.35329E-01 1.95134E-13-3.25618E-13
 -1      4269 2.04185E+01 5.30124E-01-1.56943E-03 6.86383E-03-3.12032E-14-1.74591E-13
 -1      4270 2.04200E+01 5.32655E-01-1.36480E-03-2.26268E-03-2.39753E-14-1.29096E-13
 -1      4271 2.04301E+01 4.18062E-01 2.44288E-03 2.80563E-03-4.09268E-14-1.31139E-13
 -1      4272 2.04264E+01 4.14798E-01 3.58360E-03-1.51976E-03-4.11510E-14-1.40427E-13
 -1      4273 2.03904E+01 1.99558E-01 2.43990E-03-3.68287E-02-6.23557E-15-8.31354E-14
 -1      4274 2.04095E+01 2.93878E-01-1.67098E-03-1.59069E-02-9.62219E-15-9.67827E-14
 -1      4275 1.93933E+01 1.31358E-01 6.66722E-04-1.37069E+00 6.24519E-14-2.19287E-13
 -1      4276 2.04105E+01 2.22907E-01 1.54918E-03-4.29917E-03-2.02799E-14-1.07067E-13
 -1      4277 2.03919E+01 1.46554E-01-1.75482E-04-1.56494E-03-2.70492E-14-9.71696E-14
 -1      4278 2.03072E+01-5.91939E-03 1.47687E-04-8.72876E-03 7.12565E-16-1.62715E-14
 -1      4279 2.02801E+01-2.79597E-02 6.71207E-04-4.53002E-03 1.45743E-15 8.78209E-15
 -1      4280 1.98651E+01-3.50381E-02-3.40437E-03-7.37238E-01 2.05497E-13-3.25824E-13
 -1      4281 1.97245E+01 9.51263E-02 7.53299E-03-8.02400E-01 1.55820E-14-1.52375E-13
 -1      4282 2.00861E+01-4.83736E-01-1.19718E-02-1.59362E+00-6.06241E-14 6.15176E-14
 -1      4283 2.04937E+01-5.97993E-01 1.45375E-02-1.21356E+00 8.52781E-14-8.23798E-14
 -1      4284 2.02651E+01-4.34570E-01 1.42215E-03-1.07868E+00 1.96799E-13 3.56838E-14
 -1      4285 1.97307E+01-2.04606E-01-1.29640E-02-1.50914E+00 5.09713E-15-7.77647E-14
 -1      4286 2.00806E+01-2.24010E-02-3.39526E-05 2.73235E-02 3.33877E-15-1.83486E-14
 -1      4287 2.00804E+01-1.57035E-02-6.90089E-04-1.10543E-02 4.23055E-14-7.58607E-14
 -1      4288 2.01997E+01-5.70784E-02 5.09528E-05 2.33635E-02-3.59222E-14 5.43804E-14
 -1      4289 2.01735E+01-5.79402E-02 8.00217E-04 3.08848E-02-2.14587E-15 7.13568E-14
 -1      4290 2.04177E+01 3.03562E-01-3.67794E-04-5.78772E-03-2.71013E-14-1.16867E-13
 -1      4291 2.04626E+01-9.32393E-01-1.76189E-02 2.04140E+00 2.55244E-13 9.71472E-15
 -1      4292 2.12962E+01-1.27232E+00 2.68684E-02 1.66622E+00 1.30254E-13 5.59578E-14
 -1      4293 2.17238E+01-1.56698E+00 1.60749E-02 1.72566E+00 1.48941E-13 1.53133E-13
 -1      4294 1.96565E+01 3.96957E-02-9.00082E-03-9.81585E-01 4.52988E-14-1.41310E-13
 -1      4295 2.03773E+01 1.18522E-01-4.71354E-04-2.23181E-02-1.53082E-14-8.51444E-14
 -1      4296 2.02007E+01-4.77483E-02-6.02981E-04-2.03726E-02 4.83872E-15-2.82690E-14
 -1      4297 1.99915E+01-2.38057E-01-4.15799E-03-1.10045E+00 1.40480E-13-9.49462E-14
 -1      4298 2.01511E+01-4.85560E-02-3.76287E-04 1.18875E-02 4.62655E-14 9.18681E-14
 -1      4299 2.17539E+01-1.70308E+00 8.45310E-03 1.96507E+00 1.41635E-13 1.45328E-13
 -1      4300 2.22581E+01-1.99942E+00 1.20246E-02 2.08798E+00 2.12828E-13 1.12763E-13
 -1      4301 1.97484E+01-3.05590E-02 1.11014E-02-1.18628E+00 9.45574E-14-5.12279E-14
 -1      4302 2.03680E+01 1.30389E-01-3.02041E-04-5.06997E-02-9.52263E-15-7.48465E-14
 -1      4303 2.01147E+01-2.81600E-02 6.08289E-04-2.32643E-02 6.49778E-14-2.23473E-14
 -1      4304 2.04440E+01-9.72472E-01-6.13516E-03 2.25870E+00 2.58584E-13 7.37483E-14
 -1      4305 2.01745E+01-4.14488E-02 4.10104E-04-4.21676E-02 3.73995E-14-3.02426E-14
 -1      4306 2.01437E+01-3.60018E-02-2.25246E-04-3.48147E-02 1.85854E-14-2.56789E-14
 -1      4307 2.04127E+01 3.01350E-01-1.79775E-03-1.03616E-02-2.18010E-14-1.36141E-13
 -1      4308 2.03346E+01 2.45094E-02 4.92402E-04-7.78084E-03-1.48530E-14-1.95846E-14
 -1      4309 2.10974E+01-1.49601E+00-1.98960E-02 2.36866E+00 2.18149E-13 1.75218E-13
 -1      4310 2.03686E+01 1.11299E-01-6.09556E-04-3.36425E-02-1.42251E-14-8.89787E-14
 -1      4311 2.03447E+01 4.31904E-02 9.30589E-04-3.08764E-02-1.09007E-14-5.89440E-14
 -3
    1PSTEP                         3           1           1          
  100CL  101 1.000000000        4311                     0    1           1
 -4  TOSTRAIN    6    1
 -5  EXX         1    4    1    1
 -5  EYY         1    4    2    2
 -5  EZZ         1    4    3    3
 -5  EXY         1    4    1    2
 -5  EYZ         1    4    2    3
 -5  EZX         1    4    3    1
 -1         1 2.69841E-05 3.28510E-05-2.66838E-05 5.55677E-05-1.49010E-17-1.26297E-17
 -1         2 4.14217E-05-1.27427E-04 2.45030E-05-2.43751E-06-4.66630E-18 1.18428E-18
 -1         3 9.52326E-05-2.85762E-05-2.85597E-05-2.47375E-09 3.49363E-19 3.71618E-19
 -1         4 9.52349E-05-2.85735E-05-2.85666E-05 2.31765E-09 1.10505E-18 4.02199E-19
 -1         5 1.43327E-04-2.14752E-05-4.25235E-05 3.85259E-05-1.26896E-19 8.63095E-18
 -1         6 1.45387E-04 2.57537E-10-4.41817E-05-5.35191E-05-3.99376E-19 1.01195E-17
 -1         7 9.06022E-05-5.11346E-07-3.90650E-05-2.92479E-05-7.42213E-20 3.42866E-18
 -1         8 8.51238E-05 8.60737E-08-3.63380E-05-2.02660E-05-1.07229E-19 1.07734E-18
 -1         9 8.28144E-05 7.63677E-08-3.53508E-05-1.56335E-05-1.12669E-19-3.62191E-19
 -1        10 8.17757E-05 3.90728E-08-3.48828E-05-1.20730E-05-8.98120E-20-1.17328E-18
 -1        11 8.12575E-05 1.90518E-08-3.46550E-05-9.00775E-06-6.45002E-20-1.68321E-18
 -1        12 8.09872E-05 9.14893E-09-3.45404E-05-6.27960E-06-5.64170E-20-1.98273E-18
 -1        13 8.08455E-05 4.61699E-09-3.44825E-05-3.68305E-06-3.58955E-20-2.14590E-18
 -1        14 8.07865E-05 2.73462E-09-3.44589E-05-1.18342E-06-9.29958E-21-2.27795E-18
 -1        15 8.07889E-05 2.70482E-09-3.44597E-05 1.28697E-06-7.88096E-21-2.39978E-18
 -1        16 8.08527E-05 4.47985E-09-3.44849E-05 3.79218E-06 2.05306E-20-2.46409E-18
 -1        17 8.09996E-05 8.36643E-09-3.45441E-05 6.40178E-06 1.66644E-20-2.49216E-18
 -1        18 8.12743E-05 1.81552E-08-3.46598E-05 9.14991E-06 1.39827E-20-2.34830E-18
 -1        19 8.18009E-05 3.81420E-08-3.48909E-05 1.22516E-05 7.15941E-20-2.12739E-18
 -1        20 8.28401E-05 8.04233E-08-3.53634E-05 1.58668E-05 9.62441E-20-1.56741E-18
 -1        21 8.50853E-05 1.69877E-07-3.63757E-05 2.04783E-05 1.31343E-19-3.05018E-19
 -1        22 9.16371E-05-9.92534E-08-3.87370E-05 2.79944E-05 3.26108E-20 2.39321E-18
 -1        23 1.12963E-04-3.81223E-05-3.53936E-05-4.40120E-06-2.08794E-19 8.65636E-18
 -1        24 9.28018E-05-2.76963E-05-2.89983E-05 3.91423E-07-1.46523E-19 7.39443E-18
 -1        25 8.91227E-05-2.68532E-05-2.69302E-05 3.75844E-07 2.22346E-21 5.94739E-18
 -1        26 8.80255E-05-2.64914E-05-2.63948E-05 2.04010E-07 6.26333E-20 5.08287E-18
 -1        27 8.80602E-05-2.64722E-05-2.63895E-05 1.39933E-07-2.97247E-21 4.23432E-18
 -1        28 8.86055E-05-2.66121E-05-2.65625E-05 1.01019E-07 1.70546E-20 3.85223E-18
 -1        29 8.93762E-05-2.68296E-05-2.67999E-05 7.54505E-08 2.03024E-20 2.98423E-18
 -1        30 9.02221E-05-2.70756E-05-2.70564E-05 5.73502E-08 1.55909E-20 2.02964E-18
 -1        31 9.10600E-05-2.73226E-05-2.73092E-05 4.39095E-08-1.85099E-20 1.46760E-18
 -1        32 9.18445E-05-2.75552E-05-2.75457E-05 3.37225E-08 4.53110E-20 9.04899E-19
 -1        33 9.25533E-05-2.77662E-05-2.77595E-05 2.60206E-08 1.69642E-19 8.97815E-19
 -1        34 9.31784E-05-2.79526E-05-2.79481E-05 2.03258E-08 8.56628E-21 6.08897E-19
 -1        35 9.37189E-05-2.81140E-05-2.81112E-05 1.62880E-08-4.47085E-20 7.95601E-19
 -1        36 9.41766E-05-2.82506E-05-2.82492E-05 1.35892E-08 5.75550E-20 8.85419E-19
 -1        37 9.45504E-05-2.83620E-05-2.83615E-05 1.18663E-08-7.32541E-20 1.28728E-18
 -1        38 9.48317E-05-2.84454E-05-2.84453E-05 1.06257E-08-2.09779E-19 1.11430E-18
 -1        39 9.49994E-05-2.84944E-05-2.84940E-05 9.14743E-09-2.60975E-19 7.11943E-19
 -1        40 9.50142E-05-2.84973E-05-2.84953E-05 6.38627E-09 2.10914E-19 1.05456E-18
 -1        41 9.48143E-05-2.84356E-05-2.84307E-05 9.11656E-10 9.85805E-20 1.20557E-18
 -1        42 9.43143E-05-2.82838E-05-2.82743E-05-9.04083E-09-3.64261E-19-3.00779E-20
 -1        43 9.34083E-05-2.80108E-05-2.79952E-05-2.52927E-08-1.05642E-19-3.93700E-19
 -1        44 9.19845E-05-2.75834E-05-2.75612E-05-4.90983E-08 1.33229E-19 1.55665E-19
 -1        45 8.99511E-05-2.69747E-05-2.69472E-05-8.01308E-08-2.05680E-19 3.57418E-19
 -1        46 8.72769E-05-2.61759E-05-2.61471E-05-1.15264E-07 1.44641E-20-1.47742E-18
 -1        47 8.40385E-05-2.52098E-05-2.51870E-05-1.47735E-07-1.28742E-19-9.39902E-19
 -1        48 8.04595E-05-2.41431E-05-2.41350E-05-1.67613E-07-1.10357E-19-5.78173E-19
 -1        49 7.69181E-05-2.30882E-05-2.31020E-05-1.64404E-07 2.80456E-19 2.38116E-19
 -1        50 7.39003E-05-2.21896E-05-2.22273E-05-1.31524E-07 2.00217E-19 8.17519E-19
 -1        51 7.18971E-05-2.15932E-05-2.16493E-05-7.07432E-08-1.60888E-19 1.70156E-18
 -1        52 7.12694E-05-2.14064E-05-2.14685E-05 6.39277E-09-8.17296E-20 2.49377E-18
 -1        53 7.21358E-05-2.16644E-05-2.17178E-05 8.19642E-08-1.20872E-19 5.35192E-19
 -1        54 7.43332E-05-2.23186E-05-2.23522E-05 1.38670E-07 3.21756E-19 5.51471E-19
 -1        55 7.74705E-05-2.32529E-05-2.32624E-05 1.66476E-07-3.90502E-19 6.77732E-19
 -1        56 8.10497E-05-2.43191E-05-2.43078E-05 1.65226E-07 7.52292E-20-4.75099E-19
 -1        57 8.45979E-05-2.53768E-05-2.53523E-05 1.42507E-07 1.20790E-19 2.68384E-19
 -1        58 8.77627E-05-2.63212E-05-2.62922E-05 1.09004E-07 3.93652E-19 2.46559E-18
 -1        59 9.03486E-05-2.70940E-05-2.70671E-05 7.42424E-08-6.23231E-19 2.94828E-18
 -1        60 9.23025E-05-2.76793E-05-2.76581E-05 4.43852E-08-2.02609E-19 2.43585E-18
 -1        61 9.36724E-05-2.80908E-05-2.80764E-05 2.20527E-08 1.20895E-19 1.41279E-18
 -1        62 9.45602E-05-2.83587E-05-2.83502E-05 7.27478E-09-7.16540E-19-1.24016E-19
 -1        63 9.50838E-05-2.85177E-05-2.85137E-05-1.30046E-09 1.38150E-19 1.68946E-19
 -1        64 9.53531E-05-2.86004E-05-2.85993E-05-5.44860E-09-3.57538E-19 1.02803E-18
 -1        65 9.54580E-05-2.86336E-05-2.86341E-05-6.80120E-09-1.20032E-19-1.51940E-18
 -1        66 9.54658E-05-2.86373E-05-2.86386E-05-6.60533E-09 4.43827E-19-2.75417E-18
 -1        67 9.54235E-05-2.86257E-05-2.86271E-05-5.68470E-09 4.01274E-19 4.83753E-19
 -1        68 9.53621E-05-2.86080E-05-2.86094E-05-4.48486E-09 4.30475E-19 4.57561E-18
 -1        69 9.53018E-05-2.85904E-05-2.85919E-05-3.12344E-09-2.93904E-20 4.83006E-18
 -1        70 9.52564E-05-2.85769E-05-2.85787E-05-1.24901E-09-1.35611E-19 2.63543E-18
 -1        71 9.52352E-05-2.85701E-05-2.85714E-05 1.22082E-09 6.15217E-20 1.18774E-18
 -1        72 1.02169E-04-3.05850E-05-3.41471E-05-1.92895E-06 1.12258E-19 7.75956E-18
 -1        73 9.25549E-05-2.75123E-05-2.89040E-05-3.34146E-07 1.11269E-19 5.35251E-18
 -1        74 8.91039E-05-2.67013E-05-2.69694E-05-1.26047E-07 5.46254E-20 3.80148E-18
 -1        75 8.80494E-05-2.64409E-05-2.64358E-05-9.52227E-08-2.65194E-20 3.09751E-18
 -1        76 8.80860E-05-2.64494E-05-2.64138E-05-7.63621E-08 1.03534E-19 2.25291E-18
 -1        77 8.86259E-05-2.66023E-05-2.65757E-05-6.21858E-08-6.66825E-20 1.76950E-18
 -1        78 8.93871E-05-2.68247E-05-2.68060E-05-5.12799E-08-4.86546E-20 2.51403E-18
 -1        79 9.02208E-05-2.70715E-05-2.70569E-05-4.22321E-08-2.49584E-20 2.88900E-18
 -1        80 9.10440E-05-2.73166E-05-2.73042E-05-3.43027E-08 4.84441E-20 2.51037E-18
 -1        81 9.18143E-05-2.75469E-05-2.75357E-05-2.73243E-08 7.68884E-20 1.19273E-18
 -1        82 9.25397E-05-2.77639E-05-2.77544E-05-2.05825E-08-6.41618E-20 5.04764E-19
 -1        83 9.31542E-05-2.79482E-05-2.79399E-05-1.44075E-08 1.58377E-20 6.14176E-19
 -1        84 9.37039E-05-2.81135E-05-2.81063E-05-8.55545E-09 2.28680E-19 3.01839E-19
 -1        85 9.42134E-05-2.82672E-05-2.82611E-05-2.43812E-09-1.49350E-19 5.90421E-20
 -1        86 9.47220E-05-2.84212E-05-2.84165E-05 4.42579E-09 1.07610E-19-9.65055E-20
 -1        87 9.52908E-05-2.85942E-05-2.85914E-05 1.26837E-08-8.45428E-20-1.17509E-18
 -1        88 9.60159E-05-2.88152E-05-2.88162E-05 2.30719E-08 3.89548E-19-1.50699E-18
 -1        89 9.70511E-05-2.91305E-05-2.91396E-05 3.61742E-08-2.18958E-19-1.15350E-18
 -1        90 9.86477E-05-2.96151E-05-2.96423E-05 5.20620E-08 1.19092E-19-1.01202E-18
 -1        91 1.01218E-04-3.03941E-05-3.04575E-05 7.74400E-08-6.68767E-20-5.36135E-19
 -1        92 1.05712E-04-3.17302E-05-3.18975E-05 6.06393E-08 8.77357E-20-5.62695E-19
 -1        93 1.12856E-04-3.38522E-05-3.41912E-05 1.20409E-08-1.01353E-19-6.96658E-19
 -1        94 1.24428E-04-3.72594E-05-3.78737E-05-1.81106E-07 3.34350E-19-1.54689E-18
 -1        95 1.42417E-04-4.25576E-05-4.33886E-05-6.98895E-07 1.44528E-19-2.43956E-18
 -1        96 1.67875E-04-5.01812E-05-5.05240E-05-1.74272E-06-5.55204E-21-2.51209E-18
 -1        97 1.96665E-04-5.91891E-05-5.73028E-05-2.96564E-06-3.68526E-19-8.29351E-19
 -1        98 2.11458E-04-6.45881E-05-5.93634E-05-1.41066E-06-5.78576E-19 5.10867E-18
 -1        99 1.85078E-04-5.66081E-05-5.38361E-05 6.61473E-06 6.81339E-19 3.20644E-18
 -1       100 1.25583E-04-3.54695E-05-4.54502E-05 1.26265E-05 6.46789E-19-1.91853E-18
 -1       101 7.81523E-05-1.70176E-05-4.01876E-05 6.32965E-06-8.31628E-19-2.63300E-18
 -1       102 8.98423E-05-2.07056E-05-4.18214E-05-6.70822E-06 1.78406E-19-3.37077E-18
 -1       103 1.40177E-04-3.91338E-05-4.80826E-05-1.18958E-05 2.60357E-19-8.54529E-18
 -1       104 1.94879E-04-5.89050E-05-5.63896E-05-8.46504E-06 9.29278E-19-9.60557E-18
 -1       105 2.11305E-04-6.41964E-05-5.96501E-05 5.97475E-07-8.13019E-19-6.57218E-18
 -1       106 1.91384E-04-5.76701E-05-5.61941E-05 2.62734E-06 7.72264E-20-2.42511E-18
 -1       107 1.62517E-04-4.87046E-05-4.90558E-05 2.05681E-06 1.35965E-19-4.19694E-18
 -1       108 1.38537E-04-4.15077E-05-4.21668E-05 1.16306E-06-6.78387E-20-5.35187E-18
 -1       109 1.21968E-04-3.65916E-05-3.70533E-05 5.76077E-07-5.18619E-19-4.27831E-19
 -1       110 1.11405E-04-3.34542E-05-3.36984E-05 2.63253E-07 9.97985E-19-1.31028E-18
 -1       111 1.04901E-04-3.15130E-05-3.16220E-05 1.20916E-07 8.45594E-20-4.61688E-18
 -1       112 1.00846E-04-3.02865E-05-3.03291E-05 3.83954E-08 1.40554E-19-7.26591E-18
 -1       113 9.85580E-05-2.95937E-05-2.96067E-05 1.11393E-08 1.08553E-18-1.10308E-17
 -1       114 9.71833E-05-2.91733E-05-2.91756E-05-3.10411E-10-1.40450E-18-9.69065E-18
 -1       115 9.63564E-05-2.89193E-05-2.89177E-05-4.13684E-09 4.70205E-19-1.94783E-18
 -1       116 9.58565E-05-2.87652E-05-2.87626E-05-4.71364E-09 2.63629E-19 3.77757E-19
 -1       117 9.55533E-05-2.86715E-05-2.86691E-05-4.13173E-09-5.75399E-19 2.78294E-19
 -1       118 9.53710E-05-2.86149E-05-2.86134E-05-3.41352E-09 1.65288E-18-2.98366E-18
 -1       119 9.52674E-05-2.85825E-05-2.85821E-05-3.20136E-09-1.63480E-19-4.49444E-18
 -1       120 9.52208E-05-2.85677E-05-2.85678E-05-4.27296E-09-4.67087E-20-9.60102E-19
 -1       121 9.52189E-05-2.85669E-05-2.85641E-05-7.42573E-09-1.98665E-19 2.85465E-19
 -1       122 9.52420E-05-2.85909E-05-2.85647E-05-7.52646E-09-4.89799E-18 2.74070E-20
 -1       123 9.52416E-05-2.85842E-05-2.85706E-05-3.23592E-09 4.16162E-18-2.98935E-19
 -1       124 9.52262E-05-2.85315E-05-2.85861E-05 1.12898E-09 1.28079E-17 1.41724E-18
 -1       125 9.52006E-05-2.84463E-05-2.86098E-05 4.03513E-09 7.79068E-18-3.20466E-19
 -1       126 9.51723E-05-2.83530E-05-2.86359E-05 5.14063E-09 4.53219E-18 4.37481E-19
 -1       127 9.51489E-05-2.82756E-05-2.86579E-05 4.82199E-09 9.53888E-18 8.47085E-19
 -1       128 9.51340E-05-2.82270E-05-2.86720E-05 3.48512E-09-4.56011E-18-1.62943E-18
 -1       129 9.51301E-05-2.82145E-05-2.86759E-05 1.76199E-09-9.73463E-18 9.19773E-19
 -1       130 9.51362E-05-2.82350E-05-2.86703E-05 1.71868E-10-1.93423E-18 1.32254E-18
 -1       131 9.51496E-05-2.82800E-05-2.86575E-05-9.89919E-10-3.46956E-19-2.78220E-19
 -1       132 9.51673E-05-2.83390E-05-2.86405E-05-1.66677E-09 3.48690E-18 6.37005E-19
 -1       133 9.51860E-05-2.84015E-05-2.86221E-05-1.98176E-09 9.21299E-18 7.52462E-19
 -1       134 9.52043E-05-2.84624E-05-2.86042E-05-2.14817E-09 3.35837E-18-7.89063E-19
 -1       135 9.52203E-05-2.85155E-05-2.85888E-05-2.16934E-09-2.73470E-18-1.07417E-18
 -1       136 9.52335E-05-2.85564E-05-2.85776E-05-3.97113E-10-4.37895E-18 6.71504E-19
 -1       137 9.52371E-05-2.85720E-05-2.85710E-05 2.49286E-09-3.69766E-18 9.45514E-19
 -1       138 3.36958E-05-1.19687E-04 2.36609E-05-3.64025E-05 1.24937E-19-8.02296E-19
 -1       139 8.92141E-06-6.84821E-05 1.28482E-05-4.55655E-05 5.80302E-18 3.55436E-18
 -1       140 6.76545E-06-1.30658E-05-7.39052E-06-8.65970E-06 1.17081E-17 9.01921E-18
 -1       141 5.40786E-05 1.43364E-05-3.38765E-05 5.85632E-05 9.76629E-18 1.27521E-17
 -1       142 1.77795E-04-1.64919E-05-6.25774E-05 1.18176E-04 6.75128E-18 1.28512E-17
 -1       143 3.33315E-04-8.56641E-05-8.58355E-05 1.13387E-04 3.03958E-18 9.59095E-18
 -1       144 4.34420E-04-1.37126E-04-9.79835E-05 3.23363E-05 8.97008E-19 2.60547E-18
 -1       145 4.05188E-04-1.21658E-04-9.46750E-05-7.39027E-05-1.78813E-19 2.34713E-18
 -1       146 2.62159E-04-5.19581E-05-7.59972E-05-1.24611E-04 1.90201E-18-2.70966E-18
 -1       147 1.11793E-04 5.72292E-06-4.94792E-05-9.59926E-05 4.24321E-18-6.65090E-18
 -1       148 2.41962E-05 1.10761E-05-2.25552E-05-2.95104E-05 3.92557E-18-3.79979E-18
 -1       149 2.04846E-06-3.05494E-05 6.99796E-07 2.67966E-05 7.50259E-18-4.94201E-18
 -1       150 1.83100E-05-9.02805E-05 1.78452E-05 4.58040E-05 1.13236E-17-4.58917E-18
 -1       151 3.87332E-05-1.27827E-04 2.52028E-05 2.64908E-05 1.09259E-17-1.95082E-18
 -1       152 3.93788E-05-1.21031E-04 2.31069E-05-7.48241E-06 4.87531E-18 1.77361E-19
 -1       153 2.05754E-05-7.26264E-05 1.27520E-05-2.31692E-05-4.03611E-18-1.37389E-18
 -1       154 6.09657E-06-8.81700E-06-4.61250E-06-6.64628E-07-1.04587E-17-5.97730E-18
 -1       155 9.15896E-05 2.94890E-05-4.81441E-05 1.09408E-04-1.19872E-17-1.41442E-17
 -1       156 1.85058E-04-1.17206E-05-6.65917E-05 1.31837E-04-7.02804E-18-1.31362E-17
 -1       157 2.82050E-04-6.79243E-05-8.05446E-05 1.02825E-04-2.43098E-18-8.44111E-18
 -1       158 3.37168E-04-1.03293E-04-8.75465E-05 2.70665E-05-2.55883E-19-4.64677E-18
 -1       159 3.22487E-04-9.37932E-05-8.56756E-05-6.13379E-05-9.62344E-19 3.35425E-18
 -1       160 2.48755E-04-4.78445E-05-7.60184E-05-1.19167E-04-4.41421E-18 1.01945E-17
 -1       161 1.48730E-04 6.29134E-06-6.00508E-05-1.27674E-04-7.80202E-18 1.33454E-17
 -1       162 6.18793E-05 3.64403E-05-4.01943E-05-9.07793E-05-9.28941E-18 1.08535E-17
 -1       163 1.17939E-05 2.36673E-05-1.81311E-05-3.14265E-05-8.38605E-18 4.84079E-18
 -1       164 7.97780E-06-2.85910E-05 1.63953E-06 1.29254E-05-7.05451E-18 4.18794E-18
 -1       165 2.70164E-05-8.97678E-05 1.65382E-05 2.23037E-05-8.94128E-18 7.81441E-19
 -1       166 9.48672E-05-1.23477E-05-3.55684E-05-2.23434E-05-1.24188E-18 1.99677E-18
 -1       167 8.92518E-05-8.45905E-06-3.47874E-05-1.73826E-05-1.30679E-18 5.07690E-19
 -1       168 8.65395E-05-6.49723E-06-3.44159E-05-1.35809E-05-1.16910E-18-4.93238E-19
 -1       169 8.51977E-05-5.51709E-06-3.42330E-05-1.03608E-05-9.49661E-19-1.10927E-18
 -1       170 8.44480E-05-4.94058E-06-3.41438E-05-7.54041E-06-7.43359E-19-1.43143E-18
 -1       171 8.40205E-05-4.59561E-06-3.41009E-05-4.89996E-06-5.78419E-19-1.69684E-18
 -1       172 8.38023E-05-4.41117E-06-3.40828E-05-2.39371E-06-3.20334E-19-1.78572E-18
 -1       173 8.37382E-05-4.35550E-06-3.40782E-05 5.02820E-08-1.12161E-19-1.96369E-18
 -1       174 8.38132E-05-4.42020E-06-3.40838E-05 2.49649E-06 6.30607E-20-2.01387E-18
 -1       175 8.40443E-05-4.61619E-06-3.41025E-05 5.00977E-06 2.94567E-19-2.10405E-18
 -1       176 8.44777E-05-4.97006E-06-3.41443E-05 7.61805E-06 4.50773E-19-1.99413E-18
 -1       177 8.52537E-05-5.57287E-06-3.42337E-05 1.05061E-05 8.11995E-19-1.80309E-18
 -1       178 8.66522E-05-6.60991E-06-3.44190E-05 1.37726E-05 1.05509E-18-1.47749E-18
 -1       179 8.93879E-05-8.59791E-06-3.47912E-05 1.76236E-05 1.24997E-18-6.79228E-19
 -1       180 9.57772E-05-1.36143E-05-3.54251E-05 2.18855E-05 1.24448E-18 8.71915E-19
 -1       181 1.05599E-04-2.61001E-05-3.52613E-05 1.86591E-05 9.83088E-19 2.98897E-18
 -1       182 1.03395E-04-2.73006E-05-3.26096E-05-1.21217E-05-9.63818E-19 3.61778E-18
 -1       183 9.71100E-05-2.82908E-05-2.95292E-05-4.72576E-06-8.56112E-19 3.11304E-18
 -1       184 9.35133E-05-2.76383E-05-2.81841E-05-1.76351E-06-6.07713E-19 2.58344E-18
 -1       185 9.19836E-05-2.74084E-05-2.76397E-05-4.13310E-07-5.76947E-19 2.00718E-18
 -1       186 9.14159E-05-2.73356E-05-2.74447E-05 2.54264E-07-3.77814E-19 1.72796E-18
 -1       187 9.13849E-05-2.73775E-05-2.74231E-05 5.84266E-07-5.82460E-19 1.40423E-18
 -1       188 9.16428E-05-2.74840E-05-2.74926E-05 7.28440E-07-5.23608E-19 1.16825E-18
 -1       189 9.20452E-05-2.76215E-05-2.76083E-05 7.66076E-07-4.23085E-19 9.25943E-19
 -1       190 9.25059E-05-2.77686E-05-2.77439E-05 7.42986E-07-3.21806E-19 8.05913E-19
 -1       191 9.29736E-05-2.79130E-05-2.78832E-05 6.87185E-07-1.54686E-19 6.58535E-19
 -1       192 9.34186E-05-2.80477E-05-2.80166E-05 6.15806E-07-2.98772E-19 2.13256E-19
 -1       193 9.38243E-05-2.81692E-05-2.81386E-05 5.38416E-07-1.00375E-19-1.19143E-19
 -1       194 9.41813E-05-2.82761E-05-2.82461E-05 4.58628E-07 8.38226E-20 1.66026E-19
 -1       195 9.44825E-05-2.83675E-05-2.83362E-05 3.74776E-07 1.95183E-19 2.66853E-19
 -1       196 9.47191E-05-2.84422E-05-2.84060E-05 2.80044E-07-2.02321E-19 5.27932E-19
 -1       197 9.48766E-05-2.84972E-05-2.84503E-05 1.62377E-07-2.07558E-19 3.69446E-19
 -1       198 9.49310E-05-2.85267E-05-2.84616E-05 4.62199E-09-2.30737E-19 1.65969E-19
 -1       199 9.48459E-05-2.85207E-05-2.84285E-05-2.14458E-07-1.86351E-19-5.45782E-19
 -1       200 9.45710E-05-2.84641E-05-2.83357E-05-5.17381E-07-9.45032E-19-7.80441E-19
 -1       201 9.40427E-05-2.83358E-05-2.81649E-05-9.22321E-07-1.68430E-19-6.39899E-19
 -1       202 9.31907E-05-2.81095E-05-2.78971E-05-1.43393E-06 1.86653E-20-3.07872E-19
 -1       203 9.19510E-05-2.77571E-05-2.75166E-05-2.03101E-06-3.73016E-19-9.51912E-19
 -1       204 9.02872E-05-2.72552E-05-2.70175E-05-2.65392E-06-3.59709E-19-1.04856E-18
 -1       205 8.82185E-05-2.65969E-05-2.64112E-05-3.19789E-06 1.99185E-19-9.65771E-19
 -1       206 8.58485E-05-2.58050E-05-2.57321E-05-3.52108E-06 4.27594E-19-7.84290E-19
 -1       207 8.33815E-05-2.49447E-05-2.50403E-05-3.47505E-06 3.58603E-19-1.51126E-19
 -1       208 8.11117E-05-2.41250E-05-2.44159E-05-2.95603E-06 2.53909E-19 1.72709E-19
 -1       209 7.93742E-05-2.34809E-05-2.39450E-05-1.96021E-06 9.46642E-20-4.41446E-19
 -1       210 7.84637E-05-2.31380E-05-2.37005E-05-6.13765E-07-2.32115E-19-3.86686E-19
 -1       211 7.85470E-05-2.31695E-05-2.37227E-05 8.47838E-07-6.76807E-19 3.07503E-19
 -1       212 7.96088E-05-2.35687E-05-2.40081E-05 2.15110E-06-5.36450E-19 6.06644E-19
 -1       213 8.14565E-05-2.42510E-05-2.45100E-05 3.07483E-06 8.24426E-20-3.76036E-19
 -1       214 8.37833E-05-2.50865E-05-2.51522E-05 3.51465E-06 8.75345E-20 2.60656E-19
 -1       215 8.62567E-05-2.59427E-05-2.58484E-05 3.49439E-06 5.99962E-19 1.03645E-19
 -1       216 8.85963E-05-2.67176E-05-2.65216E-05 3.12968E-06 9.09493E-19 3.71483E-19
 -1       217 9.06162E-05-2.73541E-05-2.71163E-05 2.57142E-06 6.98888E-19 7.04877E-19
 -1       218 9.22305E-05-2.78357E-05-2.76026E-05 1.95734E-06-7.18204E-19 6.96608E-19
 -1       219 9.34335E-05-2.81737E-05-2.79734E-05 1.38557E-06-5.81906E-19 9.40368E-19
 -1       220 9.42711E-05-2.83937E-05-2.82376E-05 9.09651E-07-9.62396E-19 9.08356E-19
 -1       221 9.48134E-05-2.85251E-05-2.84129E-05 5.46684E-07-3.82592E-19 1.89528E-18
 -1       222 9.51347E-05-2.85946E-05-2.85200E-05 2.90185E-07-6.73165E-19 6.11112E-19
 -1       223 9.53018E-05-2.86239E-05-2.85782E-05 1.21959E-07-1.01772E-18-7.32421E-19
 -1       224 9.53687E-05-2.86290E-05-2.86040E-05 2.06274E-08-4.66248E-19-4.69154E-19
 -1       225 9.53759E-05-2.86212E-05-2.86099E-05-3.33951E-08 1.67670E-18-9.51931E-20
 -1       226 9.53520E-05-2.86075E-05-2.86052E-05-5.56492E-08 1.79041E-18 5.12699E-19
 -1       227 9.53162E-05-2.85925E-05-2.85960E-05-5.71404E-08 7.07019E-19-1.13104E-18
 -1       228 9.52810E-05-2.85790E-05-2.85866E-05-4.49490E-08-7.45374E-19 3.21880E-19
 -1       229 9.52528E-05-2.85681E-05-2.85790E-05-2.43469E-08-5.33314E-19 2.38221E-18
 -1       230 9.94994E-05-2.85514E-05-3.05858E-05 7.21074E-06 1.09175E-18 2.48339E-18
 -1       231 9.44129E-05-2.77862E-05-2.85230E-05 2.74644E-06 7.04513E-19 1.87022E-18
 -1       232 9.20992E-05-2.74026E-05-2.76823E-05 9.25469E-07 4.56792E-19 1.20838E-18
 -1       233 9.11577E-05-2.72409E-05-2.73663E-05 6.24420E-08 4.78440E-19 9.40662E-19
 -1       234 9.09527E-05-2.72359E-05-2.72939E-05-3.66707E-07 6.35399E-21 1.12436E-18
 -1       235 9.11455E-05-2.73243E-05-2.73452E-05-5.70178E-07-1.81975E-19 1.06536E-18
 -1       236 9.15420E-05-2.74610E-05-2.74597E-05-6.47043E-07 2.56420E-20 1.03970E-18
 -1       237 9.20289E-05-2.76170E-05-2.76031E-05-6.51692E-07 3.64763E-19 7.90008E-19
 -1       238 9.25406E-05-2.77753E-05-2.77554E-05-6.17452E-07 4.37173E-19 7.57550E-19
 -1       239 9.30652E-05-2.79340E-05-2.79127E-05-5.63184E-07 1.00735E-19 3.20873E-19
 -1       240 9.35364E-05-2.80737E-05-2.80550E-05-5.10128E-07 1.36430E-19 4.95746E-19
 -1       241 9.39820E-05-2.82035E-05-2.81902E-05-4.68646E-07 1.32863E-19 4.99302E-21
 -1       242 9.44150E-05-2.83268E-05-2.83227E-05-4.51006E-07 1.91578E-19-2.53407E-19
 -1       243 9.48631E-05-2.84509E-05-2.84610E-05-4.72343E-07 4.50942E-19-8.09376E-19
 -1       244 9.53720E-05-2.85875E-05-2.86196E-05-5.54612E-07 3.31388E-19-1.22370E-18
 -1       245 9.60126E-05-2.87541E-05-2.88214E-05-7.32409E-07 3.45513E-21-9.32353E-19
 -1       246 9.68944E-05-2.89770E-05-2.91019E-05-1.06197E-06-4.27472E-19-2.72992E-19
 -1       247 9.81859E-05-2.92957E-05-2.95166E-05-1.63505E-06 2.79473E-19-1.53203E-19
 -1       248 1.00144E-04-2.97705E-05-3.01507E-05-2.59535E-06-4.17561E-21-7.97218E-19
 -1       249 1.03336E-04-3.05299E-05-3.11978E-05-4.27588E-06 1.80243E-19-8.12677E-19
 -1       250 1.08044E-04-3.16441E-05-3.27521E-05-6.86267E-06 1.46729E-19-5.58201E-19
 -1       251 1.15084E-04-3.33464E-05-3.50707E-05-1.07575E-05 5.45191E-19-1.39044E-18
 -1       252 1.25188E-04-3.59969E-05-3.82846E-05-1.60200E-05-4.63552E-20-9.56552E-19
 -1       253 1.38739E-04-4.03660E-05-4.21229E-05-2.14117E-05-4.12402E-19-4.32225E-19
 -1       254 1.54998E-04-4.76927E-05-4.55459E-05-2.20305E-05-1.00702E-18 6.46405E-19
 -1       255 1.71700E-04-5.89410E-05-4.76315E-05-7.71535E-06-2.53051E-18-3.61590E-19
 -1       256 1.82851E-04-6.56572E-05-5.01565E-05 2.28534E-05 2.57395E-18 2.52992E-19
 -1       257 1.85545E-04-5.73931E-05-5.60753E-05 4.41190E-05 3.17002E-18-2.96462E-19
 -1       258 1.82672E-04-3.86183E-05-6.27049E-05 2.27506E-05 2.04135E-19-2.82004E-18
 -1       259 1.83960E-04-3.89928E-05-6.28027E-05-2.08701E-05 1.84081E-18-3.23905E-18
 -1       260 1.86793E-04-5.37289E-05-5.75441E-05-4.33368E-05 2.44475E-18-3.90175E-18
 -1       261 1.86825E-04-6.69056E-05-5.11209E-05-2.78833E-05-5.06102E-20-4.72247E-18
 -1       262 1.55120E-04-5.14065E-05-4.40759E-05 2.10332E-05-2.56611E-18-2.96825E-18
 -1       263 1.38721E-04-4.10121E-05-4.17638E-05 2.58798E-05-1.71021E-19-6.69857E-19
 -1       264 1.25933E-04-3.57528E-05-3.86377E-05 2.13430E-05 6.92029E-19-5.50518E-19
 -1       265 1.16222E-04-3.30433E-05-3.56397E-05 1.50431E-05-3.86955E-19-2.14438E-18
 -1       266 1.09206E-04-3.14775E-05-3.32896E-05 9.85169E-06 3.71285E-19-3.14007E-18
 -1       267 1.04346E-04-3.04780E-05-3.16312E-05 6.22013E-06 1.07753E-18-8.13996E-19
 -1       268 1.00976E-04-2.97977E-05-3.04809E-05 3.76949E-06 1.43020E-18 2.07603E-19
 -1       269 9.89001E-05-2.93709E-05-2.97815E-05 2.31727E-06 1.40081E-18 1.37702E-19
 -1       270 9.75529E-05-2.90862E-05-2.93316E-05 1.42349E-06-7.30923E-19 1.39336E-18
 -1       271 9.66863E-05-2.88981E-05-2.90447E-05 8.75816E-07-2.46462E-18-1.58789E-18
 -1       272 9.61299E-05-2.87741E-05-2.88621E-05 5.40861E-07-1.68675E-18-2.96105E-18
 -1       273 9.57727E-05-2.86922E-05-2.87458E-05 3.34933E-07 3.24862E-19-1.68987E-18
 -1       274 9.55437E-05-2.86381E-05-2.86719E-05 2.05995E-07 8.91069E-19 1.47820E-19
 -1       275 9.53987E-05-2.86025E-05-2.86257E-05 1.21625E-07 1.21291E-18 2.13406E-18
 -1       276 9.53098E-05-2.85795E-05-2.85980E-05 6.19636E-08-9.04937E-19-8.91317E-19
 -1       277 9.52603E-05-2.85678E-05-2.85819E-05 1.66927E-08-4.42820E-19-8.19417E-19
 -1       278 9.52423E-05-2.85691E-05-2.85740E-05-4.66779E-09 1.23436E-18-1.04634E-18
 -1       279 9.52390E-05-2.85424E-05-2.85845E-05 2.91041E-08 2.95431E-18 5.40774E-18
 -1       280 9.52204E-05-2.84901E-05-2.85989E-05 6.36479E-08 3.36619E-18 1.46991E-18
 -1       281 9.51945E-05-2.84219E-05-2.86169E-05 8.20734E-08 2.17827E-18-8.68153E-19
 -1       282 9.51687E-05-2.83527E-05-2.86354E-05 7.92904E-08 3.58204E-18-9.69697E-19
 -1       283 9.51489E-05-2.82978E-05-2.86505E-05 5.93708E-08-2.87262E-19-1.13031E-18
 -1       284 9.51378E-05-2.82651E-05-2.86598E-05 2.91303E-08 3.61428E-19-5.73883E-18
 -1       285 9.51367E-05-2.82596E-05-2.86617E-05-2.82281E-09 6.93277E-19-3.02187E-20
 -1       286 9.51443E-05-2.82790E-05-2.86567E-05-2.97366E-08-1.32943E-18 2.19704E-18
 -1       287 9.51578E-05-2.83167E-05-2.86463E-05-4.79275E-08-2.36145E-18-3.88513E-19
 -1       288 9.51743E-05-2.83649E-05-2.86327E-05-5.67944E-08 2.36005E-19 3.69187E-18
 -1       289 9.51908E-05-2.84152E-05-2.86181E-05-5.79143E-08 1.41600E-19 2.95821E-19
 -1       290 9.52065E-05-2.84641E-05-2.86039E-05-5.34013E-08 3.62491E-19-3.08475E-18
 -1       291 9.52202E-05-2.85064E-05-2.85916E-05-4.45571E-08-6.79640E-19-1.89997E-18
 -1       292 9.52315E-05-2.85394E-05-2.85822E-05-3.06794E-08-7.39621E-19 1.19650E-19
 -1       293 8.91160E-06-5.18935E-05 1.51812E-05-6.23641E-06-6.00050E-19 1.44906E-18
 -1       294 2.04958E-05-5.42826E-05 1.05339E-05 5.15262E-06 7.88799E-19 3.42964E-18
 -1       295 5.89475E-05-5.13168E-05-5.80134E-06 2.74536E-05 1.28093E-18 5.79075E-18
 -1       296 9.67723E-05-5.50048E-05-2.06726E-05 2.97415E-05 4.51850E-18 6.26466E-18
 -1       297 1.73215E-04-6.23040E-05-4.73998E-05 2.53076E-05 4.85562E-18 5.80302E-18
 -1       298 2.33463E-04-6.45910E-05-6.80158E-05 1.24738E-05 3.56199E-18 3.23863E-18
 -1       299 2.60435E-04-5.68605E-05-8.00810E-05-2.58267E-06 3.33392E-18 1.68708E-18
 -1       300 2.73372E-04-5.55354E-05-8.43110E-05 1.07994E-06-4.53163E-19 1.95008E-18
 -1       301 2.48386E-04-5.98080E-05-7.51411E-05 4.24189E-06 2.70204E-18 1.42386E-18
 -1       302 2.08371E-04-6.41156E-05-5.93573E-05-1.91602E-05 1.81922E-18 1.01220E-19
 -1       303 1.41503E-04-5.69819E-05-3.74330E-05-3.15347E-05 6.05629E-19-1.87703E-18
 -1       304 7.96137E-05-5.01403E-05-1.58686E-05-2.77749E-05 2.47630E-18-4.02341E-20
 -1       305 3.98303E-05-5.03316E-05 1.21838E-06-1.83185E-05 3.02772E-18 2.06729E-20
 -1       306 1.45770E-05-4.90471E-05 1.18118E-05-5.05503E-06 1.87544E-18-1.04979E-18
 -1       307 1.05141E-05-5.68603E-05 1.62549E-05 1.09031E-05 2.88563E-18-3.01057E-18
 -1       308 1.70149E-05-4.90089E-05 1.08125E-05 2.30911E-05 6.80379E-19-4.46111E-18
 -1       309 3.77617E-05-4.03062E-05-9.02482E-07 3.66001E-05-1.77686E-18-4.84090E-18
 -1       310 7.96711E-05-3.84113E-05-1.83213E-05 5.09133E-05-2.20419E-18-6.46932E-18
 -1       311 1.11852E-04-2.54127E-05-3.66684E-05 5.71464E-05-6.70935E-18-5.98090E-18
 -1       312 1.57255E-04-2.69039E-05-5.40427E-05 5.73935E-05-6.21341E-18-5.54849E-18
 -1       313 1.96743E-04-3.19933E-05-6.73888E-05 5.58756E-05-5.14077E-18-4.43358E-18
 -1       314 2.23026E-04-3.59779E-05-7.68888E-05 2.10130E-05-2.83407E-18-3.20073E-18
 -1       315 2.34788E-04-3.99857E-05-7.96689E-05-6.46539E-06-3.33763E-18-1.09222E-18
 -1       316 2.18429E-04-3.64858E-05-7.45731E-05-3.32631E-05-4.06332E-18 8.24587E-19
 -1       317 1.84114E-04-3.04903E-05-6.33689E-05-5.17753E-05-3.93791E-18 2.77784E-18
 -1       318 1.41685E-04-2.80881E-05-4.75427E-05-5.62234E-05-3.26923E-18 5.12286E-18
 -1       319 9.43800E-05-2.59052E-05-2.94755E-05-5.48411E-05-2.60865E-18 5.61477E-18
 -1       320 5.56379E-05-3.29853E-05-1.12267E-05-4.30347E-05-2.70902E-18 2.06348E-18
 -1       321 2.99651E-05-4.34042E-05 3.37624E-06-3.21720E-05-3.44700E-18 7.71065E-19
 -1       322 1.44336E-05-5.33946E-05 1.34329E-05-1.86168E-05-1.89841E-18 2.78674E-18
 -1       323 1.74396E-04-6.53631E-05-4.63858E-05-2.91237E-06-1.31851E-18-3.25095E-18
 -1       324 9.16536E-05-1.43970E-05-3.31729E-05-1.30544E-05-1.36991E-18 2.87329E-19
 -1       325 9.57021E-05-1.91012E-05-3.28922E-05-1.46229E-05-1.37014E-18 1.23058E-18
 -1       326 8.79991E-05-1.03668E-05-3.33261E-05-8.15250E-06-1.04514E-18-8.37520E-19
 -1       327 8.71889E-05-9.44855E-06-3.33658E-05-5.71320E-06-7.36232E-19-1.12334E-18
 -1       328 8.67283E-05-8.91708E-06-3.33926E-05-3.36382E-06-4.91643E-19-1.24558E-18
 -1       329 8.65230E-05-8.67661E-06-3.34062E-05-1.07218E-06-2.10332E-19-1.37355E-18
 -1       330 8.65323E-05-8.68654E-06-3.34060E-05 1.20082E-06-2.00663E-20-1.40842E-18
 -1       331 8.67574E-05-8.94875E-06-3.33917E-05 3.49481E-06 1.96421E-19-1.65008E-18
 -1       332 8.72309E-05-9.49463E-06-3.33642E-05 5.80807E-06 5.24832E-19-1.53548E-18
 -1       333 8.80710E-05-1.04482E-05-3.33225E-05 8.24709E-06 8.50147E-19-1.27484E-18
 -1       334 8.94845E-05-1.20319E-05-3.32614E-05 1.07578E-05 1.14938E-18-1.10424E-18
 -1       335 9.18877E-05-1.47331E-05-3.31489E-05 1.31449E-05 1.35172E-18-6.71055E-19
 -1       336 9.58919E-05-1.95882E-05-3.28059E-05 1.42735E-05 1.42605E-18 2.23723E-19
 -1       337 9.87805E-05-2.44488E-05-3.19415E-05 1.18492E-05 1.31585E-18 1.18192E-18
 -1       338 9.63426E-05-2.67881E-05-2.97783E-05 5.70573E-06 1.04125E-18 8.21159E-19
 -1       339 1.76607E-04-2.42601E-05-6.49924E-05 8.19538E-06-2.67377E-18-1.51735E-18
 -1       340 9.64424E-05-2.60296E-05-3.01325E-05-6.34099E-06-1.04283E-18 1.27761E-18
 -1       341 9.49252E-05-2.70266E-05-2.90739E-05-2.82287E-06-9.61727E-19 9.89976E-19
 -1       342 9.39543E-05-2.74247E-05-2.84979E-05-9.04276E-07-7.53193E-19 7.70930E-19
 -1       343 9.34423E-05-2.76391E-05-2.81945E-05 1.61406E-07-5.63120E-19 6.27459E-19
 -1       344 9.32589E-05-2.77937E-05-2.80536E-05 7.34059E-07-5.34603E-19 6.29398E-19
 -1       345 9.32869E-05-2.79252E-05-2.80111E-05 1.01198E-06-5.88977E-19 6.05858E-19
 -1       346 9.34400E-05-2.80429E-05-2.80272E-05 1.11201E-06-2.32403E-19 5.68567E-19
 -1       347 9.36592E-05-2.81484E-05-2.80764E-05 1.10631E-06-3.85747E-19 3.90458E-19
 -1       348 9.39055E-05-2.82423E-05-2.81420E-05 1.04038E-06-2.76285E-19 5.15292E-19
 -1       349 9.41546E-05-2.83259E-05-2.82131E-05 9.42097E-07-3.62234E-19 2.85082E-19
 -1       350 9.43914E-05-2.84010E-05-2.82824E-05 8.26528E-07-6.94442E-20 6.54128E-19
 -1       351 9.46064E-05-2.84709E-05-2.83447E-05 6.98353E-07 2.33723E-19 4.00265E-19
 -1       352 9.47925E-05-2.85390E-05-2.83955E-05 5.52948E-07 1.00840E-20 4.88649E-19
 -1       353 9.49426E-05-2.86088E-05-2.84301E-05 3.76744E-07-4.87890E-19-4.83137E-19
 -1       354 9.50462E-05-2.86826E-05-2.84433E-05 1.47491E-07-4.54489E-19-2.23602E-19
 -1       355 9.50871E-05-2.87602E-05-2.84282E-05-1.64737E-07-3.39118E-19-6.36945E-19
 -1       356 9.50408E-05-2.88357E-05-2.83768E-05-5.94599E-07-2.89154E-19-6.69015E-19
 -1       357 9.48718E-05-2.88942E-05-2.82801E-05-1.17508E-06-2.70373E-19-3.40089E-19
 -1       358 9.45329E-05-2.89077E-05-2.81298E-05-1.92610E-06-3.26517E-20-4.90959E-19
 -1       359 9.39672E-05-2.88319E-05-2.79203E-05-2.83753E-06 1.88009E-19 6.37774E-20
 -1       360 9.31160E-05-2.86082E-05-2.76512E-05-3.84841E-06-5.16342E-19-1.73780E-19
 -1       361 9.19368E-05-2.81746E-05-2.73305E-05-4.82888E-06-4.22541E-19-7.70737E-19
 -1       362 9.04304E-05-2.74893E-05-2.69765E-05-5.57685E-06 4.41863E-19-2.51226E-19
 -1       363 8.86752E-05-2.65655E-05-2.66170E-05-5.84500E-06 8.98151E-19-6.74783E-19
 -1       364 8.68511E-05-2.55033E-05-2.62870E-05-5.40759E-06 4.64120E-19-6.33674E-19
 -1       365 8.52315E-05-2.44932E-05-2.60224E-05-4.15603E-06-3.05060E-19-1.23386E-18
 -1       366 8.41244E-05-2.37726E-05-2.58542E-05-2.18303E-06-7.79552E-20-1.00498E-18
 -1       367 8.37725E-05-2.35382E-05-2.58029E-05 2.00317E-07 7.07306E-20-5.49482E-19
 -1       368 8.42588E-05-2.38589E-05-2.58747E-05 2.54523E-06-8.21648E-19-9.82820E-19
 -1       369 8.54707E-05-2.46417E-05-2.60611E-05 4.41656E-06-4.79589E-19-3.91663E-19
 -1       370 8.71476E-05-2.56766E-05-2.63398E-05 5.53700E-06 4.59971E-19-1.20371E-18
 -1       371 8.89816E-05-2.67281E-05-2.66790E-05 5.85158E-06 8.31252E-19-1.24988E-18
 -1       372 9.07123E-05-2.76182E-05-2.70424E-05 5.49578E-06 1.23503E-18 3.04623E-19
 -1       373 9.21781E-05-2.82626E-05-2.73966E-05 4.70559E-06 1.11393E-18 1.83205E-19
 -1       374 9.33166E-05-2.86597E-05-2.77153E-05 3.72499E-06-8.98531E-19 4.02697E-21
 -1       375 9.41380E-05-2.88571E-05-2.79828E-05 2.74600E-06-4.24554E-19 7.98043E-19
 -1       376 9.46912E-05-2.89180E-05-2.81932E-05 1.88771E-06-2.89390E-19 1.53571E-18
 -1       377 9.50377E-05-2.88999E-05-2.83485E-05 1.20293E-06-2.67601E-19 2.39483E-18
 -1       378 9.52359E-05-2.88451E-05-2.84560E-05 6.97233E-07-9.97832E-19 1.78200E-18
 -1       379 9.53341E-05-2.87802E-05-2.85251E-05 3.49286E-07-2.07226E-18 1.19947E-18
 -1       380 9.53691E-05-2.87193E-05-2.85655E-05 1.26844E-07-2.42137E-19 1.48125E-18
 -1       381 9.53669E-05-2.86681E-05-2.85859E-05-2.97579E-09 8.82237E-19 2.22324E-18
 -1       382 9.53452E-05-2.86277E-05-2.85936E-05-6.83614E-08 4.21648E-19 1.04716E-19
 -1       383 9.53156E-05-2.85968E-05-2.85939E-05-9.08764E-08-1.05469E-18-1.43031E-18
 -1       384 9.52850E-05-2.85731E-05-2.85907E-05-8.56263E-08 9.36642E-19-1.90355E-18
 -1       385 9.52574E-05-2.85556E-05-2.85864E-05-6.33905E-08 7.74996E-19-9.29233E-19
 -1       386 9.81773E-05-2.30632E-05-3.21221E-05 2.36382E-05 1.44400E-18-5.58077E-19
 -1       387 9.43368E-05-2.73008E-05-2.86904E-05 2.47047E-06 8.06101E-19 5.21597E-19
 -1       388 9.31757E-05-2.74639E-05-2.81415E-05 7.35216E-07 5.12452E-19 2.60880E-19
 -1       389 9.26263E-05-2.75417E-05-2.78837E-05-1.89152E-07 8.09822E-20 2.26789E-19
 -1       390 9.24925E-05-2.76358E-05-2.77915E-05-6.69868E-07-2.72942E-19 8.83603E-20
 -1       391 9.26064E-05-2.77476E-05-2.77950E-05-8.94837E-07-9.41457E-20 1.88838E-19
 -1       392 9.28577E-05-2.78671E-05-2.78527E-05-9.69809E-07 4.60809E-19 4.53172E-19
 -1       393 9.31769E-05-2.79855E-05-2.79393E-05-9.59557E-07 5.53553E-19 3.89748E-19
 -1       394 9.35389E-05-2.81026E-05-2.80445E-05-9.03796E-07 4.02161E-19 3.71273E-19
 -1       395 9.38857E-05-2.82034E-05-2.81499E-05-8.38745E-07 9.75484E-21-1.45715E-19
 -1       396 9.42278E-05-2.82934E-05-2.82577E-05-7.86176E-07 2.91223E-19-4.20675E-19
 -1       397 9.45688E-05-2.83730E-05-2.83693E-05-7.68263E-07 6.80937E-19-6.14872E-19
 -1       398 9.49232E-05-2.84433E-05-2.84902E-05-8.10530E-07 6.04850E-19-9.48354E-19
 -1       399 9.53166E-05-2.85054E-05-2.86310E-05-9.47815E-07 5.04199E-19-8.39915E-19
 -1       400 9.57876E-05-2.85589E-05-2.88079E-05-1.23240E-06-3.36917E-19-9.30980E-19
 -1       401 9.63914E-05-2.86006E-05-2.90456E-05-1.74575E-06-2.35384E-19-3.95626E-19
 -1       402 9.72030E-05-2.86215E-05-2.93797E-05-2.61528E-06-9.50670E-20-3.51589E-19
 -1       403 9.83216E-05-2.86042E-05-2.98600E-05-4.03412E-06 5.31396E-19-3.01123E-19
 -1       404 9.99468E-05-2.85071E-05-3.05906E-05-6.42561E-06 3.11452E-19-1.05060E-18
 -1       405 1.02059E-04-2.83100E-05-3.15748E-05-9.97271E-06-1.34821E-19-1.23706E-18
 -1       406 1.04844E-04-2.80744E-05-3.28693E-05-1.51283E-05 2.50861E-19-9.57386E-19
 -1       407 1.08510E-04-2.82518E-05-3.43582E-05-2.19380E-05-4.64495E-19-1.14227E-19
 -1       408 1.13619E-04-3.03328E-05-3.55871E-05-2.93134E-05-6.77001E-19 8.87207E-19
 -1       409 1.23250E-04-3.86314E-05-3.59403E-05-3.28366E-05-1.04274E-18 1.65361E-18
 -1       410 1.42563E-04-5.78146E-05-3.58959E-05-2.51394E-05-2.80156E-19-1.17343E-18
 -1       411 9.84443E-05-2.40749E-05-3.17230E-05 3.16117E-05 5.94200E-19-9.04055E-19
 -1       412 1.66555E-04-7.59756E-05-3.91146E-05 7.90999E-06-2.68509E-19-1.80333E-18
 -1       413 1.03111E-04-3.29711E-05-2.96362E-05 3.70491E-05-2.60095E-18-1.36888E-18
 -1       414 9.83489E-05-2.43799E-05-3.16551E-05 1.65682E-05-5.70950E-19-2.92921E-19
 -1       415 9.81683E-05-2.58630E-05-3.09528E-05 1.11313E-05-1.30633E-19 1.39438E-19
 -1       416 9.76953E-05-2.70057E-05-3.02696E-05 7.14345E-06-5.03108E-19 2.81465E-18
 -1       417 9.71680E-05-2.76861E-05-2.97603E-05 4.61058E-06 1.46113E-18 3.44483E-18
 -1       418 9.66775E-05-2.80877E-05-2.93842E-05 2.95192E-06 6.40984E-19 2.63234E-18
 -1       419 9.62730E-05-2.83138E-05-2.91181E-05 1.88426E-06-2.86589E-19 1.86106E-18
 -1       420 9.59601E-05-2.84363E-05-2.89343E-05 1.20298E-06-5.81474E-19 1.30940E-18
 -1       421 9.57271E-05-2.84994E-05-2.88091E-05 7.69311E-07-1.39316E-18 1.00238E-18
 -1       422 9.55573E-05-2.85289E-05-2.87248E-05 4.91682E-07-1.37505E-18 1.04047E-18
 -1       423 9.54351E-05-2.85395E-05-2.86685E-05 3.10389E-07 1.62490E-19 1.48043E-18
 -1       424 9.53481E-05-2.85402E-05-2.86312E-05 1.87413E-07 2.60532E-19 3.46854E-18
 -1       425 9.52863E-05-2.85371E-05-2.86063E-05 1.00075E-07-3.36647E-19 6.40496E-18
 -1       426 9.52569E-05-2.85344E-05-2.85953E-05 6.14634E-08-2.61522E-19 6.01551E-18
 -1       427 9.52115E-05-2.84269E-05-2.86218E-05 1.50128E-07-6.58580E-19-1.48846E-18
 -1       428 9.52408E-05-2.84859E-05-2.86090E-05 1.12493E-07-4.69084E-19 2.20531E-18
 -1       429 9.51669E-05-2.83560E-05-2.86333E-05 1.54161E-07-7.81832E-19-1.31759E-18
 -1       430 9.51317E-05-2.83006E-05-2.86421E-05 1.24880E-07-9.34645E-20-2.72963E-18
 -1       431 9.51117E-05-2.82682E-05-2.86475E-05 7.20961E-08 8.08615E-19-6.41361E-19
 -1       432 9.51093E-05-2.82637E-05-2.86484E-05 1.12023E-08 1.70019E-18-4.13483E-18
 -1       433 9.51217E-05-2.82840E-05-2.86450E-05-4.39189E-08 1.58868E-19-4.92608E-20
 -1       434 9.51432E-05-2.83221E-05-2.86378E-05-8.41998E-08-1.66519E-18 5.16987E-20
 -1       435 9.51678E-05-2.83692E-05-2.86281E-05-1.06433E-07-1.53850E-18 2.88450E-18
 -1       436 9.51904E-05-2.84166E-05-2.86174E-05-1.12351E-07-1.67186E-18 1.05434E-18
 -1       437 9.52096E-05-2.84608E-05-2.86066E-05-1.06377E-07-3.53935E-18-4.90667E-19
 -1       438 9.52256E-05-2.84988E-05-2.85971E-05-9.21971E-08-1.56679E-18-2.92394E-18
 -1       439 9.52414E-05-2.85298E-05-2.85905E-05-8.08831E-08 1.45501E-18 1.89372E-19
 -1       440 9.90165E-06-1.63792E-05 3.08440E-06-1.69096E-05 4.94138E-19 2.27248E-18
 -1       441 1.85995E-05-2.48105E-05 2.55262E-06 1.64686E-05-5.84347E-19 3.04159E-18
 -1       442 1.10921E-04-6.16856E-05-2.14595E-05 3.39709E-05-1.52614E-18 2.38036E-18
 -1       443 1.70660E-04-3.49855E-05-5.77015E-05 1.66431E-05-4.15562E-18-3.58401E-19
 -1       444 1.72300E-04-1.35879E-05-6.79012E-05-2.49126E-07-4.88918E-18 3.37066E-19
 -1       445 8.94225E-05-1.19225E-05-3.32775E-05-1.07540E-05-1.26515E-18-4.29495E-19
 -1       446 1.87700E-04-7.59741E-05-4.79629E-05 9.77457E-06 1.49470E-18-1.03529E-18
 -1       447 1.44028E-04-7.19812E-05-3.13237E-05-2.19807E-05 5.08220E-20-1.29607E-18
 -1       448 9.14121E-05-5.57018E-05-1.59201E-05-3.70030E-05 1.26907E-18 2.37437E-18
 -1       449 3.84535E-05-3.44981E-05-2.06721E-06-2.97766E-05-6.85038E-20-7.61483E-19
 -1       450 1.04302E-05-1.91399E-05 3.78601E-06-2.93980E-06-9.45408E-19-8.83032E-19
 -1       451 1.11411E-05-2.04667E-05 4.03726E-06 2.20930E-05-5.89694E-19-4.39430E-18
 -1       452 3.71848E-05-3.06944E-05-2.65164E-06 4.69498E-05 1.70783E-19-4.73216E-18
 -1       453 7.30276E-05-4.37585E-05-1.24269E-05 5.48062E-05 4.51574E-19-4.67377E-18
 -1       454 1.21952E-04-5.27712E-05-2.96380E-05 4.52576E-05-7.79059E-19-2.96610E-18
 -1       455 1.48581E-04-4.78960E-05-4.30645E-05 3.28231E-05-3.50836E-18-4.65127E-19
 -1       456 1.74962E-04-1.16017E-05-6.98954E-05 2.49508E-07-4.45370E-18-3.00141E-19
 -1       457 1.27098E-04-5.65513E-05-2.99734E-05 3.08258E-05-2.49007E-18-7.37289E-19
 -1       458 1.73134E-04-2.74489E-05-6.22249E-05-8.34943E-06-4.14961E-18 7.12672E-19
 -1       459 1.62272E-04-4.17585E-05-5.14872E-05-2.02237E-05-2.31469E-18 9.11937E-19
 -1       460 1.37714E-04-5.17758E-05-3.68069E-05-3.83528E-05-1.68665E-19 2.03362E-18
 -1       461 1.01469E-04-4.97261E-05-2.22383E-05-5.16628E-05 1.45690E-19 1.68480E-18
 -1       462 6.18316E-05-4.12942E-05-8.92435E-06-5.31545E-05-8.76785E-19 6.40754E-19
 -1       463 2.47510E-05-2.52452E-05 3.43209E-07-3.92055E-05-5.59571E-19 1.50221E-18
 -1       464 5.21067E-05-3.81957E-05-6.15771E-06 3.47342E-05-1.58099E-18 4.70209E-18
 -1       465 1.54939E-04-9.88797E-06-6.25994E-05-5.40628E-06-3.95670E-18-8.42004E-19
 -1       466 1.55628E-04-7.07172E-05-3.63637E-05-1.42920E-05-5.47924E-19-3.07264E-18
 -1       467 1.97084E-04-7.19748E-05-5.34481E-05-1.18726E-05 3.01676E-18-5.21137E-19
 -1       468 1.05931E-04-5.41841E-05-2.19632E-05 4.99621E-05 2.05638E-18-3.65354E-18
 -1       469 8.95355E-05-1.33905E-05-3.26526E-05-3.91787E-06-5.41818E-19-9.89210E-19
 -1       470 9.02434E-05-1.43552E-05-3.25441E-05-5.87206E-06-8.32185E-19-7.41892E-19
 -1       471 8.90364E-05-1.27079E-05-3.27299E-05 5.30919E-08-6.50816E-20-1.23582E-18
 -1       472 8.91731E-05-1.28927E-05-3.27096E-05 2.04027E-06 7.16538E-20-1.43356E-18
 -1       473 8.95701E-05-1.34324E-05-3.26496E-05 3.98986E-06 3.17221E-19-1.42728E-18
 -1       474 9.02968E-05-1.44226E-05-3.25387E-05 5.94167E-06 6.83227E-19-1.17514E-18
 -1       475 9.14475E-05-1.60058E-05-3.23561E-05 7.76984E-06 8.74831E-19-1.10001E-18
 -1       476 9.31563E-05-1.84312E-05-3.20485E-05 9.20243E-06 1.11660E-18-7.33782E-19
 -1       477 9.54032E-05-2.19788E-05-3.14730E-05 9.50236E-06 1.31842E-18-2.80692E-19
 -1       478 9.63473E-05-2.46143E-05-3.07302E-05 8.01722E-06 1.27706E-18 1.97192E-19
 -1       479 9.54816E-05-2.44276E-05-3.04406E-05-5.80616E-06-1.08661E-18 4.72261E-19
 -1       480 9.45336E-05-2.72945E-05-2.88084E-05 9.66595E-07 3.45200E-19-7.51700E-20
 -1       481 9.51283E-05-2.65844E-05-2.93640E-05 2.87035E-06 6.20614E-19-1.46140E-19
 -1       482 9.46330E-05-2.07680E-05-3.16773E-05-9.50138E-06-1.25728E-18 4.77174E-19
 -1       483 8.18254E-05-1.48867E-05-2.86381E-05 1.61840E-05-3.68776E-19 3.66786E-18
 -1       484 9.52745E-05-2.62137E-05-2.95892E-05-2.87684E-06-1.06668E-18 4.91008E-19
 -1       485 9.49229E-05-2.71473E-05-2.90423E-05-1.00899E-06-6.56443E-19 5.38680E-19
 -1       486 9.46533E-05-2.76801E-05-2.87008E-05 1.24635E-07-5.71026E-19 5.98105E-19
 -1       487 9.45035E-05-2.80070E-05-2.84977E-05 7.72822E-07-6.55286E-19 5.46241E-19
 -1       488 9.44555E-05-2.82188E-05-2.83869E-05 1.10612E-06-5.37083E-19 6.09343E-19
 -1       489 9.44799E-05-2.83608E-05-2.83368E-05 1.23914E-06-3.46203E-19 7.59928E-20
 -1       490 9.45504E-05-2.84582E-05-2.83253E-05 1.24854E-06-2.25786E-19 3.43721E-19
 -1       491 9.46472E-05-2.85276E-05-2.83372E-05 1.18467E-06-4.60843E-19 2.93610E-19
 -1       492 9.47576E-05-2.85814E-05-2.83615E-05 1.07875E-06 3.27488E-19 6.33763E-19
 -1       493 9.48743E-05-2.86310E-05-2.83903E-05 9.47073E-07-3.65987E-20 9.85348E-19
 -1       494 9.49942E-05-2.86878E-05-2.84174E-05 7.93305E-07-3.72697E-19 1.13115E-19
 -1       495 9.51172E-05-2.87635E-05-2.84378E-05 6.09528E-07-7.06292E-19-7.97150E-19
 -1       496 9.52449E-05-2.88704E-05-2.84469E-05 3.76624E-07-7.82954E-19-4.11559E-19
 -1       497 9.53784E-05-2.90193E-05-2.84406E-05 6.47309E-08-2.76338E-19-5.21507E-19
 -1       498 9.55151E-05-2.92167E-05-2.84149E-05-3.65160E-07-5.22038E-19-2.00669E-19
 -1       499 9.56447E-05-2.94584E-05-2.83674E-05-9.56875E-07-1.98918E-19 2.89398E-20
 -1       500 9.57422E-05-2.97208E-05-2.82972E-05-1.74993E-06-1.99653E-19 3.40410E-19
 -1       501 9.57610E-05-2.99510E-05-2.82070E-05-2.76347E-06-1.02266E-20-8.84916E-20
 -1       502 9.56281E-05-3.00591E-05-2.81037E-05-3.97224E-06-3.02125E-19-5.01655E-19
 -1       503 9.52476E-05-2.99219E-05-2.79990E-05-5.27711E-06-1.32262E-19 2.51400E-19
 -1       504 9.45222E-05-2.94079E-05-2.79072E-05-6.48008E-06 4.80939E-20 7.17021E-19
 -1       505 9.33990E-05-2.84323E-05-2.78422E-05-7.28321E-06 1.65870E-19-4.85079E-19
 -1       506 9.19326E-05-2.70332E-05-2.78114E-05-7.33814E-06 6.99020E-19-1.28052E-18
 -1       507 9.03338E-05-2.54298E-05-2.78117E-05-6.36001E-06-2.69979E-19-1.38360E-18
 -1       508 8.89552E-05-2.40084E-05-2.78292E-05-4.28028E-06-4.80919E-20-8.03914E-19
 -1       509 8.81798E-05-2.31953E-05-2.78455E-05-1.35721E-06 3.65209E-19-4.68747E-19
 -1       510 8.82517E-05-2.32640E-05-2.78476E-05 1.85180E-06-8.35205E-19-5.80929E-21
 -1       511 8.91498E-05-2.41912E-05-2.78361E-05 4.67864E-06-6.43391E-19 7.05950E-19
 -1       512 9.05979E-05-2.56686E-05-2.78246E-05 6.60075E-06-7.32068E-19-4.58936E-20
 -1       513 9.22056E-05-2.72628E-05-2.78315E-05 7.41168E-06 7.54231E-20-3.88100E-19
 -1       514 9.36360E-05-2.86066E-05-2.78699E-05 7.22393E-06 1.40124E-18-1.73440E-18
 -1       515 9.47037E-05-2.95088E-05-2.79418E-05 6.34462E-06 1.44772E-18-2.30072E-18
 -1       516 9.53761E-05-2.99551E-05-2.80393E-05 5.12287E-06 8.92226E-20-2.21710E-18
 -1       517 9.57184E-05-3.00420E-05-2.81490E-05 3.84491E-06-1.06462E-18-2.27178E-18
 -1       518 9.58320E-05-2.99025E-05-2.82574E-05 2.69423E-06 8.90789E-20-1.83461E-18
 -1       519 9.58119E-05-2.96561E-05-2.83541E-05 1.75797E-06 4.03854E-19-8.75499E-19
 -1       520 9.57288E-05-2.93873E-05-2.84334E-05 1.05394E-06-1.18068E-18-1.88797E-19
 -1       521 9.56270E-05-2.91445E-05-2.84935E-05 5.59767E-07-1.18211E-18-6.69978E-19
 -1       522 9.55299E-05-2.89482E-05-2.85357E-05 2.35694E-07-2.41801E-19 1.29785E-18
 -1       523 9.54471E-05-2.88010E-05-2.85630E-05 3.92440E-08-4.30088E-20 8.67465E-19
 -1       524 9.53807E-05-2.86967E-05-2.85791E-05-6.70779E-08-6.91232E-19-1.80637E-19
 -1       525 9.53289E-05-2.86254E-05-2.85873E-05-1.12853E-07 1.48186E-19 6.17363E-19
 -1       526 9.52886E-05-2.85769E-05-2.85907E-05-1.19661E-07-4.31462E-19 1.31677E-18
 -1       527 9.52630E-05-2.85499E-05-2.85913E-05-1.05674E-07 2.53752E-20 4.63666E-19
 -1       528 8.76821E-05-1.90367E-05-2.93989E-05 1.17352E-05-4.24383E-19 3.85322E-18
 -1       529 9.56647E-05-2.58671E-05-2.98914E-05 5.02076E-06 9.59111E-19-5.85582E-20
 -1       530 9.41602E-05-2.76851E-05-2.84858E-05-1.43580E-07 4.86071E-20-1.78977E-19
 -1       531 9.39922E-05-2.79315E-05-2.83104E-05-7.63730E-07-4.57675E-20-4.18602E-19
 -1       532 9.39735E-05-2.81025E-05-2.82301E-05-1.07568E-06-5.64572E-20-8.41877E-19
 -1       533 9.40524E-05-2.82273E-05-2.82109E-05-1.19883E-06 9.91485E-20-2.61175E-19
 -1       534 9.41972E-05-2.83231E-05-2.82321E-05-1.21166E-06 3.27530E-19 4.47360E-19
 -1       535 9.43654E-05-2.83871E-05-2.82768E-05-1.16993E-06 5.86843E-19 3.63839E-19
 -1       536 9.45473E-05-2.84273E-05-2.83374E-05-1.11724E-06 8.51864E-19-3.15909E-19
 -1       537 9.47331E-05-2.84427E-05-2.84102E-05-1.08729E-06 5.75911E-19-1.10695E-18
 -1       538 9.49181E-05-2.84280E-05-2.84954E-05-1.11279E-06 7.16129E-19-1.19605E-18
 -1       539 9.50992E-05-2.83721E-05-2.85964E-05-1.23172E-06 3.07831E-19-1.19848E-18
 -1       540 9.52710E-05-2.82534E-05-2.87200E-05-1.49440E-06-2.93698E-19 7.63222E-20
 -1       541 9.54190E-05-2.80350E-05-2.88755E-05-1.97250E-06-5.89314E-19 3.57738E-19
 -1       542 9.55089E-05-2.76548E-05-2.90748E-05-2.76985E-06 6.56881E-20-5.02296E-20
 -1       543 9.54689E-05-2.70160E-05-2.93282E-05-4.03443E-06 3.46745E-19-6.74573E-19
 -1       544 9.51215E-05-2.59033E-05-2.96512E-05-6.08545E-06 5.95902E-19-4.61603E-19
 -1       545 9.42178E-05-2.42181E-05-2.99812E-05-8.99887E-06-4.95564E-21-2.04140E-20
 -1       546 9.23413E-05-2.17688E-05-3.02201E-05-1.31161E-05-5.76098E-20-7.16138E-19
 -1       547 8.89820E-05-1.86976E-05-3.00814E-05-1.86581E-05-5.03136E-19-5.66842E-20
 -1       548 8.40129E-05-1.62385E-05-2.89407E-05-2.56124E-05-1.16626E-18 6.04570E-20
 -1       549 7.87750E-05-1.76545E-05-2.57043E-05-3.40946E-05-1.34103E-18-2.29969E-19
 -1       550 1.42035E-04-5.88192E-05-3.57943E-05 2.66484E-05-1.01700E-18 2.64592E-19
 -1       551 4.62998E-05-2.00755E-05-1.05706E-05 3.11302E-05-3.34472E-19 3.37850E-18
 -1       552 3.24538E-05-1.52639E-05-6.80601E-06-2.42393E-05-1.10342E-18-1.69311E-18
 -1       553 7.32511E-05-1.11684E-05-2.64665E-05 2.16777E-05-2.52551E-19 2.39957E-18
 -1       554 9.13952E-05-2.24587E-05-2.95317E-05 8.13704E-06-1.94302E-18 3.47416E-18
 -1       555 9.33814E-05-2.47144E-05-2.94197E-05 5.61421E-06 6.32739E-19 4.01278E-18
 -1       556 9.44466E-05-2.61908E-05-2.92466E-05 3.80947E-06 1.17921E-18 6.19921E-18
 -1       557 9.49829E-05-2.71219E-05-2.90795E-05 2.55848E-06 1.43449E-18 5.79709E-18
 -1       558 9.52301E-05-2.76957E-05-2.89410E-05 1.70850E-06 3.67213E-19 4.07128E-18
 -1       559 9.53262E-05-2.80430E-05-2.88342E-05 1.13812E-06-7.05075E-19 4.13079E-18
 -1       560 9.53472E-05-2.82493E-05-2.87554E-05 7.57316E-07-9.33729E-19 4.14874E-18
 -1       561 9.53335E-05-2.83683E-05-2.86988E-05 5.02002E-07 5.53708E-19 3.27228E-18
 -1       562 9.53054E-05-2.84330E-05-2.86591E-05 3.28613E-07-2.88124E-19 1.41020E-18
 -1       563 9.52731E-05-2.84670E-05-2.86308E-05 2.05890E-07-2.85178E-18 2.11271E-18
 -1       564 9.51050E-05-2.82705E-05-2.86435E-05 1.99622E-07-5.14519E-19 9.47441E-19
 -1       565 9.50608E-05-2.82268E-05-2.86433E-05 1.26521E-07 2.27308E-18-1.29768E-18
 -1       566 9.51747E-05-2.83468E-05-2.86407E-05 2.34338E-07-3.05062E-18-1.14798E-18
 -1       567 9.50493E-05-2.82216E-05-2.86406E-05 3.62763E-08 6.77240E-19-1.81738E-18
 -1       568 9.50669E-05-2.82506E-05-2.86357E-05-4.95265E-08 7.73324E-19-3.07663E-18
 -1       569 9.51034E-05-2.83025E-05-2.86291E-05-1.15016E-07-1.00971E-18-1.23454E-18
 -1       570 9.51466E-05-2.83640E-05-2.86212E-05-1.53010E-07-7.13658E-19 5.80592E-19
 -1       571 9.51858E-05-2.84223E-05-2.86129E-05-1.64635E-07-1.00368E-18 2.76698E-18
 -1       572 9.52166E-05-2.84719E-05-2.86048E-05-1.56971E-07-1.32881E-18-1.77224E-18
 -1       573 9.52373E-05-2.85087E-05-2.85979E-05-1.37877E-07-1.63690E-18 1.24975E-18
 -1       574 5.50764E-05-3.01166E-05-1.01625E-05-5.09471E-05-9.75570E-19-3.71636E-19
 -1       575 1.53188E-04-2.84891E-05-5.40091E-05-6.68327E-06-2.94249E-18-1.96305E-18
 -1       576 2.75275E-05-9.89184E-06-6.79134E-06-2.88346E-05 4.85403E-19 4.80141E-18
 -1       577 2.24235E-05-5.74723E-06-6.39768E-06 6.62268E-06 7.64050E-20 9.31207E-19
 -1       578 1.37590E-04-3.11446E-06-5.84818E-05 2.70269E-06-5.33938E-18 6.92899E-19
 -1       579 6.23290E-05-1.10374E-05-2.15039E-05 2.85141E-05 6.16488E-19 2.34848E-18
 -1       580 7.89208E-05-3.82618E-05-1.70858E-05-4.06058E-05-5.35748E-20 1.03222E-18
 -1       581 8.91516E-05-1.28666E-05-3.27116E-05-1.93428E-06-2.63482E-19-1.13060E-18
 -1       582 1.54761E-04-3.57251E-05-5.14377E-05 3.18003E-06-2.28667E-18-7.33213E-19
 -1       583 1.81957E-05-6.20988E-06-4.42016E-06 8.41124E-06-8.41547E-19-2.84984E-18
 -1       584 9.59443E-05-4.97724E-05-1.94758E-05-5.20334E-05-6.35751E-19 2.11255E-19
 -1       585 6.53488E-05-3.35251E-05-1.30529E-05 5.18031E-05 1.37034E-18-3.42953E-18
 -1       586 1.50466E-04-5.51050E-05-4.10881E-05-1.32923E-05-4.51052E-19 6.04676E-19
 -1       587 3.13513E-05-1.40322E-05-6.74534E-06 3.55060E-05-1.02253E-18-3.91615E-18
 -1       588 1.50509E-04-1.63899E-05-5.80656E-05 7.89183E-06-3.64701E-18-6.90967E-19
 -1       589 1.54473E-04-4.77031E-05-4.60695E-05 6.92751E-06-3.11458E-18-1.63371E-19
 -1       590 1.28518E-04-5.97269E-05-2.94567E-05-3.85133E-05 1.70635E-18 2.58843E-18
 -1       591 9.13712E-05-1.59254E-05-3.23628E-05-7.66989E-06-1.10543E-18-4.88686E-19
 -1       592 8.10096E-05-3.56015E-05-1.89739E-05 3.98617E-05-1.90387E-18 2.26724E-18
 -1       593 1.26505E-04-5.93518E-05-2.86862E-05 3.59188E-05 1.34562E-18-1.53058E-18
 -1       594 9.52505E-05-2.85313E-05-2.85939E-05-1.23274E-07-2.17133E-19 1.82489E-18
 -1       595 9.14975E-05-4.47632E-05-1.96667E-05 4.91685E-05 2.24988E-18-2.69724E-18
 -1       596 9.20287E-05-1.76019E-05-3.19025E-05-3.88247E-06-5.74341E-19-5.42488E-19
 -1       597 9.15463E-05-1.68332E-05-3.20255E-05 2.43103E-06 2.10840E-19-1.26016E-18
 -1       598 9.12849E-05-1.64287E-05-3.20866E-05 8.35838E-07-2.04908E-20-1.30925E-18
 -1       599 9.28895E-05-1.89873E-05-3.16783E-05 5.24737E-06 6.87040E-19-9.28393E-19
 -1       600 9.39716E-05-2.08625E-05-3.13332E-05 6.16841E-06 7.52488E-19-8.57230E-19
 -1       601 9.50018E-05-2.81002E-05-2.86718E-05-7.88709E-07 2.68175E-19-8.27835E-19
 -1       602 9.51075E-05-2.76982E-05-2.88889E-05-1.65967E-07 1.09219E-19-8.04591E-19
 -1       603 9.41830E-05-2.10107E-05-3.13652E-05-7.00358E-06-1.15960E-18-1.56097E-20
 -1       604 9.52503E-05-2.70460E-05-2.92286E-05 9.00385E-07 3.52258E-19-5.80584E-19
 -1       605 9.51069E-05-2.40285E-05-3.04612E-05-4.16694E-06-9.98708E-19 1.02819E-19
 -1       606 7.66151E-05-1.29214E-05-2.72761E-05 6.29123E-06 5.42331E-19 3.90373E-18
 -1       607 9.54555E-05-2.59178E-05-2.98013E-05-2.05653E-06-5.98486E-19 2.37397E-19
 -1       608 9.55103E-05-2.70714E-05-2.93310E-05-6.10685E-07-5.30114E-19 4.14336E-19
 -1       609 9.54617E-05-2.77830E-05-2.90054E-05 3.10175E-07-4.59984E-19 4.60910E-19
 -1       610 9.53916E-05-2.82233E-05-2.87867E-05 8.50726E-07-3.68236E-19 8.54995E-19
 -1       611 9.53302E-05-2.84923E-05-2.86451E-05 1.12985E-06-4.62779E-19 1.16116E-18
 -1       612 9.52865E-05-2.86515E-05-2.85580E-05 1.23688E-06-2.73397E-19 1.24409E-18
 -1       613 9.52616E-05-2.87419E-05-2.85086E-05 1.23568E-06-3.24652E-19 8.51888E-19
 -1       614 9.52558E-05-2.87936E-05-2.84839E-05 1.16954E-06-9.74650E-20 1.03969E-18
 -1       615 9.52709E-05-2.88311E-05-2.84743E-05 1.06507E-06 3.83854E-20 1.82119E-19
 -1       616 9.53119E-05-2.88767E-05-2.84724E-05 9.34861E-07-5.92461E-19-3.25389E-19
 -1       617 9.53878E-05-2.89529E-05-2.84723E-05 7.78831E-07-1.08643E-18 2.35611E-19
 -1       618 9.55123E-05-2.90835E-05-2.84697E-05 5.84621E-07-6.48870E-19-1.59687E-21
 -1       619 9.57026E-05-2.92924E-05-2.84618E-05 3.27341E-07-1.33779E-19 4.62694E-19
 -1       620 9.59776E-05-2.96007E-05-2.84476E-05-3.06332E-08 7.78467E-22 6.31666E-19
 -1       621 9.63523E-05-3.00191E-05-2.84290E-05-5.38529E-07-2.91352E-19 1.24819E-19
 -1       622 9.68279E-05-3.05354E-05-2.84116E-05-1.25255E-06-3.02117E-19 2.42496E-19
 -1       623 9.73767E-05-3.10966E-05-2.84064E-05-2.22438E-06 2.55058E-19 8.65008E-20
 -1       624 9.79244E-05-3.15898E-05-2.84298E-05-3.47862E-06 8.24884E-20 1.05862E-18
 -1       625 9.83356E-05-3.18310E-05-2.85025E-05-4.97582E-06 3.89215E-19 1.18728E-18
 -1       626 9.84199E-05-3.15809E-05-2.86455E-05-6.56372E-06 4.06019E-19 1.16628E-18
 -1       627 9.79777E-05-3.06105E-05-2.88715E-05-7.93447E-06-5.17918E-19 1.18307E-18
 -1       628 9.69031E-05-2.88312E-05-2.91732E-05-8.62936E-06-1.13202E-20 5.19201E-19
 -1       629 9.53102E-05-2.64435E-05-2.95134E-05-8.14855E-06-1.73141E-19 5.04921E-19
 -1       630 9.36055E-05-2.40087E-05-2.98260E-05-6.17614E-06 4.22650E-19 4.84094E-19
 -1       631 9.23856E-05-2.23059E-05-3.00326E-05-2.84649E-06 6.20080E-19 2.04801E-19
 -1       632 9.21482E-05-2.19715E-05-3.00742E-05 1.17554E-06-3.05990E-19 2.50150E-19
 -1       633 9.29998E-05-2.31410E-05-2.99379E-05 4.91183E-06 2.67219E-20 6.92478E-19
 -1       634 9.45804E-05-2.53583E-05-2.96651E-05 7.51459E-06-1.11376E-18 1.54625E-18
 -1       635 9.62927E-05-2.78521E-05-2.93305E-05 8.61717E-06-1.64506E-19 2.55974E-18
 -1       636 9.76235E-05-2.99344E-05-2.90090E-05 8.37088E-06-1.47310E-19 1.67561E-18
 -1       637 9.83338E-05-3.12474E-05-2.87515E-05 7.23384E-06 2.93022E-19 3.94461E-19
 -1       638 9.84518E-05-3.17733E-05-2.85772E-05 5.70558E-06-2.84026E-20-2.11094E-18
 -1       639 9.81527E-05-3.16995E-05-2.84808E-05 4.16550E-06-4.76552E-19-2.80587E-18
 -1       640 9.76405E-05-3.12720E-05-2.84444E-05 2.83041E-06 5.96109E-19-2.39382E-18
 -1       641 9.70773E-05-3.07031E-05-2.84467E-05 1.78320E-06 1.08204E-18-3.34349E-18
 -1       642 9.65634E-05-3.01361E-05-2.84692E-05 1.02239E-06 3.30342E-19-2.21829E-18
 -1       643 9.61442E-05-2.96475E-05-2.84988E-05 5.05269E-07-8.56656E-19-9.42287E-19
 -1       644 9.58283E-05-2.92647E-05-2.85274E-05 1.76540E-07 1.16123E-18-4.68565E-19
 -1       645 9.56044E-05-2.89853E-05-2.85511E-05-1.62609E-08-5.85285E-19-2.05312E-19
 -1       646 9.54532E-05-2.87925E-05-2.85689E-05-1.16125E-07-5.78564E-19 9.08731E-19
 -1       647 9.53550E-05-2.86654E-05-2.85812E-05-1.55590E-07 5.13432E-20 1.15351E-18
 -1       648 9.52918E-05-2.85831E-05-2.85894E-05-1.57800E-07 1.25838E-18 1.03823E-18
 -1       649 3.51507E-05-1.56573E-06-1.37515E-05-7.52814E-06-1.05503E-18 1.15054E-18
 -1       650 9.49462E-05-2.83478E-05-2.85421E-05-1.11857E-06-2.91466E-19-8.01010E-19
 -1       651 9.49334E-05-2.85008E-05-2.84712E-05-1.26417E-06-4.53839E-20-7.81619E-19
 -1       652 9.49500E-05-2.85741E-05-2.84469E-05-1.29203E-06 2.79935E-19-4.15216E-19
 -1       653 9.49826E-05-2.85946E-05-2.84521E-05-1.26913E-06 8.71882E-19-3.44735E-19
 -1       654 9.50184E-05-2.85674E-05-2.84791E-05-1.23866E-06 9.89337E-19-2.10895E-19
 -1       655 9.50437E-05-2.84892E-05-2.85233E-05-1.23674E-06 7.41226E-19-2.68564E-20
 -1       656 9.50399E-05-2.83457E-05-2.85830E-05-1.29777E-06 5.97826E-20 6.79554E-19
 -1       657 9.49778E-05-2.81079E-05-2.86581E-05-1.45915E-06-5.22632E-19 8.50718E-19
 -1       658 9.48079E-05-2.77256E-05-2.87488E-05-1.76570E-06 4.54313E-20 3.58741E-19
 -1       659 9.44455E-05-2.71180E-05-2.88533E-05-2.27301E-06 4.85681E-20-6.43517E-20
 -1       660 9.37491E-05-2.61630E-05-2.89635E-05-3.04929E-06 4.45091E-19-1.35648E-19
 -1       661 9.23916E-05-2.45878E-05-2.90552E-05-4.23079E-06 3.53999E-19-6.56235E-20
 -1       662 9.00899E-05-2.22884E-05-2.90529E-05-5.77071E-06-1.14732E-19 1.11596E-18
 -1       663 8.62159E-05-1.89592E-05-2.88159E-05-7.73303E-06 4.81096E-19 8.80476E-19
 -1       664 7.99394E-05-1.44659E-05-2.80369E-05-1.00587E-05-6.93665E-19 5.17709E-19
 -1       665 7.02418E-05-9.05622E-06-2.61305E-05-1.28092E-05-3.38457E-19-1.72901E-19
 -1       666 5.70429E-05-5.41843E-06-2.17600E-05-1.58215E-05-9.10261E-19-8.82502E-19
 -1       667 4.52592E-05-7.24625E-06-1.56684E-05 2.27847E-05 5.36873E-19 2.74328E-18
 -1       668 1.44283E-04-5.49851E-05-3.85205E-05 8.13055E-06-9.37642E-19 6.83714E-20
 -1       669 6.55656E-05-7.30252E-06-2.48536E-05 6.73178E-06-1.15636E-18 4.34089E-18
 -1       670 9.20744E-05-1.76637E-05-3.18962E-05 3.93651E-06 5.13929E-19-1.04468E-18
 -1       671 9.13601E-05-2.38929E-05-2.89128E-05 3.24842E-06 2.89379E-20 3.75902E-18
 -1       672 9.30413E-05-2.55723E-05-2.89141E-05 2.40267E-06 7.55256E-19 2.74944E-18
 -1       673 9.40291E-05-2.66708E-05-2.88671E-05 1.73713E-06 1.89748E-18 3.68296E-18
 -1       674 9.45957E-05-2.73745E-05-2.88086E-05 1.23776E-06 6.04210E-19 3.50332E-18
 -1       675 9.49118E-05-2.78179E-05-2.87543E-05 8.73686E-07-7.17219E-19 4.59295E-18
 -1       676 9.50811E-05-2.80919E-05-2.87095E-05 6.12968E-07 6.72538E-19 1.24827E-18
 -1       677 9.51644E-05-2.82556E-05-2.86750E-05 4.26821E-07 2.64261E-18-5.04083E-19
 -1       678 9.51715E-05-2.83097E-05-2.86549E-05 3.18972E-07 1.70788E-19-7.82512E-19
 -1       679 1.35857E-04-1.44412E-05-5.26453E-05-1.08118E-05-3.52493E-18-1.54054E-19
 -1       680 9.49743E-05-2.81713E-05-2.86299E-05-5.28729E-08 1.27054E-18-4.95359E-18
 -1       681 9.49930E-05-2.81490E-05-2.86476E-05 2.02488E-07 1.63600E-18 3.58391E-19
 -1       682 9.49566E-05-2.81330E-05-2.86387E-05 7.38736E-08 2.45451E-18-1.15230E-18
 -1       683 9.50706E-05-2.82137E-05-2.86531E-05 2.83751E-07 1.31873E-18 3.81801E-18
 -1       684 9.50301E-05-2.82469E-05-2.86214E-05-1.52415E-07-4.88789E-20-4.38994E-18
 -1       685 9.51028E-05-2.83381E-05-2.86135E-05-2.11180E-07-1.07595E-18-1.32256E-18
 -1       686 9.51714E-05-2.84235E-05-2.86063E-05-2.29091E-07-7.65739E-19 2.27540E-18
 -1       687 9.52251E-05-2.84921E-05-2.85998E-05-2.15146E-07-1.57521E-18 9.60381E-19
 -1       688 9.52582E-05-2.85370E-05-2.85947E-05-1.83572E-07 5.04923E-19 2.77442E-19
 -1       689 8.85678E-05-2.13979E-05-2.87846E-05 4.24266E-06-8.74638E-19 4.29363E-18
 -1       690 9.53773E-05-2.59571E-05-2.97469E-05 2.60709E-06 6.34087E-19-4.14548E-19
 -1       691 1.44573E-04-3.94041E-05-4.54616E-05-7.35485E-06-2.00599E-18-1.23071E-18
 -1       692 5.25110E-05-1.77524E-05-1.43772E-05-3.89861E-05 6.56424E-19 2.03600E-18
 -1       693 3.52609E-05-3.04391E-06-1.31666E-05-1.26482E-05-9.11381E-19-9.71864E-19
 -1       694 3.39830E-05-4.31506E-06-1.20794E-05 1.83301E-05-2.08039E-19-3.91170E-18
 -1       695 1.37829E-04-2.54303E-05-4.86641E-05 1.26755E-05-2.79436E-18 7.57115E-19
 -1       696 1.44095E-04-4.39022E-05-4.32938E-05 4.47099E-06-2.37577E-18 9.70859E-19
 -1       697 8.39515E-05-1.77733E-05-2.83588E-05 5.32288E-06-1.26079E-18 4.14616E-18
 -1       698 1.23449E-04-4.57768E-06-5.15439E-05-3.67978E-06-5.38814E-18 9.54523E-19
 -1       699 8.09650E-05-3.71440E-05-1.84205E-05-4.79078E-05-9.97593E-19-3.63245E-19
 -1       700 1.17315E-04-5.57081E-05-2.62316E-05-3.89901E-05 2.97917E-19 9.50758E-19
 -1       701 1.26789E-04-8.81479E-06-5.11086E-05 9.44319E-06-4.68552E-18 2.21195E-19
 -1       702 1.37955E-04-5.91266E-05-3.38274E-05-1.97990E-05 9.66432E-19 3.00007E-18
 -1       703 5.60722E-05-1.96341E-05-1.50485E-05 4.01203E-05 1.22658E-18-1.98537E-18
 -1       704 9.52050E-05-2.40019E-05-3.05121E-05 5.16548E-06 7.53955E-19-3.04240E-19
 -1       705 9.12768E-05-1.64185E-05-3.20875E-05-7.82754E-07-1.10362E-19-1.03059E-18
 -1       706 9.51202E-05-2.33381E-05-3.07663E-05 6.27312E-06 8.53342E-19-2.65895E-19
 -1       707 4.87279E-05-7.06622E-06-1.75273E-05-2.11532E-05-5.35815E-20 1.88671E-18
 -1       708 1.35191E-04-5.82541E-05-3.30069E-05 1.88309E-05 5.93115E-19-3.85307E-19
 -1       709 1.11227E-04-5.21459E-05-2.51395E-05 3.94842E-05 2.04108E-18-2.86540E-18
 -1       710 5.32828E-05-3.16010E-06-2.11319E-05 8.44690E-06-3.28724E-19 3.13916E-18
 -1       711 9.28024E-05-1.88833E-05-3.16875E-05-5.19886E-06-8.60902E-19-3.66975E-19
 -1       712 1.32449E-04-2.55251E-05-4.61834E-05-1.34911E-05-2.15655E-18 7.74373E-20
 -1       713 7.59441E-05-3.07203E-05-1.90232E-05 4.29454E-05 1.10781E-18-2.61259E-18
 -1       714 9.15206E-05-1.67996E-05-3.20287E-05-2.37310E-06-2.95040E-19-7.64234E-19
 -1       715 1.38863E-04-5.25635E-05-3.71613E-05-2.68318E-06-1.20487E-20 1.04185E-18
 -1       716 4.90977E-05-2.75058E-06-1.95887E-05 5.44930E-06-3.68195E-19-1.69216E-18
 -1       717 9.46784E-05-2.27429E-05-3.08301E-05 3.91617E-06 7.30452E-19-9.52504E-19
 -1       718 9.57334E-05-2.77239E-05-2.91468E-05-2.45972E-07 1.49196E-19-6.89002E-19
 -1       719 1.37172E-04-4.62945E-05-3.91573E-05-4.10971E-06-4.46532E-19-1.12013E-19
 -1       720 9.56284E-05-2.85420E-05-2.87514E-05-1.08762E-06-2.07948E-19-1.25395E-18
 -1       721 9.38950E-05-2.09210E-05-3.12753E-05-5.11233E-06-8.83168E-19-2.56478E-19
 -1       722 9.56514E-05-2.57586E-05-2.99540E-05-1.48570E-06-4.67061E-19 1.20293E-19
 -1       723 9.59108E-05-2.70361E-05-2.95176E-05-3.57838E-07-3.83550E-19 1.89654E-19
 -1       724 9.59839E-05-2.78588E-05-2.91965E-05 3.78481E-07-1.83520E-19 5.19608E-19
 -1       725 9.59593E-05-2.83731E-05-2.89655E-05 8.17696E-07-2.85426E-19 5.43948E-19
 -1       726 9.58886E-05-2.86807E-05-2.88034E-05 1.04620E-06-2.72178E-19 8.28684E-19
 -1       727 9.58013E-05-2.88523E-05-2.86925E-05 1.13382E-06-7.10826E-19 4.24764E-19
 -1       728 9.57162E-05-2.89395E-05-2.86186E-05 1.13302E-06-4.13442E-19 1.80168E-19
 -1       729 9.56472E-05-2.89824E-05-2.85707E-05 1.08058E-06-5.87774E-19-3.53947E-20
 -1       730 9.56082E-05-2.90156E-05-2.85397E-05 9.99774E-07-5.51972E-19-1.79045E-19
 -1       731 9.56156E-05-2.90714E-05-2.85190E-05 9.01909E-07-4.72850E-19-3.32460E-20
 -1       732 9.56913E-05-2.91835E-05-2.85034E-05 7.86898E-07-3.57029E-19 1.09618E-18
 -1       733 9.58641E-05-2.93875E-05-2.84900E-05 6.42669E-07-5.92210E-19 1.98304E-18
 -1       734 9.61696E-05-2.97203E-05-2.84783E-05 4.43413E-07-3.37698E-19 8.71253E-19
 -1       735 9.66480E-05-3.02144E-05-2.84715E-05 1.47024E-07-3.76894E-19 4.56875E-19
 -1       736 9.73349E-05-3.08867E-05-2.84779E-05-3.07025E-07-2.41640E-19 1.23752E-18
 -1       737 9.82455E-05-3.17174E-05-2.85122E-05-9.96390E-07 1.35375E-19 1.52451E-18
 -1       738 9.93479E-05-3.26210E-05-2.85975E-05-2.00559E-06 5.49174E-19 1.20021E-18
 -1       739 1.00529E-04-3.34124E-05-2.87647E-05-3.39766E-06 9.72157E-19 1.23334E-18
 -1       740 1.01566E-04-3.37864E-05-2.90484E-05-5.15706E-06 1.81754E-19 1.63359E-18
 -1       741 1.02130E-04-3.33469E-05-2.94780E-05-7.10346E-06-1.18272E-19 1.08047E-18
 -1       742 1.01870E-04-3.17285E-05-3.00602E-05-8.79781E-06-8.16525E-19 1.11728E-18
 -1       743 1.00616E-04-2.88590E-05-3.07535E-05-9.54978E-06 2.14178E-19 7.58231E-19
 -1       744 9.86043E-05-2.52098E-05-3.14538E-05-8.60946E-06-2.23697E-19 1.18619E-19
 -1       745 9.65967E-05-2.19024E-05-3.20107E-05-5.61477E-06-1.69243E-19-8.65489E-19
 -1       746 9.55345E-05-2.02227E-05-3.22751E-05-1.03949E-06 1.53399E-19-1.77761E-18
 -1       747 9.59901E-05-2.09350E-05-3.21659E-05 3.85385E-06 1.81857E-19-2.28297E-18
 -1       748 9.77154E-05-2.37103E-05-3.17166E-05 7.61555E-06-1.19346E-19-1.27839E-18
 -1       749 9.98371E-05-2.73714E-05-3.10564E-05 9.40855E-06 1.08773E-19 1.67818E-19
 -1       750 1.01465E-04-3.06564E-05-3.03458E-05 9.28719E-06 3.83180E-19 1.35228E-18
 -1       751 1.02132E-04-3.28001E-05-2.97134E-05 7.90094E-06-1.07759E-18 8.31530E-19
 -1       752 1.01870E-04-3.36827E-05-2.92235E-05 6.00788E-06-1.49416E-18 2.64459E-19
 -1       753 1.00981E-04-3.35819E-05-2.88860E-05 4.15920E-06-1.04809E-18-1.26795E-18
 -1       754 9.98179E-05-3.29005E-05-2.86795E-05 2.63491E-06-5.43883E-19-2.45417E-18
 -1       755 9.86514E-05-3.19884E-05-2.85703E-05 1.50987E-06 8.93707E-19-2.40978E-18
 -1       756 9.76374E-05-3.10802E-05-2.85248E-05 7.46872E-07 1.94579E-18-1.29567E-18
 -1       757 9.68367E-05-3.02990E-05-2.85163E-05 2.66749E-07 6.99514E-19 3.60770E-19
 -1       758 9.62487E-05-2.96879E-05-2.85262E-05-1.20712E-08-2.21115E-19 1.60046E-18
 -1       759 9.58421E-05-2.92426E-05-2.85427E-05-1.57052E-07 8.51429E-19-1.60572E-19
 -1       760 9.55758E-05-2.89364E-05-2.85598E-05-2.18107E-07 5.13448E-19 1.47987E-18
 -1       761 9.54097E-05-2.87358E-05-2.85745E-05-2.27701E-07-4.38076E-19 1.95399E-18
 -1       762 9.53147E-05-2.86145E-05-2.85858E-05-2.13245E-07 6.82515E-19 1.46061E-18
 -1       763 9.56947E-05-2.82342E-05-2.89117E-05-7.88896E-07 1.40239E-19-7.43489E-19
 -1       764 5.64648E-05-5.33347E-06-2.17373E-05-6.83006E-06-1.40461E-18 6.07144E-19
 -1       765 9.54788E-05-2.87511E-05-2.85976E-05-1.24809E-06 3.15445E-19-1.03494E-18
 -1       766 9.53966E-05-2.87216E-05-2.85750E-05-1.23495E-06 6.78638E-19-2.71745E-19
 -1       767 9.52961E-05-2.86183E-05-2.85762E-05-1.21506E-06 4.68846E-19 2.79480E-19
 -1       768 9.51568E-05-2.84337E-05-2.85956E-05-1.21785E-06 3.54977E-20 3.19131E-19
 -1       769 9.49441E-05-2.81439E-05-2.86286E-05-1.26715E-06-6.32463E-20-1.59925E-20
 -1       770 9.46015E-05-2.77040E-05-2.86703E-05-1.38195E-06-5.01739E-19-7.95780E-20
 -1       771 9.40381E-05-2.70412E-05-2.87128E-05-1.57424E-06-3.58862E-20 9.60761E-19
 -1       772 9.31116E-05-2.60490E-05-2.87411E-05-1.84419E-06 5.15013E-19 5.66727E-19
 -1       773 9.14993E-05-2.44858E-05-2.87197E-05-2.17251E-06 4.33538E-19 5.14113E-19
 -1       774 8.89938E-05-2.22956E-05-2.85847E-05-2.43297E-06-5.60825E-19 9.19783E-19
 -1       775 8.50464E-05-1.92176E-05-2.82111E-05-2.44669E-06 3.71332E-19 7.46643E-19
 -1       776 7.89591E-05-1.51065E-05-2.73566E-05-1.86438E-06 1.40673E-19 7.02629E-19
 -1       777 6.99710E-05-1.01216E-05-2.56292E-05-1.78899E-07 3.78655E-19-1.30054E-19
 -1       778 5.75351E-05-1.86197E-05-1.59399E-05-3.14453E-05-1.50073E-18-5.82706E-19
 -1       779 9.37061E-05-2.66612E-05-2.87335E-05 8.92552E-07 1.28208E-18 2.04217E-18
 -1       780 9.10404E-05-2.41882E-05-2.86510E-05 1.09966E-06 8.65881E-19 3.88600E-19
 -1       781 9.43382E-05-2.73263E-05-2.87194E-05 7.18447E-07-1.49665E-18 1.85678E-18
 -1       782 9.47179E-05-2.77579E-05-2.86972E-05 5.57605E-07 1.65517E-18 1.84571E-18
 -1       783 9.49417E-05-2.80322E-05-2.86755E-05 4.24687E-07 2.48983E-18 2.43262E-18
 -1       784 9.50168E-05-2.81359E-05-2.86631E-05 3.47555E-07 9.89086E-19 3.06580E-18
 -1       785 9.51422E-05-2.84141E-05-2.85978E-05-3.23102E-07 2.47193E-18 1.28272E-19
 -1       786 9.50246E-05-2.82786E-05-2.86054E-05-2.95702E-07 1.46015E-18-1.80395E-18
 -1       787 9.49095E-05-2.81405E-05-2.86153E-05-2.03498E-07 1.09029E-18-6.27389E-18
 -1       788 9.52369E-05-2.85220E-05-2.85920E-05-2.99069E-07 2.49073E-19 8.48796E-19
 -1       789 9.52855E-05-2.85803E-05-2.85883E-05-2.60638E-07 5.99212E-19 8.15369E-19
 -1       790 1.21069E-04-1.14056E-05-4.73668E-05-1.01010E-05-4.33432E-18 1.38570E-18
 -1       791 5.80361E-05-1.16930E-05-1.95670E-05 2.47995E-05 6.98379E-19-1.23879E-18
 -1       792 8.84741E-05-2.20828E-05-2.84540E-05 9.02932E-07 3.23118E-19-2.97961E-19
 -1       793 9.55130E-05-2.55971E-05-2.99602E-05 2.03830E-06 5.52700E-19-9.62083E-19
 -1       794 9.48327E-05-2.80337E-05-2.86280E-05-5.11740E-08-5.53954E-19-3.35300E-18
 -1       795 6.94649E-05-1.04518E-05-2.52492E-05-3.57979E-06-3.91352E-19-2.70741E-19
 -1       796 9.48268E-05-2.79914E-05-2.86438E-05 1.37828E-07 1.63349E-19 1.44408E-18
 -1       797 1.15061E-04-7.73882E-06-4.63017E-05 3.71822E-06-3.89122E-18 1.04137E-18
 -1       798 9.55541E-05-2.87000E-05-2.86517E-05-1.21712E-06-1.87568E-19-1.33599E-18
 -1       799 9.50510E-05-2.38059E-05-3.05333E-05-3.07472E-06-6.49640E-19 1.01514E-19
 -1       800 9.57209E-05-2.69291E-05-2.94838E-05 6.55591E-07 2.62230E-19-7.93986E-19
 -1       801 1.32083E-04-3.50795E-05-4.17818E-05 1.19844E-05-1.96734E-18-5.73924E-19
 -1       802 9.31899E-05-1.97517E-05-3.14747E-05 1.22490E-06-2.45063E-20-9.42731E-19
 -1       803 1.25889E-04-5.55620E-05-3.00885E-05-2.36531E-05 9.24781E-19 2.15768E-18
 -1       804 1.02059E-04-4.48787E-05-2.43510E-05-3.80288E-05 4.46836E-19-3.14289E-19
 -1       805 9.26802E-05-2.56616E-05-2.87222E-05 1.04495E-06 3.85918E-19-2.75552E-20
 -1       806 1.23112E-04-1.93892E-05-4.47411E-05 1.33985E-05-2.13455E-18-9.96435E-19
 -1       807 7.34577E-05-2.62740E-05-1.99606E-05-3.84796E-05-3.74905E-19-2.36322E-19
 -1       808 1.34469E-04-5.23113E-05-3.52855E-05 4.37923E-06 9.87267E-19 9.00965E-20
 -1       809 9.35110E-05-2.03428E-05-3.13592E-05 2.34820E-06 3.08835E-19-8.60958E-19
 -1       810 9.40239E-05-2.13427E-05-3.11499E-05 3.29154E-06 5.12014E-19-9.73615E-19
 -1       811 1.23443E-04-5.48457E-05-2.93453E-05 2.56826E-05 1.85799E-18-5.51943E-19
 -1       812 1.11968E-04-9.51218E-06-4.41046E-05-3.36603E-06-4.42842E-18 1.19523E-18
 -1       813 9.49073E-05-2.80454E-05-2.86550E-05 2.60901E-07-7.16826E-20 1.63349E-18
 -1       814 7.00300E-05-1.99892E-05-2.12411E-05 3.03315E-05 1.16604E-18-2.90539E-18
 -1       815 9.30772E-05-1.95507E-05-3.15125E-05 1.74149E-08-1.43592E-19-1.14490E-18
 -1       816 9.42365E-05-4.00815E-05-2.30182E-05 3.92458E-05 9.81817E-19-3.16060E-18
 -1       817 1.29548E-04-3.52291E-05-4.06069E-05-1.20485E-05-1.41134E-18 1.28423E-18
 -1       818 7.85381E-05-1.52021E-05-2.71452E-05-5.80118E-07-9.44374E-19 1.58442E-18
 -1       819 9.34804E-05-2.03023E-05-3.13637E-05-2.31408E-06-3.04962E-19-5.13065E-19
 -1       820 1.30416E-04-5.32751E-05-3.31216E-05-9.06520E-06 1.46543E-18 3.50579E-19
 -1       821 9.39808E-05-2.12730E-05-3.11604E-05-3.26220E-06-5.77906E-19-2.79748E-19
 -1       822 8.44350E-05-1.91246E-05-2.79920E-05 1.74170E-07-1.09729E-18 4.26202E-19
 -1       823 6.42209E-05-1.49200E-05-2.09053E-05-2.59935E-05 4.50873E-19 1.50186E-18
 -1       824 1.20218E-04-2.09215E-05-4.27292E-05-1.30516E-05-2.20743E-18 1.06718E-18
 -1       825 9.61778E-05-2.78176E-05-2.92973E-05-3.36224E-07 1.10074E-19-5.28685E-19
 -1       826 9.62325E-05-2.71440E-05-2.96092E-05-1.12228E-07-9.22804E-20-3.81785E-19
 -1       827 9.63654E-05-2.80019E-05-2.92987E-05 4.20491E-07-5.91564E-20-6.46554E-20
 -1       828 9.63573E-05-2.85358E-05-2.90664E-05 7.39910E-07-2.83000E-19 2.01023E-19
 -1       829 9.62717E-05-2.88482E-05-2.88958E-05 9.05393E-07-6.13491E-19 3.37645E-19
 -1       830 9.61493E-05-2.90128E-05-2.87728E-05 9.69614E-07-7.31278E-19 3.69679E-19
 -1       831 9.60197E-05-2.90872E-05-2.86854E-05 9.73472E-07-6.88536E-19 2.15489E-19
 -1       832 9.59069E-05-2.91184E-05-2.86236E-05 9.47190E-07-8.15740E-19 1.56456E-19
 -1       833 9.58344E-05-2.91485E-05-2.85797E-05 9.11559E-07-3.27866E-19-1.50985E-20
 -1       834 9.58294E-05-2.92189E-05-2.85474E-05 8.78668E-07-1.07392E-21 6.21323E-20
 -1       835 9.59265E-05-2.93736E-05-2.85227E-05 8.51572E-07 4.59496E-19 4.45553E-19
 -1       836 9.61714E-05-2.96614E-05-2.85043E-05 8.22326E-07-1.84976E-19 1.69904E-18
 -1       837 9.66218E-05-3.01344E-05-2.84946E-05 7.67532E-07-4.86170E-19 1.89894E-18
 -1       838 9.73445E-05-3.08414E-05-2.85014E-05 6.41242E-07-8.34257E-20 1.55714E-18
 -1       839 9.84045E-05-3.18111E-05-2.85402E-05 3.66191E-07 4.84860E-20 2.30314E-18
 -1       840 9.98406E-05-3.30215E-05-2.86370E-05-1.72633E-07 3.84584E-19 2.88269E-18
 -1       841 1.01623E-04-3.43524E-05-2.88307E-05-1.12335E-06 3.93339E-19 2.46403E-18
 -1       842 1.03593E-04-3.55246E-05-2.91728E-05-2.63190E-06 7.20461E-19 1.38837E-18
 -1       843 1.05402E-04-3.60570E-05-2.97186E-05-4.74683E-06-1.81700E-19 1.60516E-18
 -1       844 1.06506E-04-3.53001E-05-3.05153E-05-7.27825E-06-5.25831E-19 1.55514E-18
 -1       845 1.06324E-04-3.26895E-05-3.15600E-05-9.54123E-06-9.43677E-19 2.05610E-18
 -1       846 1.04593E-04-2.81885E-05-3.27502E-05-1.04423E-05-5.11588E-19 1.32215E-18
 -1       847 1.01852E-04-2.28327E-05-3.38642E-05-8.75688E-06-3.03641E-19 1.10073E-18
 -1       848 9.95230E-05-1.87543E-05-3.46157E-05-4.28847E-06-6.46373E-19 1.90404E-19
 -1       849 9.90640E-05-1.79664E-05-3.47560E-05 1.82167E-06-7.52119E-19-2.03872E-19
 -1       850 1.00750E-04-2.08616E-05-3.42432E-05 7.22348E-06 4.75475E-19-9.72213E-19
 -1       851 1.03512E-04-2.59576E-05-3.32441E-05 1.01080E-05 7.12252E-20-2.15407E-18
 -1       852 1.05773E-04-3.09906E-05-3.20500E-05 1.01751E-05 7.41363E-19-3.00450E-18
 -1       853 1.06602E-04-3.44262E-05-3.09307E-05 8.31710E-06-3.38875E-19-3.37564E-18
 -1       854 1.05961E-04-3.58850E-05-3.00333E-05 5.80901E-06-1.56187E-18-2.11398E-18
 -1       855 1.04362E-04-3.57871E-05-2.93900E-05 3.49484E-06-1.53649E-18-2.23056E-18
 -1       856 1.02390E-04-3.47869E-05-2.89732E-05 1.75185E-06-1.62643E-18-2.45606E-18
 -1       857 1.00479E-04-3.34456E-05-2.87288E-05 6.14559E-07 4.92380E-19-1.67821E-18
 -1       858 9.88612E-05-3.21236E-05-2.86019E-05-3.69648E-08 2.10530E-18-7.08193E-19
 -1       859 9.76111E-05-3.10005E-05-2.85474E-05-3.55985E-07 9.28529E-19-1.65070E-18
 -1       860 9.67097E-05-3.01317E-05-2.85334E-05-4.72797E-07 5.91291E-19-2.40464E-18
 -1       861 9.60966E-05-2.95048E-05-2.85393E-05-4.79267E-07 5.06311E-19-1.26295E-18
 -1       862 9.57017E-05-2.90777E-05-2.85531E-05-4.33460E-07 1.18549E-18-1.84647E-18
 -1       863 9.54622E-05-2.88025E-05-2.85684E-05-3.68890E-07 1.51850E-18-1.32675E-18
 -1       864 9.53541E-05-2.86710E-05-2.85788E-05-3.12913E-07-1.94291E-19 5.27122E-19
 -1       865 9.56336E-05-2.87799E-05-2.86516E-05-1.07911E-06 1.74261E-19-5.33731E-19
 -1       866 9.61750E-05-2.83861E-05-2.90524E-05-7.61461E-07 1.45622E-19-5.39387E-19
 -1       867 9.58161E-05-2.88645E-05-2.86935E-05-1.09998E-06 2.84993E-19-7.95041E-19
 -1       868 9.51182E-05-2.83160E-05-2.86295E-05-1.00763E-06 2.46340E-19-4.20591E-19
 -1       869 9.47124E-05-2.78984E-05-2.86346E-05-9.71781E-07-5.85423E-19-2.86311E-20
 -1       870 9.41199E-05-2.72978E-05-2.86381E-05-9.20057E-07-7.01131E-19-5.01322E-20
 -1       871 9.32324E-05-2.64429E-05-2.86243E-05-8.10901E-07 6.60787E-19 1.69959E-20
 -1       872 9.18064E-05-2.51650E-05-2.85607E-05-5.33499E-07 5.07592E-19-1.15660E-19
 -1       873 8.97416E-05-2.34708E-05-2.84020E-05 5.72905E-08 2.91755E-20-8.84688E-19
 -1       874 8.66933E-05-2.12217E-05-2.80592E-05 1.25434E-06-1.88061E-19-1.33197E-18
 -1       875 8.23006E-05-1.84119E-05-2.73769E-05 3.52703E-06 4.13976E-19-1.08949E-18
 -1       876 7.61760E-05-1.52496E-05-2.60878E-05 7.58023E-06 3.56229E-19-1.85154E-18
 -1       877 9.16808E-05-2.50856E-05-2.85409E-05-3.97612E-07 1.08060E-18-5.08257E-19
 -1       878 9.51748E-05-2.39364E-05-3.05303E-05-2.04174E-06-4.80906E-19-1.73807E-19
 -1       879 9.53938E-05-2.45509E-05-3.03604E-05 2.01094E-06 5.05835E-19-6.93609E-19
 -1       880 9.43300E-05-2.74492E-05-2.86636E-05 2.82763E-07-2.31031E-19-1.02072E-18
 -1       881 9.29539E-05-2.61634E-05-2.86248E-05 3.71762E-08 2.16635E-19-9.93629E-19
 -1       882 1.12868E-04-4.74931E-05-2.79629E-05-2.48962E-05 1.97920E-18-2.07232E-19
 -1       883 9.37934E-05-2.69275E-05-2.86571E-05 2.25681E-07 3.36265E-20-7.34433E-19
 -1       884 9.50849E-05-2.83806E-05-2.85876E-05-4.69672E-07 2.78942E-18-9.39820E-20
 -1       885 1.28948E-04-4.42667E-05-3.63626E-05 5.99570E-06 4.17280E-19-2.09601E-18
 -1       886 9.52473E-05-2.85559E-05-2.85819E-05-4.34591E-07 3.06675E-18-6.11143E-19
 -1       887 9.48926E-05-2.81677E-05-2.85965E-05-4.22409E-07 2.13111E-18-4.41600E-18
 -1       888 9.59695E-05-2.88479E-05-2.87664E-05-1.08180E-06-2.58359E-20-7.08091E-19
 -1       889 9.47206E-05-2.79633E-05-2.86103E-05-2.70974E-07-3.28102E-20-2.32794E-18
 -1       890 8.98014E-05-2.36289E-05-2.83600E-05-1.27631E-06 3.79473E-19-8.05266E-19
 -1       891 7.27465E-05-1.57313E-05-2.43957E-05-1.67764E-05-2.11312E-19 1.26125E-19
 -1       892 9.54099E-05-2.86004E-05-2.86327E-05-1.04377E-06 3.52917E-19-8.62182E-20
 -1       893 9.31759E-05-1.97327E-05-3.14768E-05-1.18867E-06-1.90135E-19-7.58084E-19
 -1       894 9.46189E-05-2.78181E-05-2.86294E-05-3.90504E-08-1.18597E-18-1.55632E-18
 -1       895 9.60946E-05-2.87034E-05-2.88819E-05-9.86085E-07-1.07471E-19-6.80641E-19
 -1       896 9.58744E-05-2.58406E-05-3.00139E-05-9.16592E-07-4.21000E-19-3.21017E-19
 -1       897 1.11324E-04-1.51268E-05-4.13430E-05 9.23831E-06-1.67596E-18-1.82187E-18
 -1       898 9.03901E-05-3.36703E-05-2.42373E-05-3.21324E-05 1.03611E-18-2.01448E-18
 -1       899 1.20026E-04-2.81864E-05-3.94792E-05 1.33245E-05-1.25788E-18-2.95743E-18
 -1       900 6.81168E-05-1.23836E-05-2.38005E-05 1.43961E-05 7.34389E-19-8.22436E-19
 -1       901 1.11200E-04-1.51170E-05-4.12817E-05-9.13514E-06-3.78070E-18 1.65550E-18
 -1       902 1.27963E-04-4.38064E-05-3.61339E-05-6.06495E-06 3.71431E-19 1.97889E-18
 -1       903 1.27860E-04-5.30048E-05-3.20819E-05 1.19118E-05 1.91812E-18 5.66716E-19
 -1       904 9.46529E-05-2.25584E-05-3.08982E-05-1.18288E-06-3.03045E-19-4.95061E-19
 -1       905 9.46713E-05-2.25800E-05-3.08964E-05 1.20424E-06 8.84462E-20-6.30365E-19
 -1       906 8.70260E-05-2.17135E-05-2.79896E-05-2.96575E-06-6.44275E-19-1.77827E-18
 -1       907 8.32261E-05-2.84277E-05-2.33884E-05 3.12530E-05 9.19272E-19-2.64787E-18
 -1       908 1.07199E-04-1.26815E-05-4.06178E-05 3.72247E-06-2.07726E-18-1.71504E-18
 -1       909 9.47336E-05-2.78697E-05-2.86557E-05 2.42592E-07 7.92731E-19-5.82199E-19
 -1       910 1.09146E-04-4.68020E-05-2.66427E-05 3.04038E-05 1.61014E-18-1.34040E-18
 -1       911 9.45208E-05-2.22359E-05-3.09795E-05 4.20310E-07 4.25563E-20-1.09908E-18
 -1       912 7.89892E-05-1.74110E-05-2.63720E-05-9.48351E-06-1.00647E-18 4.08830E-19
 -1       913 9.60630E-05-2.69413E-05-2.96222E-05 3.51261E-07 5.47830E-20-6.05970E-19
 -1       914 7.27752E-05-1.86803E-05-2.30838E-05 2.41357E-05 7.93592E-19-2.95303E-18
 -1       915 1.20036E-04-4.94692E-05-3.02535E-05-1.42823E-05 2.89561E-18-8.19537E-20
 -1       916 9.49000E-05-2.31561E-05-3.07469E-05-1.68539E-06-4.20663E-19-1.57284E-19
 -1       917 7.96362E-05-2.33759E-05-2.40314E-05-2.56362E-05 1.69378E-18-8.72368E-19
 -1       918 9.50185E-05-2.34267E-05-3.06822E-05 1.75122E-06 3.17916E-19-5.55557E-19
 -1       919 9.66401E-05-2.82031E-05-2.93302E-05 4.05342E-07-2.30155E-19-1.70091E-19
 -1       920 9.66190E-05-2.87081E-05-2.91047E-05 6.08242E-07-3.00098E-19-1.06934E-19
 -1       921 9.65069E-05-2.89917E-05-2.89351E-05 7.15074E-07-4.24066E-19 1.13352E-19
 -1       922 9.63498E-05-2.91280E-05-2.88094E-05 7.62481E-07-7.86373E-19 3.31130E-19
 -1       923 9.61827E-05-2.91761E-05-2.87171E-05 7.81614E-07-7.29932E-19 5.15747E-19
 -1       924 9.60351E-05-2.91865E-05-2.86494E-05 7.98027E-07-1.93327E-19 1.02858E-18
 -1       925 9.59369E-05-2.92058E-05-2.85990E-05 8.32484E-07 2.31857E-20 1.48296E-18
 -1       926 9.59232E-05-2.92821E-05-2.85605E-05 9.01440E-07 4.29146E-19 1.17325E-18
 -1       927 9.60406E-05-2.94689E-05-2.85307E-05 1.01605E-06 7.56133E-19 9.00317E-19
 -1       928 9.63522E-05-2.98294E-05-2.85097E-05 1.17827E-06-4.24700E-20 1.16310E-18
 -1       929 9.69418E-05-3.04358E-05-2.85025E-05 1.37261E-06-1.14794E-19 1.76275E-18
 -1       930 9.79129E-05-3.13624E-05-2.85216E-05 1.55182E-06 4.64277E-19 1.86219E-18
 -1       931 9.93771E-05-3.26651E-05-2.85909E-05 1.61668E-06 5.99552E-19 1.92812E-18
 -1       932 1.01421E-04-3.43372E-05-2.87506E-05 1.39492E-06 4.42511E-19 2.11682E-18
 -1       933 1.04046E-04-3.62359E-05-2.90617E-05 6.29388E-07-4.24583E-19 2.23124E-18
 -1       934 1.07058E-04-3.79678E-05-2.96110E-05-9.91723E-07 3.41534E-19 1.51449E-18
 -1       935 1.09921E-04-3.88094E-05-3.04790E-05-3.63886E-06 3.15644E-20 1.43740E-18
 -1       936 1.11694E-04-3.75614E-05-3.17754E-05-7.08304E-06 2.71743E-19 3.28100E-18
 -1       937 1.11491E-04-3.34670E-05-3.34406E-05-1.02768E-05-3.29336E-19 4.58376E-18
 -1       938 1.09057E-04-2.64537E-05-3.53966E-05-1.15265E-05-1.00280E-18 4.48354E-18
 -1       939 1.05260E-04-1.88989E-05-3.70502E-05-8.51155E-06-1.88577E-18 2.31224E-18
 -1       940 1.04041E-04-1.67046E-05-3.74633E-05 6.00807E-06-9.97114E-19-1.01217E-18
 -1       941 1.07323E-04-2.31473E-05-3.61002E-05 1.07971E-05 3.22369E-20-2.41767E-18
 -1       942 1.10728E-04-3.08616E-05-3.42197E-05 1.11443E-05-5.52260E-19-2.83407E-18
 -1       943 1.11966E-04-3.62903E-05-3.24388E-05 8.55056E-06 3.79311E-19-3.78793E-18
 -1       944 1.10847E-04-3.85340E-05-3.09941E-05 5.05521E-06 6.69390E-20-2.48808E-18
 -1       945 1.08271E-04-3.83966E-05-2.99482E-05 1.99225E-06-1.04459E-18-2.20855E-18
 -1       946 1.05215E-04-3.69099E-05-2.92752E-05-2.79209E-08-9.87313E-19-1.66000E-18
 -1       947 1.02365E-04-3.49811E-05-2.88792E-05-1.08934E-06 6.22762E-20-3.94498E-20
 -1       948 1.00034E-04-3.31406E-05-2.86687E-05-1.47389E-06 9.39939E-19-1.39169E-19
 -1       949 9.82922E-05-3.16256E-05-2.85713E-05-1.46600E-06 1.54832E-18-7.28874E-19
 -1       950 9.70736E-05-3.04872E-05-2.85369E-05-1.27555E-06 1.52550E-18 1.08101E-18
 -1       951 9.62675E-05-2.96867E-05-2.85345E-05-1.02888E-06 4.40090E-19 1.24517E-18
 -1       952 9.57629E-05-2.91548E-05-2.85461E-05-7.90649E-07 8.48466E-20-3.01352E-19
 -1       953 9.54629E-05-2.88170E-05-2.85623E-05-5.88699E-07 8.15909E-19-1.37633E-18
 -1       954 9.58075E-05-2.52815E-05-3.02239E-05-8.21856E-07-4.15070E-19-1.25673E-19
 -1       955 9.65038E-05-2.79944E-05-2.93615E-05-3.81065E-07 1.40693E-19-3.58634E-19
 -1       956 9.59990E-05-2.89307E-05-2.87436E-05-8.59361E-07 2.11168E-19-6.07901E-19
 -1       957 9.44841E-05-2.77280E-05-2.86098E-05-4.10140E-07-3.01744E-19-7.05500E-19
 -1       958 9.50144E-05-2.82083E-05-2.86312E-05-6.04827E-07-9.62291E-20-6.97160E-20
 -1       959 9.27238E-05-2.62042E-05-2.85082E-05 4.88596E-07 3.35119E-19-8.74682E-19
 -1       960 9.13151E-05-2.51063E-05-2.83751E-05 1.46217E-06 4.70878E-19-6.48377E-19
 -1       961 8.94039E-05-2.37809E-05-2.81239E-05 3.11354E-06 3.54972E-19-4.28166E-19
 -1       962 8.69165E-05-2.23450E-05-2.76725E-05 5.84647E-06 1.16071E-19-1.31418E-18
 -1       963 8.39039E-05-2.11309E-05-2.68967E-05 1.02238E-05 8.02306E-19-1.47642E-18
 -1       964 9.26784E-05-2.61518E-05-2.85116E-05-1.20458E-06 4.57095E-19-2.45811E-18
 -1       965 9.52476E-05-2.85867E-05-2.85692E-05-6.49709E-07 1.99672E-18 8.65300E-19
 -1       966 9.49774E-05-2.83021E-05-2.85746E-05-7.00993E-07 2.05788E-18-2.12676E-19
 -1       967 9.62185E-05-2.89558E-05-2.88269E-05-8.67994E-07 2.26171E-19-5.77065E-19
 -1       968 9.46741E-05-2.79754E-05-2.85851E-05-6.03614E-07-3.91041E-19-3.40772E-18
 -1       969 9.15471E-05-2.53364E-05-2.83760E-05-2.31870E-06 3.66108E-19-2.47045E-18
 -1       970 9.45150E-05-2.22284E-05-3.09803E-05-4.05399E-07-3.43230E-20-7.03440E-19
 -1       971 9.44194E-05-2.76730E-05-2.86050E-05-3.53966E-07-9.41234E-20-2.30473E-18
 -1       972 1.18396E-04-3.60146E-05-3.53066E-05 1.04339E-05-1.04613E-18-4.36524E-18
 -1       973 9.37602E-05-2.70820E-05-2.85765E-05-8.66834E-08-3.65451E-19-1.04856E-18
 -1       974 9.65136E-05-2.73915E-05-2.96249E-05 5.66409E-08 9.28800E-20-4.69828E-20
 -1       975 1.26002E-04-4.74527E-05-3.36740E-05 9.57033E-08 1.63574E-18 3.63086E-19
 -1       976 1.00983E-04-3.78365E-05-2.70645E-05-2.24925E-05 4.29069E-19-1.18659E-18
 -1       977 1.17730E-04-2.97432E-05-3.78077E-05-1.29096E-05-8.93779E-19 1.62518E-18
 -1       978 1.24388E-04-4.75284E-05-3.29668E-05-1.20900E-06 1.58224E-18-1.43925E-18
 -1       979 8.08454E-05-2.09201E-05-2.56635E-05 1.68890E-05 6.94940E-19-2.18318E-18
 -1       980 8.35249E-05-1.95898E-05-2.73873E-05-5.48871E-06-1.55048E-19-1.14709E-18
 -1       981 9.62492E-05-2.64877E-05-2.98994E-05-3.27905E-07-1.53807E-19 3.49968E-20
 -1       982 9.57199E-05-2.48922E-05-3.03532E-05 8.27724E-07 1.94555E-19-4.29189E-19
 -1       983 1.18359E-04-4.97098E-05-2.94053E-05 1.92497E-05 1.02323E-18 3.60652E-19
 -1       984 9.00155E-05-2.43882E-05-2.81252E-05-4.21976E-06-7.98452E-19-4.18762E-18
 -1       985 9.65013E-05-2.85453E-05-2.91241E-05-6.69264E-07 1.08412E-19-3.30727E-19
 -1       986 1.02927E-04-1.48069E-05-3.77906E-05-1.63262E-06-1.27750E-18-2.22863E-19
 -1       987 9.57357E-05-2.87952E-05-2.86888E-05-8.10567E-07 2.62186E-19-9.95090E-19
 -1       988 8.34968E-05-2.32846E-05-2.57869E-05-1.85553E-05-4.17194E-19-2.97066E-18
 -1       989 9.34999E-05-2.68096E-05-2.85827E-05-5.60098E-07 9.77286E-19-2.64401E-18
 -1       990 9.55765E-05-2.44331E-05-3.04887E-05-4.64367E-07-5.07132E-20-3.86159E-19
 -1       991 1.18149E-04-3.79452E-05-3.43925E-05-9.04585E-06-4.98757E-20 1.82730E-18
 -1       992 9.13937E-05-3.02878E-05-2.61458E-05-2.22448E-05 1.72298E-18-2.80853E-19
 -1       993 9.63933E-05-2.88427E-05-2.89502E-05-8.15740E-07 2.01149E-20-2.51419E-19
 -1       994 9.40351E-05-2.73112E-05-2.85962E-05-4.56126E-07-1.90679E-19-2.22669E-18
 -1       995 9.62370E-05-3.62019E-05-2.56831E-05 2.79693E-05 1.49415E-18-1.02316E-18
 -1       996 9.56042E-05-2.44909E-05-3.04772E-05 4.32427E-07 1.84966E-19-1.01533E-18
 -1       997 9.54167E-05-2.85570E-05-2.86542E-05-7.28566E-07-1.18795E-20-6.71245E-19
 -1       998 9.63581E-05-2.71271E-05-2.96723E-05 1.01362E-07-1.50632E-20-3.79469E-19
 -1       999 9.57096E-05-2.48324E-05-3.03740E-05-6.90307E-07-3.19806E-19-2.25861E-20
 -1      1000 9.59136E-05-2.56367E-05-3.01171E-05 8.14030E-07 1.94488E-19-3.63150E-19
 -1      1001 1.09061E-04-4.24639E-05-2.85253E-05-1.65889E-05 8.77266E-19-1.40815E-18
 -1      1002 9.43870E-05-2.77245E-05-2.85692E-05-8.40518E-07-1.49024E-18-2.92382E-18
 -1      1003 9.68177E-05-2.84366E-05-2.93063E-05 3.10873E-07-2.70364E-19-1.90738E-19
 -1      1004 9.00385E-05-2.70534E-05-2.69864E-05 1.50697E-05 9.72046E-19-1.31358E-18
 -1      1005 9.49530E-05-2.81958E-05-2.86103E-05-5.05165E-08-1.22469E-19 8.16724E-20
 -1      1006 1.18086E-04-4.32285E-05-3.20830E-05-2.15854E-06 1.44522E-18 8.75820E-19
 -1      1007 9.67582E-05-2.88712E-05-2.90944E-05 4.19125E-07-1.38963E-19-3.40648E-19
 -1      1008 9.66094E-05-2.90984E-05-2.89333E-05 4.82903E-07-3.19829E-19-2.41223E-19
 -1      1009 9.64150E-05-2.91860E-05-2.88125E-05 5.26884E-07-4.99509E-19 5.62903E-19
 -1      1010 9.62107E-05-2.91920E-05-2.87223E-05 5.75046E-07-4.03293E-19 1.08437E-18
 -1      1011 9.60276E-05-2.91668E-05-2.86546E-05 6.51051E-07 4.58833E-20 6.13095E-19
 -1      1012 9.58960E-05-2.91569E-05-2.86024E-05 7.79381E-07-3.73116E-20 1.00314E-18
 -1      1013 9.58555E-05-2.92139E-05-2.85606E-05 9.85659E-07 7.19877E-19 1.11843E-18
 -1      1014 9.59608E-05-2.93995E-05-2.85261E-05 1.29635E-06 5.92501E-19 6.23129E-19
 -1      1015 9.62922E-05-2.97925E-05-2.84996E-05 1.73178E-06 5.24578E-19 6.83960E-19
 -1      1016 9.69639E-05-3.04922E-05-2.84875E-05 2.29499E-06-6.56916E-21 9.56858E-19
 -1      1017 9.81302E-05-3.16148E-05-2.85061E-05 2.94640E-06-1.16100E-19 3.27449E-19
 -1      1018 9.99807E-05-3.32729E-05-2.85883E-05 3.56557E-06 1.95232E-19-5.77606E-19
 -1      1019 1.02685E-04-3.55032E-05-2.87918E-05 3.90472E-06 2.64151E-19-6.32144E-19
 -1      1020 1.06374E-04-3.82068E-05-2.92110E-05 3.54645E-06-1.89266E-19-1.41359E-19
 -1      1021 1.10774E-04-4.07876E-05-2.99870E-05 1.88070E-06 6.53662E-19 9.07758E-19
 -1      1022 1.16876E-04-4.19582E-05-3.21014E-05 3.58796E-06 6.30730E-19-3.25498E-18
 -1      1023 1.12742E-04-4.15997E-05-3.04903E-05-6.79197E-07 3.25318E-19-1.83344E-18
 -1      1024 1.08090E-04-3.92443E-05-2.95059E-05-3.02019E-06-4.70340E-19 6.51807E-19
 -1      1025 1.04035E-04-3.64749E-05-2.89527E-05-3.84716E-06-1.59032E-19 4.70928E-19
 -1      1026 1.00868E-04-3.39576E-05-2.86749E-05-3.72027E-06 5.29967E-19 3.92278E-19
 -1      1027 9.86297E-05-3.20005E-05-2.85552E-05-3.14810E-06 1.31772E-18 2.51266E-19
 -1      1028 9.71459E-05-3.06061E-05-2.85170E-05-2.46138E-06 2.22689E-18 7.06906E-19
 -1      1029 9.62152E-05-2.96741E-05-2.85175E-05-1.82513E-06 2.22402E-18 8.16403E-19
 -1      1030 9.56667E-05-2.90864E-05-2.85336E-05-1.30140E-06-1.03704E-18 2.87954E-18
 -1      1031 9.53999E-05-2.87780E-05-2.85518E-05-9.29479E-07-7.96274E-19 1.66536E-18
 -1      1032 8.73886E-05-2.72755E-05-2.57484E-05 2.18829E-05 1.20058E-18-1.53546E-18
 -1      1033 9.19508E-05-2.60536E-05-2.82412E-05 3.66057E-06 2.17476E-19-2.01113E-19
 -1      1034 9.29172E-05-2.66350E-05-2.84064E-05 2.03202E-06-1.40460E-19-8.09974E-19
 -1      1035 9.01138E-05-2.57963E-05-2.75643E-05 9.88128E-06 1.02586E-18-3.54745E-19
 -1      1036 9.37560E-05-2.72380E-05-2.85077E-05 9.80005E-07 2.73458E-19-1.02766E-18
 -1      1037 1.21842E-04-4.85602E-05-3.14094E-05 7.57903E-06 1.02904E-18-2.86370E-20
 -1      1038 9.63366E-05-2.90344E-05-2.88438E-05-5.85680E-07 1.40330E-19-4.65578E-19
 -1      1039 1.16887E-04-4.53665E-05-3.06431E-05-6.15044E-06 2.20124E-18-3.11534E-19
 -1      1040 9.48352E-05-2.82019E-05-2.85575E-05-9.98622E-07-3.84978E-19-1.26411E-19
 -1      1041 9.31384E-05-2.68071E-05-2.84277E-05-2.53279E-06 1.79141E-18-3.17099E-18
 -1      1042 9.55541E-05-2.43373E-05-3.05216E-05-1.04952E-08 1.22564E-19-9.47406E-19
 -1      1043 9.44195E-05-2.77608E-05-2.85680E-05 3.43538E-07 5.36118E-20-2.33229E-19
 -1      1044 9.09328E-05-2.56573E-05-2.79743E-05 6.16229E-06 6.34694E-19 4.47658E-20
 -1      1045 9.67313E-05-2.77101E-05-2.95801E-05 1.30429E-07-7.69806E-20-6.19459E-20
 -1      1046 8.68129E-05-2.37565E-05-2.70234E-05-1.22601E-05-2.07820E-19-2.87397E-18
 -1      1047 1.06707E-04-4.20375E-05-2.77009E-05 2.16308E-05 1.30234E-18-1.22710E-18
 -1      1048 9.25534E-05-2.65751E-05-2.82762E-05-4.23908E-06-1.25919E-19-1.04534E-18
 -1      1049 9.14953E-05-2.81797E-05-2.71234E-05-1.52100E-05-8.78251E-20-1.95985E-18
 -1      1050 9.53916E-05-2.85442E-05-2.86489E-05-2.94639E-07-2.39410E-19-7.01903E-19
 -1      1051 9.60686E-05-2.89687E-05-2.87571E-05-5.40818E-07 4.99747E-19-2.06076E-19
 -1      1052 9.65912E-05-2.73869E-05-2.96576E-05-6.22849E-08-2.30981E-20-5.81028E-19
 -1      1053 9.36613E-05-2.71212E-05-2.85171E-05-1.47765E-06 8.55994E-19-5.24037E-18
 -1      1054 9.78776E-05-3.36374E-05-2.75180E-05-1.65196E-05 1.61208E-18-4.40737E-19
 -1      1055 9.62680E-05-2.61812E-05-3.00383E-05 2.48226E-07 1.10081E-19-6.91263E-19
 -1      1056 9.65548E-05-2.89641E-05-2.89675E-05-5.80508E-07 1.36477E-20-4.28334E-19
 -1      1057 9.67344E-05-2.82279E-05-2.93606E-05-3.44986E-07 1.98417E-20-4.65936E-19
 -1      1058 9.62667E-05-2.61243E-05-3.00613E-05-2.27157E-07-3.99504E-20 2.50596E-20
 -1      1059 8.82674E-05-2.35213E-05-2.77484E-05-6.82743E-06 9.34594E-19-3.77575E-18
 -1      1060 9.62670E-05-2.60098E-05-3.01103E-05-4.01734E-08-6.87656E-20-6.84460E-19
 -1      1061 9.67826E-05-2.89992E-05-2.90499E-05 1.77008E-07 3.81894E-20-8.81330E-20
 -1      1062 9.65908E-05-2.91502E-05-2.89030E-05 2.19850E-07-4.06798E-20 2.00549E-19
 -1      1063 9.63529E-05-2.91710E-05-2.87924E-05 2.75506E-07-1.55144E-19 3.15764E-19
 -1      1064 9.61078E-05-2.91202E-05-2.87090E-05 3.63207E-07-1.67326E-19 4.40258E-19
 -1      1065 9.58812E-05-2.90414E-05-2.86455E-05 5.10453E-07 2.98393E-19 8.03398E-19
 -1      1066 9.56925E-05-2.89719E-05-2.85944E-05 7.52132E-07 5.42665E-19 4.89723E-19
 -1      1067 9.55827E-05-2.89668E-05-2.85493E-05 1.12531E-06 1.75011E-19 2.49153E-19
 -1      1068 9.56093E-05-2.90928E-05-2.85066E-05 1.68026E-06 5.12357E-19-1.52649E-20
 -1      1069 9.58668E-05-2.94456E-05-2.84657E-05 2.46888E-06 2.95241E-19-4.65498E-19
 -1      1070 9.65024E-05-3.01593E-05-2.84320E-05 3.53031E-06-3.34112E-19-4.93438E-19
 -1      1071 9.77367E-05-3.14142E-05-2.84232E-05 4.85824E-06 1.39843E-19-4.60206E-19
 -1      1072 9.98807E-05-3.34293E-05-2.84796E-05 6.34580E-06 6.71681E-19-2.61927E-19
 -1      1073 1.03218E-04-3.63135E-05-2.86717E-05 7.61078E-06 3.50033E-19 1.90407E-19
 -1      1074 1.08134E-04-4.00633E-05-2.91625E-05 8.08819E-06 7.39244E-19 2.18641E-19
 -1      1075 9.50388E-05-2.83552E-05-2.85790E-05 5.73048E-07-2.77064E-20-1.16494E-18
 -1      1076 9.65962E-05-3.36647E-05-2.69688E-05 1.99202E-05 7.33066E-19-1.59710E-18
 -1      1077 1.10021E-04-4.14611E-05-2.93768E-05-8.41190E-06 1.61604E-18 4.48888E-19
 -1      1078 1.04391E-04-3.72808E-05-2.87692E-05-8.25004E-06-1.57905E-19 2.09678E-19
 -1      1079 1.00424E-04-3.38937E-05-2.85148E-05-6.92179E-06-5.21040E-19 2.60538E-19
 -1      1080 9.79289E-05-3.15672E-05-2.84397E-05-5.37789E-06 6.69424E-19 1.97522E-19
 -1      1081 9.64483E-05-3.00828E-05-2.84423E-05-3.94223E-06 2.26427E-18 6.47291E-19
 -1      1082 9.56192E-05-2.91808E-05-2.84738E-05-2.75641E-06 1.80938E-18-2.23133E-19
 -1      1083 9.51991E-05-2.86737E-05-2.85109E-05-1.85653E-06 1.09708E-18-1.49417E-18
 -1      1084 9.49554E-05-2.83797E-05-2.85344E-05-1.39028E-06-8.56281E-19-1.60806E-18
 -1      1085 9.39715E-05-2.78067E-05-2.83574E-05 3.43379E-06-2.17954E-19-1.59783E-18
 -1      1086 9.57279E-05-3.08080E-05-2.78288E-05 1.16877E-05 1.52609E-18-3.12912E-20
 -1      1087 9.42757E-05-2.78767E-05-2.84574E-05 2.04917E-06 2.77323E-19-1.59490E-18
 -1      1088 1.14162E-04-4.44057E-05-2.98796E-05 8.83450E-06 1.88461E-18 3.67904E-19
 -1      1089 1.11840E-04-4.41248E-05-2.90066E-05 1.49161E-05 1.30692E-18 1.28285E-18
 -1      1090 9.67045E-05-2.87241E-05-2.91352E-05-5.07661E-07-2.04478E-21-4.76882E-19
 -1      1091 9.62685E-05-2.60316E-05-3.01016E-05 1.17528E-07-7.32591E-20-1.10473E-18
 -1      1092 9.66661E-05-2.72739E-05-2.97386E-05-2.71121E-08-1.16632E-19-6.08330E-19
 -1      1093 9.40816E-05-2.74636E-05-2.85481E-05-1.11616E-06-2.10662E-18-2.69927E-18
 -1      1094 9.68563E-05-2.80466E-05-2.94899E-05 7.19610E-08-2.31846E-19-4.06019E-19
 -1      1095 9.57567E-05-2.88016E-05-2.86951E-05-4.47672E-07 1.77501E-19-2.10908E-19
 -1      1096 9.68940E-05-2.86683E-05-2.92400E-05 1.34763E-07-2.52249E-19-4.18407E-19
 -1      1097 9.46525E-05-2.80923E-05-2.85263E-05 1.15405E-06 4.24843E-19-1.08713E-18
 -1      1098 9.66889E-05-2.72284E-05-2.97693E-05 1.58535E-08-2.49844E-19-6.30524E-19
 -1      1099 9.43639E-05-2.81046E-05-2.83968E-05-3.57051E-06 1.72448E-18-2.77204E-18
 -1      1100 9.23746E-05-2.77292E-05-2.77060E-05-1.06470E-05 7.68248E-20-1.50317E-18
 -1      1101 9.54096E-05-2.86160E-05-2.86263E-05 2.03279E-07-4.73786E-19-5.22201E-19
 -1      1102 9.43652E-05-2.89432E-05-2.80406E-05 8.12854E-06 8.89941E-19-7.35510E-19
 -1      1103 9.20644E-05-2.65749E-05-2.80679E-05-6.45512E-06 3.12751E-19-5.13061E-19
 -1      1104 9.43286E-05-2.78833E-05-2.84767E-05-2.27947E-06 2.01769E-18-1.83886E-18
 -1      1105 9.39056E-05-2.80625E-05-2.82200E-05 5.40420E-06-2.04932E-20-1.72792E-18
 -1      1106 9.66154E-05-3.14738E-05-2.79202E-05-1.17755E-05-9.40502E-19 5.62304E-19
 -1      1107 9.66074E-05-2.90666E-05-2.89461E-05-2.87259E-07 8.32002E-22-1.89492E-19
 -1      1108 9.45091E-05-2.79426E-05-2.85286E-05-1.47062E-06-9.05388E-19-1.88859E-18
 -1      1109 9.63625E-05-2.90935E-05-2.88295E-05-2.53738E-07 1.42753E-19-5.03299E-19
 -1      1110 9.67864E-05-2.88791E-05-2.91018E-05-2.76312E-07-9.23065E-20-3.35762E-19
 -1      1111 9.58881E-05-2.89554E-05-2.86852E-05 1.45698E-07 4.34752E-19 4.12694E-19
 -1      1112 1.02876E-04-3.77909E-05-2.79359E-05 1.63817E-05 1.06202E-18 7.51135E-19
 -1      1113 9.68465E-05-2.88499E-05-2.91404E-05-1.17954E-07-3.65410E-20-3.74508E-19
 -1      1114 9.50473E-05-2.90318E-05-2.82928E-05-5.60757E-06 7.02513E-19-1.49571E-18
 -1      1115 9.66813E-05-2.72076E-05-2.97706E-05 4.96960E-09-2.49119E-19-1.01116E-18
 -1      1116 9.68863E-05-2.82091E-05-2.94350E-05-1.35742E-07-5.88840E-20-6.45874E-19
 -1      1117 9.61733E-05-3.04015E-05-2.81904E-05-8.07930E-06 8.90425E-19 1.51541E-19
 -1      1118 9.61796E-05-2.90803E-05-2.87567E-05 1.10747E-08-2.13487E-20 1.83780E-19
 -1      1119 1.02699E-04-3.67253E-05-2.82393E-05 1.31329E-05 1.36994E-18 7.99260E-19
 -1      1120 1.16843E-04 2.57537E-10-4.18516E-05-4.14598E-05-1.01644E-19 6.68627E-18
 -1      1121 8.86471E-05 7.19244E-11-3.72495E-05-2.41628E-05-8.15269E-20 2.48107E-18
 -1      1122 8.40762E-05 4.14623E-11-3.57661E-05-1.78719E-05-5.84453E-20 3.94691E-19
 -1      1123 8.23361E-05 3.20094E-11-3.50731E-05-1.38306E-05-5.00279E-20-7.28865E-19
 -1      1124 8.15347E-05 2.73373E-11-3.47399E-05-1.05277E-05-3.38284E-20-1.36217E-18
 -1      1125 8.11332E-05 2.45915E-11-3.45750E-05-7.63504E-06-2.37500E-20-1.80155E-18
 -1      1126 8.09237E-05 2.29323E-11-3.44916E-05-4.97612E-06-2.50536E-20-2.01322E-18
 -1      1127 8.08219E-05 2.20379E-11-3.44523E-05-2.43080E-06-1.02024E-20-2.16675E-18
 -1      1128 8.07932E-05 2.17682E-11-3.44414E-05 5.16389E-08-9.18584E-21-2.28483E-18
 -1      1129 8.08268E-05 2.20854E-11-3.44539E-05 2.53682E-06 1.74370E-21-2.39249E-18
 -1      1130 8.09334E-05 2.30395E-11-3.44947E-05 5.09116E-06 9.62507E-21-2.43192E-18
 -1      1131 8.11489E-05 2.47595E-11-3.45792E-05 7.76711E-06 1.30496E-20-2.37602E-18
 -1      1132 8.15572E-05 2.76364E-11-3.47461E-05 1.06871E-05 2.48551E-20-2.17349E-18
 -1      1133 8.23616E-05 3.25146E-11-3.50830E-05 1.40372E-05 4.33310E-20-1.79554E-18
 -1      1134 8.40737E-05 4.19156E-11-3.57858E-05 1.81260E-05 6.21510E-20-8.75991E-19
 -1      1135 8.83417E-05 6.67461E-11-3.73197E-05 2.40060E-05 7.03037E-20 1.05768E-18
 -1      1136 1.06608E-04 1.63913E-10-4.06308E-05 3.61868E-05 1.67713E-19 5.24144E-18
 -1      1137 1.30205E-04-2.57536E-05-4.02695E-05-2.61018E-05-4.55280E-19 9.46983E-18
 -1      1138 9.74479E-05-2.88601E-05-3.15750E-05-6.79894E-07-1.58130E-19 8.46895E-18
 -1      1139 9.01551E-05-2.70252E-05-2.78917E-05 3.87073E-07-7.84564E-20 6.60923E-18
 -1      1140 8.82478E-05-2.65720E-05-2.66434E-05 2.50692E-07 5.03952E-20 5.57311E-18
 -1      1141 8.78941E-05-2.64468E-05-2.63886E-05 1.65830E-07-2.09426E-20 4.71567E-18
 -1      1142 8.82607E-05-2.65257E-05-2.64759E-05 1.18106E-07-1.48595E-20 4.11407E-18
 -1      1143 8.89580E-05-2.67135E-05-2.66819E-05 8.76016E-08-1.50162E-20 3.55821E-18
 -1      1144 8.97880E-05-2.69500E-05-2.69292E-05 6.65383E-08-1.75569E-20 2.50550E-18
 -1      1145 9.06423E-05-2.71991E-05-2.71841E-05 5.11026E-08 2.28746E-20 1.76811E-18
 -1      1146 9.14602E-05-2.74403E-05-2.74288E-05 3.94111E-08-2.09612E-20 1.19641E-18
 -1      1147 9.22102E-05-2.76628E-05-2.76539E-05 3.04805E-08 9.50910E-20 8.05932E-19
 -1      1148 9.28785E-05-2.78618E-05-2.78550E-05 2.37361E-08 3.04422E-20 1.02841E-18
 -1      1149 9.34617E-05-2.80358E-05-2.80307E-05 1.87853E-08 2.02915E-20 6.56642E-19
 -1      1150 9.39611E-05-2.81849E-05-2.81812E-05 1.53004E-08 4.03044E-21 8.41051E-19
 -1      1151 9.43778E-05-2.83092E-05-2.83063E-05 1.29378E-08-5.41431E-21 1.03684E-18
 -1      1152 9.47080E-05-2.84071E-05-2.84044E-05 1.12605E-08-1.23065E-19 1.35563E-18
 -1      1153 9.49375E-05-2.84744E-05-2.84710E-05 9.65112E-09-1.62711E-19 8.93080E-19
 -1      1154 9.50369E-05-2.85019E-05-2.84965E-05 7.21969E-09-1.43359E-20 9.78257E-19
 -1      1155 9.49562E-05-2.84747E-05-2.84658E-05 2.73113E-09 1.32219E-19 1.16072E-18
 -1      1156 9.46214E-05-2.83706E-05-2.83564E-05-5.39066E-09-1.74017E-19 6.44348E-19
 -1      1157 9.39356E-05-2.81610E-05-2.81401E-05-1.88917E-08-3.52056E-20-2.76794E-19
 -1      1158 9.27866E-05-2.78131E-05-2.77849E-05-3.92374E-08-4.77407E-20-3.05210E-19
 -1      1159 9.10674E-05-2.72959E-05-2.72619E-05-6.68064E-08 1.21979E-19 8.33150E-19
 -1      1160 8.87096E-05-2.65904E-05-2.65548E-05-9.98038E-08-1.92989E-19-6.96804E-19
 -1      1161 8.57291E-05-2.57028E-05-2.56731E-05-1.33272E-07-7.83836E-21-1.30517E-18
 -1      1162 8.22723E-05-2.46778E-05-2.46635E-05-1.58932E-07-1.57216E-19-7.15213E-19
 -1      1163 7.86433E-05-2.36058E-05-2.36156E-05-1.66712E-07 1.98995E-19-1.99900E-19
 -1      1164 7.52860E-05-2.26172E-05-2.26555E-05-1.48227E-07 1.93755E-19 7.52906E-19
 -1      1165 7.27077E-05-2.18600E-05-2.19236E-05-1.01165E-07 4.26842E-20 9.66200E-19
 -1      1166 7.13541E-05-2.14631E-05-2.15411E-05-3.21637E-08 5.34425E-20 2.59291E-18
 -1      1167 7.14771E-05-2.14991E-05-2.15757E-05 4.41668E-08-2.42569E-19 1.54145E-18
 -1      1168 7.30530E-05-2.19614E-05-2.20211E-05 1.10375E-07 1.42174E-19 3.11629E-19
 -1      1169 7.57910E-05-2.27659E-05-2.27991E-05 1.52900E-07 8.30655E-21 6.86123E-19
 -1      1170 7.92266E-05-2.37780E-05-2.37831E-05 1.66648E-07-2.40852E-19 2.93232E-19
 -1      1171 8.28560E-05-2.48509E-05-2.48332E-05 1.55227E-07 1.04411E-19 6.96420E-20
 -1      1172 8.62563E-05-2.58599E-05-2.58287E-05 1.27615E-07 2.48986E-19 1.32934E-18
 -1      1173 8.91517E-05-2.67229E-05-2.66874E-05 9.37883E-08-1.93909E-19 2.83285E-18
 -1      1174 9.14224E-05-2.74031E-05-2.73701E-05 6.15360E-08-2.38992E-19 2.85773E-18
 -1      1175 9.30727E-05-2.79002E-05-2.78736E-05 3.52756E-08-1.82733E-19 1.94003E-18
 -1      1176 9.41843E-05-2.82374E-05-2.82182E-05 1.64069E-08-2.11420E-19 8.02623E-19
 -1      1177 9.48720E-05-2.84478E-05-2.84354E-05 4.35433E-09-2.31508E-19-3.61052E-19
 -1      1178 9.52526E-05-2.85658E-05-2.85588E-05-2.37595E-09-3.64241E-20 1.29872E-18
 -1      1179 9.54271E-05-2.86214E-05-2.86180E-05-5.44395E-09-3.29039E-19-2.87225E-19
 -1      1180 9.54742E-05-2.86381E-05-2.86370E-05-6.27019E-09 6.42303E-20-2.15666E-18
 -1      1181 9.54506E-05-2.86329E-05-2.86331E-05-5.88903E-09 5.79945E-19-1.42085E-18
 -1      1182 9.53945E-05-2.86173E-05-2.86183E-05-4.94452E-09 2.30141E-19 2.72298E-18
 -1      1183 9.53309E-05-2.85991E-05-2.86005E-05-3.73332E-09 2.65610E-19 4.78813E-18
 -1      1184 9.52762E-05-2.85832E-05-2.85850E-05-2.21271E-09-1.41919E-19 4.24959E-18
 -1      1185 9.52425E-05-2.85738E-05-2.85747E-05 1.27959E-10-4.77272E-19 2.31846E-19
 -1      1186 9.52339E-05-2.85701E-05-2.85691E-05 1.26779E-09 1.08960E-18 1.51124E-18
 -1      1187 1.31040E-04-3.77338E-05-3.86557E-05 1.21729E-05-1.26631E-19 8.76001E-18
 -1      1188 9.65479E-05-2.81874E-05-3.13265E-05 8.01625E-07 6.15952E-20 6.71792E-18
 -1      1189 9.03646E-05-2.69285E-05-2.78691E-05 1.19694E-07 9.27104E-20 4.51275E-18
 -1      1190 8.83284E-05-2.64978E-05-2.66761E-05 8.98279E-09 2.59503E-20 3.47792E-18
 -1      1191 8.79275E-05-2.64073E-05-2.64131E-05-2.49651E-08 2.06812E-20 2.76125E-18
 -1      1192 8.82718E-05-2.65049E-05-2.64885E-05-3.39679E-08 1.11597E-19 1.91985E-18
 -1      1193 8.89546E-05-2.67017E-05-2.66871E-05-3.50109E-08-1.00130E-19 2.21490E-18
 -1      1194 8.97721E-05-2.69414E-05-2.69291E-05-3.31148E-08-1.72430E-20 2.70950E-18
 -1      1195 9.06136E-05-2.71906E-05-2.71791E-05-2.97954E-08-7.83845E-20 2.86639E-18
 -1      1196 9.14180E-05-2.74302E-05-2.74190E-05-2.55987E-08 8.86999E-20 1.89693E-18
 -1      1197 9.21719E-05-2.76548E-05-2.76449E-05-2.11507E-08 3.55010E-20 7.96115E-19
 -1      1198 9.28450E-05-2.78565E-05-2.78471E-05-1.60700E-08-2.75648E-20 5.78739E-19
 -1      1199 9.34274E-05-2.80315E-05-2.80232E-05-1.08679E-08 2.99265E-20 5.11017E-19
 -1      1200 9.39554E-05-2.81910E-05-2.81838E-05-5.03477E-09 2.96988E-20-2.81688E-20
 -1      1201 9.44601E-05-2.83446E-05-2.83387E-05 1.92160E-09-1.89056E-20 1.05044E-19
 -1      1202 9.49902E-05-2.85076E-05-2.85035E-05 1.07934E-08 3.00930E-20-7.55832E-19
 -1      1203 9.56218E-05-2.87035E-05-2.87025E-05 2.27625E-08 1.26670E-19-1.48977E-18
 -1      1204 9.64749E-05-2.89697E-05-2.89748E-05 3.94414E-08 5.68745E-20-1.57172E-18
 -1      1205 9.77438E-05-2.93665E-05-2.93843E-05 6.28856E-08 7.13303E-20-8.70285E-19
 -1      1206 9.97464E-05-2.99946E-05-3.00373E-05 9.64875E-08-1.09769E-19-7.42007E-19
 -1      1207 1.03124E-04-3.10333E-05-3.11469E-05 1.40791E-07-2.81341E-20-5.13487E-19
 -1      1208 1.08720E-04-3.27514E-05-3.29913E-05 1.57531E-07 1.99847E-20-8.66250E-19
 -1      1209 1.17726E-04-3.54767E-05-3.59353E-05 1.22224E-07 3.79709E-20-5.71535E-19
 -1      1210 1.32084E-04-3.97651E-05-4.04772E-05-1.05214E-07 1.13595E-19-2.40113E-18
 -1      1211 1.53630E-04-4.61129E-05-4.67842E-05-7.61538E-07 2.01223E-19-2.53729E-18
 -1      1212 1.81766E-04-5.42855E-05-5.39086E-05-1.96982E-06-6.80273E-21-2.23553E-18
 -1      1213 2.07294E-04-6.17172E-05-5.88423E-05-2.63427E-06-5.06129E-19 2.06782E-18
 -1      1214 2.06029E-04-6.17617E-05-5.73046E-05 8.36126E-07 7.10449E-20 4.67943E-18
 -1      1215 1.61425E-04-4.75201E-05-5.00120E-05 8.08727E-06 2.61786E-19 3.01544E-19
 -1      1216 9.97680E-05-2.71508E-05-4.25197E-05 9.34169E-06-2.21711E-19-2.56651E-18
 -1      1217 7.54937E-05-1.71299E-05-4.06092E-05 7.87131E-07-3.02391E-19-2.10816E-18
 -1      1218 1.08328E-04-2.84769E-05-4.46027E-05-7.80186E-06 3.66236E-19-6.38070E-18
 -1      1219 1.67355E-04-4.79661E-05-5.23004E-05-9.49351E-06 4.67721E-19-9.26485E-18
 -1      1220 2.08788E-04-6.27284E-05-5.83734E-05-3.69501E-06-1.70135E-19-8.55927E-18
 -1      1221 2.04358E-04-6.18387E-05-5.82751E-05 1.66457E-06-1.30920E-19-3.77761E-18
 -1      1222 1.77044E-04-5.34396E-05-5.26510E-05 2.36265E-06 8.73569E-20-2.65608E-18
 -1      1223 1.49571E-04-4.50174E-05-4.55127E-05 1.61905E-06-9.13869E-21-5.68274E-18
 -1      1224 1.29254E-04-3.88745E-05-3.95099E-05 8.90132E-07-5.53721E-19-3.31063E-18
 -1      1225 1.15933E-04-3.48708E-05-3.53057E-05 4.41790E-07 3.62557E-19 4.50622E-19
 -1      1226 1.07658E-04-3.23800E-05-3.26192E-05 2.06160E-07 2.42821E-19-3.59640E-18
 -1      1227 1.02549E-04-3.08186E-05-3.09473E-05 1.01172E-07 5.10049E-19-5.28141E-18
 -1      1228 9.95117E-05-2.98994E-05-2.99547E-05 3.31727E-08 8.34195E-20-8.75869E-18
 -1      1229 9.77537E-05-2.93576E-05-2.93834E-05 1.01717E-08 2.53905E-19-1.12380E-17
 -1      1230 9.66989E-05-2.90307E-05-2.90422E-05 6.50237E-10-8.63585E-19-6.03866E-18
 -1      1231 9.60633E-05-2.88328E-05-2.88376E-05-2.69430E-09 4.56064E-19 1.62185E-19
 -1      1232 9.56784E-05-2.87126E-05-2.87144E-05-3.39512E-09-1.93957E-19 6.68897E-19
 -1      1233 9.54454E-05-2.86396E-05-2.86404E-05-3.17546E-09 4.47952E-19-8.97308E-19
 -1      1234 9.53078E-05-2.85963E-05-2.85971E-05-2.96179E-09 3.90651E-19-5.49088E-18
 -1      1235 9.52356E-05-2.85734E-05-2.85745E-05-3.51081E-09 2.45709E-19-2.26764E-18
 -1      1236 9.52141E-05-2.85662E-05-2.85657E-05-5.31892E-09-3.66532E-19 1.26284E-19
 -1      1237 9.52280E-05-2.85727E-05-2.85624E-05-5.09425E-09-1.08994E-19-3.00430E-19
 -1      1238 9.52357E-05-2.85799E-05-2.85627E-05-3.72118E-09-1.24029E-18-3.63800E-20
 -1      1239 9.52422E-05-2.85911E-05-2.85674E-05-5.45228E-09-2.74018E-18-5.34927E-21
 -1      1240 9.52350E-05-2.85627E-05-2.85778E-05-2.38219E-09 9.22109E-18 1.72900E-18
 -1      1241 9.52144E-05-2.84925E-05-2.85975E-05 1.15757E-09 1.13025E-17 6.87367E-20
 -1      1242 9.51871E-05-2.84009E-05-2.86226E-05 3.69157E-09 4.37611E-18-6.13257E-19
 -1      1243 9.51608E-05-2.83133E-05-2.86469E-05 4.79700E-09 8.20451E-18 1.22769E-18
 -1      1244 9.51412E-05-2.82486E-05-2.86651E-05 4.65497E-09 4.61603E-18-6.96151E-19
 -1      1245 9.51315E-05-2.82172E-05-2.86742E-05 3.55854E-09-1.06996E-17-1.23890E-18
 -1      1246 9.51325E-05-2.82213E-05-2.86734E-05 2.04723E-09-6.58247E-18 1.02294E-18
 -1      1247 9.51423E-05-2.82548E-05-2.86642E-05 5.75251E-10 1.65307E-18 9.15835E-19
 -1      1248 9.51580E-05-2.83077E-05-2.86492E-05-5.78745E-10-1.27434E-18-4.37019E-19
 -1      1249 9.51764E-05-2.83693E-05-2.86314E-05-1.34021E-09 7.68965E-18 1.31508E-18
 -1      1250 9.51950E-05-2.84317E-05-2.86132E-05-1.81262E-09 7.47515E-18 2.63289E-19
 -1      1251 9.52123E-05-2.84894E-05-2.85965E-05-2.12696E-09-7.24548E-19-1.16908E-18
 -1      1252 9.52271E-05-2.85368E-05-2.85830E-05-1.82376E-09-3.95501E-18-1.38289E-19
 -1      1253 9.52363E-05-2.85661E-05-2.85741E-05 2.63658E-09-3.11087E-18 3.09212E-19
 -1      1254 9.52383E-05-2.85744E-05-2.85689E-05 9.18427E-10-2.07680E-18 5.26639E-19
 -1      1255 4.06806E-05-1.31663E-04 2.44351E-05-2.06794E-05-1.64917E-18-2.57657E-19
 -1      1256 2.35853E-05-1.01488E-04 1.85450E-05-4.68475E-05 1.68390E-18 1.03465E-18
 -1      1257 4.87456E-06-4.21618E-05 3.00314E-06-3.21429E-05 9.70530E-18 6.88214E-18
 -1      1258 2.61362E-05 2.73372E-06-2.04430E-05 2.14218E-05 1.21685E-17 1.13604E-17
 -1      1259 1.11802E-04 3.23652E-06-4.82989E-05 9.09086E-05 8.56520E-18 1.37355E-17
 -1      1260 2.60510E-04-5.01068E-05-7.44198E-05 1.23458E-04 4.48589E-18 1.19415E-17
 -1      1261 4.00207E-04-1.16059E-04-9.24335E-05 7.90849E-05 1.88444E-18 5.26854E-18
 -1      1262 4.42762E-04-1.38120E-04-9.68654E-05-2.28501E-05 2.46592E-19 2.44708E-18
 -1      1263 3.45133E-04-8.88690E-05-8.58086E-05-1.07061E-04 2.35475E-19 4.03188E-19
 -1      1264 1.87107E-04-1.99873E-05-6.27568E-05-1.16271E-04 3.39237E-18-5.55315E-18
 -1      1265 6.28089E-05 1.21579E-05-3.58900E-05-6.20697E-05 4.08270E-18-5.87671E-18
 -1      1266 8.89797E-06-9.15025E-06-1.07545E-05 3.53331E-06 5.17368E-18-3.84722E-18
 -1      1267 9.18986E-06-6.45122E-05 9.55789E-06 4.24725E-05 1.04558E-17-5.55357E-18
 -1      1268 3.05779E-05-1.16479E-04 2.18647E-05 3.98378E-05 1.20342E-17-3.42710E-18
 -1      1269 4.29667E-05-1.33551E-04 2.43586E-05 9.71389E-06 8.20436E-18-9.52489E-19
 -1      1270 3.20413E-05-1.03125E-04 1.81716E-05-1.82690E-05 9.82558E-19-8.45762E-19
 -1      1271 1.28170E-05-4.31601E-05 4.27062E-06-1.65515E-05-7.86724E-18-3.38771E-18
 -1      1272 1.35406E-05 1.40337E-05-1.55784E-05 2.52461E-05-1.32781E-17-9.62992E-18
 -1      1273 5.66194E-05 3.48203E-05-3.74993E-05 8.39152E-05-1.45080E-17-1.45859E-17
 -1      1274 1.39267E-04 1.10963E-05-5.75240E-05 1.24441E-04-9.18861E-18-1.36355E-17
 -1      1275 2.38417E-04-3.98703E-05-7.37268E-05 1.23847E-04-4.81115E-18-1.10758E-17
 -1      1276 3.17877E-04-8.79774E-05-8.43123E-05 6.73797E-05-7.65400E-19-6.51580E-18
 -1      1277 3.40526E-04-1.02706E-04-8.68824E-05-1.80136E-05-7.13890E-19-1.33895E-18
 -1      1278 2.93179E-04-7.26176E-05-8.10519E-05-9.43879E-05-2.59001E-18 7.17352E-18
 -1      1279 2.02206E-04-1.97809E-05-6.82026E-05-1.28707E-04-6.13082E-18 1.28173E-17
 -1      1280 1.04737E-04 2.46967E-05-5.02099E-05-1.12388E-04-9.44526E-18 1.26157E-17
 -1      1281 3.40228E-05 3.35498E-05-2.91514E-05-6.13150E-05-8.56181E-18 7.20317E-18
 -1      1282 7.81846E-06-2.08943E-06-8.14914E-06-5.93798E-06-8.65668E-18 5.14488E-18
 -1      1283 1.76175E-05-6.26164E-05 9.26628E-06 2.13751E-05-6.89824E-18 2.37847E-18
 -1      1284 3.72695E-05-1.16218E-04 2.07063E-05 1.23920E-05-7.88249E-18 1.61902E-18
 -1      1285 1.04434E-04-2.20172E-05-3.78890E-05-1.72724E-05-1.51195E-19 5.95507E-18
 -1      1286 9.03178E-05-6.68178E-06-3.60160E-05-2.04669E-05-6.70744E-19 1.50782E-18
 -1      1287 9.26522E-05-6.74053E-06-3.72202E-05-2.57549E-05-8.04258E-19 2.57699E-18
 -1      1288 8.59033E-05-4.09742E-06-3.51293E-05-1.64260E-05-7.40677E-19-8.94149E-20
 -1      1289 8.71561E-05-4.09069E-06-3.55985E-05-1.88474E-05-8.17757E-19 6.40833E-19
 -1      1290 9.21336E-05-1.04644E-05-3.50927E-05-1.90297E-05-1.20919E-18 1.38511E-18
 -1      1291 8.40962E-05-3.18903E-06-3.46870E-05-1.28129E-05-6.66191E-19-1.01562E-18
 -1      1292 8.47045E-05-3.15876E-06-3.49107E-05-1.46254E-05-7.17357E-19-5.83526E-19
 -1      1293 8.78624E-05-7.39422E-06-3.45730E-05-1.54029E-05-1.15306E-18 2.25523E-20
 -1      1294 8.31887E-05-2.72787E-06-3.44716E-05-9.67999E-06-5.25505E-19-1.56124E-18
 -1      1295 8.35027E-05-2.71123E-06-3.45805E-05-1.12278E-05-5.86531E-19-1.28505E-18
 -1      1296 8.58650E-05-5.98300E-06-3.43058E-05-1.19536E-05-1.01901E-18-7.73870E-19
 -1      1297 8.26945E-05-2.45535E-06-3.43652E-05-6.91012E-06-4.15364E-19-1.88490E-18
 -1      1298 8.28647E-05-2.44715E-06-3.44197E-05-8.28019E-06-4.53632E-19-1.71134E-18
 -1      1299 8.48222E-05-5.21426E-06-3.41746E-05-8.93608E-06-8.05489E-19-1.22634E-18
 -1      1300 8.24188E-05-2.28980E-06-3.43121E-05-4.29239E-06-3.18215E-19-2.09046E-18
 -1      1301 8.25099E-05-2.28590E-06-3.43394E-05-5.59271E-06-3.63463E-19-2.00694E-18
 -1      1302 8.42341E-05-4.75752E-06-3.41110E-05-6.21258E-06-6.35326E-19-1.56376E-18
 -1      1303 8.22864E-05-2.20040E-06-3.42898E-05-1.78940E-06-1.67350E-19-2.22036E-18
 -1      1304 8.23253E-05-2.19881E-06-3.43008E-05-3.03948E-06-2.14789E-19-2.13606E-18
 -1      1305 8.39116E-05-4.49401E-06-3.40818E-05-3.64264E-06-4.27972E-19-1.70825E-18
 -1      1306 8.22607E-05-2.17296E-06-3.42872E-05 6.68500E-07-6.13288E-20-2.38213E-18
 -1      1307 8.22591E-05-2.17298E-06-3.42868E-05-5.66462E-07-8.53758E-20-2.31335E-18
 -1      1308 8.37704E-05-4.37432E-06-3.40710E-05-1.17045E-06-1.89045E-19-1.85128E-18
 -1      1309 8.23348E-05-2.20347E-06-3.43025E-05 3.14542E-06 6.15538E-20-2.42809E-18
 -1      1310 8.22927E-05-2.20509E-06-3.42907E-05 1.89255E-06 1.17747E-20-2.39143E-18
 -1      1311 8.37759E-05-4.37880E-06-3.40715E-05 1.27189E-06-3.72033E-20-1.96971E-18
 -1      1312 8.25285E-05-2.29690E-06-3.43422E-05 5.70849E-06 1.77066E-19-2.49369E-18
 -1      1313 8.24338E-05-2.30027E-06-3.43142E-05 4.40187E-06 1.49179E-19-2.46865E-18
 -1      1314 8.39286E-05-4.50840E-06-3.40831E-05 3.74863E-06 1.86342E-19-2.04429E-18
 -1      1315 8.28882E-05-2.46296E-06-3.44223E-05 8.38945E-06 2.78105E-19-2.34427E-18
 -1      1316 8.27155E-05-2.47167E-06-3.43674E-05 7.01004E-06 2.31405E-19-2.42352E-18
 -1      1317 8.42618E-05-4.78231E-06-3.41121E-05 6.30600E-06 3.42502E-19-2.04259E-18
 -1      1318 8.35465E-05-2.74058E-06-3.45853E-05 1.13890E-05 5.14123E-19-2.13811E-18
 -1      1319 8.32251E-05-2.75766E-06-3.44749E-05 9.82428E-06 4.11082E-19-2.26061E-18
 -1      1320 8.48648E-05-5.25607E-06-3.41751E-05 9.04831E-06 6.01876E-19-1.88049E-18
 -1      1321 8.47703E-05-3.20619E-06-3.49190E-05 1.48378E-05 6.62883E-19-1.68541E-18
 -1      1322 8.41566E-05-3.24101E-06-3.46927E-05 1.29968E-05 5.80271E-19-1.98398E-18
 -1      1323 8.59485E-05-6.06246E-06-3.43072E-05 1.21148E-05 8.99787E-19-1.60862E-18
 -1      1324 8.72506E-05-4.08913E-06-3.56193E-05 1.90883E-05 7.99176E-19-6.55021E-19
 -1      1325 8.59732E-05-4.15446E-06-3.51367E-05 1.66914E-05 6.99279E-19-1.29440E-18
 -1      1326 8.79908E-05-7.51946E-06-3.45751E-05 1.56463E-05 1.11201E-18-1.05069E-18
 -1      1327 9.34634E-05-6.79370E-06-3.71159E-05 2.50905E-05 7.17437E-19 1.44001E-18
 -1      1328 9.01297E-05-6.43695E-06-3.60384E-05 2.11427E-05 6.82920E-19 1.45478E-19
 -1      1329 9.23538E-05-1.06955E-05-3.50775E-05 1.96730E-05 1.18897E-18 1.38913E-19
 -1      1330 1.23617E-04-2.49217E-05-3.90127E-05 2.83626E-05 3.64754E-19 5.54425E-18
 -1      1331 1.00077E-04-1.44233E-05-3.73529E-05 2.40463E-05 3.81271E-19 2.65958E-18
 -1      1332 1.01681E-04-1.93445E-05-3.54021E-05 2.13952E-05 1.20111E-18 1.99752E-18
 -1      1333 1.02598E-04-2.78034E-05-3.47561E-05 7.32674E-06 6.51104E-19 5.27956E-18
 -1      1334 1.05143E-04-3.02290E-05-3.35239E-05-7.95647E-06-5.40725E-19 6.04803E-18
 -1      1335 9.82589E-05-2.78426E-05-3.07614E-05-4.98574E-06-5.89323E-19 5.47692E-18
 -1      1336 9.55031E-05-2.78493E-05-2.92545E-05-2.48727E-06-4.66556E-19 5.11140E-18
 -1      1337 9.32730E-05-2.75590E-05-2.82159E-05-2.04061E-06-4.43898E-19 4.49970E-18
 -1      1338 9.94856E-05-2.80529E-05-3.09829E-05-7.88145E-06-9.74617E-19 3.41720E-18
 -1      1339 9.15855E-05-2.72017E-05-2.75823E-05-8.35596E-07-2.89937E-19 4.24342E-18
 -1      1340 9.08714E-05-2.71069E-05-2.72809E-05-7.25286E-07-2.58054E-19 3.78976E-18
 -1      1341 9.47228E-05-2.77712E-05-2.88179E-05-3.11550E-06-7.21354E-19 2.96566E-18
 -1      1342 9.01241E-05-2.69248E-05-2.70386E-05-1.70146E-07-2.64949E-19 3.45182E-18
 -1      1343 9.00552E-05-2.69527E-05-2.70048E-05-1.11781E-07-2.85649E-19 3.03904E-18
 -1      1344 9.25283E-05-2.75019E-05-2.78987E-05-1.04676E-06-6.41965E-19 2.29657E-18
 -1      1345 8.97999E-05-2.68864E-05-2.69319E-05 1.59811E-07-1.40953E-19 2.88760E-18
 -1      1346 9.00197E-05-2.69780E-05-2.69951E-05 1.88806E-07-1.81464E-19 2.72390E-18
 -1      1347 9.15766E-05-2.73600E-05-2.75339E-05-6.05705E-08-4.33932E-19 1.90758E-18
 -1      1348 9.00289E-05-2.69827E-05-2.70033E-05 3.21559E-07-2.53187E-19 2.49541E-18
 -1      1349 9.03784E-05-2.71045E-05-2.71045E-05 3.33712E-07-2.78739E-19 2.13004E-18
 -1      1350 9.13329E-05-2.73506E-05-2.74290E-05 4.30228E-07-5.10246E-19 1.60735E-18
 -1      1351 9.05276E-05-2.71482E-05-2.71540E-05 3.90459E-07-2.36386E-19 1.97316E-18
 -1      1352 9.09249E-05-2.72793E-05-2.72688E-05 3.92723E-07-3.06142E-19 1.58010E-18
 -1      1353 9.14781E-05-2.74277E-05-2.74550E-05 6.63058E-07-5.01697E-19 1.31498E-18
 -1      1354 9.11424E-05-2.73423E-05-2.73382E-05 4.06076E-07-1.75430E-19 1.44187E-18
 -1      1355 9.15426E-05-2.74708E-05-2.74543E-05 4.02625E-07-2.21096E-19 1.19769E-18
 -1      1356 9.18270E-05-2.75511E-05-2.75490E-05 7.51468E-07-4.64497E-19 1.07671E-18
 -1      1357 9.17861E-05-2.75409E-05-2.75311E-05 3.91387E-07-2.38580E-19 1.02925E-18
 -1      1358 9.21645E-05-2.76604E-05-2.76412E-05 3.84886E-07-1.99712E-19 8.09965E-19
 -1      1359 9.22697E-05-2.76941E-05-2.76755E-05 7.57152E-07-3.79595E-19 8.62549E-19
 -1      1360 9.24088E-05-2.77306E-05-2.77179E-05 3.60534E-07-9.16198E-20 7.55735E-19
 -1      1361 9.27530E-05-2.78380E-05-2.78184E-05 3.52689E-07-3.88806E-20 6.62512E-19
 -1      1362 9.27405E-05-2.78403E-05-2.78134E-05 7.16664E-07-2.75145E-19 7.17389E-19
 -1      1363 9.29838E-05-2.79043E-05-2.78907E-05 3.22220E-07 7.48516E-21 4.58864E-19
 -1      1364 9.32886E-05-2.79987E-05-2.79800E-05 3.14054E-07-1.43309E-19 2.61439E-19
 -1      1365 9.32007E-05-2.79801E-05-2.79501E-05 6.52410E-07-1.94620E-19 4.08136E-19
 -1      1366 9.34982E-05-2.80589E-05-2.80454E-05 2.81351E-07 9.22617E-21 1.68599E-19
 -1      1367 9.37624E-05-2.81404E-05-2.81230E-05 2.73348E-07-9.60369E-20 1.87555E-19
 -1      1368 9.36283E-05-2.81084E-05-2.80780E-05 5.77654E-07-2.19943E-19 1.46857E-19
 -1      1369 9.39463E-05-2.81934E-05-2.81803E-05 2.39840E-07-5.27783E-21 4.75622E-19
 -1      1370 9.41701E-05-2.82625E-05-2.82460E-05 2.32005E-07 3.03503E-20 5.30201E-19
 -1      1371 9.40110E-05-2.82227E-05-2.81929E-05 4.98945E-07 3.09519E-20-9.59118E-20
 -1      1372 9.43250E-05-2.83075E-05-2.82940E-05 1.96941E-07 6.76774E-20 5.53151E-19
 -1      1373 9.45073E-05-2.83642E-05-2.83475E-05 1.88813E-07 5.36013E-20 6.20136E-19
 -1      1374 9.43415E-05-2.83221E-05-2.82918E-05 4.17242E-07-3.23014E-21 2.50865E-19
 -1      1375 9.46289E-05-2.84002E-05-2.83847E-05 1.49301E-07-1.30070E-19 8.42689E-19
 -1      1376 9.47651E-05-2.84436E-05-2.84244E-05 1.39921E-07-3.44252E-19 7.74349E-19
 -1      1377 9.46124E-05-2.84053E-05-2.83719E-05 3.28305E-07 1.47151E-19 3.69216E-19
 -1      1378 9.48460E-05-2.84688E-05-2.84486E-05 9.08907E-08-1.50598E-19 6.13228E-19
 -1      1379 9.49252E-05-2.84957E-05-2.84712E-05 7.87672E-08-2.35292E-19 4.64810E-19
 -1      1380 9.48126E-05-2.84703E-05-2.84291E-05 2.22696E-07-2.76141E-19 4.96755E-19
 -1      1381 9.49532E-05-2.85069E-05-2.84782E-05 1.30211E-08-1.75534E-19 4.35122E-19
 -1      1382 9.49558E-05-2.85117E-05-2.84778E-05-3.86792E-09 1.11413E-20 4.95441E-19
 -1      1383 9.49234E-05-2.85127E-05-2.84573E-05 8.57844E-08-1.94200E-19 4.12731E-19
 -1      1384 9.49122E-05-2.85037E-05-2.84617E-05-9.52293E-08-2.14074E-21 2.23669E-19
 -1      1385 9.48081E-05-2.84773E-05-2.84295E-05-1.19307E-07-1.10254E-19 3.89196E-19
 -1      1386 9.49150E-05-2.85245E-05-2.84468E-05-1.01713E-07-2.22579E-19-3.40565E-19
 -1      1387 9.46668E-05-2.84426E-05-2.83821E-05-2.45710E-07-3.21295E-19 7.33740E-20
 -1      1388 9.44145E-05-2.83717E-05-2.83060E-05-2.79443E-07-8.02907E-19-4.70136E-19
 -1      1389 9.47439E-05-2.84932E-05-2.83844E-05-3.61871E-07-5.35909E-19-6.39566E-19
 -1      1390 9.41427E-05-2.83006E-05-2.82173E-05-4.48479E-07-2.81715E-19-4.18679E-19
 -1      1391 9.36915E-05-2.81688E-05-2.80826E-05-4.93651E-07-3.06467E-19-6.39730E-19
 -1      1392 9.43526E-05-2.84005E-05-2.82532E-05-7.15389E-07-5.98667E-19-6.50723E-19
 -1      1393 9.32529E-05-2.80495E-05-2.79419E-05-7.07226E-07-4.91312E-20-3.57895E-19
 -1      1394 9.25500E-05-2.78387E-05-2.77340E-05-7.63790E-07 1.54023E-19-1.97670E-19
 -1      1395 9.36725E-05-2.82225E-05-2.80346E-05-1.17421E-06-2.01098E-19-5.33255E-19
 -1      1396 9.19116E-05-2.76597E-05-2.75322E-05-1.01297E-06-1.68091E-19-3.86201E-19
 -1      1397 9.09149E-05-2.73542E-05-2.72396E-05-1.07755E-06-4.21771E-19-5.25094E-19
 -1      1398 9.26338E-05-2.79321E-05-2.77108E-05-1.73071E-06-1.87737E-20-5.65339E-19
 -1      1399 9.00581E-05-2.71071E-05-2.69729E-05-1.33732E-06-4.22990E-19-6.64259E-19
 -1      1400 8.87553E-05-2.67000E-05-2.65933E-05-1.40182E-06-3.14674E-19-1.31330E-18
 -1      1401 9.11823E-05-2.75037E-05-2.72710E-05-2.34501E-06-4.75551E-19-9.77350E-19
 -1      1402 8.76905E-05-2.63844E-05-2.62668E-05-1.62835E-06 1.42193E-19-1.00538E-18
 -1      1403 8.61212E-05-2.58853E-05-2.58131E-05-1.67953E-06 2.65434E-19-1.12933E-18
 -1      1404 8.93055E-05-2.69225E-05-2.67176E-05-2.93495E-06-1.90182E-19-8.48884E-19
 -1      1405 8.49021E-05-2.55146E-05-2.54450E-05-1.81368E-06 1.40634E-19-8.06892E-19
 -1      1406 8.31759E-05-2.49567E-05-2.49495E-05-1.83489E-06 8.58857E-20-6.69407E-19
 -1      1407 8.70617E-05-2.61969E-05-2.60733E-05-3.37631E-06 5.17502E-19-1.13318E-18
 -1      1408 8.19078E-05-2.45618E-05-2.45723E-05-1.81495E-06 1.85910E-19-3.71477E-19
 -1      1409 8.02065E-05-2.40044E-05-2.40870E-05-1.79068E-06 4.28083E-19-2.87568E-19
 -1      1410 8.46047E-05-2.53718E-05-2.53855E-05-3.52179E-06 2.53285E-19-2.88808E-19
 -1      1411 7.90406E-05-2.36339E-05-2.37449E-05-1.57376E-06 2.05535E-19 3.67453E-19
 -1      1412 7.75952E-05-2.31552E-05-2.33348E-05-1.49619E-06 5.38892E-20 4.62506E-19
 -1      1413 8.21888E-05-2.45342E-05-2.47244E-05-3.24229E-06 5.33136E-19 1.57141E-19
 -1      1414 7.67034E-05-2.28673E-05-2.30759E-05-1.08106E-06 2.21936E-19 1.12933E-19
 -1      1415 7.57459E-05-2.25478E-05-2.28052E-05-9.55877E-07-1.62127E-20 3.22356E-19
 -1      1416 8.01383E-05-2.38056E-05-2.41738E-05-2.48149E-06 1.10710E-19-1.94947E-19
 -1      1417 7.52787E-05-2.23956E-05-2.26705E-05-3.95168E-07-2.93020E-19 6.88287E-19
 -1      1418 7.49790E-05-2.22952E-05-2.25859E-05-2.42816E-07-1.35135E-19 8.16011E-19
 -1      1419 7.87803E-05-2.33150E-05-2.38140E-05-1.30016E-06-1.06498E-19-3.97110E-19
 -1      1420 7.50218E-05-2.23092E-05-2.25982E-05 3.65677E-07-5.06648E-19 1.19522E-18
 -1      1421 7.54355E-05-2.24477E-05-2.27149E-05 5.15474E-07-4.37241E-19 5.68498E-19
 -1      1422 7.83556E-05-2.31603E-05-2.37022E-05 1.18309E-07-4.50926E-19-4.85310E-19
 -1      1423 7.59803E-05-2.26251E-05-2.28721E-05 1.05827E-06-2.97140E-19 7.33431E-19
 -1      1424 7.70308E-05-2.29753E-05-2.31691E-05 1.17669E-06 2.48485E-21 7.86364E-19
 -1      1425 7.89434E-05-2.33742E-05-2.38569E-05 1.51476E-06-6.25961E-19 7.40009E-19
 -1      1426 7.79793E-05-2.32808E-05-2.34449E-05 1.56188E-06 3.11031E-19 2.55711E-19
 -1      1427 7.94827E-05-2.37779E-05-2.38718E-05 1.63077E-06-4.33376E-20 4.61898E-20
 -1      1428 8.04349E-05-2.39119E-05-2.42528E-05 2.63737E-06-1.72798E-19 1.06293E-19
 -1      1429 8.06778E-05-2.41565E-05-2.42233E-05 1.81473E-06 2.04107E-21 2.54136E-19
 -1      1430 8.23986E-05-2.47189E-05-2.47146E-05 1.83090E-06 1.28704E-19-2.88679E-19
 -1      1431 8.25698E-05-2.46676E-05-2.48278E-05 3.32130E-06 1.57439E-19-2.08238E-19
 -1      1432 8.36700E-05-2.51133E-05-2.50938E-05 1.82319E-06 2.58949E-19-1.21854E-19
 -1      1433 8.53828E-05-2.56652E-05-2.55861E-05 1.79625E-06 3.72942E-19 1.36849E-19
 -1      1434 8.50163E-05-2.55112E-05-2.54999E-05 3.52716E-06 5.55568E-20 3.90297E-19
 -1      1435 8.65863E-05-2.60296E-05-2.59505E-05 1.64473E-06 3.64894E-19 8.92826E-20
 -1      1436 8.81215E-05-2.65163E-05-2.63950E-05 1.59085E-06 5.93398E-19 9.05359E-19
 -1      1437 8.74590E-05-2.63261E-05-2.61869E-05 3.32742E-06 8.00878E-19 1.04847E-19
 -1      1438 8.91611E-05-2.68229E-05-2.67147E-05 1.35826E-06 7.33549E-19 1.42600E-18
 -1      1439 9.04226E-05-2.72156E-05-2.70827E-05 1.29381E-06 9.86032E-20 1.53545E-18
 -1      1440 8.96606E-05-2.70324E-05-2.68222E-05 2.85825E-06 9.53718E-19 5.06997E-19
 -1      1441 9.12535E-05-2.74541E-05-2.73421E-05 1.03763E-06-3.98999E-19 1.89674E-18
 -1      1442 9.22128E-05-2.77468E-05-2.76242E-05 9.75091E-07-4.60915E-19 1.26449E-18
 -1      1443 9.14859E-05-2.75927E-05-2.73633E-05 2.26590E-06-1.31853E-20 8.34692E-19
 -1      1444 9.28319E-05-2.79196E-05-2.78202E-05 7.36390E-07-3.34427E-19 1.62472E-18
 -1      1445 9.35095E-05-2.81218E-05-2.80210E-05 6.83096E-07-1.62055E-19 1.07900E-18
 -1      1446 9.28923E-05-2.80037E-05-2.77918E-05 1.66903E-06-8.76403E-19 4.82081E-19
 -1      1447 9.39402E-05-2.82386E-05-2.81593E-05 4.84344E-07-4.59500E-19 9.48892E-19
 -1      1448 9.43834E-05-2.83674E-05-2.82918E-05 4.43116E-07-1.03466E-18 5.25194E-20
 -1      1449 9.39042E-05-2.82837E-05-2.81088E-05 1.14331E-06-8.34197E-19 9.82379E-19
 -1      1450 9.46617E-05-2.84404E-05-2.83825E-05 2.91534E-07-6.89943E-19 7.67990E-19
 -1      1451 9.49264E-05-2.85146E-05-2.84624E-05 2.62138E-07-8.36131E-20 5.61422E-19
 -1      1452 9.45833E-05-2.84599E-05-2.83279E-05 7.23485E-07-7.82142E-19 1.25532E-18
 -1      1453 9.50909E-05-2.85560E-05-2.85169E-05 1.55052E-07-2.50838E-19 3.19449E-19
 -1      1454 9.52298E-05-2.85927E-05-2.85594E-05 1.35646E-07-4.04435E-19 7.55849E-19
 -1      1455 9.50041E-05-2.85606E-05-2.84684E-05 4.14231E-07-4.35775E-19 1.28688E-18
 -1      1456 9.53149E-05-2.86127E-05-2.85884E-05 6.54568E-08-7.72146E-19-4.33128E-20
 -1      1457 9.53718E-05-2.86257E-05-2.86064E-05 5.36796E-08-5.85040E-19-1.16285E-18
 -1      1458 9.52388E-05-2.86100E-05-2.85505E-05 2.02711E-07-9.46584E-19-2.51695E-20
 -1      1459 9.54055E-05-2.86322E-05-2.86185E-05 1.14430E-08-4.13200E-19-8.71733E-19
 -1      1460 9.54133E-05-2.86314E-05-2.86216E-05 5.05697E-09-4.78133E-20-1.45276E-18
 -1      1461 9.53483E-05-2.86271E-05-2.85920E-05 6.88162E-08-6.66290E-19-5.38053E-19
 -1      1462 9.54164E-05-2.86301E-05-2.86237E-05-1.74207E-08 9.47320E-19-1.65609E-18
 -1      1463 9.53984E-05-2.86224E-05-2.86189E-05-2.02232E-08 1.07798E-18-1.61126E-19
 -1      1464 9.53798E-05-2.86256E-05-2.86075E-05-8.10206E-09 5.10286E-19-3.39857E-19
 -1      1465 9.53856E-05-2.86174E-05-2.86156E-05-2.94397E-08 1.14354E-18 5.04949E-19
 -1      1466 9.53574E-05-2.86073E-05-2.86077E-05-2.99506E-08 1.29668E-18 2.32067E-18
 -1      1467 9.53676E-05-2.86147E-05-2.86078E-05-4.56696E-08 1.79834E-18 1.71020E-19
 -1      1468 9.53387E-05-2.86010E-05-2.86023E-05-3.05005E-08 4.33220E-19 1.88951E-18
 -1      1469 9.53103E-05-2.85914E-05-2.85943E-05-2.95241E-08 2.54584E-19 2.08991E-18
 -1      1470 9.53351E-05-2.86003E-05-2.86007E-05-5.71632E-08 1.23004E-18-3.93507E-19
 -1      1471 9.52922E-05-2.85855E-05-2.85890E-05-2.43583E-08-1.62776E-19 2.33497E-18
 -1      1472 9.52705E-05-2.85782E-05-2.85828E-05-2.22470E-08-2.71914E-19 2.03871E-18
 -1      1473 9.52980E-05-2.85859E-05-2.85913E-05-5.15991E-08-5.28332E-20-7.76508E-19
 -1      1474 9.52563E-05-2.85732E-05-2.85788E-05-1.33511E-08-4.08291E-19 2.49149E-18
 -1      1475 9.52454E-05-2.85703E-05-2.85752E-05-1.02905E-08-3.12138E-19 1.77414E-18
 -1      1476 9.52657E-05-2.85740E-05-2.85828E-05-3.50889E-08-7.49933E-19 1.55108E-18
 -1      1477 9.52371E-05-2.85701E-05-2.85714E-05 2.16626E-10-1.86188E-18 1.78612E-18
 -1      1478 9.52421E-05-2.85680E-05-2.85750E-05-1.04166E-08-1.66985E-18 2.20724E-18
 -1      1479 9.65729E-05-2.83609E-05-2.97703E-05 2.99369E-06 6.56874E-19 3.89085E-18
 -1      1480 1.02532E-04-2.93976E-05-3.21543E-05 4.46314E-06 5.48242E-19 4.92772E-18
 -1      1481 1.02324E-04-2.67161E-05-3.27049E-05 1.27827E-05 1.04307E-18 3.00167E-18
 -1      1482 9.20266E-05-2.74272E-05-2.77596E-05 1.15161E-06 3.55145E-19 2.82128E-18
 -1      1483 9.39750E-05-2.75847E-05-2.86736E-05 1.47424E-06 3.77141E-19 3.43594E-18
 -1      1484 9.64865E-05-2.80292E-05-2.95324E-05 4.86856E-06 8.89543E-19 2.17977E-18
 -1      1485 9.02003E-05-2.70060E-05-2.70629E-05 3.29752E-07 1.90549E-19 2.17333E-18
 -1      1486 9.08133E-05-2.70227E-05-2.73343E-05 4.91551E-07 2.61449E-19 2.50335E-18
 -1      1487 9.30410E-05-2.75751E-05-2.80984E-05 1.84953E-06 6.09030E-19 1.61634E-18
 -1      1488 8.96878E-05-2.68881E-05-2.68898E-05-5.75533E-08 3.02268E-19 1.62718E-18
 -1      1489 8.97229E-05-2.68252E-05-2.69167E-05 3.17273E-08 2.21397E-19 1.99688E-18
 -1      1490 9.14950E-05-2.73092E-05-2.75172E-05 5.13015E-07 4.15715E-19 1.08336E-18
 -1      1491 8.98254E-05-2.69423E-05-2.69332E-05-2.45444E-07-4.12713E-20 1.38223E-18
 -1      1492 8.95940E-05-2.68339E-05-2.68673E-05-1.94985E-07 9.53475E-20 1.57784E-18
 -1      1493 9.09692E-05-2.72300E-05-2.73229E-05-1.37394E-07 3.01067E-19 1.00778E-18
 -1      1494 9.02857E-05-2.70870E-05-2.70736E-05-3.29872E-07-1.12988E-19 1.78374E-18
 -1      1495 8.99349E-05-2.69585E-05-2.69710E-05-3.01928E-07-1.74526E-19 1.47910E-18
 -1      1496 9.09934E-05-2.72749E-05-2.73139E-05-4.58103E-07-1.65357E-19 1.18720E-18
 -1      1497 9.08910E-05-2.72724E-05-2.72562E-05-3.56270E-07 3.08522E-20 1.90996E-18
 -1      1498 9.04979E-05-2.71403E-05-2.71411E-05-3.42166E-07-2.70352E-20 1.73325E-18
 -1      1499 9.13075E-05-2.73895E-05-2.73984E-05-6.01425E-07-6.40081E-20 1.08890E-18
 -1      1500 9.15402E-05-2.74692E-05-2.74518E-05-3.49794E-07 2.47626E-19 1.59625E-18
 -1      1501 9.11475E-05-2.73431E-05-2.73364E-05-3.44306E-07 1.57673E-19 1.74350E-18
 -1      1502 9.17620E-05-2.75372E-05-2.75286E-05-6.44388E-07 1.96038E-19 9.48303E-19
 -1      1503 9.21776E-05-2.76611E-05-2.76438E-05-3.26447E-07 2.47916E-19 1.05053E-18
 -1      1504 9.18075E-05-2.75454E-05-2.75349E-05-3.25652E-07 2.50894E-19 1.55569E-18
 -1      1505 9.22696E-05-2.76953E-05-2.76772E-05-6.31082E-07 3.97911E-19 7.95102E-19
 -1      1506 9.28014E-05-2.78479E-05-2.78323E-05-2.94141E-07 2.39751E-20 4.06893E-19
 -1      1507 9.24507E-05-2.77404E-05-2.77284E-05-2.96434E-07 1.13389E-19 7.09324E-19
 -1      1508 9.27929E-05-2.78539E-05-2.78328E-05-5.87562E-07 3.31543E-19 6.26504E-19
 -1      1509 9.33436E-05-2.80091E-05-2.79965E-05-2.63782E-07 1.33227E-19 5.43041E-19
 -1      1510 9.30447E-05-2.79189E-05-2.79077E-05-2.66976E-07 5.32308E-20 5.24494E-19
 -1      1511 9.32943E-05-2.80038E-05-2.79828E-05-5.34680E-07 1.10253E-19 4.64479E-19
 -1      1512 9.38419E-05-2.81565E-05-2.81477E-05-2.40685E-07 2.16181E-19 2.93377E-19
 -1      1513 9.35725E-05-2.80759E-05-2.80673E-05-2.43056E-07 2.77914E-20 3.30902E-19
 -1      1514 9.37542E-05-2.81387E-05-2.81219E-05-4.87498E-07 6.92300E-20 1.94496E-19
 -1      1515 9.43150E-05-2.82952E-05-2.82917E-05-2.30608E-07-5.27382E-20-7.85474E-20
 -1      1516 9.40629E-05-2.82199E-05-2.82160E-05-2.30515E-07 2.03332E-19 8.99162E-20
 -1      1517 9.41928E-05-2.82653E-05-2.82558E-05-4.57540E-07 2.71575E-19-7.06125E-20
 -1      1518 9.47969E-05-2.84351E-05-2.84390E-05-2.41379E-07 2.28272E-19-2.90779E-19
 -1      1519 9.45421E-05-2.83583E-05-2.83621E-05-2.36617E-07 1.37578E-19-2.64522E-19
 -1      1520 9.46305E-05-2.83890E-05-2.83911E-05-4.58324E-07 2.60087E-19-5.91641E-19
 -1      1521 9.53416E-05-2.85913E-05-2.86064E-05-2.84573E-07 9.62904E-20-9.42488E-19
 -1      1522 9.50531E-05-2.85029E-05-2.85187E-05-2.71792E-07 2.27475E-19-6.56855E-19
 -1      1523 9.51031E-05-2.85192E-05-2.85392E-05-5.08069E-07 4.45128E-19-1.04456E-18
 -1      1524 9.60340E-05-2.87876E-05-2.88203E-05-3.78742E-07 1.52289E-19-1.03298E-18
 -1      1525 9.56629E-05-2.86717E-05-2.87068E-05-3.52420E-07-3.68889E-20-9.87829E-19
 -1      1526 9.56671E-05-2.86706E-05-2.87187E-05-6.34454E-07 1.55307E-19-1.16020E-18
 -1      1527 9.70084E-05-2.90614E-05-2.91230E-05-5.54435E-07-3.91382E-19-8.58860E-19
 -1      1528 9.64762E-05-2.88922E-05-2.89596E-05-5.05182E-07-1.41018E-20-8.98075E-19
 -1      1529 9.64101E-05-2.88648E-05-2.89585E-05-8.81874E-07-1.61304E-19-4.90396E-19
 -1      1530 9.84790E-05-2.94720E-05-2.95824E-05-8.62135E-07 2.08995E-19-6.16259E-19
 -1      1531 9.76581E-05-2.92075E-05-2.93294E-05-7.73828E-07 3.29185E-20-8.25627E-19
 -1      1532 9.74664E-05-2.91349E-05-2.93037E-05-1.32260E-06-5.52987E-20-3.79898E-19
 -1      1533 1.00787E-04-3.01150E-05-3.03076E-05-1.38572E-06-5.33101E-20-6.25200E-19
 -1      1534 9.94704E-05-2.96838E-05-2.99005E-05-1.22926E-06 2.77767E-20-9.42301E-19
 -1      1535 9.90421E-05-2.95316E-05-2.98245E-05-2.07305E-06 1.62114E-19-1.64668E-19
 -1      1536 1.04704E-04-3.11997E-05-3.15481E-05-2.30521E-06 3.11880E-20-6.91973E-19
 -1      1537 1.02412E-04-3.04536E-05-3.08348E-05-2.01273E-06 5.78365E-21-7.61112E-19
 -1      1538 1.01526E-04-3.01395E-05-3.06547E-05-3.35349E-06 3.89370E-20-9.70806E-19
 -1      1539 1.10738E-04-3.28752E-05-3.34629E-05-3.72999E-06 1.60268E-19-7.41524E-19
 -1      1540 1.07133E-04-3.16856E-05-3.23435E-05-3.26988E-06 2.78806E-19-4.98717E-19
 -1      1541 1.05361E-04-3.10818E-05-3.19458E-05-5.45556E-06 1.69102E-19-6.14198E-19
 -1      1542 1.20179E-04-3.55341E-05-3.64399E-05-5.90660E-06 4.54486E-19-1.42519E-18
 -1      1543 1.14408E-04-3.36126E-05-3.46680E-05-5.16531E-06 1.21668E-19-1.05514E-18
 -1      1544 1.11060E-04-3.24823E-05-3.38627E-05-8.63810E-06 2.20268E-19-9.97778E-19
 -1      1545 1.34315E-04-3.96603E-05-4.07567E-05-8.88432E-06 8.49415E-20-1.56616E-18
 -1      1546 1.25512E-04-3.66716E-05-3.81526E-05-7.79881E-06 1.32058E-19-1.63668E-18
 -1      1547 1.19436E-04-3.46496E-05-3.66067E-05-1.31761E-05 1.77083E-19-1.33201E-18
 -1      1548 1.53642E-04-4.57746E-05-4.61865E-05-1.19229E-05-3.81003E-19-1.49035E-18
 -1      1549 1.41529E-04-4.15155E-05-4.28985E-05-1.06971E-05 2.20626E-20-1.46844E-18
 -1      1550 1.31140E-04-3.81064E-05-4.01272E-05-1.85672E-05 1.55457E-19-6.63068E-19
 -1      1551 1.75254E-04-5.36497E-05-5.13153E-05-1.21039E-05-6.48668E-19-7.90917E-20
 -1      1552 1.62215E-04-4.88620E-05-4.82985E-05-1.17301E-05-2.97150E-19-9.33430E-19
 -1      1553 1.46278E-04-4.38584E-05-4.38253E-05-2.19426E-05-7.41551E-19 9.10560E-21
 -1      1554 1.89223E-04-6.04353E-05-5.36020E-05-3.21334E-06-1.50073E-18 2.48562E-18
 -1      1555 1.83388E-04-5.83432E-05-5.26900E-05-6.18189E-06-1.46367E-18-5.21984E-20
 -1      1556 1.63456E-04-5.28973E-05-4.66139E-05-1.59341E-05-2.01382E-18 2.19315E-19
 -1      1557 1.80603E-04-5.82598E-05-5.22176E-05 1.65718E-05 1.89831E-18 2.03203E-18
 -1      1558 1.93191E-04-6.43012E-05-5.42519E-05 9.51081E-06 7.41048E-19 2.76217E-18
 -1      1559 1.78398E-04-6.26971E-05-4.87091E-05 6.38601E-06-2.60092E-19-2.95985E-19
 -1      1560 1.54266E-04-4.45531E-05-5.07089E-05 2.81565E-05 1.75336E-18-1.37812E-18
 -1      1561 1.79340E-04-5.68173E-05-5.35674E-05 2.39867E-05 1.59602E-18 1.00712E-18
 -1      1562 1.84436E-04-6.09672E-05-5.28928E-05 3.29998E-05 2.81766E-18 1.28325E-19
 -1      1563 1.33391E-04-2.99448E-05-5.09672E-05 1.39397E-05-1.53313E-19-3.07155E-18
 -1      1564 1.52001E-04-3.87212E-05-5.27158E-05 1.90640E-05 8.27551E-19-2.32129E-18
 -1      1565 1.85922E-04-4.76433E-05-5.93955E-05 3.58780E-05 2.01933E-18-1.70719E-18
 -1      1566 1.41365E-04-3.35922E-05-5.16443E-05-1.49282E-05 9.25383E-19-3.38136E-18
 -1      1567 1.34245E-04-2.89066E-05-5.12149E-05-6.30777E-06 4.67139E-19-3.12793E-18
 -1      1568 1.84626E-04-3.74141E-05-6.32979E-05 1.28410E-06 9.21572E-19-2.95403E-18
 -1      1569 1.64966E-04-4.79963E-05-5.22471E-05-2.79255E-05 1.38236E-18-6.30658E-18
 -1      1570 1.43330E-04-3.70427E-05-5.01878E-05-2.43822E-05 1.54965E-18-4.17630E-18
 -1      1571 1.85943E-04-4.66597E-05-6.00726E-05-3.22913E-05 2.13876E-18-3.32460E-18
 -1      1572 1.89300E-04-6.17761E-05-5.36418E-05-1.76934E-05 7.50948E-19-7.40688E-18
 -1      1573 1.67120E-04-5.24380E-05-5.05292E-05-2.09410E-05 3.61842E-19-6.43576E-18
 -1      1574 1.85436E-04-6.11933E-05-5.40818E-05-3.64684E-05 1.07954E-18-3.93553E-18
 -1      1575 1.72412E-04-5.33794E-05-5.03629E-05 1.17314E-05-1.36817E-18-3.15583E-18
 -1      1576 1.81545E-04-5.78958E-05-5.19226E-05 9.96626E-06-1.62990E-18-4.89130E-18
 -1      1577 1.51058E-04-4.46972E-05-4.56000E-05 1.37007E-05-7.88138E-20-2.67747E-18
 -1      1578 1.64428E-04-4.97529E-05-4.87831E-05 1.40858E-05-2.35872E-19-1.83700E-18
 -1      1579 1.46919E-04-4.61357E-05-4.29209E-05 2.43397E-05-1.49131E-18-1.30744E-18
 -1      1580 1.32943E-04-3.87999E-05-4.05314E-05 1.09714E-05 4.10460E-19-2.78843E-18
 -1      1581 1.44322E-04-4.25420E-05-4.36551E-05 1.18041E-05 7.48830E-19-2.31558E-18
 -1      1582 1.32118E-04-3.84442E-05-4.01923E-05 2.38397E-05 7.37647E-19-5.02926E-19
 -1      1583 1.19686E-04-3.50182E-05-3.64249E-05 7.59161E-06-7.76901E-19-1.44742E-18
 -1      1584 1.27708E-04-3.74490E-05-3.87815E-05 8.27935E-06-5.09980E-19-2.84254E-18
 -1      1585 1.20707E-04-3.44314E-05-3.71200E-05 1.81751E-05-1.46140E-19-1.27613E-18
 -1      1586 1.10709E-04-3.26143E-05-3.35384E-05 4.90836E-06 6.40542E-19-1.84913E-18
 -1      1587 1.15902E-04-3.41183E-05-3.51067E-05 5.37344E-06-1.46272E-19-1.74187E-18
 -1      1588 1.12340E-04-3.22681E-05-3.44442E-05 1.23774E-05-1.23958E-19-3.37115E-18
 -1      1589 1.04880E-04-3.10923E-05-3.16521E-05 3.07005E-06 2.07536E-19-2.46117E-18
 -1      1590 1.08115E-04-3.20037E-05-3.26348E-05 3.36125E-06 8.98411E-19-1.26851E-18
 -1      1591 1.06476E-04-3.09748E-05-3.24441E-05 7.97439E-06 8.86605E-19-1.66011E-18
 -1      1592 1.01059E-04-3.01000E-05-3.04169E-05 1.84398E-06 1.02326E-18-3.71382E-18
 -1      1593 1.03086E-04-3.06664E-05-3.10347E-05 2.02931E-06 6.09989E-19-2.36793E-18
 -1      1594 1.02436E-04-3.01207E-05-3.10402E-05 4.95158E-06 8.11047E-19 1.35664E-19
 -1      1595 9.88170E-05-2.95138E-05-2.97001E-05 1.12822E-06 1.25334E-18-6.10778E-18
 -1      1596 9.99742E-05-2.98333E-05-3.00504E-05 1.23120E-06 9.42466E-19-4.17059E-18
 -1      1597 9.97908E-05-2.95790E-05-3.01234E-05 3.01494E-06 1.80131E-18 7.63848E-19
 -1      1598 9.74197E-05-2.91476E-05-2.92565E-05 6.89438E-07-1.08764E-18-4.56184E-18
 -1      1599 9.81180E-05-2.93403E-05-2.94672E-05 7.51525E-07 4.40849E-19-4.85245E-18
 -1      1600 9.81264E-05-2.92225E-05-2.95502E-05 1.85290E-06 1.75237E-19 6.13472E-19
 -1      1601 9.65515E-05-2.89188E-05-2.89825E-05 4.22291E-07-1.19993E-18-2.77637E-18
 -1      1602 9.69737E-05-2.90348E-05-2.91097E-05 4.59469E-07-2.07979E-18-4.97104E-18
 -1      1603 9.70546E-05-2.89880E-05-2.91839E-05 1.13880E-06-1.70956E-18 1.79372E-19
 -1      1604 9.60110E-05-2.87753E-05-2.88129E-05 2.59742E-07-7.35350E-19-1.34975E-18
 -1      1605 9.62672E-05-2.88456E-05-2.88900E-05 2.82099E-07-5.96003E-19-1.88073E-18
 -1      1606 9.63663E-05-2.88334E-05-2.89506E-05 7.01745E-07-2.06155E-18-2.30014E-18
 -1      1607 9.56736E-05-2.86850E-05-2.87076E-05 1.60186E-07-5.20528E-20-4.28346E-19
 -1      1608 9.58296E-05-2.87278E-05-2.87545E-05 1.73814E-07 3.71719E-19-6.29292E-19
 -1      1609 9.59244E-05-2.87314E-05-2.88021E-05 4.33937E-07-5.02880E-19-2.62263E-18
 -1      1610 9.54640E-05-2.86283E-05-2.86427E-05 9.78955E-08 1.58135E-18-1.28382E-18
 -1      1611 9.55581E-05-2.86542E-05-2.86709E-05 1.06525E-07 3.01825E-19 7.83832E-20
 -1      1612 9.56408E-05-2.86641E-05-2.87077E-05 2.68147E-07 4.70365E-19 2.95725E-20
 -1      1613 9.53374E-05-2.85936E-05-2.86038E-05 5.68692E-08 5.74212E-20-9.62023E-19
 -1      1614 9.53913E-05-2.86084E-05-2.86199E-05 6.28385E-08 1.48116E-18-4.17865E-19
 -1      1615 9.54597E-05-2.86196E-05-2.86480E-05 1.62521E-07 1.32614E-18 1.08718E-18
 -1      1616 9.52683E-05-2.85744E-05-2.85826E-05 2.71980E-08-7.38054E-19-1.12794E-18
 -1      1617 9.52935E-05-2.85811E-05-2.85904E-05 3.20035E-08-6.02942E-19-2.00692E-18
 -1      1618 9.53465E-05-2.85907E-05-2.86113E-05 9.10979E-08-9.29962E-20 1.00876E-18
 -1      1619 9.52407E-05-2.85681E-05-2.85727E-05 4.48678E-09-1.55738E-19 2.87467E-19
 -1      1620 9.52442E-05-2.85681E-05-2.85753E-05 8.06796E-09 2.64038E-20-6.23273E-19
 -1      1621 9.52795E-05-2.85729E-05-2.85897E-05 3.86585E-08-8.07404E-19-1.29764E-18
 -1      1622 9.52374E-05-2.85727E-05-2.85669E-05-3.31212E-09 4.51596E-19-7.37136E-19
 -1      1623 9.52322E-05-2.85677E-05-2.85695E-05-5.57086E-09 2.57548E-19-7.67892E-19
 -1      1624 9.52494E-05-2.85682E-05-2.85780E-05 5.51504E-09 4.22145E-19-5.78151E-19
 -1      1625 9.52414E-05-2.85787E-05-2.85696E-05-5.39098E-09-1.09486E-18-7.63660E-19
 -1      1626 9.52385E-05-2.85611E-05-2.85776E-05 1.43314E-08 3.92651E-18 2.28321E-18
 -1      1627 9.52407E-05-2.85673E-05-2.85741E-05 9.23742E-09-1.07439E-18 3.00764E-18
 -1      1628 9.52414E-05-2.85568E-05-2.85791E-05 1.16491E-08 1.96791E-18 2.20469E-18
 -1      1629 9.52216E-05-2.85089E-05-2.85924E-05 3.35547E-08 7.79772E-18 2.09296E-18
 -1      1630 9.52313E-05-2.85356E-05-2.85845E-05 2.83945E-08 4.55012E-18 1.75775E-18
 -1      1631 9.52300E-05-2.85180E-05-2.85916E-05 4.64467E-08 3.69913E-18 3.88104E-18
 -1      1632 9.51965E-05-2.84332E-05-2.86132E-05 4.32669E-08 5.13573E-18-7.43304E-19
 -1      1633 9.52106E-05-2.84742E-05-2.86018E-05 4.04626E-08 6.92171E-18-6.11127E-19
 -1      1634 9.52072E-05-2.84572E-05-2.86078E-05 7.34978E-08 2.52489E-18-4.88607E-19
 -1      1635 9.51701E-05-2.83530E-05-2.86355E-05 4.16297E-08 4.09593E-18 2.15177E-19
 -1      1636 9.51846E-05-2.83972E-05-2.86232E-05 4.17899E-08 4.95812E-18-6.75946E-19
 -1      1637 9.51817E-05-2.83874E-05-2.86262E-05 8.14414E-08 2.64434E-18-1.30638E-18
 -1      1638 9.51490E-05-2.82876E-05-2.86540E-05 3.09072E-08 4.49930E-18 1.48556E-19
 -1      1639 9.51604E-05-2.83240E-05-2.86439E-05 3.33775E-08 2.70814E-18 4.73458E-19
 -1      1640 9.51589E-05-2.83238E-05-2.86431E-05 6.99118E-08 2.18758E-18-8.67824E-20
 -1      1641 9.51364E-05-2.82475E-05-2.86658E-05 1.48933E-08-1.34321E-18-4.10520E-18
 -1      1642 9.51429E-05-2.82700E-05-2.86595E-05 1.87514E-08 3.76963E-18-3.20540E-18
 -1      1643 9.51434E-05-2.82788E-05-2.86553E-05 4.46239E-08-2.51568E-19-3.68272E-18
 -1      1644 9.51341E-05-2.82385E-05-2.86687E-05-1.84913E-09-4.52052E-18 1.14275E-18
 -1      1645 9.51349E-05-2.82439E-05-2.86673E-05 2.23275E-09-2.71843E-18-8.87400E-19
 -1      1646 9.51372E-05-2.82594E-05-2.86610E-05 1.32483E-08 4.39049E-19-3.80978E-18
 -1      1647 9.51410E-05-2.82582E-05-2.86635E-05-1.57852E-08-1.98655E-18 1.58152E-18
 -1      1648 9.51368E-05-2.82479E-05-2.86665E-05-1.23577E-08-3.92292E-18 1.53559E-18
 -1      1649 9.51404E-05-2.82665E-05-2.86594E-05-1.63872E-08-7.80131E-20 1.57278E-18
 -1      1650 9.51543E-05-2.82993E-05-2.86519E-05-2.50657E-08-8.29503E-19-3.59666E-19
 -1      1651 9.51467E-05-2.82773E-05-2.86583E-05-2.27466E-08-1.70937E-18 7.64510E-19
 -1      1652 9.51509E-05-2.82957E-05-2.86516E-05-3.90377E-08-2.76620E-18 1.04773E-18
 -1      1653 9.51712E-05-2.83525E-05-2.86366E-05-2.94686E-08 1.46738E-18 2.56787E-18
 -1      1654 9.51618E-05-2.83238E-05-2.86449E-05-2.83063E-08-1.06843E-18 1.92524E-18
 -1      1655 9.51659E-05-2.83395E-05-2.86396E-05-5.25698E-08-8.19581E-19 1.10024E-18
 -1      1656 9.51887E-05-2.84086E-05-2.86202E-05-2.99067E-08 4.61656E-18 7.28686E-19
 -1      1657 9.51791E-05-2.83783E-05-2.86290E-05-2.96465E-08 2.68572E-18 1.01625E-18
 -1      1658 9.51825E-05-2.83895E-05-2.86254E-05-5.74992E-08 3.92633E-19 2.36457E-18
 -1      1659 9.52056E-05-2.84632E-05-2.86041E-05-2.75039E-08 2.09880E-18-1.77041E-18
 -1      1660 9.51964E-05-2.84337E-05-2.86127E-05-2.78804E-08 4.25739E-18-8.76949E-19
 -1      1661 9.51987E-05-2.84398E-05-2.86110E-05-5.57763E-08 1.39144E-19-1.37905E-18
 -1      1662 9.52203E-05-2.85106E-05-2.85902E-05-2.27799E-08-1.98324E-18-1.93278E-18
 -1      1663 9.52124E-05-2.84851E-05-2.85976E-05-2.37220E-08 8.71872E-19-1.85765E-18
 -1      1664 9.52135E-05-2.84861E-05-2.85977E-05-4.91408E-08 3.41991E-19-3.05004E-18
 -1      1665 9.52320E-05-2.85474E-05-2.85799E-05-1.55665E-08-2.50328E-18 5.15210E-19
 -1      1666 9.52257E-05-2.85276E-05-2.85852E-05-1.75534E-08-1.41160E-18-3.12631E-19
 -1      1667 9.52259E-05-2.85240E-05-2.85868E-05-3.78989E-08-1.28970E-18-7.97949E-19
 -1      1668 9.52343E-05-2.85563E-05-2.85764E-05-1.23071E-08-2.15855E-18 2.90606E-19
 -1      1669 2.23942E-05-8.37793E-05 1.94608E-05-1.86479E-05 8.04681E-20 6.70850E-19
 -1      1670 2.48624E-05-8.66126E-05 1.99102E-05-6.64111E-06-2.42527E-18 1.21973E-18
 -1      1671 1.73308E-05-6.09174E-05 1.18256E-05-1.89259E-05 3.00019E-18 3.37829E-18
 -1      1672 2.48150E-05-8.26243E-05 1.70636E-05-1.64983E-05 2.03288E-19 1.01612E-18
 -1      1673 3.73339E-05-3.41729E-05-6.27460E-06 9.44664E-06 6.15878E-18 6.90713E-18
 -1      1674 3.21429E-05-5.58718E-05 3.31357E-06-5.52232E-06 3.82859E-18 4.84757E-18
 -1      1675 7.63303E-05-2.12598E-05-2.66336E-05 4.07290E-05 7.37257E-18 8.59654E-18
 -1      1676 5.07339E-05-3.24401E-05-1.42016E-05 1.33882E-05 7.83675E-18 7.41408E-18
 -1      1677 7.72166E-05-5.46373E-05-1.31158E-05 2.69806E-05 3.08320E-18 6.52702E-18
 -1      1678 1.72835E-04-3.81919E-05-5.46093E-05 6.79483E-05 6.20960E-18 8.92773E-18
 -1      1679 1.14978E-04-2.54225E-05-4.10895E-05 4.52779E-05 6.58060E-18 9.81542E-18
 -1      1680 2.74263E-04-7.07384E-05-7.66364E-05 6.34601E-05 3.28183E-18 6.74746E-18
 -1      1681 2.07220E-04-4.36924E-05-6.57413E-05 6.67937E-05 4.70357E-18 7.92653E-18
 -1      1682 3.38706E-04-9.41785E-05-8.91220E-05 1.84198E-05 2.19593E-18 2.30816E-18
 -1      1683 2.96030E-04-7.43755E-05-8.35150E-05 5.02812E-05 2.99087E-18 5.17876E-18
 -1      1684 3.34434E-04-8.95626E-05-8.97446E-05-3.15609E-05-2.27005E-19 1.94648E-18
 -1      1685 3.46794E-04-9.55285E-05-9.12768E-05 1.09001E-05 1.52042E-19 2.44358E-18
 -1      1686 2.56359E-04-6.03767E-05-7.61009E-05-5.65330E-05 2.20133E-18-4.03188E-19
 -1      1687 3.16488E-04-8.69983E-05-8.46977E-05-3.59643E-05 1.27161E-18 1.95241E-18
 -1      1688 1.60798E-04-3.17952E-05-5.47263E-05-6.09361E-05 2.69018E-18-3.09336E-18
 -1      1689 2.27300E-04-5.43167E-05-6.72164E-05-7.14681E-05 2.33061E-18-1.33831E-18
 -1      1690 8.28725E-05-2.29778E-05-3.02885E-05-3.46145E-05 2.21584E-18-3.02052E-18
 -1      1691 1.25512E-04-2.44940E-05-4.30511E-05-6.10278E-05 2.30393E-18-4.02679E-18
 -1      1692 3.89697E-05-3.71703E-05-7.80653E-06-3.69356E-06 4.70781E-18-2.41574E-18
 -1      1693 5.42448E-05-1.96606E-05-1.89204E-05-2.70784E-05 3.20517E-18-1.85585E-18
 -1      1694 2.67429E-05-6.53768E-05 9.37924E-06 1.21115E-05 6.61617E-18-2.35825E-18
 -1      1695 2.47947E-05-4.11229E-05 1.19544E-06 3.38810E-06 5.30073E-18-2.15443E-18
 -1      1696 2.48307E-05-8.37373E-05 1.84762E-05 1.14413E-05 6.19605E-18-1.40650E-18
 -1      1697 1.89646E-05-6.85838E-05 1.49431E-05 1.76996E-05 6.47176E-18-2.25311E-18
 -1      1698 2.51696E-05-8.66053E-05 1.97577E-05 3.58968E-06 3.90525E-18-1.54118E-18
 -1      1699 2.48203E-05-8.95534E-05 2.07212E-05 1.62848E-05 6.70871E-18-2.20567E-18
 -1      1700 2.09668E-05-6.05333E-05 1.19588E-05 1.61495E-06-1.21549E-18-2.84614E-18
 -1      1701 2.65873E-05-8.11006E-05 1.68555E-05 6.67420E-06 2.55719E-18-1.84081E-18
 -1      1702 2.40036E-05-2.51707E-05-2.51742E-06 1.74736E-05-5.94024E-18-5.03815E-18
 -1      1703 2.64831E-05-5.25130E-05 5.75417E-06 7.18019E-06-3.05017E-18-2.92989E-18
 -1      1704 5.55355E-05-4.71234E-06-2.21460E-05 5.07634E-05-8.37716E-18-8.90825E-18
 -1      1705 4.21016E-05-2.16857E-05-1.18100E-05 2.87437E-05-6.24263E-18-6.35656E-18
 -1      1706 1.00332E-04 3.20886E-06-4.21973E-05 8.07211E-05-9.66719E-18-9.91198E-18
 -1      1707 6.89064E-05 3.75767E-06-3.19307E-05 5.86964E-05-1.03346E-17-9.36480E-18
 -1      1708 1.68328E-04-1.80942E-05-6.00996E-05 9.21608E-05-6.61872E-18-9.35209E-18
 -1      1709 1.25657E-04-1.66059E-06-5.13375E-05 8.41988E-05-8.52115E-18-9.89080E-18
 -1      1710 2.34071E-04-4.73602E-05-7.38595E-05 8.01804E-05-3.98953E-18-6.57043E-18
 -1      1711 1.89613E-04-2.32865E-05-6.70192E-05 9.28512E-05-6.09228E-18-8.74900E-18
 -1      1712 1.77978E-04-2.78710E-05-6.06479E-05 5.69702E-05-5.81615E-18-5.33546E-18
 -1      1713 2.75495E-04-6.84210E-05-8.21873E-05 2.65273E-05-1.75018E-18-3.87242E-18
 -1      1714 2.52138E-04-5.41824E-05-7.89041E-05 5.89602E-05-2.63618E-18-5.94787E-18
 -1      1715 2.75969E-04-6.75587E-05-8.27497E-05-3.07389E-05-2.28614E-18 7.25907E-19
 -1      1716 2.82339E-04-7.14201E-05-8.36375E-05 7.71547E-06-1.92234E-18-2.62908E-18
 -1      1717 2.33080E-04-4.48614E-05-7.54330E-05-7.41665E-05-3.73510E-18 5.06780E-18
 -1      1718 2.65397E-04-6.31574E-05-8.00352E-05-4.88038E-05-2.45375E-18 2.35094E-18
 -1      1719 1.66960E-04-1.51784E-05-6.19143E-05-8.93650E-05-5.38078E-18 8.27382E-18
 -1      1720 2.11734E-04-3.66504E-05-6.95387E-05-8.46226E-05-4.41707E-18 6.74831E-18
 -1      1721 1.03026E-04 1.38907E-06-4.41371E-05-7.49510E-05-6.18080E-18 8.00616E-18
 -1      1722 1.42615E-04-9.75284E-06-5.35514E-05-8.90460E-05-5.63108E-18 8.65668E-18
 -1      1723 5.23202E-05-8.70046E-07-2.40460E-05-4.55777E-05-5.34986E-18 5.04916E-18
 -1      1724 7.75365E-05 5.53751E-06-3.45847E-05-7.01216E-05-5.93431E-18 7.99091E-18
 -1      1725 2.99059E-05-2.80529E-05-5.00819E-06-1.68428E-05-5.03476E-18 3.35213E-18
 -1      1726 3.55768E-05-5.46059E-06-1.44406E-05-3.57770E-05-5.61922E-18 3.44234E-18
 -1      1727 2.63293E-05-6.25123E-05 9.75571E-06-5.22464E-06-6.14184E-18 5.45833E-19
 -1      1728 2.17925E-05-3.68328E-05 2.70435E-06-1.01644E-05-4.96531E-18 2.27217E-18
 -1      1729 2.67755E-05-8.68090E-05 1.88969E-05-8.37346E-06-3.12089E-18 2.45767E-18
 -1      1730 2.21865E-05-7.06072E-05 1.51194E-05 3.76183E-07-5.66919E-18 1.68983E-18
 -1      1731 1.34732E-04-5.87940E-05-3.39296E-05 2.83658E-05 4.82470E-18 6.83047E-18
 -1      1732 1.89759E-04-6.25738E-05-5.29654E-05-1.16982E-06-1.31671E-18-5.26516E-18
 -1      1733 1.84148E-04-6.15210E-05-5.19256E-05-7.53777E-06-9.22737E-20-6.35317E-18
 -1      1734 1.80946E-04-6.58628E-05-4.87347E-05-1.52104E-05-5.90805E-19-3.98730E-18
 -1      1735 9.52421E-05-2.85539E-05-2.85805E-05-2.79839E-08-5.90346E-19 1.26067E-18
 -1      1736 1.12526E-05-5.65791E-05 1.45807E-05-1.25705E-05-1.21443E-18 2.52035E-18
 -1      1737 3.79397E-05-5.39666E-05 2.48250E-06 1.61475E-05 1.03253E-18 5.60916E-18
 -1      1738 1.41273E-05-5.69911E-05 1.31938E-05-1.60750E-06-1.15408E-19 1.86855E-18
 -1      1739 2.06061E-04-6.36302E-05-5.78455E-05 2.06409E-05 4.67181E-18 4.11997E-18
 -1      1740 2.53558E-04-5.99085E-05-7.43731E-05 4.11187E-06 3.40465E-18 2.26666E-18
 -1      1741 2.75050E-04-5.46086E-05-8.25945E-05 4.93588E-07 1.59920E-18 2.21436E-18
 -1      1742 2.67367E-04-5.61201E-05-8.00333E-05 2.89329E-06 9.80864E-19 1.70592E-18
 -1      1743 2.35454E-04-6.23189E-05-6.76134E-05-7.16294E-06 2.74142E-18 7.20825E-19
 -1      1744 1.77216E-04-6.07748E-05-4.83439E-05-2.69530E-05 7.80117E-19-1.26377E-18
 -1      1745 1.09528E-04-5.37818E-05-2.65713E-05-2.97933E-05 1.49501E-18-1.22820E-18
 -1      1746 5.83316E-05-5.23059E-05-7.06163E-06-2.15339E-05 3.22550E-18 6.31040E-20
 -1      1747 2.61812E-05-5.26833E-05 6.78616E-06-1.05165E-05 2.60632E-18-1.12444E-18
 -1      1748 1.17080E-05-5.63277E-05 1.42626E-05 3.56354E-06 2.74026E-18-1.85161E-18
 -1      1749 1.32708E-05-5.64064E-05 1.37395E-05 1.68971E-05 1.82620E-18-3.93997E-18
 -1      1750 2.68494E-05-4.71708E-05 5.16068E-06 2.91268E-05-3.99800E-19-4.96255E-18
 -1      1751 5.78034E-05-3.88148E-05-9.64410E-06 4.47717E-05-2.39541E-18-5.60990E-18
 -1      1752 9.49734E-05-3.25777E-05-2.72644E-05 5.23008E-05-4.50452E-18-6.58568E-18
 -1      1753 1.35618E-04-2.53495E-05-4.54652E-05 5.84392E-05-6.90162E-18-5.97666E-18
 -1      1754 2.33945E-04-3.80393E-05-7.85472E-05 7.43662E-06-3.04297E-18-1.89619E-18
 -1      1755 2.31357E-04-3.76213E-05-7.73427E-05-2.04108E-05-3.86967E-18-1.66654E-19
 -1      1756 2.05087E-04-3.28441E-05-6.91432E-05-4.39081E-05-4.07762E-18 2.11081E-18
 -1      1757 1.64568E-04-2.82319E-05-5.55122E-05-5.48034E-05-3.76548E-18 4.24025E-18
 -1      1758 1.19148E-04-2.62729E-05-3.85944E-05-5.66381E-05-3.07685E-18 5.81827E-18
 -1      1759 7.47000E-05-2.95429E-05-2.02941E-05-4.89169E-05-2.87229E-18 3.51265E-18
 -1      1760 4.25004E-05-4.01168E-05-3.77180E-06-3.67043E-05-2.52755E-18 1.88137E-18
 -1      1761 2.14924E-05-5.09011E-05 8.54096E-06-2.52331E-05-3.44658E-18 1.41942E-18
 -1      1762 1.06046E-04-2.31694E-05-3.56022E-05-1.68492E-05-7.19171E-19 5.02566E-18
 -1      1763 2.15890E-04-3.49272E-05-7.26222E-05 4.09558E-05-3.83071E-18-4.10091E-18
 -1      1764 1.64835E-04-5.80726E-05-4.50607E-05 1.02090E-05-2.05977E-18-3.47340E-18
 -1      1765 8.91433E-05-1.05801E-05-3.37957E-05-1.33143E-05-1.24496E-18 1.06409E-20
 -1      1766 9.04872E-05-1.16350E-05-3.39361E-05-1.51282E-05-1.34609E-18 4.89744E-19
 -1      1767 9.24918E-05-1.38751E-05-3.38546E-05-1.59951E-05-1.32070E-18 1.05260E-18
 -1      1768 9.42072E-05-1.58213E-05-3.40981E-05-1.76571E-05-1.31997E-18 1.74378E-18
 -1      1769 9.34162E-05-1.63444E-05-3.30465E-05-1.37721E-05-1.36575E-18 8.05370E-19
 -1      1770 8.62083E-05-7.66650E-06-3.37322E-05-7.85960E-06-8.90983E-19-9.81049E-19
 -1      1771 8.66123E-05-7.96868E-06-3.37663E-05-9.24745E-06-1.01945E-18-8.06508E-19
 -1      1772 8.55938E-05-7.03157E-06-3.37290E-05-5.31751E-06-6.69620E-19-1.25574E-18
 -1      1773 8.58279E-05-7.20962E-06-3.37442E-05-6.62098E-06-7.51044E-19-1.12351E-18
 -1      1774 8.75922E-05-9.86236E-06-3.33454E-05-6.92713E-06-8.55236E-19-9.90023E-19
 -1      1775 8.52590E-05-6.67252E-06-3.37323E-05-2.88735E-06-4.05446E-19-1.32971E-18
 -1      1776 8.53797E-05-6.76714E-06-3.37382E-05-4.12616E-06-5.38179E-19-1.29363E-18
 -1      1777 8.69571E-05-9.14938E-06-3.33787E-05-4.53477E-06-6.09573E-19-1.18735E-18
 -1      1778 8.51284E-05-6.52421E-06-3.37359E-05-5.17979E-07-1.59999E-19-1.48429E-18
 -1      1779 8.51639E-05-6.55267E-06-3.37372E-05-1.72664E-06-2.70053E-19-1.42001E-18
 -1      1780 8.66248E-05-8.76941E-06-3.33989E-05-2.21619E-06-3.26780E-19-1.31256E-18
 -1      1781 8.51745E-05-6.56215E-06-3.37376E-05 1.84265E-06 3.26991E-20-1.53731E-18
 -1      1782 8.51324E-05-6.52897E-06-3.37358E-05 6.32920E-07-5.36569E-20-1.51436E-18
 -1      1783 8.65269E-05-8.65580E-06-3.34056E-05 6.42400E-08-1.13669E-19-1.40465E-18
 -1      1784 8.54066E-05-6.79339E-06-3.37385E-05 4.24693E-06 2.67006E-19-1.67649E-18
 -1      1785 8.52782E-05-6.69231E-06-3.37324E-05 3.00479E-06 1.51368E-19-1.64758E-18
 -1      1786 8.66435E-05-8.78970E-06-3.33984E-05 2.34596E-06 8.13088E-20-1.52916E-18
 -1      1787 8.58645E-05-7.24784E-06-3.37438E-05 6.70724E-06 4.81058E-19-1.60665E-18
 -1      1788 8.56261E-05-7.06526E-06-3.37290E-05 5.42040E-06 4.02286E-19-1.62947E-18
 -1      1789 8.69931E-05-9.18820E-06-3.33774E-05 4.64762E-06 3.65745E-19-1.59574E-18
 -1      1790 8.66779E-05-8.03848E-06-3.37642E-05 9.36861E-06 8.43152E-19-1.36891E-18
 -1      1791 8.62573E-05-7.72190E-06-3.37306E-05 7.94806E-06 6.32949E-19-1.46542E-18
 -1      1792 8.76465E-05-9.92271E-06-3.33430E-05 7.02209E-06 6.50822E-19-1.39652E-18
 -1      1793 8.80880E-05-9.38605E-06-3.38188E-05 1.22475E-05 1.12847E-18-1.11994E-18
 -1      1794 8.73502E-05-8.82831E-06-3.37474E-05 1.06543E-05 9.62395E-19-1.26691E-18
 -1      1795 8.87678E-05-1.11593E-05-3.32922E-05 9.49623E-06 9.82858E-19-1.19213E-18
 -1      1796 9.06438E-05-1.18456E-05-3.39274E-05 1.53217E-05 1.33066E-18-5.45516E-19
 -1      1797 8.92752E-05-1.07479E-05-3.37885E-05 1.34976E-05 1.16644E-18-9.19243E-19
 -1      1798 9.06584E-05-1.32255E-05-3.32088E-05 1.19526E-05 1.22136E-18-8.91383E-19
 -1      1799 9.58888E-05-1.70850E-05-3.39930E-05 1.76692E-05 1.34981E-18 6.34692E-19
 -1      1800 9.28451E-05-1.43274E-05-3.38263E-05 1.61695E-05 1.29765E-18-7.68682E-20
 -1      1801 9.38825E-05-1.68589E-05-3.30135E-05 1.38510E-05 1.40184E-18-2.14220E-19
 -1      1802 1.01915E-04-2.50962E-05-3.33586E-05 1.44121E-05 1.18431E-18 2.19974E-18
 -1      1803 9.80663E-05-1.95790E-05-3.36255E-05 1.69674E-05 1.28566E-18 1.18066E-18
 -1      1804 9.74136E-05-2.18810E-05-3.24191E-05 1.32774E-05 1.41627E-18 6.88082E-19
 -1      1805 9.87763E-05-2.61454E-05-3.13417E-05 9.42692E-06 1.21737E-18 1.86482E-18
 -1      1806 1.00153E-04-1.95631E-05-3.42172E-05-1.88635E-05-1.04262E-18 2.92068E-18
 -1      1807 9.53221E-05-2.72914E-05-2.91837E-05 4.06766E-06 9.08337E-19 1.35740E-18
 -1      1808 9.77215E-05-2.73879E-05-3.01928E-05 6.40144E-06 9.78111E-19 1.65744E-18
 -1      1809 9.75837E-05-2.56175E-05-3.08234E-05 8.72028E-06 1.12523E-18 1.04547E-18
 -1      1810 1.97331E-04-2.89307E-05-7.07887E-05 1.56345E-05-2.59446E-18-2.43056E-18
 -1      1811 1.88438E-04-3.01722E-05-6.63765E-05 2.94636E-05-3.75130E-18-2.33188E-18
 -1      1812 9.98132E-05-2.25398E-05-3.28362E-05-1.44610E-05-1.13132E-18 2.39477E-18
 -1      1813 9.69639E-05-2.69805E-05-2.98778E-05-5.69779E-06-9.06987E-19 2.20765E-18
 -1      1814 9.51569E-05-2.70357E-05-2.91679E-05-3.89103E-06-8.15388E-19 1.91488E-18
 -1      1815 9.43382E-05-2.72357E-05-2.86612E-05-2.41410E-06-7.97118E-19 1.76113E-18
 -1      1816 9.35691E-05-2.73164E-05-2.83571E-05-1.55913E-06-8.00042E-19 1.51295E-18
 -1      1817 9.55115E-05-2.65441E-05-2.95775E-05-4.46514E-06-1.00619E-18 1.16170E-18
 -1      1818 9.30465E-05-2.73677E-05-2.80891E-05-7.30202E-07-6.30652E-19 1.48225E-18
 -1      1819 9.27490E-05-2.74321E-05-2.79681E-05-2.90032E-07-5.49360E-19 1.28974E-18
 -1      1820 9.43043E-05-2.72190E-05-2.87708E-05-1.81614E-06-8.89107E-19 9.20824E-19
 -1      1821 9.24760E-05-2.74602E-05-2.78332E-05 1.67283E-07-4.97688E-19 1.19928E-18
 -1      1822 9.24495E-05-2.75373E-05-2.78047E-05 3.93537E-07-6.01865E-19 1.08157E-18
 -1      1823 9.36088E-05-2.75272E-05-2.83368E-05-3.44957E-07-6.53344E-19 6.74620E-19
 -1      1824 9.23495E-05-2.75693E-05-2.77479E-05 6.36197E-07-5.37477E-19 1.08828E-18
 -1      1825 9.24705E-05-2.76557E-05-2.77689E-05 7.42905E-07-4.73413E-19 8.83708E-19
 -1      1826 9.32939E-05-2.77129E-05-2.81183E-05 4.63394E-07-5.87340E-19 6.53107E-19
 -1      1827 9.24805E-05-2.76947E-05-2.77587E-05 8.57823E-07-5.19097E-19 9.37283E-19
 -1      1828 9.26761E-05-2.77833E-05-2.78058E-05 8.94960E-07-4.39256E-19 8.33508E-19
 -1      1829 9.32384E-05-2.78571E-05-2.80288E-05 8.82501E-07-5.89635E-19 5.90608E-19
 -1      1830 9.27507E-05-2.78260E-05-2.78228E-05 9.33172E-07-3.93052E-19 8.53873E-19
 -1      1831 9.29771E-05-2.79114E-05-2.78821E-05 9.29831E-07-2.00100E-19 8.94961E-19
 -1      1832 9.33436E-05-2.79825E-05-2.80171E-05 1.06772E-06-4.63983E-19 6.31607E-19
 -1      1833 9.30858E-05-2.79549E-05-2.79138E-05 9.22794E-07-3.77726E-19 7.68599E-19
 -1      1834 9.33170E-05-2.80338E-05-2.79767E-05 8.96857E-07-2.54330E-19 6.67035E-19
 -1      1835 9.35393E-05-2.80946E-05-2.80507E-05 1.11251E-06-3.14851E-19 4.91792E-19
 -1      1836 9.34399E-05-2.80755E-05-2.80152E-05 8.64345E-07-2.01566E-19 6.51470E-19
 -1      1837 9.36605E-05-2.81465E-05-2.80766E-05 8.26834E-07-3.49469E-19 5.95999E-19
 -1      1838 9.37783E-05-2.81947E-05-2.81087E-05 1.07519E-06-3.40768E-19 3.88031E-19
 -1      1839 9.37851E-05-2.81855E-05-2.81168E-05 7.80920E-07-3.73930E-19 4.21495E-19
 -1      1840 9.39866E-05-2.82482E-05-2.81736E-05 7.38109E-07-2.08522E-19 2.76354E-19
 -1      1841 9.40301E-05-2.82837E-05-2.81774E-05 9.92186E-07-2.71402E-19 4.00713E-19
 -1      1842 9.41051E-05-2.82841E-05-2.82119E-05 6.85245E-07-6.79177E-20 2.88159E-19
 -1      1843 9.42825E-05-2.83390E-05-2.82622E-05 6.39717E-07 6.29737E-20 3.59008E-19
 -1      1844 9.42757E-05-2.83633E-05-2.82479E-05 8.84846E-07-1.87004E-19 4.64145E-19
 -1      1845 9.43901E-05-2.83722E-05-2.82963E-05 5.81777E-07 1.28302E-19 1.32222E-19
 -1      1846 9.45398E-05-2.84201E-05-2.83387E-05 5.32894E-07 1.78613E-19 3.69875E-19
 -1      1847 9.45035E-05-2.84360E-05-2.83139E-05 7.62976E-07-1.13576E-20 4.04899E-19
 -1      1848 9.46326E-05-2.84512E-05-2.83664E-05 4.67629E-07 1.41462E-19 4.34355E-19
 -1      1849 9.47502E-05-2.84924E-05-2.83990E-05 4.11668E-07-6.32717E-20 5.72884E-19
 -1      1850 9.47059E-05-2.85051E-05-2.83707E-05 6.26582E-07 2.25267E-19 4.96036E-19
 -1      1851 9.48244E-05-2.85221E-05-2.84182E-05 3.32837E-07-2.65158E-19 1.20077E-20
 -1      1852 9.49024E-05-2.85561E-05-2.84386E-05 2.62996E-07-2.94960E-19-3.21926E-20
 -1      1853 9.48762E-05-2.85741E-05-2.84136E-05 4.66563E-07-3.66625E-19 8.19775E-20
 -1      1854 9.49527E-05-2.85847E-05-2.84465E-05 1.60460E-07-2.93464E-19 2.13207E-19
 -1      1855 9.49793E-05-2.86097E-05-2.84509E-05 6.69912E-08-3.86879E-19 2.32337E-19
 -1      1856 9.50058E-05-2.86460E-05-2.84378E-05 2.64999E-07-3.96016E-19-4.68627E-19
 -1      1857 9.49974E-05-2.86361E-05-2.84439E-05-7.28574E-08-4.25579E-19-1.60550E-19
 -1      1858 9.49543E-05-2.86475E-05-2.84269E-05-2.02016E-07-2.15999E-19-6.37814E-19
 -1      1859 9.50819E-05-2.87218E-05-2.84371E-05-4.26792E-09-5.12937E-19-2.37535E-19
 -1      1860 9.49280E-05-2.86688E-05-2.84006E-05-3.94928E-07-2.60436E-19-7.20939E-19
 -1      1861 9.47902E-05-2.86587E-05-2.83551E-05-5.72506E-07-5.87007E-19-7.34456E-19
 -1      1862 9.50842E-05-2.87983E-05-2.84042E-05-3.73715E-07-3.62988E-19-7.74104E-19
 -1      1863 9.47017E-05-2.86684E-05-2.83044E-05-8.33473E-07-6.23170E-19-2.98151E-19
 -1      1864 9.44376E-05-2.86245E-05-2.82222E-05-1.06964E-06-1.99706E-19-2.64090E-19
 -1      1865 9.49825E-05-2.88651E-05-2.83305E-05-8.77545E-07-2.48856E-19-4.99970E-19
 -1      1866 9.42639E-05-2.86113E-05-2.81419E-05-1.40771E-06 3.74001E-20-4.09287E-19
 -1      1867 9.38385E-05-2.85165E-05-2.80146E-05-1.70482E-06-4.94472E-20-3.44227E-19
 -1      1868 9.47350E-05-2.89007E-05-2.82073E-05-1.54285E-06-2.52402E-19-4.65421E-19
 -1      1869 9.35521E-05-2.84637E-05-2.79009E-05-2.11538E-06-7.65456E-20 6.03377E-20
 -1      1870 9.29336E-05-2.82974E-05-2.77218E-05-2.46102E-06-1.03237E-19-2.39686E-19
 -1      1871 9.42885E-05-2.88690E-05-2.80276E-05-2.37543E-06 2.78028E-19-1.39700E-19
 -1      1872 9.25064E-05-2.81832E-05-2.75735E-05-2.91635E-06-4.29183E-19-3.42777E-19
 -1      1873 9.16767E-05-2.79253E-05-2.73407E-05-3.27616E-06-3.33658E-19-5.51659E-19
 -1      1874 9.35833E-05-2.87184E-05-2.77881E-05-3.34076E-06-3.12831E-19-7.42664E-20
 -1      1875 9.10889E-05-2.77275E-05-2.71612E-05-3.71736E-06-3.44799E-19-8.31505E-19
 -1      1876 9.00578E-05-2.73658E-05-2.68809E-05-4.03114E-06-1.91125E-19-8.52451E-19
 -1      1877 9.25661E-05-2.83889E-05-2.74927E-05-4.34413E-06-5.09681E-19-5.18461E-19
 -1      1878 8.93112E-05-2.70709E-05-2.66793E-05-4.36689E-06 2.46731E-19-6.44064E-19
 -1      1879 8.81303E-05-2.66121E-05-2.63680E-05-4.55305E-06 4.74949E-19-4.08535E-19
 -1      1880 9.12134E-05-2.78289E-05-2.71544E-05-5.21927E-06 1.59739E-19-7.18410E-19
 -1      1881 8.72642E-05-2.62279E-05-2.61600E-05-4.67214E-06 5.50391E-19-7.47430E-19
 -1      1882 8.60353E-05-2.57080E-05-2.58452E-05-4.64491E-06 3.75441E-19-3.48483E-19
 -1      1883 8.95627E-05-2.70246E-05-2.67964E-05-5.73941E-06 6.41222E-19-2.79302E-19
 -1      1884 8.51384E-05-2.52754E-05-2.56511E-05-4.44656E-06 3.33757E-19-2.28704E-19
 -1      1885 8.40081E-05-2.47639E-05-2.53687E-05-4.14546E-06 4.77050E-19-3.01084E-19
 -1      1886 8.77439E-05-2.60330E-05-2.64501E-05-5.66395E-06 6.23827E-19-4.17011E-19
 -1      1887 8.32139E-05-2.43579E-05-2.52110E-05-3.58205E-06 2.20758E-20-7.12193E-19
 -1      1888 8.23489E-05-2.39470E-05-2.49990E-05-3.00412E-06-7.35463E-20-5.28699E-19
 -1      1889 8.59884E-05-2.49995E-05-2.61512E-05-4.82078E-06 8.00281E-20-1.18641E-18
 -1      1890 8.18070E-05-2.36596E-05-2.48978E-05-2.11816E-06 4.77316E-20-7.68532E-19
 -1      1891 8.13536E-05-2.34380E-05-2.47881E-05-1.33608E-06 9.82691E-22-3.71082E-19
 -1      1892 8.45951E-05-2.41371E-05-2.59336E-05-3.19874E-06-1.60480E-19-1.26651E-18
 -1      1893 8.11820E-05-2.33451E-05-2.47570E-05-2.67059E-07-5.47891E-20-6.15083E-19
 -1      1894 8.12232E-05-2.33657E-05-2.47669E-05 5.82372E-07-2.01713E-19-2.47619E-19
 -1      1895 8.38488E-05-2.36614E-05-2.58232E-05-1.00103E-06-2.69892E-20-4.93960E-19
 -1      1896 8.14618E-05-2.34936E-05-2.48103E-05 1.63413E-06-6.81203E-19-6.71447E-20
 -1      1897 8.19900E-05-2.37511E-05-2.49385E-05 2.39159E-06-7.26539E-19-2.02581E-19
 -1      1898 8.39181E-05-2.37040E-05-2.58335E-05 1.38619E-06-2.82883E-19-7.80107E-19
 -1      1899 8.25840E-05-2.40640E-05-2.50504E-05 3.23182E-06-7.72021E-19-1.39352E-19
 -1      1900 8.35036E-05-2.44978E-05-2.52766E-05 3.76862E-06-3.24407E-19-3.14992E-19
 -1      1901 8.47874E-05-2.42532E-05-2.59634E-05 3.51269E-06-7.86459E-19-6.71333E-19
 -1      1902 8.43265E-05-2.49146E-05-2.54422E-05 4.27290E-06 1.22037E-19-6.57731E-19
 -1      1903 8.54851E-05-2.54331E-05-2.57330E-05 4.52876E-06 3.03475E-19-1.97857E-19
 -1      1904 8.62630E-05-2.51590E-05-2.61973E-05 5.01653E-06-3.98552E-20-6.26902E-19
 -1      1905 8.63870E-05-2.58625E-05-2.59317E-05 4.67158E-06 2.85385E-19-8.23855E-20
 -1      1906 8.76192E-05-2.63761E-05-2.62490E-05 4.66084E-06 6.22463E-19-1.32433E-19
 -1      1907 8.80513E-05-2.62000E-05-2.65077E-05 5.73106E-06 7.31948E-19-1.37790E-18
 -1      1908 8.84733E-05-2.67479E-05-2.64586E-05 4.50204E-06 1.01944E-18 2.08153E-19
 -1      1909 8.96394E-05-2.71927E-05-2.67678E-05 4.29195E-06 1.20533E-18 5.34715E-19
 -1      1910 8.98604E-05-2.71700E-05-2.68605E-05 5.70026E-06 1.00554E-18-3.61688E-19
 -1      1911 9.03660E-05-2.74722E-05-2.69685E-05 3.93708E-06 1.21778E-18 5.10830E-19
 -1      1912 9.13732E-05-2.78177E-05-2.72440E-05 3.61486E-06 8.92424E-19 5.69831E-19
 -1      1913 9.14758E-05-2.79376E-05-2.72206E-05 5.11493E-06 1.17044E-18 3.28161E-19
 -1      1914 9.19410E-05-2.80017E-05-2.74217E-05 3.17368E-06-1.78286E-19 5.17273E-19
 -1      1915 9.27463E-05-2.82454E-05-2.76491E-05 2.81867E-06-7.56485E-19 4.41070E-19
 -1      1916 9.27856E-05-2.84592E-05-2.75578E-05 4.21889E-06 1.77654E-19 1.36556E-19
 -1      1917 9.31590E-05-2.83498E-05-2.77957E-05 2.37792E-06-5.81824E-19 9.11529E-19
 -1      1918 9.37595E-05-2.85061E-05-2.79708E-05 2.04662E-06-5.10362E-19 1.01862E-18
 -1      1919 9.37660E-05-2.87573E-05-2.78514E-05 3.23187E-06-5.57966E-19 2.60741E-19
 -1      1920 9.40400E-05-2.85538E-05-2.80843E-05 1.66026E-06-6.82988E-19 1.34928E-18
 -1      1921 9.44585E-05-2.86439E-05-2.82104E-05 1.38364E-06-6.98392E-19 1.77922E-18
 -1      1922 9.44492E-05-2.88871E-05-2.80903E-05 2.30952E-06-6.79585E-19 1.12539E-18
 -1      1923 9.46362E-05-2.86562E-05-2.82928E-05 1.07560E-06-1.21007E-19 2.31845E-18
 -1      1924 9.49076E-05-2.87006E-05-2.83776E-05 8.63765E-07-4.70864E-20 2.60430E-18
 -1      1925 9.48928E-05-2.89090E-05-2.82730E-05 1.53695E-06 2.20344E-20 2.14414E-18
 -1      1926 9.50109E-05-2.86938E-05-2.84336E-05 6.36583E-07-9.09212E-19 2.15780E-18
 -1      1927 9.51720E-05-2.87096E-05-2.84862E-05 4.86099E-07-8.54204E-19 1.51024E-18
 -1      1928 9.51585E-05-2.88728E-05-2.84041E-05 9.42329E-07-9.79077E-19 2.03337E-18
 -1      1929 9.52246E-05-2.86946E-05-2.85215E-05 3.30075E-07-1.59780E-18 8.65665E-19
 -1      1930 9.53088E-05-2.86940E-05-2.85508E-05 2.30720E-07-1.51228E-18 5.61209E-19
 -1      1931 9.53006E-05-2.88130E-05-2.84920E-05 5.16897E-07-1.31076E-18 1.23416E-18
 -1      1932 9.53289E-05-2.86770E-05-2.85708E-05 1.31224E-07-6.16152E-19 3.50448E-19
 -1      1933 9.53630E-05-2.86684E-05-2.85844E-05 7.08407E-08-2.57265E-19 3.05701E-19
 -1      1934 9.53621E-05-2.87501E-05-2.85463E-05 2.33267E-07-1.22705E-18 1.32842E-18
 -1      1935 9.53638E-05-2.86525E-05-2.85941E-05 1.29789E-08 4.38753E-19 9.75004E-19
 -1      1936 9.53679E-05-2.86407E-05-2.85980E-05-1.96611E-08 1.58593E-18 1.92596E-18
 -1      1937 9.53746E-05-2.86940E-05-2.85764E-05 5.85455E-08 6.17107E-19 1.73106E-18
 -1      1938 9.53584E-05-2.86271E-05-2.86011E-05-4.86245E-08 1.00033E-18 4.47649E-19
 -1      1939 9.53469E-05-2.86150E-05-2.85996E-05-6.25143E-08 1.11864E-18 3.03748E-19
 -1      1940 9.53598E-05-2.86482E-05-2.85902E-05-3.79408E-08 2.90293E-19 1.70404E-18
 -1      1941 9.53329E-05-2.86039E-05-2.85991E-05-7.22831E-08-1.13633E-19-3.93403E-19
 -1      1942 9.53153E-05-2.85929E-05-2.85952E-05-7.38843E-08 1.16051E-19-1.58439E-18
 -1      1943 9.53321E-05-2.86125E-05-2.85940E-05-8.10967E-08-1.47168E-19-1.15820E-18
 -1      1944 9.53005E-05-2.85840E-05-2.85931E-05-7.12297E-08 5.98684E-19-2.05294E-18
 -1      1945 9.52830E-05-2.85750E-05-2.85889E-05-6.49081E-08-1.67215E-19-1.32004E-18
 -1      1946 9.53008E-05-2.85852E-05-2.85924E-05-8.91550E-08-1.76438E-19-1.58633E-18
 -1      1947 9.52697E-05-2.85681E-05-2.85863E-05-5.42051E-08-3.45833E-19 2.90855E-19
 -1      1948 9.52558E-05-2.85616E-05-2.85828E-05-4.38198E-08-2.31610E-19 1.74218E-19
 -1      1949 9.52710E-05-2.85643E-05-2.85886E-05-7.48774E-08 1.13261E-18-1.20703E-18
 -1      1950 1.07292E-04-2.81152E-05-3.39877E-05 1.93227E-05 8.62180E-19-1.86142E-18
 -1      1951 1.12097E-04-2.94401E-05-3.52491E-05 2.25410E-05 7.83433E-19-1.33278E-18
 -1      1952 9.32162E-05-2.73695E-05-2.81939E-05 1.59195E-06 6.74768E-19 8.11669E-19
 -1      1953 9.43863E-05-2.74567E-05-2.86294E-05 2.66799E-06 7.86338E-19 1.22603E-18
 -1      1954 9.52247E-05-2.70209E-05-2.92224E-05 4.06510E-06 9.25582E-19 7.15597E-19
 -1      1955 9.21684E-05-2.73514E-05-2.77547E-05 3.42488E-07 4.94912E-19 5.46806E-19
 -1      1956 9.26583E-05-2.73819E-05-2.79261E-05 8.91556E-07 4.71410E-19 7.03540E-19
 -1      1957 9.36416E-05-2.73754E-05-2.84061E-05 1.58010E-06 6.48589E-19 4.27805E-19
 -1      1958 9.17976E-05-2.73897E-05-2.75879E-05-3.13030E-07 1.81748E-20 6.47854E-19
 -1      1959 9.19099E-05-2.73623E-05-2.76341E-05-1.96730E-08 2.49044E-19 5.58483E-19
 -1      1960 9.28057E-05-2.74855E-05-2.80051E-05 2.63755E-07 3.42122E-19 2.39647E-19
 -1      1961 9.18286E-05-2.74819E-05-2.75670E-05-6.42060E-07-2.05980E-19 5.14999E-19
 -1      1962 9.17369E-05-2.74189E-05-2.75494E-05-4.87833E-07-1.42770E-19 7.57075E-19
 -1      1963 9.24980E-05-2.75796E-05-2.78324E-05-4.33538E-07-1.41383E-19 1.92247E-19
 -1      1964 9.20835E-05-2.76064E-05-2.76259E-05-7.84715E-07-5.33469E-20 6.24155E-19
 -1      1965 9.18871E-05-2.75262E-05-2.75755E-05-7.11362E-07-1.34880E-19 6.59540E-19
 -1      1966 9.25101E-05-2.76865E-05-2.77898E-05-7.83780E-07-1.68949E-19 1.48881E-19
 -1      1967 9.24517E-05-2.77442E-05-2.77265E-05-8.19225E-07 4.19951E-19 6.73826E-19
 -1      1968 9.22085E-05-2.76588E-05-2.76606E-05-7.93794E-07 2.31692E-19 6.90513E-19
 -1      1969 9.27072E-05-2.78043E-05-2.78216E-05-9.32352E-07 1.47549E-19 2.94500E-19
 -1      1970 9.28662E-05-2.78823E-05-2.78460E-05-7.94046E-07 4.44509E-19 4.80094E-19
 -1      1971 9.26094E-05-2.77987E-05-2.77747E-05-7.95477E-07 4.28168E-19 5.98476E-19
 -1      1972 9.30018E-05-2.79248E-05-2.78945E-05-9.64022E-07 5.82585E-19 4.95625E-19
 -1      1973 9.33086E-05-2.80200E-05-2.79775E-05-7.36845E-07 2.29151E-19 2.93273E-19
 -1      1974 9.30454E-05-2.79383E-05-2.79030E-05-7.53372E-07 4.44881E-19 4.36309E-19
 -1      1975 9.33478E-05-2.80426E-05-2.79910E-05-9.30378E-07 4.42206E-19 3.30255E-19
 -1      1976 9.37170E-05-2.81396E-05-2.81016E-05-6.76453E-07 7.74805E-20 1.65417E-19
 -1      1977 9.34791E-05-2.80690E-05-2.80333E-05-6.95892E-07-2.65732E-21 1.07302E-19
 -1      1978 9.37061E-05-2.81523E-05-2.80966E-05-8.69525E-07 2.06391E-19 1.72459E-19
 -1      1979 9.41108E-05-2.82490E-05-2.82234E-05-6.29409E-07 2.27129E-19-2.69732E-19
 -1      1980 9.38855E-05-2.81848E-05-2.81579E-05-6.44067E-07 2.14531E-19 3.13322E-20
 -1      1981 9.40520E-05-2.82478E-05-2.82034E-05-8.10265E-07 1.89768E-19-2.45503E-19
 -1      1982 9.44985E-05-2.83498E-05-2.83458E-05-6.12591E-07 5.09672E-19-4.32623E-19
 -1      1983 9.42787E-05-2.82901E-05-2.82808E-05-6.14295E-07 3.61236E-19-3.95309E-19
 -1      1984 9.43931E-05-2.83326E-05-2.83130E-05-7.74252E-07 4.35863E-19-5.49410E-19
 -1      1985 9.49017E-05-2.84464E-05-2.84758E-05-6.46550E-07 6.04800E-19-1.11801E-18
 -1      1986 9.46731E-05-2.83876E-05-2.84071E-05-6.25396E-07 4.62111E-19-7.33799E-19
 -1      1987 9.47385E-05-2.84074E-05-2.84290E-05-7.85144E-07 7.05944E-19-6.55908E-19
 -1      1988 9.53569E-05-2.85449E-05-2.86260E-05-7.60180E-07 4.68006E-19-1.08406E-18
 -1      1989 9.50959E-05-2.84817E-05-2.85464E-05-7.01985E-07 4.73830E-19-9.32080E-19
 -1      1990 9.51079E-05-2.84731E-05-2.85593E-05-8.72754E-07 5.17595E-19-8.59323E-19
 -1      1991 9.59202E-05-2.86541E-05-2.88160E-05-9.97797E-07-1.88165E-19-1.11068E-18
 -1      1992 9.55900E-05-2.85787E-05-2.87142E-05-8.80476E-07-2.43373E-20-1.20588E-18
 -1      1993 9.55329E-05-2.85302E-05-2.87173E-05-1.08005E-06 1.97215E-19-7.93207E-19
 -1      1994 9.66760E-05-2.87858E-05-2.90761E-05-1.42969E-06-4.77841E-19-2.47192E-19
 -1      1995 9.62197E-05-2.86863E-05-2.89345E-05-1.21770E-06-2.20149E-19-6.16202E-19
 -1      1996 9.60592E-05-2.85770E-05-2.89234E-05-1.47298E-06-3.00296E-19-6.41227E-19
 -1      1997 9.77499E-05-2.89558E-05-2.94518E-05-2.16770E-06 2.02335E-19-2.46897E-19
 -1      1998 9.70800E-05-2.88142E-05-2.92433E-05-1.80354E-06-1.44819E-19-3.44915E-19
 -1      1999 9.67508E-05-2.86073E-05-2.92073E-05-2.15449E-06-1.67047E-19-2.97176E-19
 -1      2000 9.93266E-05-2.91873E-05-3.00108E-05-3.38838E-06 4.04994E-19-2.69213E-19
 -1      2001 9.83080E-05-2.89735E-05-2.96943E-05-2.77887E-06 3.85757E-19 4.59912E-20
 -1      2002 9.76926E-05-2.86075E-05-2.96117E-05-3.28348E-06 1.01502E-19-1.53736E-19
 -1      2003 1.01795E-04-2.95243E-05-3.09018E-05-5.46888E-06 3.01636E-19-8.08755E-19
 -1      2004 1.00145E-04-2.91844E-05-3.03836E-05-4.40567E-06 3.16446E-20-9.14241E-19
 -1      2005 9.90315E-05-2.85521E-05-3.02115E-05-5.15589E-06 4.85125E-19-5.94538E-19
 -1      2006 1.05289E-04-3.00038E-05-3.21711E-05-8.58929E-06-8.07461E-20-9.86694E-19
 -1      2007 1.02866E-04-2.94855E-05-3.14161E-05-6.98067E-06 1.08923E-19-6.63118E-19
 -1      2008 1.00875E-04-2.84091E-05-3.10659E-05-8.09903E-06 4.98757E-20-1.11958E-18
 -1      2009 1.10306E-04-3.07882E-05-3.39726E-05-1.31912E-05 4.44004E-19-1.06922E-18
 -1      2010 1.06704E-04-2.99436E-05-3.28693E-05-1.07692E-05 5.97688E-20-7.11898E-19
 -1      2011 1.03298E-04-2.81992E-05-3.22008E-05-1.24037E-05 1.56185E-19-1.21495E-18
 -1      2012 1.17277E-04-3.23189E-05-3.63046E-05-1.93011E-05-4.57093E-19-3.91700E-19
 -1      2013 1.12153E-04-3.08530E-05-3.48258E-05-1.60154E-05 2.66418E-20-7.29732E-19
 -1      2014 1.06509E-04-2.81747E-05-3.35934E-05-1.83597E-05-9.34119E-20-6.20200E-19
 -1      2015 1.26570E-04-3.58074E-05-3.87936E-05-2.57290E-05-4.02923E-19 3.41884E-19
 -1      2016 1.19809E-04-3.30509E-05-3.71336E-05-2.21840E-05-1.39846E-19-1.10511E-19
 -1      2017 1.10903E-04-2.92858E-05-3.49693E-05-2.54634E-05-4.37478E-19 3.34889E-19
 -1      2018 1.39141E-04-4.39314E-05-4.05912E-05-2.76141E-05-9.76311E-19 1.38535E-18
 -1      2019 1.31085E-04-3.88864E-05-3.92773E-05-2.65843E-05-8.68712E-19 8.28345E-19
 -1      2020 1.18119E-04-3.45242E-05-3.57217E-05-3.14243E-05-9.94205E-19 1.22170E-18
 -1      2021 1.57478E-04-5.92591E-05-4.17397E-05-1.59019E-05-1.42926E-18-1.09214E-18
 -1      2022 1.47987E-04-5.13878E-05-4.08286E-05-2.30408E-05-1.19114E-18-1.19326E-19
 -1      2023 1.31460E-04-4.72311E-05-3.58320E-05-2.96953E-05-9.26336E-19 5.88476E-19
 -1      2024 2.12362E-04-4.67178E-05-6.96168E-05 1.47940E-05 1.24853E-18-5.17961E-19
 -1      2025 2.14318E-04-6.02056E-05-6.49169E-05 2.34032E-05 3.24795E-18 5.24313E-19
 -1      2026 2.24022E-04-4.52990E-05-7.36014E-05-7.43450E-06 1.00204E-18-3.93526E-19
 -1      2027 2.26224E-04-4.68644E-05-7.35597E-05 8.73295E-06-5.79371E-19-4.99961E-19
 -1      2028 2.16873E-04-5.53364E-05-6.76701E-05-2.23549E-05 2.57329E-18-9.66041E-19
 -1      2029 2.16895E-04-4.63018E-05-7.13358E-05-1.42811E-05 2.37762E-18-6.41204E-19
 -1      2030 9.52436E-05-2.85470E-05-2.85844E-05-4.73603E-08 1.65820E-19-7.41157E-19
 -1      2031 1.12287E-04-2.97555E-05-3.53458E-05 2.64356E-05 5.77438E-19-7.68573E-19
 -1      2032 1.18835E-04-3.31382E-05-3.65248E-05 2.87589E-05 6.54770E-19-7.11124E-19
 -1      2033 9.84608E-05-2.35059E-05-3.19802E-05 2.75780E-05 9.63262E-19-7.87979E-19
 -1      2034 1.72053E-04-7.17725E-05-4.25882E-05 1.86309E-06-8.71809E-19-2.30478E-18
 -1      2035 1.77091E-04-7.08214E-05-4.56236E-05-1.04330E-05-2.60886E-19-3.08574E-18
 -1      2036 1.21178E-04-3.62981E-05-3.59877E-05 3.12721E-05-1.61587E-18-9.01647E-19
 -1      2037 1.29730E-04-4.37063E-05-3.66163E-05 2.94823E-05-2.50574E-18-1.31375E-18
 -1      2038 1.00758E-04-2.85604E-05-3.07758E-05 3.46652E-05-9.69376E-19-1.28971E-18
 -1      2039 1.03890E-04-2.80538E-05-3.25401E-05 1.31758E-05 8.75885E-20-2.32589E-18
 -1      2040 1.07316E-04-2.85995E-05-3.35833E-05 1.59092E-05 4.70368E-20-1.75823E-18
 -1      2041 9.83859E-05-2.37346E-05-3.19133E-05 2.00280E-05 3.68995E-19-4.18292E-19
 -1      2042 1.01361E-04-2.82912E-05-3.13341E-05 8.64054E-06 6.72339E-19-1.22274E-18
 -1      2043 1.03739E-04-2.85512E-05-3.20948E-05 1.06021E-05 2.10792E-19-1.49707E-18
 -1      2044 9.82977E-05-2.51401E-05-3.13105E-05 1.37703E-05-5.28529E-19-1.61225E-19
 -1      2045 9.94118E-05-2.84877E-05-3.03994E-05 5.41858E-06 3.80741E-19 1.37724E-18
 -1      2046 1.01059E-04-2.86461E-05-3.09376E-05 6.76587E-06 2.94880E-19 5.84097E-19
 -1      2047 9.79215E-05-2.64446E-05-3.06082E-05 9.06858E-06-4.00832E-19 1.45961E-18
 -1      2048 9.80945E-05-2.85890E-05-2.97849E-05 3.43753E-06 1.34578E-18 2.57200E-18
 -1      2049 9.91210E-05-2.86789E-05-3.01202E-05 4.25492E-06 1.61165E-18 1.91805E-18
 -1      2050 9.73951E-05-2.73522E-05-3.00110E-05 5.83002E-06 5.01695E-19 3.31374E-18
 -1      2051 9.71570E-05-2.86264E-05-2.93660E-05 2.16854E-06-2.78515E-19 2.12984E-18
 -1      2052 9.78251E-05-2.86892E-05-2.95836E-05 2.68023E-06 7.28432E-19 2.00464E-18
 -1      2053 9.68824E-05-2.78888E-05-2.95675E-05 3.74944E-06 1.00426E-18 3.00802E-18
 -1      2054 9.65077E-05-2.86311E-05-2.90861E-05 1.36656E-06-1.42541E-18 2.06895E-19
 -1      2055 9.69394E-05-2.86748E-05-2.92264E-05 1.68454E-06-6.51047E-19 1.59001E-18
 -1      2056 9.64410E-05-2.82009E-05-2.92473E-05 2.39739E-06-3.71321E-20 1.93314E-18
 -1      2057 9.60636E-05-2.86210E-05-2.89009E-05 8.62632E-07-1.05571E-18-1.32985E-18
 -1      2058 9.63418E-05-2.86516E-05-2.89910E-05 1.05969E-06-1.34825E-18-6.34172E-19
 -1      2059 9.60901E-05-2.83746E-05-2.90233E-05 1.53042E-06-2.29588E-19 1.73113E-18
 -1      2060 9.57621E-05-2.86056E-05-2.87790E-05 5.45751E-07-6.91662E-19-1.11596E-18
 -1      2061 9.59413E-05-2.86272E-05-2.88369E-05 6.68380E-07-1.33037E-18-1.96152E-18
 -1      2062 9.58242E-05-2.84673E-05-2.88697E-05 9.77851E-07-9.55095E-19 1.39190E-18
 -1      2063 9.55585E-05-2.85894E-05-2.86992E-05 3.44431E-07-4.82397E-19 7.25079E-19
 -1      2064 9.56737E-05-2.86048E-05-2.87362E-05 4.21989E-07-6.84722E-19-7.26370E-19
 -1      2065 9.56283E-05-2.85136E-05-2.87655E-05 6.25369E-07-1.49335E-18 1.03399E-18
 -1      2066 9.54221E-05-2.85744E-05-2.86476E-05 2.12870E-07 8.26932E-19 1.70071E-18
 -1      2067 9.54954E-05-2.85854E-05-2.86709E-05 2.63875E-07 1.51325E-19 7.34162E-19
 -1      2068 9.54864E-05-2.85338E-05-2.86956E-05 3.97956E-07-7.39984E-19 1.63433E-18
 -1      2069 9.53322E-05-2.85618E-05-2.86148E-05 1.22538E-07-1.26377E-19 1.80579E-18
 -1      2070 9.53774E-05-2.85694E-05-2.86291E-05 1.58231E-07 9.63290E-19 2.37956E-18
 -1      2071 9.53848E-05-2.85397E-05-2.86492E-05 2.46976E-07 5.95231E-19 2.38995E-18
 -1      2072 9.52751E-05-2.85532E-05-2.85940E-05 5.70377E-08-4.87083E-19 1.61239E-18
 -1      2073 9.53005E-05-2.85572E-05-2.86026E-05 8.32010E-08 2.74502E-19 1.93718E-18
 -1      2074 9.53124E-05-2.85383E-05-2.86184E-05 1.42369E-07 1.07110E-19 5.35156E-18
 -1      2075 9.52508E-05-2.85521E-05-2.85842E-05 2.77859E-08 8.03638E-19 2.57762E-18
 -1      2076 9.52600E-05-2.85509E-05-2.85889E-05 3.94911E-08-6.24244E-19 2.32840E-18
 -1      2077 9.52697E-05-2.85354E-05-2.86008E-05 8.07426E-08-6.15594E-19 6.35151E-18
 -1      2078 9.52471E-05-2.85380E-05-2.85900E-05 4.55980E-08 1.03627E-18 5.56823E-18
 -1      2079 9.52012E-05-2.84247E-05-2.86190E-05 1.16079E-07 1.06843E-18-8.79135E-19
 -1      2080 9.52175E-05-2.84584E-05-2.86106E-05 1.06012E-07 1.14628E-18-1.19055E-18
 -1      2081 9.52293E-05-2.84874E-05-2.86040E-05 8.84549E-08 1.65807E-18 7.80279E-19
 -1      2082 9.52411E-05-2.85142E-05-2.85968E-05 7.02514E-08 1.42896E-18 4.01928E-18
 -1      2083 9.52501E-05-2.85112E-05-2.86023E-05 8.73817E-08-2.27424E-19 4.84699E-18
 -1      2084 9.52243E-05-2.84559E-05-2.86154E-05 1.31090E-07-5.68617E-19-2.07486E-19
 -1      2085 9.51662E-05-2.83557E-05-2.86338E-05 1.15587E-07 1.69912E-18-1.66123E-18
 -1      2086 9.51828E-05-2.83899E-05-2.86254E-05 1.18246E-07 1.31403E-18-5.07742E-19
 -1      2087 9.51893E-05-2.83904E-05-2.86276E-05 1.54357E-07-5.13652E-19-1.07843E-18
 -1      2088 9.51395E-05-2.83013E-05-2.86457E-05 9.03121E-08-3.94754E-19-2.19853E-18
 -1      2089 9.51521E-05-2.83288E-05-2.86389E-05 1.02615E-07 2.07204E-18-1.78529E-18
 -1      2090 9.51495E-05-2.83258E-05-2.86378E-05 1.40904E-07-1.76361E-19-1.92812E-18
 -1      2091 9.51248E-05-2.82691E-05-2.86531E-05 4.86242E-08 7.82304E-19-1.97763E-18
 -1      2092 9.51315E-05-2.82857E-05-2.86490E-05 6.66884E-08-4.41684E-20-1.71243E-18
 -1      2093 9.51219E-05-2.82811E-05-2.86450E-05 9.92454E-08-1.79478E-19-2.09593E-18
 -1      2094 9.51238E-05-2.82638E-05-2.86547E-05 2.45142E-09 1.25606E-18-2.03011E-18
 -1      2095 9.51240E-05-2.82670E-05-2.86540E-05 2.12298E-08 1.92047E-18-5.16205E-18
 -1      2096 9.51107E-05-2.82625E-05-2.86482E-05 4.16665E-08 1.64576E-18-2.70747E-18
 -1      2097 9.51341E-05-2.82831E-05-2.86507E-05-3.80595E-08-3.34771E-19 1.04426E-18
 -1      2098 9.51289E-05-2.82740E-05-2.86532E-05-2.24159E-08 8.25583E-19-2.77048E-19
 -1      2099 9.51156E-05-2.82709E-05-2.86469E-05-1.68908E-08 3.27471E-19-1.25032E-18
 -1      2100 9.51516E-05-2.83203E-05-2.86421E-05-6.67170E-08-2.34598E-18 2.77857E-19
 -1      2101 9.51430E-05-2.83019E-05-2.86470E-05-5.62845E-08-2.29160E-18 9.99696E-19
 -1      2102 9.51324E-05-2.83011E-05-2.86415E-05-6.48677E-08-8.89222E-19-6.92185E-19
 -1      2103 9.51719E-05-2.83672E-05-2.86305E-05-8.17674E-08-3.52862E-19 2.85621E-18
 -1      2104 9.51620E-05-2.83435E-05-2.86370E-05-7.68410E-08-1.53929E-18 1.27712E-18
 -1      2105 9.51554E-05-2.83447E-05-2.86330E-05-9.61412E-08-1.78785E-18 1.78376E-18
 -1      2106 9.51912E-05-2.84156E-05-2.86180E-05-8.49271E-08-9.17408E-19 3.88844E-19
 -1      2107 9.51816E-05-2.83906E-05-2.86249E-05-8.45172E-08-4.99571E-19 2.14672E-18
 -1      2108 9.51790E-05-2.83929E-05-2.86227E-05-1.10017E-07-1.34409E-18 2.14465E-18
 -1      2109 9.52084E-05-2.84618E-05-2.86055E-05-7.94607E-08-1.29844E-18-1.48464E-18
 -1      2110 9.51996E-05-2.84375E-05-2.86123E-05-8.23080E-08-1.69082E-18-2.67481E-19
 -1      2111 9.51999E-05-2.84394E-05-2.86119E-05-1.09776E-07-2.81106E-18-1.75062E-19
 -1      2112 9.52230E-05-2.85015E-05-2.85946E-05-6.78207E-08-9.05714E-19-2.60544E-18
 -1      2113 9.52154E-05-2.84804E-05-2.86004E-05-7.30453E-08-2.76022E-19-3.93333E-18
 -1      2114 9.52175E-05-2.84809E-05-2.86017E-05-9.96155E-08-2.29264E-18-1.86346E-18
 -1      2115 9.52367E-05-2.85336E-05-2.85867E-05-5.48173E-08 2.86165E-19 3.79606E-20
 -1      2116 9.52300E-05-2.85168E-05-2.85911E-05-6.31678E-08 1.53063E-19-5.11431E-19
 -1      2117 9.52334E-05-2.85156E-05-2.85937E-05-8.66363E-08-2.41035E-19-1.24914E-18
 -1      2118 9.52493E-05-2.85436E-05-2.85884E-05-7.22304E-08 1.30058E-18-1.95381E-19
 -1      2119 9.28192E-06-3.21637E-05 8.93876E-06-1.00812E-05-3.43895E-19 1.85670E-18
 -1      2120 1.21307E-05-3.32728E-05 8.13152E-06-1.97387E-05-7.01979E-19 3.05525E-18
 -1      2121 2.10986E-05-3.95988E-05 6.44709E-06 1.27604E-05 1.01220E-19 2.78504E-18
 -1      2122 1.25291E-05-3.61220E-05 8.77680E-06 4.32566E-06-7.87423E-19 1.52381E-18
 -1      2123 1.06163E-04-5.89164E-05-2.11886E-05 3.27188E-05 1.58395E-18 4.38445E-18
 -1      2124 8.44473E-05-5.52870E-05-1.40084E-05 3.01738E-05 5.20925E-20 3.73891E-18
 -1      2125 2.09242E-04-5.99006E-05-6.29123E-05-2.14715E-05 2.58282E-18-5.65818E-19
 -1      2126 1.82698E-04-3.33850E-05-6.23031E-05 3.59260E-05-4.66940E-18-2.03288E-18
 -1      2127 1.64394E-04-3.22756E-05-5.61303E-05 3.62592E-05-5.04927E-18-2.15062E-18
 -1      2128 1.74995E-04-2.90358E-05-6.13989E-05 1.24004E-05-3.58951E-18-1.23582E-18
 -1      2129 1.94092E-04-2.56396E-05-7.12490E-05-1.41493E-05-4.54010E-18 3.44742E-19
 -1      2130 2.00650E-04-2.60733E-05-7.35728E-05-5.25314E-06-3.90567E-18-6.26910E-19
 -1      2131 1.70129E-04-6.91125E-05-4.28283E-05 1.70639E-05 2.36703E-18 2.26835E-18
 -1      2132 1.32426E-04-6.51416E-05-3.05419E-05 2.03389E-05 2.10276E-18 2.44793E-18
 -1      2133 8.72689E-05-8.72170E-06-3.37513E-05-1.05161E-05-1.11205E-18-6.42898E-19
 -1      2134 8.79637E-05-9.25131E-06-3.38213E-05-1.21011E-05-1.24694E-18-2.90956E-19
 -1      2135 9.04703E-05-1.30760E-05-3.32356E-05-1.19120E-05-1.28382E-18-7.71462E-20
 -1      2136 8.86671E-05-1.10295E-05-3.32974E-05-9.40328E-06-1.14688E-18-6.15330E-19
 -1      2137 2.00581E-04-6.31973E-05-5.87574E-05 1.83405E-05 2.90426E-18 5.87841E-19
 -1      2138 1.64729E-04-6.75244E-05-4.30333E-05-8.89489E-06 1.00797E-18-1.18585E-18
 -1      2139 1.95900E-04-7.05496E-05-5.31229E-05-3.08589E-06 1.45901E-18-4.88738E-19
 -1      2140 1.11180E-04-6.08193E-05-2.39206E-05-2.49222E-05 9.77476E-19-4.29446E-19
 -1      2141 1.42901E-04-6.47347E-05-3.40488E-05-2.62378E-05 3.67612E-19-1.44716E-18
 -1      2142 6.44201E-05-5.14168E-05-7.55448E-06-2.77494E-05 2.02526E-18 1.19082E-18
 -1      2143 8.72649E-05-5.37126E-05-1.56765E-05-3.26762E-05 1.98545E-18 1.57527E-18
 -1      2144 2.55598E-05-4.02637E-05 4.68029E-06-1.66509E-05 7.50683E-19-1.38405E-18
 -1      2145 4.06850E-05-4.26500E-05-4.78700E-07-2.51285E-05 1.60597E-18-1.49501E-19
 -1      2146 9.97180E-06-3.61885E-05 9.79200E-06 5.42283E-06 6.38186E-19-1.89693E-18
 -1      2147 1.29752E-05-3.30748E-05 7.71795E-06-5.28940E-06 4.38340E-19-8.24587E-19
 -1      2148 1.38306E-05-3.34111E-05 7.48895E-06 2.40475E-05 8.55503E-20-4.49055E-18
 -1      2149 1.08122E-05-3.70376E-05 9.89692E-06 1.51963E-05 1.11131E-18-3.51730E-18
 -1      2150 1.07063E-05-2.11936E-05 3.92982E-06 9.69786E-06-7.66088E-19-2.92311E-18
 -1      2151 3.83126E-05-3.56086E-05-1.65683E-06 4.29754E-05-8.58044E-19-4.93566E-18
 -1      2152 2.65502E-05-3.82863E-05 3.80139E-06 3.44742E-05 4.11234E-19-4.60955E-18
 -1      2153 7.54469E-05-4.12365E-05-1.50471E-05 5.22430E-05-7.43695E-19-5.42736E-18
 -1      2154 5.55521E-05-4.21093E-05-6.92247E-06 4.53758E-05-6.94144E-19-4.71470E-18
 -1      2155 5.54155E-05-3.81670E-05-7.42530E-06 5.10898E-05 1.03762E-19-4.84725E-18
 -1      2156 1.17418E-04-3.92086E-05-3.29220E-05 5.15587E-05-3.82562E-18-4.40923E-18
 -1      2157 1.00322E-04-4.41294E-05-2.42919E-05 4.87506E-05-1.69534E-18-4.93270E-18
 -1      2158 1.51786E-04-3.65635E-05-4.83239E-05 4.52883E-05-4.96001E-18-2.59616E-18
 -1      2159 1.30813E-04-3.78751E-05-4.01036E-05 4.48592E-05-5.17537E-18-3.32630E-18
 -1      2160 2.03208E-04-2.53767E-05-7.46721E-05-8.58780E-07-3.70535E-18-6.29293E-19
 -1      2161 1.97829E-04-2.37613E-05-7.33996E-05 8.49023E-06-3.53975E-18-1.59073E-18
 -1      2162 1.75809E-04-1.18476E-05-6.90136E-05-3.43047E-07-4.51680E-18 5.07161E-20
 -1      2163 1.42258E-04-5.32955E-05-3.73216E-05 2.55089E-05-2.35232E-18-1.65944E-18
 -1      2164 1.52536E-04-6.31356E-05-3.81851E-05 1.49838E-05-1.67247E-18-2.06249E-18
 -1      2165 1.44870E-04-6.66424E-05-3.37719E-05 1.99318E-05-1.58967E-18-1.57215E-18
 -1      2166 1.13650E-04-4.39987E-05-2.97381E-05 3.49281E-05-2.54491E-18-8.63868E-19
 -1      2167 1.78402E-04-3.03739E-05-6.28937E-05-2.82034E-05-3.79640E-18 1.14815E-18
 -1      2168 1.92985E-04-3.08906E-05-6.81690E-05-2.13157E-05-4.40224E-18 6.13675E-19
 -1      2169 1.52119E-04-3.61410E-05-4.97162E-05-3.72255E-05-2.38832E-18 2.96758E-18
 -1      2170 1.71556E-04-3.54357E-05-5.71527E-05-3.58787E-05-3.08495E-18 1.56743E-18
 -1      2171 1.16848E-04-4.01941E-05-3.33864E-05-4.63733E-05-1.21719E-18 3.90270E-18
 -1      2172 1.38442E-04-3.93728E-05-4.18826E-05-4.71355E-05-1.85670E-18 3.54822E-18
 -1      2173 7.83217E-05-4.11817E-05-1.70133E-05-4.73831E-05-1.39379E-18 2.34798E-18
 -1      2174 9.80084E-05-3.79168E-05-2.56172E-05-5.30962E-05-1.31883E-18 3.85400E-18
 -1      2175 4.52099E-05-4.10634E-05-3.00030E-06-4.22922E-05-1.70592E-18 8.89279E-19
 -1      2176 5.96103E-05-3.72223E-05-9.96286E-06-4.88743E-05-1.73134E-18 8.31786E-19
 -1      2177 1.93248E-05-3.73291E-05 6.52117E-06-2.84297E-05-1.10623E-18 1.86898E-18
 -1      2178 2.75635E-05-3.37265E-05 2.05604E-06-3.72150E-05-1.97443E-18 6.74450E-19
 -1      2179 1.76012E-05-2.23632E-05 1.66714E-06-2.81207E-05-6.96685E-20 2.70373E-18
 -1      2180 5.58219E-05-4.44023E-05-5.84817E-06 3.15710E-05-3.48131E-19 5.37231E-18
 -1      2181 3.57233E-05-4.47283E-05 1.85651E-06 1.99560E-05-3.46436E-19 4.50007E-18
 -1      2182 3.48372E-05-3.24713E-05-1.71211E-06 2.56989E-05-6.74662E-19 4.06449E-18
 -1      2183 1.85186E-04-2.12029E-05-6.92868E-05 6.05190E-06-3.36780E-18-1.70063E-18
 -1      2184 1.66273E-04-1.69976E-05-6.38946E-05 1.21104E-06-3.14842E-18-1.49438E-18
 -1      2185 1.64252E-04-1.05364E-05-6.62264E-05-2.53895E-06-4.40754E-18-5.52265E-19
 -1      2186 9.71875E-05-2.43139E-05-3.13054E-05-9.99504E-06-1.11020E-18 2.09246E-18
 -1      2187 9.63487E-05-2.30978E-05-3.14564E-05-1.03749E-05-1.20445E-18 1.31841E-18
 -1      2188 2.34880E-05-2.68057E-05 1.01161E-06 3.49369E-05 8.47033E-22-4.68325E-18
 -1      2189 1.16378E-04-6.39985E-05-2.34997E-05-2.93149E-05 9.74935E-19 6.78050E-19
 -1      2190 1.71808E-04-6.95312E-05-4.38300E-05 4.60932E-06 1.00373E-18-1.80376E-18
 -1      2191 1.64311E-04-6.50918E-05-4.19712E-05-9.51325E-06-1.60746E-18-2.15755E-18
 -1      2192 1.92720E-04-6.69568E-05-5.32515E-05 2.70768E-05 2.31166E-18-3.10861E-19
 -1      2193 1.88968E-04-7.32283E-05-4.91742E-05 1.74277E-05 2.17237E-18-4.44269E-19
 -1      2194 1.93627E-04-7.20339E-05-5.17116E-05-2.02328E-05 1.02687E-18-2.29758E-18
 -1      2195 1.95096E-04-6.18736E-05-5.63864E-05-2.64614E-05 2.85916E-18-1.94648E-18
 -1      2196 2.34443E-05-2.79325E-05 1.32339E-06-1.62822E-05-1.49078E-19-1.19432E-18
 -1      2197 1.69386E-04-3.41991E-05-5.69709E-05-1.44709E-05-3.22169E-18 1.20406E-18
 -1      2198 1.75623E-04-2.04056E-05-6.53375E-05-4.58631E-06-4.91110E-18 6.03723E-19
 -1      2199 1.30131E-05-2.19291E-05 3.30620E-06-6.56887E-07-4.19625E-19 1.75675E-18
 -1      2200 2.12263E-04-6.76384E-05-6.03672E-05 2.03054E-07 3.67369E-18 1.44589E-18
 -1      2201 1.83170E-04-6.61499E-05-5.05752E-05 5.32066E-06 3.97153E-18 1.90244E-18
 -1      2202 8.09512E-05-5.11193E-05-1.34984E-05 3.52715E-05-1.50137E-18 3.98836E-18
 -1      2203 4.27559E-05-3.47747E-05-3.82220E-06-4.63242E-05-9.99499E-19 1.09458E-18
 -1      2204 9.45803E-05-4.76201E-05-2.02239E-05 5.06926E-05 2.13452E-19-5.12201E-18
 -1      2205 9.05048E-05-4.84590E-05-1.73501E-05 5.33117E-05 1.39168E-18-4.26648E-18
 -1      2206 1.13090E-04-5.47014E-05-2.55376E-05 4.70064E-05 7.19554E-19-3.44404E-18
 -1      2207 8.19085E-05-4.62615E-05-1.55234E-05-5.25727E-05-2.98156E-19 9.50530E-19
 -1      2208 1.20535E-04-5.09473E-05-2.95549E-05-4.56437E-05 1.14349E-19 2.05384E-18
 -1      2209 1.61265E-04-4.15710E-05-5.05593E-05 2.53412E-05-3.80852E-18-2.51992E-19
 -1      2210 6.42874E-05-4.58699E-05-8.66671E-06-3.36445E-05 4.46386E-19 1.00246E-18
 -1      2211 1.66635E-04-7.40053E-05-3.97396E-05-7.47873E-06 8.03834E-19-1.48527E-18
 -1      2212 1.48052E-04-6.41583E-05-3.59354E-05-1.98603E-05-3.13826E-19-2.37140E-18
 -1      2213 1.35661E-04-5.06654E-05-3.63121E-05 3.91836E-05-2.29715E-18-1.99476E-18
 -1      2214 1.51619E-04-4.69926E-05-4.42398E-05-2.96225E-05-1.23794E-18 1.47638E-18
 -1      2215 1.69325E-04-7.29736E-05-4.17561E-05-2.65315E-06 6.14099E-19-2.34649E-18
 -1      2216 1.82505E-04-7.47899E-05-4.61316E-05-3.52751E-06 1.20342E-18-1.03634E-18
 -1      2217 8.81323E-05-1.11745E-05-3.30213E-05-3.65721E-06-5.34753E-19-1.13289E-18
 -1      2218 8.83667E-05-1.14456E-05-3.30034E-05-4.79776E-06-6.45835E-19-1.05618E-18
 -1      2219 8.87199E-05-1.19314E-05-3.29547E-05-5.81353E-06-7.44006E-19-9.49127E-19
 -1      2220 8.91247E-05-1.24029E-05-3.29263E-05-6.98831E-06-9.48947E-19-7.86973E-19
 -1      2221 8.98856E-05-1.38133E-05-3.26016E-05-4.89588E-06-6.32663E-19-8.81076E-19
 -1      2222 8.77866E-05-1.07148E-05-3.30648E-05 6.13634E-07-3.30218E-20-1.31579E-18
 -1      2223 8.77819E-05-1.07097E-05-3.30650E-05-4.96128E-07-1.60945E-19-1.29400E-18
 -1      2224 8.79689E-05-1.09409E-05-3.30464E-05 2.75320E-06 1.48556E-19-1.54878E-18
 -1      2225 8.78534E-05-1.08073E-05-3.30557E-05 1.63486E-06 8.55398E-21-1.43182E-18
 -1      2226 8.91030E-05-1.27589E-05-3.27221E-05 1.04659E-06 1.88500E-20-1.35297E-18
 -1      2227 8.84047E-05-1.14899E-05-3.30010E-05 4.88074E-06 4.45954E-19-1.51296E-18
 -1      2228 8.81645E-05-1.12123E-05-3.30192E-05 3.75824E-06 2.31247E-19-1.56753E-18
 -1      2229 8.93704E-05-1.31163E-05-3.26821E-05 3.01499E-06 1.80463E-19-1.41648E-18
 -1      2230 8.91856E-05-1.24749E-05-3.29220E-05 7.06728E-06 7.87466E-19-1.22743E-18
 -1      2231 8.87670E-05-1.19874E-05-3.29512E-05 5.89583E-06 5.86500E-19-1.37174E-18
 -1      2232 8.99297E-05-1.38667E-05-3.25975E-05 4.96718E-06 4.90087E-19-1.32937E-18
 -1      2233 9.04547E-05-1.40842E-05-3.27949E-05 9.21469E-06 1.01787E-18-1.12154E-18
 -1      2234 8.97751E-05-1.32744E-05-3.28403E-05 8.03728E-06 8.71350E-19-1.18614E-18
 -1      2235 9.08670E-05-1.51293E-05-3.24524E-05 6.86235E-06 7.73645E-19-1.11362E-18
 -1      2236 9.24601E-05-1.66858E-05-3.25736E-05 1.10708E-05 1.23115E-18-7.08384E-19
 -1      2237 9.13759E-05-1.53167E-05-3.26576E-05 1.00268E-05 1.12609E-18-9.30598E-19
 -1      2238 9.22950E-05-1.70904E-05-3.22117E-05 8.50762E-06 9.77214E-19-9.16384E-19
 -1      2239 9.55178E-05-2.08652E-05-3.20982E-05 1.16798E-05 1.33611E-18-4.40987E-20
 -1      2240 9.37985E-05-1.84718E-05-3.23217E-05 1.14482E-05 1.31811E-18-4.66358E-19
 -1      2241 9.42802E-05-2.00211E-05-3.17874E-05 9.45392E-06 1.21670E-18-5.05699E-19
 -1      2242 9.75019E-05-2.45881E-05-3.13120E-05 9.84387E-06 1.24360E-18 6.57059E-19
 -1      2243 9.62696E-05-2.22034E-05-3.17313E-05 1.11060E-05 1.29699E-18 2.54401E-19
 -1      2244 9.59151E-05-2.32282E-05-3.11157E-05 8.82882E-06 1.29014E-18-5.54873E-21
 -1      2245 9.63273E-05-2.56831E-05-3.02841E-05 6.84736E-06 1.21255E-18 4.64287E-19
 -1      2246 9.59125E-05-2.50903E-05-3.03051E-05-6.17681E-06-1.05811E-18 8.83255E-19
 -1      2247 9.52558E-05-2.58472E-05-2.97624E-05-4.27171E-06-1.03693E-18 7.20655E-19
 -1      2248 9.36334E-05-2.74720E-05-2.83435E-05 3.57832E-07 2.26393E-19 1.21269E-19
 -1      2249 9.39142E-05-2.73366E-05-2.84901E-05 8.94336E-07 4.14590E-19 5.63211E-20
 -1      2250 9.42345E-05-2.71103E-05-2.87520E-05 1.75703E-06 5.74593E-19 4.35080E-20
 -1      2251 9.47970E-05-2.68767E-05-2.90513E-05 2.74763E-06 6.97045E-19 1.38126E-19
 -1      2252 9.47357E-05-2.69381E-05-2.90717E-05 1.86634E-06 5.25111E-19-1.50228E-19
 -1      2253 9.50729E-05-2.00232E-05-3.22128E-05-1.17253E-05-1.26559E-18 8.49945E-19
 -1      2254 9.54771E-05-2.33862E-05-3.09268E-05-7.97150E-06-1.14619E-18 8.58636E-19
 -1      2255 9.50699E-05-2.25280E-05-3.10541E-05-7.65387E-06-1.15685E-18 5.29816E-19
 -1      2256 9.32188E-05-1.75746E-05-3.24162E-05-1.13544E-05-1.30516E-18 4.41542E-19
 -1      2257 8.99231E-05-1.96961E-05-3.01904E-05 1.65493E-05-4.77128E-19 1.72932E-18
 -1      2258 8.97350E-05-1.88491E-05-3.02775E-05 1.97403E-05 4.19050E-19 1.72631E-18
 -1      2259 9.51393E-05-2.65335E-05-2.93463E-05-2.92113E-06-1.00185E-18 7.41931E-19
 -1      2260 9.46774E-05-2.69062E-05-2.90438E-05-1.86258E-06-9.30922E-19 6.50927E-19
 -1      2261 9.53369E-05-2.53383E-05-2.99981E-05-4.28135E-06-1.09405E-18 4.41613E-19
 -1      2262 9.44775E-05-2.72346E-05-2.87811E-05-1.00462E-06-7.59311E-19 5.99608E-19
 -1      2263 9.42270E-05-2.74490E-05-2.86160E-05-4.03795E-07-5.93971E-19 5.80190E-19
 -1      2264 9.50385E-05-2.66818E-05-2.93039E-05-1.90850E-06-8.95365E-19 5.58952E-19
 -1      2265 9.40760E-05-2.76277E-05-2.84559E-05 1.11149E-07-5.19261E-19 6.14249E-19
 -1      2266 9.39848E-05-2.77719E-05-2.83738E-05 4.43002E-07-5.78031E-19 6.45300E-19
 -1      2267 9.47356E-05-2.74113E-05-2.88631E-05-4.21288E-07-5.43170E-19 5.36491E-19
 -1      2268 9.38996E-05-2.78801E-05-2.82818E-05 7.32508E-07-6.02910E-19 5.86888E-19
 -1      2269 9.39129E-05-2.79879E-05-2.82508E-05 9.01230E-07-6.08866E-19 5.29769E-19
 -1      2270 9.45380E-05-2.78406E-05-2.85934E-05 4.61415E-07-6.84996E-19 6.07399E-19
 -1      2271 9.38823E-05-2.80591E-05-2.82037E-05 1.04553E-06-5.84037E-19 5.29172E-19
 -1      2272 9.39580E-05-2.81442E-05-2.82036E-05 1.11443E-06-3.36682E-19 5.14178E-19
 -1      2273 9.44503E-05-2.81106E-05-2.84382E-05 9.47042E-07-6.01245E-19 6.07547E-19
 -1      2274 9.39660E-05-2.81937E-05-2.81855E-05 1.16710E-06-1.94399E-19 1.41556E-19
 -1      2275 9.40749E-05-2.82625E-05-2.82035E-05 1.17568E-06-2.37630E-19 8.17468E-20
 -1      2276 9.44475E-05-2.82882E-05-2.83590E-05 1.17696E-06-4.56871E-19 3.68659E-19
 -1      2277 9.41074E-05-2.82983E-05-2.82035E-05 1.17238E-06-2.59500E-19 2.17128E-19
 -1      2278 9.42301E-05-2.83547E-05-2.82309E-05 1.14575E-06-2.34233E-19 3.29143E-19
 -1      2279 9.45017E-05-2.84085E-05-2.83292E-05 1.24613E-06-2.41596E-19 2.50524E-19
 -1      2280 9.42769E-05-2.83820E-05-2.82416E-05 1.10980E-06-3.25471E-19 3.06485E-19
 -1      2281 9.44011E-05-2.84291E-05-2.82728E-05 1.06349E-06-3.73241E-19 1.19620E-19
 -1      2282 9.45904E-05-2.84923E-05-2.83301E-05 1.21769E-06-4.19408E-19 4.71929E-19
 -1      2283 9.44553E-05-2.84517E-05-2.82887E-05 1.00928E-06-6.17204E-20 4.44036E-19
 -1      2284 9.45734E-05-2.84926E-05-2.83199E-05 9.51829E-07 2.16282E-19 8.21157E-19
 -1      2285 9.46976E-05-2.85542E-05-2.83487E-05 1.13223E-06-5.38316E-20 2.88187E-19
 -1      2286 9.46312E-05-2.85145E-05-2.83374E-05 8.86750E-07-6.44198E-20 9.25561E-19
 -1      2287 9.47384E-05-2.85524E-05-2.83657E-05 8.21044E-07 6.12615E-20 8.22674E-19
 -1      2288 9.48138E-05-2.86061E-05-2.83756E-05 1.01339E-06 1.42718E-19 8.67553E-19
 -1      2289 9.47980E-05-2.85776E-05-2.83818E-05 7.46600E-07 3.64538E-21 4.15358E-19
 -1      2290 9.48908E-05-2.86158E-05-2.84049E-05 6.70487E-07-9.12395E-20 1.02273E-19
 -1      2291 9.49342E-05-2.86593E-05-2.84039E-05 8.71127E-07-1.45965E-19 8.30429E-19
 -1      2292 9.49522E-05-2.86486E-05-2.84170E-05 5.82726E-07-4.30771E-19-3.01464E-19
 -1      2293 9.50268E-05-2.86903E-05-2.84327E-05 4.89265E-07-7.57336E-19-3.84440E-19
 -1      2294 9.50576E-05-2.87254E-05-2.84279E-05 7.03304E-07-5.96944E-19-7.77152E-19
 -1      2295 9.50907E-05-2.87355E-05-2.84386E-05 3.78936E-07-6.31585E-19-4.11118E-19
 -1      2296 9.51419E-05-2.87833E-05-2.84441E-05 2.56571E-07-5.03635E-19-3.81715E-19
 -1      2297 9.51848E-05-2.88164E-05-2.84429E-05 4.96409E-07-7.11544E-19-4.12432E-19
 -1      2298 9.52087E-05-2.88450E-05-2.84416E-05 1.09316E-07-3.57855E-19-3.83026E-19
 -1      2299 9.52285E-05-2.88998E-05-2.84337E-05-5.75564E-08-2.81611E-19-3.58707E-19
 -1      2300 9.53176E-05-2.89438E-05-2.84446E-05 2.25912E-07-4.69134E-19-4.35724E-19
 -1      2301 9.52969E-05-2.89804E-05-2.84207E-05-2.60468E-07-4.07654E-19-4.43055E-19
 -1      2302 9.52729E-05-2.90398E-05-2.83958E-05-4.89928E-07-3.71637E-19-3.38699E-19
 -1      2303 9.54555E-05-2.91164E-05-2.84288E-05-1.42771E-07-5.04716E-19-2.64786E-19
 -1      2304 9.53376E-05-2.91373E-05-2.83704E-05-7.69527E-07-1.86237E-19-1.90318E-19
 -1      2305 9.52523E-05-2.91928E-05-2.83247E-05-1.07877E-06-1.77134E-19-3.72925E-19
 -1      2306 9.55922E-05-2.93352E-05-2.83925E-05-6.51406E-07-3.89418E-19-1.19245E-19
 -1      2307 9.53008E-05-2.92972E-05-2.82860E-05-1.45400E-06-1.33182E-19-2.78818E-19
 -1      2308 9.51305E-05-2.93316E-05-2.82161E-05-1.85337E-06-1.90705E-19-1.76143E-19
 -1      2309 9.57103E-05-2.95865E-05-2.83338E-05-1.34232E-06-1.89196E-19 1.05014E-19
 -1      2310 9.51396E-05-2.94210E-05-2.81644E-05-2.33336E-06 3.94747E-20-2.12720E-19
 -1      2311 9.48560E-05-2.94056E-05-2.80684E-05-2.81747E-06 3.45839E-19-1.92413E-19
 -1      2312 9.57740E-05-2.98324E-05-2.82536E-05-2.24588E-06-9.47618E-20 3.71377E-19
 -1      2313 9.47891E-05-2.94429E-05-2.80064E-05-3.38999E-06-8.34013E-20-5.35790E-19
 -1      2314 9.43632E-05-2.93385E-05-2.78852E-05-3.92676E-06-3.85901E-19-3.56759E-19
 -1      2315 9.57232E-05-3.00017E-05-2.81569E-05-3.36039E-06-1.89716E-19-6.76988E-19
 -1      2316 9.41728E-05-2.92733E-05-2.78178E-05-4.54429E-06-2.93209E-19-1.25199E-19
 -1      2317 9.35833E-05-2.90363E-05-2.76759E-05-5.06522E-06-3.80126E-19-2.80438E-19
 -1      2318 9.54719E-05-2.99886E-05-2.80527E-05-4.62503E-06-1.72753E-19-1.82250E-19
 -1      2319 9.32218E-05-2.88153E-05-2.76100E-05-5.63334E-06-1.21331E-19 5.03463E-21
 -1      2320 9.24692E-05-2.84131E-05-2.74565E-05-6.03133E-06 3.87357E-19 1.19351E-19
 -1      2321 9.49212E-05-2.96661E-05-2.79542E-05-5.89181E-06-1.15021E-19 6.38415E-19
 -1      2322 9.19114E-05-2.80035E-05-2.73993E-05-6.40886E-06 1.41664E-19-2.50137E-19
 -1      2323 9.10344E-05-2.74383E-05-2.72469E-05-6.55214E-06 5.43195E-19-7.15794E-19
 -1      2324 9.39925E-05-2.89266E-05-2.78755E-05-6.91126E-06 6.14496E-20 2.40827E-19
 -1      2325 9.03095E-05-2.68579E-05-2.72040E-05-6.57509E-06 9.35969E-19-8.91376E-19
 -1      2326 8.93966E-05-2.61898E-05-2.70672E-05-6.34279E-06 5.95470E-19-7.49381E-19
 -1      2327 9.26834E-05-2.77455E-05-2.78273E-05-7.35560E-06 5.58941E-19-1.13822E-18
 -1      2328 8.86111E-05-2.55311E-05-2.70404E-05-5.87799E-06 3.28271E-19-1.29573E-18
 -1      2329 8.77975E-05-2.48833E-05-2.69330E-05-5.21206E-06-1.28462E-19-1.28120E-18
 -1      2330 9.11265E-05-2.62491E-05-2.78118E-05-6.90093E-06 2.07294E-19-1.53881E-18
 -1      2331 8.71265E-05-2.43052E-05-2.69198E-05-4.22773E-06-4.07080E-19-1.31314E-18
 -1      2332 8.65651E-05-2.38365E-05-2.68527E-05-3.17918E-06-2.42228E-19-1.19183E-18
 -1      2333 8.96088E-05-2.47366E-05-2.78206E-05-5.36378E-06-2.53296E-19-9.52367E-19
 -1      2334 8.61955E-05-2.35113E-05-2.68482E-05-1.79554E-06 1.86978E-19-7.00178E-19
 -1      2335 8.60092E-05-2.33562E-05-2.68280E-05-5.33285E-07 1.56036E-19-3.82910E-19
 -1      2336 8.85082E-05-2.36119E-05-2.78373E-05-2.83832E-06 4.63556E-19-5.01754E-19
 -1      2337 8.60564E-05-2.33916E-05-2.68286E-05 9.89888E-07-4.87443E-19-2.09254E-19
 -1      2338 8.62900E-05-2.35984E-05-2.68572E-05 2.22446E-06-8.26226E-19-4.66467E-19
 -1      2339 8.81482E-05-2.32265E-05-2.78462E-05 2.59932E-07-5.64327E-19-1.41857E-19
 -1      2340 8.67383E-05-2.39813E-05-2.68633E-05 3.57358E-06-7.19353E-19-9.45424E-20
 -1      2341 8.73395E-05-2.44874E-05-2.69380E-05 4.55034E-06-2.90211E-19 1.77422E-19
 -1      2342 8.86433E-05-2.37116E-05-2.78409E-05 3.30517E-06-6.25370E-19 3.06992E-19
 -1      2343 8.80505E-05-2.50914E-05-2.69538E-05 5.47613E-06-5.59190E-19-5.24911E-19
 -1      2344 8.88910E-05-2.57541E-05-2.70674E-05 6.05317E-06-2.41370E-19-6.79116E-19
 -1      2345 8.98389E-05-2.49080E-05-2.78286E-05 5.69195E-06-6.94860E-19 1.89565E-19
 -1      2346 8.96741E-05-2.64043E-05-2.70977E-05 6.45214E-06 1.04987E-19-1.30611E-18
 -1      2347 9.05988E-05-2.70657E-05-2.72389E-05 6.60683E-06 4.08002E-19-1.41242E-18
 -1      2348 9.13910E-05-2.64466E-05-2.78256E-05 7.05432E-06-5.91997E-19-1.84233E-19
 -1      2349 9.12922E-05-2.76147E-05-2.72857E-05 6.52649E-06 1.30693E-18-1.85440E-18
 -1      2350 9.21681E-05-2.81590E-05-2.74405E-05 6.33465E-06 1.44359E-18-1.01101E-18
 -1      2351 9.29274E-05-2.79236E-05-2.78479E-05 7.35116E-06 8.56869E-19-9.93446E-19
 -1      2352 9.26842E-05-2.85304E-05-2.75014E-05 5.91791E-06 1.23688E-18-1.33589E-18
 -1      2353 9.34271E-05-2.89069E-05-2.76556E-05 5.50459E-06 1.14343E-18-1.28321E-18
 -1      2354 9.41844E-05-2.90550E-05-2.79032E-05 6.80030E-06 1.44132E-18-2.12699E-18
 -1      2355 9.37520E-05-2.90946E-05-2.77247E-05 4.91807E-06 4.72946E-19-1.01535E-18
 -1      2356 9.43290E-05-2.93083E-05-2.78665E-05 4.40959E-06-5.62986E-19-9.41379E-19
 -1      2357 9.50549E-05-2.97350E-05-2.79884E-05 5.73550E-06 7.13283E-19-2.09280E-18
 -1      2358 9.44949E-05-2.93507E-05-2.79366E-05 3.79219E-06-9.99456E-19-6.81784E-19
 -1      2359 9.49105E-05-2.94377E-05-2.80578E-05 3.28659E-06-6.36896E-19-7.00468E-19
 -1      2360 9.55591E-05-3.00041E-05-2.80928E-05 4.47662E-06-4.18044E-19-2.13059E-18
 -1      2361 9.49667E-05-2.93880E-05-2.81226E-05 2.72860E-06-2.92142E-19-8.88885E-19
 -1      2362 9.52456E-05-2.93926E-05-2.82196E-05 2.28606E-06-7.09961E-20-2.23961E-19
 -1      2363 9.57832E-05-2.99780E-05-2.82027E-05 3.25817E-06-6.60766E-19-2.67969E-18
 -1      2364 9.52377E-05-2.92988E-05-2.82748E-05 1.83111E-06 4.66284E-19 1.66887E-19
 -1      2365 9.54115E-05-2.92596E-05-2.83476E-05 1.47803E-06 9.61498E-20 2.45032E-19
 -1      2366 9.58268E-05-2.97841E-05-2.83058E-05 2.21406E-06 2.29224E-19-9.89040E-19
 -1      2367 9.53733E-05-2.91555E-05-2.83912E-05 1.13567E-06-1.23588E-18 7.93580E-19
 -1      2368 9.54721E-05-2.90998E-05-2.84424E-05 8.74577E-07-1.02253E-18 7.77561E-19
 -1      2369 9.57731E-05-2.95252E-05-2.83942E-05 1.39524E-06-2.12896E-19-3.28402E-19
 -1      2370 9.54247E-05-2.90052E-05-2.84745E-05 6.34331E-07-9.97904E-19 4.36374E-19
 -1      2371 9.54731E-05-2.89492E-05-2.85080E-05 4.54255E-07-1.42924E-18 2.58793E-19
 -1      2372 9.56795E-05-2.92682E-05-2.84640E-05 7.98280E-07-1.23420E-18-3.28906E-19
 -1      2373 9.54276E-05-2.88723E-05-2.85299E-05 2.96877E-07-1.35121E-18 1.39275E-18
 -1      2374 9.54443E-05-2.88239E-05-2.85500E-05 1.81365E-07-5.20903E-19 1.66012E-18
 -1      2375 9.55793E-05-2.90477E-05-2.85152E-05 3.91373E-07-6.89084E-19 1.36717E-19
 -1      2376 9.54054E-05-2.87661E-05-2.85638E-05 8.61337E-08-8.03079E-21 1.66954E-18
 -1      2377 9.54037E-05-2.87277E-05-2.85743E-05 1.84168E-08 4.95011E-19 8.61576E-19
 -1      2378 9.54890E-05-2.88754E-05-2.85499E-05 1.33032E-07-2.51883E-19 1.86837E-18
 -1      2379 9.53723E-05-2.86865E-05-2.85821E-05-3.30044E-08-3.97317E-19 3.80372E-19
 -1      2380 9.53610E-05-2.86576E-05-2.85864E-05-6.73419E-08-3.05911E-19-2.21143E-20
 -1      2381 9.54141E-05-2.87493E-05-2.85715E-05-1.68595E-08-1.92507E-19-5.61952E-20
 -1      2382 9.53364E-05-2.86293E-05-2.85901E-05-8.94075E-08 1.93214E-19 2.98183E-19
 -1      2383 9.53212E-05-2.86081E-05-2.85908E-05-1.01431E-07-3.87232E-19-1.47745E-19
 -1      2384 9.53549E-05-2.86612E-05-2.85835E-05-9.18692E-08-3.11681E-19-1.39884E-19
 -1      2385 9.53021E-05-2.85887E-05-2.85920E-05-1.04695E-07-7.47461E-19 1.36372E-19
 -1      2386 9.52863E-05-2.85734E-05-2.85909E-05-1.02070E-07 3.12453E-19 3.21567E-19
 -1      2387 9.53090E-05-2.86016E-05-2.85892E-05-1.17387E-07-1.54096E-19 1.00700E-18
 -1      2388 9.52740E-05-2.85625E-05-2.85909E-05-9.52413E-08 7.01757E-19-7.03876E-19
 -1      2389 9.52600E-05-2.85514E-05-2.85891E-05-8.40765E-08 9.38889E-19-6.23320E-19
 -1      2390 9.52520E-05-2.85391E-05-2.85910E-05-9.36304E-08 9.35309E-19 4.26838E-19
 -1      2391 9.52756E-05-2.85632E-05-2.85910E-05-1.12786E-07-5.50198E-19 1.05284E-18
 -1      2392 9.28333E-05-2.25271E-05-3.02059E-05 1.15325E-05-6.59303E-19 1.84740E-18
 -1      2393 9.28425E-05-2.15776E-05-3.04707E-05 1.40714E-05-6.29875E-19 1.92041E-18
 -1      2394 8.51884E-05-1.69946E-05-2.90615E-05 1.39165E-05 5.56362E-21 4.04213E-18
 -1      2395 9.50661E-05-2.66438E-05-2.93005E-05 3.68463E-06 8.54239E-19 2.27604E-19
 -1      2396 9.59935E-05-2.62293E-05-2.98557E-05 5.41278E-06 1.01788E-18 3.51257E-19
 -1      2397 9.59224E-05-2.52498E-05-3.03076E-05 6.45604E-06 1.14562E-18 8.20001E-20
 -1      2398 9.52853E-05-2.62119E-05-2.96231E-05 3.88553E-06 7.71402E-19-1.19268E-19
 -1      2399 9.33569E-05-2.76918E-05-2.81347E-05-4.28706E-07-1.64101E-19-1.35718E-19
 -1      2400 9.34312E-05-2.75864E-05-2.81948E-05-1.39980E-07 7.81371E-20 5.74891E-20
 -1      2401 9.42791E-05-2.74876E-05-2.86388E-05 3.85910E-07 1.81308E-19-4.96366E-20
 -1      2402 9.33155E-05-2.78574E-05-2.80485E-05-8.44271E-07-7.31108E-20-2.62412E-19
 -1      2403 9.32646E-05-2.77655E-05-2.80580E-05-7.00692E-07-1.81309E-19-2.36639E-19
 -1      2404 9.40291E-05-2.78060E-05-2.83927E-05-4.69710E-07-2.45755E-20-3.43855E-19
 -1      2405 9.34231E-05-2.79945E-05-2.80374E-05-1.03287E-06 2.04999E-19-2.95214E-19
 -1      2406 9.33021E-05-2.79127E-05-2.80175E-05-9.75761E-07-3.74642E-20-3.93187E-19
 -1      2407 9.39517E-05-2.80152E-05-2.82667E-05-9.29633E-07 1.23212E-20-5.68735E-19
 -1      2408 9.36173E-05-2.81112E-05-2.80715E-05-1.08625E-06 4.43881E-19 1.51088E-19
 -1      2409 9.34607E-05-2.80386E-05-2.80353E-05-1.07898E-06 3.29301E-19 1.17039E-19
 -1      2410 9.39933E-05-2.81638E-05-2.82183E-05-1.14326E-06 3.33783E-21-6.62107E-19
 -1      2411 9.38680E-05-2.82142E-05-2.81353E-05-1.06259E-06 3.40792E-19 4.78608E-19
 -1      2412 9.36897E-05-2.81490E-05-2.80884E-05-1.08274E-06 4.74433E-19 5.09833E-19
 -1      2413 9.41119E-05-2.82737E-05-2.82200E-05-1.20882E-06 2.60779E-19 1.53365E-19
 -1      2414 9.41241E-05-2.82939E-05-2.82110E-05-1.00806E-06 2.89895E-19 6.88815E-20
 -1      2415 9.39519E-05-2.82418E-05-2.81624E-05-1.03594E-06 4.78587E-19 4.40086E-19
 -1      2416 9.42741E-05-2.83545E-05-2.82535E-05-1.19202E-06 4.30227E-19 3.30553E-19
 -1      2417 9.43862E-05-2.83571E-05-2.82958E-05-9.55465E-07 5.53773E-19-4.80475E-19
 -1      2418 9.42163E-05-2.83149E-05-2.82450E-05-9.77998E-07 4.53547E-19-6.96042E-20
 -1      2419 9.44518E-05-2.84067E-05-2.83065E-05-1.14340E-06 7.13623E-19 1.46573E-19
 -1      2420 9.46507E-05-2.84028E-05-2.83885E-05-9.32525E-07 5.98317E-19-9.97367E-19
 -1      2421 9.44811E-05-2.83700E-05-2.83351E-05-9.37127E-07 4.57435E-19-8.56095E-19
 -1      2422 9.46366E-05-2.84346E-05-2.83733E-05-1.10076E-06 8.15613E-19-8.45879E-19
 -1      2423 9.49223E-05-2.84285E-05-2.84921E-05-9.68585E-07 5.87756E-19-9.53559E-19
 -1      2424 9.47462E-05-2.84054E-05-2.84335E-05-9.41005E-07 7.41742E-19-1.01083E-18
 -1      2425 9.48219E-05-2.84350E-05-2.84522E-05-1.09710E-06 5.60530E-19-1.14841E-18
 -1      2426 9.52120E-05-2.84283E-05-2.86134E-05-1.10041E-06 3.15286E-19-9.61793E-19
 -1      2427 9.50172E-05-2.84164E-05-2.85448E-05-1.02157E-06 2.91749E-19-9.44782E-19
 -1      2428 9.50039E-05-2.83997E-05-2.85451E-05-1.16752E-06 5.37501E-19-1.18990E-18
 -1      2429 9.55362E-05-2.83907E-05-2.87639E-05-1.37989E-06-1.93163E-19-3.20599E-19
 -1      2430 9.53045E-05-2.83937E-05-2.86777E-05-1.22165E-06 2.18755E-19-7.46044E-19
 -1      2431 9.51788E-05-2.83126E-05-2.86570E-05-1.35582E-06 6.77393E-20-7.88282E-19
 -1      2432 9.59146E-05-2.82943E-05-2.89603E-05-1.88437E-06-2.87169E-19-2.02397E-19
 -1      2433 9.56204E-05-2.83193E-05-2.88452E-05-1.60366E-06-4.99730E-19-3.83253E-19
 -1      2434 9.53375E-05-2.81444E-05-2.87961E-05-1.72255E-06-4.72454E-19 5.28440E-19
 -1      2435 9.63660E-05-2.81019E-05-2.92257E-05-2.73030E-06-9.59827E-20-4.06287E-19
 -1      2436 9.59754E-05-2.81619E-05-2.90657E-05-2.26105E-06 3.23940E-20-4.82760E-19
 -1      2437 9.54574E-05-2.78459E-05-2.89731E-05-2.35494E-06-2.10250E-19 9.56982E-20
 -1      2438 9.69039E-05-2.77540E-05-2.95893E-05-4.08897E-06 2.18574E-19-6.70758E-19
 -1      2439 9.63690E-05-2.78687E-05-2.93627E-05-3.33370E-06-6.06042E-20-6.34372E-19
 -1      2440 9.54869E-05-2.73365E-05-2.91991E-05-3.37855E-06 2.25335E-19-4.69581E-19
 -1      2441 9.75232E-05-2.71182E-05-3.01074E-05-6.33628E-06 5.12571E-19-5.76413E-19
 -1      2442 9.67718E-05-2.73327E-05-2.97706E-05-5.07271E-06 5.39815E-19-6.95048E-19
 -1      2443 9.53137E-05-2.64719E-05-2.94881E-05-5.02230E-06 4.61967E-19-6.58450E-19
 -1      2444 9.80847E-05-2.61467E-05-3.07464E-05-9.58404E-06-1.38159E-19-6.81854E-19
 -1      2445 9.71243E-05-2.64580E-05-3.03083E-05-7.75776E-06 1.57416E-19-6.79114E-19
 -1      2446 9.47304E-05-2.50709E-05-2.98181E-05-7.49583E-06 1.57469E-19-7.34069E-20
 -1      2447 9.84681E-05-2.47804E-05-3.14781E-05-1.42297E-05 1.18532E-19-8.92266E-19
 -1      2448 9.72226E-05-2.51510E-05-3.09299E-05-1.16290E-05 7.57036E-21-1.11929E-18
 -1      2449 9.34271E-05-2.30137E-05-3.01114E-05-1.09973E-05 7.59352E-20-2.11844E-19
 -1      2450 9.85460E-05-2.33758E-05-3.20913E-05-2.03899E-05-3.53305E-19-1.99000E-19
 -1      2451 9.68918E-05-2.34871E-05-3.15214E-05-1.70434E-05-1.88485E-19-5.39510E-19
 -1      2452 9.09460E-05-2.02556E-05-3.01806E-05-1.58152E-05-3.72807E-19-5.84999E-19
 -1      2453 9.86548E-05-2.34352E-05-3.20497E-05-2.74754E-05-9.74185E-19 5.47183E-19
 -1      2454 9.62130E-05-2.22866E-05-3.17166E-05-2.39924E-05-6.56556E-19 5.21984E-20
 -1      2455 8.69475E-05-1.74689E-05-2.95779E-05-2.20606E-05-6.80326E-19 8.59606E-20
 -1      2456 1.01206E-04-2.92216E-05-3.05485E-05-3.36137E-05-1.25049E-18 6.64074E-19
 -1      2457 9.62384E-05-2.38632E-05-3.07615E-05-3.15593E-05-1.28622E-18 4.19864E-19
 -1      2458 8.21493E-05-1.71516E-05-2.74450E-05-2.95632E-05-1.30615E-18-2.79362E-19
 -1      2459 1.44734E-04-5.33697E-05-3.92219E-05 3.02887E-05-2.26878E-18 1.62419E-19
 -1      2460 1.32230E-04-5.53807E-05-3.29382E-05 3.59411E-05-1.03910E-18-1.24027E-18
 -1      2461 4.86683E-05-2.86486E-05-8.38185E-06 3.38018E-05-1.05794E-18 3.21957E-18
 -1      2462 3.23050E-05-2.18409E-05-4.20538E-06 2.35907E-05-2.69356E-19 3.62361E-18
 -1      2463 2.10890E-05-1.68497E-05-1.55413E-06-1.33264E-05-8.18022E-19-1.14222E-18
 -1      2464 3.57154E-05-2.50222E-05-4.48112E-06-2.76305E-05-5.63065E-19-1.67797E-18
 -1      2465 8.54724E-05-1.70914E-05-2.93658E-05 2.29596E-05 5.45099E-19 1.22707E-18
 -1      2466 8.55491E-05-1.75323E-05-2.89306E-05 2.64051E-05 9.97977E-20 3.48964E-19
 -1      2467 7.81654E-05-1.30144E-05-2.76475E-05 1.88784E-05-4.37684E-19 2.84160E-18
 -1      2468 9.45020E-05-2.48010E-05-2.99199E-05 7.68566E-06-1.11979E-18 3.61497E-18
 -1      2469 9.46767E-05-2.40495E-05-3.02108E-05 9.59409E-06-7.87595E-19 2.84566E-18
 -1      2470 8.98054E-05-2.07819E-05-2.94859E-05 9.89042E-06-1.46805E-18 3.63754E-18
 -1      2471 9.52669E-05-2.62582E-05-2.96026E-05 5.13160E-06 1.40781E-18 4.13958E-18
 -1      2472 9.55000E-05-2.57810E-05-2.98320E-05 6.38076E-06 5.35047E-19 4.23517E-18
 -1      2473 9.25170E-05-2.35999E-05-2.94822E-05 6.83989E-06-6.64315E-19 3.69734E-18
 -1      2474 9.55656E-05-2.71820E-05-2.93233E-05 3.38816E-06 8.54959E-19 4.35355E-18
 -1      2475 9.57918E-05-2.68820E-05-2.94971E-05 4.22055E-06 1.26558E-18 4.70385E-18
 -1      2476 9.39771E-05-2.54625E-05-2.93346E-05 4.68312E-06 9.56818E-19 4.80396E-18
 -1      2477 9.56351E-05-2.77478E-05-2.91038E-05 2.22317E-06 4.47134E-19 3.55562E-18
 -1      2478 9.58270E-05-2.75667E-05-2.92291E-05 2.76765E-06 1.32247E-18 4.21996E-18
 -1      2479 9.47416E-05-2.66616E-05-2.91624E-05 3.16321E-06 1.39318E-18 6.22535E-18
 -1      2480 9.56024E-05-2.80862E-05-2.89407E-05 1.45515E-06-5.45426E-20 2.54714E-18
 -1      2481 9.57535E-05-2.79796E-05-2.90286E-05 1.80743E-06 2.83098E-19 2.91243E-18
 -1      2482 9.51154E-05-2.74115E-05-2.90090E-05 2.11898E-06 6.92605E-19 4.54307E-18
 -1      2483 9.55329E-05-2.82845E-05-2.88235E-05 9.52297E-07-1.29544E-18 2.90862E-18
 -1      2484 9.56467E-05-2.82234E-05-2.88841E-05 1.17933E-06-9.83112E-19 3.27645E-18
 -1      2485 9.52789E-05-2.78706E-05-2.88863E-05 1.41348E-06-2.09283E-19 4.21032E-18
 -1      2486 9.54571E-05-2.83977E-05-2.87412E-05 6.22946E-07-7.62007E-19 2.54713E-18
 -1      2487 9.55408E-05-2.83640E-05-2.87824E-05 7.69865E-07-7.49352E-19 3.11482E-18
 -1      2488 9.53342E-05-2.81467E-05-2.87937E-05 9.41202E-07-1.11741E-18 4.04043E-18
 -1      2489 9.53878E-05-2.84592E-05-2.86843E-05 4.04769E-07 4.93194E-20 2.16550E-18
 -1      2490 9.54484E-05-2.84420E-05-2.87120E-05 5.01527E-07-6.32371E-19 2.38640E-18
 -1      2491 9.53370E-05-2.83090E-05-2.87262E-05 6.25419E-07-2.66508E-19 4.09337E-18
 -1      2492 9.53285E-05-2.84898E-05-2.86454E-05 2.55740E-07-1.55874E-19 2.24865E-18
 -1      2493 9.53722E-05-2.84819E-05-2.86639E-05 3.22135E-07 3.09356E-19 1.51279E-18
 -1      2494 9.53159E-05-2.84009E-05-2.86783E-05 4.12560E-07 6.41786E-19 2.32266E-18
 -1      2495 9.52806E-05-2.85034E-05-2.86186E-05 1.51311E-07-2.01233E-18 4.82080E-18
 -1      2496 9.53121E-05-2.85011E-05-2.86312E-05 1.98210E-07-1.35825E-18 2.76011E-18
 -1      2497 9.52861E-05-2.84514E-05-2.86446E-05 2.64588E-07-1.60805E-18 1.94830E-18
 -1      2498 9.52641E-05-2.85102E-05-2.86078E-05 1.07864E-07-9.79022E-19 5.33336E-18
 -1      2499 9.51161E-05-2.82869E-05-2.86424E-05 1.59972E-07-2.95626E-19-1.62894E-18
 -1      2500 9.51389E-05-2.83149E-05-2.86386E-05 1.77341E-07-1.22608E-18-4.77449E-20
 -1      2501 9.50854E-05-2.82492E-05-2.86450E-05 9.73614E-08 1.26676E-18-1.02365E-18
 -1      2502 9.50979E-05-2.82655E-05-2.86429E-05 1.26959E-07 1.00451E-18-1.89014E-18
 -1      2503 9.50828E-05-2.82447E-05-2.86435E-05 1.64283E-07 9.66711E-19-8.56123E-19
 -1      2504 1.38776E-04-7.00896E-05-3.03032E-05 2.23703E-05-7.86894E-19 1.60936E-19
 -1      2505 9.51670E-05-2.83518E-05-2.86364E-05 1.91699E-07-2.51348E-18-1.54193E-18
 -1      2506 9.51960E-05-2.83873E-05-2.86314E-05 1.92937E-07-1.66375E-18-1.14464E-18
 -1      2507 9.51400E-05-2.83052E-05-2.86422E-05 2.18646E-07-1.95877E-18 5.41878E-19
 -1      2508 9.50797E-05-2.82442E-05-2.86442E-05 2.23765E-08 1.14204E-18-3.01818E-18
 -1      2509 9.50808E-05-2.82467E-05-2.86442E-05 5.58516E-08 6.86606E-19-1.10046E-18
 -1      2510 9.50553E-05-2.82205E-05-2.86421E-05 8.16718E-08 1.06419E-18-1.36561E-18
 -1      2511 9.50956E-05-2.82684E-05-2.86402E-05-4.73950E-08 2.72867E-19-1.03176E-18
 -1      2512 9.50872E-05-2.82585E-05-2.86421E-05-1.75157E-08 1.17151E-18-3.11150E-18
 -1      2513 9.50582E-05-2.82331E-05-2.86382E-05-7.26856E-09 1.08419E-18-3.09831E-18
 -1      2514 9.51249E-05-2.83130E-05-2.86334E-05-9.96452E-08-8.91583E-19-7.68764E-19
 -1      2515 9.51110E-05-2.82942E-05-2.86370E-05-7.81733E-08-4.38647E-19-7.40197E-19
 -1      2516 9.50852E-05-2.82747E-05-2.86325E-05-8.34496E-08-4.30317E-19-2.32853E-18
 -1      2517 9.51587E-05-2.83668E-05-2.86247E-05-1.29317E-07-1.06094E-18 1.52976E-18
 -1      2518 9.51433E-05-2.83434E-05-2.86294E-05-1.17862E-07-8.96296E-19 2.79423E-19
 -1      2519 9.51249E-05-2.83327E-05-2.86252E-05-1.35313E-07-1.15190E-18-5.88071E-19
 -1      2520 9.51892E-05-2.84193E-05-2.86153E-05-1.37852E-07-1.54592E-18 1.85203E-18
 -1      2521 9.51754E-05-2.83956E-05-2.86204E-05-1.35302E-07-1.45865E-18 2.72522E-18
 -1      2522 9.51661E-05-2.83937E-05-2.86171E-05-1.59870E-07-7.59028E-19 1.91331E-18
 -1      2523 9.52138E-05-2.84659E-05-2.86059E-05-1.30937E-07-2.78735E-18-1.46657E-18
 -1      2524 9.52026E-05-2.84438E-05-2.86110E-05-1.34872E-07-1.61853E-18-1.71418E-19
 -1      2525 9.52010E-05-2.84482E-05-2.86089E-05-1.61518E-07-9.99976E-19 8.33788E-19
 -1      2526 9.52320E-05-2.85031E-05-2.85977E-05-1.14104E-07-2.00859E-18-2.78120E-19
 -1      2527 9.52232E-05-2.84846E-05-2.86021E-05-1.22306E-07-3.04251E-18 8.05341E-19
 -1      2528 9.52272E-05-2.84922E-05-2.86013E-05-1.47811E-07-1.75177E-18-3.77459E-19
 -1      2529 3.96566E-05-2.69923E-05-5.03046E-06-4.46528E-05-8.81338E-19 6.59839E-19
 -1      2530 5.82761E-05-3.59425E-05-9.43179E-06-5.27452E-05-1.03592E-18 1.88888E-19
 -1      2531 1.64165E-04-2.65749E-05-5.93022E-05 1.78975E-06-2.68382E-18-1.87385E-18
 -1      2532 1.61506E-04-3.17666E-05-5.58486E-05 3.77104E-06-3.57384E-18-1.24302E-18
 -1      2533 1.93271E-05-1.29264E-05-2.05023E-06-2.22409E-05 6.55180E-19 3.69010E-18
 -1      2534 2.60712E-05-1.72582E-05-3.32409E-06-3.45687E-05-2.23193E-19 3.40677E-18
 -1      2535 2.10176E-05-1.50424E-05-2.07238E-06 1.20551E-05-3.61048E-19 2.30774E-18
 -1      2536 1.54388E-05-1.06823E-05-1.62748E-06-5.20813E-06 5.36304E-19 6.21299E-19
 -1      2537 1.54173E-04-8.39136E-06-6.30477E-05 2.45031E-06-4.94498E-18 6.20240E-19
 -1      2538 1.56153E-04-7.70471E-06-6.39995E-05 5.44322E-08-4.92380E-18 2.19434E-20
 -1      2539 8.02624E-05-1.73159E-05-2.67409E-05 3.05308E-05 1.30125E-19 5.97846E-19
 -1      2540 8.21970E-05-2.26969E-05-2.51821E-05 3.35946E-05-8.71862E-19 4.81221E-19
 -1      2541 6.87264E-05-1.12326E-05-2.41934E-05 2.47629E-05 2.51992E-20 2.01308E-18
 -1      2542 5.85297E-05-3.56901E-05-9.66530E-06-3.45114E-05-2.81850E-19 6.20875E-19
 -1      2543 8.47638E-05-4.74712E-05-1.63001E-05-3.89154E-05 7.12355E-19 1.94002E-18
 -1      2544 8.78382E-05-1.07892E-05-3.30567E-05-1.51723E-06-2.34883E-19-1.26923E-18
 -1      2545 8.79436E-05-1.09116E-05-3.30479E-05-2.63472E-06-4.05686E-19-1.20859E-18
 -1      2546 8.93414E-05-1.30819E-05-3.26846E-05-2.92602E-06-4.17408E-19-1.03446E-18
 -1      2547 8.90925E-05-1.27462E-05-3.27230E-05-9.40557E-07-1.77843E-19-1.21395E-18
 -1      2548 1.58356E-04-3.86814E-05-5.15694E-05-7.52079E-06-2.53782E-18 5.95888E-19
 -1      2549 1.62735E-04-3.16076E-05-5.65865E-05-3.23829E-06-3.02348E-18 2.98367E-19
 -1      2550 1.47250E-05-1.30815E-05-3.60192E-07 1.57365E-05-9.50265E-19-3.72906E-18
 -1      2551 1.49127E-05-1.25053E-05-5.02114E-07 2.22556E-06-8.87320E-19-1.77369E-18
 -1      2552 7.95721E-05-4.51361E-05-1.45638E-05-5.23799E-05-4.34951E-19 7.78212E-19
 -1      2553 9.83228E-05-5.00677E-05-2.06651E-05-5.22904E-05-2.41193E-19 3.32460E-19
 -1      2554 6.86797E-05-3.87336E-05-1.26331E-05 5.34842E-05 9.60324E-19-4.09424E-18
 -1      2555 5.19626E-05-3.20580E-05-8.09734E-06 4.88474E-05 7.16802E-19-4.00096E-18
 -1      2556 1.44772E-04-5.34753E-05-3.92026E-05-2.49985E-05-4.04352E-19 1.11173E-18
 -1      2557 1.55057E-04-4.85394E-05-4.59964E-05-1.72136E-05-1.38733E-18 4.77727E-19
 -1      2558 3.35773E-05-2.21116E-05-4.61131E-06 4.16057E-05-3.69942E-19-4.16867E-18
 -1      2559 2.16650E-05-1.68637E-05-1.56060E-06 2.82999E-05-9.31948E-19-3.92303E-18
 -1      2560 1.61803E-04-2.21747E-05-6.01601E-05 7.95565E-07-4.07380E-18 5.16690E-20
 -1      2561 1.60306E-04-1.49959E-05-6.28803E-05 3.18599E-06-4.33003E-18-4.79632E-20
 -1      2562 1.61071E-04-4.11665E-05-5.16090E-05 1.19387E-05-3.71249E-18-5.41254E-19
 -1      2563 1.51899E-04-4.79475E-05-4.47747E-05 1.90717E-05-3.26603E-18-7.91976E-20
 -1      2564 1.55179E-04-3.81864E-05-5.01938E-05 3.85772E-07-3.22667E-18-1.04185E-18
 -1      2565 1.15558E-04-5.46866E-05-2.60690E-05-4.45178E-05 1.22820E-18 1.60703E-18
 -1      2566 1.31981E-04-5.58030E-05-3.29003E-05-3.87728E-05 1.17441E-18 2.26137E-18
 -1      2567 1.19699E-04-5.88430E-05-2.57377E-05 3.07807E-05-2.19212E-18 6.96380E-19
 -1      2568 9.08002E-05-1.50560E-05-3.24597E-05-6.77730E-06-9.90502E-19-5.84238E-19
 -1      2569 8.97147E-05-1.32008E-05-3.28460E-05-7.95441E-06-1.06460E-18-6.85779E-19
 -1      2570 9.04066E-05-1.40393E-05-3.27990E-05-9.15022E-06-1.18341E-18-4.85423E-19
 -1      2571 9.20854E-05-1.62786E-05-3.25238E-05-1.03669E-05-1.26020E-18 8.05343E-21
 -1      2572 2.44488E-05-1.07032E-05-5.31606E-06-7.69411E-06-8.17916E-19-2.11081E-18
 -1      2573 1.53836E-04-2.60293E-05-5.48600E-05 5.60011E-06-2.95445E-18-1.03825E-18
 -1      2574 6.76135E-05-3.64132E-05-1.28207E-05 3.64148E-05-1.65637E-18 3.40634E-18
 -1      2575 6.34507E-05-2.83414E-05-1.47663E-05 3.64294E-05-1.09013E-18 2.64634E-18
 -1      2576 1.33912E-04-5.96405E-05-3.20582E-05 3.10276E-05 2.43945E-19-1.05816E-18
 -1      2577 1.25256E-04-5.72834E-05-2.90629E-05 4.03887E-05 4.96785E-19-1.86919E-18
 -1      2578 1.16401E-04-5.58677E-05-2.54650E-05 4.35887E-05 1.41560E-18-2.37040E-18
 -1      2579 1.02584E-04-3.77474E-05-2.71104E-05-3.65210E-05-5.86359E-19 8.35174E-19
 -1      2580 7.84038E-05-2.67485E-05-2.17439E-05-3.73144E-05-8.91079E-19 1.18585E-19
 -1      2581 1.49474E-04-5.38400E-05-4.10158E-05 1.70114E-05-2.00567E-18 5.19019E-19
 -1      2582 1.12951E-04-4.99984E-05-2.65298E-05-3.36695E-05 1.99900E-19 2.13982E-19
 -1      2583 3.41020E-05-1.33446E-05-8.24650E-06 1.88181E-05 7.86682E-20 2.76980E-18
 -1      2584 1.53640E-04-4.57419E-05-4.63369E-05-4.93125E-06-1.50457E-18 1.26631E-19
 -1      2585 5.48618E-05-2.70400E-05-1.14909E-05-3.30066E-05-6.42898E-19-4.02341E-20
 -1      2586 1.19634E-04-5.74322E-05-2.63910E-05-3.06372E-05 9.11831E-19 3.24453E-19
 -1      2587 9.52550E-05-2.84758E-05-2.86195E-05 1.57411E-07-2.09501E-18 2.10608E-18
 -1      2588 1.55254E-04-1.94666E-05-5.85239E-05-6.42168E-06-3.16388E-18-1.73663E-18
 -1      2589 9.52383E-05-2.84456E-05-2.86259E-05 1.77361E-07-1.85826E-18 1.26652E-19
 -1      2590 7.58985E-05-4.05606E-05-1.47556E-05-5.22845E-05-5.13725E-19-3.05885E-19
 -1      2591 4.05595E-05-2.03565E-05-8.13461E-06-4.00753E-05-5.27278E-19 2.40028E-18
 -1      2592 9.52462E-05-2.85298E-05-2.85924E-05-1.01440E-07 5.52916E-19 7.60431E-19
 -1      2593 9.52377E-05-2.85142E-05-2.85955E-05-1.08129E-07-8.95956E-19-3.96726E-19
 -1      2594 9.52432E-05-2.85207E-05-2.85959E-05-1.30612E-07-5.38997E-19 1.29563E-18
 -1      2595 9.52572E-05-2.85417E-05-2.85925E-05-1.14335E-07-5.53045E-19 1.56668E-18
 -1      2596 1.40891E-04-5.78752E-05-3.54108E-05-2.64243E-05 6.71168E-19 1.49713E-18
 -1      2597 9.52252E-05-2.84045E-05-2.86363E-05 2.24676E-07-2.33667E-18 6.55077E-20
 -1      2598 9.47552E-05-4.86743E-05-1.97842E-05 3.73176E-05-1.86898E-18 2.45100E-18
 -1      2599 2.39567E-05-7.90285E-06-6.20474E-06-1.14533E-05 4.69150E-19 2.47376E-18
 -1      2600 1.47004E-04-6.10301E-06-6.07726E-05-1.13076E-06-4.81178E-18-1.17896E-19
 -1      2601 4.83462E-05-2.43481E-05-9.67639E-06 4.43768E-05 1.86135E-19-3.52239E-18
 -1      2602 8.35404E-05-4.46599E-05-1.63016E-05 5.21657E-05 1.61953E-18-3.68798E-18
 -1      2603 7.89672E-05-3.93089E-05-1.64561E-05 5.09011E-05 1.96342E-18-3.12788E-18
 -1      2604 9.76731E-05-4.95623E-05-2.06875E-05 4.90043E-05 2.24559E-18-3.20464E-18
 -1      2605 1.25080E-04-6.34851E-05-2.64188E-05-2.67536E-05 4.11658E-19-2.18640E-19
 -1      2606 2.48673E-05-1.06317E-05-5.47251E-06 2.21509E-05-1.02089E-18-3.64351E-18
 -1      2607 1.04590E-04-4.74856E-05-2.43460E-05 3.63391E-05-2.30224E-18 7.82447E-19
 -1      2608 1.45237E-04-9.39153E-06-5.85674E-05 5.33797E-06-4.40754E-18 1.93547E-19
 -1      2609 1.51024E-04-7.17893E-05-3.38157E-05-1.83444E-05-2.02864E-19-2.39350E-18
 -1      2610 1.12894E-04-5.53141E-05-2.43671E-05-4.53393E-05 2.58557E-19 1.46786E-18
 -1      2611 9.25509E-05-3.32771E-05-2.45273E-05 3.75711E-05-2.16946E-18 1.56066E-19
 -1      2612 6.98439E-05-2.20522E-05-2.01029E-05 3.44538E-05-5.35537E-19 2.20186E-18
 -1      2613 9.07933E-05-1.55291E-05-3.22774E-05-3.92364E-06-5.12876E-19-7.92704E-19
 -1      2614 9.11280E-05-1.60142E-05-3.22180E-05-4.84526E-06-7.14344E-19-6.40246E-19
 -1      2615 9.05558E-05-1.51620E-05-3.23339E-05 3.18744E-06 2.66250E-19-1.31591E-18
 -1      2616 9.03644E-05-1.48892E-05-3.23667E-05 2.25495E-06 1.18235E-19-1.34498E-18
 -1      2617 9.02290E-05-1.46854E-05-3.23957E-05 1.41813E-06 4.50199E-20-1.37563E-18
 -1      2618 9.01631E-05-1.45923E-05-3.24067E-05 4.62810E-07-2.92606E-20-1.25529E-18
 -1      2619 9.14136E-05-1.65781E-05-3.20594E-05 1.63512E-06 8.94802E-20-1.33834E-18
 -1      2620 9.21455E-05-1.75477E-05-3.20088E-05 6.46134E-06 7.99548E-19-1.02557E-18
 -1      2621 9.16172E-05-1.67498E-05-3.21088E-05 5.62354E-06 6.65575E-19-1.02000E-18
 -1      2622 9.35027E-05-1.97135E-05-3.16747E-05 7.60180E-06 9.54954E-19-8.04463E-19
 -1      2623 9.27610E-05-1.85128E-05-3.18423E-05 7.00845E-06 8.13268E-19-9.61961E-19
 -1      2624 9.34396E-05-1.98549E-05-3.15115E-05 5.72870E-06 7.63003E-19-9.02989E-19
 -1      2625 9.56374E-05-2.40284E-05-3.06657E-05 7.20512E-06 1.15402E-18-1.17182E-19
 -1      2626 9.45025E-05-2.81204E-05-2.84490E-05-9.38726E-07 1.04753E-19-6.86545E-19
 -1      2627 9.45136E-05-2.79941E-05-2.84972E-05-7.55939E-07 1.66671E-19-5.66152E-19
 -1      2628 9.45710E-05-2.78441E-05-2.85979E-05-4.73750E-07-4.05112E-21-5.69204E-19
 -1      2629 9.46557E-05-2.76574E-05-2.86948E-05-1.24764E-07 7.99302E-20-4.22352E-19
 -1      2630 9.50224E-05-2.78983E-05-2.87757E-05-4.92220E-07 2.13704E-19-9.25509E-19
 -1      2631 9.43394E-05-2.08829E-05-3.15195E-05-8.22495E-06-1.22282E-18 2.03019E-19
 -1      2632 9.47328E-05-2.26536E-05-3.09131E-05-6.39748E-06-1.13420E-18 2.58512E-19
 -1      2633 9.47351E-05-2.74096E-05-2.88564E-05 3.66287E-07 2.00662E-19-3.78112E-19
 -1      2634 9.49204E-05-2.71201E-05-2.90275E-05 9.74163E-07 3.70421E-19-2.37314E-19
 -1      2635 9.51376E-05-2.73718E-05-2.90524E-05 3.44446E-07 2.02632E-19-7.62282E-19
 -1      2636 9.52731E-05-2.41857E-05-3.04523E-05-4.99994E-06-1.01481E-18 2.31738E-19
 -1      2637 9.51784E-05-2.51432E-05-3.00331E-05-3.51463E-06-1.02590E-18 2.71672E-19
 -1      2638 9.46201E-05-2.24776E-05-3.09018E-05-5.53400E-06-1.07679E-18 5.49543E-20
 -1      2639 8.18437E-05-1.59440E-05-2.83393E-05 9.22273E-06 1.96735E-19 4.31777E-18
 -1      2640 7.88299E-05-1.38189E-05-2.78814E-05 1.09694E-05 1.07249E-19 4.21091E-18
 -1      2641 9.53711E-05-2.60188E-05-2.97030E-05-2.50089E-06-8.29527E-19 3.14275E-19
 -1      2642 9.52005E-05-2.65623E-05-2.94268E-05-1.52094E-06-6.17502E-19 4.21034E-19
 -1      2643 9.52664E-05-2.49681E-05-3.01229E-05-3.08659E-06-8.24395E-19 1.78335E-19
 -1      2644 9.52350E-05-2.70744E-05-2.91954E-05-8.41870E-07-5.21450E-19 4.96881E-19
 -1      2645 9.51000E-05-2.74014E-05-2.90191E-05-2.31361E-07-5.30973E-19 4.92655E-19
 -1      2646 9.54531E-05-2.64894E-05-2.95588E-05-1.31230E-06-5.44911E-19 3.95193E-19
 -1      2647 9.50786E-05-2.77079E-05-2.88614E-05 1.92554E-07-4.99175E-19 5.01731E-19
 -1      2648 9.50009E-05-2.79145E-05-2.87534E-05 5.51631E-07-5.48852E-19 5.24146E-19
 -1      2649 9.54547E-05-2.74228E-05-2.91624E-05-1.34689E-07-5.07412E-19 3.71630E-19
 -1      2650 9.49672E-05-2.81002E-05-2.86494E-05 7.94129E-07-5.32603E-19 6.26489E-19
 -1      2651 9.49395E-05-2.82350E-05-2.85877E-05 9.86799E-07-5.19920E-19 7.34011E-19
 -1      2652 9.53994E-05-2.79998E-05-2.88916E-05 5.91076E-07-3.87674E-19 6.35346E-19
 -1      2653 9.49096E-05-2.83466E-05-2.85220E-05 1.10616E-06-5.37761E-19 8.18822E-19
 -1      2654 9.49181E-05-2.84361E-05-2.84913E-05 1.19122E-06-5.39080E-19 6.44601E-19
 -1      2655 9.53389E-05-2.83554E-05-2.87126E-05 9.97131E-07-4.70329E-19 1.05940E-18
 -1      2656 9.48969E-05-2.85013E-05-2.84524E-05 1.23049E-06-3.06059E-19 7.19269E-19
 -1      2657 9.49287E-05-2.85612E-05-2.84417E-05 1.24798E-06-1.90475E-19 6.33218E-19
 -1      2658 9.52914E-05-2.85702E-05-2.85991E-05 1.18749E-06-3.14053E-19 1.35347E-18
 -1      2659 9.49168E-05-2.85978E-05-2.84210E-05 1.23758E-06-2.93763E-19 6.16371E-19
 -1      2660 9.49623E-05-2.86390E-05-2.84227E-05 1.21418E-06-4.69734E-19 7.94259E-19
 -1      2661 9.52612E-05-2.86956E-05-2.85316E-05 1.23857E-06-2.93774E-19 9.55238E-19
 -1      2662 9.49598E-05-2.86596E-05-2.84138E-05 1.17449E-06-1.92616E-19 7.18028E-19
 -1      2663 9.50126E-05-2.86906E-05-2.84224E-05 1.12703E-06 1.46186E-19 7.46871E-19
 -1      2664 9.52492E-05-2.87670E-05-2.84951E-05 1.20377E-06-2.62082E-19 1.06095E-18
 -1      2665 9.50202E-05-2.87056E-05-2.84204E-05 1.07035E-06 2.13217E-19 3.73110E-19
 -1      2666 9.50768E-05-2.87337E-05-2.84319E-05 1.00792E-06 5.12862E-20 5.48232E-19
 -1      2667 9.52563E-05-2.88117E-05-2.84784E-05 1.11793E-06-4.53049E-20 5.47185E-19
 -1      2668 9.50969E-05-2.87526E-05-2.84332E-05 9.39720E-07-3.07051E-19 3.44610E-19
 -1      2669 9.51557E-05-2.87852E-05-2.84444E-05 8.64869E-07-5.95881E-19 1.64305E-19
 -1      2670 9.52860E-05-2.88532E-05-2.84730E-05 1.00059E-06-1.74329E-19-6.46027E-20
 -1      2671 9.51926E-05-2.88175E-05-2.84462E-05 7.84480E-07-8.41563E-19 4.36963E-21
 -1      2672 9.52537E-05-2.88623E-05-2.84544E-05 6.93808E-07-8.35162E-19-4.15650E-19
 -1      2673 9.53455E-05-2.89140E-05-2.84722E-05 8.57986E-07-9.53714E-19-5.35254E-20
 -1      2674 9.53140E-05-2.89181E-05-2.84546E-05 5.94551E-07-4.82778E-19-5.10521E-19
 -1      2675 9.53781E-05-2.89827E-05-2.84577E-05 4.78907E-07-8.20720E-19-4.53622E-19
 -1      2676 9.54462E-05-2.90171E-05-2.84710E-05 6.83932E-07-7.78844E-19 1.57645E-19
 -1      2677 9.54701E-05-2.90726E-05-2.84545E-05 3.48014E-07-7.12578E-19-2.03672E-19
 -1      2678 9.55378E-05-2.91638E-05-2.84506E-05 1.92708E-07-2.75149E-19-3.06928E-19
 -1      2679 9.56036E-05-2.91865E-05-2.84659E-05 4.59838E-07-4.55617E-19 2.60656E-19
 -1      2680 9.56709E-05-2.92971E-05-2.84434E-05 1.13182E-08-1.58038E-19-1.76066E-19
 -1      2681 9.57407E-05-2.94189E-05-2.84308E-05-2.03161E-07-3.05571E-19 1.12081E-19
 -1      2682 9.58360E-05-2.94447E-05-2.84549E-05 1.54462E-07-1.01293E-20 6.57557E-19
 -1      2683 9.59223E-05-2.96006E-05-2.84202E-05-4.59238E-07-3.26097E-19 4.85080E-20
 -1      2684 9.59889E-05-2.97505E-05-2.83981E-05-7.55236E-07-2.86956E-19 2.79888E-19
 -1      2685 9.61609E-05-2.98078E-05-2.84385E-05-2.75712E-07-1.49826E-19 4.66375E-19
 -1      2686 9.62198E-05-2.99759E-05-2.83862E-05-1.11290E-06-2.65389E-19 2.17261E-19
 -1      2687 9.62700E-05-3.01394E-05-2.83550E-05-1.51129E-06-3.30309E-19 3.06306E-19
 -1      2688 9.65869E-05-3.02752E-05-2.84203E-05-8.83720E-07-2.96974E-19 1.52428E-19
 -1      2689 9.65373E-05-3.03867E-05-2.83464E-05-1.99407E-06 7.71464E-20 2.71597E-19
 -1      2690 9.65471E-05-3.05310E-05-2.83083E-05-2.50649E-06 6.77726E-20-7.84356E-20
 -1      2691 9.71020E-05-3.08145E-05-2.84086E-05-1.72424E-06-4.42012E-20 2.55315E-19
 -1      2692 9.68148E-05-3.07523E-05-2.83101E-05-3.12311E-06-1.49549E-19 6.09192E-19
 -1      2693 9.67471E-05-3.08220E-05-2.82699E-05-3.73996E-06-2.31944E-19 3.32613E-19
 -1      2694 9.76562E-05-3.13431E-05-2.84172E-05-2.83680E-06 2.30738E-19 6.71502E-19
 -1      2695 9.69497E-05-3.09388E-05-2.82914E-05-4.46643E-06 1.93569E-19 4.88963E-19
 -1      2696 9.67561E-05-3.08571E-05-2.82557E-05-5.14140E-06 2.70715E-19 4.99206E-19
 -1      2697 9.81452E-05-3.17123E-05-2.84647E-05-4.21612E-06 1.39901E-19 9.25961E-19
 -1      2698 9.68007E-05-3.07667E-05-2.83065E-05-5.89863E-06 2.29234E-19 8.70151E-19
 -1      2699 9.64336E-05-3.04521E-05-2.82832E-05-6.53427E-06 2.18134E-19 8.61982E-19
 -1      2700 9.84049E-05-3.17097E-05-2.85723E-05-5.76892E-06 4.36167E-19 1.22080E-18
 -1      2701 9.62218E-05-3.00546E-05-2.83697E-05-7.17026E-06-2.46846E-19 8.09406E-19
 -1      2702 9.56570E-05-2.94551E-05-2.83651E-05-7.61415E-06 9.97463E-22 5.01831E-19
 -1      2703 9.82360E-05-3.11006E-05-2.87572E-05-7.26703E-06-2.40297E-20 9.16989E-19
 -1      2704 9.51344E-05-2.87082E-05-2.84851E-05-7.91056E-06 1.53101E-19 2.37745E-19
 -1      2705 9.44025E-05-2.78506E-05-2.85009E-05-7.97767E-06 1.48370E-19-5.08965E-19
 -1      2706 9.74790E-05-2.97259E-05-2.90223E-05-8.32505E-06-1.70297E-19 1.27031E-18
 -1      2707 9.36209E-05-2.68330E-05-2.86393E-05-7.70425E-06 1.19314E-19-5.49901E-19
 -1      2708 9.28295E-05-2.58601E-05-2.86697E-05-7.23526E-06-4.92702E-19-5.43010E-19
 -1      2709 9.61321E-05-2.76419E-05-2.93454E-05-8.45559E-06-1.67852E-19 4.39700E-20
 -1      2710 9.19843E-05-2.48046E-05-2.87992E-05-6.25527E-06-7.55456E-20-2.80107E-19
 -1      2711 9.13093E-05-2.39636E-05-2.88315E-05-5.20214E-06 3.30390E-19-4.36005E-19
 -1      2712 9.44565E-05-2.52310E-05-2.96741E-05-7.23636E-06 2.33672E-19 7.84389E-19
 -1      2713 9.06923E-05-2.32003E-05-2.89188E-05-3.58779E-06 4.31321E-19-9.47429E-20
 -1      2714 9.03214E-05-2.27557E-05-2.89386E-05-2.08015E-06 5.69324E-19-2.09008E-19
 -1      2715 9.29663E-05-2.31627E-05-2.99356E-05-4.56491E-06 5.60323E-19 9.36819E-20
 -1      2716 9.01823E-05-2.25644E-05-2.89584E-05-1.45886E-07-3.39103E-20-4.76416E-19
 -1      2717 9.02329E-05-2.26724E-05-2.89564E-05 1.51977E-06-4.10932E-19 1.61753E-19
 -1      2718 9.22248E-05-2.21426E-05-3.00601E-05-8.44045E-07 6.19581E-20-1.22920E-19
 -1      2719 9.06332E-05-2.31277E-05-2.89024E-05 3.31884E-06-3.50557E-19 1.55948E-19
 -1      2720 9.10915E-05-2.37492E-05-2.88800E-05 4.78364E-06-2.77626E-19 7.30629E-19
 -1      2721 9.25431E-05-2.25549E-05-3.00115E-05 3.08515E-06-1.81760E-19 8.37711E-19
 -1      2722 9.18627E-05-2.46739E-05-2.87690E-05 6.04933E-06-8.51309E-19 1.34442E-18
 -1      2723 9.25897E-05-2.55966E-05-2.87373E-05 7.03668E-06-6.03210E-19 1.24439E-18
 -1      2724 9.37859E-05-2.42418E-05-2.98043E-05 6.28503E-06-4.03469E-19 9.38979E-19
 -1      2725 9.34404E-05-2.66684E-05-2.86006E-05 7.58847E-06-6.29695E-19 1.53082E-18
 -1      2726 9.42418E-05-2.76198E-05-2.85744E-05 7.99561E-06 2.25727E-20 1.57650E-18
 -1      2727 9.54568E-05-2.65944E-05-2.94974E-05 8.13864E-06-8.23678E-19 1.82737E-18
 -1      2728 9.49154E-05-2.85381E-05-2.84439E-05 7.89464E-06 1.83873E-19 1.02962E-18
 -1      2729 9.56240E-05-2.93048E-05-2.84344E-05 7.78855E-06 3.76995E-19 6.42845E-20
 -1      2730 9.69878E-05-2.88839E-05-2.91667E-05 8.54604E-06 9.29782E-20 2.16310E-18
 -1      2731 9.59955E-05-2.99025E-05-2.83319E-05 7.24582E-06 8.73547E-19-5.24616E-19
 -1      2732 9.65202E-05-3.03885E-05-2.83430E-05 6.79142E-06 1.14172E-18-6.40998E-19
 -1      2733 9.80020E-05-3.05858E-05-2.88757E-05 7.82716E-06 7.90953E-20 8.66450E-19
 -1      2734 9.65972E-05-3.06449E-05-2.82767E-05 6.04592E-06 7.35651E-19-1.82259E-18
 -1      2735 9.69231E-05-3.08595E-05-2.83058E-05 5.42422E-06 5.12335E-20-2.03563E-18
 -1      2736 9.84016E-05-3.15093E-05-2.86596E-05 6.47238E-06 1.38745E-19-7.93960E-19
 -1      2737 9.67887E-05-3.08476E-05-2.82730E-05 4.66288E-06 8.38058E-21-2.73719E-18
 -1      2738 9.69499E-05-3.08590E-05-2.83132E-05 4.01861E-06-6.59426E-19-2.70026E-18
 -1      2739 9.82969E-05-3.17379E-05-2.85248E-05 4.92505E-06-1.84069E-19-2.73243E-18
 -1      2740 9.67042E-05-3.06834E-05-2.83058E-05 3.35197E-06-5.87157E-19-2.41277E-18
 -1      2741 9.67522E-05-3.05739E-05-2.83497E-05 2.77562E-06 1.55771E-19-2.24548E-18
 -1      2742 9.78821E-05-3.14882E-05-2.84595E-05 3.48224E-06-1.79125E-19-2.29467E-18
 -1      2743 9.64765E-05-3.03284E-05-2.83580E-05 2.24858E-06 7.27670E-19-1.90934E-18
 -1      2744 9.64595E-05-3.01677E-05-2.83995E-05 1.78181E-06 4.36444E-19-1.91266E-18
 -1      2745 9.73408E-05-3.09901E-05-2.84435E-05 2.29097E-06 1.12312E-18-3.09755E-18
 -1      2746 9.62051E-05-2.99176E-05-2.84152E-05 1.39652E-06 6.99168E-19-1.27452E-18
 -1      2747 9.61584E-05-2.97523E-05-2.84506E-05 1.04663E-06-1.44713E-19-1.32944E-18
 -1      2748 9.68030E-05-3.04218E-05-2.84568E-05 1.38936E-06 7.33609E-19-2.58722E-18
 -1      2749 9.59493E-05-2.95339E-05-2.84680E-05 7.83468E-07-1.18310E-18-9.16526E-19
 -1      2750 9.58948E-05-2.93891E-05-2.84956E-05 5.38362E-07-8.39587E-19-6.65576E-19
 -1      2751 9.63393E-05-2.98935E-05-2.84835E-05 7.53552E-07-5.47050E-19-1.93818E-18
 -1      2752 9.57363E-05-2.92163E-05-2.85113E-05 3.70396E-07-2.02986E-19-7.05742E-19
 -1      2753 9.56855E-05-2.91016E-05-2.85312E-05 2.09853E-07 7.09291E-19 1.58606E-19
 -1      2754 9.59754E-05-2.94574E-05-2.85130E-05 3.33599E-07 2.17164E-19-6.20145E-19
 -1      2755 9.55725E-05-2.89746E-05-2.85436E-05 1.10951E-07-4.09898E-20 5.41248E-19
 -1      2756 9.55298E-05-2.88899E-05-2.85568E-05 1.37052E-08-2.34197E-19 5.31797E-19
 -1      2757 9.57088E-05-2.91259E-05-2.85393E-05 7.52461E-08 4.52479E-19-1.05949E-19
 -1      2758 9.54533E-05-2.88018E-05-2.85658E-05-3.78408E-08-2.87749E-19 2.52766E-19
 -1      2759 9.54194E-05-2.87425E-05-2.85738E-05-9.04015E-08-4.79630E-19 7.82580E-19
 -1      2760 9.55239E-05-2.88895E-05-2.85602E-05-6.93373E-08-4.20105E-19 2.41559E-19
 -1      2761 9.53695E-05-2.86841E-05-2.85799E-05-1.11064E-07-6.87819E-20 6.77009E-19
 -1      2762 9.53433E-05-2.86441E-05-2.85842E-05-1.33723E-07 5.74572E-19 6.47050E-19
 -1      2763 9.54011E-05-2.87292E-05-2.85752E-05-1.37775E-07-3.92744E-19 1.15998E-18
 -1      2764 9.53113E-05-2.86064E-05-2.85880E-05-1.34927E-07 2.51655E-19 5.26946E-19
 -1      2765 9.52908E-05-2.85798E-05-2.85900E-05-1.38534E-07 3.03358E-19 8.55093E-19
 -1      2766 9.53221E-05-2.86247E-05-2.85854E-05-1.57503E-07 4.80111E-19 9.78114E-19
 -1      2767 2.88408E-05-3.51113E-06-1.00956E-05-4.85323E-07-5.66692E-19 7.66353E-19
 -1      2768 3.06936E-05-5.43708E-06-1.02550E-05-1.78400E-05-3.05620E-19 2.77657E-18
 -1      2769 9.45093E-05-2.82998E-05-2.83745E-05-1.16344E-06-1.25520E-19-5.45229E-19
 -1      2770 9.44714E-05-2.82111E-05-2.83909E-05-1.08350E-06-1.99967E-19-7.36180E-19
 -1      2771 9.49507E-05-2.82234E-05-2.86038E-05-9.63294E-07-2.45259E-20-7.14132E-19
 -1      2772 9.45716E-05-2.84186E-05-2.83498E-05-1.24121E-06 1.21265E-19-1.65343E-19
 -1      2773 9.45013E-05-2.83557E-05-2.83450E-05-1.22277E-06-4.87777E-20-4.11301E-19
 -1      2774 9.49227E-05-2.84234E-05-2.85042E-05-1.19801E-06-1.81338E-19-8.40528E-19
 -1      2775 9.46615E-05-2.84832E-05-2.83603E-05-1.23325E-06 4.62926E-19-1.23428E-21
 -1      2776 9.45784E-05-2.84444E-05-2.83424E-05-1.24671E-06 3.75704E-19-1.99318E-20
 -1      2777 9.49305E-05-2.85368E-05-2.84576E-05-1.28120E-06 1.78836E-19-6.23764E-19
 -1      2778 9.47673E-05-2.85106E-05-2.83934E-05-1.19520E-06 8.28367E-19-3.29456E-19
 -1      2779 9.46775E-05-2.84900E-05-2.83667E-05-1.21677E-06 7.70679E-19 8.68259E-20
 -1      2780 9.49588E-05-2.85840E-05-2.84484E-05-1.28172E-06 5.29757E-19-2.82622E-19
 -1      2781 9.48772E-05-2.85021E-05-2.84436E-05-1.16509E-06 7.74908E-19-3.94637E-19
 -1      2782 9.47853E-05-2.84992E-05-2.84101E-05-1.17670E-06 9.57802E-19-2.54354E-19
 -1      2783 9.49957E-05-2.85807E-05-2.84648E-05-1.25344E-06 9.29830E-19-4.36488E-19
 -1      2784 9.49816E-05-2.84529E-05-2.85085E-05-1.17729E-06 6.99854E-19-6.58443E-19
 -1      2785 9.48904E-05-2.84703E-05-2.84684E-05-1.16181E-06 6.55779E-19-4.65801E-19
 -1      2786 9.50283E-05-2.85282E-05-2.85005E-05-1.23579E-06 8.61757E-19 7.67475E-22
 -1      2787 9.50694E-05-2.83499E-05-2.85889E-05-1.26786E-06 2.87768E-19-3.28954E-19
 -1      2788 9.49807E-05-2.83941E-05-2.85408E-05-1.20600E-06 4.86367E-19-2.22245E-19
 -1      2789 9.50412E-05-2.84176E-05-2.85525E-05-1.26385E-06 3.40992E-19 2.65205E-19
 -1      2790 9.51226E-05-2.81672E-05-2.86880E-05-1.48038E-06-6.15307E-19 3.94518E-19
 -1      2791 9.50398E-05-2.82508E-05-2.86291E-05-1.34732E-06-1.20359E-19-7.41634E-20
 -1      2792 9.50114E-05-2.82274E-05-2.86199E-05-1.37332E-06-1.41248E-19 7.96137E-19
 -1      2793 9.51082E-05-2.78606E-05-2.88105E-05-1.87256E-06-3.84535E-19 5.32432E-19
 -1      2794 9.50395E-05-2.80051E-05-2.87368E-05-1.63394E-06-3.49306E-19 6.33908E-19
 -1      2795 9.49008E-05-2.79180E-05-2.87028E-05-1.60511E-06-3.51315E-19 5.81608E-19
 -1      2796 9.49645E-05-2.73578E-05-2.89609E-05-2.52289E-06 2.57183E-20 8.25517E-20
 -1      2797 9.49290E-05-2.75982E-05-2.88679E-05-2.13048E-06-3.09244E-19 7.72956E-20
 -1      2798 9.46451E-05-2.74243E-05-2.88007E-05-2.00936E-06 1.02388E-19-4.03041E-20
 -1      2799 9.45835E-05-2.65483E-05-2.91399E-05-3.53639E-06 5.42263E-19-4.19080E-19
 -1      2800 9.46170E-05-2.69382E-05-2.90240E-05-2.92440E-06 2.66590E-19 5.60270E-20
 -1      2801 9.41337E-05-2.66434E-05-2.89086E-05-2.64771E-06 2.56604E-19-3.70515E-20
 -1      2802 9.36998E-05-2.51865E-05-2.93411E-05-5.13900E-06 4.73265E-19-1.70893E-19
 -1      2803 9.39093E-05-2.58443E-05-2.92003E-05-4.16064E-06 4.58055E-19-2.70289E-19
 -1      2804 9.31486E-05-2.53901E-05-2.90122E-05-3.62268E-06 4.62266E-19-4.17480E-19
 -1      2805 9.20462E-05-2.31797E-05-2.94946E-05-7.33176E-06-1.10511E-19 3.28758E-19
 -1      2806 9.25426E-05-2.41381E-05-2.93632E-05-5.98537E-06 2.30757E-19 3.24483E-19
 -1      2807 9.13806E-05-2.34501E-05-2.90612E-05-4.98177E-06 9.11586E-20 6.50578E-19
 -1      2808 8.90866E-05-2.02723E-05-2.94765E-05-1.03102E-05 2.51761E-19 2.10832E-20
 -1      2809 9.00980E-05-2.16322E-05-2.94141E-05-8.46882E-06 4.32266E-19 2.33607E-19
 -1      2810 8.84091E-05-2.06480E-05-2.89516E-05-6.73334E-06 2.33305E-19 1.19518E-18
 -1      2811 8.41347E-05-1.64611E-05-2.89852E-05-1.41339E-05-6.12272E-19 2.96680E-19
 -1      2812 8.59260E-05-1.81516E-05-2.91482E-05-1.17712E-05-4.02656E-19-6.41164E-20
 -1      2813 8.35186E-05-1.67492E-05-2.84630E-05-8.88544E-06-2.17908E-19 6.20597E-19
 -1      2814 7.65664E-05-1.25962E-05-2.73824E-05-1.87901E-05-7.59577E-19-9.26310E-20
 -1      2815 7.92835E-05-1.39876E-05-2.81079E-05-1.60022E-05-3.64929E-19 1.36941E-19
 -1      2816 7.58387E-05-1.18587E-05-2.71389E-05-1.14104E-05-4.11823E-19 1.20219E-19
 -1      2817 6.64699E-05-1.13913E-05-2.34188E-05-2.46159E-05-1.08246E-18-7.03355E-19
 -1      2818 6.95565E-05-1.04012E-05-2.53761E-05-2.11529E-05-1.22678E-18-5.04038E-19
 -1      2819 6.44147E-05-7.21278E-06-2.40915E-05-1.45461E-05-6.90252E-19-6.88347E-19
 -1      2820 4.62753E-05-1.34729E-05-1.32328E-05 2.63265E-05 3.15520E-19 3.20602E-18
 -1      2821 3.37156E-05-6.48161E-06-1.11093E-05 1.47695E-05 3.05355E-19 2.18704E-18
 -1      2822 1.48704E-04-5.16316E-05-4.20954E-05 8.13356E-06-1.98350E-18-4.02341E-21
 -1      2823 1.43498E-04-5.66773E-05-3.73275E-05 1.70168E-05-9.57147E-19 3.33413E-19
 -1      2824 7.32369E-05-1.10224E-05-2.67491E-05 1.18445E-05-7.65268E-19 4.12144E-18
 -1      2825 6.88053E-05-9.07561E-06-2.55199E-05 1.38209E-05-6.10206E-19 4.13098E-18
 -1      2826 7.17838E-05-1.01645E-05-2.61536E-05 6.54495E-06-4.70070E-20 3.61595E-18
 -1      2827 9.11764E-05-1.60805E-05-3.22120E-05 4.90737E-06 6.11008E-19-1.12155E-18
 -1      2828 9.08322E-05-1.55798E-05-3.22728E-05 3.98594E-06 3.95004E-19-1.21631E-18
 -1      2829 9.18081E-05-1.71875E-05-3.19649E-05 3.18854E-06 3.46695E-19-1.13089E-18
 -1      2830 9.24794E-05-1.82505E-05-3.17927E-05 4.60389E-06 5.89956E-19-9.79776E-19
 -1      2831 9.28580E-05-2.50647E-05-2.90854E-05 3.56764E-06 5.33135E-19 4.99996E-18
 -1      2832 9.22982E-05-2.42656E-05-2.91537E-05 4.39197E-06-1.23084E-19 3.32899E-18
 -1      2833 9.39898E-05-2.63676E-05-2.90009E-05 2.50171E-06 1.09815E-18 4.93783E-18
 -1      2834 9.37051E-05-2.58518E-05-2.90736E-05 3.08892E-06 9.52158E-19 4.97353E-18
 -1      2835 9.22957E-05-2.47418E-05-2.89176E-05 2.81723E-06 4.19760E-19 3.07929E-18
 -1      2836 9.46194E-05-2.71995E-05-2.89068E-05 1.73406E-06 1.14023E-18 4.13399E-18
 -1      2837 9.44861E-05-2.68742E-05-2.89698E-05 2.14163E-06 1.56377E-18 5.01352E-18
 -1      2838 9.35874E-05-2.61270E-05-2.88921E-05 2.06176E-06 1.14358E-18 3.30509E-18
 -1      2839 9.49569E-05-2.77208E-05-2.88233E-05 1.19369E-06 2.47263E-19 4.14373E-18
 -1      2840 9.49032E-05-2.75193E-05-2.88730E-05 1.47208E-06 3.43634E-19 4.19313E-18
 -1      2841 9.43401E-05-2.70257E-05-2.88381E-05 1.48070E-06 1.29838E-18 2.63878E-18
 -1      2842 9.51285E-05-2.80423E-05-2.87560E-05 8.18300E-07-1.35386E-18 3.23653E-18
 -1      2843 9.51148E-05-2.79195E-05-2.87934E-05 1.00697E-06-2.64789E-19 4.47677E-18
 -1      2844 9.47678E-05-2.75979E-05-2.87812E-05 1.05057E-06 7.86313E-20 5.30569E-18
 -1      2845 9.52076E-05-2.82359E-05-2.87050E-05 5.58543E-07 8.11451E-19 2.16954E-18
 -1      2846 9.52126E-05-2.81632E-05-2.87321E-05 6.86721E-07-5.80446E-20 2.61528E-18
 -1      2847 9.50032E-05-2.79559E-05-2.87315E-05 7.39546E-07-2.12374E-19 2.14460E-18
 -1      2848 9.52370E-05-2.83486E-05-2.86675E-05 3.77332E-07 1.18774E-18 9.60352E-19
 -1      2849 9.52492E-05-2.83075E-05-2.86867E-05 4.64703E-07 2.14623E-18 1.40314E-18
 -1      2850 9.51252E-05-2.81750E-05-2.86918E-05 5.16876E-07 1.62352E-18 2.41990E-19
 -1      2851 9.52270E-05-2.83920E-05-2.86435E-05 2.64005E-07-1.68660E-18 7.60650E-19
 -1      2852 9.52398E-05-2.83675E-05-2.86572E-05 3.27278E-07-6.57902E-19 3.13601E-19
 -1      2853 9.51642E-05-2.82833E-05-2.86645E-05 3.69518E-07 1.48399E-18-3.52561E-19
 -1      2854 9.51710E-05-2.83313E-05-2.86475E-05 2.74724E-07-1.50916E-18-7.39242E-19
 -1      2855 1.44855E-04-1.24298E-05-5.74177E-05-7.56737E-06-3.84002E-18-5.33419E-19
 -1      2856 1.44204E-04-2.08010E-05-5.34561E-05-8.84380E-06-3.27929E-18-1.20639E-18
 -1      2857 9.50223E-05-2.82122E-05-2.86327E-05-5.18582E-08 1.20758E-18-4.23499E-18
 -1      2858 9.50108E-05-2.81982E-05-2.86354E-05-6.38224E-09 1.45651E-18-2.94145E-18
 -1      2859 9.50253E-05-2.81899E-05-2.86450E-05 1.61591E-07 2.26195E-18-5.93121E-19
 -1      2860 9.50515E-05-2.82122E-05-2.86458E-05 2.01395E-07 1.00800E-18 5.85822E-19
 -1      2861 9.50032E-05-2.81792E-05-2.86394E-05 5.33482E-08 1.47575E-18-1.52828E-18
 -1      2862 9.50094E-05-2.81821E-05-2.86413E-05 1.02056E-07 2.22449E-18-1.54878E-18
 -1      2863 9.49657E-05-2.81483E-05-2.86344E-05 9.75803E-09 1.84014E-18-2.20043E-18
 -1      2864 9.50853E-05-2.82442E-05-2.86479E-05 2.38980E-07 5.98971E-19 3.10818E-18
 -1      2865 9.51264E-05-2.82830E-05-2.86471E-05 2.58626E-07-1.32939E-18 1.62799E-18
 -1      2866 9.51228E-05-2.82579E-05-2.86541E-05 3.03322E-07 1.06375E-18 1.45490E-18
 -1      2867 9.50316E-05-2.81767E-05-2.86504E-05 2.44823E-07 2.06838E-18 2.33710E-18
 -1      2868 9.50692E-05-2.82752E-05-2.86252E-05-1.33416E-07-9.09629E-19-2.43733E-18
 -1      2869 9.50463E-05-2.82497E-05-2.86286E-05-9.94537E-08 8.05663E-20-3.74478E-18
 -1      2870 9.50023E-05-2.82069E-05-2.86257E-05-1.04317E-07 9.31376E-19-5.26224E-18
 -1      2871 9.51271E-05-2.83510E-05-2.86174E-05-1.81136E-07-9.73789E-19-3.32189E-19
 -1      2872 9.51006E-05-2.83205E-05-2.86212E-05-1.62274E-07-1.27297E-18-1.18836E-18
 -1      2873 9.50664E-05-2.82922E-05-2.86174E-05-1.83789E-07-7.50663E-19-2.55888E-18
 -1      2874 9.51805E-05-2.84224E-05-2.86097E-05-1.95623E-07-7.40568E-19 2.51647E-18
 -1      2875 9.51569E-05-2.83934E-05-2.86137E-05-1.90812E-07-8.76807E-19 1.66118E-18
 -1      2876 9.51369E-05-2.83820E-05-2.86098E-05-2.21760E-07-9.47556E-19 7.77028E-19
 -1      2877 9.52218E-05-2.84811E-05-2.86025E-05-1.85241E-07-1.30090E-18-5.18401E-19
 -1      2878 9.52039E-05-2.84565E-05-2.86063E-05-1.90395E-07-1.14596E-18 1.81173E-18
 -1      2879 9.51982E-05-2.84601E-05-2.86030E-05-2.23217E-07-9.33505E-19 1.58710E-18
 -1      2880 9.52480E-05-2.85214E-05-2.85965E-05-1.60789E-07 1.41472E-19 8.39890E-19
 -1      2881 9.52364E-05-2.85034E-05-2.85997E-05-1.71092E-07-2.52828E-19-1.06108E-18
 -1      2882 9.52422E-05-2.85171E-05-2.85972E-05-1.99605E-07-9.58088E-19-2.32960E-20
 -1      2883 9.08860E-05-2.30765E-05-2.91091E-05 4.99827E-06-1.43443E-19 4.02220E-18
 -1      2884 8.98585E-05-2.18868E-05-2.91358E-05 6.11054E-06-1.20062E-18 3.43595E-18
 -1      2885 9.01294E-05-2.26595E-05-2.88577E-05 3.73976E-06-2.61203E-19 4.35118E-18
 -1      2886 9.49852E-05-2.66858E-05-2.92764E-05 1.76586E-06 4.92956E-19-2.60449E-19
 -1      2887 9.52900E-05-2.62083E-05-2.95621E-05 2.77796E-06 5.74954E-19-2.01635E-19
 -1      2888 9.52582E-05-2.65016E-05-2.94761E-05 1.71582E-06 5.13687E-19-4.57763E-19
 -1      2889 1.48033E-04-3.39372E-05-4.95712E-05-6.64877E-06-2.66911E-18-1.37135E-18
 -1      2890 1.49704E-04-4.32613E-05-4.58871E-05-8.61581E-07-2.41754E-18-8.81761E-19
 -1      2891 4.00376E-05-1.37030E-05-1.06883E-05-3.42921E-05 5.27913E-19 3.30597E-18
 -1      2892 5.32769E-05-2.37381E-05-1.22116E-05-4.52073E-05-2.75074E-19 5.92076E-19
 -1      2893 9.20327E-05-1.66395E-05-3.23152E-05-8.99939E-06-1.20698E-18-2.12248E-19
 -1      2894 2.64828E-05-4.42162E-06-8.80521E-06-1.88996E-06-7.15141E-19-1.70296E-18
 -1      2895 3.43503E-05-9.00809E-06-1.01082E-05-1.86044E-05-9.89123E-19-1.44377E-18
 -1      2896 3.20060E-05-8.99681E-06-9.39983E-06 2.69569E-05-6.09546E-19-4.09583E-18
 -1      2897 2.66534E-05-5.43731E-06-8.37165E-06 1.28386E-05-4.95594E-19-3.48215E-18
 -1      2898 1.46031E-04-3.00428E-05-5.01021E-05 8.56774E-06-2.59954E-18-2.89474E-19
 -1      2899 1.43322E-04-2.11454E-05-5.31393E-05 9.84131E-06-3.19988E-18-3.48131E-19
 -1      2900 1.47278E-04-4.89687E-05-4.23557E-05-4.17096E-06-1.22873E-18 7.08967E-19
 -1      2901 1.49013E-04-4.02394E-05-4.71747E-05 3.24401E-06-2.33103E-18-3.09167E-20
 -1      2902 1.41997E-04-3.51360E-05-4.60781E-05 8.82741E-06-2.83883E-18 1.38077E-18
 -1      2903 8.75057E-05-2.01143E-05-2.89545E-05 6.87458E-06-1.73091E-18 3.38714E-18
 -1      2904 8.55891E-05-1.83448E-05-2.88364E-05 8.38192E-06-3.23596E-19 3.82030E-18
 -1      2905 8.07401E-05-1.54056E-05-2.78579E-05 5.81215E-06-2.13016E-19 4.14665E-18
 -1      2906 8.65243E-05-1.95983E-05-2.85913E-05 4.78689E-06-1.60241E-18 4.17193E-18
 -1      2907 1.29847E-04-3.67322E-06-5.49324E-05-5.18551E-07-5.31852E-18 7.26053E-19
 -1      2908 1.38353E-04-6.87830E-06-5.68933E-05-4.96227E-06-4.69680E-18 2.03500E-19
 -1      2909 1.30204E-04-9.18060E-06-5.22765E-05-7.66267E-06-4.65000E-18 5.57242E-19
 -1      2910 6.87306E-05-3.33686E-05-1.45543E-05-4.88996E-05-8.25645E-19-4.13987E-20
 -1      2911 8.72705E-05-4.34073E-05-1.87996E-05-5.03801E-05-6.22781E-19-2.70204E-19
 -1      2912 6.68193E-05-2.76483E-05-1.62400E-05-4.38084E-05-5.07796E-19 6.35063E-19
 -1      2913 1.07281E-04-5.24276E-05-2.30425E-05-4.48217E-05-5.72806E-19 6.07164E-19
 -1      2914 1.21826E-04-5.77661E-05-2.76962E-05-3.92258E-05 6.40357E-19 2.06975E-18
 -1      2915 1.38360E-04-1.23801E-05-5.45153E-05 9.25682E-06-4.22246E-18-1.07361E-19
 -1      2916 1.31678E-04-5.88202E-06-5.47151E-05 5.75974E-06-5.03709E-18 4.33151E-19
 -1      2917 1.32910E-04-1.70948E-05-5.00242E-05 1.11906E-05-3.66162E-18 4.03135E-19
 -1      2918 1.33974E-04-5.92465E-05-3.18543E-05-2.84913E-05 1.18119E-18 2.16279E-18
 -1      2919 1.43098E-04-5.72248E-05-3.72266E-05-1.68101E-05 1.55457E-19 2.35348E-18
 -1      2920 5.99466E-05-2.65462E-05-1.39126E-05 4.60547E-05 1.05583E-18-2.80410E-18
 -1      2921 4.43255E-05-1.68410E-05-1.10208E-05 3.77478E-05 9.22207E-20-2.92226E-18
 -1      2922 9.52451E-05-2.49955E-05-3.01147E-05 3.82915E-06 6.89746E-19-3.68021E-19
 -1      2923 9.52297E-05-2.53739E-05-2.99401E-05 4.00972E-06 6.90716E-19-2.11958E-19
 -1      2924 9.12792E-05-1.63736E-05-3.20902E-05 2.65615E-08-6.45549E-20-1.16778E-18
 -1      2925 9.01584E-05-1.45869E-05-3.24072E-05-3.83593E-07-9.79558E-20-1.17587E-18
 -1      2926 9.02149E-05-1.46673E-05-3.23971E-05-1.33927E-06-1.95781E-19-1.09379E-18
 -1      2927 9.51765E-05-2.27080E-05-3.11026E-05 7.77650E-06 1.11829E-18-2.83913E-19
 -1      2928 9.42630E-05-2.09884E-05-3.14046E-05 7.79219E-06 9.57604E-19-5.00130E-19
 -1      2929 1.45549E-04-4.77351E-05-4.20964E-05 3.34599E-07-1.36073E-18-1.16075E-18
 -1      2930 9.28286E-05-1.84428E-05-3.18783E-05-7.44642E-06-1.11932E-18-2.78371E-19
 -1      2931 1.25810E-04-6.55123E-06-5.15490E-05 2.93336E-06-4.84545E-18 4.06205E-19
 -1      2932 4.23430E-05-4.60992E-06-1.57084E-05-1.52192E-05-7.03434E-19 1.70052E-18
 -1      2933 3.94756E-05-8.55112E-06-1.26087E-05-2.47223E-05 4.50727E-19 3.16303E-18
 -1      2934 5.01747E-05-1.20733E-05-1.59227E-05-2.92449E-05 8.47562E-19 2.25914E-18
 -1      2935 3.93968E-05-4.28688E-06-1.43240E-05 7.61597E-06-1.17182E-19 2.17010E-18
 -1      2936 9.52697E-05-2.85543E-05-2.85921E-05-1.21535E-07-4.04344E-19 1.47921E-18
 -1      2937 1.38854E-04-5.90762E-05-3.42757E-05 2.28209E-05-2.36057E-19-3.26743E-19
 -1      2938 1.30954E-04-5.83689E-05-3.09913E-05 2.75595E-05 9.34966E-19-1.07012E-18
 -1      2939 1.39804E-04-5.68416E-05-3.56755E-05 1.33608E-05-2.84669E-19 1.40872E-19
 -1      2940 9.54517E-05-2.48608E-05-3.02246E-05 5.18405E-06 8.64103E-19-1.76153E-19
 -1      2941 1.18218E-04-5.59181E-05-2.68105E-05 3.73204E-05 1.75849E-18-2.21478E-18
 -1      2942 1.09024E-04-5.31932E-05-2.36517E-05 4.44876E-05 1.96988E-18-2.91901E-18
 -1      2943 1.01604E-04-4.82912E-05-2.24677E-05 4.48362E-05 1.75505E-18-2.89365E-18
 -1      2944 9.52704E-05-2.85556E-05-2.85919E-05-1.41100E-07 1.14299E-18 1.87633E-18
 -1      2945 5.67397E-05-1.08910E-05-1.92939E-05-2.50399E-05-7.89276E-19-8.13999E-19
 -1      2946 4.72995E-05-4.24321E-06-1.77370E-05-1.39637E-05-7.33636E-19-6.64391E-19
 -1      2947 6.03177E-05-5.37337E-06-2.30777E-05 7.55335E-06-7.96075E-19 3.92547E-18
 -1      2948 6.25781E-05-7.15138E-06-2.37569E-05 1.56301E-05-3.81337E-19 2.92179E-18
 -1      2949 5.53671E-05-1.48879E-05-1.64206E-05 2.89406E-05 1.34890E-19 2.84529E-18
 -1      2950 9.96151E-05-4.69613E-05-2.22076E-05-4.42570E-05-2.73380E-19-8.03623E-20
 -1      2951 9.15570E-05-1.66631E-05-3.21172E-05-5.57933E-06-8.71640E-19-5.53228E-19
 -1      2952 9.20779E-05-1.74437E-05-3.20152E-05-6.37971E-06-1.00015E-18-3.70436E-19
 -1      2953 9.24264E-05-1.81850E-05-3.18014E-05-4.55513E-06-7.37675E-19-4.46195E-19
 -1      2954 9.49744E-05-2.81358E-05-2.86432E-05 1.39084E-07 2.11049E-18-7.97254E-19
 -1      2955 1.42529E-04-2.70812E-05-4.98713E-05-1.03871E-05-2.75508E-18-8.52539E-19
 -1      2956 1.38738E-04-3.22894E-05-4.58947E-05-1.02181E-05-2.21838E-18-1.79995E-20
 -1      2957 1.33867E-04-2.00573E-05-4.93340E-05-1.23915E-05-2.76059E-18-3.87729E-19
 -1      2958 7.14717E-05-3.22752E-05-1.61836E-05 4.70016E-05 1.31872E-18-3.08108E-18
 -1      2959 6.62012E-05-2.54873E-05-1.70465E-05 4.20606E-05 1.00633E-18-2.40282E-18
 -1      2960 8.29700E-05-3.76755E-05-1.91825E-05 4.58430E-05 1.84944E-18-2.64666E-18
 -1      2961 1.28636E-04-5.80276E-05-3.00523E-05-2.94000E-05 1.05657E-18 1.35568E-18
 -1      2962 9.52638E-05-2.85450E-05-2.85937E-05-1.49496E-07 6.68526E-19 9.19195E-19
 -1      2963 9.03404E-05-1.48589E-05-3.23694E-05-2.17331E-06-2.57690E-19-9.40891E-19
 -1      2964 9.05258E-05-1.51238E-05-3.23371E-05-3.12245E-06-4.45394E-19-9.09450E-19
 -1      2965 9.17725E-05-1.71415E-05-3.19696E-05-3.13362E-06-4.20678E-19-7.11913E-19
 -1      2966 9.13971E-05-1.65569E-05-3.20614E-05-1.57964E-06-2.00176E-19-8.77372E-19
 -1      2967 3.41197E-05-3.75374E-06-1.23833E-05 3.13277E-06-7.55534E-19-2.48392E-18
 -1      2968 1.44642E-04-5.39901E-05-3.89574E-05-7.66445E-06-2.68721E-19 1.47807E-18
 -1      2969 1.41216E-04-4.86133E-05-4.01185E-05 8.96219E-07-1.17926E-18 8.77261E-19
 -1      2970 1.38518E-04-5.55447E-05-3.55766E-05-1.15848E-05 2.71415E-19 2.72967E-18
 -1      2971 9.45921E-05-2.20325E-05-3.10635E-05 6.28944E-06 7.71018E-19-5.67575E-19
 -1      2972 5.74049E-05-7.20319E-06-2.11565E-05 1.78076E-05 2.30737E-19 2.83894E-18
 -1      2973 9.52756E-05-2.85624E-05-2.85918E-05-1.71081E-07 1.10438E-18 9.89641E-19
 -1      2974 4.46641E-05-1.19723E-05-1.33499E-05 2.99148E-05 6.90332E-19-2.90490E-18
 -1      2975 4.17849E-05-3.38888E-06-1.59582E-05 1.21413E-05-4.56577E-19-2.71612E-18
 -1      2976 4.14528E-05-2.18593E-06-1.64509E-05-2.52926E-06-8.08523E-19-1.29850E-18
 -1      2977 5.25657E-05-4.15521E-06-2.05133E-05-5.42832E-06-5.10040E-19-1.10083E-18
 -1      2978 9.42423E-05-2.17891E-05-3.10745E-05 4.98628E-06 7.08037E-19-9.15741E-19
 -1      2979 9.38076E-05-2.08970E-05-3.12503E-05 4.60208E-06 6.79673E-19-9.00837E-19
 -1      2980 9.53819E-05-2.79376E-05-2.89085E-05-5.22774E-07 2.22077E-19-8.41466E-19
 -1      2981 9.54352E-05-2.76827E-05-2.90234E-05-1.85160E-07 1.64719E-19-7.35129E-19
 -1      2982 1.40484E-04-4.30901E-05-4.21678E-05-5.49859E-06-1.28643E-18-8.01187E-19
 -1      2983 1.40866E-04-5.03618E-05-3.89606E-05 1.62755E-06-6.44513E-19-4.85138E-19
 -1      2984 9.52885E-05-2.85328E-05-2.86098E-05-1.17988E-06-1.06593E-19-1.08214E-18
 -1      2985 9.52960E-05-2.84319E-05-2.86506E-05-1.09196E-06-2.63741E-19-1.02914E-18
 -1      2986 9.40101E-05-2.09612E-05-3.13215E-05-6.04337E-06-9.96410E-19-1.57899E-19
 -1      2987 9.44932E-05-2.25018E-05-3.08741E-05-4.65451E-06-9.71981E-19-8.34480E-20
 -1      2988 9.55578E-05-2.58011E-05-2.98817E-05-1.78894E-06-5.53710E-19 2.04567E-19
 -1      2989 9.55933E-05-2.64541E-05-2.96424E-05-1.04892E-06-5.58911E-19 2.33931E-19
 -1      2990 9.57181E-05-2.70229E-05-2.94283E-05-5.02169E-07-4.55150E-19 2.80579E-19
 -1      2991 9.56982E-05-2.74400E-05-2.92605E-05-2.17778E-08-4.76154E-19 3.64786E-19
 -1      2992 9.57682E-05-2.63995E-05-2.97304E-05-9.03622E-07-4.31473E-19 7.36521E-20
 -1      2993 9.57305E-05-2.77975E-05-2.91045E-05 3.29018E-07-3.35256E-19 5.08615E-19
 -1      2994 9.56976E-05-2.80628E-05-2.89901E-05 6.17666E-07-1.64244E-19 6.84109E-19
 -1      2995 9.59317E-05-2.74487E-05-2.93527E-05 2.48296E-08-3.51725E-19 3.81460E-19
 -1      2996 9.56819E-05-2.82815E-05-2.88792E-05 8.21908E-07-2.45347E-19 7.91520E-19
 -1      2997 9.56524E-05-2.84473E-05-2.88037E-05 9.76984E-07-3.71488E-19 8.52542E-19
 -1      2998 9.59562E-05-2.81162E-05-2.90776E-05 6.08670E-07-1.23576E-19 4.83315E-19
 -1      2999 9.56143E-05-2.85751E-05-2.87267E-05 1.07852E-06-2.71196E-19 9.93532E-19
 -1      3000 9.55931E-05-2.86755E-05-2.86791E-05 1.14452E-06-2.74094E-19 9.78371E-19
 -1      3001 9.59104E-05-2.85268E-05-2.88819E-05 9.39157E-07-3.35599E-19 7.67237E-19
 -1      3002 9.55474E-05-2.87444E-05-2.86273E-05 1.17817E-06-5.72377E-19 8.59364E-19
 -1      3003 9.55355E-05-2.88028E-05-2.85990E-05 1.18738E-06-5.32051E-19 4.18890E-19
 -1      3004 9.58336E-05-2.87663E-05-2.87460E-05 1.09464E-06-4.85987E-19 6.04842E-19
 -1      3005 9.54914E-05-2.88359E-05-2.85652E-05 1.17901E-06-3.88990E-19 3.22134E-19
 -1      3006 9.54890E-05-2.88698E-05-2.85499E-05 1.15355E-06-3.55205E-19 4.60476E-19
 -1      3007 9.57495E-05-2.88957E-05-2.86542E-05 1.13620E-06-5.72666E-19 2.56150E-19
 -1      3008 9.54534E-05-2.88850E-05-2.85285E-05 1.12107E-06-3.84891E-19 4.62128E-19
 -1      3009 9.54615E-05-2.89087E-05-2.85213E-05 1.07480E-06-3.34079E-19-1.13361E-20
 -1      3010 9.56740E-05-2.89607E-05-2.85937E-05 1.10835E-06-4.87739E-19 1.58410E-19
 -1      3011 9.54413E-05-2.89213E-05-2.85080E-05 1.02931E-06-3.76007E-19-5.55974E-20
 -1      3012 9.54624E-05-2.89478E-05-2.85051E-05 9.69088E-07-5.24928E-19-3.96238E-19
 -1      3013 9.56209E-05-2.89987E-05-2.85546E-05 1.04103E-06-5.74080E-19-1.58394E-19
 -1      3014 9.54658E-05-2.89721E-05-2.84963E-05 9.15669E-07-4.96331E-19-1.94096E-19
 -1      3015 9.55045E-05-2.90147E-05-2.84948E-05 8.42073E-07-7.22251E-19 2.65973E-19
 -1      3016 9.56052E-05-2.90432E-05-2.85290E-05 9.51470E-07-5.02393E-19-1.47594E-19
 -1      3017 9.55424E-05-2.90657E-05-2.84883E-05 7.80042E-07-6.78722E-19 8.01642E-19
 -1      3018 9.56057E-05-2.91379E-05-2.84860E-05 6.87559E-07-5.36665E-19 9.09298E-19
 -1      3019 9.56458E-05-2.91271E-05-2.85110E-05 8.45296E-07-3.67476E-19 3.02400E-19
 -1      3020 9.56924E-05-2.92316E-05-2.84801E-05 6.10160E-07-6.24966E-19 1.23531E-18
 -1      3021 9.57889E-05-2.93473E-05-2.84757E-05 4.87069E-07-1.71912E-19 1.32208E-18
 -1      3022 9.57679E-05-2.92850E-05-2.84965E-05 7.16471E-07-5.07717E-19 1.92693E-18
 -1      3023 9.59423E-05-2.95002E-05-2.84701E-05 3.80629E-07-6.77292E-20 6.73223E-19
 -1      3024 9.60816E-05-2.96721E-05-2.84633E-05 2.08836E-07-6.29684E-20 7.14556E-19
 -1      3025 9.60036E-05-2.95534E-05-2.84839E-05 5.46157E-07-4.39924E-19 1.32697E-18
 -1      3026 9.63214E-05-2.98983E-05-2.84595E-05 5.16187E-08-1.53997E-19 4.57457E-19
 -1      3027 9.65108E-05-3.01336E-05-2.84515E-05-1.92966E-07-4.01334E-19 2.90166E-19
 -1      3028 9.63911E-05-2.99669E-05-2.84744E-05 3.00521E-07-2.98353E-19 5.11018E-19
 -1      3029 9.68547E-05-3.04398E-05-2.84531E-05-4.31525E-07-2.56045E-19 3.64773E-19
 -1      3030 9.70946E-05-3.07336E-05-2.84472E-05-7.77018E-07-1.62052E-19 7.57555E-19
 -1      3031 9.69686E-05-3.05504E-05-2.84737E-05-7.16799E-08-2.90669E-19 8.63908E-19
 -1      3032 9.75497E-05-3.11096E-05-2.84613E-05-1.13514E-06 2.25195E-20 9.77695E-19
 -1      3033 9.78256E-05-3.14340E-05-2.84636E-05-1.60847E-06 2.17020E-19 1.01511E-18
 -1      3034 9.77630E-05-3.13025E-05-2.84932E-05-6.39681E-07-1.32984E-19 1.38031E-18
 -1      3035 9.83754E-05-3.18399E-05-2.85007E-05-2.12616E-06 4.80299E-19 7.81444E-19
 -1      3036 9.86493E-05-3.21326E-05-2.85204E-05-2.74237E-06 6.51844E-19 1.10294E-18
 -1      3037 9.87680E-05-3.21707E-05-2.85518E-05-1.48524E-06 3.65212E-19 1.31103E-18
 -1      3038 9.92370E-05-3.24846E-05-2.85950E-05-3.44653E-06 5.99488E-19 1.05430E-18
 -1      3039 9.94402E-05-3.26402E-05-2.86436E-05-4.19064E-06 4.07845E-19 1.34024E-18
 -1      3040 9.99145E-05-3.30193E-05-2.86767E-05-2.68383E-06 8.74223E-19 1.21820E-18
 -1      3041 9.99544E-05-3.28033E-05-2.87715E-05-5.06664E-06 3.22824E-19 1.58584E-18
 -1      3042 9.99907E-05-3.26793E-05-2.88607E-05-5.86815E-06 3.70105E-19 1.29809E-18
 -1      3043 1.01037E-04-3.36029E-05-2.89010E-05-4.26253E-06 5.13949E-19 1.57478E-18
 -1      3044 1.00269E-04-3.24826E-05-2.90553E-05-6.81872E-06-4.82089E-20 1.11901E-18
 -1      3045 1.00039E-04-3.19345E-05-2.91922E-05-7.52777E-06-4.50434E-19 8.99040E-19
 -1      3046 1.01860E-04-3.35692E-05-2.92572E-05-6.12776E-06-3.73471E-20 1.34592E-18
 -1      3047 9.99102E-05-3.12257E-05-2.94560E-05-8.33253E-06-6.25978E-19 1.28188E-18
 -1      3048 9.93626E-05-3.01860E-05-2.96365E-05-8.71545E-06-2.59386E-19 8.92166E-19
 -1      3049 1.02038E-04-3.25370E-05-2.97642E-05-7.97515E-06-3.37061E-19 1.09722E-18
 -1      3050 9.87446E-05-2.89423E-05-2.99500E-05-9.04012E-06-2.66737E-20 4.06614E-19
 -1      3051 9.79392E-05-2.75168E-05-3.01527E-05-8.83392E-06 8.09760E-20 8.54593E-19
 -1      3052 1.01298E-04-3.02887E-05-3.04053E-05-9.23479E-06-5.19763E-19 8.54210E-19
 -1      3053 9.69502E-05-2.59478E-05-3.04685E-05-8.32926E-06 2.92564E-19 9.31683E-19
 -1      3054 9.60910E-05-2.44735E-05-3.06543E-05-7.35396E-06 2.48063E-19 7.64148E-19
 -1      3055 9.96597E-05-2.70272E-05-3.11074E-05-9.17436E-06 3.89073E-19 6.87815E-19
 -1      3056 9.51076E-05-2.30579E-05-3.09048E-05-5.86588E-06-1.07868E-19-1.00586E-19
 -1      3057 9.44931E-05-2.20215E-05-3.10272E-05-4.18318E-06 2.47952E-19-3.94677E-19
 -1      3058 9.76197E-05-2.35527E-05-3.17413E-05-7.20650E-06-4.79437E-19-4.06611E-19
 -1      3059 9.39781E-05-2.13042E-05-3.11458E-05-1.94492E-06 4.82565E-19-7.60551E-19
 -1      3060 9.38536E-05-2.11084E-05-3.11689E-05 9.82237E-08-1.18070E-19-7.09227E-19
 -1      3061 9.60554E-05-2.10680E-05-3.21561E-05-3.37900E-06 1.27237E-19-1.40514E-18
 -1      3062 9.40856E-05-2.14098E-05-3.11201E-05 2.49129E-06-1.47326E-19-6.79795E-19
 -1      3063 9.45055E-05-2.21375E-05-3.10366E-05 4.37250E-06 2.19729E-19-3.40698E-19
 -1      3064 9.57461E-05-2.05852E-05-3.22343E-05 1.43070E-06-1.76669E-20-2.15275E-18
 -1      3065 9.53595E-05-2.33206E-05-3.08351E-05 6.23863E-06 2.62597E-20-5.43387E-20
 -1      3066 9.61468E-05-2.46744E-05-3.06706E-05 7.51614E-06-7.02410E-19 2.44817E-19
 -1      3067 9.68614E-05-2.23242E-05-3.19524E-05 5.81891E-06 2.63254E-19-1.69580E-18
 -1      3068 9.71927E-05-2.62453E-05-3.03735E-05 8.44746E-06-7.24921E-19 7.00764E-19
 -1      3069 9.80521E-05-2.77387E-05-3.01731E-05 8.94924E-06 9.29503E-21 1.47874E-18
 -1      3070 9.88181E-05-2.55361E-05-3.13926E-05 8.61173E-06-2.17309E-20-5.24417E-19
 -1      3071 9.88511E-05-2.91597E-05-2.98522E-05 8.94857E-06 1.80196E-19 2.21502E-18
 -1      3072 9.95266E-05-3.03764E-05-2.96603E-05 8.77563E-06 6.10798E-20 1.70951E-18
 -1      3073 1.00709E-04-2.90076E-05-3.07015E-05 9.42420E-06 2.67838E-19 1.18680E-18
 -1      3074 9.98492E-05-3.13142E-05-2.93738E-05 8.13502E-06-4.63151E-19 1.19040E-18
 -1      3075 1.00218E-04-3.20556E-05-2.92196E-05 7.53745E-06-4.01778E-19 3.12934E-19
 -1      3076 1.01847E-04-3.17260E-05-3.00258E-05 8.63088E-06-5.14930E-19 1.03183E-18
 -1      3077 1.00080E-04-3.24484E-05-2.89975E-05 6.61784E-06-9.59516E-19-7.80533E-20
 -1      3078 1.00152E-04-3.27242E-05-2.88914E-05 5.84961E-06-8.90522E-19-1.04482E-18
 -1      3079 1.02024E-04-3.32430E-05-2.94628E-05 6.95989E-06-1.19542E-18 2.61131E-19
 -1      3080 9.97047E-05-3.26842E-05-2.87389E-05 4.92591E-06-6.07526E-19-1.81374E-18
 -1      3081 9.95648E-05-3.26180E-05-2.86775E-05 4.17076E-06-7.54741E-19-2.41227E-18
 -1      3082 1.01422E-04-3.36354E-05-2.90489E-05 5.07141E-06-1.24857E-18-1.63543E-19
 -1      3083 9.89822E-05-3.23170E-05-2.85851E-05 3.39165E-06-6.05665E-19-1.99419E-18
 -1      3084 9.87319E-05-3.20578E-05-2.85582E-05 2.74847E-06 1.48636E-19-2.34305E-18
 -1      3085 1.00378E-04-3.32439E-05-2.87778E-05 3.37895E-06-6.73187E-19-2.08879E-18
 -1      3086 9.81483E-05-3.16494E-05-2.85105E-05 2.16136E-06 9.75064E-19-2.45005E-18
 -1      3087 9.78694E-05-3.13191E-05-2.85061E-05 1.66376E-06 1.11289E-18-3.10099E-18
 -1      3088 9.92054E-05-3.24461E-05-2.86213E-05 2.05499E-06 1.18798E-19-2.96744E-18
 -1      3089 9.73623E-05-3.09087E-05-2.84876E-05 1.25736E-06 1.80565E-18-2.61903E-18
 -1      3090 9.71059E-05-3.05865E-05-2.84956E-05 8.99906E-07 9.67762E-19-1.48283E-18
 -1      3091 9.81147E-05-3.15350E-05-2.85452E-05 1.11441E-06 1.56557E-18-1.66619E-18
 -1      3092 9.67056E-05-3.02309E-05-2.84938E-05 6.38608E-07 3.66753E-19-8.65311E-19
 -1      3093 9.64953E-05-2.99572E-05-2.85068E-05 3.98035E-07 2.03614E-19-9.64116E-20
 -1      3094 9.72115E-05-3.06896E-05-2.85192E-05 4.96739E-07 1.09646E-18-1.96976E-19
 -1      3095 9.62014E-05-2.96774E-05-2.85129E-05 2.42376E-07-6.06712E-19 4.18352E-19
 -1      3096 9.60423E-05-2.94652E-05-2.85264E-05 9.09471E-08 6.65440E-19 3.17627E-19
 -1      3097 9.65228E-05-2.99931E-05-2.85206E-05 1.20576E-07 2.75393E-19 1.02961E-18
 -1      3098 9.58392E-05-2.92602E-05-2.85352E-05 6.98391E-09 1.01670E-18-3.80126E-19
 -1      3099 9.57260E-05-2.91066E-05-2.85467E-05-8.07358E-08-2.00785E-19-6.60142E-19
 -1      3100 9.60310E-05-2.94648E-05-2.85342E-05-8.88505E-08 3.07760E-19 7.71787E-19
 -1      3101 9.55929E-05-2.89651E-05-2.85554E-05-1.18809E-07-1.58420E-19 4.58107E-19
 -1      3102 9.55163E-05-2.88597E-05-2.85643E-05-1.63383E-07 1.38656E-19 1.15137E-18
 -1      3103 9.56991E-05-2.90891E-05-2.85512E-05-1.90068E-07 6.07935E-19 1.92540E-19
 -1      3104 9.54335E-05-2.87672E-05-2.85716E-05-1.73142E-07-4.93521E-19 1.75674E-18
 -1      3105 9.53838E-05-2.86981E-05-2.85779E-05-1.90112E-07-2.80093E-19 1.53353E-18
 -1      3106 9.54864E-05-2.88353E-05-2.85672E-05-2.24529E-07-2.86533E-20 2.01114E-18
 -1      3107 9.53361E-05-2.86422E-05-2.85833E-05-1.84871E-07-1.60147E-19 1.51739E-18
 -1      3108 9.53043E-05-2.85974E-05-2.85876E-05-1.84321E-07 8.64132E-19 1.55297E-18
 -1      3109 9.52848E-05-2.85749E-05-2.85903E-05-1.99278E-07 4.86683E-19 1.01397E-18
 -1      3110 9.53589E-05-2.86742E-05-2.85802E-05-2.21352E-07 2.61409E-19 1.48948E-18
 -1      3111 9.53316E-05-2.83085E-05-2.87258E-05-9.57980E-07-7.27973E-20-8.30132E-19
 -1      3112 9.53595E-05-2.81474E-05-2.87965E-05-7.72952E-07 1.57683E-19-7.84236E-19
 -1      3113 9.56941E-05-2.79795E-05-2.90254E-05-5.30266E-07 1.11122E-19-7.32763E-19
 -1      3114 6.06582E-05-6.37974E-06-2.32579E-05 4.13538E-07-1.59561E-18 2.51571E-18
 -1      3115 5.51031E-05-4.65237E-06-2.14222E-05 3.59672E-07-8.72603E-19 2.46884E-18
 -1      3116 9.52344E-05-2.86752E-05-2.85238E-05-1.26107E-06 5.24878E-19-6.75887E-19
 -1      3117 9.52191E-05-2.86592E-05-2.85248E-05-1.26521E-06 2.00612E-19-6.64905E-19
 -1      3118 9.52095E-05-2.86440E-05-2.85261E-05-1.23883E-06 8.03156E-19-4.67303E-19
 -1      3119 9.51927E-05-2.86576E-05-2.85156E-05-1.24929E-06 7.96836E-19-3.36856E-19
 -1      3120 9.54313E-05-2.87362E-05-2.85851E-05-1.24251E-06 5.22259E-19-6.29266E-19
 -1      3121 9.51703E-05-2.85508E-05-2.85488E-05-1.22744E-06 5.56838E-19 1.33204E-20
 -1      3122 9.51590E-05-2.85948E-05-2.85294E-05-1.22587E-06 7.59615E-19-3.05690E-20
 -1      3123 9.53430E-05-2.86700E-05-2.85747E-05-1.22460E-06 6.13352E-19 7.07493E-21
 -1      3124 9.50967E-05-2.83844E-05-2.85883E-05-1.25858E-06-1.84675E-19 4.37193E-19
 -1      3125 9.51005E-05-2.84656E-05-2.85610E-05-1.22806E-06 3.21515E-19 1.74153E-19
 -1      3126 9.52268E-05-2.85263E-05-2.85852E-05-1.21492E-06 2.73118E-19 1.82092E-19
 -1      3127 9.49560E-05-2.81181E-05-2.86421E-05-1.36244E-06-2.71528E-19 3.92950E-19
 -1      3128 9.49900E-05-2.82510E-05-2.86074E-05-1.28538E-06-1.00650E-19 3.64463E-19
 -1      3129 9.50557E-05-2.82895E-05-2.86117E-05-1.24003E-06-1.30330E-19 1.45247E-19
 -1      3130 9.46944E-05-2.77042E-05-2.87076E-05-1.57019E-06-1.27953E-19 4.52011E-20
 -1      3131 9.47840E-05-2.79140E-05-2.86660E-05-1.42663E-06-3.74260E-19 2.39212E-19
 -1      3132 9.47857E-05-2.79253E-05-2.86493E-05-1.32131E-06-1.98906E-19-1.80724E-19
 -1      3133 9.42221E-05-2.70659E-05-2.87799E-05-1.91428E-06 2.42031E-20 6.29141E-19
 -1      3134 9.44109E-05-2.73932E-05-2.87329E-05-1.68122E-06 1.19769E-19 6.28294E-19
 -1      3135 9.43452E-05-2.73750E-05-2.86920E-05-1.47451E-06-3.15192E-19 4.64671E-19
 -1      3136 9.33950E-05-2.60893E-05-2.88469E-05-2.42539E-06 4.07039E-19 4.18972E-19
 -1      3137 9.37541E-05-2.65942E-05-2.87996E-05-2.07764E-06 3.45988E-19 5.83484E-19
 -1      3138 9.36198E-05-2.65479E-05-2.87282E-05-1.70550E-06 2.67770E-19 8.87581E-19
 -1      3139 9.18801E-05-2.45182E-05-2.88776E-05-3.15975E-06 5.04211E-19 6.96693E-22
 -1      3140 9.25839E-05-2.53349E-05-2.88457E-05-2.64747E-06 5.72269E-19 1.22241E-19
 -1      3141 9.23912E-05-2.52787E-05-2.87346E-05-2.00831E-06 6.06949E-19 4.59512E-19
 -1      3142 8.94296E-05-2.22777E-05-2.88022E-05-4.02350E-06-3.40008E-19 1.01758E-18
 -1      3143 9.06086E-05-2.34402E-05-2.88234E-05-3.39220E-06-3.89896E-20 6.16781E-19
 -1      3144 9.03857E-05-2.33995E-05-2.86600E-05-2.30689E-06-2.43793E-19 8.17566E-19
 -1      3145 8.54418E-05-1.90822E-05-2.84854E-05-4.94947E-06 4.27312E-19 1.07440E-18
 -1      3146 8.74258E-05-2.07340E-05-2.86349E-05-4.21068E-06 1.32633E-19 1.14143E-18
 -1      3147 8.72560E-05-2.07747E-05-2.84140E-05-2.45601E-06-1.42238E-19 6.38805E-19
 -1      3148 7.91323E-05-1.47906E-05-2.76496E-05-5.72554E-06-3.72291E-19 6.61567E-19
 -1      3149 8.23452E-05-1.69812E-05-2.80853E-05-4.96745E-06 2.67064E-19 8.07349E-19
 -1      3150 8.23887E-05-1.71910E-05-2.78150E-05-2.19002E-06 3.08633E-19 5.34557E-19
 -1      3151 6.96717E-05-9.55283E-06-2.58278E-05-6.02620E-06-8.42268E-20-3.42645E-19
 -1      3152 7.44562E-05-1.21622E-05-2.67862E-05-5.36852E-06-1.87528E-19-5.79688E-21
 -1      3153 7.50159E-05-1.26381E-05-2.65166E-05-1.06162E-06 2.60959E-19 4.03487E-19
 -1      3154 5.93130E-05-5.53659E-06-2.29332E-05-4.69904E-06-3.46304E-19-6.60209E-19
 -1      3155 6.89202E-05-1.72910E-05-2.10873E-05-3.30488E-05-1.41402E-18-3.07685E-19
 -1      3156 4.52848E-05-1.07004E-05-1.43235E-05-2.27493E-05-1.20919E-18-1.03444E-18
 -1      3157 5.41302E-05-9.51623E-06-1.87747E-05 2.55076E-05 7.69794E-19 2.31409E-18
 -1      3158 9.41348E-05-2.70215E-05-2.87725E-05 1.07773E-06 8.41156E-19 2.63935E-18
 -1      3159 9.38445E-05-2.66599E-05-2.87972E-05 1.30010E-06 1.65177E-18 2.56234E-18
 -1      3160 9.19896E-05-2.48743E-05-2.87845E-05 1.78759E-06 8.40151E-19 8.29159E-19
 -1      3161 9.11320E-05-2.40407E-05-2.87729E-05 2.12338E-06 7.23580E-19 1.70116E-18
 -1      3162 9.46160E-05-2.75758E-05-2.87379E-05 8.03565E-07-1.10111E-18 3.87198E-18
 -1      3163 9.44535E-05-2.73441E-05-2.87623E-05 9.70803E-07-2.04423E-19 2.65815E-18
 -1      3164 9.40523E-05-2.69961E-05-2.87273E-05 8.04484E-07-5.72685E-20 2.23402E-18
 -1      3165 9.48955E-05-2.79290E-05-2.87042E-05 5.90593E-07 1.30425E-18 1.99070E-18
 -1      3166 9.48081E-05-2.77836E-05-2.87249E-05 7.12784E-07 8.06874E-19 3.05338E-18
 -1      3167 9.45456E-05-2.75428E-05-2.87086E-05 6.37301E-07-1.10971E-19 1.95035E-18
 -1      3168 9.50528E-05-2.81466E-05-2.86759E-05 4.28317E-07 2.38618E-18 3.42318E-19
 -1      3169 9.50081E-05-2.80584E-05-2.86920E-05 5.16435E-07 1.41503E-18 1.58251E-18
 -1      3170 9.48393E-05-2.78963E-05-2.86863E-05 4.89852E-07 1.98398E-18 2.23564E-18
 -1      3171 9.50960E-05-2.82255E-05-2.86594E-05 3.34212E-07 1.22335E-18 8.52135E-19
 -1      3172 9.50896E-05-2.81912E-05-2.86692E-05 3.90399E-07 2.01642E-18 5.50196E-19
 -1      3173 9.49811E-05-2.80841E-05-2.86691E-05 3.84344E-07 1.90137E-18 3.07274E-18
 -1      3174 9.50430E-05-2.81784E-05-2.86579E-05 3.14649E-07 9.24996E-19 3.46095E-18
 -1      3175 9.51596E-05-2.84177E-05-2.86021E-05-2.74000E-07 9.47999E-19 1.35220E-18
 -1      3176 9.51191E-05-2.83754E-05-2.86056E-05-2.66991E-07 7.38082E-19-4.88147E-19
 -1      3177 9.50675E-05-2.83081E-05-2.86095E-05-2.51839E-07 2.34062E-19-1.82757E-18
 -1      3178 9.50235E-05-2.82630E-05-2.86135E-05-2.22856E-07 4.92027E-19-3.28131E-18
 -1      3179 9.50832E-05-2.83483E-05-2.86015E-05-3.12172E-07 2.01553E-18-8.39425E-19
 -1      3180 9.49735E-05-2.81945E-05-2.86183E-05-1.77447E-07 7.28291E-19-5.95889E-18
 -1      3181 9.49389E-05-2.81574E-05-2.86227E-05-1.26034E-07 9.07921E-19-5.89146E-18
 -1      3182 9.49669E-05-2.82090E-05-2.86103E-05-2.52649E-07 1.27395E-18-4.60032E-18
 -1      3183 9.52326E-05-2.85056E-05-2.85961E-05-2.54857E-07-3.84077E-19 1.46402E-18
 -1      3184 9.52017E-05-2.84712E-05-2.85991E-05-2.65154E-07-3.36681E-19 1.80873E-18
 -1      3185 9.51887E-05-2.84710E-05-2.85948E-05-3.13093E-07 1.20433E-18 9.02450E-19
 -1      3186 9.52727E-05-2.85569E-05-2.85917E-05-2.20069E-07 2.34221E-19 3.35957E-19
 -1      3187 9.52532E-05-2.85337E-05-2.85941E-05-2.38295E-07-6.90032E-19 9.58173E-19
 -1      3188 9.52610E-05-2.85534E-05-2.85901E-05-2.80271E-07 6.50768E-19 7.88147E-19
 -1      3189 9.53021E-05-2.85998E-05-2.85870E-05-2.36280E-07 8.69160E-19 9.54365E-19
 -1      3190 1.22028E-04-7.84614E-06-4.94729E-05-6.93597E-06-5.12921E-18 1.17256E-18
 -1      3191 1.28847E-04-1.31306E-05-5.00166E-05-1.09029E-05-3.96306E-18 7.82235E-19
 -1      3192 1.27105E-04-1.82550E-05-4.69745E-05-1.18847E-05-3.13021E-18 3.68195E-19
 -1      3193 5.66156E-05-1.54014E-05-1.73157E-05 3.22828E-05 1.19167E-18-1.52551E-18
 -1      3194 4.60638E-05-7.77070E-06-1.60062E-05 2.17989E-05 3.37622E-19-2.61786E-18
 -1      3195 5.35328E-05-7.43369E-06-1.94118E-05 1.53014E-05-2.04744E-20-1.71937E-18
 -1      3196 8.98292E-05-2.29682E-05-2.86845E-05 2.13561E-06 1.97560E-19 1.72593E-18
 -1      3197 8.84117E-05-2.17537E-05-2.86042E-05 2.48182E-06-6.23085E-19 1.93302E-18
 -1      3198 8.98977E-05-2.31444E-05-2.85608E-05 1.01550E-06 7.18774E-19-1.11922E-19
 -1      3199 9.53906E-05-2.63672E-05-2.95948E-05 1.43963E-06 4.52098E-19-7.50110E-19
 -1      3200 9.54442E-05-2.57412E-05-2.98604E-05 2.35484E-06 5.94962E-19-7.25578E-19
 -1      3201 9.49059E-05-2.81045E-05-2.86288E-05-5.29731E-08 8.72407E-20-3.74080E-18
 -1      3202 9.48937E-05-2.80858E-05-2.86336E-05 1.40693E-08 1.19449E-18-1.43365E-18
 -1      3203 9.48712E-05-2.80839E-05-2.86216E-05-1.29717E-07-1.35984E-19-4.22250E-18
 -1      3204 6.77874E-05-2.88846E-05-1.63178E-05-3.63887E-05-7.14684E-19 1.96723E-19
 -1      3205 7.27858E-05-1.16001E-05-2.62558E-05 1.66804E-06 1.71326E-19 2.11764E-18
 -1      3206 6.73023E-05-8.99160E-06-2.50304E-05 1.18670E-06-6.71737E-19 1.75913E-18
 -1      3207 9.48919E-05-2.80651E-05-2.86409E-05 1.02269E-07 1.33764E-18 2.34101E-19
 -1      3208 9.49114E-05-2.80724E-05-2.86460E-05 1.72273E-07-3.20714E-20 6.22369E-19
 -1      3209 9.48308E-05-2.80077E-05-2.86359E-05 4.28981E-08 2.57289E-19-1.01126E-18
 -1      3210 1.20854E-04-8.04830E-06-4.87165E-05 6.60812E-06-3.91848E-18 2.65651E-19
 -1      3211 1.19295E-04-6.25125E-06-4.88884E-05 1.85173E-07-4.41982E-18 1.26323E-18
 -1      3212 9.52577E-05-2.86431E-05-2.85482E-05-1.25739E-06-3.55256E-20-9.23007E-19
 -1      3213 9.52499E-05-2.85925E-05-2.85646E-05-1.23295E-06-4.30307E-20-1.11234E-18
 -1      3214 9.55070E-05-2.87252E-05-2.86231E-05-1.23525E-06 8.69682E-21-1.14846E-18
 -1      3215 9.50745E-05-2.38816E-05-3.05004E-05-3.63166E-06-8.42097E-19 1.28900E-19
 -1      3216 9.52625E-05-2.49062E-05-3.01686E-05-2.57158E-06-6.53717E-19 1.69170E-19
 -1      3217 9.44763E-05-2.23583E-05-3.08991E-05-4.07043E-06-7.49611E-19-7.20383E-20
 -1      3218 9.54183E-05-2.73304E-05-2.91871E-05 2.39663E-07 1.16017E-19-7.41807E-19
 -1      3219 9.54982E-05-2.69358E-05-2.93633E-05 8.14322E-07 2.69022E-19-6.80610E-19
 -1      3220 9.56040E-05-2.63050E-05-2.97152E-05 1.30430E-06 4.47632E-19-9.20717E-19
 -1      3221 9.56887E-05-2.73074E-05-2.93111E-05 1.81133E-07 1.97640E-19-6.89440E-19
 -1      3222 4.92795E-05-4.83764E-06-1.84594E-05 1.54518E-05-2.20493E-20 2.69706E-18
 -1      3223 1.38471E-04-3.92346E-05-4.26009E-05 8.73890E-06-2.36343E-18 6.84932E-19
 -1      3224 1.34418E-04-3.05676E-05-4.50491E-05 1.18977E-05-2.49319E-18 3.65389E-19
 -1      3225 9.23631E-05-1.83213E-05-3.17475E-05 1.80306E-06 1.21332E-19-1.13339E-18
 -1      3226 9.22422E-05-1.81178E-05-3.17794E-05 1.05165E-06-4.87616E-20-1.17531E-18
 -1      3227 1.22290E-04-5.54149E-05-2.83103E-05-3.05900E-05 6.97293E-19 1.36026E-18
 -1      3228 1.31049E-04-5.73996E-05-3.18257E-05-2.19667E-05 1.08660E-18 2.89121E-18
 -1      3229 4.50360E-05-1.69720E-05-1.14524E-05-2.78373E-05-1.32031E-18-9.31524E-19
 -1      3230 9.22325E-05-4.08080E-05-2.15518E-05-4.25839E-05-2.91009E-19-6.20928E-19
 -1      3231 1.08573E-04-5.03918E-05-2.51581E-05-3.89174E-05 3.28278E-19 7.09549E-19
 -1      3232 9.33254E-05-2.61672E-05-2.87964E-05 1.41263E-06 1.20043E-18 1.99713E-18
 -1      3233 9.28203E-05-2.56120E-05-2.88129E-05 1.69600E-06 7.26925E-19 8.79525E-19
 -1      3234 9.32454E-05-2.61658E-05-2.87300E-05 9.70367E-07 6.27658E-19 7.35298E-19
 -1      3235 1.30498E-04-2.22058E-05-4.66695E-05 1.32740E-05-2.23278E-18-1.68612E-19
 -1      3236 1.24652E-04-1.42428E-05-4.78412E-05 1.12037E-05-3.44901E-18-1.86400E-19
 -1      3237 1.27975E-04-2.75422E-05-4.32894E-05 1.27403E-05-1.70058E-18-1.05935E-18
 -1      3238 6.31967E-05-2.20333E-05-1.72441E-05-3.86419E-05-5.52689E-20 1.51799E-18
 -1      3239 7.64287E-05-3.16513E-05-1.91242E-05-4.34038E-05-1.02957E-18-9.81499E-20
 -1      3240 4.40309E-05-2.27081E-06-1.75439E-05 8.01219E-07-5.34059E-19 2.28572E-18
 -1      3241 4.71171E-05-3.69225E-06-1.81245E-05-6.85437E-06-1.15185E-18 1.35006E-18
 -1      3242 9.54358E-05-2.45515E-05-3.03473E-05 5.71370E-06 9.50970E-19-1.25543E-19
 -1      3243 1.36089E-04-4.94284E-05-3.72029E-05-9.01137E-08 3.16684E-19-2.98579E-20
 -1      3244 1.39259E-04-5.38665E-05-3.68004E-05 6.52163E-06-2.44529E-19 2.49081E-19
 -1      3245 1.34789E-04-5.50459E-05-3.42462E-05 1.15798E-05 3.24367E-19-1.22449E-19
 -1      3246 9.56446E-05-2.83875E-05-2.88285E-05-9.46913E-07-4.96413E-20-1.01995E-18
 -1      3247 9.27794E-05-1.90355E-05-3.16241E-05 3.11010E-06 4.55833E-19-9.51293E-19
 -1      3248 9.25391E-05-1.86171E-05-3.16916E-05 2.41036E-06 2.59150E-19-1.05741E-18
 -1      3249 9.33479E-05-1.99873E-05-3.14212E-05 1.79180E-06 1.24751E-19-9.28933E-19
 -1      3250 9.43436E-05-2.19684E-05-3.09930E-05 3.61094E-06 6.21550E-19-9.32054E-19
 -1      3251 9.34290E-05-2.02000E-05-3.14094E-05 4.22893E-06 5.90339E-19-1.00673E-18
 -1      3252 9.30691E-05-1.95354E-05-3.15230E-05 3.63835E-06 5.16456E-19-1.01377E-18
 -1      3253 5.23440E-05-6.06028E-06-1.96195E-05-1.37296E-05-7.65695E-19 1.52222E-18
 -1      3254 1.25189E-04-5.71092E-05-2.90580E-05 3.05859E-05 1.80688E-18-1.26483E-18
 -1      3255 1.17476E-04-5.33572E-05-2.73283E-05 3.28581E-05 2.12579E-18-1.57569E-18
 -1      3256 1.29065E-04-5.66332E-05-3.11062E-05 2.21126E-05 1.43297E-18-8.57621E-19
 -1      3257 6.37535E-05-8.06246E-06-2.35805E-05-5.22376E-06-8.36842E-19-4.17217E-19
 -1      3258 9.53488E-05-2.47881E-05-3.02368E-05-2.25957E-06-5.83529E-19 1.42039E-19
 -1      3259 6.09725E-05-6.70934E-06-2.29365E-05 2.37982E-06 2.57452E-20-9.00542E-19
 -1      3260 9.19468E-05-2.49313E-05-2.86910E-05 1.07832E-06 7.18711E-19 3.19154E-19
 -1      3261 8.79939E-05-3.57858E-05-2.20468E-05-3.89693E-05 2.48816E-20-1.09670E-18
 -1      3262 1.19177E-04-1.30953E-05-4.57413E-05 8.84674E-06-3.10374E-18-3.40269E-20
 -1      3263 9.51352E-05-2.42241E-05-3.03889E-05 2.98424E-06 6.70035E-19-9.56116E-19
 -1      3264 9.50960E-05-2.43947E-05-3.03061E-05 3.32159E-06 7.06129E-19-7.59828E-19
 -1      3265 1.14806E-04-5.09117E-05-2.71828E-05-3.11587E-05 3.58983E-19 7.22830E-19
 -1      3266 1.17832E-04-7.70759E-06-4.76280E-05-3.16319E-06-4.76514E-18 1.17029E-18
 -1      3267 1.16323E-04-1.01856E-05-4.57465E-05-6.39823E-06-4.32829E-18 1.67423E-18
 -1      3268 1.13596E-04-8.50523E-06-4.52098E-05-2.53519E-07-4.31172E-18 1.31851E-18
 -1      3269 9.49506E-05-2.81018E-05-2.86512E-05 2.30702E-07 3.47857E-19 1.23624E-18
 -1      3270 9.49904E-05-2.81316E-05-2.86545E-05 2.73816E-07 4.63666E-19 2.91242E-18
 -1      3271 9.49582E-05-2.80868E-05-2.86589E-05 3.04230E-07 3.12007E-19 2.83704E-18
 -1      3272 9.48684E-05-2.80144E-05-2.86495E-05 2.02683E-07-2.91838E-20 1.10118E-18
 -1      3273 6.36772E-05-1.97887E-05-1.83631E-05 3.46275E-05 1.24432E-18-2.38472E-18
 -1      3274 6.43301E-05-1.61408E-05-2.03715E-05 2.77940E-05 8.33189E-19-1.88047E-18
 -1      3275 7.23052E-05-2.49271E-05-2.01005E-05 3.63646E-05 1.14704E-18-2.74343E-18
 -1      3276 9.21810E-05-1.80168E-05-3.17977E-05 4.04788E-07-8.64882E-20-1.21393E-18
 -1      3277 9.21771E-05-1.80116E-05-3.17981E-05-3.60647E-07-1.11790E-19-1.05073E-18
 -1      3278 9.31323E-05-1.95974E-05-3.14973E-05 6.22680E-07-1.11588E-19-1.08826E-18
 -1      3279 9.49293E-05-2.32822E-05-3.06836E-05 4.59195E-06 6.92474E-19-6.98073E-19
 -1      3280 9.31554E-05-4.23141E-05-2.13792E-05 4.41113E-05 1.74478E-18-2.88444E-18
 -1      3281 8.51305E-05-3.55544E-05-2.10310E-05 4.15585E-05 1.19320E-18-2.96657E-18
 -1      3282 1.02224E-04-4.61177E-05-2.39534E-05 3.92041E-05 1.54949E-18-3.20766E-18
 -1      3283 1.30638E-04-3.04836E-05-4.33153E-05-1.26978E-05-1.70000E-18 6.49701E-19
 -1      3284 1.36935E-04-3.72265E-05-4.29367E-05-9.86373E-06-1.66484E-18 2.86085E-19
 -1      3285 1.33548E-04-4.07893E-05-3.99327E-05-7.84328E-06-8.26228E-19 9.89387E-19
 -1      3286 7.73913E-05-1.41420E-05-2.71891E-05 2.64574E-06-2.23438E-19 2.38601E-18
 -1      3287 7.45350E-05-1.29015E-05-2.62572E-05-1.98722E-06-6.41120E-19 7.04003E-19
 -1      3288 8.10554E-05-1.64235E-05-2.77546E-05 2.52960E-06-1.12752E-18 3.41633E-18
 -1      3289 9.25144E-05-1.85817E-05-3.16956E-05-2.36658E-06-2.94148E-19-6.37147E-19
 -1      3290 9.27446E-05-1.89831E-05-3.16297E-05-3.07221E-06-4.90050E-19-5.21019E-19
 -1      3291 9.55785E-05-2.86211E-05-2.86993E-05-1.15797E-06-9.67571E-20-1.33945E-18
 -1      3292 9.26719E-05-1.84297E-05-3.18115E-05-6.40521E-06-9.87336E-19-3.53254E-19
 -1      3293 1.34372E-04-5.60302E-05-3.34917E-05-1.40760E-05 1.10949E-18 2.13709E-18
 -1      3294 1.33935E-04-5.28745E-05-3.50562E-05-6.01861E-06 5.29058E-19 4.31497E-19
 -1      3295 1.28243E-04-5.43108E-05-3.16756E-05-1.64700E-05 1.59626E-18 1.86204E-18
 -1      3296 9.37269E-05-2.07334E-05-3.12671E-05-2.79705E-06-4.73827E-19-3.54903E-19
 -1      3297 9.30246E-05-1.94688E-05-3.15310E-05-3.60669E-06-6.02824E-19-3.57036E-19
 -1      3298 9.33713E-05-2.00705E-05-3.14199E-05-4.20099E-06-7.15313E-19-3.11917E-19
 -1      3299 1.36205E-04-4.41148E-05-3.96579E-05 4.82798E-06-1.03372E-18 2.41881E-19
 -1      3300 8.63657E-05-2.02133E-05-2.83901E-05 2.31958E-06-1.50481E-18 2.01650E-18
 -1      3301 8.40598E-05-1.84868E-05-2.81524E-05 2.58877E-06-1.48948E-18 2.56821E-18
 -1      3302 8.66823E-05-2.06160E-05-2.82412E-05 5.76873E-07-4.82942E-19-1.57944E-19
 -1      3303 5.90757E-05-1.64268E-05-1.78549E-05-3.21682E-05 5.78947E-19 2.49308E-18
 -1      3304 6.85488E-05-2.02723E-05-2.03956E-05-3.17827E-05 5.60895E-19 1.28450E-18
 -1      3305 5.61298E-05-1.10551E-05-1.91538E-05-2.36317E-05-2.14392E-19 1.49628E-18
 -1      3306 9.46255E-05-2.24418E-05-3.09323E-05 5.70036E-06 7.14249E-19-5.78604E-19
 -1      3307 1.20489E-04-1.60902E-05-4.50216E-05-1.17189E-05-3.02333E-18 1.29495E-18
 -1      3308 1.26421E-04-2.30969E-05-4.44754E-05-1.33505E-05-2.00016E-18 7.76676E-19
 -1      3309 1.25334E-04-2.83814E-05-4.17558E-05-1.25198E-05-1.80270E-18 8.47589E-19
 -1      3310 9.59447E-05-2.80459E-05-2.91041E-05-5.64132E-07 1.78271E-19-6.22224E-19
 -1      3311 9.59618E-05-2.77468E-05-2.92262E-05-2.76716E-07 1.18543E-19-6.00212E-19
 -1      3312 9.60750E-05-2.70681E-05-2.95669E-05-2.48318E-07-2.39870E-19-2.19874E-20
 -1      3313 9.61168E-05-2.75251E-05-2.94028E-05 1.33355E-07-2.13854E-19 9.20459E-20
 -1      3314 9.61801E-05-2.79119E-05-2.92511E-05 3.88072E-07-1.40100E-19 2.32931E-19
 -1      3315 9.61690E-05-2.82036E-05-2.91319E-05 6.20503E-07-1.92579E-19 2.14301E-19
 -1      3316 9.62933E-05-2.75785E-05-2.94501E-05 1.65280E-07-4.88401E-20-2.04900E-19
 -1      3317 9.61641E-05-2.84411E-05-2.90190E-05 7.69512E-07-3.37735E-19 4.43661E-19
 -1      3318 9.61291E-05-2.86196E-05-2.89345E-05 8.95211E-07-3.05975E-19 6.51303E-19
 -1      3319 9.63512E-05-2.82690E-05-2.91796E-05 5.88159E-07-1.81177E-19 1.20282E-19
 -1      3320 9.60854E-05-2.87555E-05-2.88522E-05 9.68428E-07-4.51601E-19 6.10936E-19
 -1      3321 9.60419E-05-2.88576E-05-2.87936E-05 1.02212E-06-6.17095E-19 5.57188E-19
 -1      3322 9.63045E-05-2.86921E-05-2.89787E-05 8.27974E-07-4.12585E-19 1.85097E-19
 -1      3323 9.59800E-05-2.89270E-05-2.87347E-05 1.04601E-06-7.11980E-19 5.11842E-19
 -1      3324 9.59374E-05-2.89806E-05-2.86952E-05 1.05397E-06-5.54170E-19 4.34539E-19
 -1      3325 9.62011E-05-2.89305E-05-2.88325E-05 9.40831E-07-7.22003E-19 4.30099E-19
 -1      3326 9.58721E-05-2.90102E-05-2.86537E-05 1.04883E-06-4.42595E-19 3.60193E-19
 -1      3327 9.58376E-05-2.90372E-05-2.86275E-05 1.02976E-06-5.50162E-19 1.97246E-19
 -1      3328 9.60759E-05-2.90498E-05-2.87277E-05 9.73370E-07-6.70393E-19 2.35894E-19
 -1      3329 9.57810E-05-2.90489E-05-2.85985E-05 1.01028E-06-7.09731E-19 7.46447E-20
 -1      3330 9.57615E-05-2.90682E-05-2.85812E-05 9.76362E-07-5.70379E-19 6.71796E-20
 -1      3331 9.59551E-05-2.91026E-05-2.86535E-05 9.61086E-07-7.88351E-19 1.31598E-19
 -1      3332 9.57253E-05-2.90815E-05-2.85607E-05 9.52334E-07-4.13798E-19-1.95202E-20
 -1      3333 9.57294E-05-2.91108E-05-2.85489E-05 9.09967E-07-4.34473E-19-1.85126E-19
 -1      3334 9.58623E-05-2.91331E-05-2.86010E-05 9.29431E-07-5.09154E-19 1.40942E-19
 -1      3335 9.57271E-05-2.91447E-05-2.85339E-05 8.86561E-07-2.95706E-19-4.89463E-21
 -1      3336 9.57657E-05-2.92024E-05-2.85250E-05 8.36693E-07-1.86398E-19 2.82989E-19
 -1      3337 9.58224E-05-2.91833E-05-2.85630E-05 8.94827E-07-1.84236E-19-1.05263E-19
 -1      3338 9.58148E-05-2.92775E-05-2.85136E-05 8.14287E-07-2.79154E-21 6.04083E-19
 -1      3339 9.59025E-05-2.93831E-05-2.85062E-05 7.52143E-07-7.58698E-20 1.02503E-18
 -1      3340 9.58659E-05-2.92957E-05-2.85346E-05 8.64883E-07 2.45514E-19 2.67138E-19
 -1      3341 9.60257E-05-2.95217E-05-2.84976E-05 7.25295E-07-5.23699E-19 1.54076E-18
 -1      3342 9.61804E-05-2.96960E-05-2.84914E-05 6.39497E-07-4.45308E-19 1.50541E-18
 -1      3343 9.60325E-05-2.95168E-05-2.85131E-05 8.37281E-07 1.63576E-19 9.84167E-19
 -1      3344 9.64065E-05-2.99216E-05-2.84868E-05 5.94797E-07-4.92506E-19 1.61571E-18
 -1      3345 9.66483E-05-3.01838E-05-2.84837E-05 4.65937E-07-4.07465E-19 1.21047E-18
 -1      3346 9.63737E-05-2.98971E-05-2.84988E-05 7.96598E-07-3.66682E-19 1.98085E-18
 -1      3347 9.70105E-05-3.05175E-05-2.84868E-05 3.78719E-07-2.18219E-19 1.16082E-18
 -1      3348 9.73571E-05-3.08795E-05-2.84909E-05 1.77925E-07-6.32312E-20 1.40557E-18
 -1      3349 9.69516E-05-3.04872E-05-2.84967E-05 7.08539E-07-3.25020E-19 1.61288E-18
 -1      3350 9.78873E-05-3.13318E-05-2.85093E-05 8.51162E-09-1.35822E-19 1.80006E-18
 -1      3351 9.83459E-05-3.17873E-05-2.85286E-05-3.02652E-07-4.47272E-20 1.90682E-18
 -1      3352 9.78330E-05-3.13260E-05-2.85186E-05 5.11928E-07 1.13754E-19 1.83425E-18
 -1      3353 9.90627E-05-3.23443E-05-2.85747E-05-6.11047E-07 4.22512E-19 2.22230E-18
 -1      3354 9.96164E-05-3.28520E-05-2.86214E-05-1.07663E-06 5.68331E-19 2.16200E-18
 -1      3355 9.90717E-05-3.24169E-05-2.85850E-05 1.10875E-07 1.17644E-19 2.48953E-18
 -1      3356 1.00504E-04-3.34540E-05-2.87136E-05-1.59386E-06 3.61900E-19 1.74301E-18
 -1      3357 1.01095E-04-3.39170E-05-2.88044E-05-2.25100E-06 8.35463E-19 1.52628E-18
 -1      3358 1.00676E-04-3.36893E-05-2.87283E-05-6.26565E-07 3.93857E-19 2.76736E-18
 -1      3359 1.02073E-04-3.44342E-05-2.89668E-05-3.04026E-06 8.62686E-19 1.08736E-18
 -1      3360 1.02588E-04-3.46829E-05-2.91206E-05-3.89219E-06 3.09107E-19 1.48764E-18
 -1      3361 1.02558E-04-3.49431E-05-2.89940E-05-1.84978E-06 6.20604E-19 1.88224E-18
 -1      3362 1.03483E-04-3.49002E-05-2.93790E-05-4.96312E-06-1.40220E-19 1.55086E-18
 -1      3363 1.03757E-04-3.47024E-05-2.96126E-05-5.93384E-06-1.34306E-19 1.32803E-18
 -1      3364 1.04470E-04-3.57973E-05-2.94362E-05-3.66221E-06 2.36186E-19 1.31771E-18
 -1      3365 1.04299E-04-3.43392E-05-2.99873E-05-7.16932E-06-2.21406E-19 1.41896E-18
 -1      3366 1.04157E-04-3.34571E-05-3.03068E-05-8.05164E-06-7.94058E-19 1.45418E-18
 -1      3367 1.05967E-04-3.56809E-05-3.01068E-05-6.00158E-06-3.04839E-19 1.70310E-18
 -1      3368 1.04064E-04-3.22858E-05-3.07940E-05-9.10776E-06-1.00555E-18 1.45732E-18
 -1      3369 1.03425E-04-3.06445E-05-3.11783E-05-9.55647E-06-3.15012E-19 1.15803E-18
 -1      3370 1.06473E-04-3.39924E-05-3.10309E-05-8.44057E-06-8.75163E-19 1.65962E-18
 -1      3371 1.02574E-04-2.86739E-05-3.17289E-05-9.90677E-06-8.12291E-22 9.91907E-19
 -1      3372 1.01558E-04-2.65154E-05-3.21219E-05-9.51988E-06-5.10187E-19 2.32047E-19
 -1      3373 1.05554E-04-3.04388E-05-3.21552E-05-1.00851E-05-6.54814E-19 1.79522E-18
 -1      3374 1.00210E-04-2.42028E-05-3.26336E-05-8.61327E-06-7.37615E-19 3.12393E-19
 -1      3375 9.92071E-05-2.22110E-05-3.29486E-05-7.15285E-06-3.29461E-19 1.87525E-19
 -1      3376 1.03303E-04-2.54972E-05-3.33184E-05-9.74891E-06-3.68075E-19 9.22737E-19
 -1      3377 9.80700E-05-2.04700E-05-3.32914E-05-4.92107E-06-3.01598E-19-2.33722E-19
 -1      3378 9.75379E-05-1.94413E-05-3.34426E-05-2.62003E-06-2.98719E-19-6.87055E-19
 -1      3379 1.00739E-04-2.07871E-05-3.42597E-05-6.65457E-06-5.09635E-19 6.55190E-19
 -1      3380 9.73082E-05-1.90993E-05-3.35069E-05 3.66829E-07-4.27744E-19-1.15163E-18
 -1      3381 9.75348E-05-1.95362E-05-3.34443E-05 2.83526E-06-3.39501E-19-1.56044E-18
 -1      3382 9.93092E-05-1.83726E-05-3.47115E-05-1.25364E-06-7.92012E-19-2.08346E-19
 -1      3383 9.83632E-05-2.07744E-05-3.32102E-05 5.49883E-06 2.38091E-19-1.87337E-18
 -1      3384 9.92276E-05-2.24613E-05-3.29549E-05 7.36087E-06 6.94790E-20-1.77399E-18
 -1      3385 9.99315E-05-1.94143E-05-3.45227E-05 4.61444E-06-2.43758E-20-4.94857E-20
 -1      3386 1.00581E-04-2.46505E-05-3.24975E-05 8.84078E-06-6.13867E-20-1.98354E-18
 -1      3387 1.01646E-04-2.68341E-05-3.21253E-05 9.66857E-06 2.66664E-19-1.28278E-18
 -1      3388 1.02202E-04-2.34095E-05-3.37587E-05 8.81673E-06 2.25386E-19-1.73052E-18
 -1      3389 1.02761E-04-2.90261E-05-3.15751E-05 9.79434E-06 2.78476E-19-1.53819E-18
 -1      3390 1.03587E-04-3.09352E-05-3.11788E-05 9.65420E-06 4.99576E-19-1.20799E-18
 -1      3391 1.04735E-04-2.84623E-05-3.26516E-05 1.02603E-05 4.98031E-19-2.52926E-18
 -1      3392 1.03996E-04-3.24575E-05-3.06585E-05 8.81797E-06 2.06447E-19-1.52230E-18
 -1      3393 1.04343E-04-3.36514E-05-3.03103E-05 8.07352E-06-7.26343E-19-9.46965E-19
 -1      3394 1.06267E-04-3.27021E-05-3.14854E-05 9.30206E-06 1.35372E-20-3.60183E-18
 -1      3395 1.04028E-04-3.43227E-05-2.98895E-05 6.86683E-06-1.35727E-18-6.42743E-19
 -1      3396 1.03908E-04-3.47735E-05-2.96220E-05 5.90713E-06-1.28796E-18-5.78617E-19
 -1      3397 1.06314E-04-3.51580E-05-3.04730E-05 7.06580E-06-9.12893E-19-2.81117E-18
 -1      3398 1.03116E-04-3.47533E-05-2.93185E-05 4.75310E-06-1.33334E-18-6.12735E-19
 -1      3399 1.02678E-04-3.46516E-05-2.91352E-05 3.84745E-06-1.38091E-18-1.17645E-18
 -1      3400 1.05149E-04-3.58428E-05-2.97017E-05 4.62824E-06-1.39154E-18-2.11530E-18
 -1      3401 1.01700E-04-3.42173E-05-2.89376E-05 2.94890E-06-1.31819E-18-2.09422E-18
 -1      3402 1.01119E-04-3.38074E-05-2.88254E-05 2.22206E-06-1.06853E-18-2.97594E-18
 -1      3403 1.03333E-04-3.52927E-05-2.91730E-05 2.59409E-06-1.68382E-18-2.52128E-18
 -1      3404 1.00169E-04-3.32056E-05-2.87093E-05 1.61366E-06-2.07974E-19-2.52080E-18
 -1      3405 9.95839E-05-3.26866E-05-2.86494E-05 1.09035E-06 7.37673E-19-2.28078E-18
 -1      3406 1.01380E-04-3.41195E-05-2.88445E-05 1.15846E-06-6.56940E-19-2.33907E-18
 -1      3407 9.87772E-05-3.20821E-05-2.85892E-05 7.24404E-07 1.79136E-18-1.31545E-18
 -1      3408 9.82670E-05-3.15799E-05-2.85635E-05 3.78327E-07 2.07727E-18-1.35720E-18
 -1      3409 9.96169E-05-3.27859E-05-2.86609E-05 2.71312E-07 1.50369E-18-1.03859E-18
 -1      3410 9.76424E-05-3.10587E-05-2.85380E-05 1.84635E-07 1.24042E-18-1.51330E-18
 -1      3411 9.72386E-05-3.06353E-05-2.85320E-05-2.71012E-08 6.81884E-19-1.05798E-18
 -1      3412 9.81914E-05-3.15620E-05-2.85719E-05-2.07333E-07 1.31267E-18-9.56756E-19
 -1      3413 9.67874E-05-3.02273E-05-2.85259E-05-1.11664E-07 2.29610E-19-9.29198E-19
 -1      3414 9.64904E-05-2.99010E-05-2.85299E-05-2.30235E-07 1.69904E-19-3.95963E-19
 -1      3415 9.71261E-05-3.05654E-05-2.85389E-05-4.20451E-07 6.41076E-19-1.89411E-18
 -1      3416 9.61830E-05-2.96035E-05-2.85332E-05-2.52059E-07 1.15920E-20 4.36124E-19
 -1      3417 9.59772E-05-2.93687E-05-2.85411E-05-3.10191E-07 6.87645E-19-3.66643E-21
 -1      3418 9.63787E-05-2.98175E-05-2.85356E-05-4.79052E-07 7.66301E-19-2.17769E-18
 -1      3419 9.57788E-05-2.91641E-05-2.85481E-05-2.99628E-07 9.02009E-19-9.55758E-19
 -1      3420 9.56439E-05-2.90045E-05-2.85564E-05-3.20620E-07 6.80842E-19-2.08319E-19
 -1      3421 9.58827E-05-2.92905E-05-2.85459E-05-4.57626E-07 5.25244E-19-1.40641E-18
 -1      3422 9.55226E-05-2.88710E-05-2.85641E-05-2.95951E-07 8.76641E-19 3.59930E-19
 -1      3423 9.54386E-05-2.87672E-05-2.85715E-05-2.94237E-07 3.98530E-19 8.15621E-19
 -1      3424 9.55703E-05-2.89392E-05-2.85607E-05-4.01585E-07 1.46191E-18-1.60002E-18
 -1      3425 9.53859E-05-2.87063E-05-2.85766E-05-2.69490E-07-6.34202E-19 9.16521E-19
 -1      3426 9.53352E-05-2.86408E-05-2.85824E-05-2.59980E-07 2.27968E-19 9.00999E-19
 -1      3427 9.53170E-05-2.86220E-05-2.85836E-05-2.86875E-07 2.67011E-19 1.42868E-18
 -1      3428 9.54058E-05-2.87386E-05-2.85735E-05-3.39606E-07 6.73804E-19-7.33385E-19
 -1      3429 9.54657E-05-2.86990E-05-2.86131E-05-1.14820E-06 3.55074E-19-5.67186E-20
 -1      3430 9.55171E-05-2.87500E-05-2.86151E-05-1.15489E-06 4.14062E-19-3.93912E-19
 -1      3431 9.59090E-05-2.84777E-05-2.89014E-05-9.27390E-07-4.79900E-20-8.99211E-19
 -1      3432 9.59421E-05-2.82940E-05-2.89857E-05-7.63951E-07 1.63935E-19-6.06357E-19
 -1      3433 9.61641E-05-2.81027E-05-2.91713E-05-5.58187E-07 1.33393E-19-5.46180E-19
 -1      3434 9.56090E-05-2.87951E-05-2.86335E-05-1.16942E-06 3.39664E-19-5.83790E-19
 -1      3435 9.56510E-05-2.88048E-05-2.86477E-05-1.16998E-06 2.92608E-19-9.18993E-19
 -1      3436 9.57205E-05-2.88223E-05-2.86714E-05-1.09055E-06 1.86931E-19-7.87020E-19
 -1      3437 9.50262E-05-2.82276E-05-2.86279E-05-1.13489E-06 1.68508E-19-3.23932E-19
 -1      3438 9.51350E-05-2.83765E-05-2.86139E-05-1.11481E-06 2.85123E-19 6.59682E-20
 -1      3439 9.46468E-05-2.77987E-05-2.86508E-05-1.17050E-06-4.84233E-19-7.23034E-20
 -1      3440 9.48217E-05-2.80227E-05-2.86329E-05-1.12458E-06-2.93244E-20-4.18164E-20
 -1      3441 9.49266E-05-2.81082E-05-2.86320E-05-9.89706E-07-1.73443E-19-3.18164E-19
 -1      3442 9.40606E-05-2.71683E-05-2.86729E-05-1.23433E-06-4.47625E-19 4.14717E-19
 -1      3443 9.43476E-05-2.75010E-05-2.86555E-05-1.16060E-06-7.45080E-19 2.05489E-19
 -1      3444 9.44382E-05-2.75998E-05-2.86369E-05-9.46966E-07-6.52946E-19-1.01119E-20
 -1      3445 9.31403E-05-2.62483E-05-2.86787E-05-1.30316E-06 6.37617E-19 1.55527E-19
 -1      3446 9.36110E-05-2.67381E-05-2.86698E-05-1.20814E-06 3.58558E-19 4.86648E-19
 -1      3447 9.37140E-05-2.68724E-05-2.86326E-05-8.68387E-07-1.55948E-19 5.75825E-20
 -1      3448 9.15992E-05-2.48360E-05-2.86335E-05-1.30961E-06 3.64751E-19 3.75541E-19
 -1      3449 9.24196E-05-2.55942E-05-2.86526E-05-1.21964E-06 4.92092E-19 1.22567E-21
 -1      3450 9.25873E-05-2.58112E-05-2.85963E-05-6.82057E-07 7.78390E-19-1.73061E-19
 -1      3451 8.92817E-05-2.29096E-05-2.84831E-05-1.11561E-06-4.31870E-19 3.70143E-20
 -1      3452 9.05480E-05-2.39472E-05-2.85608E-05-1.10201E-06-1.55101E-20 1.92291E-20
 -1      3453 9.08764E-05-2.43232E-05-2.84877E-05-2.54695E-07 2.63070E-19-1.10034E-19
 -1      3454 8.57341E-05-2.02728E-05-2.81191E-05-4.76866E-07 9.99846E-20 4.87946E-20
 -1      3455 8.77277E-05-2.16983E-05-2.83196E-05-6.60377E-07-3.60962E-19-1.67482E-19
 -1      3456 8.83782E-05-2.23562E-05-2.82425E-05 6.23107E-07-1.73121E-19-1.38261E-18
 -1      3457 8.04163E-05-1.68506E-05-2.73424E-05 1.02541E-06 1.66447E-19-1.98178E-19
 -1      3458 8.34851E-05-1.87056E-05-2.77857E-05 4.29266E-07 3.93096E-19-7.83439E-20
 -1      3459 8.47394E-05-1.98308E-05-2.77391E-05 2.33269E-06 1.36004E-19-1.05620E-18
 -1      3460 7.26792E-05-1.28341E-05-2.57872E-05 4.01914E-06 4.97830E-19-9.56797E-19
 -1      3461 7.72579E-05-1.49950E-05-2.66995E-05 2.68431E-06 2.46376E-19-5.34537E-19
 -1      3462 7.95983E-05-1.68510E-05-2.67689E-05 5.45580E-06 3.75707E-19-1.38798E-18
 -1      3463 9.21390E-05-2.53510E-05-2.86317E-05 3.48956E-07 7.84006E-19 2.45578E-19
 -1      3464 9.13109E-05-2.46607E-05-2.85904E-05 3.05343E-07 9.70625E-19 6.65136E-19
 -1      3465 9.51018E-05-2.38471E-05-3.05355E-05-2.57695E-06-5.87678E-19-4.54725E-20
 -1      3466 9.54184E-05-2.48719E-05-3.02447E-05-1.77262E-06-4.68110E-19 1.38970E-20
 -1      3467 9.54556E-05-2.50103E-05-3.01668E-05 2.06390E-06 5.20443E-19-7.95430E-19
 -1      3468 9.49953E-05-2.36757E-05-3.05861E-05 2.89538E-06 6.69118E-19-8.12608E-19
 -1      3469 9.47295E-05-2.29777E-05-3.07525E-05 2.67521E-06 5.28518E-19-8.06897E-19
 -1      3470 9.50815E-05-2.36237E-05-3.06438E-05 5.70385E-06 8.24360E-19-2.50433E-19
 -1      3471 9.45215E-05-2.76073E-05-2.86814E-05 4.27343E-07 1.44397E-20 5.26123E-21
 -1      3472 9.43283E-05-2.73947E-05-2.86907E-05 4.92773E-07-1.34827E-18 8.47450E-20
 -1      3473 9.33049E-05-2.64021E-05-2.86797E-05 4.80915E-07 6.46943E-19-3.28052E-20
 -1      3474 9.27862E-05-2.59244E-05-2.86700E-05 5.13912E-07-1.01773E-19-8.22298E-19
 -1      3475 9.23794E-05-2.56279E-05-2.85864E-05-1.66429E-07 7.36924E-19-4.46658E-19
 -1      3476 5.93813E-05-9.76208E-06-2.10901E-05-1.65216E-05-5.91090E-19 4.00885E-19
 -1      3477 1.08228E-04-4.61270E-05-2.62909E-05-3.10338E-05 1.26717E-18-2.62660E-19
 -1      3478 1.18679E-04-5.15708E-05-2.89194E-05-2.44721E-05 1.30471E-18 7.72468E-19
 -1      3479 9.40497E-05-2.71215E-05-2.86892E-05 4.85100E-07-6.40604E-19 3.14802E-19
 -1      3480 9.37341E-05-2.68001E-05-2.86933E-05 5.47026E-07 1.24443E-18 7.30587E-19
 -1      3481 9.34211E-05-2.65538E-05-2.86429E-05 1.37494E-07 2.79974E-19-8.33631E-19
 -1      3482 9.40886E-05-2.71858E-05-2.86619E-05 2.61659E-07-4.50183E-19-1.14970E-18
 -1      3483 9.51185E-05-2.83957E-05-2.85928E-05-3.93558E-07 2.39865E-18-3.58050E-19
 -1      3484 9.50492E-05-2.83286E-05-2.85965E-05-3.82359E-07 2.24621E-18-4.48738E-19
 -1      3485 1.34045E-04-4.78927E-05-3.68195E-05 2.01749E-06 4.91491E-19-8.50950E-19
 -1      3486 1.30212E-04-4.00464E-05-3.89584E-05 8.76100E-06-8.05396E-19-1.65578E-18
 -1      3487 9.52451E-05-2.85386E-05-2.85871E-05-3.63067E-07 1.43068E-18-5.35920E-19
 -1      3488 9.51905E-05-2.84830E-05-2.85898E-05-3.78617E-07 2.87154E-18-3.56137E-19
 -1      3489 9.51661E-05-2.84731E-05-2.85846E-05-4.53726E-07 3.17070E-18-1.73679E-19
 -1      3490 9.49649E-05-2.82231E-05-2.86011E-05-3.56692E-07 1.72612E-18-3.58018E-18
 -1      3491 9.48954E-05-2.81548E-05-2.86060E-05-3.10724E-07 2.39358E-18-5.58445E-18
 -1      3492 9.49884E-05-2.82769E-05-2.85919E-05-4.50561E-07 1.96455E-18-2.11808E-18
 -1      3493 9.57285E-05-2.88043E-05-2.86813E-05-1.16734E-06 2.37457E-19-9.64197E-19
 -1      3494 9.57667E-05-2.87676E-05-2.87117E-05-1.14318E-06-1.01196E-19-9.82438E-19
 -1      3495 9.58855E-05-2.88561E-05-2.87285E-05-1.09314E-06 1.91049E-19-7.80211E-19
 -1      3496 9.48205E-05-2.80534E-05-2.86128E-05-2.37067E-07 2.54712E-19-3.77475E-18
 -1      3497 9.47732E-05-2.80009E-05-2.86194E-05-1.57590E-07-3.63045E-19-3.32957E-18
 -1      3498 9.48062E-05-2.80642E-05-2.86031E-05-3.51510E-07 1.58020E-18-2.44870E-18
 -1      3499 9.03538E-05-2.38665E-05-2.85041E-05-5.03338E-08 5.26369E-19 7.46398E-19
 -1      3500 8.90606E-05-2.29010E-05-2.83983E-05-2.62153E-07 4.46598E-19 4.88756E-20
 -1      3501 9.08344E-05-2.43611E-05-2.84565E-05-8.13897E-07 5.93669E-19-1.00852E-18
 -1      3502 7.05903E-05-1.28182E-05-2.47394E-05-1.00755E-05-1.26420E-19-6.78182E-19
 -1      3503 6.42931E-05-1.06612E-05-2.30209E-05-1.26269E-05-2.86469E-19-3.80318E-19
 -1      3504 6.89019E-05-1.53226E-05-2.27218E-05-2.13190E-05 3.68618E-19 8.09578E-19
 -1      3505 9.52819E-05-2.85155E-05-2.86132E-05-1.13057E-06 3.66353E-19 3.06069E-20
 -1      3506 9.53531E-05-2.86101E-05-2.86060E-05-1.12922E-06 4.29671E-19 1.73267E-19
 -1      3507 9.55210E-05-2.86904E-05-2.86413E-05-1.06161E-06 2.70145E-19-1.86744E-19
 -1      3508 9.52682E-05-2.84588E-05-2.86306E-05-1.02550E-06 3.57246E-19-3.30448E-19
 -1      3509 9.22309E-05-1.81032E-05-3.17808E-05-1.00669E-06-1.26129E-19-8.53400E-19
 -1      3510 9.23432E-05-1.82947E-05-3.17502E-05-1.75643E-06-2.55761E-19-7.28955E-19
 -1      3511 9.33262E-05-1.99600E-05-3.14246E-05-1.75696E-06-2.40987E-19-6.32993E-19
 -1      3512 9.47297E-05-2.79296E-05-2.86288E-05-4.71768E-08-1.02384E-18-2.92332E-18
 -1      3513 9.47228E-05-2.79036E-05-2.86374E-05 5.66334E-08-3.36695E-19 4.96421E-20
 -1      3514 9.46751E-05-2.78889E-05-2.86199E-05-1.57964E-07-3.86110E-19-2.57518E-18
 -1      3515 9.58301E-05-2.87107E-05-2.87661E-05-1.10448E-06-1.52872E-19-1.09711E-18
 -1      3516 9.58678E-05-2.86118E-05-2.88198E-05-1.02800E-06-1.42204E-19-1.01999E-18
 -1      3517 9.61231E-05-2.85446E-05-2.89646E-05-8.80477E-07 3.75614E-20-6.46398E-19
 -1      3518 9.60224E-05-2.87758E-05-2.88221E-05-1.03832E-06-1.41632E-19-6.30802E-19
 -1      3519 9.57610E-05-2.57742E-05-2.99876E-05-1.21881E-06-3.90810E-19-8.12500E-20
 -1      3520 9.59029E-05-2.64666E-05-2.97668E-05-6.41922E-07-3.83241E-19-3.92690E-20
 -1      3521 9.55340E-05-2.49054E-05-3.02670E-05-1.46769E-06-4.80874E-19-2.46773E-19
 -1      3522 9.33352E-05-1.98895E-05-3.14818E-05-5.15971E-06-8.62705E-19-2.91045E-19
 -1      3523 1.17091E-04-1.67895E-05-4.30860E-05 1.14664E-05-2.16099E-18-1.17981E-18
 -1      3524 1.13084E-04-1.15571E-05-4.37955E-05 6.55443E-06-2.91438E-18-4.41655E-19
 -1      3525 8.23459E-05-3.00025E-05-2.21884E-05-3.52158E-05 3.30250E-19-1.44128E-18
 -1      3526 9.53384E-05-3.92516E-05-2.42044E-05-3.53657E-05 5.95332E-19-1.11096E-18
 -1      3527 1.26153E-04-3.11774E-05-4.06614E-05 1.29160E-05-1.46457E-18-2.19800E-18
 -1      3528 1.21327E-04-2.40621E-05-4.20255E-05 1.29871E-05-1.46018E-18-1.99605E-18
 -1      3529 5.87565E-05-7.86369E-06-2.17655E-05 1.07503E-05 8.67547E-20-1.47696E-18
 -1      3530 6.86520E-05-1.09457E-05-2.46758E-05 6.69339E-06 6.37472E-19-6.66946E-19
 -1      3531 7.25649E-05-1.37848E-05-2.49731E-05 1.08219E-05 5.92340E-19-1.61367E-18
 -1      3532 6.34381E-05-1.20893E-05-2.17522E-05 1.95713E-05 5.55898E-19-7.64871E-19
 -1      3533 1.16154E-04-1.38590E-05-4.41603E-05-9.36458E-06-3.81954E-18 1.70217E-18
 -1      3534 1.15682E-04-1.76763E-05-4.20394E-05-1.12257E-05-3.12661E-18 1.66112E-18
 -1      3535 1.11545E-04-1.21604E-05-4.27030E-05-6.33002E-06-4.17910E-18 1.48302E-18
 -1      3536 1.32628E-04-4.52834E-05-3.75762E-05-4.93303E-06 5.67115E-20 8.40839E-19
 -1      3537 1.31079E-04-4.78123E-05-3.57841E-05-8.69796E-07 1.02471E-18 7.81983E-19
 -1      3538 1.31163E-04-5.26794E-05-3.36394E-05 8.10240E-06 1.48274E-18 4.27341E-19
 -1      3539 1.31503E-04-5.56034E-05-3.25345E-05 1.52977E-05 1.26774E-18-9.22472E-21
 -1      3540 1.25643E-04-5.38398E-05-3.07788E-05 1.88681E-05 1.57493E-18-6.28062E-20
 -1      3541 9.37648E-05-2.07738E-05-3.12601E-05 2.83178E-06 4.45692E-19-8.11602E-19
 -1      3542 9.55994E-05-2.58096E-05-2.99191E-05 1.35196E-06 4.13520E-19-8.00828E-19
 -1      3543 1.15793E-04-2.14719E-05-4.05427E-05 1.15888E-05-1.26724E-18-1.70767E-18
 -1      3544 9.39266E-05-2.11725E-05-3.11868E-05-1.20894E-06-2.28790E-19-6.69820E-19
 -1      3545 9.40593E-05-2.14601E-05-3.11284E-05-1.72553E-06-2.67868E-19-5.31850E-19
 -1      3546 9.39135E-05-2.10619E-05-3.12206E-05-4.18150E-06-7.08527E-19-2.37369E-19
 -1      3547 9.40800E-05-2.14937E-05-3.11249E-05 1.75234E-06 1.87672E-19-8.12728E-19
 -1      3548 9.39404E-05-2.11948E-05-3.11841E-05 1.23614E-06 1.29860E-20-7.70258E-19
 -1      3549 8.85530E-05-2.26735E-05-2.81874E-05-2.07058E-06 2.64334E-20-1.19576E-18
 -1      3550 8.76385E-05-2.18150E-05-2.82191E-05-9.61403E-07-8.54759E-20-6.88082E-19
 -1      3551 8.56002E-05-2.04779E-05-2.79774E-05-1.51022E-06-7.80138E-19-8.76400E-19
 -1      3552 1.02193E-04-4.10926E-05-2.60464E-05-2.91592E-05 1.37436E-18-1.05280E-18
 -1      3553 1.30128E-04-4.90783E-05-3.48241E-05-1.69373E-06 1.02237E-18-8.68209E-19
 -1      3554 9.49182E-05-2.80380E-05-2.86646E-05 3.41144E-07 1.44568E-18 2.07380E-18
 -1      3555 9.52942E-05-2.85939E-05-2.85854E-05-3.08604E-07 3.72220E-19 7.05969E-19
 -1      3556 7.99939E-05-2.94263E-05-2.13357E-05 3.66854E-05 8.30145E-19-2.44366E-18
 -1      3557 7.64397E-05-2.43435E-05-2.22774E-05 3.10632E-05 1.06972E-18-2.71199E-18
 -1      3558 8.81521E-05-3.39137E-05-2.31445E-05 3.51004E-05 8.94308E-19-2.83028E-18
 -1      3559 1.24983E-04-3.64680E-05-3.80412E-05 1.00119E-05-9.39320E-19-2.64256E-18
 -1      3560 1.11210E-04-1.06781E-05-4.33201E-05 3.80550E-06-3.27579E-18-4.57057E-19
 -1      3561 1.09474E-04-1.09625E-05-4.23818E-05 5.06365E-07-3.30433E-18-3.89847E-19
 -1      3562 1.09386E-04-1.39677E-05-4.10014E-05 6.19065E-06-1.72709E-18-2.16800E-18
 -1      3563 9.47776E-05-2.79356E-05-2.86496E-05 1.89536E-07 5.62532E-19 1.09185E-18
 -1      3564 9.48259E-05-2.79577E-05-2.86557E-05 2.53514E-07 5.51906E-19 6.49341E-20
 -1      3565 9.48295E-05-2.79454E-05-2.86658E-05 3.36433E-07 1.51424E-18 3.12033E-19
 -1      3566 9.46711E-05-2.78355E-05-2.86427E-05 1.07955E-07-3.37491E-19-3.99544E-19
 -1      3567 1.16096E-04-5.08712E-05-2.79149E-05 2.79785E-05 1.84808E-18-9.40604E-19
 -1      3568 1.10308E-04-4.93257E-05-2.59139E-05 3.48988E-05 1.88317E-18-2.06810E-18
 -1      3569 1.01793E-04-4.36076E-05-2.48735E-05 3.51210E-05 1.11864E-18-2.13643E-18
 -1      3570 9.31251E-05-1.95879E-05-3.14983E-05-5.86870E-07-1.50880E-19-9.24194E-19
 -1      3571 9.38517E-05-2.10211E-05-3.12251E-05 7.99375E-07 1.40132E-20-9.63775E-19
 -1      3572 9.38016E-05-2.09199E-05-3.12443E-05 2.41094E-07-8.27770E-20-1.14903E-18
 -1      3573 9.45951E-05-2.23550E-05-3.09422E-05 8.13973E-07 6.18071E-20-8.27888E-19
 -1      3574 7.39908E-05-1.40926E-05-2.57925E-05-6.84735E-06-7.26632E-19-2.10733E-19
 -1      3575 7.62938E-05-1.65468E-05-2.54228E-05-1.29777E-05-6.18365E-19 4.49548E-19
 -1      3576 7.85026E-05-1.61547E-05-2.67234E-05-4.91218E-06-8.83988E-19 4.71060E-19
 -1      3577 9.45144E-05-2.25432E-05-3.08538E-05-3.19497E-06-5.90807E-19-1.26249E-19
 -1      3578 9.45902E-05-2.26137E-05-3.08422E-05-2.65790E-06-4.96238E-19-2.67241E-19
 -1      3579 9.53076E-05-2.86211E-05-2.85802E-05-3.76868E-07 1.61496E-18-5.77745E-19
 -1      3580 9.61043E-05-2.73741E-05-2.94573E-05-2.19826E-10 6.25203E-20-5.33307E-19
 -1      3581 9.59054E-05-2.73599E-05-2.93863E-05 5.24287E-08 7.56557E-20-6.40601E-19
 -1      3582 9.59047E-05-2.69040E-05-2.95566E-05 5.09903E-07 1.96311E-19-7.53338E-19
 -1      3583 9.47169E-05-2.78138E-05-2.86751E-05 3.91769E-07 1.16526E-18 9.80202E-20
 -1      3584 8.18359E-05-1.71998E-05-2.75947E-05-1.83110E-07-9.69032E-19 1.58865E-18
 -1      3585 7.14486E-05-1.94157E-05-2.21272E-05 2.72255E-05 9.14200E-19-2.91663E-18
 -1      3586 6.54377E-05-1.52906E-05-2.13740E-05 2.43919E-05 7.48407E-19-1.90744E-18
 -1      3587 7.03453E-05-1.55122E-05-2.33972E-05 1.90031E-05 8.14197E-19-1.64131E-18
 -1      3588 7.77379E-05-2.35105E-05-2.31486E-05 2.77400E-05 9.14028E-19-2.83544E-18
 -1      3589 1.23063E-04-5.22393E-05-3.02029E-05-1.85121E-05 2.06267E-18 9.86403E-19
 -1      3590 1.24648E-04-5.13325E-05-3.15985E-05-1.18253E-05 2.32569E-18 1.23581E-20
 -1      3591 1.16387E-04-4.84651E-05-2.91390E-05-1.97231E-05 2.34557E-18 2.88114E-19
 -1      3592 9.42085E-05-2.17559E-05-3.10533E-05-2.01995E-06-3.04990E-19-3.06354E-19
 -1      3593 9.44301E-05-2.22390E-05-3.09507E-05-2.43672E-06-4.58725E-19-2.10537E-19
 -1      3594 9.50189E-05-2.35059E-05-3.06417E-05-1.86728E-06-4.17432E-19-1.66792E-19
 -1      3595 9.47779E-05-2.28131E-05-3.08261E-05-1.43945E-06-3.62515E-19-2.93889E-19
 -1      3596 9.45580E-05-2.76747E-05-2.86601E-05 2.61298E-07 5.91752E-19-5.40034E-19
 -1      3597 7.68153E-05-2.47336E-05-2.21257E-05-3.18630E-05 7.35000E-19-5.71006E-19
 -1      3598 8.48088E-05-2.82577E-05-2.40905E-05-2.85936E-05 1.74396E-18-1.72604E-18
 -1      3599 7.17938E-05-1.92337E-05-2.25090E-05-2.61026E-05 1.13248E-18 5.06870E-19
 -1      3600 9.60557E-05-2.65041E-05-2.98069E-05-5.02619E-07-2.65442E-19-3.25234E-19
 -1      3601 1.28734E-04-3.96694E-05-3.83145E-05-8.99382E-06-6.37895E-19 1.73467E-18
 -1      3602 9.45085E-05-2.24282E-05-3.09117E-05 2.49384E-06 4.13235E-19-7.65275E-19
 -1      3603 9.42914E-05-2.19232E-05-3.10187E-05 2.07379E-06 2.82671E-19-6.83353E-19
 -1      3604 9.48443E-05-2.29489E-05-3.07945E-05 1.48970E-06 2.15030E-19-6.29566E-19
 -1      3605 9.51925E-05-2.39262E-05-3.05294E-05 1.89616E-06 4.29419E-19-6.21567E-19
 -1      3606 9.65064E-05-2.80894E-05-2.93171E-05 4.05940E-07-1.54971E-19-1.01764E-19
 -1      3607 9.65031E-05-2.83807E-05-2.91985E-05 5.73426E-07-2.83099E-19-3.68028E-20
 -1      3608 9.64922E-05-2.86128E-05-2.90879E-05 6.67518E-07-3.05886E-19-5.42016E-20
 -1      3609 9.64499E-05-2.87858E-05-2.90002E-05 7.58808E-07-4.16800E-19-7.13597E-20
 -1      3610 9.66230E-05-2.84562E-05-2.92148E-05 5.11759E-07-3.17431E-19-1.65898E-19
 -1      3611 9.63936E-05-2.89141E-05-2.89174E-05 8.04597E-07-5.55392E-19 1.62061E-19
 -1      3612 9.63326E-05-2.90070E-05-2.88538E-05 8.44967E-07-5.97714E-19 1.90818E-19
 -1      3613 9.65551E-05-2.88501E-05-2.90178E-05 6.64928E-07-3.12780E-19-1.27609E-20
 -1      3614 9.62538E-05-2.90671E-05-2.87927E-05 8.61364E-07-7.31920E-19 2.28686E-19
 -1      3615 9.61891E-05-2.91100E-05-2.87472E-05 8.71018E-07-7.72734E-19 2.41449E-19
 -1      3616 9.64202E-05-2.90598E-05-2.88706E-05 7.40592E-07-6.22120E-19 2.23631E-19
 -1      3617 9.61054E-05-2.91304E-05-2.87025E-05 8.73618E-07-8.25571E-19 2.79937E-19
 -1      3618 9.60491E-05-2.91480E-05-2.86702E-05 8.67814E-07-7.82749E-19 3.44935E-19
 -1      3619 9.62581E-05-2.91520E-05-2.87620E-05 7.72679E-07-7.92216E-19 3.93091E-19
 -1      3620 9.59754E-05-2.91528E-05-2.86375E-05 8.69092E-07-5.86912E-19 6.44021E-19
 -1      3621 9.59395E-05-2.91670E-05-2.86143E-05 8.58709E-07-3.26640E-19 7.26280E-19
 -1      3622 9.61004E-05-2.91811E-05-2.86823E-05 7.89477E-07-4.24667E-19 7.61169E-19
 -1      3623 9.58907E-05-2.91785E-05-2.85901E-05 8.68423E-07-1.78130E-19 7.97650E-19
 -1      3624 9.58888E-05-2.92111E-05-2.85730E-05 8.60355E-07 9.20717E-20 7.82183E-19
 -1      3625 9.59766E-05-2.91958E-05-2.86235E-05 8.14099E-07-1.22390E-19 1.28461E-18
 -1      3626 9.58827E-05-2.92524E-05-2.85545E-05 8.85653E-07 2.14281E-19 6.70428E-19
 -1      3627 9.59323E-05-2.93266E-05-2.85415E-05 8.82700E-07 4.77874E-19 9.19266E-19
 -1      3628 9.59185E-05-2.92433E-05-2.85792E-05 8.65188E-07 2.43160E-19 1.28604E-18
 -1      3629 9.59922E-05-2.94230E-05-2.85272E-05 9.27554E-07 4.82023E-19 9.08331E-19
 -1      3630 9.61164E-05-2.95648E-05-2.85175E-05 9.27540E-07 3.08081E-19 1.25387E-18
 -1      3631 9.59663E-05-2.93747E-05-2.85451E-05 9.56582E-07 5.73885E-19 1.18406E-18
 -1      3632 9.62739E-05-2.97459E-05-2.85076E-05 9.90758E-07-1.47932E-19 1.28313E-18
 -1      3633 9.65018E-05-2.99841E-05-2.85024E-05 9.84277E-07-3.51901E-19 1.33839E-18
 -1      3634 9.61741E-05-2.96481E-05-2.85196E-05 1.09510E-06 4.19821E-19 8.20326E-19
 -1      3635 9.67986E-05-3.02824E-05-2.84994E-05 1.05535E-06-3.26019E-19 1.52897E-18
 -1      3636 9.71638E-05-3.06458E-05-2.85026E-05 1.02214E-06-8.50852E-20 1.43892E-18
 -1      3637 9.66147E-05-3.01313E-05-2.85050E-05 1.27443E-06-1.42663E-19 1.38198E-18
 -1      3638 9.76513E-05-3.10930E-05-2.85127E-05 1.07443E-06 1.35145E-19 1.72870E-18
 -1      3639 9.81864E-05-3.16023E-05-2.85322E-05 9.78446E-07 3.31161E-19 1.92150E-18
 -1      3640 9.73813E-05-3.08977E-05-2.85101E-05 1.46398E-06 2.02154E-19 1.78847E-18
 -1      3641 9.89195E-05-3.22190E-05-2.85673E-05 9.59894E-07 2.94556E-19 2.20331E-18
 -1      3642 9.96432E-05-3.28711E-05-2.86165E-05 7.45013E-07 3.37251E-19 2.41996E-18
 -1      3643 9.85820E-05-3.20128E-05-2.85528E-05 1.59158E-06 4.66893E-19 1.70274E-18
 -1      3644 1.00664E-04-3.36458E-05-2.86960E-05 5.69386E-07 2.51310E-19 2.74988E-18
 -1      3645 1.01561E-04-3.43879E-05-2.87951E-05 1.59944E-07 3.86796E-19 2.68295E-18
 -1      3646 1.00319E-04-3.35014E-05-2.86650E-05 1.52238E-06 6.91690E-19 2.08855E-18
 -1      3647 1.02867E-04-3.52440E-05-2.89486E-05-2.96138E-07-5.81582E-20 2.79913E-18
 -1      3648 1.03853E-04-3.59351E-05-2.91249E-05-9.81029E-07 1.95206E-19 2.12594E-18
 -1      3649 1.02641E-04-3.52901E-05-2.88972E-05 1.04256E-06-7.12262E-20 2.27282E-18
 -1      3650 1.05344E-04-3.66830E-05-2.93926E-05-1.85416E-06 5.38379E-19 1.62774E-18
 -1      3651 1.06243E-04-3.70564E-05-2.96771E-05-2.85979E-06 2.26801E-19 1.53187E-18
 -1      3652 1.05460E-04-3.71080E-05-2.93233E-05-1.32100E-07-5.01176E-20 1.85046E-18
 -1      3653 1.07665E-04-3.73808E-05-3.01013E-05-4.20768E-06-3.09906E-19 1.89931E-18
 -1      3654 1.08216E-04-3.70586E-05-3.05215E-05-5.48263E-06-4.56824E-19 1.64802E-18
 -1      3655 1.08426E-04-3.83860E-05-3.00352E-05-2.26160E-06 1.88253E-19 1.32937E-18
 -1      3656 1.09079E-04-3.64331E-05-3.11434E-05-7.15385E-06-3.36495E-19 2.27972E-18
 -1      3657 1.09018E-04-3.50565E-05-3.17029E-05-8.33169E-06-5.53829E-19 2.84953E-18
 -1      3658 1.10824E-04-3.81228E-05-3.11209E-05-5.41250E-06 7.73339E-20 1.99461E-18
 -1      3659 1.08864E-04-3.31594E-05-3.25011E-05-9.86700E-06-5.69229E-19 3.43581E-18
 -1      3660 1.07996E-04-3.06051E-05-3.31499E-05-1.03812E-05-4.89621E-19 3.25226E-18
 -1      3661 1.11767E-04-3.56227E-05-3.26054E-05-8.75549E-06 5.81922E-21 3.94816E-18
 -1      3662 1.06760E-04-2.75547E-05-3.40313E-05-1.08637E-05-7.74952E-19 2.89364E-18
 -1      3663 1.05307E-04-2.43150E-05-3.46555E-05-1.01290E-05-4.07691E-19 2.72370E-18
 -1      3664 1.10494E-04-3.02114E-05-3.43972E-05-1.09535E-05-7.64154E-19 4.65852E-18
 -1      3665 1.03556E-04-2.12133E-05-3.53926E-05-8.43891E-06-8.86374E-19 1.87526E-18
 -1      3666 1.02394E-04-1.87263E-05-3.58169E-05-6.36843E-06-1.23883E-18 1.23412E-18
 -1      3667 1.07181E-04-2.24316E-05-3.62811E-05-1.01879E-05-1.41646E-18 3.55395E-18
 -1      3668 1.01511E-04-1.71878E-05-3.61105E-05 3.87446E-06-7.79441E-19-3.97450E-19
 -1      3669 1.02392E-04-1.89784E-05-3.58201E-05 6.54139E-06-7.18712E-20-5.25520E-19
 -1      3670 1.04018E-04-2.17494E-05-3.52083E-05 8.93462E-06 1.74217E-19-1.83871E-18
 -1      3671 1.05414E-04-2.48229E-05-3.46470E-05 1.03077E-05-2.64086E-20-1.74336E-18
 -1      3672 1.05856E-04-2.00272E-05-3.68104E-05 8.51541E-06-6.80164E-19-1.77816E-18
 -1      3673 1.07055E-04-2.81107E-05-3.37915E-05 1.06518E-05-5.81515E-19-2.33179E-18
 -1      3674 1.08184E-04-3.10344E-05-3.31348E-05 1.05865E-05 3.19489E-19-2.67523E-18
 -1      3675 1.09230E-04-2.71011E-05-3.51720E-05 1.12025E-05-2.03462E-19-2.38308E-18
 -1      3676 1.08827E-04-3.34951E-05-3.22813E-05 9.40784E-06 7.43250E-19-3.32117E-18
 -1      3677 1.09231E-04-3.53775E-05-3.16775E-05 8.37980E-06 1.53856E-20-3.01075E-18
 -1      3678 1.11498E-04-3.36242E-05-3.33389E-05 9.98712E-06 2.40279E-20-3.76601E-18
 -1      3679 1.08693E-04-3.64509E-05-3.09843E-05 6.70919E-06-4.07660E-19-2.90691E-18
 -1      3680 1.08391E-04-3.71775E-05-3.05075E-05 5.43284E-06-8.46663E-19-2.03778E-18
 -1      3681 1.11417E-04-3.73565E-05-3.17113E-05 6.80876E-06 2.44536E-19-3.06638E-18
 -1      3682 1.07120E-04-3.71794E-05-3.00056E-05 3.90086E-06-1.44964E-18-1.91559E-18
 -1      3683 1.06330E-04-3.70312E-05-2.96687E-05 2.78288E-06-1.26408E-18-2.09009E-18
 -1      3684 1.09527E-04-3.84808E-05-3.04543E-05 3.47073E-06-4.57413E-19-1.84738E-18
 -1      3685 1.04817E-04-3.64046E-05-2.93420E-05 1.71755E-06-1.35282E-18-1.54866E-18
 -1      3686 1.03832E-04-3.57917E-05-2.91261E-05 9.11053E-07-1.46693E-18-1.26329E-18
 -1      3687 1.06663E-04-3.76650E-05-2.95974E-05 9.31180E-07-9.78909E-19-2.04639E-18
 -1      3688 1.02415E-04-3.49330E-05-2.89319E-05 3.08305E-07-7.27492E-19-5.28678E-19
 -1      3689 1.01455E-04-3.41720E-05-2.88063E-05-1.92139E-07 1.55831E-19-4.11424E-19
 -1      3690 1.03696E-04-3.59506E-05-2.90667E-05-5.95682E-07-4.90087E-19-9.89514E-19
 -1      3691 1.00293E-04-3.33278E-05-2.87020E-05-4.53382E-07 8.27351E-19-6.90336E-20
 -1      3692 9.94782E-05-3.26068E-05-2.86372E-05-7.19776E-07 1.43462E-18-8.57349E-20
 -1      3693 1.01114E-04-3.40624E-05-2.87669E-05-1.30408E-06 2.40742E-19 1.34209E-19
 -1      3694 9.86070E-05-3.18956E-05-2.85884E-05-7.72051E-07 1.67187E-18-8.88621E-19
 -1      3695 9.79762E-05-3.12999E-05-2.85607E-05-8.85549E-07 1.24888E-18-8.89510E-19
 -1      3696 9.90940E-05-3.23824E-05-2.86158E-05-1.48086E-06 1.39120E-18-7.87937E-19
 -1      3697 9.73653E-05-3.07548E-05-2.85432E-05-8.31915E-07 9.26160E-19-3.43792E-19
 -1      3698 9.69099E-05-3.03040E-05-2.85360E-05-8.57254E-07 1.13302E-18-5.03069E-19
 -1      3699 9.76320E-05-3.10550E-05-2.85517E-05-1.37455E-06 1.26266E-18 5.00072E-19
 -1      3700 9.65047E-05-2.99138E-05-2.85345E-05-7.62681E-07 8.51379E-19-7.41238E-19
 -1      3701 9.61947E-05-2.95945E-05-2.85373E-05-7.43487E-07 7.68701E-19-4.84023E-19
 -1      3702 9.66352E-05-3.00853E-05-2.85345E-05-1.15228E-06 1.02549E-18 1.52058E-18
 -1      3703 9.59404E-05-2.93312E-05-2.85429E-05-6.43467E-07 2.05420E-19-9.99703E-19
 -1      3704 9.57410E-05-2.91173E-05-2.85498E-05-6.06577E-07 5.23259E-19-1.33790E-18
 -1      3705 9.59919E-05-2.94189E-05-2.85397E-05-9.08388E-07 2.66224E-19 6.79961E-19
 -1      3706 9.55898E-05-2.89478E-05-2.85578E-05-5.16600E-07 1.24079E-18-1.57751E-18
 -1      3707 9.54691E-05-2.88112E-05-2.85654E-05-4.77105E-07 1.45497E-18-1.34584E-18
 -1      3708 9.55984E-05-2.89846E-05-2.85541E-05-6.87257E-07 2.09570E-19-1.38326E-18
 -1      3709 9.53569E-05-2.86793E-05-2.85750E-05-4.10282E-07 2.06540E-18-1.38205E-18
 -1      3710 9.54912E-05-2.46279E-05-3.03755E-05-1.40098E-06-4.68891E-19-2.02244E-19
 -1      3711 9.58220E-05-2.55381E-05-3.01223E-05-8.63885E-07-4.81940E-19-2.29674E-19
 -1      3712 9.53696E-05-2.42429E-05-3.04813E-05-1.25773E-06-4.23578E-19-1.71876E-19
 -1      3713 9.63447E-05-2.82048E-05-2.92069E-05-5.72356E-07 1.10893E-19-4.26203E-19
 -1      3714 9.63456E-05-2.78899E-05-2.93327E-05-3.48861E-07 9.92519E-20-5.30599E-19
 -1      3715 9.58179E-05-2.88576E-05-2.86971E-05-9.70366E-07 1.26069E-19-6.05060E-19
 -1      3716 9.59100E-05-2.88947E-05-2.87203E-05-9.76499E-07 3.05832E-19-6.29061E-19
 -1      3717 9.42889E-05-2.75196E-05-2.86222E-05-6.53320E-07-4.22224E-19-4.51015E-19
 -1      3718 9.45882E-05-2.78073E-05-2.86231E-05-6.96794E-07-5.95517E-19-2.37660E-19
 -1      3719 9.48561E-05-2.80564E-05-2.86317E-05-7.82143E-07-5.23421E-19-1.50060E-20
 -1      3720 9.50613E-05-2.82593E-05-2.86314E-05-8.08939E-07 1.79786E-20-1.62455E-19
 -1      3721 9.47637E-05-2.79691E-05-2.86208E-05-5.11147E-07-2.55221E-19-3.81262E-19
 -1      3722 9.22321E-05-2.57120E-05-2.85305E-05 1.44143E-08 5.37571E-19-5.88398E-19
 -1      3723 9.29494E-05-2.63002E-05-2.85666E-05-1.79492E-07 5.34533E-19-4.53089E-19
 -1      3724 9.04804E-05-2.43361E-05-2.83832E-05 8.16372E-07 4.52887E-19-7.95743E-19
 -1      3725 9.15144E-05-2.50949E-05-2.84665E-05 4.40840E-07 5.40398E-19-3.92449E-19
 -1      3726 9.20795E-05-2.56570E-05-2.84458E-05 9.54034E-07 4.27372E-19-7.70072E-19
 -1      3727 8.79816E-05-2.25810E-05-2.80847E-05 2.26957E-06 1.34543E-19-1.44247E-18
 -1      3728 8.95055E-05-2.35580E-05-2.82593E-05 1.54976E-06 3.81951E-19-1.01956E-18
 -1      3729 9.04452E-05-2.44466E-05-2.82566E-05 2.25212E-06 4.97723E-19-3.63245E-19
 -1      3730 8.45209E-05-2.05051E-05-2.75171E-05 4.81060E-06 1.79252E-19-1.37332E-18
 -1      3731 8.67084E-05-2.16754E-05-2.78572E-05 3.49985E-06-1.27445E-19-1.46238E-18
 -1      3732 8.82734E-05-2.30653E-05-2.79097E-05 4.42322E-06 1.68502E-19-9.78654E-19
 -1      3733 7.99342E-05-1.83777E-05-2.64881E-05 9.07269E-06 6.49307E-19-1.44030E-18
 -1      3734 8.29705E-05-1.96115E-05-2.71186E-05 6.80662E-06 6.07309E-19-1.38386E-18
 -1      3735 8.55469E-05-2.17375E-05-2.73021E-05 7.94723E-06 3.52512E-19-1.58728E-18
 -1      3736 7.60075E-05-1.94167E-05-2.41666E-05-2.09966E-05 2.25522E-19 2.33966E-19
 -1      3737 9.27888E-05-2.61303E-05-2.85676E-05-5.70109E-07 6.69449E-19-1.28168E-18
 -1      3738 9.21508E-05-2.56517E-05-2.85233E-05-8.34439E-07 9.94457E-19-1.49838E-18
 -1      3739 9.52520E-05-2.85680E-05-2.85758E-05-5.36175E-07 2.68337E-18 3.96156E-19
 -1      3740 9.51581E-05-2.84791E-05-2.85783E-05-5.61752E-07 2.52555E-18-4.99197E-19
 -1      3741 9.50410E-05-2.83411E-05-2.85815E-05-5.76974E-07 2.55224E-18-3.82456E-19
 -1      3742 9.49274E-05-2.82340E-05-2.85856E-05-5.60118E-07 1.65813E-18-2.26131E-18
 -1      3743 9.51089E-05-2.84496E-05-2.85715E-05-6.78224E-07 2.16611E-18 2.92774E-19
 -1      3744 9.60205E-05-2.89141E-05-2.87598E-05-9.85789E-07 3.88086E-19-6.79063E-19
 -1      3745 9.60977E-05-2.88968E-05-2.87987E-05-9.70033E-07 1.63721E-19-6.10909E-19
 -1      3746 9.61034E-05-2.89433E-05-2.87838E-05-8.65625E-07 1.93991E-19-5.77108E-19
 -1      3747 9.44732E-05-2.76384E-05-2.86445E-05 1.02675E-07-2.88109E-19-5.21744E-19
 -1      3748 9.47932E-05-2.80721E-05-2.85911E-05-5.08453E-07 7.97512E-19-3.43803E-18
 -1      3749 9.46889E-05-2.79705E-05-2.85979E-05-4.34988E-07-7.69455E-20-2.08940E-18
 -1      3750 9.48233E-05-2.81421E-05-2.85795E-05-6.59096E-07 6.06053E-19-2.29354E-18
 -1      3751 9.15740E-05-2.51649E-05-2.84566E-05-1.34042E-06 6.62308E-19-2.01070E-18
 -1      3752 9.06335E-05-2.45375E-05-2.83640E-05-1.84946E-06 4.22881E-19-2.29652E-18
 -1      3753 9.21626E-05-2.57453E-05-2.84476E-05-1.73711E-06 3.91612E-19-2.11775E-18
 -1      3754 9.57425E-05-2.58027E-05-2.99768E-05 1.14376E-06 2.94763E-19-6.75176E-19
 -1      3755 9.37985E-05-2.09166E-05-3.12447E-05-2.15578E-07-6.73362E-20-9.21966E-19
 -1      3756 9.38414E-05-2.10074E-05-3.12264E-05-7.73522E-07-1.33011E-19-7.78050E-19
 -1      3757 9.45805E-05-2.23378E-05-3.09440E-05-7.99513E-07-1.88302E-19-6.07847E-19
 -1      3758 9.45172E-05-2.21801E-05-3.09839E-05 7.49000E-09 8.72722E-21-9.62478E-19
 -1      3759 9.45821E-05-2.78246E-05-2.86080E-05-3.08673E-07 9.97815E-20-2.69172E-18
 -1      3760 9.45204E-05-2.77531E-05-2.86174E-05-1.92647E-07-4.67915E-19-2.20354E-18
 -1      3761 9.45463E-05-2.78243E-05-2.85948E-05-4.84509E-07-1.06156E-19-2.56341E-18
 -1      3762 1.23752E-04-3.96535E-05-3.59096E-05 8.60987E-06-4.71427E-19-3.11880E-18
 -1      3763 1.19113E-04-3.24318E-05-3.73032E-05 1.17354E-05-1.43625E-18-3.71277E-18
 -1      3764 9.34741E-05-2.67758E-05-2.85977E-05-4.28108E-07 1.01596E-19-6.86641E-19
 -1      3765 9.39220E-05-2.71779E-05-2.86079E-05-5.13141E-07-3.94352E-19-6.32014E-19
 -1      3766 9.41472E-05-2.74062E-05-2.85942E-05-2.54948E-07-3.17465E-19-6.78164E-19
 -1      3767 9.63752E-05-2.72518E-05-2.96202E-05-3.55334E-08 9.22729E-20-2.43762E-19
 -1      3768 9.64393E-05-2.77061E-05-2.94620E-05 2.38317E-07 8.26203E-20-1.16218E-19
 -1      3769 9.65676E-05-2.77925E-05-2.94741E-05 2.40831E-07-7.23688E-20-4.72929E-20
 -1      3770 1.26943E-04-4.54628E-05-3.48866E-05-2.95195E-06 1.08129E-18 1.23881E-18
 -1      3771 1.30137E-04-4.98849E-05-3.44531E-05 2.28590E-06 1.78286E-18-2.06398E-20
 -1      3772 1.26903E-04-5.01940E-05-3.29343E-05 5.97517E-06 1.97108E-18 4.22269E-19
 -1      3773 9.62913E-05-3.59097E-05-2.57545E-05-2.72297E-05 9.90724E-19-1.46598E-18
 -1      3774 1.06385E-04-4.26007E-05-2.74319E-05-2.38477E-05 1.15151E-18-1.13677E-18
 -1      3775 1.18854E-04-2.57518E-05-4.01839E-05-1.28311E-05-1.53697E-18 1.13023E-18
 -1      3776 1.23644E-04-3.22523E-05-3.92142E-05-1.25107E-05-1.25152E-18 1.22910E-18
 -1      3777 1.27618E-04-5.00614E-05-3.30749E-05-4.94082E-06 1.48112E-18-1.15609E-18
 -1      3778 1.26369E-04-4.60819E-05-3.46069E-05 2.08653E-06 1.05019E-18-1.69782E-18
 -1      3779 1.22570E-04-4.88430E-05-3.16337E-05-7.89401E-06 2.25028E-18-1.05374E-18
 -1      3780 7.44706E-05-1.69833E-05-2.47225E-05 1.59340E-05 6.10800E-19-1.77058E-18
 -1      3781 7.82908E-05-1.78792E-05-2.58241E-05 1.21905E-05 4.75616E-19-2.27513E-18
 -1      3782 8.24556E-05-2.09563E-05-2.62891E-05 1.34438E-05 1.02872E-18-1.50110E-18
 -1      3783 8.38132E-05-1.92786E-05-2.76778E-05-2.60456E-06-7.40514E-19-5.76706E-19
 -1      3784 8.08534E-05-1.75014E-05-2.72400E-05-3.27983E-06-9.07541E-19 5.13183E-21
 -1      3785 8.15279E-05-1.84531E-05-2.68988E-05-7.37970E-06-7.77867E-19-4.24071E-19
 -1      3786 8.55148E-05-2.06989E-05-2.77064E-05-4.16768E-06-2.83909E-19-1.59925E-18
 -1      3787 1.23202E-04-3.68409E-05-3.70948E-05-9.64181E-06-2.74796E-19 1.71895E-18
 -1      3788 9.60625E-05-2.61600E-05-2.99583E-05-6.11015E-07-2.75359E-19-1.79450E-19
 -1      3789 9.62320E-05-2.68113E-05-2.97563E-05-2.12363E-07-1.23459E-19-1.85845E-19
 -1      3790 9.63732E-05-2.69355E-05-2.97612E-05-1.21485E-07-5.27730E-20 3.81578E-20
 -1      3791 9.60271E-05-2.58972E-05-3.00599E-05-5.78383E-07-2.58709E-19-4.33116E-20
 -1      3792 9.43464E-05-2.75385E-05-2.86322E-05-4.47690E-08-1.80575E-19-1.56515E-18
 -1      3793 9.53484E-05-2.41797E-05-3.05167E-05 1.26146E-06 2.55898E-19-5.35049E-19
 -1      3794 9.51950E-05-2.37442E-05-3.06238E-05 1.03505E-06 1.00386E-19-4.98041E-19
 -1      3795 1.23123E-04-5.13488E-05-3.07073E-05 1.55274E-05 1.59009E-18 2.60181E-19
 -1      3796 1.20871E-04-5.21640E-05-2.93782E-05 2.24477E-05 1.36757E-18-1.21690E-19
 -1      3797 1.13866E-04-4.84361E-05-2.80731E-05 2.49220E-05 1.35722E-18-5.17464E-19
 -1      3798 8.98489E-05-2.39307E-05-2.82390E-05-2.71549E-06-8.49378E-20-2.70867E-18
 -1      3799 8.84754E-05-2.31342E-05-2.80534E-05-3.65997E-06-4.97807E-19-2.96197E-18
 -1      3800 9.08457E-05-2.48582E-05-2.82576E-05-3.22657E-06-4.42490E-19-3.34641E-18
 -1      3801 9.63028E-05-2.86345E-05-2.90028E-05-8.29006E-07 5.02640E-20-3.92827E-19
 -1      3802 9.63426E-05-2.84529E-05-2.90911E-05-7.07032E-07 1.47005E-19-3.90251E-19
 -1      3803 9.64942E-05-2.82705E-05-2.92398E-05-5.32828E-07 1.09517E-19-2.83719E-19
 -1      3804 9.53428E-05-2.86801E-05-2.85721E-05-5.11255E-07 1.95551E-18-9.53385E-19
 -1      3805 1.01233E-04-1.68947E-05-3.61918E-05-2.91722E-06-8.70685E-19-2.49693E-20
 -1      3806 1.01032E-04-1.64289E-05-3.62690E-05 1.01040E-07-1.06165E-18-1.57680E-19
 -1      3807 1.03546E-04-1.56138E-05-3.77113E-05 2.21982E-06-1.13936E-18-7.37074E-19
 -1      3808 9.56854E-05-2.87857E-05-2.86717E-05-9.43384E-07 1.17660E-19-6.39581E-19
 -1      3809 9.58648E-05-2.88633E-05-2.87151E-05-8.36377E-07 3.02689E-19-8.34750E-19
 -1      3810 9.55723E-05-2.86992E-05-2.86601E-05-9.26896E-07 1.60964E-19-3.53608E-19
 -1      3811 9.53609E-05-2.87033E-05-2.85658E-05-6.20433E-07 9.18223E-19 2.48019E-19
 -1      3812 9.32832E-05-2.66457E-05-2.85448E-05 1.87480E-07-6.45235E-20-1.09042E-18
 -1      3813 7.79385E-05-1.96952E-05-2.50765E-05-1.77749E-05-9.72202E-19-1.41287E-18
 -1      3814 8.17938E-05-2.33408E-05-2.49210E-05-2.19620E-05 4.74908E-19-2.33432E-18
 -1      3815 9.32070E-05-2.65018E-05-2.86019E-05-2.77770E-07 5.74493E-19-1.04195E-18
 -1      3816 9.31324E-05-2.64873E-05-2.85498E-05-8.63909E-07 6.08717E-19-2.40607E-18
 -1      3817 9.36184E-05-2.68559E-05-2.86198E-05-1.63584E-07 2.83718E-19-1.05938E-18
 -1      3818 1.07345E-04-1.25710E-05-4.08038E-05-2.41393E-06-3.03583E-18 3.06123E-20
 -1      3819 1.06726E-04-1.45596E-05-3.95356E-05-4.99895E-06-2.63280E-18 3.78167E-19
 -1      3820 1.04211E-04-1.67387E-05-3.74652E-05-5.29533E-06-1.47992E-18 8.85004E-19
 -1      3821 9.50509E-05-2.33554E-05-3.07332E-05-4.59343E-07-3.20432E-20-5.52978E-19
 -1      3822 9.51082E-05-2.35208E-05-3.06914E-05-8.06428E-07-2.19651E-19-4.69055E-19
 -1      3823 1.18146E-04-3.41720E-05-3.60333E-05-1.09022E-05-2.95433E-19 1.57703E-18
 -1      3824 1.23010E-04-4.07353E-05-3.53026E-05-7.70019E-06 1.87234E-19 1.78682E-18
 -1      3825 8.54623E-05-2.69874E-05-2.50909E-05-2.40848E-05 1.91468E-18-8.38166E-19
 -1      3826 9.08625E-05-3.18927E-05-2.52422E-05-2.70681E-05 1.50468E-18-1.40954E-18
 -1      3827 9.64860E-05-3.41556E-05-2.66011E-05-2.22170E-05 1.26027E-18-4.28106E-19
 -1      3828 8.74380E-05-2.67285E-05-2.59349E-05-2.04236E-05 8.28193E-19-1.72738E-18
 -1      3829 9.62988E-05-2.88995E-05-2.88867E-05-8.45027E-07 1.51757E-19-5.01256E-19
 -1      3830 9.61856E-05-2.88521E-05-2.88579E-05-9.50799E-07-1.00537E-19-4.79264E-19
 -1      3831 9.62482E-05-2.87646E-05-2.89186E-05-8.94297E-07-8.16604E-20-2.74664E-19
 -1      3832 9.41543E-05-2.73630E-05-2.86306E-05-6.75471E-08-5.76645E-20-1.64551E-18
 -1      3833 9.38931E-05-2.71158E-05-2.86244E-05-1.29934E-07-5.34994E-20-1.60736E-18
 -1      3834 9.37963E-05-2.70580E-05-2.85899E-05-5.08985E-07 6.68954E-19-2.76851E-18
 -1      3835 9.42431E-05-2.74898E-05-2.86012E-05-4.06659E-07-3.90700E-19-1.98741E-18
 -1      3836 9.55542E-05-3.79890E-05-2.44360E-05 3.33066E-05 9.31326E-19-1.98952E-18
 -1      3837 8.97064E-05-3.24783E-05-2.45411E-05 2.99516E-05 1.10949E-18-1.95310E-18
 -1      3838 1.02285E-04-4.13037E-05-2.60949E-05 2.91584E-05 1.43920E-18-1.17071E-18
 -1      3839 1.14728E-04-2.22353E-05-3.96679E-05-1.16615E-05-2.50522E-18 1.93653E-18
 -1      3840 1.13288E-04-2.50857E-05-3.77879E-05 1.20761E-05-4.67496E-19-2.61062E-18
 -1      3841 1.09191E-04-1.94277E-05-3.86220E-05 9.99487E-06-9.22631E-19-2.01497E-18
 -1      3842 9.51311E-05-2.35596E-05-3.06849E-05 7.90770E-07 1.22931E-19-7.52004E-19
 -1      3843 9.50704E-05-2.33908E-05-3.07261E-05 4.44374E-07 9.38907E-20-9.81580E-19
 -1      3844 9.56504E-05-2.46308E-05-3.04210E-05 6.36286E-07 1.90270E-19-6.79014E-19
 -1      3845 9.52641E-05-2.84380E-05-2.86410E-05-8.65489E-07 1.19851E-19-3.77649E-19
 -1      3846 9.54117E-05-2.85769E-05-2.86447E-05-8.86571E-07 1.88755E-19-3.75005E-19
 -1      3847 9.55775E-05-2.86766E-05-2.86708E-05-7.71035E-07 9.13355E-20-9.13019E-19
 -1      3848 9.52222E-05-2.83831E-05-2.86425E-05-6.68663E-07-1.52056E-20-1.98199E-19
 -1      3849 9.62632E-05-2.74764E-05-2.94860E-05-1.23700E-07 4.27804E-20-3.42251E-19
 -1      3850 9.62057E-05-2.69974E-05-2.96527E-05 2.46747E-07-1.86049E-20-4.53153E-19
 -1      3851 9.64170E-05-2.75525E-05-2.95139E-05-1.57333E-07 1.68392E-19-4.25943E-19
 -1      3852 1.21870E-04-4.20438E-05-3.42718E-05 5.06124E-06 4.00427E-19-2.60402E-18
 -1      3853 9.51856E-05-2.37164E-05-3.06326E-05-9.44378E-07-3.04543E-19-2.19758E-19
 -1      3854 9.52949E-05-2.40146E-05-3.05590E-05-1.16210E-06-4.41116E-19-1.07885E-19
 -1      3855 9.57611E-05-2.50327E-05-3.03008E-05-7.65146E-07-3.41748E-19-1.47475E-20
 -1      3856 9.56431E-05-2.45964E-05-3.04329E-05-5.81679E-07-2.10265E-19-2.51303E-19
 -1      3857 1.22171E-04-4.25984E-05-3.41427E-05-4.70017E-06 6.84919E-19 1.04549E-18
 -1      3858 9.59830E-05-2.63042E-05-2.98709E-05 5.72300E-07 1.48760E-19-4.43991E-19
 -1      3859 9.56418E-05-2.50856E-05-3.02398E-05 1.38728E-06 3.55513E-19-5.64979E-19
 -1      3860 9.54751E-05-2.45308E-05-3.03963E-05 1.30049E-06 2.74348E-19-4.08087E-19
 -1      3861 9.61316E-05-2.64111E-05-2.98895E-05 4.39469E-07 3.16215E-20-3.98195E-19
 -1      3862 1.10987E-04-4.46702E-05-2.82714E-05-2.03057E-05 1.32669E-18-7.28874E-19
 -1      3863 1.14083E-04-4.59085E-05-2.93297E-05-1.56093E-05 1.91345E-18-7.40628E-19
 -1      3864 1.04701E-04-4.00439E-05-2.77785E-05-1.98138E-05 3.34121E-19-1.53003E-18
 -1      3865 8.09216E-05-2.01001E-05-2.60387E-05-1.39717E-05-5.91887E-19-4.19917E-19
 -1      3866 7.73014E-05-1.99356E-05-2.44496E-05 2.04385E-05 6.45524E-19-2.62231E-18
 -1      3867 1.15165E-04-2.98396E-05-3.66497E-05 1.19474E-05-8.52380E-19-2.89071E-18
 -1      3868 9.45456E-05-2.78495E-05-2.85776E-05-7.19522E-07-5.57296E-19-3.23467E-18
 -1      3869 9.43876E-05-2.76996E-05-2.85874E-05-5.93239E-07-6.44205E-19-2.21117E-18
 -1      3870 9.42105E-05-2.75237E-05-2.85820E-05-6.57819E-07-1.35077E-18-2.46943E-18
 -1      3871 9.67308E-05-2.83122E-05-2.93203E-05 3.53189E-07-2.49845E-19-1.91998E-19
 -1      3872 9.67212E-05-2.85784E-05-2.92060E-05 4.60547E-07-3.23974E-19-1.02964E-19
 -1      3873 8.54699E-05-2.41980E-05-2.63373E-05 1.60865E-05 1.05560E-18-1.78836E-18
 -1      3874 8.69518E-05-2.40093E-05-2.69112E-05 1.27210E-05 1.07848E-18-1.53291E-18
 -1      3875 9.47114E-05-2.79721E-05-2.86090E-05-2.21830E-07-1.12559E-19-3.40051E-19
 -1      3876 9.49782E-05-2.81937E-05-2.86214E-05-3.29712E-07 1.69723E-20-2.01877E-19
 -1      3877 1.18375E-04-4.07336E-05-3.32396E-05-5.69637E-06 7.78623E-19 1.13048E-18
 -1      3878 1.21853E-04-4.53492E-05-3.28671E-05-9.99521E-07 1.39884E-18 5.82099E-19
 -1      3879 9.66917E-05-2.87843E-05-2.91014E-05 5.09151E-07-1.46646E-19-1.90611E-19
 -1      3880 9.66361E-05-2.89353E-05-2.90151E-05 5.69396E-07-2.48651E-19-9.76645E-20
 -1      3881 9.67821E-05-2.86536E-05-2.91980E-05 3.67677E-07-1.62828E-19-3.85548E-19
 -1      3882 9.65617E-05-2.90420E-05-2.89357E-05 5.94853E-07-3.72530E-19-3.07748E-20
 -1      3883 9.64834E-05-2.91150E-05-2.88716E-05 6.25565E-07-5.49527E-19 2.17867E-19
 -1      3884 9.66767E-05-2.89848E-05-2.90120E-05 4.52449E-07-2.50868E-19-3.18983E-19
 -1      3885 9.63863E-05-2.91560E-05-2.88121E-05 6.40953E-07-7.21682E-19 5.10239E-19
 -1      3886 9.63029E-05-2.91812E-05-2.87649E-05 6.57598E-07-6.59674E-19 6.45336E-19
 -1      3887 9.65048E-05-2.91423E-05-2.88714E-05 5.05043E-07-4.72054E-19 1.73699E-19
 -1      3888 9.62008E-05-2.91850E-05-2.87206E-05 6.75022E-07-5.60999E-19 9.10763E-19
 -1      3889 9.61272E-05-2.91877E-05-2.86859E-05 6.90500E-07-2.47411E-19 1.05713E-18
 -1      3890 9.63053E-05-2.91891E-05-2.87662E-05 5.50234E-07-4.06037E-19 8.64191E-19
 -1      3891 9.60359E-05-2.91792E-05-2.86527E-05 7.21611E-07 1.02771E-20 7.92164E-19
 -1      3892 9.59871E-05-2.91832E-05-2.86268E-05 7.46541E-07 6.43412E-20 1.08502E-18
 -1      3893 9.61109E-05-2.91790E-05-2.86876E-05 6.11494E-07-1.57642E-19 7.99554E-19
 -1      3894 9.59219E-05-2.91854E-05-2.86013E-05 8.02853E-07-1.74022E-19 1.22373E-18
 -1      3895 9.59160E-05-2.92151E-05-2.85815E-05 8.46505E-07 1.49259E-19 1.03686E-18
 -1      3896 9.59523E-05-2.91611E-05-2.86279E-05 7.12380E-07-6.46654E-20 8.77092E-19
 -1      3897 9.58966E-05-2.92534E-05-2.85611E-05 9.39472E-07 6.01497E-19 1.22434E-18
 -1      3898 9.59568E-05-2.93360E-05-2.85456E-05 1.00913E-06 8.31990E-19 1.05256E-18
 -1      3899 9.58635E-05-2.91846E-05-2.85810E-05 8.78463E-07 4.58271E-19 1.04444E-18
 -1      3900 9.60111E-05-2.94405E-05-2.85290E-05 1.14989E-06 6.91326E-19 6.38450E-19
 -1      3901 9.61695E-05-2.96090E-05-2.85179E-05 1.24891E-06 3.83228E-19 8.93569E-19
 -1      3902 9.58905E-05-2.93054E-05-2.85429E-05 1.13571E-06 5.72095E-19 9.35382E-19
 -1      3903 9.63376E-05-2.98168E-05-2.85056E-05 1.44461E-06 2.64926E-19 1.20460E-18
 -1      3904 9.66364E-05-3.01106E-05-2.85012E-05 1.56858E-06 9.25330E-20 1.40198E-18
 -1      3905 9.61000E-05-2.95942E-05-2.85122E-05 1.50792E-06 7.31050E-19 5.95140E-19
 -1      3906 9.69753E-05-3.04667E-05-2.84966E-05 1.81638E-06-1.30344E-19 1.76441E-18
 -1      3907 9.74669E-05-3.09295E-05-2.85049E-05 1.94603E-06 2.12571E-19 1.54125E-18
 -1      3908 9.65873E-05-3.01399E-05-2.84923E-05 2.00745E-06 1.87635E-19 7.42964E-19
 -1      3909 9.80533E-05-3.14835E-05-2.85164E-05 2.22080E-06 2.16531E-19 1.43370E-18
 -1      3910 9.87938E-05-3.21538E-05-2.85494E-05 2.31166E-06 2.46107E-19 1.19141E-18
 -1      3911 9.74855E-05-3.10506E-05-2.84944E-05 2.61733E-06-1.03649E-19 6.69773E-19
 -1      3912 9.97209E-05-3.29485E-05-2.85936E-05 2.54754E-06 4.33086E-19 7.61013E-19
 -1      3913 1.00753E-04-3.38382E-05-2.86714E-05 2.51715E-06 4.19408E-19 4.02761E-19
 -1      3914 9.89659E-05-3.24414E-05-2.85425E-05 3.26017E-06 8.44034E-20-1.37901E-19
 -1      3915 1.02109E-04-3.48790E-05-2.87769E-05 2.58712E-06 1.96814E-19 4.83790E-19
 -1      3916 1.03432E-04-3.59348E-05-2.89307E-05 2.30822E-06-1.36129E-19 5.17581E-19
 -1      3917 1.01215E-04-3.43901E-05-2.86821E-05 3.75089E-06 3.11754E-19-5.89672E-19
 -1      3918 1.05260E-04-3.71402E-05-2.91439E-05 2.00495E-06-3.63122E-19 8.87669E-19
 -1      3919 1.06781E-04-3.81771E-05-2.94196E-05 1.31806E-06 5.30512E-20 9.34244E-19
 -1      3920 1.04376E-04-3.68576E-05-2.89880E-05 3.77256E-06-5.30243E-20-5.72971E-19
 -1      3921 1.08965E-04-3.92660E-05-2.98105E-05 3.76078E-07 3.46331E-19 1.20930E-18
 -1      3922 1.10366E-04-3.98960E-05-3.02373E-05-7.72818E-07 5.79511E-19 1.58574E-18
 -1      3923 1.08396E-04-3.94994E-05-2.95841E-05 2.75807E-06 2.95084E-19 1.71346E-19
 -1      3924 1.13822E-04-4.08801E-05-3.12399E-05-2.91394E-06 1.13100E-18 1.23436E-18
 -1      3925 1.14718E-04-4.01291E-05-3.19671E-05-4.75949E-06 1.09898E-18 2.23708E-18
 -1      3926 1.14806E-04-3.79588E-05-3.30041E-05-7.77283E-06 2.78698E-19 2.88171E-18
 -1      3927 1.14568E-04-3.54417E-05-3.38921E-05-9.53078E-06-2.76093E-19 3.37783E-18
 -1      3928 1.14583E-04-3.20257E-05-3.54475E-05-1.11964E-05-4.57978E-19 2.84515E-18
 -1      3929 1.13151E-04-2.79688E-05-3.65897E-05-1.20682E-05-1.07479E-18 3.11764E-18
 -1      3930 1.11266E-04-2.35481E-05-3.76057E-05-1.09841E-05-1.78877E-18 2.21441E-18
 -1      3931 1.14303E-04-3.90140E-05-3.22941E-05 6.07760E-06 2.40245E-19-3.85581E-18
 -1      3932 1.13820E-04-4.01499E-05-3.15427E-05 4.34390E-06 4.18448E-19-3.60370E-18
 -1      3933 1.11782E-04-4.01274E-05-3.07602E-05 2.16242E-06 1.68890E-19-2.93790E-18
 -1      3934 1.10518E-04-3.98624E-05-3.02224E-05 7.42435E-07-3.37112E-19-2.30713E-18
 -1      3935 1.14679E-04-4.18288E-05-3.12666E-05 1.32709E-06 3.28452E-19-2.98774E-18
 -1      3936 1.08228E-04-3.89154E-05-2.97365E-05-5.56031E-07-7.55294E-19-1.52147E-18
 -1      3937 1.06701E-04-3.79818E-05-2.93963E-05-1.43322E-06-3.35778E-19-1.06601E-18
 -1      3938 1.10246E-04-4.04634E-05-2.99724E-05-1.95965E-06 1.09188E-20-5.35363E-19
 -1      3939 1.04683E-04-3.67610E-05-2.91194E-05-1.97810E-06-5.04380E-19-1.39507E-18
 -1      3940 1.03244E-04-3.56611E-05-2.89222E-05-2.39125E-06-2.34431E-20-6.77228E-19
 -1      3941 1.05901E-04-3.78844E-05-2.92119E-05-3.48490E-06-2.00964E-19 9.91700E-19
 -1      3942 1.01674E-04-3.45126E-05-2.87798E-05-2.44119E-06 4.12019E-19-6.63237E-19
 -1      3943 1.00493E-04-3.35159E-05-2.86767E-05-2.54152E-06 5.98936E-19-5.14126E-19
 -1      3944 1.02306E-04-3.52162E-05-2.88031E-05-3.81237E-06 1.28877E-19 1.48940E-19
 -1      3945 9.93786E-05-3.25920E-05-2.86132E-05-2.33973E-06 1.28916E-18-6.86337E-19
 -1      3946 9.84950E-05-3.18023E-05-2.85664E-05-2.27090E-06 1.68687E-18-6.59754E-19
 -1      3947 9.96435E-05-3.29739E-05-2.86093E-05-3.44342E-06 8.81741E-19 4.72481E-19
 -1      3948 9.77531E-05-3.11233E-05-2.85447E-05-1.98492E-06 1.58012E-18-3.41620E-19
 -1      3949 9.71343E-05-3.05475E-05-2.85288E-05-1.84618E-06 1.97353E-18 4.73169E-19
 -1      3950 9.78179E-05-3.12984E-05-2.85331E-05-2.80355E-06 1.71618E-18 5.23209E-19
 -1      3951 9.66673E-05-3.00801E-05-2.85274E-05-1.56481E-06 2.06887E-18 5.75455E-19
 -1      3952 9.62575E-05-2.96853E-05-2.85269E-05-1.41396E-06 1.22383E-18 7.10507E-19
 -1      3953 9.66356E-05-3.01353E-05-2.85158E-05-2.13710E-06 2.16425E-18 6.95690E-19
 -1      3954 9.59782E-05-2.93811E-05-2.85341E-05-1.17329E-06-1.63107E-19 2.07261E-18
 -1      3955 9.57237E-05-2.91260E-05-2.85403E-05-1.03690E-06-1.95786E-19 1.72282E-18
 -1      3956 9.59080E-05-2.93718E-05-2.85250E-05-1.55735E-06 1.08110E-18 1.83940E-18
 -1      3957 9.55907E-05-2.89636E-05-2.85491E-05-8.62521E-07-9.26848E-21 3.97181E-19
 -1      3958 9.54351E-05-2.87987E-05-2.85574E-05-7.51418E-07 5.08760E-20-2.71306E-19
 -1      3959 9.53148E-05-2.86741E-05-2.85605E-05-7.84269E-07 6.45045E-19 1.81498E-18
 -1      3960 9.55188E-05-2.89369E-05-2.85427E-05-1.10621E-06-1.23373E-18 2.39388E-18
 -1      3961 9.58314E-05-2.52478E-05-3.02358E-05 8.36276E-07 1.98494E-19-4.11213E-19
 -1      3962 8.02916E-05-2.32727E-05-2.44699E-05 2.32915E-05 9.67514E-19-2.58297E-18
 -1      3963 8.40525E-05-2.40347E-05-2.56863E-05 1.92585E-05 9.80305E-19-1.79794E-18
 -1      3964 8.89209E-05-2.71251E-05-2.63838E-05 1.83370E-05 1.03129E-18-1.23760E-18
 -1      3965 8.56029E-05-2.77929E-05-2.46232E-05 2.64290E-05 1.13752E-18-2.37413E-18
 -1      3966 9.06492E-05-2.49870E-05-2.81804E-05 3.43299E-06 2.85113E-19 1.32048E-19
 -1      3967 9.16004E-05-2.55188E-05-2.83052E-05 2.55029E-06 2.97671E-19-3.66164E-19
 -1      3968 9.20919E-05-2.59157E-05-2.83885E-05 1.78075E-06 7.93597E-20-8.04765E-19
 -1      3969 9.27967E-05-2.63802E-05-2.84561E-05 1.25142E-06 2.56116E-19-8.64354E-19
 -1      3970 9.24641E-05-2.63430E-05-2.83276E-05 2.81487E-06-1.67627E-19-6.27217E-19
 -1      3971 8.69951E-05-2.36012E-05-2.72344E-05 1.01153E-05 8.06280E-19-1.25635E-18
 -1      3972 8.84731E-05-2.39467E-05-2.76056E-05 7.85895E-06 6.67695E-19-6.95684E-19
 -1      3973 9.00464E-05-2.64226E-05-2.72759E-05 1.24129E-05 1.00654E-18-8.56432E-19
 -1      3974 9.32233E-05-2.67509E-05-2.85061E-05 7.57449E-07 2.55423E-19-9.20067E-19
 -1      3975 9.37421E-05-2.71351E-05-2.85420E-05 4.39819E-07-1.13286E-19-1.01088E-18
 -1      3976 9.33631E-05-2.69384E-05-2.84595E-05 1.48461E-06 1.60700E-19-8.80872E-19
 -1      3977 1.05018E-04-1.35382E-05-3.92051E-05 9.29555E-07-1.74199E-18-8.55993E-19
 -1      3978 1.08048E-04-1.72182E-05-3.91201E-05-8.71669E-06-2.77484E-18 1.37181E-18
 -1      3979 1.24009E-04-4.78993E-05-3.25302E-05 3.64097E-06 1.31233E-18 3.74435E-19
 -1      3980 1.24734E-04-5.07127E-05-3.17514E-05 9.71407E-06 1.49375E-18 2.61326E-19
 -1      3981 1.20256E-04-4.92489E-05-3.04637E-05 1.33625E-05 9.35528E-19 1.10752E-19
 -1      3982 1.07635E-04-1.59243E-05-3.93358E-05 7.59158E-06-1.41582E-18-1.59164E-18
 -1      3983 1.05611E-04-1.47286E-05-3.90384E-05 4.73518E-06-1.63945E-18-1.52529E-18
 -1      3984 9.61699E-05-2.89859E-05-2.87935E-05-7.23696E-07 2.47568E-19-5.84893E-19
 -1      3985 9.62800E-05-2.89908E-05-2.88370E-05-7.23078E-07 1.14520E-19-4.95817E-19
 -1      3986 1.18758E-04-4.71876E-05-3.04944E-05-1.00336E-05 2.71593E-18-6.08828E-19
 -1      3987 1.20157E-04-4.63954E-05-3.17265E-05-3.94577E-06 1.95843E-18-8.72530E-19
 -1      3988 9.49124E-05-2.82438E-05-2.85664E-05-8.50404E-07 9.31375E-19 5.45046E-19
 -1      3989 9.47366E-05-2.80823E-05-2.85711E-05-7.98939E-07-2.18351E-19-1.98535E-18
 -1      3990 9.46097E-05-2.79659E-05-2.85629E-05-9.26394E-07-7.04494E-19-2.56330E-18
 -1      3991 9.28900E-05-2.64395E-05-2.84681E-05-1.86379E-06 9.22793E-19-3.00843E-18
 -1      3992 9.23269E-05-2.61211E-05-2.84005E-05-2.45423E-06 1.04430E-18-2.59457E-18
 -1      3993 1.14195E-04-3.31061E-05-3.47324E-05 1.05286E-05-8.22396E-19-3.63165E-18
 -1      3994 9.50372E-05-2.33126E-05-3.07487E-05 1.81077E-07 1.06707E-19-1.08132E-18
 -1      3995 9.50358E-05-2.33088E-05-3.07489E-05-1.89473E-07 4.58186E-20-8.13373E-19
 -1      3996 9.55631E-05-2.43374E-05-3.05096E-05-2.36535E-07 4.16260E-20-6.42799E-19
 -1      3997 9.55798E-05-2.43679E-05-3.05033E-05 2.14308E-07 1.35966E-19-1.03222E-18
 -1      3998 9.40778E-05-2.74386E-05-2.85708E-05 1.43194E-07-1.72654E-19-5.29288E-19
 -1      3999 9.44415E-05-2.77299E-05-2.85893E-05-3.73763E-08-5.72297E-20-5.06821E-19
 -1      4000 9.41063E-05-2.74997E-05-2.85391E-05 6.48959E-07 1.89583E-19-6.50775E-19
 -1      4001 8.88982E-05-2.41035E-05-2.78229E-05 6.06262E-06 5.40650E-19-5.41904E-19
 -1      4002 9.01281E-05-2.46286E-05-2.80428E-05 4.62756E-06 3.77943E-19-5.80586E-20
 -1      4003 9.14690E-05-2.58518E-05-2.81132E-05 4.86505E-06 4.79553E-19 3.64881E-20
 -1      4004 9.05291E-05-2.57162E-05-2.77759E-05 7.95632E-06 8.49855E-19-2.48181E-20
 -1      4005 9.66238E-05-2.75427E-05-2.96038E-05 9.11643E-08-1.24899E-20-8.36479E-20
 -1      4006 9.66867E-05-2.79645E-05-2.94562E-05 2.69681E-07-9.88417E-20-1.73024E-19
 -1      4007 9.67716E-05-2.80752E-05-2.94406E-05 2.25566E-07-1.75191E-19-1.20611E-19
 -1      4008 1.20711E-04-4.45239E-05-3.25523E-05 1.37372E-06 1.08219E-18-1.86628E-18
 -1      4009 1.17824E-04-3.93765E-05-3.36542E-05 7.01057E-06-3.86889E-20-3.54883E-18
 -1      4010 9.51726E-05-2.85297E-05-2.85626E-05-8.25740E-07 7.00409E-19 1.03781E-18
 -1      4011 8.27444E-05-2.07569E-05-2.66786E-05-1.10879E-05-3.90684E-19-1.58991E-18
 -1      4012 8.53511E-05-2.34885E-05-2.64377E-05-1.52864E-05-2.22679E-19-2.63483E-18
 -1      4013 1.15138E-04-3.63815E-05-3.37822E-05 9.24854E-06-4.33707E-19-4.33056E-18
 -1      4014 1.12369E-04-4.57685E-05-2.84946E-05 2.04597E-05 1.07377E-18-3.92345E-19
 -1      4015 1.08072E-04-4.42715E-05-2.72110E-05 2.57797E-05 1.53444E-18-1.28334E-18
 -1      4016 1.01579E-04-3.94092E-05-2.67081E-05 2.50105E-05 1.64394E-18-1.01529E-18
 -1      4017 9.20322E-05-2.58999E-05-2.83235E-05-3.26992E-06 6.18326E-20-2.19522E-18
 -1      4018 9.12758E-05-2.55521E-05-2.82011E-05-4.26940E-06-7.24303E-19-2.42211E-18
 -1      4019 9.28673E-05-2.66920E-05-2.83557E-05-3.34953E-06 8.66511E-19-2.59820E-18
 -1      4020 9.64389E-05-2.86941E-05-2.90348E-05-7.47236E-07 2.14088E-20-2.08492E-19
 -1      4021 8.75522E-05-2.59076E-05-2.64837E-05-1.69279E-05 3.47358E-20-2.15867E-18
 -1      4022 9.13820E-05-2.91819E-05-2.66424E-05-1.86635E-05 7.88921E-19-1.08084E-18
 -1      4023 8.92019E-05-2.58814E-05-2.70675E-05-1.36697E-05-3.18715E-19-2.36939E-18
 -1      4024 9.51775E-05-2.83694E-05-2.86295E-05-1.77674E-07-1.43369E-19-3.38016E-19
 -1      4025 9.51980E-05-2.83810E-05-2.86393E-05-4.45843E-07-2.16277E-19-4.48508E-19
 -1      4026 9.54015E-05-2.85446E-05-2.86524E-05-5.11653E-07-2.45515E-19-6.75318E-19
 -1      4027 1.20055E-04-4.56683E-05-3.18256E-05 2.38917E-06 1.07872E-18 5.43939E-19
 -1      4028 1.14210E-04-4.21534E-05-3.09422E-05 1.30869E-07 1.04015E-18 1.22353E-18
 -1      4029 9.46986E-05-2.79791E-05-2.85897E-05 1.38392E-07-6.26100E-20 1.78160E-19
 -1      4030 9.59029E-05-2.88858E-05-2.87223E-05-6.77268E-07 4.93955E-19-6.20520E-19
 -1      4031 9.60347E-05-2.89465E-05-2.87514E-05-6.98105E-07 4.22475E-19-5.09129E-19
 -1      4032 9.61972E-05-2.90017E-05-2.87989E-05-5.64933E-07 3.79841E-19-3.38556E-19
 -1      4033 9.65475E-05-2.77028E-05-2.95101E-05-2.29845E-07 9.89391E-20-4.25934E-19
 -1      4034 9.64715E-05-2.72469E-05-2.96695E-05 2.10352E-08 7.89209E-20-4.65027E-19
 -1      4035 9.13982E-05-3.15276E-05-2.56555E-05 2.48662E-05 1.43688E-18-1.31651E-18
 -1      4036 1.13487E-04-4.43535E-05-2.96087E-05-1.14972E-05 1.97910E-18-8.64129E-19
 -1      4037 9.35606E-05-2.69465E-05-2.85494E-05-1.01293E-06 8.46760E-19-4.93128E-18
 -1      4038 9.31547E-05-2.66633E-05-2.85133E-05-1.35598E-06 3.33414E-19-4.49647E-18
 -1      4039 9.34205E-05-2.69629E-05-2.84747E-05-1.97974E-06 1.35469E-18-4.34328E-18
 -1      4040 8.49420E-05-2.14729E-05-2.71743E-05-8.88097E-06 3.95362E-19-2.05957E-18
 -1      4041 9.45850E-05-3.18742E-05-2.68614E-05-1.91365E-05 1.65950E-18-2.43449E-19
 -1      4042 9.92815E-05-3.55339E-05-2.72741E-05-1.93987E-05 1.01080E-18-6.58118E-19
 -1      4043 9.46514E-05-3.07313E-05-2.73067E-05-1.57417E-05 6.98845E-19-5.75054E-19
 -1      4044 9.51265E-05-2.84970E-05-2.85543E-05-9.82448E-07-7.77319E-19 1.17840E-18
 -1      4045 9.59915E-05-2.55601E-05-3.01948E-05 5.24246E-07 1.66965E-19-5.61394E-19
 -1      4046 9.59441E-05-2.53588E-05-3.02557E-05 3.59423E-07 1.50115E-19-8.20238E-19
 -1      4047 9.64402E-05-2.90000E-05-2.89039E-05-5.85516E-07 1.46843E-20-4.47646E-19
 -1      4048 9.63897E-05-2.89650E-05-2.88971E-05-7.25790E-07 3.05878E-20-5.94390E-19
 -1      4049 9.64774E-05-2.88972E-05-2.89608E-05-6.93229E-07 8.81503E-20-4.04774E-19
 -1      4050 9.66166E-05-2.83906E-05-2.92430E-05-5.13628E-07 1.03935E-19-4.60134E-19
 -1      4051 9.66217E-05-2.80957E-05-2.93639E-05-3.56931E-07 5.69711E-20-3.09302E-19
 -1      4052 9.66619E-05-2.78254E-05-2.95053E-05-2.17920E-07-3.83983E-20-4.86873E-19
 -1      4053 1.17051E-04-4.38891E-05-3.14069E-05-1.28340E-06 1.28866E-18-1.58540E-18
 -1      4054 9.59170E-05-2.52917E-05-3.02721E-05-3.54225E-07-6.84292E-20-1.44906E-19
 -1      4055 9.59754E-05-2.54920E-05-3.02170E-05-4.47105E-07-2.07603E-19-1.10635E-19
 -1      4056 8.92319E-05-2.39828E-05-2.79446E-05-5.48379E-06 2.84433E-19-4.23558E-18
 -1      4057 8.75954E-05-2.25415E-05-2.78599E-05-4.87784E-06-1.41760E-19-3.13092E-18
 -1      4058 8.58287E-05-2.16812E-05-2.75670E-05-6.21191E-06 4.50842E-19-2.46792E-18
 -1      4059 9.59930E-05-2.56773E-05-3.01354E-05-5.33661E-07-2.12360E-19 1.73242E-20
 -1      4060 9.64050E-05-2.67736E-05-2.98439E-05-1.06354E-07-2.39055E-22-5.67235E-20
 -1      4061 9.65139E-05-2.69470E-05-2.98138E-05-4.56626E-08-2.27765E-20 5.05491E-20
 -1      4062 1.02890E-04-3.79744E-05-2.79451E-05-1.69302E-05 9.71044E-19-1.30094E-18
 -1      4063 9.59142E-05-2.51967E-05-3.03134E-05-3.99994E-08 3.35563E-20-8.01932E-19
 -1      4064 9.59195E-05-2.52378E-05-3.02994E-05-2.30282E-07-1.01030E-20-4.95443E-19
 -1      4065 9.62589E-05-2.60246E-05-3.00902E-05-1.23133E-07-4.10372E-20-2.88847E-19
 -1      4066 9.62527E-05-2.62658E-05-2.99858E-05-2.97877E-07-1.25964E-19-2.03122E-20
 -1      4067 9.67699E-05-2.89328E-05-2.90722E-05 2.95643E-07-4.22041E-20-1.07591E-19
 -1      4068 9.66974E-05-2.90500E-05-2.89910E-05 3.35176E-07-6.39647E-20-1.40364E-19
 -1      4069 9.66003E-05-2.91233E-05-2.89183E-05 3.46524E-07-2.00881E-19-8.31015E-20
 -1      4070 9.65044E-05-2.91665E-05-2.88573E-05 3.77315E-07-2.41150E-19 3.04423E-19
 -1      4071 9.66762E-05-2.90764E-05-2.89738E-05 1.96672E-07-3.93379E-20 1.13895E-19
 -1      4072 9.63871E-05-2.91806E-05-2.88028E-05 3.96042E-07-1.99808E-19 4.06621E-19
 -1      4073 9.62842E-05-2.91792E-05-2.87572E-05 4.27620E-07-2.16482E-19 5.87464E-19
 -1      4074 9.64643E-05-2.91629E-05-2.88459E-05 2.46064E-07-5.77049E-20 2.53575E-19
 -1      4075 9.61631E-05-2.91592E-05-2.87162E-05 4.66923E-07-3.81865E-19 6.19092E-19
 -1      4076 9.60716E-05-2.91395E-05-2.86820E-05 5.11334E-07-1.45958E-19 4.87226E-19
 -1      4077 9.62222E-05-2.91453E-05-2.87493E-05 3.17719E-07-1.59759E-19 3.74709E-19
 -1      4078 9.59562E-05-2.91074E-05-2.86505E-05 5.79170E-07 1.12557E-19 5.85411E-19
 -1      4079 9.58934E-05-2.90916E-05-2.86241E-05 6.50801E-07 2.22200E-19 8.87149E-19
 -1      4080 9.59848E-05-2.90783E-05-2.86765E-05 4.33183E-07 2.76589E-20 4.86270E-19
 -1      4081 9.57957E-05-2.90699E-05-2.85986E-05 7.60851E-07 3.19250E-19 7.61233E-19
 -1      4082 9.57799E-05-2.90821E-05-2.85774E-05 8.73847E-07 6.10854E-19 8.12906E-19
 -1      4083 9.57765E-05-2.90065E-05-2.86195E-05 6.23639E-07 4.45134E-19 7.17487E-19
 -1      4084 9.57206E-05-2.90970E-05-2.85552E-05 1.04804E-06 3.97719E-19 8.22550E-19
 -1      4085 9.57802E-05-2.91684E-05-2.85375E-05 1.21710E-06 3.89614E-19 6.80836E-19
 -1      4086 9.56216E-05-2.89690E-05-2.85714E-05 9.27717E-07 4.26694E-19 2.79334E-19
 -1      4087 9.57872E-05-2.92531E-05-2.85168E-05 1.47669E-06 5.31553E-19 5.60757E-19
 -1      4088 9.59634E-05-2.94239E-05-2.85027E-05 1.71542E-06 5.38898E-19 2.89425E-19
 -1      4089 9.55710E-05-2.90293E-05-2.85275E-05 1.38753E-06 3.40735E-19 2.72961E-19
 -1      4090 9.60823E-05-2.96226E-05-2.84834E-05 2.08185E-06 4.04494E-19-6.31320E-20
 -1      4091 9.64331E-05-2.99461E-05-2.84756E-05 2.39765E-06 2.23515E-19-3.57071E-20
 -1      4092 9.56959E-05-2.92686E-05-2.84852E-05 2.05471E-06 3.66188E-19-1.99994E-19
 -1      4093 9.67375E-05-3.03212E-05-2.84606E-05 2.88284E-06-6.83653E-20-1.56306E-20
 -1      4094 9.73403E-05-3.08632E-05-2.84669E-05 3.26319E-06-3.07973E-19-1.09171E-19
 -1      4095 9.61130E-05-2.98037E-05-2.84465E-05 2.97620E-06 1.16537E-19-7.26190E-19
 -1      4096 9.79406E-05-3.14922E-05-2.84658E-05 3.85516E-06 1.11549E-20-2.66436E-19
 -1      4097 9.88907E-05-3.23261E-05-2.85019E-05 4.25041E-06 2.45354E-19-3.39490E-19
 -1      4098 9.69994E-05-3.07877E-05-2.84226E-05 4.17069E-06-2.69663E-19-1.36777E-19
 -1      4099 9.99456E-05-3.32997E-05-2.85352E-05 4.87702E-06 2.80729E-19 5.61081E-20
 -1      4100 1.01322E-04-3.44745E-05-2.86300E-05 5.17154E-06 5.55716E-19-4.36117E-20
 -1      4101 9.86189E-05-3.24216E-05-2.84413E-05 5.58466E-06 4.85754E-19-2.64094E-19
 -1      4102 1.03018E-04-3.58321E-05-2.87392E-05 5.62125E-06 3.39216E-19-1.35460E-19
 -1      4103 1.04844E-04-3.73026E-05-2.89403E-05 5.59959E-06 7.80677E-20 1.76465E-20
 -1      4104 1.01365E-04-3.49200E-05-2.85637E-05 7.01218E-06 6.88942E-19-7.52883E-20
 -1      4105 1.07345E-04-3.90598E-05-2.91944E-05 5.71643E-06 3.91735E-19-1.23772E-19
 -1      4106 1.09694E-04-4.06121E-05-2.95912E-05 4.95369E-06 8.18638E-19 1.07210E-19
 -1      4107 1.05276E-04-3.80689E-05-2.88929E-05 7.88284E-06 3.71915E-19 1.63438E-19
 -1      4108 9.47194E-05-2.80715E-05-2.85726E-05 4.59973E-07 6.50041E-20-7.67403E-19
 -1      4109 9.49911E-05-2.82588E-05-2.85948E-05 2.57333E-07-4.51214E-20-4.15574E-19
 -1      4110 1.14934E-04-4.32726E-05-3.05897E-05-3.19038E-06 8.65648E-19-6.35665E-19
 -1      4111 9.66071E-05-3.48094E-05-2.63551E-05 2.37941E-05 1.30177E-18-1.22934E-18
 -1      4112 9.19007E-05-3.06670E-05-2.63388E-05 2.11154E-05 9.42595E-19-1.30428E-18
 -1      4113 1.01480E-04-3.77663E-05-2.72919E-05 2.08357E-05 9.87726E-19-1.58759E-18
 -1      4114 1.11462E-04-4.16551E-05-2.99429E-05-4.52817E-06 1.20190E-18 2.08449E-19
 -1      4115 1.09152E-04-4.01465E-05-2.94619E-05-5.44361E-06 6.17295E-19 9.93970E-19
 -1      4116 1.12936E-04-4.33978E-05-2.99679E-05-7.46529E-06 1.73494E-18 3.66322E-19
 -1      4117 1.06384E-04-3.83807E-05-2.91335E-05-5.70365E-06-4.84969E-19 1.26677E-18
 -1      4118 1.04282E-04-3.67935E-05-2.88691E-05-5.94292E-06 6.63068E-20 1.05666E-18
 -1      4119 1.06947E-04-3.94823E-05-2.90452E-05-8.41709E-06 5.50727E-19 4.29914E-19
 -1      4120 1.02346E-04-3.52325E-05-2.87304E-05-5.46985E-06-5.09896E-19 1.27933E-18
 -1      4121 1.00717E-04-3.39116E-05-2.86016E-05-5.28026E-06-1.58949E-19 1.10506E-18
 -1      4122 1.02110E-04-3.55456E-05-2.86220E-05-7.60354E-06-2.90367E-19 4.02662E-19
 -1      4123 9.94692E-05-3.27740E-05-2.85555E-05-4.60665E-06 5.39233E-19 8.08029E-19
 -1      4124 9.83373E-05-3.17993E-05-2.85025E-05-4.23297E-06 5.91921E-19 7.59884E-19
 -1      4125 9.90086E-05-3.27055E-05-2.84690E-05-6.15326E-06 1.95382E-19-1.11797E-19
 -1      4126 9.75816E-05-3.10341E-05-2.84977E-05-3.58364E-06 1.77667E-18 1.04613E-18
 -1      4127 9.68337E-05-3.03653E-05-2.84828E-05-3.18522E-06 2.60769E-18 1.17258E-18
 -1      4128 9.71081E-05-3.08229E-05-2.84386E-05-4.64741E-06 1.36598E-18 4.22848E-19
 -1      4129 9.64090E-05-2.98792E-05-2.84948E-05-2.63267E-06 1.78203E-18 5.11716E-19
 -1      4130 9.59402E-05-2.94506E-05-2.84972E-05-2.28383E-06 1.66485E-18 5.72608E-19
 -1      4131 9.59904E-05-2.96256E-05-2.84573E-05-3.33327E-06 1.84922E-18 3.23862E-19
 -1      4132 9.57227E-05-2.91601E-05-2.85138E-05-1.85370E-06 1.74790E-18 3.89413E-19
 -1      4133 9.54523E-05-2.88963E-05-2.85230E-05-1.57956E-06 1.09693E-20 4.96287E-19
 -1      4134 9.53831E-05-2.89185E-05-2.84924E-05-2.28922E-06 1.76499E-18-5.75880E-19
 -1      4135 9.53266E-05-2.87286E-05-2.85339E-05-1.35826E-06-1.21369E-18 5.85369E-19
 -1      4136 9.52013E-05-2.85938E-05-2.85437E-05-1.15834E-06-1.26348E-18 5.48198E-19
 -1      4137 9.48897E-05-2.82953E-05-2.85462E-05-1.19206E-06-9.07916E-19-6.22593E-19
 -1      4138 9.50580E-05-2.85191E-05-2.85225E-05-1.61819E-06 3.04254E-19-2.19848E-18
 -1      4139 9.29378E-05-2.69703E-05-2.82982E-05 3.54570E-06-1.64375E-19-9.29604E-19
 -1      4140 9.34289E-05-2.71589E-05-2.83788E-05 2.72165E-06-3.11762E-19-1.20649E-18
 -1      4141 9.28800E-05-2.90114E-05-2.74285E-05 1.33207E-05 1.16424E-18-5.23494E-19
 -1      4142 9.29886E-05-2.82386E-05-2.76827E-05 1.08311E-05 1.28889E-18-1.64693E-19
 -1      4143 9.35784E-05-2.72866E-05-2.84309E-05 2.04121E-06 1.53163E-20-1.11801E-18
 -1      4144 9.40057E-05-2.75167E-05-2.84814E-05 1.50475E-06 2.63671E-19-1.21850E-18
 -1      4145 9.40999E-05-2.78441E-05-2.84084E-05 2.70765E-06 2.14198E-20-1.69202E-18
 -1      4146 9.64292E-05-2.67828E-05-2.98467E-05 1.08098E-07 3.51701E-20-6.83038E-19
 -1      4147 9.63230E-05-2.66307E-05-2.98618E-05 1.93805E-07 4.44518E-20-5.73059E-19
 -1      4148 1.12588E-04-4.24234E-05-2.99789E-05 5.04728E-06 1.29647E-18 3.58209E-19
 -1      4149 1.16556E-04-4.41914E-05-3.10016E-05 3.36988E-06 1.43829E-18 7.23320E-19
 -1      4150 1.17702E-04-4.66389E-05-3.05872E-05 8.42078E-06 1.50147E-18 2.67633E-19
 -1      4151 1.10832E-04-4.21928E-05-2.95011E-05 8.55074E-06 1.39624E-18 1.51068E-19
 -1      4152 9.31436E-05-3.01958E-05-2.69535E-05 1.74052E-05 7.24395E-19-1.25713E-18
 -1      4153 9.60664E-05-2.60511E-05-3.00059E-05 4.76933E-07 6.69035E-20-4.42555E-19
 -1      4154 1.17113E-04-4.66017E-05-3.01498E-05 1.14396E-05 1.33399E-18 2.58331E-19
 -1      4155 1.15018E-04-4.68594E-05-2.91908E-05 1.70431E-05 1.08790E-18 1.02163E-18
 -1      4156 1.09101E-04-4.30557E-05-2.83732E-05 1.83559E-05 1.12371E-18 5.73369E-20
 -1      4157 1.13183E-04-4.41984E-05-2.94487E-05 1.17917E-05 1.68412E-18 7.61350E-19
 -1      4158 8.75665E-05-2.35529E-05-2.73976E-05-9.44405E-06 3.49903E-19-3.01436E-18
 -1      4159 9.65486E-05-2.87852E-05-2.90432E-05-6.62777E-07 3.54913E-20-3.76165E-19
 -1      4160 9.66068E-05-2.86231E-05-2.91322E-05-5.80824E-07 2.14532E-20-3.92688E-19
 -1      4161 9.67118E-05-2.84790E-05-2.92461E-05-4.40582E-07 3.68685E-20-4.68577E-19
 -1      4162 9.66181E-05-2.88381E-05-2.90495E-05-5.48389E-07 5.25028E-20-4.67817E-19
 -1      4163 9.59348E-05-2.52832E-05-3.02875E-05 2.60576E-07 7.53005E-20-1.09697E-18
 -1      4164 9.59135E-05-2.52056E-05-3.03105E-05 7.21629E-08 2.56397E-20-9.94886E-19
 -1      4165 9.62691E-05-2.59833E-05-3.01090E-05 4.15463E-08-8.61511E-20-8.73909E-19
 -1      4166 9.62706E-05-2.60711E-05-3.00726E-05 1.85102E-07 3.19285E-20-8.84515E-19
 -1      4167 1.10010E-04-4.19047E-05-2.90038E-05-1.23793E-05 1.29923E-18-8.06405E-19
 -1      4168 9.66320E-05-2.73065E-05-2.97003E-05-3.76931E-08-7.87833E-20-6.42319E-19
 -1      4169 9.64560E-05-2.67378E-05-2.98869E-05 8.93934E-08 3.89854E-20-6.59517E-19
 -1      4170 9.64628E-05-2.66665E-05-2.99182E-05 5.43268E-08-1.21040E-19-8.78443E-19
 -1      4171 9.40398E-05-2.73869E-05-2.85722E-05-7.86826E-07-1.49705E-18-2.97304E-18
 -1      4172 9.37794E-05-2.71417E-05-2.85635E-05-8.58750E-07-4.78358E-19-4.14037E-18
 -1      4173 9.38903E-05-2.72951E-05-2.85332E-05-1.29496E-06-4.92379E-19-4.14358E-18
 -1      4174 9.42502E-05-2.75932E-05-2.85594E-05-9.71674E-07-2.00313E-18-1.97185E-18
 -1      4175 9.67960E-05-2.78805E-05-2.95371E-05 9.59535E-08-1.96984E-19-1.98554E-19
 -1      4176 9.68392E-05-2.82478E-05-2.93985E-05 1.95412E-07-2.43099E-19-2.11034E-19
 -1      4177 9.55840E-05-2.86826E-05-2.86738E-05-5.87797E-07 6.59919E-20-6.06203E-19
 -1      4178 9.57456E-05-2.87944E-05-2.86927E-05-6.27575E-07 2.76983E-19-6.20086E-19
 -1      4179 9.59113E-05-2.88876E-05-2.87251E-05-4.97506E-07 2.88784E-19 5.27317E-21
 -1      4180 9.55742E-05-2.86737E-05-2.86715E-05-3.76382E-07-5.22008E-20-4.28197E-19
 -1      4181 9.68581E-05-2.85475E-05-2.92745E-05 2.19627E-07-2.26224E-19-2.62221E-19
 -1      4182 9.68259E-05-2.87695E-05-2.91678E-05 2.78794E-07-2.17814E-19-3.79497E-19
 -1      4183 9.68258E-05-2.88310E-05-2.91413E-05 1.56550E-07-4.44123E-20-3.84274E-19
 -1      4184 1.04423E-04-3.79487E-05-2.84425E-05-1.28785E-05 1.26673E-18-1.33599E-18
 -1      4185 9.41901E-05-2.76857E-05-2.85159E-05 1.06975E-06 4.11681E-19-9.65256E-19
 -1      4186 9.45287E-05-2.79003E-05-2.85469E-05 7.42246E-07 2.76237E-19-5.47545E-19
 -1      4187 9.44565E-05-2.79878E-05-2.84926E-05 1.57819E-06 4.01361E-19-1.26388E-18
 -1      4188 9.64781E-05-2.66858E-05-2.99151E-05-8.95187E-08-1.03187E-19-2.47040E-19
 -1      4189 9.67087E-05-2.74558E-05-2.96771E-05 7.32924E-08-1.80601E-19-2.34835E-19
 -1      4190 9.67734E-05-2.76436E-05-2.96282E-05 3.67054E-08-2.13868E-19-5.62757E-19
 -1      4191 9.64727E-05-2.66312E-05-2.99372E-05-3.24146E-08-1.63088E-19-6.77517E-19
 -1      4192 9.37563E-05-2.74153E-05-2.84108E-05-3.05196E-06 1.81067E-18-2.73247E-18
 -1      4193 9.34652E-05-2.73916E-05-2.83378E-05-3.90833E-06 8.87880E-19-1.44983E-18
 -1      4194 8.96092E-05-2.59076E-05-2.73739E-05-1.14812E-05-1.71183E-19-2.03995E-18
 -1      4195 9.19887E-05-2.80060E-05-2.74205E-05-1.28615E-05-1.79841E-19-2.00025E-18
 -1      4196 9.51741E-05-2.84133E-05-2.86176E-05 7.53123E-08-4.11092E-19-3.20629E-19
 -1      4197 9.53969E-05-2.85704E-05-2.86380E-05-4.74933E-08-2.54493E-19-6.70505E-19
 -1      4198 9.52231E-05-2.84871E-05-2.86026E-05 3.77124E-07-2.51609E-19-8.37900E-19
 -1      4199 9.62010E-05-3.20815E-05-2.74337E-05 1.54879E-05 1.19075E-18-4.89250E-19
 -1      4200 9.48432E-05-2.82266E-05-2.85530E-05 8.47242E-07 1.94879E-19-1.27815E-18
 -1      4201 9.68736E-05-2.83598E-05-2.93629E-05 1.12586E-07-2.41558E-19-3.89138E-19
 -1      4202 9.22284E-05-2.74235E-05-2.78052E-05 8.97392E-06 9.61633E-19-3.77166E-19
 -1      4203 9.26331E-05-2.71880E-05-2.79955E-05 7.15040E-06 7.77264E-19-2.36601E-19
 -1      4204 9.49139E-05-2.99088E-05-2.79338E-05 9.84119E-06 9.70224E-19-1.73994E-19
 -1      4205 9.23338E-05-2.65801E-05-2.81758E-05-5.31329E-06-6.47666E-20-1.26151E-19
 -1      4206 9.10500E-05-2.54246E-05-2.80918E-05-5.33474E-06-1.80074E-19-2.48502E-18
 -1      4207 9.01682E-05-2.51627E-05-2.79106E-05-6.67881E-06 9.12013E-19-2.13380E-18
 -1      4208 9.37309E-05-2.73819E-05-2.84522E-05-2.41619E-06 2.43179E-18-2.25430E-18
 -1      4209 9.43399E-05-2.79902E-05-2.84382E-05-2.90166E-06 1.99741E-18-2.62265E-18
 -1      4210 9.39905E-05-2.74761E-05-2.84962E-05-1.87721E-06 1.86712E-18-2.83488E-18
 -1      4211 9.23965E-05-2.69093E-05-2.80970E-05 5.77205E-06 3.80611E-19-6.22879E-19
 -1      4212 9.29094E-05-2.69716E-05-2.82242E-05 4.52356E-06 1.37424E-19-9.25498E-19
 -1      4213 9.38827E-05-2.79351E-05-2.82892E-05 4.37659E-06-2.02947E-19-1.69771E-18
 -1      4214 9.40179E-05-2.84954E-05-2.81287E-05 6.71626E-06 5.39644E-19-1.12341E-18
 -1      4215 9.39543E-05-2.98377E-05-2.75224E-05-1.34168E-05-3.96348E-19-4.72502E-19
 -1      4216 9.70538E-05-3.25507E-05-2.77298E-05-1.40286E-05 5.31429E-19 5.46761E-19
 -1      4217 9.44777E-05-2.94697E-05-2.78018E-05-1.11608E-05-6.15608E-19 1.94677E-21
 -1      4218 9.64714E-05-2.90531E-05-2.88941E-05-4.40006E-07-5.91443E-20-3.83201E-19
 -1      4219 9.65817E-05-2.90107E-05-2.89572E-05-4.29435E-07-5.55498E-20-3.21280E-19
 -1      4220 9.46928E-05-2.80796E-05-2.85441E-05-1.21657E-06-5.10428E-19-2.16718E-18
 -1      4221 9.44283E-05-2.78222E-05-2.85491E-05-1.14834E-06-1.14957E-18-2.68803E-18
 -1      4222 9.67118E-05-2.77747E-05-2.95479E-05-1.71293E-07-7.73755E-20-5.43907E-19
 -1      4223 9.02539E-05-2.54699E-05-2.77093E-05-8.78168E-06 1.04522E-18-2.69121E-18
 -1      4224 1.01645E-04-3.56496E-05-2.82128E-05-1.23187E-05 7.10773E-19-7.93370E-19
 -1      4225 9.62167E-05-2.90329E-05-2.87927E-05-3.95827E-07 3.60699E-19-3.06106E-19
 -1      4226 9.63499E-05-2.90598E-05-2.88369E-05-4.15058E-07 9.79791E-20-4.60504E-19
 -1      4227 9.64744E-05-2.90808E-05-2.88854E-05-2.75023E-07 4.14675E-20-3.78776E-19
 -1      4228 1.00778E-04-3.44414E-05-2.83469E-05-1.01585E-05-6.57546E-19-6.28811E-19
 -1      4229 9.47373E-05-2.81680E-05-2.85314E-05-1.43029E-06-6.17499E-19-2.55071E-18
 -1      4230 9.42851E-05-2.76981E-05-2.85379E-05-1.30005E-06-1.50763E-18-1.24299E-18
 -1      4231 9.66900E-05-2.89749E-05-2.90227E-05-2.86763E-07-2.50436E-20-1.78935E-19
 -1      4232 9.66729E-05-2.89268E-05-2.90353E-05-4.35391E-07-5.41158E-20-3.75798E-19
 -1      4233 9.67475E-05-2.87976E-05-2.91193E-05-3.89412E-07-7.11719E-20-5.30973E-19
 -1      4234 9.64895E-05-2.91280E-05-2.88686E-05-1.69743E-08 3.45707E-20-8.46851E-20
 -1      4235 9.63660E-05-2.91290E-05-2.88140E-05 1.59914E-08-5.95682E-20-6.18649E-20
 -1      4236 9.59984E-05-2.90422E-05-2.86971E-05 2.50352E-07 7.79287E-20 6.32142E-19
 -1      4237 9.58868E-05-2.89925E-05-2.86655E-05 3.29794E-07 2.04026E-19 6.55280E-19
 -1      4238 9.56589E-05-2.88439E-05-2.86363E-05 3.63793E-07-4.18864E-20 3.60140E-19
 -1      4239 9.55563E-05-2.87828E-05-2.86113E-05 4.92745E-07 6.12811E-20-4.85302E-20
 -1      4240 9.53838E-05-2.86837E-05-2.85872E-05 6.77306E-07 1.60846E-19-2.50493E-19
 -1      4241 9.53200E-05-2.86475E-05-2.85646E-05 8.69714E-07-9.51728E-21-5.66904E-19
 -1      4242 9.51463E-05-2.85595E-05-2.85385E-05 1.16135E-06 2.24665E-19-5.33531E-19
 -1      4243 9.51481E-05-2.85759E-05-2.85164E-05 1.44793E-06 5.11967E-19-7.29982E-19
 -1      4244 9.49903E-05-2.85281E-05-2.84838E-05 1.89467E-06 4.71331E-19-9.91103E-19
 -1      4245 9.51070E-05-2.86444E-05-2.84613E-05 2.30514E-06 1.87690E-19-1.08098E-18
 -1      4246 9.50029E-05-2.86880E-05-2.84164E-05 2.98547E-06 8.96087E-20-1.15525E-18
 -1      4247 9.53114E-05-2.89759E-05-2.83951E-05 3.54892E-06-2.28097E-19-1.18219E-18
 -1      4248 9.53440E-05-2.91933E-05-2.83367E-05 4.50059E-06-3.11510E-19-1.17117E-18
 -1      4249 9.59586E-05-2.97548E-05-2.83239E-05 5.22434E-06-6.39626E-20-1.00467E-18
 -1      4250 9.62697E-05-3.02789E-05-2.82528E-05 6.50675E-06 5.26410E-19-9.40264E-19
 -1      4251 9.73468E-05-3.12463E-05-2.82662E-05 7.35875E-06 7.86179E-19-8.05832E-19
 -1      4252 9.81697E-05-3.22674E-05-2.81957E-05 8.93786E-06 9.66654E-19-5.86928E-19
 -1      4253 9.98114E-05-3.38171E-05-2.82567E-05 9.85570E-06 1.02569E-18-1.77799E-19
 -1      4254 9.40896E-05-2.75558E-05-2.85222E-05-1.49658E-06-1.51104E-19-2.18805E-18
 -1      4255 9.44273E-05-2.79136E-05-2.85038E-05-1.85877E-06 2.78510E-19-1.34247E-18
 -1      4256 1.04800E-04-3.97019E-05-2.78193E-05 1.88889E-05 9.66232E-19-4.63066E-19
 -1      4257 9.95420E-05-3.56212E-05-2.74552E-05 1.81988E-05 9.58661E-19-9.70145E-19
 -1      4258 1.07164E-04-4.09817E-05-2.84438E-05 1.58825E-05 9.28934E-19 1.13469E-18
 -1      4259 9.48527E-05-2.82901E-05-2.85191E-05-1.67112E-06 1.09490E-19-2.05684E-18
 -1      4260 9.68741E-05-2.87614E-05-2.91913E-05 4.74657E-09-1.19042E-19-4.42482E-19
 -1      4261 9.68108E-05-2.89181E-05-2.90973E-05 3.17425E-08-6.51177E-21-3.31005E-19
 -1      4262 9.87750E-05-3.28153E-05-2.82414E-05-9.32173E-06-8.15333E-19-3.09883E-19
 -1      4263 9.65517E-05-3.02811E-05-2.83657E-05-5.50428E-06 9.66852E-19-6.86800E-19
 -1      4264 9.57868E-05-2.95978E-05-2.83723E-05-4.74750E-06 1.56392E-18-4.82773E-19
 -1      4265 9.54195E-05-2.90556E-05-2.84167E-05-3.78795E-06 1.79759E-18-1.35662E-18
 -1      4266 9.50083E-05-2.86815E-05-2.84364E-05-3.17199E-06 1.90601E-18-1.79416E-18
 -1      4267 9.49751E-05-2.84992E-05-2.84735E-05-2.53730E-06 2.00793E-18-1.58517E-18
 -1      4268 9.47697E-05-2.83049E-05-2.84940E-05-2.07584E-06 1.20797E-18-2.01573E-18
 -1      4269 9.64759E-05-2.66427E-05-2.99341E-05 4.24904E-08-1.93163E-19-1.08080E-18
 -1      4270 9.64793E-05-2.66331E-05-2.99389E-05-1.40070E-08-1.48419E-19-7.99168E-19
 -1      4271 9.66854E-05-2.71986E-05-2.97714E-05 1.73682E-08-2.53357E-19-8.11811E-19
 -1      4272 9.66710E-05-2.72105E-05-2.97561E-05-9.40804E-09-2.54744E-19-8.69308E-19
 -1      4273 9.68084E-05-2.81823E-05-2.94026E-05-2.27987E-07-3.86012E-20-5.14648E-19
 -1      4274 9.67707E-05-2.77546E-05-2.95842E-05-9.84716E-08-5.95657E-20-5.99131E-19
 -1      4275 9.21606E-05-2.70802E-05-2.78893E-05-8.48521E-06 3.86608E-19-1.35749E-18
 -1      4276 9.68720E-05-2.80986E-05-2.94689E-05-2.66139E-08-1.25542E-19-6.62796E-19
 -1      4277 9.68952E-05-2.84332E-05-2.93415E-05-9.68772E-09-1.67448E-19-6.01527E-19
 -1      4278 9.67094E-05-2.90388E-05-2.90012E-05-5.40352E-08 4.41115E-21-1.00728E-19
 -1      4279 9.66109E-05-2.91057E-05-2.89284E-05-2.80430E-08 9.02206E-21 5.43654E-20
 -1      4280 9.46504E-05-2.85406E-05-2.83448E-05-4.56385E-06 1.27213E-18-2.01701E-18
 -1      4281 9.37794E-05-2.77356E-05-2.82778E-05-4.96724E-06 9.64601E-20-9.43275E-19
 -1      4282 9.63564E-05-3.09809E-05-2.80604E-05-9.86524E-06-3.75291E-19 3.80822E-19
 -1      4283 9.84228E-05-3.21451E-05-2.83533E-05-7.51251E-06 5.27912E-19-5.09970E-19
 -1      4284 9.71192E-05-3.10215E-05-2.83225E-05-6.67755E-06 1.21828E-18 2.20899E-19
 -1      4285 9.42665E-05-2.91425E-05-2.79562E-05-9.34229E-06 3.15547E-20-4.81400E-19
 -1      4286 9.56538E-05-2.87931E-05-2.86547E-05 1.69146E-07 2.06686E-20-1.13587E-19
 -1      4287 9.56444E-05-2.87601E-05-2.86671E-05-6.84316E-08 2.61892E-19-4.69614E-19
 -1      4288 9.62704E-05-2.91286E-05-2.87749E-05 1.44631E-07-2.22375E-19 3.36640E-19
 -1      4289 9.61460E-05-2.90964E-05-2.87327E-05 1.91192E-07-1.32841E-20 4.41733E-19
 -1      4290 9.67941E-05-2.77221E-05-2.96036E-05-3.58287E-08-1.67770E-19-7.23460E-19
 -1      4291 9.87979E-05-3.36470E-05-2.79841E-05 1.26372E-05 1.58008E-18 6.01379E-20
 -1      4292 1.03190E-04-3.65202E-05-2.84775E-05 1.03147E-05 8.06336E-19 3.46417E-19
 -1      4293 1.05662E-04-3.85188E-05-2.87189E-05 1.06826E-05 9.22014E-19 9.47972E-19
 -1      4294 9.35587E-05-2.78789E-05-2.81803E-05-6.07648E-06 2.80422E-19-8.74779E-19
 -1      4295 9.68662E-05-2.85454E-05-2.92820E-05-1.38160E-07-9.47650E-20-5.27084E-19
 -1      4296 9.62628E-05-2.90846E-05-2.87928E-05-1.26116E-07 2.99540E-20-1.74998E-19
 -1      4297 9.55437E-05-2.96870E-05-2.82390E-05-6.81233E-06 8.69636E-19-5.87762E-19
 -1      4298 9.60273E-05-2.90179E-05-2.87196E-05 7.35892E-08 2.86405E-19 5.68707E-19
 -1      4299 1.06011E-04-3.91990E-05-2.86038E-05 1.21647E-05 8.76789E-19 8.99650E-19
 -1      4300 1.08830E-04-4.13355E-05-2.88837E-05 1.29256E-05 1.31751E-18 6.98058E-19
 -1      4301 9.40678E-05-2.83734E-05-2.81155E-05-7.34367E-06 5.85355E-19-3.17125E-19
 -1      4302 9.68044E-05-2.84757E-05-2.92848E-05-3.13855E-07-5.89494E-20-4.63336E-19
 -1      4303 9.58237E-05-2.88703E-05-2.86922E-05-1.44017E-07 4.02243E-19-1.38341E-19
 -1      4304 9.87502E-05-3.38277E-05-2.78456E-05 1.39824E-05 1.60075E-18 4.56538E-19
 -1      4305 9.61275E-05-2.90186E-05-2.87595E-05-2.61038E-07 2.31520E-19-1.87216E-19
 -1      4306 9.59741E-05-2.89478E-05-2.87263E-05-2.15519E-07 1.15052E-19-1.58964E-19
 -1      4307 9.67752E-05-2.77234E-05-2.96000E-05-6.41430E-08-1.34959E-19-8.42780E-19
 -1      4308 9.67955E-05-2.89334E-05-2.90820E-05-4.81671E-08-9.19475E-20-1.21238E-19
 -1      4309 1.02629E-04-3.72346E-05-2.80967E-05 1.46632E-05 1.35044E-18 1.08468E-18
 -1      4310 9.68350E-05-2.85671E-05-2.92598E-05-2.08263E-07-8.80604E-20-5.50820E-19
 -1      4311 9.68167E-05-2.88596E-05-2.91212E-05-1.91140E-07-6.74803E-20-3.64891E-19
 -3
    1PSTEP                         4           1           1          
  100CL  101 1.000000000        4311                     0    1           1
 -4  ERROR       1    1
 -5  STR(%)      1    1    0    0
 -1         1 3.46381E+01
 -1         2 2.44885E+01
 -1         3 5.73273E-03
 -1         4 1.90271E-03
 -1         5 1.40394E+01
 -1         6 1.31433E+01
 -1         7 1.31433E+01
 -1         8 3.66229E+00
 -1         9 1.82401E+00
 -1        10 1.28840E+00
 -1        11 1.04590E+00
 -1        12 8.99343E-01
 -1        13 8.08271E-01
 -1        14 7.53266E-01
 -1        15 7.55348E-01
 -1        16 8.12653E-01
 -1        17 9.00379E-01
 -1        18 1.05242E+00
 -1        19 1.30582E+00
 -1        20 1.83022E+00
 -1        21 3.50749E+00
 -1        22 8.64095E+00
 -1        23 1.31433E+01
 -1        24 4.31893E+00
 -1        25 3.34191E+00
 -1        26 2.11254E+00
 -1        27 1.36387E+00
 -1        28 1.01738E+00
 -1        29 7.78962E-01
 -1        30 5.99636E-01
 -1        31 4.59656E-01
 -1        32 3.49998E-01
 -1        33 2.70009E-01
 -1        34 2.04415E-01
 -1        35 1.50636E-01
 -1        36 1.15945E-01
 -1        37 9.74823E-02
 -1        38 7.81137E-02
 -1        39 7.29636E-02
 -1        40 1.10894E-01
 -1        41 1.51913E-01
 -1        42 2.56585E-01
 -1        43 3.89042E-01
 -1        44 5.44891E-01
 -1        45 7.16481E-01
 -1        46 1.05594E+00
 -1        47 1.44555E+00
 -1        48 1.91690E+00
 -1        49 2.33765E+00
 -1        50 2.59872E+00
 -1        51 2.61985E+00
 -1        52 2.63471E+00
 -1        53 2.63471E+00
 -1        54 2.57179E+00
 -1        55 2.27890E+00
 -1        56 1.84293E+00
 -1        57 1.38336E+00
 -1        58 1.00075E+00
 -1        59 6.86144E-01
 -1        60 5.22653E-01
 -1        61 3.72610E-01
 -1        62 2.48183E-01
 -1        63 1.52835E-01
 -1        64 1.09297E-01
 -1        65 7.45154E-02
 -1        66 4.53668E-02
 -1        67 3.27819E-02
 -1        68 2.08811E-02
 -1        69 1.41681E-02
 -1        70 1.16176E-02
 -1        71 8.75476E-03
 -1        72 1.40394E+01
 -1        73 3.39698E+00
 -1        74 2.41554E+00
 -1        75 1.66725E+00
 -1        76 1.14671E+00
 -1        77 9.09630E-01
 -1        78 7.36147E-01
 -1        79 5.94447E-01
 -1        80 4.77260E-01
 -1        81 3.81193E-01
 -1        82 3.13780E-01
 -1        83 2.47987E-01
 -1        84 2.04957E-01
 -1        85 1.76991E-01
 -1        86 1.88929E-01
 -1        87 2.34092E-01
 -1        88 3.16579E-01
 -1        89 4.49048E-01
 -1        90 6.75076E-01
 -1        91 1.10447E+00
 -1        92 1.61917E+00
 -1        93 2.30794E+00
 -1        94 3.01703E+00
 -1        95 3.47838E+00
 -1        96 5.07671E+00
 -1        97 6.32927E+00
 -1        98 6.32927E+00
 -1        99 6.97395E+00
 -1       100 1.76415E+01
 -1       101 2.16794E+01
 -1       102 2.16794E+01
 -1       103 1.69101E+01
 -1       104 6.50154E+00
 -1       105 7.79075E+00
 -1       106 7.79075E+00
 -1       107 6.56116E+00
 -1       108 4.73870E+00
 -1       109 3.21750E+00
 -1       110 2.20237E+00
 -1       111 1.52138E+00
 -1       112 1.02642E+00
 -1       113 6.17562E-01
 -1       114 3.84709E-01
 -1       115 2.37766E-01
 -1       116 1.46756E-01
 -1       117 9.93205E-02
 -1       118 7.16452E-02
 -1       119 5.19926E-02
 -1       120 3.58124E-02
 -1       121 1.85837E-02
 -1       122 4.28203E-03
 -1       123 4.28203E-03
 -1       124 3.88619E-03
 -1       125 1.92107E-03
 -1       126 2.93695E-03
 -1       127 3.61306E-03
 -1       128 3.61306E-03
 -1       129 3.59495E-03
 -1       130 2.98687E-03
 -1       131 2.02424E-03
 -1       132 1.03515E-03
 -1       133 7.95132E-04
 -1       134 1.14008E-03
 -1       135 1.40497E-03
 -1       136 1.40497E-03
 -1       137 5.19087E-03
 -1       138 2.53151E+01
 -1       139 2.53151E+01
 -1       140 3.69587E+01
 -1       141 3.69587E+01
 -1       142 1.63369E+01
 -1       143 1.45346E+01
 -1       144 1.45346E+01
 -1       145 1.46580E+01
 -1       146 1.46580E+01
 -1       147 1.97479E+01
 -1       148 4.74732E+01
 -1       149 4.74732E+01
 -1       150 2.68197E+01
 -1       151 2.66420E+01
 -1       152 2.45883E+01
 -1       153 2.65502E+01
 -1       154 3.46381E+01
 -1       155 1.31635E+01
 -1       156 1.16302E+01
 -1       157 1.19091E+01
 -1       158 1.19091E+01
 -1       159 1.16864E+01
 -1       160 1.16864E+01
 -1       161 1.14040E+01
 -1       162 1.84252E+01
 -1       163 4.58018E+01
 -1       164 4.58018E+01
 -1       165 2.40394E+01
 -1       166 6.07589E+00
 -1       167 2.29778E+00
 -1       168 1.50709E+00
 -1       169 1.15739E+00
 -1       170 9.73124E-01
 -1       171 8.64017E-01
 -1       172 7.95444E-01
 -1       173 7.55348E-01
 -1       174 7.98993E-01
 -1       175 8.66792E-01
 -1       176 9.80690E-01
 -1       177 1.17123E+00
 -1       178 1.52665E+00
 -1       179 2.25847E+00
 -1       180 3.93244E+00
 -1       181 1.40394E+01
 -1       182 4.31893E+00
 -1       183 3.34191E+00
 -1       184 2.11254E+00
 -1       185 1.44798E+00
 -1       186 1.02599E+00
 -1       187 7.78962E-01
 -1       188 5.99636E-01
 -1       189 4.70256E-01
 -1       190 3.69622E-01
 -1       191 2.88116E-01
 -1       192 2.29431E-01
 -1       193 1.78579E-01
 -1       194 1.35313E-01
 -1       195 9.90754E-02
 -1       196 7.81137E-02
 -1       197 6.77956E-02
 -1       198 7.29636E-02
 -1       199 1.10894E-01
 -1       200 1.76466E-01
 -1       201 2.96313E-01
 -1       202 4.59687E-01
 -1       203 6.66827E-01
 -1       204 9.09704E-01
 -1       205 1.17511E+00
 -1       206 1.51638E+00
 -1       207 1.91690E+00
 -1       208 2.33765E+00
 -1       209 2.59872E+00
 -1       210 2.61985E+00
 -1       211 2.63471E+00
 -1       212 2.57179E+00
 -1       213 2.27890E+00
 -1       214 1.84293E+00
 -1       215 1.45976E+00
 -1       216 1.12931E+00
 -1       217 8.71323E-01
 -1       218 6.33811E-01
 -1       219 4.33838E-01
 -1       220 2.77727E-01
 -1       221 1.68467E-01
 -1       222 1.09297E-01
 -1       223 7.45154E-02
 -1       224 4.53668E-02
 -1       225 3.27819E-02
 -1       226 2.08811E-02
 -1       227 1.41681E-02
 -1       228 1.16176E-02
 -1       229 8.75476E-03
 -1       230 3.39698E+00
 -1       231 2.41554E+00
 -1       232 1.66725E+00
 -1       233 1.14671E+00
 -1       234 9.09630E-01
 -1       235 7.36147E-01
 -1       236 5.94447E-01
 -1       237 4.77260E-01
 -1       238 3.81193E-01
 -1       239 3.13780E-01
 -1       240 2.47987E-01
 -1       241 2.04957E-01
 -1       242 1.76991E-01
 -1       243 1.71874E-01
 -1       244 1.88929E-01
 -1       245 2.55227E-01
 -1       246 3.80748E-01
 -1       247 5.80944E-01
 -1       248 9.31688E-01
 -1       249 1.34980E+00
 -1       250 1.91233E+00
 -1       251 2.68555E+00
 -1       252 3.64106E+00
 -1       253 4.43815E+00
 -1       254 5.47968E+00
 -1       255 6.32927E+00
 -1       256 7.64648E+00
 -1       257 1.08518E+01
 -1       258 1.76415E+01
 -1       259 2.16794E+01
 -1       260 1.69101E+01
 -1       261 6.25431E+00
 -1       262 9.08467E+00
 -1       263 7.12841E+00
 -1       264 6.38192E+00
 -1       265 5.01644E+00
 -1       266 3.54300E+00
 -1       267 2.32049E+00
 -1       268 1.46347E+00
 -1       269 8.43518E-01
 -1       270 4.92003E-01
 -1       271 2.81426E-01
 -1       272 1.75349E-01
 -1       273 1.11637E-01
 -1       274 7.16452E-02
 -1       275 5.19926E-02
 -1       276 3.58124E-02
 -1       277 2.04737E-02
 -1       278 9.74648E-03
 -1       279 7.72346E-03
 -1       280 7.72346E-03
 -1       281 6.52635E-03
 -1       282 8.03877E-03
 -1       283 9.54156E-03
 -1       284 9.54156E-03
 -1       285 9.35115E-03
 -1       286 8.00082E-03
 -1       287 5.54575E-03
 -1       288 2.81119E-03
 -1       289 2.18552E-03
 -1       290 3.09454E-03
 -1       291 4.61909E-03
 -1       292 6.30574E-03
 -1       293 3.08824E+01
 -1       294 2.84857E+01
 -1       295 3.25296E+01
 -1       296 3.69587E+01
 -1       297 1.63369E+01
 -1       298 1.30395E+01
 -1       299 1.45346E+01
 -1       300 1.39906E+01
 -1       301 1.46580E+01
 -1       302 1.32186E+01
 -1       303 2.10459E+01
 -1       304 4.74732E+01
 -1       305 2.78729E+01
 -1       306 3.34764E+01
 -1       307 3.34764E+01
 -1       308 2.69781E+01
 -1       309 3.39441E+01
 -1       310 3.46381E+01
 -1       311 1.31635E+01
 -1       312 1.04962E+01
 -1       313 1.16302E+01
 -1       314 1.19091E+01
 -1       315 1.13402E+01
 -1       316 1.16864E+01
 -1       317 1.14040E+01
 -1       318 1.01484E+01
 -1       319 1.94425E+01
 -1       320 4.58018E+01
 -1       321 2.68452E+01
 -1       322 3.08824E+01
 -1       323 9.81279E+00
 -1       324 1.04742E+00
 -1       325 2.47869E+00
 -1       326 7.94973E-01
 -1       327 6.94493E-01
 -1       328 6.31417E-01
 -1       329 5.87100E-01
 -1       330 5.90442E-01
 -1       331 6.34151E-01
 -1       332 7.00950E-01
 -1       333 7.96182E-01
 -1       334 9.30034E-01
 -1       335 1.14389E+00
 -1       336 1.33076E+00
 -1       337 2.19691E+00
 -1       338 1.91558E+00
 -1       339 8.95679E+00
 -1       340 1.72986E+00
 -1       341 1.26769E+00
 -1       342 9.07050E-01
 -1       343 6.55450E-01
 -1       344 5.40492E-01
 -1       345 4.43146E-01
 -1       346 3.56961E-01
 -1       347 2.88116E-01
 -1       348 2.30927E-01
 -1       349 1.80879E-01
 -1       350 1.43542E-01
 -1       351 1.12712E-01
 -1       352 8.78738E-02
 -1       353 7.04320E-02
 -1       354 7.65426E-02
 -1       355 1.01095E-01
 -1       356 1.66323E-01
 -1       357 2.61784E-01
 -1       358 3.90711E-01
 -1       359 5.52651E-01
 -1       360 7.41426E-01
 -1       361 9.69098E-01
 -1       362 1.22645E+00
 -1       363 1.45722E+00
 -1       364 1.72793E+00
 -1       365 1.90472E+00
 -1       366 1.95076E+00
 -1       367 1.88356E+00
 -1       368 1.95354E+00
 -1       369 1.88546E+00
 -1       370 1.69083E+00
 -1       371 1.41913E+00
 -1       372 1.18753E+00
 -1       373 9.29117E-01
 -1       374 7.11334E-01
 -1       375 5.25846E-01
 -1       376 3.67941E-01
 -1       377 2.42660E-01
 -1       378 1.49536E-01
 -1       379 8.46222E-02
 -1       380 4.23527E-02
 -1       381 1.87567E-02
 -1       382 1.47631E-02
 -1       383 1.05378E-02
 -1       384 8.85468E-03
 -1       385 7.57490E-03
 -1       386 6.40019E+00
 -1       387 1.12795E+00
 -1       388 8.84654E-01
 -1       389 7.03357E-01
 -1       390 5.45170E-01
 -1       391 4.40662E-01
 -1       392 3.74827E-01
 -1       393 3.11732E-01
 -1       394 2.59096E-01
 -1       395 2.12597E-01
 -1       396 1.78805E-01
 -1       397 1.51825E-01
 -1       398 1.41317E-01
 -1       399 1.43874E-01
 -1       400 2.23824E-01
 -1       401 3.92648E-01
 -1       402 6.64296E-01
 -1       403 1.11968E+00
 -1       404 1.82068E+00
 -1       405 2.85395E+00
 -1       406 4.28302E+00
 -1       407 6.02456E+00
 -1       408 7.99277E+00
 -1       409 9.89814E+00
 -1       410 1.41363E+01
 -1       411 9.18400E+00
 -1       412 1.54925E+01
 -1       413 1.03835E+01
 -1       414 4.31015E+00
 -1       415 2.80988E+00
 -1       416 1.78071E+00
 -1       417 1.09616E+00
 -1       418 6.76972E-01
 -1       419 4.13565E-01
 -1       420 2.49829E-01
 -1       421 1.48943E-01
 -1       422 8.72644E-02
 -1       423 4.99298E-02
 -1       424 3.02446E-02
 -1       425 2.02474E-02
 -1       426 9.33140E-03
 -1       427 1.65112E-02
 -1       428 1.65112E-02
 -1       429 1.34015E-02
 -1       430 1.58615E-02
 -1       431 1.58615E-02
 -1       432 1.45679E-02
 -1       433 1.36723E-02
 -1       434 1.04878E-02
 -1       435 6.19843E-03
 -1       436 4.00981E-03
 -1       437 5.01225E-03
 -1       438 5.01225E-03
 -1       439 4.93413E-03
 -1       440 4.64159E+01
 -1       441 4.64159E+01
 -1       442 2.13486E+01
 -1       443 7.06774E+00
 -1       444 1.08606E+01
 -1       445 9.10415E-01
 -1       446 9.95518E+00
 -1       447 1.69167E+01
 -1       448 2.78729E+01
 -1       449 3.32614E+01
 -1       450 4.24053E+01
 -1       451 4.24053E+01
 -1       452 2.62948E+01
 -1       453 2.12910E+01
 -1       454 1.20584E+01
 -1       455 7.03658E+00
 -1       456 1.03243E+01
 -1       457 1.13163E+01
 -1       458 9.43716E+00
 -1       459 6.92550E+00
 -1       460 8.80402E+00
 -1       461 1.61029E+01
 -1       462 2.68452E+01
 -1       463 2.71657E+01
 -1       464 2.55865E+01
 -1       465 9.86633E+00
 -1       466 1.52609E+01
 -1       467 8.06906E+00
 -1       468 1.18803E+01
 -1       469 4.86226E-01
 -1       470 5.15073E-01
 -1       471 4.31191E-01
 -1       472 4.57174E-01
 -1       473 4.86809E-01
 -1       474 5.11033E-01
 -1       475 5.11033E-01
 -1       476 5.05461E-01
 -1       477 6.68200E-01
 -1       478 1.31690E+00
 -1       479 8.02329E-01
 -1       480 7.03357E-01
 -1       481 8.84654E-01
 -1       482 8.71295E-01
 -1       483 5.74314E+00
 -1       484 7.01128E-01
 -1       485 5.87438E-01
 -1       486 4.74326E-01
 -1       487 3.74508E-01
 -1       488 3.21962E-01
 -1       489 2.70671E-01
 -1       490 2.21536E-01
 -1       491 1.82193E-01
 -1       492 1.50242E-01
 -1       493 1.22087E-01
 -1       494 1.01647E-01
 -1       495 8.76407E-02
 -1       496 9.11554E-02
 -1       497 1.18252E-01
 -1       498 1.68978E-01
 -1       499 2.47318E-01
 -1       500 3.55188E-01
 -1       501 4.89995E-01
 -1       502 6.41507E-01
 -1       503 8.08305E-01
 -1       504 1.02676E+00
 -1       505 1.21778E+00
 -1       506 1.35920E+00
 -1       507 1.48682E+00
 -1       508 1.52251E+00
 -1       509 1.47198E+00
 -1       510 1.48446E+00
 -1       511 1.52233E+00
 -1       512 1.47166E+00
 -1       513 1.37070E+00
 -1       514 1.21782E+00
 -1       515 1.01123E+00
 -1       516 7.90227E-01
 -1       517 5.87878E-01
 -1       518 4.20881E-01
 -1       519 2.85816E-01
 -1       520 1.83105E-01
 -1       521 1.11722E-01
 -1       522 6.53007E-02
 -1       523 3.51706E-02
 -1       524 1.83109E-02
 -1       525 1.18927E-02
 -1       526 8.88254E-03
 -1       527 6.84882E-03
 -1       528 3.43010E+00
 -1       529 9.39064E-01
 -1       530 5.45170E-01
 -1       531 4.40662E-01
 -1       532 3.74827E-01
 -1       533 3.11732E-01
 -1       534 2.57439E-01
 -1       535 2.05365E-01
 -1       536 1.63984E-01
 -1       537 1.29065E-01
 -1       538 1.00521E-01
 -1       539 1.11719E-01
 -1       540 1.61785E-01
 -1       541 2.82872E-01
 -1       542 4.66015E-01
 -1       543 7.58643E-01
 -1       544 1.20219E+00
 -1       545 1.94972E+00
 -1       546 3.19121E+00
 -1       547 5.23313E+00
 -1       548 8.85391E+00
 -1       549 1.73255E+01
 -1       550 5.86116E+00
 -1       551 2.55865E+01
 -1       552 3.32614E+01
 -1       553 7.98651E+00
 -1       554 2.07380E+00
 -1       555 1.23781E+00
 -1       556 7.35785E-01
 -1       557 4.45275E-01
 -1       558 2.69737E-01
 -1       559 1.72984E-01
 -1       560 1.09443E-01
 -1       561 6.81349E-02
 -1       562 4.09476E-02
 -1       563 2.54341E-02
 -1       564 2.33831E-02
 -1       565 2.33831E-02
 -1       566 2.33945E-02
 -1       567 2.25945E-02
 -1       568 2.08841E-02
 -1       569 1.73869E-02
 -1       570 1.11501E-02
 -1       571 8.49601E-03
 -1       572 7.58274E-03
 -1       573 1.03227E-02
 -1       574 2.00963E+01
 -1       575 6.01918E+00
 -1       576 2.71657E+01
 -1       577 4.64159E+01
 -1       578 8.99349E+00
 -1       579 1.03835E+01
 -1       580 1.97011E+01
 -1       581 4.56908E-01
 -1       582 5.08222E+00
 -1       583 4.24053E+01
 -1       584 1.24065E+01
 -1       585 1.53458E+01
 -1       586 5.73094E+00
 -1       587 2.62948E+01
 -1       588 6.70057E+00
 -1       589 4.25108E+00
 -1       590 7.84547E+00
 -1       591 5.33634E-01
 -1       592 1.55518E+01
 -1       593 6.61238E+00
 -1       594 1.03227E-02
 -1       595 9.48740E+00
 -1       596 3.57495E-01
 -1       597 3.58360E-01
 -1       598 3.42523E-01
 -1       599 3.62027E-01
 -1       600 3.35156E-01
 -1       601 3.25841E-01
 -1       602 3.95114E-01
 -1       603 5.33634E-01
 -1       604 4.63219E-01
 -1       605 3.98980E-01
 -1       606 4.33530E+00
 -1       607 3.73804E-01
 -1       608 3.75466E-01
 -1       609 3.44259E-01
 -1       610 2.99636E-01
 -1       611 2.51438E-01
 -1       612 2.14870E-01
 -1       613 1.82193E-01
 -1       614 1.50242E-01
 -1       615 1.22087E-01
 -1       616 1.01647E-01
 -1       617 8.76407E-02
 -1       618 9.11554E-02
 -1       619 1.18252E-01
 -1       620 1.68978E-01
 -1       621 2.47318E-01
 -1       622 3.55188E-01
 -1       623 4.89995E-01
 -1       624 6.41507E-01
 -1       625 7.89523E-01
 -1       626 9.31649E-01
 -1       627 1.11822E+00
 -1       628 1.24285E+00
 -1       629 1.30876E+00
 -1       630 1.34967E+00
 -1       631 1.31781E+00
 -1       632 1.38239E+00
 -1       633 1.46938E+00
 -1       634 1.46938E+00
 -1       635 1.42084E+00
 -1       636 1.29785E+00
 -1       637 1.07949E+00
 -1       638 8.66485E-01
 -1       639 6.92809E-01
 -1       640 5.19563E-01
 -1       641 3.66766E-01
 -1       642 2.43943E-01
 -1       643 1.52443E-01
 -1       644 8.87636E-02
 -1       645 5.15340E-02
 -1       646 2.96381E-02
 -1       647 1.83109E-02
 -1       648 1.18927E-02
 -1       649 1.59146E+01
 -1       650 2.71870E-01
 -1       651 2.33987E-01
 -1       652 1.93655E-01
 -1       653 1.57101E-01
 -1       654 1.22230E-01
 -1       655 8.79051E-02
 -1       656 6.45369E-02
 -1       657 8.32291E-02
 -1       658 1.78155E-01
 -1       659 3.33987E-01
 -1       660 5.99677E-01
 -1       661 1.00177E+00
 -1       662 1.65460E+00
 -1       663 2.71128E+00
 -1       664 4.42036E+00
 -1       665 9.31098E+00
 -1       666 1.21854E+01
 -1       667 1.73582E+01
 -1       668 2.86305E+00
 -1       669 6.36959E+00
 -1       670 3.62027E-01
 -1       671 9.73265E-01
 -1       672 6.02392E-01
 -1       673 3.69936E-01
 -1       674 2.24369E-01
 -1       675 1.33735E-01
 -1       676 8.14332E-02
 -1       677 4.76210E-02
 -1       678 3.18731E-02
 -1       679 5.29049E+00
 -1       680 3.09319E-02
 -1       681 3.49440E-02
 -1       682 3.49440E-02
 -1       683 3.18731E-02
 -1       684 2.76276E-02
 -1       685 1.88500E-02
 -1       686 1.58317E-02
 -1       687 1.32538E-02
 -1       688 1.09224E-02
 -1       689 1.61067E+00
 -1       690 5.16548E-01
 -1       691 3.03678E+00
 -1       692 1.50305E+01
 -1       693 1.88277E+01
 -1       694 1.64667E+01
 -1       695 4.18846E+00
 -1       696 2.44866E+00
 -1       697 2.59177E+00
 -1       698 7.92399E+00
 -1       699 1.03363E+01
 -1       700 8.34087E+00
 -1       701 6.32478E+00
 -1       702 5.21516E+00
 -1       703 1.33234E+01
 -1       704 5.02133E-01
 -1       705 3.41850E-01
 -1       706 4.12090E-01
 -1       707 9.39292E+00
 -1       708 4.32254E+00
 -1       709 6.27854E+00
 -1       710 1.05265E+01
 -1       711 3.56949E-01
 -1       712 4.37174E+00
 -1       713 7.70019E+00
 -1       714 3.57495E-01
 -1       715 3.48156E+00
 -1       716 1.08824E+01
 -1       717 2.48634E-01
 -1       718 2.84547E-01
 -1       719 2.52106E+00
 -1       720 2.10934E-01
 -1       721 2.93419E-01
 -1       722 2.25657E-01
 -1       723 2.43378E-01
 -1       724 2.34673E-01
 -1       725 2.11960E-01
 -1       726 1.82982E-01
 -1       727 1.58694E-01
 -1       728 1.35508E-01
 -1       729 1.11134E-01
 -1       730 8.74676E-02
 -1       731 7.07069E-02
 -1       732 6.90185E-02
 -1       733 8.27212E-02
 -1       734 1.20744E-01
 -1       735 1.83499E-01
 -1       736 2.76213E-01
 -1       737 4.01524E-01
 -1       738 5.55936E-01
 -1       739 7.26648E-01
 -1       740 8.85862E-01
 -1       741 1.03763E+00
 -1       742 1.14891E+00
 -1       743 1.25255E+00
 -1       744 1.41374E+00
 -1       745 1.50731E+00
 -1       746 1.36382E+00
 -1       747 1.47537E+00
 -1       748 1.48010E+00
 -1       749 1.31066E+00
 -1       750 1.19525E+00
 -1       751 1.09868E+00
 -1       752 9.38122E-01
 -1       753 7.92523E-01
 -1       754 6.21115E-01
 -1       755 4.55453E-01
 -1       756 3.14184E-01
 -1       757 2.04174E-01
 -1       758 1.24595E-01
 -1       759 7.71901E-02
 -1       760 4.81549E-02
 -1       761 2.96381E-02
 -1       762 1.72676E-02
 -1       763 2.50390E-01
 -1       764 1.05265E+01
 -1       765 1.52230E-01
 -1       766 1.22238E-01
 -1       767 9.21270E-02
 -1       768 6.20487E-02
 -1       769 7.35757E-02
 -1       770 1.35196E-01
 -1       771 2.46375E-01
 -1       772 4.31232E-01
 -1       773 6.74333E-01
 -1       774 1.05896E+00
 -1       775 1.65279E+00
 -1       776 2.80564E+00
 -1       777 7.12319E+00
 -1       778 1.73255E+01
 -1       779 2.48997E-01
 -1       780 5.86934E-01
 -1       781 1.60848E-01
 -1       782 1.01520E-01
 -1       783 6.32163E-02
 -1       784 4.09926E-02
 -1       785 2.78059E-02
 -1       786 3.10868E-02
 -1       787 4.30179E-02
 -1       788 2.16743E-02
 -1       789 2.01468E-02
 -1       790 4.39125E+00
 -1       791 1.05682E+01
 -1       792 1.00974E+00
 -1       793 3.00016E-01
 -1       794 4.71054E-02
 -1       795 4.82060E+00
 -1       796 4.71054E-02
 -1       797 3.96272E+00
 -1       798 1.82051E-01
 -1       799 1.75173E-01
 -1       800 3.07786E-01
 -1       801 2.49645E+00
 -1       802 2.88238E-01
 -1       803 5.39435E+00
 -1       804 6.82577E+00
 -1       805 3.79326E-01
 -1       806 3.76785E+00
 -1       807 8.32442E+00
 -1       808 2.77761E+00
 -1       809 2.88238E-01
 -1       810 2.80577E-01
 -1       811 4.13543E+00
 -1       812 3.56746E+00
 -1       813 3.52115E-02
 -1       814 5.09152E+00
 -1       815 2.81166E-01
 -1       816 5.80648E+00
 -1       817 3.03678E+00
 -1       818 2.81731E+00
 -1       819 2.88439E-01
 -1       820 3.10495E+00
 -1       821 2.78358E-01
 -1       822 1.61365E+00
 -1       823 6.75885E+00
 -1       824 3.03098E+00
 -1       825 2.06054E-01
 -1       826 1.70117E-01
 -1       827 1.74482E-01
 -1       828 1.64753E-01
 -1       829 1.47132E-01
 -1       830 1.26565E-01
 -1       831 1.09361E-01
 -1       832 8.95643E-02
 -1       833 6.86358E-02
 -1       834 5.34503E-02
 -1       835 5.78393E-02
 -1       836 8.54594E-02
 -1       837 1.43481E-01
 -1       838 2.19778E-01
 -1       839 3.12369E-01
 -1       840 4.52133E-01
 -1       841 6.40890E-01
 -1       842 8.51647E-01
 -1       843 1.03763E+00
 -1       844 1.23017E+00
 -1       845 1.33028E+00
 -1       846 1.41374E+00
 -1       847 1.68690E+00
 -1       848 1.85247E+00
 -1       849 1.67853E+00
 -1       850 1.81110E+00
 -1       851 1.54816E+00
 -1       852 1.34091E+00
 -1       853 1.30390E+00
 -1       854 1.09868E+00
 -1       855 9.32464E-01
 -1       856 7.24862E-01
 -1       857 5.22542E-01
 -1       858 3.61666E-01
 -1       859 2.62689E-01
 -1       860 1.80752E-01
 -1       861 1.17434E-01
 -1       862 7.20514E-02
 -1       863 4.84953E-02
 -1       864 3.28114E-02
 -1       865 1.03313E-01
 -1       866 1.91498E-01
 -1       867 1.25072E-01
 -1       868 7.79980E-02
 -1       869 1.10101E-01
 -1       870 1.76273E-01
 -1       871 3.03557E-01
 -1       872 4.74655E-01
 -1       873 7.58365E-01
 -1       874 1.18240E+00
 -1       875 1.87302E+00
 -1       876 3.30286E+00
 -1       877 4.49355E-01
 -1       878 1.42914E-01
 -1       879 2.04117E-01
 -1       880 1.09435E-01
 -1       881 2.85676E-01
 -1       882 4.97505E+00
 -1       883 1.79005E-01
 -1       884 4.60147E-02
 -1       885 2.32785E+00
 -1       886 4.84953E-02
 -1       887 5.01106E-02
 -1       888 1.45369E-01
 -1       889 6.57991E-02
 -1       890 7.06837E-01
 -1       891 6.12938E+00
 -1       892 8.12778E-02
 -1       893 2.88439E-01
 -1       894 7.03533E-02
 -1       895 1.68289E-01
 -1       896 1.43108E-01
 -1       897 3.18520E+00
 -1       898 5.49034E+00
 -1       899 2.96109E+00
 -1       900 7.12319E+00
 -1       901 2.91233E+00
 -1       902 2.30803E+00
 -1       903 3.09797E+00
 -1       904 2.16680E-01
 -1       905 2.17146E-01
 -1       906 1.04027E+00
 -1       907 4.13006E+00
 -1       908 2.85862E+00
 -1       909 7.14740E-02
 -1       910 4.37893E+00
 -1       911 2.17146E-01
 -1       912 3.31073E+00
 -1       913 2.05542E-01
 -1       914 4.12478E+00
 -1       915 2.99925E+00
 -1       916 2.05764E-01
 -1       917 4.67450E+00
 -1       918 2.15841E-01
 -1       919 1.30628E-01
 -1       920 1.27273E-01
 -1       921 1.15950E-01
 -1       922 9.99500E-02
 -1       923 8.46389E-02
 -1       924 6.69831E-02
 -1       925 4.64829E-02
 -1       926 3.35693E-02
 -1       927 5.79641E-02
 -1       928 1.12398E-01
 -1       929 1.90534E-01
 -1       930 3.00000E-01
 -1       931 4.37439E-01
 -1       932 5.92454E-01
 -1       933 8.09549E-01
 -1       934 1.03070E+00
 -1       935 1.72626E+00
 -1       936 1.68581E+00
 -1       937 1.92228E+00
 -1       938 1.94847E+00
 -1       939 2.58263E+00
 -1       940 2.39158E+00
 -1       941 2.96109E+00
 -1       942 2.42333E+00
 -1       943 1.77042E+00
 -1       944 1.32553E+00
 -1       945 1.14053E+00
 -1       946 9.10423E-01
 -1       947 6.69146E-01
 -1       948 5.07219E-01
 -1       949 3.61666E-01
 -1       950 2.41948E-01
 -1       951 1.53374E-01
 -1       952 9.36942E-02
 -1       953 5.55583E-02
 -1       954 1.19580E-01
 -1       955 1.52984E-01
 -1       956 1.02864E-01
 -1       957 1.52192E-01
 -1       958 1.05620E-01
 -1       959 3.34865E-01
 -1       960 5.24909E-01
 -1       961 8.86728E-01
 -1       962 1.43811E+00
 -1       963 2.14514E+00
 -1       964 3.18258E-01
 -1       965 8.06843E-02
 -1       966 9.01890E-02
 -1       967 1.16523E-01
 -1       968 7.07079E-02
 -1       969 5.38883E-01
 -1       970 2.16680E-01
 -1       971 8.37024E-02
 -1       972 2.42333E+00
 -1       973 2.31149E-01
 -1       974 1.22237E-01
 -1       975 2.23677E+00
 -1       976 3.53713E+00
 -1       977 2.58263E+00
 -1       978 2.41406E+00
 -1       979 3.65995E+00
 -1       980 1.73217E+00
 -1       981 9.30719E-02
 -1       982 1.43114E-01
 -1       983 3.31409E+00
 -1       984 8.55976E-01
 -1       985 1.47827E-01
 -1       986 2.91233E+00
 -1       987 8.87060E-02
 -1       988 2.97367E+00
 -1       989 1.95307E-01
 -1       990 1.52526E-01
 -1       991 2.06373E+00
 -1       992 3.01730E+00
 -1       993 1.33988E-01
 -1       994 1.25992E-01
 -1       995 3.51975E+00
 -1       996 1.56556E-01
 -1       997 8.15529E-02
 -1       998 1.42160E-01
 -1       999 1.47981E-01
 -1      1000 1.13544E-01
 -1      1001 2.86194E+00
 -1      1002 1.07715E-01
 -1      1003 9.82131E-02
 -1      1004 2.19701E+00
 -1      1005 1.16744E-01
 -1      1006 1.99489E+00
 -1      1007 9.68453E-02
 -1      1008 8.85345E-02
 -1      1009 7.53858E-02
 -1      1010 6.84253E-02
 -1      1011 6.27999E-02
 -1      1012 5.59610E-02
 -1      1013 7.28749E-02
 -1      1014 1.10389E-01
 -1      1015 1.81344E-01
 -1      1016 2.70363E-01
 -1      1017 3.74224E-01
 -1      1018 5.68970E-01
 -1      1019 8.09549E-01
 -1      1020 1.07394E+00
 -1      1021 1.72626E+00
 -1      1022 1.87464E+00
 -1      1023 1.64114E+00
 -1      1024 1.20654E+00
 -1      1025 9.10423E-01
 -1      1026 6.97747E-01
 -1      1027 4.87458E-01
 -1      1028 3.62352E-01
 -1      1029 2.57085E-01
 -1      1030 1.70066E-01
 -1      1031 1.28244E-01
 -1      1032 3.58970E+00
 -1      1033 6.51935E-01
 -1      1034 4.26877E-01
 -1      1035 1.47461E+00
 -1      1036 2.76007E-01
 -1      1037 2.29608E+00
 -1      1038 9.47684E-02
 -1      1039 2.33123E+00
 -1      1040 1.28244E-01
 -1      1041 3.98708E-01
 -1      1042 1.56556E-01
 -1      1043 1.73535E-01
 -1      1044 9.51346E-01
 -1      1045 8.93938E-02
 -1      1046 2.21096E+00
 -1      1047 3.12121E+00
 -1      1048 6.25432E-01
 -1      1049 1.92606E+00
 -1      1050 1.04661E-01
 -1      1051 1.01352E-01
 -1      1052 1.02230E-01
 -1      1053 2.47817E-01
 -1      1054 2.86194E+00
 -1      1055 9.73041E-02
 -1      1056 1.06600E-01
 -1      1057 1.16937E-01
 -1      1058 9.73989E-02
 -1      1059 1.24548E+00
 -1      1060 1.01762E-01
 -1      1061 7.78493E-02
 -1      1062 8.01985E-02
 -1      1063 7.46578E-02
 -1      1064 7.56448E-02
 -1      1065 1.04536E-01
 -1      1066 1.38532E-01
 -1      1067 2.02781E-01
 -1      1068 3.01149E-01
 -1      1069 4.47233E-01
 -1      1070 6.38246E-01
 -1      1071 9.29290E-01
 -1      1072 1.31243E+00
 -1      1073 1.77331E+00
 -1      1074 1.88358E+00
 -1      1075 2.02781E-01
 -1      1076 2.39445E+00
 -1      1077 2.86194E+00
 -1      1078 1.77392E+00
 -1      1079 1.18399E+00
 -1      1080 7.06237E-01
 -1      1081 5.02749E-01
 -1      1082 3.81665E-01
 -1      1083 2.40589E-01
 -1      1084 1.59555E-01
 -1      1085 6.38246E-01
 -1      1086 1.77331E+00
 -1      1087 4.47233E-01
 -1      1088 2.50240E+00
 -1      1089 2.64287E+00
 -1      1090 1.16937E-01
 -1      1091 1.01762E-01
 -1      1092 9.39740E-02
 -1      1093 1.58963E-01
 -1      1094 6.56693E-02
 -1      1095 1.04661E-01
 -1      1096 7.89450E-02
 -1      1097 3.01149E-01
 -1      1098 5.79550E-02
 -1      1099 4.84582E-01
 -1      1100 1.24548E+00
 -1      1101 1.38532E-01
 -1      1102 1.31243E+00
 -1      1103 9.27246E-01
 -1      1104 2.75752E-01
 -1      1105 9.29290E-01
 -1      1106 1.70456E+00
 -1      1107 8.43795E-02
 -1      1108 1.82974E-01
 -1      1109 8.01985E-02
 -1      1110 9.67010E-02
 -1      1111 1.04661E-01
 -1      1112 2.50240E+00
 -1      1113 9.22245E-02
 -1      1114 8.36368E-01
 -1      1115 5.93012E-02
 -1      1116 1.16937E-01
 -1      1117 9.04440E-01
 -1      1118 1.01352E-01
 -1      1119 1.77331E+00
 -1      1120 1.31433E+01
 -1      1121 8.40281E+00
 -1      1122 2.74315E+00
 -1      1123 1.55621E+00
 -1      1124 1.16715E+00
 -1      1125 9.72621E-01
 -1      1126 8.53807E-01
 -1      1127 7.80768E-01
 -1      1128 7.54307E-01
 -1      1129 7.84001E-01
 -1      1130 8.56516E-01
 -1      1131 9.76398E-01
 -1      1132 1.17912E+00
 -1      1133 1.56802E+00
 -1      1134 2.66886E+00
 -1      1135 6.07422E+00
 -1      1136 1.13402E+01
 -1      1137 1.31433E+01
 -1      1138 8.73113E+00
 -1      1139 3.83042E+00
 -1      1140 2.72723E+00
 -1      1141 1.73821E+00
 -1      1142 1.19062E+00
 -1      1143 8.98169E-01
 -1      1144 6.89299E-01
 -1      1145 5.29646E-01
 -1      1146 4.04827E-01
 -1      1147 3.10003E-01
 -1      1148 2.37212E-01
 -1      1149 1.77525E-01
 -1      1150 1.33290E-01
 -1      1151 1.06714E-01
 -1      1152 8.77980E-02
 -1      1153 7.55387E-02
 -1      1154 9.19289E-02
 -1      1155 1.31404E-01
 -1      1156 2.04249E-01
 -1      1157 3.22814E-01
 -1      1158 4.66967E-01
 -1      1159 6.30686E-01
 -1      1160 8.86213E-01
 -1      1161 1.25075E+00
 -1      1162 1.68123E+00
 -1      1163 2.12728E+00
 -1      1164 2.46818E+00
 -1      1165 2.60929E+00
 -1      1166 2.62728E+00
 -1      1167 2.63471E+00
 -1      1168 2.60325E+00
 -1      1169 2.42535E+00
 -1      1170 2.06092E+00
 -1      1171 1.61314E+00
 -1      1172 1.19205E+00
 -1      1173 8.43447E-01
 -1      1174 6.04399E-01
 -1      1175 4.47632E-01
 -1      1176 3.10396E-01
 -1      1177 2.00509E-01
 -1      1178 1.31066E-01
 -1      1179 9.19063E-02
 -1      1180 5.99411E-02
 -1      1181 3.90744E-02
 -1      1182 2.68315E-02
 -1      1183 1.75246E-02
 -1      1184 1.28929E-02
 -1      1185 1.01862E-02
 -1      1186 5.32874E-03
 -1      1187 1.40394E+01
 -1      1188 8.71819E+00
 -1      1189 2.90626E+00
 -1      1190 2.04139E+00
 -1      1191 1.40698E+00
 -1      1192 1.02817E+00
 -1      1193 8.22889E-01
 -1      1194 6.65297E-01
 -1      1195 5.35853E-01
 -1      1196 4.29226E-01
 -1      1197 3.47486E-01
 -1      1198 2.80884E-01
 -1      1199 2.26472E-01
 -1      1200 1.90974E-01
 -1      1201 1.82960E-01
 -1      1202 2.11511E-01
 -1      1203 2.75335E-01
 -1      1204 3.82813E-01
 -1      1205 5.62062E-01
 -1      1206 8.89773E-01
 -1      1207 1.36182E+00
 -1      1208 1.96356E+00
 -1      1209 2.66249E+00
 -1      1210 3.24771E+00
 -1      1211 4.27754E+00
 -1      1212 5.70299E+00
 -1      1213 6.32927E+00
 -1      1214 6.65161E+00
 -1      1215 1.23077E+01
 -1      1216 1.96604E+01
 -1      1217 2.16794E+01
 -1      1218 1.92947E+01
 -1      1219 1.17058E+01
 -1      1220 7.14614E+00
 -1      1221 7.79075E+00
 -1      1222 7.17595E+00
 -1      1223 5.64993E+00
 -1      1224 3.97810E+00
 -1      1225 2.70994E+00
 -1      1226 1.86187E+00
 -1      1227 1.27390E+00
 -1      1228 8.21989E-01
 -1      1229 5.01136E-01
 -1      1230 3.11238E-01
 -1      1231 1.92261E-01
 -1      1232 1.23038E-01
 -1      1233 8.54828E-02
 -1      1234 6.18189E-02
 -1      1235 4.39025E-02
 -1      1236 2.71980E-02
 -1      1237 1.21582E-02
 -1      1238 5.00738E-03
 -1      1239 4.28203E-03
 -1      1240 4.08411E-03
 -1      1241 2.90363E-03
 -1      1242 2.42901E-03
 -1      1243 3.27501E-03
 -1      1244 3.61306E-03
 -1      1245 3.60401E-03
 -1      1246 3.29091E-03
 -1      1247 2.50556E-03
 -1      1248 1.52970E-03
 -1      1249 9.15143E-04
 -1      1250 9.67604E-04
 -1      1251 1.27253E-03
 -1      1252 1.40497E-03
 -1      1253 3.29792E-03
 -1      1254 3.54679E-03
 -1      1255 2.49018E+01
 -1      1256 2.53151E+01
 -1      1257 3.11369E+01
 -1      1258 3.69587E+01
 -1      1259 2.66478E+01
 -1      1260 1.54358E+01
 -1      1261 1.45346E+01
 -1      1262 1.45963E+01
 -1      1263 1.46580E+01
 -1      1264 1.72029E+01
 -1      1265 3.36105E+01
 -1      1266 4.74732E+01
 -1      1267 3.71464E+01
 -1      1268 2.67308E+01
 -1      1269 2.56151E+01
 -1      1270 2.55692E+01
 -1      1271 3.05941E+01
 -1      1272 3.46381E+01
 -1      1273 2.39008E+01
 -1      1274 1.23969E+01
 -1      1275 1.17696E+01
 -1      1276 1.19091E+01
 -1      1277 1.17977E+01
 -1      1278 1.16864E+01
 -1      1279 1.15452E+01
 -1      1280 1.49146E+01
 -1      1281 3.21135E+01
 -1      1282 4.58018E+01
 -1      1283 3.49206E+01
 -1      1284 2.42640E+01
 -1      1285 1.31433E+01
 -1      1286 4.86909E+00
 -1      1287 9.60961E+00
 -1      1288 2.06090E+00
 -1      1289 2.98003E+00
 -1      1290 4.18683E+00
 -1      1291 1.39775E+00
 -1      1292 1.66555E+00
 -1      1293 1.90244E+00
 -1      1294 1.10165E+00
 -1      1295 1.22290E+00
 -1      1296 1.33224E+00
 -1      1297 9.36234E-01
 -1      1298 1.00951E+00
 -1      1299 1.06526E+00
 -1      1300 8.36144E-01
 -1      1301 8.81680E-01
 -1      1302 9.18571E-01
 -1      1303 7.74355E-01
 -1      1304 8.01857E-01
 -1      1305 8.29731E-01
 -1      1306 7.55348E-01
 -1      1307 7.54307E-01
 -1      1308 7.75396E-01
 -1      1309 8.05823E-01
 -1      1310 7.77171E-01
 -1      1311 7.77171E-01
 -1      1312 8.83585E-01
 -1      1313 8.39722E-01
 -1      1314 8.32892E-01
 -1      1315 1.01655E+00
 -1      1316 9.40534E-01
 -1      1317 9.23741E-01
 -1      1318 1.23853E+00
 -1      1319 1.11182E+00
 -1      1320 1.07596E+00
 -1      1321 1.67844E+00
 -1      1322 1.41624E+00
 -1      1323 1.34894E+00
 -1      1324 2.88298E+00
 -1      1325 2.04435E+00
 -1      1326 1.89256E+00
 -1      1327 6.28670E+00
 -1      1328 3.71996E+00
 -1      1329 3.09546E+00
 -1      1330 1.40394E+01
 -1      1331 1.13402E+01
 -1      1332 8.98592E+00
 -1      1333 1.40394E+01
 -1      1334 8.73113E+00
 -1      1335 4.31893E+00
 -1      1336 3.83042E+00
 -1      1337 3.34191E+00
 -1      1338 3.83042E+00
 -1      1339 2.72723E+00
 -1      1340 2.11254E+00
 -1      1341 2.72723E+00
 -1      1342 1.78026E+00
 -1      1343 1.40593E+00
 -1      1344 1.78026E+00
 -1      1345 1.19493E+00
 -1      1346 1.02168E+00
 -1      1347 1.23698E+00
 -1      1348 8.98169E-01
 -1      1349 7.78962E-01
 -1      1350 9.02474E-01
 -1      1351 6.89299E-01
 -1      1352 5.99636E-01
 -1      1353 6.89299E-01
 -1      1354 5.34946E-01
 -1      1355 4.64956E-01
 -1      1356 5.34946E-01
 -1      1357 4.14639E-01
 -1      1358 3.59810E-01
 -1      1359 4.19939E-01
 -1      1360 3.19057E-01
 -1      1361 2.79062E-01
 -1      1362 3.28869E-01
 -1      1363 2.49720E-01
 -1      1364 2.16923E-01
 -1      1365 2.58774E-01
 -1      1366 1.91497E-01
 -1      1367 1.64607E-01
 -1      1368 2.04005E-01
 -1      1369 1.42975E-01
 -1      1370 1.25629E-01
 -1      1371 1.56946E-01
 -1      1372 1.07510E-01
 -1      1373 9.82788E-02
 -1      1374 1.17194E-01
 -1      1375 8.77980E-02
 -1      1376 7.81137E-02
 -1      1377 8.85945E-02
 -1      1378 7.29546E-02
 -1      1379 7.03796E-02
 -1      1380 7.29546E-02
 -1      1381 7.29636E-02
 -1      1382 9.19289E-02
 -1      1383 7.03796E-02
 -1      1384 1.10894E-01
 -1      1385 1.31404E-01
 -1      1386 9.19289E-02
 -1      1387 1.64189E-01
 -1      1388 2.16525E-01
 -1      1389 1.43680E-01
 -1      1390 2.76449E-01
 -1      1391 3.42678E-01
 -1      1392 2.36389E-01
 -1      1393 4.24364E-01
 -1      1394 5.02289E-01
 -1      1395 3.78000E-01
 -1      1396 6.05859E-01
 -1      1397 6.91654E-01
 -1      1398 5.63257E-01
 -1      1399 8.13092E-01
 -1      1400 9.82824E-01
 -1      1401 7.88266E-01
 -1      1402 1.11553E+00
 -1      1403 1.31033E+00
 -1      1404 1.04241E+00
 -1      1405 1.48096E+00
 -1      1406 1.71664E+00
 -1      1407 1.34574E+00
 -1      1408 1.91690E+00
 -1      1409 2.12728E+00
 -1      1410 1.71664E+00
 -1      1411 2.33765E+00
 -1      1412 2.46818E+00
 -1      1413 2.12728E+00
 -1      1414 2.59872E+00
 -1      1415 2.60929E+00
 -1      1416 2.46818E+00
 -1      1417 2.61985E+00
 -1      1418 2.62728E+00
 -1      1419 2.60929E+00
 -1      1420 2.63471E+00
 -1      1421 2.63471E+00
 -1      1422 2.62728E+00
 -1      1423 2.60325E+00
 -1      1424 2.57179E+00
 -1      1425 2.60325E+00
 -1      1426 2.42535E+00
 -1      1427 2.27890E+00
 -1      1428 2.42535E+00
 -1      1429 2.06092E+00
 -1      1430 1.84293E+00
 -1      1431 2.06092E+00
 -1      1432 1.65135E+00
 -1      1433 1.42156E+00
 -1      1434 1.65135E+00
 -1      1435 1.25634E+00
 -1      1436 1.06503E+00
 -1      1437 1.29454E+00
 -1      1438 9.36036E-01
 -1      1439 7.78733E-01
 -1      1440 1.00032E+00
 -1      1441 6.59978E-01
 -1      1442 5.78232E-01
 -1      1443 7.52567E-01
 -1      1444 4.78246E-01
 -1      1445 4.03224E-01
 -1      1446 5.33824E-01
 -1      1447 3.25169E-01
 -1      1448 2.62955E-01
 -1      1449 3.55782E-01
 -1      1450 2.08325E-01
 -1      1451 1.60651E-01
 -1      1452 2.23097E-01
 -1      1453 1.31066E-01
 -1      1454 1.09297E-01
 -1      1455 1.38882E-01
 -1      1456 9.19063E-02
 -1      1457 7.45154E-02
 -1      1458 9.19063E-02
 -1      1459 5.99411E-02
 -1      1460 4.53668E-02
 -1      1461 5.99411E-02
 -1      1462 3.90744E-02
 -1      1463 3.27819E-02
 -1      1464 3.90744E-02
 -1      1465 2.68315E-02
 -1      1466 2.08811E-02
 -1      1467 2.68315E-02
 -1      1468 1.75246E-02
 -1      1469 1.41681E-02
 -1      1470 1.75246E-02
 -1      1471 1.28929E-02
 -1      1472 1.16176E-02
 -1      1473 1.28929E-02
 -1      1474 1.01862E-02
 -1      1475 8.75476E-03
 -1      1476 1.01862E-02
 -1      1477 6.97281E-03
 -1      1478 6.97281E-03
 -1      1479 3.39698E+00
 -1      1480 8.71819E+00
 -1      1481 8.71819E+00
 -1      1482 2.41554E+00
 -1      1483 2.90626E+00
 -1      1484 2.90626E+00
 -1      1485 1.66725E+00
 -1      1486 2.04139E+00
 -1      1487 2.04139E+00
 -1      1488 1.14671E+00
 -1      1489 1.40698E+00
 -1      1490 1.40698E+00
 -1      1491 9.09630E-01
 -1      1492 1.02817E+00
 -1      1493 1.02817E+00
 -1      1494 7.36147E-01
 -1      1495 8.22889E-01
 -1      1496 8.22889E-01
 -1      1497 5.94447E-01
 -1      1498 6.65297E-01
 -1      1499 6.65297E-01
 -1      1500 4.77260E-01
 -1      1501 5.35853E-01
 -1      1502 5.35853E-01
 -1      1503 3.81193E-01
 -1      1504 4.29226E-01
 -1      1505 4.29226E-01
 -1      1506 3.13780E-01
 -1      1507 3.47486E-01
 -1      1508 3.47486E-01
 -1      1509 2.47987E-01
 -1      1510 2.80884E-01
 -1      1511 2.80884E-01
 -1      1512 2.04957E-01
 -1      1513 2.26472E-01
 -1      1514 2.26472E-01
 -1      1515 1.76991E-01
 -1      1516 1.90974E-01
 -1      1517 1.90974E-01
 -1      1518 1.80401E-01
 -1      1519 1.74432E-01
 -1      1520 1.74432E-01
 -1      1521 2.11511E-01
 -1      1522 1.88929E-01
 -1      1523 1.80401E-01
 -1      1524 2.85903E-01
 -1      1525 2.44660E-01
 -1      1526 2.22078E-01
 -1      1527 4.14898E-01
 -1      1528 3.48664E-01
 -1      1529 3.17988E-01
 -1      1530 6.28010E-01
 -1      1531 5.14996E-01
 -1      1532 4.80846E-01
 -1      1533 1.01808E+00
 -1      1534 8.03382E-01
 -1      1535 7.56316E-01
 -1      1536 1.48448E+00
 -1      1537 1.22713E+00
 -1      1538 1.14074E+00
 -1      1539 2.11014E+00
 -1      1540 1.76575E+00
 -1      1541 1.63106E+00
 -1      1542 2.85129E+00
 -1      1543 2.49674E+00
 -1      1544 2.29894E+00
 -1      1545 3.55972E+00
 -1      1546 3.32905E+00
 -1      1547 3.16330E+00
 -1      1548 4.75743E+00
 -1      1549 3.95826E+00
 -1      1550 4.03960E+00
 -1      1551 5.90448E+00
 -1      1552 5.27820E+00
 -1      1553 4.95892E+00
 -1      1554 6.32927E+00
 -1      1555 6.32927E+00
 -1      1556 5.90448E+00
 -1      1557 7.31021E+00
 -1      1558 6.98787E+00
 -1      1559 6.98787E+00
 -1      1560 1.42466E+01
 -1      1561 8.91286E+00
 -1      1562 9.24913E+00
 -1      1563 1.96604E+01
 -1      1564 1.76415E+01
 -1      1565 1.42466E+01
 -1      1566 2.16794E+01
 -1      1567 2.16794E+01
 -1      1568 1.96604E+01
 -1      1569 1.69101E+01
 -1      1570 1.92947E+01
 -1      1571 1.92947E+01
 -1      1572 6.37792E+00
 -1      1573 1.15822E+01
 -1      1574 1.15822E+01
 -1      1575 8.43771E+00
 -1      1576 8.43771E+00
 -1      1577 6.84479E+00
 -1      1578 7.45958E+00
 -1      1579 8.10654E+00
 -1      1580 5.56031E+00
 -1      1581 6.47154E+00
 -1      1582 6.75517E+00
 -1      1583 4.11697E+00
 -1      1584 4.87757E+00
 -1      1585 5.69918E+00
 -1      1586 2.87268E+00
 -1      1587 3.38025E+00
 -1      1588 4.27972E+00
 -1      1589 1.92093E+00
 -1      1590 2.26143E+00
 -1      1591 2.93174E+00
 -1      1592 1.24495E+00
 -1      1593 1.49243E+00
 -1      1594 1.89198E+00
 -1      1595 7.30540E-01
 -1      1596 9.34967E-01
 -1      1597 1.15350E+00
 -1      1598 4.38356E-01
 -1      1599 5.54783E-01
 -1      1600 6.67761E-01
 -1      1601 2.59596E-01
 -1      1602 3.33068E-01
 -1      1603 3.86714E-01
 -1      1604 1.61053E-01
 -1      1605 2.06558E-01
 -1      1606 2.28387E-01
 -1      1607 1.05479E-01
 -1      1608 1.29197E-01
 -1      1609 1.43493E-01
 -1      1610 7.16452E-02
 -1      1611 8.54828E-02
 -1      1612 9.16412E-02
 -1      1613 5.19926E-02
 -1      1614 6.18189E-02
 -1      1615 6.18189E-02
 -1      1616 3.58124E-02
 -1      1617 4.39025E-02
 -1      1618 4.39025E-02
 -1      1619 1.95287E-02
 -1      1620 2.81431E-02
 -1      1621 2.81431E-02
 -1      1622 7.73960E-03
 -1      1623 1.41651E-02
 -1      1624 1.51101E-02
 -1      1625 7.01425E-03
 -1      1626 6.00274E-03
 -1      1627 6.00274E-03
 -1      1628 8.73497E-03
 -1      1629 5.80483E-03
 -1      1630 6.00274E-03
 -1      1631 7.72346E-03
 -1      1632 4.22371E-03
 -1      1633 5.20627E-03
 -1      1634 7.12490E-03
 -1      1635 5.48786E-03
 -1      1636 4.97992E-03
 -1      1637 7.28256E-03
 -1      1638 6.57731E-03
 -1      1639 6.23925E-03
 -1      1640 8.79016E-03
 -1      1641 6.57731E-03
 -1      1642 6.57731E-03
 -1      1643 9.54156E-03
 -1      1644 6.47305E-03
 -1      1645 6.48211E-03
 -1      1646 9.44636E-03
 -1      1647 5.49385E-03
 -1      1648 5.79789E-03
 -1      1649 8.67599E-03
 -1      1650 3.78500E-03
 -1      1651 4.26631E-03
 -1      1652 6.77329E-03
 -1      1653 1.92317E-03
 -1      1654 2.41771E-03
 -1      1655 4.17847E-03
 -1      1656 1.49033E-03
 -1      1657 1.61034E-03
 -1      1658 2.49835E-03
 -1      1659 2.11731E-03
 -1      1660 1.94484E-03
 -1      1661 2.64003E-03
 -1      1662 3.01203E-03
 -1      1663 2.87958E-03
 -1      1664 3.85681E-03
 -1      1665 3.85535E-03
 -1      1666 3.85535E-03
 -1      1667 5.46241E-03
 -1      1668 5.74830E-03
 -1      1669 2.80988E+01
 -1      1670 2.76855E+01
 -1      1671 2.69004E+01
 -1      1672 2.69004E+01
 -1      1673 3.47441E+01
 -1      1674 2.89223E+01
 -1      1675 3.69587E+01
 -1      1676 3.69587E+01
 -1      1677 3.47441E+01
 -1      1678 1.63369E+01
 -1      1679 2.66478E+01
 -1      1680 1.37871E+01
 -1      1681 1.46882E+01
 -1      1682 1.45346E+01
 -1      1683 1.45346E+01
 -1      1684 1.43243E+01
 -1      1685 1.42626E+01
 -1      1686 1.46580E+01
 -1      1687 1.46580E+01
 -1      1688 1.64832E+01
 -1      1689 1.39383E+01
 -1      1690 3.42595E+01
 -1      1691 2.03969E+01
 -1      1692 4.74732E+01
 -1      1693 4.74732E+01
 -1      1694 2.73463E+01
 -1      1695 3.76730E+01
 -1      1696 3.00592E+01
 -1      1697 3.01480E+01
 -1      1698 2.90323E+01
 -1      1699 3.00592E+01
 -1      1700 2.67641E+01
 -1      1701 2.57832E+01
 -1      1702 3.42911E+01
 -1      1703 3.02472E+01
 -1      1704 3.46381E+01
 -1      1705 3.46381E+01
 -1      1706 1.31635E+01
 -1      1707 2.39008E+01
 -1      1708 1.10632E+01
 -1      1709 1.18299E+01
 -1      1710 1.17696E+01
 -1      1711 1.16302E+01
 -1      1712 1.10632E+01
 -1      1713 1.19091E+01
 -1      1714 1.19091E+01
 -1      1715 1.15133E+01
 -1      1716 1.16246E+01
 -1      1717 1.16864E+01
 -1      1718 1.16864E+01
 -1      1719 1.14040E+01
 -1      1720 1.15452E+01
 -1      1721 1.42868E+01
 -1      1722 1.07762E+01
 -1      1723 3.26222E+01
 -1      1724 1.89339E+01
 -1      1725 4.58018E+01
 -1      1726 4.58018E+01
 -1      1727 2.54423E+01
 -1      1728 3.63235E+01
 -1      1729 2.76855E+01
 -1      1730 2.74609E+01
 -1      1731 2.66478E+01
 -1      1732 8.80177E+00
 -1      1733 8.15716E+00
 -1      1734 8.03355E+00
 -1      1735 7.53025E-03
 -1      1736 3.08824E+01
 -1      1737 3.05076E+01
 -1      1738 2.96841E+01
 -1      1739 1.46882E+01
 -1      1740 1.37871E+01
 -1      1741 1.42626E+01
 -1      1742 1.43243E+01
 -1      1743 1.39383E+01
 -1      1744 1.71322E+01
 -1      1745 3.42595E+01
 -1      1746 3.76730E+01
 -1      1747 3.06746E+01
 -1      1748 3.34764E+01
 -1      1749 3.02272E+01
 -1      1750 3.04611E+01
 -1      1751 3.42911E+01
 -1      1752 2.39008E+01
 -1      1753 1.18299E+01
 -1      1754 1.16246E+01
 -1      1755 1.15133E+01
 -1      1756 1.15452E+01
 -1      1757 1.07762E+01
 -1      1758 1.47954E+01
 -1      1759 3.26222E+01
 -1      1760 3.63235E+01
 -1      1761 2.88638E+01
 -1      1762 9.60961E+00
 -1      1763 1.17696E+01
 -1      1764 9.44873E+00
 -1      1765 1.27726E+00
 -1      1766 1.67260E+00
 -1      1767 2.38823E+00
 -1      1768 4.27729E+00
 -1      1769 1.76306E+00
 -1      1770 8.84048E-01
 -1      1771 9.76183E-01
 -1      1772 7.79255E-01
 -1      1773 8.33809E-01
 -1      1774 7.44733E-01
 -1      1775 7.13431E-01
 -1      1776 7.47717E-01
 -1      1777 6.62955E-01
 -1      1778 6.71224E-01
 -1      1779 6.91272E-01
 -1      1780 6.09258E-01
 -1      1781 6.94718E-01
 -1      1782 6.72895E-01
 -1      1783 5.88771E-01
 -1      1784 7.50471E-01
 -1      1785 7.16572E-01
 -1      1786 6.12297E-01
 -1      1787 8.40820E-01
 -1      1788 7.83871E-01
 -1      1789 6.67551E-01
 -1      1790 9.83707E-01
 -1      1791 8.88436E-01
 -1      1792 7.48566E-01
 -1      1793 1.22834E+00
 -1      1794 1.05063E+00
 -1      1795 8.63108E-01
 -1      1796 1.70118E+00
 -1      1797 1.33527E+00
 -1      1798 1.03696E+00
 -1      1799 2.63160E+00
 -1      1800 1.79462E+00
 -1      1801 1.23732E+00
 -1      1802 8.11815E+00
 -1      1803 3.06467E+00
 -1      1804 1.76383E+00
 -1      1805 2.79694E+00
 -1      1806 5.19741E+00
 -1      1807 2.16556E+00
 -1      1808 2.65628E+00
 -1      1809 2.05625E+00
 -1      1810 1.04329E+01
 -1      1811 1.02935E+01
 -1      1812 3.39881E+00
 -1      1813 2.53588E+00
 -1      1814 1.92120E+00
 -1      1815 1.69012E+00
 -1      1816 1.35783E+00
 -1      1817 1.49877E+00
 -1      1818 1.17752E+00
 -1      1819 9.66518E-01
 -1      1820 1.08737E+00
 -1      1821 8.40718E-01
 -1      1822 7.17206E-01
 -1      1823 7.81250E-01
 -1      1824 6.59727E-01
 -1      1825 5.70064E-01
 -1      1826 5.97971E-01
 -1      1827 5.21391E-01
 -1      1828 4.56701E-01
 -1      1829 4.91819E-01
 -1      1830 4.13609E-01
 -1      1831 3.63292E-01
 -1      1832 4.00054E-01
 -1      1833 3.28869E-01
 -1      1834 2.88116E-01
 -1      1835 3.22539E-01
 -1      1836 2.59521E-01
 -1      1837 2.30179E-01
 -1      1838 2.59521E-01
 -1      1839 2.05155E-01
 -1      1840 1.79729E-01
 -1      1841 2.05903E-01
 -1      1842 1.61061E-01
 -1      1843 1.39428E-01
 -1      1844 1.62211E-01
 -1      1845 1.24013E-01
 -1      1846 1.05894E-01
 -1      1847 1.28127E-01
 -1      1848 9.34746E-02
 -1      1849 8.29937E-02
 -1      1850 1.00293E-01
 -1      1851 7.42728E-02
 -1      1852 6.91138E-02
 -1      1853 7.91529E-02
 -1      1854 7.21691E-02
 -1      1855 7.47531E-02
 -1      1856 7.34873E-02
 -1      1857 8.70294E-02
 -1      1858 1.05995E-01
 -1      1859 8.88189E-02
 -1      1860 1.38609E-01
 -1      1861 1.71394E-01
 -1      1862 1.33709E-01
 -1      1863 2.19125E-01
 -1      1864 2.79048E-01
 -1      1865 2.14053E-01
 -1      1866 3.43512E-01
 -1      1867 4.25199E-01
 -1      1868 3.26247E-01
 -1      1869 5.06169E-01
 -1      1870 6.09739E-01
 -1      1871 4.71681E-01
 -1      1872 7.04127E-01
 -1      1873 8.25565E-01
 -1      1874 6.47038E-01
 -1      1875 9.39401E-01
 -1      1876 1.07210E+00
 -1      1877 8.55262E-01
 -1      1878 1.20078E+00
 -1      1879 1.37142E+00
 -1      1880 1.09778E+00
 -1      1881 1.48680E+00
 -1      1882 1.68706E+00
 -1      1883 1.34184E+00
 -1      1884 1.82242E+00
 -1      1885 2.03279E+00
 -1      1886 1.59258E+00
 -1      1887 2.12118E+00
 -1      1888 2.25172E+00
 -1      1889 1.81633E+00
 -1      1890 2.27474E+00
 -1      1891 2.28530E+00
 -1      1892 1.92774E+00
 -1      1893 2.25170E+00
 -1      1894 2.25914E+00
 -1      1895 1.91716E+00
 -1      1896 2.29413E+00
 -1      1897 2.26266E+00
 -1      1898 1.91855E+00
 -1      1899 2.22863E+00
 -1      1900 2.08218E+00
 -1      1901 1.91950E+00
 -1      1902 1.98487E+00
 -1      1903 1.76688E+00
 -1      1904 1.78815E+00
 -1      1905 1.63103E+00
 -1      1906 1.43945E+00
 -1      1907 1.55498E+00
 -1      1908 1.32365E+00
 -1      1909 1.15842E+00
 -1      1910 1.30333E+00
 -1      1911 1.02922E+00
 -1      1912 9.00220E-01
 -1      1913 1.05832E+00
 -1      1914 7.91329E-01
 -1      1915 6.72573E-01
 -1      1916 8.20226E-01
 -1      1917 5.79829E-01
 -1      1918 4.79842E-01
 -1      1919 6.18590E-01
 -1      1920 4.00889E-01
 -1      1921 3.22834E-01
 -1      1922 4.46893E-01
 -1      1923 2.60194E-01
 -1      1924 2.05564E-01
 -1      1925 3.05300E-01
 -1      1926 1.59002E-01
 -1      1927 1.29417E-01
 -1      1928 1.96098E-01
 -1      1929 9.69597E-02
 -1      1930 7.95688E-02
 -1      1931 1.17079E-01
 -1      1932 5.84341E-02
 -1      1933 4.38598E-02
 -1      1934 6.34875E-02
 -1      1935 3.20618E-02
 -1      1936 2.57693E-02
 -1      1937 3.05547E-02
 -1      1938 2.37725E-02
 -1      1939 1.78221E-02
 -1      1940 1.67599E-02
 -1      1941 1.57095E-02
 -1      1942 1.23530E-02
 -1      1943 1.26504E-02
 -1      1944 1.15114E-02
 -1      1945 1.02362E-02
 -1      1946 9.69626E-03
 -1      1947 9.59628E-03
 -1      1948 8.16483E-03
 -1      1949 8.21479E-03
 -1      1950 5.70832E+00
 -1      1951 6.39106E+00
 -1      1952 1.39760E+00
 -1      1953 1.77174E+00
 -1      1954 1.52177E+00
 -1      1955 1.01568E+00
 -1      1956 1.27595E+00
 -1      1957 1.00630E+00
 -1      1958 8.06494E-01
 -1      1959 9.25033E-01
 -1      1960 7.94005E-01
 -1      1961 6.40658E-01
 -1      1962 7.27400E-01
 -1      1963 6.24263E-01
 -1      1964 5.17554E-01
 -1      1965 5.88404E-01
 -1      1966 4.92916E-01
 -1      1967 4.26043E-01
 -1      1968 4.84637E-01
 -1      1969 4.07744E-01
 -1      1970 3.46462E-01
 -1      1971 3.94496E-01
 -1      1972 3.43279E-01
 -1      1973 2.86438E-01
 -1      1974 3.20145E-01
 -1      1975 2.85414E-01
 -1      1976 2.30292E-01
 -1      1977 2.63188E-01
 -1      1978 2.35847E-01
 -1      1979 1.91881E-01
 -1      1980 2.13396E-01
 -1      1981 1.95701E-01
 -1      1982 1.64408E-01
 -1      1983 1.78391E-01
 -1      1984 1.65315E-01
 -1      1985 1.56595E-01
 -1      1986 1.59154E-01
 -1      1987 1.46571E-01
 -1      1988 1.66401E-01
 -1      1989 1.57874E-01
 -1      1990 1.42595E-01
 -1      1991 2.39525E-01
 -1      1992 2.06377E-01
 -1      1993 1.83849E-01
 -1      1994 3.86698E-01
 -1      1995 3.23937E-01
 -1      1996 3.08236E-01
 -1      1997 6.22620E-01
 -1      1998 5.22522E-01
 -1      1999 5.28472E-01
 -1      2000 1.02568E+00
 -1      2001 8.50312E-01
 -1      2002 8.91988E-01
 -1      2003 1.58524E+00
 -1      2004 1.37618E+00
 -1      2005 1.47018E+00
 -1      2006 2.38314E+00
 -1      2007 2.10187E+00
 -1      2008 2.33731E+00
 -1      2009 3.48428E+00
 -1      2010 3.09768E+00
 -1      2011 3.56848E+00
 -1      2012 4.83281E+00
 -1      2013 4.35505E+00
 -1      2014 5.15379E+00
 -1      2015 6.21546E+00
 -1      2016 5.81692E+00
 -1      2017 7.00867E+00
 -1      2018 7.68891E+00
 -1      2019 7.16815E+00
 -1      2020 8.94546E+00
 -1      2021 1.02328E+01
 -1      2022 9.80799E+00
 -1      2023 1.20172E+01
 -1      2024 1.61497E+01
 -1      2025 1.27549E+01
 -1      2026 1.78350E+01
 -1      2027 1.58160E+01
 -1      2028 1.57224E+01
 -1      2029 1.81070E+01
 -1      2030 6.94032E-03
 -1      2031 7.78296E+00
 -1      2032 8.15620E+00
 -1      2033 7.79210E+00
 -1      2034 1.26526E+01
 -1      2035 1.08734E+01
 -1      2036 8.75596E+00
 -1      2037 9.73409E+00
 -1      2038 9.78376E+00
 -1      2039 3.92658E+00
 -1      2040 4.66330E+00
 -1      2041 5.35517E+00
 -1      2042 2.56519E+00
 -1      2043 3.17644E+00
 -1      2044 3.56002E+00
 -1      2045 1.62209E+00
 -1      2046 2.05060E+00
 -1      2047 2.29530E+00
 -1      2048 9.69838E-01
 -1      2049 1.27982E+00
 -1      2050 1.43843E+00
 -1      2051 5.84487E-01
 -1      2052 7.60245E-01
 -1      2053 8.86564E-01
 -1      2054 3.47495E-01
 -1      2055 4.52784E-01
 -1      2056 5.45268E-01
 -1      2057 2.12589E-01
 -1      2058 2.65627E-01
 -1      2059 3.31697E-01
 -1      2060 1.30290E-01
 -1      2061 1.62146E-01
 -1      2062 1.99386E-01
 -1      2063 7.94548E-02
 -1      2064 9.94508E-02
 -1      2065 1.18104E-01
 -1      2066 5.09612E-02
 -1      2067 6.07875E-02
 -1      2068 6.85971E-02
 -1      2069 3.30285E-02
 -1      2070 4.11186E-02
 -1      2071 4.00872E-02
 -1      2072 2.03606E-02
 -1      2073 2.80299E-02
 -1      2074 2.52460E-02
 -1      2075 9.53894E-03
 -1      2076 1.49025E-02
 -1      2077 1.47894E-02
 -1      2078 8.52743E-03
 -1      2079 1.15188E-02
 -1      2080 1.21173E-02
 -1      2081 1.21173E-02
 -1      2082 1.21173E-02
 -1      2083 1.29213E-02
 -1      2084 1.65112E-02
 -1      2085 1.07201E-02
 -1      2086 9.96392E-03
 -1      2087 1.49563E-02
 -1      2088 1.27015E-02
 -1      2089 1.19501E-02
 -1      2090 1.46315E-02
 -1      2091 1.27015E-02
 -1      2092 1.27015E-02
 -1      2093 1.58615E-02
 -1      2094 1.19595E-02
 -1      2095 1.20547E-02
 -1      2096 1.52147E-02
 -1      2097 1.08365E-02
 -1      2098 1.15117E-02
 -1      2099 1.41201E-02
 -1      2100 8.01678E-03
 -1      2101 9.24431E-03
 -1      2102 1.20800E-02
 -1      2103 4.50481E-03
 -1      2104 5.87209E-03
 -1      2105 8.34312E-03
 -1      2106 3.09767E-03
 -1      2107 3.41050E-03
 -1      2108 5.10412E-03
 -1      2109 4.05339E-03
 -1      2110 3.59889E-03
 -1      2111 4.51103E-03
 -1      2112 4.81567E-03
 -1      2113 4.05339E-03
 -1      2114 5.01225E-03
 -1      2115 5.61993E-03
 -1      2116 4.77661E-03
 -1      2117 4.97319E-03
 -1      2118 6.25452E-03
 -1      2119 3.86492E+01
 -1      2120 3.86492E+01
 -1      2121 3.74508E+01
 -1      2122 3.86492E+01
 -1      2123 2.91537E+01
 -1      2124 2.69391E+01
 -1      2125 1.49748E+01
 -1      2126 9.34897E+00
 -1      2127 8.78198E+00
 -1      2128 8.01227E+00
 -1      2129 1.12735E+01
 -1      2130 1.11004E+01
 -1      2131 1.59147E+01
 -1      2132 2.62256E+01
 -1      2133 1.03390E+00
 -1      2134 1.20875E+00
 -1      2135 9.78919E-01
 -1      2136 8.52694E-01
 -1      2137 1.20352E+01
 -1      2138 1.55005E+01
 -1      2139 1.15869E+01
 -1      2140 3.21949E+01
 -1      2141 1.89813E+01
 -1      2142 2.78729E+01
 -1      2143 3.76730E+01
 -1      2144 3.33689E+01
 -1      2145 3.05671E+01
 -1      2146 3.79409E+01
 -1      2147 3.79409E+01
 -1      2148 3.46917E+01
 -1      2149 3.79409E+01
 -1      2150 4.24053E+01
 -1      2151 3.01195E+01
 -1      2152 2.66364E+01
 -1      2153 2.79645E+01
 -1      2154 2.76176E+01
 -1      2155 2.37929E+01
 -1      2156 1.26109E+01
 -1      2157 2.33482E+01
 -1      2158 8.76640E+00
 -1      2159 1.01000E+01
 -1      2160 1.08323E+01
 -1      2161 1.11167E+01
 -1      2162 1.05924E+01
 -1      2163 1.02005E+01
 -1      2164 1.05646E+01
 -1      2165 1.34044E+01
 -1      2166 1.08499E+01
 -1      2167 1.04206E+01
 -1      2168 1.05618E+01
 -1      2169 8.53693E+00
 -1      2170 9.16475E+00
 -1      2171 1.41233E+01
 -1      2172 9.47619E+00
 -1      2173 3.09524E+01
 -1      2174 1.77727E+01
 -1      2175 2.68452E+01
 -1      2176 3.63235E+01
 -1      2177 2.90241E+01
 -1      2178 2.70055E+01
 -1      2179 3.67908E+01
 -1      2180 2.90580E+01
 -1      2181 2.70361E+01
 -1      2182 3.60012E+01
 -1      2183 1.08877E+01
 -1      2184 9.41156E+00
 -1      2185 1.00953E+01
 -1      2186 2.91030E+00
 -1      2187 2.10427E+00
 -1      2188 3.43501E+01
 -1      2189 2.23948E+01
 -1      2190 1.14537E+01
 -1      2191 1.07951E+01
 -1      2192 1.04035E+01
 -1      2193 8.80083E+00
 -1      2194 7.16168E+00
 -1      2195 1.24896E+01
 -1      2196 3.78334E+01
 -1      2197 8.18133E+00
 -1      2198 1.01489E+01
 -1      2199 4.64159E+01
 -1      2200 1.05543E+01
 -1      2201 1.22030E+01
 -1      2202 2.34676E+01
 -1      2203 2.70055E+01
 -1      2204 2.32592E+01
 -1      2205 1.65856E+01
 -1      2206 1.19693E+01
 -1      2207 2.14741E+01
 -1      2208 1.24535E+01
 -1      2209 7.05216E+00
 -1      2210 3.05671E+01
 -1      2211 1.34359E+01
 -1      2212 1.46986E+01
 -1      2213 9.54748E+00
 -1      2214 7.86476E+00
 -1      2215 1.26081E+01
 -1      2216 1.17808E+01
 -1      2217 5.58822E-01
 -1      2218 5.90359E-01
 -1      2219 6.04783E-01
 -1      2220 6.55023E-01
 -1      2221 5.00650E-01
 -1      2222 5.10816E-01
 -1      2223 5.09145E-01
 -1      2224 5.45663E-01
 -1      2225 5.23808E-01
 -1      2226 4.44183E-01
 -1      2227 5.93879E-01
 -1      2228 5.60480E-01
 -1      2229 4.71992E-01
 -1      2230 6.53607E-01
 -1      2231 6.05992E-01
 -1      2232 4.98921E-01
 -1      2233 7.20534E-01
 -1      2234 6.53607E-01
 -1      2235 5.11033E-01
 -1      2236 8.24674E-01
 -1      2237 7.17748E-01
 -1      2238 5.08247E-01
 -1      2239 9.99481E-01
 -1      2240 9.06044E-01
 -1      2241 5.86831E-01
 -1      2242 1.75691E+00
 -1      2243 1.32383E+00
 -1      2244 9.92553E-01
 -1      2245 1.61624E+00
 -1      2246 1.26609E+00
 -1      2247 1.03501E+00
 -1      2248 7.03357E-01
 -1      2249 7.94005E-01
 -1      2250 8.84654E-01
 -1      2251 1.00630E+00
 -1      2252 7.94005E-01
 -1      2253 1.67499E+00
 -1      2254 1.30058E+00
 -1      2255 8.36812E-01
 -1      2256 9.59359E-01
 -1      2257 5.02665E+00
 -1      2258 6.07167E+00
 -1      2259 9.84407E-01
 -1      2260 8.04089E-01
 -1      2261 7.51729E-01
 -1      2262 7.47244E-01
 -1      2263 6.21444E-01
 -1      2264 6.44283E-01
 -1      2265 5.64888E-01
 -1      2266 5.07409E-01
 -1      2267 5.30882E-01
 -1      2268 4.57500E-01
 -1      2269 4.08827E-01
 -1      2270 4.24417E-01
 -1      2271 3.82554E-01
 -1      2272 3.39461E-01
 -1      2273 3.48235E-01
 -1      2274 3.13816E-01
 -1      2275 2.79394E-01
 -1      2276 2.96316E-01
 -1      2277 2.54826E-01
 -1      2278 2.26231E-01
 -1      2279 2.46104E-01
 -1      2280 2.06560E-01
 -1      2281 1.81536E-01
 -1      2282 2.01864E-01
 -1      2283 1.65560E-01
 -1      2284 1.46892E-01
 -1      2285 1.66217E-01
 -1      2286 1.32815E-01
 -1      2287 1.17400E-01
 -1      2288 1.36165E-01
 -1      2289 1.07180E-01
 -1      2290 9.47604E-02
 -1      2291 1.11867E-01
 -1      2292 8.77572E-02
 -1      2293 7.90363E-02
 -1      2294 9.46439E-02
 -1      2295 8.07937E-02
 -1      2296 8.38490E-02
 -1      2297 8.93981E-02
 -1      2298 9.73970E-02
 -1      2299 1.09673E-01
 -1      2300 1.04703E-01
 -1      2301 1.35037E-01
 -1      2302 1.67651E-01
 -1      2303 1.43615E-01
 -1      2304 2.06821E-01
 -1      2305 2.54551E-01
 -1      2306 2.08148E-01
 -1      2307 3.08486E-01
 -1      2308 3.72950E-01
 -1      2309 3.01253E-01
 -1      2310 4.40353E-01
 -1      2311 5.21323E-01
 -1      2312 4.22592E-01
 -1      2313 5.97079E-01
 -1      2314 6.91466E-01
 -1      2315 5.65751E-01
 -1      2316 7.74866E-01
 -1      2317 8.88702E-01
 -1      2318 7.24906E-01
 -1      2319 9.97930E-01
 -1      2320 1.12661E+00
 -1      2321 9.17534E-01
 -1      2322 1.22212E+00
 -1      2323 1.33750E+00
 -1      2324 1.12227E+00
 -1      2325 1.40821E+00
 -1      2326 1.54356E+00
 -1      2327 1.28849E+00
 -1      2328 1.60737E+00
 -1      2329 1.69577E+00
 -1      2330 1.42301E+00
 -1      2331 1.71361E+00
 -1      2332 1.73663E+00
 -1      2333 1.50466E+00
 -1      2334 1.71137E+00
 -1      2335 1.67777E+00
 -1      2336 1.49725E+00
 -1      2337 1.68401E+00
 -1      2338 1.71900E+00
 -1      2339 1.47822E+00
 -1      2340 1.73793E+00
 -1      2341 1.70390E+00
 -1      2342 1.50340E+00
 -1      2343 1.67856E+00
 -1      2344 1.58125E+00
 -1      2345 1.49699E+00
 -1      2346 1.53076E+00
 -1      2347 1.39491E+00
 -1      2348 1.42118E+00
 -1      2349 1.31847E+00
 -1      2350 1.20267E+00
 -1      2351 1.29426E+00
 -1      2352 1.09938E+00
 -1      2353 9.70173E-01
 -1      2354 1.11452E+00
 -1      2355 8.59672E-01
 -1      2356 7.50781E-01
 -1      2357 9.00728E-01
 -1      2358 6.49606E-01
 -1      2359 5.56862E-01
 -1      2360 6.89053E-01
 -1      2361 4.73364E-01
 -1      2362 3.94411E-01
 -1      2363 5.04380E-01
 -1      2364 3.26878E-01
 -1      2365 2.64238E-01
 -1      2366 3.53349E-01
 -1      2367 2.12882E-01
 -1      2368 1.66320E-01
 -1      2369 2.34460E-01
 -1      2370 1.30629E-01
 -1      2371 9.81723E-02
 -1      2372 1.47414E-01
 -1      2373 7.49615E-02
 -1      2374 5.38267E-02
 -1      2375 8.85115E-02
 -1      2376 3.87617E-02
 -1      2377 2.69636E-02
 -1      2378 5.02357E-02
 -1      2379 1.85338E-02
 -1      2380 1.65370E-02
 -1      2381 2.67408E-02
 -1      2382 1.33279E-02
 -1      2383 1.12152E-02
 -1      2384 1.51018E-02
 -1      2385 9.71019E-03
 -1      2386 8.86861E-03
 -1      2387 1.03876E-02
 -1      2388 7.85175E-03
 -1      2389 7.21186E-03
 -1      2390 5.89147E-03
 -1      2391 7.86568E-03
 -1      2392 3.11999E+00
 -1      2393 3.87013E+00
 -1      2394 4.58662E+00
 -1      2395 1.03351E+00
 -1      2396 1.42732E+00
 -1      2397 1.12798E+00
 -1      2398 9.11859E-01
 -1      2399 5.45170E-01
 -1      2400 6.24263E-01
 -1      2401 6.24263E-01
 -1      2402 4.40662E-01
 -1      2403 4.92916E-01
 -1      2404 4.92916E-01
 -1      2405 3.74827E-01
 -1      2406 4.07744E-01
 -1      2407 4.07744E-01
 -1      2408 3.11732E-01
 -1      2409 3.43279E-01
 -1      2410 3.43279E-01
 -1      2411 2.58268E-01
 -1      2412 2.84586E-01
 -1      2413 2.84586E-01
 -1      2414 2.08981E-01
 -1      2415 2.32231E-01
 -1      2416 2.31402E-01
 -1      2417 1.71395E-01
 -1      2418 1.88291E-01
 -1      2419 1.84675E-01
 -1      2420 1.40445E-01
 -1      2421 1.53935E-01
 -1      2422 1.46525E-01
 -1      2423 1.20919E-01
 -1      2424 1.26173E-01
 -1      2425 1.14793E-01
 -1      2426 1.27796E-01
 -1      2427 1.26518E-01
 -1      2428 1.06120E-01
 -1      2429 1.92804E-01
 -1      2430 1.52829E-01
 -1      2431 1.36752E-01
 -1      2432 3.37760E-01
 -1      2433 2.53348E-01
 -1      2434 2.22328E-01
 -1      2435 5.65156E-01
 -1      2436 4.29331E-01
 -1      2437 3.74444E-01
 -1      2438 9.39161E-01
 -1      2439 7.11470E-01
 -1      2440 6.12329E-01
 -1      2441 1.51143E+00
 -1      2442 1.16093E+00
 -1      2443 9.80416E-01
 -1      2444 2.40183E+00
 -1      2445 1.88520E+00
 -1      2446 1.57595E+00
 -1      2447 3.73711E+00
 -1      2448 3.02258E+00
 -1      2449 2.57046E+00
 -1      2450 5.62885E+00
 -1      2451 4.75808E+00
 -1      2452 4.21217E+00
 -1      2453 8.42334E+00
 -1      2454 7.43923E+00
 -1      2455 7.04352E+00
 -1      2456 1.36118E+01
 -1      2457 1.26591E+01
 -1      2458 1.30897E+01
 -1      2459 6.44887E+00
 -1      2460 8.95977E+00
 -1      2461 2.55865E+01
 -1      2462 3.60012E+01
 -1      2463 3.78334E+01
 -1      2464 3.32614E+01
 -1      2465 7.19335E+00
 -1      2466 8.58526E+00
 -1      2467 6.86483E+00
 -1      2468 1.92725E+00
 -1      2469 2.44184E+00
 -1      2470 2.75195E+00
 -1      2471 1.16698E+00
 -1      2472 1.50926E+00
 -1      2473 1.65581E+00
 -1      2474 7.06378E-01
 -1      2475 9.15971E-01
 -1      2476 9.86798E-01
 -1      2477 4.29420E-01
 -1      2478 5.61123E-01
 -1      2479 5.90530E-01
 -1      2480 2.59783E-01
 -1      2481 3.41651E-01
 -1      2482 3.57506E-01
 -1      2483 1.60963E-01
 -1      2484 2.11406E-01
 -1      2485 2.21360E-01
 -1      2486 9.83539E-02
 -1      2487 1.29193E-01
 -1      2488 1.41214E-01
 -1      2489 5.90324E-02
 -1      2490 7.76996E-02
 -1      2491 8.87892E-02
 -1      2492 3.55961E-02
 -1      2493 4.54387E-02
 -1      2494 5.45413E-02
 -1      2495 2.28408E-02
 -1      2496 2.78394E-02
 -1      2497 3.31909E-02
 -1      2498 1.83793E-02
 -1      2499 1.96223E-02
 -1      2500 1.83923E-02
 -1      2501 1.96223E-02
 -1      2502 1.96223E-02
 -1      2503 2.33831E-02
 -1      2504 1.84206E+01
 -1      2505 1.83980E-02
 -1      2506 1.99529E-02
 -1      2507 2.33888E-02
 -1      2508 1.85812E-02
 -1      2509 1.92280E-02
 -1      2510 2.29888E-02
 -1      2511 1.72782E-02
 -1      2512 1.77260E-02
 -1      2513 2.17393E-02
 -1      2514 1.39373E-02
 -1      2515 1.55296E-02
 -1      2516 1.91355E-02
 -1      2517 8.67428E-03
 -1      2518 1.08190E-02
 -1      2519 1.42685E-02
 -1      2520 6.25291E-03
 -1      2521 7.34722E-03
 -1      2522 9.82307E-03
 -1      2523 6.29750E-03
 -1      2524 5.79628E-03
 -1      2525 8.03938E-03
 -1      2526 7.66746E-03
 -1      2527 7.66746E-03
 -1      2528 8.95270E-03
 -1      2529 2.36310E+01
 -1      2530 2.34708E+01
 -1      2531 7.48798E+00
 -1      2532 6.54346E+00
 -1      2533 3.67908E+01
 -1      2534 2.71657E+01
 -1      2535 4.64159E+01
 -1      2536 4.64159E+01
 -1      2537 9.92703E+00
 -1      2538 9.65892E+00
 -1      2539 9.78376E+00
 -1      2540 1.03835E+01
 -1      2541 9.18501E+00
 -1      2542 2.64813E+01
 -1      2543 2.37870E+01
 -1      2544 5.22004E-01
 -1      2545 5.44163E-01
 -1      2546 4.71567E-01
 -1      2547 4.44049E-01
 -1      2548 6.00386E+00
 -1      2549 7.25969E+00
 -1      2550 4.24053E+01
 -1      2551 4.24053E+01
 -1      2552 1.96259E+01
 -1      2553 1.42547E+01
 -1      2554 1.83184E+01
 -1      2555 2.08203E+01
 -1      2556 7.26748E+00
 -1      2557 6.32822E+00
 -1      2558 2.62948E+01
 -1      2559 3.43501E+01
 -1      2560 8.06886E+00
 -1      2561 8.78056E+00
 -1      2562 5.65941E+00
 -1      2563 5.64383E+00
 -1      2564 5.13513E+00
 -1      2565 1.19742E+01
 -1      2566 8.32474E+00
 -1      2567 1.63325E+01
 -1      2568 5.24354E-01
 -1      2569 6.64303E-01
 -1      2570 7.22024E-01
 -1      2571 8.90855E-01
 -1      2572 3.78334E+01
 -1      2573 5.89140E+00
 -1      2574 2.05692E+01
 -1      2575 2.05692E+01
 -1      2576 6.23677E+00
 -1      2577 9.33538E+00
 -1      2578 9.24632E+00
 -1      2579 1.47996E+01
 -1      2580 1.85133E+01
 -1      2581 5.05612E+00
 -1      2582 1.69187E+01
 -1      2583 3.60012E+01
 -1      2584 5.40658E+00
 -1      2585 2.64813E+01
 -1      2586 2.10046E+01
 -1      2587 2.09727E-02
 -1      2588 7.94275E+00
 -1      2589 2.09727E-02
 -1      2590 1.62514E+01
 -1      2591 2.36310E+01
 -1      2592 7.62840E-03
 -1      2593 7.66746E-03
 -1      2594 1.03227E-02
 -1      2595 8.58574E-03
 -1      2596 6.78821E+00
 -1      2597 2.44143E-02
 -1      2598 1.84502E+01
 -1      2599 3.67908E+01
 -1      2600 9.42991E+00
 -1      2601 2.08203E+01
 -1      2602 1.53892E+01
 -1      2603 1.24166E+01
 -1      2604 1.06838E+01
 -1      2605 2.15669E+01
 -1      2606 3.43501E+01
 -1      2607 1.34341E+01
 -1      2608 7.84703E+00
 -1      2609 1.60888E+01
 -1      2610 1.01260E+01
 -1      2611 1.29677E+01
 -1      2612 1.29677E+01
 -1      2613 4.21861E-01
 -1      2614 4.36284E-01
 -1      2615 4.22584E-01
 -1      2616 4.07767E-01
 -1      2617 3.99849E-01
 -1      2618 3.86857E-01
 -1      2619 3.50441E-01
 -1      2620 4.36530E-01
 -1      2621 4.36530E-01
 -1      2622 4.20309E-01
 -1      2623 4.23095E-01
 -1      2624 3.48592E-01
 -1      2625 8.03632E-01
 -1      2626 3.50334E-01
 -1      2627 3.83251E-01
 -1      2628 4.17888E-01
 -1      2629 4.70142E-01
 -1      2630 3.60478E-01
 -1      2631 7.02464E-01
 -1      2632 6.67982E-01
 -1      2633 5.04194E-01
 -1      2634 5.83288E-01
 -1      2635 4.29167E-01
 -1      2636 6.00655E-01
 -1      2637 5.50054E-01
 -1      2638 4.66307E-01
 -1      2639 3.88270E+00
 -1      2640 5.03922E+00
 -1      2641 5.37466E-01
 -1      2642 4.80621E-01
 -1      2643 3.86392E-01
 -1      2644 4.81452E-01
 -1      2645 4.24896E-01
 -1      2646 3.74635E-01
 -1      2647 4.09293E-01
 -1      2648 3.59384E-01
 -1      2649 3.59862E-01
 -1      2650 3.37072E-01
 -1      2651 3.10799E-01
 -1      2652 3.21947E-01
 -1      2653 2.86700E-01
 -1      2654 2.61054E-01
 -1      2655 2.75537E-01
 -1      2656 2.42771E-01
 -1      2657 2.18203E-01
 -1      2658 2.33154E-01
 -1      2659 2.01864E-01
 -1      2660 1.82193E-01
 -1      2661 1.98531E-01
 -1      2662 1.66217E-01
 -1      2663 1.50242E-01
 -1      2664 1.66217E-01
 -1      2665 1.36165E-01
 -1      2666 1.22087E-01
 -1      2667 1.36165E-01
 -1      2668 1.11867E-01
 -1      2669 1.01647E-01
 -1      2670 1.11867E-01
 -1      2671 9.46439E-02
 -1      2672 8.76407E-02
 -1      2673 9.46439E-02
 -1      2674 8.93981E-02
 -1      2675 9.11554E-02
 -1      2676 8.93981E-02
 -1      2677 1.04703E-01
 -1      2678 1.18252E-01
 -1      2679 1.04703E-01
 -1      2680 1.43615E-01
 -1      2681 1.68978E-01
 -1      2682 1.43615E-01
 -1      2683 2.08148E-01
 -1      2684 2.47318E-01
 -1      2685 2.08148E-01
 -1      2686 3.01253E-01
 -1      2687 3.55188E-01
 -1      2688 3.01253E-01
 -1      2689 4.22592E-01
 -1      2690 4.89995E-01
 -1      2691 4.22592E-01
 -1      2692 5.65751E-01
 -1      2693 6.41507E-01
 -1      2694 5.65751E-01
 -1      2695 7.15515E-01
 -1      2696 7.98914E-01
 -1      2697 7.15515E-01
 -1      2698 8.69977E-01
 -1      2699 9.79205E-01
 -1      2700 8.60586E-01
 -1      2701 1.07249E+00
 -1      2702 1.16800E+00
 -1      2703 1.02493E+00
 -1      2704 1.23032E+00
 -1      2705 1.30102E+00
 -1      2706 1.18053E+00
 -1      2707 1.33398E+00
 -1      2708 1.39779E+00
 -1      2709 1.27581E+00
 -1      2710 1.41824E+00
 -1      2711 1.43609E+00
 -1      2712 1.32922E+00
 -1      2713 1.42016E+00
 -1      2714 1.39490E+00
 -1      2715 1.33374E+00
 -1      2716 1.42719E+00
 -1      2717 1.43343E+00
 -1      2718 1.35010E+00
 -1      2719 1.47692E+00
 -1      2720 1.49585E+00
 -1      2721 1.42588E+00
 -1      2722 1.49585E+00
 -1      2723 1.47052E+00
 -1      2724 1.46938E+00
 -1      2725 1.44625E+00
 -1      2726 1.39577E+00
 -1      2727 1.44511E+00
 -1      2728 1.33427E+00
 -1      2729 1.25783E+00
 -1      2730 1.35934E+00
 -1      2731 1.14865E+00
 -1      2732 1.04536E+00
 -1      2733 1.18867E+00
 -1      2734 9.38857E-01
 -1      2735 8.28356E-01
 -1      2736 9.72986E-01
 -1      2737 7.41518E-01
 -1      2738 6.40344E-01
 -1      2739 7.79647E-01
 -1      2740 5.53721E-01
 -1      2741 4.70222E-01
 -1      2742 6.06186E-01
 -1      2743 3.93824E-01
 -1      2744 3.26291E-01
 -1      2745 4.43165E-01
 -1      2746 2.64879E-01
 -1      2747 2.13524E-01
 -1      2748 3.05355E-01
 -1      2749 1.67774E-01
 -1      2750 1.32083E-01
 -1      2751 1.98193E-01
 -1      2752 1.00243E-01
 -1      2753 7.70321E-02
 -1      2754 1.20604E-01
 -1      2755 5.84174E-02
 -1      2756 4.33523E-02
 -1      2757 7.01488E-02
 -1      2758 3.24044E-02
 -1      2759 2.39745E-02
 -1      2760 4.05861E-02
 -1      2761 1.83109E-02
 -1      2762 1.51018E-02
 -1      2763 2.39745E-02
 -1      2764 1.18927E-02
 -1      2765 1.03876E-02
 -1      2766 1.51018E-02
 -1      2767 3.11652E+01
 -1      2768 2.15402E+01
 -1      2769 2.91801E-01
 -1      2770 3.23348E-01
 -1      2771 2.98856E-01
 -1      2772 2.45713E-01
 -1      2773 2.72859E-01
 -1      2774 2.52928E-01
 -1      2775 1.99510E-01
 -1      2776 2.25547E-01
 -1      2777 2.13821E-01
 -1      2778 1.60542E-01
 -1      2779 1.81233E-01
 -1      2780 1.75378E-01
 -1      2781 1.25648E-01
 -1      2782 1.43107E-01
 -1      2783 1.39665E-01
 -1      2784 9.42133E-02
 -1      2785 1.08485E-01
 -1      2786 1.05068E-01
 -1      2787 8.81280E-02
 -1      2788 8.25292E-02
 -1      2789 7.62210E-02
 -1      2790 1.22507E-01
 -1      2791 9.74741E-02
 -1      2792 7.38830E-02
 -1      2793 2.30514E-01
 -1      2794 1.69970E-01
 -1      2795 1.30692E-01
 -1      2796 4.00001E-01
 -1      2797 3.08429E-01
 -1      2798 2.56071E-01
 -1      2799 6.79160E-01
 -1      2800 5.32846E-01
 -1      2801 4.66832E-01
 -1      2802 1.10198E+00
 -1      2803 8.80207E-01
 -1      2804 8.00724E-01
 -1      2805 1.80216E+00
 -1      2806 1.42840E+00
 -1      2807 1.32819E+00
 -1      2808 2.95124E+00
 -1      2809 2.33050E+00
 -1      2810 2.18294E+00
 -1      2811 4.82675E+00
 -1      2812 3.80578E+00
 -1      2813 3.56582E+00
 -1      2814 9.08244E+00
 -1      2815 7.27206E+00
 -1      2816 6.86567E+00
 -1      2817 1.47554E+01
 -1      2818 1.05197E+01
 -1      2819 1.07482E+01
 -1      2820 2.14723E+01
 -1      2821 3.18870E+01
 -1      2822 3.55706E+00
 -1      2823 4.36211E+00
 -1      2824 6.05637E+00
 -1      2825 7.17805E+00
 -1      2826 5.35244E+00
 -1      2827 4.36530E-01
 -1      2828 4.24418E-01
 -1      2829 3.60193E-01
 -1      2830 3.62027E-01
 -1      2831 8.54525E-01
 -1      2832 1.10554E+00
 -1      2833 5.23833E-01
 -1      2834 6.69089E-01
 -1      2835 7.87829E-01
 -1      2836 3.19837E-01
 -1      2837 4.07606E-01
 -1      2838 4.86164E-01
 -1      2839 1.98677E-01
 -1      2840 2.47053E-01
 -1      2841 2.97153E-01
 -1      2842 1.21589E-01
 -1      2843 1.53359E-01
 -1      2844 1.79052E-01
 -1      2845 7.47841E-02
 -1      2846 9.54383E-02
 -1      2847 1.07584E-01
 -1      2848 4.42843E-02
 -1      2849 5.78779E-02
 -1      2850 6.45271E-02
 -1      2851 2.86536E-02
 -1      2852 3.64104E-02
 -1      2853 3.97470E-02
 -1      2854 2.76338E-02
 -1      2855 7.57841E+00
 -1      2856 5.65483E+00
 -1      2857 2.59080E-02
 -1      2858 2.67632E-02
 -1      2859 2.91636E-02
 -1      2860 2.91636E-02
 -1      2861 2.87693E-02
 -1      2862 2.91636E-02
 -1      2863 3.29380E-02
 -1      2864 2.76281E-02
 -1      2865 2.76338E-02
 -1      2866 3.18731E-02
 -1      2867 3.34086E-02
 -1      2868 2.25072E-02
 -1      2869 2.42558E-02
 -1      2870 2.92798E-02
 -1      2871 1.50000E-02
 -1      2872 1.81184E-02
 -1      2873 2.32388E-02
 -1      2874 1.21638E-02
 -1      2875 1.34909E-02
 -1      2876 1.73408E-02
 -1      2877 1.04182E-02
 -1      2878 1.08749E-02
 -1      2879 1.45427E-02
 -1      2880 1.06225E-02
 -1      2881 9.25256E-03
 -1      2882 1.20881E-02
 -1      2883 1.42424E+00
 -1      2884 1.84223E+00
 -1      2885 1.29197E+00
 -1      2886 6.09953E-01
 -1      2887 7.00601E-01
 -1      2888 4.89884E-01
 -1      2889 4.52798E+00
 -1      2890 3.64393E+00
 -1      2891 2.10981E+01
 -1      2892 1.75634E+01
 -1      2893 7.22024E-01
 -1      2894 3.06165E+01
 -1      2895 2.60446E+01
 -1      2896 2.13808E+01
 -1      2897 2.94360E+01
 -1      2898 4.63534E+00
 -1      2899 5.44452E+00
 -1      2900 4.08980E+00
 -1      2901 3.76544E+00
 -1      2902 3.31856E+00
 -1      2903 2.33279E+00
 -1      2904 3.01093E+00
 -1      2905 3.46353E+00
 -1      2906 2.10122E+00
 -1      2907 8.45874E+00
 -1      2908 8.89516E+00
 -1      2909 6.60724E+00
 -1      2910 1.52163E+01
 -1      2911 1.13714E+01
 -1      2912 1.26834E+01
 -1      2913 1.03737E+01
 -1      2914 8.09317E+00
 -1      2915 6.51268E+00
 -1      2916 7.65914E+00
 -1      2917 5.25662E+00
 -1      2918 6.53031E+00
 -1      2919 5.47305E+00
 -1      2920 1.43346E+01
 -1      2921 1.98091E+01
 -1      2922 5.09341E-01
 -1      2923 6.93393E-01
 -1      2924 3.42187E-01
 -1      2925 3.86520E-01
 -1      2926 3.99379E-01
 -1      2927 5.40145E-01
 -1      2928 4.58776E-01
 -1      2929 2.94992E+00
 -1      2930 5.33634E-01
 -1      2931 7.12439E+00
 -1      2932 1.26538E+01
 -1      2933 1.82793E+01
 -1      2934 1.22117E+01
 -1      2935 1.66364E+01
 -1      2936 9.60260E-03
 -1      2937 5.09185E+00
 -1      2938 5.46746E+00
 -1      2939 3.59279E+00
 -1      2940 7.20598E-01
 -1      2941 6.44546E+00
 -1      2942 9.07940E+00
 -1      2943 7.88297E+00
 -1      2944 1.11077E-02
 -1      2945 1.80766E+01
 -1      2946 1.55066E+01
 -1      2947 8.44802E+00
 -1      2948 9.25649E+00
 -1      2949 1.79850E+01
 -1      2950 9.33858E+00
 -1      2951 4.36011E-01
 -1      2952 4.45291E-01
 -1      2953 3.57222E-01
 -1      2954 3.49440E-02
 -1      2955 5.19546E+00
 -1      2956 3.70426E+00
 -1      2957 4.83111E+00
 -1      2958 1.15230E+01
 -1      2959 1.05118E+01
 -1      2960 8.59379E+00
 -1      2961 6.77801E+00
 -1      2962 1.11077E-02
 -1      2963 4.07202E-01
 -1      2964 4.21861E-01
 -1      2965 3.57495E-01
 -1      2966 3.49673E-01
 -1      2967 1.76472E+01
 -1      2968 4.60625E+00
 -1      2969 2.96511E+00
 -1      2970 4.34836E+00
 -1      2971 3.73623E-01
 -1      2972 1.04550E+01
 -1      2973 1.14075E-02
 -1      2974 1.48951E+01
 -1      2975 1.36745E+01
 -1      2976 1.48551E+01
 -1      2977 1.15339E+01
 -1      2978 2.91895E-01
 -1      2979 3.05330E-01
 -1      2980 3.05194E-01
 -1      2981 3.39831E-01
 -1      2982 2.77892E+00
 -1      2983 2.69205E+00
 -1      2984 2.22460E-01
 -1      2985 2.41402E-01
 -1      2986 4.13527E-01
 -1      2987 3.46200E-01
 -1      2988 2.99730E-01
 -1      2989 3.00561E-01
 -1      2990 3.09422E-01
 -1      2991 2.93819E-01
 -1      2992 2.34517E-01
 -1      2993 2.89466E-01
 -1      2994 2.67154E-01
 -1      2995 2.39025E-01
 -1      2996 2.55798E-01
 -1      2997 2.31699E-01
 -1      2998 2.23316E-01
 -1      2999 2.17210E-01
 -1      3000 1.98926E-01
 -1      3001 1.97471E-01
 -1      3002 1.86782E-01
 -1      3003 1.70443E-01
 -1      3004 1.70838E-01
 -1      3005 1.58851E-01
 -1      3006 1.42875E-01
 -1      3007 1.47101E-01
 -1      3008 1.30688E-01
 -1      3009 1.16611E-01
 -1      3010 1.23321E-01
 -1      3011 1.04778E-01
 -1      3012 9.45573E-02
 -1      3013 9.93010E-02
 -1      3014 8.61770E-02
 -1      3015 7.91738E-02
 -1      3016 7.90872E-02
 -1      3017 7.83296E-02
 -1      3018 8.00870E-02
 -1      3019 6.98627E-02
 -1      3020 8.69383E-02
 -1      3021 1.00486E-01
 -1      3022 7.58699E-02
 -1      3023 1.19498E-01
 -1      3024 1.44861E-01
 -1      3025 1.01733E-01
 -1      3026 1.76239E-01
 -1      3027 2.15409E-01
 -1      3028 1.52122E-01
 -1      3029 2.61766E-01
 -1      3030 3.15701E-01
 -1      3031 2.29856E-01
 -1      3032 3.78356E-01
 -1      3033 4.45759E-01
 -1      3034 3.38869E-01
 -1      3035 5.22965E-01
 -1      3036 5.98721E-01
 -1      3037 4.78730E-01
 -1      3038 6.84077E-01
 -1      3039 7.58085E-01
 -1      3040 6.41292E-01
 -1      3041 8.37692E-01
 -1      3042 9.08756E-01
 -1      3043 8.06255E-01
 -1      3044 9.84641E-01
 -1      3045 1.07792E+00
 -1      3046 9.61748E-01
 -1      3047 1.13356E+00
 -1      3048 1.19588E+00
 -1      3049 1.09327E+00
 -1      3050 1.24770E+00
 -1      3051 1.28066E+00
 -1      3052 1.20073E+00
 -1      3053 1.36125E+00
 -1      3054 1.38170E+00
 -1      3055 1.33315E+00
 -1      3056 1.42849E+00
 -1      3057 1.41256E+00
 -1      3058 1.46053E+00
 -1      3059 1.34081E+00
 -1      3060 1.37311E+00
 -1      3061 1.43557E+00
 -1      3062 1.42888E+00
 -1      3063 1.47237E+00
 -1      3064 1.41960E+00
 -1      3065 1.47474E+00
 -1      3066 1.47474E+00
 -1      3067 1.47773E+00
 -1      3068 1.39002E+00
 -1      3069 1.36575E+00
 -1      3070 1.39538E+00
 -1      3071 1.30804E+00
 -1      3072 1.24655E+00
 -1      3073 1.25295E+00
 -1      3074 1.19826E+00
 -1      3075 1.08908E+00
 -1      3076 1.14696E+00
 -1      3077 1.00880E+00
 -1      3078 9.02304E-01
 -1      3079 1.01840E+00
 -1      3080 8.29504E-01
 -1      3081 7.42666E-01
 -1      3082 8.65323E-01
 -1      3083 6.56962E-01
 -1      3084 5.70339E-01
 -1      3085 7.06819E-01
 -1      3086 4.87508E-01
 -1      3087 4.11110E-01
 -1      3088 5.38284E-01
 -1      3089 3.40475E-01
 -1      3090 2.79063E-01
 -1      3091 3.84818E-01
 -1      3092 2.24058E-01
 -1      3093 1.78309E-01
 -1      3094 2.59179E-01
 -1      3095 1.38519E-01
 -1      3096 1.06679E-01
 -1      3097 1.64384E-01
 -1      3098 8.29768E-02
 -1      3099 6.43621E-02
 -1      3100 1.00892E-01
 -1      3101 4.98445E-02
 -1      3102 3.88965E-02
 -1      3103 6.26725E-02
 -1      3104 2.96381E-02
 -1      3105 2.39745E-02
 -1      3106 3.88965E-02
 -1      3107 1.77893E-02
 -1      3108 1.45801E-02
 -1      3109 1.40950E-02
 -1      3110 2.34529E-02
 -1      3111 2.61130E-01
 -1      3112 2.88116E-01
 -1      3113 2.67468E-01
 -1      3114 8.44802E+00
 -1      3115 1.05265E+01
 -1      3116 1.54665E-01
 -1      3117 1.72943E-01
 -1      3118 1.22234E-01
 -1      3119 1.39669E-01
 -1      3120 1.37234E-01
 -1      3121 9.00160E-02
 -1      3122 1.07179E-01
 -1      3123 1.07183E-01
 -1      3124 6.32928E-02
 -1      3125 7.49769E-02
 -1      3126 7.70878E-02
 -1      3127 7.84024E-02
 -1      3128 6.90563E-02
 -1      3129 6.78122E-02
 -1      3130 1.56676E-01
 -1      3131 1.09213E-01
 -1      3132 1.04386E-01
 -1      3133 2.90181E-01
 -1      3134 2.12265E-01
 -1      3135 1.90786E-01
 -1      3136 5.15455E-01
 -1      3137 3.82609E-01
 -1      3138 3.38804E-01
 -1      3139 8.38052E-01
 -1      3140 6.37005E-01
 -1      3141 5.52783E-01
 -1      3142 1.35678E+00
 -1      3143 1.03037E+00
 -1      3144 8.66647E-01
 -1      3145 2.18203E+00
 -1      3146 1.65370E+00
 -1      3147 1.35588E+00
 -1      3148 3.61300E+00
 -1      3149 2.75846E+00
 -1      3150 2.22921E+00
 -1      3151 8.21708E+00
 -1      3152 5.77177E+00
 -1      3153 4.96441E+00
 -1      3154 1.00967E+01
 -1      3155 1.73255E+01
 -1      3156 1.80766E+01
 -1      3157 1.38709E+01
 -1      3158 2.36683E-01
 -1      3159 3.09467E-01
 -1      3160 5.94663E-01
 -1      3161 7.80099E-01
 -1      3162 1.47291E-01
 -1      3163 1.92608E-01
 -1      3164 2.04923E-01
 -1      3165 9.14765E-02
 -1      3166 1.17627E-01
 -1      3167 1.31184E-01
 -1      3168 5.54187E-02
 -1      3169 7.23248E-02
 -1      3170 8.23680E-02
 -1      3171 3.64329E-02
 -1      3172 4.43068E-02
 -1      3173 5.21045E-02
 -1      3174 3.64329E-02
 -1      3175 2.18188E-02
 -1      3176 2.33279E-02
 -1      3177 2.49684E-02
 -1      3178 2.93572E-02
 -1      3179 2.94464E-02
 -1      3180 3.53227E-02
 -1      3181 3.69749E-02
 -1      3182 3.70524E-02
 -1      3183 1.74640E-02
 -1      3184 1.87530E-02
 -1      3185 2.47401E-02
 -1      3186 1.55346E-02
 -1      3187 1.67003E-02
 -1      3188 2.09105E-02
 -1      3189 1.87072E-02
 -1      3190 6.15762E+00
 -1      3191 4.84087E+00
 -1      3192 4.38149E+00
 -1      3193 1.19458E+01
 -1      3194 1.35174E+01
 -1      3195 1.07253E+01
 -1      3196 9.91500E-01
 -1      3197 1.31020E+00
 -1      3198 7.98335E-01
 -1      3199 3.81618E-01
 -1      3200 4.08282E-01
 -1      3201 3.90187E-02
 -1      3202 4.10247E-02
 -1      3203 4.50617E-02
 -1      3204 1.85133E+01
 -1      3205 4.57795E+00
 -1      3206 5.59510E+00
 -1      3207 4.10247E-02
 -1      3208 4.10247E-02
 -1      3209 4.71054E-02
 -1      3210 5.14375E+00
 -1      3211 5.94335E+00
 -1      3212 1.87853E-01
 -1      3213 2.08019E-01
 -1      3214 1.67140E-01
 -1      3215 2.87076E-01
 -1      3216 2.74488E-01
 -1      3217 2.34296E-01
 -1      3218 3.51450E-01
 -1      3219 3.85503E-01
 -1      3220 3.03901E-01
 -1      3221 2.96167E-01
 -1      3222 1.39423E+01
 -1      3223 2.47256E+00
 -1      3224 3.34245E+00
 -1      3225 3.23299E-01
 -1      3226 3.15381E-01
 -1      3227 6.86761E+00
 -1      3228 5.30476E+00
 -1      3229 2.52934E+01
 -1      3230 8.58103E+00
 -1      3231 7.58332E+00
 -1      3232 3.74631E-01
 -1      3233 4.90859E-01
 -1      3234 3.14162E-01
 -1      3235 3.97815E+00
 -1      3236 5.04631E+00
 -1      3237 3.13215E+00
 -1      3238 1.16775E+01
 -1      3239 9.33036E+00
 -1      3240 1.32205E+01
 -1      3241 1.32205E+01
 -1      3242 6.75577E-01
 -1      3243 2.64933E+00
 -1      3244 2.82033E+00
 -1      3245 3.55007E+00
 -1      3246 2.30662E-01
 -1      3247 3.25133E-01
 -1      3248 3.23299E-01
 -1      3249 2.88238E-01
 -1      3250 2.64606E-01
 -1      3251 3.21302E-01
 -1      3252 3.21302E-01
 -1      3253 9.95969E+00
 -1      3254 5.37390E+00
 -1      3255 5.20699E+00
 -1      3256 4.22898E+00
 -1      3257 7.67353E+00
 -1      3258 2.00415E-01
 -1      3259 9.00278E+00
 -1      3260 4.83130E-01
 -1      3261 7.57509E+00
 -1      3262 3.86528E+00
 -1      3263 2.74325E-01
 -1      3264 3.82591E-01
 -1      3265 6.11006E+00
 -1      3266 5.74573E+00
 -1      3267 3.97936E+00
 -1      3268 3.76509E+00
 -1      3269 3.50778E-02
 -1      3270 3.35423E-02
 -1      3271 3.81021E-02
 -1      3272 4.11585E-02
 -1      3273 9.20747E+00
 -1      3274 7.82984E+00
 -1      3275 6.39585E+00
 -1      3276 3.11844E-01
 -1      3277 3.11508E-01
 -1      3278 2.84702E-01
 -1      3279 3.75384E-01
 -1      3280 7.64694E+00
 -1      3281 6.75333E+00
 -1      3282 6.04251E+00
 -1      3283 3.70426E+00
 -1      3284 3.03678E+00
 -1      3285 2.77892E+00
 -1      3286 3.57630E+00
 -1      3287 3.81895E+00
 -1      3288 2.70454E+00
 -1      3289 3.22967E-01
 -1      3290 3.22967E-01
 -1      3291 1.96492E-01
 -1      3292 4.13527E-01
 -1      3293 4.16006E+00
 -1      3294 3.29326E+00
 -1      3295 4.24965E+00
 -1      3296 2.83398E-01
 -1      3297 3.17927E-01
 -1      3298 3.17654E-01
 -1      3299 2.98901E+00
 -1      3300 1.61216E+00
 -1      3301 2.10271E+00
 -1      3302 1.31169E+00
 -1      3303 1.08947E+01
 -1      3304 7.54164E+00
 -1      3305 8.07589E+00
 -1      3306 4.18645E-01
 -1      3307 3.71112E+00
 -1      3308 3.70136E+00
 -1      3309 3.03388E+00
 -1      3310 2.28222E-01
 -1      3311 2.45300E-01
 -1      3312 2.06747E-01
 -1      3313 2.02395E-01
 -1      3314 2.04578E-01
 -1      3315 1.93221E-01
 -1      3316 1.72300E-01
 -1      3317 1.88356E-01
 -1      3318 1.73867E-01
 -1      3319 1.69618E-01
 -1      3320 1.65057E-01
 -1      3321 1.52913E-01
 -1      3322 1.55942E-01
 -1      3323 1.42629E-01
 -1      3324 1.31037E-01
 -1      3325 1.36849E-01
 -1      3326 1.22435E-01
 -1      3327 1.10248E-01
 -1      3328 1.17963E-01
 -1      3329 1.00349E-01
 -1      3330 8.85159E-02
 -1      3331 9.94626E-02
 -1      3332 7.80517E-02
 -1      3333 6.96714E-02
 -1      3334 7.91001E-02
 -1      3335 6.20786E-02
 -1      3336 6.12344E-02
 -1      3337 6.10430E-02
 -1      3338 6.34289E-02
 -1      3339 7.02803E-02
 -1      3340 5.56448E-02
 -1      3341 8.40903E-02
 -1      3342 1.03102E-01
 -1      3343 7.16494E-02
 -1      3344 1.32113E-01
 -1      3345 1.63490E-01
 -1      3346 1.14470E-01
 -1      3347 2.01639E-01
 -1      3348 2.47996E-01
 -1      3349 1.81630E-01
 -1      3350 2.94291E-01
 -1      3351 3.56946E-01
 -1      3352 2.66074E-01
 -1      3353 4.26828E-01
 -1      3354 5.04034E-01
 -1      3355 3.82251E-01
 -1      3356 5.98413E-01
 -1      3357 6.83769E-01
 -1      3358 5.46512E-01
 -1      3359 7.89148E-01
 -1      3360 8.68755E-01
 -1      3361 7.46269E-01
 -1      3362 9.61748E-01
 -1      3363 1.03763E+00
 -1      3364 9.44640E-01
 -1      3365 1.13390E+00
 -1      3366 1.18954E+00
 -1      3367 1.13390E+00
 -1      3368 1.23959E+00
 -1      3369 1.29142E+00
 -1      3370 1.28022E+00
 -1      3371 1.33315E+00
 -1      3372 1.41374E+00
 -1      3373 1.37201E+00
 -1      3374 1.55032E+00
 -1      3375 1.59710E+00
 -1      3376 1.55032E+00
 -1      3377 1.67989E+00
 -1      3378 1.60815E+00
 -1      3379 1.76968E+00
 -1      3380 1.52118E+00
 -1      3381 1.57695E+00
 -1      3382 1.76550E+00
 -1      3383 1.64323E+00
 -1      3384 1.64560E+00
 -1      3385 1.74482E+00
 -1      3386 1.51413E+00
 -1      3387 1.42941E+00
 -1      3388 1.67963E+00
 -1      3389 1.32578E+00
 -1      3390 1.26808E+00
 -1      3391 1.44454E+00
 -1      3392 1.24958E+00
 -1      3393 1.20129E+00
 -1      3394 1.32241E+00
 -1      3395 1.09868E+00
 -1      3396 1.01840E+00
 -1      3397 1.20129E+00
 -1      3398 9.35293E-01
 -1      3399 8.62494E-01
 -1      3400 1.01557E+00
 -1      3401 7.58693E-01
 -1      3402 6.72988E-01
 -1      3403 8.28663E-01
 -1      3404 5.71829E-01
 -1      3405 4.88997E-01
 -1      3406 6.23702E-01
 -1      3407 4.08559E-01
 -1      3408 3.37925E-01
 -1      3409 4.42104E-01
 -1      3410 2.88437E-01
 -1      3411 2.33432E-01
 -1      3412 3.12178E-01
 -1      3413 1.92463E-01
 -1      3414 1.52674E-01
 -1      3415 2.21721E-01
 -1      3416 1.21015E-01
 -1      3417 9.73121E-02
 -1      3418 1.49093E-01
 -1      3419 7.46208E-02
 -1      3420 6.01032E-02
 -1      3421 9.47428E-02
 -1      3422 4.83251E-02
 -1      3423 3.90667E-02
 -1      3424 6.02734E-02
 -1      3425 3.12247E-02
 -1      3426 2.50395E-02
 -1      3427 2.64791E-02
 -1      3428 4.06534E-02
 -1      3429 9.77200E-02
 -1      3430 1.12776E-01
 -1      3431 2.01216E-01
 -1      3432 2.20944E-01
 -1      3433 1.98776E-01
 -1      3434 1.23655E-01
 -1      3435 1.38651E-01
 -1      3436 1.14192E-01
 -1      3437 7.57869E-02
 -1      3438 7.00234E-02
 -1      3439 1.22648E-01
 -1      3440 9.18382E-02
 -1      3441 9.40493E-02
 -1      3442 2.11324E-01
 -1      3443 1.55735E-01
 -1      3444 1.43187E-01
 -1      3445 3.67394E-01
 -1      3446 2.74966E-01
 -1      3447 2.39915E-01
 -1      3448 5.74494E-01
 -1      3449 4.52944E-01
 -1      3450 3.89106E-01
 -1      3451 9.08663E-01
 -1      3452 7.16349E-01
 -1      3453 6.16510E-01
 -1      3454 1.41759E+00
 -1      3455 1.12068E+00
 -1      3456 9.70381E-01
 -1      3457 2.33933E+00
 -1      3458 1.76291E+00
 -1      3459 1.52771E+00
 -1      3460 5.21303E+00
 -1      3461 3.05425E+00
 -1      3462 2.58794E+00
 -1      3463 4.14340E-01
 -1      3464 5.18144E-01
 -1      3465 1.59044E-01
 -1      3466 1.84286E-01
 -1      3467 2.52066E-01
 -1      3468 2.26376E-01
 -1      3469 2.42347E-01
 -1      3470 4.57111E-01
 -1      3471 1.05477E-01
 -1      3472 1.35141E-01
 -1      3473 2.67337E-01
 -1      3474 3.32501E-01
 -1      3475 3.67515E-01
 -1      3476 8.64266E+00
 -1      3477 5.90041E+00
 -1      3478 5.18470E+00
 -1      3479 1.69926E-01
 -1      3480 2.14001E-01
 -1      3481 2.32340E-01
 -1      3482 1.44220E-01
 -1      3483 3.69103E-02
 -1      3484 3.85508E-02
 -1      3485 2.90471E+00
 -1      3486 2.41215E+00
 -1      3487 3.50848E-02
 -1      3488 3.81506E-02
 -1      3489 4.72550E-02
 -1      3490 4.05987E-02
 -1      3491 4.65642E-02
 -1      3492 4.80626E-02
 -1      3493 1.48799E-01
 -1      3494 1.63710E-01
 -1      3495 1.35220E-01
 -1      3496 5.44085E-02
 -1      3497 5.64523E-02
 -1      3498 5.79549E-02
 -1      3499 6.46885E-01
 -1      3500 8.58286E-01
 -1      3501 5.78096E-01
 -1      3502 5.47499E+00
 -1      3503 8.32792E+00
 -1      3504 6.44412E+00
 -1      3505 7.16632E-02
 -1      3506 8.67024E-02
 -1      3507 9.22954E-02
 -1      3508 7.96379E-02
 -1      3509 3.15144E-01
 -1      3510 3.22967E-01
 -1      3511 2.88439E-01
 -1      3512 5.87294E-02
 -1      3513 5.87294E-02
 -1      3514 6.80762E-02
 -1      3515 1.75170E-01
 -1      3516 1.89611E-01
 -1      3517 1.79893E-01
 -1      3518 1.56829E-01
 -1      3519 1.84382E-01
 -1      3520 1.93243E-01
 -1      3521 1.43011E-01
 -1      3522 3.25184E-01
 -1      3523 3.47653E+00
 -1      3524 3.57396E+00
 -1      3525 6.90738E+00
 -1      3526 6.15805E+00
 -1      3527 2.72877E+00
 -1      3528 3.36447E+00
 -1      3529 9.00278E+00
 -1      3530 7.12319E+00
 -1      3531 5.21303E+00
 -1      3532 8.84568E+00
 -1      3533 3.65179E+00
 -1      3534 2.97166E+00
 -1      3535 3.23990E+00
 -1      3536 2.41454E+00
 -1      3537 2.54282E+00
 -1      3538 2.93779E+00
 -1      3539 3.71026E+00
 -1      3540 3.61670E+00
 -1      3541 2.84408E-01
 -1      3542 2.55952E-01
 -1      3543 3.07315E+00
 -1      3544 2.52559E-01
 -1      3545 2.52559E-01
 -1      3546 2.85889E-01
 -1      3547 2.52692E-01
 -1      3548 2.52692E-01
 -1      3549 8.73553E-01
 -1      3550 1.02500E+00
 -1      3551 1.32696E+00
 -1      3552 5.23269E+00
 -1      3553 2.71640E+00
 -1      3554 4.92139E-02
 -1      3555 2.72428E-02
 -1      3556 5.91512E+00
 -1      3557 4.61079E+00
 -1      3558 4.96827E+00
 -1      3559 2.64447E+00
 -1      3560 3.41067E+00
 -1      3561 3.21304E+00
 -1      3562 3.02191E+00
 -1      3563 5.92897E-02
 -1      3564 5.33428E-02
 -1      3565 6.73452E-02
 -1      3566 7.09137E-02
 -1      3567 4.25718E+00
 -1      3568 5.32874E+00
 -1      3569 5.09270E+00
 -1      3570 2.84802E-01
 -1      3571 2.52692E-01
 -1      3572 2.49156E-01
 -1      3573 2.17146E-01
 -1      3574 4.06567E+00
 -1      3575 4.72006E+00
 -1      3576 3.06402E+00
 -1      3577 2.26766E-01
 -1      3578 2.10636E-01
 -1      3579 4.06534E-02
 -1      3580 2.05798E-01
 -1      3581 2.45045E-01
 -1      3582 2.56664E-01
 -1      3583 8.64969E-02
 -1      3584 2.21548E+00
 -1      3585 4.60815E+00
 -1      3586 7.34648E+00
 -1      3587 5.62399E+00
 -1      3588 4.12742E+00
 -1      3589 4.19680E+00
 -1      3590 3.05210E+00
 -1      3591 3.98715E+00
 -1      3592 2.47102E-01
 -1      3593 2.42061E-01
 -1      3594 1.74339E-01
 -1      3595 2.11222E-01
 -1      3596 9.04545E-02
 -1      3597 6.49946E+00
 -1      3598 5.08242E+00
 -1      3599 5.71668E+00
 -1      3600 1.56612E-01
 -1      3601 2.67241E+00
 -1      3602 2.48209E-01
 -1      3603 2.52040E-01
 -1      3604 2.16494E-01
 -1      3605 2.09979E-01
 -1      3606 1.52555E-01
 -1      3607 1.47690E-01
 -1      3608 1.46013E-01
 -1      3609 1.37202E-01
 -1      3610 1.28950E-01
 -1      3611 1.31541E-01
 -1      3612 1.21258E-01
 -1      3613 1.21611E-01
 -1      3614 1.13258E-01
 -1      3615 1.04655E-01
 -1      3616 1.07950E-01
 -1      3617 9.70000E-02
 -1      3618 8.71016E-02
 -1      3619 9.22945E-02
 -1      3620 7.82737E-02
 -1      3621 6.78095E-02
 -1      3622 7.58110E-02
 -1      3623 5.75594E-02
 -1      3624 4.99666E-02
 -1      3625 5.67330E-02
 -1      3626 4.35098E-02
 -1      3627 4.57043E-02
 -1      3628 4.00261E-02
 -1      3629 5.79017E-02
 -1      3630 7.17118E-02
 -1      3631 4.57667E-02
 -1      3632 9.89288E-02
 -1      3633 1.27940E-01
 -1      3634 8.51811E-02
 -1      3635 1.67008E-01
 -1      3636 2.05156E-01
 -1      3637 1.51466E-01
 -1      3638 2.59889E-01
 -1      3639 3.06185E-01
 -1      3640 2.45267E-01
 -1      3641 3.74904E-01
 -1      3642 4.44786E-01
 -1      3643 3.68720E-01
 -1      3644 5.22293E-01
 -1      3645 6.16672E-01
 -1      3646 5.14947E-01
 -1      3647 7.25220E-01
 -1      3648 8.30598E-01
 -1      3649 7.01001E-01
 -1      3650 9.41174E-01
 -1      3651 1.03417E+00
 -1      3652 9.20125E-01
 -1      3653 1.38194E+00
 -1      3654 1.47821E+00
 -1      3655 1.37848E+00
 -1      3656 1.45799E+00
 -1      3657 1.50804E+00
 -1      3658 1.70603E+00
 -1      3659 1.62628E+00
 -1      3660 1.66801E+00
 -1      3661 1.80404E+00
 -1      3662 1.68111E+00
 -1      3663 1.81768E+00
 -1      3664 1.93537E+00
 -1      3665 2.13477E+00
 -1      3666 2.21755E+00
 -1      3667 2.26555E+00
 -1      3668 2.03506E+00
 -1      3669 2.10134E+00
 -1      3670 2.38610E+00
 -1      3671 2.25463E+00
 -1      3672 2.67634E+00
 -1      3673 1.98574E+00
 -1      3674 1.88212E+00
 -1      3675 2.69221E+00
 -1      3676 1.55567E+00
 -1      3677 1.53716E+00
 -1      3678 2.09688E+00
 -1      3679 1.31472E+00
 -1      3680 1.21210E+00
 -1      3681 1.54798E+00
 -1      3682 1.11960E+00
 -1      3683 1.03650E+00
 -1      3684 1.23303E+00
 -1      3685 9.21444E-01
 -1      3686 8.17643E-01
 -1      3687 1.02548E+00
 -1      3688 6.97004E-01
 -1      3689 5.95844E-01
 -1      3690 7.89785E-01
 -1      3691 5.14880E-01
 -1      3692 4.34442E-01
 -1      3693 5.88182E-01
 -1      3694 3.61666E-01
 -1      3695 3.12178E-01
 -1      3696 4.34442E-01
 -1      3697 2.52318E-01
 -1      3698 2.11350E-01
 -1      3699 3.01807E-01
 -1      3700 1.67063E-01
 -1      3701 1.35404E-01
 -1      3702 1.97661E-01
 -1      3703 1.05564E-01
 -1      3704 8.28728E-02
 -1      3705 1.23534E-01
 -1      3706 6.38049E-02
 -1      3707 5.20268E-02
 -1      3708 7.46262E-02
 -1      3709 4.84953E-02
 -1      3710 1.31247E-01
 -1      3711 1.31344E-01
 -1      3712 1.62672E-01
 -1      3713 1.72241E-01
 -1      3714 1.79519E-01
 -1      3715 1.03088E-01
 -1      3716 1.13968E-01
 -1      3717 1.64233E-01
 -1      3718 1.31146E-01
 -1      3719 1.07860E-01
 -1      3720 9.18091E-02
 -1      3721 1.28906E-01
 -1      3722 4.04760E-01
 -1      3723 3.19211E-01
 -1      3724 6.41637E-01
 -1      3725 4.99782E-01
 -1      3726 4.29887E-01
 -1      3727 1.03456E+00
 -1      3728 8.22547E-01
 -1      3729 7.05818E-01
 -1      3730 1.65557E+00
 -1      3731 1.31026E+00
 -1      3732 1.16242E+00
 -1      3733 2.72400E+00
 -1      3734 2.00908E+00
 -1      3735 1.79162E+00
 -1      3736 5.40194E+00
 -1      3737 3.01967E-01
 -1      3738 3.83806E-01
 -1      3739 6.45898E-02
 -1      3740 6.33495E-02
 -1      3741 6.81019E-02
 -1      3742 7.01498E-02
 -1      3743 8.54367E-02
 -1      3744 1.20797E-01
 -1      3745 1.30946E-01
 -1      3746 1.09693E-01
 -1      3747 8.98941E-02
 -1      3748 6.04092E-02
 -1      3749 6.82535E-02
 -1      3750 8.04485E-02
 -1      3751 4.94119E-01
 -1      3752 6.22860E-01
 -1      3753 4.28571E-01
 -1      3754 2.04830E-01
 -1      3755 2.48923E-01
 -1      3756 2.52559E-01
 -1      3757 2.16680E-01
 -1      3758 2.16913E-01
 -1      3759 7.47507E-02
 -1      3760 7.70278E-02
 -1      3761 7.72051E-02
 -1      3762 2.37559E+00
 -1      3763 2.69221E+00
 -1      3764 2.67353E-01
 -1      3765 2.03711E-01
 -1      3766 1.91670E-01
 -1      3767 1.46177E-01
 -1      3768 1.48360E-01
 -1      3769 1.26433E-01
 -1      3770 2.27240E+00
 -1      3771 2.50719E+00
 -1      3772 2.66737E+00
 -1      3773 4.51374E+00
 -1      3774 4.25609E+00
 -1      3775 2.80681E+00
 -1      3776 2.80971E+00
 -1      3777 2.75951E+00
 -1      3778 2.37096E+00
 -1      3779 2.70666E+00
 -1      3780 5.39157E+00
 -1      3781 3.48141E+00
 -1      3782 2.90255E+00
 -1      3783 1.67291E+00
 -1      3784 2.27474E+00
 -1      3785 2.52145E+00
 -1      3786 1.38622E+00
 -1      3787 2.44533E+00
 -1      3788 1.18090E-01
 -1      3789 1.31594E-01
 -1      3790 1.07655E-01
 -1      3791 1.06326E-01
 -1      3792 9.65687E-02
 -1      3793 1.79478E-01
 -1      3794 1.80130E-01
 -1      3795 3.20603E+00
 -1      3796 3.72476E+00
 -1      3797 3.84651E+00
 -1      3798 7.81406E-01
 -1      3799 9.48122E-01
 -1      3800 6.97430E-01
 -1      3801 1.58058E-01
 -1      3802 1.69662E-01
 -1      3803 1.50405E-01
 -1      3804 5.20268E-02
 -1      3805 2.38240E+00
 -1      3806 2.29543E+00
 -1      3807 2.65196E+00
 -1      3808 9.60094E-02
 -1      3809 9.57848E-02
 -1      3810 8.49919E-02
 -1      3811 6.81213E-02
 -1      3812 2.83007E-01
 -1      3813 4.55153E+00
 -1      3814 3.82409E+00
 -1      3815 2.40491E-01
 -1      3816 2.56783E-01
 -1      3817 1.87156E-01
 -1      3818 3.23990E+00
 -1      3819 2.91233E+00
 -1      3820 2.74748E+00
 -1      3821 1.84603E-01
 -1      3822 1.84603E-01
 -1      3823 2.32318E+00
 -1      3824 2.18588E+00
 -1      3825 3.84590E+00
 -1      3826 4.25382E+00
 -1      3827 3.27722E+00
 -1      3828 2.99549E+00
 -1      3829 1.25255E-01
 -1      3830 1.39678E-01
 -1      3831 1.51138E-01
 -1      3832 1.17713E-01
 -1      3833 1.52498E-01
 -1      3834 1.60649E-01
 -1      3835 1.04847E-01
 -1      3836 4.66311E+00
 -1      3837 3.82490E+00
 -1      3838 3.94934E+00
 -1      3839 2.74748E+00
 -1      3840 2.96109E+00
 -1      3841 3.07315E+00
 -1      3842 1.86851E-01
 -1      3843 1.86851E-01
 -1      3844 1.49835E-01
 -1      3845 7.97755E-02
 -1      3846 8.14154E-02
 -1      3847 8.51295E-02
 -1      3848 9.35865E-02
 -1      3849 1.74107E-01
 -1      3850 1.73851E-01
 -1      3851 1.47572E-01
 -1      3852 2.41870E+00
 -1      3853 1.82331E-01
 -1      3854 1.76873E-01
 -1      3855 1.33781E-01
 -1      3856 1.50254E-01
 -1      3857 2.15025E+00
 -1      3858 1.59543E-01
 -1      3859 1.58831E-01
 -1      3860 1.64693E-01
 -1      3861 1.27852E-01
 -1      3862 3.91849E+00
 -1      3863 2.93059E+00
 -1      3864 3.19953E+00
 -1      3865 3.14220E+00
 -1      3866 3.89237E+00
 -1      3867 2.69221E+00
 -1      3868 8.92117E-02
 -1      3869 9.57089E-02
 -1      3870 1.16854E-01
 -1      3871 1.14421E-01
 -1      3872 1.12743E-01
 -1      3873 2.92848E+00
 -1      3874 2.17107E+00
 -1      3875 1.34468E-01
 -1      3876 1.11182E-01
 -1      3877 2.02931E+00
 -1      3878 2.11583E+00
 -1      3879 1.12059E-01
 -1      3880 1.06398E-01
 -1      3881 9.75292E-02
 -1      3882 1.02242E-01
 -1      3883 9.42422E-02
 -1      3884 9.26899E-02
 -1      3885 8.76679E-02
 -1      3886 8.00124E-02
 -1      3887 8.19602E-02
 -1      3888 7.65321E-02
 -1      3889 6.77042E-02
 -1      3890 7.19056E-02
 -1      3891 6.48915E-02
 -1      3892 5.46414E-02
 -1      3893 6.56126E-02
 -1      3894 5.12220E-02
 -1      3895 4.47652E-02
 -1      3896 5.93805E-02
 -1      3897 5.32221E-02
 -1      3898 6.54195E-02
 -1      3899 6.44180E-02
 -1      3900 8.41764E-02
 -1      3901 1.11393E-01
 -1      3902 9.16318E-02
 -1      3903 1.46871E-01
 -1      3904 1.85939E-01
 -1      3905 1.45866E-01
 -1      3906 2.30449E-01
 -1      3907 2.85182E-01
 -1      3908 2.25854E-01
 -1      3909 3.37112E-01
 -1      3910 4.05831E-01
 -1      3911 3.22293E-01
 -1      3912 5.03204E-01
 -1      3913 5.80712E-01
 -1      3914 4.71597E-01
 -1      3915 7.01001E-01
 -1      3916 8.09549E-01
 -1      3917 6.89259E-01
 -1      3918 9.41744E-01
 -1      3919 1.05232E+00
 -1      3920 9.41744E-01
 -1      3921 1.37848E+00
 -1      3922 1.72626E+00
 -1      3923 1.40010E+00
 -1      3924 1.86057E+00
 -1      3925 1.84035E+00
 -1      3926 1.87477E+00
 -1      3927 1.99300E+00
 -1      3928 2.25245E+00
 -1      3929 2.26555E+00
 -1      3930 2.58263E+00
 -1      3931 1.82253E+00
 -1      3932 1.60008E+00
 -1      3933 1.48333E+00
 -1      3934 1.39083E+00
 -1      3935 1.75789E+00
 -1      3936 1.17354E+00
 -1      3937 1.05848E+00
 -1      3938 1.42384E+00
 -1      3939 9.10423E-01
 -1      3940 7.89785E-01
 -1      3941 1.05848E+00
 -1      3942 6.83447E-01
 -1      3943 6.02483E-01
 -1      3944 8.04085E-01
 -1      3945 4.97338E-01
 -1      3946 4.24562E-01
 -1      3947 5.92603E-01
 -1      3948 3.62009E-01
 -1      3949 3.02150E-01
 -1      3950 4.24905E-01
 -1      3951 2.49516E-01
 -1      3952 2.05229E-01
 -1      3953 3.09718E-01
 -1      3954 1.61720E-01
 -1      3955 1.31880E-01
 -1      3956 2.13575E-01
 -1      3957 1.10969E-01
 -1      3958 9.19012E-02
 -1      3959 1.04464E-01
 -1      3960 1.49155E-01
 -1      3961 1.28329E-01
 -1      3962 3.85724E+00
 -1      3963 3.62483E+00
 -1      3964 2.89335E+00
 -1      3965 3.85988E+00
 -1      3966 7.69332E-01
 -1      3967 5.88422E-01
 -1      3968 4.75893E-01
 -1      3969 3.80871E-01
 -1      3970 5.39406E-01
 -1      3971 1.80987E+00
 -1      3972 1.45636E+00
 -1      3973 1.83581E+00
 -1      3974 3.05436E-01
 -1      3975 2.53578E-01
 -1      3976 3.51442E-01
 -1      3977 2.88547E+00
 -1      3978 2.74748E+00
 -1      3979 2.26642E+00
 -1      3980 2.69702E+00
 -1      3981 2.80508E+00
 -1      3982 2.78839E+00
 -1      3983 2.62510E+00
 -1      3984 9.88160E-02
 -1      3985 1.05646E-01
 -1      3986 2.66524E+00
 -1      3987 2.37265E+00
 -1      3988 1.09217E-01
 -1      3989 9.94761E-02
 -1      3990 1.17980E-01
 -1      3991 3.58483E-01
 -1      3992 4.68796E-01
 -1      3993 2.42333E+00
 -1      3994 1.86851E-01
 -1      3995 1.86618E-01
 -1      3996 1.54541E-01
 -1      3997 1.56556E-01
 -1      3998 2.02342E-01
 -1      3999 1.62863E-01
 -1      4000 2.24771E-01
 -1      4001 1.19473E+00
 -1      4002 9.19037E-01
 -1      4003 8.01641E-01
 -1      4004 1.21298E+00
 -1      4005 1.05816E-01
 -1      4006 1.10011E-01
 -1      4007 9.38034E-02
 -1      4008 2.14435E+00
 -1      4009 2.14898E+00
 -1      4010 1.09217E-01
 -1      4011 2.76084E+00
 -1      4012 2.59231E+00
 -1      4013 2.09688E+00
 -1      4014 3.21765E+00
 -1      4015 3.75007E+00
 -1      4016 3.32048E+00
 -1      4017 5.82158E-01
 -1      4018 7.40704E-01
 -1      4019 5.12070E-01
 -1      4020 1.40907E-01
 -1      4021 2.44987E+00
 -1      4022 2.47168E+00
 -1      4023 2.06851E+00
 -1      4024 1.10703E-01
 -1      4025 1.05141E-01
 -1      4026 9.31072E-02
 -1      4027 2.14548E+00
 -1      4028 1.86057E+00
 -1      4029 1.45140E-01
 -1      4030 9.50289E-02
 -1      4031 1.02108E-01
 -1      4032 9.80602E-02
 -1      4033 1.27607E-01
 -1      4034 1.22195E-01
 -1      4035 3.55472E+00
 -1      4036 2.59658E+00
 -1      4037 2.21562E-01
 -1      4038 2.83037E-01
 -1      4039 3.23262E-01
 -1      4040 1.97156E+00
 -1      4041 2.93962E+00
 -1      4042 3.19953E+00
 -1      4043 2.39400E+00
 -1      4044 1.28244E-01
 -1      4045 1.20209E-01
 -1      4046 1.26930E-01
 -1      4047 1.00684E-01
 -1      4048 1.11561E-01
 -1      4049 1.20294E-01
 -1      4050 1.32382E-01
 -1      4051 1.34960E-01
 -1      4052 1.09584E-01
 -1      4053 2.10293E+00
 -1      4054 1.24963E-01
 -1      4055 1.22690E-01
 -1      4056 1.05073E+00
 -1      4057 1.14287E+00
 -1      4058 1.48882E+00
 -1      4059 1.20527E-01
 -1      4060 1.09818E-01
 -1      4061 9.33964E-02
 -1      4062 2.86194E+00
 -1      4063 1.29159E-01
 -1      4064 1.27144E-01
 -1      4065 9.95805E-02
 -1      4066 9.52354E-02
 -1      4067 8.73473E-02
 -1      4068 8.31919E-02
 -1      4069 8.43665E-02
 -1      4070 7.77922E-02
 -1      4071 7.90239E-02
 -1      4072 7.50218E-02
 -1      4073 7.15416E-02
 -1      4074 7.74282E-02
 -1      4075 7.20351E-02
 -1      4076 6.92224E-02
 -1      4077 7.51513E-02
 -1      4078 8.36679E-02
 -1      4079 8.02484E-02
 -1      4080 9.00903E-02
 -1      4081 9.72467E-02
 -1      4082 1.05704E-01
 -1      4083 1.21534E-01
 -1      4084 1.37828E-01
 -1      4085 1.56585E-01
 -1      4086 1.70657E-01
 -1      4087 2.05769E-01
 -1      4088 2.41246E-01
 -1      4089 2.51965E-01
 -1      4090 3.14288E-01
 -1      4091 3.58798E-01
 -1      4092 3.74191E-01
 -1      4093 4.54304E-01
 -1      4094 5.06235E-01
 -1      4095 5.42739E-01
 -1      4096 6.51757E-01
 -1      4097 7.49130E-01
 -1      4098 7.83768E-01
 -1      4099 9.40701E-01
 -1      4100 1.06099E+00
 -1      4101 1.12086E+00
 -1      4102 1.29143E+00
 -1      4103 1.42362E+00
 -1      4104 1.54287E+00
 -1      4105 1.47876E+00
 -1      4106 1.80492E+00
 -1      4107 1.82844E+00
 -1      4108 1.88158E-01
 -1      4109 1.59762E-01
 -1      4110 1.98618E+00
 -1      4111 2.95710E+00
 -1      4112 2.99207E+00
 -1      4113 2.75783E+00
 -1      4114 2.25154E+00
 -1      4115 2.03424E+00
 -1      4116 2.59658E+00
 -1      4117 1.49023E+00
 -1      4118 1.34217E+00
 -1      4119 2.31793E+00
 -1      4120 1.04721E+00
 -1      4121 9.40868E-01
 -1      4122 1.47896E+00
 -1      4123 7.01992E-01
 -1      4124 5.96847E-01
 -1      4125 9.45112E-01
 -1      4126 4.95104E-01
 -1      4127 4.32550E-01
 -1      4128 6.04493E-01
 -1      4129 3.72008E-01
 -1      4130 3.19375E-01
 -1      4131 4.42207E-01
 -1      4132 2.48837E-01
 -1      4133 2.05328E-01
 -1      4134 3.11127E-01
 -1      4135 1.64810E-01
 -1      4136 1.43899E-01
 -1      4137 1.43899E-01
 -1      4138 2.00072E-01
 -1      4139 6.45090E-01
 -1      4140 5.32561E-01
 -1      4141 1.98516E+00
 -1      4142 1.62396E+00
 -1      4143 4.37055E-01
 -1      4144 3.61620E-01
 -1      4145 5.42739E-01
 -1      4146 9.97673E-02
 -1      4147 1.19732E-01
 -1      4148 2.11433E+00
 -1      4149 2.24864E+00
 -1      4150 2.39924E+00
 -1      4151 2.19299E+00
 -1      4152 2.29573E+00
 -1      4153 1.42637E-01
 -1      4154 2.46947E+00
 -1      4155 2.97848E+00
 -1      4156 2.88204E+00
 -1      4157 2.57263E+00
 -1      4158 1.72822E+00
 -1      4159 1.25463E-01
 -1      4160 1.32382E-01
 -1      4161 1.16937E-01
 -1      4162 1.11769E-01
 -1      4163 1.29159E-01
 -1      4164 1.29159E-01
 -1      4165 1.01762E-01
 -1      4166 9.95331E-02
 -1      4167 2.86194E+00
 -1      4168 9.81023E-02
 -1      4169 9.56391E-02
 -1      4170 9.78680E-02
 -1      4171 1.42477E-01
 -1      4172 1.77135E-01
 -1      4173 2.03390E-01
 -1      4174 1.33339E-01
 -1      4175 7.75315E-02
 -1      4176 8.19412E-02
 -1      4177 9.31072E-02
 -1      4178 9.66837E-02
 -1      4179 1.03007E-01
 -1      4180 1.04661E-01
 -1      4181 8.85790E-02
 -1      4182 8.78952E-02
 -1      4183 7.83971E-02
 -1      4184 2.86194E+00
 -1      4185 2.88578E-01
 -1      4186 2.37342E-01
 -1      4187 3.74191E-01
 -1      4188 7.76770E-02
 -1      4189 7.36744E-02
 -1      4190 6.18121E-02
 -1      4191 7.98585E-02
 -1      4192 4.41645E-01
 -1      4193 5.55007E-01
 -1      4194 1.72822E+00
 -1      4195 1.58577E+00
 -1      4196 1.27638E-01
 -1      4197 1.21597E-01
 -1      4198 1.70657E-01
 -1      4199 2.08388E+00
 -1      4200 2.51965E-01
 -1      4201 7.23071E-02
 -1      4202 1.39352E+00
 -1      4203 1.13189E+00
 -1      4204 1.54287E+00
 -1      4205 7.76339E-01
 -1      4206 8.91611E-01
 -1      4207 1.08636E+00
 -1      4208 3.37230E-01
 -1      4209 3.80167E-01
 -1      4210 2.61785E-01
 -1      4211 9.40318E-01
 -1      4212 7.90612E-01
 -1      4213 7.83768E-01
 -1      4214 1.12086E+00
 -1      4215 1.81531E+00
 -1      4216 2.28325E+00
 -1      4217 1.47502E+00
 -1      4218 8.95740E-02
 -1      4219 9.54896E-02
 -1      4220 1.55609E-01
 -1      4221 1.45345E-01
 -1      4222 1.05456E-01
 -1      4223 1.24548E+00
 -1      4224 2.31793E+00
 -1      4225 9.07752E-02
 -1      4226 8.74835E-02
 -1      4227 8.22890E-02
 -1      4228 1.73924E+00
 -1      4229 1.71264E-01
 -1      4230 1.70968E-01
 -1      4231 9.05402E-02
 -1      4232 1.01650E-01
 -1      4233 1.06819E-01
 -1      4234 8.01985E-02
 -1      4235 7.74282E-02
 -1      4236 9.01531E-02
 -1      4237 1.04599E-01
 -1      4238 1.21534E-01
 -1      4239 1.38532E-01
 -1      4240 1.70657E-01
 -1      4241 2.02781E-01
 -1      4242 2.51965E-01
 -1      4243 3.01149E-01
 -1      4244 3.74191E-01
 -1      4245 4.47233E-01
 -1      4246 5.42739E-01
 -1      4247 6.38246E-01
 -1      4248 7.83768E-01
 -1      4249 9.29290E-01
 -1      4250 1.12086E+00
 -1      4251 1.31243E+00
 -1      4252 1.54287E+00
 -1      4253 1.77331E+00
 -1      4254 2.15396E-01
 -1      4255 2.29363E-01
 -1      4256 2.81180E+00
 -1      4257 2.44842E+00
 -1      4258 2.57263E+00
 -1      4259 2.11782E-01
 -1      4260 8.55848E-02
 -1      4261 8.50369E-02
 -1      4262 1.44427E+00
 -1      4263 7.71303E-01
 -1      4264 6.69559E-01
 -1      4265 4.93666E-01
 -1      4266 4.33124E-01
 -1      4267 3.28709E-01
 -1      4268 2.58171E-01
 -1      4269 8.05316E-02
 -1      4270 8.05316E-02
 -1      4271 5.86281E-02
 -1      4272 7.66376E-02
 -1      4273 1.16937E-01
 -1      4274 1.05456E-01
 -1      4275 1.08636E+00
 -1      4276 9.13034E-02
 -1      4277 9.79412E-02
 -1      4278 8.11144E-02
 -1      4279 8.22890E-02
 -1      4280 6.60475E-01
 -1      4281 7.30900E-01
 -1      4282 1.30450E+00
 -1      4283 1.04421E+00
 -1      4284 8.05338E-01
 -1      4285 1.07496E+00
 -1      4286 1.21597E-01
 -1      4287 1.04661E-01
 -1      4288 8.80049E-02
 -1      4289 8.84984E-02
 -1      4290 8.74462E-02
 -1      4291 1.77331E+00
 -1      4292 1.77331E+00
 -1      4293 1.82844E+00
 -1      4294 8.81807E-01
 -1      4295 1.04581E-01
 -1      4296 9.07752E-02
 -1      4297 8.70404E-01
 -1      4298 1.03007E-01
 -1      4299 2.19299E+00
 -1      4300 2.50240E+00
 -1      4301 9.15843E-01
 -1      4302 1.16937E-01
 -1      4303 1.04661E-01
 -1      4304 2.13785E+00
 -1      4305 1.01352E-01
 -1      4306 1.03007E-01
 -1      4307 8.81193E-02
 -1      4308 8.72751E-02
 -1      4309 2.13785E+00
 -1      4310 1.06819E-01
 -1      4311 9.44627E-02
 -3
 9999
