    1C
    1UUSER                                                              
    1UDATE              27.october.2022                                 
    1UTIME              01:01:00                                        
    1UHOST                                                              
    1UPGM               CalculiX                                        
    1UVERSION           Version 2.17                             
    1UCOMPILETIME       Thu Jul 23 21:43:50 CEST 2020                    
    1UDIR                                                               
    1UDBN                                                               
    1UMAT    1SOLIDMATERIAL                                             
    2C                          4261                                     1
 -1         1 1.25455E+02 2.66240E+01 0.00000E+00
 -1         2 1.32412E+02 1.96241E+01 0.00000E+00
 -1         3 1.50000E+02 0.00000E+00 0.00000E+00
 -1         4 1.50000E+02 5.00000E+01 0.00000E+00
 -1         5 0.00000E+00 0.00000E+00 0.00000E+00
 -1         6 0.00000E+00 5.00000E+01 0.00000E+00
 -1         7 0.00000E+00 4.70500E+01 0.00000E+00
 -1         8 0.00000E+00 4.41000E+01 0.00000E+00
 -1         9 0.00000E+00 4.11500E+01 0.00000E+00
 -1        10 0.00000E+00 3.82000E+01 0.00000E+00
 -1        11 0.00000E+00 3.52500E+01 0.00000E+00
 -1        12 0.00000E+00 3.23500E+01 0.00000E+00
 -1        13 0.00000E+00 2.94000E+01 0.00000E+00
 -1        14 0.00000E+00 2.64500E+01 0.00000E+00
 -1        15 0.00000E+00 2.35000E+01 0.00000E+00
 -1        16 0.00000E+00 2.05500E+01 0.00000E+00
 -1        17 0.00000E+00 1.76000E+01 0.00000E+00
 -1        18 0.00000E+00 1.47000E+01 0.00000E+00
 -1        19 0.00000E+00 1.17500E+01 0.00000E+00
 -1        20 0.00000E+00 8.80000E+00 0.00000E+00
 -1        21 0.00000E+00 5.85000E+00 0.00000E+00
 -1        22 0.00000E+00 2.90000E+00 0.00000E+00
 -1        23 3.15000E+00 5.00000E+01 0.00000E+00
 -1        24 6.15000E+00 5.00000E+01 0.00000E+00
 -1        25 9.15000E+00 5.00000E+01 0.00000E+00
 -1        26 1.21500E+01 5.00000E+01 0.00000E+00
 -1        27 1.51500E+01 5.00000E+01 0.00000E+00
 -1        28 1.81500E+01 5.00000E+01 0.00000E+00
 -1        29 2.11500E+01 5.00000E+01 0.00000E+00
 -1        30 2.41500E+01 5.00000E+01 0.00000E+00
 -1        31 2.71500E+01 5.00000E+01 0.00000E+00
 -1        32 3.01500E+01 5.00000E+01 0.00000E+00
 -1        33 3.31500E+01 5.00000E+01 0.00000E+00
 -1        34 3.61500E+01 5.00000E+01 0.00000E+00
 -1        35 3.91500E+01 5.00000E+01 0.00000E+00
 -1        36 4.21500E+01 5.00000E+01 0.00000E+00
 -1        37 4.51500E+01 5.00000E+01 0.00000E+00
 -1        38 4.81500E+01 5.00000E+01 0.00000E+00
 -1        39 5.11500E+01 5.00000E+01 0.00000E+00
 -1        40 5.41500E+01 5.00000E+01 0.00000E+00
 -1        41 5.71500E+01 5.00000E+01 0.00000E+00
 -1        42 6.01500E+01 5.00000E+01 0.00000E+00
 -1        43 6.31500E+01 5.00000E+01 0.00000E+00
 -1        44 6.61500E+01 5.00000E+01 0.00000E+00
 -1        45 6.91500E+01 5.00000E+01 0.00000E+00
 -1        46 7.21500E+01 5.00000E+01 0.00000E+00
 -1        47 7.51500E+01 5.00000E+01 0.00000E+00
 -1        48 7.81500E+01 5.00000E+01 0.00000E+00
 -1        49 8.11500E+01 5.00000E+01 0.00000E+00
 -1        50 8.41500E+01 5.00000E+01 0.00000E+00
 -1        51 8.71500E+01 5.00000E+01 0.00000E+00
 -1        52 9.01500E+01 5.00000E+01 0.00000E+00
 -1        53 9.31500E+01 5.00000E+01 0.00000E+00
 -1        54 9.61500E+01 5.00000E+01 0.00000E+00
 -1        55 9.91500E+01 5.00000E+01 0.00000E+00
 -1        56 1.02150E+02 5.00000E+01 0.00000E+00
 -1        57 1.05150E+02 5.00000E+01 0.00000E+00
 -1        58 1.08150E+02 5.00000E+01 0.00000E+00
 -1        59 1.11150E+02 5.00000E+01 0.00000E+00
 -1        60 1.14150E+02 5.00000E+01 0.00000E+00
 -1        61 1.17150E+02 5.00000E+01 0.00000E+00
 -1        62 1.20150E+02 5.00000E+01 0.00000E+00
 -1        63 1.23150E+02 5.00000E+01 0.00000E+00
 -1        64 1.26150E+02 5.00000E+01 0.00000E+00
 -1        65 1.29150E+02 5.00000E+01 0.00000E+00
 -1        66 1.32150E+02 5.00000E+01 0.00000E+00
 -1        67 1.35150E+02 5.00000E+01 0.00000E+00
 -1        68 1.38150E+02 5.00000E+01 0.00000E+00
 -1        69 1.41150E+02 5.00000E+01 0.00000E+00
 -1        70 1.44150E+02 5.00000E+01 0.00000E+00
 -1        71 1.47150E+02 5.00000E+01 0.00000E+00
 -1        72 3.15000E+00 0.00000E+00 0.00000E+00
 -1        73 6.15000E+00 0.00000E+00 0.00000E+00
 -1        74 9.15000E+00 0.00000E+00 0.00000E+00
 -1        75 1.21500E+01 0.00000E+00 0.00000E+00
 -1        76 1.51500E+01 0.00000E+00 0.00000E+00
 -1        77 1.81500E+01 0.00000E+00 0.00000E+00
 -1        78 2.11500E+01 0.00000E+00 0.00000E+00
 -1        79 2.41500E+01 0.00000E+00 0.00000E+00
 -1        80 2.71500E+01 0.00000E+00 0.00000E+00
 -1        81 3.01500E+01 0.00000E+00 0.00000E+00
 -1        82 3.31500E+01 0.00000E+00 0.00000E+00
 -1        83 3.61500E+01 0.00000E+00 0.00000E+00
 -1        84 3.91500E+01 0.00000E+00 0.00000E+00
 -1        85 4.21500E+01 0.00000E+00 0.00000E+00
 -1        86 4.51500E+01 0.00000E+00 0.00000E+00
 -1        87 4.81500E+01 0.00000E+00 0.00000E+00
 -1        88 5.11500E+01 0.00000E+00 0.00000E+00
 -1        89 5.41500E+01 0.00000E+00 0.00000E+00
 -1        90 5.71500E+01 0.00000E+00 0.00000E+00
 -1        91 6.01500E+01 0.00000E+00 0.00000E+00
 -1        92 6.31500E+01 0.00000E+00 0.00000E+00
 -1        93 6.61500E+01 0.00000E+00 0.00000E+00
 -1        94 6.91500E+01 0.00000E+00 0.00000E+00
 -1        95 7.21500E+01 0.00000E+00 0.00000E+00
 -1        96 7.51500E+01 0.00000E+00 0.00000E+00
 -1        97 7.81500E+01 0.00000E+00 0.00000E+00
 -1        98 8.11500E+01 0.00000E+00 0.00000E+00
 -1        99 8.41500E+01 0.00000E+00 0.00000E+00
 -1       100 8.71500E+01 0.00000E+00 0.00000E+00
 -1       101 9.01500E+01 0.00000E+00 0.00000E+00
 -1       102 9.31500E+01 0.00000E+00 0.00000E+00
 -1       103 9.61500E+01 0.00000E+00 0.00000E+00
 -1       104 9.91500E+01 0.00000E+00 0.00000E+00
 -1       105 1.02150E+02 0.00000E+00 0.00000E+00
 -1       106 1.05150E+02 0.00000E+00 0.00000E+00
 -1       107 1.08150E+02 0.00000E+00 0.00000E+00
 -1       108 1.11150E+02 0.00000E+00 0.00000E+00
 -1       109 1.14150E+02 0.00000E+00 0.00000E+00
 -1       110 1.17150E+02 0.00000E+00 0.00000E+00
 -1       111 1.20150E+02 0.00000E+00 0.00000E+00
 -1       112 1.23150E+02 0.00000E+00 0.00000E+00
 -1       113 1.26150E+02 0.00000E+00 0.00000E+00
 -1       114 1.29150E+02 0.00000E+00 0.00000E+00
 -1       115 1.32150E+02 0.00000E+00 0.00000E+00
 -1       116 1.35150E+02 0.00000E+00 0.00000E+00
 -1       117 1.38150E+02 0.00000E+00 0.00000E+00
 -1       118 1.41150E+02 0.00000E+00 0.00000E+00
 -1       119 1.44150E+02 0.00000E+00 0.00000E+00
 -1       120 1.47150E+02 0.00000E+00 0.00000E+00
 -1       121 1.50000E+02 2.95000E+00 0.00000E+00
 -1       122 1.50000E+02 5.90000E+00 0.00000E+00
 -1       123 1.50000E+02 8.85000E+00 0.00000E+00
 -1       124 1.50000E+02 1.18000E+01 0.00000E+00
 -1       125 1.50000E+02 1.47500E+01 0.00000E+00
 -1       126 1.50000E+02 1.76500E+01 0.00000E+00
 -1       127 1.50000E+02 2.06000E+01 0.00000E+00
 -1       128 1.50000E+02 2.35500E+01 0.00000E+00
 -1       129 1.50000E+02 2.65000E+01 0.00000E+00
 -1       130 1.50000E+02 2.94500E+01 0.00000E+00
 -1       131 1.50000E+02 3.24000E+01 0.00000E+00
 -1       132 1.50000E+02 3.53000E+01 0.00000E+00
 -1       133 1.50000E+02 3.82500E+01 0.00000E+00
 -1       134 1.50000E+02 4.12000E+01 0.00000E+00
 -1       135 1.50000E+02 4.41500E+01 0.00000E+00
 -1       136 1.50000E+02 4.71000E+01 0.00000E+00
 -1       137 1.32249E+02 1.81229E+01 0.00000E+00
 -1       138 1.31815E+02 1.67947E+01 0.00000E+00
 -1       139 1.31110E+02 1.55575E+01 0.00000E+00
 -1       140 1.30030E+02 1.43636E+01 0.00000E+00
 -1       141 1.28683E+02 1.34355E+01 0.00000E+00
 -1       142 1.27328E+02 1.28914E+01 0.00000E+00
 -1       143 1.25814E+02 1.26357E+01 0.00000E+00
 -1       144 1.24263E+02 1.27190E+01 0.00000E+00
 -1       145 1.22850E+02 1.31098E+01 0.00000E+00
 -1       146 1.21502E+02 1.38180E+01 0.00000E+00
 -1       147 1.20367E+02 1.47717E+01 0.00000E+00
 -1       148 1.19476E+02 1.59144E+01 0.00000E+00
 -1       149 1.18786E+02 1.73676E+01 0.00000E+00
 -1       150 1.18464E+02 1.87698E+01 0.00000E+00
 -1       151 1.18445E+02 2.03040E+01 0.00000E+00
 -1       152 1.18721E+02 2.16824E+01 0.00000E+00
 -1       153 1.19318E+02 2.30678E+01 0.00000E+00
 -1       154 1.20145E+02 2.42347E+01 0.00000E+00
 -1       155 1.21160E+02 2.51846E+01 0.00000E+00
 -1       156 1.22537E+02 2.60064E+01 0.00000E+00
 -1       157 1.23952E+02 2.64702E+01 0.00000E+00
 -1       158 1.26984E+02 2.64454E+01 0.00000E+00
 -1       159 1.28478E+02 2.59170E+01 0.00000E+00
 -1       160 1.29740E+02 2.51257E+01 0.00000E+00
 -1       161 1.30915E+02 2.39507E+01 0.00000E+00
 -1       162 1.31707E+02 2.26846E+01 0.00000E+00
 -1       163 1.32221E+02 2.12497E+01 0.00000E+00
 -1       164 2.59800E+00 4.55750E+01 0.00000E+00
 -1       165 2.59800E+00 4.26250E+01 0.00000E+00
 -1       166 2.59800E+00 3.96750E+01 0.00000E+00
 -1       167 2.59800E+00 3.67250E+01 0.00000E+00
 -1       168 2.59800E+00 3.38250E+01 0.00000E+00
 -1       169 2.59800E+00 3.08750E+01 0.00000E+00
 -1       170 2.59800E+00 2.79250E+01 0.00000E+00
 -1       171 2.59800E+00 2.49750E+01 0.00000E+00
 -1       172 2.59800E+00 2.20250E+01 0.00000E+00
 -1       173 2.59800E+00 1.90750E+01 0.00000E+00
 -1       174 2.59800E+00 1.61750E+01 0.00000E+00
 -1       175 2.59800E+00 1.32250E+01 0.00000E+00
 -1       176 2.59800E+00 1.02750E+01 0.00000E+00
 -1       177 2.59800E+00 7.32500E+00 0.00000E+00
 -1       178 2.59800E+00 4.37500E+00 0.00000E+00
 -1       179 2.87400E+00 2.18750E+00 0.00000E+00
 -1       180 4.65000E+00 4.74020E+01 0.00000E+00
 -1       181 7.65000E+00 4.74020E+01 0.00000E+00
 -1       182 1.06500E+01 4.74020E+01 0.00000E+00
 -1       183 1.36500E+01 4.74020E+01 0.00000E+00
 -1       184 1.66500E+01 4.74020E+01 0.00000E+00
 -1       185 1.96500E+01 4.74020E+01 0.00000E+00
 -1       186 2.26500E+01 4.74020E+01 0.00000E+00
 -1       187 2.56500E+01 4.74020E+01 0.00000E+00
 -1       188 2.86500E+01 4.74020E+01 0.00000E+00
 -1       189 3.16500E+01 4.74020E+01 0.00000E+00
 -1       190 3.46500E+01 4.74020E+01 0.00000E+00
 -1       191 3.76500E+01 4.74020E+01 0.00000E+00
 -1       192 4.06500E+01 4.74020E+01 0.00000E+00
 -1       193 4.36500E+01 4.74020E+01 0.00000E+00
 -1       194 4.66500E+01 4.74020E+01 0.00000E+00
 -1       195 4.96500E+01 4.74020E+01 0.00000E+00
 -1       196 5.26500E+01 4.74020E+01 0.00000E+00
 -1       197 5.56500E+01 4.74020E+01 0.00000E+00
 -1       198 5.86500E+01 4.74020E+01 0.00000E+00
 -1       199 6.16500E+01 4.74020E+01 0.00000E+00
 -1       200 6.46500E+01 4.74020E+01 0.00000E+00
 -1       201 6.76500E+01 4.74020E+01 0.00000E+00
 -1       202 7.06500E+01 4.74020E+01 0.00000E+00
 -1       203 7.36500E+01 4.74020E+01 0.00000E+00
 -1       204 7.66500E+01 4.74020E+01 0.00000E+00
 -1       205 7.96500E+01 4.74020E+01 0.00000E+00
 -1       206 8.26500E+01 4.74020E+01 0.00000E+00
 -1       207 8.56500E+01 4.74020E+01 0.00000E+00
 -1       208 8.86500E+01 4.74020E+01 0.00000E+00
 -1       209 9.16500E+01 4.74020E+01 0.00000E+00
 -1       210 9.46500E+01 4.74020E+01 0.00000E+00
 -1       211 9.76500E+01 4.74020E+01 0.00000E+00
 -1       212 1.00650E+02 4.74020E+01 0.00000E+00
 -1       213 1.03650E+02 4.74020E+01 0.00000E+00
 -1       214 1.06650E+02 4.74020E+01 0.00000E+00
 -1       215 1.09650E+02 4.74020E+01 0.00000E+00
 -1       216 1.12650E+02 4.74020E+01 0.00000E+00
 -1       217 1.15650E+02 4.74020E+01 0.00000E+00
 -1       218 1.18650E+02 4.74020E+01 0.00000E+00
 -1       219 1.21650E+02 4.74020E+01 0.00000E+00
 -1       220 1.24650E+02 4.74020E+01 0.00000E+00
 -1       221 1.27650E+02 4.74020E+01 0.00000E+00
 -1       222 1.30650E+02 4.74020E+01 0.00000E+00
 -1       223 1.33650E+02 4.74020E+01 0.00000E+00
 -1       224 1.36650E+02 4.74020E+01 0.00000E+00
 -1       225 1.39650E+02 4.74020E+01 0.00000E+00
 -1       226 1.42650E+02 4.74020E+01 0.00000E+00
 -1       227 1.45650E+02 4.74020E+01 0.00000E+00
 -1       228 5.87400E+00 2.18750E+00 0.00000E+00
 -1       229 8.87400E+00 2.18750E+00 0.00000E+00
 -1       230 1.18740E+01 2.18750E+00 0.00000E+00
 -1       231 1.48740E+01 2.18750E+00 0.00000E+00
 -1       232 1.78740E+01 2.18750E+00 0.00000E+00
 -1       233 2.08740E+01 2.18750E+00 0.00000E+00
 -1       234 2.38740E+01 2.18750E+00 0.00000E+00
 -1       235 2.68740E+01 2.18750E+00 0.00000E+00
 -1       236 2.98740E+01 2.18750E+00 0.00000E+00
 -1       237 3.28740E+01 2.18750E+00 0.00000E+00
 -1       238 3.58740E+01 2.18750E+00 0.00000E+00
 -1       239 3.88740E+01 2.18750E+00 0.00000E+00
 -1       240 4.18740E+01 2.18750E+00 0.00000E+00
 -1       241 4.48740E+01 2.18750E+00 0.00000E+00
 -1       242 4.78740E+01 2.18750E+00 0.00000E+00
 -1       243 5.08740E+01 2.18750E+00 0.00000E+00
 -1       244 5.38740E+01 2.18750E+00 0.00000E+00
 -1       245 5.68740E+01 2.18750E+00 0.00000E+00
 -1       246 5.98740E+01 2.18750E+00 0.00000E+00
 -1       247 6.28740E+01 2.18750E+00 0.00000E+00
 -1       248 6.58740E+01 2.18750E+00 0.00000E+00
 -1       249 6.88740E+01 2.18750E+00 0.00000E+00
 -1       250 7.18740E+01 2.18750E+00 0.00000E+00
 -1       251 7.48740E+01 2.18750E+00 0.00000E+00
 -1       252 7.78740E+01 2.18750E+00 0.00000E+00
 -1       253 8.08740E+01 2.18750E+00 0.00000E+00
 -1       254 8.38740E+01 2.18750E+00 0.00000E+00
 -1       255 8.68740E+01 2.18750E+00 0.00000E+00
 -1       256 8.98740E+01 2.18750E+00 0.00000E+00
 -1       257 9.28740E+01 2.18750E+00 0.00000E+00
 -1       258 9.58740E+01 2.18750E+00 0.00000E+00
 -1       259 9.88740E+01 2.18750E+00 0.00000E+00
 -1       260 1.01874E+02 2.18750E+00 0.00000E+00
 -1       261 1.04874E+02 2.18750E+00 0.00000E+00
 -1       262 1.07874E+02 2.18750E+00 0.00000E+00
 -1       263 1.10874E+02 2.18750E+00 0.00000E+00
 -1       264 1.13874E+02 2.18750E+00 0.00000E+00
 -1       265 1.16874E+02 2.18750E+00 0.00000E+00
 -1       266 1.19874E+02 2.18750E+00 0.00000E+00
 -1       267 1.22874E+02 2.18750E+00 0.00000E+00
 -1       268 1.25874E+02 2.18750E+00 0.00000E+00
 -1       269 1.28874E+02 2.18750E+00 0.00000E+00
 -1       270 1.31874E+02 2.18750E+00 0.00000E+00
 -1       271 1.34874E+02 2.18750E+00 0.00000E+00
 -1       272 1.37874E+02 2.18750E+00 0.00000E+00
 -1       273 1.40874E+02 2.18750E+00 0.00000E+00
 -1       274 1.43874E+02 2.18750E+00 0.00000E+00
 -1       275 1.46874E+02 2.18750E+00 0.00000E+00
 -1       276 1.47402E+02 4.42500E+00 0.00000E+00
 -1       277 1.47402E+02 7.37500E+00 0.00000E+00
 -1       278 1.47402E+02 1.03250E+01 0.00000E+00
 -1       279 1.47402E+02 1.32750E+01 0.00000E+00
 -1       280 1.47402E+02 1.61750E+01 0.00000E+00
 -1       281 1.47402E+02 1.91250E+01 0.00000E+00
 -1       282 1.47402E+02 2.20750E+01 0.00000E+00
 -1       283 1.47402E+02 2.50250E+01 0.00000E+00
 -1       284 1.47402E+02 2.79750E+01 0.00000E+00
 -1       285 1.47402E+02 3.09250E+01 0.00000E+00
 -1       286 1.47402E+02 3.38250E+01 0.00000E+00
 -1       287 1.47402E+02 3.67750E+01 0.00000E+00
 -1       288 1.47402E+02 3.97250E+01 0.00000E+00
 -1       289 1.47402E+02 4.26750E+01 0.00000E+00
 -1       290 1.46526E+02 4.50385E+01 0.00000E+00
 -1       291 1.33619E+02 1.87337E+01 0.00000E+00
 -1       292 1.33184E+02 1.70819E+01 0.00000E+00
 -1       293 1.32515E+02 1.55758E+01 0.00000E+00
 -1       294 1.31718E+02 1.39226E+01 0.00000E+00
 -1       295 1.30235E+02 1.26252E+01 0.00000E+00
 -1       296 1.28457E+02 1.20384E+01 0.00000E+00
 -1       297 1.26801E+02 1.14029E+01 0.00000E+00
 -1       298 1.24960E+02 1.12157E+01 0.00000E+00
 -1       299 1.23211E+02 1.16651E+01 0.00000E+00
 -1       300 1.21534E+02 1.22422E+01 0.00000E+00
 -1       301 1.20100E+02 1.33024E+01 0.00000E+00
 -1       302 1.18965E+02 1.45976E+01 0.00000E+00
 -1       303 1.17808E+02 1.60131E+01 0.00000E+00
 -1       304 1.17443E+02 1.77979E+01 0.00000E+00
 -1       305 1.17075E+02 1.95196E+01 0.00000E+00
 -1       306 1.17394E+02 2.12315E+01 0.00000E+00
 -1       307 1.17829E+02 2.28875E+01 0.00000E+00
 -1       308 1.18742E+02 2.43525E+01 0.00000E+00
 -1       309 1.19824E+02 2.55949E+01 0.00000E+00
 -1       310 1.21141E+02 2.67805E+01 0.00000E+00
 -1       311 1.22867E+02 2.73904E+01 0.00000E+00
 -1       312 1.24563E+02 2.79199E+01 0.00000E+00
 -1       313 1.26360E+02 2.77389E+01 0.00000E+00
 -1       314 1.28163E+02 2.74032E+01 0.00000E+00
 -1       315 1.29753E+02 2.65486E+01 0.00000E+00
 -1       316 1.31303E+02 2.55139E+01 0.00000E+00
 -1       317 1.32339E+02 2.39610E+01 0.00000E+00
 -1       318 1.33106E+02 2.23754E+01 0.00000E+00
 -1       319 1.33604E+02 2.05885E+01 0.00000E+00
 -1       320 5.19600E+00 4.11500E+01 0.00000E+00
 -1       321 5.19600E+00 4.41000E+01 0.00000E+00
 -1       322 5.19600E+00 3.52750E+01 0.00000E+00
 -1       323 5.19600E+00 3.23250E+01 0.00000E+00
 -1       324 5.19600E+00 2.93750E+01 0.00000E+00
 -1       325 5.19600E+00 2.64250E+01 0.00000E+00
 -1       326 5.19600E+00 2.34750E+01 0.00000E+00
 -1       327 5.19600E+00 2.05250E+01 0.00000E+00
 -1       328 5.19600E+00 1.76250E+01 0.00000E+00
 -1       329 5.19600E+00 1.46750E+01 0.00000E+00
 -1       330 5.19600E+00 1.17250E+01 0.00000E+00
 -1       331 5.19600E+00 8.77500E+00 0.00000E+00
 -1       332 5.19600E+00 5.82500E+00 0.00000E+00
 -1       333 5.53500E+00 4.00625E+00 0.00000E+00
 -1       334 8.53500E+00 4.00625E+00 0.00000E+00
 -1       335 9.15000E+00 4.48040E+01 0.00000E+00
 -1       336 1.21500E+01 4.48040E+01 0.00000E+00
 -1       337 1.51500E+01 4.48040E+01 0.00000E+00
 -1       338 1.81500E+01 4.48040E+01 0.00000E+00
 -1       339 2.11500E+01 4.48040E+01 0.00000E+00
 -1       340 2.41500E+01 4.48040E+01 0.00000E+00
 -1       341 2.71500E+01 4.48040E+01 0.00000E+00
 -1       342 3.01500E+01 4.48040E+01 0.00000E+00
 -1       343 3.31500E+01 4.48040E+01 0.00000E+00
 -1       344 3.61500E+01 4.48040E+01 0.00000E+00
 -1       345 3.91500E+01 4.48040E+01 0.00000E+00
 -1       346 4.21500E+01 4.48040E+01 0.00000E+00
 -1       347 4.51500E+01 4.48040E+01 0.00000E+00
 -1       348 4.81500E+01 4.48040E+01 0.00000E+00
 -1       349 5.11500E+01 4.48040E+01 0.00000E+00
 -1       350 5.41500E+01 4.48040E+01 0.00000E+00
 -1       351 5.71500E+01 4.48040E+01 0.00000E+00
 -1       352 6.01500E+01 4.48040E+01 0.00000E+00
 -1       353 6.31500E+01 4.48040E+01 0.00000E+00
 -1       354 6.61500E+01 4.48040E+01 0.00000E+00
 -1       355 6.91500E+01 4.48040E+01 0.00000E+00
 -1       356 7.21500E+01 4.48040E+01 0.00000E+00
 -1       357 7.51500E+01 4.48040E+01 0.00000E+00
 -1       358 7.81500E+01 4.48040E+01 0.00000E+00
 -1       359 8.11500E+01 4.48040E+01 0.00000E+00
 -1       360 8.41500E+01 4.48040E+01 0.00000E+00
 -1       361 8.71500E+01 4.48040E+01 0.00000E+00
 -1       362 9.01500E+01 4.48040E+01 0.00000E+00
 -1       363 9.31500E+01 4.48040E+01 0.00000E+00
 -1       364 9.61500E+01 4.48040E+01 0.00000E+00
 -1       365 9.91500E+01 4.48040E+01 0.00000E+00
 -1       366 1.02150E+02 4.48040E+01 0.00000E+00
 -1       367 1.05150E+02 4.48040E+01 0.00000E+00
 -1       368 1.08150E+02 4.48040E+01 0.00000E+00
 -1       369 1.11150E+02 4.48040E+01 0.00000E+00
 -1       370 1.14150E+02 4.48040E+01 0.00000E+00
 -1       371 1.17150E+02 4.48040E+01 0.00000E+00
 -1       372 1.20150E+02 4.48040E+01 0.00000E+00
 -1       373 1.23150E+02 4.48040E+01 0.00000E+00
 -1       374 1.26150E+02 4.48040E+01 0.00000E+00
 -1       375 1.29150E+02 4.48040E+01 0.00000E+00
 -1       376 1.32150E+02 4.48040E+01 0.00000E+00
 -1       377 1.35150E+02 4.48040E+01 0.00000E+00
 -1       378 1.38150E+02 4.48040E+01 0.00000E+00
 -1       379 1.41150E+02 4.48040E+01 0.00000E+00
 -1       380 1.43838E+02 4.49212E+01 0.00000E+00
 -1       381 1.15350E+01 4.00625E+00 0.00000E+00
 -1       382 1.45350E+01 4.00625E+00 0.00000E+00
 -1       383 1.75350E+01 4.00625E+00 0.00000E+00
 -1       384 2.05350E+01 4.00625E+00 0.00000E+00
 -1       385 2.35350E+01 4.00625E+00 0.00000E+00
 -1       386 2.65350E+01 4.00625E+00 0.00000E+00
 -1       387 2.95350E+01 4.00625E+00 0.00000E+00
 -1       388 3.25350E+01 4.00625E+00 0.00000E+00
 -1       389 3.55350E+01 4.00625E+00 0.00000E+00
 -1       390 3.85350E+01 4.00625E+00 0.00000E+00
 -1       391 4.15350E+01 4.00625E+00 0.00000E+00
 -1       392 4.45350E+01 4.00625E+00 0.00000E+00
 -1       393 4.75350E+01 4.00625E+00 0.00000E+00
 -1       394 5.05350E+01 4.00625E+00 0.00000E+00
 -1       395 5.35350E+01 4.00625E+00 0.00000E+00
 -1       396 5.65350E+01 4.00625E+00 0.00000E+00
 -1       397 5.95350E+01 4.00625E+00 0.00000E+00
 -1       398 6.25350E+01 4.00625E+00 0.00000E+00
 -1       399 6.55350E+01 4.00625E+00 0.00000E+00
 -1       400 6.85350E+01 4.00625E+00 0.00000E+00
 -1       401 7.15350E+01 4.00625E+00 0.00000E+00
 -1       402 7.45350E+01 4.00625E+00 0.00000E+00
 -1       403 7.75350E+01 4.00625E+00 0.00000E+00
 -1       404 8.05350E+01 4.00625E+00 0.00000E+00
 -1       405 8.35350E+01 4.00625E+00 0.00000E+00
 -1       406 8.65350E+01 4.00625E+00 0.00000E+00
 -1       407 8.95350E+01 4.00625E+00 0.00000E+00
 -1       408 9.25350E+01 4.00625E+00 0.00000E+00
 -1       409 9.55350E+01 4.00625E+00 0.00000E+00
 -1       410 9.85350E+01 4.00625E+00 0.00000E+00
 -1       411 1.01535E+02 4.00625E+00 0.00000E+00
 -1       412 1.04535E+02 4.00625E+00 0.00000E+00
 -1       413 1.07535E+02 4.00625E+00 0.00000E+00
 -1       414 1.10535E+02 4.00625E+00 0.00000E+00
 -1       415 1.13535E+02 4.00625E+00 0.00000E+00
 -1       416 1.16535E+02 4.00625E+00 0.00000E+00
 -1       417 1.19535E+02 4.00625E+00 0.00000E+00
 -1       418 1.22535E+02 4.00625E+00 0.00000E+00
 -1       419 1.25535E+02 4.00625E+00 0.00000E+00
 -1       420 1.28535E+02 4.00625E+00 0.00000E+00
 -1       421 1.31535E+02 4.00625E+00 0.00000E+00
 -1       422 1.34535E+02 4.00625E+00 0.00000E+00
 -1       423 1.37535E+02 4.00625E+00 0.00000E+00
 -1       424 1.40535E+02 4.00625E+00 0.00000E+00
 -1       425 1.43535E+02 4.00625E+00 0.00000E+00
 -1       426 1.45469E+02 4.21562E+00 0.00000E+00
 -1       427 1.44804E+02 1.18000E+01 0.00000E+00
 -1       428 1.44804E+02 8.85000E+00 0.00000E+00
 -1       429 1.45136E+02 6.53281E+00 0.00000E+00
 -1       430 1.44804E+02 1.47000E+01 0.00000E+00
 -1       431 1.44804E+02 1.76500E+01 0.00000E+00
 -1       432 1.44804E+02 2.06000E+01 0.00000E+00
 -1       433 1.44804E+02 2.35500E+01 0.00000E+00
 -1       434 1.44804E+02 2.65000E+01 0.00000E+00
 -1       435 1.44804E+02 2.94500E+01 0.00000E+00
 -1       436 1.44804E+02 3.23500E+01 0.00000E+00
 -1       437 1.44804E+02 3.53000E+01 0.00000E+00
 -1       438 1.44804E+02 3.82500E+01 0.00000E+00
 -1       439 1.44804E+02 4.12000E+01 0.00000E+00
 -1       440 1.34111E+02 1.57688E+01 0.00000E+00
 -1       441 1.35243E+02 1.96748E+01 0.00000E+00
 -1       442 1.34655E+02 1.75778E+01 0.00000E+00
 -1       443 1.33359E+02 1.41494E+01 0.00000E+00
 -1       444 1.31885E+02 1.22353E+01 0.00000E+00
 -1       445 5.19600E+00 3.82125E+01 0.00000E+00
 -1       446 1.28184E+02 1.02758E+01 0.00000E+00
 -1       447 1.26046E+02 9.68633E+00 0.00000E+00
 -1       448 1.23742E+02 1.01038E+01 0.00000E+00
 -1       449 1.21896E+02 1.05696E+01 0.00000E+00
 -1       450 1.19897E+02 1.15281E+01 0.00000E+00
 -1       451 1.18495E+02 1.30404E+01 0.00000E+00
 -1       452 1.17338E+02 1.44559E+01 0.00000E+00
 -1       453 1.16110E+02 1.65952E+01 0.00000E+00
 -1       454 1.15741E+02 1.83169E+01 0.00000E+00
 -1       455 1.15713E+02 2.06596E+01 0.00000E+00
 -1       456 1.16148E+02 2.23156E+01 0.00000E+00
 -1       457 1.17115E+02 2.43500E+01 0.00000E+00
 -1       458 1.18116E+02 2.59898E+01 0.00000E+00
 -1       459 1.19433E+02 2.71755E+01 0.00000E+00
 -1       460 1.21321E+02 2.90185E+01 0.00000E+00
 -1       461 1.23017E+02 2.95480E+01 0.00000E+00
 -1       462 1.25600E+02 2.92024E+01 0.00000E+00
 -1       463 1.27544E+02 2.90925E+01 0.00000E+00
 -1       464 1.29651E+02 2.82652E+01 0.00000E+00
 -1       465 1.31201E+02 2.72305E+01 0.00000E+00
 -1       466 1.32969E+02 2.55030E+01 0.00000E+00
 -1       467 1.33964E+02 2.37691E+01 0.00000E+00
 -1       468 1.34765E+02 2.18748E+01 0.00000E+00
 -1       469 1.29961E+02 1.08627E+01 0.00000E+00
 -1       470 1.33527E+02 1.24622E+01 0.00000E+00
 -1       471 1.32867E+02 2.72197E+01 0.00000E+00
 -1       472 1.15640E+02 1.50380E+01 0.00000E+00
 -1       473 1.00350E+01 6.60425E+00 0.00000E+00
 -1       474 7.79400E+00 3.08500E+01 0.00000E+00
 -1       475 7.79400E+00 3.38000E+01 0.00000E+00
 -1       476 7.79400E+00 2.49500E+01 0.00000E+00
 -1       477 7.79400E+00 2.20000E+01 0.00000E+00
 -1       478 7.79400E+00 1.91000E+01 0.00000E+00
 -1       479 7.79400E+00 1.61500E+01 0.00000E+00
 -1       480 7.79400E+00 1.32000E+01 0.00000E+00
 -1       481 7.79400E+00 1.02500E+01 0.00000E+00
 -1       482 1.30350E+01 6.60425E+00 0.00000E+00
 -1       483 1.06500E+01 4.22060E+01 0.00000E+00
 -1       484 1.31822E+02 1.02892E+01 0.00000E+00
 -1       485 1.36500E+01 4.22060E+01 0.00000E+00
 -1       486 1.66500E+01 4.22060E+01 0.00000E+00
 -1       487 1.96500E+01 4.22060E+01 0.00000E+00
 -1       488 2.26500E+01 4.22060E+01 0.00000E+00
 -1       489 2.56500E+01 4.22060E+01 0.00000E+00
 -1       490 2.86500E+01 4.22060E+01 0.00000E+00
 -1       491 3.16500E+01 4.22060E+01 0.00000E+00
 -1       492 3.46500E+01 4.22060E+01 0.00000E+00
 -1       493 3.76500E+01 4.22060E+01 0.00000E+00
 -1       494 4.06500E+01 4.22060E+01 0.00000E+00
 -1       495 4.36500E+01 4.22060E+01 0.00000E+00
 -1       496 4.66500E+01 4.22060E+01 0.00000E+00
 -1       497 4.96500E+01 4.22060E+01 0.00000E+00
 -1       498 5.26500E+01 4.22060E+01 0.00000E+00
 -1       499 5.56500E+01 4.22060E+01 0.00000E+00
 -1       500 5.86500E+01 4.22060E+01 0.00000E+00
 -1       501 6.16500E+01 4.22060E+01 0.00000E+00
 -1       502 6.46500E+01 4.22060E+01 0.00000E+00
 -1       503 6.76500E+01 4.22060E+01 0.00000E+00
 -1       504 7.06500E+01 4.22060E+01 0.00000E+00
 -1       505 7.36500E+01 4.22060E+01 0.00000E+00
 -1       506 7.66500E+01 4.22060E+01 0.00000E+00
 -1       507 7.96500E+01 4.22060E+01 0.00000E+00
 -1       508 8.26500E+01 4.22060E+01 0.00000E+00
 -1       509 8.56500E+01 4.22060E+01 0.00000E+00
 -1       510 8.86500E+01 4.22060E+01 0.00000E+00
 -1       511 9.16500E+01 4.22060E+01 0.00000E+00
 -1       512 9.46500E+01 4.22060E+01 0.00000E+00
 -1       513 9.76500E+01 4.22060E+01 0.00000E+00
 -1       514 1.00650E+02 4.22060E+01 0.00000E+00
 -1       515 1.03650E+02 4.22060E+01 0.00000E+00
 -1       516 1.06650E+02 4.22060E+01 0.00000E+00
 -1       517 1.09650E+02 4.22060E+01 0.00000E+00
 -1       518 1.12650E+02 4.22060E+01 0.00000E+00
 -1       519 1.15650E+02 4.22060E+01 0.00000E+00
 -1       520 1.18650E+02 4.22060E+01 0.00000E+00
 -1       521 1.21650E+02 4.22060E+01 0.00000E+00
 -1       522 1.24650E+02 4.22060E+01 0.00000E+00
 -1       523 1.27650E+02 4.22060E+01 0.00000E+00
 -1       524 1.30650E+02 4.22060E+01 0.00000E+00
 -1       525 1.33650E+02 4.22060E+01 0.00000E+00
 -1       526 1.36650E+02 4.22060E+01 0.00000E+00
 -1       527 1.39650E+02 4.22060E+01 0.00000E+00
 -1       528 1.90350E+01 6.60425E+00 0.00000E+00
 -1       529 2.20350E+01 6.60425E+00 0.00000E+00
 -1       530 2.50350E+01 6.60425E+00 0.00000E+00
 -1       531 2.80350E+01 6.60425E+00 0.00000E+00
 -1       532 3.10350E+01 6.60425E+00 0.00000E+00
 -1       533 3.40350E+01 6.60425E+00 0.00000E+00
 -1       534 3.70350E+01 6.60425E+00 0.00000E+00
 -1       535 4.00350E+01 6.60425E+00 0.00000E+00
 -1       536 4.30350E+01 6.60425E+00 0.00000E+00
 -1       537 4.60350E+01 6.60425E+00 0.00000E+00
 -1       538 4.90350E+01 6.60425E+00 0.00000E+00
 -1       539 5.20350E+01 6.60425E+00 0.00000E+00
 -1       540 5.50350E+01 6.60425E+00 0.00000E+00
 -1       541 5.80350E+01 6.60425E+00 0.00000E+00
 -1       542 6.10350E+01 6.60425E+00 0.00000E+00
 -1       543 6.40350E+01 6.60425E+00 0.00000E+00
 -1       544 6.70350E+01 6.60425E+00 0.00000E+00
 -1       545 7.00350E+01 6.60425E+00 0.00000E+00
 -1       546 7.30350E+01 6.60425E+00 0.00000E+00
 -1       547 7.60350E+01 6.60425E+00 0.00000E+00
 -1       548 7.90350E+01 6.60425E+00 0.00000E+00
 -1       549 8.20350E+01 6.60425E+00 0.00000E+00
 -1       550 8.50350E+01 6.60425E+00 0.00000E+00
 -1       551 8.80350E+01 6.60425E+00 0.00000E+00
 -1       552 9.10350E+01 6.60425E+00 0.00000E+00
 -1       553 9.40350E+01 6.60425E+00 0.00000E+00
 -1       554 9.70350E+01 6.60425E+00 0.00000E+00
 -1       555 1.00035E+02 6.60425E+00 0.00000E+00
 -1       556 1.03035E+02 6.60425E+00 0.00000E+00
 -1       557 1.06035E+02 6.60425E+00 0.00000E+00
 -1       558 1.09035E+02 6.60425E+00 0.00000E+00
 -1       559 1.12035E+02 6.60425E+00 0.00000E+00
 -1       560 1.15035E+02 6.60425E+00 0.00000E+00
 -1       561 1.18035E+02 6.60425E+00 0.00000E+00
 -1       562 1.21035E+02 6.60425E+00 0.00000E+00
 -1       563 1.24035E+02 6.60425E+00 0.00000E+00
 -1       564 1.27035E+02 6.60425E+00 0.00000E+00
 -1       565 1.30035E+02 6.60425E+00 0.00000E+00
 -1       566 1.33035E+02 6.60425E+00 0.00000E+00
 -1       567 1.36035E+02 6.60425E+00 0.00000E+00
 -1       568 1.39035E+02 6.60425E+00 0.00000E+00
 -1       569 1.42035E+02 6.60425E+00 0.00000E+00
 -1       570 1.42206E+02 1.61750E+01 0.00000E+00
 -1       571 1.42206E+02 1.91250E+01 0.00000E+00
 -1       572 1.42206E+02 1.03250E+01 0.00000E+00
 -1       573 1.42206E+02 1.32500E+01 0.00000E+00
 -1       574 1.42206E+02 2.20750E+01 0.00000E+00
 -1       575 1.42206E+02 2.50250E+01 0.00000E+00
 -1       576 1.42206E+02 2.79750E+01 0.00000E+00
 -1       577 1.42206E+02 3.08750E+01 0.00000E+00
 -1       578 1.42206E+02 3.38250E+01 0.00000E+00
 -1       579 1.42206E+02 3.67750E+01 0.00000E+00
 -1       580 1.42206E+02 3.97250E+01 0.00000E+00
 -1       581 1.36600E+02 1.81636E+01 0.00000E+00
 -1       582 1.35291E+02 1.42370E+01 0.00000E+00
 -1       583 1.60350E+01 6.60425E+00 0.00000E+00
 -1       584 1.37007E+02 2.12101E+01 0.00000E+00
 -1       585 1.36056E+02 1.63547E+01 0.00000E+00
 -1       586 1.29663E+02 8.78148E+00 0.00000E+00
 -1       587 1.35944E+02 2.34894E+01 0.00000E+00
 -1       588 1.29225E+02 3.02752E+01 0.00000E+00
 -1       589 1.15233E+02 2.39970E+01 0.00000E+00
 -1       590 1.18061E+02 1.12321E+01 0.00000E+00
 -1       591 7.79400E+00 2.79000E+01 0.00000E+00
 -1       592 1.24588E+02 8.20746E+00 0.00000E+00
 -1       593 1.16223E+02 2.60201E+01 0.00000E+00
 -1       594 1.27125E+02 8.49447E+00 0.00000E+00
 -1       595 1.22742E+02 8.67321E+00 0.00000E+00
 -1       596 1.20010E+02 9.20008E+00 0.00000E+00
 -1       597 1.16718E+02 1.27689E+01 0.00000E+00
 -1       598 1.14248E+02 1.70972E+01 0.00000E+00
 -1       599 1.13845E+02 1.94658E+01 0.00000E+00
 -1       600 1.14515E+02 2.18591E+01 0.00000E+00
 -1       601 1.26678E+02 3.10271E+01 0.00000E+00
 -1       602 1.17515E+02 2.79820E+01 0.00000E+00
 -1       603 1.19403E+02 2.98251E+01 0.00000E+00
 -1       604 1.21658E+02 3.09204E+01 0.00000E+00
 -1       605 1.34736E+02 2.53648E+01 0.00000E+00
 -1       606 1.24096E+02 3.13727E+01 0.00000E+00
 -1       607 1.31356E+02 2.91417E+01 0.00000E+00
 -1       608 7.92300E+00 4.16780E+01 0.00000E+00
 -1       609 7.61550E+00 6.21462E+00 0.00000E+00
 -1       610 7.79400E+00 3.67375E+01 0.00000E+00
 -1       611 1.33464E+02 1.05161E+01 0.00000E+00
 -1       612 1.34634E+02 2.70814E+01 0.00000E+00
 -1       613 1.41678E+02 4.22645E+01 0.00000E+00
 -1       614 1.03920E+01 2.05500E+01 0.00000E+00
 -1       615 1.03920E+01 2.35000E+01 0.00000E+00
 -1       616 1.03920E+01 1.46750E+01 0.00000E+00
 -1       617 1.03920E+01 1.17250E+01 0.00000E+00
 -1       618 1.15350E+01 9.20225E+00 0.00000E+00
 -1       619 1.25659E+02 3.32320E+01 0.00000E+00
 -1       620 1.51500E+01 3.96080E+01 0.00000E+00
 -1       621 1.81500E+01 3.96080E+01 0.00000E+00
 -1       622 2.11500E+01 3.96080E+01 0.00000E+00
 -1       623 2.41500E+01 3.96080E+01 0.00000E+00
 -1       624 2.71500E+01 3.96080E+01 0.00000E+00
 -1       625 3.01500E+01 3.96080E+01 0.00000E+00
 -1       626 3.31500E+01 3.96080E+01 0.00000E+00
 -1       627 3.61500E+01 3.96080E+01 0.00000E+00
 -1       628 3.91500E+01 3.96080E+01 0.00000E+00
 -1       629 4.21500E+01 3.96080E+01 0.00000E+00
 -1       630 4.51500E+01 3.96080E+01 0.00000E+00
 -1       631 4.81500E+01 3.96080E+01 0.00000E+00
 -1       632 5.11500E+01 3.96080E+01 0.00000E+00
 -1       633 5.41500E+01 3.96080E+01 0.00000E+00
 -1       634 5.71500E+01 3.96080E+01 0.00000E+00
 -1       635 6.01500E+01 3.96080E+01 0.00000E+00
 -1       636 6.31500E+01 3.96080E+01 0.00000E+00
 -1       637 6.61500E+01 3.96080E+01 0.00000E+00
 -1       638 6.91500E+01 3.96080E+01 0.00000E+00
 -1       639 7.21500E+01 3.96080E+01 0.00000E+00
 -1       640 7.51500E+01 3.96080E+01 0.00000E+00
 -1       641 7.81500E+01 3.96080E+01 0.00000E+00
 -1       642 8.11500E+01 3.96080E+01 0.00000E+00
 -1       643 8.41500E+01 3.96080E+01 0.00000E+00
 -1       644 8.71500E+01 3.96080E+01 0.00000E+00
 -1       645 9.01500E+01 3.96080E+01 0.00000E+00
 -1       646 9.31500E+01 3.96080E+01 0.00000E+00
 -1       647 9.61500E+01 3.96080E+01 0.00000E+00
 -1       648 9.91500E+01 3.96080E+01 0.00000E+00
 -1       649 1.02150E+02 3.96080E+01 0.00000E+00
 -1       650 1.05150E+02 3.96080E+01 0.00000E+00
 -1       651 1.08150E+02 3.96080E+01 0.00000E+00
 -1       652 1.11150E+02 3.96080E+01 0.00000E+00
 -1       653 1.14150E+02 3.96080E+01 0.00000E+00
 -1       654 1.17150E+02 3.96080E+01 0.00000E+00
 -1       655 1.20150E+02 3.96080E+01 0.00000E+00
 -1       656 1.23150E+02 3.96080E+01 0.00000E+00
 -1       657 1.26150E+02 3.96080E+01 0.00000E+00
 -1       658 1.29150E+02 3.96080E+01 0.00000E+00
 -1       659 1.32150E+02 3.96080E+01 0.00000E+00
 -1       660 1.35150E+02 3.96080E+01 0.00000E+00
 -1       661 1.38150E+02 3.96080E+01 0.00000E+00
 -1       662 2.35350E+01 9.20225E+00 0.00000E+00
 -1       663 1.39206E+02 1.03250E+01 0.00000E+00
 -1       664 2.05350E+01 9.20225E+00 0.00000E+00
 -1       665 2.95350E+01 9.20225E+00 0.00000E+00
 -1       666 3.25350E+01 9.20225E+00 0.00000E+00
 -1       667 3.55350E+01 9.20225E+00 0.00000E+00
 -1       668 3.85350E+01 9.20225E+00 0.00000E+00
 -1       669 4.15350E+01 9.20225E+00 0.00000E+00
 -1       670 4.45350E+01 9.20225E+00 0.00000E+00
 -1       671 4.75350E+01 9.20225E+00 0.00000E+00
 -1       672 5.05350E+01 9.20225E+00 0.00000E+00
 -1       673 5.35350E+01 9.20225E+00 0.00000E+00
 -1       674 5.65350E+01 9.20225E+00 0.00000E+00
 -1       675 5.95350E+01 9.20225E+00 0.00000E+00
 -1       676 6.25350E+01 9.20225E+00 0.00000E+00
 -1       677 6.55350E+01 9.20225E+00 0.00000E+00
 -1       678 6.85350E+01 9.20225E+00 0.00000E+00
 -1       679 7.15350E+01 9.20225E+00 0.00000E+00
 -1       680 7.45350E+01 9.20225E+00 0.00000E+00
 -1       681 7.75350E+01 9.20225E+00 0.00000E+00
 -1       682 8.05350E+01 9.20225E+00 0.00000E+00
 -1       683 8.35350E+01 9.20225E+00 0.00000E+00
 -1       684 8.65350E+01 9.20225E+00 0.00000E+00
 -1       685 8.95350E+01 9.20225E+00 0.00000E+00
 -1       686 9.25350E+01 9.20225E+00 0.00000E+00
 -1       687 9.55350E+01 9.20225E+00 0.00000E+00
 -1       688 9.85350E+01 9.20225E+00 0.00000E+00
 -1       689 1.01535E+02 9.20225E+00 0.00000E+00
 -1       690 1.04535E+02 9.20225E+00 0.00000E+00
 -1       691 1.07535E+02 9.20225E+00 0.00000E+00
 -1       692 1.10535E+02 9.20225E+00 0.00000E+00
 -1       693 1.13535E+02 9.20225E+00 0.00000E+00
 -1       694 1.34535E+02 8.82207E+00 0.00000E+00
 -1       695 1.36870E+02 9.57354E+00 0.00000E+00
 -1       696 1.39608E+02 2.35500E+01 0.00000E+00
 -1       697 1.40178E+02 3.96665E+01 0.00000E+00
 -1       698 1.40156E+02 1.76500E+01 0.00000E+00
 -1       699 1.39608E+02 2.65000E+01 0.00000E+00
 -1       700 1.39608E+02 2.06000E+01 0.00000E+00
 -1       701 1.38030E+02 2.30745E+01 0.00000E+00
 -1       702 1.39608E+02 2.94000E+01 0.00000E+00
 -1       703 1.39608E+02 3.23500E+01 0.00000E+00
 -1       704 1.39608E+02 3.53000E+01 0.00000E+00
 -1       705 1.37135E+02 2.00095E+01 0.00000E+00
 -1       706 1.12528E+02 2.11248E+01 0.00000E+00
 -1       707 1.38131E+02 1.67169E+01 0.00000E+00
 -1       708 1.19708E+02 3.20662E+01 0.00000E+00
 -1       709 1.13328E+02 2.34478E+01 0.00000E+00
 -1       710 1.31749E+02 8.56017E+00 0.00000E+00
 -1       711 1.28485E+02 3.24568E+01 0.00000E+00
 -1       712 1.75350E+01 9.20225E+00 0.00000E+00
 -1       713 2.65350E+01 9.20225E+00 0.00000E+00
 -1       714 1.21500E+01 3.96080E+01 0.00000E+00
 -1       715 1.45350E+01 9.20225E+00 0.00000E+00
 -1       716 1.36712E+02 2.53106E+01 0.00000E+00
 -1       717 1.37366E+02 1.45992E+01 0.00000E+00
 -1       718 1.03920E+01 1.76125E+01 0.00000E+00
 -1       719 1.31174E+02 3.13707E+01 0.00000E+00
 -1       720 1.13245E+02 1.49198E+01 0.00000E+00
 -1       721 1.13886E+02 2.59094E+01 0.00000E+00
 -1       722 1.15157E+02 2.81287E+01 0.00000E+00
 -1       723 1.22472E+02 3.33272E+01 0.00000E+00
 -1       724 1.12356E+02 1.79935E+01 0.00000E+00
 -1       725 1.03920E+01 3.23250E+01 0.00000E+00
 -1       726 1.14324E+02 1.26507E+01 0.00000E+00
 -1       727 1.17027E+02 3.03705E+01 0.00000E+00
 -1       728 1.15667E+02 1.11139E+01 0.00000E+00
 -1       729 1.33592E+02 2.93441E+01 0.00000E+00
 -1       730 1.35744E+02 1.20223E+01 0.00000E+00
 -1       731 1.16548E+02 8.91817E+00 0.00000E+00
 -1       732 1.03920E+01 2.64500E+01 0.00000E+00
 -1       733 1.03920E+01 3.52625E+01 0.00000E+00
 -1       734 1.39984E+02 1.52482E+01 0.00000E+00
 -1       735 1.38676E+02 1.85628E+01 0.00000E+00
 -1       736 1.11039E+02 1.96524E+01 0.00000E+00
 -1       737 1.38353E+02 2.08186E+01 0.00000E+00
 -1       738 1.36610E+02 2.70272E+01 0.00000E+00
 -1       739 1.03920E+01 2.93875E+01 0.00000E+00
 -1       740 1.11353E+02 1.58160E+01 0.00000E+00
 -1       741 1.05210E+01 3.87342E+01 0.00000E+00
 -1       742 1.38879E+02 3.74540E+01 0.00000E+00
 -1       743 1.29900E+01 1.32000E+01 0.00000E+00
 -1       744 1.66500E+01 3.70100E+01 0.00000E+00
 -1       745 1.96500E+01 3.70100E+01 0.00000E+00
 -1       746 2.26500E+01 3.70100E+01 0.00000E+00
 -1       747 2.56500E+01 3.70100E+01 0.00000E+00
 -1       748 2.86500E+01 3.70100E+01 0.00000E+00
 -1       749 3.16500E+01 3.70100E+01 0.00000E+00
 -1       750 3.46500E+01 3.70100E+01 0.00000E+00
 -1       751 3.76500E+01 3.70100E+01 0.00000E+00
 -1       752 4.06500E+01 3.70100E+01 0.00000E+00
 -1       753 4.36500E+01 3.70100E+01 0.00000E+00
 -1       754 4.66500E+01 3.70100E+01 0.00000E+00
 -1       755 4.96500E+01 3.70100E+01 0.00000E+00
 -1       756 5.26500E+01 3.70100E+01 0.00000E+00
 -1       757 5.56500E+01 3.70100E+01 0.00000E+00
 -1       758 5.86500E+01 3.70100E+01 0.00000E+00
 -1       759 6.16500E+01 3.70100E+01 0.00000E+00
 -1       760 6.46500E+01 3.70100E+01 0.00000E+00
 -1       761 6.76500E+01 3.70100E+01 0.00000E+00
 -1       762 7.06500E+01 3.70100E+01 0.00000E+00
 -1       763 7.36500E+01 3.70100E+01 0.00000E+00
 -1       764 7.66500E+01 3.70100E+01 0.00000E+00
 -1       765 7.96500E+01 3.70100E+01 0.00000E+00
 -1       766 8.26500E+01 3.70100E+01 0.00000E+00
 -1       767 8.56500E+01 3.70100E+01 0.00000E+00
 -1       768 8.86500E+01 3.70100E+01 0.00000E+00
 -1       769 9.16500E+01 3.70100E+01 0.00000E+00
 -1       770 9.46500E+01 3.70100E+01 0.00000E+00
 -1       771 9.76500E+01 3.70100E+01 0.00000E+00
 -1       772 1.00650E+02 3.70100E+01 0.00000E+00
 -1       773 1.03650E+02 3.70100E+01 0.00000E+00
 -1       774 1.06650E+02 3.70100E+01 0.00000E+00
 -1       775 1.09650E+02 3.70100E+01 0.00000E+00
 -1       776 1.12650E+02 3.70100E+01 0.00000E+00
 -1       777 1.15650E+02 3.70100E+01 0.00000E+00
 -1       778 1.18650E+02 3.70100E+01 0.00000E+00
 -1       779 1.21650E+02 3.70100E+01 0.00000E+00
 -1       780 1.24650E+02 3.70100E+01 0.00000E+00
 -1       781 1.27650E+02 3.70100E+01 0.00000E+00
 -1       782 1.30650E+02 3.70100E+01 0.00000E+00
 -1       783 1.33650E+02 3.70100E+01 0.00000E+00
 -1       784 1.36264E+02 3.72320E+01 0.00000E+00
 -1       785 2.20350E+01 1.18003E+01 0.00000E+00
 -1       786 3.40350E+01 1.18003E+01 0.00000E+00
 -1       787 3.10350E+01 1.18003E+01 0.00000E+00
 -1       788 4.00350E+01 1.18003E+01 0.00000E+00
 -1       789 4.30350E+01 1.18003E+01 0.00000E+00
 -1       790 4.60350E+01 1.18003E+01 0.00000E+00
 -1       791 4.90350E+01 1.18003E+01 0.00000E+00
 -1       792 5.20350E+01 1.18003E+01 0.00000E+00
 -1       793 5.50350E+01 1.18003E+01 0.00000E+00
 -1       794 5.80350E+01 1.18003E+01 0.00000E+00
 -1       795 6.10350E+01 1.18003E+01 0.00000E+00
 -1       796 6.40350E+01 1.18003E+01 0.00000E+00
 -1       797 6.70350E+01 1.18003E+01 0.00000E+00
 -1       798 7.00350E+01 1.18003E+01 0.00000E+00
 -1       799 7.30350E+01 1.18003E+01 0.00000E+00
 -1       800 7.60350E+01 1.18003E+01 0.00000E+00
 -1       801 7.90350E+01 1.18003E+01 0.00000E+00
 -1       802 8.20350E+01 1.18003E+01 0.00000E+00
 -1       803 8.50350E+01 1.18003E+01 0.00000E+00
 -1       804 8.80350E+01 1.18003E+01 0.00000E+00
 -1       805 9.10350E+01 1.18003E+01 0.00000E+00
 -1       806 9.40350E+01 1.18003E+01 0.00000E+00
 -1       807 9.70350E+01 1.18003E+01 0.00000E+00
 -1       808 1.00035E+02 1.18003E+01 0.00000E+00
 -1       809 1.03035E+02 1.18003E+01 0.00000E+00
 -1       810 1.06035E+02 1.18003E+01 0.00000E+00
 -1       811 1.09035E+02 1.18003E+01 0.00000E+00
 -1       812 1.37010E+02 3.38250E+01 0.00000E+00
 -1       813 1.37010E+02 3.08750E+01 0.00000E+00
 -1       814 1.36500E+01 3.70100E+01 0.00000E+00
 -1       815 1.29900E+01 2.20250E+01 0.00000E+00
 -1       816 1.12084E+02 1.29769E+01 0.00000E+00
 -1       817 1.90350E+01 1.18003E+01 0.00000E+00
 -1       818 1.33808E+02 3.20570E+01 0.00000E+00
 -1       819 1.14389E+02 3.06702E+01 0.00000E+00
 -1       820 1.10831E+02 2.30081E+01 0.00000E+00
 -1       821 3.70350E+01 1.18003E+01 0.00000E+00
 -1       822 1.17182E+02 3.30927E+01 0.00000E+00
 -1       823 1.11390E+02 2.54697E+01 0.00000E+00
 -1       824 1.20169E+02 3.47145E+01 0.00000E+00
 -1       825 1.35567E+02 2.92899E+01 0.00000E+00
 -1       826 1.27614E+02 3.48216E+01 0.00000E+00
 -1       827 1.30785E+02 3.42810E+01 0.00000E+00
 -1       828 1.20210E+01 3.61362E+01 0.00000E+00
 -1       829 1.37625E+01 1.12011E+01 0.00000E+00
 -1       830 1.12597E+02 2.81208E+01 0.00000E+00
 -1       831 1.12429E+02 1.09265E+01 0.00000E+00
 -1       832 1.29900E+01 2.49750E+01 0.00000E+00
 -1       833 1.20210E+01 3.31987E+01 0.00000E+00
 -1       834 2.80350E+01 1.18003E+01 0.00000E+00
 -1       835 1.29900E+01 1.61375E+01 0.00000E+00
 -1       836 2.50350E+01 1.18003E+01 0.00000E+00
 -1       837 1.29900E+01 1.90875E+01 0.00000E+00
 -1       838 1.36637E+02 3.55285E+01 0.00000E+00
 -1       839 1.09342E+02 2.15358E+01 0.00000E+00
 -1       840 1.20210E+01 3.02612E+01 0.00000E+00
 -1       841 1.63988E+01 1.15007E+01 0.00000E+00
 -1       842 1.10036E+02 1.74750E+01 0.00000E+00
 -1       843 1.08621E+02 2.48039E+01 0.00000E+00
 -1       844 2.11500E+01 3.44120E+01 0.00000E+00
 -1       845 2.41500E+01 3.44120E+01 0.00000E+00
 -1       846 2.71500E+01 3.44120E+01 0.00000E+00
 -1       847 3.01500E+01 3.44120E+01 0.00000E+00
 -1       848 3.31500E+01 3.44120E+01 0.00000E+00
 -1       849 3.61500E+01 3.44120E+01 0.00000E+00
 -1       850 3.91500E+01 3.44120E+01 0.00000E+00
 -1       851 4.21500E+01 3.44120E+01 0.00000E+00
 -1       852 4.51500E+01 3.44120E+01 0.00000E+00
 -1       853 4.81500E+01 3.44120E+01 0.00000E+00
 -1       854 5.11500E+01 3.44120E+01 0.00000E+00
 -1       855 5.41500E+01 3.44120E+01 0.00000E+00
 -1       856 5.71500E+01 3.44120E+01 0.00000E+00
 -1       857 6.01500E+01 3.44120E+01 0.00000E+00
 -1       858 6.31500E+01 3.44120E+01 0.00000E+00
 -1       859 6.61500E+01 3.44120E+01 0.00000E+00
 -1       860 6.91500E+01 3.44120E+01 0.00000E+00
 -1       861 7.21500E+01 3.44120E+01 0.00000E+00
 -1       862 7.51500E+01 3.44120E+01 0.00000E+00
 -1       863 7.81500E+01 3.44120E+01 0.00000E+00
 -1       864 8.11500E+01 3.44120E+01 0.00000E+00
 -1       865 8.41500E+01 3.44120E+01 0.00000E+00
 -1       866 8.71500E+01 3.44120E+01 0.00000E+00
 -1       867 9.01500E+01 3.44120E+01 0.00000E+00
 -1       868 9.31500E+01 3.44120E+01 0.00000E+00
 -1       869 9.61500E+01 3.44120E+01 0.00000E+00
 -1       870 9.91500E+01 3.44120E+01 0.00000E+00
 -1       871 1.02150E+02 3.44120E+01 0.00000E+00
 -1       872 1.05150E+02 3.44120E+01 0.00000E+00
 -1       873 1.08150E+02 3.44120E+01 0.00000E+00
 -1       874 1.11150E+02 3.44120E+01 0.00000E+00
 -1       875 1.14150E+02 3.44120E+01 0.00000E+00
 -1       876 4.45350E+01 1.43982E+01 0.00000E+00
 -1       877 4.15350E+01 1.43982E+01 0.00000E+00
 -1       878 5.05350E+01 1.43982E+01 0.00000E+00
 -1       879 5.35350E+01 1.43982E+01 0.00000E+00
 -1       880 5.65350E+01 1.43982E+01 0.00000E+00
 -1       881 5.95350E+01 1.43982E+01 0.00000E+00
 -1       882 6.25350E+01 1.43982E+01 0.00000E+00
 -1       883 6.55350E+01 1.43982E+01 0.00000E+00
 -1       884 6.85350E+01 1.43982E+01 0.00000E+00
 -1       885 7.15350E+01 1.43982E+01 0.00000E+00
 -1       886 7.45350E+01 1.43982E+01 0.00000E+00
 -1       887 7.75350E+01 1.43982E+01 0.00000E+00
 -1       888 8.05350E+01 1.43982E+01 0.00000E+00
 -1       889 8.35350E+01 1.43982E+01 0.00000E+00
 -1       890 8.65350E+01 1.43982E+01 0.00000E+00
 -1       891 8.95350E+01 1.43982E+01 0.00000E+00
 -1       892 9.25350E+01 1.43982E+01 0.00000E+00
 -1       893 9.55350E+01 1.43982E+01 0.00000E+00
 -1       894 9.85350E+01 1.43982E+01 0.00000E+00
 -1       895 1.01535E+02 1.43982E+01 0.00000E+00
 -1       896 1.04535E+02 1.43982E+01 0.00000E+00
 -1       897 1.07535E+02 1.43982E+01 0.00000E+00
 -1       898 1.36500E+01 3.40725E+01 0.00000E+00
 -1       899 1.09444E+02 1.51071E+01 0.00000E+00
 -1       900 2.35350E+01 1.43982E+01 0.00000E+00
 -1       901 2.05350E+01 1.43982E+01 0.00000E+00
 -1       902 1.25055E+01 2.76181E+01 0.00000E+00
 -1       903 1.09822E+02 2.77838E+01 0.00000E+00
 -1       904 1.11541E+02 3.07671E+01 0.00000E+00
 -1       905 3.25350E+01 1.43982E+01 0.00000E+00
 -1       906 4.75350E+01 1.43982E+01 0.00000E+00
 -1       907 1.81500E+01 3.44120E+01 0.00000E+00
 -1       908 1.78988E+01 1.40987E+01 0.00000E+00
 -1       909 2.95350E+01 1.43982E+01 0.00000E+00
 -1       910 3.85350E+01 1.43982E+01 0.00000E+00
 -1       911 2.65350E+01 1.43982E+01 0.00000E+00
 -1       912 1.36500E+01 3.11350E+01 0.00000E+00
 -1       913 1.55880E+01 1.46687E+01 0.00000E+00
 -1       914 3.55350E+01 1.43982E+01 0.00000E+00
 -1       915 1.08339E+02 1.93583E+01 0.00000E+00
 -1       916 1.55880E+01 2.35000E+01 0.00000E+00
 -1       917 1.55880E+01 2.05625E+01 0.00000E+00
 -1       918 2.56500E+01 3.18140E+01 0.00000E+00
 -1       919 2.86500E+01 3.18140E+01 0.00000E+00
 -1       920 3.16500E+01 3.18140E+01 0.00000E+00
 -1       921 3.46500E+01 3.18140E+01 0.00000E+00
 -1       922 3.76500E+01 3.18140E+01 0.00000E+00
 -1       923 4.06500E+01 3.18140E+01 0.00000E+00
 -1       924 4.36500E+01 3.18140E+01 0.00000E+00
 -1       925 4.66500E+01 3.18140E+01 0.00000E+00
 -1       926 4.96500E+01 3.18140E+01 0.00000E+00
 -1       927 5.26500E+01 3.18140E+01 0.00000E+00
 -1       928 5.56500E+01 3.18140E+01 0.00000E+00
 -1       929 5.86500E+01 3.18140E+01 0.00000E+00
 -1       930 6.16500E+01 3.18140E+01 0.00000E+00
 -1       931 6.46500E+01 3.18140E+01 0.00000E+00
 -1       932 6.76500E+01 3.18140E+01 0.00000E+00
 -1       933 7.06500E+01 3.18140E+01 0.00000E+00
 -1       934 7.36500E+01 3.18140E+01 0.00000E+00
 -1       935 7.66500E+01 3.18140E+01 0.00000E+00
 -1       936 7.96500E+01 3.18140E+01 0.00000E+00
 -1       937 8.26500E+01 3.18140E+01 0.00000E+00
 -1       938 8.56500E+01 3.18140E+01 0.00000E+00
 -1       939 8.86500E+01 3.18140E+01 0.00000E+00
 -1       940 9.16500E+01 3.18140E+01 0.00000E+00
 -1       941 9.46500E+01 3.18140E+01 0.00000E+00
 -1       942 9.76500E+01 3.18140E+01 0.00000E+00
 -1       943 1.00650E+02 3.18140E+01 0.00000E+00
 -1       944 1.03650E+02 3.18140E+01 0.00000E+00
 -1       945 1.06650E+02 3.18140E+01 0.00000E+00
 -1       946 1.06812E+02 2.72655E+01 0.00000E+00
 -1       947 1.96500E+01 3.18140E+01 0.00000E+00
 -1       948 5.50350E+01 1.69963E+01 0.00000E+00
 -1       949 5.20350E+01 1.69963E+01 0.00000E+00
 -1       950 6.10350E+01 1.69963E+01 0.00000E+00
 -1       951 6.40350E+01 1.69963E+01 0.00000E+00
 -1       952 6.70350E+01 1.69963E+01 0.00000E+00
 -1       953 7.00350E+01 1.69963E+01 0.00000E+00
 -1       954 7.30350E+01 1.69963E+01 0.00000E+00
 -1       955 7.60350E+01 1.69963E+01 0.00000E+00
 -1       956 7.90350E+01 1.69963E+01 0.00000E+00
 -1       957 8.20350E+01 1.69963E+01 0.00000E+00
 -1       958 8.50350E+01 1.69963E+01 0.00000E+00
 -1       959 8.80350E+01 1.69963E+01 0.00000E+00
 -1       960 9.10350E+01 1.69963E+01 0.00000E+00
 -1       961 9.40350E+01 1.69963E+01 0.00000E+00
 -1       962 9.70350E+01 1.69963E+01 0.00000E+00
 -1       963 1.00035E+02 1.69963E+01 0.00000E+00
 -1       964 1.03035E+02 1.69963E+01 0.00000E+00
 -1       965 1.06035E+02 1.69963E+01 0.00000E+00
 -1       966 1.07937E+02 1.68783E+01 0.00000E+00
 -1       967 2.20350E+01 1.69963E+01 0.00000E+00
 -1       968 1.08986E+02 3.10979E+01 0.00000E+00
 -1       969 4.30350E+01 1.69963E+01 0.00000E+00
 -1       970 1.55717E+01 2.64968E+01 0.00000E+00
 -1       971 2.26500E+01 3.18140E+01 0.00000E+00
 -1       972 1.55880E+01 1.76156E+01 0.00000E+00
 -1       973 5.80350E+01 1.69963E+01 0.00000E+00
 -1       974 1.06816E+02 2.26918E+01 0.00000E+00
 -1       975 1.66500E+01 3.14745E+01 0.00000E+00
 -1       976 1.93988E+01 1.66967E+01 0.00000E+00
 -1       977 4.00350E+01 1.69963E+01 0.00000E+00
 -1       978 3.10350E+01 1.69963E+01 0.00000E+00
 -1       979 4.90350E+01 1.69963E+01 0.00000E+00
 -1       980 1.45778E+01 2.95463E+01 0.00000E+00
 -1       981 2.50350E+01 1.69963E+01 0.00000E+00
 -1       982 3.40350E+01 1.69963E+01 0.00000E+00
 -1       983 1.74934E+01 1.71562E+01 0.00000E+00
 -1       984 1.81778E+01 2.50125E+01 0.00000E+00
 -1       985 1.81778E+01 2.20750E+01 0.00000E+00
 -1       986 1.05007E+02 2.51534E+01 0.00000E+00
 -1       987 4.60350E+01 1.69963E+01 0.00000E+00
 -1       988 3.01500E+01 2.92160E+01 0.00000E+00
 -1       989 3.31500E+01 2.92160E+01 0.00000E+00
 -1       990 3.61500E+01 2.92160E+01 0.00000E+00
 -1       991 3.91500E+01 2.92160E+01 0.00000E+00
 -1       992 4.21500E+01 2.92160E+01 0.00000E+00
 -1       993 4.51500E+01 2.92160E+01 0.00000E+00
 -1       994 4.81500E+01 2.92160E+01 0.00000E+00
 -1       995 5.11500E+01 2.92160E+01 0.00000E+00
 -1       996 5.41500E+01 2.92160E+01 0.00000E+00
 -1       997 5.71500E+01 2.92160E+01 0.00000E+00
 -1       998 6.01500E+01 2.92160E+01 0.00000E+00
 -1       999 6.31500E+01 2.92160E+01 0.00000E+00
 -1      1000 6.61500E+01 2.92160E+01 0.00000E+00
 -1      1001 6.91500E+01 2.92160E+01 0.00000E+00
 -1      1002 7.21500E+01 2.92160E+01 0.00000E+00
 -1      1003 7.51500E+01 2.92160E+01 0.00000E+00
 -1      1004 7.81500E+01 2.92160E+01 0.00000E+00
 -1      1005 8.11500E+01 2.92160E+01 0.00000E+00
 -1      1006 8.41500E+01 2.92160E+01 0.00000E+00
 -1      1007 8.71500E+01 2.92160E+01 0.00000E+00
 -1      1008 9.01500E+01 2.92160E+01 0.00000E+00
 -1      1009 9.31500E+01 2.92160E+01 0.00000E+00
 -1      1010 9.61500E+01 2.92160E+01 0.00000E+00
 -1      1011 9.91500E+01 2.92160E+01 0.00000E+00
 -1      1012 1.02150E+02 2.92160E+01 0.00000E+00
 -1      1013 1.78356E+01 1.96156E+01 0.00000E+00
 -1      1014 5.65350E+01 1.95942E+01 0.00000E+00
 -1      1015 6.55350E+01 1.95942E+01 0.00000E+00
 -1      1016 6.25350E+01 1.95942E+01 0.00000E+00
 -1      1017 7.15350E+01 1.95942E+01 0.00000E+00
 -1      1018 7.45350E+01 1.95942E+01 0.00000E+00
 -1      1019 7.75350E+01 1.95942E+01 0.00000E+00
 -1      1020 8.05350E+01 1.95942E+01 0.00000E+00
 -1      1021 8.35350E+01 1.95942E+01 0.00000E+00
 -1      1022 8.65350E+01 1.95942E+01 0.00000E+00
 -1      1023 8.95350E+01 1.95942E+01 0.00000E+00
 -1      1024 9.25350E+01 1.95942E+01 0.00000E+00
 -1      1025 9.55350E+01 1.95942E+01 0.00000E+00
 -1      1026 9.85350E+01 1.95942E+01 0.00000E+00
 -1      1027 1.01535E+02 1.95942E+01 0.00000E+00
 -1      1028 1.04535E+02 1.95942E+01 0.00000E+00
 -1      1029 2.41500E+01 2.92160E+01 0.00000E+00
 -1      1030 5.95350E+01 1.95942E+01 0.00000E+00
 -1      1031 4.45350E+01 1.95942E+01 0.00000E+00
 -1      1032 3.70350E+01 1.69963E+01 0.00000E+00
 -1      1033 2.11500E+01 2.92160E+01 0.00000E+00
 -1      1034 5.35350E+01 1.95942E+01 0.00000E+00
 -1      1035 1.81605E+01 2.80122E+01 0.00000E+00
 -1      1036 6.85350E+01 1.95942E+01 0.00000E+00
 -1      1037 2.71500E+01 2.92160E+01 0.00000E+00
 -1      1038 2.80350E+01 1.69963E+01 0.00000E+00
 -1      1039 1.04328E+02 2.84837E+01 0.00000E+00
 -1      1040 4.15350E+01 1.95942E+01 0.00000E+00
 -1      1041 5.05350E+01 1.95942E+01 0.00000E+00
 -1      1042 2.35350E+01 1.95942E+01 0.00000E+00
 -1      1043 4.75350E+01 1.95942E+01 0.00000E+00
 -1      1044 2.11673E+01 2.62163E+01 0.00000E+00
 -1      1045 1.03271E+02 2.23738E+01 0.00000E+00
 -1      1046 2.11673E+01 2.32788E+01 0.00000E+00
 -1      1047 2.05351E+01 1.95943E+01 0.00000E+00
 -1      1048 3.25350E+01 1.95942E+01 0.00000E+00
 -1      1049 2.95350E+01 1.95942E+01 0.00000E+00
 -1      1050 3.46500E+01 2.66180E+01 0.00000E+00
 -1      1051 3.76500E+01 2.66180E+01 0.00000E+00
 -1      1052 4.06500E+01 2.66180E+01 0.00000E+00
 -1      1053 4.36500E+01 2.66180E+01 0.00000E+00
 -1      1054 4.66500E+01 2.66180E+01 0.00000E+00
 -1      1055 4.96500E+01 2.66180E+01 0.00000E+00
 -1      1056 5.26500E+01 2.66180E+01 0.00000E+00
 -1      1057 5.56500E+01 2.66180E+01 0.00000E+00
 -1      1058 5.86500E+01 2.66180E+01 0.00000E+00
 -1      1059 6.16500E+01 2.66180E+01 0.00000E+00
 -1      1060 6.46500E+01 2.66180E+01 0.00000E+00
 -1      1061 6.76500E+01 2.66180E+01 0.00000E+00
 -1      1062 7.06500E+01 2.66180E+01 0.00000E+00
 -1      1063 7.36500E+01 2.66180E+01 0.00000E+00
 -1      1064 7.66500E+01 2.66180E+01 0.00000E+00
 -1      1065 7.96500E+01 2.66180E+01 0.00000E+00
 -1      1066 8.26500E+01 2.66180E+01 0.00000E+00
 -1      1067 8.56500E+01 2.66180E+01 0.00000E+00
 -1      1068 8.86500E+01 2.66180E+01 0.00000E+00
 -1      1069 9.16500E+01 2.66180E+01 0.00000E+00
 -1      1070 9.46500E+01 2.66180E+01 0.00000E+00
 -1      1071 9.76500E+01 2.66180E+01 0.00000E+00
 -1      1072 1.00650E+02 2.66180E+01 0.00000E+00
 -1      1073 7.90350E+01 2.21922E+01 0.00000E+00
 -1      1074 6.40350E+01 2.21922E+01 0.00000E+00
 -1      1075 7.60350E+01 2.21922E+01 0.00000E+00
 -1      1076 7.30350E+01 2.21922E+01 0.00000E+00
 -1      1077 8.20350E+01 2.21922E+01 0.00000E+00
 -1      1078 8.50350E+01 2.21922E+01 0.00000E+00
 -1      1079 8.80350E+01 2.21922E+01 0.00000E+00
 -1      1080 9.10350E+01 2.21922E+01 0.00000E+00
 -1      1081 9.40350E+01 2.21922E+01 0.00000E+00
 -1      1082 9.70350E+01 2.21922E+01 0.00000E+00
 -1      1083 1.00035E+02 2.21922E+01 0.00000E+00
 -1      1084 6.10350E+01 2.21922E+01 0.00000E+00
 -1      1085 5.80350E+01 2.21922E+01 0.00000E+00
 -1      1086 2.65350E+01 1.95942E+01 0.00000E+00
 -1      1087 1.02710E+02 2.57949E+01 0.00000E+00
 -1      1088 2.56500E+01 2.66180E+01 0.00000E+00
 -1      1089 5.50350E+01 2.21922E+01 0.00000E+00
 -1      1090 3.55350E+01 1.95942E+01 0.00000E+00
 -1      1091 2.86500E+01 2.66180E+01 0.00000E+00
 -1      1092 6.70350E+01 2.21922E+01 0.00000E+00
 -1      1093 7.00350E+01 2.21922E+01 0.00000E+00
 -1      1094 3.16500E+01 2.66180E+01 0.00000E+00
 -1      1095 5.20350E+01 2.21922E+01 0.00000E+00
 -1      1096 3.85350E+01 1.95942E+01 0.00000E+00
 -1      1097 4.60350E+01 2.21922E+01 0.00000E+00
 -1      1098 2.56500E+01 2.36805E+01 0.00000E+00
 -1      1099 3.40350E+01 2.21922E+01 0.00000E+00
 -1      1100 3.10350E+01 2.21922E+01 0.00000E+00
 -1      1101 4.30350E+01 2.21922E+01 0.00000E+00
 -1      1102 3.91500E+01 2.40200E+01 0.00000E+00
 -1      1103 5.11500E+01 2.40200E+01 0.00000E+00
 -1      1104 4.90350E+01 2.21922E+01 0.00000E+00
 -1      1105 3.70349E+01 2.21923E+01 0.00000E+00
 -1      1106 2.83425E+01 2.29364E+01 0.00000E+00
 -1      1107 0.00000E+00 4.85250E+01 0.00000E+00
 -1      1108 0.00000E+00 4.55750E+01 0.00000E+00
 -1      1109 0.00000E+00 4.26250E+01 0.00000E+00
 -1      1110 0.00000E+00 3.96750E+01 0.00000E+00
 -1      1111 0.00000E+00 3.67250E+01 0.00000E+00
 -1      1112 0.00000E+00 3.38000E+01 0.00000E+00
 -1      1113 0.00000E+00 3.08750E+01 0.00000E+00
 -1      1114 0.00000E+00 2.79250E+01 0.00000E+00
 -1      1115 0.00000E+00 2.49750E+01 0.00000E+00
 -1      1116 0.00000E+00 2.20250E+01 0.00000E+00
 -1      1117 0.00000E+00 1.90750E+01 0.00000E+00
 -1      1118 0.00000E+00 1.61500E+01 0.00000E+00
 -1      1119 0.00000E+00 1.32250E+01 0.00000E+00
 -1      1120 0.00000E+00 1.02750E+01 0.00000E+00
 -1      1121 0.00000E+00 7.32500E+00 0.00000E+00
 -1      1122 0.00000E+00 4.37500E+00 0.00000E+00
 -1      1123 0.00000E+00 1.45000E+00 0.00000E+00
 -1      1124 1.57500E+00 5.00000E+01 0.00000E+00
 -1      1125 4.65000E+00 5.00000E+01 0.00000E+00
 -1      1126 7.65000E+00 5.00000E+01 0.00000E+00
 -1      1127 1.06500E+01 5.00000E+01 0.00000E+00
 -1      1128 1.36500E+01 5.00000E+01 0.00000E+00
 -1      1129 1.66500E+01 5.00000E+01 0.00000E+00
 -1      1130 1.96500E+01 5.00000E+01 0.00000E+00
 -1      1131 2.26500E+01 5.00000E+01 0.00000E+00
 -1      1132 2.56500E+01 5.00000E+01 0.00000E+00
 -1      1133 2.86500E+01 5.00000E+01 0.00000E+00
 -1      1134 3.16500E+01 5.00000E+01 0.00000E+00
 -1      1135 3.46500E+01 5.00000E+01 0.00000E+00
 -1      1136 3.76500E+01 5.00000E+01 0.00000E+00
 -1      1137 4.06500E+01 5.00000E+01 0.00000E+00
 -1      1138 4.36500E+01 5.00000E+01 0.00000E+00
 -1      1139 4.66500E+01 5.00000E+01 0.00000E+00
 -1      1140 4.96500E+01 5.00000E+01 0.00000E+00
 -1      1141 5.26500E+01 5.00000E+01 0.00000E+00
 -1      1142 5.56500E+01 5.00000E+01 0.00000E+00
 -1      1143 5.86500E+01 5.00000E+01 0.00000E+00
 -1      1144 6.16500E+01 5.00000E+01 0.00000E+00
 -1      1145 6.46500E+01 5.00000E+01 0.00000E+00
 -1      1146 6.76500E+01 5.00000E+01 0.00000E+00
 -1      1147 7.06500E+01 5.00000E+01 0.00000E+00
 -1      1148 7.36500E+01 5.00000E+01 0.00000E+00
 -1      1149 7.66500E+01 5.00000E+01 0.00000E+00
 -1      1150 7.96500E+01 5.00000E+01 0.00000E+00
 -1      1151 8.26500E+01 5.00000E+01 0.00000E+00
 -1      1152 8.56500E+01 5.00000E+01 0.00000E+00
 -1      1153 8.86500E+01 5.00000E+01 0.00000E+00
 -1      1154 9.16500E+01 5.00000E+01 0.00000E+00
 -1      1155 9.46500E+01 5.00000E+01 0.00000E+00
 -1      1156 9.76500E+01 5.00000E+01 0.00000E+00
 -1      1157 1.00650E+02 5.00000E+01 0.00000E+00
 -1      1158 1.03650E+02 5.00000E+01 0.00000E+00
 -1      1159 1.06650E+02 5.00000E+01 0.00000E+00
 -1      1160 1.09650E+02 5.00000E+01 0.00000E+00
 -1      1161 1.12650E+02 5.00000E+01 0.00000E+00
 -1      1162 1.15650E+02 5.00000E+01 0.00000E+00
 -1      1163 1.18650E+02 5.00000E+01 0.00000E+00
 -1      1164 1.21650E+02 5.00000E+01 0.00000E+00
 -1      1165 1.24650E+02 5.00000E+01 0.00000E+00
 -1      1166 1.27650E+02 5.00000E+01 0.00000E+00
 -1      1167 1.30650E+02 5.00000E+01 0.00000E+00
 -1      1168 1.33650E+02 5.00000E+01 0.00000E+00
 -1      1169 1.36650E+02 5.00000E+01 0.00000E+00
 -1      1170 1.39650E+02 5.00000E+01 0.00000E+00
 -1      1171 1.42650E+02 5.00000E+01 0.00000E+00
 -1      1172 1.45650E+02 5.00000E+01 0.00000E+00
 -1      1173 1.48575E+02 5.00000E+01 0.00000E+00
 -1      1174 1.57500E+00 0.00000E+00 0.00000E+00
 -1      1175 4.65000E+00 0.00000E+00 0.00000E+00
 -1      1176 7.65000E+00 0.00000E+00 0.00000E+00
 -1      1177 1.06500E+01 0.00000E+00 0.00000E+00
 -1      1178 1.36500E+01 0.00000E+00 0.00000E+00
 -1      1179 1.66500E+01 0.00000E+00 0.00000E+00
 -1      1180 1.96500E+01 0.00000E+00 0.00000E+00
 -1      1181 2.26500E+01 0.00000E+00 0.00000E+00
 -1      1182 2.56500E+01 0.00000E+00 0.00000E+00
 -1      1183 2.86500E+01 0.00000E+00 0.00000E+00
 -1      1184 3.16500E+01 0.00000E+00 0.00000E+00
 -1      1185 3.46500E+01 0.00000E+00 0.00000E+00
 -1      1186 3.76500E+01 0.00000E+00 0.00000E+00
 -1      1187 4.06500E+01 0.00000E+00 0.00000E+00
 -1      1188 4.36500E+01 0.00000E+00 0.00000E+00
 -1      1189 4.66500E+01 0.00000E+00 0.00000E+00
 -1      1190 4.96500E+01 0.00000E+00 0.00000E+00
 -1      1191 5.26500E+01 0.00000E+00 0.00000E+00
 -1      1192 5.56500E+01 0.00000E+00 0.00000E+00
 -1      1193 5.86500E+01 0.00000E+00 0.00000E+00
 -1      1194 6.16500E+01 0.00000E+00 0.00000E+00
 -1      1195 6.46500E+01 0.00000E+00 0.00000E+00
 -1      1196 6.76500E+01 0.00000E+00 0.00000E+00
 -1      1197 7.06500E+01 0.00000E+00 0.00000E+00
 -1      1198 7.36500E+01 0.00000E+00 0.00000E+00
 -1      1199 7.66500E+01 0.00000E+00 0.00000E+00
 -1      1200 7.96500E+01 0.00000E+00 0.00000E+00
 -1      1201 8.26500E+01 0.00000E+00 0.00000E+00
 -1      1202 8.56500E+01 0.00000E+00 0.00000E+00
 -1      1203 8.86500E+01 0.00000E+00 0.00000E+00
 -1      1204 9.16500E+01 0.00000E+00 0.00000E+00
 -1      1205 9.46500E+01 0.00000E+00 0.00000E+00
 -1      1206 9.76500E+01 0.00000E+00 0.00000E+00
 -1      1207 1.00650E+02 0.00000E+00 0.00000E+00
 -1      1208 1.03650E+02 0.00000E+00 0.00000E+00
 -1      1209 1.06650E+02 0.00000E+00 0.00000E+00
 -1      1210 1.09650E+02 0.00000E+00 0.00000E+00
 -1      1211 1.12650E+02 0.00000E+00 0.00000E+00
 -1      1212 1.15650E+02 0.00000E+00 0.00000E+00
 -1      1213 1.18650E+02 0.00000E+00 0.00000E+00
 -1      1214 1.21650E+02 0.00000E+00 0.00000E+00
 -1      1215 1.24650E+02 0.00000E+00 0.00000E+00
 -1      1216 1.27650E+02 0.00000E+00 0.00000E+00
 -1      1217 1.30650E+02 0.00000E+00 0.00000E+00
 -1      1218 1.33650E+02 0.00000E+00 0.00000E+00
 -1      1219 1.36650E+02 0.00000E+00 0.00000E+00
 -1      1220 1.39650E+02 0.00000E+00 0.00000E+00
 -1      1221 1.42650E+02 0.00000E+00 0.00000E+00
 -1      1222 1.45650E+02 0.00000E+00 0.00000E+00
 -1      1223 1.48575E+02 0.00000E+00 0.00000E+00
 -1      1224 1.50000E+02 1.47500E+00 0.00000E+00
 -1      1225 1.50000E+02 4.42500E+00 0.00000E+00
 -1      1226 1.50000E+02 7.37500E+00 0.00000E+00
 -1      1227 1.50000E+02 1.03250E+01 0.00000E+00
 -1      1228 1.50000E+02 1.32750E+01 0.00000E+00
 -1      1229 1.50000E+02 1.62000E+01 0.00000E+00
 -1      1230 1.50000E+02 1.91250E+01 0.00000E+00
 -1      1231 1.50000E+02 2.20750E+01 0.00000E+00
 -1      1232 1.50000E+02 2.50250E+01 0.00000E+00
 -1      1233 1.50000E+02 2.79750E+01 0.00000E+00
 -1      1234 1.50000E+02 3.09250E+01 0.00000E+00
 -1      1235 1.50000E+02 3.38500E+01 0.00000E+00
 -1      1236 1.50000E+02 3.67750E+01 0.00000E+00
 -1      1237 1.50000E+02 3.97250E+01 0.00000E+00
 -1      1238 1.50000E+02 4.26750E+01 0.00000E+00
 -1      1239 1.50000E+02 4.56250E+01 0.00000E+00
 -1      1240 1.50000E+02 4.85500E+01 0.00000E+00
 -1      1241 1.32371E+02 1.88691E+01 0.00000E+00
 -1      1242 1.32065E+02 1.74480E+01 0.00000E+00
 -1      1243 1.31494E+02 1.61581E+01 0.00000E+00
 -1      1244 1.30604E+02 1.49294E+01 0.00000E+00
 -1      1245 1.29384E+02 1.38601E+01 0.00000E+00
 -1      1246 1.28020E+02 1.31280E+01 0.00000E+00
 -1      1247 1.26578E+02 1.27219E+01 0.00000E+00
 -1      1248 1.25037E+02 1.26342E+01 0.00000E+00
 -1      1249 1.23546E+02 1.28773E+01 0.00000E+00
 -1      1250 1.22157E+02 1.34271E+01 0.00000E+00
 -1      1251 1.20909E+02 1.42647E+01 0.00000E+00
 -1      1252 1.19892E+02 1.53199E+01 0.00000E+00
 -1      1253 1.19089E+02 1.66211E+01 0.00000E+00
 -1      1254 1.18589E+02 1.80605E+01 0.00000E+00
 -1      1255 1.18412E+02 1.95364E+01 0.00000E+00
 -1      1256 1.18549E+02 2.10001E+01 0.00000E+00
 -1      1257 1.18982E+02 2.23912E+01 0.00000E+00
 -1      1258 1.19701E+02 2.36725E+01 0.00000E+00
 -1      1259 1.20629E+02 2.47349E+01 0.00000E+00
 -1      1260 1.21825E+02 2.56351E+01 0.00000E+00
 -1      1261 1.23232E+02 2.62761E+01 0.00000E+00
 -1      1262 1.24699E+02 2.65877E+01 0.00000E+00
 -1      1263 1.26224E+02 2.65768E+01 0.00000E+00
 -1      1264 1.27746E+02 2.62236E+01 0.00000E+00
 -1      1265 1.29130E+02 2.55550E+01 0.00000E+00
 -1      1266 1.30362E+02 2.45732E+01 0.00000E+00
 -1      1267 1.31345E+02 2.33389E+01 0.00000E+00
 -1      1268 1.32003E+02 2.19811E+01 0.00000E+00
 -1      1269 1.32364E+02 2.04425E+01 0.00000E+00
 -1      1270 1.57500E+00 4.85250E+01 0.00000E+00
 -1      1271 1.29900E+00 4.48375E+01 0.00000E+00
 -1      1272 1.29900E+00 4.63125E+01 0.00000E+00
 -1      1273 1.29900E+00 4.18875E+01 0.00000E+00
 -1      1274 1.29900E+00 4.33625E+01 0.00000E+00
 -1      1275 2.59800E+00 4.41000E+01 0.00000E+00
 -1      1276 1.29900E+00 3.89375E+01 0.00000E+00
 -1      1277 1.29900E+00 4.04125E+01 0.00000E+00
 -1      1278 2.59800E+00 4.11500E+01 0.00000E+00
 -1      1279 1.29900E+00 3.59875E+01 0.00000E+00
 -1      1280 1.29900E+00 3.74625E+01 0.00000E+00
 -1      1281 2.59800E+00 3.82000E+01 0.00000E+00
 -1      1282 1.29900E+00 3.30875E+01 0.00000E+00
 -1      1283 1.29900E+00 3.45375E+01 0.00000E+00
 -1      1284 2.59800E+00 3.52750E+01 0.00000E+00
 -1      1285 1.29900E+00 3.01375E+01 0.00000E+00
 -1      1286 1.29900E+00 3.16125E+01 0.00000E+00
 -1      1287 2.59800E+00 3.23500E+01 0.00000E+00
 -1      1288 1.29900E+00 2.71875E+01 0.00000E+00
 -1      1289 1.29900E+00 2.86625E+01 0.00000E+00
 -1      1290 2.59800E+00 2.94000E+01 0.00000E+00
 -1      1291 1.29900E+00 2.42375E+01 0.00000E+00
 -1      1292 1.29900E+00 2.57125E+01 0.00000E+00
 -1      1293 2.59800E+00 2.64500E+01 0.00000E+00
 -1      1294 1.29900E+00 2.12875E+01 0.00000E+00
 -1      1295 1.29900E+00 2.27625E+01 0.00000E+00
 -1      1296 2.59800E+00 2.35000E+01 0.00000E+00
 -1      1297 1.29900E+00 1.83375E+01 0.00000E+00
 -1      1298 1.29900E+00 1.98125E+01 0.00000E+00
 -1      1299 2.59800E+00 2.05500E+01 0.00000E+00
 -1      1300 1.29900E+00 1.54375E+01 0.00000E+00
 -1      1301 1.29900E+00 1.68875E+01 0.00000E+00
 -1      1302 2.59800E+00 1.76250E+01 0.00000E+00
 -1      1303 1.29900E+00 1.24875E+01 0.00000E+00
 -1      1304 1.29900E+00 1.39625E+01 0.00000E+00
 -1      1305 2.59800E+00 1.47000E+01 0.00000E+00
 -1      1306 1.29900E+00 9.53750E+00 0.00000E+00
 -1      1307 1.29900E+00 1.10125E+01 0.00000E+00
 -1      1308 2.59800E+00 1.17500E+01 0.00000E+00
 -1      1309 1.29900E+00 6.58750E+00 0.00000E+00
 -1      1310 1.29900E+00 8.06250E+00 0.00000E+00
 -1      1311 2.59800E+00 8.80000E+00 0.00000E+00
 -1      1312 1.29900E+00 3.63750E+00 0.00000E+00
 -1      1313 1.29900E+00 5.11250E+00 0.00000E+00
 -1      1314 2.59800E+00 5.85000E+00 0.00000E+00
 -1      1315 1.43700E+00 1.09375E+00 0.00000E+00
 -1      1316 1.43700E+00 2.54375E+00 0.00000E+00
 -1      1317 2.73600E+00 3.28125E+00 0.00000E+00
 -1      1318 3.01200E+00 1.09375E+00 0.00000E+00
 -1      1319 3.90000E+00 4.87010E+01 0.00000E+00
 -1      1320 5.40000E+00 4.87010E+01 0.00000E+00
 -1      1321 6.90000E+00 4.87010E+01 0.00000E+00
 -1      1322 8.40000E+00 4.87010E+01 0.00000E+00
 -1      1323 6.15000E+00 4.74020E+01 0.00000E+00
 -1      1324 9.90000E+00 4.87010E+01 0.00000E+00
 -1      1325 1.14000E+01 4.87010E+01 0.00000E+00
 -1      1326 9.15000E+00 4.74020E+01 0.00000E+00
 -1      1327 1.29000E+01 4.87010E+01 0.00000E+00
 -1      1328 1.44000E+01 4.87010E+01 0.00000E+00
 -1      1329 1.21500E+01 4.74020E+01 0.00000E+00
 -1      1330 1.59000E+01 4.87010E+01 0.00000E+00
 -1      1331 1.74000E+01 4.87010E+01 0.00000E+00
 -1      1332 1.51500E+01 4.74020E+01 0.00000E+00
 -1      1333 1.89000E+01 4.87010E+01 0.00000E+00
 -1      1334 2.04000E+01 4.87010E+01 0.00000E+00
 -1      1335 1.81500E+01 4.74020E+01 0.00000E+00
 -1      1336 2.19000E+01 4.87010E+01 0.00000E+00
 -1      1337 2.34000E+01 4.87010E+01 0.00000E+00
 -1      1338 2.11500E+01 4.74020E+01 0.00000E+00
 -1      1339 2.49000E+01 4.87010E+01 0.00000E+00
 -1      1340 2.64000E+01 4.87010E+01 0.00000E+00
 -1      1341 2.41500E+01 4.74020E+01 0.00000E+00
 -1      1342 2.79000E+01 4.87010E+01 0.00000E+00
 -1      1343 2.94000E+01 4.87010E+01 0.00000E+00
 -1      1344 2.71500E+01 4.74020E+01 0.00000E+00
 -1      1345 3.09000E+01 4.87010E+01 0.00000E+00
 -1      1346 3.24000E+01 4.87010E+01 0.00000E+00
 -1      1347 3.01500E+01 4.74020E+01 0.00000E+00
 -1      1348 3.39000E+01 4.87010E+01 0.00000E+00
 -1      1349 3.54000E+01 4.87010E+01 0.00000E+00
 -1      1350 3.31500E+01 4.74020E+01 0.00000E+00
 -1      1351 3.69000E+01 4.87010E+01 0.00000E+00
 -1      1352 3.84000E+01 4.87010E+01 0.00000E+00
 -1      1353 3.61500E+01 4.74020E+01 0.00000E+00
 -1      1354 3.99000E+01 4.87010E+01 0.00000E+00
 -1      1355 4.14000E+01 4.87010E+01 0.00000E+00
 -1      1356 3.91500E+01 4.74020E+01 0.00000E+00
 -1      1357 4.29000E+01 4.87010E+01 0.00000E+00
 -1      1358 4.44000E+01 4.87010E+01 0.00000E+00
 -1      1359 4.21500E+01 4.74020E+01 0.00000E+00
 -1      1360 4.59000E+01 4.87010E+01 0.00000E+00
 -1      1361 4.74000E+01 4.87010E+01 0.00000E+00
 -1      1362 4.51500E+01 4.74020E+01 0.00000E+00
 -1      1363 4.89000E+01 4.87010E+01 0.00000E+00
 -1      1364 5.04000E+01 4.87010E+01 0.00000E+00
 -1      1365 4.81500E+01 4.74020E+01 0.00000E+00
 -1      1366 5.19000E+01 4.87010E+01 0.00000E+00
 -1      1367 5.34000E+01 4.87010E+01 0.00000E+00
 -1      1368 5.11500E+01 4.74020E+01 0.00000E+00
 -1      1369 5.49000E+01 4.87010E+01 0.00000E+00
 -1      1370 5.64000E+01 4.87010E+01 0.00000E+00
 -1      1371 5.41500E+01 4.74020E+01 0.00000E+00
 -1      1372 5.79000E+01 4.87010E+01 0.00000E+00
 -1      1373 5.94000E+01 4.87010E+01 0.00000E+00
 -1      1374 5.71500E+01 4.74020E+01 0.00000E+00
 -1      1375 6.09000E+01 4.87010E+01 0.00000E+00
 -1      1376 6.24000E+01 4.87010E+01 0.00000E+00
 -1      1377 6.01500E+01 4.74020E+01 0.00000E+00
 -1      1378 6.39000E+01 4.87010E+01 0.00000E+00
 -1      1379 6.54000E+01 4.87010E+01 0.00000E+00
 -1      1380 6.31500E+01 4.74020E+01 0.00000E+00
 -1      1381 6.69000E+01 4.87010E+01 0.00000E+00
 -1      1382 6.84000E+01 4.87010E+01 0.00000E+00
 -1      1383 6.61500E+01 4.74020E+01 0.00000E+00
 -1      1384 6.99000E+01 4.87010E+01 0.00000E+00
 -1      1385 7.14000E+01 4.87010E+01 0.00000E+00
 -1      1386 6.91500E+01 4.74020E+01 0.00000E+00
 -1      1387 7.29000E+01 4.87010E+01 0.00000E+00
 -1      1388 7.44000E+01 4.87010E+01 0.00000E+00
 -1      1389 7.21500E+01 4.74020E+01 0.00000E+00
 -1      1390 7.59000E+01 4.87010E+01 0.00000E+00
 -1      1391 7.74000E+01 4.87010E+01 0.00000E+00
 -1      1392 7.51500E+01 4.74020E+01 0.00000E+00
 -1      1393 7.89000E+01 4.87010E+01 0.00000E+00
 -1      1394 8.04000E+01 4.87010E+01 0.00000E+00
 -1      1395 7.81500E+01 4.74020E+01 0.00000E+00
 -1      1396 8.19000E+01 4.87010E+01 0.00000E+00
 -1      1397 8.34000E+01 4.87010E+01 0.00000E+00
 -1      1398 8.11500E+01 4.74020E+01 0.00000E+00
 -1      1399 8.49000E+01 4.87010E+01 0.00000E+00
 -1      1400 8.64000E+01 4.87010E+01 0.00000E+00
 -1      1401 8.41500E+01 4.74020E+01 0.00000E+00
 -1      1402 8.79000E+01 4.87010E+01 0.00000E+00
 -1      1403 8.94000E+01 4.87010E+01 0.00000E+00
 -1      1404 8.71500E+01 4.74020E+01 0.00000E+00
 -1      1405 9.09000E+01 4.87010E+01 0.00000E+00
 -1      1406 9.24000E+01 4.87010E+01 0.00000E+00
 -1      1407 9.01500E+01 4.74020E+01 0.00000E+00
 -1      1408 9.39000E+01 4.87010E+01 0.00000E+00
 -1      1409 9.54000E+01 4.87010E+01 0.00000E+00
 -1      1410 9.31500E+01 4.74020E+01 0.00000E+00
 -1      1411 9.69000E+01 4.87010E+01 0.00000E+00
 -1      1412 9.84000E+01 4.87010E+01 0.00000E+00
 -1      1413 9.61500E+01 4.74020E+01 0.00000E+00
 -1      1414 9.99000E+01 4.87010E+01 0.00000E+00
 -1      1415 1.01400E+02 4.87010E+01 0.00000E+00
 -1      1416 9.91500E+01 4.74020E+01 0.00000E+00
 -1      1417 1.02900E+02 4.87010E+01 0.00000E+00
 -1      1418 1.04400E+02 4.87010E+01 0.00000E+00
 -1      1419 1.02150E+02 4.74020E+01 0.00000E+00
 -1      1420 1.05900E+02 4.87010E+01 0.00000E+00
 -1      1421 1.07400E+02 4.87010E+01 0.00000E+00
 -1      1422 1.05150E+02 4.74020E+01 0.00000E+00
 -1      1423 1.08900E+02 4.87010E+01 0.00000E+00
 -1      1424 1.10400E+02 4.87010E+01 0.00000E+00
 -1      1425 1.08150E+02 4.74020E+01 0.00000E+00
 -1      1426 1.11900E+02 4.87010E+01 0.00000E+00
 -1      1427 1.13400E+02 4.87010E+01 0.00000E+00
 -1      1428 1.11150E+02 4.74020E+01 0.00000E+00
 -1      1429 1.14900E+02 4.87010E+01 0.00000E+00
 -1      1430 1.16400E+02 4.87010E+01 0.00000E+00
 -1      1431 1.14150E+02 4.74020E+01 0.00000E+00
 -1      1432 1.17900E+02 4.87010E+01 0.00000E+00
 -1      1433 1.19400E+02 4.87010E+01 0.00000E+00
 -1      1434 1.17150E+02 4.74020E+01 0.00000E+00
 -1      1435 1.20900E+02 4.87010E+01 0.00000E+00
 -1      1436 1.22400E+02 4.87010E+01 0.00000E+00
 -1      1437 1.20150E+02 4.74020E+01 0.00000E+00
 -1      1438 1.23900E+02 4.87010E+01 0.00000E+00
 -1      1439 1.25400E+02 4.87010E+01 0.00000E+00
 -1      1440 1.23150E+02 4.74020E+01 0.00000E+00
 -1      1441 1.26900E+02 4.87010E+01 0.00000E+00
 -1      1442 1.28400E+02 4.87010E+01 0.00000E+00
 -1      1443 1.26150E+02 4.74020E+01 0.00000E+00
 -1      1444 1.29900E+02 4.87010E+01 0.00000E+00
 -1      1445 1.31400E+02 4.87010E+01 0.00000E+00
 -1      1446 1.29150E+02 4.74020E+01 0.00000E+00
 -1      1447 1.32900E+02 4.87010E+01 0.00000E+00
 -1      1448 1.34400E+02 4.87010E+01 0.00000E+00
 -1      1449 1.32150E+02 4.74020E+01 0.00000E+00
 -1      1450 1.35900E+02 4.87010E+01 0.00000E+00
 -1      1451 1.37400E+02 4.87010E+01 0.00000E+00
 -1      1452 1.35150E+02 4.74020E+01 0.00000E+00
 -1      1453 1.38900E+02 4.87010E+01 0.00000E+00
 -1      1454 1.40400E+02 4.87010E+01 0.00000E+00
 -1      1455 1.38150E+02 4.74020E+01 0.00000E+00
 -1      1456 1.41900E+02 4.87010E+01 0.00000E+00
 -1      1457 1.43400E+02 4.87010E+01 0.00000E+00
 -1      1458 1.41150E+02 4.74020E+01 0.00000E+00
 -1      1459 1.44900E+02 4.87010E+01 0.00000E+00
 -1      1460 1.46400E+02 4.87010E+01 0.00000E+00
 -1      1461 1.44150E+02 4.74020E+01 0.00000E+00
 -1      1462 1.48575E+02 4.85500E+01 0.00000E+00
 -1      1463 1.47825E+02 4.72510E+01 0.00000E+00
 -1      1464 6.01200E+00 1.09375E+00 0.00000E+00
 -1      1465 4.51200E+00 1.09375E+00 0.00000E+00
 -1      1466 4.37400E+00 2.18750E+00 0.00000E+00
 -1      1467 9.01200E+00 1.09375E+00 0.00000E+00
 -1      1468 7.51200E+00 1.09375E+00 0.00000E+00
 -1      1469 7.37400E+00 2.18750E+00 0.00000E+00
 -1      1470 1.20120E+01 1.09375E+00 0.00000E+00
 -1      1471 1.05120E+01 1.09375E+00 0.00000E+00
 -1      1472 1.03740E+01 2.18750E+00 0.00000E+00
 -1      1473 1.50120E+01 1.09375E+00 0.00000E+00
 -1      1474 1.35120E+01 1.09375E+00 0.00000E+00
 -1      1475 1.33740E+01 2.18750E+00 0.00000E+00
 -1      1476 1.80120E+01 1.09375E+00 0.00000E+00
 -1      1477 1.65120E+01 1.09375E+00 0.00000E+00
 -1      1478 1.63740E+01 2.18750E+00 0.00000E+00
 -1      1479 2.10120E+01 1.09375E+00 0.00000E+00
 -1      1480 1.95120E+01 1.09375E+00 0.00000E+00
 -1      1481 1.93740E+01 2.18750E+00 0.00000E+00
 -1      1482 2.40120E+01 1.09375E+00 0.00000E+00
 -1      1483 2.25120E+01 1.09375E+00 0.00000E+00
 -1      1484 2.23740E+01 2.18750E+00 0.00000E+00
 -1      1485 2.70120E+01 1.09375E+00 0.00000E+00
 -1      1486 2.55120E+01 1.09375E+00 0.00000E+00
 -1      1487 2.53740E+01 2.18750E+00 0.00000E+00
 -1      1488 3.00120E+01 1.09375E+00 0.00000E+00
 -1      1489 2.85120E+01 1.09375E+00 0.00000E+00
 -1      1490 2.83740E+01 2.18750E+00 0.00000E+00
 -1      1491 3.30120E+01 1.09375E+00 0.00000E+00
 -1      1492 3.15120E+01 1.09375E+00 0.00000E+00
 -1      1493 3.13740E+01 2.18750E+00 0.00000E+00
 -1      1494 3.60120E+01 1.09375E+00 0.00000E+00
 -1      1495 3.45120E+01 1.09375E+00 0.00000E+00
 -1      1496 3.43740E+01 2.18750E+00 0.00000E+00
 -1      1497 3.90120E+01 1.09375E+00 0.00000E+00
 -1      1498 3.75120E+01 1.09375E+00 0.00000E+00
 -1      1499 3.73740E+01 2.18750E+00 0.00000E+00
 -1      1500 4.20120E+01 1.09375E+00 0.00000E+00
 -1      1501 4.05120E+01 1.09375E+00 0.00000E+00
 -1      1502 4.03740E+01 2.18750E+00 0.00000E+00
 -1      1503 4.50120E+01 1.09375E+00 0.00000E+00
 -1      1504 4.35120E+01 1.09375E+00 0.00000E+00
 -1      1505 4.33740E+01 2.18750E+00 0.00000E+00
 -1      1506 4.80120E+01 1.09375E+00 0.00000E+00
 -1      1507 4.65120E+01 1.09375E+00 0.00000E+00
 -1      1508 4.63740E+01 2.18750E+00 0.00000E+00
 -1      1509 5.10120E+01 1.09375E+00 0.00000E+00
 -1      1510 4.95120E+01 1.09375E+00 0.00000E+00
 -1      1511 4.93740E+01 2.18750E+00 0.00000E+00
 -1      1512 5.40120E+01 1.09375E+00 0.00000E+00
 -1      1513 5.25120E+01 1.09375E+00 0.00000E+00
 -1      1514 5.23740E+01 2.18750E+00 0.00000E+00
 -1      1515 5.70120E+01 1.09375E+00 0.00000E+00
 -1      1516 5.55120E+01 1.09375E+00 0.00000E+00
 -1      1517 5.53740E+01 2.18750E+00 0.00000E+00
 -1      1518 6.00120E+01 1.09375E+00 0.00000E+00
 -1      1519 5.85120E+01 1.09375E+00 0.00000E+00
 -1      1520 5.83740E+01 2.18750E+00 0.00000E+00
 -1      1521 6.30120E+01 1.09375E+00 0.00000E+00
 -1      1522 6.15120E+01 1.09375E+00 0.00000E+00
 -1      1523 6.13740E+01 2.18750E+00 0.00000E+00
 -1      1524 6.60120E+01 1.09375E+00 0.00000E+00
 -1      1525 6.45120E+01 1.09375E+00 0.00000E+00
 -1      1526 6.43740E+01 2.18750E+00 0.00000E+00
 -1      1527 6.90120E+01 1.09375E+00 0.00000E+00
 -1      1528 6.75120E+01 1.09375E+00 0.00000E+00
 -1      1529 6.73740E+01 2.18750E+00 0.00000E+00
 -1      1530 7.20120E+01 1.09375E+00 0.00000E+00
 -1      1531 7.05120E+01 1.09375E+00 0.00000E+00
 -1      1532 7.03740E+01 2.18750E+00 0.00000E+00
 -1      1533 7.50120E+01 1.09375E+00 0.00000E+00
 -1      1534 7.35120E+01 1.09375E+00 0.00000E+00
 -1      1535 7.33740E+01 2.18750E+00 0.00000E+00
 -1      1536 7.80120E+01 1.09375E+00 0.00000E+00
 -1      1537 7.65120E+01 1.09375E+00 0.00000E+00
 -1      1538 7.63740E+01 2.18750E+00 0.00000E+00
 -1      1539 8.10120E+01 1.09375E+00 0.00000E+00
 -1      1540 7.95120E+01 1.09375E+00 0.00000E+00
 -1      1541 7.93740E+01 2.18750E+00 0.00000E+00
 -1      1542 8.40120E+01 1.09375E+00 0.00000E+00
 -1      1543 8.25120E+01 1.09375E+00 0.00000E+00
 -1      1544 8.23740E+01 2.18750E+00 0.00000E+00
 -1      1545 8.70120E+01 1.09375E+00 0.00000E+00
 -1      1546 8.55120E+01 1.09375E+00 0.00000E+00
 -1      1547 8.53740E+01 2.18750E+00 0.00000E+00
 -1      1548 9.00120E+01 1.09375E+00 0.00000E+00
 -1      1549 8.85120E+01 1.09375E+00 0.00000E+00
 -1      1550 8.83740E+01 2.18750E+00 0.00000E+00
 -1      1551 9.30120E+01 1.09375E+00 0.00000E+00
 -1      1552 9.15120E+01 1.09375E+00 0.00000E+00
 -1      1553 9.13740E+01 2.18750E+00 0.00000E+00
 -1      1554 9.60120E+01 1.09375E+00 0.00000E+00
 -1      1555 9.45120E+01 1.09375E+00 0.00000E+00
 -1      1556 9.43740E+01 2.18750E+00 0.00000E+00
 -1      1557 9.90120E+01 1.09375E+00 0.00000E+00
 -1      1558 9.75120E+01 1.09375E+00 0.00000E+00
 -1      1559 9.73740E+01 2.18750E+00 0.00000E+00
 -1      1560 1.02012E+02 1.09375E+00 0.00000E+00
 -1      1561 1.00512E+02 1.09375E+00 0.00000E+00
 -1      1562 1.00374E+02 2.18750E+00 0.00000E+00
 -1      1563 1.05012E+02 1.09375E+00 0.00000E+00
 -1      1564 1.03512E+02 1.09375E+00 0.00000E+00
 -1      1565 1.03374E+02 2.18750E+00 0.00000E+00
 -1      1566 1.08012E+02 1.09375E+00 0.00000E+00
 -1      1567 1.06512E+02 1.09375E+00 0.00000E+00
 -1      1568 1.06374E+02 2.18750E+00 0.00000E+00
 -1      1569 1.11012E+02 1.09375E+00 0.00000E+00
 -1      1570 1.09512E+02 1.09375E+00 0.00000E+00
 -1      1571 1.09374E+02 2.18750E+00 0.00000E+00
 -1      1572 1.14012E+02 1.09375E+00 0.00000E+00
 -1      1573 1.12512E+02 1.09375E+00 0.00000E+00
 -1      1574 1.12374E+02 2.18750E+00 0.00000E+00
 -1      1575 1.17012E+02 1.09375E+00 0.00000E+00
 -1      1576 1.15512E+02 1.09375E+00 0.00000E+00
 -1      1577 1.15374E+02 2.18750E+00 0.00000E+00
 -1      1578 1.20012E+02 1.09375E+00 0.00000E+00
 -1      1579 1.18512E+02 1.09375E+00 0.00000E+00
 -1      1580 1.18374E+02 2.18750E+00 0.00000E+00
 -1      1581 1.23012E+02 1.09375E+00 0.00000E+00
 -1      1582 1.21512E+02 1.09375E+00 0.00000E+00
 -1      1583 1.21374E+02 2.18750E+00 0.00000E+00
 -1      1584 1.26012E+02 1.09375E+00 0.00000E+00
 -1      1585 1.24512E+02 1.09375E+00 0.00000E+00
 -1      1586 1.24374E+02 2.18750E+00 0.00000E+00
 -1      1587 1.29012E+02 1.09375E+00 0.00000E+00
 -1      1588 1.27512E+02 1.09375E+00 0.00000E+00
 -1      1589 1.27374E+02 2.18750E+00 0.00000E+00
 -1      1590 1.32012E+02 1.09375E+00 0.00000E+00
 -1      1591 1.30512E+02 1.09375E+00 0.00000E+00
 -1      1592 1.30374E+02 2.18750E+00 0.00000E+00
 -1      1593 1.35012E+02 1.09375E+00 0.00000E+00
 -1      1594 1.33512E+02 1.09375E+00 0.00000E+00
 -1      1595 1.33374E+02 2.18750E+00 0.00000E+00
 -1      1596 1.38012E+02 1.09375E+00 0.00000E+00
 -1      1597 1.36512E+02 1.09375E+00 0.00000E+00
 -1      1598 1.36374E+02 2.18750E+00 0.00000E+00
 -1      1599 1.41012E+02 1.09375E+00 0.00000E+00
 -1      1600 1.39512E+02 1.09375E+00 0.00000E+00
 -1      1601 1.39374E+02 2.18750E+00 0.00000E+00
 -1      1602 1.44012E+02 1.09375E+00 0.00000E+00
 -1      1603 1.42512E+02 1.09375E+00 0.00000E+00
 -1      1604 1.42374E+02 2.18750E+00 0.00000E+00
 -1      1605 1.47012E+02 1.09375E+00 0.00000E+00
 -1      1606 1.45512E+02 1.09375E+00 0.00000E+00
 -1      1607 1.45374E+02 2.18750E+00 0.00000E+00
 -1      1608 1.48575E+02 1.47500E+00 0.00000E+00
 -1      1609 1.48701E+02 5.16250E+00 0.00000E+00
 -1      1610 1.48701E+02 3.68750E+00 0.00000E+00
 -1      1611 1.48701E+02 8.11250E+00 0.00000E+00
 -1      1612 1.48701E+02 6.63750E+00 0.00000E+00
 -1      1613 1.47402E+02 5.90000E+00 0.00000E+00
 -1      1614 1.48701E+02 1.10625E+01 0.00000E+00
 -1      1615 1.48701E+02 9.58750E+00 0.00000E+00
 -1      1616 1.47402E+02 8.85000E+00 0.00000E+00
 -1      1617 1.48701E+02 1.40125E+01 0.00000E+00
 -1      1618 1.48701E+02 1.25375E+01 0.00000E+00
 -1      1619 1.47402E+02 1.18000E+01 0.00000E+00
 -1      1620 1.48701E+02 1.69125E+01 0.00000E+00
 -1      1621 1.48701E+02 1.54625E+01 0.00000E+00
 -1      1622 1.47402E+02 1.47250E+01 0.00000E+00
 -1      1623 1.48701E+02 1.98625E+01 0.00000E+00
 -1      1624 1.48701E+02 1.83875E+01 0.00000E+00
 -1      1625 1.47402E+02 1.76500E+01 0.00000E+00
 -1      1626 1.48701E+02 2.28125E+01 0.00000E+00
 -1      1627 1.48701E+02 2.13375E+01 0.00000E+00
 -1      1628 1.47402E+02 2.06000E+01 0.00000E+00
 -1      1629 1.48701E+02 2.57625E+01 0.00000E+00
 -1      1630 1.48701E+02 2.42875E+01 0.00000E+00
 -1      1631 1.47402E+02 2.35500E+01 0.00000E+00
 -1      1632 1.48701E+02 2.87125E+01 0.00000E+00
 -1      1633 1.48701E+02 2.72375E+01 0.00000E+00
 -1      1634 1.47402E+02 2.65000E+01 0.00000E+00
 -1      1635 1.48701E+02 3.16625E+01 0.00000E+00
 -1      1636 1.48701E+02 3.01875E+01 0.00000E+00
 -1      1637 1.47402E+02 2.94500E+01 0.00000E+00
 -1      1638 1.48701E+02 3.45625E+01 0.00000E+00
 -1      1639 1.48701E+02 3.31125E+01 0.00000E+00
 -1      1640 1.47402E+02 3.23750E+01 0.00000E+00
 -1      1641 1.48701E+02 3.75125E+01 0.00000E+00
 -1      1642 1.48701E+02 3.60375E+01 0.00000E+00
 -1      1643 1.47402E+02 3.53000E+01 0.00000E+00
 -1      1644 1.48701E+02 4.04625E+01 0.00000E+00
 -1      1645 1.48701E+02 3.89875E+01 0.00000E+00
 -1      1646 1.47402E+02 3.82500E+01 0.00000E+00
 -1      1647 1.48701E+02 4.34125E+01 0.00000E+00
 -1      1648 1.48701E+02 4.19375E+01 0.00000E+00
 -1      1649 1.47402E+02 4.12000E+01 0.00000E+00
 -1      1650 1.48263E+02 4.60692E+01 0.00000E+00
 -1      1651 1.48263E+02 4.45942E+01 0.00000E+00
 -1      1652 1.46964E+02 4.38568E+01 0.00000E+00
 -1      1653 1.46088E+02 4.62202E+01 0.00000E+00
 -1      1654 1.32934E+02 1.84283E+01 0.00000E+00
 -1      1655 1.33016E+02 1.91789E+01 0.00000E+00
 -1      1656 1.32499E+02 1.69383E+01 0.00000E+00
 -1      1657 1.32717E+02 1.76024E+01 0.00000E+00
 -1      1658 1.31812E+02 1.55666E+01 0.00000E+00
 -1      1659 1.32165E+02 1.61852E+01 0.00000E+00
 -1      1660 1.30874E+02 1.41431E+01 0.00000E+00
 -1      1661 1.31414E+02 1.47400E+01 0.00000E+00
 -1      1662 1.29459E+02 1.30304E+01 0.00000E+00
 -1      1663 1.30132E+02 1.34944E+01 0.00000E+00
 -1      1664 1.27893E+02 1.24649E+01 0.00000E+00
 -1      1665 1.28570E+02 1.27369E+01 0.00000E+00
 -1      1666 1.26308E+02 1.20193E+01 0.00000E+00
 -1      1667 1.27065E+02 1.21471E+01 0.00000E+00
 -1      1668 1.24612E+02 1.19673E+01 0.00000E+00
 -1      1669 1.25387E+02 1.19257E+01 0.00000E+00
 -1      1670 1.23031E+02 1.23874E+01 0.00000E+00
 -1      1671 1.23737E+02 1.21920E+01 0.00000E+00
 -1      1672 1.21518E+02 1.30301E+01 0.00000E+00
 -1      1673 1.22192E+02 1.26760E+01 0.00000E+00
 -1      1674 1.20234E+02 1.40371E+01 0.00000E+00
 -1      1675 1.20801E+02 1.35602E+01 0.00000E+00
 -1      1676 1.19220E+02 1.52560E+01 0.00000E+00
 -1      1677 1.19666E+02 1.46846E+01 0.00000E+00
 -1      1678 1.18297E+02 1.66904E+01 0.00000E+00
 -1      1679 1.18642E+02 1.59638E+01 0.00000E+00
 -1      1680 1.17954E+02 1.82839E+01 0.00000E+00
 -1      1681 1.18114E+02 1.75828E+01 0.00000E+00
 -1      1682 1.17760E+02 1.99118E+01 0.00000E+00
 -1      1683 1.17770E+02 1.91447E+01 0.00000E+00
 -1      1684 1.18058E+02 2.14569E+01 0.00000E+00
 -1      1685 1.17920E+02 2.07677E+01 0.00000E+00
 -1      1686 1.18573E+02 2.29777E+01 0.00000E+00
 -1      1687 1.18275E+02 2.22849E+01 0.00000E+00
 -1      1688 1.19444E+02 2.42936E+01 0.00000E+00
 -1      1689 1.19030E+02 2.37101E+01 0.00000E+00
 -1      1690 1.20492E+02 2.53897E+01 0.00000E+00
 -1      1691 1.19984E+02 2.49148E+01 0.00000E+00
 -1      1692 1.21839E+02 2.63934E+01 0.00000E+00
 -1      1693 1.21150E+02 2.59825E+01 0.00000E+00
 -1      1694 1.23410E+02 2.69303E+01 0.00000E+00
 -1      1695 1.22702E+02 2.66984E+01 0.00000E+00
 -1      1696 1.25009E+02 2.72719E+01 0.00000E+00
 -1      1697 1.24258E+02 2.71951E+01 0.00000E+00
 -1      1698 1.26672E+02 2.70921E+01 0.00000E+00
 -1      1699 1.25907E+02 2.71814E+01 0.00000E+00
 -1      1700 1.28320E+02 2.66601E+01 0.00000E+00
 -1      1701 1.27573E+02 2.69243E+01 0.00000E+00
 -1      1702 1.29746E+02 2.58371E+01 0.00000E+00
 -1      1703 1.29115E+02 2.62328E+01 0.00000E+00
 -1      1704 1.31109E+02 2.47323E+01 0.00000E+00
 -1      1705 1.30522E+02 2.53198E+01 0.00000E+00
 -1      1706 1.32023E+02 2.33228E+01 0.00000E+00
 -1      1707 1.31627E+02 2.39559E+01 0.00000E+00
 -1      1708 1.32663E+02 2.18125E+01 0.00000E+00
 -1      1709 1.32407E+02 2.25300E+01 0.00000E+00
 -1      1710 1.33008E+02 2.01063E+01 0.00000E+00
 -1      1711 1.32912E+02 2.09191E+01 0.00000E+00
 -1      1712 1.30976E+02 1.32739E+01 0.00000E+00
 -1      1713 1.32117E+02 1.47492E+01 0.00000E+00
 -1      1714 1.48437E+02 2.56875E+00 0.00000E+00
 -1      1715 1.47138E+02 3.30625E+00 0.00000E+00
 -1      1716 1.33402E+02 1.79078E+01 0.00000E+00
 -1      1717 1.32850E+02 1.63288E+01 0.00000E+00
 -1      1718 1.33611E+02 1.96611E+01 0.00000E+00
 -1      1719 1.29346E+02 1.23318E+01 0.00000E+00
 -1      1720 1.27629E+02 1.17206E+01 0.00000E+00
 -1      1721 1.25881E+02 1.13093E+01 0.00000E+00
 -1      1722 1.24086E+02 1.14404E+01 0.00000E+00
 -1      1723 1.22373E+02 1.19537E+01 0.00000E+00
 -1      1724 1.20817E+02 1.27723E+01 0.00000E+00
 -1      1725 1.19533E+02 1.39500E+01 0.00000E+00
 -1      1726 1.18387E+02 1.53053E+01 0.00000E+00
 -1      1727 1.17626E+02 1.69055E+01 0.00000E+00
 -1      1728 1.17259E+02 1.86588E+01 0.00000E+00
 -1      1729 1.17235E+02 2.03756E+01 0.00000E+00
 -1      1730 1.17612E+02 2.20595E+01 0.00000E+00
 -1      1731 1.18286E+02 2.36200E+01 0.00000E+00
 -1      1732 1.19283E+02 2.49737E+01 0.00000E+00
 -1      1733 1.20483E+02 2.61877E+01 0.00000E+00
 -1      1734 1.22004E+02 2.70855E+01 0.00000E+00
 -1      1735 1.23715E+02 2.76552E+01 0.00000E+00
 -1      1736 1.25461E+02 2.78294E+01 0.00000E+00
 -1      1737 1.27261E+02 2.75711E+01 0.00000E+00
 -1      1738 1.28958E+02 2.69759E+01 0.00000E+00
 -1      1739 1.30528E+02 2.60312E+01 0.00000E+00
 -1      1740 1.31821E+02 2.47375E+01 0.00000E+00
 -1      1741 1.32722E+02 2.31682E+01 0.00000E+00
 -1      1742 1.33355E+02 2.14819E+01 0.00000E+00
 -1      1743 2.87400E+00 4.77875E+01 0.00000E+00
 -1      1744 3.89700E+00 4.04125E+01 0.00000E+00
 -1      1745 3.89700E+00 4.18875E+01 0.00000E+00
 -1      1746 3.89700E+00 4.33625E+01 0.00000E+00
 -1      1747 3.89700E+00 4.48375E+01 0.00000E+00
 -1      1748 5.19600E+00 4.26250E+01 0.00000E+00
 -1      1749 3.89700E+00 3.45500E+01 0.00000E+00
 -1      1750 3.89700E+00 3.60000E+01 0.00000E+00
 -1      1751 3.89700E+00 3.16000E+01 0.00000E+00
 -1      1752 3.89700E+00 3.30750E+01 0.00000E+00
 -1      1753 5.19600E+00 3.38000E+01 0.00000E+00
 -1      1754 3.89700E+00 2.86500E+01 0.00000E+00
 -1      1755 3.89700E+00 3.01250E+01 0.00000E+00
 -1      1756 5.19600E+00 3.08500E+01 0.00000E+00
 -1      1757 3.89700E+00 2.57000E+01 0.00000E+00
 -1      1758 3.89700E+00 2.71750E+01 0.00000E+00
 -1      1759 5.19600E+00 2.79000E+01 0.00000E+00
 -1      1760 3.89700E+00 2.27500E+01 0.00000E+00
 -1      1761 3.89700E+00 2.42250E+01 0.00000E+00
 -1      1762 5.19600E+00 2.49500E+01 0.00000E+00
 -1      1763 3.89700E+00 1.98000E+01 0.00000E+00
 -1      1764 3.89700E+00 2.12750E+01 0.00000E+00
 -1      1765 5.19600E+00 2.20000E+01 0.00000E+00
 -1      1766 3.89700E+00 1.69000E+01 0.00000E+00
 -1      1767 3.89700E+00 1.83500E+01 0.00000E+00
 -1      1768 5.19600E+00 1.90750E+01 0.00000E+00
 -1      1769 3.89700E+00 1.39500E+01 0.00000E+00
 -1      1770 3.89700E+00 1.54250E+01 0.00000E+00
 -1      1771 5.19600E+00 1.61500E+01 0.00000E+00
 -1      1772 3.89700E+00 1.10000E+01 0.00000E+00
 -1      1773 3.89700E+00 1.24750E+01 0.00000E+00
 -1      1774 5.19600E+00 1.32000E+01 0.00000E+00
 -1      1775 3.89700E+00 8.05000E+00 0.00000E+00
 -1      1776 3.89700E+00 9.52500E+00 0.00000E+00
 -1      1777 5.19600E+00 1.02500E+01 0.00000E+00
 -1      1778 3.89700E+00 5.10000E+00 0.00000E+00
 -1      1779 3.89700E+00 6.57500E+00 0.00000E+00
 -1      1780 5.19600E+00 7.30000E+00 0.00000E+00
 -1      1781 4.20450E+00 3.09687E+00 0.00000E+00
 -1      1782 4.06650E+00 4.19063E+00 0.00000E+00
 -1      1783 5.36550E+00 4.91563E+00 0.00000E+00
 -1      1784 5.70450E+00 3.09687E+00 0.00000E+00
 -1      1785 3.62400E+00 4.64885E+01 0.00000E+00
 -1      1786 8.70450E+00 3.09687E+00 0.00000E+00
 -1      1787 7.20450E+00 3.09687E+00 0.00000E+00
 -1      1788 7.03500E+00 4.00625E+00 0.00000E+00
 -1      1789 4.92300E+00 4.57510E+01 0.00000E+00
 -1      1790 8.40000E+00 4.61030E+01 0.00000E+00
 -1      1791 9.90000E+00 4.61030E+01 0.00000E+00
 -1      1792 1.14000E+01 4.61030E+01 0.00000E+00
 -1      1793 1.29000E+01 4.61030E+01 0.00000E+00
 -1      1794 1.06500E+01 4.48040E+01 0.00000E+00
 -1      1795 1.44000E+01 4.61030E+01 0.00000E+00
 -1      1796 1.59000E+01 4.61030E+01 0.00000E+00
 -1      1797 1.36500E+01 4.48040E+01 0.00000E+00
 -1      1798 1.74000E+01 4.61030E+01 0.00000E+00
 -1      1799 1.89000E+01 4.61030E+01 0.00000E+00
 -1      1800 1.66500E+01 4.48040E+01 0.00000E+00
 -1      1801 2.04000E+01 4.61030E+01 0.00000E+00
 -1      1802 2.19000E+01 4.61030E+01 0.00000E+00
 -1      1803 1.96500E+01 4.48040E+01 0.00000E+00
 -1      1804 2.34000E+01 4.61030E+01 0.00000E+00
 -1      1805 2.49000E+01 4.61030E+01 0.00000E+00
 -1      1806 2.26500E+01 4.48040E+01 0.00000E+00
 -1      1807 2.64000E+01 4.61030E+01 0.00000E+00
 -1      1808 2.79000E+01 4.61030E+01 0.00000E+00
 -1      1809 2.56500E+01 4.48040E+01 0.00000E+00
 -1      1810 2.94000E+01 4.61030E+01 0.00000E+00
 -1      1811 3.09000E+01 4.61030E+01 0.00000E+00
 -1      1812 2.86500E+01 4.48040E+01 0.00000E+00
 -1      1813 3.24000E+01 4.61030E+01 0.00000E+00
 -1      1814 3.39000E+01 4.61030E+01 0.00000E+00
 -1      1815 3.16500E+01 4.48040E+01 0.00000E+00
 -1      1816 3.54000E+01 4.61030E+01 0.00000E+00
 -1      1817 3.69000E+01 4.61030E+01 0.00000E+00
 -1      1818 3.46500E+01 4.48040E+01 0.00000E+00
 -1      1819 3.84000E+01 4.61030E+01 0.00000E+00
 -1      1820 3.99000E+01 4.61030E+01 0.00000E+00
 -1      1821 3.76500E+01 4.48040E+01 0.00000E+00
 -1      1822 4.14000E+01 4.61030E+01 0.00000E+00
 -1      1823 4.29000E+01 4.61030E+01 0.00000E+00
 -1      1824 4.06500E+01 4.48040E+01 0.00000E+00
 -1      1825 4.44000E+01 4.61030E+01 0.00000E+00
 -1      1826 4.59000E+01 4.61030E+01 0.00000E+00
 -1      1827 4.36500E+01 4.48040E+01 0.00000E+00
 -1      1828 4.74000E+01 4.61030E+01 0.00000E+00
 -1      1829 4.89000E+01 4.61030E+01 0.00000E+00
 -1      1830 4.66500E+01 4.48040E+01 0.00000E+00
 -1      1831 5.04000E+01 4.61030E+01 0.00000E+00
 -1      1832 5.19000E+01 4.61030E+01 0.00000E+00
 -1      1833 4.96500E+01 4.48040E+01 0.00000E+00
 -1      1834 5.34000E+01 4.61030E+01 0.00000E+00
 -1      1835 5.49000E+01 4.61030E+01 0.00000E+00
 -1      1836 5.26500E+01 4.48040E+01 0.00000E+00
 -1      1837 5.64000E+01 4.61030E+01 0.00000E+00
 -1      1838 5.79000E+01 4.61030E+01 0.00000E+00
 -1      1839 5.56500E+01 4.48040E+01 0.00000E+00
 -1      1840 5.94000E+01 4.61030E+01 0.00000E+00
 -1      1841 6.09000E+01 4.61030E+01 0.00000E+00
 -1      1842 5.86500E+01 4.48040E+01 0.00000E+00
 -1      1843 6.24000E+01 4.61030E+01 0.00000E+00
 -1      1844 6.39000E+01 4.61030E+01 0.00000E+00
 -1      1845 6.16500E+01 4.48040E+01 0.00000E+00
 -1      1846 6.54000E+01 4.61030E+01 0.00000E+00
 -1      1847 6.69000E+01 4.61030E+01 0.00000E+00
 -1      1848 6.46500E+01 4.48040E+01 0.00000E+00
 -1      1849 6.84000E+01 4.61030E+01 0.00000E+00
 -1      1850 6.99000E+01 4.61030E+01 0.00000E+00
 -1      1851 6.76500E+01 4.48040E+01 0.00000E+00
 -1      1852 7.14000E+01 4.61030E+01 0.00000E+00
 -1      1853 7.29000E+01 4.61030E+01 0.00000E+00
 -1      1854 7.06500E+01 4.48040E+01 0.00000E+00
 -1      1855 7.44000E+01 4.61030E+01 0.00000E+00
 -1      1856 7.59000E+01 4.61030E+01 0.00000E+00
 -1      1857 7.36500E+01 4.48040E+01 0.00000E+00
 -1      1858 7.74000E+01 4.61030E+01 0.00000E+00
 -1      1859 7.89000E+01 4.61030E+01 0.00000E+00
 -1      1860 7.66500E+01 4.48040E+01 0.00000E+00
 -1      1861 8.04000E+01 4.61030E+01 0.00000E+00
 -1      1862 8.19000E+01 4.61030E+01 0.00000E+00
 -1      1863 7.96500E+01 4.48040E+01 0.00000E+00
 -1      1864 8.34000E+01 4.61030E+01 0.00000E+00
 -1      1865 8.49000E+01 4.61030E+01 0.00000E+00
 -1      1866 8.26500E+01 4.48040E+01 0.00000E+00
 -1      1867 8.64000E+01 4.61030E+01 0.00000E+00
 -1      1868 8.79000E+01 4.61030E+01 0.00000E+00
 -1      1869 8.56500E+01 4.48040E+01 0.00000E+00
 -1      1870 8.94000E+01 4.61030E+01 0.00000E+00
 -1      1871 9.09000E+01 4.61030E+01 0.00000E+00
 -1      1872 8.86500E+01 4.48040E+01 0.00000E+00
 -1      1873 9.24000E+01 4.61030E+01 0.00000E+00
 -1      1874 9.39000E+01 4.61030E+01 0.00000E+00
 -1      1875 9.16500E+01 4.48040E+01 0.00000E+00
 -1      1876 9.54000E+01 4.61030E+01 0.00000E+00
 -1      1877 9.69000E+01 4.61030E+01 0.00000E+00
 -1      1878 9.46500E+01 4.48040E+01 0.00000E+00
 -1      1879 9.84000E+01 4.61030E+01 0.00000E+00
 -1      1880 9.99000E+01 4.61030E+01 0.00000E+00
 -1      1881 9.76500E+01 4.48040E+01 0.00000E+00
 -1      1882 1.01400E+02 4.61030E+01 0.00000E+00
 -1      1883 1.02900E+02 4.61030E+01 0.00000E+00
 -1      1884 1.00650E+02 4.48040E+01 0.00000E+00
 -1      1885 1.04400E+02 4.61030E+01 0.00000E+00
 -1      1886 1.05900E+02 4.61030E+01 0.00000E+00
 -1      1887 1.03650E+02 4.48040E+01 0.00000E+00
 -1      1888 1.07400E+02 4.61030E+01 0.00000E+00
 -1      1889 1.08900E+02 4.61030E+01 0.00000E+00
 -1      1890 1.06650E+02 4.48040E+01 0.00000E+00
 -1      1891 1.10400E+02 4.61030E+01 0.00000E+00
 -1      1892 1.11900E+02 4.61030E+01 0.00000E+00
 -1      1893 1.09650E+02 4.48040E+01 0.00000E+00
 -1      1894 1.13400E+02 4.61030E+01 0.00000E+00
 -1      1895 1.14900E+02 4.61030E+01 0.00000E+00
 -1      1896 1.12650E+02 4.48040E+01 0.00000E+00
 -1      1897 1.16400E+02 4.61030E+01 0.00000E+00
 -1      1898 1.17900E+02 4.61030E+01 0.00000E+00
 -1      1899 1.15650E+02 4.48040E+01 0.00000E+00
 -1      1900 1.19400E+02 4.61030E+01 0.00000E+00
 -1      1901 1.20900E+02 4.61030E+01 0.00000E+00
 -1      1902 1.18650E+02 4.48040E+01 0.00000E+00
 -1      1903 1.22400E+02 4.61030E+01 0.00000E+00
 -1      1904 1.23900E+02 4.61030E+01 0.00000E+00
 -1      1905 1.21650E+02 4.48040E+01 0.00000E+00
 -1      1906 1.25400E+02 4.61030E+01 0.00000E+00
 -1      1907 1.26900E+02 4.61030E+01 0.00000E+00
 -1      1908 1.24650E+02 4.48040E+01 0.00000E+00
 -1      1909 1.28400E+02 4.61030E+01 0.00000E+00
 -1      1910 1.29900E+02 4.61030E+01 0.00000E+00
 -1      1911 1.27650E+02 4.48040E+01 0.00000E+00
 -1      1912 1.31400E+02 4.61030E+01 0.00000E+00
 -1      1913 1.32900E+02 4.61030E+01 0.00000E+00
 -1      1914 1.30650E+02 4.48040E+01 0.00000E+00
 -1      1915 1.34400E+02 4.61030E+01 0.00000E+00
 -1      1916 1.35900E+02 4.61030E+01 0.00000E+00
 -1      1917 1.33650E+02 4.48040E+01 0.00000E+00
 -1      1918 1.37400E+02 4.61030E+01 0.00000E+00
 -1      1919 1.38900E+02 4.61030E+01 0.00000E+00
 -1      1920 1.36650E+02 4.48040E+01 0.00000E+00
 -1      1921 1.40400E+02 4.61030E+01 0.00000E+00
 -1      1922 1.41900E+02 4.61030E+01 0.00000E+00
 -1      1923 1.39650E+02 4.48040E+01 0.00000E+00
 -1      1924 1.43244E+02 4.61616E+01 0.00000E+00
 -1      1925 1.44744E+02 4.61616E+01 0.00000E+00
 -1      1926 1.45182E+02 4.49799E+01 0.00000E+00
 -1      1927 1.42494E+02 4.48626E+01 0.00000E+00
 -1      1928 1.17045E+01 3.09687E+00 0.00000E+00
 -1      1929 1.02045E+01 3.09687E+00 0.00000E+00
 -1      1930 1.00350E+01 4.00625E+00 0.00000E+00
 -1      1931 1.47045E+01 3.09687E+00 0.00000E+00
 -1      1932 1.32045E+01 3.09687E+00 0.00000E+00
 -1      1933 1.30350E+01 4.00625E+00 0.00000E+00
 -1      1934 1.77045E+01 3.09687E+00 0.00000E+00
 -1      1935 1.62045E+01 3.09687E+00 0.00000E+00
 -1      1936 1.60350E+01 4.00625E+00 0.00000E+00
 -1      1937 2.07045E+01 3.09687E+00 0.00000E+00
 -1      1938 1.92045E+01 3.09687E+00 0.00000E+00
 -1      1939 1.90350E+01 4.00625E+00 0.00000E+00
 -1      1940 2.37045E+01 3.09687E+00 0.00000E+00
 -1      1941 2.22045E+01 3.09687E+00 0.00000E+00
 -1      1942 2.20350E+01 4.00625E+00 0.00000E+00
 -1      1943 2.67045E+01 3.09687E+00 0.00000E+00
 -1      1944 2.52045E+01 3.09687E+00 0.00000E+00
 -1      1945 2.50350E+01 4.00625E+00 0.00000E+00
 -1      1946 2.97045E+01 3.09687E+00 0.00000E+00
 -1      1947 2.82045E+01 3.09687E+00 0.00000E+00
 -1      1948 2.80350E+01 4.00625E+00 0.00000E+00
 -1      1949 3.27045E+01 3.09687E+00 0.00000E+00
 -1      1950 3.12045E+01 3.09687E+00 0.00000E+00
 -1      1951 3.10350E+01 4.00625E+00 0.00000E+00
 -1      1952 3.57045E+01 3.09687E+00 0.00000E+00
 -1      1953 3.42045E+01 3.09687E+00 0.00000E+00
 -1      1954 3.40350E+01 4.00625E+00 0.00000E+00
 -1      1955 3.87045E+01 3.09687E+00 0.00000E+00
 -1      1956 3.72045E+01 3.09687E+00 0.00000E+00
 -1      1957 3.70350E+01 4.00625E+00 0.00000E+00
 -1      1958 4.17045E+01 3.09687E+00 0.00000E+00
 -1      1959 4.02045E+01 3.09687E+00 0.00000E+00
 -1      1960 4.00350E+01 4.00625E+00 0.00000E+00
 -1      1961 4.47045E+01 3.09687E+00 0.00000E+00
 -1      1962 4.32045E+01 3.09687E+00 0.00000E+00
 -1      1963 4.30350E+01 4.00625E+00 0.00000E+00
 -1      1964 4.77045E+01 3.09687E+00 0.00000E+00
 -1      1965 4.62045E+01 3.09687E+00 0.00000E+00
 -1      1966 4.60350E+01 4.00625E+00 0.00000E+00
 -1      1967 5.07045E+01 3.09687E+00 0.00000E+00
 -1      1968 4.92045E+01 3.09687E+00 0.00000E+00
 -1      1969 4.90350E+01 4.00625E+00 0.00000E+00
 -1      1970 5.37045E+01 3.09687E+00 0.00000E+00
 -1      1971 5.22045E+01 3.09687E+00 0.00000E+00
 -1      1972 5.20350E+01 4.00625E+00 0.00000E+00
 -1      1973 5.67045E+01 3.09687E+00 0.00000E+00
 -1      1974 5.52045E+01 3.09687E+00 0.00000E+00
 -1      1975 5.50350E+01 4.00625E+00 0.00000E+00
 -1      1976 5.97045E+01 3.09687E+00 0.00000E+00
 -1      1977 5.82045E+01 3.09687E+00 0.00000E+00
 -1      1978 5.80350E+01 4.00625E+00 0.00000E+00
 -1      1979 6.27045E+01 3.09687E+00 0.00000E+00
 -1      1980 6.12045E+01 3.09687E+00 0.00000E+00
 -1      1981 6.10350E+01 4.00625E+00 0.00000E+00
 -1      1982 6.57045E+01 3.09687E+00 0.00000E+00
 -1      1983 6.42045E+01 3.09687E+00 0.00000E+00
 -1      1984 6.40350E+01 4.00625E+00 0.00000E+00
 -1      1985 6.87045E+01 3.09687E+00 0.00000E+00
 -1      1986 6.72045E+01 3.09687E+00 0.00000E+00
 -1      1987 6.70350E+01 4.00625E+00 0.00000E+00
 -1      1988 7.17045E+01 3.09687E+00 0.00000E+00
 -1      1989 7.02045E+01 3.09687E+00 0.00000E+00
 -1      1990 7.00350E+01 4.00625E+00 0.00000E+00
 -1      1991 7.47045E+01 3.09687E+00 0.00000E+00
 -1      1992 7.32045E+01 3.09687E+00 0.00000E+00
 -1      1993 7.30350E+01 4.00625E+00 0.00000E+00
 -1      1994 7.77045E+01 3.09687E+00 0.00000E+00
 -1      1995 7.62045E+01 3.09687E+00 0.00000E+00
 -1      1996 7.60350E+01 4.00625E+00 0.00000E+00
 -1      1997 8.07045E+01 3.09687E+00 0.00000E+00
 -1      1998 7.92045E+01 3.09687E+00 0.00000E+00
 -1      1999 7.90350E+01 4.00625E+00 0.00000E+00
 -1      2000 8.37045E+01 3.09687E+00 0.00000E+00
 -1      2001 8.22045E+01 3.09687E+00 0.00000E+00
 -1      2002 8.20350E+01 4.00625E+00 0.00000E+00
 -1      2003 8.67045E+01 3.09687E+00 0.00000E+00
 -1      2004 8.52045E+01 3.09687E+00 0.00000E+00
 -1      2005 8.50350E+01 4.00625E+00 0.00000E+00
 -1      2006 8.97045E+01 3.09687E+00 0.00000E+00
 -1      2007 8.82045E+01 3.09687E+00 0.00000E+00
 -1      2008 8.80350E+01 4.00625E+00 0.00000E+00
 -1      2009 9.27045E+01 3.09687E+00 0.00000E+00
 -1      2010 9.12045E+01 3.09687E+00 0.00000E+00
 -1      2011 9.10350E+01 4.00625E+00 0.00000E+00
 -1      2012 9.57045E+01 3.09687E+00 0.00000E+00
 -1      2013 9.42045E+01 3.09687E+00 0.00000E+00
 -1      2014 9.40350E+01 4.00625E+00 0.00000E+00
 -1      2015 9.87045E+01 3.09687E+00 0.00000E+00
 -1      2016 9.72045E+01 3.09687E+00 0.00000E+00
 -1      2017 9.70350E+01 4.00625E+00 0.00000E+00
 -1      2018 1.01704E+02 3.09687E+00 0.00000E+00
 -1      2019 1.00204E+02 3.09687E+00 0.00000E+00
 -1      2020 1.00035E+02 4.00625E+00 0.00000E+00
 -1      2021 1.04704E+02 3.09687E+00 0.00000E+00
 -1      2022 1.03204E+02 3.09687E+00 0.00000E+00
 -1      2023 1.03035E+02 4.00625E+00 0.00000E+00
 -1      2024 1.07704E+02 3.09687E+00 0.00000E+00
 -1      2025 1.06204E+02 3.09687E+00 0.00000E+00
 -1      2026 1.06035E+02 4.00625E+00 0.00000E+00
 -1      2027 1.10704E+02 3.09687E+00 0.00000E+00
 -1      2028 1.09204E+02 3.09687E+00 0.00000E+00
 -1      2029 1.09035E+02 4.00625E+00 0.00000E+00
 -1      2030 1.13704E+02 3.09687E+00 0.00000E+00
 -1      2031 1.12204E+02 3.09687E+00 0.00000E+00
 -1      2032 1.12035E+02 4.00625E+00 0.00000E+00
 -1      2033 1.16704E+02 3.09687E+00 0.00000E+00
 -1      2034 1.15204E+02 3.09687E+00 0.00000E+00
 -1      2035 1.15035E+02 4.00625E+00 0.00000E+00
 -1      2036 1.19704E+02 3.09687E+00 0.00000E+00
 -1      2037 1.18204E+02 3.09687E+00 0.00000E+00
 -1      2038 1.18035E+02 4.00625E+00 0.00000E+00
 -1      2039 1.22704E+02 3.09687E+00 0.00000E+00
 -1      2040 1.21204E+02 3.09687E+00 0.00000E+00
 -1      2041 1.21035E+02 4.00625E+00 0.00000E+00
 -1      2042 1.25704E+02 3.09687E+00 0.00000E+00
 -1      2043 1.24204E+02 3.09687E+00 0.00000E+00
 -1      2044 1.24035E+02 4.00625E+00 0.00000E+00
 -1      2045 1.28704E+02 3.09687E+00 0.00000E+00
 -1      2046 1.27204E+02 3.09687E+00 0.00000E+00
 -1      2047 1.27035E+02 4.00625E+00 0.00000E+00
 -1      2048 1.31704E+02 3.09687E+00 0.00000E+00
 -1      2049 1.30204E+02 3.09687E+00 0.00000E+00
 -1      2050 1.30035E+02 4.00625E+00 0.00000E+00
 -1      2051 1.34704E+02 3.09687E+00 0.00000E+00
 -1      2052 1.33204E+02 3.09687E+00 0.00000E+00
 -1      2053 1.33035E+02 4.00625E+00 0.00000E+00
 -1      2054 1.37704E+02 3.09687E+00 0.00000E+00
 -1      2055 1.36204E+02 3.09687E+00 0.00000E+00
 -1      2056 1.36035E+02 4.00625E+00 0.00000E+00
 -1      2057 1.40704E+02 3.09687E+00 0.00000E+00
 -1      2058 1.39204E+02 3.09687E+00 0.00000E+00
 -1      2059 1.39035E+02 4.00625E+00 0.00000E+00
 -1      2060 1.43704E+02 3.09687E+00 0.00000E+00
 -1      2061 1.42204E+02 3.09687E+00 0.00000E+00
 -1      2062 1.42035E+02 4.00625E+00 0.00000E+00
 -1      2063 1.46171E+02 3.20156E+00 0.00000E+00
 -1      2064 1.44671E+02 3.20156E+00 0.00000E+00
 -1      2065 1.44502E+02 4.11094E+00 0.00000E+00
 -1      2066 1.46435E+02 4.32031E+00 0.00000E+00
 -1      2067 1.46103E+02 1.25375E+01 0.00000E+00
 -1      2068 1.46103E+02 1.10625E+01 0.00000E+00
 -1      2069 1.46103E+02 9.58750E+00 0.00000E+00
 -1      2070 1.46103E+02 8.11250E+00 0.00000E+00
 -1      2071 1.44804E+02 1.03250E+01 0.00000E+00
 -1      2072 1.46269E+02 6.95391E+00 0.00000E+00
 -1      2073 1.46269E+02 5.47891E+00 0.00000E+00
 -1      2074 1.45302E+02 5.37422E+00 0.00000E+00
 -1      2075 1.44970E+02 7.69141E+00 0.00000E+00
 -1      2076 1.46103E+02 1.54375E+01 0.00000E+00
 -1      2077 1.46103E+02 1.39875E+01 0.00000E+00
 -1      2078 1.44804E+02 1.32500E+01 0.00000E+00
 -1      2079 1.46103E+02 1.83875E+01 0.00000E+00
 -1      2080 1.46103E+02 1.69125E+01 0.00000E+00
 -1      2081 1.44804E+02 1.61750E+01 0.00000E+00
 -1      2082 1.46103E+02 2.13375E+01 0.00000E+00
 -1      2083 1.46103E+02 1.98625E+01 0.00000E+00
 -1      2084 1.44804E+02 1.91250E+01 0.00000E+00
 -1      2085 1.46103E+02 2.42875E+01 0.00000E+00
 -1      2086 1.46103E+02 2.28125E+01 0.00000E+00
 -1      2087 1.44804E+02 2.20750E+01 0.00000E+00
 -1      2088 1.46103E+02 2.72375E+01 0.00000E+00
 -1      2089 1.46103E+02 2.57625E+01 0.00000E+00
 -1      2090 1.44804E+02 2.50250E+01 0.00000E+00
 -1      2091 1.46103E+02 3.01875E+01 0.00000E+00
 -1      2092 1.46103E+02 2.87125E+01 0.00000E+00
 -1      2093 1.44804E+02 2.79750E+01 0.00000E+00
 -1      2094 1.46103E+02 3.30875E+01 0.00000E+00
 -1      2095 1.46103E+02 3.16375E+01 0.00000E+00
 -1      2096 1.44804E+02 3.09000E+01 0.00000E+00
 -1      2097 1.46103E+02 3.60375E+01 0.00000E+00
 -1      2098 1.46103E+02 3.45625E+01 0.00000E+00
 -1      2099 1.44804E+02 3.38250E+01 0.00000E+00
 -1      2100 1.46103E+02 3.89875E+01 0.00000E+00
 -1      2101 1.46103E+02 3.75125E+01 0.00000E+00
 -1      2102 1.44804E+02 3.67750E+01 0.00000E+00
 -1      2103 1.46103E+02 4.19375E+01 0.00000E+00
 -1      2104 1.46103E+02 4.04625E+01 0.00000E+00
 -1      2105 1.44804E+02 3.97250E+01 0.00000E+00
 -1      2106 1.33313E+02 1.56723E+01 0.00000E+00
 -1      2107 1.33648E+02 1.64254E+01 0.00000E+00
 -1      2108 1.34431E+02 1.92043E+01 0.00000E+00
 -1      2109 1.34423E+02 2.01316E+01 0.00000E+00
 -1      2110 1.33920E+02 1.73298E+01 0.00000E+00
 -1      2111 1.34137E+02 1.81557E+01 0.00000E+00
 -1      2112 1.32539E+02 1.40360E+01 0.00000E+00
 -1      2113 1.32937E+02 1.48626E+01 0.00000E+00
 -1      2114 1.31060E+02 1.24303E+01 0.00000E+00
 -1      2115 1.31801E+02 1.30790E+01 0.00000E+00
 -1      2116 3.89700E+00 3.74688E+01 0.00000E+00
 -1      2117 3.89700E+00 3.89437E+01 0.00000E+00
 -1      2118 5.19600E+00 3.96813E+01 0.00000E+00
 -1      2119 5.19600E+00 3.67438E+01 0.00000E+00
 -1      2120 1.27492E+02 1.08393E+01 0.00000E+00
 -1      2121 1.28320E+02 1.11571E+01 0.00000E+00
 -1      2122 1.25503E+02 1.04510E+01 0.00000E+00
 -1      2123 1.26423E+02 1.05446E+01 0.00000E+00
 -1      2124 1.23477E+02 1.08845E+01 0.00000E+00
 -1      2125 1.24351E+02 1.06598E+01 0.00000E+00
 -1      2126 1.21715E+02 1.14059E+01 0.00000E+00
 -1      2127 1.22554E+02 1.11173E+01 0.00000E+00
 -1      2128 1.19999E+02 1.24153E+01 0.00000E+00
 -1      2129 1.20716E+02 1.18852E+01 0.00000E+00
 -1      2130 1.18730E+02 1.38190E+01 0.00000E+00
 -1      2131 1.19298E+02 1.31714E+01 0.00000E+00
 -1      2132 1.17573E+02 1.52345E+01 0.00000E+00
 -1      2133 1.18152E+02 1.45267E+01 0.00000E+00
 -1      2134 1.17917E+02 1.37481E+01 0.00000E+00
 -1      2135 1.16776E+02 1.71966E+01 0.00000E+00
 -1      2136 1.16959E+02 1.63042E+01 0.00000E+00
 -1      2137 1.16408E+02 1.89183E+01 0.00000E+00
 -1      2138 1.16592E+02 1.80574E+01 0.00000E+00
 -1      2139 1.15926E+02 1.74561E+01 0.00000E+00
 -1      2140 1.16554E+02 2.09456E+01 0.00000E+00
 -1      2141 1.16394E+02 2.00896E+01 0.00000E+00
 -1      2142 1.16988E+02 2.26016E+01 0.00000E+00
 -1      2143 1.16771E+02 2.17736E+01 0.00000E+00
 -1      2144 1.15931E+02 2.14876E+01 0.00000E+00
 -1      2145 1.17928E+02 2.43512E+01 0.00000E+00
 -1      2146 1.17472E+02 2.36188E+01 0.00000E+00
 -1      2147 1.18970E+02 2.57923E+01 0.00000E+00
 -1      2148 1.18429E+02 2.51711E+01 0.00000E+00
 -1      2149 1.20287E+02 2.69780E+01 0.00000E+00
 -1      2150 1.19629E+02 2.63852E+01 0.00000E+00
 -1      2151 1.18775E+02 2.65826E+01 0.00000E+00
 -1      2152 1.22094E+02 2.82045E+01 0.00000E+00
 -1      2153 1.21231E+02 2.78995E+01 0.00000E+00
 -1      2154 1.23790E+02 2.87339E+01 0.00000E+00
 -1      2155 1.22942E+02 2.84692E+01 0.00000E+00
 -1      2156 1.22169E+02 2.92833E+01 0.00000E+00
 -1      2157 1.25980E+02 2.84707E+01 0.00000E+00
 -1      2158 1.25081E+02 2.85611E+01 0.00000E+00
 -1      2159 1.27854E+02 2.82478E+01 0.00000E+00
 -1      2160 1.26952E+02 2.84157E+01 0.00000E+00
 -1      2161 1.29702E+02 2.74069E+01 0.00000E+00
 -1      2162 1.28907E+02 2.78342E+01 0.00000E+00
 -1      2163 1.31252E+02 2.63722E+01 0.00000E+00
 -1      2164 1.30477E+02 2.68895E+01 0.00000E+00
 -1      2165 1.30426E+02 2.77479E+01 0.00000E+00
 -1      2166 1.32654E+02 2.47320E+01 0.00000E+00
 -1      2167 1.32136E+02 2.55085E+01 0.00000E+00
 -1      2168 1.33535E+02 2.30722E+01 0.00000E+00
 -1      2169 1.33152E+02 2.38651E+01 0.00000E+00
 -1      2170 1.34184E+02 2.12316E+01 0.00000E+00
 -1      2171 1.33935E+02 2.21251E+01 0.00000E+00
 -1      2172 1.29209E+02 1.14505E+01 0.00000E+00
 -1      2173 1.30098E+02 1.17440E+01 0.00000E+00
 -1      2174 1.29072E+02 1.05692E+01 0.00000E+00
 -1      2175 1.32622E+02 1.31924E+01 0.00000E+00
 -1      2176 1.33443E+02 1.33058E+01 0.00000E+00
 -1      2177 1.32706E+02 1.23487E+01 0.00000E+00
 -1      2178 6.42300E+00 4.57510E+01 0.00000E+00
 -1      2179 1.30923E+02 1.15490E+01 0.00000E+00
 -1      2180 7.17300E+00 4.44520E+01 0.00000E+00
 -1      2181 1.34383E+02 1.66733E+01 0.00000E+00
 -1      2182 1.34949E+02 1.86263E+01 0.00000E+00
 -1      2183 1.45665E+02 4.31193E+01 0.00000E+00
 -1      2184 1.33735E+02 1.49591E+01 0.00000E+00
 -1      2185 1.35004E+02 2.07748E+01 0.00000E+00
 -1      2186 1.34365E+02 2.28220E+01 0.00000E+00
 -1      2187 1.32085E+02 2.63668E+01 0.00000E+00
 -1      2188 1.32034E+02 2.72251E+01 0.00000E+00
 -1      2189 1.32918E+02 2.63613E+01 0.00000E+00
 -1      2190 1.28598E+02 2.86788E+01 0.00000E+00
 -1      2191 1.24308E+02 2.93752E+01 0.00000E+00
 -1      2192 1.20377E+02 2.80970E+01 0.00000E+00
 -1      2193 1.16631E+02 2.33328E+01 0.00000E+00
 -1      2194 1.15727E+02 1.94883E+01 0.00000E+00
 -1      2195 1.16724E+02 1.55255E+01 0.00000E+00
 -1      2196 1.16489E+02 1.47469E+01 0.00000E+00
 -1      2197 1.15875E+02 1.58166E+01 0.00000E+00
 -1      2198 1.19196E+02 1.22842E+01 0.00000E+00
 -1      2199 1.20897E+02 1.10488E+01 0.00000E+00
 -1      2200 1.22819E+02 1.03367E+01 0.00000E+00
 -1      2201 1.27115E+02 9.98106E+00 0.00000E+00
 -1      2202 1.24894E+02 9.89507E+00 0.00000E+00
 -1      2203 1.17615E+02 2.51699E+01 0.00000E+00
 -1      2204 1.26572E+02 2.91474E+01 0.00000E+00
 -1      2205 1.33467E+02 2.46360E+01 0.00000E+00
 -1      2206 1.07850E+01 5.30525E+00 0.00000E+00
 -1      2207 9.28500E+00 5.30525E+00 0.00000E+00
 -1      2208 6.49500E+00 3.01125E+01 0.00000E+00
 -1      2209 6.49500E+00 3.15875E+01 0.00000E+00
 -1      2210 6.49500E+00 3.30625E+01 0.00000E+00
 -1      2211 6.49500E+00 3.45375E+01 0.00000E+00
 -1      2212 7.79400E+00 3.23250E+01 0.00000E+00
 -1      2213 6.49500E+00 2.42125E+01 0.00000E+00
 -1      2214 6.49500E+00 2.56875E+01 0.00000E+00
 -1      2215 6.49500E+00 2.12625E+01 0.00000E+00
 -1      2216 6.49500E+00 2.27375E+01 0.00000E+00
 -1      2217 7.79400E+00 2.34750E+01 0.00000E+00
 -1      2218 6.49500E+00 1.83625E+01 0.00000E+00
 -1      2219 6.49500E+00 1.98125E+01 0.00000E+00
 -1      2220 7.79400E+00 2.05500E+01 0.00000E+00
 -1      2221 6.49500E+00 1.54125E+01 0.00000E+00
 -1      2222 6.49500E+00 1.68875E+01 0.00000E+00
 -1      2223 7.79400E+00 1.76250E+01 0.00000E+00
 -1      2224 6.49500E+00 1.24625E+01 0.00000E+00
 -1      2225 6.49500E+00 1.39375E+01 0.00000E+00
 -1      2226 7.79400E+00 1.46750E+01 0.00000E+00
 -1      2227 6.49500E+00 9.51250E+00 0.00000E+00
 -1      2228 6.49500E+00 1.09875E+01 0.00000E+00
 -1      2229 7.79400E+00 1.17250E+01 0.00000E+00
 -1      2230 1.37850E+01 5.30525E+00 0.00000E+00
 -1      2231 1.22850E+01 5.30525E+00 0.00000E+00
 -1      2232 1.15350E+01 6.60425E+00 0.00000E+00
 -1      2233 9.90000E+00 4.35050E+01 0.00000E+00
 -1      2234 1.14000E+01 4.35050E+01 0.00000E+00
 -1      2235 1.30891E+02 1.05760E+01 0.00000E+00
 -1      2236 1.31853E+02 1.12623E+01 0.00000E+00
 -1      2237 1.29000E+01 4.35050E+01 0.00000E+00
 -1      2238 1.44000E+01 4.35050E+01 0.00000E+00
 -1      2239 1.21500E+01 4.22060E+01 0.00000E+00
 -1      2240 1.59000E+01 4.35050E+01 0.00000E+00
 -1      2241 1.74000E+01 4.35050E+01 0.00000E+00
 -1      2242 1.51500E+01 4.22060E+01 0.00000E+00
 -1      2243 1.89000E+01 4.35050E+01 0.00000E+00
 -1      2244 2.04000E+01 4.35050E+01 0.00000E+00
 -1      2245 1.81500E+01 4.22060E+01 0.00000E+00
 -1      2246 2.19000E+01 4.35050E+01 0.00000E+00
 -1      2247 2.34000E+01 4.35050E+01 0.00000E+00
 -1      2248 2.11500E+01 4.22060E+01 0.00000E+00
 -1      2249 2.49000E+01 4.35050E+01 0.00000E+00
 -1      2250 2.64000E+01 4.35050E+01 0.00000E+00
 -1      2251 2.41500E+01 4.22060E+01 0.00000E+00
 -1      2252 2.79000E+01 4.35050E+01 0.00000E+00
 -1      2253 2.94000E+01 4.35050E+01 0.00000E+00
 -1      2254 2.71500E+01 4.22060E+01 0.00000E+00
 -1      2255 3.09000E+01 4.35050E+01 0.00000E+00
 -1      2256 3.24000E+01 4.35050E+01 0.00000E+00
 -1      2257 3.01500E+01 4.22060E+01 0.00000E+00
 -1      2258 3.39000E+01 4.35050E+01 0.00000E+00
 -1      2259 3.54000E+01 4.35050E+01 0.00000E+00
 -1      2260 3.31500E+01 4.22060E+01 0.00000E+00
 -1      2261 3.69000E+01 4.35050E+01 0.00000E+00
 -1      2262 3.84000E+01 4.35050E+01 0.00000E+00
 -1      2263 3.61500E+01 4.22060E+01 0.00000E+00
 -1      2264 3.99000E+01 4.35050E+01 0.00000E+00
 -1      2265 4.14000E+01 4.35050E+01 0.00000E+00
 -1      2266 3.91500E+01 4.22060E+01 0.00000E+00
 -1      2267 4.29000E+01 4.35050E+01 0.00000E+00
 -1      2268 4.44000E+01 4.35050E+01 0.00000E+00
 -1      2269 4.21500E+01 4.22060E+01 0.00000E+00
 -1      2270 4.59000E+01 4.35050E+01 0.00000E+00
 -1      2271 4.74000E+01 4.35050E+01 0.00000E+00
 -1      2272 4.51500E+01 4.22060E+01 0.00000E+00
 -1      2273 4.89000E+01 4.35050E+01 0.00000E+00
 -1      2274 5.04000E+01 4.35050E+01 0.00000E+00
 -1      2275 4.81500E+01 4.22060E+01 0.00000E+00
 -1      2276 5.19000E+01 4.35050E+01 0.00000E+00
 -1      2277 5.34000E+01 4.35050E+01 0.00000E+00
 -1      2278 5.11500E+01 4.22060E+01 0.00000E+00
 -1      2279 5.49000E+01 4.35050E+01 0.00000E+00
 -1      2280 5.64000E+01 4.35050E+01 0.00000E+00
 -1      2281 5.41500E+01 4.22060E+01 0.00000E+00
 -1      2282 5.79000E+01 4.35050E+01 0.00000E+00
 -1      2283 5.94000E+01 4.35050E+01 0.00000E+00
 -1      2284 5.71500E+01 4.22060E+01 0.00000E+00
 -1      2285 6.09000E+01 4.35050E+01 0.00000E+00
 -1      2286 6.24000E+01 4.35050E+01 0.00000E+00
 -1      2287 6.01500E+01 4.22060E+01 0.00000E+00
 -1      2288 6.39000E+01 4.35050E+01 0.00000E+00
 -1      2289 6.54000E+01 4.35050E+01 0.00000E+00
 -1      2290 6.31500E+01 4.22060E+01 0.00000E+00
 -1      2291 6.69000E+01 4.35050E+01 0.00000E+00
 -1      2292 6.84000E+01 4.35050E+01 0.00000E+00
 -1      2293 6.61500E+01 4.22060E+01 0.00000E+00
 -1      2294 6.99000E+01 4.35050E+01 0.00000E+00
 -1      2295 7.14000E+01 4.35050E+01 0.00000E+00
 -1      2296 6.91500E+01 4.22060E+01 0.00000E+00
 -1      2297 7.29000E+01 4.35050E+01 0.00000E+00
 -1      2298 7.44000E+01 4.35050E+01 0.00000E+00
 -1      2299 7.21500E+01 4.22060E+01 0.00000E+00
 -1      2300 7.59000E+01 4.35050E+01 0.00000E+00
 -1      2301 7.74000E+01 4.35050E+01 0.00000E+00
 -1      2302 7.51500E+01 4.22060E+01 0.00000E+00
 -1      2303 7.89000E+01 4.35050E+01 0.00000E+00
 -1      2304 8.04000E+01 4.35050E+01 0.00000E+00
 -1      2305 7.81500E+01 4.22060E+01 0.00000E+00
 -1      2306 8.19000E+01 4.35050E+01 0.00000E+00
 -1      2307 8.34000E+01 4.35050E+01 0.00000E+00
 -1      2308 8.11500E+01 4.22060E+01 0.00000E+00
 -1      2309 8.49000E+01 4.35050E+01 0.00000E+00
 -1      2310 8.64000E+01 4.35050E+01 0.00000E+00
 -1      2311 8.41500E+01 4.22060E+01 0.00000E+00
 -1      2312 8.79000E+01 4.35050E+01 0.00000E+00
 -1      2313 8.94000E+01 4.35050E+01 0.00000E+00
 -1      2314 8.71500E+01 4.22060E+01 0.00000E+00
 -1      2315 9.09000E+01 4.35050E+01 0.00000E+00
 -1      2316 9.24000E+01 4.35050E+01 0.00000E+00
 -1      2317 9.01500E+01 4.22060E+01 0.00000E+00
 -1      2318 9.39000E+01 4.35050E+01 0.00000E+00
 -1      2319 9.54000E+01 4.35050E+01 0.00000E+00
 -1      2320 9.31500E+01 4.22060E+01 0.00000E+00
 -1      2321 9.69000E+01 4.35050E+01 0.00000E+00
 -1      2322 9.84000E+01 4.35050E+01 0.00000E+00
 -1      2323 9.61500E+01 4.22060E+01 0.00000E+00
 -1      2324 9.99000E+01 4.35050E+01 0.00000E+00
 -1      2325 1.01400E+02 4.35050E+01 0.00000E+00
 -1      2326 9.91500E+01 4.22060E+01 0.00000E+00
 -1      2327 1.02900E+02 4.35050E+01 0.00000E+00
 -1      2328 1.04400E+02 4.35050E+01 0.00000E+00
 -1      2329 1.02150E+02 4.22060E+01 0.00000E+00
 -1      2330 1.05900E+02 4.35050E+01 0.00000E+00
 -1      2331 1.07400E+02 4.35050E+01 0.00000E+00
 -1      2332 1.05150E+02 4.22060E+01 0.00000E+00
 -1      2333 1.08900E+02 4.35050E+01 0.00000E+00
 -1      2334 1.10400E+02 4.35050E+01 0.00000E+00
 -1      2335 1.08150E+02 4.22060E+01 0.00000E+00
 -1      2336 1.11900E+02 4.35050E+01 0.00000E+00
 -1      2337 1.13400E+02 4.35050E+01 0.00000E+00
 -1      2338 1.11150E+02 4.22060E+01 0.00000E+00
 -1      2339 1.14900E+02 4.35050E+01 0.00000E+00
 -1      2340 1.16400E+02 4.35050E+01 0.00000E+00
 -1      2341 1.14150E+02 4.22060E+01 0.00000E+00
 -1      2342 1.17900E+02 4.35050E+01 0.00000E+00
 -1      2343 1.19400E+02 4.35050E+01 0.00000E+00
 -1      2344 1.17150E+02 4.22060E+01 0.00000E+00
 -1      2345 1.20900E+02 4.35050E+01 0.00000E+00
 -1      2346 1.22400E+02 4.35050E+01 0.00000E+00
 -1      2347 1.20150E+02 4.22060E+01 0.00000E+00
 -1      2348 1.23900E+02 4.35050E+01 0.00000E+00
 -1      2349 1.25400E+02 4.35050E+01 0.00000E+00
 -1      2350 1.23150E+02 4.22060E+01 0.00000E+00
 -1      2351 1.26900E+02 4.35050E+01 0.00000E+00
 -1      2352 1.28400E+02 4.35050E+01 0.00000E+00
 -1      2353 1.26150E+02 4.22060E+01 0.00000E+00
 -1      2354 1.29900E+02 4.35050E+01 0.00000E+00
 -1      2355 1.31400E+02 4.35050E+01 0.00000E+00
 -1      2356 1.29150E+02 4.22060E+01 0.00000E+00
 -1      2357 1.32900E+02 4.35050E+01 0.00000E+00
 -1      2358 1.34400E+02 4.35050E+01 0.00000E+00
 -1      2359 1.32150E+02 4.22060E+01 0.00000E+00
 -1      2360 1.35900E+02 4.35050E+01 0.00000E+00
 -1      2361 1.37400E+02 4.35050E+01 0.00000E+00
 -1      2362 1.35150E+02 4.22060E+01 0.00000E+00
 -1      2363 1.38900E+02 4.35050E+01 0.00000E+00
 -1      2364 1.40400E+02 4.35050E+01 0.00000E+00
 -1      2365 1.38150E+02 4.22060E+01 0.00000E+00
 -1      2366 1.97850E+01 5.30525E+00 0.00000E+00
 -1      2367 1.82850E+01 5.30525E+00 0.00000E+00
 -1      2368 2.27850E+01 5.30525E+00 0.00000E+00
 -1      2369 2.12850E+01 5.30525E+00 0.00000E+00
 -1      2370 2.05350E+01 6.60425E+00 0.00000E+00
 -1      2371 2.57850E+01 5.30525E+00 0.00000E+00
 -1      2372 2.42850E+01 5.30525E+00 0.00000E+00
 -1      2373 2.35350E+01 6.60425E+00 0.00000E+00
 -1      2374 2.87850E+01 5.30525E+00 0.00000E+00
 -1      2375 2.72850E+01 5.30525E+00 0.00000E+00
 -1      2376 2.65350E+01 6.60425E+00 0.00000E+00
 -1      2377 3.17850E+01 5.30525E+00 0.00000E+00
 -1      2378 3.02850E+01 5.30525E+00 0.00000E+00
 -1      2379 2.95350E+01 6.60425E+00 0.00000E+00
 -1      2380 3.47850E+01 5.30525E+00 0.00000E+00
 -1      2381 3.32850E+01 5.30525E+00 0.00000E+00
 -1      2382 3.25350E+01 6.60425E+00 0.00000E+00
 -1      2383 3.77850E+01 5.30525E+00 0.00000E+00
 -1      2384 3.62850E+01 5.30525E+00 0.00000E+00
 -1      2385 3.55350E+01 6.60425E+00 0.00000E+00
 -1      2386 4.07850E+01 5.30525E+00 0.00000E+00
 -1      2387 3.92850E+01 5.30525E+00 0.00000E+00
 -1      2388 3.85350E+01 6.60425E+00 0.00000E+00
 -1      2389 4.37850E+01 5.30525E+00 0.00000E+00
 -1      2390 4.22850E+01 5.30525E+00 0.00000E+00
 -1      2391 4.15350E+01 6.60425E+00 0.00000E+00
 -1      2392 4.67850E+01 5.30525E+00 0.00000E+00
 -1      2393 4.52850E+01 5.30525E+00 0.00000E+00
 -1      2394 4.45350E+01 6.60425E+00 0.00000E+00
 -1      2395 4.97850E+01 5.30525E+00 0.00000E+00
 -1      2396 4.82850E+01 5.30525E+00 0.00000E+00
 -1      2397 4.75350E+01 6.60425E+00 0.00000E+00
 -1      2398 5.27850E+01 5.30525E+00 0.00000E+00
 -1      2399 5.12850E+01 5.30525E+00 0.00000E+00
 -1      2400 5.05350E+01 6.60425E+00 0.00000E+00
 -1      2401 5.57850E+01 5.30525E+00 0.00000E+00
 -1      2402 5.42850E+01 5.30525E+00 0.00000E+00
 -1      2403 5.35350E+01 6.60425E+00 0.00000E+00
 -1      2404 5.87850E+01 5.30525E+00 0.00000E+00
 -1      2405 5.72850E+01 5.30525E+00 0.00000E+00
 -1      2406 5.65350E+01 6.60425E+00 0.00000E+00
 -1      2407 6.17850E+01 5.30525E+00 0.00000E+00
 -1      2408 6.02850E+01 5.30525E+00 0.00000E+00
 -1      2409 5.95350E+01 6.60425E+00 0.00000E+00
 -1      2410 6.47850E+01 5.30525E+00 0.00000E+00
 -1      2411 6.32850E+01 5.30525E+00 0.00000E+00
 -1      2412 6.25350E+01 6.60425E+00 0.00000E+00
 -1      2413 6.77850E+01 5.30525E+00 0.00000E+00
 -1      2414 6.62850E+01 5.30525E+00 0.00000E+00
 -1      2415 6.55350E+01 6.60425E+00 0.00000E+00
 -1      2416 7.07850E+01 5.30525E+00 0.00000E+00
 -1      2417 6.92850E+01 5.30525E+00 0.00000E+00
 -1      2418 6.85350E+01 6.60425E+00 0.00000E+00
 -1      2419 7.37850E+01 5.30525E+00 0.00000E+00
 -1      2420 7.22850E+01 5.30525E+00 0.00000E+00
 -1      2421 7.15350E+01 6.60425E+00 0.00000E+00
 -1      2422 7.67850E+01 5.30525E+00 0.00000E+00
 -1      2423 7.52850E+01 5.30525E+00 0.00000E+00
 -1      2424 7.45350E+01 6.60425E+00 0.00000E+00
 -1      2425 7.97850E+01 5.30525E+00 0.00000E+00
 -1      2426 7.82850E+01 5.30525E+00 0.00000E+00
 -1      2427 7.75350E+01 6.60425E+00 0.00000E+00
 -1      2428 8.27850E+01 5.30525E+00 0.00000E+00
 -1      2429 8.12850E+01 5.30525E+00 0.00000E+00
 -1      2430 8.05350E+01 6.60425E+00 0.00000E+00
 -1      2431 8.57850E+01 5.30525E+00 0.00000E+00
 -1      2432 8.42850E+01 5.30525E+00 0.00000E+00
 -1      2433 8.35350E+01 6.60425E+00 0.00000E+00
 -1      2434 8.87850E+01 5.30525E+00 0.00000E+00
 -1      2435 8.72850E+01 5.30525E+00 0.00000E+00
 -1      2436 8.65350E+01 6.60425E+00 0.00000E+00
 -1      2437 9.17850E+01 5.30525E+00 0.00000E+00
 -1      2438 9.02850E+01 5.30525E+00 0.00000E+00
 -1      2439 8.95350E+01 6.60425E+00 0.00000E+00
 -1      2440 9.47850E+01 5.30525E+00 0.00000E+00
 -1      2441 9.32850E+01 5.30525E+00 0.00000E+00
 -1      2442 9.25350E+01 6.60425E+00 0.00000E+00
 -1      2443 9.77850E+01 5.30525E+00 0.00000E+00
 -1      2444 9.62850E+01 5.30525E+00 0.00000E+00
 -1      2445 9.55350E+01 6.60425E+00 0.00000E+00
 -1      2446 1.00785E+02 5.30525E+00 0.00000E+00
 -1      2447 9.92850E+01 5.30525E+00 0.00000E+00
 -1      2448 9.85350E+01 6.60425E+00 0.00000E+00
 -1      2449 1.03785E+02 5.30525E+00 0.00000E+00
 -1      2450 1.02285E+02 5.30525E+00 0.00000E+00
 -1      2451 1.01535E+02 6.60425E+00 0.00000E+00
 -1      2452 1.06785E+02 5.30525E+00 0.00000E+00
 -1      2453 1.05285E+02 5.30525E+00 0.00000E+00
 -1      2454 1.04535E+02 6.60425E+00 0.00000E+00
 -1      2455 1.09785E+02 5.30525E+00 0.00000E+00
 -1      2456 1.08285E+02 5.30525E+00 0.00000E+00
 -1      2457 1.07535E+02 6.60425E+00 0.00000E+00
 -1      2458 1.12785E+02 5.30525E+00 0.00000E+00
 -1      2459 1.11285E+02 5.30525E+00 0.00000E+00
 -1      2460 1.10535E+02 6.60425E+00 0.00000E+00
 -1      2461 1.15785E+02 5.30525E+00 0.00000E+00
 -1      2462 1.14285E+02 5.30525E+00 0.00000E+00
 -1      2463 1.13535E+02 6.60425E+00 0.00000E+00
 -1      2464 1.18785E+02 5.30525E+00 0.00000E+00
 -1      2465 1.17285E+02 5.30525E+00 0.00000E+00
 -1      2466 1.16535E+02 6.60425E+00 0.00000E+00
 -1      2467 1.21785E+02 5.30525E+00 0.00000E+00
 -1      2468 1.20285E+02 5.30525E+00 0.00000E+00
 -1      2469 1.19535E+02 6.60425E+00 0.00000E+00
 -1      2470 1.24785E+02 5.30525E+00 0.00000E+00
 -1      2471 1.23285E+02 5.30525E+00 0.00000E+00
 -1      2472 1.22535E+02 6.60425E+00 0.00000E+00
 -1      2473 1.27785E+02 5.30525E+00 0.00000E+00
 -1      2474 1.26285E+02 5.30525E+00 0.00000E+00
 -1      2475 1.25535E+02 6.60425E+00 0.00000E+00
 -1      2476 1.30785E+02 5.30525E+00 0.00000E+00
 -1      2477 1.29285E+02 5.30525E+00 0.00000E+00
 -1      2478 1.28535E+02 6.60425E+00 0.00000E+00
 -1      2479 1.33785E+02 5.30525E+00 0.00000E+00
 -1      2480 1.32285E+02 5.30525E+00 0.00000E+00
 -1      2481 1.31535E+02 6.60425E+00 0.00000E+00
 -1      2482 1.36785E+02 5.30525E+00 0.00000E+00
 -1      2483 1.35285E+02 5.30525E+00 0.00000E+00
 -1      2484 1.34535E+02 6.60425E+00 0.00000E+00
 -1      2485 1.39785E+02 5.30525E+00 0.00000E+00
 -1      2486 1.38285E+02 5.30525E+00 0.00000E+00
 -1      2487 1.37535E+02 6.60425E+00 0.00000E+00
 -1      2488 1.42785E+02 5.30525E+00 0.00000E+00
 -1      2489 1.41285E+02 5.30525E+00 0.00000E+00
 -1      2490 1.40535E+02 6.60425E+00 0.00000E+00
 -1      2491 1.44336E+02 5.26953E+00 0.00000E+00
 -1      2492 1.43505E+02 1.69125E+01 0.00000E+00
 -1      2493 1.43505E+02 1.54375E+01 0.00000E+00
 -1      2494 1.43505E+02 1.98625E+01 0.00000E+00
 -1      2495 1.43505E+02 1.83875E+01 0.00000E+00
 -1      2496 1.42206E+02 1.76500E+01 0.00000E+00
 -1      2497 1.43505E+02 1.10625E+01 0.00000E+00
 -1      2498 1.43505E+02 9.58750E+00 0.00000E+00
 -1      2499 1.43505E+02 1.39750E+01 0.00000E+00
 -1      2500 1.43505E+02 1.25250E+01 0.00000E+00
 -1      2501 1.42206E+02 1.17875E+01 0.00000E+00
 -1      2502 1.42206E+02 1.47125E+01 0.00000E+00
 -1      2503 1.43505E+02 2.28125E+01 0.00000E+00
 -1      2504 1.43505E+02 2.13375E+01 0.00000E+00
 -1      2505 1.42206E+02 2.06000E+01 0.00000E+00
 -1      2506 1.43505E+02 2.57625E+01 0.00000E+00
 -1      2507 1.43505E+02 2.42875E+01 0.00000E+00
 -1      2508 1.42206E+02 2.35500E+01 0.00000E+00
 -1      2509 1.43505E+02 2.87125E+01 0.00000E+00
 -1      2510 1.43505E+02 2.72375E+01 0.00000E+00
 -1      2511 1.42206E+02 2.65000E+01 0.00000E+00
 -1      2512 1.43505E+02 3.16125E+01 0.00000E+00
 -1      2513 1.43505E+02 3.01625E+01 0.00000E+00
 -1      2514 1.42206E+02 2.94250E+01 0.00000E+00
 -1      2515 1.43505E+02 3.45625E+01 0.00000E+00
 -1      2516 1.43505E+02 3.30875E+01 0.00000E+00
 -1      2517 1.42206E+02 3.23500E+01 0.00000E+00
 -1      2518 1.43505E+02 3.75125E+01 0.00000E+00
 -1      2519 1.43505E+02 3.60375E+01 0.00000E+00
 -1      2520 1.42206E+02 3.53000E+01 0.00000E+00
 -1      2521 1.43505E+02 4.04625E+01 0.00000E+00
 -1      2522 1.43505E+02 3.89875E+01 0.00000E+00
 -1      2523 1.42206E+02 3.82500E+01 0.00000E+00
 -1      2524 1.35628E+02 1.78707E+01 0.00000E+00
 -1      2525 1.35922E+02 1.89192E+01 0.00000E+00
 -1      2526 1.34325E+02 1.41932E+01 0.00000E+00
 -1      2527 1.34701E+02 1.50029E+01 0.00000E+00
 -1      2528 1.67850E+01 5.30525E+00 0.00000E+00
 -1      2529 1.52850E+01 5.30525E+00 0.00000E+00
 -1      2530 1.75350E+01 6.60425E+00 0.00000E+00
 -1      2531 1.44321E+02 4.30606E+01 0.00000E+00
 -1      2532 1.36125E+02 2.04424E+01 0.00000E+00
 -1      2533 1.35886E+02 2.15425E+01 0.00000E+00
 -1      2534 1.35084E+02 1.60618E+01 0.00000E+00
 -1      2535 1.35356E+02 1.69662E+01 0.00000E+00
 -1      2536 1.36328E+02 1.72591E+01 0.00000E+00
 -1      2537 1.28923E+02 9.52863E+00 0.00000E+00
 -1      2538 1.29812E+02 9.82208E+00 0.00000E+00
 -1      2539 1.35355E+02 2.26821E+01 0.00000E+00
 -1      2540 1.34954E+02 2.36292E+01 0.00000E+00
 -1      2541 1.29438E+02 2.92702E+01 0.00000E+00
 -1      2542 1.28385E+02 2.96838E+01 0.00000E+00
 -1      2543 1.16174E+02 2.41735E+01 0.00000E+00
 -1      2544 1.15691E+02 2.31563E+01 0.00000E+00
 -1      2545 1.18278E+02 1.21362E+01 0.00000E+00
 -1      2546 1.18979E+02 1.13801E+01 0.00000E+00
 -1      2547 6.49500E+00 2.71625E+01 0.00000E+00
 -1      2548 6.49500E+00 2.86375E+01 0.00000E+00
 -1      2549 7.79400E+00 2.93750E+01 0.00000E+00
 -1      2550 7.79400E+00 2.64250E+01 0.00000E+00
 -1      2551 1.24165E+02 9.15564E+00 0.00000E+00
 -1      2552 1.25317E+02 8.94689E+00 0.00000E+00
 -1      2553 1.17169E+02 2.60050E+01 0.00000E+00
 -1      2554 1.16669E+02 2.51851E+01 0.00000E+00
 -1      2555 1.26586E+02 9.09040E+00 0.00000E+00
 -1      2556 1.27655E+02 9.38513E+00 0.00000E+00
 -1      2557 1.28394E+02 8.63797E+00 0.00000E+00
 -1      2558 1.25857E+02 8.35096E+00 0.00000E+00
 -1      2559 1.22319E+02 9.62139E+00 0.00000E+00
 -1      2560 1.23242E+02 9.38851E+00 0.00000E+00
 -1      2561 1.23665E+02 8.44033E+00 0.00000E+00
 -1      2562 1.19954E+02 1.03641E+01 0.00000E+00
 -1      2563 1.20953E+02 9.88483E+00 0.00000E+00
 -1      2564 1.17028E+02 1.36124E+01 0.00000E+00
 -1      2565 1.17607E+02 1.29046E+01 0.00000E+00
 -1      2566 1.14995E+02 1.77071E+01 0.00000E+00
 -1      2567 1.15179E+02 1.68462E+01 0.00000E+00
 -1      2568 1.14779E+02 2.00627E+01 0.00000E+00
 -1      2569 1.14793E+02 1.88914E+01 0.00000E+00
 -1      2570 1.15331E+02 2.20873E+01 0.00000E+00
 -1      2571 1.15114E+02 2.12593E+01 0.00000E+00
 -1      2572 1.27111E+02 3.00598E+01 0.00000E+00
 -1      2573 1.26139E+02 3.01148E+01 0.00000E+00
 -1      2574 1.18474E+02 2.75787E+01 0.00000E+00
 -1      2575 1.17815E+02 2.69859E+01 0.00000E+00
 -1      2576 1.20362E+02 2.94218E+01 0.00000E+00
 -1      2577 1.19418E+02 2.85003E+01 0.00000E+00
 -1      2578 1.18459E+02 2.89035E+01 0.00000E+00
 -1      2579 1.22337E+02 3.02342E+01 0.00000E+00
 -1      2580 1.21489E+02 2.99695E+01 0.00000E+00
 -1      2581 1.34350E+02 2.45669E+01 0.00000E+00
 -1      2582 1.33853E+02 2.54339E+01 0.00000E+00
 -1      2583 1.24848E+02 3.02876E+01 0.00000E+00
 -1      2584 1.23556E+02 3.04604E+01 0.00000E+00
 -1      2585 1.25387E+02 3.11999E+01 0.00000E+00
 -1      2586 1.31279E+02 2.81861E+01 0.00000E+00
 -1      2587 1.30504E+02 2.87034E+01 0.00000E+00
 -1      2588 6.55950E+00 4.28890E+01 0.00000E+00
 -1      2589 8.53650E+00 4.32410E+01 0.00000E+00
 -1      2590 9.28650E+00 4.19420E+01 0.00000E+00
 -1      2591 6.55950E+00 4.14140E+01 0.00000E+00
 -1      2592 8.07525E+00 5.11044E+00 0.00000E+00
 -1      2593 6.57525E+00 5.11044E+00 0.00000E+00
 -1      2594 6.40575E+00 6.01981E+00 0.00000E+00
 -1      2595 8.82525E+00 6.40944E+00 0.00000E+00
 -1      2596 7.79400E+00 3.52687E+01 0.00000E+00
 -1      2597 6.49500E+00 3.60062E+01 0.00000E+00
 -1      2598 6.49500E+00 3.74750E+01 0.00000E+00
 -1      2599 1.45350E+01 6.60425E+00 0.00000E+00
 -1      2600 6.40575E+00 7.49481E+00 0.00000E+00
 -1      2601 1.35340E+02 2.44271E+01 0.00000E+00
 -1      2602 1.20530E+02 3.03728E+01 0.00000E+00
 -1      2603 1.32643E+02 1.04027E+01 0.00000E+00
 -1      2604 1.32674E+02 1.13757E+01 0.00000E+00
 -1      2605 1.33495E+02 1.14891E+01 0.00000E+00
 -1      2606 1.34409E+02 1.33496E+01 0.00000E+00
 -1      2607 1.36476E+02 2.23497E+01 0.00000E+00
 -1      2608 1.27951E+02 3.06512E+01 0.00000E+00
 -1      2609 1.43586E+02 6.56853E+00 0.00000E+00
 -1      2610 1.43419E+02 7.72713E+00 0.00000E+00
 -1      2611 1.14874E+02 2.29280E+01 0.00000E+00
 -1      2612 1.30742E+02 9.53536E+00 0.00000E+00
 -1      2613 1.35674E+02 1.52959E+01 0.00000E+00
 -1      2614 1.14180E+02 2.06624E+01 0.00000E+00
 -1      2615 1.14047E+02 1.82815E+01 0.00000E+00
 -1      2616 7.70475E+00 8.23231E+00 0.00000E+00
 -1      2617 1.21376E+02 8.93665E+00 0.00000E+00
 -1      2618 6.55950E+00 3.99453E+01 0.00000E+00
 -1      2619 1.33802E+02 2.62922E+01 0.00000E+00
 -1      2620 1.33751E+02 2.71505E+01 0.00000E+00
 -1      2621 1.34685E+02 2.62231E+01 0.00000E+00
 -1      2622 1.17390E+02 1.20005E+01 0.00000E+00
 -1      2623 1.15728E+02 2.50086E+01 0.00000E+00
 -1      2624 1.30290E+02 2.97085E+01 0.00000E+00
 -1      2625 1.19036E+02 1.02161E+01 0.00000E+00
 -1      2626 1.14944E+02 1.60676E+01 0.00000E+00
 -1      2627 1.16869E+02 2.70010E+01 0.00000E+00
 -1      2628 1.16179E+02 1.39034E+01 0.00000E+00
 -1      2629 1.22877E+02 3.11466E+01 0.00000E+00
 -1      2630 1.32112E+02 2.81807E+01 0.00000E+00
 -1      2631 1.42758E+02 4.35929E+01 0.00000E+00
 -1      2632 1.43241E+02 4.17323E+01 0.00000E+00
 -1      2633 1.41942E+02 4.09948E+01 0.00000E+00
 -1      2634 1.41414E+02 4.35342E+01 0.00000E+00
 -1      2635 1.42120E+02 8.46463E+00 0.00000E+00
 -1      2636 1.40664E+02 4.22352E+01 0.00000E+00
 -1      2637 1.23389E+02 7.63873E+00 0.00000E+00
 -1      2638 1.24312E+02 7.40585E+00 0.00000E+00
 -1      2639 9.09300E+00 1.98250E+01 0.00000E+00
 -1      2640 9.09300E+00 2.12750E+01 0.00000E+00
 -1      2641 9.09300E+00 2.27500E+01 0.00000E+00
 -1      2642 9.09300E+00 2.42250E+01 0.00000E+00
 -1      2643 1.03920E+01 2.20250E+01 0.00000E+00
 -1      2644 9.09300E+00 1.39375E+01 0.00000E+00
 -1      2645 9.09300E+00 1.54125E+01 0.00000E+00
 -1      2646 9.09300E+00 1.09875E+01 0.00000E+00
 -1      2647 9.09300E+00 1.24625E+01 0.00000E+00
 -1      2648 1.03920E+01 1.32000E+01 0.00000E+00
 -1      2649 1.22850E+01 7.90325E+00 0.00000E+00
 -1      2650 1.07850E+01 7.90325E+00 0.00000E+00
 -1      2651 1.20523E+02 7.90217E+00 0.00000E+00
 -1      2652 1.21889E+02 7.63873E+00 0.00000E+00
 -1      2653 1.26169E+02 3.21296E+01 0.00000E+00
 -1      2654 1.24877E+02 3.23024E+01 0.00000E+00
 -1      2655 8.91450E+00 8.42712E+00 0.00000E+00
 -1      2656 1.25812E+02 7.40585E+00 0.00000E+00
 -1      2657 1.44000E+01 4.09070E+01 0.00000E+00
 -1      2658 1.59000E+01 4.09070E+01 0.00000E+00
 -1      2659 1.74000E+01 4.09070E+01 0.00000E+00
 -1      2660 1.89000E+01 4.09070E+01 0.00000E+00
 -1      2661 1.66500E+01 3.96080E+01 0.00000E+00
 -1      2662 2.04000E+01 4.09070E+01 0.00000E+00
 -1      2663 2.19000E+01 4.09070E+01 0.00000E+00
 -1      2664 1.96500E+01 3.96080E+01 0.00000E+00
 -1      2665 2.34000E+01 4.09070E+01 0.00000E+00
 -1      2666 2.49000E+01 4.09070E+01 0.00000E+00
 -1      2667 2.26500E+01 3.96080E+01 0.00000E+00
 -1      2668 2.64000E+01 4.09070E+01 0.00000E+00
 -1      2669 2.79000E+01 4.09070E+01 0.00000E+00
 -1      2670 2.56500E+01 3.96080E+01 0.00000E+00
 -1      2671 2.94000E+01 4.09070E+01 0.00000E+00
 -1      2672 3.09000E+01 4.09070E+01 0.00000E+00
 -1      2673 2.86500E+01 3.96080E+01 0.00000E+00
 -1      2674 3.24000E+01 4.09070E+01 0.00000E+00
 -1      2675 3.39000E+01 4.09070E+01 0.00000E+00
 -1      2676 3.16500E+01 3.96080E+01 0.00000E+00
 -1      2677 3.54000E+01 4.09070E+01 0.00000E+00
 -1      2678 3.69000E+01 4.09070E+01 0.00000E+00
 -1      2679 3.46500E+01 3.96080E+01 0.00000E+00
 -1      2680 3.84000E+01 4.09070E+01 0.00000E+00
 -1      2681 3.99000E+01 4.09070E+01 0.00000E+00
 -1      2682 3.76500E+01 3.96080E+01 0.00000E+00
 -1      2683 4.14000E+01 4.09070E+01 0.00000E+00
 -1      2684 4.29000E+01 4.09070E+01 0.00000E+00
 -1      2685 4.06500E+01 3.96080E+01 0.00000E+00
 -1      2686 4.44000E+01 4.09070E+01 0.00000E+00
 -1      2687 4.59000E+01 4.09070E+01 0.00000E+00
 -1      2688 4.36500E+01 3.96080E+01 0.00000E+00
 -1      2689 4.74000E+01 4.09070E+01 0.00000E+00
 -1      2690 4.89000E+01 4.09070E+01 0.00000E+00
 -1      2691 4.66500E+01 3.96080E+01 0.00000E+00
 -1      2692 5.04000E+01 4.09070E+01 0.00000E+00
 -1      2693 5.19000E+01 4.09070E+01 0.00000E+00
 -1      2694 4.96500E+01 3.96080E+01 0.00000E+00
 -1      2695 5.34000E+01 4.09070E+01 0.00000E+00
 -1      2696 5.49000E+01 4.09070E+01 0.00000E+00
 -1      2697 5.26500E+01 3.96080E+01 0.00000E+00
 -1      2698 5.64000E+01 4.09070E+01 0.00000E+00
 -1      2699 5.79000E+01 4.09070E+01 0.00000E+00
 -1      2700 5.56500E+01 3.96080E+01 0.00000E+00
 -1      2701 5.94000E+01 4.09070E+01 0.00000E+00
 -1      2702 6.09000E+01 4.09070E+01 0.00000E+00
 -1      2703 5.86500E+01 3.96080E+01 0.00000E+00
 -1      2704 6.24000E+01 4.09070E+01 0.00000E+00
 -1      2705 6.39000E+01 4.09070E+01 0.00000E+00
 -1      2706 6.16500E+01 3.96080E+01 0.00000E+00
 -1      2707 6.54000E+01 4.09070E+01 0.00000E+00
 -1      2708 6.69000E+01 4.09070E+01 0.00000E+00
 -1      2709 6.46500E+01 3.96080E+01 0.00000E+00
 -1      2710 6.84000E+01 4.09070E+01 0.00000E+00
 -1      2711 6.99000E+01 4.09070E+01 0.00000E+00
 -1      2712 6.76500E+01 3.96080E+01 0.00000E+00
 -1      2713 7.14000E+01 4.09070E+01 0.00000E+00
 -1      2714 7.29000E+01 4.09070E+01 0.00000E+00
 -1      2715 7.06500E+01 3.96080E+01 0.00000E+00
 -1      2716 7.44000E+01 4.09070E+01 0.00000E+00
 -1      2717 7.59000E+01 4.09070E+01 0.00000E+00
 -1      2718 7.36500E+01 3.96080E+01 0.00000E+00
 -1      2719 7.74000E+01 4.09070E+01 0.00000E+00
 -1      2720 7.89000E+01 4.09070E+01 0.00000E+00
 -1      2721 7.66500E+01 3.96080E+01 0.00000E+00
 -1      2722 8.04000E+01 4.09070E+01 0.00000E+00
 -1      2723 8.19000E+01 4.09070E+01 0.00000E+00
 -1      2724 7.96500E+01 3.96080E+01 0.00000E+00
 -1      2725 8.34000E+01 4.09070E+01 0.00000E+00
 -1      2726 8.49000E+01 4.09070E+01 0.00000E+00
 -1      2727 8.26500E+01 3.96080E+01 0.00000E+00
 -1      2728 8.64000E+01 4.09070E+01 0.00000E+00
 -1      2729 8.79000E+01 4.09070E+01 0.00000E+00
 -1      2730 8.56500E+01 3.96080E+01 0.00000E+00
 -1      2731 8.94000E+01 4.09070E+01 0.00000E+00
 -1      2732 9.09000E+01 4.09070E+01 0.00000E+00
 -1      2733 8.86500E+01 3.96080E+01 0.00000E+00
 -1      2734 9.24000E+01 4.09070E+01 0.00000E+00
 -1      2735 9.39000E+01 4.09070E+01 0.00000E+00
 -1      2736 9.16500E+01 3.96080E+01 0.00000E+00
 -1      2737 9.54000E+01 4.09070E+01 0.00000E+00
 -1      2738 9.69000E+01 4.09070E+01 0.00000E+00
 -1      2739 9.46500E+01 3.96080E+01 0.00000E+00
 -1      2740 9.84000E+01 4.09070E+01 0.00000E+00
 -1      2741 9.99000E+01 4.09070E+01 0.00000E+00
 -1      2742 9.76500E+01 3.96080E+01 0.00000E+00
 -1      2743 1.01400E+02 4.09070E+01 0.00000E+00
 -1      2744 1.02900E+02 4.09070E+01 0.00000E+00
 -1      2745 1.00650E+02 3.96080E+01 0.00000E+00
 -1      2746 1.04400E+02 4.09070E+01 0.00000E+00
 -1      2747 1.05900E+02 4.09070E+01 0.00000E+00
 -1      2748 1.03650E+02 3.96080E+01 0.00000E+00
 -1      2749 1.07400E+02 4.09070E+01 0.00000E+00
 -1      2750 1.08900E+02 4.09070E+01 0.00000E+00
 -1      2751 1.06650E+02 3.96080E+01 0.00000E+00
 -1      2752 1.10400E+02 4.09070E+01 0.00000E+00
 -1      2753 1.11900E+02 4.09070E+01 0.00000E+00
 -1      2754 1.09650E+02 3.96080E+01 0.00000E+00
 -1      2755 1.13400E+02 4.09070E+01 0.00000E+00
 -1      2756 1.14900E+02 4.09070E+01 0.00000E+00
 -1      2757 1.12650E+02 3.96080E+01 0.00000E+00
 -1      2758 1.16400E+02 4.09070E+01 0.00000E+00
 -1      2759 1.17900E+02 4.09070E+01 0.00000E+00
 -1      2760 1.15650E+02 3.96080E+01 0.00000E+00
 -1      2761 1.19400E+02 4.09070E+01 0.00000E+00
 -1      2762 1.20900E+02 4.09070E+01 0.00000E+00
 -1      2763 1.18650E+02 3.96080E+01 0.00000E+00
 -1      2764 1.22400E+02 4.09070E+01 0.00000E+00
 -1      2765 1.23900E+02 4.09070E+01 0.00000E+00
 -1      2766 1.21650E+02 3.96080E+01 0.00000E+00
 -1      2767 1.25400E+02 4.09070E+01 0.00000E+00
 -1      2768 1.26900E+02 4.09070E+01 0.00000E+00
 -1      2769 1.24650E+02 3.96080E+01 0.00000E+00
 -1      2770 1.28400E+02 4.09070E+01 0.00000E+00
 -1      2771 1.29900E+02 4.09070E+01 0.00000E+00
 -1      2772 1.27650E+02 3.96080E+01 0.00000E+00
 -1      2773 1.31400E+02 4.09070E+01 0.00000E+00
 -1      2774 1.32900E+02 4.09070E+01 0.00000E+00
 -1      2775 1.30650E+02 3.96080E+01 0.00000E+00
 -1      2776 1.34400E+02 4.09070E+01 0.00000E+00
 -1      2777 1.35900E+02 4.09070E+01 0.00000E+00
 -1      2778 1.33650E+02 3.96080E+01 0.00000E+00
 -1      2779 1.37400E+02 4.09070E+01 0.00000E+00
 -1      2780 1.38900E+02 4.09070E+01 0.00000E+00
 -1      2781 1.36650E+02 3.96080E+01 0.00000E+00
 -1      2782 2.42850E+01 7.90325E+00 0.00000E+00
 -1      2783 2.27850E+01 7.90325E+00 0.00000E+00
 -1      2784 1.40706E+02 1.03250E+01 0.00000E+00
 -1      2785 1.40620E+02 8.46463E+00 0.00000E+00
 -1      2786 1.39120E+02 8.46463E+00 0.00000E+00
 -1      2787 2.12850E+01 7.90325E+00 0.00000E+00
 -1      2788 1.97850E+01 7.90325E+00 0.00000E+00
 -1      2789 2.20350E+01 9.20225E+00 0.00000E+00
 -1      2790 3.02850E+01 7.90325E+00 0.00000E+00
 -1      2791 2.87850E+01 7.90325E+00 0.00000E+00
 -1      2792 3.32850E+01 7.90325E+00 0.00000E+00
 -1      2793 3.17850E+01 7.90325E+00 0.00000E+00
 -1      2794 3.10350E+01 9.20225E+00 0.00000E+00
 -1      2795 3.62850E+01 7.90325E+00 0.00000E+00
 -1      2796 3.47850E+01 7.90325E+00 0.00000E+00
 -1      2797 3.40350E+01 9.20225E+00 0.00000E+00
 -1      2798 3.92850E+01 7.90325E+00 0.00000E+00
 -1      2799 3.77850E+01 7.90325E+00 0.00000E+00
 -1      2800 3.70350E+01 9.20225E+00 0.00000E+00
 -1      2801 4.22850E+01 7.90325E+00 0.00000E+00
 -1      2802 4.07850E+01 7.90325E+00 0.00000E+00
 -1      2803 4.00350E+01 9.20225E+00 0.00000E+00
 -1      2804 4.52850E+01 7.90325E+00 0.00000E+00
 -1      2805 4.37850E+01 7.90325E+00 0.00000E+00
 -1      2806 4.30350E+01 9.20225E+00 0.00000E+00
 -1      2807 4.82850E+01 7.90325E+00 0.00000E+00
 -1      2808 4.67850E+01 7.90325E+00 0.00000E+00
 -1      2809 4.60350E+01 9.20225E+00 0.00000E+00
 -1      2810 5.12850E+01 7.90325E+00 0.00000E+00
 -1      2811 4.97850E+01 7.90325E+00 0.00000E+00
 -1      2812 4.90350E+01 9.20225E+00 0.00000E+00
 -1      2813 5.42850E+01 7.90325E+00 0.00000E+00
 -1      2814 5.27850E+01 7.90325E+00 0.00000E+00
 -1      2815 5.20350E+01 9.20225E+00 0.00000E+00
 -1      2816 5.72850E+01 7.90325E+00 0.00000E+00
 -1      2817 5.57850E+01 7.90325E+00 0.00000E+00
 -1      2818 5.50350E+01 9.20225E+00 0.00000E+00
 -1      2819 6.02850E+01 7.90325E+00 0.00000E+00
 -1      2820 5.87850E+01 7.90325E+00 0.00000E+00
 -1      2821 5.80350E+01 9.20225E+00 0.00000E+00
 -1      2822 6.32850E+01 7.90325E+00 0.00000E+00
 -1      2823 6.17850E+01 7.90325E+00 0.00000E+00
 -1      2824 6.10350E+01 9.20225E+00 0.00000E+00
 -1      2825 6.62850E+01 7.90325E+00 0.00000E+00
 -1      2826 6.47850E+01 7.90325E+00 0.00000E+00
 -1      2827 6.40350E+01 9.20225E+00 0.00000E+00
 -1      2828 6.92850E+01 7.90325E+00 0.00000E+00
 -1      2829 6.77850E+01 7.90325E+00 0.00000E+00
 -1      2830 6.70350E+01 9.20225E+00 0.00000E+00
 -1      2831 7.22850E+01 7.90325E+00 0.00000E+00
 -1      2832 7.07850E+01 7.90325E+00 0.00000E+00
 -1      2833 7.00350E+01 9.20225E+00 0.00000E+00
 -1      2834 7.52850E+01 7.90325E+00 0.00000E+00
 -1      2835 7.37850E+01 7.90325E+00 0.00000E+00
 -1      2836 7.30350E+01 9.20225E+00 0.00000E+00
 -1      2837 7.82850E+01 7.90325E+00 0.00000E+00
 -1      2838 7.67850E+01 7.90325E+00 0.00000E+00
 -1      2839 7.60350E+01 9.20225E+00 0.00000E+00
 -1      2840 8.12850E+01 7.90325E+00 0.00000E+00
 -1      2841 7.97850E+01 7.90325E+00 0.00000E+00
 -1      2842 7.90350E+01 9.20225E+00 0.00000E+00
 -1      2843 8.42850E+01 7.90325E+00 0.00000E+00
 -1      2844 8.27850E+01 7.90325E+00 0.00000E+00
 -1      2845 8.20350E+01 9.20225E+00 0.00000E+00
 -1      2846 8.72850E+01 7.90325E+00 0.00000E+00
 -1      2847 8.57850E+01 7.90325E+00 0.00000E+00
 -1      2848 8.50350E+01 9.20225E+00 0.00000E+00
 -1      2849 9.02850E+01 7.90325E+00 0.00000E+00
 -1      2850 8.87850E+01 7.90325E+00 0.00000E+00
 -1      2851 8.80350E+01 9.20225E+00 0.00000E+00
 -1      2852 9.32850E+01 7.90325E+00 0.00000E+00
 -1      2853 9.17850E+01 7.90325E+00 0.00000E+00
 -1      2854 9.10350E+01 9.20225E+00 0.00000E+00
 -1      2855 9.62850E+01 7.90325E+00 0.00000E+00
 -1      2856 9.47850E+01 7.90325E+00 0.00000E+00
 -1      2857 9.40350E+01 9.20225E+00 0.00000E+00
 -1      2858 9.92850E+01 7.90325E+00 0.00000E+00
 -1      2859 9.77850E+01 7.90325E+00 0.00000E+00
 -1      2860 9.70350E+01 9.20225E+00 0.00000E+00
 -1      2861 1.02285E+02 7.90325E+00 0.00000E+00
 -1      2862 1.00785E+02 7.90325E+00 0.00000E+00
 -1      2863 1.00035E+02 9.20225E+00 0.00000E+00
 -1      2864 1.05285E+02 7.90325E+00 0.00000E+00
 -1      2865 1.03785E+02 7.90325E+00 0.00000E+00
 -1      2866 1.03035E+02 9.20225E+00 0.00000E+00
 -1      2867 1.08285E+02 7.90325E+00 0.00000E+00
 -1      2868 1.06785E+02 7.90325E+00 0.00000E+00
 -1      2869 1.06035E+02 9.20225E+00 0.00000E+00
 -1      2870 1.11285E+02 7.90325E+00 0.00000E+00
 -1      2871 1.09785E+02 7.90325E+00 0.00000E+00
 -1      2872 1.09035E+02 9.20225E+00 0.00000E+00
 -1      2873 1.14285E+02 7.90325E+00 0.00000E+00
 -1      2874 1.12785E+02 7.90325E+00 0.00000E+00
 -1      2875 1.12035E+02 9.20225E+00 0.00000E+00
 -1      2876 1.19023E+02 7.90217E+00 0.00000E+00
 -1      2877 1.29849E+02 7.69286E+00 0.00000E+00
 -1      2878 1.28349E+02 7.69286E+00 0.00000E+00
 -1      2879 1.35285E+02 7.71316E+00 0.00000E+00
 -1      2880 1.33785E+02 7.71316E+00 0.00000E+00
 -1      2881 1.37953E+02 8.08889E+00 0.00000E+00
 -1      2882 1.36453E+02 8.08889E+00 0.00000E+00
 -1      2883 1.35703E+02 9.19780E+00 0.00000E+00
 -1      2884 1.38038E+02 9.94927E+00 0.00000E+00
 -1      2885 1.40907E+02 2.42875E+01 0.00000E+00
 -1      2886 1.40907E+02 2.28125E+01 0.00000E+00
 -1      2887 1.39914E+02 4.09362E+01 0.00000E+00
 -1      2888 1.40928E+02 4.09655E+01 0.00000E+00
 -1      2889 1.39164E+02 3.96372E+01 0.00000E+00
 -1      2890 1.41181E+02 1.83875E+01 0.00000E+00
 -1      2891 1.41181E+02 1.69125E+01 0.00000E+00
 -1      2892 1.40907E+02 2.72375E+01 0.00000E+00
 -1      2893 1.40907E+02 2.57625E+01 0.00000E+00
 -1      2894 1.39608E+02 2.50250E+01 0.00000E+00
 -1      2895 1.40907E+02 2.13375E+01 0.00000E+00
 -1      2896 1.40907E+02 1.98625E+01 0.00000E+00
 -1      2897 1.39608E+02 2.20750E+01 0.00000E+00
 -1      2898 1.37519E+02 2.21423E+01 0.00000E+00
 -1      2899 1.36987E+02 2.32819E+01 0.00000E+00
 -1      2900 1.40907E+02 3.01375E+01 0.00000E+00
 -1      2901 1.40907E+02 2.86875E+01 0.00000E+00
 -1      2902 1.39608E+02 2.79500E+01 0.00000E+00
 -1      2903 1.40907E+02 3.30875E+01 0.00000E+00
 -1      2904 1.40907E+02 3.16125E+01 0.00000E+00
 -1      2905 1.39608E+02 3.08750E+01 0.00000E+00
 -1      2906 1.40907E+02 3.60375E+01 0.00000E+00
 -1      2907 1.40907E+02 3.45625E+01 0.00000E+00
 -1      2908 1.39608E+02 3.38250E+01 0.00000E+00
 -1      2909 1.36868E+02 1.90865E+01 0.00000E+00
 -1      2910 1.36189E+02 1.98421E+01 0.00000E+00
 -1      2911 1.13521E+02 2.14919E+01 0.00000E+00
 -1      2912 1.13187E+02 2.02953E+01 0.00000E+00
 -1      2913 1.37071E+02 2.06098E+01 0.00000E+00
 -1      2914 1.37094E+02 1.65358E+01 0.00000E+00
 -1      2915 1.37366E+02 1.74402E+01 0.00000E+00
 -1      2916 1.20683E+02 3.14933E+01 0.00000E+00
 -1      2917 1.19555E+02 3.09456E+01 0.00000E+00
 -1      2918 1.14281E+02 2.37224E+01 0.00000E+00
 -1      2919 1.13921E+02 2.26534E+01 0.00000E+00
 -1      2920 1.30706E+02 8.67082E+00 0.00000E+00
 -1      2921 1.31786E+02 9.42471E+00 0.00000E+00
 -1      2922 1.32606E+02 9.53813E+00 0.00000E+00
 -1      2923 1.30892E+02 7.58221E+00 0.00000E+00
 -1      2924 1.28855E+02 3.13660E+01 0.00000E+00
 -1      2925 1.27581E+02 3.17419E+01 0.00000E+00
 -1      2926 1.82850E+01 7.90325E+00 0.00000E+00
 -1      2927 1.67850E+01 7.90325E+00 0.00000E+00
 -1      2928 1.90350E+01 9.20225E+00 0.00000E+00
 -1      2929 2.72850E+01 7.90325E+00 0.00000E+00
 -1      2930 2.57850E+01 7.90325E+00 0.00000E+00
 -1      2931 2.50350E+01 9.20225E+00 0.00000E+00
 -1      2932 2.80350E+01 9.20225E+00 0.00000E+00
 -1      2933 1.14000E+01 4.09070E+01 0.00000E+00
 -1      2934 1.29000E+01 4.09070E+01 0.00000E+00
 -1      2935 1.36500E+01 3.96080E+01 0.00000E+00
 -1      2936 1.52850E+01 7.90325E+00 0.00000E+00
 -1      2937 1.37850E+01 7.90325E+00 0.00000E+00
 -1      2938 1.30350E+01 9.20225E+00 0.00000E+00
 -1      2939 1.60350E+01 9.20225E+00 0.00000E+00
 -1      2940 1.36328E+02 2.44000E+01 0.00000E+00
 -1      2941 1.35724E+02 2.53377E+01 0.00000E+00
 -1      2942 1.36328E+02 1.44181E+01 0.00000E+00
 -1      2943 1.36711E+02 1.54769E+01 0.00000E+00
 -1      2944 1.37749E+02 1.56580E+01 0.00000E+00
 -1      2945 9.09300E+00 1.68813E+01 0.00000E+00
 -1      2946 9.09300E+00 1.83563E+01 0.00000E+00
 -1      2947 1.03920E+01 1.90812E+01 0.00000E+00
 -1      2948 1.03920E+01 1.61437E+01 0.00000E+00
 -1      2949 1.31265E+02 3.02562E+01 0.00000E+00
 -1      2950 1.30200E+02 3.08230E+01 0.00000E+00
 -1      2951 1.13747E+02 1.60085E+01 0.00000E+00
 -1      2952 1.14442E+02 1.49789E+01 0.00000E+00
 -1      2953 1.15055E+02 2.59648E+01 0.00000E+00
 -1      2954 1.14560E+02 2.49532E+01 0.00000E+00
 -1      2955 1.16336E+02 2.80554E+01 0.00000E+00
 -1      2956 1.15690E+02 2.70744E+01 0.00000E+00
 -1      2957 1.23284E+02 3.23499E+01 0.00000E+00
 -1      2958 1.22065E+02 3.21238E+01 0.00000E+00
 -1      2959 1.13100E+02 1.87296E+01 0.00000E+00
 -1      2960 1.13302E+02 1.75453E+01 0.00000E+00
 -1      2961 9.09300E+00 3.15875E+01 0.00000E+00
 -1      2962 9.09300E+00 3.30625E+01 0.00000E+00
 -1      2963 1.14982E+02 1.38444E+01 0.00000E+00
 -1      2964 1.15521E+02 1.27098E+01 0.00000E+00
 -1      2965 1.13785E+02 1.37853E+01 0.00000E+00
 -1      2966 1.18215E+02 3.00978E+01 0.00000E+00
 -1      2967 1.17271E+02 2.91763E+01 0.00000E+00
 -1      2968 1.16193E+02 1.19414E+01 0.00000E+00
 -1      2969 1.16864E+02 1.11730E+01 0.00000E+00
 -1      2970 1.14995E+02 1.18823E+01 0.00000E+00
 -1      2971 7.85850E+00 3.92077E+01 0.00000E+00
 -1      2972 1.33229E+02 2.82819E+01 0.00000E+00
 -1      2973 1.32474E+02 2.92429E+01 0.00000E+00
 -1      2974 1.41192E+02 3.96958E+01 0.00000E+00
 -1      2975 1.34635E+02 1.22422E+01 0.00000E+00
 -1      2976 1.35517E+02 1.31297E+01 0.00000E+00
 -1      2977 1.18279E+02 9.05912E+00 0.00000E+00
 -1      2978 1.17292E+02 7.76121E+00 0.00000E+00
 -1      2979 1.15792E+02 7.76121E+00 0.00000E+00
 -1      2980 1.17305E+02 1.00751E+01 0.00000E+00
 -1      2981 1.29830E+02 3.19137E+01 0.00000E+00
 -1      2982 1.03920E+01 2.49750E+01 0.00000E+00
 -1      2983 9.09300E+00 2.57000E+01 0.00000E+00
 -1      2984 9.09300E+00 2.71750E+01 0.00000E+00
 -1      2985 1.37371E+02 2.41925E+01 0.00000E+00
 -1      2986 1.27080E+02 7.54936E+00 0.00000E+00
 -1      2987 1.24065E+02 3.32796E+01 0.00000E+00
 -1      2988 9.09300E+00 3.45313E+01 0.00000E+00
 -1      2989 9.09300E+00 3.60000E+01 0.00000E+00
 -1      2990 1.03920E+01 3.37938E+01 0.00000E+00
 -1      2991 9.66450E+00 9.72612E+00 0.00000E+00
 -1      2992 1.34604E+02 1.12692E+01 0.00000E+00
 -1      2993 1.40070E+02 1.64491E+01 0.00000E+00
 -1      2994 1.41095E+02 1.57116E+01 0.00000E+00
 -1      2995 1.15042E+02 9.06021E+00 0.00000E+00
 -1      2996 1.39882E+02 1.91250E+01 0.00000E+00
 -1      2997 1.33142E+02 8.69112E+00 0.00000E+00
 -1      2998 1.32392E+02 7.58221E+00 0.00000E+00
 -1      2999 1.32383E+02 3.03574E+01 0.00000E+00
 -1      3000 1.36555E+02 1.33108E+01 0.00000E+00
 -1      3001 1.40706E+02 1.17875E+01 0.00000E+00
 -1      3002 1.37638E+02 1.83632E+01 0.00000E+00
 -1      3003 1.37906E+02 1.92861E+01 0.00000E+00
 -1      3004 1.41192E+02 3.82207E+01 0.00000E+00
 -1      3005 1.11784E+02 2.03886E+01 0.00000E+00
 -1      3006 1.12442E+02 1.95591E+01 0.00000E+00
 -1      3007 1.11698E+02 1.88229E+01 0.00000E+00
 -1      3008 1.37744E+02 2.04141E+01 0.00000E+00
 -1      3009 1.37680E+02 2.10144E+01 0.00000E+00
 -1      3010 1.38192E+02 2.19466E+01 0.00000E+00
 -1      3011 1.38515E+02 1.96907E+01 0.00000E+00
 -1      3012 1.18367E+02 3.12184E+01 0.00000E+00
 -1      3013 1.35673E+02 2.61960E+01 0.00000E+00
 -1      3014 1.35622E+02 2.70543E+01 0.00000E+00
 -1      3015 1.36661E+02 2.61689E+01 0.00000E+00
 -1      3016 1.12928E+02 2.22863E+01 0.00000E+00
 -1      3017 1.16092E+02 2.92496E+01 0.00000E+00
 -1      3018 1.13607E+02 2.46786E+01 0.00000E+00
 -1      3019 1.21090E+02 3.26967E+01 0.00000E+00
 -1      3020 9.09300E+00 2.86437E+01 0.00000E+00
 -1      3021 9.09300E+00 3.01187E+01 0.00000E+00
 -1      3022 1.03920E+01 3.08563E+01 0.00000E+00
 -1      3023 1.03920E+01 2.79188E+01 0.00000E+00
 -1      3024 1.41095E+02 1.42491E+01 0.00000E+00
 -1      3025 1.14522E+02 2.70191E+01 0.00000E+00
 -1      3026 1.34113E+02 2.82128E+01 0.00000E+00
 -1      3027 1.12801E+02 1.64566E+01 0.00000E+00
 -1      3028 1.12299E+02 1.53679E+01 0.00000E+00
 -1      3029 1.11854E+02 1.69047E+01 0.00000E+00
 -1      3030 1.27072E+02 3.28444E+01 0.00000E+00
 -1      3031 1.09635E+01 1.04636E+01 0.00000E+00
 -1      3032 9.15750E+00 3.77359E+01 0.00000E+00
 -1      3033 9.22200E+00 4.02061E+01 0.00000E+00
 -1      3034 1.05855E+01 4.04701E+01 0.00000E+00
 -1      3035 1.04565E+01 3.69984E+01 0.00000E+00
 -1      3036 1.16107E+02 1.00160E+01 0.00000E+00
 -1      3037 1.13355E+01 3.91711E+01 0.00000E+00
 -1      3038 1.38404E+02 1.76398E+01 0.00000E+00
 -1      3039 1.39529E+02 3.85602E+01 0.00000E+00
 -1      3040 1.40542E+02 3.71145E+01 0.00000E+00
 -1      3041 1.39243E+02 3.63770E+01 0.00000E+00
 -1      3042 1.38514E+02 3.85310E+01 0.00000E+00
 -1      3043 1.16910E+01 1.24625E+01 0.00000E+00
 -1      3044 1.16910E+01 1.39375E+01 0.00000E+00
 -1      3045 1.39595E+02 1.27866E+01 0.00000E+00
 -1      3046 1.59000E+01 3.83090E+01 0.00000E+00
 -1      3047 1.74000E+01 3.83090E+01 0.00000E+00
 -1      3048 1.39144E+02 1.71834E+01 0.00000E+00
 -1      3049 1.39057E+02 1.59825E+01 0.00000E+00
 -1      3050 1.89000E+01 3.83090E+01 0.00000E+00
 -1      3051 2.04000E+01 3.83090E+01 0.00000E+00
 -1      3052 1.81500E+01 3.70100E+01 0.00000E+00
 -1      3053 2.19000E+01 3.83090E+01 0.00000E+00
 -1      3054 2.34000E+01 3.83090E+01 0.00000E+00
 -1      3055 2.11500E+01 3.70100E+01 0.00000E+00
 -1      3056 2.49000E+01 3.83090E+01 0.00000E+00
 -1      3057 2.64000E+01 3.83090E+01 0.00000E+00
 -1      3058 2.41500E+01 3.70100E+01 0.00000E+00
 -1      3059 2.79000E+01 3.83090E+01 0.00000E+00
 -1      3060 2.94000E+01 3.83090E+01 0.00000E+00
 -1      3061 2.71500E+01 3.70100E+01 0.00000E+00
 -1      3062 3.09000E+01 3.83090E+01 0.00000E+00
 -1      3063 3.24000E+01 3.83090E+01 0.00000E+00
 -1      3064 3.01500E+01 3.70100E+01 0.00000E+00
 -1      3065 3.39000E+01 3.83090E+01 0.00000E+00
 -1      3066 3.54000E+01 3.83090E+01 0.00000E+00
 -1      3067 3.31500E+01 3.70100E+01 0.00000E+00
 -1      3068 3.69000E+01 3.83090E+01 0.00000E+00
 -1      3069 3.84000E+01 3.83090E+01 0.00000E+00
 -1      3070 3.61500E+01 3.70100E+01 0.00000E+00
 -1      3071 3.99000E+01 3.83090E+01 0.00000E+00
 -1      3072 4.14000E+01 3.83090E+01 0.00000E+00
 -1      3073 3.91500E+01 3.70100E+01 0.00000E+00
 -1      3074 4.29000E+01 3.83090E+01 0.00000E+00
 -1      3075 4.44000E+01 3.83090E+01 0.00000E+00
 -1      3076 4.21500E+01 3.70100E+01 0.00000E+00
 -1      3077 4.59000E+01 3.83090E+01 0.00000E+00
 -1      3078 4.74000E+01 3.83090E+01 0.00000E+00
 -1      3079 4.51500E+01 3.70100E+01 0.00000E+00
 -1      3080 4.89000E+01 3.83090E+01 0.00000E+00
 -1      3081 5.04000E+01 3.83090E+01 0.00000E+00
 -1      3082 4.81500E+01 3.70100E+01 0.00000E+00
 -1      3083 5.19000E+01 3.83090E+01 0.00000E+00
 -1      3084 5.34000E+01 3.83090E+01 0.00000E+00
 -1      3085 5.11500E+01 3.70100E+01 0.00000E+00
 -1      3086 5.49000E+01 3.83090E+01 0.00000E+00
 -1      3087 5.64000E+01 3.83090E+01 0.00000E+00
 -1      3088 5.41500E+01 3.70100E+01 0.00000E+00
 -1      3089 5.79000E+01 3.83090E+01 0.00000E+00
 -1      3090 5.94000E+01 3.83090E+01 0.00000E+00
 -1      3091 5.71500E+01 3.70100E+01 0.00000E+00
 -1      3092 6.09000E+01 3.83090E+01 0.00000E+00
 -1      3093 6.24000E+01 3.83090E+01 0.00000E+00
 -1      3094 6.01500E+01 3.70100E+01 0.00000E+00
 -1      3095 6.39000E+01 3.83090E+01 0.00000E+00
 -1      3096 6.54000E+01 3.83090E+01 0.00000E+00
 -1      3097 6.31500E+01 3.70100E+01 0.00000E+00
 -1      3098 6.69000E+01 3.83090E+01 0.00000E+00
 -1      3099 6.84000E+01 3.83090E+01 0.00000E+00
 -1      3100 6.61500E+01 3.70100E+01 0.00000E+00
 -1      3101 6.99000E+01 3.83090E+01 0.00000E+00
 -1      3102 7.14000E+01 3.83090E+01 0.00000E+00
 -1      3103 6.91500E+01 3.70100E+01 0.00000E+00
 -1      3104 7.29000E+01 3.83090E+01 0.00000E+00
 -1      3105 7.44000E+01 3.83090E+01 0.00000E+00
 -1      3106 7.21500E+01 3.70100E+01 0.00000E+00
 -1      3107 7.59000E+01 3.83090E+01 0.00000E+00
 -1      3108 7.74000E+01 3.83090E+01 0.00000E+00
 -1      3109 7.51500E+01 3.70100E+01 0.00000E+00
 -1      3110 7.89000E+01 3.83090E+01 0.00000E+00
 -1      3111 8.04000E+01 3.83090E+01 0.00000E+00
 -1      3112 7.81500E+01 3.70100E+01 0.00000E+00
 -1      3113 8.19000E+01 3.83090E+01 0.00000E+00
 -1      3114 8.34000E+01 3.83090E+01 0.00000E+00
 -1      3115 8.11500E+01 3.70100E+01 0.00000E+00
 -1      3116 8.49000E+01 3.83090E+01 0.00000E+00
 -1      3117 8.64000E+01 3.83090E+01 0.00000E+00
 -1      3118 8.41500E+01 3.70100E+01 0.00000E+00
 -1      3119 8.79000E+01 3.83090E+01 0.00000E+00
 -1      3120 8.94000E+01 3.83090E+01 0.00000E+00
 -1      3121 8.71500E+01 3.70100E+01 0.00000E+00
 -1      3122 9.09000E+01 3.83090E+01 0.00000E+00
 -1      3123 9.24000E+01 3.83090E+01 0.00000E+00
 -1      3124 9.01500E+01 3.70100E+01 0.00000E+00
 -1      3125 9.39000E+01 3.83090E+01 0.00000E+00
 -1      3126 9.54000E+01 3.83090E+01 0.00000E+00
 -1      3127 9.31500E+01 3.70100E+01 0.00000E+00
 -1      3128 9.69000E+01 3.83090E+01 0.00000E+00
 -1      3129 9.84000E+01 3.83090E+01 0.00000E+00
 -1      3130 9.61500E+01 3.70100E+01 0.00000E+00
 -1      3131 9.99000E+01 3.83090E+01 0.00000E+00
 -1      3132 1.01400E+02 3.83090E+01 0.00000E+00
 -1      3133 9.91500E+01 3.70100E+01 0.00000E+00
 -1      3134 1.02900E+02 3.83090E+01 0.00000E+00
 -1      3135 1.04400E+02 3.83090E+01 0.00000E+00
 -1      3136 1.02150E+02 3.70100E+01 0.00000E+00
 -1      3137 1.05900E+02 3.83090E+01 0.00000E+00
 -1      3138 1.07400E+02 3.83090E+01 0.00000E+00
 -1      3139 1.05150E+02 3.70100E+01 0.00000E+00
 -1      3140 1.08900E+02 3.83090E+01 0.00000E+00
 -1      3141 1.10400E+02 3.83090E+01 0.00000E+00
 -1      3142 1.08150E+02 3.70100E+01 0.00000E+00
 -1      3143 1.11900E+02 3.83090E+01 0.00000E+00
 -1      3144 1.13400E+02 3.83090E+01 0.00000E+00
 -1      3145 1.11150E+02 3.70100E+01 0.00000E+00
 -1      3146 1.14900E+02 3.83090E+01 0.00000E+00
 -1      3147 1.16400E+02 3.83090E+01 0.00000E+00
 -1      3148 1.14150E+02 3.70100E+01 0.00000E+00
 -1      3149 1.17900E+02 3.83090E+01 0.00000E+00
 -1      3150 1.19400E+02 3.83090E+01 0.00000E+00
 -1      3151 1.17150E+02 3.70100E+01 0.00000E+00
 -1      3152 1.20900E+02 3.83090E+01 0.00000E+00
 -1      3153 1.22400E+02 3.83090E+01 0.00000E+00
 -1      3154 1.20150E+02 3.70100E+01 0.00000E+00
 -1      3155 1.23900E+02 3.83090E+01 0.00000E+00
 -1      3156 1.25400E+02 3.83090E+01 0.00000E+00
 -1      3157 1.23150E+02 3.70100E+01 0.00000E+00
 -1      3158 1.26900E+02 3.83090E+01 0.00000E+00
 -1      3159 1.28400E+02 3.83090E+01 0.00000E+00
 -1      3160 1.26150E+02 3.70100E+01 0.00000E+00
 -1      3161 1.29900E+02 3.83090E+01 0.00000E+00
 -1      3162 1.31400E+02 3.83090E+01 0.00000E+00
 -1      3163 1.29150E+02 3.70100E+01 0.00000E+00
 -1      3164 1.32900E+02 3.83090E+01 0.00000E+00
 -1      3165 1.34400E+02 3.83090E+01 0.00000E+00
 -1      3166 1.32150E+02 3.70100E+01 0.00000E+00
 -1      3167 1.35707E+02 3.84200E+01 0.00000E+00
 -1      3168 1.37207E+02 3.84200E+01 0.00000E+00
 -1      3169 1.37572E+02 3.73430E+01 0.00000E+00
 -1      3170 1.34957E+02 3.71210E+01 0.00000E+00
 -1      3171 2.27850E+01 1.05013E+01 0.00000E+00
 -1      3172 2.12850E+01 1.05013E+01 0.00000E+00
 -1      3173 3.47850E+01 1.05013E+01 0.00000E+00
 -1      3174 3.32850E+01 1.05013E+01 0.00000E+00
 -1      3175 3.17850E+01 1.05013E+01 0.00000E+00
 -1      3176 3.02850E+01 1.05013E+01 0.00000E+00
 -1      3177 3.25350E+01 1.18003E+01 0.00000E+00
 -1      3178 4.07850E+01 1.05013E+01 0.00000E+00
 -1      3179 3.92850E+01 1.05013E+01 0.00000E+00
 -1      3180 4.37850E+01 1.05013E+01 0.00000E+00
 -1      3181 4.22850E+01 1.05013E+01 0.00000E+00
 -1      3182 4.15350E+01 1.18003E+01 0.00000E+00
 -1      3183 4.67850E+01 1.05013E+01 0.00000E+00
 -1      3184 4.52850E+01 1.05013E+01 0.00000E+00
 -1      3185 4.45350E+01 1.18003E+01 0.00000E+00
 -1      3186 4.97850E+01 1.05013E+01 0.00000E+00
 -1      3187 4.82850E+01 1.05013E+01 0.00000E+00
 -1      3188 4.75350E+01 1.18003E+01 0.00000E+00
 -1      3189 5.27850E+01 1.05013E+01 0.00000E+00
 -1      3190 5.12850E+01 1.05013E+01 0.00000E+00
 -1      3191 5.05350E+01 1.18003E+01 0.00000E+00
 -1      3192 5.57850E+01 1.05013E+01 0.00000E+00
 -1      3193 5.42850E+01 1.05013E+01 0.00000E+00
 -1      3194 5.35350E+01 1.18003E+01 0.00000E+00
 -1      3195 5.87850E+01 1.05013E+01 0.00000E+00
 -1      3196 5.72850E+01 1.05013E+01 0.00000E+00
 -1      3197 5.65350E+01 1.18003E+01 0.00000E+00
 -1      3198 6.17850E+01 1.05013E+01 0.00000E+00
 -1      3199 6.02850E+01 1.05013E+01 0.00000E+00
 -1      3200 5.95350E+01 1.18003E+01 0.00000E+00
 -1      3201 6.47850E+01 1.05013E+01 0.00000E+00
 -1      3202 6.32850E+01 1.05013E+01 0.00000E+00
 -1      3203 6.25350E+01 1.18003E+01 0.00000E+00
 -1      3204 6.77850E+01 1.05013E+01 0.00000E+00
 -1      3205 6.62850E+01 1.05013E+01 0.00000E+00
 -1      3206 6.55350E+01 1.18003E+01 0.00000E+00
 -1      3207 7.07850E+01 1.05013E+01 0.00000E+00
 -1      3208 6.92850E+01 1.05013E+01 0.00000E+00
 -1      3209 6.85350E+01 1.18003E+01 0.00000E+00
 -1      3210 7.37850E+01 1.05013E+01 0.00000E+00
 -1      3211 7.22850E+01 1.05013E+01 0.00000E+00
 -1      3212 7.15350E+01 1.18003E+01 0.00000E+00
 -1      3213 7.67850E+01 1.05013E+01 0.00000E+00
 -1      3214 7.52850E+01 1.05013E+01 0.00000E+00
 -1      3215 7.45350E+01 1.18003E+01 0.00000E+00
 -1      3216 7.97850E+01 1.05013E+01 0.00000E+00
 -1      3217 7.82850E+01 1.05013E+01 0.00000E+00
 -1      3218 7.75350E+01 1.18003E+01 0.00000E+00
 -1      3219 8.27850E+01 1.05013E+01 0.00000E+00
 -1      3220 8.12850E+01 1.05013E+01 0.00000E+00
 -1      3221 8.05350E+01 1.18003E+01 0.00000E+00
 -1      3222 8.57850E+01 1.05013E+01 0.00000E+00
 -1      3223 8.42850E+01 1.05013E+01 0.00000E+00
 -1      3224 8.35350E+01 1.18003E+01 0.00000E+00
 -1      3225 8.87850E+01 1.05013E+01 0.00000E+00
 -1      3226 8.72850E+01 1.05013E+01 0.00000E+00
 -1      3227 8.65350E+01 1.18003E+01 0.00000E+00
 -1      3228 9.17850E+01 1.05013E+01 0.00000E+00
 -1      3229 9.02850E+01 1.05013E+01 0.00000E+00
 -1      3230 8.95350E+01 1.18003E+01 0.00000E+00
 -1      3231 9.47850E+01 1.05013E+01 0.00000E+00
 -1      3232 9.32850E+01 1.05013E+01 0.00000E+00
 -1      3233 9.25350E+01 1.18003E+01 0.00000E+00
 -1      3234 9.77850E+01 1.05013E+01 0.00000E+00
 -1      3235 9.62850E+01 1.05013E+01 0.00000E+00
 -1      3236 9.55350E+01 1.18003E+01 0.00000E+00
 -1      3237 1.00785E+02 1.05013E+01 0.00000E+00
 -1      3238 9.92850E+01 1.05013E+01 0.00000E+00
 -1      3239 9.85350E+01 1.18003E+01 0.00000E+00
 -1      3240 1.03785E+02 1.05013E+01 0.00000E+00
 -1      3241 1.02285E+02 1.05013E+01 0.00000E+00
 -1      3242 1.01535E+02 1.18003E+01 0.00000E+00
 -1      3243 1.06785E+02 1.05013E+01 0.00000E+00
 -1      3244 1.05285E+02 1.05013E+01 0.00000E+00
 -1      3245 1.04535E+02 1.18003E+01 0.00000E+00
 -1      3246 1.09785E+02 1.05013E+01 0.00000E+00
 -1      3247 1.08285E+02 1.05013E+01 0.00000E+00
 -1      3248 1.07535E+02 1.18003E+01 0.00000E+00
 -1      3249 1.38309E+02 3.45625E+01 0.00000E+00
 -1      3250 1.38309E+02 3.30875E+01 0.00000E+00
 -1      3251 1.38309E+02 3.16125E+01 0.00000E+00
 -1      3252 1.38309E+02 3.01375E+01 0.00000E+00
 -1      3253 1.37010E+02 3.23500E+01 0.00000E+00
 -1      3254 1.33999E+02 9.66908E+00 0.00000E+00
 -1      3255 1.29000E+01 3.83090E+01 0.00000E+00
 -1      3256 1.44000E+01 3.83090E+01 0.00000E+00
 -1      3257 1.51500E+01 3.70100E+01 0.00000E+00
 -1      3258 1.38109E+02 2.67636E+01 0.00000E+00
 -1      3259 1.38109E+02 2.52886E+01 0.00000E+00
 -1      3260 1.38109E+02 2.82136E+01 0.00000E+00
 -1      3261 1.16910E+01 2.12875E+01 0.00000E+00
 -1      3262 1.16910E+01 2.27625E+01 0.00000E+00
 -1      3263 1.12665E+02 1.39484E+01 0.00000E+00
 -1      3264 1.13204E+02 1.28138E+01 0.00000E+00
 -1      3265 1.14601E+02 1.01581E+01 0.00000E+00
 -1      3266 1.97850E+01 1.05013E+01 0.00000E+00
 -1      3267 1.82850E+01 1.05013E+01 0.00000E+00
 -1      3268 2.05350E+01 1.18003E+01 0.00000E+00
 -1      3269 1.33700E+02 3.07006E+01 0.00000E+00
 -1      3270 1.32491E+02 3.17139E+01 0.00000E+00
 -1      3271 1.15708E+02 3.05204E+01 0.00000E+00
 -1      3272 1.14773E+02 2.93995E+01 0.00000E+00
 -1      3273 1.12079E+02 2.32280E+01 0.00000E+00
 -1      3274 1.11680E+02 2.20665E+01 0.00000E+00
 -1      3275 3.77850E+01 1.05013E+01 0.00000E+00
 -1      3276 3.62850E+01 1.05013E+01 0.00000E+00
 -1      3277 3.55350E+01 1.18003E+01 0.00000E+00
 -1      3278 3.85350E+01 1.18003E+01 0.00000E+00
 -1      3279 1.18445E+02 3.25795E+01 0.00000E+00
 -1      3280 1.17104E+02 3.17316E+01 0.00000E+00
 -1      3281 1.38675E+02 1.49237E+01 0.00000E+00
 -1      3282 1.12638E+02 2.56895E+01 0.00000E+00
 -1      3283 1.12359E+02 2.44588E+01 0.00000E+00
 -1      3284 1.11110E+02 2.42389E+01 0.00000E+00
 -1      3285 1.25154E+02 3.51210E+01 0.00000E+00
 -1      3286 1.23561E+02 3.51686E+01 0.00000E+00
 -1      3287 1.21321E+02 3.40208E+01 0.00000E+00
 -1      3288 1.19939E+02 3.33904E+01 0.00000E+00
 -1      3289 1.35101E+02 2.81857E+01 0.00000E+00
 -1      3290 1.34580E+02 2.93170E+01 0.00000E+00
 -1      3291 1.36088E+02 2.81586E+01 0.00000E+00
 -1      3292 1.28049E+02 3.36392E+01 0.00000E+00
 -1      3293 1.26636E+02 3.40268E+01 0.00000E+00
 -1      3294 1.30980E+02 3.28259E+01 0.00000E+00
 -1      3295 1.29635E+02 3.33689E+01 0.00000E+00
 -1      3296 1.12710E+01 3.74352E+01 0.00000E+00
 -1      3297 1.20855E+01 3.78721E+01 0.00000E+00
 -1      3298 1.12065E+01 3.56994E+01 0.00000E+00
 -1      3299 1.26488E+01 1.02017E+01 0.00000E+00
 -1      3300 1.20772E+01 1.14631E+01 0.00000E+00
 -1      3301 1.33763E+01 1.22006E+01 0.00000E+00
 -1      3302 1.41488E+01 1.02017E+01 0.00000E+00
 -1      3303 1.13877E+02 2.81248E+01 0.00000E+00
 -1      3304 1.13242E+02 2.70151E+01 0.00000E+00
 -1      3305 1.38286E+02 1.24621E+01 0.00000E+00
 -1      3306 1.35139E+02 1.04222E+01 0.00000E+00
 -1      3307 1.14048E+02 1.10202E+01 0.00000E+00
 -1      3308 1.12982E+02 1.00644E+01 0.00000E+00
 -1      3309 1.11482E+02 1.00644E+01 0.00000E+00
 -1      3310 1.13377E+02 1.17886E+01 0.00000E+00
 -1      3311 1.36307E+02 1.07979E+01 0.00000E+00
 -1      3312 1.16910E+01 2.42375E+01 0.00000E+00
 -1      3313 1.16910E+01 2.57125E+01 0.00000E+00
 -1      3314 1.29900E+01 2.35000E+01 0.00000E+00
 -1      3315 1.10732E+02 1.13634E+01 0.00000E+00
 -1      3316 1.12065E+01 3.27619E+01 0.00000E+00
 -1      3317 1.12065E+01 3.42306E+01 0.00000E+00
 -1      3318 1.20210E+01 3.46675E+01 0.00000E+00
 -1      3319 1.11993E+02 2.67952E+01 0.00000E+00
 -1      3320 1.32297E+02 3.31690E+01 0.00000E+00
 -1      3321 1.18676E+02 3.39036E+01 0.00000E+00
 -1      3322 1.39416E+02 1.81064E+01 0.00000E+00
 -1      3323 1.15785E+02 3.18815E+01 0.00000E+00
 -1      3324 2.95350E+01 1.18003E+01 0.00000E+00
 -1      3325 2.87850E+01 1.05013E+01 0.00000E+00
 -1      3326 2.72850E+01 1.05013E+01 0.00000E+00
 -1      3327 1.12257E+02 1.19517E+01 0.00000E+00
 -1      3328 1.11718E+02 1.43965E+01 0.00000E+00
 -1      3329 1.28355E+01 3.65731E+01 0.00000E+00
 -1      3330 1.29900E+01 1.46687E+01 0.00000E+00
 -1      3331 1.16910E+01 1.54063E+01 0.00000E+00
 -1      3332 1.16910E+01 1.68750E+01 0.00000E+00
 -1      3333 2.57850E+01 1.05013E+01 0.00000E+00
 -1      3334 2.42850E+01 1.05013E+01 0.00000E+00
 -1      3335 2.65350E+01 1.18003E+01 0.00000E+00
 -1      3336 1.38819E+02 2.33122E+01 0.00000E+00
 -1      3337 1.38819E+02 2.18372E+01 0.00000E+00
 -1      3338 2.35350E+01 1.18003E+01 0.00000E+00
 -1      3339 1.16910E+01 1.98188E+01 0.00000E+00
 -1      3340 1.29900E+01 2.05562E+01 0.00000E+00
 -1      3341 1.16910E+01 1.83500E+01 0.00000E+00
 -1      3342 1.37758E+02 3.64912E+01 0.00000E+00
 -1      3343 1.38123E+02 3.54142E+01 0.00000E+00
 -1      3344 1.36824E+02 3.46768E+01 0.00000E+00
 -1      3345 1.36451E+02 3.63802E+01 0.00000E+00
 -1      3346 1.13493E+02 2.93955E+01 0.00000E+00
 -1      3347 1.10935E+02 2.13303E+01 0.00000E+00
 -1      3348 1.10191E+02 2.05941E+01 0.00000E+00
 -1      3349 1.10086E+02 2.22719E+01 0.00000E+00
 -1      3350 1.37475E+02 1.11737E+01 0.00000E+00
 -1      3351 1.38160E+02 2.44303E+01 0.00000E+00
 -1      3352 1.34688E+02 3.06735E+01 0.00000E+00
 -1      3353 1.39142E+02 1.95814E+01 0.00000E+00
 -1      3354 1.12065E+01 3.12931E+01 0.00000E+00
 -1      3355 1.20210E+01 3.17300E+01 0.00000E+00
 -1      3356 1.12065E+01 2.98244E+01 0.00000E+00
 -1      3357 1.69669E+01 1.03515E+01 0.00000E+00
 -1      3358 1.54669E+01 1.03515E+01 0.00000E+00
 -1      3359 1.50806E+01 1.13509E+01 0.00000E+00
 -1      3360 1.77169E+01 1.16505E+01 0.00000E+00
 -1      3361 1.11196E+02 1.77342E+01 0.00000E+00
 -1      3362 1.10694E+02 1.66455E+01 0.00000E+00
 -1      3363 1.10538E+02 1.85637E+01 0.00000E+00
 -1      3364 1.29200E+02 3.45513E+01 0.00000E+00
 -1      3365 1.38981E+02 2.07093E+01 0.00000E+00
 -1      3366 1.10005E+02 2.51368E+01 0.00000E+00
 -1      3367 1.09726E+02 2.39060E+01 0.00000E+00
 -1      3368 2.04000E+01 3.57110E+01 0.00000E+00
 -1      3369 2.19000E+01 3.57110E+01 0.00000E+00
 -1      3370 2.34000E+01 3.57110E+01 0.00000E+00
 -1      3371 2.49000E+01 3.57110E+01 0.00000E+00
 -1      3372 2.26500E+01 3.44120E+01 0.00000E+00
 -1      3373 2.64000E+01 3.57110E+01 0.00000E+00
 -1      3374 2.79000E+01 3.57110E+01 0.00000E+00
 -1      3375 2.56500E+01 3.44120E+01 0.00000E+00
 -1      3376 2.94000E+01 3.57110E+01 0.00000E+00
 -1      3377 3.09000E+01 3.57110E+01 0.00000E+00
 -1      3378 2.86500E+01 3.44120E+01 0.00000E+00
 -1      3379 3.24000E+01 3.57110E+01 0.00000E+00
 -1      3380 3.39000E+01 3.57110E+01 0.00000E+00
 -1      3381 3.16500E+01 3.44120E+01 0.00000E+00
 -1      3382 3.54000E+01 3.57110E+01 0.00000E+00
 -1      3383 3.69000E+01 3.57110E+01 0.00000E+00
 -1      3384 3.46500E+01 3.44120E+01 0.00000E+00
 -1      3385 3.84000E+01 3.57110E+01 0.00000E+00
 -1      3386 3.99000E+01 3.57110E+01 0.00000E+00
 -1      3387 3.76500E+01 3.44120E+01 0.00000E+00
 -1      3388 4.14000E+01 3.57110E+01 0.00000E+00
 -1      3389 4.29000E+01 3.57110E+01 0.00000E+00
 -1      3390 4.06500E+01 3.44120E+01 0.00000E+00
 -1      3391 4.44000E+01 3.57110E+01 0.00000E+00
 -1      3392 4.59000E+01 3.57110E+01 0.00000E+00
 -1      3393 4.36500E+01 3.44120E+01 0.00000E+00
 -1      3394 4.74000E+01 3.57110E+01 0.00000E+00
 -1      3395 4.89000E+01 3.57110E+01 0.00000E+00
 -1      3396 4.66500E+01 3.44120E+01 0.00000E+00
 -1      3397 5.04000E+01 3.57110E+01 0.00000E+00
 -1      3398 5.19000E+01 3.57110E+01 0.00000E+00
 -1      3399 4.96500E+01 3.44120E+01 0.00000E+00
 -1      3400 5.34000E+01 3.57110E+01 0.00000E+00
 -1      3401 5.49000E+01 3.57110E+01 0.00000E+00
 -1      3402 5.26500E+01 3.44120E+01 0.00000E+00
 -1      3403 5.64000E+01 3.57110E+01 0.00000E+00
 -1      3404 5.79000E+01 3.57110E+01 0.00000E+00
 -1      3405 5.56500E+01 3.44120E+01 0.00000E+00
 -1      3406 5.94000E+01 3.57110E+01 0.00000E+00
 -1      3407 6.09000E+01 3.57110E+01 0.00000E+00
 -1      3408 5.86500E+01 3.44120E+01 0.00000E+00
 -1      3409 6.24000E+01 3.57110E+01 0.00000E+00
 -1      3410 6.39000E+01 3.57110E+01 0.00000E+00
 -1      3411 6.16500E+01 3.44120E+01 0.00000E+00
 -1      3412 6.54000E+01 3.57110E+01 0.00000E+00
 -1      3413 6.69000E+01 3.57110E+01 0.00000E+00
 -1      3414 6.46500E+01 3.44120E+01 0.00000E+00
 -1      3415 6.84000E+01 3.57110E+01 0.00000E+00
 -1      3416 6.99000E+01 3.57110E+01 0.00000E+00
 -1      3417 6.76500E+01 3.44120E+01 0.00000E+00
 -1      3418 7.14000E+01 3.57110E+01 0.00000E+00
 -1      3419 7.29000E+01 3.57110E+01 0.00000E+00
 -1      3420 7.06500E+01 3.44120E+01 0.00000E+00
 -1      3421 7.44000E+01 3.57110E+01 0.00000E+00
 -1      3422 7.59000E+01 3.57110E+01 0.00000E+00
 -1      3423 7.36500E+01 3.44120E+01 0.00000E+00
 -1      3424 7.74000E+01 3.57110E+01 0.00000E+00
 -1      3425 7.89000E+01 3.57110E+01 0.00000E+00
 -1      3426 7.66500E+01 3.44120E+01 0.00000E+00
 -1      3427 8.04000E+01 3.57110E+01 0.00000E+00
 -1      3428 8.19000E+01 3.57110E+01 0.00000E+00
 -1      3429 7.96500E+01 3.44120E+01 0.00000E+00
 -1      3430 8.34000E+01 3.57110E+01 0.00000E+00
 -1      3431 8.49000E+01 3.57110E+01 0.00000E+00
 -1      3432 8.26500E+01 3.44120E+01 0.00000E+00
 -1      3433 8.64000E+01 3.57110E+01 0.00000E+00
 -1      3434 8.79000E+01 3.57110E+01 0.00000E+00
 -1      3435 8.56500E+01 3.44120E+01 0.00000E+00
 -1      3436 8.94000E+01 3.57110E+01 0.00000E+00
 -1      3437 9.09000E+01 3.57110E+01 0.00000E+00
 -1      3438 8.86500E+01 3.44120E+01 0.00000E+00
 -1      3439 9.24000E+01 3.57110E+01 0.00000E+00
 -1      3440 9.39000E+01 3.57110E+01 0.00000E+00
 -1      3441 9.16500E+01 3.44120E+01 0.00000E+00
 -1      3442 9.54000E+01 3.57110E+01 0.00000E+00
 -1      3443 9.69000E+01 3.57110E+01 0.00000E+00
 -1      3444 9.46500E+01 3.44120E+01 0.00000E+00
 -1      3445 9.84000E+01 3.57110E+01 0.00000E+00
 -1      3446 9.99000E+01 3.57110E+01 0.00000E+00
 -1      3447 9.76500E+01 3.44120E+01 0.00000E+00
 -1      3448 1.01400E+02 3.57110E+01 0.00000E+00
 -1      3449 1.02900E+02 3.57110E+01 0.00000E+00
 -1      3450 1.00650E+02 3.44120E+01 0.00000E+00
 -1      3451 1.04400E+02 3.57110E+01 0.00000E+00
 -1      3452 1.05900E+02 3.57110E+01 0.00000E+00
 -1      3453 1.03650E+02 3.44120E+01 0.00000E+00
 -1      3454 1.07400E+02 3.57110E+01 0.00000E+00
 -1      3455 1.08900E+02 3.57110E+01 0.00000E+00
 -1      3456 1.06650E+02 3.44120E+01 0.00000E+00
 -1      3457 1.10400E+02 3.57110E+01 0.00000E+00
 -1      3458 1.11900E+02 3.57110E+01 0.00000E+00
 -1      3459 1.09650E+02 3.44120E+01 0.00000E+00
 -1      3460 1.13400E+02 3.57110E+01 0.00000E+00
 -1      3461 1.14900E+02 3.57110E+01 0.00000E+00
 -1      3462 1.12650E+02 3.44120E+01 0.00000E+00
 -1      3463 1.19410E+02 3.58623E+01 0.00000E+00
 -1      3464 1.20910E+02 3.58623E+01 0.00000E+00
 -1      3465 1.26132E+02 3.59158E+01 0.00000E+00
 -1      3466 1.27632E+02 3.59158E+01 0.00000E+00
 -1      3467 1.29218E+02 3.56455E+01 0.00000E+00
 -1      3468 1.30718E+02 3.56455E+01 0.00000E+00
 -1      3469 1.32218E+02 3.56455E+01 0.00000E+00
 -1      3470 4.52850E+01 1.30992E+01 0.00000E+00
 -1      3471 4.37850E+01 1.30992E+01 0.00000E+00
 -1      3472 4.22850E+01 1.30992E+01 0.00000E+00
 -1      3473 4.07850E+01 1.30992E+01 0.00000E+00
 -1      3474 4.30350E+01 1.43982E+01 0.00000E+00
 -1      3475 5.12850E+01 1.30992E+01 0.00000E+00
 -1      3476 4.97850E+01 1.30992E+01 0.00000E+00
 -1      3477 5.42850E+01 1.30992E+01 0.00000E+00
 -1      3478 5.27850E+01 1.30992E+01 0.00000E+00
 -1      3479 5.20350E+01 1.43982E+01 0.00000E+00
 -1      3480 5.72850E+01 1.30992E+01 0.00000E+00
 -1      3481 5.57850E+01 1.30992E+01 0.00000E+00
 -1      3482 5.50350E+01 1.43982E+01 0.00000E+00
 -1      3483 6.02850E+01 1.30992E+01 0.00000E+00
 -1      3484 5.87850E+01 1.30992E+01 0.00000E+00
 -1      3485 5.80350E+01 1.43982E+01 0.00000E+00
 -1      3486 6.32850E+01 1.30992E+01 0.00000E+00
 -1      3487 6.17850E+01 1.30992E+01 0.00000E+00
 -1      3488 6.10350E+01 1.43982E+01 0.00000E+00
 -1      3489 6.62850E+01 1.30992E+01 0.00000E+00
 -1      3490 6.47850E+01 1.30992E+01 0.00000E+00
 -1      3491 6.40350E+01 1.43982E+01 0.00000E+00
 -1      3492 6.92850E+01 1.30992E+01 0.00000E+00
 -1      3493 6.77850E+01 1.30992E+01 0.00000E+00
 -1      3494 6.70350E+01 1.43982E+01 0.00000E+00
 -1      3495 7.22850E+01 1.30992E+01 0.00000E+00
 -1      3496 7.07850E+01 1.30992E+01 0.00000E+00
 -1      3497 7.00350E+01 1.43982E+01 0.00000E+00
 -1      3498 7.52850E+01 1.30992E+01 0.00000E+00
 -1      3499 7.37850E+01 1.30992E+01 0.00000E+00
 -1      3500 7.30350E+01 1.43982E+01 0.00000E+00
 -1      3501 7.82850E+01 1.30992E+01 0.00000E+00
 -1      3502 7.67850E+01 1.30992E+01 0.00000E+00
 -1      3503 7.60350E+01 1.43982E+01 0.00000E+00
 -1      3504 8.12850E+01 1.30992E+01 0.00000E+00
 -1      3505 7.97850E+01 1.30992E+01 0.00000E+00
 -1      3506 7.90350E+01 1.43982E+01 0.00000E+00
 -1      3507 8.42850E+01 1.30992E+01 0.00000E+00
 -1      3508 8.27850E+01 1.30992E+01 0.00000E+00
 -1      3509 8.20350E+01 1.43982E+01 0.00000E+00
 -1      3510 8.72850E+01 1.30992E+01 0.00000E+00
 -1      3511 8.57850E+01 1.30992E+01 0.00000E+00
 -1      3512 8.50350E+01 1.43982E+01 0.00000E+00
 -1      3513 9.02850E+01 1.30992E+01 0.00000E+00
 -1      3514 8.87850E+01 1.30992E+01 0.00000E+00
 -1      3515 8.80350E+01 1.43982E+01 0.00000E+00
 -1      3516 9.32850E+01 1.30992E+01 0.00000E+00
 -1      3517 9.17850E+01 1.30992E+01 0.00000E+00
 -1      3518 9.10350E+01 1.43982E+01 0.00000E+00
 -1      3519 9.62850E+01 1.30992E+01 0.00000E+00
 -1      3520 9.47850E+01 1.30992E+01 0.00000E+00
 -1      3521 9.40350E+01 1.43982E+01 0.00000E+00
 -1      3522 9.92850E+01 1.30992E+01 0.00000E+00
 -1      3523 9.77850E+01 1.30992E+01 0.00000E+00
 -1      3524 9.70350E+01 1.43982E+01 0.00000E+00
 -1      3525 1.02285E+02 1.30992E+01 0.00000E+00
 -1      3526 1.00785E+02 1.30992E+01 0.00000E+00
 -1      3527 1.00035E+02 1.43982E+01 0.00000E+00
 -1      3528 1.05285E+02 1.30992E+01 0.00000E+00
 -1      3529 1.03785E+02 1.30992E+01 0.00000E+00
 -1      3530 1.03035E+02 1.43982E+01 0.00000E+00
 -1      3531 1.08285E+02 1.30992E+01 0.00000E+00
 -1      3532 1.06785E+02 1.30992E+01 0.00000E+00
 -1      3533 1.06035E+02 1.43982E+01 0.00000E+00
 -1      3534 1.28355E+01 3.36356E+01 0.00000E+00
 -1      3535 1.28355E+01 3.51044E+01 0.00000E+00
 -1      3536 1.36500E+01 3.55412E+01 0.00000E+00
 -1      3537 1.36810E+02 2.89511E+01 0.00000E+00
 -1      3538 1.10560E+02 1.23886E+01 0.00000E+00
 -1      3539 1.10764E+02 1.40420E+01 0.00000E+00
 -1      3540 1.09239E+02 1.34537E+01 0.00000E+00
 -1      3541 1.08489E+02 1.47527E+01 0.00000E+00
 -1      3542 1.10398E+02 1.54616E+01 0.00000E+00
 -1      3543 2.42850E+01 1.30992E+01 0.00000E+00
 -1      3544 2.27850E+01 1.30992E+01 0.00000E+00
 -1      3545 1.15666E+02 3.37524E+01 0.00000E+00
 -1      3546 1.14269E+02 3.25411E+01 0.00000E+00
 -1      3547 1.17916E+02 3.50514E+01 0.00000E+00
 -1      3548 2.12850E+01 1.30992E+01 0.00000E+00
 -1      3549 1.97850E+01 1.30992E+01 0.00000E+00
 -1      3550 2.20350E+01 1.43982E+01 0.00000E+00
 -1      3551 1.51500E+01 3.55412E+01 0.00000E+00
 -1      3552 1.14487E+01 2.70341E+01 0.00000E+00
 -1      3553 1.14487E+01 2.85028E+01 0.00000E+00
 -1      3554 1.22633E+01 2.89397E+01 0.00000E+00
 -1      3555 1.27478E+01 2.62966E+01 0.00000E+00
 -1      3556 1.22061E+02 3.51686E+01 0.00000E+00
 -1      3557 1.11209E+02 2.79523E+01 0.00000E+00
 -1      3558 1.10606E+02 2.66267E+01 0.00000E+00
 -1      3559 1.12965E+02 3.07187E+01 0.00000E+00
 -1      3560 1.12069E+02 2.94439E+01 0.00000E+00
 -1      3561 1.33729E+02 3.45335E+01 0.00000E+00
 -1      3562 3.32850E+01 1.30992E+01 0.00000E+00
 -1      3563 3.17850E+01 1.30992E+01 0.00000E+00
 -1      3564 4.82850E+01 1.30992E+01 0.00000E+00
 -1      3565 4.67850E+01 1.30992E+01 0.00000E+00
 -1      3566 4.60350E+01 1.43982E+01 0.00000E+00
 -1      3567 4.90350E+01 1.43982E+01 0.00000E+00
 -1      3568 1.74000E+01 3.57110E+01 0.00000E+00
 -1      3569 1.89000E+01 3.57110E+01 0.00000E+00
 -1      3570 1.96500E+01 3.44120E+01 0.00000E+00
 -1      3571 1.16416E+02 3.50514E+01 0.00000E+00
 -1      3572 1.84669E+01 1.29495E+01 0.00000E+00
 -1      3573 1.71488E+01 1.27997E+01 0.00000E+00
 -1      3574 1.92169E+01 1.42485E+01 0.00000E+00
 -1      3575 1.09221E+02 2.62939E+01 0.00000E+00
 -1      3576 1.59000E+01 3.42422E+01 0.00000E+00
 -1      3577 3.02850E+01 1.30992E+01 0.00000E+00
 -1      3578 2.87850E+01 1.30992E+01 0.00000E+00
 -1      3579 3.10350E+01 1.43982E+01 0.00000E+00
 -1      3580 4.00350E+01 1.43982E+01 0.00000E+00
 -1      3581 3.92850E+01 1.30992E+01 0.00000E+00
 -1      3582 3.77850E+01 1.30992E+01 0.00000E+00
 -1      3583 2.57850E+01 1.30992E+01 0.00000E+00
 -1      3584 2.50350E+01 1.43982E+01 0.00000E+00
 -1      3585 2.72850E+01 1.30992E+01 0.00000E+00
 -1      3586 1.28355E+01 3.21669E+01 0.00000E+00
 -1      3587 1.36500E+01 3.26037E+01 0.00000E+00
 -1      3588 1.28355E+01 3.06981E+01 0.00000E+00
 -1      3589 1.42890E+01 1.39344E+01 0.00000E+00
 -1      3590 1.42890E+01 1.54031E+01 0.00000E+00
 -1      3591 1.09740E+02 1.62911E+01 0.00000E+00
 -1      3592 1.12846E+02 3.25896E+01 0.00000E+00
 -1      3593 1.29900E+01 1.76125E+01 0.00000E+00
 -1      3594 1.08981E+02 2.31698E+01 0.00000E+00
 -1      3595 3.47850E+01 1.30992E+01 0.00000E+00
 -1      3596 3.40350E+01 1.43982E+01 0.00000E+00
 -1      3597 3.62850E+01 1.30992E+01 0.00000E+00
 -1      3598 1.08840E+02 2.04470E+01 0.00000E+00
 -1      3599 1.09689E+02 1.95054E+01 0.00000E+00
 -1      3600 1.09187E+02 1.84167E+01 0.00000E+00
 -1      3601 1.10682E+02 2.92754E+01 0.00000E+00
 -1      3602 1.35409E+02 3.29410E+01 0.00000E+00
 -1      3603 1.35330E+02 3.54175E+01 0.00000E+00
 -1      3604 1.42890E+01 2.27625E+01 0.00000E+00
 -1      3605 1.42890E+01 2.42375E+01 0.00000E+00
 -1      3606 1.42890E+01 1.98250E+01 0.00000E+00
 -1      3607 1.42890E+01 2.12938E+01 0.00000E+00
 -1      3608 1.55880E+01 2.20313E+01 0.00000E+00
 -1      3609 1.35409E+02 3.14660E+01 0.00000E+00
 -1      3610 2.49000E+01 3.31130E+01 0.00000E+00
 -1      3611 2.64000E+01 3.31130E+01 0.00000E+00
 -1      3612 2.79000E+01 3.31130E+01 0.00000E+00
 -1      3613 2.94000E+01 3.31130E+01 0.00000E+00
 -1      3614 2.71500E+01 3.18140E+01 0.00000E+00
 -1      3615 3.09000E+01 3.31130E+01 0.00000E+00
 -1      3616 3.24000E+01 3.31130E+01 0.00000E+00
 -1      3617 3.01500E+01 3.18140E+01 0.00000E+00
 -1      3618 3.39000E+01 3.31130E+01 0.00000E+00
 -1      3619 3.54000E+01 3.31130E+01 0.00000E+00
 -1      3620 3.31500E+01 3.18140E+01 0.00000E+00
 -1      3621 3.69000E+01 3.31130E+01 0.00000E+00
 -1      3622 3.84000E+01 3.31130E+01 0.00000E+00
 -1      3623 3.61500E+01 3.18140E+01 0.00000E+00
 -1      3624 3.99000E+01 3.31130E+01 0.00000E+00
 -1      3625 4.14000E+01 3.31130E+01 0.00000E+00
 -1      3626 3.91500E+01 3.18140E+01 0.00000E+00
 -1      3627 4.29000E+01 3.31130E+01 0.00000E+00
 -1      3628 4.44000E+01 3.31130E+01 0.00000E+00
 -1      3629 4.21500E+01 3.18140E+01 0.00000E+00
 -1      3630 4.59000E+01 3.31130E+01 0.00000E+00
 -1      3631 4.74000E+01 3.31130E+01 0.00000E+00
 -1      3632 4.51500E+01 3.18140E+01 0.00000E+00
 -1      3633 4.89000E+01 3.31130E+01 0.00000E+00
 -1      3634 5.04000E+01 3.31130E+01 0.00000E+00
 -1      3635 4.81500E+01 3.18140E+01 0.00000E+00
 -1      3636 5.19000E+01 3.31130E+01 0.00000E+00
 -1      3637 5.34000E+01 3.31130E+01 0.00000E+00
 -1      3638 5.11500E+01 3.18140E+01 0.00000E+00
 -1      3639 5.49000E+01 3.31130E+01 0.00000E+00
 -1      3640 5.64000E+01 3.31130E+01 0.00000E+00
 -1      3641 5.41500E+01 3.18140E+01 0.00000E+00
 -1      3642 5.79000E+01 3.31130E+01 0.00000E+00
 -1      3643 5.94000E+01 3.31130E+01 0.00000E+00
 -1      3644 5.71500E+01 3.18140E+01 0.00000E+00
 -1      3645 6.09000E+01 3.31130E+01 0.00000E+00
 -1      3646 6.24000E+01 3.31130E+01 0.00000E+00
 -1      3647 6.01500E+01 3.18140E+01 0.00000E+00
 -1      3648 6.39000E+01 3.31130E+01 0.00000E+00
 -1      3649 6.54000E+01 3.31130E+01 0.00000E+00
 -1      3650 6.31500E+01 3.18140E+01 0.00000E+00
 -1      3651 6.69000E+01 3.31130E+01 0.00000E+00
 -1      3652 6.84000E+01 3.31130E+01 0.00000E+00
 -1      3653 6.61500E+01 3.18140E+01 0.00000E+00
 -1      3654 6.99000E+01 3.31130E+01 0.00000E+00
 -1      3655 7.14000E+01 3.31130E+01 0.00000E+00
 -1      3656 6.91500E+01 3.18140E+01 0.00000E+00
 -1      3657 7.29000E+01 3.31130E+01 0.00000E+00
 -1      3658 7.44000E+01 3.31130E+01 0.00000E+00
 -1      3659 7.21500E+01 3.18140E+01 0.00000E+00
 -1      3660 7.59000E+01 3.31130E+01 0.00000E+00
 -1      3661 7.74000E+01 3.31130E+01 0.00000E+00
 -1      3662 7.51500E+01 3.18140E+01 0.00000E+00
 -1      3663 7.89000E+01 3.31130E+01 0.00000E+00
 -1      3664 8.04000E+01 3.31130E+01 0.00000E+00
 -1      3665 7.81500E+01 3.18140E+01 0.00000E+00
 -1      3666 8.19000E+01 3.31130E+01 0.00000E+00
 -1      3667 8.34000E+01 3.31130E+01 0.00000E+00
 -1      3668 8.11500E+01 3.18140E+01 0.00000E+00
 -1      3669 8.49000E+01 3.31130E+01 0.00000E+00
 -1      3670 8.64000E+01 3.31130E+01 0.00000E+00
 -1      3671 8.41500E+01 3.18140E+01 0.00000E+00
 -1      3672 8.79000E+01 3.31130E+01 0.00000E+00
 -1      3673 8.94000E+01 3.31130E+01 0.00000E+00
 -1      3674 8.71500E+01 3.18140E+01 0.00000E+00
 -1      3675 9.09000E+01 3.31130E+01 0.00000E+00
 -1      3676 9.24000E+01 3.31130E+01 0.00000E+00
 -1      3677 9.01500E+01 3.18140E+01 0.00000E+00
 -1      3678 9.39000E+01 3.31130E+01 0.00000E+00
 -1      3679 9.54000E+01 3.31130E+01 0.00000E+00
 -1      3680 9.31500E+01 3.18140E+01 0.00000E+00
 -1      3681 9.69000E+01 3.31130E+01 0.00000E+00
 -1      3682 9.84000E+01 3.31130E+01 0.00000E+00
 -1      3683 9.61500E+01 3.18140E+01 0.00000E+00
 -1      3684 9.99000E+01 3.31130E+01 0.00000E+00
 -1      3685 1.01400E+02 3.31130E+01 0.00000E+00
 -1      3686 9.91500E+01 3.18140E+01 0.00000E+00
 -1      3687 1.02900E+02 3.31130E+01 0.00000E+00
 -1      3688 1.04400E+02 3.31130E+01 0.00000E+00
 -1      3689 1.02150E+02 3.18140E+01 0.00000E+00
 -1      3690 1.05900E+02 3.31130E+01 0.00000E+00
 -1      3691 1.07400E+02 3.31130E+01 0.00000E+00
 -1      3692 1.05150E+02 3.18140E+01 0.00000E+00
 -1      3693 1.11346E+02 3.25896E+01 0.00000E+00
 -1      3694 1.08317E+02 2.75246E+01 0.00000E+00
 -1      3695 1.07716E+02 2.60347E+01 0.00000E+00
 -1      3696 1.89000E+01 3.31130E+01 0.00000E+00
 -1      3697 2.04000E+01 3.31130E+01 0.00000E+00
 -1      3698 1.35144E+02 3.62692E+01 0.00000E+00
 -1      3699 5.57850E+01 1.56973E+01 0.00000E+00
 -1      3700 5.42850E+01 1.56973E+01 0.00000E+00
 -1      3701 5.27850E+01 1.56973E+01 0.00000E+00
 -1      3702 5.12850E+01 1.56973E+01 0.00000E+00
 -1      3703 5.35350E+01 1.69963E+01 0.00000E+00
 -1      3704 6.17850E+01 1.56973E+01 0.00000E+00
 -1      3705 6.02850E+01 1.56973E+01 0.00000E+00
 -1      3706 6.47850E+01 1.56973E+01 0.00000E+00
 -1      3707 6.32850E+01 1.56973E+01 0.00000E+00
 -1      3708 6.25350E+01 1.69963E+01 0.00000E+00
 -1      3709 6.77850E+01 1.56973E+01 0.00000E+00
 -1      3710 6.62850E+01 1.56973E+01 0.00000E+00
 -1      3711 6.55350E+01 1.69963E+01 0.00000E+00
 -1      3712 7.07850E+01 1.56973E+01 0.00000E+00
 -1      3713 6.92850E+01 1.56973E+01 0.00000E+00
 -1      3714 6.85350E+01 1.69963E+01 0.00000E+00
 -1      3715 7.37850E+01 1.56973E+01 0.00000E+00
 -1      3716 7.22850E+01 1.56973E+01 0.00000E+00
 -1      3717 7.15350E+01 1.69963E+01 0.00000E+00
 -1      3718 7.67850E+01 1.56973E+01 0.00000E+00
 -1      3719 7.52850E+01 1.56973E+01 0.00000E+00
 -1      3720 7.45350E+01 1.69963E+01 0.00000E+00
 -1      3721 7.97850E+01 1.56973E+01 0.00000E+00
 -1      3722 7.82850E+01 1.56973E+01 0.00000E+00
 -1      3723 7.75350E+01 1.69963E+01 0.00000E+00
 -1      3724 8.27850E+01 1.56973E+01 0.00000E+00
 -1      3725 8.12850E+01 1.56973E+01 0.00000E+00
 -1      3726 8.05350E+01 1.69963E+01 0.00000E+00
 -1      3727 8.57850E+01 1.56973E+01 0.00000E+00
 -1      3728 8.42850E+01 1.56973E+01 0.00000E+00
 -1      3729 8.35350E+01 1.69963E+01 0.00000E+00
 -1      3730 8.87850E+01 1.56973E+01 0.00000E+00
 -1      3731 8.72850E+01 1.56973E+01 0.00000E+00
 -1      3732 8.65350E+01 1.69963E+01 0.00000E+00
 -1      3733 9.17850E+01 1.56973E+01 0.00000E+00
 -1      3734 9.02850E+01 1.56973E+01 0.00000E+00
 -1      3735 8.95350E+01 1.69963E+01 0.00000E+00
 -1      3736 9.47850E+01 1.56973E+01 0.00000E+00
 -1      3737 9.32850E+01 1.56973E+01 0.00000E+00
 -1      3738 9.25350E+01 1.69963E+01 0.00000E+00
 -1      3739 9.77850E+01 1.56973E+01 0.00000E+00
 -1      3740 9.62850E+01 1.56973E+01 0.00000E+00
 -1      3741 9.55350E+01 1.69963E+01 0.00000E+00
 -1      3742 1.00785E+02 1.56973E+01 0.00000E+00
 -1      3743 9.92850E+01 1.56973E+01 0.00000E+00
 -1      3744 9.85350E+01 1.69963E+01 0.00000E+00
 -1      3745 1.03785E+02 1.56973E+01 0.00000E+00
 -1      3746 1.02285E+02 1.56973E+01 0.00000E+00
 -1      3747 1.01535E+02 1.69963E+01 0.00000E+00
 -1      3748 1.06785E+02 1.56973E+01 0.00000E+00
 -1      3749 1.05285E+02 1.56973E+01 0.00000E+00
 -1      3750 1.04535E+02 1.69963E+01 0.00000E+00
 -1      3751 1.46944E+01 1.23503E+01 0.00000E+00
 -1      3752 1.59934E+01 1.30847E+01 0.00000E+00
 -1      3753 1.08986E+02 1.71766E+01 0.00000E+00
 -1      3754 1.08690E+02 1.59927E+01 0.00000E+00
 -1      3755 1.07736E+02 1.56383E+01 0.00000E+00
 -1      3756 1.08138E+02 1.81183E+01 0.00000E+00
 -1      3757 1.36289E+02 3.00825E+01 0.00000E+00
 -1      3758 2.27850E+01 1.56973E+01 0.00000E+00
 -1      3759 2.12850E+01 1.56973E+01 0.00000E+00
 -1      3760 1.10068E+02 3.27549E+01 0.00000E+00
 -1      3761 1.10264E+02 3.09325E+01 0.00000E+00
 -1      3762 1.09404E+02 2.94408E+01 0.00000E+00
 -1      3763 1.08568E+02 3.27549E+01 0.00000E+00
 -1      3764 4.37850E+01 1.56973E+01 0.00000E+00
 -1      3765 4.22850E+01 1.56973E+01 0.00000E+00
 -1      3766 1.67434E+01 1.43837E+01 0.00000E+00
 -1      3767 1.55798E+01 2.49984E+01 0.00000E+00
 -1      3768 1.42808E+01 2.57359E+01 0.00000E+00
 -1      3769 2.19000E+01 3.31130E+01 0.00000E+00
 -1      3770 2.34000E+01 3.31130E+01 0.00000E+00
 -1      3771 2.11500E+01 3.18140E+01 0.00000E+00
 -1      3772 1.42890E+01 1.68766E+01 0.00000E+00
 -1      3773 1.42890E+01 1.83516E+01 0.00000E+00
 -1      3774 1.55880E+01 1.90891E+01 0.00000E+00
 -1      3775 1.55880E+01 1.61422E+01 0.00000E+00
 -1      3776 5.87850E+01 1.56973E+01 0.00000E+00
 -1      3777 5.72850E+01 1.56973E+01 0.00000E+00
 -1      3778 5.95350E+01 1.69963E+01 0.00000E+00
 -1      3779 1.07718E+02 2.37479E+01 0.00000E+00
 -1      3780 1.08079E+02 2.21138E+01 0.00000E+00
 -1      3781 1.51500E+01 3.27735E+01 0.00000E+00
 -1      3782 1.74000E+01 3.29432E+01 0.00000E+00
 -1      3783 1.81500E+01 3.16443E+01 0.00000E+00
 -1      3784 1.51500E+01 3.13048E+01 0.00000E+00
 -1      3785 2.41500E+01 3.18140E+01 0.00000E+00
 -1      3786 1.99669E+01 1.55475E+01 0.00000E+00
 -1      3787 1.86488E+01 1.53977E+01 0.00000E+00
 -1      3788 2.07169E+01 1.68465E+01 0.00000E+00
 -1      3789 1.07818E+02 3.14559E+01 0.00000E+00
 -1      3790 4.15350E+01 1.69963E+01 0.00000E+00
 -1      3791 4.07850E+01 1.56973E+01 0.00000E+00
 -1      3792 3.92850E+01 1.56973E+01 0.00000E+00
 -1      3793 1.07899E+02 2.91817E+01 0.00000E+00
 -1      3794 3.17850E+01 1.56973E+01 0.00000E+00
 -1      3795 3.02850E+01 1.56973E+01 0.00000E+00
 -1      3796 5.65350E+01 1.69963E+01 0.00000E+00
 -1      3797 2.80350E+01 1.43982E+01 0.00000E+00
 -1      3798 5.05350E+01 1.69963E+01 0.00000E+00
 -1      3799 4.97850E+01 1.56973E+01 0.00000E+00
 -1      3800 4.82850E+01 1.56973E+01 0.00000E+00
 -1      3801 1.06986E+02 1.69373E+01 0.00000E+00
 -1      3802 1.32994E+01 2.99038E+01 0.00000E+00
 -1      3803 1.41139E+01 3.03407E+01 0.00000E+00
 -1      3804 1.56139E+01 3.05104E+01 0.00000E+00
 -1      3805 1.35416E+01 2.85822E+01 0.00000E+00
 -1      3806 2.42850E+01 1.56973E+01 0.00000E+00
 -1      3807 2.35350E+01 1.69963E+01 0.00000E+00
 -1      3808 2.57850E+01 1.56973E+01 0.00000E+00
 -1      3809 1.07577E+02 2.10251E+01 0.00000E+00
 -1      3810 3.70350E+01 1.43982E+01 0.00000E+00
 -1      3811 3.47850E+01 1.56973E+01 0.00000E+00
 -1      3812 3.32850E+01 1.56973E+01 0.00000E+00
 -1      3813 3.25350E+01 1.69963E+01 0.00000E+00
 -1      3814 1.40386E+01 2.70574E+01 0.00000E+00
 -1      3815 1.76961E+01 1.56274E+01 0.00000E+00
 -1      3816 1.65407E+01 1.59125E+01 0.00000E+00
 -1      3817 1.65407E+01 1.73859E+01 0.00000E+00
 -1      3818 1.84461E+01 1.69264E+01 0.00000E+00
 -1      3819 1.68829E+01 2.42563E+01 0.00000E+00
 -1      3820 1.68747E+01 2.57547E+01 0.00000E+00
 -1      3821 1.68829E+01 2.13188E+01 0.00000E+00
 -1      3822 1.68829E+01 2.27875E+01 0.00000E+00
 -1      3823 1.81778E+01 2.35438E+01 0.00000E+00
 -1      3824 1.06814E+02 2.49787E+01 0.00000E+00
 -1      3825 1.05911E+02 2.39226E+01 0.00000E+00
 -1      3826 1.05909E+02 2.62094E+01 0.00000E+00
 -1      3827 4.67850E+01 1.56973E+01 0.00000E+00
 -1      3828 4.52850E+01 1.56973E+01 0.00000E+00
 -1      3829 4.75350E+01 1.69963E+01 0.00000E+00
 -1      3830 4.45350E+01 1.69963E+01 0.00000E+00
 -1      3831 2.94000E+01 3.05150E+01 0.00000E+00
 -1      3832 3.09000E+01 3.05150E+01 0.00000E+00
 -1      3833 3.24000E+01 3.05150E+01 0.00000E+00
 -1      3834 3.39000E+01 3.05150E+01 0.00000E+00
 -1      3835 3.16500E+01 2.92160E+01 0.00000E+00
 -1      3836 3.54000E+01 3.05150E+01 0.00000E+00
 -1      3837 3.69000E+01 3.05150E+01 0.00000E+00
 -1      3838 3.46500E+01 2.92160E+01 0.00000E+00
 -1      3839 3.84000E+01 3.05150E+01 0.00000E+00
 -1      3840 3.99000E+01 3.05150E+01 0.00000E+00
 -1      3841 3.76500E+01 2.92160E+01 0.00000E+00
 -1      3842 4.14000E+01 3.05150E+01 0.00000E+00
 -1      3843 4.29000E+01 3.05150E+01 0.00000E+00
 -1      3844 4.06500E+01 2.92160E+01 0.00000E+00
 -1      3845 4.44000E+01 3.05150E+01 0.00000E+00
 -1      3846 4.59000E+01 3.05150E+01 0.00000E+00
 -1      3847 4.36500E+01 2.92160E+01 0.00000E+00
 -1      3848 4.74000E+01 3.05150E+01 0.00000E+00
 -1      3849 4.89000E+01 3.05150E+01 0.00000E+00
 -1      3850 4.66500E+01 2.92160E+01 0.00000E+00
 -1      3851 5.04000E+01 3.05150E+01 0.00000E+00
 -1      3852 5.19000E+01 3.05150E+01 0.00000E+00
 -1      3853 4.96500E+01 2.92160E+01 0.00000E+00
 -1      3854 5.34000E+01 3.05150E+01 0.00000E+00
 -1      3855 5.49000E+01 3.05150E+01 0.00000E+00
 -1      3856 5.26500E+01 2.92160E+01 0.00000E+00
 -1      3857 5.64000E+01 3.05150E+01 0.00000E+00
 -1      3858 5.79000E+01 3.05150E+01 0.00000E+00
 -1      3859 5.56500E+01 2.92160E+01 0.00000E+00
 -1      3860 5.94000E+01 3.05150E+01 0.00000E+00
 -1      3861 6.09000E+01 3.05150E+01 0.00000E+00
 -1      3862 5.86500E+01 2.92160E+01 0.00000E+00
 -1      3863 6.24000E+01 3.05150E+01 0.00000E+00
 -1      3864 6.39000E+01 3.05150E+01 0.00000E+00
 -1      3865 6.16500E+01 2.92160E+01 0.00000E+00
 -1      3866 6.54000E+01 3.05150E+01 0.00000E+00
 -1      3867 6.69000E+01 3.05150E+01 0.00000E+00
 -1      3868 6.46500E+01 2.92160E+01 0.00000E+00
 -1      3869 6.84000E+01 3.05150E+01 0.00000E+00
 -1      3870 6.99000E+01 3.05150E+01 0.00000E+00
 -1      3871 6.76500E+01 2.92160E+01 0.00000E+00
 -1      3872 7.14000E+01 3.05150E+01 0.00000E+00
 -1      3873 7.29000E+01 3.05150E+01 0.00000E+00
 -1      3874 7.06500E+01 2.92160E+01 0.00000E+00
 -1      3875 7.44000E+01 3.05150E+01 0.00000E+00
 -1      3876 7.59000E+01 3.05150E+01 0.00000E+00
 -1      3877 7.36500E+01 2.92160E+01 0.00000E+00
 -1      3878 7.74000E+01 3.05150E+01 0.00000E+00
 -1      3879 7.89000E+01 3.05150E+01 0.00000E+00
 -1      3880 7.66500E+01 2.92160E+01 0.00000E+00
 -1      3881 8.04000E+01 3.05150E+01 0.00000E+00
 -1      3882 8.19000E+01 3.05150E+01 0.00000E+00
 -1      3883 7.96500E+01 2.92160E+01 0.00000E+00
 -1      3884 8.34000E+01 3.05150E+01 0.00000E+00
 -1      3885 8.49000E+01 3.05150E+01 0.00000E+00
 -1      3886 8.26500E+01 2.92160E+01 0.00000E+00
 -1      3887 8.64000E+01 3.05150E+01 0.00000E+00
 -1      3888 8.79000E+01 3.05150E+01 0.00000E+00
 -1      3889 8.56500E+01 2.92160E+01 0.00000E+00
 -1      3890 8.94000E+01 3.05150E+01 0.00000E+00
 -1      3891 9.09000E+01 3.05150E+01 0.00000E+00
 -1      3892 8.86500E+01 2.92160E+01 0.00000E+00
 -1      3893 9.24000E+01 3.05150E+01 0.00000E+00
 -1      3894 9.39000E+01 3.05150E+01 0.00000E+00
 -1      3895 9.16500E+01 2.92160E+01 0.00000E+00
 -1      3896 9.54000E+01 3.05150E+01 0.00000E+00
 -1      3897 9.69000E+01 3.05150E+01 0.00000E+00
 -1      3898 9.46500E+01 2.92160E+01 0.00000E+00
 -1      3899 9.84000E+01 3.05150E+01 0.00000E+00
 -1      3900 9.99000E+01 3.05150E+01 0.00000E+00
 -1      3901 9.76500E+01 2.92160E+01 0.00000E+00
 -1      3902 1.01400E+02 3.05150E+01 0.00000E+00
 -1      3903 1.02900E+02 3.05150E+01 0.00000E+00
 -1      3904 1.00650E+02 2.92160E+01 0.00000E+00
 -1      3905 1.50747E+01 2.80215E+01 0.00000E+00
 -1      3906 1.67118E+01 1.86156E+01 0.00000E+00
 -1      3907 1.67118E+01 2.00890E+01 0.00000E+00
 -1      3908 1.80067E+01 2.08453E+01 0.00000E+00
 -1      3909 1.76645E+01 1.83859E+01 0.00000E+00
 -1      3910 5.72850E+01 1.82952E+01 0.00000E+00
 -1      3911 5.57850E+01 1.82952E+01 0.00000E+00
 -1      3912 1.06731E+02 2.95397E+01 0.00000E+00
 -1      3913 6.62850E+01 1.82952E+01 0.00000E+00
 -1      3914 6.47850E+01 1.82952E+01 0.00000E+00
 -1      3915 6.32850E+01 1.82952E+01 0.00000E+00
 -1      3916 6.17850E+01 1.82952E+01 0.00000E+00
 -1      3917 6.40350E+01 1.95942E+01 0.00000E+00
 -1      3918 7.22850E+01 1.82952E+01 0.00000E+00
 -1      3919 7.07850E+01 1.82952E+01 0.00000E+00
 -1      3920 7.52850E+01 1.82952E+01 0.00000E+00
 -1      3921 7.37850E+01 1.82952E+01 0.00000E+00
 -1      3922 7.30350E+01 1.95942E+01 0.00000E+00
 -1      3923 7.82850E+01 1.82952E+01 0.00000E+00
 -1      3924 7.67850E+01 1.82952E+01 0.00000E+00
 -1      3925 7.60350E+01 1.95942E+01 0.00000E+00
 -1      3926 8.12850E+01 1.82952E+01 0.00000E+00
 -1      3927 7.97850E+01 1.82952E+01 0.00000E+00
 -1      3928 7.90350E+01 1.95942E+01 0.00000E+00
 -1      3929 8.42850E+01 1.82952E+01 0.00000E+00
 -1      3930 8.27850E+01 1.82952E+01 0.00000E+00
 -1      3931 8.20350E+01 1.95942E+01 0.00000E+00
 -1      3932 8.72850E+01 1.82952E+01 0.00000E+00
 -1      3933 8.57850E+01 1.82952E+01 0.00000E+00
 -1      3934 8.50350E+01 1.95942E+01 0.00000E+00
 -1      3935 9.02850E+01 1.82952E+01 0.00000E+00
 -1      3936 8.87850E+01 1.82952E+01 0.00000E+00
 -1      3937 8.80350E+01 1.95942E+01 0.00000E+00
 -1      3938 9.32850E+01 1.82952E+01 0.00000E+00
 -1      3939 9.17850E+01 1.82952E+01 0.00000E+00
 -1      3940 9.10350E+01 1.95942E+01 0.00000E+00
 -1      3941 9.62850E+01 1.82952E+01 0.00000E+00
 -1      3942 9.47850E+01 1.82952E+01 0.00000E+00
 -1      3943 9.40350E+01 1.95942E+01 0.00000E+00
 -1      3944 9.92850E+01 1.82952E+01 0.00000E+00
 -1      3945 9.77850E+01 1.82952E+01 0.00000E+00
 -1      3946 9.70350E+01 1.95942E+01 0.00000E+00
 -1      3947 1.02285E+02 1.82952E+01 0.00000E+00
 -1      3948 1.00785E+02 1.82952E+01 0.00000E+00
 -1      3949 1.00035E+02 1.95942E+01 0.00000E+00
 -1      3950 1.05285E+02 1.82952E+01 0.00000E+00
 -1      3951 1.03785E+02 1.82952E+01 0.00000E+00
 -1      3952 1.03035E+02 1.95942E+01 0.00000E+00
 -1      3953 2.34000E+01 3.05150E+01 0.00000E+00
 -1      3954 2.49000E+01 3.05150E+01 0.00000E+00
 -1      3955 6.02850E+01 1.82952E+01 0.00000E+00
 -1      3956 5.87850E+01 1.82952E+01 0.00000E+00
 -1      3957 5.80350E+01 1.95942E+01 0.00000E+00
 -1      3958 4.52850E+01 1.82952E+01 0.00000E+00
 -1      3959 4.37850E+01 1.82952E+01 0.00000E+00
 -1      3960 3.77850E+01 1.56973E+01 0.00000E+00
 -1      3961 3.62850E+01 1.56973E+01 0.00000E+00
 -1      3962 3.55350E+01 1.69963E+01 0.00000E+00
 -1      3963 3.85350E+01 1.69963E+01 0.00000E+00
 -1      3964 2.04000E+01 3.05150E+01 0.00000E+00
 -1      3965 2.19000E+01 3.05150E+01 0.00000E+00
 -1      3966 2.26500E+01 2.92160E+01 0.00000E+00
 -1      3967 5.42850E+01 1.82952E+01 0.00000E+00
 -1      3968 5.27850E+01 1.82952E+01 0.00000E+00
 -1      3969 5.50350E+01 1.95942E+01 0.00000E+00
 -1      3970 1.05675E+02 2.11430E+01 0.00000E+00
 -1      3971 1.06437E+02 1.94763E+01 0.00000E+00
 -1      3972 1.81691E+01 2.65124E+01 0.00000E+00
 -1      3973 1.68661E+01 2.72545E+01 0.00000E+00
 -1      3974 1.07187E+02 1.81773E+01 0.00000E+00
 -1      3975 6.92850E+01 1.82952E+01 0.00000E+00
 -1      3976 6.77850E+01 1.82952E+01 0.00000E+00
 -1      3977 6.70350E+01 1.95942E+01 0.00000E+00
 -1      3978 2.64000E+01 3.05150E+01 0.00000E+00
 -1      3979 2.79000E+01 3.05150E+01 0.00000E+00
 -1      3980 2.56500E+01 2.92160E+01 0.00000E+00
 -1      3981 2.87850E+01 1.56973E+01 0.00000E+00
 -1      3982 2.72850E+01 1.56973E+01 0.00000E+00
 -1      3983 2.95350E+01 1.69963E+01 0.00000E+00
 -1      3984 1.05489E+02 3.01488E+01 0.00000E+00
 -1      3985 1.05570E+02 2.78746E+01 0.00000E+00
 -1      3986 1.04668E+02 2.68185E+01 0.00000E+00
 -1      3987 1.03989E+02 3.01488E+01 0.00000E+00
 -1      3988 4.22850E+01 1.82952E+01 0.00000E+00
 -1      3989 4.07850E+01 1.82952E+01 0.00000E+00
 -1      3990 4.30350E+01 1.95942E+01 0.00000E+00
 -1      3991 1.63691E+01 2.87793E+01 0.00000E+00
 -1      3992 2.86500E+01 2.92160E+01 0.00000E+00
 -1      3993 5.12850E+01 1.82952E+01 0.00000E+00
 -1      3994 4.97850E+01 1.82952E+01 0.00000E+00
 -1      3995 5.20350E+01 1.95942E+01 0.00000E+00
 -1      3996 6.10350E+01 1.95942E+01 0.00000E+00
 -1      3997 2.65350E+01 1.69963E+01 0.00000E+00
 -1      3998 2.42850E+01 1.82952E+01 0.00000E+00
 -1      3999 2.27850E+01 1.82952E+01 0.00000E+00
 -1      4000 4.67850E+01 1.82952E+01 0.00000E+00
 -1      4001 4.60350E+01 1.95942E+01 0.00000E+00
 -1      4002 4.82850E+01 1.82952E+01 0.00000E+00
 -1      4003 1.89052E+01 2.99131E+01 0.00000E+00
 -1      4004 1.96552E+01 2.86141E+01 0.00000E+00
 -1      4005 1.96726E+01 2.56144E+01 0.00000E+00
 -1      4006 1.96639E+01 2.71143E+01 0.00000E+00
 -1      4007 2.11587E+01 2.77162E+01 0.00000E+00
 -1      4008 7.00350E+01 1.95942E+01 0.00000E+00
 -1      4009 1.05043E+02 2.25328E+01 0.00000E+00
 -1      4010 1.03903E+02 2.09840E+01 0.00000E+00
 -1      4011 1.02403E+02 2.09840E+01 0.00000E+00
 -1      4012 1.04139E+02 2.37636E+01 0.00000E+00
 -1      4013 1.96726E+01 2.26769E+01 0.00000E+00
 -1      4014 1.96726E+01 2.41457E+01 0.00000E+00
 -1      4015 2.11673E+01 2.47476E+01 0.00000E+00
 -1      4016 2.20350E+01 1.95943E+01 0.00000E+00
 -1      4017 2.12850E+01 1.82953E+01 0.00000E+00
 -1      4018 3.32850E+01 1.82952E+01 0.00000E+00
 -1      4019 3.17850E+01 1.82952E+01 0.00000E+00
 -1      4020 1.03239E+02 2.88498E+01 0.00000E+00
 -1      4021 3.02850E+01 1.82952E+01 0.00000E+00
 -1      4022 2.87850E+01 1.82952E+01 0.00000E+00
 -1      4023 3.10350E+01 1.95942E+01 0.00000E+00
 -1      4024 1.99669E+01 1.81455E+01 0.00000E+00
 -1      4025 3.39000E+01 2.79170E+01 0.00000E+00
 -1      4026 3.54000E+01 2.79170E+01 0.00000E+00
 -1      4027 3.69000E+01 2.79170E+01 0.00000E+00
 -1      4028 3.84000E+01 2.79170E+01 0.00000E+00
 -1      4029 3.61500E+01 2.66180E+01 0.00000E+00
 -1      4030 3.99000E+01 2.79170E+01 0.00000E+00
 -1      4031 4.14000E+01 2.79170E+01 0.00000E+00
 -1      4032 3.91500E+01 2.66180E+01 0.00000E+00
 -1      4033 4.29000E+01 2.79170E+01 0.00000E+00
 -1      4034 4.44000E+01 2.79170E+01 0.00000E+00
 -1      4035 4.21500E+01 2.66180E+01 0.00000E+00
 -1      4036 4.59000E+01 2.79170E+01 0.00000E+00
 -1      4037 4.74000E+01 2.79170E+01 0.00000E+00
 -1      4038 4.51500E+01 2.66180E+01 0.00000E+00
 -1      4039 4.89000E+01 2.79170E+01 0.00000E+00
 -1      4040 5.04000E+01 2.79170E+01 0.00000E+00
 -1      4041 4.81500E+01 2.66180E+01 0.00000E+00
 -1      4042 5.19000E+01 2.79170E+01 0.00000E+00
 -1      4043 5.34000E+01 2.79170E+01 0.00000E+00
 -1      4044 5.11500E+01 2.66180E+01 0.00000E+00
 -1      4045 5.49000E+01 2.79170E+01 0.00000E+00
 -1      4046 5.64000E+01 2.79170E+01 0.00000E+00
 -1      4047 5.41500E+01 2.66180E+01 0.00000E+00
 -1      4048 5.79000E+01 2.79170E+01 0.00000E+00
 -1      4049 5.94000E+01 2.79170E+01 0.00000E+00
 -1      4050 5.71500E+01 2.66180E+01 0.00000E+00
 -1      4051 6.09000E+01 2.79170E+01 0.00000E+00
 -1      4052 6.24000E+01 2.79170E+01 0.00000E+00
 -1      4053 6.01500E+01 2.66180E+01 0.00000E+00
 -1      4054 6.39000E+01 2.79170E+01 0.00000E+00
 -1      4055 6.54000E+01 2.79170E+01 0.00000E+00
 -1      4056 6.31500E+01 2.66180E+01 0.00000E+00
 -1      4057 6.69000E+01 2.79170E+01 0.00000E+00
 -1      4058 6.84000E+01 2.79170E+01 0.00000E+00
 -1      4059 6.61500E+01 2.66180E+01 0.00000E+00
 -1      4060 6.99000E+01 2.79170E+01 0.00000E+00
 -1      4061 7.14000E+01 2.79170E+01 0.00000E+00
 -1      4062 6.91500E+01 2.66180E+01 0.00000E+00
 -1      4063 7.29000E+01 2.79170E+01 0.00000E+00
 -1      4064 7.44000E+01 2.79170E+01 0.00000E+00
 -1      4065 7.21500E+01 2.66180E+01 0.00000E+00
 -1      4066 7.59000E+01 2.79170E+01 0.00000E+00
 -1      4067 7.74000E+01 2.79170E+01 0.00000E+00
 -1      4068 7.51500E+01 2.66180E+01 0.00000E+00
 -1      4069 7.89000E+01 2.79170E+01 0.00000E+00
 -1      4070 8.04000E+01 2.79170E+01 0.00000E+00
 -1      4071 7.81500E+01 2.66180E+01 0.00000E+00
 -1      4072 8.19000E+01 2.79170E+01 0.00000E+00
 -1      4073 8.34000E+01 2.79170E+01 0.00000E+00
 -1      4074 8.11500E+01 2.66180E+01 0.00000E+00
 -1      4075 8.49000E+01 2.79170E+01 0.00000E+00
 -1      4076 8.64000E+01 2.79170E+01 0.00000E+00
 -1      4077 8.41500E+01 2.66180E+01 0.00000E+00
 -1      4078 8.79000E+01 2.79170E+01 0.00000E+00
 -1      4079 8.94000E+01 2.79170E+01 0.00000E+00
 -1      4080 8.71500E+01 2.66180E+01 0.00000E+00
 -1      4081 9.09000E+01 2.79170E+01 0.00000E+00
 -1      4082 9.24000E+01 2.79170E+01 0.00000E+00
 -1      4083 9.01500E+01 2.66180E+01 0.00000E+00
 -1      4084 9.39000E+01 2.79170E+01 0.00000E+00
 -1      4085 9.54000E+01 2.79170E+01 0.00000E+00
 -1      4086 9.31500E+01 2.66180E+01 0.00000E+00
 -1      4087 9.69000E+01 2.79170E+01 0.00000E+00
 -1      4088 9.84000E+01 2.79170E+01 0.00000E+00
 -1      4089 9.61500E+01 2.66180E+01 0.00000E+00
 -1      4090 9.99000E+01 2.79170E+01 0.00000E+00
 -1      4091 1.01400E+02 2.79170E+01 0.00000E+00
 -1      4092 9.91500E+01 2.66180E+01 0.00000E+00
 -1      4093 7.97850E+01 2.08932E+01 0.00000E+00
 -1      4094 7.82850E+01 2.08932E+01 0.00000E+00
 -1      4095 6.47850E+01 2.08932E+01 0.00000E+00
 -1      4096 6.32850E+01 2.08932E+01 0.00000E+00
 -1      4097 7.67850E+01 2.08932E+01 0.00000E+00
 -1      4098 7.52850E+01 2.08932E+01 0.00000E+00
 -1      4099 7.75350E+01 2.21922E+01 0.00000E+00
 -1      4100 7.37850E+01 2.08932E+01 0.00000E+00
 -1      4101 7.22850E+01 2.08932E+01 0.00000E+00
 -1      4102 7.45350E+01 2.21922E+01 0.00000E+00
 -1      4103 8.27850E+01 2.08932E+01 0.00000E+00
 -1      4104 8.12850E+01 2.08932E+01 0.00000E+00
 -1      4105 8.05350E+01 2.21922E+01 0.00000E+00
 -1      4106 8.57850E+01 2.08932E+01 0.00000E+00
 -1      4107 8.42850E+01 2.08932E+01 0.00000E+00
 -1      4108 8.35350E+01 2.21922E+01 0.00000E+00
 -1      4109 8.87850E+01 2.08932E+01 0.00000E+00
 -1      4110 8.72850E+01 2.08932E+01 0.00000E+00
 -1      4111 8.65350E+01 2.21922E+01 0.00000E+00
 -1      4112 9.17850E+01 2.08932E+01 0.00000E+00
 -1      4113 9.02850E+01 2.08932E+01 0.00000E+00
 -1      4114 8.95350E+01 2.21922E+01 0.00000E+00
 -1      4115 9.47850E+01 2.08932E+01 0.00000E+00
 -1      4116 9.32850E+01 2.08932E+01 0.00000E+00
 -1      4117 9.25350E+01 2.21922E+01 0.00000E+00
 -1      4118 9.77850E+01 2.08932E+01 0.00000E+00
 -1      4119 9.62850E+01 2.08932E+01 0.00000E+00
 -1      4120 9.55350E+01 2.21922E+01 0.00000E+00
 -1      4121 1.00785E+02 2.08932E+01 0.00000E+00
 -1      4122 9.92850E+01 2.08932E+01 0.00000E+00
 -1      4123 9.85350E+01 2.21922E+01 0.00000E+00
 -1      4124 6.17850E+01 2.08932E+01 0.00000E+00
 -1      4125 6.02850E+01 2.08932E+01 0.00000E+00
 -1      4126 6.25350E+01 2.21922E+01 0.00000E+00
 -1      4127 1.74052E+01 2.97433E+01 0.00000E+00
 -1      4128 5.87850E+01 2.08932E+01 0.00000E+00
 -1      4129 5.72850E+01 2.08932E+01 0.00000E+00
 -1      4130 5.95350E+01 2.21922E+01 0.00000E+00
 -1      4131 2.26587E+01 2.77162E+01 0.00000E+00
 -1      4132 2.72850E+01 1.82952E+01 0.00000E+00
 -1      4133 2.57850E+01 1.82952E+01 0.00000E+00
 -1      4134 2.50350E+01 1.95942E+01 0.00000E+00
 -1      4135 1.03519E+02 2.71393E+01 0.00000E+00
 -1      4136 1.03859E+02 2.54741E+01 0.00000E+00
 -1      4137 1.02991E+02 2.40844E+01 0.00000E+00
 -1      4138 1.02430E+02 2.75055E+01 0.00000E+00
 -1      4139 2.49000E+01 2.79170E+01 0.00000E+00
 -1      4140 2.64000E+01 2.79170E+01 0.00000E+00
 -1      4141 1.86172E+01 1.81561E+01 0.00000E+00
 -1      4142 5.57850E+01 2.08932E+01 0.00000E+00
 -1      4143 5.42850E+01 2.08932E+01 0.00000E+00
 -1      4144 5.65350E+01 2.21922E+01 0.00000E+00
 -1      4145 3.47850E+01 1.82952E+01 0.00000E+00
 -1      4146 3.40350E+01 1.95942E+01 0.00000E+00
 -1      4147 3.62850E+01 1.82952E+01 0.00000E+00
 -1      4148 2.79000E+01 2.79170E+01 0.00000E+00
 -1      4149 2.94000E+01 2.79170E+01 0.00000E+00
 -1      4150 2.71500E+01 2.66180E+01 0.00000E+00
 -1      4151 1.91853E+01 1.96049E+01 0.00000E+00
 -1      4152 6.77850E+01 2.08932E+01 0.00000E+00
 -1      4153 6.62850E+01 2.08932E+01 0.00000E+00
 -1      4154 6.55350E+01 2.21922E+01 0.00000E+00
 -1      4155 7.07850E+01 2.08932E+01 0.00000E+00
 -1      4156 6.92850E+01 2.08932E+01 0.00000E+00
 -1      4157 6.85350E+01 2.21922E+01 0.00000E+00
 -1      4158 7.15350E+01 2.21922E+01 0.00000E+00
 -1      4159 3.09000E+01 2.79170E+01 0.00000E+00
 -1      4160 3.24000E+01 2.79170E+01 0.00000E+00
 -1      4161 3.31500E+01 2.66180E+01 0.00000E+00
 -1      4162 3.01500E+01 2.66180E+01 0.00000E+00
 -1      4163 2.34087E+01 2.64172E+01 0.00000E+00
 -1      4164 1.01680E+02 2.62065E+01 0.00000E+00
 -1      4165 5.35350E+01 2.21922E+01 0.00000E+00
 -1      4166 5.27850E+01 2.08932E+01 0.00000E+00
 -1      4167 5.12850E+01 2.08932E+01 0.00000E+00
 -1      4168 4.90350E+01 1.95942E+01 0.00000E+00
 -1      4169 1.01653E+02 2.22830E+01 0.00000E+00
 -1      4170 4.00350E+01 1.95942E+01 0.00000E+00
 -1      4171 3.92850E+01 1.82952E+01 0.00000E+00
 -1      4172 3.77850E+01 1.82952E+01 0.00000E+00
 -1      4173 1.93564E+01 2.08347E+01 0.00000E+00
 -1      4174 4.67850E+01 2.08932E+01 0.00000E+00
 -1      4175 4.52850E+01 2.08932E+01 0.00000E+00
 -1      4176 2.08512E+01 2.14366E+01 0.00000E+00
 -1      4177 2.23512E+01 2.14365E+01 0.00000E+00
 -1      4178 2.80350E+01 1.95942E+01 0.00000E+00
 -1      4179 2.34087E+01 2.49484E+01 0.00000E+00
 -1      4180 2.56500E+01 2.51493E+01 0.00000E+00
 -1      4181 2.34087E+01 2.34797E+01 0.00000E+00
 -1      4182 3.47850E+01 2.08932E+01 0.00000E+00
 -1      4183 3.32850E+01 2.08932E+01 0.00000E+00
 -1      4184 2.60925E+01 2.16374E+01 0.00000E+00
 -1      4185 2.45925E+01 2.16374E+01 0.00000E+00
 -1      4186 3.25350E+01 2.21922E+01 0.00000E+00
 -1      4187 3.17850E+01 2.08932E+01 0.00000E+00
 -1      4188 3.02850E+01 2.08932E+01 0.00000E+00
 -1      4189 4.45350E+01 2.21922E+01 0.00000E+00
 -1      4190 4.37850E+01 2.08932E+01 0.00000E+00
 -1      4191 4.22850E+01 2.08932E+01 0.00000E+00
 -1      4192 7.78425E+01 2.44051E+01 0.00000E+00
 -1      4193 7.63425E+01 2.44051E+01 0.00000E+00
 -1      4194 3.84000E+01 2.53190E+01 0.00000E+00
 -1      4195 3.99000E+01 2.53190E+01 0.00000E+00
 -1      4196 4.18425E+01 2.44051E+01 0.00000E+00
 -1      4197 4.33425E+01 2.44051E+01 0.00000E+00
 -1      4198 4.48425E+01 2.44051E+01 0.00000E+00
 -1      4199 4.63425E+01 2.44051E+01 0.00000E+00
 -1      4200 5.04000E+01 2.53190E+01 0.00000E+00
 -1      4201 5.19000E+01 2.53190E+01 0.00000E+00
 -1      4202 5.38425E+01 2.44051E+01 0.00000E+00
 -1      4203 5.53425E+01 2.44051E+01 0.00000E+00
 -1      4204 5.68425E+01 2.44051E+01 0.00000E+00
 -1      4205 5.83425E+01 2.44051E+01 0.00000E+00
 -1      4206 5.98425E+01 2.44051E+01 0.00000E+00
 -1      4207 6.13425E+01 2.44051E+01 0.00000E+00
 -1      4208 6.28425E+01 2.44051E+01 0.00000E+00
 -1      4209 6.43425E+01 2.44051E+01 0.00000E+00
 -1      4210 6.58425E+01 2.44051E+01 0.00000E+00
 -1      4211 6.73425E+01 2.44051E+01 0.00000E+00
 -1      4212 6.88425E+01 2.44051E+01 0.00000E+00
 -1      4213 7.03425E+01 2.44051E+01 0.00000E+00
 -1      4214 7.18425E+01 2.44051E+01 0.00000E+00
 -1      4215 7.33425E+01 2.44051E+01 0.00000E+00
 -1      4216 7.48425E+01 2.44051E+01 0.00000E+00
 -1      4217 7.93425E+01 2.44051E+01 0.00000E+00
 -1      4218 8.08425E+01 2.44051E+01 0.00000E+00
 -1      4219 8.23425E+01 2.44051E+01 0.00000E+00
 -1      4220 8.38425E+01 2.44051E+01 0.00000E+00
 -1      4221 8.53425E+01 2.44051E+01 0.00000E+00
 -1      4222 8.68425E+01 2.44051E+01 0.00000E+00
 -1      4223 8.83425E+01 2.44051E+01 0.00000E+00
 -1      4224 8.98425E+01 2.44051E+01 0.00000E+00
 -1      4225 9.13425E+01 2.44051E+01 0.00000E+00
 -1      4226 9.28425E+01 2.44051E+01 0.00000E+00
 -1      4227 9.43425E+01 2.44051E+01 0.00000E+00
 -1      4228 9.58425E+01 2.44051E+01 0.00000E+00
 -1      4229 9.73425E+01 2.44051E+01 0.00000E+00
 -1      4230 9.88425E+01 2.44051E+01 0.00000E+00
 -1      4231 1.00342E+02 2.44051E+01 0.00000E+00
 -1      4232 4.97850E+01 2.08932E+01 0.00000E+00
 -1      4233 4.82850E+01 2.08932E+01 0.00000E+00
 -1      4234 5.05350E+01 2.21922E+01 0.00000E+00
 -1      4235 1.01373E+02 2.39936E+01 0.00000E+00
 -1      4236 4.75350E+01 2.21922E+01 0.00000E+00
 -1      4237 3.62850E+01 2.08933E+01 0.00000E+00
 -1      4238 3.55350E+01 2.21923E+01 0.00000E+00
 -1      4239 3.70350E+01 1.95942E+01 0.00000E+00
 -1      4240 2.71500E+01 2.51493E+01 0.00000E+00
 -1      4241 2.89387E+01 2.12653E+01 0.00000E+00
 -1      4242 2.74387E+01 2.12653E+01 0.00000E+00
 -1      4243 2.69963E+01 2.33084E+01 0.00000E+00
 -1      4244 2.96887E+01 2.25643E+01 0.00000E+00
 -1      4245 2.84963E+01 2.47772E+01 0.00000E+00
 -1      4246 3.58425E+01 2.44051E+01 0.00000E+00
 -1      4247 3.73425E+01 2.44051E+01 0.00000E+00
 -1      4248 4.78425E+01 2.44051E+01 0.00000E+00
 -1      4249 4.10925E+01 2.31061E+01 0.00000E+00
 -1      4250 3.28425E+01 2.44051E+01 0.00000E+00
 -1      4251 3.43425E+01 2.44051E+01 0.00000E+00
 -1      4252 4.93425E+01 2.44051E+01 0.00000E+00
 -1      4253 3.77850E+01 2.08933E+01 0.00000E+00
 -1      4254 5.30925E+01 2.31061E+01 0.00000E+00
 -1      4255 3.80925E+01 2.31061E+01 0.00000E+00
 -1      4256 3.13425E+01 2.44051E+01 0.00000E+00
 -1      4257 2.98425E+01 2.44051E+01 0.00000E+00
 -1      4258 4.03425E+01 2.18071E+01 0.00000E+00
 -1      4259 3.88425E+01 2.18071E+01 0.00000E+00
 -1      4260 5.00925E+01 2.31061E+01 0.00000E+00
 -1      4261 5.15925E+01 2.31061E+01 0.00000E+00
 -3
    3C                          2049                                     1
 -1       164    8    0    1
 -2         6         7        23      1107      1270      1124
 -1       165    8    0    1
 -2         7         8       164      1108      1271      1272
 -1       166    8    0    1
 -2         8         9       165      1109      1273      1274
 -1       167    8    0    1
 -2         8       165       164      1274      1275      1271
 -1       168    8    0    1
 -2         9        10       166      1110      1276      1277
 -1       169    8    0    1
 -2         9       166       165      1277      1278      1273
 -1       170    8    0    1
 -2        10        11       167      1111      1279      1280
 -1       171    8    0    1
 -2        10       167       166      1280      1281      1276
 -1       172    8    0    1
 -2        11        12       168      1112      1282      1283
 -1       173    8    0    1
 -2        11       168       167      1283      1284      1279
 -1       174    8    0    1
 -2        12        13       169      1113      1285      1286
 -1       175    8    0    1
 -2        12       169       168      1286      1287      1282
 -1       176    8    0    1
 -2        13        14       170      1114      1288      1289
 -1       177    8    0    1
 -2        13       170       169      1289      1290      1285
 -1       178    8    0    1
 -2        14        15       171      1115      1291      1292
 -1       179    8    0    1
 -2        14       171       170      1292      1293      1288
 -1       180    8    0    1
 -2        15        16       172      1116      1294      1295
 -1       181    8    0    1
 -2        15       172       171      1295      1296      1291
 -1       182    8    0    1
 -2        16        17       173      1117      1297      1298
 -1       183    8    0    1
 -2        16       173       172      1298      1299      1294
 -1       184    8    0    1
 -2        17        18       174      1118      1300      1301
 -1       185    8    0    1
 -2        17       174       173      1301      1302      1297
 -1       186    8    0    1
 -2        18        19       175      1119      1303      1304
 -1       187    8    0    1
 -2        18       175       174      1304      1305      1300
 -1       188    8    0    1
 -2        19        20       176      1120      1306      1307
 -1       189    8    0    1
 -2        19       176       175      1307      1308      1303
 -1       190    8    0    1
 -2        20        21       177      1121      1309      1310
 -1       191    8    0    1
 -2        20       177       176      1310      1311      1306
 -1       192    8    0    1
 -2        21        22       178      1122      1312      1313
 -1       193    8    0    1
 -2        21       178       177      1313      1314      1309
 -1       194    8    0    1
 -2        22         5       179      1123      1315      1316
 -1       195    8    0    1
 -2       178        22       179      1312      1316      1317
 -1       196    8    0    1
 -2         5        72       179      1174      1318      1315
 -1       197    8    0    1
 -2        24        23       180      1125      1319      1320
 -1       198    8    0    1
 -2        25        24       181      1126      1321      1322
 -1       199    8    0    1
 -2        24       180       181      1320      1323      1321
 -1       200    8    0    1
 -2        26        25       182      1127      1324      1325
 -1       201    8    0    1
 -2        25       181       182      1322      1326      1324
 -1       202    8    0    1
 -2        27        26       183      1128      1327      1328
 -1       203    8    0    1
 -2        26       182       183      1325      1329      1327
 -1       204    8    0    1
 -2        28        27       184      1129      1330      1331
 -1       205    8    0    1
 -2        27       183       184      1328      1332      1330
 -1       206    8    0    1
 -2        29        28       185      1130      1333      1334
 -1       207    8    0    1
 -2        28       184       185      1331      1335      1333
 -1       208    8    0    1
 -2        30        29       186      1131      1336      1337
 -1       209    8    0    1
 -2        29       185       186      1334      1338      1336
 -1       210    8    0    1
 -2        31        30       187      1132      1339      1340
 -1       211    8    0    1
 -2        30       186       187      1337      1341      1339
 -1       212    8    0    1
 -2        32        31       188      1133      1342      1343
 -1       213    8    0    1
 -2        31       187       188      1340      1344      1342
 -1       214    8    0    1
 -2        33        32       189      1134      1345      1346
 -1       215    8    0    1
 -2        32       188       189      1343      1347      1345
 -1       216    8    0    1
 -2        34        33       190      1135      1348      1349
 -1       217    8    0    1
 -2        33       189       190      1346      1350      1348
 -1       218    8    0    1
 -2        35        34       191      1136      1351      1352
 -1       219    8    0    1
 -2        34       190       191      1349      1353      1351
 -1       220    8    0    1
 -2        36        35       192      1137      1354      1355
 -1       221    8    0    1
 -2        35       191       192      1352      1356      1354
 -1       222    8    0    1
 -2        37        36       193      1138      1357      1358
 -1       223    8    0    1
 -2        36       192       193      1355      1359      1357
 -1       224    8    0    1
 -2        38        37       194      1139      1360      1361
 -1       225    8    0    1
 -2        37       193       194      1358      1362      1360
 -1       226    8    0    1
 -2        39        38       195      1140      1363      1364
 -1       227    8    0    1
 -2        38       194       195      1361      1365      1363
 -1       228    8    0    1
 -2        40        39       196      1141      1366      1367
 -1       229    8    0    1
 -2        39       195       196      1364      1368      1366
 -1       230    8    0    1
 -2        41        40       197      1142      1369      1370
 -1       231    8    0    1
 -2        40       196       197      1367      1371      1369
 -1       232    8    0    1
 -2        42        41       198      1143      1372      1373
 -1       233    8    0    1
 -2        41       197       198      1370      1374      1372
 -1       234    8    0    1
 -2        43        42       199      1144      1375      1376
 -1       235    8    0    1
 -2        42       198       199      1373      1377      1375
 -1       236    8    0    1
 -2        44        43       200      1145      1378      1379
 -1       237    8    0    1
 -2        43       199       200      1376      1380      1378
 -1       238    8    0    1
 -2        45        44       201      1146      1381      1382
 -1       239    8    0    1
 -2        44       200       201      1379      1383      1381
 -1       240    8    0    1
 -2        46        45       202      1147      1384      1385
 -1       241    8    0    1
 -2        45       201       202      1382      1386      1384
 -1       242    8    0    1
 -2        47        46       203      1148      1387      1388
 -1       243    8    0    1
 -2        46       202       203      1385      1389      1387
 -1       244    8    0    1
 -2        48        47       204      1149      1390      1391
 -1       245    8    0    1
 -2        47       203       204      1388      1392      1390
 -1       246    8    0    1
 -2        49        48       205      1150      1393      1394
 -1       247    8    0    1
 -2        48       204       205      1391      1395      1393
 -1       248    8    0    1
 -2        50        49       206      1151      1396      1397
 -1       249    8    0    1
 -2        49       205       206      1394      1398      1396
 -1       250    8    0    1
 -2        51        50       207      1152      1399      1400
 -1       251    8    0    1
 -2        50       206       207      1397      1401      1399
 -1       252    8    0    1
 -2        52        51       208      1153      1402      1403
 -1       253    8    0    1
 -2        51       207       208      1400      1404      1402
 -1       254    8    0    1
 -2        53        52       209      1154      1405      1406
 -1       255    8    0    1
 -2        52       208       209      1403      1407      1405
 -1       256    8    0    1
 -2        54        53       210      1155      1408      1409
 -1       257    8    0    1
 -2        53       209       210      1406      1410      1408
 -1       258    8    0    1
 -2        55        54       211      1156      1411      1412
 -1       259    8    0    1
 -2        54       210       211      1409      1413      1411
 -1       260    8    0    1
 -2        56        55       212      1157      1414      1415
 -1       261    8    0    1
 -2        55       211       212      1412      1416      1414
 -1       262    8    0    1
 -2        57        56       213      1158      1417      1418
 -1       263    8    0    1
 -2        56       212       213      1415      1419      1417
 -1       264    8    0    1
 -2        58        57       214      1159      1420      1421
 -1       265    8    0    1
 -2        57       213       214      1418      1422      1420
 -1       266    8    0    1
 -2        59        58       215      1160      1423      1424
 -1       267    8    0    1
 -2        58       214       215      1421      1425      1423
 -1       268    8    0    1
 -2        60        59       216      1161      1426      1427
 -1       269    8    0    1
 -2        59       215       216      1424      1428      1426
 -1       270    8    0    1
 -2        61        60       217      1162      1429      1430
 -1       271    8    0    1
 -2        60       216       217      1427      1431      1429
 -1       272    8    0    1
 -2        62        61       218      1163      1432      1433
 -1       273    8    0    1
 -2        61       217       218      1430      1434      1432
 -1       274    8    0    1
 -2        63        62       219      1164      1435      1436
 -1       275    8    0    1
 -2        62       218       219      1433      1437      1435
 -1       276    8    0    1
 -2        64        63       220      1165      1438      1439
 -1       277    8    0    1
 -2        63       219       220      1436      1440      1438
 -1       278    8    0    1
 -2        65        64       221      1166      1441      1442
 -1       279    8    0    1
 -2        64       220       221      1439      1443      1441
 -1       280    8    0    1
 -2        66        65       222      1167      1444      1445
 -1       281    8    0    1
 -2        65       221       222      1442      1446      1444
 -1       282    8    0    1
 -2        67        66       223      1168      1447      1448
 -1       283    8    0    1
 -2        66       222       223      1445      1449      1447
 -1       284    8    0    1
 -2        68        67       224      1169      1450      1451
 -1       285    8    0    1
 -2        67       223       224      1448      1452      1450
 -1       286    8    0    1
 -2        69        68       225      1170      1453      1454
 -1       287    8    0    1
 -2        68       224       225      1451      1455      1453
 -1       288    8    0    1
 -2        70        69       226      1171      1456      1457
 -1       289    8    0    1
 -2        69       225       226      1454      1458      1456
 -1       290    8    0    1
 -2        71        70       227      1172      1459      1460
 -1       291    8    0    1
 -2        70       226       227      1457      1461      1459
 -1       292    8    0    1
 -2         4        71       136      1173      1462      1240
 -1       293    8    0    1
 -2       136        71       227      1462      1460      1463
 -1       294    8    0    1
 -2        72        73       228      1175      1464      1465
 -1       295    8    0    1
 -2        72       228       179      1465      1466      1318
 -1       296    8    0    1
 -2        73        74       229      1176      1467      1468
 -1       297    8    0    1
 -2        73       229       228      1468      1469      1464
 -1       298    8    0    1
 -2        74        75       230      1177      1470      1471
 -1       299    8    0    1
 -2        74       230       229      1471      1472      1467
 -1       300    8    0    1
 -2        75        76       231      1178      1473      1474
 -1       301    8    0    1
 -2        75       231       230      1474      1475      1470
 -1       302    8    0    1
 -2        76        77       232      1179      1476      1477
 -1       303    8    0    1
 -2        76       232       231      1477      1478      1473
 -1       304    8    0    1
 -2        77        78       233      1180      1479      1480
 -1       305    8    0    1
 -2        77       233       232      1480      1481      1476
 -1       306    8    0    1
 -2        78        79       234      1181      1482      1483
 -1       307    8    0    1
 -2        78       234       233      1483      1484      1479
 -1       308    8    0    1
 -2        79        80       235      1182      1485      1486
 -1       309    8    0    1
 -2        79       235       234      1486      1487      1482
 -1       310    8    0    1
 -2        80        81       236      1183      1488      1489
 -1       311    8    0    1
 -2        80       236       235      1489      1490      1485
 -1       312    8    0    1
 -2        81        82       237      1184      1491      1492
 -1       313    8    0    1
 -2        81       237       236      1492      1493      1488
 -1       314    8    0    1
 -2        82        83       238      1185      1494      1495
 -1       315    8    0    1
 -2        82       238       237      1495      1496      1491
 -1       316    8    0    1
 -2        83        84       239      1186      1497      1498
 -1       317    8    0    1
 -2        83       239       238      1498      1499      1494
 -1       318    8    0    1
 -2        84        85       240      1187      1500      1501
 -1       319    8    0    1
 -2        84       240       239      1501      1502      1497
 -1       320    8    0    1
 -2        85        86       241      1188      1503      1504
 -1       321    8    0    1
 -2        85       241       240      1504      1505      1500
 -1       322    8    0    1
 -2        86        87       242      1189      1506      1507
 -1       323    8    0    1
 -2        86       242       241      1507      1508      1503
 -1       324    8    0    1
 -2        87        88       243      1190      1509      1510
 -1       325    8    0    1
 -2        87       243       242      1510      1511      1506
 -1       326    8    0    1
 -2        88        89       244      1191      1512      1513
 -1       327    8    0    1
 -2        88       244       243      1513      1514      1509
 -1       328    8    0    1
 -2        89        90       245      1192      1515      1516
 -1       329    8    0    1
 -2        89       245       244      1516      1517      1512
 -1       330    8    0    1
 -2        90        91       246      1193      1518      1519
 -1       331    8    0    1
 -2        90       246       245      1519      1520      1515
 -1       332    8    0    1
 -2        91        92       247      1194      1521      1522
 -1       333    8    0    1
 -2        91       247       246      1522      1523      1518
 -1       334    8    0    1
 -2        92        93       248      1195      1524      1525
 -1       335    8    0    1
 -2        92       248       247      1525      1526      1521
 -1       336    8    0    1
 -2        93        94       249      1196      1527      1528
 -1       337    8    0    1
 -2        93       249       248      1528      1529      1524
 -1       338    8    0    1
 -2        94        95       250      1197      1530      1531
 -1       339    8    0    1
 -2        94       250       249      1531      1532      1527
 -1       340    8    0    1
 -2        95        96       251      1198      1533      1534
 -1       341    8    0    1
 -2        95       251       250      1534      1535      1530
 -1       342    8    0    1
 -2        96        97       252      1199      1536      1537
 -1       343    8    0    1
 -2        96       252       251      1537      1538      1533
 -1       344    8    0    1
 -2        97        98       253      1200      1539      1540
 -1       345    8    0    1
 -2        97       253       252      1540      1541      1536
 -1       346    8    0    1
 -2        98        99       254      1201      1542      1543
 -1       347    8    0    1
 -2        98       254       253      1543      1544      1539
 -1       348    8    0    1
 -2        99       100       255      1202      1545      1546
 -1       349    8    0    1
 -2        99       255       254      1546      1547      1542
 -1       350    8    0    1
 -2       100       101       256      1203      1548      1549
 -1       351    8    0    1
 -2       100       256       255      1549      1550      1545
 -1       352    8    0    1
 -2       101       102       257      1204      1551      1552
 -1       353    8    0    1
 -2       101       257       256      1552      1553      1548
 -1       354    8    0    1
 -2       102       103       258      1205      1554      1555
 -1       355    8    0    1
 -2       102       258       257      1555      1556      1551
 -1       356    8    0    1
 -2       103       104       259      1206      1557      1558
 -1       357    8    0    1
 -2       103       259       258      1558      1559      1554
 -1       358    8    0    1
 -2       104       105       260      1207      1560      1561
 -1       359    8    0    1
 -2       104       260       259      1561      1562      1557
 -1       360    8    0    1
 -2       105       106       261      1208      1563      1564
 -1       361    8    0    1
 -2       105       261       260      1564      1565      1560
 -1       362    8    0    1
 -2       106       107       262      1209      1566      1567
 -1       363    8    0    1
 -2       106       262       261      1567      1568      1563
 -1       364    8    0    1
 -2       107       108       263      1210      1569      1570
 -1       365    8    0    1
 -2       107       263       262      1570      1571      1566
 -1       366    8    0    1
 -2       108       109       264      1211      1572      1573
 -1       367    8    0    1
 -2       108       264       263      1573      1574      1569
 -1       368    8    0    1
 -2       109       110       265      1212      1575      1576
 -1       369    8    0    1
 -2       109       265       264      1576      1577      1572
 -1       370    8    0    1
 -2       110       111       266      1213      1578      1579
 -1       371    8    0    1
 -2       110       266       265      1579      1580      1575
 -1       372    8    0    1
 -2       111       112       267      1214      1581      1582
 -1       373    8    0    1
 -2       111       267       266      1582      1583      1578
 -1       374    8    0    1
 -2       112       113       268      1215      1584      1585
 -1       375    8    0    1
 -2       112       268       267      1585      1586      1581
 -1       376    8    0    1
 -2       113       114       269      1216      1587      1588
 -1       377    8    0    1
 -2       113       269       268      1588      1589      1584
 -1       378    8    0    1
 -2       114       115       270      1217      1590      1591
 -1       379    8    0    1
 -2       114       270       269      1591      1592      1587
 -1       380    8    0    1
 -2       115       116       271      1218      1593      1594
 -1       381    8    0    1
 -2       115       271       270      1594      1595      1590
 -1       382    8    0    1
 -2       116       117       272      1219      1596      1597
 -1       383    8    0    1
 -2       116       272       271      1597      1598      1593
 -1       384    8    0    1
 -2       117       118       273      1220      1599      1600
 -1       385    8    0    1
 -2       117       273       272      1600      1601      1596
 -1       386    8    0    1
 -2       118       119       274      1221      1602      1603
 -1       387    8    0    1
 -2       118       274       273      1603      1604      1599
 -1       388    8    0    1
 -2       119       120       275      1222      1605      1606
 -1       389    8    0    1
 -2       119       275       274      1606      1607      1602
 -1       390    8    0    1
 -2       120         3       121      1223      1224      1608
 -1       391    8    0    1
 -2       121       122       276      1225      1609      1610
 -1       392    8    0    1
 -2       122       123       277      1226      1611      1612
 -1       393    8    0    1
 -2       122       277       276      1612      1613      1609
 -1       394    8    0    1
 -2       123       124       278      1227      1614      1615
 -1       395    8    0    1
 -2       123       278       277      1615      1616      1611
 -1       396    8    0    1
 -2       124       125       279      1228      1617      1618
 -1       397    8    0    1
 -2       124       279       278      1618      1619      1614
 -1       398    8    0    1
 -2       125       126       280      1229      1620      1621
 -1       399    8    0    1
 -2       125       280       279      1621      1622      1617
 -1       400    8    0    1
 -2       126       127       281      1230      1623      1624
 -1       401    8    0    1
 -2       126       281       280      1624      1625      1620
 -1       402    8    0    1
 -2       127       128       282      1231      1626      1627
 -1       403    8    0    1
 -2       127       282       281      1627      1628      1623
 -1       404    8    0    1
 -2       128       129       283      1232      1629      1630
 -1       405    8    0    1
 -2       128       283       282      1630      1631      1626
 -1       406    8    0    1
 -2       129       130       284      1233      1632      1633
 -1       407    8    0    1
 -2       129       284       283      1633      1634      1629
 -1       408    8    0    1
 -2       130       131       285      1234      1635      1636
 -1       409    8    0    1
 -2       130       285       284      1636      1637      1632
 -1       410    8    0    1
 -2       131       132       286      1235      1638      1639
 -1       411    8    0    1
 -2       131       286       285      1639      1640      1635
 -1       412    8    0    1
 -2       132       133       287      1236      1641      1642
 -1       413    8    0    1
 -2       132       287       286      1642      1643      1638
 -1       414    8    0    1
 -2       133       134       288      1237      1644      1645
 -1       415    8    0    1
 -2       133       288       287      1645      1646      1641
 -1       416    8    0    1
 -2       134       135       289      1238      1647      1648
 -1       417    8    0    1
 -2       134       289       288      1648      1649      1644
 -1       418    8    0    1
 -2       135       136       290      1239      1650      1651
 -1       419    8    0    1
 -2       289       135       290      1647      1651      1652
 -1       420    8    0    1
 -2       136       227       290      1463      1653      1650
 -1       421    8    0    1
 -2         2       137       291      1241      1654      1655
 -1       422    8    0    1
 -2       137       138       292      1242      1656      1657
 -1       423    8    0    1
 -2       138       139       293      1243      1658      1659
 -1       424    8    0    1
 -2       139       140       294      1244      1660      1661
 -1       425    8    0    1
 -2       140       141       295      1245      1662      1663
 -1       426    8    0    1
 -2       141       142       296      1246      1664      1665
 -1       427    8    0    1
 -2       142       143       297      1247      1666      1667
 -1       428    8    0    1
 -2       143       144       298      1248      1668      1669
 -1       429    8    0    1
 -2       144       145       299      1249      1670      1671
 -1       430    8    0    1
 -2       145       146       300      1250      1672      1673
 -1       431    8    0    1
 -2       146       147       301      1251      1674      1675
 -1       432    8    0    1
 -2       147       148       302      1252      1676      1677
 -1       433    8    0    1
 -2       148       149       303      1253      1678      1679
 -1       434    8    0    1
 -2       149       150       304      1254      1680      1681
 -1       435    8    0    1
 -2       150       151       305      1255      1682      1683
 -1       436    8    0    1
 -2       151       152       306      1256      1684      1685
 -1       437    8    0    1
 -2       152       153       307      1257      1686      1687
 -1       438    8    0    1
 -2       153       154       308      1258      1688      1689
 -1       439    8    0    1
 -2       154       155       309      1259      1690      1691
 -1       440    8    0    1
 -2       155       156       310      1260      1692      1693
 -1       441    8    0    1
 -2       156       157       311      1261      1694      1695
 -1       442    8    0    1
 -2       157         1       312      1262      1696      1697
 -1       443    8    0    1
 -2         1       158       313      1263      1698      1699
 -1       444    8    0    1
 -2       158       159       314      1264      1700      1701
 -1       445    8    0    1
 -2       159       160       315      1265      1702      1703
 -1       446    8    0    1
 -2       160       161       316      1266      1704      1705
 -1       447    8    0    1
 -2       161       162       317      1267      1706      1707
 -1       448    8    0    1
 -2       162       163       318      1268      1708      1709
 -1       449    8    0    1
 -2       163         2       319      1269      1710      1711
 -1       450    8    0    1
 -2       294       140       295      1660      1663      1712
 -1       451    8    0    1
 -2       293       139       294      1658      1661      1713
 -1       452    8    0    1
 -2       120       121       275      1608      1714      1605
 -1       453    8    0    1
 -2       121       276       275      1610      1715      1714
 -1       454    8    0    1
 -2       291       137       292      1654      1657      1716
 -1       455    8    0    1
 -2       292       138       293      1656      1659      1717
 -1       456    8    0    1
 -2         2       291       319      1655      1718      1710
 -1       457    8    0    1
 -2       141       296       295      1665      1719      1662
 -1       458    8    0    1
 -2       142       297       296      1667      1720      1664
 -1       459    8    0    1
 -2       143       298       297      1669      1721      1666
 -1       460    8    0    1
 -2       144       299       298      1671      1722      1668
 -1       461    8    0    1
 -2       145       300       299      1673      1723      1670
 -1       462    8    0    1
 -2       146       301       300      1675      1724      1672
 -1       463    8    0    1
 -2       147       302       301      1677      1725      1674
 -1       464    8    0    1
 -2       148       303       302      1679      1726      1676
 -1       465    8    0    1
 -2       149       304       303      1681      1727      1678
 -1       466    8    0    1
 -2       150       305       304      1683      1728      1680
 -1       467    8    0    1
 -2       151       306       305      1685      1729      1682
 -1       468    8    0    1
 -2       152       307       306      1687      1730      1684
 -1       469    8    0    1
 -2       153       308       307      1689      1731      1686
 -1       470    8    0    1
 -2       154       309       308      1691      1732      1688
 -1       471    8    0    1
 -2       155       310       309      1693      1733      1690
 -1       472    8    0    1
 -2       156       311       310      1695      1734      1692
 -1       473    8    0    1
 -2       157       312       311      1697      1735      1694
 -1       474    8    0    1
 -2         1       313       312      1699      1736      1696
 -1       475    8    0    1
 -2       158       314       313      1701      1737      1698
 -1       476    8    0    1
 -2       159       315       314      1703      1738      1700
 -1       477    8    0    1
 -2       160       316       315      1705      1739      1702
 -1       478    8    0    1
 -2       161       317       316      1707      1740      1704
 -1       479    8    0    1
 -2       162       318       317      1709      1741      1706
 -1       480    8    0    1
 -2       163       319       318      1711      1742      1708
 -1       481    8    0    1
 -2        23         7       164      1270      1272      1743
 -1       482    8    0    1
 -2       165       166       320      1278      1744      1745
 -1       483    8    0    1
 -2       164       165       321      1275      1746      1747
 -1       484    8    0    1
 -2       165       320       321      1745      1748      1746
 -1       485    8    0    1
 -2       167       168       322      1284      1749      1750
 -1       486    8    0    1
 -2       168       169       323      1287      1751      1752
 -1       487    8    0    1
 -2       168       323       322      1752      1753      1749
 -1       488    8    0    1
 -2       169       170       324      1290      1754      1755
 -1       489    8    0    1
 -2       169       324       323      1755      1756      1751
 -1       490    8    0    1
 -2       170       171       325      1293      1757      1758
 -1       491    8    0    1
 -2       170       325       324      1758      1759      1754
 -1       492    8    0    1
 -2       171       172       326      1296      1760      1761
 -1       493    8    0    1
 -2       171       326       325      1761      1762      1757
 -1       494    8    0    1
 -2       172       173       327      1299      1763      1764
 -1       495    8    0    1
 -2       172       327       326      1764      1765      1760
 -1       496    8    0    1
 -2       173       174       328      1302      1766      1767
 -1       497    8    0    1
 -2       173       328       327      1767      1768      1763
 -1       498    8    0    1
 -2       174       175       329      1305      1769      1770
 -1       499    8    0    1
 -2       174       329       328      1770      1771      1766
 -1       500    8    0    1
 -2       175       176       330      1308      1772      1773
 -1       501    8    0    1
 -2       175       330       329      1773      1774      1769
 -1       502    8    0    1
 -2       176       177       331      1311      1775      1776
 -1       503    8    0    1
 -2       176       331       330      1776      1777      1772
 -1       504    8    0    1
 -2       177       178       332      1314      1778      1779
 -1       505    8    0    1
 -2       177       332       331      1779      1780      1775
 -1       506    8    0    1
 -2       178       179       333      1317      1781      1782
 -1       507    8    0    1
 -2       332       178       333      1778      1782      1783
 -1       508    8    0    1
 -2       179       228       333      1466      1784      1781
 -1       509    8    0    1
 -2       180        23       164      1319      1743      1785
 -1       510    8    0    1
 -2       228       229       334      1469      1786      1787
 -1       511    8    0    1
 -2       228       334       333      1787      1788      1784
 -1       512    8    0    1
 -2       180       164       321      1785      1747      1789
 -1       513    8    0    1
 -2       182       181       335      1326      1790      1791
 -1       514    8    0    1
 -2       183       182       336      1329      1792      1793
 -1       515    8    0    1
 -2       182       335       336      1791      1794      1792
 -1       516    8    0    1
 -2       184       183       337      1332      1795      1796
 -1       517    8    0    1
 -2       183       336       337      1793      1797      1795
 -1       518    8    0    1
 -2       185       184       338      1335      1798      1799
 -1       519    8    0    1
 -2       184       337       338      1796      1800      1798
 -1       520    8    0    1
 -2       186       185       339      1338      1801      1802
 -1       521    8    0    1
 -2       185       338       339      1799      1803      1801
 -1       522    8    0    1
 -2       187       186       340      1341      1804      1805
 -1       523    8    0    1
 -2       186       339       340      1802      1806      1804
 -1       524    8    0    1
 -2       188       187       341      1344      1807      1808
 -1       525    8    0    1
 -2       187       340       341      1805      1809      1807
 -1       526    8    0    1
 -2       189       188       342      1347      1810      1811
 -1       527    8    0    1
 -2       188       341       342      1808      1812      1810
 -1       528    8    0    1
 -2       190       189       343      1350      1813      1814
 -1       529    8    0    1
 -2       189       342       343      1811      1815      1813
 -1       530    8    0    1
 -2       191       190       344      1353      1816      1817
 -1       531    8    0    1
 -2       190       343       344      1814      1818      1816
 -1       532    8    0    1
 -2       192       191       345      1356      1819      1820
 -1       533    8    0    1
 -2       191       344       345      1817      1821      1819
 -1       534    8    0    1
 -2       193       192       346      1359      1822      1823
 -1       535    8    0    1
 -2       192       345       346      1820      1824      1822
 -1       536    8    0    1
 -2       194       193       347      1362      1825      1826
 -1       537    8    0    1
 -2       193       346       347      1823      1827      1825
 -1       538    8    0    1
 -2       195       194       348      1365      1828      1829
 -1       539    8    0    1
 -2       194       347       348      1826      1830      1828
 -1       540    8    0    1
 -2       196       195       349      1368      1831      1832
 -1       541    8    0    1
 -2       195       348       349      1829      1833      1831
 -1       542    8    0    1
 -2       197       196       350      1371      1834      1835
 -1       543    8    0    1
 -2       196       349       350      1832      1836      1834
 -1       544    8    0    1
 -2       198       197       351      1374      1837      1838
 -1       545    8    0    1
 -2       197       350       351      1835      1839      1837
 -1       546    8    0    1
 -2       199       198       352      1377      1840      1841
 -1       547    8    0    1
 -2       198       351       352      1838      1842      1840
 -1       548    8    0    1
 -2       200       199       353      1380      1843      1844
 -1       549    8    0    1
 -2       199       352       353      1841      1845      1843
 -1       550    8    0    1
 -2       201       200       354      1383      1846      1847
 -1       551    8    0    1
 -2       200       353       354      1844      1848      1846
 -1       552    8    0    1
 -2       202       201       355      1386      1849      1850
 -1       553    8    0    1
 -2       201       354       355      1847      1851      1849
 -1       554    8    0    1
 -2       203       202       356      1389      1852      1853
 -1       555    8    0    1
 -2       202       355       356      1850      1854      1852
 -1       556    8    0    1
 -2       204       203       357      1392      1855      1856
 -1       557    8    0    1
 -2       203       356       357      1853      1857      1855
 -1       558    8    0    1
 -2       205       204       358      1395      1858      1859
 -1       559    8    0    1
 -2       204       357       358      1856      1860      1858
 -1       560    8    0    1
 -2       206       205       359      1398      1861      1862
 -1       561    8    0    1
 -2       205       358       359      1859      1863      1861
 -1       562    8    0    1
 -2       207       206       360      1401      1864      1865
 -1       563    8    0    1
 -2       206       359       360      1862      1866      1864
 -1       564    8    0    1
 -2       208       207       361      1404      1867      1868
 -1       565    8    0    1
 -2       207       360       361      1865      1869      1867
 -1       566    8    0    1
 -2       209       208       362      1407      1870      1871
 -1       567    8    0    1
 -2       208       361       362      1868      1872      1870
 -1       568    8    0    1
 -2       210       209       363      1410      1873      1874
 -1       569    8    0    1
 -2       209       362       363      1871      1875      1873
 -1       570    8    0    1
 -2       211       210       364      1413      1876      1877
 -1       571    8    0    1
 -2       210       363       364      1874      1878      1876
 -1       572    8    0    1
 -2       212       211       365      1416      1879      1880
 -1       573    8    0    1
 -2       211       364       365      1877      1881      1879
 -1       574    8    0    1
 -2       213       212       366      1419      1882      1883
 -1       575    8    0    1
 -2       212       365       366      1880      1884      1882
 -1       576    8    0    1
 -2       214       213       367      1422      1885      1886
 -1       577    8    0    1
 -2       213       366       367      1883      1887      1885
 -1       578    8    0    1
 -2       215       214       368      1425      1888      1889
 -1       579    8    0    1
 -2       214       367       368      1886      1890      1888
 -1       580    8    0    1
 -2       216       215       369      1428      1891      1892
 -1       581    8    0    1
 -2       215       368       369      1889      1893      1891
 -1       582    8    0    1
 -2       217       216       370      1431      1894      1895
 -1       583    8    0    1
 -2       216       369       370      1892      1896      1894
 -1       584    8    0    1
 -2       218       217       371      1434      1897      1898
 -1       585    8    0    1
 -2       217       370       371      1895      1899      1897
 -1       586    8    0    1
 -2       219       218       372      1437      1900      1901
 -1       587    8    0    1
 -2       218       371       372      1898      1902      1900
 -1       588    8    0    1
 -2       220       219       373      1440      1903      1904
 -1       589    8    0    1
 -2       219       372       373      1901      1905      1903
 -1       590    8    0    1
 -2       221       220       374      1443      1906      1907
 -1       591    8    0    1
 -2       220       373       374      1904      1908      1906
 -1       592    8    0    1
 -2       222       221       375      1446      1909      1910
 -1       593    8    0    1
 -2       221       374       375      1907      1911      1909
 -1       594    8    0    1
 -2       223       222       376      1449      1912      1913
 -1       595    8    0    1
 -2       222       375       376      1910      1914      1912
 -1       596    8    0    1
 -2       224       223       377      1452      1915      1916
 -1       597    8    0    1
 -2       223       376       377      1913      1917      1915
 -1       598    8    0    1
 -2       225       224       378      1455      1918      1919
 -1       599    8    0    1
 -2       224       377       378      1916      1920      1918
 -1       600    8    0    1
 -2       226       225       379      1458      1921      1922
 -1       601    8    0    1
 -2       225       378       379      1919      1923      1921
 -1       602    8    0    1
 -2       227       226       380      1461      1924      1925
 -1       603    8    0    1
 -2       290       227       380      1653      1925      1926
 -1       604    8    0    1
 -2       226       379       380      1922      1927      1924
 -1       605    8    0    1
 -2       229       230       381      1472      1928      1929
 -1       606    8    0    1
 -2       229       381       334      1929      1930      1786
 -1       607    8    0    1
 -2       230       231       382      1475      1931      1932
 -1       608    8    0    1
 -2       230       382       381      1932      1933      1928
 -1       609    8    0    1
 -2       231       232       383      1478      1934      1935
 -1       610    8    0    1
 -2       231       383       382      1935      1936      1931
 -1       611    8    0    1
 -2       232       233       384      1481      1937      1938
 -1       612    8    0    1
 -2       232       384       383      1938      1939      1934
 -1       613    8    0    1
 -2       233       234       385      1484      1940      1941
 -1       614    8    0    1
 -2       233       385       384      1941      1942      1937
 -1       615    8    0    1
 -2       234       235       386      1487      1943      1944
 -1       616    8    0    1
 -2       234       386       385      1944      1945      1940
 -1       617    8    0    1
 -2       235       236       387      1490      1946      1947
 -1       618    8    0    1
 -2       235       387       386      1947      1948      1943
 -1       619    8    0    1
 -2       236       237       388      1493      1949      1950
 -1       620    8    0    1
 -2       236       388       387      1950      1951      1946
 -1       621    8    0    1
 -2       237       238       389      1496      1952      1953
 -1       622    8    0    1
 -2       237       389       388      1953      1954      1949
 -1       623    8    0    1
 -2       238       239       390      1499      1955      1956
 -1       624    8    0    1
 -2       238       390       389      1956      1957      1952
 -1       625    8    0    1
 -2       239       240       391      1502      1958      1959
 -1       626    8    0    1
 -2       239       391       390      1959      1960      1955
 -1       627    8    0    1
 -2       240       241       392      1505      1961      1962
 -1       628    8    0    1
 -2       240       392       391      1962      1963      1958
 -1       629    8    0    1
 -2       241       242       393      1508      1964      1965
 -1       630    8    0    1
 -2       241       393       392      1965      1966      1961
 -1       631    8    0    1
 -2       242       243       394      1511      1967      1968
 -1       632    8    0    1
 -2       242       394       393      1968      1969      1964
 -1       633    8    0    1
 -2       243       244       395      1514      1970      1971
 -1       634    8    0    1
 -2       243       395       394      1971      1972      1967
 -1       635    8    0    1
 -2       244       245       396      1517      1973      1974
 -1       636    8    0    1
 -2       244       396       395      1974      1975      1970
 -1       637    8    0    1
 -2       245       246       397      1520      1976      1977
 -1       638    8    0    1
 -2       245       397       396      1977      1978      1973
 -1       639    8    0    1
 -2       246       247       398      1523      1979      1980
 -1       640    8    0    1
 -2       246       398       397      1980      1981      1976
 -1       641    8    0    1
 -2       247       248       399      1526      1982      1983
 -1       642    8    0    1
 -2       247       399       398      1983      1984      1979
 -1       643    8    0    1
 -2       248       249       400      1529      1985      1986
 -1       644    8    0    1
 -2       248       400       399      1986      1987      1982
 -1       645    8    0    1
 -2       249       250       401      1532      1988      1989
 -1       646    8    0    1
 -2       249       401       400      1989      1990      1985
 -1       647    8    0    1
 -2       250       251       402      1535      1991      1992
 -1       648    8    0    1
 -2       250       402       401      1992      1993      1988
 -1       649    8    0    1
 -2       251       252       403      1538      1994      1995
 -1       650    8    0    1
 -2       251       403       402      1995      1996      1991
 -1       651    8    0    1
 -2       252       253       404      1541      1997      1998
 -1       652    8    0    1
 -2       252       404       403      1998      1999      1994
 -1       653    8    0    1
 -2       253       254       405      1544      2000      2001
 -1       654    8    0    1
 -2       253       405       404      2001      2002      1997
 -1       655    8    0    1
 -2       254       255       406      1547      2003      2004
 -1       656    8    0    1
 -2       254       406       405      2004      2005      2000
 -1       657    8    0    1
 -2       255       256       407      1550      2006      2007
 -1       658    8    0    1
 -2       255       407       406      2007      2008      2003
 -1       659    8    0    1
 -2       256       257       408      1553      2009      2010
 -1       660    8    0    1
 -2       256       408       407      2010      2011      2006
 -1       661    8    0    1
 -2       257       258       409      1556      2012      2013
 -1       662    8    0    1
 -2       257       409       408      2013      2014      2009
 -1       663    8    0    1
 -2       258       259       410      1559      2015      2016
 -1       664    8    0    1
 -2       258       410       409      2016      2017      2012
 -1       665    8    0    1
 -2       259       260       411      1562      2018      2019
 -1       666    8    0    1
 -2       259       411       410      2019      2020      2015
 -1       667    8    0    1
 -2       260       261       412      1565      2021      2022
 -1       668    8    0    1
 -2       260       412       411      2022      2023      2018
 -1       669    8    0    1
 -2       261       262       413      1568      2024      2025
 -1       670    8    0    1
 -2       261       413       412      2025      2026      2021
 -1       671    8    0    1
 -2       262       263       414      1571      2027      2028
 -1       672    8    0    1
 -2       262       414       413      2028      2029      2024
 -1       673    8    0    1
 -2       263       264       415      1574      2030      2031
 -1       674    8    0    1
 -2       263       415       414      2031      2032      2027
 -1       675    8    0    1
 -2       264       265       416      1577      2033      2034
 -1       676    8    0    1
 -2       264       416       415      2034      2035      2030
 -1       677    8    0    1
 -2       265       266       417      1580      2036      2037
 -1       678    8    0    1
 -2       265       417       416      2037      2038      2033
 -1       679    8    0    1
 -2       266       267       418      1583      2039      2040
 -1       680    8    0    1
 -2       266       418       417      2040      2041      2036
 -1       681    8    0    1
 -2       267       268       419      1586      2042      2043
 -1       682    8    0    1
 -2       267       419       418      2043      2044      2039
 -1       683    8    0    1
 -2       268       269       420      1589      2045      2046
 -1       684    8    0    1
 -2       268       420       419      2046      2047      2042
 -1       685    8    0    1
 -2       269       270       421      1592      2048      2049
 -1       686    8    0    1
 -2       269       421       420      2049      2050      2045
 -1       687    8    0    1
 -2       270       271       422      1595      2051      2052
 -1       688    8    0    1
 -2       270       422       421      2052      2053      2048
 -1       689    8    0    1
 -2       271       272       423      1598      2054      2055
 -1       690    8    0    1
 -2       271       423       422      2055      2056      2051
 -1       691    8    0    1
 -2       272       273       424      1601      2057      2058
 -1       692    8    0    1
 -2       272       424       423      2058      2059      2054
 -1       693    8    0    1
 -2       273       274       425      1604      2060      2061
 -1       694    8    0    1
 -2       273       425       424      2061      2062      2057
 -1       695    8    0    1
 -2       274       275       426      1607      2063      2064
 -1       696    8    0    1
 -2       425       274       426      2060      2064      2065
 -1       697    8    0    1
 -2       275       276       426      1715      2066      2063
 -1       698    8    0    1
 -2       278       279       427      1619      2067      2068
 -1       699    8    0    1
 -2       277       278       428      1616      2069      2070
 -1       700    8    0    1
 -2       278       427       428      2068      2071      2069
 -1       701    8    0    1
 -2       276       277       429      1613      2072      2073
 -1       702    8    0    1
 -2       426       276       429      2066      2073      2074
 -1       703    8    0    1
 -2       277       428       429      2070      2075      2072
 -1       704    8    0    1
 -2       279       280       430      1622      2076      2077
 -1       705    8    0    1
 -2       279       430       427      2077      2078      2067
 -1       706    8    0    1
 -2       280       281       431      1625      2079      2080
 -1       707    8    0    1
 -2       280       431       430      2080      2081      2076
 -1       708    8    0    1
 -2       281       282       432      1628      2082      2083
 -1       709    8    0    1
 -2       281       432       431      2083      2084      2079
 -1       710    8    0    1
 -2       282       283       433      1631      2085      2086
 -1       711    8    0    1
 -2       282       433       432      2086      2087      2082
 -1       712    8    0    1
 -2       283       284       434      1634      2088      2089
 -1       713    8    0    1
 -2       283       434       433      2089      2090      2085
 -1       714    8    0    1
 -2       284       285       435      1637      2091      2092
 -1       715    8    0    1
 -2       284       435       434      2092      2093      2088
 -1       716    8    0    1
 -2       285       286       436      1640      2094      2095
 -1       717    8    0    1
 -2       285       436       435      2095      2096      2091
 -1       718    8    0    1
 -2       286       287       437      1643      2097      2098
 -1       719    8    0    1
 -2       286       437       436      2098      2099      2094
 -1       720    8    0    1
 -2       287       288       438      1646      2100      2101
 -1       721    8    0    1
 -2       287       438       437      2101      2102      2097
 -1       722    8    0    1
 -2       288       289       439      1649      2103      2104
 -1       723    8    0    1
 -2       288       439       438      2104      2105      2100
 -1       724    8    0    1
 -2       292       293       440      1717      2106      2107
 -1       725    8    0    1
 -2       319       291       441      1718      2108      2109
 -1       726    8    0    1
 -2       291       292       442      1716      2110      2111
 -1       727    8    0    1
 -2       293       294       443      1713      2112      2113
 -1       728    8    0    1
 -2       294       295       444      1712      2114      2115
 -1       729    8    0    1
 -2       166       167       445      1281      2116      2117
 -1       730    8    0    1
 -2       320       166       445      1744      2117      2118
 -1       731    8    0    1
 -2       167       322       445      1750      2119      2116
 -1       732    8    0    1
 -2       296       297       446      1720      2120      2121
 -1       733    8    0    1
 -2       297       298       447      1721      2122      2123
 -1       734    8    0    1
 -2       298       299       448      1722      2124      2125
 -1       735    8    0    1
 -2       299       300       449      1723      2126      2127
 -1       736    8    0    1
 -2       300       301       450      1724      2128      2129
 -1       737    8    0    1
 -2       301       302       451      1725      2130      2131
 -1       738    8    0    1
 -2       302       303       452      1726      2132      2133
 -1       739    8    0    1
 -2       302       452       451      2133      2134      2130
 -1       740    8    0    1
 -2       303       304       453      1727      2135      2136
 -1       741    8    0    1
 -2       304       305       454      1728      2137      2138
 -1       742    8    0    1
 -2       304       454       453      2138      2139      2135
 -1       743    8    0    1
 -2       305       306       455      1729      2140      2141
 -1       744    8    0    1
 -2       306       307       456      1730      2142      2143
 -1       745    8    0    1
 -2       306       456       455      2143      2144      2140
 -1       746    8    0    1
 -2       307       308       457      1731      2145      2146
 -1       747    8    0    1
 -2       308       309       458      1732      2147      2148
 -1       748    8    0    1
 -2       309       310       459      1733      2149      2150
 -1       749    8    0    1
 -2       309       459       458      2150      2151      2147
 -1       750    8    0    1
 -2       310       311       460      1734      2152      2153
 -1       751    8    0    1
 -2       311       312       461      1735      2154      2155
 -1       752    8    0    1
 -2       311       461       460      2155      2156      2152
 -1       753    8    0    1
 -2       312       313       462      1736      2157      2158
 -1       754    8    0    1
 -2       313       314       463      1737      2159      2160
 -1       755    8    0    1
 -2       314       315       464      1738      2161      2162
 -1       756    8    0    1
 -2       315       316       465      1739      2163      2164
 -1       757    8    0    1
 -2       315       465       464      2164      2165      2161
 -1       758    8    0    1
 -2       316       317       466      1740      2166      2167
 -1       759    8    0    1
 -2       317       318       467      1741      2168      2169
 -1       760    8    0    1
 -2       318       319       468      1742      2170      2171
 -1       761    8    0    1
 -2       295       296       469      1719      2172      2173
 -1       762    8    0    1
 -2       296       446       469      2121      2174      2172
 -1       763    8    0    1
 -2       443       294       470      2112      2175      2176
 -1       764    8    0    1
 -2       294       444       470      2115      2177      2175
 -1       765    8    0    1
 -2       180       321       181      1789      2178      1323
 -1       766    8    0    1
 -2       444       295       469      2114      2173      2179
 -1       767    8    0    1
 -2       335       181       321      1790      2178      2180
 -1       768    8    0    1
 -2       442       292       440      2110      2107      2181
 -1       769    8    0    1
 -2       441       291       442      2108      2111      2182
 -1       770    8    0    1
 -2       439       289       290      2103      1652      2183
 -1       771    8    0    1
 -2       440       293       443      2106      2113      2184
 -1       772    8    0    1
 -2       319       441       468      2109      2185      2170
 -1       773    8    0    1
 -2       467       318       468      2168      2171      2186
 -1       774    8    0    1
 -2       465       316       471      2163      2187      2188
 -1       775    8    0    1
 -2       316       466       471      2167      2189      2187
 -1       776    8    0    1
 -2       463       314       464      2159      2162      2190
 -1       777    8    0    1
 -2       461       312       462      2154      2158      2191
 -1       778    8    0    1
 -2       459       310       460      2149      2153      2192
 -1       779    8    0    1
 -2       456       307       457      2142      2146      2193
 -1       780    8    0    1
 -2       454       305       455      2137      2141      2194
 -1       781    8    0    1
 -2       452       303       472      2132      2195      2196
 -1       782    8    0    1
 -2       303       453       472      2136      2197      2195
 -1       783    8    0    1
 -2       450       301       451      2128      2131      2198
 -1       784    8    0    1
 -2       449       300       450      2126      2129      2199
 -1       785    8    0    1
 -2       448       299       449      2124      2127      2200
 -1       786    8    0    1
 -2       446       297       447      2120      2123      2201
 -1       787    8    0    1
 -2       447       298       448      2122      2125      2202
 -1       788    8    0    1
 -2       457       308       458      2145      2148      2203
 -1       789    8    0    1
 -2       462       313       463      2157      2160      2204
 -1       790    8    0    1
 -2       466       317       467      2166      2169      2205
 -1       791    8    0    1
 -2       334       381       473      1930      2206      2207
 -1       792    8    0    1
 -2       323       324       474      1756      2208      2209
 -1       793    8    0    1
 -2       322       323       475      1753      2210      2211
 -1       794    8    0    1
 -2       323       474       475      2209      2212      2210
 -1       795    8    0    1
 -2       325       326       476      1762      2213      2214
 -1       796    8    0    1
 -2       326       327       477      1765      2215      2216
 -1       797    8    0    1
 -2       326       477       476      2216      2217      2213
 -1       798    8    0    1
 -2       327       328       478      1768      2218      2219
 -1       799    8    0    1
 -2       327       478       477      2219      2220      2215
 -1       800    8    0    1
 -2       328       329       479      1771      2221      2222
 -1       801    8    0    1
 -2       328       479       478      2222      2223      2218
 -1       802    8    0    1
 -2       329       330       480      1774      2224      2225
 -1       803    8    0    1
 -2       329       480       479      2225      2226      2221
 -1       804    8    0    1
 -2       330       331       481      1777      2227      2228
 -1       805    8    0    1
 -2       330       481       480      2228      2229      2224
 -1       806    8    0    1
 -2       381       382       482      1933      2230      2231
 -1       807    8    0    1
 -2       381       482       473      2231      2232      2206
 -1       808    8    0    1
 -2       336       335       483      1794      2233      2234
 -1       809    8    0    1
 -2       444       469       484      2179      2235      2236
 -1       810    8    0    1
 -2       337       336       485      1797      2237      2238
 -1       811    8    0    1
 -2       336       483       485      2234      2239      2237
 -1       812    8    0    1
 -2       338       337       486      1800      2240      2241
 -1       813    8    0    1
 -2       337       485       486      2238      2242      2240
 -1       814    8    0    1
 -2       339       338       487      1803      2243      2244
 -1       815    8    0    1
 -2       338       486       487      2241      2245      2243
 -1       816    8    0    1
 -2       340       339       488      1806      2246      2247
 -1       817    8    0    1
 -2       339       487       488      2244      2248      2246
 -1       818    8    0    1
 -2       341       340       489      1809      2249      2250
 -1       819    8    0    1
 -2       340       488       489      2247      2251      2249
 -1       820    8    0    1
 -2       342       341       490      1812      2252      2253
 -1       821    8    0    1
 -2       341       489       490      2250      2254      2252
 -1       822    8    0    1
 -2       343       342       491      1815      2255      2256
 -1       823    8    0    1
 -2       342       490       491      2253      2257      2255
 -1       824    8    0    1
 -2       344       343       492      1818      2258      2259
 -1       825    8    0    1
 -2       343       491       492      2256      2260      2258
 -1       826    8    0    1
 -2       345       344       493      1821      2261      2262
 -1       827    8    0    1
 -2       344       492       493      2259      2263      2261
 -1       828    8    0    1
 -2       346       345       494      1824      2264      2265
 -1       829    8    0    1
 -2       345       493       494      2262      2266      2264
 -1       830    8    0    1
 -2       347       346       495      1827      2267      2268
 -1       831    8    0    1
 -2       346       494       495      2265      2269      2267
 -1       832    8    0    1
 -2       348       347       496      1830      2270      2271
 -1       833    8    0    1
 -2       347       495       496      2268      2272      2270
 -1       834    8    0    1
 -2       349       348       497      1833      2273      2274
 -1       835    8    0    1
 -2       348       496       497      2271      2275      2273
 -1       836    8    0    1
 -2       350       349       498      1836      2276      2277
 -1       837    8    0    1
 -2       349       497       498      2274      2278      2276
 -1       838    8    0    1
 -2       351       350       499      1839      2279      2280
 -1       839    8    0    1
 -2       350       498       499      2277      2281      2279
 -1       840    8    0    1
 -2       352       351       500      1842      2282      2283
 -1       841    8    0    1
 -2       351       499       500      2280      2284      2282
 -1       842    8    0    1
 -2       353       352       501      1845      2285      2286
 -1       843    8    0    1
 -2       352       500       501      2283      2287      2285
 -1       844    8    0    1
 -2       354       353       502      1848      2288      2289
 -1       845    8    0    1
 -2       353       501       502      2286      2290      2288
 -1       846    8    0    1
 -2       355       354       503      1851      2291      2292
 -1       847    8    0    1
 -2       354       502       503      2289      2293      2291
 -1       848    8    0    1
 -2       356       355       504      1854      2294      2295
 -1       849    8    0    1
 -2       355       503       504      2292      2296      2294
 -1       850    8    0    1
 -2       357       356       505      1857      2297      2298
 -1       851    8    0    1
 -2       356       504       505      2295      2299      2297
 -1       852    8    0    1
 -2       358       357       506      1860      2300      2301
 -1       853    8    0    1
 -2       357       505       506      2298      2302      2300
 -1       854    8    0    1
 -2       359       358       507      1863      2303      2304
 -1       855    8    0    1
 -2       358       506       507      2301      2305      2303
 -1       856    8    0    1
 -2       360       359       508      1866      2306      2307
 -1       857    8    0    1
 -2       359       507       508      2304      2308      2306
 -1       858    8    0    1
 -2       361       360       509      1869      2309      2310
 -1       859    8    0    1
 -2       360       508       509      2307      2311      2309
 -1       860    8    0    1
 -2       362       361       510      1872      2312      2313
 -1       861    8    0    1
 -2       361       509       510      2310      2314      2312
 -1       862    8    0    1
 -2       363       362       511      1875      2315      2316
 -1       863    8    0    1
 -2       362       510       511      2313      2317      2315
 -1       864    8    0    1
 -2       364       363       512      1878      2318      2319
 -1       865    8    0    1
 -2       363       511       512      2316      2320      2318
 -1       866    8    0    1
 -2       365       364       513      1881      2321      2322
 -1       867    8    0    1
 -2       364       512       513      2319      2323      2321
 -1       868    8    0    1
 -2       366       365       514      1884      2324      2325
 -1       869    8    0    1
 -2       365       513       514      2322      2326      2324
 -1       870    8    0    1
 -2       367       366       515      1887      2327      2328
 -1       871    8    0    1
 -2       366       514       515      2325      2329      2327
 -1       872    8    0    1
 -2       368       367       516      1890      2330      2331
 -1       873    8    0    1
 -2       367       515       516      2328      2332      2330
 -1       874    8    0    1
 -2       369       368       517      1893      2333      2334
 -1       875    8    0    1
 -2       368       516       517      2331      2335      2333
 -1       876    8    0    1
 -2       370       369       518      1896      2336      2337
 -1       877    8    0    1
 -2       369       517       518      2334      2338      2336
 -1       878    8    0    1
 -2       371       370       519      1899      2339      2340
 -1       879    8    0    1
 -2       370       518       519      2337      2341      2339
 -1       880    8    0    1
 -2       372       371       520      1902      2342      2343
 -1       881    8    0    1
 -2       371       519       520      2340      2344      2342
 -1       882    8    0    1
 -2       373       372       521      1905      2345      2346
 -1       883    8    0    1
 -2       372       520       521      2343      2347      2345
 -1       884    8    0    1
 -2       374       373       522      1908      2348      2349
 -1       885    8    0    1
 -2       373       521       522      2346      2350      2348
 -1       886    8    0    1
 -2       375       374       523      1911      2351      2352
 -1       887    8    0    1
 -2       374       522       523      2349      2353      2351
 -1       888    8    0    1
 -2       376       375       524      1914      2354      2355
 -1       889    8    0    1
 -2       375       523       524      2352      2356      2354
 -1       890    8    0    1
 -2       377       376       525      1917      2357      2358
 -1       891    8    0    1
 -2       376       524       525      2355      2359      2357
 -1       892    8    0    1
 -2       378       377       526      1920      2360      2361
 -1       893    8    0    1
 -2       377       525       526      2358      2362      2360
 -1       894    8    0    1
 -2       379       378       527      1923      2363      2364
 -1       895    8    0    1
 -2       378       526       527      2361      2365      2363
 -1       896    8    0    1
 -2       383       384       528      1939      2366      2367
 -1       897    8    0    1
 -2       384       385       529      1942      2368      2369
 -1       898    8    0    1
 -2       384       529       528      2369      2370      2366
 -1       899    8    0    1
 -2       385       386       530      1945      2371      2372
 -1       900    8    0    1
 -2       385       530       529      2372      2373      2368
 -1       901    8    0    1
 -2       386       387       531      1948      2374      2375
 -1       902    8    0    1
 -2       386       531       530      2375      2376      2371
 -1       903    8    0    1
 -2       387       388       532      1951      2377      2378
 -1       904    8    0    1
 -2       387       532       531      2378      2379      2374
 -1       905    8    0    1
 -2       388       389       533      1954      2380      2381
 -1       906    8    0    1
 -2       388       533       532      2381      2382      2377
 -1       907    8    0    1
 -2       389       390       534      1957      2383      2384
 -1       908    8    0    1
 -2       389       534       533      2384      2385      2380
 -1       909    8    0    1
 -2       390       391       535      1960      2386      2387
 -1       910    8    0    1
 -2       390       535       534      2387      2388      2383
 -1       911    8    0    1
 -2       391       392       536      1963      2389      2390
 -1       912    8    0    1
 -2       391       536       535      2390      2391      2386
 -1       913    8    0    1
 -2       392       393       537      1966      2392      2393
 -1       914    8    0    1
 -2       392       537       536      2393      2394      2389
 -1       915    8    0    1
 -2       393       394       538      1969      2395      2396
 -1       916    8    0    1
 -2       393       538       537      2396      2397      2392
 -1       917    8    0    1
 -2       394       395       539      1972      2398      2399
 -1       918    8    0    1
 -2       394       539       538      2399      2400      2395
 -1       919    8    0    1
 -2       395       396       540      1975      2401      2402
 -1       920    8    0    1
 -2       395       540       539      2402      2403      2398
 -1       921    8    0    1
 -2       396       397       541      1978      2404      2405
 -1       922    8    0    1
 -2       396       541       540      2405      2406      2401
 -1       923    8    0    1
 -2       397       398       542      1981      2407      2408
 -1       924    8    0    1
 -2       397       542       541      2408      2409      2404
 -1       925    8    0    1
 -2       398       399       543      1984      2410      2411
 -1       926    8    0    1
 -2       398       543       542      2411      2412      2407
 -1       927    8    0    1
 -2       399       400       544      1987      2413      2414
 -1       928    8    0    1
 -2       399       544       543      2414      2415      2410
 -1       929    8    0    1
 -2       400       401       545      1990      2416      2417
 -1       930    8    0    1
 -2       400       545       544      2417      2418      2413
 -1       931    8    0    1
 -2       401       402       546      1993      2419      2420
 -1       932    8    0    1
 -2       401       546       545      2420      2421      2416
 -1       933    8    0    1
 -2       402       403       547      1996      2422      2423
 -1       934    8    0    1
 -2       402       547       546      2423      2424      2419
 -1       935    8    0    1
 -2       403       404       548      1999      2425      2426
 -1       936    8    0    1
 -2       403       548       547      2426      2427      2422
 -1       937    8    0    1
 -2       404       405       549      2002      2428      2429
 -1       938    8    0    1
 -2       404       549       548      2429      2430      2425
 -1       939    8    0    1
 -2       405       406       550      2005      2431      2432
 -1       940    8    0    1
 -2       405       550       549      2432      2433      2428
 -1       941    8    0    1
 -2       406       407       551      2008      2434      2435
 -1       942    8    0    1
 -2       406       551       550      2435      2436      2431
 -1       943    8    0    1
 -2       407       408       552      2011      2437      2438
 -1       944    8    0    1
 -2       407       552       551      2438      2439      2434
 -1       945    8    0    1
 -2       408       409       553      2014      2440      2441
 -1       946    8    0    1
 -2       408       553       552      2441      2442      2437
 -1       947    8    0    1
 -2       409       410       554      2017      2443      2444
 -1       948    8    0    1
 -2       409       554       553      2444      2445      2440
 -1       949    8    0    1
 -2       410       411       555      2020      2446      2447
 -1       950    8    0    1
 -2       410       555       554      2447      2448      2443
 -1       951    8    0    1
 -2       411       412       556      2023      2449      2450
 -1       952    8    0    1
 -2       411       556       555      2450      2451      2446
 -1       953    8    0    1
 -2       412       413       557      2026      2452      2453
 -1       954    8    0    1
 -2       412       557       556      2453      2454      2449
 -1       955    8    0    1
 -2       413       414       558      2029      2455      2456
 -1       956    8    0    1
 -2       413       558       557      2456      2457      2452
 -1       957    8    0    1
 -2       414       415       559      2032      2458      2459
 -1       958    8    0    1
 -2       414       559       558      2459      2460      2455
 -1       959    8    0    1
 -2       415       416       560      2035      2461      2462
 -1       960    8    0    1
 -2       415       560       559      2462      2463      2458
 -1       961    8    0    1
 -2       416       417       561      2038      2464      2465
 -1       962    8    0    1
 -2       416       561       560      2465      2466      2461
 -1       963    8    0    1
 -2       417       418       562      2041      2467      2468
 -1       964    8    0    1
 -2       417       562       561      2468      2469      2464
 -1       965    8    0    1
 -2       418       419       563      2044      2470      2471
 -1       966    8    0    1
 -2       418       563       562      2471      2472      2467
 -1       967    8    0    1
 -2       419       420       564      2047      2473      2474
 -1       968    8    0    1
 -2       419       564       563      2474      2475      2470
 -1       969    8    0    1
 -2       420       421       565      2050      2476      2477
 -1       970    8    0    1
 -2       420       565       564      2477      2478      2473
 -1       971    8    0    1
 -2       421       422       566      2053      2479      2480
 -1       972    8    0    1
 -2       421       566       565      2480      2481      2476
 -1       973    8    0    1
 -2       422       423       567      2056      2482      2483
 -1       974    8    0    1
 -2       422       567       566      2483      2484      2479
 -1       975    8    0    1
 -2       423       424       568      2059      2485      2486
 -1       976    8    0    1
 -2       423       568       567      2486      2487      2482
 -1       977    8    0    1
 -2       424       425       569      2062      2488      2489
 -1       978    8    0    1
 -2       424       569       568      2489      2490      2485
 -1       979    8    0    1
 -2       425       426       429      2065      2074      2491
 -1       980    8    0    1
 -2       430       431       570      2081      2492      2493
 -1       981    8    0    1
 -2       431       432       571      2084      2494      2495
 -1       982    8    0    1
 -2       431       571       570      2495      2496      2492
 -1       983    8    0    1
 -2       428       427       572      2071      2497      2498
 -1       984    8    0    1
 -2       427       430       573      2078      2499      2500
 -1       985    8    0    1
 -2       572       427       573      2497      2500      2501
 -1       986    8    0    1
 -2       430       570       573      2493      2502      2499
 -1       987    8    0    1
 -2       432       433       574      2087      2503      2504
 -1       988    8    0    1
 -2       432       574       571      2504      2505      2494
 -1       989    8    0    1
 -2       433       434       575      2090      2506      2507
 -1       990    8    0    1
 -2       433       575       574      2507      2508      2503
 -1       991    8    0    1
 -2       434       435       576      2093      2509      2510
 -1       992    8    0    1
 -2       434       576       575      2510      2511      2506
 -1       993    8    0    1
 -2       435       436       577      2096      2512      2513
 -1       994    8    0    1
 -2       435       577       576      2513      2514      2509
 -1       995    8    0    1
 -2       436       437       578      2099      2515      2516
 -1       996    8    0    1
 -2       436       578       577      2516      2517      2512
 -1       997    8    0    1
 -2       437       438       579      2102      2518      2519
 -1       998    8    0    1
 -2       437       579       578      2519      2520      2515
 -1       999    8    0    1
 -2       438       439       580      2105      2521      2522
 -1      1000    8    0    1
 -2       438       580       579      2522      2523      2518
 -1      1001    8    0    1
 -2       441       442       581      2182      2524      2525
 -1      1002    8    0    1
 -2       440       443       582      2184      2526      2527
 -1      1003    8    0    1
 -2       382       383       583      1936      2528      2529
 -1      1004    8    0    1
 -2       383       528       583      2367      2530      2528
 -1      1005    8    0    1
 -2       439       290       380      2183      1926      2531
 -1      1006    8    0    1
 -2       468       441       584      2185      2532      2533
 -1      1007    8    0    1
 -2       442       440       585      2181      2534      2535
 -1      1008    8    0    1
 -2       442       585       581      2535      2536      2524
 -1      1009    8    0    1
 -2       469       446       586      2174      2537      2538
 -1      1010    8    0    1
 -2       467       468       587      2186      2539      2540
 -1      1011    8    0    1
 -2       463       464       588      2190      2541      2542
 -1      1012    8    0    1
 -2       456       457       589      2193      2543      2544
 -1      1013    8    0    1
 -2       450       451       590      2198      2545      2546
 -1      1014    8    0    1
 -2       324       325       591      1759      2547      2548
 -1      1015    8    0    1
 -2       474       324       591      2208      2548      2549
 -1      1016    8    0    1
 -2       325       476       591      2214      2550      2547
 -1      1017    8    0    1
 -2       447       448       592      2202      2551      2552
 -1      1018    8    0    1
 -2       457       458       593      2203      2553      2554
 -1      1019    8    0    1
 -2       446       447       594      2201      2555      2556
 -1      1020    8    0    1
 -2       586       446       594      2537      2556      2557
 -1      1021    8    0    1
 -2       447       592       594      2552      2558      2555
 -1      1022    8    0    1
 -2       448       449       595      2200      2559      2560
 -1      1023    8    0    1
 -2       448       595       592      2560      2561      2551
 -1      1024    8    0    1
 -2       449       450       596      2199      2562      2563
 -1      1025    8    0    1
 -2       451       452       597      2134      2564      2565
 -1      1026    8    0    1
 -2       453       454       598      2139      2566      2567
 -1      1027    8    0    1
 -2       454       455       599      2194      2568      2569
 -1      1028    8    0    1
 -2       455       456       600      2144      2570      2571
 -1      1029    8    0    1
 -2       462       463       601      2204      2572      2573
 -1      1030    8    0    1
 -2       458       459       602      2151      2574      2575
 -1      1031    8    0    1
 -2       459       460       603      2192      2576      2577
 -1      1032    8    0    1
 -2       459       603       602      2577      2578      2574
 -1      1033    8    0    1
 -2       460       461       604      2156      2579      2580
 -1      1034    8    0    1
 -2       466       467       605      2205      2581      2582
 -1      1035    8    0    1
 -2       461       462       606      2191      2583      2584
 -1      1036    8    0    1
 -2       462       601       606      2573      2585      2583
 -1      1037    8    0    1
 -2       464       465       607      2165      2586      2587
 -1      1038    8    0    1
 -2       335       321       608      2180      2588      2589
 -1      1039    8    0    1
 -2       483       335       608      2233      2589      2590
 -1      1040    8    0    1
 -2       321       320       608      1748      2591      2588
 -1      1041    8    0    1
 -2       333       334       609      1788      2592      2593
 -1      1042    8    0    1
 -2       332       333       609      1783      2593      2594
 -1      1043    8    0    1
 -2       334       473       609      2207      2595      2592
 -1      1044    8    0    1
 -2       322       475       610      2211      2596      2597
 -1      1045    8    0    1
 -2       322       610       445      2597      2598      2119
 -1      1046    8    0    1
 -2       482       382       583      2230      2529      2599
 -1      1047    8    0    1
 -2       331       332       609      1780      2594      2600
 -1      1048    8    0    1
 -2       605       467       587      2581      2540      2601
 -1      1049    8    0    1
 -2       603       460       604      2576      2580      2602
 -1      1050    8    0    1
 -2       444       484       611      2236      2603      2604
 -1      1051    8    0    1
 -2       444       611       470      2604      2605      2177
 -1      1052    8    0    1
 -2       443       470       582      2176      2606      2526
 -1      1053    8    0    1
 -2       468       584       587      2533      2607      2539
 -1      1054    8    0    1
 -2       601       463       588      2572      2542      2608
 -1      1055    8    0    1
 -2       425       429       569      2491      2609      2488
 -1      1056    8    0    1
 -2       429       428       569      2075      2610      2609
 -1      1057    8    0    1
 -2       600       456       589      2570      2544      2611
 -1      1058    8    0    1
 -2       469       586       484      2538      2612      2235
 -1      1059    8    0    1
 -2       440       582       585      2527      2613      2534
 -1      1060    8    0    1
 -2       599       455       600      2568      2571      2614
 -1      1061    8    0    1
 -2       598       454       599      2566      2569      2615
 -1      1062    8    0    1
 -2       331       609       481      2600      2616      2227
 -1      1063    8    0    1
 -2       595       449       596      2559      2563      2617
 -1      1064    8    0    1
 -2       608       320       445      2591      2118      2618
 -1      1065    8    0    1
 -2       471       466       612      2189      2619      2620
 -1      1066    8    0    1
 -2       466       605       612      2582      2621      2619
 -1      1067    8    0    1
 -2       590       451       597      2545      2565      2622
 -1      1068    8    0    1
 -2       589       457       593      2543      2554      2623
 -1      1069    8    0    1
 -2       588       464       607      2541      2587      2624
 -1      1070    8    0    1
 -2       450       590       596      2546      2625      2562
 -1      1071    8    0    1
 -2       472       453       598      2197      2567      2626
 -1      1072    8    0    1
 -2       593       458       602      2553      2575      2627
 -1      1073    8    0    1
 -2       597       452       472      2564      2196      2628
 -1      1074    8    0    1
 -2       604       461       606      2579      2584      2629
 -1      1075    8    0    1
 -2       607       465       471      2586      2188      2630
 -1      1076    8    0    1
 -2       439       380       613      2531      2631      2632
 -1      1077    8    0    1
 -2       580       439       613      2521      2632      2633
 -1      1078    8    0    1
 -2       380       379       613      1927      2634      2631
 -1      1079    8    0    1
 -2       569       428       572      2610      2498      2635
 -1      1080    8    0    1
 -2       613       379       527      2634      2364      2636
 -1      1081    8    0    1
 -2       592       595       563      2561      2637      2638
 -1      1082    8    0    1
 -2       477       478       614      2220      2639      2640
 -1      1083    8    0    1
 -2       476       477       615      2217      2641      2642
 -1      1084    8    0    1
 -2       477       614       615      2640      2643      2641
 -1      1085    8    0    1
 -2       479       480       616      2226      2644      2645
 -1      1086    8    0    1
 -2       480       481       617      2229      2646      2647
 -1      1087    8    0    1
 -2       480       617       616      2647      2648      2644
 -1      1088    8    0    1
 -2       473       482       618      2232      2649      2650
 -1      1089    8    0    1
 -2       595       596       562      2617      2651      2652
 -1      1090    8    0    1
 -2       606       601       619      2585      2653      2654
 -1      1091    8    0    1
 -2       609       473       481      2595      2655      2616
 -1      1092    8    0    1
 -2       592       563       564      2638      2475      2656
 -1      1093    8    0    1
 -2       486       485       620      2242      2657      2658
 -1      1094    8    0    1
 -2       487       486       621      2245      2659      2660
 -1      1095    8    0    1
 -2       486       620       621      2658      2661      2659
 -1      1096    8    0    1
 -2       488       487       622      2248      2662      2663
 -1      1097    8    0    1
 -2       487       621       622      2660      2664      2662
 -1      1098    8    0    1
 -2       489       488       623      2251      2665      2666
 -1      1099    8    0    1
 -2       488       622       623      2663      2667      2665
 -1      1100    8    0    1
 -2       490       489       624      2254      2668      2669
 -1      1101    8    0    1
 -2       489       623       624      2666      2670      2668
 -1      1102    8    0    1
 -2       491       490       625      2257      2671      2672
 -1      1103    8    0    1
 -2       490       624       625      2669      2673      2671
 -1      1104    8    0    1
 -2       492       491       626      2260      2674      2675
 -1      1105    8    0    1
 -2       491       625       626      2672      2676      2674
 -1      1106    8    0    1
 -2       493       492       627      2263      2677      2678
 -1      1107    8    0    1
 -2       492       626       627      2675      2679      2677
 -1      1108    8    0    1
 -2       494       493       628      2266      2680      2681
 -1      1109    8    0    1
 -2       493       627       628      2678      2682      2680
 -1      1110    8    0    1
 -2       495       494       629      2269      2683      2684
 -1      1111    8    0    1
 -2       494       628       629      2681      2685      2683
 -1      1112    8    0    1
 -2       496       495       630      2272      2686      2687
 -1      1113    8    0    1
 -2       495       629       630      2684      2688      2686
 -1      1114    8    0    1
 -2       497       496       631      2275      2689      2690
 -1      1115    8    0    1
 -2       496       630       631      2687      2691      2689
 -1      1116    8    0    1
 -2       498       497       632      2278      2692      2693
 -1      1117    8    0    1
 -2       497       631       632      2690      2694      2692
 -1      1118    8    0    1
 -2       499       498       633      2281      2695      2696
 -1      1119    8    0    1
 -2       498       632       633      2693      2697      2695
 -1      1120    8    0    1
 -2       500       499       634      2284      2698      2699
 -1      1121    8    0    1
 -2       499       633       634      2696      2700      2698
 -1      1122    8    0    1
 -2       501       500       635      2287      2701      2702
 -1      1123    8    0    1
 -2       500       634       635      2699      2703      2701
 -1      1124    8    0    1
 -2       502       501       636      2290      2704      2705
 -1      1125    8    0    1
 -2       501       635       636      2702      2706      2704
 -1      1126    8    0    1
 -2       503       502       637      2293      2707      2708
 -1      1127    8    0    1
 -2       502       636       637      2705      2709      2707
 -1      1128    8    0    1
 -2       504       503       638      2296      2710      2711
 -1      1129    8    0    1
 -2       503       637       638      2708      2712      2710
 -1      1130    8    0    1
 -2       505       504       639      2299      2713      2714
 -1      1131    8    0    1
 -2       504       638       639      2711      2715      2713
 -1      1132    8    0    1
 -2       506       505       640      2302      2716      2717
 -1      1133    8    0    1
 -2       505       639       640      2714      2718      2716
 -1      1134    8    0    1
 -2       507       506       641      2305      2719      2720
 -1      1135    8    0    1
 -2       506       640       641      2717      2721      2719
 -1      1136    8    0    1
 -2       508       507       642      2308      2722      2723
 -1      1137    8    0    1
 -2       507       641       642      2720      2724      2722
 -1      1138    8    0    1
 -2       509       508       643      2311      2725      2726
 -1      1139    8    0    1
 -2       508       642       643      2723      2727      2725
 -1      1140    8    0    1
 -2       510       509       644      2314      2728      2729
 -1      1141    8    0    1
 -2       509       643       644      2726      2730      2728
 -1      1142    8    0    1
 -2       511       510       645      2317      2731      2732
 -1      1143    8    0    1
 -2       510       644       645      2729      2733      2731
 -1      1144    8    0    1
 -2       512       511       646      2320      2734      2735
 -1      1145    8    0    1
 -2       511       645       646      2732      2736      2734
 -1      1146    8    0    1
 -2       513       512       647      2323      2737      2738
 -1      1147    8    0    1
 -2       512       646       647      2735      2739      2737
 -1      1148    8    0    1
 -2       514       513       648      2326      2740      2741
 -1      1149    8    0    1
 -2       513       647       648      2738      2742      2740
 -1      1150    8    0    1
 -2       515       514       649      2329      2743      2744
 -1      1151    8    0    1
 -2       514       648       649      2741      2745      2743
 -1      1152    8    0    1
 -2       516       515       650      2332      2746      2747
 -1      1153    8    0    1
 -2       515       649       650      2744      2748      2746
 -1      1154    8    0    1
 -2       517       516       651      2335      2749      2750
 -1      1155    8    0    1
 -2       516       650       651      2747      2751      2749
 -1      1156    8    0    1
 -2       518       517       652      2338      2752      2753
 -1      1157    8    0    1
 -2       517       651       652      2750      2754      2752
 -1      1158    8    0    1
 -2       519       518       653      2341      2755      2756
 -1      1159    8    0    1
 -2       518       652       653      2753      2757      2755
 -1      1160    8    0    1
 -2       520       519       654      2344      2758      2759
 -1      1161    8    0    1
 -2       519       653       654      2756      2760      2758
 -1      1162    8    0    1
 -2       521       520       655      2347      2761      2762
 -1      1163    8    0    1
 -2       520       654       655      2759      2763      2761
 -1      1164    8    0    1
 -2       522       521       656      2350      2764      2765
 -1      1165    8    0    1
 -2       521       655       656      2762      2766      2764
 -1      1166    8    0    1
 -2       523       522       657      2353      2767      2768
 -1      1167    8    0    1
 -2       522       656       657      2765      2769      2767
 -1      1168    8    0    1
 -2       524       523       658      2356      2770      2771
 -1      1169    8    0    1
 -2       523       657       658      2768      2772      2770
 -1      1170    8    0    1
 -2       525       524       659      2359      2773      2774
 -1      1171    8    0    1
 -2       524       658       659      2771      2775      2773
 -1      1172    8    0    1
 -2       526       525       660      2362      2776      2777
 -1      1173    8    0    1
 -2       525       659       660      2774      2778      2776
 -1      1174    8    0    1
 -2       527       526       661      2365      2779      2780
 -1      1175    8    0    1
 -2       526       660       661      2777      2781      2779
 -1      1176    8    0    1
 -2       529       530       662      2373      2782      2783
 -1      1177    8    0    1
 -2       569       572       663      2635      2784      2785
 -1      1178    8    0    1
 -2       569       663       568      2785      2786      2490
 -1      1179    8    0    1
 -2       528       529       664      2370      2787      2788
 -1      1180    8    0    1
 -2       529       662       664      2783      2789      2787
 -1      1181    8    0    1
 -2       531       532       665      2379      2790      2791
 -1      1182    8    0    1
 -2       532       533       666      2382      2792      2793
 -1      1183    8    0    1
 -2       532       666       665      2793      2794      2790
 -1      1184    8    0    1
 -2       533       534       667      2385      2795      2796
 -1      1185    8    0    1
 -2       533       667       666      2796      2797      2792
 -1      1186    8    0    1
 -2       534       535       668      2388      2798      2799
 -1      1187    8    0    1
 -2       534       668       667      2799      2800      2795
 -1      1188    8    0    1
 -2       535       536       669      2391      2801      2802
 -1      1189    8    0    1
 -2       535       669       668      2802      2803      2798
 -1      1190    8    0    1
 -2       536       537       670      2394      2804      2805
 -1      1191    8    0    1
 -2       536       670       669      2805      2806      2801
 -1      1192    8    0    1
 -2       537       538       671      2397      2807      2808
 -1      1193    8    0    1
 -2       537       671       670      2808      2809      2804
 -1      1194    8    0    1
 -2       538       539       672      2400      2810      2811
 -1      1195    8    0    1
 -2       538       672       671      2811      2812      2807
 -1      1196    8    0    1
 -2       539       540       673      2403      2813      2814
 -1      1197    8    0    1
 -2       539       673       672      2814      2815      2810
 -1      1198    8    0    1
 -2       540       541       674      2406      2816      2817
 -1      1199    8    0    1
 -2       540       674       673      2817      2818      2813
 -1      1200    8    0    1
 -2       541       542       675      2409      2819      2820
 -1      1201    8    0    1
 -2       541       675       674      2820      2821      2816
 -1      1202    8    0    1
 -2       542       543       676      2412      2822      2823
 -1      1203    8    0    1
 -2       542       676       675      2823      2824      2819
 -1      1204    8    0    1
 -2       543       544       677      2415      2825      2826
 -1      1205    8    0    1
 -2       543       677       676      2826      2827      2822
 -1      1206    8    0    1
 -2       544       545       678      2418      2828      2829
 -1      1207    8    0    1
 -2       544       678       677      2829      2830      2825
 -1      1208    8    0    1
 -2       545       546       679      2421      2831      2832
 -1      1209    8    0    1
 -2       545       679       678      2832      2833      2828
 -1      1210    8    0    1
 -2       546       547       680      2424      2834      2835
 -1      1211    8    0    1
 -2       546       680       679      2835      2836      2831
 -1      1212    8    0    1
 -2       547       548       681      2427      2837      2838
 -1      1213    8    0    1
 -2       547       681       680      2838      2839      2834
 -1      1214    8    0    1
 -2       548       549       682      2430      2840      2841
 -1      1215    8    0    1
 -2       548       682       681      2841      2842      2837
 -1      1216    8    0    1
 -2       549       550       683      2433      2843      2844
 -1      1217    8    0    1
 -2       549       683       682      2844      2845      2840
 -1      1218    8    0    1
 -2       550       551       684      2436      2846      2847
 -1      1219    8    0    1
 -2       550       684       683      2847      2848      2843
 -1      1220    8    0    1
 -2       551       552       685      2439      2849      2850
 -1      1221    8    0    1
 -2       551       685       684      2850      2851      2846
 -1      1222    8    0    1
 -2       552       553       686      2442      2852      2853
 -1      1223    8    0    1
 -2       552       686       685      2853      2854      2849
 -1      1224    8    0    1
 -2       553       554       687      2445      2855      2856
 -1      1225    8    0    1
 -2       553       687       686      2856      2857      2852
 -1      1226    8    0    1
 -2       554       555       688      2448      2858      2859
 -1      1227    8    0    1
 -2       554       688       687      2859      2860      2855
 -1      1228    8    0    1
 -2       555       556       689      2451      2861      2862
 -1      1229    8    0    1
 -2       555       689       688      2862      2863      2858
 -1      1230    8    0    1
 -2       556       557       690      2454      2864      2865
 -1      1231    8    0    1
 -2       556       690       689      2865      2866      2861
 -1      1232    8    0    1
 -2       557       558       691      2457      2867      2868
 -1      1233    8    0    1
 -2       557       691       690      2868      2869      2864
 -1      1234    8    0    1
 -2       558       559       692      2460      2870      2871
 -1      1235    8    0    1
 -2       558       692       691      2871      2872      2867
 -1      1236    8    0    1
 -2       559       560       693      2463      2873      2874
 -1      1237    8    0    1
 -2       559       693       692      2874      2875      2870
 -1      1238    8    0    1
 -2       561       562       596      2469      2651      2876
 -1      1239    8    0    1
 -2       562       563       595      2472      2637      2652
 -1      1240    8    0    1
 -2       564       565       586      2478      2877      2878
 -1      1241    8    0    1
 -2       566       567       694      2484      2879      2880
 -1      1242    8    0    1
 -2       567       568       695      2487      2881      2882
 -1      1243    8    0    1
 -2       694       567       695      2879      2882      2883
 -1      1244    8    0    1
 -2       568       663       695      2786      2884      2881
 -1      1245    8    0    1
 -2       574       575       696      2508      2885      2886
 -1      1246    8    0    1
 -2       613       527       697      2636      2887      2888
 -1      1247    8    0    1
 -2       527       661       697      2780      2889      2887
 -1      1248    8    0    1
 -2       570       571       698      2496      2890      2891
 -1      1249    8    0    1
 -2       575       576       699      2511      2892      2893
 -1      1250    8    0    1
 -2       575       699       696      2893      2894      2885
 -1      1251    8    0    1
 -2       571       574       700      2505      2895      2896
 -1      1252    8    0    1
 -2       574       696       700      2886      2897      2895
 -1      1253    8    0    1
 -2       587       584       701      2607      2898      2899
 -1      1254    8    0    1
 -2       576       577       702      2514      2900      2901
 -1      1255    8    0    1
 -2       576       702       699      2901      2902      2892
 -1      1256    8    0    1
 -2       577       578       703      2517      2903      2904
 -1      1257    8    0    1
 -2       577       703       702      2904      2905      2900
 -1      1258    8    0    1
 -2       578       579       704      2520      2906      2907
 -1      1259    8    0    1
 -2       578       704       703      2907      2908      2903
 -1      1260    8    0    1
 -2       441       581       705      2525      2909      2910
 -1      1261    8    0    1
 -2       599       600       706      2614      2911      2912
 -1      1262    8    0    1
 -2       584       441       705      2532      2910      2913
 -1      1263    8    0    1
 -2       581       585       707      2536      2914      2915
 -1      1264    8    0    1
 -2       603       604       708      2602      2916      2917
 -1      1265    8    0    1
 -2       600       589       709      2611      2918      2919
 -1      1266    8    0    1
 -2       484       586       710      2612      2920      2921
 -1      1267    8    0    1
 -2       611       484       710      2603      2921      2922
 -1      1268    8    0    1
 -2       586       565       710      2877      2923      2920
 -1      1269    8    0    1
 -2       601       588       711      2608      2924      2925
 -1      1270    8    0    1
 -2       583       528       712      2530      2926      2927
 -1      1271    8    0    1
 -2       528       664       712      2788      2928      2926
 -1      1272    8    0    1
 -2       530       531       713      2376      2929      2930
 -1      1273    8    0    1
 -2       662       530       713      2782      2930      2931
 -1      1274    8    0    1
 -2       531       665       713      2791      2932      2929
 -1      1275    8    0    1
 -2       485       483       714      2239      2933      2934
 -1      1276    8    0    1
 -2       485       714       620      2934      2935      2657
 -1      1277    8    0    1
 -2       482       583       715      2599      2936      2937
 -1      1278    8    0    1
 -2       618       482       715      2649      2937      2938
 -1      1279    8    0    1
 -2       583       712       715      2927      2939      2936
 -1      1280    8    0    1
 -2       605       587       716      2601      2940      2941
 -1      1281    8    0    1
 -2       585       582       717      2613      2942      2943
 -1      1282    8    0    1
 -2       585       717       707      2943      2944      2914
 -1      1283    8    0    1
 -2       478       479       718      2223      2945      2946
 -1      1284    8    0    1
 -2       614       478       718      2639      2946      2947
 -1      1285    8    0    1
 -2       479       616       718      2645      2948      2945
 -1      1286    8    0    1
 -2       588       607       719      2624      2949      2950
 -1      1287    8    0    1
 -2       472       598       720      2626      2951      2952
 -1      1288    8    0    1
 -2       589       593       721      2623      2953      2954
 -1      1289    8    0    1
 -2       593       602       722      2627      2955      2956
 -1      1290    8    0    1
 -2       604       606       723      2629      2957      2958
 -1      1291    8    0    1
 -2       598       599       724      2615      2959      2960
 -1      1292    8    0    1
 -2       475       474       725      2212      2961      2962
 -1      1293    8    0    1
 -2       597       472       726      2628      2963      2964
 -1      1294    8    0    1
 -2       472       720       726      2952      2965      2963
 -1      1295    8    0    1
 -2       602       603       727      2578      2966      2967
 -1      1296    8    0    1
 -2       590       597       728      2622      2968      2969
 -1      1297    8    0    1
 -2       597       726       728      2964      2970      2968
 -1      1298    8    0    1
 -2       608       445       610      2618      2598      2971
 -1      1299    8    0    1
 -2       607       471       729      2630      2972      2973
 -1      1300    8    0    1
 -2       580       613       697      2633      2888      2974
 -1      1301    8    0    1
 -2       582       470       730      2606      2975      2976
 -1      1302    8    0    1
 -2       561       596       731      2876      2977      2978
 -1      1303    8    0    1
 -2       560       561       731      2466      2978      2979
 -1      1304    8    0    1
 -2       596       590       731      2625      2980      2977
 -1      1305    8    0    1
 -2       588       719       711      2950      2981      2924
 -1      1306    8    0    1
 -2       476       615       732      2642      2982      2983
 -1      1307    8    0    1
 -2       476       732       591      2983      2984      2550
 -1      1308    8    0    1
 -2       716       587       701      2940      2899      2985
 -1      1309    8    0    1
 -2       564       586       594      2878      2557      2986
 -1      1310    8    0    1
 -2       606       619       723      2654      2987      2957
 -1      1311    8    0    1
 -2       610       475       733      2596      2988      2989
 -1      1312    8    0    1
 -2       475       725       733      2962      2990      2988
 -1      1313    8    0    1
 -2       481       473       618      2655      2650      2991
 -1      1314    8    0    1
 -2       470       611       730      2605      2992      2975
 -1      1315    8    0    1
 -2       570       698       734      2891      2993      2994
 -1      1316    8    0    1
 -2       564       594       592      2986      2558      2656
 -1      1317    8    0    1
 -2       693       560       731      2873      2979      2995
 -1      1318    8    0    1
 -2       571       700       698      2896      2996      2890
 -1      1319    8    0    1
 -2       566       694       710      2880      2997      2998
 -1      1320    8    0    1
 -2       565       566       710      2481      2998      2923
 -1      1321    8    0    1
 -2       719       607       729      2949      2973      2999
 -1      1322    8    0    1
 -2       582       730       717      2976      3000      2942
 -1      1323    8    0    1
 -2       572       573       663      2501      3001      2784
 -1      1324    8    0    1
 -2       705       581       735      2909      3002      3003
 -1      1325    8    0    1
 -2       579       580       697      2523      2974      3004
 -1      1326    8    0    1
 -2       599       706       736      2912      3005      3006
 -1      1327    8    0    1
 -2       599       736       724      3006      3007      2959
 -1      1328    8    0    1
 -2       584       705       737      2913      3008      3009
 -1      1329    8    0    1
 -2       701       584       737      2898      3009      3010
 -1      1330    8    0    1
 -2       705       735       737      3003      3011      3008
 -1      1331    8    0    1
 -2       603       708       727      2917      3012      2966
 -1      1332    8    0    1
 -2       612       605       738      2621      3013      3014
 -1      1333    8    0    1
 -2       605       716       738      2941      3015      3013
 -1      1334    8    0    1
 -2       600       709       706      2919      3016      2911
 -1      1335    8    0    1
 -2       722       602       727      2955      2967      3017
 -1      1336    8    0    1
 -2       709       589       721      2918      2954      3018
 -1      1337    8    0    1
 -2       708       604       723      2916      2958      3019
 -1      1338    8    0    1
 -2       474       591       739      2549      3020      3021
 -1      1339    8    0    1
 -2       725       474       739      2961      3021      3022
 -1      1340    8    0    1
 -2       591       732       739      2984      3023      3020
 -1      1341    8    0    1
 -2       573       570       734      2502      2994      3024
 -1      1342    8    0    1
 -2       721       593       722      2953      2956      3025
 -1      1343    8    0    1
 -2       471       612       729      2620      3026      2972
 -1      1344    8    0    1
 -2       720       598       740      2951      3027      3028
 -1      1345    8    0    1
 -2       598       724       740      2960      3029      3027
 -1      1346    8    0    1
 -2       619       601       711      2653      2925      3030
 -1      1347    8    0    1
 -2       481       618       617      2991      3031      2646
 -1      1348    8    0    1
 -2       608       610       741      2971      3032      3033
 -1      1349    8    0    1
 -2       483       608       741      2590      3033      3034
 -1      1350    8    0    1
 -2       610       733       741      2989      3035      3032
 -1      1351    8    0    1
 -2       590       728       731      2969      3036      2980
 -1      1352    8    0    1
 -2       483       741       714      3034      3037      2933
 -1      1353    8    0    1
 -2       735       581       707      3002      2915      3038
 -1      1354    8    0    1
 -2       579       697       742      3004      3039      3040
 -1      1355    8    0    1
 -2       704       579       742      2906      3040      3041
 -1      1356    8    0    1
 -2       697       661       742      2889      3042      3039
 -1      1357    8    0    1
 -2       616       617       743      2648      3043      3044
 -1      1358    8    0    1
 -2       573       734       663      3024      3045      3001
 -1      1359    8    0    1
 -2       621       620       744      2661      3046      3047
 -1      1360    8    0    1
 -2       734       698       707      2993      3048      3049
 -1      1361    8    0    1
 -2       622       621       745      2664      3050      3051
 -1      1362    8    0    1
 -2       621       744       745      3047      3052      3050
 -1      1363    8    0    1
 -2       623       622       746      2667      3053      3054
 -1      1364    8    0    1
 -2       622       745       746      3051      3055      3053
 -1      1365    8    0    1
 -2       624       623       747      2670      3056      3057
 -1      1366    8    0    1
 -2       623       746       747      3054      3058      3056
 -1      1367    8    0    1
 -2       625       624       748      2673      3059      3060
 -1      1368    8    0    1
 -2       624       747       748      3057      3061      3059
 -1      1369    8    0    1
 -2       626       625       749      2676      3062      3063
 -1      1370    8    0    1
 -2       625       748       749      3060      3064      3062
 -1      1371    8    0    1
 -2       627       626       750      2679      3065      3066
 -1      1372    8    0    1
 -2       626       749       750      3063      3067      3065
 -1      1373    8    0    1
 -2       628       627       751      2682      3068      3069
 -1      1374    8    0    1
 -2       627       750       751      3066      3070      3068
 -1      1375    8    0    1
 -2       629       628       752      2685      3071      3072
 -1      1376    8    0    1
 -2       628       751       752      3069      3073      3071
 -1      1377    8    0    1
 -2       630       629       753      2688      3074      3075
 -1      1378    8    0    1
 -2       629       752       753      3072      3076      3074
 -1      1379    8    0    1
 -2       631       630       754      2691      3077      3078
 -1      1380    8    0    1
 -2       630       753       754      3075      3079      3077
 -1      1381    8    0    1
 -2       632       631       755      2694      3080      3081
 -1      1382    8    0    1
 -2       631       754       755      3078      3082      3080
 -1      1383    8    0    1
 -2       633       632       756      2697      3083      3084
 -1      1384    8    0    1
 -2       632       755       756      3081      3085      3083
 -1      1385    8    0    1
 -2       634       633       757      2700      3086      3087
 -1      1386    8    0    1
 -2       633       756       757      3084      3088      3086
 -1      1387    8    0    1
 -2       635       634       758      2703      3089      3090
 -1      1388    8    0    1
 -2       634       757       758      3087      3091      3089
 -1      1389    8    0    1
 -2       636       635       759      2706      3092      3093
 -1      1390    8    0    1
 -2       635       758       759      3090      3094      3092
 -1      1391    8    0    1
 -2       637       636       760      2709      3095      3096
 -1      1392    8    0    1
 -2       636       759       760      3093      3097      3095
 -1      1393    8    0    1
 -2       638       637       761      2712      3098      3099
 -1      1394    8    0    1
 -2       637       760       761      3096      3100      3098
 -1      1395    8    0    1
 -2       639       638       762      2715      3101      3102
 -1      1396    8    0    1
 -2       638       761       762      3099      3103      3101
 -1      1397    8    0    1
 -2       640       639       763      2718      3104      3105
 -1      1398    8    0    1
 -2       639       762       763      3102      3106      3104
 -1      1399    8    0    1
 -2       641       640       764      2721      3107      3108
 -1      1400    8    0    1
 -2       640       763       764      3105      3109      3107
 -1      1401    8    0    1
 -2       642       641       765      2724      3110      3111
 -1      1402    8    0    1
 -2       641       764       765      3108      3112      3110
 -1      1403    8    0    1
 -2       643       642       766      2727      3113      3114
 -1      1404    8    0    1
 -2       642       765       766      3111      3115      3113
 -1      1405    8    0    1
 -2       644       643       767      2730      3116      3117
 -1      1406    8    0    1
 -2       643       766       767      3114      3118      3116
 -1      1407    8    0    1
 -2       645       644       768      2733      3119      3120
 -1      1408    8    0    1
 -2       644       767       768      3117      3121      3119
 -1      1409    8    0    1
 -2       646       645       769      2736      3122      3123
 -1      1410    8    0    1
 -2       645       768       769      3120      3124      3122
 -1      1411    8    0    1
 -2       647       646       770      2739      3125      3126
 -1      1412    8    0    1
 -2       646       769       770      3123      3127      3125
 -1      1413    8    0    1
 -2       648       647       771      2742      3128      3129
 -1      1414    8    0    1
 -2       647       770       771      3126      3130      3128
 -1      1415    8    0    1
 -2       649       648       772      2745      3131      3132
 -1      1416    8    0    1
 -2       648       771       772      3129      3133      3131
 -1      1417    8    0    1
 -2       650       649       773      2748      3134      3135
 -1      1418    8    0    1
 -2       649       772       773      3132      3136      3134
 -1      1419    8    0    1
 -2       651       650       774      2751      3137      3138
 -1      1420    8    0    1
 -2       650       773       774      3135      3139      3137
 -1      1421    8    0    1
 -2       652       651       775      2754      3140      3141
 -1      1422    8    0    1
 -2       651       774       775      3138      3142      3140
 -1      1423    8    0    1
 -2       653       652       776      2757      3143      3144
 -1      1424    8    0    1
 -2       652       775       776      3141      3145      3143
 -1      1425    8    0    1
 -2       654       653       777      2760      3146      3147
 -1      1426    8    0    1
 -2       653       776       777      3144      3148      3146
 -1      1427    8    0    1
 -2       655       654       778      2763      3149      3150
 -1      1428    8    0    1
 -2       654       777       778      3147      3151      3149
 -1      1429    8    0    1
 -2       656       655       779      2766      3152      3153
 -1      1430    8    0    1
 -2       655       778       779      3150      3154      3152
 -1      1431    8    0    1
 -2       657       656       780      2769      3155      3156
 -1      1432    8    0    1
 -2       656       779       780      3153      3157      3155
 -1      1433    8    0    1
 -2       658       657       781      2772      3158      3159
 -1      1434    8    0    1
 -2       657       780       781      3156      3160      3158
 -1      1435    8    0    1
 -2       659       658       782      2775      3161      3162
 -1      1436    8    0    1
 -2       658       781       782      3159      3163      3161
 -1      1437    8    0    1
 -2       660       659       783      2778      3164      3165
 -1      1438    8    0    1
 -2       659       782       783      3162      3166      3164
 -1      1439    8    0    1
 -2       661       660       784      2781      3167      3168
 -1      1440    8    0    1
 -2       742       661       784      3042      3168      3169
 -1      1441    8    0    1
 -2       660       783       784      3165      3170      3167
 -1      1442    8    0    1
 -2       664       662       785      2789      3171      3172
 -1      1443    8    0    1
 -2       666       667       786      2797      3173      3174
 -1      1444    8    0    1
 -2       665       666       787      2794      3175      3176
 -1      1445    8    0    1
 -2       666       786       787      3174      3177      3175
 -1      1446    8    0    1
 -2       668       669       788      2803      3178      3179
 -1      1447    8    0    1
 -2       669       670       789      2806      3180      3181
 -1      1448    8    0    1
 -2       669       789       788      3181      3182      3178
 -1      1449    8    0    1
 -2       670       671       790      2809      3183      3184
 -1      1450    8    0    1
 -2       670       790       789      3184      3185      3180
 -1      1451    8    0    1
 -2       671       672       791      2812      3186      3187
 -1      1452    8    0    1
 -2       671       791       790      3187      3188      3183
 -1      1453    8    0    1
 -2       672       673       792      2815      3189      3190
 -1      1454    8    0    1
 -2       672       792       791      3190      3191      3186
 -1      1455    8    0    1
 -2       673       674       793      2818      3192      3193
 -1      1456    8    0    1
 -2       673       793       792      3193      3194      3189
 -1      1457    8    0    1
 -2       674       675       794      2821      3195      3196
 -1      1458    8    0    1
 -2       674       794       793      3196      3197      3192
 -1      1459    8    0    1
 -2       675       676       795      2824      3198      3199
 -1      1460    8    0    1
 -2       675       795       794      3199      3200      3195
 -1      1461    8    0    1
 -2       676       677       796      2827      3201      3202
 -1      1462    8    0    1
 -2       676       796       795      3202      3203      3198
 -1      1463    8    0    1
 -2       677       678       797      2830      3204      3205
 -1      1464    8    0    1
 -2       677       797       796      3205      3206      3201
 -1      1465    8    0    1
 -2       678       679       798      2833      3207      3208
 -1      1466    8    0    1
 -2       678       798       797      3208      3209      3204
 -1      1467    8    0    1
 -2       679       680       799      2836      3210      3211
 -1      1468    8    0    1
 -2       679       799       798      3211      3212      3207
 -1      1469    8    0    1
 -2       680       681       800      2839      3213      3214
 -1      1470    8    0    1
 -2       680       800       799      3214      3215      3210
 -1      1471    8    0    1
 -2       681       682       801      2842      3216      3217
 -1      1472    8    0    1
 -2       681       801       800      3217      3218      3213
 -1      1473    8    0    1
 -2       682       683       802      2845      3219      3220
 -1      1474    8    0    1
 -2       682       802       801      3220      3221      3216
 -1      1475    8    0    1
 -2       683       684       803      2848      3222      3223
 -1      1476    8    0    1
 -2       683       803       802      3223      3224      3219
 -1      1477    8    0    1
 -2       684       685       804      2851      3225      3226
 -1      1478    8    0    1
 -2       684       804       803      3226      3227      3222
 -1      1479    8    0    1
 -2       685       686       805      2854      3228      3229
 -1      1480    8    0    1
 -2       685       805       804      3229      3230      3225
 -1      1481    8    0    1
 -2       686       687       806      2857      3231      3232
 -1      1482    8    0    1
 -2       686       806       805      3232      3233      3228
 -1      1483    8    0    1
 -2       687       688       807      2860      3234      3235
 -1      1484    8    0    1
 -2       687       807       806      3235      3236      3231
 -1      1485    8    0    1
 -2       688       689       808      2863      3237      3238
 -1      1486    8    0    1
 -2       688       808       807      3238      3239      3234
 -1      1487    8    0    1
 -2       689       690       809      2866      3240      3241
 -1      1488    8    0    1
 -2       689       809       808      3241      3242      3237
 -1      1489    8    0    1
 -2       690       691       810      2869      3243      3244
 -1      1490    8    0    1
 -2       690       810       809      3244      3245      3240
 -1      1491    8    0    1
 -2       691       692       811      2872      3246      3247
 -1      1492    8    0    1
 -2       691       811       810      3247      3248      3243
 -1      1493    8    0    1
 -2       703       704       812      2908      3249      3250
 -1      1494    8    0    1
 -2       702       703       813      2905      3251      3252
 -1      1495    8    0    1
 -2       703       812       813      3250      3253      3251
 -1      1496    8    0    1
 -2       710       694       611      2997      3254      2922
 -1      1497    8    0    1
 -2       620       714       814      2935      3255      3256
 -1      1498    8    0    1
 -2       620       814       744      3256      3257      3046
 -1      1499    8    0    1
 -2       696       699       738      2894      3258      3259
 -1      1500    8    0    1
 -2       699       702       738      2902      3260      3258
 -1      1501    8    0    1
 -2       615       614       815      2643      3261      3262
 -1      1502    8    0    1
 -2       726       720       816      2965      3263      3264
 -1      1503    8    0    1
 -2       731       728       693      3036      3265      2995
 -1      1504    8    0    1
 -2       712       664       817      2928      3266      3267
 -1      1505    8    0    1
 -2       664       785       817      3172      3268      3266
 -1      1506    8    0    1
 -2       719       729       818      2999      3269      3270
 -1      1507    8    0    1
 -2       722       727       819      3017      3271      3272
 -1      1508    8    0    1
 -2       706       709       820      3016      3273      3274
 -1      1509    8    0    1
 -2       667       668       821      2800      3275      3276
 -1      1510    8    0    1
 -2       786       667       821      3173      3276      3277
 -1      1511    8    0    1
 -2       668       788       821      3179      3278      3275
 -1      1512    8    0    1
 -2       727       708       822      3012      3279      3280
 -1      1513    8    0    1
 -2       707       717       734      2944      3281      3049
 -1      1514    8    0    1
 -2       709       721       823      3018      3282      3283
 -1      1515    8    0    1
 -2       709       823       820      3283      3284      3273
 -1      1516    8    0    1
 -2       723       619       780      2987      3285      3286
 -1      1517    8    0    1
 -2       708       723       824      3019      3287      3288
 -1      1518    8    0    1
 -2       729       612       825      3026      3289      3290
 -1      1519    8    0    1
 -2       612       738       825      3014      3291      3289
 -1      1520    8    0    1
 -2       619       711       826      3030      3292      3293
 -1      1521    8    0    1
 -2       711       719       827      2981      3294      3295
 -1      1522    8    0    1
 -2       714       741       828      3037      3296      3297
 -1      1523    8    0    1
 -2       741       733       828      3035      3298      3296
 -1      1524    8    0    1
 -2       617       618       829      3031      3299      3300
 -1      1525    8    0    1
 -2       743       617       829      3043      3300      3301
 -1      1526    8    0    1
 -2       618       715       829      2938      3302      3299
 -1      1527    8    0    1
 -2       721       722       830      3025      3303      3304
 -1      1528    8    0    1
 -2       663       734       717      3045      3281      3305
 -1      1529    8    0    1
 -2       611       694       730      3254      3306      2992
 -1      1530    8    0    1
 -2       693       728       831      3265      3307      3308
 -1      1531    8    0    1
 -2       692       693       831      2875      3308      3309
 -1      1532    8    0    1
 -2       728       726       831      2970      3310      3307
 -1      1533    8    0    1
 -2       730       694       695      3306      2883      3311
 -1      1534    8    0    1
 -2       732       615       832      2982      3312      3313
 -1      1535    8    0    1
 -2       615       815       832      3262      3314      3312
 -1      1536    8    0    1
 -2       692       831       811      3309      3315      3246
 -1      1537    8    0    1
 -2       733       725       833      2990      3316      3317
 -1      1538    8    0    1
 -2       733       833       828      3317      3318      3298
 -1      1539    8    0    1
 -2       721       830       823      3304      3319      3282
 -1      1540    8    0    1
 -2       719       818       827      3270      3320      3294
 -1      1541    8    0    1
 -2       822       708       824      3279      3288      3321
 -1      1542    8    0    1
 -2       735       707       698      3038      3048      3322
 -1      1543    8    0    1
 -2       727       822       819      3280      3323      3271
 -1      1544    8    0    1
 -2       665       787       834      3176      3324      3325
 -1      1545    8    0    1
 -2       665       834       713      3325      3326      2932
 -1      1546    8    0    1
 -2       831       726       816      3310      3264      3327
 -1      1547    8    0    1
 -2       816       720       740      3263      3028      3328
 -1      1548    8    0    1
 -2       814       714       828      3255      3297      3329
 -1      1549    8    0    1
 -2       616       743       835      3044      3330      3331
 -1      1550    8    0    1
 -2       616       835       718      3331      3332      2948
 -1      1551    8    0    1
 -2       662       713       836      2931      3333      3334
 -1      1552    8    0    1
 -2       713       834       836      3326      3335      3333
 -1      1553    8    0    1
 -2       700       696       701      2897      3336      3337
 -1      1554    8    0    1
 -2       785       662       836      3171      3334      3338
 -1      1555    8    0    1
 -2       815       614       837      3261      3339      3340
 -1      1556    8    0    1
 -2       614       718       837      2947      3341      3339
 -1      1557    8    0    1
 -2       704       742       838      3041      3342      3343
 -1      1558    8    0    1
 -2       812       704       838      3249      3343      3344
 -1      1559    8    0    1
 -2       742       784       838      3169      3345      3342
 -1      1560    8    0    1
 -2       830       722       819      3303      3272      3346
 -1      1561    8    0    1
 -2       736       706       839      3005      3347      3348
 -1      1562    8    0    1
 -2       706       820       839      3274      3349      3347
 -1      1563    8    0    1
 -2       730       695       663      3311      2884      3350
 -1      1564    8    0    1
 -2       716       701       696      2985      3336      3351
 -1      1565    8    0    1
 -2       818       729       825      3269      3290      3352
 -1      1566    8    0    1
 -2       730       663       717      3350      3305      3000
 -1      1567    8    0    1
 -2       735       698       700      3322      2996      3353
 -1      1568    8    0    1
 -2       833       725       840      3316      3354      3355
 -1      1569    8    0    1
 -2       725       739       840      3022      3356      3354
 -1      1570    8    0    1
 -2       715       712       841      2939      3357      3358
 -1      1571    8    0    1
 -2       829       715       841      3302      3358      3359
 -1      1572    8    0    1
 -2       712       817       841      3267      3360      3357
 -1      1573    8    0    1
 -2       740       724       842      3029      3361      3362
 -1      1574    8    0    1
 -2       724       736       842      3007      3363      3361
 -1      1575    8    0    1
 -2       826       711       827      3292      3295      3364
 -1      1576    8    0    1
 -2       735       700       737      3353      3365      3011
 -1      1577    8    0    1
 -2       820       823       843      3284      3366      3367
 -1      1578    8    0    1
 -2       746       745       844      3055      3368      3369
 -1      1579    8    0    1
 -2       747       746       845      3058      3370      3371
 -1      1580    8    0    1
 -2       746       844       845      3369      3372      3370
 -1      1581    8    0    1
 -2       748       747       846      3061      3373      3374
 -1      1582    8    0    1
 -2       747       845       846      3371      3375      3373
 -1      1583    8    0    1
 -2       749       748       847      3064      3376      3377
 -1      1584    8    0    1
 -2       748       846       847      3374      3378      3376
 -1      1585    8    0    1
 -2       750       749       848      3067      3379      3380
 -1      1586    8    0    1
 -2       749       847       848      3377      3381      3379
 -1      1587    8    0    1
 -2       751       750       849      3070      3382      3383
 -1      1588    8    0    1
 -2       750       848       849      3380      3384      3382
 -1      1589    8    0    1
 -2       752       751       850      3073      3385      3386
 -1      1590    8    0    1
 -2       751       849       850      3383      3387      3385
 -1      1591    8    0    1
 -2       753       752       851      3076      3388      3389
 -1      1592    8    0    1
 -2       752       850       851      3386      3390      3388
 -1      1593    8    0    1
 -2       754       753       852      3079      3391      3392
 -1      1594    8    0    1
 -2       753       851       852      3389      3393      3391
 -1      1595    8    0    1
 -2       755       754       853      3082      3394      3395
 -1      1596    8    0    1
 -2       754       852       853      3392      3396      3394
 -1      1597    8    0    1
 -2       756       755       854      3085      3397      3398
 -1      1598    8    0    1
 -2       755       853       854      3395      3399      3397
 -1      1599    8    0    1
 -2       757       756       855      3088      3400      3401
 -1      1600    8    0    1
 -2       756       854       855      3398      3402      3400
 -1      1601    8    0    1
 -2       758       757       856      3091      3403      3404
 -1      1602    8    0    1
 -2       757       855       856      3401      3405      3403
 -1      1603    8    0    1
 -2       759       758       857      3094      3406      3407
 -1      1604    8    0    1
 -2       758       856       857      3404      3408      3406
 -1      1605    8    0    1
 -2       760       759       858      3097      3409      3410
 -1      1606    8    0    1
 -2       759       857       858      3407      3411      3409
 -1      1607    8    0    1
 -2       761       760       859      3100      3412      3413
 -1      1608    8    0    1
 -2       760       858       859      3410      3414      3412
 -1      1609    8    0    1
 -2       762       761       860      3103      3415      3416
 -1      1610    8    0    1
 -2       761       859       860      3413      3417      3415
 -1      1611    8    0    1
 -2       763       762       861      3106      3418      3419
 -1      1612    8    0    1
 -2       762       860       861      3416      3420      3418
 -1      1613    8    0    1
 -2       764       763       862      3109      3421      3422
 -1      1614    8    0    1
 -2       763       861       862      3419      3423      3421
 -1      1615    8    0    1
 -2       765       764       863      3112      3424      3425
 -1      1616    8    0    1
 -2       764       862       863      3422      3426      3424
 -1      1617    8    0    1
 -2       766       765       864      3115      3427      3428
 -1      1618    8    0    1
 -2       765       863       864      3425      3429      3427
 -1      1619    8    0    1
 -2       767       766       865      3118      3430      3431
 -1      1620    8    0    1
 -2       766       864       865      3428      3432      3430
 -1      1621    8    0    1
 -2       768       767       866      3121      3433      3434
 -1      1622    8    0    1
 -2       767       865       866      3431      3435      3433
 -1      1623    8    0    1
 -2       769       768       867      3124      3436      3437
 -1      1624    8    0    1
 -2       768       866       867      3434      3438      3436
 -1      1625    8    0    1
 -2       770       769       868      3127      3439      3440
 -1      1626    8    0    1
 -2       769       867       868      3437      3441      3439
 -1      1627    8    0    1
 -2       771       770       869      3130      3442      3443
 -1      1628    8    0    1
 -2       770       868       869      3440      3444      3442
 -1      1629    8    0    1
 -2       772       771       870      3133      3445      3446
 -1      1630    8    0    1
 -2       771       869       870      3443      3447      3445
 -1      1631    8    0    1
 -2       773       772       871      3136      3448      3449
 -1      1632    8    0    1
 -2       772       870       871      3446      3450      3448
 -1      1633    8    0    1
 -2       774       773       872      3139      3451      3452
 -1      1634    8    0    1
 -2       773       871       872      3449      3453      3451
 -1      1635    8    0    1
 -2       775       774       873      3142      3454      3455
 -1      1636    8    0    1
 -2       774       872       873      3452      3456      3454
 -1      1637    8    0    1
 -2       776       775       874      3145      3457      3458
 -1      1638    8    0    1
 -2       775       873       874      3455      3459      3457
 -1      1639    8    0    1
 -2       777       776       875      3148      3460      3461
 -1      1640    8    0    1
 -2       776       874       875      3458      3462      3460
 -1      1641    8    0    1
 -2       779       778       824      3154      3463      3464
 -1      1642    8    0    1
 -2       781       780       826      3160      3465      3466
 -1      1643    8    0    1
 -2       782       781       827      3163      3467      3468
 -1      1644    8    0    1
 -2       783       782       827      3166      3468      3469
 -1      1645    8    0    1
 -2       789       790       876      3185      3470      3471
 -1      1646    8    0    1
 -2       788       789       877      3182      3472      3473
 -1      1647    8    0    1
 -2       789       876       877      3471      3474      3472
 -1      1648    8    0    1
 -2       791       792       878      3191      3475      3476
 -1      1649    8    0    1
 -2       792       793       879      3194      3477      3478
 -1      1650    8    0    1
 -2       792       879       878      3478      3479      3475
 -1      1651    8    0    1
 -2       793       794       880      3197      3480      3481
 -1      1652    8    0    1
 -2       793       880       879      3481      3482      3477
 -1      1653    8    0    1
 -2       794       795       881      3200      3483      3484
 -1      1654    8    0    1
 -2       794       881       880      3484      3485      3480
 -1      1655    8    0    1
 -2       795       796       882      3203      3486      3487
 -1      1656    8    0    1
 -2       795       882       881      3487      3488      3483
 -1      1657    8    0    1
 -2       796       797       883      3206      3489      3490
 -1      1658    8    0    1
 -2       796       883       882      3490      3491      3486
 -1      1659    8    0    1
 -2       797       798       884      3209      3492      3493
 -1      1660    8    0    1
 -2       797       884       883      3493      3494      3489
 -1      1661    8    0    1
 -2       798       799       885      3212      3495      3496
 -1      1662    8    0    1
 -2       798       885       884      3496      3497      3492
 -1      1663    8    0    1
 -2       799       800       886      3215      3498      3499
 -1      1664    8    0    1
 -2       799       886       885      3499      3500      3495
 -1      1665    8    0    1
 -2       800       801       887      3218      3501      3502
 -1      1666    8    0    1
 -2       800       887       886      3502      3503      3498
 -1      1667    8    0    1
 -2       801       802       888      3221      3504      3505
 -1      1668    8    0    1
 -2       801       888       887      3505      3506      3501
 -1      1669    8    0    1
 -2       802       803       889      3224      3507      3508
 -1      1670    8    0    1
 -2       802       889       888      3508      3509      3504
 -1      1671    8    0    1
 -2       803       804       890      3227      3510      3511
 -1      1672    8    0    1
 -2       803       890       889      3511      3512      3507
 -1      1673    8    0    1
 -2       804       805       891      3230      3513      3514
 -1      1674    8    0    1
 -2       804       891       890      3514      3515      3510
 -1      1675    8    0    1
 -2       805       806       892      3233      3516      3517
 -1      1676    8    0    1
 -2       805       892       891      3517      3518      3513
 -1      1677    8    0    1
 -2       806       807       893      3236      3519      3520
 -1      1678    8    0    1
 -2       806       893       892      3520      3521      3516
 -1      1679    8    0    1
 -2       807       808       894      3239      3522      3523
 -1      1680    8    0    1
 -2       807       894       893      3523      3524      3519
 -1      1681    8    0    1
 -2       808       809       895      3242      3525      3526
 -1      1682    8    0    1
 -2       808       895       894      3526      3527      3522
 -1      1683    8    0    1
 -2       809       810       896      3245      3528      3529
 -1      1684    8    0    1
 -2       809       896       895      3529      3530      3525
 -1      1685    8    0    1
 -2       810       811       897      3248      3531      3532
 -1      1686    8    0    1
 -2       810       897       896      3532      3533      3528
 -1      1687    8    0    1
 -2       828       833       898      3318      3534      3535
 -1      1688    8    0    1
 -2       828       898       814      3535      3536      3329
 -1      1689    8    0    1
 -2       702       813       738      3252      3537      3260
 -1      1690    8    0    1
 -2       811       831       816      3315      3327      3538
 -1      1691    8    0    1
 -2       811       816       899      3538      3539      3540
 -1      1692    8    0    1
 -2       897       811       899      3531      3540      3541
 -1      1693    8    0    1
 -2       816       740       899      3328      3542      3539
 -1      1694    8    0    1
 -2       785       836       900      3338      3543      3544
 -1      1695    8    0    1
 -2       819       822       875      3323      3545      3546
 -1      1696    8    0    1
 -2       822       824       778      3321      3463      3547
 -1      1697    8    0    1
 -2       817       785       901      3268      3548      3549
 -1      1698    8    0    1
 -2       785       900       901      3544      3550      3548
 -1      1699    8    0    1
 -2       744       814       898      3257      3536      3551
 -1      1700    8    0    1
 -2       739       732       902      3023      3552      3553
 -1      1701    8    0    1
 -2       840       739       902      3356      3553      3554
 -1      1702    8    0    1
 -2       732       832       902      3313      3555      3552
 -1      1703    8    0    1
 -2       824       723       779      3287      3556      3464
 -1      1704    8    0    1
 -2       823       830       903      3319      3557      3558
 -1      1705    8    0    1
 -2       826       780       619      3465      3285      3293
 -1      1706    8    0    1
 -2       830       819       904      3346      3559      3560
 -1      1707    8    0    1
 -2       827       818       783      3320      3561      3469
 -1      1708    8    0    1
 -2       723       780       779      3286      3157      3556
 -1      1709    8    0    1
 -2       700       701       737      3337      3010      3365
 -1      1710    8    0    1
 -2       787       786       905      3177      3562      3563
 -1      1711    8    0    1
 -2       790       791       906      3188      3564      3565
 -1      1712    8    0    1
 -2       876       790       906      3470      3565      3566
 -1      1713    8    0    1
 -2       791       878       906      3476      3567      3564
 -1      1714    8    0    1
 -2       745       744       907      3052      3568      3569
 -1      1715    8    0    1
 -2       745       907       844      3569      3570      3368
 -1      1716    8    0    1
 -2       822       778       777      3547      3151      3571
 -1      1717    8    0    1
 -2       822       777       875      3571      3461      3545
 -1      1718    8    0    1
 -2       841       817       908      3360      3572      3573
 -1      1719    8    0    1
 -2       817       901       908      3549      3574      3572
 -1      1720    8    0    1
 -2       823       903       843      3558      3575      3366
 -1      1721    8    0    1
 -2       781       826       827      3466      3364      3467
 -1      1722    8    0    1
 -2       907       744       898      3568      3551      3576
 -1      1723    8    0    1
 -2       834       787       909      3324      3577      3578
 -1      1724    8    0    1
 -2       787       905       909      3563      3579      3577
 -1      1725    8    0    1
 -2       788       877       910      3473      3580      3581
 -1      1726    8    0    1
 -2       788       910       821      3581      3582      3278
 -1      1727    8    0    1
 -2       900       836       911      3543      3583      3584
 -1      1728    8    0    1
 -2       836       834       911      3335      3585      3583
 -1      1729    8    0    1
 -2       898       833       912      3534      3586      3587
 -1      1730    8    0    1
 -2       833       840       912      3355      3588      3586
 -1      1731    8    0    1
 -2       835       743       913      3330      3589      3590
 -1      1732    8    0    1
 -2       899       740       842      3542      3362      3591
 -1      1733    8    0    1
 -2       819       875       904      3546      3592      3559
 -1      1734    8    0    1
 -2       837       718       835      3341      3332      3593
 -1      1735    8    0    1
 -2       839       820       843      3349      3367      3594
 -1      1736    8    0    1
 -2       905       786       914      3562      3595      3596
 -1      1737    8    0    1
 -2       786       821       914      3277      3597      3595
 -1      1738    8    0    1
 -2       736       839       915      3348      3598      3599
 -1      1739    8    0    1
 -2       736       915       842      3599      3600      3363
 -1      1740    8    0    1
 -2       903       830       904      3557      3560      3601
 -1      1741    8    0    1
 -2       783       818       812      3561      3602      3603
 -1      1742    8    0    1
 -2       832       815       916      3314      3604      3605
 -1      1743    8    0    1
 -2       815       837       917      3340      3606      3607
 -1      1744    8    0    1
 -2       815       917       916      3607      3608      3604
 -1      1745    8    0    1
 -2       813       812       818      3253      3602      3609
 -1      1746    8    0    1
 -2       716       696       738      3351      3259      3015
 -1      1747    8    0    1
 -2       846       845       918      3375      3610      3611
 -1      1748    8    0    1
 -2       847       846       919      3378      3612      3613
 -1      1749    8    0    1
 -2       846       918       919      3611      3614      3612
 -1      1750    8    0    1
 -2       848       847       920      3381      3615      3616
 -1      1751    8    0    1
 -2       847       919       920      3613      3617      3615
 -1      1752    8    0    1
 -2       849       848       921      3384      3618      3619
 -1      1753    8    0    1
 -2       848       920       921      3616      3620      3618
 -1      1754    8    0    1
 -2       850       849       922      3387      3621      3622
 -1      1755    8    0    1
 -2       849       921       922      3619      3623      3621
 -1      1756    8    0    1
 -2       851       850       923      3390      3624      3625
 -1      1757    8    0    1
 -2       850       922       923      3622      3626      3624
 -1      1758    8    0    1
 -2       852       851       924      3393      3627      3628
 -1      1759    8    0    1
 -2       851       923       924      3625      3629      3627
 -1      1760    8    0    1
 -2       853       852       925      3396      3630      3631
 -1      1761    8    0    1
 -2       852       924       925      3628      3632      3630
 -1      1762    8    0    1
 -2       854       853       926      3399      3633      3634
 -1      1763    8    0    1
 -2       853       925       926      3631      3635      3633
 -1      1764    8    0    1
 -2       855       854       927      3402      3636      3637
 -1      1765    8    0    1
 -2       854       926       927      3634      3638      3636
 -1      1766    8    0    1
 -2       856       855       928      3405      3639      3640
 -1      1767    8    0    1
 -2       855       927       928      3637      3641      3639
 -1      1768    8    0    1
 -2       857       856       929      3408      3642      3643
 -1      1769    8    0    1
 -2       856       928       929      3640      3644      3642
 -1      1770    8    0    1
 -2       858       857       930      3411      3645      3646
 -1      1771    8    0    1
 -2       857       929       930      3643      3647      3645
 -1      1772    8    0    1
 -2       859       858       931      3414      3648      3649
 -1      1773    8    0    1
 -2       858       930       931      3646      3650      3648
 -1      1774    8    0    1
 -2       860       859       932      3417      3651      3652
 -1      1775    8    0    1
 -2       859       931       932      3649      3653      3651
 -1      1776    8    0    1
 -2       861       860       933      3420      3654      3655
 -1      1777    8    0    1
 -2       860       932       933      3652      3656      3654
 -1      1778    8    0    1
 -2       862       861       934      3423      3657      3658
 -1      1779    8    0    1
 -2       861       933       934      3655      3659      3657
 -1      1780    8    0    1
 -2       863       862       935      3426      3660      3661
 -1      1781    8    0    1
 -2       862       934       935      3658      3662      3660
 -1      1782    8    0    1
 -2       864       863       936      3429      3663      3664
 -1      1783    8    0    1
 -2       863       935       936      3661      3665      3663
 -1      1784    8    0    1
 -2       865       864       937      3432      3666      3667
 -1      1785    8    0    1
 -2       864       936       937      3664      3668      3666
 -1      1786    8    0    1
 -2       866       865       938      3435      3669      3670
 -1      1787    8    0    1
 -2       865       937       938      3667      3671      3669
 -1      1788    8    0    1
 -2       867       866       939      3438      3672      3673
 -1      1789    8    0    1
 -2       866       938       939      3670      3674      3672
 -1      1790    8    0    1
 -2       868       867       940      3441      3675      3676
 -1      1791    8    0    1
 -2       867       939       940      3673      3677      3675
 -1      1792    8    0    1
 -2       869       868       941      3444      3678      3679
 -1      1793    8    0    1
 -2       868       940       941      3676      3680      3678
 -1      1794    8    0    1
 -2       870       869       942      3447      3681      3682
 -1      1795    8    0    1
 -2       869       941       942      3679      3683      3681
 -1      1796    8    0    1
 -2       871       870       943      3450      3684      3685
 -1      1797    8    0    1
 -2       870       942       943      3682      3686      3684
 -1      1798    8    0    1
 -2       872       871       944      3453      3687      3688
 -1      1799    8    0    1
 -2       871       943       944      3685      3689      3687
 -1      1800    8    0    1
 -2       873       872       945      3456      3690      3691
 -1      1801    8    0    1
 -2       872       944       945      3688      3692      3690
 -1      1802    8    0    1
 -2       875       874       904      3462      3693      3592
 -1      1803    8    0    1
 -2       843       903       946      3575      3694      3695
 -1      1804    8    0    1
 -2       844       907       947      3570      3696      3697
 -1      1805    8    0    1
 -2       784       783       838      3170      3698      3345
 -1      1806    8    0    1
 -2       879       880       948      3482      3699      3700
 -1      1807    8    0    1
 -2       878       879       949      3479      3701      3702
 -1      1808    8    0    1
 -2       879       948       949      3700      3703      3701
 -1      1809    8    0    1
 -2       881       882       950      3488      3704      3705
 -1      1810    8    0    1
 -2       882       883       951      3491      3706      3707
 -1      1811    8    0    1
 -2       882       951       950      3707      3708      3704
 -1      1812    8    0    1
 -2       883       884       952      3494      3709      3710
 -1      1813    8    0    1
 -2       883       952       951      3710      3711      3706
 -1      1814    8    0    1
 -2       884       885       953      3497      3712      3713
 -1      1815    8    0    1
 -2       884       953       952      3713      3714      3709
 -1      1816    8    0    1
 -2       885       886       954      3500      3715      3716
 -1      1817    8    0    1
 -2       885       954       953      3716      3717      3712
 -1      1818    8    0    1
 -2       886       887       955      3503      3718      3719
 -1      1819    8    0    1
 -2       886       955       954      3719      3720      3715
 -1      1820    8    0    1
 -2       887       888       956      3506      3721      3722
 -1      1821    8    0    1
 -2       887       956       955      3722      3723      3718
 -1      1822    8    0    1
 -2       888       889       957      3509      3724      3725
 -1      1823    8    0    1
 -2       888       957       956      3725      3726      3721
 -1      1824    8    0    1
 -2       889       890       958      3512      3727      3728
 -1      1825    8    0    1
 -2       889       958       957      3728      3729      3724
 -1      1826    8    0    1
 -2       890       891       959      3515      3730      3731
 -1      1827    8    0    1
 -2       890       959       958      3731      3732      3727
 -1      1828    8    0    1
 -2       891       892       960      3518      3733      3734
 -1      1829    8    0    1
 -2       891       960       959      3734      3735      3730
 -1      1830    8    0    1
 -2       892       893       961      3521      3736      3737
 -1      1831    8    0    1
 -2       892       961       960      3737      3738      3733
 -1      1832    8    0    1
 -2       893       894       962      3524      3739      3740
 -1      1833    8    0    1
 -2       893       962       961      3740      3741      3736
 -1      1834    8    0    1
 -2       894       895       963      3527      3742      3743
 -1      1835    8    0    1
 -2       894       963       962      3743      3744      3739
 -1      1836    8    0    1
 -2       895       896       964      3530      3745      3746
 -1      1837    8    0    1
 -2       895       964       963      3746      3747      3742
 -1      1838    8    0    1
 -2       896       897       965      3533      3748      3749
 -1      1839    8    0    1
 -2       896       965       964      3749      3750      3745
 -1      1840    8    0    1
 -2       913       743       841      3589      3751      3752
 -1      1841    8    0    1
 -2       899       842       966      3591      3753      3754
 -1      1842    8    0    1
 -2       897       899       966      3541      3754      3755
 -1      1843    8    0    1
 -2       842       915       966      3600      3756      3753
 -1      1844    8    0    1
 -2       818       825       813      3352      3757      3609
 -1      1845    8    0    1
 -2       901       900       967      3550      3758      3759
 -1      1846    8    0    1
 -2       904       874       968      3693      3760      3761
 -1      1847    8    0    1
 -2       903       904       968      3601      3761      3762
 -1      1848    8    0    1
 -2       874       873       968      3459      3763      3760
 -1      1849    8    0    1
 -2       877       876       969      3474      3764      3765
 -1      1850    8    0    1
 -2       913       841       908      3752      3573      3766
 -1      1851    8    0    1
 -2       841       743       829      3751      3301      3359
 -1      1852    8    0    1
 -2       813       825       738      3757      3291      3537
 -1      1853    8    0    1
 -2       832       916       970      3605      3767      3768
 -1      1854    8    0    1
 -2       845       844       971      3372      3769      3770
 -1      1855    8    0    1
 -2       844       947       971      3697      3771      3769
 -1      1856    8    0    1
 -2       837       835       972      3593      3772      3773
 -1      1857    8    0    1
 -2       917       837       972      3606      3773      3774
 -1      1858    8    0    1
 -2       835       913       972      3590      3775      3772
 -1      1859    8    0    1
 -2       880       881       973      3485      3776      3777
 -1      1860    8    0    1
 -2       881       950       973      3705      3778      3776
 -1      1861    8    0    1
 -2       839       843       974      3594      3779      3780
 -1      1862    8    0    1
 -2       907       898       975      3576      3781      3782
 -1      1863    8    0    1
 -2       947       907       975      3696      3782      3783
 -1      1864    8    0    1
 -2       898       912       975      3587      3784      3781
 -1      1865    8    0    1
 -2       918       845       971      3610      3770      3785
 -1      1866    8    0    1
 -2       908       901       976      3574      3786      3787
 -1      1867    8    0    1
 -2       901       967       976      3759      3788      3786
 -1      1868    8    0    1
 -2       873       945       968      3691      3789      3763
 -1      1869    8    0    1
 -2       877       969       977      3765      3790      3791
 -1      1870    8    0    1
 -2       877       977       910      3791      3792      3580
 -1      1871    8    0    1
 -2       946       903       968      3694      3762      3793
 -1      1872    8    0    1
 -2       909       905       978      3579      3794      3795
 -1      1873    8    0    1
 -2       948       880       973      3699      3777      3796
 -1      1874    8    0    1
 -2       911       834       909      3585      3578      3797
 -1      1875    8    0    1
 -2       878       949       979      3702      3798      3799
 -1      1876    8    0    1
 -2       878       979       906      3799      3800      3567
 -1      1877    8    0    1
 -2       965       897       966      3748      3755      3801
 -1      1878    8    0    1
 -2       912       840       980      3588      3802      3803
 -1      1879    8    0    1
 -2       975       912       980      3784      3803      3804
 -1      1880    8    0    1
 -2       840       902       980      3554      3805      3802
 -1      1881    8    0    1
 -2       967       900       981      3758      3806      3807
 -1      1882    8    0    1
 -2       900       911       981      3584      3808      3806
 -1      1883    8    0    1
 -2       839       974       915      3780      3809      3598
 -1      1884    8    0    1
 -2       914       821       910      3597      3582      3810
 -1      1885    8    0    1
 -2       905       914       982      3596      3811      3812
 -1      1886    8    0    1
 -2       905       982       978      3812      3813      3794
 -1      1887    8    0    1
 -2       902       832       970      3555      3768      3814
 -1      1888    8    0    1
 -2       913       908       983      3766      3815      3816
 -1      1889    8    0    1
 -2       972       913       983      3775      3816      3817
 -1      1890    8    0    1
 -2       908       976       983      3787      3818      3815
 -1      1891    8    0    1
 -2       970       916       984      3767      3819      3820
 -1      1892    8    0    1
 -2       916       917       985      3608      3821      3822
 -1      1893    8    0    1
 -2       916       985       984      3822      3823      3819
 -1      1894    8    0    1
 -2       974       843       986      3779      3824      3825
 -1      1895    8    0    1
 -2       843       946       986      3695      3826      3824
 -1      1896    8    0    1
 -2       876       906       987      3566      3827      3828
 -1      1897    8    0    1
 -2       906       979       987      3800      3829      3827
 -1      1898    8    0    1
 -2       969       876       987      3764      3828      3830
 -1      1899    8    0    1
 -2       920       919       988      3617      3831      3832
 -1      1900    8    0    1
 -2       921       920       989      3620      3833      3834
 -1      1901    8    0    1
 -2       920       988       989      3832      3835      3833
 -1      1902    8    0    1
 -2       922       921       990      3623      3836      3837
 -1      1903    8    0    1
 -2       921       989       990      3834      3838      3836
 -1      1904    8    0    1
 -2       923       922       991      3626      3839      3840
 -1      1905    8    0    1
 -2       922       990       991      3837      3841      3839
 -1      1906    8    0    1
 -2       924       923       992      3629      3842      3843
 -1      1907    8    0    1
 -2       923       991       992      3840      3844      3842
 -1      1908    8    0    1
 -2       925       924       993      3632      3845      3846
 -1      1909    8    0    1
 -2       924       992       993      3843      3847      3845
 -1      1910    8    0    1
 -2       926       925       994      3635      3848      3849
 -1      1911    8    0    1
 -2       925       993       994      3846      3850      3848
 -1      1912    8    0    1
 -2       927       926       995      3638      3851      3852
 -1      1913    8    0    1
 -2       926       994       995      3849      3853      3851
 -1      1914    8    0    1
 -2       928       927       996      3641      3854      3855
 -1      1915    8    0    1
 -2       927       995       996      3852      3856      3854
 -1      1916    8    0    1
 -2       929       928       997      3644      3857      3858
 -1      1917    8    0    1
 -2       928       996       997      3855      3859      3857
 -1      1918    8    0    1
 -2       930       929       998      3647      3860      3861
 -1      1919    8    0    1
 -2       929       997       998      3858      3862      3860
 -1      1920    8    0    1
 -2       931       930       999      3650      3863      3864
 -1      1921    8    0    1
 -2       930       998       999      3861      3865      3863
 -1      1922    8    0    1
 -2       932       931      1000      3653      3866      3867
 -1      1923    8    0    1
 -2       931       999      1000      3864      3868      3866
 -1      1924    8    0    1
 -2       933       932      1001      3656      3869      3870
 -1      1925    8    0    1
 -2       932      1000      1001      3867      3871      3869
 -1      1926    8    0    1
 -2       934       933      1002      3659      3872      3873
 -1      1927    8    0    1
 -2       933      1001      1002      3870      3874      3872
 -1      1928    8    0    1
 -2       935       934      1003      3662      3875      3876
 -1      1929    8    0    1
 -2       934      1002      1003      3873      3877      3875
 -1      1930    8    0    1
 -2       936       935      1004      3665      3878      3879
 -1      1931    8    0    1
 -2       935      1003      1004      3876      3880      3878
 -1      1932    8    0    1
 -2       937       936      1005      3668      3881      3882
 -1      1933    8    0    1
 -2       936      1004      1005      3879      3883      3881
 -1      1934    8    0    1
 -2       938       937      1006      3671      3884      3885
 -1      1935    8    0    1
 -2       937      1005      1006      3882      3886      3884
 -1      1936    8    0    1
 -2       939       938      1007      3674      3887      3888
 -1      1937    8    0    1
 -2       938      1006      1007      3885      3889      3887
 -1      1938    8    0    1
 -2       940       939      1008      3677      3890      3891
 -1      1939    8    0    1
 -2       939      1007      1008      3888      3892      3890
 -1      1940    8    0    1
 -2       941       940      1009      3680      3893      3894
 -1      1941    8    0    1
 -2       940      1008      1009      3891      3895      3893
 -1      1942    8    0    1
 -2       942       941      1010      3683      3896      3897
 -1      1943    8    0    1
 -2       941      1009      1010      3894      3898      3896
 -1      1944    8    0    1
 -2       943       942      1011      3686      3899      3900
 -1      1945    8    0    1
 -2       942      1010      1011      3897      3901      3899
 -1      1946    8    0    1
 -2       944       943      1012      3689      3902      3903
 -1      1947    8    0    1
 -2       943      1011      1012      3900      3904      3902
 -1      1948    8    0    1
 -2       902       970       980      3814      3905      3805
 -1      1949    8    0    1
 -2       917       972      1013      3774      3906      3907
 -1      1950    8    0    1
 -2       985       917      1013      3821      3907      3908
 -1      1951    8    0    1
 -2       972       983      1013      3817      3909      3906
 -1      1952    8    0    1
 -2       948       973      1014      3796      3910      3911
 -1      1953    8    0    1
 -2       946       968       945      3793      3789      3912
 -1      1954    8    0    1
 -2       951       952      1015      3711      3913      3914
 -1      1955    8    0    1
 -2       950       951      1016      3708      3915      3916
 -1      1956    8    0    1
 -2       951      1015      1016      3914      3917      3915
 -1      1957    8    0    1
 -2       953       954      1017      3717      3918      3919
 -1      1958    8    0    1
 -2       954       955      1018      3720      3920      3921
 -1      1959    8    0    1
 -2       954      1018      1017      3921      3922      3918
 -1      1960    8    0    1
 -2       955       956      1019      3723      3923      3924
 -1      1961    8    0    1
 -2       955      1019      1018      3924      3925      3920
 -1      1962    8    0    1
 -2       956       957      1020      3726      3926      3927
 -1      1963    8    0    1
 -2       956      1020      1019      3927      3928      3923
 -1      1964    8    0    1
 -2       957       958      1021      3729      3929      3930
 -1      1965    8    0    1
 -2       957      1021      1020      3930      3931      3926
 -1      1966    8    0    1
 -2       958       959      1022      3732      3932      3933
 -1      1967    8    0    1
 -2       958      1022      1021      3933      3934      3929
 -1      1968    8    0    1
 -2       959       960      1023      3735      3935      3936
 -1      1969    8    0    1
 -2       959      1023      1022      3936      3937      3932
 -1      1970    8    0    1
 -2       960       961      1024      3738      3938      3939
 -1      1971    8    0    1
 -2       960      1024      1023      3939      3940      3935
 -1      1972    8    0    1
 -2       961       962      1025      3741      3941      3942
 -1      1973    8    0    1
 -2       961      1025      1024      3942      3943      3938
 -1      1974    8    0    1
 -2       962       963      1026      3744      3944      3945
 -1      1975    8    0    1
 -2       962      1026      1025      3945      3946      3941
 -1      1976    8    0    1
 -2       963       964      1027      3747      3947      3948
 -1      1977    8    0    1
 -2       963      1027      1026      3948      3949      3944
 -1      1978    8    0    1
 -2       964       965      1028      3750      3950      3951
 -1      1979    8    0    1
 -2       964      1028      1027      3951      3952      3947
 -1      1980    8    0    1
 -2       918       971      1029      3785      3953      3954
 -1      1981    8    0    1
 -2       973       950      1030      3778      3955      3956
 -1      1982    8    0    1
 -2       973      1030      1014      3956      3957      3910
 -1      1983    8    0    1
 -2       969       987      1031      3830      3958      3959
 -1      1984    8    0    1
 -2       914       910      1032      3810      3960      3961
 -1      1985    8    0    1
 -2       982       914      1032      3811      3961      3962
 -1      1986    8    0    1
 -2       910       977      1032      3792      3963      3960
 -1      1987    8    0    1
 -2       971       947      1033      3771      3964      3965
 -1      1988    8    0    1
 -2       971      1033      1029      3965      3966      3953
 -1      1989    8    0    1
 -2       949       948      1034      3703      3967      3968
 -1      1990    8    0    1
 -2       948      1014      1034      3911      3969      3967
 -1      1991    8    0    1
 -2       915       974      1028      3809      3970      3971
 -1      1992    8    0    1
 -2       970       984      1035      3820      3972      3973
 -1      1993    8    0    1
 -2       966       915       965      3756      3974      3801
 -1      1994    8    0    1
 -2       952       953      1036      3714      3975      3976
 -1      1995    8    0    1
 -2       952      1036      1015      3976      3977      3913
 -1      1996    8    0    1
 -2       783       812       838      3603      3344      3698
 -1      1997    8    0    1
 -2       919       918      1037      3614      3978      3979
 -1      1998    8    0    1
 -2       918      1029      1037      3954      3980      3978
 -1      1999    8    0    1
 -2       911       909      1038      3797      3981      3982
 -1      2000    8    0    1
 -2       909       978      1038      3795      3983      3981
 -1      2001    8    0    1
 -2       946       945      1039      3912      3984      3985
 -1      2002    8    0    1
 -2       986       946      1039      3826      3985      3986
 -1      2003    8    0    1
 -2       945       944      1039      3692      3987      3984
 -1      2004    8    0    1
 -2       965       915      1028      3974      3971      3950
 -1      2005    8    0    1
 -2       977       969      1040      3790      3988      3989
 -1      2006    8    0    1
 -2       969      1031      1040      3959      3990      3988
 -1      2007    8    0    1
 -2       980       970      1035      3905      3973      3991
 -1      2008    8    0    1
 -2       919      1037       988      3979      3992      3831
 -1      2009    8    0    1
 -2       979       949      1041      3798      3993      3994
 -1      2010    8    0    1
 -2       949      1034      1041      3968      3995      3993
 -1      2011    8    0    1
 -2       950      1016      1030      3916      3996      3955
 -1      2012    8    0    1
 -2       911      1038       981      3982      3997      3808
 -1      2013    8    0    1
 -2       967       981      1042      3807      3998      3999
 -1      2014    8    0    1
 -2      1031       987      1043      3958      4000      4001
 -1      2015    8    0    1
 -2       987       979      1043      3829      4002      4000
 -1      2016    8    0    1
 -2      1033       947      1035      3964      4003      4004
 -1      2017    8    0    1
 -2      1035       984      1044      3972      4005      4006
 -1      2018    8    0    1
 -2      1035      1044      1033      4006      4007      4004
 -1      2019    8    0    1
 -2       953      1017      1036      3919      4008      3975
 -1      2020    8    0    1
 -2      1028       974      1045      3970      4009      4010
 -1      2021    8    0    1
 -2      1027      1028      1045      3952      4010      4011
 -1      2022    8    0    1
 -2       974       986      1045      3825      4012      4009
 -1      2023    8    0    1
 -2       984       985      1046      3823      4013      4014
 -1      2024    8    0    1
 -2       984      1046      1044      4014      4015      4005
 -1      2025    8    0    1
 -2       967      1042      1047      3999      4016      4017
 -1      2026    8    0    1
 -2       978       982      1048      3813      4018      4019
 -1      2027    8    0    1
 -2       944      1012      1039      3903      4020      3987
 -1      2028    8    0    1
 -2      1038       978      1049      3983      4021      4022
 -1      2029    8    0    1
 -2       978      1048      1049      4019      4023      4021
 -1      2030    8    0    1
 -2       967      1047       976      4017      4024      3788
 -1      2031    8    0    1
 -2       990       989      1050      3838      4025      4026
 -1      2032    8    0    1
 -2       991       990      1051      3841      4027      4028
 -1      2033    8    0    1
 -2       990      1050      1051      4026      4029      4027
 -1      2034    8    0    1
 -2       992       991      1052      3844      4030      4031
 -1      2035    8    0    1
 -2       991      1051      1052      4028      4032      4030
 -1      2036    8    0    1
 -2       993       992      1053      3847      4033      4034
 -1      2037    8    0    1
 -2       992      1052      1053      4031      4035      4033
 -1      2038    8    0    1
 -2       994       993      1054      3850      4036      4037
 -1      2039    8    0    1
 -2       993      1053      1054      4034      4038      4036
 -1      2040    8    0    1
 -2       995       994      1055      3853      4039      4040
 -1      2041    8    0    1
 -2       994      1054      1055      4037      4041      4039
 -1      2042    8    0    1
 -2       996       995      1056      3856      4042      4043
 -1      2043    8    0    1
 -2       995      1055      1056      4040      4044      4042
 -1      2044    8    0    1
 -2       997       996      1057      3859      4045      4046
 -1      2045    8    0    1
 -2       996      1056      1057      4043      4047      4045
 -1      2046    8    0    1
 -2       998       997      1058      3862      4048      4049
 -1      2047    8    0    1
 -2       997      1057      1058      4046      4050      4048
 -1      2048    8    0    1
 -2       999       998      1059      3865      4051      4052
 -1      2049    8    0    1
 -2       998      1058      1059      4049      4053      4051
 -1      2050    8    0    1
 -2      1000       999      1060      3868      4054      4055
 -1      2051    8    0    1
 -2       999      1059      1060      4052      4056      4054
 -1      2052    8    0    1
 -2      1001      1000      1061      3871      4057      4058
 -1      2053    8    0    1
 -2      1000      1060      1061      4055      4059      4057
 -1      2054    8    0    1
 -2      1002      1001      1062      3874      4060      4061
 -1      2055    8    0    1
 -2      1001      1061      1062      4058      4062      4060
 -1      2056    8    0    1
 -2      1003      1002      1063      3877      4063      4064
 -1      2057    8    0    1
 -2      1002      1062      1063      4061      4065      4063
 -1      2058    8    0    1
 -2      1004      1003      1064      3880      4066      4067
 -1      2059    8    0    1
 -2      1003      1063      1064      4064      4068      4066
 -1      2060    8    0    1
 -2      1005      1004      1065      3883      4069      4070
 -1      2061    8    0    1
 -2      1004      1064      1065      4067      4071      4069
 -1      2062    8    0    1
 -2      1006      1005      1066      3886      4072      4073
 -1      2063    8    0    1
 -2      1005      1065      1066      4070      4074      4072
 -1      2064    8    0    1
 -2      1007      1006      1067      3889      4075      4076
 -1      2065    8    0    1
 -2      1006      1066      1067      4073      4077      4075
 -1      2066    8    0    1
 -2      1008      1007      1068      3892      4078      4079
 -1      2067    8    0    1
 -2      1007      1067      1068      4076      4080      4078
 -1      2068    8    0    1
 -2      1009      1008      1069      3895      4081      4082
 -1      2069    8    0    1
 -2      1008      1068      1069      4079      4083      4081
 -1      2070    8    0    1
 -2      1010      1009      1070      3898      4084      4085
 -1      2071    8    0    1
 -2      1009      1069      1070      4082      4086      4084
 -1      2072    8    0    1
 -2      1011      1010      1071      3901      4087      4088
 -1      2073    8    0    1
 -2      1010      1070      1071      4085      4089      4087
 -1      2074    8    0    1
 -2      1012      1011      1072      3904      4090      4091
 -1      2075    8    0    1
 -2      1011      1071      1072      4088      4092      4090
 -1      2076    8    0    1
 -2      1019      1020      1073      3928      4093      4094
 -1      2077    8    0    1
 -2      1016      1015      1074      3917      4095      4096
 -1      2078    8    0    1
 -2      1018      1019      1075      3925      4097      4098
 -1      2079    8    0    1
 -2      1019      1073      1075      4094      4099      4097
 -1      2080    8    0    1
 -2      1017      1018      1076      3922      4100      4101
 -1      2081    8    0    1
 -2      1018      1075      1076      4098      4102      4100
 -1      2082    8    0    1
 -2      1020      1021      1077      3931      4103      4104
 -1      2083    8    0    1
 -2      1020      1077      1073      4104      4105      4093
 -1      2084    8    0    1
 -2      1021      1022      1078      3934      4106      4107
 -1      2085    8    0    1
 -2      1021      1078      1077      4107      4108      4103
 -1      2086    8    0    1
 -2      1022      1023      1079      3937      4109      4110
 -1      2087    8    0    1
 -2      1022      1079      1078      4110      4111      4106
 -1      2088    8    0    1
 -2      1023      1024      1080      3940      4112      4113
 -1      2089    8    0    1
 -2      1023      1080      1079      4113      4114      4109
 -1      2090    8    0    1
 -2      1024      1025      1081      3943      4115      4116
 -1      2091    8    0    1
 -2      1024      1081      1080      4116      4117      4112
 -1      2092    8    0    1
 -2      1025      1026      1082      3946      4118      4119
 -1      2093    8    0    1
 -2      1025      1082      1081      4119      4120      4115
 -1      2094    8    0    1
 -2      1026      1027      1083      3949      4121      4122
 -1      2095    8    0    1
 -2      1026      1083      1082      4122      4123      4118
 -1      2096    8    0    1
 -2      1030      1016      1084      3996      4124      4125
 -1      2097    8    0    1
 -2      1016      1074      1084      4096      4126      4124
 -1      2098    8    0    1
 -2       975       980      1035      3804      3991      4127
 -1      2099    8    0    1
 -2      1014      1030      1085      3957      4128      4129
 -1      2100    8    0    1
 -2      1030      1084      1085      4125      4130      4128
 -1      2101    8    0    1
 -2      1035       947       975      4003      3783      4127
 -1      2102    8    0    1
 -2      1033      1044      1029      4007      4131      3966
 -1      2103    8    0    1
 -2       981      1038      1086      3997      4132      4133
 -1      2104    8    0    1
 -2       981      1086      1042      4133      4134      3998
 -1      2105    8    0    1
 -2       986      1039      1087      3986      4135      4136
 -1      2106    8    0    1
 -2      1045       986      1087      4012      4136      4137
 -1      2107    8    0    1
 -2      1039      1012      1087      4020      4138      4135
 -1      2108    8    0    1
 -2      1037      1029      1088      3980      4139      4140
 -1      2109    8    0    1
 -2       983       976      1013      3818      4141      3909
 -1      2110    8    0    1
 -2      1034      1014      1089      3969      4142      4143
 -1      2111    8    0    1
 -2      1014      1085      1089      4129      4144      4142
 -1      2112    8    0    1
 -2      1048       982      1090      4018      4145      4146
 -1      2113    8    0    1
 -2       982      1032      1090      3962      4147      4145
 -1      2114    8    0    1
 -2       988      1037      1091      3992      4148      4149
 -1      2115    8    0    1
 -2      1037      1088      1091      4140      4150      4148
 -1      2116    8    0    1
 -2       976      1047      1013      4024      4151      4141
 -1      2117    8    0    1
 -2      1015      1036      1092      3977      4152      4153
 -1      2118    8    0    1
 -2      1015      1092      1074      4153      4154      4095
 -1      2119    8    0    1
 -2      1036      1017      1093      4008      4155      4156
 -1      2120    8    0    1
 -2      1092      1036      1093      4152      4156      4157
 -1      2121    8    0    1
 -2      1017      1076      1093      4101      4158      4155
 -1      2122    8    0    1
 -2       989       988      1094      3835      4159      4160
 -1      2123    8    0    1
 -2      1050       989      1094      4025      4160      4161
 -1      2124    8    0    1
 -2       988      1091      1094      4149      4162      4159
 -1      2125    8    0    1
 -2      1029      1044      1088      4131      4163      4139
 -1      2126    8    0    1
 -2      1012      1072      1087      4091      4164      4138
 -1      2127    8    0    1
 -2      1034      1089      1095      4143      4165      4166
 -1      2128    8    0    1
 -2      1034      1095      1041      4166      4167      3995
 -1      2129    8    0    1
 -2      1043       979      1041      4002      3994      4168
 -1      2130    8    0    1
 -2      1083      1027      1045      4121      4011      4169
 -1      2131    8    0    1
 -2       977      1040      1096      3989      4170      4171
 -1      2132    8    0    1
 -2       977      1096      1032      4171      4172      3963
 -1      2133    8    0    1
 -2       985      1013      1047      3908      4151      4173
 -1      2134    8    0    1
 -2      1031      1043      1097      4001      4174      4175
 -1      2135    8    0    1
 -2       985      1047      1046      4173      4176      4013
 -1      2136    8    0    1
 -2      1046      1047      1042      4176      4016      4177
 -1      2137    8    0    1
 -2      1086      1038      1049      4132      4022      4178
 -1      2138    8    0    1
 -2      1088      1044      1098      4163      4179      4180
 -1      2139    8    0    1
 -2      1044      1046      1098      4015      4181      4179
 -1      2140    8    0    1
 -2      1048      1090      1099      4146      4182      4183
 -1      2141    8    0    1
 -2      1042      1086      1098      4134      4184      4185
 -1      2142    8    0    1
 -2      1048      1099      1100      4183      4186      4187
 -1      2143    8    0    1
 -2      1048      1100      1049      4187      4188      4023
 -1      2144    8    0    1
 -2      1031      1097      1101      4175      4189      4190
 -1      2145    8    0    1
 -2      1031      1101      1040      4190      4191      3990
 -1      2146    8    0    1
 -2      1046      1042      1098      4177      4185      4181
 -1      2147    8    0    1
 -2      1075      1073      1064      4099      4192      4193
 -1      2148    8    0    1
 -2      1052      1051      1102      4032      4194      4195
 -1      2149    8    0    1
 -2      1053      1052      1101      4035      4196      4197
 -1      2150    8    0    1
 -2      1054      1053      1097      4038      4198      4199
 -1      2151    8    0    1
 -2      1056      1055      1103      4044      4200      4201
 -1      2152    8    0    1
 -2      1057      1056      1089      4047      4202      4203
 -1      2153    8    0    1
 -2      1058      1057      1085      4050      4204      4205
 -1      2154    8    0    1
 -2      1059      1058      1084      4053      4206      4207
 -1      2155    8    0    1
 -2      1060      1059      1074      4056      4208      4209
 -1      2156    8    0    1
 -2      1061      1060      1092      4059      4210      4211
 -1      2157    8    0    1
 -2      1062      1061      1093      4062      4212      4213
 -1      2158    8    0    1
 -2      1063      1062      1076      4065      4214      4215
 -1      2159    8    0    1
 -2      1064      1063      1075      4068      4216      4193
 -1      2160    8    0    1
 -2      1065      1064      1073      4071      4192      4217
 -1      2161    8    0    1
 -2      1066      1065      1077      4074      4218      4219
 -1      2162    8    0    1
 -2      1067      1066      1078      4077      4220      4221
 -1      2163    8    0    1
 -2      1068      1067      1079      4080      4222      4223
 -1      2164    8    0    1
 -2      1069      1068      1080      4083      4224      4225
 -1      2165    8    0    1
 -2      1070      1069      1081      4086      4226      4227
 -1      2166    8    0    1
 -2      1071      1070      1082      4089      4228      4229
 -1      2167    8    0    1
 -2      1072      1071      1083      4092      4230      4231
 -1      2168    8    0    1
 -2      1077      1078      1066      4108      4220      4219
 -1      2169    8    0    1
 -2      1084      1058      1085      4206      4205      4130
 -1      2170    8    0    1
 -2      1085      1057      1089      4204      4203      4144
 -1      2171    8    0    1
 -2      1073      1077      1065      4105      4218      4217
 -1      2172    8    0    1
 -2      1043      1041      1104      4168      4232      4233
 -1      2173    8    0    1
 -2      1041      1095      1104      4167      4234      4232
 -1      2174    8    0    1
 -2      1074      1059      1084      4208      4207      4126
 -1      2175    8    0    1
 -2      1076      1075      1063      4102      4216      4215
 -1      2176    8    0    1
 -2      1078      1079      1067      4111      4222      4221
 -1      2177    8    0    1
 -2      1079      1080      1068      4114      4224      4223
 -1      2178    8    0    1
 -2      1080      1081      1069      4117      4226      4225
 -1      2179    8    0    1
 -2      1081      1082      1070      4120      4228      4227
 -1      2180    8    0    1
 -2      1082      1083      1071      4123      4230      4229
 -1      2181    8    0    1
 -2      1045      1087      1083      4137      4235      4169
 -1      2182    8    0    1
 -2      1097      1043      1104      4174      4233      4236
 -1      2183    8    0    1
 -2      1099      1090      1105      4182      4237      4238
 -1      2184    8    0    1
 -2      1074      1092      1060      4154      4210      4209
 -1      2185    8    0    1
 -2      1090      1032      1096      4147      4172      4239
 -1      2186    8    0    1
 -2      1091      1088      1098      4150      4180      4240
 -1      2187    8    0    1
 -2      1086      1049      1106      4178      4241      4242
 -1      2188    8    0    1
 -2      1098      1086      1106      4184      4242      4243
 -1      2189    8    0    1
 -2      1049      1100      1106      4188      4244      4241
 -1      2190    8    0    1
 -2      1076      1062      1093      4214      4213      4158
 -1      2191    8    0    1
 -2      1091      1098      1106      4240      4243      4245
 -1      2192    8    0    1
 -2      1097      1053      1101      4198      4197      4189
 -1      2193    8    0    1
 -2      1051      1050      1105      4029      4246      4247
 -1      2194    8    0    1
 -2      1054      1097      1104      4199      4236      4248
 -1      2195    8    0    1
 -2      1061      1092      1093      4211      4157      4212
 -1      2196    8    0    1
 -2      1052      1102      1101      4195      4249      4196
 -1      2197    8    0    1
 -2      1050      1094      1099      4161      4250      4251
 -1      2198    8    0    1
 -2      1105      1050      1099      4246      4251      4238
 -1      2199    8    0    1
 -2      1055      1054      1104      4041      4248      4252
 -1      2200    8    0    1
 -2      1090      1096      1105      4239      4253      4237
 -1      2201    8    0    1
 -2      1083      1087      1072      4235      4164      4231
 -1      2202    8    0    1
 -2      1089      1056      1103      4202      4201      4254
 -1      2203    8    0    1
 -2      1102      1051      1105      4194      4247      4255
 -1      2204    8    0    1
 -2      1100      1099      1094      4186      4250      4256
 -1      2205    8    0    1
 -2      1094      1091      1100      4162      4257      4256
 -1      2206    8    0    1
 -2      1040      1101      1102      4191      4249      4258
 -1      2207    8    0    1
 -2      1100      1091      1106      4257      4245      4244
 -1      2208    8    0    1
 -2      1102      1105      1096      4255      4253      4259
 -1      2209    8    0    1
 -2      1096      1040      1102      4170      4258      4259
 -1      2210    8    0    1
 -2      1103      1055      1104      4200      4252      4260
 -1      2211    8    0    1
 -2      1095      1089      1103      4165      4254      4261
 -1      2212    8    0    1
 -2      1104      1095      1103      4234      4261      4260
 -3
    1PSTEP                         1           1           1          
  100CL  101 1.000000000        4261                     0    1           1
 -4  DISP        4    1
 -5  D1          1    2    1    0
 -5  D2          1    2    2    0
 -5  D3          1    2    3    0
 -5  ALL         1    2    0    0    1ALL
 -1         1 1.24786E-02-4.52462E-04-1.03288E-13
 -1         2 1.49708E-02 6.08490E-04-1.13676E-13
 -1         3 1.50673E-02 8.16079E-04-1.40874E-13
 -1         4 1.40791E-02 3.07102E-04-1.35695E-13
 -1         5 0.00000E+00 0.00000E+00 0.00000E+00
 -1         6 0.00000E+00 0.00000E+00 0.00000E+00
 -1         7 0.00000E+00 0.00000E+00 0.00000E+00
 -1         8 0.00000E+00 0.00000E+00 0.00000E+00
 -1         9 0.00000E+00 0.00000E+00 0.00000E+00
 -1        10 0.00000E+00 0.00000E+00 0.00000E+00
 -1        11 0.00000E+00 0.00000E+00 0.00000E+00
 -1        12 0.00000E+00 0.00000E+00 0.00000E+00
 -1        13 0.00000E+00 0.00000E+00 0.00000E+00
 -1        14 0.00000E+00 0.00000E+00 0.00000E+00
 -1        15 0.00000E+00 0.00000E+00 0.00000E+00
 -1        16 0.00000E+00 0.00000E+00 0.00000E+00
 -1        17 0.00000E+00 0.00000E+00 0.00000E+00
 -1        18 0.00000E+00 0.00000E+00 0.00000E+00
 -1        19 0.00000E+00 0.00000E+00 0.00000E+00
 -1        20 0.00000E+00 0.00000E+00 0.00000E+00
 -1        21 0.00000E+00 0.00000E+00 0.00000E+00
 -1        22 0.00000E+00 0.00000E+00 0.00000E+00
 -1        23 4.11413E-04-2.60740E-04 6.53977E-17
 -1        24 7.03435E-04-4.00988E-04-2.09420E-17
 -1        25 9.73548E-04-4.98376E-04-2.58355E-16
 -1        26 1.23809E-03-5.67139E-04-6.47306E-16
 -1        27 1.50167E-03-6.16422E-04-1.18530E-15
 -1        28 1.76640E-03-6.51614E-04-1.87079E-15
 -1        29 2.03322E-03-6.76428E-04-2.70098E-15
 -1        30 2.30251E-03-6.93565E-04-3.67463E-15
 -1        31 2.57430E-03-7.05048E-04-4.79115E-15
 -1        32 2.84846E-03-7.12409E-04-6.04845E-15
 -1        33 3.12475E-03-7.16806E-04-7.44442E-15
 -1        34 3.40290E-03-7.19104E-04-8.97196E-15
 -1        35 3.68262E-03-7.19942E-04-1.06318E-14
 -1        36 3.96363E-03-7.19778E-04-1.24205E-14
 -1        37 4.24568E-03-7.18928E-04-1.43364E-14
 -1        38 4.52857E-03-7.17598E-04-1.63765E-14
 -1        39 4.81211E-03-7.15910E-04-1.85416E-14
 -1        40 5.09620E-03-7.13918E-04-2.08275E-14
 -1        41 5.38073E-03-7.11630E-04-2.32255E-14
 -1        42 5.66569E-03-7.09021E-04-2.57275E-14
 -1        43 5.95109E-03-7.06041E-04-2.83363E-14
 -1        44 6.23702E-03-7.02639E-04-3.10467E-14
 -1        45 6.52363E-03-6.98770E-04-3.38566E-14
 -1        46 6.81115E-03-6.94423E-04-3.67710E-14
 -1        47 7.09989E-03-6.89641E-04-3.97821E-14
 -1        48 7.39025E-03-6.84561E-04-4.28784E-14
 -1        49 7.68273E-03-6.79453E-04-4.60629E-14
 -1        50 7.97789E-03-6.74773E-04-4.93362E-14
 -1        51 8.27633E-03-6.71218E-04-5.26933E-14
 -1        52 8.57863E-03-6.69786E-04-5.61318E-14
 -1        53 8.88520E-03-6.71808E-04-5.96491E-14
 -1        54 9.19617E-03-6.78938E-04-6.32348E-14
 -1        55 9.51103E-03-6.93047E-04-6.68804E-14
 -1        56 9.82847E-03-7.15957E-04-7.05664E-14
 -1        57 1.01460E-02-7.48949E-04-7.43051E-14
 -1        58 1.04597E-02-7.92007E-04-7.80954E-14
 -1        59 1.07648E-02-8.42863E-04-8.19286E-14
 -1        60 1.10558E-02-8.96117E-04-8.57996E-14
 -1        61 1.13285E-02-9.42949E-04-8.97238E-14
 -1        62 1.15814E-02-9.71997E-04-9.37020E-14
 -1        63 1.18168E-02-9.71678E-04-9.77363E-14
 -1        64 1.20414E-02-9.33367E-04-1.01815E-13
 -1        65 1.22638E-02-8.54024E-04-1.05948E-13
 -1        66 1.24924E-02-7.36831E-04-1.10133E-13
 -1        67 1.27324E-02-5.89509E-04-1.14368E-13
 -1        68 1.29855E-02-4.21380E-04-1.18635E-13
 -1        69 1.32507E-02-2.40870E-04-1.22923E-13
 -1        70 1.35257E-02-5.45662E-05-1.27232E-13
 -1        71 1.38079E-02 1.32382E-04-1.31563E-13
 -1        72 4.13858E-04 2.61445E-04 4.75050E-17
 -1        73 7.03258E-04 4.03694E-04-7.53893E-17
 -1        74 9.74084E-04 5.00147E-04-3.61544E-16
 -1        75 1.23892E-03 5.68849E-04-8.10312E-16
 -1        76 1.50263E-03 6.18182E-04-1.41925E-15
 -1        77 1.76743E-03 6.53466E-04-2.18531E-15
 -1        78 2.03429E-03 6.78392E-04-3.10433E-15
 -1        79 2.30359E-03 6.95651E-04-4.17089E-15
 -1        80 2.57540E-03 7.07262E-04-5.38549E-15
 -1        81 2.84957E-03 7.14755E-04-6.74455E-15
 -1        82 3.12587E-03 7.19285E-04-8.24536E-15
 -1        83 3.40402E-03 7.21718E-04-9.88226E-15
 -1        84 3.68374E-03 7.22692E-04-1.16504E-14
 -1        85 3.96474E-03 7.22663E-04-1.35434E-14
 -1        86 4.24679E-03 7.21947E-04-1.55640E-14
 -1        87 4.52966E-03 7.20749E-04-1.77108E-14
 -1        88 4.81318E-03 7.19187E-04-1.99804E-14
 -1        89 5.09723E-03 7.17312E-04-2.23709E-14
 -1        90 5.38172E-03 7.15124E-04-2.48768E-14
 -1        91 5.66661E-03 7.12581E-04-2.75001E-14
 -1        92 5.95192E-03 7.09617E-04-3.02392E-14
 -1        93 6.23775E-03 7.06144E-04-3.30894E-14
 -1        94 6.52424E-03 7.02069E-04-3.60427E-14
 -1        95 6.81166E-03 6.97309E-04-3.90859E-14
 -1        96 7.10038E-03 6.91806E-04-4.22079E-14
 -1        97 7.39093E-03 6.85559E-04-4.54172E-14
 -1        98 7.68402E-03 6.78669E-04-4.87107E-14
 -1        99 7.98063E-03 6.71399E-04-5.20891E-14
 -1       100 8.28203E-03 6.64275E-04-5.55420E-14
 -1       101 8.58991E-03 6.58237E-04-5.90649E-14
 -1       102 8.90638E-03 6.54859E-04-6.26476E-14
 -1       103 9.23409E-03 6.56678E-04-6.62950E-14
 -1       104 9.57606E-03 6.67648E-04-7.00028E-14
 -1       105 9.93536E-03 6.93684E-04-7.37722E-14
 -1       106 1.03142E-02 7.43138E-04-7.76134E-14
 -1       107 1.07122E-02 8.26681E-04-8.15271E-14
 -1       108 1.11233E-02 9.55466E-04-8.55007E-14
 -1       109 1.15327E-02 1.13584E-03-8.95324E-14
 -1       110 1.19163E-02 1.35964E-03-9.36211E-14
 -1       111 1.22481E-02 1.59398E-03-9.77670E-14
 -1       112 1.25170E-02 1.78232E-03-1.01974E-13
 -1       113 1.27420E-02 1.86876E-03-1.06234E-13
 -1       114 1.29657E-02 1.83374E-03-1.10547E-13
 -1       115 1.32256E-02 1.70648E-03-1.14892E-13
 -1       116 1.35296E-02 1.54026E-03-1.19242E-13
 -1       117 1.38597E-02 1.37735E-03-1.23600E-13
 -1       118 1.41902E-02 1.23291E-03-1.27974E-13
 -1       119 1.45035E-02 1.09957E-03-1.32350E-13
 -1       120 1.47968E-02 9.60795E-04-1.36725E-13
 -1       121 1.52228E-02 7.30967E-04-1.40627E-13
 -1       122 1.53933E-02 6.54936E-04-1.40380E-13
 -1       123 1.55740E-02 6.04552E-04-1.40115E-13
 -1       124 1.57466E-02 5.92518E-04-1.39860E-13
 -1       125 1.58840E-02 6.23886E-04-1.39593E-13
 -1       126 1.59562E-02 6.90249E-04-1.39327E-13
 -1       127 1.59446E-02 7.74047E-04-1.39065E-13
 -1       128 1.58443E-02 8.47370E-04-1.38798E-13
 -1       129 1.56724E-02 8.87078E-04-1.38533E-13
 -1       130 1.54577E-02 8.82398E-04-1.38246E-13
 -1       131 1.52291E-02 8.36100E-04-1.37946E-13
 -1       132 1.50104E-02 7.61163E-04-1.37636E-13
 -1       133 1.48035E-02 6.68766E-04-1.37292E-13
 -1       134 1.46125E-02 5.71885E-04-1.36881E-13
 -1       135 1.44323E-02 4.78150E-04-1.36479E-13
 -1       136 1.42553E-02 3.90194E-04-1.36078E-13
 -1       137 1.49256E-02 8.19395E-04-1.13588E-13
 -1       138 1.47788E-02 1.00632E-03-1.13089E-13
 -1       139 1.45333E-02 1.18005E-03-1.12184E-13
 -1       140 1.41554E-02 1.34599E-03-1.10739E-13
 -1       141 1.36853E-02 1.47106E-03-1.08887E-13
 -1       142 1.32100E-02 1.53353E-03-1.07000E-13
 -1       143 1.26839E-02 1.54198E-03-1.04873E-13
 -1       144 1.21500E-02 1.48786E-03-1.02685E-13
 -1       145 1.16662E-02 1.38402E-03-1.00678E-13
 -1       146 1.12128E-02 1.23293E-03-9.87575E-14
 -1       147 1.08363E-02 1.05731E-03-9.71283E-14
 -1       148 1.05453E-02 8.68974E-04-9.58283E-14
 -1       149 1.03224E-02 6.54257E-04-9.47895E-14
 -1       150 1.02200E-02 4.60374E-04-9.42583E-14
 -1       151 1.02136E-02 2.62794E-04-9.41285E-14
 -1       152 1.03008E-02 9.07745E-05-9.44138E-14
 -1       153 1.04894E-02-7.57529E-05-9.51234E-14
 -1       154 1.07520E-02-2.12893E-04-9.61637E-14
 -1       155 1.10767E-02-3.20986E-04-9.74868E-14
 -1       156 1.15197E-02-4.09762E-04-9.93233E-14
 -1       157 1.19828E-02-4.51864E-04-1.01233E-13
 -1       158 1.29956E-02-4.07491E-04-1.05418E-13
 -1       159 1.35098E-02-3.14716E-04-1.07543E-13
 -1       160 1.39560E-02-1.89483E-04-1.09385E-13
 -1       161 1.43828E-02-1.23582E-05-1.11143E-13
 -1       162 1.46814E-02 1.72642E-04-1.12383E-13
 -1       163 1.48836E-02 3.78613E-04-1.13252E-13
 -1       164 2.40424E-04-1.25510E-04-1.63918E-17
 -1       165 2.25287E-04-9.46070E-05-4.21484E-17
 -1       166 2.19525E-04-7.27631E-05-5.74559E-17
 -1       167 2.16706E-04-5.50946E-05-6.67835E-17
 -1       168 2.15212E-04-3.99567E-05-7.22146E-17
 -1       169 2.14372E-04-2.59069E-05-7.54435E-17
 -1       170 2.13950E-04-1.26397E-05-7.73443E-17
 -1       171 2.13827E-04 2.72844E-07-7.86385E-17
 -1       172 2.13969E-04 1.31980E-05-7.90519E-17
 -1       173 2.14413E-04 2.65051E-05-7.85708E-17
 -1       174 2.15261E-04 4.03822E-05-7.69377E-17
 -1       175 2.16815E-04 5.59006E-05-7.34310E-17
 -1       176 2.19677E-04 7.38030E-05-6.65768E-17
 -1       177 2.25457E-04 9.60064E-05-5.37764E-17
 -1       178 2.39355E-04 1.27589E-04-2.98969E-17
 -1       179 2.97735E-04 1.85498E-04-5.38035E-18
 -1       180 4.68668E-04-2.63546E-04-4.83080E-17
 -1       181 7.66843E-04-3.82142E-04-2.47340E-16
 -1       182 1.05073E-03-4.65037E-04-5.89406E-16
 -1       183 1.32816E-03-5.23829E-04-1.07689E-15
 -1       184 1.60280E-03-5.65545E-04-1.70889E-15
 -1       185 1.87673E-03-5.94879E-04-2.48457E-15
 -1       186 2.15109E-03-6.15134E-04-3.40242E-15
 -1       187 2.42646E-03-6.28741E-04-4.46054E-15
 -1       188 2.70310E-03-6.37513E-04-5.65766E-15
 -1       189 2.98108E-03-6.42816E-04-6.99373E-15
 -1       190 3.26034E-03-6.45670E-04-8.46235E-15
 -1       191 3.54077E-03-6.46826E-04-1.00626E-14
 -1       192 3.82222E-03-6.46827E-04-1.17935E-14
 -1       193 4.10454E-03-6.46051E-04-1.36503E-14
 -1       194 4.38759E-03-6.44748E-04-1.56330E-14
 -1       195 4.67124E-03-6.43073E-04-1.77385E-14
 -1       196 4.95541E-03-6.41101E-04-1.99637E-14
 -1       197 5.24002E-03-6.38851E-04-2.23050E-14
 -1       198 5.52504E-03-6.36302E-04-2.47562E-14
 -1       199 5.81049E-03-6.33402E-04-2.73108E-14
 -1       200 6.09641E-03-6.30085E-04-2.99705E-14
 -1       201 6.38291E-03-6.26285E-04-3.27308E-14
 -1       202 6.67014E-03-6.21954E-04-3.55938E-14
 -1       203 6.95832E-03-6.17085E-04-3.85563E-14
 -1       204 7.24773E-03-6.11744E-04-4.16082E-14
 -1       205 7.53870E-03-6.06108E-04-4.47482E-14
 -1       206 7.83163E-03-6.00517E-04-4.79771E-14
 -1       207 8.12693E-03-5.95532E-04-5.12916E-14
 -1       208 8.42503E-03-5.92001E-04-5.46877E-14
 -1       209 8.72625E-03-5.91115E-04-5.81646E-14
 -1       210 9.03076E-03-5.94444E-04-6.17135E-14
 -1       211 9.33842E-03-6.03890E-04-6.53278E-14
 -1       212 9.64862E-03-6.21532E-04-6.89950E-14
 -1       213 9.96009E-03-6.49249E-04-7.27109E-14
 -1       214 1.02708E-02-6.88078E-04-7.64784E-14
 -1       215 1.05779E-02-7.37268E-04-8.02950E-14
 -1       216 1.08781E-02-7.93196E-04-8.41503E-14
 -1       217 1.11681E-02-8.48551E-04-8.80506E-14
 -1       218 1.14460E-02-8.92453E-04-9.20042E-14
 -1       219 1.17118E-02-9.12123E-04-9.60180E-14
 -1       220 1.19681E-02-8.96085E-04-1.00086E-13
 -1       221 1.22197E-02-8.37719E-04-1.04200E-13
 -1       222 1.24722E-02-7.37312E-04-1.08363E-13
 -1       223 1.27295E-02-6.01368E-04-1.12578E-13
 -1       224 1.29940E-02-4.39675E-04-1.16831E-13
 -1       225 1.32654E-02-2.61961E-04-1.21113E-13
 -1       226 1.35426E-02-7.59356E-05-1.25413E-13
 -1       227 1.38240E-02 1.12697E-04-1.29738E-13
 -1       228 6.04623E-04 3.31035E-04-1.47431E-16
 -1       229 8.93751E-04 4.32655E-04-4.42578E-16
 -1       230 1.17268E-03 5.04414E-04-8.93718E-16
 -1       231 1.44707E-03 5.55523E-04-1.50007E-15
 -1       232 1.71992E-03 5.91804E-04-2.26017E-15
 -1       233 1.99287E-03 6.17240E-04-3.17141E-15
 -1       234 2.26675E-03 6.34708E-04-4.22966E-15
 -1       235 2.54196E-03 6.46343E-04-5.43354E-15
 -1       236 2.81863E-03 6.53752E-04-6.77860E-15
 -1       237 3.09675E-03 6.58143E-04-8.26391E-15
 -1       238 3.37621E-03 6.60415E-04-9.88386E-15
 -1       239 3.65684E-03 6.61225E-04-1.16349E-14
 -1       240 3.93850E-03 6.61045E-04-1.35124E-14
 -1       241 4.22100E-03 6.60197E-04-1.55154E-14
 -1       242 4.50421E-03 6.58888E-04-1.76429E-14
 -1       243 4.78799E-03 6.57236E-04-1.98934E-14
 -1       244 5.07227E-03 6.55290E-04-2.22652E-14
 -1       245 5.35697E-03 6.53043E-04-2.47500E-14
 -1       246 5.64209E-03 6.50448E-04-2.73505E-14
 -1       247 5.92765E-03 6.47428E-04-3.00682E-14
 -1       248 6.21372E-03 6.43883E-04-3.28953E-14
 -1       249 6.50046E-03 6.39706E-04-3.58256E-14
 -1       250 6.78809E-03 6.34787E-04-3.88450E-14
 -1       251 7.07693E-03 6.29043E-04-4.19499E-14
 -1       252 7.36741E-03 6.22432E-04-4.51409E-14
 -1       253 7.66010E-03 6.15003E-04-4.84181E-14
 -1       254 7.95579E-03 6.06949E-04-5.17782E-14
 -1       255 8.25545E-03 5.98702E-04-5.52133E-14
 -1       256 8.56032E-03 5.91079E-04-5.87189E-14
 -1       257 8.87194E-03 5.85497E-04-6.22914E-14
 -1       258 9.19211E-03 5.84300E-04-6.59263E-14
 -1       259 9.52283E-03 5.91231E-04-6.96212E-14
 -1       260 9.86605E-03 6.12027E-04-7.33814E-14
 -1       261 1.02232E-02 6.55027E-04-7.72121E-14
 -1       262 1.05940E-02 7.31330E-04-8.11079E-14
 -1       263 1.09756E-02 8.53389E-04-8.50642E-14
 -1       264 1.13604E-02 1.03017E-03-8.90765E-14
 -1       265 1.17359E-02 1.25714E-03-9.31459E-14
 -1       266 1.20873E-02 1.50373E-03-9.72715E-14
 -1       267 1.24059E-02 1.71059E-03-1.01460E-13
 -1       268 1.26985E-02 1.81327E-03-1.05705E-13
 -1       269 1.29864E-02 1.78486E-03-1.10004E-13
 -1       270 1.32892E-02 1.65515E-03-1.14335E-13
 -1       271 1.36112E-02 1.48356E-03-1.18676E-13
 -1       272 1.39425E-02 1.31763E-03-1.23025E-13
 -1       273 1.42697E-02 1.17430E-03-1.27391E-13
 -1       274 1.45836E-02 1.04525E-03-1.31766E-13
 -1       275 1.48819E-02 9.11517E-04-1.36139E-13
 -1       276 1.50600E-02 8.26768E-04-1.36721E-13
 -1       277 1.52431E-02 7.60463E-04-1.36470E-13
 -1       278 1.54312E-02 7.14392E-04-1.36215E-13
 -1       279 1.56000E-02 6.93681E-04-1.35959E-13
 -1       280 1.57158E-02 6.97959E-04-1.35703E-13
 -1       281 1.57528E-02 7.19213E-04-1.35440E-13
 -1       282 1.56933E-02 7.42311E-04-1.35171E-13
 -1       283 1.55459E-02 7.50846E-04-1.34897E-13
 -1       284 1.53383E-02 7.34051E-04-1.34607E-13
 -1       285 1.51040E-02 6.89751E-04-1.34302E-13
 -1       286 1.48740E-02 6.23959E-04-1.33986E-13
 -1       287 1.46553E-02 5.42153E-04-1.33646E-13
 -1       288 1.44559E-02 4.53067E-04-1.33284E-13
 -1       289 1.42721E-02 3.62617E-04-1.32902E-13
 -1       290 1.40470E-02 2.36483E-04-1.31320E-13
 -1       291 1.49919E-02 6.75569E-04-1.15518E-13
 -1       292 1.48495E-02 7.99298E-04-1.15043E-13
 -1       293 1.45865E-02 9.44670E-04-1.14215E-13
 -1       294 1.41856E-02 1.11129E-03-1.13207E-13
 -1       295 1.37245E-02 1.33773E-03-1.11180E-13
 -1       296 1.33074E-02 1.52259E-03-1.08680E-13
 -1       297 1.28837E-02 1.62195E-03-1.06368E-13
 -1       298 1.24725E-02 1.61051E-03-1.03777E-13
 -1       299 1.20539E-02 1.47610E-03-1.01288E-13
 -1       300 1.16398E-02 1.26663E-03-9.89192E-14
 -1       301 1.12052E-02 1.02638E-03-9.68775E-14
 -1       302 1.08091E-02 8.08433E-04-9.52437E-14
 -1       303 1.04826E-02 5.93705E-04-9.35904E-14
 -1       304 1.02540E-02 4.64791E-04-9.29799E-14
 -1       305 1.01713E-02 3.48188E-04-9.23747E-14
 -1       306 1.02351E-02 2.44238E-04-9.26830E-14
 -1       307 1.04242E-02 1.31198E-04-9.31504E-14
 -1       308 1.07124E-02-1.65505E-05-9.42723E-14
 -1       309 1.10525E-02-1.71903E-04-9.56450E-14
 -1       310 1.14573E-02-3.33682E-04-9.73492E-14
 -1       311 1.18579E-02-4.69965E-04-9.96620E-14
 -1       312 1.22575E-02-5.39519E-04-1.01943E-13
 -1       313 1.26664E-02-5.05418E-04-1.04437E-13
 -1       314 1.30930E-02-3.84187E-04-1.06974E-13
 -1       315 1.35465E-02-1.94214E-04-1.09283E-13
 -1       316 1.39933E-02 4.25634E-05-1.11574E-13
 -1       317 1.44378E-02 2.44521E-04-1.13191E-13
 -1       318 1.47657E-02 4.15010E-04-1.14440E-13
 -1       319 1.49690E-02 5.58577E-04-1.15322E-13
 -1       320 4.55412E-04-1.64773E-04-1.97969E-16
 -1       321 4.74290E-04-2.12963E-04-1.53418E-16
 -1       322 4.40437E-04-9.39956E-05-2.46287E-16
 -1       323 4.37461E-04-6.48955E-05-2.58538E-16
 -1       324 4.35831E-04-3.78965E-05-2.66470E-16
 -1       325 4.35118E-04-1.20145E-05-2.71169E-16
 -1       326 4.35148E-04 1.35327E-05-2.73548E-16
 -1       327 4.35929E-04 3.94727E-05-2.73202E-16
 -1       328 4.37602E-04 6.61244E-05-2.69797E-16
 -1       329 4.40669E-04 9.53960E-05-2.62489E-16
 -1       330 4.46069E-04 1.28306E-04-2.49248E-16
 -1       331 4.55917E-04 1.67287E-04-2.26032E-16
 -1       332 4.75924E-04 2.17033E-04-1.87164E-16
 -1       333 5.32062E-04 2.69964E-04-1.75488E-16
 -1       334 8.24570E-04 3.73501E-04-4.73186E-16
 -1       335 8.63339E-04-3.57397E-04-5.07749E-16
 -1       336 1.14972E-03-4.26163E-04-9.48843E-16
 -1       337 1.43253E-03-4.75351E-04-1.53113E-15
 -1       338 1.71328E-03-5.10116E-04-2.25424E-15
 -1       339 1.99309E-03-5.34256E-04-3.11777E-15
 -1       340 2.27272E-03-5.50597E-04-4.12000E-15
 -1       341 2.55263E-03-5.61260E-04-5.25983E-15
 -1       342 2.83310E-03-5.67837E-04-6.53665E-15
 -1       343 3.11422E-03-5.71523E-04-7.94768E-15
 -1       344 3.39602E-03-5.73202E-04-9.49033E-15
 -1       345 3.67848E-03-5.73515E-04-1.11626E-14
 -1       346 3.96154E-03-5.72916E-04-1.29628E-14
 -1       347 4.24512E-03-5.71713E-04-1.48888E-14
 -1       348 4.52916E-03-5.70099E-04-1.69368E-14
 -1       349 4.81360E-03-5.68180E-04-1.91037E-14
 -1       350 5.09839E-03-5.65995E-04-2.13867E-14
 -1       351 5.38351E-03-5.63535E-04-2.37831E-14
 -1       352 5.66896E-03-5.60752E-04-2.62875E-14
 -1       353 5.95477E-03-5.57577E-04-2.88981E-14
 -1       354 6.24101E-03-5.53933E-04-3.16080E-14
 -1       355 6.52776E-03-5.49747E-04-3.44213E-14
 -1       356 6.81516E-03-5.44975E-04-3.73358E-14
 -1       357 7.10340E-03-5.39625E-04-4.03421E-14
 -1       358 7.39269E-03-5.33794E-04-4.34367E-14
 -1       359 7.68331E-03-5.27711E-04-4.66204E-14
 -1       360 7.97556E-03-5.21796E-04-4.98927E-14
 -1       361 8.26977E-03-5.16721E-04-5.32492E-14
 -1       362 8.56629E-03-5.13482E-04-5.66837E-14
 -1       363 8.86543E-03-5.13454E-04-6.01957E-14
 -1       364 9.16742E-03-5.18408E-04-6.37766E-14
 -1       365 9.47230E-03-5.30444E-04-6.74192E-14
 -1       366 9.77983E-03-5.51767E-04-7.11141E-14
 -1       367 1.00893E-02-5.84230E-04-7.48607E-14
 -1       368 1.03994E-02-6.28537E-04-7.86552E-14
 -1       369 1.07080E-02-6.83137E-04-8.24932E-14
 -1       370 1.10123E-02-7.42975E-04-8.63775E-14
 -1       371 1.13095E-02-7.98695E-04-9.03085E-14
 -1       372 1.15976E-02-8.37204E-04-9.42982E-14
 -1       373 1.18769E-02-8.44308E-04-9.83445E-14
 -1       374 1.21503E-02-8.09106E-04-1.02443E-13
 -1       375 1.24225E-02-7.27979E-04-1.06589E-13
 -1       376 1.26976E-02-6.05563E-04-1.10785E-13
 -1       377 1.29774E-02-4.52078E-04-1.15026E-13
 -1       378 1.32613E-02-2.78879E-04-1.19296E-13
 -1       379 1.35474E-02-9.50398E-05-1.23588E-13
 -1       380 1.37975E-02 7.03869E-05-1.27443E-13
 -1       381 1.11008E-03 4.47829E-04-9.21917E-16
 -1       382 1.39086E-03 5.00910E-04-1.52215E-15
 -1       383 1.66921E-03 5.38550E-04-2.27333E-15
 -1       384 1.94665E-03 5.64874E-04-3.17328E-15
 -1       385 2.22411E-03 5.82893E-04-4.21905E-15
 -1       386 2.50214E-03 5.94848E-04-5.40869E-15
 -1       387 2.78099E-03 6.02421E-04-6.73893E-15
 -1       388 3.06078E-03 6.06874E-04-8.20734E-15
 -1       389 3.34150E-03 6.09145E-04-9.80920E-15
 -1       390 3.62309E-03 6.09920E-04-1.15416E-14
 -1       391 3.90545E-03 6.09688E-04-1.34010E-14
 -1       392 4.18848E-03 6.08784E-04-1.53852E-14
 -1       393 4.47208E-03 6.07423E-04-1.74935E-14
 -1       394 4.75617E-03 6.05728E-04-1.97231E-14
 -1       395 5.04068E-03 6.03748E-04-2.20754E-14
 -1       396 5.32557E-03 6.01479E-04-2.45401E-14
 -1       397 5.61084E-03 5.98870E-04-2.71201E-14
 -1       398 5.89650E-03 5.95840E-04-2.98160E-14
 -1       399 6.18264E-03 5.92283E-04-3.26208E-14
 -1       400 6.46936E-03 5.88082E-04-3.55286E-14
 -1       401 6.75685E-03 5.83115E-04-3.85274E-14
 -1       402 7.04535E-03 5.77279E-04-4.16133E-14
 -1       403 7.33519E-03 5.70511E-04-4.47866E-14
 -1       404 7.62683E-03 5.62821E-04-4.80461E-14
 -1       405 7.92081E-03 5.54356E-04-5.13873E-14
 -1       406 8.21785E-03 5.45481E-04-5.48049E-14
 -1       407 8.51882E-03 5.36915E-04-5.82960E-14
 -1       408 8.82477E-03 5.29936E-04-6.18558E-14
 -1       409 9.13693E-03 5.26691E-04-6.54791E-14
 -1       410 9.45672E-03 5.30636E-04-6.91634E-14
 -1       411 9.78564E-03 5.47125E-04-7.29101E-14
 -1       412 1.01252E-02 5.84053E-04-7.67287E-14
 -1       413 1.04767E-02 6.52214E-04-8.06091E-14
 -1       414 1.08406E-02 7.64494E-04-8.45503E-14
 -1       415 1.12152E-02 9.32140E-04-8.85469E-14
 -1       416 1.15941E-02 1.15583E-03-9.25955E-14
 -1       417 1.19656E-02 1.41120E-03-9.67018E-14
 -1       418 1.23170E-02 1.63914E-03-1.00874E-13
 -1       419 1.26473E-02 1.76381E-03-1.05104E-13
 -1       420 1.29722E-02 1.74521E-03-1.09391E-13
 -1       421 1.33078E-02 1.61309E-03-1.13715E-13
 -1       422 1.36546E-02 1.43612E-03-1.18046E-13
 -1       423 1.40008E-02 1.26813E-03-1.22391E-13
 -1       424 1.43351E-02 1.12720E-03-1.26752E-13
 -1       425 1.46521E-02 1.00407E-03-1.31118E-13
 -1       426 1.48595E-02 9.18500E-04-1.33921E-13
 -1       427 1.52855E-02 7.64815E-04-1.32315E-13
 -1       428 1.50921E-02 8.24543E-04-1.32565E-13
 -1       429 1.49714E-02 8.70216E-04-1.33245E-13
 -1       430 1.54444E-02 7.26386E-04-1.32067E-13
 -1       431 1.55365E-02 7.08041E-04-1.31808E-13
 -1       432 1.55272E-02 7.00191E-04-1.31541E-13
 -1       433 1.54121E-02 6.85617E-04-1.31265E-13
 -1       434 1.52158E-02 6.50724E-04-1.30978E-13
 -1       435 1.49778E-02 5.92047E-04-1.30671E-13
 -1       436 1.47372E-02 5.16060E-04-1.30358E-13
 -1       437 1.45069E-02 4.27956E-04-1.30022E-13
 -1       438 1.42986E-02 3.35675E-04-1.29671E-13
 -1       439 1.41103E-02 2.43624E-04-1.29313E-13
 -1       440 1.47148E-02 8.03581E-04-1.16504E-13
 -1       441 1.50296E-02 6.31115E-04-1.17785E-13
 -1       442 1.49448E-02 7.03899E-04-1.17128E-13
 -1       443 1.43993E-02 9.39480E-04-1.15557E-13
 -1       444 1.39010E-02 1.18491E-03-1.13589E-13
 -1       445 4.45600E-04-1.26464E-04-2.27208E-16
 -1       446 1.30724E-02 1.59874E-03-1.08428E-13
 -1       447 1.26927E-02 1.67101E-03-1.05428E-13
 -1       448 1.22933E-02 1.57141E-03-1.02147E-13
 -1       449 1.19427E-02 1.38051E-03-9.95409E-14
 -1       450 1.15021E-02 1.08895E-03-9.67267E-14
 -1       451 1.10657E-02 8.28017E-04-9.47196E-14
 -1       452 1.07075E-02 6.27036E-04-9.30702E-14
 -1       453 1.03360E-02 4.39493E-04-9.12935E-14
 -1       454 1.01873E-02 3.66727E-04-9.06934E-14
 -1       455 1.01719E-02 2.97577E-04-9.04996E-14
 -1       456 1.02930E-02 2.37728E-04-9.09601E-14
 -1       457 1.05926E-02 1.12065E-04-9.21009E-14
 -1       458 1.09298E-02-3.71656E-05-9.33210E-14
 -1       459 1.12659E-02-2.02557E-04-9.50052E-14
 -1       460 1.17381E-02-4.29607E-04-9.74152E-14
 -1       461 1.20292E-02-5.37509E-04-9.96815E-14
 -1       462 1.24539E-02-5.65284E-04-1.03257E-13
 -1       463 1.27901E-02-4.78838E-04-1.05961E-13
 -1       464 1.32285E-02-2.68744E-04-1.08986E-13
 -1       465 1.36290E-02-4.86318E-05-1.11277E-13
 -1       466 1.41789E-02 2.41704E-04-1.13960E-13
 -1       467 1.45827E-02 4.21278E-04-1.15554E-13
 -1       468 1.48864E-02 5.49133E-04-1.16888E-13
 -1       469 1.34196E-02 1.44313E-03-1.10930E-13
 -1       470 1.41598E-02 1.03470E-03-1.15939E-13
 -1       471 1.38691E-02 1.26897E-04-1.13655E-13
 -1       472 1.04949E-02 4.81710E-04-9.07701E-14
 -1       473 9.31313E-04 3.46023E-04-7.66070E-16
 -1       474 6.65799E-04-7.51265E-05-5.60126E-16
 -1       475 6.69774E-04-1.15880E-04-5.40983E-16
 -1       476 6.63122E-04 1.10403E-06-5.79147E-16
 -1       477 6.63844E-04 3.87620E-05-5.80983E-16
 -1       478 6.65989E-04 7.68117E-05-5.77399E-16
 -1       479 6.70091E-04 1.17720E-04-5.67736E-16
 -1       480 6.77111E-04 1.62336E-04-5.49867E-16
 -1       481 6.89042E-04 2.12699E-04-5.19455E-16
 -1       482 1.21722E-03 4.06523E-04-1.30868E-15
 -1       483 9.76341E-04-3.28643E-04-8.04000E-16
 -1       484 1.36557E-02 1.30846E-03-1.13653E-13
 -1       485 1.26228E-03-3.83511E-04-1.33880E-15
 -1       486 1.54731E-03-4.23284E-04-2.01169E-15
 -1       487 1.83146E-03-4.51376E-04-2.82239E-15
 -1       488 2.11501E-03-4.70689E-04-3.77085E-15
 -1       489 2.39830E-03-4.83518E-04-4.85519E-15
 -1       490 2.68156E-03-4.91637E-04-6.07509E-15
 -1       491 2.96496E-03-4.96392E-04-7.42826E-15
 -1       492 3.24859E-03-4.98794E-04-8.91386E-15
 -1       493 3.53248E-03-4.99585E-04-1.05292E-14
 -1       494 3.81666E-03-4.99298E-04-1.22729E-14
 -1       495 4.10110E-03-4.98300E-04-1.41419E-14
 -1       496 4.38579E-03-4.96832E-04-1.61325E-14
 -1       497 4.67071E-03-4.95035E-04-1.82441E-14
 -1       498 4.95583E-03-4.92975E-04-2.04713E-14
 -1       499 5.24115E-03-4.90660E-04-2.28128E-14
 -1       500 5.52667E-03-4.88057E-04-2.52654E-14
 -1       501 5.81239E-03-4.85102E-04-2.78257E-14
 -1       502 6.09835E-03-4.81714E-04-3.04904E-14
 -1       503 6.38460E-03-4.77810E-04-3.32545E-14
 -1       504 6.67121E-03-4.73318E-04-3.61175E-14
 -1       505 6.95827E-03-4.68201E-04-3.90790E-14
 -1       506 7.24592E-03-4.62488E-04-4.21296E-14
 -1       507 7.53432E-03-4.56303E-04-4.52698E-14
 -1       508 7.82369E-03-4.49924E-04-4.84973E-14
 -1       509 8.11430E-03-4.43832E-04-5.18114E-14
 -1       510 8.40649E-03-4.38783E-04-5.52089E-14
 -1       511 8.70067E-03-4.35873E-04-5.86836E-14
 -1       512 8.99735E-03-4.36598E-04-6.22280E-14
 -1       513 9.29709E-03-4.42865E-04-6.58405E-14
 -1       514 9.60049E-03-4.56923E-04-6.95133E-14
 -1       515 9.90800E-03-4.81130E-04-7.32365E-14
 -1       516 1.02197E-02-5.17447E-04-7.70097E-14
 -1       517 1.05348E-02-5.66535E-04-8.08288E-14
 -1       518 1.08512E-02-6.26357E-04-8.46972E-14
 -1       519 1.11655E-02-6.90470E-04-8.86101E-14
 -1       520 1.14738E-02-7.46913E-04-9.25734E-14
 -1       521 1.17733E-02-7.79225E-04-9.65973E-14
 -1       522 1.20650E-02-7.70845E-04-1.00677E-13
 -1       523 1.23536E-02-7.12039E-04-1.04808E-13
 -1       524 1.26445E-02-6.04250E-04-1.08984E-13
 -1       525 1.29407E-02-4.58552E-04-1.13210E-13
 -1       526 1.32410E-02-2.89418E-04-1.17470E-13
 -1       527 1.35416E-02-1.08593E-04-1.21754E-13
 -1       528 1.78411E-03 4.81136E-04-2.83480E-15
 -1       529 2.06613E-03 5.02529E-04-3.81471E-15
 -1       530 2.34789E-03 5.16903E-04-4.93661E-15
 -1       531 2.62975E-03 5.26169E-04-6.19854E-15
 -1       532 2.91191E-03 5.31778E-04-7.59797E-15
 -1       533 3.19448E-03 5.34816E-04-9.13130E-15
 -1       534 3.47748E-03 5.36084E-04-1.07945E-14
 -1       535 3.76093E-03 5.36158E-04-1.25850E-14
 -1       536 4.04477E-03 5.35443E-04-1.45018E-14
 -1       537 4.32899E-03 5.34203E-04-1.65418E-14
 -1       538 4.61353E-03 5.32600E-04-1.87040E-14
 -1       539 4.89836E-03 5.30714E-04-2.09863E-14
 -1       540 5.18347E-03 5.28559E-04-2.33857E-14
 -1       541 5.46884E-03 5.26101E-04-2.58998E-14
 -1       542 5.75448E-03 5.23269E-04-2.85278E-14
 -1       543 6.04043E-03 5.19963E-04-3.12666E-14
 -1       544 6.32676E-03 5.16064E-04-3.41084E-14
 -1       545 6.61355E-03 5.11445E-04-3.70477E-14
 -1       546 6.90093E-03 5.05983E-04-4.00764E-14
 -1       547 7.18908E-03 4.99583E-04-4.31965E-14
 -1       548 7.47819E-03 4.92202E-04-4.64013E-14
 -1       549 7.76852E-03 4.83897E-04-4.96889E-14
 -1       550 8.06040E-03 4.74888E-04-5.30546E-14
 -1       551 8.35416E-03 4.65662E-04-5.64988E-14
 -1       552 8.65024E-03 4.57121E-04-6.00161E-14
 -1       553 8.94914E-03 4.50806E-04-6.36004E-14
 -1       554 9.25150E-03 4.49213E-04-6.72488E-14
 -1       555 9.55827E-03 4.56230E-04-7.09578E-14
 -1       556 9.87097E-03 4.77694E-04-7.47344E-14
 -1       557 1.01922E-02 5.21997E-04-7.85765E-14
 -1       558 1.05262E-02 6.00541E-04-8.24768E-14
 -1       559 1.08788E-02 7.27310E-04-8.64346E-14
 -1       560 1.12547E-02 9.15467E-04-9.04377E-14
 -1       561 1.16512E-02 1.16613E-03-9.44984E-14
 -1       562 1.20528E-02 1.44428E-03-9.86204E-14
 -1       563 1.24400E-02 1.65962E-03-1.02809E-13
 -1       564 1.28144E-02 1.71525E-03-1.07061E-13
 -1       565 1.31950E-02 1.60506E-03-1.11362E-13
 -1       566 1.35865E-02 1.41625E-03-1.15684E-13
 -1       567 1.39698E-02 1.23451E-03-1.20015E-13
 -1       568 1.43288E-02 1.09103E-03-1.24361E-13
 -1       569 1.46597E-02 9.78018E-04-1.28722E-13
 -1       570 1.52966E-02 7.17579E-04-1.28171E-13
 -1       571 1.53549E-02 6.87312E-04-1.27911E-13
 -1       572 1.49384E-02 8.50939E-04-1.28664E-13
 -1       573 1.51393E-02 7.71982E-04-1.28420E-13
 -1       574 1.52830E-02 6.60308E-04-1.27642E-13
 -1       575 1.50978E-02 6.13309E-04-1.27354E-13
 -1       576 1.48500E-02 5.37168E-04-1.27053E-13
 -1       577 1.45938E-02 4.41249E-04-1.26744E-13
 -1       578 1.43500E-02 3.35029E-04-1.26415E-13
 -1       579 1.41334E-02 2.29515E-04-1.26076E-13
 -1       580 1.39421E-02 1.29160E-04-1.25728E-13
 -1       581 1.50419E-02 6.70322E-04-1.19889E-13
 -1       582 1.45994E-02 8.32671E-04-1.18341E-13
 -1       583 1.50135E-03 4.50216E-04-1.99869E-15
 -1       584 1.50211E-02 6.17915E-04-1.20196E-13
 -1       585 1.48971E-02 7.22149E-04-1.19265E-13
 -1       586 1.32218E-02 1.55179E-03-1.10664E-13
 -1       587 1.47558E-02 5.30626E-04-1.18444E-13
 -1       588 1.29649E-02-3.77192E-04-1.08204E-13
 -1       589 1.04126E-02 1.87329E-04-8.96340E-14
 -1       590 1.12743E-02 8.97936E-04-9.42543E-14
 -1       591 6.63731E-04-3.65182E-05-5.72316E-16
 -1       592 1.24852E-02 1.65687E-03-1.03474E-13
 -1       593 1.07241E-02 5.99682E-05-9.07959E-14
 -1       594 1.28442E-02 1.68012E-03-1.07053E-13
 -1       595 1.22059E-02 1.52759E-03-1.00853E-13
 -1       596 1.17666E-02 1.23108E-03-9.70397E-14
 -1       597 1.09003E-02 6.75562E-04-9.23498E-14
 -1       598 1.02200E-02 3.60222E-04-8.88039E-14
 -1       599 1.01149E-02 3.05919E-04-8.81191E-14
 -1       600 1.01978E-02 2.63734E-04-8.88377E-14
 -1       601 1.25599E-02-5.52875E-04-1.04585E-13
 -1       602 1.10910E-02-1.18833E-04-9.23680E-14
 -1       603 1.14977E-02-3.37424E-04-9.47546E-14
 -1       604 1.18629E-02-5.08393E-04-9.77115E-14
 -1       605 1.43890E-02 3.86524E-04-1.16517E-13
 -1       606 1.22012E-02-5.91885E-04-1.00997E-13
 -1       607 1.33890E-02-1.32243E-04-1.11319E-13
 -1       608 7.12660E-04-2.51814E-04-4.49561E-16
 -1       609 7.03861E-04 2.90883E-04-4.26596E-16
 -1       610 6.76617E-04-1.60039E-04-5.13038E-16
 -1       611 1.39202E-02 1.16720E-03-1.16002E-13
 -1       612 1.41211E-02 2.76646E-04-1.16204E-13
 -1       613 1.37398E-02 1.49876E-05-1.24661E-13
 -1       614 8.99731E-04 7.41122E-05-9.95430E-16
 -1       615 8.97637E-04 2.51800E-05-9.96399E-16
 -1       616 9.11821E-04 1.78227E-04-9.65407E-16
 -1       617 9.24212E-04 2.36791E-04-9.31201E-16
 -1       618 1.04892E-03 3.13924E-04-1.08963E-15
 -1       619 1.23678E-02-6.02731E-04-1.02976E-13
 -1       620 1.38332E-03-3.37064E-04-1.75998E-15
 -1       621 1.66952E-03-3.68018E-04-2.51931E-15
 -1       622 1.95574E-03-3.89831E-04-3.41455E-15
 -1       623 2.24178E-03-4.04675E-04-4.44476E-15
 -1       624 2.52764E-03-4.14340E-04-5.60914E-15
 -1       625 2.81335E-03-4.20246E-04-6.90654E-15
 -1       626 3.09897E-03-4.23486E-04-8.33555E-15
 -1       627 3.38454E-03-4.24879E-04-9.89426E-15
 -1       628 3.67009E-03-4.25023E-04-1.15808E-14
 -1       629 3.95564E-03-4.24341E-04-1.33934E-14
 -1       630 4.24121E-03-4.23116E-04-1.53287E-14
 -1       631 4.52680E-03-4.21528E-04-1.73844E-14
 -1       632 4.81241E-03-4.19670E-04-1.95569E-14
 -1       633 5.09806E-03-4.17575E-04-2.18450E-14
 -1       634 5.38374E-03-4.15226E-04-2.42461E-14
 -1       635 5.66947E-03-4.12574E-04-2.67561E-14
 -1       636 5.95524E-03-4.09544E-04-2.93732E-14
 -1       637 6.24108E-03-4.06049E-04-3.20913E-14
 -1       638 6.52699E-03-4.02006E-04-3.49060E-14
 -1       639 6.81302E-03-3.97345E-04-3.78193E-14
 -1       640 7.09921E-03-3.92039E-04-4.08251E-14
 -1       641 7.38565E-03-3.86126E-04-4.39210E-14
 -1       642 7.67245E-03-3.79748E-04-4.71061E-14
 -1       643 7.95979E-03-3.73198E-04-5.03789E-14
 -1       644 8.24797E-03-3.66975E-04-5.37364E-14
 -1       645 8.53741E-03-3.61853E-04-5.71688E-14
 -1       646 8.82873E-03-3.58948E-04-6.06807E-14
 -1       647 9.12280E-03-3.59789E-04-6.42620E-14
 -1       648 9.42076E-03-3.66361E-04-6.79080E-14
 -1       649 9.72399E-03-3.81090E-04-7.16073E-14
 -1       650 1.00339E-02-4.06694E-04-7.53595E-14
 -1       651 1.03513E-02-4.45711E-04-7.91592E-14
 -1       652 1.06760E-02-4.99464E-04-8.30087E-14
 -1       653 1.10052E-02-5.66028E-04-8.69055E-14
 -1       654 1.13336E-02-6.37227E-04-9.08493E-14
 -1       655 1.16550E-02-6.96718E-04-9.48472E-14
 -1       656 1.19662E-02-7.21670E-04-9.89050E-14
 -1       657 1.22704E-02-6.91919E-04-1.03017E-13
 -1       658 1.25757E-02-6.01567E-04-1.07176E-13
 -1       659 1.28882E-02-4.61985E-04-1.11386E-13
 -1       660 1.32074E-02-2.93511E-04-1.15632E-13
 -1       661 1.35273E-02-1.13788E-04-1.19910E-13
 -1       662 2.19073E-03 4.37563E-04-4.46801E-15
 -1       663 1.46222E-02 9.21166E-04-1.24315E-13
 -1       664 1.90573E-03 4.20766E-04-3.41144E-15
 -1       665 2.76019E-03 4.55569E-04-6.99399E-15
 -1       666 3.04487E-03 4.59542E-04-8.45978E-15
 -1       667 3.32962E-03 4.61460E-04-1.00547E-14
 -1       668 3.61447E-03 4.61982E-04-1.17773E-14
 -1       669 3.89943E-03 4.61575E-04-1.36263E-14
 -1       670 4.18453E-03 4.60559E-04-1.55989E-14
 -1       671 4.46974E-03 4.59134E-04-1.76950E-14
 -1       672 4.75507E-03 4.57414E-04-1.99095E-14
 -1       673 5.04052E-03 4.55439E-04-2.22435E-14
 -1       674 5.32608E-03 4.53198E-04-2.46938E-14
 -1       675 5.61176E-03 4.50636E-04-2.72558E-14
 -1       676 5.89757E-03 4.47669E-04-2.99283E-14
 -1       677 6.18352E-03 4.44188E-04-3.27058E-14
 -1       678 6.46965E-03 4.40073E-04-3.55833E-14
 -1       679 6.75598E-03 4.35204E-04-3.85556E-14
 -1       680 7.04255E-03 4.29477E-04-4.16179E-14
 -1       681 7.32939E-03 4.22827E-04-4.47717E-14
 -1       682 7.61653E-03 4.15264E-04-4.80047E-14
 -1       683 7.90396E-03 4.06924E-04-5.13178E-14
 -1       684 8.19167E-03 3.98138E-04-5.47115E-14
 -1       685 8.47960E-03 3.89541E-04-5.81850E-14
 -1       686 8.76767E-03 3.82212E-04-6.17273E-14
 -1       687 9.05584E-03 3.77869E-04-6.53366E-14
 -1       688 9.34426E-03 3.79124E-04-6.90123E-14
 -1       689 9.63365E-03 3.89808E-04-7.27523E-14
 -1       690 9.92598E-03 4.15414E-04-7.65551E-14
 -1       691 1.02256E-02 4.63779E-04-8.04189E-14
 -1       692 1.05409E-02 5.46457E-04-8.43378E-14
 -1       693 1.08839E-02 6.80047E-04-8.83027E-14
 -1       694 1.39226E-02 1.20184E-03-1.17677E-13
 -1       695 1.42869E-02 1.03764E-03-1.20995E-13
 -1       696 1.50040E-02 6.02773E-04-1.23737E-13
 -1       697 1.37369E-02 7.40745E-06-1.22813E-13
 -1       698 1.52035E-02 6.91260E-04-1.25075E-13
 -1       699 1.47332E-02 5.13077E-04-1.23444E-13
 -1       700 1.51720E-02 6.53104E-04-1.24017E-13
 -1       701 1.49354E-02 5.91218E-04-1.21499E-13
 -1       702 1.44452E-02 3.92829E-04-1.23142E-13
 -1       703 1.41800E-02 2.61510E-04-1.22824E-13
 -1       704 1.39536E-02 1.36049E-04-1.22495E-13
 -1       705 1.50742E-02 6.40362E-04-1.20492E-13
 -1       706 1.00893E-02 2.62118E-04-8.62840E-14
 -1       707 1.50426E-02 7.01763E-04-1.22231E-13
 -1       708 1.16189E-02-4.51500E-04-9.49740E-14
 -1       709 1.02426E-02 2.14162E-04-8.71682E-14
 -1       710 1.35135E-02 1.40959E-03-1.13683E-13
 -1       711 1.27429E-02-4.81261E-04-1.06965E-13
 -1       712 1.62038E-03 3.96255E-04-2.49494E-15
 -1       713 2.47551E-03 4.48643E-04-5.66222E-15
 -1       714 1.09774E-03-2.94653E-04-1.13606E-15
 -1       715 1.33466E-03 3.61566E-04-1.72060E-15
 -1       716 1.45875E-02 4.78529E-04-1.19374E-13
 -1       717 1.48208E-02 7.70490E-04-1.21307E-13
 -1       718 9.04189E-04 1.24616E-04-9.85540E-16
 -1       719 1.31655E-02-2.51288E-04-1.10847E-13
 -1       720 1.03435E-02 3.98570E-04-8.76146E-14
 -1       721 1.04809E-02 1.14248E-04-8.77206E-14
 -1       722 1.08027E-02-3.13303E-05-8.92219E-14
 -1       723 1.19816E-02-5.91017E-04-9.86016E-14
 -1       724 1.00979E-02 3.06835E-04-8.62623E-14
 -1       725 9.03826E-04-1.22210E-04-9.49995E-16
 -1       726 1.06587E-02 5.36216E-04-8.91668E-14
 -1       727 1.11938E-02-2.36726E-04-9.15242E-14
 -1       728 1.09733E-02 7.02239E-04-9.10421E-14
 -1       729 1.36935E-02 5.76117E-05-1.14488E-13
 -1       730 1.43838E-02 9.42610E-04-1.19173E-13
 -1       731 1.12932E-02 9.06003E-04-9.23508E-14
 -1       732 8.97577E-04-2.31626E-05-9.89297E-16
 -1       733 9.11260E-04-1.75623E-04-9.14274E-16
 -1       734 1.50816E-02 7.35165E-04-1.25033E-13
 -1       735 1.51410E-02 6.71113E-04-1.22853E-13
 -1       736 1.00099E-02 2.64562E-04-8.44394E-14
 -1       737 1.50998E-02 6.39195E-04-1.22179E-13
 -1       738 1.43618E-02 3.87419E-04-1.19055E-13
 -1       739 8.99529E-04-7.18292E-05-9.74220E-16
 -1       740 1.01544E-02 3.33443E-04-8.50800E-14
 -1       741 9.38251E-04-2.47152E-04-8.74324E-16
 -1       742 1.37304E-02 8.70149E-06-1.21203E-13
 -1       743 1.16153E-03 2.43634E-04-1.45751E-15
 -1       744 1.51023E-03-2.86564E-04-2.21211E-15
 -1       745 1.79729E-03-3.09544E-04-3.05419E-15
 -1       746 2.08495E-03-3.25657E-04-4.03067E-15
 -1       747 2.37274E-03-3.36476E-04-5.14129E-15
 -1       748 2.66043E-03-3.43354E-04-6.38323E-15
 -1       749 2.94793E-03-3.47378E-04-7.75660E-15
 -1       750 3.23518E-03-3.49391E-04-9.25925E-15
 -1       751 3.52220E-03-3.50024E-04-1.08898E-14
 -1       752 3.80899E-03-3.49733E-04-1.26455E-14
 -1       753 4.09558E-03-3.48835E-04-1.45245E-14
 -1       754 4.38198E-03-3.47538E-04-1.65259E-14
 -1       755 4.66823E-03-3.45961E-04-1.86448E-14
 -1       756 4.95434E-03-3.44160E-04-2.08774E-14
 -1       757 5.24031E-03-3.42140E-04-2.32267E-14
 -1       758 5.52616E-03-3.39869E-04-2.56866E-14
 -1       759 5.81188E-03-3.37285E-04-2.82553E-14
 -1       760 6.09745E-03-3.34309E-04-3.09271E-14
 -1       761 6.38287E-03-3.30855E-04-3.36983E-14
 -1       762 6.66811E-03-3.26838E-04-3.65636E-14
 -1       763 6.95314E-03-3.22193E-04-3.95255E-14
 -1       764 7.23797E-03-3.16889E-04-4.25794E-14
 -1       765 7.52263E-03-3.10960E-04-4.57207E-14
 -1       766 7.80718E-03-3.04530E-04-4.89508E-14
 -1       767 8.09181E-03-2.97862E-04-5.22648E-14
 -1       768 8.37686E-03-2.91403E-04-5.56593E-14
 -1       769 8.66287E-03-2.85853E-04-5.91315E-14
 -1       770 8.95076E-03-2.82245E-04-6.26818E-14
 -1       771 9.24186E-03-2.82047E-04-6.62999E-14
 -1       772 9.53802E-03-2.87289E-04-6.99760E-14
 -1       773 9.84162E-03-3.00705E-04-7.37050E-14
 -1       774 1.01553E-02-3.25792E-04-7.74865E-14
 -1       775 1.04810E-02-3.66509E-04-8.13152E-14
 -1       776 1.08191E-02-4.26063E-04-8.51919E-14
 -1       777 1.11655E-02-5.03615E-04-8.91200E-14
 -1       778 1.15115E-02-5.87630E-04-9.30979E-14
 -1       779 1.18486E-02-6.53292E-04-9.71309E-14
 -1       780 1.21728E-02-6.65409E-04-1.01224E-13
 -1       781 1.24939E-02-6.01364E-04-1.05362E-13
 -1       782 1.28227E-02-4.68000E-04-1.09548E-13
 -1       783 1.31639E-02-2.94092E-04-1.13786E-13
 -1       784 1.34509E-02-1.41526E-04-1.17482E-13
 -1       785 2.03274E-03 3.57721E-04-4.00388E-15
 -1       786 3.18001E-03 3.86002E-04-9.32377E-15
 -1       787 2.89344E-03 3.83374E-04-7.79613E-15
 -1       788 3.75269E-03 3.87055E-04-1.27607E-14
 -1       789 4.03884E-03 3.86356E-04-1.46662E-14
 -1       790 4.32490E-03 3.85198E-04-1.66950E-14
 -1       791 4.61089E-03 3.83725E-04-1.88450E-14
 -1       792 4.89681E-03 3.82006E-04-2.11135E-14
 -1       793 5.18268E-03 3.80052E-04-2.34978E-14
 -1       794 5.46850E-03 3.77834E-04-2.59971E-14
 -1       795 5.75427E-03 3.75285E-04-2.86058E-14
 -1       796 6.03998E-03 3.72318E-04-3.13212E-14
 -1       797 6.32560E-03 3.68830E-04-3.41360E-14
 -1       798 6.61111E-03 3.64715E-04-3.70500E-14
 -1       799 6.89643E-03 3.59879E-04-4.00553E-14
 -1       800 7.18149E-03 3.54257E-04-4.31517E-14
 -1       801 7.46614E-03 3.47845E-04-4.63345E-14
 -1       802 7.75018E-03 3.40733E-04-4.95962E-14
 -1       803 8.03334E-03 3.33166E-04-5.29383E-14
 -1       804 8.31523E-03 3.25606E-04-5.63627E-14
 -1       805 8.59535E-03 3.18831E-04-5.98634E-14
 -1       806 8.87312E-03 3.14032E-04-6.34324E-14
 -1       807 9.14791E-03 3.12933E-04-6.70701E-14
 -1       808 9.41931E-03 3.17910E-04-7.07768E-14
 -1       809 9.68753E-03 3.32119E-04-7.45433E-14
 -1       810 9.95431E-03 3.59785E-04-7.83710E-14
 -1       811 1.02248E-02 4.07288E-04-8.22564E-14
 -1       812 1.37552E-02 4.90855E-05-1.18921E-13
 -1       813 1.39956E-02 1.96208E-04-1.19238E-13
 -1       814 1.22453E-03-2.55048E-04-1.50314E-15
 -1       815 1.13822E-03 5.90595E-05-1.51850E-15
 -1       816 1.04171E-02 4.38710E-04-8.61919E-14
 -1       817 1.74569E-03 3.39133E-04-3.01116E-15
 -1       818 1.34754E-02-7.60668E-05-1.14522E-13
 -1       819 1.08652E-02-1.57611E-04-8.80054E-14
 -1       820 1.00662E-02 2.04062E-04-8.39441E-14
 -1       821 3.46642E-03 3.87057E-04-1.09793E-14
 -1       822 1.13083E-02-3.84801E-04-9.15025E-14
 -1       823 1.02311E-02 1.35014E-04-8.44959E-14
 -1       824 1.16968E-02-5.59587E-04-9.53535E-14
 -1       825 1.39690E-02 2.00422E-04-1.17327E-13
 -1       826 1.25535E-02-5.65100E-04-1.05529E-13
 -1       827 1.29503E-02-3.82734E-04-1.10015E-13
 -1       828 1.06662E-03-2.14944E-04-1.19249E-15
 -1       829 1.24622E-03 3.00860E-04-1.59214E-15
 -1       830 1.05112E-02 1.54144E-05-8.58658E-14
 -1       831 1.06202E-02 5.40037E-04-8.67522E-14
 -1       832 1.13684E-03 1.19815E-06-1.51379E-15
 -1       833 1.05676E-03-1.54465E-04-1.24071E-15
 -1       834 2.60670E-03 3.78463E-04-6.39795E-15
 -1       835 1.14978E-03 1.79121E-04-1.49203E-15
 -1       836 2.31978E-03 3.70321E-04-5.13374E-15
 -1       837 1.14233E-03 1.17816E-04-1.51145E-15
 -1       838 1.35942E-02-5.00311E-05-1.18201E-13
 -1       839 9.93597E-03 2.14521E-04-8.21161E-14
 -1       840 1.05076E-03-9.73239E-05-1.27495E-15
 -1       841 1.49561E-03 3.24170E-04-2.24683E-15
 -1       842 1.00022E-02 2.82936E-04-8.32682E-14
 -1       843 9.98071E-03 1.34106E-04-8.09663E-14
 -1       844 1.92951E-03-2.47821E-04-3.61740E-15
 -1       845 2.21829E-03-2.58944E-04-4.67267E-15
 -1       846 2.50736E-03-2.66278E-04-5.86038E-15
 -1       847 2.79636E-03-2.70795E-04-7.17861E-15
 -1       848 3.08511E-03-2.73284E-04-8.62510E-15
 -1       849 3.37352E-03-2.74356E-04-1.01999E-14
 -1       850 3.66155E-03-2.74466E-04-1.18999E-14
 -1       851 3.94920E-03-2.73935E-04-1.37234E-14
 -1       852 4.23649E-03-2.72985E-04-1.56691E-14
 -1       853 4.52346E-03-2.71752E-04-1.77346E-14
 -1       854 4.81012E-03-2.70310E-04-1.99149E-14
 -1       855 5.09649E-03-2.68682E-04-2.22098E-14
 -1       856 5.38259E-03-2.66855E-04-2.46189E-14
 -1       857 5.66840E-03-2.64785E-04-2.71383E-14
 -1       858 5.95389E-03-2.62408E-04-2.97636E-14
 -1       859 6.23903E-03-2.59646E-04-3.24898E-14
 -1       860 6.52376E-03-2.56412E-04-3.53131E-14
 -1       861 6.80800E-03-2.52624E-04-3.82302E-14
 -1       862 7.09168E-03-2.48208E-04-4.12396E-14
 -1       863 7.37472E-03-2.43120E-04-4.43381E-14
 -1       864 7.65710E-03-2.37357E-04-4.75266E-14
 -1       865 7.93885E-03-2.30986E-04-5.08000E-14
 -1       866 8.22012E-03-2.24174E-04-5.41535E-14
 -1       867 8.50129E-03-2.17232E-04-5.75884E-14
 -1       868 8.78305E-03-2.10683E-04-6.11030E-14
 -1       869 9.06655E-03-2.05359E-04-6.46908E-14
 -1       870 9.35358E-03-2.02563E-04-6.83429E-14
 -1       871 9.64680E-03-2.04346E-04-7.20501E-14
 -1       872 9.94981E-03-2.13958E-04-7.58126E-14
 -1       873 1.02667E-02-2.36282E-04-7.96211E-14
 -1       874 1.06017E-02-2.78120E-04-8.34763E-14
 -1       875 1.09562E-02-3.46561E-04-8.73803E-14
 -1       876 4.17922E-03 3.10698E-04-1.57068E-14
 -1       877 3.89221E-03 3.11521E-04-1.37446E-14
 -1       878 4.75248E-03 3.08149E-04-1.99942E-14
 -1       879 5.03877E-03 3.06550E-04-2.23145E-14
 -1       880 5.32485E-03 3.04737E-04-2.47495E-14
 -1       881 5.61072E-03 3.02671E-04-2.72957E-14
 -1       882 5.89634E-03 3.00285E-04-2.99495E-14
 -1       883 6.18168E-03 2.97502E-04-3.27068E-14
 -1       884 6.46664E-03 2.94239E-04-3.55608E-14
 -1       885 6.75113E-03 2.90420E-04-3.85096E-14
 -1       886 7.03497E-03 2.85996E-04-4.15494E-14
 -1       887 7.31794E-03 2.80964E-04-4.46764E-14
 -1       888 7.59971E-03 2.75400E-04-4.78886E-14
 -1       889 7.87987E-03 2.69503E-04-5.11807E-14
 -1       890 8.15785E-03 2.63638E-04-5.45522E-14
 -1       891 8.43293E-03 2.58404E-04-5.80061E-14
 -1       892 8.70418E-03 2.54687E-04-6.15381E-14
 -1       893 8.97049E-03 2.53710E-04-6.51384E-14
 -1       894 9.23057E-03 2.57042E-04-6.88062E-14
 -1       895 9.48303E-03 2.66545E-04-7.25398E-14
 -1       896 9.72665E-03 2.84287E-04-7.63362E-14
 -1       897 9.96115E-03 3.12806E-04-8.01878E-14
 -1       898 1.21219E-03-1.88434E-04-1.56565E-15
 -1       899 1.00676E-02 3.21175E-04-8.26281E-14
 -1       900 2.16418E-03 2.92113E-04-4.61252E-15
 -1       901 1.87587E-03 2.78796E-04-3.54728E-15
 -1       902 1.09276E-03-4.91790E-05-1.39592E-15
 -1       903 1.02128E-02 3.98048E-05-8.22978E-14
 -1       904 1.05304E-02-1.06969E-04-8.42853E-14
 -1       905 3.02938E-03 3.09847E-04-8.60264E-15
 -1       906 4.46597E-03 3.09544E-04-1.77906E-14
 -1       907 1.64156E-03-2.31764E-04-2.69469E-15
 -1       908 1.62451E-03 2.70114E-04-2.71830E-15
 -1       909 2.74115E-03 3.06614E-04-7.14245E-15
 -1       910 3.60492E-03 3.11846E-04-1.19051E-14
 -1       911 2.45270E-03 3.01009E-04-5.81115E-15
 -1       912 1.20437E-03-1.25224E-04-1.61140E-15
 -1       913 1.40128E-03 2.37081E-04-2.09274E-15
 -1       914 3.31731E-03 3.11414E-04-1.01906E-14
 -1       915 9.86939E-03 2.35206E-04-8.09580E-14
 -1       916 1.38098E-03 3.41111E-05-2.14123E-15
 -1       917 1.38414E-03 9.98546E-05-2.14045E-15
 -1       918 2.35521E-03-1.89816E-04-5.33876E-15
 -1       919 2.64519E-03-1.94270E-04-6.60112E-15
 -1       920 2.93509E-03-1.96894E-04-7.99222E-15
 -1       921 3.22467E-03-1.98215E-04-9.51100E-15
 -1       922 3.51380E-03-1.98633E-04-1.11554E-14
 -1       923 3.80246E-03-1.98443E-04-1.29233E-14
 -1       924 4.09062E-03-1.97852E-04-1.48140E-14
 -1       925 4.37832E-03-1.96994E-04-1.68261E-14
 -1       926 4.66558E-03-1.95951E-04-1.89549E-14
 -1       927 4.95242E-03-1.94758E-04-2.11965E-14
 -1       928 5.23886E-03-1.93417E-04-2.35539E-14
 -1       929 5.52488E-03-1.91903E-04-2.60233E-14
 -1       930 5.81046E-03-1.90171E-04-2.86011E-14
 -1       931 6.09555E-03-1.88158E-04-3.12824E-14
 -1       932 6.38006E-03-1.85791E-04-3.40633E-14
 -1       933 6.66388E-03-1.82985E-04-3.69388E-14
 -1       934 6.94688E-03-1.79653E-04-3.99050E-14
 -1       935 7.22892E-03-1.75704E-04-4.29616E-14
 -1       936 7.50985E-03-1.71058E-04-4.61066E-14
 -1       937 7.78955E-03-1.65646E-04-4.93380E-14
 -1       938 8.06799E-03-1.59426E-04-5.26539E-14
 -1       939 8.34526E-03-1.52404E-04-5.60505E-14
 -1       940 8.62170E-03-1.44669E-04-5.95288E-14
 -1       941 8.89801E-03-1.36455E-04-6.30834E-14
 -1       942 9.17547E-03-1.28271E-04-6.67070E-14
 -1       943 9.45618E-03-1.21134E-04-7.03924E-14
 -1       944 9.74336E-03-1.16950E-04-7.41339E-14
 -1       945 1.00421E-02-1.19615E-04-7.79258E-14
 -1       946 9.91593E-03 4.55935E-05-7.84782E-14
 -1       947 1.77671E-03-1.72729E-04-3.20680E-15
 -1       948 5.18094E-03 2.31233E-04-2.35144E-14
 -1       949 4.89450E-03 2.32594E-04-2.11429E-14
 -1       950 5.75272E-03 2.27923E-04-2.85906E-14
 -1       951 6.03798E-03 2.25881E-04-3.12888E-14
 -1       952 6.32271E-03 2.23506E-04-3.40864E-14
 -1       953 6.60677E-03 2.20748E-04-3.69787E-14
 -1       954 6.88995E-03 2.17577E-04-3.99629E-14
 -1       955 7.17199E-03 2.14004E-04-4.30352E-14
 -1       956 7.45252E-03 2.10103E-04-4.61950E-14
 -1       957 7.73109E-03 2.06047E-04-4.94371E-14
 -1       958 8.00706E-03 2.02148E-04-5.27593E-14
 -1       959 8.27965E-03 1.98899E-04-5.61650E-14
 -1       960 8.54785E-03 1.97017E-04-5.96528E-14
 -1       961 8.81039E-03 1.97470E-04-6.32149E-14
 -1       962 9.06565E-03 2.01464E-04-6.68465E-14
 -1       963 9.31155E-03 2.10368E-04-7.05443E-14
 -1       964 9.54534E-03 2.25534E-04-7.43050E-14
 -1       965 9.76316E-03 2.48049E-04-7.81244E-14
 -1       966 9.89411E-03 2.68667E-04-8.05806E-14
 -1       967 2.01011E-03 2.15247E-04-4.10195E-15
 -1       968 1.02628E-02-9.95872E-05-8.09665E-14
 -1       969 4.03300E-03 2.35602E-04-1.47318E-14
 -1       970 1.37936E-03-3.24162E-05-2.12245E-15
 -1       971 2.06551E-03-1.82884E-04-4.20701E-15
 -1       972 1.39069E-03 1.67270E-04-2.12491E-15
 -1       973 5.46702E-03 2.29690E-04-2.59979E-14
 -1       974 9.79363E-03 1.63282E-04-7.87930E-14
 -1       975 1.48890E-03-1.50451E-04-2.34476E-15
 -1       976 1.75759E-03 2.12069E-04-3.21267E-15
 -1       977 3.74503E-03 2.36064E-04-1.28340E-14
 -1       978 2.87855E-03 2.33325E-04-7.89418E-15
 -1       979 4.60770E-03 2.33789E-04-1.88884E-14
 -1       980 1.28871E-03-9.63823E-05-1.84631E-15
 -1       981 2.29942E-03 2.24044E-04-5.23479E-15
 -1       982 3.16779E-03 2.35235E-04-9.41406E-15
 -1       983 1.57356E-03 1.90130E-04-2.64167E-15
 -1       984 1.62669E-03 5.71947E-07-2.85507E-15
 -1       985 1.62838E-03 7.21151E-05-2.86515E-15
 -1       986 9.70689E-03 9.08040E-05-7.63323E-14
 -1       987 4.32055E-03 2.34809E-04-1.67500E-14
 -1       988 2.78587E-03-1.20695E-04-7.36194E-15
 -1       989 3.07629E-03-1.21914E-04-8.82373E-15
 -1       990 3.36630E-03-1.22432E-04-1.04126E-14
 -1       991 3.65579E-03-1.22472E-04-1.21251E-14
 -1       992 3.94472E-03-1.22189E-04-1.39609E-14
 -1       993 4.23310E-03-1.21696E-04-1.59194E-14
 -1       994 4.52094E-03-1.21059E-04-1.79962E-14
 -1       995 4.80826E-03-1.20316E-04-2.01860E-14
 -1       996 5.09508E-03-1.19477E-04-2.24907E-14
 -1       997 5.38140E-03-1.18532E-04-2.49100E-14
 -1       998 5.66720E-03-1.17454E-04-2.74393E-14
 -1       999 5.95242E-03-1.16204E-04-3.00745E-14
 -1      1000 6.23696E-03-1.14725E-04-3.28131E-14
 -1      1001 6.52071E-03-1.12951E-04-3.56472E-14
 -1      1002 6.80350E-03-1.10798E-04-3.85738E-14
 -1      1003 7.08512E-03-1.08168E-04-4.15872E-14
 -1      1004 7.36535E-03-1.04944E-04-4.46908E-14
 -1      1005 7.64395E-03-1.00985E-04-4.78816E-14
 -1      1006 7.92069E-03-9.61255E-05-5.11584E-14
 -1      1007 8.19539E-03-9.01734E-05-5.45156E-14
 -1      1008 8.46802E-03-8.29156E-05-5.79580E-14
 -1      1009 8.73872E-03-7.41417E-05-6.14787E-14
 -1      1010 9.00800E-03-6.37066E-05-6.50711E-14
 -1      1011 9.27692E-03-5.16725E-05-6.87297E-14
 -1      1012 9.54760E-03-3.85877E-05-7.24507E-14
 -1      1013 1.59971E-03 1.31237E-04-2.75869E-15
 -1      1014 5.32327E-03 1.56237E-04-2.47121E-14
 -1      1015 6.17930E-03 1.52291E-04-3.26234E-14
 -1      1016 5.89456E-03 1.53792E-04-2.98816E-14
 -1      1017 6.74627E-03 1.48620E-04-3.83912E-14
 -1      1018 7.02803E-03 1.46467E-04-4.14108E-14
 -1      1019 7.30819E-03 1.44188E-04-4.45185E-14
 -1      1020 7.58630E-03 1.41941E-04-4.77108E-14
 -1      1021 7.86178E-03 1.39994E-04-5.09846E-14
 -1      1022 8.13389E-03 1.38765E-04-5.43402E-14
 -1      1023 8.40173E-03 1.38855E-04-5.77822E-14
 -1      1024 8.66414E-03 1.41077E-04-6.13044E-14
 -1      1025 8.91966E-03 1.46456E-04-6.48978E-14
 -1      1026 9.16636E-03 1.56180E-04-6.85575E-14
 -1      1027 9.40163E-03 1.71517E-04-7.22836E-14
 -1      1028 9.62156E-03 1.93419E-04-7.60703E-14
 -1      1029 2.20490E-03-1.14897E-04-4.82178E-15
 -1      1030 5.60918E-03 1.55097E-04-2.72440E-14
 -1      1031 4.17490E-03 1.59517E-04-1.57213E-14
 -1      1032 3.45663E-03 2.36027E-04-1.10615E-14
 -1      1033 1.91529E-03-1.09555E-04-3.74604E-15
 -1      1034 5.03688E-03 1.57239E-04-2.22917E-14
 -1      1035 1.62669E-03-7.24387E-05-2.82178E-15
 -1      1036 6.46327E-03 1.50570E-04-3.54624E-14
 -1      1037 2.49528E-03-1.18482E-04-6.02750E-15
 -1      1038 2.58902E-03 2.29808E-04-6.49947E-15
 -1      1039 9.72883E-03-6.45458E-06-7.52409E-14
 -1      1040 3.88660E-03 1.59952E-04-1.37675E-14
 -1      1041 4.75002E-03 1.58124E-04-1.99861E-14
 -1      1042 2.14788E-03 1.48583E-04-4.67178E-15
 -1      1043 4.46270E-03 1.58890E-04-1.77955E-14
 -1      1044 1.91382E-03-3.08813E-05-3.79580E-15
 -1      1045 9.53299E-03 1.34670E-04-7.43116E-14
 -1      1046 1.91419E-03 4.60263E-05-3.81896E-15
 -1      1047 1.85862E-03 1.41092E-04-3.60525E-15
 -1      1048 3.01855E-03 1.58841E-04-8.65205E-15
 -1      1049 2.72834E-03 1.56935E-04-7.19712E-15
 -1      1050 3.21958E-03-4.61563E-05-9.67221E-15
 -1      1051 3.50968E-03-4.62154E-05-1.13282E-14
 -1      1052 3.79918E-03-4.61265E-05-1.31086E-14
 -1      1053 4.08810E-03-4.59287E-05-1.50123E-14
 -1      1054 4.37642E-03-4.56671E-05-1.70365E-14
 -1      1055 4.66417E-03-4.53555E-05-1.91755E-14
 -1      1056 4.95136E-03-4.50060E-05-2.14273E-14
 -1      1057 5.23801E-03-4.46121E-05-2.37967E-14
 -1      1058 5.52410E-03-4.41658E-05-2.62792E-14
 -1      1059 5.80957E-03-4.36461E-05-2.88670E-14
 -1      1060 6.09435E-03-4.30229E-05-3.15613E-14
 -1      1061 6.37831E-03-4.22534E-05-3.43535E-14
 -1      1062 6.66127E-03-4.12777E-05-3.72399E-14
 -1      1063 6.94300E-03-4.00135E-05-4.02141E-14
 -1      1064 7.22324E-03-3.83467E-05-4.32775E-14
 -1      1065 7.50165E-03-3.61205E-05-4.64278E-14
 -1      1066 7.77787E-03-3.31214E-05-4.96636E-14
 -1      1067 8.05153E-03-2.90642E-05-5.29846E-14
 -1      1068 8.32224E-03-2.35772E-05-5.63883E-14
 -1      1069 8.58968E-03-1.61951E-05-5.98747E-14
 -1      1070 8.85361E-03-6.37012E-06-6.34348E-14
 -1      1071 9.11400E-03 6.48157E-06-6.70643E-14
 -1      1072 9.37143E-03 2.26235E-05-7.07605E-14
 -1      1073 7.44458E-03 7.65925E-05-4.59988E-14
 -1      1074 6.03632E-03 8.04335E-05-3.11701E-14
 -1      1075 7.16608E-03 7.71968E-05-4.28543E-14
 -1      1076 6.88564E-03 7.79958E-05-3.97976E-14
 -1      1077 7.72065E-03 7.64102E-05-4.92223E-14
 -1      1078 7.99369E-03 7.69930E-05-5.25326E-14
 -1      1079 8.26297E-03 7.88315E-05-5.59269E-14
 -1      1080 8.52763E-03 8.25915E-05-5.94019E-14
 -1      1081 8.78661E-03 8.91299E-05-6.29564E-14
 -1      1082 9.03860E-03 9.94832E-05-6.65796E-14
 -1      1083 9.28183E-03 1.14690E-04-7.02703E-14
 -1      1084 5.75136E-03 8.11141E-05-2.84854E-14
 -1      1085 5.46575E-03 8.17169E-05-2.59088E-14
 -1      1086 2.43798E-03 1.53689E-04-5.86883E-15
 -1      1087 9.53198E-03 5.66925E-05-7.33921E-14
 -1      1088 2.34731E-03-4.41941E-05-5.45880E-15
 -1      1089 5.17955E-03 8.22494E-05-2.34378E-14
 -1      1090 3.30840E-03 1.59795E-04-1.02312E-14
 -1      1091 2.63814E-03-4.52558E-05-6.73598E-15
 -1      1092 6.32048E-03 7.96737E-05-3.39544E-14
 -1      1093 6.60367E-03 7.88482E-05-3.68318E-14
 -1      1094 2.92901E-03-4.58676E-05-8.14104E-15
 -1      1095 4.89281E-03 8.27188E-05-2.10830E-14
 -1      1096 3.59775E-03 1.60090E-04-1.19365E-14
 -1      1097 4.31774E-03 8.34746E-05-1.67147E-14
 -1      1098 2.34723E-03 3.79727E-05-5.49343E-15
 -1      1099 3.16082E-03 8.34488E-05-9.41548E-15
 -1      1100 2.87028E-03 8.26721E-05-7.90266E-15
 -1      1101 4.02937E-03 8.37286E-05-1.47060E-14
 -1      1102 3.65441E-03 3.01698E-05-1.22592E-14
 -1      1103 4.80784E-03 2.99774E-05-2.03671E-14
 -1      1104 4.60555E-03 8.31317E-05-1.88416E-14
 -1      1105 3.45091E-03 8.38001E-05-1.10533E-14
 -1      1106 2.60869E-03 6.01696E-05-6.64618E-15
 -1      1107 0.00000E+00 0.00000E+00 0.00000E+00
 -1      1108 0.00000E+00 0.00000E+00 0.00000E+00
 -1      1109 0.00000E+00 0.00000E+00 0.00000E+00
 -1      1110 0.00000E+00 0.00000E+00 0.00000E+00
 -1      1111 0.00000E+00 0.00000E+00 0.00000E+00
 -1      1112 0.00000E+00 0.00000E+00 0.00000E+00
 -1      1113 0.00000E+00 0.00000E+00 0.00000E+00
 -1      1114 0.00000E+00 0.00000E+00 0.00000E+00
 -1      1115 0.00000E+00 0.00000E+00 0.00000E+00
 -1      1116 0.00000E+00 0.00000E+00 0.00000E+00
 -1      1117 0.00000E+00 0.00000E+00 0.00000E+00
 -1      1118 0.00000E+00 0.00000E+00 0.00000E+00
 -1      1119 0.00000E+00 0.00000E+00 0.00000E+00
 -1      1120 0.00000E+00 0.00000E+00 0.00000E+00
 -1      1121 0.00000E+00 0.00000E+00 0.00000E+00
 -1      1122 0.00000E+00 0.00000E+00 0.00000E+00
 -1      1123 0.00000E+00 0.00000E+00 0.00000E+00
 -1      1124 2.11678E-04-1.48332E-04 2.97885E-17
 -1      1125 5.51676E-04-3.37508E-04 2.05998E-18
 -1      1126 8.33533E-04-4.58999E-04-1.57372E-16
 -1      1127 1.10315E-03-5.40687E-04-4.71872E-16
 -1      1128 1.36861E-03-5.97949E-04-9.36805E-16
 -1      1129 1.63349E-03-6.38682E-04-1.54947E-15
 -1      1130 1.89961E-03-6.67540E-04-2.30697E-15
 -1      1131 2.16785E-03-6.87645E-04-3.20767E-15
 -1      1132 2.43848E-03-7.01287E-04-4.25248E-15
 -1      1133 2.71150E-03-7.10194E-04-5.43954E-15
 -1      1134 2.98674E-03-7.15679E-04-6.76659E-15
 -1      1135 3.26397E-03-7.18728E-04-8.22758E-15
 -1      1136 3.54289E-03-7.20075E-04-9.82065E-15
 -1      1137 3.82324E-03-7.20251E-04-1.15452E-14
 -1      1138 4.10476E-03-7.19632E-04-1.33976E-14
 -1      1139 4.38722E-03-7.18468E-04-1.53753E-14
 -1      1140 4.67042E-03-7.16914E-04-1.74774E-14
 -1      1141 4.95423E-03-7.15051E-04-1.97017E-14
 -1      1142 5.23854E-03-7.12904E-04-2.20422E-14
 -1      1143 5.52328E-03-7.10459E-04-2.44909E-14
 -1      1144 5.80847E-03-7.07671E-04-2.70463E-14
 -1      1145 6.09416E-03-7.04485E-04-2.97074E-14
 -1      1146 6.38045E-03-7.00844E-04-3.24672E-14
 -1      1147 6.66755E-03-6.96712E-04-3.53274E-14
 -1      1148 6.95571E-03-6.92092E-04-3.82906E-14
 -1      1149 7.24531E-03-6.87061E-04-4.13448E-14
 -1      1150 7.53677E-03-6.81807E-04-4.44843E-14
 -1      1151 7.83063E-03-6.76674E-04-4.77103E-14
 -1      1152 8.12746E-03-6.72225E-04-5.10290E-14
 -1      1153 8.42784E-03-6.69299E-04-5.44274E-14
 -1      1154 8.73225E-03-6.69067E-04-5.79001E-14
 -1      1155 9.04094E-03-6.73057E-04-6.14508E-14
 -1      1156 9.35373E-03-6.83116E-04-6.50651E-14
 -1      1157 9.66969E-03-7.01237E-04-6.87292E-14
 -1      1158 9.98693E-03-7.29192E-04-7.24422E-14
 -1      1159 1.03023E-02-7.67884E-04-7.62070E-14
 -1      1160 1.06116E-02-8.16431E-04-8.00176E-14
 -1      1161 1.09095E-02-8.71122E-04-8.38712E-14
 -1      1162 1.11915E-02-9.24679E-04-8.77710E-14
 -1      1163 1.14543E-02-9.66460E-04-9.17209E-14
 -1      1164 1.16986E-02-9.84138E-04-9.57253E-14
 -1      1165 1.19287E-02-9.66749E-04-9.97829E-14
 -1      1166 1.21523E-02-9.07981E-04-1.03889E-13
 -1      1167 1.23779E-02-8.08042E-04-1.08049E-13
 -1      1168 1.26124E-02-6.73036E-04-1.12258E-13
 -1      1169 1.28592E-02-5.12281E-04-1.16506E-13
 -1      1170 1.31184E-02-3.35222E-04-1.20781E-13
 -1      1171 1.33885E-02-1.49555E-04-1.25080E-13
 -1      1172 1.36670E-02 3.87392E-05-1.29400E-13
 -1      1173 1.39440E-02 2.20278E-04-1.33636E-13
 -1      1174 2.28437E-04 1.60711E-04 2.50451E-17
 -1      1175 5.53848E-04 3.42140E-04-3.31359E-17
 -1      1176 8.34462E-04 4.61166E-04-2.37657E-16
 -1      1177 1.10405E-03 5.42372E-04-6.06191E-16
 -1      1178 1.36952E-03 5.99629E-04-1.13608E-15
 -1      1179 1.63444E-03 6.40453E-04-1.82409E-15
 -1      1180 1.90062E-03 6.69417E-04-2.66697E-15
 -1      1181 2.16889E-03 6.89641E-04-3.65841E-15
 -1      1182 2.43955E-03 7.03410E-04-4.79788E-15
 -1      1183 2.71259E-03 7.12451E-04-6.08491E-15
 -1      1184 2.98785E-03 7.18071E-04-7.51551E-15
 -1      1185 3.26508E-03 7.21258E-04-9.08406E-15
 -1      1186 3.54401E-03 7.22743E-04-1.07859E-14
 -1      1187 3.82435E-03 7.23058E-04-1.26157E-14
 -1      1188 4.10587E-03 7.22577E-04-1.45713E-14
 -1      1189 4.38831E-03 7.21549E-04-1.66563E-14
 -1      1190 4.67150E-03 7.20128E-04-1.88626E-14
 -1      1191 4.95528E-03 7.18391E-04-2.11924E-14
 -1      1192 5.23955E-03 7.16358E-04-2.36412E-14
 -1      1193 5.52424E-03 7.14003E-04-2.62063E-14
 -1      1194 5.80936E-03 7.11268E-04-2.88872E-14
 -1      1195 6.09494E-03 7.08070E-04-3.16806E-14
 -1      1196 6.38113E-03 7.04313E-04-3.45794E-14
 -1      1197 6.66813E-03 6.99899E-04-3.75779E-14
 -1      1198 6.95626E-03 6.94747E-04-4.06597E-14
 -1      1199 7.24597E-03 6.88811E-04-4.38252E-14
 -1      1200 7.53788E-03 6.82118E-04-4.70767E-14
 -1      1201 7.83285E-03 6.74812E-04-5.04100E-14
 -1      1202 8.13200E-03 6.67239E-04-5.38255E-14
 -1      1203 8.43680E-03 6.60056E-04-5.73136E-14
 -1      1204 8.74915E-03 6.54418E-04-6.08664E-14
 -1      1205 9.07139E-03 6.52252E-04-6.44820E-14
 -1      1206 9.40629E-03 6.56661E-04-6.81606E-14
 -1      1207 9.75683E-03 6.72486E-04-7.18973E-14
 -1      1208 1.01256E-02 7.06963E-04-7.57000E-14
 -1      1209 1.05135E-02 7.70173E-04-7.95762E-14
 -1      1210 1.09175E-02 8.74419E-04-8.35185E-14
 -1      1211 1.13277E-02 1.03082E-03-8.75259E-14
 -1      1212 1.17252E-02 1.24113E-03-9.15846E-14
 -1      1213 1.20844E-02 1.48545E-03-9.57021E-14
 -1      1214 1.23850E-02 1.71487E-03-9.98796E-14
 -1      1215 1.26298E-02 1.86436E-03-1.04110E-13
 -1      1216 1.28513E-02 1.88886E-03-1.08395E-13
 -1      1217 1.30919E-02 1.79474E-03-1.12723E-13
 -1      1218 1.33747E-02 1.63240E-03-1.17068E-13
 -1      1219 1.36934E-02 1.45782E-03-1.21425E-13
 -1      1220 1.40248E-02 1.30181E-03-1.25794E-13
 -1      1221 1.43469E-02 1.16570E-03-1.30164E-13
 -1      1222 1.46495E-02 1.03352E-03-1.34539E-13
 -1      1223 1.49298E-02 8.92506E-04-1.38802E-13
 -1      1224 1.51416E-02 7.76753E-04-1.40751E-13
 -1      1225 1.53053E-02 6.94949E-04-1.40506E-13
 -1      1226 1.54857E-02 6.31258E-04-1.40249E-13
 -1      1227 1.56701E-02 5.99599E-04-1.39986E-13
 -1      1228 1.58344E-02 6.08677E-04-1.39729E-13
 -1      1229 1.59467E-02 6.57207E-04-1.39458E-13
 -1      1230 1.59810E-02 7.32043E-04-1.39192E-13
 -1      1231 1.59229E-02 8.10542E-04-1.38928E-13
 -1      1232 1.57797E-02 8.66728E-04-1.38667E-13
 -1      1233 1.55771E-02 8.83654E-04-1.38388E-13
 -1      1234 1.53472E-02 8.57639E-04-1.38091E-13
 -1      1235 1.51181E-02 7.96754E-04-1.37789E-13
 -1      1236 1.49029E-02 7.13374E-04-1.37471E-13
 -1      1237 1.47041E-02 6.19118E-04-1.37086E-13
 -1      1238 1.45202E-02 5.24234E-04-1.36671E-13
 -1      1239 1.43435E-02 4.33876E-04-1.36277E-13
 -1      1240 1.41680E-02 3.48950E-04-1.35892E-13
 -1      1241 1.50107E-02 7.00015E-04-1.13685E-13
 -1      1242 1.48951E-02 8.76349E-04-1.13382E-13
 -1      1243 1.46699E-02 1.04905E-03-1.12679E-13
 -1      1244 1.43287E-02 1.23051E-03-1.11512E-13
 -1      1245 1.38839E-02 1.40551E-03-1.09861E-13
 -1      1246 1.34105E-02 1.53220E-03-1.07980E-13
 -1      1247 1.29289E-02 1.58986E-03-1.05970E-13
 -1      1248 1.24258E-02 1.56988E-03-1.03808E-13
 -1      1249 1.19394E-02 1.47356E-03-1.01700E-13
 -1      1250 1.14782E-02 1.31560E-03-9.97221E-14
 -1      1251 1.10530E-02 1.12151E-03-9.79335E-14
 -1      1252 1.06952E-02 9.20886E-04-9.64546E-14
 -1      1253 1.04064E-02 7.18031E-04-9.52597E-14
 -1      1254 1.02228E-02 5.30089E-04-9.44781E-14
 -1      1255 1.01598E-02 3.60761E-04-9.41333E-14
 -1      1256 1.02107E-02 2.01598E-04-9.42240E-14
 -1      1257 1.03702E-02 4.73904E-05-9.47221E-14
 -1      1258 1.06252E-02-1.04465E-04-9.56069E-14
 -1      1259 1.09425E-02-2.42283E-04-9.67985E-14
 -1      1260 1.13357E-02-3.67927E-04-9.83829E-14
 -1      1261 1.17838E-02-4.61434E-04-1.00273E-13
 -1      1262 1.22431E-02-4.99623E-04-1.02268E-13
 -1      1263 1.27235E-02-4.77890E-04-1.04382E-13
 -1      1264 1.32190E-02-3.89976E-04-1.06523E-13
 -1      1265 1.36946E-02-2.51293E-04-1.08511E-13
 -1      1266 1.41491E-02-7.21830E-05-1.10325E-13
 -1      1267 1.45405E-02 1.24211E-04-1.11811E-13
 -1      1268 1.48228E-02 3.14445E-04-1.12867E-13
 -1      1269 1.49907E-02 5.09408E-04-1.13525E-13
 -1      1270 1.66711E-04-1.10339E-04 6.62719E-18
 -1      1271 1.12548E-04-5.69684E-05-2.39067E-17
 -1      1272 1.17631E-04-6.75775E-05-1.55854E-17
 -1      1273 1.08429E-04-4.34849E-05-3.79606E-17
 -1      1274 1.10292E-04-4.95998E-05-3.35425E-17
 -1      1275 2.26344E-04-1.07613E-04-7.84014E-17
 -1      1276 1.06842E-04-3.36010E-05-4.64039E-17
 -1      1277 1.07692E-04-3.83245E-05-4.38831E-17
 -1      1278 2.19118E-04-8.24445E-05-1.04395E-16
 -1      1279 1.06059E-04-2.53475E-05-5.19333E-17
 -1      1280 1.06490E-04-2.93783E-05-5.04967E-17
 -1      1281 2.15862E-04-6.32623E-05-1.21092E-16
 -1      1282 1.05657E-04-1.80864E-05-5.53621E-17
 -1      1283 1.05888E-04-2.16543E-05-5.45489E-17
 -1      1284 2.14204E-04-4.71801E-05-1.32002E-16
 -1      1285 1.05433E-04-1.12356E-05-5.77067E-17
 -1      1286 1.05558E-04-1.46201E-05-5.72730E-17
 -1      1287 2.13287E-04-3.27442E-05-1.39076E-16
 -1      1288 1.05333E-04-4.68748E-06-5.89399E-17
 -1      1289 1.05386E-04-7.93986E-06-5.86418E-17
 -1      1290 2.12785E-04-1.91844E-05-1.43508E-16
 -1      1291 1.05321E-04 1.74252E-06-5.98073E-17
 -1      1292 1.05319E-04-1.46995E-06-5.96853E-17
 -1      1293 2.12568E-04-6.15842E-06-1.46150E-16
 -1      1294 1.05394E-04 8.22229E-06-5.98480E-17
 -1      1295 1.05337E-04 4.96335E-06-5.98751E-17
 -1      1296 2.12577E-04 6.70664E-06-1.47411E-16
 -1      1297 1.05573E-04 1.49278E-05-5.94278E-17
 -1      1298 1.05445E-04 1.15286E-05-5.96447E-17
 -1      1299 2.12810E-04 1.97589E-05-1.47140E-16
 -1      1300 1.05909E-04 2.19453E-05-5.77744E-17
 -1      1301 1.05672E-04 1.83547E-05-5.82488E-17
 -1      1302 2.13324E-04 3.32582E-05-1.45026E-16
 -1      1303 1.06535E-04 2.98113E-05-5.50504E-17
 -1      1304 1.06095E-04 2.57346E-05-5.60397E-17
 -1      1305 2.14270E-04 4.77838E-05-1.40594E-16
 -1      1306 1.07729E-04 3.89102E-05-4.99953E-17
 -1      1307 1.06876E-04 3.41164E-05-5.19333E-17
 -1      1308 2.15980E-04 6.41956E-05-1.32828E-16
 -1      1309 1.10271E-04 5.03383E-05-4.09422E-17
 -1      1310 1.08432E-04 4.41538E-05-4.48995E-17
 -1      1311 2.19213E-04 8.36941E-05-1.19411E-16
 -1      1312 1.16947E-04 6.76138E-05-2.49909E-17
 -1      1313 1.12195E-04 5.77679E-05-3.28107E-17
 -1      1314 2.26332E-04 1.09432E-04-9.69683E-17
 -1      1315 1.57590E-04 1.09857E-04 1.01644E-18
 -1      1316 1.35672E-04 8.60864E-05-1.58429E-17
 -1      1317 2.56060E-04 1.52083E-04-6.92941E-17
 -1      1318 3.35109E-04 2.20731E-04-2.71593E-17
 -1      1319 4.21573E-04-2.61729E-04-2.57634E-17
 -1      1320 5.74685E-04-3.36785E-04-7.66666E-17
 -1      1321 7.21889E-04-3.97386E-04-1.67455E-16
 -1      1322 8.65074E-04-4.46682E-04-2.95364E-16
 -1      1323 6.12125E-04-3.30874E-04-1.68892E-16
 -1      1324 1.00512E-03-4.87757E-04-4.59282E-16
 -1      1325 1.14298E-03-5.21750E-04-6.60482E-16
 -1      1326 9.05390E-04-4.31573E-04-4.39671E-16
 -1      1327 1.27950E-03-5.50529E-04-8.98248E-16
 -1      1328 1.41517E-03-5.74573E-04-1.17319E-15
 -1      1329 1.18785E-03-5.01002E-04-8.54771E-16
 -1      1330 1.55043E-03-5.94949E-04-1.48422E-15
 -1      1331 1.68555E-03-6.11989E-04-1.83177E-15
 -1      1332 1.46482E-03-5.49789E-04-1.41473E-15
 -1      1333 1.82077E-03-6.26324E-04-2.21492E-15
 -1      1334 1.95618E-03-6.38246E-04-2.63332E-15
 -1      1335 1.73956E-03-5.84120E-04-2.11848E-15
 -1      1336 2.09193E-03-6.48157E-04-3.08777E-15
 -1      1337 2.22804E-03-6.56307E-04-3.57807E-15
 -1      1338 2.01391E-03-6.07978E-04-2.96470E-15
 -1      1339 2.36458E-03-6.62973E-04-4.10389E-15
 -1      1340 2.50155E-03-6.68359E-04-4.66454E-15
 -1      1341 2.28888E-03-6.24180E-04-3.95205E-15
 -1      1342 2.63897E-03-6.72662E-04-5.26054E-15
 -1      1343 2.77683E-03-6.76045E-04-5.89199E-15
 -1      1344 2.56494E-03-6.34803E-04-5.07987E-15
 -1      1345 2.91513E-03-6.78649E-04-6.55671E-15
 -1      1346 3.05383E-03-6.80602E-04-7.25578E-15
 -1      1347 2.84226E-03-6.41402E-04-6.34555E-15
 -1      1348 3.19293E-03-6.82006E-04-7.98794E-15
 -1      1349 3.33240E-03-6.82958E-04-8.75317E-15
 -1      1350 3.12088E-03-6.45145E-04-7.74719E-15
 -1      1351 3.47221E-03-6.83528E-04-9.55223E-15
 -1      1352 3.61234E-03-6.83792E-04-1.03831E-14
 -1      1353 3.40071E-03-6.46897E-04-9.28176E-15
 -1      1354 3.75276E-03-6.83795E-04-1.12466E-14
 -1      1355 3.89345E-03-6.83593E-04-1.21424E-14
 -1      1356 3.68164E-03-6.47289E-04-1.09478E-14
 -1      1357 4.03438E-03-6.83214E-04-1.30695E-14
 -1      1358 4.17554E-03-6.82698E-04-1.40284E-14
 -1      1359 3.96350E-03-6.46768E-04-1.27412E-14
 -1      1360 4.31689E-03-6.82060E-04-1.50181E-14
 -1      1361 4.45842E-03-6.81328E-04-1.60392E-14
 -1      1362 4.24617E-03-6.45638E-04-1.46605E-14
 -1      1363 4.60012E-03-6.80506E-04-1.70904E-14
 -1      1364 4.74197E-03-6.79613E-04-1.81726E-14
 -1      1365 4.52951E-03-6.44090E-04-1.67037E-14
 -1      1366 4.88395E-03-6.78646E-04-1.92846E-14
 -1      1367 5.02606E-03-6.77614E-04-2.04260E-14
 -1      1368 4.81341E-03-6.42233E-04-1.88681E-14
 -1      1369 5.16828E-03-6.76510E-04-2.15962E-14
 -1      1370 5.31061E-03-6.75338E-04-2.27938E-14
 -1      1371 5.09779E-03-6.40107E-04-2.11507E-14
 -1      1372 5.45306E-03-6.74086E-04-2.40185E-14
 -1      1373 5.59561E-03-6.72756E-04-2.52689E-14
 -1      1374 5.38261E-03-6.37706E-04-2.35455E-14
 -1      1375 5.73828E-03-6.71332E-04-2.65468E-14
 -1      1376 5.88107E-03-6.69814E-04-2.78523E-14
 -1      1377 5.66785E-03-6.34985E-04-2.60484E-14
 -1      1378 6.02399E-03-6.68185E-04-2.91819E-14
 -1      1379 6.16705E-03-6.66446E-04-3.05363E-14
 -1      1380 5.95354E-03-6.31882E-04-2.86564E-14
 -1      1381 6.31027E-03-6.64580E-04-3.19178E-14
 -1      1382 6.45368E-03-6.62590E-04-3.33227E-14
 -1      1383 6.23977E-03-6.28323E-04-3.13672E-14
 -1      1384 6.59730E-03-6.60463E-04-3.47529E-14
 -1      1385 6.74116E-03-6.58209E-04-3.62091E-14
 -1      1386 6.52667E-03-6.24242E-04-3.41790E-14
 -1      1387 6.88530E-03-6.55817E-04-3.76887E-14
 -1      1388 7.02975E-03-6.53310E-04-3.91930E-14
 -1      1389 6.81441E-03-6.19603E-04-3.70897E-14
 -1      1390 7.17456E-03-6.50687E-04-4.07201E-14
 -1      1391 7.31977E-03-6.47985E-04-4.22685E-14
 -1      1392 7.10325E-03-6.14423E-04-4.00959E-14
 -1      1393 7.46545E-03-6.45218E-04-4.38388E-14
 -1      1394 7.61164E-03-6.42444E-04-4.54291E-14
 -1      1395 7.39349E-03-6.08807E-04-4.31918E-14
 -1      1396 7.75841E-03-6.39701E-04-4.70430E-14
 -1      1397 7.90582E-03-6.37073E-04-4.86796E-14
 -1      1398 7.68549E-03-6.02999E-04-4.63760E-14
 -1      1399 8.05392E-03-6.34633E-04-5.03371E-14
 -1      1400 8.20278E-03-6.32496E-04-5.20161E-14
 -1      1401 7.97966E-03-5.97433E-04-4.96480E-14
 -1      1402 8.35245E-03-6.30781E-04-5.37151E-14
 -1      1403 8.50298E-03-6.29636E-04-5.54330E-14
 -1      1404 8.27639E-03-5.92800E-04-5.30028E-14
 -1      1405 8.65441E-03-6.29241E-04-5.71700E-14
 -1      1406 8.80675E-03-6.29776E-04-5.89253E-14
 -1      1407 8.57605E-03-5.90118E-04-5.64386E-14
 -1      1408 8.96002E-03-6.31486E-04-6.07001E-14
 -1      1409 9.11417E-03-6.34575E-04-6.24914E-14
 -1      1410 8.87887E-03-5.90786E-04-5.99501E-14
 -1      1411 9.26915E-03-6.39349E-04-6.42966E-14
 -1      1412 9.42487E-03-6.46011E-04-6.61162E-14
 -1      1413 9.18485E-03-5.96593E-04-6.35297E-14
 -1      1414 9.58117E-03-6.54901E-04-6.79495E-14
 -1      1415 9.73785E-03-6.66175E-04-6.97941E-14
 -1      1416 9.49360E-03-6.09640E-04-6.71693E-14
 -1      1417 9.89465E-03-6.80143E-04-7.16514E-14
 -1      1418 1.00513E-02-6.96837E-04-7.35232E-14
 -1      1419 9.80417E-03-6.32080E-04-7.08609E-14
 -1      1420 1.02073E-02-7.16423E-04-7.54058E-14
 -1      1421 1.03623E-02-7.38708E-04-7.72980E-14
 -1      1422 1.01149E-02-6.65622E-04-7.46024E-14
 -1      1423 1.05158E-02-7.63553E-04-7.92048E-14
 -1      1424 1.06674E-02-7.90426E-04-8.11224E-14
 -1      1425 1.04235E-02-7.10690E-04-7.83919E-14
 -1      1426 1.08164E-02-8.18711E-04-8.30496E-14
 -1      1427 1.09625E-02-8.47461E-04-8.49908E-14
 -1      1428 1.07270E-02-7.65327E-04-8.22291E-14
 -1      1429 1.11052E-02-8.75495E-04-8.69409E-14
 -1      1430 1.12442E-02-9.01470E-04-8.89023E-14
 -1      1431 1.10220E-02-8.24091E-04-8.61082E-14
 -1      1432 1.13795E-02-9.23747E-04-9.08799E-14
 -1      1433 1.15110E-02-9.40790E-04-9.28702E-14
 -1      1434 1.13060E-02-8.77550E-04-9.00371E-14
 -1      1435 1.16389E-02-9.50856E-04-9.48730E-14
 -1      1436 1.17638E-02-9.52580E-04-9.68914E-14
 -1      1437 1.15780E-02-9.13133E-04-9.40205E-14
 -1      1438 1.18862E-02-9.44648E-04-9.89212E-14
 -1      1439 1.20068E-02-9.26270E-04-1.00964E-13
 -1      1440 1.18393E-02-9.17752E-04-9.80583E-14
 -1      1441 1.21265E-02-8.97011E-04-1.03020E-13
 -1      1442 1.22460E-02-8.56889E-04-1.05089E-13
 -1      1443 1.20935E-02-8.81582E-04-1.02149E-13
 -1      1444 1.23662E-02-8.06451E-04-1.07170E-13
 -1      1445 1.24878E-02-7.46450E-04-1.09262E-13
 -1      1446 1.23459E-02-8.01264E-04-1.06288E-13
 -1      1447 1.26111E-02-6.78115E-04-1.11366E-13
 -1      1448 1.27367E-02-6.02600E-04-1.13483E-13
 -1      1449 1.26011E-02-6.80667E-04-1.10477E-13
 -1      1450 1.28646E-02-5.21305E-04-1.15608E-13
 -1      1451 1.29948E-02-4.35410E-04-1.17738E-13
 -1      1452 1.28623E-02-5.28788E-04-1.14708E-13
 -1      1453 1.31273E-02-3.46072E-04-1.19876E-13
 -1      1454 1.32620E-02-2.54267E-04-1.22022E-13
 -1      1455 1.31303E-02-3.56147E-04-1.18973E-13
 -1      1456 1.33985E-02-1.60793E-04-1.24176E-13
 -1      1457 1.35367E-02-6.64101E-05-1.26330E-13
 -1      1458 1.34046E-02-1.71833E-04-1.23265E-13
 -1      1459 1.36763E-02 2.83040E-05-1.28490E-13
 -1      1460 1.38173E-02 1.22571E-04-1.30658E-13
 -1      1461 1.36837E-02 1.74921E-05-1.27580E-13
 -1      1462 1.40324E-02 2.61832E-04-1.33826E-13
 -1      1463 1.40395E-02 2.52928E-04-1.32912E-13
 -1      1464 6.43133E-04 3.71999E-04-1.55380E-16
 -1      1465 4.92991E-04 3.03680E-04-7.03241E-17
 -1      1466 4.44919E-04 2.65881E-04-1.01617E-16
 -1      1467 9.28754E-04 4.71962E-04-4.47233E-16
 -1      1468 7.87872E-04 4.26471E-04-2.81323E-16
 -1      1469 7.44810E-04 3.90697E-04-3.16845E-16
 -1      1470 1.20368E-03 5.41390E-04-8.97055E-16
 -1      1471 1.06700E-03 5.09706E-04-6.52053E-16
 -1      1472 1.03089E-03 4.76139E-04-6.90406E-16
 -1      1473 1.47428E-03 5.90603E-04-1.50470E-15
 -1      1474 1.33920E-03 5.68135E-04-1.18131E-15
 -1      1475 1.30884E-03 5.35974E-04-1.21951E-15
 -1      1476 1.74386E-03 6.25526E-04-2.26732E-15
 -1      1477 1.60902E-03 6.09610E-04-1.86651E-15
 -1      1478 1.58311E-03 5.78282E-04-1.90277E-15
 -1      1479 2.01412E-03 6.50028E-04-3.18124E-15
 -1      1480 1.87882E-03 6.38907E-04-2.70575E-15
 -1      1481 1.85632E-03 6.08042E-04-2.73810E-15
 -1      1482 2.28586E-03 6.66861E-04-4.24242E-15
 -1      1483 2.14977E-03 6.59272E-04-3.69357E-15
 -1      1484 2.12988E-03 6.28640E-04-3.72219E-15
 -1      1485 2.55940E-03 6.78068E-04-5.44982E-15
 -1      1486 2.42239E-03 6.73066E-04-4.82776E-15
 -1      1487 2.40450E-03 6.42527E-04-4.85186E-15
 -1      1488 2.83480E-03 6.85196E-04-6.80228E-15
 -1      1489 2.69687E-03 6.82065E-04-6.10838E-15
 -1      1490 2.68047E-03 6.51535E-04-6.12604E-15
 -1      1491 3.11194E-03 6.89407E-04-8.29449E-15
 -1      1492 2.97316E-03 6.87608E-04-7.53113E-15
 -1      1493 2.95787E-03 6.57039E-04-7.54160E-15
 -1      1494 3.39067E-03 6.91570E-04-9.92174E-15
 -1      1495 3.25112E-03 6.90701E-04-9.09128E-15
 -1      1496 3.23665E-03 6.60069E-04-9.09377E-15
 -1      1497 3.67076E-03 6.92322E-04-1.16798E-14
 -1      1498 3.53056E-03 6.92091E-04-1.07848E-14
 -1      1499 3.51668E-03 6.61386E-04-1.07785E-14
 -1      1500 3.95201E-03 6.92116E-04-1.35641E-14
 -1      1501 3.81126E-03 6.92317E-04-1.26066E-14
 -1      1502 3.79781E-03 6.61538E-04-1.25922E-14
 -1      1503 4.23422E-03 6.91264E-04-1.55760E-14
 -1      1504 4.09301E-03 6.91756E-04-1.45537E-14
 -1      1505 4.07986E-03 6.60909E-04-1.45314E-14
 -1      1506 4.51720E-03 6.89964E-04-1.77123E-14
 -1      1507 4.37562E-03 6.90661E-04-1.66290E-14
 -1      1508 4.36270E-03 6.59754E-04-1.65972E-14
 -1      1509 4.80081E-03 6.88331E-04-1.99715E-14
 -1      1510 4.65894E-03 6.89185E-04-1.88267E-14
 -1      1511 4.64619E-03 6.58228E-04-1.87853E-14
 -1      1512 5.08495E-03 6.86407E-04-2.23504E-14
 -1      1513 4.94282E-03 6.87404E-04-2.11462E-14
 -1      1514 4.93021E-03 6.56406E-04-2.10959E-14
 -1      1515 5.36954E-03 6.84187E-04-2.48481E-14
 -1      1516 5.22719E-03 6.85336E-04-2.35850E-14
 -1      1517 5.21469E-03 6.54305E-04-2.35244E-14
 -1      1518 5.65456E-03 6.81623E-04-2.74607E-14
 -1      1519 5.51199E-03 6.82951E-04-2.61394E-14
 -1      1520 5.49961E-03 6.51891E-04-2.60688E-14
 -1      1521 5.94003E-03 6.78637E-04-3.01865E-14
 -1      1522 5.79723E-03 6.80186E-04-2.88093E-14
 -1      1523 5.78495E-03 6.49098E-04-2.87279E-14
 -1      1524 6.22605E-03 6.75133E-04-3.30219E-14
 -1      1525 6.08296E-03 6.76953E-04-3.15910E-14
 -1      1526 6.07079E-03 6.45833E-04-3.14988E-14
 -1      1527 6.51277E-03 6.71003E-04-3.59595E-14
 -1      1528 6.36931E-03 6.73148E-04-3.44786E-14
 -1      1529 6.35723E-03 6.41985E-04-3.43751E-14
 -1      1530 6.80044E-03 6.66145E-04-3.89907E-14
 -1      1531 6.65647E-03 6.68664E-04-3.74649E-14
 -1      1532 6.64446E-03 6.37438E-04-3.73496E-14
 -1      1533 7.08941E-03 6.60475E-04-4.21049E-14
 -1      1534 6.94474E-03 6.63405E-04-4.05375E-14
 -1      1535 6.93275E-03 6.32084E-04-4.04116E-14
 -1      1536 7.38019E-03 6.53960E-04-4.53051E-14
 -1      1537 7.23454E-03 6.57308E-04-4.36932E-14
 -1      1538 7.22249E-03 6.25846E-04-4.35598E-14
 -1      1539 7.67343E-03 6.46649E-04-4.85888E-14
 -1      1540 7.52646E-03 6.50375E-04-4.69365E-14
 -1      1541 7.51418E-03 6.18703E-04-4.67934E-14
 -1      1542 7.97002E-03 6.38740E-04-5.19533E-14
 -1      1543 7.82125E-03 6.42721E-04-5.02610E-14
 -1      1544 7.80851E-03 6.10743E-04-5.01089E-14
 -1      1545 8.27110E-03 6.30670E-04-5.53979E-14
 -1      1546 8.11992E-03 6.34647E-04-5.36666E-14
 -1      1547 8.10635E-03 6.02232E-04-5.35055E-14
 -1      1548 8.57814E-03 6.23255E-04-5.89108E-14
 -1      1549 8.42377E-03 6.26759E-04-5.71462E-14
 -1      1550 8.40881E-03 5.93726E-04-5.69760E-14
 -1      1551 8.89294E-03 6.17914E-04-6.24875E-14
 -1      1552 8.73445E-03 6.20141E-04-6.06910E-14
 -1      1553 8.71728E-03 5.86248E-04-6.05143E-14
 -1      1554 9.21767E-03 6.17003E-04-6.61285E-14
 -1      1555 9.05392E-03 6.16634E-04-6.43005E-14
 -1      1556 9.03339E-03 5.81561E-04-6.41171E-14
 -1      1557 9.55466E-03 6.24303E-04-6.98330E-14
 -1      1558 9.38447E-03 6.19243E-04-6.79730E-14
 -1      1559 9.35900E-03 5.82572E-04-6.77841E-14
 -1      1560 9.90615E-03 6.45666E-04-7.35970E-14
 -1      1561 9.72845E-03 6.32711E-04-7.17066E-14
 -1      1562 9.69598E-03 5.93921E-04-7.15119E-14
 -1      1563 1.02735E-02 6.89695E-04-7.74298E-14
 -1      1564 1.00878E-02 6.64210E-04-7.55046E-14
 -1      1565 1.00459E-02 6.22693E-04-7.53058E-14
 -1      1566 1.06558E-02 7.67965E-04-8.13329E-14
 -1      1567 1.04629E-02 7.23889E-04-7.93743E-14
 -1      1568 1.04093E-02 6.79035E-04-7.91682E-14
 -1      1569 1.10485E-02 8.93558E-04-8.52973E-14
 -1      1570 1.08513E-02 8.24436E-04-8.33057E-14
 -1      1571 1.07846E-02 7.75879E-04-8.30929E-14
 -1      1572 1.14408E-02 1.07579E-03-8.93213E-14
 -1      1573 1.12456E-02 9.77979E-04-8.73031E-14
 -1      1574 1.11671E-02 9.26127E-04-8.70786E-14
 -1      1575 1.18162E-02 1.30933E-03-9.33997E-14
 -1      1576 1.16319E-02 1.18803E-03-9.13537E-14
 -1      1577 1.15472E-02 1.13489E-03-9.11191E-14
 -1      1578 1.21569E-02 1.56116E-03-9.75372E-14
 -1      1579 1.19920E-02 1.43658E-03-9.54607E-14
 -1      1580 1.19115E-02 1.38621E-03-9.52174E-14
 -1      1581 1.24544E-02 1.76905E-03-1.01733E-13
 -1      1582 1.23108E-02 1.67477E-03-9.96275E-14
 -1      1583 1.22471E-02 1.63195E-03-9.93744E-14
 -1      1584 1.27198E-02 1.86788E-03-1.05982E-13
 -1      1585 1.25893E-02 1.83431E-03-1.03852E-13
 -1      1586 1.25519E-02 1.80108E-03-1.03589E-13
 -1      1587 1.29812E-02 1.83207E-03-1.10285E-13
 -1      1588 1.28489E-02 1.86526E-03-1.08127E-13
 -1      1589 1.28406E-02 1.83873E-03-1.07860E-13
 -1      1590 1.32639E-02 1.69417E-03-1.14613E-13
 -1      1591 1.31190E-02 1.77188E-03-1.12447E-13
 -1      1592 1.31356E-02 1.74674E-03-1.12172E-13
 -1      1593 1.35740E-02 1.51624E-03-1.18962E-13
 -1      1594 1.34161E-02 1.60666E-03-1.16787E-13
 -1      1595 1.34489E-02 1.57952E-03-1.16506E-13
 -1      1596 1.39002E-02 1.34698E-03-1.23322E-13
 -1      1597 1.37363E-02 1.42910E-03-1.21139E-13
 -1      1598 1.37766E-02 1.39977E-03-1.20854E-13
 -1      1599 1.42257E-02 1.20259E-03-1.27686E-13
 -1      1600 1.40641E-02 1.27208E-03-1.25503E-13
 -1      1601 1.41061E-02 1.24222E-03-1.25214E-13
 -1      1602 1.45386E-02 1.07323E-03-1.32058E-13
 -1      1603 1.43842E-02 1.13727E-03-1.29872E-13
 -1      1604 1.44265E-02 1.10877E-03-1.29580E-13
 -1      1605 1.48356E-02 9.38780E-04-1.36431E-13
 -1      1606 1.46889E-02 1.00776E-03-1.34245E-13
 -1      1607 1.47322E-02 9.81890E-04-1.33953E-13
 -1      1608 1.50056E-02 8.50817E-04-1.38677E-13
 -1      1609 1.52267E-02 7.48655E-04-1.38547E-13
 -1      1610 1.51391E-02 7.84508E-04-1.38673E-13
 -1      1611 1.54134E-02 6.91958E-04-1.38292E-13
 -1      1612 1.53187E-02 7.17431E-04-1.38422E-13
 -1      1613 1.51502E-02 7.95743E-04-1.36594E-13
 -1      1614 1.56005E-02 6.62154E-04-1.38035E-13
 -1      1615 1.55083E-02 6.73263E-04-1.38162E-13
 -1      1616 1.53423E-02 7.39568E-04-1.36339E-13
 -1      1617 1.57603E-02 6.63678E-04-1.37776E-13
 -1      1618 1.56857E-02 6.58975E-04-1.37908E-13
 -1      1619 1.55298E-02 7.05683E-04-1.36084E-13
 -1      1620 1.58589E-02 6.92741E-04-1.37513E-13
 -1      1621 1.58187E-02 6.75347E-04-1.37647E-13
 -1      1622 1.56811E-02 6.96780E-04-1.35828E-13
 -1      1623 1.58723E-02 7.38078E-04-1.37247E-13
 -1      1624 1.58776E-02 7.14524E-04-1.37379E-13
 -1      1625 1.57643E-02 7.08786E-04-1.35567E-13
 -1      1626 1.57891E-02 7.80645E-04-1.36980E-13
 -1      1627 1.58425E-02 7.60956E-04-1.37114E-13
 -1      1628 1.57540E-02 7.30481E-04-1.35299E-13
 -1      1629 1.56233E-02 8.02477E-04-1.36709E-13
 -1      1630 1.57149E-02 7.95040E-04-1.36846E-13
 -1      1631 1.56453E-02 7.45725E-04-1.35029E-13
 -1      1632 1.54053E-02 7.93075E-04-1.36420E-13
 -1      1633 1.55187E-02 8.01943E-04-1.36568E-13
 -1      1634 1.54587E-02 7.40860E-04-1.34749E-13
 -1      1635 1.51683E-02 7.51581E-04-1.36116E-13
 -1      1636 1.52874E-02 7.76047E-04-1.36270E-13
 -1      1637 1.52284E-02 7.09698E-04-1.34452E-13
 -1      1638 1.49406E-02 6.85748E-04-1.35804E-13
 -1      1639 1.50527E-02 7.21214E-04-1.35963E-13
 -1      1640 1.49893E-02 6.54409E-04-1.34142E-13
 -1      1641 1.47266E-02 6.02642E-04-1.35469E-13
 -1      1642 1.48310E-02 6.45621E-04-1.35641E-13
 -1      1643 1.47612E-02 5.81025E-04-1.33819E-13
 -1      1644 1.45319E-02 5.12274E-04-1.35084E-13
 -1      1645 1.46269E-02 5.57877E-04-1.35283E-13
 -1      1646 1.45513E-02 4.96168E-04-1.33470E-13
 -1      1647 1.43511E-02 4.21255E-04-1.34688E-13
 -1      1648 1.44402E-02 4.66535E-04-1.34884E-13
 -1      1649 1.43608E-02 4.06947E-04-1.33094E-13
 -1      1650 1.41514E-02 3.14555E-04-1.33702E-13
 -1      1651 1.42388E-02 3.58322E-04-1.33896E-13
 -1      1652 1.41582E-02 2.99044E-04-1.32109E-13
 -1      1653 1.39357E-02 1.74109E-04-1.30532E-13
 -1      1654 1.50084E-02 7.03901E-04-1.14545E-13
 -1      1655 1.50402E-02 6.47644E-04-1.14590E-13
 -1      1656 1.48351E-02 8.37796E-04-1.14058E-13
 -1      1657 1.49307E-02 7.75299E-04-1.14311E-13
 -1      1658 1.45448E-02 9.97008E-04-1.13194E-13
 -1      1659 1.46926E-02 9.19453E-04-1.13646E-13
 -1      1660 1.41185E-02 1.18370E-03-1.11971E-13
 -1      1661 1.43214E-02 1.08302E-03-1.12692E-13
 -1      1662 1.36456E-02 1.40673E-03-1.10040E-13
 -1      1663 1.38630E-02 1.30645E-03-1.10965E-13
 -1      1664 1.32243E-02 1.57075E-03-1.07852E-13
 -1      1665 1.34204E-02 1.50818E-03-1.08795E-13
 -1      1666 1.27898E-02 1.64557E-03-1.05646E-13
 -1      1667 1.29858E-02 1.62425E-03-1.06703E-13
 -1      1668 1.23622E-02 1.60514E-03-1.03257E-13
 -1      1669 1.25566E-02 1.63984E-03-1.04353E-13
 -1      1670 1.19338E-02 1.45461E-03-1.01016E-13
 -1      1671 1.21259E-02 1.53292E-03-1.02017E-13
 -1      1672 1.15038E-02 1.23235E-03-9.88685E-14
 -1      1673 1.17057E-02 1.34175E-03-9.98287E-14
 -1      1674 1.10720E-02 9.93876E-04-9.70268E-14
 -1      1675 1.12636E-02 1.10418E-03-9.78408E-14
 -1      1676 1.06899E-02 7.81353E-04-9.55522E-14
 -1      1677 1.08559E-02 8.77427E-04-9.62035E-14
 -1      1678 1.03770E-02 5.76710E-04-9.41987E-14
 -1      1679 1.05160E-02 6.59475E-04-9.47170E-14
 -1      1680 1.01885E-02 4.48591E-04-9.36224E-14
 -1      1681 1.02546E-02 5.06981E-04-9.38882E-14
 -1      1682 1.01426E-02 3.30717E-04-9.32495E-14
 -1      1683 1.01456E-02 3.81150E-04-9.33165E-14
 -1      1684 1.02360E-02 2.19314E-04-9.35499E-14
 -1      1685 1.01779E-02 2.69797E-04-9.34065E-14
 -1      1686 1.04578E-02 9.36578E-05-9.41420E-14
 -1      1687 1.03396E-02 1.56582E-04-9.37884E-14
 -1      1688 1.07638E-02-6.02585E-05-9.52245E-14
 -1      1689 1.06139E-02 1.07621E-05-9.47068E-14
 -1      1690 1.11158E-02-2.18689E-04-9.65759E-14
 -1      1691 1.09496E-02-1.45132E-04-9.59157E-14
 -1      1692 1.15401E-02-3.82166E-04-9.83472E-14
 -1      1693 1.13408E-02-3.04320E-04-9.74334E-14
 -1      1694 1.19472E-02-5.03978E-04-1.00457E-13
 -1      1695 1.17595E-02-4.56931E-04-9.95058E-14
 -1      1696 1.23577E-02-5.52871E-04-1.02635E-13
 -1      1697 1.21721E-02-5.41849E-04-1.01603E-13
 -1      1698 1.27824E-02-5.01829E-04-1.04955E-13
 -1      1699 1.25844E-02-5.35603E-04-1.03888E-13
 -1      1700 1.32280E-02-3.62140E-04-1.07286E-13
 -1      1701 1.30175E-02-4.38155E-04-1.06222E-13
 -1      1702 1.36833E-02-1.68028E-04-1.09355E-13
 -1      1703 1.34781E-02-2.61868E-04-1.08435E-13
 -1      1704 1.41464E-02 7.13577E-05-1.11373E-13
 -1      1705 1.39242E-02-3.96415E-05-1.10492E-13
 -1      1706 1.45624E-02 2.66782E-04-1.12789E-13
 -1      1707 1.43891E-02 1.78466E-04-1.12173E-13
 -1      1708 1.48646E-02 4.33913E-04-1.13840E-13
 -1      1709 1.47390E-02 3.60784E-04-1.13406E-13
 -1      1710 1.50290E-02 5.78851E-04-1.14494E-13
 -1      1711 1.49738E-02 5.16119E-04-1.14281E-13
 -1      1712 1.39203E-02 1.19997E-03-1.12194E-13
 -1      1713 1.43786E-02 9.81783E-04-1.13707E-13
 -1      1714 1.50510E-02 8.27507E-04-1.38384E-13
 -1      1715 1.49678E-02 8.71536E-04-1.36428E-13
 -1      1716 1.49747E-02 7.06513E-04-1.15272E-13
 -1      1717 1.47446E-02 8.24260E-04-1.14623E-13
 -1      1718 1.50473E-02 6.18279E-04-1.15412E-13
 -1      1719 1.34752E-02 1.44278E-03-1.09937E-13
 -1      1720 1.30581E-02 1.61415E-03-1.07540E-13
 -1      1721 1.26700E-02 1.67341E-03-1.05093E-13
 -1      1722 1.22916E-02 1.59197E-03-1.02558E-13
 -1      1723 1.18882E-02 1.39275E-03-1.00131E-13
 -1      1724 1.14649E-02 1.13244E-03-9.79229E-14
 -1      1725 1.10296E-02 8.77289E-04-9.60792E-14
 -1      1726 1.06369E-02 6.48963E-04-9.44280E-14
 -1      1727 1.03290E-02 4.91874E-04-9.32911E-14
 -1      1728 1.01584E-02 3.89368E-04-9.26783E-14
 -1      1729 1.01503E-02 3.13484E-04-9.25292E-14
 -1      1730 1.02943E-02 2.25299E-04-9.29213E-14
 -1      1731 1.05615E-02 1.05443E-04-9.37187E-14
 -1      1732 1.09046E-02-5.47497E-05-9.49683E-14
 -1      1733 1.12968E-02-2.35678E-04-9.65098E-14
 -1      1734 1.16978E-02-4.17004E-04-9.85157E-14
 -1      1735 1.20896E-02-5.43819E-04-1.00816E-13
 -1      1736 1.24580E-02-5.72406E-04-1.03210E-13
 -1      1737 1.28540E-02-4.85236E-04-1.05730E-13
 -1      1738 1.32757E-02-3.01521E-04-1.08150E-13
 -1      1739 1.37344E-02-5.69678E-05-1.10442E-13
 -1      1740 1.42037E-02 1.87301E-04-1.12388E-13
 -1      1741 1.46245E-02 3.78556E-04-1.13812E-13
 -1      1742 1.49214E-02 5.20213E-04-1.14874E-13
 -1      1743 2.85263E-04-1.76221E-04-3.12657E-17
 -1      1744 3.32200E-04-1.16747E-04-1.69176E-16
 -1      1745 3.36343E-04-1.32993E-04-1.54092E-16
 -1      1746 3.42229E-04-1.51984E-04-1.36311E-16
 -1      1747 3.51787E-04-1.73988E-04-1.12622E-16
 -1      1748 4.58358E-04-1.88046E-04-2.22722E-16
 -1      1749 3.24559E-04-6.53559E-05-2.05185E-16
 -1      1750 3.25700E-04-7.66533E-05-1.98721E-16
 -1      1751 3.23058E-04-4.38703E-05-2.14496E-16
 -1      1752 3.23715E-04-5.43564E-05-2.10118E-16
 -1      1753 4.36498E-04-7.92559E-05-3.07019E-16
 -1      1754 3.22271E-04-2.37608E-05-2.20296E-16
 -1      1755 3.22603E-04-3.36701E-05-2.17735E-16
 -1      1756 4.34490E-04-5.12964E-05-3.18810E-16
 -1      1757 3.21976E-04-4.33507E-06-2.23779E-16
 -1      1758 3.22073E-04-1.39831E-05-2.22234E-16
 -1      1759 4.33467E-04-2.49136E-05-3.26318E-16
 -1      1760 3.22099E-04 1.49743E-05-2.25107E-16
 -1      1761 3.21984E-04 5.31610E-06-2.24809E-16
 -1      1762 4.33169E-04 7.57050E-07-3.30505E-16
 -1      1763 3.22666E-04 3.47153E-05-2.24159E-16
 -1      1764 3.22314E-04 2.47733E-05-2.24850E-16
 -1      1765 4.33526E-04 2.64568E-05-3.31603E-16
 -1      1766 3.23798E-04 5.51456E-05-2.20093E-16
 -1      1767 3.23133E-04 4.47864E-05-2.22587E-16
 -1      1768 4.34605E-04 5.27028E-05-3.29069E-16
 -1      1769 3.25859E-04 7.77911E-05-2.12788E-16
 -1      1770 3.24659E-04 6.62128E-05-2.17057E-16
 -1      1771 4.36663E-04 8.05741E-05-3.22631E-16
 -1      1772 3.29553E-04 1.03626E-04-1.99737E-16
 -1      1773 3.27402E-04 9.02767E-05-2.07327E-16
 -1      1774 4.40318E-04 1.11537E-04-3.10827E-16
 -1      1775 3.36594E-04 1.35084E-04-1.77430E-16
 -1      1776 3.32409E-04 1.18585E-04-1.90196E-16
 -1      1777 4.46796E-04 1.47303E-04-2.90471E-16
 -1      1778 3.52326E-04 1.77581E-04-1.40553E-16
 -1      1779 3.42828E-04 1.54733E-04-1.61546E-16
 -1      1780 4.59340E-04 1.91425E-04-2.56698E-16
 -1      1781 4.07731E-04 2.33666E-04-1.17256E-16
 -1      1782 3.78118E-04 2.02640E-04-1.33641E-16
 -1      1783 4.95891E-04 2.43966E-04-2.27384E-16
 -1      1784 5.58592E-04 3.02479E-04-2.05646E-16
 -1      1785 3.40049E-04-1.90891E-04-7.18284E-17
 -1      1786 8.53643E-04 4.07084E-04-5.02853E-16
 -1      1787 7.07224E-04 3.59346E-04-3.34937E-16
 -1      1788 6.73454E-04 3.28777E-04-3.48869E-16
 -1      1789 4.58990E-04-2.36692E-04-1.43440E-16
 -1      1790 8.07298E-04-3.74080E-04-4.13393E-16
 -1      1791 9.52580E-04-4.15264E-04-5.92001E-16
 -1      1792 1.09543E-03-4.49953E-04-8.05833E-16
 -1      1793 1.23712E-03-4.78849E-04-1.05570E-15
 -1      1794 1.00400E-03-3.97880E-04-7.52030E-16
 -1      1795 1.37754E-03-5.03334E-04-1.34110E-15
 -1      1796 1.51725E-03-5.23711E-04-1.66239E-15
 -1      1797 1.28971E-03-4.55841E-04-1.26350E-15
 -1      1798 1.65643E-03-5.40898E-04-2.01881E-15
 -1      1799 1.79530E-03-5.55133E-04-2.41080E-15
 -1      1800 1.57215E-03-4.96796E-04-1.91558E-15
 -1      1801 1.93404E-03-5.67024E-04-2.83789E-15
 -1      1802 2.07271E-03-5.76776E-04-3.30004E-15
 -1      1803 1.85280E-03-5.25361E-04-2.70809E-15
 -1      1804 2.21149E-03-5.84806E-04-3.79796E-15
 -1      1805 2.35035E-03-5.91287E-04-4.32995E-15
 -1      1806 2.13274E-03-5.44873E-04-3.64071E-15
 -1      1807 2.48941E-03-5.96514E-04-4.89665E-15
 -1      1808 2.62865E-03-6.00627E-04-5.49804E-15
 -1      1809 2.41264E-03-5.57791E-04-4.71169E-15
 -1      1810 2.76814E-03-6.03841E-04-6.13371E-15
 -1      1811 2.90783E-03-6.06267E-04-6.80300E-15
 -1      1812 2.69290E-03-5.65948E-04-5.91959E-15
 -1      1813 3.04778E-03-6.08057E-04-7.50616E-15
 -1      1814 3.18795E-03-6.09300E-04-8.24182E-15
 -1      1815 2.97373E-03-5.70718E-04-7.26341E-15
 -1      1816 3.32836E-03-6.10104E-04-9.01074E-15
 -1      1817 3.46898E-03-6.10535E-04-9.81307E-15
 -1      1818 3.25521E-03-5.73123E-04-8.73912E-15
 -1      1819 3.60982E-03-6.10669E-04-1.06476E-14
 -1      1820 3.75085E-03-6.10555E-04-1.15143E-14
 -1      1821 3.53735E-03-5.73909E-04-1.03464E-14
 -1      1822 3.89207E-03-6.10242E-04-1.24123E-14
 -1      1823 4.03346E-03-6.09766E-04-1.33421E-14
 -1      1824 3.82011E-03-5.73613E-04-1.20828E-14
 -1      1825 4.17501E-03-6.09158E-04-1.43032E-14
 -1      1826 4.31671E-03-6.08442E-04-1.52953E-14
 -1      1827 4.10342E-03-5.72602E-04-1.39452E-14
 -1      1828 4.45854E-03-6.07633E-04-1.63175E-14
 -1      1829 4.60050E-03-6.06747E-04-1.73701E-14
 -1      1830 4.38722E-03-5.71119E-04-1.59308E-14
 -1      1831 4.74258E-03-6.05790E-04-1.84538E-14
 -1      1832 4.88476E-03-6.04769E-04-1.95657E-14
 -1      1833 4.67145E-03-5.69305E-04-1.80386E-14
 -1      1834 5.02705E-03-6.03682E-04-2.07062E-14
 -1      1835 5.16944E-03-6.02531E-04-2.18754E-14
 -1      1836 4.95607E-03-5.67227E-04-2.02626E-14
 -1      1837 5.31192E-03-6.01308E-04-2.30739E-14
 -1      1838 5.45450E-03-6.00012E-04-2.42983E-14
 -1      1839 5.24102E-03-5.64892E-04-2.26017E-14
 -1      1840 5.59718E-03-5.98630E-04-2.55501E-14
 -1      1841 5.73997E-03-5.97159E-04-2.68288E-14
 -1      1842 5.52631E-03-5.62267E-04-2.50526E-14
 -1      1843 5.88286E-03-5.95582E-04-2.81322E-14
 -1      1844 6.02586E-03-5.93897E-04-2.94622E-14
 -1      1845 5.81196E-03-5.59289E-04-2.76090E-14
 -1      1846 6.16900E-03-5.92086E-04-3.08181E-14
 -1      1847 6.31228E-03-5.90149E-04-3.21991E-14
 -1      1848 6.09800E-03-5.55877E-04-3.02700E-14
 -1      1849 6.45571E-03-5.88068E-04-3.36055E-14
 -1      1850 6.59933E-03-5.85848E-04-3.50361E-14
 -1      1851 6.38451E-03-5.51949E-04-3.30318E-14
 -1      1852 6.74314E-03-5.83475E-04-3.64913E-14
 -1      1853 6.88720E-03-5.80959E-04-3.79699E-14
 -1      1854 6.67162E-03-5.47439E-04-3.58939E-14
 -1      1855 7.03150E-03-5.78298E-04-3.94734E-14
 -1      1856 7.17611E-03-5.75511E-04-4.09998E-14
 -1      1857 6.95947E-03-5.42318E-04-3.88525E-14
 -1      1858 7.32103E-03-5.72610E-04-4.25466E-14
 -1      1859 7.46633E-03-5.69630E-04-4.41155E-14
 -1      1860 7.24826E-03-5.36625E-04-4.19028E-14
 -1      1861 7.61202E-03-5.66606E-04-4.57096E-14
 -1      1862 7.75819E-03-5.63592E-04-4.73238E-14
 -1      1863 7.53825E-03-5.30511E-04-4.50422E-14
 -1      1864 7.90482E-03-5.60658E-04-4.89583E-14
 -1      1865 8.05202E-03-5.57881E-04-5.06158E-14
 -1      1866 7.82971E-03-5.24284E-04-4.82708E-14
 -1      1867 8.19979E-03-5.55378E-04-5.22935E-14
 -1      1868 8.34820E-03-5.53258E-04-5.39913E-14
 -1      1869 8.12295E-03-5.18477E-04-5.15841E-14
 -1      1870 8.49725E-03-5.51694E-04-5.57087E-14
 -1      1871 8.64702E-03-5.50831E-04-5.74448E-14
 -1      1872 8.41830E-03-5.13920E-04-5.49790E-14
 -1      1873 8.79750E-03-5.50910E-04-5.92009E-14
 -1      1874 8.94870E-03-5.52109E-04-6.09740E-14
 -1      1875 8.71608E-03-5.11803E-04-5.84523E-14
 -1      1876 9.10065E-03-5.54737E-04-6.27639E-14
 -1      1877 9.25326E-03-5.58998E-04-6.45685E-14
 -1      1878 9.01655E-03-5.13731E-04-6.19981E-14
 -1      1879 9.40659E-03-5.65247E-04-6.63871E-14
 -1      1880 9.56041E-03-5.73697E-04-6.82210E-14
 -1      1881 9.31984E-03-5.21712E-04-6.56067E-14
 -1      1882 9.71482E-03-5.84691E-04-7.00674E-14
 -1      1883 9.86943E-03-5.98400E-04-7.19272E-14
 -1      1884 9.62589E-03-5.38025E-04-6.92735E-14
 -1      1885 1.00243E-02-6.15065E-04-7.37986E-14
 -1      1886 1.01790E-02-6.34729E-04-7.56816E-14
 -1      1887 9.93424E-03-5.64896E-04-7.29931E-14
 -1      1888 1.03335E-02-6.57379E-04-7.75783E-14
 -1      1889 1.04871E-02-6.82811E-04-7.94860E-14
 -1      1890 1.02440E-02-6.03860E-04-7.67632E-14
 -1      1891 1.06400E-02-7.10585E-04-8.14047E-14
 -1      1892 1.07913E-02-7.40100E-04-8.33354E-14
 -1      1893 1.05534E-02-6.54772E-04-8.05805E-14
 -1      1894 1.09410E-02-7.70350E-04-8.52756E-14
 -1      1895 1.10885E-02-8.00243E-04-8.72281E-14
 -1      1896 1.08601E-02-7.14513E-04-8.44420E-14
 -1      1897 1.12338E-02-8.28202E-04-8.91947E-14
 -1      1898 1.13766E-02-8.52704E-04-9.11737E-14
 -1      1899 1.11611E-02-7.75804E-04-8.83510E-14
 -1      1900 1.15166E-02-8.71841E-04-9.31673E-14
 -1      1901 1.16543E-02-8.83967E-04-9.51738E-14
 -1      1902 1.14540E-02-8.26912E-04-9.23116E-14
 -1      1903 1.17896E-02-8.87338E-04-9.71951E-14
 -1      1904 1.19233E-02-8.80695E-04-9.92282E-14
 -1      1905 1.17375E-02-8.53264E-04-9.63298E-14
 -1      1906 1.20553E-02-8.63030E-04-1.01275E-13
 -1      1907 1.21871E-02-8.33930E-04-1.03336E-13
 -1      1908 1.20135E-02-8.41276E-04-1.00401E-13
 -1      1909 1.23183E-02-7.93458E-04-1.05407E-13
 -1      1910 1.24504E-02-7.42160E-04-1.07490E-13
 -1      1911 1.22858E-02-7.83087E-04-1.04523E-13
 -1      1912 1.25831E-02-6.81054E-04-1.09587E-13
 -1      1913 1.27172E-02-6.11335E-04-1.11694E-13
 -1      1914 1.25592E-02-6.79390E-04-1.08694E-13
 -1      1915 1.28525E-02-5.34495E-04-1.13809E-13
 -1      1916 1.29893E-02-4.51855E-04-1.15934E-13
 -1      1917 1.28368E-02-5.38450E-04-1.12909E-13
 -1      1918 1.31273E-02-3.64857E-04-1.18069E-13
 -1      1919 1.32663E-02-2.74539E-04-1.20208E-13
 -1      1920 1.31190E-02-3.72028E-04-1.17161E-13
 -1      1921 1.34064E-02-1.81986E-04-1.22355E-13
 -1      1922 1.35471E-02-8.78971E-05-1.24509E-13
 -1      1923 1.34043E-02-1.90936E-04-1.21444E-13
 -1      1924 1.36703E-02-4.57137E-06-1.26436E-13
 -1      1925 1.38119E-02 9.06271E-05-1.28599E-13
 -1      1926 1.39221E-02 1.52823E-04-1.29383E-13
 -1      1927 1.36726E-02-1.44022E-05-1.25521E-13
 -1      1928 1.13873E-03 4.80047E-04-9.52472E-16
 -1      1929 9.96941E-04 4.46795E-04-7.08336E-16
 -1      1930 9.64550E-04 4.17338E-04-7.21672E-16
 -1      1931 1.41788E-03 5.31535E-04-1.55544E-15
 -1      1932 1.27871E-03 5.08082E-04-1.23465E-15
 -1      1933 1.24906E-03 4.79942E-04-1.24569E-15
 -1      1934 1.69430E-03 5.67845E-04-2.31016E-15
 -1      1935 1.55625E-03 5.51342E-04-1.91391E-15
 -1      1936 1.52936E-03 5.24166E-04-1.92102E-15
 -1      1937 1.96991E-03 5.93159E-04-3.21511E-15
 -1      1938 1.83211E-03 5.81706E-04-2.74418E-15
 -1      1939 1.80764E-03 5.55167E-04-2.74618E-15
 -1      1940 2.24579E-03 6.10433E-04-4.26596E-15
 -1      1941 2.10777E-03 6.02676E-04-3.72238E-15
 -1      1942 2.08530E-03 5.76541E-04-3.71865E-15
 -1      1943 2.52250E-03 6.21849E-04-5.46077E-15
 -1      1944 2.38403E-03 6.16780E-04-4.84552E-15
 -1      1945 2.36316E-03 5.90891E-04-4.83526E-15
 -1      1946 2.80029E-03 6.29038E-04-6.79826E-15
 -1      1947 2.66126E-03 6.25901E-04-6.11162E-15
 -1      1948 2.64166E-03 6.00153E-04-6.09445E-15
 -1      1949 3.07922E-03 6.33221E-04-8.27386E-15
 -1      1950 2.93962E-03 6.31453E-04-7.51874E-15
 -1      1951 2.92101E-03 6.05774E-04-7.49277E-15
 -1      1952 3.35927E-03 6.35308E-04-9.88374E-15
 -1      1953 3.21912E-03 6.34489E-04-9.06236E-15
 -1      1954 3.20127E-03 6.08834E-04-9.02742E-15
 -1      1955 3.64033E-03 6.35961E-04-1.16245E-14
 -1      1956 3.49968E-03 6.35787E-04-1.07383E-14
 -1      1957 3.48242E-03 6.10130E-04-1.06942E-14
 -1      1958 3.92228E-03 6.35652E-04-1.34919E-14
 -1      1959 3.78121E-03 6.35908E-04-1.25422E-14
 -1      1960 3.76438E-03 6.10234E-04-1.24895E-14
 -1      1961 4.20500E-03 6.34702E-04-1.54850E-14
 -1      1962 4.06356E-03 6.35245E-04-1.44726E-14
 -1      1963 4.04707E-03 6.09546E-04-1.44105E-14
 -1      1964 4.48837E-03 6.33316E-04-1.76023E-14
 -1      1965 4.34661E-03 6.34056E-04-1.65287E-14
 -1      1966 4.33037E-03 6.08332E-04-1.64570E-14
 -1      1967 4.77227E-03 6.31610E-04-1.98432E-14
 -1      1968 4.63026E-03 6.32500E-04-1.87077E-14
 -1      1969 4.61421E-03 6.06753E-04-1.86263E-14
 -1      1970 5.05665E-03 6.29629E-04-2.22018E-14
 -1      1971 4.91441E-03 6.30654E-04-2.10077E-14
 -1      1972 4.89850E-03 6.04888E-04-2.09172E-14
 -1      1973 5.34144E-03 6.27362E-04-2.46787E-14
 -1      1974 5.19900E-03 6.28533E-04-2.34258E-14
 -1      1975 5.18320E-03 6.02753E-04-2.33251E-14
 -1      1976 5.62665E-03 6.24757E-04-2.72704E-14
 -1      1977 5.48399E-03 6.26105E-04-2.59602E-14
 -1      1978 5.46828E-03 6.00317E-04-2.58490E-14
 -1      1979 5.91229E-03 6.21730E-04-2.99749E-14
 -1      1980 5.76941E-03 6.23300E-04-2.86080E-14
 -1      1981 5.75376E-03 5.97507E-04-2.84870E-14
 -1      1982 6.19845E-03 6.18175E-04-3.27883E-14
 -1      1983 6.05530E-03 6.20023E-04-3.13687E-14
 -1      1984 6.03968E-03 5.94225E-04-3.12360E-14
 -1      1985 6.48526E-03 6.13971E-04-3.57026E-14
 -1      1986 6.34176E-03 6.16157E-04-3.42334E-14
 -1      1987 6.32614E-03 5.90354E-04-3.40903E-14
 -1      1988 6.77293E-03 6.08998E-04-3.87115E-14
 -1      1989 6.62897E-03 6.11582E-04-3.71963E-14
 -1      1990 6.61328E-03 5.85765E-04-3.70417E-14
 -1      1991 7.06175E-03 6.03149E-04-4.18085E-14
 -1      1992 6.91717E-03 6.06181E-04-4.02486E-14
 -1      1993 6.90133E-03 5.80337E-04-4.00844E-14
 -1      1994 7.35210E-03 5.96359E-04-4.49891E-14
 -1      1995 7.20670E-03 5.99864E-04-4.33877E-14
 -1      1996 7.19058E-03 5.73971E-04-4.32146E-14
 -1      1997 7.64452E-03 5.88635E-04-4.82563E-14
 -1      1998 7.49801E-03 5.92596E-04-4.66124E-14
 -1      1999 7.48141E-03 5.66617E-04-4.64302E-14
 -1      2000 7.93967E-03 5.80118E-04-5.16027E-14
 -1      2001 7.79170E-03 5.84444E-04-4.99195E-14
 -1      2002 7.77433E-03 5.58326E-04-4.97286E-14
 -1      2003 8.23840E-03 5.71168E-04-5.50300E-14
 -1      2004 8.08851E-03 5.75644E-04-5.33076E-14
 -1      2005 8.06998E-03 5.49307E-04-5.31080E-14
 -1      2006 8.54177E-03 5.62498E-04-5.85270E-14
 -1      2007 8.38941E-03 5.66712E-04-5.67691E-14
 -1      2008 8.36915E-03 5.40040E-04-5.65616E-14
 -1      2009 8.85104E-03 5.55392E-04-6.20897E-14
 -1      2010 8.69555E-03 5.58616E-04-6.02995E-14
 -1      2011 8.67277E-03 5.31439E-04-6.00844E-14
 -1      2012 9.16769E-03 5.52027E-04-6.57183E-14
 -1      2013 9.00830E-03 5.53039E-04-6.38959E-14
 -1      2014 8.98197E-03 5.25106E-04-6.36741E-14
 -1      2015 9.49329E-03 5.55953E-04-6.94120E-14
 -1      2016 9.32920E-03 5.52776E-04-6.75582E-14
 -1      2017 9.29801E-03 5.23714E-04-6.73298E-14
 -1      2018 9.82941E-03 5.72750E-04-7.31664E-14
 -1      2019 9.65988E-03 5.62308E-04-7.12810E-14
 -1      2020 9.62226E-03 5.31560E-04-7.10476E-14
 -1      2021 1.01773E-02 6.10762E-04-7.69873E-14
 -1      2022 1.00018E-02 5.88513E-04-7.50683E-14
 -1      2023 9.95615E-03 5.55264E-04-7.48295E-14
 -1      2024 1.05373E-02 6.81519E-04-8.08766E-14
 -1      2025 1.03558E-02 6.41324E-04-7.89253E-14
 -1      2026 1.03010E-02 6.04467E-04-7.86791E-14
 -1      2027 1.09083E-02 7.98782E-04-8.48215E-14
 -1      2028 1.07218E-02 7.33658E-04-8.28408E-14
 -1      2029 1.06580E-02 6.91946E-04-8.25888E-14
 -1      2030 1.12861E-02 9.74161E-04-8.88265E-14
 -1      2031 1.10972E-02 8.79054E-04-8.68173E-14
 -1      2032 1.10269E-02 8.31769E-04-8.65565E-14
 -1      2033 1.16625E-02 1.20689E-03-9.28876E-14
 -1      2034 1.14759E-02 1.08464E-03-9.08503E-14
 -1      2035 1.14049E-02 1.03306E-03-9.05797E-14
 -1      2036 1.20243E-02 1.46853E-03-9.70044E-14
 -1      2037 1.18465E-02 1.33748E-03-9.49380E-14
 -1      2038 1.17830E-02 1.28657E-03-9.46593E-14
 -1      2039 1.23601E-02 1.69586E-03-1.01184E-13
 -1      2040 1.21955E-02 1.59118E-03-9.90867E-14
 -1      2041 1.21464E-02 1.54843E-03-9.87970E-14
 -1      2042 1.26718E-02 1.81400E-03-1.05419E-13
 -1      2043 1.25170E-02 1.77155E-03-1.03294E-13
 -1      2044 1.24847E-02 1.74139E-03-1.02998E-13
 -1      2045 1.29785E-02 1.78710E-03-1.09709E-13
 -1      2046 1.28234E-02 1.81722E-03-1.07558E-13
 -1      2047 1.28064E-02 1.79599E-03-1.07255E-13
 -1      2048 1.32983E-02 1.64773E-03-1.14024E-13
 -1      2049 1.31359E-02 1.72711E-03-1.11864E-13
 -1      2050 1.31336E-02 1.70705E-03-1.11558E-13
 -1      2051 1.36325E-02 1.46505E-03-1.18364E-13
 -1      2052 1.34644E-02 1.55807E-03-1.16194E-13
 -1      2053 1.34765E-02 1.53498E-03-1.15883E-13
 -1      2054 1.39702E-02 1.29329E-03-1.22715E-13
 -1      2055 1.38022E-02 1.37647E-03-1.20535E-13
 -1      2056 1.38263E-02 1.35117E-03-1.20220E-13
 -1      2057 1.42998E-02 1.15017E-03-1.27075E-13
 -1      2058 1.41370E-02 1.21869E-03-1.24895E-13
 -1      2059 1.41686E-02 1.19373E-03-1.24573E-13
 -1      2060 1.46147E-02 1.02540E-03-1.31444E-13
 -1      2061 1.44595E-02 1.08685E-03-1.29259E-13
 -1      2062 1.44947E-02 1.06434E-03-1.28937E-13
 -1      2063 1.48678E-02 9.18113E-04-1.35029E-13
 -1      2064 1.47189E-02 9.82474E-04-1.32842E-13
 -1      2065 1.47555E-02 9.62911E-04-1.32520E-13
 -1      2066 1.49594E-02 8.76643E-04-1.35319E-13
 -1      2067 1.54575E-02 7.30978E-04-1.34138E-13
 -1      2068 1.53669E-02 7.49062E-04-1.34264E-13
 -1      2069 1.52704E-02 7.72761E-04-1.34388E-13
 -1      2070 1.51713E-02 8.00906E-04-1.34516E-13
 -1      2071 1.51976E-02 7.93409E-04-1.32439E-13
 -1      2072 1.51102E-02 8.19899E-04-1.34856E-13
 -1      2073 1.50149E-02 8.54235E-04-1.34979E-13
 -1      2074 1.49138E-02 8.95944E-04-1.33580E-13
 -1      2075 1.50336E-02 8.48730E-04-1.32901E-13
 -1      2076 1.55998E-02 7.11582E-04-1.33886E-13
 -1      2077 1.55360E-02 7.18902E-04-1.34010E-13
 -1      2078 1.53830E-02 7.43143E-04-1.32193E-13
 -1      2079 1.56661E-02 7.10133E-04-1.33620E-13
 -1      2080 1.56448E-02 7.09751E-04-1.33753E-13
 -1      2081 1.55180E-02 7.14760E-04-1.31937E-13
 -1      2082 1.56299E-02 7.14721E-04-1.33352E-13
 -1      2083 1.56613E-02 7.13459E-04-1.33486E-13
 -1      2084 1.55640E-02 7.03620E-04-1.31672E-13
 -1      2085 1.54942E-02 7.09226E-04-1.33077E-13
 -1      2086 1.55732E-02 7.14699E-04-1.33215E-13
 -1      2087 1.54992E-02 6.94713E-04-1.31401E-13
 -1      2088 1.52869E-02 6.82295E-04-1.32788E-13
 -1      2089 1.53972E-02 6.98965E-04-1.32935E-13
 -1      2090 1.53350E-02 6.70775E-04-1.31121E-13
 -1      2091 1.50457E-02 6.31492E-04-1.32485E-13
 -1      2092 1.51683E-02 6.59519E-04-1.32639E-13
 -1      2093 1.51077E-02 6.22985E-04-1.30826E-13
 -1      2094 1.48068E-02 5.62680E-04-1.32171E-13
 -1      2095 1.49251E-02 5.98676E-04-1.32330E-13
 -1      2096 1.48601E-02 5.53968E-04-1.30520E-13
 -1      2097 1.45802E-02 4.80314E-04-1.31838E-13
 -1      2098 1.46909E-02 5.22253E-04-1.32006E-13
 -1      2099 1.46197E-02 4.70795E-04-1.30199E-13
 -1      2100 1.43759E-02 3.91904E-04-1.31484E-13
 -1      2101 1.44753E-02 4.36240E-04-1.31663E-13
 -1      2102 1.43986E-02 3.80105E-04-1.29859E-13
 -1      2103 1.41903E-02 3.02139E-04-1.31110E-13
 -1      2104 1.42811E-02 3.46817E-04-1.31299E-13
 -1      2105 1.42008E-02 2.87956E-04-1.29503E-13
 -1      2106 1.46544E-02 8.14142E-04-1.15351E-13
 -1      2107 1.48003E-02 7.56756E-04-1.15766E-13
 -1      2108 1.50583E-02 6.36395E-04-1.16642E-13
 -1      2109 1.50462E-02 6.14968E-04-1.16547E-13
 -1      2110 1.49293E-02 7.05154E-04-1.16078E-13
 -1      2111 1.50114E-02 6.71719E-04-1.16315E-13
 -1      2112 1.42713E-02 9.75533E-04-1.14376E-13
 -1      2113 1.44763E-02 8.88215E-04-1.14881E-13
 -1      2114 1.37691E-02 1.23920E-03-1.12387E-13
 -1      2115 1.39963E-02 1.11219E-03-1.13397E-13
 -1      2116 3.27130E-04-8.89591E-05-1.90901E-16
 -1      2117 3.29245E-04-1.02102E-04-1.80777E-16
 -1      2118 4.46324E-04-1.45071E-04-2.62404E-16
 -1      2119 4.39994E-04-1.09914E-04-2.89103E-16
 -1      2120 1.29595E-02 1.65283E-03-1.07415E-13
 -1      2121 1.31288E-02 1.58727E-03-1.08567E-13
 -1      2122 1.26003E-02 1.69117E-03-1.04623E-13
 -1      2123 1.27575E-02 1.69372E-03-1.05920E-13
 -1      2124 1.22236E-02 1.55950E-03-1.01746E-13
 -1      2125 1.23908E-02 1.63689E-03-1.02987E-13
 -1      2126 1.18564E-02 1.32916E-03-9.92603E-14
 -1      2127 1.20365E-02 1.45274E-03-1.00442E-13
 -1      2128 1.14145E-02 1.02915E-03-9.68265E-14
 -1      2129 1.16187E-02 1.16645E-03-9.78484E-14
 -1      2130 1.09719E-02 7.69440E-04-9.50019E-14
 -1      2131 1.11732E-02 8.85829E-04-9.58178E-14
 -1      2132 1.05945E-02 5.62499E-04-9.33431E-14
 -1      2133 1.07751E-02 6.59418E-04-9.41715E-14
 -1      2134 1.08969E-02 6.82691E-04-9.39106E-14
 -1      2135 1.02678E-02 4.21774E-04-9.21439E-14
 -1      2136 1.03903E-02 4.64524E-04-9.24481E-14
 -1      2137 1.01376E-02 3.57054E-04-9.15365E-14
 -1      2138 1.01851E-02 3.83833E-04-9.18404E-14
 -1      2139 1.02222E-02 3.77710E-04-9.10002E-14
 -1      2140 1.01688E-02 3.03868E-04-9.15940E-14
 -1      2141 1.01313E-02 3.24915E-04-9.14390E-14
 -1      2142 1.03414E-02 2.37504E-04-9.20621E-14
 -1      2143 1.02379E-02 2.73031E-04-9.18279E-14
 -1      2144 1.01944E-02 2.93676E-04-9.07372E-14
 -1      2145 1.06668E-02 1.04590E-04-9.31940E-14
 -1      2146 1.05098E-02 1.70224E-04-9.26346E-14
 -1      2147 1.10300E-02-6.10127E-05-9.44925E-14
 -1      2148 1.08562E-02 2.28276E-05-9.38084E-14
 -1      2149 1.14060E-02-2.53129E-04-9.61885E-14
 -1      2150 1.12165E-02-1.55199E-04-9.53397E-14
 -1      2151 1.11294E-02-9.08371E-05-9.41747E-14
 -1      2152 1.18409E-02-4.68995E-04-9.85462E-14
 -1      2153 1.16705E-02-3.81518E-04-9.73975E-14
 -1      2154 1.21550E-02-5.78623E-04-1.00825E-13
 -1      2155 1.20031E-02-5.32226E-04-9.96821E-14
 -1      2156 1.19170E-02-5.06927E-04-9.85586E-14
 -1      2157 1.25373E-02-5.80127E-04-1.03870E-13
 -1      2158 1.23777E-02-5.96424E-04-1.02618E-13
 -1      2159 1.28880E-02-4.59023E-04-1.06494E-13
 -1      2160 1.27164E-02-5.33575E-04-1.05224E-13
 -1      2161 1.33214E-02-2.27587E-04-1.09158E-13
 -1      2162 1.31219E-02-3.42085E-04-1.08005E-13
 -1      2163 1.37600E-02 2.84071E-05-1.11438E-13
 -1      2164 1.35394E-02-1.04560E-04-1.10295E-13
 -1      2165 1.33864E-02-1.54833E-04-1.10146E-13
 -1      2166 1.42861E-02 2.95853E-04-1.13583E-13
 -1      2167 1.40580E-02 1.89091E-04-1.12774E-13
 -1      2168 1.46880E-02 4.65219E-04-1.14992E-13
 -1      2169 1.45091E-02 3.93735E-04-1.14371E-13
 -1      2170 1.49689E-02 5.74034E-04-1.16102E-13
 -1      2171 1.48549E-02 5.33156E-04-1.15658E-13
 -1      2172 1.33182E-02 1.49794E-03-1.09810E-13
 -1      2173 1.35076E-02 1.38504E-03-1.11058E-13
 -1      2174 1.32084E-02 1.54569E-03-1.09684E-13
 -1      2175 1.41279E-02 1.02304E-03-1.14569E-13
 -1      2176 1.42555E-02 9.49280E-04-1.15743E-13
 -1      2177 1.40054E-02 1.07810E-03-1.14761E-13
 -1      2178 6.07926E-04-2.98098E-04-2.43498E-16
 -1      2179 1.36190E-02 1.30896E-03-1.12258E-13
 -1      2180 6.63646E-04-2.92379E-04-3.45820E-16
 -1      2181 1.48673E-02 7.15023E-04-1.16807E-13
 -1      2182 1.50481E-02 6.49503E-04-1.17447E-13
 -1      2183 1.40774E-02 2.38780E-04-1.30324E-13
 -1      2184 1.45641E-02 8.25546E-04-1.16023E-13
 -1      2185 1.50189E-02 6.09433E-04-1.17330E-13
 -1      2186 1.47708E-02 5.27339E-04-1.16217E-13
 -1      2187 1.38771E-02 1.30650E-04-1.12626E-13
 -1      2188 1.37175E-02 6.63915E-05-1.12475E-13
 -1      2189 1.39936E-02 2.18606E-04-1.13817E-13
 -1      2190 1.29720E-02-4.01402E-04-1.07494E-13
 -1      2191 1.22470E-02-6.00400E-04-1.01481E-13
 -1      2192 1.15526E-02-3.17517E-04-9.62232E-14
 -1      2193 1.04187E-02 2.19099E-04-9.15395E-14
 -1      2194 1.01224E-02 3.32067E-04-9.06019E-14
 -1      2195 1.04911E-02 4.82045E-04-9.21886E-14
 -1      2196 1.05953E-02 5.06079E-04-9.19299E-14
 -1      2197 1.04007E-02 4.26343E-04-9.10416E-14
 -1      2198 1.13178E-02 9.31331E-04-9.57427E-14
 -1      2199 1.17631E-02 1.23826E-03-9.81550E-14
 -1      2200 1.21509E-02 1.50898E-03-1.00867E-13
 -1      2201 1.28588E-02 1.68578E-03-1.06941E-13
 -1      2202 1.25073E-02 1.67807E-03-1.03805E-13
 -1      2203 1.07714E-02 8.01342E-05-9.27208E-14
 -1      2204 1.26094E-02-5.65431E-04-1.04629E-13
 -1      2205 1.43843E-02 3.78176E-04-1.14757E-13
 -1      2206 1.01666E-03 3.99775E-04-8.89385E-16
 -1      2207 8.72184E-04 3.63392E-04-6.60008E-16
 -1      2208 5.47752E-04-5.52869E-05-4.55893E-16
 -1      2209 5.48793E-04-7.19986E-05-4.49388E-16
 -1      2210 5.50218E-04-8.93155E-05-4.41216E-16
 -1      2211 5.52099E-04-1.07285E-04-4.31458E-16
 -1      2212 6.65255E-04-9.54738E-05-6.04090E-16
 -1      2213 5.46365E-04 8.85411E-06-4.69514E-16
 -1      2214 5.46345E-04-6.97977E-06-4.67657E-16
 -1      2215 5.47124E-04 4.08582E-05-4.69771E-16
 -1      2216 5.46621E-04 2.47871E-05-4.70273E-16
 -1      2217 6.61294E-04 1.99263E-05-6.36007E-16
 -1      2218 5.48957E-04 7.34735E-05-4.65245E-16
 -1      2219 5.47890E-04 5.69842E-05-4.68158E-16
 -1      2220 6.62626E-04 5.77753E-05-6.35031E-16
 -1      2221 5.52360E-04 1.08940E-04-4.55297E-16
 -1      2222 5.50430E-04 9.08681E-05-4.61098E-16
 -1      2223 6.65497E-04 9.72375E-05-6.27712E-16
 -1      2224 5.58254E-04 1.48270E-04-4.37516E-16
 -1      2225 5.54928E-04 1.28048E-04-4.47640E-16
 -1      2226 6.70602E-04 1.40003E-04-6.13035E-16
 -1      2227 5.68599E-04 1.93866E-04-4.07389E-16
 -1      2228 5.62752E-04 1.70149E-04-4.24275E-16
 -1      2229 6.79270E-04 1.87542E-04-5.87326E-16
 -1      2230 1.30214E-03 4.56717E-04-1.45966E-15
 -1      2231 1.15981E-03 4.30775E-04-1.15571E-15
 -1      2232 1.07183E-03 3.81294E-04-1.06358E-15
 -1      2233 9.15230E-04-3.46347E-04-6.93795E-16
 -1      2234 1.05933E-03-3.79668E-04-9.20542E-16
 -1      2235 1.35044E-02 1.37298E-03-1.12291E-13
 -1      2236 1.37313E-02 1.23300E-03-1.13622E-13
 -1      2237 1.20260E-03-4.08040E-04-1.18175E-15
 -1      2238 1.34542E-03-4.31913E-04-1.47824E-15
 -1      2239 1.11702E-03-3.60470E-04-1.09686E-15
 -1      2240 1.48761E-03-4.52136E-04-1.80907E-15
 -1      2241 1.62939E-03-4.68979E-04-2.17507E-15
 -1      2242 1.40336E-03-4.07236E-04-1.69987E-15
 -1      2243 1.77082E-03-4.83117E-04-2.57589E-15
 -1      2244 1.91201E-03-4.94764E-04-3.01106E-15
 -1      2245 1.68850E-03-4.40483E-04-2.44080E-15
 -1      2246 2.05305E-03-5.04416E-04-3.48116E-15
 -1      2247 2.19398E-03-5.12248E-04-3.98599E-15
 -1      2248 1.97270E-03-4.63544E-04-3.31964E-15
 -1      2249 2.33488E-03-5.18621E-04-4.52420E-15
 -1      2250 2.47578E-03-5.23680E-04-5.09706E-15
 -1      2251 2.25634E-03-4.79064E-04-4.33516E-15
 -1      2252 2.61673E-03-5.27686E-04-5.70412E-15
 -1      2253 2.75773E-03-5.30756E-04-6.34467E-15
 -1      2254 2.53976E-03-4.89083E-04-5.48700E-15
 -1      2255 2.89884E-03-5.33081E-04-7.01903E-15
 -1      2256 3.04002E-03-5.34751E-04-7.72630E-15
 -1      2257 2.82319E-03-4.95154E-04-6.77344E-15
 -1      2258 3.18133E-03-5.35904E-04-8.46644E-15
 -1      2259 3.32273E-03-5.36608E-04-9.23922E-15
 -1      2260 3.10676E-03-4.98443E-04-8.19261E-15
 -1      2261 3.46425E-03-5.36962E-04-1.00447E-14
 -1      2262 3.60587E-03-5.37015E-04-1.08827E-14
 -1      2263 3.39056E-03-4.99816E-04-9.74251E-15
 -1      2264 3.74762E-03-5.36836E-04-1.17521E-14
 -1      2265 3.88945E-03-5.36460E-04-1.26535E-14
 -1      2266 3.67462E-03-4.99899E-04-1.14214E-14
 -1      2267 4.03139E-03-5.35932E-04-1.35859E-14
 -1      2268 4.17342E-03-5.35275E-04-1.45496E-14
 -1      2269 3.95894E-03-4.99133E-04-1.32267E-14
 -1      2270 4.31555E-03-5.34516E-04-1.55441E-14
 -1      2271 4.45775E-03-5.33672E-04-1.65681E-14
 -1      2272 4.24351E-03-4.97812E-04-1.51556E-14
 -1      2273 4.60004E-03-5.32752E-04-1.76224E-14
 -1      2274 4.74239E-03-5.31768E-04-1.87069E-14
 -1      2275 4.52832E-03-4.96120E-04-1.72067E-14
 -1      2276 4.88483E-03-5.30721E-04-1.98194E-14
 -1      2277 5.02733E-03-5.29614E-04-2.09597E-14
 -1      2278 4.81334E-03-4.94154E-04-1.93752E-14
 -1      2279 5.16990E-03-5.28441E-04-2.21304E-14
 -1      2280 5.31254E-03-5.27202E-04-2.33291E-14
 -1      2281 5.09857E-03-4.91945E-04-2.16597E-14
 -1      2282 5.45524E-03-5.25885E-04-2.45543E-14
 -1      2283 5.59802E-03-5.24488E-04-2.58066E-14
 -1      2284 5.38399E-03-4.89476E-04-2.40569E-14
 -1      2285 5.74087E-03-5.22994E-04-2.70859E-14
 -1      2286 5.88380E-03-5.21401E-04-2.83910E-14
 -1      2287 5.66962E-03-4.86692E-04-2.65628E-14
 -1      2288 6.02681E-03-5.19689E-04-2.97216E-14
 -1      2289 6.16992E-03-5.17855E-04-3.10784E-14
 -1      2290 5.95547E-03-4.83515E-04-2.91746E-14
 -1      2291 6.31312E-03-5.15882E-04-3.24603E-14
 -1      2292 6.45644E-03-5.13767E-04-3.38663E-14
 -1      2293 6.24160E-03-4.79858E-04-3.18889E-14
 -1      2294 6.59989E-03-5.11497E-04-3.52983E-14
 -1      2295 6.74348E-03-5.09072E-04-3.67530E-14
 -1      2296 6.52804E-03-4.75634E-04-3.47020E-14
 -1      2297 6.88723E-03-5.06486E-04-3.82321E-14
 -1      2298 7.03117E-03-5.03747E-04-3.97348E-14
 -1      2299 6.81490E-03-4.70783E-04-3.76134E-14
 -1      2300 7.17530E-03-5.00861E-04-4.12608E-14
 -1      2301 7.31968E-03-4.97846E-04-4.28078E-14
 -1      2302 7.10227E-03-4.65289E-04-4.06183E-14
 -1      2303 7.46430E-03-4.94726E-04-4.43778E-14
 -1      2304 7.60922E-03-4.91538E-04-4.59710E-14
 -1      2305 7.39031E-03-4.59217E-04-4.37148E-14
 -1      2306 7.75444E-03-4.88331E-04-4.75838E-14
 -1      2307 7.90004E-03-4.85163E-04-4.92182E-14
 -1      2308 7.67920E-03-4.52755E-04-4.68981E-14
 -1      2309 8.04602E-03-4.82124E-04-5.08752E-14
 -1      2310 8.19245E-03-4.79299E-04-5.25532E-14
 -1      2311 7.96917E-03-4.46269E-04-5.01672E-14
 -1      2312 8.33934E-03-4.76826E-04-5.42514E-14
 -1      2313 8.48677E-03-4.74828E-04-5.59685E-14
 -1      2314 8.26053E-03-4.40369E-04-5.35237E-14
 -1      2315 8.63476E-03-4.73499E-04-5.77037E-14
 -1      2316 8.78336E-03-4.73009E-04-5.94590E-14
 -1      2317 8.55364E-03-4.35979E-04-5.69572E-14
 -1      2318 8.93264E-03-4.73611E-04-6.12324E-14
 -1      2319 9.08261E-03-4.75525E-04-6.30210E-14
 -1      2320 8.84896E-03-4.34408E-04-6.04656E-14
 -1      2321 9.23336E-03-4.79053E-04-6.48253E-14
 -1      2322 9.38483E-03-4.84462E-04-6.66442E-14
 -1      2323 9.14703E-03-4.37393E-04-6.40437E-14
 -1      2324 9.53719E-03-4.92073E-04-6.84803E-14
 -1      2325 9.69025E-03-5.02175E-04-7.03291E-14
 -1      2326 9.44847E-03-4.47090E-04-6.76856E-14
 -1      2327 9.84424E-03-5.15044E-04-7.21893E-14
 -1      2328 9.99881E-03-5.30934E-04-7.40616E-14
 -1      2329 9.75384E-03-4.65936E-04-7.13831E-14
 -1      2330 1.01542E-02-5.49971E-04-7.59472E-14
 -1      2331 1.03099E-02-5.72255E-04-7.78448E-14
 -1      2332 1.00635E-02-4.96296E-04-7.51305E-14
 -1      2333 1.04661E-02-5.97620E-04-7.97530E-14
 -1      2334 1.06221E-02-6.25822E-04-8.16742E-14
 -1      2335 1.03772E-02-5.39771E-04-7.89254E-14
 -1      2336 1.07780E-02-6.56237E-04-8.36064E-14
 -1      2337 1.09330E-02-6.88046E-04-8.55506E-14
 -1      2338 1.06936E-02-5.96006E-04-8.27684E-14
 -1      2339 1.10869E-02-7.20058E-04-8.75044E-14
 -1      2340 1.12391E-02-7.50711E-04-8.94729E-14
 -1      2341 1.10098E-02-6.61002E-04-8.66591E-14
 -1      2342 1.13894E-02-7.78303E-04-9.14571E-14
 -1      2343 1.15374E-02-8.00678E-04-9.34533E-14
 -1      2344 1.13218E-02-7.25435E-04-9.05988E-14
 -1      2345 1.16830E-02-8.15925E-04-9.54646E-14
 -1      2346 1.18267E-02-8.21927E-04-9.74877E-14
 -1      2347 1.16257E-02-7.74318E-04-9.45967E-14
 -1      2348 1.19682E-02-8.17182E-04-9.95236E-14
 -1      2349 1.21090E-02-8.00439E-04-1.01573E-13
 -1      2350 1.19203E-02-7.89776E-04-9.86465E-14
 -1      2351 1.22488E-02-7.71204E-04-1.03636E-13
 -1      2352 1.23893E-02-7.29681E-04-1.05713E-13
 -1      2353 1.22088E-02-7.57363E-04-1.02749E-13
 -1      2354 1.25301E-02-6.76514E-04-1.07798E-13
 -1      2355 1.26723E-02-6.13154E-04-1.09897E-13
 -1      2356 1.24971E-02-6.72588E-04-1.06901E-13
 -1      2357 1.28157E-02-5.40982E-04-1.12008E-13
 -1      2358 1.29604E-02-4.61925E-04-1.14125E-13
 -1      2359 1.27902E-02-5.42569E-04-1.11100E-13
 -1      2360 1.31061E-02-3.77486E-04-1.16253E-13
 -1      2361 1.32524E-02-2.89180E-04-1.18389E-13
 -1      2362 1.30890E-02-3.81535E-04-1.15342E-13
 -1      2363 1.33990E-02-1.98202E-04-1.20530E-13
 -1      2364 1.35452E-02-1.05324E-04-1.22679E-13
 -1      2365 1.33903E-02-2.03662E-04-1.19615E-13
 -1      2366 1.86535E-03 5.25230E-04-3.04561E-15
 -1      2367 1.72511E-03 5.12479E-04-2.59370E-15
 -1      2368 2.14545E-03 5.44512E-04-4.05731E-15
 -1      2369 2.00545E-03 5.35847E-04-3.53354E-15
 -1      2370 1.92465E-03 4.94611E-04-3.34814E-15
 -1      2371 2.42552E-03 5.57302E-04-5.21161E-15
 -1      2372 2.28547E-03 5.51613E-04-4.61689E-15
 -1      2373 2.20676E-03 5.11874E-04-4.39849E-15
 -1      2374 2.70594E-03 5.65408E-04-6.50665E-15
 -1      2375 2.56568E-03 5.61859E-04-5.84163E-15
 -1      2376 2.48871E-03 5.23187E-04-5.58988E-15
 -1      2377 2.98691E-03 5.70183E-04-7.93862E-15
 -1      2378 2.84636E-03 5.68149E-04-7.20527E-15
 -1      2379 2.77081E-03 5.30219E-04-6.91922E-15
 -1      2380 3.26852E-03 5.72632E-04-9.50500E-15
 -1      2381 3.12764E-03 5.71651E-04-8.70541E-15
 -1      2382 3.05322E-03 5.34224E-04-8.38465E-15
 -1      2383 3.55076E-03 5.73493E-04-1.12022E-14
 -1      2384 3.40957E-03 5.73226E-04-1.03374E-14
 -1      2385 3.33603E-03 5.36131E-04-9.98247E-15
 -1      2386 3.83360E-03 5.73291E-04-1.30261E-14
 -1      2387 3.69211E-03 5.73500E-04-1.20985E-14
 -1      2388 3.61927E-03 5.36617E-04-1.17090E-14
 -1      2389 4.11698E-03 5.72390E-04-1.49760E-14
 -1      2390 3.97523E-03 5.72911E-04-1.39852E-14
 -1      2391 3.90292E-03 5.36161E-04-1.35619E-14
 -1      2392 4.40084E-03 5.71024E-04-1.70498E-14
 -1      2393 4.25886E-03 5.71754E-04-1.59978E-14
 -1      2394 4.18696E-03 5.35087E-04-1.55403E-14
 -1      2395 4.68512E-03 5.69330E-04-1.92457E-14
 -1      2396 4.54293E-03 5.70212E-04-1.81318E-14
 -1      2397 4.47133E-03 5.33602E-04-1.76413E-14
 -1      2398 4.96976E-03 5.67366E-04-2.15607E-14
 -1      2399 4.82740E-03 5.68379E-04-2.03892E-14
 -1      2400 4.75602E-03 5.31817E-04-1.98628E-14
 -1      2401 5.25475E-03 5.65134E-04-2.39934E-14
 -1      2402 5.11221E-03 5.66283E-04-2.27621E-14
 -1      2403 5.04099E-03 5.29776E-04-2.22036E-14
 -1      2404 5.54006E-03 5.62586E-04-2.65415E-14
 -1      2405 5.39736E-03 5.63901E-04-2.52527E-14
 -1      2406 5.32623E-03 5.27462E-04-2.46607E-14
 -1      2407 5.82574E-03 5.59642E-04-2.92014E-14
 -1      2408 5.68285E-03 5.61167E-04-2.78579E-14
 -1      2409 5.61175E-03 5.24818E-04-2.72321E-14
 -1      2410 6.11182E-03 5.56193E-04-3.19713E-14
 -1      2411 5.96872E-03 5.57985E-04-3.05728E-14
 -1      2412 5.89756E-03 5.21754E-04-2.99144E-14
 -1      2413 6.39839E-03 5.52114E-04-3.48420E-14
 -1      2414 6.25503E-03 5.54237E-04-3.33945E-14
 -1      2415 6.18373E-03 5.18154E-04-3.27029E-14
 -1      2416 6.68560E-03 5.47272E-04-3.78104E-14
 -1      2417 6.54190E-03 5.49792E-04-3.63146E-14
 -1      2418 6.47032E-03 5.13887E-04-3.55926E-14
 -1      2419 6.97364E-03 5.41543E-04-4.08695E-14
 -1      2420 6.82950E-03 5.44520E-04-3.93284E-14
 -1      2421 6.75745E-03 5.08821E-04-3.85768E-14
 -1      2422 7.26274E-03 5.34830E-04-4.40137E-14
 -1      2423 7.11803E-03 5.38308E-04-4.24305E-14
 -1      2424 7.04526E-03 5.02833E-04-4.16506E-14
 -1      2425 7.55324E-03 5.27098E-04-4.72452E-14
 -1      2426 7.40778E-03 5.31084E-04-4.56193E-14
 -1      2427 7.33396E-03 4.95836E-04-4.48122E-14
 -1      2428 7.84554E-03 5.18417E-04-5.05569E-14
 -1      2429 7.69912E-03 5.22859E-04-4.88914E-14
 -1      2430 7.62376E-03 4.87813E-04-4.80575E-14
 -1      2431 8.14014E-03 5.09040E-04-5.39499E-14
 -1      2432 7.99249E-03 5.13783E-04-5.22441E-14
 -1      2433 7.91495E-03 4.78868E-04-5.13841E-14
 -1      2434 8.43761E-03 4.99517E-04-5.74160E-14
 -1      2435 8.28843E-03 5.04242E-04-5.56736E-14
 -1      2436 8.20786E-03 4.69307E-04-5.47881E-14
 -1      2437 8.73868E-03 4.90872E-04-6.09514E-14
 -1      2438 8.58760E-03 4.94996E-04-5.91757E-14
 -1      2439 8.50286E-03 4.59759E-04-5.82680E-14
 -1      2440 9.04413E-03 4.84872E-04-6.45540E-14
 -1      2441 8.89073E-03 4.87400E-04-6.27446E-14
 -1      2442 8.80038E-03 4.51364E-04-6.18172E-14
 -1      2443 9.35495E-03 4.84425E-04-6.82216E-14
 -1      2444 9.19873E-03 4.83732E-04-6.63788E-14
 -1      2445 9.10096E-03 4.46039E-04-6.54318E-14
 -1      2446 9.67230E-03 4.94132E-04-7.19537E-14
 -1      2447 9.51266E-03 4.87664E-04-7.00806E-14
 -1      2448 9.40531E-03 4.46869E-04-6.91126E-14
 -1      2449 9.99774E-03 5.20978E-04-7.57475E-14
 -1      2450 9.83387E-03 5.04886E-04-7.38425E-14
 -1      2451 9.71459E-03 4.58632E-04-7.28574E-14
 -1      2452 1.03335E-02 5.74997E-04-7.96093E-14
 -1      2453 1.01643E-02 5.43820E-04-7.76700E-14
 -1      2454 1.00308E-02 4.88455E-04-7.66664E-14
 -1      2455 1.06827E-02 6.69369E-04-8.35260E-14
 -1      2456 1.05065E-02 6.16105E-04-8.15608E-14
 -1      2457 1.03577E-02 5.46488E-04-8.05353E-14
 -1      2458 1.10483E-02 8.18609E-04-8.75029E-14
 -1      2459 1.08639E-02 7.36047E-04-8.55085E-14
 -1      2460 1.07007E-02 6.46308E-04-8.44642E-14
 -1      2461 1.14308E-02 1.03210E-03-9.15314E-14
 -1      2462 1.12387E-02 9.16934E-04-8.95099E-14
 -1      2463 1.10669E-02 8.03604E-04-8.84460E-14
 -1      2464 1.18211E-02 1.29897E-03-9.56156E-14
 -1      2465 1.16270E-02 1.16108E-03-9.35668E-14
 -1      2466 1.14586E-02 1.03034E-03-9.24784E-14
 -1      2467 1.21998E-02 1.56624E-03-9.97635E-14
 -1      2468 1.20133E-02 1.43829E-03-9.76807E-14
 -1      2469 1.18645E-02 1.31354E-03-9.65703E-14
 -1      2470 1.25520E-02 1.74319E-03-1.03971E-13
 -1      2471 1.23772E-02 1.67307E-03-1.01861E-13
 -1      2472 1.22581E-02 1.58766E-03-1.00726E-13
 -1      2473 1.28920E-02 1.75622E-03-1.08239E-13
 -1      2474 1.27194E-02 1.77094E-03-1.06098E-13
 -1      2475 1.26272E-02 1.73905E-03-1.04945E-13
 -1      2476 1.32456E-02 1.62407E-03-1.12540E-13
 -1      2477 1.30653E-02 1.70248E-03-1.10387E-13
 -1      2478 1.29928E-02 1.69991E-03-1.09217E-13
 -1      2479 1.36151E-02 1.43226E-03-1.16868E-13
 -1      2480 1.34299E-02 1.52965E-03-1.14702E-13
 -1      2481 1.33779E-02 1.52513E-03-1.13526E-13
 -1      2482 1.39814E-02 1.25272E-03-1.21208E-13
 -1      2483 1.38008E-02 1.33856E-03-1.19036E-13
 -1      2484 1.37715E-02 1.32274E-03-1.17852E-13
 -1      2485 1.43294E-02 1.10956E-03-1.25560E-13
 -1      2486 1.41591E-02 1.17696E-03-1.23382E-13
 -1      2487 1.41489E-02 1.15515E-03-1.22194E-13
 -1      2488 1.46540E-02 9.92769E-04-1.29923E-13
 -1      2489 1.44951E-02 1.04948E-03-1.27740E-13
 -1      2490 1.44972E-02 1.02977E-03-1.26544E-13
 -1      2491 1.48108E-02 9.36131E-04-1.32181E-13
 -1      2492 1.54379E-02 7.08393E-04-1.29989E-13
 -1      2493 1.53847E-02 7.23443E-04-1.30119E-13
 -1      2494 1.54613E-02 6.90922E-04-1.29722E-13
 -1      2495 1.54649E-02 6.99317E-04-1.29856E-13
 -1      2496 1.53600E-02 6.97864E-04-1.28040E-13
 -1      2497 1.51236E-02 8.03544E-04-1.30493E-13
 -1      2498 1.50201E-02 8.41034E-04-1.30613E-13
 -1      2499 1.53103E-02 7.43721E-04-1.30246E-13
 -1      2500 1.52222E-02 7.70701E-04-1.30369E-13
 -1      2501 1.50504E-02 8.04814E-04-1.28546E-13
 -1      2502 1.52415E-02 7.36542E-04-1.28298E-13
 -1      2503 1.53633E-02 6.71193E-04-1.29446E-13
 -1      2504 1.54267E-02 6.83675E-04-1.29585E-13
 -1      2505 1.53549E-02 6.76090E-04-1.27772E-13
 -1      2506 1.51673E-02 6.29593E-04-1.29163E-13
 -1      2507 1.52745E-02 6.54228E-04-1.29308E-13
 -1      2508 1.52179E-02 6.44458E-04-1.27496E-13
 -1      2509 1.49198E-02 5.60832E-04-1.28862E-13
 -1      2510 1.50468E-02 5.98116E-04-1.29013E-13
 -1      2511 1.49884E-02 5.82838E-04-1.27205E-13
 -1      2512 1.46682E-02 4.74395E-04-1.28552E-13
 -1      2513 1.47931E-02 5.18984E-04-1.28708E-13
 -1      2514 1.47257E-02 4.93479E-04-1.26900E-13
 -1      2515 1.44290E-02 3.77470E-04-1.28225E-13
 -1      2516 1.45457E-02 4.26081E-04-1.28391E-13
 -1      2517 1.44694E-02 3.89025E-04-1.26586E-13
 -1      2518 1.42156E-02 2.79338E-04-1.27883E-13
 -1      2519 1.43192E-02 3.27910E-04-1.28056E-13
 -1      2520 1.42369E-02 2.80886E-04-1.26256E-13
 -1      2521 1.40259E-02 1.83994E-04-1.27527E-13
 -1      2522 1.41183E-02 2.30965E-04-1.27706E-13
 -1      2523 1.40332E-02 1.76996E-04-1.25914E-13
 -1      2524 1.50261E-02 6.60705E-04-1.18501E-13
 -1      2525 1.50770E-02 6.47884E-04-1.18829E-13
 -1      2526 1.44957E-02 8.39293E-04-1.16942E-13
 -1      2527 1.46564E-02 7.77740E-04-1.17415E-13
 -1      2528 1.58458E-03 4.97047E-04-2.17919E-15
 -1      2529 1.44364E-03 4.78720E-04-1.80090E-15
 -1      2530 1.64191E-03 4.69191E-04-2.44108E-15
 -1      2531 1.39513E-02 1.55076E-04-1.28386E-13
 -1      2532 1.50634E-02 6.28719E-04-1.18983E-13
 -1      2533 1.49851E-02 6.12004E-04-1.18537E-13
 -1      2534 1.48269E-02 7.18501E-04-1.17878E-13
 -1      2535 1.49448E-02 6.85299E-04-1.18191E-13
 -1      2536 1.50090E-02 6.73311E-04-1.19571E-13
 -1      2537 1.31198E-02 1.59797E-03-1.09554E-13
 -1      2538 1.32725E-02 1.51147E-03-1.10800E-13
 -1      2539 1.48429E-02 5.69575E-04-1.17662E-13
 -1      2540 1.46830E-02 5.22151E-04-1.16993E-13
 -1      2541 1.30474E-02-3.36041E-04-1.08617E-13
 -1      2542 1.28559E-02-4.51078E-04-1.07104E-13
 -1      2543 1.04987E-02 1.95608E-04-9.08765E-14
 -1      2544 1.03418E-02 2.46030E-04-9.03086E-14
 -1      2545 1.12092E-02 8.32418E-04-9.45076E-14
 -1      2546 1.14191E-02 9.69834E-04-9.55093E-14
 -1      2547 5.46560E-04-2.28960E-05-4.64770E-16
 -1      2548 5.47019E-04-3.89330E-05-4.60908E-16
 -1      2549 6.62475E-04-5.58059E-05-6.20990E-16
 -1      2550 6.61241E-04-1.77027E-05-6.31155E-16
 -1      2551 1.24164E-02 1.65220E-03-1.02835E-13
 -1      2552 1.25816E-02 1.70647E-03-1.04471E-13
 -1      2553 1.08442E-02 5.28585E-05-9.20700E-14
 -1      2554 1.06757E-02 1.26355E-04-9.14621E-14
 -1      2555 1.27639E-02 1.71434E-03-1.06257E-13
 -1      2556 1.29226E-02 1.67649E-03-1.07756E-13
 -1      2557 1.30118E-02 1.65582E-03-1.08866E-13
 -1      2558 1.26597E-02 1.72107E-03-1.05278E-13
 -1      2559 1.21200E-02 1.47791E-03-1.00221E-13
 -1      2560 1.22708E-02 1.57878E-03-1.01524E-13
 -1      2561 1.23629E-02 1.63012E-03-1.02183E-13
 -1      2562 1.16871E-02 1.15497E-03-9.69064E-14
 -1      2563 1.18884E-02 1.31004E-03-9.83134E-14
 -1      2564 1.08211E-02 6.10915E-04-9.27269E-14
 -1      2565 1.10030E-02 7.09670E-04-9.35513E-14
 -1      2566 1.01772E-02 3.47260E-04-8.97543E-14
 -1      2567 1.02546E-02 3.68122E-04-9.00542E-14
 -1      2568 1.01100E-02 3.13594E-04-8.93147E-14
 -1      2569 1.01177E-02 3.24669E-04-8.94113E-14
 -1      2570 1.02229E-02 2.82041E-04-8.99076E-14
 -1      2571 1.01578E-02 2.97135E-04-8.96757E-14
 -1      2572 1.26462E-02-5.48493E-04-1.05294E-13
 -1      2573 1.25084E-02-5.94643E-04-1.03939E-13
 -1      2574 1.12132E-02-1.33941E-04-9.36990E-14
 -1      2575 1.10504E-02-4.76115E-05-9.28593E-14
 -1      2576 1.16497E-02-3.84370E-04-9.60956E-14
 -1      2577 1.14424E-02-2.60414E-04-9.48965E-14
 -1      2578 1.13287E-02-2.19073E-04-9.35749E-14
 -1      2579 1.19693E-02-5.42902E-04-9.87058E-14
 -1      2580 1.18417E-02-4.83522E-04-9.75761E-14
 -1      2581 1.44820E-02 4.45322E-04-1.16035E-13
 -1      2582 1.42753E-02 3.59929E-04-1.15241E-13
 -1      2583 1.23209E-02-6.15805E-04-1.02142E-13
 -1      2584 1.21444E-02-5.95730E-04-1.00351E-13
 -1      2585 1.23783E-02-6.15604E-04-1.02801E-13
 -1      2586 1.34595E-02-7.82787E-05-1.11312E-13
 -1      2587 1.32728E-02-1.97728E-04-1.10170E-13
 -1      2588 5.88535E-04-2.37942E-04-3.27537E-16
 -1      2589 7.81348E-04-3.04787E-04-5.26123E-16
 -1      2590 8.40771E-04-2.93562E-04-6.57935E-16
 -1      2591 5.78994E-04-2.10143E-04-3.56675E-16
 -1      2592 7.57936E-04 3.34189E-04-4.96714E-16
 -1      2593 6.11512E-04 2.84831E-04-3.35059E-16
 -1      2594 5.84783E-04 2.58061E-04-3.40236E-16
 -1      2595 8.13757E-04 3.22859E-04-6.29312E-16
 -1      2596 6.70228E-04-1.37929E-04-5.78788E-16
 -1      2597 5.54612E-04-1.26182E-04-4.19708E-16
 -1      2598 5.57775E-04-1.46178E-04-4.05112E-16
 -1      2599 1.35787E-03 4.32699E-04-1.67912E-15
 -1      2600 5.72277E-04 2.27864E-04-3.68697E-16
 -1      2601 1.45919E-02 4.98537E-04-1.17477E-13
 -1      2602 1.17127E-02-4.36711E-04-9.62428E-14
 -1      2603 1.37641E-02 1.22578E-03-1.14826E-13
 -1      2604 1.38718E-02 1.15203E-03-1.14796E-13
 -1      2605 1.40101E-02 1.08011E-03-1.15968E-13
 -1      2606 1.43814E-02 8.92153E-04-1.17134E-13
 -1      2607 1.49335E-02 6.02525E-04-1.19314E-13
 -1      2608 1.27382E-02-5.01953E-04-1.06407E-13
 -1      2609 1.48193E-02 9.25396E-04-1.30981E-13
 -1      2610 1.48815E-02 8.96796E-04-1.30644E-13
 -1      2611 1.02766E-02 2.56549E-04-8.92475E-14
 -1      2612 1.34006E-02 1.44419E-03-1.12160E-13
 -1      2613 1.47729E-02 7.41165E-04-1.18798E-13
 -1      2614 1.01113E-02 2.98324E-04-8.84887E-14
 -1      2615 1.01235E-02 3.20544E-04-8.84699E-14
 -1      2616 6.89560E-04 2.51213E-04-5.25608E-16
 -1      2617 1.20135E-02 1.40166E-03-9.89597E-14
 -1      2618 5.71836E-04-1.85170E-04-3.80555E-16
 -1      2619 1.41214E-02 2.99399E-04-1.15089E-13
 -1      2620 1.39783E-02 2.33248E-04-1.14936E-13
 -1      2621 1.42440E-02 3.62766E-04-1.16364E-13
 -1      2622 1.11046E-02 7.55963E-04-9.33171E-14
 -1      2623 1.05632E-02 1.60891E-04-9.02296E-14
 -1      2624 1.31416E-02-2.67002E-04-1.09775E-13
 -1      2625 1.15567E-02 1.05663E-03-9.56620E-14
 -1      2626 1.03231E-02 3.84534E-04-8.97938E-14
 -1      2627 1.09260E-02-2.25635E-07-9.15963E-14
 -1      2628 1.06901E-02 5.36828E-04-9.15719E-14
 -1      2629 1.20524E-02-5.82590E-04-9.93621E-14
 -1      2630 1.35916E-02 1.03512E-05-1.12498E-13
 -1      2631 1.37693E-02 4.01441E-05-1.26060E-13
 -1      2632 1.39237E-02 1.27520E-04-1.26988E-13
 -1      2633 1.38380E-02 6.97113E-05-1.25203E-13
 -1      2634 1.36424E-02-4.27778E-05-1.24132E-13
 -1      2635 1.47990E-02 9.10415E-04-1.28698E-13
 -1      2636 1.36400E-02-4.95236E-05-1.23211E-13
 -1      2637 1.23464E-02 1.62661E-03-1.01850E-13
 -1      2638 1.24681E-02 1.68778E-03-1.03163E-13
 -1      2639 7.80157E-04 7.73240E-05-8.26487E-16
 -1      2640 7.78893E-04 5.54650E-05-8.29062E-16
 -1      2641 7.78044E-04 3.35556E-05-8.29618E-16
 -1      2642 7.77620E-04 1.18939E-05-8.28276E-16
 -1      2643 8.96450E-04 4.96759E-05-1.04940E-15
 -1      2644 7.91523E-04 1.73112E-04-7.94652E-16
 -1      2645 7.87511E-04 1.47699E-04-8.06619E-16
 -1      2646 8.03404E-04 2.28307E-04-7.60012E-16
 -1      2647 7.96773E-04 1.99916E-04-7.79650E-16
 -1      2648 9.14826E-04 2.07808E-04-9.99987E-16
 -1      2649 1.12984E-03 3.61932E-04-1.24470E-15
 -1      2650 9.86241E-04 3.32864E-04-9.69670E-16
 -1      2651 1.19441E-02 1.35303E-03-9.78497E-14
 -1      2652 1.21448E-02 1.50316E-03-9.97587E-14
 -1      2653 1.24535E-02-6.05475E-04-1.03794E-13
 -1      2654 1.22959E-02-6.26523E-04-1.01998E-13
 -1      2655 8.03109E-04 2.78213E-04-6.89363E-16
 -1      2656 1.26590E-02 1.73259E-03-1.05282E-13
 -1      2657 1.32017E-03-3.62744E-04-1.58813E-15
 -1      2658 1.46340E-03-3.81730E-04-1.92885E-15
 -1      2659 1.60644E-03-3.97819E-04-2.30371E-15
 -1      2660 1.74937E-03-4.11235E-04-2.71288E-15
 -1      2661 1.52499E-03-3.55407E-04-2.16523E-15
 -1      2662 1.89214E-03-4.22450E-04-3.15657E-15
 -1      2663 2.03480E-03-4.31651E-04-3.63403E-15
 -1      2664 1.81167E-03-3.81322E-04-2.99168E-15
 -1      2665 2.17735E-03-4.39214E-04-4.14545E-15
 -1      2666 2.31982E-03-4.45292E-04-4.69025E-15
 -1      2667 2.09812E-03-3.99191E-04-3.95395E-15
 -1      2668 2.46223E-03-4.50175E-04-5.26875E-15
 -1      2669 2.60460E-03-4.53984E-04-5.88149E-15
 -1      2670 2.38430E-03-4.11035E-04-5.05034E-15
 -1      2671 2.74695E-03-4.56937E-04-6.52762E-15
 -1      2672 2.88928E-03-4.59130E-04-7.20657E-15
 -1      2673 2.67024E-03-4.18475E-04-6.28085E-15
 -1      2674 3.03163E-03-4.60723E-04-7.91815E-15
 -1      2675 3.17398E-03-4.61789E-04-8.66279E-15
 -1      2676 2.95602E-03-4.22766E-04-7.64372E-15
 -1      2677 3.31635E-03-4.62445E-04-9.43980E-15
 -1      2678 3.45874E-03-4.62745E-04-1.02492E-14
 -1      2679 3.24168E-03-4.24857E-04-9.13690E-15
 -1      2680 3.60117E-03-4.62771E-04-1.10899E-14
 -1      2681 3.74361E-03-4.62562E-04-1.19627E-14
 -1      2682 3.52729E-03-4.25452E-04-1.07586E-14
 -1      2683 3.88610E-03-4.62174E-04-1.28678E-14
 -1      2684 4.02860E-03-4.61634E-04-1.38026E-14
 -1      2685 3.81288E-03-4.25051E-04-1.25075E-14
 -1      2686 4.17115E-03-4.60976E-04-1.47681E-14
 -1      2687 4.31372E-03-4.60218E-04-1.57649E-14
 -1      2688 4.09846E-03-4.24001E-04-1.43810E-14
 -1      2689 4.45632E-03-4.59381E-04-1.67913E-14
 -1      2690 4.59895E-03-4.58473E-04-1.78470E-14
 -1      2691 4.38405E-03-4.22526E-04-1.63759E-14
 -1      2692 4.74162E-03-4.57503E-04-1.89322E-14
 -1      2693 4.88431E-03-4.56474E-04-2.00462E-14
 -1      2694 4.66967E-03-4.20757E-04-1.84896E-14
 -1      2695 5.02703E-03-4.55386E-04-2.11890E-14
 -1      2696 5.16978E-03-4.54238E-04-2.23610E-14
 -1      2697 4.95531E-03-4.18752E-04-2.07192E-14
 -1      2698 5.31257E-03-4.53022E-04-2.35607E-14
 -1      2699 5.45538E-03-4.51736E-04-2.47870E-14
 -1      2700 5.24098E-03-4.16513E-04-2.30641E-14
 -1      2701 5.59822E-03-4.50366E-04-2.60402E-14
 -1      2702 5.74110E-03-4.48906E-04-2.73209E-14
 -1      2703 5.52670E-03-4.14003E-04-2.55189E-14
 -1      2704 5.88402E-03-4.47342E-04-2.86278E-14
 -1      2705 6.02697E-03-4.45667E-04-2.99594E-14
 -1      2706 5.81246E-03-4.11154E-04-2.80811E-14
 -1      2707 6.16997E-03-4.43864E-04-3.13175E-14
 -1      2708 6.31302E-03-4.41927E-04-3.27010E-14
 -1      2709 6.09828E-03-4.07881E-04-3.07472E-14
 -1      2710 6.45612E-03-4.39842E-04-3.41080E-14
 -1      2711 6.59928E-03-4.37603E-04-3.55388E-14
 -1      2712 6.38417E-03-4.04093E-04-3.35142E-14
 -1      2713 6.74251E-03-4.35202E-04-3.69967E-14
 -1      2714 6.88583E-03-4.32636E-04-3.84755E-14
 -1      2715 6.67015E-03-3.99706E-04-3.63785E-14
 -1      2716 7.02923E-03-4.29905E-04-3.99777E-14
 -1      2717 7.17275E-03-4.27015E-04-4.15034E-14
 -1      2718 6.95627E-03-3.94665E-04-3.93389E-14
 -1      2719 7.31637E-03-4.23980E-04-4.30509E-14
 -1      2720 7.46015E-03-4.20817E-04-4.46216E-14
 -1      2721 7.24259E-03-3.88963E-04-4.23891E-14
 -1      2722 7.60408E-03-4.17559E-04-4.62139E-14
 -1      2723 7.74821E-03-4.14241E-04-4.78270E-14
 -1      2724 7.52919E-03-3.82682E-04-4.55296E-14
 -1      2725 7.89254E-03-4.10925E-04-4.94621E-14
 -1      2726 8.03714E-03-4.07669E-04-5.11188E-14
 -1      2727 7.81623E-03-3.76025E-04-4.87584E-14
 -1      2728 8.18202E-03-4.04573E-04-5.27959E-14
 -1      2729 8.32726E-03-4.01730E-04-5.44945E-14
 -1      2730 8.10394E-03-3.69379E-04-5.20709E-14
 -1      2731 8.47290E-03-3.99281E-04-5.62125E-14
 -1      2732 8.61901E-03-3.97367E-04-5.79472E-14
 -1      2733 8.39265E-03-3.63372E-04-5.54660E-14
 -1      2734 8.76567E-03-3.96177E-04-5.97005E-14
 -1      2735 8.91297E-03-3.95913E-04-6.14734E-14
 -1      2736 8.68290E-03-3.58946E-04-5.89373E-14
 -1      2737 9.06102E-03-3.96809E-04-6.32628E-14
 -1      2738 9.20990E-03-3.99142E-04-6.50671E-14
 -1      2739 8.97542E-03-3.57434E-04-6.24808E-14
 -1      2740 9.35980E-03-4.03174E-04-6.68890E-14
 -1      2741 9.51074E-03-4.09264E-04-6.87255E-14
 -1      2742 9.27126E-03-3.60620E-04-6.60932E-14
 -1      2743 9.66300E-03-4.17673E-04-7.05751E-14
 -1      2744 9.81650E-03-4.28821E-04-7.24374E-14
 -1      2745 9.57174E-03-3.70777E-04-6.97654E-14
 -1      2746 9.97158E-03-4.42911E-04-7.43116E-14
 -1      2747 1.01280E-02-4.60357E-04-7.61980E-14
 -1      2748 9.87834E-03-3.90602E-04-7.34919E-14
 -1      2749 1.02861E-02-4.81211E-04-7.80971E-14
 -1      2750 1.04453E-02-5.05716E-04-8.00076E-14
 -1      2751 1.01924E-02-4.22950E-04-7.72673E-14
 -1      2752 1.06060E-02-5.33636E-04-8.19311E-14
 -1      2753 1.07671E-02-5.64718E-04-8.38664E-14
 -1      2754 1.05143E-02-4.70137E-04-8.10919E-14
 -1      2755 1.09289E-02-5.98260E-04-8.58124E-14
 -1      2756 1.10900E-02-6.33081E-04-8.77695E-14
 -1      2757 1.08427E-02-5.32407E-04-8.49641E-14
 -1      2758 1.12503E-02-6.67882E-04-8.97411E-14
 -1      2759 1.14088E-02-7.00218E-04-9.17287E-14
 -1      2760 1.11731E-02-6.05217E-04-8.88842E-14
 -1      2761 1.15649E-02-7.28227E-04-9.37277E-14
 -1      2762 1.17186E-02-7.48630E-04-9.57404E-14
 -1      2763 1.14990E-02-6.76067E-04-9.28575E-14
 -1      2764 1.18692E-02-7.59427E-04-9.77662E-14
 -1      2765 1.20183E-02-7.57774E-04-9.98049E-14
 -1      2766 1.18144E-02-7.24015E-04-9.68839E-14
 -1      2767 1.21654E-02-7.42482E-04-1.01860E-13
 -1      2768 1.23128E-02-7.12704E-04-1.03925E-13
 -1      2769 1.21193E-02-7.24999E-04-1.00968E-13
 -1      2770 1.24602E-02-6.68631E-04-1.06002E-13
 -1      2771 1.26096E-02-6.11892E-04-1.08092E-13
 -1      2772 1.24207E-02-6.64426E-04-1.05102E-13
 -1      2773 1.27605E-02-5.43785E-04-1.10194E-13
 -1      2774 1.29135E-02-4.67322E-04-1.12306E-13
 -1      2775 1.27277E-02-5.45496E-04-1.09285E-13
 -1      2776 1.30680E-02-3.84164E-04-1.14428E-13
 -1      2777 1.32233E-02-2.96926E-04-1.16558E-13
 -1      2778 1.30438E-02-3.86399E-04-1.13512E-13
 -1      2779 1.33789E-02-2.06943E-04-1.18696E-13
 -1      2780 1.35336E-02-1.15371E-04-1.20840E-13
 -1      2781 1.33648E-02-2.08375E-04-1.17774E-13
 -1      2782 2.26923E-03 4.78597E-04-4.74230E-15
 -1      2783 2.12741E-03 4.71743E-04-4.18075E-15
 -1      2784 1.47873E-02 8.78237E-04-1.26491E-13
 -1      2785 1.46375E-02 9.52480E-04-1.26517E-13
 -1      2786 1.44687E-02 1.00074E-03-1.24342E-13
 -1      2787 1.98549E-03 4.63266E-04-3.65449E-15
 -1      2788 1.84344E-03 4.53004E-04-3.16316E-15
 -1      2789 2.04764E-03 4.31337E-04-3.96399E-15
 -1      2790 2.83630E-03 4.94571E-04-7.33322E-15
 -1      2791 2.69453E-03 4.91964E-04-6.63453E-15
 -1      2792 3.11997E-03 4.97889E-04-8.83107E-15
 -1      2793 2.97812E-03 4.96520E-04-8.06522E-15
 -1      2794 2.90242E-03 4.58555E-04-7.74829E-15
 -1      2795 3.40386E-03 4.99326E-04-1.04591E-14
 -1      2796 3.26190E-03 4.98804E-04-9.62891E-15
 -1      2797 3.18720E-03 4.61249E-04-9.27745E-15
 -1      2798 3.68800E-03 4.99499E-04-1.22153E-14
 -1      2799 3.54591E-03 4.99543E-04-1.13217E-14
 -1      2800 3.47204E-03 4.62274E-04-1.09360E-14
 -1      2801 3.97239E-03 4.98840E-04-1.40975E-14
 -1      2802 3.83017E-03 4.99255E-04-1.31411E-14
 -1      2803 3.75698E-03 4.62185E-04-1.27219E-14
 -1      2804 4.25701E-03 4.97637E-04-1.61039E-14
 -1      2805 4.11468E-03 4.98294E-04-1.50849E-14
 -1      2806 4.04203E-03 4.61366E-04-1.46326E-14
 -1      2807 4.54187E-03 4.96068E-04-1.82318E-14
 -1      2808 4.39942E-03 4.96891E-04-1.71528E-14
 -1      2809 4.32719E-03 4.60070E-04-1.66663E-14
 -1      2810 4.82693E-03 4.94223E-04-2.04794E-14
 -1      2811 4.68438E-03 4.95176E-04-1.93406E-14
 -1      2812 4.61247E-03 4.58447E-04-1.88216E-14
 -1      2813 5.11220E-03 4.92128E-04-2.28456E-14
 -1      2814 4.96954E-03 4.93207E-04-2.16483E-14
 -1      2815 4.89787E-03 4.56568E-04-2.10950E-14
 -1      2816 5.39766E-03 4.89755E-04-2.53277E-14
 -1      2817 5.25490E-03 4.90979E-04-2.40718E-14
 -1      2818 5.18338E-03 4.54444E-04-2.34869E-14
 -1      2819 5.68332E-03 4.87038E-04-2.79214E-14
 -1      2820 5.54046E-03 4.88444E-04-2.66104E-14
 -1      2821 5.46901E-03 4.52035E-04-2.59922E-14
 -1      2822 5.96922E-03 4.83878E-04-3.06240E-14
 -1      2823 5.82624E-03 4.85518E-04-2.92591E-14
 -1      2824 5.75477E-03 4.49268E-04-2.86079E-14
 -1      2825 6.25538E-03 4.80156E-04-3.34326E-14
 -1      2826 6.11226E-03 4.82093E-04-3.20164E-14
 -1      2827 6.04067E-03 4.46041E-04-3.13324E-14
 -1      2828 6.54187E-03 4.75740E-04-3.63396E-14
 -1      2829 6.39857E-03 4.78041E-04-3.48745E-14
 -1      2830 6.32674E-03 4.42233E-04-3.41604E-14
 -1      2831 6.82876E-03 4.70502E-04-3.93410E-14
 -1      2832 6.68525E-03 4.73229E-04-3.78291E-14
 -1      2833 6.61300E-03 4.37717E-04-3.70854E-14
 -1      2834 7.11615E-03 4.64326E-04-4.24297E-14
 -1      2835 6.97238E-03 4.67534E-04-4.08743E-14
 -1      2836 6.89950E-03 4.32369E-04-4.01018E-14
 -1      2837 7.40416E-03 4.57144E-04-4.56064E-14
 -1      2838 7.26006E-03 4.60860E-04-4.40063E-14
 -1      2839 7.18625E-03 4.26091E-04-4.32064E-14
 -1      2840 7.69290E-03 4.48964E-04-4.88664E-14
 -1      2841 7.54841E-03 4.53172E-04-4.72263E-14
 -1      2842 7.47329E-03 4.18838E-04-4.63981E-14
 -1      2843 7.98253E-03 4.39935E-04-5.22069E-14
 -1      2844 7.83757E-03 4.44540E-04-5.05272E-14
 -1      2845 7.76063E-03 4.10655E-04-4.96728E-14
 -1      2846 8.27318E-03 4.30425E-04-5.56265E-14
 -1      2847 8.12769E-03 4.35210E-04-5.39079E-14
 -1      2848 8.04825E-03 4.01743E-04-5.30286E-14
 -1      2849 8.56500E-03 4.21149E-04-5.91175E-14
 -1      2850 8.41889E-03 4.25705E-04-5.73622E-14
 -1      2851 8.33609E-03 3.92538E-04-5.64606E-14
 -1      2852 8.85814E-03 4.13349E-04-6.26799E-14
 -1      2853 8.71134E-03 4.16977E-04-6.08920E-14
 -1      2854 8.62406E-03 3.83838E-04-5.99665E-14
 -1      2855 9.15287E-03 4.09053E-04-6.63081E-14
 -1      2856 9.00522E-03 4.10621E-04-6.44859E-14
 -1      2857 8.91204E-03 3.76970E-04-6.35416E-14
 -1      2858 9.44970E-03 4.11427E-04-7.00037E-14
 -1      2859 9.30090E-03 4.09180E-04-6.81466E-14
 -1      2860 9.20004E-03 3.74014E-04-6.71839E-14
 -1      2861 9.74983E-03 4.25242E-04-7.37595E-14
 -1      2862 9.59917E-03 4.16542E-04-7.18738E-14
 -1      2863 9.48840E-03 3.78091E-04-7.08907E-14
 -1      2864 1.00559E-02 4.57476E-04-7.75822E-14
 -1      2865 9.90182E-03 4.38469E-04-7.56642E-14
 -1      2866 9.77839E-03 3.93735E-04-7.46633E-14
 -1      2867 1.03729E-02 5.18079E-04-8.14621E-14
 -1      2868 1.02126E-02 4.83276E-04-7.95147E-14
 -1      2869 1.00732E-02 4.27458E-04-7.84970E-14
 -1      2870 1.07095E-02 6.20967E-04-8.53981E-14
 -1      2871 1.05383E-02 5.62766E-04-8.34235E-14
 -1      2872 1.03797E-02 4.88718E-04-8.23874E-14
 -1      2873 1.10769E-02 7.83824E-04-8.93838E-14
 -1      2874 1.08894E-02 6.92795E-04-8.73850E-14
 -1      2875 1.07096E-02 5.92216E-04-8.63292E-14
 -1      2876 1.17308E-02 1.19605E-03-9.57900E-14
 -1      2877 1.31846E-02 1.59555E-03-1.11018E-13
 -1      2878 1.29827E-02 1.67966E-03-1.08871E-13
 -1      2879 1.39345E-02 1.21561E-03-1.18852E-13
 -1      2880 1.37332E-02 1.31083E-03-1.16684E-13
 -1      2881 1.43011E-02 1.06189E-03-1.22680E-13
 -1      2882 1.41147E-02 1.13070E-03-1.20510E-13
 -1      2883 1.40988E-02 1.10519E-03-1.19338E-13
 -1      2884 1.44570E-02 9.64032E-04-1.22657E-13
 -1      2885 1.50619E-02 6.13936E-04-1.25543E-13
 -1      2886 1.51683E-02 6.41852E-04-1.25684E-13
 -1      2887 1.36360E-02-5.40236E-05-1.22293E-13
 -1      2888 1.37374E-02 7.75028E-06-1.23746E-13
 -1      2889 1.36304E-02-5.60392E-05-1.21369E-13
 -1      2890 1.53043E-02 6.84700E-04-1.26492E-13
 -1      2891 1.52686E-02 7.00971E-04-1.26624E-13
 -1      2892 1.47959E-02 5.29194E-04-1.25247E-13
 -1      2893 1.49332E-02 5.75846E-04-1.25398E-13
 -1      2894 1.48876E-02 5.73405E-04-1.23588E-13
 -1      2895 1.52465E-02 6.58976E-04-1.25822E-13
 -1      2896 1.52868E-02 6.72593E-04-1.25960E-13
 -1      2897 1.51279E-02 6.39371E-04-1.23873E-13
 -1      2898 1.50062E-02 6.19410E-04-1.20843E-13
 -1      2899 1.48656E-02 5.87192E-04-1.19967E-13
 -1      2900 1.45216E-02 4.18521E-04-1.24942E-13
 -1      2901 1.46575E-02 4.75523E-04-1.25095E-13
 -1      2902 1.45917E-02 4.64165E-04-1.23294E-13
 -1      2903 1.42653E-02 2.97243E-04-1.24624E-13
 -1      2904 1.43894E-02 3.57423E-04-1.24785E-13
 -1      2905 1.43075E-02 3.31720E-04-1.22986E-13
 -1      2906 1.40431E-02 1.80489E-04-1.24293E-13
 -1      2907 1.41502E-02 2.37474E-04-1.24459E-13
 -1      2908 1.40593E-02 1.98343E-04-1.22666E-13
 -1      2909 1.51033E-02 6.49140E-04-1.20185E-13
 -1      2910 1.50837E-02 6.37356E-04-1.19133E-13
 -1      2911 1.01209E-02 2.79482E-04-8.75698E-14
 -1      2912 1.00745E-02 2.87752E-04-8.72107E-14
 -1      2913 1.50841E-02 6.36931E-04-1.20339E-13
 -1      2914 1.49922E-02 6.88269E-04-1.20743E-13
 -1      2915 1.50678E-02 6.72817E-04-1.21055E-13
 -1      2916 1.17612E-02-4.89219E-04-9.63507E-14
 -1      2917 1.15929E-02-4.00132E-04-9.48780E-14
 -1      2918 1.03143E-02 2.30842E-04-8.84108E-14
 -1      2919 1.02049E-02 2.59705E-04-8.80136E-14
 -1      2920 1.33449E-02 1.49179E-03-1.12175E-13
 -1      2921 1.35510E-02 1.35952E-03-1.13669E-13
 -1      2922 1.36856E-02 1.28606E-03-1.14843E-13
 -1      2923 1.33253E-02 1.52539E-03-1.12525E-13
 -1      2924 1.28241E-02-4.50240E-04-1.07604E-13
 -1      2925 1.26431E-02-5.42580E-04-1.05792E-13
 -1      2926 1.70123E-03 4.40537E-04-2.70750E-15
 -1      2927 1.55877E-03 4.25658E-04-2.28799E-15
 -1      2928 1.76214E-03 4.11216E-04-2.97864E-15
 -1      2929 2.55276E-03 4.88524E-04-5.96962E-15
 -1      2930 2.41102E-03 4.84147E-04-5.33887E-15
 -1      2931 2.33276E-03 4.44809E-04-5.08873E-15
 -1      2932 2.61764E-03 4.53422E-04-6.35099E-15
 -1      2933 1.03374E-03-3.14217E-04-1.00943E-15
 -1      2934 1.17697E-03-3.40337E-04-1.28158E-15
 -1      2935 1.23841E-03-3.19059E-04-1.47470E-15
 -1      2936 1.41609E-03 4.07833E-04-1.90412E-15
 -1      2937 1.27304E-03 3.86800E-04-1.55616E-15
 -1      2938 1.18968E-03 3.41478E-04-1.43288E-15
 -1      2939 1.47612E-03 3.82186E-04-2.13451E-15
 -1      2940 1.46803E-02 5.31780E-04-1.18906E-13
 -1      2941 1.44917E-02 4.67386E-04-1.17945E-13
 -1      2942 1.47210E-02 7.68511E-04-1.19817E-13
 -1      2943 1.48714E-02 7.21594E-04-1.20281E-13
 -1      2944 1.49608E-02 7.12980E-04-1.21766E-13
 -1      2945 7.84358E-04 1.23446E-04-8.15496E-16
 -1      2946 7.81966E-04 1.00012E-04-8.21988E-16
 -1      2947 8.99570E-04 9.94399E-05-1.04363E-15
 -1      2948 9.05320E-04 1.51575E-04-1.02792E-15
 -1      2949 1.32397E-02-1.95545E-04-1.11100E-13
 -1      2950 1.30430E-02-3.22718E-04-1.09542E-13
 -1      2951 1.02638E-02 3.57573E-04-8.82175E-14
 -1      2952 1.04101E-02 4.06349E-04-8.91979E-14
 -1      2953 1.06042E-02 1.21283E-04-8.92698E-14
 -1      2954 1.04520E-02 1.79319E-04-8.86909E-14
 -1      2955 1.09616E-02-4.85659E-05-9.08068E-14
 -1      2956 1.07863E-02 4.03293E-05-9.00263E-14
 -1      2957 1.20996E-02-6.13193E-04-9.98108E-14
 -1      2958 1.19490E-02-5.70599E-04-9.81692E-14
 -1      2959 1.00809E-02 3.02719E-04-8.71977E-14
 -1      2960 1.01350E-02 3.17265E-04-8.75375E-14
 -1      2961 7.81699E-04-9.79587E-05-7.95045E-16
 -1      2962 7.84014E-04-1.21313E-04-7.81954E-16
 -1      2963 1.05845E-02 4.77188E-04-8.99819E-14
 -1      2964 1.07827E-02 5.68417E-04-9.07696E-14
 -1      2965 1.04865E-02 4.36973E-04-8.83994E-14
 -1      2966 1.13676E-02-2.77325E-04-9.31519E-14
 -1      2967 1.11773E-02-1.65212E-04-9.19639E-14
 -1      2968 1.09561E-02 6.60971E-04-9.17134E-14
 -1      2969 1.11371E-02 7.69023E-04-9.26615E-14
 -1      2970 1.08176E-02 5.90326E-04-9.01174E-14
 -1      2971 6.88552E-04-2.03982E-04-5.34715E-16
 -1      2972 1.37457E-02 1.11073E-04-1.14084E-13
 -1      2973 1.35179E-02-2.45580E-05-1.12915E-13
 -1      2974 1.38384E-02 6.61828E-05-1.24279E-13
 -1      2975 1.42602E-02 9.56161E-04-1.17552E-13
 -1      2976 1.44835E-02 8.59416E-04-1.18753E-13
 -1      2977 1.15442E-02 1.05154E-03-9.47058E-14
 -1      2978 1.14918E-02 1.03211E-03-9.34399E-14
 -1      2979 1.12868E-02 9.01283E-04-9.14130E-14
 -1      2980 1.13144E-02 8.83847E-04-9.33226E-14
 -1      2981 1.29291E-02-3.89091E-04-1.08917E-13
 -1      2982 8.95423E-04 1.00797E-06-1.04611E-15
 -1      2983 7.77591E-04-9.72210E-06-8.25159E-16
 -1      2984 7.77956E-04-3.13681E-05-8.20416E-16
 -1      2985 1.47886E-02 5.62177E-04-1.20434E-13
 -1      2986 1.28169E-02 1.72829E-03-1.07074E-13
 -1      2987 1.21809E-02-6.32529E-04-1.00794E-13
 -1      2988 7.87084E-04-1.45462E-04-7.66680E-16
 -1      2989 7.91005E-04-1.70642E-04-7.48032E-16
 -1      2990 9.04848E-04-1.49064E-04-9.82423E-16
 -1      2991 8.64864E-04 2.66533E-04-8.26772E-16
 -1      2992 1.41429E-02 1.02878E-03-1.17585E-13
 -1      2993 1.51722E-02 7.02456E-04-1.25055E-13
 -1      2994 1.52085E-02 7.17745E-04-1.26600E-13
 -1      2995 1.10912E-02 7.68779E-04-9.03359E-14
 -1      2996 1.52323E-02 6.71113E-04-1.24545E-13
 -1      2997 1.37026E-02 1.29977E-03-1.15682E-13
 -1      2998 1.35321E-02 1.41664E-03-1.14685E-13
 -1      2999 1.33982E-02-9.86490E-05-1.12677E-13
 -1      3000 1.46175E-02 8.22858E-04-1.20237E-13
 -1      3001 1.49036E-02 8.25114E-04-1.26371E-13
 -1      3002 1.51175E-02 6.60852E-04-1.21367E-13
 -1      3003 1.51409E-02 6.55649E-04-1.21671E-13
 -1      3004 1.39292E-02 1.16975E-04-1.24454E-13
 -1      3005 1.00262E-02 2.68273E-04-8.53706E-14
 -1      3006 1.00467E-02 2.84979E-04-8.62825E-14
 -1      3007 1.00295E-02 2.81076E-04-8.53565E-14
 -1      3008 1.51167E-02 6.43941E-04-1.21333E-13
 -1      3009 1.50884E-02 6.38386E-04-1.21184E-13
 -1      3010 1.50550E-02 6.29178E-04-1.21838E-13
 -1      3011 1.51626E-02 6.56473E-04-1.22516E-13
 -1      3012 1.14331E-02-3.46992E-04-9.32601E-14
 -1      3013 1.43641E-02 4.16988E-04-1.17788E-13
 -1      3014 1.42378E-02 3.60179E-04-1.17632E-13
 -1      3015 1.44775E-02 4.56832E-04-1.19215E-13
 -1      3016 1.01358E-02 2.56710E-04-8.67387E-14
 -1      3017 1.10178E-02-1.17941E-04-9.03896E-14
 -1      3018 1.03488E-02 1.90981E-04-8.74592E-14
 -1      3019 1.18236E-02-5.44430E-04-9.67947E-14
 -1      3020 7.78736E-04-5.31488E-05-8.14019E-16
 -1      3021 7.79957E-04-7.53371E-05-8.05738E-16
 -1      3022 8.99282E-04-9.70943E-05-1.01380E-15
 -1      3023 8.96317E-04-4.75279E-05-1.03442E-15
 -1      3024 1.51203E-02 7.47934E-04-1.26726E-13
 -1      3025 1.06451E-02 6.77304E-05-8.84884E-14
 -1      3026 1.38842E-02 1.86350E-04-1.15354E-13
 -1      3027 1.01793E-02 3.28646E-04-8.69472E-14
 -1      3028 1.02320E-02 3.45815E-04-8.63526E-14
 -1      3029 1.01060E-02 3.07906E-04-8.56798E-14
 -1      3030 1.25434E-02-5.77622E-04-1.04979E-13
 -1      3031 9.82954E-04 2.75772E-04-1.05864E-15
 -1      3032 8.03069E-04-2.03309E-04-7.31308E-16
 -1      3033 8.21698E-04-2.53835E-04-6.91857E-16
 -1      3034 9.52828E-04-2.88235E-04-8.88151E-16
 -1      3035 9.21145E-04-2.11253E-04-9.44476E-16
 -1      3036 1.11507E-02 7.85759E-04-9.17130E-14
 -1      3037 1.01522E-03-2.72383E-04-1.04634E-15
 -1      3038 1.51268E-02 6.74768E-04-1.22539E-13
 -1      3039 1.37313E-02 4.64836E-06-1.22018E-13
 -1      3040 1.39308E-02 1.18422E-04-1.23644E-13
 -1      3041 1.38362E-02 7.06809E-05-1.21855E-13
 -1      3042 1.36238E-02-5.59195E-05-1.20564E-13
 -1      3043 1.04026E-03 2.43254E-04-1.22844E-15
 -1      3044 1.03364E-03 2.11532E-04-1.24876E-15
 -1      3045 1.48739E-02 8.03379E-04-1.24678E-13
 -1      3046 1.44458E-03-3.13742E-04-2.02529E-15
 -1      3047 1.58808E-03-3.28222E-04-2.40839E-15
 -1      3048 1.51481E-02 6.84983E-04-1.23652E-13
 -1      3049 1.50775E-02 7.06666E-04-1.23629E-13
 -1      3050 1.73166E-03-3.40481E-04-2.82581E-15
 -1      3051 1.87533E-03-3.50694E-04-3.27681E-15
 -1      3052 1.65235E-03-3.00157E-04-2.65936E-15
 -1      3053 2.01898E-03-3.59190E-04-3.76129E-15
 -1      3054 2.16263E-03-3.66126E-04-4.27956E-15
 -1      3055 1.94013E-03-3.19380E-04-3.56838E-15
 -1      3056 2.30622E-03-3.71777E-04-4.83091E-15
 -1      3057 2.44977E-03-3.76270E-04-5.41529E-15
 -1      3058 2.22816E-03-3.32517E-04-4.61076E-15
 -1      3059 2.59326E-03-3.79825E-04-6.03361E-15
 -1      3060 2.73669E-03-3.82543E-04-6.68527E-15
 -1      3061 2.51612E-03-3.41065E-04-5.78640E-15
 -1      3062 2.88007E-03-3.84595E-04-7.36858E-15
 -1      3063 3.02339E-03-3.86056E-04-8.08483E-15
 -1      3064 2.80388E-03-3.46259E-04-7.09351E-15
 -1      3065 3.16667E-03-3.87055E-04-8.83377E-15
 -1      3066 3.30989E-03-3.87648E-04-9.61460E-15
 -1      3067 3.09137E-03-3.49066E-04-8.53038E-15
 -1      3068 3.45309E-03-3.87930E-04-1.04275E-14
 -1      3069 3.59623E-03-3.87939E-04-1.12716E-14
 -1      3070 3.37859E-03-3.50220E-04-1.00961E-14
 -1      3071 3.73935E-03-3.87744E-04-1.21473E-14
 -1      3072 3.88243E-03-3.87371E-04-1.30550E-14
 -1      3073 3.66555E-03-3.50261E-04-1.17883E-14
 -1      3074 4.02550E-03-3.86865E-04-1.39929E-14
 -1      3075 4.16853E-03-3.86243E-04-1.49614E-14
 -1      3076 3.95228E-03-3.49568E-04-1.36053E-14
 -1      3077 4.31154E-03-3.85534E-04-1.59604E-14
 -1      3078 4.45453E-03-3.84746E-04-1.69893E-14
 -1      3079 4.23881E-03-3.48399E-04-1.55450E-14
 -1      3080 4.59751E-03-3.83896E-04-1.80469E-14
 -1      3081 4.74046E-03-3.82986E-04-1.91336E-14
 -1      3082 4.52516E-03-3.46911E-04-1.76049E-14
 -1      3083 4.88341E-03-3.82022E-04-2.02501E-14
 -1      3084 5.02634E-03-3.81004E-04-2.13945E-14
 -1      3085 4.81135E-03-3.45189E-04-1.97807E-14
 -1      3086 5.16926E-03-3.79928E-04-2.25674E-14
 -1      3087 5.31216E-03-3.78791E-04-2.37690E-14
 -1      3088 5.09740E-03-3.43257E-04-2.20721E-14
 -1      3089 5.45506E-03-3.77585E-04-2.49973E-14
 -1      3090 5.59795E-03-3.76303E-04-2.62524E-14
 -1      3091 5.38333E-03-3.41098E-04-2.44752E-14
 -1      3092 5.74082E-03-3.74933E-04-2.75348E-14
 -1      3093 5.88369E-03-3.73467E-04-2.88432E-14
 -1      3094 5.66912E-03-3.38662E-04-2.69885E-14
 -1      3095 6.02654E-03-3.71892E-04-3.01776E-14
 -1      3096 6.16938E-03-3.70197E-04-3.15373E-14
 -1      3097 5.95478E-03-3.35872E-04-2.96076E-14
 -1      3098 6.31221E-03-3.68371E-04-3.29211E-14
 -1      3099 6.45504E-03-3.66402E-04-3.43289E-14
 -1      3100 6.24029E-03-3.32644E-04-3.23284E-14
 -1      3101 6.59784E-03-3.64281E-04-3.57624E-14
 -1      3102 6.74065E-03-3.61999E-04-3.72199E-14
 -1      3103 6.52563E-03-3.28884E-04-3.51468E-14
 -1      3104 6.88344E-03-3.59551E-04-3.86995E-14
 -1      3105 7.02623E-03-3.56933E-04-4.02020E-14
 -1      3106 6.81077E-03-3.24513E-04-3.80611E-14
 -1      3107 7.16901E-03-3.54149E-04-4.17281E-14
 -1      3108 7.31182E-03-3.51201E-04-4.32761E-14
 -1      3109 7.09570E-03-3.19475E-04-4.10677E-14
 -1      3110 7.45462E-03-3.48108E-04-4.48470E-14
 -1      3111 7.59747E-03-3.44881E-04-4.64400E-14
 -1      3112 7.38043E-03-3.13762E-04-4.41650E-14
 -1      3113 7.74036E-03-3.41560E-04-4.80546E-14
 -1      3114 7.88333E-03-3.38173E-04-4.96905E-14
 -1      3115 7.66499E-03-3.07444E-04-4.73515E-14
 -1      3116 8.02640E-03-3.34784E-04-5.13467E-14
 -1      3117 8.16963E-03-3.31450E-04-5.30231E-14
 -1      3118 7.94951E-03-3.00703E-04-5.06226E-14
 -1      3119 8.31306E-03-3.28263E-04-5.47208E-14
 -1      3120 8.45676E-03-3.25320E-04-5.64380E-14
 -1      3121 8.23424E-03-2.93883E-04-5.39773E-14
 -1      3122 8.60082E-03-3.22746E-04-5.81737E-14
 -1      3123 8.74535E-03-3.20696E-04-5.99276E-14
 -1      3124 8.51962E-03-2.87546E-04-5.74095E-14
 -1      3125 8.89046E-03-3.19329E-04-6.17009E-14
 -1      3126 9.03632E-03-3.18881E-04-6.34917E-14
 -1      3127 8.80637E-03-2.82549E-04-6.09203E-14
 -1      3128 9.18310E-03-3.19540E-04-6.52968E-14
 -1      3129 9.33099E-03-3.21652E-04-6.71196E-14
 -1      3130 9.09563E-03-2.80135E-04-6.45022E-14
 -1      3131 9.48028E-03-3.25426E-04-6.89559E-14
 -1      3132 9.63113E-03-3.31344E-04-7.08067E-14
 -1      3133 9.38905E-03-2.82057E-04-6.81472E-14
 -1      3134 9.78393E-03-3.39613E-04-7.26707E-14
 -1      3135 9.93876E-03-3.50865E-04-7.45474E-14
 -1      3136 9.68884E-03-2.90726E-04-7.18483E-14
 -1      3137 1.00961E-02-3.65261E-04-7.64359E-14
 -1      3138 1.02558E-02-3.83523E-04-7.83366E-14
 -1      3139 9.99767E-03-3.09360E-04-7.56045E-14
 -1      3140 1.04184E-02-4.05697E-04-8.02513E-14
 -1      3141 1.05832E-02-4.32368E-04-8.21772E-14
 -1      3142 1.03182E-02-3.41942E-04-7.94095E-14
 -1      3143 1.07506E-02-4.63353E-04-8.41139E-14
 -1      3144 1.09193E-02-4.98450E-04-8.60632E-14
 -1      3145 1.06517E-02-3.92691E-04-8.32621E-14
 -1      3146 1.10892E-02-5.36997E-04-8.80229E-14
 -1      3147 1.12585E-02-5.77055E-04-8.99987E-14
 -1      3148 1.09965E-02-4.63879E-04-8.71625E-14
 -1      3149 1.14269E-02-6.17072E-04-9.19876E-14
 -1      3150 1.15926E-02-6.53263E-04-9.39895E-14
 -1      3151 1.13455E-02-5.50297E-04-9.11155E-14
 -1      3152 1.17550E-02-6.83271E-04-9.60066E-14
 -1      3153 1.19142E-02-7.01443E-04-9.80343E-14
 -1      3154 1.16880E-02-6.33657E-04-9.51243E-14
 -1      3155 1.20694E-02-7.05440E-04-1.00074E-13
 -1      3156 1.22241E-02-6.92295E-04-1.02131E-13
 -1      3157 1.20156E-02-6.80766E-04-9.91842E-14
 -1      3158 1.23774E-02-6.61065E-04-1.04202E-13
 -1      3159 1.25333E-02-6.12602E-04-1.06281E-13
 -1      3160 1.23319E-02-6.57179E-04-1.03298E-13
 -1      3161 1.26910E-02-5.48351E-04-1.08374E-13
 -1      3162 1.28522E-02-4.72812E-04-1.10480E-13
 -1      3163 1.26522E-02-5.53601E-04-1.07461E-13
 -1      3164 1.30162E-02-3.88374E-04-1.12592E-13
 -1      3165 1.31819E-02-2.99229E-04-1.14716E-13
 -1      3166 1.29862E-02-3.91353E-04-1.11672E-13
 -1      3167 1.33217E-02-2.23208E-04-1.16564E-13
 -1      3168 1.34870E-02-1.31586E-04-1.18705E-13
 -1      3169 1.35880E-02-6.84680E-05-1.19348E-13
 -1      3170 1.33027E-02-2.21655E-04-1.15638E-13
 -1      3171 2.11107E-03 3.98781E-04-4.27691E-15
 -1      3172 1.96785E-03 3.90851E-04-3.74791E-15
 -1      3173 3.25492E-03 4.24302E-04-9.72467E-15
 -1      3174 3.11206E-03 4.23459E-04-8.92824E-15
 -1      3175 2.96918E-03 4.22160E-04-8.16430E-15
 -1      3176 2.82627E-03 4.20343E-04-7.43302E-15
 -1      3177 3.03656E-03 3.85461E-04-8.58166E-15
 -1      3178 3.82623E-03 4.24678E-04-1.32278E-14
 -1      3179 3.68342E-03 4.24928E-04-1.23048E-14
 -1      3180 4.11186E-03 4.23745E-04-1.51666E-14
 -1      3181 3.96905E-03 4.24277E-04-1.41822E-14
 -1      3182 3.89577E-03 3.87025E-04-1.37341E-14
 -1      3183 4.39750E-03 4.22394E-04-1.72280E-14
 -1      3184 4.25468E-03 4.23113E-04-1.61820E-14
 -1      3185 4.18190E-03 3.86015E-04-1.57005E-14
 -1      3186 4.68315E-03 4.20751E-04-1.94097E-14
 -1      3187 4.54033E-03 4.21605E-04-1.83041E-14
 -1      3188 4.46795E-03 3.84643E-04-1.77893E-14
 -1      3189 4.96883E-03 4.18868E-04-2.17102E-14
 -1      3190 4.82599E-03 4.19839E-04-2.05453E-14
 -1      3191 4.75392E-03 3.83009E-04-1.99980E-14
 -1      3192 5.25454E-03 4.16742E-04-2.41263E-14
 -1      3193 5.11168E-03 4.17837E-04-2.29040E-14
 -1      3194 5.03983E-03 3.81149E-04-2.23242E-14
 -1      3195 5.54029E-03 4.14327E-04-2.66554E-14
 -1      3196 5.39741E-03 4.15575E-04-2.53768E-14
 -1      3197 5.32569E-03 3.79049E-04-2.47643E-14
 -1      3198 5.82608E-03 4.11544E-04-2.92946E-14
 -1      3199 5.68318E-03 4.12987E-04-2.79622E-14
 -1      3200 5.61150E-03 3.76658E-04-2.73183E-14
 -1      3201 6.11192E-03 4.08289E-04-3.20399E-14
 -1      3202 5.96899E-03 4.09981E-04-3.06540E-14
 -1      3203 5.89725E-03 3.73893E-04-2.99802E-14
 -1      3204 6.39780E-03 4.04445E-04-3.48853E-14
 -1      3205 6.25485E-03 4.06447E-04-3.34502E-14
 -1      3206 6.18294E-03 3.70654E-04-3.27450E-14
 -1      3207 6.68371E-03 3.99892E-04-3.78281E-14
 -1      3208 6.54075E-03 4.02264E-04-3.63446E-14
 -1      3209 6.46853E-03 3.66830E-04-3.56090E-14
 -1      3210 6.96965E-03 3.94520E-04-4.08601E-14
 -1      3211 6.82667E-03 3.97314E-04-3.93328E-14
 -1      3212 6.75398E-03 3.62313E-04-3.85676E-14
 -1      3213 7.25556E-03 3.88253E-04-4.39828E-14
 -1      3214 7.11260E-03 3.91502E-04-4.24114E-14
 -1      3215 7.03921E-03 3.57012E-04-4.16175E-14
 -1      3216 7.54139E-03 3.81076E-04-4.71890E-14
 -1      3217 7.39848E-03 3.84778E-04-4.55751E-14
 -1      3218 7.32409E-03 3.50879E-04-4.47566E-14
 -1      3219 7.82701E-03 3.73081E-04-5.04774E-14
 -1      3220 7.68422E-03 3.77174E-04-4.88233E-14
 -1      3221 7.60847E-03 3.43937E-04-4.79774E-14
 -1      3222 8.11225E-03 3.64525E-04-5.38483E-14
 -1      3223 7.96967E-03 3.68857E-04-5.21523E-14
 -1      3224 7.89209E-03 3.36331E-04-5.12806E-14
 -1      3225 8.39683E-03 3.55919E-04-5.72928E-14
 -1      3226 8.25461E-03 3.60198E-04-5.55619E-14
 -1      3227 8.17460E-03 3.28382E-04-5.46640E-14
 -1      3228 8.68043E-03 3.48136E-04-6.08135E-14
 -1      3229 8.53874E-03 3.51874E-04-5.90437E-14
 -1      3230 8.45555E-03 3.20673E-04-5.81251E-14
 -1      3231 8.96267E-03 3.42559E-04-6.44019E-14
 -1      3232 8.82169E-03 3.44992E-04-6.25992E-14
 -1      3233 8.73433E-03 3.14141E-04-6.16590E-14
 -1      3234 9.24324E-03 3.41255E-04-6.80598E-14
 -1      3235 9.10310E-03 3.41250E-04-6.62227E-14
 -1      3236 9.01029E-03 3.10189E-04-6.52631E-14
 -1      3237 9.52228E-03 3.47179E-04-7.17814E-14
 -1      3238 9.38283E-03 3.43124E-04-6.99128E-14
 -1      3239 9.28283E-03 3.10795E-04-6.89354E-14
 -1      3240 9.80097E-03 3.64438E-04-7.55665E-14
 -1      3241 9.66140E-03 3.54082E-04-7.36651E-14
 -1      3242 9.55173E-03 3.18600E-04-7.26705E-14
 -1      3243 1.00828E-02 3.98806E-04-7.94102E-14
 -1      3244 9.94097E-03 3.78915E-04-7.74808E-14
 -1      3245 9.81789E-03 3.37034E-04-7.64675E-14
 -1      3246 1.03756E-02 4.58976E-04-8.33097E-14
 -1      3247 1.02270E-02 4.24652E-04-8.13536E-14
 -1      3248 1.00848E-02 3.70832E-04-8.03232E-14
 -1      3249 1.38519E-02 9.26827E-05-1.20715E-13
 -1      3250 1.39629E-02 1.60262E-04-1.20875E-13
 -1      3251 1.40850E-02 2.33585E-04-1.21034E-13
 -1      3252 1.42219E-02 3.08560E-04-1.21190E-13
 -1      3253 1.38612E-02 1.24024E-04-1.19086E-13
 -1      3254 1.39002E-02 1.17502E-03-1.16841E-13
 -1      3255 1.15849E-03-2.76919E-04-1.35997E-15
 -1      3256 1.30136E-03-2.96705E-04-1.67591E-15
 -1      3257 1.36540E-03-2.73091E-04-1.88505E-15
 -1      3258 1.45575E-02 4.72745E-04-1.21248E-13
 -1      3259 1.47260E-02 5.35739E-04-1.21393E-13
 -1      3260 1.43968E-02 4.01888E-04-1.21101E-13
 -1      3261 1.01651E-03 6.82019E-05-1.29519E-15
 -1      3262 1.01534E-03 4.12225E-05-1.29581E-15
 -1      3263 1.03764E-02 3.98491E-04-8.69125E-14
 -1      3264 1.05314E-02 4.60754E-04-8.76875E-14
 -1      3265 1.09415E-02 6.71492E-04-8.96879E-14
 -1      3266 1.82456E-03 3.81174E-04-3.25373E-15
 -1      3267 1.68121E-03 3.69577E-04-2.79456E-15
 -1      3268 1.88824E-03 3.50460E-04-3.53329E-15
 -1      3269 1.35563E-02-6.64107E-06-1.14519E-13
 -1      3270 1.33049E-02-1.62292E-04-1.12695E-13
 -1      3271 1.10407E-02-1.83068E-04-8.97787E-14
 -1      3272 1.08547E-02-8.18149E-05-8.86346E-14
 -1      3273 1.01411E-02 2.26122E-04-8.55655E-14
 -1      3274 1.00633E-02 2.43131E-04-8.51252E-14
 -1      3275 3.54059E-03 4.24977E-04-1.14129E-14
 -1      3276 3.39776E-03 4.24792E-04-1.05529E-14
 -1      3277 3.32312E-03 3.87111E-04-1.01723E-14
 -1      3278 3.60952E-03 3.87488E-04-1.18902E-14
 -1      3279 1.14785E-02-4.17941E-04-9.32470E-14
 -1      3280 1.12774E-02-3.10660E-04-9.15319E-14
 -1      3281 1.49694E-02 7.33215E-04-1.23166E-13
 -1      3282 1.03487E-02 1.47377E-04-8.61168E-14
 -1      3283 1.02360E-02 1.92755E-04-8.58410E-14
 -1      3284 1.01329E-02 1.85971E-04-8.42328E-14
 -1      3285 1.22685E-02-6.50054E-04-1.02112E-13
 -1      3286 1.20941E-02-6.52920E-04-9.99230E-14
 -1      3287 1.18488E-02-5.88350E-04-9.69874E-14
 -1      3288 1.16807E-02-5.16931E-04-9.51794E-14
 -1      3289 1.40237E-02 2.56969E-04-1.16772E-13
 -1      3290 1.38185E-02 1.45080E-04-1.15915E-13
 -1      3291 1.41579E-02 3.13846E-04-1.18195E-13
 -1      3292 1.26335E-02-5.43157E-04-1.06264E-13
 -1      3293 1.24605E-02-6.06670E-04-1.04263E-13
 -1      3294 1.30322E-02-3.29450E-04-1.10449E-13
 -1      3295 1.28360E-02-4.44838E-04-1.08507E-13
 -1      3296 9.99581E-04-2.33075E-04-1.07495E-15
 -1      3297 1.07877E-03-2.55043E-04-1.21345E-15
 -1      3298 9.86344E-04-1.95981E-04-1.09658E-15
 -1      3299 1.14501E-03 3.10556E-04-1.37672E-15
 -1      3300 1.08236E-03 2.71630E-04-1.28741E-15
 -1      3301 1.20146E-03 2.73067E-04-1.57211E-15
 -1      3302 1.28817E-03 3.32528E-04-1.70296E-15
 -1      3303 1.06601E-02 1.40246E-05-8.75547E-14
 -1      3304 1.05059E-02 8.32387E-05-8.68075E-14
 -1      3305 1.47154E-02 8.31271E-04-1.22810E-13
 -1      3306 1.41316E-02 1.05667E-03-1.18427E-13
 -1      3307 1.07957E-02 5.90368E-04-8.89051E-14
 -1      3308 1.07528E-02 5.91192E-04-8.75395E-14
 -1      3309 1.05840E-02 5.28779E-04-8.55578E-14
 -1      3310 1.06461E-02 5.16816E-04-8.79723E-14
 -1      3311 1.43210E-02 9.76532E-04-1.20083E-13
 -1      3312 1.01474E-03 1.44514E-05-1.29389E-15
 -1      3313 1.01471E-03-1.22187E-05-1.28927E-15
 -1      3314 1.13542E-03 3.01661E-05-1.56735E-15
 -1      3315 1.04117E-02 4.49927E-04-8.45095E-14
 -1      3316 9.77890E-04-1.38621E-04-1.13967E-15
 -1      3317 9.81595E-04-1.66811E-04-1.11970E-15
 -1      3318 1.05904E-03-1.84999E-04-1.26564E-15
 -1      3319 1.03652E-02 9.60131E-05-8.51944E-14
 -1      3320 1.31879E-02-2.42510E-04-1.12276E-13
 -1      3321 1.15222E-02-4.83049E-04-9.34403E-14
 -1      3322 1.51959E-02 6.76568E-04-1.23965E-13
 -1      3323 1.11052E-02-2.65340E-04-8.97686E-14
 -1      3324 2.74979E-03 3.81933E-04-7.11985E-15
 -1      3325 2.68333E-03 4.17865E-04-6.73456E-15
 -1      3326 2.54035E-03 4.14642E-04-6.06945E-15
 -1      3327 1.05157E-02 4.69859E-04-8.64831E-14
 -1      3328 1.02666E-02 3.64303E-04-8.56452E-14
 -1      3329 1.14326E-03-2.36029E-04-1.38957E-15
 -1      3330 1.15305E-03 2.11804E-04-1.52501E-15
 -1      3331 1.02829E-03 1.81155E-04-1.26472E-15
 -1      3332 1.02411E-03 1.51829E-04-1.27704E-15
 -1      3333 2.39731E-03 4.10483E-04-5.43756E-15
 -1      3334 2.25422E-03 4.05279E-04-4.83999E-15
 -1      3335 2.46280E-03 3.75700E-04-5.78938E-15
 -1      3336 1.49865E-02 6.10586E-04-1.22612E-13
 -1      3337 1.50954E-02 6.37399E-04-1.22753E-13
 -1      3338 2.17560E-03 3.65674E-04-4.59336E-15
 -1      3339 1.01832E-03 9.54609E-05-1.29181E-15
 -1      3340 1.13809E-03 8.85569E-05-1.56585E-15
 -1      3341 1.02080E-03 1.23229E-04-1.28565E-15
 -1      3342 1.36600E-02-2.28614E-05-1.19711E-13
 -1      3343 1.37715E-02 4.41080E-05-1.20354E-13
 -1      3344 1.36662E-02-1.70576E-06-1.18571E-13
 -1      3345 1.35157E-02-9.88050E-05-1.17852E-13
 -1      3346 1.06955E-02-5.39491E-05-8.69522E-14
 -1      3347 1.00038E-02 2.44391E-04-8.42062E-14
 -1      3348 9.95595E-03 2.42409E-04-8.32856E-14
 -1      3349 9.98435E-03 2.17465E-04-8.30425E-14
 -1      3350 1.44984E-02 9.14803E-04-1.21742E-13
 -1      3351 1.48245E-02 5.69698E-04-1.21551E-13
 -1      3352 1.36988E-02 6.81392E-05-1.15932E-13
 -1      3353 1.51928E-02 6.60859E-04-1.23431E-13
 -1      3354 9.75008E-04-1.11259E-04-1.15642E-15
 -1      3355 1.05138E-03-1.26052E-04-1.30800E-15
 -1      3356 9.72875E-04-8.45368E-05-1.17030E-15
 -1      3357 1.55631E-03 3.61500E-04-2.41545E-15
 -1      3358 1.41295E-03 3.45312E-04-2.02259E-15
 -1      3359 1.36910E-03 3.15064E-04-1.95105E-15
 -1      3360 1.61928E-03 3.33897E-04-2.65963E-15
 -1      3361 1.00374E-02 2.87008E-04-8.47691E-14
 -1      3362 1.00579E-02 2.96505E-04-8.41798E-14
 -1      3363 9.98354E-03 2.69935E-04-8.38615E-14
 -1      3364 1.27391E-02-4.97487E-04-1.07781E-13
 -1      3365 1.51612E-02 6.51436E-04-1.23094E-13
 -1      3366 1.00960E-02 1.47535E-04-8.27378E-14
 -1      3367 1.00189E-02 1.77939E-04-8.24646E-14
 -1      3368 1.86182E-03-2.80020E-04-3.37524E-15
 -1      3369 2.00604E-03-2.87358E-04-3.86640E-15
 -1      3370 2.15035E-03-2.93426E-04-4.39065E-15
 -1      3371 2.29470E-03-2.98342E-04-4.94789E-15
 -1      3372 2.07292E-03-2.54650E-04-4.17074E-15
 -1      3373 2.43904E-03-3.02304E-04-5.53878E-15
 -1      3374 2.58335E-03-3.05409E-04-6.16269E-15
 -1      3375 2.36213E-03-2.63646E-04-5.29141E-15
 -1      3376 2.72762E-03-3.07823E-04-6.81790E-15
 -1      3377 2.87181E-03-3.09618E-04-7.50622E-15
 -1      3378 2.65138E-03-2.69358E-04-6.54305E-15
 -1      3379 3.01593E-03-3.10924E-04-8.22756E-15
 -1      3380 3.15996E-03-3.11798E-04-8.98018E-15
 -1      3381 2.94042E-03-2.72678E-04-7.92447E-15
 -1      3382 3.30391E-03-3.12337E-04-9.76541E-15
 -1      3383 3.44777E-03-3.12580E-04-1.05821E-14
 -1      3384 3.22912E-03-2.74308E-04-9.43444E-15
 -1      3385 3.59156E-03-3.12600E-04-1.14297E-14
 -1      3386 3.73526E-03-3.12424E-04-1.23088E-14
 -1      3387 3.51742E-03-2.74779E-04-1.10716E-14
 -1      3388 3.87888E-03-3.12103E-04-1.32186E-14
 -1      3389 4.02242E-03-3.11653E-04-1.41591E-14
 -1      3390 3.80532E-03-2.74476E-04-1.28323E-14
 -1      3391 4.16590E-03-3.11109E-04-1.51307E-14
 -1      3392 4.30930E-03-3.10480E-04-1.61319E-14
 -1      3393 4.09284E-03-2.73666E-04-1.47167E-14
 -1      3394 4.45265E-03-3.09788E-04-1.71627E-14
 -1      3395 4.59593E-03-3.09035E-04-1.82232E-14
 -1      3396 4.38000E-03-2.72524E-04-1.67219E-14
 -1      3397 4.73915E-03-3.08234E-04-1.93125E-14
 -1      3398 4.88232E-03-3.07381E-04-2.04304E-14
 -1      3399 4.66684E-03-2.71152E-04-1.88450E-14
 -1      3400 5.02544E-03-3.06482E-04-2.15768E-14
 -1      3401 5.16850E-03-3.05531E-04-2.27517E-14
 -1      3402 4.95338E-03-2.69594E-04-2.10825E-14
 -1      3403 5.31151E-03-3.04525E-04-2.39546E-14
 -1      3404 5.45447E-03-3.03457E-04-2.51852E-14
 -1      3405 5.23963E-03-2.67852E-04-2.34337E-14
 -1      3406 5.59738E-03-3.02321E-04-2.64424E-14
 -1      3407 5.74023E-03-3.01106E-04-2.77268E-14
 -1      3408 5.52560E-03-2.65893E-04-2.58974E-14
 -1      3409 5.88302E-03-2.99804E-04-2.90380E-14
 -1      3410 6.02575E-03-2.98402E-04-3.03747E-14
 -1      3411 5.81126E-03-2.63662E-04-2.84686E-14
 -1      3412 6.16841E-03-2.96892E-04-3.17355E-14
 -1      3413 6.31101E-03-2.95259E-04-3.31216E-14
 -1      3414 6.09659E-03-2.61083E-04-3.11433E-14
 -1      3415 6.45352E-03-2.93495E-04-3.45321E-14
 -1      3416 6.59596E-03-2.91585E-04-3.59672E-14
 -1      3417 6.38154E-03-2.58071E-04-3.39185E-14
 -1      3418 6.73829E-03-2.89526E-04-3.74247E-14
 -1      3419 6.88054E-03-2.87301E-04-3.89050E-14
 -1      3420 6.66603E-03-2.54536E-04-3.67885E-14
 -1      3421 7.02268E-03-2.84912E-04-4.04080E-14
 -1      3422 7.16473E-03-2.82347E-04-4.19351E-14
 -1      3423 6.94998E-03-2.50394E-04-3.97501E-14
 -1      3424 7.30665E-03-2.79614E-04-4.34841E-14
 -1      3425 7.44848E-03-2.76707E-04-4.50557E-14
 -1      3426 7.23333E-03-2.45581E-04-4.28043E-14
 -1      3427 7.59019E-03-2.73645E-04-4.66495E-14
 -1      3428 7.73182E-03-2.70432E-04-4.82647E-14
 -1      3429 7.51600E-03-2.40065E-04-4.59478E-14
 -1      3430 7.87336E-03-2.67102E-04-4.99001E-14
 -1      3431 8.01486E-03-2.63673E-04-5.15561E-14
 -1      3432 7.79799E-03-2.33869E-04-4.91779E-14
 -1      3433 8.15632E-03-2.60200E-04-5.32333E-14
 -1      3434 8.29784E-03-2.56726E-04-5.49309E-14
 -1      3435 8.07939E-03-2.27098E-04-5.24911E-14
 -1      3436 8.43944E-03-2.53325E-04-5.66478E-14
 -1      3437 8.58126E-03-2.50084E-04-5.83839E-14
 -1      3438 8.36045E-03-2.19978E-04-5.58867E-14
 -1      3439 8.72336E-03-2.47096E-04-6.01392E-14
 -1      3440 8.86594E-03-2.44516E-04-6.19142E-14
 -1      3441 8.64169E-03-2.12905E-04-5.93605E-14
 -1      3442 9.00915E-03-2.42456E-04-6.37056E-14
 -1      3443 9.15322E-03-2.41176E-04-6.55131E-14
 -1      3444 8.92404E-03-2.06529E-04-6.29096E-14
 -1      3445 9.29842E-03-2.40805E-04-6.73367E-14
 -1      3446 9.44507E-03-2.41768E-04-6.91753E-14
 -1      3447 9.20901E-03-2.01882E-04-6.65267E-14
 -1      3448 9.59353E-03-2.44208E-04-7.10274E-14
 -1      3449 9.74419E-03-2.48788E-04-7.28938E-14
 -1      3450 9.49888E-03-2.00592E-04-7.02057E-14
 -1      3451 9.89757E-03-2.55667E-04-7.47729E-14
 -1      3452 1.00540E-02-2.65834E-04-7.66637E-14
 -1      3453 9.79692E-03-2.05242E-04-7.39406E-14
 -1      3454 1.02141E-02-2.79397E-04-7.85668E-14
 -1      3455 1.03779E-02-2.97732E-04-8.04836E-14
 -1      3456 1.01073E-02-2.19955E-04-7.77258E-14
 -1      3457 1.05463E-02-3.20959E-04-8.24105E-14
 -1      3458 1.07182E-02-3.50269E-04-8.43486E-14
 -1      3459 1.04347E-02-2.50736E-04-8.15581E-14
 -1      3460 1.08949E-02-3.85864E-04-8.63019E-14
 -1      3461 1.10734E-02-4.27582E-04-8.82661E-14
 -1      3462 1.07824E-02-3.05569E-04-8.54373E-14
 -1      3463 1.16130E-02-5.79506E-04-9.42393E-14
 -1      3464 1.17860E-02-6.21313E-04-9.62595E-14
 -1      3465 1.23556E-02-6.41421E-04-1.03384E-13
 -1      3466 1.25186E-02-5.97313E-04-1.05460E-13
 -1      3467 1.27027E-02-5.19940E-04-1.07696E-13
 -1      3468 1.28750E-02-4.36325E-04-1.09799E-13
 -1      3469 1.30513E-02-3.43004E-04-1.11911E-13
 -1      3470 4.25216E-03 3.48188E-04-1.62346E-14
 -1      3471 4.10891E-03 3.48760E-04-1.52224E-14
 -1      3472 3.96560E-03 3.49234E-04-1.42402E-14
 -1      3473 3.82225E-03 3.49599E-04-1.32886E-14
 -1      3474 4.03571E-03 3.11349E-04-1.47469E-14
 -1      3475 4.82477E-03 3.45236E-04-2.05860E-14
 -1      3476 4.68167E-03 3.46060E-04-1.94534E-14
 -1      3477 5.11085E-03 3.43430E-04-2.29375E-14
 -1      3478 4.96783E-03 3.44360E-04-2.17471E-14
 -1      3479 4.89570E-03 3.07462E-04-2.11730E-14
 -1      3480 5.39680E-03 3.41388E-04-2.54019E-14
 -1      3481 5.25384E-03 3.42441E-04-2.41558E-14
 -1      3482 5.18190E-03 3.05738E-04-2.35498E-14
 -1      3483 5.68262E-03 3.39056E-04-2.79797E-14
 -1      3484 5.53973E-03 3.40263E-04-2.66775E-14
 -1      3485 5.46789E-03 3.03787E-04-2.60399E-14
 -1      3486 5.96828E-03 3.36353E-04-3.06631E-14
 -1      3487 5.82547E-03 3.37757E-04-2.93079E-14
 -1      3488 5.75365E-03 3.01551E-04-2.86391E-14
 -1      3489 6.25375E-03 3.33184E-04-3.34476E-14
 -1      3490 6.11104E-03 3.34833E-04-3.20423E-14
 -1      3491 6.03915E-03 2.98956E-04-3.13441E-14
 -1      3492 6.53896E-03 3.29448E-04-3.63307E-14
 -1      3493 6.39639E-03 3.31394E-04-3.48775E-14
 -1      3494 6.32433E-03 2.95913E-04-3.41493E-14
 -1      3495 6.82383E-03 3.25055E-04-3.93062E-14
 -1      3496 6.68144E-03 3.27340E-04-3.78074E-14
 -1      3497 6.60908E-03 2.92339E-04-3.70506E-14
 -1      3498 7.10821E-03 3.19937E-04-4.23733E-14
 -1      3499 6.96608E-03 3.22591E-04-4.08280E-14
 -1      3500 6.89327E-03 2.88162E-04-4.00441E-14
 -1      3501 7.39192E-03 3.14081E-04-4.55269E-14
 -1      3502 7.25015E-03 3.17104E-04-4.39399E-14
 -1      3503 7.17670E-03 2.83346E-04-4.31266E-14
 -1      3504 7.67466E-03 3.07554E-04-4.87642E-14
 -1      3505 7.53342E-03 3.10899E-04-4.71355E-14
 -1      3506 7.45909E-03 2.77914E-04-4.62973E-14
 -1      3507 7.95607E-03 3.00559E-04-5.20818E-14
 -1      3508 7.81555E-03 3.04107E-04-5.04122E-14
 -1      3509 7.74005E-03 2.71987E-04-4.95486E-14
 -1      3510 8.23564E-03 2.93485E-04-5.54786E-14
 -1      3511 8.09610E-03 2.97015E-04-5.37709E-14
 -1      3512 8.01910E-03 2.65827E-04-5.28802E-14
 -1      3513 8.51269E-03 2.86983E-04-5.89550E-14
 -1      3514 8.37450E-03 2.90135E-04-5.72083E-14
 -1      3515 8.29555E-03 2.59893E-04-5.62935E-14
 -1      3516 8.78640E-03 2.82042E-04-6.25046E-14
 -1      3517 8.64999E-03 2.84277E-04-6.07202E-14
 -1      3518 8.56855E-03 2.54901E-04-5.97847E-14
 -1      3519 9.05581E-03 2.80058E-04-6.61233E-14
 -1      3520 8.92166E-03 2.80626E-04-6.43046E-14
 -1      3521 8.83703E-03 2.51878E-04-6.33501E-14
 -1      3522 9.31993E-03 2.82872E-04-6.98099E-14
 -1      3523 9.18852E-03 2.80796E-04-6.79590E-14
 -1      3524 9.09972E-03 2.52184E-04-6.69840E-14
 -1      3525 9.57805E-03 2.92753E-04-7.35593E-14
 -1      3526 9.44965E-03 2.86846E-04-7.16768E-14
 -1      3527 9.35515E-03 2.57479E-04-7.06841E-14
 -1      3528 9.83032E-03 3.12373E-04-7.73677E-14
 -1      3529 9.70462E-03 3.01209E-04-7.54559E-14
 -1      3530 9.60187E-03 2.69557E-04-7.44474E-14
 -1      3531 1.00789E-02 3.45321E-04-8.12338E-14
 -1      3532 9.95440E-03 3.26856E-04-7.92939E-14
 -1      3533 9.83887E-03 2.90183E-04-7.82673E-14
 -1      3534 1.13225E-03-1.71986E-04-1.44593E-15
 -1      3535 1.13713E-03-2.03487E-04-1.41987E-15
 -1      3536 1.21586E-03-2.22233E-04-1.58241E-15
 -1      3537 1.41595E-02 3.04023E-04-1.19153E-13
 -1      3538 1.03206E-02 4.06275E-04-8.42320E-14
 -1      3539 1.02207E-02 3.56485E-04-8.44140E-14
 -1      3540 1.01366E-02 3.49319E-04-8.24562E-14
 -1      3541 1.00079E-02 3.07064E-04-8.14158E-14
 -1      3542 1.01021E-02 3.14829E-04-8.38606E-14
 -1      3543 2.24120E-03 3.31987E-04-4.91322E-15
 -1      3544 2.09716E-03 3.26175E-04-4.34834E-15
 -1      3545 1.11401E-02-3.60018E-04-8.94511E-14
 -1      3546 1.09322E-02-2.50469E-04-8.77157E-14
 -1      3547 1.14348E-02-4.99041E-04-9.23196E-14
 -1      3548 1.95313E-03 3.19040E-04-3.81738E-15
 -1      3549 1.80915E-03 3.10444E-04-3.32060E-15
 -1      3550 2.01905E-03 2.86936E-04-4.10586E-15
 -1      3551 1.35833E-03-2.37372E-04-1.92365E-15
 -1      3552 9.92803E-04-3.55914E-05-1.23560E-15
 -1      3553 9.93815E-04-6.19658E-05-1.22659E-15
 -1      3554 1.06963E-03-7.37474E-05-1.38527E-15
 -1      3555 1.11274E-03-2.43889E-05-1.50508E-15
 -1      3556 1.19248E-02-6.33087E-04-9.78845E-14
 -1      3557 1.03582E-02 4.35843E-05-8.40902E-14
 -1      3558 1.02245E-02 9.95825E-05-8.34069E-14
 -1      3559 1.07011E-02-1.18924E-04-8.61572E-14
 -1      3560 1.05318E-02-3.54712E-05-8.50907E-14
 -1      3561 1.32921E-02-1.96941E-04-1.14167E-13
 -1      3562 3.10456E-03 3.48454E-04-8.99957E-15
 -1      3563 2.96083E-03 3.47284E-04-8.23702E-15
 -1      3564 4.53854E-03 3.46829E-04-1.83505E-14
 -1      3565 4.39537E-03 3.47543E-04-1.72773E-14
 -1      3566 4.32263E-03 3.10302E-04-1.67689E-14
 -1      3567 4.60928E-03 3.08986E-04-1.89121E-14
 -1      3568 1.57398E-03-2.60731E-04-2.49318E-15
 -1      3569 1.71778E-03-2.71186E-04-2.91778E-15
 -1      3570 1.78420E-03-2.41297E-04-3.18288E-15
 -1      3571 1.12514E-02-4.46404E-04-9.03255E-14
 -1      3572 1.68354E-03 3.05447E-04-2.90942E-15
 -1      3573 1.55810E-03 2.98838E-04-2.52469E-15
 -1      3574 1.74889E-03 2.76118E-04-3.16407E-15
 -1      3575 1.00859E-02 1.01633E-04-8.16455E-14
 -1      3576 1.42450E-03-2.12538E-04-2.13878E-15
 -1      3577 2.81702E-03 3.45615E-04-7.50656E-15
 -1      3578 2.67315E-03 3.43384E-04-6.80922E-15
 -1      3579 2.88496E-03 3.08977E-04-7.89534E-15
 -1      3580 3.74852E-03 3.12004E-04-1.28460E-14
 -1      3581 3.67883E-03 3.49814E-04-1.23679E-14
 -1      3582 3.53536E-03 3.49860E-04-1.14784E-14
 -1      3583 2.38523E-03 3.36707E-04-5.51166E-15
 -1      3584 2.30775E-03 2.97771E-04-5.23666E-15
 -1      3585 2.52922E-03 3.40443E-04-6.14401E-15
 -1      3586 1.12839E-03-1.41354E-04-1.46831E-15
 -1      3587 1.20597E-03-1.57110E-04-1.63736E-15
 -1      3588 1.12542E-03-1.11423E-04-1.48723E-15
 -1      3589 1.27926E-03 2.42893E-04-1.80886E-15
 -1      3590 1.27312E-03 2.08691E-04-1.82847E-15
 -1      3591 1.00184E-02 2.91694E-04-8.29570E-14
 -1      3592 1.07573E-02-2.17851E-04-8.58469E-14
 -1      3593 1.14370E-03 1.48701E-04-1.55239E-15
 -1      3594 9.94256E-03 1.84018E-04-8.15546E-14
 -1      3595 3.24823E-03 3.49237E-04-9.79461E-15
 -1      3596 3.17315E-03 3.11200E-04-9.41905E-15
 -1      3597 3.39183E-03 3.49678E-04-1.06209E-14
 -1      3598 9.88431E-03 2.26720E-04-8.15476E-14
 -1      3599 9.92907E-03 2.48702E-04-8.27014E-14
 -1      3600 9.91767E-03 2.54760E-04-8.21178E-14
 -1      3601 1.03708E-02-1.79334E-05-8.33061E-14
 -1      3602 1.36091E-02-8.84348E-06-1.16731E-13
 -1      3603 1.34390E-02-1.29385E-04-1.16352E-13
 -1      3604 1.25741E-03 4.78511E-05-1.86590E-15
 -1      3605 1.25667E-03 1.67851E-05-1.86321E-15
 -1      3606 1.26108E-03 1.10486E-04-1.86181E-15
 -1      3607 1.25887E-03 7.90009E-05-1.86593E-15
 -1      3608 1.38057E-03 6.70961E-05-2.18979E-15
 -1      3609 1.37265E-02 7.05395E-05-1.16884E-13
 -1      3610 2.28556E-03-2.25234E-04-5.04451E-15
 -1      3611 2.43044E-03-2.28425E-04-5.64058E-15
 -1      3612 2.57532E-03-2.30963E-04-6.26894E-15
 -1      3613 2.72018E-03-2.32912E-04-6.92915E-15
 -1      3614 2.49953E-03-1.92725E-04-5.99472E-15
 -1      3615 2.86497E-03-2.34390E-04-7.62197E-15
 -1      3616 3.00969E-03-2.35445E-04-8.34729E-15
 -1      3617 2.78968E-03-1.96122E-04-7.32048E-15
 -1      3618 3.15431E-03-2.36173E-04-9.10422E-15
 -1      3619 3.29882E-03-2.36606E-04-9.89333E-15
 -1      3620 3.07957E-03-1.97973E-04-8.77418E-15
 -1      3621 3.44323E-03-2.36817E-04-1.07137E-14
 -1      3622 3.58751E-03-2.36829E-04-1.15642E-14
 -1      3623 3.36904E-03-1.98743E-04-1.03555E-14
 -1      3624 3.73169E-03-2.36696E-04-1.24461E-14
 -1      3625 3.87574E-03-2.36430E-04-1.33588E-14
 -1      3626 3.65802E-03-1.98779E-04-1.20605E-14
 -1      3627 4.01969E-03-2.36070E-04-1.43028E-14
 -1      3628 4.16353E-03-2.35622E-04-1.52772E-14
 -1      3629 3.94649E-03-1.98328E-04-1.38894E-14
 -1      3630 4.30727E-03-2.35114E-04-1.62811E-14
 -1      3631 4.45090E-03-2.34546E-04-1.73145E-14
 -1      3632 4.23447E-03-1.97560E-04-1.58402E-14
 -1      3633 4.59444E-03-2.33934E-04-1.83770E-14
 -1      3634 4.73789E-03-2.33276E-04-1.94687E-14
 -1      3635 4.52199E-03-1.96578E-04-1.79104E-14
 -1      3636 4.88125E-03-2.32581E-04-2.05891E-14
 -1      3637 5.02451E-03-2.31843E-04-2.17374E-14
 -1      3638 4.80906E-03-1.95438E-04-2.00957E-14
 -1      3639 5.16769E-03-2.31065E-04-2.29142E-14
 -1      3640 5.31079E-03-2.30240E-04-2.41196E-14
 -1      3641 5.09572E-03-1.94156E-04-2.23952E-14
 -1      3642 5.45379E-03-2.29365E-04-2.53524E-14
 -1      3643 5.59670E-03-2.28430E-04-2.66125E-14
 -1      3644 5.38197E-03-1.92720E-04-2.48080E-14
 -1      3645 5.73952E-03-2.27431E-04-2.78991E-14
 -1      3646 5.88223E-03-2.26356E-04-2.92121E-14
 -1      3647 5.66779E-03-1.91091E-04-2.73299E-14
 -1      3648 6.02483E-03-2.25200E-04-3.05520E-14
 -1      3649 6.16732E-03-2.23946E-04-3.19154E-14
 -1      3650 5.95314E-03-1.89213E-04-2.99591E-14
 -1      3651 6.30968E-03-2.22590E-04-3.33029E-14
 -1      3652 6.45190E-03-2.21115E-04-3.47159E-14
 -1      3653 6.23795E-03-1.87016E-04-3.26897E-14
 -1      3654 6.59397E-03-2.19516E-04-3.61530E-14
 -1      3655 6.73588E-03-2.17774E-04-3.76123E-14
 -1      3656 6.52212E-03-1.84417E-04-3.55163E-14
 -1      3657 6.87760E-03-2.15887E-04-3.90938E-14
 -1      3658 7.01914E-03-2.13836E-04-4.05976E-14
 -1      3659 6.80553E-03-1.81328E-04-3.84375E-14
 -1      3660 7.16046E-03-2.11622E-04-4.21258E-14
 -1      3661 7.30157E-03-2.09225E-04-4.36759E-14
 -1      3662 7.08804E-03-1.77656E-04-4.14488E-14
 -1      3663 7.44243E-03-2.06654E-04-4.52483E-14
 -1      3664 7.58307E-03-2.03889E-04-4.68421E-14
 -1      3665 7.36949E-03-1.73310E-04-4.45498E-14
 -1      3666 7.72345E-03-2.00946E-04-4.84576E-14
 -1      3667 7.86360E-03-1.97811E-04-5.00939E-14
 -1      3668 7.64974E-03-1.68207E-04-4.77385E-14
 -1      3669 8.00351E-03-1.94510E-04-5.17503E-14
 -1      3670 8.14322E-03-1.91037E-04-5.34280E-14
 -1      3671 7.92871E-03-1.62284E-04-5.10113E-14
 -1      3672 8.28275E-03-1.87430E-04-5.51265E-14
 -1      3673 8.42217E-03-1.83703E-04-5.68446E-14
 -1      3674 8.20641E-03-1.55509E-04-5.43674E-14
 -1      3675 8.56153E-03-1.79903E-04-5.85822E-14
 -1      3676 8.70098E-03-1.76086E-04-6.03389E-14
 -1      3677 8.48304E-03-1.47910E-04-5.78037E-14
 -1      3678 8.84060E-03-1.72303E-04-6.21138E-14
 -1      3679 8.98063E-03-1.68686E-04-6.39056E-14
 -1      3680 8.75913E-03-1.39613E-04-6.13192E-14
 -1      3681 9.12123E-03-1.65289E-04-6.57164E-14
 -1      3682 9.26277E-03-1.62376E-04-6.75418E-14
 -1      3683 9.03566E-03-1.30937E-04-6.49057E-14
 -1      3684 9.40549E-03-1.60004E-04-6.93815E-14
 -1      3685 9.54994E-03-1.58678E-04-7.12377E-14
 -1      3686 9.31435E-03-1.22554E-04-6.85590E-14
 -1      3687 9.69653E-03-1.58444E-04-7.31063E-14
 -1      3688 9.84597E-03-1.60265E-04-7.49875E-14
 -1      3689 9.59798E-03-1.15850E-04-7.22711E-14
 -1      3690 9.99887E-03-1.64116E-04-7.68817E-14
 -1      3691 1.01561E-02-1.71808E-04-7.87869E-14
 -1      3692 9.89087E-03-1.13487E-04-7.60372E-14
 -1      3693 1.05793E-02-1.88863E-04-8.38988E-14
 -1      3694 1.00585E-02 5.27383E-05-8.03955E-14
 -1      3695 9.94763E-03 9.70532E-05-7.97342E-14
 -1      3696 1.70742E-03-2.03476E-04-2.99118E-15
 -1      3697 1.85159E-03-2.10501E-04-3.45489E-15
 -1      3698 1.33692E-02-1.76645E-04-1.15997E-13
 -1      3699 5.25298E-03 2.68096E-04-2.41625E-14
 -1      3700 5.10988E-03 2.68926E-04-2.29473E-14
 -1      3701 4.96671E-03 2.69705E-04-2.17601E-14
 -1      3702 4.82347E-03 2.70440E-04-2.06023E-14
 -1      3703 5.03780E-03 2.31994E-04-2.23474E-14
 -1      3704 5.82461E-03 2.64173E-04-2.92983E-14
 -1      3705 5.68183E-03 2.65260E-04-2.79741E-14
 -1      3706 6.10990E-03 2.61737E-04-3.20241E-14
 -1      3707 5.96730E-03 2.63003E-04-3.06486E-14
 -1      3708 5.89549E-03 2.26949E-04-2.99559E-14
 -1      3709 6.39472E-03 2.58886E-04-3.48492E-14
 -1      3710 6.25237E-03 2.60369E-04-3.34241E-14
 -1      3711 6.18051E-03 2.24725E-04-3.27030E-14
 -1      3712 6.67894E-03 2.55555E-04-3.77678E-14
 -1      3713 6.53691E-03 2.57287E-04-3.62968E-14
 -1      3714 6.46492E-03 2.22133E-04-3.55470E-14
 -1      3715 6.96238E-03 2.51697E-04-4.07790E-14
 -1      3716 6.82077E-03 2.53697E-04-3.92632E-14
 -1      3717 6.74856E-03 2.19128E-04-3.84850E-14
 -1      3718 7.24477E-03 2.47309E-04-4.38786E-14
 -1      3719 7.10372E-03 2.49572E-04-4.23183E-14
 -1      3720 7.03119E-03 2.15693E-04-4.15134E-14
 -1      3721 7.52575E-03 2.42458E-04-4.70642E-14
 -1      3722 7.38545E-03 2.44941E-04-4.54605E-14
 -1      3723 7.31249E-03 2.11860E-04-4.46289E-14
 -1      3724 7.80487E-03 2.37318E-04-5.03314E-14
 -1      3725 7.66557E-03 2.39919E-04-4.86881E-14
 -1      3726 7.59203E-03 2.07744E-04-4.78307E-14
 -1      3727 8.08148E-03 2.32214E-04-5.36797E-14
 -1      3728 7.94352E-03 2.34751E-04-5.19958E-14
 -1      3729 7.86926E-03 2.03573E-04-5.11147E-14
 -1      3730 8.35480E-03 2.27673E-04-5.71091E-14
 -1      3731 8.21860E-03 2.29856E-04-5.53840E-14
 -1      3732 8.14346E-03 1.99738E-04-5.44793E-14
 -1      3733 8.62378E-03 2.24473E-04-6.06167E-14
 -1      3734 8.48989E-03 2.25883E-04-5.88534E-14
 -1      3735 8.41370E-03 1.96830E-04-5.79251E-14
 -1      3736 8.88714E-03 2.23670E-04-6.41970E-14
 -1      3737 8.75623E-03 2.23747E-04-6.23971E-14
 -1      3738 8.67881E-03 1.95685E-04-6.14490E-14
 -1      3739 9.14325E-03 2.26583E-04-6.78451E-14
 -1      3740 9.01617E-03 2.24646E-04-6.60122E-14
 -1      3741 8.93727E-03 1.97383E-04-6.50434E-14
 -1      3742 9.39016E-03 2.34697E-04-7.15596E-14
 -1      3743 9.26793E-03 2.30002E-04-6.96938E-14
 -1      3744 9.18715E-03 2.03207E-04-6.87064E-14
 -1      3745 9.62548E-03 2.49422E-04-7.53362E-14
 -1      3746 9.50932E-03 2.41329E-04-7.34409E-14
 -1      3747 9.42591E-03 2.14501E-04-7.24355E-14
 -1      3748 9.84646E-03 2.71617E-04-7.91682E-14
 -1      3749 9.73771E-03 2.59742E-04-7.72451E-14
 -1      3750 9.65006E-03 2.32225E-04-7.62250E-14
 -1      3751 1.32612E-03 2.85590E-04-1.87816E-15
 -1      3752 1.44602E-03 2.80976E-04-2.21806E-15
 -1      3753 9.93861E-03 2.69242E-04-8.19297E-14
 -1      3754 9.96512E-03 2.84918E-04-8.16118E-14
 -1      3755 9.91511E-03 2.82008E-04-8.03962E-14
 -1      3756 9.86410E-03 2.47454E-04-8.07791E-14
 -1      3757 1.39713E-02 2.07969E-04-1.18288E-13
 -1      3758 2.08599E-03 2.54137E-04-4.39804E-15
 -1      3759 1.94149E-03 2.48180E-04-3.86590E-15
 -1      3760 1.04378E-02-1.79686E-04-8.22329E-14
 -1      3761 1.03973E-02-9.42213E-05-8.26344E-14
 -1      3762 1.02439E-02-2.14147E-05-8.16439E-14
 -1      3763 1.02719E-02-1.64366E-04-8.03069E-14
 -1      3764 4.10611E-03 2.73381E-04-1.52542E-14
 -1      3765 3.96239E-03 2.73778E-04-1.42740E-14
 -1      3766 1.51123E-03 2.54904E-04-2.44164E-15
 -1      3767 1.37820E-03 8.35767E-07-2.18048E-15
 -1      3768 1.25587E-03-1.47043E-05-1.85495E-15
 -1      3769 1.99606E-03-2.16390E-04-3.95156E-15
 -1      3770 2.14075E-03-2.21249E-04-4.48144E-15
 -1      3771 1.91985E-03-1.78798E-04-3.73355E-15
 -1      3772 1.26809E-03 1.75270E-04-1.84378E-15
 -1      3773 1.26414E-03 1.42551E-04-1.85470E-15
 -1      3774 1.38534E-03 1.33807E-04-2.18236E-15
 -1      3775 1.39377E-03 2.02605E-04-2.15833E-15
 -1      3776 5.53896E-03 2.66270E-04-2.66761E-14
 -1      3777 5.39600E-03 2.67214E-04-2.54050E-14
 -1      3778 5.60999E-03 2.28864E-04-2.73114E-14
 -1      3779 9.87286E-03 1.56483E-04-7.98908E-14
 -1      3780 9.85803E-03 1.92383E-04-8.04616E-14
 -1      3781 1.34824E-03-1.72231E-04-1.98283E-15
 -1      3782 1.56316E-03-1.90947E-04-2.56422E-15
 -1      3783 1.63112E-03-1.62494E-04-2.80407E-15
 -1      3784 1.34443E-03-1.38688E-04-2.00812E-15
 -1      3785 2.20943E-03-1.87187E-04-4.79858E-15
 -1      3786 1.81529E-03 2.45917E-04-3.42349E-15
 -1      3787 1.68930E-03 2.42443E-04-3.00748E-15
 -1      3788 1.88261E-03 2.14831E-04-3.68782E-15
 -1      3789 1.01528E-02-1.04069E-04-7.94532E-14
 -1      3790 3.88897E-03 2.36055E-04-1.38042E-14
 -1      3791 3.81857E-03 2.74069E-04-1.33246E-14
 -1      3792 3.67466E-03 2.74246E-04-1.24062E-14
 -1      3793 1.00831E-02-1.19573E-05-7.97357E-14
 -1      3794 2.95359E-03 2.72017E-04-8.28489E-15
 -1      3795 2.80909E-03 2.70602E-04-7.55595E-15
 -1      3796 5.32408E-03 2.30529E-04-2.47744E-14
 -1      3797 2.59646E-03 3.04772E-04-6.50070E-15
 -1      3798 4.75116E-03 2.33290E-04-2.00353E-14
 -1      3799 4.68015E-03 2.71129E-04-1.94739E-14
 -1      3800 4.53676E-03 2.71775E-04-1.83740E-14
 -1      3801 9.82055E-03 2.52842E-04-7.93619E-14
 -1      3802 1.16749E-03-9.79974E-05-1.59589E-15
 -1      3803 1.24465E-03-1.11566E-04-1.77453E-15
 -1      3804 1.38670E-03-1.23107E-04-2.13563E-15
 -1      3805 1.18843E-03-7.20484E-05-1.66307E-15
 -1      3806 2.23058E-03 2.59047E-04-4.96380E-15
 -1      3807 2.15382E-03 2.20666E-04-4.69416E-15
 -1      3808 2.37523E-03 2.63013E-04-5.56277E-15
 -1      3809 9.81353E-03 2.02385E-04-7.98839E-14
 -1      3810 3.46100E-03 3.12059E-04-1.10698E-14
 -1      3811 3.24231E-03 2.73705E-04-9.83923E-15
 -1      3812 3.09800E-03 2.73037E-04-9.04654E-15
 -1      3813 3.02285E-03 2.34792E-04-8.67671E-15
 -1      3814 1.23369E-03-4.19948E-05-1.78948E-15
 -1      3815 1.59705E-03 2.30484E-04-2.72861E-15
 -1      3816 1.48544E-03 2.15336E-04-2.40782E-15
 -1      3817 1.48043E-03 1.79444E-04-2.42368E-15
 -1      3818 1.66413E-03 2.01904E-04-2.96571E-15
 -1      3819 1.50192E-03 1.82399E-05-2.53272E-15
 -1      3820 1.50111E-03-1.68111E-05-2.52218E-15
 -1      3821 1.50438E-03 8.72485E-05-2.53753E-15
 -1      3822 1.50275E-03 5.26612E-05-2.53714E-15
 -1      3823 1.62575E-03 3.64093E-05-2.90761E-15
 -1      3824 9.84033E-03 1.17292E-04-7.86509E-14
 -1      3825 9.74494E-03 1.31543E-04-7.75698E-14
 -1      3826 9.80312E-03 7.54777E-05-7.74154E-14
 -1      3827 4.39329E-03 2.72369E-04-1.73037E-14
 -1      3828 4.24975E-03 2.72910E-04-1.62641E-14
 -1      3829 4.46416E-03 2.34426E-04-1.78397E-14
 -1      3830 4.17677E-03 2.35372E-04-1.57616E-14
 -1      3831 2.71465E-03-1.57958E-04-7.01927E-15
 -1      3832 2.85986E-03-1.59002E-04-7.71581E-15
 -1      3833 3.00499E-03-1.59766E-04-8.44515E-15
 -1      3834 3.15003E-03-1.60276E-04-9.20597E-15
 -1      3835 2.93065E-03-1.21605E-04-8.11661E-15
 -1      3836 3.29495E-03-1.60593E-04-9.99767E-15
 -1      3837 3.43974E-03-1.60734E-04-1.08211E-14
 -1      3838 3.22101E-03-1.22405E-04-9.64113E-15
 -1      3839 3.58440E-03-1.60748E-04-1.16757E-14
 -1      3840 3.72892E-03-1.60643E-04-1.25604E-14
 -1      3841 3.51087E-03-1.22628E-04-1.12906E-14
 -1      3842 3.87330E-03-1.60455E-04-1.34765E-14
 -1      3843 4.01755E-03-1.60187E-04-1.44235E-14
 -1      3844 3.80016E-03-1.22465E-04-1.30642E-14
 -1      3845 4.16166E-03-1.59866E-04-1.54001E-14
 -1      3846 4.30565E-03-1.59492E-04-1.64073E-14
 -1      3847 4.08888E-03-1.22043E-04-1.49604E-14
 -1      3848 4.44950E-03-1.59083E-04-1.74432E-14
 -1      3849 4.59324E-03-1.58635E-04-1.85082E-14
 -1      3850 4.37703E-03-1.21454E-04-1.69767E-14
 -1      3851 4.73685E-03-1.58160E-04-1.96025E-14
 -1      3852 4.88035E-03-1.57652E-04-2.07253E-14
 -1      3853 4.66464E-03-1.20748E-04-1.91098E-14
 -1      3854 5.02373E-03-1.57118E-04-2.18768E-14
 -1      3855 5.16700E-03-1.56550E-04-2.30562E-14
 -1      3856 4.95174E-03-1.19946E-04-2.13576E-14
 -1      3857 5.31015E-03-1.55950E-04-2.42638E-14
 -1      3858 5.45318E-03-1.55310E-04-2.54985E-14
 -1      3859 5.23833E-03-1.19046E-04-2.37195E-14
 -1      3860 5.59609E-03-1.54629E-04-2.67618E-14
 -1      3861 5.73887E-03-1.53895E-04-2.80506E-14
 -1      3862 5.52441E-03-1.18031E-04-2.61933E-14
 -1      3863 5.88151E-03-1.53108E-04-2.93662E-14
 -1      3864 6.02400E-03-1.52253E-04-3.07086E-14
 -1      3865 5.80994E-03-1.16865E-04-2.87750E-14
 -1      3866 6.16634E-03-1.51328E-04-3.20758E-14
 -1      3867 6.30850E-03-1.50316E-04-3.34661E-14
 -1      3868 6.09483E-03-1.15499E-04-3.14605E-14
 -1      3869 6.45047E-03-1.49215E-04-3.48805E-14
 -1      3870 6.59223E-03-1.48005E-04-3.63196E-14
 -1      3871 6.37899E-03-1.13870E-04-3.42456E-14
 -1      3872 6.73376E-03-1.46684E-04-3.77817E-14
 -1      3873 6.87505E-03-1.45229E-04-3.92647E-14
 -1      3874 6.66226E-03-1.11901E-04-3.71244E-14
 -1      3875 7.01605E-03-1.43640E-04-4.07711E-14
 -1      3876 7.15677E-03-1.41887E-04-4.22999E-14
 -1      3877 6.94446E-03-1.09500E-04-4.00942E-14
 -1      3878 7.29715E-03-1.39976E-04-4.38518E-14
 -1      3879 7.43719E-03-1.37871E-04-4.54253E-14
 -1      3880 7.22537E-03-1.06556E-04-4.31536E-14
 -1      3881 7.57685E-03-1.35580E-04-4.70194E-14
 -1      3882 7.71613E-03-1.33062E-04-4.86346E-14
 -1      3883 7.50473E-03-1.02937E-04-4.63015E-14
 -1      3884 7.85499E-03-1.30330E-04-5.02723E-14
 -1      3885 7.99345E-03-1.27339E-04-5.19301E-14
 -1      3886 7.78231E-03-9.84838E-05-4.95340E-14
 -1      3887 8.13147E-03-1.24104E-04-5.36089E-14
 -1      3888 8.26910E-03-1.20583E-04-5.53083E-14
 -1      3889 8.05791E-03-9.30072E-05-5.28517E-14
 -1      3890 8.40631E-03-1.16790E-04-5.70273E-14
 -1      3891 8.54322E-03-1.12695E-04-5.87670E-14
 -1      3892 8.33138E-03-8.62881E-05-5.62516E-14
 -1      3893 8.67980E-03-1.08310E-04-6.05250E-14
 -1      3894 8.81625E-03-1.03636E-04-6.23009E-14
 -1      3895 8.60276E-03-7.80858E-05-5.97311E-14
 -1      3896 8.95258E-03-9.86800E-05-6.40961E-14
 -1      3897 9.08913E-03-9.35148E-05-6.59081E-14
 -1      3898 8.87238E-03-6.81698E-05-6.32860E-14
 -1      3899 9.22593E-03-8.81365E-05-6.77365E-14
 -1      3900 9.36354E-03-8.27737E-05-6.95788E-14
 -1      3901 9.14101E-03-5.64112E-05-6.69121E-14
 -1      3902 9.50204E-03-7.74244E-05-7.14350E-14
 -1      3903 9.64233E-03-7.26309E-05-7.33069E-14
 -1      3904 9.41018E-03-4.29694E-05-7.05992E-14
 -1      3905 1.33198E-03-6.52288E-05-2.03052E-15
 -1      3906 1.49333E-03 1.50844E-04-2.47971E-15
 -1      3907 1.49011E-03 1.15731E-04-2.48700E-15
 -1      3908 1.61235E-03 1.02066E-04-2.85900E-15
 -1      3909 1.58489E-03 1.61238E-04-2.74768E-15
 -1      3910 5.39520E-03 1.93059E-04-2.53850E-14
 -1      3911 5.25213E-03 1.93724E-04-2.41458E-14
 -1      3912 9.98132E-03-2.81762E-05-7.82187E-14
 -1      3913 6.25103E-03 1.87949E-04-3.33806E-14
 -1      3914 6.10875E-03 1.88965E-04-3.19838E-14
 -1      3915 5.96631E-03 1.89904E-04-3.06129E-14
 -1      3916 5.82373E-03 1.90780E-04-2.92668E-14
 -1      3917 6.03708E-03 1.53062E-04-3.12688E-14
 -1      3918 6.81802E-03 1.83095E-04-3.92006E-14
 -1      3919 6.67664E-03 1.84436E-04-3.77108E-14
 -1      3920 7.09981E-03 1.80187E-04-4.22458E-14
 -1      3921 6.95909E-03 1.81683E-04-4.07121E-14
 -1      3922 6.88736E-03 1.47475E-04-3.99146E-14
 -1      3923 7.38001E-03 1.77035E-04-4.53787E-14
 -1      3924 7.24013E-03 1.78641E-04-4.38016E-14
 -1      3925 7.16832E-03 1.45196E-04-4.29775E-14
 -1      3926 7.65812E-03 1.73798E-04-4.85954E-14
 -1      3927 7.51936E-03 1.75424E-04-4.69763E-14
 -1      3928 7.44744E-03 1.42842E-04-4.61276E-14
 -1      3929 7.93353E-03 1.70762E-04-5.18971E-14
 -1      3930 7.79621E-03 1.72247E-04-5.02371E-14
 -1      3931 7.72419E-03 1.40620E-04-4.93622E-14
 -1      3932 8.20545E-03 1.68375E-04-5.52785E-14
 -1      3933 8.06998E-03 1.69474E-04-5.35775E-14
 -1      3934 7.99791E-03 1.38866E-04-5.26799E-14
 -1      3935 8.47285E-03 1.67292E-04-5.87410E-14
 -1      3936 8.33978E-03 1.67654E-04-5.69989E-14
 -1      3937 8.26774E-03 1.38086E-04-5.60779E-14
 -1      3938 8.73445E-03 1.68398E-04-6.22806E-14
 -1      3939 8.60446E-03 1.67554E-04-6.05020E-14
 -1      3940 8.53263E-03 1.38989E-04-5.95581E-14
 -1      3941 8.98858E-03 1.72798E-04-6.58907E-14
 -1      3942 8.86256E-03 1.70179E-04-6.40770E-14
 -1      3943 8.79123E-03 1.42508E-04-6.31139E-14
 -1      3944 9.23303E-03 1.81757E-04-6.95692E-14
 -1      3945 9.11217E-03 1.76734E-04-6.77217E-14
 -1      3946 9.04177E-03 1.49780E-04-6.67395E-14
 -1      3947 9.46475E-03 1.96531E-04-7.33114E-14
 -1      3948 9.35069E-03 1.88510E-04-7.14321E-14
 -1      3949 9.28188E-03 1.62065E-04-7.04311E-14
 -1      3950 9.67929E-03 2.17930E-04-7.71098E-14
 -1      3951 9.57446E-03 2.06687E-04-7.52035E-14
 -1      3952 9.50812E-03 1.80654E-04-7.41847E-14
 -1      3953 2.13387E-03-1.49661E-04-4.55364E-15
 -1      3954 2.27895E-03-1.52476E-04-5.12149E-15
 -1      3955 5.68101E-03 1.91592E-04-2.79459E-14
 -1      3956 5.53816E-03 1.92351E-04-2.66522E-14
 -1      3957 5.46634E-03 1.55708E-04-2.59958E-14
 -1      3958 4.24768E-03 1.97335E-04-1.62701E-14
 -1      3959 4.10375E-03 1.97688E-04-1.52622E-14
 -1      3960 3.53064E-03 2.74263E-04-1.15191E-14
 -1      3961 3.38653E-03 2.74104E-04-1.06636E-14
 -1      3962 3.31201E-03 2.36022E-04-1.02601E-14
 -1      3963 3.60072E-03 2.36340E-04-1.19695E-14
 -1      3964 1.84443E-03-1.42077E-04-3.51679E-15
 -1      3965 1.98899E-03-1.46216E-04-4.01860E-15
 -1      3966 2.05892E-03-1.12767E-04-4.31029E-15
 -1      3967 5.10895E-03 1.94346E-04-2.29346E-14
 -1      3968 4.96567E-03 1.94935E-04-2.17506E-14
 -1      3969 5.18016E-03 1.56788E-04-2.35198E-14
 -1      3970 9.69126E-03 1.80108E-04-7.74451E-14
 -1      3971 9.74153E-03 2.12073E-04-7.85150E-14
 -1      3972 1.62488E-03-3.60121E-05-2.88559E-15
 -1      3973 1.50109E-03-5.19402E-05-2.50695E-15
 -1      3974 9.80495E-03 2.37397E-04-7.95523E-14
 -1      3975 6.53500E-03 1.85687E-04-3.62435E-14
 -1      3976 6.39311E-03 1.86861E-04-3.48001E-14
 -1      3977 6.32146E-03 1.51433E-04-3.40561E-14
 -1      3978 2.42415E-03-1.54760E-04-5.72159E-15
 -1      3979 2.56940E-03-1.56557E-04-6.35406E-15
 -1      3980 2.34923E-03-1.17166E-04-5.44965E-15
 -1      3981 2.66452E-03 2.68682E-04-6.85930E-15
 -1      3982 2.51989E-03 2.66199E-04-6.19453E-15
 -1      3983 2.73331E-03 2.32226E-04-7.21973E-15
 -1      3984 9.87975E-03-5.32746E-05-7.65928E-14
 -1      3985 9.82150E-03 2.38824E-05-7.68662E-14
 -1      3986 9.71404E-03 4.81123E-05-7.57967E-14
 -1      3987 9.73651E-03-5.73120E-05-7.46997E-14
 -1      3988 3.95969E-03 1.97974E-04-1.42851E-14
 -1      3989 3.81552E-03 1.98191E-04-1.33377E-14
 -1      3990 4.03071E-03 1.59869E-04-1.47665E-14
 -1      3991 1.45547E-03-8.62743E-05-2.35525E-15
 -1      3992 2.63996E-03-1.19972E-04-6.71876E-15
 -1      3993 4.82228E-03 1.95486E-04-2.05966E-14
 -1      3994 4.67880E-03 1.96006E-04-1.94715E-14
 -1      3995 4.89352E-03 1.57743E-04-2.11582E-14
 -1      3996 5.75200E-03 1.54476E-04-2.85798E-14
 -1      3997 2.44354E-03 2.27759E-04-5.89150E-15
 -1      3998 2.22253E-03 1.86527E-04-4.99321E-15
 -1      3999 2.07761E-03 1.82800E-04-4.42761E-15
 -1      4000 4.39150E-03 1.96935E-04-1.73075E-14
 -1      4001 4.31881E-03 1.59306E-04-1.67788E-14
 -1      4002 4.53520E-03 1.96487E-04-1.83746E-14
 -1      4003 1.69955E-03-1.21955E-04-3.06023E-15
 -1      4004 1.76939E-03-9.09694E-05-3.31300E-15
 -1      4005 1.76862E-03-1.46768E-05-3.35472E-15
 -1      4006 1.76856E-03-5.27736E-05-3.33629E-15
 -1      4007 1.91298E-03-7.03667E-05-3.81735E-15
 -1      4008 6.60496E-03 1.49570E-04-3.69398E-14
 -1      4009 9.65895E-03 1.49787E-04-7.65556E-14
 -1      4010 9.56741E-03 1.65013E-04-7.52020E-14
 -1      4011 9.45809E-03 1.53071E-04-7.33121E-14
 -1      4012 9.60918E-03 1.16698E-04-7.53324E-14
 -1      4013 1.76968E-03 5.99446E-05-3.37116E-15
 -1      4014 1.76873E-03 2.26091E-05-3.36516E-15
 -1      4015 1.91245E-03 7.58805E-06-3.85397E-15
 -1      4016 2.00204E-03 1.45576E-04-4.16522E-15
 -1      4017 1.93291E-03 1.78267E-04-3.89529E-15
 -1      4018 3.09274E-03 1.97312E-04-9.06966E-15
 -1      4019 2.94783E-03 1.96525E-04-8.31000E-15
 -1      4020 9.63670E-03-1.96247E-05-7.38531E-14
 -1      4021 2.80283E-03 1.95412E-04-7.58249E-15
 -1      4022 2.65777E-03 1.93938E-04-6.88657E-15
 -1      4023 2.87300E-03 1.58291E-04-7.94746E-15
 -1      4024 1.80641E-03 1.77481E-04-3.45312E-15
 -1      4025 3.14732E-03-8.42292E-05-9.28503E-15
 -1      4026 3.29248E-03-8.43846E-05-1.00796E-14
 -1      4027 3.43752E-03-8.44559E-05-1.09061E-14
 -1      4028 3.58240E-03-8.44453E-05-1.17635E-14
 -1      4029 3.36439E-03-4.62569E-05-1.05224E-14
 -1      4030 3.72714E-03-8.43823E-05-1.26518E-14
 -1      4031 3.87173E-03-8.42617E-05-1.35711E-14
 -1      4032 3.65428E-03-4.62306E-05-1.22400E-14
 -1      4033 4.01617E-03-8.41059E-05-1.45209E-14
 -1      4034 4.16046E-03-8.39133E-05-1.55007E-14
 -1      4035 3.94357E-03-4.60664E-05-1.40811E-14
 -1      4036 4.30460E-03-8.37003E-05-1.65106E-14
 -1      4037 4.44860E-03-8.34602E-05-1.75495E-14
 -1      4038 4.23225E-03-4.58287E-05-1.60440E-14
 -1      4039 4.59245E-03-8.32052E-05-1.86172E-14
 -1      4040 4.73618E-03-8.29288E-05-1.97140E-14
 -1      4041 4.52032E-03-4.55360E-05-1.81254E-14
 -1      4042 4.87976E-03-8.26401E-05-2.08393E-14
 -1      4043 5.02322E-03-8.23307E-05-2.19935E-14
 -1      4044 4.80782E-03-4.52030E-05-2.03207E-14
 -1      4045 5.16654E-03-8.20062E-05-2.31755E-14
 -1      4046 5.30972E-03-8.16592E-05-2.43859E-14
 -1      4047 5.09477E-03-4.48261E-05-2.26311E-14
 -1      4048 5.45277E-03-8.12925E-05-2.56252E-14
 -1      4049 5.59567E-03-8.08972E-05-2.68910E-14
 -1      4050 5.38116E-03-4.44057E-05-2.50568E-14
 -1      4051 5.73842E-03-8.04741E-05-2.81828E-14
 -1      4052 5.88101E-03-8.00130E-05-2.95011E-14
 -1      4053 5.66696E-03-4.39237E-05-2.75908E-14
 -1      4054 6.02343E-03-7.95135E-05-3.08455E-14
 -1      4055 6.16566E-03-7.89632E-05-3.22154E-14
 -1      4056 5.95211E-03-4.33546E-05-3.02303E-14
 -1      4057 6.30768E-03-7.83607E-05-3.36093E-14
 -1      4058 6.44947E-03-7.76904E-05-3.50265E-14
 -1      4059 6.23649E-03-4.26619E-05-3.29721E-14
 -1      4060 6.59101E-03-7.69504E-05-3.64678E-14
 -1      4061 6.73228E-03-7.61207E-05-3.79319E-14
 -1      4062 6.51996E-03-4.17946E-05-3.58106E-14
 -1      4063 6.87323E-03-7.51987E-05-3.94180E-14
 -1      4064 7.01386E-03-7.41588E-05-4.09258E-14
 -1      4065 6.80231E-03-4.06813E-05-3.87408E-14
 -1      4066 7.15410E-03-7.29977E-05-4.24563E-14
 -1      4067 7.29394E-03-7.16822E-05-4.40096E-14
 -1      4068 7.08328E-03-3.92238E-05-4.17603E-14
 -1      4069 7.43333E-03-7.02078E-05-4.55843E-14
 -1      4070 7.57225E-03-6.85323E-05-4.71795E-14
 -1      4071 7.36257E-03-3.72856E-05-4.48670E-14
 -1      4072 7.71063E-03-6.66485E-05-4.87963E-14
 -1      4073 7.84846E-03-6.45044E-05-5.04353E-14
 -1      4074 7.63983E-03-3.46793E-05-4.80601E-14
 -1      4075 7.98568E-03-6.20880E-05-5.20954E-14
 -1      4076 8.12228E-03-5.93373E-05-5.37759E-14
 -1      4077 7.91468E-03-3.11504E-05-5.13390E-14
 -1      4078 8.25820E-03-5.62327E-05-5.54767E-14
 -1      4079 8.39348E-03-5.27051E-05-5.71979E-14
 -1      4080 8.18671E-03-2.63597E-05-5.47018E-14
 -1      4081 8.52803E-03-4.87234E-05-5.89384E-14
 -1      4082 8.66194E-03-4.42189E-05-6.06976E-14
 -1      4083 8.45555E-03-1.98685E-05-5.81457E-14
 -1      4084 8.79513E-03-3.91447E-05-6.24762E-14
 -1      4085 8.92779E-03-3.34512E-05-6.42731E-14
 -1      4086 8.72091E-03-1.11321E-05-6.16671E-14
 -1      4087 9.05980E-03-2.70718E-05-6.60869E-14
 -1      4088 9.19154E-03-2.00334E-05-6.79169E-14
 -1      4089 8.98261E-03 4.84392E-07-6.52619E-14
 -1      4090 9.32282E-03-1.22910E-05-6.97631E-14
 -1      4091 9.45422E-03-3.81788E-06-7.16234E-14
 -1      4092 9.24082E-03 1.56044E-05-6.89243E-14
 -1      4093 7.51498E-03 1.09268E-04-4.68750E-14
 -1      4094 7.37620E-03 1.09980E-04-4.52816E-14
 -1      4095 6.10782E-03 1.16438E-04-3.19233E-14
 -1      4096 5.96550E-03 1.17006E-04-3.05559E-14
 -1      4097 7.23685E-03 1.10722E-04-4.37097E-14
 -1      4098 7.09699E-03 1.11507E-04-4.21576E-14
 -1      4099 7.30549E-03 7.67598E-05-4.44392E-14
 -1      4100 6.95668E-03 1.12280E-04-4.06275E-14
 -1      4101 6.81596E-03 1.13055E-04-3.91204E-14
 -1      4102 7.02604E-03 7.75137E-05-4.13395E-14
 -1      4103 7.79050E-03 1.08167E-04-5.01281E-14
 -1      4104 7.65310E-03 1.08669E-04-4.84906E-14
 -1      4105 7.58274E-03 7.62953E-05-4.76234E-14
 -1      4106 8.06273E-03 1.07800E-04-5.34622E-14
 -1      4107 7.92707E-03 1.07883E-04-5.17848E-14
 -1      4108 7.85721E-03 7.64034E-05-5.08921E-14
 -1      4109 8.33082E-03 1.08719E-04-5.68780E-14
 -1      4110 8.19735E-03 1.08087E-04-5.51605E-14
 -1      4111 8.12824E-03 7.75019E-05-5.42454E-14
 -1      4112 8.59371E-03 1.11675E-04-6.03766E-14
 -1      4113 8.46299E-03 1.09930E-04-5.86177E-14
 -1      4114 8.39500E-03 8.01759E-05-5.76803E-14
 -1      4115 8.85006E-03 1.17634E-04-6.39462E-14
 -1      4116 8.72281E-03 1.14274E-04-6.21518E-14
 -1      4117 8.65650E-03 8.52054E-05-6.11936E-14
 -1      4118 9.09813E-03 1.27747E-04-6.75879E-14
 -1      4119 8.97529E-03 1.22190E-04-6.57592E-14
 -1      4120 8.91151E-03 9.35752E-05-6.47804E-14
 -1      4121 9.33556E-03 1.43301E-04-7.12939E-14
 -1      4122 9.21841E-03 1.34894E-04-6.94325E-14
 -1      4123 9.15845E-03 1.06451E-04-6.84360E-14
 -1      4124 5.82299E-03 1.17534E-04-2.92130E-14
 -1      4125 5.68032E-03 1.18030E-04-2.78957E-14
 -1      4126 5.89398E-03 8.07806E-05-2.98445E-14
 -1      4127 1.55568E-03-1.12680E-04-2.62529E-15
 -1      4128 5.53750E-03 1.18492E-04-2.66052E-14
 -1      4129 5.39453E-03 1.18928E-04-2.53418E-14
 -1      4130 5.60868E-03 8.14299E-05-2.72146E-14
 -1      4131 2.05777E-03-7.22324E-05-4.34062E-15
 -1      4132 2.51266E-03 1.92013E-04-6.22297E-15
 -1      4133 2.36757E-03 1.89579E-04-5.59189E-15
 -1      4134 2.29205E-03 1.51763E-04-5.29572E-15
 -1      4135 9.62331E-03 3.08560E-05-7.43265E-14
 -1      4136 9.61661E-03 7.62253E-05-7.48675E-14
 -1      4137 9.52473E-03 9.94800E-05-7.38646E-14
 -1      4138 9.53647E-03 1.35081E-05-7.29355E-14
 -1      4139 2.27489E-03-8.00638E-05-5.17927E-15
 -1      4140 2.42025E-03-8.12821E-05-5.78330E-15
 -1      4141 1.67676E-03 1.71477E-04-3.02857E-15
 -1      4142 5.25143E-03 1.19334E-04-2.41062E-14
 -1      4143 5.10820E-03 1.19719E-04-2.28986E-14
 -1      4144 5.32275E-03 8.20038E-05-2.46921E-14
 -1      4145 3.23754E-03 1.97852E-04-9.86079E-15
 -1      4146 3.16318E-03 1.59631E-04-9.46408E-15
 -1      4147 3.38222E-03 1.98164E-04-1.06827E-14
 -1      4148 2.56571E-03-8.22541E-05-6.41986E-15
 -1      4149 2.71119E-03-8.29956E-05-7.08839E-15
 -1      4150 2.49195E-03-4.48677E-05-6.12218E-15
 -1      4151 1.72766E-03 1.36914E-04-3.21352E-15
 -1      4152 6.39186E-03 1.15192E-04-3.47320E-14
 -1      4153 6.24995E-03 1.15837E-04-3.33160E-14
 -1      4154 6.17856E-03 8.00496E-05-3.25775E-14
 -1      4155 6.67490E-03 1.13796E-04-3.76350E-14
 -1      4156 6.53351E-03 1.14516E-04-3.61717E-14
 -1      4157 6.46225E-03 7.92403E-05-3.54074E-14
 -1      4158 6.74484E-03 7.83763E-05-3.83281E-14
 -1      4159 2.85665E-03-8.35576E-05-7.78891E-15
 -1      4160 3.00203E-03-8.39557E-05-8.52159E-15
 -1      4161 3.07392E-03-4.61027E-05-8.93004E-15
 -1      4162 2.78303E-03-4.56763E-05-7.46282E-15
 -1      4163 2.12930E-03-3.75885E-05-4.63403E-15
 -1      4164 9.44955E-03 4.14171E-05-7.20876E-14
 -1      4165 5.03626E-03 8.25113E-05-2.22795E-14
 -1      4166 4.96485E-03 1.20077E-04-2.17189E-14
 -1      4167 4.82136E-03 1.20418E-04-2.05685E-14
 -1      4168 4.60640E-03 1.58585E-04-1.89104E-14
 -1      4169 9.40466E-03 1.24346E-04-7.22971E-14
 -1      4170 3.74208E-03 1.60195E-04-1.28750E-14
 -1      4171 3.67121E-03 1.98304E-04-1.24215E-14
 -1      4172 3.52678E-03 1.98309E-04-1.15366E-14
 -1      4173 1.74172E-03 1.06151E-04-3.27112E-15
 -1      4174 4.39015E-03 1.21301E-04-1.72878E-14
 -1      4175 4.24615E-03 1.21546E-04-1.62532E-14
 -1      4176 1.88455E-03 9.40178E-05-3.75959E-15
 -1      4177 2.02925E-03 9.66477E-05-4.28176E-15
 -1      4178 2.58252E-03 1.55815E-04-6.55686E-15
 -1      4179 2.12893E-03 2.42111E-06-4.65130E-15
 -1      4180 2.34605E-03-3.12627E-06-5.52051E-15
 -1      4181 2.12940E-03 4.24426E-05-4.66295E-15
 -1      4182 3.23416E-03 1.21765E-04-9.86010E-15
 -1      4183 3.08903E-03 1.21413E-04-9.07092E-15
 -1      4184 2.39111E-03 9.57696E-05-5.72678E-15
 -1      4185 2.24579E-03 9.42422E-05-5.12291E-15
 -1      4186 3.01515E-03 8.32376E-05-8.68220E-15
 -1      4187 2.94380E-03 1.20883E-04-8.31419E-15
 -1      4188 2.79848E-03 1.20167E-04-7.58843E-15
 -1      4189 4.17353E-03 8.36618E-05-1.57311E-14
 -1      4190 4.10200E-03 1.21753E-04-1.52486E-14
 -1      4191 3.95772E-03 1.21928E-04-1.42738E-14
 -1      4192 7.33329E-03 1.96665E-05-4.46588E-14
 -1      4193 7.19396E-03 1.93235E-05-4.30976E-14
 -1      4194 3.58166E-03-8.04074E-06-1.18285E-14
 -1      4195 3.72649E-03-8.00018E-06-1.27202E-14
 -1      4196 3.91385E-03 1.88917E-05-1.39406E-14
 -1      4197 4.05831E-03 1.88989E-05-1.49036E-14
 -1      4198 4.20261E-03 1.88912E-05-1.58959E-14
 -1      4199 4.34677E-03 1.88884E-05-1.69182E-14
 -1      4200 4.73594E-03-7.64241E-06-1.98024E-14
 -1      4201 4.87957E-03-7.57760E-06-2.09310E-14
 -1      4202 5.06538E-03 1.87976E-05-2.24644E-14
 -1      4203 5.20868E-03 1.87752E-05-2.36594E-14
 -1      4204 5.35184E-03 1.87461E-05-2.48818E-14
 -1      4205 5.49485E-03 1.87215E-05-2.61327E-14
 -1      4206 5.63770E-03 1.86916E-05-2.74111E-14
 -1      4207 5.78039E-03 1.86684E-05-2.87148E-14
 -1      4208 5.92291E-03 1.86419E-05-3.00452E-14
 -1      4209 6.06523E-03 1.86271E-05-3.14015E-14
 -1      4210 6.20734E-03 1.86128E-05-3.27824E-14
 -1      4211 6.34922E-03 1.86192E-05-3.41876E-14
 -1      4212 6.49084E-03 1.86332E-05-3.56163E-14
 -1      4213 6.63218E-03 1.86832E-05-3.70674E-14
 -1      4214 6.77320E-03 1.87532E-05-3.85414E-14
 -1      4215 6.91387E-03 1.88835E-05-4.00377E-14
 -1      4216 7.05413E-03 1.90548E-05-4.15565E-14
 -1      4217 7.47208E-03 2.01623E-05-4.62424E-14
 -1      4218 7.61026E-03 2.07829E-05-4.78484E-14
 -1      4219 7.74778E-03 2.16355E-05-4.94732E-14
 -1      4220 7.88454E-03 2.26871E-05-5.11204E-14
 -1      4221 8.02052E-03 2.40811E-05-5.27902E-14
 -1      4222 8.15557E-03 2.57777E-05-5.44794E-14
 -1      4223 8.28970E-03 2.79652E-05-5.61882E-14
 -1      4224 8.42272E-03 3.05942E-05-5.79180E-14
 -1      4225 8.55467E-03 3.39066E-05-5.96668E-14
 -1      4226 8.68530E-03 3.78370E-05-6.14341E-14
 -1      4227 8.81471E-03 4.26899E-05-6.32203E-14
 -1      4228 8.94254E-03 4.83717E-05-6.50250E-14
 -1      4229 9.06902E-03 5.52603E-05-6.68469E-14
 -1      4230 9.19363E-03 6.32294E-05-6.86842E-14
 -1      4231 9.31670E-03 7.27824E-05-7.05390E-14
 -1      4232 4.67776E-03 1.20735E-04-1.94457E-14
 -1      4233 4.53402E-03 1.21033E-04-1.83516E-14
 -1      4234 4.74923E-03 8.29611E-05-1.99804E-14
 -1      4235 9.39595E-03 8.86831E-05-7.18435E-14
 -1      4236 4.46167E-03 8.33476E-05-1.77968E-14
 -1      4237 3.37915E-03 1.21990E-04-1.06804E-14
 -1      4238 3.30560E-03 8.37608E-05-1.02573E-14
 -1      4239 3.45289E-03 1.60182E-04-1.11066E-14
 -1      4240 2.49155E-03-3.13118E-06-6.14444E-15
 -1      4241 2.66751E-03 1.08599E-04-6.96268E-15
 -1      4242 2.52209E-03 1.07503E-04-6.29743E-15
 -1      4243 2.47719E-03 4.91004E-05-6.09801E-15
 -1      4244 2.73890E-03 7.15241E-05-7.30172E-15
 -1      4245 2.62221E-03 7.53560E-06-6.73688E-15
 -1      4246 3.33443E-03 1.87694E-05-1.03979E-14
 -1      4247 3.47951E-03 1.88234E-05-1.12368E-14
 -1      4248 4.49077E-03 1.88728E-05-1.79690E-14
 -1      4249 3.84183E-03 5.70559E-05-1.34936E-14
 -1      4250 3.04388E-03 1.86161E-05-8.81332E-15
 -1      4251 3.18922E-03 1.87124E-05-9.58950E-15
 -1      4252 4.63464E-03 1.88597E-05-1.90493E-14
 -1      4253 3.52401E-03 1.22093E-04-1.15320E-14
 -1      4254 4.99381E-03 5.62464E-05-2.19119E-14
 -1      4255 3.55235E-03 5.70617E-05-1.16881E-14
 -1      4256 2.89843E-03 1.85121E-05-8.06856E-15
 -1      4257 2.75291E-03 1.83583E-05-7.35471E-15
 -1      4258 3.77010E-03 9.52301E-05-1.30472E-14
 -1      4259 3.62543E-03 9.52652E-05-1.21432E-14
 -1      4260 4.70667E-03 5.65272E-05-1.96321E-14
 -1      4261 4.85031E-03 5.63912E-05-2.07580E-14
 -3
    1PSTEP                         2           1           1          
  100CL  101 1.000000000        4261                     0    1           1
 -4  STRESS      6    1
 -5  SXX         1    4    1    1
 -5  SYY         1    4    2    2
 -5  SZZ         1    4    3    3
 -5  SXY         1    4    1    2
 -5  SYZ         1    4    2    3
 -5  SZX         1    4    3    1
 -1         1 7.01975E+01 9.09480E-01 3.74109E+00-2.86957E-01-3.53537E-15 1.60522E-13
 -1         2-8.92806E-01-2.97053E+01-4.04709E+00 3.35741E-02 4.53524E-13 3.23616E-13
 -1         3 1.99039E+01-1.01160E-01 6.38907E-02-9.89819E-02-4.50373E-13-4.58994E-13
 -1         4 2.00244E+01 2.58630E-02 1.20471E-02-2.48797E-02 2.38816E-13 6.48989E-14
 -1         5 3.27687E+01 6.14287E+00 2.74237E+00 6.22425E+00-3.74631E-14 3.04798E-12
 -1         6 3.57526E+01 1.22634E+01 5.12532E+00-8.64653E+00-1.66867E-13 3.45979E-12
 -1         7 2.08198E+01 6.10001E+00-1.28561E-01-4.72515E+00-2.46192E-14 9.26276E-13
 -1         8 1.96727E+01 5.93524E+00 5.09964E-02-3.27426E+00-4.21677E-14 6.41887E-14
 -1         9 1.91380E+01 5.77212E+00 4.91853E-02-2.52597E+00-4.04989E-14-4.29881E-13
 -1        10 1.88950E+01 5.69211E+00 5.09595E-02-1.95064E+00-3.13178E-14-6.96734E-13
 -1        11 1.87734E+01 5.65116E+00 5.02862E-02-1.45574E+00-2.36551E-14-8.39418E-13
 -1        12 1.87097E+01 5.62949E+00 4.88275E-02-1.01482E+00-1.44689E-14-9.21714E-13
 -1        13 1.86759E+01 5.61797E+00 4.74129E-02-5.95122E-01-1.24151E-14-9.56512E-13
 -1        14 1.86617E+01 5.61310E+00 4.66797E-02-1.91123E-01-1.63847E-15-9.85081E-13
 -1        15 1.86622E+01 5.61326E+00 4.67208E-02 2.08128E-01 7.29451E-16-1.00067E-12
 -1        16 1.86774E+01 5.61845E+00 4.75440E-02 6.12961E-01 7.04146E-15-1.00423E-12
 -1        17 1.87124E+01 5.63021E+00 4.90626E-02 1.03460E+00 7.42917E-15-9.89187E-13
 -1        18 1.87775E+01 5.65232E+00 5.08168E-02 1.47859E+00 1.68489E-14-9.47381E-13
 -1        19 1.89011E+01 5.69380E+00 5.15351E-02 1.97965E+00 2.48412E-14-8.53849E-13
 -1        20 1.91429E+01 5.77463E+00 4.88003E-02 2.56325E+00 3.33778E-14-6.50811E-13
 -1        21 1.96682E+01 5.94983E+00 4.59595E-02 3.30831E+00 4.12795E-14-2.07051E-13
 -1        22 2.12026E+01 6.38174E+00 1.39746E-01 4.52274E+00 7.75768E-15 7.55548E-13
 -1        23 2.30309E+01-1.37929E+00-9.38336E-01-7.11071E-01-1.11307E-13 2.86472E-12
 -1        24 1.93687E+01-9.94845E-02-3.09818E-01 6.32275E-02-3.12242E-14 2.32536E-12
 -1        25 1.86807E+01-5.63239E-02-6.88041E-02 6.07205E-02-1.80843E-14 1.77478E-12
 -1        26 1.84787E+01-2.20896E-02-6.49510E-03 3.29981E-02-5.99358E-15 1.37184E-12
 -1        27 1.84906E+01-1.17975E-02 1.59398E-03 2.26239E-02 9.35124E-16 1.12637E-12
 -1        28 1.86051E+01-6.23319E-03 1.79128E-03 1.63190E-02 2.09143E-15 1.00611E-12
 -1        29 1.87653E+01-3.07577E-03 1.73205E-03 1.21744E-02-1.33971E-14 8.95103E-13
 -1        30 1.89398E+01-1.21761E-03 1.91936E-03 9.22189E-03-5.57144E-15 7.01116E-13
 -1        31 1.91109E+01-1.18522E-04 2.08618E-03 7.00133E-03-1.00017E-14 5.21283E-13
 -1        32 1.92687E+01 5.11042E-04 2.12332E-03 5.28074E-03-1.50364E-14 3.54999E-13
 -1        33 1.94082E+01 8.40121E-04 2.03824E-03 3.92944E-03 3.78144E-14 3.10107E-13
 -1        34 1.95277E+01 9.73766E-04 1.86848E-03 2.86404E-03 5.95801E-15 3.14326E-13
 -1        35 1.96274E+01 9.80057E-04 1.64882E-03 2.02541E-03 9.63322E-15 1.44288E-13
 -1        36 1.97089E+01 9.03754E-04 1.40410E-03 1.36842E-03 4.76778E-15 7.94430E-14
 -1        37 1.97742E+01 7.73817E-04 1.14946E-03 8.57367E-04-3.12665E-14 6.29108E-14
 -1        38 1.98261E+01 6.07930E-04 8.92009E-04 4.63959E-04 1.07737E-14 1.40593E-14
 -1        39 1.98676E+01 4.15539E-04 6.32321E-04 1.66636E-04-3.95008E-14-7.51900E-14
 -1        40 1.99018E+01 2.00091E-04 3.65858E-04-4.95276E-05-6.92408E-15-1.08130E-13
 -1        41 1.99321E+01-3.91056E-05 8.41833E-05-1.92559E-04 6.77014E-15-8.24086E-14
 -1        42 1.99620E+01-3.05154E-04-2.23802E-04-2.63063E-04-3.92184E-14-3.14778E-13
 -1        43 1.99956E+01-6.01686E-04-5.70395E-04-2.53516E-04-3.67777E-14-3.37356E-13
 -1        44 2.00374E+01-9.30567E-04-9.67054E-04-1.47501E-04-2.98566E-15-1.91060E-13
 -1        45 2.00924E+01-1.28885E-03-1.42131E-03 8.08754E-05-3.65245E-14-2.73067E-13
 -1        46 2.01663E+01-1.66462E-03-1.93196E-03 4.66902E-04-3.68595E-14-4.45295E-13
 -1        47 2.02651E+01-2.03141E-03-2.48171E-03 1.05365E-03 2.17114E-14-2.37121E-13
 -1        48 2.03951E+01-2.34080E-03-3.02597E-03 1.88731E-03-1.31516E-14 2.47870E-15
 -1        49 2.05622E+01-2.51361E-03-3.47698E-03 3.00695E-03 5.22508E-14-1.50912E-13
 -1        50 2.07706E+01-2.43060E-03-3.68246E-03 4.42489E-03-5.83020E-15-2.79513E-13
 -1        51 2.10208E+01-1.92603E-03-3.40106E-03 6.09237E-03 5.09475E-14-6.10733E-14
 -1        52 2.13071E+01-7.90934E-04-2.28227E-03 7.84458E-03-5.74439E-14 2.10337E-13
 -1        53 2.16135E+01 1.20141E-03 1.28907E-04 9.32192E-03-2.27649E-14-1.96167E-14
 -1        54 2.19094E+01 4.22853E-03 4.32136E-03 9.87605E-03-2.32864E-14-1.73521E-13
 -1        55 2.21446E+01 8.28907E-03 1.06185E-02 8.49878E-03 3.28658E-14-6.03428E-14
 -1        56 2.22480E+01 1.30033E-02 1.87861E-02 3.86658E-03 3.02020E-14-2.25981E-13
 -1        57 2.21311E+01 1.73899E-02 2.74624E-02-5.33601E-03-1.44307E-16 1.20010E-13
 -1        58 2.17046E+01 1.97691E-02 3.36646E-02-1.96272E-02-6.40383E-14-1.23646E-13
 -1        59 2.09098E+01 1.80665E-02 3.30225E-02-3.74868E-02-1.94983E-15-1.87942E-13
 -1        60 1.97627E+01 1.07414E-02 2.14792E-02-5.42761E-02-3.11498E-14-6.05904E-14
 -1        61 1.83936E+01-1.83636E-03-1.48556E-03-6.26683E-02 3.18991E-14 2.23883E-14
 -1        62 1.70483E+01-1.64281E-02-2.99488E-02-5.57715E-02-4.88478E-14 2.68629E-13
 -1        63 1.60257E+01-2.76990E-02-5.24917E-02-3.21947E-02-2.71818E-14 2.09116E-13
 -1        64 1.55615E+01-3.09565E-02-5.84568E-02 8.85343E-04 3.82665E-14 1.77447E-13
 -1        65 1.57198E+01-2.51627E-02-4.54539E-02 3.08520E-02-1.02294E-13-6.45838E-15
 -1        66 1.63696E+01-1.36907E-02-2.13748E-02 4.72848E-02 2.19643E-13-1.15255E-14
 -1        67 1.72629E+01-2.02941E-03 1.15627E-03 4.80821E-02-6.78327E-15 1.45873E-14
 -1        68 1.81617E+01 5.72873E-03 1.34451E-02 3.93705E-02 7.91267E-15 3.21389E-13
 -1        69 1.89280E+01 9.19194E-03 1.64170E-02 3.01278E-02 1.93716E-14 2.27977E-14
 -1        70 1.95241E+01 1.03341E-02 1.91335E-02 2.42619E-02-8.69806E-14-2.85405E-13
 -1        71 1.99269E+01 2.92874E-03 2.58296E-02 1.52536E-02-5.53314E-15-2.25378E-13
 -1        72 2.10434E+01-4.04899E-01-9.80431E-01-3.11650E-01 4.97311E-14 2.68159E-12
 -1        73 1.93332E+01-6.58832E-02-2.91123E-01-5.38400E-02 3.31631E-14 1.88366E-12
 -1        74 1.86903E+01-2.05063E-02-6.42687E-02-2.03494E-02 1.75723E-14 1.28274E-12
 -1        75 1.84879E+01-9.87911E-03-9.31133E-03-1.54507E-02 1.62609E-14 8.36428E-13
 -1        76 1.84995E+01-5.16537E-03 6.78522E-04-1.23842E-02 9.72659E-15 5.30551E-13
 -1        77 1.86133E+01-2.61260E-03 1.74331E-03-1.01164E-02 1.41729E-14 3.39985E-13
 -1        78 1.87725E+01-1.14068E-03 1.88155E-03-8.38057E-03-1.23215E-14 2.91140E-13
 -1        79 1.89460E+01-2.74529E-04 2.07767E-03-6.95090E-03 2.93578E-14 1.15056E-13
 -1        80 1.91161E+01 2.27169E-04 2.22177E-03-5.72195E-03 1.47822E-14-2.57063E-13
 -1        81 1.92730E+01 4.99468E-04 2.23672E-03-4.65185E-03 1.82179E-14-3.62371E-13
 -1        82 1.94117E+01 6.24103E-04 2.13284E-03-3.72137E-03-1.25302E-14-4.40442E-13
 -1        83 1.95304E+01 6.52958E-04 1.94717E-03-2.91789E-03 1.10826E-14-4.28304E-13
 -1        84 1.96294E+01 6.19838E-04 1.71428E-03-2.22945E-03-1.86079E-15-4.81068E-13
 -1        85 1.97101E+01 5.46654E-04 1.45901E-03-1.64289E-03-1.15038E-14-4.86639E-13
 -1        86 1.97747E+01 4.46925E-04 1.19658E-03-1.14369E-03 4.60506E-15-6.63910E-13
 -1        87 1.98258E+01 3.27914E-04 9.33926E-04-7.16530E-04-1.13735E-14-6.76731E-13
 -1        88 1.98663E+01 1.92013E-04 6.71187E-04-3.46008E-04-2.84762E-14-8.07987E-13
 -1        89 1.98993E+01 3.76451E-05 4.02721E-04-1.73306E-05 6.69130E-14-1.12259E-12
 -1        90 1.99281E+01-1.40192E-04 1.17733E-04 2.83062E-04-1.07548E-13-1.19591E-12
 -1        91 1.99564E+01-3.49662E-04-1.99583E-04 5.66919E-04 4.34777E-14-1.21499E-12
 -1        92 1.99883E+01-6.02066E-04-5.70438E-04 8.43495E-04-6.48253E-15-1.13872E-12
 -1        93 2.00287E+01-9.12001E-04-1.02244E-03 1.11859E-03-9.82781E-15-1.06512E-12
 -1        94 2.00836E+01-1.29760E-03-1.59130E-03 1.39297E-03-4.85552E-14-1.11451E-12
 -1        95 2.01604E+01-1.78057E-03-2.32341E-03 1.65950E-03-8.46171E-15-7.80848E-13
 -1        96 2.02684E+01-2.38554E-03-3.27915E-03 1.89797E-03 3.31544E-14-6.70726E-13
 -1        97 2.04197E+01-3.13742E-03-4.53640E-03 2.06556E-03-7.14729E-14-5.64909E-13
 -1        98 2.06297E+01-4.05431E-03-6.19225E-03 2.07962E-03 5.09518E-14-5.34459E-13
 -1        99 2.09181E+01-5.13134E-03-8.35704E-03 1.78745E-03-2.19092E-14-1.02925E-12
 -1       100 2.13097E+01-6.30680E-03-1.11268E-02 9.15324E-04-4.09003E-14-8.45895E-13
 -1       101 2.18344E+01-7.39721E-03-1.45006E-02-1.01093E-03 5.20212E-14-9.78659E-13
 -1       102 2.25265E+01-7.98388E-03-1.81730E-02-4.77229E-03-2.63059E-14-1.04403E-12
 -1       103 2.34194E+01-7.24251E-03-2.10750E-02-1.15469E-02-2.60057E-15-8.45664E-13
 -1       104 2.45327E+01-3.76031E-03-2.05093E-02-2.28175E-02 9.39244E-16-3.64739E-13
 -1       105 2.58448E+01 4.44481E-03-1.09425E-02-3.96390E-02 6.84036E-14-3.46849E-13
 -1       106 2.72417E+01 1.90982E-02 1.64742E-02-6.03302E-02-1.28554E-13-5.00499E-13
 -1       107 2.84424E+01 3.90178E-02 7.01455E-02-7.55451E-02 4.04262E-14-7.80959E-13
 -1       108 2.89312E+01 5.53791E-02 1.44378E-01-6.22886E-02-5.60272E-15-1.17300E-12
 -1       109 2.80120E+01 4.97342E-02 1.96244E-01 1.23199E-02 2.44171E-14-7.12611E-13
 -1       110 2.51768E+01 8.02205E-03 1.44784E-01 1.55638E-01 3.64448E-14-1.00780E-12
 -1       111 2.08283E+01-5.11540E-02-5.43958E-02 2.91804E-01 7.80959E-14-9.73679E-13
 -1       112 1.67386E+01-7.88664E-02-2.93218E-01 2.76822E-01-7.38723E-14-5.76497E-13
 -1       113 1.51456E+01-5.34847E-02-3.56743E-01 6.67823E-02 5.28778E-14-1.18540E-12
 -1       114 1.67437E+01-3.80117E-03-1.86677E-01-1.72308E-01-4.61265E-14-1.74415E-12
 -1       115 1.99765E+01 3.30845E-02 5.18347E-02-2.56533E-01 1.14075E-13-1.72387E-12
 -1       116 2.25954E+01 4.28639E-02 1.80873E-01-1.79964E-01 7.77802E-14-1.53205E-12
 -1       117 2.34228E+01 2.84395E-02 1.68552E-01-5.15031E-02-3.90200E-14-1.51122E-12
 -1       118 2.26338E+01 2.62780E-03 7.57401E-02 4.87839E-02-3.39173E-14-7.57545E-13
 -1       119 2.11410E+01-2.23395E-02-2.81712E-02 9.22721E-02-5.10291E-15-7.88227E-13
 -1       120 2.00759E+01 2.90427E-02-2.82405E-02 3.69017E-02 1.84843E-13-7.42962E-13
 -1       121 1.99829E+01 1.44504E-01-5.89866E-02 6.61989E-03-4.63450E-13 1.10416E-13
 -1       122 1.99489E+01 1.35087E+00-1.08108E-01 7.10499E-02 3.17673E-13-5.32647E-15
 -1       123 1.99707E+01 3.67713E+00-7.39981E-02 1.27731E-01 7.35807E-13 2.61650E-13
 -1       124 2.00071E+01 6.67805E+00-3.89929E-03 1.62716E-01 1.28071E-13-4.94653E-14
 -1       125 2.00518E+01 9.64672E+00 9.28433E-02 1.48523E-01 4.51930E-13-1.68049E-13
 -1       126 2.00898E+01 1.16142E+01 1.73794E-01 7.38710E-02 1.44804E-13-3.20230E-15
 -1       127 2.00942E+01 1.18502E+01 1.86462E-01-4.19544E-02-3.02444E-13-9.40090E-14
 -1       128 2.00653E+01 1.01864E+01 1.20690E-01-1.36591E-01-7.12104E-13 5.16510E-14
 -1       129 2.00185E+01 7.26731E+00 1.92198E-02-1.68201E-01-4.47753E-13 1.12545E-13
 -1       130 1.99767E+01 4.09526E+00-6.26698E-02-1.39226E-01-3.98223E-13-1.22015E-13
 -1       131 1.99550E+01 1.50097E+00-9.76174E-02-7.99886E-02-7.30204E-13-2.48064E-13
 -1       132 1.99502E+01-1.18157E-01-9.39706E-02-2.52409E-02-8.00963E-13 3.09303E-13
 -1       133 1.99612E+01-8.24430E-01-6.69768E-02 1.57886E-02 1.24128E-12 2.10399E-13
 -1       134 1.99782E+01-8.26532E-01-3.23650E-02 3.87364E-02 1.51863E-12-1.29892E-13
 -1       135 1.99982E+01-4.66922E-01 9.16927E-04 4.86526E-02 4.92582E-13-1.22235E-13
 -1       136 2.00019E+01-1.01315E-01 1.57977E-02 2.96305E-02 2.40220E-13 9.16619E-14
 -1       137-1.65074E+00-2.42330E+01-3.67586E+00-4.64362E+00 1.20209E-12 3.64486E-13
 -1       138-2.01162E+00-1.14283E+01-2.72073E+00-4.12582E+00 6.42431E-13-2.73392E-14
 -1       139 2.73681E+00 2.46696E+00-1.28015E+00 3.01963E+00 4.23328E-13 2.73392E-13
 -1       140 1.78841E+01 1.12682E+01 5.80731E-01 1.40367E+01 6.37324E-13 8.48543E-13
 -1       141 4.09261E+01 1.10949E+01 2.40243E+00 2.05663E+01 6.44207E-13 1.04883E-12
 -1       142 6.19144E+01 5.39647E+00 3.68940E+00 1.65989E+01 2.22170E-13 9.78717E-13
 -1       143 7.23884E+01 1.42345E+00 4.22374E+00 3.94177E+00 1.12556E-13 7.93532E-13
 -1       144 6.67160E+01 2.61038E+00 3.80060E+00-1.01632E+01 1.28925E-13-4.35985E-13
 -1       145 4.82758E+01 7.39080E+00 2.59494E+00-1.78969E+01 4.74454E-13-9.87876E-13
 -1       146 2.54115E+01 1.02068E+01 9.65199E-01-1.58125E+01 7.50566E-13-1.10989E-12
 -1       147 7.71925E+00 6.44192E+00-6.68073E-01-7.20363E+00 1.35797E-12-1.24334E-12
 -1       148-7.80984E-01-4.26756E+00-2.02840E+00 1.44250E+00 1.53755E-12-9.63951E-13
 -1       149-2.44836E+00-1.79004E+01-3.02940E+00 5.54749E+00 1.15274E-12-4.12323E-13
 -1       150-1.06645E+00-2.62673E+01-3.48369E+00 2.85342E+00 7.38853E-13-2.21552E-13
 -1       151-8.92987E-01-2.55448E+01-3.38479E+00-2.04079E+00-7.46819E-13-2.29872E-13
 -1       152-1.80384E+00-1.64696E+01-2.80008E+00-4.44811E+00-1.00153E-12-1.33657E-13
 -1       153-3.05984E-01-2.92767E+00-1.75614E+00-6.95749E-01-7.53231E-13-3.94018E-13
 -1       154 7.38282E+00 7.76781E+00-4.54440E-01 7.66134E+00-1.01064E-12-9.65894E-13
 -1       155 2.25255E+01 1.17390E+01 9.47284E-01 1.60247E+01-1.16862E-12-1.65862E-12
 -1       156 4.45090E+01 9.01175E+00 2.35556E+00 1.92527E+01-6.45317E-13-1.02446E-12
 -1       157 6.28164E+01 3.38823E+00 3.33187E+00 1.26395E+01-5.64618E-14-4.86333E-13
 -1       158 6.28181E+01 3.94780E+00 3.45481E+00-1.40525E+01-2.70756E-13 1.23884E-12
 -1       159 4.33347E+01 9.95318E+00 2.48320E+00-2.00710E+01-9.92123E-13 1.88333E-12
 -1       160 2.18843E+01 1.23622E+01 1.05611E+00-1.62086E+01-1.45106E-12 1.77525E-12
 -1       161 4.88989E+00 5.61225E+00-7.38439E-01-5.44184E+00-2.18292E-12 1.80256E-12
 -1       162-1.55337E+00-8.11320E+00-2.32943E+00 3.02773E+00-9.58456E-13 6.43957E-13
 -1       163-1.74269E+00-2.27958E+01-3.53954E+00 4.73697E+00-2.71227E-13-2.82691E-14
 -1       164 2.10144E+01 3.69399E+00-5.73401E-02-3.60984E+00-4.64479E-13 4.29306E-13
 -1       165 1.99917E+01 4.20782E+00-4.57252E-02-2.80892E+00-4.71242E-13-1.12285E-13
 -1       166 1.95091E+01 4.47715E+00-3.15884E-02-2.19381E+00-4.09110E-13-4.41409E-13
 -1       167 1.92672E+01 4.61520E+00-2.37307E-02-1.67514E+00-3.33233E-13-6.37887E-13
 -1       168 1.91369E+01 4.69684E+00-1.94771E-02-1.21877E+00-2.61438E-13-7.28771E-13
 -1       169 1.90627E+01 4.74794E+00-1.74078E-02-7.91808E-01-1.90929E-13-7.76540E-13
 -1       170 1.90253E+01 4.77580E+00-1.64167E-02-3.86764E-01-1.08673E-13-8.04234E-13
 -1       171 1.90144E+01 4.78432E+00-1.61303E-02 8.26576E-03-3.64538E-14-8.27948E-13
 -1       172 1.90270E+01 4.77451E+00-1.64642E-02 4.03643E-01 2.86959E-14-8.38499E-13
 -1       173 1.90663E+01 4.74497E+00-1.75179E-02 8.09793E-01 9.66710E-14-8.40611E-13
 -1       174 1.91411E+01 4.69255E+00-1.96862E-02 1.23120E+00 1.77955E-13-8.09618E-13
 -1       175 1.92770E+01 4.60541E+00-2.40059E-02 1.69783E+00 2.70050E-13-7.45839E-13
 -1       176 1.95242E+01 4.45961E+00-3.28499E-02 2.22616E+00 3.69457E-13-6.07786E-13
 -1       177 2.00141E+01 4.18387E+00-4.72102E-02 2.84641E+00 4.45745E-13-3.30968E-13
 -1       178 2.11361E+01 3.46366E+00-5.97752E-02 3.53640E+00 4.60132E-13 2.28713E-13
 -1       179 2.24206E+01 1.14332E+00-3.36466E-01 3.01459E+00 3.69470E-13 9.99534E-13
 -1       180 2.19730E+01 8.58212E-01 6.59733E-04-1.95871E+00-3.83308E-13 1.02274E-12
 -1       181 2.04488E+01 1.90145E-01-9.99415E-03-7.63961E-01-3.27675E-13 8.25112E-13
 -1       182 1.96734E+01 1.01767E-01 1.35578E-02-2.85412E-01-2.51625E-13 6.70228E-13
 -1       183 1.93340E+01 4.71746E-02 1.00084E-02-6.76105E-02-1.67915E-13 5.11680E-13
 -1       184 1.92046E+01 2.25469E-02 5.15822E-03 3.96306E-02-1.02806E-13 4.10377E-13
 -1       185 1.91914E+01 9.52345E-03 2.42951E-03 9.22393E-02-9.24001E-14 3.39894E-13
 -1       186 1.92402E+01 2.12193E-03 1.12628E-03 1.14618E-01-1.10189E-13 2.74457E-13
 -1       187 1.93196E+01-2.12352E-03 4.91971E-04 1.19517E-01-1.28676E-13 2.20571E-13
 -1       188 1.94106E+01-4.43856E-03 1.56026E-04 1.14346E-01-8.93157E-14 1.58506E-13
 -1       189 1.95022E+01-5.52382E-03-3.12750E-05 1.03706E-01-5.57558E-14 1.51177E-13
 -1       190 1.95880E+01-5.81749E-03-1.32967E-04 9.05460E-02-3.75204E-14-1.47975E-14
 -1       191 1.96646E+01-5.60664E-03-1.80424E-04 7.67728E-02-7.95127E-14-9.60113E-14
 -1       192 1.97310E+01-5.08198E-03-1.92135E-04 6.36062E-02-6.18507E-14-1.16795E-13
 -1       193 1.97871E+01-4.36752E-03-1.79915E-04 5.18145E-02-3.73589E-16-1.05894E-13
 -1       194 1.98339E+01-3.53854E-03-1.51383E-04 4.18767E-02 4.70010E-15 4.77105E-14
 -1       195 1.98731E+01-2.63371E-03-1.11261E-04 3.41021E-02-1.02844E-14 7.85141E-14
 -1       196 1.99067E+01-1.66404E-03-6.22317E-05 2.87188E-02-2.91558E-14 9.85241E-14
 -1       197 1.99369E+01-6.20185E-04-5.58082E-06 2.59399E-02-4.35535E-14-6.71167E-14
 -1       198 1.99663E+01 5.21080E-04 5.82313E-05 2.60093E-02-1.73901E-13-1.57042E-13
 -1       199 1.99979E+01 1.79023E-03 1.29001E-04 2.92302E-02-2.28487E-14-2.06701E-13
 -1       200 2.00350E+01 3.21693E-03 2.06134E-04 3.59735E-02 5.67425E-14-1.99635E-13
 -1       201 2.00811E+01 4.81922E-03 2.87842E-04 4.66598E-02-8.30556E-14-2.04371E-13
 -1       202 2.01403E+01 6.58804E-03 3.70115E-04 6.17082E-02 5.59104E-15-4.06799E-14
 -1       203 2.02167E+01 8.46492E-03 4.45434E-04 8.14352E-02 6.78733E-14-7.98370E-15
 -1       204 2.03146E+01 1.03102E-02 5.01237E-04 1.05885E-01 3.96135E-14-1.01698E-13
 -1       205 2.04380E+01 1.18595E-02 5.18360E-04 1.34566E-01-9.73492E-14-6.31939E-14
 -1       206 2.05896E+01 1.26688E-02 4.69985E-04 1.66069E-01-6.02041E-14-2.11246E-13
 -1       207 2.07701E+01 1.20522E-02 3.22175E-04 1.97540E-01 1.02173E-13-2.79516E-13
 -1       208 2.09765E+01 9.03300E-03 3.79135E-05 2.24035E-01 1.15526E-13-2.05206E-13
 -1       209 2.11999E+01 2.34852E-03-4.12803E-04 2.37838E-01-7.95494E-14 2.55183E-14
 -1       210 2.14233E+01-9.40207E-03-1.03442E-03 2.27988E-01-1.13836E-13 7.25955E-14
 -1       211 2.16193E+01-2.73293E-02-1.77985E-03 1.80544E-01-1.12744E-14 5.85752E-14
 -1       212 2.17490E+01-5.13732E-02-2.52418E-03 8.04638E-02-1.42361E-13-1.79303E-13
 -1       213 2.17629E+01-7.88945E-02-3.05712E-03-8.37684E-02 1.61687E-13-2.04778E-13
 -1       214 2.16081E+01-1.03055E-01-3.12133E-03-3.11890E-01-6.95572E-14-3.22107E-13
 -1       215 2.12412E+01-1.12204E-01-2.52265E-03-5.80950E-01-6.85790E-14-1.32226E-13
 -1       216 2.06503E+01-9.25394E-02-1.25877E-03-8.36823E-01 5.68499E-14-2.48399E-13
 -1       217 1.98783E+01-3.58074E-02 3.68729E-04-9.98170E-01 9.14488E-14 3.43328E-14
 -1       218 1.90364E+01 5.02659E-02 1.86500E-03-9.82586E-01 2.36879E-14-3.96766E-14
 -1       219 1.82886E+01 1.37103E-01 2.91265E-03-7.52003E-01-4.25588E-14-4.52663E-14
 -1       220 1.77993E+01 1.86253E-01 3.47095E-03-3.51699E-01-1.11443E-13-2.81822E-13
 -1       221 1.76626E+01 1.74467E-01 3.64168E-03 9.55898E-02 4.61423E-14-3.13503E-13
 -1       222 1.78593E+01 1.11135E-01 3.33691E-03 4.49600E-01 2.09034E-16-1.24443E-13
 -1       223 1.82736E+01 3.18762E-02 2.46552E-03 6.26306E-01 1.87021E-13-1.20637E-13
 -1       224 1.87575E+01-2.65795E-02 1.05258E-03 6.31863E-01 1.73599E-13 8.91763E-14
 -1       225 1.91971E+01-4.94958E-02-4.50216E-04 5.36163E-01-1.52346E-13-2.22023E-13
 -1       226 1.95388E+01-5.01137E-02-1.04401E-03 4.12510E-01-1.42011E-13-2.68727E-13
 -1       227 1.97887E+01-6.53978E-02 5.79544E-04 2.81698E-01 1.54474E-14-1.19162E-13
 -1       228 2.09648E+01 2.77013E-01-5.13306E-02 1.16464E+00 3.73042E-13 8.26501E-13
 -1       229 1.98703E+01 1.26844E-01 8.31064E-03 4.42941E-01 2.93454E-13 5.67280E-13
 -1       230 1.93642E+01 5.80700E-02 1.27344E-02 1.49883E-01 2.20965E-13 3.53880E-13
 -1       231 1.91548E+01 2.77257E-02 7.62801E-03 1.05947E-02 1.50349E-13 2.02221E-13
 -1       232 1.91053E+01 1.30784E-02 3.82231E-03-5.85524E-02 9.90666E-14 1.02085E-13
 -1       233 1.91414E+01 5.12810E-03 1.90486E-03-9.09905E-02 3.75246E-14-8.51359E-15
 -1       234 1.92207E+01 5.81226E-04 1.00164E-03-1.02747E-01 1.45271E-13-6.66524E-14
 -1       235 1.93185E+01-2.00880E-03 5.41143E-04-1.02539E-01 1.43634E-13-1.34876E-13
 -1       236 1.94202E+01-3.38799E-03 2.78053E-04-9.55678E-02 5.38474E-14-2.62501E-13
 -1       237 1.95172E+01-3.99225E-03 1.17980E-04-8.51071E-02-1.36680E-14-2.36546E-13
 -1       238 1.96051E+01-4.09795E-03 2.09110E-05-7.32609E-02 3.58569E-14-2.31009E-13
 -1       239 1.96816E+01-3.88774E-03-3.41614E-05-6.13821E-02 5.44822E-14-2.84249E-13
 -1       240 1.97466E+01-3.48293E-03-6.02557E-05-5.03273E-02 5.82625E-14-4.01878E-13
 -1       241 1.98006E+01-2.96131E-03-6.59826E-05-4.06281E-02 5.06138E-14-4.23254E-13
 -1       242 1.98453E+01-2.36809E-03-5.70453E-05-3.26144E-02 2.49190E-14-4.38905E-13
 -1       243 1.98824E+01-1.72320E-03-3.70621E-05-2.65075E-02 8.43464E-14-5.22363E-13
 -1       244 1.99143E+01-1.02631E-03-8.07589E-06-2.24933E-02 1.55673E-13-6.22121E-13
 -1       245 1.99435E+01-2.60046E-04 2.90844E-05-2.07809E-02-2.14011E-14-6.05345E-13
 -1       246 1.99731E+01 6.08313E-04 7.45513E-05-2.16541E-02-3.70460E-14-5.07637E-13
 -1       247 2.00066E+01 1.62655E-03 1.29215E-04-2.55184E-02-1.55108E-13-3.74485E-13
 -1       248 2.00479E+01 2.85856E-03 1.94520E-04-3.29480E-02-6.45040E-14-3.71375E-13
 -1       249 2.01021E+01 4.38670E-03 2.72183E-04-4.47374E-02-2.53264E-15-4.68165E-13
 -1       250 2.01753E+01 6.31531E-03 3.63686E-04-6.19595E-02-9.07844E-14-5.48757E-13
 -1       251 2.02748E+01 8.77467E-03 4.69289E-04-8.60318E-02-1.01745E-13-4.97672E-13
 -1       252 2.04102E+01 1.19231E-02 5.86077E-04-1.18786E-01-1.42532E-13-2.52087E-13
 -1       253 2.05928E+01 1.59414E-02 7.04258E-04-1.62527E-01 5.62925E-14-7.66197E-14
 -1       254 2.08369E+01 2.10082E-02 8.00517E-04-2.20026E-01 1.43075E-13-3.16143E-14
 -1       255 2.11593E+01 2.72261E-02 8.27286E-04-2.94362E-01-3.03899E-14-2.49178E-13
 -1       256 2.15794E+01 3.44475E-02 6.98801E-04-3.88356E-01 1.82274E-13-5.14928E-13
 -1       257 2.21170E+01 4.18926E-02 2.82849E-04-5.03190E-01-3.32108E-14-5.83895E-13
 -1       258 2.27887E+01 4.73950E-02-5.72668E-04-6.35388E-01-7.19973E-14-6.31242E-13
 -1       259 2.35991E+01 4.60741E-02-1.91153E-03-7.70926E-01-1.34718E-13-5.52623E-13
 -1       260 2.45254E+01 2.84754E-02-3.34477E-03-8.75194E-01 2.02929E-14-4.26693E-13
 -1       261 2.54933E+01-2.06625E-02-3.57430E-03-8.79343E-01-9.99309E-15-3.20494E-13
 -1       262 2.63460E+01-1.18592E-01-3.27523E-04-6.70990E-01 2.23582E-13-5.31629E-13
 -1       263 2.68241E+01-2.65921E-01 7.85044E-03-1.15671E-01 8.38826E-15-3.87967E-13
 -1       264 2.65949E+01-4.05176E-01 1.69656E-02 8.43538E-01-6.52672E-14-5.05732E-13
 -1       265 2.53994E+01-3.86615E-01 1.24867E-02 1.97831E+00 8.49034E-14-3.39697E-13
 -1       266 2.33617E+01-5.96027E-02-1.96289E-02 2.62943E+00-7.52393E-15-2.06082E-13
 -1       267 2.12566E+01 4.61014E-01-6.43011E-02 2.04989E+00-6.77305E-14-2.89152E-13
 -1       268 2.02149E+01 7.14057E-01-7.64726E-02 3.23789E-01 4.54473E-13-6.31470E-13
 -1       269 2.07010E+01 4.32121E-01-4.29394E-02-1.33247E+00 5.35978E-14-9.19764E-13
 -1       270 2.19992E+01-7.67243E-02 5.60290E-04-1.79491E+00 1.68305E-14-7.22988E-13
 -1       271 2.29937E+01-3.73582E-01 2.02309E-02-1.09434E+00-3.02536E-15-8.95711E-13
 -1       272 2.31122E+01-3.66565E-01 1.66441E-02-1.93139E-02-2.35429E-13-5.82612E-13
 -1       273 2.24414E+01-1.90722E-01 3.62391E-03 7.59034E-01-3.91013E-13-2.49116E-13
 -1       274 2.14109E+01 3.87390E-02-6.96668E-03 9.51672E-01 2.19605E-13-2.33849E-13
 -1       275 2.04758E+01 2.41311E-01-8.41975E-03 5.69032E-01-7.48056E-15-1.00270E-13
 -1       276 2.03498E+01 8.81948E-01 3.62761E-04 9.98805E-01 5.96540E-14 5.10191E-13
 -1       277 2.02808E+01 2.03930E+00 6.39763E-05 1.71202E+00 6.98456E-14 2.30568E-13
 -1       278 2.01202E+01 3.62055E+00-4.07648E-03 2.19195E+00 5.57505E-14-1.99878E-13
 -1       279 1.98561E+01 5.38743E+00-5.61970E-03 2.16349E+00 2.80765E-14-3.49681E-14
 -1       280 1.95536E+01 6.84673E+00-7.05875E-03 1.45905E+00-2.97685E-13-3.39447E-13
 -1       281 1.93866E+01 7.51664E+00-6.09523E-03 1.65993E-01-2.95119E-13-2.53400E-13
 -1       282 1.94795E+01 7.06802E+00-6.04201E-03-1.21976E+00-1.90182E-13-5.24754E-14
 -1       283 1.97676E+01 5.66587E+00-6.20019E-03-2.13802E+00-1.54581E-14-5.64002E-14
 -1       284 2.00736E+01 3.81578E+00-3.92703E-03-2.33162E+00 2.89872E-14-6.78338E-14
 -1       285 2.02617E+01 2.05832E+00 3.98867E-04-1.92636E+00 8.67709E-14-1.25441E-13
 -1       286 2.03077E+01 7.52874E-01 4.10782E-03-1.25120E+00 1.59926E-13 2.78319E-14
 -1       287 2.02584E+01-4.21072E-02 6.03929E-03-5.67288E-01 3.11482E-13 1.02764E-12
 -1       288 2.01652E+01-3.62255E-01 5.56505E-03-5.26423E-02 8.05684E-14 1.25867E-14
 -1       289 2.00476E+01-3.55253E-01 2.57251E-03 2.23533E-01 1.56970E-13-4.01867E-13
 -1       290 1.99659E+01-2.09013E-01 2.65994E-03 3.35839E-01 3.65701E-14-1.32227E-13
 -1       291-9.88480E-01-1.27480E+01-1.10061E+00 1.30302E+00 2.91170E-13 2.51688E-13
 -1       292 2.72026E+00-1.08757E+01-9.98598E-01 3.60125E+00 1.24012E-13-2.28699E-13
 -1       293 9.77024E+00-6.73316E+00-6.24106E-01 5.98524E+00 1.49880E-13 2.77972E-14
 -1       294 2.21621E+01-3.50758E+00-6.09590E-02 7.56580E+00 2.10332E-13 8.49126E-13
 -1       295 3.29479E+01 1.08559E+00 2.86951E-01 6.57900E+00 4.40481E-13 6.73406E-13
 -1       296 4.30094E+01 5.63246E+00 9.06124E-01 6.75516E+00 3.44686E-13 5.18474E-13
 -1       297 4.77035E+01 7.33091E+00 1.00388E+00 3.22631E+00 2.14273E-13 3.95697E-13
 -1       298 4.75807E+01 7.45259E+00 9.11490E-01 3.58422E-01 5.69628E-13 1.78607E-13
 -1       299 4.48457E+01 5.37577E+00 8.65900E-01-3.14494E+00 4.17999E-13-7.81042E-14
 -1       300 3.60643E+01 2.23342E+00 4.38464E-01-5.00549E+00 5.45709E-13-5.91416E-13
 -1       301 2.50890E+01-1.07535E+00 2.58545E-02-6.42239E+00 7.29722E-13-5.78593E-13
 -1       302 1.38220E+01-4.67249E+00-4.33303E-01-5.56068E+00 5.06539E-13-5.08871E-13
 -1       303 6.31770E+00-8.58209E+00-5.75558E-01-4.48214E+00 3.99542E-13-3.61308E-13
 -1       304-7.81358E-02-1.18879E+01-9.74969E-01-1.42718E+00 3.98653E-13-3.88606E-13
 -1       305-1.53240E+00-1.16673E+01-8.73688E-01 5.98260E-01 9.16437E-14-5.96356E-13
 -1       306 2.81448E-01-1.13005E+01-9.19552E-01 2.52800E+00 7.27196E-15-7.85483E-14
 -1       307 5.56898E+00-7.79250E+00-6.48098E-01 4.86293E+00-2.29206E-13-6.95867E-14
 -1       308 1.33145E+01-3.46968E+00-3.38683E-01 6.63179E+00-2.39253E-13-5.63549E-13
 -1       309 2.31194E+01 4.84954E-01 5.84798E-02 7.94052E+00-3.56160E-13-6.31634E-13
 -1       310 3.40956E+01 3.16890E+00 4.18534E-01 6.85287E+00-4.46268E-13-1.13076E-13
 -1       311 4.34742E+01 5.92346E+00 8.21662E-01 5.43164E+00-3.32324E-13-4.31322E-13
 -1       312 4.72282E+01 7.36195E+00 8.86661E-01 1.42037E+00-3.86302E-13-1.63411E-13
 -1       313 4.91806E+01 7.05533E+00 1.10498E+00-2.72961E+00-5.98577E-13 3.01217E-13
 -1       314 4.31236E+01 6.08482E+00 8.53482E-01-6.04820E+00-9.33149E-13 8.44463E-13
 -1       315 3.39692E+01 3.76682E+00 5.52042E-01-8.40079E+00-8.12406E-13 1.43108E-12
 -1       316 2.33536E+01-1.25097E+00 4.70319E-02-7.91342E+00-9.93983E-13 9.07635E-13
 -1       317 1.15158E+01-5.39214E+00-4.76971E-01-6.50572E+00-6.12232E-13 1.31102E-12
 -1       318 3.57855E+00-1.01665E+01-9.25924E-01-4.11458E+00-1.28841E-13 6.79568E-13
 -1       319-8.77033E-01-1.26739E+01-1.10576E+00-1.69443E+00 1.96024E-13 4.37012E-13
 -1       320 2.01460E+01 3.01521E+00-1.79042E-02-2.10950E+00-4.91033E-13-1.58283E-13
 -1       321 2.07568E+01 2.20829E+00-1.78566E-02-2.36290E+00-5.00972E-13 1.66015E-13
 -1       322 1.95841E+01 3.69175E+00-1.50757E-02-1.31637E+00-3.59983E-13-4.98723E-13
 -1       323 1.94597E+01 3.84897E+00-1.35607E-02-9.23199E-01-2.77942E-13-5.70765E-13
 -1       324 1.93904E+01 3.93967E+00-1.26753E-02-5.43705E-01-1.86184E-13-5.95290E-13
 -1       325 1.93598E+01 3.98095E+00-1.22838E-02-1.73208E-01-9.10436E-14-6.25318E-13
 -1       326 1.93611E+01 3.97933E+00-1.23094E-02 1.94324E-01-3.83740E-16-6.46168E-13
 -1       327 1.93947E+01 3.93442E+00-1.27560E-02 5.65188E-01 7.73577E-14-6.56538E-13
 -1       328 1.94657E+01 3.84112E+00-1.37635E-02 9.39037E-01 1.69437E-13-6.28106E-13
 -1       329 1.95929E+01 3.67884E+00-1.56516E-02 1.33298E+00 2.82603E-13-5.86709E-13
 -1       330 1.98088E+01 3.41010E+00-1.88297E-02 1.73820E+00 3.88764E-13-4.96537E-13
 -1       331 2.01798E+01 2.95526E+00-2.29389E-02 2.12675E+00 4.77267E-13-3.29335E-13
 -1       332 2.07499E+01 2.12942E+00-3.04681E-02 2.32176E+00 5.20647E-13 1.89779E-15
 -1       333 2.10966E+01 1.18770E+00-2.49208E-02 1.92158E+00 4.78216E-13 3.35785E-13
 -1       334 2.03931E+01 4.89284E-01 8.33278E-03 9.26986E-01 4.03491E-13 2.14860E-13
 -1       335 2.04595E+01 6.75250E-01 1.23343E-02-1.02506E+00-3.72312E-13 2.05586E-13
 -1       336 2.00381E+01 3.37001E-01 7.17768E-03-4.57083E-01-2.97380E-13 1.66481E-13
 -1       337 1.97841E+01 1.76394E-01 4.12712E-03-1.48379E-01-1.93887E-13 1.31864E-13
 -1       338 1.96486E+01 9.04749E-02 1.88701E-03 2.27784E-02-1.49924E-13 7.62894E-14
 -1       339 1.95933E+01 4.13434E-02 7.85566E-04 1.13946E-01-1.51333E-13 2.58781E-14
 -1       340 1.95881E+01 1.23372E-02 2.70698E-04 1.57075E-01-1.58468E-13-6.02083E-15
 -1       341 1.96121E+01-4.68822E-03 1.33639E-05 1.71069E-01-1.30754E-13-5.46729E-16
 -1       342 1.96514E+01-1.41831E-02-1.21470E-04 1.67686E-01-1.12279E-13-6.13375E-14
 -1       343 1.96971E+01-1.88118E-02-1.88936E-04 1.54510E-01-1.50824E-13-1.54280E-13
 -1       344 1.97435E+01-2.02723E-02-2.14954E-04 1.36523E-01-8.70574E-14-1.41562E-13
 -1       345 1.97873E+01-1.96849E-02-2.14383E-04 1.17009E-01-6.07211E-14-1.14053E-13
 -1       346 1.98271E+01-1.77918E-02-1.96666E-04 9.81212E-02 1.59652E-14 2.20819E-14
 -1       347 1.98623E+01-1.50714E-02-1.67863E-04 8.12622E-02 4.57891E-14 3.17768E-14
 -1       348 1.98931E+01-1.18094E-02-1.31660E-04 6.73567E-02 2.46979E-15-6.62826E-14
 -1       349 1.99205E+01-8.14804E-03-9.00173E-05 5.70495E-02-6.65397E-14-4.62336E-14
 -1       350 1.99456E+01-4.12386E-03-4.36374E-05 5.08520E-02-9.35672E-14-6.20460E-14
 -1       351 1.99700E+01 3.00816E-04 7.61820E-06 4.92472E-02-1.13201E-13-8.09803E-14
 -1       352 1.99956E+01 5.20891E-03 6.43433E-05 5.27589E-02-1.30430E-13-1.34134E-13
 -1       353 2.00245E+01 1.06966E-02 1.27158E-04 6.19857E-02 2.74707E-15-1.51859E-13
 -1       354 2.00591E+01 1.68340E-02 1.96179E-04 7.75945E-02 1.15912E-13-2.00282E-13
 -1       355 2.01019E+01 2.36112E-02 2.70308E-04 1.00263E-01 3.91249E-14 6.64373E-14
 -1       356 2.01558E+01 3.08647E-02 3.46261E-04 1.30554E-01 7.86171E-15 3.01178E-14
 -1       357 2.02238E+01 3.81729E-02 4.17282E-04 1.68697E-01-1.59959E-14-6.29492E-14
 -1       358 2.03087E+01 4.47163E-02 4.71511E-04 2.14243E-01 1.22128E-14-1.64313E-13
 -1       359 2.04129E+01 4.90980E-02 4.90151E-04 2.65569E-01-8.64502E-14-2.26939E-13
 -1       360 2.05383E+01 4.91378E-02 4.45859E-04 3.19182E-01-1.21807E-13-4.92647E-14
 -1       361 2.06851E+01 4.16856E-02 3.02372E-04 3.68850E-01 6.27265E-14-2.63405E-13
 -1       362 2.08512E+01 2.25642E-02 1.72563E-05 4.04618E-01 1.34944E-13-2.39304E-13
 -1       363 2.10313E+01-1.31336E-02-4.49194E-04 4.11943E-01 6.15765E-14-1.22910E-13
 -1       364 2.12154E+01-7.00044E-02-1.11516E-03 3.71467E-01-9.14023E-14 6.39203E-14
 -1       365 2.13874E+01-1.50012E-01-1.94896E-03 2.60359E-01-1.52526E-13 9.80606E-14
 -1       366 2.15235E+01-2.48413E-01-2.83042E-03 5.66806E-02-6.98761E-14 1.06860E-13
 -1       367 2.15911E+01-3.48218E-01-3.51765E-03-2.51523E-01-9.10590E-14 2.04393E-14
 -1       368 2.15505E+01-4.15512E-01-3.65574E-03-6.51603E-01-2.91238E-14-7.08251E-14
 -1       369 2.13621E+01-4.01736E-01-2.91335E-03-1.08878E+00-6.28922E-14-5.89097E-14
 -1       370 2.10044E+01-2.61676E-01-1.14145E-03-1.45643E+00 2.10629E-13 6.48061E-14
 -1       371 2.05021E+01 1.12441E-02 1.24174E-03-1.61343E+00 2.00226E-13 1.25204E-15
 -1       372 1.99473E+01 3.50963E-01 3.34120E-03-1.44206E+00-5.67497E-14 1.40762E-13
 -1       373 1.94872E+01 6.22959E-01 4.66543E-03-9.31588E-01-2.83545E-13 1.75257E-14
 -1       374 1.92552E+01 6.97900E-01 5.16803E-03-2.26122E-01-2.93505E-13-1.14800E-13
 -1       375 1.92870E+01 5.45995E-01 4.69458E-03 4.34090E-01 1.48427E-13-4.05405E-13
 -1       376 1.94998E+01 2.60784E-01 3.23010E-03 8.46378E-01 1.48350E-13-2.03699E-13
 -1       377 1.97518E+01-8.99797E-03 1.31768E-03 9.51387E-01 2.13140E-13-3.47141E-13
 -1       378 1.99294E+01-1.60482E-01-3.77934E-04 8.33556E-01-1.80577E-13-1.64468E-13
 -1       379 1.99904E+01-1.91511E-01-2.39018E-03 6.34727E-01-1.60118E-13-2.28294E-13
 -1       380 1.99651E+01-1.73128E-01-6.99028E-04 4.75159E-01-4.40696E-14-1.82851E-13
 -1       381 1.98916E+01 2.28493E-01 1.07956E-02 3.98322E-01 3.08629E-13 1.38485E-13
 -1       382 1.96032E+01 1.15343E-01 6.17529E-03 1.19636E-01 2.13486E-13 7.08179E-14
 -1       383 1.94688E+01 5.76445E-02 2.80751E-03-2.91769E-02 1.53167E-13-4.43424E-14
 -1       384 1.94291E+01 2.57288E-02 1.17667E-03-1.06003E-01 9.29066E-14-1.22564E-13
 -1       385 1.94450E+01 7.24594E-03 4.47246E-04-1.41120E-01 1.29785E-13-1.27768E-13
 -1       386 1.94911E+01-3.48699E-03 9.89641E-05-1.51466E-01 1.68766E-13-1.04403E-13
 -1       387 1.95513E+01-9.43406E-03-8.32794E-05-1.47249E-01 1.27017E-13-9.76849E-14
 -1       388 1.96157E+01-1.23180E-02-1.79256E-04-1.34925E-01-1.83062E-15-1.65020E-13
 -1       389 1.96782E+01-1.32202E-02-2.22840E-04-1.18678E-01 7.58892E-14-2.33901E-13
 -1       390 1.97356E+01-1.28504E-02-2.32492E-04-1.01242E-01 9.05349E-14-2.19586E-13
 -1       391 1.97862E+01-1.16792E-02-2.19941E-04-8.43889E-02 1.41868E-13-2.67744E-13
 -1       392 1.98300E+01-1.00106E-02-1.92850E-04-6.92573E-02 4.03128E-14-3.06304E-13
 -1       393 1.98674E+01-8.02577E-03-1.55976E-04-5.65826E-02 4.93808E-14-3.54319E-13
 -1       394 1.98996E+01-5.81159E-03-1.11868E-04-4.68700E-02 7.53646E-14-3.09958E-13
 -1       395 1.99283E+01-3.38032E-03-6.13059E-05-4.05279E-02 1.91360E-13-3.26380E-13
 -1       396 1.99553E+01-6.82274E-04-3.63804E-06-3.79734E-02 2.16426E-14-3.70296E-13
 -1       397 1.99830E+01 2.38673E-03 6.30448E-05-3.97220E-02-1.84849E-13-2.41986E-13
 -1       398 2.00142E+01 5.98281E-03 1.41817E-04-4.64670E-02-1.27944E-13-1.40930E-13
 -1       399 2.00521E+01 1.03156E-02 2.36909E-04-5.91558E-02-3.21325E-14-1.49795E-13
 -1       400 2.01007E+01 1.56536E-02 3.53722E-04-7.90684E-02 1.41429E-13-1.60941E-13
 -1       401 2.01644E+01 2.23319E-02 4.98795E-04-1.07900E-01 8.76930E-15-3.06541E-13
 -1       402 2.02491E+01 3.07597E-02 6.79511E-04-1.47849E-01-2.16132E-13-3.87583E-13
 -1       403 2.03615E+01 4.14175E-02 9.03130E-04-2.01701E-01-3.42333E-13-1.73340E-13
 -1       404 2.05098E+01 5.48263E-02 1.17432E-03-2.72870E-01-9.77832E-14-1.51385E-14
 -1       405 2.07033E+01 7.14465E-02 1.48957E-03-3.65347E-01 1.52317E-13 1.91960E-13
 -1       406 2.09530E+01 9.14207E-02 1.82600E-03-4.83371E-01 1.37254E-13 4.48087E-16
 -1       407 2.12707E+01 1.14000E-01 2.12121E-03-6.30549E-01 2.66828E-13 3.60293E-14
 -1       408 2.16680E+01 1.36369E-01 2.24251E-03-8.07825E-01 4.16747E-14 4.91842E-14
 -1       409 2.21547E+01 1.51443E-01 1.95356E-03-1.00936E+00-2.22148E-14-3.47991E-13
 -1       410 2.27359E+01 1.44208E-01 9.08904E-04-1.21490E+00-5.39830E-14-5.41722E-13
 -1       411 2.34074E+01 8.69606E-02-1.23701E-03-1.37730E+00-1.47913E-13-4.91721E-13
 -1       412 2.41502E+01-6.31799E-02-4.49133E-03-1.40589E+00 7.29054E-14-3.46087E-13
 -1       413 2.49210E+01-3.53225E-01-8.10618E-03-1.15400E+00 1.71158E-13-2.15686E-13
 -1       414 2.56331E+01-7.84891E-01-1.05087E-02-4.39017E-01-3.09518E-15 9.68323E-15
 -1       415 2.61207E+01-1.20890E+00-1.13242E-02 8.48147E-01 9.86971E-15-1.74545E-14
 -1       416 2.61044E+01-1.21101E+00-1.41940E-02 2.48339E+00 7.40658E-14-1.82304E-13
 -1       417 2.53288E+01-3.22719E-01-3.29461E-02 3.62582E+00-8.85490E-14-1.50718E-13
 -1       418 2.40248E+01 1.24704E+00-6.24849E-02 3.10700E+00 1.33050E-13-1.79524E-13
 -1       419 2.31342E+01 2.16480E+00-6.90000E-02 7.79822E-01 3.92460E-13-2.86765E-13
 -1       420 2.33197E+01 1.41166E+00-5.12239E-02-1.64660E+00 2.01127E-13-1.19847E-13
 -1       421 2.39880E+01-1.56969E-01-2.78730E-02-2.37308E+00-1.04698E-13 5.56413E-15
 -1       422 2.41812E+01-1.12771E+00-1.64086E-02-1.37401E+00 1.17298E-13 2.41625E-14
 -1       423 2.36491E+01-1.14545E+00-1.12560E-02 1.64926E-01-2.93517E-13 1.81714E-13
 -1       424 2.26628E+01-6.10064E-01-6.78952E-03 1.28063E+00-3.69237E-13-9.40385E-14
 -1       425 2.15653E+01 5.50863E-02-3.95306E-03 1.59244E+00-4.36162E-14 8.59790E-14
 -1       426 2.09119E+01 4.94363E-01-1.09994E-03 1.43763E+00-2.03244E-13 5.73471E-13
 -1       427 2.00040E+01 2.41401E+00 2.36366E-04 3.54726E+00-1.72265E-13-1.62100E-13
 -1       428 2.07812E+01 1.33911E+00 7.10908E-03 3.09106E+00-6.89695E-14-5.89754E-14
 -1       429 2.09213E+01 9.02983E-01 3.41394E-03 2.27922E+00-2.86668E-13 3.52563E-13
 -1       430 1.89052E+01 3.65580E+00-3.68247E-03 3.08125E+00-3.74506E-13-6.86994E-13
 -1       431 1.79231E+01 4.63163E+00-4.13076E-03 1.41039E+00-2.90169E-13-1.42504E-13
 -1       432 1.77663E+01 4.74602E+00-3.02088E-03-9.21616E-01-4.75447E-14 8.30030E-14
 -1       433 1.85514E+01 3.89894E+00-3.20010E-03-2.88840E+00-1.44125E-13-4.74508E-14
 -1       434 1.97386E+01 2.54138E+00-1.27734E-03-3.73662E+00 2.17579E-13 1.61312E-13
 -1       435 2.06800E+01 1.25058E+00 3.96669E-03-3.44415E+00 4.54963E-13 4.36118E-14
 -1       436 2.10912E+01 3.50875E-01 7.24225E-03-2.50351E+00 3.90838E-13-2.90865E-14
 -1       437 2.10657E+01-1.55082E-01 9.24596E-03-1.39347E+00 4.32044E-13 7.05872E-13
 -1       438 2.07923E+01-3.44579E-01 8.12113E-03-4.61801E-01 4.84387E-14 3.12555E-13
 -1       439 2.04242E+01-3.36315E-01 4.46632E-03 1.59145E-01-5.64178E-14-4.61075E-13
 -1       440 1.10531E+01-6.99349E+00-9.19807E-02 7.73309E+00-8.21010E-14-1.54723E-13
 -1       441 1.97432E+00-4.52577E+00 2.32309E-02-3.64038E-01-1.12883E-13 6.02046E-13
 -1       442 4.00710E+00-6.40342E+00-1.25129E-01 4.93672E+00 1.10426E-13-4.02636E-13
 -1       443 1.93889E+01-6.76270E+00-5.43341E-02 7.69829E+00-1.57874E-13 5.86548E-13
 -1       444 2.94669E+01-4.46917E+00-2.92675E-02 4.34286E+00-6.28386E-14 2.29788E-13
 -1       445 1.97864E+01 3.44002E+00-2.09069E-02-1.72606E+00-4.32222E-13-3.90317E-13
 -1       446 3.68554E+01 5.40859E+00 2.78341E-02-1.58873E-02 8.36414E-14 1.04639E-13
 -1       447 3.63710E+01 8.03706E+00-2.50257E-02 7.05566E-01 4.03400E-13-2.54186E-13
 -1       448 3.74950E+01 6.45185E+00 4.91811E-02 1.94529E+00 5.44731E-13-3.19522E-13
 -1       449 3.57791E+01 2.27425E+00 4.10146E-02 1.46701E+00 7.44425E-13 4.52693E-14
 -1       450 3.13228E+01-3.21306E+00-2.18811E-02-1.19467E+00 4.10727E-13-2.53880E-13
 -1       451 2.37554E+01-6.16811E+00-4.95983E-02-4.84250E+00 2.50425E-13-3.48721E-13
 -1       452 1.55106E+01-7.01761E+00-4.44932E-02-6.28468E+00 2.70367E-13-4.12320E-13
 -1       453 6.06331E+00-5.89049E+00 5.17626E-03-5.17346E+00 3.99819E-14-2.60847E-13
 -1       454 1.87635E+00-5.13037E+00 1.00954E-02-2.02385E+00 4.21260E-14-6.86312E-13
 -1       455 1.96587E+00-5.01194E+00 6.50752E-03 3.23767E+00 3.08108E-13-2.36811E-13
 -1       456 5.88930E+00-5.92672E+00-4.24941E-02 6.21990E+00 1.95927E-13-4.10783E-15
 -1       457 1.44755E+01-6.26001E+00-2.99598E-02 7.58688E+00 3.46945E-15-3.40361E-13
 -1       458 2.30906E+01-5.27622E+00-1.41800E-03 6.25294E+00-5.22915E-14-4.08271E-13
 -1       459 2.94358E+01-2.56632E+00-1.87296E-02 3.79908E+00-1.51219E-13 1.62051E-13
 -1       460 3.36843E+01 2.41206E+00-7.40759E-02-6.74354E-01-1.61787E-13 4.39454E-13
 -1       461 3.43465E+01 6.29365E+00-1.56060E-01-1.35360E+00-3.25115E-13 6.00173E-13
 -1       462 3.78570E+01 8.80227E+00 5.41182E-02-4.03702E-01-6.56919E-13 4.85659E-13
 -1       463 3.69490E+01 7.06489E+00 3.61521E-02-1.95656E-01-9.86086E-13 4.23217E-13
 -1       464 3.50719E+01 2.26075E+00 3.94661E-02-1.70716E+00-6.09381E-13 6.98108E-13
 -1       465 3.07542E+01-1.91516E+00 3.28109E-02-4.27425E+00-4.14890E-13 6.71296E-13
 -1       466 2.17260E+01-6.01533E+00-4.86577E-03-7.57628E+00-1.35503E-13 6.67626E-13
 -1       467 1.25025E+01-6.83703E+00-6.85363E-02-8.14732E+00 2.26402E-13 1.10182E-12
 -1       468 4.95910E+00-5.93513E+00-6.34072E-02-5.80799E+00 8.96505E-14 3.92145E-13
 -1       469 3.49049E+01 7.59863E-01 2.22047E-02 8.33922E-01 2.74246E-13-1.98119E-13
 -1       470 2.60376E+01-6.73691E+00 3.17556E-02 5.65273E+00-3.94899E-13 2.79006E-13
 -1       471 2.78991E+01-5.48929E+00-1.71603E-02-4.89869E+00-3.08295E-14 5.70870E-13
 -1       472 1.29321E+01-5.79021E+00 1.01428E-01-6.45602E+00 7.84511E-14-2.82323E-13
 -1       473 2.03741E+01 8.32017E-01 4.01063E-03 9.71507E-01 3.85269E-13-1.07283E-13
 -1       474 1.97318E+01 3.10427E+00-5.34950E-03-6.33802E-01-2.37028E-13-5.12300E-13
 -1       475 1.98278E+01 2.93133E+00-5.80499E-03-9.50301E-01-3.14970E-13-4.88904E-13
 -1       476 1.96641E+01 3.22688E+00-5.03162E-03 8.81436E-03-5.54466E-14-5.66814E-13
 -1       477 1.96827E+01 3.19384E+00-5.10798E-03 3.30316E-01 2.39653E-14-5.97469E-13
 -1       478 1.97367E+01 3.09704E+00-5.41444E-03 6.45626E-01 1.14164E-13-5.76936E-13
 -1       479 1.98355E+01 2.91917E+00-5.94532E-03 9.61150E-01 2.31047E-13-5.30178E-13
 -1       480 1.99912E+01 2.63406E+00-6.52693E-03 1.25626E+00 3.20501E-13-4.76336E-13
 -1       481 2.02338E+01 2.18786E+00-5.70315E-03 1.50099E+00 3.96597E-13-3.59716E-13
 -1       482 2.01125E+01 4.53608E-01 5.07406E-03 4.63598E-01 2.78903E-13-1.18943E-13
 -1       483 2.03440E+01 9.75724E-01 2.91713E-03-9.42988E-01-3.50679E-13-6.14555E-14
 -1       484 3.10672E+01-3.21145E+00-9.54006E-02 5.65992E-01-1.49433E-13-7.16538E-13
 -1       485 2.01719E+01 5.43740E-01 1.92601E-03-4.67521E-01-2.74839E-13-5.93459E-14
 -1       486 2.00250E+01 3.03697E-01 1.07074E-03-1.66076E-01-2.20917E-13-8.32866E-14
 -1       487 1.99242E+01 1.61669E-01 4.40052E-04 1.54692E-02-1.94189E-13-1.25935E-13
 -1       488 1.98654E+01 7.52991E-02 1.58167E-04 1.18024E-01-1.80778E-13-1.17814E-13
 -1       489 1.98380E+01 2.25158E-02 2.21016E-05 1.69259E-01-1.84224E-13-1.26505E-13
 -1       490 1.98317E+01-9.02699E-03-4.70389E-05 1.87784E-01-1.55129E-13-2.21464E-13
 -1       491 1.98388E+01-2.67272E-02-8.23845E-05 1.86159E-01-2.03985E-13-2.05229E-13
 -1       492 1.98534E+01-3.52828E-02-9.75709E-05 1.72918E-01-6.38211E-14-1.36155E-13
 -1       493 1.98716E+01-3.77972E-02-9.98158E-05 1.53858E-01 1.82466E-14-5.62721E-14
 -1       494 1.98910E+01-3.63536E-02-9.36683E-05 1.32895E-01 5.68208E-14-2.60753E-14
 -1       495 1.99101E+01-3.23374E-02-8.21483E-05 1.12657E-01 1.65970E-14-3.44793E-14
 -1       496 1.99283E+01-2.66321E-02-6.71681E-05 9.49055E-02-2.64844E-14-4.38507E-14
 -1       497 1.99454E+01-1.97509E-02-4.98260E-05 8.08536E-02-9.60905E-14 1.72674E-14
 -1       498 1.99619E+01-1.19330E-02-3.05893E-05 7.13965E-02-1.37848E-13-1.14106E-13
 -1       499 1.99781E+01-3.22057E-03-9.48308E-06 6.72820E-02-1.20111E-13-1.99623E-13
 -1       500 1.99952E+01 6.47604E-03 1.37512E-05 6.92292E-02-1.38490E-13-1.51404E-13
 -1       501 2.00140E+01 1.73124E-02 3.94789E-05 7.80014E-02-6.09668E-14-1.08903E-13
 -1       502 2.00359E+01 2.94352E-02 6.79891E-05 9.44308E-02 1.93373E-14-1.32315E-13
 -1       503 2.00624E+01 4.28876E-02 9.92289E-05 1.19388E-01 2.18586E-13-2.01446E-13
 -1       504 2.00951E+01 5.74815E-02 1.32458E-04 1.53681E-01 3.30331E-14-1.57312E-13
 -1       505 2.01358E+01 7.26234E-02 1.65760E-04 1.97867E-01-8.80811E-14-1.98483E-13
 -1       506 2.01866E+01 8.70788E-02 1.95397E-04 2.51938E-01-6.57837E-14-1.92941E-13
 -1       507 2.02497E+01 9.86675E-02 2.15000E-04 3.14860E-01-2.49358E-14-2.05701E-13
 -1       508 2.03275E+01 1.03898E-01 2.14665E-04 3.83925E-01-1.84391E-14-1.42928E-13
 -1       509 2.04229E+01 9.75894E-02 1.80205E-04 4.53890E-01-5.84054E-14-9.32619E-14
 -1       510 2.05388E+01 7.26148E-02 9.30758E-05 5.15931E-01 1.02978E-13 4.35055E-15
 -1       511 2.06783E+01 2.00453E-02-6.79022E-05 5.56513E-01 4.23234E-14-2.45910E-13
 -1       512 2.08446E+01-6.97753E-02-3.21150E-04 5.56436E-01 5.24432E-15-2.16874E-13
 -1       513 2.10395E+01-2.04371E-01-6.70673E-04 4.90659E-01-2.64419E-14-9.59682E-14
 -1       514 2.12609E+01-3.83409E-01-1.09825E-03 3.30045E-01-1.46074E-13-3.89264E-15
 -1       515 2.14978E+01-5.89425E-01-1.53603E-03 4.69865E-02-6.41756E-14 1.90794E-13
 -1       516 2.17228E+01-7.76358E-01-1.82486E-03-3.72449E-01-8.78841E-14 2.04702E-13
 -1       517 2.18848E+01-8.61981E-01-1.71400E-03-9.07395E-01-4.88486E-14 3.31134E-13
 -1       518 2.19120E+01-7.40059E-01-1.08872E-03-1.47349E+00-9.94051E-15 2.04092E-13
 -1       519 2.17423E+01-3.33197E-01 2.33459E-04-1.90635E+00 1.07860E-13-3.61089E-14
 -1       520 2.13799E+01 3.21192E-01 1.25663E-03-1.99652E+00 1.63646E-13-2.17867E-13
 -1       521 2.09425E+01 1.01206E+00 9.39068E-04-1.59506E+00-1.71639E-13-9.29450E-14
 -1       522 2.06362E+01 1.41100E+00 7.74241E-04-7.67366E-01-2.16696E-13 2.60082E-13
 -1       523 2.05954E+01 1.31396E+00 1.28798E-03 1.76104E-01-4.25499E-13 2.31616E-13
 -1       524 2.07706E+01 8.00214E-01 1.57265E-03 8.64460E-01 1.21209E-13-1.35235E-13
 -1       525 2.09690E+01 1.74434E-01 6.43348E-04 1.10332E+00 7.01277E-14-3.21925E-13
 -1       526 2.10119E+01-2.64412E-01-7.44492E-05 9.60984E-01 3.55795E-14-3.59146E-13
 -1       527 2.08420E+01-4.04813E-01 2.08336E-04 6.55685E-01 4.00212E-14-1.07136E-13
 -1       528 1.98103E+01 1.28924E-01 1.00097E-03-2.01185E-02 1.74218E-13-1.28559E-13
 -1       529 1.97524E+01 5.94623E-02 3.65546E-04-1.18565E-01 1.15349E-13-1.83807E-13
 -1       530 1.97335E+01 1.76827E-02 8.32454E-05-1.66613E-01 1.28334E-13-1.74961E-13
 -1       531 1.97394E+01-7.08753E-03-5.32480E-05-1.83173E-01 1.13897E-13-1.10096E-13
 -1       532 1.97597E+01-2.09546E-02-1.22904E-04-1.80581E-01 6.37503E-14-2.77573E-14
 -1       533 1.97871E+01-2.76914E-02-1.54842E-04-1.67047E-01 6.88700E-14-9.70714E-14
 -1       534 1.98171E+01-2.97516E-02-1.63076E-04-1.48068E-01 1.31818E-13-7.99295E-14
 -1       535 1.98467E+01-2.87698E-02-1.56020E-04-1.27320E-01 1.32856E-13-1.50364E-13
 -1       536 1.98746E+01-2.58305E-02-1.39197E-04-1.07243E-01 1.40344E-13-1.73635E-13
 -1       537 1.99001E+01-2.16241E-02-1.16129E-04-8.94558E-02 9.56632E-14-2.44420E-13
 -1       538 1.99232E+01-1.65459E-02-8.88694E-05-7.50634E-02-1.90045E-14-1.60476E-13
 -1       539 1.99446E+01-1.07636E-02-5.82378E-05-6.48843E-02 1.55486E-13-2.54928E-13
 -1       540 1.99652E+01-4.26308E-03-2.41418E-05-5.96311E-02 8.31582E-14-7.55226E-14
 -1       541 1.99862E+01 3.12209E-03 1.43153E-05-6.00538E-02-1.87504E-13-5.84852E-14
 -1       542 2.00093E+01 1.16935E-02 5.87374E-05-6.70592E-02-1.90906E-13-4.68327E-14
 -1       543 2.00362E+01 2.18819E-02 1.11412E-04-8.18165E-02-3.43785E-14-4.82082E-14
 -1       544 2.00692E+01 3.42487E-02 1.75327E-04-1.05854E-01 1.11890E-16-7.27202E-14
 -1       545 2.01107E+01 4.94943E-02 2.54207E-04-1.41151E-01 7.90243E-14 6.57047E-14
 -1       546 2.01637E+01 6.84649E-02 3.52483E-04-1.90226E-01-2.29295E-14 8.94932E-14
 -1       547 2.02313E+01 9.21441E-02 4.75070E-04-2.56210E-01-2.49044E-13-1.72307E-13
 -1       548 2.03170E+01 1.21598E-01 6.26654E-04-3.42881E-01-2.72148E-13-4.08665E-13
 -1       549 2.04244E+01 1.57806E-01 8.09855E-04-4.54604E-01-4.19591E-14-3.53426E-13
 -1       550 2.05571E+01 2.01251E-01 1.02115E-03-5.96070E-01 1.92156E-13-2.80580E-13
 -1       551 2.07186E+01 2.51025E-01 1.24264E-03-7.71616E-01 1.39192E-13-1.81620E-13
 -1       552 2.09120E+01 3.03026E-01 1.42723E-03-9.83777E-01 5.50422E-14 4.63004E-14
 -1       553 2.11411E+01 3.46595E-01 1.47496E-03-1.23046E+00 3.64707E-13 4.31601E-14
 -1       554 2.14125E+01 3.58802E-01 1.20650E-03-1.49990E+00 1.74057E-13-2.49053E-13
 -1       555 2.17419E+01 2.96070E-01 3.51055E-04-1.76209E+00-1.22908E-13-2.47146E-13
 -1       556 2.21648E+01 8.57400E-02-1.32477E-03-1.95563E+00-1.01973E-13-3.34654E-13
 -1       557 2.27528E+01-3.71377E-01-3.57694E-03-1.96943E+00 3.23407E-14-3.16687E-13
 -1       558 2.36160E+01-1.15531E+00-5.88687E-03-1.62249E+00-1.37446E-13-6.24966E-14
 -1       559 2.48578E+01-2.18190E+00-7.35193E-03-6.79259E-01-4.09787E-14 1.10307E-13
 -1       560 2.63870E+01-2.92438E+00-1.54128E-02 1.04388E+00 8.99263E-14 3.73902E-14
 -1       561 2.76588E+01-2.26339E+00-4.26942E-02 3.20097E+00 6.55287E-14 2.25341E-13
 -1       562 2.78909E+01 7.57877E-01-1.23310E-01 4.35088E+00 3.19050E-14-1.04677E-13
 -1       563 2.74182E+01 4.14552E+00-1.71701E-01 2.71695E+00 4.39031E-13-4.10713E-13
 -1       564 2.71917E+01 4.44436E+00-1.73524E-01-7.62786E-01 2.16493E-13-5.62148E-13
 -1       565 2.74539E+01 1.02315E+00-1.10517E-01-2.59196E+00-6.10380E-14-3.30087E-13
 -1       566 2.68803E+01-2.01068E+00-5.61362E-02-1.63450E+00-1.20780E-13-1.49360E-14
 -1       567 2.54107E+01-2.75418E+00-1.91311E-02 3.83497E-01-3.78531E-13 4.26865E-13
 -1       568 2.36609E+01-1.88535E+00-1.11334E-02 1.95378E+00-2.62591E-13 6.26195E-13
 -1       569 2.21463E+01-4.98200E-01-3.48580E-03 2.59681E+00-1.67114E-13 6.68648E-13
 -1       570 1.66121E+01 2.18144E+00 2.47320E-02 3.32911E+00-3.28383E-13-3.83275E-13
 -1       571 1.51918E+01 2.95067E+00 3.20696E-02 3.96540E-01-2.28717E-13 3.64700E-13
 -1       572 2.10167E+01-1.54398E-01-5.41957E-03 4.22429E+00-2.19016E-13-3.97842E-13
 -1       573 1.91945E+01 8.27383E-01 3.99031E-02 4.56492E+00-5.04892E-13-5.13799E-13
 -1       574 1.59713E+01 2.49546E+00 3.13449E-02-2.83885E+00-1.39618E-13 3.21323E-14
 -1       575 1.83814E+01 1.10500E+00 2.27177E-02-4.70471E+00 3.13460E-13 4.38335E-13
 -1       576 2.07093E+01-1.77793E-01 1.41645E-02-4.72998E+00 4.18501E-13 2.62373E-13
 -1       577 2.19949E+01-8.56082E-01 4.76290E-03-3.59805E+00 3.87925E-13-2.45914E-13
 -1       578 2.22443E+01-9.76130E-01 5.84018E-03-2.14003E+00 5.32333E-13 1.01742E-13
 -1       579 2.18588E+01-8.22667E-01 5.18694E-03-8.72046E-01 1.24292E-13 1.40731E-13
 -1       580 2.11815E+01-5.61307E-01 2.19198E-03 1.37725E-04-3.10756E-13-2.59479E-13
 -1       581 6.77260E+00-1.86063E+00 2.01905E-01 3.32319E+00-4.12899E-14 4.20358E-14
 -1       582 1.80033E+01-5.94404E+00 8.31027E-02 7.89318E+00-1.98175E-13 2.55795E-13
 -1       583 1.99252E+01 2.46338E-01 2.45659E-03 1.58286E-01 2.49358E-13-1.28676E-13
 -1       584 7.79629E+00-1.31164E+00 2.10201E-01-3.90962E+00-3.01668E-14 1.50865E-13
 -1       585 1.05558E+01-3.79011E+00 1.56667E-01 6.79689E+00 9.05387E-14-6.30176E-13
 -1       586 3.13967E+01 1.81008E+00-1.50387E-01-2.06104E+00-1.33157E-14-3.55653E-13
 -1       587 1.24495E+01-4.21681E+00 1.33545E-01-7.82902E+00 1.05208E-13 1.04183E-12
 -1       588 3.18987E+01 3.54558E+00-1.57141E-01 1.28594E+00-6.46913E-13 5.34572E-14
 -1       589 1.30408E+01-5.02849E+00 1.16129E-01 7.46088E+00 2.61818E-13-1.04479E-13
 -1       590 2.79850E+01-5.97058E+00-4.20941E-02-1.63271E+00 7.49609E-14-2.06120E-13
 -1       591 1.96798E+01 3.19827E+00-5.10471E-03-3.12803E-01-1.45984E-13-5.36392E-13
 -1       592 3.08691E+01 6.32965E+00-1.83550E-01 2.17176E+00 5.20958E-13-4.31483E-13
 -1       593 2.07983E+01-6.19257E+00 5.65531E-02 6.55970E+00 3.22443E-13-2.65378E-13
 -1       594 3.16412E+01 6.03299E+00-1.87731E-01-7.54576E-01 1.57624E-13-3.55847E-13
 -1       595 3.18431E+01 3.95425E+00-1.50630E-01 3.65578E+00 6.22682E-13-4.64989E-13
 -1       596 3.10641E+01-1.79387E+00-1.06120E-01 3.06282E+00 2.43909E-13-9.88307E-14
 -1       597 2.21679E+01-6.88179E+00 6.21525E-02-4.97168E+00 9.75608E-15-1.98910E-13
 -1       598 7.22633E+00-2.70385E+00 1.96545E-01-3.94592E+00 1.66533E-15-3.96377E-13
 -1       599 4.93126E+00-1.49774E+00 2.10187E-01 5.79127E-01 2.38855E-13-1.35211E-13
 -1       600 6.74746E+00-3.06673E+00 1.60258E-01 5.24867E+00 3.79412E-13-1.79190E-13
 -1       601 3.08238E+01 7.37480E+00-2.10788E-01 5.02793E-01-7.49512E-13 2.66901E-13
 -1       602 2.71885E+01-5.25041E+00-1.53647E-02 3.16056E+00 8.53796E-14 3.11480E-13
 -1       603 3.02635E+01-1.42216E+00-1.04985E-01-9.40311E-01 4.72331E-14 6.46851E-13
 -1       604 3.03533E+01 3.41443E+00-1.65488E-01-2.52510E+00-2.10915E-13 7.13533E-13
 -1       605 1.96944E+01-6.16073E+00 9.64694E-02-8.02549E+00 2.70145E-13 6.40491E-13
 -1       606 2.98746E+01 7.09833E+00-1.93546E-01-1.57942E+00-3.35273E-13 2.36026E-13
 -1       607 3.14763E+01-1.62213E+00-8.14251E-02-7.29880E-01-3.50480E-13 3.76837E-13
 -1       608 2.03925E+01 1.77159E+00-5.67240E-03-1.54596E+00-4.41952E-13-9.97953E-14
 -1       609 2.05860E+01 1.30525E+00-9.99675E-04 1.54746E+00 4.60068E-13-7.67765E-14
 -1       610 1.99785E+01 2.66289E+00-6.58410E-03-1.25415E+00-3.80533E-13-4.08566E-13
 -1       611 2.89143E+01-5.39316E+00-3.22553E-03 2.28383E+00-4.47205E-13-7.34399E-13
 -1       612 2.48586E+01-6.06265E+00 3.01799E-02-6.08576E+00 2.80401E-13 5.90956E-13
 -1       613 2.06267E+01-3.76254E-01-1.15119E-04 4.67794E-01-4.14781E-13-1.95312E-13
 -1       614 1.99594E+01 2.44946E+00-1.59199E-03 3.94025E-01 4.88501E-14-5.08027E-13
 -1       615 1.99274E+01 2.52442E+00-1.51823E-03 1.35853E-01-2.32052E-14-5.14421E-13
 -1       616 2.01199E+01 2.04609E+00-1.58246E-03 8.50050E-01 2.35887E-13-4.31214E-13
 -1       617 2.02394E+01 1.67541E+00-2.21500E-03 9.91400E-01 3.09785E-13-3.70850E-13
 -1       618 2.03195E+01 1.03687E+00 2.86036E-03 8.31083E-01 3.24339E-13-2.68298E-13
 -1       619 2.67445E+01 6.16923E+00-1.44112E-01-3.87455E-01-3.23831E-13-5.29162E-13
 -1       620 2.02399E+01 6.72204E-01 1.63094E-04-3.93326E-01-2.59477E-13-2.27826E-13
 -1       621 2.01674E+01 3.91780E-01 1.63880E-04-1.39296E-01-2.39652E-13-2.30755E-13
 -1       622 2.01019E+01 2.12210E-01 5.74166E-05 2.23592E-02-1.72464E-13-2.49329E-13
 -1       623 2.00515E+01 9.78624E-02 8.13352E-06 1.17175E-01-1.89714E-13-2.64178E-13
 -1       624 2.00164E+01 2.61399E-02-1.46025E-05 1.65767E-01-1.79443E-13-2.05439E-13
 -1       625 1.99938E+01-1.71711E-02-2.61926E-05 1.83710E-01-9.11739E-14-1.38924E-13
 -1       626 1.99807E+01-4.13375E-02-3.16396E-05 1.82344E-01-3.93023E-14 2.55670E-15
 -1       627 1.99743E+01-5.25940E-02-3.30767E-05 1.69744E-01-6.82131E-15 3.29539E-14
 -1       628 1.99725E+01-5.52025E-02-3.17110E-05 1.51569E-01-1.63525E-14-9.12317E-14
 -1       629 1.99738E+01-5.20717E-02-2.84965E-05 1.31729E-01-1.36541E-14-1.18235E-13
 -1       630 1.99770E+01-4.51362E-02-2.40656E-05 1.12904E-01 1.96410E-14-6.24339E-14
 -1       631 1.99816E+01-3.56094E-02-1.88555E-05 9.69412E-02 1.61116E-15-7.69707E-14
 -1       632 1.99870E+01-2.41685E-02-1.30734E-05 8.51634E-02-1.52874E-13-5.81984E-14
 -1       633 1.99933E+01-1.10976E-02-6.79578E-06 7.85998E-02-1.75129E-13-6.85201E-14
 -1       634 2.00004E+01 3.59507E-03 5.71037E-08 7.81503E-02-9.88012E-14 3.29144E-14
 -1       635 2.00085E+01 2.00719E-02 7.61840E-06 8.47010E-02-3.00370E-14 8.59644E-14
 -1       636 2.00179E+01 3.85536E-02 1.60476E-05 9.91899E-02-1.05599E-13-2.05223E-14
 -1       637 2.00290E+01 5.91867E-02 2.54307E-05 1.22618E-01 5.20318E-14-1.59510E-13
 -1       638 2.00425E+01 8.18743E-02 3.57308E-05 1.56003E-01 1.19833E-13-3.78602E-13
 -1       639 2.00592E+01 1.06051E-01 4.66572E-05 2.00253E-01-3.43859E-14-1.94395E-13
 -1       640 2.00802E+01 1.30381E-01 5.74922E-05 2.55949E-01-4.01401E-14 2.60399E-14
 -1       641 2.01071E+01 1.52360E-01 6.68581E-05 3.23011E-01 4.39326E-15 7.12158E-14
 -1       642 2.01425E+01 1.67822E-01 7.24121E-05 4.00195E-01-1.07301E-14 1.65394E-13
 -1       643 2.01899E+01 1.70379E-01 7.04689E-05 4.84431E-01 4.95505E-14 1.18547E-13
 -1       644 2.02550E+01 1.50900E-01 5.55751E-05 5.69923E-01-1.86644E-14 6.55784E-15
 -1       645 2.03458E+01 9.72671E-02 2.02144E-05 6.47037E-01-1.14152E-13-4.49771E-14
 -1       646 2.04739E+01-5.09289E-03-4.44441E-05 7.00967E-01 1.09354E-13-6.50160E-14
 -1       647 2.06538E+01-1.71020E-01-1.44898E-04 7.10307E-01 3.27013E-14-1.81634E-13
 -1       648 2.09023E+01-4.10313E-01-2.78211E-04 6.45859E-01-1.56851E-14-5.82125E-14
 -1       649 2.12331E+01-7.17396E-01-4.75982E-04 4.70892E-01-9.06540E-14 3.32787E-14
 -1       650 2.16459E+01-1.05474E+00-7.56429E-04 1.45770E-01-1.26412E-13 5.59593E-14
 -1       651 2.21095E+01-1.33285E+00-1.03027E-03-3.58163E-01-9.60990E-14 1.19820E-13
 -1       652 2.25405E+01-1.39552E+00-1.05898E-03-1.02679E+00-1.20103E-13 2.48214E-14
 -1       653 2.27991E+01-1.04883E+00-1.38075E-03-1.74493E+00-1.66725E-14 1.34334E-14
 -1       654 2.27660E+01-1.94342E-01-1.14145E-03-2.25403E+00 8.23687E-14 1.29576E-13
 -1       655 2.24277E+01 1.03012E+00-3.11574E-03-2.23328E+00-7.43019E-14-6.72483E-14
 -1       656 2.20228E+01 2.08965E+00-6.05518E-03-1.48626E+00-3.79373E-14-1.54972E-13
 -1       657 2.18674E+01 2.38449E+00-5.90108E-03-2.88682E-01-2.06374E-13-1.13680E-13
 -1       658 2.20635E+01 1.74243E+00-3.56003E-03 7.68054E-01-2.51549E-13 4.92976E-14
 -1       659 2.23397E+01 6.28740E-01-2.87168E-03 1.21373E+00-1.59817E-13-4.19655E-13
 -1       660 2.23853E+01-3.26894E-01-3.16653E-03 1.02612E+00-8.36539E-14-6.87909E-13
 -1       661 2.20398E+01-7.17962E-01-1.43955E-03 5.30972E-01 1.02405E-13-6.05794E-13
 -1       662 1.99732E+01 8.76316E-02 5.61604E-05-1.19595E-01 1.02174E-13-1.89538E-13
 -1       663 2.27504E+01-2.69065E+00 3.23845E-02 4.61884E+00-6.82878E-13-6.33699E-13
 -1       664 2.00269E+01 1.89145E-01 1.75963E-04-2.12712E-02 1.70505E-13-1.94017E-13
 -1       665 1.99254E+01-1.34493E-02-2.94899E-05-1.87539E-01 4.40110E-14-6.70445E-14
 -1       666 1.99207E+01-3.47206E-02-4.51428E-05-1.85876E-01 1.23598E-13-7.48252E-14
 -1       667 1.99232E+01-4.48172E-02-5.18011E-05-1.72736E-01 8.67530E-14-1.45550E-13
 -1       668 1.99298E+01-4.74739E-02-5.22968E-05-1.53873E-01 1.44717E-13-1.17316E-13
 -1       669 1.99388E+01-4.52215E-02-4.86122E-05-1.33225E-01 1.28287E-13-5.42760E-14
 -1       670 1.99490E+01-3.97412E-02-4.22084E-05-1.13472E-01 1.12904E-13 5.52564E-14
 -1       671 1.99596E+01-3.20805E-02-3.40832E-05-9.64459E-02 7.34002E-14 5.25096E-14
 -1       672 1.99704E+01-2.28074E-02-2.46180E-05-8.34568E-02 1.06471E-13-4.08783E-14
 -1       673 1.99816E+01-1.21157E-02-1.39674E-05-7.55359E-02 1.03961E-14-2.40278E-14
 -1       674 1.99934E+01 1.03766E-04-1.93830E-06-7.36286E-02-4.07614E-14 2.61819E-14
 -1       675 2.00064E+01 1.42140E-02 1.19141E-05-7.87468E-02-1.74675E-13-1.67464E-14
 -1       676 2.00211E+01 3.08051E-02 2.82719E-05-9.20938E-02-1.06136E-13-1.42161E-13
 -1       677 2.00385E+01 5.06805E-02 4.80420E-05-1.15168E-01-2.43567E-14-1.39231E-13
 -1       678 2.00590E+01 7.48534E-02 7.24306E-05-1.49851E-01 1.68500E-14-1.01994E-13
 -1       679 2.00836E+01 1.04545E-01 1.02920E-04-1.98475E-01 9.81101E-15 1.03514E-14
 -1       680 2.01126E+01 1.41172E-01 1.41292E-04-2.63871E-01-3.78463E-14 2.10554E-13
 -1       681 2.01462E+01 1.86276E-01 1.89564E-04-3.49380E-01-1.47420E-13 1.62069E-14
 -1       682 2.01838E+01 2.41353E-01 2.49757E-04-4.58800E-01-1.40931E-13-2.76080E-13
 -1       683 2.02239E+01 3.07427E-01 3.23239E-04-5.96220E-01 1.14277E-13-3.97065E-13
 -1       684 2.02640E+01 3.84155E-01 4.09147E-04-7.65669E-01 1.16064E-13-2.34463E-13
 -1       685 2.03004E+01 4.68044E-01 5.00936E-04-9.70474E-01 7.09337E-14-2.15309E-13
 -1       686 2.03296E+01 5.49145E-01 5.79572E-04-1.21220E+00 1.87374E-13-2.12586E-13
 -1       687 2.03515E+01 6.05312E-01 6.00540E-04-1.48904E+00 3.08203E-13-7.93632E-14
 -1       688 2.03768E+01 5.93100E-01 4.88157E-04-1.79339E+00 9.20944E-14-8.94948E-14
 -1       689 2.04424E+01 4.35339E-01 1.49816E-04-2.10790E+00 2.71767E-14-5.03009E-13
 -1       690 2.06384E+01 1.00727E-02 2.42641E-05-2.39643E+00-3.61640E-14-4.34453E-13
 -1       691 2.11391E+01-8.39984E-01 1.31424E-03-2.58545E+00-1.19572E-13-4.42789E-13
 -1       692 2.22465E+01-2.22048E+00 1.28396E-02-2.48740E+00-2.61117E-13-5.24663E-13
 -1       693 2.42853E+01-3.98779E+00 6.98584E-03-1.73437E+00-3.22884E-14-2.06521E-13
 -1       694 2.75461E+01-4.35063E+00-2.13875E-02 1.06295E+00-2.98195E-13-4.37849E-13
 -1       695 2.49613E+01-4.16146E+00-5.58946E-03 3.20298E+00-5.48805E-13-6.40155E-13
 -1       696 1.51524E+01-1.98036E-01 1.12050E-01-5.58262E+00-9.69051E-14 9.13158E-13
 -1       697 2.16438E+01-7.07644E-01 1.49787E-03 2.28337E-01-1.09945E-13-7.09898E-13
 -1       698 1.33366E+01 1.33286E+00 1.05304E-01 2.70697E+00-2.65690E-13-6.72552E-14
 -1       699 1.97873E+01-1.88035E+00 3.28592E-02-6.08316E+00 2.31965E-13 2.36200E-13
 -1       700 1.17526E+01 1.24480E+00 1.10284E-01-1.82937E+00-2.39581E-13 3.50150E-13
 -1       701 1.29874E+01-1.34502E+00 1.50723E-01-6.02169E+00 6.76612E-14 6.17478E-13
 -1       702 2.28818E+01-2.54952E+00 1.31476E-02-4.60653E+00 1.85731E-13 1.50258E-13
 -1       703 2.37022E+01-2.26202E+00 4.89796E-03-2.67721E+00 4.27472E-13 2.11954E-14
 -1       704 2.32486E+01-1.60315E+00 2.30711E-03-1.10590E+00 3.56301E-13-1.45929E-13
 -1       705 6.96510E+00-9.76750E-01 1.78739E-01-1.05560E+00 7.08548E-14 6.29774E-13
 -1       706 8.40307E+00-8.31574E-01 1.53353E-01 3.24838E+00 2.23261E-13-3.13152E-14
 -1       707 1.20831E+01-8.56857E-01 1.67878E-01 4.92916E+00-1.49374E-13-2.66502E-13
 -1       708 2.82487E+01 2.97556E-01-8.35266E-02-2.55275E+00-3.35738E-14 5.80175E-13
 -1       709 1.20220E+01-2.85082E+00 1.29268E-01 6.15202E+00 3.34614E-13-3.13638E-14
 -1       710 2.98010E+01-1.94700E+00-8.53595E-02-1.37017E+00-3.08375E-13-4.09735E-13
 -1       711 2.81594E+01 4.53177E+00-1.39637E-01 1.56981E+00-5.28418E-13-4.88566E-13
 -1       712 2.01054E+01 3.53091E-01 6.31769E-04 1.48710E-01 2.16770E-13-1.80579E-13
 -1       713 1.99412E+01 2.45313E-02-1.71878E-07-1.69409E-01 6.18484E-14-1.38304E-13
 -1       714 2.02897E+01 1.12593E+00 9.11889E-04-7.62488E-01-3.17769E-13-2.20887E-13
 -1       715 2.02061E+01 6.13822E-01 9.74528E-04 4.19915E-01 2.48324E-13-2.50862E-13
 -1       716 1.80328E+01-4.20717E+00 5.33416E-02-7.67403E+00 1.46209E-13 9.49053E-13
 -1       717 1.65437E+01-3.29602E+00 8.31257E-02 7.04914E+00-3.00964E-13-3.37577E-14
 -1       718 2.00234E+01 2.29491E+00-1.65459E-03 6.37640E-01 1.51316E-13-4.64507E-13
 -1       719 2.94451E+01 1.20023E-01-9.33210E-02 1.28239E+00-3.03792E-13-3.46695E-13
 -1       720 1.35828E+01-2.97068E+00 1.18803E-01-5.20285E+00-1.80089E-13-2.52895E-13
 -1       721 1.84222E+01-4.74481E+00 8.65112E-02 6.30574E+00 2.56808E-13-4.25635E-13
 -1       722 2.40118E+01-5.61941E+00 1.96891E-02 4.08140E+00 1.35940E-13 1.30206E-13
 -1       723 2.67450E+01 4.21550E+00-1.19524E-01-2.58564E+00 8.68541E-14-5.73638E-14
 -1       724 8.45243E+00-5.53820E-01 1.46077E-01-1.76258E+00 1.42540E-13-1.98334E-13
 -1       725 2.00156E+01 2.30801E+00-1.85808E-03-6.28312E-01-2.33448E-13-4.51956E-13
 -1       726 1.98214E+01-5.06879E+00 8.48230E-02-4.88082E+00-1.69986E-13 3.60718E-14
 -1       727 2.76125E+01-3.93793E+00-4.03858E-02 2.55008E-01-7.80458E-14 4.49467E-13
 -1       728 2.43570E+01-5.87602E+00 3.39486E-02-2.94144E+00-1.34354E-13-3.03178E-13
 -1       729 2.87773E+01-4.42707E+00-3.66474E-02-2.24466E+00 6.24258E-14 3.77816E-13
 -1       730 2.39628E+01-5.85149E+00 7.38691E-02 5.82931E+00-5.46174E-13-1.62476E-13
 -1       731 2.74025E+01-4.68960E+00-1.46490E-02 4.44103E-01 1.98133E-15 5.29507E-14
 -1       732 1.99257E+01 2.52659E+00-1.66036E-03-1.25655E-01-9.61304E-14-4.91408E-13
 -1       733 2.01075E+01 2.06785E+00-2.36091E-03-8.44609E-01-3.12062E-13-3.98852E-13
 -1       734 1.61949E+01-1.44437E-01 6.18011E-02 5.18518E+00-3.20983E-13-5.57197E-13
 -1       735 1.03188E+01 5.45530E-01 1.59854E-01 1.74287E+00-2.61927E-13 1.82895E-13
 -1       736 9.61597E+00 2.51355E-01 1.04181E-01 7.58366E-01 1.31381E-13-1.20605E-13
 -1       737 1.00176E+01 1.75820E-01 1.92203E-01-2.51950E+00-4.02334E-14 4.09971E-13
 -1       738 2.25556E+01-4.88092E+00 8.23562E-02-6.61456E+00 6.78659E-14 3.99610E-13
 -1       739 1.99547E+01 2.45685E+00-1.76802E-03-3.82754E-01-1.85501E-13-4.35077E-13
 -1       740 1.26742E+01-9.79094E-01 9.05132E-02-3.63380E+00-2.49046E-13-1.72667E-13
 -1       741 2.02556E+01 1.60391E+00-8.44608E-04-9.94433E-01-3.37010E-13-2.77867E-13
 -1       742 2.27859E+01-1.17456E+00-2.99108E-04-1.11090E-01 1.02678E-13-4.78624E-13
 -1       743 2.02713E+01 1.30129E+00 8.29197E-04 6.30424E-01 2.16280E-13-3.52338E-13
 -1       744 2.02915E+01 7.24688E-01-4.74928E-04-2.92282E-01-2.27599E-13-2.92796E-13
 -1       745 2.02617E+01 4.32697E-01 4.58135E-05-9.34655E-02-1.89127E-13-2.52931E-13
 -1       746 2.02215E+01 2.33771E-01-8.28939E-06 3.57896E-02-1.85841E-13-1.74442E-13
 -1       747 2.01799E+01 1.03309E-01-8.79583E-06 1.12813E-01-1.55749E-13-1.76537E-13
 -1       748 2.01423E+01 2.02653E-02-9.62540E-06 1.52234E-01-7.31520E-14-1.54188E-13
 -1       749 2.01104E+01-2.98717E-02-9.52077E-06 1.66150E-01 4.02469E-15-1.43720E-13
 -1       750 2.00844E+01-5.72701E-02-9.11558E-06 1.63837E-01-3.24213E-14-8.97744E-14
 -1       751 2.00637E+01-6.90892E-02-8.38163E-06 1.52147E-01-9.49376E-15-9.04989E-14
 -1       752 2.00478E+01-7.03563E-02-7.51783E-06 1.35995E-01 1.92398E-14-6.84899E-14
 -1       753 2.00358E+01-6.45363E-02-6.51144E-06 1.18838E-01-3.33455E-15-1.50968E-13
 -1       754 2.00269E+01-5.39138E-02-5.32931E-06 1.03084E-01-4.17981E-14-2.46639E-13
 -1       755 2.00205E+01-3.98834E-02-3.94541E-06 9.04473E-02-4.21568E-14-2.77232E-13
 -1       756 2.00160E+01-2.31789E-02-2.54886E-06 8.22077E-02-1.41900E-13-1.45880E-13
 -1       757 2.00128E+01-4.05617E-03-1.12980E-06 7.94129E-02-1.13629E-13-9.29321E-14
 -1       758 2.00103E+01 1.75580E-02 4.12069E-07 8.30244E-02-6.62146E-14-4.92830E-14
 -1       759 2.00081E+01 4.19161E-02 2.20872E-06 9.40229E-02-1.03298E-13-1.11561E-13
 -1       760 2.00058E+01 6.92851E-02 4.24697E-06 1.13464E-01-1.12586E-13 2.48131E-15
 -1       761 2.00030E+01 9.97496E-02 6.56772E-06 1.42485E-01 1.66161E-14-3.42980E-14
 -1       762 1.99995E+01 1.32960E-01 9.20713E-06 1.82261E-01 1.12174E-13-1.84261E-13
 -1       763 1.99955E+01 1.67799E-01 1.21544E-05 2.33897E-01 7.55217E-14-6.79341E-14
 -1       764 1.99915E+01 2.01943E-01 1.53143E-05 2.98241E-01-5.30685E-14-3.82629E-14
 -1       765 1.99894E+01 2.31297E-01 1.84506E-05 3.75601E-01-4.75721E-14-4.90723E-14
 -1       766 1.99922E+01 2.49322E-01 2.10871E-05 4.65333E-01-4.01233E-14-1.05888E-13
 -1       767 2.00058E+01 2.46295E-01 2.22960E-05 5.65268E-01 3.61741E-15 1.76598E-14
 -1       768 2.00394E+01 2.08652E-01 2.02688E-05 6.70899E-01-6.76959E-14 2.52887E-13
 -1       769 2.01075E+01 1.18766E-01 1.20167E-05 7.74219E-01-8.60626E-14 2.69072E-13
 -1       770 2.02313E+01-4.41996E-02-3.62387E-06 8.61981E-01-9.59040E-14 2.11173E-13
 -1       771 2.04395E+01-3.01150E-01-1.39471E-05 9.13065E-01-2.55540E-14 1.29496E-13
 -1       772 2.07674E+01-6.65389E-01 2.33878E-05 8.94490E-01-2.10387E-14-1.43429E-13
 -1       773 2.12489E+01-1.12660E+00-1.31526E-04 7.56991E-01-4.98629E-14-8.19667E-14
 -1       774 2.19000E+01-1.62408E+00-6.60400E-04 4.36406E-01-3.78233E-14 4.99585E-14
 -1       775 2.26869E+01-2.01036E+00-1.56834E-03-1.36327E-01-1.64999E-13 1.54854E-13
 -1       776 2.34859E+01-2.02083E+00-2.39246E-03-9.82115E-01-2.21513E-13 1.97233E-13
 -1       777 2.40433E+01-1.29187E+00-1.20366E-03-1.95493E+00 5.49840E-14-5.90764E-14
 -1       778 2.40649E+01 3.07792E-01-2.50212E-02-2.59562E+00 9.91620E-14-2.61594E-13
 -1       779 2.37335E+01 2.26562E+00-1.47768E-02-2.32917E+00 9.03154E-14 1.65871E-13
 -1       780 2.32818E+01 3.61732E+00-3.62784E-02-1.05147E+00-5.45917E-15 2.18288E-13
 -1       781 2.34803E+01 3.21548E+00-4.09523E-02 5.50830E-01-3.99261E-13-9.27293E-14
 -1       782 2.39235E+01 1.51992E+00-1.30897E-02 1.39385E+00-4.09432E-13-1.77356E-13
 -1       783 2.40631E+01-2.83463E-01-2.56708E-02 1.22973E+00-3.08176E-13-3.98721E-13
 -1       784 2.35223E+01-1.00709E+00-3.90481E-03 4.85054E-01-1.20396E-13-5.64041E-13
 -1       785 2.01702E+01 2.23629E-01-2.72074E-06-3.23485E-02 1.24283E-13-1.67275E-13
 -1       786 2.00407E+01-5.02952E-02-1.44871E-05-1.73473E-01 1.04400E-13-1.20489E-13
 -1       787 2.00612E+01-2.42873E-02-1.27925E-05-1.75603E-01 8.96920E-14-1.29555E-13
 -1       788 2.00164E+01-6.39213E-02-1.35548E-05-1.43854E-01 9.08438E-14-1.04430E-13
 -1       789 2.00102E+01-5.94212E-02-1.18331E-05-1.25301E-01 3.32855E-14-5.80993E-14
 -1       790 2.00067E+01-5.05657E-02-1.01745E-05-1.08022E-01 1.12334E-13 1.34869E-14
 -1       791 2.00053E+01-3.86282E-02-7.91946E-06-9.38183E-02 1.05532E-13 9.24343E-15
 -1       792 2.00056E+01-2.42495E-02-5.37565E-06-8.40294E-02 5.38987E-14 8.42911E-14
 -1       793 2.00070E+01-7.55831E-03-2.48449E-06-7.97646E-02-6.65745E-14 6.50588E-14
 -1       794 2.00094E+01 1.17233E-02 8.26743E-07-8.20799E-02-8.68816E-14 8.54950E-14
 -1       795 2.00124E+01 3.42195E-02 4.72398E-06-9.21113E-02-3.10970E-15-2.35624E-14
 -1       796 2.00155E+01 6.08587E-02 9.30710E-06-1.11182E-01-1.03753E-13-6.44967E-14
 -1       797 2.00183E+01 9.28441E-02 1.48966E-05-1.40878E-01-5.95026E-14 5.00581E-14
 -1       798 2.00198E+01 1.31633E-01 2.18324E-05-1.83093E-01-8.37903E-14 6.40841E-14
 -1       799 2.00187E+01 1.78907E-01 3.05583E-05-2.40041E-01-1.08580E-13 3.76603E-14
 -1       800 2.00127E+01 2.36503E-01 4.16546E-05-3.14235E-01 2.00237E-14-7.49680E-16
 -1       801 1.99988E+01 3.06252E-01 5.58889E-05-4.08409E-01 7.57606E-14-1.03926E-13
 -1       802 1.99721E+01 3.89630E-01 7.42643E-05-5.25389E-01 1.44479E-14-2.87787E-13
 -1       803 1.99261E+01 4.87041E-01 9.79581E-05-6.67921E-01 4.73712E-14-2.71782E-13
 -1       804 1.98523E+01 5.96451E-01 1.27793E-04-8.38500E-01 1.59494E-13-1.51766E-13
 -1       805 1.97403E+01 7.10889E-01 1.62305E-04-1.03937E+00 1.99733E-13-3.46649E-13
 -1       806 1.95800E+01 8.14159E-01 1.93007E-04-1.27301E+00 8.05894E-14-4.34447E-13
 -1       807 1.93656E+01 8.73874E-01 1.92596E-04-1.54380E+00 2.13964E-13-3.47352E-13
 -1       808 1.91050E+01 8.30848E-01 1.65078E-04-1.86165E+00 2.30965E-13-2.61313E-13
 -1       809 1.88393E+01 5.84214E-01 3.21853E-04-2.24726E+00-1.02628E-15-2.28493E-13
 -1       810 1.86754E+01-2.58590E-02 2.22048E-03-2.73758E+00-1.39783E-13-2.36489E-13
 -1       811 1.88521E+01-1.22264E+00 1.73575E-02-3.36734E+00-2.52260E-13-1.28649E-13
 -1       812 2.49870E+01-2.41352E+00-9.07254E-03-9.59095E-01 1.08386E-13-3.10211E-13
 -1       813 2.55236E+01-3.72530E+00-1.49677E-02-2.92041E+00 4.81420E-13 1.46187E-13
 -1       814 2.02784E+01 1.17345E+00 6.76384E-04-5.67121E-01-2.70953E-13-3.13143E-13
 -1       815 2.01379E+01 1.88878E+00-3.23149E-04 1.99034E-01-7.51843E-15-4.44378E-13
 -1       816 1.77547E+01-2.90812E+00 5.65762E-02-4.49179E+00-1.74005E-13 2.23866E-14
 -1       817 2.02192E+01 4.14363E-01-1.04428E-04 1.10891E-01 1.48875E-13-2.49712E-13
 -1       818 2.76572E+01-2.47181E+00-3.05495E-02-2.31874E-02-1.07083E-13-3.02518E-13
 -1       819 2.51225E+01-4.51738E+00-9.34725E-03 1.59378E+00-1.28932E-13 6.50304E-14
 -1       820 1.26853E+01-9.50531E-01 7.31361E-02 4.26176E+00 3.22025E-14-2.49117E-13
 -1       821 2.00262E+01-6.19488E-02-1.45206E-05-1.61138E-01 8.95972E-14-1.24650E-13
 -1       822 2.65616E+01-2.00444E+00-1.97718E-02-1.70992E+00-2.42684E-13 4.44113E-13
 -1       823 1.66029E+01-2.73045E+00 5.22246E-02 5.29658E+00-1.93300E-14-2.99094E-13
 -1       824 2.56462E+01 1.41754E+00-4.13793E-02-2.82750E+00 2.48716E-13-9.83848E-14
 -1       825 2.64814E+01-4.86456E+00 4.43965E-03-3.75673E+00 3.20157E-13 4.65386E-13
 -1       826 2.51850E+01 4.30757E+00-7.81735E-02 8.09613E-01-5.60354E-13-3.91872E-13
 -1       827 2.62111E+01 1.51198E+00-5.03250E-02 1.69929E+00-4.11506E-13-5.31877E-13
 -1       828 2.02242E+01 1.59114E+00 2.12211E-04-7.20878E-01-2.89322E-13-3.71454E-13
 -1       829 2.02762E+01 9.43663E-01 2.28814E-05 5.52582E-01 2.43394E-13-2.86116E-13
 -1       830 2.13849E+01-4.41273E+00 2.67941E-02 4.35453E+00 5.92295E-14-5.33549E-14
 -1       831 2.13969E+01-3.54741E+00 3.75720E-02-3.41013E+00-2.42038E-13-2.12027E-13
 -1       832 2.01266E+01 1.92717E+00-8.55318E-05 3.59095E-03-5.74152E-14-4.51580E-13
 -1       833 2.01486E+01 1.85503E+00-8.49995E-04-5.73231E-01-2.28197E-13-4.13767E-13
 -1       834 2.00890E+01 2.28053E-02-1.13787E-05-1.60134E-01-1.89452E-14-1.77059E-13
 -1       835 2.02185E+01 1.58229E+00-2.77602E-04 5.33948E-01 1.49721E-13-3.79390E-13
 -1       836 2.01254E+01 1.00693E-01-8.99432E-06-1.16896E-01 5.63094E-14-1.59911E-13
 -1       837 2.01704E+01 1.77569E+00-3.52851E-04 3.81128E-01 7.21399E-14-4.12421E-13
 -1       838 2.44215E+01-1.60362E+00 2.15810E-02-4.25561E-02-5.71097E-14-2.44693E-13
 -1       839 1.22985E+01 2.47662E-01 4.70946E-02 2.45776E+00 1.03960E-13-2.05955E-13
 -1       840 2.00942E+01 2.02822E+00-9.24888E-04-3.82368E-01-1.68620E-13-4.00595E-13
 -1       841 2.02536E+01 6.30335E-01-4.43082E-04 2.96453E-01 2.05086E-13-2.98185E-13
 -1       842 1.16492E+01 3.00374E-01 7.16328E-02-1.69256E+00-3.85603E-14 2.04932E-13
 -1       843 1.58097E+01-9.61626E-01 3.07261E-02 3.85942E+00-1.54639E-13-4.29178E-13
 -1       844 2.03297E+01 4.30093E-01-5.65558E-05-4.62726E-02-9.96459E-14-2.06004E-13
 -1       845 2.03039E+01 2.26837E-01-3.16427E-06 4.73295E-02-1.31182E-13-1.54574E-13
 -1       846 2.02676E+01 9.15406E-02-5.42684E-06 1.02874E-01-1.41628E-13-1.06395E-13
 -1       847 2.02283E+01 5.20412E-03-4.83420E-06 1.30522E-01-5.46486E-14-1.50929E-13
 -1       848 2.01902E+01-4.62656E-02-4.22621E-06 1.39045E-01-7.57980E-15-2.43989E-13
 -1       849 2.01556E+01-7.32283E-02-2.48657E-06 1.35466E-01 1.77446E-14-2.38878E-13
 -1       850 2.01252E+01-8.32338E-02-1.44648E-06 1.25081E-01-2.44596E-14-2.31296E-13
 -1       851 2.00994E+01-8.16715E-02-1.35972E-06 1.11743E-01-1.60403E-14-3.28954E-13
 -1       852 2.00778E+01-7.22438E-02-1.45308E-06 9.81790E-02-2.66921E-14-3.38138E-13
 -1       853 2.00599E+01-5.73399E-02-8.70732E-07 8.63366E-02 3.21853E-14-3.00747E-13
 -1       854 2.00449E+01-3.83618E-02-4.71861E-07 7.76472E-02-3.73863E-14-2.27920E-13
 -1       855 2.00319E+01-1.59854E-02-5.60665E-07 7.32359E-02-1.06479E-13-2.20792E-13
 -1       856 2.00198E+01 9.64142E-03-7.94713E-07 7.40695E-02-5.80775E-14-1.54963E-13
 -1       857 2.00077E+01 3.87240E-02-7.10520E-07 8.10960E-02 3.72107E-15-1.01583E-13
 -1       858 1.99943E+01 7.16199E-02-6.31016E-07 9.53334E-02-1.02778E-13-1.44835E-14
 -1       859 1.99786E+01 1.08627E-01-6.09364E-07 1.17920E-01-1.79636E-14 4.57498E-14
 -1       860 1.99594E+01 1.49727E-01-6.02521E-07 1.50138E-01 8.79793E-15 3.48835E-15
 -1       861 1.99358E+01 1.94256E-01-5.66585E-07 1.93404E-01 1.05232E-13 8.76269E-14
 -1       862 1.99073E+01 2.40464E-01-4.56234E-07 2.49227E-01 8.53563E-15-1.02730E-13
 -1       863 1.98742E+01 2.84959E-01-2.11179E-07 3.19117E-01-3.98645E-14-8.24209E-14
 -1       864 1.98382E+01 3.21998E-01 2.56336E-07 4.04450E-01-1.12220E-13 1.58010E-14
 -1       865 1.98033E+01 3.42652E-01 1.02835E-06 5.06245E-01-1.58495E-14-7.47987E-14
 -1       866 1.97769E+01 3.33903E-01 1.93069E-06 6.24820E-01 2.15811E-14-1.13204E-13
 -1       867 1.97721E+01 2.77815E-01 1.90807E-06 7.59170E-01 3.81380E-14-1.52259E-13
 -1       868 1.98094E+01 1.51148E-01 2.82097E-07 9.05808E-01 1.11032E-14-1.31324E-14
 -1       869 1.99196E+01-7.38944E-02 1.66153E-05 1.05650E+00-1.56973E-13-3.53268E-14
 -1       870 2.01471E+01-4.26497E-01 1.29548E-04 1.19403E+00-2.73067E-13-1.93972E-13
 -1       871 2.05522E+01-9.29431E-01 7.06732E-04 1.28374E+00 1.07737E-13-2.15584E-13
 -1       872 2.12032E+01-1.57275E+00 1.38349E-03 1.25415E+00 2.30438E-14-6.52734E-14
 -1       873 2.21520E+01-2.27405E+00 3.45107E-04 9.95679E-01 1.16474E-14 1.40573E-13
 -1       874 2.34025E+01-2.82529E+00 2.12523E-03 3.78265E-01-1.93153E-13 3.04673E-13
 -1       875 2.47606E+01-2.76904E+00 1.25787E-03-7.11054E-01-2.97869E-13 3.44202E-13
 -1       876 2.00611E+01-6.94072E-02 1.91827E-07-1.08047E-01-4.59598E-15 8.84342E-15
 -1       877 2.00784E+01-7.71392E-02 2.64692E-06-1.23303E-01 5.47017E-14-1.63775E-14
 -1       878 2.00364E+01-3.96244E-02-5.81434E-07-8.40869E-02-1.20352E-14-1.16910E-14
 -1       879 2.00274E+01-1.95150E-02-5.09992E-07-7.81723E-02 2.35550E-14 5.07365E-14
 -1       880 2.00196E+01 3.90381E-03-2.02225E-07-7.77599E-02-3.46913E-14-5.59483E-14
 -1       881 2.00120E+01 3.11305E-02 3.96992E-07-8.38623E-02-3.80809E-14-1.56343E-13
 -1       882 2.00033E+01 6.30769E-02 8.67061E-07-9.75614E-02-7.28140E-14-7.24001E-14
 -1       883 1.99921E+01 1.00992E-01 1.48627E-06-1.20072E-01-9.63953E-14-1.24766E-13
 -1       884 1.99765E+01 1.46409E-01 2.29041E-06-1.52763E-01-8.70495E-14-1.38973E-13
 -1       885 1.99539E+01 2.01095E-01 3.35141E-06-1.97136E-01-7.26433E-14-1.31786E-13
 -1       886 1.99209E+01 2.66961E-01 4.78955E-06-2.54765E-01-7.29772E-14-1.67359E-13
 -1       887 1.98729E+01 3.45920E-01 6.80627E-06-3.27176E-01 4.84873E-14-2.03445E-13
 -1       888 1.98034E+01 4.39606E-01 9.72723E-06-4.15690E-01 4.41856E-14-9.24514E-15
 -1       889 1.97040E+01 5.48862E-01 1.39859E-05-5.21248E-01 8.36255E-14 2.92754E-14
 -1       890 1.95636E+01 6.72831E-01 1.97948E-05-6.44331E-01 1.39624E-13-1.26771E-13
 -1       891 1.93679E+01 8.07387E-01 2.57823E-05-7.85179E-01 2.47417E-13-1.95303E-13
 -1       892 1.90996E+01 9.42554E-01 2.52133E-05-9.44772E-01 2.49217E-13-1.15845E-13
 -1       893 1.87386E+01 1.05849E+00-1.14915E-06-1.12734E+00-1.41274E-15-2.73959E-13
 -1       894 1.82637E+01 1.11951E+00-1.01858E-04-1.34590E+00 1.08784E-13-2.10247E-13
 -1       895 1.76565E+01 1.06511E+00-8.69959E-05-1.63288E+00 9.93735E-14 3.64422E-14
 -1       896 1.69123E+01 7.91484E-01 6.46572E-04-2.05836E+00-1.36478E-13 1.08146E-14
 -1       897 1.60765E+01 1.29036E-01 1.87209E-02-2.73200E+00-2.51531E-13-1.46729E-13
 -1       898 2.02499E+01 1.43464E+00-1.38670E-04-4.88038E-01-2.26926E-13-3.73985E-13
 -1       899 1.46007E+01-3.09740E-01 5.21849E-02-3.17562E+00-2.87755E-13-1.68608E-13
 -1       900 2.02685E+01 2.29072E-01-1.88587E-05-4.50492E-02 7.65047E-14-2.00315E-13
 -1       901 2.02994E+01 4.30282E-01-9.49494E-05 6.36628E-02 7.57619E-14-2.05136E-13
 -1       902 2.01017E+01 2.00583E+00-2.23149E-04-1.82616E-01-1.03996E-13-4.20469E-13
 -1       903 1.93511E+01-2.77410E+00 1.47804E-02 4.02792E+00-1.81212E-13-1.38894E-13
 -1       904 2.29266E+01-3.84409E+00 6.63219E-03 2.38731E+00-1.05785E-13-1.01021E-13
 -1       905 2.01568E+01-3.92920E-02-1.79038E-06-1.52547E-01 6.35999E-14-1.45345E-13
 -1       906 2.00473E+01-5.64455E-02-3.79194E-07-9.44476E-02 8.52229E-14-2.18655E-15
 -1       907 2.03359E+01 7.22920E-01 3.77373E-04-1.88372E-01-1.55884E-13-2.73931E-13
 -1       908 2.03070E+01 6.66705E-01 2.59199E-04 2.06495E-01 1.32345E-13-2.54639E-13
 -1       909 2.01921E+01 1.15684E-02-4.14721E-06-1.41978E-01-1.28654E-14-2.23120E-13
 -1       910 2.00999E+01-7.73821E-02-3.71763E-07-1.38068E-01 8.68031E-14-8.96047E-14
 -1       911 2.02304E+01 9.63357E-02-9.86234E-06-1.09543E-01 4.27218E-14-1.90182E-13
 -1       912 2.02064E+01 1.63496E+00 3.26478E-04-3.55806E-01-1.50287E-13-3.91089E-13
 -1       913 2.03020E+01 1.00381E+00-3.40509E-04 3.66137E-01 1.60171E-13-2.93882E-13
 -1       914 2.01260E+01-6.64880E-02-2.58440E-06-1.49258E-01 1.02175E-13-8.14886E-14
 -1       915 1.24376E+01 8.74113E-01 2.58193E-02 2.95188E-01-7.99230E-15 3.10195E-14
 -1       916 2.02744E+01 1.40571E+00-3.08109E-05 6.96080E-02-4.98915E-14-4.02199E-13
 -1       917 2.02836E+01 1.33831E+00-1.83172E-04 1.96073E-01-1.19858E-14-3.68479E-13
 -1       918 2.03588E+01 1.96440E-01 2.16616E-05 5.03375E-02-8.84145E-14-2.20446E-13
 -1       919 2.03234E+01 6.60078E-02 2.02246E-06 8.52020E-02-1.03348E-13-1.72260E-13
 -1       920 2.02819E+01-1.65169E-02-2.73173E-06 1.01405E-01-5.78388E-14-1.85994E-13
 -1       921 2.02392E+01-6.42667E-02-9.27838E-07 1.04937E-01-1.19705E-15-2.10094E-13
 -1       922 2.01987E+01-8.74749E-02 1.05466E-06 1.00661E-01-1.28448E-14-1.71077E-13
 -1       923 2.01620E+01-9.35813E-02 2.88687E-06 9.22416E-02-6.50593E-14-2.20154E-13
 -1       924 2.01297E+01-8.80297E-02 4.11797E-07 8.23049E-02-3.83859E-14-2.50174E-13
 -1       925 2.01017E+01-7.43740E-02 1.08414E-06 7.27580E-02 5.09257E-14-2.28645E-13
 -1       926 2.00774E+01-5.49082E-02 1.20788E-06 6.50100E-02 2.57355E-14-2.11351E-13
 -1       927 2.00558E+01-3.08598E-02 8.06820E-07 6.01384E-02-1.04354E-13-2.03521E-13
 -1       928 2.00357E+01-2.77074E-03-1.33666E-06 5.90204E-02-3.63037E-14-2.35434E-13
 -1       929 2.00156E+01 2.94213E-02-2.13521E-06 6.24767E-02-1.00724E-14-1.45685E-13
 -1       930 1.99940E+01 6.60940E-02-3.21874E-06 7.13937E-02 6.68768E-14-1.48497E-13
 -1       931 1.99691E+01 1.07724E-01-4.79850E-06 8.67818E-02 8.23211E-15-5.03496E-14
 -1       932 1.99390E+01 1.54648E-01-6.84317E-06 1.09844E-01 2.63402E-14 9.09191E-15
 -1       933 1.99019E+01 2.06758E-01-9.36678E-06 1.42043E-01 8.05313E-14 6.60896E-14
 -1       934 1.98560E+01 2.63100E-01-1.24227E-05 1.85158E-01 3.67988E-14 1.24188E-13
 -1       935 1.98002E+01 3.21366E-01-1.60749E-05 2.41350E-01-7.96831E-14 1.69195E-13
 -1       936 1.97341E+01 3.77242E-01-2.03696E-05 3.13233E-01 6.02519E-14 9.79290E-14
 -1       937 1.96589E+01 4.23605E-01-2.53301E-05 4.03956E-01-1.14560E-13 1.44165E-13
 -1       938 1.95787E+01 4.49567E-01-3.11580E-05 5.17283E-01-3.61475E-14 7.48450E-14
 -1       939 1.95014E+01 4.39412E-01-3.92979E-05 6.57593E-01-1.58211E-14 6.71166E-14
 -1       940 1.94417E+01 3.71500E-01-5.48190E-05 8.29654E-01 9.14978E-14 5.96150E-14
 -1       941 1.94235E+01 2.17382E-01-8.32992E-05 1.03770E+00-6.28562E-14-3.17070E-15
 -1       942 1.94853E+01-5.83588E-02-4.09965E-05 1.28303E+00-1.88372E-13 1.28804E-14
 -1       943 1.96845E+01-4.95017E-01 4.92805E-04 1.55774E+00-1.12456E-13 2.58406E-14
 -1       944 2.01076E+01-1.13959E+00 1.44165E-04 1.84343E+00 1.31064E-13-3.62941E-14
 -1       945 2.09048E+01-2.02794E+00-3.20376E-03 2.06874E+00 3.75210E-14-3.42174E-14
 -1       946 1.82058E+01-1.30809E+00 3.96980E-03 3.23392E+00-4.48616E-14-1.28608E-13
 -1       947 2.03749E+01 6.75165E-01 6.39416E-05-1.02790E-01-9.21686E-14-2.92809E-13
 -1       948 2.00363E+01-8.41648E-03 8.73296E-07-6.66438E-02 2.02279E-14-2.31333E-14
 -1       949 2.00531E+01-3.45140E-02 8.84061E-07-6.89766E-02 5.20787E-15 2.37250E-14
 -1       950 2.00020E+01 5.74090E-02-4.66507E-07-7.75288E-02-1.20875E-14-4.08271E-14
 -1       951 1.99807E+01 9.90557E-02-1.79254E-06-9.23987E-02-1.62307E-14-1.81854E-13
 -1       952 1.99537E+01 1.48377E-01-3.21663E-06-1.14694E-01-1.08478E-13-1.37636E-13
 -1       953 1.99177E+01 2.07064E-01-4.77208E-06-1.45250E-01-1.07035E-13-1.94251E-13
 -1       954 1.98687E+01 2.76918E-01-6.47113E-06-1.84785E-01-4.48588E-14-2.93414E-13
 -1       955 1.98015E+01 3.59693E-01-8.30975E-06-2.33739E-01 2.74514E-14-3.05513E-13
 -1       956 1.97095E+01 4.56853E-01-1.02871E-05-2.92056E-01 8.37319E-15-4.32074E-13
 -1       957 1.95840E+01 5.69183E-01-1.25268E-05-3.58933E-01 4.93776E-14-4.20260E-13
 -1       958 1.94136E+01 6.96192E-01-1.57063E-05-4.32605E-01 1.56165E-13-3.19043E-13
 -1       959 1.91836E+01 8.35188E-01-2.21770E-05-5.10316E-01 8.50797E-14-1.11417E-13
 -1       960 1.88747E+01 9.79934E-01-3.79730E-05-5.88809E-01 1.24653E-13-6.32674E-14
 -1       961 1.84619E+01 1.11873E+00-7.18997E-05-6.65885E-01 1.79517E-13 1.11055E-13
 -1       962 1.79110E+01 1.23190E+00-1.07459E-04-7.43752E-01 5.22026E-14 1.86684E-13
 -1       963 1.71735E+01 1.28915E+00-1.26169E-04-8.35868E-01-6.26015E-14 1.41134E-13
 -1       964 1.61758E+01 1.24651E+00 1.78321E-03-9.81679E-01-9.19216E-14 2.04492E-13
 -1       965 1.47910E+01 1.03937E+00 1.32088E-02-1.26761E+00-1.51869E-13 3.53255E-13
 -1       966 1.37741E+01 6.75331E-01 3.59586E-02-1.66299E+00-1.44797E-13 3.84115E-13
 -1       967 2.03584E+01 4.07066E-01-4.83314E-05 2.23065E-02 6.68557E-14-2.22012E-13
 -1       968 2.15703E+01-2.85147E+00-1.64517E-04 2.40029E+00-3.93999E-15 1.91265E-14
 -1       969 2.01181E+01-8.58574E-02 8.82583E-06-9.61547E-02 2.20628E-14-1.27102E-13
 -1       970 2.02733E+01 1.40883E+00-4.87283E-05-6.75740E-02-8.67449E-14-3.63947E-13
 -1       971 2.03797E+01 3.91761E-01-6.85217E-05-9.70314E-03-8.07101E-14-2.59862E-13
 -1       972 2.02971E+01 1.20460E+00-1.49202E-04 3.01231E-01 5.35742E-14-3.33545E-13
 -1       973 2.00198E+01 2.19698E-02 7.97978E-07-6.92252E-02-2.39388E-14-4.71944E-14
 -1       974 1.46261E+01 4.25964E-01 2.52248E-02 2.31602E+00-1.24475E-13-5.04639E-13
 -1       975 2.03272E+01 1.07786E+00-5.55410E-04-2.20518E-01-1.26337E-13-3.19929E-13
 -1       976 2.03533E+01 6.42108E-01-2.38899E-04 1.22086E-01 6.64982E-14-2.15712E-13
 -1       977 2.01475E+01-8.96095E-02 7.42336E-06-1.07638E-01 4.99929E-14-2.01067E-13
 -1       978 2.02598E+01-7.53760E-03 9.09258E-06-1.16060E-01 1.69784E-14-2.68754E-13
 -1       979 2.00716E+01-5.65003E-02 3.67976E-06-7.53602E-02 7.46414E-15 3.75906E-14
 -1       980 2.02399E+01 1.51846E+00 5.61475E-05-2.35310E-01-1.36049E-13-3.77505E-13
 -1       981 2.03357E+01 2.08645E-01-2.36861E-05-5.18373E-02 7.23473E-14-2.09955E-13
 -1       982 2.02193E+01-5.68353E-02 7.88801E-06-1.21403E-01 4.64356E-14-2.76898E-13
 -1       983 2.03394E+01 8.98001E-01 6.48162E-04 2.09175E-01 7.06985E-14-2.30042E-13
 -1       984 2.03678E+01 9.98230E-01 8.37635E-05 3.24251E-04-6.28386E-14-3.93279E-13
 -1       985 2.03680E+01 9.70700E-01 3.65557E-04 7.87074E-02-2.58006E-14-3.75136E-13
 -1       986 1.67689E+01-7.50845E-02 4.98766E-03 2.52167E+00-9.27099E-14-3.23469E-13
 -1       987 2.00930E+01-7.40113E-02 5.54187E-06-8.48070E-02-4.16599E-16-8.94570E-14
 -1       988 2.03522E+01 3.14981E-02-2.54762E-05 5.89389E-02-8.33548E-14-2.46112E-13
 -1       989 2.03077E+01-4.12671E-02-1.74746E-05 6.58430E-02-1.73987E-14-1.56507E-13
 -1       990 2.02616E+01-8.12473E-02-1.24743E-05 6.61375E-02-3.15967E-14-1.49203E-13
 -1       991 2.02177E+01-9.81713E-02 8.81685E-06 6.23164E-02-6.35506E-14-2.28142E-13
 -1       992 2.01774E+01-9.90479E-02-1.64637E-06 5.66968E-02-9.91568E-15-1.21854E-13
 -1       993 2.01416E+01-8.88825E-02 5.21057E-06 5.04564E-02 1.38914E-14-1.87286E-13
 -1       994 2.01097E+01-7.07791E-02 2.21593E-06 4.49521E-02 3.12137E-14-2.85369E-13
 -1       995 2.00814E+01-4.68602E-02 4.73474E-06 4.09140E-02-1.16314E-13-3.69152E-13
 -1       996 2.00552E+01-1.80485E-02-4.63962E-06 3.91149E-02-3.63152E-14-3.39631E-13
 -1       997 2.00295E+01 1.53872E-02-6.22533E-06 4.00512E-02 7.85626E-14-2.18737E-13
 -1       998 2.00026E+01 5.38023E-02-1.08606E-05 4.44309E-02 7.86455E-14-1.73559E-13
 -1       999 1.99722E+01 9.77414E-02-1.63349E-05 5.30167E-02 6.71283E-14-1.61364E-13
 -1      1000 1.99360E+01 1.47841E-01-2.29598E-05 6.67618E-02 1.09012E-13-4.01566E-14
 -1      1001 1.98915E+01 2.04526E-01-3.06088E-05 8.69205E-02 7.74474E-14-5.64562E-15
 -1      1002 1.98360E+01 2.67670E-01-3.92189E-05 1.15160E-01 1.52232E-13 1.70803E-13
 -1      1003 1.97668E+01 3.36170E-01-4.87052E-05 1.53711E-01 1.40767E-14 9.27454E-14
 -1      1004 1.96817E+01 4.07395E-01-5.89142E-05 2.05573E-01-9.28614E-14 2.02915E-13
 -1      1005 1.95790E+01 4.76496E-01-6.96432E-05 2.74776E-01-1.08064E-13 3.76523E-14
 -1      1006 1.94586E+01 5.35563E-01-8.09551E-05 3.66735E-01-3.24861E-14 5.07510E-14
 -1      1007 1.93227E+01 5.72618E-01-9.48692E-05 4.88685E-01-6.69069E-14 1.20700E-13
 -1      1008 1.91772E+01 5.70423E-01-1.22094E-04 6.50183E-01 1.07116E-13 5.05078E-14
 -1      1009 1.90342E+01 5.05039E-01-2.02820E-04 8.63574E-01-8.16497E-14 9.52075E-14
 -1      1010 1.89159E+01 3.44068E-01-3.71716E-04 1.14366E+00-1.97198E-13 9.42163E-14
 -1      1011 1.88558E+01 4.64749E-02-1.19925E-03 1.50794E+00-2.74253E-13-5.11228E-14
 -1      1012 1.89387E+01-4.55846E-01 4.63360E-04 1.97824E+00 1.08258E-13-1.29238E-14
 -1      1013 2.03556E+01 9.54465E-01 4.51383E-04 1.47637E-01 1.26193E-14-3.22772E-13
 -1      1014 2.00338E+01 8.14696E-03 1.02613E-06-4.98560E-02 6.60010E-14 1.58898E-13
 -1      1015 1.99486E+01 1.38932E-01-1.67295E-05-7.44010E-02-4.99466E-15-9.58445E-15
 -1      1016 1.99820E+01 8.83270E-02-1.04110E-05-6.17502E-02 3.08981E-14 3.61391E-15
 -1      1017 1.98499E+01 2.68552E-01-3.23149E-05-1.14427E-01 2.35704E-14-3.73365E-13
 -1      1018 1.97756E+01 3.50582E-01-4.20168E-05-1.41467E-01-2.59848E-14-4.91794E-13
 -1      1019 1.96768E+01 4.45642E-01-5.34347E-05-1.72004E-01-5.93572E-14-3.95571E-13
 -1      1020 1.95457E+01 5.54073E-01-6.72636E-05-2.03971E-01-6.20077E-14-3.30290E-13
 -1      1021 1.93724E+01 6.75013E-01-8.50910E-05-2.33919E-01 8.40304E-14-3.90727E-13
 -1      1022 1.91444E+01 8.05768E-01-1.10667E-04-2.56666E-01-1.08036E-13-9.25945E-14
 -1      1023 1.88452E+01 9.41026E-01-1.51553E-04-2.65087E-01 6.79036E-14-4.68786E-15
 -1      1024 1.84529E+01 1.07198E+00-2.15063E-04-2.50297E-01 6.76176E-14-3.12066E-14
 -1      1025 1.79362E+01 1.18538E+00-2.97051E-04-2.02722E-01-2.04864E-14 8.54683E-14
 -1      1026 1.72502E+01 1.26130E+00-1.23626E-04-1.14002E-01 5.95769E-14 1.62880E-13
 -1      1027 1.63153E+01 1.28355E+00 1.28982E-03 2.33583E-02-1.10030E-13 9.55495E-14
 -1      1028 1.50091E+01 1.21224E+00 5.26122E-03 1.99632E-01-2.73243E-13 2.50015E-13
 -1      1029 2.04132E+01 3.24913E-01-4.85192E-04 8.75864E-03-5.07399E-14-3.05387E-13
 -1      1030 2.00095E+01 4.51613E-02-4.82645E-06-5.37053E-02-2.32774E-16 1.84345E-14
 -1      1031 2.01379E+01-8.90538E-02 1.63983E-05-6.54357E-02-4.64786E-14-2.15707E-14
 -1      1032 2.01814E+01-8.17350E-02 5.86719E-06-1.17203E-01 9.88190E-14-1.82875E-13
 -1      1033 2.04074E+01 5.89888E-01 3.00289E-04-4.09449E-02-4.19112E-14-3.40227E-13
 -1      1034 2.00571E+01-2.36522E-02-3.01424E-06-4.96761E-02 3.67010E-14 1.39392E-13
 -1      1035 2.03681E+01 9.71186E-01 1.31288E-04-7.88946E-02-6.71773E-14-3.58746E-13
 -1      1036 1.99059E+01 1.98484E-01-2.39662E-05-9.19452E-02-6.52493E-14-2.23346E-13
 -1      1037 2.03895E+01 1.49683E-01-2.32381E-05 4.16175E-02-7.38151E-14-2.73232E-13
 -1      1038 2.03002E+01 7.64485E-02-1.71170E-05-9.53698E-02 6.45308E-14-2.18477E-13
 -1      1039 1.87668E+01-8.34510E-01 2.63892E-03 2.46634E+00 2.81774E-13 6.67177E-14
 -1      1040 2.01727E+01-9.77115E-02-3.98399E-05-7.35448E-02-3.94938E-14-6.39939E-14
 -1      1041 2.00812E+01-5.07218E-02 1.27031E-06-5.27075E-02-7.92379E-14 1.27555E-13
 -1      1042 2.04011E+01 3.52812E-01-2.40030E-04-4.08542E-03 4.96477E-14-2.43336E-13
 -1      1043 2.01078E+01-7.28481E-02 1.11239E-05-5.81702E-02-4.97741E-14 5.92016E-14
 -1      1044 2.04257E+01 6.16689E-01-1.26972E-04-1.16571E-02-3.12011E-14-3.56159E-13
 -1      1045 1.59717E+01 8.73141E-01-3.85845E-03 1.28928E+00-2.60899E-13-2.73109E-13
 -1      1046 2.04230E+01 6.19669E-01 4.63511E-04 1.91797E-02-2.98422E-15-3.49153E-13
 -1      1047 2.03939E+01 6.23327E-01-2.00514E-04 6.45315E-02 4.29688E-14-2.70497E-13
 -1      1048 2.02980E+01-3.13435E-02 4.44949E-06-8.31535E-02 2.55396E-14-2.14031E-13
 -1      1049 2.03415E+01 4.57810E-02 4.31768E-05-7.26518E-02 5.45175E-14-2.10716E-13
 -1      1050 2.03098E+01-6.41012E-02 6.07357E-05 2.58553E-02-1.16622E-14-1.63938E-13
 -1      1051 2.02609E+01-9.37486E-02-3.94053E-05 2.52241E-02-9.55567E-14-1.37723E-13
 -1      1052 2.02164E+01-1.03975E-01 1.93936E-05 2.30827E-02-1.71218E-14-1.25656E-13
 -1      1053 2.01755E+01-9.90608E-02 1.74891E-06 2.05704E-02-5.51949E-14-1.65810E-13
 -1      1054 2.01386E+01-8.40472E-02 2.93144E-05 1.85261E-02-5.69747E-14-2.25680E-13
 -1      1055 2.01049E+01-6.17290E-02-3.91150E-05 1.67750E-02-7.08343E-14-2.96562E-13
 -1      1056 2.00750E+01-3.41729E-02 1.39879E-05 1.55705E-02-2.78298E-14-1.63287E-13
 -1      1057 2.00462E+01-1.20470E-03 8.58231E-06 1.55146E-02 7.41965E-14-1.73188E-13
 -1      1058 2.00165E+01 3.70150E-02 1.31937E-05 1.69451E-02 1.21850E-13-2.14427E-13
 -1      1059 1.99840E+01 8.09877E-02 1.56077E-05 2.01839E-02 6.13153E-14-1.31196E-13
 -1      1060 1.99460E+01 1.31559E-01 1.96966E-05 2.58527E-02 6.60550E-14-1.91846E-13
 -1      1061 1.98995E+01 1.89565E-01 2.64983E-05 3.48252E-02 1.36738E-13-2.76670E-13
 -1      1062 1.98413E+01 2.55589E-01 3.70301E-05 4.83707E-02 1.70163E-13-2.27958E-13
 -1      1063 1.97676E+01 3.29617E-01 5.28410E-05 6.83415E-02-1.57710E-14-2.06957E-13
 -1      1064 1.96748E+01 4.10615E-01 7.63947E-05 9.74273E-02 3.68733E-15-2.81212E-13
 -1      1065 1.95589E+01 4.95982E-01 1.11572E-04 1.39501E-01-1.96589E-14-1.78411E-13
 -1      1066 1.94162E+01 5.80884E-01 1.64224E-04 2.00080E-01-1.46396E-13-1.18983E-13
 -1      1067 1.92436E+01 6.57436E-01 2.41887E-04 2.86932E-01 7.61084E-14-1.93085E-13
 -1      1068 1.90392E+01 7.13743E-01 3.48924E-04 4.10875E-01-8.52298E-14 1.57982E-16
 -1      1069 1.88029E+01 7.32723E-01 4.65315E-04 5.86815E-01-1.53404E-14-2.14593E-13
 -1      1070 1.85377E+01 6.90512E-01 4.76179E-04 8.35148E-01-1.60584E-13-2.96133E-13
 -1      1071 1.82531E+01 5.50093E-01-8.76228E-04 1.18574E+00-2.45741E-13-1.94640E-13
 -1      1072 1.79915E+01 2.85872E-01 8.73827E-03 1.64309E+00 4.37538E-14 1.31876E-13
 -1      1073 1.95641E+01 5.13428E-01-7.41308E-05-6.86319E-02-4.31055E-14-2.90560E-13
 -1      1074 1.99562E+01 1.21038E-01-4.64947E-06-3.56807E-02 5.11386E-14-4.28719E-15
 -1      1075 1.96874E+01 4.13398E-01-4.60810E-05-6.54812E-02-1.06418E-13-2.40198E-13
 -1      1076 1.97825E+01 3.24276E-01-2.75774E-05-5.83755E-02 1.26274E-13-2.00208E-13
 -1      1077 1.94049E+01 6.22777E-01-1.16162E-04-6.35456E-02-7.52274E-15-3.80969E-13
 -1      1078 1.92007E+01 7.37946E-01-1.79573E-04-4.38556E-02-1.12711E-13-2.25636E-13
 -1      1079 1.89402E+01 8.52843E-01-2.77540E-04-4.68577E-04-1.16494E-14-5.77547E-13
 -1      1080 1.86090E+01 9.58044E-01-4.31116E-04 7.91883E-02 7.30066E-14-3.15397E-13
 -1      1081 1.81881E+01 1.04010E+00-6.40787E-04 2.12165E-01-9.41228E-14-1.10670E-13
 -1      1082 1.76492E+01 1.08221E+00-4.17447E-04 4.22194E-01-2.87622E-14 1.92065E-14
 -1      1083 1.69109E+01 1.06894E+00-3.68617E-03 7.35933E-01 7.62581E-14 9.56363E-14
 -1      1084 1.99922E+01 7.13400E-02-2.72854E-06-3.09688E-02 6.20245E-14-1.04207E-14
 -1      1085 2.00229E+01 2.85886E-02-9.55066E-07-2.81823E-02 1.04016E-13 1.84712E-14
 -1      1086 2.03783E+01 1.70241E-01 1.10641E-04-4.87616E-02 5.88128E-14-2.33879E-13
 -1      1087 1.74091E+01 1.71994E-01 6.98012E-04 2.00086E+00 1.32999E-13 8.36441E-14
 -1      1088 2.04252E+01 2.51488E-01 8.15977E-04 9.75983E-03-2.42407E-14-3.21943E-13
 -1      1089 2.00511E+01-8.41435E-03-8.76931E-06-2.72387E-02 1.76564E-14 2.08358E-14
 -1      1090 2.02534E+01-7.45059E-02 1.16472E-05-8.44061E-02 2.89036E-14-2.43956E-13
 -1      1091 2.03998E+01 9.35850E-02 7.34888E-05 1.87464E-02-2.82436E-14-2.83817E-13
 -1      1092 1.99120E+01 1.78937E-01-8.57618E-06-4.21890E-02 6.18238E-14-2.27080E-14
 -1      1093 1.98555E+01 2.46321E-01-1.57371E-05-5.00594E-02 8.53769E-14-1.58936E-13
 -1      1094 2.03570E+01-4.76968E-03 4.45525E-05 2.42522E-02 8.98089E-15-1.98712E-13
 -1      1095 2.00783E+01-3.95403E-02-1.66289E-05-2.80361E-02 2.33073E-14 2.43730E-14
 -1      1096 2.02111E+01-9.39623E-02-5.02331E-05-8.05084E-02 1.04974E-14-2.12165E-13
 -1      1097 2.01416E+01-8.68845E-02-8.71515E-06-3.37704E-02-1.14469E-13 5.55414E-14
 -1      1098 2.04306E+01 2.45235E-01-3.38183E-04-8.19642E-03 8.80570E-15-2.71129E-13
 -1      1099 2.03116E+01-5.54144E-02-8.10187E-06-4.48288E-02 5.53283E-14-1.04275E-13
 -1      1100 2.03576E+01 9.93310E-03-6.05073E-05-4.07941E-02 5.08987E-14-1.38162E-13
 -1      1101 2.01783E+01-9.98748E-02 2.30199E-05-3.75509E-02-1.01635E-13-5.70941E-15
 -1      1102 2.02423E+01-1.01977E-01 7.49650E-05-1.56018E-02-3.13504E-14 1.00176E-14
 -1      1103 2.00912E+01-4.88636E-02 1.11648E-04-1.03661E-02 5.13923E-14-1.22993E-13
 -1      1104 2.01088E+01-6.64364E-02-6.45090E-05-3.03129E-02-6.86139E-14 5.60473E-14
 -1      1105 2.02653E+01-8.99562E-02 4.94745E-05-4.44066E-02-4.73648E-15-4.03163E-14
 -1      1106 2.03971E+01 1.08799E-01-1.51894E-04-2.31557E-02 1.80948E-15-2.20010E-13
 -1      1107 2.79640E+01 9.08687E+00 2.32535E+00-6.69815E+00-4.13558E-14 2.15614E-12
 -1      1108 2.05485E+01 6.22749E+00 2.09791E-01-3.90370E+00-2.92821E-14 5.81167E-13
 -1      1109 1.94354E+01 5.85324E+00 7.54054E-02-2.88759E+00-2.36061E-14-1.64800E-13
 -1      1110 1.90262E+01 5.72597E+00 6.03200E-02-2.23457E+00-1.73681E-14-5.45400E-13
 -1      1111 1.88394E+01 5.66908E+00 5.75156E-02-1.70116E+00-1.33279E-14-7.48727E-13
 -1      1112 1.87456E+01 5.64036E+00 5.55621E-02-1.23391E+00-9.02924E-15-8.63091E-13
 -1      1113 1.86965E+01 5.62508E+00 5.37837E-02-8.04131E-01-5.44660E-15-9.24616E-13
 -1      1114 1.86723E+01 5.61743E+00 5.25092E-02-3.92725E-01-3.18539E-15-9.49142E-13
 -1      1115 1.86653E+01 5.61524E+00 5.21058E-02 8.48244E-03-1.00278E-15-9.76855E-13
 -1      1116 1.86733E+01 5.61778E+00 5.26197E-02 4.10102E-01 1.84401E-15-9.82962E-13
 -1      1117 1.86986E+01 5.62578E+00 5.40123E-02 8.22843E-01 3.16457E-15-9.81599E-13
 -1      1118 1.87495E+01 5.64172E+00 5.62257E-02 1.25518E+00 6.29358E-15-9.47795E-13
 -1      1119 1.88450E+01 5.67104E+00 5.84449E-02 1.72692E+00 1.07189E-14-8.82523E-13
 -1      1120 1.90318E+01 5.72767E+00 6.04085E-02 2.26796E+00 1.51060E-14-7.33831E-13
 -1      1121 1.94318E+01 5.85032E+00 6.92433E-02 2.92815E+00 2.17326E-14-4.09773E-13
 -1      1122 2.04546E+01 6.18239E+00 1.53336E-01 3.87830E+00 2.78666E-14 2.79044E-13
 -1      1123 2.52184E+01 7.99470E+00 1.43046E+00 5.84632E+00 6.85008E-14 1.79914E-12
 -1      1124 2.88138E+01 3.61631E+00 1.27119E+00-4.21702E+00-1.93706E-13 3.18667E-12
 -1      1125 2.02293E+01-1.77738E-01-6.16321E-01-1.09861E-01-6.55934E-14 2.74017E-12
 -1      1126 1.88356E+01-9.63622E-02-2.36354E-01 6.25251E-02-2.11914E-14 2.05383E-12
 -1      1127 1.85019E+01-4.80935E-02-5.96293E-02 4.05220E-02-1.89028E-14 1.58547E-12
 -1      1128 1.84473E+01-2.46088E-02-1.52036E-02 2.68181E-02-9.76996E-15 1.25288E-12
 -1      1129 1.85296E+01-1.30521E-02-4.96988E-03 1.90857E-02-5.10638E-15 1.06861E-12
 -1      1130 1.86769E+01-6.60714E-03-1.47148E-03 1.41415E-02-7.83607E-15 9.75565E-13
 -1      1131 1.88499E+01-2.83235E-03 5.70229E-04 1.07168E-02-8.29149E-15 8.11743E-13
 -1      1132 1.90259E+01-5.92183E-04 1.89706E-03 8.18343E-03-1.51779E-14 6.09486E-13
 -1      1133 1.91921E+01 7.09254E-04 2.65168E-03 6.23215E-03-2.82671E-15 4.32617E-13
 -1      1134 1.93416E+01 1.41375E-03 2.96895E-03 4.69873E-03-1.19295E-15 3.12611E-13
 -1      1135 1.94715E+01 1.73094E-03 2.98279E-03 3.48472E-03 2.01887E-14 3.60569E-13
 -1      1136 1.95811E+01 1.79603E-03 2.80030E-03 2.52338E-03-9.06610E-16 2.43059E-13
 -1      1137 1.96714E+01 1.69822E-03 2.49782E-03 1.76512E-03 1.81138E-15 9.92756E-14
 -1      1138 1.97443E+01 1.49606E-03 2.12573E-03 1.17102E-03 5.58242E-16 6.37426E-14
 -1      1139 1.98024E+01 1.22637E-03 1.71406E-03 7.09984E-04-2.08310E-14 3.54922E-14
 -1      1140 1.98486E+01 9.10030E-04 1.27713E-03 3.57701E-04-1.30840E-14-2.17617E-14
 -1      1141 1.98858E+01 5.56172E-04 8.17181E-04 9.63379E-05-1.51289E-14-1.55600E-13
 -1      1142 1.99173E+01 1.65450E-04 3.27412E-04-8.52641E-05 8.18079E-15-7.39233E-14
 -1      1143 1.99467E+01-2.67087E-04-2.05284E-04-1.91166E-04-6.42742E-15-1.76777E-13
 -1      1144 1.99776E+01-7.49106E-04-7.97426E-04-2.17718E-04-2.69954E-14-3.92572E-13
 -1      1145 2.00144E+01-1.28763E-03-1.46540E-03-1.52861E-04-1.40060E-14-2.46474E-13
 -1      1146 2.00617E+01-1.88471E-03-2.22055E-03 2.44494E-05-1.38683E-14-1.54082E-13
 -1      1147 2.01250E+01-2.53148E-03-3.06194E-03 3.44327E-04-4.23561E-14-3.90734E-13
 -1      1148 2.02101E+01-3.19998E-03-3.96576E-03 8.44864E-04-6.14201E-16-4.03666E-13
 -1      1149 2.03234E+01-3.83204E-03-4.86974E-03 1.56865E-03-7.41090E-15-5.18806E-14
 -1      1150 2.04711E+01-4.32475E-03-5.65135E-03 2.55487E-03 4.03812E-14-6.38435E-14
 -1      1151 2.06584E+01-4.51329E-03-6.09915E-03 3.82398E-03 1.15836E-14-2.66022E-13
 -1      1152 2.08883E+01-4.15367E-03-5.87952E-03 5.35045E-03 1.86142E-14-1.52862E-13
 -1      1153 2.11587E+01-2.91275E-03-4.50755E-03 7.01846E-03 3.36265E-14 2.38446E-14
 -1      1154 2.14595E+01-3.80629E-04-1.34486E-03 8.55657E-03-7.73578E-14 1.03107E-13
 -1      1155 2.17684E+01 3.86704E-03 4.32932E-03 9.45498E-03 1.89275E-14-8.64100E-14
 -1      1156 2.20454E+01 1.01157E-02 1.30973E-02 8.88900E-03 1.71317E-14-1.65850E-13
 -1      1157 2.22297E+01 1.82240E-02 2.49418E-02 5.71297E-03 1.18718E-14-4.74213E-14
 -1      1158 2.22396E+01 2.71951E-02 3.85142E-02-1.35225E-03 2.23415E-14-1.04818E-13
 -1      1159 2.19818E+01 3.47269E-02 5.03296E-02-1.31715E-02-1.15945E-14 8.52166E-14
 -1      1160 2.13752E+01 3.71069E-02 5.45630E-02-2.92069E-02-2.25848E-14-2.61582E-13
 -1      1161 2.03908E+01 3.01287E-02 4.45369E-02-4.63882E-02 4.06966E-15-1.20154E-13
 -1      1162 1.90977E+01 1.14600E-02 1.65670E-02-5.87985E-02-3.27009E-14 2.09277E-14
 -1      1163 1.76893E+01-1.62482E-02-2.51306E-02-5.94115E-02 3.49653E-14 1.70183E-13
 -1      1164 1.64548E+01-4.39490E-02-6.66334E-02-4.41140E-02-2.16671E-14 3.19494E-13
 -1      1165 1.56829E+01-5.96887E-02-8.99651E-02-1.57728E-02-1.26687E-14 2.42915E-13
 -1      1166 1.55362E+01-5.62306E-02-8.44008E-02 1.57687E-02-3.08928E-14 9.59944E-14
 -1      1167 1.59762E+01-3.64781E-02-5.43781E-02 3.90531E-02 6.88299E-14 6.78207E-14
 -1      1168 1.67936E+01-1.13817E-02-1.65345E-02 4.78402E-02 5.04262E-15-3.03785E-14
 -1      1169 1.77250E+01 7.69112E-03 1.18349E-02 4.40982E-02 3.33657E-14 2.13503E-13
 -1      1170 1.85736E+01 1.59934E-02 2.40630E-02 3.52448E-02-2.64250E-14 1.48152E-13
 -1      1171 1.92589E+01 1.70650E-02 2.74373E-02 2.78809E-02-2.98242E-14-9.97778E-14
 -1      1172 1.97678E+01 1.95440E-02 3.69276E-02 2.14210E-02 2.83367E-15-3.71292E-13
 -1      1173 1.99936E+01 6.12948E-03 1.96041E-02 4.80841E-04 7.91113E-14 2.57424E-14
 -1      1174 2.77934E+01 5.25749E-01 3.76947E-01 1.96665E+00-3.48749E-14 3.08076E-12
 -1      1175 2.00869E+01-6.62507E-02-5.73636E-01 1.29452E-01 2.97262E-14 2.31637E-12
 -1      1176 1.89102E+01-4.06178E-02-1.93236E-01 1.94069E-02 1.95633E-14 1.59055E-12
 -1      1177 1.85309E+01-2.14331E-02-5.05750E-02 1.45344E-03 2.11936E-14 1.07633E-12
 -1      1178 1.84600E+01-1.24223E-02-1.34304E-02-4.08586E-03 1.36258E-14 6.93171E-13
 -1      1179 1.85359E+01-7.41694E-03-4.68699E-03-5.54581E-03 1.70528E-14 4.30867E-13
 -1      1180 1.86802E+01-4.33658E-03-1.95513E-03-5.74060E-03 5.02170E-15 3.20492E-13
 -1      1181 1.88514E+01-2.35981E-03-3.63376E-04-5.46761E-03-1.44356E-15 2.42783E-13
 -1      1182 1.90265E+01-1.08022E-03 7.63404E-04-4.97847E-03 2.42133E-14-5.92720E-14
 -1      1183 1.91921E+01-2.65075E-04 1.48533E-03-4.38786E-03 1.21995E-14-3.06139E-13
 -1      1184 1.93413E+01 2.32751E-04 1.86714E-03-3.76307E-03 2.08808E-14-4.19887E-13
 -1      1185 1.94710E+01 5.11544E-04 1.99686E-03-3.14614E-03-1.35067E-14-4.51763E-13
 -1      1186 1.95804E+01 6.38614E-04 1.95403E-03-2.56221E-03 1.56221E-14-4.65231E-13
 -1      1187 1.96706E+01 6.60029E-04 1.79872E-03-2.02426E-03-3.15974E-14-4.47512E-13
 -1      1188 1.97433E+01 6.06345E-04 1.57193E-03-1.53630E-03 9.82249E-15-6.24922E-13
 -1      1189 1.98011E+01 4.96201E-04 1.29844E-03-1.09580E-03-5.93289E-16-6.65040E-13
 -1      1190 1.98468E+01 3.38667E-04 9.89693E-04-6.95640E-04-2.78069E-14-7.49830E-13
 -1      1191 1.98833E+01 1.34754E-04 6.45809E-04-3.25548E-04 2.40101E-14-9.39997E-13
 -1      1192 1.99139E+01-1.21748E-04 2.56924E-04 2.67309E-05-1.80649E-14-1.24333E-12
 -1      1193 1.99420E+01-4.43990E-04-1.96343E-04 3.74609E-04 3.12831E-15-1.18888E-12
 -1      1194 1.99715E+01-8.52344E-04-7.43245E-04 7.32003E-04 1.61711E-14-1.17780E-12
 -1      1195 2.00069E+01-1.37521E-03-1.42420E-03 1.11272E-03-9.32185E-15-1.13898E-12
 -1      1196 2.00535E+01-2.05036E-03-2.29317E-03 1.52966E-03-3.77939E-15-1.08708E-12
 -1      1197 2.01179E+01-2.92664E-03-3.42126E-03 1.99344E-03-4.41084E-14-9.97442E-13
 -1      1198 2.02084E+01-4.06559E-03-4.90138E-03 2.50960E-03 9.97661E-15-7.16708E-13
 -1      1199 2.03356E+01-5.54149E-03-6.85333E-03 3.07303E-03-5.66902E-15-7.19606E-13
 -1      1200 2.05129E+01-7.43678E-03-9.42640E-03 3.65664E-03-1.23646E-14-4.58981E-13
 -1      1201 2.07576E+01-9.82583E-03-1.27927E-02 4.18954E-03 3.52924E-14-8.00187E-13
 -1      1202 2.10917E+01-1.27329E-02-1.71140E-02 4.51631E-03-2.64828E-14-9.51543E-13
 -1      1203 2.15424E+01-1.60379E-02-2.24444E-02 4.32496E-03-1.76831E-14-9.16711E-13
 -1      1204 2.21422E+01-1.92851E-02-2.84908E-02 3.02978E-03 3.31397E-14-1.05658E-12
 -1      1205 2.29259E+01-2.13346E-02-3.40928E-02-3.90821E-04 1.08106E-14-9.83567E-13
 -1      1206 2.39232E+01-1.98235E-02-3.62376E-02-7.53691E-03-1.31080E-14-7.19629E-13
 -1      1207 2.51400E+01-1.05862E-02-2.85792E-02-2.04513E-02-1.42570E-14-3.32234E-13
 -1      1208 2.65204E+01 1.22189E-02-2.91256E-04-4.05220E-02-3.55831E-14-3.57880E-13
 -1      1209 2.78833E+01 5.32758E-02 6.15545E-02-6.51976E-02-2.80652E-14-6.54102E-13
 -1      1210 2.88401E+01 1.07622E-01 1.59694E-01-8.18626E-02 5.96433E-14-1.02975E-12
 -1      1211 2.87619E+01 1.47411E-01 2.60418E-01-6.31541E-02-4.33230E-14-9.13630E-13
 -1      1212 2.69599E+01 1.21436E-01 2.74165E-01 2.02673E-02 4.05873E-14-8.51985E-13
 -1      1213 2.32596E+01 2.07764E-03 1.05147E-01 1.56009E-01 2.38082E-14-1.02168E-12
 -1      1214 1.87290E+01-1.42365E-01-2.09508E-01 2.53187E-01 1.79830E-14-8.23924E-13
 -1      1215 1.55782E+01-1.81089E-01-4.37014E-01 2.04848E-01-5.09280E-14-7.19855E-13
 -1      1216 1.55360E+01-8.97585E-02-3.75558E-01 2.28539E-02 1.49394E-14-1.50531E-12
 -1      1217 1.81693E+01 2.70331E-02-1.01651E-01-1.49103E-01 5.81310E-14-1.75138E-12
 -1      1218 2.13451E+01 8.10524E-02 1.43463E-01-1.97477E-01 5.62102E-14-1.63639E-12
 -1      1219 2.31822E+01 7.11087E-02 2.21279E-01-1.34179E-01 7.21263E-14-1.59923E-12
 -1      1220 2.31766E+01 2.61263E-02 1.54391E-01-3.37734E-02-1.90160E-14-1.12389E-12
 -1      1221 2.19269E+01-2.96699E-02 2.40122E-02 4.72738E-02-2.01147E-14-7.06220E-13
 -1      1222 2.04865E+01-6.97639E-02-8.03801E-02 7.01115E-02 7.71466E-14-8.23043E-13
 -1      1223 1.99489E+01 1.92281E-02 2.36833E-02-1.75429E-02-4.37948E-14-6.21550E-13
 -1      1224 2.00197E+01-4.93179E-02 4.55857E-03-1.40281E-02-6.04855E-13-3.20343E-14
 -1      1225 1.99114E+01 5.24445E-01-1.52833E-01 2.69630E-02-9.16524E-14-3.84293E-14
 -1      1226 1.99184E+01 2.35565E+00-1.38877E-01 9.92144E-02 7.30888E-13 1.26735E-13
 -1      1227 1.99656E+01 5.11649E+00-5.93305E-02 1.45198E-01 3.42629E-13-8.66867E-14
 -1      1228 2.00497E+01 8.25988E+00 7.31932E-02 1.55834E-01 3.74450E-13-4.05301E-14
 -1      1229 2.01445E+01 1.08943E+01 2.17108E-01 1.09886E-01 3.13680E-13-3.42261E-14
 -1      1230 2.01950E+01 1.20870E+01 2.92775E-01 1.59670E-02-1.73242E-13-1.84150E-13
 -1      1231 2.01666E+01 1.13227E+01 2.49962E-01-8.93663E-02-3.47972E-13-5.13894E-14
 -1      1232 2.00774E+01 8.87143E+00 1.14385E-01-1.52331E-01-7.38576E-13-3.52374E-14
 -1      1233 1.99815E+01 5.64997E+00-3.30998E-02-1.53533E-01-4.34874E-13 5.24943E-14
 -1      1234 1.99207E+01 2.65022E+00-1.26881E-01-1.10083E-01-5.53418E-13-1.26218E-13
 -1      1235 1.99015E+01 5.10818E-01-1.52882E-01-5.22157E-02-7.67136E-13-3.77649E-14
 -1      1236 1.99158E+01-6.28577E-01-1.28713E-01-5.73833E-03-6.37875E-14 2.21176E-13
 -1      1237 1.99446E+01-9.28073E-01-8.12349E-02 2.59520E-02 1.78787E-12 3.26128E-15
 -1      1238 1.99850E+01-6.79316E-01-2.45958E-02 4.07042E-02 9.03416E-13-5.55129E-14
 -1      1239 2.00032E+01-2.52587E-01 1.91373E-02 3.57252E-02 4.92533E-13-8.57059E-14
 -1      1240 1.99971E+01-1.45061E-02 1.25620E-02 8.82620E-03 9.89495E-14 9.21546E-14
 -1      1241-1.35214E+00-2.90433E+01-4.44200E+00-2.67898E+00 1.03390E-12 3.10654E-13
 -1      1242-2.19691E+00-1.91356E+01-3.65720E+00-5.12734E+00 9.25482E-13 2.14273E-13
 -1      1243-2.22775E-01-4.71834E+00-2.20381E+00-1.24353E+00 4.34319E-13 1.20126E-13
 -1      1244 9.78656E+00 7.64060E+00-2.51047E-01 8.47072E+00 6.32161E-13 7.80709E-13
 -1      1245 2.96748E+01 1.22656E+01 1.85009E+00 1.80582E+01 5.76872E-13 9.45244E-13
 -1      1246 5.32645E+01 8.83109E+00 3.72071E+00 1.97752E+01 4.58356E-13 1.08735E-12
 -1      1247 7.00462E+01 3.73680E+00 4.84901E+00 1.08809E+01 1.67318E-13 1.00453E-12
 -1      1248 7.25785E+01 2.33262E+00 4.93417E+00-3.37903E+00 9.47159E-14 1.56763E-13
 -1      1249 5.97797E+01 5.46196E+00 3.96954E+00-1.50097E+01 3.18412E-13-9.37472E-13
 -1      1250 3.75576E+01 9.64412E+00 2.21524E+00-1.76874E+01 5.68989E-13-1.00719E-12
 -1      1251 1.62918E+01 9.10255E+00 3.05657E-01-1.17644E+01 1.03562E-12-1.12710E-12
 -1      1252 2.71839E+00 1.17088E+00-1.53468E+00-2.41228E+00 1.53078E-12-1.26588E-12
 -1      1253-2.19185E+00-1.18573E+01-2.87509E+00 4.22826E+00 1.40066E-12-7.39964E-13
 -1      1254-1.86308E+00-2.39060E+01-3.78599E+00 4.82905E+00 9.84990E-13-2.54102E-13
 -1      1255-1.07083E+00-2.77255E+01-3.94208E+00 4.01139E-01 6.75016E-14-1.63536E-13
 -1      1256-1.47981E+00-2.26426E+01-3.58111E+00-3.78805E+00-1.12910E-12-2.85577E-13
 -1      1257-1.50922E+00-1.03881E+01-2.57860E+00-3.24142E+00-6.78124E-13-2.74780E-13
 -1      1258 2.97195E+00 2.59397E+00-1.21180E+00 3.11754E+00-8.14016E-13-5.32685E-13
 -1      1259 1.47167E+01 1.05041E+01 4.07053E-01 1.20460E+01-1.31051E-12-1.51434E-12
 -1      1260 3.40491E+01 1.12679E+01 2.04576E+00 1.83804E+01-9.56568E-13-1.60938E-12
 -1      1261 5.55402E+01 6.57102E+00 3.46972E+00 1.69062E+01-2.47302E-13-6.00631E-13
 -1      1262 6.88208E+01 2.48269E+00 4.26972E+00 6.52976E+00-7.99603E-14-3.29570E-13
 -1      1263 6.92137E+01 2.38470E+00 4.32857E+00-7.59073E+00-1.43961E-13 7.56950E-13
 -1      1264 5.47177E+01 7.47546E+00 3.55942E+00-1.79699E+01-6.50202E-13 1.67577E-12
 -1      1265 3.31890E+01 1.20254E+01 2.17083E+00-1.89996E+01-1.16096E-12 1.82965E-12
 -1      1266 1.30171E+01 9.78728E+00 2.82677E-01-1.09910E+01-1.95510E-12 1.93801E-12
 -1      1267 1.06496E+00-1.24093E+00-1.67917E+00-6.44456E-01-1.66311E-12 1.30118E-12
 -1      1268-2.01772E+00-1.65657E+01-3.33307E+00 4.69680E+00-4.24327E-13 3.83027E-13
 -1      1269-1.29838E+00-2.83982E+01-4.34733E+00 2.79103E+00-8.57092E-14 2.58751E-14
 -1      1270 2.22679E+01 1.83826E+00-7.25856E-01-2.79047E+00-6.97498E-14 1.86112E-12
 -1      1271 2.03603E+01 4.69031E+00-4.86386E-02-3.30666E+00-2.43305E-13 2.32807E-13
 -1      1272 2.08679E+01 4.81080E+00-1.13330E-01-4.16094E+00-2.98955E-13 6.22322E-13
 -1      1273 1.95324E+01 4.99347E+00-1.96043E-02-2.65425E+00-2.64802E-13-3.28956E-13
 -1      1274 1.98305E+01 5.09040E+00 2.85755E-04-3.04530E+00-2.95812E-13-8.12059E-14
 -1      1275 2.05268E+01 3.95289E+00-2.58803E-02-3.07464E+00-4.39856E-13 2.03462E-13
 -1      1276 1.91842E+01 5.08424E+00-3.65005E-03-2.07000E+00-2.29393E-13-6.34180E-13
 -1      1277 1.93337E+01 5.13956E+00 1.06133E-02-2.36312E+00-2.57128E-13-4.93647E-13
 -1      1278 1.97547E+01 4.36614E+00-2.42647E-02-2.48924E+00-4.19267E-13-2.64559E-13
 -1      1279 1.90087E+01 5.13088E+00 3.28235E-03-1.56453E+00-1.86926E-13-8.06848E-13
 -1      1280 1.90863E+01 5.16081E+00 1.25679E-02-1.81446E+00-2.06529E-13-7.28043E-13
 -1      1281 1.93926E+01 4.55577E+00-1.95301E-02-1.93094E+00-3.49379E-13-5.30027E-13
 -1      1282 1.89152E+01 5.16056E+00 6.60080E-03-1.11681E+00-1.40922E-13-8.94477E-13
 -1      1283 1.89576E+01 5.17688E+00 1.27371E-02-1.33827E+00-1.60776E-13-8.47367E-13
 -1      1284 1.92055E+01 4.66140E+00-1.60501E-02-1.44470E+00-2.84931E-13-6.75852E-13
 -1      1285 1.88635E+01 5.18036E+00 8.19548E-03-6.93618E-01-1.03193E-13-9.37266E-13
 -1      1286 1.88866E+01 5.18925E+00 1.20340E-02-9.03782E-01-1.16071E-13-9.16045E-13
 -1      1287 1.91024E+01 4.72679E+00-1.39410E-02-1.00400E+00-2.14102E-13-7.48526E-13
 -1      1288 1.88394E+01 5.19227E+00 9.28233E-03-2.89075E-01-5.24103E-14-9.64444E-13
 -1      1289 1.88493E+01 5.19611E+00 1.10640E-02-4.91122E-01-7.19121E-14-9.47045E-13
 -1      1290 1.90464E+01 4.76577E+00-1.29093E-02-5.88618E-01-1.44013E-13-7.81337E-13
 -1      1291 1.88357E+01 5.19721E+00 1.02129E-02 1.08181E-01-1.69912E-14-9.84383E-13
 -1      1292 1.88353E+01 5.19707E+00 1.01404E-02-9.14163E-02-2.71713E-14-9.74481E-13
 -1      1293 1.90221E+01 4.78377E+00-1.24753E-02-1.89047E-01-6.68656E-14-8.09609E-13
 -1      1294 1.88511E+01 5.19574E+00 1.11526E-02 5.08481E-01 2.36556E-14-9.91800E-13
 -1      1295 1.88404E+01 5.19162E+00 9.21543E-03 3.06011E-01 8.59783E-15-9.88518E-13
 -1      1296 1.90230E+01 4.78312E+00-1.24953E-02 2.05715E-01-5.32235E-15-8.26447E-13
 -1      1297 1.88898E+01 5.18809E+00 1.20885E-02 9.22638E-01 6.06459E-14-9.83933E-13
 -1      1298 1.88659E+01 5.17904E+00 8.12461E-03 7.11515E-01 5.06420E-14-9.91554E-13
 -1      1299 1.90490E+01 4.76369E+00-1.29811E-02 6.05996E-01 6.25964E-14-8.35013E-13
 -1      1300 1.89619E+01 5.17514E+00 1.28970E-02 1.35577E+00 1.10874E-13-9.47624E-13
 -1      1301 1.89185E+01 5.15837E+00 6.43991E-03 1.13292E+00 9.22105E-14-9.69530E-13
 -1      1302 1.91066E+01 4.72327E+00-1.40027E-02 1.01922E+00 1.30584E-13-8.17749E-13
 -1      1303 1.90949E+01 5.15674E+00 1.28295E-02 1.84038E+00 1.68405E-13-8.66057E-13
 -1      1304 1.90152E+01 5.12635E+00 3.13513E-03 1.58760E+00 1.46264E-13-9.16944E-13
 -1      1305 1.92123E+01 4.65492E+00-1.61458E-02 1.46227E+00 2.14171E-13-7.71980E-13
 -1      1306 1.93439E+01 5.13354E+00 1.01797E-02 2.39747E+00 2.32016E-13-6.91523E-13
 -1      1307 1.91936E+01 5.07637E+00-4.38384E-03 2.10019E+00 2.02255E-13-7.98660E-13
 -1      1308 1.94053E+01 4.54249E+00-1.99831E-02 1.95791E+00 3.03468E-13-6.70512E-13
 -1      1309 1.98559E+01 5.09951E+00 6.06618E-03 3.08363E+00 2.81775E-13-3.31651E-13
 -1      1310 1.95437E+01 4.98448E+00-2.05444E-02 2.69622E+00 2.46317E-13-5.53588E-13
 -1      1311 1.97750E+01 4.34647E+00-2.45582E-02 2.52778E+00 3.91100E-13-4.57176E-13
 -1      1312 2.11039E+01 4.90706E+00 8.32884E-03 4.05379E+00 2.61374E-13 4.10907E-13
 -1      1313 2.03349E+01 4.73391E+00-4.79627E-02 3.41607E+00 2.49412E-13-4.75939E-14
 -1      1314 2.05651E+01 3.91597E+00-2.24045E-02 3.17817E+00 4.35492E-13-3.81500E-14
 -1      1315 2.72035E+01 3.20541E+00 9.29018E-01 4.58222E+00 1.47507E-13 1.91497E-12
 -1      1316 2.20208E+01 3.52223E+00-1.81994E-01 3.88488E+00 1.41220E-13 8.58369E-13
 -1      1317 2.21131E+01 2.56180E+00-3.25394E-02 3.45642E+00 4.37404E-13 6.41348E-13
 -1      1318 2.14277E+01 3.59569E-01-7.63533E-01 1.18376E+00 2.46733E-13 1.80606E-12
 -1      1319 2.20022E+01 1.31351E-01-4.00864E-01-1.28560E+00-2.34035E-13 1.91938E-12
 -1      1320 2.06796E+01 3.06695E-01-1.64809E-01-8.05667E-01-2.22523E-13 1.65709E-12
 -1      1321 2.00820E+01 1.53467E-01-7.35360E-02-4.02051E-01-1.72133E-13 1.53549E-12
 -1      1322 1.96123E+01 9.11876E-02-1.49348E-02-3.29907E-01-1.68279E-13 1.28507E-12
 -1      1323 2.09735E+01 3.69156E-01-1.04236E-01-1.27376E+00-3.77094E-13 9.45802E-13
 -1      1324 1.92550E+01 6.45379E-02 3.01913E-03-1.35256E-01-1.36972E-13 1.20083E-12
 -1      1325 1.91008E+01 4.13001E-02 1.32035E-02-1.17425E-01-1.26005E-13 1.01315E-12
 -1      1326 1.99228E+01 1.33910E-01-3.51662E-02-5.03839E-01-2.92936E-13 7.66240E-13
 -1      1327 1.89406E+01 3.15331E-02 1.32338E-02-2.78692E-02-8.91457E-14 9.21381E-13
 -1      1328 1.89213E+01 1.93752E-02 1.10594E-02-1.84958E-02-7.74103E-14 8.04027E-13
 -1      1329 1.94458E+01 5.55135E-02-8.51473E-03-1.69747E-01-2.19397E-13 6.01972E-13
 -1      1330 1.88653E+01 1.60027E-02 8.77413E-03 2.51272E-02-5.08166E-14 7.48743E-13
 -1      1331 1.89078E+01 9.06678E-03 6.43352E-03 2.97510E-02-4.81338E-14 6.92215E-13
 -1      1332 1.92370E+01 2.43812E-02-3.50631E-03-1.09259E-02-1.34563E-13 4.63880E-13
 -1      1333 1.89079E+01 7.85354E-03 4.66831E-03 5.09021E-02-4.38824E-14 6.61152E-13
 -1      1334 1.89784E+01 3.50011E-03 3.63906E-03 5.27928E-02-5.24168E-14 6.01825E-13
 -1      1335 1.91804E+01 1.01844E-02-2.21952E-03 6.77139E-02-9.89332E-14 3.84395E-13
 -1      1336 1.90079E+01 3.18453E-03 2.44022E-03 6.15802E-02-5.64559E-14 5.69923E-13
 -1      1337 1.90885E+01 3.22941E-04 2.20929E-03 6.18459E-02-5.79901E-14 4.85782E-13
 -1      1338 1.92066E+01 2.77366E-03-1.32218E-03 1.04525E-01-1.00099E-13 3.12803E-13
 -1      1339 1.91321E+01 4.34434E-04 1.33088E-03 6.35107E-02-6.59898E-14 4.47814E-13
 -1      1340 1.92130E+01-1.47788E-03 1.43843E-03 6.28225E-02-6.38272E-14 3.71344E-13
 -1      1341 1.92757E+01-1.31418E-03-5.55031E-04 1.17760E-01-1.24296E-13 2.53003E-13
 -1      1342 1.92615E+01-1.15577E-03 7.46379E-04 6.04051E-02-5.24422E-14 3.31976E-13
 -1      1343 1.93371E+01-2.42664E-03 9.70000E-04 5.91957E-02-5.64906E-14 2.51329E-13
 -1      1344 1.93639E+01-3.52723E-03 5.75625E-06 1.17365E-01-1.05850E-13 1.91002E-13
 -1      1345 1.93851E+01-2.00909E-03 4.10197E-04 5.45809E-02-4.00210E-14 2.35650E-13
 -1      1346 1.94526E+01-2.83134E-03 6.58855E-04 5.31342E-02-4.95063E-15 2.04828E-13
 -1      1347 1.94570E+01-4.59491E-03 3.59547E-04 1.09284E-01-8.30392E-14 1.37906E-13
 -1      1348 1.94972E+01-2.38435E-03 2.06638E-04 4.75276E-02 4.47700E-15 1.49621E-13
 -1      1349 1.95554E+01-2.88750E-03 4.44174E-04 4.60293E-02-1.67444E-14 1.29715E-13
 -1      1350 1.95466E+01-4.94082E-03 5.50840E-04 9.72648E-02-3.80799E-14 8.80279E-14
 -1      1351 1.95950E+01-2.44898E-03 8.33279E-05 4.02078E-02-4.35313E-14 9.09130E-14
 -1      1352 1.96439E+01-2.72376E-03 2.95744E-04 3.87766E-02-4.39629E-14 2.90523E-14
 -1      1353 1.96283E+01-4.83148E-03 6.27471E-04 8.37163E-02-6.27085E-14-7.50033E-14
 -1      1354 1.96780E+01-2.31411E-03 1.24317E-05 3.32359E-02-9.52520E-15 1.84718E-14
 -1      1355 1.97181E+01-2.42514E-03 1.95515E-04 3.19456E-02-2.46299E-14-8.15125E-15
 -1      1356 1.96999E+01-4.44097E-03 6.27089E-04 7.01903E-02-6.08714E-14-9.80089E-14
 -1      1357 1.97468E+01-2.05309E-03-2.30432E-05 2.69964E-02 1.41467E-15-2.04504E-14
 -1      1358 1.97792E+01-2.04619E-03 1.31438E-04 2.58910E-02-2.36306E-14-3.60499E-14
 -1      1359 1.97610E+01-3.88286E-03 5.76295E-04 5.76730E-02-3.41472E-14-1.17467E-13
 -1      1360 1.98030E+01-1.71226E-03-3.43324E-05 2.17261E-02-2.43495E-14 3.05155E-14
 -1      1361 1.98289E+01-1.61914E-03 9.50376E-05 2.08318E-02-5.99987E-15 1.47572E-14
 -1      1362 1.98122E+01-3.22794E-03 4.92755E-04 4.67821E-02 4.49611E-15-4.12925E-14
 -1      1363 1.98488E+01-1.31786E-03-2.92196E-05 1.75749E-02 7.83416E-15 4.01812E-14
 -1      1364 1.98696E+01-1.15949E-03 8.01778E-05 1.69088E-02-4.47728E-14 5.96357E-15
 -1      1365 1.98549E+01-2.51527E-03 3.87317E-04 3.79070E-02 3.31647E-15 7.70586E-14
 -1      1366 1.98865E+01-8.80953E-04-1.33322E-05 1.46512E-02-3.85319E-14 4.64484E-15
 -1      1367 1.99039E+01-6.70411E-04 8.22898E-05 1.42282E-02-1.44424E-14-3.54038E-14
 -1      1368 1.98908E+01-1.75989E-03 2.65688E-04 3.13130E-02-3.19545E-14 1.05455E-13
 -1      1369 1.99190E+01-4.01273E-04 8.99173E-06 1.30560E-02-1.74783E-14-5.90559E-14
 -1      1370 1.99345E+01-1.46200E-04 9.77894E-05 1.28938E-02-1.44919E-14-7.27739E-14
 -1      1371 1.99222E+01-9.58809E-04 1.29766E-04 2.72181E-02-3.32926E-14 1.31661E-14
 -1      1372 1.99492E+01 1.29495E-04 3.40330E-05 1.29068E-02-7.32405E-14-1.21459E-13
 -1      1373 1.99646E+01 4.24393E-04 1.23548E-04 1.30293E-02-1.06263E-13-2.44774E-13
 -1      1374 1.99514E+01-9.60781E-05-2.12711E-05 2.58491E-02-9.35768E-14-1.25701E-13
 -1      1375 1.99803E+01 7.24475E-04 5.81129E-05 1.43527E-02-5.10628E-14-2.81298E-13
 -1      1376 1.99977E+01 1.05471E-03 1.56351E-04 1.47924E-02-3.52608E-14-2.99050E-13
 -1      1377 1.99813E+01 8.52292E-04-1.89958E-04 2.74787E-02-1.20539E-13-1.91457E-13
 -1      1378 2.00161E+01 1.39787E-03 7.70624E-05 1.75803E-02 5.17389E-15-2.37860E-13
 -1      1379 2.00375E+01 1.75593E-03 1.92292E-04 1.83775E-02 2.82547E-14-1.90411E-13
 -1      1380 2.00150E+01 1.91273E-03-3.79475E-04 3.24443E-02 1.55706E-14-2.45792E-13
 -1      1381 2.00606E+01 2.16007E-03 8.57348E-05 2.28054E-02-3.89283E-14-2.17319E-13
 -1      1382 2.00886E+01 2.53123E-03 2.26112E-04 2.40062E-02-6.54102E-14-2.53890E-13
 -1      1383 2.00558E+01 3.10680E-03-5.92352E-04 4.11432E-02 6.32957E-16-2.05968E-13
 -1      1384 2.01183E+01 3.01075E-03 7.76100E-05 3.02497E-02-4.56027E-14-2.15566E-13
 -1      1385 2.01556E+01 3.36773E-03 2.50482E-04 3.18995E-02-2.98589E-14-2.51044E-13
 -1      1386 2.01076E+01 4.44077E-03-8.28768E-04 5.39988E-02-6.66636E-14-1.07272E-13
 -1      1387 2.01941E+01 3.92894E-03 4.46316E-05 4.00920E-02 1.87293E-14-1.77333E-13
 -1      1388 2.02436E+01 4.22490E-03 2.55402E-04 4.22235E-02 4.95092E-14-1.19867E-13
 -1      1389 2.01744E+01 5.89044E-03-1.08419E-03 7.13851E-02 4.86186E-14-7.53024E-15
 -1      1390 2.02931E+01 4.85887E-03-2.24356E-05 5.23856E-02 3.66955E-14-1.50997E-13
 -1      1391 2.03580E+01 5.01865E-03 2.28002E-04 5.49993E-02 7.95143E-15-5.84987E-14
 -1      1392 2.02608E+01 7.37910E-03-1.34610E-03 9.34919E-02 5.61697E-14-8.84230E-14
 -1      1393 2.04205E+01 5.69032E-03-1.32606E-04 6.69280E-02-5.27584E-14-6.10000E-14
 -1      1394 2.05034E+01 5.60038E-03 1.53367E-04 6.99614E-02-2.25097E-14-9.92847E-14
 -1      1395 2.03707E+01 8.74655E-03-1.58944E-03 1.20110E-01-3.36460E-14-7.81785E-14
 -1      1396 2.05805E+01 6.23319E-03-2.91389E-04 8.30696E-02 3.48593E-15-2.05600E-13
 -1      1397 2.06831E+01 5.73178E-03 1.74301E-05 8.63521E-02-1.01063E-14-2.29930E-13
 -1      1398 2.05078E+01 9.70796E-03-1.77061E-03 1.50309E-01-7.60753E-14-1.60544E-13
 -1      1399 2.07752E+01 6.18795E-03-4.94443E-04 9.94484E-02 5.41751E-14-2.64868E-13
 -1      1400 2.08975E+01 5.05976E-03-1.86619E-04 1.02640E-01 8.12358E-14-1.80585E-13
 -1      1401 2.06741E+01 9.80452E-03-1.82009E-03 1.81984E-01 1.50425E-14-2.42694E-13
 -1      1402 2.10031E+01 5.11868E-03-7.16971E-04 1.13655E-01 5.66515E-14-1.63676E-13
 -1      1403 2.11418E+01 3.10295E-03-4.46898E-04 1.16168E-01 2.57143E-14-9.06827E-15
 -1      1404 2.08688E+01 8.35574E-03-1.63450E-03 2.11265E-01 1.11087E-13-2.82349E-13
 -1      1405 2.12565E+01 2.44600E-03-8.98755E-04 1.21869E-01-5.70737E-14 1.40624E-13
 -1      1406 2.14035E+01-7.25435E-04-7.16342E-04 1.22786E-01-5.15018E-14 5.60116E-14
 -1      1407 2.10863E+01 4.43922E-03-1.07110E-03 2.31851E-01 3.19813E-14-9.97895E-14
 -1      1408 2.15186E+01-2.50488E-03-9.28487E-04 1.18576E-01-6.65655E-14 1.08169E-14
 -1      1409 2.16584E+01-7.01355E-03-8.95905E-04 1.16600E-01-5.64450E-14-3.95855E-14
 -1      1410 2.13142E+01-3.04677E-03 4.84208E-05 2.34410E-01-1.08199E-13 8.80513E-14
 -1      1411 2.17598E+01-1.03408E-02-6.39534E-04 9.66336E-02-2.38728E-14-8.05606E-14
 -1      1412 2.18678E+01-1.60996E-02-8.31397E-04 9.01351E-02 2.17148E-14-6.65093E-14
 -1      1413 2.15308E+01-1.51413E-02 1.91094E-03 2.06450E-01-6.38953E-14 6.86532E-14
 -1      1414 2.19351E+01-2.12411E-02 1.59304E-04 4.81110E-02-5.96671E-14-1.75405E-13
 -1      1415 2.19774E+01-2.76081E-02-3.49926E-04 3.53930E-02-5.96034E-14-2.48793E-13
 -1      1416 2.17028E+01-3.22689E-02 4.63881E-03 1.33333E-01-7.33341E-14-9.30007E-14
 -1      1417 2.19848E+01-3.43469E-02 1.58559E-03-3.34805E-02 1.25292E-13-2.74694E-13
 -1      1418 2.19200E+01-3.97835E-02 6.34830E-04-5.35340E-02 1.13244E-13-1.12469E-13
 -1      1419 2.17853E+01-5.32759E-02 8.14615E-03 1.47132E-03-9.59519E-15-1.90118E-13
 -1      1420 2.18394E+01-4.69825E-02 3.50361E-03-1.49061E-01-7.87616E-14-6.76733E-14
 -1      1421 2.16273E+01-4.88639E-02 1.94646E-03-1.75861E-01-9.95263E-14-1.72078E-13
 -1      1422 2.17249E+01-7.41718E-02 1.19204E-02-1.95256E-01 4.04060E-14-2.67466E-13
 -1      1423 2.14355E+01-5.41639E-02 5.32553E-03-2.88290E-01-6.15844E-14-1.44631E-13
 -1      1424 2.10518E+01-4.91713E-02 2.99291E-03-3.18145E-01-1.99701E-14-1.07355E-13
 -1      1425 2.14699E+01-8.72576E-02 1.47975E-02-4.45815E-01-6.01880E-14-2.98120E-13
 -1      1426 2.07417E+01-4.93670E-02 6.01340E-03-4.24694E-01 8.52161E-14-1.90195E-13
 -1      1427 2.01978E+01-3.49299E-02 2.83394E-03-4.50014E-01 4.35364E-14-1.52753E-13
 -1      1428 2.09880E+01-8.21613E-02 1.49516E-02-7.11928E-01 1.59144E-14-2.07697E-13
 -1      1429 1.97916E+01-2.75710E-02 4.49565E-03-5.16698E-01 1.90598E-14-1.98799E-14
 -1      1430 1.91502E+01-4.21386E-03 6.82883E-04-5.27280E-01 5.46035E-14 5.80785E-15
 -1      1431 2.02906E+01-5.02474E-02 1.04983E-02-9.25189E-01 5.81436E-14-1.03683E-13
 -1      1432 1.87066E+01 9.93526E-03 5.52320E-04-5.19956E-01 1.94831E-14-1.89085E-15
 -1      1433 1.80810E+01 3.67311E-02-3.23923E-03-5.07337E-01-2.60265E-14 3.65055E-14
 -1      1434 1.94551E+01 8.03478E-03 8.40903E-04-1.00175E+00 5.11144E-14 6.50365E-14
 -1      1435 1.76872E+01 5.21996E-02-4.40237E-03-4.10571E-01-2.40242E-14 8.33708E-14
 -1      1436 1.72118E+01 7.29740E-02-7.21505E-03-3.74090E-01-5.50324E-14-2.57641E-14
 -1      1437 1.86261E+01 7.74258E-02-1.17783E-02-8.78713E-01 2.94747E-14-1.91080E-14
 -1      1438 1.69556E+01 8.16748E-02-7.81329E-03-2.06964E-01-9.64081E-14-9.80847E-14
 -1      1439 1.67349E+01 8.78813E-02-8.82148E-03-1.56918E-01-2.37657E-14-1.03224E-13
 -1      1440 1.79806E+01 1.31380E-01-2.21208E-02-5.58359E-01-1.47715E-13-1.61636E-13
 -1      1441 1.66665E+01 8.48106E-02-7.77586E-03 2.96932E-02 3.74310E-14-1.23945E-13
 -1      1442 1.67297E+01 7.44844E-02-6.76651E-03 7.62812E-02-3.55297E-14-1.67075E-13
 -1      1443 1.76599E+01 1.46195E-01-2.49054E-02-1.26633E-01-1.25230E-14-3.43555E-13
 -1      1444 1.68385E+01 6.17487E-02-4.61670E-03 2.24343E-01-8.06343E-14-6.86066E-14
 -1      1445 1.71290E+01 4.09438E-02-2.13053E-03 2.53146E-01 1.28987E-13-4.08458E-14
 -1      1446 1.77040E+01 1.16608E-01-1.89160E-02 2.80755E-01 2.76740E-14-1.41533E-13
 -1      1447 1.73528E+01 2.63249E-02-6.28824E-04 3.27732E-01 1.60984E-13-1.91919E-13
 -1      1448 1.77617E+01 4.92354E-03 2.37792E-03 3.34679E-01 4.76912E-14-5.88141E-14
 -1      1449 1.80370E+01 5.99770E-02-8.00911E-03 5.48291E-01 1.00522E-13-2.55704E-13
 -1      1450 1.80213E+01-3.86058E-03 1.66786E-03 3.38019E-01 1.38394E-13 1.56541E-14
 -1      1451 1.84413E+01-1.85598E-02 4.44732E-03 3.29470E-01 9.55201E-14 1.82770E-13
 -1      1452 1.85133E+01 4.54147E-03 1.85876E-03 6.36895E-01 1.85481E-13 8.22077E-14
 -1      1453 1.86763E+01-1.88812E-02 1.44756E-03 2.90245E-01-9.33977E-14 6.32758E-14
 -1      1454 1.90410E+01-2.58669E-02 4.19160E-03 2.76573E-01-1.04025E-13-1.18103E-13
 -1      1455 1.89921E+01-2.91096E-02 6.84204E-03 5.87439E-01-1.36538E-14-2.81806E-14
 -1      1456 1.92244E+01-2.14452E-02 5.36519E-04 2.25089E-01-5.64787E-14-4.91430E-14
 -1      1457 1.95096E+01-2.60359E-02 4.02253E-03 2.12673E-01-1.26058E-13-2.18877E-13
 -1      1458 1.93891E+01-3.97498E-02 7.40826E-03 4.74405E-01-1.66902E-13-2.93997E-13
 -1      1459 1.96414E+01-2.57409E-02 2.70463E-03 1.55448E-01-7.47631E-14-1.29206E-13
 -1      1460 1.98372E+01-3.38265E-02 7.83733E-03 1.42553E-01 3.03490E-14-2.11884E-13
 -1      1461 1.96849E+01-4.64535E-02 8.55176E-03 3.46057E-01-7.20097E-14-1.26811E-13
 -1      1462 1.99593E+01-3.94425E-02 1.70701E-02 3.16157E-02 1.50852E-14 4.45520E-14
 -1      1463 1.99227E+01-9.82218E-02 1.01893E-02 1.58109E-01 1.70768E-13-9.32780E-14
 -1      1464 2.02606E+01 7.54737E-02-1.52088E-01 4.83788E-01 2.18953E-13 1.33859E-12
 -1      1465 2.15308E+01 2.16135E-01-2.29286E-01 7.20775E-01 1.84977E-13 1.68345E-12
 -1      1466 2.17294E+01 8.81743E-01-8.54757E-02 2.06471E+00 3.70363E-13 1.01169E-12
 -1      1467 1.93325E+01 3.23823E-02-2.13307E-02 1.85951E-01 1.64488E-13 9.10914E-13
 -1      1468 1.97531E+01 1.13621E-01-6.26977E-02 2.37962E-01 1.59137E-13 1.17818E-12
 -1      1469 2.03043E+01 1.87671E-01-5.51940E-02 7.86057E-01 3.28799E-13 7.21367E-13
 -1      1470 1.89509E+01 1.51072E-02 5.66704E-03 5.34421E-02 1.19529E-13 5.85303E-13
 -1      1471 1.90894E+01 5.16312E-02 9.79082E-04 7.97601E-02 1.18383E-13 7.90923E-13
 -1      1472 1.95594E+01 7.18395E-02-1.21588E-02 2.98864E-01 2.58328E-13 4.80740E-13
 -1      1473 1.88406E+01 7.12252E-03 6.97584E-03-9.06061E-03 8.54945E-14 3.59017E-13
 -1      1474 1.88551E+01 2.58652E-02 1.10896E-02 5.34400E-03 8.19002E-14 5.01210E-13
 -1      1475 1.92241E+01 3.10382E-02-2.46627E-03 8.33585E-02 1.82019E-13 2.90042E-13
 -1      1476 1.88668E+01 3.21001E-03 4.78216E-03-3.93170E-02 5.77860E-14 2.11314E-13
 -1      1477 1.88229E+01 1.38133E-02 8.52028E-03-3.11925E-02 5.08166E-14 3.00598E-13
 -1      1478 1.91077E+01 1.32647E-02-1.62194E-03-2.16287E-02 1.24889E-13 1.56528E-13
 -1      1479 1.89611E+01 1.05046E-03 3.29404E-03-5.27424E-02 1.25828E-14 1.35746E-13
 -1      1480 1.88905E+01 7.28180E-03 5.36710E-03-4.82662E-02 1.84427E-14 1.59024E-13
 -1      1481 1.91090E+01 4.53734E-03-1.63655E-03-7.31140E-02 6.97051E-14 5.12737E-14
 -1      1482 1.90855E+01-1.99747E-04 2.51209E-03-5.66738E-02 8.40192E-14 1.40634E-14
 -1      1483 1.90053E+01 3.44413E-03 3.43034E-03-5.44583E-02 5.75228E-14 1.00606E-13
 -1      1484 1.91718E+01-1.21680E-04-1.38093E-03-9.57269E-02 8.63951E-14-2.09177E-14
 -1      1485 1.92182E+01-9.08031E-04 2.04759E-03-5.51452E-02 7.98574E-14-2.02999E-13
 -1      1486 1.91380E+01 1.10949E-03 2.32785E-03-5.43514E-02 9.24461E-14-4.36014E-14
 -1      1487 1.92637E+01-2.64392E-03-1.00509E-03-1.01867E-01 1.53226E-13-9.88775E-14
 -1      1488 1.93467E+01-1.27103E-03 1.70368E-03-5.05915E-02 3.24418E-14-3.11296E-13
 -1      1489 1.92718E+01-2.99899E-04 1.64962E-03-5.06774E-02 3.33019E-14-2.52553E-13
 -1      1490 1.93657E+01-3.91561E-03-6.61939E-04-9.85370E-02 9.45319E-14-1.72822E-13
 -1      1491 1.94641E+01-1.40911E-03 1.41397E-03-4.45516E-02-5.38478E-15-3.11627E-13
 -1      1492 1.93974E+01-1.10860E-03 1.18963E-03-4.51560E-02 9.26285E-15-3.09129E-13
 -1      1493 1.94666E+01-4.41744E-03-3.97421E-04-9.00041E-02 2.63943E-14-2.91414E-13
 -1      1494 1.95671E+01-1.40154E-03 1.16051E-03-3.80145E-02 1.88317E-14-3.31787E-13
 -1      1495 1.95096E+01-1.51826E-03 8.58627E-04-3.88936E-02 7.03024E-16-3.18385E-13
 -1      1496 1.95601E+01-4.43899E-03-2.08257E-04-7.89784E-02 1.04204E-14-2.09657E-13
 -1      1497 1.96548E+01-1.30179E-03 9.38673E-04-3.16119E-02 2.89020E-14-3.85894E-13
 -1      1498 1.96066E+01-1.66179E-03 6.14977E-04-3.26008E-02 4.18658E-14-3.51816E-13
 -1      1499 1.96429E+01-4.16598E-03-7.95387E-05-6.72030E-02 5.81117E-14-2.53697E-13
 -1      1500 1.97276E+01-1.14543E-03 7.46337E-04-2.57391E-02 2.36495E-14-4.24048E-13
 -1      1501 1.96881E+01-1.62873E-03 4.35488E-04-2.67267E-02 2.71846E-14-4.20772E-13
 -1      1502 1.97141E+01-3.72031E-03 2.84822E-06-5.57930E-02 5.59543E-14-3.44695E-13
 -1      1503 1.97870E+01-9.54873E-04 5.81185E-04-2.06365E-02 2.29027E-14-5.33856E-13
 -1      1504 1.97552E+01-1.47872E-03 3.05078E-04-2.15484E-02 3.15277E-14-4.71160E-13
 -1      1505 1.97739E+01-3.18065E-03 4.96913E-05-4.54494E-02 5.83810E-14-4.27516E-13
 -1      1506 1.98350E+01-7.42365E-04 4.40147E-04-1.64501E-02 1.26864E-14-5.38811E-13
 -1      1507 1.98097E+01-1.24930E-03 2.13066E-04-1.72348E-02 1.31720E-14-5.22365E-13
 -1      1508 1.98233E+01-2.59445E-03 6.84287E-05-3.66075E-02 3.09567E-14-4.27021E-13
 -1      1509 1.98739E+01-5.12137E-04 3.19414E-04-1.32771E-02 1.57431E-14-6.59647E-13
 -1      1510 1.98537E+01-9.60885E-04 1.51631E-04-1.38957E-02 3.71697E-14-5.95603E-13
 -1      1511 1.98642E+01-1.98552E-03 6.35055E-05-2.95455E-02 6.07256E-14-4.80262E-13
 -1      1512 1.99066E+01-2.61859E-04 2.14587E-04-1.12016E-02 1.02882E-13-8.41673E-13
 -1      1513 1.98900E+01-6.20126E-04 1.15058E-04-1.16189E-02 7.49288E-14-7.39664E-13
 -1      1514 1.98985E+01-1.35937E-03 3.66485E-05-2.44680E-02 1.14726E-13-6.14732E-13
 -1      1515 1.99358E+01 1.64546E-05 1.20774E-04-1.03244E-02-8.99732E-14-9.04688E-13
 -1      1516 1.99212E+01-2.21961E-04 9.93114E-05-1.05017E-02 3.46665E-14-8.84628E-13
 -1      1517 1.99289E+01-7.06845E-04-1.30186E-05-2.15719E-02 8.78463E-14-5.84923E-13
 -1      1518 1.99650E+01 3.36034E-04 3.26257E-05-1.07885E-02 3.25338E-14-8.50312E-13
 -1      1519 1.99506E+01 2.49268E-04 1.01761E-04-1.06760E-02-5.79987E-14-8.61114E-13
 -1      1520 1.99580E+01-6.35590E-06-8.90281E-05-2.11016E-02-6.30053E-14-6.10570E-13
 -1      1521 1.99981E+01 7.15406E-04-5.57687E-05-1.28032E-02-9.75736E-14-7.50039E-13
 -1      1522 1.99817E+01 8.19613E-04 1.20986E-04-1.23333E-02-6.74537E-14-7.95376E-13
 -1      1523 1.99891E+01 7.75019E-04-1.97812E-04-2.33979E-02-6.47158E-14-4.08409E-13
 -1      1524 2.00394E+01 1.17889E-03-1.51144E-04-1.66691E-02-3.42264E-14-7.10348E-13
 -1      1525 2.00187E+01 1.52621E-03 1.56592E-04-1.57480E-02-2.62778E-14-7.31776E-13
 -1      1526 2.00259E+01 1.68158E-03-3.49177E-04-2.89450E-02-1.11358E-13-3.65047E-13
 -1      1527 2.00945E+01 1.75751E-03-2.61579E-04-2.28049E-02-3.17042E-14-7.77715E-13
 -1      1528 2.00665E+01 2.41888E-03 2.08963E-04-2.13037E-02-2.22668E-15-7.28566E-13
 -1      1529 2.00729E+01 2.77010E-03-5.57084E-04-3.84193E-02-2.36945E-14-4.28982E-13
 -1      1530 2.01701E+01 2.49023E-03-3.97407E-04-3.17793E-02-4.50933E-14-6.61668E-13
 -1      1531 2.01312E+01 3.56258E-03 2.78836E-04-2.95219E-02-7.55868E-14-7.91256E-13
 -1      1532 2.01355E+01 4.11190E-03-8.40799E-04-5.27439E-02-4.83785E-14-5.09511E-13
 -1      1533 2.02748E+01 3.42507E-03-5.72694E-04-4.43478E-02-4.92194E-14-5.47163E-13
 -1      1534 2.02203E+01 5.04044E-03 3.66469E-04-4.10965E-02-5.38769E-14-6.29493E-13
 -1      1535 2.02205E+01 5.79566E-03-1.22650E-03-7.31499E-02-8.18356E-14-5.85277E-13
 -1      1536 2.04193E+01 4.61906E-03-8.07538E-04-6.14928E-02-9.34636E-14-4.19349E-13
 -1      1537 2.03433E+01 6.95624E-03 4.70020E-04-5.69303E-02-3.15857E-14-4.45310E-13
 -1      1538 2.03361E+01 7.92974E-03-1.74928E-03-1.01245E-01-1.05697E-13-3.34969E-13
 -1      1539 2.06171E+01 6.13450E-03-1.13128E-03-8.44584E-02 7.97173E-14-3.02986E-13
 -1      1540 2.05120E+01 9.43363E-03 5.82494E-04-7.81676E-02-3.15648E-14-2.83946E-13
 -1      1541 2.04927E+01 1.06414E-02-2.45527E-03-1.39075E-01-9.74626E-14-1.73388E-13
 -1      1542 2.08853E+01 8.02596E-03-1.58608E-03-1.14755E-01 5.55597E-14-5.15412E-13
 -1      1543 2.07415E+01 1.26052E-02 6.86341E-04-1.06203E-01 1.28799E-13-3.16627E-13
 -1      1544 2.07029E+01 1.40659E-02-3.40270E-03-1.89160E-01 1.83533E-13-7.70777E-14
 -1      1545 2.12446E+01 1.03066E-02-2.22783E-03-1.54080E-01-4.34479E-14-5.25842E-13
 -1      1546 2.10501E+01 1.65770E-02 7.44866E-04-1.42620E-01-5.06622E-14-6.44901E-13
 -1      1547 2.09823E+01 1.83107E-02-4.65869E-03-2.54409E-01 1.03580E-14-1.40642E-13
 -1      1548 2.17196E+01 1.28712E-02-3.11437E-03-2.04021E-01 9.37093E-14-6.74636E-13
 -1      1549 2.14602E+01 2.13379E-02 6.91367E-04-1.88950E-01 5.11344E-14-6.35390E-13
 -1      1550 2.13488E+01 2.33627E-02-6.28372E-03-3.37787E-01 8.29128E-14-3.68442E-13
 -1      1551 2.23371E+01 1.53369E-02-4.25362E-03-2.65312E-01-4.55551E-14-7.62602E-13
 -1      1552 2.19967E+01 2.65566E-02 4.23740E-04-2.46059E-01 4.52073E-14-7.76398E-13
 -1      1553 2.18223E+01 2.88767E-02-8.28460E-03-4.41377E-01 1.16985E-13-5.99051E-13
 -1      1554 2.31211E+01 1.67416E-02-5.45085E-03-3.36160E-01-5.24155E-14-6.94778E-13
 -1      1555 2.26849E+01 3.11719E-02-1.69644E-04-3.12767E-01-5.64770E-14-8.12496E-13
 -1      1556 2.24218E+01 3.37364E-02-1.04961E-02-5.64261E-01-6.17731E-14-6.35256E-13
 -1      1557 2.40818E+01 1.50473E-02-5.95510E-03-4.08947E-01-5.61120E-14-4.65079E-13
 -1      1558 2.35428E+01 3.26551E-02-1.09127E-03-3.83106E-01-8.72254E-14-6.30718E-13
 -1      1559 2.31597E+01 3.52320E-02-1.23239E-02-6.98195E-01-1.09835E-13-5.50624E-13
 -1      1560 2.51937E+01 6.53110E-03-3.84565E-03-4.64510E-01 6.68933E-14-3.95697E-13
 -1      1561 2.45660E+01 2.59334E-02-1.92482E-03-4.41509E-01 1.87387E-14-3.44554E-13
 -1      1562 2.40308E+01 2.77628E-02-1.22840E-02-8.19812E-01-4.94303E-14-5.49529E-13
 -1      1563 2.63579E+01-1.43529E-02 4.50831E-03-4.64254E-01-9.94825E-14-3.89869E-13
 -1      1564 2.57009E+01 2.50896E-03-1.31188E-03-4.55935E-01 1.05094E-14-3.17302E-13
 -1      1565 2.49924E+01 1.47878E-03-7.44919E-03-8.78807E-01-1.32221E-14-3.47982E-13
 -1      1566 2.73520E+01-5.27500E-02 2.34495E-02-3.44750E-01 1.18169E-13-6.13662E-13
 -1      1567 2.68028E+01-4.80870E-02 3.36619E-03-3.72137E-01 4.41322E-14-5.24147E-13
 -1      1568 2.59369E+01-5.70640E-02 6.42573E-03-7.85909E-01 1.06285E-13-4.34253E-13
 -1      1569 2.77934E+01-1.05445E-01 5.25912E-02-3.02827E-02 6.16555E-14-7.84186E-13
 -1      1570 2.75909E+01-1.29735E-01 1.46473E-02-1.20627E-01 5.57835E-14-6.39978E-13
 -1      1571 2.66605E+01-1.56584E-01 3.21850E-02-4.16852E-01 1.28911E-13-4.71598E-13
 -1      1572 2.71895E+01-1.45636E-01 7.56375E-02 5.08259E-01-1.72241E-14-5.88640E-13
 -1      1573 2.76407E+01-2.19370E-01 2.99652E-02 3.40659E-01-8.62921E-14-7.59649E-13
 -1      1574 2.68575E+01-2.77296E-01 6.39061E-02 3.30670E-01-3.36745E-14-3.83925E-13
 -1      1575 2.51939E+01-1.17440E-01 5.47895E-02 1.13438E+00 6.99458E-14-6.55920E-13
 -1      1576 2.65035E+01-2.46659E-01 3.36573E-02 9.29261E-01 6.02088E-14-5.62828E-13
 -1      1577 2.61941E+01-3.36197E-01 7.83692E-02 1.38545E+00 2.43000E-14-5.40203E-13
 -1      1578 2.20869E+01 1.77172E-02-3.91765E-02 1.47046E+00 2.50616E-14-5.77371E-13
 -1      1579 2.40514E+01-1.24488E-01 8.94637E-04 1.34688E+00-1.74023E-14-6.37684E-13
 -1      1580 2.45470E+01-2.00375E-01 4.29387E-02 2.31102E+00 6.51215E-15-2.74003E-13
 -1      1581 1.90970E+01 1.90427E-01-1.61794E-01 1.10700E+00-8.75550E-14-4.02470E-13
 -1      1582 2.09269E+01 1.34270E-01-6.98229E-02 1.19227E+00-1.25802E-14-6.09068E-13
 -1      1583 2.23496E+01 1.76344E-01-3.99642E-02 2.38106E+00-1.76699E-14-2.26132E-13
 -1      1584 1.78228E+01 2.39644E-01-1.96747E-01 1.17422E-01 2.48392E-13-8.40071E-13
 -1      1585 1.85423E+01 3.38220E-01-1.25673E-01 3.87366E-01 1.89473E-13-5.22304E-13
 -1      1586 2.06327E+01 5.58791E-01-1.07252E-01 1.21981E+00 1.67644E-13-4.32241E-13
 -1      1587 1.88118E+01 1.12608E-01-1.02381E-01-8.01254E-01-3.98570E-14-1.37287E-12
 -1      1588 1.81250E+01 2.98067E-01-1.06347E-01-5.47492E-01 9.73804E-14-1.13423E-12
 -1      1589 2.03018E+01 5.66382E-01-1.04078E-01-5.15254E-01 3.40047E-13-7.64840E-13
 -1      1590 2.09860E+01-5.75292E-02 3.16483E-02-1.03030E+00 6.77748E-14-1.21961E-12
 -1      1591 1.95714E+01 7.27590E-02-2.81323E-02-9.56856E-01-9.35016E-16-1.21977E-12
 -1      1592 2.12395E+01 1.76268E-01-5.02009E-02-1.59630E+00-1.34302E-14-8.26096E-13
 -1      1593 2.27335E+01-1.36176E-01 1.01320E-01-6.12794E-01-4.43803E-14-1.21878E-12
 -1      1594 2.15768E+01-1.25783E-01 4.05982E-02-7.03931E-01-1.43982E-16-1.31434E-12
 -1      1595 2.24638E+01-2.36496E-01 4.45996E-04-1.46249E+00 1.29480E-14-7.82555E-13
 -1      1596 2.32008E+01-1.15036E-01 9.13165E-02-6.47881E-03-1.63796E-13-1.01106E-12
 -1      1597 2.28313E+01-1.83408E-01 6.08957E-02-1.48149E-01-3.21826E-14-1.08609E-12
 -1      1598 2.30777E+01-3.78568E-01 2.41973E-02-5.54746E-01-6.09096E-14-8.16540E-13
 -1      1599 2.25051E+01-4.63029E-02 4.10453E-02 4.17936E-01-2.12236E-13-4.94691E-13
 -1      1600 2.28562E+01-1.27231E-01 4.23804E-02 3.15586E-01-2.46475E-13-8.32435E-13
 -1      1601 2.28178E+01-2.81007E-01 2.13789E-02 3.82227E-01-3.79516E-13-3.94788E-13
 -1      1602 2.12952E+01 2.84455E-02-9.81849E-03 5.13288E-01 2.48464E-14-4.95715E-13
 -1      1603 2.19590E+01-1.94030E-02 1.01522E-02 4.89071E-01 4.02276E-14-5.03132E-13
 -1      1604 2.19432E+01-8.01452E-02 3.39260E-03 8.74398E-01-7.69385E-14-2.44658E-13
 -1      1605 2.03263E+01 1.03462E-01-1.30783E-02 2.87681E-01 5.02333E-15-4.59840E-13
 -1      1606 2.08086E+01 9.77668E-02-1.16945E-02 3.45576E-01-6.78277E-16-5.78742E-13
 -1      1607 2.09211E+01 1.39749E-01-1.35297E-02 7.81005E-01 1.67096E-13-2.31429E-13
 -1      1608 2.00690E+01 1.11467E-01-2.26436E-02 5.77484E-02-1.96269E-13-2.37732E-13
 -1      1609 2.01424E+01 1.18472E+00-2.54884E-02 5.63254E-01 2.10942E-13 2.74447E-13
 -1      1610 2.01627E+01 5.77502E-01-1.20287E-02 4.63063E-01-1.07433E-13 3.13333E-13
 -1      1611 2.01058E+01 2.89133E+00-1.72509E-02 9.37534E-01 3.91798E-13 3.17898E-13
 -1      1612 2.01407E+01 1.79574E+00-2.45089E-02 8.65138E-01 2.02047E-13 2.10894E-13
 -1      1613 2.02763E+01 1.36039E+00-3.67507E-02 1.35766E+00 6.94115E-14 2.82311E-13
 -1      1614 2.00206E+01 5.11472E+00-8.88275E-03 1.17014E+00 6.51285E-14-2.87041E-13
 -1      1615 2.00827E+01 3.72823E+00-1.92118E-02 1.13492E+00 2.79735E-13-1.10476E-14
 -1      1616 2.01609E+01 2.76372E+00-2.98526E-02 1.97089E+00 8.73884E-14 5.14849E-14
 -1      1617 1.98907E+01 7.40164E+00 6.68386E-03 1.12172E+00 2.46553E-13-1.00534E-13
 -1      1618 1.99708E+01 6.05262E+00-4.40693E-03 1.15604E+00 8.28504E-14 4.36951E-14
 -1      1619 1.99856E+01 4.51580E+00-3.04184E-03 2.21124E+00 3.06838E-14-1.54425E-13
 -1      1620 1.97636E+01 9.05954E+00 2.40798E-02 7.09598E-01-6.09235E-14-5.55181E-14
 -1      1621 1.98266E+01 8.17817E+00 1.58442E-02 8.24504E-01 5.89112E-14-2.32085E-13
 -1      1622 1.97553E+01 6.23488E+00 3.94213E-02 1.84909E+00-1.59487E-13-3.03362E-13
 -1      1623 1.97168E+01 9.52200E+00 3.22734E-02 6.04867E-03-2.72234E-13-2.11983E-13
 -1      1624 1.97270E+01 9.41982E+00 3.11118E-02 1.70519E-01-9.90631E-14-1.33213E-13
 -1      1625 1.95730E+01 7.38916E+00 7.77236E-02 8.34611E-01-3.32177E-13-2.29816E-13
 -1      1626 1.97890E+01 8.53550E+00 2.21854E-02-7.09525E-01-3.94518E-13-8.65592E-14
 -1      1627 1.97368E+01 9.28388E+00 2.88336E-02-5.71216E-01-2.27960E-13-3.20716E-14
 -1      1628 1.95445E+01 7.51307E+00 8.45334E-02-5.38882E-01-2.16716E-13-6.56419E-14
 -1      1629 1.99326E+01 6.46681E+00 1.22693E-03-1.15234E+00-2.14107E-13 1.22298E-15
 -1      1630 1.98500E+01 7.78968E+00 1.20609E-02-1.09382E+00-3.82250E-13 4.75037E-14
 -1      1631 1.96938E+01 6.51649E+00 5.34832E-02-1.71593E+00-1.37161E-13-1.07553E-13
 -1      1632 2.00652E+01 4.02586E+00-1.60796E-02-1.21172E+00-2.71699E-13-1.31468E-13
 -1      1633 1.99938E+01 5.48565E+00-5.99157E-03-1.23571E+00-1.74777E-13 1.25468E-13
 -1      1634 1.99305E+01 4.77900E+00 7.42054E-03-2.27377E+00 6.87887E-14-1.00918E-14
 -1      1635 2.01358E+01 1.87818E+00-2.15772E-02-9.72074E-01-3.26891E-13-1.82035E-13
 -1      1636 2.00976E+01 3.09834E+00-1.53265E-02-1.04436E+00-1.00767E-13-6.40842E-14
 -1      1637 2.01332E+01 2.88050E+00-2.68885E-02-2.15301E+00 8.33014E-15-1.02010E-13
 -1      1638 2.01430E+01 4.09948E-01-1.82741E-02-6.09803E-01-2.81684E-13 1.77974E-13
 -1      1639 2.01381E+01 1.19707E+00-1.46979E-02-6.89404E-01-2.06481E-13-1.71738E-13
 -1      1640 2.02314E+01 1.30172E+00-4.10050E-02-1.59444E+00 9.47038E-14-1.78279E-13
 -1      1641 2.01119E+01-3.68592E-01-1.09222E-02-2.55941E-01 6.43368E-13 5.95633E-13
 -1      1642 2.01264E+01-4.54117E-04-1.02179E-02-3.22472E-01-2.14537E-13 7.13641E-13
 -1      1643 2.02333E+01 2.46379E-01-3.77505E-02-9.04042E-01 1.71921E-13 5.98594E-13
 -1      1644 2.00657E+01-5.64393E-01-3.59287E-03 2.35965E-03 7.58449E-13-9.05508E-14
 -1      1645 2.00892E+01-5.26693E-01-4.35867E-03-3.92254E-02 6.54752E-13 1.85294E-13
 -1      1646 2.01750E+01-2.87389E-01-2.70095E-02-2.98966E-01 1.49864E-13 5.42599E-13
 -1      1647 2.00217E+01-4.08820E-01 4.16154E-03 1.26819E-01 3.15928E-13-2.36846E-13
 -1      1648 2.00362E+01-5.53183E-01-1.02698E-03 1.18654E-01 7.67802E-13-2.12772E-13
 -1      1649 2.00933E+01-4.08357E-01-1.30772E-02 1.01039E-01 1.96055E-13-2.91641E-13
 -1      1650 1.99736E+01-1.77423E-01 4.32764E-03 1.68667E-01 2.43604E-13-8.95228E-14
 -1      1651 1.99931E+01-3.35983E-01 4.69767E-04 1.91499E-01 3.02841E-13-1.13586E-13
 -1      1652 2.00229E+01-2.77267E-01 7.49054E-03 2.83299E-01 1.00913E-13-1.57067E-13
 -1      1653 1.98710E+01-1.33906E-01-2.08757E-04 3.09887E-01 4.95498E-14-2.67737E-13
 -1      1654-7.38954E-01-1.78638E+01-2.00480E+00-1.29289E+00 7.72715E-13 1.71613E-13
 -1      1655-7.28536E-01-2.02016E+01-2.20878E+00 2.64531E-01 4.50279E-13 3.09364E-13
 -1      1656 1.06403E+00-1.08859E+01-1.52874E+00-1.08178E-01 3.90799E-13-1.42913E-13
 -1      1657 4.37926E-01-1.65342E+01-2.08914E+00-5.37320E-01 5.81091E-13 1.02775E-13
 -1      1658 6.60391E+00-2.09597E+00-7.79221E-01 4.22409E+00 2.14939E-13 6.40599E-14
 -1      1659 3.55049E+00-8.46496E+00-1.62330E+00 1.16819E+00 3.56604E-13-6.43929E-15
 -1      1660 1.98105E+01 3.69446E+00 2.30438E-01 1.01645E+01 4.45644E-13 7.96474E-13
 -1      1661 1.24162E+01-4.89577E-01-7.47192E-01 5.91784E+00 2.94209E-13 5.78426E-13
 -1      1662 3.61366E+01 6.15619E+00 1.19271E+00 1.29332E+01 5.46341E-13 8.03801E-13
 -1      1663 2.55896E+01 5.39859E+00 1.64945E-01 1.05792E+01 4.76730E-13 8.02469E-13
 -1      1664 5.11362E+01 5.65724E+00 1.96716E+00 1.17549E+01 2.50938E-13 7.07212E-13
 -1      1665 4.15582E+01 7.48448E+00 1.21942E+00 1.35910E+01 5.15588E-13 7.89369E-13
 -1      1666 5.84675E+01 4.05333E+00 2.05066E+00 4.02234E+00 1.75082E-13 6.15979E-13
 -1      1667 5.40329E+01 5.52506E+00 1.82950E+00 9.34970E+00 2.12413E-13 6.93445E-13
 -1      1668 5.60664E+01 4.33876E+00 1.79691E+00-4.30450E+00 3.89189E-13-9.34808E-14
 -1      1669 5.84836E+01 4.02321E+00 1.99501E+00 1.55817E+00 3.68927E-13 4.19359E-13
 -1      1670 4.60559E+01 5.47821E+00 1.26318E+00-1.02093E+01 4.14224E-13-6.00853E-13
 -1      1671 5.42610E+01 3.96289E+00 1.89698E+00-6.80859E+00 2.65385E-13-2.96874E-13
 -1      1672 3.07308E+01 5.35646E+00 3.74388E-01-1.04843E+01 5.86864E-13-8.09353E-13
 -1      1673 4.11186E+01 4.93370E+00 1.29303E+00-1.11024E+01 4.75397E-13-7.35634E-13
 -1      1674 1.63279E+01 2.38848E+00-4.88643E-01-7.24021E+00 9.25482E-13-8.06688E-13
 -1      1675 2.48369E+01 4.65991E+00 4.64280E-01-1.06471E+01 7.08655E-13-8.12239E-13
 -1      1676 6.30072E+00-3.97930E+00-1.19741E+00-2.45373E+00 9.73222E-13-7.07767E-13
 -1      1677 1.10392E+01 1.05620E+00-3.69044E-01-6.06477E+00 9.69447E-13-8.69527E-13
 -1      1678 1.75672E+00-1.22923E+01-1.60281E+00 2.88734E-01 7.43516E-13-4.39593E-13
 -1      1679 3.50540E+00-6.40885E+00-1.00515E+00-1.48691E+00 9.50351E-13-6.56641E-13
 -1      1680-5.66583E-01-1.81680E+01-1.96237E+00 9.34269E-01 5.48228E-13-2.85799E-13
 -1      1681-6.53203E-01-1.44372E+01-1.65685E+00 1.82518E+00 7.79599E-13-2.59702E-13
 -1      1682-8.29938E-01-1.78533E+01-1.77542E+00-3.52359E-01-2.49578E-13-3.13582E-13
 -1      1683-9.28170E-01-1.81873E+01-1.82586E+00 1.34334E+00 3.61211E-13-4.36207E-13
 -1      1684-1.70768E-01-1.34876E+01-1.53649E+00-7.37197E-01-5.38791E-13-4.54151E-14
 -1      1685-2.99000E-01-1.75075E+01-1.89119E+00 3.37828E-02-3.55493E-13-2.02754E-13
 -1      1686 3.31130E+00-5.30281E+00-9.33906E-01 2.06902E+00-4.61631E-13-2.99649E-13
 -1      1687 1.71928E+00-1.13546E+01-1.57944E+00 3.85686E-01-5.42455E-13-8.79297E-14
 -1      1688 1.06373E+01 2.23380E+00-2.35063E-01 6.83468E+00-5.72209E-13-6.67244E-13
 -1      1689 6.27284E+00-2.84916E+00-1.05805E+00 3.32423E+00-5.06484E-13-3.67151E-13
 -1      1690 2.24739E+01 6.23704E+00 4.86306E-01 1.15413E+01-7.86149E-13-1.08002E-12
 -1      1691 1.50400E+01 3.88123E+00-3.83906E-01 8.14777E+00-6.85674E-13-8.89511E-13
 -1      1692 3.83785E+01 6.29808E+00 1.22830E+00 1.27773E+01-6.03850E-13-5.58664E-13
 -1      1693 2.83116E+01 6.62908E+00 3.76393E-01 1.16461E+01-7.18425E-13-8.57536E-13
 -1      1694 5.19847E+01 4.72999E+00 1.76551E+00 9.26384E+00-1.78709E-13-4.56746E-13
 -1      1695 4.35904E+01 6.57895E+00 1.15505E+00 1.22027E+01-4.30711E-13-6.30607E-13
 -1      1696 5.75482E+01 3.82193E+00 1.87527E+00 9.62880E-01-1.94733E-13-6.53366E-14
 -1      1697 5.42537E+01 4.59859E+00 1.62181E+00 6.38817E+00-2.36478E-13-3.91187E-13
 -1      1698 5.52796E+01 4.78692E+00 1.82757E+00-7.86915E+00-4.38705E-13 7.32525E-13
 -1      1699 5.85786E+01 3.65003E+00 1.99073E+00-1.92725E+00-3.31124E-13 1.92374E-13
 -1      1700 4.29672E+01 7.02726E+00 1.24630E+00-1.28120E+01-9.86461E-13 1.40377E-12
 -1      1701 5.17341E+01 5.12369E+00 1.84664E+00-1.01520E+01-6.08201E-13 1.00131E-12
 -1      1702 2.77042E+01 7.41561E+00 4.91561E-01-1.24853E+01-1.11067E-12 1.56231E-12
 -1      1703 3.77279E+01 7.13331E+00 1.36855E+00-1.39514E+01-9.07274E-13 1.55653E-12
 -1      1704 1.40182E+01 2.13665E+00-4.59964E-01-7.22507E+00-1.58940E-12 1.32416E-12
 -1      1705 2.22768E+01 5.63531E+00 5.46325E-01-1.14829E+01-1.27853E-12 1.22657E-12
 -1      1706 4.66961E+00-6.23251E+00-1.38691E+00-2.05370E+00-7.91367E-13 9.91429E-13
 -1      1707 8.52568E+00 1.34058E-01-4.46241E-01-5.64743E+00-1.31317E-12 1.42242E-12
 -1      1708 7.40806E-01-1.54858E+01-2.02184E+00 3.55046E-01-2.79554E-13 3.44211E-13
 -1      1709 1.71794E+00-8.96958E+00-1.32344E+00-5.96883E-01-5.01821E-13 6.10345E-13
 -1      1710-6.84483E-01-2.02083E+01-2.22395E+00-4.37618E-01 3.00732E-13 4.30489E-13
 -1      1711-6.83945E-01-1.72348E+01-1.95381E+00 1.12152E+00-7.63833E-14 8.37108E-14
 -1      1712 2.78560E+01-1.10520E+00 2.24642E-01 7.16587E+00 3.84803E-13 8.56315E-13
 -1      1713 1.59664E+01-4.81973E+00-2.76527E-01 7.11063E+00 1.07914E-13 5.02209E-13
 -1      1714 2.01788E+01 2.58852E-01-3.13083E-02 2.87364E-01-2.47834E-13 2.95332E-14
 -1      1715 2.03869E+01 5.08788E-01-2.83977E-02 7.73263E-01-2.10981E-14 4.14854E-13
 -1      1716 3.43371E-01-1.28415E+01-1.46547E+00 2.36016E+00 1.87017E-13-7.98250E-14
 -1      1717 5.83016E+00-9.38741E+00-1.07235E+00 4.66163E+00 1.66311E-13-5.84671E-14
 -1      1718-1.57774E+00-1.37889E+01-1.55949E+00-1.82434E-01 2.95167E-13 5.55389E-13
 -1      1719 3.84955E+01 3.96493E+00 9.37007E-01 6.67126E+00 4.64156E-13 5.77982E-13
 -1      1720 4.70285E+01 7.23474E+00 1.61147E+00 5.20115E+00 2.40308E-13 4.74953E-13
 -1      1721 4.92447E+01 8.32365E+00 1.66112E+00 1.80583E+00 4.01568E-13 2.57239E-13
 -1      1722 4.78642E+01 7.16390E+00 1.54556E+00-1.45681E+00 5.16809E-13 5.12923E-14
 -1      1723 4.14289E+01 4.44197E+00 1.10937E+00-4.21264E+00 5.05613E-13-3.67706E-13
 -1      1724 3.12220E+01 9.32156E-01 5.08181E-01-5.89132E+00 6.44707E-13-6.31717E-13
 -1      1725 1.95097E+01-2.79980E+00-1.69232E-01-6.11777E+00 6.48148E-13-5.22693E-13
 -1      1726 9.59476E+00-7.32155E+00-7.85150E-01-4.72560E+00 4.50195E-13-4.91440E-13
 -1      1727 2.57197E+00-1.07294E+01-1.05307E+00-2.92074E+00 4.16223E-13-3.16330E-13
 -1      1728-1.34081E+00-1.28257E+01-1.34513E+00-3.40975E-01 1.98536E-13-6.11899E-13
 -1      1729-1.14515E+00-1.25081E+01-1.30962E+00 1.52534E+00 6.64191E-14-3.90021E-13
 -1      1730 2.46986E+00-1.02132E+01-1.09076E+00 3.64095E+00-1.76525E-13 4.51583E-14
 -1      1731 9.18082E+00-6.05458E+00-6.66118E-01 5.61214E+00-2.08500E-13-2.65010E-13
 -1      1732 1.82484E+01-1.41433E+00-1.01627E-01 7.30734E+00-2.96430E-13-7.45515E-13
 -1      1733 2.92432E+01 2.22759E+00 5.19196E-01 7.73638E+00-4.41092E-13-4.33653E-13
 -1      1734 3.96804E+01 5.23244E+00 1.07346E+00 6.23804E+00-4.50903E-13-2.52576E-13
 -1      1735 4.68823E+01 7.44409E+00 1.49507E+00 3.58651E+00-3.31901E-13-3.38451E-13
 -1      1736 4.97738E+01 7.87315E+00 1.60818E+00-6.23768E-01-5.04041E-13-2.14551E-14
 -1      1737 4.74310E+01 7.32608E+00 1.53983E+00-4.53504E+00-7.49678E-13 6.01519E-13
 -1      1738 3.95815E+01 5.49720E+00 1.13811E+00-7.46634E+00-8.84792E-13 1.19493E-12
 -1      1739 2.87529E+01 1.50184E+00 4.11040E-01-8.10692E+00-9.38971E-13 1.18849E-12
 -1      1740 1.75039E+01-3.11073E+00-1.40595E-01-7.46970E+00-8.74079E-13 1.16873E-12
 -1      1741 7.19749E+00-8.27896E+00-9.22289E-01-5.21341E+00-2.53131E-13 1.12743E-12
 -1      1742 8.14414E-01-1.24479E+01-1.42250E+00-2.82528E+00-1.03140E-13 4.22995E-13
 -1      1743 2.28609E+01 1.98492E+00-2.35579E-02-2.72219E+00-2.89165E-13 1.53708E-12
 -1      1744 1.98257E+01 3.71367E+00-3.54707E-02-2.15234E+00-4.43654E-13-2.51972E-13
 -1      1745 2.00587E+01 3.56270E+00-4.02451E-02-2.44460E+00-4.87178E-13-9.51253E-14
 -1      1746 2.03644E+01 3.18156E+00-4.57880E-02-2.58446E+00-4.74126E-13 9.35710E-14
 -1      1747 2.05848E+01 2.80977E+00-1.42525E-01-2.85279E+00-4.83735E-13 3.50713E-13
 -1      1748 2.04250E+01 2.69286E+00-4.24335E-03-2.22390E+00-4.93445E-13 1.65631E-14
 -1      1749 1.93546E+01 4.18892E+00-2.00356E-02-1.27006E+00-3.12169E-13-5.50220E-13
 -1      1750 1.94288E+01 4.14936E+00-1.68721E-02-1.49446E+00-3.50195E-13-5.07473E-13
 -1      1751 1.92575E+01 4.29487E+00-1.67398E-02-8.59267E-01-2.34708E-13-6.06744E-13
 -1      1752 1.93005E+01 4.27093E+00-1.42226E-02-1.06996E+00-2.73928E-13-5.82380E-13
 -1      1753 1.95266E+01 3.78339E+00-8.92216E-03-1.11902E+00-3.17456E-13-5.35539E-13
 -1      1754 1.92057E+01 4.35526E+00-1.47845E-02-4.66608E-01-1.49264E-13-6.33266E-13
 -1      1755 1.92278E+01 4.34242E+00-1.32948E-02-6.66837E-01-1.90172E-13-6.19718E-13
 -1      1756 1.94287E+01 3.90359E+00-9.13850E-03-7.32895E-01-2.24815E-13-5.83948E-13
 -1      1757 1.91863E+01 4.38085E+00-1.36633E-02-8.35975E-02-5.99771E-14-6.59948E-13
 -1      1758 1.91927E+01 4.37694E+00-1.32093E-02-2.78977E-01-1.00143E-13-6.47577E-13
 -1      1759 1.93782E+01 3.96797E+00-9.14259E-03-3.58168E-01-1.38686E-13-6.13211E-13
 -1      1760 1.91944E+01 4.37554E+00-1.31678E-02 2.98020E-01 1.55515E-14-6.71799E-13
 -1      1761 1.91868E+01 4.38001E+00-1.37499E-02 1.02476E-01-1.67122E-14-6.68710E-13
 -1      1762 1.93634E+01 3.98736E+00-9.14369E-03 1.05471E-02-4.21763E-14-6.40734E-13
 -1      1763 1.92318E+01 4.33836E+00-1.33262E-02 6.86630E-01 9.14214E-14-6.81672E-13
 -1      1764 1.92085E+01 4.35204E+00-1.49154E-02 4.85883E-01 5.53189E-14-6.81150E-13
 -1      1765 1.93810E+01 3.96464E+00-9.18766E-03 3.79459E-01 3.55821E-14-6.55273E-13
 -1      1766 1.93057E+01 4.26496E+00-1.44074E-02 1.08418E+00 1.78494E-13-6.50377E-13
 -1      1767 1.92621E+01 4.28942E+00-1.69714E-02 8.76260E-01 1.30554E-13-6.67116E-13
 -1      1768 1.94340E+01 3.89714E+00-9.19210E-03 7.51504E-01 1.19862E-13-6.45076E-13
 -1      1769 1.94377E+01 4.13776E+00-1.74005E-02 1.51409E+00 2.82309E-13-5.96755E-13
 -1      1770 1.93610E+01 4.18033E+00-2.05020E-02 1.28460E+00 2.29194E-13-6.28660E-13
 -1      1771 1.95340E+01 3.77323E+00-9.23785E-03 1.13515E+00 2.21545E-13-6.10303E-13
 -1      1772 1.96674E+01 3.92119E+00-2.51905E-02 1.97910E+00 3.84037E-13-4.92339E-13
 -1      1773 1.95343E+01 3.99796E+00-2.69050E-02 1.72178E+00 3.26030E-13-5.55785E-13
 -1      1774 1.97078E+01 3.56613E+00-8.69447E-03 1.53476E+00 3.32618E-13-5.41763E-13
 -1      1775 2.00766E+01 3.52283E+00-4.51815E-02 2.47152E+00 4.69295E-13-2.74673E-13
 -1      1776 1.98363E+01 3.68329E+00-3.97256E-02 2.18242E+00 4.16707E-13-4.00714E-13
 -1      1777 2.00048E+01 3.22295E+00-5.27048E-03 1.93403E+00 4.25265E-13-4.06335E-13
 -1      1778 2.09224E+01 2.68181E+00-5.76449E-02 2.85730E+00 4.87551E-13 1.64140E-13
 -1      1779 2.04148E+01 3.09695E+00-5.04297E-02 2.61547E+00 4.68712E-13-1.04278E-13
 -1      1780 2.05185E+01 2.60996E+00 3.18803E-03 2.24402E+00 4.95756E-13-1.66103E-13
 -1      1781 2.17330E+01 1.21296E+00-1.22091E-01 2.32947E+00 4.27380E-13 7.23907E-13
 -1      1782 2.12764E+01 2.26304E+00 1.16763E-04 2.74001E+00 4.58845E-13 3.53814E-13
 -1      1783 2.09391E+01 1.68502E+00-2.29549E-02 2.13971E+00 5.03611E-13 1.68046E-13
 -1      1784 2.09545E+01 7.78669E-01-6.24428E-02 1.52377E+00 4.32758E-13 5.85193E-13
 -1      1785 2.17988E+01 2.45821E+00 9.09056E-02-3.04777E+00-4.03554E-13 7.78516E-13
 -1      1786 2.01039E+01 2.97952E-01-8.91173E-03 6.56621E-01 3.55587E-13 3.89334E-13
 -1      1787 2.06558E+01 4.40413E-01-1.24654E-02 1.03367E+00 3.71078E-13 5.19652E-13
 -1      1788 2.07468E+01 8.45121E-01 2.24522E-03 1.41467E+00 4.34507E-13 2.89836E-13
 -1      1789 2.15091E+01 1.74231E+00 7.94325E-02-2.33668E+00-4.28699E-13 5.83075E-13
 -1      1790 2.05231E+01 5.00593E-01 3.23894E-02-9.21242E-01-3.36831E-13 5.12585E-13
 -1      1791 2.00915E+01 3.52123E-01 7.56618E-03-6.29370E-01-3.02217E-13 4.31360E-13
 -1      1792 1.98971E+01 2.57454E-01 2.74104E-02-3.90775E-01-2.71594E-13 4.21139E-13
 -1      1793 1.97063E+01 1.78047E-01 1.04192E-02-2.52936E-01-2.31223E-13 3.43938E-13
 -1      1794 2.02010E+01 4.83514E-01-5.98279E-03-7.22197E-01-3.35754E-13 1.95996E-13
 -1      1795 1.95844E+01 1.32634E-01 1.66512E-02-1.19513E-01-1.78729E-13 3.25003E-13
 -1      1796 1.95063E+01 9.29752E-02 6.96007E-03-4.87750E-02-1.44101E-13 2.72843E-13
 -1      1797 1.98753E+01 2.43766E-01-5.78410E-03-2.95070E-01-2.52463E-13 1.52495E-13
 -1      1798 1.94415E+01 6.83084E-02 8.67377E-03 2.46768E-02-1.26117E-13 2.50748E-13
 -1      1799 1.94270E+01 4.66157E-02 4.10184E-03 6.07928E-02-1.13336E-13 2.12594E-13
 -1      1800 1.96926E+01 1.25095E-01-4.63810E-03-5.85050E-02-1.81007E-13 1.08338E-13
 -1      1801 1.94009E+01 3.22599E-02 4.22791E-03 9.94144E-02-1.23668E-13 1.94403E-13
 -1      1802 1.94207E+01 1.97926E-02 2.42104E-03 1.16101E-01-1.26087E-13 1.50213E-13
 -1      1803 1.96061E+01 6.07611E-02-3.45905E-03 7.09173E-02-1.52300E-13 5.66843E-14
 -1      1804 1.94189E+01 1.11271E-02 1.84629E-03 1.33885E-01-1.38413E-13 1.41745E-13
 -1      1805 1.94558E+01 3.91407E-03 1.43591E-03 1.39188E-01-1.36381E-13 1.28563E-13
 -1      1806 1.95817E+01 2.38061E-02-2.32970E-03 1.37066E-01-1.64445E-13 1.05689E-14
 -1      1807 1.94681E+01-1.30785E-03 5.44135E-04 1.44391E-01-1.41481E-13 1.25499E-13
 -1      1808 1.95121E+01-5.32310E-03 8.19981E-04 1.43018E-01-9.99321E-14 9.49094E-14
 -1      1809 1.95950E+01 2.18431E-03-1.42768E-03 1.65020E-01-1.48100E-13 3.43573E-15
 -1      1810 1.95318E+01-8.34074E-03-1.78476E-04 1.40767E-01-9.25368E-14 7.13866E-14
 -1      1811 1.95769E+01-1.03361E-02 4.21393E-04 1.35653E-01-8.21219E-14 6.40015E-14
 -1      1812 1.96293E+01-1.01657E-02-7.81199E-04 1.69936E-01-1.16008E-13-2.67741E-14
 -1      1813 1.95996E+01-1.19035E-02-5.65669E-04 1.29249E-01-1.12426E-13 3.62286E-14
 -1      1814 1.96422E+01-1.26053E-02 1.66263E-04 1.22286E-01-9.31926E-14-4.26777E-14
 -1      1815 1.96734E+01-1.66519E-02-3.47779E-04 1.61400E-01-1.44972E-13-1.18235E-13
 -1      1816 1.96652E+01-1.32112E-02-7.46943E-04 1.13890E-01-6.92911E-14-6.97581E-14
 -1      1817 1.97035E+01-1.30883E-02 1.22480E-05 1.06311E-01-6.90337E-14-1.09206E-13
 -1      1818 1.97204E+01-1.93535E-02-7.36683E-05 1.45647E-01-1.19818E-13-1.59286E-13
 -1      1819 1.97252E+01-1.30601E-02-7.98661E-04 9.73451E-02-6.38075E-14-1.13673E-13
 -1      1820 1.97585E+01-1.24206E-02-6.83311E-05 8.99462E-02-7.34540E-14-1.16733E-13
 -1      1821 1.97661E+01-1.96084E-02 8.62280E-05 1.26783E-01-5.79313E-14-1.44548E-13
 -1      1822 1.97782E+01-1.19787E-02-7.69343E-04 8.13382E-02-3.82540E-14-8.02635E-14
 -1      1823 1.98065E+01-1.10221E-02-9.42031E-05 7.46306E-02 2.25985E-14-4.55619E-14
 -1      1824 1.98082E+01-1.82981E-02 1.65527E-04 1.07507E-01-4.53734E-14-3.43400E-14
 -1      1825 1.98238E+01-1.03109E-02-6.90780E-04 6.69815E-02 4.71876E-14-3.63764E-14
 -1      1826 1.98476E+01-9.15908E-03-7.76455E-05 6.12904E-02 5.93678E-14 4.10902E-14
 -1      1827 1.98457E+01-1.59983E-02 1.88200E-04 8.95846E-02 3.83777E-14 2.28275E-14
 -1      1828 1.98628E+01-8.26705E-03-5.83745E-04 5.49943E-02 1.24474E-14 2.38418E-14
 -1      1829 1.98828E+01-6.98495E-03-2.60286E-05 5.05334E-02 2.38638E-14 2.07925E-14
 -1      1830 1.98785E+01-1.30676E-02 1.70811E-04 7.41690E-02 1.63966E-14-3.33783E-14
 -1      1831 1.98962E+01-5.95849E-03-4.61400E-04 4.58644E-02-3.57825E-14 3.53641E-14
 -1      1832 1.99135E+01-4.56864E-03 5.70070E-05 4.27915E-02-5.12575E-14 3.00547E-14
 -1      1833 1.99074E+01-9.70503E-03 1.24380E-04 6.20380E-02-1.82895E-14-5.60838E-14
 -1      1834 1.99258E+01-3.42312E-03-3.31604E-04 3.99677E-02-7.94858E-14 1.05477E-14
 -1      1835 1.99413E+01-1.91729E-03 1.70558E-04 3.84251E-02-7.35986E-14-6.71931E-14
 -1      1836 1.99333E+01-5.99101E-03 5.58653E-05 5.37642E-02-1.06697E-13-4.11991E-14
 -1      1837 1.99533E+01-6.46185E-04-1.98615E-04 3.76552E-02-8.88298E-14-8.51343E-14
 -1      1838 1.99686E+01 1.00459E-03 3.15476E-04 3.77977E-02-1.32779E-13-1.11093E-13
 -1      1839 1.99577E+01-1.92048E-03-3.06663E-05 4.98412E-02-9.32380E-14-8.06763E-14
 -1      1840 1.99811E+01 2.42099E-03-6.44289E-05 3.93115E-02-1.80684E-13-1.00597E-13
 -1      1841 1.99975E+01 4.25626E-03 4.93230E-04 4.13238E-02-7.10278E-14-1.03714E-13
 -1      1842 1.99823E+01 2.56851E-03-1.33090E-04 5.07702E-02-1.33484E-13-1.31241E-13
 -1      1843 2.00116E+01 5.84138E-03 7.00854E-05 4.53869E-02 7.14694E-15-1.44232E-13
 -1      1844 2.00308E+01 7.89940E-03 7.04436E-04 4.94886E-02 5.66537E-14-1.73815E-13
 -1      1845 2.00091E+01 7.56571E-03-2.50349E-04 5.71116E-02-8.37091E-14-1.37745E-13
 -1      1846 2.00477E+01 9.66860E-03 2.04155E-04 5.63999E-02 5.43572E-14-1.67239E-13
 -1      1847 2.00715E+01 1.19707E-02 9.46848E-04 6.28343E-02-6.17925E-15-1.48949E-13
 -1      1848 2.00403E+01 1.31544E-02-3.81569E-04 6.94994E-02 7.37665E-14-1.98519E-13
 -1      1849 2.00925E+01 1.39154E-02 3.36072E-04 7.29002E-02-3.39359E-14-1.83021E-14
 -1      1850 2.01229E+01 1.64441E-02 1.21256E-03 8.19037E-02 4.56706E-14 4.62560E-14
 -1      1851 2.00784E+01 1.93668E-02-5.25137E-04 8.86098E-02 6.48630E-14-5.66906E-14
 -1      1852 2.01494E+01 1.85101E-02 4.62141E-04 9.53822E-02 4.06393E-14 1.73750E-15
 -1      1853 2.01885E+01 2.11785E-02 1.48419E-03 1.07124E-01 5.82872E-14-2.32987E-14
 -1      1854 2.01261E+01 2.61221E-02-6.77696E-04 1.15070E-01 1.97657E-14 5.58108E-14
 -1      1855 2.02219E+01 2.32349E-02 5.75608E-04 1.24127E-01 2.39779E-14-7.48967E-14
 -1      1856 2.02717E+01 2.58436E-02 1.72982E-03 1.38611E-01 1.54750E-14-6.17275E-14
 -1      1857 2.01865E+01 3.31401E-02-8.33032E-04 1.49289E-01 1.19958E-14-2.50539E-14
 -1      1858 2.03136E+01 2.76426E-02 6.65658E-04 1.58948E-01 2.68019E-14-9.75964E-14
 -1      1859 2.03761E+01 2.98224E-02 1.89688E-03 1.75857E-01-3.46978E-14-8.83905E-14
 -1      1860 2.02624E+01 3.98222E-02-9.80880E-04 1.91175E-01 7.03420E-15-1.02232E-13
 -1      1861 2.04277E+01 3.09461E-02 7.16717E-04 1.98811E-01-1.11513E-13-1.35826E-13
 -1      1862 2.05040E+01 3.20877E-02 1.90561E-03 2.17292E-01-8.75738E-14-1.78149E-13
 -1      1863 2.03566E+01 4.50953E-02-1.10568E-03 2.39717E-01-4.89253E-14-2.09505E-13
 -1      1864 2.05663E+01 3.18883E-02 7.08426E-04 2.41305E-01-1.21454E-13-1.00146E-13
 -1      1865 2.06565E+01 3.10667E-02 1.64415E-03 2.59667E-01-2.57420E-14-1.50715E-13
 -1      1866 2.04713E+01 4.72226E-02-1.18537E-03 2.92394E-01-8.12958E-14-1.05375E-13
 -1      1867 2.07298E+01 2.86117E-02 6.16820E-04 2.81938E-01 8.74609E-14-2.27519E-13
 -1      1868 2.08320E+01 2.45310E-02 9.69387E-04 2.97295E-01 1.29300E-13-2.21786E-13
 -1      1869 2.06078E+01 4.36100E-02-1.19004E-03 3.44387E-01-3.94438E-14-1.75772E-13
 -1      1870 2.09154E+01 1.85870E-02 4.17131E-04 3.13331E-01 1.13927E-13-2.02635E-13
 -1      1871 2.10249E+01 9.60331E-03-2.78740E-04 3.21229E-01 1.31370E-14-1.68983E-13
 -1      1872 2.07653E+01 3.06846E-02-1.08017E-03 3.87646E-01 9.45861E-14-2.25580E-13
 -1      1873 2.11161E+01-1.27542E-03 8.78980E-05 3.24439E-01-4.36595E-14-6.84773E-14
 -1      1874 2.12239E+01-1.69475E-02-2.23769E-03 3.18612E-01-2.32214E-14 5.54988E-14
 -1      1875 2.09403E+01 4.01031E-03-8.03445E-04 4.09960E-01 1.03656E-13-1.98221E-13
 -1      1876 2.13182E+01-3.41086E-02-3.85520E-04 3.00193E-01-1.11383E-13 1.04146E-13
 -1      1877 2.14102E+01-5.78343E-02-4.94383E-03 2.72744E-01-4.28449E-14 1.59243E-13
 -1      1878 2.11255E+01-4.10548E-02-2.89258E-04 3.94369E-01-2.29230E-14-1.93811E-14
 -1      1879 2.14998E+01-8.18313E-02-1.01329E-03 2.22287E-01-1.30977E-13 1.07795E-13
 -1      1880 2.15565E+01-1.13443E-01-8.20704E-03 1.64760E-01-1.68644E-13 5.72916E-14
 -1      1881 2.13079E+01-1.07699E-01 5.57045E-04 3.19673E-01-1.36221E-13 6.05906E-14
 -1      1882 2.16295E+01-1.42805E-01-1.80973E-03 7.22687E-02-1.13691E-13 7.61587E-14
 -1      1883 2.16270E+01-1.78858E-01-1.14547E-02-2.17607E-02 1.99545E-14 4.00633E-14
 -1      1884 2.14674E+01-1.94500E-01 1.84870E-03 1.63204E-01-1.03034E-13 1.49297E-13
 -1      1885 2.16665E+01-2.08407E-01-2.79931E-03-1.61667E-01 4.14859E-15-7.76704E-14
 -1      1886 2.15803E+01-2.40207E-01-1.36180E-02-2.92024E-01-9.60950E-15-1.61207E-13
 -1      1887 2.15755E+01-2.90696E-01 3.67740E-03-9.25276E-02-9.05534E-14 1.35442E-14
 -1      1888 2.15651E+01-2.59607E-01-3.97949E-03-4.73351E-01 1.03658E-14-2.28589E-13
 -1      1889 2.13769E+01-2.72463E-01-1.32449E-02-6.27205E-01-4.99965E-14-1.02106E-13
 -1      1890 2.15951E+01-3.71188E-01 5.98864E-03-4.48000E-01-1.45344E-14-8.66717E-15
 -1      1891 2.12850E+01-2.66876E-01-5.18264E-03-8.24623E-01-8.26336E-14-9.21101E-14
 -1      1892 2.09928E+01-2.43380E-01-9.10175E-03-9.71598E-01-5.92595E-14-1.72475E-13
 -1      1893 2.14844E+01-3.95554E-01 8.28612E-03-8.70375E-01-4.35589E-14-6.48496E-14
 -1      1894 2.08111E+01-1.98930E-01-5.77144E-03-1.13639E+00 1.20981E-13-8.64564E-14
 -1      1895 2.04394E+01-1.28540E-01-1.28085E-03-1.23042E+00 1.56250E-13 2.10561E-14
 -1      1896 2.12096E+01-3.18614E-01 9.27897E-03-1.27911E+00 8.14453E-14 1.94662E-14
 -1      1897 2.01791E+01-4.31954E-02-4.62544E-03-1.29892E+00 1.47269E-13 2.60434E-14
 -1      1898 1.97817E+01 6.46538E-02 7.83068E-03-1.29260E+00 1.33491E-13 4.03141E-14
 -1      1899 2.07688E+01-1.16500E-01 7.17376E-03-1.54865E+00 1.55287E-13 2.21030E-14
 -1      1900 1.94915E+01 1.70531E-01-6.28993E-04-1.21277E+00 5.13062E-14 9.41296E-14
 -1      1901 1.91424E+01 2.79934E-01 1.41066E-02-1.08319E+00-1.04925E-14 1.89104E-13
 -1      1902 2.02204E+01 1.80174E-01 8.92027E-04-1.54576E+00 1.13795E-13 9.64190E-14
 -1      1903 1.89017E+01 3.64690E-01 6.24744E-03-8.51662E-01-1.95492E-13 3.42851E-14
 -1      1904 1.86713E+01 4.26819E-01 1.45076E-02-6.23984E-01-1.84222E-13-2.64582E-14
 -1      1905 1.96900E+01 4.73341E-01-7.81815E-03-1.20173E+00-2.09457E-13 9.90998E-14
 -1      1906 1.85527E+01 4.50311E-01 1.34522E-02-3.05609E-01-2.03882E-13-1.70200E-13
 -1      1907 1.84807E+01 4.35500E-01 9.77037E-03-5.06406E-02-1.44077E-13-2.52197E-13
 -1      1908 1.93302E+01 6.39026E-01-1.32059E-02-5.82940E-01-2.48502E-13-3.67913E-15
 -1      1909 1.85035E+01 3.88448E-01 1.68248E-02 2.47696E-01 9.49605E-14-3.22505E-13
 -1      1910 1.85833E+01 3.08615E-01 3.54318E-03 4.48713E-01 1.10005E-13-2.56326E-13
 -1      1911 1.92333E+01 6.02670E-01-1.15095E-02 1.12528E-01-1.00930E-13-2.85159E-13
 -1      1912 1.87015E+01 2.20021E-01 1.38341E-02 6.36677E-01 6.67313E-14-1.46438E-13
 -1      1913 1.88861E+01 1.20335E-01-4.79347E-04 7.35489E-01 2.04462E-13-3.82359E-14
 -1      1914 1.93731E+01 3.94332E-01-4.23224E-03 6.55895E-01 1.71922E-13-3.47396E-13
 -1      1915 1.90221E+01 3.63005E-02 5.93777E-03 7.85777E-01 2.70473E-13-8.88677E-14
 -1      1916 1.92483E+01-3.69395E-02-1.15555E-03 7.86647E-01 2.05978E-13-1.95169E-14
 -1      1917 1.96257E+01 1.27611E-01 3.18536E-03 9.13106E-01 1.91230E-13-2.50804E-13
 -1      1918 1.93411E+01-8.45709E-02-2.67253E-03 7.36096E-01-5.35058E-14-1.52997E-13
 -1      1919 1.95562E+01-1.12624E-01 1.58118E-04 6.79742E-01-1.33895E-13-1.95394E-13
 -1      1920 1.98534E+01-7.72184E-02 6.72199E-03 8.99766E-01-1.36108E-14-3.07430E-13
 -1      1921 1.95889E+01-1.23824E-01-8.04716E-03 5.91487E-01-1.36783E-13-3.33999E-13
 -1      1922 1.97620E+01-1.20009E-01 1.66135E-03 5.18512E-01-1.31813E-13-3.52078E-13
 -1      1923 1.99779E+01-1.68723E-01 5.33813E-03 7.34721E-01-1.78748E-13-1.43763E-13
 -1      1924 1.97443E+01-1.20667E-01-8.22330E-03 4.46619E-01-7.13405E-14-3.07040E-13
 -1      1925 1.98745E+01-1.25345E-01 1.35615E-03 3.68099E-01 2.55638E-14-1.55756E-13
 -1      1926 1.99718E+01-1.84967E-01 4.16175E-03 4.03144E-01-5.49907E-15-1.82665E-13
 -1      1927 1.99984E+01-1.67945E-01 8.48900E-03 5.50427E-01-7.45059E-14-2.11543E-13
 -1      1928 1.96215E+01 1.42053E-01 7.88537E-03 2.58972E-01 2.73682E-13 2.46430E-13
 -1      1929 1.98934E+01 2.04112E-01 1.64347E-02 4.31988E-01 2.94568E-13 3.44908E-13
 -1      1930 2.01047E+01 3.50568E-01-1.53400E-03 6.54468E-01 3.60160E-13 1.76720E-13
 -1      1931 1.93795E+01 7.19293E-02 6.95077E-03 5.59718E-02 1.82570E-13 1.28648E-13
 -1      1932 1.94943E+01 1.01815E-01 1.41963E-02 1.44506E-01 2.12705E-13 2.08767E-13
 -1      1933 1.97123E+01 1.65209E-01-1.94420E-03 2.55681E-01 2.64205E-13 1.22391E-13
 -1      1934 1.92893E+01 3.61651E-02 4.43268E-03-4.95140E-02 1.25404E-13 2.53439E-14
 -1      1935 1.93193E+01 5.19798E-02 8.33663E-03-2.28569E-03 1.43526E-13 8.84622E-14
 -1      1936 1.95122E+01 8.07021E-02-2.82373E-03 4.36697E-02 1.87176E-13 2.20132E-14
 -1      1937 1.92879E+01 1.62150E-02 2.86334E-03-1.02025E-01 7.17000E-14-6.93718E-14
 -1      1938 1.92725E+01 2.50829E-02 4.35153E-03-7.73855E-02 9.93463E-14 2.90306E-15
 -1      1939 1.94334E+01 3.74951E-02-2.84050E-03-6.82577E-02 1.27404E-13-9.07354E-14
 -1      1940 1.93353E+01 4.57021E-03 1.98790E-03-1.24113E-01 1.41492E-13-8.92203E-14
 -1      1941 1.92968E+01 9.60907E-03 2.14535E-03-1.12676E-01 8.03221E-14-6.43021E-14
 -1      1942 1.94271E+01 1.36494E-02-2.31053E-03-1.23812E-01 1.03884E-13-1.23888E-13
 -1      1943 1.94070E+01-2.22925E-03 1.44469E-03-1.28298E-01 1.46987E-13-1.20572E-13
 -1      1944 1.93584E+01 5.21354E-04 9.45925E-04-1.24799E-01 1.66266E-13-7.60762E-14
 -1      1945 1.94618E+01 4.91910E-05-1.69110E-03-1.46332E-01 1.66887E-13-1.05558E-13
 -1      1946 1.94876E+01-6.01063E-03 1.06273E-03-1.22120E-01 8.83689E-14-1.88731E-13
 -1      1947 1.94366E+01-4.68366E-03 2.72695E-04-1.23351E-01 1.21035E-13-1.04210E-13
 -1      1948 1.95175E+01-7.56938E-03-1.16902E-03-1.49290E-01 1.34767E-13-1.04802E-13
 -1      1949 1.95680E+01-7.84804E-03 7.77742E-04-1.10343E-01-1.41221E-14-2.29442E-13
 -1      1950 1.95190E+01-7.41882E-03-1.10328E-04-1.14246E-01 2.32385E-14-2.31874E-13
 -1      1951 1.95815E+01-1.14853E-02-7.77044E-04-1.40966E-01 6.57901E-14-1.39644E-13
 -1      1952 1.96429E+01-8.42211E-03 5.62886E-04-9.60519E-02 4.70565E-14-2.50427E-13
 -1      1953 1.95984E+01-8.55262E-03-3.18281E-04-1.01275E-01 1.84556E-14-2.27684E-13
 -1      1954 1.96460E+01-1.30445E-02-4.96673E-04-1.26656E-01 4.57698E-14-1.90375E-13
 -1      1955 1.97096E+01-8.18189E-03 4.03144E-04-8.12473E-02 6.51454E-14-2.37207E-13
 -1      1956 1.96707E+01-8.64918E-03-4.14305E-04-8.68988E-02 6.65706E-14-2.38017E-13
 -1      1957 1.97066E+01-1.30988E-02-3.02238E-04-1.09808E-01 7.70655E-14-2.63047E-13
 -1      1958 1.97672E+01-7.42568E-03 2.88231E-04-6.72159E-02 1.04809E-13-3.47450E-13
 -1      1959 1.97341E+01-8.08306E-03-4.37180E-04-7.27091E-02 9.89189E-14-3.01134E-13
 -1      1960 1.97611E+01-1.22052E-02-1.72283E-04-9.26651E-02 1.24331E-13-2.35967E-13
 -1      1961 1.98160E+01-6.34580E-03 2.10819E-04-5.47738E-02 6.11844E-14-3.65993E-13
 -1      1962 1.97883E+01-7.10013E-03-4.12065E-04-5.97254E-02 3.49178E-14-3.54259E-13
 -1      1963 1.98085E+01-1.07274E-02-9.07769E-05-7.66777E-02 6.53587E-14-2.67666E-13
 -1      1964 1.98568E+01-5.05582E-03 1.65983E-04-4.44410E-02 1.84706E-14-4.24334E-13
 -1      1965 1.98340E+01-5.85290E-03-3.55268E-04-4.85961E-02 5.08723E-14-3.96685E-13
 -1      1966 1.98491E+01-8.89106E-03-4.62486E-05-6.27782E-02 8.76563E-14-3.31936E-13
 -1      1967 1.98914E+01-3.60856E-03 1.50939E-04-3.65736E-02 1.06560E-13-3.90153E-13
 -1      1968 1.98724E+01-4.42310E-03-2.76817E-04-3.97488E-02 4.68956E-14-3.85736E-13
 -1      1969 1.98838E+01-6.81962E-03-3.08471E-05-5.15836E-02 3.23422E-14-3.57723E-13
 -1      1970 1.99217E+01-2.00838E-03 1.64996E-04-3.14655E-02 1.37770E-13-4.78921E-13
 -1      1971 1.99053E+01-2.83699E-03-1.82076E-04-3.35036E-02 1.23147E-13-4.18741E-13
 -1      1972 1.99141E+01-4.55654E-03-3.95499E-05-4.35476E-02 1.55625E-13-2.91523E-13
 -1      1973 1.99498E+01-2.19072E-04 2.09592E-04-2.94302E-02-1.40715E-16-4.65397E-13
 -1      1974 1.99348E+01-1.07547E-03-7.28357E-05-3.01639E-02 8.32106E-14-4.72950E-13
 -1      1975 1.99417E+01-2.08099E-03-6.96557E-05-3.90798E-02 1.12549E-13-3.57665E-13
 -1      1976 1.99786E+01 1.83166E-03 2.88466E-04-3.08713E-02-1.52322E-13-3.88963E-13
 -1      1977 1.99633E+01 9.19680E-04 5.19383E-05-3.00902E-02-1.00767E-13-4.50096E-13
 -1      1978 1.99687E+01 6.82709E-04-1.20404E-04-3.86431E-02-7.19337E-14-3.15871E-13
 -1      1979 2.00110E+01 4.25097E-03 4.07945E-04-3.63452E-02-1.53989E-13-2.54033E-13
 -1      1980 1.99939E+01 3.24299E-03 1.95604E-04-3.37657E-02-1.06149E-13-2.95005E-13
 -1      1981 1.99977E+01 3.86047E-03-1.92700E-04-4.28377E-02-1.62486E-13-1.98787E-13
 -1      1982 2.00509E+01 7.18230E-03 5.77340E-04-4.66235E-02-4.97239E-14-2.66895E-13
 -1      1983 2.00297E+01 6.02555E-03 3.63494E-04-4.18577E-02-7.84536E-14-2.30231E-13
 -1      1984 2.00317E+01 7.62806E-03-2.88917E-04-5.24791E-02-9.18209E-14-1.37252E-13
 -1      1985 2.01027E+01 1.08094E-02 8.09390E-04-6.27578E-02 7.21176E-14-3.25408E-13
 -1      1986 2.00749E+01 9.43790E-03 5.62634E-04-5.52801E-02 3.13642E-14-2.79577E-13
 -1      1987 2.00743E+01 1.22147E-02-4.12726E-04-6.86745E-02 5.88738E-14-1.37552E-13
 -1      1988 2.01716E+01 1.53617E-02 1.12061E-03-8.61512E-02-5.59906E-14-4.48584E-13
 -1      1989 2.01342E+01 1.36951E-02 8.01416E-04-7.52597E-02 1.15072E-14-4.06736E-13
 -1      1990 2.01295E+01 1.79095E-02-5.68954E-04-9.29035E-02 8.16326E-14-2.53453E-13
 -1      1991 2.02645E+01 2.11195E-02 1.53109E-03-1.18636E-01-1.51852E-13-4.56201E-13
 -1      1992 2.02136E+01 1.90621E-02 1.08896E-03-1.03408E-01-1.48818E-13-5.22220E-13
 -1      1993 2.02027E+01 2.50691E-02-7.63486E-04-1.27103E-01-1.07030E-13-3.92951E-13
 -1      1994 2.03893E+01 2.84109E-02 2.06289E-03-1.62548E-01-2.28830E-13-2.24029E-13
 -1      1995 2.03202E+01 2.58558E-02 1.43377E-03-1.41797E-01-1.76739E-13-3.38007E-13
 -1      1996 2.02999E+01 3.41204E-02-1.00323E-03-1.73752E-01-2.62880E-13-2.72808E-13
 -1      1997 2.05560E+01 3.75889E-02 2.73504E-03-2.20780E-01-4.90927E-14-4.51892E-14
 -1      1998 2.04628E+01 3.44318E-02 1.84075E-03-1.93014E-01-1.53001E-13-1.48468E-13
 -1      1999 2.04286E+01 4.55447E-02-1.29631E-03-2.35940E-01-2.29388E-13-9.50620E-14
 -1      2000 2.07764E+01 4.89559E-02 3.55163E-03-2.96745E-01 1.45662E-13 7.29712E-14
 -1      2001 2.06521E+01 4.51358E-02 2.30522E-03-2.60166E-01 1.29045E-13 4.62215E-14
 -1      2002 2.05975E+01 5.98138E-02-1.65291E-03-3.17360E-01 5.43975E-14 8.13401E-14
 -1      2003 2.10645E+01 6.25764E-02 4.47678E-03-3.94120E-01 4.48626E-14-1.48623E-13
 -1      2004 2.09005E+01 5.81709E-02 2.80148E-03-3.46720E-01 8.63697E-14-4.20782E-15
 -1      2005 2.08169E+01 7.72172E-02-2.08748E-03-4.22131E-01 1.32565E-13 7.74859E-14
 -1      2006 2.14357E+01 7.78592E-02 5.38782E-03-5.16095E-01 2.25301E-13-3.06038E-13
 -1      2007 2.12225E+01 7.32909E-02 3.26302E-03-4.56000E-01 1.45535E-13-1.56917E-13
 -1      2008 2.10981E+01 9.74577E-02-2.62330E-03-5.54216E-01 1.86784E-13-2.36669E-14
 -1      2009 2.19053E+01 9.27075E-02 5.99922E-03-6.63616E-01 3.03533E-15-2.98285E-13
 -1      2010 2.16334E+01 8.91558E-02 3.55335E-03-5.89925E-01 1.39700E-13-3.01460E-13
 -1      2011 2.14531E+01 1.18800E-01-3.29969E-03-7.16002E-01 1.70563E-13 5.46210E-14
 -1      2012 2.24858E+01 1.01940E-01 5.76545E-03-8.31714E-01-2.64884E-14-5.56146E-13
 -1      2013 2.21481E+01 1.02085E-01 3.43497E-03-7.46328E-01-4.07192E-14-4.83584E-13
 -1      2014 2.18932E+01 1.36423E-01-4.17698E-03-9.05302E-01-9.54965E-16-1.57592E-13
 -1      2015 2.31801E+01 9.47192E-02 3.82214E-03-1.00258E+00-1.17224E-13-5.84416E-13
 -1      2016 2.27765E+01 1.03895E-01 2.56622E-03-9.13763E-01-8.70029E-14-6.08433E-13
 -1      2017 2.24265E+01 1.39554E-01-5.31961E-03-1.10960E+00-2.97522E-14-4.94571E-13
 -1      2018 2.39720E+01 5.13680E-02-8.53614E-04-1.13410E+00-5.16005E-14-4.59923E-13
 -1      2019 2.35175E+01 7.87864E-02 5.99035E-04-1.06253E+00-9.90961E-14-5.91687E-13
 -1      2020 2.30546E+01 1.07346E-01-6.70483E-03-1.29613E+00-8.63318E-14-5.01346E-13
 -1      2021 2.48113E+01-5.76573E-02-8.74648E-03-1.14456E+00 2.48482E-14-3.68386E-13
 -1      2022 2.43476E+01 7.02600E-04-2.53019E-03-1.13165E+00-2.00786E-14-3.52655E-13
 -1      2023 2.37675E+01 5.30956E-03-7.96201E-03-1.39733E+00-6.81792E-14-3.77390E-13
 -1      2024 2.55969E+01-2.61979E-01-1.83023E-02-9.02069E-01 1.68156E-13-4.03916E-13
 -1      2025 2.52044E+01-1.63302E-01-6.23537E-03-1.01610E+00 9.05422E-14-3.43602E-13
 -1      2026 2.45358E+01-2.10447E-01-7.94186E-03-1.29582E+00 1.35184E-13-3.39582E-13
 -1      2027 2.61627E+01-5.53577E-01-2.43141E-02-2.47226E-01-4.78905E-14-1.89214E-13
 -1      2028 2.59630E+01-4.29536E-01-9.36928E-03-5.71682E-01 1.20997E-13-2.33820E-13
 -1      2029 2.52958E+01-5.63020E-01-4.42319E-03-8.25884E-01 1.12223E-13-3.12805E-14
 -1      2030 2.62819E+01-8.12580E-01-1.90258E-02 8.98415E-01-8.42035E-15-3.12765E-13
 -1      2031 2.64133E+01-7.37572E-01-1.18363E-02 3.22102E-01-3.43128E-14-2.45981E-13
 -1      2032 2.59212E+01-9.77563E-01 4.52870E-03 1.66059E-01 8.18789E-16-9.24824E-15
 -1      2033 2.57096E+01-7.51725E-01-3.97514E-03 2.29077E+00 1.20489E-13-2.09215E-13
 -1      2034 2.62640E+01-8.64550E-01-1.64566E-02 1.59246E+00-2.63019E-14-2.98560E-13
 -1      2035 2.61849E+01-1.17191E+00 1.61219E-02 1.64446E+00-4.35416E-15-1.15503E-13
 -1      2036 2.43679E+01-1.03777E-01-6.43335E-03 3.15875E+00 2.59341E-15-1.90681E-13
 -1      2037 2.52860E+01-4.79044E-01-2.89198E-02 2.73401E+00-3.46338E-15-1.79801E-13
 -1      2038 2.58008E+01-7.17254E-01 1.23943E-02 3.09406E+00 8.47749E-15-1.85622E-13
 -1      2039 2.26884E+01 8.97118E-01-5.06910E-02 2.55818E+00 5.48728E-14-2.13003E-13
 -1      2040 2.36726E+01 4.71213E-01-4.21332E-02 2.85874E+00 5.40054E-14-1.45054E-13
 -1      2041 2.47313E+01 4.79750E-01-3.11714E-02 3.46835E+00 9.32587E-15-1.94258E-13
 -1      2042 2.16774E+01 1.37544E+00-9.80821E-02 5.05372E-01 3.90514E-13-5.95990E-13
 -1      2043 2.22442E+01 1.31354E+00-3.89952E-02 1.46722E+00 2.01963E-13-4.56062E-13
 -1      2044 2.35864E+01 1.68482E+00-7.36594E-02 2.00939E+00 3.03244E-13-2.31684E-13
 -1      2045 2.19669E+01 8.16286E-01-8.87338E-02-1.51969E+00 1.24137E-13-4.89067E-13
 -1      2046 2.18452E+01 1.19755E+00-2.51701E-02-6.21277E-01 3.41241E-13-4.53599E-13
 -1      2047 2.32282E+01 1.76396E+00-6.81907E-02-4.90143E-01 2.90420E-13-2.27692E-13
 -1      2048 2.29701E+01-1.70564E-01-2.74577E-02-2.09072E+00-8.38045E-14-4.05037E-13
 -1      2049 2.23987E+01 2.70951E-01-2.00876E-02-1.85553E+00-1.12028E-13-3.99267E-13
 -1      2050 2.36757E+01 6.48112E-01-2.63016E-02-2.10982E+00-1.30937E-14 8.60423E-16
 -1      2051 2.36129E+01-7.35735E-01 2.43990E-02-1.22861E+00 1.07713E-13-4.12651E-13
 -1      2052 2.31015E+01-5.68313E-01-2.47317E-02-1.59583E+00 9.41244E-14-3.25479E-13
 -1      2053 2.41000E+01-6.12100E-01-5.94032E-03-1.91569E+00 8.02726E-14 1.41016E-14
 -1      2054 2.34323E+01-7.08692E-01 3.92113E-02 8.32561E-02-2.35626E-13-1.88311E-13
 -1      2055 2.33048E+01-7.98921E-01-2.35906E-02-4.66045E-01-1.48027E-13-3.68481E-13
 -1      2056 2.39045E+01-1.12396E+00-1.11705E-02-5.89056E-01-1.79853E-13 7.76089E-14
 -1      2057 2.26031E+01-3.50809E-01 3.01983E-02 1.02655E+00-4.37740E-13-2.12146E-13
 -1      2058 2.28666E+01-5.50208E-01-1.58987E-02 6.35457E-01-3.79682E-13-3.45196E-13
 -1      2059 2.31339E+01-8.86459E-01-1.69576E-02 7.60416E-01-2.69751E-13 3.84155E-14
 -1      2060 2.15286E+01 9.57080E-02 1.85966E-02 1.26386E+00 2.01942E-13-8.81639E-14
 -1      2061 2.19925E+01-1.17980E-01-7.93304E-03 1.18892E+00-1.34028E-13-1.23995E-13
 -1      2062 2.20911E+01-2.95898E-01-1.69526E-02 1.47748E+00-2.31915E-13-6.06321E-14
 -1      2063 2.07102E+01 4.25307E-01 1.15582E-02 9.87089E-01-6.84116E-14 3.04552E-13
 -1      2064 2.11698E+01 2.26036E-01-8.09606E-03 1.19308E+00 8.38546E-14 1.70969E-13
 -1      2065 2.12294E+01 2.22172E-01-1.74895E-02 1.52171E+00-8.46315E-14 3.69007E-13
 -1      2066 2.06403E+01 7.08836E-01 3.16385E-03 1.22146E+00-1.32173E-13 5.56947E-13
 -1      2067 1.98247E+01 3.85857E+00-2.75571E-02 2.84056E+00 3.97182E-14-9.75262E-14
 -1      2068 2.01466E+01 3.04366E+00 1.47158E-02 2.85179E+00-2.87756E-14-1.27341E-13
 -1      2069 2.03905E+01 2.47757E+00-2.84388E-03 2.65554E+00 1.25160E-14-1.71685E-13
 -1      2070 2.05740E+01 1.72049E+00 9.40241E-03 2.37779E+00 5.97725E-14 6.03146E-14
 -1      2071 2.03661E+01 1.84828E+00-1.35389E-02 3.35904E+00-1.99986E-13-2.43703E-13
 -1      2072 2.05963E+01 1.51235E+00 1.21930E-02 1.99248E+00-8.76937E-14 2.45920E-13
 -1      2073 2.06626E+01 9.32544E-01 8.03123E-03 1.60905E+00-1.59237E-13 2.68806E-13
 -1      2074 2.09298E+01 7.06365E-01 4.74973E-03 1.83723E+00-2.82235E-13 3.82088E-13
 -1      2075 2.08458E+01 1.11290E+00-1.03631E-03 2.67555E+00-1.11019E-13 3.32153E-13
 -1      2076 1.91033E+01 5.16655E+00-4.92909E-02 2.22186E+00-3.88167E-13-5.70433E-13
 -1      2077 1.94795E+01 4.51997E+00 1.10764E-02 2.61691E+00-1.94882E-13-2.80232E-13
 -1      2078 1.94482E+01 3.04660E+00-1.58501E-03 3.37208E+00-2.58298E-13-3.48583E-13
 -1      2079 1.85830E+01 5.98274E+00-4.36884E-02 7.27508E-01-3.69997E-13-2.21188E-13
 -1      2080 1.87922E+01 5.69658E+00-8.41927E-03 1.46818E+00-3.22487E-13-1.94511E-13
 -1      2081 1.84678E+01 4.24458E+00 4.11609E-02 2.30290E+00-3.01775E-13-4.38986E-13
 -1      2082 1.86506E+01 5.84717E+00-1.68075E-02-1.11342E+00-1.58436E-13-1.98695E-14
 -1      2083 1.85347E+01 6.04546E+00-3.60828E-02-3.19448E-01-1.73596E-13-1.04965E-13
 -1      2084 1.79240E+01 4.83870E+00 6.42155E-02 2.54177E-01-1.26067E-13-8.36484E-15
 -1      2085 1.92556E+01 4.77122E+00 7.91383E-03-2.52059E+00-1.48354E-13-9.18987E-14
 -1      2086 1.88967E+01 5.39167E+00-5.02555E-02-1.99865E+00-1.06595E-13-1.17795E-13
 -1      2087 1.82237E+01 4.44470E+00 5.18215E-02-1.95085E+00-8.55874E-14-8.95117E-14
 -1      2088 2.00068E+01 3.20322E+00 1.81935E-02-3.01611E+00 1.77372E-13-2.58558E-14
 -1      2089 1.96277E+01 4.04510E+00-3.81326E-02-2.91039E+00 1.10943E-13 8.47378E-14
 -1      2090 1.91598E+01 3.26382E+00 1.39960E-02-3.37790E+00-1.57053E-14 2.16578E-13
 -1      2091 2.05336E+01 1.69303E+00 1.74181E-02-2.65903E+00 2.71868E-13-3.52140E-14
 -1      2092 2.03026E+01 2.52259E+00-8.75633E-03-2.89123E+00 2.38930E-13-8.47326E-15
 -1      2093 2.01908E+01 1.87038E+00-1.29850E-02-3.63759E+00 3.38507E-13 5.67053E-14
 -1      2094 2.07190E+01 5.88841E-01 1.19994E-02-1.85432E+00 3.07530E-13 5.46143E-14
 -1      2095 2.06643E+01 1.23384E+00 1.76380E-02-2.23471E+00 2.18828E-13-4.92315E-15
 -1      2096 2.08540E+01 7.44181E-01-2.15124E-02-2.99025E+00 3.60589E-13-4.45763E-14
 -1      2097 2.06522E+01-7.05735E-02 7.56459E-03-9.63892E-01 3.75564E-13 9.41703E-13
 -1      2098 2.07141E+01 3.41783E-01 3.00333E-02-1.34864E+00 3.35934E-13 4.64488E-13
 -1      2099 2.10510E+01 3.85800E-02-1.73047E-02-1.94488E+00 4.46072E-13 2.05189E-13
 -1      2100 2.04533E+01-3.36713E-01 3.22888E-03-2.47563E-01 5.79606E-14 1.18084E-13
 -1      2101 2.05694E+01-1.50514E-01 3.05575E-02-5.37791E-01 2.16844E-13 6.70837E-13
 -1      2102 2.09087E+01-2.96933E-01-1.04215E-02-9.13819E-01 2.80032E-13 6.83067E-13
 -1      2103 2.02051E+01-3.38198E-01-1.74564E-04 2.00544E-01 2.84260E-14-4.59146E-13
 -1      2104 2.03431E+01-3.16432E-01 2.36930E-02 2.99401E-02 7.92114E-14-2.34899E-13
 -1      2105 2.05983E+01-3.71664E-01-5.76531E-03-1.42036E-01-5.79055E-14-1.02304E-13
 -1      2106 1.06381E+01-6.88759E+00-2.57762E-01 6.97195E+00 4.20775E-14 5.59552E-14
 -1      2107 6.84963E+00-8.66671E+00-5.37461E-01 5.61712E+00-5.21805E-15-1.45356E-13
 -1      2108 6.31043E-01-8.25878E+00-3.95398E-01 7.83180E-01 6.51840E-14 4.45421E-13
 -1      2109 6.91932E-01-8.18253E+00-3.87885E-01-1.35370E+00-1.00198E-14 5.53668E-13
 -1      2110 3.60055E+00-8.48016E+00-4.36092E-01 4.52169E+00 9.33698E-14-4.21385E-13
 -1      2111 1.51032E+00-9.17158E+00-5.29017E-01 2.95808E+00 1.30673E-13-1.43441E-13
 -1      2112 2.04933E+01-5.23504E+00-1.01502E-01 7.46520E+00-2.18714E-14 8.37275E-13
 -1      2113 1.47339E+01-6.93913E+00-4.20479E-01 6.80681E+00-1.44329E-14 3.15720E-13
 -1      2114 3.09693E+01-1.49845E+00 1.82928E-01 5.69188E+00 1.88960E-13 4.30100E-13
 -1      2115 2.59214E+01-3.86585E+00-4.09684E-02 5.97019E+00 1.47438E-13 6.36435E-13
 -1      2116 1.95185E+01 4.01571E+00-2.70056E-02-1.70253E+00-3.80593E-13-4.53816E-13
 -1      2117 1.96465E+01 3.94616E+00-2.46258E-02-1.95383E+00-4.25947E-13-3.55885E-13
 -1      2118 1.99718E+01 3.24698E+00-1.38925E-02-1.91800E+00-4.46751E-13-2.76095E-13
 -1      2119 1.96972E+01 3.58508E+00-7.21510E-03-1.52053E+00-3.86965E-13-4.44932E-13
 -1      2120 4.14881E+01 6.22744E+00 2.88891E-01 1.76763E+00 1.29174E-13 3.38840E-13
 -1      2121 3.97210E+01 5.06183E+00 2.57378E-01 2.90972E+00 1.67422E-13 3.80473E-13
 -1      2122 4.14149E+01 7.58910E+00 2.59458E-01 9.18868E-01 4.78395E-13-3.68178E-14
 -1      2123 4.15682E+01 7.46940E+00 3.17272E-01 1.50627E+00 3.27793E-13 9.04832E-15
 -1      2124 4.09395E+01 5.65582E+00 3.10039E-01-2.11292E-01 4.99489E-13-5.51781E-14
 -1      2125 4.19565E+01 6.77911E+00 2.93461E-01 8.86047E-01 4.68292E-13-4.86000E-14
 -1      2126 3.57146E+01 1.95396E+00 4.64196E-02-1.50533E+00 6.78825E-13-1.87295E-13
 -1      2127 3.98075E+01 3.74606E+00 3.51050E-01-9.78478E-01 6.27415E-13 2.00950E-14
 -1      2128 2.82709E+01-2.46919E+00-1.30782E-01-3.66003E+00 6.09901E-13-5.00489E-13
 -1      2129 3.32839E+01-5.41753E-01 1.54677E-01-3.14333E+00 4.95548E-13-5.15366E-13
 -1      2130 1.88059E+01-5.52201E+00-3.30495E-01-5.21302E+00 3.68150E-13-4.47864E-13
 -1      2131 2.42883E+01-3.63381E+00 6.32419E-03-5.59654E+00 5.73541E-13-4.68348E-13
 -1      2132 1.09173E+01-7.47704E+00-2.74076E-01-5.49199E+00 3.69038E-13-4.00305E-13
 -1      2133 1.49459E+01-5.92826E+00-1.33887E-01-6.04904E+00 3.70370E-13-4.98601E-13
 -1      2134 1.96825E+01-6.73953E+00-5.19880E-02-5.58856E+00 2.55185E-13-4.15917E-13
 -1      2135 2.97721E+00-8.71609E+00-4.89445E-01-3.21596E+00 1.84408E-13-4.01512E-13
 -1      2136 6.25470E+00-7.22386E+00-2.35126E-01-4.88412E+00 2.26097E-13-2.48468E-13
 -1      2137 2.01581E-01-7.99336E+00-3.20866E-01-5.44976E-01 5.47062E-14-6.54754E-13
 -1      2138 1.17648E+00-8.29457E+00-3.56383E-01-2.01374E+00 2.16771E-13-6.46094E-13
 -1      2139 3.85954E+00-5.89131E+00-1.23956E-01-3.61235E+00 3.61378E-14-5.36959E-13
 -1      2140 1.35923E+00-7.88721E+00-3.22546E-01 3.16544E+00 1.83575E-13-2.53297E-13
 -1      2141 2.84354E-01-7.93110E+00-3.20816E-01 1.74142E+00 2.52770E-13-4.37539E-13
 -1      2142 5.89058E+00-6.72148E+00-2.18448E-01 5.72988E+00-1.22125E-14-2.25375E-14
 -1      2143 3.13183E+00-8.27398E+00-4.23841E-01 4.31098E+00 1.36946E-13-2.83107E-15
 -1      2144 3.77909E+00-5.80299E+00-1.54525E-01 4.71649E+00 2.52104E-13-1.15519E-13
 -1      2145 1.40938E+01-4.85097E+00-8.81140E-02 7.17658E+00-1.48215E-13-5.00155E-13
 -1      2146 9.95895E+00-6.85305E+00-3.59252E-01 6.19826E+00-8.50431E-14-1.46029E-13
 -1      2147 2.31078E+01-2.48679E+00 6.96838E-02 7.02275E+00-2.30482E-13-5.06817E-13
 -1      2148 1.82574E+01-4.51871E+00-2.66005E-01 6.50578E+00-1.58429E-13-6.15397E-13
 -1      2149 3.11649E+01 2.46894E-01 7.25307E-02 5.26414E+00-2.64178E-13 3.10862E-15
 -1      2150 2.61639E+01-1.38287E+00-1.34778E-01 5.73606E+00-3.01037E-13-1.55875E-13
 -1      2151 2.65160E+01-3.81823E+00 1.25469E-01 5.03956E+00-1.75499E-13-1.26454E-13
 -1      2152 3.77722E+01 3.99939E+00 1.84245E-01 2.19620E+00-2.60653E-13 4.01346E-14
 -1      2153 3.38453E+01 2.34046E+00-3.93667E-02 2.62056E+00-2.65656E-13 1.90070E-13
 -1      2154 3.99142E+01 6.83310E+00 1.60260E-01 2.50274E-01-3.10918E-13 2.60764E-13
 -1      2155 3.83986E+01 5.65516E+00 6.08371E-02 1.46337E+00-3.18190E-13 1.11910E-13
 -1      2156 3.45371E+01 4.77463E+00 1.82014E-01-1.02449E+00-3.10807E-13 5.48672E-13
 -1      2157 4.30810E+01 7.69642E+00 4.01617E-01-1.17588E+00-5.84643E-13 3.81056E-13
 -1      2158 4.18976E+01 7.88475E+00 2.23403E-01 2.61564E-01-5.54612E-13 2.32980E-13
 -1      2159 3.96877E+01 6.19260E+00 2.08863E-01-2.69934E+00-9.10938E-13 6.47760E-13
 -1      2160 4.23891E+01 7.01912E+00 4.10760E-01-1.73144E+00-8.15237E-13 4.57689E-13
 -1      2161 3.44990E+01 2.54543E+00 1.11709E-01-4.79568E+00-6.89372E-13 1.03717E-12
 -1      2162 3.84752E+01 4.18545E+00 3.27507E-01-3.93496E+00-7.57255E-13 7.59837E-13
 -1      2163 2.72710E+01-1.60728E+00 2.49345E-02-6.21751E+00-7.16427E-13 8.16014E-13
 -1      2164 3.22999E+01 9.80153E-01 3.56466E-01-6.39337E+00-6.25888E-13 1.09790E-12
 -1      2165 3.34243E+01 2.97279E-01 2.15830E-01-3.02059E+00-4.84616E-13 6.85618E-13
 -1      2166 1.66229E+01-5.78547E+00-3.29951E-01-6.98024E+00-3.42948E-13 9.97646E-13
 -1      2167 2.21707E+01-3.83592E+00-7.54846E-02-7.57782E+00-5.58886E-13 7.87370E-13
 -1      2168 8.01196E+00-8.20551E+00-4.83912E-01-6.10756E+00 1.55209E-13 9.52266E-13
 -1      2169 1.21974E+01-6.11195E+00-1.72573E-01-7.43616E+00-2.22822E-13 1.23417E-12
 -1      2170 2.05556E+00-8.81662E+00-4.82608E-01-3.58379E+00 1.43219E-13 3.66984E-13
 -1      2171 4.53603E+00-7.88632E+00-3.48845E-01-5.26408E+00 2.84217E-14 5.32130E-13
 -1      2172 3.84972E+01 3.14060E+00 4.00636E-01 3.75005E+00 3.31180E-13 2.48024E-13
 -1      2173 3.37505E+01 7.19596E-01-1.40572E-02 3.55598E+00 3.23470E-13 1.71640E-13
 -1      2174 3.63621E+01 3.41040E+00 2.63230E-01 3.62489E-01 1.46855E-13-1.80966E-14
 -1      2175 2.44066E+01-5.47830E+00-2.94705E-02 6.43486E+00-4.73510E-14 5.29354E-13
 -1      2176 2.31617E+01-6.50376E+00 1.54444E-01 6.71701E+00-2.41918E-13 4.56621E-13
 -1      2177 2.73596E+01-5.85547E+00-1.48324E-01 4.87039E+00-1.74361E-13 3.45113E-13
 -1      2178 2.07373E+01 1.10842E+00-2.07728E-02-1.61549E+00-4.08978E-13 4.82748E-13
 -1      2179 3.26502E+01-1.89418E+00 8.07720E-02 2.71260E+00 1.38084E-13-9.91984E-14
 -1      2180 2.06276E+01 1.33008E+00-1.86767E-02-1.67724E+00-4.43864E-13 2.07678E-13
 -1      2181 7.30064E+00-7.04949E+00-2.46924E-01 6.41895E+00-1.75970E-14-3.60212E-13
 -1      2182 2.55620E+00-5.93854E+00-2.39352E-01 2.30816E+00 5.27356E-16 6.91669E-14
 -1      2183 2.01649E+01-2.78932E-01 1.36730E-03 2.72405E-01 2.14147E-14-2.45219E-13
 -1      2184 1.53909E+01-7.05090E+00-7.12431E-02 7.77148E+00-1.25178E-13 2.15772E-13
 -1      2185 3.06498E+00-5.70316E+00-2.06132E-01-3.10671E+00-7.77711E-14 5.01599E-13
 -1      2186 8.52833E+00-6.77998E+00-1.96885E-01-7.01789E+00 2.31370E-13 7.38909E-13
 -1      2187 2.60881E+01-3.69182E+00 6.08371E-02-6.27985E+00-4.22939E-13 7.19813E-13
 -1      2188 2.88973E+01-4.18243E+00-2.18332E-01-4.54500E+00-2.57849E-13 5.76761E-13
 -1      2189 2.52777E+01-5.41529E+00 1.85898E-01-6.37452E+00-1.64313E-13 5.73014E-13
 -1      2190 3.67551E+01 4.97998E+00 2.90122E-01-9.79575E-01-7.70273E-13 6.03129E-13
 -1      2191 3.68539E+01 7.99299E+00 2.24476E-01-8.50967E-01-4.43812E-13 5.45591E-13
 -1      2192 3.24762E+01 1.54478E-01 1.84671E-01 1.70875E+00-1.22478E-13 2.71339E-13
 -1      2193 9.99639E+00-6.39084E+00-1.14764E-01 6.97053E+00 8.78186E-14-1.01807E-13
 -1      2194 1.55984E+00-5.49086E+00-1.40244E-01 6.18110E-01 1.64639E-13-4.36873E-13
 -1      2195 1.00741E+01-7.01748E+00-1.26145E-01-5.63108E+00 2.44471E-13-2.89088E-13
 -1      2196 1.38785E+01-6.73250E+00-1.42025E-01-6.38988E+00 1.78246E-13-3.12889E-13
 -1      2197 9.61629E+00-5.66883E+00 1.24743E-01-5.87586E+00 6.08957E-14-2.26791E-13
 -1      2198 2.79483E+01-4.61577E+00 8.63624E-02-3.17563E+00 3.88078E-13-3.06144E-13
 -1      2199 3.40792E+01-3.58198E-01 1.81653E-01 1.88067E-01 5.68955E-13-6.28941E-14
 -1      2200 3.72531E+01 4.77889E+00 3.25571E-01 1.76369E+00 6.90170E-13-1.68421E-13
 -1      2201 3.73877E+01 7.15134E+00 2.94070E-01 3.11723E-01 2.62901E-13-6.71685E-14
 -1      2202 3.76530E+01 7.69373E+00 2.81620E-01 1.35830E+00 4.82281E-13-3.33206E-13
 -1      2203 1.89004E+01-5.83384E+00-7.33169E-03 7.01337E+00-2.89768E-14-5.32865E-13
 -1      2204 3.81195E+01 8.41363E+00 3.73130E-01-3.06758E-01-8.21232E-13 4.04538E-13
 -1      2205 1.71808E+01-6.53695E+00-3.21440E-02-7.93314E+00 8.08797E-14 9.89236E-13
 -1      2206 2.01492E+01 5.06484E-01 3.73098E-03 6.77481E-01 3.39109E-13 1.73099E-14
 -1      2207 2.04170E+01 7.00014E-01 2.07818E-02 9.69105E-01 3.89921E-13 5.39187E-14
 -1      2208 1.95590E+01 3.51638E+00-1.10676E-02-5.91407E-01-2.09406E-13-5.57041E-13
 -1      2209 1.95946E+01 3.47058E+00-1.04082E-02-7.75671E-01-2.61805E-13-5.51674E-13
 -1      2210 1.96413E+01 3.38266E+00-1.26412E-02-9.40007E-01-2.90767E-13-5.35668E-13
 -1      2211 1.97027E+01 3.30165E+00-1.26093E-02-1.12926E+00-3.46007E-13-4.92124E-13
 -1      2212 1.97856E+01 3.03353E+00 2.10215E-04-7.92195E-01-2.67930E-13-5.04185E-13
 -1      2213 1.95116E+01 3.59881E+00-9.62124E-03 9.94172E-02-2.37477E-14-6.11408E-13
 -1      2214 1.95109E+01 3.59964E+00-9.62009E-03-8.00475E-02-7.64361E-14-5.97239E-13
 -1      2215 1.95378E+01 3.55940E+00-9.72116E-03 4.45441E-01 5.46119E-14-6.28544E-13
 -1      2216 1.95203E+01 3.58197E+00-1.01395E-02 2.64620E-01 6.33707E-15-6.22993E-13
 -1      2217 1.96777E+01 3.22153E+00-9.10407E-04 1.69539E-01-1.43270E-14-5.85575E-13
 -1      2218 1.95999E+01 3.46287E+00-1.06062E-02 7.89394E-01 1.48297E-13-6.06773E-13
 -1      2219 1.95635E+01 3.50988E+00-1.12084E-02 6.07963E-01 9.11263E-14-6.20394E-13
 -1      2220 1.97147E+01 3.15803E+00-5.03238E-04 4.87966E-01 6.59959E-14-5.88974E-13
 -1      2221 1.97109E+01 3.28911E+00-1.29471E-02 1.14273E+00 2.60324E-13-5.66143E-13
 -1      2222 1.96481E+01 3.37245E+00-1.28723E-02 9.53462E-01 1.94920E-13-5.84815E-13
 -1      2223 1.97920E+01 3.02437E+00 2.71527E-04 8.03619E-01 1.71471E-13-5.58325E-13
 -1      2224 1.98905E+01 3.00352E+00-1.81644E-02 1.48971E+00 3.57511E-13-4.93689E-13
 -1      2225 1.97908E+01 3.14481E+00-1.51792E-02 1.29933E+00 2.98805E-13-5.38798E-13
 -1      2226 1.99215E+01 2.79921E+00 1.96109E-03 1.10984E+00 2.75376E-13-5.01022E-13
 -1      2227 2.01695E+01 2.54390E+00-2.83953E-02 1.79405E+00 4.45815E-13-3.50215E-13
 -1      2228 2.00180E+01 2.78329E+00-1.70948E-02 1.61957E+00 3.85638E-13-4.25365E-13
 -1      2229 2.01166E+01 2.44849E+00 5.81750E-03 1.37551E+00 3.50332E-13-4.17018E-13
 -1      2230 1.98722E+01 2.68246E-01 4.73067E-03 2.84914E-01 2.44649E-13-2.01885E-14
 -1      2231 2.00329E+01 3.68020E-01 2.01691E-02 4.42075E-01 2.87262E-13 1.94944E-14
 -1      2232 2.02116E+01 6.34638E-01-2.24717E-03 7.04297E-01 3.34787E-13-1.01684E-13
 -1      2233 2.04021E+01 8.55070E-01 1.29386E-02-1.00032E+00-3.53127E-13 6.77449E-14
 -1      2234 2.01915E+01 6.28188E-01-4.00825E-03-6.90205E-01-3.19246E-13 4.48976E-14
 -1      2235 3.27608E+01-1.39991E+00-9.91345E-02 8.22294E-01 1.12077E-13-5.29632E-13
 -1      2236 3.04819E+01-3.76077E+00-2.25859E-02 2.39440E+00-1.35128E-13-3.43281E-13
 -1      2237 2.01255E+01 4.69103E-01 1.61188E-02-4.74839E-01-2.89686E-13 5.54336E-14
 -1      2238 1.99845E+01 3.44335E-01 2.53983E-05-3.03266E-01-2.30486E-13 3.70218E-14
 -1      2239 2.02454E+01 7.45198E-01-1.74600E-03-6.93848E-01-3.26238E-13-5.52022E-14
 -1      2240 1.99211E+01 2.59433E-01 1.08749E-02-1.65716E-01-2.01356E-13 3.71813E-14
 -1      2241 1.98423E+01 1.87962E-01 6.89968E-04-6.85501E-02-1.87417E-13 4.19738E-15
 -1      2242 2.00808E+01 4.16359E-01-3.68316E-03-3.10047E-01-2.43954E-13-7.07812E-14
 -1      2243 1.97979E+01 1.38463E-01 6.38300E-03 1.34920E-02-1.72047E-13-1.85592E-14
 -1      2244 1.97628E+01 9.60846E-02 7.01482E-04 6.67378E-02-1.69380E-13-4.90459E-14
 -1      2245 1.99601E+01 2.27132E-01-3.65083E-03-7.11672E-02-2.14572E-13-1.00571E-13
 -1      2246 1.97369E+01 6.61326E-02 3.57654E-03 1.12356E-01-1.68619E-13-6.29013E-14
 -1      2247 1.97295E+01 4.05419E-02 6.09059E-04 1.38810E-01-1.63743E-13-7.04784E-14
 -1      2248 1.98843E+01 1.14641E-01-2.92800E-03 6.94184E-02-1.94164E-13-1.34897E-13
 -1      2249 1.97177E+01 2.22376E-02 1.85496E-03 1.60906E-01-1.71229E-13-6.51192E-14
 -1      2250 1.97267E+01 6.93579E-03 4.87855E-04 1.70889E-01-1.50126E-13-7.05948E-14
 -1      2251 1.98445E+01 4.63490E-02-2.11563E-03 1.45354E-01-1.79016E-13-9.58753E-14
 -1      2252 1.97246E+01-4.02539E-03 7.93177E-04 1.78092E-01-1.29442E-13-1.20148E-13
 -1      2253 1.97426E+01-1.27621E-02 3.70225E-04 1.78100E-01-1.20824E-13-1.48544E-13
 -1      2254 1.98302E+01 5.13031E-03-1.42868E-03 1.79597E-01-1.69302E-13-1.89427E-13
 -1      2255 1.97465E+01-1.89333E-02 1.43370E-04 1.76207E-01-1.70381E-13-1.60791E-13
 -1      2256 1.97684E+01-2.33887E-02 2.71849E-04 1.70469E-01-1.78541E-13-1.97431E-13
 -1      2257 1.98324E+01-1.88260E-02-9.09602E-04 1.87616E-01-1.78042E-13-2.24047E-13
 -1      2258 1.97758E+01-2.63875E-02-2.39713E-04 1.63403E-01-1.04151E-13-1.85889E-13
 -1      2259 1.97986E+01-2.80353E-02 1.98925E-04 1.54717E-01-7.24570E-14-1.50585E-13
 -1      2260 1.98445E+01-3.15015E-02-5.40799E-04 1.79890E-01-1.42338E-13-1.69781E-13
 -1      2261 1.98076E+01-2.89315E-02-4.46945E-04 1.45133E-01-4.70081E-14-1.02741E-13
 -1      2262 1.98295E+01-2.87504E-02 1.51989E-04 1.35358E-01-1.34753E-14-8.82752E-14
 -1      2263 1.98617E+01-3.67427E-02-2.91217E-04 1.63540E-01-2.74332E-14-1.10323E-13
 -1      2264 1.98389E+01-2.82641E-02-5.38646E-04 1.25043E-01 2.56910E-15-4.75278E-14
 -1      2265 1.98590E+01-2.69057E-02 1.29585E-04 1.15409E-01 3.25429E-14 2.62535E-14
 -1      2266 1.98810E+01-3.71005E-02-1.31801E-04 1.43394E-01 4.50306E-14-3.43152E-14
 -1      2267 1.98682E+01-2.55172E-02-5.56122E-04 1.05555E-01 3.44236E-14 2.47968E-14
 -1      2268 1.98862E+01-2.34041E-02 1.30336E-04 9.68707E-02 2.61984E-14 2.04786E-14
 -1      2269 1.99006E+01-3.42773E-02-3.90807E-05 1.22703E-01 2.66734E-14-1.65195E-14
 -1      2270 1.98949E+01-2.14207E-02-5.27943E-04 8.82734E-02-3.20348E-14 2.21893E-14
 -1      2271 1.99107E+01-1.88086E-02 1.53775E-04 8.10781E-02-2.63494E-14-4.33046E-14
 -1      2272 1.99193E+01-2.93842E-02 4.71875E-06 1.03647E-01-7.04786E-15-6.44999E-14
 -1      2273 1.99189E+01-1.64094E-02-4.73728E-04 7.42827E-02-5.35355E-14-1.86695E-14
 -1      2274 1.99331E+01-1.34304E-02 2.00455E-04 6.89546E-02-6.33137E-14-2.63188E-14
 -1      2275 1.99370E+01-2.31031E-02 1.24851E-05 8.77023E-02-5.30711E-14-1.64991E-14
 -1      2276 1.99408E+01-1.06992E-02-4.06660E-04 6.43633E-02-9.43697E-14-7.61761E-14
 -1      2277 1.99540E+01-7.39481E-03 2.71794E-04 6.12005E-02-9.67612E-14-6.23586E-14
 -1      2278 1.99537E+01-1.57988E-02-6.67474E-06 7.59138E-02-1.36460E-13-4.24053E-14
 -1      2279 1.99616E+01-4.34694E-03-3.35307E-04 5.91519E-02-9.22696E-14-1.40403E-13
 -1      2280 1.99745E+01-6.94960E-04 3.69722E-04 5.84294E-02-1.01137E-13-1.19271E-13
 -1      2281 1.99699E+01-7.60462E-03-4.64544E-05 6.90974E-02-1.21852E-13-1.64395E-13
 -1      2282 1.99825E+01 2.70006E-03-2.64914E-04 5.92536E-02-1.52331E-13-1.10250E-13
 -1      2283 1.99960E+01 6.76057E-03 4.96101E-04 6.12617E-02-1.17758E-13-1.51464E-13
 -1      2284 1.99863E+01 1.50804E-03-1.02589E-04 6.79825E-02-1.44703E-13-2.12024E-13
 -1      2285 2.00049E+01 1.05560E-02-1.98263E-04 6.53143E-02-9.37782E-14-1.53393E-13
 -1      2286 2.00201E+01 1.50980E-02 6.51815E-04 7.03771E-02-6.84561E-14-1.54997E-13
 -1      2287 2.00040E+01 1.16647E-02-1.72253E-04 7.33081E-02-8.84281E-14-1.19981E-13
 -1      2288 2.00304E+01 1.93433E-02-1.36213E-04 7.80505E-02-5.31653E-15-1.85868E-13
 -1      2289 2.00486E+01 2.44196E-02 8.35462E-04 8.65226E-02 1.17209E-13-2.28919E-13
 -1      2290 2.00241E+01 2.30186E-02-2.53472E-04 8.58719E-02-3.63680E-14-1.10555E-13
 -1      2291 2.00611E+01 2.91268E-02-7.79501E-05 9.82315E-02 1.97106E-13-2.31109E-13
 -1      2292 2.00835E+01 3.47264E-02 1.04148E-03 1.10467E-01 1.23300E-13-1.11622E-13
 -1      2293 2.00480E+01 3.56669E-02-3.44677E-04 1.06528E-01 1.41702E-13-2.01083E-13
 -1      2294 2.00990E+01 3.98245E-02-2.09147E-05 1.26601E-01 3.46072E-14-7.25892E-14
 -1      2295 2.01271E+01 4.58141E-02 1.25757E-03 1.42889E-01 3.71605E-15-5.95402E-14
 -1      2296 2.00772E+01 4.95399E-02-4.44430E-04 1.36122E-01 1.24595E-13-1.40363E-13
 -1      2297 2.01466E+01 5.10865E-02 3.96409E-05 1.63719E-01-3.13296E-14-6.41433E-14
 -1      2298 2.01817E+01 5.71292E-02 1.46127E-03 1.84165E-01-3.95628E-14-8.25577E-14
 -1      2299 2.01135E+01 6.42514E-02-5.51389E-04 1.75347E-01-3.18410E-14-1.98918E-13
 -1      2300 2.02061E+01 6.21289E-02 1.11500E-04 2.09699E-01-5.23159E-14-1.35557E-13
 -1      2301 2.02497E+01 6.75755E-02 1.61571E-03 2.34049E-01-1.75096E-14-1.55332E-13
 -1      2302 2.01589E+01 7.88938E-02-6.64615E-04 2.24493E-01-7.88684E-14-2.07896E-13
 -1      2303 2.02803E+01 7.15148E-02 2.06727E-04 2.63802E-01 3.82092E-15-2.07139E-13
 -1      2304 2.03334E+01 7.52669E-02 1.66483E-03 2.91184E-01-4.58997E-15-2.38006E-13
 -1      2305 2.02155E+01 9.17683E-02-7.84358E-04 2.83064E-01-5.45025E-14-1.94773E-13
 -1      2306 2.03716E+01 7.68850E-02 3.43104E-04 3.23865E-01-4.06153E-14-1.88356E-13
 -1      2307 2.04348E+01 7.72393E-02 1.52902E-03 3.52433E-01-5.17490E-14-1.12975E-13
 -1      2308 2.02857E+01 1.00049E-01-9.13344E-04 3.49221E-01-1.60150E-14-1.29420E-13
 -1      2309 2.04823E+01 7.46653E-02 5.45112E-04 3.85524E-01-1.21610E-13-9.36763E-14
 -1      2310 2.05554E+01 6.91727E-02 1.10298E-03 4.12018E-01-2.04404E-14-1.92097E-13
 -1      2311 2.03722E+01 9.94102E-02-1.05819E-03 4.19031E-01-5.01356E-14-1.31193E-13
 -1      2312 2.06139E+01 5.98330E-02 8.42786E-04 4.41254E-01 9.50811E-14-1.60990E-13
 -1      2313 2.06954E+01 4.52525E-02 2.59774E-04 4.60507E-01 1.62892E-13-9.43046E-14
 -1      2314 2.04777E+01 8.37063E-02-1.22965E-03 4.85511E-01 2.76087E-14-5.58017E-14
 -1      2315 2.07670E+01 2.59289E-02 1.26501E-03 4.79316E-01 1.18246E-13-2.63101E-13
 -1      2316 2.08538E+01-1.56140E-03-1.13252E-03 4.83827E-01 1.10028E-13-1.70034E-13
 -1      2317 2.06054E+01 4.49149E-02-1.43849E-03 5.37531E-01 5.96656E-14-1.20338E-13
 -1      2318 2.09406E+01-3.43261E-02 1.82102E-03 4.82858E-01 3.07485E-14-2.40764E-13
 -1      2319 2.10271E+01-7.83814E-02-3.17035E-03 4.62684E-01-2.68495E-14-1.22961E-13
 -1      2320 2.07584E+01-2.62498E-02-1.68068E-03 5.58761E-01 3.43094E-14-2.20869E-13
 -1      2321 2.11303E+01-1.27213E-01 2.46134E-03 4.29733E-01-7.59897E-14-8.44407E-14
 -1      2322 2.12079E+01-1.89630E-01-5.83665E-03 3.73162E-01-6.87596E-14-3.03576E-14
 -1      2323 2.09393E+01-1.38353E-01-1.90246E-03 5.27067E-01-1.22196E-14-9.67076E-14
 -1      2324 2.13269E+01-2.54198E-01 3.00574E-03 2.94092E-01-6.91477E-14 1.99695E-14
 -1      2325 2.13837E+01-3.31886E-01-8.87121E-03 1.89794E-01-8.70846E-14 3.23702E-14
 -1      2326 2.11482E+01-2.94894E-01-1.94243E-03 4.15236E-01-8.26774E-14-1.02268E-13
 -1      2327 2.15124E+01-4.05500E-01 3.06532E-03 5.14330E-02-3.99893E-14 4.93781E-14
 -1      2328 2.15331E+01-4.86193E-01-1.15886E-02-1.07048E-01-6.55823E-14 7.92203E-14
 -1      2329 2.13792E+01-4.86750E-01-1.47207E-03 1.94545E-01-1.10619E-13 8.03246E-14
 -1      2330 2.16560E+01-5.51717E-01 2.02267E-03-3.10751E-01-9.86507E-14 9.15725E-14
 -1      2331 2.16236E+01-6.09875E-01-1.26913E-02-5.17730E-01-4.36010E-14-3.53260E-15
 -1      2332 2.16139E+01-6.81770E-01 1.73757E-05-1.56478E-01-1.10243E-13 2.19930E-13
 -1      2333 2.17116E+01-6.37314E-01-7.83015E-04-7.75238E-01-1.06413E-13 1.31331E-13
 -1      2334 2.16118E+01-6.34568E-01-1.03841E-02-1.00383E+00-9.87110E-14 1.34580E-13
 -1      2335 2.18139E+01-8.15255E-01 3.05337E-03-6.35581E-01-3.88084E-14 2.51718E-13
 -1      2336 2.16241E+01-5.86034E-01-5.47598E-03-1.27267E+00-1.46040E-14 9.72894E-14
 -1      2337 2.14528E+01-4.84046E-01-3.41395E-03-1.46872E+00 1.02181E-13 1.66551E-13
 -1      2338 2.19167E+01-7.92774E-01 7.37653E-03-1.19173E+00-2.30978E-14 2.72250E-13
 -1      2339 2.13543E+01-3.33008E-01-1.04374E-02-1.66945E+00 1.48954E-13 3.65506E-15
 -1      2340 2.11279E+01-1.21914E-01 7.08587E-03-1.75879E+00 1.27352E-13-5.20324E-14
 -1      2341 2.18508E+01-5.24962E-01 1.07471E-02-1.70079E+00 2.56521E-14 8.99144E-14
 -1      2342 2.09215E+01 1.16419E-01-1.25434E-02-1.79330E+00 2.11119E-13-1.41456E-13
 -1      2343 2.06810E+01 3.87682E-01 1.61160E-02-1.71114E+00 2.08195E-14-1.22579E-13
 -1      2344 2.15809E+01 5.10645E-03 9.83704E-03-1.97272E+00 1.48860E-13-9.31754E-14
 -1      2345 2.04345E+01 6.36577E-01-8.43403E-03-1.51387E+00-1.53943E-13-1.09883E-13
 -1      2346 2.02368E+01 8.57672E-01 1.69136E-02-1.24999E+00-1.95568E-13-4.91982E-14
 -1      2347 2.11646E+01 6.68906E-01 1.45742E-03-1.82145E+00-3.35172E-14-1.95681E-13
 -1      2348 2.00673E+01 1.00115E+00 2.62231E-03-8.55294E-01-2.83250E-13 7.01331E-14
 -1      2349 1.99598E+01 1.06171E+00 8.63476E-03-4.85873E-01-2.62762E-13 8.11407E-14
 -1      2350 2.07732E+01 1.20129E+00-9.33557E-03-1.19651E+00-1.78609E-13 1.48013E-13
 -1      2351 1.99441E+01 1.02754E+00 1.43279E-02-3.76542E-02-2.80134E-13 6.50234E-14
 -1      2352 1.99400E+01 9.01723E-01-2.97884E-03 3.06777E-01-1.37180E-13-2.60909E-14
 -1      2353 2.05941E+01 1.34849E+00-1.20696E-02-2.91363E-01-2.79654E-13 2.06815E-13
 -1      2354 2.00497E+01 7.18088E-01 1.85069E-02 6.38083E-01 1.21813E-13-2.78906E-13
 -1      2355 2.01216E+01 4.85572E-01-1.02056E-02 8.47989E-01 1.32433E-13-3.60857E-13
 -1      2356 2.06753E+01 1.05257E+00-3.94934E-03 5.40622E-01-1.99058E-13 1.25652E-13
 -1      2357 2.02464E+01 2.60159E-01 1.24191E-02 9.70548E-01 1.09631E-13-3.66966E-13
 -1      2358 2.03439E+01 4.58017E-02-9.75476E-03 1.01662E+00 1.13035E-13-4.20570E-13
 -1      2359 2.08824E+01 4.94518E-01 6.43634E-03 1.00678E+00 1.07189E-13-2.68843E-13
 -1      2360 2.03815E+01-1.14652E-01 1.57853E-03 9.58365E-01 1.26043E-13-3.73158E-13
 -1      2361 2.04592E+01-2.28595E-01-3.97896E-03 8.89447E-01 3.28394E-15-2.37295E-13
 -1      2362 2.10136E+01-3.28521E-02 1.11976E-02 1.04567E+00 2.94383E-14-3.32291E-13
 -1      2363 2.03804E+01-2.82634E-01-6.22240E-03 7.49127E-01-7.18462E-14-1.84389E-14
 -1      2364 2.04064E+01-2.97997E-01-5.21501E-04 6.42816E-01-1.01121E-13-5.95323E-14
 -1      2365 2.09494E+01-3.29969E-01 8.50588E-03 8.09786E-01 7.51869E-14-2.65568E-13
 -1      2366 1.96250E+01 7.25658E-02 2.06898E-03-6.65502E-02 1.24038E-13-1.42641E-13
 -1      2367 1.96523E+01 1.04311E-01 6.91130E-03-2.04023E-02 1.67639E-13-9.23070E-14
 -1      2368 1.96015E+01 3.06766E-02 1.33468E-03-1.32197E-01 1.15526E-13-1.67128E-13
 -1      2369 1.95983E+01 4.96121E-02 3.68222E-03-1.09707E-01 9.98218E-14-1.58239E-13
 -1      2370 1.97692E+01 8.98266E-02-3.16921E-03-7.19555E-02 1.39797E-13-1.60547E-13
 -1      2371 1.96135E+01 5.60766E-03 8.66652E-04-1.60573E-01 1.48149E-13-1.29121E-13
 -1      2372 1.95935E+01 1.68735E-02 1.81409E-03-1.52365E-01 1.35475E-13-1.50390E-13
 -1      2373 1.97350E+01 3.57989E-02-2.27993E-03-1.44230E-01 1.24882E-13-1.83887E-13
 -1      2374 1.96456E+01-9.03411E-03 5.45417E-04-1.66164E-01 1.23500E-13-9.85121E-14
 -1      2375 1.96173E+01-2.58401E-03 7.15205E-04-1.66515E-01 1.37893E-13-9.39477E-14
 -1      2376 1.97316E+01 3.63540E-03-1.51037E-03-1.75919E-01 1.19413E-13-1.39331E-13
 -1      2377 1.96874E+01-1.69613E-02 3.21830E-04-1.58305E-01 3.56531E-14-9.07347E-14
 -1      2378 1.96561E+01-1.36255E-02 6.25566E-05-1.63559E-01 1.14715E-13-5.57308E-14
 -1      2379 1.97468E+01-1.49228E-02-9.33453E-04-1.82493E-01 9.84711E-14-7.71867E-14
 -1      2380 1.97320E+01-2.04950E-02 1.71779E-04-1.43148E-01 8.41076E-14-1.50175E-13
 -1      2381 1.97012E+01-1.91924E-02-3.12387E-04-1.50909E-01 4.38900E-14-1.20405E-13
 -1      2382 1.97720E+01-2.47211E-02-5.29814E-04-1.74153E-01 6.25086E-14-7.54228E-14
 -1      2383 1.97756E+01-2.11557E-02 7.89891E-05-1.24773E-01 8.61929E-14-1.71976E-13
 -1      2384 1.97470E+01-2.11735E-02-5.07732E-04-1.33462E-01 1.02072E-13-1.59717E-13
 -1      2385 1.98016E+01-2.88021E-02-2.61140E-04-1.57710E-01 1.15724E-13-8.44466E-14
 -1      2386 1.98158E+01-1.99574E-02 3.13174E-05-1.05877E-01 1.43674E-13-1.95831E-13
 -1      2387 1.97903E+01-2.08217E-02-5.85926E-04-1.14457E-01 1.26516E-13-1.84730E-13
 -1      2388 1.98320E+01-2.91577E-02-9.27416E-05-1.37721E-01 1.25165E-13-1.35231E-13
 -1      2389 1.98517E+01-1.75675E-02 2.02246E-05-8.82325E-02 6.24828E-14-2.44229E-13
 -1      2390 1.98295E+01-1.89704E-02-5.88690E-04-9.60267E-02 1.24776E-13-1.89462E-13
 -1      2391 1.98610E+01-2.71091E-02 2.35403E-06-1.17224E-01 1.36010E-13-1.39206E-13
 -1      2392 1.98833E+01-1.44016E-02 4.05833E-05-7.30045E-02 9.71712E-14-2.71485E-13
 -1      2393 1.98642E+01-1.61571E-02-5.44304E-04-7.95663E-02 8.82682E-14-2.70571E-13
 -1      2394 1.98878E+01-2.35164E-02 4.40409E-05-9.82355E-02 1.13928E-13-2.23346E-13
 -1      2395 1.99112E+01-1.06847E-02 9.03137E-05-6.09911E-02-4.20902E-15-2.60777E-13
 -1      2396 1.98946E+01-1.26998E-02-4.71737E-04-6.60076E-02 1.78579E-14-2.42721E-13
 -1      2397 1.99120E+01-1.89039E-02 4.62466E-05-8.21055E-02 5.47625E-14-2.01123E-13
 -1      2398 1.99364E+01-6.49333E-03 1.70183E-04-5.28030E-02 1.91675E-13-2.54489E-13
 -1      2399 1.99216E+01-8.74787E-03-3.83275E-04-5.60206E-02 1.11660E-13-2.48691E-13
 -1      2400 1.99341E+01-1.35410E-02 1.84336E-05-6.97875E-02 5.58302E-14-2.05522E-13
 -1      2401 1.99605E+01-1.78325E-03 2.83602E-04-4.90053E-02 6.73392E-14-2.47707E-13
 -1      2402 1.99464E+01-4.31724E-03-2.86454E-04-5.01705E-02 1.76696E-13-2.18175E-13
 -1      2403 1.99549E+01-7.49736E-03-3.33653E-05-6.20408E-02 1.29655E-13-1.78084E-13
 -1      2404 1.99852E+01 3.59255E-03 4.36615E-04-5.02344E-02-1.77566E-13-1.55246E-13
 -1      2405 1.99707E+01 6.86960E-04-1.85452E-04-4.90438E-02-7.99676E-14-2.15217E-13
 -1      2406 1.99754E+01-6.79750E-04-1.05685E-04-5.95910E-02-6.24770E-14-5.80911E-14
 -1      2407 2.00127E+01 9.87494E-03 6.37977E-04-5.72964E-02-1.37978E-13-7.66536E-14
 -1      2408 1.99964E+01 6.45688E-03-8.21764E-05-5.33530E-02-1.80664E-13-9.73725E-14
 -1      2409 1.99970E+01 7.14616E-03-1.96812E-04-6.32621E-02-2.01504E-13-5.82675E-14
 -1      2410 2.00456E+01 1.73968E-02 8.99302E-04-7.12589E-02-8.64924E-14-1.38519E-13
 -1      2411 2.00258E+01 1.32764E-02 2.28603E-05-6.40299E-02-8.47235E-14-8.00873E-14
 -1      2412 2.00216E+01 1.63447E-02-3.06103E-04-7.40879E-02-1.08278E-13-5.21654E-14
 -1      2413 2.00869E+01 2.65867E-02 1.23522E-03-9.35375E-02 5.71440E-14-1.29677E-13
 -1      2414 2.00616E+01 2.15223E-02 1.29758E-04-8.23128E-02 2.33689E-15-1.38568E-13
 -1      2415 2.00510E+01 2.74089E-02-4.33189E-04-9.34130E-02-6.70486E-15-5.54085E-14
 -1      2416 2.01402E+01 3.79768E-02 1.66335E-03-1.25984E-01 4.08192E-14-6.09855E-14
 -1      2417 2.01071E+01 3.16698E-02 2.38454E-04-1.09832E-01 1.09793E-13-3.94918E-14
 -1      2418 2.00877E+01 4.09666E-02-5.77041E-04-1.22988E-01 2.79502E-14-3.14270E-14
 -1      2419 2.02098E+01 5.22079E-02 2.20371E-03-1.70972E-01-1.35474E-13-1.34520E-13
 -1      2420 2.01660E+01 4.43005E-02 3.47875E-04-1.48697E-01-2.18185E-15-7.16051E-14
 -1      2421 2.01342E+01 5.77888E-02-7.34848E-04-1.65058E-01 3.77075E-14 1.02829E-13
 -1      2422 2.03006E+01 7.00201E-02 2.87672E-03-2.31475E-01-3.56725E-13-1.60805E-13
 -1      2423 2.02427E+01 6.01026E-02 4.54983E-04-2.01577E-01-2.45821E-13-1.99935E-13
 -1      2424 2.01937E+01 7.87910E-02-9.00674E-04-2.22444E-01-1.35149E-13-2.75592E-14
 -1      2425 2.04185E+01 9.22010E-02 3.69844E-03-3.11103E-01-1.80492E-13-1.97344E-13
 -1      2426 2.03423E+01 7.98464E-02 5.53716E-04-2.71761E-01-3.39882E-13-2.52806E-13
 -1      2427 2.02695E+01 1.05004E-01-1.06405E-03-2.98602E-01-2.85346E-13-3.10937E-13
 -1      2428 2.05699E+01 1.19432E-01 4.67016E-03-4.14036E-01 4.76896E-14-2.18925E-14
 -1      2429 2.04708E+01 1.04294E-01 6.34028E-04-3.63153E-01-7.33010E-14-1.64752E-13
 -1      2430 2.03651E+01 1.37464E-01-1.20918E-03-3.97607E-01-1.54811E-13-4.01904E-13
 -1      2431 2.07619E+01 1.51920E-01 5.75817E-03-5.44717E-01 1.83041E-13-9.55234E-14
 -1      2432 2.06346E+01 1.33961E-01 6.81740E-04-4.80112E-01 1.74990E-13-6.31280E-14
 -1      2433 2.04844E+01 1.76929E-01-1.31654E-03-5.24005E-01 1.08312E-13-3.30500E-13
 -1      2434 2.10021E+01 1.88602E-01 6.85742E-03-7.07048E-01 1.63788E-13-2.82512E-14
 -1      2435 2.08408E+01 1.68585E-01 6.81086E-04-6.26948E-01 1.63462E-13-4.82106E-14
 -1      2436 2.06309E+01 2.23228E-01-1.37084E-03-6.82351E-01 1.83494E-13-2.51199E-13
 -1      2437 2.12974E+01 2.25555E-01 7.73277E-03-9.02620E-01 7.73069E-14 1.52269E-13
 -1      2438 2.10967E+01 2.06002E-01 6.24664E-04-8.06745E-01 1.95301E-13 1.40242E-13
 -1      2439 2.08080E+01 2.73906E-01-1.38336E-03-8.76164E-01 7.21569E-14-1.05920E-13
 -1      2440 2.16543E+01 2.53066E-01 7.93690E-03-1.12719E+00 1.63812E-13-1.51856E-13
 -1      2441 2.14101E+01 2.39999E-01 5.40880E-04-1.01890E+00 1.92856E-13 7.37507E-14
 -1      2442 2.10192E+01 3.21630E-01-1.44239E-03-1.10583E+00 2.00457E-13 1.36238E-13
 -1      2443 2.20784E+01 2.50776E-01 6.72160E-03-1.36429E+00 8.63090E-14-4.62601E-13
 -1      2444 2.17891E+01 2.56523E-01 5.58578E-04-1.25446E+00 6.27987E-14-3.08022E-13
 -1      2445 2.12695E+01 3.49580E-01-1.80866E-03-1.36470E+00 2.72781E-13-1.29589E-13
 -1      2446 2.25751E+01 1.81061E-01 3.01113E-03-1.57477E+00-1.32254E-13-3.62597E-13
 -1      2447 2.22444E+01 2.27832E-01 1.02714E-03-1.48788E+00-4.07215E-14-3.69553E-13
 -1      2448 2.15689E+01 3.24272E-01-3.05835E-03-1.63236E+00 1.20878E-14-3.03034E-13
 -1      2449 2.31532E+01-1.59521E-02-4.38614E-03-1.68195E+00-1.88278E-14-3.30085E-13
 -1      2450 2.27925E+01 1.05838E-01 2.70114E-03-1.66396E+00-1.58525E-13-3.57590E-13
 -1      2451 2.19409E+01 1.86878E-01-6.17966E-03-1.86384E+00-1.10545E-13-2.49742E-13
 -1      2452 2.38273E+01-4.13574E-01-1.62294E-02-1.55667E+00 7.28965E-14-2.48030E-13
 -1      2453 2.34607E+01-1.78694E-01 6.79495E-03-1.68025E+00 6.18602E-14-3.43259E-13
 -1      2454 2.24353E+01-1.50019E-01-1.22715E-02-1.97388E+00-1.19412E-14-4.13764E-13
 -1      2455 2.46102E+01-1.04453E+00-3.12586E-02-1.01677E+00-6.17874E-14-1.06126E-14
 -1      2456 2.42827E+01-6.91724E-01 1.37247E-02-1.37177E+00 4.20896E-14-3.31497E-14
 -1      2457 2.31406E+01-7.79364E-01-2.16082E-02-1.81766E+00-6.08342E-14-1.75549E-13
 -1      2458 2.54701E+01-1.76496E+00-4.38449E-02 1.10268E-01-3.46199E-14 1.08306E-13
 -1      2459 2.52591E+01-1.40445E+00 1.93824E-02-5.30750E-01-3.92984E-14 2.27197E-14
 -1      2460 2.41675E+01-1.69610E+00-3.02166E-02-1.18621E+00-9.12282E-14 8.07492E-15
 -1      2461 2.62379E+01-2.04676E+00-4.03797E-02 1.80637E+00 9.81038E-14-1.13544E-13
 -1      2462 2.62510E+01-2.01751E+00 7.39493E-03 9.74048E-01 5.61738E-14 1.23132E-13
 -1      2463 2.55564E+01-2.58278E+00-2.77389E-02 1.39901E-01 2.46695E-14 1.21399E-13
 -1      2464 2.65237E+01-1.07860E+00-2.24612E-02 3.44289E+00-9.76649E-16 2.38524E-14
 -1      2465 2.68363E+01-1.78479E+00-4.19877E-02 2.83128E+00 1.14124E-13 1.66967E-15
 -1      2466 2.70083E+01-2.58891E+00-2.10893E-02 2.12282E+00 1.12096E-13 8.63788E-14
 -1      2467 2.60122E+01 1.28499E+00-4.09341E-02 3.70750E+00 8.80546E-14-2.06521E-13
 -1      2468 2.65624E+01-1.12395E-02-1.17903E-01 3.93673E+00-9.00252E-14-1.09366E-13
 -1      2469 2.78882E+01-7.70713E-01-4.20113E-02 3.90609E+00 2.56115E-14 1.72903E-13
 -1      2470 2.52793E+01 3.25007E+00-8.92572E-02 1.71086E+00 3.62183E-13-2.17298E-13
 -1      2471 2.56705E+01 2.50055E+00-1.43222E-01 2.87194E+00 2.91198E-13-2.75890E-13
 -1      2472 2.77758E+01 2.51459E+00-1.08586E-01 3.67841E+00 2.64372E-13-3.20216E-13
 -1      2473 2.51920E+01 2.62561E+00-1.48659E-01-1.16265E+00 1.93082E-13-2.49367E-13
 -1      2474 2.51482E+01 3.28587E+00-1.01650E-01 1.87891E-02 2.58793E-13-2.82517E-13
 -1      2475 2.74160E+01 4.46620E+00-1.31191E-01 1.02692E+00 2.66925E-13-5.17367E-13
 -1      2476 2.56186E+01 1.80191E-01-1.14689E-01-2.41792E+00-1.11716E-13-1.04626E-13
 -1      2477 2.53626E+01 1.45672E+00-4.10990E-02-2.12545E+00 8.26422E-14-1.66079E-13
 -1      2478 2.74176E+01 2.84688E+00-1.09348E-01-1.83936E+00 1.13021E-13-4.21690E-13
 -1      2479 2.54774E+01-1.63548E+00-4.36775E-02-1.48060E+00 5.01127E-14-1.74860E-14
 -1      2480 2.54124E+01-9.34116E-01-3.56717E-02-2.01680E+00-7.93809E-15-9.38138E-14
 -1      2481 2.72382E+01-5.40332E-01-5.83555E-02-2.20109E+00-1.10564E-13-2.12670E-13
 -1      2482 2.45305E+01-1.87780E+00 1.47492E-02 2.54355E-01-2.94001E-13 2.84194E-13
 -1      2483 2.47499E+01-1.93661E+00-4.37289E-02-5.01382E-01-1.85177E-13 2.72842E-13
 -1      2484 2.61386E+01-2.40914E+00-2.34420E-02-6.22232E-01-2.98997E-13 2.90021E-13
 -1      2485 2.31883E+01-1.13077E+00 3.48131E-02 1.58800E+00-2.36902E-13 3.29286E-13
 -1      2486 2.36027E+01-1.58969E+00-4.27918E-02 1.06276E+00-2.35631E-13 4.36260E-13
 -1      2487 2.44494E+01-2.34637E+00-3.12092E-02 1.20495E+00-2.96018E-13 4.88080E-13
 -1      2488 2.18708E+01-1.11081E-01 2.82108E-02 2.06791E+00-2.24682E-13 2.63593E-13
 -1      2489 2.23732E+01-6.28065E-01-2.53100E-02 1.93768E+00-2.19408E-13 2.70586E-13
 -1      2490 2.28166E+01-1.19024E+00-3.00787E-02 2.30271E+00-1.79213E-13 6.18958E-13
 -1      2491 2.12522E+01 4.10892E-01-7.83750E-03 1.93824E+00-2.38650E-13 2.21330E-13
 -1      2492 1.71078E+01 3.33060E+00-4.88859E-02 2.32295E+00-2.99768E-13-2.49346E-13
 -1      2493 1.79221E+01 2.95549E+00 5.19328E-02 3.20641E+00-2.96226E-13-6.13249E-13
 -1      2494 1.64745E+01 3.80048E+00-5.94449E-03-3.09449E-01-5.31604E-14 2.73587E-13
 -1      2495 1.66046E+01 3.76111E+00 1.00431E-02 9.31194E-01-1.68926E-13 1.26461E-13
 -1      2496 1.59141E+01 2.66435E+00 7.50616E-02 1.91713E+00-2.59312E-13 5.60108E-14
 -1      2497 2.03981E+01 1.14523E+00-1.47361E-02 3.86314E+00-2.47467E-13-3.05367E-13
 -1      2498 2.09897E+01 6.28513E-01 2.43749E-02 3.62751E+00-1.58863E-13-1.64624E-13
 -1      2499 1.88647E+01 2.16539E+00-4.57938E-02 3.79438E+00-4.88141E-13-6.35528E-13
 -1      2500 1.97365E+01 1.67963E+00 5.80851E-02 3.98873E+00-3.97214E-13-3.18068E-13
 -1      2501 1.99848E+01 3.10765E-01-1.62958E-02 4.41553E+00-3.21603E-13-5.43100E-13
 -1      2502 1.80056E+01 1.51885E+00 5.87100E-02 4.06398E+00-4.02694E-13-4.93426E-13
 -1      2503 1.74061E+01 3.21034E+00 4.50640E-02-2.86233E+00-9.78141E-14 5.91818E-14
 -1      2504 1.67565E+01 3.53660E+00-3.72838E-02-1.82340E+00-9.82281E-14 9.46673E-14
 -1      2505 1.56474E+01 2.82818E+00 9.11312E-02-1.25327E+00-2.25075E-13 1.05006E-13
 -1      2506 1.92253E+01 1.87986E+00 5.90460E-02-4.18362E+00 2.83955E-13 3.27479E-13
 -1      2507 1.82645E+01 2.42461E+00-5.50475E-02-3.76184E+00 5.48476E-14 2.76230E-13
 -1      2508 1.71831E+01 1.83479E+00 4.45251E-02-3.87854E+00 1.04603E-13 3.23654E-13
 -1      2509 2.08040E+01 5.88233E-01 4.27114E-02-4.04975E+00 4.65874E-13 1.36258E-13
 -1      2510 2.00758E+01 1.14419E+00-2.95591E-02-4.22386E+00 3.03376E-13 7.41638E-14
 -1      2511 1.95326E+01 4.31391E-01 4.49324E-03-4.79284E+00 3.56236E-13 2.68740E-13
 -1      2512 2.15745E+01-2.24275E-01 1.54221E-02-3.03333E+00 3.90915E-13-1.63675E-13
 -1      2513 2.12827E+01 2.05050E-01 4.13337E-03-3.52726E+00 4.48620E-13-2.06776E-13
 -1      2514 2.13211E+01-5.69916E-01-2.08572E-02-4.19415E+00 3.93184E-13-1.84254E-14
 -1      2515 2.16394E+01-5.60820E-01 4.11939E-04-1.76344E+00 4.47283E-13 2.91583E-13
 -1      2516 2.16815E+01-2.90130E-01 2.47189E-02-2.33330E+00 4.66082E-13 2.09381E-15
 -1      2517 2.21083E+01-9.45659E-01-1.20359E-02-2.86419E+00 4.51272E-13-8.15277E-15
 -1      2518 2.12813E+01-5.80986E-01-6.30464E-03-6.72948E-01 1.34527E-13 3.12495E-13
 -1      2519 2.14982E+01-4.58967E-01 2.87069E-02-1.14369E+00 2.45389E-13 4.87083E-13
 -1      2520 2.20467E+01-9.04974E-01-1.22702E-03-1.49074E+00 2.98157E-13 1.51995E-13
 -1      2521 2.07701E+01-4.50261E-01-5.94804E-03 6.57230E-02-1.95656E-13-3.91382E-13
 -1      2522 2.10379E+01-4.36173E-01 2.38326E-02-2.36053E-01-1.59950E-13-1.91891E-14
 -1      2523 2.15302E+01-6.86209E-01 4.80243E-03-4.08855E-01-5.44250E-14-6.08662E-14
 -1      2524 5.44052E+00-4.03860E+00 7.49634E-02 4.22649E+00 7.15816E-14-8.78186E-14
 -1      2525 4.24759E+00-3.11960E+00 8.72729E-02 1.53327E+00-2.76307E-14 3.57658E-13
 -1      2526 1.85487E+01-6.44209E+00-1.65011E-02 7.92943E+00-1.43330E-13 4.00430E-13
 -1      2527 1.47932E+01-6.32390E+00 5.05506E-02 7.74520E+00-1.08413E-13 3.49443E-14
 -1      2528 1.97059E+01 1.43357E-01 3.27127E-03 5.95466E-02 2.02127E-13-8.22797E-14
 -1      2529 1.97844E+01 1.98170E-01 1.23804E-02 1.45769E-01 2.26473E-13-2.53400E-14
 -1      2530 1.98501E+01 1.80941E-01-3.86402E-03 6.49323E-02 2.20629E-13-1.21791E-13
 -1      2531 2.01980E+01-2.72616E-01-3.97841E-03 3.41867E-01-2.78345E-14-2.52507E-13
 -1      2532 4.98309E+00-2.74875E+00 1.49533E-01-2.17225E+00-2.88866E-14 4.16500E-13
 -1      2533 6.39566E+00-3.47285E+00 1.15434E-01-4.95497E+00-9.35363E-15 2.64233E-13
 -1      2534 1.06051E+01-5.40311E+00 9.08723E-03 7.35434E+00 4.48530E-14-4.92911E-13
 -1      2535 7.41491E+00-4.90879E+00 5.39313E-02 5.79129E+00 1.85324E-13-4.61575E-13
 -1      2536 8.61953E+00-2.95007E+00 1.53898E-01 5.06653E+00 1.01585E-14-1.95538E-13
 -1      2537 3.37781E+01 3.29894E+00-1.66515E-01-8.54923E-01 7.79932E-15-1.85185E-13
 -1      2538 3.31053E+01 1.28742E+00-8.49976E-02-8.14580E-01 1.05999E-13-3.21076E-13
 -1      2539 8.80197E+00-4.88096E+00 5.93878E-02-6.77720E+00 8.24896E-14 6.51312E-13
 -1      2540 1.24002E+01-5.54242E+00 2.48421E-02-8.10639E+00 2.18603E-13 9.62008E-13
 -1      2541 3.35007E+01 2.92201E+00-7.03309E-02-1.70059E-02-6.31800E-13 4.61575E-13
 -1      2542 3.40552E+01 5.15564E+00-1.68231E-01 4.38870E-01-8.17402E-13 1.72418E-13
 -1      2543 1.35902E+01-5.73832E+00 2.22930E-03 7.60186E+00 1.28175E-13-1.91153E-13
 -1      2544 9.54307E+00-5.32436E+00 6.53758E-02 6.79607E+00 2.10720E-13-5.13756E-14
 -1      2545 2.60542E+01-5.96221E+00-1.08591E-02-3.10383E+00 1.41998E-13-2.33369E-13
 -1      2546 2.92852E+01-4.72616E+00-1.42427E-01-1.51559E+00 2.32980E-13-1.76914E-13
 -1      2547 1.95182E+01 3.58501E+00-1.00855E-02-2.45272E-01-1.16126E-13-5.84656E-13
 -1      2548 1.95343E+01 3.56437E+00-9.63687E-03-4.25955E-01-1.72406E-13-5.67922E-13
 -1      2549 1.97105E+01 3.16369E+00-6.25013E-04-4.73319E-01-1.89778E-13-5.20798E-13
 -1      2550 1.96762E+01 3.22361E+00-9.46484E-04-1.51983E-01-9.92493E-14-5.56232E-13
 -1      2551 3.40638E+01 6.33520E+00-1.01101E-01 2.24377E+00 5.08316E-13-3.72979E-13
 -1      2552 3.33585E+01 7.09054E+00-1.84543E-01 1.34130E+00 4.31322E-13-3.37608E-13
 -1      2553 2.16624E+01-5.84285E+00-4.73744E-02 6.45220E+00 1.55653E-13-3.21632E-13
 -1      2554 1.78236E+01-6.13525E+00 3.93034E-02 6.96784E+00 1.45217E-13-4.42230E-13
 -1      2555 3.37945E+01 6.91096E+00-1.67249E-01 1.31726E-01 2.90323E-13-2.56378E-13
 -1      2556 3.42280E+01 5.81067E+00-7.45983E-02-5.42927E-01 1.77358E-13-1.50990E-13
 -1      2557 3.17023E+01 4.22775E+00-5.06058E-02-1.55777E+00 1.32117E-14-3.01814E-13
 -1      2558 3.14714E+01 6.40049E+00-9.80916E-02 7.82077E-01 3.64597E-13-4.03516E-13
 -1      2559 3.37352E+01 3.24581E+00-7.70637E-02 2.73347E+00 6.68743E-13-2.39753E-13
 -1      2560 3.42968E+01 4.94638E+00-1.80683E-01 2.62817E+00 6.22669E-13-4.78090E-13
 -1      2561 3.16790E+01 5.30196E+00-3.60640E-02 2.99250E+00 5.41733E-13-5.15366E-13
 -1      2562 3.13835E+01-2.34211E+00-3.04202E-02 1.16846E+00 3.24976E-13-1.41442E-13
 -1      2563 3.30278E+01-7.60833E-02-1.70318E-01 2.14662E+00 4.90136E-13-7.37188E-14
 -1      2564 1.90258E+01-6.89987E+00 3.63370E-02-5.50308E+00 1.53544E-13-2.89137E-13
 -1      2565 2.27496E+01-6.65831E+00-5.88392E-02-4.97008E+00 5.09592E-14-2.95569E-13
 -1      2566 4.60515E+00-3.78249E+00 1.17735E-01-2.90384E+00 1.15186E-15-5.53779E-13
 -1      2567 6.67829E+00-4.29129E+00 1.27044E-01-4.66933E+00-9.15934E-15-3.18856E-13
 -1      2568 3.41286E+00-3.15058E+00 1.29656E-01 1.96111E+00 2.48898E-13-1.46605E-13
 -1      2569 3.37268E+00-3.20118E+00 1.27150E-01-7.80112E-01 1.35995E-13-4.54081E-13
 -1      2570 6.33063E+00-4.45777E+00 5.68189E-02 5.81826E+00 2.78833E-13-1.41887E-13
 -1      2571 4.41174E+00-3.93951E+00 8.92357E-02 4.15326E+00 3.38077E-13-1.96954E-13
 -1      2572 3.36273E+01 7.19168E+00-1.57623E-01 3.40240E-01-8.24674E-13 3.21743E-13
 -1      2573 3.39610E+01 7.98026E+00-1.68982E-01-1.40579E-01-7.08933E-13 3.95402E-13
 -1      2574 2.79830E+01-4.14430E+00-1.20814E-01 3.54597E+00-1.17406E-14 2.35284E-13
 -1      2575 2.52415E+01-5.18639E+00 2.27126E-04 4.56191E+00 1.54321E-14 1.34198E-13
 -1      2576 3.15755E+01 2.75028E-01-2.25983E-01-6.85098E-01-2.75474E-14 5.47118E-13
 -1      2577 3.02460E+01-1.94114E+00-1.33530E-02 1.24102E+00-2.37345E-14 4.40925E-13
 -1      2578 2.91245E+01-3.34872E+00 1.87530E-02 1.08640E+00 4.59285E-14 3.41227E-13
 -1      2579 3.21675E+01 4.68473E+00-2.13136E-01-1.74304E+00-3.14415E-13 7.19036E-13
 -1      2580 3.19019E+01 2.99064E+00-1.18683E-01-1.71214E+00-2.15161E-13 6.79845E-13
 -1      2581 1.61991E+01-6.39399E+00 2.50064E-02-8.00082E+00 2.28262E-13 8.21371E-13
 -1      2582 2.04029E+01-6.25027E+00-4.43583E-02-7.81258E+00 1.16407E-13 6.02102E-13
 -1      2583 3.35812E+01 7.89428E+00-1.28123E-01-8.46249E-01-4.66127E-13 4.04420E-13
 -1      2584 3.20115E+01 6.68706E+00-2.18083E-01-1.51217E+00-3.08087E-13 4.21746E-13
 -1      2585 3.06333E+01 7.48242E+00-8.64887E-02-5.54577E-01-5.49144E-13 2.64828E-13
 -1      2586 3.13379E+01-1.80465E+00 1.39204E-03-2.29546E+00-3.81729E-13 5.23637E-13
 -1      2587 3.28685E+01 1.09531E-01-1.32961E-01-1.30078E+00-5.07927E-13 5.46507E-13
 -1      2588 2.05484E+01 1.95514E+00-1.36895E-02-1.89784E+00-4.64264E-13 2.37137E-14
 -1      2589 2.04118E+01 1.21420E+00-7.26488E-03-1.28670E+00-4.11099E-13 4.53099E-14
 -1      2590 2.03821E+01 1.38049E+00 7.25446E-03-1.23664E+00-3.88820E-13-6.32940E-14
 -1      2591 2.02903E+01 2.38492E+00-4.83012E-03-1.84195E+00-4.68982E-13-1.13092E-13
 -1      2592 2.04915E+01 8.74956E-01-7.31170E-03 1.22636E+00 4.32633E-13 6.89188E-14
 -1      2593 2.08419E+01 1.25694E+00-6.05181E-03 1.72708E+00 4.58168E-13 1.19458E-13
 -1      2594 2.06477E+01 1.71563E+00-1.57935E-02 1.92120E+00 4.91870E-13-4.18103E-14
 -1      2595 2.04499E+01 1.05806E+00-9.39849E-03 1.24107E+00 4.33876E-13-9.11616E-14
 -1      2596 1.99124E+01 2.81591E+00 2.40750E-03-1.09838E+00-3.44393E-13-4.46418E-13
 -1      2597 1.97822E+01 3.16043E+00-1.45358E-02-1.28417E+00-3.62258E-13-4.59183E-13
 -1      2598 1.98767E+01 3.03705E+00-1.74749E-02-1.48287E+00-4.14535E-13-4.04825E-13
 -1      2599 1.99957E+01 3.40276E-01-3.53115E-03 3.04119E-01 2.69465E-13-1.29506E-13
 -1      2600 2.04231E+01 2.11580E+00-1.27790E-02 1.87418E+00 4.65690E-13-2.10578E-13
 -1      2601 1.60831E+01-5.32051E+00 1.23540E-01-7.99942E+00 2.07195E-13 8.49418E-13
 -1      2602 3.05582E+01 1.03758E+00-6.55483E-02-1.74321E+00-5.91749E-14 7.19702E-13
 -1      2603 2.98105E+01-4.44664E+00-1.22023E-01 1.45674E+00-3.33929E-13-6.34715E-13
 -1      2604 2.93139E+01-5.13053E+00-1.17884E-02 3.23722E+00-3.12611E-13-2.69812E-13
 -1      2605 2.74591E+01-5.73347E+00 7.29230E-02 3.97437E+00-4.20358E-13-3.12875E-13
 -1      2606 2.20456E+01-6.54957E+00 5.19030E-02 6.76467E+00-3.33622E-13 3.36994E-13
 -1      2607 9.93912E+00-2.89396E+00 1.41570E-01-5.88785E+00-6.53921E-14 5.42566E-13
 -1      2608 3.16832E+01 5.67284E+00-8.40482E-02 9.36586E-01-7.00273E-13 1.02904E-13
 -1      2609 2.14803E+01 1.89056E-01-7.56544E-03 2.49112E+00-2.35199E-13 5.20521E-13
 -1      2610 2.14273E+01 3.60727E-01-1.04040E-03 2.87686E+00-1.17046E-13 4.94559E-13
 -1      2611 9.84244E+00-4.11815E+00 1.35761E-01 6.42541E+00 3.17080E-13-8.70415E-14
 -1      2612 3.16022E+01-7.46909E-01-6.81155E-02-7.67569E-01-2.81025E-14-5.80258E-13
 -1      2613 1.43199E+01-4.92821E+00 1.40304E-01 7.50131E+00-1.06803E-13-1.99979E-13
 -1      2614 5.62728E+00-2.37322E+00 1.60017E-01 2.92980E+00 2.94091E-13-9.96980E-14
 -1      2615 5.86656E+00-2.19008E+00 1.73645E-01-1.71901E+00 1.39569E-13-3.96294E-13
 -1      2616 2.04370E+01 1.80808E+00 1.25376E-02 1.56191E+00 4.27643E-13-2.20240E-13
 -1      2617 3.17041E+01 1.15594E+00-6.33068E-02 3.52645E+00 4.87443E-13-2.04670E-13
 -1      2618 2.01134E+01 2.62139E+00-1.17021E-02-1.67804E+00-4.33472E-13-2.45507E-13
 -1      2619 2.36641E+01-6.04582E+00 9.63846E-02-6.83029E+00 1.01585E-14 5.23803E-13
 -1      2620 2.58413E+01-5.99024E+00-1.74882E-01-5.45048E+00 1.61371E-13 5.70516E-13
 -1      2621 2.25249E+01-5.99076E+00 1.48851E-01-7.15625E+00 2.29178E-13 6.29520E-13
 -1      2622 2.52058E+01-6.43709E+00 4.62461E-02-3.33765E+00 3.37785E-14-2.37435E-13
 -1      2623 1.70278E+01-5.69149E+00 1.11223E-01 7.11279E+00 2.55157E-13-3.75047E-13
 -1      2624 3.19917E+01 1.01115E+00-3.74651E-02 3.48180E-01-4.95701E-13 2.38531E-13
 -1      2625 2.99924E+01-3.86826E+00-4.53953E-03 6.56844E-01 1.66561E-13-1.11355E-13
 -1      2626 9.77593E+00-4.36645E+00 1.13771E-01-5.17331E+00-1.16573E-15-2.79832E-13
 -1      2627 2.41942E+01-5.75417E+00 6.46205E-02 4.96220E+00 2.16521E-13 1.64035E-13
 -1      2628 1.76641E+01-6.38716E+00 1.15942E-01-5.88132E+00 1.04611E-13-2.48190E-13
 -1      2629 3.04081E+01 5.34661E+00-9.78255E-02-2.12980E+00-2.47607E-13 3.64903E-13
 -1      2630 3.00116E+01-3.50389E+00 1.80093E-02-2.96546E+00-2.04309E-13 5.21222E-13
 -1      2631 2.02755E+01-2.69665E-01-4.76737E-04 4.68473E-01-2.07922E-13-1.03702E-13
 -1      2632 2.05744E+01-3.49537E-01 1.35298E-02 3.00945E-01-2.24715E-13-3.32209E-13
 -1      2633 2.08853E+01-4.81991E-01-9.82185E-03 2.42384E-01-3.78054E-13-2.69045E-13
 -1      2634 2.02811E+01-2.94789E-01-1.26582E-02 5.53246E-01-2.48533E-13-7.73972E-14
 -1      2635 2.17171E+01-4.00070E-01-3.17896E-03 3.41155E+00-2.01776E-13 2.19226E-13
 -1      2636 2.07541E+01-3.73291E-01 1.15211E-02 5.56530E-01-2.08640E-13-1.89149E-13
 -1      2637 2.95973E+01 4.30507E+00-1.12375E-01 3.21463E+00 5.33462E-13-4.45671E-13
 -1      2638 2.89930E+01 4.98434E+00-2.73477E-01 2.33322E+00 5.22804E-13-5.04194E-13
 -1      2639 1.98443E+01 2.76516E+00-6.30034E-03 5.16118E-01 7.98485E-14-5.42370E-13
 -1      2640 1.98193E+01 2.81490E+00-5.71149E-03 3.65275E-01 3.14612E-14-5.49300E-13
 -1      2641 1.98024E+01 2.85242E+00-5.62142E-03 2.29850E-01 1.38203E-15-5.56122E-13
 -1      2642 1.97938E+01 2.86934E+00-5.43201E-03 7.52381E-02-4.18710E-14-5.33800E-13
 -1      2643 1.99488E+01 2.50117E+00 3.62607E-03 2.65206E-01 1.48526E-14-5.17260E-13
 -1      2644 2.00433E+01 2.32410E+00-1.07249E-02 1.04567E+00 2.86165E-13-4.54876E-13
 -1      2645 1.99790E+01 2.47306E+00-6.30786E-03 9.10133E-01 2.31286E-13-4.71710E-13
 -1      2646 2.02171E+01 1.90824E+00-1.20210E-02 1.22691E+00 3.52489E-13-3.66126E-13
 -1      2647 2.01244E+01 2.14637E+00-4.80065E-03 1.13348E+00 3.10183E-13-4.15785E-13
 -1      2648 2.01892E+01 1.88665E+00 6.44039E-03 9.26143E-01 2.74538E-13-4.04098E-13
 -1      2649 2.02133E+01 7.26959E-01-3.49517E-03 6.42301E-01 3.03110E-13-1.96618E-13
 -1      2650 2.03552E+01 9.51848E-01 9.14643E-03 9.06137E-01 3.52253E-13-1.82432E-13
 -1      2651 2.94657E+01-1.77352E-01-7.79663E-02 3.76535E+00 1.74888E-13-3.67761E-14
 -1      2652 2.96549E+01 2.02793E+00-2.34780E-01 3.92689E+00 3.41366E-13-3.11778E-13
 -1      2653 2.87370E+01 6.72860E+00-1.82735E-01 1.36036E-01-5.49560E-13-1.16400E-13
 -1      2654 2.82411E+01 6.71775E+00-1.63804E-01-1.07241E+00-3.78864E-13-4.91655E-14
 -1      2655 2.03385E+01 1.50032E+00-1.89888E-03 1.26665E+00 3.91620E-13-2.45004E-13
 -1      2656 2.89667E+01 5.55908E+00-1.57086E-01 6.78748E-01 3.70204E-13-6.05002E-13
 -1      2657 2.02164E+01 6.26899E-01 8.21888E-03-4.36671E-01-2.58170E-13-1.45987E-13
 -1      2658 2.01326E+01 4.75176E-01-3.42728E-03-2.78183E-01-2.36008E-13-1.68725E-13
 -1      2659 2.01065E+01 3.62720E-01 6.62370E-03-1.58281E-01-2.28527E-13-1.67018E-13
 -1      2660 2.00473E+01 2.67898E-01-1.79745E-03-6.05576E-02-2.14691E-13-1.92624E-13
 -1      2661 2.01952E+01 5.28570E-01-1.79725E-03-2.61518E-01-2.53976E-13-2.19226E-13
 -1      2662 2.00212E+01 1.97558E-01 4.52106E-03 1.47579E-02-1.72764E-13-1.92917E-13
 -1      2663 1.99854E+01 1.37964E-01-8.39680E-04 7.13193E-02-1.71769E-13-1.78984E-13
 -1      2664 2.01264E+01 2.98810E-01-2.07148E-03-5.50868E-02-2.07430E-13-2.48746E-13
 -1      2665 1.99644E+01 9.38046E-02 2.89965E-03 1.14643E-01-1.76439E-13-1.70101E-13
 -1      2666 1.99463E+01 5.65163E-02-2.95821E-04 1.44051E-01-1.73080E-13-1.90627E-13
 -1      2667 2.00699E+01 1.52441E-01-1.89174E-03 7.21356E-02-1.87358E-13-2.46115E-13
 -1      2668 1.99312E+01 2.90611E-02 1.73554E-03 1.65494E-01-1.93840E-13-1.73832E-13
 -1      2669 1.99252E+01 6.31374E-03 2.73782E-06 1.77363E-01-1.79904E-13-2.14587E-13
 -1      2670 2.00287E+01 6.00637E-02-1.51736E-03 1.43061E-01-1.85512E-13-2.21622E-13
 -1      2671 1.99154E+01-1.01441E-02 9.30428E-04 1.84421E-01-1.33118E-13-1.73878E-13
 -1      2672 1.99172E+01-2.32239E-02 1.60397E-04 1.85335E-01-1.31679E-13-1.64181E-13
 -1      2673 2.00012E+01 3.09326E-03-1.13868E-03 1.75763E-01-1.40642E-13-1.87002E-13
 -1      2674 1.99114E+01-3.23233E-02 3.91432E-04 1.83423E-01-1.11227E-13-7.24481E-14
 -1      2675 1.99177E+01-3.89290E-02 2.39352E-04 1.77898E-01-5.56760E-14-4.08857E-14
 -1      2676 1.99845E+01-3.02191E-02-8.18951E-04 1.83649E-01-5.18610E-14-6.32619E-14
 -1      2677 1.99147E+01-4.30871E-02 4.43896E-05 1.70848E-01-4.10410E-14-2.33713E-14
 -1      2678 1.99235E+01-4.53701E-02 2.75666E-04 1.61979E-01 1.34222E-14-1.10320E-14
 -1      2679 1.99757E+01-4.76140E-02-5.70791E-04 1.76382E-01-3.53387E-14 1.69851E-14
 -1      2680 1.99225E+01-4.62280E-02-1.67398E-04 1.52465E-01 1.24491E-14-4.15347E-14
 -1      2681 1.99322E+01-4.56513E-02 2.90823E-04 1.42357E-01 1.09237E-14-8.96562E-14
 -1      2682 1.99722E+01-5.43211E-02-3.88248E-04 1.60797E-01-6.64280E-15-3.98659E-15
 -1      2683 1.99325E+01-4.43238E-02-2.86564E-04 1.32216E-01 1.59796E-14-8.88706E-14
 -1      2684 1.99423E+01-4.18701E-02 2.98430E-04 1.22292E-01-6.71980E-15-7.63551E-14
 -1      2685 1.99724E+01-5.39064E-02-2.59919E-04 1.41655E-01-2.42205E-14-1.41325E-13
 -1      2686 1.99435E+01-3.90969E-02-3.44898E-04 1.12777E-01 9.41921E-15-8.61286E-14
 -1      2687 1.99530E+01-3.53991E-02 3.07921E-04 1.03999E-01 1.99343E-14-1.03595E-13
 -1      2688 1.99749E+01-4.87748E-02-1.74221E-04 1.22230E-01 5.26955E-15-6.20746E-14
 -1      2689 1.99548E+01-3.16425E-02-3.65814E-04 9.59693E-02-6.53659E-15-6.35025E-14
 -1      2690 1.99638E+01-2.70744E-02 3.26207E-04 8.90052E-02-4.29031E-14-3.54866E-14
 -1      2691 1.99789E+01-4.04871E-02-1.21445E-04 1.04771E-01 1.02012E-14-7.14997E-14
 -1      2692 1.99660E+01-2.25905E-02-3.66257E-04 8.30746E-02-1.19641E-13-2.12405E-14
 -1      2693 1.99748E+01-1.73338E-02 3.58551E-04 7.84167E-02-1.49032E-13-5.47172E-14
 -1      2694 1.99840E+01-2.99786E-02-9.38611E-05 9.08526E-02-7.12458E-14-9.67414E-14
 -1      2695 1.99774E+01-1.22279E-02-3.58303E-04 7.50638E-02-1.46360E-13-1.06631E-13
 -1      2696 1.99862E+01-6.32597E-03 4.09039E-04 7.31200E-02-1.40029E-13-1.04122E-13
 -1      2697 1.99899E+01-1.77222E-02-8.54424E-05 8.16423E-02-1.59104E-13-5.83327E-14
 -1      2698 1.99891E+01-5.97208E-04-3.50352E-04 7.27671E-02-9.75781E-14-1.29318E-13
 -1      2699 1.99983E+01 5.99923E-03 4.80766E-04 7.39228E-02-8.44265E-14-7.34318E-14
 -1      2700 1.99965E+01-3.85802E-03-9.14937E-05 7.80987E-02-1.55774E-13-3.81684E-14
 -1      2701 2.00017E+01 1.24166E-02-3.47834E-04 7.69917E-02-7.44885E-14-4.71183E-14
 -1      2702 2.00119E+01 1.98050E-02 5.75560E-04 8.16481E-02-1.90095E-14-1.88780E-14
 -1      2703 2.00041E+01 1.16954E-02-1.08625E-04 8.11112E-02-6.44248E-14 7.54241E-14
 -1      2704 2.00158E+01 2.69977E-02-3.53447E-04 8.85907E-02-3.96932E-14-1.88337E-14
 -1      2705 2.00278E+01 3.52729E-02 6.93447E-04 9.71786E-02-4.19684E-14-2.48230E-14
 -1      2706 2.00127E+01 2.91327E-02-1.34541E-04 9.15898E-02-5.21243E-14 5.34142E-14
 -1      2707 2.00324E+01 4.32963E-02-3.67063E-04 1.08482E-01 2.52179E-14-8.51369E-14
 -1      2708 2.00467E+01 5.24877E-02 8.31805E-04 1.21447E-01 1.49015E-13-1.82622E-13
 -1      2709 2.00229E+01 4.86399E-02-1.68009E-04 1.10505E-01-4.22771E-14-9.68175E-14
 -1      2710 2.00525E+01 6.12986E-02-3.85124E-04 1.37610E-01 1.73424E-13-2.39147E-13
 -1      2711 2.00700E+01 7.12872E-02 9.84151E-04 1.55361E-01 8.72510E-14-2.50438E-13
 -1      2712 2.00351E+01 7.02434E-02-2.09176E-04 1.38870E-01 1.01749E-13-2.98949E-13
 -1      2713 2.00772E+01 8.06529E-02-3.99452E-04 1.76830E-01 1.02505E-14-2.25758E-13
 -1      2714 2.00989E+01 9.10586E-02 1.13848E-03 1.99645E-01-7.25105E-14-1.92494E-13
 -1      2715 2.00500E+01 9.36122E-02-2.60284E-04 1.77653E-01 5.65939E-14-3.31023E-13
 -1      2716 2.01082E+01 1.00435E-01-3.95387E-04 2.26707E-01-9.57188E-14-1.64259E-13
 -1      2717 2.01349E+01 1.10466E-01 1.27521E-03 2.54580E-01-4.93212E-14-1.39047E-13
 -1      2718 2.00687E+01 1.17793E-01-3.26951E-04 2.27613E-01-7.82831E-14-4.47335E-14
 -1      2719 2.01472E+01 1.18837E-01-3.49231E-04 2.87187E-01-5.07460E-14-8.91778E-14
 -1      2720 2.01800E+01 1.27097E-01 1.36476E-03 3.19596E-01-5.35644E-14-7.48645E-14
 -1      2721 2.00924E+01 1.40860E-01-4.20188E-04 2.89016E-01 2.06168E-15 3.41599E-14
 -1      2722 2.01966E+01 1.32773E-01-2.25112E-04 3.57116E-01-5.80928E-14-3.82594E-14
 -1      2723 2.02366E+01 1.37028E-01 1.36494E-03 3.92709E-01-1.91607E-14-1.17767E-14
 -1      2724 2.01233E+01 1.59463E-01-5.59272E-04 3.61225E-01-7.93433E-15 1.36578E-13
 -1      2725 2.02597E+01 1.37420E-01 2.81711E-05 4.33580E-01 3.55453E-14-7.42430E-14
 -1      2726 2.03079E+01 1.34354E-01 1.21837E-03 4.69756E-01 3.28552E-14-9.71166E-15
 -1      2727 2.01642E+01 1.68301E-01-7.75216E-04 4.42117E-01 2.26076E-14 1.37428E-13
 -1      2728 2.03406E+01 1.25771E-01 4.78867E-04 5.11020E-01 2.65307E-14-7.97971E-14
 -1      2729 2.03982E+01 1.10808E-01 8.50107E-04 5.43428E-01 6.74048E-14-1.56634E-14
 -1      2730 2.02198E+01 1.59573E-01-1.11374E-03 5.27301E-01 1.44471E-14 6.59898E-14
 -1      2731 2.04449E+01 8.83701E-02 1.20935E-03 5.80159E-01-4.74223E-14-4.07247E-14
 -1      2732 2.05131E+01 5.57147E-02 1.66339E-04 6.02149E-01-8.66540E-14-1.98924E-13
 -1      2733 2.02967E+01 1.22594E-01-1.63479E-03 6.09115E-01-6.82392E-14 1.29578E-14
 -1      2734 2.05802E+01 1.36258E-02 2.30238E-03 6.26768E-01 5.33127E-14-1.71150E-13
 -1      2735 2.06597E+01-4.31646E-02-9.43891E-04 6.28935E-01 7.12843E-14-1.66412E-13
 -1      2736 2.04044E+01 4.39382E-02-2.40175E-03 6.75402E-01 2.37942E-16-4.68159E-14
 -1      2737 2.07553E+01-1.10638E-01 3.80478E-03 6.30505E-01 4.11766E-15-1.58872E-13
 -1      2738 2.08463E+01-1.97041E-01-2.59466E-03 6.00571E-01 2.13666E-14-1.27132E-13
 -1      2739 2.05559E+01-9.11801E-02-3.44768E-03 7.08121E-01 7.72254E-14-1.46943E-13
 -1      2740 2.09792E+01-2.93268E-01 5.64817E-03 5.64298E-01-3.39694E-14-1.28491E-13
 -1      2741 2.10799E+01-4.10402E-01-4.85932E-03 4.87855E-01-1.26592E-13-3.35282E-14
 -1      2742 2.07671E+01-2.95107E-01-4.69769E-03 6.82022E-01-9.11763E-15-2.02706E-13
 -1      2743 2.12573E+01-5.32079E-01 7.47743E-03 3.95477E-01-1.04779E-13 9.96180E-14
 -1      2744 2.13618E+01-6.70854E-01-7.64712E-03 2.58488E-01-5.87105E-14 1.96398E-13
 -1      2745 2.10537E+01-5.69759E-01-5.84207E-03 5.64101E-01-3.72269E-14 6.31198E-15
 -1      2746 2.15825E+01-8.01393E-01 8.47892E-03 9.10653E-02-1.14939E-13 1.67929E-13
 -1      2747 2.16779E+01-9.34591E-01-1.04307E-02-1.14494E-01-1.03142E-13 1.95700E-13
 -1      2748 2.14240E+01-8.92971E-01-6.20759E-03 3.15865E-01-1.11227E-13 2.31207E-14
 -1      2749 2.19234E+01-1.03679E+00 7.29296E-03-3.69024E-01-8.34222E-14 2.60110E-13
 -1      2750 2.19880E+01-1.11179E+00-1.16923E-02-6.35282E-01-3.34561E-14 2.50151E-13
 -1      2751 2.18650E+01-1.20025E+00-4.68964E-03-9.75977E-02-9.32870E-14 1.06096E-13
 -1      2752 2.22109E+01-1.12416E+00 2.24705E-03-9.65726E-01-2.46947E-14 1.80130E-13
 -1      2753 2.22169E+01-1.06579E+00-8.70016E-03-1.25431E+00-5.40456E-14 1.31019E-13
 -1      2754 2.23231E+01-1.36698E+00 1.76010E-04-6.85626E-01-1.17630E-13 1.12780E-14
 -1      2755 2.23399E+01-9.16562E-01-7.49221E-03-1.59892E+00-4.34128E-14 1.18358E-13
 -1      2756 2.22678E+01-6.60399E-01 3.30450E-04-1.82899E+00 1.80299E-14 7.78065E-14
 -1      2757 2.26868E+01-1.21538E+00 8.45297E-03-1.38743E+00-6.32965E-14 1.15003E-14
 -1      2758 2.22231E+01-3.16976E-01-1.83750E-02-2.06194E+00 8.86255E-14 2.36417E-14
 -1      2759 2.20821E+01 1.25893E-01 1.31894E-02-2.12454E+00 1.03561E-13-4.56252E-14
 -1      2760 2.28136E+01-6.04737E-01 1.42680E-02-2.01537E+00 3.70219E-14 1.07561E-13
 -1      2761 2.18721E+01 5.98856E-01-2.44050E-02-2.09588E+00 3.90048E-14-1.28077E-13
 -1      2762 2.17066E+01 1.08888E+00 1.93200E-02-1.90487E+00-1.61274E-13-7.04499E-14
 -1      2763 2.26319E+01 4.34990E-01 1.18036E-02-2.27972E+00 3.51477E-14 8.81812E-14
 -1      2764 2.14642E+01 1.49300E+00-1.77417E-02-1.53458E+00-1.49542E-13-8.60861E-14
 -1      2765 2.13467E+01 1.78029E+00 1.01008E-02-1.11471E+00-9.18475E-14 3.76517E-14
 -1      2766 2.22417E+01 1.57038E+00-1.54134E-03-1.89578E+00-9.25896E-14-1.22176E-13
 -1      2767 2.12595E+01 1.89149E+00 1.03590E-03-5.36879E-01-2.09702E-13 8.78432E-14
 -1      2768 2.12279E+01 1.81723E+00-8.79528E-03-5.36620E-02-3.96530E-13-5.88050E-15
 -1      2769 2.19457E+01 2.22745E+00-1.51112E-02-8.99512E-01-7.27760E-14-2.07484E-13
 -1      2770 2.13487E+01 1.57895E+00 1.73780E-02 4.61542E-01-3.95118E-13 1.17637E-13
 -1      2771 2.13893E+01 1.20382E+00-2.24315E-02 8.04195E-01-6.93014E-14 1.10797E-14
 -1      2772 2.19731E+01 2.06504E+00-7.99948E-03 2.66462E-01-2.48337E-13 8.17879E-15
 -1      2773 2.15708E+01 7.79861E-01 1.74437E-02 1.03627E+00 4.39974E-14-2.30862E-13
 -1      2774 2.16211E+01 3.37918E-01-2.31624E-02 1.13932E+00-6.34323E-15-2.78071E-13
 -1      2775 2.22298E+01 1.19797E+00 5.54026E-03 1.02786E+00-1.75347E-13-1.96710E-13
 -1      2776 2.16756E+01-2.99066E-02 4.75265E-03 1.07043E+00 3.35142E-14-4.36499E-13
 -1      2777 2.16737E+01-3.21153E-01-1.24812E-02 9.79791E-01-6.32060E-14-4.66388E-13
 -1      2778 2.23987E+01 1.68251E-01 1.25218E-02 1.14827E+00-1.15509E-13-5.54459E-13
 -1      2779 2.15222E+01-4.86378E-01-6.07385E-03 7.54001E-01-2.51566E-14-4.51712E-13
 -1      2780 2.14289E+01-5.63181E-01-2.52788E-03 5.90539E-01 9.38450E-14-3.58038E-13
 -1      2781 2.22430E+01-5.24290E-01 8.34713E-03 7.78853E-01-4.04139E-14-6.33018E-13
 -1      2782 1.98553E+01 4.91526E-02 4.39541E-05-1.44091E-01 1.08708E-13-1.82256E-13
 -1      2783 1.98693E+01 8.10561E-02 3.16212E-03-1.15825E-01 1.14881E-13-1.69425E-13
 -1      2784 2.17733E+01-1.32398E+00 4.27517E-02 4.41551E+00-4.09953E-13-5.44918E-13
 -1      2785 2.25445E+01-1.42248E+00 4.93348E-02 3.39625E+00-3.78304E-13 4.78519E-14
 -1      2786 2.32480E+01-2.31476E+00-8.05694E-03 3.18897E+00-5.03242E-13-2.17014E-15
 -1      2787 1.98923E+01 1.18664E-01-2.57967E-04-7.13731E-02 1.32812E-13-1.81788E-13
 -1      2788 1.99280E+01 1.70309E-01 5.20264E-03-1.59058E-02 1.66150E-13-1.51885E-13
 -1      2789 1.99918E+01 1.35297E-01-2.33429E-03-7.29350E-02 1.41714E-13-2.04338E-13
 -1      2790 1.98435E+01-1.83974E-02 2.39363E-04-1.84435E-01 4.71018E-14-4.47502E-14
 -1      2791 1.98351E+01-7.29974E-03 8.80581E-04-1.84026E-01 9.05740E-14-7.37733E-14
 -1      2792 1.98545E+01-3.17911E-02 2.49510E-04-1.76665E-01 8.93544E-14-9.49920E-14
 -1      2793 1.98417E+01-2.61469E-02 2.96871E-04-1.82451E-01 7.80890E-14-5.08249E-14
 -1      2794 1.99203E+01-2.50426E-02-8.50968E-04-1.87343E-01 7.37434E-14-8.69494E-14
 -1      2795 1.98705E+01-3.74602E-02 2.42900E-04-1.60499E-01 1.18153E-13-1.21787E-13
 -1      2796 1.98559E+01-3.54303E-02-6.54213E-05-1.69487E-01 8.76093E-14-1.21451E-13
 -1      2797 1.99202E+01-4.03543E-02-5.51737E-04-1.79652E-01 1.26475E-13-1.00468E-13
 -1      2798 1.98885E+01-3.80209E-02 2.33675E-04-1.40634E-01 1.30550E-13-1.29649E-13
 -1      2799 1.98737E+01-3.83659E-02-2.75770E-04-1.50809E-01 1.61511E-13-6.86593E-14
 -1      2800 1.99255E+01-4.64775E-02-3.41558E-04-1.63451E-01 1.14057E-13-1.28098E-13
 -1      2801 1.99069E+01-3.52336E-02 2.29865E-04-1.20249E-01 1.35848E-13-1.18088E-13
 -1      2802 1.98928E+01-3.71243E-02-3.83646E-04-1.30261E-01 1.20944E-13-9.42190E-14
 -1      2803 1.99338E+01-4.65173E-02-2.01837E-04-1.43560E-01 1.29290E-13-1.10783E-13
 -1      2804 1.99247E+01-3.02492E-02 2.37032E-04-1.01484E-01 8.66923E-14-1.29117E-13
 -1      2805 1.99116E+01-3.31527E-02-4.24682E-04-1.10429E-01 1.43792E-13-8.30441E-14
 -1      2806 1.99436E+01-4.25569E-02-1.15926E-04-1.23268E-01 1.28524E-13 1.01937E-14
 -1      2807 1.99416E+01-2.37623E-02 2.59743E-04-8.58022E-02 1.53372E-14-7.77116E-14
 -1      2808 1.99295E+01-2.73687E-02-4.24652E-04-9.30583E-02 7.56827E-14-9.62144E-14
 -1      2809 1.99541E+01-3.59431E-02-7.06303E-05-1.04814E-01 9.60150E-14 5.39203E-14
 -1      2810 1.99578E+01-1.61199E-02 3.02523E-04-7.42647E-02 1.39475E-13-1.74688E-13
 -1      2811 1.99465E+01-2.02901E-02-4.01923E-04-7.93706E-02 5.05589E-14-9.29104E-14
 -1      2812 1.99648E+01-2.74713E-02-5.61391E-05-8.97582E-02 7.28614E-14 9.64774E-15
 -1      2813 1.99738E+01-7.39397E-03 3.70200E-04-6.77422E-02 2.19486E-14-4.55738E-14
 -1      2814 1.99628E+01-1.21251E-02-3.69709E-04-7.03004E-02 8.32744E-14-1.68647E-13
 -1      2815 1.99758E+01-1.75132E-02-6.49499E-05-7.92628E-02 7.39120E-14-5.66612E-14
 -1      2816 1.99904E+01 2.56797E-03 4.68264E-04-6.70823E-02-1.29778E-13-2.44001E-14
 -1      2817 1.99791E+01-2.83372E-03-3.37718E-04-6.66830E-02-3.98645E-15-5.13770E-15
 -1      2818 1.99872E+01-6.10517E-03-9.17044E-05-7.43086E-02-8.30300E-15 6.60016E-15
 -1      2819 2.00086E+01 1.41119E-02 6.03090E-04-7.32450E-02-1.71274E-13-7.45034E-14
 -1      2820 1.99962E+01 7.83168E-03-3.13434E-04-6.94040E-02-1.69853E-13-2.84894E-14
 -1      2821 1.99994E+01 6.99347E-03-1.31998E-04-7.58684E-02-1.28933E-13 1.36846E-14
 -1      2822 2.00297E+01 2.77604E-02 7.82041E-04-8.74175E-02-5.76521E-14-1.21043E-13
 -1      2823 2.00152E+01 2.03023E-02-3.03289E-04-7.95216E-02-1.38024E-13-1.10177E-13
 -1      2824 2.00131E+01 2.22629E-02-1.81852E-04-8.50449E-02-1.19208E-13-6.64897E-14
 -1      2825 2.00552E+01 4.42074E-02 1.01343E-03-1.11114E-01-3.37916E-14-6.73323E-14
 -1      2826 2.00374E+01 3.51821E-02-3.13613E-04-9.83722E-02 3.75884E-15-7.84035E-14
 -1      2827 2.00289E+01 4.04033E-02-2.36868E-04-1.03185E-01-6.69993E-14-1.67089E-13
 -1      2828 2.00866E+01 6.43193E-02 1.30635E-03-1.46263E-01 4.49193E-14-3.58541E-14
 -1      2829 2.00643E+01 5.32459E-02-3.51565E-04-1.27663E-01 2.10235E-14-4.72125E-14
 -1      2830 2.00476E+01 6.23281E-02-2.91029E-04-1.31976E-01 3.89616E-15-1.06078E-13
 -1      2831 2.01257E+01 8.91370E-02 1.67006E-03-1.95288E-01-3.51111E-15 6.29923E-14
 -1      2832 2.00974E+01 7.54423E-02-4.26027E-04-1.69555E-01 4.52200E-14 1.18299E-14
 -1      2833 2.00700E+01 8.91624E-02-3.35454E-04-1.73521E-01 9.33278E-15-8.27168E-14
 -1      2834 2.01744E+01 1.19860E-01 2.11278E-03-2.61160E-01-1.08360E-13-1.80213E-14
 -1      2835 2.01385E+01 1.02890E-01-5.48293E-04-2.26728E-01-1.14871E-14 9.09720E-14
 -1      2836 2.00966E+01 1.22237E-01-3.56898E-04-2.30401E-01-1.46633E-14 1.50687E-13
 -1      2837 2.02345E+01 1.57783E-01 2.63942E-03-3.47423E-01-2.39117E-13-2.63282E-13
 -1      2838 2.01890E+01 1.36845E-01-7.32233E-04-3.02429E-01-1.87551E-13-1.41281E-13
 -1      2839 2.01278E+01 1.63050E-01-3.36248E-04-3.05703E-01-9.94074E-14 1.39302E-13
 -1      2840 2.03073E+01 2.04110E-01 3.24770E-03-4.58133E-01-8.06169E-14-3.32063E-13
 -1      2841 2.02505E+01 1.78587E-01-9.93193E-04-4.00461E-01-2.00747E-13-3.42732E-13
 -1      2842 2.01635E+01 2.13150E-01-2.47725E-04-4.03000E-01-1.64768E-13-1.36599E-13
 -1      2843 2.03941E+01 2.59525E-01 3.92224E-03-5.97638E-01 1.52148E-13-2.93869E-13
 -1      2844 2.03240E+01 2.29142E-01-1.34406E-03-5.25070E-01 6.48498E-14-3.49137E-13
 -1      2845 2.02027E+01 2.73835E-01-6.05286E-05-5.26245E-01 4.18323E-15-3.41169E-13
 -1      2846 2.04949E+01 3.23272E-01 4.62646E-03-7.70069E-01 1.41072E-13-1.93282E-13
 -1      2847 2.04100E+01 2.88647E-01-1.78559E-03-6.80635E-01 1.48193E-13-2.53509E-13
 -1      2848 2.02436E+01 3.45494E-01 2.53298E-04-6.79519E-01 1.22158E-13-3.79351E-13
 -1      2849 2.06097E+01 3.91334E-01 5.29374E-03-9.78299E-01 2.65542E-14-1.90254E-13
 -1      2850 2.05085E+01 3.55059E-01-2.28587E-03-8.70997E-01 1.16344E-13-1.93223E-13
 -1      2851 2.02830E+01 4.26251E-01 6.97216E-04-8.66535E-01 1.10101E-13-1.99815E-13
 -1      2852 2.07386E+01 4.53060E-01 5.82141E-03-1.22205E+00 2.89345E-13-6.51270E-14
 -1      2853 2.06193E+01 4.21669E-01-2.74004E-03-1.09817E+00 1.00982E-13-1.34046E-13
 -1      2854 2.03174E+01 5.09392E-01 1.20100E-03-1.08980E+00 9.87732E-14-2.20955E-13
 -1      2855 2.08851E+01 4.85396E-01 6.07330E-03-1.49462E+00 2.75023E-13-1.00519E-13
 -1      2856 2.07449E+01 4.72669E-01-2.89657E-03-1.36003E+00 3.42890E-13-3.87678E-14
 -1      2857 2.03442E+01 5.78765E-01 1.52130E-03-1.34927E+00 2.46310E-13-1.58387E-13
 -1      2858 2.10636E+01 4.44052E-01 5.87812E-03-1.77763E+00-3.50482E-14-1.86490E-13
 -1      2859 2.08951E+01 4.75934E-01-2.22092E-03-1.64646E+00 1.71014E-13-1.23215E-13
 -1      2860 2.03676E+01 6.01192E-01 1.06628E-03-1.64035E+00 2.52438E-13-1.01547E-13
 -1      2861 2.13119E+01 2.52810E-01 5.00777E-03-2.03269E+00-5.11902E-14-4.03971E-13
 -1      2862 2.10985E+01 3.72946E-01 3.25730E-04-1.93272E+00-7.61578E-14-3.11360E-13
 -1      2863 2.04079E+01 5.15437E-01-1.35377E-03-1.95075E+00 2.09683E-14-3.02554E-13
 -1      2864 2.17133E+01-2.00993E-01 3.42331E-03-2.18794E+00 2.20733E-14-3.90973E-13
 -1      2865 2.14214E+01 6.95064E-02 6.75777E-03-2.16809E+00-3.30056E-14-4.38422E-13
 -1      2866 2.05227E+01 2.19877E-01-7.60307E-03-2.25431E+00-1.89302E-15-5.04010E-13
 -1      2867 2.24090E+01-1.04545E+00-2.16136E-03-2.11902E+00-1.57573E-13-2.88864E-13
 -1      2868 2.19934E+01-5.58797E-01 2.05058E-02-2.25606E+00-4.77879E-14-3.18408E-13
 -1      2869 2.08362E+01-4.28736E-01-1.94347E-02-2.49572E+00-7.23224E-14-3.97999E-13
 -1      2870 2.35952E+01-2.28242E+00-1.11996E-02-1.60462E+00-1.41586E-13-2.34684E-13
 -1      2871 2.30232E+01-1.60600E+00 4.45906E-02-2.00668E+00-1.89429E-13-2.80540E-13
 -1      2872 2.15899E+01-1.58463E+00-3.65905E-02-2.55951E+00-1.81600E-13-4.59508E-13
 -1      2873 2.54055E+01-3.54848E+00-2.85930E-02-3.76339E-01 6.97394E-14-8.67778E-14
 -1      2874 2.46911E+01-2.96742E+00 5.54127E-02-1.15268E+00 3.43493E-14-6.05635E-14
 -1      2875 2.30948E+01-3.11911E+00-3.51664E-02-2.15289E+00-1.38275E-13-4.17576E-13
 -1      2876 2.92161E+01-2.26178E+00-1.01939E-01 3.10336E+00 6.34492E-14 4.93772E-14
 -1      2877 2.93366E+01 1.30494E+00-1.69944E-01-2.32864E+00-7.28584E-15-4.05037E-13
 -1      2878 2.93937E+01 3.48651E+00-1.27596E-01-1.50456E+00 1.45661E-13-4.30017E-13
 -1      2879 2.65619E+01-3.50083E+00 2.85143E-02 6.89458E-01-3.21989E-13-7.24074E-15
 -1      2880 2.71966E+01-3.14740E+00-5.53175E-02-2.74600E-01-2.50614E-13-4.36734E-14
 -1      2881 2.44565E+01-2.94952E+00 4.42914E-02 2.53948E+00-4.19855E-13 4.78784E-16
 -1      2882 2.52281E+01-3.54917E+00-4.84035E-02 1.84719E+00-4.49355E-13-8.50309E-14
 -1      2883 2.61782E+01-4.33963E+00-4.27612E-02 2.20428E+00-3.95736E-13-6.11570E-13
 -1      2884 2.37111E+01-3.42863E+00 1.96413E-03 3.81340E+00-6.45143E-13-6.22719E-13
 -1      2885 1.71257E+01 5.07963E-01 1.19539E-01-5.03311E+00 2.06279E-13 6.78912E-13
 -1      2886 1.53579E+01 1.07561E+00-2.97219E-02-4.10129E+00-2.74017E-14 4.35568E-13
 -1      2887 2.12168E+01-5.60448E-01-9.58663E-03 4.46822E-01-2.88275E-14-3.67979E-13
 -1      2888 2.11242E+01-5.34659E-01 2.32158E-03 3.54840E-01-2.72005E-13-4.72826E-13
 -1      2889 2.18524E+01-6.84679E-01 1.20401E-02 3.74099E-01 1.56662E-15-6.63458E-13
 -1      2890 1.41093E+01 2.06082E+00 9.91249E-04 1.53008E+00-2.96841E-13 2.20143E-13
 -1      2891 1.51471E+01 1.75756E+00 9.60294E-02 2.99178E+00-3.21233E-13-1.29168E-13
 -1      2892 2.04609E+01-9.41676E-01 8.54588E-02-5.35821E+00 3.48162E-13 3.44953E-13
 -1      2893 1.88836E+01-4.01797E-01-1.83121E-02-5.34892E+00 2.78181E-13 3.15935E-13
 -1      2894 1.75520E+01-1.09936E+00 7.90665E-02-5.92673E+00 4.05509E-14 5.08385E-13
 -1      2895 1.40591E+01 1.89680E+00 9.65688E-02-2.33534E+00-2.06713E-13 1.27669E-13
 -1      2896 1.35174E+01 2.08676E+00 5.45339E-02-6.53616E-01-3.13304E-13 3.82409E-13
 -1      2897 1.34004E+01 5.17190E-01 9.21818E-02-3.78611E+00-1.23668E-13 4.26978E-13
 -1      2898 1.04431E+01-1.31190E+00 1.78491E-01-4.95227E+00 2.58127E-14 2.36589E-13
 -1      2899 1.27726E+01-2.85979E+00 1.24980E-01-6.96780E+00 2.44527E-14 9.88404E-13
 -1      2900 2.24630E+01-1.66024E+00 2.78593E-02-4.08182E+00 2.40303E-13-1.26611E-13
 -1      2901 2.16793E+01-1.38026E+00 6.98431E-05-4.67048E+00 2.86856E-13 2.50969E-13
 -1      2902 2.14417E+01-2.29983E+00 6.99044E-03-5.41789E+00 2.51747E-13 2.94105E-13
 -1      2903 2.29373E+01-1.62395E+00-7.50778E-03-2.41710E+00 4.87994E-13 5.77984E-14
 -1      2904 2.28511E+01-1.54420E+00 2.14598E-02-3.14621E+00 4.01162E-13 2.34483E-14
 -1      2905 2.32522E+01-2.40645E+00-9.72816E-03-3.64206E+00 2.58969E-13 7.86942E-14
 -1      2906 2.25183E+01-1.22646E+00-9.72908E-03-1.00388E+00 2.42026E-13-6.63040E-14
 -1      2907 2.27980E+01-1.27206E+00 2.70820E-02-1.61138E+00 4.88781E-13-4.24313E-14
 -1      2908 2.35088E+01-1.89614E+00 1.19662E-02-1.85501E+00 3.84235E-13-8.43596E-14
 -1      2909 6.76373E+00-1.43787E+00 1.82551E-01 9.93751E-01 4.45963E-14 3.35731E-13
 -1      2910 4.78777E+00-2.58626E+00 1.64528E-01-7.40186E-01 5.63369E-14 6.53477E-13
 -1      2911 7.51513E+00-1.92599E+00 1.53037E-01 4.25456E+00 2.86896E-13-8.89011E-14
 -1      2912 6.60346E+00-1.15757E+00 1.61395E-01 1.98384E+00 1.84887E-13-7.91589E-14
 -1      2913 7.41679E+00-1.24555E+00 1.61810E-01-2.38756E+00 6.49619E-14 4.89164E-13
 -1      2914 1.12404E+01-2.36205E+00 1.17384E-01 5.87239E+00-6.64885E-14-4.79117E-13
 -1      2915 9.49159E+00-1.31800E+00 1.82048E-01 4.12230E+00-1.30410E-13-1.38611E-13
 -1      2916 2.90817E+01 1.68065E+00-2.07954E-01-2.45182E+00-7.45792E-14 5.95163E-13
 -1      2917 2.93555E+01-3.27029E-01 1.36738E-03-1.82454E+00 3.01148E-14 6.80553E-13
 -1      2918 1.23194E+01-4.01452E+00 5.15682E-02 6.83199E+00 3.27266E-13-2.05391E-14
 -1      2919 9.43237E+00-2.91441E+00 1.47209E-01 5.66587E+00 3.89161E-13-4.07452E-14
 -1      2920 3.04793E+01-1.33967E-01-1.35446E-01-1.67641E+00-9.87543E-14-3.84581E-13
 -1      2921 3.06620E+01-2.49632E+00-2.45060E-02-4.74443E-01-1.98522E-13-5.33407E-13
 -1      2922 2.94883E+01-3.65675E+00-4.67390E-02 4.72391E-01-3.28543E-13-5.56943E-13
 -1      2923 2.86093E+01-3.45722E-01-1.04897E-01-1.94393E+00-1.49172E-13-4.05329E-13
 -1      2924 3.00664E+01 4.17302E+00-1.02628E-01 1.52559E+00-5.58054E-13-1.75499E-13
 -1      2925 2.93548E+01 5.88185E+00-2.14100E-01 9.89959E-01-6.49952E-13-1.04611E-13
 -1      2926 1.99616E+01 2.31237E-01-7.75851E-04 6.22084E-02 1.96870E-13-1.56056E-13
 -1      2927 2.00271E+01 3.15100E-01 7.81539E-03 1.60018E-01 2.27542E-13-1.50276E-13
 -1      2928 2.00564E+01 2.65875E-01-2.71532E-03 6.01182E-02 2.02481E-13-1.85756E-13
 -1      2929 1.98417E+01 6.60973E-03 1.86291E-04-1.76921E-01 9.04092E-14-1.24798E-13
 -1      2930 1.98417E+01 2.59360E-02 1.78532E-03-1.65885E-01 1.08034E-13-1.45449E-13
 -1      2931 1.99512E+01 5.38903E-02-1.76885E-03-1.46152E-01 8.42125E-14-1.53797E-13
 -1      2932 1.99291E+01 4.05837E-03-1.25660E-03-1.79527E-01 5.43117E-14-9.71340E-14
 -1      2933 2.03117E+01 1.05972E+00 2.50163E-03-8.56199E-01-3.33656E-13-1.46829E-13
 -1      2934 2.02268E+01 8.17114E-01-5.22237E-03-6.12143E-01-2.90656E-13-1.45721E-13
 -1      2935 2.02625E+01 8.90424E-01-3.10108E-05-5.70507E-01-2.92149E-13-2.23585E-13
 -1      2936 2.00706E+01 4.15502E-01-1.54480E-03 2.87468E-01 2.49114E-13-1.98449E-13
 -1      2937 2.01717E+01 5.53770E-01 1.04286E-02 4.50163E-01 2.64489E-13-1.85527E-13
 -1      2938 2.02539E+01 8.21555E-01 6.12242E-04 6.16839E-01 2.94191E-13-2.63171E-13
 -1      2939 2.01462E+01 4.77071E-01-2.14069E-03 2.80080E-01 2.29414E-13-2.16641E-13
 -1      2940 1.54344E+01-4.14683E+00 1.13045E-01-7.70321E+00 1.93706E-13 9.77829E-13
 -1      2941 1.88378E+01-5.23290E+00 5.57264E-02-7.78649E+00 1.74971E-13 8.03441E-13
 -1      2942 1.68714E+01-4.72636E+00-3.97275E-02 7.52914E+00-2.62457E-13 1.02279E-13
 -1      2943 1.36806E+01-3.40794E+00 1.62259E-01 6.87238E+00-1.34281E-13-4.07285E-13
 -1      2944 1.43854E+01-2.04123E+00 1.92639E-01 6.07836E+00-2.00867E-13-2.32050E-13
 -1      2945 1.99230E+01 2.59605E+00-7.88635E-03 7.94267E-01 1.97949E-13-4.96163E-13
 -1      2946 1.98791E+01 2.68822E+00-6.12646E-03 6.45304E-01 1.29535E-13-5.20275E-13
 -1      2947 1.99977E+01 2.38858E+00 4.32610E-03 5.16605E-01 9.37235E-14-4.92710E-13
 -1      2948 2.00793E+01 2.19079E+00 5.60199E-03 7.45524E-01 1.95416E-13-4.44880E-13
 -1      2949 3.06275E+01-5.27432E-01 1.19440E-02 4.21286E-01-2.86798E-13 2.94764E-14
 -1      2950 3.03890E+01 1.60459E+00-2.25036E-01 1.16162E+00-4.30156E-13-8.32112E-14
 -1      2951 1.04447E+01-2.81327E+00 1.52363E-01-4.68456E+00-6.54615E-14-2.52492E-13
 -1      2952 1.31458E+01-4.34085E+00 8.65743E-02-5.81856E+00-5.26523E-14-3.04673E-13
 -1      2953 1.92762E+01-5.58475E+00-2.64903E-02 6.49065E+00 2.64733E-13-3.23519E-13
 -1      2954 1.59906E+01-4.76634E+00 1.60742E-01 6.80375E+00 2.64205E-13-3.54786E-13
 -1      2955 2.52061E+01-5.62244E+00-1.21968E-01 3.71881E+00 7.61752E-14 1.72033E-13
 -1      2956 2.26350E+01-5.74542E+00 1.12041E-01 5.19103E+00 2.35978E-13 9.86607E-14
 -1      2957 2.81889E+01 5.43810E+00-2.20406E-01-2.01676E+00-1.61149E-13 1.19911E-13
 -1      2958 2.85754E+01 3.96596E+00-1.01343E-01-2.63865E+00-4.87110E-14 2.58404E-13
 -1      2959 6.68001E+00-1.03983E+00 1.60539E-01-6.37657E-01 2.42317E-13-1.35919E-13
 -1      2960 7.75508E+00-1.63540E+00 1.40726E-01-2.81520E+00 1.22985E-13-3.77531E-13
 -1      2961 1.98745E+01 2.69672E+00-5.95037E-03-6.34669E-01-2.35821E-13-4.78020E-13
 -1      2962 1.99171E+01 2.60733E+00-7.58867E-03-7.85222E-01-2.79017E-13-4.71656E-13
 -1      2963 1.66119E+01-5.26531E+00 1.30714E-01-5.64272E+00-1.97897E-14-1.28370E-13
 -1      2964 2.07322E+01-6.08951E+00-7.05919E-03-4.98733E+00-4.41314E-14-7.92699E-14
 -1      2965 1.68242E+01-4.05748E+00 1.41018E-01-5.09017E+00-2.05155E-13-4.33403E-14
 -1      2966 2.85415E+01-2.92468E+00-2.08618E-01-2.08320E-01-5.49873E-14 5.31131E-13
 -1      2967 2.76409E+01-4.37949E+00 7.63054E-02 1.55159E+00-1.27884E-14 3.25101E-13
 -1      2968 2.33774E+01-6.25697E+00 9.10603E-02-3.79268E+00-5.17364E-14-2.46067E-13
 -1      2969 2.58898E+01-6.01304E+00-5.40410E-02-2.31200E+00-8.74301E-15-2.83461E-13
 -1      2970 2.21481E+01-5.57465E+00 6.17655E-02-3.97171E+00-1.39305E-13-2.45214E-13
 -1      2971 2.01799E+01 2.27255E+00 5.82516E-05-1.42281E+00-4.09604E-13-2.60900E-13
 -1      2972 2.85507E+01-4.71675E+00 8.12129E-02-3.46062E+00-5.20695E-14 5.25247E-13
 -1      2973 2.97513E+01-3.30219E+00-1.98896E-01-1.58319E+00-1.28763E-13 3.48346E-13
 -1      2974 2.14173E+01-6.50320E-01-7.91664E-04 1.07983E-01-2.06836E-13-4.85139E-13
 -1      2975 2.47110E+01-6.38997E+00-7.31174E-03 5.83638E+00-5.44065E-13 8.78186E-14
 -1      2976 2.11397E+01-5.71720E+00 1.44275E-01 6.73262E+00-4.18166E-13 1.46758E-14
 -1      2977 2.90397E+01-3.51791E+00-9.73016E-02 1.74094E+00 8.36171E-14-4.42979E-14
 -1      2978 2.75717E+01-3.44807E+00-3.69976E-02 1.77974E+00-8.24514E-15 8.66147E-14
 -1      2979 2.69715E+01-3.75030E+00 1.82295E-02 7.48052E-01 1.61741E-14-2.79776E-14
 -1      2980 2.78760E+01-5.31657E+00 2.60660E-02-4.54321E-01 6.97220E-14-3.35149E-14
 -1      2981 2.89319E+01 2.34437E+00-1.01296E-01 1.51104E+00-4.35277E-13-3.19716E-13
 -1      2982 1.99320E+01 2.53803E+00 3.15055E-03 5.09091E-03-5.75497E-14-4.99507E-13
 -1      2983 1.97933E+01 2.86992E+00-5.53270E-03-6.19232E-02-7.69571E-14-5.30405E-13
 -1      2984 1.98008E+01 2.85578E+00-5.43243E-03-2.16870E-01-1.26226E-13-5.15411E-13
 -1      2985 1.55080E+01-2.94565E+00 7.70787E-02-7.01879E+00 6.72101E-14 8.61200E-13
 -1      2986 2.92619E+01 5.01603E+00-2.78682E-01-7.38068E-01 1.83908E-13-6.28345E-13
 -1      2987 2.68474E+01 5.33777E+00-9.54388E-02-1.57851E+00-1.53030E-13-2.45252E-13
 -1      2988 1.99722E+01 2.48588E+00-6.35495E-03-9.00619E-01-3.08892E-13-4.40553E-13
 -1      2989 2.00273E+01 2.34242E+00-1.32402E-02-1.04114E+00-3.51177E-13-4.06032E-13
 -1      2990 2.00676E+01 2.20056E+00 2.73811E-03-7.36459E-01-2.64771E-13-4.18148E-13
 -1      2991 2.02908E+01 1.58798E+00-1.13264E-03 1.16556E+00 3.61641E-13-2.99238E-13
 -1      2992 2.63358E+01-5.80270E+00-1.86646E-03 4.09162E+00-5.05290E-13-4.46712E-13
 -1      2993 1.48136E+01 6.50788E-01 1.26068E-01 3.90599E+00-3.40304E-13-2.60472E-13
 -1      2994 1.60482E+01 9.37854E-01-7.82175E-02 4.18175E+00-3.70853E-13-4.75182E-13
 -1      2995 2.57138E+01-4.39232E+00-3.45094E-02-7.02706E-01-1.21951E-14-3.15225E-14
 -1      2996 1.24381E+01 1.36239E+00 1.24502E-01 5.11832E-01-2.89768E-13 2.29344E-13
 -1      2997 2.85771E+01-3.26938E+00-6.86469E-02-1.84186E-01-3.49106E-13-2.95763E-13
 -1      2998 2.82918E+01-2.10045E+00-9.10660E-02-1.49482E+00-2.69305E-13-1.97800E-13
 -1      2999 2.93186E+01-2.25420E+00-6.09812E-02-4.58762E-01-6.80740E-14-6.23945E-14
 -1      3000 2.03922E+01-4.58019E+00 1.48013E-01 6.47688E+00-4.43298E-13 4.68826E-14
 -1      3001 2.05468E+01-1.09517E+00-5.75863E-02 4.77391E+00-5.14155E-13-5.77685E-13
 -1      3002 8.73174E+00-6.41897E-01 2.01618E-01 2.53638E+00-1.05797E-13 2.49800E-15
 -1      3003 8.54349E+00-1.52531E-01 1.55354E-01 3.76232E-01-9.88901E-14 4.46199E-13
 -1      3004 2.17834E+01-7.94590E-01 7.13702E-04-3.05152E-01 3.43332E-14-3.97499E-13
 -1      3005 8.93462E+00-2.86815E-01 1.04598E-01 1.89952E+00 1.68117E-13-9.81021E-14
 -1      3006 7.60379E+00-5.82384E-01 1.90719E-01 6.75528E-01 1.62005E-13-1.48659E-13
 -1      3007 8.93419E+00-1.77857E-01 9.75190E-02-3.98719E-01 9.54163E-14-1.56139E-13
 -1      3008 8.47308E+00-4.04220E-01 1.64035E-01-1.72088E+00-2.94209E-15 6.09485E-13
 -1      3009 9.02017E+00-6.24590E-01 1.91125E-01-3.25300E+00-5.15421E-14 3.64986E-13
 -1      3010 1.12199E+01-6.29133E-01 9.20522E-02-4.33259E+00 5.56152E-14 3.23325E-13
 -1      3011 9.95861E+00 3.84780E-01 1.49135E-01-3.38319E-01-1.57475E-13 5.11091E-13
 -1      3012 2.81239E+01-1.88319E+00-4.13016E-02-1.20624E+00-5.37209E-14 5.08218E-13
 -1      3013 2.13731E+01-5.47924E+00 1.17894E-01-7.22306E+00 1.80189E-13 5.62363E-13
 -1      3014 2.32462E+01-5.57759E+00-9.31005E-02-6.29498E+00 1.28828E-13 5.48997E-13
 -1      3015 2.05334E+01-4.51719E+00 1.57623E-01-7.18749E+00 9.81576E-14 6.38302E-13
 -1      3016 1.01325E+01-1.83532E+00 1.69827E-01 4.72396E+00 3.03528E-13-1.12271E-14
 -1      3017 2.60252E+01-4.85650E+00 2.13065E-02 2.22770E+00 2.26069E-14 2.47719E-13
 -1      3018 1.53336E+01-3.81642E+00 1.41813E-01 6.35064E+00 2.58155E-13-3.17385E-13
 -1      3019 2.76621E+01 2.32907E+00-7.95955E-02-2.64017E+00 3.11418E-14 2.34826E-13
 -1      3020 1.98165E+01 2.81985E+00-5.67303E-03-3.51458E-01-1.63429E-13-4.86789E-13
 -1      3021 1.98407E+01 2.77187E+00-6.06669E-03-5.05712E-01-2.12910E-13-4.68847E-13
 -1      3022 1.99889E+01 2.39414E+00 2.05844E-03-5.05701E-01-2.09854E-13-4.38451E-13
 -1      3023 1.99444E+01 2.50370E+00 2.48070E-03-2.54211E-01-1.42719E-13-4.67046E-13
 -1      3024 1.79689E+01 4.42446E-01 1.28974E-01 4.93352E+00-3.79974E-13-5.20336E-13
 -1      3025 2.13421E+01-5.23305E+00 8.48404E-02 5.27062E+00 2.18867E-13-6.83689E-14
 -1      3026 2.70400E+01-5.20343E+00 4.84660E-02-4.27504E+00 1.59900E-13 6.37004E-13
 -1      3027 1.03173E+01-1.77699E+00 1.71843E-01-3.73696E+00-6.61277E-14-1.73694E-13
 -1      3028 1.29255E+01-2.05682E+00 1.91324E-02-4.40923E+00-1.94733E-13-1.93776E-13
 -1      3029 1.06099E+01-7.76951E-01 1.18217E-01-2.79900E+00-4.55747E-14-1.47993E-13
 -1      3030 2.75285E+01 5.46642E+00-1.29723E-01 6.04136E-01-4.40564E-13-6.36637E-13
 -1      3031 2.02805E+01 1.36662E+00 2.30744E-03 9.19541E-01 3.19872E-13-3.24483E-13
 -1      3032 2.01401E+01 2.12894E+00 9.14420E-04-1.14012E+00-3.54703E-13-3.40610E-13
 -1      3033 2.02925E+01 1.68156E+00-1.06653E-02-1.24808E+00-3.93237E-13-1.98913E-13
 -1      3034 2.02878E+01 1.30311E+00-1.28751E-03-9.75615E-01-3.52247E-13-1.67692E-13
 -1      3035 2.01947E+01 1.85334E+00 5.07412E-03-9.27348E-01-3.26756E-13-3.45237E-13
 -1      3036 2.60224E+01-5.31521E+00 3.60015E-03-1.32749E+00-3.04409E-14-3.16067E-14
 -1      3037 2.02787E+01 1.37856E+00 5.64757E-03-8.83645E-01-3.30016E-13-2.26993E-13
 -1      3038 1.12756E+01-1.72879E-01 1.91634E-01 3.34083E+00-1.58949E-13-1.02279E-13
 -1      3039 2.22188E+01-9.27267E-01 4.55551E-03 5.37290E-02-1.52604E-14-7.27187E-13
 -1      3040 2.23524E+01-1.01154E+00 1.06257E-02-5.08328E-01 1.24163E-13-1.99113E-13
 -1      3041 2.29966E+01-1.38262E+00-6.87605E-03-6.04150E-01 2.55764E-13-1.94815E-13
 -1      3042 2.23960E+01-9.48959E-01-1.09127E-02 2.12693E-01 9.85119E-14-6.95877E-13
 -1      3043 2.02396E+01 1.47536E+00-7.99825E-03 8.00687E-01 2.55339E-13-3.67745E-13
 -1      3044 2.01999E+01 1.66990E+00-4.65465E-04 7.45900E-01 2.22313E-13-3.88718E-13
 -1      3045 1.97142E+01-1.56615E+00 7.08185E-02 5.26813E+00-4.73468E-13-5.39461E-13
 -1      3046 2.02731E+01 7.13751E-01 5.46116E-03-3.47228E-01-2.46023E-13-2.64132E-13
 -1      3047 2.02259E+01 5.51555E-01-3.62821E-03-2.15424E-01-2.33761E-13-2.59559E-13
 -1      3048 1.25327E+01 1.78368E-01 6.46865E-02 3.78110E+00-2.11678E-13-1.99618E-13
 -1      3049 1.43791E+01-4.13287E-01 1.93364E-01 4.91074E+00-2.39857E-13-3.89536E-13
 -1      3050 2.02213E+01 4.23105E-01 4.28701E-03-1.19725E-01-2.24681E-13-2.35398E-13
 -1      3051 2.01815E+01 3.14879E-01-2.32724E-03-3.50776E-02-1.91715E-13-2.62025E-13
 -1      3052 2.02711E+01 5.81436E-01 3.41969E-05-1.88542E-01-2.12797E-13-2.66399E-13
 -1      3053 2.01672E+01 2.31250E-01 3.17432E-03 2.61965E-02-1.93442E-13-2.29135E-13
 -1      3054 2.01369E+01 1.60622E-01-1.30897E-03 7.70182E-02-2.10083E-13-2.52069E-13
 -1      3055 2.02373E+01 3.31439E-01-8.23266E-04-2.62346E-02-1.79759E-13-2.13442E-13
 -1      3056 2.01201E+01 1.06553E-01 2.24212E-03 1.12762E-01-1.66514E-13-2.32703E-13
 -1      3057 2.00989E+01 6.13213E-02-6.30066E-04 1.39811E-01-1.45340E-13-1.89673E-13
 -1      3058 2.01965E+01 1.66926E-01-1.00734E-03 7.62117E-02-1.77486E-13-1.72694E-13
 -1      3059 2.00826E+01 2.72879E-02 1.47022E-03 1.57349E-01-1.26373E-13-1.88174E-13
 -1      3060 2.00689E+01-5.40414E-04-1.97434E-04 1.68441E-01-9.27398E-14-1.45217E-13
 -1      3061 2.01574E+01 6.03905E-02-9.67601E-04 1.33840E-01-1.22487E-13-1.71517E-13
 -1      3062 2.00544E+01-2.08722E-02 8.86304E-04 1.73751E-01-4.39865E-14-1.19147E-13
 -1      3063 2.00463E+01-3.67571E-02 6.89846E-05 1.74652E-01-1.49551E-14-7.40279E-14
 -1      3064 2.01233E+01-5.94328E-03-8.41960E-04 1.60053E-01-3.98157E-14-1.35917E-13
 -1      3065 2.00341E+01-4.77103E-02 4.66401E-04 1.72276E-01-4.37757E-14-5.30566E-14
 -1      3066 2.00301E+01-5.54335E-02 2.26210E-04 1.67135E-01-1.46623E-14-4.90071E-14
 -1      3067 2.00949E+01-4.44742E-02-6.96470E-04 1.65516E-01-1.32452E-14-1.07066E-13
 -1      3068 2.00200E+01-6.00033E-02 1.76663E-04 1.60403E-01-1.15931E-14-3.86260E-14
 -1      3069 2.00188E+01-6.22021E-02 3.13543E-04 1.52152E-01-1.35926E-14-8.31753E-14
 -1      3070 2.00721E+01-6.38824E-02-5.59928E-04 1.58270E-01-2.25859E-14-1.02180E-13
 -1      3071 2.00108E+01-6.24701E-02-1.59381E-05 1.43437E-01-1.32720E-14-8.38414E-14
 -1      3072 2.00114E+01-6.09696E-02 3.58000E-04 1.34117E-01-6.81966E-15-1.04608E-13
 -1      3073 2.00543E+01-7.02631E-02-4.42202E-04 1.44176E-01-1.78289E-15-6.60497E-14
 -1      3074 2.00051E+01-5.83598E-02-1.40105E-04 1.25079E-01-1.30448E-14-1.03828E-13
 -1      3075 2.00070E+01-5.43870E-02 3.79107E-04 1.16097E-01-5.74499E-15-8.91450E-14
 -1      3076 2.00407E+01-6.78582E-02-3.44656E-04 1.27401E-01 1.94308E-14-9.00181E-14
 -1      3077 2.00021E+01-4.98339E-02-2.19198E-04 1.07887E-01-1.10427E-14-1.22159E-13
 -1      3078 2.00048E+01-4.41661E-02 3.90973E-04 1.00221E-01-1.47281E-14-1.47790E-13
 -1      3079 2.00305E+01-5.95376E-02-2.65664E-04 1.10861E-01-2.57030E-14-2.21370E-13
 -1      3080 2.00010E+01-3.82364E-02-2.71332E-04 9.36544E-02-2.17908E-14-1.85897E-13
 -1      3081 2.00043E+01-3.13148E-02 4.03692E-04 8.80070E-02-9.47972E-14-1.91719E-13
 -1      3082 2.00231E+01-4.71360E-02-2.02567E-04 9.66053E-02-5.44861E-14-2.74077E-13
 -1      3083 2.00014E+01-2.43033E-02-3.10289E-04 8.36913E-02-1.80399E-13-1.03257E-13
 -1      3084 2.00051E+01-1.63221E-02 4.24307E-04 8.06083E-02-1.75268E-13-1.41324E-13
 -1      3085 2.00178E+01-3.17122E-02-1.52295E-04 8.61195E-02-8.43043E-14-2.09969E-13
 -1      3086 2.00029E+01-8.32684E-03-3.46423E-04 7.90437E-02-1.52420E-13-5.69051E-14
 -1      3087 2.00071E+01 6.94361E-04 4.58029E-04 7.89975E-02-1.32105E-13 2.80393E-16
 -1      3088 2.00140E+01-1.37558E-02-1.11531E-04 8.05612E-02-1.26763E-13-1.34891E-13
 -1      3089 2.00051E+01 9.70936E-03-3.87264E-04 8.06480E-02-1.11930E-13 2.01012E-14
 -1      3090 2.00100E+01 1.98613E-02 5.08449E-04 8.40970E-02-5.87068E-14 3.25836E-14
 -1      3091 2.00112E+01 6.64627E-03-7.72791E-05 8.09295E-02-7.58784E-14-9.76649E-14
 -1      3092 2.00080E+01 3.00034E-02-4.37568E-04 8.94417E-02-5.76763E-14 2.56723E-14
 -1      3093 2.00136E+01 4.14186E-02 5.77524E-04 9.68641E-02-1.13507E-13-5.82758E-14
 -1      3094 2.00090E+01 2.96604E-02-4.73983E-05 8.81920E-02-9.31814E-14-6.96123E-14
 -1      3095 2.00115E+01 5.27965E-02-4.99213E-04 1.06424E-01-1.48664E-13 8.57944E-15
 -1      3096 2.00181E+01 6.55700E-02 6.65477E-04 1.18325E-01-4.16869E-14-4.23070E-14
 -1      3097 2.00068E+01 5.55491E-02-2.07186E-05 1.03366E-01-1.09465E-13-5.76769E-14
 -1      3098 2.00156E+01 7.82099E-02-5.70634E-04 1.32664E-01 2.18469E-14-1.10219E-13
 -1      3099 2.00236E+01 9.22999E-02 7.70715E-04 1.49554E-01 7.18366E-14-2.19751E-13
 -1      3100 2.00043E+01 8.44897E-02 2.20506E-06 1.27547E-01-6.54327E-14-3.19092E-14
 -1      3101 2.00206E+01 1.06036E-01-6.45572E-04 1.69257E-01 9.34778E-14-2.63583E-13
 -1      3102 2.00302E+01 1.21133E-01 8.89435E-04 1.91592E-01 4.58165E-14-2.02569E-13
 -1      3103 2.00012E+01 1.16348E-01 1.78906E-05 1.61897E-01 5.73319E-14-8.56536E-14
 -1      3104 2.00269E+01 1.35462E-01-7.11179E-04 2.17203E-01-8.00926E-16-1.00219E-13
 -1      3105 2.00388E+01 1.50813E-01 1.01516E-03 2.45280E-01 1.83661E-14 3.65168E-14
 -1      3106 1.99975E+01 1.50387E-01 1.81518E-05 2.07561E-01 1.10111E-13-1.46508E-13
 -1      3107 2.00354E+01 1.64702E-01-7.45320E-04 2.77204E-01-8.17514E-15 5.48362E-14
 -1      3108 2.00504E+01 1.78887E-01 1.13821E-03 3.11003E-01 6.03244E-15 5.75559E-14
 -1      3109 1.99935E+01 1.84872E-01-1.25481E-05 2.65525E-01 1.05209E-14-8.69515E-14
 -1      3110 2.00480E+01 1.90528E-01-7.12978E-04 3.49351E-01-1.41334E-14 2.34638E-16
 -1      3111 2.00671E+01 2.01169E-01 1.24506E-03 3.88301E-01-1.27863E-14 6.72757E-14
 -1      3112 1.99903E+01 2.16572E-01-1.00822E-04 3.36381E-01-5.89168E-14-1.04826E-14
 -1      3113 2.00674E+01 2.07683E-01-5.61778E-04 4.32667E-01-2.25880E-14 4.53962E-14
 -1      3114 2.00925E+01 2.11125E-01 1.31701E-03 4.75331E-01-2.93437E-14 9.46429E-14
 -1      3115 1.99903E+01 2.40131E-01-2.89228E-04 4.19983E-01-2.66813E-14-1.62016E-13
 -1      3116 2.00985E+01 2.08247E-01-2.16985E-04 5.24476E-01 1.26884E-14 1.05588E-13
 -1      3117 2.01320E+01 1.99233E-01 1.32702E-03 5.68141E-01-4.50690E-14 4.25741E-14
 -1      3118 1.99977E+01 2.47356E-01-6.41935E-04 5.14950E-01-1.79399E-15-1.83833E-14
 -1      3119 2.01490E+01 1.81055E-01 4.22958E-04 6.19547E-01-9.83488E-14 1.02606E-13
 -1      3120 2.01947E+01 1.52527E-01 1.23213E-03 6.59705E-01-5.79305E-14 1.39460E-13
 -1      3121 2.00199E+01 2.26507E-01-1.24975E-03 6.17985E-01-5.54456E-14 1.26209E-13
 -1      3122 2.02303E+01 1.11472E-01 1.48774E-03 7.08951E-01-1.18969E-13 1.29856E-13
 -1      3123 2.02934E+01 5.47340E-02 9.57973E-04 7.38675E-01-1.08460E-14 1.44587E-13
 -1      3124 2.00684E+01 1.61858E-01-2.23047E-03 7.22889E-01-1.00357E-13 3.17849E-13
 -1      3125 2.03589E+01-1.79161E-02 3.12826E-03 7.78529E-01-2.74643E-14 9.20097E-14
 -1      3126 2.04460E+01-1.12229E-01 3.71165E-04 7.87780E-01-2.78829E-14 4.52849E-14
 -1      3127 2.01607E+01 3.40084E-02-3.71434E-03 8.19121E-01-7.46610E-14 2.16121E-13
 -1      3128 2.05567E+01-2.24670E-01 5.48604E-03 8.06892E-01 8.25121E-15 1.86954E-15
 -1      3129 2.06752E+01-3.64044E-01-7.59423E-04 7.81870E-01 2.10026E-14 1.97436E-14
 -1      3130 2.03212E+01-1.78096E-01-5.79477E-03 8.89638E-01-6.23974E-14 1.57221E-13
 -1      3131 2.08496E+01-5.20188E-01 8.58821E-03 7.62945E-01 1.09889E-14-5.24971E-14
 -1      3132 2.10046E+01-7.04777E-01-2.79294E-03 6.85934E-01-8.88527E-14-1.04179E-13
 -1      3133 2.05820E+01-4.91727E-01-8.40927E-03 9.07626E-01-2.42888E-14-2.20754E-14
 -1      3134 2.12604E+01-8.97141E-01 1.19382E-02 6.04114E-01-1.44616E-13-7.21416E-14
 -1      3135 2.14504E+01-1.10991E+00-6.07164E-03 4.55054E-01-1.32751E-13-2.99867E-14
 -1      3136 2.09786E+01-9.08112E-01-1.11367E-02 8.32184E-01-5.45255E-14-1.05026E-13
 -1      3137 2.17943E+01-1.30825E+00 1.42551E-02 2.79516E-01-8.32909E-14 6.69638E-14
 -1      3138 2.20038E+01-1.50213E+00-1.05434E-02 4.24028E-02-5.66865E-14 6.18912E-14
 -1      3139 2.15384E+01-1.39021E+00-1.30319E-02 6.06469E-01-1.62991E-14-3.30993E-14
 -1      3140 2.24159E+01-1.64079E+00 1.33070E-02-2.56933E-01-1.34083E-13 8.60059E-14
 -1      3141 2.26057E+01-1.72324E+00-1.44147E-02-5.80431E-01-1.63819E-13 6.61830E-14
 -1      3142 2.22581E+01-1.83476E+00-1.27178E-02 1.63143E-01-1.08688E-13 3.78245E-14
 -1      3143 2.30145E+01-1.69226E+00 5.62379E-03-1.00464E+00-1.98275E-13 1.06370E-13
 -1      3144 2.31275E+01-1.52871E+00-1.25470E-02-1.36751E+00-1.15691E-13-3.49722E-14
 -1      3145 2.30645E+01-2.03140E+00-7.45474E-03-5.43805E-01-1.93015E-13 2.23131E-13
 -1      3146 2.33881E+01-1.19341E+00-1.18357E-02-1.82760E+00 4.14540E-14-5.03473E-14
 -1      3147 2.33899E+01-6.84391E-01 1.64118E-03-2.09964E+00 9.90675E-14-3.22667E-14
 -1      3148 2.37653E+01-1.66153E+00 1.51888E-03-1.46685E+00-7.21666E-14 1.17319E-13
 -1      3149 2.33727E+01-4.41389E-02-3.93272E-02-2.37711E+00 7.59197E-14 2.12254E-15
 -1      3150 2.32723E+01 7.54318E-01 1.34926E-02-2.39890E+00-1.86483E-14-1.05956E-13
 -1      3151 2.40937E+01-4.54084E-01 1.05487E-02-2.31247E+00 8.88092E-14-1.96223E-13
 -1      3152 2.30276E+01 1.54640E+00-4.57258E-02-2.25551E+00-2.51770E-14 3.87017E-14
 -1      3153 2.28926E+01 2.28449E+00 1.47842E-02-1.90970E+00 4.67126E-14 1.38797E-13
 -1      3154 2.39788E+01 1.29900E+00 2.51367E-03-2.50823E+00 2.24647E-14-8.06421E-14
 -1      3155 2.26464E+01 2.75447E+00-4.46363E-02-1.24476E+00-6.74460E-15 7.82046E-14
 -1      3156 2.26019E+01 2.96258E+00-2.28917E-02-6.67850E-01-2.74312E-14 7.08188E-14
 -1      3157 2.35612E+01 3.00979E+00-6.63363E-03-1.74595E+00 7.21090E-14 2.41118E-13
 -1      3158 2.26896E+01 2.82373E+00-4.72910E-04 1.23502E-01-2.23765E-13-1.73221E-14
 -1      3159 2.27336E+01 2.36089E+00-4.68293E-02 6.20827E-01-3.07298E-13-5.82949E-14
 -1      3160 2.34985E+01 3.51079E+00 5.41514E-03-2.13269E-01-1.59209E-13 1.17622E-13
 -1      3161 2.29907E+01 1.74117E+00 1.63578E-02 1.07563E+00-3.70474E-13-1.65976E-13
 -1      3162 2.30728E+01 9.65318E-01-4.45834E-02 1.27613E+00-3.53648E-13-3.33470E-13
 -1      3163 2.37371E+01 2.46019E+00-6.46607E-03 1.01558E+00-4.09787E-13-1.88292E-13
 -1      3164 2.32077E+01 2.88500E-01 1.80382E-02 1.17244E+00-2.93023E-13-3.93461E-13
 -1      3165 2.31727E+01-3.25995E-01-2.28587E-02 1.07314E+00-2.09752E-13-5.08755E-13
 -1      3166 2.40433E+01 5.53735E-01-3.53695E-03 1.28681E+00-3.42300E-13-1.40627E-13
 -1      3167 2.29420E+01-6.64248E-01-1.10782E-02 7.46486E-01-1.57145E-13-6.47087E-13
 -1      3168 2.27626E+01-8.84447E-01-9.94956E-03 4.99723E-01 1.49707E-14-6.27955E-13
 -1      3169 2.31794E+01-1.09526E+00 9.08049E-03 1.94370E-01-4.90493E-15-5.52774E-13
 -1      3170 2.37596E+01-7.13548E-01-3.42730E-02 8.23492E-01-2.16408E-13-4.79736E-13
 -1      3171 2.00727E+01 1.50184E-01-1.13925E-03-7.67384E-02 1.09851E-13-1.81828E-13
 -1      3172 2.01052E+01 2.15574E-01 3.68453E-03-2.33913E-02 1.57443E-13-1.79243E-13
 -1      3173 1.99826E+01-4.81150E-02 2.34194E-04-1.73416E-01 9.11333E-14-1.26796E-13
 -1      3174 1.99823E+01-4.08594E-02 4.44469E-04-1.78853E-01 1.26288E-13-1.01459E-13
 -1      3175 1.99918E+01-3.07213E-02 1.06117E-04-1.81140E-01 8.75104E-14-1.19552E-13
 -1      3176 1.99957E+01-1.60805E-02 9.14081E-04-1.80331E-01 5.02755E-14-1.17867E-13
 -1      3177 2.00484E+01-3.82182E-02-7.42376E-04-1.75105E-01 1.08755E-13-1.37084E-13
 -1      3178 1.99781E+01-5.43752E-02 3.36545E-04-1.38743E-01 9.55121E-14-6.18631E-14
 -1      3179 1.99736E+01-5.54030E-02-7.12900E-05-1.48557E-01 1.14087E-13-1.21341E-13
 -1      3180 1.99800E+01-4.91749E-02 3.53572E-04-1.19564E-01 6.88560E-14 5.77921E-14
 -1      3181 1.99747E+01-5.24010E-02-1.93820E-04-1.29100E-01 8.35972E-14-1.59319E-14
 -1      3182 2.00123E+01-6.20285E-02-3.09924E-04-1.34570E-01 5.11625E-14-8.11787E-14
 -1      3183 1.99836E+01-4.07628E-02 3.66235E-04-1.02403E-01 9.62454E-14 3.99514E-14
 -1      3184 1.99779E+01-4.54858E-02-2.64703E-04-1.10678E-01 1.11508E-13 5.18670E-14
 -1      3185 2.00077E+01-5.52542E-02-2.30978E-04-1.16566E-01 8.12560E-14-3.14990E-14
 -1      3186 1.99883E+01-3.00315E-02 3.84172E-04-8.88126E-02 9.72777E-14 1.03219E-14
 -1      3187 1.99824E+01-3.58626E-02-3.04633E-04-9.51208E-02 1.10038E-13 2.77852E-14
 -1      3188 2.00054E+01-4.47945E-02-1.76072E-04-1.00760E-01 1.01428E-13-9.08621E-15
 -1      3189 1.99940E+01-1.73751E-02 4.14740E-04-7.99773E-02 9.88196E-15 3.42737E-14
 -1      3190 1.99879E+01-2.41693E-02-3.29407E-04-8.37646E-02 5.61064E-14 2.37718E-14
 -1      3191 2.00050E+01-3.15967E-02-1.38453E-04-8.87140E-02 8.24638E-14 4.07391E-14
 -1      3192 2.00008E+01-2.78610E-03 4.63898E-04-7.69233E-02-3.13430E-14 3.00718E-14
 -1      3193 1.99941E+01-1.05944E-02-3.51748E-04-7.76877E-02-7.04657E-15 2.92606E-15
 -1      3194 2.00059E+01-1.60405E-02-1.13680E-04-8.16428E-02 7.79077E-15 5.17237E-14
 -1      3195 2.00085E+01 1.40700E-02 5.36661E-04-8.06833E-02-1.63339E-13 4.38993E-14
 -1      3196 2.00012E+01 5.03448E-03-3.81844E-04-7.78978E-02-5.25041E-14 7.10657E-14
 -1      3197 2.00079E+01 1.95501E-03-9.66171E-05-8.06231E-02-8.62492E-14 8.87064E-14
 -1      3198 2.00175E+01 3.38109E-02 6.37410E-04-9.24250E-02-7.22850E-14-5.04707E-14
 -1      3199 2.00091E+01 2.31931E-02-4.28944E-04-8.54750E-02-1.11288E-13 6.37384E-15
 -1      3200 2.00106E+01 2.28476E-02-8.13718E-05-8.67456E-02-5.90766E-14 2.58424E-14
 -1      3201 2.00279E+01 5.73097E-02 7.69606E-04-1.13556E-01-9.23749E-14-1.33511E-13
 -1      3202 2.00181E+01 4.46256E-02-5.02062E-04-1.01688E-01-1.08811E-13-1.30725E-13
 -1      3203 2.00136E+01 4.74204E-02-6.14160E-05-1.01236E-01-3.98668E-14-7.59101E-14
 -1      3204 2.00397E+01 8.56782E-02 9.35685E-04-1.45805E-01-2.17915E-14-6.77016E-14
 -1      3205 2.00280E+01 7.03218E-02-6.10747E-04-1.28087E-01-2.12977E-14-5.84498E-14
 -1      3206 2.00167E+01 7.67488E-02-2.78028E-05-1.25547E-01-9.88082E-14 2.53203E-14
 -1      3207 2.00529E+01 1.20254E-01 1.13639E-03-1.91276E-01-4.44364E-14 1.95048E-14
 -1      3208 2.00390E+01 1.01505E-01-7.66008E-04-1.66565E-01-3.65220E-14-3.49082E-14
 -1      3209 2.00189E+01 1.12176E-01 3.16976E-05-1.61416E-01-4.14169E-14 3.72474E-14
 -1      3210 2.00669E+01 1.62577E-01 1.36995E-03-2.52477E-01-8.35218E-14 1.27395E-13
 -1      3211 2.00505E+01 1.39614E-01-9.80969E-04-2.19410E-01-5.43527E-14 4.38178E-14
 -1      3212 2.00193E+01 1.55289E-01 1.34002E-04-2.10898E-01-1.08232E-13 5.82692E-14
 -1      3213 2.00807E+01 2.14320E-01 1.63108E-03-3.32313E-01-5.26979E-14 3.62105E-14
 -1      3214 2.00617E+01 1.86267E-01-1.27120E-03-2.89307E-01-2.39380E-14 1.21514E-13
 -1      3215 2.00162E+01 2.07873E-01 3.02254E-04-2.76358E-01-3.89682E-14 1.39262E-14
 -1      3216 2.00925E+01 2.77113E-01 1.91039E-03-4.34021E-01-5.62957E-14-2.36238E-13
 -1      3217 2.00711E+01 2.43144E-01-1.65439E-03-3.79314E-01-1.29140E-14-1.26281E-14
 -1      3218 2.00070E+01 2.71797E-01 5.66962E-04-3.60425E-01 4.97603E-14-4.85832E-14
 -1      3219 2.00989E+01 3.52161E-01 2.19536E-03-5.61017E-01 3.86990E-14-3.63130E-13
 -1      3220 2.00759E+01 3.11731E-01-2.14851E-03-4.92772E-01-4.69454E-14-3.15671E-13
 -1      3221 1.99878E+01 3.48761E-01 9.65675E-04-4.65886E-01 6.12287E-14-2.33257E-13
 -1      3222 2.00954E+01 4.39438E-01 2.47571E-03-7.16644E-01 7.11347E-14-2.99309E-13
 -1      3223 2.00721E+01 3.92755E-01-2.76739E-03-6.33128E-01 8.24512E-14-3.56447E-13
 -1      3224 1.99530E+01 4.39759E-01 1.53892E-03-5.95535E-01 2.29753E-14-2.93686E-13
 -1      3225 2.00759E+01 5.36126E-01 2.75827E-03-9.03774E-01 1.00833E-13-2.04155E-13
 -1      3226 2.00540E+01 4.85059E-01-3.51168E-03-8.03671E-01 1.38339E-13-2.00672E-13
 -1      3227 1.98954E+01 5.44036E-01 2.31794E-03-7.52002E-01 1.02517E-13-2.38583E-13
 -1      3228 2.00336E+01 6.33763E-01 3.10070E-03-1.12432E+00 1.59702E-13-2.85796E-13
 -1      3229 2.00149E+01 5.83467E-01-4.35241E-03-1.00719E+00 1.13747E-13-2.92526E-13
 -1      3230 1.98055E+01 6.57128E-01 3.29624E-03-9.37651E-01 1.66052E-13-2.63584E-13
 -1      3231 1.99638E+01 7.13307E-01 3.67523E-03-1.37874E+00 1.58632E-13-2.25176E-13
 -1      3232 1.99481E+01 6.75001E-01-5.20121E-03-1.24563E+00 1.36948E-13-2.54580E-13
 -1      3233 1.96728E+01 7.67428E-01 4.37166E-03-1.15481E+00 1.37108E-13-3.79356E-13
 -1      3234 1.98699E+01 7.37201E-01 4.87843E-03-1.66583E+00 1.83509E-13-1.93414E-13
 -1      3235 1.98513E+01 7.32558E-01-5.85217E-03-1.52005E+00 2.85063E-13-2.25216E-13
 -1      3236 1.94886E+01 8.50473E-01 5.23783E-03-1.40679E+00 1.62020E-13-4.50051E-13
 -1      3237 1.97769E+01 6.37768E-01 7.44475E-03-1.98279E+00 1.18981E-13-4.08652E-13
 -1      3238 1.97357E+01 7.05237E-01-5.80150E-03-1.83094E+00 1.06436E-13-1.72958E-13
 -1      3239 1.92523E+01 8.59974E-01 5.20835E-03-1.70049E+00 2.09411E-13-3.23942E-13
 -1      3240 1.97542E+01 3.03620E-01 1.28741E-02-2.32379E+00-3.44434E-14-4.12502E-13
 -1      3241 1.96435E+01 5.05291E-01-3.78511E-03-2.17854E+00 6.89368E-14-4.03538E-13
 -1      3242 1.89841E+01 7.14798E-01 3.01044E-03-2.05088E+00 1.35775E-13-1.80791E-13
 -1      3243 1.99471E+01-4.30870E-01 2.14032E-02-2.67088E+00-8.07002E-14-3.92288E-13
 -1      3244 1.96820E+01-5.12166E-03 3.89463E-03-2.55856E+00-5.81032E-14-3.14836E-13
 -1      3245 1.87508E+01 2.83217E-01-2.73756E-03-2.48528E+00-9.62915E-14-2.54972E-13
 -1      3246 2.05498E+01-1.78860E+00 5.99732E-03-2.96774E+00-2.11459E-13-3.47348E-13
 -1      3247 2.00720E+01-9.89692E-01 3.11874E-02-2.92898E+00-1.34799E-13-3.19836E-13
 -1      3248 1.87394E+01-6.24880E-01-2.27250E-03-3.04164E+00-1.78709E-13-2.08196E-13
 -1      3249 2.40207E+01-2.06679E+00-3.99318E-02-1.09559E+00 1.73094E-13-2.15083E-13
 -1      3250 2.43839E+01-2.31496E+00 2.25829E-02-1.79657E+00 2.88749E-13-1.34031E-13
 -1      3251 2.45476E+01-3.02708E+00-1.60677E-02-2.84433E+00 4.26830E-13-7.17221E-15
 -1      3252 2.42065E+01-3.15573E+00 1.18432E-02-3.79014E+00 3.51100E-13 1.41425E-13
 -1      3253 2.52441E+01-2.93958E+00 2.27873E-02-1.87721E+00 3.07407E-13-8.99419E-14
 -1      3254 2.83016E+01-4.79841E+00 2.87911E-02 1.66510E+00-3.59143E-13-6.40099E-13
 -1      3255 2.02808E+01 1.15552E+00 1.19860E-03-6.64884E-01-3.01781E-13-2.77250E-13
 -1      3256 2.02534E+01 9.10105E-01-5.36836E-03-4.78114E-01-2.72926E-13-2.80966E-13
 -1      3257 2.02826E+01 9.37598E-01-2.47747E-03-4.23881E-01-2.52054E-13-3.07343E-13
 -1      3258 2.09200E+01-3.33304E+00 6.51172E-02-6.40684E+00 1.40346E-13 2.25153E-13
 -1      3259 1.83729E+01-2.70537E+00 7.10688E-02-6.50276E+00-6.89310E-14 6.84668E-13
 -1      3260 2.28510E+01-3.63330E+00 5.24175E-02-5.47270E+00 1.38067E-13 2.66297E-13
 -1      3261 2.00441E+01 2.16072E+00-4.28174E-03 2.92536E-01 2.45990E-14-4.76963E-13
 -1      3262 2.00309E+01 2.19966E+00-3.26980E-03 1.70908E-01-2.00466E-14-4.86839E-13
 -1      3263 1.58849E+01-2.88672E+00 1.48826E-01-4.78338E+00-2.19137E-13-8.52096E-14
 -1      3264 1.86177E+01-4.01604E+00 2.36914E-02-4.68239E+00-1.65160E-13 7.16927E-14
 -1      3265 2.44361E+01-4.81276E+00 7.91721E-02-2.27782E+00-1.68206E-13-2.08289E-13
 -1      3266 2.01241E+01 2.93459E-01-1.99847E-03 4.38025E-02 1.69355E-13-2.10979E-13
 -1      3267 2.01694E+01 3.94600E-01 4.36428E-03 1.34225E-01 1.85347E-13-2.14827E-13
 -1      3268 2.01894E+01 3.15646E-01-1.49845E-03 3.59639E-02 1.49278E-13-2.02122E-13
 -1      3269 2.83968E+01-3.20944E+00 6.28268E-02-1.00922E+00 8.78256E-14-9.15934E-16
 -1      3270 2.82631E+01-1.39207E+00-1.71728E-01 5.35868E-01-2.05967E-13-2.87034E-13
 -1      3271 2.60255E+01-4.45066E+00-1.57077E-01 1.04703E+00-7.12139E-14 2.90068E-13
 -1      3272 2.47826E+01-4.84787E+00 1.08930E-01 2.73395E+00 3.74041E-14 8.46337E-14
 -1      3273 1.22334E+01-1.90708E+00 6.20102E-02 5.19417E+00 1.54154E-13-1.20917E-13
 -1      3274 1.05567E+01-8.75629E-01 1.03157E-01 3.80067E+00 1.62058E-13-1.01752E-13
 -1      3275 1.99786E+01-5.48205E-02 3.02487E-04-1.57752E-01 1.01842E-13-1.28707E-13
 -1      3276 1.99756E+01-5.25357E-02 1.30184E-04-1.66418E-01 7.85685E-14-1.35990E-13
 -1      3277 2.00316E+01-5.68031E-02-5.61406E-04-1.67610E-01 9.00457E-14-1.28157E-13
 -1      3278 2.00199E+01-6.34274E-02-4.17449E-04-1.52616E-01 1.02900E-13-1.17800E-13
 -1      3279 2.71651E+01-1.10049E+00-1.57080E-01-2.01102E+00-1.60066E-13 6.17430E-13
 -1      3280 2.72955E+01-2.74223E+00 7.75805E-02-8.28346E-01-1.99316E-13 4.94257E-13
 -1      3281 1.61506E+01-1.87690E+00-3.00346E-02 6.16723E+00-2.91524E-13-3.41296E-13
 -1      3282 1.72163E+01-3.83376E+00-3.09609E-02 5.81675E+00 1.37362E-13-3.63640E-13
 -1      3283 1.45232E+01-2.70983E+00 1.28899E-01 5.67857E+00 1.43580E-13-2.01075E-13
 -1      3284 1.47400E+01-1.84005E+00 1.03499E-01 4.83759E+00-1.47660E-14-2.40016E-13
 -1      3285 2.48528E+01 4.70308E+00-1.32877E-01-7.09822E-01-1.68032E-13-2.12167E-13
 -1      3286 2.49170E+01 4.09388E+00-5.00587E-02-1.77832E+00 3.86080E-14-1.92728E-15
 -1      3287 2.61491E+01 2.71263E+00-9.96391E-02-2.70565E+00 2.07619E-13-9.11181E-14
 -1      3288 2.70207E+01 1.02584E+00 2.27314E-04-2.77684E+00 1.21014E-13 1.92096E-13
 -1      3289 2.58771E+01-5.28913E+00 1.04222E-01-4.81237E+00 3.16927E-13 4.70832E-13
 -1      3290 2.72981E+01-4.76697E+00-1.20025E-01-3.11348E+00 1.88093E-13 4.39246E-13
 -1      3291 2.47157E+01-4.85275E+00 8.07944E-02-5.13165E+00 1.91840E-13 5.17496E-13
 -1      3292 2.66834E+01 4.45560E+00-8.40874E-02 1.23262E+00-5.66158E-13-5.51524E-13
 -1      3293 2.59219E+01 5.25871E+00-1.03853E-01 2.34343E-01-4.43826E-13-5.01280E-13
 -1      3294 2.79588E+01 1.00357E+00 1.91465E-02 1.59632E+00-4.11907E-13-4.86465E-13
 -1      3295 2.70232E+01 2.80928E+00-1.57970E-01 1.55615E+00-4.85556E-13-4.78013E-13
 -1      3296 2.02263E+01 1.58973E+00-6.74803E-03-8.51954E-01-3.11350E-13-3.29811E-13
 -1      3297 2.02563E+01 1.36620E+00 1.31430E-04-7.46103E-01-3.08679E-13-2.97409E-13
 -1      3298 2.01728E+01 1.83457E+00 2.56500E-03-7.88194E-01-3.04392E-13-3.84800E-13
 -1      3299 2.02898E+01 9.89786E-01-7.75330E-04 6.89608E-01 2.79588E-13-2.88304E-13
 -1      3300 2.02686E+01 1.31141E+00 4.57373E-03 7.72913E-01 2.75030E-13-3.26093E-13
 -1      3301 2.02830E+01 1.13091E+00 5.34596E-03 5.96904E-01 2.25030E-13-3.18707E-13
 -1      3302 2.02321E+01 7.75776E-01-3.85890E-03 4.82462E-01 2.47537E-13-2.71411E-13
 -1      3303 2.23590E+01-5.15110E+00-9.14977E-02 4.29181E+00 1.26898E-13 4.70422E-14
 -1      3304 2.00995E+01-4.44416E+00 1.25336E-01 5.22435E+00 1.83353E-13-2.28734E-13
 -1      3305 2.02582E+01-2.95566E+00 1.33089E-01 5.82946E+00-5.19911E-13-3.36862E-13
 -1      3306 2.59666E+01-5.18501E+00 3.44686E-04 3.45837E+00-4.08291E-13-4.68695E-13
 -1      3307 2.26725E+01-4.75587E+00 5.85183E-05-3.20676E+00-2.17174E-13-2.70534E-13
 -1      3308 2.28402E+01-3.87409E+00-6.57588E-03-2.63839E+00-1.64674E-13-2.06980E-13
 -1      3309 2.19296E+01-2.75538E+00 8.46004E-02-2.90350E+00-2.44096E-13-3.76203E-13
 -1      3310 2.07411E+01-4.15284E+00 1.29423E-01-4.02041E+00-2.25101E-13-1.57933E-13
 -1      3311 2.44770E+01-4.88000E+00 2.72857E-02 4.44312E+00-4.77667E-13-5.23852E-13
 -1      3312 2.00237E+01 2.21888E+00-3.55351E-03 6.57952E-02-3.84353E-14-4.80617E-13
 -1      3313 2.00241E+01 2.22192E+00-2.61494E-03-5.71892E-02-7.63473E-14-4.68019E-13
 -1      3314 2.01377E+01 1.92240E+00 4.93708E-03 1.01243E-01-3.60445E-14-4.45585E-13
 -1      3315 1.99660E+01-2.36285E+00-5.12542E-04-3.37964E+00-2.18516E-13-1.39163E-13
 -1      3316 2.00853E+01 2.08110E+00-4.70891E-04-6.03807E-01-2.25734E-13-4.26000E-13
 -1      3317 2.01172E+01 1.95542E+00-6.18600E-03-7.02717E-01-2.73023E-13-4.03940E-13
 -1      3318 2.01876E+01 1.73090E+00 1.90238E-03-6.47448E-01-2.62631E-13-3.89233E-13
 -1      3319 1.90717E+01-3.58189E+00 7.43483E-02 4.91053E+00 2.61804E-14-2.26257E-13
 -1      3320 2.70978E+01-4.90263E-01-2.73762E-02 9.69471E-01-3.01297E-13-2.89692E-13
 -1      3321 2.62364E+01-2.83795E-01-1.49522E-02-2.36596E+00 6.94757E-14 2.14641E-13
 -1      3322 1.19789E+01 9.90984E-01 1.85319E-01 2.22187E+00-2.36618E-13-1.19349E-13
 -1      3323 2.60799E+01-3.34613E+00 1.80711E-02-9.48061E-02-2.50362E-13 2.01106E-13
 -1      3324 2.00717E+01-1.98003E-03-9.59374E-04-1.68803E-01 2.50683E-14-1.48613E-13
 -1      3325 2.00082E+01 2.50551E-03-1.21772E-04-1.74348E-01 3.46666E-15-1.31655E-13
 -1      3326 2.00187E+01 2.80378E-02 1.58604E-03-1.62969E-01 1.90882E-14-1.73526E-13
 -1      3327 1.96068E+01-3.32375E+00 1.17950E-02-3.99718E+00-1.46556E-13-1.20445E-13
 -1      3328 1.51023E+01-2.03139E+00 4.92148E-02-4.18748E+00-2.56503E-13-1.23561E-13
 -1      3329 2.02568E+01 1.38658E+00 3.39707E-03-6.49083E-01-2.75269E-13-3.30802E-13
 -1      3330 2.02504E+01 1.46230E+00 6.23272E-03 5.86066E-01 1.90669E-13-3.62641E-13
 -1      3331 2.01583E+01 1.80123E+00-6.97664E-03 6.85333E-01 1.89129E-13-4.16279E-13
 -1      3332 2.01230E+01 1.93087E+00-2.50153E-03 5.89828E-01 1.49276E-13-4.25345E-13
 -1      3333 2.00343E+01 5.90737E-02-5.09374E-04-1.43794E-01 3.63671E-14-1.59543E-13
 -1      3334 2.00543E+01 1.00662E-01 2.50791E-03-1.15720E-01 7.07671E-14-1.66659E-13
 -1      3335 2.01029E+01 6.01348E-02-1.19303E-03-1.39951E-01 2.59012E-14-1.78700E-13
 -1      3336 1.43750E+01-5.67457E-01 2.59816E-01-5.70949E+00-1.10113E-13 7.46236E-13
 -1      3337 1.20960E+01-1.50558E-02 1.01630E-01-3.88774E+00-3.38687E-14 3.97543E-13
 -1      3338 2.01426E+01 1.60136E-01-1.38326E-03-7.67442E-02 9.36045E-14-1.65054E-13
 -1      3339 2.00646E+01 2.10527E+00-3.06017E-03 3.91119E-01 5.64729E-14-4.54176E-13
 -1      3340 2.01602E+01 1.84757E+00 5.23003E-03 2.90901E-01 3.04065E-14-4.36562E-13
 -1      3341 2.00899E+01 2.02499E+00-5.40828E-03 5.04422E-01 1.15244E-13-4.35222E-13
 -1      3342 2.35627E+01-1.43181E+00-5.67651E-03-9.75870E-02 3.95734E-14-3.16658E-13
 -1      3343 2.38596E+01-1.63433E+00 2.24465E-02-5.87509E-01 1.38768E-13-2.14330E-13
 -1      3344 2.47532E+01-1.96261E+00 2.16148E-02-4.88147E-01-3.98119E-16-3.06852E-13
 -1      3345 2.39647E+01-1.27925E+00 1.00074E-02 2.28935E-01-1.03825E-13-3.46357E-13
 -1      3346 2.33899E+01-4.52028E+00 3.72615E-02 3.05059E+00-1.56333E-14 2.46912E-14
 -1      3347 1.06169E+01-2.56516E-01 1.32443E-01 2.82574E+00 1.72610E-13-7.54119E-14
 -1      3348 1.08731E+01 2.41214E-01 4.50444E-02 1.65968E+00 1.08011E-13-9.00183E-14
 -1      3349 1.23669E+01-3.94023E-01 1.42740E-02 3.32258E+00 1.03385E-13-2.79811E-13
 -1      3350 2.31609E+01-4.26664E+00-1.04927E-02 5.21621E+00-5.97675E-13-4.61305E-13
 -1      3351 1.62112E+01-2.23479E+00 4.03673E-02-6.71830E+00-8.53623E-14 1.07864E-12
 -1      3352 2.71982E+01-3.70655E+00-1.20246E-02-1.92523E+00 1.16067E-13 6.24154E-14
 -1      3353 1.08032E+01 8.41885E-01 6.47195E-02-8.22846E-02-2.97024E-13 4.16694E-13
 -1      3354 2.00490E+01 2.16560E+00-3.96170E-03-5.01938E-01-2.04138E-13-4.34413E-13
 -1      3355 2.01220E+01 1.95008E+00 1.03693E-03-4.78057E-01-1.99765E-13-4.12026E-13
 -1      3356 2.00249E+01 2.23923E+00-2.21951E-03-3.85101E-01-1.72609E-13-4.13045E-13
 -1      3357 2.01763E+01 4.88753E-01-2.07570E-03 2.20798E-01 2.08023E-13-2.45387E-13
 -1      3358 2.02326E+01 6.34844E-01 4.13892E-03 3.62090E-01 2.18274E-13-2.63150E-13
 -1      3359 2.02562E+01 7.76758E-01-4.82213E-03 4.19304E-01 2.30220E-13-2.83609E-13
 -1      3360 2.02288E+01 5.24419E-01-1.21639E-03 1.99573E-01 1.71280E-13-2.83246E-13
 -1      3361 1.02985E+01-4.86446E-02 1.80039E-01-1.72458E+00-5.46785E-15 2.48274E-14
 -1      3362 1.19688E+01-3.67622E-01 3.36717E-02-2.59389E+00-1.95127E-13 1.54113E-14
 -1      3363 1.05439E+01 2.43622E-01 7.01698E-02-5.52500E-01 7.84477E-14 3.46390E-14
 -1      3364 2.57956E+01 3.00363E+00-2.83601E-02 1.35295E+00-4.74246E-13-5.08007E-13
 -1      3365 1.10547E+01 8.24661E-01 2.38286E-01-2.15005E+00-1.12792E-13 3.08684E-13
 -1      3366 1.59825E+01-1.89605E+00-3.04060E-02 4.56269E+00-9.80622E-14-3.21430E-13
 -1      3367 1.44480E+01-8.92365E-01 1.13334E-01 4.04838E+00-1.16678E-14-2.89817E-13
 -1      3368 2.02993E+01 4.38843E-01 2.53957E-03-7.19646E-02-1.38287E-13-2.29885E-13
 -1      3369 2.02745E+01 3.26038E-01-2.17749E-03-5.33894E-03-1.30778E-13-1.91792E-13
 -1      3370 2.02664E+01 2.36378E-01 2.15449E-03 3.96450E-02-1.55526E-13-1.41524E-13
 -1      3371 2.02418E+01 1.60900E-01-1.28653E-03 8.02854E-02-1.64284E-13-1.49436E-13
 -1      3372 2.03148E+01 3.27709E-01-6.52022E-05 2.40224E-03-1.14719E-13-1.90234E-13
 -1      3373 2.02269E+01 1.01963E-01 1.61891E-03 1.06221E-01-1.56343E-13-1.38510E-13
 -1      3374 2.02053E+01 5.31457E-02-6.56211E-04 1.27904E-01-9.28429E-14-1.24515E-13
 -1      3375 2.02831E+01 1.58199E-01-4.31439E-04 7.65027E-02-1.42440E-13-1.40441E-13
 -1      3376 2.01878E+01 1.59432E-02 1.13335E-03 1.40082E-01-4.75222E-14-1.34104E-13
 -1      3377 2.01700E+01-1.40000E-02-2.24774E-04 1.48739E-01-2.25955E-14-1.67198E-13
 -1      3378 2.02452E+01 4.73627E-02-5.89903E-04 1.17685E-01-9.19941E-14-9.99388E-14
 -1      3379 2.01522E+01-3.59318E-02 7.36140E-04 1.51601E-01-1.09843E-15-2.02527E-13
 -1      3380 2.01380E+01-5.26329E-02 5.67836E-05 1.51854E-01-1.79791E-14-1.74243E-13
 -1      3381 2.02068E+01-2.14678E-02-6.25869E-04 1.35430E-01-3.11846E-14-2.02000E-13
 -1      3382 2.01214E+01-6.39325E-02 4.33032E-04 1.48905E-01-9.28928E-15-1.75035E-13
 -1      3383 2.01104E+01-7.14588E-02 2.30355E-04 1.44202E-01 1.56389E-14-1.63818E-13
 -1      3384 2.01707E+01-6.05816E-02-6.01007E-04 1.37641E-01 7.65332E-15-2.68329E-13
 -1      3385 2.00955E+01-7.54505E-02 2.11396E-04 1.38069E-01-9.45426E-15-1.55666E-13
 -1      3386 2.00873E+01-7.67098E-02 3.28576E-04 1.30905E-01 1.21215E-14-1.53900E-13
 -1      3387 2.01385E+01-7.89457E-02-5.41800E-04 1.30468E-01-7.74482E-15-2.15499E-13
 -1      3388 2.00743E+01-7.57402E-02 5.26224E-05 1.23484E-01 7.42170E-17-2.13197E-13
 -1      3389 2.00683E+01-7.27614E-02 3.77746E-04 1.15622E-01-1.00036E-14-2.38355E-13
 -1      3390 2.01107E+01-8.30505E-02-4.69486E-04 1.18471E-01-2.05553E-14-2.72697E-13
 -1      3391 2.00572E+01-6.84322E-02-6.17641E-05 1.08249E-01-1.02463E-14-2.64049E-13
 -1      3392 2.00530E+01-6.25631E-02 3.98662E-04 1.00929E-01-1.82976E-14-2.94616E-13
 -1      3393 2.00874E+01-7.74414E-02-3.90357E-04 1.04925E-01-2.64108E-14-3.32120E-13
 -1      3394 2.00437E+01-5.59025E-02-1.47394E-04 9.45494E-02-2.27565E-14-2.85980E-13
 -1      3395 2.00408E+01-4.79734E-02 4.06322E-04 8.86570E-02-3.27431E-14-2.60751E-13
 -1      3396 2.00679E+01-6.51740E-02-3.11821E-04 9.21523E-02 2.38738E-14-3.38083E-13
 -1      3397 2.00328E+01-3.95809E-02-2.17316E-04 8.39658E-02-4.32327E-14-2.36903E-13
 -1      3398 2.00310E+01-3.00363E-02 4.10531E-04 8.01654E-02-5.63115E-14-1.80672E-13
 -1      3399 2.00517E+01-4.81393E-02-2.34348E-04 8.18341E-02-2.58545E-14-2.57145E-13
 -1      3400 2.00239E+01-2.01957E-02-2.82174E-04 7.77072E-02-1.01306E-13-1.54823E-13
 -1      3401 2.00228E+01-9.19963E-03 4.18527E-04 7.65390E-02-1.32952E-13-1.39437E-13
 -1      3402 2.00379E+01-2.73761E-02-1.59185E-04 7.52412E-02-4.73194E-14-2.52035E-13
 -1      3403 2.00161E+01 2.03184E-03-3.50436E-04 7.67874E-02-1.04871E-13-1.22479E-13
 -1      3404 2.00155E+01 1.45128E-02 4.36109E-04 7.87417E-02-4.40602E-14-1.22550E-13
 -1      3405 2.00255E+01-3.29068E-03-8.37845E-05 7.34135E-02-1.05152E-13-1.58828E-13
 -1      3406 2.00087E+01 2.72268E-02-4.28297E-04 8.21653E-02-5.04808E-14-9.63247E-14
 -1      3407 2.00084E+01 4.13380E-02 4.67246E-04 8.77368E-02-6.33376E-14-1.09650E-13
 -1      3408 2.00136E+01 2.41468E-02-7.13874E-06 7.73030E-02-2.51193E-14-1.54711E-13
 -1      3409 2.00008E+01 5.56865E-02-5.19618E-04 9.48439E-02-1.02631E-13-1.02747E-13
 -1      3410 2.00005E+01 7.15915E-02 5.14282E-04 1.04559E-01-7.98235E-14-5.12638E-14
 -1      3411 2.00011E+01 5.52215E-02 7.20403E-05 8.78903E-02-4.03150E-14-3.69450E-14
 -1      3412 1.99916E+01 8.76908E-02-6.25818E-04 1.15922E-01-7.23737E-14-3.04248E-14
 -1      3413 1.99912E+01 1.05464E-01 5.79142E-04 1.30346E-01-1.95645E-14-3.56352E-14
 -1      3414 1.99868E+01 9.02636E-02 1.53778E-04 1.06252E-01-4.87430E-14 3.26028E-14
 -1      3415 1.99804E+01 1.23278E-01-7.44764E-04 1.46610E-01 8.08442E-15-4.84739E-14
 -1      3416 1.99799E+01 1.42767E-01 6.63666E-04 1.66325E-01 6.70711E-14-1.27251E-13
 -1      3417 1.99696E+01 1.29413E-01 2.35409E-04 1.33598E-01-3.30156E-14 2.49277E-14
 -1      3418 1.99668E+01 1.61953E-01-8.69330E-04 1.88198E-01 1.15408E-13-7.23150E-14
 -1      3419 1.99661E+01 1.82601E-01 7.70146E-04 2.13760E-01 9.29204E-14-1.56577E-14
 -1      3420 1.99484E+01 1.72324E-01 3.09835E-04 1.71279E-01 7.90872E-14 6.25444E-14
 -1      3421 1.99504E+01 2.02307E-01-9.85342E-04 2.41984E-01 3.44084E-14-1.18012E-13
 -1      3422 1.99500E+01 2.22917E-01 9.02173E-04 2.73836E-01-3.33559E-14-1.09709E-13
 -1      3423 1.99226E+01 2.17779E-01 3.62842E-04 2.20761E-01 5.85430E-14-1.72375E-14
 -1      3424 1.99318E+01 2.41523E-01-1.06862E-03 3.09128E-01-7.12192E-14-2.71180E-14
 -1      3425 1.99325E+01 2.59954E-01 1.06567E-03 3.47476E-01-5.83661E-14 2.29007E-14
 -1      3426 1.98919E+01 2.63187E-01 3.69360E-04 2.83557E-01-2.19853E-14-1.03262E-13
 -1      3427 1.99128E+01 2.74742E-01-1.08083E-03 3.90439E-01-6.96438E-14-1.90631E-14
 -1      3428 1.99162E+01 2.87548E-01 1.26971E-03 4.35071E-01-5.39723E-14-7.34857E-14
 -1      3429 1.98573E+01 3.03941E-01 2.88389E-04 3.61117E-01-8.60040E-14-2.50680E-14
 -1      3430 1.98972E+01 2.94323E-01-9.63665E-04 4.86054E-01-1.50862E-14-1.18810E-13
 -1      3431 1.99059E+01 2.96341E-01 1.52598E-03 5.36091E-01 2.67528E-14-8.09537E-14
 -1      3432 1.98214E+01 3.32645E-01 5.62758E-05 4.54650E-01-6.86798E-14-2.92459E-14
 -1      3433 1.98916E+01 2.89034E-01-6.30571E-04 5.94964E-01-3.90980E-14-9.90019E-14
 -1      3434 1.99103E+01 2.72983E-01 1.84387E-03 6.48504E-01-3.43145E-14 3.77235E-14
 -1      3435 1.97897E+01 3.38232E-01-4.21853E-04 5.64841E-01 1.00715E-14-1.36288E-13
 -1      3436 1.99074E+01 2.43338E-01 4.49847E-05 7.14294E-01-8.46741E-15 4.40376E-14
 -1      3437 1.99432E+01 1.99582E-01 2.21585E-03 7.67895E-01 5.77962E-15 7.83212E-14
 -1      3438 1.97721E+01 3.05083E-01-1.28214E-03 6.91379E-01 4.42375E-14-1.18739E-13
 -1      3439 1.99626E+01 1.37137E-01 1.24645E-03 8.38120E-01-2.88364E-14 6.08151E-14
 -1      3440 2.00257E+01 5.38658E-02 2.58781E-03 8.86006E-01-2.77253E-14 9.63784E-14
 -1      3441 1.97848E+01 2.12406E-01-2.70988E-03 8.32076E-01 1.62048E-16-8.11183E-14
 -1      3442 2.00836E+01-5.33636E-02 3.24272E-03 9.55466E-01-1.07182E-13 5.41414E-14
 -1      3443 2.01875E+01-1.88979E-01 2.81043E-03 9.88275E-01-9.56333E-14 4.25429E-14
 -1      3444 1.98528E+01 3.44081E-02-4.92938E-03 9.81197E-01-6.74765E-14-6.13051E-15
 -1      3445 2.03074E+01-3.52428E-01 6.41882E-03 1.04684E+00-1.79577E-13-3.95420E-14
 -1      3446 2.04682E+01-5.51176E-01 2.51331E-03 1.04966E+00-1.51647E-13-1.68938E-13
 -1      3447 2.00128E+01-2.57732E-01-8.14833E-03 1.12623E+00-2.13849E-13-1.39692E-13
 -1      3448 2.06816E+01-7.76846E-01 1.12017E-02 1.07793E+00 1.03952E-14-1.55151E-13
 -1      3449 2.09136E+01-1.04031E+00 7.24005E-04 1.02788E+00 3.54602E-14-1.07829E-13
 -1      3450 2.03160E+01-6.90210E-01-1.23798E-02 1.24181E+00-7.64088E-14-1.75356E-13
 -1      3451 2.12556E+01-1.31719E+00 1.69473E-02 9.89405E-01 1.96559E-14-4.82368E-14
 -1      3452 2.15651E+01-1.61955E+00-2.71107E-03 8.54484E-01-5.12741E-15 1.24630E-14
 -1      3453 2.08285E+01-1.27026E+00-1.69216E-02 1.27572E+00 5.42792E-14-1.72017E-13
 -1      3454 2.20546E+01-1.90412E+00 2.07994E-02 7.01821E-01-2.12491E-14 1.07582E-13
 -1      3455 2.24239E+01-2.17915E+00-1.12691E-02 4.48610E-01-6.85087E-14 1.88434E-13
 -1      3456 2.16019E+01-1.94657E+00-2.30905E-02 1.13624E+00 2.57216E-14 4.56146E-14
 -1      3457 2.30640E+01-2.35327E+00 2.70301E-02 1.03542E-01-1.35453E-13 3.08691E-13
 -1      3458 2.34181E+01-2.45970E+00-2.04467E-02-2.75950E-01-1.82641E-13 3.03970E-13
 -1      3459 2.26725E+01-2.61367E+00-3.81962E-02 7.11889E-01-7.25500E-14 2.40602E-13
 -1      3460 2.41302E+01-2.33421E+00 2.67078E-02-8.57399E-01-2.55572E-13 3.18998E-13
 -1      3461 2.43639E+01-2.02969E+00-1.30647E-02-1.30537E+00-1.55490E-13 1.94900E-13
 -1      3462 2.39469E+01-2.91570E+00-5.86233E-02-1.21633E-01-2.41504E-13 3.36677E-13
 -1      3463 2.47473E+01 7.25948E-01-9.45124E-02-2.68103E+00 1.82306E-13-1.80382E-13
 -1      3464 2.46276E+01 1.92478E+00-1.76462E-02-2.51044E+00 1.25060E-13-9.50628E-15
 -1      3465 2.42040E+01 4.01605E+00-5.35815E-02-2.27367E-01-2.89602E-13-3.65194E-14
 -1      3466 2.42441E+01 3.66085E+00-1.11429E-01 6.40740E-01-4.80629E-13-2.26359E-13
 -1      3467 2.48139E+01 2.57140E+00-4.26766E-02 1.15991E+00-4.40967E-13-3.54921E-13
 -1      3468 2.49724E+01 1.54197E+00-4.17001E-02 1.51318E+00-3.41477E-13-3.78145E-13
 -1      3469 2.49749E+01 4.41398E-01-8.91555E-02 1.38333E+00-3.25035E-13-3.75420E-13
 -1      3470 2.00345E+01-5.94855E-02 4.00581E-04-1.08309E-01 4.87538E-14 1.68941E-14
 -1      3471 2.00360E+01-6.44641E-02-8.99839E-05-1.16434E-01 2.31262E-14-4.86596E-14
 -1      3472 2.00450E+01-6.79737E-02 3.78345E-04-1.24607E-01 3.51511E-14-4.78344E-14
 -1      3473 2.00480E+01-7.02470E-02 2.87645E-05-1.33208E-01 7.08023E-14-4.74578E-14
 -1      3474 2.00685E+01-7.37327E-02-3.71023E-04-1.15648E-01 2.58988E-14-2.10008E-14
 -1      3475 2.00215E+01-3.11880E-02 4.21544E-04-8.42943E-02 3.30434E-14 4.23446E-14
 -1      3476 2.00209E+01-3.96066E-02-2.38410E-04-8.88811E-02 3.52821E-14 2.57807E-14
 -1      3477 2.00178E+01-1.26823E-02 4.38253E-04-7.91962E-02-3.07892E-14 9.54530E-14
 -1      3478 2.00164E+01-2.25188E-02-2.96325E-04-8.10866E-02 5.39181E-14 8.34448E-14
 -1      3479 2.00314E+01-2.97757E-02-1.63918E-04-8.09200E-02-2.12459E-15 1.30093E-14
 -1      3480 2.00151E+01 8.78036E-03 4.66292E-04-8.01438E-02-7.53947E-14-1.41307E-14
 -1      3481 2.00132E+01-2.61318E-03-3.58514E-04-7.87962E-02-7.17385E-14 5.62693E-14
 -1      3482 2.00232E+01-7.94589E-03-1.00878E-04-7.77139E-02 5.99886E-15 1.66078E-14
 -1      3483 2.00127E+01 3.37721E-02 5.08903E-04-8.82086E-02-2.18865E-14-1.09421E-13
 -1      3484 2.00104E+01 2.04800E-02-4.34859E-04-8.30526E-02-4.35339E-14-6.88420E-14
 -1      3485 2.00156E+01 1.74450E-02-3.24222E-05-8.05160E-02-2.27035E-14-1.40443E-13
 -1      3486 2.00100E+01 6.32169E-02 5.66740E-04-1.04588E-01-6.83463E-14-1.49242E-14
 -1      3487 2.00074E+01 4.75127E-02-5.35049E-04-9.49714E-02-5.39862E-15-3.67594E-14
 -1      3488 2.00077E+01 4.71080E-02 4.72956E-05-9.03687E-02-7.67740E-14-1.10216E-13
 -1      3489 2.00057E+01 9.83394E-02 6.38393E-04-1.30675E-01-1.14549E-13 1.82483E-14
 -1      3490 2.00032E+01 7.95614E-02-6.68329E-04-1.15830E-01-1.01459E-13-2.54790E-14
 -1      3491 1.99980E+01 8.21353E-02 1.48263E-04-1.08419E-01-9.02047E-14-8.85534E-14
 -1      3492 1.99986E+01 1.40628E-01 7.19390E-04-1.68089E-01-8.39157E-14-3.85713E-14
 -1      3493 1.99966E+01 1.17985E-01-8.44847E-04-1.47115E-01-6.04903E-14-5.99301E-14
 -1      3494 1.99849E+01 1.23933E-01 2.83601E-04-1.35959E-01-6.38451E-14-1.49545E-13
 -1      3495 1.99866E+01 1.91790E-01 8.01507E-04-2.18671E-01-9.77850E-14-5.30987E-14
 -1      3496 1.99857E+01 1.64387E-01-1.07610E-03-1.90538E-01-7.12657E-14-4.86850E-14
 -1      3497 1.99663E+01 1.74170E-01 4.70862E-04-1.74426E-01-8.04604E-14-1.10374E-13
 -1      3498 1.99669E+01 2.53674E-01 8.72018E-04-2.84440E-01-5.62342E-14-1.13461E-13
 -1      3499 1.99682E+01 2.20559E-01-1.37540E-03-2.48009E-01-1.16452E-13-7.23313E-14
 -1      3500 1.99392E+01 2.34712E-01 7.33569E-04-2.25361E-01-7.39748E-14-1.21164E-13
 -1      3501 1.99355E+01 3.28118E-01 9.13654E-04-3.67496E-01 8.42477E-14-1.25217E-13
 -1      3502 1.99406E+01 2.88370E-01-1.75843E-03-3.21569E-01 5.94946E-14-7.56938E-14
 -1      3503 1.98997E+01 3.07507E-01 1.10269E-03-2.90321E-01-3.23322E-14-1.90951E-13
 -1      3504 1.98867E+01 4.16633E-01 9.06607E-04-4.69869E-01 2.49001E-14-8.62805E-14
 -1      3505 1.98981E+01 3.69548E-01-2.24381E-03-4.13276E-01 7.33759E-14-3.05133E-14
 -1      3506 1.98424E+01 3.94374E-01 1.61775E-03-3.70737E-01 7.46390E-14-1.63280E-13
 -1      3507 1.98130E+01 5.19808E-01 8.35260E-04-5.93355E-01 4.76700E-14-7.93782E-14
 -1      3508 1.98339E+01 4.65242E-01-2.85415E-03-5.25051E-01 2.35764E-14-8.07460E-14
 -1      3509 1.97600E+01 4.96611E-01 2.32688E-03-4.67748E-01 4.60262E-14 1.63220E-14
 -1      3510 1.97045E+01 6.36195E-01 7.04384E-04-7.39396E-01 1.29319E-13-1.16203E-13
 -1      3511 1.97392E+01 5.75196E-01-3.61858E-03-6.58554E-01 1.01746E-13-1.32812E-13
 -1      3512 1.96429E+01 6.14284E-01 3.28424E-03-5.82068E-01 1.38723E-13-4.11942E-14
 -1      3513 1.95489E+01 7.60346E-01 5.72157E-04-9.09207E-01 2.70706E-13-2.24948E-13
 -1      3514 1.96025E+01 6.96246E-01-4.57896E-03-8.15202E-01 2.47420E-13-1.51200E-13
 -1      3515 1.94786E+01 7.44979E-01 4.54267E-03-7.14041E-01 1.75997E-13-2.23061E-13
 -1      3516 1.93326E+01 8.79491E-01 6.11603E-04-1.10456E+00 1.63222E-13-3.35667E-13
 -1      3517 1.94100E+01 8.19734E-01-5.80374E-03-9.96652E-01 2.46931E-13-2.12405E-13
 -1      3518 1.92515E+01 8.81723E-01 6.13802E-03-8.64214E-01 2.30815E-13-1.47068E-13
 -1      3519 1.90432E+01 9.68255E-01 1.21711E-03-1.32992E+00 6.71680E-14-3.46854E-13
 -1      3520 1.91465E+01 9.27249E-01-7.41194E-03-1.20628E+00 4.32996E-14-4.35233E-13
 -1      3521 1.89431E+01 1.00966E+00 8.06276E-03-1.03504E+00 1.33005E-13-2.31141E-13
 -1      3522 1.86753E+01 9.80610E-01 3.22834E-03-1.59716E+00 1.93163E-13-2.42795E-13
 -1      3523 1.87989E+01 9.84024E-01-9.59686E-03-1.45274E+00 1.38557E-13-2.48065E-13
 -1      3524 1.85326E+01 1.10106E+00 1.02348E-02-1.23482E+00 4.92076E-14-2.47974E-13
 -1      3525 1.82424E+01 8.37831E-01 8.23334E-03-1.93390E+00 3.79460E-14 2.98511E-15
 -1      3526 1.83630E+01 9.29232E-01-1.23665E-02-1.75690E+00 2.01291E-13-8.33980E-14
 -1      3527 1.79998E+01 1.10771E+00 1.25024E-02-1.48553E+00 9.77610E-14-8.51823E-14
 -1      3528 1.77942E+01 4.07554E-01 1.71431E-02-2.39517E+00-1.90416E-13-6.91257E-14
 -1      3529 1.78593E+01 6.60805E-01-1.48942E-02-2.16239E+00-8.89286E-14-7.40140E-14
 -1      3530 1.73307E+01 9.48435E-01 1.48012E-02-1.83682E+00 5.77441E-15 3.26163E-14
 -1      3531 1.74123E+01-5.58879E-01 1.27410E-02-3.08608E+00-2.44983E-13-1.30002E-13
 -1      3532 1.73542E+01 2.40758E-02-1.20531E-02-2.73230E+00-1.74811E-13-1.73117E-13
 -1      3533 1.65491E+01 4.80116E-01 2.14385E-02-2.37833E+00-1.85905E-13-5.78345E-14
 -1      3534 2.01991E+01 1.64984E+00 6.58978E-04-5.34244E-01-2.21804E-13-3.90665E-13
 -1      3535 2.02249E+01 1.51043E+00-4.24440E-03-6.00147E-01-2.59712E-13-3.71349E-13
 -1      3536 2.02709E+01 1.31775E+00 4.92726E-03-5.33868E-01-2.47633E-13-3.43836E-13
 -1      3537 2.43421E+01-4.28441E+00 1.97150E-02-4.70238E+00 2.69024E-13 3.20305E-13
 -1      3538 1.84785E+01-1.93637E+00 1.05863E-01-3.83906E+00-2.45168E-13-3.63112E-14
 -1      3539 1.59590E+01-1.58429E+00 2.97909E-02-3.84307E+00-2.70338E-13-8.25243E-14
 -1      3540 1.66890E+01-8.73793E-01-8.20204E-03-3.36329E+00-3.21819E-13-1.41390E-13
 -1      3541 1.54986E+01-3.86086E-02 8.58086E-02-2.91396E+00-2.92746E-13-1.25358E-13
 -1      3542 1.38010E+01-5.11489E-01 1.61620E-01-3.37903E+00-2.72650E-13-2.46223E-13
 -1      3543 2.01970E+01 1.60286E-01-1.30633E-03-8.13024E-02 7.27054E-14-1.74914E-13
 -1      3544 2.02239E+01 2.33298E-01 2.55472E-03-3.63975E-02 9.28395E-14-1.74000E-13
 -1      3545 2.54528E+01-2.52504E+00-7.22405E-02-1.12721E+00-3.26830E-13 3.52862E-13
 -1      3546 2.51545E+01-3.45607E+00 8.07853E-02 2.98888E-01-2.57122E-13 2.03258E-13
 -1      3547 2.53247E+01-6.46264E-01-2.63867E-03-2.23195E+00 3.92221E-14 2.29189E-14
 -1      3548 2.02346E+01 3.20340E-01-2.06170E-03 1.55088E-02 9.93491E-14-1.94020E-13
 -1      3549 2.02636E+01 4.29837E-01 2.62044E-03 8.93961E-02 1.12398E-13-2.22019E-13
 -1      3550 2.02812E+01 3.27761E-01-5.20071E-04 6.93658E-03 8.02690E-14-2.02639E-13
 -1      3551 2.02764E+01 1.06259E+00-3.41394E-03-3.96823E-01-2.29004E-13-3.32330E-13
 -1      3552 2.00109E+01 2.25943E+00-3.73105E-03-1.57039E-01-9.45893E-14-4.53493E-13
 -1      3553 2.00240E+01 2.22892E+00-2.78424E-03-2.79105E-01-1.45726E-13-4.33231E-13
 -1      3554 2.01006E+01 2.02662E+00 2.65892E-03-2.82394E-01-1.32447E-13-4.11623E-13
 -1      3555 2.01208E+01 1.97748E+00 4.65522E-03-8.85448E-02-8.20473E-14-4.33389E-13
 -1      3556 2.51152E+01 3.09145E+00-8.54311E-02-2.40203E+00 1.52725E-13-3.00758E-14
 -1      3557 2.00828E+01-3.68090E+00-7.50647E-02 4.22725E+00-6.34943E-14-9.87925E-14
 -1      3558 1.81133E+01-2.67014E+00 8.07212E-02 4.60887E+00-1.04841E-13-2.65494E-13
 -1      3559 2.37280E+01-4.34264E+00-1.14360E-01 2.08399E+00-1.51877E-13-3.62991E-15
 -1      3560 2.23360E+01-3.97657E+00 9.97624E-02 3.27883E+00-5.73296E-14-1.76816E-14
 -1      3561 2.58568E+01-1.05010E+00 3.09303E-02 7.40618E-01-2.32873E-13-4.56957E-13
 -1      3562 2.00995E+01-4.57858E-02 6.23479E-05-1.63416E-01 9.55125E-14-1.16032E-13
 -1      3563 2.01111E+01-2.94340E-02 8.03965E-04-1.63005E-01 1.00852E-13-1.18150E-13
 -1      3564 2.00269E+01-4.68990E-02 4.11559E-04-9.43850E-02 9.53007E-14-1.51171E-14
 -1      3565 2.00272E+01-5.38017E-02-1.74500E-04-1.01091E-01 1.15288E-13 2.08284E-14
 -1      3566 2.00533E+01-6.32890E-02-2.97356E-04-1.01139E-01 4.07571E-14 3.65715E-14
 -1      3567 2.00411E+01-4.83141E-02-2.28681E-04-8.91043E-02 4.47142E-14-2.15241E-14
 -1      3568 2.03188E+01 7.33438E-01 3.80008E-03-2.40720E-01-1.93622E-13-2.87093E-13
 -1      3569 2.02952E+01 5.69769E-01-3.78826E-03-1.40895E-01-1.67945E-13-2.71459E-13
 -1      3570 2.03314E+01 5.77291E-01 6.43597E-04-1.15442E-01-1.32905E-13-2.27870E-13
 -1      3571 2.51981E+01-1.62515E+00-1.80140E-02-1.85182E+00-1.07294E-13 1.43319E-13
 -1      3572 2.02617E+01 5.34698E-01-2.12905E-03 1.57943E-01 1.37937E-13-2.65144E-13
 -1      3573 2.02807E+01 6.52578E-01 5.29907E-05 2.53023E-01 1.72151E-13-2.84176E-13
 -1      3574 2.03011E+01 5.47803E-01 2.19120E-04 1.32156E-01 9.92821E-14-2.26704E-13
 -1      3575 1.76070E+01-1.86600E+00 4.69338E-02 3.99573E+00-1.88228E-13-2.75399E-13
 -1      3576 2.02998E+01 1.06253E+00 6.25781E-04-3.33678E-01-1.92740E-13-3.21664E-13
 -1      3577 2.01273E+01-8.21490E-03-2.17348E-04-1.59215E-01 2.51835E-14-1.67879E-13
 -1      3578 2.01434E+01 2.07696E-02 1.27717E-03-1.49617E-01-3.40536E-14-1.79068E-13
 -1      3579 2.01717E+01-1.48783E-02-7.07251E-04-1.48000E-01 2.06189E-14-2.05461E-13
 -1      3580 2.00876E+01-7.78318E-02-4.51902E-04-1.30759E-01 6.70313E-14-5.65485E-14
 -1      3581 2.00589E+01-7.06225E-02 3.27968E-04-1.41297E-01 1.00085E-13-9.88569E-14
 -1      3582 2.00640E+01-6.88995E-02 2.01989E-04-1.49059E-01 1.03661E-13-9.24303E-14
 -1      3583 2.01815E+01 1.03651E-01 1.87461E-03-1.11350E-01 5.76168E-14-1.66762E-13
 -1      3584 2.02462E+01 1.61463E-01-6.73803E-04-7.89206E-02 6.64938E-14-1.94948E-13
 -1      3585 2.01602E+01 5.65232E-02-6.56880E-04-1.35250E-01 8.11168E-15-1.89416E-13
 -1      3586 2.01724E+01 1.73950E+00-3.44412E-03-4.61865E-01-1.90093E-13-4.07990E-13
 -1      3587 2.02241E+01 1.54668E+00 1.15586E-03-4.21821E-01-1.89521E-13-3.88208E-13
 -1      3588 2.01503E+01 1.82677E+00-1.53322E-03-3.69974E-01-1.57827E-13-3.91081E-13
 -1      3589 2.02774E+01 1.14106E+00-5.06450E-03 4.93101E-01 1.95245E-13-3.32542E-13
 -1      3590 2.02658E+01 1.28616E+00-4.62167E-05 4.53380E-01 1.52172E-13-3.24353E-13
 -1      3591 1.30566E+01-9.54168E-02 1.78208E-02-2.48658E+00-1.47953E-13-3.19120E-14
 -1      3592 2.40440E+01-3.36871E+00 2.28263E-02 8.02512E-01-1.60837E-13 9.85375E-14
 -1      3593 2.02012E+01 1.69597E+00 5.73796E-03 4.59334E-01 1.18155E-13-3.96387E-13
 -1      3594 1.40383E+01-3.82677E-01 4.12724E-02 3.26025E+00 3.87815E-14-3.24039E-13
 -1      3595 2.00848E+01-5.69557E-02 4.51503E-04-1.60591E-01 1.00235E-13-8.51539E-14
 -1      3596 2.01391E+01-5.37503E-02-6.35336E-04-1.51346E-01 9.71397E-14-1.00871E-13
 -1      3597 2.00768E+01-6.46058E-02 2.30645E-04-1.55573E-01 8.87890E-14-1.03465E-13
 -1      3598 1.21867E+01 5.13945E-01-1.26023E-02 1.33189E+00 4.39581E-14-1.11317E-13
 -1      3599 1.12303E+01 6.20335E-01 1.25866E-01 5.50611E-01 1.21889E-13-6.61138E-14
 -1      3600 1.19322E+01 5.75545E-01 1.94700E-02-6.49352E-01 4.20415E-14 1.07726E-13
 -1      3601 2.12393E+01-3.29465E+00 5.37212E-02 3.25082E+00-1.32762E-13-6.77522E-14
 -1      3602 2.61608E+01-2.58991E+00-6.66746E-02-5.94963E-01 4.31174E-14-3.69095E-13
 -1      3603 2.47411E+01-1.34028E+00 1.12508E-02 2.75678E-01-1.13348E-13-4.75403E-13
 -1      3604 2.02020E+01 1.63929E+00-3.36053E-03 1.30492E-01-2.78760E-14-4.07326E-13
 -1      3605 2.01986E+01 1.65939E+00-2.40696E-03 3.99732E-02-5.61916E-14-4.33080E-13
 -1      3606 2.02215E+01 1.54808E+00-3.99972E-03 2.84956E-01 3.21962E-14-3.95361E-13
 -1      3607 2.02108E+01 1.60644E+00-2.01587E-03 2.01280E-01-7.91861E-15-4.13853E-13
 -1      3608 2.02849E+01 1.38530E+00 4.81740E-03 1.33355E-01-3.14047E-14-3.81795E-13
 -1      3609 2.66374E+01-3.28866E+00-2.01895E-02-1.52409E+00 2.04598E-13-9.02022E-14
 -1      3610 2.03337E+01 2.15793E-01 1.36891E-03 4.75706E-02-1.00977E-13-2.00427E-13
 -1      3611 2.03129E+01 1.40992E-01-1.03437E-03 7.67234E-02-1.27129E-13-1.73570E-13
 -1      3612 2.02977E+01 8.19536E-02 1.08201E-03 9.28734E-02-1.20959E-13-1.32641E-13
 -1      3613 2.02761E+01 3.36408E-02-5.17746E-04 1.08163E-01-8.88182E-14-1.61735E-13
 -1      3614 2.03393E+01 1.30622E-01-1.09303E-04 6.86927E-02-9.98920E-14-1.83539E-13
 -1      3615 2.02570E+01-3.34637E-03 8.02557E-04 1.14965E-01-6.27845E-14-1.59563E-13
 -1      3616 2.02367E+01-3.25111E-02-1.47003E-04 1.20621E-01-3.46087E-14-1.88412E-13
 -1      3617 2.03006E+01 2.39847E-02-3.66853E-04 9.39691E-02-8.26563E-14-1.72086E-13
 -1      3618 2.02163E+01-5.37021E-02 5.56247E-04 1.21160E-01 1.55765E-15-2.16619E-13
 -1      3619 2.01982E+01-6.92522E-02 9.98457E-05 1.20639E-01 2.04126E-14-2.21869E-13
 -1      3620 2.02584E+01-4.12063E-02-5.00411E-04 1.03588E-01-3.68727E-14-2.01695E-13
 -1      3621 2.01784E+01-7.93635E-02 3.61012E-04 1.17397E-01-7.93675E-15-1.83778E-13
 -1      3622 2.01628E+01-8.54224E-02 2.51320E-04 1.13307E-01-1.71037E-14-1.85660E-13
 -1      3623 2.02170E+01-7.66560E-02-5.41850E-04 1.03046E-01-9.35938E-15-2.01799E-13
 -1      3624 2.01445E+01-8.78643E-02 2.06881E-04 1.08137E-01-4.08136E-14-2.22875E-13
 -1      3625 2.01315E+01-8.74125E-02 3.31903E-04 1.02402E-01-2.79031E-14-2.56756E-13
 -1      3626 2.01785E+01-9.12429E-02-5.26857E-04 9.65585E-02-3.41655E-14-1.69324E-13
 -1      3627 2.01153E+01-8.46357E-02 8.53847E-05 9.66329E-02-2.03530E-14-3.07152E-13
 -1      3628 2.01045E+01-7.97344E-02 3.67619E-04 9.06103E-02-4.51155E-14-2.86910E-13
 -1      3629 2.01443E+01-9.14162E-02-4.71742E-04 8.72934E-02-5.86517E-14-2.54371E-13
 -1      3630 2.00903E+01-7.33483E-02-1.41115E-05 8.51887E-02-1.34230E-14-2.81245E-13
 -1      3631 2.00815E+01-6.53319E-02 3.77696E-04 7.98711E-02 5.50533E-14-2.63714E-13
 -1      3632 2.01144E+01-8.17070E-02-3.99696E-04 7.74810E-02 1.94413E-15-2.29295E-13
 -1      3633 2.00689E+01-5.63629E-02-9.85924E-05 7.54927E-02 3.66058E-14-2.46331E-13
 -1      3634 2.00618E+01-4.60231E-02 3.73780E-04 7.16034E-02-2.40048E-14-2.14148E-13
 -1      3635 2.00885E+01-6.50395E-02-3.15708E-04 6.87857E-02 4.92526E-14-2.40003E-13
 -1      3636 2.00504E+01-3.50225E-02-1.78648E-04 6.88005E-02-7.24284E-14-1.87646E-13
 -1      3637 2.00443E+01-2.27483E-02 3.63631E-04 6.69129E-02-1.01667E-13-2.09617E-13
 -1      3638 2.00658E+01-4.31696E-02-2.22095E-04 6.24328E-02-4.29525E-14-2.12795E-13
 -1      3639 2.00337E+01-9.94861E-03-2.61793E-04 6.61233E-02-6.53178E-14-2.11367E-13
 -1      3640 2.00282E+01 4.16979E-03 3.55062E-04 6.67208E-02-2.76305E-14-1.65891E-13
 -1      3641 2.00453E+01-1.69819E-02-1.19882E-04 5.94057E-02-7.31741E-14-2.35665E-13
 -1      3642 2.00174E+01 1.87956E-02-3.54751E-04 6.83552E-02-3.13929E-14-1.59294E-13
 -1      3643 2.00120E+01 3.48759E-02 3.54461E-04 7.19119E-02-5.70992E-15-1.25573E-13
 -1      3644 2.00255E+01 1.32796E-02-1.11215E-05 6.05397E-02-1.41837E-14-1.94989E-13
 -1      3645 2.00004E+01 5.14913E-02-4.61976E-04 7.64188E-02 4.71804E-14-1.23803E-13
 -1      3646 1.99944E+01 6.97435E-02 3.64648E-04 8.34366E-02-1.75071E-14-7.42761E-14
 -1      3647 2.00050E+01 4.78404E-02 1.06136E-04 6.66872E-02 1.64049E-14-1.63715E-13
 -1      3648 1.99810E+01 8.85475E-02-5.87724E-04 9.13322E-02-4.76664E-14-7.43672E-15
 -1      3649 1.99740E+01 1.09166E-01 3.89472E-04 1.02368E-01 3.70692E-14 2.49145E-14
 -1      3650 1.99821E+01 8.71328E-02 2.33199E-04 7.87945E-02 2.60454E-14-9.70795E-14
 -1      3651 1.99579E+01 1.30276E-01-7.34218E-04 1.14268E-01-1.76959E-14 3.80863E-14
 -1      3652 1.99493E+01 1.53308E-01 4.33886E-04 1.29949E-01-1.24297E-14 3.29283E-14
 -1      3653 1.99549E+01 1.31565E-01 3.69043E-04 9.79651E-02-2.79651E-16-1.99016E-14
 -1      3654 1.99295E+01 1.76613E-01-9.00686E-04 1.46598E-01 6.35469E-14 8.62482E-14
 -1      3655 1.99188E+01 2.01789E-01 5.04893E-04 1.67623E-01 9.98686E-14 1.14260E-13
 -1      3656 1.99218E+01 1.81250E-01 5.09862E-04 1.25529E-01 7.82343E-14 4.59370E-14
 -1      3657 1.98945E+01 2.26753E-01-1.08245E-03 1.89916E-01 5.94580E-14 1.18811E-13
 -1      3658 1.98817E+01 2.53265E-01 6.13193E-04 2.17039E-01 2.94896E-14 5.80582E-14
 -1      3659 1.98807E+01 2.35651E-01 6.46514E-04 1.63105E-01 4.34634E-14 7.33723E-14
 -1      3660 1.98521E+01 2.78678E-01-1.26914E-03 2.46044E-01-2.29567E-14 1.84062E-14
 -1      3661 1.98372E+01 3.04894E-01 7.75294E-04 2.80049E-01-4.03239E-14 1.31400E-14
 -1      3662 1.98303E+01 2.93123E-01 7.61404E-04 2.12661E-01 3.16443E-15 1.53592E-13
 -1      3663 1.98023E+01 3.28557E-01-1.44199E-03 3.17025E-01 2.98443E-14-3.08911E-14
 -1      3664 1.97864E+01 3.51667E-01 1.01604E-03 3.58673E-01-2.35436E-14 7.92344E-14
 -1      3665 1.97696E+01 3.50331E-01 8.24335E-04 2.76579E-01-2.26589E-14 1.23646E-13
 -1      3666 1.97467E+01 3.69993E-01-1.56969E-03 4.05082E-01-1.14944E-13 1.03967E-13
 -1      3667 1.97317E+01 3.85578E-01 1.37113E-03 4.55037E-01-8.41929E-14 1.51572E-13
 -1      3668 1.96991E+01 4.01510E-01 7.86771E-04 3.57739E-01-1.49365E-14 1.30484E-13
 -1      3669 1.96894E+01 3.93146E-01-1.60133E-03 5.12548E-01-4.25795E-14 1.26736E-15
 -1      3670 1.96792E+01 3.94693E-01 1.88810E-03 5.71247E-01 2.66488E-14-3.85355E-15
 -1      3671 1.96211E+01 4.37585E-01 5.73590E-04 4.59591E-01-1.14908E-13 7.16917E-14
 -1      3672 1.96383E+01 3.83766E-01-1.45403E-03 6.41671E-01 3.36690E-14-5.54464E-15
 -1      3673 1.96395E+01 3.62184E-01 2.62158E-03 7.09086E-01 2.02211E-14-2.51011E-14
 -1      3674 1.95413E+01 4.45143E-01 7.04113E-05 5.86206E-01-1.31216E-14 7.80753E-14
 -1      3675 1.96076E+01 3.22293E-01-9.90224E-04 7.94177E-01 3.88079E-14-8.10431E-14
 -1      3676 1.96304E+01 2.65526E-01 3.61575E-03 8.69332E-01 7.86136E-14 4.67102E-14
 -1      3677 1.94706E+01 4.05337E-01-8.96820E-04 7.42172E-01 1.59452E-14 5.95059E-14
 -1      3678 1.96201E+01 1.83311E-01 2.63013E-05 9.70190E-01-1.22395E-14 1.07432E-14
 -1      3679 1.96797E+01 7.63303E-02 4.88054E-03 1.05016E+00-1.06018E-13 1.71629E-14
 -1      3680 1.94275E+01 2.92855E-01-2.58882E-03 9.32040E-01 1.69281E-14 6.29046E-14
 -1      3681 1.97110E+01-6.39624E-02 2.03930E-03 1.16584E+00-2.05688E-13-2.15257E-15
 -1      3682 1.98290E+01-2.38359E-01 6.34343E-03 1.24381E+00-2.45724E-13-6.14038E-14
 -1      3683 1.94420E+01 7.54363E-02-5.33832E-03 1.15872E+00-1.01918E-13-2.56035E-14
 -1      3684 1.99328E+01-4.53007E-01 5.84968E-03 1.36814E+00-1.88584E-13-4.32012E-14
 -1      3685 2.01388E+01-7.10262E-01 8.58617E-03 1.42889E+00 2.19839E-14-9.55444E-14
 -1      3686 1.95612E+01-2.85572E-01-9.46342E-03 1.41938E+00-1.67036E-13 6.11523E-14
 -1      3687 2.03600E+01-1.01771E+00 1.12122E-02 1.54823E+00 9.34558E-14-1.65644E-13
 -1      3688 2.06912E+01-1.36314E+00 9.98135E-03 1.55682E+00 5.44400E-14-8.22468E-14
 -1      3689 1.98531E+01-8.25062E-01-1.40049E-02 1.70027E+00 5.83865E-15-2.88619E-14
 -1      3690 2.11001E+01-1.76154E+00 1.95680E-02 1.62593E+00 6.04391E-14-1.18739E-13
 -1      3691 2.16119E+01-2.14419E+00 2.17365E-02 1.51145E+00 3.45630E-14-2.83885E-14
 -1      3692 2.04383E+01-1.58291E+00-1.61297E-02 1.96238E+00 8.25728E-14-8.51333E-14
 -1      3693 2.33385E+01-3.22535E+00 6.37029E-02 1.29896E+00-1.73846E-13 4.58618E-14
 -1      3694 1.86063E+01-2.09147E+00-4.73202E-02 3.64834E+00-1.47545E-13-1.58377E-13
 -1      3695 1.70567E+01-1.11961E+00 2.28728E-02 3.49044E+00-1.52412E-13-3.09839E-13
 -1      3696 2.03551E+01 7.04308E-01 9.11188E-04-1.47460E-01-1.17790E-13-2.65927E-13
 -1      3697 2.03496E+01 5.47025E-01-2.52642E-03-7.44447E-02-9.97202E-14-2.36706E-13
 -1      3698 2.42643E+01-1.03895E+00-3.60908E-02 6.29725E-01-1.91962E-13-3.44736E-13
 -1      3699 2.00284E+01-1.46842E-03 3.90340E-04-7.24040E-02-1.76338E-14-2.60027E-14
 -1      3700 2.00318E+01-1.45695E-02-2.76473E-04-7.23924E-02 2.39459E-14-2.25768E-14
 -1      3701 2.00408E+01-2.62944E-02 3.93974E-04-7.38151E-02 1.76883E-14-1.30444E-14
 -1      3702 2.00448E+01-3.75079E-02-1.96759E-04-7.64388E-02-5.19220E-15-2.63182E-14
 -1      3703 2.00442E+01-2.16558E-02-1.38077E-04-6.76194E-02 4.28921E-15-3.19094E-14
 -1      3704 2.00029E+01 6.11738E-02 3.92529E-04-8.76515E-02-8.51028E-14-1.35662E-13
 -1      3705 2.00065E+01 4.33283E-02-4.73200E-04-8.08445E-02-4.11652E-14-7.87671E-14
 -1      3706 1.99866E+01 1.01025E-01 3.94383E-04-1.06272E-01-6.23873E-14-2.11015E-13
 -1      3707 1.99914E+01 7.99230E-02-6.07459E-04-9.52301E-02-4.52366E-14-1.59411E-13
 -1      3708 1.99918E+01 7.84251E-02 2.28633E-04-8.46700E-02-1.48483E-14-1.40739E-13
 -1      3709 1.99651E+01 1.48452E-01 3.88741E-04-1.33666E-01-9.77644E-14-1.67365E-13
 -1      3710 1.99720E+01 1.23308E-01-7.75896E-04-1.17759E-01-5.46901E-14-1.44147E-13
 -1      3711 1.99682E+01 1.24094E-01 4.07831E-04-1.03216E-01-5.73306E-14-1.54746E-13
 -1      3712 1.99355E+01 2.05161E-01 3.64003E-04-1.70985E-01-8.57380E-14-1.74371E-13
 -1      3713 1.99458E+01 1.75092E-01-9.86776E-04-1.49545E-01-9.15336E-14-1.37909E-13
 -1      3714 1.99373E+01 1.78338E-01 6.38858E-04-1.29608E-01-1.27934E-13-1.79389E-13
 -1      3715 1.98941E+01 2.72979E-01 3.03122E-04-2.19352E-01-2.85447E-14-1.86628E-13
 -1      3716 1.99095E+01 2.37059E-01-1.24897E-03-1.91714E-01-6.06630E-14-1.66531E-13
 -1      3717 1.98956E+01 2.42927E-01 9.42407E-04-1.64628E-01-7.02448E-14-2.43157E-13
 -1      3718 1.98359E+01 3.53697E-01 1.83051E-04-2.79719E-01 3.77859E-15-2.29836E-13
 -1      3719 1.98588E+01 3.11046E-01-1.57266E-03-2.45291E-01-2.12098E-15-1.88740E-13
 -1      3720 1.98386E+01 3.19670E-01 1.34561E-03-2.08863E-01-1.71416E-14-3.06284E-13
 -1      3721 1.97542E+01 4.48812E-01-2.46592E-05-3.52679E-01 2.25484E-14-2.68512E-13
 -1      3722 1.97879E+01 3.98743E-01-1.97070E-03-3.11040E-01 3.70540E-14-3.04765E-13
 -1      3723 1.97606E+01 4.10217E-01 1.88378E-03-2.62515E-01 5.47462E-14-3.59915E-13
 -1      3724 1.96405E+01 5.59093E-01-3.50596E-04-4.38250E-01 7.12421E-14-2.29702E-13
 -1      3725 1.96893E+01 5.01354E-01-2.46179E-03-3.89254E-01 3.61745E-14-2.29757E-13
 -1      3726 1.96539E+01 5.15746E-01 2.60259E-03-3.25169E-01-5.38927E-15-4.82307E-13
 -1      3727 1.94834E+01 6.83840E-01-8.19068E-04-5.35733E-01 1.41514E-13-2.13540E-13
 -1      3728 1.95529E+01 6.19026E-01-3.07753E-03-4.79572E-01 1.31741E-13-1.64188E-13
 -1      3729 1.95087E+01 6.36473E-01 3.56110E-03-3.95549E-01 9.59016E-14-3.77094E-13
 -1      3730 1.92682E+01 8.19693E-01-1.43075E-03-6.43808E-01 1.31116E-13-1.51901E-13
 -1      3731 1.93657E+01 7.49893E-01-3.87752E-03-5.80926E-01 1.27668E-13-1.71816E-13
 -1      3732 1.93123E+01 7.70899E-01 4.83678E-03-4.71390E-01 1.29191E-13-2.34671E-13
 -1      3733 1.89766E+01 9.58748E-01-2.13231E-03-7.61277E-01 1.73826E-13-7.47318E-14
 -1      3734 1.91108E+01 8.88552E-01-4.97930E-03-6.91912E-01 1.48541E-13-1.21662E-13
 -1      3735 1.90481E+01 9.14683E-01 6.53571E-03-5.49652E-01 7.77166E-14-5.48652E-14
 -1      3736 1.85858E+01 1.08572E+00-2.77290E-03-8.89116E-01 1.18074E-13-5.43901E-14
 -1      3737 1.87664E+01 1.02370E+00-6.61246E-03-8.12075E-01 2.34074E-13 2.23129E-14
 -1      3738 1.86943E+01 1.05904E+00 8.81578E-03-6.27512E-01 1.80150E-13 1.35860E-14
 -1      3739 1.80682E+01 1.17398E+00-3.00182E-03-1.03485E+00 6.63882E-14-4.57061E-14
 -1      3740 1.83049E+01 1.13469E+00-9.20947E-03-9.44891E-01 6.11868E-14-1.65976E-14
 -1      3741 1.82224E+01 1.18850E+00 1.19450E-02-7.04796E-01 1.23348E-13 1.13088E-13
 -1      3742 1.73903E+01 1.18003E+00-1.86508E-03-1.22116E+00-1.39846E-14 3.36913E-14
 -1      3743 1.76907E+01 1.18672E+00-1.35765E-02-1.10408E+00 7.48230E-15-4.34729E-14
 -1      3744 1.75929E+01 1.27875E+00 1.65527E-02-7.88874E-01-2.38616E-14 1.65833E-13
 -1      3745 1.65138E+01 1.03304E+00 3.45283E-03-1.50210E+00-8.48674E-14 1.25715E-13
 -1      3746 1.68760E+01 1.12453E+00-2.00917E-02-1.32577E+00 3.14798E-14 1.12579E-13
 -1      3747 1.67482E+01 1.29285E+00 2.43416E-02-9.04970E-01-7.14346E-14 1.65879E-13
 -1      3748 1.53602E+01 5.84668E-01 9.43442E-03-2.00150E+00-1.79157E-13 7.66340E-14
 -1      3749 1.57958E+01 8.63065E-01-2.60131E-02-1.69381E+00-8.47565E-14 1.86655E-13
 -1      3750 1.55942E+01 1.17823E+00 4.05482E-02-1.11333E+00-1.05512E-13 3.19336E-13
 -1      3751 2.02717E+01 9.56508E-01 2.05173E-03 4.62841E-01 2.16715E-13-3.16515E-13
 -1      3752 2.02848E+01 8.22384E-01 1.82978E-03 3.36659E-01 1.85664E-13-3.05704E-13
 -1      3753 1.28599E+01 5.43179E-01 1.02262E-01-1.64958E+00-4.49397E-14 2.91218E-13
 -1      3754 1.40595E+01 1.56656E-01 1.94836E-03-2.37749E+00-2.09899E-13 9.60378E-14
 -1      3755 1.48079E+01 3.57677E-01-1.37971E-02-2.24074E+00-2.54787E-13 5.85053E-14
 -1      3756 1.30464E+01 7.52440E-01 2.07812E-02-7.28885E-01-7.81068E-14 2.63952E-13
 -1      3757 2.59541E+01-4.32557E+00-3.92301E-02-3.32000E+00 4.32016E-13 4.15275E-13
 -1      3758 2.03124E+01 3.13332E-01-1.79170E-03-1.11490E-02 6.71140E-14-2.21555E-13
 -1      3759 2.03317E+01 4.24313E-01 1.80844E-03 4.43265E-02 6.91015E-14-2.26965E-13
 -1      3760 2.26187E+01-2.85755E+00 2.74159E-02 1.38404E+00-9.22205E-14 4.93650E-14
 -1      3761 2.20122E+01-3.46007E+00-9.02538E-02 2.43779E+00-6.93352E-14-9.90570E-14
 -1      3762 2.05866E+01-2.75594E+00 4.74717E-02 3.16285E+00-1.54017E-13-1.26379E-14
 -1      3763 2.19477E+01-2.50948E+00 2.86361E-02 1.65172E+00 2.96338E-14-1.60592E-14
 -1      3764 2.00903E+01-7.72209E-02 3.84325E-04-1.02449E-01-9.26451E-15-6.13045E-14
 -1      3765 2.00989E+01-8.12313E-02 8.07629E-05-1.09332E-01 3.86719E-14-7.91117E-14
 -1      3766 2.03049E+01 8.39634E-01 1.83966E-03 2.87485E-01 1.49834E-13-2.68039E-13
 -1      3767 2.02789E+01 1.42166E+00 4.85997E-03 4.25041E-04-6.28062E-14-3.90123E-13
 -1      3768 2.01957E+01 1.65935E+00-3.58210E-03-3.58132E-02-7.13244E-14-4.07172E-13
 -1      3769 2.03569E+01 4.15929E-01 1.46952E-03-2.92604E-02-8.95940E-14-2.38650E-13
 -1      3770 2.03407E+01 3.05113E-01-1.74138E-03 1.85575E-02-9.44738E-14-2.23215E-13
 -1      3771 2.03778E+01 5.32820E-01 9.40881E-04-5.43487E-02-9.68771E-14-2.77587E-13
 -1      3772 2.02503E+01 1.38296E+00-4.74699E-03 4.13474E-01 1.05139E-13-3.63878E-13
 -1      3773 2.02365E+01 1.48258E+00-1.24883E-03 3.44770E-01 5.95558E-14-3.86619E-13
 -1      3774 2.02955E+01 1.28384E+00 4.14958E-03 2.49561E-01 2.30118E-14-3.45112E-13
 -1      3775 2.03038E+01 1.11492E+00 3.14714E-03 3.35447E-01 1.08577E-13-2.98198E-13
 -1      3776 2.00163E+01 2.74082E-02 3.90229E-04-7.67023E-02-1.70082E-14-7.96982E-14
 -1      3777 2.00195E+01 1.21728E-02-3.65168E-04-7.35561E-02 1.62884E-15-3.39609E-14
 -1      3778 2.00110E+01 3.97343E-02 8.56720E-05-7.31191E-02-2.18217E-14-3.53201E-14
 -1      3779 1.50925E+01-2.98494E-01-5.75052E-03 3.05170E+00-1.73941E-13-5.57616E-13
 -1      3780 1.36454E+01 4.29778E-01 1.12809E-01 2.40922E+00 8.92775E-15-3.80260E-13
 -1      3781 2.02876E+01 1.25301E+00-5.84143E-04-3.46741E-01-1.73507E-13-3.50725E-13
 -1      3782 2.03275E+01 8.98757E-01-2.18320E-03-2.05845E-01-1.38142E-13-2.91519E-13
 -1      3783 2.03518E+01 8.83864E-01 2.48744E-03-1.60860E-01-1.09306E-13-3.05283E-13
 -1      3784 2.02717E+01 1.35287E+00 1.39355E-03-2.89446E-01-1.36162E-13-3.52278E-13
 -1      3785 2.03683E+01 2.93990E-01 3.36050E-04 2.15852E-02-8.00921E-14-2.37802E-13
 -1      3786 2.03236E+01 5.32217E-01-2.22025E-03 9.25106E-02 6.72703E-14-2.15461E-13
 -1      3787 2.03306E+01 6.58003E-01 7.36610E-04 1.64610E-01 8.48245E-14-2.31519E-13
 -1      3788 2.03546E+01 5.25391E-01 4.53281E-04 6.95215E-02 7.44683E-14-2.20137E-13
 -1      3789 2.11446E+01-2.47669E+00-3.76572E-02 2.22976E+00 4.80024E-14 3.16765E-14
 -1      3790 2.01312E+01-8.83619E-02-4.83224E-04-1.01959E-01 3.01497E-14-1.93435E-13
 -1      3791 2.01138E+01-8.32044E-02 3.43780E-04-1.15865E-01 6.00499E-14-1.07504E-13
 -1      3792 2.01247E+01-8.28973E-02 2.15833E-04-1.22335E-01 7.06958E-14-1.42408E-13
 -1      3793 1.99379E+01-2.07659E+00 3.29698E-02 2.91311E+00-3.62071E-14 7.05773E-14
 -1      3794 2.02089E+01-2.47626E-02-1.74175E-04-1.34691E-01 7.65996E-15-2.18587E-13
 -1      3795 2.02281E+01 4.70550E-03 9.44243E-04-1.27891E-01 7.02625E-15-2.32276E-13
 -1      3796 2.00278E+01 6.69987E-03-3.28161E-05-6.77124E-02-1.76687E-15 1.01460E-15
 -1      3797 2.02082E+01 5.27935E-02-7.37921E-04-1.26892E-01 1.80675E-14-2.10462E-13
 -1      3798 2.00616E+01-4.58052E-02-2.31795E-04-7.20197E-02 2.90278E-15 5.78034E-14
 -1      3799 2.00546E+01-4.74252E-02 3.98520E-04-8.00046E-02-7.35986E-15-1.20945E-14
 -1      3800 2.00597E+01-5.67358E-02-1.17809E-04-8.47262E-02 2.63828E-14-6.95504E-15
 -1      3801 1.43502E+01 8.86550E-01 5.07982E-02-1.46515E+00-1.68481E-13 3.47075E-13
 -1      3802 2.01662E+01 1.77004E+00-9.24781E-04-3.07696E-01-1.53600E-13-3.85103E-13
 -1      3803 2.02255E+01 1.58212E+00 2.68933E-03-2.95633E-01-1.41190E-13-3.84200E-13
 -1      3804 2.02819E+01 1.29039E+00-3.08748E-03-2.30246E-01-1.25750E-13-3.50491E-13
 -1      3805 2.01665E+01 1.75426E+00-3.94076E-03-2.13550E-01-1.17646E-13-3.97149E-13
 -1      3806 2.03050E+01 2.23845E-01 1.69302E-03-4.69623E-02 7.43819E-14-2.03743E-13
 -1      3807 2.03454E+01 3.07290E-01 1.07362E-04-1.64472E-02 6.81216E-14-2.06809E-13
 -1      3808 2.02827E+01 1.49039E-01-1.15087E-03-8.08514E-02 6.00699E-14-1.99047E-13
 -1      3809 1.34486E+01 6.26693E-01 5.31092E-03 1.42385E+00-2.06467E-14-2.21816E-13
 -1      3810 2.01110E+01-7.26490E-02-5.48024E-04-1.43893E-01 9.38104E-14-9.38042E-14
 -1      3811 2.01734E+01-6.23206E-02 8.76304E-05-1.35756E-01 9.98856E-14-1.66297E-13
 -1      3812 2.01897E+01-4.62667E-02 6.36720E-04-1.36077E-01 6.05968E-14-2.15880E-13
 -1      3813 2.02373E+01-3.30434E-02-5.35404E-04-1.19239E-01 2.29713E-14-2.86672E-13
 -1      3814 2.01883E+01 1.70332E+00-3.67187E-04-1.21021E-01-1.04954E-13-3.93240E-13
 -1      3815 2.03221E+01 7.83351E-01-5.21739E-04 2.08683E-01 1.00554E-13-2.38098E-13
 -1      3816 2.03166E+01 9.49249E-01-1.90096E-03 2.84946E-01 1.14755E-13-2.63019E-13
 -1      3817 2.03189E+01 1.05054E+00 6.38616E-04 2.56755E-01 6.01904E-14-2.70884E-13
 -1      3818 2.03463E+01 7.70309E-01 6.09209E-04 1.65435E-01 6.65556E-14-2.05329E-13
 -1      3819 2.03178E+01 1.19540E+00-2.65783E-03 3.12321E-02-4.83420E-14-3.98245E-13
 -1      3820 2.03182E+01 1.19713E+00-2.36196E-03-3.07704E-02-7.26197E-14-3.68442E-13
 -1      3821 2.03207E+01 1.14873E+00-2.67788E-03 1.33410E-01-2.68999E-14-3.73080E-13
 -1      3822 2.03192E+01 1.18224E+00-1.86797E-03 7.77017E-02-4.70691E-14-3.92426E-13
 -1      3823 2.03736E+01 9.97409E-01 4.99828E-03 3.99259E-02-3.94898E-14-3.87938E-13
 -1      3824 1.63547E+01-5.06013E-01 2.64234E-02 3.15306E+00-1.52362E-13-3.84957E-13
 -1      3825 1.56414E+01 1.11956E-01-2.88028E-02 2.42023E+00-1.63477E-13-4.33281E-13
 -1      3826 1.74783E+01-6.48002E-01 1.89247E-02 2.83406E+00-6.40651E-14-2.40596E-13
 -1      3827 2.00708E+01-6.46931E-02 3.99087E-04-8.99479E-02 2.10058E-14-5.64375E-14
 -1      3828 2.00775E+01-7.17629E-02-3.18140E-05-9.61501E-02 9.30878E-15-5.28491E-14
 -1      3829 2.00813E+01-6.56518E-02-3.13972E-04-7.99790E-02 6.61784E-15-3.56749E-14
 -1      3830 2.01042E+01-8.04257E-02-3.97683E-04-9.04118E-02 1.58386E-14-8.69226E-14
 -1      3831 2.03392E+01 5.08843E-02 6.46534E-04 7.12586E-02-9.01307E-14-2.27433E-13
 -1      3832 2.03174E+01 6.45495E-03-2.91724E-04 8.04723E-02-6.97395E-14-2.37288E-13
 -1      3833 2.02961E+01-2.73570E-02 5.09859E-04 8.28389E-02-3.59349E-14-2.16256E-13
 -1      3834 2.02741E+01-5.32404E-02-4.23239E-06 8.58058E-02-1.25694E-14-2.12519E-13
 -1      3835 2.03280E+01-5.67236E-03-3.97897E-04 6.26898E-02-4.94199E-14-1.79078E-13
 -1      3836 2.02517E+01-7.16919E-02 3.98185E-04 8.48279E-02-1.16262E-14-1.87116E-13
 -1      3837 2.02310E+01-8.44897E-02 1.71248E-04 8.38502E-02-9.33440E-15-2.02277E-13
 -1      3838 2.02826E+01-6.20779E-02-5.19559E-04 6.61643E-02-2.61066E-14-1.33898E-13
 -1      3839 2.02092E+01-9.21093E-02 2.95898E-04 8.08896E-02-2.94074E-14-2.05242E-13
 -1      3840 2.01907E+01-9.56934E-02 2.78635E-04 7.77447E-02-6.40167E-14-2.23542E-13
 -1      3841 2.02376E+01-9.05181E-02-5.54374E-04 6.43589E-02-3.89542E-14-1.99951E-13
 -1      3842 2.01706E+01-9.58981E-02 2.01951E-04 7.39879E-02-4.27589E-14-2.03891E-13
 -1      3843 2.01544E+01-9.32315E-02 3.23185E-04 6.99134E-02-1.52407E-14-1.71086E-13
 -1      3844 2.01957E+01-9.92901E-02-5.31326E-04 5.95269E-02-4.57694E-14-1.89995E-13
 -1      3845 2.01363E+01-8.82663E-02 1.09514E-04 6.60038E-02 1.37430E-14-2.09479E-13
 -1      3846 2.01224E+01-8.11891E-02 3.38557E-04 6.19733E-02 5.28043E-14-1.83579E-13
 -1      3847 2.01579E+01-9.46130E-02-4.80920E-04 5.35723E-02 1.73901E-14-1.31860E-13
 -1      3848 2.01062E+01-7.25895E-02 2.66180E-05 5.85720E-02 4.28572E-14-2.48199E-13
 -1      3849 2.00942E+01-6.23696E-02 3.24928E-04 5.52871E-02 2.94072E-14-2.28986E-13
 -1      3850 2.01244E+01-8.03414E-02-3.99032E-04 4.76378E-02 1.19816E-14-2.26657E-13
 -1      3851 2.00797E+01-5.10552E-02-5.35394E-05 5.27817E-02-3.39932E-14-2.95595E-13
 -1      3852 2.00691E+01-3.83320E-02 3.01914E-04 5.07728E-02-1.05455E-13-3.24554E-13
 -1      3853 2.00946E+01-5.92118E-02-2.97124E-04 4.28632E-02-4.04488E-14-3.23730E-13
 -1      3854 2.00555E+01-2.47808E-02-1.40771E-04 4.95505E-02-6.68521E-14-3.25013E-13
 -1      3855 2.00458E+01-9.87109E-03 2.71419E-04 4.92379E-02-3.33064E-14-3.16946E-13
 -1      3856 2.00676E+01-3.26773E-02-1.80083E-04 3.99031E-02-8.68480E-14-3.76863E-13
 -1      3857 2.00325E+01 5.82559E-03-2.39895E-04 4.95610E-02-1.22497E-14-2.36277E-13
 -1      3858 2.00228E+01 2.29791E-02 2.44351E-04 5.13606E-02 4.36677E-14-1.96412E-13
 -1      3859 2.00421E+01-1.43299E-03-5.78152E-05 3.94528E-02 1.82833E-14-2.67760E-13
 -1      3860 2.00087E+01 4.09507E-02-3.52528E-04 5.35876E-02 2.79240E-14-1.45002E-13
 -1      3861 1.99984E+01 6.05603E-02 2.20749E-04 5.79291E-02 6.87383E-14-1.57475E-13
 -1      3862 2.00162E+01 3.46533E-02 8.02776E-05 4.20754E-02 9.21621E-14-2.02316E-13
 -1      3863 1.99825E+01 8.10519E-02-4.85294E-04 6.24614E-02 5.60374E-14-1.19825E-13
 -1      3864 1.99706E+01 1.03402E-01 2.05603E-04 6.98290E-02 2.94486E-14-1.27502E-13
 -1      3865 1.99879E+01 7.60073E-02 2.36016E-04 4.85222E-02 6.72897E-14-1.69565E-13
 -1      3866 1.99516E+01 1.26671E-01-6.44312E-04 7.71666E-02 4.57854E-14-3.66688E-14
 -1      3867 1.99373E+01 1.52000E-01 2.04819E-04 8.81385E-02 7.64538E-14 9.82426E-15
 -1      3868 1.99552E+01 1.23224E-01 4.08718E-04 5.96399E-02 9.36567E-14-1.12926E-13
 -1      3869 1.99140E+01 1.78177E-01-8.33657E-04 9.89355E-02 8.09331E-14-3.23090E-15
 -1      3870 1.98963E+01 2.06526E-01 2.26702E-04 1.14217E-01 7.94817E-14-2.41154E-15
 -1      3871 1.99154E+01 1.76839E-01 5.98942E-04 7.65287E-02 8.11050E-14-2.10905E-14
 -1      3872 1.98673E+01 2.35443E-01-1.05678E-03 1.29334E-01 1.21298E-13 3.09518E-14
 -1      3873 1.98455E+01 2.66459E-01 2.84014E-04 1.49792E-01 1.18988E-13 1.14514E-13
 -1      3874 1.98660E+01 2.37003E-01 8.04469E-04 1.00644E-01 1.24187E-13 2.08106E-14
 -1      3875 1.98094E+01 2.97427E-01-1.31564E-03 1.70364E-01 1.97750E-14 7.92499E-14
 -1      3876 1.97829E+01 3.30119E-01 3.96441E-04 1.97070E-01-4.28666E-14 1.35345E-13
 -1      3877 1.98043E+01 3.03098E-01 1.01799E-03 1.33926E-01 6.65835E-14 1.82516E-13
 -1      3878 1.97385E+01 3.61648E-01-1.60966E-03 2.24599E-01-9.70554E-14 1.87531E-13
 -1      3879 1.97073E+01 3.94071E-01 5.93711E-04 2.58876E-01-1.21038E-14 1.73003E-13
 -1      3880 1.97278E+01 3.73246E-01 1.22446E-03 1.78981E-01-2.69755E-14 1.04022E-13
 -1      3881 1.96537E+01 4.23514E-01-1.93414E-03 2.95343E-01-4.06202E-14 7.02913E-14
 -1      3882 1.96186E+01 4.52386E-01 9.19546E-04 3.38832E-01-8.10303E-14 1.40168E-14
 -1      3883 1.96345E+01 4.43686E-01 1.39747E-03 2.39308E-01-1.16954E-13 1.76453E-13
 -1      3884 1.95556E+01 4.75508E-01-2.27727E-03 3.86848E-01-6.74384E-14 2.91667E-14
 -1      3885 1.95187E+01 4.95738E-01 1.43631E-03 4.41576E-01-3.40349E-14 8.97766E-14
 -1      3886 1.95235E+01 5.08002E-01 1.49404E-03 3.19613E-01-4.75532E-14-3.47858E-14
 -1      3887 1.94473E+01 5.06209E-01-2.61421E-03 5.04559E-01-6.21051E-14 1.22483E-13
 -1      3888 1.94130E+01 5.10368E-01 2.22932E-03 5.72992E-01-6.68070E-14 9.58616E-14
 -1      3889 1.93955E+01 5.56190E-01 1.44572E-03 4.26197E-01-5.16576E-14 8.71074E-14
 -1      3890 1.93363E+01 4.99201E-01-2.89473E-03 6.55351E-01 5.42056E-14 3.60511E-14
 -1      3891 1.93121E+01 4.76920E-01 3.40638E-03 7.40358E-01 1.21090E-13 8.46248E-14
 -1      3892 1.92544E+01 5.73548E-01 1.14073E-03 5.67426E-01 7.31050E-16 5.77792E-14
 -1      3893 1.92360E+01 4.31879E-01-3.01593E-03 8.47606E-01 1.22964E-14 4.01329E-14
 -1      3894 1.92343E+01 3.69190E-01 5.06783E-03 9.52147E-01-1.01496E-13 4.45694E-14
 -1      3895 1.91087E+01 5.39344E-01 3.83540E-04 7.54217E-01 4.40595E-14 5.86383E-14
 -1      3896 1.91702E+01 2.74282E-01-2.75294E-03 1.09058E+00-1.33701E-13-3.36482E-14
 -1      3897 1.92106E+01 1.53355E-01 7.47237E-03 1.21664E+00-1.44580E-13-9.80563E-15
 -1      3898 1.89745E+01 4.25097E-01-1.17440E-03 1.00024E+00-1.68842E-13 1.22404E-13
 -1      3899 1.91777E+01-1.16165E-02-1.59822E-03 1.39296E+00-2.05247E-13-5.25262E-14
 -1      3900 1.92868E+01-2.13584E-01 9.71241E-03 1.53937E+00-1.91253E-13-1.90262E-14
 -1      3901 1.88795E+01 1.93803E-01-3.99549E-03 1.32085E+00-2.21101E-13 3.50357E-14
 -1      3902 1.93252E+01-4.75875E-01 1.21303E-03 1.75166E+00-5.14041E-14-5.67968E-14
 -1      3903 1.95444E+01-7.79624E-01 1.31555E-02 1.90899E+00 1.31677E-13-5.81223E-14
 -1      3904 1.88819E+01-2.06624E-01-6.24967E-03 1.73905E+00-1.13780E-13-1.55330E-14
 -1      3905 2.02621E+01 1.47578E+00 4.45411E-03-1.49954E-01-1.17659E-13-3.74860E-13
 -1      3906 2.03211E+01 1.07562E+00-2.39854E-03 2.20171E-01 3.09177E-14-3.15911E-13
 -1      3907 2.03193E+01 1.14138E+00-1.03540E-03 1.73632E-01-1.05646E-14-3.37727E-13
 -1      3908 2.03663E+01 9.72153E-01 4.24777E-03 1.13757E-01-6.00262E-15-3.45929E-13
 -1      3909 2.03485E+01 9.31952E-01 2.16908E-03 1.79234E-01 4.17747E-14-2.81581E-13
 -1      3910 2.00271E+01 1.56778E-02 2.82550E-04-5.96660E-02 1.24543E-14 2.01175E-14
 -1      3911 2.00349E+01-6.41246E-04-2.47426E-04-5.82607E-02 8.24762E-14 5.00318E-14
 -1      3912 1.96402E+01-1.72601E+00-2.78485E-04 2.70311E+00-2.32757E-15 5.97682E-14
 -1      3913 1.99508E+01 1.44224E-01 1.25587E-04-9.43537E-02-6.44138E-14-3.41584E-14
 -1      3914 1.99638E+01 1.17976E-01-6.27884E-04-8.37664E-02-9.31255E-15-6.19715E-14
 -1      3915 1.99813E+01 9.43043E-02 1.93456E-04-7.70144E-02 2.55547E-15-3.09750E-14
 -1      3916 1.99914E+01 7.20324E-02-4.79183E-04-6.98669E-02 4.58887E-14-1.36614E-14
 -1      3917 1.99663E+01 1.14030E-01 4.15689E-04-6.78752E-02-5.16981E-16 1.38045E-14
 -1      3918 1.98581E+01 2.73023E-01-1.20358E-04-1.48988E-01-9.44781E-15-3.78725E-13
 -1      3919 1.98821E+01 2.36388E-01-1.01584E-03-1.30590E-01-2.22296E-14-2.88653E-13
 -1      3920 1.97867E+01 3.55108E-01-3.42057E-04-1.86646E-01-1.73969E-14-4.40694E-13
 -1      3921 1.98198E+01 3.12129E-01-1.26263E-03-1.64151E-01-3.95641E-14-4.33413E-13
 -1      3922 1.98164E+01 3.10976E-01 1.34511E-03-1.27777E-01-1.23327E-14-4.52564E-13
 -1      3923 1.96904E+01 4.50708E-01-6.71039E-04-2.30607E-01-1.51236E-14-4.03250E-13
 -1      3924 1.97361E+01 4.00865E-01-1.54964E-03-2.04248E-01-1.06543E-14-4.09168E-13
 -1      3925 1.97313E+01 4.00065E-01 1.83838E-03-1.56633E-01-5.37760E-14-4.67966E-13
 -1      3926 1.95607E+01 5.60321E-01-1.14846E-03-2.79389E-01-1.15176E-14-3.54693E-13
 -1      3927 1.96237E+01 5.03511E-01-1.88339E-03-2.49847E-01-4.46897E-14-3.53905E-13
 -1      3928 1.96182E+01 5.02516E-01 2.47377E-03-1.88005E-01-4.40618E-14-3.17302E-13
 -1      3929 1.93871E+01 6.83206E-01-1.82287E-03-3.30330E-01 8.31842E-14-3.67350E-13
 -1      3930 1.94730E+01 6.20034E-01-2.27891E-03-2.98862E-01 3.34620E-14-4.08018E-13
 -1      3931 1.94684E+01 6.18122E-01 3.29670E-03-2.19156E-01-2.17252E-15-4.28818E-13
 -1      3932 1.91556E+01 8.16627E-01-2.74844E-03-3.79384E-01 1.16147E-14-8.37513E-14
 -1      3933 1.92722E+01 7.48807E-01-2.77236E-03-3.47880E-01 6.47789E-14-2.30808E-13
 -1      3934 1.92710E+01 7.45176E-01 4.37114E-03-2.45786E-01-2.17085E-14-3.02590E-13
 -1      3935 1.88483E+01 9.54826E-01-3.98168E-03-4.21260E-01 7.64772E-14-5.32297E-14
 -1      3936 1.90053E+01 8.85715E-01-3.44615E-03-3.92061E-01 5.69325E-14-4.16392E-14
 -1      3937 1.90119E+01 8.79779E-01 5.79423E-03-2.61752E-01-3.55606E-14 1.60407E-14
 -1      3938 1.84411E+01 1.08769E+00-5.56703E-03-4.50262E-01 8.18274E-14 4.63657E-14
 -1      3939 1.86514E+01 1.02296E+00-4.47218E-03-4.25511E-01 8.09067E-14-7.84299E-14
 -1      3940 1.86723E+01 1.01503E+00 7.73050E-03-2.59040E-01 7.82582E-14-5.14855E-14
 -1      3941 1.79009E+01 1.19894E+00-7.57335E-03-4.62491E-01-1.41342E-14 1.76436E-13
 -1      3942 1.81816E+01 1.14751E+00-6.16946E-03-4.42650E-01 4.57377E-14 8.10925E-14
 -1      3943 1.82267E+01 1.14023E+00 1.04909E-02-2.28337E-01 3.49850E-14 2.89322E-14
 -1      3944 1.71791E+01 1.26403E+00-1.00863E-02-4.59505E-01 7.64308E-15 1.47210E-13
 -1      3945 1.75548E+01 1.23877E+00-9.10036E-03-4.40678E-01 4.65240E-14 2.39813E-13
 -1      3946 1.76383E+01 1.23941E+00 1.47173E-02-1.60763E-01 2.38531E-14 1.58279E-13
 -1      3947 1.61961E+01 1.25154E+00-1.26430E-02-4.54083E-01-1.11065E-13 9.97728E-14
 -1      3948 1.67058E+01 1.26768E+00-1.45400E-02-4.23331E-01-2.59014E-14 1.24716E-13
 -1      3949 1.68534E+01 1.29475E+00 2.32987E-02-4.76602E-02-2.10220E-14 9.30701E-14
 -1      3950 1.48647E+01 1.11459E+00-3.23584E-03-4.76488E-01-2.32854E-13 2.43321E-13
 -1      3951 1.55306E+01 1.18759E+00-2.25321E-02-4.17389E-01-1.45271E-13 1.93750E-13
 -1      3952 1.57781E+01 1.28832E+00 4.35943E-02 1.04895E-01-1.78341E-13 2.00161E-13
 -1      3953 2.03986E+01 3.62880E-01 1.10894E-03-1.13151E-03-6.15510E-14-2.82129E-13
 -1      3954 2.03844E+01 2.59558E-01-1.31487E-03 2.95267E-02-6.68394E-14-2.55289E-13
 -1      3955 2.00059E+01 5.19106E-02 2.43290E-04-6.56599E-02-1.03866E-14 3.11504E-16
 -1      3956 2.00143E+01 3.28972E-02-3.54814E-04-6.15758E-02-3.51632E-14-5.73155E-14
 -1      3957 2.00217E+01 2.66682E-02 5.81826E-05-5.16113E-02 3.64430E-14 8.83703E-14
 -1      3958 2.01162E+01-8.10923E-02 3.64900E-04-7.54854E-02-2.43158E-14-4.19185E-14
 -1      3959 2.01287E+01-8.72427E-02 1.28197E-04-8.03837E-02 5.48066E-15-6.11841E-14
 -1      3960 2.01414E+01-7.97201E-02 2.46832E-04-1.28058E-01 7.99999E-14-1.32977E-13
 -1      3961 2.01549E+01-7.29751E-02 3.93320E-04-1.32527E-01 9.85802E-14-1.46371E-13
 -1      3962 2.01982E+01-7.00652E-02-5.55505E-04-1.19612E-01 8.25804E-14-2.24637E-13
 -1      3963 2.01626E+01-8.64259E-02-5.33122E-04-1.12554E-01 7.39003E-14-1.72142E-13
 -1      3964 2.03902E+01 6.32796E-01-4.83631E-04-7.30172E-02-6.85906E-14-3.17038E-13
 -1      3965 2.03908E+01 4.86820E-01-2.06417E-03-2.42102E-02-6.54238E-14-2.96351E-13
 -1      3966 2.04102E+01 4.53999E-01-4.92836E-04-1.28854E-02-4.65526E-14-3.33824E-13
 -1      3967 2.00471E+01-1.54364E-02 3.10283E-04-5.83600E-02 3.24017E-14 5.99463E-14
 -1      3968 2.00552E+01-2.94538E-02-1.59409E-04-5.92385E-02 3.85275E-15 1.20494E-13
 -1      3969 2.00451E+01-7.86239E-03-7.41084E-05-4.96319E-02 6.78852E-14 1.54494E-13
 -1      3970 1.46876E+01 8.19378E-01-1.01037E-02 1.21394E+00-1.89233E-13-6.90142E-14
 -1      3971 1.39182E+01 1.11630E+00 6.78986E-02 2.46848E-01-2.08134E-13 1.16382E-13
 -1      3972 2.03724E+01 9.99042E-01 4.98407E-03-3.90748E-02-6.34991E-14-3.56239E-13
 -1      3973 2.03168E+01 1.18000E+00-3.52848E-03-7.60898E-02-6.56434E-14-3.46993E-13
 -1      3974 1.35840E+01 9.56020E-01 4.02313E-03-5.78056E-01-1.81789E-13 2.04364E-13
 -1      3975 1.99111E+01 2.03246E-01 2.71076E-05-1.18225E-01-1.01313E-13-2.32465E-13
 -1      3976 1.99285E+01 1.72216E-01-8.05435E-04-1.03857E-01-9.34480E-14-1.82654E-13
 -1      3977 1.99289E+01 1.69369E-01 6.57029E-04-8.29657E-02-3.02545E-14-1.09828E-13
 -1      3978 2.03757E+01 1.75845E-01 8.22813E-04 4.51578E-02-7.48893E-14-2.53671E-13
 -1      3979 2.03563E+01 1.06082E-01-7.03295E-04 6.34749E-02-8.04762E-14-2.29042E-13
 -1      3980 2.03996E+01 2.39065E-01 2.54014E-04 2.61823E-02-6.62653E-14-2.73762E-13
 -1      3981 2.02464E+01 4.17234E-02-5.79388E-04-1.18958E-01 3.02672E-14-2.17154E-13
 -1      3982 2.02678E+01 9.01859E-02 1.30381E-03-1.01100E-01 4.82815E-14-1.96537E-13
 -1      3983 2.02777E+01 3.35631E-02-4.71292E-04-1.06493E-01 4.71876E-14-2.41380E-13
 -1      3984 1.98423E+01-1.42195E+00 1.18220E-02 2.30615E+00 1.02007E-13 3.08477E-14
 -1      3985 1.85207E+01-1.05452E+00 1.13283E-02 2.81905E+00 1.29876E-13-7.21259E-14
 -1      3986 1.77297E+01-5.07619E-01-2.19455E-02 2.52742E+00 8.87307E-14-9.35174E-14
 -1      3987 1.94546E+01-1.00707E+00-2.48564E-03 2.14882E+00 2.14971E-13 2.38699E-14
 -1      3988 2.01458E+01-9.11558E-02 3.32979E-04-8.50129E-02 3.87650E-15-1.23686E-13
 -1      3989 2.01610E+01-9.28475E-02 3.38703E-04-8.96238E-02 1.11673E-15-1.25819E-13
 -1      3990 2.01529E+01-9.38441E-02-6.45224E-04-6.95477E-02-3.79746E-14-5.74714E-14
 -1      3991 2.03039E+01 1.24180E+00 2.43097E-04-1.51638E-01-1.02583E-13-3.69023E-13
 -1      3992 2.03694E+01 9.01642E-02-9.03803E-05 5.07639E-02-7.46857E-14-2.60756E-13
 -1      3993 2.00677E+01-4.20500E-02 3.36428E-04-6.11021E-02-2.80927E-14 1.26226E-13
 -1      3994 2.00767E+01-5.38061E-02-7.35609E-05-6.38435E-02-3.59745E-14 9.35816E-14
 -1      3995 2.00685E+01-3.74741E-02-2.08186E-04-5.10679E-02-1.48728E-14 1.40640E-13
 -1      3996 1.99963E+01 6.69347E-02 2.20020E-04-5.75417E-02 1.65992E-14-3.92316E-14
 -1      3997 2.03157E+01 1.41741E-01-3.12920E-04-7.47250E-02 6.97769E-14-2.04795E-13
 -1      3998 2.03664E+01 2.77944E-01-1.50139E-03-2.79735E-02 5.59379E-14-2.38193E-13
 -1      3999 2.03818E+01 3.84314E-01 1.48758E-03 9.74702E-03 5.48542E-14-2.31090E-13
 -1      4000 2.01008E+01-7.34581E-02 1.25582E-05-7.12133E-02-2.47805E-14 1.78015E-15
 -1      4001 2.01215E+01-8.14999E-02-4.02325E-04-6.17441E-02-3.37745E-14 1.34785E-14
 -1      4002 2.00904E+01-6.41520E-02 3.62353E-04-6.70841E-02-2.07429E-14 5.19122E-14
 -1      4003 2.03724E+01 8.24183E-01-8.01667E-04-9.48517E-02-8.09364E-14-3.36552E-13
 -1      4004 2.03889E+01 7.76353E-01-7.74118E-05-6.33455E-02-5.70490E-14-3.55325E-13
 -1      4005 2.03926E+01 8.02016E-01-2.58160E-03-9.63671E-03-4.63330E-14-3.63127E-13
 -1      4006 2.03917E+01 7.90359E-01-2.37375E-03-4.17036E-02-5.30244E-14-3.54847E-13
 -1      4007 2.04199E+01 6.16051E-01 3.73358E-03-2.80389E-02-3.75436E-14-3.59133E-13
 -1      4008 1.98804E+01 2.34507E-01 9.60028E-04-1.02986E-01-7.53024E-15-2.78480E-13
 -1      4009 1.54176E+01 6.89324E-01 4.43918E-02 1.77155E+00-2.08030E-13-3.78002E-13
 -1      4010 1.53948E+01 1.00367E+00-3.25445E-02 7.65556E-01-3.13170E-13 8.14704E-14
 -1      4011 1.61005E+01 1.08728E+00-7.07326E-03 6.23847E-01-2.18521E-13-8.97264E-15
 -1      4012 1.63230E+01 4.26056E-01 2.49696E-03 1.89009E+00-1.63087E-13-3.78915E-13
 -1      4013 2.03928E+01 7.89432E-01-1.64228E-03 4.54605E-02-5.42212E-15-3.61818E-13
 -1      4014 2.03927E+01 8.00322E-01-2.48900E-03 1.33165E-02-3.17070E-14-3.88238E-13
 -1      4015 2.04303E+01 6.31030E-01 5.13890E-03 4.67253E-03-1.23218E-14-3.49361E-13
 -1      4016 2.03968E+01 4.87341E-01 1.72102E-04 2.71434E-02 5.08278E-14-2.57813E-13
 -1      4017 2.03737E+01 5.11084E-01-2.22512E-03 4.32377E-02 5.38418E-14-2.49998E-13
 -1      4018 2.02592E+01-4.48103E-02-5.89708E-05-1.02674E-01 1.08185E-14-2.56885E-13
 -1      4019 2.02805E+01-1.75539E-02 6.58638E-04-9.87341E-02 2.43865E-14-2.57350E-13
 -1      4020 1.88713E+01-6.39239E-01 6.50826E-03 2.20626E+00 2.20915E-13 1.16582E-14
 -1      4021 2.03008E+01 1.76935E-02-3.46132E-04-9.46516E-02 4.70909E-14-2.46724E-13
 -1      4022 2.03224E+01 6.34942E-02 8.15899E-04-8.28523E-02 6.87313E-14-2.42233E-13
 -1      4023 2.03174E+01 6.22264E-03-4.46482E-04-7.84712E-02 3.01487E-14-2.12990E-13
 -1      4024 2.03764E+01 6.38714E-01 1.79074E-03 9.42720E-02 5.24688E-14-2.63736E-13
 -1      4025 2.03090E+01-5.18779E-02 3.27865E-04 4.48532E-02-6.32180E-15-1.42546E-13
 -1      4026 2.02861E+01-7.25003E-02 3.13878E-04 4.66820E-02-3.25035E-14-1.24651E-13
 -1      4027 2.02622E+01-8.71654E-02 2.88138E-04 4.46543E-02-7.43361E-14-1.37556E-13
 -1      4028 2.02399E+01-9.59181E-02 2.31888E-04 4.40799E-02-7.59953E-14-1.80115E-13
 -1      4029 2.02828E+01-8.06989E-02-8.57200E-04 2.54123E-02-5.47780E-14-1.40811E-13
 -1      4030 2.02175E+01-1.00216E-01 2.91130E-04 4.24447E-02-5.22637E-14-1.71484E-13
 -1      4031 2.01978E+01-1.00882E-01 4.44370E-04 4.08565E-02-2.26787E-14-1.32577E-13
 -1      4032 2.02353E+01-9.95201E-02-7.77586E-04 2.42421E-02-5.47494E-14-1.32710E-13
 -1      4033 2.01768E+01-9.87010E-02 1.96080E-04 3.81743E-02-3.36184E-14-1.26372E-13
 -1      4034 2.01590E+01-9.34381E-02 3.69713E-04 3.61679E-02-3.20135E-14-1.73066E-13
 -1      4035 2.01937E+01-1.02946E-01-8.55175E-04 2.15347E-02-3.77198E-14-1.43380E-13
 -1      4036 2.01404E+01-8.61995E-02 1.75677E-04 3.40418E-02-4.17780E-14-2.20678E-13
 -1      4037 2.01245E+01-7.69054E-02 3.34625E-04 3.21720E-02-3.51821E-15-2.60873E-13
 -1      4038 2.01545E+01-9.26572E-02-8.38738E-04 1.93943E-02-4.90391E-14-1.75293E-13
 -1      4039 2.01078E+01-6.62981E-02 8.05401E-05 3.04313E-02-2.23432E-14-3.17003E-13
 -1      4040 2.00935E+01-5.39880E-02 2.17437E-04 2.90088E-02-1.05492E-13-3.23303E-13
 -1      4041 2.01202E+01-7.36666E-02-5.20249E-04 1.75617E-02-6.95343E-14-2.71075E-13
 -1      4042 2.00783E+01-4.04825E-02 1.32177E-05 2.81463E-02-1.14225E-13-2.57317E-13
 -1      4043 2.00655E+01-2.56772E-02 2.41541E-04 2.76455E-02-6.86261E-14-2.27112E-13
 -1      4044 2.00886E+01-4.82109E-02-3.24264E-04 1.61612E-02-6.24782E-14-2.36703E-13
 -1      4045 2.00506E+01-9.89872E-03-1.13879E-04 2.71808E-02-5.78195E-15-1.98600E-13
 -1      4046 2.00380E+01 7.43810E-03 1.83092E-04 2.78766E-02 8.15114E-14-1.89229E-13
 -1      4047 2.00601E+01-1.79889E-02-1.54411E-04 1.53814E-02 3.36597E-14-1.60296E-13
 -1      4048 2.00228E+01 2.57186E-02-2.23150E-04 2.84194E-02 1.20348E-13-1.81121E-13
 -1      4049 2.00097E+01 4.56857E-02 1.34667E-04 3.06065E-02 1.14778E-13-1.66039E-13
 -1      4050 2.00313E+01 1.78935E-02 6.37923E-05 1.60856E-02 8.99655E-14-2.18213E-13
 -1      4051 1.99929E+01 6.66415E-02-3.69508E-04 3.23073E-02 6.35936E-14-1.36787E-13
 -1      4052 1.99782E+01 8.95780E-02 8.95324E-05 3.63359E-02 6.58875E-14-1.51029E-13
 -1      4053 2.00011E+01 5.93064E-02 3.67062E-04 1.84014E-02 9.86976E-14-1.54040E-13
 -1      4054 1.99585E+01 1.13567E-01-5.46799E-04 3.95197E-02 9.41594E-14-1.57493E-13
 -1      4055 1.99411E+01 1.39867E-01 5.41800E-05 4.58336E-02 1.15437E-13-1.13402E-13
 -1      4056 1.99667E+01 1.06949E-01 7.16811E-04 2.28288E-02 6.89346E-14-1.83567E-13
 -1      4057 1.99169E+01 1.67215E-01-7.63643E-04 5.09726E-02 1.01665E-13-1.60683E-13
 -1      4058 1.98956E+01 1.97200E-01 3.64169E-05 6.01552E-02 8.56534E-14-9.64166E-14
 -1      4059 1.99256E+01 1.61662E-01 1.11890E-03 3.01093E-02 9.19820E-14-2.20924E-13
 -1      4060 1.98652E+01 2.28069E-01-1.03048E-03 6.79284E-02 1.47086E-13-3.93388E-14
 -1      4061 1.98387E+01 2.61828E-01 4.90069E-05 8.07613E-02 1.77771E-13 2.86398E-14
 -1      4062 1.98745E+01 2.24165E-01 1.58117E-03 4.13080E-02 1.39196E-13-2.59532E-13
 -1      4063 1.98003E+01 2.96033E-01-1.35966E-03 9.21432E-02 5.58603E-14 5.52335E-15
 -1      4064 1.97674E+01 3.33231E-01 1.12317E-04 1.09687E-01 5.69859E-15-3.63241E-14
 -1      4065 1.98100E+01 2.94750E-01 2.10890E-03 5.79759E-02 1.00352E-13-2.56510E-13
 -1      4066 1.97189E+01 3.70008E-01-1.76597E-03 1.26067E-01 3.62995E-14-1.10324E-13
 -1      4067 1.96786E+01 4.09627E-01 2.57711E-04 1.49770E-01-2.28370E-14-7.33322E-14
 -1      4068 1.97284E+01 3.72894E-01 2.70273E-03 8.23688E-02-3.76363E-14-2.37850E-13
 -1      4069 1.96178E+01 4.47338E-01-2.26725E-03 1.73114E-01-1.01434E-13 1.40489E-14
 -1      4070 1.95697E+01 4.87370E-01 5.32039E-04 2.04956E-01-1.01403E-13 1.85891E-14
 -1      4071 1.96259E+01 4.56773E-01 3.35684E-03 1.17746E-01 1.31011E-14-2.60749E-13
 -1      4072 1.94945E+01 5.23132E-01-2.88546E-03 2.38017E-01-1.34943E-13 2.56647E-14
 -1      4073 1.94388E+01 5.60190E-01 1.00366E-03 2.80704E-01-9.91481E-14-1.92653E-14
 -1      4074 1.94987E+01 5.42652E-01 4.05754E-03 1.68770E-01-8.40640E-14-8.64934E-14
 -1      4075 1.93474E+01 5.89433E-01-3.64821E-03 3.27300E-01-1.65920E-14-6.17754E-14
 -1      4076 1.92857E+01 6.18295E-01 1.77034E-03 3.84507E-01 3.28066E-15-1.07792E-14
 -1      4077 1.93433E+01 6.24139E-01 4.78150E-03 2.42038E-01-4.35979E-14-1.91026E-13
 -1      4078 1.91764E+01 6.34226E-01-4.59171E-03 4.49870E-01-6.03784E-14 9.07530E-14
 -1      4079 1.91124E+01 6.47308E-01 2.96837E-03 5.26535E-01-9.96282E-15 6.04023E-14
 -1      4080 1.91571E+01 6.91297E-01 5.48976E-03 3.46778E-01 4.34280E-15-9.47333E-14
 -1      4081 1.89846E+01 6.40280E-01-5.76579E-03 6.17771E-01 6.05556E-14-3.94484E-14
 -1      4082 1.89255E+01 6.26973E-01 4.78172E-03 7.20398E-01 1.20068E-14 8.81611E-15
 -1      4083 1.89388E+01 7.29559E-01 6.10252E-03 4.95755E-01-6.31622E-14-1.03522E-13
 -1      4084 1.87798E+01 5.83721E-01-7.22890E-03 8.47111E-01-1.24423E-13-4.29125E-14
 -1      4085 1.87381E+01 5.29534E-01 7.51411E-03 9.83871E-01-1.85336E-13 1.17535E-14
 -1      4086 1.86896E+01 7.18293E-01 6.40269E-03 7.06474E-01-7.16130E-14-2.76153E-13
 -1      4087 1.85784E+01 4.30788E-01-9.20168E-03 1.15880E+00-2.46897E-13 2.78716E-15
 -1      4088 1.85698E+01 3.13920E-01 9.20667E-03 1.34010E+00-2.68623E-13-6.73545E-14
 -1      4089 1.84139E+01 6.28152E-01 5.62295E-03 1.00292E+00-2.31638E-13-2.30511E-13
 -1      4090 1.84059E+01 1.51133E-01-9.13182E-03 1.56787E+00-1.56963E-13 5.29177E-14
 -1      4091 1.84397E+01-7.07331E-02 4.04249E-03 1.82217E+00 6.13329E-14 1.21650E-13
 -1      4092 1.81368E+01 4.04894E-01 1.71403E-03 1.41184E+00-7.11701E-14-2.80422E-14
 -1      4093 1.95517E+01 5.30779E-01-1.84038E-03-1.34890E-01-6.88154E-14-3.02074E-13
 -1      4094 1.96189E+01 4.78042E-01-1.24180E-03-1.22635E-01-9.39665E-14-3.20772E-13
 -1      4095 1.99521E+01 1.29934E-01-1.02445E-04-5.48449E-02 1.88087E-14-6.92318E-15
 -1      4096 1.99687E+01 1.03876E-01-4.26843E-04-4.90377E-02 3.33894E-14 2.99822E-14
 -1      4097 1.96799E+01 4.27555E-01-1.23896E-03-1.17701E-01-1.12758E-13-3.31221E-13
 -1      4098 1.97303E+01 3.80495E-01-1.06859E-03-1.05175E-01-6.40850E-14-4.02287E-13
 -1      4099 1.96353E+01 4.66722E-01 3.28344E-03-6.73785E-02-1.06289E-13-2.72045E-13
 -1      4100 1.97776E+01 3.36195E-01-8.06458E-04-9.91742E-02 5.43186E-14-3.51493E-13
 -1      4101 1.98152E+01 2.95025E-01-8.92435E-04-8.76274E-02 7.26641E-14-2.94806E-13
 -1      4102 1.97422E+01 3.71364E-01 2.54934E-03-6.20891E-02 2.07438E-14-2.63605E-13
 -1      4103 1.93840E+01 6.44558E-01-2.67411E-03-1.46866E-01 1.01300E-13-3.48194E-13
 -1      4104 1.94733E+01 5.87097E-01-1.40057E-03-1.36883E-01-9.12074E-15-3.74075E-13
 -1      4105 1.94968E+01 5.72323E-01 4.13424E-03-6.66644E-02 9.28508E-15-3.25067E-13
 -1      4106 1.91659E+01 7.65695E-01-3.82623E-03-1.47845E-01-1.64141E-13-1.36268E-13
 -1      4107 1.92840E+01 7.05537E-01-1.53644E-03-1.43090E-01 2.67168E-14-2.02741E-13
 -1      4108 1.93184E+01 6.85632E-01 5.11390E-03-5.46590E-02-5.28840E-14-3.05284E-13
 -1      4109 1.88832E+01 8.88373E-01-5.42001E-03-1.29716E-01 1.93119E-14-2.27580E-13
 -1      4110 1.90389E+01 8.29013E-01-1.65406E-03-1.34240E-01-1.00155E-13-2.11122E-13
 -1      4111 1.90902E+01 8.01862E-01 6.24028E-03-2.36794E-02-1.15103E-13-3.96268E-13
 -1      4112 1.85172E+01 1.00333E+00-7.64333E-03-8.17477E-02 1.29948E-13-1.60223E-13
 -1      4113 1.87226E+01 9.50175E-01-1.78818E-03-1.00696E-01 1.37576E-13-1.19203E-13
 -1      4114 1.87995E+01 9.13271E-01 7.54682E-03 3.70438E-02 4.36135E-14-4.51206E-13
 -1      4115 1.80419E+01 1.09704E+00-1.07910E-02 9.40519E-03-3.72039E-14-1.55637E-16
 -1      4116 1.83137E+01 1.05787E+00-2.01831E-03-2.98627E-02 2.55045E-14-3.79027E-14
 -1      4117 1.84299E+01 1.00843E+00 9.10930E-03 1.42221E-01-2.22432E-14-2.04510E-13
 -1      4118 1.74188E+01 1.15180E+00-1.46526E-02 1.59397E-01 1.22031E-14 1.53000E-13
 -1      4119 1.77815E+01 1.13685E+00-2.38039E-03 9.37985E-02 7.40196E-15 1.09219E-13
 -1      4120 1.79587E+01 1.07171E+00 1.11666E-02 3.11786E-01-4.63680E-14-5.87165E-14
 -1      4121 1.65800E+01 1.13849E+00-2.29668E-02 3.89009E-01-6.68032E-14 1.19016E-13
 -1      4122 1.70784E+01 1.15736E+00-5.19903E-03 2.86082E-01 3.80735E-14 1.71720E-13
 -1      4123 1.73486E+01 1.08389E+00 1.43081E-02 5.69963E-01 1.39347E-14 1.33254E-13
 -1      4124 1.99870E+01 7.99878E-02 2.47394E-05-4.62751E-02 5.53894E-14-2.32927E-14
 -1      4125 2.00006E+01 5.76509E-02-3.02683E-04-4.24617E-02 6.70362E-14 4.04286E-14
 -1      4126 1.99756E+01 9.66234E-02 5.42311E-04-3.33038E-02 2.65833E-14-8.02434E-15
 -1      4127 2.03485E+01 1.03496E+00 1.76241E-03-1.49328E-01-1.03212E-13-3.49703E-13
 -1      4128 2.00162E+01 3.71833E-02 1.25261E-04-4.09543E-02 6.18375E-14 5.86564E-14
 -1      4129 2.00282E+01 1.79640E-02-1.91400E-04-3.89765E-02 7.46587E-14 1.06217E-13
 -1      4130 2.00080E+01 5.00574E-02 2.09235E-04-2.95625E-02 9.23582E-14 1.43644E-14
 -1      4131 2.04213E+01 4.67696E-01-7.51093E-04-4.82272E-03-4.59511E-14-3.49414E-13
 -1      4132 2.03387E+01 1.20746E-01-6.99257E-04-7.22583E-02 7.17920E-14-2.41352E-13
 -1      4133 2.03582E+01 1.92463E-01 1.06817E-03-4.89337E-02 6.99023E-14-2.33801E-13
 -1      4134 2.03874E+01 2.63121E-01 3.19308E-04-2.69321E-02 5.37992E-14-2.20868E-13
 -1      4135 1.80673E+01-3.25918E-01 1.48821E-03 2.24036E+00 2.17393E-13 1.72483E-13
 -1      4136 1.71706E+01 9.45697E-02 3.83060E-02 2.23752E+00-1.95026E-15-1.70420E-13
 -1      4137 1.66163E+01 4.79005E-01-3.13671E-02 1.67777E+00-6.41735E-14-2.46471E-13
 -1      4138 1.81631E+01-1.92227E-01-1.89161E-02 2.01764E+00 1.75314E-13 1.56786E-13
 -1      4139 2.04197E+01 2.89709E-01 5.02070E-04 7.79854E-03-3.38535E-14-3.18949E-13
 -1      4140 2.04067E+01 1.98987E-01-7.30079E-04 2.69001E-02-5.29086E-14-3.04406E-13
 -1      4141 2.03540E+01 7.94699E-01-1.62063E-03 1.37832E-01 4.42428E-14-2.80762E-13
 -1      4142 2.00426E+01 3.37934E-04 1.98198E-04-3.86688E-02 2.93996E-14 1.16904E-13
 -1      4143 2.00542E+01-1.61376E-02-5.74727E-05-3.83365E-02 6.26732E-14 9.56070E-14
 -1      4144 2.00368E+01 9.97629E-03-6.79523E-05-2.77183E-02 5.80082E-14 6.27994E-15
 -1      4145 2.02377E+01-6.43852E-02 4.79584E-04-1.02180E-01 2.45696E-14-2.71489E-13
 -1      4146 2.02736E+01-5.37703E-02-5.11482E-04-8.40982E-02 3.28888E-14-2.31541E-13
 -1      4147 2.02182E+01-7.83104E-02 1.86727E-04-1.01248E-01 6.97489E-14-2.15495E-13
 -1      4148 2.03948E+01 1.23859E-01 5.86878E-04 2.96194E-02-5.65875E-14-2.72888E-13
 -1      4149 2.03755E+01 6.28917E-02 2.38503E-05 4.00684E-02-6.11012E-14-2.63110E-13
 -1      4150 2.04098E+01 1.69724E-01-6.64656E-04 1.58421E-02-2.78921E-14-3.05233E-13
 -1      4151 2.03743E+01 7.85156E-01-3.47116E-04 1.04268E-01 3.30562E-14-2.92689E-13
 -1      4152 1.99083E+01 1.88383E-01-2.69372E-04-6.67310E-02-2.80711E-14-1.05771E-13
 -1      4153 1.99297E+01 1.57918E-01-5.66945E-04-5.88554E-02 3.27212E-14-7.85260E-15
 -1      4154 1.99366E+01 1.50820E-01 9.30639E-04-3.89197E-02 8.27861E-14-1.48294E-14
 -1      4155 1.98518E+01 2.56729E-01-4.95203E-04-8.17274E-02 4.35239E-14-2.10996E-13
 -1      4156 1.98799E+01 2.21185E-01-7.23099E-04-7.18571E-02-1.31915E-14-1.76571E-13
 -1      4157 1.98875E+01 2.13932E-01 1.38562E-03-4.61342E-02 3.85317E-14-1.04787E-13
 -1      4158 1.98243E+01 2.87161E-01 1.92077E-03-5.42812E-02 1.30820E-13-1.59141E-13
 -1      4159 2.03546E+01 1.42576E-02 2.76454E-04 4.05217E-02-2.80732E-14-2.18046E-13
 -1      4160 2.03326E+01-2.30996E-02 2.11545E-04 4.58276E-02 6.36359E-17-1.62192E-13
 -1      4161 2.03297E+01-3.65089E-02-1.08155E-03 2.46322E-02-3.51297E-15-1.74534E-13
 -1      4162 2.03745E+01 4.29988E-02-9.24431E-04 2.14476E-02-1.03046E-14-2.40848E-13
 -1      4163 2.04257E+01 4.21949E-01-1.30403E-03-2.02166E-03-2.89828E-14-3.40734E-13
 -1      4164 1.77448E+01 2.53660E-01 2.30535E-02 1.81699E+00 1.09093E-13 1.33297E-13
 -1      4165 2.00643E+01-2.43424E-02-1.08758E-04-2.75871E-02 3.85818E-14 7.15535E-14
 -1      4166 2.00682E+01-3.13340E-02 1.88113E-04-3.90791E-02 1.84051E-14 7.13624E-14
 -1      4167 2.00802E+01-4.53433E-02-3.87375E-05-4.01761E-02-3.29706E-14 6.61851E-14
 -1      4168 2.00935E+01-6.21832E-02-3.12501E-04-5.53501E-02-9.50674E-14 6.22101E-14
 -1      4169 1.65455E+01 1.02028E+00 3.46324E-02 9.86714E-01-7.12796E-14-1.18904E-13
 -1      4170 2.01904E+01-9.71107E-02-6.75887E-04-7.72932E-02-2.00555E-14-1.22296E-13
 -1      4171 2.01802E+01-9.19641E-02 2.83312E-04-9.46944E-02 3.37652E-14-1.93358E-13
 -1      4172 2.01971E+01-8.71584E-02 2.69214E-04-9.83313E-02 7.64289E-14-1.85933E-13
 -1      4173 2.03797E+01 7.89776E-01-2.37917E-03 7.45460E-02 1.51441E-14-3.13494E-13
 -1      4174 2.01250E+01-7.92630E-02 3.60906E-04-4.62897E-02-6.66494E-14 9.59195E-14
 -1      4175 2.01401E+01-8.76055E-02 1.90902E-04-4.90257E-02-8.35513E-14 4.07468E-14
 -1      4176 2.04117E+01 6.33109E-01 3.06962E-03 4.39361E-02 1.57404E-14-3.03949E-13
 -1      4177 2.04116E+01 4.81343E-01-2.03495E-03 8.85318E-03 2.54713E-14-2.91583E-13
 -1      4178 2.03579E+01 1.06449E-01-2.79158E-04-6.13504E-02 6.16803E-14-2.27057E-13
 -1      4179 2.04277E+01 4.19711E-01-1.95839E-03-3.25767E-03-1.60276E-14-3.19948E-13
 -1      4180 2.04314E+01 2.54919E-01 2.93182E-03 1.01972E-03-1.32190E-14-3.03626E-13
 -1      4181 2.04257E+01 4.22420E-01-1.29678E-03 2.91811E-03 1.86663E-15-2.98305E-13
 -1      4182 2.02823E+01-6.50445E-02 1.15246E-04-6.53510E-02 4.26067E-14-1.82131E-13
 -1      4183 2.03056E+01-4.19224E-02 6.45878E-04-6.29963E-02 5.10857E-14-1.73602E-13
 -1      4184 2.04054E+01 2.12899E-01 5.23721E-06-2.94902E-02 3.42859E-14-2.43644E-13
 -1      4185 2.04196E+01 3.05509E-01 1.34352E-03-5.87147E-03 3.07887E-14-2.52468E-13
 -1      4186 2.03306E+01-2.45650E-02-1.13224E-03-4.39424E-02 6.03137E-14-1.18340E-13
 -1      4187 2.03273E+01-1.13021E-02-1.08912E-04-6.30215E-02 3.41614E-14-1.51986E-13
 -1      4188 2.03509E+01 2.91773E-02 7.07372E-04-5.60162E-02 3.90465E-14-1.74575E-13
 -1      4189 2.01573E+01-9.45062E-02-9.04047E-04-3.58066E-02-1.03876E-13 4.99464E-14
 -1      4190 2.01587E+01-9.40504E-02 3.90710E-04-5.20060E-02-7.95279E-14-5.84808E-16
 -1      4191 2.01769E+01-9.83045E-02 5.02011E-04-5.52675E-02-7.21807E-14-4.95055E-14
 -1      4192 1.96100E+01 4.58918E-01-2.91289E-03 1.81912E-02-1.18791E-14-2.45029E-13
 -1      4193 1.96729E+01 4.13254E-01-1.29645E-03 1.57712E-02-7.22759E-14-1.71888E-13
 -1      4194 2.02531E+01-9.72684E-02 4.95721E-04 5.20316E-03-4.74798E-14-9.21829E-14
 -1      4195 2.02312E+01-1.02637E-01 7.38906E-04 4.32691E-03 7.84346E-16-5.99737E-14
 -1      4196 2.01994E+01-1.02120E-01 2.34790E-04-8.13041E-03-6.20222E-14-1.01857E-13
 -1      4197 2.01798E+01-9.85686E-02 6.03986E-04-7.89141E-03-7.46619E-14-8.05490E-14
 -1      4198 2.01613E+01-9.26566E-02 5.56212E-04-7.01785E-03-8.64714E-14-9.78200E-14
 -1      4199 2.01426E+01-8.49838E-02 4.83078E-04-7.20823E-03-8.08812E-14-9.76030E-14
 -1      4200 2.00989E+01-5.51606E-02 2.10936E-04 3.25570E-03 6.06750E-16-1.97863E-13
 -1      4201 2.00837E+01-4.15230E-02 2.01019E-04 2.79793E-03 4.80040E-14-1.41790E-13
 -1      4202 2.00636E+01-2.12573E-02 5.70965E-05-6.07190E-03 2.20362E-14-8.74597E-14
 -1      4203 2.00492E+01-4.44972E-03 7.99835E-05-5.76011E-03 6.21302E-14-9.62647E-14
 -1      4204 2.00347E+01 1.36543E-02-2.85063E-05-6.22947E-03 9.09359E-14-9.02178E-14
 -1      4205 2.00195E+01 3.30942E-02-5.43382E-05-5.58362E-03 1.00845E-13-1.18746E-13
 -1      4206 2.00037E+01 5.39681E-02-2.51498E-04-6.65308E-03 7.62692E-14-1.22297E-13
 -1      4207 1.99870E+01 7.65065E-02-2.22397E-04-5.43233E-03 4.26724E-14-8.59991E-14
 -1      4208 1.99686E+01 1.00584E-01-5.24276E-04-7.08698E-03 5.00278E-14-1.08940E-13
 -1      4209 1.99491E+01 1.26722E-01-4.10589E-04-5.02527E-03 6.17129E-14-1.75014E-13
 -1      4210 1.99263E+01 1.54536E-01-8.47880E-04-7.13526E-03 5.12928E-14-1.58438E-13
 -1      4211 1.99025E+01 1.84791E-01-6.17211E-04-3.85897E-03 1.26264E-13-1.84811E-13
 -1      4212 1.98735E+01 2.16860E-01-1.23344E-03-6.12201E-03 1.42205E-13-2.45921E-13
 -1      4213 1.98438E+01 2.51658E-01-8.39819E-04-1.07272E-03 1.24460E-13-2.31667E-13
 -1      4214 1.98063E+01 2.88357E-01-1.69507E-03-2.92395E-03 1.24004E-13-2.09325E-13
 -1      4215 1.97688E+01 3.27875E-01-1.07111E-03 4.73596E-03 4.68350E-14-1.68186E-13
 -1      4216 1.97202E+01 3.69277E-01-2.24880E-03 4.25512E-03-6.06571E-14-1.43700E-13
 -1      4217 1.95511E+01 5.06406E-01-1.49165E-03 3.53917E-02 4.96334E-14-2.55145E-13
 -1      4218 1.94699E+01 5.55115E-01-3.70935E-03 4.30451E-02 1.80884E-15-2.93827E-13
 -1      4219 1.93976E+01 6.04179E-01-1.62084E-03 6.85737E-02-7.91336E-14-2.64454E-13
 -1      4220 1.92937E+01 6.53613E-01-4.66734E-03 8.48809E-02-8.66299E-14-2.67968E-13
 -1      4221 1.92063E+01 7.00969E-01-1.63439E-03 1.22501E-01 2.51535E-14-2.61282E-13
 -1      4222 1.90742E+01 7.47311E-01-5.82973E-03 1.52316E-01 7.07095E-14-4.29212E-13
 -1      4223 1.89706E+01 7.87914E-01-1.46535E-03 2.07301E-01 2.46756E-15-3.41249E-13
 -1      4224 1.88033E+01 8.25396E-01-7.26226E-03 2.57342E-01-6.74943E-14-1.89747E-13
 -1      4225 1.86833E+01 8.51970E-01-1.01600E-03 3.36982E-01-4.56660E-14-3.68035E-13
 -1      4226 1.84716E+01 8.72378E-01-9.04733E-03 4.16433E-01-1.02485E-13-2.08460E-13
 -1      4227 1.83365E+01 8.74863E-01-8.41932E-05 5.30695E-01-1.11304E-13-3.02660E-13
 -1      4228 1.80677E+01 8.67106E-01-1.11406E-02 6.52310E-01-1.08366E-13-2.21241E-13
 -1      4229 1.79219E+01 8.31310E-01 1.74301E-03 8.16143E-01-1.30623E-13-1.54220E-13
 -1      4230 1.75742E+01 7.93004E-01-9.63409E-03 1.00044E+00-4.86201E-14-6.40490E-14
 -1      4231 1.73850E+01 6.68540E-01-8.20161E-03 1.22612E+00 1.22905E-13 3.33566E-14
 -1      4232 2.00952E+01-5.78502E-02 3.01692E-04-4.16843E-02-6.99821E-14 8.80796E-14
 -1      4233 2.01085E+01-6.93540E-02 1.16604E-04-4.37145E-02-5.76169E-14 8.34606E-14
 -1      4234 2.00923E+01-5.30989E-02-2.63060E-04-2.89187E-02-1.55624E-14 1.38787E-15
 -1      4235 1.70763E+01 6.49970E-01-7.75088E-03 1.35664E+00 1.06089E-13-1.66525E-14
 -1      4236 2.01231E+01-7.75597E-02-7.37723E-04-3.22530E-02-9.51112E-14 6.71709E-14
 -1      4237 2.02598E+01-8.11220E-02 5.43624E-04-6.31502E-02 1.40743E-14-1.66541E-13
 -1      4238 2.02845E+01-7.43502E-02-1.08873E-03-4.54550E-02 1.84923E-14-6.83532E-14
 -1      4239 2.02297E+01-8.49427E-02-6.14405E-04-8.25373E-02 1.88572E-14-2.16123E-13
 -1      4240 2.04139E+01 1.68330E-01-7.88061E-04 1.85831E-03-1.78496E-15-2.95821E-13
 -1      4241 2.03703E+01 7.64391E-02-4.14593E-04-4.90741E-02 2.22886E-14-2.02590E-13
 -1      4242 2.03899E+01 1.39160E-01-1.29789E-04-3.56709E-02 1.76076E-14-2.24494E-13
 -1      4243 2.04112E+01 1.77398E-01-7.43782E-04-1.48653E-02 1.40065E-14-2.32607E-13
 -1      4244 2.03747E+01 5.79666E-02-7.95021E-04-3.26223E-02 2.61414E-14-1.96406E-13
 -1      4245 2.04024E+01 1.05322E-01 1.59871E-03-2.45408E-03 3.74134E-15-2.64355E-13
 -1      4246 2.02911E+01-7.71229E-02 4.80126E-04-9.69207E-03-1.80550E-14-1.03270E-13
 -1      4247 2.02663E+01-9.09209E-02 4.08094E-04-9.07660E-03-4.76149E-14-4.36553E-14
 -1      4248 2.01258E+01-7.51126E-02 3.87659E-04-6.46366E-03-8.08813E-14-1.05795E-13
 -1      4249 2.02069E+01-1.02452E-01-8.18153E-04-2.68364E-02-7.99121E-14-1.50528E-14
 -1      4250 2.03388E+01-3.01336E-02 5.23146E-04-9.82291E-03 2.61272E-14-1.37893E-13
 -1      4251 2.03149E+01-5.78254E-02 8.63498E-04-8.46443E-03 7.37420E-15-1.23110E-13
 -1      4252 2.01089E+01-6.38532E-02 2.82059E-04-6.60364E-03-6.41536E-14-1.01417E-13
 -1      4253 2.02385E+01-9.11685E-02 4.19050E-04-6.22337E-02-6.46067E-15-1.49475E-13
 -1      4254 2.00702E+01-2.90272E-02-1.36591E-04-1.87750E-02 1.72604E-14-7.99640E-14
 -1      4255 2.02520E+01-9.65191E-02-6.83492E-04-3.03119E-02-5.92889E-15-1.06542E-15
 -1      4256 2.03617E+01 5.33423E-03 9.56905E-04-7.10759E-03 3.44401E-14-1.78815E-13
 -1      4257 2.03820E+01 5.18769E-02 7.70648E-05-9.59405E-03 1.91282E-14-2.12224E-13
 -1      4258 2.02084E+01-1.00214E-01 3.51812E-06-4.58103E-02-6.27817E-14-2.70385E-14
 -1      4259 2.02288E+01-9.68278E-02 3.00390E-04-4.76546E-02-3.49002E-14-1.10293E-13
 -1      4260 2.00995E+01-5.80627E-02-2.63669E-04-2.02899E-02-9.01873E-15-1.77215E-14
 -1      4261 2.00843E+01-4.38314E-02 6.39566E-05-1.93351E-02 4.77618E-14-3.76449E-14
 -3
    1PSTEP                         3           1           1          
  100CL  101 1.000000000        4261                     0    1           1
 -4  TOSTRAIN    6    1
 -5  EXX         1    4    1    1
 -5  EYY         1    4    2    2
 -5  EZZ         1    4    3    3
 -5  EXY         1    4    1    2
 -5  EYZ         1    4    2    3
 -5  EZX         1    4    3    1
 -1         1 3.27630E-04-1.01296E-04-8.37666E-05-1.77640E-06-2.20229E-20 9.93583E-19
 -1         2 4.39663E-05-1.34397E-04 2.44398E-05 2.07840E-07 2.80750E-18 2.00318E-18
 -1         3 9.48339E-05-2.90072E-05-2.79854E-05-6.12745E-07-2.78803E-18-2.84139E-18
 -1         4 9.53000E-05-2.85003E-05-2.85858E-05-1.54017E-07 1.47838E-18 4.01757E-19
 -1         5 1.43348E-04-2.14783E-05-4.25290E-05 3.85311E-05-2.31822E-19 1.88678E-17
 -1         6 1.45409E-04 2.57581E-10-4.41881E-05-5.35261E-05-1.03243E-18 2.14181E-17
 -1         7 9.06114E-05-5.11293E-07-3.90691E-05-2.92509E-05-1.52466E-19 5.73388E-18
 -1         8 8.51276E-05 8.63680E-08-3.63399E-05-2.02692E-05-2.60939E-19 3.97366E-19
 -1         9 8.28173E-05 7.59852E-08-3.53517E-05-1.56370E-05-2.50695E-19-2.66113E-18
 -1        10 8.17717E-05 3.96828E-08-3.48818E-05-1.20754E-05-1.93865E-19-4.31312E-18
 -1        11 8.12522E-05 1.93028E-08-3.46528E-05-9.01171E-06-1.46434E-19-5.19640E-18
 -1        12 8.09820E-05 9.15684E-09-3.45378E-05-6.28224E-06-8.95622E-20-5.70586E-18
 -1        13 8.08395E-05 4.62390E-09-3.44798E-05-3.68409E-06-7.68542E-20-5.92126E-18
 -1        14 8.07798E-05 2.78981E-09-3.44560E-05-1.18314E-06-1.01431E-20-6.09812E-18
 -1        15 8.07819E-05 2.77600E-09-3.44567E-05 1.28841E-06 4.51641E-21-6.19465E-18
 -1        16 8.08459E-05 4.55747E-09-3.44820E-05 3.79452E-06 4.35866E-20-6.21665E-18
 -1        17 8.09935E-05 8.43209E-09-3.45416E-05 6.40468E-06 4.59946E-20-6.12353E-18
 -1        18 8.12695E-05 1.81868E-08-3.46578E-05 9.15316E-06 1.04317E-19-5.86473E-18
 -1        19 8.17975E-05 3.81919E-08-3.48901E-05 1.22550E-05 1.53803E-19-5.28572E-18
 -1        20 8.28376E-05 8.14913E-08-3.53641E-05 1.58678E-05 2.06597E-19-4.02883E-18
 -1        21 8.50929E-05 1.69374E-07-3.63784E-05 2.04800E-05 2.55645E-19-1.28171E-18
 -1        22 9.16484E-05-9.98437E-08-3.87407E-05 2.79979E-05 4.82809E-20 4.67725E-18
 -1        23 1.12982E-04-3.81288E-05-3.53991E-05-4.40187E-06-6.89035E-19 1.77342E-17
 -1        24 9.28167E-05-2.77007E-05-2.90028E-05 3.91408E-07-1.93279E-19 1.43951E-17
 -1        25 8.91346E-05-2.68567E-05-2.69339E-05 3.75889E-07-1.11952E-19 1.09867E-17
 -1        26 8.80345E-05-2.64940E-05-2.63975E-05 2.04274E-07-3.71048E-20 8.49230E-18
 -1        27 8.80648E-05-2.64735E-05-2.63906E-05 1.40052E-07 5.78654E-21 6.97279E-18
 -1        28 8.86022E-05-2.66110E-05-2.65613E-05 1.01022E-07 1.29464E-20 6.22831E-18
 -1        29 8.93606E-05-2.68247E-05-2.67950E-05 7.53651E-08-8.29343E-20 5.54111E-18
 -1        30 9.01887E-05-2.70654E-05-2.70460E-05 5.70879E-08-3.44903E-20 4.34024E-18
 -1        31 9.10015E-05-2.73048E-05-2.72912E-05 4.33416E-08-6.19152E-20 3.22699E-18
 -1        32 9.17517E-05-2.75272E-05-2.75173E-05 3.26903E-08-9.30820E-20 2.19762E-18
 -1        33 9.24158E-05-2.77249E-05-2.77175E-05 2.43251E-08 2.34089E-19 1.91971E-18
 -1        34 9.29850E-05-2.78948E-05-2.78892E-05 1.77298E-08 3.68828E-20 1.94582E-18
 -1        35 9.34602E-05-2.80369E-05-2.80327E-05 1.25383E-08 5.96342E-20 8.93212E-19
 -1        36 9.38484E-05-2.81532E-05-2.81501E-05 8.47119E-09 2.95145E-20 4.91792E-19
 -1        37 9.41601E-05-2.82468E-05-2.82445E-05 5.30751E-09-1.93554E-19 3.89448E-19
 -1        38 9.44081E-05-2.83214E-05-2.83197E-05 2.87213E-09 6.66940E-20 8.70339E-20
 -1        39 9.46063E-05-2.83813E-05-2.83799E-05 1.03156E-09-2.44529E-19-4.65461E-19
 -1        40 9.47698E-05-2.84307E-05-2.84297E-05-3.06599E-10-4.28633E-20-6.69373E-19
 -1        41 9.49146E-05-2.84747E-05-2.84739E-05-1.19203E-09 4.19104E-20-5.10149E-19
 -1        42 9.50579E-05-2.85183E-05-2.85178E-05-1.62848E-09-2.42781E-19-1.94862E-18
 -1        43 9.52190E-05-2.85672E-05-2.85671E-05-1.56939E-09-2.27672E-19-2.08840E-18
 -1        44 9.54190E-05-2.86279E-05-2.86282E-05-9.13102E-10-1.84828E-20-1.18276E-18
 -1        45 9.56821E-05-2.87076E-05-2.87084E-05 5.00657E-10-2.26104E-19-1.69041E-18
 -1        46 9.60350E-05-2.88141E-05-2.88158E-05 2.89035E-09-2.28178E-19-2.75659E-18
 -1        47 9.65067E-05-2.89562E-05-2.89590E-05 6.52261E-09 1.34404E-19-1.46789E-18
 -1        48 9.71273E-05-2.91427E-05-2.91469E-05 1.16834E-08-8.14150E-20 1.53483E-20
 -1        49 9.79240E-05-2.93816E-05-2.93876E-05 1.86145E-08 3.23458E-19-9.34219E-19
 -1        50 9.89164E-05-2.96786E-05-2.96864E-05 2.73922E-08-3.60915E-20-1.73032E-18
 -1        51 1.00107E-04-3.00340E-05-3.00432E-05 3.77147E-08 3.15389E-19-3.78076E-19
 -1        52 1.01467E-04-3.04392E-05-3.04485E-05 4.85617E-08-3.55605E-19 1.30208E-18
 -1        53 1.02920E-04-3.08709E-05-3.08776E-05 5.77071E-08-1.40926E-19-1.21437E-19
 -1        54 1.04318E-04-3.12851E-05-3.12846E-05 6.11375E-08-1.44154E-19-1.07417E-18
 -1        55 1.05424E-04-3.16109E-05-3.15965E-05 5.26115E-08 2.03455E-19-3.73540E-19
 -1        56 1.05897E-04-3.17478E-05-3.17120E-05 2.39360E-08 1.86966E-19-1.39893E-18
 -1        57 1.05322E-04-3.15723E-05-3.15100E-05-3.30324E-08-8.92528E-22 7.42916E-19
 -1        58 1.03279E-04-3.09606E-05-3.08746E-05-1.21502E-07-3.96422E-19-7.65427E-19
 -1        59 9.94973E-05-2.98322E-05-2.97396E-05-2.32061E-07-1.20686E-20-1.16347E-18
 -1        60 9.40621E-05-2.82120E-05-2.81455E-05-3.35995E-07-1.92836E-19-3.75050E-19
 -1        61 8.75934E-05-2.62832E-05-2.62811E-05-3.87947E-07 1.97472E-19 1.38490E-19
 -1        62 8.12486E-05-2.43901E-05-2.44738E-05-3.45252E-07-3.02385E-19 1.66292E-18
 -1        63 7.64275E-05-2.29508E-05-2.31043E-05-1.99300E-07-1.68265E-19 1.29451E-18
 -1        64 7.42300E-05-2.22946E-05-2.24648E-05 5.48070E-09 2.36895E-19 1.09848E-18
 -1        65 7.49572E-05-2.25118E-05-2.26374E-05 1.90988E-07-6.33251E-19-3.99760E-20
 -1        66 7.80006E-05-2.34198E-05-2.34674E-05 2.92715E-07 1.35970E-18-7.13493E-20
 -1        67 8.22055E-05-2.46726E-05-2.46529E-05 2.97651E-07-4.19916E-20 9.03149E-20
 -1        68 8.64569E-05-2.59372E-05-2.58895E-05 2.43722E-07 4.89836E-20 1.98950E-18
 -1        69 9.00968E-05-2.70197E-05-2.69750E-05 1.86506E-07 1.19918E-19 1.41084E-19
 -1        70 9.29300E-05-2.78697E-05-2.78153E-05 1.50193E-07-5.38452E-19-1.76681E-18
 -1        71 9.48490E-05-2.84900E-05-2.83482E-05 9.44272E-08-3.42531E-20-1.39519E-18
 -1        72 1.02186E-04-3.05894E-05-3.41523E-05-1.92926E-06 3.07817E-19 1.66004E-17
 -1        73 9.25730E-05-2.75167E-05-2.89111E-05-3.33295E-07 2.05286E-19 1.16608E-17
 -1        74 8.91223E-05-2.67062E-05-2.69771E-05-1.25972E-07 1.08783E-19 7.94081E-18
 -1        75 8.80648E-05-2.64450E-05-2.64415E-05-9.56471E-08 1.00664E-19 5.17791E-18
 -1        76 8.80995E-05-2.64535E-05-2.64173E-05-7.66640E-08 6.02142E-20 3.28438E-18
 -1        77 8.86360E-05-2.66054E-05-2.65784E-05-6.26251E-08 8.77374E-20 2.10468E-18
 -1        78 8.93918E-05-2.68260E-05-2.68073E-05-5.18797E-08-7.62761E-20 1.80228E-18
 -1        79 9.02165E-05-2.70700E-05-2.70554E-05-4.30294E-08 1.81739E-19 7.12265E-19
 -1        80 9.10256E-05-2.73108E-05-2.72985E-05-3.54216E-08 9.15088E-20-1.59134E-18
 -1        81 9.17721E-05-2.75336E-05-2.75229E-05-2.87972E-08 1.12777E-19-2.24324E-18
 -1        82 9.24325E-05-2.77310E-05-2.77217E-05-2.30370E-08-7.75682E-20-2.72655E-18
 -1        83 9.29982E-05-2.79002E-05-2.78922E-05-1.80632E-08 6.86067E-20-2.65141E-18
 -1        84 9.34700E-05-2.80415E-05-2.80347E-05-1.38014E-08-1.15192E-20-2.97804E-18
 -1        85 9.38547E-05-2.81568E-05-2.81511E-05-1.01703E-08-7.12139E-20-3.01253E-18
 -1        86 9.41628E-05-2.82491E-05-2.82445E-05-7.07998E-09 2.85075E-20-4.10992E-18
 -1        87 9.44066E-05-2.83223E-05-2.83186E-05-4.43566E-09-7.04075E-20-4.18929E-18
 -1        88 9.46001E-05-2.83804E-05-2.83775E-05-2.14195E-09-1.76281E-19-5.00182E-18
 -1        89 9.47578E-05-2.84279E-05-2.84257E-05-1.07285E-10 4.14223E-19-6.94938E-18
 -1        90 9.48957E-05-2.84695E-05-2.84679E-05 1.75229E-09-6.65775E-19-7.40324E-18
 -1        91 9.50312E-05-2.85105E-05-2.85096E-05 3.50950E-09 2.69148E-19-7.52138E-18
 -1        92 9.51841E-05-2.85568E-05-2.85566E-05 5.22163E-09-4.01299E-20-7.04924E-18
 -1        93 9.53777E-05-2.86153E-05-2.86160E-05 6.92462E-09-6.08390E-20-6.59357E-18
 -1        94 9.56404E-05-2.86948E-05-2.86966E-05 8.62314E-09-3.00580E-19-6.89937E-18
 -1        95 9.60076E-05-2.88057E-05-2.88091E-05 1.02731E-08-5.23818E-20-4.83382E-18
 -1        96 9.65243E-05-2.89615E-05-2.89671E-05 1.17493E-08 2.05241E-19-4.15211E-18
 -1        97 9.72477E-05-2.91795E-05-2.91881E-05 1.27868E-08-4.42452E-19-3.49706E-18
 -1        98 9.82515E-05-2.94815E-05-2.94947E-05 1.28739E-08 3.15416E-19-3.30855E-18
 -1        99 9.96295E-05-2.98956E-05-2.99155E-05 1.10652E-08-1.35630E-19-6.37155E-18
 -1       100 1.01499E-04-3.04565E-05-3.04863E-05 5.66629E-09-2.53194E-19-5.23651E-18
 -1       101 1.04005E-04-3.12065E-05-3.12505E-05-6.25813E-09 3.22037E-19-6.05835E-18
 -1       102 1.07307E-04-3.21928E-05-3.22559E-05-2.95427E-08-1.62847E-19-6.46304E-18
 -1       103 1.11561E-04-3.34607E-05-3.35463E-05-7.14809E-08-1.60957E-20-5.23506E-18
 -1       104 1.16857E-04-3.50353E-05-3.51390E-05-1.41251E-07 5.81384E-21-2.25793E-18
 -1       105 1.23080E-04-3.68843E-05-3.69795E-05-2.45384E-07 4.23450E-19-2.14712E-18
 -1       106 1.29672E-04-3.88494E-05-3.88656E-05-3.73473E-07-7.95811E-19-3.09833E-18
 -1       107 1.35284E-04-4.05464E-05-4.03537E-05-4.67660E-07 2.50257E-19-4.83449E-18
 -1       108 1.37482E-04-4.12729E-05-4.07219E-05-3.85596E-07-3.46953E-20-7.26141E-18
 -1       109 1.33039E-04-4.00607E-05-3.91537E-05 7.62663E-08 1.51149E-19-4.41151E-18
 -1       110 1.19671E-04-3.61355E-05-3.52889E-05 9.63473E-07 2.25602E-19-6.23887E-18
 -1       111 9.93333E-05-2.99206E-05-2.99407E-05 1.80640E-06 4.83456E-19-6.02770E-18
 -1       112 8.02392E-05-2.38690E-05-2.51959E-05 1.71366E-06-4.57299E-19-3.56876E-18
 -1       113 7.27081E-05-2.13817E-05-2.32590E-05 4.13414E-07 3.27335E-19-7.33818E-18
 -1       114 8.00038E-05-2.36709E-05-2.48030E-05-1.06667E-06-2.85544E-19-1.07971E-17
 -1       115 9.50048E-05-2.84543E-05-2.83383E-05-1.58806E-06 7.06189E-19-1.06717E-17
 -1       116 1.07277E-04-3.23334E-05-3.14791E-05-1.11406E-06 4.81485E-19-9.48428E-18
 -1       117 1.11256E-04-3.35665E-05-3.26991E-05-3.18829E-07-2.41550E-19-9.35516E-18
 -1       118 1.07668E-04-3.24297E-05-3.19771E-05 3.01996E-07-2.09967E-19-4.68948E-18
 -1       119 1.00743E-04-3.02675E-05-3.03036E-05 5.71208E-07-3.15917E-20-4.87948E-18
 -1       120 9.55982E-05-2.85012E-05-2.88558E-05 2.28439E-07 1.14427E-18-4.59928E-18
 -1       121 9.50344E-05-2.77746E-05-2.90343E-05 4.09803E-08-2.86898E-18 6.83533E-19
 -1       122 9.32195E-05-2.19113E-05-3.09431E-05 4.39833E-07 1.96660E-18-3.29797E-20
 -1       123 8.99515E-05-1.09138E-05-3.41351E-05 7.90714E-07 4.55518E-18 1.61973E-18
 -1       124 8.57372E-05 3.22430E-06-3.81402E-05 1.00729E-06 7.92823E-19-3.06217E-19
 -1       125 8.15710E-05 1.71588E-05-4.19843E-05 9.19428E-07 2.79796E-18-1.04030E-18
 -1       126 7.88260E-05 2.63575E-05-4.44639E-05 4.57297E-07 8.96306E-19-1.98358E-20
 -1       127 7.84913E-05 2.74573E-05-4.47470E-05-2.59717E-07-1.87227E-18-5.81981E-19
 -1       128 8.08249E-05 1.96693E-05-4.26420E-05-8.45560E-07-4.40828E-18 3.19762E-19
 -1       129 8.49170E-05 5.98087E-06-3.88883E-05-1.04124E-06-2.77186E-18 6.96708E-19
 -1       130 8.93665E-05-8.94743E-06-3.46870E-05-8.61874E-07-2.46513E-18-7.55342E-19
 -1       131 9.30189E-05-2.12202E-05-3.11162E-05-4.95168E-07-4.52032E-18-1.53564E-18
 -1       132 9.53040E-05-2.89287E-05-2.87790E-05-1.56253E-07-4.95837E-18 1.91472E-18
 -1       133 9.63269E-05-3.23462E-05-2.76572E-05 9.77391E-08 7.68413E-18 1.30248E-18
 -1       134 9.63614E-05-3.24299E-05-2.75137E-05 2.39797E-07 9.40104E-18-8.04092E-19
 -1       135 9.58952E-05-3.07936E-05-2.78975E-05 3.01183E-07 3.04929E-18-7.56694E-19
 -1       136 9.53692E-05-2.90791E-05-2.83542E-05 1.83427E-07 1.48707E-18 5.67431E-19
 -1       137 3.20092E-05-1.07786E-04 1.94727E-05-2.87462E-05 7.44203E-18 2.25636E-18
 -1       138 1.06337E-05-4.76599E-05 6.24398E-06-2.55408E-05 3.97724E-18-1.68983E-19
 -1       139 1.13370E-05 9.66649E-06-1.35299E-05 1.86929E-05 2.62326E-18 1.69280E-18
 -1       140 6.82355E-05 2.72796E-05-3.88808E-05 8.68937E-05 3.94675E-18 5.25457E-18
 -1       141 1.75604E-04-9.06495E-06-6.28756E-05 1.27315E-04 3.98762E-18 6.49166E-18
 -1       142 2.81851E-04-6.80222E-05-7.85898E-05 1.02755E-04 1.37558E-18 6.05798E-18
 -1       143 3.36639E-04-1.02668E-04-8.53325E-05 2.44014E-05 6.96711E-19 4.91237E-18
 -1       144 3.08537E-04-8.83077E-05-8.09397E-05-6.29152E-05 7.98196E-19-2.69928E-18
 -1       145 2.15619E-04-3.74782E-05-6.71668E-05-1.10790E-04 2.93751E-18-6.11600E-18
 -1       146 1.05047E-04 1.09228E-05-4.62871E-05-9.78872E-05 4.64682E-18-6.87325E-18
 -1       147 2.85100E-05 2.06027E-05-2.34115E-05-4.45939E-05 8.40723E-18-7.69868E-18
 -1       148 5.27526E-06-1.63083E-05-2.44685E-06 8.92976E-06 9.51726E-18-5.96735E-18
 -1       149 1.82408E-05-7.74145E-05 1.46439E-05 3.43416E-05 7.13668E-18-2.55253E-18
 -1       150 3.74231E-05-1.18582E-04 2.24592E-05 1.76640E-05 4.57377E-18-1.37145E-18
 -1       151 3.70757E-05-1.15531E-04 2.16502E-05-1.26335E-05-4.62289E-18-1.42320E-18
 -1       152 1.89384E-05-7.18497E-05 1.27712E-05-2.75359E-05-6.19774E-18-8.27551E-19
 -1       153 5.23409E-06-1.09954E-05-3.74306E-06-4.30702E-06-4.66249E-18-2.44009E-18
 -1       154 2.47086E-05 2.70919E-05-2.38078E-05 4.74273E-05-6.25576E-18-5.97836E-18
 -1       155 8.91410E-05 2.23675E-05-4.44384E-05 9.92008E-05-7.23451E-18-1.02669E-17
 -1       156 1.95709E-04-2.40363E-05-6.52412E-05 1.19183E-04-3.99503E-18-6.34004E-18
 -1       157 2.89526E-04-7.83631E-05-7.87121E-05 7.82445E-05-3.49507E-19-3.01226E-18
 -1       158 2.88559E-04-7.58765E-05-7.89284E-05-8.69918E-05-1.67604E-18 7.66798E-18
 -1       159 1.88589E-04-1.80581E-05-6.43008E-05-1.24249E-04-6.14141E-18 1.16619E-17
 -1       160 8.50420E-05 2.60954E-05-4.38944E-05-1.00339E-04-8.98109E-18 1.09886E-17
 -1       161 1.63226E-05 2.07943E-05-1.85194E-05-3.36876E-05-1.35136E-17 1.11580E-17
 -1       162 7.52104E-06-3.30874E-05 2.71687E-06 1.87431E-05-5.93304E-18 3.98593E-18
 -1       163 2.93234E-05-1.01006E-04 1.82001E-05 2.93241E-05-1.67924E-18-1.74806E-19
 -1       164 9.48736E-05-1.23483E-05-3.55708E-05-2.23467E-05-2.87535E-18 2.65751E-18
 -1       165 8.92525E-05-8.45693E-06-3.47884E-05-1.73886E-05-2.91719E-18-6.95057E-19
 -1       166 8.65497E-05-6.50527E-06-3.44165E-05-1.35807E-05-2.53258E-18-2.73252E-18
 -1       167 8.51892E-05-5.51348E-06-3.42307E-05-1.03699E-05-2.06287E-18-3.94878E-18
 -1       168 8.44459E-05-4.94464E-06-3.41409E-05-7.54476E-06-1.61843E-18-4.51145E-18
 -1       169 8.40168E-05-4.59828E-06-3.40981E-05-4.90167E-06-1.18194E-18-4.80715E-18
 -1       170 8.37975E-05-4.41361E-06-3.40797E-05-2.39426E-06-6.72736E-19-4.97860E-18
 -1       171 8.37329E-05-4.35785E-06-3.40749E-05 5.11690E-08-2.25666E-19-5.12537E-18
 -1       172 8.38075E-05-4.42215E-06-3.40805E-05 2.49874E-06 1.77642E-19-5.19072E-18
 -1       173 8.40385E-05-4.61750E-06-3.40996E-05 5.01301E-06 5.98438E-19-5.20375E-18
 -1       174 8.44726E-05-4.97084E-06-3.41418E-05 7.62170E-06 1.10163E-18-5.01193E-18
 -1       175 8.52502E-05-5.57369E-06-3.42320E-05 1.05103E-05 1.67174E-18-4.61714E-18
 -1       176 8.66484E-05-6.60851E-06-3.44190E-05 1.37810E-05 2.28710E-18-3.76247E-18
 -1       177 8.93956E-05-8.60089E-06-3.47933E-05 1.76206E-05 2.75938E-18-2.04883E-18
 -1       178 9.57854E-05-1.36154E-05-3.54272E-05 2.18920E-05 2.84847E-18 1.41589E-18
 -1       179 1.05612E-04-2.61043E-05-3.52649E-05 1.86617E-05 2.28717E-18 6.18742E-18
 -1       180 1.03406E-04-2.73042E-05-3.26128E-05-1.21253E-05-2.37283E-18 6.33120E-18
 -1       181 9.71178E-05-2.82928E-05-2.95318E-05-4.72928E-06-2.02847E-18 5.10782E-18
 -1       182 9.35181E-05-2.76396E-05-2.81857E-05-1.76684E-06-1.55767E-18 4.14903E-18
 -1       183 9.19850E-05-2.74097E-05-2.76397E-05-4.18541E-07-1.03947E-18 3.16754E-18
 -1       184 9.14108E-05-2.73351E-05-2.74428E-05 2.45332E-07-6.36420E-19 2.54044E-18
 -1       185 9.13704E-05-2.73744E-05-2.74183E-05 5.71005E-07-5.72002E-19 2.10411E-18
 -1       186 9.16155E-05-2.74775E-05-2.74837E-05 7.09542E-07-6.82121E-19 1.69902E-18
 -1       187 9.20002E-05-2.76102E-05-2.75940E-05 7.39870E-07-7.96565E-19 1.36544E-18
 -1       188 9.24376E-05-2.77508E-05-2.77224E-05 7.07857E-07-5.52907E-19 9.81227E-19
 -1       189 9.28756E-05-2.78865E-05-2.78525E-05 6.41987E-07-3.45155E-19 9.35855E-19
 -1       190 9.32845E-05-2.80103E-05-2.79751E-05 5.60523E-07-2.32269E-19-9.16042E-20
 -1       191 9.36494E-05-2.81188E-05-2.80852E-05 4.75260E-07-4.92221E-19-5.94356E-19
 -1       192 9.39645E-05-2.82110E-05-2.81807E-05 3.93753E-07-3.82886E-19-7.23019E-19
 -1       193 9.42306E-05-2.82878E-05-2.82618E-05 3.20756E-07-2.31311E-21-6.55537E-19
 -1       194 9.44525E-05-2.83508E-05-2.83298E-05 2.59237E-07 2.90956E-20 2.95350E-19
 -1       195 9.46379E-05-2.84026E-05-2.83870E-05 2.11108E-07-6.36655E-20 4.86040E-19
 -1       196 9.47962E-05-2.84459E-05-2.84360E-05 1.77783E-07-1.80488E-19 6.09911E-19
 -1       197 9.49384E-05-2.84842E-05-2.84804E-05 1.60580E-07-2.69617E-19-4.15484E-19
 -1       198 9.50769E-05-2.85209E-05-2.85238E-05 1.61010E-07-1.07653E-18-9.72166E-19
 -1       199 9.52256E-05-2.85602E-05-2.85704E-05 1.80949E-07-1.41444E-19-1.27958E-18
 -1       200 9.53999E-05-2.86064E-05-2.86250E-05 2.22693E-07 3.51263E-19-1.23584E-18
 -1       201 9.56171E-05-2.86648E-05-2.86928E-05 2.88847E-07-5.14154E-19-1.26516E-18
 -1       202 9.58960E-05-2.87410E-05-2.87794E-05 3.82003E-07 3.46110E-20-2.51828E-19
 -1       203 9.62571E-05-2.88413E-05-2.88909E-05 5.04123E-07 4.20168E-19-4.94230E-20
 -1       204 9.67207E-05-2.89725E-05-2.90332E-05 6.55478E-07 2.45227E-19-6.29557E-19
 -1       205 9.73060E-05-2.91414E-05-2.92116E-05 8.33030E-07-6.02638E-19-3.91200E-19
 -1       206 9.80269E-05-2.93541E-05-2.94296E-05 1.02805E-06-3.72691E-19-1.30771E-18
 -1       207 9.88877E-05-2.96147E-05-2.96873E-05 1.22287E-06 6.32500E-19-1.73033E-18
 -1       208 9.98751E-05-2.99235E-05-2.99791E-05 1.38689E-06 7.15162E-19-1.27032E-18
 -1       209 1.00949E-04-3.02738E-05-3.02908E-05 1.47233E-06-4.92448E-19 1.57972E-19
 -1       210 1.02031E-04-3.06480E-05-3.05962E-05 1.41135E-06-7.04696E-19 4.49402E-19
 -1       211 1.02991E-04-3.10124E-05-3.08542E-05 1.11766E-06-6.97925E-20 3.62610E-19
 -1       212 1.03644E-04-3.13110E-05-3.10086E-05 4.98109E-07-8.81280E-19-1.10997E-18
 -1       213 1.03750E-04-3.14612E-05-3.09918E-05-5.18566E-07 1.00092E-18-1.26767E-18
 -1       214 1.03047E-04-3.13550E-05-3.07363E-05-1.93075E-06-4.30594E-19-1.99399E-18
 -1       215 1.01313E-04-3.08753E-05-3.01963E-05-3.59636E-06-4.24534E-19-8.18534E-19
 -1       216 9.84686E-05-2.99393E-05-2.93742E-05-5.18033E-06 3.51931E-19-1.53770E-18
 -1       217 9.47091E-05-2.85686E-05-2.83446E-05-6.17915E-06 5.66110E-19 2.12549E-19
 -1       218 9.05749E-05-2.69581E-05-2.72577E-05-6.08268E-06 1.46638E-19-2.45600E-19
 -1       219 8.68885E-05-2.54778E-05-2.63085E-05-4.65526E-06-2.63457E-19-2.80226E-19
 -1       220 8.44876E-05-2.45456E-05-2.56771E-05-2.17718E-06-6.89885E-19-1.74461E-18
 -1       221 8.38533E-05-2.44067E-05-2.54642E-05 5.91746E-07 2.85642E-19-1.94073E-18
 -1       222 8.48807E-05-2.49888E-05-2.56562E-05 2.78324E-06 1.29206E-21-7.70367E-19
 -1       223 8.69681E-05-2.59569E-05-2.61390E-05 3.87713E-06 1.15775E-18-7.46805E-19
 -1       224 8.93578E-05-2.69245E-05-2.67534E-05 3.91153E-06 1.07466E-18 5.52049E-19
 -1       225 9.14859E-05-2.76594E-05-2.73558E-05 3.31911E-06-9.43093E-19-1.37444E-18
 -1       226 9.31151E-05-2.81497E-05-2.78460E-05 2.55364E-06-8.79112E-19-1.66355E-18
 -1       227 9.43247E-05-2.85819E-05-2.81734E-05 1.74385E-06 9.56254E-20-7.37667E-19
 -1       228 9.95100E-05-2.85573E-05-3.05899E-05 7.20966E-06 2.30933E-18 5.11642E-18
 -1       229 9.44274E-05-2.77940E-05-2.85278E-05 2.74201E-06 1.81661E-18 3.51175E-18
 -1       230 9.21094E-05-2.74048E-05-2.76855E-05 9.27850E-07 1.36788E-18 2.19069E-18
 -1       231 9.11630E-05-2.72429E-05-2.73673E-05 6.55861E-08 9.30735E-19 1.25185E-18
 -1       232 9.09535E-05-2.72365E-05-2.72938E-05-3.62467E-07 6.13268E-19 6.31953E-19
 -1       233 9.11394E-05-2.73231E-05-2.73431E-05-5.63274E-07 2.32294E-19-5.27013E-20
 -1       234 9.15249E-05-2.74568E-05-2.74542E-05-6.36054E-07 8.99296E-19-4.12612E-19
 -1       235 9.19951E-05-2.76082E-05-2.75925E-05-6.34763E-07 8.89165E-19-8.34947E-19
 -1       236 9.24816E-05-2.77597E-05-2.77370E-05-5.91610E-07 3.33341E-19-1.62501E-18
 -1       237 9.29448E-05-2.79010E-05-2.78755E-05-5.26854E-07-8.46117E-20-1.46433E-18
 -1       238 9.33632E-05-2.80268E-05-2.80013E-05-4.53520E-07 2.21971E-19-1.43005E-18
 -1       239 9.37276E-05-2.81351E-05-2.81112E-05-3.79984E-07 3.37271E-19-1.75964E-18
 -1       240 9.40363E-05-2.82259E-05-2.82047E-05-3.11550E-07 3.60673E-19-2.48782E-18
 -1       241 9.42931E-05-2.83006E-05-2.82827E-05-2.51507E-07 3.13324E-19-2.62014E-18
 -1       242 9.45048E-05-2.83616E-05-2.83473E-05-2.01899E-07 1.54261E-19-2.71703E-18
 -1       243 9.46806E-05-2.84116E-05-2.84011E-05-1.64094E-07 5.22144E-19-3.23368E-18
 -1       244 9.48313E-05-2.84538E-05-2.84475E-05-1.39244E-07 9.63691E-19-3.85122E-18
 -1       245 9.49695E-05-2.84920E-05-2.84902E-05-1.28643E-07-1.32483E-19-3.74738E-18
 -1       246 9.51092E-05-2.85303E-05-2.85336E-05-1.34049E-07-2.29332E-19-3.14251E-18
 -1       247 9.52669E-05-2.85732E-05-2.85825E-05-1.57971E-07-9.60190E-19-2.31824E-18
 -1       248 9.54619E-05-2.86266E-05-2.86430E-05-2.03964E-07-3.99311E-19-2.29899E-18
 -1       249 9.57178E-05-2.86968E-05-2.87223E-05-2.76946E-07-1.56784E-20-2.89816E-18
 -1       250 9.60632E-05-2.87923E-05-2.88291E-05-3.83559E-07-5.61999E-19-3.39706E-18
 -1       251 9.65337E-05-2.89229E-05-2.89744E-05-5.32578E-07-6.29853E-19-3.08083E-18
 -1       252 9.71734E-05-2.91014E-05-2.91716E-05-7.35344E-07-8.82342E-19-1.56054E-18
 -1       253 9.80372E-05-2.93434E-05-2.94377E-05-1.00612E-06 3.48478E-19-4.74313E-19
 -1       254 9.91921E-05-2.96681E-05-2.97932E-05-1.36207E-06 8.85706E-19-1.95708E-19
 -1       255 1.00719E-04-3.00992E-05-3.02626E-05-1.82224E-06-1.88129E-19-1.54253E-18
 -1       256 1.02709E-04-3.06647E-05-3.08736E-05-2.40411E-06 1.12837E-18-3.18765E-18
 -1       257 1.05259E-04-3.13966E-05-3.16542E-05-3.11499E-06-2.05590E-19-3.61458E-18
 -1       258 1.08451E-04-3.23287E-05-3.26257E-05-3.93335E-06-4.45696E-19-3.90769E-18
 -1       259 1.12313E-04-3.34908E-05-3.37879E-05-4.77240E-06-8.33970E-19-3.42101E-18
 -1       260 1.16752E-04-3.48959E-05-3.50929E-05-5.41787E-06 1.25623E-19-2.64142E-18
 -1       261 1.21431E-04-3.65122E-05-3.64065E-05-5.44355E-06-6.18665E-20-1.98401E-18
 -1       262 1.25627E-04-3.82014E-05-3.74693E-05-4.15375E-06 1.38407E-18-3.29103E-18
 -1       263 1.28102E-04-3.95976E-05-3.79028E-05-7.16060E-07 5.19403E-20-2.40171E-18
 -1       264 1.27197E-04-3.99463E-05-3.73331E-05 5.22190E-06-4.04048E-19-3.13071E-18
 -1       265 1.21484E-04-3.81438E-05-3.56731E-05 1.22467E-05 5.25604E-19-2.10290E-18
 -1       266 1.11359E-04-3.36296E-05-3.33821E-05 1.62774E-05-4.65637E-20-1.27576E-18
 -1       267 1.00655E-04-2.80794E-05-3.13313E-05 1.26898E-05-4.19255E-19-1.78999E-18
 -1       268 9.53504E-05-2.53689E-05-3.02626E-05 2.00441E-06 2.81342E-18-3.90911E-18
 -1       269 9.80200E-05-2.74537E-05-3.03946E-05-8.24860E-06 3.31785E-19-5.69381E-18
 -1       270 1.04867E-04-3.17936E-05-3.13152E-05-1.11114E-05 1.04192E-19-4.47562E-18
 -1       271 1.09999E-04-3.46560E-05-3.22181E-05-6.77452E-06-1.87406E-20-5.54488E-18
 -1       272 1.10558E-04-3.47868E-05-3.24145E-05-1.19562E-07-1.45741E-18-3.60666E-18
 -1       273 1.07131E-04-3.29725E-05-3.17694E-05 4.69878E-06-2.42056E-18-1.54215E-18
 -1       274 1.01911E-04-3.03926E-05-3.06755E-05 5.89130E-06 1.35946E-18-1.44765E-18
 -1       275 9.71713E-05-2.80901E-05-2.96360E-05 3.52258E-06-4.63114E-20-6.20721E-19
 -1       276 9.56432E-05-2.48719E-05-3.03293E-05 6.18308E-06 3.69281E-19 3.15831E-18
 -1       277 9.36618E-05-1.92617E-05-3.18855E-05 1.05982E-05 4.32390E-19 1.42732E-18
 -1       278 9.06441E-05-1.14966E-05-3.39348E-05 1.35692E-05 3.45159E-19-1.23734E-18
 -1       279 8.68646E-05-2.70341E-06-3.60890E-05 1.33931E-05 1.73774E-19-2.16463E-19
 -1       280 8.33416E-05 4.67981E-06-3.77484E-05 9.03225E-06-1.84284E-18-2.10133E-18
 -1       281 8.15877E-05 8.10713E-06-3.84622E-05 1.02757E-06-1.82692E-18-1.56871E-18
 -1       282 8.26710E-05 5.83801E-06-3.79538E-05-7.55087E-06-1.17735E-18-3.24837E-19
 -1       283 8.60464E-05-1.25031E-06-3.63631E-05-1.32354E-05-9.57147E-20-3.49153E-19
 -1       284 9.01432E-05-1.05006E-05-3.41464E-05-1.44338E-05 1.79465E-19-4.19923E-19
 -1       285 9.35433E-05-1.91444E-05-3.18839E-05-1.19251E-05 5.37171E-19-7.76544E-19
 -1       286 9.56217E-05-2.54317E-05-3.00669E-05-7.74554E-06 9.90018E-19 1.72279E-19
 -1       287 9.65199E-05-2.91496E-05-2.88516E-05-3.51178E-06 1.92822E-18 6.36155E-18
 -1       288 9.65342E-05-3.05404E-05-2.82634E-05-3.25881E-07 4.98763E-19 7.79171E-20
 -1       289 9.59684E-05-3.03347E-05-2.81196E-05 1.38378E-06 9.71706E-19-2.48775E-18
 -1       290 9.53704E-05-2.95218E-05-2.82114E-05 2.07900E-06 2.26386E-19-8.18546E-19
 -1       291 1.50767E-05-5.77203E-05 1.43825E-05 8.06629E-06 1.80280E-18 1.55822E-18
 -1       292 2.99170E-05-5.42488E-05 6.89547E-06 2.22934E-05 7.66565E-19-1.41555E-18
 -1       293 5.70353E-05-4.51286E-05-7.31062E-06 3.70515E-05 9.27713E-19 1.72477E-19
 -1       294 1.10632E-04-4.82758E-05-2.69396E-05 4.68359E-05 1.30168E-18 5.25605E-18
 -1       295 1.54934E-04-4.23089E-05-4.72528E-05 4.07272E-05 2.72692E-18 4.16846E-18
 -1       296 1.95466E-04-3.59153E-05-6.51736E-05 4.18176E-05 2.13377E-18 3.20941E-18
 -1       297 2.15253E-04-3.46729E-05-7.38402E-05 1.99724E-05 1.32645E-18 2.44920E-18
 -1       298 2.14626E-04-3.37860E-05-7.42785E-05 2.21880E-06 3.52620E-18 1.10570E-18
 -1       299 2.04634E-04-3.97033E-05-6.76216E-05-1.94687E-05 2.58758E-18-4.83656E-19
 -1       300 1.67918E-04-4.15115E-05-5.26231E-05-3.09863E-05 3.37834E-18-3.66321E-18
 -1       301 1.20971E-04-4.09991E-05-3.41821E-05-3.97576E-05 4.51765E-18-3.58189E-18
 -1       302 7.31133E-05-4.13767E-05-1.51341E-05-3.44232E-05 3.13466E-18-3.14990E-18
 -1       303 4.31666E-05-4.90701E-05 4.94090E-07-2.77466E-05 2.47355E-18-2.23662E-18
 -1       304 1.80035E-05-5.51048E-05 1.24517E-05-8.83492E-06 2.46751E-18-2.40536E-18
 -1       305 1.06186E-05-5.21215E-05 1.46964E-05 3.70352E-06 5.67327E-19-3.69158E-18
 -1       306 1.87974E-05-5.29003E-05 1.13627E-05 1.56495E-05 4.46810E-20-4.86091E-19
 -1       307 3.85770E-05-4.41370E-05 9.02792E-08 3.01038E-05-1.41920E-18-4.30749E-19
 -1       308 6.88431E-05-3.50592E-05-1.56769E-05 4.10539E-05-1.48040E-18-3.48861E-18
 -1       309 1.09316E-04-3.08019E-05-3.34420E-05 4.91556E-05-2.20504E-18-3.90969E-18
 -1       310 1.57235E-04-3.42159E-05-5.12419E-05 4.24225E-05-2.76281E-18-7.00284E-19
 -1       311 1.97384E-04-3.50728E-05-6.66554E-05 3.36244E-05-2.05739E-18-2.67006E-18
 -1       312 2.13113E-04-3.36787E-05-7.37638E-05 8.79278E-06-2.39139E-18-1.01162E-18
 -1       313 2.22536E-04-3.82398E-05-7.50753E-05-1.68976E-05-3.70566E-18 1.86464E-18
 -1       314 1.95438E-04-3.38490E-05-6.62335E-05-3.74412E-05-5.77634E-18 5.22810E-18
 -1       315 1.55588E-04-3.13788E-05-5.12798E-05-5.20049E-05-5.02936E-18 8.85912E-18
 -1       316 1.12927E-04-3.93864E-05-3.13512E-05-4.89878E-05-6.15348E-18 5.61943E-18
 -1       317 6.32214E-05-4.14465E-05-1.10193E-05-4.02735E-05-3.78963E-18 8.11563E-18
 -1       318 3.28870E-05-5.22012E-05 5.00215E-06-2.54712E-05-7.98117E-19 4.20697E-18
 -1       319 1.55088E-05-5.75192E-05 1.40929E-05-1.04893E-05 1.21359E-18 2.70638E-18
 -1       320 9.16516E-05-1.43963E-05-3.31727E-05-1.30588E-05-3.03973E-18-9.79845E-19
 -1       321 9.57128E-05-1.91114E-05-3.28923E-05-1.46275E-05-3.10126E-18 1.02772E-18
 -1       322 8.80052E-05-1.03760E-05-3.33230E-05-8.14897E-06-2.22846E-18-3.08732E-18
 -1       323 8.71859E-05-9.45175E-06-3.33626E-05-5.71504E-06-1.72060E-18-3.53331E-18
 -1       324 8.67255E-05-8.92219E-06-3.33891E-05-3.36579E-06-1.15257E-18-3.68512E-18
 -1       325 8.65201E-05-8.68241E-06-3.34025E-05-1.07224E-06-5.63603E-19-3.87101E-18
 -1       326 8.65288E-05-8.69200E-06-3.34022E-05 1.20296E-06-2.37551E-21-4.00008E-18
 -1       327 8.67532E-05-8.95312E-06-3.33880E-05 3.49878E-06 4.78882E-19-4.06428E-18
 -1       328 8.72261E-05-9.49741E-06-3.33610E-05 5.81309E-06 1.04890E-18-3.88827E-18
 -1       329 8.80663E-05-1.04492E-05-3.33199E-05 8.25180E-06 1.74944E-18-3.63200E-18
 -1       330 8.94830E-05-1.20328E-05-3.32595E-05 1.07603E-05 2.40664E-18-3.07381E-18
 -1       331 9.19052E-05-1.47228E-05-3.31593E-05 1.31656E-05 2.95451E-18-2.03876E-18
 -1       332 9.58106E-05-1.94591E-05-3.28299E-05 1.43728E-05 3.22305E-18 1.18121E-20
 -1       333 9.87990E-05-2.44467E-05-3.19534E-05 1.18955E-05 2.96042E-18 2.07869E-18
 -1       334 9.63991E-05-2.68150E-05-2.97923E-05 5.73848E-06 2.49783E-18 1.33009E-18
 -1       335 9.64437E-05-2.60299E-05-3.01337E-05-6.34562E-06-2.30479E-18 1.27268E-18
 -1       336 9.49276E-05-2.70313E-05-2.90730E-05-2.82956E-06-1.84092E-18 1.03060E-18
 -1       337 9.39519E-05-2.74289E-05-2.84953E-05-9.18535E-07-1.20026E-18 8.16302E-19
 -1       338 9.34328E-05-2.76413E-05-2.81897E-05 1.41009E-07-9.28099E-19 4.72267E-19
 -1       339 9.32412E-05-2.77947E-05-2.80457E-05 7.05380E-07-9.36824E-19 1.60197E-19
 -1       340 9.32585E-05-2.79246E-05-2.79993E-05 9.72370E-07-9.80994E-19-3.72716E-20
 -1       341 9.33974E-05-2.80396E-05-2.80105E-05 1.05900E-06-8.09433E-19-3.38477E-21
 -1       342 9.35984E-05-2.81408E-05-2.80537E-05 1.03806E-06-6.95061E-19-3.79708E-19
 -1       343 9.38226E-05-2.82280E-05-2.81127E-05 9.56491E-07-9.33671E-19-9.55064E-19
 -1       344 9.40457E-05-2.83012E-05-2.81770E-05 8.45143E-07-5.38927E-19-8.76334E-19
 -1       345 9.42539E-05-2.83611E-05-2.82405E-05 7.24343E-07-3.75893E-19-7.06045E-19
 -1       346 9.44406E-05-2.84089E-05-2.83000E-05 6.07417E-07 9.88318E-20 1.36697E-19
 -1       347 9.46041E-05-2.84462E-05-2.83540E-05 5.03052E-07 2.83456E-19 1.96713E-19
 -1       348 9.47462E-05-2.84748E-05-2.84025E-05 4.16970E-07 1.52893E-20-4.10321E-19
 -1       349 9.48712E-05-2.84965E-05-2.84466E-05 3.53164E-07-4.11912E-19-2.86208E-19
 -1       350 9.49850E-05-2.85133E-05-2.84880E-05 3.14798E-07-5.79226E-19-3.84094E-19
 -1       351 9.50949E-05-2.85272E-05-2.85290E-05 3.04864E-07-7.00766E-19-5.01307E-19
 -1       352 9.52097E-05-2.85405E-05-2.85723E-05 3.26603E-07-8.07426E-19-8.30352E-19
 -1       353 9.53394E-05-2.85557E-05-2.86211E-05 3.83721E-07 1.70057E-20-9.40080E-19
 -1       354 9.54950E-05-2.85759E-05-2.86789E-05 4.80347E-07 7.17549E-19-1.23984E-18
 -1       355 9.56891E-05-2.86049E-05-2.87494E-05 6.20676E-07 2.42202E-19 4.11278E-19
 -1       356 9.59354E-05-2.86475E-05-2.88365E-05 8.08192E-07 4.86680E-20 1.86443E-19
 -1       357 9.62486E-05-2.87099E-05-2.89437E-05 1.04431E-06-9.90222E-20-3.89686E-19
 -1       358 9.66433E-05-2.88001E-05-2.90740E-05 1.32627E-06 7.56036E-20-1.01718E-18
 -1       359 9.71337E-05-2.89283E-05-2.92292E-05 1.64400E-06-5.35168E-19-1.40486E-18
 -1       360 9.77307E-05-2.91071E-05-2.94085E-05 1.97589E-06-7.54043E-19-3.04972E-19
 -1       361 9.84404E-05-2.93520E-05-2.96082E-05 2.28336E-06 3.88307E-19-1.63060E-18
 -1       362 9.92591E-05-2.96800E-05-2.98196E-05 2.50478E-06 8.35369E-19-1.48141E-18
 -1       363 1.00168E-04-3.01066E-05-3.00281E-05 2.55012E-06 3.81188E-19-7.60873E-19
 -1       364 1.01127E-04-3.06395E-05-3.02131E-05 2.29956E-06-5.65824E-19 3.95698E-19
 -1       365 1.02062E-04-3.12650E-05-3.03485E-05 1.61175E-06-9.44209E-19 6.07042E-19
 -1       366 1.02852E-04-3.19267E-05-3.04064E-05 3.50880E-07-4.32567E-19 6.61512E-19
 -1       367 1.03317E-04-3.24975E-05-3.03637E-05-1.55705E-06-5.63699E-19 1.26529E-19
 -1       368 1.03220E-04-3.27598E-05-3.02102E-05-4.03373E-06-1.80290E-19-4.38441E-19
 -1       369 1.02302E-04-3.24261E-05-2.99572E-05-6.74004E-06-3.89332E-19-3.64679E-19
 -1       370 1.00397E-04-3.12508E-05-2.96379E-05-9.01602E-06 1.30389E-18 4.01179E-19
 -1       371 9.76111E-05-2.92369E-05-2.92988E-05-9.98792E-06 1.23950E-18 7.75151E-21
 -1       372 9.44808E-05-2.68296E-05-2.89815E-05-8.92704E-06-3.51310E-19 8.71382E-19
 -1       373 9.18996E-05-2.48791E-05-2.87066E-05-5.76697E-06-1.75528E-18 1.08492E-19
 -1       374 9.06871E-05-2.41915E-05-2.84798E-05-1.39980E-06-1.81693E-18-7.10667E-19
 -1       375 9.10562E-05-2.49596E-05-2.83105E-05 2.68723E-06 9.18836E-19-2.50965E-18
 -1       376 9.24792E-05-2.66197E-05-2.82141E-05 5.23948E-06 9.18358E-19-1.26100E-18
 -1       377 9.40672E-05-2.82616E-05-2.81977E-05 5.88954E-06 1.31944E-18-2.14896E-18
 -1       378 9.51315E-05-2.92342E-05-2.82430E-05 5.16011E-06-1.11786E-18-1.01814E-18
 -1       379 9.54692E-05-2.94662E-05-2.82955E-05 3.92926E-06-9.91208E-19-1.41325E-18
 -1       380 9.53200E-05-2.93449E-05-2.82775E-05 2.94146E-06-2.72815E-19-1.13194E-18
 -1       381 9.43803E-05-2.73440E-05-2.86917E-05 2.46581E-06 1.91056E-18 8.57282E-19
 -1       382 9.31751E-05-2.74642E-05-2.81400E-05 7.40605E-07 1.32158E-18 4.38401E-19
 -1       383 9.26222E-05-2.75421E-05-2.78815E-05-1.80619E-07 9.48179E-19-2.74502E-19
 -1       384 9.24812E-05-2.76351E-05-2.77870E-05-6.56209E-07 5.75136E-19-7.58732E-19
 -1       385 9.25842E-05-2.77447E-05-2.77868E-05-8.73602E-07 8.03428E-19-7.90947E-19
 -1       386 9.28194E-05-2.78611E-05-2.78389E-05-9.37646E-07 1.04474E-18-6.46305E-19
 -1       387 9.31151E-05-2.79752E-05-2.79174E-05-9.11544E-07 7.86293E-19-6.04716E-19
 -1       388 9.34259E-05-2.80808E-05-2.80057E-05-8.35247E-07-1.13324E-20-1.02155E-18
 -1       389 9.37250E-05-2.81744E-05-2.80939E-05-7.34672E-07 4.69790E-19-1.44796E-18
 -1       390 9.39976E-05-2.82545E-05-2.81764E-05-6.26735E-07 5.60454E-19-1.35934E-18
 -1       391 9.42372E-05-2.83214E-05-2.82504E-05-5.22407E-07 8.78234E-19-1.65746E-18
 -1       392 9.44432E-05-2.83760E-05-2.83152E-05-4.28736E-07 2.49556E-19-1.89617E-18
 -1       393 9.46184E-05-2.84200E-05-2.83713E-05-3.50273E-07 3.05691E-19-2.19340E-18
 -1       394 9.47686E-05-2.84556E-05-2.84203E-05-2.90148E-07 4.66543E-19-1.91879E-18
 -1       395 9.49015E-05-2.84850E-05-2.84644E-05-2.50887E-07 1.18461E-18-2.02045E-18
 -1       396 9.50262E-05-2.85108E-05-2.85066E-05-2.35074E-07 1.33978E-19-2.29231E-18
 -1       397 9.51538E-05-2.85359E-05-2.85503E-05-2.45898E-07-1.14430E-18-1.49801E-18
 -1       398 9.52971E-05-2.85635E-05-2.85996E-05-2.87653E-07-7.92032E-19-8.72423E-19
 -1       399 9.54713E-05-2.85971E-05-2.86595E-05-3.66203E-07-1.98915E-19-9.27301E-19
 -1       400 9.56945E-05-2.86412E-05-2.87359E-05-4.89471E-07 8.75516E-19-9.96298E-19
 -1       401 9.59885E-05-2.87007E-05-2.88359E-05-6.67953E-07 5.42866E-20-1.89763E-18
 -1       402 9.63795E-05-2.87818E-05-2.89680E-05-9.15259E-07-1.33796E-18-2.39932E-18
 -1       403 9.68992E-05-2.88920E-05-2.91428E-05-1.24862E-06-2.11921E-18-1.07306E-18
 -1       404 9.75855E-05-2.90402E-05-2.93724E-05-1.68919E-06-6.05323E-19-9.37151E-20
 -1       405 9.84829E-05-2.92380E-05-2.96711E-05-2.26167E-06 9.42916E-19 1.18832E-18
 -1       406 9.96431E-05-2.95002E-05-3.00548E-05-2.99230E-06 8.49669E-19 2.77395E-21
 -1       407 1.01123E-04-2.98468E-05-3.05394E-05-3.90340E-06 1.65179E-18 2.23038E-19
 -1       408 1.02983E-04-3.03080E-05-3.11384E-05-5.00082E-06 2.57987E-19 3.04474E-19
 -1       409 1.05279E-04-3.09312E-05-3.18566E-05-6.24840E-06-1.37523E-19-2.15423E-18
 -1       410 1.08059E-04-3.17944E-05-3.26815E-05-7.52078E-06-3.34179E-19-3.35351E-18
 -1       411 1.11341E-04-3.30232E-05-3.35692E-05-8.52615E-06-9.15651E-19-3.04399E-18
 -1       412 1.15097E-04-3.47947E-05-3.44314E-05-8.70311E-06 4.51319E-19-2.14244E-18
 -1       413 1.19187E-04-3.72718E-05-3.51354E-05-7.14381E-06 1.05955E-18-1.33519E-18
 -1       414 1.23199E-04-4.03412E-05-3.55474E-05-2.71772E-06-1.91509E-20 5.99408E-20
 -1       415 1.26128E-04-4.30558E-05-3.56422E-05 5.25044E-06 6.10989E-20-1.08053E-19
 -1       416 1.26057E-04-4.30385E-05-3.56296E-05 1.53734E-05 4.58510E-19-1.12854E-18
 -1       417 1.21121E-04-3.76737E-05-3.58798E-05 2.24455E-05-5.48161E-19-9.33020E-19
 -1       418 1.12712E-04-2.82936E-05-3.64002E-05 1.92338E-05 8.23634E-19-1.11134E-18
 -1       419 1.07169E-04-2.26417E-05-3.64700E-05 4.82747E-06 2.42953E-18-1.77521E-18
 -1       420 1.09103E-04-2.65185E-05-3.55744E-05-1.01933E-05 1.24509E-18-7.41908E-19
 -1       421 1.14492E-04-3.49762E-05-3.41770E-05-1.46905E-05-6.48139E-19 3.44504E-20
 -1       422 1.16783E-04-3.98911E-05-3.30117E-05-8.50578E-06 7.26127E-19 1.49584E-19
 -1       423 1.14267E-04-3.92229E-05-3.22017E-05 1.02097E-06-1.81703E-18 1.12491E-18
 -1       424 1.08799E-04-3.52708E-05-3.15362E-05 7.92772E-06-2.28574E-18-5.82156E-19
 -1       425 1.02619E-04-3.05397E-05-3.09051E-05 9.85796E-06-2.70005E-19 5.32258E-19
 -1       426 9.88757E-05-2.75184E-05-3.05856E-05 8.89959E-06-1.25818E-18 3.55005E-18
 -1       427 9.18083E-05-1.70822E-05-3.20246E-05 2.19592E-05-1.06640E-18-1.00348E-18
 -1       428 9.70348E-05-2.33208E-05-3.15665E-05 1.91352E-05-4.26953E-19-3.65094E-19
 -1       429 9.83306E-05-2.55926E-05-3.11613E-05 1.41095E-05-1.77462E-18 2.18253E-18
 -1       430 8.48073E-05-9.59353E-06-3.22475E-05 1.90744E-05-2.31836E-18-4.25282E-18
 -1       431 7.87375E-05-3.54319E-06-3.22408E-05 8.73101E-06-1.79629E-18-8.82165E-19
 -1       432 7.78259E-05-2.77609E-06-3.21749E-05-5.70524E-06-2.94321E-19 5.13812E-19
 -1       433 8.27744E-05-7.93098E-06-3.20871E-05-1.78806E-05-8.92192E-19-2.93745E-19
 -1       434 9.03646E-05-1.60944E-05-3.18346E-05-2.31315E-05 1.34692E-18 9.98595E-19
 -1       435 9.66841E-05-2.35934E-05-3.13106E-05-2.13209E-05 2.81644E-18 2.69979E-19
 -1       436 9.99225E-05-2.84697E-05-3.05970E-05-1.54979E-05 2.41947E-18-1.80044E-19
 -1       437 1.00521E-04-3.08456E-05-2.98283E-05-8.62623E-06 2.67456E-18 4.36968E-18
 -1       438 9.94918E-05-3.13558E-05-2.91724E-05-2.85877E-06 2.99857E-19 1.93486E-18
 -1       439 9.77321E-05-3.07853E-05-2.86757E-05 9.85181E-07-3.49251E-19-2.85427E-18
 -1       440 6.27557E-05-4.89610E-05-6.23738E-06 4.78715E-05-5.08855E-19-9.57677E-19
 -1       441 1.58337E-05-2.44049E-05 3.75556E-06-2.25357E-06-6.98771E-19 3.72694E-18
 -1       442 2.84079E-05-3.60382E-05 2.82747E-06 3.05607E-05 6.83450E-19-2.49261E-18
 -1       443 1.02067E-04-5.98242E-05-1.82962E-05 4.76560E-05-9.77053E-19 3.63108E-18
 -1       444 1.46745E-04-6.33355E-05-3.58504E-05 2.68844E-05-3.89053E-19 1.42259E-18
 -1       445 8.93366E-05-1.18554E-05-3.32802E-05-1.06851E-05-2.67566E-18-2.41624E-18
 -1       446 1.67736E-04-2.69352E-05-6.02446E-05-9.83501E-08 5.17431E-19 6.47557E-19
 -1       447 1.61750E-04-1.36512E-05-6.35593E-05 4.36779E-06 2.49769E-18-1.57356E-18
 -1       448 1.69260E-04-2.29114E-05-6.25470E-05 1.20423E-05 3.37246E-18-1.97814E-18
 -1       449 1.67069E-04-4.03419E-05-5.41667E-05 9.08151E-06 4.60839E-18 2.80262E-19
 -1       450 1.53778E-04-6.00159E-05-4.02610E-05-7.39558E-06 2.54255E-18-1.57188E-18
 -1       451 1.22003E-04-6.32374E-05-2.53608E-05-2.99774E-05 1.55049E-18-2.15888E-18
 -1       452 8.39486E-05-5.55116E-05-1.23447E-05-3.89051E-05 1.67353E-18-2.55249E-18
 -1       453 3.72805E-05-3.67192E-05-2.22233E-07-3.20262E-05 2.47122E-19-1.61476E-18
 -1       454 1.62497E-05-2.71253E-05 4.69667E-06-1.25286E-05 2.60780E-19-4.24851E-18
 -1       455 1.65119E-05-2.66841E-05 4.38252E-06 2.00427E-05 1.90731E-18-1.46611E-18
 -1       456 3.65717E-05-3.65750E-05-1.48893E-07 3.85042E-05 1.21285E-18-2.49875E-20
 -1       457 7.79164E-05-5.04460E-05-1.18790E-05 4.69664E-05 2.20229E-20-2.10706E-18
 -1       458 1.17495E-04-5.81094E-05-2.54558E-05 3.87087E-05-3.23778E-19-2.52739E-18
 -1       459 1.43864E-04-5.42450E-05-3.84742E-05 2.35181E-05-9.36077E-19 1.00299E-18
 -1       460 1.57061E-04-3.65285E-05-5.19189E-05-4.17457E-06-1.00156E-18 2.72014E-18
 -1       461 1.54787E-04-1.88737E-05-5.88004E-05-8.37943E-06-2.01266E-18 3.71540E-18
 -1       462 1.67620E-04-1.22432E-05-6.63984E-05-2.49911E-06-4.06713E-18 3.00650E-18
 -1       463 1.65803E-04-1.91935E-05-6.27048E-05-1.21120E-06-6.10446E-18 2.61977E-18
 -1       464 1.63723E-04-3.93935E-05-5.31444E-05-1.05682E-05-3.77229E-18 4.32167E-18
 -1       465 1.49138E-04-5.31012E-05-4.10424E-05-2.64597E-05-2.56852E-18 4.15565E-18
 -1       466 1.12057E-04-5.96746E-05-2.24669E-05-4.69008E-05-8.38457E-19 4.13299E-18
 -1       467 6.94006E-05-5.03200E-05-8.41984E-06-5.04358E-05 1.40142E-18 6.82076E-18
 -1       468 3.21841E-05-3.52564E-05 1.09239E-06-3.59542E-05 5.54912E-19 2.42770E-18
 -1       469 1.65097E-04-4.62775E-05-5.08440E-05 5.16238E-06 1.69782E-18-1.22587E-18
 -1       470 1.33567E-04-6.93224E-05-2.74211E-05 3.49931E-05-2.44464E-18 1.72707E-18
 -1       471 1.40719E-04-6.59708E-05-3.20958E-05-3.03252E-05-1.90794E-19 3.53393E-18
 -1       472 6.97082E-05-4.61917E-05-9.71969E-06-3.99658E-05 4.85985E-19-1.74775E-18
 -1       473 9.58252E-05-2.51496E-05-3.02754E-05 6.01409E-06 2.38499E-18-6.64138E-19
 -1       474 8.95341E-05-1.33985E-05-3.26485E-05-3.92353E-06-1.46732E-18-3.17139E-18
 -1       475 9.02387E-05-1.43584E-05-3.25407E-05-5.88282E-06-1.94982E-18-3.02655E-18
 -1       476 8.90362E-05-1.27184E-05-3.27254E-05 5.45651E-08-3.43241E-19-3.50885E-18
 -1       477 8.91720E-05-1.29022E-05-3.27052E-05 2.04481E-06 1.48357E-19-3.69862E-18
 -1       478 8.95675E-05-1.34397E-05-3.26454E-05 3.99673E-06 7.06730E-19-3.57150E-18
 -1       479 9.02929E-05-1.44271E-05-3.25350E-05 5.94998E-06 1.43029E-18-3.28206E-18
 -1       480 9.14424E-05-1.60063E-05-3.23528E-05 7.77684E-06 1.98405E-18-2.94875E-18
 -1       481 9.32339E-05-1.84788E-05-3.20580E-05 9.29182E-06 2.45513E-18-2.22681E-18
 -1       482 9.51185E-05-2.65793E-05-2.93560E-05 2.86989E-06 1.72654E-18-7.36312E-19
 -1       483 9.54781E-05-2.44207E-05-3.04429E-05-5.83754E-06-2.17087E-18-3.80439E-19
 -1       484 1.52663E-04-5.95381E-05-4.02483E-05 3.50376E-06-9.25039E-19-4.43559E-18
 -1       485 9.52771E-05-2.62305E-05-2.95846E-05-2.89418E-06-1.70139E-18-3.67379E-19
 -1       486 9.49216E-05-2.71625E-05-2.90359E-05-1.02809E-06-1.36758E-18-5.15583E-19
 -1       487 9.46455E-05-2.76939E-05-2.86920E-05 9.57616E-08-1.20212E-18-7.79599E-19
 -1       488 9.44895E-05-2.80208E-05-2.84860E-05 7.30622E-07-1.11910E-18-7.29328E-19
 -1       489 9.44343E-05-2.82328E-05-2.83720E-05 1.04779E-06-1.14044E-18-7.83124E-19
 -1       490 9.44498E-05-2.83740E-05-2.83184E-05 1.16247E-06-9.60321E-19-1.37097E-18
 -1       491 9.45086E-05-2.84683E-05-2.83033E-05 1.15241E-06-1.26276E-18-1.27046E-18
 -1       492 9.45903E-05-2.85298E-05-2.83120E-05 1.07045E-06-3.95083E-19-8.42866E-19
 -1       493 9.46807E-05-2.85678E-05-2.83345E-05 9.52455E-07 1.12955E-19-3.48351E-19
 -1       494 9.47710E-05-2.85887E-05-2.83642E-05 8.22686E-07 3.51748E-19-1.61419E-19
 -1       495 9.48563E-05-2.85969E-05-2.83972E-05 6.97401E-07 1.02743E-19-2.13443E-19
 -1       496 9.49347E-05-2.85957E-05-2.84312E-05 5.87510E-07-1.63951E-19-2.71457E-19
 -1       497 9.50066E-05-2.85875E-05-2.84655E-05 5.00522E-07-5.94846E-19 1.06893E-19
 -1       498 9.50735E-05-2.85737E-05-2.85000E-05 4.41978E-07-8.53344E-19-7.06371E-19
 -1       499 9.51386E-05-2.85555E-05-2.85357E-05 4.16507E-07-7.43542E-19-1.23576E-18
 -1       500 9.52059E-05-2.85337E-05-2.85737E-05 4.28562E-07-8.57317E-19-9.37264E-19
 -1       501 9.52801E-05-2.85091E-05-2.86160E-05 4.82866E-07-3.77414E-19-6.74159E-19
 -1       502 9.53671E-05-2.84827E-05-2.86645E-05 5.84571E-07 1.19707E-19-8.19090E-19
 -1       503 9.54739E-05-2.84565E-05-2.87214E-05 7.39068E-07 1.35315E-18-1.24705E-18
 -1       504 9.56086E-05-2.84337E-05-2.87887E-05 9.51361E-07 2.04490E-19-9.73836E-19
 -1       505 9.57807E-05-2.84198E-05-2.88684E-05 1.22489E-06-5.45264E-19-1.22871E-18
 -1       506 9.60018E-05-2.84236E-05-2.89614E-05 1.55962E-06-4.07232E-19-1.19440E-18
 -1       507 9.62857E-05-2.84586E-05-2.90680E-05 1.94914E-06-1.54365E-19-1.27338E-18
 -1       508 9.66491E-05-2.85449E-05-2.91868E-05 2.37668E-06-1.14147E-19-8.84795E-19
 -1       509 9.71123E-05-2.87111E-05-2.93142E-05 2.80979E-06-3.61557E-19-5.77335E-19
 -1       510 9.76998E-05-2.89955E-05-2.94444E-05 3.19386E-06 6.37481E-19 2.69320E-20
 -1       511 9.84397E-05-2.94449E-05-2.95694E-05 3.44508E-06 2.62002E-19-1.52230E-18
 -1       512 9.93603E-05-3.01099E-05-2.96799E-05 3.44460E-06 3.24650E-20-1.34255E-18
 -1       513 1.00481E-04-3.10287E-05-2.97677E-05 3.03741E-06-1.63688E-19-5.94089E-19
 -1       514 1.01792E-04-3.21969E-05-2.98302E-05 2.04314E-06-9.04267E-19-2.40972E-20
 -1       515 1.03215E-04-3.35158E-05-2.98764E-05 2.90869E-07-3.97277E-19 1.18111E-18
 -1       516 1.04554E-04-3.47269E-05-2.99322E-05-2.30563E-06-5.44045E-19 1.26720E-18
 -1       517 1.05447E-04-3.53663E-05-3.00408E-05-5.61721E-06-3.02396E-19 2.04988E-18
 -1       518 1.05402E-04-3.48254E-05-3.02508E-05-9.12162E-06-6.15377E-20 1.26343E-18
 -1       519 1.04010E-04-3.26474E-05-3.05833E-05-1.18012E-05 6.67707E-19-2.23531E-19
 -1       520 1.01348E-04-2.90150E-05-3.09955E-05-1.23594E-05 1.01305E-18-1.34870E-18
 -1       521 9.82789E-05-2.50998E-05-3.13592E-05-9.87415E-06-1.06253E-18-5.75372E-19
 -1       522 9.62510E-05-2.27624E-05-3.14924E-05-4.75036E-06-1.34145E-18 1.61003E-18
 -1       523 9.61942E-05-2.31668E-05-3.12929E-05 1.09017E-06-2.63404E-18 1.43381E-18
 -1       524 9.77621E-05-2.58640E-05-3.08079E-05 5.35142E-06 7.50345E-19-8.37173E-19
 -1       525 9.96022E-05-2.91260E-05-3.02018E-05 6.83007E-06 4.34123E-19-1.99287E-18
 -1       526 1.00434E-04-3.12760E-05-2.96396E-05 5.94895E-06 2.20255E-19-2.22329E-18
 -1       527 9.98256E-05-3.17022E-05-2.91950E-05 4.05901E-06 2.47751E-19-6.63221E-19
 -1       528 9.41493E-05-2.76880E-05-2.84799E-05-1.24543E-07 1.07850E-18-7.95842E-19
 -1       529 9.39737E-05-2.79351E-05-2.83010E-05-7.33974E-07 7.14066E-19-1.13785E-18
 -1       530 9.39439E-05-2.81067E-05-2.82156E-05-1.03141E-06 7.94448E-19-1.08309E-18
 -1       531 9.40075E-05-2.82329E-05-2.81893E-05-1.13393E-06 7.05076E-19-6.81546E-19
 -1       532 9.41238E-05-2.83277E-05-2.81988E-05-1.11788E-06 3.94645E-19-1.71831E-19
 -1       533 9.42641E-05-2.83989E-05-2.82285E-05-1.03410E-06 4.26338E-19-6.00918E-19
 -1       534 9.44098E-05-2.84515E-05-2.82684E-05-9.16612E-07 8.16014E-19-4.94801E-19
 -1       535 9.45496E-05-2.84893E-05-2.83121E-05-7.88172E-07 8.22440E-19-9.30825E-19
 -1       536 9.46781E-05-2.85151E-05-2.83561E-05-6.63884E-07 8.68798E-19-1.07488E-18
 -1       537 9.47933E-05-2.85315E-05-2.83983E-05-5.53774E-07 5.92201E-19-1.51308E-18
 -1       538 9.48962E-05-2.85404E-05-2.84385E-05-4.64678E-07-1.17647E-19-9.93421E-19
 -1       539 9.49897E-05-2.85434E-05-2.84772E-05-4.01665E-07 9.62532E-19-1.57813E-18
 -1       540 9.50784E-05-2.85419E-05-2.85157E-05-3.69145E-07 5.14789E-19-4.67521E-19
 -1       541 9.51680E-05-2.85369E-05-2.85561E-05-3.71762E-07-1.16074E-18-3.62051E-19
 -1       542 9.52655E-05-2.85291E-05-2.86011E-05-4.15129E-07-1.18180E-18-2.89917E-19
 -1       543 9.53791E-05-2.85191E-05-2.86539E-05-5.06483E-07-2.12819E-19-2.98432E-19
 -1       544 9.55185E-05-2.85075E-05-2.87184E-05-6.55285E-07 6.92660E-22-4.50173E-19
 -1       545 9.56944E-05-2.84943E-05-2.87991E-05-8.73792E-07 4.89198E-19 4.06744E-19
 -1       546 9.59193E-05-2.84798E-05-2.89014E-05-1.17759E-06-1.41944E-19 5.54006E-19
 -1       547 9.62072E-05-2.84637E-05-2.90312E-05-1.58606E-06-1.54170E-18-1.06666E-18
 -1       548 9.65729E-05-2.84461E-05-2.91950E-05-2.12260E-06-1.68473E-18-2.52983E-18
 -1       549 9.70323E-05-2.84274E-05-2.93993E-05-2.81422E-06-2.59747E-19-2.18787E-18
 -1       550 9.76021E-05-2.84104E-05-2.96500E-05-3.68996E-06 1.18954E-18-1.73692E-18
 -1       551 9.82996E-05-2.84044E-05-2.99507E-05-4.77667E-06 8.61663E-19-1.12432E-18
 -1       552 9.91461E-05-2.84334E-05-3.03004E-05-6.09005E-06 3.40736E-19 2.86621E-19
 -1       553 1.00175E-04-2.85532E-05-3.06897E-05-7.61716E-06 2.25771E-18 2.67181E-19
 -1       554 1.01450E-04-2.88825E-05-3.10962E-05-9.28508E-06 1.07750E-18-1.54176E-18
 -1       555 1.03109E-04-2.96505E-05-3.14811E-05-1.09082E-05-7.60862E-19-1.52995E-18
 -1       556 1.05426E-04-3.12539E-05-3.17929E-05-1.21063E-05-6.31261E-19-2.07167E-18
 -1       557 1.08882E-04-3.42673E-05-3.19905E-05-1.21917E-05 2.00203E-19-1.96044E-18
 -1       558 1.14116E-04-3.92303E-05-3.21148E-05-1.00440E-05-8.50860E-19-3.86883E-19
 -1       559 1.21498E-04-4.58907E-05-3.24292E-05-4.20494E-06-2.53680E-19 6.82845E-19
 -1       560 1.29852E-04-5.15993E-05-3.35914E-05 6.46214E-06 5.56682E-19 2.31452E-19
 -1       561 1.35003E-04-5.02297E-05-3.64825E-05 1.98156E-05 4.05659E-19 1.39497E-18
 -1       562 1.31907E-04-3.60590E-05-4.15140E-05 2.69340E-05 1.97570E-19-6.48020E-19
 -1       563 1.24886E-04-1.91830E-05-4.59086E-05 1.68192E-05 2.71797E-18-2.54255E-18
 -1       564 1.23383E-04-1.74337E-05-4.60206E-05-4.72201E-06 1.34027E-18-3.47994E-18
 -1       565 1.29429E-04-3.41898E-05-4.12078E-05-1.60455E-05-3.77856E-19-2.04341E-18
 -1       566 1.30954E-04-4.78948E-05-3.57953E-05-1.01183E-05-7.47679E-19-9.24656E-20
 -1       567 1.24965E-04-4.93888E-05-3.24576E-05 2.37403E-06-2.34329E-18 2.64250E-18
 -1       568 1.15380E-04-4.27633E-05-3.11610E-05 1.20948E-05-1.62556E-18 3.87645E-18
 -1       569 1.06175E-04-3.40049E-05-3.09424E-05 1.60755E-05-1.03451E-18 4.13924E-18
 -1       570 7.59537E-05-1.33791E-05-2.67302E-05 2.06088E-05-2.03285E-18-2.37267E-18
 -1       571 6.80810E-05-7.69765E-06-2.57652E-05 2.45477E-06-1.41587E-18 2.25771E-18
 -1       572 1.00308E-04-3.07513E-05-2.98291E-05 2.61503E-05-1.35581E-18-2.46284E-18
 -1       573 9.01634E-05-2.35378E-05-2.84127E-05 2.82590E-05-3.12552E-18-3.18066E-18
 -1       574 7.24439E-05-1.09777E-05-2.62318E-05-1.75738E-05-8.64297E-19 1.98934E-19
 -1       575 8.59195E-05-2.10297E-05-2.77295E-05-2.91244E-05 1.94047E-18 2.71350E-18
 -1       576 9.88496E-05-3.04516E-05-2.92633E-05-2.92808E-05 2.59072E-18 1.62421E-18
 -1       577 1.05954E-04-3.55047E-05-3.01756E-05-2.22737E-05 2.40143E-18-1.52232E-18
 -1       578 1.07311E-04-3.64341E-05-3.03553E-05-1.32478E-05 3.29539E-18 6.29834E-19
 -1       579 1.05257E-04-3.51517E-05-3.00269E-05-5.39838E-06 7.69424E-19 8.71190E-19
 -1       580 1.01663E-04-3.29353E-05-2.94470E-05 8.52585E-10-1.92373E-18-1.60629E-18
 -1       581 3.46201E-05-1.88237E-05-6.05566E-06 2.05721E-05-2.55672E-19 2.60039E-19
 -1       582 9.41028E-05-5.41427E-05-1.68318E-05 4.88625E-05-1.22672E-18 1.58350E-18
 -1       583 9.45264E-05-2.72950E-05-2.88048E-05 9.79864E-07 1.54365E-18-7.96568E-19
 -1       584 3.86987E-05-1.76837E-05-8.26282E-06-2.42024E-05-1.86691E-19 9.34066E-19
 -1       585 5.54563E-05-3.33516E-05-8.91923E-06 4.20760E-05 5.60418E-19-3.90106E-18
 -1       586 1.47137E-04-3.60182E-05-4.81544E-05-1.27589E-05-8.23740E-20-2.20165E-18
 -1       587 6.51164E-05-3.80558E-05-1.11250E-05-4.84654E-05 6.51315E-19 6.44952E-18
 -1       588 1.47058E-04-2.84614E-05-5.13830E-05 7.96057E-06-4.00472E-18 3.30872E-19
 -1       589 6.91165E-05-4.27407E-05-1.08931E-05 4.61864E-05 1.62090E-18-6.46710E-19
 -1       590 1.41851E-04-6.83498E-05-3.16496E-05-1.01073E-05 4.64015E-19-1.27584E-18
 -1       591 8.91515E-05-1.28768E-05-3.27072E-05-1.93640E-06-9.03709E-19-3.32052E-18
 -1       592 1.38215E-04-1.36953E-05-5.40151E-05 1.34442E-05 3.22497E-18-2.67108E-18
 -1       593 1.07805E-04-5.92811E-05-2.05961E-05 4.06076E-05 1.99598E-18-1.64279E-18
 -1       594 1.42322E-04-1.62051E-05-5.47143E-05-4.67118E-06 9.75570E-19-2.20271E-18
 -1       595 1.46200E-04-2.64452E-05-5.18563E-05 2.26310E-05 3.85442E-18-2.87859E-18
 -1       596 1.50639E-04-5.27679E-05-4.23199E-05 1.89603E-05 1.50986E-18-6.11981E-19
 -1       597 1.15304E-04-6.45276E-05-2.15413E-05-3.07771E-05 6.04570E-20-1.23137E-18
 -1       598 3.79930E-05-2.34796E-05-5.52476E-06-2.44271E-05 1.02703E-20-2.45385E-18
 -1       599 2.53216E-05-1.44770E-05-3.90414E-06 3.58507E-06 1.47864E-18-8.36763E-19
 -1       600 3.62828E-05-2.44716E-05-4.49505E-06 3.24918E-05 2.34877E-18-1.10930E-18
 -1       601 1.36546E-04-8.61476E-06-5.55731E-05 3.11253E-06-4.63952E-18 1.65226E-18
 -1       602 1.36992E-04-6.38208E-05-3.14134E-05 1.95654E-05 5.28496E-19 1.92819E-18
 -1       603 1.46294E-04-4.98558E-05-4.17018E-05-5.82097E-06 2.92491E-19 4.00424E-18
 -1       604 1.39898E-04-2.68663E-05-4.90277E-05-1.56316E-05-1.30565E-18 4.41717E-18
 -1       605 1.02446E-04-5.76095E-05-1.88745E-05-4.96816E-05 1.67247E-18 3.96497E-18
 -1       606 1.32396E-04-8.59994E-06-5.37402E-05-9.77739E-06-2.07534E-18 1.46108E-18
 -1       607 1.52321E-04-5.25742E-05-4.30365E-05-4.51830E-06-2.16960E-18 2.33283E-18
 -1       608 9.45843E-05-2.06879E-05-3.16900E-05-9.57021E-06-2.73589E-18-6.17786E-19
 -1       609 9.61654E-05-2.31917E-05-3.12780E-05 9.57954E-06 2.84803E-18-4.75285E-19
 -1       610 9.13411E-05-1.58509E-05-3.23762E-05-7.76380E-06-2.35568E-18-2.52921E-18
 -1       611 1.45396E-04-6.69833E-05-3.36170E-05 1.41380E-05-2.76834E-18-4.54629E-18
 -1       612 1.26992E-04-6.44251E-05-2.67076E-05-3.76738E-05 1.73589E-18 3.65831E-18
 -1       613 9.87602E-05-3.12583E-05-2.89298E-05 2.89587E-06-2.56769E-18-1.20907E-18
 -1       614 9.15477E-05-1.68470E-05-3.20202E-05 2.43920E-06 3.02406E-19-3.14493E-18
 -1       615 9.12884E-05-1.64446E-05-3.20813E-05 8.40997E-07-1.43651E-19-3.18451E-18
 -1       616 9.28883E-05-1.89971E-05-3.16732E-05 5.26221E-06 1.46025E-18-2.66942E-18
 -1       617 9.39879E-05-2.09322E-05-3.13174E-05 6.13724E-06 1.91772E-18-2.29574E-18
 -1       618 9.52740E-05-2.40944E-05-3.04954E-05 5.14480E-06 2.00781E-18-1.66089E-18
 -1       619 1.18748E-04-8.62331E-06-4.77059E-05-2.39853E-06-2.00479E-18-3.27573E-18
 -1       620 9.54201E-05-2.57135E-05-2.98737E-05-2.43487E-06-1.60628E-18-1.41035E-18
 -1       621 9.54753E-05-2.69452E-05-2.93695E-05-8.62310E-07-1.48356E-18-1.42849E-18
 -1       622 9.54199E-05-2.77065E-05-2.90198E-05 1.38414E-07-1.06764E-18-1.54347E-18
 -1       623 9.53435E-05-2.81790E-05-2.87848E-05 7.25367E-07-1.17442E-18-1.63539E-18
 -1       624 9.52787E-05-2.84703E-05-2.86322E-05 1.02618E-06-1.11084E-18-1.27176E-18
 -1       625 9.52331E-05-2.86443E-05-2.85382E-05 1.13725E-06-5.64410E-19-8.60003E-19
 -1       626 9.52053E-05-2.87406E-05-2.84849E-05 1.12880E-06-2.43300E-19 1.58273E-20
 -1       627 9.51910E-05-2.87851E-05-2.84598E-05 1.05080E-06-4.22272E-20 2.04001E-19
 -1       628 9.51862E-05-2.87950E-05-2.84535E-05 9.38283E-07-1.01230E-19-5.64768E-19
 -1       629 9.51877E-05-2.87819E-05-2.84597E-05 8.15468E-07-8.45253E-20-7.31930E-19
 -1       630 9.51932E-05-2.87535E-05-2.84742E-05 6.98932E-07 1.21587E-19-3.86496E-19
 -1       631 9.52012E-05-2.87146E-05-2.84943E-05 6.00112E-07 9.97387E-21-4.76485E-19
 -1       632 9.52109E-05-2.86680E-05-2.85185E-05 5.27202E-07-9.46361E-19-3.60276E-19
 -1       633 9.52221E-05-2.86147E-05-2.85460E-05 4.86570E-07-1.08413E-18-4.24172E-19
 -1       634 9.52348E-05-2.85549E-05-2.85771E-05 4.83787E-07-6.11626E-19 2.03756E-19
 -1       635 9.52498E-05-2.84880E-05-2.86122E-05 5.24340E-07-1.85943E-19 5.32161E-19
 -1       636 9.52681E-05-2.84134E-05-2.86520E-05 6.14032E-07-6.53708E-19-1.27043E-19
 -1       637 9.52918E-05-2.83311E-05-2.86973E-05 7.59066E-07 3.22102E-19-9.87442E-19
 -1       638 9.53237E-05-2.82424E-05-2.87490E-05 9.65733E-07 7.41826E-19-2.34373E-18
 -1       639 9.53685E-05-2.81511E-05-2.88073E-05 1.23966E-06-2.12865E-19-1.20340E-18
 -1       640 9.54336E-05-2.80652E-05-2.88720E-05 1.58445E-06-2.48487E-19 1.61200E-19
 -1       641 9.55304E-05-2.79990E-05-2.89418E-05 1.99959E-06 2.71964E-20 4.40860E-19
 -1       642 9.56766E-05-2.79759E-05-2.90143E-05 2.47740E-06-6.64242E-20 1.02387E-18
 -1       643 9.58989E-05-2.80315E-05-2.90858E-05 2.99886E-06 3.06741E-19 7.33865E-19
 -1       644 9.62367E-05-2.82172E-05-2.91510E-05 3.52810E-06-1.15542E-19 4.05961E-20
 -1       645 9.67460E-05-2.86023E-05-2.92044E-05 4.00547E-06-7.06653E-19-2.78429E-19
 -1       646 9.75019E-05-2.92726E-05-2.92413E-05 4.33932E-06 6.76950E-19-4.02480E-19
 -1       647 9.85959E-05-3.03196E-05-2.92618E-05 4.39714E-06 2.02437E-19-1.12440E-18
 -1       648 1.00121E-04-3.18139E-05-2.92756E-05 3.99817E-06-9.70979E-20-3.60362E-19
 -1       649 1.02135E-04-3.37485E-05-2.93104E-05 2.91505E-06-5.61191E-19 2.06012E-19
 -1       650 1.04583E-04-3.59442E-05-2.94195E-05 9.02385E-07-7.82548E-19 3.46415E-19
 -1       651 1.07189E-04-3.79305E-05-2.96858E-05-2.21720E-06-5.94900E-19 7.41742E-19
 -1       652 1.09331E-04-3.88446E-05-3.02122E-05-6.35633E-06-7.43493E-19 1.53656E-19
 -1       653 1.10068E-04-3.75626E-05-3.10784E-05-1.08020E-05-1.03211E-19 8.31581E-20
 -1       654 1.08689E-04-3.34467E-05-3.22507E-05-1.39535E-05 5.09897E-19 8.02139E-19
 -1       655 1.05331E-04-2.71298E-05-3.35260E-05-1.38251E-05-4.59961E-19-4.16294E-19
 -1       656 1.01894E-04-2.15017E-05-3.44751E-05-9.20064E-06-2.34847E-19-9.59349E-19
 -1       657 1.00732E-04-1.98759E-05-3.46736E-05-1.78708E-06-1.27754E-18-7.03734E-19
 -1       658 1.02580E-04-2.32170E-05-3.40254E-05 4.75462E-06-1.55721E-18 3.05178E-19
 -1       659 1.05485E-04-2.89157E-05-3.28257E-05 7.51354E-06-9.89342E-19-2.59787E-18
 -1       660 1.07068E-04-3.35311E-05-3.15270E-05 6.35215E-06-5.17860E-19-4.25849E-18
 -1       661 1.05979E-04-3.49023E-05-3.04666E-05 3.28697E-06 6.33938E-19-3.75015E-18
 -1       662 9.49851E-05-2.81159E-05-2.86580E-05-7.40347E-07 6.32504E-19-1.17333E-18
 -1       663 1.12133E-04-4.53595E-05-2.85026E-05 2.85928E-05-4.22732E-18-3.92289E-18
 -1       664 9.50959E-05-2.77095E-05-2.88793E-05-1.31679E-07 1.05551E-18-1.20106E-18
 -1       665 9.49021E-05-2.85289E-05-2.84458E-05-1.16095E-06 2.72449E-19-4.15037E-19
 -1       666 9.49102E-05-2.86234E-05-2.84088E-05-1.15066E-06 7.65133E-19-4.63203E-19
 -1       667 9.49363E-05-2.86750E-05-2.83979E-05-1.06932E-06 5.37042E-19-9.01023E-19
 -1       668 9.49719E-05-2.86972E-05-2.84036E-05-9.52545E-07 8.95867E-19-7.26240E-19
 -1       669 9.50116E-05-2.86993E-05-2.84197E-05-8.24728E-07 7.94160E-19-3.35994E-19
 -1       670 9.50519E-05-2.86877E-05-2.84419E-05-7.02446E-07 6.98928E-19 3.42064E-19
 -1       671 9.50914E-05-2.86664E-05-2.84680E-05-5.97046E-07 4.54382E-19 3.25060E-19
 -1       672 9.51297E-05-2.86377E-05-2.84967E-05-5.16637E-07 6.59105E-19-2.53056E-19
 -1       673 9.51676E-05-2.86028E-05-2.85278E-05-4.67603E-07 6.43570E-20-1.48743E-19
 -1       674 9.52064E-05-2.85615E-05-2.85621E-05-4.55796E-07-2.52333E-19 1.62078E-19
 -1       675 9.52481E-05-2.85128E-05-2.86008E-05-4.87480E-07-1.08132E-18-1.03668E-19
 -1       676 9.52947E-05-2.84550E-05-2.86455E-05-5.70104E-07-6.57031E-19-8.80045E-19
 -1       677 9.53487E-05-2.83851E-05-2.86985E-05-7.12947E-07-1.50779E-19-8.61905E-19
 -1       678 9.54122E-05-2.82994E-05-2.87624E-05-9.27651E-07 1.04310E-19-6.31393E-19
 -1       679 9.54867E-05-2.81932E-05-2.88397E-05-1.22866E-06 6.07348E-20 6.40802E-20
 -1       680 9.55725E-05-2.80603E-05-2.89333E-05-1.63349E-06-2.34287E-19 1.30343E-18
 -1       681 9.56679E-05-2.78935E-05-2.90455E-05-2.16283E-06-9.12598E-19 1.00329E-19
 -1       682 9.57681E-05-2.76850E-05-2.91776E-05-2.84019E-06-8.72427E-19-1.70907E-18
 -1       683 9.58648E-05-2.74279E-05-2.93290E-05-3.69089E-06 7.07432E-19-2.45802E-18
 -1       684 9.59460E-05-2.71199E-05-2.94954E-05-4.73985E-06 7.18489E-19-1.45144E-18
 -1       685 9.59994E-05-2.67725E-05-2.96669E-05-6.00770E-06 4.39113E-19-1.33286E-18
 -1       686 9.60225E-05-2.64282E-05-2.98241E-05-7.50411E-06 1.15994E-18-1.31601E-18
 -1       687 9.60464E-05-2.61920E-05-2.99355E-05-9.21786E-06 1.90792E-18-4.91296E-19
 -1       688 9.61843E-05-2.62861E-05-2.99547E-05-1.11019E-05 5.70109E-19-5.54015E-19
 -1       689 9.67227E-05-2.71306E-05-2.98246E-05-1.30489E-05 1.68237E-19-3.11386E-18
 -1       690 9.82635E-05-2.94354E-05-2.94976E-05-1.48350E-05-2.23873E-19-2.68947E-18
 -1       691 1.01860E-04-3.42005E-05-2.89924E-05-1.60051E-05-7.40211E-19-2.74107E-18
 -1       692 1.09090E-04-4.23728E-05-2.85475E-05-1.53982E-05-1.61644E-18-3.24791E-18
 -1       693 1.21331E-04-5.36928E-05-2.89632E-05-1.07366E-05-1.99900E-19-1.27846E-18
 -1       694 1.37418E-04-6.00383E-05-3.32382E-05 6.58017E-06-1.84596E-18-2.71048E-18
 -1       695 1.24816E-04-5.54675E-05-2.97407E-05 1.98280E-05-3.39736E-18-3.96287E-18
 -1       696 7.22769E-05-2.27493E-05-2.08298E-05-3.45591E-05-5.99845E-19 5.65289E-18
 -1       697 1.04075E-04-3.42917E-05-2.99017E-05 1.41351E-06-6.80614E-19-4.39461E-18
 -1       698 6.14532E-05-1.28558E-05-2.04549E-05 1.67574E-05-1.64475E-18-4.16370E-19
 -1       699 9.68644E-05-3.72685E-05-2.54249E-05-3.76577E-05 1.43601E-18 1.46224E-18
 -1       700 5.40290E-05-1.10194E-05-1.80426E-05-1.13247E-05-1.48311E-18 2.16758E-18
 -1       701 6.35509E-05-2.51736E-05-1.59142E-05-3.72771E-05 4.18937E-19 3.82239E-18
 -1       702 1.12584E-04-4.48476E-05-2.89834E-05-2.85166E-05 1.14976E-18 9.30175E-19
 -1       703 1.16092E-04-4.46388E-05-3.06055E-05-1.65732E-05 2.64626E-18 1.31207E-19
 -1       704 1.12995E-04-4.08497E-05-3.09111E-05-6.84606E-06 2.20567E-18-9.03367E-19
 -1       705 3.43072E-05-1.48567E-05-7.70365E-06-6.53466E-06 4.38598E-19 3.89847E-18
 -1       706 4.09835E-05-1.61833E-05-1.00862E-05 2.01090E-05 1.38209E-18-1.93865E-19
 -1       707 5.85228E-05-2.15816E-05-1.52380E-05 3.05138E-05-9.24709E-19-1.64986E-18
 -1       708 1.34212E-04-3.88190E-05-4.11781E-05-1.58027E-05-2.07814E-19 3.59158E-18
 -1       709 6.11358E-05-3.09344E-05-1.24862E-05 3.80839E-05 2.07137E-18-1.94103E-19
 -1       710 1.44813E-04-5.17223E-05-4.01979E-05-8.48203E-06-1.90903E-18-2.53649E-18
 -1       711 1.27818E-04-1.84484E-05-4.73666E-05 9.71785E-06-3.27124E-18-3.02444E-18
 -1       712 9.52347E-05-2.70415E-05-2.92234E-05 9.20586E-07 1.34191E-18-1.11787E-18
 -1       713 9.49230E-05-2.83706E-05-2.85225E-05-1.04873E-06 3.82871E-19-8.56170E-19
 -1       714 9.50078E-05-2.36250E-05-3.05894E-05-4.72016E-06-1.96714E-18-1.36739E-18
 -1       715 9.53413E-05-2.59443E-05-2.97381E-05 2.59947E-06 1.53725E-18-1.55296E-18
 -1       716 9.18047E-05-4.58716E-05-1.94969E-05-4.75059E-05 9.05002E-19 5.87518E-18
 -1       717 8.33695E-05-3.94480E-05-1.85295E-05 4.36375E-05-1.86310E-18-2.08926E-19
 -1       718 9.20735E-05-1.76744E-05-3.18912E-05 3.94729E-06 9.36715E-19-2.87552E-18
 -1       719 1.40176E-04-4.13595E-05-4.26802E-05 7.93861E-06-1.88055E-18-2.14625E-18
 -1       720 6.87539E-05-3.37198E-05-1.45944E-05-3.22081E-05-1.11477E-18-1.56563E-18
 -1       721 9.43797E-05-4.90354E-05-1.91272E-05 3.90355E-05 1.58972E-18-2.63492E-18
 -1       722 1.22341E-04-6.10898E-05-2.61810E-05 2.52658E-05 8.41501E-19 8.06038E-19
 -1       723 1.21506E-04-1.79625E-05-4.47984E-05-1.60063E-05 5.37760E-19-3.55119E-19
 -1       724 4.08322E-05-1.49208E-05-1.05881E-05-1.09112E-05 8.82370E-19-1.22772E-18
 -1       725 9.20181E-05-1.76006E-05-3.18998E-05-3.88955E-06-1.44516E-18-2.79782E-18
 -1       726 1.01508E-04-5.25745E-05-2.06713E-05-3.02146E-05-1.05225E-18 2.23312E-19
 -1       727 1.37171E-04-5.81408E-05-3.40131E-05 1.57862E-06-4.83164E-19 2.78246E-18
 -1       728 1.24331E-04-6.28252E-05-2.62397E-05-1.82089E-05-8.31680E-19-1.87683E-18
 -1       729 1.43412E-04-6.21394E-05-3.49606E-05-1.38955E-05 3.86426E-19 2.33890E-18
 -1       730 1.22362E-04-6.22023E-05-2.55215E-05 3.60862E-05-3.38101E-18-1.00582E-18
 -1       731 1.37208E-04-6.14569E-05-3.25167E-05 2.74921E-06 1.22700E-20 3.27749E-19
 -1       732 9.12772E-05-1.64315E-05-3.20826E-05-7.77864E-07-5.95093E-19-3.04205E-18
 -1       733 9.27992E-05-1.88747E-05-3.16903E-05-5.22853E-06-1.93182E-18-2.46908E-18
 -1       734 7.72366E-05-2.39117E-05-2.26349E-05 3.20988E-05-1.98699E-18-3.44932E-18
 -1       735 4.81292E-05-1.23717E-05-1.47592E-05 1.07892E-05-1.62145E-18 1.13232E-18
 -1       736 4.52824E-05-1.26890E-05-1.36001E-05 4.69465E-06 8.13313E-19-7.46554E-19
 -1       737 4.71770E-05-1.37482E-05-1.36467E-05-1.55969E-05-2.49087E-19 2.53787E-18
 -1       738 1.14263E-04-5.55825E-05-2.48574E-05-4.09473E-05 4.20142E-19 2.47375E-18
 -1       739 9.15149E-05-1.68048E-05-3.20249E-05-2.36943E-06-1.14834E-18-2.69333E-18
 -1       740 6.16226E-05-2.28976E-05-1.62762E-05-2.24949E-05-1.54175E-18-1.06892E-18
 -1       741 9.41652E-05-2.12977E-05-3.12319E-05-6.15601E-06-2.08625E-18-1.72013E-18
 -1       742 1.10183E-04-3.81440E-05-3.08748E-05-6.87697E-07 6.35620E-19-2.96291E-18
 -1       743 9.46700E-05-2.27636E-05-3.08141E-05 3.90262E-06 1.33888E-18-2.18114E-18
 -1       744 9.55915E-05-2.55363E-05-3.00254E-05-1.80937E-06-1.40894E-18-1.81255E-18
 -1       745 9.58661E-05-2.68849E-05-2.95632E-05-5.78596E-07-1.17079E-18-1.56576E-18
 -1       746 9.59587E-05-2.77746E-05-2.92218E-05 2.21555E-07-1.15044E-18-1.07988E-18
 -1       747 9.59474E-05-2.83365E-05-2.89761E-05 6.98367E-07-9.64161E-19-1.09285E-18
 -1       748 9.58869E-05-2.86782E-05-2.88037E-05 9.42402E-07-4.52846E-19-9.54496E-19
 -1       749 9.58065E-05-2.88714E-05-2.86865E-05 1.02855E-06 2.49147E-20-8.89698E-19
 -1       750 9.57217E-05-2.89647E-05-2.86102E-05 1.01423E-06-2.00703E-19-5.55746E-19
 -1       751 9.56404E-05-2.89915E-05-2.85638E-05 9.41862E-07-5.87709E-20-5.60231E-19
 -1       752 9.55663E-05-2.89747E-05-2.85392E-05 8.41876E-07 1.19104E-19-4.23985E-19
 -1       753 9.55006E-05-2.89298E-05-2.85304E-05 7.35662E-07-2.06424E-20-9.34562E-19
 -1       754 9.54432E-05-2.88666E-05-2.85329E-05 6.38141E-07-2.58750E-19-1.52682E-18
 -1       755 9.53928E-05-2.87907E-05-2.85438E-05 5.59912E-07-2.60971E-19-1.71620E-18
 -1       756 9.53473E-05-2.87046E-05-2.85612E-05 5.08905E-07-8.78430E-19-9.03068E-19
 -1       757 9.53046E-05-2.86090E-05-2.85839E-05 4.91604E-07-7.03416E-19-5.75294E-19
 -1       758 9.52620E-05-2.85025E-05-2.86112E-05 5.13961E-07-4.09900E-19-3.05085E-19
 -1       759 9.52169E-05-2.83834E-05-2.86429E-05 5.82046E-07-6.39464E-19-6.90616E-19
 -1       760 9.51668E-05-2.82498E-05-2.86787E-05 7.02395E-07-6.96960E-19 1.53605E-20
 -1       761 9.51099E-05-2.81007E-05-2.87182E-05 8.82048E-07 1.02862E-19-2.12321E-19
 -1       762 9.50458E-05-2.79376E-05-2.87606E-05 1.12828E-06 6.94412E-19-1.14066E-18
 -1       763 9.49768E-05-2.77659E-05-2.88046E-05 1.44793E-06 4.67515E-19-4.20545E-19
 -1       764 9.49093E-05-2.75977E-05-2.88478E-05 1.84625E-06-3.28519E-19-2.36866E-19
 -1       765 9.48571E-05-2.74549E-05-2.88866E-05 2.32515E-06-2.94494E-19-3.03781E-19
 -1       766 9.48450E-05-2.73731E-05-2.89164E-05 2.88063E-06-2.48383E-19-6.55495E-19
 -1       767 9.49138E-05-2.74069E-05-2.89314E-05 3.49928E-06 2.23935E-20 1.09322E-19
 -1       768 9.51275E-05-2.76341E-05-2.89256E-05 4.15319E-06-4.19070E-19 1.56549E-18
 -1       769 9.55802E-05-2.81594E-05-2.88946E-05 4.79279E-06-5.32769E-19 1.66568E-18
 -1       770 9.64026E-05-2.91123E-05-2.88387E-05 5.33607E-06-5.93691E-19 1.30726E-18
 -1       771 9.77613E-05-3.06333E-05-2.87692E-05 5.65231E-06-1.58192E-19 8.01644E-19
 -1       772 9.98428E-05-3.28363E-05-2.87170E-05 5.53732E-06-1.30239E-19-8.87890E-19
 -1       773 1.02795E-04-3.57201E-05-2.87467E-05 4.68614E-06-3.08675E-19-5.07413E-19
 -1       774 1.06607E-04-3.90185E-05-2.89687E-05 2.70156E-06-2.34146E-19 3.09266E-19
 -1       775 1.10907E-04-4.19807E-05-2.95453E-05-8.43930E-07-1.02142E-18 9.58619E-19
 -1       776 1.14728E-04-4.31709E-05-3.06758E-05-6.07976E-06-1.37127E-18 1.22096E-18
 -1       777 1.16339E-04-4.04976E-05-3.25078E-05-1.21019E-05 3.40378E-19-3.65720E-19
 -1       778 1.14191E-04-3.28770E-05-3.49372E-05-1.60682E-05 6.13861E-19-1.61939E-18
 -1       779 1.09801E-04-2.30952E-05-3.72119E-05-1.44187E-05 5.59092E-19 1.02683E-18
 -1       780 1.05750E-04-1.59825E-05-3.86000E-05-6.50908E-06-3.38019E-20 1.35132E-18
 -1       781 1.07276E-04-1.81730E-05-3.83318E-05 3.40990E-06-2.47160E-18-5.74044E-19
 -1       782 1.11769E-04-2.69200E-05-3.64100E-05 8.62860E-06-2.53457E-18-1.09793E-18
 -1       783 1.15028E-04-3.56890E-05-3.40932E-05 7.61259E-06-1.90777E-18-2.46828E-18
 -1       784 1.13455E-04-3.83934E-05-3.21832E-05 3.00272E-06-7.45300E-19-3.49168E-18
 -1       785 9.57293E-05-2.77497E-05-2.91341E-05-2.00253E-07 7.69372E-19-1.03551E-18
 -1       786 9.55038E-05-2.88691E-05-2.85578E-05-1.07388E-06 6.46286E-19-7.45886E-19
 -1       787 9.55642E-05-2.87745E-05-2.86242E-05-1.08707E-06 5.55237E-19-8.02008E-19
 -1       788 9.54075E-05-2.88992E-05-2.85036E-05-8.90526E-07 5.62366E-19-6.46473E-19
 -1       789 9.53714E-05-2.88689E-05-2.85011E-05-7.75673E-07 2.06053E-19-3.59662E-19
 -1       790 9.53422E-05-2.88218E-05-2.85088E-05-6.68708E-07 6.95402E-19 8.34902E-20
 -1       791 9.53186E-05-2.87630E-05-2.85239E-05-5.80780E-07 6.53294E-19 5.72212E-20
 -1       792 9.52992E-05-2.86948E-05-2.85448E-05-5.20182E-07 3.33659E-19 5.21802E-19
 -1       793 9.52824E-05-2.86175E-05-2.85707E-05-4.93781E-07-4.12128E-19 4.02745E-19
 -1       794 9.52662E-05-2.85291E-05-2.86016E-05-5.08114E-07-5.37838E-19 5.29255E-19
 -1       795 9.52481E-05-2.84262E-05-2.86380E-05-5.70213E-07-1.92506E-20-1.45862E-19
 -1       796 9.52251E-05-2.83038E-05-2.86805E-05-6.88271E-07-6.42282E-19-3.99265E-19
 -1       797 9.51926E-05-2.81555E-05-2.87301E-05-8.72103E-07-3.68350E-19 3.09884E-19
 -1       798 9.51443E-05-2.79729E-05-2.87877E-05-1.13343E-06-5.18702E-19 3.96711E-19
 -1       799 9.50714E-05-2.77462E-05-2.88535E-05-1.48597E-06-6.72159E-19 2.33135E-19
 -1       800 9.49608E-05-2.74635E-05-2.89273E-05-1.94527E-06 1.23956E-19-4.64075E-21
 -1       801 9.47947E-05-2.71114E-05-2.90069E-05-2.52824E-06 4.68994E-19-6.43350E-19
 -1       802 9.45485E-05-2.66763E-05-2.90878E-05-3.25241E-06 8.94391E-20-1.78154E-18
 -1       803 9.41905E-05-2.61468E-05-2.91612E-05-4.13475E-06 2.93250E-19-1.68246E-18
 -1       804 9.36825E-05-2.55204E-05-2.92119E-05-5.19072E-06 9.87345E-19-9.39504E-19
 -1       805 9.29858E-05-2.48155E-05-2.92153E-05-6.43417E-06 1.23644E-18-2.14592E-18
 -1       806 9.20750E-05-2.40948E-05-2.91337E-05-7.88051E-06 4.98886E-19-2.68943E-18
 -1       807 9.09685E-05-2.35041E-05-2.89126E-05-9.55684E-06 1.32454E-18-2.15028E-18
 -1       808 8.97893E-05-2.33367E-05-2.84791E-05-1.15245E-05 1.42978E-18-1.61765E-18
 -1       809 8.88757E-05-2.41317E-05-2.77463E-05-1.39116E-05-6.35378E-21-1.41448E-18
 -1       810 8.89644E-05-2.68055E-05-2.66317E-05-1.69469E-05-8.65321E-19-1.46398E-18
 -1       811 9.14938E-05-3.27785E-05-2.51023E-05-2.08455E-05-1.56163E-18-7.96406E-19
 -1       812 1.22447E-04-4.71757E-05-3.22911E-05-5.93725E-06 6.70953E-19-1.92036E-18
 -1       813 1.26884E-04-5.41804E-05-3.12117E-05-1.80788E-05 2.98023E-18 9.04965E-19
 -1       814 9.48864E-05-2.33822E-05-3.06422E-05-3.51075E-06-1.67733E-18-1.93850E-18
 -1       815 9.31970E-05-1.97738E-05-3.14682E-05 1.23212E-06-4.65426E-20-2.75091E-18
 -1       816 8.86198E-05-3.92929E-05-2.09400E-05-2.78063E-05-1.07717E-18 1.38569E-19
 -1       817 9.56903E-05-2.69113E-05-2.94771E-05 6.86468E-07 9.21604E-19-1.54584E-18
 -1       818 1.35276E-04-5.12371E-05-3.61246E-05-1.43541E-07-6.62883E-19-1.87274E-18
 -1       819 1.26098E-04-5.73873E-05-2.94804E-05 9.86625E-06-7.98132E-19 4.02585E-19
 -1       820 6.16596E-05-2.27527E-05-1.64157E-05 2.63823E-05 1.99331E-19-1.54213E-18
 -1       821 9.54514E-05-2.89038E-05-2.85204E-05-9.97523E-07 5.54649E-19-7.71643E-19
 -1       822 1.29375E-04-4.74618E-05-3.51757E-05-1.05852E-05-1.50231E-18 2.74926E-18
 -1       823 8.28875E-05-3.67952E-05-1.95691E-05 3.27884E-05-1.19683E-19-1.85151E-18
 -1       824 1.20159E-04-2.98282E-05-3.88596E-05-1.75036E-05 1.53964E-18-6.09070E-19
 -1       825 1.33045E-04-6.10014E-05-3.08600E-05-2.32559E-05 1.98183E-18 2.88097E-18
 -1       826 1.13887E-04-1.53547E-05-4.25045E-05 5.01189E-06-3.46889E-18-2.42587E-18
 -1       827 1.22727E-04-3.01727E-05-3.98441E-05 1.05194E-05-2.54744E-18-3.29259E-18
 -1       828 9.40323E-05-2.13152E-05-3.11638E-05-4.46258E-06-1.79104E-18-2.29948E-18
 -1       829 9.52052E-05-2.44724E-05-3.03140E-05 3.42075E-06 1.50672E-18-1.77120E-18
 -1       830 1.08099E-04-5.16012E-05-2.41184E-05 2.69566E-05 3.66653E-19-3.30287E-19
 -1       831 1.06904E-04-4.75132E-05-2.53204E-05-2.11103E-05-1.49832E-18-1.31255E-18
 -1       832 9.30882E-05-1.95752E-05-3.15059E-05 2.22297E-08-3.55428E-19-2.79549E-18
 -1       833 9.32967E-05-1.99490E-05-3.14378E-05-3.54857E-06-1.41265E-18-2.56141E-18
 -1       834 9.56295E-05-2.85900E-05-2.87313E-05-9.91305E-07-1.17280E-19-1.09608E-18
 -1       835 9.40184E-05-2.13484E-05-3.11452E-05 3.30539E-06 9.26844E-19-2.34860E-18
 -1       836 9.56914E-05-2.82711E-05-2.88945E-05-7.23643E-07 3.48582E-19-9.89927E-19
 -1       837 9.35132E-05-2.03587E-05-3.13532E-05 2.35937E-06 4.46580E-19-2.55308E-18
 -1       838 1.18553E-04-4.25550E-05-3.24942E-05-2.63443E-07-3.53547E-19-1.51475E-18
 -1       839 5.81434E-05-1.64573E-05-1.76989E-05 1.52147E-05 6.43556E-19-1.27495E-18
 -1       840 9.27904E-05-1.90464E-05-3.16078E-05-2.36704E-06-1.04384E-18-2.47987E-18
 -1       841 9.55456E-05-2.59314E-05-2.98362E-05 1.83519E-06 1.26958E-18-1.84590E-18
 -1       842 5.49411E-05-1.53137E-05-1.67298E-05-1.04778E-05-2.38698E-19 1.26863E-18
 -1       843 7.66141E-05-2.72083E-05-2.10652E-05 2.38916E-05-9.57283E-19-2.65682E-18
 -1       844 9.61935E-05-2.69942E-05-2.96571E-05-2.86449E-07-6.16855E-19-1.27526E-18
 -1       845 9.63613E-05-2.79254E-05-2.93297E-05 2.92992E-07-8.12076E-19-9.56889E-19
 -1       846 9.63815E-05-2.85178E-05-2.90845E-05 6.36842E-07-8.76743E-19-6.58636E-19
 -1       847 9.63178E-05-2.88728E-05-2.89050E-05 8.07996E-07-3.38301E-19-9.34320E-19
 -1       848 9.62100E-05-2.90635E-05-2.87771E-05 8.60758E-07-4.69226E-20-1.51040E-18
 -1       849 9.60834E-05-2.91423E-05-2.86890E-05 8.38598E-07 1.09847E-19-1.47877E-18
 -1       850 9.59532E-05-2.91467E-05-2.86314E-05 7.74308E-07-1.51417E-19-1.43183E-18
 -1       851 9.58281E-05-2.91023E-05-2.85968E-05 6.91744E-07-9.92974E-20-2.03638E-18
 -1       852 9.57120E-05-2.90267E-05-2.85794E-05 6.07775E-07-1.65237E-19-2.09324E-18
 -1       853 9.56055E-05-2.89301E-05-2.85752E-05 5.34465E-07 1.99243E-19-1.86177E-18
 -1       854 9.55068E-05-2.88183E-05-2.85808E-05 4.80673E-07-2.31439E-19-1.41094E-18
 -1       855 9.54127E-05-2.86931E-05-2.85941E-05 4.53365E-07-6.59158E-19-1.36681E-18
 -1       856 9.53187E-05-2.85538E-05-2.86135E-05 4.58525E-07-3.59528E-19-9.59294E-19
 -1       857 9.52193E-05-2.83980E-05-2.86377E-05 5.02023E-07 2.30351E-20-6.28845E-19
 -1       858 9.51087E-05-2.82223E-05-2.86656E-05 5.90159E-07-6.36247E-19-8.96599E-20
 -1       859 9.49810E-05-2.80236E-05-2.86960E-05 7.29982E-07-1.11203E-19 2.83213E-19
 -1       860 9.48309E-05-2.78004E-05-2.87273E-05 9.29426E-07 5.44634E-20 2.15946E-20
 -1       861 9.46549E-05-2.75547E-05-2.87572E-05 1.19727E-06 6.51437E-19 5.42452E-19
 -1       862 9.44532E-05-2.72940E-05-2.87825E-05 1.54283E-06 5.28397E-20-6.35947E-19
 -1       863 9.42321E-05-2.70348E-05-2.87988E-05 1.97549E-06-2.46780E-19-5.10224E-19
 -1       864 9.40077E-05-2.68070E-05-2.88003E-05 2.50374E-06-6.94697E-19 9.78158E-20
 -1       865 9.38118E-05-2.66587E-05-2.87799E-05 3.13390E-06-9.81158E-20-4.63040E-19
 -1       866 9.36989E-05-2.66628E-05-2.87298E-05 3.86793E-06 1.33597E-19-7.00789E-19
 -1       867 9.37562E-05-2.69230E-05-2.86428E-05 4.69962E-06 2.36092E-19-9.42558E-19
 -1       868 9.41145E-05-2.75794E-05-2.85150E-05 5.60738E-06 6.87342E-20-8.12960E-20
 -1       869 9.49609E-05-2.88085E-05-2.83510E-05 6.54025E-06-9.71739E-19-2.18689E-19
 -1       870 9.65475E-05-3.08126E-05-2.81716E-05 7.39160E-06-1.69042E-18-1.20078E-18
 -1       871 9.91944E-05-3.37872E-05-2.80292E-05 7.94697E-06 6.66944E-19-1.33456E-18
 -1       872 1.03212E-04-3.77815E-05-2.80369E-05 7.76379E-06 1.42653E-19-4.04075E-19
 -1       873 1.08734E-04-4.24749E-05-2.83954E-05 6.16372E-06 7.21020E-20 8.70210E-19
 -1       874 1.15474E-04-4.68890E-05-2.93859E-05 2.34164E-06-1.19572E-18 1.88607E-18
 -1       875 1.21862E-04-4.85600E-05-3.14106E-05-4.40176E-06-1.84395E-18 2.13076E-18
 -1       876 9.56283E-05-2.89892E-05-2.85596E-05-6.68863E-07-2.84513E-20 5.47450E-20
 -1       877 9.57217E-05-2.90508E-05-2.85732E-05-7.63304E-07 3.38630E-19-1.01384E-19
 -1       878 9.54679E-05-2.88121E-05-2.85668E-05-5.20538E-07-7.45039E-20-7.23729E-20
 -1       879 9.53967E-05-2.87036E-05-2.85828E-05-4.83924E-07 1.45816E-19 3.14083E-19
 -1       880 9.53261E-05-2.85809E-05-2.86051E-05-4.81371E-07-2.14756E-19-3.46347E-19
 -1       881 9.52508E-05-2.84403E-05-2.86330E-05-5.19148E-07-2.35739E-19-9.67841E-19
 -1       882 9.51638E-05-2.82758E-05-2.86663E-05-6.03952E-07-4.50753E-19-4.48191E-19
 -1       883 9.50563E-05-2.80793E-05-2.87044E-05-7.43305E-07-5.96733E-19-7.72360E-19
 -1       884 9.49171E-05-2.78407E-05-2.87470E-05-9.45674E-07-5.38878E-19-8.60310E-19
 -1       885 9.47314E-05-2.75480E-05-2.87929E-05-1.22036E-06-4.49696E-19-8.15820E-19
 -1       886 9.44802E-05-2.71872E-05-2.88398E-05-1.57711E-06-4.51764E-19-1.03603E-18
 -1       887 9.41385E-05-2.67426E-05-2.88840E-05-2.02538E-06 3.00160E-19-1.25942E-18
 -1       888 9.36739E-05-2.61972E-05-2.89185E-05-2.57332E-06 2.73530E-19-5.72318E-20
 -1       889 9.30446E-05-2.55350E-05-2.89326E-05-3.22677E-06 5.17682E-19 1.81229E-19
 -1       890 9.21988E-05-2.47441E-05-2.89091E-05-3.98871E-06 8.64336E-19-7.84771E-19
 -1       891 9.10748E-05-2.38238E-05-2.88218E-05-4.86063E-06 1.53163E-18-1.20902E-18
 -1       892 8.96040E-05-2.27969E-05-2.86316E-05-5.84859E-06 1.54277E-18-7.17139E-19
 -1       893 8.77193E-05-2.17290E-05-2.82816E-05-6.97880E-06-8.74619E-21-1.69593E-18
 -1       894 8.53709E-05-2.07598E-05-2.76908E-05-8.33177E-06 6.73426E-19-1.30153E-18
 -1       895 8.25570E-05-2.01514E-05-2.67455E-05-1.01083E-05 6.15170E-19 2.25595E-19
 -1       896 7.94031E-05-2.03924E-05-2.52880E-05-1.27422E-05-8.44868E-19 6.69508E-20
 -1       897 7.63435E-05-2.23786E-05-2.30616E-05-1.69124E-05-1.55710E-18-9.08330E-19
 -1       898 9.43787E-05-2.20966E-05-3.09786E-05-3.02119E-06-1.40478E-18-2.31514E-18
 -1       899 6.98950E-05-2.24076E-05-2.01671E-05-1.96586E-05-1.78136E-18-1.04375E-18
 -1       900 9.61896E-05-2.78642E-05-2.92824E-05-2.78876E-07 4.73600E-19-1.24004E-18
 -1       901 9.60492E-05-2.69500E-05-2.96143E-05 3.94103E-07 4.69002E-19-1.26989E-18
 -1       902 9.28572E-05-1.91648E-05-3.15832E-05-1.13048E-06-6.43783E-19-2.60290E-18
 -1       903 9.60898E-05-4.08755E-05-2.36110E-05 2.49348E-05-1.12181E-18-8.59824E-19
 -1       904 1.14656E-04-5.10670E-05-2.72292E-05 1.47786E-05-6.54864E-19-6.25376E-19
 -1       905 9.60410E-05-2.89826E-05-2.87393E-05-9.44340E-07 3.93714E-19-8.99756E-19
 -1       906 9.55441E-05-2.89078E-05-2.85584E-05-5.84675E-07 5.27570E-19-1.35358E-20
 -1       907 9.58044E-05-2.56094E-05-3.00822E-05-1.16611E-06-9.64997E-19-1.69577E-18
 -1       908 9.57471E-05-2.58356E-05-2.99612E-05 1.27830E-06 8.19280E-19-1.57634E-18
 -1       909 9.61363E-05-2.87908E-05-2.88624E-05-8.78913E-07-7.96432E-20-1.38122E-18
 -1       910 9.58243E-05-2.90826E-05-2.86036E-05-8.54707E-07 5.37353E-19-5.54696E-19
 -1       911 9.61976E-05-2.84418E-05-2.90382E-05-6.78121E-07 2.64468E-19-1.17732E-18
 -1       912 9.38849E-05-2.10813E-05-3.12004E-05-2.20261E-06-9.30346E-19-2.42103E-18
 -1       913 9.52427E-05-2.42223E-05-3.04385E-05 2.26656E-06 9.91537E-19-1.81927E-18
 -1       914 9.59329E-05-2.90680E-05-2.86564E-05-9.23977E-07 6.32514E-19-5.04453E-19
 -1       915 5.79411E-05-1.36425E-05-1.88938E-05 1.82736E-06-4.94687E-20 1.92025E-19
 -1       916 9.45368E-05-2.22696E-05-3.09718E-05 4.30906E-07-3.08852E-19-2.48981E-18
 -1       917 9.46770E-05-2.26034E-05-3.08893E-05 1.21379E-06-7.41980E-20-2.28106E-18
 -1       918 9.66660E-05-2.81486E-05-2.93645E-05 3.11613E-07-5.47328E-19-1.36466E-18
 -1       919 9.66838E-05-2.87191E-05-2.91277E-05 5.27441E-07-6.39772E-19-1.06637E-18
 -1       920 9.66040E-05-2.90528E-05-2.89505E-05 6.27743E-07-3.58050E-19-1.15139E-18
 -1       921 9.64692E-05-2.92192E-05-2.88214E-05 6.49608E-07-7.41027E-21-1.30058E-18
 -1       922 9.63095E-05-2.92719E-05-2.87304E-05 6.23139E-07-7.95155E-20-1.05905E-18
 -1       923 9.61433E-05-2.92485E-05-2.86692E-05 5.71020E-07-4.02748E-19-1.36286E-18
 -1       924 9.59816E-05-2.91760E-05-2.86310E-05 5.09506E-07-2.37627E-19-1.54869E-18
 -1       925 9.58287E-05-2.90709E-05-2.86105E-05 4.50406E-07 3.15254E-19-1.41542E-18
 -1       926 9.56851E-05-2.89435E-05-2.86035E-05 4.02443E-07 1.59315E-19-1.30837E-18
 -1       927 9.55478E-05-2.87981E-05-2.86070E-05 3.72285E-07-6.46004E-19-1.25989E-18
 -1       928 9.54119E-05-2.86356E-05-2.86184E-05 3.65365E-07-2.24738E-19-1.45745E-18
 -1       929 9.52704E-05-2.84536E-05-2.86358E-05 3.86760E-07-6.23533E-20-9.01857E-19
 -1       930 9.51150E-05-2.82481E-05-2.86573E-05 4.41961E-07 4.13999E-19-9.19265E-19
 -1       931 9.49369E-05-2.80143E-05-2.86811E-05 5.37221E-07 5.09607E-20-3.11688E-19
 -1       932 9.47266E-05-2.77478E-05-2.87052E-05 6.79989E-07 1.63059E-19 5.62832E-20
 -1       933 9.44754E-05-2.74466E-05-2.87266E-05 8.79316E-07 4.98527E-19 4.09126E-19
 -1       934 9.41766E-05-2.71129E-05-2.87417E-05 1.14622E-06 2.27802E-19 7.68784E-19
 -1       935 9.38276E-05-2.67557E-05-2.87452E-05 1.49407E-06-4.93276E-19 1.04740E-18
 -1       936 9.34330E-05-2.63951E-05-2.87306E-05 1.93906E-06 3.72988E-19 6.06227E-19
 -1       937 9.30089E-05-2.60670E-05-2.86895E-05 2.50068E-06-7.09184E-19 8.92448E-19
 -1       938 9.25897E-05-2.58287E-05-2.86119E-05 3.20223E-06-2.23770E-19 4.63326E-19
 -1       939 9.22363E-05-2.57667E-05-2.84871E-05 4.07081E-06-9.79400E-20 4.15483E-19
 -1       940 9.20489E-05-2.60047E-05-2.83048E-05 5.13595E-06 5.66415E-19 3.69045E-19
 -1       941 9.21826E-05-2.67126E-05-2.80588E-05 6.42386E-06-3.89110E-19-1.96280E-20
 -1       942 9.28704E-05-2.81139E-05-2.77529E-05 7.94257E-06-1.16611E-18 7.97360E-20
 -1       943 9.44424E-05-3.04787E-05-2.74113E-05 9.64313E-06-6.96153E-19 1.59965E-19
 -1       944 9.73781E-05-3.41519E-05-2.70964E-05 1.14117E-05 8.11348E-19-2.24677E-19
 -1       945 1.02448E-04-3.95163E-05-2.69822E-05 1.28065E-05 2.32276E-19-2.11819E-19
 -1       946 8.85573E-05-3.22429E-05-2.41207E-05 2.00195E-05-2.77722E-19-7.96141E-19
 -1       947 9.60585E-05-2.58920E-05-3.00712E-05-6.36317E-07-5.70568E-19-1.81263E-18
 -1       948 9.54229E-05-2.86634E-05-2.86112E-05-4.12557E-07 1.25220E-19-1.43206E-19
 -1       949 9.55403E-05-2.88117E-05-2.85980E-05-4.26998E-07 3.22392E-20 1.46869E-19
 -1       950 9.51654E-05-2.83008E-05-2.86562E-05-4.79940E-07-7.48274E-20-2.52739E-19
 -1       951 9.50049E-05-2.80722E-05-2.86854E-05-5.71992E-07-1.00476E-19-1.12576E-18
 -1       952 9.48056E-05-2.77987E-05-2.87173E-05-7.10008E-07-6.71532E-19-8.52031E-19
 -1       953 9.45502E-05-2.74678E-05-2.87496E-05-8.99166E-07-6.62600E-19-1.20251E-18
 -1       954 9.42171E-05-2.70651E-05-2.87794E-05-1.14391E-06-2.77697E-19-1.81637E-18
 -1       955 9.37791E-05-2.65750E-05-2.88018E-05-1.44695E-06 1.69937E-19-1.89127E-18
 -1       956 9.32023E-05-2.59810E-05-2.88092E-05-1.80796E-06 5.18341E-20-2.67474E-18
 -1       957 9.24441E-05-2.52668E-05-2.87903E-05-2.22197E-06 3.05671E-19-2.60161E-18
 -1       958 9.14512E-05-2.44185E-05-2.87284E-05-2.67803E-06 9.66735E-19-1.97503E-18
 -1       959 9.01573E-05-2.34280E-05-2.85983E-05-3.15910E-06 5.26684E-19-6.89723E-19
 -1       960 8.84799E-05-2.22975E-05-2.83640E-05-3.64501E-06 7.71663E-19-3.91655E-19
 -1       961 8.63155E-05-2.10467E-05-2.79726E-05-4.12215E-06 1.11129E-18 6.87484E-19
 -1       962 8.35308E-05-1.97208E-05-2.73475E-05-4.60418E-06 3.23160E-19 1.15566E-18
 -1       963 7.99372E-05-1.83946E-05-2.63759E-05-5.17442E-06-3.87534E-19 8.73686E-19
 -1       964 7.52442E-05-1.71750E-05-2.48805E-05-6.07706E-06-5.69035E-19 1.26590E-18
 -1       965 6.89299E-05-1.61996E-05-2.25520E-05-7.84710E-06-9.40139E-19 2.18683E-18
 -1       966 6.45750E-05-1.65129E-05-2.04709E-05-1.02947E-05-8.96353E-19 2.37786E-18
 -1       967 9.63632E-05-2.71449E-05-2.96651E-05 1.38088E-07 4.13868E-19-1.37436E-18
 -1       968 1.06789E-04-4.43929E-05-2.67420E-05 1.48590E-05-2.43969E-20 1.18397E-19
 -1       969 9.59232E-05-2.91490E-05-2.86175E-05-5.95244E-07 1.36579E-19-7.86823E-19
 -1       970 9.45272E-05-2.22531E-05-3.09748E-05-4.18316E-07-5.36992E-19-2.25301E-18
 -1       971 9.64868E-05-2.72483E-05-2.96739E-05-6.00670E-08-4.99634E-19-1.60867E-18
 -1       972 9.49323E-05-2.32595E-05-3.07174E-05 1.86476E-06 3.31650E-19-2.06481E-18
 -1       973 9.53010E-05-2.84951E-05-2.86311E-05-4.28537E-07-1.48193E-19-2.92156E-19
 -1       974 6.90037E-05-1.89021E-05-2.13829E-05 1.43373E-05-7.70568E-19-3.12397E-18
 -1       975 9.52570E-05-2.39053E-05-3.05812E-05-1.36511E-06-7.82087E-19-1.98051E-18
 -1       976 9.60038E-05-2.60182E-05-2.99946E-05 7.55770E-07 4.11655E-19-1.33536E-18
 -1       977 9.60684E-05-2.92089E-05-2.86541E-05-6.66328E-07 3.09480E-19-1.24470E-18
 -1       978 9.64862E-05-2.89785E-05-2.89318E-05-7.18464E-07 1.05104E-19-1.66372E-18
 -1       979 9.56598E-05-2.89428E-05-2.85930E-05-4.66515E-07 4.62066E-20 2.32704E-19
 -1       980 9.42110E-05-2.16834E-05-3.10831E-05-1.45668E-06-8.42209E-19-2.33693E-18
 -1       981 9.65385E-05-2.80574E-05-2.93491E-05-3.20898E-07 4.47864E-19-1.29972E-18
 -1       982 9.63634E-05-2.91553E-05-2.88034E-05-7.51540E-07 2.87458E-19-1.71413E-18
 -1       983 9.55706E-05-2.47811E-05-3.03361E-05 1.29490E-06 4.37657E-19-1.42407E-18
 -1       984 9.55635E-05-2.43436E-05-3.05226E-05 2.00727E-09-3.89001E-19-2.43459E-18
 -1       985 9.56031E-05-2.44753E-05-3.04821E-05 4.87236E-07-1.59718E-19-2.32227E-18
 -1       986 7.99522E-05-2.43203E-05-2.38246E-05 1.56103E-05-5.73918E-19-2.00243E-18
 -1       987 9.57865E-05-2.90567E-05-2.85985E-05-5.24996E-07-2.57896E-21-5.53782E-19
 -1       988 9.68704E-05-2.89246E-05-2.91197E-05 3.64860E-07-5.16006E-19-1.52355E-18
 -1       989 9.67622E-05-2.92074E-05-2.89521E-05 4.07599E-07-1.07706E-19-9.68854E-19
 -1       990 9.66000E-05-2.93321E-05-2.88292E-05 4.09423E-07-1.95599E-19-9.23639E-19
 -1       991 9.64148E-05-2.93499E-05-2.87421E-05 3.85768E-07-3.93409E-19-1.41231E-18
 -1       992 9.62244E-05-2.92965E-05-2.86834E-05 3.50980E-07-6.13828E-20-7.54332E-19
 -1       993 9.60392E-05-2.91969E-05-2.86467E-05 3.12349E-07 8.59944E-20-1.15939E-18
 -1       994 9.58618E-05-2.90653E-05-2.86271E-05 2.78275E-07 1.93228E-19-1.76657E-18
 -1       995 9.56926E-05-2.89108E-05-2.86207E-05 2.53277E-07-7.20036E-19-2.28523E-18
 -1       996 9.55265E-05-2.87362E-05-2.86245E-05 2.42140E-07-2.24808E-19-2.10248E-18
 -1       997 9.53567E-05-2.85403E-05-2.86356E-05 2.47936E-07 4.86340E-19-1.35409E-18
 -1       998 9.51735E-05-2.83189E-05-2.86520E-05 2.75048E-07 4.86853E-19-1.07441E-18
 -1       999 9.49661E-05-2.80663E-05-2.86714E-05 3.28198E-07 4.15556E-19-9.98920E-19
 -1      1000 9.47224E-05-2.77760E-05-2.86914E-05 4.13287E-07 6.74835E-19-2.48589E-19
 -1      1001 9.44295E-05-2.74425E-05-2.87088E-05 5.38079E-07 4.79436E-19-3.49490E-20
 -1      1002 9.40748E-05-2.70625E-05-2.87197E-05 7.12894E-07 9.42390E-19 1.05735E-18
 -1      1003 9.36475E-05-2.66374E-05-2.87188E-05 9.51547E-07 8.71417E-20 5.74138E-19
 -1      1004 9.31403E-05-2.61766E-05-2.86989E-05 1.27259E-06-5.74856E-19 1.25614E-18
 -1      1005 9.25526E-05-2.57008E-05-2.86510E-05 1.70099E-06-6.68970E-19 2.33086E-19
 -1      1006 9.18949E-05-2.52476E-05-2.85634E-05 2.27026E-06-2.01104E-19 3.14173E-19
 -1      1007 9.11948E-05-2.48769E-05-2.84223E-05 3.02519E-06-4.14185E-19 7.47188E-19
 -1      1008 9.05052E-05-2.46795E-05-2.82115E-05 4.02495E-06 6.63102E-19 3.12667E-19
 -1      1009 8.99179E-05-2.47865E-05-2.79142E-05 5.34594E-06-5.05451E-19 5.89380E-19
 -1      1010 8.95846E-05-2.53837E-05-2.75160E-05 7.07978E-06-1.22075E-18 5.83243E-19
 -1      1011 8.97251E-05-2.67139E-05-2.70090E-05 9.33489E-06-1.69775E-18-3.16474E-19
 -1      1012 9.08351E-05-2.92267E-05-2.64019E-05 1.22463E-05 6.70174E-19-8.00074E-20
 -1      1013 9.55674E-05-2.45350E-05-3.04408E-05 9.13941E-07 7.81190E-20-1.99811E-18
 -1      1014 9.53875E-05-2.85809E-05-2.86314E-05-3.08633E-07 4.08578E-19 9.83655E-19
 -1      1015 9.47947E-05-2.78363E-05-2.86965E-05-4.60578E-07-3.09193E-20-5.93324E-20
 -1      1016 9.50263E-05-2.81251E-05-2.86720E-05-3.82263E-07 1.91274E-19 2.23719E-20
 -1      1017 9.41396E-05-2.70781E-05-2.87408E-05-7.08359E-07 1.45912E-19-2.31131E-18
 -1      1018 9.36687E-05-2.65813E-05-2.87519E-05-8.75749E-07-1.60858E-19-3.04444E-18
 -1      1019 9.30624E-05-2.59875E-05-2.87466E-05-1.06479E-06-3.67449E-19-2.44878E-18
 -1      1020 9.22832E-05-2.52838E-05-2.87142E-05-1.26268E-06-3.83858E-19-2.04465E-18
 -1      1021 9.12853E-05-2.44604E-05-2.86395E-05-1.44807E-06 5.20188E-19-2.41879E-18
 -1      1022 9.00127E-05-2.35119E-05-2.85007E-05-1.58888E-06-6.68797E-19-5.73204E-19
 -1      1023 8.83950E-05-2.24404E-05-2.82668E-05-1.64102E-06 4.20356E-19-2.90203E-20
 -1      1024 8.63400E-05-2.12563E-05-2.78937E-05-1.54946E-06 4.18585E-19-1.93184E-19
 -1      1025 8.37176E-05-1.99781E-05-2.73180E-05-1.25494E-06-1.26821E-19 5.29090E-19
 -1      1026 8.03423E-05-1.86368E-05-2.64456E-05-7.05728E-07 3.68811E-19 1.00831E-18
 -1      1027 7.58566E-05-1.71973E-05-2.51351E-05 1.44599E-07-6.81137E-19 5.91495E-19
 -1      1028 6.97325E-05-1.56765E-05-2.31483E-05 1.23582E-06-1.69150E-18 1.54771E-18
 -1      1029 9.67425E-05-2.76139E-05-2.96283E-05 5.42202E-08-3.14104E-19-1.89049E-18
 -1      1030 9.52190E-05-2.83700E-05-2.86496E-05-3.32461E-07-1.44098E-21 1.14119E-19
 -1      1031 9.60218E-05-2.91925E-05-2.86411E-05-4.05078E-07-2.87725E-19-1.33533E-19
 -1      1032 9.62186E-05-2.92198E-05-2.87138E-05-7.25541E-07 6.11737E-19-1.13208E-18
 -1      1033 9.63349E-05-2.63448E-05-2.99947E-05-2.53469E-07-2.59450E-19-2.10617E-18
 -1      1034 9.55436E-05-2.87656E-05-2.86192E-05-3.07519E-07 2.27197E-19 8.62904E-19
 -1      1035 9.56033E-05-2.44727E-05-3.04840E-05-4.88395E-07-4.15859E-19-2.22081E-18
 -1      1036 9.45063E-05-2.74918E-05-2.87206E-05-5.69185E-07-4.03924E-19-1.38262E-18
 -1      1037 9.68793E-05-2.84151E-05-2.93419E-05 2.57632E-07-4.56951E-19-1.69144E-18
 -1      1038 9.65583E-05-2.86362E-05-2.91096E-05-5.90385E-07 3.99476E-19-1.35247E-18
 -1      1039 9.05543E-05-3.07874E-05-2.56050E-05 1.52678E-05 1.74432E-18 4.13015E-19
 -1      1040 9.62001E-05-2.92834E-05-2.86787E-05-4.55277E-07-2.44486E-19-3.96153E-19
 -1      1041 9.56973E-05-2.89290E-05-2.86150E-05-3.26285E-07-4.90521E-19 7.89623E-19
 -1      1042 9.66444E-05-2.74640E-05-2.96496E-05-2.52907E-08 3.07343E-19-1.50637E-18
 -1      1043 9.58554E-05-2.90723E-05-2.86213E-05-3.60101E-07-3.08126E-19 3.66486E-19
 -1      1044 9.63845E-05-2.62428E-05-3.00612E-05-7.21629E-08-1.93149E-19-2.20479E-18
 -1      1045 7.48139E-05-1.86534E-05-2.40824E-05 7.98126E-06-1.61509E-18-1.69068E-18
 -1      1046 9.63667E-05-2.62256E-05-3.00588E-05 1.18731E-07-1.84738E-20-2.16142E-18
 -1      1047 9.62238E-05-2.61657E-05-3.00256E-05 3.99481E-07 2.65998E-19-1.67451E-18
 -1      1048 9.67019E-05-2.91464E-05-2.89523E-05-5.14760E-07 1.58102E-19-1.32495E-18
 -1      1049 9.67988E-05-2.88413E-05-2.91245E-05-4.49749E-07 3.37489E-19-1.30443E-18
 -1      1050 9.68049E-05-2.93194E-05-2.89222E-05 1.60056E-07-7.21947E-20-1.01485E-18
 -1      1051 9.66146E-05-2.93905E-05-2.88104E-05 1.56149E-07-5.91541E-19-8.52571E-19
 -1      1052 9.64170E-05-2.93757E-05-2.87319E-05 1.42893E-07-1.05992E-19-7.77868E-19
 -1      1053 9.62155E-05-2.92939E-05-2.86807E-05 1.27341E-07-3.41682E-19-1.02644E-18
 -1      1054 9.60181E-05-2.91697E-05-2.86492E-05 1.14685E-07-3.52700E-19-1.39707E-18
 -1      1055 9.58259E-05-2.90152E-05-2.86333E-05 1.03845E-07-4.38498E-19-1.83586E-18
 -1      1056 9.56441E-05-2.88413E-05-2.86297E-05 9.63886E-08-1.72280E-19-1.01083E-18
 -1      1057 9.54597E-05-2.86431E-05-2.86356E-05 9.60426E-08 4.59312E-19-1.07212E-18
 -1      1058 9.52639E-05-2.84188E-05-2.86478E-05 1.04898E-07 7.54312E-19-1.32741E-18
 -1      1059 9.50462E-05-2.81629E-05-2.86642E-05 1.24948E-07 3.79571E-19-8.12164E-19
 -1      1060 9.47929E-05-2.78678E-05-2.86821E-05 1.60040E-07 4.08912E-19-1.18762E-18
 -1      1061 9.44887E-05-2.75252E-05-2.86986E-05 2.15585E-07 8.46474E-19-1.71272E-18
 -1      1062 9.41170E-05-2.71276E-05-2.87096E-05 2.99438E-07 1.05339E-18-1.41117E-18
 -1      1063 9.36606E-05-2.66699E-05-2.87101E-05 4.23066E-07-9.76296E-20-1.28116E-18
 -1      1064 9.31028E-05-2.61516E-05-2.86931E-05 6.03121E-07 2.28264E-20-1.74084E-18
 -1      1065 9.24288E-05-2.55796E-05-2.86493E-05 8.63578E-07-1.21697E-19-1.10445E-18
 -1      1066 9.16279E-05-2.49715E-05-2.85665E-05 1.23859E-06-9.06263E-19-7.36562E-19
 -1      1067 9.06968E-05-2.43606E-05-2.84289E-05 1.77625E-06 4.71147E-19-1.19529E-18
 -1      1068 8.96428E-05-2.38006E-05-2.82168E-05 2.54351E-06-5.27613E-19 9.77727E-22
 -1      1069 8.84901E-05-2.33728E-05-2.79058E-05 3.63267E-06-9.49641E-20-1.32843E-18
 -1      1070 8.72878E-05-2.31950E-05-2.74667E-05 5.16996E-06-9.94094E-19-1.83320E-18
 -1      1071 8.61350E-05-2.34551E-05-2.68659E-05 7.34032E-06-1.52126E-18-1.20491E-18
 -1      1072 8.52528E-05-2.43533E-05-2.60689E-05 1.01715E-05 2.70856E-19 8.16366E-19
 -1      1073 9.24291E-05-2.55037E-05-2.86826E-05-4.24864E-07-2.66843E-19-1.79870E-18
 -1      1074 9.48568E-05-2.79325E-05-2.86819E-05-2.20880E-07 3.16573E-19-2.65398E-20
 -1      1075 9.31592E-05-2.61563E-05-2.87157E-05-4.05360E-07-6.58777E-19-1.48694E-18
 -1      1076 9.37390E-05-2.67165E-05-2.87240E-05-3.61372E-07 7.81697E-19-1.23938E-18
 -1      1077 9.15148E-05-2.47555E-05-2.86115E-05-3.93378E-07-4.65690E-20-2.35838E-18
 -1      1078 9.03778E-05-2.39152E-05-2.84846E-05-2.71487E-07-6.97734E-19-1.39679E-18
 -1      1079 8.89732E-05-2.29958E-05-2.82770E-05-2.90072E-09-7.21156E-20-3.57529E-18
 -1      1080 8.72465E-05-2.20216E-05-2.79550E-05 4.90213E-07 4.51945E-19-1.95246E-18
 -1      1081 8.51249E-05-2.10292E-05-2.74719E-05 1.31341E-06-5.82665E-19-6.85100E-19
 -1      1082 8.24983E-05-2.00591E-05-2.67611E-05 2.61358E-06-1.78050E-19 1.18897E-19
 -1      1083 7.90065E-05-1.90630E-05-2.57031E-05 4.55578E-06 4.72072E-19 5.92035E-19
 -1      1084 9.50989E-05-2.82205E-05-2.86622E-05-1.91711E-07 3.83961E-19-6.45093E-20
 -1      1085 9.53063E-05-2.84680E-05-2.86450E-05-1.74462E-07 6.43908E-19 1.14346E-19
 -1      1086 9.67961E-05-2.83013E-05-2.93545E-05-3.01857E-07 3.64079E-19-1.44782E-18
 -1      1087 8.26539E-05-2.40522E-05-2.51126E-05 1.23863E-05 8.23324E-19 5.17797E-19
 -1      1088 9.69023E-05-2.79824E-05-2.95342E-05 6.04180E-08-1.50062E-19-1.99298E-18
 -1      1089 9.54933E-05-2.86844E-05-2.86324E-05-1.68620E-07 1.09302E-19 1.28984E-19
 -1      1090 9.65512E-05-2.92882E-05-2.88269E-05-5.22514E-07 1.78927E-19-1.51020E-18
 -1      1091 9.70080E-05-2.86970E-05-2.92759E-05 1.16049E-07-1.74842E-19-1.75696E-18
 -1      1092 9.45632E-05-2.75936E-05-2.87013E-05-2.61170E-07 3.82719E-19-1.40573E-19
 -1      1093 9.41983E-05-2.71921E-05-2.87170E-05-3.09892E-07 5.28524E-19-9.83891E-19
 -1      1094 9.69448E-05-2.91042E-05-2.90744E-05 1.50133E-07 5.55961E-20-1.23012E-18
 -1      1095 9.56676E-05-2.88716E-05-2.86269E-05-1.73557E-07 1.44283E-19 1.50881E-19
 -1      1096 9.63775E-05-2.93203E-05-2.87390E-05-4.98385E-07 6.49841E-20-1.31340E-18
 -1      1097 9.60367E-05-2.91875E-05-2.86497E-05-2.09055E-07-7.08618E-19 3.43828E-19
 -1      1098 9.69385E-05-2.80182E-05-2.95384E-05-5.07398E-08 5.45113E-20-1.67842E-18
 -1      1099 9.68009E-05-2.92804E-05-2.89374E-05-2.77512E-07 3.42508E-19-6.45510E-19
 -1      1100 9.69268E-05-2.90349E-05-2.90968E-05-2.52535E-07 3.15087E-19-8.55288E-19
 -1      1101 9.62299E-05-2.93018E-05-2.86834E-05-2.32458E-07-6.29167E-19-3.53441E-20
 -1      1102 9.65377E-05-2.94033E-05-2.87716E-05-9.65827E-08-1.94074E-19 6.20136E-20
 -1      1103 9.57418E-05-2.89345E-05-2.86313E-05-6.41709E-08 3.18143E-19-7.61383E-19
 -1      1104 9.58511E-05-2.90431E-05-2.86322E-05-1.87652E-07-4.24753E-19 3.46959E-19
 -1      1105 9.66299E-05-2.93789E-05-2.88217E-05-2.74898E-07-2.93210E-20-2.49577E-19
 -1      1106 9.69739E-05-2.86204E-05-2.92949E-05-1.43345E-07 1.12016E-20-1.36197E-18
 -1      1107 1.16859E-04 2.57581E-10-4.18568E-05-4.14647E-05-2.56651E-19 1.33475E-17
 -1      1108 8.86537E-05 7.19258E-11-3.72524E-05-2.41658E-05-1.81159E-19 3.59767E-18
 -1      1109 8.40799E-05 4.14570E-11-3.57675E-05-1.78756E-05-1.46060E-19-1.02017E-18
 -1      1110 8.23349E-05 3.20242E-11-3.50730E-05-1.38331E-05-1.07520E-19-3.37627E-18
 -1      1111 8.15306E-05 2.73272E-11-3.47382E-05-1.05310E-05-8.25063E-20-4.63497E-18
 -1      1112 8.11279E-05 2.46061E-11-3.45725E-05-7.63847E-06-5.58843E-20-5.34296E-18
 -1      1113 8.09181E-05 2.29464E-11-3.44889E-05-4.97795E-06-3.37126E-20-5.72381E-18
 -1      1114 8.08156E-05 2.20500E-11-3.44495E-05-2.43116E-06-1.97200E-20-5.87563E-18
 -1      1115 8.07863E-05 2.17795E-11-3.44384E-05 5.25104E-08-6.20716E-21-6.04719E-18
 -1      1116 8.08199E-05 2.20945E-11-3.44510E-05 2.53873E-06 1.14151E-20-6.08501E-18
 -1      1117 8.09269E-05 2.30455E-11-3.44919E-05 5.09379E-06 1.95943E-20-6.07656E-18
 -1      1118 8.11434E-05 2.47632E-11-3.45769E-05 7.77019E-06 3.89569E-20-5.86731E-18
 -1      1119 8.15531E-05 2.76382E-11-3.47446E-05 1.06905E-05 6.63994E-20-5.46324E-18
 -1      1120 8.23589E-05 3.25001E-11-3.50830E-05 1.40398E-05 9.35177E-20-4.54277E-18
 -1      1121 8.40758E-05 4.19283E-11-3.57876E-05 1.81267E-05 1.34466E-19-2.53665E-18
 -1      1122 8.83517E-05 6.67518E-11-3.73226E-05 2.40085E-05 1.72689E-19 1.72739E-18
 -1      1123 1.06623E-04 1.63935E-10-4.06356E-05 3.61915E-05 4.23940E-19 1.11377E-17
 -1      1124 1.30226E-04-2.57580E-05-4.02754E-05-2.61054E-05-1.19887E-18 1.97274E-17
 -1      1125 9.74644E-05-2.88649E-05-3.15800E-05-6.80089E-07-4.06152E-19 1.69632E-17
 -1      1126 9.01685E-05-2.70292E-05-2.78958E-05 3.87060E-07-1.31184E-19 1.27142E-17
 -1      1127 8.82584E-05-2.65752E-05-2.66466E-05 2.50850E-07-1.17020E-19 9.81481E-18
 -1      1128 8.79013E-05-2.64488E-05-2.63906E-05 1.66017E-07-6.04851E-20 7.75588E-18
 -1      1129 8.82620E-05-2.65259E-05-2.64759E-05 1.18150E-07-3.16132E-20 6.61522E-18
 -1      1130 8.89493E-05-2.67107E-05-2.66789E-05 8.75424E-08-4.85084E-20 6.03921E-18
 -1      1131 8.97646E-05-2.69427E-05-2.69216E-05 6.63422E-08-5.13290E-20 5.02506E-18
 -1      1132 9.05976E-05-2.71854E-05-2.71700E-05 5.06593E-08-9.39585E-20 3.77301E-18
 -1      1133 9.13861E-05-2.74177E-05-2.74057E-05 3.85800E-08-1.74987E-20 2.67811E-18
 -1      1134 9.20967E-05-2.76284E-05-2.76188E-05 2.90874E-08-7.38486E-21 1.93521E-18
 -1      1135 9.27146E-05-2.78124E-05-2.78047E-05 2.15721E-08 1.24978E-19 2.23209E-18
 -1      1136 9.32365E-05-2.79684E-05-2.79622E-05 1.56209E-08-5.61221E-21 1.50464E-18
 -1      1137 9.36671E-05-2.80974E-05-2.80925E-05 1.09269E-08 1.12132E-20 6.14569E-19
 -1      1138 9.40153E-05-2.82021E-05-2.81982E-05 7.24914E-09 3.45565E-21 3.94597E-19
 -1      1139 9.42931E-05-2.82858E-05-2.82828E-05 4.39514E-09-1.28954E-19 2.19715E-19
 -1      1140 9.45139E-05-2.83526E-05-2.83503E-05 2.21434E-09-8.09963E-20-1.34715E-19
 -1      1141 9.46922E-05-2.84068E-05-2.84052E-05 5.96378E-10-9.36550E-20-9.63240E-19
 -1      1142 9.48436E-05-2.84530E-05-2.84520E-05-5.27826E-10 5.06430E-20-4.57621E-19
 -1      1143 9.49847E-05-2.84962E-05-2.84958E-05-1.18341E-09-3.97888E-20-1.09433E-18
 -1      1144 9.51336E-05-2.85419E-05-2.85422E-05-1.34778E-09-1.67114E-19-2.43021E-18
 -1      1145 9.53105E-05-2.85960E-05-2.85971E-05-9.46279E-10-8.67042E-20-1.52579E-18
 -1      1146 9.55379E-05-2.86654E-05-2.86675E-05 1.51353E-10-8.58515E-20-9.53839E-19
 -1      1147 9.58414E-05-2.87577E-05-2.87610E-05 2.13155E-09-2.62205E-19-2.41883E-18
 -1      1148 9.62489E-05-2.88812E-05-2.88859E-05 5.23011E-09-3.80193E-21-2.49888E-18
 -1      1149 9.67906E-05-2.90447E-05-2.90512E-05 9.71066E-09-4.58773E-20-3.21164E-19
 -1      1150 9.74956E-05-2.92569E-05-2.92651E-05 1.58158E-08 2.49979E-19-3.95220E-19
 -1      1151 9.83886E-05-2.95248E-05-2.95346E-05 2.36722E-08 7.17087E-20-1.64680E-18
 -1      1152 9.94822E-05-2.98518E-05-2.98624E-05 3.31218E-08 1.15231E-19-9.46288E-19
 -1      1153 1.00766E-04-3.02341E-05-3.02440E-05 4.34476E-08 2.08164E-19 1.47609E-19
 -1      1154 1.02191E-04-3.06564E-05-3.06623E-05 5.29692E-08-4.78881E-19 6.38272E-19
 -1      1155 1.03647E-04-3.10855E-05-3.10826E-05 5.85308E-08 1.17170E-19-5.34908E-19
 -1      1156 1.04945E-04-3.14640E-05-3.14455E-05 5.50271E-08 1.06054E-19-1.02668E-18
 -1      1157 1.05794E-04-3.17056E-05-3.16640E-05 3.53660E-08 7.34900E-20-2.93560E-19
 -1      1158 1.05809E-04-3.16964E-05-3.16264E-05-8.37108E-09 1.38308E-19-6.48882E-19
 -1      1159 1.04554E-04-3.13092E-05-3.12126E-05-8.15380E-08-7.17728E-20 5.27516E-19
 -1      1160 1.01656E-04-3.04373E-05-3.03293E-05-1.80805E-07-1.39803E-19-1.61932E-18
 -1      1161 9.69924E-05-2.90499E-05-2.89607E-05-2.87165E-07 2.51926E-20-7.43748E-19
 -1      1162 9.09013E-05-2.72515E-05-2.72199E-05-3.63991E-07-2.02434E-19 1.29437E-19
 -1      1163 8.42937E-05-2.53118E-05-2.53668E-05-3.67786E-07 2.16453E-19 1.05339E-18
 -1      1164 7.85139E-05-2.36209E-05-2.37613E-05-2.73086E-07-1.34126E-19 1.97780E-18
 -1      1165 7.48941E-05-2.25598E-05-2.27472E-05-9.76413E-08-7.84200E-20 1.50379E-18
 -1      1166 7.41829E-05-2.23418E-05-2.25162E-05 9.76160E-08-1.91244E-19 5.94273E-19
 -1      1167 7.62068E-05-2.29191E-05-2.30299E-05 2.41757E-07 4.26091E-19 4.19864E-19
 -1      1168 8.00094E-05-2.40214E-05-2.40533E-05 2.96154E-07 3.12145E-20-1.88041E-19
 -1      1169 8.43770E-05-2.53017E-05-2.52761E-05 2.72989E-07 2.06549E-19 1.32158E-18
 -1      1170 8.83883E-05-2.64919E-05-2.64419E-05 2.18182E-07-1.63584E-19 9.17125E-19
 -1      1171 9.16452E-05-2.74706E-05-2.74064E-05 1.72596E-07-1.84627E-19-6.17699E-19
 -1      1172 9.40518E-05-2.81994E-05-2.80918E-05 1.32606E-07 1.75395E-20-2.29845E-18
 -1      1173 9.51708E-05-2.85611E-05-2.84777E-05 2.97663E-09 4.89738E-19 1.59358E-19
 -1      1174 1.31060E-04-3.77398E-05-3.86610E-05 1.21745E-05-2.15914E-19 1.90709E-17
 -1      1175 9.65659E-05-2.81915E-05-3.13325E-05 8.01368E-07 1.83991E-19 1.43400E-17
 -1      1176 9.03826E-05-2.69319E-05-2.78767E-05 1.20138E-07 1.21106E-19 9.84628E-18
 -1      1177 8.83454E-05-2.65026E-05-2.66830E-05 8.99749E-09 1.31194E-19 6.66297E-18
 -1      1178 8.79419E-05-2.64114E-05-2.64177E-05-2.52934E-08 8.43493E-20 4.29110E-18
 -1      1179 8.82836E-05-2.65085E-05-2.64916E-05-3.43312E-08 1.05566E-19 2.66731E-18
 -1      1180 8.89621E-05-2.67038E-05-2.66891E-05-3.55371E-08 3.10875E-20 1.98399E-18
 -1      1181 8.97726E-05-2.69413E-05-2.69290E-05-3.38471E-08-8.93603E-21 1.50294E-18
 -1      1182 9.06028E-05-2.71869E-05-2.71755E-05-3.08191E-08 1.49892E-19-3.66898E-19
 -1      1183 9.13894E-05-2.74207E-05-2.74099E-05-2.71629E-08 7.55210E-20-1.89516E-18
 -1      1184 9.20986E-05-2.76320E-05-2.76219E-05-2.32952E-08 1.29262E-19-2.59930E-18
 -1      1185 9.27154E-05-2.78161E-05-2.78069E-05-1.94761E-08-8.36127E-20-2.79663E-18
 -1      1186 9.32363E-05-2.79718E-05-2.79636E-05-1.58613E-08 9.67084E-20-2.88000E-18
 -1      1187 9.36658E-05-2.81002E-05-2.80932E-05-1.25311E-08-1.95603E-19-2.77031E-18
 -1      1188 9.40127E-05-2.82041E-05-2.81981E-05-9.51040E-09 6.08058E-20-3.86856E-18
 -1      1189 9.42885E-05-2.82868E-05-2.82819E-05-6.78353E-09-3.67284E-21-4.11692E-18
 -1      1190 9.45067E-05-2.83524E-05-2.83483E-05-4.30634E-09-1.72138E-19-4.64181E-18
 -1      1191 9.46814E-05-2.84050E-05-2.84019E-05-2.01529E-09 1.48634E-19-5.81903E-18
 -1      1192 9.48279E-05-2.84494E-05-2.84470E-05 1.65477E-10-1.11830E-19-7.69680E-18
 -1      1193 9.49629E-05-2.84904E-05-2.84889E-05 2.31901E-09 1.93658E-20-7.35973E-18
 -1      1194 9.51048E-05-2.85338E-05-2.85331E-05 4.53145E-09 1.00107E-19-7.29112E-18
 -1      1195 9.52750E-05-2.85858E-05-2.85861E-05 6.88826E-09-5.77067E-20-7.05082E-18
 -1      1196 9.54992E-05-2.86544E-05-2.86559E-05 9.46932E-09-2.33959E-20-6.72951E-18
 -1      1197 9.58088E-05-2.87490E-05-2.87520E-05 1.23403E-08-2.73052E-19-6.17464E-18
 -1      1198 9.62435E-05-2.88816E-05-2.88867E-05 1.55356E-08 6.17600E-20-4.43676E-18
 -1      1199 9.68538E-05-2.90674E-05-2.90755E-05 1.90235E-08-3.50927E-20-4.45470E-18
 -1      1200 9.77043E-05-2.93260E-05-2.93383E-05 2.26363E-08-7.65436E-20-2.84131E-18
 -1      1201 9.88778E-05-2.96822E-05-2.97005E-05 2.59353E-08 2.18477E-19-4.95353E-18
 -1      1202 1.00479E-04-3.01671E-05-3.01943E-05 2.79581E-08-1.63943E-19-5.89050E-18
 -1      1203 1.02638E-04-3.08192E-05-3.08589E-05 2.67735E-08-1.09468E-19-5.67490E-18
 -1      1204 1.05507E-04-3.16828E-05-3.17398E-05 1.87558E-08 2.05151E-19-6.54074E-18
 -1      1205 1.09250E-04-3.28042E-05-3.28832E-05-2.41937E-09 6.69222E-20-6.08876E-18
 -1      1206 1.14000E-04-3.42187E-05-3.43203E-05-4.66571E-08-8.11431E-20-4.45486E-18
 -1      1207 1.19770E-04-3.59238E-05-3.60352E-05-1.26603E-07-8.82569E-20-2.05665E-18
 -1      1208 1.26271E-04-3.78277E-05-3.79052E-05-2.50850E-07-2.20277E-19-2.21547E-18
 -1      1209 1.32614E-04-3.96675E-05-3.96163E-05-4.03604E-07-1.73734E-19-4.04924E-18
 -1      1210 1.36952E-04-4.09158E-05-4.05934E-05-5.06768E-07 3.69214E-19-6.37466E-18
 -1      1211 1.36379E-04-4.07584E-05-4.00589E-05-3.90954E-07-2.68192E-19-5.65574E-18
 -1      1212 1.27816E-04-3.83276E-05-3.73821E-05 1.25464E-07 2.51251E-19-5.27405E-18
 -1      1213 1.10607E-04-3.33683E-05-3.27303E-05 9.65772E-07 1.47384E-19-6.32480E-18
 -1      1214 8.96883E-05-2.71343E-05-2.75500E-05 1.56735E-06 1.11325E-19-5.10062E-18
 -1      1215 7.50650E-05-2.24926E-05-2.40769E-05 1.26811E-06-3.15255E-19-4.45624E-18
 -1      1216 7.46456E-05-2.20852E-05-2.38544E-05 1.41476E-07 9.24854E-20-9.31853E-18
 -1      1217 8.66271E-05-2.56822E-05-2.64788E-05-9.23016E-07 3.59863E-19-1.08416E-17
 -1      1218 1.01322E-04-3.03119E-05-2.99256E-05-1.22248E-06 3.47985E-19-1.01301E-17
 -1      1219 1.09974E-04-3.30949E-05-3.21652E-05-8.30634E-07 4.46479E-19-9.89991E-18
 -1      1220 1.10107E-04-3.32055E-05-3.24115E-05-2.09073E-07-1.17731E-19-6.95737E-18
 -1      1221 1.04422E-04-3.14997E-05-3.11674E-05 2.92648E-07-1.24519E-19-4.37185E-18
 -1      1222 9.77692E-05-2.94838E-05-2.95495E-05 4.34024E-07 4.77568E-19-5.09501E-18
 -1      1223 9.49336E-05-2.84407E-05-2.84132E-05-1.08599E-07-2.71110E-19-3.84769E-18
 -1      1224 9.53958E-05-2.88409E-05-2.85074E-05-8.68409E-08-3.74435E-18-1.98305E-19
 -1      1225 9.42854E-05-2.57292E-05-2.99219E-05 1.66914E-07-5.67380E-19-2.37891E-19
 -1      1226 9.16829E-05-1.70391E-05-3.24815E-05 6.14184E-07 4.52474E-18 7.84551E-19
 -1      1227 8.78498E-05-4.07331E-06-3.61141E-05 8.98846E-07 2.12118E-18-5.36635E-19
 -1      1228 8.35704E-05 1.05857E-05-4.00937E-05 9.64686E-07 2.31801E-18-2.50904E-19
 -1      1229 8.00528E-05 2.27894E-05-4.33072E-05 6.80245E-07 1.94182E-18-2.11904E-19
 -1      1230 7.84813E-05 2.82888E-05-4.47229E-05 9.88434E-08-1.07250E-18-1.14001E-18
 -1      1231 7.94990E-05 2.47512E-05-4.37944E-05-5.53220E-07-2.15411E-18-3.18114E-19
 -1      1232 8.27699E-05 1.33994E-05-4.08108E-05-9.43000E-07-4.57228E-18-2.18124E-19
 -1      1233 8.71257E-05-1.59305E-06-3.67739E-05-9.50440E-07-2.69208E-18 3.24965E-19
 -1      1234 9.12557E-05-1.56568E-05-3.28484E-05-6.81468E-07-3.42593E-18-7.81361E-19
 -1      1235 9.42576E-05-2.57798E-05-2.98884E-05-3.23240E-07-4.74894E-18-2.33794E-19
 -1      1236 9.59192E-05-3.12606E-05-2.81662E-05-3.55230E-08-3.94863E-19 1.36919E-18
 -1      1237 9.64163E-05-3.27957E-05-2.75533E-05 1.60655E-07 1.10678E-17 2.01898E-20
 -1      1238 9.61725E-05-3.17498E-05-2.76967E-05 2.51979E-07 5.59254E-18-3.43651E-19
 -1      1239 9.55869E-05-2.98062E-05-2.81241E-05 2.21156E-07 3.04900E-18-5.30561E-19
 -1      1240 9.52271E-05-2.86543E-05-2.84868E-05 5.46384E-08 6.12537E-19 5.70483E-19
 -1      1241 4.13973E-05-1.30024E-04 2.22697E-05-1.65842E-05 6.40060E-18 1.92314E-18
 -1      1242 2.20996E-05-8.27587E-05 1.30597E-05-3.17407E-05 5.72933E-18 1.32688E-18
 -1      1243 8.82795E-06-1.90017E-05-3.43561E-06-7.69803E-06 2.69187E-18 7.42848E-19
 -1      1244 3.60462E-05 2.27617E-05-2.60914E-05 5.24378E-05 3.91329E-18 4.83486E-18
 -1      1245 1.21143E-04 1.33722E-05-5.11049E-05 1.11789E-04 3.57194E-18 5.85300E-18
 -1      1246 2.35709E-04-3.93546E-05-7.09903E-05 1.22418E-04 2.83671E-18 6.73391E-18
 -1      1247 3.21288E-04-8.91989E-05-8.23138E-05 6.73581E-05 1.03592E-18 6.21807E-18
 -1      1248 3.35231E-04-9.96246E-05-8.35198E-05-2.09178E-05 5.86464E-19 9.70276E-19
 -1      1249 2.71192E-04-6.50610E-05-7.42998E-05-9.29173E-05 1.97147E-18-5.80218E-18
 -1      1250 1.61904E-04-1.08939E-05-5.68822E-05-1.09494E-04 3.52196E-18-6.23586E-18
 -1      1251 6.41398E-05 1.96348E-05-3.48221E-05-7.28274E-05 6.40865E-18-6.98294E-18
 -1      1252 1.34644E-05 3.88461E-06-1.28641E-05-1.49332E-05 9.47999E-18-7.83505E-18
 -1      1253 1.06089E-05-4.92249E-05 6.37933E-06 2.61750E-05 8.66854E-18-4.58033E-18
 -1      1254 3.06881E-05-1.05768E-04 1.87844E-05 2.98941E-05 6.09864E-18-1.57305E-18
 -1      1255 4.01402E-05-1.24865E-04 2.23658E-05 2.48324E-06 4.17799E-19-1.01247E-18
 -1      1256 3.04157E-05-1.00592E-04 1.74077E-05-2.34498E-05-6.99056E-18-1.76797E-18
 -1      1257 1.13371E-05-4.36274E-05 4.71716E-06-2.00659E-05-4.19790E-18-1.70084E-18
 -1      1258 1.21776E-05 9.83774E-06-1.37218E-05 1.92990E-05-5.03476E-18-3.29750E-18
 -1      1259 5.44924E-05 2.84140E-05-3.40914E-05 7.45707E-05-8.11288E-18-9.37157E-18
 -1      1260 1.43119E-04 2.09253E-06-5.49968E-05 1.13783E-04-5.92245E-18-9.96450E-18
 -1      1261 2.50133E-04-5.30093E-05-7.22079E-05 1.04657E-04-1.53101E-18-3.71678E-18
 -1      1262 3.18072E-04-9.25928E-05-8.15302E-05 4.04223E-05-4.94985E-19-2.04135E-18
 -1      1263 3.19999E-04-9.37047E-05-8.16712E-05-4.69902E-05-8.91026E-19 4.68452E-18
 -1      1264 2.44797E-04-4.76557E-05-7.18978E-05-1.11243E-04-4.02468E-18 1.03762E-17
 -1      1265 1.37763E-04 6.74968E-06-5.42548E-05-1.17617E-04-7.18623E-18 1.13265E-17
 -1      1266 4.76007E-05 2.76064E-05-3.12316E-05-6.80395E-05-1.21007E-17 1.19974E-17
 -1      1267 9.24283E-06-5.03175E-06-7.74468E-06-3.98949E-06-1.02965E-17 8.05444E-18
 -1      1268 1.88186E-05-7.12402E-05 1.06760E-05 2.90754E-05-2.62580E-18 2.37085E-18
 -1      1269 4.05965E-05-1.27164E-04 2.17221E-05 1.72778E-05-5.30666E-19 1.60142E-19
 -1      1270 1.04449E-04-2.20208E-05-3.78939E-05-1.72744E-05-4.32199E-19 1.15213E-17
 -1      1271 9.03227E-05-6.68179E-06-3.60181E-05-2.04698E-05-1.50613E-18 1.44112E-18
 -1      1272 9.26600E-05-6.74074E-06-3.72235E-05-2.57582E-05-1.85056E-18 3.85241E-18
 -1      1273 8.59060E-05-4.09702E-06-3.51303E-05-1.64311E-05-1.63922E-18-2.03637E-18
 -1      1274 8.71587E-05-4.08974E-06-3.56000E-05-1.88518E-05-1.83118E-18-5.02688E-19
 -1      1275 9.21368E-05-1.04638E-05-3.50943E-05-1.90335E-05-2.72289E-18 1.25954E-18
 -1      1276 8.40952E-05-3.19007E-06-3.46866E-05-1.28143E-05-1.42004E-18-3.92591E-18
 -1      1277 8.47080E-05-3.16069E-06-3.49113E-05-1.46288E-05-1.59171E-18-3.05588E-18
 -1      1278 8.78673E-05-7.39517E-06-3.45739E-05-1.54096E-05-2.59547E-18-1.63774E-18
 -1      1279 8.31831E-05-2.72723E-06-3.44695E-05-9.68520E-06-1.15716E-18-4.99477E-18
 -1      1280 8.34967E-05-2.70883E-06-3.45789E-05-1.12324E-05-1.27853E-18-4.50690E-18
 -1      1281 8.58652E-05-5.98164E-06-3.43049E-05-1.19534E-05-2.16282E-18-3.28106E-18
 -1      1282 8.26906E-05-2.45703E-06-3.43625E-05-6.91359E-06-8.72378E-19-5.53724E-18
 -1      1283 8.28606E-05-2.44866E-06-3.44172E-05-8.28454E-06-9.95277E-19-5.24562E-18
 -1      1284 8.48184E-05-5.21633E-06-3.41720E-05-8.94340E-06-1.76386E-18-4.18387E-18
 -1      1285 8.24139E-05-2.29114E-06-3.43093E-05-4.29383E-06-6.38812E-19-5.80211E-18
 -1      1286 8.25056E-05-2.28725E-06-3.43367E-05-5.59484E-06-7.18539E-19-5.67073E-18
 -1      1287 8.42313E-05-4.76074E-06-3.41081E-05-6.21527E-06-1.32539E-18-4.63372E-18
 -1      1288 8.22807E-05-2.20159E-06-3.42868E-05-1.78951E-06-3.24444E-19-5.97038E-18
 -1      1289 8.23199E-05-2.20003E-06-3.42979E-05-3.04028E-06-4.45169E-19-5.86265E-18
 -1      1290 8.39073E-05-4.49653E-06-3.40789E-05-3.64383E-06-8.91511E-19-4.83688E-18
 -1      1291 8.22545E-05-2.17407E-06-3.42841E-05 6.69693E-07-1.05182E-19-6.09379E-18
 -1      1292 8.22531E-05-2.17411E-06-3.42837E-05-5.65910E-07-1.68202E-19-6.03249E-18
 -1      1293 8.37654E-05-4.37678E-06-3.40678E-05-1.17029E-06-4.13929E-19-5.01189E-18
 -1      1294 8.23285E-05-2.20438E-06-3.42995E-05 3.14774E-06 1.46434E-19-6.13972E-18
 -1      1295 8.22864E-05-2.20601E-06-3.42876E-05 1.89435E-06 5.32258E-20-6.11942E-18
 -1      1296 8.37703E-05-4.38104E-06-3.40682E-05 1.27347E-06-3.29478E-20-5.11613E-18
 -1      1297 8.25226E-05-2.29750E-06-3.43394E-05 5.71157E-06 3.75434E-19-6.09099E-18
 -1      1298 8.24275E-05-2.30086E-06-3.43113E-05 4.40461E-06 3.13496E-19-6.13820E-18
 -1      1299 8.39229E-05-4.51011E-06-3.40800E-05 3.75141E-06 3.87503E-19-5.16911E-18
 -1      1300 8.28833E-05-2.46333E-06-3.44201E-05 8.39288E-06 6.86368E-19-5.86623E-18
 -1      1301 8.27099E-05-2.47201E-06-3.43649E-05 7.01331E-06 5.70831E-19-6.00185E-18
 -1      1302 8.42564E-05-4.78339E-06-3.41094E-05 6.30949E-06 8.08379E-19-5.06224E-18
 -1      1303 8.35429E-05-2.74084E-06-3.45841E-05 1.13928E-05 1.04253E-18-5.36132E-18
 -1      1304 8.32208E-05-2.75791E-06-3.44730E-05 9.82799E-06 9.05458E-19-5.67631E-18
 -1      1305 8.48605E-05-5.25685E-06-3.41730E-05 9.05215E-06 1.32582E-18-4.77896E-18
 -1      1306 8.47658E-05-3.20332E-06-3.49193E-05 1.48415E-05 1.43628E-18-4.28088E-18
 -1      1307 8.41526E-05-3.24003E-06-3.46923E-05 1.30012E-05 1.25207E-18-4.94408E-18
 -1      1308 8.59455E-05-6.06241E-06-3.43063E-05 1.21204E-05 1.87860E-18-4.15081E-18
 -1      1309 8.72581E-05-4.09080E-06-3.56217E-05 1.90891E-05 1.74436E-18-2.05310E-18
 -1      1310 8.59739E-05-4.15462E-06-3.51381E-05 1.66909E-05 1.52479E-18-3.42696E-18
 -1      1311 8.79926E-05-7.51744E-06-3.45762E-05 1.56481E-05 2.42108E-18-2.83012E-18
 -1      1312 9.34730E-05-6.79343E-06-3.71189E-05 2.50949E-05 1.61815E-18 2.54369E-18
 -1      1313 9.01384E-05-6.43884E-06-3.60409E-05 2.11471E-05 1.54414E-18-2.94609E-19
 -1      1314 9.23669E-05-1.06993E-05-3.50797E-05 1.96744E-05 2.69589E-18-2.36163E-19
 -1      1315 1.23634E-04-2.49254E-05-3.90174E-05 2.83661E-05 9.13102E-19 1.18542E-17
 -1      1316 1.00089E-04-1.44258E-05-3.73567E-05 2.40493E-05 8.74244E-19 5.31354E-18
 -1      1317 1.01687E-04-1.93447E-05-3.54048E-05 2.13969E-05 2.70778E-18 3.97004E-18
 -1      1318 1.02614E-04-2.78081E-05-3.47606E-05 7.32805E-06 1.52744E-18 1.11808E-17
 -1      1319 1.05157E-04-3.02336E-05-3.35283E-05-7.95845E-06-1.44885E-18 1.18820E-17
 -1      1320 9.82718E-05-2.78465E-05-3.07653E-05-4.98746E-06-1.37754E-18 1.02582E-17
 -1      1321 9.55144E-05-2.78527E-05-2.92580E-05-2.48889E-06-1.06562E-18 9.50541E-18
 -1      1322 9.32830E-05-2.75620E-05-2.82190E-05-2.04228E-06-1.04172E-18 7.95520E-18
 -1      1323 9.94951E-05-2.80553E-05-3.09858E-05-7.88516E-06-2.33442E-18 5.85493E-18
 -1      1324 9.15939E-05-2.72041E-05-2.75849E-05-8.37297E-07-8.47920E-19 7.43372E-18
 -1      1325 9.08782E-05-2.71090E-05-2.72830E-05-7.26919E-07-7.80031E-19 6.27186E-18
 -1      1326 9.47295E-05-2.77733E-05-2.88199E-05-3.11900E-06-1.81339E-18 4.74340E-18
 -1      1327 9.01292E-05-2.69267E-05-2.70400E-05-1.72524E-07-5.51855E-19 5.70379E-18
 -1      1328 9.00579E-05-2.69540E-05-2.70054E-05-1.14498E-07-4.79202E-19 4.97728E-18
 -1      1329 9.25317E-05-2.75031E-05-2.78995E-05-1.05082E-06-1.35817E-18 3.72648E-18
 -1      1330 8.97994E-05-2.68868E-05-2.69315E-05 1.55549E-07-3.14578E-19 4.63510E-18
 -1      1331 9.00151E-05-2.69772E-05-2.69935E-05 1.84173E-07-2.97972E-19 4.28515E-18
 -1      1332 9.15752E-05-2.73604E-05-2.75330E-05-6.76367E-08-8.33007E-19 2.87164E-18
 -1      1333 9.00197E-05-2.69805E-05-2.70003E-05 3.15108E-07-2.71653E-19 4.09285E-18
 -1      1334 9.03629E-05-2.71005E-05-2.70996E-05 3.26812E-07-3.24485E-19 3.72558E-18
 -1      1335 9.13236E-05-2.73488E-05-2.74256E-05 4.19181E-07-6.12449E-19 2.37959E-18
 -1      1336 9.05057E-05-2.71424E-05-2.71470E-05 3.81211E-07-3.49489E-19 3.52810E-18
 -1      1337 9.08940E-05-2.72709E-05-2.72592E-05 3.82855E-07-3.58987E-19 3.00722E-18
 -1      1338 9.14579E-05-2.74229E-05-2.74482E-05 6.47058E-07-6.19660E-19 1.93640E-18
 -1      1339 9.11026E-05-2.73314E-05-2.73258E-05 3.93161E-07-4.08508E-19 2.77217E-18
 -1      1340 9.14903E-05-2.74562E-05-2.74381E-05 3.88901E-07-3.95121E-19 2.29879E-18
 -1      1341 9.17917E-05-2.75422E-05-2.75375E-05 7.28993E-07-7.69450E-19 1.56621E-18
 -1      1342 9.17218E-05-2.75229E-05-2.75112E-05 3.73936E-07-3.24642E-19 2.05509E-18
 -1      1343 9.20834E-05-2.76373E-05-2.76163E-05 3.66449E-07-3.49704E-19 1.55586E-18
 -1      1344 9.22140E-05-2.76795E-05-2.76576E-05 7.26545E-07-6.55264E-19 1.18240E-18
 -1      1345 9.23125E-05-2.77032E-05-2.76882E-05 3.37881E-07-2.47749E-19 1.45879E-18
 -1      1346 9.26346E-05-2.78039E-05-2.77823E-05 3.28926E-07-3.06468E-20 1.26799E-18
 -1      1347 9.26584E-05-2.78181E-05-2.77874E-05 6.76523E-07-5.14052E-19 8.53704E-19
 -1      1348 9.28470E-05-2.78648E-05-2.78488E-05 2.94219E-07 2.77145E-20 9.26226E-19
 -1      1349 9.31246E-05-2.79507E-05-2.79301E-05 2.84943E-07-1.03655E-19 8.02999E-19
 -1      1350 9.30855E-05-2.79481E-05-2.79141E-05 6.02115E-07-2.35733E-19 5.44934E-19
 -1      1351 9.33130E-05-2.80047E-05-2.79890E-05 2.48905E-07-2.69479E-19 5.62792E-19
 -1      1352 9.35459E-05-2.80761E-05-2.80574E-05 2.40046E-07-2.72151E-19 1.79846E-19
 -1      1353 9.34742E-05-2.80644E-05-2.80306E-05 5.18243E-07-3.88195E-19-4.64306E-19
 -1      1354 9.37079E-05-2.81224E-05-2.81080E-05 2.05746E-07-5.89658E-20 1.14350E-19
 -1      1355 9.38989E-05-2.81805E-05-2.81643E-05 1.97758E-07-1.52471E-19-5.04597E-20
 -1      1356 9.38146E-05-2.81648E-05-2.81334E-05 4.34511E-07-3.76822E-19-6.06722E-19
 -1      1357 9.40352E-05-2.82194E-05-2.82068E-05 1.67120E-07 8.75715E-21-1.26599E-19
 -1      1358 9.41893E-05-2.82659E-05-2.82524E-05 1.60278E-07-1.46285E-19-2.23166E-19
 -1      1359 9.41048E-05-2.82493E-05-2.82217E-05 3.57024E-07-2.11388E-19-7.27177E-19
 -1      1360 9.43025E-05-2.82981E-05-2.82877E-05 1.34495E-07-1.50735E-19 1.88905E-19
 -1      1361 9.44257E-05-2.83349E-05-2.83243E-05 1.28959E-07-3.71421E-20 9.13547E-20
 -1      1362 9.43479E-05-2.83193E-05-2.82962E-05 2.89603E-07 2.78332E-20-2.55620E-19
 -1      1363 9.45199E-05-2.83616E-05-2.83536E-05 1.08797E-07 4.84972E-20 2.48741E-19
 -1      1364 9.46189E-05-2.83908E-05-2.83832E-05 1.04673E-07-2.77165E-19 3.69175E-20
 -1      1365 9.45502E-05-2.83767E-05-2.83587E-05 2.34663E-07 2.05302E-20 4.77029E-19
 -1      1366 9.46990E-05-2.84135E-05-2.84081E-05 9.06981E-08-2.38531E-19 2.87538E-20
 -1      1367 9.47813E-05-2.84374E-05-2.84328E-05 8.80793E-08-8.94052E-20-2.19166E-19
 -1      1368 9.47204E-05-2.84242E-05-2.84117E-05 1.93843E-07-1.97814E-19 6.52819E-19
 -1      1369 9.48529E-05-2.84576E-05-2.84551E-05 8.08229E-08-1.08199E-19-3.65584E-19
 -1      1370 9.49262E-05-2.84787E-05-2.84772E-05 7.98186E-08-8.97119E-20-4.50505E-19
 -1      1371 9.48688E-05-2.84650E-05-2.84583E-05 1.68493E-07-2.06097E-19 8.15047E-20
 -1      1372 9.49958E-05-2.84983E-05-2.84988E-05 7.98990E-08-4.53393E-19-7.51888E-19
 -1      1373 9.50687E-05-2.85190E-05-2.85209E-05 8.06578E-08-6.57817E-19-1.51527E-18
 -1      1374 9.50071E-05-2.85025E-05-2.85020E-05 1.60018E-07-5.79285E-19-7.78147E-19
 -1      1375 9.51433E-05-2.85400E-05-2.85441E-05 8.88503E-08-3.16103E-19-1.74137E-18
 -1      1376 9.52252E-05-2.85633E-05-2.85688E-05 9.15721E-08-2.18281E-19-1.85126E-18
 -1      1377 9.51483E-05-2.85405E-05-2.85469E-05 1.70106E-07-7.46191E-19-1.18521E-18
 -1      1378 9.53128E-05-2.85879E-05-2.85961E-05 1.08830E-07 3.20291E-20-1.47247E-18
 -1      1379 9.54141E-05-2.86170E-05-2.86267E-05 1.13765E-07 1.74910E-19-1.17874E-18
 -1      1380 9.53072E-05-2.85832E-05-2.85974E-05 2.00845E-07 9.63893E-20-1.52157E-18
 -1      1381 9.55235E-05-2.86478E-05-2.86607E-05 1.41176E-07-2.40985E-19-1.34531E-18
 -1      1382 9.56561E-05-2.86863E-05-2.87005E-05 1.48610E-07-4.04920E-19-1.57170E-18
 -1      1383 9.55001E-05-2.86355E-05-2.86584E-05 2.54696E-07 3.91856E-21-1.27504E-18
 -1      1384 9.57969E-05-2.87262E-05-2.87443E-05 1.87260E-07-2.82303E-19-1.33446E-18
 -1      1385 9.59738E-05-2.87780E-05-2.87973E-05 1.97473E-07-1.84842E-19-1.55408E-18
 -1      1386 9.57451E-05-2.87027E-05-2.87354E-05 3.34279E-07-4.12680E-19-6.64062E-19
 -1      1387 9.61565E-05-2.88300E-05-2.88540E-05 2.48189E-07 1.15943E-19-1.09778E-18
 -1      1388 9.63919E-05-2.88997E-05-2.89243E-05 2.61384E-07 3.06486E-19-7.42032E-19
 -1      1389 9.60619E-05-2.87910E-05-2.88342E-05 4.41908E-07 3.00972E-19-4.66158E-20
 -1      1390 9.66270E-05-2.89670E-05-2.89972E-05 3.24292E-07 2.27162E-19-9.34747E-19
 -1      1391 9.69353E-05-2.90593E-05-2.90889E-05 3.40472E-07 4.92222E-20-3.62133E-19
 -1      1392 9.64712E-05-2.89069E-05-2.89609E-05 5.78759E-07 3.47718E-19-5.47380E-19
 -1      1393 9.72327E-05-2.91449E-05-2.91810E-05 4.14316E-07-3.26600E-19-3.77617E-19
 -1      1394 9.76268E-05-2.92641E-05-2.92978E-05 4.33094E-07-1.39346E-19-6.14615E-19
 -1      1395 9.69931E-05-2.90571E-05-2.91211E-05 7.43540E-07-2.08286E-19-4.83962E-19
 -1      1396 9.79938E-05-2.93706E-05-2.94110E-05 5.14240E-07 2.15803E-20-1.27276E-18
 -1      1397 9.84826E-05-2.95200E-05-2.95553E-05 5.34561E-07-6.25626E-20-1.42337E-18
 -1      1398 9.76449E-05-2.92481E-05-2.93192E-05 9.30487E-07-4.70941E-19-9.93841E-19
 -1      1399 9.89212E-05-2.96486E-05-2.96900E-05 6.15633E-07 3.35370E-19-1.63966E-18
 -1      1400 9.95048E-05-2.98292E-05-2.98616E-05 6.35389E-07 5.02888E-19-1.11791E-18
 -1      1401 9.84368E-05-2.94852E-05-2.95571E-05 1.12657E-06 9.31207E-20-1.50239E-18
 -1      1402 1.00008E-04-2.99790E-05-3.00151E-05 7.03581E-07 3.50699E-19-1.01323E-18
 -1      1403 1.00672E-04-3.01872E-05-3.02092E-05 7.19133E-07 1.59183E-19-5.61358E-20
 -1      1404 9.93655E-05-2.97704E-05-2.98322E-05 1.30783E-06 6.87684E-19-1.74788E-18
 -1      1405 1.01219E-04-3.03536E-05-3.03743E-05 7.54425E-07-3.53313E-19 8.70528E-19
 -1      1406 1.01924E-04-3.05789E-05-3.05788E-05 7.60102E-07-3.18820E-19 3.46734E-19
 -1      1407 1.00406E-04-3.01006E-05-3.01347E-05 1.43527E-06 1.97980E-19-6.17744E-19
 -1      1408 1.02475E-04-3.07515E-05-3.07417E-05 7.34041E-07-4.12072E-19 6.69619E-20
 -1      1409 1.03146E-04-3.09726E-05-3.09348E-05 7.21812E-07-3.49422E-19-2.45044E-19
 -1      1410 1.01500E-04-3.04634E-05-3.04443E-05 1.45111E-06-6.69802E-19 5.45082E-19
 -1      1411 1.03634E-04-3.11337E-05-3.10736E-05 5.98208E-07-1.47784E-19-4.98704E-19
 -1      1412 1.04157E-04-3.13152E-05-3.12207E-05 5.57979E-07 1.34427E-19-4.11721E-19
 -1      1413 1.02547E-04-3.08331E-05-3.07276E-05 1.27802E-06-3.95541E-19 4.24997E-19
 -1      1414 1.04483E-04-3.14373E-05-3.13048E-05 2.97830E-07-3.69369E-19-1.08584E-18
 -1      1415 1.04694E-04-3.15272E-05-3.13585E-05 2.19100E-07-3.68974E-19-1.54015E-18
 -1      1416 1.03386E-04-3.11643E-05-3.09358E-05 8.25394E-07-4.53973E-19-5.75718E-19
 -1      1417 1.04736E-04-3.15727E-05-3.13502E-05-2.07260E-07 7.75611E-19-1.70048E-18
 -1      1418 1.04437E-04-3.15046E-05-3.12544E-05-3.31401E-07 7.01036E-19-6.96235E-19
 -1      1419 1.03804E-04-3.13872E-05-3.10069E-05 9.10815E-09-5.94015E-20-1.17692E-18
 -1      1420 1.04059E-04-3.14278E-05-3.11153E-05-9.22760E-07-4.87570E-19-4.18937E-19
 -1      1421 1.03054E-04-3.11317E-05-3.08171E-05-1.08866E-06-6.16111E-19-1.06525E-18
 -1      1422 1.03541E-04-3.14058E-05-3.08729E-05-1.20873E-06 2.50126E-19-1.65574E-18
 -1      1423 1.02143E-04-3.08876E-05-3.05193E-05-1.78465E-06-3.81238E-19-8.95340E-19
 -1      1424 1.00313E-04-3.03124E-05-2.99895E-05-1.96947E-06-1.23617E-19-6.64577E-19
 -1      1425 1.02341E-04-3.11080E-05-3.04762E-05-2.75981E-06-3.72589E-19-1.84550E-18
 -1      1426 9.88320E-05-2.98747E-05-2.95319E-05-2.62906E-06 5.27533E-19-1.17740E-18
 -1      1427 9.62256E-05-2.90243E-05-2.87905E-05-2.78580E-06 2.69512E-19-9.45553E-19
 -1      1428 1.00039E-04-3.03954E-05-2.97942E-05-4.40717E-06 9.85205E-20-1.28574E-18
 -1      1429 9.42787E-05-2.84114E-05-2.82129E-05-3.19861E-06 1.17986E-19-1.23084E-19
 -1      1430 9.11966E-05-2.73785E-05-2.73482E-05-3.26411E-06 3.38019E-19 3.58930E-20
 -1      1431 9.66787E-05-2.92409E-05-2.88648E-05-5.72736E-06 3.59933E-19-6.41839E-19
 -1      1432 8.90642E-05-2.66772E-05-2.67353E-05-3.21877E-06 1.20610E-19-1.17261E-20
 -1      1433 8.60524E-05-2.56505E-05-2.58980E-05-3.14066E-06-1.61115E-19 2.25999E-19
 -1      1434 9.26308E-05-2.77560E-05-2.78005E-05-6.20130E-06 3.16421E-19 4.02619E-19
 -1      1435 8.41567E-05-2.50126E-05-2.53630E-05-2.54163E-06-1.48714E-19 5.16108E-19
 -1      1436 8.18671E-05-2.42305E-05-2.47269E-05-2.31580E-06-3.40686E-19-1.59520E-19
 -1      1437 8.86020E-05-2.62232E-05-2.67754E-05-5.43965E-06 1.82466E-19-1.18280E-19
 -1      1438 8.06354E-05-2.38222E-05-2.43762E-05-1.28121E-06-5.96808E-19-6.07190E-19
 -1      1439 7.95772E-05-2.34759E-05-2.40746E-05-9.71399E-07-1.47119E-19-6.39010E-19
 -1      1440 8.54660E-05-2.50294E-05-2.59797E-05-3.45651E-06-9.14425E-19-1.00061E-18
 -1      1441 7.92543E-05-2.33943E-05-2.39675E-05 1.83815E-07 2.31716E-19-7.67276E-19
 -1      1442 7.95685E-05-2.35352E-05-2.40382E-05 4.72217E-07-2.19957E-19-1.03428E-18
 -1      1443 8.39214E-05-2.44967E-05-2.55559E-05-7.83920E-07-7.75300E-20-2.12677E-18
 -1      1444 8.01018E-05-2.37544E-05-2.41652E-05 1.38879E-06-4.99170E-19-4.24734E-19
 -1      1445 8.15112E-05-2.42720E-05-2.45386E-05 1.56709E-06 7.98487E-19-2.52866E-19
 -1      1446 8.41652E-05-2.47091E-05-2.55481E-05 1.73801E-06 1.71319E-19-8.76150E-19
 -1      1447 8.25956E-05-2.46634E-05-2.48303E-05 2.02882E-06 9.96566E-19-1.18807E-18
 -1      1448 8.45691E-05-2.53538E-05-2.53696E-05 2.07183E-06 2.95229E-19-3.64065E-19
 -1      1449 8.58161E-05-2.54701E-05-2.58909E-05 3.39418E-06 6.22278E-19-1.58293E-18
 -1      1450 8.58187E-05-2.57654E-05-2.57312E-05 2.09250E-06 8.56722E-19 9.69323E-20
 -1      1451 8.78360E-05-2.64395E-05-2.62970E-05 2.03958E-06 5.91316E-19 1.13137E-18
 -1      1452 8.81493E-05-2.64286E-05-2.64452E-05 3.94268E-06 1.14822E-18 5.08915E-19
 -1      1453 8.89595E-05-2.67724E-05-2.66465E-05 1.79676E-06-5.78174E-19 3.91673E-19
 -1      1454 9.07025E-05-2.73306E-05-2.71446E-05 1.71212E-06-6.43967E-19-7.31148E-19
 -1      1455 9.04703E-05-2.72800E-05-2.70574E-05 3.63653E-06-8.45213E-20-1.74449E-19
 -1      1456 9.15745E-05-2.75663E-05-2.74302E-05 1.39341E-06-3.49626E-19-3.04230E-19
 -1      1457 9.29344E-05-2.80006E-05-2.78145E-05 1.31655E-06-7.80362E-19-1.35496E-18
 -1      1458 9.23751E-05-2.78985E-05-2.76066E-05 2.93680E-06-1.03320E-18-1.81998E-18
 -1      1459 9.35633E-05-2.81856E-05-2.80095E-05 9.62298E-07-4.62821E-19-7.99837E-19
 -1      1460 9.44998E-05-2.85111E-05-2.82532E-05 8.82468E-07 1.87869E-19-1.31167E-18
 -1      1461 9.37916E-05-2.83547E-05-2.80142E-05 2.14226E-06-4.45774E-19-7.85021E-19
 -1      1462 9.50763E-05-2.87255E-05-2.83757E-05 1.95716E-07 9.33854E-20 2.75792E-19
 -1      1463 9.49959E-05-2.89433E-05-2.82722E-05 9.78770E-07 1.05712E-18-5.77437E-19
 -1      1464 9.65887E-05-2.83671E-05-2.97758E-05 2.99488E-06 1.35544E-18 8.28652E-18
 -1      1465 1.02547E-04-2.94016E-05-3.21589E-05 4.46194E-06 1.14508E-18 1.04216E-17
 -1      1466 1.02336E-04-2.67211E-05-3.27086E-05 1.27815E-05 2.29271E-18 6.26296E-18
 -1      1467 9.20438E-05-2.74332E-05-2.77657E-05 1.15112E-06 1.01827E-18 5.63899E-18
 -1      1468 9.39895E-05-2.75881E-05-2.86796E-05 1.47310E-06 9.85099E-19 7.29350E-18
 -1      1469 9.64979E-05-2.80336E-05-2.95371E-05 4.86607E-06 2.03542E-18 4.46560E-18
 -1      1470 9.02128E-05-2.70089E-05-2.70673E-05 3.30832E-07 7.39949E-19 3.62329E-18
 -1      1471 9.08268E-05-2.70261E-05-2.73397E-05 4.93753E-07 7.32842E-19 4.89619E-18
 -1      1472 9.30545E-05-2.75825E-05-2.81025E-05 1.85011E-06 1.59918E-18 2.97605E-18
 -1      1473 8.96972E-05-2.68912E-05-2.68921E-05-5.60895E-08 5.29250E-19 2.22250E-18
 -1      1474 8.97335E-05-2.68286E-05-2.69200E-05 3.30819E-08 5.07004E-19 3.10273E-18
 -1      1475 9.15027E-05-2.73117E-05-2.75191E-05 5.16029E-07 1.12679E-18 1.79550E-18
 -1      1476 8.98307E-05-2.69442E-05-2.69344E-05-2.43391E-07 3.57723E-19 1.30814E-18
 -1      1477 8.96012E-05-2.68363E-05-2.68691E-05-1.93096E-07 3.14580E-19 1.86087E-18
 -1      1478 9.09723E-05-2.72312E-05-2.73234E-05-1.33892E-07 7.73126E-19 9.68999E-19
 -1      1479 9.02847E-05-2.70870E-05-2.70731E-05-3.26500E-07 7.78923E-20 8.40316E-19
 -1      1480 8.99369E-05-2.69595E-05-2.69713E-05-2.98791E-07 1.14170E-19 9.84438E-19
 -1      1481 9.09910E-05-2.72746E-05-2.73128E-05-4.52611E-07 4.31507E-19 3.17412E-19
 -1      1482 9.08799E-05-2.72695E-05-2.72527E-05-3.50838E-07 5.20119E-19 8.70591E-20
 -1      1483 9.04917E-05-2.71389E-05-2.71390E-05-3.37123E-07 3.56094E-19 6.22801E-19
 -1      1484 9.12963E-05-2.73868E-05-2.73946E-05-5.92595E-07 5.34828E-19-1.29492E-19
 -1      1485 9.15136E-05-2.74618E-05-2.74435E-05-3.41375E-07 4.94356E-19-1.25665E-18
 -1      1486 9.11284E-05-2.73381E-05-2.73305E-05-3.36461E-07 5.72286E-19-2.69906E-19
 -1      1487 9.17371E-05-2.75307E-05-2.75206E-05-6.30608E-07 9.48544E-19-6.12100E-19
 -1      1488 9.21264E-05-2.76466E-05-2.76282E-05-3.13185E-07 2.00830E-19-1.92707E-18
 -1      1489 9.17688E-05-2.75350E-05-2.75229E-05-3.13717E-07 2.06155E-19-1.56342E-18
 -1      1490 9.22242E-05-2.76830E-05-2.76629E-05-6.09991E-07 5.85198E-19-1.06985E-18
 -1      1491 9.26861E-05-2.78146E-05-2.77971E-05-2.75796E-07-3.33344E-20-1.92912E-18
 -1      1492 9.23683E-05-2.77175E-05-2.77033E-05-2.79537E-07 5.73416E-20-1.91365E-18
 -1      1493 9.27050E-05-2.78299E-05-2.78050E-05-5.57169E-07 1.63392E-19-1.80399E-18
 -1      1494 9.31771E-05-2.79614E-05-2.79455E-05-2.35328E-07 1.16577E-19-2.05392E-18
 -1      1495 9.29039E-05-2.78794E-05-2.78646E-05-2.40770E-07 4.35221E-21-1.97096E-18
 -1      1496 9.31498E-05-2.79638E-05-2.79376E-05-4.88914E-07 6.45069E-20-1.29788E-18
 -1      1497 9.35948E-05-2.80858E-05-2.80720E-05-1.95693E-07 1.78917E-19-2.38887E-18
 -1      1498 9.33663E-05-2.80182E-05-2.80041E-05-2.01814E-07 2.59169E-19-2.17791E-18
 -1      1499 9.35438E-05-2.80811E-05-2.80558E-05-4.16019E-07 3.59739E-19-1.57051E-18
 -1      1500 9.39416E-05-2.81888E-05-2.81771E-05-1.59337E-07 1.46402E-19-2.62506E-18
 -1      1501 9.37547E-05-2.81343E-05-2.81215E-05-1.65451E-07 1.68285E-19-2.60478E-18
 -1      1502 9.38820E-05-2.81807E-05-2.81577E-05-3.45385E-07 3.46384E-19-2.13383E-18
 -1      1503 9.42244E-05-2.82725E-05-2.82630E-05-1.27750E-07 1.41779E-19-3.30482E-18
 -1      1504 9.40742E-05-2.82292E-05-2.82182E-05-1.33395E-07 1.95172E-19-2.91670E-18
 -1      1505 9.41657E-05-2.82636E-05-2.82436E-05-2.81354E-07 3.61407E-19-2.64653E-18
 -1      1506 9.44527E-05-2.83399E-05-2.83325E-05-1.01834E-07 7.85348E-20-3.33550E-18
 -1      1507 9.43334E-05-2.83058E-05-2.82968E-05-1.06692E-07 8.15412E-20-3.23369E-18
 -1      1508 9.44003E-05-2.83315E-05-2.83150E-05-2.26618E-07 1.91637E-19-2.64346E-18
 -1      1509 9.46381E-05-2.83942E-05-2.83891E-05-8.21917E-08 9.74574E-20-4.08353E-18
 -1      1510 9.45428E-05-2.83673E-05-2.83604E-05-8.60208E-08 2.30098E-19-3.68706E-18
 -1      1511 9.45940E-05-2.83869E-05-2.83742E-05-1.82901E-07 3.75921E-19-2.97305E-18
 -1      1512 9.47932E-05-2.84395E-05-2.84366E-05-6.93434E-08 6.36890E-19-5.21036E-18
 -1      1513 9.47148E-05-2.84173E-05-2.84128E-05-7.19268E-08 4.63845E-19-4.57887E-18
 -1      1514 9.47568E-05-2.84330E-05-2.84244E-05-1.51469E-07 7.10212E-19-3.80548E-18
 -1      1515 9.49323E-05-2.84798E-05-2.84792E-05-6.39130E-08-5.56977E-19-5.60045E-18
 -1      1516 9.48629E-05-2.84600E-05-2.84580E-05-6.50102E-08 2.14602E-19-5.47627E-18
 -1      1517 9.49004E-05-2.84732E-05-2.84689E-05-1.33540E-07 5.43811E-19-3.62095E-18
 -1      1518 9.50711E-05-2.85199E-05-2.85218E-05-6.67859E-08 2.01399E-19-5.26384E-18
 -1      1519 9.50021E-05-2.84997E-05-2.85007E-05-6.60894E-08-3.59040E-19-5.33071E-18
 -1      1520 9.50382E-05-2.85113E-05-2.85118E-05-1.30629E-07-3.90033E-19-3.77972E-18
 -1      1521 9.52279E-05-2.85652E-05-2.85699E-05-7.92582E-08-6.04027E-19-4.64310E-18
 -1      1522 9.51495E-05-2.85415E-05-2.85458E-05-7.63489E-08-4.17570E-19-4.92376E-18
 -1      1523 9.51852E-05-2.85518E-05-2.85579E-05-1.44844E-07-4.00621E-19-2.52825E-18
 -1      1524 9.54241E-05-2.86218E-05-2.86301E-05-1.03190E-07-2.11878E-19-4.39739E-18
 -1      1525 9.53246E-05-2.85910E-05-2.85995E-05-9.74879E-08-1.62672E-19-4.53004E-18
 -1      1526 9.53594E-05-2.85999E-05-2.86125E-05-1.79183E-07-6.89358E-19-2.25981E-18
 -1      1527 9.56858E-05-2.86976E-05-2.87101E-05-1.41173E-07-1.96265E-19-4.81443E-18
 -1      1528 9.55509E-05-2.86552E-05-2.86689E-05-1.31880E-07-1.37843E-20-4.51017E-18
 -1      1529 9.55819E-05-2.86615E-05-2.86821E-05-2.37834E-07-1.46681E-19-2.65560E-18
 -1      1530 9.60451E-05-2.88020E-05-2.88199E-05-1.96729E-07-2.79149E-19-4.09604E-18
 -1      1531 9.58573E-05-2.87423E-05-2.87626E-05-1.82755E-07-4.67918E-19-4.89825E-18
 -1      1532 9.58786E-05-2.87442E-05-2.87749E-05-3.26510E-07-2.99486E-19-3.15412E-18
 -1      1533 9.65426E-05-2.89469E-05-2.89716E-05-2.74534E-07-3.04692E-19-3.38720E-18
 -1      1534 9.62794E-05-2.88627E-05-2.88916E-05-2.54407E-07-3.33524E-19-3.89686E-18
 -1      1535 9.62814E-05-2.88570E-05-2.89005E-05-4.52833E-07-5.06602E-19-3.62314E-18
 -1      1536 9.72293E-05-2.91473E-05-2.91809E-05-3.80670E-07-5.78584E-19-2.59597E-18
 -1      1537 9.68621E-05-2.90294E-05-2.90695E-05-3.52426E-07-1.95531E-19-2.75668E-18
 -1      1538 9.68296E-05-2.90113E-05-2.90712E-05-6.26752E-07-6.54313E-19-2.07361E-18
 -1      1539 9.81696E-05-2.94222E-05-2.94672E-05-5.22837E-07 4.93489E-19-1.87563E-18
 -1      1540 9.76619E-05-2.92588E-05-2.93136E-05-4.83895E-07-1.95402E-19-1.75776E-18
 -1      1541 9.75724E-05-2.92211E-05-2.93021E-05-8.60943E-07-6.03337E-19-1.07335E-18
 -1      1542 9.94445E-05-2.97956E-05-2.98551E-05-7.10389E-07 3.43943E-19-3.19065E-18
 -1      1543 9.87499E-05-2.95716E-05-2.96454E-05-6.57449E-07 7.97329E-19-1.96007E-18
 -1      1544 9.85702E-05-2.95038E-05-2.96119E-05-1.17099E-06 1.13616E-18-4.77148E-19
 -1      1545 1.01153E-04-3.02971E-05-3.03747E-05-9.53826E-07-2.68966E-19-3.25522E-18
 -1      1546 1.00214E-04-2.99937E-05-3.00918E-05-8.82885E-07-3.13626E-19-3.99224E-18
 -1      1547 9.98963E-05-2.98809E-05-3.00231E-05-1.57491E-06 6.41197E-20-8.70644E-19
 -1      1548 1.03413E-04-3.09623E-05-3.10612E-05-1.26299E-06 5.80105E-19-4.17632E-18
 -1      1549 1.02160E-04-3.05568E-05-3.06846E-05-1.16969E-06 3.16547E-19-3.93339E-18
 -1      1550 1.01637E-04-3.03781E-05-3.05616E-05-2.09106E-06 5.13272E-19-2.28083E-18
 -1      1551 1.06351E-04-3.18310E-05-3.19523E-05-1.64241E-06-2.82011E-19-4.72089E-18
 -1      1552 1.04708E-04-3.12980E-05-3.14598E-05-1.52322E-06 2.79858E-19-4.80628E-18
 -1      1553 1.03886E-04-3.10254E-05-3.12554E-05-2.73234E-06 7.24193E-19-3.70841E-18
 -1      1554 1.10084E-04-3.29426E-05-3.30800E-05-2.08099E-06-3.24476E-19-4.30102E-18
 -1      1555 1.07979E-04-3.22584E-05-3.24524E-05-1.93618E-06-3.49619E-19-5.02972E-18
 -1      1556 1.06737E-04-3.18555E-05-3.21293E-05-3.49305E-06-3.82402E-19-3.93253E-18
 -1      1557 1.14662E-04-3.43224E-05-3.44524E-05-2.53158E-06-3.47360E-19-2.87906E-18
 -1      1558 1.12063E-04-3.34755E-05-3.36844E-05-2.37161E-06-5.39964E-19-3.90446E-18
 -1      1559 1.10252E-04-3.28999E-05-3.31943E-05-4.32216E-06-6.79926E-19-3.40863E-18
 -1      1560 1.19966E-04-3.59543E-05-3.60186E-05-2.87554E-06 4.14101E-19-2.44951E-18
 -1      1561 1.16947E-04-3.49681E-05-3.51405E-05-2.73315E-06 1.16001E-19-2.13288E-18
 -1      1562 1.14410E-04-3.41799E-05-3.44278E-05-5.07503E-06-3.05997E-19-3.40185E-18
 -1      1563 1.25528E-04-3.77289E-05-3.76121E-05-2.87396E-06-6.15841E-19-2.41349E-18
 -1      1564 1.22384E-04-3.67017E-05-3.67254E-05-2.82245E-06 6.50561E-20-1.96422E-18
 -1      1565 1.19020E-04-3.56858E-05-3.57410E-05-5.44023E-06-8.18495E-20-2.15415E-18
 -1      1566 1.30290E-04-3.93590E-05-3.88873E-05-2.13417E-06 7.31525E-19-3.79884E-18
 -1      1567 1.27696E-04-3.85235E-05-3.82050E-05-2.30371E-06 2.73195E-19-3.24472E-18
 -1      1568 1.23581E-04-3.73336E-05-3.69405E-05-4.86515E-06 6.57959E-19-2.68823E-18
 -1      1569 1.32425E-04-4.02821E-05-3.93037E-05-1.87464E-07 3.81668E-19-4.85451E-18
 -1      1570 1.31550E-04-4.00543E-05-3.91605E-05-7.46738E-07 3.45338E-19-3.96177E-18
 -1      1571 1.27133E-04-3.88781E-05-3.77095E-05-2.58051E-06 7.98011E-19-2.91942E-18
 -1      1572 1.29574E-04-3.96436E-05-3.82739E-05 3.14636E-06-1.06607E-19-3.64399E-18
 -1      1573 1.31893E-04-4.05741E-05-3.90306E-05 2.10884E-06-5.34160E-19-4.70257E-18
 -1      1574 1.28197E-04-3.97795E-05-3.76673E-05 2.04700E-06-2.08450E-19-2.37668E-18
 -1      1575 1.20060E-04-3.66287E-05-3.55626E-05 7.02234E-06 4.32993E-19-4.06046E-18
 -1      1576 1.26511E-04-3.90847E-05-3.73495E-05 5.75257E-06 3.72747E-19-3.48438E-18
 -1      1577 1.25102E-04-3.91330E-05-3.65667E-05 8.57662E-06 1.50454E-19-3.34414E-18
 -1      1578 1.05206E-04-3.14124E-05-3.17646E-05 9.10287E-06 1.55143E-19-3.57437E-18
 -1      1579 1.14707E-04-3.49532E-05-3.41771E-05 8.33785E-06-1.07737E-19-3.94760E-18
 -1      1580 1.17115E-04-3.60826E-05-3.45764E-05 1.43063E-05 4.03069E-20-1.69624E-18
 -1      1581 9.08972E-05-2.61435E-05-2.83239E-05 6.85288E-06-5.41995E-19-2.49155E-18
 -1      1582 9.95596E-05-2.91564E-05-3.04198E-05 7.38071E-06-7.78741E-20-3.77057E-18
 -1      1583 1.06232E-04-3.10312E-05-3.23702E-05 1.47399E-05-1.09400E-19-1.39983E-18
 -1      1584 8.48093E-05-2.40390E-05-2.67404E-05 7.26900E-07 1.53771E-18-5.20046E-18
 -1      1585 8.79931E-05-2.46989E-05-2.75706E-05 2.39798E-06 1.17298E-18-3.23334E-18
 -1      1586 9.76058E-05-2.66611E-05-3.07842E-05 7.55120E-06 1.03777E-18-2.67574E-18
 -1      1587 8.95655E-05-2.61915E-05-2.75224E-05-4.96015E-06-2.46738E-19-8.49881E-18
 -1      1588 8.60356E-05-2.43215E-05-2.68251E-05-3.38923E-06 6.02796E-19-7.02148E-18
 -1      1589 9.60148E-05-2.61568E-05-3.03073E-05-3.18967E-06 2.10509E-18-4.73476E-18
 -1      1590 9.99704E-05-3.02992E-05-2.97471E-05-6.37808E-06 4.19563E-19-7.54992E-18
 -1      1591 9.31332E-05-2.75724E-05-2.81970E-05-5.92340E-06-5.77703E-21-7.55088E-18
 -1      1592 1.00961E-04-2.94311E-05-3.08331E-05-9.88188E-06-8.31416E-20-5.11391E-18
 -1      1593 1.08304E-04-3.32696E-05-3.17994E-05-3.79349E-06-2.74736E-19-7.54505E-18
 -1      1594 1.02868E-04-3.14810E-05-3.04510E-05-4.35767E-06-8.99973E-22-8.13639E-18
 -1      1595 1.07308E-04-3.32179E-05-3.17511E-05-9.05350E-06 8.01505E-20-4.84429E-18
 -1      1596 1.10514E-04-3.38223E-05-3.25449E-05-4.01069E-08-1.01398E-18-6.25891E-18
 -1      1597 1.08895E-04-3.35765E-05-3.20641E-05-9.17110E-07-1.99238E-19-6.72354E-18
 -1      1598 1.10400E-04-3.48054E-05-3.23121E-05-3.43414E-06-3.77062E-19-5.05477E-18
 -1      1599 1.07175E-04-3.24293E-05-3.18886E-05 2.58722E-06-1.31384E-18-3.06234E-18
 -1      1600 1.08960E-04-3.33181E-05-3.22681E-05 1.95363E-06-1.52578E-18-5.15316E-18
 -1      1601 1.09027E-04-3.39655E-05-3.20936E-05 2.36616E-06-2.34943E-18-2.44392E-18
 -1      1602 1.01379E-04-3.02723E-05-3.05092E-05 3.17750E-06 1.53811E-19-3.06872E-18
 -1      1603 1.04580E-04-3.14769E-05-3.12939E-05 3.02758E-06 2.49029E-19-3.11465E-18
 -1      1604 1.04601E-04-3.17339E-05-3.12168E-05 5.41294E-06-4.76284E-19-1.51453E-18
 -1      1605 9.66627E-05-2.85262E-05-2.92476E-05 1.78088E-06 3.10987E-20-2.84664E-18
 -1      1606 9.89658E-05-2.92444E-05-2.99220E-05 2.13928E-06-4.20208E-21-3.58266E-18
 -1      1607 9.94438E-05-2.92024E-05-3.01513E-05 4.83479E-06 1.03441E-18-1.43262E-18
 -1      1608 9.54397E-05-2.81068E-05-2.89370E-05 3.57490E-07-1.21500E-18-1.47167E-18
 -1      1609 9.42602E-05-2.30969E-05-3.05887E-05 3.48681E-06 1.30586E-18 1.69894E-18
 -1      1610 9.52049E-05-2.60366E-05-2.96861E-05 2.86658E-06-6.65060E-19 1.93968E-18
 -1      1611 9.16360E-05-1.49297E-05-3.29352E-05 5.80378E-06 2.42564E-18 1.96794E-18
 -1      1612 9.33777E-05-2.01863E-05-3.14545E-05 5.35562E-06 1.25083E-18 1.30554E-18
 -1      1613 9.46627E-05-2.24355E-05-3.10845E-05 8.40453E-06 4.29681E-19 1.74761E-18
 -1      1614 8.80422E-05-4.23239E-06-3.59499E-05 7.24370E-06 4.03188E-19-1.77693E-18
 -1      1615 9.03332E-05-1.09086E-05-3.41071E-05 7.02572E-06 1.73176E-18-6.83946E-20
 -1      1616 9.20986E-05-1.55980E-05-3.28916E-05 1.22008E-05 5.40989E-19 3.18716E-19
 -1      1617 8.41342E-05 6.82108E-06-3.89572E-05 6.94395E-06 1.52646E-18-6.22357E-19
 -1      1618 8.64588E-05 2.98538E-07-3.71973E-05 7.15645E-06 5.12773E-19 2.70495E-19
 -1      1619 8.87225E-05-7.04263E-06-3.50164E-05 1.36887E-05 1.89947E-19-9.55966E-19
 -1      1620 8.11356E-05 1.48726E-05-4.10612E-05 4.39275E-06-3.77194E-19-3.43670E-19
 -1      1621 8.27065E-05 1.05974E-05-3.99313E-05 5.10407E-06 3.64648E-19-1.43673E-18
 -1      1622 8.51095E-05 1.41175E-06-3.69411E-05 1.14467E-05-9.87376E-19-1.87795E-18
 -1      1623 8.02403E-05 1.71299E-05-4.16160E-05 3.74442E-08-1.68528E-18-1.31229E-18
 -1      1624 8.04369E-05 1.66304E-05-4.14902E-05 1.05559E-06-6.13252E-19-8.24640E-19
 -1      1625 8.25376E-05 7.11405E-06-3.81472E-05 5.16664E-06-2.05633E-18-1.42267E-18
 -1      1626 8.20082E-05 1.23435E-05-4.03580E-05-4.39230E-06-2.44226E-18-5.35828E-19
 -1      1627 8.06807E-05 1.59724E-05-4.13208E-05-3.53610E-06-1.41118E-18-1.98550E-19
 -1      1628 8.22155E-05 7.73499E-06-3.82512E-05-3.33593E-06-1.34159E-18-4.06364E-19
 -1      1629 8.56769E-05 2.31751E-06-3.77076E-05-7.13353E-06-1.32550E-18 7.56374E-21
 -1      1630 8.33783E-05 8.71938E-06-3.94278E-05-6.77126E-06-2.36629E-18 2.94079E-19
 -1      1631 8.43942E-05 2.82051E-06-3.71886E-05-1.06224E-05-8.49124E-19-6.65794E-19
 -1      1632 8.98201E-05-9.47078E-06-3.44923E-05-7.50115E-06-1.68189E-18-8.13850E-19
 -1      1633 8.73806E-05-2.43191E-06-3.64278E-05-7.64964E-06-1.08198E-18 7.76709E-19
 -1      1634 8.80695E-05-5.72562E-06-3.52640E-05-1.40757E-05 4.25846E-19-6.24819E-20
 -1      1635 9.32326E-05-1.97909E-05-3.15513E-05-6.01760E-06-2.02361E-18-1.12688E-18
 -1      1636 9.12985E-05-1.39350E-05-3.32100E-05-6.46510E-06-6.23734E-19-3.96729E-19
 -1      1637 9.17957E-05-1.50066E-05-3.30047E-05-1.33282E-05 5.16161E-20-6.31483E-19
 -1      1638 9.53595E-05-2.67975E-05-2.94484E-05-3.77497E-06-1.74378E-18 1.10173E-18
 -1      1639 9.42066E-05-2.30474E-05-3.05488E-05-4.26774E-06-1.27817E-18-1.06316E-18
 -1      1640 9.45388E-05-2.26447E-05-3.09568E-05-9.87033E-06 5.86279E-19-1.10366E-18
 -1      1641 9.63129E-05-3.04708E-05-2.82567E-05-1.58439E-06 3.98276E-18 3.68725E-18
 -1      1642 9.58552E-05-2.87395E-05-2.88000E-05-1.99625E-06-1.32809E-18 4.41777E-18
 -1      1643 9.60508E-05-2.76775E-05-2.94364E-05-5.59645E-06 1.06426E-18 3.70558E-18
 -1      1644 9.63624E-05-3.13478E-05-2.78761E-05 1.46074E-08 4.69514E-18-5.60537E-19
 -1      1645 9.64215E-05-3.12007E-05-2.79672E-05-2.42824E-07 4.05322E-18 1.14705E-18
 -1      1646 9.65204E-05-3.01513E-05-2.85394E-05-1.85074E-06 9.27746E-19 3.35894E-18
 -1      1647 9.59195E-05-3.05551E-05-2.79986E-05 7.85073E-07 1.95572E-18-1.46619E-18
 -1      1648 9.62023E-05-3.12559E-05-2.78378E-05 7.34522E-07 4.75307E-18-1.31716E-18
 -1      1649 9.62843E-05-3.06306E-05-2.81836E-05 6.25481E-07 1.21367E-18-1.80539E-18
 -1      1650 9.53598E-05-2.93848E-05-2.82597E-05 1.04413E-06 1.50802E-18-5.54189E-19
 -1      1651 9.56843E-05-3.01621E-05-2.80793E-05 1.18547E-06 1.87471E-18-7.03148E-19
 -1      1652 9.57325E-05-2.99352E-05-2.81724E-05 1.75375E-06 6.24700E-19-9.72321E-19
 -1      1653 9.48153E-05-2.90245E-05-2.81968E-05 1.91835E-06 3.06737E-19-1.65742E-18
 -1      1654 2.48649E-05-8.11460E-05 1.70287E-05-8.00360E-06 4.78404E-18 1.06197E-18
 -1      1655 2.85456E-05-9.20018E-05 1.93822E-05 1.63757E-06 2.78769E-18 1.91472E-18
 -1      1656 2.28020E-05-5.11738E-05 6.75155E-06-6.69670E-07 2.41828E-18-8.84514E-19
 -1      1657 2.86901E-05-7.63752E-05 1.30463E-05-3.32626E-06 3.59650E-18 6.36254E-19
 -1      1658 3.55546E-05-1.83018E-05-1.01505E-05 2.61491E-05 1.33323E-18 3.96411E-19
 -1      1659 3.13189E-05-4.30625E-05-7.09344E-07 7.23167E-06 2.20737E-18-3.98105E-20
 -1      1660 8.87286E-05-1.10372E-05-3.24811E-05 6.29232E-05 2.75879E-18 4.93227E-18
 -1      1661 6.08914E-05-1.90013E-05-2.05960E-05 3.66342E-05 1.82281E-18 3.57956E-18
 -1      1662 1.61580E-04-2.40123E-05-5.47387E-05 8.00629E-05 3.38220E-18 4.97547E-18
 -1      1663 1.13907E-04-1.10846E-05-4.34834E-05 6.54902E-05 2.95106E-18 4.96954E-18
 -1      1664 2.32614E-04-4.89228E-05-7.17661E-05 7.27683E-05 1.55346E-18 4.37747E-18
 -1      1665 1.85462E-04-2.54705E-05-6.42542E-05 8.41349E-05 3.19162E-18 4.88653E-18
 -1      1666 2.69697E-04-6.71529E-05-7.95504E-05 2.49002E-05 1.08399E-18 3.81334E-18
 -1      1667 2.46793E-04-5.34936E-05-7.63709E-05 5.78791E-05 1.31481E-18 4.29192E-18
 -1      1668 2.58218E-04-6.20011E-05-7.77364E-05-2.66469E-05 2.40939E-18-5.79371E-19
 -1      1669 2.69896E-04-6.72399E-05-7.97955E-05 9.64579E-06 2.28402E-18 2.59626E-18
 -1      1670 2.09683E-04-4.15120E-05-6.76050E-05-6.32002E-05 2.56450E-18-3.71847E-18
 -1      1671 2.50015E-04-6.13548E-05-7.41438E-05-4.21484E-05 1.64282E-18-1.83721E-18
 -1      1672 1.38150E-04-1.89290E-05-4.97704E-05-6.49030E-05 3.63335E-18-5.01274E-18
 -1      1673 1.86907E-04-3.70942E-05-5.96316E-05-6.87289E-05 2.94344E-18-4.55788E-18
 -1      1674 7.50378E-05-1.12538E-05-2.90646E-05-4.48203E-05 5.73018E-18-4.99411E-18
 -1      1675 1.10950E-04-1.39544E-05-3.99274E-05-6.59105E-05 4.38763E-18-5.02968E-18
 -1      1676 3.73987E-05-2.62395E-05-9.01827E-06-1.51898E-05 6.02410E-18-4.38085E-18
 -1      1677 5.15861E-05-1.02136E-05-1.90365E-05-3.75438E-05 6.00038E-18-5.38289E-18
 -1      1678 2.82156E-05-5.87548E-05 7.41845E-06 1.78740E-06 4.60278E-18-2.72141E-18
 -1      1679 2.72838E-05-3.40901E-05-6.38652E-07-9.20469E-06 5.88180E-18-4.06449E-18
 -1      1680 2.60596E-05-8.29013E-05 1.74190E-05 5.78357E-06 3.39406E-18-1.76924E-18
 -1      1681 1.98810E-05-6.54485E-05 1.36679E-05 1.12987E-05 4.82639E-18-1.60735E-18
 -1      1682 2.40890E-05-8.12938E-05 1.82360E-05-2.18127E-06-1.54478E-18-1.94119E-18
 -1      1683 2.41704E-05-8.26719E-05 1.86132E-05 8.31591E-06 2.23606E-18-2.70034E-18
 -1      1684 2.06499E-05-6.17879E-05 1.21954E-05-4.56360E-06-3.33562E-18-2.80950E-19
 -1      1685 2.62886E-05-8.02402E-05 1.64322E-05 2.09131E-07-2.20059E-18-1.25509E-18
 -1      1686 2.46777E-05-2.86478E-05-1.60216E-06 1.28082E-05-2.85958E-18-1.85543E-18
 -1      1687 2.66642E-05-5.42691E-05 6.24354E-06 2.38758E-06-3.35679E-18-5.44430E-19
 -1      1688 4.77985E-05-4.22320E-06-1.95066E-05 4.23099E-05-3.54144E-18-4.13098E-18
 -1      1689 3.54524E-05-2.10171E-05-9.92932E-06 2.05786E-05-3.13317E-18-2.27344E-18
 -1      1690 9.74136E-05-3.10004E-06-3.86998E-05 7.14463E-05-4.86705E-18-6.68478E-18
 -1      1691 6.66229E-05-2.45523E-06-2.88585E-05 5.04385E-05-4.24364E-18-5.50487E-18
 -1      1692 1.72003E-04-2.65902E-05-5.79746E-05 7.90978E-05-3.73796E-18-3.45759E-18
 -1      1693 1.24809E-04-9.41574E-06-4.81228E-05 7.20949E-05-4.44735E-18-5.30920E-18
 -1      1694 2.38267E-04-5.42623E-05-7.26139E-05 5.73476E-05-1.10630E-18-2.82909E-18
 -1      1695 1.96525E-04-3.25937E-05-6.61702E-05 7.55408E-05-2.66667E-18-3.90228E-18
 -1      1696 2.65900E-04-6.66911E-05-7.87418E-05 5.96069E-06-1.20533E-18-4.04564E-19
 -1      1697 2.49465E-04-5.79241E-05-7.63518E-05 3.95458E-05-1.46367E-18-2.42251E-18
 -1      1698 2.53787E-04-5.87869E-05-7.71066E-05-4.87138E-05-2.71601E-18 4.53417E-18
 -1      1699 2.70887E-04-6.91465E-05-7.94183E-05-1.19306E-05-2.05003E-18 1.19082E-18
 -1      1700 1.92786E-04-2.96991E-05-6.54859E-05-7.93124E-05-6.10605E-18 8.68971E-18
 -1      1701 2.36395E-04-5.21454E-05-7.24319E-05-6.28458E-05-3.76485E-18 6.19859E-18
 -1      1702 1.20629E-04-4.96724E-06-4.78304E-05-7.72901E-05-6.87537E-18 9.67058E-18
 -1      1703 1.67511E-04-2.18840E-05-5.75706E-05-8.63658E-05-5.61710E-18 9.63585E-18
 -1      1704 6.43579E-05-9.19434E-06-2.52686E-05-4.47267E-05-9.83998E-18 8.19589E-18
 -1      1705 9.72489E-05-5.76960E-06-3.72728E-05-7.10847E-05-7.91383E-18 7.59196E-18
 -1      1706 3.31211E-05-3.43682E-05-4.37161E-06-1.27134E-05-4.89924E-18 6.13760E-18
 -1      1707 4.10445E-05-1.09037E-05-1.44960E-05-3.49603E-05-8.13152E-18 8.80406E-18
 -1      1708 2.85386E-05-7.19118E-05 1.14365E-05 2.19790E-06-1.73049E-18 2.13098E-18
 -1      1709 2.28850E-05-4.32759E-05 4.05739E-06-3.69499E-06-3.10692E-18 3.77777E-18
 -1      1710 2.87866E-05-9.20751E-05 1.92566E-05-2.70906E-06 1.86178E-18 2.66498E-18
 -1      1711 2.41554E-05-7.83023E-05 1.62944E-05 6.94277E-06-4.73068E-19 5.18596E-19
 -1      1712 1.33906E-04-4.53781E-05-3.71458E-05 4.43602E-05 2.38228E-18 5.30073E-18
 -1      1713 8.33108E-05-4.53652E-05-1.72406E-05 4.40182E-05 6.68309E-19 3.10903E-18
 -1      1714 9.57643E-05-2.75494E-05-2.93457E-05 1.77892E-06-1.53421E-18 1.82823E-19
 -1      1715 9.63941E-05-2.66607E-05-2.99862E-05 4.78686E-06-1.30612E-19 2.56816E-18
 -1      1716 2.20736E-05-5.95469E-05 1.08760E-05 1.46105E-05 1.15747E-18-4.94032E-19
 -1      1717 4.27052E-05-5.14988E-05-2.46411E-08 2.88577E-05 1.02999E-18-3.61736E-19
 -1      1718 1.44132E-05-6.11797E-05 1.45262E-05-1.12936E-06 1.82731E-18 3.43853E-18
 -1      1719 1.76309E-04-3.74515E-05-5.61958E-05 4.12983E-05 2.87335E-18 3.57702E-18
 -1      1720 2.11308E-04-3.50345E-05-6.98453E-05 3.21976E-05 1.48760E-18 2.94005E-18
 -1      1721 2.20235E-04-3.30861E-05-7.43304E-05 1.11789E-05 2.48689E-18 1.59226E-18
 -1      1722 2.15483E-04-3.64715E-05-7.12518E-05-9.01834E-06 3.19882E-18 3.17637E-19
 -1      1723 1.89350E-04-3.96167E-05-6.02470E-05-2.60782E-05 3.13013E-18-2.27682E-18
 -1      1724 1.46618E-04-4.08900E-05-4.35146E-05-3.64701E-05 3.99122E-18-3.90990E-18
 -1      1725 9.71449E-05-4.09617E-05-2.46772E-05-3.78719E-05 4.01324E-18-3.23651E-18
 -1      1726 5.72704E-05-4.74497E-05-6.98626E-06-2.92537E-05 2.78589E-18-3.04212E-18
 -1      1727 2.90796E-05-5.32623E-05 6.63886E-06-1.80808E-05 2.57710E-18-1.95792E-18
 -1      1728 1.38592E-05-5.72377E-05 1.38325E-05-2.11080E-06 1.22862E-18-3.78793E-18
 -1      1729 1.42865E-05-5.60556E-05 1.32684E-05 9.44256E-06 4.11234E-19-2.41404E-18
 -1      1730 2.79097E-05-5.06044E-05 5.86781E-06 2.25392E-05-1.09310E-18 2.79521E-19
 -1      1731 5.33192E-05-4.09952E-05-7.63805E-06 3.47418E-05-1.29088E-18-1.64049E-18
 -1      1732 8.90626E-05-3.26588E-05-2.45326E-05 4.52359E-05-1.83721E-18-4.61379E-18
 -1      1733 1.35329E-04-3.19102E-05-4.24859E-05 4.78919E-05-2.73083E-18-2.68509E-18
 -1      1734 1.79946E-04-3.33034E-05-5.90495E-05 3.86164E-05-2.79140E-18-1.56193E-18
 -1      1735 2.10479E-04-3.36625E-05-7.04898E-05 2.22022E-05-2.05427E-18-2.09471E-18
 -1      1736 2.23473E-04-3.59116E-05-7.46948E-05-3.86142E-06-3.12089E-18-1.32931E-19
 -1      1737 2.13196E-04-3.50723E-05-7.08919E-05-2.80741E-05-4.64026E-18 3.72356E-18
 -1      1738 1.79004E-04-3.19937E-05-5.89785E-05-4.62202E-05-5.47734E-18 7.39883E-18
 -1      1739 1.34186E-04-3.45112E-05-4.12638E-05-5.01857E-05-5.81234E-18 7.35818E-18
 -1      1740 8.79965E-05-3.96177E-05-2.12311E-05-4.62410E-05-5.41000E-18 7.23578E-18
 -1      1741 4.74184E-05-4.83882E-05-2.84690E-06-3.22735E-05-1.56786E-18 6.97934E-18
 -1      1742 2.36930E-05-5.84071E-05 9.84549E-06-1.74898E-05-6.38663E-19 2.61924E-18
 -1      1743 1.06059E-04-2.31727E-05-3.56062E-05-1.68517E-05-1.79010E-18 9.51536E-18
 -1      1744 8.91535E-05-1.05876E-05-3.37966E-05-1.33240E-05-2.74643E-18-1.55981E-18
 -1      1745 9.04857E-05-1.16326E-05-3.39365E-05-1.51333E-05-3.01585E-18-5.88847E-19
 -1      1746 9.24938E-05-1.38764E-05-3.38552E-05-1.59991E-05-2.93505E-18 5.79318E-19
 -1      1747 9.42123E-05-1.58234E-05-3.40994E-05-1.76601E-05-2.99451E-18 2.17116E-18
 -1      1748 9.34211E-05-1.63494E-05-3.30457E-05-1.37670E-05-3.05467E-18 1.02544E-19
 -1      1749 8.62094E-05-7.67361E-06-3.37291E-05-7.86228E-06-1.93248E-18-3.40614E-18
 -1      1750 8.66145E-05-7.97245E-06-3.37634E-05-9.25141E-06-2.16787E-18-3.14147E-18
 -1      1751 8.55907E-05-7.03500E-06-3.37259E-05-5.31927E-06-1.45295E-18-3.75602E-18
 -1      1752 8.58260E-05-7.21401E-06-3.37411E-05-6.62359E-06-1.69574E-18-3.60521E-18
 -1      1753 8.75915E-05-9.86616E-06-3.33424E-05-6.92729E-06-1.96520E-18-3.31523E-18
 -1      1754 8.52552E-05-6.67631E-06-3.37290E-05-2.88853E-06-9.24019E-19-3.92023E-18
 -1      1755 8.53763E-05-6.77106E-06-3.37350E-05-4.12804E-06-1.17725E-18-3.83636E-18
 -1      1756 8.69541E-05-9.15373E-06-3.33754E-05-4.53697E-06-1.39171E-18-3.61491E-18
 -1      1757 8.51243E-05-6.52824E-06-3.37324E-05-5.17508E-07-3.71287E-19-4.08541E-18
 -1      1758 8.51600E-05-6.55673E-06-3.37338E-05-1.72700E-06-6.19931E-19-4.00882E-18
 -1      1759 8.66219E-05-8.77503E-06-3.33953E-05-2.21723E-06-8.58534E-19-3.79606E-18
 -1      1760 8.51698E-05-6.56581E-06-3.37340E-05 1.84488E-06 9.62714E-20-4.15877E-18
 -1      1761 8.51280E-05-6.53282E-06-3.37323E-05 6.34376E-07-1.03457E-19-4.13964E-18
 -1      1762 8.65237E-05-8.66157E-06-3.34018E-05 6.52916E-08-2.61091E-19-3.96644E-18
 -1      1763 8.54016E-05-6.79618E-06-3.37352E-05 4.25057E-06 5.65943E-19-4.21987E-18
 -1      1764 8.52732E-05-6.69542E-06-3.37290E-05 3.00785E-06 3.42451E-19-4.21664E-18
 -1      1765 8.66397E-05-8.79474E-06-3.33946E-05 2.34903E-06 2.20270E-19-4.05644E-18
 -1      1766 8.58595E-05-7.24960E-06-3.37409E-05 6.71160E-06 1.10496E-18-4.02616E-18
 -1      1767 8.56209E-05-7.06729E-06-3.37259E-05 5.42447E-06 8.08191E-19-4.12976E-18
 -1      1768 8.69886E-05-9.19191E-06-3.33740E-05 4.65217E-06 7.42001E-19-3.99334E-18
 -1      1769 8.66742E-05-8.03965E-06-3.37621E-05 9.37295E-06 1.74763E-18-3.69423E-18
 -1      1770 8.62525E-05-7.72293E-06-3.37281E-05 7.95227E-06 1.41882E-18-3.89172E-18
 -1      1771 8.76418E-05-9.92472E-06-3.33400E-05 7.02713E-06 1.37147E-18-3.77807E-18
 -1      1772 8.80886E-05-9.38795E-06-3.38179E-05 1.22516E-05 2.37739E-18-3.04784E-18
 -1      1773 8.73475E-05-8.82980E-06-3.37456E-05 1.06586E-05 2.01829E-18-3.44059E-18
 -1      1774 8.87646E-05-1.11600E-05-3.32899E-05 9.50092E-06 2.05906E-18-3.35375E-18
 -1      1775 9.06349E-05-1.18410E-05-3.39286E-05 1.52999E-05 2.90514E-18-1.70039E-18
 -1      1776 8.92533E-05-1.07413E-05-3.37885E-05 1.35102E-05 2.57961E-18-2.48059E-18
 -1      1777 9.06642E-05-1.32233E-05-3.32076E-05 1.19726E-05 2.63259E-18-2.51541E-18
 -1      1778 9.58819E-05-1.70363E-05-3.39949E-05 1.76880E-05 3.01818E-18 1.01607E-18
 -1      1779 9.28613E-05-1.43446E-05-3.38284E-05 1.61910E-05 2.90153E-18-6.45492E-19
 -1      1780 9.39742E-05-1.68884E-05-3.30255E-05 1.38915E-05 3.06897E-18-1.02825E-18
 -1      1781 1.01932E-04-2.50967E-05-3.33613E-05 1.44205E-05 2.64571E-18 4.48133E-18
 -1      1782 9.80831E-05-1.96187E-05-3.36272E-05 1.69619E-05 2.84049E-18 2.19032E-18
 -1      1783 9.73357E-05-2.18563E-05-3.24295E-05 1.32458E-05 3.11761E-18 1.04032E-18
 -1      1784 9.87601E-05-2.61378E-05-3.13447E-05 9.43289E-06 2.67906E-18 3.62259E-18
 -1      1785 1.00162E-04-1.95653E-05-3.42200E-05-1.88672E-05-2.49810E-18 4.81941E-18
 -1      1786 9.53200E-05-2.72883E-05-2.91880E-05 4.06479E-06 2.20123E-18 2.41019E-18
 -1      1787 9.77498E-05-2.73933E-05-3.01969E-05 6.39888E-06 2.29710E-18 3.21689E-18
 -1      1788 9.75840E-05-2.56172E-05-3.08350E-05 8.75746E-06 2.68986E-18 1.79424E-18
 -1      1789 9.98218E-05-2.25440E-05-3.28381E-05-1.44652E-05-2.65383E-18 3.60953E-18
 -1      1790 9.69674E-05-2.69811E-05-2.98795E-05-5.70293E-06-2.08513E-18 3.17316E-18
 -1      1791 9.51599E-05-2.70361E-05-2.91691E-05-3.89610E-06-1.87084E-18 2.67032E-18
 -1      1792 9.43409E-05-2.72376E-05-2.86616E-05-2.41908E-06-1.68129E-18 2.60705E-18
 -1      1793 9.35704E-05-2.73189E-05-2.83566E-05-1.56579E-06-1.43138E-18 2.12914E-18
 -1      1794 9.55128E-05-2.65475E-05-2.95777E-05-4.47075E-06-2.07849E-18 1.21331E-18
 -1      1795 9.30456E-05-2.73698E-05-2.80878E-05-7.39841E-07-1.10643E-18 2.01192E-18
 -1      1796 9.27445E-05-2.74334E-05-2.79659E-05-3.01940E-07-8.92055E-19 1.68903E-18
 -1      1797 9.43042E-05-2.72242E-05-2.87690E-05-1.82662E-06-1.56288E-18 9.44025E-19
 -1      1798 9.24684E-05-2.74606E-05-2.78298E-05 1.52761E-07-7.80724E-19 1.55225E-18
 -1      1799 9.24370E-05-2.75367E-05-2.77999E-05 3.76337E-07-7.01603E-19 1.31605E-18
 -1      1800 9.36024E-05-2.75300E-05-2.83331E-05-3.62174E-07-1.12052E-18 6.70661E-19
 -1      1801 9.23331E-05-2.75680E-05-2.77415E-05 6.15423E-07-7.65562E-19 1.20345E-18
 -1      1802 9.24476E-05-2.76530E-05-2.77606E-05 7.18718E-07-7.80540E-19 9.29888E-19
 -1      1803 9.32804E-05-2.77144E-05-2.81120E-05 4.39012E-07-9.42806E-19 3.50902E-19
 -1      1804 9.24522E-05-2.76909E-05-2.77483E-05 8.28811E-07-8.56843E-19 8.77472E-19
 -1      1805 9.26390E-05-2.77774E-05-2.77927E-05 8.61641E-07-8.44263E-19 7.95865E-19
 -1      1806 9.32157E-05-2.78572E-05-2.80190E-05 8.48504E-07-1.01800E-18 6.54267E-20
 -1      1807 9.27065E-05-2.78186E-05-2.78072E-05 8.93851E-07-8.75832E-19 7.76896E-19
 -1      1808 9.29213E-05-2.79010E-05-2.78630E-05 8.85349E-07-6.18627E-19 5.87534E-19
 -1      1809 9.33087E-05-2.79805E-05-2.80028E-05 1.02155E-06-9.16812E-19 2.12689E-20
 -1      1810 9.30210E-05-2.79421E-05-2.78916E-05 8.71416E-07-5.72847E-19 4.41916E-19
 -1      1811 9.32373E-05-2.80168E-05-2.79502E-05 8.39756E-07-5.08374E-19 3.96200E-19
 -1      1812 9.34883E-05-2.80891E-05-2.80310E-05 1.05198E-06-7.18143E-19-1.65745E-19
 -1      1813 9.33492E-05-2.80553E-05-2.79851E-05 8.00112E-07-6.95971E-19 2.24273E-19
 -1      1814 9.35519E-05-2.81205E-05-2.80414E-05 7.57007E-07-5.76907E-19-2.64195E-19
 -1      1815 9.37071E-05-2.81836E-05-2.80827E-05 9.99140E-07-8.97447E-19-7.31929E-19
 -1      1816 9.36636E-05-2.81549E-05-2.80778E-05 7.05036E-07-4.28945E-19-4.31836E-19
 -1      1817 9.38448E-05-2.82102E-05-2.81291E-05 6.58113E-07-4.27351E-19-6.76035E-19
 -1      1818 9.39344E-05-2.82641E-05-2.81447E-05 9.01624E-07-7.41728E-19-9.86056E-19
 -1      1819 9.39493E-05-2.82399E-05-2.81640E-05 6.02612E-07-3.94999E-19-7.03689E-19
 -1      1820 9.41061E-05-2.82855E-05-2.82091E-05 5.56810E-07-4.54715E-19-7.22634E-19
 -1      1821 9.41521E-05-2.83308E-05-2.82089E-05 7.84847E-07-3.58623E-19-8.94818E-19
 -1      1822 9.42000E-05-2.83105E-05-2.82411E-05 5.03522E-07-2.36811E-19-4.96869E-19
 -1      1823 9.43326E-05-2.83474E-05-2.82797E-05 4.61999E-07 1.39896E-19-2.82050E-19
 -1      1824 9.43505E-05-2.83847E-05-2.82704E-05 6.65521E-07-2.80883E-19-2.12581E-19
 -1      1825 9.44149E-05-2.83679E-05-2.83083E-05 4.14648E-07 2.92113E-19-2.25187E-19
 -1      1826 9.45257E-05-2.83973E-05-2.83410E-05 3.79417E-07 3.67516E-19 2.54368E-19
 -1      1827 9.45257E-05-2.84274E-05-2.83272E-05 5.54571E-07 2.37576E-19 1.41313E-19
 -1      1828 9.45974E-05-2.84140E-05-2.83664E-05 3.40441E-07 7.70550E-20 1.47592E-19
 -1      1829 9.46900E-05-2.84372E-05-2.83942E-05 3.12826E-07 1.47728E-19 1.28716E-19
 -1      1830 9.46781E-05-2.84604E-05-2.83784E-05 4.59142E-07 1.01503E-19-2.06628E-19
 -1      1831 9.47532E-05-2.84509E-05-2.84169E-05 2.83922E-07-2.21511E-19 2.18921E-19
 -1      1832 9.48324E-05-2.84696E-05-2.84410E-05 2.64900E-07-3.17308E-19 1.86053E-19
 -1      1833 9.48109E-05-2.84856E-05-2.84247E-05 3.84045E-07-1.13221E-19-3.47186E-19
 -1      1834 9.48900E-05-2.84812E-05-2.84621E-05 2.47419E-07-4.92055E-19 6.52955E-20
 -1      1835 9.49613E-05-2.84970E-05-2.84841E-05 2.37869E-07-4.55610E-19-4.15957E-19
 -1      1836 9.49291E-05-2.85048E-05-2.84674E-05 3.32826E-07-6.60505E-19-2.55042E-19
 -1      1837 9.50170E-05-2.85075E-05-2.85047E-05 2.33104E-07-5.49899E-19-5.27022E-19
 -1      1838 9.50865E-05-2.85222E-05-2.85264E-05 2.33986E-07-8.21967E-19-6.87716E-19
 -1      1839 9.50397E-05-2.85202E-05-2.85085E-05 3.08541E-07-5.77187E-19-4.99425E-19
 -1      1840 9.51447E-05-2.85328E-05-2.85482E-05 2.43357E-07-1.11852E-18-6.22742E-19
 -1      1841 9.52193E-05-2.85483E-05-2.85716E-05 2.55814E-07-4.39696E-19-6.42038E-19
 -1      1842 9.51505E-05-2.85338E-05-2.85505E-05 3.14292E-07-8.26332E-19-8.12443E-19
 -1      1843 9.52850E-05-2.85603E-05-2.85960E-05 2.80967E-07 4.42430E-20-8.92862E-19
 -1      1844 9.53725E-05-2.85788E-05-2.86234E-05 3.06358E-07 3.50713E-19-1.07600E-18
 -1      1845 9.52709E-05-2.85480E-05-2.85964E-05 3.53548E-07-5.18199E-19-8.52709E-19
 -1      1846 9.54513E-05-2.85939E-05-2.86525E-05 3.49142E-07 3.36496E-19-1.03529E-18
 -1      1847 9.55602E-05-2.86179E-05-2.86862E-05 3.88974E-07-3.82521E-20-9.22065E-19
 -1      1848 9.54115E-05-2.85658E-05-2.86495E-05 4.30234E-07 4.56650E-19-1.22893E-18
 -1      1849 9.56583E-05-2.86378E-05-2.87219E-05 4.51287E-07-2.10079E-19-1.13299E-19
 -1      1850 9.57981E-05-2.86704E-05-2.87647E-05 5.07023E-07 2.82722E-19 2.86347E-19
 -1      1851 9.55843E-05-2.85904E-05-2.87135E-05 5.48537E-07 4.01533E-19-3.50942E-19
 -1      1852 9.59224E-05-2.86974E-05-2.88091E-05 5.90461E-07 2.51576E-19 1.07560E-20
 -1      1853 9.61031E-05-2.87419E-05-2.88638E-05 6.63150E-07 3.60825E-19-1.44230E-19
 -1      1854 9.58023E-05-2.86262E-05-2.87921E-05 7.12340E-07 1.22359E-19 3.45496E-19
 -1      1855 9.62609E-05-2.87787E-05-2.89189E-05 7.68404E-07 1.48435E-19-4.63646E-19
 -1      1856 9.64927E-05-2.88390E-05-2.89883E-05 8.58066E-07 9.57979E-20-3.82123E-19
 -1      1857 9.60799E-05-2.86788E-05-2.88891E-05 9.24169E-07 7.42599E-20-1.55096E-19
 -1      1858 9.66912E-05-2.88888E-05-2.90558E-05 9.83962E-07 1.65917E-19-6.04168E-19
 -1      1859 9.69836E-05-2.89694E-05-2.91422E-05 1.08864E-06-2.14796E-19-5.47180E-19
 -1      1860 9.64320E-05-2.87552E-05-2.90078E-05 1.18346E-06 4.35449E-20-6.32865E-19
 -1      1861 9.72296E-05-2.90361E-05-2.92232E-05 1.23074E-06-6.90318E-19-8.40831E-19
 -1      1862 9.75894E-05-2.91413E-05-2.93282E-05 1.34514E-06-5.42124E-19-1.10283E-18
 -1      1863 9.68733E-05-2.88645E-05-2.91505E-05 1.48397E-06-3.02870E-19-1.29693E-18
 -1      1864 9.78881E-05-2.92296E-05-2.94226E-05 1.49379E-06-7.51855E-19-6.19953E-19
 -1      1865 9.83175E-05-2.93637E-05-2.95458E-05 1.60746E-06-1.59356E-19-9.32999E-19
 -1      1866 9.74169E-05-2.90182E-05-2.93179E-05 1.81006E-06-5.03260E-19-6.52321E-19
 -1      1867 9.86714E-05-2.94786E-05-2.96519E-05 1.74533E-06 5.41424E-19-1.40845E-18
 -1      1868 9.91636E-05-2.96446E-05-2.97904E-05 1.84040E-06 8.00430E-19-1.37296E-18
 -1      1869 9.80718E-05-2.92304E-05-2.95077E-05 2.13192E-06-2.44176E-19-1.08811E-18
 -1      1870 9.95702E-05-2.97913E-05-2.99038E-05 1.93967E-06 7.05264E-19-1.25440E-18
 -1      1871 1.00105E-04-2.99895E-05-3.00506E-05 1.98856E-06 8.13242E-20-1.04609E-18
 -1      1872 9.88400E-05-2.95170E-05-2.97137E-05 2.39971E-06 5.85533E-19-1.39645E-18
 -1      1873 1.00555E-04-3.01721E-05-3.01637E-05 2.00843E-06-2.70273E-19-4.23907E-19
 -1      1874 1.01094E-04-3.03974E-05-3.03063E-05 1.97236E-06-1.43752E-19 3.43564E-19
 -1      1875 9.97113E-05-2.98945E-05-2.99243E-05 2.53784E-06 6.41678E-19-1.22709E-18
 -1      1876 1.01565E-04-3.06165E-05-3.04077E-05 1.85834E-06-6.89515E-19 6.44715E-19
 -1      1877 1.02043E-04-3.08544E-05-3.05269E-05 1.68842E-06-2.65231E-19 9.85792E-19
 -1      1878 1.00657E-04-3.03744E-05-3.01220E-05 2.44133E-06-1.41904E-19-1.19978E-19
 -1      1879 1.02498E-04-3.11022E-05-3.06019E-05 1.37606E-06-8.10809E-19 6.67305E-19
 -1      1880 1.02824E-04-3.13235E-05-3.06721E-05 1.01994E-06-1.04398E-18 3.54662E-19
 -1      1881 1.01619E-04-3.09535E-05-3.02833E-05 1.97893E-06-8.43274E-19 3.75084E-19
 -1      1882 1.03204E-04-3.15767E-05-3.07039E-05 4.47378E-07-7.03808E-19 4.71457E-19
 -1      1883 1.03258E-04-3.17311E-05-3.06948E-05-1.34709E-07 1.23531E-19 2.48010E-19
 -1      1884 1.02501E-04-3.15965E-05-3.03810E-05 1.01031E-06-6.37832E-19 9.24218E-19
 -1      1885 1.03476E-04-3.19406E-05-3.06678E-05-1.00079E-06 2.56856E-20-4.80817E-19
 -1      1886 1.03126E-04-3.19534E-05-3.05507E-05-1.80777E-06-5.94908E-20-9.97947E-19
 -1      1887 1.03150E-04-3.22116E-05-3.03893E-05-5.72790E-07-5.60570E-19 8.38447E-20
 -1      1888 1.03068E-04-3.20379E-05-3.04554E-05-2.93027E-06 6.41760E-20-1.41507E-18
 -1      1889 1.02203E-04-3.18169E-05-3.02122E-05-3.88270E-06-3.09501E-19-6.32080E-19
 -1      1890 1.03355E-04-3.26262E-05-3.02913E-05-2.77333E-06-8.99741E-20-5.36538E-20
 -1      1891 1.01746E-04-3.16705E-05-3.00505E-05-5.10481E-06-5.11538E-19-5.70205E-19
 -1      1892 1.00327E-04-3.11357E-05-2.96854E-05-6.01466E-06-3.66841E-19-1.06770E-18
 -1      1893 1.02860E-04-3.25874E-05-3.00874E-05-5.38803E-06-2.69644E-19-4.01450E-19
 -1      1894 9.93927E-05-3.06691E-05-2.94734E-05-7.03482E-06 7.48929E-19-5.35202E-19
 -1      1895 9.75158E-05-2.98094E-05-2.90216E-05-7.61687E-06 9.67260E-19 1.30354E-19
 -1      1896 1.01440E-04-3.18298E-05-2.98000E-05-7.91829E-06 5.04185E-19 1.20505E-19
 -1      1897 9.61593E-05-2.90264E-05-2.87876E-05-8.04096E-06 9.11663E-19 1.61221E-19
 -1      1898 9.40952E-05-2.79629E-05-2.83147E-05-8.00183E-06 8.26371E-19 2.49564E-19
 -1      1899 9.90554E-05-3.02348E-05-2.94692E-05-9.58690E-06 9.61304E-19 1.36829E-19
 -1      1900 9.25741E-05-2.70321E-05-2.80917E-05-7.50761E-06 3.17608E-19 5.82712E-19
 -1      1901 9.07343E-05-2.60334E-05-2.76790E-05-6.70545E-06-6.49535E-20 1.17064E-18
 -1      1902 9.60288E-05-2.80295E-05-2.91394E-05-9.56901E-06 7.04444E-19 5.96879E-19
 -1      1903 8.94783E-05-2.52748E-05-2.74937E-05-5.27219E-06-1.21019E-18 2.12231E-19
 -1      1904 8.82804E-05-2.46615E-05-2.72139E-05-3.86276E-06-1.14042E-18-1.63790E-19
 -1      1905 9.30970E-05-2.58634E-05-2.88420E-05-7.43925E-06-1.29664E-18 6.13474E-19
 -1      1906 8.76836E-05-2.43787E-05-2.70831E-05-1.89187E-06-1.26213E-18-1.05362E-18
 -1      1907 8.73674E-05-2.43412E-05-2.69767E-05-3.13489E-07-8.91906E-19-1.56122E-18
 -1      1908 9.11544E-05-2.45527E-05-2.85903E-05-3.60868E-06-1.53835E-18-2.27760E-20
 -1      1909 8.75327E-05-2.46078E-05-2.69083E-05 1.53335E-06 5.87841E-19-1.99647E-18
 -1      1910 8.80458E-05-2.50830E-05-2.69715E-05 2.77775E-06 6.80988E-19-1.58677E-18
 -1      1911 9.07428E-05-2.45899E-05-2.83920E-05 6.96600E-07-6.24796E-19-1.76527E-18
 -1      1912 8.87206E-05-2.56885E-05-2.69649E-05 3.94133E-06 4.13104E-19-9.06527E-19
 -1      1913 8.97627E-05-2.64065E-05-2.71544E-05 4.55303E-06 1.26572E-18-2.36699E-19
 -1      1914 9.16955E-05-2.57920E-05-2.82593E-05 4.06030E-06 1.06428E-18-2.15055E-18
 -1      1915 9.05211E-05-2.70101E-05-2.71980E-05 4.86433E-06 1.67436E-18-5.50131E-19
 -1      1916 9.17130E-05-2.76718E-05-2.74503E-05 4.86972E-06 1.27510E-18-1.20818E-19
 -1      1917 9.32688E-05-2.74336E-05-2.82038E-05 5.65256E-06 1.18381E-18-1.55260E-18
 -1      1918 9.22251E-05-2.80290E-05-2.75221E-05 4.55679E-06-3.31226E-19-9.47122E-19
 -1      1919 9.32854E-05-2.84739E-05-2.77758E-05 4.20793E-06-8.28873E-19-1.20958E-18
 -1      1920 9.46408E-05-2.87393E-05-2.82197E-05 5.56998E-06-8.42566E-20-1.90313E-18
 -1      1921 9.34690E-05-2.85623E-05-2.78456E-05 3.66159E-06-8.46750E-19-2.06761E-18
 -1      1922 9.42738E-05-2.88053E-05-2.80521E-05 3.20983E-06-8.15984E-19-2.17953E-18
 -1      1923 9.53662E-05-2.93509E-05-2.82734E-05 4.54827E-06-1.10654E-18-8.89960E-19
 -1      1924 9.42045E-05-2.87690E-05-2.80729E-05 2.76478E-06-4.41632E-19-1.90072E-18
 -1      1925 9.48177E-05-2.89910E-05-2.82066E-05 2.27871E-06 1.58253E-19-9.64200E-19
 -1      1926 9.53619E-05-2.94178E-05-2.82470E-05 2.49565E-06-3.40401E-20-1.13078E-18
 -1      1927 9.54581E-05-2.93810E-05-2.82888E-05 3.40741E-06-4.61228E-19-1.30955E-18
 -1      1928 9.32215E-05-2.73655E-05-2.81961E-05 1.60316E-06 1.69422E-18 1.52551E-18
 -1      1929 9.44154E-05-2.74707E-05-2.86325E-05 2.67421E-06 1.82350E-18 2.13515E-18
 -1      1930 9.52383E-05-2.70495E-05-2.92292E-05 4.05147E-06 2.22955E-18 1.09398E-18
 -1      1931 9.21704E-05-2.73524E-05-2.77546E-05 3.46492E-07 1.13020E-18 7.96396E-19
 -1      1932 9.26642E-05-2.73844E-05-2.79268E-05 8.94563E-07 1.31675E-18 1.29235E-18
 -1      1933 9.36347E-05-2.73709E-05-2.84056E-05 1.58279E-06 1.63556E-18 7.57664E-19
 -1      1934 9.17958E-05-2.73903E-05-2.75867E-05-3.06515E-07 7.76312E-19 1.56890E-19
 -1      1935 9.19103E-05-2.73633E-05-2.76335E-05-1.41495E-08 8.88495E-19 5.47620E-19
 -1      1936 9.28042E-05-2.74863E-05-2.80034E-05 2.70336E-07 1.15871E-18 1.36273E-19
 -1      1937 9.18197E-05-2.74810E-05-2.75636E-05-6.31582E-07 4.43858E-19-4.29446E-19
 -1      1938 9.17316E-05-2.74189E-05-2.75472E-05-4.79053E-07 6.15001E-19 1.79746E-20
 -1      1939 9.24906E-05-2.75794E-05-2.78291E-05-4.22547E-07 7.88689E-19-5.61695E-19
 -1      1940 9.20637E-05-2.76030E-05-2.76190E-05-7.68316E-07 8.75904E-19-5.52315E-19
 -1      1941 9.18729E-05-2.75242E-05-2.75704E-05-6.97517E-07 4.97232E-19-3.98059E-19
 -1      1942 9.24939E-05-2.76847E-05-2.77835E-05-7.66453E-07 6.43089E-19-7.66929E-19
 -1      1943 9.24154E-05-2.77370E-05-2.77142E-05-7.94226E-07 9.09921E-19-7.46399E-19
 -1      1944 9.21807E-05-2.76537E-05-2.76511E-05-7.72567E-07 1.02927E-18-4.70949E-19
 -1      1945 9.26777E-05-2.78000E-05-2.78107E-05-9.05867E-07 1.03311E-18-6.53455E-19
 -1      1946 9.28053E-05-2.78696E-05-2.78258E-05-7.55981E-07 5.47045E-19-1.16833E-18
 -1      1947 9.25615E-05-2.77893E-05-2.77586E-05-7.63599E-07 7.49261E-19-6.45109E-19
 -1      1948 9.29529E-05-2.79165E-05-2.78769E-05-9.24175E-07 8.34271E-19-6.48773E-19
 -1      1949 9.31912E-05-2.79928E-05-2.79394E-05-6.83079E-07-8.74229E-20-1.42036E-18
 -1      1950 9.29585E-05-2.79195E-05-2.78743E-05-7.07239E-07 1.43857E-19-1.43541E-18
 -1      1951 9.32626E-05-2.80271E-05-2.79608E-05-8.72644E-07 4.07272E-19-8.64465E-19
 -1      1952 9.35488E-05-2.81022E-05-2.80466E-05-5.94607E-07 2.91302E-19-1.55026E-18
 -1      1953 9.33383E-05-2.80380E-05-2.79870E-05-6.26943E-07 1.14248E-19-1.40947E-18
 -1      1954 9.35718E-05-2.81272E-05-2.80495E-05-7.84062E-07 2.83336E-19-1.17851E-18
 -1      1955 9.38663E-05-2.81961E-05-2.81430E-05-5.02959E-07 4.03281E-19-1.46842E-18
 -1      1956 9.36828E-05-2.81416E-05-2.80906E-05-5.37945E-07 4.12103E-19-1.47344E-18
 -1      1957 9.38603E-05-2.82143E-05-2.81351E-05-6.79763E-07 4.77073E-19-1.62839E-18
 -1      1958 9.41397E-05-2.82746E-05-2.82269E-05-4.16099E-07 6.48820E-19-2.15088E-18
 -1      1959 9.39840E-05-2.82294E-05-2.81821E-05-4.50104E-07 6.12355E-19-1.86417E-18
 -1      1960 9.41180E-05-2.82880E-05-2.82135E-05-5.73641E-07 7.69667E-19-1.46075E-18
 -1      1961 9.43704E-05-2.83390E-05-2.82984E-05-3.39076E-07 3.78761E-19-2.26567E-18
 -1      1962 9.42408E-05-2.83023E-05-2.82609E-05-3.69729E-07 2.16158E-19-2.19303E-18
 -1      1963 9.43415E-05-2.83488E-05-2.82829E-05-4.74671E-07 4.04602E-19-1.65698E-18
 -1      1964 9.45634E-05-2.83912E-05-2.83589E-05-2.75111E-07 1.14341E-19-2.62683E-18
 -1      1965 9.44564E-05-2.83616E-05-2.83276E-05-3.00833E-07 3.14924E-19-2.45567E-18
 -1      1966 9.45323E-05-2.83981E-05-2.83434E-05-3.88627E-07 5.42635E-19-2.05484E-18
 -1      1967 9.47261E-05-2.84337E-05-2.84105E-05-2.26408E-07 6.59659E-19-2.41524E-18
 -1      1968 9.46371E-05-2.84098E-05-2.83841E-05-2.46064E-07 2.90306E-19-2.38789E-18
 -1      1969 9.46947E-05-2.84379E-05-2.83959E-05-3.19327E-07 2.00214E-19-2.21447E-18
 -1      1970 9.48677E-05-2.84693E-05-2.84559E-05-1.94786E-07 8.52861E-19-2.96475E-18
 -1      1971 9.47913E-05-2.84494E-05-2.84329E-05-2.07403E-07 7.62336E-19-2.59220E-18
 -1      1972 9.48356E-05-2.84704E-05-2.84424E-05-2.69581E-07 9.63390E-19-1.80467E-18
 -1      1973 9.49992E-05-2.85011E-05-2.84984E-05-1.82187E-07-8.71108E-22-2.88103E-18
 -1      1974 9.49291E-05-2.84832E-05-2.84770E-05-1.86729E-07 5.15113E-19-2.92778E-18
 -1      1975 9.49634E-05-2.84979E-05-2.84855E-05-2.41923E-07 6.96732E-19-2.21411E-18
 -1      1976 9.51330E-05-2.85325E-05-2.85421E-05-1.91108E-07-9.42945E-19-2.40786E-18
 -1      1977 9.50621E-05-2.85147E-05-2.85201E-05-1.86273E-07-6.23798E-19-2.78631E-18
 -1      1978 9.50883E-05-2.85233E-05-2.85283E-05-2.39219E-07-4.45304E-19-1.95539E-18
 -1      1979 9.52840E-05-2.85675E-05-2.85913E-05-2.24994E-07-9.53263E-19-1.57259E-18
 -1      1980 9.52039E-05-2.85475E-05-2.85664E-05-2.09026E-07-6.57115E-19-1.82622E-18
 -1      1981 9.52221E-05-2.85495E-05-2.85746E-05-2.65186E-07-1.00587E-18-1.23058E-18
 -1      1982 9.54695E-05-2.86108E-05-2.86517E-05-2.88621E-07-3.07815E-19-1.65220E-18
 -1      1983 9.53704E-05-2.85857E-05-2.86207E-05-2.59119E-07-4.85665E-19-1.42524E-18
 -1      1984 9.53788E-05-2.85800E-05-2.86291E-05-3.24871E-07-5.68415E-19-8.49654E-19
 -1      1985 9.57103E-05-2.86678E-05-2.87297E-05-3.88501E-07 4.46443E-19-2.01443E-18
 -1      1986 9.55804E-05-2.86343E-05-2.86892E-05-3.42210E-07 1.94160E-19-1.73071E-18
 -1      1987 9.55749E-05-2.86188E-05-2.86969E-05-4.25128E-07 3.64457E-19-8.51511E-19
 -1      1988 9.60318E-05-2.87451E-05-2.88332E-05-5.33317E-07-3.46609E-19-2.77695E-18
 -1      1989 9.58565E-05-2.86991E-05-2.87789E-05-4.65893E-07 7.12351E-20-2.51789E-18
 -1      1990 9.58302E-05-2.86704E-05-2.87848E-05-5.75117E-07 5.05345E-19-1.56899E-18
 -1      1991 9.64651E-05-2.88509E-05-2.89721E-05-7.34411E-07-9.40035E-19-2.82410E-18
 -1      1992 9.62265E-05-2.87874E-05-2.88986E-05-6.40148E-07-9.21257E-19-3.23279E-18
 -1      1993 9.61686E-05-2.87405E-05-2.89005E-05-7.86827E-07-6.62566E-19-2.43256E-18
 -1      1994 9.70483E-05-2.89952E-05-2.91583E-05-1.00625E-06-1.41656E-18-1.38685E-18
 -1      1995 9.67240E-05-2.89078E-05-2.90590E-05-8.77793E-07-1.09410E-18-2.09243E-18
 -1      1996 9.66190E-05-2.88360E-05-2.90534E-05-1.07561E-06-1.62735E-18-1.68881E-18
 -1      1997 9.78280E-05-2.91906E-05-2.94064E-05-1.36674E-06-3.03907E-19-2.79742E-19
 -1      1998 9.73903E-05-2.90713E-05-2.92730E-05-1.19485E-06-9.47151E-19-9.19085E-19
 -1      1999 9.72158E-05-2.89650E-05-2.92550E-05-1.46058E-06-1.42002E-18-5.88479E-19
 -1      2000 9.88604E-05-2.94526E-05-2.97336E-05-1.83700E-06 9.01720E-19 4.51727E-19
 -1      2001 9.82754E-05-2.92913E-05-2.95565E-05-1.61055E-06 7.98848E-19 2.86133E-19
 -1      2002 9.80004E-05-2.91379E-05-2.95184E-05-1.96461E-06 3.36747E-19 5.03533E-19
 -1      2003 1.00212E-04-2.98006E-05-3.01603E-05-2.43979E-06 2.77716E-19-9.20047E-19
 -1      2004 9.94390E-05-2.95848E-05-2.99276E-05-2.14636E-06 5.34670E-19-2.60485E-20
 -1      2005 9.90209E-05-2.93678E-05-2.98587E-05-2.61319E-06 8.20639E-19 4.79675E-19
 -1      2006 1.01956E-04-3.02593E-05-3.07080E-05-3.19487E-06 1.39472E-18-1.89452E-18
 -1      2007 1.00950E-04-2.99734E-05-3.04070E-05-2.82286E-06 9.00935E-19-9.71390E-19
 -1      2008 1.00332E-04-2.96724E-05-3.02919E-05-3.43086E-06 1.15628E-18-1.46510E-19
 -1      2009 1.04170E-04-3.08604E-05-3.13972E-05-4.10810E-06 1.87919E-20-1.84653E-18
 -1      2010 1.02884E-04-3.04854E-05-3.10153E-05-3.65192E-06 8.64811E-19-1.86618E-18
 -1      2011 1.01993E-04-3.00769E-05-3.08328E-05-4.43239E-06 1.05587E-18 3.38130E-19
 -1      2012 1.06921E-04-3.16453E-05-3.22407E-05-5.14870E-06-1.63977E-19-3.44281E-18
 -1      2013 1.05316E-04-3.11589E-05-3.17696E-05-4.62013E-06-2.52075E-19-2.99361E-18
 -1      2014 1.04064E-04-3.06204E-05-3.14908E-05-5.60425E-06-5.91269E-21-9.75570E-19
 -1      2015 1.10240E-04-3.26688E-05-3.32315E-05-6.20645E-06-7.25676E-19-3.61782E-18
 -1      2016 1.08307E-04-3.20468E-05-3.26740E-05-5.65663E-06-5.38584E-19-3.76649E-18
 -1      2017 1.06601E-04-3.13657E-05-3.22625E-05-6.86895E-06-1.84182E-19-3.06163E-18
 -1      2018 1.14080E-04-3.39998E-05-3.43231E-05-7.02063E-06-3.19432E-19-2.84713E-18
 -1      2019 1.11875E-04-3.32221E-05-3.37061E-05-6.57759E-06-6.13452E-19-3.66284E-18
 -1      2020 1.09640E-04-3.24144E-05-3.31204E-05-8.02367E-06-5.34436E-19-3.10357E-18
 -1      2021 1.18244E-04-3.57068E-05-3.54040E-05-7.08534E-06 1.53826E-19-2.28049E-18
 -1      2022 1.15944E-04-3.47754E-05-3.47954E-05-7.00548E-06-1.24295E-19-2.18310E-18
 -1      2023 1.13183E-04-3.39170E-05-3.39991E-05-8.65016E-06-4.22062E-19-2.33622E-18
 -1      2024 1.22290E-04-3.77884E-05-3.62799E-05-5.58424E-06 1.04096E-18-2.50043E-18
 -1      2025 1.20263E-04-3.67749E-05-3.58026E-05-6.29014E-06 5.60498E-19-2.12706E-18
 -1      2026 1.17149E-04-3.60419E-05-3.47883E-05-8.02172E-06 8.36855E-19-2.10216E-18
 -1      2027 1.25410E-04-3.99766E-05-3.67002E-05-1.53045E-06-2.96448E-19-1.17133E-18
 -1      2028 1.24261E-04-3.91221E-05-3.65211E-05-3.53898E-06 7.49015E-19-1.44745E-18
 -1      2029 1.21267E-04-3.88116E-05-3.53536E-05-5.11262E-06 6.94726E-19-1.93646E-19
 -1      2030 1.26340E-04-4.13878E-05-3.64753E-05 5.56162E-06-5.21322E-20-1.93617E-18
 -1      2031 1.26848E-04-4.12287E-05-3.67360E-05 1.99396E-06-2.12394E-19-1.52274E-18
 -1      2032 1.24824E-04-4.16918E-05-3.56122E-05 1.02798E-06 5.06896E-21-5.72574E-20
 -1      2033 1.23506E-04-4.03019E-05-3.56730E-05 1.41810E-05 7.45885E-19-1.29514E-18
 -1      2034 1.26325E-04-4.16134E-05-3.63633E-05 9.85808E-06-1.62789E-19-1.84817E-18
 -1      2035 1.26341E-04-4.30105E-05-3.56560E-05 1.01800E-05-2.69330E-20-7.15002E-19
 -1      2036 1.16195E-04-3.52963E-05-3.46937E-05 1.95542E-05 1.60539E-20-1.18042E-18
 -1      2037 1.21135E-04-3.83627E-05-3.55762E-05 1.69249E-05-2.14405E-20-1.11313E-18
 -1      2038 1.23868E-04-4.02915E-05-3.57746E-05 1.91537E-05 5.24912E-20-1.14912E-18
 -1      2039 1.06831E-04-2.80676E-05-3.39350E-05 1.58363E-05 3.39713E-19-1.31859E-18
 -1      2040 1.12114E-04-3.15140E-05-3.46918E-05 1.76969E-05 3.34366E-19-8.97908E-19
 -1      2041 1.17127E-04-3.30014E-05-3.61643E-05 2.14707E-05 5.78365E-20-1.20252E-18
 -1      2042 1.01401E-04-2.42778E-05-3.33996E-05 3.12849E-06 2.41748E-18-3.68949E-18
 -1      2043 1.04104E-04-2.54667E-05-3.38395E-05 9.08279E-06 1.25022E-18-2.82327E-18
 -1      2044 1.10015E-04-2.55667E-05-3.64525E-05 1.24391E-05 1.87729E-18-1.43425E-18
 -1      2045 1.03565E-04-2.73675E-05-3.29700E-05-9.40758E-06 7.68471E-19-3.02756E-18
 -1      2046 1.02350E-04-2.54689E-05-3.30381E-05-3.84600E-06 2.11250E-18-2.80799E-18
 -1      2047 1.08188E-04-2.46860E-05-3.60278E-05-3.03422E-06 1.79772E-18-1.40952E-18
 -1      2048 1.09664E-04-3.35875E-05-3.27016E-05-1.29425E-05-5.18781E-19-2.50735E-18
 -1      2049 1.06302E-04-3.06792E-05-3.24809E-05-1.14866E-05-6.93508E-19-2.47164E-18
 -1      2050 1.11853E-04-3.06986E-05-3.48736E-05-1.30608E-05-8.11034E-20 5.33366E-21
 -1      2051 1.13459E-04-3.72711E-05-3.25655E-05-7.60568E-06 6.66800E-19-2.55449E-18
 -1      2052 1.10854E-04-3.56731E-05-3.23081E-05-9.87893E-06 5.82666E-19-2.01491E-18
 -1      2053 1.15645E-04-3.73348E-05-3.35824E-05-1.18590E-05 4.96911E-19 8.72973E-20
 -1      2054 1.12539E-04-3.69054E-05-3.22755E-05 5.15395E-07-1.45864E-18-1.16572E-18
 -1      2055 1.12150E-04-3.70632E-05-3.22636E-05-2.88504E-06-9.16384E-19-2.28106E-18
 -1      2056 1.15452E-04-3.94855E-05-3.25968E-05-3.64653E-06-1.11337E-18 4.80436E-19
 -1      2057 1.08092E-04-3.40038E-05-3.16452E-05 6.35486E-06-2.70981E-18-1.31327E-18
 -1      2058 1.09698E-04-3.52640E-05-3.19563E-05 3.93378E-06-2.35042E-18-2.13692E-18
 -1      2059 1.11452E-04-3.72454E-05-3.18628E-05 4.70733E-06-1.66990E-18 2.37811E-19
 -1      2060 1.02354E-04-3.03259E-05-3.08033E-05 7.82389E-06 1.25012E-18-5.45794E-19
 -1      2061 1.04906E-04-3.19683E-05-3.12871E-05 7.35999E-06-8.29695E-19-7.67584E-19
 -1      2062 1.05643E-04-3.29435E-05-3.12167E-05 9.14628E-06-1.43565E-18-3.75355E-19
 -1      2063 9.79960E-05-2.75773E-05-3.01386E-05 6.11055E-06-4.23502E-19 1.88530E-18
 -1      2064 1.00497E-04-2.91547E-05-3.06041E-05 7.38576E-06 5.19102E-19 1.05838E-18
 -1      2065 1.00800E-04-2.92448E-05-3.07284E-05 9.42011E-06-5.23913E-19 2.28434E-18
 -1      2066 9.72699E-05-2.61152E-05-3.04837E-05 7.56139E-06-8.18211E-19 3.44775E-18
 -1      2067 8.89303E-05-9.90745E-06-3.39644E-05 1.75844E-05 2.45891E-19-6.03736E-19
 -1      2068 9.15671E-05-1.43083E-05-3.30589E-05 1.76539E-05-1.78115E-19-7.88301E-19
 -1      2069 9.35623E-05-1.73273E-05-3.26822E-05 1.64390E-05 7.74770E-20-1.06280E-18
 -1      2070 9.55001E-05-2.12120E-05-3.18045E-05 1.47196E-05 3.70028E-19 3.73376E-19
 -1      2071 9.43604E-05-2.02737E-05-3.17993E-05 2.07941E-05-1.23801E-18-1.50864E-18
 -1      2072 9.58996E-05-2.22390E-05-3.15257E-05 1.23344E-05-5.42869E-19 1.52236E-18
 -1      2073 9.70497E-05-2.50888E-05-3.08120E-05 9.96076E-06-9.85753E-19 1.66402E-18
 -1      2074 9.86496E-05-2.65428E-05-3.08861E-05 1.13733E-05-1.74717E-18 2.36531E-18
 -1      2075 9.76772E-05-2.44787E-05-3.13745E-05 1.65629E-05-6.87261E-19 2.05618E-18
 -1      2076 8.36579E-05-2.61745E-06-3.49060E-05 1.37544E-05-2.40295E-18-3.53123E-18
 -1      2077 8.62867E-05-6.32004E-06-3.42322E-05 1.61999E-05-1.20643E-18-1.73476E-18
 -1      2078 8.82605E-05-1.32733E-05-3.21430E-05 2.08748E-05-1.59898E-18-2.15790E-18
 -1      2079 8.00062E-05 2.00449E-06-3.53020E-05 4.50362E-06-2.29046E-18-1.36923E-18
 -1      2080 8.13605E-05 2.92667E-07-3.50240E-05 9.08872E-06-1.99635E-18-1.20411E-18
 -1      2081 8.18194E-05-6.22908E-06-3.22503E-05 1.42561E-05-1.86812E-18-2.71749E-18
 -1      2082 8.04833E-05 1.22393E-06-3.50769E-05-6.89258E-06-9.80791E-19-1.23005E-19
 -1      2083 7.96756E-05 2.36131E-06-3.52863E-05-1.97754E-06-1.07464E-18-6.49807E-19
 -1      2084 7.83484E-05-2.65608E-06-3.22124E-05 1.57348E-06-7.80417E-19-5.17881E-20
 -1      2085 8.48658E-05-4.79914E-06-3.42863E-05-1.56037E-05-9.18382E-19-5.68889E-19
 -1      2086 8.23536E-05-1.24885E-06-3.49369E-05-1.23726E-05-6.59878E-19-7.29189E-19
 -1      2087 8.03559E-05-4.94264E-06-3.21367E-05-1.20767E-05-5.29814E-19-5.54158E-19
 -1      2088 9.06684E-05-1.33537E-05-3.30705E-05-1.86712E-05 1.09802E-18-1.60058E-19
 -1      2089 8.77412E-05-8.72277E-06-3.39999E-05-1.80167E-05 6.86798E-19 5.24571E-19
 -1      2090 8.65547E-05-1.18492E-05-3.19671E-05-2.09108E-05-9.72202E-20 1.34072E-18
 -1      2091 9.53356E-05-2.12966E-05-3.16694E-05-1.64606E-05 1.68299E-18-2.17992E-19
 -1      2092 9.30877E-05-1.69788E-05-3.26491E-05-1.78981E-05 1.47908E-18-5.24565E-20
 -1      2093 9.34935E-05-1.99190E-05-3.15779E-05-2.25184E-05 2.09553E-18 3.51033E-19
 -1      2094 9.78037E-05-2.68118E-05-3.03827E-05-1.14791E-05 1.90376E-18 3.38098E-19
 -1      2095 9.66137E-05-2.36702E-05-3.11991E-05-1.38339E-05 1.35466E-18-3.04800E-20
 -1      2096 9.82726E-05-2.62170E-05-3.09570E-05-1.85111E-05 2.23222E-18-2.75947E-19
 -1      2097 9.84336E-05-2.98500E-05-2.93662E-05-5.96695E-06 2.32492E-18 5.82959E-18
 -1      2098 9.81074E-05-2.80069E-05-2.99368E-05-8.34869E-06 2.07958E-18 2.87539E-18
 -1      2099 1.00212E-04-2.98644E-05-3.02104E-05-1.20397E-05 2.76140E-18 1.27023E-18
 -1      2100 9.78731E-05-3.08270E-05-2.87226E-05-1.53253E-06 3.58814E-19 7.31003E-19
 -1      2101 9.81210E-05-3.01453E-05-2.90244E-05-3.32918E-06 1.34237E-18 4.15279E-18
 -1      2102 1.00004E-04-3.12686E-05-2.94950E-05-5.65698E-06 1.73353E-18 4.22850E-18
 -1      2103 9.66980E-05-3.04746E-05-2.83821E-05 1.24147E-06 1.75958E-19-2.84234E-18
 -1      2104 9.72902E-05-3.06023E-05-2.84967E-05 1.85343E-07 4.90356E-19-1.45412E-18
 -1      2105 9.86262E-05-3.11877E-05-2.89226E-05-8.79269E-07-3.58460E-19-6.33323E-19
 -1      2106 6.08654E-05-4.76272E-05-6.58536E-06 4.31597E-05 2.60886E-19 3.46489E-19
 -1      2107 4.57661E-05-5.02874E-05 3.64987E-08 3.47727E-05-3.26108E-20-8.99655E-19
 -1      2108 1.53681E-05-3.96642E-05 9.01392E-06 4.84826E-06 4.03399E-19 2.75794E-18
 -1      2109 1.55384E-05-3.93988E-05 8.85378E-06-8.38005E-06-6.21510E-20 3.42837E-18
 -1      2110 2.98830E-05-4.49024E-05 4.89425E-06 2.79914E-05 5.77253E-19-2.60886E-18
 -1      2111 2.10500E-05-4.50760E-05 8.42552E-06 1.83119E-05 8.08705E-19-8.87691E-19
 -1      2112 1.05211E-04-5.40600E-05-2.22809E-05 4.62132E-05-1.35949E-19 5.18257E-18
 -1      2113 8.06751E-05-5.34912E-05-1.31376E-05 4.21374E-05-8.97855E-20 1.95453E-18
 -1      2114 1.49352E-04-5.16387E-05-4.12301E-05 3.52354E-05 1.16975E-18 2.66350E-18
 -1      2115 1.29017E-04-5.53809E-05-3.17030E-05 3.69583E-05 9.13102E-19 3.93955E-18
 -1      2116 8.72469E-05-8.72250E-06-3.37488E-05-1.05394E-05-2.35606E-18-2.80930E-18
 -1      2117 8.79527E-05-9.24007E-06-3.38211E-05-1.20951E-05-2.63682E-18-2.20308E-18
 -1      2118 9.04849E-05-1.30494E-05-3.32358E-05-1.18733E-05-2.76560E-18-1.70915E-18
 -1      2119 8.86848E-05-1.10567E-05-3.32947E-05-9.41281E-06-2.39550E-18-2.75434E-18
 -1      2120 1.88254E-04-3.00270E-05-6.67894E-05 1.09425E-05 8.00446E-19 2.09725E-18
 -1      2121 1.81549E-04-3.30080E-05-6.27498E-05 1.80125E-05 1.03613E-18 2.35560E-18
 -1      2122 1.86002E-04-2.33963E-05-6.87702E-05 5.68823E-06 2.96207E-18-2.27852E-19
 -1      2123 1.86820E-04-2.42679E-05-6.85430E-05 9.32451E-06 2.02949E-18 5.54807E-20
 -1      2124 1.86427E-04-3.19954E-05-6.50884E-05-1.30800E-06 3.09231E-18-3.42201E-19
 -1      2125 1.89689E-04-2.80756E-05-6.82248E-05 5.48505E-06 2.89897E-18-3.00908E-19
 -1      2126 1.67212E-04-4.17826E-05-5.35912E-05-9.31873E-06 4.20224E-18-1.16001E-18
 -1      2127 1.83706E-04-3.95310E-05-6.05477E-05-6.05724E-06 3.88386E-18 1.23667E-19
 -1      2128 1.38337E-04-5.19581E-05-3.74823E-05-2.26573E-05 3.77586E-18-3.09929E-18
 -1      2129 1.59048E-04-5.03491E-05-4.60379E-05-1.94587E-05 3.06774E-18-3.19162E-18
 -1      2130 9.79127E-05-5.26887E-05-2.05508E-05-3.22711E-05 2.27937E-18-2.77234E-18
 -1      2131 1.20841E-04-5.20105E-05-2.94763E-05-3.46453E-05 3.55076E-18-2.90024E-18
 -1      2132 6.30604E-05-5.08096E-05-6.21986E-06-3.39980E-05 2.28487E-18-2.47810E-18
 -1      2133 7.98312E-05-4.93899E-05-1.35199E-05-3.74464E-05 2.29038E-18-3.08638E-18
 -1      2134 1.03428E-04-6.01366E-05-1.87375E-05-3.45959E-05 1.57929E-18-2.57498E-18
 -1      2135 2.73280E-05-4.50591E-05 5.86770E-06-1.99083E-05 1.14053E-18-2.48562E-18
 -1      2136 4.04400E-05-4.29987E-05 2.64852E-07-3.02350E-05 1.39930E-18-1.53800E-18
 -1      2137 1.28374E-05-3.78932E-05 9.60318E-06-3.37366E-06 3.38601E-19-4.05305E-18
 -1      2138 1.79608E-05-4.06695E-05 8.47164E-06-1.24660E-05 1.34170E-18-3.99969E-18
 -1      2139 2.69720E-05-3.33904E-05 2.31226E-06-2.23621E-05 2.23193E-19-3.32418E-18
 -1      2140 1.82007E-05-3.90391E-05 7.78975E-06 1.95956E-05 1.13629E-18-1.56828E-18
 -1      2141 1.31425E-05-3.77151E-05 9.39623E-06 1.07802E-05 1.56500E-18-2.70796E-18
 -1      2142 3.79646E-05-4.01101E-05 1.46773E-07 3.54707E-05-7.58094E-20-1.39337E-19
 -1      2143 2.73389E-05-4.32684E-05 5.32763E-06 2.66870E-05 8.47456E-19-1.73642E-20
 -1      2144 2.65064E-05-3.28112E-05 2.15544E-06 2.91973E-05 1.56045E-18-7.14472E-19
 -1      2145 7.41691E-05-4.31080E-05-1.36236E-05 4.44265E-05-9.16490E-19-3.09633E-18
 -1      2146 5.77268E-05-4.63474E-05-6.14772E-06 3.83702E-05-5.26431E-19-9.04009E-19
 -1      2147 1.13490E-04-4.49525E-05-2.91267E-05 4.34741E-05-1.42725E-18-3.13699E-18
 -1      2148 9.37751E-05-4.72196E-05-2.08933E-05 4.02739E-05-9.80864E-19-3.80953E-18
 -1      2149 1.47948E-04-4.34492E-05-4.45286E-05 3.25875E-05-1.63562E-18 1.94818E-20
 -1      2150 1.26758E-04-4.37696E-05-3.60433E-05 3.55089E-05-1.86347E-18-9.66041E-19
 -1      2151 1.31542E-04-5.62413E-05-3.18279E-05 3.11973E-05-1.08632E-18-7.82870E-19
 -1      2152 1.73891E-04-3.51787E-05-5.87963E-05 1.35955E-05-1.61349E-18 2.47757E-19
 -1      2153 1.57881E-04-3.71492E-05-5.18815E-05 1.62225E-05-1.64446E-18 1.17695E-18
 -1      2154 1.80077E-04-2.47107E-05-6.60187E-05 1.54932E-06-1.92404E-18 1.61444E-18
 -1      2155 1.74685E-04-2.80127E-05-6.26442E-05 9.05894E-06-1.96978E-18 6.92026E-19
 -1      2156 1.57381E-04-2.68624E-05-5.52929E-05-6.34210E-06-1.92425E-18 3.39681E-18
 -1      2157 1.93579E-04-2.54684E-05-7.06268E-05-7.27924E-06-3.61980E-18 2.35888E-18
 -1      2158 1.87929E-04-2.26264E-05-7.00539E-05 1.61921E-06-3.43345E-18 1.44229E-18
 -1      2159 1.79844E-04-2.75065E-05-6.45486E-05-1.67102E-05-5.63849E-18 4.01070E-18
 -1      2160 1.91239E-04-2.77183E-05-6.86272E-05-1.07185E-05-5.04705E-18 2.83333E-18
 -1      2161 1.60485E-04-3.73227E-05-5.23886E-05-2.96875E-05-4.26746E-18 6.42051E-18
 -1      2162 1.76768E-04-3.55018E-05-5.93842E-05-2.43593E-05-4.68769E-18 4.70400E-18
 -1      2163 1.32122E-04-4.66480E-05-3.65437E-05-3.84893E-05-4.43506E-18 5.05170E-18
 -1      2164 1.51900E-04-4.19846E-05-4.58455E-05-3.95780E-05-3.87433E-18 6.79617E-18
 -1      2165 1.58430E-04-4.66417E-05-4.71459E-05-1.86989E-05-3.00014E-18 4.24448E-18
 -1      2166 8.78931E-05-5.08255E-05-1.70533E-05-4.32110E-05-2.12139E-18 6.17572E-18
 -1      2167 1.11162E-04-4.98308E-05-2.65519E-05-4.69103E-05-3.46013E-18 4.87467E-18
 -1      2168 5.05657E-05-4.98282E-05-2.02786E-06-3.78087E-05 9.61382E-19 5.89503E-18
 -1      2169 6.70607E-05-4.62828E-05-9.51525E-06-4.60334E-05-1.37897E-18 7.64003E-18
 -1      2170 2.30730E-05-4.42310E-05 7.36053E-06-2.21854E-05 8.86843E-19 2.27217E-18
 -1      2171 3.33646E-05-4.35356E-05 3.12496E-06-3.25872E-05 1.75336E-19 3.29453E-18
 -1      2172 1.78261E-04-4.06130E-05-5.75747E-05 2.32146E-05 2.05014E-18 1.53567E-18
 -1      2173 1.59709E-04-4.47683E-05-4.93099E-05 2.20132E-05 2.00244E-18 1.06303E-18
 -1      2174 1.67905E-04-3.60818E-05-5.55643E-05 2.24398E-06 9.08866E-19-1.11808E-19
 -1      2175 1.24090E-04-6.09116E-05-2.71808E-05 3.98348E-05-2.93073E-19 3.27696E-18
 -1      2176 1.19364E-04-6.42790E-05-2.30616E-05 4.15815E-05-1.49671E-18 2.82655E-18
 -1      2177 1.38861E-04-6.67565E-05-3.14265E-05 3.01500E-05-1.07954E-18 2.13643E-18
 -1      2178 9.71952E-05-2.43168E-05-3.13071E-05-1.00007E-05-2.53176E-18 2.98842E-18
 -1      2179 1.58068E-04-5.57784E-05-4.35525E-05 1.67923E-05 8.54656E-19-6.13675E-19
 -1      2180 9.63534E-05-2.31076E-05-3.14571E-05-1.03829E-05-2.74772E-18 1.28560E-18
 -1      2181 4.51884E-05-4.36457E-05-1.53462E-06 3.97363E-05-1.09691E-19-2.22960E-18
 -1      2182 2.09979E-05-3.15885E-05 3.69214E-06 1.42886E-05 3.17637E-21 4.28175E-19
 -1      2183 9.64201E-05-3.01373E-05-2.84021E-05 1.68632E-06 1.32567E-19-1.51802E-18
 -1      2184 8.34646E-05-5.54610E-05-1.22536E-05 4.81092E-05-7.75035E-19 1.33585E-18
 -1      2185 2.30370E-05-3.12420E-05 2.78726E-06-1.92320E-05-4.81538E-19 3.10522E-18
 -1      2186 5.05780E-05-4.41877E-05-3.43518E-06-4.34441E-05 1.43191E-18 4.57419E-18
 -1      2187 1.29416E-04-5.49357E-05-3.17049E-05-3.88753E-05-2.61860E-18 4.45582E-18
 -1      2188 1.43893E-04-6.08863E-05-3.63466E-05-2.81357E-05-1.59602E-18 3.57067E-18
 -1      2189 1.27841E-04-6.21637E-05-2.74897E-05-3.94613E-05-1.01707E-18 3.54716E-18
 -1      2190 1.67495E-04-2.92075E-05-5.82399E-05-6.06404E-06-4.76795E-18 3.73372E-18
 -1      2191 1.63755E-04-1.49072E-05-6.29980E-05-5.26789E-06-2.74820E-18 3.37733E-18
 -1      2192 1.54164E-04-4.59228E-05-4.57359E-05 1.05780E-05-7.57883E-19 1.67967E-18
 -1      2193 5.68956E-05-4.45492E-05-5.69728E-06 4.31509E-05 5.44642E-19-6.29981E-19
 -1      2194 1.54722E-05-2.81749E-05 4.94791E-06 3.82640E-06 1.01935E-18-2.70458E-18
 -1      2195 5.81770E-05-4.76279E-05-4.96725E-06-3.48591E-05 1.51365E-18-1.78967E-18
 -1      2196 7.59090E-05-5.16831E-05-1.08849E-05-3.95564E-05 1.10347E-18-1.93695E-18
 -1      2197 5.37120E-05-4.09102E-05-5.04521E-06-3.63744E-05 3.77353E-19-1.40417E-18
 -1      2198 1.39557E-04-6.20293E-05-3.29209E-05-1.96587E-05 2.40261E-18-1.89566E-18
 -1      2199 1.62534E-04-5.06497E-05-4.73078E-05 1.16422E-06 3.52202E-18-3.89212E-19
 -1      2200 1.70103E-04-3.09272E-05-5.84953E-05 1.09181E-05 4.27265E-18-1.04270E-18
 -1      2201 1.67401E-04-1.97772E-05-6.22269E-05 1.92972E-06 1.62715E-18-4.15893E-19
 -1      2202 1.67907E-04-1.75555E-05-6.34400E-05 8.40853E-06 2.98537E-18-2.06253E-18
 -1      2203 9.83462E-05-5.47702E-05-1.87014E-05 4.34161E-05-1.78724E-19-3.29866E-18
 -1      2204 1.68969E-04-1.49245E-05-6.46990E-05-1.89898E-06-5.08347E-18 2.50425E-18
 -1      2205 9.11975E-05-5.56263E-05-1.53585E-05-4.91099E-05 5.01444E-19 6.12384E-18
 -1      2206 9.52197E-05-2.63781E-05-2.94904E-05 4.19393E-06 2.09923E-18 1.07160E-19
 -1      2207 9.61941E-05-2.58634E-05-3.00682E-05 5.99922E-06 2.41378E-18 3.33781E-19
 -1      2208 8.81305E-05-1.11810E-05-3.30175E-05-3.66109E-06-1.29632E-18-3.44835E-18
 -1      2209 8.83645E-05-1.14509E-05-3.29998E-05-4.80178E-06-1.62070E-18-3.41512E-18
 -1      2210 8.87155E-05-1.19330E-05-3.29515E-05-5.81909E-06-1.79999E-18-3.31604E-18
 -1      2211 8.91235E-05-1.24065E-05-3.29233E-05-6.99063E-06-2.14195E-18-3.04647E-18
 -1      2212 8.98834E-05-1.38201E-05-3.25978E-05-4.90407E-06-1.65862E-18-3.12114E-18
 -1      2213 8.77848E-05-1.07228E-05-3.30606E-05 6.15440E-07-1.47009E-19-3.78490E-18
 -1      2214 8.77804E-05-1.07178E-05-3.30609E-05-4.95532E-07-4.73176E-19-3.69720E-18
 -1      2215 8.79662E-05-1.09477E-05-3.30423E-05 2.75749E-06 3.38073E-19-3.89098E-18
 -1      2216 8.78511E-05-1.08146E-05-3.30515E-05 1.63812E-06 3.92294E-20-3.85663E-18
 -1      2217 8.91025E-05-1.27691E-05-3.27175E-05 1.04953E-06-8.86906E-20-3.62499E-18
 -1      2218 8.84010E-05-1.14948E-05-3.29973E-05 4.88672E-06 9.18026E-19-3.75622E-18
 -1      2219 8.81612E-05-1.12181E-05-3.30153E-05 3.76358E-06 5.64116E-19-3.84053E-18
 -1      2220 8.93686E-05-1.31248E-05-3.26777E-05 3.02074E-06 4.08546E-19-3.64602E-18
 -1      2221 8.91811E-05-1.24775E-05-3.29188E-05 7.07401E-06 1.61153E-18-3.50470E-18
 -1      2222 8.87628E-05-1.19910E-05-3.29477E-05 5.90238E-06 1.20665E-18-3.62028E-18
 -1      2223 8.99265E-05-1.38729E-05-3.25935E-05 4.97478E-06 1.06149E-18-3.45630E-18
 -1      2224 9.04520E-05-1.40866E-05-3.27923E-05 9.22201E-06 2.21316E-18-3.05617E-18
 -1      2225 8.97708E-05-1.32755E-05-3.28374E-05 8.04345E-06 1.84975E-18-3.33542E-18
 -1      2226 9.08626E-05-1.51325E-05-3.24488E-05 6.87041E-06 1.70471E-18-3.10156E-18
 -1      2227 9.24517E-05-1.66592E-05-3.25829E-05 1.11060E-05 2.75981E-18-2.16801E-18
 -1      2228 9.13721E-05-1.53190E-05-3.26547E-05 1.00259E-05 2.38728E-18-2.63322E-18
 -1      2229 9.22873E-05-1.70869E-05-3.22082E-05 8.51508E-06 2.16872E-18-2.58154E-18
 -1      2230 9.42398E-05-2.71183E-05-2.87496E-05 1.76375E-06 1.51449E-18-1.24977E-19
 -1      2231 9.48400E-05-2.68947E-05-2.90481E-05 2.73665E-06 1.77829E-18 1.20679E-19
 -1      2232 9.53422E-05-2.58484E-05-2.97910E-05 4.35993E-06 2.07248E-18-6.29481E-19
 -1      2233 9.59127E-05-2.50925E-05-3.03057E-05-6.19245E-06-2.18603E-18 4.19372E-19
 -1      2234 9.52582E-05-2.58479E-05-2.97615E-05-4.27270E-06-1.97629E-18 2.77938E-19
 -1      2235 1.58145E-04-5.33257E-05-4.52733E-05 5.09039E-06 6.93932E-19-3.27844E-18
 -1      2236 1.50557E-04-6.14217E-05-3.82806E-05 1.48225E-05-8.36551E-19-2.12478E-18
 -1      2237 9.51427E-05-2.65400E-05-2.93442E-05-2.93948E-06-1.79329E-18 3.43162E-19
 -1      2238 9.46721E-05-2.69096E-05-2.90410E-05-1.87736E-06-1.42682E-18 2.29184E-19
 -1      2239 9.53446E-05-2.53709E-05-2.99949E-05-4.29525E-06-2.01958E-18-3.41729E-19
 -1      2240 9.44763E-05-2.72389E-05-2.87776E-05-1.02586E-06-1.24649E-18 2.30170E-19
 -1      2241 9.42175E-05-2.74520E-05-2.86113E-05-4.24358E-07-1.16020E-18 2.59834E-20
 -1      2242 9.50332E-05-2.66989E-05-2.92992E-05-1.91934E-06-1.51019E-18-4.38167E-19
 -1      2243 9.40686E-05-2.76324E-05-2.84501E-05 8.35221E-08-1.06505E-18-1.14890E-19
 -1      2244 9.39702E-05-2.77760E-05-2.83665E-05 4.13139E-07-1.04854E-18-3.03617E-19
 -1      2245 9.47289E-05-2.74277E-05-2.88563E-05-4.40559E-07-1.32830E-18-6.22585E-19
 -1      2246 9.38855E-05-2.78857E-05-2.82730E-05 6.95535E-07-1.04383E-18-3.89389E-19
 -1      2247 9.38911E-05-2.79928E-05-2.82400E-05 8.59301E-07-1.01365E-18-4.36295E-19
 -1      2248 9.45276E-05-2.78561E-05-2.85839E-05 4.29733E-07-1.20197E-18-8.35078E-19
 -1      2249 9.38594E-05-2.80649E-05-2.81911E-05 9.96087E-07-1.05999E-18-4.03119E-19
 -1      2250 9.39262E-05-2.81487E-05-2.81886E-05 1.05788E-06-9.29353E-19-4.37016E-19
 -1      2251 9.44346E-05-2.81256E-05-2.84256E-05 8.99809E-07-1.10819E-18-5.93513E-19
 -1      2252 9.39314E-05-2.81983E-05-2.81685E-05 1.10247E-06-8.01306E-19-7.43771E-19
 -1      2253 9.40299E-05-2.82650E-05-2.81837E-05 1.10252E-06-7.47958E-19-9.19560E-19
 -1      2254 9.44243E-05-2.83024E-05-2.83430E-05 1.11179E-06-1.04806E-18-1.17264E-18
 -1      2255 9.40579E-05-2.82997E-05-2.81816E-05 1.09080E-06-1.05474E-18-9.95375E-19
 -1      2256 9.41685E-05-2.83524E-05-2.82059E-05 1.05528E-06-1.10525E-18-1.22219E-18
 -1      2257 9.44683E-05-2.84204E-05-2.83095E-05 1.16143E-06-1.10216E-18-1.38696E-18
 -1      2258 9.42085E-05-2.83765E-05-2.82146E-05 1.01154E-06-6.44745E-19-1.15074E-18
 -1      2259 9.43190E-05-2.84176E-05-2.82428E-05 9.57771E-07-4.48544E-19-9.32194E-19
 -1      2260 9.45433E-05-2.84985E-05-2.83068E-05 1.11360E-06-8.81139E-19-1.05103E-18
 -1      2261 9.43639E-05-2.84337E-05-2.82574E-05 8.98443E-07-2.91003E-19-6.36014E-19
 -1      2262 9.44672E-05-2.84650E-05-2.82861E-05 8.37934E-07-8.34186E-20-5.46465E-19
 -1      2263 9.46325E-05-2.85484E-05-2.83228E-05 1.01239E-06-1.69825E-19-6.82954E-19
 -1      2264 9.45122E-05-2.84752E-05-2.83035E-05 7.74078E-07 1.59040E-20-2.94220E-19
 -1      2265 9.46051E-05-2.84984E-05-2.83310E-05 7.14438E-07 2.01456E-19 1.62521E-19
 -1      2266 9.47248E-05-2.85780E-05-2.83491E-05 8.87678E-07 2.78761E-19-2.12428E-19
 -1      2267 9.46478E-05-2.85039E-05-2.83494E-05 6.53436E-07 2.13099E-19 1.53504E-19
 -1      2268 9.47293E-05-2.85204E-05-2.83748E-05 5.99676E-07 1.62181E-19 1.26772E-19
 -1      2269 9.48136E-05-2.85925E-05-2.83806E-05 7.59592E-07 1.65121E-19-1.02263E-19
 -1      2270 9.47688E-05-2.85225E-05-2.83931E-05 5.46455E-07-1.98310E-19 1.37362E-19
 -1      2271 9.48396E-05-2.85337E-05-2.84163E-05 5.01912E-07-1.63115E-19-2.68076E-19
 -1      2272 9.48960E-05-2.85961E-05-2.84142E-05 6.41626E-07-4.36296E-20-3.99285E-19
 -1      2273 9.48759E-05-2.85330E-05-2.84343E-05 4.59845E-07-3.31410E-19-1.15573E-19
 -1      2274 9.49383E-05-2.85401E-05-2.84557E-05 4.26862E-07-3.91942E-19-1.62926E-19
 -1      2275 9.49711E-05-2.85915E-05-2.84484E-05 5.42919E-07-3.28535E-19-1.02137E-19
 -1      2276 9.49722E-05-2.85373E-05-2.84736E-05 3.98440E-07-5.84193E-19-4.71567E-19
 -1      2277 9.50291E-05-2.85413E-05-2.84938E-05 3.78860E-07-5.98998E-19-3.86029E-19
 -1      2278 9.50402E-05-2.85805E-05-2.84827E-05 4.69943E-07-8.44751E-19-2.62509E-19
 -1      2279 9.50621E-05-2.85368E-05-2.85120E-05 3.66178E-07-5.71193E-19-8.69160E-19
 -1      2280 9.51171E-05-2.85388E-05-2.85322E-05 3.61706E-07-6.26088E-19-7.38345E-19
 -1      2281 9.51056E-05-2.85646E-05-2.85178E-05 4.27746E-07-7.54324E-19-1.01768E-18
 -1      2282 9.51513E-05-2.85332E-05-2.85516E-05 3.66808E-07-9.42999E-19-6.82498E-19
 -1      2283 9.52088E-05-2.85343E-05-2.85730E-05 3.79239E-07-7.28975E-19-9.37637E-19
 -1      2284 9.51710E-05-2.85446E-05-2.85545E-05 4.20844E-07-8.95779E-19-1.31253E-18
 -1      2285 9.52465E-05-2.85278E-05-2.85944E-05 4.04326E-07-5.80532E-19-9.49578E-19
 -1      2286 9.53114E-05-2.85292E-05-2.86186E-05 4.35668E-07-4.23776E-19-9.59508E-19
 -1      2287 9.52407E-05-2.85214E-05-2.85946E-05 4.53812E-07-5.47412E-19-7.42740E-19
 -1      2288 9.53556E-05-2.85226E-05-2.86432E-05 4.83170E-07-3.29119E-20-1.15061E-18
 -1      2289 9.54335E-05-2.85258E-05-2.86718E-05 5.35616E-07 7.25578E-19-1.41711E-18
 -1      2290 9.53203E-05-2.84959E-05-2.86399E-05 5.31588E-07-2.25135E-19-6.84389E-19
 -1      2291 9.54876E-05-2.85199E-05-2.87007E-05 6.08100E-07 1.22018E-18-1.43067E-18
 -1      2292 9.55848E-05-2.85269E-05-2.87354E-05 6.83846E-07 7.63283E-19-6.90993E-19
 -1      2293 9.54160E-05-2.84696E-05-2.86925E-05 6.59459E-07 8.77205E-19-1.24480E-18
 -1      2294 9.56529E-05-2.85232E-05-2.87699E-05 7.83721E-07 2.14236E-19-4.49361E-19
 -1      2295 9.57761E-05-2.85366E-05-2.88125E-05 8.84548E-07 2.30043E-20-3.68582E-19
 -1      2296 9.55354E-05-2.84451E-05-2.87546E-05 8.42661E-07 7.71305E-19-8.68911E-19
 -1      2297 9.58629E-05-2.85376E-05-2.88536E-05 1.01350E-06-1.93945E-19-3.97078E-19
 -1      2298 9.60195E-05-2.85610E-05-2.89056E-05 1.14007E-06-2.44912E-19-5.11072E-19
 -1      2299 9.56875E-05-2.84268E-05-2.88280E-05 1.08548E-06-1.97111E-19-1.23140E-18
 -1      2300 9.61308E-05-2.85702E-05-2.89541E-05 1.29814E-06-3.23860E-19-8.39160E-19
 -1      2301 9.63281E-05-2.86086E-05-2.90169E-05 1.44888E-06-1.08393E-19-9.61578E-19
 -1      2302 9.58829E-05-2.84218E-05-2.89143E-05 1.38972E-06-4.88233E-19-1.28698E-18
 -1      2303 9.64706E-05-2.86317E-05-2.90731E-05 1.63306E-06 2.36536E-20-1.28229E-18
 -1      2304 9.67157E-05-2.86916E-05-2.91473E-05 1.80257E-06-2.84141E-20-1.47337E-18
 -1      2305 9.61343E-05-2.84412E-05-2.90141E-05 1.75230E-06-3.37396E-19-1.20574E-18
 -1      2306 9.68975E-05-2.87367E-05-2.92106E-05 2.00488E-06-2.51428E-19-1.16601E-18
 -1      2307 9.71961E-05-2.88270E-05-2.92957E-05 2.18173E-06-3.20351E-19-6.99369E-19
 -1      2308 9.64571E-05-2.85019E-05-2.91269E-05 2.16185E-06-9.91407E-20-8.01172E-19
 -1      2309 9.74272E-05-2.89056E-05-2.93645E-05 2.38657E-06-7.52825E-19-5.79901E-19
 -1      2310 9.77824E-05-2.90370E-05-2.94584E-05 2.55059E-06-1.26536E-19-1.18917E-18
 -1      2311 9.68698E-05-2.86282E-05-2.92501E-05 2.59400E-06-3.10363E-19-8.12150E-19
 -1      2312 9.80746E-05-2.91647E-05-2.95298E-05 2.73157E-06 5.88597E-19-9.96604E-19
 -1      2313 9.84847E-05-2.93498E-05-2.96283E-05 2.85076E-06 1.00838E-18-5.83790E-19
 -1      2314 9.73949E-05-2.88535E-05-2.93792E-05 3.00554E-06 1.70911E-19-3.45439E-19
 -1      2315 9.88517E-05-2.95455E-05-2.96982E-05 2.96719E-06 7.31999E-19-1.62872E-18
 -1      2316 9.93079E-05-2.97970E-05-2.97944E-05 2.99512E-06 6.81127E-19-1.05259E-18
 -1      2317 9.80586E-05-2.92203E-05-2.95072E-05 3.32758E-06 3.69358E-19-7.44950E-19
 -1      2318 9.97635E-05-3.00812E-05-2.98574E-05 2.98912E-06 1.90348E-19-1.49045E-18
 -1      2319 1.00245E-04-3.04074E-05-2.99418E-05 2.86424E-06-1.66211E-19-7.61186E-19
 -1      2320 9.88894E-05-2.97774E-05-2.96253E-05 3.45900E-06 2.12392E-19-1.36728E-18
 -1      2321 1.00799E-04-3.07955E-05-2.99927E-05 2.66025E-06-4.70412E-19-5.22728E-19
 -1      2322 1.01269E-04-3.11917E-05-3.00539E-05 2.31005E-06-4.25652E-19-1.87928E-19
 -1      2323 9.99113E-05-3.05694E-05-2.97247E-05 3.26280E-06-7.56453E-20-5.98666E-19
 -1      2324 1.01916E-04-3.16818E-05-3.00896E-05 1.82057E-06-4.28059E-19 1.23620E-19
 -1      2325 1.02314E-04-3.21159E-05-3.01163E-05 1.17492E-06-5.39093E-19 2.00387E-19
 -1      2326 1.01130E-04-3.16132E-05-2.97997E-05 2.57051E-06-5.11812E-19-6.33085E-19
 -1      2327 1.03015E-04-3.26673E-05-3.01381E-05 3.18395E-07-2.47555E-19 3.05673E-19
 -1      2328 1.03250E-04-3.30602E-05-3.01222E-05-6.62679E-07-4.05987E-19 4.90411E-19
 -1      2329 1.02503E-04-3.28575E-05-2.98534E-05 1.20433E-06-6.84782E-19 4.97248E-19
 -1      2330 1.03909E-04-3.35672E-05-3.01393E-05-1.92369E-06-6.10694E-19 5.66878E-19
 -1      2331 1.03859E-04-3.37769E-05-3.00801E-05-3.20500E-06-2.69912E-19-2.18676E-20
 -1      2332 1.03897E-04-3.41236E-05-2.99030E-05-9.68671E-07-6.82455E-19 1.36147E-18
 -1      2333 1.04300E-04-3.40503E-05-3.01099E-05-4.79909E-06-6.58748E-19 8.13000E-19
 -1      2334 1.03835E-04-3.38809E-05-3.00169E-05-6.21418E-06-6.11068E-19 8.33114E-19
 -1      2335 1.05036E-04-3.50493E-05-2.99835E-05-3.93455E-06-2.40241E-19 1.55825E-18
 -1      2336 1.03817E-04-3.36743E-05-3.00804E-05-7.87841E-06-9.04075E-20 6.02268E-19
 -1      2337 1.02853E-04-3.29470E-05-2.99717E-05-9.09205E-06 6.32548E-19 1.03103E-18
 -1      2338 1.05487E-04-3.50953E-05-3.01420E-05-7.37737E-06-1.42991E-19 1.68536E-18
 -1      2339 1.02178E-04-3.20770E-05-3.00801E-05-1.03347E-05 9.22100E-19 2.26275E-20
 -1      2340 1.00773E-04-3.07734E-05-2.99748E-05-1.08877E-05 7.88372E-19-3.22107E-19
 -1      2341 1.04786E-04-3.37306E-05-3.04143E-05-1.05287E-05 1.58798E-19 5.56612E-19
 -1      2342 9.94776E-05-2.93155E-05-3.01138E-05-1.11014E-05 1.30692E-18-8.75678E-19
 -1      2343 9.79043E-05-2.77213E-05-3.00214E-05-1.05928E-05 1.28881E-19-7.58822E-19
 -1      2344 1.02745E-04-3.08196E-05-3.07903E-05-1.22120E-05 9.21512E-19-5.76800E-19
 -1      2345 9.64097E-05-2.61487E-05-3.01417E-05-9.37158E-06-9.52982E-19-6.80234E-19
 -1      2346 9.51161E-05-2.48497E-05-3.00543E-05-7.73805E-06-1.21066E-18-3.04560E-19
 -1      2347 9.98263E-05-2.70520E-05-3.11838E-05-1.12756E-05-2.07490E-19-1.21136E-18
 -1      2348 9.41245E-05-2.39039E-05-3.00852E-05-5.29468E-06-1.75345E-18 4.34159E-19
 -1      2349 9.35175E-05-2.34705E-05-2.99896E-05-3.00779E-06-1.62662E-18 5.02300E-19
 -1      2350 9.72171E-05-2.39422E-05-3.14366E-05-7.40697E-06-1.10567E-18 9.16273E-19
 -1      2351 9.34835E-05-2.36190E-05-2.98913E-05-2.33097E-07-1.73416E-18 4.02526E-19
 -1      2352 9.36684E-05-2.41875E-05-2.97881E-05 1.89910E-06-8.49203E-19-1.61515E-19
 -1      2353 9.61579E-05-2.29815E-05-3.14040E-05-1.80367E-06-1.73119E-18 1.28028E-18
 -1      2354 9.44224E-05-2.52494E-05-2.95801E-05 3.95004E-06 7.54081E-19-1.72656E-18
 -1      2355 9.51380E-05-2.64183E-05-2.94874E-05 5.24946E-06 8.19826E-19-2.23388E-18
 -1      2356 9.69557E-05-2.45183E-05-3.10586E-05 3.34671E-06-1.23226E-18 7.77845E-19
 -1      2357 9.60220E-05-2.77023E-05-2.92359E-05 6.00815E-06 6.78670E-19-2.27170E-18
 -1      2358 9.68242E-05-2.88307E-05-2.91746E-05 6.29338E-06 6.99741E-19-2.60353E-18
 -1      2359 9.87241E-05-2.74863E-05-3.05077E-05 6.23244E-06 6.63554E-19-1.66427E-18
 -1      2360 9.72162E-05-2.96646E-05-2.89451E-05 5.93273E-06 7.80269E-19-2.31002E-18
 -1      2361 9.77570E-05-3.03103E-05-2.89198E-05 5.50610E-06 2.03304E-20-1.46897E-18
 -1      2362 1.00096E-04-3.01918E-05-2.99191E-05 6.47318E-06 1.82237E-19-2.05704E-18
 -1      2363 9.74622E-05-3.04518E-05-2.87407E-05 4.63745E-06-4.44758E-19-1.14144E-19
 -1      2364 9.75999E-05-3.05703E-05-2.87288E-05 3.97934E-06-6.25985E-19-3.68533E-19
 -1      2365 1.00218E-04-3.15111E-05-2.94158E-05 5.01296E-06 4.65443E-19-1.64399E-18
 -1      2366 9.33456E-05-2.76931E-05-2.81295E-05-4.11977E-07 7.67857E-19-8.83017E-19
 -1      2367 9.34233E-05-2.75878E-05-2.81908E-05-1.26300E-07 1.03777E-18-5.71425E-19
 -1      2368 9.32946E-05-2.78579E-05-2.80396E-05-8.18360E-07 7.15159E-19-1.03460E-18
 -1      2369 9.32493E-05-2.77666E-05-2.80510E-05-6.79136E-07 6.17945E-19-9.79576E-19
 -1      2370 9.40152E-05-2.78094E-05-2.83851E-05-4.45439E-07 8.65411E-19-9.93863E-19
 -1      2371 9.33885E-05-2.79939E-05-2.80232E-05-9.94022E-07 9.17115E-19-7.99320E-19
 -1      2372 9.32755E-05-2.79129E-05-2.80061E-05-9.43209E-07 8.38656E-19-9.30988E-19
 -1      2373 9.39285E-05-2.80192E-05-2.82549E-05-8.92851E-07 7.73076E-19-1.13835E-18
 -1      2374 9.35627E-05-2.81090E-05-2.80497E-05-1.02863E-06 7.64527E-19-6.09837E-19
 -1      2375 9.34183E-05-2.80380E-05-2.80176E-05-1.03081E-06 8.53621E-19-5.81582E-19
 -1      2376 9.39570E-05-2.81685E-05-2.82004E-05-1.08902E-06 7.39221E-19-8.62525E-19
 -1      2377 9.37731E-05-2.82060E-05-2.80990E-05-9.79984E-07 2.20710E-19-5.61691E-19
 -1      2378 9.36201E-05-2.81452E-05-2.80604E-05-1.01251E-06 7.10142E-19-3.45000E-19
 -1      2379 9.40549E-05-2.82794E-05-2.81928E-05-1.12972E-06 6.09583E-19-4.77822E-19
 -1      2380 9.39912E-05-2.82865E-05-2.81585E-05-8.86155E-07 5.20666E-19-9.29655E-19
 -1      2381 9.38432E-05-2.82356E-05-2.81187E-05-9.34199E-07 2.71700E-19-7.45363E-19
 -1      2382 9.41885E-05-2.83627E-05-2.82129E-05-1.07809E-06 3.86958E-19-4.66903E-19
 -1      2383 9.41996E-05-2.83517E-05-2.82202E-05-7.72403E-07 5.33575E-19-1.06461E-18
 -1      2384 9.40644E-05-2.83101E-05-2.81822E-05-8.26193E-07 6.31873E-19-9.88722E-19
 -1      2385 9.43349E-05-2.84248E-05-2.82481E-05-9.76300E-07 7.16386E-19-5.22765E-19
 -1      2386 9.43893E-05-2.84033E-05-2.82796E-05-6.55430E-07 8.89408E-19-1.21229E-18
 -1      2387 9.42702E-05-2.83702E-05-2.82449E-05-7.08545E-07 7.83193E-19-1.14357E-18
 -1      2388 9.44797E-05-2.84701E-05-2.82902E-05-8.52559E-07 7.74832E-19-8.37145E-19
 -1      2389 9.45569E-05-2.84432E-05-2.83344E-05-5.46201E-07 3.86798E-19-1.51190E-18
 -1      2390 9.44543E-05-2.84174E-05-2.83036E-05-5.94451E-07 7.72423E-19-1.17286E-18
 -1      2391 9.46150E-05-2.85020E-05-2.83341E-05-7.25675E-07 8.41967E-19-8.61749E-19
 -1      2392 9.47028E-05-2.84733E-05-2.83839E-05-4.51933E-07 6.01536E-19-1.68062E-18
 -1      2393 9.46153E-05-2.84536E-05-2.83569E-05-4.92553E-07 5.46422E-19-1.67496E-18
 -1      2394 9.47371E-05-2.85231E-05-2.83773E-05-6.08125E-07 7.05266E-19-1.38262E-18
 -1      2395 9.48302E-05-2.84955E-05-2.84288E-05-3.77564E-07-2.60558E-20-1.61433E-18
 -1      2396 9.47551E-05-2.84807E-05-2.84050E-05-4.08618E-07 1.10549E-19-1.50256E-18
 -1      2397 9.48460E-05-2.85358E-05-2.84185E-05-5.08272E-07 3.39006E-19-1.24504E-18
 -1      2398 9.49443E-05-2.85118E-05-2.84705E-05-3.26876E-07 1.18656E-18-1.57541E-18
 -1      2399 9.48778E-05-2.85005E-05-2.84488E-05-3.46794E-07 6.91230E-19-1.53951E-18
 -1      2400 9.49437E-05-2.85418E-05-2.84579E-05-4.32018E-07 3.45615E-19-1.27228E-18
 -1      2401 9.50521E-05-2.85239E-05-2.85111E-05-3.03366E-07 4.16862E-19-1.53343E-18
 -1      2402 9.49896E-05-2.85151E-05-2.84901E-05-3.10580E-07 1.09383E-18-1.35060E-18
 -1      2403 9.50339E-05-2.85426E-05-2.84964E-05-3.84062E-07 8.02627E-19-1.10242E-18
 -1      2404 9.51620E-05-2.85338E-05-2.85534E-05-3.10975E-07-1.09922E-18-9.61045E-19
 -1      2405 9.50980E-05-2.85261E-05-2.85315E-05-3.03605E-07-4.95037E-19-1.33229E-18
 -1      2406 9.51219E-05-2.85393E-05-2.85358E-05-3.68897E-07-3.86763E-19-3.59612E-19
 -1      2407 9.52838E-05-2.85435E-05-2.86007E-05-3.54692E-07-8.54147E-19-4.74522E-19
 -1      2408 9.52119E-05-2.85355E-05-2.85759E-05-3.30280E-07-1.11840E-18-6.02782E-19
 -1      2409 9.52141E-05-2.85329E-05-2.85783E-05-3.91623E-07-1.24740E-18-3.60704E-19
 -1      2410 9.54292E-05-2.85551E-05-2.86572E-05-4.41127E-07-5.35429E-19-8.57500E-19
 -1      2411 9.53421E-05-2.85451E-05-2.86272E-05-3.96375E-07-5.24479E-19-4.95779E-19
 -1      2412 9.53180E-05-2.85240E-05-2.86271E-05-4.58639E-07-6.70295E-19-3.22928E-19
 -1      2413 9.56122E-05-2.85708E-05-2.87277E-05-5.79041E-07 3.53749E-19-8.02763E-19
 -1      2414 9.55007E-05-2.85572E-05-2.86896E-05-5.09555E-07 1.44664E-20-8.57804E-19
 -1      2415 9.54425E-05-2.85132E-05-2.86855E-05-5.78271E-07-4.15061E-20-3.43005E-19
 -1      2416 9.58491E-05-2.85933E-05-2.88181E-05-7.79899E-07 2.52690E-19-3.77529E-19
 -1      2417 9.57026E-05-2.85740E-05-2.87686E-05-6.79914E-07 6.79672E-19-2.44473E-19
 -1      2418 9.55978E-05-2.85007E-05-2.87579E-05-7.61353E-07 1.73025E-19-1.94548E-19
 -1      2419 9.61593E-05-2.86256E-05-2.89352E-05-1.05840E-06-8.38647E-19-8.32743E-19
 -1      2420 9.59647E-05-2.85981E-05-2.88702E-05-9.20507E-07-1.35066E-20-4.43270E-19
 -1      2421 9.57956E-05-2.84869E-05-2.88492E-05-1.02179E-06 2.33428E-19 6.36558E-19
 -1      2422 9.65654E-05-2.86715E-05-2.90872E-05-1.43294E-06-2.20830E-18-9.95463E-19
 -1      2423 9.63072E-05-2.86326E-05-2.90018E-05-1.24786E-06-1.52175E-18-1.23769E-18
 -1      2424 9.60491E-05-2.84716E-05-2.89650E-05-1.37704E-06-8.36639E-19-1.70604E-19
 -1      2425 9.70937E-05-2.87355E-05-2.92833E-05-1.92588E-06-1.11733E-18-1.22165E-18
 -1      2426 9.67534E-05-2.86810E-05-2.91719E-05-1.68233E-06-2.10403E-18-1.56499E-18
 -1      2427 9.63728E-05-2.84548E-05-2.91114E-05-1.84849E-06-1.76643E-18-1.92485E-18
 -1      2428 9.77744E-05-2.88235E-05-2.95339E-05-2.56308E-06 2.95221E-19-1.35525E-19
 -1      2429 9.73301E-05-2.87483E-05-2.93900E-05-2.24809E-06-4.53767E-19-1.01990E-18
 -1      2430 9.67822E-05-2.84367E-05-2.92952E-05-2.46138E-06-9.58355E-19-2.48798E-18
 -1      2431 9.86411E-05-2.89447E-05-2.98495E-05-3.37206E-06 1.13311E-18-5.91335E-19
 -1      2432 9.80676E-05-2.88411E-05-2.96661E-05-2.97212E-06 1.08327E-18-3.90792E-19
 -1      2433 9.72940E-05-2.84191E-05-2.95225E-05-3.24384E-06 6.70501E-19-2.04595E-18
 -1      2434 9.97305E-05-2.91146E-05-3.02397E-05-4.37697E-06 1.01393E-18-1.74888E-19
 -1      2435 9.89999E-05-2.89707E-05-3.00101E-05-3.88111E-06 1.01191E-18-2.98447E-19
 -1      2436 9.79254E-05-2.84078E-05-2.97981E-05-4.22408E-06 1.13591E-18-1.55504E-18
 -1      2437 1.01083E-04-2.93618E-05-3.07102E-05-5.58765E-06 4.78567E-19 9.42619E-19
 -1      2438 1.00165E-04-2.91581E-05-3.04295E-05-4.99414E-06 1.20900E-18 8.68164E-19
 -1      2439 9.86964E-05-2.84194E-05-3.01236E-05-5.42387E-06 4.46684E-19-6.55697E-19
 -1      2440 1.02743E-04-2.97410E-05-3.12585E-05-6.97783E-06 1.01408E-18-9.40060E-19
 -1      2441 1.01609E-04-2.94437E-05-3.09261E-05-6.30749E-06 1.19387E-18 4.56552E-19
 -1      2442 9.96341E-05-2.84938E-05-3.04938E-05-6.84562E-06 1.24092E-18 8.43380E-19
 -1      2443 1.04767E-04-3.03559E-05-3.18668E-05-8.44562E-06 5.34296E-19-2.86372E-18
 -1      2444 1.03390E-04-2.99065E-05-3.14911E-05-7.76570E-06 3.88752E-19-1.90680E-18
 -1      2445 1.00786E-04-2.87177E-05-3.08930E-05-8.44815E-06 1.68865E-18-8.02216E-19
 -1      2446 1.07237E-04-3.13922E-05-3.24944E-05-9.74858E-06-8.18717E-19-2.24465E-18
 -1      2447 1.05599E-04-3.06942E-05-3.20982E-05-9.21067E-06-2.52087E-19-2.28771E-18
 -1      2448 1.02250E-04-2.92642E-05-3.12906E-05-1.01051E-05 7.48301E-20-1.87592E-18
 -1      2449 1.10282E-04-3.31457E-05-3.30741E-05-1.04121E-05-1.16554E-19-2.04339E-18
 -1      2450 1.08381E-04-3.20606E-05-3.26990E-05-1.03007E-05-9.81347E-19-2.21365E-18
 -1      2451 1.04223E-04-3.04455E-05-3.16406E-05-1.15381E-05-6.84325E-19-1.54602E-18
 -1      2452 1.14077E-04-3.59853E-05-3.35255E-05-9.63650E-06 4.51263E-19-1.53543E-18
 -1      2453 1.11963E-04-3.43758E-05-3.32276E-05-1.04015E-05 3.82938E-19-2.12493E-18
 -1      2454 1.07066E-04-3.27472E-05-3.18945E-05-1.22192E-05-7.39218E-20-2.56139E-18
 -1      2455 1.18728E-04-4.00867E-05-3.38140E-05-6.29431E-06-3.82502E-19-6.56947E-20
 -1      2456 1.16601E-04-3.80032E-05-3.36361E-05-8.49191E-06 2.60542E-19-2.05207E-19
 -1      2457 1.11338E-04-3.67384E-05-3.20475E-05-1.12522E-05-3.76599E-19-1.08673E-18
 -1      2458 1.23870E-04-4.47279E-05-3.40733E-05 6.82613E-07-2.14326E-19 6.70462E-19
 -1      2459 1.22260E-04-4.28000E-05-3.39857E-05-3.28560E-06-2.43271E-19 1.40634E-19
 -1      2460 1.17549E-04-4.25584E-05-3.22458E-05-7.34321E-06-5.64753E-19 4.99882E-20
 -1      2461 1.27924E-04-4.71715E-05-3.47510E-05 1.11823E-05 6.07303E-19-7.02882E-19
 -1      2462 1.27876E-04-4.71192E-05-3.45840E-05 6.02982E-06 3.47760E-19 7.62244E-19
 -1      2463 1.25426E-04-4.87684E-05-3.29515E-05 8.66056E-07 1.52707E-19 7.51518E-19
 -1      2464 1.27876E-04-4.29952E-05-3.64571E-05 2.13132E-05-6.04834E-21 1.47672E-19
 -1      2465 1.30402E-04-4.67766E-05-3.59879E-05 1.75270E-05 7.06502E-19 1.03364E-20
 -1      2466 1.32340E-04-5.08813E-05-3.49853E-05 1.31413E-05 6.93932E-19 5.34729E-19
 -1      2467 1.22090E-04-3.09828E-05-3.91909E-05 2.29512E-05 5.45066E-19-1.27844E-18
 -1      2468 1.26672E-04-3.78313E-05-3.84916E-05 2.43702E-05-5.57295E-19-6.77004E-19
 -1      2469 1.33962E-04-4.34503E-05-3.89393E-05 2.41805E-05 1.58554E-19 1.07028E-18
 -1      2470 1.15862E-04-2.05093E-05-4.11813E-05 1.05911E-05 2.24210E-18-1.34519E-18
 -1      2471 1.18873E-04-2.45602E-05-4.09264E-05 1.77787E-05 1.80280E-18-1.70791E-18
 -1      2472 1.28829E-04-2.75504E-05-4.37891E-05 2.27711E-05 1.63679E-18-1.98237E-18
 -1      2473 1.16423E-04-2.32732E-05-4.04473E-05-7.19735E-06 1.19516E-18-1.54370E-18
 -1      2474 1.15205E-04-2.01338E-05-4.11042E-05 1.16313E-07 1.60227E-18-1.74888E-18
 -1      2475 1.24359E-04-1.77107E-05-4.61707E-05 6.35715E-06 1.65256E-18-3.20272E-18
 -1      2476 1.21900E-04-3.55761E-05-3.74015E-05-1.49681E-05-6.91549E-19-6.47716E-19
 -1      2477 1.18752E-04-2.92369E-05-3.85091E-05-1.31575E-05 5.11608E-19-1.02814E-18
 -1      2478 1.26649E-04-2.54552E-05-4.37557E-05-1.13865E-05 6.99226E-19-2.61050E-18
 -1      2479 1.23720E-04-4.41220E-05-3.42679E-05-9.16564E-06 3.10226E-19-1.08242E-19
 -1      2480 1.22397E-04-4.07007E-05-3.51389E-05-1.24849E-05-4.91809E-20-5.80727E-19
 -1      2481 1.30561E-04-4.14014E-05-3.84177E-05-1.36258E-05-6.84509E-19-1.31650E-18
 -1      2482 1.19473E-04-4.40065E-05-3.22907E-05 1.57458E-06-1.82001E-18 1.75929E-18
 -1      2483 1.20686E-04-4.45164E-05-3.27986E-05-3.10380E-06-1.14633E-18 1.68902E-18
 -1      2484 1.27945E-04-4.87794E-05-3.40108E-05-3.85191E-06-1.85093E-18 1.79537E-18
 -1      2485 1.11986E-04-3.85605E-05-3.13449E-05 9.83048E-06-1.46654E-18 2.03844E-18
 -1      2486 1.14726E-04-4.12269E-05-3.16509E-05 6.57900E-06-1.45866E-18 2.70066E-18
 -1      2487 1.19822E-04-4.60563E-05-3.17243E-05 7.45924E-06-1.83250E-18 3.02145E-18
 -1      2488 1.04265E-04-3.18133E-05-3.09510E-05 1.28013E-05-1.39088E-18 1.63176E-18
 -1      2489 1.07472E-04-3.49163E-05-3.11850E-05 1.19952E-05-1.35824E-18 1.67503E-18
 -1      2490 1.10394E-04-3.82199E-05-3.10380E-05 1.42549E-05-1.10940E-18 3.83164E-18
 -1      2491 1.00625E-04-2.83925E-05-3.09846E-05 1.19987E-05-1.47736E-18 1.37016E-18
 -1      2492 7.67774E-05-8.50981E-06-2.94305E-05 1.43802E-05-1.85571E-18-1.54356E-18
 -1      2493 8.10469E-05-1.16034E-05-2.95778E-05 1.98492E-05-1.83378E-18-3.79627E-18
 -1      2494 7.30292E-05-5.42894E-06-2.89926E-05-1.91563E-06-3.29089E-19 1.69362E-18
 -1      2495 7.36821E-05-5.82512E-06-2.90460E-05 5.76453E-06-1.04573E-18 7.82897E-19
 -1      2496 7.18682E-05-1.01543E-05-2.61833E-05 1.18680E-05-1.60526E-18 3.46701E-19
 -1      2497 9.55190E-05-2.36657E-05-3.08464E-05 2.39147E-05-1.53195E-18-1.89037E-18
 -1      2498 9.90184E-05-2.70272E-05-3.07671E-05 2.24560E-05-9.83432E-19-1.01909E-18
 -1      2499 8.68041E-05-1.65728E-05-3.02611E-05 2.34890E-05-3.02183E-18-3.93424E-18
 -1      2500 9.15011E-05-2.02798E-05-3.03179E-05 2.46922E-05-2.45894E-18-1.96899E-18
 -1      2501 9.47452E-05-2.70467E-05-2.90713E-05 2.73342E-05-1.99087E-18-3.36206E-18
 -1      2502 8.34873E-05-1.85735E-05-2.76125E-05 2.51579E-05-2.49284E-18-3.05454E-18
 -1      2503 7.82356E-05-9.64290E-06-2.92375E-05-1.77192E-05-6.05506E-19 3.66355E-19
 -1      2504 7.47936E-05-7.04357E-06-2.91676E-05-1.12877E-05-6.08079E-19 5.86041E-19
 -1      2505 7.03409E-05-9.01606E-06-2.59597E-05-7.75833E-06-1.39332E-18 6.50071E-19
 -1      2506 8.87794E-05-1.85974E-05-2.98691E-05-2.58986E-05 1.75781E-18 2.02725E-18
 -1      2507 8.35888E-05-1.44678E-05-2.98180E-05-2.32876E-05 3.39544E-19 1.71000E-18
 -1      2508 7.91395E-05-1.58738E-05-2.69564E-05-2.40100E-05 6.47543E-19 2.00358E-18
 -1      2509 9.81654E-05-2.69799E-05-3.03570E-05-2.50699E-05 2.88398E-18 8.43503E-19
 -1      2510 9.40066E-05-2.31889E-05-3.04550E-05-2.61477E-05 1.87804E-18 4.59105E-19
 -1      2511 9.23896E-05-2.58559E-05-2.84986E-05-2.96700E-05 2.20528E-18 1.66363E-18
 -1      2512 1.03034E-04-3.19108E-05-3.04269E-05-1.87778E-05 2.41995E-18-1.01322E-18
 -1      2513 1.01047E-04-2.94333E-05-3.06771E-05-2.18354E-05 2.77717E-18-1.28005E-18
 -1      2514 1.02373E-04-3.31428E-05-2.97439E-05-2.59638E-05 2.43399E-18-1.14063E-19
 -1      2515 1.03845E-04-3.35846E-05-3.01103E-05-1.09165E-05 2.76889E-18 1.80504E-18
 -1      2516 1.03625E-04-3.23905E-05-3.04415E-05-1.44442E-05 2.88527E-18 1.29768E-20
 -1      2517 1.06646E-04-3.60693E-05-3.02897E-05-1.77307E-05 2.79359E-18-5.04663E-20
 -1      2518 1.02178E-04-3.31594E-05-2.96018E-05-4.16587E-06 8.32784E-19 1.93449E-18
 -1      2519 1.02987E-04-3.29383E-05-2.99194E-05-7.07998E-06 1.51907E-18 3.01526E-18
 -1      2520 1.06279E-04-3.58029E-05-3.02083E-05-9.22842E-06 1.84574E-18 9.40926E-19
 -1      2521 9.95571E-05-3.18072E-05-2.90567E-05 4.06857E-07-1.21120E-18-2.42284E-18
 -1      2522 1.00770E-04-3.21652E-05-2.93176E-05-1.46128E-06-9.90167E-19-1.18796E-19
 -1      2523 1.03498E-04-3.40320E-05-2.97543E-05-2.53101E-06-3.36914E-19-3.76789E-19
 -1      2524 3.15696E-05-2.71107E-05-1.64577E-06 2.61640E-05 4.42998E-19-5.43795E-19
 -1      2525 2.45585E-05-2.10479E-05-1.19582E-06 9.49166E-06-1.71048E-19 2.21330E-18
 -1      2526 9.75536E-05-5.71512E-05-1.73737E-05 4.90869E-05-8.86843E-19 2.47874E-18
 -1      2527 7.94058E-05-5.13192E-05-1.18583E-05 4.79465E-05-6.71697E-19 2.16523E-19
 -1      2528 9.36282E-05-2.74733E-05-2.83405E-05 3.68621E-07 1.25126E-18-5.09350E-19
 -1      2529 9.39105E-05-2.73374E-05-2.84875E-05 9.02381E-07 1.40198E-18-1.56868E-19
 -1      2530 9.42712E-05-2.74901E-05-2.86341E-05 4.01962E-07 1.36580E-18-7.53943E-19
 -1      2531 9.65763E-05-3.01468E-05-2.84838E-05 2.11632E-06-1.72315E-19-1.56314E-18
 -1      2532 2.74422E-05-2.04216E-05-2.47985E-06-1.34473E-05-1.78777E-19 2.57837E-18
 -1      2533 3.52518E-05-2.58390E-05-3.62576E-06-3.06736E-05-5.80218E-20 1.63604E-18
 -1      2534 5.82064E-05-4.08923E-05-7.38818E-06 4.55269E-05 2.77192E-19-3.05144E-18
 -1      2535 4.22446E-05-3.40450E-05-3.32337E-06 3.58508E-05 1.14688E-18-2.85747E-18
 -1      2536 4.50399E-05-2.65814E-05-7.36637E-06 3.13642E-05 6.28922E-20-1.21083E-18
 -1      2537 1.56373E-04-3.23073E-05-5.37601E-05-5.29238E-06 4.82809E-20-1.14646E-18
 -1      2538 1.55927E-04-4.10413E-05-4.95372E-05-5.04264E-06 6.56451E-19-1.98756E-18
 -1      2539 4.88021E-05-3.59017E-05-5.31865E-06-4.19541E-05 5.10761E-19 4.03188E-18
 -1      2540 6.69308E-05-4.41425E-05-9.67851E-06-5.01824E-05 1.35271E-18 5.95549E-18
 -1      2541 1.55453E-04-3.38434E-05-5.23674E-05-1.05275E-07-3.91139E-18 2.85768E-18
 -1      2542 1.55043E-04-2.38593E-05-5.68166E-05 2.71681E-06-5.05996E-18 1.06769E-18
 -1      2543 7.29095E-05-4.67430E-05-1.12063E-05 4.70591E-05 7.93670E-19-1.18331E-18
 -1      2544 5.29560E-05-3.90804E-05-5.71542E-06 4.20709E-05 1.30443E-18-3.18061E-19
 -1      2545 1.32601E-04-6.55962E-05-2.87546E-05-1.92142E-05 8.79220E-19-1.44461E-18
 -1      2546 1.46408E-04-6.41380E-05-3.57626E-05-9.38222E-06 1.44229E-18-1.09564E-18
 -1      2547 8.78368E-05-1.07973E-05-3.30526E-05-1.51835E-06-7.18877E-19-3.61931E-18
 -1      2548 8.79423E-05-1.09192E-05-3.30440E-05-2.63687E-06-1.06728E-18-3.51570E-18
 -1      2549 8.93407E-05-1.30917E-05-3.26803E-05-2.93007E-06-1.17482E-18-3.22399E-18
 -1      2550 8.90924E-05-1.27570E-05-3.27185E-05-9.40848E-07-6.14401E-19-3.44334E-18
 -1      2551 1.53303E-04-1.83505E-05-5.81943E-05 1.38900E-05 3.14715E-18-2.30891E-18
 -1      2552 1.48984E-04-1.36269E-05-5.86631E-05 8.30330E-06 2.67027E-18-2.09003E-18
 -1      2553 1.11569E-04-5.87017E-05-2.28249E-05 3.99422E-05 9.62865E-19-1.99095E-18
 -1      2554 9.35829E-05-5.47340E-05-1.65105E-05 4.31342E-05 8.98914E-19-2.73761E-18
 -1      2555 1.51293E-04-1.51296E-05-5.89472E-05 8.15445E-07 1.79698E-18-1.58702E-18
 -1      2556 1.54796E-04-2.11208E-05-5.75533E-05-3.36098E-06 1.09818E-18-9.33854E-19
 -1      2557 1.44996E-04-2.50846E-05-5.15696E-05-9.64336E-06 8.17387E-20-1.86834E-18
 -1      2558 1.40860E-04-1.43405E-05-5.45698E-05 4.84143E-06 2.25734E-18-2.49790E-18
 -1      2559 1.56117E-04-3.26269E-05-5.31970E-05 1.69215E-05 4.14030E-18-1.48443E-18
 -1      2560 1.56510E-04-2.51830E-05-5.69220E-05 1.62696E-05 3.85485E-18-2.95953E-18
 -1      2561 1.43330E-04-1.99568E-05-5.30017E-05 1.85250E-05 3.35340E-18-3.19056E-18
 -1      2562 1.52835E-04-5.59431E-05-4.16326E-05 7.23332E-06 2.01176E-18-8.75409E-19
 -1      2563 1.57627E-04-4.73016E-05-4.78850E-05 1.32886E-05 3.03428E-18-4.55915E-19
 -1      2564 1.00404E-04-6.00882E-05-1.71497E-05-3.40667E-05 9.50583E-19-1.78983E-18
 -1      2565 1.17927E-04-6.41215E-05-2.32677E-05-3.07671E-05 3.15520E-19-1.82980E-18
 -1      2566 2.71647E-05-2.47588E-05-6.14591E-07-1.79761E-05 6.98802E-21-3.42815E-18
 -1      2567 3.77503E-05-3.01566E-05-2.80502E-06-2.89054E-05-5.69630E-20-1.97401E-18
 -1      2568 2.05673E-05-2.00635E-05 2.42725E-07 1.21402E-05 1.54075E-18-9.07596E-19
 -1      2569 2.04518E-05-2.02434E-05 3.60474E-07-4.82926E-06 8.41898E-19-2.81130E-18
 -1      2570 3.64329E-05-3.03524E-05-2.40495E-06 3.60178E-05 1.72604E-18-8.78373E-19
 -1      2571 2.65087E-05-2.51895E-05-2.49683E-07 2.57107E-05 2.09270E-18-1.21952E-18
 -1      2572 1.50081E-04-1.35677E-05-5.90634E-05 2.10625E-06-5.10422E-18 1.99148E-18
 -1      2573 1.50560E-04-1.02730E-05-6.07207E-05-8.70249E-07-4.38848E-18 2.44777E-18
 -1      2574 1.39345E-04-5.95378E-05-3.46305E-05 2.19513E-05-7.28448E-20 1.45647E-18
 -1      2575 1.27607E-04-6.07567E-05-2.86491E-05 2.82404E-05 9.52912E-20 8.30304E-19
 -1      2576 1.50290E-04-4.34754E-05-4.65769E-05-4.24108E-06-1.70465E-19 3.38686E-18
 -1      2577 1.46821E-04-5.24330E-05-4.04991E-05 7.68251E-06-1.46960E-19 2.72956E-18
 -1      2578 1.43445E-04-5.75795E-05-3.67332E-05 6.72531E-06 2.84285E-19 2.11239E-18
 -1      2579 1.46791E-04-2.33409E-05-5.36610E-05-1.07903E-05-1.94648E-18 4.45105E-18
 -1      2580 1.47811E-04-3.11635E-05-5.04117E-05-1.05990E-05-1.33196E-18 4.20827E-18
 -1      2581 8.62373E-05-5.36249E-05-1.38883E-05-4.95289E-05 1.41327E-18 5.08463E-18
 -1      2582 1.06149E-04-5.88469E-05-2.04293E-05-4.83636E-05 7.20825E-19 3.72747E-18
 -1      2583 1.48816E-04-1.01983E-05-5.98608E-05-5.23869E-06-2.88584E-18 2.50351E-18
 -1      2584 1.43194E-04-1.35761E-05-5.63222E-05-9.36104E-06-1.90731E-18 2.61077E-18
 -1      2585 1.35307E-04-8.00772E-06-5.48629E-05-3.43309E-06-3.39914E-18 1.63937E-18
 -1      2586 1.51804E-04-5.33640E-05-4.21838E-05-1.42100E-05-2.36305E-18 3.24160E-18
 -1      2587 1.56550E-04-4.62435E-05-4.77446E-05-8.05242E-06-3.14435E-18 3.38347E-18
 -1      2588 9.50762E-05-2.00252E-05-3.22132E-05-1.17485E-05-2.87400E-18 1.46828E-19
 -1      2589 9.54748E-05-2.33674E-05-3.09289E-05-7.96531E-06-2.54490E-18 2.80486E-19
 -1      2590 9.50752E-05-2.25539E-05-3.10549E-05-7.65540E-06-2.40698E-18-3.91817E-19
 -1      2591 9.32204E-05-1.76225E-05-3.24162E-05-1.14026E-05-2.90322E-18-7.00112E-19
 -1      2592 9.63390E-05-2.50966E-05-3.05583E-05 7.59177E-06 2.67819E-18 4.26643E-19
 -1      2593 9.74603E-05-2.37801E-05-3.15986E-05 1.06914E-05 2.83629E-18 7.39513E-19
 -1      2594 9.58940E-05-2.13045E-05-3.20228E-05 1.18931E-05 3.04491E-18-2.58822E-19
 -1      2595 9.58824E-05-2.41623E-05-3.07704E-05 7.68281E-06 2.68590E-18-5.64339E-19
 -1      2596 9.07947E-05-1.50406E-05-3.24575E-05-6.79953E-06-2.13195E-18-2.76354E-18
 -1      2597 8.97069E-05-1.31899E-05-3.28444E-05-7.94962E-06-2.24255E-18-2.84255E-18
 -1      2598 9.03372E-05-1.39082E-05-3.28171E-05-9.17969E-06-2.56617E-18-2.50606E-18
 -1      2599 9.47366E-05-2.69399E-05-2.90682E-05 1.88264E-06 1.66811E-18-8.01707E-19
 -1      2600 9.42487E-05-1.90824E-05-3.22593E-05 1.16021E-05 2.88284E-18-1.30360E-18
 -1      2601 8.40102E-05-4.84880E-05-1.47868E-05-4.95202E-05 1.28283E-18 5.25838E-18
 -1      2602 1.44126E-04-3.86200E-05-4.54489E-05-1.07913E-05-3.66342E-19 4.45518E-18
 -1      2603 1.48481E-04-6.35866E-05-3.68151E-05 9.01790E-06-2.06712E-18-3.92917E-18
 -1      2604 1.46936E-04-6.62912E-05-3.46038E-05 2.00400E-05-1.93526E-18-1.67035E-18
 -1      2605 1.38844E-04-6.66336E-05-3.06893E-05 2.46032E-05-2.60230E-18-1.93695E-18
 -1      2606 1.14262E-04-6.27563E-05-2.18901E-05 4.18766E-05-2.06528E-18 2.08608E-18
 -1      2607 5.12611E-05-2.81818E-05-9.39038E-06-3.64486E-05-4.04882E-19 3.35912E-18
 -1      2608 1.42888E-04-1.81281E-05-5.37660E-05 5.79791E-06-4.33490E-18 6.36969E-19
 -1      2609 1.02028E-04-2.97750E-05-3.09922E-05 1.54212E-05-1.45599E-18 3.22227E-18
 -1      2610 1.01521E-04-2.88911E-05-3.11306E-05 1.78091E-05-7.24564E-19 3.06155E-18
 -1      2611 5.25579E-05-3.38648E-05-7.53108E-06 3.97763E-05 1.96300E-18-5.39136E-19
 -1      2612 1.51651E-04-4.86054E-05-4.44033E-05-4.75162E-06-1.73959E-19-3.59205E-18
 -1      2613 7.50301E-05-4.41252E-05-1.27486E-05 4.64367E-05-6.60897E-19-1.23794E-18
 -1      2614 2.99583E-05-1.95686E-05-3.88667E-06 1.81368E-05 1.82038E-18-6.17064E-19
 -1      2615 3.08166E-05-1.90578E-05-4.42522E-06-1.06415E-05 8.63974E-19-2.45301E-18
 -1      2616 9.47184E-05-2.06038E-05-3.17190E-05 9.66895E-06 2.64731E-18-1.36341E-18
 -1      2617 1.49411E-04-3.96966E-05-4.72444E-05 2.18304E-05 3.01745E-18-1.26737E-18
 -1      2618 9.20499E-05-1.62339E-05-3.25340E-05-1.03879E-05-2.68340E-18-1.51980E-18
 -1      2619 1.21185E-04-6.27331E-05-2.47100E-05-4.22828E-05 6.31040E-20 3.24265E-18
 -1      2620 1.31861E-04-6.51912E-05-2.91914E-05-3.37411E-05 9.99075E-19 3.53181E-18
 -1      2621 1.15607E-04-6.09185E-05-2.29114E-05-4.43006E-05 1.41920E-18 3.89701E-18
 -1      2622 1.29157E-04-6.67272E-05-2.65922E-05-2.06616E-05 2.08794E-19-1.46981E-18
 -1      2623 8.90566E-05-5.15867E-05-1.56651E-05 4.40316E-05 1.57972E-18-2.32156E-18
 -1      2624 1.50950E-04-4.08339E-05-4.73253E-05 2.15540E-06-3.06859E-18 1.47659E-18
 -1      2625 1.48354E-04-6.12601E-05-3.73418E-05 4.06617E-06 1.03116E-18-6.89061E-19
 -1      2626 5.26273E-05-3.49207E-05-7.18606E-06-3.20252E-05-7.41154E-21-1.73218E-18
 -1      2627 1.23338E-04-6.20562E-05-2.60351E-05 3.07184E-05 1.34022E-18 1.01543E-18
 -1      2628 9.30734E-05-5.58151E-05-1.55577E-05-3.64082E-05 6.47557E-19-1.53639E-18
 -1      2629 1.37302E-04-1.78404E-05-5.15441E-05-1.31845E-05-1.53313E-18 2.25893E-18
 -1      2630 1.47892E-04-5.95847E-05-3.77825E-05-1.83576E-05-1.26473E-18 3.22677E-18
 -1      2631 9.69357E-05-3.02484E-05-2.85820E-05 2.90007E-06-1.28714E-18-6.41967E-19
 -1      2632 9.84535E-05-3.10758E-05-2.88283E-05 1.86299E-06-1.39110E-18-2.05653E-18
 -1      2633 1.00156E-04-3.21172E-05-2.91943E-05 1.50047E-06-2.34034E-18-1.66552E-18
 -1      2634 9.70159E-05-3.03587E-05-2.86122E-05 3.42485E-06-1.53854E-18-4.79125E-19
 -1      2635 1.03991E-04-3.29250E-05-3.04681E-05 2.11191E-05-1.24908E-18 1.35711E-18
 -1      2636 9.93460E-05-3.14428E-05-2.90606E-05 3.44519E-06-1.29158E-18-1.17092E-18
 -1      2637 1.34950E-04-2.16209E-05-4.89670E-05 1.99001E-05 3.30216E-18-2.75900E-18
 -1      2638 1.31332E-04-1.72930E-05-4.98414E-05 1.44437E-05 3.23651E-18-3.12118E-18
 -1      2639 9.05553E-05-1.51725E-05-3.23292E-05 3.19502E-06 4.94300E-19-3.35753E-18
 -1      2640 9.03647E-05-1.49009E-05-3.23618E-05 2.26123E-06 1.94760E-19-3.40043E-18
 -1      2641 9.02303E-05-1.46982E-05-3.23908E-05 1.42288E-06 8.55543E-21-3.44266E-18
 -1      2642 9.01649E-05-1.46056E-05-3.24018E-05 4.65759E-07-2.59201E-19-3.30448E-18
 -1      2643 9.14159E-05-1.65931E-05-3.20541E-05 1.64175E-06 9.19445E-20-3.20209E-18
 -1      2644 9.21395E-05-1.75508E-05-3.20045E-05 6.47323E-06 1.77150E-18-2.81590E-18
 -1      2645 9.16143E-05-1.67560E-05-3.21044E-05 5.63415E-06 1.43177E-18-2.92011E-18
 -1      2646 9.35629E-05-1.97775E-05-3.16648E-05 7.59513E-06 2.18207E-18-2.26649E-18
 -1      2647 9.27709E-05-1.85214E-05-3.18382E-05 7.01679E-06 1.92018E-18-2.57391E-18
 -1      2648 9.34345E-05-1.98668E-05-3.15062E-05 5.73326E-06 1.69952E-18-2.50156E-18
 -1      2649 9.52202E-05-2.54094E-05-2.99313E-05 3.97615E-06 1.87640E-18-1.21716E-18
 -1      2650 9.55567E-05-2.45593E-05-3.03951E-05 5.60942E-06 2.18061E-18-1.12934E-18
 -1      2651 1.40677E-04-4.28269E-05-4.22117E-05 2.33093E-05 1.08261E-18-2.27640E-19
 -1      2652 1.38652E-04-3.23719E-05-4.63792E-05 2.43093E-05 2.11335E-18-1.93007E-18
 -1      2653 1.27492E-04-8.75091E-06-5.15354E-05 8.42125E-07-3.40232E-18-7.20560E-19
 -1      2654 1.25119E-04-8.12118E-06-5.07213E-05-6.63872E-06-2.34501E-18-3.04376E-19
 -1      2655 9.47096E-05-2.19079E-05-3.12074E-05 7.84118E-06 2.42432E-18-1.51670E-18
 -1      2656 1.30220E-04-1.46848E-05-5.00706E-05 4.20177E-06 2.29165E-18-3.74520E-18
 -1      2657 9.53614E-05-2.59071E-05-2.97370E-05-2.70320E-06-1.59820E-18-9.03727E-19
 -1      2658 9.51957E-05-2.64932E-05-2.94560E-05-1.72209E-06-1.46100E-18-1.04449E-18
 -1      2659 9.52176E-05-2.70058E-05-2.92102E-05-9.79836E-07-1.41469E-18-1.03392E-18
 -1      2660 9.50830E-05-2.73607E-05-2.90302E-05-3.74881E-07-1.32904E-18-1.19243E-18
 -1      2661 9.54151E-05-2.63307E-05-2.96139E-05-1.61892E-06-1.57223E-18-1.35711E-18
 -1      2662 9.50504E-05-2.76674E-05-2.88624E-05 9.13587E-08-1.06949E-18-1.19425E-18
 -1      2663 9.49726E-05-2.78924E-05-2.87516E-05 4.41501E-07-1.06333E-18-1.10800E-18
 -1      2664 9.54161E-05-2.73261E-05-2.91887E-05-3.41014E-07-1.28409E-18-1.53986E-18
 -1      2665 9.49304E-05-2.80780E-05-2.86408E-05 7.09694E-07-1.09224E-18-1.05300E-18
 -1      2666 9.49018E-05-2.82251E-05-2.85768E-05 8.91745E-07-1.07145E-18-1.18007E-18
 -1      2667 9.53557E-05-2.79426E-05-2.88980E-05 4.46554E-07-1.15984E-18-1.52357E-18
 -1      2668 9.48666E-05-2.83373E-05-2.85064E-05 1.02449E-06-1.19996E-18-1.07610E-18
 -1      2669 9.48731E-05-2.84346E-05-2.84736E-05 1.09796E-06-1.11369E-18-1.32840E-18
 -1      2670 9.52910E-05-2.83242E-05-2.87054E-05 8.85614E-07-1.14841E-18-1.37195E-18
 -1      2671 9.48484E-05-2.85002E-05-2.84317E-05 1.14166E-06-8.24062E-19-1.07639E-18
 -1      2672 9.48767E-05-2.85640E-05-2.84192E-05 1.14731E-06-8.15157E-19-1.01636E-18
 -1      2673 9.52412E-05-2.85568E-05-2.85830E-05 1.08806E-06-8.70640E-19-1.15763E-18
 -1      2674 9.48616E-05-2.85993E-05-2.83967E-05 1.13547E-06-6.88550E-19-4.48488E-19
 -1      2675 9.49015E-05-2.86396E-05-2.83971E-05 1.10128E-06-3.44661E-19-2.53102E-19
 -1      2676 9.52088E-05-2.86921E-05-2.85101E-05 1.13687E-06-3.21044E-19-3.91621E-19
 -1      2677 9.48936E-05-2.86549E-05-2.83879E-05 1.05763E-06-2.54063E-19-1.44679E-19
 -1      2678 9.49380E-05-2.86785E-05-2.83960E-05 1.00273E-06 8.30897E-20-6.82931E-20
 -1      2679 9.51910E-05-2.87626E-05-2.84713E-05 1.09189E-06-2.18763E-19 1.05146E-19
 -1      2680 9.49353E-05-2.86806E-05-2.83955E-05 9.43831E-07 7.70660E-20-2.57119E-19
 -1      2681 9.49798E-05-2.86923E-05-2.84079E-05 8.81256E-07 6.76226E-20-5.55014E-19
 -1      2682 9.51838E-05-2.87898E-05-2.84560E-05 9.95410E-07-4.11221E-20-2.46790E-20
 -1      2683 9.49804E-05-2.86857E-05-2.84130E-05 8.18479E-07 9.89216E-20-5.50152E-19
 -1      2684 9.50226E-05-2.86888E-05-2.84277E-05 7.57044E-07-4.15988E-20-4.72674E-19
 -1      2685 9.51838E-05-2.87883E-05-2.84562E-05 8.76910E-07-1.49937E-19-8.74869E-19
 -1      2686 9.50254E-05-2.86764E-05-2.84365E-05 6.98141E-07 5.83094E-20-5.33177E-19
 -1      2687 9.50643E-05-2.86733E-05-2.84522E-05 6.43804E-07 1.23403E-19-6.41303E-19
 -1      2688 9.51884E-05-2.87676E-05-2.84667E-05 7.56662E-07 3.26210E-20-3.84271E-19
 -1      2689 9.50684E-05-2.86570E-05-2.84633E-05 5.94096E-07-4.04645E-20-3.93111E-19
 -1      2690 9.51041E-05-2.86492E-05-2.84795E-05 5.50985E-07-2.65591E-19-2.19679E-19
 -1      2691 9.51958E-05-2.87340E-05-2.84841E-05 6.48584E-07 6.31505E-20-4.42617E-19
 -1      2692 9.51091E-05-2.86300E-05-2.84924E-05 5.14272E-07-7.40633E-19-1.31489E-19
 -1      2693 9.51425E-05-2.86185E-05-2.85090E-05 4.85437E-07-9.22581E-19-3.38725E-19
 -1      2694 9.52050E-05-2.86912E-05-2.85062E-05 5.62421E-07-4.41045E-19-5.98875E-19
 -1      2695 9.51483E-05-2.85968E-05-2.85233E-05 4.64681E-07-9.06037E-19-6.60098E-19
 -1      2696 9.51807E-05-2.85824E-05-2.85407E-05 4.52647E-07-8.66846E-19-6.44566E-19
 -1      2697 9.52155E-05-2.86413E-05-2.85321E-05 5.05405E-07-9.84933E-19-3.61107E-19
 -1      2698 9.51874E-05-2.85582E-05-2.85566E-05 4.50463E-07-6.04055E-19-8.00541E-19
 -1      2699 9.52210E-05-2.85412E-05-2.85753E-05 4.57617E-07-5.22640E-19-4.54578E-19
 -1      2700 9.52273E-05-2.85847E-05-2.85614E-05 4.83468E-07-9.64318E-19-2.36280E-19
 -1      2701 9.52288E-05-2.85142E-05-2.85932E-05 4.76615E-07-4.61119E-19-2.91685E-19
 -1      2702 9.52659E-05-2.84950E-05-2.86140E-05 5.05440E-07-1.17678E-19-1.16864E-19
 -1      2703 9.52409E-05-2.85214E-05-2.85945E-05 5.02117E-07-3.98820E-19 4.66911E-19
 -1      2704 9.52755E-05-2.84650E-05-2.86343E-05 5.48418E-07-2.45720E-19-1.16590E-19
 -1      2705 9.53189E-05-2.84441E-05-2.86582E-05 6.01582E-07-2.59804E-19-1.53666E-19
 -1      2706 9.52572E-05-2.84507E-05-2.86318E-05 5.66985E-07-3.22675E-19 3.30659E-19
 -1      2707 9.53312E-05-2.84111E-05-2.86814E-05 6.71557E-07 1.56111E-19-5.27038E-19
 -1      2708 9.53845E-05-2.83895E-05-2.87092E-05 7.51814E-07 9.22472E-19-1.13052E-18
 -1      2709 9.52778E-05-2.83722E-05-2.86744E-05 6.84079E-07-2.61715E-19-5.99346E-19
 -1      2710 9.54010E-05-2.83540E-05-2.87358E-05 8.51872E-07 1.07358E-18-1.48043E-18
 -1      2711 9.54682E-05-2.83334E-05-2.87686E-05 9.61756E-07 5.40125E-19-1.55033E-18
 -1      2712 9.53051E-05-2.82867E-05-2.87229E-05 8.59669E-07 6.29874E-19-1.85064E-18
 -1      2713 9.54912E-05-2.82971E-05-2.87989E-05 1.09466E-06 6.34552E-20-1.39755E-18
 -1      2714 9.55772E-05-2.82807E-05-2.88373E-05 1.23590E-06-4.48874E-19-1.19163E-18
 -1      2715 9.53429E-05-2.81967E-05-2.87779E-05 1.09976E-06 3.50343E-19-2.04919E-18
 -1      2716 9.56102E-05-2.82471E-05-2.88713E-05 1.40343E-06-5.92545E-19-1.01684E-18
 -1      2717 9.57207E-05-2.82399E-05-2.89158E-05 1.57597E-06-3.05322E-19-8.60768E-19
 -1      2718 9.53973E-05-2.81081E-05-2.88394E-05 1.40903E-06-4.84610E-19-2.76922E-19
 -1      2719 9.57696E-05-2.82153E-05-2.89531E-05 1.77782E-06-3.14142E-19-5.52053E-19
 -1      2720 9.59116E-05-2.82253E-05-2.90036E-05 1.97845E-06-3.31589E-19-4.63447E-19
 -1      2721 9.54776E-05-2.80321E-05-2.89067E-05 1.78915E-06 1.27628E-20 2.11466E-19
 -1      2722 9.59851E-05-2.82198E-05-2.90431E-05 2.21072E-06-3.59622E-19-2.36844E-19
 -1      2723 9.61671E-05-2.82589E-05-2.90987E-05 2.43106E-06-1.18614E-19-7.29037E-20
 -1      2724 9.55981E-05-2.79874E-05-2.89780E-05 2.23615E-06-4.91174E-20 8.45485E-19
 -1      2725 9.62784E-05-2.82881E-05-2.91386E-05 2.68406E-06 2.20042E-19-4.59600E-19
 -1      2726 9.65107E-05-2.83733E-05-2.91975E-05 2.90801E-06 2.03390E-19-6.01198E-20
 -1      2727 9.57808E-05-2.80035E-05-2.90501E-05 2.73692E-06 1.39952E-19 8.50745E-19
 -1      2728 9.66795E-05-2.84597E-05-2.92354E-05 3.16346E-06 1.64238E-19-4.93982E-19
 -1      2729 9.69748E-05-2.86138E-05-2.92945E-05 3.36408E-06 4.17267E-19-9.69642E-20
 -1      2730 9.60584E-05-2.81240E-05-2.91187E-05 3.26424E-06 8.94344E-20 4.08509E-19
 -1      2731 9.72289E-05-2.87880E-05-2.93275E-05 3.59146E-06-2.93567E-19-2.52105E-19
 -1      2732 9.76014E-05-2.90393E-05-2.93832E-05 3.72759E-06-5.36429E-19-1.23143E-18
 -1      2733 9.64780E-05-2.84091E-05-2.91782E-05 3.77071E-06-4.22433E-19 8.02152E-20
 -1      2734 9.79781E-05-2.93387E-05-2.94088E-05 3.87999E-06 3.30031E-19-1.05950E-18
 -1      2735 9.84424E-05-2.97180E-05-2.94567E-05 3.89341E-06 4.41284E-19-1.03017E-18
 -1      2736 9.71045E-05-2.89365E-05-2.92234E-05 4.18106E-06 1.47300E-21-2.89812E-19
 -1      2737 9.89871E-05-3.01826E-05-2.94742E-05 3.90313E-06 2.54905E-20-9.83493E-19
 -1      2738 9.95531E-05-3.07150E-05-2.95112E-05 3.71782E-06 1.32269E-19-7.87008E-19
 -1      2739 9.80206E-05-2.97949E-05-2.92518E-05 4.38361E-06 4.78062E-19-9.09646E-19
 -1      2740 1.00312E-04-3.13749E-05-2.95245E-05 3.49328E-06-2.10287E-19-7.95420E-19
 -1      2741 1.00974E-04-3.20616E-05-2.95511E-05 3.02006E-06-7.83667E-19-2.07556E-19
 -1      2742 9.93192E-05-3.10658E-05-2.92681E-05 4.22204E-06-5.64428E-20-1.25485E-18
 -1      2743 1.01975E-04-3.29120E-05-2.95718E-05 2.44819E-06-6.48630E-19 6.16683E-19
 -1      2744 1.02692E-04-3.37005E-05-2.95949E-05 1.60016E-06-3.63447E-19 1.21580E-18
 -1      2745 1.01078E-04-3.27815E-05-2.92906E-05 3.49205E-06-2.30453E-19 3.90746E-20
 -1      2746 1.03906E-04-3.46604E-05-2.96469E-05 5.63737E-07-7.11526E-19 1.03956E-18
 -1      2747 1.04578E-04-3.54040E-05-2.96830E-05-7.08775E-07-6.38497E-19 1.21148E-18
 -1      2748 1.03304E-04-3.48491E-05-2.93596E-05 1.95535E-06-6.88549E-19 1.43127E-19
 -1      2749 1.05868E-04-3.62667E-05-2.98034E-05-2.28443E-06-5.16424E-19 1.61021E-18
 -1      2750 1.06310E-04-3.66889E-05-2.98788E-05-3.93270E-06-2.07109E-19 1.54855E-18
 -1      2751 1.05841E-04-3.69445E-05-2.95435E-05-6.04176E-07-5.77492E-19 6.56782E-19
 -1      2752 1.07369E-04-3.70862E-05-3.01132E-05-5.97830E-06-1.52872E-19 1.11509E-18
 -1      2753 1.07330E-04-3.68013E-05-3.02574E-05-7.76476E-06-3.34571E-19 8.11073E-19
 -1      2754 1.08253E-04-3.83998E-05-2.99365E-05-4.24435E-06-7.28187E-19 6.98159E-20
 -1      2755 1.07700E-04-3.62680E-05-3.06404E-05-9.89807E-06-2.68744E-19 7.32691E-19
 -1      2756 1.06980E-04-3.49564E-05-3.08662E-05-1.13223E-05 1.11613E-19 4.81659E-19
 -1      2757 1.09757E-04-3.82094E-05-3.06333E-05-8.58884E-06-3.91835E-19 7.11925E-20
 -1      2758 1.06304E-04-3.32305E-05-3.13820E-05-1.27644E-05 5.48633E-19 1.46352E-19
 -1      2759 1.04954E-04-3.09652E-05-3.16629E-05-1.31519E-05 6.41091E-19-2.82439E-19
 -1      2760 1.09480E-04-3.54909E-05-3.16590E-05-1.24761E-05 2.29182E-19 6.65855E-19
 -1      2761 1.03332E-04-2.83592E-05-3.22175E-05-1.29745E-05 2.41457E-19-7.92853E-19
 -1      2762 1.01782E-04-2.58519E-05-3.24730E-05-1.17920E-05-9.98361E-19-4.36118E-19
 -1      2763 1.07133E-04-3.02767E-05-3.28965E-05-1.41125E-05 2.17578E-19 5.45886E-19
 -1      2764 1.00103E-04-2.35282E-05-3.28804E-05-9.49980E-06-9.25734E-19-5.32913E-19
 -1      2765 9.90931E-05-2.20321E-05-3.29904E-05-6.90062E-06-5.68574E-19 2.33083E-19
 -1      2766 1.03672E-04-2.42937E-05-3.40246E-05-1.17358E-05-5.73170E-19-7.56324E-19
 -1      2767 9.85322E-05-2.13651E-05-3.30679E-05-3.32354E-06-1.29815E-18 5.43792E-19
 -1      2768 9.85017E-05-2.16595E-05-3.29635E-05-3.32193E-07-2.45470E-18-3.64034E-20
 -1      2769 1.01343E-04-2.07224E-05-3.46050E-05-5.56841E-06-4.50516E-19-1.28442E-18
 -1      2770 9.93798E-05-2.30041E-05-3.26710E-05 2.85717E-06-2.44597E-18 7.28233E-19
 -1      2771 1.00166E-04-2.47916E-05-3.23827E-05 4.97835E-06-4.29010E-19 6.85865E-20
 -1      2772 1.01695E-04-2.15451E-05-3.43782E-05 1.64953E-06-1.53732E-18 5.06284E-20
 -1      2773 1.01579E-04-2.71268E-05-3.18465E-05 6.41500E-06 2.72367E-19-1.42914E-18
 -1      2774 1.02508E-04-2.92450E-05-3.14803E-05 7.05294E-06-3.92671E-20-1.72140E-18
 -1      2775 1.04137E-04-2.60602E-05-3.34419E-05 6.36296E-06-1.08547E-18-1.21773E-18
 -1      2776 1.03253E-04-3.11144E-05-3.08998E-05 6.62648E-06 2.07468E-19-2.70214E-18
 -1      2777 1.03685E-04-3.24739E-05-3.05631E-05 6.06537E-06-3.91274E-19-2.88716E-18
 -1      2778 1.06402E-04-3.12149E-05-3.21789E-05 7.10835E-06-7.15063E-19-3.43237E-18
 -1      2779 1.03190E-04-3.30535E-05-3.00802E-05 4.66763E-06-1.55732E-19-2.79631E-18
 -1      2780 1.02850E-04-3.32908E-05-2.98201E-05 3.65572E-06 5.80945E-19-2.21642E-18
 -1      2781 1.06656E-04-3.42843E-05-3.09870E-05 4.82147E-06-2.50181E-19-3.91869E-18
 -1      2782 9.44790E-05-2.81308E-05-2.84348E-05-8.91992E-07 6.72954E-19-1.12825E-18
 -1      2783 9.44956E-05-2.80033E-05-2.84855E-05-7.17014E-07 7.11166E-19-1.04882E-18
 -1      2784 1.05513E-04-3.74705E-05-2.90098E-05 2.73341E-05-2.53780E-18-3.37328E-18
 -1      2785 1.09317E-04-3.90507E-05-2.99395E-05 2.10244E-05-2.34188E-18 2.96227E-19
 -1      2786 1.14023E-04-4.42226E-05-2.99430E-05 1.97412E-05-3.11531E-18-1.34367E-20
 -1      2787 9.45562E-05-2.78522E-05-2.85884E-05-4.41834E-07 8.22170E-19-1.12535E-18
 -1      2788 9.46446E-05-2.76650E-05-2.86871E-05-9.84646E-08 1.02855E-18-9.40242E-19
 -1      2789 9.50089E-05-2.79121E-05-2.87641E-05-4.51503E-07 8.77276E-19-1.26495E-18
 -1      2790 9.45187E-05-2.84358E-05-2.83204E-05-1.14174E-06 2.91583E-19-2.77025E-19
 -1      2791 9.44620E-05-2.83719E-05-2.83212E-05-1.13921E-06 5.60696E-19-4.56691E-19
 -1      2792 9.45903E-05-2.85153E-05-2.83170E-05-1.09364E-06 5.53146E-19-5.88046E-19
 -1      2793 9.45214E-05-2.84703E-05-2.83066E-05-1.12946E-06 4.83408E-19-3.14630E-19
 -1      2794 9.48956E-05-2.85756E-05-2.84259E-05-1.15974E-06 4.56507E-19-5.38258E-19
 -1      2795 9.46745E-05-2.85651E-05-2.83317E-05-9.93566E-07 7.31424E-19-7.53919E-19
 -1      2796 9.46026E-05-2.85342E-05-2.83153E-05-1.04920E-06 5.42343E-19-7.51841E-19
 -1      2797 9.49165E-05-2.86488E-05-2.84024E-05-1.11213E-06 7.82940E-19-6.21947E-19
 -1      2798 9.47613E-05-2.85936E-05-2.83568E-05-8.70594E-07 8.08169E-19-8.02589E-19
 -1      2799 9.46920E-05-2.85733E-05-2.83376E-05-9.33577E-07 9.99828E-19-4.25034E-19
 -1      2800 9.49500E-05-2.86858E-05-2.84002E-05-1.01184E-06 7.06066E-19-7.92985E-19
 -1      2801 9.48448E-05-2.86065E-05-2.83870E-05-7.44401E-07 8.40964E-19-7.31023E-19
 -1      2802 9.47810E-05-2.85945E-05-2.83670E-05-8.06375E-07 7.48699E-19-5.83260E-19
 -1      2803 9.49894E-05-2.86980E-05-2.84113E-05-8.88705E-07 8.00365E-19-6.85801E-19
 -1      2804 9.49223E-05-2.86082E-05-2.84195E-05-6.28236E-07 5.36666E-19-7.99296E-19
 -1      2805 9.48651E-05-2.86024E-05-2.83998E-05-6.83606E-07 8.90144E-19-5.14083E-19
 -1      2806 9.50305E-05-2.86933E-05-2.84306E-05-7.63085E-07 7.95627E-19 6.31039E-20
 -1      2807 9.49935E-05-2.86015E-05-2.84528E-05-5.31157E-07 9.49446E-20-4.81072E-19
 -1      2808 9.49423E-05-2.86005E-05-2.84337E-05-5.76075E-07 4.68512E-19-5.95613E-19
 -1      2809 9.50709E-05-2.86769E-05-2.84548E-05-6.48846E-07 5.94379E-19 3.33792E-19
 -1      2810 9.50596E-05-2.85883E-05-2.84866E-05-4.59734E-07 8.63419E-19-1.08140E-18
 -1      2811 9.50130E-05-2.85911E-05-2.84680E-05-4.91342E-07 3.12984E-19-5.75160E-19
 -1      2812 9.51100E-05-2.86519E-05-2.84822E-05-5.55646E-07 4.51047E-19 5.97241E-20
 -1      2813 9.51233E-05-2.85697E-05-2.85216E-05-4.19356E-07 1.35872E-19-2.82123E-19
 -1      2814 9.50790E-05-2.85755E-05-2.85028E-05-4.35193E-07 5.15508E-19-1.04400E-18
 -1      2815 9.51479E-05-2.86201E-05-2.85121E-05-4.90675E-07 4.57550E-19-3.50760E-19
 -1      2816 9.51879E-05-2.85461E-05-2.85591E-05-4.15271E-07-8.03387E-19-1.51048E-19
 -1      2817 9.51431E-05-2.85546E-05-2.85391E-05-4.12800E-07-2.46780E-20-3.18048E-20
 -1      2818 9.51859E-05-2.85821E-05-2.85448E-05-4.60006E-07-5.13995E-20 4.08581E-20
 -1      2819 9.52580E-05-2.85174E-05-2.86010E-05-4.53421E-07-1.06027E-18-4.61212E-19
 -1      2820 9.52093E-05-2.85283E-05-2.85787E-05-4.29644E-07-1.05147E-18-1.76363E-19
 -1      2821 9.52255E-05-2.85371E-05-2.85812E-05-4.69661E-07-7.98157E-19 8.47140E-20
 -1      2822 9.53388E-05-2.84828E-05-2.86498E-05-5.41156E-07-3.56894E-19-7.49313E-19
 -1      2823 9.52820E-05-2.84961E-05-2.86236E-05-4.92276E-07-8.54435E-19-6.82049E-19
 -1      2824 9.52690E-05-2.84839E-05-2.86228E-05-5.26469E-07-7.37954E-19-4.11603E-19
 -1      2825 9.54361E-05-2.84412E-05-2.87085E-05-6.87848E-07-2.09186E-19-4.16819E-19
 -1      2826 9.53666E-05-2.84569E-05-2.86767E-05-6.08971E-07 2.32691E-20-4.85355E-19
 -1      2827 9.53185E-05-2.84200E-05-2.86716E-05-6.38766E-07-4.14757E-19-1.03436E-18
 -1      2828 9.55566E-05-2.83907E-05-2.87808E-05-9.05440E-07 2.78072E-19-2.21954E-19
 -1      2829 9.54688E-05-2.84092E-05-2.87410E-05-7.90296E-07 1.30145E-19-2.92268E-19
 -1      2830 9.53763E-05-2.83423E-05-2.87299E-05-8.16995E-07 2.41190E-20-6.56673E-19
 -1      2831 9.57070E-05-2.83289E-05-2.88704E-05-1.20893E-06-2.17355E-20 3.89952E-19
 -1      2832 9.55949E-05-2.83508E-05-2.88204E-05-1.04962E-06 2.79933E-19 7.32326E-20
 -1      2833 9.54445E-05-2.82463E-05-2.88004E-05-1.07418E-06 5.77744E-20-5.12057E-19
 -1      2834 9.58944E-05-2.82529E-05-2.89818E-05-1.61671E-06-6.70801E-19-1.11560E-19
 -1      2835 9.57512E-05-2.82785E-05-2.89188E-05-1.40356E-06-7.11106E-20 5.63160E-19
 -1      2836 9.55239E-05-2.81268E-05-2.88857E-05-1.42629E-06-9.07729E-20 9.32823E-19
 -1      2837 9.61254E-05-2.81588E-05-2.91192E-05-2.15072E-06-1.48025E-18-1.62984E-18
 -1      2838 9.59437E-05-2.81887E-05-2.90404E-05-1.87218E-06-1.16103E-18-8.74596E-19
 -1      2839 9.56142E-05-2.79771E-05-2.89885E-05-1.89245E-06-6.15379E-19 8.62348E-19
 -1      2840 9.64054E-05-2.80432E-05-2.92866E-05-2.83606E-06-4.99058E-19-2.05563E-18
 -1      2841 9.61773E-05-2.80775E-05-2.91892E-05-2.47904E-06-1.24272E-18-2.12168E-18
 -1      2842 9.57125E-05-2.77896E-05-2.91107E-05-2.49476E-06-1.01999E-18-8.45612E-19
 -1      2843 9.67382E-05-2.79041E-05-2.94864E-05-3.69967E-06 9.41867E-19-1.81919E-18
 -1      2844 9.64557E-05-2.79413E-05-2.93681E-05-3.25043E-06 4.01451E-19-2.16133E-18
 -1      2845 9.58123E-05-2.75570E-05-2.92525E-05-3.25771E-06 2.58961E-20-2.11200E-18
 -1      2846 9.71264E-05-2.77457E-05-2.97182E-05-4.76709E-06 8.73303E-19-1.19651E-18
 -1      2847 9.67809E-05-2.77802E-05-2.95781E-05-4.21345E-06 9.17384E-19-1.56934E-18
 -1      2848 9.59041E-05-2.72746E-05-2.94118E-05-4.20654E-06 7.56216E-19-2.34836E-18
 -1      2849 9.75748E-05-2.75865E-05-2.99763E-05-6.05614E-06 1.64382E-19-1.17777E-18
 -1      2850 9.71554E-05-2.76038E-05-2.98159E-05-5.39189E-06 7.20227E-19-1.19614E-18
 -1      2851 9.59759E-05-2.69470E-05-2.95813E-05-5.36426E-06 6.81577E-19-1.23695E-18
 -1      2852 9.80995E-05-2.74774E-05-3.02460E-05-7.56505E-06 1.79118E-18-4.03167E-19
 -1      2853 9.75887E-05-2.74443E-05-3.00716E-05-6.79818E-06 6.25124E-19-8.29809E-19
 -1      2854 9.60199E-05-2.66008E-05-2.97468E-05-6.74637E-06 6.11454E-19-1.36782E-18
 -1      2855 9.87510E-05-2.75332E-05-3.05004E-05-9.25239E-06 1.70253E-18-6.22260E-19
 -1      2856 9.81140E-05-2.73806E-05-3.03246E-05-8.41925E-06 2.12265E-18-2.39991E-19
 -1      2857 9.60484E-05-2.63094E-05-2.98828E-05-8.35262E-06 1.52477E-18-9.80492E-19
 -1      2858 9.96600E-05-2.79847E-05-3.06972E-05-1.10044E-05-2.16965E-19-1.15446E-18
 -1      2859 9.88237E-05-2.75806E-05-3.05406E-05-1.01923E-05 1.05866E-18-7.62761E-19
 -1      2860 9.61280E-05-2.62352E-05-2.99503E-05-1.01546E-05 1.56271E-18-6.28625E-19
 -1      2861 1.01117E-04-2.92489E-05-3.07829E-05-1.25833E-05-3.16892E-19-2.50077E-18
 -1      2862 9.99357E-05-2.83652E-05-3.06719E-05-1.19645E-05-4.71453E-19-1.92746E-18
 -1      2863 9.64462E-05-2.66978E-05-2.98970E-05-1.20761E-05 1.29805E-19-1.87295E-18
 -1      2864 1.03679E-04-3.19810E-05-3.07156E-05-1.35444E-05 1.36644E-19-2.42031E-18
 -1      2865 1.01898E-04-3.02807E-05-3.06691E-05-1.34215E-05-2.04321E-19-2.71404E-18
 -1      2866 9.74238E-05-2.82602E-05-2.96684E-05-1.39552E-05-1.17195E-20-3.12006E-18
 -1      2867 1.08206E-04-3.69882E-05-3.05297E-05-1.31177E-05-9.75458E-19-1.78821E-18
 -1      2868 1.05500E-04-3.41094E-05-3.05232E-05-1.39661E-05-2.95833E-19-1.97110E-18
 -1      2869 9.98600E-05-3.17798E-05-2.92460E-05-1.54497E-05-4.47713E-19-2.46380E-18
 -1      2870 1.15635E-04-4.45602E-05-3.05002E-05-9.93334E-06-8.76481E-19-1.45282E-18
 -1      2871 1.11865E-04-4.06016E-05-3.03837E-05-1.24223E-05-1.17266E-18-1.73667E-18
 -1      2872 1.05125E-04-3.83363E-05-2.87532E-05-1.58446E-05-1.12420E-18-2.84458E-18
 -1      2873 1.26089E-04-5.31502E-05-3.13605E-05-2.32972E-06 4.31696E-19-5.37191E-19
 -1      2874 1.21737E-04-4.94827E-05-3.07700E-05-7.13561E-06 2.12628E-19-3.74925E-19
 -1      2875 1.14481E-04-4.77952E-05-2.87042E-05-1.33274E-05-8.55993E-19-2.58499E-18
 -1      2876 1.42501E-04-5.23621E-05-3.89916E-05 1.92113E-05 3.92785E-19 3.05726E-19
 -1      2877 1.38077E-04-3.54527E-05-4.45829E-05-1.44154E-05-4.51045E-20-2.50722E-18
 -1      2878 1.35171E-04-2.52062E-05-4.75793E-05-9.31395E-06 9.01667E-19-2.66201E-18
 -1      2879 1.31445E-04-5.46569E-05-3.28085E-05 4.26808E-06-1.99327E-18-4.48133E-20
 -1      2880 1.34083E-04-5.37609E-05-3.46194E-05-1.69990E-06-1.55141E-18-2.70362E-19
 -1      2881 1.20610E-04-4.90464E-05-3.05133E-05 1.57206E-05-2.59911E-18 2.97123E-21
 -1      2882 1.25273E-04-5.28717E-05-3.12003E-05 1.14350E-05-2.78172E-18-5.26381E-19
 -1      2883 1.30918E-04-5.80012E-05-3.14015E-05 1.36456E-05-2.44980E-18-3.78592E-18
 -1      2884 1.17805E-04-5.02026E-05-2.89656E-05 2.36068E-05-3.99374E-18-3.85492E-18
 -1      2885 8.06544E-05-2.22171E-05-2.46217E-05-3.11574E-05 1.27697E-18 4.20279E-18
 -1      2886 7.16386E-05-1.67754E-05-2.36179E-05-2.53889E-05-1.69592E-19 2.69637E-18
 -1      2887 1.01847E-04-3.29648E-05-2.95547E-05 2.76604E-06-1.78458E-19-2.27797E-18
 -1      2888 1.01352E-04-3.27268E-05-2.94026E-05 2.19663E-06-1.68384E-18-2.92702E-18
 -1      2889 1.05020E-04-3.44952E-05-3.01822E-05 2.31585E-06 9.69869E-21-4.10712E-18
 -1      2890 6.42419E-05-1.03442E-05-2.30955E-05 9.47190E-06-1.83757E-18 1.36288E-18
 -1      2891 6.94812E-05-1.34066E-05-2.36923E-05 1.85205E-05-1.98860E-18-7.99599E-19
 -1      2892 9.86560E-05-3.38361E-05-2.74777E-05-3.31699E-05 2.15533E-18 2.13553E-18
 -1      2893 9.05223E-05-2.88638E-05-2.64898E-05-3.31124E-05 1.72211E-18 1.95577E-18
 -1      2894 8.50384E-05-3.04222E-05-2.31272E-05-3.66893E-05 2.51066E-19 3.14715E-18
 -1      2895 6.41004E-05-1.11900E-05-2.23343E-05-1.44569E-05-1.27964E-18 7.90335E-19
 -1      2896 6.13097E-05-9.45156E-06-2.20320E-05-4.04619E-06-1.93949E-18 2.36740E-18
 -1      2897 6.29411E-05-1.68124E-05-1.94434E-05-2.34378E-05-7.65585E-19 2.64317E-18
 -1      2898 5.13484E-05-2.14209E-05-1.21947E-05-3.06569E-05 1.59825E-19 1.46473E-18
 -1      2899 6.47289E-05-3.20432E-05-1.35660E-05-4.31340E-05 1.51301E-19 6.11897E-18
 -1      2900 1.09298E-04-4.00357E-05-2.95855E-05-2.52684E-05 1.48758E-18-7.83790E-19
 -1      2901 1.05206E-04-3.75432E-05-2.89982E-05-2.89125E-05 1.77576E-18 1.55362E-18
 -1      2902 1.05379E-04-4.15926E-05-2.73123E-05-3.35393E-05 1.55843E-18 1.82068E-18
 -1      2903 1.11556E-04-4.04900E-05-3.04834E-05-1.49630E-05 3.02092E-18 3.57805E-19
 -1      2904 1.10990E-04-4.00284E-05-3.03362E-05-1.94765E-05 2.48338E-18 1.45157E-19
 -1      2905 1.14177E-04-4.46628E-05-2.98260E-05-2.25461E-05 1.60315E-18 4.87147E-19
 -1      2906 1.08996E-04-3.79953E-05-3.04632E-05-6.21449E-06 1.49825E-18-4.10454E-19
 -1      2907 1.10340E-04-3.86647E-05-3.06223E-05-9.97524E-06 3.02579E-18-2.62665E-19
 -1      2908 1.14638E-04-4.26303E-05-3.08182E-05-1.14834E-05 2.37860E-18-5.22229E-19
 -1      2909 3.40015E-05-1.67702E-05-6.73908E-06 6.15179E-06 2.76053E-19 2.07820E-18
 -1      2910 2.62585E-05-1.93902E-05-2.36155E-06-4.58210E-06 3.48713E-19 4.04543E-18
 -1      2911 3.83191E-05-2.01259E-05-7.25574E-06 2.63377E-05 1.77591E-18-5.50148E-19
 -1      2912 3.28682E-05-1.51763E-05-7.01129E-06 1.22809E-05 1.14453E-18-4.90009E-19
 -1      2913 3.68662E-05-1.67578E-05-8.04554E-06-1.47801E-05 4.02129E-19 3.02772E-18
 -1      2914 5.67323E-05-2.74732E-05-1.21243E-05 3.63529E-05-4.11446E-19-2.96610E-18
 -1      2915 4.68209E-05-2.00957E-05-1.08097E-05 2.55190E-05-8.07328E-19-8.58044E-19
 -1      2916 1.36380E-04-3.32451E-05-4.49365E-05-1.51779E-05-4.61633E-19 3.68433E-18
 -1      2917 1.40253E-04-4.34957E-05-4.14627E-05-1.12948E-05 1.86506E-19 4.21304E-18
 -1      2918 6.43250E-05-3.67895E-05-1.16185E-05 4.22933E-05 2.02568E-18-1.27055E-19
 -1      2919 4.88692E-05-2.75632E-05-8.61038E-06 3.50745E-05 2.40917E-18-2.52204E-19
 -1      2920 1.45524E-04-4.39863E-05-4.39954E-05-1.03777E-05-6.11240E-19-2.38090E-18
 -1      2921 1.49611E-04-5.56550E-05-4.03533E-05-2.93703E-06-1.22894E-18-3.30216E-18
 -1      2922 1.45711E-04-5.94725E-05-3.71248E-05 2.92433E-06-2.03381E-18-3.44764E-18
 -1      2923 1.36878E-04-4.23668E-05-4.08760E-05-1.20338E-05-9.23478E-19-2.50923E-18
 -1      2924 1.37359E-04-2.29339E-05-4.94022E-05 9.44412E-06-3.45462E-18-1.08653E-18
 -1      2925 1.31688E-04-1.36207E-05-5.13576E-05 6.12832E-06-4.02341E-18-6.47610E-19
 -1      2926 9.47261E-05-2.74144E-05-2.88506E-05 3.85099E-07 1.21872E-18-9.66059E-19
 -1      2927 9.49061E-05-2.71209E-05-2.90231E-05 9.90590E-07 1.40860E-18-9.30279E-19
 -1      2928 9.51308E-05-2.73821E-05-2.90448E-05 3.72160E-07 1.25345E-18-1.14992E-18
 -1      2929 9.44746E-05-2.83141E-05-2.83539E-05-1.09522E-06 5.59676E-19-7.72558E-19
 -1      2930 9.44446E-05-2.82243E-05-2.83738E-05-1.02690E-06 6.68784E-19-9.00401E-19
 -1      2931 9.49311E-05-2.82425E-05-2.85871E-05-9.04753E-07 5.21316E-19-9.52075E-19
 -1      2932 9.48967E-05-2.84491E-05-2.84820E-05-1.11136E-06 3.36215E-19-6.01306E-19
 -1      2933 9.52050E-05-2.39740E-05-3.05187E-05-5.30028E-06-2.06549E-18-9.08939E-19
 -1      2934 9.51584E-05-2.49970E-05-3.00877E-05-3.78946E-06-1.79930E-18-9.02080E-19
 -1      2935 9.52159E-05-2.47062E-05-3.02185E-05-3.53171E-06-1.80854E-18-1.38410E-18
 -1      2936 9.49830E-05-2.66915E-05-2.92732E-05 1.77956E-06 1.54213E-18-1.22849E-18
 -1      2937 9.52499E-05-2.61947E-05-2.95582E-05 2.78673E-06 1.63731E-18-1.14851E-18
 -1      2938 9.52724E-05-2.50228E-05-3.01048E-05 3.81853E-06 1.82118E-18-1.62915E-18
 -1      2939 9.52558E-05-2.65054E-05-2.94720E-05 1.73383E-06 1.42018E-18-1.34111E-18
 -1      2940 7.92599E-05-4.19575E-05-1.55868E-05-4.76865E-05 1.19919E-18 6.05353E-18
 -1      2941 9.70996E-05-5.19093E-05-1.91702E-05-4.82021E-05 1.08336E-18 4.97378E-18
 -1      2942 8.71487E-05-4.65517E-05-1.75392E-05 4.66090E-05-1.62461E-18 6.33263E-19
 -1      2943 6.97822E-05-3.60037E-05-1.39025E-05 4.25433E-05-8.31257E-19-2.52130E-18
 -1      2944 7.11425E-05-3.05459E-05-1.67171E-05 3.76280E-05-1.24355E-18-1.43657E-18
 -1      2945 9.11740E-05-1.60880E-05-3.22076E-05 4.91689E-06 1.22540E-18-3.07148E-18
 -1      2946 9.08307E-05-1.55889E-05-3.22682E-05 3.99474E-06 8.01880E-19-3.22075E-18
 -1      2947 9.18085E-05-1.72001E-05-3.19597E-05 3.19803E-06 5.80193E-19-3.05011E-18
 -1      2948 9.24780E-05-1.82604E-05-3.17877E-05 4.61515E-06 1.20972E-18-2.75402E-18
 -1      2949 1.46582E-04-4.62822E-05-4.29432E-05 2.60796E-06-1.77528E-18 1.82536E-19
 -1      2950 1.42739E-04-3.54506E-05-4.67768E-05 7.19097E-06-2.66265E-18-5.15208E-19
 -1      2951 5.35378E-05-2.85352E-05-1.01765E-05-2.89996E-05-4.05305E-19-1.56320E-18
 -1      2952 6.86765E-05-3.95741E-05-1.21662E-05-3.60196E-05-3.25896E-19-1.88592E-18
 -1      2953 9.98075E-05-5.40937E-05-1.96854E-05 4.01802E-05 1.63890E-18-2.00276E-18
 -1      2954 8.27251E-05-4.57702E-05-1.52692E-05 4.21185E-05 1.63551E-18-2.19625E-18
 -1      2955 1.28236E-04-6.26081E-05-2.85575E-05 2.30212E-05 4.71427E-19 1.06509E-18
 -1      2956 1.15833E-04-5.98549E-05-2.35945E-05 3.21350E-05 1.46071E-18 6.10737E-19
 -1      2957 1.26779E-04-1.40593E-05-4.90882E-05-1.24847E-05-9.97381E-19 7.42239E-19
 -1      2958 1.30553E-04-2.17918E-05-4.69703E-05-1.63345E-05-3.01544E-19 1.59978E-18
 -1      2959 3.30657E-05-1.47238E-05-7.29294E-06-3.94740E-06 1.50004E-18-8.41104E-19
 -1      2960 3.90642E-05-1.90673E-05-8.07227E-06-1.74274E-05 7.61324E-19-2.33739E-18
 -1      2961 9.07967E-05-1.55422E-05-3.22730E-05-3.92890E-06-1.45984E-18-2.95917E-18
 -1      2962 9.11293E-05-1.60262E-05-3.22139E-05-4.86089E-06-1.72725E-18-2.91978E-18
 -1      2963 8.64394E-05-4.89909E-05-1.55869E-05-3.49311E-05-1.22396E-19-7.94570E-19
 -1      2964 1.07434E-04-5.86050E-05-2.09517E-05-3.08740E-05-2.73062E-19-4.90803E-19
 -1      2965 8.57103E-05-4.35574E-05-1.75667E-05-3.15106E-05-1.26991E-18-2.68404E-19
 -1      2966 1.40388E-04-5.44026E-05-3.75889E-05-1.28960E-06-3.40441E-19 3.28792E-18
 -1      2967 1.37771E-04-6.04507E-05-3.28672E-05 9.60505E-06-7.91446E-20 2.01276E-18
 -1      2968 1.20130E-04-6.33215E-05-2.40242E-05-2.34785E-05-3.20284E-19-1.52332E-18
 -1      2969 1.31952E-04-6.55417E-05-2.86527E-05-1.43124E-05-5.39984E-20-1.75473E-18
 -1      2970 1.13343E-04-5.82743E-05-2.33823E-05-2.45868E-05-8.62280E-19-1.51802E-18
 -1      2971 9.28482E-05-1.80069E-05-3.20746E-05-8.80787E-06-2.53565E-18-1.61509E-18
 -1      2972 1.42578E-04-6.33634E-05-3.36617E-05-2.14229E-05-3.22296E-19 3.25165E-18
 -1      2973 1.46674E-04-5.79424E-05-3.87315E-05-9.80070E-06-7.97071E-19 2.15633E-18
 -1      2974 1.02917E-04-3.36917E-05-2.96708E-05 6.68467E-07-1.28041E-18-3.00324E-18
 -1      2975 1.26810E-04-6.57194E-05-2.62077E-05 3.61300E-05-3.36801E-18 5.43557E-19
 -1      2976 1.08626E-04-5.76304E-05-2.13451E-05 4.16781E-05-2.58864E-18 9.08972E-20
 -1      2977 1.43449E-04-5.80982E-05-3.69231E-05 1.07773E-05 5.17617E-19-2.74121E-19
 -1      2978 1.36272E-04-5.57547E-05-3.46385E-05 1.10174E-05-5.10404E-20 5.36172E-19
 -1      2979 1.33767E-04-5.64154E-05-3.30864E-05 4.63080E-06 1.00135E-19-1.73165E-19
 -1      2980 1.40301E-04-6.51771E-05-3.21036E-05-2.81246E-06 4.31563E-19-2.07311E-19
 -1      2981 1.34567E-04-3.00230E-05-4.51628E-05 9.35404E-06-2.69452E-18-1.97920E-18
 -1      2982 9.12839E-05-1.63929E-05-3.20850E-05 3.15152E-08-3.56260E-19-3.09219E-18
 -1      2983 9.01617E-05-1.46019E-05-3.24023E-05-3.83334E-07-4.76401E-19-3.28346E-18
 -1      2984 9.02174E-05-1.46801E-05-3.23923E-05-1.34253E-06-7.81401E-19-3.19064E-18
 -1      2985 7.79456E-05-3.62913E-05-1.75792E-05-4.34496E-05 4.15999E-19 5.33133E-18
 -1      2986 1.32575E-04-1.75188E-05-5.02956E-05-4.56899E-06 1.13862E-18-3.88968E-18
 -1      2987 1.20356E-04-1.27991E-05-4.64333E-05-9.77170E-06-9.47406E-19-1.51823E-18
 -1      2988 9.15638E-05-1.66852E-05-3.21133E-05-5.57526E-06-1.91219E-18-2.72724E-18
 -1      2989 9.20409E-05-1.74372E-05-3.20199E-05-6.44517E-06-2.17395E-18-2.51353E-18
 -1      2990 9.24123E-05-1.81930E-05-3.17986E-05-4.55903E-06-1.63906E-18-2.58853E-18
 -1      2991 9.43559E-05-2.14234E-05-3.12608E-05 7.21539E-06 2.23873E-18-1.85243E-18
 -1      2992 1.33701E-04-6.52518E-05-2.93419E-05 2.53291E-05-3.12809E-18-2.76535E-18
 -1      2993 6.94312E-05-1.82434E-05-2.14917E-05 2.41799E-05-2.10668E-18-1.61243E-18
 -1      2994 7.51919E-05-1.83483E-05-2.46383E-05 2.58870E-05-2.29576E-18-2.94169E-18
 -1      2995 1.28771E-04-5.76006E-05-3.06236E-05-4.35008E-06-7.54984E-20-1.95135E-19
 -1      2996 5.71049E-05-1.14590E-05-1.91221E-05 3.16848E-06-1.79375E-18 1.41973E-18
 -1      2997 1.40850E-04-5.62949E-05-3.64808E-05-1.14020E-06-2.16109E-18-1.83086E-18
 -1      2998 1.37853E-04-5.02889E-05-3.78498E-05-9.25366E-06-1.66717E-18-1.22460E-18
 -1      2999 1.42920E-04-5.25309E-05-3.89539E-05-2.83995E-06-4.21372E-19-3.86247E-19
 -1      3000 1.03437E-04-5.11536E-05-2.18837E-05 4.00950E-05-2.74417E-18 2.90268E-19
 -1      3001 9.94886E-05-3.44854E-05-2.80622E-05 2.95528E-05-3.18285E-18-3.57616E-18
 -1      3002 4.22087E-05-1.58186E-05-1.05968E-05 1.57014E-05-6.55021E-19 1.56701E-20
 -1      3003 4.06792E-05-1.31533E-05-1.12473E-05 2.32906E-06-6.12177E-19 2.76217E-18
 -1      3004 1.04864E-04-3.49039E-05-2.99806E-05-1.88903E-06 2.12539E-19-2.46072E-18
 -1      3005 4.28061E-05-1.42790E-05-1.18559E-05 1.17590E-05 1.04072E-18-6.07217E-19
 -1      3006 3.67680E-05-1.39083E-05-9.12240E-06 4.18184E-06 1.00289E-18-9.20090E-19
 -1      3007 4.26585E-05-1.37494E-05-1.20447E-05-2.46826E-06 5.90683E-19-9.66676E-19
 -1      3008 4.06911E-05-1.42636E-05-1.07458E-05-1.06531E-05-1.82377E-20 3.77290E-18
 -1      3009 4.35725E-05-1.61332E-05-1.10836E-05-2.01376E-05-3.18961E-19 2.25925E-18
 -1      3010 5.41952E-05-1.91558E-05-1.46913E-05-2.68208E-05 3.44213E-19 2.00164E-18
 -1      3011 4.66592E-05-1.26074E-05-1.40661E-05-2.09435E-06-9.74846E-19 3.16367E-18
 -1      3012 1.36673E-04-4.90856E-05-3.76834E-05-7.46721E-06-3.32540E-19 3.14620E-18
 -1      3013 1.09436E-04-5.67930E-05-2.21441E-05-4.47142E-05 1.11565E-18 3.48129E-18
 -1      3014 1.18797E-04-5.96358E-05-2.56842E-05-3.89689E-05 7.97587E-19 3.39855E-18
 -1      3015 1.04006E-04-5.10691E-05-2.21298E-05-4.44940E-05 6.07640E-19 3.95136E-18
 -1      3016 5.06292E-05-2.34572E-05-1.10444E-05 2.92435E-05 1.87904E-18-6.93508E-20
 -1      3017 1.30837E-04-6.03355E-05-3.01395E-05 1.37905E-05 1.39866E-19 1.53350E-18
 -1      3018 7.82665E-05-4.02811E-05-1.57778E-05 3.93135E-05 1.59782E-18-1.96475E-18
 -1      3019 1.28511E-04-2.83127E-05-4.32235E-05-1.63439E-05 1.92965E-19 1.45367E-18
 -1      3020 9.03441E-05-1.48734E-05-3.23647E-05-2.17569E-06-1.01170E-18-3.01345E-18
 -1      3021 9.05283E-05-1.51358E-05-3.23325E-05-3.13060E-06-1.31801E-18-2.90239E-18
 -1      3022 9.17622E-05-1.71579E-05-3.19660E-05-3.13053E-06-1.29909E-18-2.71422E-18
 -1      3023 9.13932E-05-1.65732E-05-3.20569E-05-1.57369E-06-8.83501E-19-2.89124E-18
 -1      3024 8.47498E-05-2.37472E-05-2.56877E-05 3.05408E-05-2.35221E-18-3.22111E-18
 -1      3025 1.08984E-04-5.55292E-05-2.26090E-05 3.26277E-05 1.35494E-18-4.23265E-19
 -1      3026 1.36126E-04-6.34761E-05-3.09644E-05-2.64645E-05 9.89864E-19 3.94347E-18
 -1      3027 5.14232E-05-2.34464E-05-1.13822E-05-2.31336E-05-4.09276E-19-1.07510E-18
 -1      3028 6.44611E-05-2.82868E-05-1.54356E-05-2.72952E-05-1.20554E-18-1.19950E-18
 -1      3029 5.14645E-05-1.90257E-05-1.34842E-05-1.73271E-05-2.82115E-19-9.15960E-19
 -1      3030 1.23464E-04-1.31105E-05-4.77533E-05 3.73989E-06-2.72745E-18-3.94109E-18
 -1      3031 9.46182E-05-2.24677E-05-3.09135E-05 5.69240E-06 1.98016E-18-2.00870E-18
 -1      3032 9.28624E-05-1.86350E-05-3.18085E-05-7.05791E-06-2.19578E-18-2.10854E-18
 -1      3033 9.42438E-05-2.09666E-05-3.14422E-05-7.72621E-06-2.43433E-18-1.23136E-18
 -1      3034 9.47486E-05-2.27754E-05-3.08502E-05-6.03952E-06-2.18058E-18-1.03809E-18
 -1      3035 9.35106E-05-2.00315E-05-3.14731E-05-5.74073E-06-2.02278E-18-2.13718E-18
 -1      3036 1.31504E-04-6.24905E-05-2.95645E-05-8.21780E-06-1.88465E-19-1.95704E-19
 -1      3037 9.45876E-05-2.24130E-05-3.09120E-05-5.47018E-06-2.04296E-18-1.40520E-18
 -1      3038 5.36666E-05-1.72050E-05-1.49485E-05 2.06813E-05-9.83961E-19-6.33157E-19
 -1      3039 1.07122E-04-3.61632E-05-3.03948E-05 3.32608E-07-9.44690E-20-4.50164E-18
 -1      3040 1.07870E-04-3.67640E-05-3.04363E-05-3.14679E-06 7.68626E-19-1.23260E-18
 -1      3041 1.11493E-04-3.94264E-05-3.09098E-05-3.73997E-06 1.58330E-18-1.20599E-18
 -1      3042 1.08019E-04-3.64976E-05-3.06906E-05 1.31667E-06 6.09834E-19-4.30781E-18
 -1      3043 9.42830E-05-2.18768E-05-3.10595E-05 4.95663E-06 1.58067E-18-2.27651E-18
 -1      3044 9.38051E-05-2.09044E-05-3.12448E-05 4.61747E-06 1.37622E-18-2.40635E-18
 -1      3045 9.60131E-05-3.57221E-05-2.55885E-05 3.26122E-05-2.93095E-18-3.33945E-18
 -1      3046 9.55111E-05-2.55706E-05-2.99552E-05-2.14951E-06-1.52300E-18-1.63510E-18
 -1      3047 9.55309E-05-2.62625E-05-2.96993E-05-1.33358E-06-1.44709E-18-1.60679E-18
 -1      3048 5.93322E-05-1.71469E-05-1.78506E-05 2.34068E-05-1.31041E-18-1.23572E-18
 -1      3049 6.87860E-05-2.27858E-05-1.90304E-05 3.03998E-05-1.48485E-18-2.41129E-18
 -1      3050 9.56814E-05-2.68789E-05-2.94716E-05-7.41152E-07-1.39088E-18-1.45723E-18
 -1      3051 9.56558E-05-2.73279E-05-2.92916E-05-2.17147E-07-1.18681E-18-1.62206E-18
 -1      3052 9.56986E-05-2.61901E-05-2.97892E-05-1.16717E-06-1.31732E-18-1.64913E-18
 -1      3053 9.56996E-05-2.77137E-05-2.91256E-05 1.62169E-07-1.19750E-18-1.41846E-18
 -1      3054 9.56625E-05-2.80003E-05-2.90027E-05 4.76779E-07-1.30051E-18-1.56043E-18
 -1      3055 9.58960E-05-2.73310E-05-2.93879E-05-1.62405E-07-1.11280E-18-1.32130E-18
 -1      3056 9.56547E-05-2.82388E-05-2.88846E-05 6.98052E-07-1.03080E-18-1.44054E-18
 -1      3057 9.56223E-05-2.84198E-05-2.88033E-05 8.65498E-07-8.99727E-19-1.17416E-18
 -1      3058 9.59366E-05-2.80558E-05-2.90954E-05 4.71787E-07-1.09872E-18-1.06906E-18
 -1      3059 9.55903E-05-2.85616E-05-2.87214E-05 9.74065E-07-7.82308E-19-1.16489E-18
 -1      3060 9.55671E-05-2.86721E-05-2.86700E-05 1.04273E-06-5.74104E-19-8.98963E-19
 -1      3061 9.59028E-05-2.85073E-05-2.88872E-05 8.28534E-07-7.58251E-19-1.06177E-18
 -1      3062 9.55257E-05-2.87498E-05-2.86151E-05 1.07560E-06-2.72297E-19-7.37577E-19
 -1      3063 9.55112E-05-2.88128E-05-2.85848E-05 1.08118E-06-9.25793E-20-4.58268E-19
 -1      3064 9.58348E-05-2.87746E-05-2.87431E-05 9.90804E-07-2.46478E-19-8.41394E-19
 -1      3065 9.54679E-05-2.88480E-05-2.85497E-05 1.06647E-06-2.70992E-19-3.28445E-19
 -1      3066 9.54602E-05-2.88787E-05-2.85341E-05 1.03465E-06-9.07666E-20-3.03377E-19
 -1      3067 9.57546E-05-2.89178E-05-2.86468E-05 1.02462E-06-8.19938E-20-6.62786E-19
 -1      3068 9.54190E-05-2.88860E-05-2.85135E-05 9.92971E-07-7.17669E-20-2.39113E-19
 -1      3069 9.54161E-05-2.88949E-05-2.85079E-05 9.41892E-07-8.41444E-20-5.14895E-19
 -1      3070 9.56737E-05-2.89779E-05-2.85859E-05 9.79765E-07-1.39817E-19-6.32543E-19
 -1      3071 9.53787E-05-2.88843E-05-2.84977E-05 8.87943E-07-8.21602E-20-5.19018E-19
 -1      3072 9.53790E-05-2.88786E-05-2.84989E-05 8.30246E-07-4.22169E-20-6.47575E-19
 -1      3073 9.55977E-05-2.89830E-05-2.85507E-05 8.92517E-07-1.10370E-20-4.08879E-19
 -1      3074 9.53460E-05-2.88564E-05-2.84960E-05 7.74297E-07-8.07535E-20-6.42746E-19
 -1      3075 9.53483E-05-2.88409E-05-2.85019E-05 7.18694E-07-3.55642E-20-5.51850E-19
 -1      3076 9.55292E-05-2.89522E-05-2.85342E-05 7.88673E-07 1.20286E-19-5.57255E-19
 -1      3077 9.53196E-05-2.88114E-05-2.85043E-05 6.67875E-07-6.83595E-20-7.56225E-19
 -1      3078 9.53233E-05-2.87891E-05-2.85133E-05 6.20416E-07-9.11738E-20-9.14894E-19
 -1      3079 9.54687E-05-2.88981E-05-2.85312E-05 6.86285E-07-1.59114E-19-1.37039E-18
 -1      3080 9.52980E-05-2.87546E-05-2.85196E-05 5.79766E-07-1.34895E-19-1.15079E-18
 -1      3081 9.53026E-05-2.87272E-05-2.85309E-05 5.44805E-07-5.86840E-19-1.18683E-18
 -1      3082 9.54155E-05-2.88285E-05-2.85380E-05 5.98033E-07-3.37295E-19-1.69667E-18
 -1      3083 9.52800E-05-2.86887E-05-2.85402E-05 5.18089E-07-1.11676E-18-6.39210E-19
 -1      3084 9.52853E-05-2.86571E-05-2.85534E-05 4.99004E-07-1.08500E-18-8.74860E-19
 -1      3085 9.53682E-05-2.87476E-05-2.85522E-05 5.33121E-07-5.21884E-19-1.29981E-18
 -1      3086 9.52641E-05-2.86147E-05-2.85653E-05 4.89318E-07-9.43551E-19-3.52269E-19
 -1      3087 9.52702E-05-2.85789E-05-2.85804E-05 4.89032E-07-8.17791E-19 1.73576E-21
 -1      3088 9.53245E-05-2.86568E-05-2.85723E-05 4.98712E-07-7.84723E-19-8.35041E-19
 -1      3089 9.52491E-05-2.85319E-05-2.85944E-05 4.99250E-07-6.92898E-19 1.24436E-19
 -1      3090 9.52564E-05-2.84918E-05-2.86116E-05 5.20600E-07-3.63423E-19 2.01708E-19
 -1      3091 9.52822E-05-2.85557E-05-2.85973E-05 5.00992E-07-4.69723E-19-6.04593E-19
 -1      3092 9.52341E-05-2.84394E-05-2.86278E-05 5.53686E-07-3.57044E-19 1.58924E-19
 -1      3093 9.52430E-05-2.83945E-05-2.86473E-05 5.99635E-07-7.02665E-19-3.60755E-19
 -1      3094 9.52386E-05-2.84430E-05-2.86269E-05 5.45951E-07-5.76837E-19-4.30933E-19
 -1      3095 9.52182E-05-2.83358E-05-2.86657E-05 6.58814E-07-9.20299E-19 5.31108E-20
 -1      3096 9.52298E-05-2.82860E-05-2.86878E-05 7.32488E-07-2.58062E-19-2.61901E-19
 -1      3097 9.51913E-05-2.83166E-05-2.86606E-05 6.39882E-07-6.77642E-19-3.57048E-19
 -1      3098 9.52016E-05-2.82205E-05-2.87082E-05 8.21256E-07 1.35243E-19-6.82309E-19
 -1      3099 9.52174E-05-2.81667E-05-2.87333E-05 9.25814E-07 4.44703E-19-1.36036E-18
 -1      3100 9.51380E-05-2.81753E-05-2.86983E-05 7.89580E-07-4.05060E-19-1.97533E-19
 -1      3101 9.51856E-05-2.80950E-05-2.87554E-05 1.04778E-06 5.78672E-19-1.63171E-18
 -1      3102 9.52078E-05-2.80391E-05-2.87835E-05 1.18605E-06 2.83626E-19-1.25400E-18
 -1      3103 9.50778E-05-2.80192E-05-2.87393E-05 1.00222E-06 3.54912E-19-5.30237E-19
 -1      3104 9.51736E-05-2.79638E-05-2.88067E-05 1.34459E-06-4.95813E-21-6.20405E-19
 -1      3105 9.52060E-05-2.79102E-05-2.88375E-05 1.51840E-06 1.13695E-19 2.26057E-19
 -1      3106 9.50113E-05-2.78518E-05-2.87826E-05 1.28490E-06 6.81640E-19-9.06953E-19
 -1      3107 9.51727E-05-2.78367E-05-2.88609E-05 1.71602E-06-5.06080E-20 3.39462E-19
 -1      3108 9.52210E-05-2.77932E-05-2.88936E-05 1.92526E-06 3.73437E-20 3.56298E-19
 -1      3109 9.49430E-05-2.76818E-05-2.88263E-05 1.64373E-06 6.51297E-20-5.38271E-19
 -1      3110 9.51954E-05-2.77317E-05-2.89155E-05 2.16265E-06-8.74922E-20 1.45243E-21
 -1      3111 9.52686E-05-2.77112E-05-2.89488E-05 2.40377E-06-7.91535E-20 4.16469E-19
 -1      3112 9.48827E-05-2.75262E-05-2.88675E-05 2.08236E-06-3.64723E-19-6.48923E-20
 -1      3113 9.52631E-05-2.76779E-05-2.89671E-05 2.67842E-06-1.39831E-19 2.81024E-19
 -1      3114 9.53749E-05-2.77000E-05-2.89989E-05 2.94253E-06-1.81652E-19 5.85885E-19
 -1      3115 9.48493E-05-2.74137E-05-2.89020E-05 2.59989E-06-1.65170E-19-1.00295E-18
 -1      3116 9.54100E-05-2.77202E-05-2.90107E-05 3.24676E-06 7.85471E-20 6.53641E-19
 -1      3117 9.55804E-05-2.78132E-05-2.90384E-05 3.51706E-06-2.78998E-19 2.63554E-19
 -1      3118 9.48749E-05-2.73894E-05-2.89246E-05 3.18779E-06-1.11056E-20-1.13802E-19
 -1      3119 9.56882E-05-2.79227E-05-2.90409E-05 3.83529E-06-6.08826E-19 6.35177E-19
 -1      3120 9.59455E-05-2.81250E-05-2.90616E-05 4.08389E-06-3.58617E-19 8.63324E-19
 -1      3121 9.50112E-05-2.75195E-05-2.89294E-05 3.82562E-06-3.43235E-19 7.81294E-19
 -1      3122 9.61732E-05-2.83717E-05-2.90525E-05 4.38874E-06-7.36474E-19 8.03868E-19
 -1      3123 9.65555E-05-2.87313E-05-2.90642E-05 4.57275E-06-6.71420E-20 8.95061E-19
 -1      3124 9.53359E-05-2.78952E-05-2.89110E-05 4.47503E-06-6.21259E-19 1.96764E-18
 -1      3125 9.69682E-05-2.91739E-05-2.90436E-05 4.81946E-06-1.70017E-19 5.69584E-19
 -1      3126 9.75219E-05-2.97436E-05-2.90465E-05 4.87673E-06-1.72608E-19 2.80335E-19
 -1      3127 9.59598E-05-2.86337E-05-2.88672E-05 5.07075E-06-4.62187E-19 1.33789E-18
 -1      3128 9.82024E-05-3.04445E-05-2.90197E-05 4.99505E-06 5.10788E-20 1.15732E-20
 -1      3129 9.89744E-05-3.12684E-05-2.90195E-05 4.84015E-06 1.30016E-19 1.22223E-19
 -1      3130 9.70303E-05-2.98701E-05-2.88035E-05 5.50728E-06-3.86269E-19 9.73275E-19
 -1      3131 1.00015E-04-3.22745E-05-2.90011E-05 4.72299E-06 6.80269E-20-3.24981E-19
 -1      3132 1.01033E-04-3.33587E-05-2.90131E-05 4.24626E-06-5.50041E-19-6.44915E-19
 -1      3133 9.87239E-05-3.17324E-05-2.87404E-05 5.61863E-06-1.50361E-19-1.36658E-19
 -1      3134 1.02504E-04-3.46611E-05-2.90335E-05 3.73975E-06-8.95242E-19-4.46591E-19
 -1      3135 1.03739E-04-3.59201E-05-2.90868E-05 2.81700E-06-8.21788E-19-1.85633E-19
 -1      3136 1.01212E-04-3.42779E-05-2.87252E-05 5.15162E-06-3.37539E-19-6.50163E-19
 -1      3137 1.05631E-04-3.73849E-05-2.91980E-05 1.73034E-06-5.15611E-19 4.14537E-19
 -1      3138 1.06941E-04-3.85719E-05-2.93382E-05 2.62494E-07-3.50917E-19 3.83137E-19
 -1      3139 1.04569E-04-3.73706E-05-2.88452E-05 3.75433E-06-1.00899E-19-2.04901E-19
 -1      3140 1.09067E-04-3.98550E-05-2.96153E-05-1.59054E-06-8.30039E-19 5.32416E-19
 -1      3141 1.10128E-04-4.04791E-05-2.99007E-05-3.59314E-06-1.01411E-18 4.09705E-19
 -1      3142 1.08630E-04-4.05161E-05-2.92368E-05 1.00993E-06-6.72837E-19 2.34152E-19
 -1      3143 1.12002E-04-4.09443E-05-3.04336E-05-6.21918E-06-1.22742E-18 6.58480E-19
 -1      3144 1.12333E-04-4.03009E-05-3.09151E-05-8.46553E-06-7.16184E-19-2.16490E-19
 -1      3145 1.12744E-04-4.26120E-05-3.00828E-05-3.36641E-06-1.19486E-18 1.38129E-18
 -1      3146 1.13094E-04-3.90776E-05-3.17631E-05-1.13137E-05 2.56620E-19-3.11675E-19
 -1      3147 1.12356E-04-3.66754E-05-3.24286E-05-1.29978E-05 6.13275E-19-1.99744E-19
 -1      3148 1.15539E-04-4.18646E-05-3.15696E-05-9.08051E-06-4.46745E-19 7.26251E-19
 -1      3149 1.11418E-04-3.35436E-05-3.35138E-05-1.47154E-05 4.69978E-19 1.31398E-20
 -1      3150 1.09724E-04-2.96735E-05-3.42595E-05-1.48504E-05-1.15455E-19-6.55908E-19
 -1      3151 1.15366E-04-3.65970E-05-3.37207E-05-1.43153E-05 5.49777E-19-1.21472E-18
 -1      3152 1.07511E-04-2.54674E-05-3.53234E-05-1.39627E-05-1.55856E-19 2.39591E-19
 -1      3153 1.05728E-04-2.18462E-05-3.58968E-05-1.18220E-05 2.89169E-19 8.59221E-19
 -1      3154 1.12325E-04-2.80732E-05-3.60991E-05-1.55272E-05 1.39066E-19-4.99200E-19
 -1      3155 1.03969E-04-1.91717E-05-3.64995E-05-7.70566E-06-4.17561E-20 4.84124E-19
 -1      3156 1.03429E-04-1.81482E-05-3.66297E-05-4.13431E-06-1.69804E-19 4.38402E-19
 -1      3157 1.07906E-04-1.93171E-05-3.79901E-05-1.08083E-05 4.46373E-19 1.49264E-18
 -1      3158 1.04012E-04-1.89667E-05-3.64499E-05 7.64534E-07-1.38519E-18-1.07236E-19
 -1      3159 1.04950E-04-2.11674E-05-3.60723E-05 3.84321E-06-1.90231E-18-3.60872E-19
 -1      3160 1.06874E-04-1.68589E-05-3.85589E-05-1.32024E-06-9.85536E-19 7.28134E-19
 -1      3161 1.06969E-04-2.45759E-05-3.52533E-05 6.65869E-06-2.29341E-18-1.02746E-18
 -1      3162 1.08555E-04-2.83006E-05-3.45524E-05 7.89988E-06-2.18924E-18-2.06435E-18
 -1      3163 1.09529E-04-2.21858E-05-3.74555E-05 6.28693E-06-2.53673E-18-1.16560E-18
 -1      3164 1.10075E-04-3.18058E-05-3.34801E-05 7.25794E-06-1.81396E-18-2.43572E-18
 -1      3165 1.10845E-04-3.46235E-05-3.27470E-05 6.64323E-06-1.29847E-18-3.14943E-18
 -1      3166 1.13706E-04-3.17057E-05-3.51554E-05 7.96594E-06-2.11901E-18-8.70565E-19
 -1      3167 1.10212E-04-3.59216E-05-3.18781E-05 4.62110E-06-9.72797E-19-4.00577E-18
 -1      3168 1.09671E-04-3.67155E-05-3.13019E-05 3.09353E-06 9.26773E-20-3.88734E-18
 -1      3169 1.11930E-04-3.83419E-05-3.15055E-05 1.20325E-06-3.03741E-20-3.42193E-18
 -1      3170 1.14209E-04-3.72912E-05-3.30862E-05 5.09781E-06-1.33966E-18-2.96980E-18
 -1      3171 9.53712E-05-2.79584E-05-2.88952E-05-4.75048E-07 6.80028E-19-1.12560E-18
 -1      3172 9.54259E-05-2.77005E-05-2.90122E-05-1.44804E-07 9.74648E-19-1.10960E-18
 -1      3173 9.52238E-05-2.87761E-05-2.84768E-05-1.07353E-06 5.64159E-19-7.84930E-19
 -1      3174 9.52115E-05-2.87413E-05-2.84857E-05-1.10719E-06 7.81785E-19-6.28079E-19
 -1      3175 9.52427E-05-2.87061E-05-2.85153E-05-1.12134E-06 5.41731E-19-7.40083E-19
 -1      3176 9.52395E-05-2.86432E-05-2.85380E-05-1.11634E-06 3.11229E-19-7.29656E-19
 -1      3177 9.55242E-05-2.88215E-05-2.85895E-05-1.08398E-06 6.73248E-19-8.48613E-19
 -1      3178 9.52112E-05-2.87996E-05-2.84609E-05-8.58885E-07 5.91266E-19-3.82962E-19
 -1      3179 9.51919E-05-2.87975E-05-2.84550E-05-9.19638E-07 7.06253E-19-7.51158E-19
 -1      3180 9.52128E-05-2.87776E-05-2.84710E-05-7.40160E-07 4.26252E-19 3.57760E-19
 -1      3181 9.51930E-05-2.87846E-05-2.84614E-05-7.99191E-07 5.17506E-19-9.86263E-20
 -1      3182 9.53856E-05-2.88839E-05-2.85018E-05-8.33052E-07 3.16720E-19-5.02535E-19
 -1      3183 9.52176E-05-2.87426E-05-2.84880E-05-6.33924E-07 5.95805E-19 2.47318E-19
 -1      3184 9.51981E-05-2.87561E-05-2.84761E-05-6.85151E-07 6.90285E-19 3.21081E-19
 -1      3185 9.53540E-05-2.88452E-05-2.85046E-05-7.21596E-07 5.03013E-19-1.94994E-19
 -1      3186 9.52248E-05-2.86983E-05-2.85100E-05-5.49792E-07 6.02195E-19 6.38977E-20
 -1      3187 9.52059E-05-2.87166E-05-2.84965E-05-5.88843E-07 6.81191E-19 1.72004E-19
 -1      3188 9.53283E-05-2.87923E-05-2.85161E-05-6.23752E-07 6.27887E-19-5.62480E-20
 -1      3189 9.52340E-05-2.86463E-05-2.85361E-05-4.95097E-07 6.11740E-20 2.12170E-19
 -1      3190 9.52152E-05-2.86687E-05-2.85211E-05-5.18543E-07 3.47325E-19 1.47159E-19
 -1      3191 9.53072E-05-2.87288E-05-2.85341E-05-5.49182E-07 5.10490E-19 2.52195E-19
 -1      3192 9.52450E-05-2.85864E-05-2.85663E-05-4.76192E-07-1.94028E-19 1.86159E-19
 -1      3193 9.52258E-05-2.86130E-05-2.85496E-05-4.80924E-07-4.36216E-20 1.81137E-20
 -1      3194 9.52894E-05-2.86561E-05-2.85575E-05-5.05408E-07 4.82286E-20 3.20195E-19
 -1      3195 9.52578E-05-2.85174E-05-2.86012E-05-4.99468E-07-1.01114E-18 2.71757E-19
 -1      3196 9.52372E-05-2.85486E-05-2.85822E-05-4.82224E-07-3.25025E-19 4.39931E-19
 -1      3197 9.52729E-05-2.85732E-05-2.85859E-05-4.99095E-07-5.33924E-19 5.49135E-19
 -1      3198 9.52723E-05-2.84364E-05-2.86417E-05-5.72155E-07-4.47479E-19-3.12438E-19
 -1      3199 9.52491E-05-2.84734E-05-2.86197E-05-5.29131E-07-6.88925E-19 3.94571E-20
 -1      3200 9.52559E-05-2.84776E-05-2.86195E-05-5.36996E-07-3.65712E-19 1.59977E-19
 -1      3201 9.52879E-05-2.83394E-05-2.86895E-05-7.02969E-07-5.71844E-19-8.26498E-19
 -1      3202 9.52611E-05-2.83840E-05-2.86634E-05-6.29499E-07-6.73595E-19-8.09250E-19
 -1      3203 9.52354E-05-2.83650E-05-2.86590E-05-6.26700E-07-2.46794E-19-4.69919E-19
 -1      3204 9.53034E-05-2.82215E-05-2.87461E-05-9.02605E-07-1.34900E-19-4.19105E-19
 -1      3205 9.52721E-05-2.82758E-05-2.87149E-05-7.92917E-07-1.31843E-19-3.61832E-19
 -1      3206 9.52078E-05-2.82297E-05-2.87050E-05-7.77194E-07-6.11670E-19 1.56745E-19
 -1      3207 9.53164E-05-2.80759E-05-2.88133E-05-1.18409E-06-2.75082E-19 1.20744E-19
 -1      3208 9.52798E-05-2.81427E-05-2.87758E-05-1.03112E-06-2.26089E-19-2.16099E-19
 -1      3209 9.51679E-05-2.80643E-05-2.87586E-05-9.99241E-07-2.56390E-19 2.30579E-19
 -1      3210 9.53224E-05-2.78948E-05-2.88927E-05-1.56295E-06-5.17040E-19 7.88633E-19
 -1      3211 9.52804E-05-2.79773E-05-2.88477E-05-1.35825E-06-3.36469E-19 2.71253E-19
 -1      3212 9.51082E-05-2.78598E-05-2.88203E-05-1.30556E-06-6.70010E-19 3.60714E-19
 -1      3213 9.53141E-05-2.76685E-05-2.89852E-05-2.05718E-06-3.26225E-19 2.24160E-19
 -1      3214 9.52677E-05-2.77708E-05-2.89317E-05-1.79095E-06-1.48188E-19 7.52230E-19
 -1      3215 9.50180E-05-2.76052E-05-2.88901E-05-1.71079E-06-2.41232E-19 8.62101E-20
 -1      3216 9.52798E-05-2.73867E-05-2.90903E-05-2.68679E-06-3.48497E-19-1.46243E-18
 -1      3217 9.52316E-05-2.75128E-05-2.90282E-05-2.34814E-06-7.99434E-20-7.81740E-20
 -1      3218 9.48822E-05-2.72879E-05-2.89670E-05-2.23120E-06 3.08040E-19-3.00753E-19
 -1      3219 9.52029E-05-2.70389E-05-2.92054E-05-3.47296E-06 2.39565E-19-2.24795E-18
 -1      3220 9.51571E-05-2.71923E-05-2.91354E-05-3.05050E-06-2.90614E-19-1.95415E-18
 -1      3221 9.46802E-05-2.68945E-05-2.90476E-05-2.88405E-06 3.79035E-19-1.44397E-18
 -1      3222 9.50613E-05-2.66187E-05-2.93237E-05-4.43636E-06 4.40358E-19-1.85287E-18
 -1      3223 9.50241E-05-2.68002E-05-2.92486E-05-3.91937E-06 5.10412E-19-2.20658E-18
 -1      3224 9.43841E-05-2.64125E-05-2.91252E-05-3.68665E-06 1.42228E-19-1.81806E-18
 -1      3225 9.48298E-05-2.61308E-05-2.94326E-05-5.59479E-06 6.24207E-19-1.26382E-18
 -1      3226 9.48074E-05-2.63338E-05-2.93583E-05-4.97511E-06 8.56386E-19-1.24225E-18
 -1      3227 9.39595E-05-2.58347E-05-2.91882E-05-4.65525E-06 6.34630E-19-1.47694E-18
 -1      3228 9.44883E-05-2.56059E-05-2.95101E-05-6.96008E-06 9.88628E-19-1.76921E-18
 -1      3229 9.44816E-05-2.58080E-05-2.94469E-05-6.23497E-06 7.04149E-19-1.81087E-18
 -1      3230 9.33682E-05-2.51690E-05-2.92166E-05-5.80450E-06 1.02794E-18-1.63171E-18
 -1      3231 9.40413E-05-2.51282E-05-2.95212E-05-8.53509E-06 9.82006E-19-1.39395E-18
 -1      3232 9.40339E-05-2.52755E-05-2.94863E-05-7.71106E-06 8.47771E-19-1.57597E-18
 -1      3233 9.25773E-05-2.44558E-05-2.91795E-05-7.14881E-06 8.48765E-19-2.34839E-18
 -1      3234 9.35587E-05-2.48821E-05-2.94156E-05-1.03123E-05 1.13601E-18-1.19732E-18
 -1      3235 9.34918E-05-2.48623E-05-2.94334E-05-9.40982E-06 1.76468E-18-1.39419E-18
 -1      3236 9.15805E-05-2.37985E-05-2.90309E-05-8.70872E-06 1.00298E-18-2.78603E-18
 -1      3237 9.32539E-05-2.52263E-05-2.91283E-05-1.22744E-05 7.36548E-19-2.52975E-18
 -1      3238 9.29802E-05-2.48272E-05-2.92289E-05-1.13344E-05 6.58889E-19-1.07069E-18
 -1      3239 9.04416E-05-2.34156E-05-2.87070E-05-1.05268E-05 1.29635E-18-2.00536E-18
 -1      3240 9.36154E-05-2.67928E-05-2.85927E-05-1.43854E-05-2.13222E-19-2.55359E-18
 -1      3241 9.28242E-05-2.56506E-05-2.88021E-05-1.34862E-05 4.26752E-19-2.49809E-18
 -1      3242 8.93751E-05-2.37207E-05-2.81270E-05-1.26959E-05 8.40512E-19-1.11918E-18
 -1      3243 9.55711E-05-3.05782E-05-2.77784E-05-1.65340E-05-4.99571E-19-2.42845E-18
 -1      3244 9.37258E-05-2.81472E-05-2.80913E-05-1.58387E-05-3.59686E-19-1.94899E-18
 -1      3245 8.88887E-05-2.54342E-05-2.72044E-05-1.53851E-05-5.96090E-19-1.57840E-18
 -1      3246 1.00403E-04-3.78826E-05-2.67732E-05-1.83717E-05-1.30904E-18-2.15025E-18
 -1      3247 9.69502E-05-3.34316E-05-2.71119E-05-1.81318E-05-8.34473E-19-1.97993E-18
 -1      3248 9.01310E-05-2.97429E-05-2.58887E-05-1.88292E-05-1.10629E-18-1.28884E-18
 -1      3249 1.17394E-04-4.41001E-05-3.15528E-05-6.78219E-06 1.07153E-18-1.33146E-18
 -1      3250 1.19388E-04-4.58900E-05-3.14195E-05-1.11216E-05 1.78749E-18-8.29716E-19
 -1      3251 1.21241E-04-4.94597E-05-3.08201E-05-1.76078E-05 2.64229E-18-4.44064E-20
 -1      3252 1.19760E-04-4.96248E-05-3.00161E-05-2.34628E-05 2.17349E-18 8.75501E-19
 -1      3253 1.24377E-04-5.00936E-05-3.17551E-05-1.16208E-05 1.90297E-18-5.56779E-19
 -1      3254 1.41583E-04-6.33216E-05-3.34389E-05 1.03077E-05-2.22333E-18-3.96242E-18
 -1      3255 9.49227E-05-2.34718E-05-3.06176E-05-4.11595E-06-1.86817E-18-1.71631E-18
 -1      3256 9.51524E-05-2.45919E-05-3.02592E-05-2.95975E-06-1.68954E-18-1.73931E-18
 -1      3257 9.52477E-05-2.45068E-05-3.03263E-05-2.62402E-06-1.56033E-18-1.90260E-18
 -1      3258 1.04287E-04-4.58503E-05-2.48141E-05-3.96614E-05 8.68844E-19 1.39379E-18
 -1      3259 9.12532E-05-3.92312E-05-2.20437E-05-4.02552E-05-4.26799E-19 4.23839E-18
 -1      3260 1.13930E-04-5.00206E-05-2.72043E-05-3.38786E-05 8.54669E-19 1.64851E-18
 -1      3261 9.23675E-05-1.83392E-05-3.17416E-05 1.81094E-06 1.52280E-19-2.95263E-18
 -1      3262 9.22475E-05-1.81363E-05-3.17735E-05 1.05800E-06-1.24098E-19-3.01377E-18
 -1      3263 7.95537E-05-3.66516E-05-1.78602E-05-2.96114E-05-1.35658E-18-5.27596E-19
 -1      3264 9.43589E-05-4.57545E-05-2.07467E-05-2.89862E-05-1.02237E-18 4.43686E-19
 -1      3265 1.23124E-04-5.79397E-05-2.76563E-05-1.41008E-05-1.04132E-18-1.28942E-18
 -1      3266 9.54128E-05-2.73485E-05-2.91775E-05 2.71159E-07 1.04839E-18-1.30606E-18
 -1      3267 9.54750E-05-2.69407E-05-2.93564E-05 8.30917E-07 1.14738E-18-1.32988E-18
 -1      3268 9.56910E-05-2.73367E-05-2.93000E-05 2.22634E-07 9.24102E-19-1.25123E-18
 -1      3269 1.39718E-04-5.59396E-05-3.56827E-05-6.24752E-06 5.43703E-19-5.66453E-21
 -1      3270 1.36820E-04-4.67595E-05-3.92050E-05 3.31728E-06-1.27500E-18-1.77697E-18
 -1      3271 1.30514E-04-5.81485E-05-3.15692E-05 6.48159E-06-4.40854E-19 1.79566E-18
 -1      3272 1.24782E-04-5.86444E-05-2.79594E-05 1.69244E-05 2.31531E-19 5.23956E-19
 -1      3273 6.08900E-05-2.66462E-05-1.44566E-05 3.21544E-05 9.54236E-19-7.48459E-19
 -1      3274 5.13735E-05-1.93980E-05-1.33389E-05 2.35280E-05 1.00326E-18-6.29875E-19
 -1      3275 9.52142E-05-2.88024E-05-2.84611E-05-9.76560E-07 6.30450E-19-7.96757E-19
 -1      3276 9.51970E-05-2.87870E-05-2.84610E-05-1.03021E-06 4.86377E-19-8.41844E-19
 -1      3277 9.54704E-05-2.88862E-05-2.85381E-05-1.03759E-06 5.57426E-19-7.93352E-19
 -1      3278 9.54242E-05-2.89013E-05-2.85113E-05-9.44767E-07 6.36999E-19-7.29239E-19
 -1      3279 1.31154E-04-4.38233E-05-3.79832E-05-1.24492E-05-9.90896E-19 3.82221E-18
 -1      3280 1.33785E-04-5.21627E-05-3.47067E-05-5.12786E-06-1.23386E-18 3.05980E-18
 -1      3281 7.96319E-05-3.19670E-05-2.05340E-05 3.81781E-05-1.80460E-18-2.11282E-18
 -1      3282 8.75034E-05-4.28065E-05-1.92653E-05 3.60085E-05 8.50262E-19-2.25110E-18
 -1      3283 7.28449E-05-3.38355E-05-1.62624E-05 3.51531E-05 8.88802E-19-1.24471E-18
 -1      3284 7.26713E-05-2.99672E-05-1.79357E-05 2.99470E-05-9.14266E-20-1.48583E-18
 -1      3285 1.11818E-04-1.29185E-05-4.28554E-05-4.39413E-06-1.04021E-18-1.31339E-18
 -1      3286 1.12876E-04-1.60296E-05-4.16825E-05-1.10086E-05 2.38969E-19-1.19015E-20
 -1      3287 1.20787E-04-2.42962E-05-4.17055E-05-1.67493E-05 1.28532E-18-5.64071E-19
 -1      3288 1.27204E-04-3.37164E-05-4.00654E-05-1.71900E-05 7.49148E-19 1.18913E-18
 -1      3289 1.30631E-04-6.23025E-05-2.89151E-05-2.97908E-05 1.96205E-18 2.91475E-18
 -1      3290 1.36972E-04-6.15257E-05-3.27589E-05-1.92739E-05 1.16433E-18 2.71913E-18
 -1      3291 1.24511E-04-5.85319E-05-2.79910E-05-3.17674E-05 1.18759E-18 3.20358E-18
 -1      3292 1.20819E-04-1.67818E-05-4.48846E-05 7.63053E-06-3.50481E-18-3.41418E-18
 -1      3293 1.16073E-04-1.18414E-05-4.50382E-05 1.45069E-06-2.74756E-18-3.10316E-18
 -1      3294 1.31676E-04-3.51896E-05-4.12836E-05 9.88201E-06-2.54994E-18-3.01147E-18
 -1      3295 1.24894E-04-2.50013E-05-4.33700E-05 9.63332E-06-3.00586E-18-2.95914E-18
 -1      3296 9.40543E-05-2.13149E-05-3.11979E-05-5.27400E-06-1.92741E-18-2.04169E-18
 -1      3297 9.45068E-05-2.24321E-05-3.08887E-05-4.61873E-06-1.91087E-18-1.84110E-18
 -1      3298 9.34364E-05-2.00859E-05-3.14269E-05-4.87929E-06-1.88433E-18-2.38209E-18
 -1      3299 9.52052E-05-2.42711E-05-3.04031E-05 4.26900E-06 1.73078E-18-1.78474E-18
 -1      3300 9.46370E-05-2.27168E-05-3.08068E-05 4.78470E-06 1.70257E-18-2.01867E-18
 -1      3301 9.49627E-05-2.35981E-05-3.05659E-05 3.69512E-06 1.39304E-18-1.97295E-18
 -1      3302 9.52408E-05-2.52034E-05-3.00297E-05 2.98667E-06 1.53237E-18-1.68016E-18
 -1      3303 1.13961E-04-5.63398E-05-2.50185E-05 2.65684E-05 7.85544E-19 2.91221E-19
 -1      3304 1.01882E-04-5.00552E-05-2.17679E-05 3.23412E-05 1.13505E-18-1.41592E-18
 -1      3305 1.00500E-04-4.32050E-05-2.40842E-05 3.60871E-05-3.21841E-18-2.08526E-18
 -1      3306 1.31057E-04-6.17862E-05-2.96864E-05 2.14090E-05-2.52744E-18-2.90148E-18
 -1      3307 1.14758E-04-5.50363E-05-2.55949E-05-1.98514E-05-1.34437E-18-1.67472E-18
 -1      3308 1.14307E-04-5.10675E-05-2.71257E-05-1.63329E-05-1.01943E-18-1.28131E-18
 -1      3309 1.08242E-04-4.45696E-05-2.69888E-05-1.79740E-05-1.51107E-18-2.32887E-18
 -1      3310 1.04515E-04-4.95905E-05-2.30813E-05-2.48883E-05-1.39353E-18-9.77714E-19
 -1      3311 1.23490E-04-5.82443E-05-2.78658E-05 2.75050E-05-2.95694E-18-3.24289E-18
 -1      3312 9.21860E-05-1.80341E-05-3.17920E-05 4.07303E-07-2.37933E-19-2.97525E-18
 -1      3313 9.21826E-05-1.80216E-05-3.17925E-05-3.54028E-07-4.72626E-19-2.89726E-18
 -1      3314 9.31404E-05-1.96209E-05-3.14909E-05 6.26740E-07-2.23132E-19-2.75838E-18
 -1      3315 9.84524E-05-3.97738E-05-2.51498E-05-2.09216E-05-1.35272E-18-8.61459E-19
 -1      3316 9.26722E-05-1.87827E-05-3.16686E-05-3.73785E-06-1.39740E-18-2.63714E-18
 -1      3317 9.30116E-05-1.94185E-05-3.15618E-05-4.35015E-06-1.69014E-18-2.50058E-18
 -1      3318 9.36559E-05-2.05997E-05-3.13031E-05-4.00801E-06-1.62581E-18-2.40954E-18
 -1      3319 9.58282E-05-4.44080E-05-2.17742E-05 3.03985E-05 1.62048E-19-1.40062E-18
 -1      3320 1.29777E-04-4.10066E-05-3.81411E-05 6.00149E-06-1.86519E-18-1.79335E-18
 -1      3321 1.25362E-04-3.88106E-05-3.71464E-05-1.46464E-05 4.30107E-19 1.32868E-18
 -1      3322 5.53620E-05-1.26585E-05-1.76460E-05 1.37544E-05-1.46477E-18-7.39036E-19
 -1      3323 1.28944E-04-5.32167E-05-3.23907E-05-5.86895E-07-1.54985E-18 1.24498E-18
 -1      3324 9.55839E-05-2.86820E-05-2.86756E-05-1.04497E-06 1.55185E-19-9.19984E-19
 -1      3325 9.52736E-05-2.85710E-05-2.85873E-05-1.07930E-06 2.14602E-20-8.15006E-19
 -1      3326 9.52848E-05-2.84669E-05-2.86306E-05-1.00886E-06 1.18165E-19-1.07421E-18
 -1      3327 9.80971E-05-4.38539E-05-2.32053E-05-2.47445E-05-9.07252E-19-7.45654E-19
 -1      3328 7.47472E-05-3.13182E-05-1.84383E-05-2.59225E-05-1.58792E-18-7.64977E-19
 -1      3329 9.44754E-05-2.23404E-05-3.09030E-05-4.01813E-06-1.70405E-18-2.04782E-18
 -1      3330 9.43328E-05-2.19748E-05-3.09885E-05 3.62803E-06 1.18033E-18-2.24492E-18
 -1      3331 9.34285E-05-2.02102E-05-3.14039E-05 4.24254E-06 1.17080E-18-2.57696E-18
 -1      3332 9.30691E-05-1.95490E-05-3.15175E-05 3.65131E-06 9.24091E-19-2.63309E-18
 -1      3333 9.53179E-05-2.83384E-05-2.87073E-05-8.90151E-07 2.25130E-19-9.87650E-19
 -1      3334 9.53493E-05-2.81732E-05-2.87809E-05-7.16363E-07 4.38082E-19-1.03170E-18
 -1      3335 9.56438E-05-2.84303E-05-2.88100E-05-8.66365E-07 1.60341E-19-1.10624E-18
 -1      3336 6.88920E-05-2.36091E-05-1.84879E-05-3.53445E-05-6.81650E-19 4.61956E-18
 -1      3337 5.74764E-05-1.74969E-05-1.67745E-05-2.40670E-05-2.09641E-19 2.46084E-18
 -1      3338 9.56901E-05-2.80105E-05-2.90104E-05-4.75083E-07 5.79456E-19-1.02177E-18
 -1      3339 9.25423E-05-1.86342E-05-3.16858E-05 2.42122E-06 3.49595E-19-2.81157E-18
 -1      3340 9.33543E-05-2.00099E-05-3.14148E-05 1.80082E-06 1.88231E-19-2.70253E-18
 -1      3341 9.27810E-05-1.90493E-05-3.16184E-05 3.12262E-06 7.13417E-19-2.69423E-18
 -1      3342 1.14257E-04-4.04711E-05-3.16426E-05-6.04110E-07 2.44978E-19-1.96026E-18
 -1      3343 1.15920E-04-4.18997E-05-3.16435E-05-3.63696E-06 8.59035E-19-1.32680E-18
 -1      3344 1.20645E-04-4.47384E-05-3.24551E-05-3.02186E-06-2.46831E-21-1.89955E-18
 -1      3345 1.15931E-04-4.03413E-05-3.23602E-05 1.41722E-06-6.42726E-19-2.14410E-18
 -1      3346 1.17785E-04-5.49926E-05-2.67792E-05 1.88846E-05-9.68265E-20 1.52856E-19
 -1      3347 5.07340E-05-1.65777E-05-1.41699E-05 1.74927E-05 1.06855E-18-4.66768E-19
 -1      3348 5.13676E-05-1.44487E-05-1.56631E-05 1.02742E-05 6.68640E-19-5.57189E-19
 -1      3349 5.94323E-05-1.95636E-05-1.70361E-05 2.05684E-05 6.40013E-19-1.73213E-18
 -1      3350 1.16400E-04-5.33893E-05-2.70418E-05 3.22908E-05-3.69973E-18-2.85568E-18
 -1      3351 8.03311E-05-3.38584E-05-1.97741E-05-4.15895E-05-5.28496E-19 6.67716E-18
 -1      3352 1.34827E-04-5.64876E-05-3.36168E-05-1.19181E-05 7.18443E-19 3.86353E-19
 -1      3353 5.01485E-05-1.15166E-05-1.63276E-05-5.09381E-07-1.83870E-18 2.57953E-18
 -1      3354 9.23832E-05-1.83233E-05-3.17539E-05-3.10724E-06-1.26371E-18-2.68922E-18
 -1      3355 9.30316E-05-1.94611E-05-3.15266E-05-2.95940E-06-1.23664E-18-2.55064E-18
 -1      3356 9.21611E-05-1.79409E-05-3.18165E-05-2.38396E-06-1.06853E-18-2.55695E-18
 -1      3357 9.53824E-05-2.64929E-05-2.95314E-05 1.36684E-06 1.28776E-18-1.51907E-18
 -1      3358 9.54330E-05-2.58866E-05-2.97910E-05 2.24151E-06 1.35122E-18-1.62903E-18
 -1      3359 9.53554E-05-2.52317E-05-3.00701E-05 2.59569E-06 1.42517E-18-1.75567E-18
 -1      3360 9.55801E-05-2.63993E-05-2.96532E-05 1.23545E-06 1.06030E-18-1.75343E-18
 -1      3361 4.88526E-05-1.52009E-05-1.37853E-05-1.06760E-05-3.38548E-20 1.53736E-19
 -1      3362 5.74713E-05-1.88969E-05-1.64128E-05-1.60574E-05-1.20792E-18 9.53441E-20
 -1      3363 4.97610E-05-1.40029E-05-1.50767E-05-3.42024E-06 4.85615E-19 2.14617E-19
 -1      3364 1.18586E-04-2.25073E-05-4.12768E-05 8.37543E-06-2.93582E-18-3.14482E-18
 -1      3365 5.11229E-05-1.22059E-05-1.58358E-05-1.33098E-05-6.98233E-19 1.91091E-18
 -1      3366 7.88593E-05-3.18175E-05-2.02683E-05 2.82452E-05-6.07058E-19-1.98979E-18
 -1      3367 6.99128E-05-2.50512E-05-1.88255E-05 2.50614E-05-7.22625E-20-1.79412E-18
 -1      3368 9.60330E-05-2.69130E-05-2.96139E-05-4.45495E-07-8.56062E-19-1.42310E-18
 -1      3369 9.60827E-05-2.74079E-05-2.94397E-05-3.30506E-08-8.09577E-19-1.18729E-18
 -1      3370 9.61657E-05-2.78294E-05-2.92794E-05 2.45421E-07-9.62779E-19-8.76103E-19
 -1      3371 9.61613E-05-2.81488E-05-2.91528E-05 4.97005E-07-1.01700E-18-9.25080E-19
 -1      3372 9.62689E-05-2.74605E-05-2.94896E-05 1.48710E-08-7.10163E-19-1.17764E-18
 -1      3373 9.61705E-05-2.84123E-05-2.90335E-05 6.57559E-07-9.67836E-19-8.57445E-19
 -1      3374 9.61407E-05-2.86107E-05-2.89438E-05 7.91789E-07-5.74742E-19-7.70806E-19
 -1      3375 9.63609E-05-2.82219E-05-2.92039E-05 4.73588E-07-8.81772E-19-8.69395E-19
 -1      3376 9.61080E-05-2.87654E-05-2.88571E-05 8.67172E-07-2.94185E-19-8.30167E-19
 -1      3377 9.60678E-05-2.88806E-05-2.87953E-05 9.20767E-07-1.39877E-19-1.03503E-18
 -1      3378 9.63391E-05-2.86954E-05-2.89922E-05 7.28525E-07-5.69487E-19-6.18669E-19
 -1      3379 9.60132E-05-2.89610E-05-2.87340E-05 9.38480E-07-6.79989E-21-1.25374E-18
 -1      3380 9.59706E-05-2.90193E-05-2.86932E-05 9.40048E-07-1.11299E-19-1.07865E-18
 -1      3381 9.62542E-05-2.89681E-05-2.88391E-05 8.38379E-07-1.93048E-19-1.25048E-18
 -1      3382 9.59067E-05-2.90498E-05-2.86514E-05 9.21791E-07-5.75051E-20-1.08355E-18
 -1      3383 9.58657E-05-2.90698E-05-2.86260E-05 8.92681E-07 9.68121E-20-1.01411E-18
 -1      3384 9.61382E-05-2.91029E-05-2.87316E-05 8.52064E-07 4.73776E-20-1.66109E-18
 -1      3385 9.58002E-05-2.90674E-05-2.85990E-05 8.54714E-07-5.85263E-20-9.63647E-19
 -1      3386 9.57628E-05-2.90619E-05-2.85849E-05 8.10364E-07 7.50380E-20-9.52713E-19
 -1      3387 9.60111E-05-2.91444E-05-2.86591E-05 8.07656E-07-4.79441E-20-1.33404E-18
 -1      3388 9.56999E-05-2.90383E-05-2.85691E-05 7.64424E-07 4.59473E-22-1.31979E-18
 -1      3389 9.56668E-05-2.90160E-05-2.85633E-05 7.15755E-07-6.19270E-20-1.47553E-18
 -1      3390 9.58847E-05-2.91244E-05-2.86132E-05 7.33389E-07-1.27247E-19-1.68812E-18
 -1      3391 9.56085E-05-2.89790E-05-2.85557E-05 6.70111E-07-6.34292E-20-1.63459E-18
 -1      3392 9.55794E-05-2.89457E-05-2.85559E-05 6.24796E-07-1.13271E-19-1.82381E-18
 -1      3393 9.57652E-05-2.90644E-05-2.85874E-05 6.49533E-07-1.63495E-19-2.05598E-18
 -1      3394 9.55260E-05-2.88998E-05-2.85546E-05 5.85306E-07-1.40874E-19-1.77035E-18
 -1      3395 9.55005E-05-2.88588E-05-2.85593E-05 5.48829E-07-2.02695E-19-1.61417E-18
 -1      3396 9.56549E-05-2.89783E-05-2.85768E-05 5.70467E-07 1.47790E-19-2.09289E-18
 -1      3397 9.54511E-05-2.88064E-05-2.85628E-05 5.19788E-07-2.67631E-19-1.46654E-18
 -1      3398 9.54281E-05-2.87593E-05-2.85709E-05 4.96262E-07-3.48595E-19-1.11844E-18
 -1      3399 9.55533E-05-2.88741E-05-2.85776E-05 5.06592E-07-1.60052E-19-1.59185E-18
 -1      3400 9.53810E-05-2.87013E-05-2.85780E-05 4.81045E-07-6.27132E-19-9.58430E-19
 -1      3401 9.53593E-05-2.86484E-05-2.85889E-05 4.73813E-07-8.23037E-19-8.63179E-19
 -1      3402 9.54577E-05-2.87556E-05-2.85872E-05 4.65779E-07-2.92930E-19-1.56022E-18
 -1      3403 9.53123E-05-2.85842E-05-2.85990E-05 4.75351E-07-6.49198E-19-7.58201E-19
 -1      3404 9.52907E-05-2.85251E-05-2.86123E-05 4.87449E-07-2.72754E-19-7.58642E-19
 -1      3405 9.53645E-05-2.86234E-05-2.86036E-05 4.54464E-07-6.50940E-19-9.83222E-19
 -1      3406 9.52411E-05-2.84535E-05-2.86247E-05 5.08642E-07-3.12500E-19-5.96296E-19
 -1      3407 9.52182E-05-2.83872E-05-2.86402E-05 5.43133E-07-3.92090E-19-6.78784E-19
 -1      3408 9.52685E-05-2.84759E-05-2.86254E-05 4.78542E-07-1.55501E-19-9.57736E-19
 -1      3409 9.51629E-05-2.83066E-05-2.86545E-05 5.87129E-07-6.35337E-19-6.36050E-19
 -1      3410 9.51375E-05-2.82320E-05-2.86720E-05 6.47272E-07-4.94145E-19-3.17347E-19
 -1      3411 9.51644E-05-2.83101E-05-2.86515E-05 5.44083E-07-2.49569E-19-2.28707E-19
 -1      3412 9.50737E-05-2.81410E-05-2.86877E-05 7.17614E-07-4.48028E-19-1.88344E-19
 -1      3413 9.50449E-05-2.80575E-05-2.87068E-05 8.06903E-07-1.21114E-19-2.20599E-19
 -1      3414 9.50460E-05-2.81229E-05-2.86808E-05 6.57752E-07-3.01743E-19 2.01827E-19
 -1      3415 9.49699E-05-2.79554E-05-2.87232E-05 9.07584E-07 5.00464E-20-3.00077E-19
 -1      3416 9.49375E-05-2.78638E-05-2.87435E-05 1.02963E-06 4.15202E-19-7.87742E-19
 -1      3417 9.49080E-05-2.79120E-05-2.87117E-05 8.27037E-07-2.04382E-19 1.54314E-19
 -1      3418 9.48497E-05-2.77515E-05-2.87594E-05 1.16504E-06 7.14433E-19-4.47664E-19
 -1      3419 9.48148E-05-2.76546E-05-2.87802E-05 1.32328E-06 5.75222E-19-9.69285E-20
 -1      3420 9.47458E-05-2.76776E-05-2.87424E-05 1.06030E-06 4.89587E-19 3.87180E-19
 -1      3421 9.47142E-05-2.75358E-05-2.87942E-05 1.49800E-06 2.13004E-19-7.30548E-19
 -1      3422 9.46801E-05-2.74397E-05-2.88141E-05 1.69517E-06-2.06489E-19-6.79152E-19
 -1      3423 9.45578E-05-2.74243E-05-2.87702E-05 1.36661E-06 3.62409E-19-1.06708E-19
 -1      3424 9.45699E-05-2.73224E-05-2.88241E-05 1.91365E-06-4.40881E-19-1.67873E-19
 -1      3425 9.45437E-05-2.72386E-05-2.88413E-05 2.15104E-06-3.61314E-19 1.41767E-19
 -1      3426 9.43468E-05-2.71643E-05-2.87912E-05 1.75535E-06-1.36099E-19-6.39239E-19
 -1      3427 9.44321E-05-2.71371E-05-2.88445E-05 2.41700E-06-4.31128E-19-1.18010E-19
 -1      3428 9.44262E-05-2.70842E-05-2.88564E-05 2.69330E-06-3.34114E-19-4.54912E-19
 -1      3429 9.41238E-05-2.69206E-05-2.88004E-05 2.23549E-06-5.32406E-19-1.55183E-19
 -1      3430 9.43292E-05-2.70216E-05-2.88496E-05 3.00890E-06-9.33905E-20-7.35490E-19
 -1      3431 9.43645E-05-2.70281E-05-2.88531E-05 3.31866E-06 1.65613E-19-5.01142E-19
 -1      3432 9.39122E-05-2.67323E-05-2.87912E-05 2.81450E-06-4.25161E-19-1.81046E-19
 -1      3433 9.43097E-05-2.70393E-05-2.88324E-05 3.68311E-06-2.42035E-19-6.12869E-19
 -1      3434 9.44185E-05-2.71460E-05-2.88245E-05 4.01455E-06-2.12423E-19 2.33527E-19
 -1      3435 9.37541E-05-2.66598E-05-2.87562E-05 3.49664E-06 6.23476E-20-8.43690E-19
 -1      3436 9.44496E-05-2.72805E-05-2.87866E-05 4.42182E-06-5.24173E-20 2.72613E-19
 -1      3437 9.46795E-05-2.75431E-05-2.87649E-05 4.75364E-06 3.57786E-20 4.84846E-19
 -1      3438 9.37190E-05-2.67913E-05-2.86878E-05 4.27996E-06 2.73851E-19-7.35053E-19
 -1      3439 9.48624E-05-2.78668E-05-2.87080E-05 5.18836E-06-1.78511E-19 3.76475E-19
 -1      3440 9.52796E-05-2.83553E-05-2.86727E-05 5.48480E-06-1.71633E-19 5.96628E-19
 -1      3441 9.39138E-05-2.72487E-05-2.85804E-05 5.15095E-06 1.00337E-21-5.02161E-19
 -1      3442 9.57080E-05-2.89497E-05-2.85992E-05 5.91479E-06-6.63505E-19 3.35161E-19
 -1      3443 9.63968E-05-2.97432E-05-2.85559E-05 6.11789E-06-5.92015E-19 2.63362E-19
 -1      3444 9.44950E-05-2.81902E-05-2.84338E-05 6.07408E-06-4.17712E-19-3.79513E-20
 -1      3445 9.71964E-05-3.06980E-05-2.84766E-05 6.48045E-06-1.11167E-18-2.44784E-19
 -1      3446 9.82515E-05-3.18685E-05-2.84409E-05 6.49792E-06-9.38764E-19-1.04581E-18
 -1      3447 9.56788E-05-2.98053E-05-2.82603E-05 6.97191E-06-1.32383E-18-8.64761E-19
 -1      3448 9.95775E-05-3.32604E-05-2.83820E-05 6.67287E-06 6.43518E-20-9.60457E-19
 -1      3449 1.01074E-04-3.48314E-05-2.83869E-05 6.36305E-06 2.19516E-19-6.67510E-19
 -1      3450 9.77464E-05-3.22918E-05-2.80958E-05 7.68741E-06-4.73006E-19-1.08554E-18
 -1      3451 1.03075E-04-3.66617E-05-2.84028E-05 6.12489E-06 1.21679E-19-2.98609E-19
 -1      3452 1.05008E-04-3.85156E-05-2.85065E-05 5.28967E-06-3.17422E-20 7.71487E-20
 -1      3453 1.01022E-04-3.57797E-05-2.80209E-05 7.89729E-06 3.36014E-19-1.06487E-18
 -1      3454 1.07712E-04-4.06035E-05-2.86873E-05 4.34460E-06-1.31542E-19 6.65985E-19
 -1      3455 1.09910E-04-4.23950E-05-2.89748E-05 2.77711E-06-4.24100E-19 1.16649E-18
 -1      3456 1.05680E-04-4.00963E-05-2.81890E-05 7.03389E-06 1.59227E-19 2.82373E-19
 -1      3457 1.13152E-04-4.41932E-05-2.94580E-05 6.40972E-07-8.38523E-19 1.91094E-18
 -1      3458 1.15058E-04-4.51381E-05-3.00379E-05-1.70826E-06-1.13063E-18 1.88171E-18
 -1      3459 1.11753E-04-4.47808E-05-2.88374E-05 4.40693E-06-4.49116E-19 1.48944E-18
 -1      3460 1.18202E-04-4.56251E-05-3.10099E-05-5.30771E-06-1.58211E-18 1.97475E-18
 -1      3461 1.18937E-04-4.44521E-05-3.19683E-05-8.08086E-06-9.62557E-19 1.20652E-18
 -1      3462 1.18282E-04-4.80103E-05-3.03237E-05-7.52966E-07-1.49503E-18 2.08418E-18
 -1      3463 1.16942E-04-3.17613E-05-3.68404E-05-1.65968E-05 1.12858E-18-1.11666E-18
 -1      3464 1.14550E-04-2.59914E-05-3.80160E-05-1.55408E-05 7.74135E-19-5.88357E-20
 -1      3465 1.09597E-04-1.53766E-05-4.05696E-05-1.40751E-06-1.79269E-18-2.26092E-19
 -1      3466 1.10377E-04-1.70426E-05-4.03948E-05 3.96649E-06-2.97534E-18-1.40128E-18
 -1      3467 1.14549E-04-2.31427E-05-3.93251E-05 7.18040E-06-2.72978E-18-2.19714E-18
 -1      3468 1.16773E-04-2.82725E-05-3.80762E-05 9.36731E-06-2.11389E-18-2.34090E-18
 -1      3469 1.18425E-04-3.34491E-05-3.67335E-05 8.56350E-06-2.01211E-18-2.32406E-18
 -1      3470 9.54869E-05-2.89046E-05-2.85339E-05-6.70482E-07 3.01809E-19 1.04583E-19
 -1      3471 9.55019E-05-2.89297E-05-2.85312E-05-7.20784E-07 1.43162E-19-3.01226E-19
 -1      3472 9.55488E-05-2.89599E-05-2.85368E-05-7.71377E-07 2.17602E-19-2.96118E-19
 -1      3473 9.55672E-05-2.89746E-05-2.85396E-05-8.24623E-07 4.38300E-19-2.93787E-19
 -1      3474 9.56703E-05-2.90199E-05-2.85658E-05-7.15916E-07 1.60326E-19-1.30005E-19
 -1      3475 9.53846E-05-2.87513E-05-2.85556E-05-5.21822E-07 2.04555E-19 2.62134E-19
 -1      3476 9.53945E-05-2.87895E-05-2.85458E-05-5.50216E-07 2.18413E-19 1.59595E-19
 -1      3477 9.53402E-05-2.86578E-05-2.85766E-05-4.90262E-07-1.90600E-19 5.90900E-19
 -1      3478 9.53490E-05-2.87017E-05-2.85641E-05-5.01964E-07 3.33779E-19 5.16563E-19
 -1      3479 9.54302E-05-2.87578E-05-2.85745E-05-5.00933E-07-1.31522E-20 8.05339E-20
 -1      3480 9.52966E-05-2.85518E-05-2.86033E-05-4.96128E-07-4.66729E-19-8.74759E-20
 -1      3481 9.53050E-05-2.86022E-05-2.85882E-05-4.87786E-07-4.44095E-19 3.48334E-19
 -1      3482 9.53599E-05-2.86422E-05-2.85937E-05-4.81086E-07 3.71358E-20 1.02810E-19
 -1      3483 9.52497E-05-2.84295E-05-2.86354E-05-5.46053E-07-1.35488E-19-6.77370E-19
 -1      3484 9.52591E-05-2.84882E-05-2.86176E-05-5.14135E-07-2.69495E-19-4.26165E-19
 -1      3485 9.52876E-05-2.85106E-05-2.86188E-05-4.98432E-07-1.40545E-19-8.69406E-19
 -1      3486 9.51944E-05-2.82854E-05-2.86733E-05-6.47451E-07-4.23096E-19-9.23880E-20
 -1      3487 9.52063E-05-2.83550E-05-2.86525E-05-5.87918E-07-3.34200E-20-2.27558E-19
 -1      3488 9.52072E-05-2.83581E-05-2.86495E-05-5.59425E-07-4.75268E-19-6.82287E-19
 -1      3489 9.51240E-05-2.81122E-05-2.87171E-05-8.08942E-07-7.09111E-19 1.12966E-19
 -1      3490 9.51408E-05-2.81962E-05-2.86929E-05-7.17044E-07-6.28082E-19-1.57727E-19
 -1      3491 9.51109E-05-2.81776E-05-2.86852E-05-6.71168E-07-5.58410E-19-5.48188E-19
 -1      3492 9.50296E-05-2.79008E-05-2.87669E-05-1.04055E-06-5.19478E-19-2.38775E-19
 -1      3493 9.50544E-05-2.80035E-05-2.87391E-05-9.10714E-07-3.74464E-19-3.70996E-19
 -1      3494 9.49889E-05-2.79601E-05-2.87256E-05-8.41654E-07-3.95232E-19-9.25755E-19
 -1      3495 9.48993E-05-2.76402E-05-2.88225E-05-1.35368E-06-6.05336E-19-3.28706E-19
 -1      3496 9.49368E-05-2.77667E-05-2.87910E-05-1.17952E-06-4.41169E-19-3.01384E-19
 -1      3497 9.48282E-05-2.76946E-05-2.87699E-05-1.07978E-06-4.98088E-19-6.83266E-19
 -1      3498 9.47169E-05-2.73174E-05-2.88824E-05-1.76082E-06-3.48117E-19-7.02380E-19
 -1      3499 9.47736E-05-2.74738E-05-2.88476E-05-1.53529E-06-7.20891E-19-4.47765E-19
 -1      3500 9.46124E-05-2.73680E-05-2.88164E-05-1.39509E-06-4.57939E-19-7.50064E-19
 -1      3501 9.44608E-05-2.69181E-05-2.89436E-05-2.27497E-06 5.21533E-19-7.75152E-19
 -1      3502 9.45458E-05-2.71109E-05-2.89069E-05-1.99067E-06 3.68300E-19-4.68581E-19
 -1      3503 9.43197E-05-2.69654E-05-2.88622E-05-1.79722E-06-2.00152E-19-1.18208E-18
 -1      3504 9.41022E-05-2.64269E-05-2.90005E-05-2.90871E-06 1.54143E-19-5.34118E-19
 -1      3505 9.42279E-05-2.66628E-05-2.89644E-05-2.55838E-06 4.54232E-19-1.88892E-19
 -1      3506 9.39219E-05-2.64706E-05-2.89020E-05-2.29504E-06 4.62051E-19-1.01078E-18
 -1      3507 9.36040E-05-2.58303E-05-2.90430E-05-3.67315E-06 2.95100E-19-4.91389E-19
 -1      3508 9.37866E-05-2.61146E-05-2.90124E-05-3.25032E-06 1.45949E-19-4.99857E-19
 -1      3509 9.33825E-05-2.58671E-05-2.89269E-05-2.89559E-06 2.84924E-19 1.01041E-19
 -1      3510 9.29212E-05-2.51208E-05-2.90548E-05-4.57721E-06 8.00543E-19-7.19351E-19
 -1      3511 9.31798E-05-2.54547E-05-2.90378E-05-4.07676E-06 6.29858E-19-8.22168E-19
 -1      3512 9.26554E-05-2.51408E-05-2.89232E-05-3.60328E-06 8.58764E-19-2.55012E-19
 -1      3513 9.20030E-05-2.43071E-05-2.90105E-05-5.62842E-06 1.67580E-18-1.39253E-18
 -1      3514 9.23573E-05-2.46816E-05-2.90201E-05-5.04649E-06 1.53165E-18-9.35999E-19
 -1      3515 9.16846E-05-2.42856E-05-2.88692E-05-4.42025E-06 1.08950E-18-1.38085E-18
 -1      3516 9.08027E-05-2.34308E-05-2.88715E-05-6.83773E-06 1.01042E-18-2.07794E-18
 -1      3517 9.12658E-05-2.38168E-05-2.89272E-05-6.16975E-06 1.52862E-18-1.31489E-18
 -1      3518 9.04056E-05-2.33123E-05-2.87326E-05-5.34990E-06 1.42885E-18-9.10421E-19
 -1      3519 8.92969E-05-2.25955E-05-2.85820E-05-8.23284E-06 4.15801E-19-2.14719E-18
 -1      3520 8.98597E-05-2.29261E-05-2.87121E-05-7.46747E-06 2.68043E-19-2.69430E-18
 -1      3521 8.87511E-05-2.22651E-05-2.84655E-05-6.40742E-06 8.23366E-19-1.43088E-18
 -1      3522 8.75245E-05-2.20140E-05-2.80645E-05-9.88716E-06 1.19577E-18-1.50302E-18
 -1      3523 8.81264E-05-2.21560E-05-2.83070E-05-8.99316E-06 8.57736E-19-1.53564E-18
 -1      3524 8.66627E-05-2.12466E-05-2.79993E-05-7.64410E-06 3.04618E-19-1.53508E-18
 -1      3525 8.56598E-05-2.20826E-05-2.72182E-05-1.19717E-05 2.34903E-19 1.84791E-20
 -1      3526 8.61331E-05-2.17903E-05-2.76192E-05-1.08761E-05 1.24609E-18-5.16274E-19
 -1      3527 8.41130E-05-2.04571E-05-2.72369E-05-9.19616E-06 6.05189E-19-5.27319E-19
 -1      3528 8.41276E-05-2.35040E-05-2.59209E-05-1.48273E-05-1.17876E-18-4.27921E-19
 -1      3529 8.41217E-05-2.23453E-05-2.65282E-05-1.33862E-05-5.50511E-19-4.58184E-19
 -1      3530 8.11510E-05-2.02629E-05-2.60426E-05-1.13708E-05 3.57470E-20 2.01911E-19
 -1      3531 8.36957E-05-2.75542E-05-2.40156E-05-1.91043E-05-1.51656E-18-8.04781E-19
 -1      3532 8.26221E-05-2.46599E-05-2.48836E-05-1.69142E-05-1.08216E-18-1.07168E-18
 -1      3533 7.80889E-05-2.13860E-05-2.42254E-05-1.47230E-05-1.15084E-18-3.58019E-19
 -1      3534 9.38283E-05-2.10004E-05-3.12096E-05-3.30723E-06-1.37307E-18-2.41840E-18
 -1      3535 9.41574E-05-2.16942E-05-3.10707E-05-3.71519E-06-1.60774E-18-2.29882E-18
 -1      3536 9.46388E-05-2.26905E-05-3.08175E-05-3.30490E-06-1.53296E-18-2.12851E-18
 -1      3537 1.22007E-04-5.52046E-05-2.85600E-05-2.91100E-05 1.66541E-18 1.98281E-18
 -1      3538 9.06081E-05-3.57700E-05-2.31276E-05-2.37656E-05-1.51772E-18-2.24808E-19
 -1      3539 7.82160E-05-3.03854E-05-2.03934E-05-2.37904E-05-1.67355E-18-5.10867E-19
 -1      3540 8.07315E-05-2.79907E-05-2.26322E-05-2.08204E-05-1.99222E-18-8.75250E-19
 -1      3541 7.37355E-05-2.24473E-05-2.16771E-05-1.80388E-05-1.81224E-18-7.76021E-19
 -1      3542 6.62190E-05-2.23823E-05-1.82154E-05-2.09178E-05-1.68785E-18-1.52424E-18
 -1      3543 9.59492E-05-2.80878E-05-2.90881E-05-5.03301E-07 4.50081E-19-1.08280E-18
 -1      3544 9.59671E-05-2.77839E-05-2.92123E-05-2.25318E-07 5.74721E-19-1.07714E-18
 -1      3545 1.24914E-04-4.82819E-05-3.30979E-05-6.97794E-06-2.02323E-18 2.18438E-18
 -1      3546 1.24605E-04-5.25079E-05-3.06130E-05 1.85026E-06-1.59171E-18 1.25824E-18
 -1      3547 1.21521E-04-3.92518E-05-3.52675E-05-1.38168E-05 2.42834E-19 1.41873E-19
 -1      3548 9.59005E-05-2.73782E-05-2.93740E-05 9.60069E-08 6.15019E-19-1.20108E-18
 -1      3549 9.58757E-05-2.69050E-05-2.95496E-05 5.53404E-07 6.95795E-19-1.37440E-18
 -1      3550 9.61096E-05-2.74116E-05-2.94438E-05 4.29407E-08 4.96903E-19-1.25443E-18
 -1      3551 9.50413E-05-2.39015E-05-3.05006E-05-2.45652E-06-1.41764E-18-2.05728E-18
 -1      3552 9.20674E-05-1.78224E-05-3.18325E-05-9.72145E-07-5.85553E-19-2.80734E-18
 -1      3553 9.21723E-05-1.79879E-05-3.18032E-05-1.72780E-06-9.02115E-19-2.68191E-18
 -1      3554 9.28184E-05-1.90684E-05-3.15977E-05-1.74815E-06-8.19909E-19-2.54814E-18
 -1      3555 9.29818E-05-1.93341E-05-3.15468E-05-5.48134E-07-5.07912E-19-2.68289E-18
 -1      3556 1.15302E-04-2.10356E-05-4.07020E-05-1.48697E-05 9.45474E-19-1.86175E-19
 -1      3557 1.00998E-04-4.61105E-05-2.37887E-05 2.61687E-05-3.93076E-19-6.11558E-19
 -1      3558 8.99528E-05-3.87063E-05-2.16772E-05 2.85311E-05-6.49019E-19-1.64354E-18
 -1      3559 1.19358E-04-5.44131E-05-2.82380E-05 1.29009E-05-9.40200E-19-2.24861E-20
 -1      3560 1.11900E-04-5.09871E-05-2.57527E-05 2.02975E-05-3.54899E-19-1.09456E-19
 -1      3561 1.24583E-04-4.19829E-05-3.52908E-05 4.58478E-06-1.44162E-18-2.82881E-18
 -1      3562 9.57774E-05-2.89317E-05-2.86479E-05-1.01162E-06 5.91268E-19-7.18296E-19
 -1      3563 9.58079E-05-2.88714E-05-2.86842E-05-1.00908E-06 6.24325E-19-7.31407E-19
 -1      3564 9.54327E-05-2.88338E-05-2.85409E-05-5.84288E-07 5.89957E-19-9.35818E-20
 -1      3565 9.54448E-05-2.88662E-05-2.85343E-05-6.25799E-07 7.13687E-19 1.28938E-19
 -1      3566 9.55825E-05-2.89485E-05-2.85585E-05-6.26100E-07 2.52306E-19 2.26395E-19
 -1      3567 9.55032E-05-2.88599E-05-2.85622E-05-5.51598E-07 2.76802E-19-1.33244E-19
 -1      3568 9.57030E-05-2.55397E-05-3.00565E-05-1.49017E-06-1.19861E-18-1.77724E-18
 -1      3569 9.58352E-05-2.62745E-05-2.98251E-05-8.72208E-07-1.03966E-18-1.68046E-18
 -1      3570 9.59906E-05-2.62968E-05-2.98665E-05-7.14642E-07-8.22745E-19-1.41063E-18
 -1      3571 1.22339E-04-4.37104E-05-3.37615E-05-1.14636E-05-6.64200E-19 8.87214E-19
 -1      3572 9.57237E-05-2.63961E-05-2.97193E-05 9.77740E-07 8.53895E-19-1.64137E-18
 -1      3573 9.56422E-05-2.58649E-05-2.99044E-05 1.56633E-06 1.06570E-18-1.75919E-18
 -1      3574 9.58891E-05-2.63933E-05-2.97831E-05 8.18106E-07 6.14603E-19-1.40341E-18
 -1      3575 8.64416E-05-3.41056E-05-2.22637E-05 2.47355E-05-1.16520E-18-1.70485E-18
 -1      3576 9.51468E-05-2.39409E-05-3.05146E-05-2.06563E-06-1.19315E-18-1.99125E-18
 -1      3577 9.58565E-05-2.87921E-05-2.87426E-05-9.85615E-07 1.55898E-19-1.03925E-18
 -1      3578 9.58893E-05-2.86792E-05-2.87998E-05-9.26203E-07-2.10808E-19-1.10852E-18
 -1      3579 9.60781E-05-2.88866E-05-2.87989E-05-9.16193E-07 1.27641E-19-1.27190E-18
 -1      3580 9.57671E-05-2.90666E-05-2.85876E-05-8.09461E-07 4.14955E-19-3.50062E-19
 -1      3581 9.56188E-05-2.89923E-05-2.85531E-05-8.74696E-07 6.19576E-19-6.11971E-19
 -1      3582 9.56412E-05-2.89913E-05-2.85635E-05-9.22744E-07 6.41713E-19-5.72187E-19
 -1      3583 9.59518E-05-2.83399E-05-2.89699E-05-6.89309E-07 3.56675E-19-1.03233E-18
 -1      3584 9.61807E-05-2.81533E-05-2.91570E-05-4.88556E-07 4.11628E-19-1.20682E-18
 -1      3585 9.59211E-05-2.85302E-05-2.88842E-05-8.37261E-07 5.02152E-20-1.17257E-18
 -1      3586 9.35789E-05-2.05294E-05-3.13191E-05-2.85916E-06-1.17677E-18-2.52565E-18
 -1      3587 9.40940E-05-2.15281E-05-3.10956E-05-2.61127E-06-1.17322E-18-2.40319E-18
 -1      3588 9.33463E-05-2.00850E-05-3.14031E-05-2.29032E-06-9.77026E-19-2.42098E-18
 -1      3589 9.49361E-05-2.35268E-05-3.06219E-05 3.05253E-06 1.20866E-18-2.05859E-18
 -1      3590 9.46664E-05-2.28264E-05-3.07887E-05 2.80664E-06 9.42019E-19-2.00790E-18
 -1      3591 6.22851E-05-1.91321E-05-1.84311E-05-1.53931E-05-9.15907E-19-1.97517E-19
 -1      3592 1.19275E-04-5.04226E-05-2.94274E-05 4.96793E-06-9.95648E-19 6.09963E-19
 -1      3593 9.37652E-05-2.07910E-05-3.12544E-05 2.84350E-06 7.31437E-19-2.45382E-18
 -1      3594 6.73369E-05-2.19360E-05-1.93115E-05 2.01825E-05 2.40041E-19-2.00593E-18
 -1      3595 9.57226E-05-2.89644E-05-2.86090E-05-9.94132E-07 6.20503E-19-5.27143E-19
 -1      3596 9.59781E-05-2.90252E-05-2.86964E-05-9.36902E-07 6.01341E-19-6.24440E-19
 -1      3597 9.56960E-05-2.89892E-05-2.85878E-05-9.63068E-07 5.49646E-19-6.40496E-19
 -1      3598 5.73158E-05-1.49442E-05-1.82038E-05 8.24504E-06 2.72128E-19-6.89141E-19
 -1      3599 5.24116E-05-1.32691E-05-1.63301E-05 3.40855E-06 7.54564E-19-4.09223E-19
 -1      3600 5.59701E-05-1.43332E-05-1.77755E-05-4.01980E-06 2.60267E-19 6.66933E-19
 -1      3601 1.05769E-04-4.61074E-05-2.53794E-05 2.01241E-05-8.21893E-19-4.19414E-19
 -1      3602 1.28370E-04-4.96102E-05-3.39902E-05-3.68311E-06 2.66911E-19-2.28486E-18
 -1      3603 1.19714E-04-4.17428E-05-3.33762E-05 1.70658E-06-7.01687E-19-2.94298E-18
 -1      3604 9.38627E-05-2.10490E-05-3.12178E-05 8.07809E-07-1.72566E-19-2.52154E-18
 -1      3605 9.38169E-05-2.09499E-05-3.12372E-05 2.47453E-07-3.47853E-19-2.68097E-18
 -1      3606 9.40868E-05-2.15103E-05-3.11184E-05 1.76401E-06 1.99310E-19-2.44747E-18
 -1      3607 9.39501E-05-2.12200E-05-3.11771E-05 1.24602E-06-4.90200E-20-2.56194E-18
 -1      3608 9.46089E-05-2.23886E-05-3.09345E-05 8.25528E-07-1.94410E-19-2.36349E-18
 -1      3609 1.31572E-04-5.36849E-05-3.34515E-05-9.43483E-06 1.26657E-18-5.58406E-19
 -1      3610 9.65169E-05-2.80225E-05-2.93499E-05 2.94485E-07-6.25096E-19-1.24074E-18
 -1      3611 9.65281E-05-2.83455E-05-2.92247E-05 4.74955E-07-7.86990E-19-1.07448E-18
 -1      3612 9.65369E-05-2.86080E-05-2.91086E-05 5.74931E-07-7.48795E-19-8.21112E-19
 -1      3613 9.65056E-05-2.88050E-05-2.90164E-05 6.69578E-07-5.49827E-19-1.00122E-18
 -1      3614 9.66676E-05-2.84340E-05-2.92433E-05 4.25241E-07-6.18379E-19-1.13619E-18
 -1      3615 9.64653E-05-2.89556E-05-2.89299E-05 7.11687E-07-3.88666E-19-9.87771E-19
 -1      3616 9.64117E-05-2.90641E-05-2.88638E-05 7.46703E-07-2.14244E-19-1.16636E-18
 -1      3617 9.66357E-05-2.88861E-05-2.90368E-05 5.81714E-07-5.11682E-19-1.06529E-18
 -1      3618 9.63439E-05-2.91369E-05-2.88010E-05 7.50036E-07 9.64270E-21-1.34097E-18
 -1      3619 9.62805E-05-2.91844E-05-2.87551E-05 7.46815E-07 1.26363E-19-1.37347E-18
 -1      3620 9.65283E-05-2.91361E-05-2.88841E-05 6.41260E-07-2.28259E-19-1.24859E-18
 -1      3621 9.62003E-05-2.92047E-05-2.87111E-05 7.26745E-07-4.91323E-20-1.13767E-18
 -1      3622 9.61350E-05-2.92111E-05-2.86808E-05 7.01422E-07-1.05880E-19-1.14933E-18
 -1      3623 9.63815E-05-2.92456E-05-2.87744E-05 6.37901E-07-5.79390E-20-1.24923E-18
 -1      3624 9.60516E-05-2.91966E-05-2.86514E-05 6.69421E-07-2.52656E-19-1.37970E-18
 -1      3625 9.59888E-05-2.91760E-05-2.86329E-05 6.33916E-07-1.72734E-19-1.58944E-18
 -1      3626 9.62194E-05-2.92602E-05-2.86986E-05 5.97743E-07-2.11501E-19-1.04820E-18
 -1      3627 9.59077E-05-2.91392E-05-2.86148E-05 5.98204E-07-1.25994E-19-1.90142E-18
 -1      3628 9.58493E-05-2.91010E-05-2.86051E-05 5.60921E-07-2.79286E-19-1.77611E-18
 -1      3629 9.60565E-05-2.92122E-05-2.86492E-05 5.40388E-07-3.63082E-19-1.57468E-18
 -1      3630 9.57727E-05-2.90496E-05-2.85956E-05 5.27359E-07-8.30946E-20-1.74104E-18
 -1      3631 9.57191E-05-2.89995E-05-2.85927E-05 4.94440E-07 3.40806E-19-1.63251E-18
 -1      3632 9.59003E-05-2.91234E-05-2.86201E-05 4.79644E-07 1.20351E-20-1.41945E-18
 -1      3633 9.56470E-05-2.89382E-05-2.85899E-05 4.67336E-07 2.26607E-19-1.52491E-18
 -1      3634 9.55974E-05-2.88793E-05-2.85921E-05 4.43259E-07-1.48601E-19-1.32568E-18
 -1      3635 9.57531E-05-2.90072E-05-2.86065E-05 4.25817E-07 3.04897E-19-1.48573E-18
 -1      3636 9.55286E-05-2.88100E-05-2.85943E-05 4.25908E-07-4.48366E-19-1.16162E-18
 -1      3637 9.54812E-05-2.87436E-05-2.86005E-05 4.14222E-07-6.29365E-19-1.29763E-18
 -1      3638 9.56136E-05-2.88707E-05-2.86049E-05 3.86489E-07-2.65897E-19-1.31730E-18
 -1      3639 9.54131E-05-2.86665E-05-2.86066E-05 4.09335E-07-4.04348E-19-1.30846E-18
 -1      3640 9.53657E-05-2.85923E-05-2.86159E-05 4.13033E-07-1.71046E-19-1.02694E-18
 -1      3641 9.54781E-05-2.87168E-05-2.86124E-05 3.67750E-07-4.52982E-19-1.45888E-18
 -1      3642 9.52948E-05-2.85063E-05-2.86249E-05 4.23152E-07-1.94337E-19-9.86104E-19
 -1      3643 9.52447E-05-2.84230E-05-2.86367E-05 4.45169E-07-3.53472E-20-7.77359E-19
 -1      3644 9.53406E-05-2.85446E-05-2.86269E-05 3.74770E-07-8.78037E-20-1.20708E-18
 -1      3645 9.51670E-05-2.83261E-05-2.86477E-05 4.73069E-07 2.92069E-19-7.66401E-19
 -1      3646 9.51112E-05-2.82318E-05-2.86613E-05 5.16513E-07-1.08378E-19-4.59804E-19
 -1      3647 9.51933E-05-2.83509E-05-2.86464E-05 4.12825E-07 1.01554E-19-1.01348E-18
 -1      3648 9.50220E-05-2.81218E-05-2.86736E-05 5.65390E-07-2.95078E-19-4.60369E-20
 -1      3649 9.49577E-05-2.80150E-05-2.86884E-05 6.33707E-07 2.29476E-19 1.54233E-19
 -1      3650 9.50279E-05-2.81312E-05-2.86692E-05 4.87775E-07 1.61234E-19-6.00968E-19
 -1      3651 9.48524E-05-2.78898E-05-2.87008E-05 7.07375E-07-1.09546E-19 2.35772E-19
 -1      3652 9.47768E-05-2.77695E-05-2.87159E-05 8.04449E-07-7.69457E-20 2.03842E-19
 -1      3653 9.48350E-05-2.78811E-05-2.86932E-05 6.06451E-07-1.73117E-21-1.23200E-19
 -1      3654 9.46512E-05-2.76283E-05-2.87272E-05 9.07513E-07 3.93386E-19 5.33918E-19
 -1      3655 9.45626E-05-2.74953E-05-2.87414E-05 1.03766E-06 6.18234E-19 7.07322E-19
 -1      3656 9.46058E-05-2.75973E-05-2.87161E-05 7.77086E-07 4.84307E-19 2.84372E-19
 -1      3657 9.44132E-05-2.73394E-05-2.87498E-05 1.17567E-06 3.68073E-19 7.35495E-19
 -1      3658 9.43119E-05-2.71972E-05-2.87612E-05 1.34358E-06 1.82555E-19 3.59408E-19
 -1      3659 9.43324E-05-2.72798E-05-2.87346E-05 1.00970E-06 2.69059E-19 4.54209E-19
 -1      3660 9.41375E-05-2.70313E-05-2.87643E-05 1.52313E-06-1.42113E-19 1.13943E-19
 -1      3661 9.40264E-05-2.68882E-05-2.87708E-05 1.73364E-06-2.49624E-19 8.13426E-20
 -1      3662 9.40101E-05-2.69342E-05-2.87441E-05 1.31647E-06 1.95894E-20 9.50811E-19
 -1      3663 9.38294E-05-2.67224E-05-2.87652E-05 1.96253E-06 1.84751E-19-1.91231E-19
 -1      3664 9.37169E-05-2.65931E-05-2.87638E-05 2.22036E-06-1.45746E-19 4.90499E-19
 -1      3665 9.36395E-05-2.65753E-05-2.87389E-05 1.71216E-06-1.40270E-19 7.65430E-19
 -1      3666 9.35056E-05-2.64455E-05-2.87456E-05 2.50765E-06-7.11556E-19 6.43602E-19
 -1      3667 9.34077E-05-2.63540E-05-2.87324E-05 2.81690E-06-5.21194E-19 9.38304E-19
 -1      3668 9.32305E-05-2.62307E-05-2.87114E-05 2.21457E-06-9.24640E-20 8.07759E-19
 -1      3669 9.31995E-05-2.62533E-05-2.86969E-05 3.17291E-06-2.63588E-19 7.84570E-21
 -1      3670 9.31438E-05-2.62363E-05-2.86680E-05 3.53629E-06 1.64969E-19-2.38553E-20
 -1      3671 9.28078E-05-2.59472E-05-2.86525E-05 2.84509E-06-7.11333E-19 4.43806E-19
 -1      3672 9.29697E-05-2.62252E-05-2.86099E-05 3.97225E-06 2.08427E-19-3.43240E-20
 -1      3673 9.30001E-05-2.63354E-05-2.85613E-05 4.38958E-06 1.25178E-19-1.55388E-19
 -1      3674 9.24179E-05-2.57965E-05-2.85517E-05 3.62890E-06-8.12289E-20 4.83323E-19
 -1      3675 9.29106E-05-2.64747E-05-2.84760E-05 4.91634E-06 2.40239E-19-5.01695E-19
 -1      3676 9.30934E-05-2.67841E-05-2.84055E-05 5.38158E-06 4.86656E-19 2.89158E-19
 -1      3677 9.21394E-05-2.58837E-05-2.83985E-05 4.59440E-06 9.87087E-20 3.68370E-19
 -1      3678 9.31670E-05-2.71558E-05-2.82904E-05 6.00594E-06-7.57683E-20 6.65054E-20
 -1      3679 9.35969E-05-2.77574E-05-2.81997E-05 6.50099E-06-6.56300E-19 1.06247E-19
 -1      3680 9.20973E-05-2.63553E-05-2.81843E-05 5.76977E-06 1.04793E-19 3.89410E-19
 -1      3681 9.39505E-05-2.84661E-05-2.80575E-05 7.21713E-06-1.27331E-18-1.33256E-20
 -1      3682 9.47553E-05-2.94713E-05-2.79564E-05 7.69978E-06-1.52115E-18-3.80119E-19
 -1      3683 9.24810E-05-2.74075E-05-2.79075E-05 7.17301E-06-6.30919E-19-1.58498E-19
 -1      3684 9.55569E-05-3.06410E-05-2.78004E-05 8.46942E-06-1.16742E-18-2.67436E-19
 -1      3685 9.69014E-05-3.21642E-05-2.77142E-05 8.84554E-06 1.36092E-19-5.91464E-19
 -1      3686 9.35701E-05-2.92909E-05-2.75817E-05 8.78663E-06-1.03403E-18 3.78562E-19
 -1      3687 9.83904E-05-3.39480E-05-2.75785E-05 9.58431E-06 5.78535E-19-1.02541E-18
 -1      3688 1.00463E-04-3.60643E-05-2.75640E-05 9.63746E-06 3.37012E-19-5.09143E-19
 -1      3689 9.57372E-05-3.22704E-05-2.72496E-05 1.05255E-05 3.61453E-20-1.78671E-19
 -1      3690 1.02965E-04-3.85593E-05-2.75334E-05 1.00653E-05 3.74151E-19-7.35050E-19
 -1      3691 1.05946E-04-4.11156E-05-2.77075E-05 9.35662E-06 2.13961E-19-1.75744E-19
 -1      3692 9.96097E-05-3.67122E-05-2.70131E-05 1.21481E-05 5.11165E-19-5.27013E-19
 -1      3693 1.15653E-04-4.87906E-05-2.84298E-05 8.04119E-06-1.07620E-18 2.83902E-19
 -1      3694 9.16567E-05-3.64722E-05-2.38179E-05 2.25850E-05-9.13389E-19-9.80427E-19
 -1      3695 8.27892E-05-2.97309E-05-2.26584E-05 2.16075E-05-9.43507E-19-1.91805E-18
 -1      3696 9.59216E-05-2.57262E-05-3.00805E-05-9.12846E-07-7.29179E-19-1.64621E-18
 -1      3697 9.61248E-05-2.64623E-05-2.98643E-05-4.60848E-07-6.17315E-19-1.46532E-18
 -1      3698 1.17080E-04-3.95592E-05-3.33510E-05 3.89830E-06-1.18835E-18-2.13405E-18
 -1      3699 9.53750E-05-2.86196E-05-2.86081E-05-4.48215E-07-1.09162E-19-1.60969E-19
 -1      3700 9.54107E-05-2.86858E-05-2.85974E-05-4.48144E-07 1.48237E-19-1.39761E-19
 -1      3701 9.54695E-05-2.87555E-05-2.85903E-05-4.56950E-07 1.09499E-19-8.07507E-20
 -1      3702 9.55055E-05-2.88138E-05-2.85828E-05-4.73193E-07-3.21422E-20-1.62922E-19
 -1      3703 9.54797E-05-2.87375E-05-2.86043E-05-4.18596E-07 2.65523E-20-1.97535E-19
 -1      3704 9.51641E-05-2.82849E-05-2.86611E-05-5.42605E-07-5.26827E-19-8.39815E-19
 -1      3705 9.52080E-05-2.83738E-05-2.86449E-05-5.00466E-07-2.54832E-19-4.87606E-19
 -1      3706 9.50294E-05-2.80718E-05-2.86947E-05-6.57876E-07-3.86207E-19-1.30628E-18
 -1      3707 9.50837E-05-2.81777E-05-2.86762E-05-5.89519E-07-2.80036E-19-9.86829E-19
 -1      3708 9.50869E-05-2.81866E-05-2.86707E-05-5.24147E-07-9.19181E-20-8.71244E-19
 -1      3709 9.48591E-05-2.78152E-05-2.87317E-05-8.27455E-07-6.05208E-19-1.03607E-18
 -1      3710 9.49295E-05-2.79431E-05-2.87112E-05-7.28984E-07-3.38558E-19-8.92337E-19
 -1      3711 9.49087E-05-2.79356E-05-2.87013E-05-6.38956E-07-3.54904E-19-9.57951E-19
 -1      3712 9.46373E-05-2.75028E-05-2.87706E-05-1.05848E-06-5.30759E-19-1.07944E-18
 -1      3713 9.47311E-05-2.76588E-05-2.87488E-05-9.25755E-07-5.66637E-19-8.53720E-19
 -1      3714 9.46837E-05-2.76335E-05-2.87335E-05-8.02334E-07-7.91970E-19-1.11050E-18
 -1      3715 9.43433E-05-2.71206E-05-2.88086E-05-1.35789E-06-1.76705E-19-1.15532E-18
 -1      3716 9.44702E-05-2.73115E-05-2.87867E-05-1.18680E-06-3.75533E-19-1.03090E-18
 -1      3717 9.43925E-05-2.72668E-05-2.87648E-05-1.01912E-06-4.34849E-19-1.50526E-18
 -1      3718 9.39509E-05-2.66529E-05-2.88413E-05-1.73160E-06 2.33914E-20-1.42279E-18
 -1      3719 9.41236E-05-2.68863E-05-2.88215E-05-1.51847E-06-1.31300E-20-1.16839E-18
 -1      3720 9.40111E-05-2.68206E-05-2.87912E-05-1.29296E-06-1.06115E-19-1.89605E-18
 -1      3721 9.34267E-05-2.60831E-05-2.88616E-05-2.18325E-06 1.39585E-19-1.66222E-18
 -1      3722 9.36614E-05-2.63669E-05-2.88475E-05-1.92548E-06 2.29382E-19-1.88664E-18
 -1      3723 9.35093E-05-2.62787E-05-2.88065E-05-1.62509E-06 3.38905E-19-2.22805E-18
 -1      3724 9.27281E-05-2.53950E-05-2.88583E-05-2.71298E-06 4.41023E-19-1.42197E-18
 -1      3725 9.30460E-05-2.57367E-05-2.88555E-05-2.40967E-06 2.23937E-19-1.42230E-18
 -1      3726 9.28495E-05-2.56248E-05-2.88014E-05-2.01295E-06-3.33621E-20-2.98571E-18
 -1      3727 9.18022E-05-2.45758E-05-2.88142E-05-3.31644E-06 8.76039E-19-1.32191E-18
 -1      3728 9.22293E-05-2.49806E-05-2.88318E-05-2.96878E-06 8.15537E-19-1.01640E-18
 -1      3729 9.19845E-05-2.48439E-05-2.87619E-05-2.44863E-06 5.93677E-19-2.33439E-18
 -1      3730 9.05843E-05-2.36206E-05-2.87038E-05-3.98548E-06 8.11668E-19-9.40340E-19
 -1      3731 9.11520E-05-2.40889E-05-2.87551E-05-3.59621E-06 7.90324E-19-1.06362E-18
 -1      3732 9.08553E-05-2.39250E-05-2.86673E-05-2.91813E-06 7.99756E-19-1.45272E-18
 -1      3733 8.89979E-05-2.25408E-05-2.84892E-05-4.71267E-06 1.07606E-18-4.62625E-19
 -1      3734 8.97414E-05-2.30628E-05-2.85942E-05-4.28326E-06 9.19538E-19-7.53146E-19
 -1      3735 8.93890E-05-2.28652E-05-2.84871E-05-3.40261E-06 4.81103E-19-3.39642E-19
 -1      3736 8.69566E-05-2.13770E-05-2.81153E-05-5.50405E-06 7.30937E-19-3.36699E-19
 -1      3737 8.79106E-05-2.19249E-05-2.83030E-05-5.02713E-06 1.44903E-18 1.38127E-19
 -1      3738 8.74949E-05-2.16757E-05-2.81771E-05-3.88460E-06 1.11522E-18 8.41036E-20
 -1      3739 8.43661E-05-2.02170E-05-2.75031E-05-6.40620E-06 4.10976E-19-2.82943E-19
 -1      3740 8.55586E-05-2.07335E-05-2.78148E-05-5.84933E-06 3.78775E-19-1.02746E-19
 -1      3741 8.50583E-05-2.03895E-05-2.76730E-05-4.36302E-06 7.63584E-19 7.00066E-19
 -1      3742 8.11279E-05-1.92214E-05-2.65379E-05-7.55959E-06-8.65711E-20 2.08564E-19
 -1      3743 8.25653E-05-1.96019E-05-2.70323E-05-6.83478E-06 4.63205E-20-2.69118E-19
 -1      3744 8.19255E-05-1.90672E-05-2.68807E-05-4.88351E-06-1.47713E-19 1.02659E-18
 -1      3745 7.71564E-05-1.86769E-05-2.50505E-05-9.29873E-06-5.25368E-19 7.78234E-19
 -1      3746 7.87843E-05-1.87250E-05-2.58108E-05-8.20717E-06 1.94874E-19 6.96923E-19
 -1      3747 7.78718E-05-1.78044E-05-2.56571E-05-5.60219E-06-4.42216E-19 1.02687E-18
 -1      3748 7.22953E-05-1.91725E-05-2.27335E-05-1.23902E-05-1.10907E-18 4.74391E-19
 -1      3749 7.40222E-05-1.84184E-05-2.39222E-05-1.04855E-05-5.24683E-19 1.15549E-18
 -1      3750 7.25171E-05-1.67248E-05-2.37676E-05-6.89207E-06-6.53168E-19 1.97684E-18
 -1      3751 9.51626E-05-2.44077E-05-3.03163E-05 2.86521E-06 1.34157E-18-1.95938E-18
 -1      3752 9.54169E-05-2.50648E-05-3.01444E-05 2.08408E-06 1.14935E-18-1.89246E-18
 -1      3753 6.03156E-05-1.59308E-05-1.86603E-05-1.02117E-05-2.78197E-19 1.80278E-18
 -1      3754 6.67232E-05-1.93417E-05-2.02995E-05-1.47178E-05-1.29938E-18 5.94564E-19
 -1      3755 7.00228E-05-1.94313E-05-2.17309E-05-1.38712E-05-1.57725E-18 3.62160E-19
 -1      3756 6.10213E-05-1.50844E-05-1.96137E-05-4.51215E-06-4.83517E-19 1.63405E-18
 -1      3757 1.29827E-04-5.76192E-05-3.10848E-05-2.05524E-05 2.67435E-18 2.57074E-18
 -1      3758 9.62808E-05-2.75231E-05-2.94739E-05-6.90177E-08 4.15468E-19-1.37153E-18
 -1      3759 9.62087E-05-2.70273E-05-2.96428E-05 2.74402E-07 4.27771E-19-1.40502E-18
 -1      3760 1.11751E-04-4.59589E-05-2.80996E-05 8.56787E-06-5.70902E-19 3.05587E-19
 -1      3761 1.09892E-04-4.77936E-05-2.69329E-05 1.50911E-05-4.29227E-19-6.13206E-19
 -1      3762 1.01901E-04-4.26008E-05-2.52464E-05 1.95795E-05-9.53448E-19-7.82364E-20
 -1      3763 1.08057E-04-4.33447E-05-2.76326E-05 1.02249E-05 1.83452E-19-9.94205E-20
 -1      3764 9.57781E-05-2.90688E-05-2.85883E-05-6.34205E-07-5.73517E-20-3.79504E-19
 -1      3765 9.58251E-05-2.90997E-05-2.85963E-05-6.76817E-07 2.39398E-19-4.89739E-19
 -1      3766 9.54881E-05-2.50114E-05-3.01978E-05 1.77967E-06 9.27547E-19-1.65929E-18
 -1      3767 9.45282E-05-2.22070E-05-3.09776E-05 2.63121E-09-3.88800E-19-2.41505E-18
 -1      3768 9.38044E-05-2.09442E-05-3.12385E-05-2.21701E-07-4.41532E-19-2.52059E-18
 -1      3769 9.63415E-05-2.71028E-05-2.96685E-05-1.81136E-07-5.54630E-19-1.47736E-18
 -1      3770 9.64272E-05-2.76028E-05-2.95023E-05 1.14880E-07-5.84838E-19-1.38181E-18
 -1      3771 9.62746E-05-2.65752E-05-2.98678E-05-3.36444E-07-5.99716E-19-1.71840E-18
 -1      3772 9.44609E-05-2.23366E-05-3.09272E-05 2.55960E-06 6.50862E-19-2.25258E-18
 -1      3773 9.42480E-05-2.18476E-05-3.10332E-05 2.13429E-06 3.68679E-19-2.39336E-18
 -1      3774 9.48053E-05-2.28860E-05-3.08079E-05 1.54490E-06 1.42454E-19-2.13641E-18
 -1      3775 9.50874E-05-2.37008E-05-3.05832E-05 2.07658E-06 6.72146E-19-1.84599E-18
 -1      3776 9.52759E-05-2.84647E-05-2.86320E-05-4.74824E-07-1.05289E-19-4.93370E-19
 -1      3777 9.53140E-05-2.85408E-05-2.86184E-05-4.55347E-07 1.00833E-20-2.10234E-19
 -1      3778 9.52335E-05-2.83980E-05-2.86435E-05-4.52642E-07-1.35087E-19-2.18648E-19
 -1      3779 7.23036E-05-2.29739E-05-2.11616E-05 1.88915E-05-1.07678E-18-3.45191E-18
 -1      3780 6.42031E-05-1.76081E-05-1.95702E-05 1.49142E-05 5.52424E-20-2.35402E-18
 -1      3781 9.48186E-05-2.30148E-05-3.07751E-05-2.14649E-06-1.07409E-18-2.17116E-18
 -1      3782 9.55167E-05-2.47563E-05-3.03336E-05-1.27428E-06-8.55164E-19-1.80464E-18
 -1      3783 9.56471E-05-2.48687E-05-3.03248E-05-9.95801E-07-6.76655E-19-1.88985E-18
 -1      3784 9.45971E-05-2.25193E-05-3.08856E-05-1.79181E-06-8.42910E-19-2.18077E-18
 -1      3785 9.65714E-05-2.76981E-05-2.95159E-05 1.33623E-07-4.95808E-19-1.47211E-18
 -1      3786 9.60221E-05-2.64962E-05-2.98047E-05 5.72684E-07 4.16435E-19-1.33380E-18
 -1      3787 9.58713E-05-2.59114E-05-2.99802E-05 1.01901E-06 5.25104E-19-1.43321E-18
 -1      3788 9.61757E-05-2.65769E-05-2.98265E-05 4.30371E-07 4.60994E-19-1.36276E-18
 -1      3789 1.04281E-04-4.19466E-05-2.68478E-05 1.38033E-05 2.97163E-19 1.96095E-19
 -1      3790 9.59897E-05-2.91789E-05-2.86349E-05-6.31178E-07 1.86641E-19-1.19745E-18
 -1      3791 9.58982E-05-2.91306E-05-2.86134E-05-7.17262E-07 3.71737E-19-6.65501E-19
 -1      3792 9.59499E-05-2.91446E-05-2.86301E-05-7.57312E-07 4.37640E-19-8.81572E-19
 -1      3793 9.78618E-05-3.84183E-05-2.53592E-05 1.80335E-05-2.24146E-19 4.36909E-19
 -1      3794 9.62686E-05-2.89876E-05-2.88353E-05-8.33799E-07 4.74186E-20-1.35316E-18
 -1      3795 9.63161E-05-2.88762E-05-2.88995E-05-7.91708E-07 4.34959E-20-1.43790E-18
 -1      3796 9.53611E-05-2.85792E-05-2.86209E-05-4.19172E-07-1.09378E-20 6.28089E-21
 -1      3797 9.61549E-05-2.86163E-05-2.89477E-05-7.85521E-07 1.11846E-19-1.30286E-18
 -1      3798 9.55972E-05-2.88772E-05-2.85951E-05-4.45836E-07 1.79696E-20 3.57831E-19
 -1      3799 9.55653E-05-2.88758E-05-2.85798E-05-4.95266E-07-4.55610E-20-7.48709E-20
 -1      3800 9.56038E-05-2.89268E-05-2.85763E-05-5.24495E-07 1.63322E-19-4.30549E-20
 -1      3801 6.69950E-05-1.63511E-05-2.15248E-05-9.06997E-06-1.04297E-18 2.14855E-18
 -1      3802 9.35024E-05-2.03788E-05-3.13419E-05-1.90479E-06-9.50857E-19-2.38397E-18
 -1      3803 9.40481E-05-2.13636E-05-3.11410E-05-1.83011E-06-8.74036E-19-2.37838E-18
 -1      3804 9.47414E-05-2.28250E-05-3.08322E-05-1.42533E-06-7.78450E-19-2.16971E-18
 -1      3805 9.35304E-05-2.04500E-05-3.13341E-05-1.32198E-06-7.28284E-19-2.45854E-18
 -1      3806 9.63684E-05-2.79437E-05-2.93189E-05-2.90719E-07 4.60459E-19-1.26126E-18
 -1      3807 9.64438E-05-2.76018E-05-2.95034E-05-1.01816E-07 4.21705E-19-1.28025E-18
 -1      3808 9.63733E-05-2.82640E-05-2.91938E-05-5.00509E-07 3.71861E-19-1.23220E-18
 -1      3809 6.31381E-05-1.62356E-05-2.00823E-05 8.81429E-06-1.27823E-19-1.37315E-18
 -1      3810 9.58713E-05-2.90752E-05-2.86288E-05-8.90769E-07 5.80731E-19-5.80693E-19
 -1      3811 9.61526E-05-2.91160E-05-2.87297E-05-8.40396E-07 6.18339E-19-1.02946E-18
 -1      3812 9.62067E-05-2.90637E-05-2.87733E-05-8.42379E-07 3.75123E-19-1.33640E-18
 -1      3813 9.64160E-05-2.90670E-05-2.88657E-05-7.38146E-07 1.42203E-19-1.77464E-18
 -1      3814 9.37021E-05-2.07289E-05-3.12755E-05-7.49180E-07-6.49715E-19-2.43434E-18
 -1      3815 9.56536E-05-2.53006E-05-3.01531E-05 1.29185E-06 6.22476E-19-1.47394E-18
 -1      3816 9.53924E-05-2.45008E-05-3.03888E-05 1.76395E-06 7.10391E-19-1.62821E-18
 -1      3817 9.52552E-05-2.40254E-05-3.05248E-05 1.58944E-06 3.72607E-19-1.67690E-18
 -1      3818 9.57860E-05-2.53989E-05-3.01637E-05 1.02412E-06 4.12011E-19-1.27109E-18
 -1      3819 9.50474E-05-2.33292E-05-3.07458E-05 1.93342E-07-2.99260E-19-2.46533E-18
 -1      3820 9.50467E-05-2.33221E-05-3.07475E-05-1.90483E-07-4.49551E-19-2.28083E-18
 -1      3821 9.51282E-05-2.35557E-05-3.06834E-05 8.25870E-07-1.66523E-19-2.30954E-18
 -1      3822 9.50717E-05-2.33950E-05-3.07252E-05 4.81011E-07-2.91380E-19-2.42930E-18
 -1      3823 9.55854E-05-2.43628E-05-3.05063E-05 2.47160E-07-2.44461E-19-2.40152E-18
 -1      3824 7.85648E-05-2.58112E-05-2.25152E-05 1.95189E-05-9.43191E-19-2.38307E-18
 -1      3825 7.43639E-05-2.17705E-05-2.26419E-05 1.49824E-05-1.01200E-18-2.68221E-18
 -1      3826 8.41286E-05-2.80817E-05-2.39531E-05 1.75442E-05-3.96597E-19-1.48940E-18
 -1      3827 9.56673E-05-2.89813E-05-2.85783E-05-5.56821E-07 1.30036E-19-3.49375E-19
 -1      3828 9.57097E-05-2.90238E-05-2.85798E-05-5.95215E-07 5.76258E-20-3.27161E-19
 -1      3829 9.57192E-05-2.89997E-05-2.85952E-05-4.95108E-07 4.09676E-20-2.20844E-19
 -1      3830 9.58497E-05-2.91027E-05-2.86073E-05-5.59692E-07 9.80487E-20-5.38092E-19
 -1      3831 9.67799E-05-2.88147E-05-2.91257E-05 4.41125E-07-5.57952E-19-1.40792E-18
 -1      3832 9.67408E-05-2.89937E-05-2.90355E-05 4.98162E-07-4.31721E-19-1.46892E-18
 -1      3833 9.66866E-05-2.91255E-05-2.89530E-05 5.12812E-07-2.22454E-19-1.33873E-18
 -1      3834 9.66196E-05-2.92166E-05-2.88870E-05 5.31179E-07-7.78102E-20-1.31559E-18
 -1      3835 9.68086E-05-2.90664E-05-2.90338E-05 3.88080E-07-3.05932E-19-1.10858E-18
 -1      3836 9.65384E-05-2.92729E-05-2.88267E-05 5.25125E-07-7.19715E-20-1.15834E-18
 -1      3837 9.64587E-05-2.93040E-05-2.87800E-05 5.19073E-07-5.77844E-20-1.25219E-18
 -1      3838 9.66732E-05-2.92700E-05-2.88889E-05 4.09588E-07-1.61613E-19-8.28893E-19
 -1      3839 9.63656E-05-2.93094E-05-2.87373E-05 5.00745E-07-1.82046E-19-1.27054E-18
 -1      3840 9.62823E-05-2.92999E-05-2.87058E-05 4.81277E-07-3.96294E-19-1.38383E-18
 -1      3841 9.64998E-05-2.93411E-05-2.87842E-05 3.98412E-07-2.41145E-19-1.23779E-18
 -1      3842 9.61871E-05-2.92721E-05-2.86772E-05 4.58021E-07-2.64698E-19-1.26218E-18
 -1      3843 9.61061E-05-2.92364E-05-2.86573E-05 4.32797E-07-9.43470E-20-1.05910E-18
 -1      3844 9.63125E-05-2.93230E-05-2.87116E-05 3.68500E-07-2.83334E-19-1.17616E-18
 -1      3845 9.60131E-05-2.91866E-05-2.86395E-05 4.08595E-07 8.50754E-20-1.29678E-18
 -1      3846 9.59363E-05-2.91333E-05-2.86287E-05 3.83644E-07 3.26883E-19-1.13644E-18
 -1      3847 9.61260E-05-2.92469E-05-2.86642E-05 3.31638E-07 1.07653E-19-8.16276E-19
 -1      3848 9.58475E-05-2.90689E-05-2.86193E-05 3.62589E-07 2.65307E-19-1.53647E-18
 -1      3849 9.57754E-05-2.90035E-05-2.86154E-05 3.42253E-07 1.82045E-19-1.41753E-18
 -1      3850 9.59456E-05-2.91311E-05-2.86362E-05 2.94901E-07 7.41718E-20-1.40312E-18
 -1      3851 9.56904E-05-2.89283E-05-2.86125E-05 3.26744E-07-2.10434E-19-1.82988E-18
 -1      3852 9.56214E-05-2.88531E-05-2.86139E-05 3.14308E-07-6.52816E-19-2.00914E-18
 -1      3853 9.57735E-05-2.89881E-05-2.86234E-05 2.65344E-07-2.50397E-19-2.00405E-18
 -1      3854 9.55382E-05-2.87686E-05-2.86160E-05 3.06741E-07-4.13846E-19-2.01198E-18
 -1      3855 9.54699E-05-2.86842E-05-2.86215E-05 3.04806E-07-2.06182E-19-1.96205E-18
 -1      3856 9.56071E-05-2.88234E-05-2.86222E-05 2.47019E-07-5.37631E-19-2.33296E-18
 -1      3857 9.53847E-05-2.85897E-05-2.86273E-05 3.06806E-07-7.58312E-20-1.46267E-18
 -1      3858 9.53135E-05-2.84949E-05-2.86357E-05 3.17947E-07 2.70324E-19-1.21588E-18
 -1      3859 9.54406E-05-2.86383E-05-2.86298E-05 2.44232E-07 1.13182E-19-1.65756E-18
 -1      3860 9.52216E-05-2.83884E-05-2.86441E-05 3.31733E-07 1.72863E-19-8.97631E-19
 -1      3861 9.51435E-05-2.82810E-05-2.86546E-05 3.58609E-07 4.25523E-19-9.74844E-19
 -1      3862 9.52655E-05-2.84296E-05-2.86436E-05 2.60467E-07 5.70527E-19-1.25243E-18
 -1      3863 9.50395E-05-2.81597E-05-2.86645E-05 3.86666E-07 3.46898E-19-7.41771E-19
 -1      3864 9.49500E-05-2.80373E-05-2.86761E-05 4.32275E-07 1.82301E-19-7.89296E-19
 -1      3865 9.50718E-05-2.81926E-05-2.86617E-05 3.00376E-07 4.16555E-19-1.04969E-18
 -1      3866 9.48278E-05-2.78982E-05-2.86864E-05 4.77698E-07 2.83433E-19-2.26997E-19
 -1      3867 9.47221E-05-2.77583E-05-2.86980E-05 5.45619E-07 4.73286E-19 6.08169E-20
 -1      3868 9.48480E-05-2.79212E-05-2.86815E-05 3.69199E-07 5.79780E-19-6.99063E-19
 -1      3869 9.45752E-05-2.75989E-05-2.87071E-05 6.12458E-07 5.01014E-19-2.00008E-20
 -1      3870 9.44491E-05-2.74402E-05-2.87173E-05 7.07056E-07 4.92029E-19-1.49286E-20
 -1      3871 9.45817E-05-2.76093E-05-2.87003E-05 4.73749E-07 5.02079E-19-1.30560E-19
 -1      3872 9.42714E-05-2.72592E-05-2.87232E-05 8.00637E-07 7.50890E-19 1.91606E-19
 -1      3873 9.41214E-05-2.70823E-05-2.87300E-05 9.27282E-07 7.36593E-19 7.08896E-19
 -1      3874 9.42601E-05-2.72525E-05-2.87147E-05 6.23032E-07 7.68776E-19 1.28828E-19
 -1      3875 9.39074E-05-2.68809E-05-2.87303E-05 1.05464E-06 1.22417E-19 4.90594E-19
 -1      3876 9.37322E-05-2.66899E-05-2.87310E-05 1.21996E-06-2.65365E-19 8.37852E-19
 -1      3877 9.38716E-05-2.68499E-05-2.87200E-05 8.29067E-07 4.12183E-19 1.12986E-18
 -1      3878 9.34784E-05-2.64734E-05-2.87221E-05 1.39037E-06-6.00819E-19 1.16091E-18
 -1      3879 9.32805E-05-2.62776E-05-2.87134E-05 1.60256E-06-7.49285E-20 1.07097E-18
 -1      3880 9.34069E-05-2.64069E-05-2.87099E-05 1.10798E-06-1.66991E-19 6.43944E-19
 -1      3881 9.29866E-05-2.60572E-05-2.86909E-05 1.82831E-06-2.51458E-19 4.35137E-19
 -1      3882 9.27741E-05-2.58736E-05-2.86684E-05 2.09753E-06-5.01616E-19 8.67709E-20
 -1      3883 9.28619E-05-2.59385E-05-2.86765E-05 1.48143E-06-7.24003E-19 1.09233E-18
 -1      3884 9.24457E-05-2.56689E-05-2.86267E-05 2.39477E-06-4.17476E-19 1.80556E-19
 -1      3885 9.22359E-05-2.55252E-05-2.85852E-05 2.73357E-06-2.10692E-19 5.55760E-19
 -1      3886 9.22411E-05-2.54738E-05-2.86093E-05 1.97856E-06-2.94377E-19-2.15341E-19
 -1      3887 9.18870E-05-2.53677E-05-2.85175E-05 3.12346E-06-3.84460E-19 7.58229E-19
 -1      3888 9.17107E-05-2.53057E-05-2.84514E-05 3.54709E-06-4.13567E-19 5.93429E-19
 -1      3889 9.15629E-05-2.50614E-05-2.84955E-05 2.63836E-06-3.19785E-19 5.39236E-19
 -1      3890 9.13685E-05-2.52420E-05-2.83502E-05 4.05693E-06 3.35559E-19 2.23174E-19
 -1      3891 9.12761E-05-2.53225E-05-2.82538E-05 4.58317E-06 7.49605E-19 5.23867E-19
 -1      3892 9.08666E-05-2.47767E-05-2.83202E-05 3.51264E-06 4.52576E-21 3.57681E-19
 -1      3893 9.09873E-05-2.54191E-05-2.81113E-05 5.24709E-06 7.61204E-20 2.48441E-19
 -1      3894 9.10572E-05-2.57268E-05-2.79808E-05 5.89425E-06-6.28306E-19 2.75906E-19
 -1      3895 9.02227E-05-2.47304E-05-2.80668E-05 4.66896E-06 2.72749E-19 3.62999E-19
 -1      3896 9.08986E-05-2.60759E-05-2.77909E-05 6.75121E-06-8.27671E-19-2.08298E-19
 -1      3897 9.12492E-05-2.67241E-05-2.76272E-05 7.53157E-06-8.95020E-19-6.07014E-20
 -1      3898 8.97491E-05-2.50805E-05-2.77193E-05 6.19199E-06-1.04521E-18 7.57742E-19
 -1      3899 9.13411E-05-2.74497E-05-2.73877E-05 8.62309E-06-1.27058E-18-3.25162E-19
 -1      3900 9.21332E-05-2.85835E-05-2.72012E-05 9.52945E-06-1.18395E-18-1.17781E-19
 -1      3901 8.96313E-05-2.60421E-05-2.72666E-05 8.17666E-06-1.36872E-18 2.16887E-19
 -1      3902 9.27029E-05-2.98752E-05-2.69218E-05 1.08436E-05-3.18214E-19-3.51601E-19
 -1      3903 9.41638E-05-3.16519E-05-2.67442E-05 1.18175E-05 8.15143E-19-3.59810E-19
 -1      3904 9.02178E-05-2.79491E-05-2.67087E-05 1.07656E-05-7.04351E-19-9.61556E-20
 -1      3905 9.43717E-05-2.19247E-05-3.10329E-05-9.28285E-07-7.28363E-19-2.32056E-18
 -1      3906 9.52341E-05-2.39047E-05-3.05782E-05 1.36296E-06 1.91395E-19-1.95564E-18
 -1      3907 9.51294E-05-2.35909E-05-3.06630E-05 1.07486E-06-6.54001E-20-2.09069E-18
 -1      3908 9.55875E-05-2.44715E-05-3.04633E-05 7.04210E-07-3.71590E-20-2.14147E-18
 -1      3909 9.55633E-05-2.46346E-05-3.03904E-05 1.10954E-06 2.58605E-19-1.74312E-18
 -1      3910 9.53443E-05-2.85359E-05-2.86312E-05-3.69361E-07 7.70979E-20 1.24537E-19
 -1      3911 9.54057E-05-2.86240E-05-2.86216E-05-3.60661E-07 5.10567E-19 3.09721E-19
 -1      3912 9.59910E-05-3.62761E-05-2.55931E-05 1.67335E-05-1.44078E-20 3.69996E-19
 -1      3913 9.47976E-05-2.78145E-05-2.87066E-05-5.84094E-07-3.98752E-19-2.11457E-19
 -1      3914 9.48980E-05-2.79570E-05-2.86912E-05-5.18554E-07-5.76491E-20-3.83633E-19
 -1      3915 9.50141E-05-2.80959E-05-2.86785E-05-4.76756E-07 1.58196E-20-1.91750E-19
 -1      3916 9.50950E-05-2.82155E-05-2.86643E-05-4.32509E-07 2.84073E-19-8.45705E-20
 -1      3917 9.49142E-05-2.79809E-05-2.86842E-05-4.20180E-07-3.20039E-21 8.54562E-20
 -1      3918 9.41724E-05-2.70684E-05-2.87593E-05-9.22306E-07-5.84865E-20-2.34449E-18
 -1      3919 9.43403E-05-2.72758E-05-2.87455E-05-8.08415E-07-1.37612E-19-1.78690E-18
 -1      3920 9.37155E-05-2.65752E-05-2.87756E-05-1.15543E-06-1.07695E-19-2.72811E-18
 -1      3921 9.39361E-05-2.68259E-05-2.87660E-05-1.01617E-06-2.44921E-19-2.68303E-18
 -1      3922 9.39175E-05-2.68302E-05-2.87469E-05-7.91000E-07-7.63450E-20-2.80159E-18
 -1      3923 9.31207E-05-2.59819E-05-2.87761E-05-1.42757E-06-9.36226E-20-2.49631E-18
 -1      3924 9.34112E-05-2.62834E-05-2.87745E-05-1.26439E-06-6.59551E-20-2.53295E-18
 -1      3925 9.33842E-05-2.62851E-05-2.87503E-05-9.69630E-07-3.32899E-19-2.89693E-18
 -1      3926 9.23475E-05-2.52741E-05-2.87498E-05-1.72955E-06-7.12992E-20-2.19572E-18
 -1      3927 9.27294E-05-2.56334E-05-2.87621E-05-1.54667E-06-2.76650E-19-2.19084E-18
 -1      3928 9.26984E-05-2.56365E-05-2.87320E-05-1.16384E-06-2.72764E-19-1.96425E-18
 -1      3929 9.13461E-05-2.44399E-05-2.86805E-05-2.04490E-06 5.14950E-19-2.27407E-18
 -1      3930 9.18462E-05-2.48628E-05-2.87152E-05-1.85010E-06 2.07146E-19-2.52583E-18
 -1      3931 9.18190E-05-2.48733E-05-2.86794E-05-1.35668E-06-1.34490E-20-2.65459E-18
 -1      3932 9.00545E-05-2.34725E-05-2.85449E-05-2.34856E-06 7.19004E-20-5.18461E-19
 -1      3933 9.07064E-05-2.39619E-05-2.86146E-05-2.15354E-06 4.01012E-19-1.42881E-18
 -1      3934 9.06960E-05-2.39878E-05-2.85738E-05-1.52153E-06-1.34386E-19-1.87317E-18
 -1      3935 8.83954E-05-2.23737E-05-2.83091E-05-2.60780E-06 4.73430E-19-3.29517E-19
 -1      3936 8.92410E-05-2.29278E-05-2.84321E-05-2.42704E-06 3.52440E-19-2.57767E-19
 -1      3937 8.92676E-05-2.29787E-05-2.83890E-05-1.62037E-06-2.20137E-19 9.92989E-20
 -1      3938 8.62690E-05-2.11570E-05-2.79248E-05-2.78734E-06 5.06550E-19 2.87025E-19
 -1      3939 8.73613E-05-2.17673E-05-2.81276E-05-2.63412E-06 5.00852E-19-4.85518E-19
 -1      3940 8.74546E-05-2.18523E-05-2.80879E-05-1.60358E-06 4.84455E-19-3.18720E-19
 -1      3941 8.35403E-05-1.98526E-05-2.73215E-05-2.86304E-06-8.74979E-20 1.09222E-18
 -1      3942 8.49488E-05-2.05006E-05-2.76425E-05-2.74021E-06 2.83138E-19 5.02001E-19
 -1      3943 8.51498E-05-2.06234E-05-2.76170E-05-1.41352E-06 2.16574E-19 1.79104E-19
 -1      3944 8.00141E-05-1.85080E-05-2.63954E-05-2.84455E-06 4.73164E-20 9.11297E-19
 -1      3945 8.18376E-05-1.91664E-05-2.68913E-05-2.72801E-06 2.88006E-19 1.48456E-18
 -1      3946 8.22004E-05-1.93167E-05-2.68981E-05-9.95197E-07 1.47662E-19 9.79824E-19
 -1      3947 7.53546E-05-1.71595E-05-2.49854E-05-2.81099E-06-6.87547E-19 6.17638E-19
 -1      3948 7.77611E-05-1.78080E-05-2.57456E-05-2.62062E-06-1.60341E-19 7.72050E-19
 -1      3949 7.83714E-05-1.79441E-05-2.58150E-05-2.95040E-07-1.30133E-19 5.76148E-19
 -1      3950 6.91968E-05-1.59231E-05-2.28430E-05-2.94969E-06-1.44148E-18 1.50627E-18
 -1      3951 7.22909E-05-1.64992E-05-2.39904E-05-2.58384E-06-8.99288E-19 1.19940E-18
 -1      3952 7.32311E-05-1.64676E-05-2.41730E-05 6.49351E-07-1.10402E-18 1.23909E-18
 -1      3953 9.66160E-05-2.74144E-05-2.96539E-05-7.00459E-09-3.81030E-19-1.74652E-18
 -1      3954 9.66998E-05-2.78827E-05-2.94977E-05 1.82785E-07-4.13767E-19-1.58036E-18
 -1      3955 9.51915E-05-2.83330E-05-2.86528E-05-4.06466E-07-6.42980E-20 1.92835E-21
 -1      3956 9.52599E-05-2.84347E-05-2.86406E-05-3.81184E-07-2.17677E-19-3.54810E-19
 -1      3957 9.53033E-05-2.84755E-05-2.86403E-05-3.19499E-07 2.25600E-19 5.47054E-19
 -1      3958 9.59065E-05-2.91240E-05-2.86198E-05-4.67291E-07-1.50526E-19-2.59496E-19
 -1      3959 9.59754E-05-2.91709E-05-2.86300E-05-4.97613E-07 3.39279E-20-3.78759E-19
 -1      3960 9.60251E-05-2.91535E-05-2.86584E-05-7.92742E-07 4.95238E-19-8.23192E-19
 -1      3961 9.60796E-05-2.91408E-05-2.86867E-05-8.20408E-07 6.10258E-19-9.06107E-19
 -1      3962 9.62828E-05-2.91874E-05-2.87571E-05-7.40456E-07 5.11212E-19-1.39061E-18
 -1      3963 9.61366E-05-2.92145E-05-2.86828E-05-6.96762E-07 4.57478E-19-1.06564E-18
 -1      3964 9.61929E-05-2.61149E-05-3.00352E-05-4.52011E-07-4.24609E-19-1.96262E-18
 -1      3965 9.64067E-05-2.68086E-05-2.98350E-05-1.49872E-07-4.05005E-19-1.83455E-18
 -1      3966 9.65437E-05-2.69949E-05-2.98084E-05-7.97670E-08-2.88183E-19-2.06653E-18
 -1      3967 9.54840E-05-2.87127E-05-2.86152E-05-3.61276E-07 2.00582E-19 3.71096E-19
 -1      3968 9.55432E-05-2.87903E-05-2.86089E-05-3.66714E-07 2.38503E-20 7.45915E-19
 -1      3969 9.54642E-05-2.86732E-05-2.86250E-05-3.07245E-07 4.20242E-19 9.56393E-19
 -1      3970 6.87847E-05-1.70660E-05-2.22009E-05 7.51484E-06-1.17143E-18-4.27242E-19
 -1      3971 6.45853E-05-1.46644E-05-2.11545E-05 1.52811E-06-1.28843E-18 7.20456E-19
 -1      3972 9.55772E-05-2.43532E-05-3.05069E-05-2.41892E-07-3.93090E-19-2.20529E-18
 -1      3973 9.50659E-05-2.33999E-05-3.07265E-05-4.71032E-07-4.06364E-19-2.14805E-18
 -1      3974 6.33144E-05-1.48591E-05-2.07524E-05-3.57844E-06-1.12536E-18 1.26512E-18
 -1      3975 9.45242E-05-2.74766E-05-2.87346E-05-7.31867E-07-6.27174E-19-1.43907E-18
 -1      3976 9.46529E-05-2.76481E-05-2.87192E-05-6.42922E-07-5.78487E-19-1.13072E-18
 -1      3977 9.46567E-05-2.76643E-05-2.87087E-05-5.13597E-07-1.87290E-19-6.79891E-19
 -1      3978 9.67746E-05-2.82719E-05-2.93554E-05 2.79548E-07-4.63600E-19-1.57035E-18
 -1      3979 9.67843E-05-2.85743E-05-2.92353E-05 3.92940E-07-4.98186E-19-1.41788E-18
 -1      3980 9.67989E-05-2.80042E-05-2.94825E-05 1.62081E-07-4.10214E-19-1.69472E-18
 -1      3981 9.63528E-05-2.87240E-05-2.89858E-05-7.36408E-07 1.87368E-19-1.34429E-18
 -1      3982 9.63828E-05-2.85265E-05-2.90767E-05-6.25858E-07 2.98885E-19-1.21666E-18
 -1      3983 9.65131E-05-2.88076E-05-2.90183E-05-6.59245E-07 2.92114E-19-1.49426E-18
 -1      3984 9.65018E-05-3.51343E-05-2.62585E-05 1.42762E-05 6.31472E-19 1.90967E-19
 -1      3985 8.96843E-05-3.14959E-05-2.48978E-05 1.74513E-05 8.03996E-19-4.46495E-19
 -1      3986 8.51837E-05-2.77140E-05-2.47075E-05 1.56459E-05 5.49288E-19-5.78920E-19
 -1      3987 9.40833E-05-3.25843E-05-2.63655E-05 1.33022E-05 1.33077E-18 1.47770E-19
 -1      3988 9.60622E-05-2.92143E-05-2.86479E-05-5.26270E-07 2.39973E-20-7.65673E-19
 -1      3989 9.61370E-05-2.92441E-05-2.86672E-05-5.54814E-07 6.91311E-21-7.78879E-19
 -1      3990 9.61012E-05-2.92358E-05-2.86589E-05-4.30534E-07-2.35081E-19-3.55775E-19
 -1      3991 9.49109E-05-2.30926E-05-3.07784E-05-9.38714E-07-6.35036E-19-2.28443E-18
 -1      3992 9.68683E-05-2.86696E-05-2.92283E-05 3.14253E-07-4.62340E-19-1.61420E-18
 -1      3993 9.56201E-05-2.88689E-05-2.86065E-05-3.78251E-07-1.73907E-19 7.81399E-19
 -1      3994 9.56802E-05-2.89371E-05-2.86045E-05-3.95222E-07-2.22699E-19 5.79315E-19
 -1      3995 9.56179E-05-2.88474E-05-2.86167E-05-3.16134E-07-9.20696E-20 8.70631E-19
 -1      3996 9.51244E-05-2.82477E-05-2.86607E-05-3.56211E-07 1.02757E-19-2.42862E-19
 -1      3997 9.65395E-05-2.83471E-05-2.92264E-05-4.62583E-07 4.31952E-19-1.26778E-18
 -1      3998 9.65880E-05-2.77692E-05-2.94991E-05-1.73169E-07 3.46282E-19-1.47453E-18
 -1      3999 9.65049E-05-2.72889E-05-2.96587E-05 6.03387E-08 3.39573E-19-1.43056E-18
 -1      4000 9.58232E-05-2.90653E-05-2.86105E-05-4.40844E-07-1.53403E-19 1.10200E-20
 -1      4001 9.59338E-05-2.91325E-05-2.86305E-05-3.82225E-07-2.09080E-19 8.34383E-20
 -1      4002 9.57595E-05-2.90065E-05-2.86071E-05-4.15283E-07-1.28408E-19 3.21361E-19
 -1      4003 9.58349E-05-2.51775E-05-3.02846E-05-5.87177E-07-5.01035E-19-2.08341E-18
 -1      4004 9.59811E-05-2.54300E-05-3.02365E-05-3.92139E-07-3.53160E-19-2.19963E-18
 -1      4005 9.59658E-05-2.53095E-05-3.02904E-05-5.96558E-08-2.86824E-19-2.24793E-18
 -1      4006 9.59774E-05-2.53639E-05-3.02713E-05-2.58165E-07-3.28246E-19-2.19667E-18
 -1      4007 9.63520E-05-2.62430E-05-3.00335E-05-1.73574E-07-2.32413E-19-2.22321E-18
 -1      4008 9.43322E-05-2.72853E-05-2.87310E-05-6.37530E-07-4.66158E-20-1.72392E-18
 -1      4009 7.23688E-05-1.88060E-05-2.27985E-05 1.09668E-05-1.28781E-18-2.34002E-18
 -1      4010 7.19215E-05-1.71668E-05-2.35814E-05 4.73915E-06-1.93867E-18 5.04345E-19
 -1      4011 7.51258E-05-1.78131E-05-2.45876E-05 3.86191E-06-1.35274E-18-5.55435E-20
 -1      4012 7.71163E-05-2.12933E-05-2.39153E-05 1.17005E-05-1.00959E-18-2.34566E-18
 -1      4013 9.59830E-05-2.53710E-05-3.02681E-05 2.81422E-07-3.35655E-20-2.23982E-18
 -1      4014 9.59684E-05-2.53178E-05-3.02876E-05 8.24356E-08-1.96281E-19-2.40338E-18
 -1      4015 9.63782E-05-2.61886E-05-3.00631E-05 2.89252E-08-7.62781E-20-2.16271E-18
 -1      4016 9.64310E-05-2.68178E-05-2.98336E-05 1.68031E-07 3.14648E-19-1.59598E-18
 -1      4017 9.62908E-05-2.66684E-05-2.98461E-05 2.67662E-07 3.33306E-19-1.54761E-18
 -1      4018 9.65366E-05-2.91550E-05-2.88780E-05-6.35602E-07 6.69719E-20-1.59024E-18
 -1      4019 9.65979E-05-2.90567E-05-2.89439E-05-6.11211E-07 1.50964E-19-1.59312E-18
 -1      4020 9.07673E-05-3.00123E-05-2.60148E-05 1.36578E-05 1.36757E-18 7.21632E-20
 -1      4021 9.66455E-05-2.89163E-05-2.90280E-05-5.85938E-07 2.91515E-19-1.52734E-18
 -1      4022 9.66814E-05-2.87308E-05-2.91188E-05-5.12895E-07 4.25480E-19-1.49954E-18
 -1      4023 9.67413E-05-2.89946E-05-2.90359E-05-4.85774E-07 1.86635E-19-1.31851E-18
 -1      4024 9.61157E-05-2.60703E-05-3.00131E-05 5.83589E-07 3.24806E-19-1.63265E-18
 -1      4025 9.67832E-05-2.92604E-05-2.89372E-05 2.77663E-07-3.91348E-20-8.82428E-19
 -1      4026 9.67036E-05-2.93258E-05-2.88751E-05 2.88984E-07-2.01212E-19-7.71646E-19
 -1      4027 9.66109E-05-2.93615E-05-2.88201E-05 2.76431E-07-4.60175E-19-8.51540E-19
 -1      4028 9.65172E-05-2.93712E-05-2.87760E-05 2.72876E-07-4.70447E-19-1.11500E-18
 -1      4029 9.67013E-05-2.93585E-05-2.88642E-05 1.57314E-07-3.39102E-19-8.71689E-19
 -1      4030 9.64166E-05-2.93598E-05-2.87376E-05 2.62753E-07-3.23537E-19-1.06157E-18
 -1      4031 9.63234E-05-2.93350E-05-2.87077E-05 2.52921E-07-1.40392E-19-8.20713E-19
 -1      4032 9.65020E-05-2.93804E-05-2.87691E-05 1.50070E-07-3.38925E-19-8.21539E-19
 -1      4033 9.62208E-05-2.92943E-05-2.86821E-05 2.36317E-07-2.08114E-19-7.82301E-19
 -1      4034 9.61282E-05-2.92441E-05-2.86633E-05 2.23896E-07-1.98178E-19-1.07136E-18
 -1      4035 9.63089E-05-2.93372E-05-2.87052E-05 1.33310E-07-2.33504E-19-8.87593E-19
 -1      4036 9.60294E-05-2.91827E-05-2.86480E-05 2.10735E-07-2.58625E-19-1.36610E-18
 -1      4037 9.59405E-05-2.91160E-05-2.86379E-05 1.99160E-07-2.17794E-20-1.61493E-18
 -1      4038 9.61072E-05-2.92321E-05-2.86637E-05 1.20060E-07-3.03576E-19-1.08514E-18
 -1      4039 9.58459E-05-2.90412E-05-2.86303E-05 1.88384E-07-1.38315E-19-1.96240E-18
 -1      4040 9.57603E-05-2.89624E-05-2.86269E-05 1.79578E-07-6.53046E-19-2.00140E-18
 -1      4041 9.59166E-05-2.90932E-05-2.86404E-05 1.08715E-07-4.30450E-19-1.67808E-18
 -1      4042 9.56689E-05-2.88761E-05-2.86254E-05 1.74239E-07-7.07107E-19-1.59292E-18
 -1      4043 9.55862E-05-2.87876E-05-2.86271E-05 1.71139E-07-4.24829E-19-1.40593E-18
 -1      4044 9.57296E-05-2.89272E-05-2.86307E-05 1.00046E-07-3.86770E-19-1.46530E-18
 -1      4045 9.54933E-05-2.86907E-05-2.86301E-05 1.68262E-07-3.57930E-20-1.22943E-18
 -1      4046 9.54084E-05-2.85906E-05-2.86355E-05 1.72569E-07 5.04594E-19-1.17142E-18
 -1      4047 9.55502E-05-2.87427E-05-2.86323E-05 9.52181E-08 2.08370E-19-9.92308E-19
 -1      4048 9.53103E-05-2.84812E-05-2.86418E-05 1.75930E-07 7.45011E-19-1.12123E-18
 -1      4049 9.52188E-05-2.83679E-05-2.86499E-05 1.89469E-07 7.10529E-19-1.02786E-18
 -1      4050 9.53616E-05-2.85311E-05-2.86414E-05 9.95777E-08 5.56929E-19-1.35084E-18
 -1      4051 9.51096E-05-2.82434E-05-2.86582E-05 1.99997E-07 3.93675E-19-8.46780E-19
 -1      4052 9.50062E-05-2.81138E-05-2.86678E-05 2.24937E-07 4.07875E-19-9.34942E-19
 -1      4053 9.51579E-05-2.82910E-05-2.86559E-05 1.13913E-07 6.10985E-19-9.53578E-19
 -1      4054 9.48790E-05-2.79706E-05-2.86770E-05 2.44646E-07 5.82891E-19-9.74956E-19
 -1      4055 9.47576E-05-2.78213E-05-2.86868E-05 2.83732E-07 7.14611E-19-7.02015E-19
 -1      4056 9.49258E-05-2.80156E-05-2.86733E-05 1.41321E-07 4.26738E-19-1.13636E-18
 -1      4057 9.46047E-05-2.76554E-05-2.86953E-05 3.15545E-07 6.29354E-19-9.94707E-19
 -1      4058 9.44590E-05-2.74832E-05-2.87038E-05 3.72389E-07 5.30235E-19-5.96865E-19
 -1      4059 9.46511E-05-2.76969E-05-2.86907E-05 1.86391E-07 5.69412E-19-1.36763E-18
 -1      4060 9.42721E-05-2.72914E-05-2.87096E-05 4.20509E-07 9.10534E-19-2.43526E-19
 -1      4061 9.40959E-05-2.70943E-05-2.87148E-05 4.99951E-07 1.10049E-18 1.77294E-19
 -1      4062 9.43178E-05-2.73269E-05-2.87048E-05 2.55716E-07 8.61692E-19-1.60663E-18
 -1      4063 9.38662E-05-2.68745E-05-2.87155E-05 5.70410E-07 3.45802E-19 3.41922E-20
 -1      4064 9.36543E-05-2.66525E-05-2.87147E-05 6.79014E-07 3.52770E-20-2.24864E-19
 -1      4065 9.39092E-05-2.68994E-05-2.87110E-05 3.58898E-07 6.21225E-19-1.58792E-18
 -1      4066 9.33734E-05-2.64054E-05-2.87068E-05 7.80417E-07 2.24711E-19-6.82959E-19
 -1      4067 9.31222E-05-2.61621E-05-2.86963E-05 9.27145E-07-1.41372E-19-4.53962E-19
 -1      4068 9.34083E-05-2.64116E-05-2.87033E-05 5.09902E-07-2.32986E-19-1.47241E-18
 -1      4069 9.27825E-05-2.58921E-05-2.86753E-05 1.07166E-06-6.27922E-19 8.69694E-20
 -1      4070 9.24921E-05-2.56367E-05-2.86504E-05 1.26877E-06-6.27734E-19 1.15075E-19
 -1      4071 9.27996E-05-2.58668E-05-2.86736E-05 7.28903E-07 8.11022E-20-1.61416E-18
 -1      4072 9.20880E-05-2.53541E-05-2.86104E-05 1.47344E-06-8.35363E-19 1.58877E-19
 -1      4073 9.17641E-05-2.51036E-05-2.85652E-05 1.73769E-06-6.13774E-19-1.19261E-19
 -1      4074 9.20701E-05-2.52771E-05-2.86112E-05 1.04476E-06-5.20396E-19-5.35436E-19
 -1      4075 9.12935E-05-2.48271E-05-2.84985E-05 2.02614E-06-1.02712E-19-3.82419E-19
 -1      4076 9.09507E-05-2.46092E-05-2.84258E-05 2.38028E-06 2.03089E-20-6.67290E-20
 -1      4077 9.12126E-05-2.46681E-05-2.85022E-05 1.49833E-06-2.69892E-19-1.18254E-18
 -1      4078 9.04167E-05-2.43682E-05-2.83228E-05 2.78491E-06-3.73771E-19 5.61804E-19
 -1      4079 9.00826E-05-2.42253E-05-2.82141E-05 3.25951E-06-6.16746E-20 3.73919E-19
 -1      4080 9.02288E-05-2.40832E-05-2.83287E-05 2.14672E-06 2.68836E-20-5.86444E-19
 -1      4081 8.94966E-05-2.40637E-05-2.80631E-05 3.82430E-06 3.74868E-19-2.44204E-19
 -1      4082 8.92187E-05-2.40576E-05-2.79093E-05 4.45961E-06 7.43276E-20 5.45753E-20
 -1      4083 8.91339E-05-2.35901E-05-2.80686E-05 3.06896E-06-3.91003E-19-6.40852E-19
 -1      4084 8.86041E-05-2.40383E-05-2.76966E-05 5.24402E-06-7.70238E-19-2.65648E-19
 -1      4085 8.84616E-05-2.42578E-05-2.74893E-05 6.09063E-06-1.14732E-18 7.27598E-20
 -1      4086 8.79627E-05-2.32881E-05-2.76950E-05 4.37341E-06-4.43318E-19-1.70952E-18
 -1      4087 8.78661E-05-2.44760E-05-2.71997E-05 7.17355E-06-1.52841E-18 1.72537E-20
 -1      4088 8.79661E-05-2.50466E-05-2.69329E-05 8.29586E-06-1.66291E-18-4.16955E-19
 -1      4089 8.67800E-05-2.33225E-05-2.71762E-05 6.20857E-06-1.43395E-18-1.42697E-18
 -1      4090 8.74443E-05-2.55614E-05-2.65535E-05 9.70588E-06-9.71676E-19 3.27586E-19
 -1      4091 8.79032E-05-2.66850E-05-2.62221E-05 1.12801E-05 3.79682E-19 7.53072E-19
 -1      4092 8.57849E-05-2.39841E-05-2.64800E-05 8.73995E-06-4.40576E-19-1.73595E-19
 -1      4093 9.23478E-05-2.54009E-05-2.86980E-05-8.35036E-07-4.26000E-19-1.86998E-18
 -1      4094 9.27422E-05-2.57488E-05-2.87158E-05-7.59169E-07-5.81697E-19-1.98573E-18
 -1      4095 9.48244E-05-2.78841E-05-2.86891E-05-3.39516E-07 1.16435E-19-4.28579E-20
 -1      4096 9.49414E-05-2.80315E-05-2.86772E-05-3.03567E-07 2.06696E-19 1.85604E-19
 -1      4097 9.31050E-05-2.60765E-05-2.87309E-05-7.28626E-07-6.98023E-19-2.05041E-18
 -1      4098 9.34117E-05-2.63727E-05-2.87348E-05-6.51085E-07-3.96717E-19-2.49035E-18
 -1      4099 9.28300E-05-2.58326E-05-2.87016E-05-4.17105E-07-6.57982E-19-1.68409E-18
 -1      4100 9.36998E-05-2.66516E-05-2.87378E-05-6.13936E-07 3.36258E-19-2.17591E-18
 -1      4101 9.39379E-05-2.69013E-05-2.87331E-05-5.42455E-07 4.49825E-19-1.82499E-18
 -1      4102 9.34763E-05-2.64384E-05-2.87215E-05-3.84361E-07 1.28414E-19-1.63184E-18
 -1      4103 9.13880E-05-2.46183E-05-2.86250E-05-9.09171E-07 6.27097E-19-2.15549E-18
 -1      4104 9.18934E-05-2.50213E-05-2.86644E-05-8.47373E-07-5.64618E-20-2.31570E-18
 -1      4105 9.20184E-05-2.51331E-05-2.86505E-05-4.12684E-07 5.74795E-20-2.01232E-18
 -1      4106 9.01778E-05-2.37282E-05-2.84919E-05-9.15232E-07-1.01611E-18-8.43567E-19
 -1      4107 9.08229E-05-2.41867E-05-2.85638E-05-8.85796E-07 1.65390E-19-1.25506E-18
 -1      4108 9.10058E-05-2.43402E-05-2.85529E-05-3.38365E-07-3.27377E-19-1.88985E-18
 -1      4109 8.86585E-05-2.27379E-05-2.82709E-05-8.03003E-07 1.19550E-19-1.40883E-18
 -1      4110 8.94797E-05-2.32484E-05-2.83907E-05-8.31012E-07-6.20006E-19-1.30694E-18
 -1      4111 8.97511E-05-2.34622E-05-2.83875E-05-1.46587E-07-7.12540E-19-2.45309E-18
 -1      4112 8.67548E-05-2.16645E-05-2.79229E-05-5.06057E-07 8.04441E-19-9.91859E-19
 -1      4113 8.78002E-05-2.22193E-05-2.81124E-05-6.23354E-07 8.51662E-19-7.37924E-19
 -1      4114 8.82058E-05-2.25182E-05-2.81251E-05 2.29319E-07 2.69988E-19-2.79318E-18
 -1      4115 8.43618E-05-2.05346E-05-2.73927E-05 5.82226E-08-2.30309E-19-9.63252E-22
 -1      4116 8.56998E-05-2.11221E-05-2.76833E-05-1.84864E-07 1.57886E-19-2.34636E-19
 -1      4117 8.63079E-05-2.15394E-05-2.77257E-05 8.80417E-07-1.37696E-19-1.26602E-18
 -1      4118 8.13223E-05-1.93783E-05-2.65992E-05 9.86746E-07 7.55456E-20 9.47138E-19
 -1      4119 8.30530E-05-1.99851E-05-2.70375E-05 5.80658E-07 4.58219E-20 6.76118E-19
 -1      4120 8.39707E-05-2.05679E-05-2.71332E-05 1.93010E-06-2.87040E-19-3.63482E-19
 -1      4121 7.73588E-05-1.82315E-05-2.54215E-05 2.40815E-06-4.13547E-19 7.36763E-19
 -1      4122 7.96798E-05-1.88790E-05-2.60758E-05 1.77098E-06 2.35695E-19 1.06303E-18
 -1      4123 8.10434E-05-1.96427E-05-2.62640E-05 3.52834E-06 8.62638E-20 8.24908E-19
 -1      4124 9.50617E-05-2.81720E-05-2.86670E-05-2.86465E-07 3.42887E-19-1.44193E-19
 -1      4125 9.51589E-05-2.82973E-05-2.86560E-05-2.62858E-07 4.14986E-19 2.50272E-19
 -1      4126 9.49832E-05-2.80773E-05-2.86720E-05-2.06166E-07 1.64563E-19-4.96745E-20
 -1      4127 9.54165E-05-2.41434E-05-3.05394E-05-9.24413E-07-6.38930E-19-2.16483E-18
 -1      4128 9.52621E-05-2.84177E-05-2.86472E-05-2.53527E-07 3.82804E-19 3.63111E-19
 -1      4129 9.53470E-05-2.85259E-05-2.86383E-05-2.41283E-07 4.62173E-19 6.57537E-19
 -1      4130 9.52045E-05-2.83448E-05-2.86534E-05-1.83006E-07 5.71741E-19 8.89224E-20
 -1      4131 9.65772E-05-2.69451E-05-2.98450E-05-2.98550E-08-2.84459E-19-2.16304E-18
 -1      4132 9.66796E-05-2.84793E-05-2.92311E-05-4.47313E-07 4.44427E-19-1.49408E-18
 -1      4133 9.66675E-05-2.81682E-05-2.93530E-05-3.02923E-07 4.32729E-19-1.44734E-18
 -1      4134 9.67064E-05-2.78723E-05-2.94992E-05-1.66722E-07 3.33043E-19-1.36728E-18
 -1      4135 8.64984E-05-2.73646E-05-2.53378E-05 1.38689E-05 1.34577E-18 1.06775E-18
 -1      4136 8.15747E-05-2.41337E-05-2.44820E-05 1.38513E-05-1.20735E-20-1.05498E-18
 -1      4137 7.84859E-05-2.14118E-05-2.45713E-05 1.03862E-05-3.97255E-19-1.52577E-18
 -1      4138 8.67924E-05-2.68356E-05-2.57627E-05 1.24902E-05 1.08528E-18 9.70579E-19
 -1      4139 9.68223E-05-2.77922E-05-2.95825E-05 4.82767E-08-2.09569E-19-1.97445E-18
 -1      4140 9.68915E-05-2.82038E-05-2.94402E-05 1.66524E-07-3.27529E-19-1.88442E-18
 -1      4141 9.57908E-05-2.52906E-05-3.02201E-05 8.53245E-07 2.73884E-19-1.73805E-18
 -1      4142 9.54404E-05-2.86310E-05-2.86319E-05-2.39378E-07 1.81997E-19 7.23688E-19
 -1      4143 9.55192E-05-2.87256E-05-2.86260E-05-2.37321E-07 3.87977E-19 5.91853E-19
 -1      4144 9.53990E-05-2.85763E-05-2.86385E-05-1.71589E-07 3.59099E-19 3.88758E-20
 -1      4145 9.64612E-05-2.92183E-05-2.88167E-05-6.32542E-07 1.52098E-19-1.68064E-18
 -1      4146 9.66184E-05-2.92176E-05-2.88879E-05-5.20608E-07 2.03598E-19-1.43335E-18
 -1      4147 9.63889E-05-2.92563E-05-2.87704E-05-6.26776E-07 4.31779E-19-1.33402E-18
 -1      4148 9.69403E-05-2.85465E-05-2.93096E-05 1.83358E-07-3.50304E-19-1.68931E-18
 -1      4149 9.69364E-05-2.88084E-05-2.91976E-05 2.48042E-07-3.78246E-19-1.62877E-18
 -1      4150 9.69482E-05-2.83478E-05-2.94026E-05 9.80702E-08-1.72665E-19-1.88954E-18
 -1      4151 9.58991E-05-2.53667E-05-3.02294E-05 6.45472E-07 2.04633E-19-1.81189E-18
 -1      4152 9.45328E-05-2.75430E-05-2.87109E-05-4.13097E-07-1.73773E-19-6.54775E-19
 -1      4153 9.46785E-05-2.77182E-05-2.86993E-05-3.64343E-07 2.02560E-19-4.86114E-20
 -1      4154 9.47194E-05-2.77640E-05-2.86919E-05-2.40931E-07 5.12486E-19-9.18008E-20
 -1      4155 9.41661E-05-2.71364E-05-2.87288E-05-5.05932E-07 2.69434E-19-1.30617E-18
 -1      4156 9.43515E-05-2.73456E-05-2.87193E-05-4.44830E-07-8.16618E-20-1.09306E-18
 -1      4157 9.43949E-05-2.73940E-05-2.87098E-05-2.85592E-07 2.38530E-19-6.48683E-19
 -1      4158 9.39887E-05-2.69558E-05-2.87216E-05-3.36026E-07 8.09838E-19-9.85158E-19
 -1      4159 9.69061E-05-2.90105E-05-2.90971E-05 2.50849E-07-1.73786E-19-1.34981E-18
 -1      4160 9.68544E-05-2.91568E-05-2.90125E-05 2.83694E-07 3.93971E-22-1.00404E-18
 -1      4161 9.68616E-05-2.92147E-05-2.89954E-05 1.52485E-07-2.17467E-20-1.08045E-18
 -1      4162 9.69613E-05-2.89003E-05-2.91722E-05 1.32771E-07-6.37902E-20-1.49096E-18
 -1      4163 9.66641E-05-2.71684E-05-2.97885E-05-1.25150E-08-1.79417E-19-2.10930E-18
 -1      4164 8.41037E-05-2.41747E-05-2.56023E-05 1.12480E-05 6.75335E-19 8.25169E-19
 -1      4165 9.55793E-05-2.87791E-05-2.86291E-05-1.70777E-07 2.38840E-19 4.42950E-19
 -1      4166 9.56074E-05-2.88183E-05-2.86232E-05-2.41918E-07 1.13937E-19 4.41767E-19
 -1      4167 9.56848E-05-2.89018E-05-2.86214E-05-2.48709E-07-2.04104E-19 4.09717E-19
 -1      4168 9.57725E-05-2.90006E-05-2.86176E-05-3.42644E-07-5.88512E-19 3.85110E-19
 -1      4169 7.72809E-05-1.88274E-05-2.49290E-05 6.10823E-06-4.41259E-19-7.36075E-19
 -1      4170 9.62844E-05-2.93049E-05-2.87079E-05-4.78482E-07-1.24153E-19-7.57072E-19
 -1      4171 9.62270E-05-2.92671E-05-2.86961E-05-5.86204E-07 2.09023E-19-1.19698E-18
 -1      4172 9.63007E-05-2.92684E-05-2.87272E-05-6.08717E-07 4.73131E-19-1.15101E-18
 -1      4173 9.59215E-05-2.53497E-05-3.02535E-05 4.61475E-07 9.37490E-20-1.94067E-18
 -1      4174 9.59462E-05-2.91280E-05-2.86351E-05-2.86555E-07-4.12592E-19 5.93787E-19
 -1      4175 9.60299E-05-2.91890E-05-2.86455E-05-3.03492E-07-5.17222E-19 2.52242E-19
 -1      4176 9.62896E-05-2.61491E-05-3.00494E-05 2.71985E-07 9.74406E-20-1.88159E-18
 -1      4177 9.65134E-05-2.68644E-05-2.98568E-05 5.48054E-08 1.57680E-19-1.80504E-18
 -1      4178 9.67905E-05-2.85754E-05-2.92360E-05-3.79788E-07 3.81831E-19-1.40559E-18
 -1      4179 9.66782E-05-2.71811E-05-2.97914E-05-2.01665E-08-9.92183E-20-1.98063E-18
 -1      4180 9.69239E-05-2.79780E-05-2.95379E-05 6.31254E-09-8.18319E-20-1.87959E-18
 -1      4181 9.66635E-05-2.71661E-05-2.97892E-05 1.80645E-08 1.15553E-20-1.84665E-18
 -1      4182 9.66752E-05-2.92846E-05-2.88813E-05-4.04554E-07 2.63756E-19-1.12747E-18
 -1      4183 9.67522E-05-2.92085E-05-2.89450E-05-3.89977E-07 3.16245E-19-1.07468E-18
 -1      4184 9.68644E-05-2.81368E-05-2.94547E-05-1.82558E-07 2.12246E-19-1.50827E-18
 -1      4185 9.67978E-05-2.77180E-05-2.96009E-05-3.63472E-08 1.90597E-19-1.56289E-18
 -1      4186 9.68490E-05-2.91590E-05-2.90140E-05-2.72024E-07 3.73370E-19-7.32579E-19
 -1      4187 9.68130E-05-2.90927E-05-2.90234E-05-3.90133E-07 2.11475E-19-9.40866E-19
 -1      4188 9.68661E-05-2.89347E-05-2.91110E-05-3.46767E-07 2.41717E-19-1.08070E-18
 -1      4189 9.61236E-05-2.92449E-05-2.86655E-05-2.21660E-07-6.43044E-19 3.09192E-19
 -1      4190 9.61277E-05-2.92466E-05-2.86619E-05-3.21942E-07-4.92315E-19-3.62026E-21
 -1      4191 9.62201E-05-2.92929E-05-2.86813E-05-3.42132E-07-4.46833E-19-3.06462E-19
 -1      4192 9.27293E-05-2.58247E-05-2.86837E-05 1.12612E-07-7.35372E-20-1.51685E-18
 -1      4193 9.30921E-05-2.61345E-05-2.87007E-05 9.76312E-08-4.47422E-19-1.06407E-18
 -1      4194 9.65818E-05-2.93970E-05-2.87918E-05 3.22100E-08-2.93923E-19-5.70656E-19
 -1      4195 9.64844E-05-2.93915E-05-2.87515E-05 2.67857E-08 4.85540E-21-3.71266E-19
 -1      4196 9.63332E-05-2.93429E-05-2.87093E-05-5.03311E-08-3.83947E-19-6.30546E-19
 -1      4197 9.62343E-05-2.92985E-05-2.86846E-05-4.88516E-08-4.62192E-19-4.98636E-19
 -1      4198 9.61378E-05-2.92439E-05-2.86669E-05-4.34438E-08-5.35299E-19-6.05552E-19
 -1      4199 9.60378E-05-2.91805E-05-2.86514E-05-4.46224E-08-5.00693E-19-6.04209E-19
 -1      4200 9.57876E-05-2.89757E-05-2.86329E-05 2.01543E-08 3.75607E-21-1.22486E-18
 -1      4201 9.56957E-05-2.88890E-05-2.86307E-05 1.73205E-08 2.97168E-19-8.77748E-19
 -1      4202 9.55713E-05-2.87636E-05-2.86317E-05-3.75879E-08 1.36415E-19-5.41417E-19
 -1      4203 9.54785E-05-2.86630E-05-2.86349E-05-3.56578E-08 3.84615E-19-5.95924E-19
 -1      4204 9.53840E-05-2.85560E-05-2.86407E-05-3.85634E-08 5.62937E-19-5.58491E-19
 -1      4205 9.52839E-05-2.84417E-05-2.86469E-05-3.45653E-08 6.24280E-19-7.35092E-19
 -1      4206 9.51792E-05-2.83194E-05-2.86551E-05-4.11857E-08 4.72142E-19-7.57074E-19
 -1      4207 9.50674E-05-2.81883E-05-2.86633E-05-3.36287E-08 2.64162E-19-5.32375E-19
 -1      4208 9.49455E-05-2.80468E-05-2.86727E-05-4.38718E-08 3.09696E-19-6.74388E-19
 -1      4209 9.48151E-05-2.78946E-05-2.86816E-05-3.11088E-08 3.82032E-19-1.08342E-18
 -1      4210 9.46676E-05-2.77291E-05-2.86910E-05-4.41706E-08 3.17527E-19-9.80809E-19
 -1      4211 9.45107E-05-2.75513E-05-2.86991E-05-2.38889E-08 7.81637E-19-1.14407E-18
 -1      4212 9.43279E-05-2.73563E-05-2.87064E-05-3.78982E-08 8.80315E-19-1.52237E-18
 -1      4213 9.41358E-05-2.71487E-05-2.87117E-05-6.64063E-09 7.70469E-19-1.43413E-18
 -1      4214 9.39063E-05-2.69192E-05-2.87148E-05-1.81007E-08 7.67642E-19-1.29582E-18
 -1      4215 9.36702E-05-2.66783E-05-2.87146E-05 2.93179E-08 2.89931E-19-1.04115E-18
 -1      4216 9.33813E-05-2.64100E-05-2.87099E-05 2.63412E-08-3.75496E-19-8.89571E-19
 -1      4217 9.23791E-05-2.55165E-05-2.86607E-05 2.19092E-07 3.07254E-19-1.57947E-18
 -1      4218 9.19263E-05-2.51655E-05-2.86249E-05 2.66470E-07 1.11983E-20-1.81893E-18
 -1      4219 9.15087E-05-2.48315E-05-2.85817E-05 4.24504E-07-4.89874E-19-1.63709E-18
 -1      4220 9.09479E-05-2.44434E-05-2.85184E-05 5.25453E-07-5.36280E-19-1.65885E-18
 -1      4221 9.04596E-05-2.40973E-05-2.84468E-05 7.58337E-07 1.55712E-19-1.61746E-18
 -1      4222 8.97703E-05-2.36819E-05-2.83442E-05 9.42909E-07 4.37725E-19-2.65703E-18
 -1      4223 8.92127E-05-2.33468E-05-2.82334E-05 1.28329E-06 1.52747E-20-2.11250E-18
 -1      4224 8.83706E-05-2.29210E-05-2.80755E-05 1.59307E-06-4.17821E-19-1.17462E-18
 -1      4225 8.77524E-05-2.26320E-05-2.79123E-05 2.08608E-06-2.82694E-19-2.27832E-18
 -1      4226 8.67265E-05-2.22208E-05-2.76773E-05 2.57792E-06-6.34429E-19-1.29047E-18
 -1      4227 8.60671E-05-2.20289E-05-2.74452E-05 3.28525E-06-6.89024E-19-1.87361E-18
 -1      4228 8.48138E-05-2.16660E-05-2.71027E-05 4.03811E-06-6.70839E-19-1.36958E-18
 -1      4229 8.41522E-05-2.16465E-05-2.67820E-05 5.05231E-06-8.08617E-19-9.54695E-19
 -1      4230 8.25675E-05-2.13160E-05-2.62847E-05 6.19322E-06-3.00980E-19-3.96492E-19
 -1      4231 8.18422E-05-2.16404E-05-2.58298E-05 7.59027E-06 7.60841E-19 2.06488E-19
 -1      4232 9.57736E-05-2.89833E-05-2.86233E-05-2.58046E-07-4.33222E-19 5.45255E-19
 -1      4233 9.58538E-05-2.90569E-05-2.86268E-05-2.70614E-07-3.56676E-19 5.16661E-19
 -1      4234 9.57538E-05-2.89557E-05-2.86287E-05-1.79020E-07-9.63386E-20 8.59151E-21
 -1      4235 8.03981E-05-2.12885E-05-2.53601E-05 8.39827E-06 6.56740E-19-1.03090E-19
 -1      4236 9.59362E-05-2.91156E-05-2.86400E-05-1.99661E-07-5.88784E-19 4.15820E-19
 -1      4237 9.65903E-05-2.93296E-05-2.88241E-05-3.90930E-07 8.71265E-20-1.03097E-18
 -1      4238 9.67004E-05-2.93303E-05-2.88768E-05-2.81388E-07 1.14476E-19-4.23139E-19
 -1      4239 9.64540E-05-2.93031E-05-2.87811E-05-5.10945E-07 1.16735E-19-1.33790E-18
 -1      4240 9.69699E-05-2.83601E-05-2.94070E-05 1.15038E-08-1.10499E-20-1.83127E-18
 -1      4241 9.68927E-05-2.87358E-05-2.92116E-05-3.03792E-07 1.37977E-19-1.25413E-18
 -1      4242 9.68961E-05-2.84656E-05-2.93278E-05-2.20820E-07 1.09000E-19-1.38973E-18
 -1      4243 9.69439E-05-2.83131E-05-2.94158E-05-9.20234E-08 8.67067E-20-1.43995E-18
 -1      4244 9.69406E-05-2.88295E-05-2.91933E-05-2.01947E-07 1.61828E-19-1.21585E-18
 -1      4245 9.70017E-05-2.86471E-05-2.92892E-05-1.51919E-08 2.31607E-20-1.63648E-18
 -1      4246 9.67337E-05-2.93552E-05-2.88748E-05-5.99986E-08-1.11769E-19-6.39293E-19
 -1      4247 9.66355E-05-2.93854E-05-2.88200E-05-5.61885E-08-2.94759E-19-2.70247E-19
 -1      4248 9.59441E-05-2.91094E-05-2.86421E-05-4.00131E-08-5.00694E-19-6.54918E-19
 -1      4249 9.63709E-05-2.93537E-05-2.87246E-05-1.66130E-07-4.94694E-19-9.31840E-20
 -1      4250 9.68935E-05-2.91996E-05-2.90098E-05-6.08085E-08 1.61740E-19-8.53625E-19
 -1      4251 9.68192E-05-2.92979E-05-2.89346E-05-5.23988E-08 4.56499E-20-7.62111E-19
 -1      4252 9.58476E-05-2.90315E-05-2.86345E-05-4.08797E-08-3.97141E-19-6.27818E-19
 -1      4253 9.65033E-05-2.93468E-05-2.87799E-05-3.85256E-07-3.99947E-20-9.25323E-19
 -1      4254 9.56142E-05-2.88098E-05-2.86309E-05-1.16226E-07 1.06850E-19-4.95015E-19
 -1      4255 9.65767E-05-2.93900E-05-2.87967E-05-1.87645E-07-3.67026E-20-6.59532E-21
 -1      4256 9.69516E-05-2.90641E-05-2.90912E-05-4.39994E-08 2.13201E-19-1.10695E-18
 -1      4257 9.69831E-05-2.88703E-05-2.91909E-05-5.93917E-08 1.18413E-19-1.31377E-18
 -1      4258 9.63738E-05-2.93464E-05-2.87260E-05-2.83587E-07-3.88649E-19-1.67381E-19
 -1      4259 9.64657E-05-2.93599E-05-2.87586E-05-2.95005E-07-2.16049E-19-6.82767E-19
 -1      4260 9.57950E-05-2.89896E-05-2.86318E-05-1.25604E-07-5.58302E-20-1.09704E-19
 -1      4261 9.57018E-05-2.89006E-05-2.86289E-05-1.19694E-07 2.95668E-19-2.33040E-19
 -3
    1PSTEP                         4           1           1          
  100CL  101 1.000000000        4261                     0    1           1
 -4  ERROR       1    1
 -5  STR(%)      1    1    0    0
 -1         1 1.25676E+01
 -1         2 2.41140E+01
 -1         3 2.94271E-01
 -1         4 1.02579E-01
 -1         5 1.40389E+01
 -1         6 1.31431E+01
 -1         7 1.31431E+01
 -1         8 3.66368E+00
 -1         9 1.82404E+00
 -1        10 1.29166E+00
 -1        11 1.04602E+00
 -1        12 8.99342E-01
 -1        13 8.08887E-01
 -1        14 7.53822E-01
 -1        15 7.55781E-01
 -1        16 8.13157E-01
 -1        17 9.00872E-01
 -1        18 1.05268E+00
 -1        19 1.30788E+00
 -1        20 1.83589E+00
 -1        21 3.50547E+00
 -1        22 8.64110E+00
 -1        23 1.31431E+01
 -1        24 4.31756E+00
 -1        25 3.34062E+00
 -1        26 2.11110E+00
 -1        27 1.36219E+00
 -1        28 1.01383E+00
 -1        29 7.74838E-01
 -1        30 5.95039E-01
 -1        31 4.54780E-01
 -1        32 3.47199E-01
 -1        33 2.68299E-01
 -1        34 2.04882E-01
 -1        35 1.54892E-01
 -1        36 1.16351E-01
 -1        37 8.74607E-02
 -1        38 6.66323E-02
 -1        39 5.24990E-02
 -1        40 4.38981E-02
 -1        41 4.21469E-02
 -1        42 4.89607E-02
 -1        43 5.82222E-02
 -1        44 7.06378E-02
 -1        45 9.40393E-02
 -1        46 1.23837E-01
 -1        47 1.59676E-01
 -1        48 2.00210E-01
 -1        49 2.42551E-01
 -1        50 2.81610E-01
 -1        51 3.44981E-01
 -1        52 4.38647E-01
 -1        53 5.51935E-01
 -1        54 6.48364E-01
 -1        55 6.95008E-01
 -1        56 7.46729E-01
 -1        57 8.38862E-01
 -1        58 9.21840E-01
 -1        59 1.29891E+00
 -1        60 1.70744E+00
 -1        61 2.66577E+00
 -1        62 3.41702E+00
 -1        63 3.64302E+00
 -1        64 3.64302E+00
 -1        65 3.45759E+00
 -1        66 3.26385E+00
 -1        67 2.61925E+00
 -1        68 1.81899E+00
 -1        69 1.19260E+00
 -1        70 7.26448E-01
 -1        71 5.05427E-01
 -1        72 1.40389E+01
 -1        73 3.39462E+00
 -1        74 2.41294E+00
 -1        75 1.66569E+00
 -1        76 1.14455E+00
 -1        77 9.05940E-01
 -1        78 7.31250E-01
 -1        79 5.87748E-01
 -1        80 4.68120E-01
 -1        81 3.68527E-01
 -1        82 2.94182E-01
 -1        83 2.32285E-01
 -1        84 1.81162E-01
 -1        85 1.40028E-01
 -1        86 1.07912E-01
 -1        87 8.38220E-02
 -1        88 6.68452E-02
 -1        89 5.62111E-02
 -1        90 5.44366E-02
 -1        91 6.47212E-02
 -1        92 8.09481E-02
 -1        93 1.03457E-01
 -1        94 1.32714E-01
 -1        95 1.69201E-01
 -1        96 2.13232E-01
 -1        97 2.64607E-01
 -1        98 3.52120E-01
 -1        99 4.63643E-01
 -1       100 5.98598E-01
 -1       101 7.53808E-01
 -1       102 9.17890E-01
 -1       103 1.06538E+00
 -1       104 1.14975E+00
 -1       105 1.45050E+00
 -1       106 1.94169E+00
 -1       107 2.29952E+00
 -1       108 2.74425E+00
 -1       109 3.03050E+00
 -1       110 3.75453E+00
 -1       111 5.53687E+00
 -1       112 7.67661E+00
 -1       113 8.15806E+00
 -1       114 8.15806E+00
 -1       115 6.40725E+00
 -1       116 3.01153E+00
 -1       117 1.51510E+00
 -1       118 1.52686E+00
 -1       119 1.52686E+00
 -1       120 1.25679E+00
 -1       121 7.40346E-01
 -1       122 7.77438E-01
 -1       123 7.77438E-01
 -1       124 6.01081E-01
 -1       125 8.22645E-01
 -1       126 1.32736E+00
 -1       127 1.32736E+00
 -1       128 1.02582E+00
 -1       129 5.53374E-01
 -1       130 7.99055E-01
 -1       131 7.99055E-01
 -1       132 7.51122E-01
 -1       133 5.79233E-01
 -1       134 3.68693E-01
 -1       135 1.09569E-01
 -1       136 2.93886E-01
 -1       137 2.41080E+01
 -1       138 3.35596E+01
 -1       139 3.35596E+01
 -1       140 2.29369E+01
 -1       141 1.25799E+01
 -1       142 1.33673E+01
 -1       143 1.35815E+01
 -1       144 1.35815E+01
 -1       145 1.30392E+01
 -1       146 1.53254E+01
 -1       147 4.10308E+01
 -1       148 4.10308E+01
 -1       149 2.38437E+01
 -1       150 2.38334E+01
 -1       151 2.38334E+01
 -1       152 2.54914E+01
 -1       153 3.77424E+01
 -1       154 3.77424E+01
 -1       155 1.41262E+01
 -1       156 1.21394E+01
 -1       157 1.25676E+01
 -1       158 1.23510E+01
 -1       159 1.23510E+01
 -1       160 1.84916E+01
 -1       161 4.63300E+01
 -1       162 4.63300E+01
 -1       163 2.41140E+01
 -1       164 6.07783E+00
 -1       165 2.29824E+00
 -1       166 1.50843E+00
 -1       167 1.15755E+00
 -1       168 9.73265E-01
 -1       169 8.64154E-01
 -1       170 7.96050E-01
 -1       171 7.55781E-01
 -1       172 7.99437E-01
 -1       173 8.67245E-01
 -1       174 9.81061E-01
 -1       175 1.17259E+00
 -1       176 1.52770E+00
 -1       177 2.26092E+00
 -1       178 3.93109E+00
 -1       179 1.40389E+01
 -1       180 4.31756E+00
 -1       181 3.34062E+00
 -1       182 2.11110E+00
 -1       183 1.44674E+00
 -1       184 1.02526E+00
 -1       185 7.74838E-01
 -1       186 5.95039E-01
 -1       187 4.67559E-01
 -1       188 3.67458E-01
 -1       189 2.89417E-01
 -1       190 2.32658E-01
 -1       191 1.84513E-01
 -1       192 1.44811E-01
 -1       193 1.12917E-01
 -1       194 8.79749E-02
 -1       195 6.90441E-02
 -1       196 5.51708E-02
 -1       197 4.54209E-02
 -1       198 4.21469E-02
 -1       199 4.89607E-02
 -1       200 5.95946E-02
 -1       201 7.69606E-02
 -1       202 9.91745E-02
 -1       203 1.25978E-01
 -1       204 1.59676E-01
 -1       205 2.00210E-01
 -1       206 2.53496E-01
 -1       207 3.15809E-01
 -1       208 3.73920E-01
 -1       209 4.49074E-01
 -1       210 5.51935E-01
 -1       211 6.48364E-01
 -1       212 6.95008E-01
 -1       213 7.46729E-01
 -1       214 8.38862E-01
 -1       215 9.21840E-01
 -1       216 1.29891E+00
 -1       217 1.87472E+00
 -1       218 2.66577E+00
 -1       219 3.41702E+00
 -1       220 3.64302E+00
 -1       221 3.45759E+00
 -1       222 3.26385E+00
 -1       223 2.61925E+00
 -1       224 1.95344E+00
 -1       225 1.37317E+00
 -1       226 9.30197E-01
 -1       227 5.06479E-01
 -1       228 3.39462E+00
 -1       229 2.41294E+00
 -1       230 1.66569E+00
 -1       231 1.14455E+00
 -1       232 9.05940E-01
 -1       233 7.31250E-01
 -1       234 5.87748E-01
 -1       235 4.68120E-01
 -1       236 3.68527E-01
 -1       237 2.94182E-01
 -1       238 2.32285E-01
 -1       239 1.84039E-01
 -1       240 1.44876E-01
 -1       241 1.13475E-01
 -1       242 8.91867E-02
 -1       243 7.13048E-02
 -1       244 5.91549E-02
 -1       245 5.30352E-02
 -1       246 5.95779E-02
 -1       247 7.09452E-02
 -1       248 8.71150E-02
 -1       249 1.08076E-01
 -1       250 1.33703E-01
 -1       251 1.77530E-01
 -1       252 2.36759E-01
 -1       253 3.11478E-01
 -1       254 4.03182E-01
 -1       255 5.13728E-01
 -1       256 6.39724E-01
 -1       257 7.69833E-01
 -1       258 9.17890E-01
 -1       259 1.06538E+00
 -1       260 1.30970E+00
 -1       261 1.62558E+00
 -1       262 1.94169E+00
 -1       263 2.29952E+00
 -1       264 2.74425E+00
 -1       265 3.03050E+00
 -1       266 3.75453E+00
 -1       267 5.53687E+00
 -1       268 7.67661E+00
 -1       269 8.15806E+00
 -1       270 6.40725E+00
 -1       271 3.03400E+00
 -1       272 1.13026E+00
 -1       273 1.51510E+00
 -1       274 1.52686E+00
 -1       275 1.25679E+00
 -1       276 1.01539E+00
 -1       277 1.32284E+00
 -1       278 1.32284E+00
 -1       279 1.21444E+00
 -1       280 2.56785E+00
 -1       281 2.71118E+00
 -1       282 2.71118E+00
 -1       283 1.60593E+00
 -1       284 1.40577E+00
 -1       285 1.40577E+00
 -1       286 1.39314E+00
 -1       287 1.25169E+00
 -1       288 9.23945E-01
 -1       289 5.53756E-01
 -1       290 5.36046E-01
 -1       291 3.09558E+01
 -1       292 3.08662E+01
 -1       293 3.35596E+01
 -1       294 2.62343E+01
 -1       295 1.18433E+01
 -1       296 1.25799E+01
 -1       297 1.33673E+01
 -1       298 1.35815E+01
 -1       299 1.30392E+01
 -1       300 1.18272E+01
 -1       301 1.55916E+01
 -1       302 4.10308E+01
 -1       303 3.51920E+01
 -1       304 2.72034E+01
 -1       305 2.72034E+01
 -1       306 2.51663E+01
 -1       307 3.46777E+01
 -1       308 3.77424E+01
 -1       309 1.41262E+01
 -1       310 1.15220E+01
 -1       311 1.21394E+01
 -1       312 1.25676E+01
 -1       313 1.18325E+01
 -1       314 1.23510E+01
 -1       315 1.11495E+01
 -1       316 2.02259E+01
 -1       317 4.63300E+01
 -1       318 2.83203E+01
 -1       319 3.09558E+01
 -1       320 1.04705E+00
 -1       321 2.48018E+00
 -1       322 7.91597E-01
 -1       323 6.94091E-01
 -1       324 6.31749E-01
 -1       325 5.87583E-01
 -1       326 5.90852E-01
 -1       327 6.34553E-01
 -1       328 7.01296E-01
 -1       329 7.96508E-01
 -1       330 9.31969E-01
 -1       331 1.16031E+00
 -1       332 1.32924E+00
 -1       333 2.20054E+00
 -1       334 1.91399E+00
 -1       335 1.72889E+00
 -1       336 1.26708E+00
 -1       337 9.06671E-01
 -1       338 6.55500E-01
 -1       339 5.38133E-01
 -1       340 4.40966E-01
 -1       341 3.55335E-01
 -1       342 2.89836E-01
 -1       343 2.34539E-01
 -1       344 1.87057E-01
 -1       345 1.51531E-01
 -1       346 1.22226E-01
 -1       347 9.76642E-02
 -1       348 7.75909E-02
 -1       349 6.15003E-02
 -1       350 4.87336E-02
 -1       351 3.93701E-02
 -1       352 3.88223E-02
 -1       353 4.69372E-02
 -1       354 5.95946E-02
 -1       355 7.69606E-02
 -1       356 9.95410E-02
 -1       357 1.37353E-01
 -1       358 1.82282E-01
 -1       359 2.32925E-01
 -1       360 2.85903E-01
 -1       361 3.35094E-01
 -1       362 3.84306E-01
 -1       363 4.35780E-01
 -1       364 4.84265E-01
 -1       365 4.88956E-01
 -1       366 4.18768E-01
 -1       367 4.00183E-01
 -1       368 5.00875E-01
 -1       369 9.18121E-01
 -1       370 1.41964E+00
 -1       371 1.80807E+00
 -1       372 2.27502E+00
 -1       373 2.48714E+00
 -1       374 2.40727E+00
 -1       375 2.36426E+00
 -1       376 2.21423E+00
 -1       377 1.83592E+00
 -1       378 1.47250E+00
 -1       379 1.07762E+00
 -1       380 8.61509E-01
 -1       381 1.13024E+00
 -1       382 8.90874E-01
 -1       383 7.03329E-01
 -1       384 5.44464E-01
 -1       385 4.37261E-01
 -1       386 3.70640E-01
 -1       387 3.06763E-01
 -1       388 2.51194E-01
 -1       389 2.05805E-01
 -1       390 1.66074E-01
 -1       391 1.32500E-01
 -1       392 1.04963E-01
 -1       393 8.36701E-02
 -1       394 6.75929E-02
 -1       395 5.62893E-02
 -1       396 4.93523E-02
 -1       397 4.81294E-02
 -1       398 5.31944E-02
 -1       399 6.33936E-02
 -1       400 8.40113E-02
 -1       401 1.11740E-01
 -1       402 1.47970E-01
 -1       403 2.15873E-01
 -1       404 3.10150E-01
 -1       405 4.35707E-01
 -1       406 5.98896E-01
 -1       407 8.04157E-01
 -1       408 1.05035E+00
 -1       409 1.32452E+00
 -1       410 1.59287E+00
 -1       411 1.81164E+00
 -1       412 1.98298E+00
 -1       413 2.04352E+00
 -1       414 2.02984E+00
 -1       415 1.89370E+00
 -1       416 2.08014E+00
 -1       417 3.32070E+00
 -1       418 4.49853E+00
 -1       419 5.66796E+00
 -1       420 4.68461E+00
 -1       421 3.69823E+00
 -1       422 3.05895E+00
 -1       423 2.22433E+00
 -1       424 1.88071E+00
 -1       425 1.43624E+00
 -1       426 1.09051E+00
 -1       427 2.17454E+00
 -1       428 1.91790E+00
 -1       429 1.43624E+00
 -1       430 3.31141E+00
 -1       431 4.55682E+00
 -1       432 4.55682E+00
 -1       433 3.97592E+00
 -1       434 2.51486E+00
 -1       435 2.00404E+00
 -1       436 1.85844E+00
 -1       437 1.67127E+00
 -1       438 1.38238E+00
 -1       439 9.82655E-01
 -1       440 3.08662E+01
 -1       441 3.09558E+01
 -1       442 2.99583E+01
 -1       443 1.75418E+01
 -1       444 9.09705E+00
 -1       445 9.18390E-01
 -1       446 1.04329E+01
 -1       447 1.13760E+01
 -1       448 9.94741E+00
 -1       449 8.45625E+00
 -1       450 7.99606E+00
 -1       451 1.43212E+01
 -1       452 2.37335E+01
 -1       453 2.66613E+01
 -1       454 3.62518E+01
 -1       455 3.62518E+01
 -1       456 2.00720E+01
 -1       457 2.32771E+01
 -1       458 1.34076E+01
 -1       459 7.19424E+00
 -1       460 9.52337E+00
 -1       461 1.14597E+01
 -1       462 1.08243E+01
 -1       463 1.08601E+01
 -1       464 8.34827E+00
 -1       465 8.51357E+00
 -1       466 1.59752E+01
 -1       467 2.83203E+01
 -1       468 2.98789E+01
 -1       469 8.01378E+00
 -1       470 9.41563E+00
 -1       471 8.49796E+00
 -1       472 2.03768E+01
 -1       473 1.04745E+00
 -1       474 4.86085E-01
 -1       475 5.10880E-01
 -1       476 4.31639E-01
 -1       477 4.57571E-01
 -1       478 4.87159E-01
 -1       479 5.11239E-01
 -1       480 5.11239E-01
 -1       481 6.09394E-01
 -1       482 8.90874E-01
 -1       483 8.02854E-01
 -1       484 3.23260E+00
 -1       485 7.02288E-01
 -1       486 5.88329E-01
 -1       487 4.75941E-01
 -1       488 3.77259E-01
 -1       489 3.22470E-01
 -1       490 2.72367E-01
 -1       491 2.24978E-01
 -1       492 1.86363E-01
 -1       493 1.52676E-01
 -1       494 1.23326E-01
 -1       495 9.85510E-02
 -1       496 7.88581E-02
 -1       497 6.28840E-02
 -1       498 4.92254E-02
 -1       499 3.85663E-02
 -1       500 3.25124E-02
 -1       501 3.68964E-02
 -1       502 4.50497E-02
 -1       503 6.14162E-02
 -1       504 8.88003E-02
 -1       505 1.22306E-01
 -1       506 1.62220E-01
 -1       507 2.07957E-01
 -1       508 2.57568E-01
 -1       509 3.07140E-01
 -1       510 3.54444E-01
 -1       511 3.95614E-01
 -1       512 4.27235E-01
 -1       513 4.49019E-01
 -1       514 4.36742E-01
 -1       515 5.10922E-01
 -1       516 6.13104E-01
 -1       517 8.30226E-01
 -1       518 1.13286E+00
 -1       519 1.50883E+00
 -1       520 1.72389E+00
 -1       521 1.91396E+00
 -1       522 1.86213E+00
 -1       523 1.90557E+00
 -1       524 1.89151E+00
 -1       525 1.72611E+00
 -1       526 1.63425E+00
 -1       527 1.43884E+00
 -1       528 5.44464E-01
 -1       529 4.37261E-01
 -1       530 3.70640E-01
 -1       531 3.06763E-01
 -1       532 2.51194E-01
 -1       533 2.06508E-01
 -1       534 1.67331E-01
 -1       535 1.33920E-01
 -1       536 1.08453E-01
 -1       537 8.75477E-02
 -1       538 7.00759E-02
 -1       539 5.56690E-02
 -1       540 4.37551E-02
 -1       541 3.85809E-02
 -1       542 3.88678E-02
 -1       543 4.86807E-02
 -1       544 6.33936E-02
 -1       545 9.39049E-02
 -1       546 1.38954E-01
 -1       547 1.99631E-01
 -1       548 2.80522E-01
 -1       549 3.86954E-01
 -1       550 5.24719E-01
 -1       551 6.99297E-01
 -1       552 9.14194E-01
 -1       553 1.16779E+00
 -1       554 1.44819E+00
 -1       555 1.72612E+00
 -1       556 1.94931E+00
 -1       557 2.21033E+00
 -1       558 2.68387E+00
 -1       559 3.17134E+00
 -1       560 3.68579E+00
 -1       561 4.06546E+00
 -1       562 4.49853E+00
 -1       563 6.05686E+00
 -1       564 6.06385E+00
 -1       565 4.68461E+00
 -1       566 3.43444E+00
 -1       567 3.46506E+00
 -1       568 2.84730E+00
 -1       569 1.96988E+00
 -1       570 5.75288E+00
 -1       571 7.74490E+00
 -1       572 4.30300E+00
 -1       573 4.87129E+00
 -1       574 7.74490E+00
 -1       575 4.91474E+00
 -1       576 3.88178E+00
 -1       577 2.74494E+00
 -1       578 2.00718E+00
 -1       579 1.74396E+00
 -1       580 1.24604E+00
 -1       581 2.99583E+01
 -1       582 1.33245E+01
 -1       583 7.03329E-01
 -1       584 2.98789E+01
 -1       585 2.09650E+01
 -1       586 5.84422E+00
 -1       587 1.99670E+01
 -1       588 6.20288E+00
 -1       589 1.81022E+01
 -1       590 7.32461E+00
 -1       591 4.57337E-01
 -1       592 8.42241E+00
 -1       593 1.11161E+01
 -1       594 7.61172E+00
 -1       595 6.23637E+00
 -1       596 5.10859E+00
 -1       597 1.33741E+01
 -1       598 2.66613E+01
 -1       599 3.62518E+01
 -1       600 1.85024E+01
 -1       601 8.85655E+00
 -1       602 7.66372E+00
 -1       603 4.41742E+00
 -1       604 5.18645E+00
 -1       605 1.22894E+01
 -1       606 9.05631E+00
 -1       607 4.67035E+00
 -1       608 8.73826E-01
 -1       609 1.32792E+00
 -1       610 7.19919E-01
 -1       611 5.11061E+00
 -1       612 7.88449E+00
 -1       613 1.24604E+00
 -1       614 3.58500E-01
 -1       615 3.42757E-01
 -1       616 3.62025E-01
 -1       617 3.38120E-01
 -1       618 5.43837E-01
 -1       619 6.14054E+00
 -1       620 3.97237E-01
 -1       621 3.83542E-01
 -1       622 3.42820E-01
 -1       623 2.93223E-01
 -1       624 2.43558E-01
 -1       625 2.12322E-01
 -1       626 1.79836E-01
 -1       627 1.48851E-01
 -1       628 1.20888E-01
 -1       629 9.77351E-02
 -1       630 7.88581E-02
 -1       631 6.28840E-02
 -1       632 4.92254E-02
 -1       633 3.78576E-02
 -1       634 2.85223E-02
 -1       635 2.50774E-02
 -1       636 2.97872E-02
 -1       637 4.81102E-02
 -1       638 7.16130E-02
 -1       639 1.00377E-01
 -1       640 1.35193E-01
 -1       641 1.76463E-01
 -1       642 2.23899E-01
 -1       643 2.76108E-01
 -1       644 3.32310E-01
 -1       645 3.86841E-01
 -1       646 4.39233E-01
 -1       647 5.04656E-01
 -1       648 5.71331E-01
 -1       649 6.09938E-01
 -1       650 7.96920E-01
 -1       651 1.00761E+00
 -1       652 1.15259E+00
 -1       653 1.50633E+00
 -1       654 1.62263E+00
 -1       655 1.96907E+00
 -1       656 2.45267E+00
 -1       657 2.32422E+00
 -1       658 2.28090E+00
 -1       659 1.91040E+00
 -1       660 1.83636E+00
 -1       661 1.74743E+00
 -1       662 3.27338E-01
 -1       663 8.61676E+00
 -1       664 3.96003E-01
 -1       665 2.33038E-01
 -1       666 1.95852E-01
 -1       667 1.61751E-01
 -1       668 1.33875E-01
 -1       669 1.09125E-01
 -1       670 8.78715E-02
 -1       671 7.00759E-02
 -1       672 5.56690E-02
 -1       673 4.37551E-02
 -1       674 3.51835E-02
 -1       675 2.98811E-02
 -1       676 3.60197E-02
 -1       677 5.03775E-02
 -1       678 7.83912E-02
 -1       679 1.15154E-01
 -1       680 1.63471E-01
 -1       681 2.26727E-01
 -1       682 3.08979E-01
 -1       683 4.15077E-01
 -1       684 5.50791E-01
 -1       685 7.23026E-01
 -1       686 9.40180E-01
 -1       687 1.21336E+00
 -1       688 1.55733E+00
 -1       689 1.97510E+00
 -1       690 2.47603E+00
 -1       691 3.08816E+00
 -1       692 4.23469E+00
 -1       693 3.98585E+00
 -1       694 5.11061E+00
 -1       695 3.46506E+00
 -1       696 9.64674E+00
 -1       697 1.43884E+00
 -1       698 6.77987E+00
 -1       699 8.30173E+00
 -1       700 9.64674E+00
 -1       701 1.41051E+01
 -1       702 3.80009E+00
 -1       703 2.96499E+00
 -1       704 1.98281E+00
 -1       705 1.98866E+01
 -1       706 1.60913E+01
 -1       707 1.42259E+01
 -1       708 3.07382E+00
 -1       709 1.38653E+01
 -1       710 3.32199E+00
 -1       711 5.19854E+00
 -1       712 4.63673E-01
 -1       713 2.72795E-01
 -1       714 4.07530E-01
 -1       715 5.14970E-01
 -1       716 1.00177E+01
 -1       717 1.10816E+01
 -1       718 3.62025E-01
 -1       719 3.66334E+00
 -1       720 1.50364E+01
 -1       721 1.00757E+01
 -1       722 7.04280E+00
 -1       723 4.87725E+00
 -1       724 1.39439E+01
 -1       725 3.61674E-01
 -1       726 1.06131E+01
 -1       727 4.99155E+00
 -1       728 6.08889E+00
 -1       729 5.39215E+00
 -1       730 8.59499E+00
 -1       731 4.81557E+00
 -1       732 3.42094E-01
 -1       733 4.15665E-01
 -1       734 8.61676E+00
 -1       735 1.20662E+01
 -1       736 1.32408E+01
 -1       737 1.09855E+01
 -1       738 9.52532E+00
 -1       739 3.57538E-01
 -1       740 1.11704E+01
 -1       741 4.47911E-01
 -1       742 1.88997E+00
 -1       743 2.40819E-01
 -1       744 2.33994E-01
 -1       745 2.54863E-01
 -1       746 2.48260E-01
 -1       747 2.26483E-01
 -1       748 1.98140E-01
 -1       749 1.71523E-01
 -1       750 1.50322E-01
 -1       751 1.28017E-01
 -1       752 1.06477E-01
 -1       753 8.66998E-02
 -1       754 6.90823E-02
 -1       755 5.35857E-02
 -1       756 3.98762E-02
 -1       757 2.74113E-02
 -1       758 1.67925E-02
 -1       759 1.79039E-02
 -1       760 3.26677E-02
 -1       761 5.17217E-02
 -1       762 7.58701E-02
 -1       763 1.05379E-01
 -1       764 1.39949E-01
 -1       765 1.83671E-01
 -1       766 2.38070E-01
 -1       767 3.01255E-01
 -1       768 3.71238E-01
 -1       769 4.43099E-01
 -1       770 5.21002E-01
 -1       771 6.37316E-01
 -1       772 7.84287E-01
 -1       773 9.18851E-01
 -1       774 1.12376E+00
 -1       775 1.52298E+00
 -1       776 1.88869E+00
 -1       777 2.38641E+00
 -1       778 2.62247E+00
 -1       779 3.09845E+00
 -1       780 4.87725E+00
 -1       781 3.52005E+00
 -1       782 2.47825E+00
 -1       783 3.71040E+00
 -1       784 1.83636E+00
 -1       785 2.86257E-01
 -1       786 1.62805E-01
 -1       787 1.88482E-01
 -1       788 1.12877E-01
 -1       789 9.12291E-02
 -1       790 7.23244E-02
 -1       791 5.59997E-02
 -1       792 4.26851E-02
 -1       793 3.22182E-02
 -1       794 2.24131E-02
 -1       795 2.15805E-02
 -1       796 3.48819E-02
 -1       797 5.65571E-02
 -1       798 8.39284E-02
 -1       799 1.18803E-01
 -1       800 1.68658E-01
 -1       801 2.40565E-01
 -1       802 3.36651E-01
 -1       803 4.63973E-01
 -1       804 6.30969E-01
 -1       805 8.47190E-01
 -1       806 1.12231E+00
 -1       807 1.46286E+00
 -1       808 1.90345E+00
 -1       809 2.51498E+00
 -1       810 3.74712E+00
 -1       811 6.51532E+00
 -1       812 2.88010E+00
 -1       813 3.28285E+00
 -1       814 1.96103E-01
 -1       815 2.88563E-01
 -1       816 8.51653E+00
 -1       817 3.05338E-01
 -1       818 3.71040E+00
 -1       819 4.73911E+00
 -1       820 9.81548E+00
 -1       821 1.37019E-01
 -1       822 3.10223E+00
 -1       823 7.59871E+00
 -1       824 3.07382E+00
 -1       825 5.16967E+00
 -1       826 4.25834E+00
 -1       827 3.71040E+00
 -1       828 2.05630E-01
 -1       829 2.81846E-01
 -1       830 6.23100E+00
 -1       831 5.11327E+00
 -1       832 2.81638E-01
 -1       833 1.99041E-01
 -1       834 2.16956E-01
 -1       835 2.80082E-01
 -1       836 2.53692E-01
 -1       837 2.88563E-01
 -1       838 1.88997E+00
 -1       839 7.71469E+00
 -1       840 2.04895E-01
 -1       841 2.72095E-01
 -1       842 7.56673E+00
 -1       843 7.06984E+00
 -1       844 1.74313E-01
 -1       845 1.82393E-01
 -1       846 1.75100E-01
 -1       847 1.59362E-01
 -1       848 1.39691E-01
 -1       849 1.23137E-01
 -1       850 1.06674E-01
 -1       851 8.99490E-02
 -1       852 7.40414E-02
 -1       853 5.94522E-02
 -1       854 4.62800E-02
 -1       855 3.43355E-02
 -1       856 2.56905E-02
 -1       857 2.70378E-02
 -1       858 3.21063E-02
 -1       859 5.06872E-02
 -1       860 7.44052E-02
 -1       861 1.03569E-01
 -1       862 1.38820E-01
 -1       863 1.80322E-01
 -1       864 2.27385E-01
 -1       865 2.77901E-01
 -1       866 3.41185E-01
 -1       867 4.23198E-01
 -1       868 5.34609E-01
 -1       869 6.80238E-01
 -1       870 8.40815E-01
 -1       871 1.10064E+00
 -1       872 1.37958E+00
 -1       873 1.54108E+00
 -1       874 2.55109E+00
 -1       875 3.09477E+00
 -1       876 7.96427E-02
 -1       877 9.72025E-02
 -1       878 4.94722E-02
 -1       879 3.66757E-02
 -1       880 2.48544E-02
 -1       881 2.31804E-02
 -1       882 2.89128E-02
 -1       883 4.88265E-02
 -1       884 7.46719E-02
 -1       885 1.10598E-01
 -1       886 1.58158E-01
 -1       887 2.21046E-01
 -1       888 3.04008E-01
 -1       889 4.13269E-01
 -1       890 5.57248E-01
 -1       891 7.47799E-01
 -1       892 1.00242E+00
 -1       893 1.34870E+00
 -1       894 1.83013E+00
 -1       895 2.51498E+00
 -1       896 3.57692E+00
 -1       897 4.83117E+00
 -1       898 1.65117E-01
 -1       899 6.51532E+00
 -1       900 2.09332E-01
 -1       901 2.07635E-01
 -1       902 2.67776E-01
 -1       903 5.03091E+00
 -1       904 4.41523E+00
 -1       905 1.51927E-01
 -1       906 6.37160E-02
 -1       907 1.41825E-01
 -1       908 1.65990E-01
 -1       909 1.75613E-01
 -1       910 1.15932E-01
 -1       911 1.96333E-01
 -1       912 2.04895E-01
 -1       913 1.65320E-01
 -1       914 1.34770E-01
 -1       915 6.49081E+00
 -1       916 2.17481E-01
 -1       917 2.17481E-01
 -1       918 1.35994E-01
 -1       919 1.35255E-01
 -1       920 1.26431E-01
 -1       921 1.13151E-01
 -1       922 9.79776E-02
 -1       923 8.55105E-02
 -1       924 7.25793E-02
 -1       925 6.01261E-02
 -1       926 4.85591E-02
 -1       927 3.80523E-02
 -1       928 3.19951E-02
 -1       929 3.29455E-02
 -1       930 3.62970E-02
 -1       931 4.47747E-02
 -1       932 6.56938E-02
 -1       933 9.21244E-02
 -1       934 1.25212E-01
 -1       935 1.66055E-01
 -1       936 2.15548E-01
 -1       937 2.74108E-01
 -1       938 3.41185E-01
 -1       939 4.14377E-01
 -1       940 5.21586E-01
 -1       941 6.57656E-01
 -1       942 9.15171E-01
 -1       943 1.25205E+00
 -1       944 2.27039E+00
 -1       945 3.30827E+00
 -1       946 4.02713E+00
 -1       947 8.97808E-02
 -1       948 3.06338E-02
 -1       949 4.13492E-02
 -1       950 3.32513E-02
 -1       951 4.26774E-02
 -1       952 6.51016E-02
 -1       953 9.46388E-02
 -1       954 1.33044E-01
 -1       955 1.82858E-01
 -1       956 2.47289E-01
 -1       957 3.30546E-01
 -1       958 4.38506E-01
 -1       959 5.80055E-01
 -1       960 7.69878E-01
 -1       961 1.03395E+00
 -1       962 1.42421E+00
 -1       963 2.04107E+00
 -1       964 3.12138E+00
 -1       965 4.66134E+00
 -1       966 4.64532E+00
 -1       967 1.45434E-01
 -1       968 4.02713E+00
 -1       969 8.02102E-02
 -1       970 2.38884E-01
 -1       971 1.23756E-01
 -1       972 2.04220E-01
 -1       973 3.01706E-02
 -1       974 6.15545E+00
 -1       975 1.90962E-01
 -1       976 1.06208E-01
 -1       977 9.47567E-02
 -1       978 1.40482E-01
 -1       979 5.31214E-02
 -1       980 2.38884E-01
 -1       981 1.55391E-01
 -1       982 1.24575E-01
 -1       983 1.04288E-01
 -1       984 1.52522E-01
 -1       985 1.52522E-01
 -1       986 3.34663E+00
 -1       987 6.61005E-02
 -1       988 1.03124E-01
 -1       989 9.77928E-02
 -1       990 8.84453E-02
 -1       991 7.72059E-02
 -1       992 6.54761E-02
 -1       993 5.52988E-02
 -1       994 4.60593E-02
 -1       995 3.75680E-02
 -1       996 3.62572E-02
 -1       997 3.61427E-02
 -1       998 3.90107E-02
 -1       999 4.49911E-02
 -1      1000 5.65159E-02
 -1      1001 7.40156E-02
 -1      1002 1.01978E-01
 -1      1003 1.38059E-01
 -1      1004 1.84262E-01
 -1      1005 2.42953E-01
 -1      1006 3.16859E-01
 -1      1007 4.08893E-01
 -1      1008 5.21586E-01
 -1      1009 6.55099E-01
 -1      1010 8.89421E-01
 -1      1011 1.25605E+00
 -1      1012 2.00087E+00
 -1      1013 1.38543E-01
 -1      1014 3.42656E-02
 -1      1015 5.14228E-02
 -1      1016 4.09701E-02
 -1      1017 1.01327E-01
 -1      1018 1.36801E-01
 -1      1019 1.81315E-01
 -1      1020 2.36679E-01
 -1      1021 3.05147E-01
 -1      1022 4.01549E-01
 -1      1023 5.37570E-01
 -1      1024 7.32804E-01
 -1      1025 1.01298E+00
 -1      1026 1.43171E+00
 -1      1027 2.09758E+00
 -1      1028 4.66134E+00
 -1      1029 9.03615E-02
 -1      1030 3.61512E-02
 -1      1031 6.11944E-02
 -1      1032 1.08829E-01
 -1      1033 1.04904E-01
 -1      1034 3.37108E-02
 -1      1035 1.90962E-01
 -1      1036 7.33290E-02
 -1      1037 1.01543E-01
 -1      1038 1.52057E-01
 -1      1039 2.69827E+00
 -1      1040 9.58110E-02
 -1      1041 4.20260E-02
 -1      1042 1.05002E-01
 -1      1043 5.21050E-02
 -1      1044 1.09571E-01
 -1      1045 3.01530E+00
 -1      1046 1.09571E-01
 -1      1047 1.02346E-01
 -1      1048 1.10295E-01
 -1      1049 1.17217E-01
 -1      1050 8.07070E-02
 -1      1051 6.58361E-02
 -1      1052 8.72416E-02
 -1      1053 5.73471E-02
 -1      1054 4.86163E-02
 -1      1055 4.21544E-02
 -1      1056 4.94724E-02
 -1      1057 3.62572E-02
 -1      1058 3.90107E-02
 -1      1059 4.49911E-02
 -1      1060 5.65159E-02
 -1      1061 7.33405E-02
 -1      1062 1.00089E-01
 -1      1063 1.36686E-01
 -1      1064 1.86675E-01
 -1      1065 2.55201E-01
 -1      1066 3.49872E-01
 -1      1067 4.82104E-01
 -1      1068 6.69245E-01
 -1      1069 9.37863E-01
 -1      1070 1.32802E+00
 -1      1071 1.91976E+00
 -1      1072 2.04829E+00
 -1      1073 2.01264E-01
 -1      1074 5.08293E-02
 -1      1075 1.52797E-01
 -1      1076 1.15457E-01
 -1      1077 2.63720E-01
 -1      1078 3.49872E-01
 -1      1079 4.82104E-01
 -1      1080 7.16757E-01
 -1      1081 1.09301E+00
 -1      1082 1.68826E+00
 -1      1083 2.04829E+00
 -1      1084 4.09701E-02
 -1      1085 3.61512E-02
 -1      1086 1.16437E-01
 -1      1087 2.55000E+00
 -1      1088 6.56386E-02
 -1      1089 4.94724E-02
 -1      1090 9.91478E-02
 -1      1091 8.14504E-02
 -1      1092 6.58669E-02
 -1      1093 8.70511E-02
 -1      1094 8.52633E-02
 -1      1095 4.71433E-02
 -1      1096 9.58110E-02
 -1      1097 5.73471E-02
 -1      1098 8.79397E-02
 -1      1099 8.52633E-02
 -1      1100 8.86779E-02
 -1      1101 8.72416E-02
 -1      1102 9.58110E-02
 -1      1103 4.94724E-02
 -1      1104 4.86163E-02
 -1      1105 8.07070E-02
 -1      1106 9.23014E-02
 -1      1107 1.31431E+01
 -1      1108 8.40339E+00
 -1      1109 2.74386E+00
 -1      1110 1.55785E+00
 -1      1111 1.16884E+00
 -1      1112 9.72683E-01
 -1      1113 8.54115E-01
 -1      1114 7.81355E-01
 -1      1115 7.54801E-01
 -1      1116 7.84469E-01
 -1      1117 8.57014E-01
 -1      1118 9.76775E-01
 -1      1119 1.18028E+00
 -1      1120 1.57188E+00
 -1      1121 2.67068E+00
 -1      1122 6.07329E+00
 -1      1123 1.13400E+01
 -1      1124 1.31431E+01
 -1      1125 8.73033E+00
 -1      1126 3.82909E+00
 -1      1127 2.72586E+00
 -1      1128 1.73665E+00
 -1      1129 1.18801E+00
 -1      1130 8.94336E-01
 -1      1131 6.84939E-01
 -1      1132 5.24910E-01
 -1      1133 4.00990E-01
 -1      1134 3.07749E-01
 -1      1135 2.36590E-01
 -1      1136 1.79887E-01
 -1      1137 1.35622E-01
 -1      1138 1.01906E-01
 -1      1139 7.70465E-02
 -1      1140 5.95657E-02
 -1      1141 4.81986E-02
 -1      1142 4.30225E-02
 -1      1143 4.55538E-02
 -1      1144 5.35914E-02
 -1      1145 6.44300E-02
 -1      1146 8.23385E-02
 -1      1147 1.08938E-01
 -1      1148 1.41757E-01
 -1      1149 1.79943E-01
 -1      1150 2.21381E-01
 -1      1151 2.62080E-01
 -1      1152 3.13295E-01
 -1      1153 3.91814E-01
 -1      1154 4.95291E-01
 -1      1155 6.00150E-01
 -1      1156 6.71686E-01
 -1      1157 7.20868E-01
 -1      1158 7.92796E-01
 -1      1159 8.80351E-01
 -1      1160 1.11038E+00
 -1      1161 1.50318E+00
 -1      1162 2.18661E+00
 -1      1163 3.04140E+00
 -1      1164 3.53002E+00
 -1      1165 3.64302E+00
 -1      1166 3.55030E+00
 -1      1167 3.36072E+00
 -1      1168 2.94155E+00
 -1      1169 2.21912E+00
 -1      1170 1.50579E+00
 -1      1171 9.59522E-01
 -1      1172 6.15938E-01
 -1      1173 3.04003E-01
 -1      1174 1.40389E+01
 -1      1175 8.71678E+00
 -1      1176 2.90378E+00
 -1      1177 2.03931E+00
 -1      1178 1.40512E+00
 -1      1179 1.02525E+00
 -1      1180 8.18595E-01
 -1      1181 6.59499E-01
 -1      1182 5.27934E-01
 -1      1183 4.18323E-01
 -1      1184 3.31354E-01
 -1      1185 2.63233E-01
 -1      1186 2.06723E-01
 -1      1187 1.60595E-01
 -1      1188 1.23970E-01
 -1      1189 9.58673E-02
 -1      1190 7.53336E-02
 -1      1191 6.15281E-02
 -1      1192 5.53238E-02
 -1      1193 5.95789E-02
 -1      1194 7.28346E-02
 -1      1195 9.22027E-02
 -1      1196 1.18085E-01
 -1      1197 1.50957E-01
 -1      1198 1.91217E-01
 -1      1199 2.38919E-01
 -1      1200 3.08363E-01
 -1      1201 4.07881E-01
 -1      1202 5.31120E-01
 -1      1203 6.76203E-01
 -1      1204 8.35849E-01
 -1      1205 9.91635E-01
 -1      1206 1.10756E+00
 -1      1207 1.30012E+00
 -1      1208 1.69609E+00
 -1      1209 2.12060E+00
 -1      1210 2.52188E+00
 -1      1211 2.88737E+00
 -1      1212 3.39252E+00
 -1      1213 4.64570E+00
 -1      1214 6.60674E+00
 -1      1215 7.91733E+00
 -1      1216 8.15806E+00
 -1      1217 7.28265E+00
 -1      1218 4.70939E+00
 -1      1219 2.26331E+00
 -1      1220 1.52098E+00
 -1      1221 1.52686E+00
 -1      1222 1.39182E+00
 -1      1223 7.75531E-01
 -1      1224 5.17308E-01
 -1      1225 7.58892E-01
 -1      1226 7.77438E-01
 -1      1227 6.89260E-01
 -1      1228 7.11863E-01
 -1      1229 1.07500E+00
 -1      1230 1.32736E+00
 -1      1231 1.17659E+00
 -1      1232 7.89596E-01
 -1      1233 6.76214E-01
 -1      1234 7.99055E-01
 -1      1235 7.75088E-01
 -1      1236 6.65177E-01
 -1      1237 4.73963E-01
 -1      1238 2.39131E-01
 -1      1239 2.01727E-01
 -1      1240 1.98233E-01
 -1      1241 2.41110E+01
 -1      1242 2.88338E+01
 -1      1243 3.35596E+01
 -1      1244 2.82483E+01
 -1      1245 1.77584E+01
 -1      1246 1.29736E+01
 -1      1247 1.34744E+01
 -1      1248 1.35815E+01
 -1      1249 1.33104E+01
 -1      1250 1.41823E+01
 -1      1251 2.81781E+01
 -1      1252 4.10308E+01
 -1      1253 3.24373E+01
 -1      1254 2.38386E+01
 -1      1255 2.38334E+01
 -1      1256 2.46624E+01
 -1      1257 3.16169E+01
 -1      1258 3.77424E+01
 -1      1259 2.59343E+01
 -1      1260 1.31328E+01
 -1      1261 1.23535E+01
 -1      1262 1.25676E+01
 -1      1263 1.24593E+01
 -1      1264 1.23510E+01
 -1      1265 1.54213E+01
 -1      1266 3.24108E+01
 -1      1267 4.63300E+01
 -1      1268 3.52220E+01
 -1      1269 2.41140E+01
 -1      1270 1.31431E+01
 -1      1271 4.87075E+00
 -1      1272 9.61046E+00
 -1      1273 2.06114E+00
 -1      1274 2.98096E+00
 -1      1275 4.18804E+00
 -1      1276 1.40004E+00
 -1      1277 1.66623E+00
 -1      1278 1.90334E+00
 -1      1279 1.10179E+00
 -1      1280 1.22460E+00
 -1      1281 1.33299E+00
 -1      1282 9.36304E-01
 -1      1283 1.00964E+00
 -1      1284 1.06541E+00
 -1      1285 8.36521E-01
 -1      1286 8.81748E-01
 -1      1287 9.18710E-01
 -1      1288 7.74936E-01
 -1      1289 8.02469E-01
 -1      1290 8.30102E-01
 -1      1291 7.55781E-01
 -1      1292 7.54801E-01
 -1      1293 7.75916E-01
 -1      1294 8.06297E-01
 -1      1295 7.77609E-01
 -1      1296 7.77609E-01
 -1      1297 8.84058E-01
 -1      1298 8.40201E-01
 -1      1299 8.33341E-01
 -1      1300 1.01687E+00
 -1      1301 9.40966E-01
 -1      1302 9.24153E-01
 -1      1303 1.24024E+00
 -1      1304 1.11264E+00
 -1      1305 1.07683E+00
 -1      1306 1.68179E+00
 -1      1307 1.41779E+00
 -1      1308 1.35015E+00
 -1      1309 2.88320E+00
 -1      1310 2.04841E+00
 -1      1311 1.89431E+00
 -1      1312 6.28610E+00
 -1      1313 3.71828E+00
 -1      1314 3.09601E+00
 -1      1315 1.40389E+01
 -1      1316 1.13400E+01
 -1      1317 8.98502E+00
 -1      1318 1.40389E+01
 -1      1319 8.73033E+00
 -1      1320 4.31756E+00
 -1      1321 3.82909E+00
 -1      1322 3.34062E+00
 -1      1323 3.82909E+00
 -1      1324 2.72586E+00
 -1      1325 2.11110E+00
 -1      1326 2.72586E+00
 -1      1327 1.77892E+00
 -1      1328 1.40447E+00
 -1      1329 1.77892E+00
 -1      1330 1.19373E+00
 -1      1331 1.01955E+00
 -1      1332 1.23600E+00
 -1      1333 8.94336E-01
 -1      1334 7.74838E-01
 -1      1335 9.00050E-01
 -1      1336 6.84939E-01
 -1      1337 5.95039E-01
 -1      1338 6.84939E-01
 -1      1339 5.31299E-01
 -1      1340 4.61170E-01
 -1      1341 5.31299E-01
 -1      1342 4.11119E-01
 -1      1343 3.57329E-01
 -1      1344 4.17509E-01
 -1      1345 3.18308E-01
 -1      1346 2.78858E-01
 -1      1347 3.28438E-01
 -1      1348 2.50478E-01
 -1      1349 2.18770E-01
 -1      1350 2.61038E-01
 -1      1351 1.94698E-01
 -1      1352 1.69702E-01
 -1      1353 2.08585E-01
 -1      1354 1.49851E-01
 -1      1355 1.30581E-01
 -1      1356 1.64662E-01
 -1      1357 1.14634E-01
 -1      1358 1.00189E-01
 -1      1359 1.28864E-01
 -1      1360 8.77178E-02
 -1      1361 7.73036E-02
 -1      1362 1.00446E-01
 -1      1363 6.78382E-02
 -1      1364 6.07716E-02
 -1      1365 7.85095E-02
 -1      1366 5.38349E-02
 -1      1367 4.95344E-02
 -1      1368 6.21074E-02
 -1      1369 4.46595E-02
 -1      1370 4.37839E-02
 -1      1371 5.02958E-02
 -1      1372 4.21469E-02
 -1      1373 4.55538E-02
 -1      1374 4.37839E-02
 -1      1375 4.89607E-02
 -1      1376 5.35914E-02
 -1      1377 4.55538E-02
 -1      1378 5.89084E-02
 -1      1379 6.51162E-02
 -1      1380 5.42776E-02
 -1      1381 7.37992E-02
 -1      1382 8.54999E-02
 -1      1383 6.82776E-02
 -1      1384 9.66069E-02
 -1      1385 1.11506E-01
 -1      1386 8.80676E-02
 -1      1387 1.24908E-01
 -1      1388 1.42827E-01
 -1      1389 1.12576E-01
 -1      1390 1.59676E-01
 -1      1391 1.79943E-01
 -1      1392 1.42827E-01
 -1      1393 2.00210E-01
 -1      1394 2.21381E-01
 -1      1395 1.79943E-01
 -1      1396 2.48023E-01
 -1      1397 2.67553E-01
 -1      1398 2.26853E-01
 -1      1399 2.98709E-01
 -1      1400 3.30395E-01
 -1      1401 2.84652E-01
 -1      1402 3.59450E-01
 -1      1403 4.06283E-01
 -1      1404 3.44864E-01
 -1      1405 4.43860E-01
 -1      1406 5.00505E-01
 -1      1407 4.11497E-01
 -1      1408 5.51935E-01
 -1      1409 6.00150E-01
 -1      1410 5.00505E-01
 -1      1411 6.48364E-01
 -1      1412 6.71686E-01
 -1      1413 6.00150E-01
 -1      1414 6.95008E-01
 -1      1415 7.20868E-01
 -1      1416 6.71686E-01
 -1      1417 7.46729E-01
 -1      1418 7.92796E-01
 -1      1419 7.20868E-01
 -1      1420 8.38862E-01
 -1      1421 8.80351E-01
 -1      1422 7.92796E-01
 -1      1423 9.21840E-01
 -1      1424 1.11038E+00
 -1      1425 8.80351E-01
 -1      1426 1.29891E+00
 -1      1427 1.50318E+00
 -1      1428 1.11038E+00
 -1      1429 1.79108E+00
 -1      1430 2.27024E+00
 -1      1431 1.58681E+00
 -1      1432 2.66577E+00
 -1      1433 3.04140E+00
 -1      1434 2.27024E+00
 -1      1435 3.41702E+00
 -1      1436 3.53002E+00
 -1      1437 3.04140E+00
 -1      1438 3.64302E+00
 -1      1439 3.64302E+00
 -1      1440 3.53002E+00
 -1      1441 3.55030E+00
 -1      1442 3.45759E+00
 -1      1443 3.55030E+00
 -1      1444 3.36072E+00
 -1      1445 3.26385E+00
 -1      1446 3.36072E+00
 -1      1447 2.94155E+00
 -1      1448 2.61925E+00
 -1      1449 2.94155E+00
 -1      1450 2.28635E+00
 -1      1451 1.88621E+00
 -1      1452 2.28635E+00
 -1      1453 1.59608E+00
 -1      1454 1.28288E+00
 -1      1455 1.66330E+00
 -1      1456 1.06140E+00
 -1      1457 8.28323E-01
 -1      1458 1.15168E+00
 -1      1459 6.16463E-01
 -1      1460 5.05953E-01
 -1      1461 7.18338E-01
 -1      1462 3.99657E-01
 -1      1463 4.00182E-01
 -1      1464 3.39462E+00
 -1      1465 8.71678E+00
 -1      1466 8.71678E+00
 -1      1467 2.41294E+00
 -1      1468 2.90378E+00
 -1      1469 2.90378E+00
 -1      1470 1.66569E+00
 -1      1471 2.03931E+00
 -1      1472 2.03931E+00
 -1      1473 1.14455E+00
 -1      1474 1.40512E+00
 -1      1475 1.40512E+00
 -1      1476 9.05940E-01
 -1      1477 1.02525E+00
 -1      1478 1.02525E+00
 -1      1479 7.31250E-01
 -1      1480 8.18595E-01
 -1      1481 8.18595E-01
 -1      1482 5.87748E-01
 -1      1483 6.59499E-01
 -1      1484 6.59499E-01
 -1      1485 4.68120E-01
 -1      1486 5.27934E-01
 -1      1487 5.27934E-01
 -1      1488 3.68527E-01
 -1      1489 4.18323E-01
 -1      1490 4.18323E-01
 -1      1491 2.94182E-01
 -1      1492 3.31354E-01
 -1      1493 3.31354E-01
 -1      1494 2.32285E-01
 -1      1495 2.63233E-01
 -1      1496 2.63233E-01
 -1      1497 1.82600E-01
 -1      1498 2.08162E-01
 -1      1499 2.08162E-01
 -1      1500 1.42452E-01
 -1      1501 1.63019E-01
 -1      1502 1.64457E-01
 -1      1503 1.10694E-01
 -1      1504 1.26752E-01
 -1      1505 1.29175E-01
 -1      1506 8.65043E-02
 -1      1507 9.85496E-02
 -1      1508 1.01331E-01
 -1      1509 6.90750E-02
 -1      1510 7.75634E-02
 -1      1511 8.02457E-02
 -1      1512 5.76830E-02
 -1      1513 6.30001E-02
 -1      1514 6.52299E-02
 -1      1515 5.37359E-02
 -1      1516 5.46231E-02
 -1      1517 5.60950E-02
 -1      1518 6.21495E-02
 -1      1519 5.70073E-02
 -1      1520 5.63065E-02
 -1      1521 7.59467E-02
 -1      1522 6.78332E-02
 -1      1523 6.52616E-02
 -1      1524 9.52861E-02
 -1      1525 8.40316E-02
 -1      1526 7.90301E-02
 -1      1527 1.20395E-01
 -1      1528 1.05766E-01
 -1      1529 9.75953E-02
 -1      1530 1.51452E-01
 -1      1531 1.33208E-01
 -1      1532 1.20889E-01
 -1      1533 1.95381E-01
 -1      1534 1.73366E-01
 -1      1535 1.55617E-01
 -1      1536 2.50683E-01
 -1      1537 2.24996E-01
 -1      1538 2.07145E-01
 -1      1539 3.31799E-01
 -1      1540 2.88042E-01
 -1      1541 2.74119E-01
 -1      1542 4.33413E-01
 -1      1543 3.77651E-01
 -1      1544 3.57330E-01
 -1      1545 5.56163E-01
 -1      1546 4.88685E-01
 -1      1547 4.58455E-01
 -1      1548 6.96766E-01
 -1      1549 6.19161E-01
 -1      1550 5.76726E-01
 -1      1551 8.43861E-01
 -1      1552 7.61821E-01
 -1      1553 7.04778E-01
 -1      1554 9.91635E-01
 -1      1555 9.17890E-01
 -1      1556 8.43861E-01
 -1      1557 1.10756E+00
 -1      1558 1.06538E+00
 -1      1559 9.91635E-01
 -1      1560 1.38010E+00
 -1      1561 1.22972E+00
 -1      1562 1.18754E+00
 -1      1563 1.78363E+00
 -1      1564 1.53804E+00
 -1      1565 1.46764E+00
 -1      1566 2.12060E+00
 -1      1567 1.94169E+00
 -1      1568 1.78363E+00
 -1      1569 2.52188E+00
 -1      1570 2.29952E+00
 -1      1571 2.12060E+00
 -1      1572 2.88737E+00
 -1      1573 2.74425E+00
 -1      1574 2.52188E+00
 -1      1575 3.39252E+00
 -1      1576 3.03050E+00
 -1      1577 2.88737E+00
 -1      1578 4.64570E+00
 -1      1579 3.75453E+00
 -1      1580 3.39252E+00
 -1      1581 6.60674E+00
 -1      1582 5.53687E+00
 -1      1583 4.64570E+00
 -1      1584 7.91733E+00
 -1      1585 7.67661E+00
 -1      1586 6.60674E+00
 -1      1587 8.15806E+00
 -1      1588 8.15806E+00
 -1      1589 7.91733E+00
 -1      1590 6.40725E+00
 -1      1591 7.28265E+00
 -1      1592 7.28265E+00
 -1      1593 3.02276E+00
 -1      1594 4.72062E+00
 -1      1595 4.72062E+00
 -1      1596 1.32268E+00
 -1      1597 2.07089E+00
 -1      1598 2.08213E+00
 -1      1599 1.52098E+00
 -1      1600 1.51510E+00
 -1      1601 1.32268E+00
 -1      1602 1.52686E+00
 -1      1603 1.52686E+00
 -1      1604 1.52098E+00
 -1      1605 1.25679E+00
 -1      1606 1.39182E+00
 -1      1607 1.39182E+00
 -1      1608 9.98568E-01
 -1      1609 8.96415E-01
 -1      1610 8.77869E-01
 -1      1611 1.05014E+00
 -1      1612 1.05014E+00
 -1      1613 1.16912E+00
 -1      1614 9.61960E-01
 -1      1615 1.05014E+00
 -1      1616 1.32284E+00
 -1      1617 1.01854E+00
 -1      1618 9.07763E-01
 -1      1619 1.26864E+00
 -1      1620 1.94761E+00
 -1      1621 1.69525E+00
 -1      1622 1.89115E+00
 -1      1623 2.01927E+00
 -1      1624 2.01927E+00
 -1      1625 2.63952E+00
 -1      1626 1.86850E+00
 -1      1627 2.01927E+00
 -1      1628 2.71118E+00
 -1      1629 1.07965E+00
 -1      1630 1.31587E+00
 -1      1631 2.15856E+00
 -1      1632 1.10241E+00
 -1      1633 9.79574E-01
 -1      1634 1.50585E+00
 -1      1635 1.10241E+00
 -1      1636 1.10241E+00
 -1      1637 1.40577E+00
 -1      1638 1.07213E+00
 -1      1639 1.09610E+00
 -1      1640 1.39946E+00
 -1      1641 9.15460E-01
 -1      1642 1.00140E+00
 -1      1643 1.32242E+00
 -1      1644 6.46319E-01
 -1      1645 7.51589E-01
 -1      1646 1.08782E+00
 -1      1647 3.31662E-01
 -1      1648 4.61224E-01
 -1      1649 7.38850E-01
 -1      1650 4.14966E-01
 -1      1651 3.22808E-01
 -1      1652 5.44901E-01
 -1      1653 5.21263E-01
 -1      1654 2.75319E+01
 -1      1655 2.75349E+01
 -1      1656 3.22129E+01
 -1      1657 2.74871E+01
 -1      1658 3.35596E+01
 -1      1659 3.35596E+01
 -1      1660 2.45856E+01
 -1      1661 2.98970E+01
 -1      1662 1.22116E+01
 -1      1663 1.73901E+01
 -1      1664 1.29736E+01
 -1      1665 1.25799E+01
 -1      1666 1.34744E+01
 -1      1667 1.33673E+01
 -1      1668 1.35815E+01
 -1      1669 1.35815E+01
 -1      1670 1.30392E+01
 -1      1671 1.33104E+01
 -1      1672 1.35763E+01
 -1      1673 1.24332E+01
 -1      1674 2.83112E+01
 -1      1675 1.54585E+01
 -1      1676 4.10308E+01
 -1      1677 4.10308E+01
 -1      1678 2.95179E+01
 -1      1679 3.81114E+01
 -1      1680 2.55184E+01
 -1      1681 2.55236E+01
 -1      1682 2.55184E+01
 -1      1683 2.55184E+01
 -1      1684 2.53288E+01
 -1      1685 2.44998E+01
 -1      1686 3.62100E+01
 -1      1687 3.00845E+01
 -1      1688 3.77424E+01
 -1      1689 3.77424E+01
 -1      1690 1.41262E+01
 -1      1691 2.59343E+01
 -1      1692 1.18307E+01
 -1      1693 1.28241E+01
 -1      1694 1.23535E+01
 -1      1695 1.21394E+01
 -1      1696 1.25676E+01
 -1      1697 1.25676E+01
 -1      1698 1.20917E+01
 -1      1699 1.22000E+01
 -1      1700 1.23510E+01
 -1      1701 1.23510E+01
 -1      1702 1.48206E+01
 -1      1703 1.17502E+01
 -1      1704 3.32780E+01
 -1      1705 1.93588E+01
 -1      1706 4.63300E+01
 -1      1707 4.63300E+01
 -1      1708 2.62172E+01
 -1      1709 3.73251E+01
 -1      1710 2.75349E+01
 -1      1711 2.75349E+01
 -1      1712 1.90388E+01
 -1      1713 2.98970E+01
 -1      1714 9.98568E-01
 -1      1715 1.13609E+00
 -1      1716 3.09110E+01
 -1      1717 3.22129E+01
 -1      1718 3.09558E+01
 -1      1719 1.22116E+01
 -1      1720 1.29736E+01
 -1      1721 1.34744E+01
 -1      1722 1.33104E+01
 -1      1723 1.24332E+01
 -1      1724 1.37094E+01
 -1      1725 2.83112E+01
 -1      1726 3.81114E+01
 -1      1727 3.11977E+01
 -1      1728 2.72034E+01
 -1      1729 2.61848E+01
 -1      1730 2.99220E+01
 -1      1731 3.62100E+01
 -1      1732 2.59343E+01
 -1      1733 1.28241E+01
 -1      1734 1.18307E+01
 -1      1735 1.23535E+01
 -1      1736 1.22000E+01
 -1      1737 1.20917E+01
 -1      1738 1.17502E+01
 -1      1739 1.56877E+01
 -1      1740 3.32780E+01
 -1      1741 3.73251E+01
 -1      1742 2.96380E+01
 -1      1743 9.61046E+00
 -1      1744 1.27774E+00
 -1      1745 1.67265E+00
 -1      1746 2.38921E+00
 -1      1747 4.27900E+00
 -1      1748 1.76361E+00
 -1      1749 8.82431E-01
 -1      1750 9.74573E-01
 -1      1751 7.79122E-01
 -1      1752 8.33678E-01
 -1      1753 7.42844E-01
 -1      1754 7.13900E-01
 -1      1755 7.47952E-01
 -1      1756 6.62920E-01
 -1      1757 6.71682E-01
 -1      1758 6.91817E-01
 -1      1759 6.09666E-01
 -1      1760 6.95145E-01
 -1      1761 6.73317E-01
 -1      1762 5.89218E-01
 -1      1763 7.50899E-01
 -1      1764 7.16995E-01
 -1      1765 6.12703E-01
 -1      1766 8.41179E-01
 -1      1767 7.84270E-01
 -1      1768 6.67924E-01
 -1      1769 9.84551E-01
 -1      1770 8.88785E-01
 -1      1771 7.48902E-01
 -1      1772 1.22983E+00
 -1      1773 1.05228E+00
 -1      1774 8.64239E-01
 -1      1775 1.71062E+00
 -1      1776 1.34400E+00
 -1      1777 1.04614E+00
 -1      1778 2.63017E+00
 -1      1779 1.79508E+00
 -1      1780 1.24478E+00
 -1      1781 8.11974E+00
 -1      1782 3.06581E+00
 -1      1783 1.76489E+00
 -1      1784 2.79758E+00
 -1      1785 5.19769E+00
 -1      1786 2.16346E+00
 -1      1787 2.65430E+00
 -1      1788 2.05726E+00
 -1      1789 3.39887E+00
 -1      1790 2.53476E+00
 -1      1791 1.91999E+00
 -1      1792 1.68909E+00
 -1      1793 1.35691E+00
 -1      1794 1.49798E+00
 -1      1795 1.17670E+00
 -1      1796 9.65966E-01
 -1      1797 1.08688E+00
 -1      1798 8.40381E-01
 -1      1799 7.15169E-01
 -1      1800 7.81086E-01
 -1      1801 6.56485E-01
 -1      1802 5.66586E-01
 -1      1803 5.96816E-01
 -1      1804 5.18003E-01
 -1      1805 4.54263E-01
 -1      1806 4.89550E-01
 -1      1807 4.11447E-01
 -1      1808 3.61397E-01
 -1      1809 3.98151E-01
 -1      1810 3.28647E-01
 -1      1811 2.89627E-01
 -1      1812 3.22585E-01
 -1      1813 2.61978E-01
 -1      1814 2.33599E-01
 -1      1815 2.62187E-01
 -1      1816 2.09857E-01
 -1      1817 1.85785E-01
 -1      1818 2.10798E-01
 -1      1819 1.68022E-01
 -1      1820 1.48171E-01
 -1      1821 1.69294E-01
 -1      1822 1.33519E-01
 -1      1823 1.17572E-01
 -1      1824 1.36879E-01
 -1      1825 1.05290E-01
 -1      1826 9.28195E-02
 -1      1827 1.09945E-01
 -1      1828 8.27829E-02
 -1      1829 7.33175E-02
 -1      1830 8.76275E-02
 -1      1831 6.52722E-02
 -1      1832 5.83355E-02
 -1      1833 6.95456E-02
 -1      1834 5.19522E-02
 -1      1835 4.70773E-02
 -1      1836 5.51169E-02
 -1      1837 4.23955E-02
 -1      1838 4.07585E-02
 -1      1839 4.40519E-02
 -1      1840 4.04846E-02
 -1      1841 4.38915E-02
 -1      1842 3.90962E-02
 -1      1843 4.79489E-02
 -1      1844 5.32659E-02
 -1      1845 4.28797E-02
 -1      1846 5.95946E-02
 -1      1847 6.82776E-02
 -1      1848 5.32659E-02
 -1      1849 7.69606E-02
 -1      1850 8.80676E-02
 -1      1851 6.82776E-02
 -1      1852 9.93578E-02
 -1      1853 1.12759E-01
 -1      1854 8.82508E-02
 -1      1855 1.31665E-01
 -1      1856 1.48514E-01
 -1      1857 1.18447E-01
 -1      1858 1.70979E-01
 -1      1859 1.91246E-01
 -1      1860 1.59817E-01
 -1      1861 2.16567E-01
 -1      1862 2.43210E-01
 -1      1863 2.07603E-01
 -1      1864 2.69699E-01
 -1      1865 3.00856E-01
 -1      1866 2.59414E-01
 -1      1867 3.25451E-01
 -1      1868 3.54507E-01
 -1      1869 3.10498E-01
 -1      1870 3.79113E-01
 -1      1871 4.16690E-01
 -1      1872 3.59700E-01
 -1      1873 4.42427E-01
 -1      1874 4.93858E-01
 -1      1875 4.10043E-01
 -1      1876 5.18100E-01
 -1      1877 5.66314E-01
 -1      1878 4.60022E-01
 -1      1879 5.68660E-01
 -1      1880 5.91982E-01
 -1      1881 4.86610E-01
 -1      1882 5.56888E-01
 -1      1883 5.82748E-01
 -1      1884 4.53862E-01
 -1      1885 5.73456E-01
 -1      1886 6.19522E-01
 -1      1887 4.09475E-01
 -1      1888 6.69869E-01
 -1      1889 7.11358E-01
 -1      1890 4.50529E-01
 -1      1891 9.19981E-01
 -1      1892 1.10852E+00
 -1      1893 7.09498E-01
 -1      1894 1.35928E+00
 -1      1895 1.64718E+00
 -1      1896 1.16888E+00
 -1      1897 1.84140E+00
 -1      1898 2.23692E+00
 -1      1899 1.61386E+00
 -1      1900 2.47040E+00
 -1      1901 2.84602E+00
 -1      1902 2.04155E+00
 -1      1903 2.95208E+00
 -1      1904 3.06508E+00
 -1      1905 2.38108E+00
 -1      1906 3.02514E+00
 -1      1907 2.93243E+00
 -1      1908 2.44720E+00
 -1      1909 2.91092E+00
 -1      1910 2.81406E+00
 -1      1911 2.38576E+00
 -1      1912 2.73904E+00
 -1      1913 2.41674E+00
 -1      1914 2.28925E+00
 -1      1915 2.22758E+00
 -1      1916 1.89468E+00
 -1      1917 2.02507E+00
 -1      1918 1.71297E+00
 -1      1919 1.42284E+00
 -1      1920 1.65421E+00
 -1      1921 1.22540E+00
 -1      1922 1.00391E+00
 -1      1923 1.27506E+00
 -1      1924 8.95853E-01
 -1      1925 6.83994E-01
 -1      1926 6.98778E-01
 -1      1927 9.69567E-01
 -1      1928 1.39797E+00
 -1      1929 1.77159E+00
 -1      1930 1.52212E+00
 -1      1931 1.01771E+00
 -1      1932 1.27828E+00
 -1      1933 1.01056E+00
 -1      1934 8.04634E-01
 -1      1935 9.23940E-01
 -1      1936 7.97101E-01
 -1      1937 6.37857E-01
 -1      1938 7.25202E-01
 -1      1939 6.23896E-01
 -1      1940 5.12504E-01
 -1      1941 5.84255E-01
 -1      1942 4.90862E-01
 -1      1943 4.19380E-01
 -1      1944 4.79194E-01
 -1      1945 4.03950E-01
 -1      1946 3.37645E-01
 -1      1947 3.87442E-01
 -1      1948 3.38702E-01
 -1      1949 2.72688E-01
 -1      1950 3.09861E-01
 -1      1951 2.78979E-01
 -1      1952 2.19045E-01
 -1      1953 2.49993E-01
 -1      1954 2.28499E-01
 -1      1955 1.75057E-01
 -1      1956 1.99180E-01
 -1      1957 1.85939E-01
 -1      1958 1.38688E-01
 -1      1959 1.58270E-01
 -1      1960 1.49287E-01
 -1      1961 1.09219E-01
 -1      1962 1.24919E-01
 -1      1963 1.18732E-01
 -1      1964 8.64284E-02
 -1      1965 9.85725E-02
 -1      1966 9.43166E-02
 -1      1967 6.94488E-02
 -1      1968 7.83898E-02
 -1      1969 7.56315E-02
 -1      1970 5.77221E-02
 -1      1971 6.37970E-02
 -1      1972 6.19411E-02
 -1      1973 5.11937E-02
 -1      1974 5.42536E-02
 -1      1975 5.28208E-02
 -1      1976 5.38537E-02
 -1      1977 5.05823E-02
 -1      1978 4.87409E-02
 -1      1979 6.20698E-02
 -1      1980 5.63862E-02
 -1      1981 5.06619E-02
 -1      1982 7.52543E-02
 -1      1983 6.71694E-02
 -1      1984 5.82940E-02
 -1      1985 9.60435E-02
 -1      1986 8.55631E-02
 -1      1987 7.37024E-02
 -1      1988 1.22722E-01
 -1      1989 1.09908E-01
 -1      1990 9.78759E-02
 -1      1991 1.62750E-01
 -1      1992 1.40836E-01
 -1      1993 1.29855E-01
 -1      1994 2.26316E-01
 -1      1995 1.96702E-01
 -1      1996 1.81921E-01
 -1      1997 3.10814E-01
 -1      1998 2.73455E-01
 -1      1999 2.63012E-01
 -1      2000 4.19444E-01
 -1      2001 3.73592E-01
 -1      2002 3.72928E-01
 -1      2003 5.56312E-01
 -1      2004 5.01039E-01
 -1      2005 5.17301E-01
 -1      2006 7.21940E-01
 -1      2007 6.58942E-01
 -1      2008 7.01526E-01
 -1      2009 9.10093E-01
 -1      2010 8.45038E-01
 -1      2011 9.27255E-01
 -1      2012 1.12120E+00
 -1      2013 1.04717E+00
 -1      2014 1.18743E+00
 -1      2015 1.32912E+00
 -1      2016 1.25538E+00
 -1      2017 1.45869E+00
 -1      2018 1.56067E+00
 -1      2019 1.43851E+00
 -1      2020 1.70225E+00
 -1      2021 1.80428E+00
 -1      2022 1.64634E+00
 -1      2023 1.89731E+00
 -1      2024 1.99260E+00
 -1      2025 1.83455E+00
 -1      2026 2.01325E+00
 -1      2027 2.16468E+00
 -1      2028 1.98576E+00
 -1      2029 2.03668E+00
 -1      2030 2.31897E+00
 -1      2031 2.09661E+00
 -1      2032 1.96177E+00
 -1      2033 2.55532E+00
 -1      2034 2.41219E+00
 -1      2035 1.98692E+00
 -1      2036 3.53762E+00
 -1      2037 3.17560E+00
 -1      2038 2.70042E+00
 -1      2039 5.01770E+00
 -1      2040 4.12653E+00
 -1      2041 3.90962E+00
 -1      2042 6.67229E+00
 -1      2043 5.60241E+00
 -1      2044 5.08324E+00
 -1      2045 6.42133E+00
 -1      2046 6.18061E+00
 -1      2047 5.17628E+00
 -1      2048 5.05274E+00
 -1      2049 5.92815E+00
 -1      2050 4.19142E+00
 -1      2051 3.04648E+00
 -1      2052 4.73310E+00
 -1      2053 3.37859E+00
 -1      2054 1.67729E+00
 -1      2055 2.62916E+00
 -1      2056 2.64164E+00
 -1      2057 1.69790E+00
 -1      2058 1.50548E+00
 -1      2059 2.05252E+00
 -1      2060 1.48155E+00
 -1      2061 1.47567E+00
 -1      2062 1.65847E+00
 -1      2063 1.17365E+00
 -1      2064 1.30868E+00
 -1      2065 1.26338E+00
 -1      2066 1.05295E+00
 -1      2067 1.69449E+00
 -1      2068 1.74869E+00
 -1      2069 1.62037E+00
 -1      2070 1.62037E+00
 -1      2071 2.04622E+00
 -1      2072 1.37954E+00
 -1      2073 1.22582E+00
 -1      2074 1.26338E+00
 -1      2075 1.67707E+00
 -1      2076 2.93963E+00
 -1      2077 2.26293E+00
 -1      2078 2.74297E+00
 -1      2079 3.63400E+00
 -1      2080 3.56234E+00
 -1      2081 3.93411E+00
 -1      2082 3.63400E+00
 -1      2083 3.63400E+00
 -1      2084 4.55682E+00
 -1      2085 2.79092E+00
 -1      2086 3.34355E+00
 -1      2087 4.26637E+00
 -1      2088 1.96032E+00
 -1      2089 2.06040E+00
 -1      2090 3.24539E+00
 -1      2091 1.70491E+00
 -1      2092 1.70491E+00
 -1      2093 2.25945E+00
 -1      2094 1.62579E+00
 -1      2095 1.63211E+00
 -1      2096 1.93124E+00
 -1      2097 1.46148E+00
 -1      2098 1.53221E+00
 -1      2099 1.76486E+00
 -1      2100 1.15316E+00
 -1      2101 1.31704E+00
 -1      2102 1.52683E+00
 -1      2103 7.68205E-01
 -1      2104 9.53300E-01
 -1      2105 1.18252E+00
 -1      2106 3.22129E+01
 -1      2107 3.08662E+01
 -1      2108 3.09558E+01
 -1      2109 3.09558E+01
 -1      2110 3.04122E+01
 -1      2111 3.04570E+01
 -1      2112 2.18880E+01
 -1      2113 2.55507E+01
 -1      2114 1.04702E+01
 -1      2115 1.76657E+01
 -1      2116 1.03797E+00
 -1      2117 1.21341E+00
 -1      2118 9.82719E-01
 -1      2119 8.54993E-01
 -1      2120 1.19001E+01
 -1      2121 1.15064E+01
 -1      2122 1.24787E+01
 -1      2123 1.23717E+01
 -1      2124 1.14933E+01
 -1      2125 1.17644E+01
 -1      2126 1.01417E+01
 -1      2127 1.07477E+01
 -1      2128 1.17938E+01
 -1      2129 9.91165E+00
 -1      2130 2.76760E+01
 -1      2131 1.49564E+01
 -1      2132 2.94628E+01
 -1      2133 3.23822E+01
 -1      2134 1.90273E+01
 -1      2135 2.69324E+01
 -1      2136 3.09267E+01
 -1      2137 3.17276E+01
 -1      2138 3.17276E+01
 -1      2139 3.14566E+01
 -1      2140 3.07090E+01
 -1      2141 3.17276E+01
 -1      2142 2.73748E+01
 -1      2143 2.26191E+01
 -1      2144 2.81619E+01
 -1      2145 3.05097E+01
 -1      2146 2.89774E+01
 -1      2147 1.37669E+01
 -1      2148 2.55750E+01
 -1      2149 9.35811E+00
 -1      2150 1.06602E+01
 -1      2151 1.03009E+01
 -1      2152 1.08314E+01
 -1      2153 1.05227E+01
 -1      2154 1.20136E+01
 -1      2155 1.17995E+01
 -1      2156 1.04915E+01
 -1      2157 1.13284E+01
 -1      2158 1.16960E+01
 -1      2159 1.16055E+01
 -1      2160 1.13463E+01
 -1      2161 9.74888E+00
 -1      2162 1.03496E+01
 -1      2163 1.43697E+01
 -1      2164 9.83153E+00
 -1      2165 8.43092E+00
 -1      2166 3.11526E+01
 -1      2167 1.81005E+01
 -1      2168 2.83203E+01
 -1      2169 3.73251E+01
 -1      2170 3.04173E+01
 -1      2171 2.90996E+01
 -1      2172 1.02968E+01
 -1      2173 9.92856E+00
 -1      2174 9.22333E+00
 -1      2175 1.78250E+01
 -1      2176 1.34787E+01
 -1      2177 9.25634E+00
 -1      2178 2.91040E+00
 -1      2179 8.55541E+00
 -1      2180 2.10453E+00
 -1      2181 3.04122E+01
 -1      2182 3.04570E+01
 -1      2183 7.59350E-01
 -1      2184 2.42040E+01
 -1      2185 3.04173E+01
 -1      2186 2.90996E+01
 -1      2187 1.43619E+01
 -1      2188 8.50576E+00
 -1      2189 1.22366E+01
 -1      2190 9.60418E+00
 -1      2191 1.11420E+01
 -1      2192 8.35880E+00
 -1      2193 2.16746E+01
 -1      2194 3.62518E+01
 -1      2195 2.77844E+01
 -1      2196 2.20552E+01
 -1      2197 2.35191E+01
 -1      2198 1.11586E+01
 -1      2199 8.22616E+00
 -1      2200 9.20183E+00
 -1      2201 1.09044E+01
 -1      2202 1.06617E+01
 -1      2203 1.83424E+01
 -1      2204 1.08422E+01
 -1      2205 2.21477E+01
 -1      2206 1.08885E+00
 -1      2207 1.48072E+00
 -1      2208 5.58917E-01
 -1      2209 5.90088E-01
 -1      2210 6.02485E-01
 -1      2211 6.51238E-01
 -1      2212 4.98482E-01
 -1      2213 5.11246E-01
 -1      2214 5.09611E-01
 -1      2215 5.46062E-01
 -1      2216 5.24212E-01
 -1      2217 4.44605E-01
 -1      2218 5.94227E-01
 -1      2219 5.60856E-01
 -1      2220 4.72365E-01
 -1      2221 6.53873E-01
 -1      2222 6.06267E-01
 -1      2223 4.99199E-01
 -1      2224 7.21604E-01
 -1      2225 6.53873E-01
 -1      2226 5.11239E-01
 -1      2227 8.84852E-01
 -1      2228 7.70681E-01
 -1      2229 5.60316E-01
 -1      2230 8.90874E-01
 -1      2231 1.01056E+00
 -1      2232 9.69164E-01
 -1      2233 1.26587E+00
 -1      2234 1.03497E+00
 -1      2235 5.62319E+00
 -1      2236 6.16483E+00
 -1      2237 9.84684E-01
 -1      2238 8.04479E-01
 -1      2239 7.52571E-01
 -1      2240 7.47500E-01
 -1      2241 6.21915E-01
 -1      2242 6.45309E-01
 -1      2243 5.65721E-01
 -1      2244 5.07037E-01
 -1      2245 5.32135E-01
 -1      2246 4.57696E-01
 -1      2247 4.09113E-01
 -1      2248 4.26600E-01
 -1      2249 3.81718E-01
 -1      2250 3.38903E-01
 -1      2251 3.49865E-01
 -1      2252 3.13851E-01
 -1      2253 2.81101E-01
 -1      2254 2.97418E-01
 -1      2255 2.57407E-01
 -1      2256 2.29758E-01
 -1      2257 2.48672E-01
 -1      2258 2.10451E-01
 -1      2259 1.86710E-01
 -1      2260 2.05670E-01
 -1      2261 1.69866E-01
 -1      2262 1.52103E-01
 -1      2263 1.69519E-01
 -1      2264 1.37428E-01
 -1      2265 1.22776E-01
 -1      2266 1.38001E-01
 -1      2267 1.10389E-01
 -1      2268 9.81076E-02
 -1      2269 1.10938E-01
 -1      2270 8.82611E-02
 -1      2271 7.82245E-02
 -1      2272 8.87045E-02
 -1      2273 7.02374E-02
 -1      2274 6.21921E-02
 -1      2275 7.08710E-02
 -1      2276 5.53628E-02
 -1      2277 4.89795E-02
 -1      2278 5.60547E-02
 -1      2279 4.36499E-02
 -1      2280 3.89682E-02
 -1      2281 4.38958E-02
 -1      2282 3.59413E-02
 -1      2283 3.56673E-02
 -1      2284 3.55393E-02
 -1      2285 3.78593E-02
 -1      2286 4.19168E-02
 -1      2287 3.47044E-02
 -1      2288 4.59934E-02
 -1      2289 5.23221E-02
 -1      2290 4.09730E-02
 -1      2291 6.05054E-02
 -1      2292 6.91884E-02
 -1      2293 5.32330E-02
 -1      2294 8.28805E-02
 -1      2295 9.41707E-02
 -1      2296 7.51083E-02
 -1      2297 1.10924E-01
 -1      2298 1.29830E-01
 -1      2299 1.05553E-01
 -1      2300 1.49787E-01
 -1      2301 1.72251E-01
 -1      2302 1.42263E-01
 -1      2303 1.95119E-01
 -1      2304 2.20441E-01
 -1      2305 1.85089E-01
 -1      2306 2.45247E-01
 -1      2307 2.71735E-01
 -1      2308 2.32763E-01
 -1      2309 2.96521E-01
 -1      2310 3.21117E-01
 -1      2311 2.82354E-01
 -1      2312 3.44769E-01
 -1      2313 3.69375E-01
 -1      2314 3.30792E-01
 -1      2315 3.89960E-01
 -1      2316 4.15697E-01
 -1      2317 3.75029E-01
 -1      2318 4.31507E-01
 -1      2319 4.55750E-01
 -1      2320 4.11425E-01
 -1      2321 4.66642E-01
 -1      2322 4.68988E-01
 -1      2323 4.38127E-01
 -1      2324 4.62849E-01
 -1      2325 4.27755E-01
 -1      2326 4.42881E-01
 -1      2327 4.64845E-01
 -1      2328 4.55552E-01
 -1      2329 4.73832E-01
 -1      2330 5.06643E-01
 -1      2331 5.56990E-01
 -1      2332 5.62013E-01
 -1      2333 6.65550E-01
 -1      2334 8.74173E-01
 -1      2335 7.21665E-01
 -1      2336 1.02549E+00
 -1      2337 1.27625E+00
 -1      2338 9.81541E-01
 -1      2339 1.46423E+00
 -1      2340 1.65845E+00
 -1      2341 1.32084E+00
 -1      2342 1.76598E+00
 -1      2343 1.99946E+00
 -1      2344 1.61636E+00
 -1      2345 2.09449E+00
 -1      2346 2.20055E+00
 -1      2347 1.81893E+00
 -1      2348 2.17463E+00
 -1      2349 2.13470E+00
 -1      2350 1.88805E+00
 -1      2351 2.15642E+00
 -1      2352 2.13492E+00
 -1      2353 1.88385E+00
 -1      2354 2.12789E+00
 -1      2355 2.05287E+00
 -1      2356 1.89854E+00
 -1      2357 1.97017E+00
 -1      2358 1.78101E+00
 -1      2359 1.80881E+00
 -1      2360 1.73508E+00
 -1      2361 1.55337E+00
 -1      2362 1.68018E+00
 -1      2363 1.45567E+00
 -1      2364 1.25823E+00
 -1      2365 1.53654E+00
 -1      2366 5.44464E-01
 -1      2367 6.23896E-01
 -1      2368 4.37261E-01
 -1      2369 4.90862E-01
 -1      2370 4.90862E-01
 -1      2371 3.70640E-01
 -1      2372 4.03950E-01
 -1      2373 4.03950E-01
 -1      2374 3.06763E-01
 -1      2375 3.38702E-01
 -1      2376 3.38702E-01
 -1      2377 2.51194E-01
 -1      2378 2.78979E-01
 -1      2379 2.78979E-01
 -1      2380 2.06156E-01
 -1      2381 2.28851E-01
 -1      2382 2.28851E-01
 -1      2383 1.66703E-01
 -1      2384 1.86568E-01
 -1      2385 1.86919E-01
 -1      2386 1.33210E-01
 -1      2387 1.49997E-01
 -1      2388 1.50626E-01
 -1      2389 1.06708E-01
 -1      2390 1.20477E-01
 -1      2391 1.21187E-01
 -1      2392 8.56089E-02
 -1      2393 9.62554E-02
 -1      2394 9.80005E-02
 -1      2395 6.88344E-02
 -1      2396 7.68730E-02
 -1      2397 7.88118E-02
 -1      2398 5.59791E-02
 -1      2399 6.16309E-02
 -1      2400 6.28724E-02
 -1      2401 4.65537E-02
 -1      2402 5.00222E-02
 -1      2403 4.97120E-02
 -1      2404 4.33551E-02
 -1      2405 4.39666E-02
 -1      2406 4.11680E-02
 -1      2407 4.60311E-02
 -1      2408 4.34986E-02
 -1      2409 3.87244E-02
 -1      2410 5.60372E-02
 -1      2411 5.09375E-02
 -1      2412 4.37743E-02
 -1      2413 7.37024E-02
 -1      2414 6.33936E-02
 -1      2415 5.60372E-02
 -1      2416 1.02823E-01
 -1      2417 8.89581E-02
 -1      2418 7.86492E-02
 -1      2419 1.43462E-01
 -1      2420 1.25347E-01
 -1      2421 1.16429E-01
 -1      2422 2.07752E-01
 -1      2423 1.73800E-01
 -1      2424 1.69292E-01
 -1      2425 2.95336E-01
 -1      2426 2.48197E-01
 -1      2427 2.40076E-01
 -1      2428 4.11331E-01
 -1      2429 3.48552E-01
 -1      2430 3.33738E-01
 -1      2431 5.61808E-01
 -1      2432 4.80213E-01
 -1      2433 4.55837E-01
 -1      2434 7.51727E-01
 -1      2435 6.49097E-01
 -1      2436 6.12008E-01
 -1      2437 9.82273E-01
 -1      2438 8.59175E-01
 -1      2439 8.06745E-01
 -1      2440 1.24615E+00
 -1      2441 1.10907E+00
 -1      2442 1.04099E+00
 -1      2443 1.52053E+00
 -1      2444 1.38635E+00
 -1      2445 1.30799E+00
 -1      2446 1.76888E+00
 -1      2447 1.65949E+00
 -1      2448 1.58715E+00
 -1      2449 1.96614E+00
 -1      2450 1.88047E+00
 -1      2451 1.83771E+00
 -1      2452 2.12693E+00
 -1      2453 2.09665E+00
 -1      2454 2.07982E+00
 -1      2455 2.35685E+00
 -1      2456 2.36369E+00
 -1      2457 2.44710E+00
 -1      2458 2.53252E+00
 -1      2459 2.60059E+00
 -1      2460 2.92761E+00
 -1      2461 2.88296E+00
 -1      2462 2.78974E+00
 -1      2463 3.42856E+00
 -1      2464 3.69308E+00
 -1      2465 3.07280E+00
 -1      2466 3.87562E+00
 -1      2467 4.49853E+00
 -1      2468 3.90962E+00
 -1      2469 4.28199E+00
 -1      2470 5.86241E+00
 -1      2471 5.27769E+00
 -1      2472 5.27769E+00
 -1      2473 5.37423E+00
 -1      2474 5.86590E+00
 -1      2475 6.06035E+00
 -1      2476 4.19142E+00
 -1      2477 4.68461E+00
 -1      2478 5.37423E+00
 -1      2479 3.24670E+00
 -1      2480 3.56634E+00
 -1      2481 4.05952E+00
 -1      2482 2.84469E+00
 -1      2483 3.26201E+00
 -1      2484 3.44975E+00
 -1      2485 2.36400E+00
 -1      2486 2.53581E+00
 -1      2487 3.15618E+00
 -1      2488 1.70306E+00
 -1      2489 1.92529E+00
 -1      2490 2.40859E+00
 -1      2491 1.43624E+00
 -1      2492 5.15485E+00
 -1      2493 4.53214E+00
 -1      2494 6.15086E+00
 -1      2495 6.15086E+00
 -1      2496 6.74889E+00
 -1      2497 3.23877E+00
 -1      2498 3.11045E+00
 -1      2499 4.09135E+00
 -1      2500 3.52292E+00
 -1      2501 4.58715E+00
 -1      2502 5.31209E+00
 -1      2503 5.86041E+00
 -1      2504 6.15086E+00
 -1      2505 7.74490E+00
 -1      2506 3.71480E+00
 -1      2507 4.44533E+00
 -1      2508 6.32982E+00
 -1      2509 2.94291E+00
 -1      2510 3.19832E+00
 -1      2511 4.39826E+00
 -1      2512 2.30169E+00
 -1      2513 2.37449E+00
 -1      2514 3.31336E+00
 -1      2515 1.83923E+00
 -1      2516 1.93281E+00
 -1      2517 2.37606E+00
 -1      2518 1.56317E+00
 -1      2519 1.70762E+00
 -1      2520 1.87557E+00
 -1      2521 1.11435E+00
 -1      2522 1.31421E+00
 -1      2523 1.49500E+00
 -1      2524 2.99583E+01
 -1      2525 3.04570E+01
 -1      2526 1.54331E+01
 -1      2527 2.20953E+01
 -1      2528 7.03329E-01
 -1      2529 7.97101E-01
 -1      2530 6.23896E-01
 -1      2531 9.22082E-01
 -1      2532 3.04173E+01
 -1      2533 2.98789E+01
 -1      2534 2.59156E+01
 -1      2535 2.54616E+01
 -1      2536 2.54616E+01
 -1      2537 8.13855E+00
 -1      2538 6.92900E+00
 -1      2539 2.49229E+01
 -1      2540 2.41436E+01
 -1      2541 7.27557E+00
 -1      2542 8.53149E+00
 -1      2543 2.06896E+01
 -1      2544 1.90871E+01
 -1      2545 1.08229E+01
 -1      2546 7.66034E+00
 -1      2547 5.22460E-01
 -1      2548 5.44543E-01
 -1      2549 4.71711E-01
 -1      2550 4.44488E-01
 -1      2551 9.18491E+00
 -1      2552 9.89921E+00
 -1      2553 1.22619E+01
 -1      2554 1.71966E+01
 -1      2555 9.49387E+00
 -1      2556 9.02230E+00
 -1      2557 6.72797E+00
 -1      2558 8.01707E+00
 -1      2559 7.34631E+00
 -1      2560 8.09189E+00
 -1      2561 7.32939E+00
 -1      2562 6.55233E+00
 -1      2563 6.78242E+00
 -1      2564 1.85538E+01
 -1      2565 1.38476E+01
 -1      2566 3.14566E+01
 -1      2567 2.66613E+01
 -1      2568 3.62518E+01
 -1      2569 3.62518E+01
 -1      2570 1.92872E+01
 -1      2571 2.73771E+01
 -1      2572 9.85833E+00
 -1      2573 9.84045E+00
 -1      2574 7.42898E+00
 -1      2575 1.05357E+01
 -1      2576 6.97039E+00
 -1      2577 5.80583E+00
 -1      2578 6.04057E+00
 -1      2579 8.32306E+00
 -1      2580 7.35491E+00
 -1      2581 2.03049E+01
 -1      2582 1.41323E+01
 -1      2583 9.94033E+00
 -1      2584 1.02580E+01
 -1      2585 8.95643E+00
 -1      2586 6.59196E+00
 -1      2587 6.50931E+00
 -1      2588 1.67700E+00
 -1      2589 1.30136E+00
 -1      2590 8.38340E-01
 -1      2591 9.60437E-01
 -1      2592 1.62095E+00
 -1      2593 1.76423E+00
 -1      2594 1.32858E+00
 -1      2595 1.18768E+00
 -1      2596 6.15399E-01
 -1      2597 7.55758E-01
 -1      2598 8.19154E-01
 -1      2599 7.97101E-01
 -1      2600 1.24411E+00
 -1      2601 1.61282E+01
 -1      2602 4.80193E+00
 -1      2603 4.17160E+00
 -1      2604 7.10383E+00
 -1      2605 7.26312E+00
 -1      2606 1.13700E+01
 -1      2607 2.49229E+01
 -1      2608 7.52972E+00
 -1      2609 1.70306E+00
 -1      2610 1.94389E+00
 -1      2611 1.83023E+01
 -1      2612 4.53841E+00
 -1      2613 1.71447E+01
 -1      2614 2.73771E+01
 -1      2615 3.14566E+01
 -1      2616 9.68655E-01
 -1      2617 5.67248E+00
 -1      2618 8.96108E-01
 -1      2619 1.19298E+01
 -1      2620 8.19122E+00
 -1      2621 1.00870E+01
 -1      2622 1.03494E+01
 -1      2623 1.46091E+01
 -1      2624 5.43662E+00
 -1      2625 6.21660E+00
 -1      2626 2.35191E+01
 -1      2627 9.38991E+00
 -1      2628 1.68755E+01
 -1      2629 7.12138E+00
 -1      2630 6.58416E+00
 -1      2631 1.05377E+00
 -1      2632 1.11435E+00
 -1      2633 1.24604E+00
 -1      2634 1.16183E+00
 -1      2635 3.13644E+00
 -1      2636 1.34244E+00
 -1      2637 6.14661E+00
 -1      2638 7.23963E+00
 -1      2639 4.22829E-01
 -1      2640 4.08035E-01
 -1      2641 4.00164E-01
 -1      2642 3.87198E-01
 -1      2643 3.50628E-01
 -1      2644 4.36632E-01
 -1      2645 4.36632E-01
 -1      2646 4.73757E-01
 -1      2647 4.24679E-01
 -1      2648 3.50072E-01
 -1      2649 7.17355E-01
 -1      2650 7.95646E-01
 -1      2651 4.80356E+00
 -1      2652 5.36745E+00
 -1      2653 7.49855E+00
 -1      2654 7.59843E+00
 -1      2655 8.28424E-01
 -1      2656 7.24313E+00
 -1      2657 5.49762E-01
 -1      2658 4.92783E-01
 -1      2659 4.85936E-01
 -1      2660 4.29741E-01
 -1      2661 3.90389E-01
 -1      2662 4.09381E-01
 -1      2663 3.60040E-01
 -1      2664 3.63181E-01
 -1      2665 3.35241E-01
 -1      2666 3.07847E-01
 -1      2667 3.18022E-01
 -1      2668 2.83014E-01
 -1      2669 2.57962E-01
 -1      2670 2.68391E-01
 -1      2671 2.42345E-01
 -1      2672 2.18650E-01
 -1      2673 2.27940E-01
 -1      2674 2.02407E-01
 -1      2675 1.83100E-01
 -1      2676 1.96079E-01
 -1      2677 1.67607E-01
 -1      2678 1.50764E-01
 -1      2679 1.64344E-01
 -1      2680 1.36782E-01
 -1      2681 1.22107E-01
 -1      2682 1.34870E-01
 -1      2683 1.10531E-01
 -1      2684 9.81430E-02
 -1      2685 1.09312E-01
 -1      2686 8.87045E-02
 -1      2687 7.88581E-02
 -1      2688 8.82966E-02
 -1      2689 7.08710E-02
 -1      2690 6.28840E-02
 -1      2691 7.08710E-02
 -1      2692 5.60547E-02
 -1      2693 4.92254E-02
 -1      2694 5.60547E-02
 -1      2695 4.35415E-02
 -1      2696 3.82120E-02
 -1      2697 4.35415E-02
 -1      2698 3.35443E-02
 -1      2699 3.05174E-02
 -1      2700 3.31900E-02
 -1      2701 2.87949E-02
 -1      2702 3.09869E-02
 -1      2703 2.67999E-02
 -1      2704 3.33418E-02
 -1      2705 3.74184E-02
 -1      2706 2.74323E-02
 -1      2707 4.65800E-02
 -1      2708 5.47632E-02
 -1      2709 3.89487E-02
 -1      2710 6.65146E-02
 -1      2711 8.02066E-02
 -1      2712 5.98616E-02
 -1      2713 9.45885E-02
 -1      2714 1.11342E-01
 -1      2715 8.59948E-02
 -1      2716 1.28750E-01
 -1      2717 1.48707E-01
 -1      2718 1.17785E-01
 -1      2719 1.69342E-01
 -1      2720 1.92210E-01
 -1      2721 1.55828E-01
 -1      2722 2.15928E-01
 -1      2723 2.40734E-01
 -1      2724 2.00181E-01
 -1      2725 2.66838E-01
 -1      2726 2.91624E-01
 -1      2727 2.50004E-01
 -1      2728 3.19725E-01
 -1      2729 3.43377E-01
 -1      2730 3.04209E-01
 -1      2731 3.70642E-01
 -1      2732 3.91228E-01
 -1      2733 3.59575E-01
 -1      2734 4.17423E-01
 -1      2735 4.33234E-01
 -1      2736 4.13037E-01
 -1      2737 4.65945E-01
 -1      2738 4.76837E-01
 -1      2739 4.71944E-01
 -1      2740 5.10175E-01
 -1      2741 5.04037E-01
 -1      2742 5.37993E-01
 -1      2743 5.23340E-01
 -1      2744 5.60430E-01
 -1      2745 5.90635E-01
 -1      2746 6.53921E-01
 -1      2747 7.05012E-01
 -1      2748 7.03429E-01
 -1      2749 8.10357E-01
 -1      2750 9.18918E-01
 -1      2751 9.02265E-01
 -1      2752 9.91408E-01
 -1      2753 1.14272E+00
 -1      2754 1.08010E+00
 -1      2755 1.31959E+00
 -1      2756 1.50758E+00
 -1      2757 1.32946E+00
 -1      2758 1.56573E+00
 -1      2759 1.67326E+00
 -1      2760 1.56448E+00
 -1      2761 1.84648E+00
 -1      2762 1.94151E+00
 -1      2763 1.79585E+00
 -1      2764 2.18332E+00
 -1      2765 2.15740E+00
 -1      2766 2.21087E+00
 -1      2767 2.09317E+00
 -1      2768 2.11489E+00
 -1      2769 2.38844E+00
 -1      2770 2.09323E+00
 -1      2771 2.08620E+00
 -1      2772 2.30256E+00
 -1      2773 1.90096E+00
 -1      2774 1.81826E+00
 -1      2775 2.09565E+00
 -1      2776 1.78124E+00
 -1      2777 1.73530E+00
 -1      2778 1.87338E+00
 -1      2779 1.69084E+00
 -1      2780 1.59314E+00
 -1      2781 1.79190E+00
 -1      2782 3.48989E-01
 -1      2783 3.82299E-01
 -1      2784 6.45988E+00
 -1      2785 5.29332E+00
 -1      2786 5.73203E+00
 -1      2787 4.16632E-01
 -1      2788 4.70233E-01
 -1      2789 3.61670E-01
 -1      2790 2.42116E-01
 -1      2791 2.69901E-01
 -1      2792 2.01180E-01
 -1      2793 2.23523E-01
 -1      2794 2.14445E-01
 -1      2795 1.64541E-01
 -1      2796 1.84129E-01
 -1      2797 1.78801E-01
 -1      2798 1.33898E-01
 -1      2799 1.50603E-01
 -1      2800 1.47813E-01
 -1      2801 1.08789E-01
 -1      2802 1.21523E-01
 -1      2803 1.21500E-01
 -1      2804 8.77096E-02
 -1      2805 9.81624E-02
 -1      2806 9.84985E-02
 -1      2807 7.00759E-02
 -1      2808 7.88118E-02
 -1      2809 7.89737E-02
 -1      2810 5.56690E-02
 -1      2811 6.28724E-02
 -1      2812 6.28724E-02
 -1      2813 4.37551E-02
 -1      2814 4.97120E-02
 -1      2815 4.97120E-02
 -1      2816 3.68822E-02
 -1      2817 3.94693E-02
 -1      2818 3.94693E-02
 -1      2819 3.43745E-02
 -1      2820 3.42310E-02
 -1      2821 3.25323E-02
 -1      2822 4.23502E-02
 -1      2823 3.74438E-02
 -1      2824 3.29504E-02
 -1      2825 5.68855E-02
 -1      2826 4.95291E-02
 -1      2827 4.31986E-02
 -1      2828 8.61481E-02
 -1      2829 7.08924E-02
 -1      2830 6.43844E-02
 -1      2831 1.27054E-01
 -1      2832 1.04529E-01
 -1      2833 9.67724E-02
 -1      2834 1.81551E-01
 -1      2835 1.51212E-01
 -1      2836 1.39312E-01
 -1      2837 2.53624E-01
 -1      2838 2.13179E-01
 -1      2839 1.95099E-01
 -1      2840 3.47967E-01
 -1      2841 2.94751E-01
 -1      2842 2.67853E-01
 -1      2843 4.69898E-01
 -1      2844 4.01016E-01
 -1      2845 3.62028E-01
 -1      2846 6.25044E-01
 -1      2847 5.37755E-01
 -1      2848 4.82934E-01
 -1      2849 8.18610E-01
 -1      2850 7.11162E-01
 -1      2851 6.36909E-01
 -1      2852 1.05399E+00
 -1      2853 9.27187E-01
 -1      2854 8.31603E-01
 -1      2855 1.33078E+00
 -1      2856 1.19058E+00
 -1      2857 1.07677E+00
 -1      2858 1.64172E+00
 -1      2859 1.50276E+00
 -1      2860 1.38534E+00
 -1      2861 1.96220E+00
 -1      2862 1.85061E+00
 -1      2863 1.76621E+00
 -1      2864 2.34318E+00
 -1      2865 2.21267E+00
 -1      2866 2.22557E+00
 -1      2867 2.88601E+00
 -1      2868 2.64925E+00
 -1      2869 2.78210E+00
 -1      2870 3.70302E+00
 -1      2871 3.45928E+00
 -1      2872 3.66143E+00
 -1      2873 3.83582E+00
 -1      2874 3.57859E+00
 -1      2875 4.11027E+00
 -1      2876 4.58702E+00
 -1      2877 5.26442E+00
 -1      2878 5.95404E+00
 -1      2879 4.28783E+00
 -1      2880 4.27252E+00
 -1      2881 3.15618E+00
 -1      2882 3.46506E+00
 -1      2883 4.28783E+00
 -1      2884 6.04091E+00
 -1      2885 7.28074E+00
 -1      2886 8.69582E+00
 -1      2887 1.43884E+00
 -1      2888 1.34244E+00
 -1      2889 1.59314E+00
 -1      2890 7.26238E+00
 -1      2891 6.26637E+00
 -1      2892 6.09176E+00
 -1      2893 6.60823E+00
 -1      2894 8.97424E+00
 -1      2895 8.69582E+00
 -1      2896 8.69582E+00
 -1      2897 9.64674E+00
 -1      2898 2.19920E+01
 -1      2899 1.70360E+01
 -1      2900 3.27252E+00
 -1      2901 3.84093E+00
 -1      2902 6.05091E+00
 -1      2903 2.48609E+00
 -1      2904 2.85497E+00
 -1      2905 3.38254E+00
 -1      2906 1.86338E+00
 -1      2907 1.99500E+00
 -1      2908 2.47390E+00
 -1      2909 2.49224E+01
 -1      2910 2.54212E+01
 -1      2911 1.72968E+01
 -1      2912 2.61715E+01
 -1      2913 2.48828E+01
 -1      2914 1.75955E+01
 -1      2915 2.20921E+01
 -1      2916 4.13013E+00
 -1      2917 3.74562E+00
 -1      2918 1.59837E+01
 -1      2919 1.61838E+01
 -1      2920 4.58311E+00
 -1      2921 3.27729E+00
 -1      2922 4.21630E+00
 -1      2923 4.00330E+00
 -1      2924 5.70071E+00
 -1      2925 7.02755E+00
 -1      2926 5.04068E-01
 -1      2927 5.83501E-01
 -1      2928 4.29838E-01
 -1      2929 2.89779E-01
 -1      2930 3.21718E-01
 -1      2931 3.00067E-01
 -1      2932 2.52917E-01
 -1      2933 6.05192E-01
 -1      2934 5.54909E-01
 -1      2935 4.02384E-01
 -1      2936 6.09149E-01
 -1      2937 7.02922E-01
 -1      2938 5.29404E-01
 -1      2939 4.89321E-01
 -1      2940 1.49923E+01
 -1      2941 1.11535E+01
 -1      2942 1.22030E+01
 -1      2943 1.60233E+01
 -1      2944 1.26537E+01
 -1      2945 4.36632E-01
 -1      2946 4.24592E-01
 -1      2947 3.60262E-01
 -1      2948 3.62025E-01
 -1      2949 4.16685E+00
 -1      2950 4.93311E+00
 -1      2951 2.08489E+01
 -1      2952 1.77066E+01
 -1      2953 1.05959E+01
 -1      2954 1.40889E+01
 -1      2955 7.35326E+00
 -1      2956 9.07945E+00
 -1      2957 6.96678E+00
 -1      2958 5.03185E+00
 -1      2959 2.50979E+01
 -1      2960 2.03026E+01
 -1      2961 4.23879E-01
 -1      2962 4.36277E-01
 -1      2963 1.54950E+01
 -1      2964 1.19936E+01
 -1      2965 1.28248E+01
 -1      2966 4.70448E+00
 -1      2967 6.32763E+00
 -1      2968 9.73150E+00
 -1      2969 6.70675E+00
 -1      2970 8.35100E+00
 -1      2971 7.96872E-01
 -1      2972 6.94505E+00
 -1      2973 5.03125E+00
 -1      2974 1.34244E+00
 -1      2975 9.00531E+00
 -1      2976 1.09597E+01
 -1      2977 4.96208E+00
 -1      2978 4.44051E+00
 -1      2979 4.25068E+00
 -1      2980 6.07009E+00
 -1      2981 4.43094E+00
 -1      2982 3.42426E-01
 -1      2983 3.86867E-01
 -1      2984 3.99715E-01
 -1      2985 1.20614E+01
 -1      2986 6.83778E+00
 -1      2987 5.50890E+00
 -1      2988 4.63272E-01
 -1      2989 5.67792E-01
 -1      2990 3.88669E-01
 -1      2991 5.76616E-01
 -1      2992 6.85280E+00
 -1      2993 7.69831E+00
 -1      2994 7.18482E+00
 -1      2995 4.40071E+00
 -1      2996 8.21330E+00
 -1      2997 4.21630E+00
 -1      2998 3.37821E+00
 -1      2999 4.52774E+00
 -1      3000 9.83828E+00
 -1      3001 6.74403E+00
 -1      3002 2.10123E+01
 -1      3003 1.59764E+01
 -1      3004 1.59140E+00
 -1      3005 1.46660E+01
 -1      3006 2.47463E+01
 -1      3007 1.35924E+01
 -1      3008 1.54361E+01
 -1      3009 2.04322E+01
 -1      3010 1.25453E+01
 -1      3011 1.15259E+01
 -1      3012 4.03268E+00
 -1      3013 1.09074E+01
 -1      3014 8.70490E+00
 -1      3015 9.77149E+00
 -1      3016 1.49783E+01
 -1      3017 6.01717E+00
 -1      3018 1.19705E+01
 -1      3019 3.97554E+00
 -1      3020 4.07437E-01
 -1      3021 4.21811E-01
 -1      3022 3.59606E-01
 -1      3023 3.49816E-01
 -1      3024 6.74403E+00
 -1      3025 8.55926E+00
 -1      3026 6.63832E+00
 -1      3027 1.89159E+01
 -1      3028 1.31034E+01
 -1      3029 1.25572E+01
 -1      3030 5.66954E+00
 -1      3031 4.40978E-01
 -1      3032 5.83915E-01
 -1      3033 6.60869E-01
 -1      3034 6.25383E-01
 -1      3035 4.31788E-01
 -1      3036 5.45223E+00
 -1      3037 4.27721E-01
 -1      3038 1.31461E+01
 -1      3039 1.66441E+00
 -1      3040 1.81696E+00
 -1      3041 1.93639E+00
 -1      3042 1.81870E+00
 -1      3043 2.89469E-01
 -1      3044 3.01422E-01
 -1      3045 8.61676E+00
 -1      3046 3.15616E-01
 -1      3047 3.08768E-01
 -1      3048 1.05029E+01
 -1      3049 1.14213E+01
 -1      3050 3.19202E-01
 -1      3051 2.98842E-01
 -1      3052 2.44428E-01
 -1      3053 2.95540E-01
 -1      3054 2.70742E-01
 -1      3055 2.51562E-01
 -1      3056 2.59853E-01
 -1      3057 2.35021E-01
 -1      3058 2.37372E-01
 -1      3059 2.20849E-01
 -1      3060 2.05231E-01
 -1      3061 2.12312E-01
 -1      3062 1.91923E-01
 -1      3063 1.75680E-01
 -1      3064 1.84831E-01
 -1      3065 1.65079E-01
 -1      3066 1.49587E-01
 -1      3067 1.60922E-01
 -1      3068 1.38434E-01
 -1      3069 1.24453E-01
 -1      3070 1.39169E-01
 -1      3071 1.13683E-01
 -1      3072 1.02106E-01
 -1      3073 1.17247E-01
 -1      3074 9.22174E-02
 -1      3075 8.27789E-02
 -1      3076 9.65884E-02
 -1      3077 7.39702E-02
 -1      3078 6.59831E-02
 -1      3079 7.78910E-02
 -1      3080 5.82348E-02
 -1      3081 5.14056E-02
 -1      3082 6.13340E-02
 -1      3083 4.45508E-02
 -1      3084 3.88669E-02
 -1      3085 4.67310E-02
 -1      3086 3.26345E-02
 -1      3087 2.79668E-02
 -1      3088 3.36437E-02
 -1      3089 2.26574E-02
 -1      3090 2.09350E-02
 -1      3091 2.21019E-02
 -1      3092 2.14907E-02
 -1      3093 2.38455E-02
 -1      3094 1.73482E-02
 -1      3095 3.12275E-02
 -1      3096 4.03890E-02
 -1      3097 2.52858E-02
 -1      3098 4.99159E-02
 -1      3099 6.16673E-02
 -1      3100 4.21947E-02
 -1      3101 7.37415E-02
 -1      3102 8.81234E-02
 -1      3103 6.37959E-02
 -1      3104 1.02878E-01
 -1      3105 1.20286E-01
 -1      3106 9.06247E-02
 -1      3107 1.37571E-01
 -1      3108 1.58206E-01
 -1      3109 1.22664E-01
 -1      3110 1.80067E-01
 -1      3111 2.03785E-01
 -1      3112 1.61810E-01
 -1      3113 2.30984E-01
 -1      3114 2.57089E-01
 -1      3115 2.10870E-01
 -1      3116 2.88681E-01
 -1      3117 3.16782E-01
 -1      3118 2.69662E-01
 -1      3119 3.51774E-01
 -1      3120 3.79040E-01
 -1      3121 3.36247E-01
 -1      3122 4.14970E-01
 -1      3123 4.41166E-01
 -1      3124 4.07169E-01
 -1      3125 4.80117E-01
 -1      3126 5.12829E-01
 -1      3127 4.82050E-01
 -1      3128 5.70986E-01
 -1      3129 6.04323E-01
 -1      3130 5.79159E-01
 -1      3131 6.77809E-01
 -1      3132 6.97113E-01
 -1      3133 7.10801E-01
 -1      3134 7.64394E-01
 -1      3135 8.57885E-01
 -1      3136 8.51569E-01
 -1      3137 9.60340E-01
 -1      3138 1.06569E+00
 -1      3139 1.02131E+00
 -1      3140 1.26529E+00
 -1      3141 1.33778E+00
 -1      3142 1.32337E+00
 -1      3143 1.52064E+00
 -1      3144 1.69751E+00
 -1      3145 1.70584E+00
 -1      3146 1.94637E+00
 -1      3147 2.00452E+00
 -1      3148 2.13755E+00
 -1      3149 2.12255E+00
 -1      3150 2.29577E+00
 -1      3151 2.50444E+00
 -1      3152 2.53376E+00
 -1      3153 2.77556E+00
 -1      3154 2.86046E+00
 -1      3155 3.66496E+00
 -1      3156 3.60073E+00
 -1      3157 3.98785E+00
 -1      3158 2.92213E+00
 -1      3159 2.90047E+00
 -1      3160 4.19865E+00
 -1      3161 2.37957E+00
 -1      3162 2.19433E+00
 -1      3163 2.99915E+00
 -1      3164 2.81040E+00
 -1      3165 2.77338E+00
 -1      3166 3.09432E+00
 -1      3167 1.83636E+00
 -1      3168 1.79190E+00
 -1      3169 1.86317E+00
 -1      3170 2.77338E+00
 -1      3171 3.06798E-01
 -1      3172 3.41130E-01
 -1      3173 1.62278E-01
 -1      3174 1.79328E-01
 -1      3175 1.92167E-01
 -1      3176 2.10760E-01
 -1      3177 1.75643E-01
 -1      3178 1.11001E-01
 -1      3179 1.23376E-01
 -1      3180 8.95503E-02
 -1      3181 1.00177E-01
 -1      3182 1.02053E-01
 -1      3183 7.12002E-02
 -1      3184 8.00980E-02
 -1      3185 8.17768E-02
 -1      3186 5.58343E-02
 -1      3187 6.30378E-02
 -1      3188 6.41621E-02
 -1      3189 4.32201E-02
 -1      3190 4.91770E-02
 -1      3191 4.93424E-02
 -1      3192 3.37008E-02
 -1      3193 3.79866E-02
 -1      3194 3.74516E-02
 -1      3195 2.61471E-02
 -1      3196 2.87983E-02
 -1      3197 2.73156E-02
 -1      3198 2.88001E-02
 -1      3199 2.57308E-02
 -1      3200 2.19968E-02
 -1      3201 4.26297E-02
 -1      3202 3.54508E-02
 -1      3203 2.82312E-02
 -1      3204 6.74742E-02
 -1      3205 5.34673E-02
 -1      3206 4.57195E-02
 -1      3207 9.95410E-02
 -1      3208 8.11598E-02
 -1      3209 7.02427E-02
 -1      3210 1.41137E-01
 -1      3211 1.16978E-01
 -1      3212 1.01366E-01
 -1      3213 1.97692E-01
 -1      3214 1.66065E-01
 -1      3215 1.43731E-01
 -1      3216 2.74772E-01
 -1      3217 2.33646E-01
 -1      3218 2.04612E-01
 -1      3219 3.75864E-01
 -1      3220 3.22815E-01
 -1      3221 2.88608E-01
 -1      3222 5.07382E-01
 -1      3223 4.39525E-01
 -1      3224 4.00312E-01
 -1      3225 6.76998E-01
 -1      3226 5.90880E-01
 -1      3227 5.47471E-01
 -1      3228 8.93685E-01
 -1      3229 7.85108E-01
 -1      3230 7.39080E-01
 -1      3231 1.16784E+00
 -1      3232 1.03124E+00
 -1      3233 9.84750E-01
 -1      3234 1.51010E+00
 -1      3235 1.33811E+00
 -1      3236 1.29259E+00
 -1      3237 1.93928E+00
 -1      3238 1.73039E+00
 -1      3239 1.68316E+00
 -1      3240 2.49550E+00
 -1      3241 2.24504E+00
 -1      3242 2.20922E+00
 -1      3243 3.41764E+00
 -1      3244 3.11158E+00
 -1      3245 3.13105E+00
 -1      3246 5.37501E+00
 -1      3247 4.80174E+00
 -1      3248 5.13122E+00
 -1      3249 2.43145E+00
 -1      3250 2.92254E+00
 -1      3251 3.12392E+00
 -1      3252 3.54147E+00
 -1      3253 3.08148E+00
 -1      3254 5.11061E+00
 -1      3255 3.01817E-01
 -1      3256 2.96670E-01
 -1      3257 2.15048E-01
 -1      3258 8.91352E+00
 -1      3259 9.58603E+00
 -1      3260 6.66270E+00
 -1      3261 3.23532E-01
 -1      3262 3.15660E-01
 -1      3263 1.17765E+01
 -1      3264 9.56482E+00
 -1      3265 5.03737E+00
 -1      3266 3.50670E-01
 -1      3267 3.84505E-01
 -1      3268 2.95798E-01
 -1      3269 4.55127E+00
 -1      3270 3.68687E+00
 -1      3271 4.86533E+00
 -1      3272 5.89095E+00
 -1      3273 1.18404E+01
 -1      3274 1.29534E+01
 -1      3275 1.35447E-01
 -1      3276 1.49385E-01
 -1      3277 1.49912E-01
 -1      3278 1.24948E-01
 -1      3279 3.08803E+00
 -1      3280 4.04689E+00
 -1      3281 9.84917E+00
 -1      3282 8.83722E+00
 -1      3283 1.07320E+01
 -1      3284 8.70710E+00
 -1      3285 5.50890E+00
 -1      3286 4.87725E+00
 -1      3287 3.97554E+00
 -1      3288 3.07382E+00
 -1      3289 6.52708E+00
 -1      3290 5.28091E+00
 -1      3291 7.34749E+00
 -1      3292 4.72844E+00
 -1      3293 5.19944E+00
 -1      3294 3.68687E+00
 -1      3295 4.45447E+00
 -1      3296 3.26770E-01
 -1      3297 3.06580E-01
 -1      3298 3.10647E-01
 -1      3299 4.12842E-01
 -1      3300 3.09983E-01
 -1      3301 2.61333E-01
 -1      3302 3.98408E-01
 -1      3303 6.63690E+00
 -1      3304 8.15336E+00
 -1      3305 9.84917E+00
 -1      3306 6.85280E+00
 -1      3307 5.60108E+00
 -1      3308 4.54956E+00
 -1      3309 4.67398E+00
 -1      3310 7.86319E+00
 -1      3311 6.03002E+00
 -1      3312 3.12197E-01
 -1      3313 3.11866E-01
 -1      3314 2.85101E-01
 -1      3315 5.81429E+00
 -1      3316 2.80358E-01
 -1      3317 3.07353E-01
 -1      3318 2.02336E-01
 -1      3319 6.91485E+00
 -1      3320 3.71040E+00
 -1      3321 3.08803E+00
 -1      3322 9.42305E+00
 -1      3323 3.92067E+00
 -1      3324 2.02719E-01
 -1      3325 2.24997E-01
 -1      3326 2.44875E-01
 -1      3327 6.81490E+00
 -1      3328 9.84349E+00
 -1      3329 2.00866E-01
 -1      3330 2.60450E-01
 -1      3331 3.21053E-01
 -1      3332 3.21053E-01
 -1      3333 2.63244E-01
 -1      3334 2.90515E-01
 -1      3335 2.35324E-01
 -1      3336 1.18759E+01
 -1      3337 1.18759E+01
 -1      3338 2.69975E-01
 -1      3339 3.23532E-01
 -1      3340 2.88563E-01
 -1      3341 3.25294E-01
 -1      3342 1.88997E+00
 -1      3343 1.93639E+00
 -1      3344 2.38503E+00
 -1      3345 1.86317E+00
 -1      3346 5.48505E+00
 -1      3347 1.19030E+01
 -1      3348 1.04777E+01
 -1      3349 8.76509E+00
 -1      3350 8.60587E+00
 -1      3351 9.83220E+00
 -1      3352 4.44003E+00
 -1      3353 1.08565E+01
 -1      3354 2.83284E-01
 -1      3355 2.01968E-01
 -1      3356 2.81216E-01
 -1      3357 3.67884E-01
 -1      3358 3.93532E-01
 -1      3359 2.76970E-01
 -1      3360 2.88716E-01
 -1      3361 1.07553E+01
 -1      3362 9.36859E+00
 -1      3363 1.04038E+01
 -1      3364 3.98437E+00
 -1      3365 1.03161E+01
 -1      3366 7.33428E+00
 -1      3367 8.44266E+00
 -1      3368 2.14588E-01
 -1      3369 2.11287E-01
 -1      3370 2.15327E-01
 -1      3371 2.04438E-01
 -1      3372 1.78353E-01
 -1      3373 2.00792E-01
 -1      3374 1.86620E-01
 -1      3375 1.78747E-01
 -1      3376 1.78751E-01
 -1      3377 1.65442E-01
 -1      3378 1.67231E-01
 -1      3379 1.55607E-01
 -1      3380 1.45006E-01
 -1      3381 1.49527E-01
 -1      3382 1.36729E-01
 -1      3383 1.25577E-01
 -1      3384 1.31414E-01
 -1      3385 1.17345E-01
 -1      3386 1.06575E-01
 -1      3387 1.14905E-01
 -1      3388 9.82130E-02
 -1      3389 8.83244E-02
 -1      3390 9.83113E-02
 -1      3391 8.03706E-02
 -1      3392 7.15619E-02
 -1      3393 8.19952E-02
 -1      3394 6.42672E-02
 -1      3395 5.65189E-02
 -1      3396 6.67468E-02
 -1      3397 4.99328E-02
 -1      3398 4.30781E-02
 -1      3399 5.28661E-02
 -1      3400 3.71058E-02
 -1      3401 3.08734E-02
 -1      3402 4.03077E-02
 -1      3403 2.65509E-02
 -1      3404 2.12415E-02
 -1      3405 3.00130E-02
 -1      3406 2.19152E-02
 -1      3407 2.24709E-02
 -1      3408 2.63642E-02
 -1      3409 2.50051E-02
 -1      3410 3.23870E-02
 -1      3411 2.95721E-02
 -1      3412 4.16775E-02
 -1      3413 5.12045E-02
 -1      3414 4.13968E-02
 -1      3415 6.30634E-02
 -1      3416 7.51377E-02
 -1      3417 6.25462E-02
 -1      3418 8.97194E-02
 -1      3419 1.04474E-01
 -1      3420 8.89870E-02
 -1      3421 1.22100E-01
 -1      3422 1.39385E-01
 -1      3423 1.21195E-01
 -1      3424 1.60136E-01
 -1      3425 1.81997E-01
 -1      3426 1.59571E-01
 -1      3427 2.05528E-01
 -1      3428 2.32727E-01
 -1      3429 2.03854E-01
 -1      3430 2.57985E-01
 -1      3431 2.89578E-01
 -1      3432 2.52643E-01
 -1      3433 3.21220E-01
 -1      3434 3.56212E-01
 -1      3435 3.09543E-01
 -1      3436 3.97218E-01
 -1      3437 4.33148E-01
 -1      3438 3.82191E-01
 -1      3439 4.88854E-01
 -1      3440 5.27805E-01
 -1      3441 4.78903E-01
 -1      3442 6.00620E-01
 -1      3443 6.58777E-01
 -1      3444 6.07424E-01
 -1      3445 7.39065E-01
 -1      3446 8.12551E-01
 -1      3447 7.60527E-01
 -1      3448 9.42464E-01
 -1      3449 1.00975E+00
 -1      3450 9.70728E-01
 -1      3451 1.14921E+00
 -1      3452 1.25167E+00
 -1      3453 1.24011E+00
 -1      3454 1.33242E+00
 -1      3455 1.53203E+00
 -1      3456 1.46033E+00
 -1      3457 2.03703E+00
 -1      3458 2.21989E+00
 -1      3459 2.04608E+00
 -1      3460 2.49173E+00
 -1      3461 2.74059E+00
 -1      3462 2.82293E+00
 -1      3463 2.84815E+00
 -1      3464 3.08614E+00
 -1      3465 4.56779E+00
 -1      3466 3.88919E+00
 -1      3467 3.61522E+00
 -1      3468 3.09432E+00
 -1      3469 3.71040E+00
 -1      3470 7.59836E-02
 -1      3471 8.54359E-02
 -1      3472 9.42158E-02
 -1      3473 1.05040E-01
 -1      3474 8.84226E-02
 -1      3475 4.60786E-02
 -1      3476 5.27359E-02
 -1      3477 3.44470E-02
 -1      3478 3.96804E-02
 -1      3479 4.30740E-02
 -1      3480 2.36338E-02
 -1      3481 2.85363E-02
 -1      3482 3.07651E-02
 -1      3483 2.23805E-02
 -1      3484 2.27968E-02
 -1      3485 2.40174E-02
 -1      3486 3.18974E-02
 -1      3487 2.52467E-02
 -1      3488 2.60466E-02
 -1      3489 5.26918E-02
 -1      3490 4.18542E-02
 -1      3491 3.88697E-02
 -1      3492 7.93002E-02
 -1      3493 6.56145E-02
 -1      3494 6.17492E-02
 -1      3495 1.14701E-01
 -1      3496 9.72633E-02
 -1      3497 9.26350E-02
 -1      3498 1.63408E-01
 -1      3499 1.38481E-01
 -1      3500 1.34378E-01
 -1      3501 2.30806E-01
 -1      3502 1.94852E-01
 -1      3503 1.89602E-01
 -1      3504 3.20329E-01
 -1      3505 2.72286E-01
 -1      3506 2.62527E-01
 -1      3507 4.38621E-01
 -1      3508 3.74960E-01
 -1      3509 3.58638E-01
 -1      3510 5.94109E-01
 -1      3511 5.10611E-01
 -1      3512 4.85259E-01
 -1      3513 7.97495E-01
 -1      3514 6.89384E-01
 -1      3515 6.52524E-01
 -1      3516 1.06237E+00
 -1      3517 9.24805E-01
 -1      3518 8.75110E-01
 -1      3519 1.40578E+00
 -1      3520 1.23551E+00
 -1      3521 1.17556E+00
 -1      3522 1.86679E+00
 -1      3523 1.64650E+00
 -1      3524 1.58942E+00
 -1      3525 2.51498E+00
 -1      3526 2.20922E+00
 -1      3527 2.17255E+00
 -1      3528 3.66202E+00
 -1      3529 3.04595E+00
 -1      3530 3.04595E+00
 -1      3531 5.67325E+00
 -1      3532 4.28915E+00
 -1      3533 4.20405E+00
 -1      3534 1.82079E-01
 -1      3535 1.85373E-01
 -1      3536 1.80610E-01
 -1      3537 6.40409E+00
 -1      3538 7.51593E+00
 -1      3539 7.51593E+00
 -1      3540 6.51532E+00
 -1      3541 5.67325E+00
 -1      3542 8.84288E+00
 -1      3543 2.31512E-01
 -1      3544 2.47794E-01
 -1      3545 3.09850E+00
 -1      3546 3.91694E+00
 -1      3547 2.86235E+00
 -1      3548 2.46946E-01
 -1      3549 2.56486E-01
 -1      3550 2.08483E-01
 -1      3551 1.99555E-01
 -1      3552 3.04935E-01
 -1      3553 3.12657E-01
 -1      3554 2.36335E-01
 -1      3555 2.74707E-01
 -1      3556 3.98785E+00
 -1      3557 5.63095E+00
 -1      3558 6.31481E+00
 -1      3559 4.57717E+00
 -1      3560 5.32311E+00
 -1      3561 3.71040E+00
 -1      3562 1.57366E-01
 -1      3563 1.70205E-01
 -1      3564 5.98579E-02
 -1      3565 6.80202E-02
 -1      3566 7.16794E-02
 -1      3567 5.65941E-02
 -1      3568 1.87910E-01
 -1      3569 1.98344E-01
 -1      3570 1.58069E-01
 -1      3571 2.74432E+00
 -1      3572 2.35664E-01
 -1      3573 2.19043E-01
 -1      3574 1.86813E-01
 -1      3575 6.05038E+00
 -1      3576 1.53471E-01
 -1      3577 1.82047E-01
 -1      3578 1.96284E-01
 -1      3579 1.63770E-01
 -1      3580 1.06567E-01
 -1      3581 1.14404E-01
 -1      3582 1.26475E-01
 -1      3583 2.25013E-01
 -1      3584 2.02832E-01
 -1      3585 2.06644E-01
 -1      3586 2.01968E-01
 -1      3587 1.85006E-01
 -1      3588 2.04895E-01
 -1      3589 2.03069E-01
 -1      3590 2.22701E-01
 -1      3591 7.04102E+00
 -1      3592 3.75500E+00
 -1      3593 2.84323E-01
 -1      3594 7.39227E+00
 -1      3595 1.48787E-01
 -1      3596 1.43349E-01
 -1      3597 1.35894E-01
 -1      3598 7.10275E+00
 -1      3599 9.86581E+00
 -1      3600 7.02877E+00
 -1      3601 4.72307E+00
 -1      3602 3.29525E+00
 -1      3603 3.29525E+00
 -1      3604 2.53022E-01
 -1      3605 2.49559E-01
 -1      3606 2.53022E-01
 -1      3607 2.53022E-01
 -1      3608 2.17481E-01
 -1      3609 3.49663E+00
 -1      3610 1.59194E-01
 -1      3611 1.55547E-01
 -1      3612 1.55178E-01
 -1      3613 1.47309E-01
 -1      3614 1.35624E-01
 -1      3615 1.42897E-01
 -1      3616 1.33061E-01
 -1      3617 1.30843E-01
 -1      3618 1.26421E-01
 -1      3619 1.18144E-01
 -1      3620 1.19791E-01
 -1      3621 1.10557E-01
 -1      3622 1.02326E-01
 -1      3623 1.05564E-01
 -1      3624 9.60921E-02
 -1      3625 8.77298E-02
 -1      3626 9.17441E-02
 -1      3627 8.12642E-02
 -1      3628 7.33104E-02
 -1      3629 7.90449E-02
 -1      3630 6.70838E-02
 -1      3631 5.97891E-02
 -1      3632 6.63527E-02
 -1      3633 5.40056E-02
 -1      3634 4.74195E-02
 -1      3635 5.43426E-02
 -1      3636 4.21661E-02
 -1      3637 3.61939E-02
 -1      3638 4.33057E-02
 -1      3639 3.31653E-02
 -1      3640 2.88428E-02
 -1      3641 3.50237E-02
 -1      3642 2.93180E-02
 -1      3643 2.99917E-02
 -1      3644 3.24703E-02
 -1      3645 3.16674E-02
 -1      3646 3.42017E-02
 -1      3647 3.46213E-02
 -1      3648 3.84405E-02
 -1      3649 4.77310E-02
 -1      3650 4.05359E-02
 -1      3651 5.81905E-02
 -1      3652 7.00495E-02
 -1      3653 5.52343E-02
 -1      3654 8.32648E-02
 -1      3655 9.78466E-02
 -1      3656 7.89091E-02
 -1      3657 1.14390E-01
 -1      3658 1.32016E-01
 -1      3659 1.08668E-01
 -1      3660 1.52438E-01
 -1      3661 1.73189E-01
 -1      3662 1.45634E-01
 -1      3663 1.97935E-01
 -1      3664 2.21466E-01
 -1      3665 1.90802E-01
 -1      3666 2.50746E-01
 -1      3667 2.76004E-01
 -1      3668 2.44828E-01
 -1      3669 3.09543E-01
 -1      3670 3.41185E-01
 -1      3671 3.07646E-01
 -1      3672 3.77781E-01
 -1      3673 4.18787E-01
 -1      3674 3.77781E-01
 -1      3675 4.72392E-01
 -1      3676 5.28097E-01
 -1      3677 4.67981E-01
 -1      3678 5.96132E-01
 -1      3679 6.68947E-01
 -1      3680 5.89621E-01
 -1      3681 7.97705E-01
 -1      3682 8.77993E-01
 -1      3683 7.86414E-01
 -1      3684 1.04643E+00
 -1      3685 1.17634E+00
 -1      3686 1.08361E+00
 -1      3687 1.68552E+00
 -1      3688 1.82498E+00
 -1      3689 1.76122E+00
 -1      3690 2.34392E+00
 -1      3691 2.42467E+00
 -1      3692 2.78933E+00
 -1      3693 3.48316E+00
 -1      3694 4.52902E+00
 -1      3695 5.54849E+00
 -1      3696 1.15803E-01
 -1      3697 1.32047E-01
 -1      3698 2.80018E+00
 -1      3699 2.77441E-02
 -1      3700 3.36548E-02
 -1      3701 3.90125E-02
 -1      3702 4.54107E-02
 -1      3703 3.59915E-02
 -1      3704 3.10821E-02
 -1      3705 2.82159E-02
 -1      3706 4.57520E-02
 -1      3707 3.57951E-02
 -1      3708 3.79644E-02
 -1      3709 6.98868E-02
 -1      3710 5.69641E-02
 -1      3711 5.38895E-02
 -1      3712 1.02618E-01
 -1      3713 8.46554E-02
 -1      3714 7.98702E-02
 -1      3715 1.45601E-01
 -1      3716 1.21821E-01
 -1      3717 1.13841E-01
 -1      3718 2.01952E-01
 -1      3719 1.70508E-01
 -1      3720 1.57951E-01
 -1      3721 2.75648E-01
 -1      3722 2.34167E-01
 -1      3723 2.15073E-01
 -1      3724 3.71908E-01
 -1      3725 3.17277E-01
 -1      3726 2.88917E-01
 -1      3727 4.97877E-01
 -1      3728 4.25888E-01
 -1      3729 3.84526E-01
 -1      3730 6.63927E-01
 -1      3731 5.68652E-01
 -1      3732 5.09281E-01
 -1      3733 8.86149E-01
 -1      3734 7.58839E-01
 -1      3735 6.74966E-01
 -1      3736 1.19133E+00
 -1      3737 1.01818E+00
 -1      3738 9.01913E-01
 -1      3739 1.62717E+00
 -1      3740 1.38646E+00
 -1      3741 1.22908E+00
 -1      3742 2.27802E+00
 -1      3743 1.93560E+00
 -1      3744 1.73264E+00
 -1      3745 3.34915E+00
 -1      3746 2.81818E+00
 -1      3747 2.58122E+00
 -1      3748 4.74626E+00
 -1      3749 4.11913E+00
 -1      3750 3.89136E+00
 -1      3751 2.56457E-01
 -1      3752 2.18707E-01
 -1      3753 6.10602E+00
 -1      3754 5.58032E+00
 -1      3755 4.73825E+00
 -1      3756 5.56807E+00
 -1      3757 4.22626E+00
 -1      3758 1.77383E-01
 -1      3759 1.76534E-01
 -1      3760 3.28911E+00
 -1      3761 4.22118E+00
 -1      3762 4.52902E+00
 -1      3763 2.78411E+00
 -1      3764 7.99265E-02
 -1      3765 8.87064E-02
 -1      3766 1.65655E-01
 -1      3767 2.28182E-01
 -1      3768 2.60261E-01
 -1      3769 1.49035E-01
 -1      3770 1.53075E-01
 -1      3771 1.06768E-01
 -1      3772 2.42151E-01
 -1      3773 2.46392E-01
 -1      3774 2.10851E-01
 -1      3775 1.84770E-01
 -1      3776 2.66755E-02
 -1      3777 2.75125E-02
 -1      3778 3.17110E-02
 -1      3779 6.61265E+00
 -1      3780 6.93507E+00
 -1      3781 1.78039E-01
 -1      3782 1.66394E-01
 -1      3783 1.40371E-01
 -1      3784 1.97928E-01
 -1      3785 1.29875E-01
 -1      3786 1.56921E-01
 -1      3787 1.36099E-01
 -1      3788 1.25821E-01
 -1      3789 3.66770E+00
 -1      3790 8.74834E-02
 -1      3791 9.59796E-02
 -1      3792 1.05344E-01
 -1      3793 4.02713E+00
 -1      3794 1.46205E-01
 -1      3795 1.58047E-01
 -1      3796 3.04022E-02
 -1      3797 1.85973E-01
 -1      3798 4.72353E-02
 -1      3799 5.12968E-02
 -1      3800 5.84187E-02
 -1      3801 4.65333E+00
 -1      3802 2.21889E-01
 -1      3803 2.21889E-01
 -1      3804 2.14923E-01
 -1      3805 2.53330E-01
 -1      3806 1.82361E-01
 -1      3807 1.50413E-01
 -1      3808 1.75862E-01
 -1      3809 6.32313E+00
 -1      3810 1.25351E-01
 -1      3811 1.29672E-01
 -1      3812 1.38251E-01
 -1      3813 1.32528E-01
 -1      3814 2.53330E-01
 -1      3815 1.35139E-01
 -1      3816 1.34804E-01
 -1      3817 1.54254E-01
 -1      3818 1.05248E-01
 -1      3819 1.85001E-01
 -1      3820 1.95703E-01
 -1      3821 1.85001E-01
 -1      3822 1.85001E-01
 -1      3823 1.52522E-01
 -1      3824 5.20824E+00
 -1      3825 4.75104E+00
 -1      3826 3.68688E+00
 -1      3827 6.49083E-02
 -1      3828 7.28716E-02
 -1      3829 5.96110E-02
 -1      3830 7.31554E-02
 -1      3831 1.19190E-01
 -1      3832 1.14778E-01
 -1      3833 1.12112E-01
 -1      3834 1.05472E-01
 -1      3835 1.00459E-01
 -1      3836 1.00798E-01
 -1      3837 9.32115E-02
 -1      3838 9.31191E-02
 -1      3839 8.75918E-02
 -1      3840 8.13582E-02
 -1      3841 8.28256E-02
 -1      3842 7.54933E-02
 -1      3843 6.90277E-02
 -1      3844 7.13410E-02
 -1      3845 6.39391E-02
 -1      3846 5.77125E-02
 -1      3847 6.03875E-02
 -1      3848 5.30927E-02
 -1      3849 4.73092E-02
 -1      3850 5.06791E-02
 -1      3851 4.30635E-02
 -1      3852 3.78101E-02
 -1      3853 4.18136E-02
 -1      3854 3.71548E-02
 -1      3855 3.41262E-02
 -1      3856 3.69126E-02
 -1      3857 3.40689E-02
 -1      3858 3.45441E-02
 -1      3859 3.62000E-02
 -1      3860 3.59781E-02
 -1      3861 3.76539E-02
 -1      3862 3.75767E-02
 -1      3863 4.06441E-02
 -1      3864 4.48829E-02
 -1      3865 4.20009E-02
 -1      3866 5.06453E-02
 -1      3867 6.11048E-02
 -1      3868 5.07535E-02
 -1      3869 6.98547E-02
 -1      3870 8.30700E-02
 -1      3871 6.52657E-02
 -1      3872 9.70510E-02
 -1      3873 1.13595E-01
 -1      3874 8.79966E-02
 -1      3875 1.31636E-01
 -1      3876 1.52057E-01
 -1      3877 1.20019E-01
 -1      3878 1.75158E-01
 -1      3879 1.99905E-01
 -1      3880 1.61161E-01
 -1      3881 2.29251E-01
 -1      3882 2.58531E-01
 -1      3883 2.13608E-01
 -1      3884 2.95484E-01
 -1      3885 3.29022E-01
 -1      3886 2.79906E-01
 -1      3887 3.75039E-01
 -1      3888 4.11635E-01
 -1      3889 3.62876E-01
 -1      3890 4.67981E-01
 -1      3891 5.21586E-01
 -1      3892 4.65239E-01
 -1      3893 5.88342E-01
 -1      3894 6.56377E-01
 -1      3895 5.88342E-01
 -1      3896 7.73539E-01
 -1      3897 9.02296E-01
 -1      3898 7.72260E-01
 -1      3899 1.08561E+00
 -1      3900 1.25405E+00
 -1      3901 1.07274E+00
 -1      3902 1.62646E+00
 -1      3903 2.13563E+00
 -1      3904 1.62846E+00
 -1      3905 2.38884E-01
 -1      3906 1.71382E-01
 -1      3907 1.78012E-01
 -1      3908 1.45533E-01
 -1      3909 1.21416E-01
 -1      3910 3.22181E-02
 -1      3911 3.24497E-02
 -1      3912 3.66770E+00
 -1      3913 5.82622E-02
 -1      3914 4.70501E-02
 -1      3915 4.18238E-02
 -1      3916 3.71107E-02
 -1      3917 4.61964E-02
 -1      3918 1.17185E-01
 -1      3919 9.79829E-02
 -1      3920 1.59830E-01
 -1      3921 1.34922E-01
 -1      3922 1.19064E-01
 -1      3923 2.14302E-01
 -1      3924 1.82086E-01
 -1      3925 1.59058E-01
 -1      3926 2.83613E-01
 -1      3927 2.41984E-01
 -1      3928 2.08997E-01
 -1      3929 3.71827E-01
 -1      3930 3.17847E-01
 -1      3931 2.70913E-01
 -1      3932 4.90802E-01
 -1      3933 4.20028E-01
 -1      3934 3.53348E-01
 -1      3935 6.53724E-01
 -1      3936 5.58813E-01
 -1      3937 4.69560E-01
 -1      3938 8.83377E-01
 -1      3939 7.51341E-01
 -1      3940 6.35187E-01
 -1      3941 1.21860E+00
 -1      3942 1.02347E+00
 -1      3943 8.72893E-01
 -1      3944 1.73639E+00
 -1      3945 1.42796E+00
 -1      3946 1.22235E+00
 -1      3947 2.60948E+00
 -1      3948 2.06932E+00
 -1      3949 1.76465E+00
 -1      3950 4.66134E+00
 -1      3951 3.89136E+00
 -1      3952 3.37946E+00
 -1      3953 1.07059E-01
 -1      3954 1.13178E-01
 -1      3955 3.47013E-02
 -1      3956 3.31609E-02
 -1      3957 3.52084E-02
 -1      3958 6.36475E-02
 -1      3959 7.07023E-02
 -1      3960 1.12380E-01
 -1      3961 1.21799E-01
 -1      3962 1.16702E-01
 -1      3963 1.01793E-01
 -1      3964 9.73421E-02
 -1      3965 1.14330E-01
 -1      3966 9.76325E-02
 -1      3967 3.21723E-02
 -1      3968 3.75300E-02
 -1      3969 3.39882E-02
 -1      3970 5.40839E+00
 -1      3971 5.57608E+00
 -1      3972 1.71742E-01
 -1      3973 2.14923E-01
 -1      3974 5.57608E+00
 -1      3975 8.39839E-02
 -1      3976 6.92153E-02
 -1      3977 6.23759E-02
 -1      3978 1.18768E-01
 -1      3979 1.18399E-01
 -1      3980 9.59521E-02
 -1      3981 1.63835E-01
 -1      3982 1.74195E-01
 -1      3983 1.46270E-01
 -1      3984 3.00327E+00
 -1      3985 3.36270E+00
 -1      3986 3.02245E+00
 -1      3987 2.48433E+00
 -1      3988 8.80106E-02
 -1      3989 9.52838E-02
 -1      3990 7.85027E-02
 -1      3991 2.14923E-01
 -1      3992 1.02334E-01
 -1      3993 4.16876E-02
 -1      3994 4.75737E-02
 -1      3995 3.78684E-02
 -1      3996 3.85607E-02
 -1      3997 1.53724E-01
 -1      3998 1.30197E-01
 -1      3999 1.25218E-01
 -1      4000 5.91028E-02
 -1      4001 5.66497E-02
 -1      4002 5.26132E-02
 -1      4003 1.40371E-01
 -1      4004 1.47933E-01
 -1      4005 1.31047E-01
 -1      4006 1.50266E-01
 -1      4007 1.07237E-01
 -1      4008 8.73280E-02
 -1      4009 4.58538E+00
 -1      4010 3.83832E+00
 -1      4011 2.55644E+00
 -1      4012 3.18097E+00
 -1      4013 1.31047E-01
 -1      4014 1.31047E-01
 -1      4015 1.09571E-01
 -1      4016 1.03674E-01
 -1      4017 1.23890E-01
 -1      4018 1.17435E-01
 -1      4019 1.25389E-01
 -1      4020 2.34957E+00
 -1      4021 1.28850E-01
 -1      4022 1.34637E-01
 -1      4023 1.13756E-01
 -1      4024 1.04277E-01
 -1      4025 8.92499E-02
 -1      4026 8.45761E-02
 -1      4027 7.71407E-02
 -1      4028 7.15210E-02
 -1      4029 7.32715E-02
 -1      4030 8.22238E-02
 -1      4031 7.63588E-02
 -1      4032 7.65388E-02
 -1      4033 6.14116E-02
 -1      4034 5.63230E-02
 -1      4035 7.22944E-02
 -1      4036 5.19576E-02
 -1      4037 4.73378E-02
 -1      4038 5.29817E-02
 -1      4039 4.41069E-02
 -1      4040 3.98612E-02
 -1      4041 4.53854E-02
 -1      4042 4.35202E-02
 -1      4043 4.28648E-02
 -1      4044 4.58134E-02
 -1      4045 3.62572E-02
 -1      4046 3.62000E-02
 -1      4047 4.28648E-02
 -1      4048 3.75767E-02
 -1      4049 3.90107E-02
 -1      4050 3.76340E-02
 -1      4051 4.20009E-02
 -1      4052 4.49911E-02
 -1      4053 4.20009E-02
 -1      4054 5.07535E-02
 -1      4055 5.65159E-02
 -1      4056 5.07535E-02
 -1      4057 6.49282E-02
 -1      4058 7.36781E-02
 -1      4059 6.49282E-02
 -1      4060 8.70521E-02
 -1      4061 1.01033E-01
 -1      4062 8.67145E-02
 -1      4063 1.19332E-01
 -1      4064 1.37373E-01
 -1      4065 1.18387E-01
 -1      4066 1.62367E-01
 -1      4067 1.85468E-01
 -1      4068 1.61681E-01
 -1      4069 2.19731E-01
 -1      4070 2.49077E-01
 -1      4071 2.20938E-01
 -1      4072 2.96413E-01
 -1      4073 3.33366E-01
 -1      4074 3.02537E-01
 -1      4075 3.99482E-01
 -1      4076 4.45499E-01
 -1      4077 4.15988E-01
 -1      4078 5.39069E-01
 -1      4079 5.95415E-01
 -1      4080 5.75674E-01
 -1      4081 7.29724E-01
 -1      4082 7.96481E-01
 -1      4083 8.03554E-01
 -1      4084 9.91558E-01
 -1      4085 1.10872E+00
 -1      4086 1.13294E+00
 -1      4087 1.40459E+00
 -1      4088 1.58791E+00
 -1      4089 1.62389E+00
 -1      4090 1.65217E+00
 -1      4091 2.02458E+00
 -1      4092 1.98403E+00
 -1      4093 2.18972E-01
 -1      4094 1.91289E-01
 -1      4095 5.11260E-02
 -1      4096 4.58997E-02
 -1      4097 1.67056E-01
 -1      4098 1.44799E-01
 -1      4099 1.77031E-01
 -1      4100 1.26129E-01
 -1      4101 1.08392E-01
 -1      4102 1.34127E-01
 -1      4103 2.84434E-01
 -1      4104 2.50200E-01
 -1      4105 2.32492E-01
 -1      4106 3.75711E-01
 -1      4107 3.27510E-01
 -1      4108 3.06796E-01
 -1      4109 5.09837E-01
 -1      4110 4.41826E-01
 -1      4111 4.15988E-01
 -1      4112 7.24781E-01
 -1      4113 6.27164E-01
 -1      4114 5.99430E-01
 -1      4115 1.05300E+00
 -1      4116 9.12909E-01
 -1      4117 9.04886E-01
 -1      4118 1.55998E+00
 -1      4119 1.35062E+00
 -1      4120 1.39064E+00
 -1      4121 2.07293E+00
 -1      4122 1.74000E+00
 -1      4123 1.86827E+00
 -1      4124 4.09701E-02
 -1      4125 3.85607E-02
 -1      4126 4.58997E-02
 -1      4127 1.90962E-01
 -1      4128 3.61512E-02
 -1      4129 3.52084E-02
 -1      4130 3.85607E-02
 -1      4131 9.99663E-02
 -1      4132 1.34247E-01
 -1      4133 1.35914E-01
 -1      4134 1.10720E-01
 -1      4135 2.62413E+00
 -1      4136 2.94832E+00
 -1      4137 2.78265E+00
 -1      4138 2.27543E+00
 -1      4139 7.80000E-02
 -1      4140 8.35907E-02
 -1      4141 1.22376E-01
 -1      4142 4.18690E-02
 -1      4143 4.15916E-02
 -1      4144 4.28118E-02
 -1      4145 1.11861E-01
 -1      4146 1.04722E-01
 -1      4147 1.03988E-01
 -1      4148 9.14966E-02
 -1      4149 9.22874E-02
 -1      4150 7.35445E-02
 -1      4151 1.20445E-01
 -1      4152 6.95979E-02
 -1      4153 5.86448E-02
 -1      4154 5.83481E-02
 -1      4155 9.41891E-02
 -1      4156 8.01900E-02
 -1      4157 7.64590E-02
 -1      4158 1.01254E-01
 -1      4159 9.41938E-02
 -1      4160 9.15281E-02
 -1      4161 8.29851E-02
 -1      4162 8.33568E-02
 -1      4163 8.76048E-02
 -1      4164 2.29915E+00
 -1      4165 4.83078E-02
 -1      4166 4.04270E-02
 -1      4167 4.45846E-02
 -1      4168 4.70655E-02
 -1      4169 2.53180E+00
 -1      4170 9.58110E-02
 -1      4171 9.52838E-02
 -1      4172 1.02320E-01
 -1      4173 1.27434E-01
 -1      4174 5.47260E-02
 -1      4175 5.92707E-02
 -1      4176 1.05959E-01
 -1      4177 1.07287E-01
 -1      4178 1.16827E-01
 -1      4179 9.87554E-02
 -1      4180 7.67892E-02
 -1      4181 9.87554E-02
 -1      4182 9.22055E-02
 -1      4183 9.77793E-02
 -1      4184 1.02188E-01
 -1      4185 9.64709E-02
 -1      4186 8.69706E-02
 -1      4187 9.94866E-02
 -1      4188 1.02948E-01
 -1      4189 7.22944E-02
 -1      4190 7.42180E-02
 -1      4191 9.15263E-02
 -1      4192 1.93970E-01
 -1      4193 1.69736E-01
 -1      4194 8.08235E-02
 -1      4195 9.15263E-02
 -1      4196 8.72416E-02
 -1      4197 7.22944E-02
 -1      4198 5.73471E-02
 -1      4199 5.29817E-02
 -1      4200 4.58134E-02
 -1      4201 4.94724E-02
 -1      4202 4.94724E-02
 -1      4203 4.28648E-02
 -1      4204 3.62042E-02
 -1      4205 3.75810E-02
 -1      4206 3.99904E-02
 -1      4207 4.29806E-02
 -1      4208 4.79102E-02
 -1      4209 5.36726E-02
 -1      4210 6.11914E-02
 -1      4211 6.96037E-02
 -1      4212 8.01958E-02
 -1      4213 9.35698E-02
 -1      4214 1.07773E-01
 -1      4215 1.26071E-01
 -1      4216 1.44742E-01
 -1      4217 2.28233E-01
 -1      4218 2.59461E-01
 -1      4219 3.06796E-01
 -1      4220 3.49872E-01
 -1      4221 4.15988E-01
 -1      4222 4.82104E-01
 -1      4223 5.75674E-01
 -1      4224 6.93001E-01
 -1      4225 8.27310E-01
 -1      4226 1.01544E+00
 -1      4227 1.21052E+00
 -1      4228 1.50814E+00
 -1      4229 1.80401E+00
 -1      4230 1.98403E+00
 -1      4231 2.04829E+00
 -1      4232 4.53211E-02
 -1      4233 5.03607E-02
 -1      4234 4.78798E-02
 -1      4235 2.29915E+00
 -1      4236 5.29817E-02
 -1      4237 8.99274E-02
 -1      4238 8.29851E-02
 -1      4239 9.74794E-02
 -1      4240 8.46951E-02
 -1      4241 1.04759E-01
 -1      4242 1.04369E-01
 -1      4243 9.01206E-02
 -1      4244 9.04897E-02
 -1      4245 8.68759E-02
 -1      4246 8.07070E-02
 -1      4247 7.32715E-02
 -1      4248 4.86163E-02
 -1      4249 9.15263E-02
 -1      4250 8.52633E-02
 -1      4251 8.29851E-02
 -1      4252 4.53854E-02
 -1      4253 8.82590E-02
 -1      4254 4.94724E-02
 -1      4255 8.82590E-02
 -1      4256 8.69706E-02
 -1      4257 8.50642E-02
 -1      4258 9.58110E-02
 -1      4259 9.58110E-02
 -1      4260 4.90443E-02
 -1      4261 4.83078E-02
 -3
 9999
