    1C
    1UUSER                                                              
    1UDATE              27.october.2022                                 
    1UTIME              00:19:19                                        
    1UHOST                                                              
    1UPGM               CalculiX                                        
    1UVERSION           Version 2.17                             
    1UCOMPILETIME       Thu Jul 23 21:43:50 CEST 2020                    
    1UDIR                                                               
    1UDBN                                                               
    1UMAT    1SOLIDMATERIAL                                             
    2C                          4353                                     1
 -1         1 5.72575E+01 2.77482E+01 0.00000E+00
 -1         2 5.96121E+01 2.25117E+01 0.00000E+00
 -1         3 1.50000E+02 0.00000E+00 0.00000E+00
 -1         4 1.50000E+02 5.00000E+01 0.00000E+00
 -1         5 0.00000E+00 0.00000E+00 0.00000E+00
 -1         6 0.00000E+00 5.00000E+01 0.00000E+00
 -1         7 0.00000E+00 4.70500E+01 0.00000E+00
 -1         8 0.00000E+00 4.41000E+01 0.00000E+00
 -1         9 0.00000E+00 4.11500E+01 0.00000E+00
 -1        10 0.00000E+00 3.82000E+01 0.00000E+00
 -1        11 0.00000E+00 3.52500E+01 0.00000E+00
 -1        12 0.00000E+00 3.23500E+01 0.00000E+00
 -1        13 0.00000E+00 2.94000E+01 0.00000E+00
 -1        14 0.00000E+00 2.64500E+01 0.00000E+00
 -1        15 0.00000E+00 2.35000E+01 0.00000E+00
 -1        16 0.00000E+00 2.05500E+01 0.00000E+00
 -1        17 0.00000E+00 1.76000E+01 0.00000E+00
 -1        18 0.00000E+00 1.47000E+01 0.00000E+00
 -1        19 0.00000E+00 1.17500E+01 0.00000E+00
 -1        20 0.00000E+00 8.80000E+00 0.00000E+00
 -1        21 0.00000E+00 5.85000E+00 0.00000E+00
 -1        22 0.00000E+00 2.90000E+00 0.00000E+00
 -1        23 3.15000E+00 5.00000E+01 0.00000E+00
 -1        24 6.15000E+00 5.00000E+01 0.00000E+00
 -1        25 9.15000E+00 5.00000E+01 0.00000E+00
 -1        26 1.21500E+01 5.00000E+01 0.00000E+00
 -1        27 1.51500E+01 5.00000E+01 0.00000E+00
 -1        28 1.81500E+01 5.00000E+01 0.00000E+00
 -1        29 2.11500E+01 5.00000E+01 0.00000E+00
 -1        30 2.41500E+01 5.00000E+01 0.00000E+00
 -1        31 2.71500E+01 5.00000E+01 0.00000E+00
 -1        32 3.01500E+01 5.00000E+01 0.00000E+00
 -1        33 3.31500E+01 5.00000E+01 0.00000E+00
 -1        34 3.61500E+01 5.00000E+01 0.00000E+00
 -1        35 3.91500E+01 5.00000E+01 0.00000E+00
 -1        36 4.21500E+01 5.00000E+01 0.00000E+00
 -1        37 4.51500E+01 5.00000E+01 0.00000E+00
 -1        38 4.81500E+01 5.00000E+01 0.00000E+00
 -1        39 5.11500E+01 5.00000E+01 0.00000E+00
 -1        40 5.41500E+01 5.00000E+01 0.00000E+00
 -1        41 5.71500E+01 5.00000E+01 0.00000E+00
 -1        42 6.01500E+01 5.00000E+01 0.00000E+00
 -1        43 6.31500E+01 5.00000E+01 0.00000E+00
 -1        44 6.61500E+01 5.00000E+01 0.00000E+00
 -1        45 6.91500E+01 5.00000E+01 0.00000E+00
 -1        46 7.21500E+01 5.00000E+01 0.00000E+00
 -1        47 7.51500E+01 5.00000E+01 0.00000E+00
 -1        48 7.81500E+01 5.00000E+01 0.00000E+00
 -1        49 8.11500E+01 5.00000E+01 0.00000E+00
 -1        50 8.41500E+01 5.00000E+01 0.00000E+00
 -1        51 8.71500E+01 5.00000E+01 0.00000E+00
 -1        52 9.01500E+01 5.00000E+01 0.00000E+00
 -1        53 9.31500E+01 5.00000E+01 0.00000E+00
 -1        54 9.61500E+01 5.00000E+01 0.00000E+00
 -1        55 9.91500E+01 5.00000E+01 0.00000E+00
 -1        56 1.02150E+02 5.00000E+01 0.00000E+00
 -1        57 1.05150E+02 5.00000E+01 0.00000E+00
 -1        58 1.08150E+02 5.00000E+01 0.00000E+00
 -1        59 1.11150E+02 5.00000E+01 0.00000E+00
 -1        60 1.14150E+02 5.00000E+01 0.00000E+00
 -1        61 1.17150E+02 5.00000E+01 0.00000E+00
 -1        62 1.20150E+02 5.00000E+01 0.00000E+00
 -1        63 1.23150E+02 5.00000E+01 0.00000E+00
 -1        64 1.26150E+02 5.00000E+01 0.00000E+00
 -1        65 1.29150E+02 5.00000E+01 0.00000E+00
 -1        66 1.32150E+02 5.00000E+01 0.00000E+00
 -1        67 1.35150E+02 5.00000E+01 0.00000E+00
 -1        68 1.38150E+02 5.00000E+01 0.00000E+00
 -1        69 1.41150E+02 5.00000E+01 0.00000E+00
 -1        70 1.44150E+02 5.00000E+01 0.00000E+00
 -1        71 1.47150E+02 5.00000E+01 0.00000E+00
 -1        72 3.15000E+00 0.00000E+00 0.00000E+00
 -1        73 6.15000E+00 0.00000E+00 0.00000E+00
 -1        74 9.15000E+00 0.00000E+00 0.00000E+00
 -1        75 1.21500E+01 0.00000E+00 0.00000E+00
 -1        76 1.51500E+01 0.00000E+00 0.00000E+00
 -1        77 1.81500E+01 0.00000E+00 0.00000E+00
 -1        78 2.11500E+01 0.00000E+00 0.00000E+00
 -1        79 2.41500E+01 0.00000E+00 0.00000E+00
 -1        80 2.71500E+01 0.00000E+00 0.00000E+00
 -1        81 3.01500E+01 0.00000E+00 0.00000E+00
 -1        82 3.31500E+01 0.00000E+00 0.00000E+00
 -1        83 3.61500E+01 0.00000E+00 0.00000E+00
 -1        84 3.91500E+01 0.00000E+00 0.00000E+00
 -1        85 4.21500E+01 0.00000E+00 0.00000E+00
 -1        86 4.51500E+01 0.00000E+00 0.00000E+00
 -1        87 4.81500E+01 0.00000E+00 0.00000E+00
 -1        88 5.11500E+01 0.00000E+00 0.00000E+00
 -1        89 5.41500E+01 0.00000E+00 0.00000E+00
 -1        90 5.71500E+01 0.00000E+00 0.00000E+00
 -1        91 6.01500E+01 0.00000E+00 0.00000E+00
 -1        92 6.31500E+01 0.00000E+00 0.00000E+00
 -1        93 6.61500E+01 0.00000E+00 0.00000E+00
 -1        94 6.91500E+01 0.00000E+00 0.00000E+00
 -1        95 7.21500E+01 0.00000E+00 0.00000E+00
 -1        96 7.51500E+01 0.00000E+00 0.00000E+00
 -1        97 7.81500E+01 0.00000E+00 0.00000E+00
 -1        98 8.11500E+01 0.00000E+00 0.00000E+00
 -1        99 8.41500E+01 0.00000E+00 0.00000E+00
 -1       100 8.71500E+01 0.00000E+00 0.00000E+00
 -1       101 9.01500E+01 0.00000E+00 0.00000E+00
 -1       102 9.31500E+01 0.00000E+00 0.00000E+00
 -1       103 9.61500E+01 0.00000E+00 0.00000E+00
 -1       104 9.91500E+01 0.00000E+00 0.00000E+00
 -1       105 1.02150E+02 0.00000E+00 0.00000E+00
 -1       106 1.05150E+02 0.00000E+00 0.00000E+00
 -1       107 1.08150E+02 0.00000E+00 0.00000E+00
 -1       108 1.11150E+02 0.00000E+00 0.00000E+00
 -1       109 1.14150E+02 0.00000E+00 0.00000E+00
 -1       110 1.17150E+02 0.00000E+00 0.00000E+00
 -1       111 1.20150E+02 0.00000E+00 0.00000E+00
 -1       112 1.23150E+02 0.00000E+00 0.00000E+00
 -1       113 1.26150E+02 0.00000E+00 0.00000E+00
 -1       114 1.29150E+02 0.00000E+00 0.00000E+00
 -1       115 1.32150E+02 0.00000E+00 0.00000E+00
 -1       116 1.35150E+02 0.00000E+00 0.00000E+00
 -1       117 1.38150E+02 0.00000E+00 0.00000E+00
 -1       118 1.41150E+02 0.00000E+00 0.00000E+00
 -1       119 1.44150E+02 0.00000E+00 0.00000E+00
 -1       120 1.47150E+02 0.00000E+00 0.00000E+00
 -1       121 1.50000E+02 2.95000E+00 0.00000E+00
 -1       122 1.50000E+02 5.90000E+00 0.00000E+00
 -1       123 1.50000E+02 8.85000E+00 0.00000E+00
 -1       124 1.50000E+02 1.18000E+01 0.00000E+00
 -1       125 1.50000E+02 1.47500E+01 0.00000E+00
 -1       126 1.50000E+02 1.76500E+01 0.00000E+00
 -1       127 1.50000E+02 2.06000E+01 0.00000E+00
 -1       128 1.50000E+02 2.35500E+01 0.00000E+00
 -1       129 1.50000E+02 2.65000E+01 0.00000E+00
 -1       130 1.50000E+02 2.94500E+01 0.00000E+00
 -1       131 1.50000E+02 3.24000E+01 0.00000E+00
 -1       132 1.50000E+02 3.53000E+01 0.00000E+00
 -1       133 1.50000E+02 3.82500E+01 0.00000E+00
 -1       134 1.50000E+02 4.12000E+01 0.00000E+00
 -1       135 1.50000E+02 4.41500E+01 0.00000E+00
 -1       136 1.50000E+02 4.71000E+01 0.00000E+00
 -1       137 5.94326E+01 2.09365E+01 0.00000E+00
 -1       138 5.89866E+01 1.96193E+01 0.00000E+00
 -1       139 5.81691E+01 1.82549E+01 0.00000E+00
 -1       140 5.71837E+01 1.72107E+01 0.00000E+00
 -1       141 5.58020E+01 1.62807E+01 0.00000E+00
 -1       142 5.44066E+01 1.57456E+01 0.00000E+00
 -1       143 5.29001E+01 1.55176E+01 0.00000E+00
 -1       144 5.14557E+01 1.56079E+01 0.00000E+00
 -1       145 4.99043E+01 1.60566E+01 0.00000E+00
 -1       146 4.85489E+01 1.68117E+01 0.00000E+00
 -1       147 4.74424E+01 1.77921E+01 0.00000E+00
 -1       148 4.64763E+01 1.91424E+01 0.00000E+00
 -1       149 4.59162E+01 2.04709E+01 0.00000E+00
 -1       150 4.56329E+01 2.19733E+01 0.00000E+00
 -1       151 4.56762E+01 2.34566E+01 0.00000E+00
 -1       152 4.60161E+01 2.48551E+01 0.00000E+00
 -1       153 4.66614E+01 2.61979E+01 0.00000E+00
 -1       154 4.77157E+01 2.75141E+01 0.00000E+00
 -1       155 4.88667E+01 2.84253E+01 0.00000E+00
 -1       156 5.03297E+01 2.91291E+01 0.00000E+00
 -1       157 5.17061E+01 2.94528E+01 0.00000E+00
 -1       158 5.32454E+01 2.94830E+01 0.00000E+00
 -1       159 5.46435E+01 2.92104E+01 0.00000E+00
 -1       160 5.59693E+01 2.86541E+01 0.00000E+00
 -1       161 5.82434E+01 2.66696E+01 0.00000E+00
 -1       162 5.90005E+01 2.53733E+01 0.00000E+00
 -1       163 5.94683E+01 2.39232E+01 0.00000E+00
 -1       164 2.59800E+00 4.55750E+01 0.00000E+00
 -1       165 2.59800E+00 4.26250E+01 0.00000E+00
 -1       166 2.59800E+00 3.96750E+01 0.00000E+00
 -1       167 2.59800E+00 3.67250E+01 0.00000E+00
 -1       168 2.59800E+00 3.38250E+01 0.00000E+00
 -1       169 2.59800E+00 3.08750E+01 0.00000E+00
 -1       170 2.59800E+00 2.79250E+01 0.00000E+00
 -1       171 2.59800E+00 2.49750E+01 0.00000E+00
 -1       172 2.59800E+00 2.20250E+01 0.00000E+00
 -1       173 2.59800E+00 1.90750E+01 0.00000E+00
 -1       174 2.59800E+00 1.61750E+01 0.00000E+00
 -1       175 2.59800E+00 1.32250E+01 0.00000E+00
 -1       176 2.59800E+00 1.02750E+01 0.00000E+00
 -1       177 2.59800E+00 7.32500E+00 0.00000E+00
 -1       178 2.59800E+00 4.37500E+00 0.00000E+00
 -1       179 2.87400E+00 2.18750E+00 0.00000E+00
 -1       180 4.65000E+00 4.74020E+01 0.00000E+00
 -1       181 7.65000E+00 4.74020E+01 0.00000E+00
 -1       182 1.06500E+01 4.74020E+01 0.00000E+00
 -1       183 1.36500E+01 4.74020E+01 0.00000E+00
 -1       184 1.66500E+01 4.74020E+01 0.00000E+00
 -1       185 1.96500E+01 4.74020E+01 0.00000E+00
 -1       186 2.26500E+01 4.74020E+01 0.00000E+00
 -1       187 2.56500E+01 4.74020E+01 0.00000E+00
 -1       188 2.86500E+01 4.74020E+01 0.00000E+00
 -1       189 3.16500E+01 4.74020E+01 0.00000E+00
 -1       190 3.46500E+01 4.74020E+01 0.00000E+00
 -1       191 3.76500E+01 4.74020E+01 0.00000E+00
 -1       192 4.06500E+01 4.74020E+01 0.00000E+00
 -1       193 4.36500E+01 4.74020E+01 0.00000E+00
 -1       194 4.66500E+01 4.74020E+01 0.00000E+00
 -1       195 4.96500E+01 4.74020E+01 0.00000E+00
 -1       196 5.26500E+01 4.74020E+01 0.00000E+00
 -1       197 5.56500E+01 4.74020E+01 0.00000E+00
 -1       198 5.86500E+01 4.74020E+01 0.00000E+00
 -1       199 6.16500E+01 4.74020E+01 0.00000E+00
 -1       200 6.46500E+01 4.74020E+01 0.00000E+00
 -1       201 6.76500E+01 4.74020E+01 0.00000E+00
 -1       202 7.06500E+01 4.74020E+01 0.00000E+00
 -1       203 7.36500E+01 4.74020E+01 0.00000E+00
 -1       204 7.66500E+01 4.74020E+01 0.00000E+00
 -1       205 7.96500E+01 4.74020E+01 0.00000E+00
 -1       206 8.26500E+01 4.74020E+01 0.00000E+00
 -1       207 8.56500E+01 4.74020E+01 0.00000E+00
 -1       208 8.86500E+01 4.74020E+01 0.00000E+00
 -1       209 9.16500E+01 4.74020E+01 0.00000E+00
 -1       210 9.46500E+01 4.74020E+01 0.00000E+00
 -1       211 9.76500E+01 4.74020E+01 0.00000E+00
 -1       212 1.00650E+02 4.74020E+01 0.00000E+00
 -1       213 1.03650E+02 4.74020E+01 0.00000E+00
 -1       214 1.06650E+02 4.74020E+01 0.00000E+00
 -1       215 1.09650E+02 4.74020E+01 0.00000E+00
 -1       216 1.12650E+02 4.74020E+01 0.00000E+00
 -1       217 1.15650E+02 4.74020E+01 0.00000E+00
 -1       218 1.18650E+02 4.74020E+01 0.00000E+00
 -1       219 1.21650E+02 4.74020E+01 0.00000E+00
 -1       220 1.24650E+02 4.74020E+01 0.00000E+00
 -1       221 1.27650E+02 4.74020E+01 0.00000E+00
 -1       222 1.30650E+02 4.74020E+01 0.00000E+00
 -1       223 1.33650E+02 4.74020E+01 0.00000E+00
 -1       224 1.36650E+02 4.74020E+01 0.00000E+00
 -1       225 1.39650E+02 4.74020E+01 0.00000E+00
 -1       226 1.42650E+02 4.74020E+01 0.00000E+00
 -1       227 1.45650E+02 4.74020E+01 0.00000E+00
 -1       228 5.87400E+00 2.18750E+00 0.00000E+00
 -1       229 8.87400E+00 2.18750E+00 0.00000E+00
 -1       230 1.18740E+01 2.18750E+00 0.00000E+00
 -1       231 1.48740E+01 2.18750E+00 0.00000E+00
 -1       232 1.78740E+01 2.18750E+00 0.00000E+00
 -1       233 2.08740E+01 2.18750E+00 0.00000E+00
 -1       234 2.38740E+01 2.18750E+00 0.00000E+00
 -1       235 2.68740E+01 2.18750E+00 0.00000E+00
 -1       236 2.98740E+01 2.18750E+00 0.00000E+00
 -1       237 3.28740E+01 2.18750E+00 0.00000E+00
 -1       238 3.58740E+01 2.18750E+00 0.00000E+00
 -1       239 3.88740E+01 2.18750E+00 0.00000E+00
 -1       240 4.18740E+01 2.18750E+00 0.00000E+00
 -1       241 4.48740E+01 2.18750E+00 0.00000E+00
 -1       242 4.78740E+01 2.18750E+00 0.00000E+00
 -1       243 5.08740E+01 2.18750E+00 0.00000E+00
 -1       244 5.38740E+01 2.18750E+00 0.00000E+00
 -1       245 5.68740E+01 2.18750E+00 0.00000E+00
 -1       246 5.98740E+01 2.18750E+00 0.00000E+00
 -1       247 6.28740E+01 2.18750E+00 0.00000E+00
 -1       248 6.58740E+01 2.18750E+00 0.00000E+00
 -1       249 6.88740E+01 2.18750E+00 0.00000E+00
 -1       250 7.18740E+01 2.18750E+00 0.00000E+00
 -1       251 7.48740E+01 2.18750E+00 0.00000E+00
 -1       252 7.78740E+01 2.18750E+00 0.00000E+00
 -1       253 8.08740E+01 2.18750E+00 0.00000E+00
 -1       254 8.38740E+01 2.18750E+00 0.00000E+00
 -1       255 8.68740E+01 2.18750E+00 0.00000E+00
 -1       256 8.98740E+01 2.18750E+00 0.00000E+00
 -1       257 9.28740E+01 2.18750E+00 0.00000E+00
 -1       258 9.58740E+01 2.18750E+00 0.00000E+00
 -1       259 9.88740E+01 2.18750E+00 0.00000E+00
 -1       260 1.01874E+02 2.18750E+00 0.00000E+00
 -1       261 1.04874E+02 2.18750E+00 0.00000E+00
 -1       262 1.07874E+02 2.18750E+00 0.00000E+00
 -1       263 1.10874E+02 2.18750E+00 0.00000E+00
 -1       264 1.13874E+02 2.18750E+00 0.00000E+00
 -1       265 1.16874E+02 2.18750E+00 0.00000E+00
 -1       266 1.19874E+02 2.18750E+00 0.00000E+00
 -1       267 1.22874E+02 2.18750E+00 0.00000E+00
 -1       268 1.25874E+02 2.18750E+00 0.00000E+00
 -1       269 1.28874E+02 2.18750E+00 0.00000E+00
 -1       270 1.31874E+02 2.18750E+00 0.00000E+00
 -1       271 1.34874E+02 2.18750E+00 0.00000E+00
 -1       272 1.37874E+02 2.18750E+00 0.00000E+00
 -1       273 1.40874E+02 2.18750E+00 0.00000E+00
 -1       274 1.43874E+02 2.18750E+00 0.00000E+00
 -1       275 1.46874E+02 2.18750E+00 0.00000E+00
 -1       276 1.47402E+02 4.42500E+00 0.00000E+00
 -1       277 1.47402E+02 7.37500E+00 0.00000E+00
 -1       278 1.47402E+02 1.03250E+01 0.00000E+00
 -1       279 1.47402E+02 1.32750E+01 0.00000E+00
 -1       280 1.47402E+02 1.61750E+01 0.00000E+00
 -1       281 1.47402E+02 1.91250E+01 0.00000E+00
 -1       282 1.47402E+02 2.20750E+01 0.00000E+00
 -1       283 1.47402E+02 2.50250E+01 0.00000E+00
 -1       284 1.47402E+02 2.79750E+01 0.00000E+00
 -1       285 1.47402E+02 3.09250E+01 0.00000E+00
 -1       286 1.47402E+02 3.38250E+01 0.00000E+00
 -1       287 1.47402E+02 3.67750E+01 0.00000E+00
 -1       288 1.47402E+02 3.97250E+01 0.00000E+00
 -1       289 1.47402E+02 4.26750E+01 0.00000E+00
 -1       290 1.46526E+02 4.50385E+01 0.00000E+00
 -1       291 6.09767E+01 2.15583E+01 0.00000E+00
 -1       292 6.04373E+01 1.98622E+01 0.00000E+00
 -1       293 5.98335E+01 1.81847E+01 0.00000E+00
 -1       294 5.85582E+01 1.69007E+01 0.00000E+00
 -1       295 5.72634E+01 1.56009E+01 0.00000E+00
 -1       296 5.55384E+01 1.48811E+01 0.00000E+00
 -1       297 5.38473E+01 1.43500E+01 0.00000E+00
 -1       298 5.21023E+01 1.43527E+01 0.00000E+00
 -1       299 5.02500E+01 1.43456E+01 0.00000E+00
 -1       300 4.84735E+01 1.50822E+01 0.00000E+00
 -1       301 4.71916E+01 1.63945E+01 0.00000E+00
 -1       302 4.57689E+01 1.76156E+01 0.00000E+00
 -1       303 4.50791E+01 1.93357E+01 0.00000E+00
 -1       304 4.45008E+01 2.09819E+01 0.00000E+00
 -1       305 4.44427E+01 2.27504E+01 0.00000E+00
 -1       306 4.45866E+01 2.44620E+01 0.00000E+00
 -1       307 4.51704E+01 2.60879E+01 0.00000E+00
 -1       308 4.59153E+01 2.78759E+01 0.00000E+00
 -1       309 4.75386E+01 2.89203E+01 0.00000E+00
 -1       310 4.88910E+01 3.02473E+01 0.00000E+00
 -1       311 5.07404E+01 3.04711E+01 0.00000E+00
 -1       312 5.24487E+01 3.08476E+01 0.00000E+00
 -1       313 5.41764E+01 3.05367E+01 0.00000E+00
 -1       314 5.57756E+01 3.00502E+01 0.00000E+00
 -1       315 5.75036E+01 2.94670E+01 0.00000E+00
 -1       316 5.86453E+01 2.80269E+01 0.00000E+00
 -1       317 5.96689E+01 2.66329E+01 0.00000E+00
 -1       318 6.05477E+01 2.50720E+01 0.00000E+00
 -1       319 6.07464E+01 2.33403E+01 0.00000E+00
 -1       320 5.19600E+00 4.11500E+01 0.00000E+00
 -1       321 5.19600E+00 4.41000E+01 0.00000E+00
 -1       322 5.19600E+00 3.52750E+01 0.00000E+00
 -1       323 5.19600E+00 3.23250E+01 0.00000E+00
 -1       324 5.19600E+00 2.93750E+01 0.00000E+00
 -1       325 5.19600E+00 2.64250E+01 0.00000E+00
 -1       326 5.19600E+00 2.34750E+01 0.00000E+00
 -1       327 5.19600E+00 2.05250E+01 0.00000E+00
 -1       328 5.19600E+00 1.76250E+01 0.00000E+00
 -1       329 5.19600E+00 1.46750E+01 0.00000E+00
 -1       330 5.19600E+00 1.17250E+01 0.00000E+00
 -1       331 5.19600E+00 8.77500E+00 0.00000E+00
 -1       332 5.19600E+00 5.82500E+00 0.00000E+00
 -1       333 5.53500E+00 4.00625E+00 0.00000E+00
 -1       334 8.53500E+00 4.00625E+00 0.00000E+00
 -1       335 9.15000E+00 4.48040E+01 0.00000E+00
 -1       336 1.21500E+01 4.48040E+01 0.00000E+00
 -1       337 1.51500E+01 4.48040E+01 0.00000E+00
 -1       338 1.81500E+01 4.48040E+01 0.00000E+00
 -1       339 2.11500E+01 4.48040E+01 0.00000E+00
 -1       340 2.41500E+01 4.48040E+01 0.00000E+00
 -1       341 2.71500E+01 4.48040E+01 0.00000E+00
 -1       342 3.01500E+01 4.48040E+01 0.00000E+00
 -1       343 3.31500E+01 4.48040E+01 0.00000E+00
 -1       344 3.61500E+01 4.48040E+01 0.00000E+00
 -1       345 3.91500E+01 4.48040E+01 0.00000E+00
 -1       346 4.21500E+01 4.48040E+01 0.00000E+00
 -1       347 4.51500E+01 4.48040E+01 0.00000E+00
 -1       348 4.81500E+01 4.48040E+01 0.00000E+00
 -1       349 5.11500E+01 4.48040E+01 0.00000E+00
 -1       350 5.41500E+01 4.48040E+01 0.00000E+00
 -1       351 5.71500E+01 4.48040E+01 0.00000E+00
 -1       352 6.01500E+01 4.48040E+01 0.00000E+00
 -1       353 6.31500E+01 4.48040E+01 0.00000E+00
 -1       354 6.61500E+01 4.48040E+01 0.00000E+00
 -1       355 6.91500E+01 4.48040E+01 0.00000E+00
 -1       356 7.21500E+01 4.48040E+01 0.00000E+00
 -1       357 7.51500E+01 4.48040E+01 0.00000E+00
 -1       358 7.81500E+01 4.48040E+01 0.00000E+00
 -1       359 8.11500E+01 4.48040E+01 0.00000E+00
 -1       360 8.41500E+01 4.48040E+01 0.00000E+00
 -1       361 8.71500E+01 4.48040E+01 0.00000E+00
 -1       362 9.01500E+01 4.48040E+01 0.00000E+00
 -1       363 9.31500E+01 4.48040E+01 0.00000E+00
 -1       364 9.61500E+01 4.48040E+01 0.00000E+00
 -1       365 9.91500E+01 4.48040E+01 0.00000E+00
 -1       366 1.02150E+02 4.48040E+01 0.00000E+00
 -1       367 1.05150E+02 4.48040E+01 0.00000E+00
 -1       368 1.08150E+02 4.48040E+01 0.00000E+00
 -1       369 1.11150E+02 4.48040E+01 0.00000E+00
 -1       370 1.14150E+02 4.48040E+01 0.00000E+00
 -1       371 1.17150E+02 4.48040E+01 0.00000E+00
 -1       372 1.20150E+02 4.48040E+01 0.00000E+00
 -1       373 1.23150E+02 4.48040E+01 0.00000E+00
 -1       374 1.26150E+02 4.48040E+01 0.00000E+00
 -1       375 1.29150E+02 4.48040E+01 0.00000E+00
 -1       376 1.32150E+02 4.48040E+01 0.00000E+00
 -1       377 1.35150E+02 4.48040E+01 0.00000E+00
 -1       378 1.38150E+02 4.48040E+01 0.00000E+00
 -1       379 1.41150E+02 4.48040E+01 0.00000E+00
 -1       380 1.43838E+02 4.49212E+01 0.00000E+00
 -1       381 1.15350E+01 4.00625E+00 0.00000E+00
 -1       382 1.45350E+01 4.00625E+00 0.00000E+00
 -1       383 1.75350E+01 4.00625E+00 0.00000E+00
 -1       384 2.05350E+01 4.00625E+00 0.00000E+00
 -1       385 2.35350E+01 4.00625E+00 0.00000E+00
 -1       386 2.65350E+01 4.00625E+00 0.00000E+00
 -1       387 2.95350E+01 4.00625E+00 0.00000E+00
 -1       388 3.25350E+01 4.00625E+00 0.00000E+00
 -1       389 3.55350E+01 4.00625E+00 0.00000E+00
 -1       390 3.85350E+01 4.00625E+00 0.00000E+00
 -1       391 4.15350E+01 4.00625E+00 0.00000E+00
 -1       392 4.45350E+01 4.00625E+00 0.00000E+00
 -1       393 4.75350E+01 4.00625E+00 0.00000E+00
 -1       394 5.05350E+01 4.00625E+00 0.00000E+00
 -1       395 5.35350E+01 4.00625E+00 0.00000E+00
 -1       396 5.65350E+01 4.00625E+00 0.00000E+00
 -1       397 5.95350E+01 4.00625E+00 0.00000E+00
 -1       398 6.25350E+01 4.00625E+00 0.00000E+00
 -1       399 6.55350E+01 4.00625E+00 0.00000E+00
 -1       400 6.85350E+01 4.00625E+00 0.00000E+00
 -1       401 7.15350E+01 4.00625E+00 0.00000E+00
 -1       402 7.45350E+01 4.00625E+00 0.00000E+00
 -1       403 7.75350E+01 4.00625E+00 0.00000E+00
 -1       404 8.05350E+01 4.00625E+00 0.00000E+00
 -1       405 8.35350E+01 4.00625E+00 0.00000E+00
 -1       406 8.65350E+01 4.00625E+00 0.00000E+00
 -1       407 8.95350E+01 4.00625E+00 0.00000E+00
 -1       408 9.25350E+01 4.00625E+00 0.00000E+00
 -1       409 9.55350E+01 4.00625E+00 0.00000E+00
 -1       410 9.85350E+01 4.00625E+00 0.00000E+00
 -1       411 1.01535E+02 4.00625E+00 0.00000E+00
 -1       412 1.04535E+02 4.00625E+00 0.00000E+00
 -1       413 1.07535E+02 4.00625E+00 0.00000E+00
 -1       414 1.10535E+02 4.00625E+00 0.00000E+00
 -1       415 1.13535E+02 4.00625E+00 0.00000E+00
 -1       416 1.16535E+02 4.00625E+00 0.00000E+00
 -1       417 1.19535E+02 4.00625E+00 0.00000E+00
 -1       418 1.22535E+02 4.00625E+00 0.00000E+00
 -1       419 1.25535E+02 4.00625E+00 0.00000E+00
 -1       420 1.28535E+02 4.00625E+00 0.00000E+00
 -1       421 1.31535E+02 4.00625E+00 0.00000E+00
 -1       422 1.34535E+02 4.00625E+00 0.00000E+00
 -1       423 1.37535E+02 4.00625E+00 0.00000E+00
 -1       424 1.40535E+02 4.00625E+00 0.00000E+00
 -1       425 1.43535E+02 4.00625E+00 0.00000E+00
 -1       426 1.45469E+02 4.21562E+00 0.00000E+00
 -1       427 1.44804E+02 1.18000E+01 0.00000E+00
 -1       428 1.44804E+02 8.85000E+00 0.00000E+00
 -1       429 1.45136E+02 6.53281E+00 0.00000E+00
 -1       430 1.44804E+02 1.47000E+01 0.00000E+00
 -1       431 1.44804E+02 1.76500E+01 0.00000E+00
 -1       432 1.44804E+02 2.06000E+01 0.00000E+00
 -1       433 1.44804E+02 2.35500E+01 0.00000E+00
 -1       434 1.44804E+02 2.65000E+01 0.00000E+00
 -1       435 1.44804E+02 2.94500E+01 0.00000E+00
 -1       436 1.44804E+02 3.23500E+01 0.00000E+00
 -1       437 1.44804E+02 3.53000E+01 0.00000E+00
 -1       438 1.44804E+02 3.82500E+01 0.00000E+00
 -1       439 1.44804E+02 4.12000E+01 0.00000E+00
 -1       440 6.14338E+01 1.85561E+01 0.00000E+00
 -1       441 6.21470E+01 2.26155E+01 0.00000E+00
 -1       442 6.21020E+01 2.02667E+01 0.00000E+00
 -1       443 6.04127E+01 1.63341E+01 0.00000E+00
 -1       444 5.91179E+01 1.50343E+01 0.00000E+00
 -1       445 5.19600E+00 3.82125E+01 0.00000E+00
 -1       446 5.50812E+01 1.33789E+01 0.00000E+00
 -1       447 5.29724E+01 1.28038E+01 0.00000E+00
 -1       448 5.11201E+01 1.27968E+01 0.00000E+00
 -1       449 4.88332E+01 1.34392E+01 0.00000E+00
 -1       450 4.68454E+01 1.47741E+01 0.00000E+00
 -1       451 4.54227E+01 1.59951E+01 0.00000E+00
 -1       452 4.39099E+01 1.78684E+01 0.00000E+00
 -1       453 4.35670E+01 1.97292E+01 0.00000E+00
 -1       454 4.27575E+01 2.18097E+01 0.00000E+00
 -1       455 4.29015E+01 2.35213E+01 0.00000E+00
 -1       456 4.34220E+01 2.57979E+01 0.00000E+00
 -1       457 4.41669E+01 2.75858E+01 0.00000E+00
 -1       458 4.59803E+01 2.95586E+01 0.00000E+00
 -1       459 4.73327E+01 3.08856E+01 0.00000E+00
 -1       460 4.96499E+01 3.17292E+01 0.00000E+00
 -1       461 5.13582E+01 3.21056E+01 0.00000E+00
 -1       462 5.35718E+01 3.21328E+01 0.00000E+00
 -1       463 5.53776E+01 3.16137E+01 0.00000E+00
 -1       464 5.71057E+01 3.10304E+01 0.00000E+00
 -1       465 5.90901E+01 2.95522E+01 0.00000E+00
 -1       466 6.02018E+01 2.80971E+01 0.00000E+00
 -1       467 6.12378E+01 2.64884E+01 0.00000E+00
 -1       468 6.19484E+01 2.43471E+01 0.00000E+00
 -1       469 5.69968E+01 1.38128E+01 0.00000E+00
 -1       470 6.32723E+01 2.13238E+01 0.00000E+00
 -1       471 6.26384E+01 2.57635E+01 0.00000E+00
 -1       472 5.86922E+01 3.11157E+01 0.00000E+00
 -1       473 4.80915E+01 3.23675E+01 0.00000E+00
 -1       474 4.42319E+01 2.92686E+01 0.00000E+00
 -1       475 4.72051E+01 1.31310E+01 0.00000E+00
 -1       476 1.00350E+01 6.60425E+00 0.00000E+00
 -1       477 7.79400E+00 3.08500E+01 0.00000E+00
 -1       478 7.79400E+00 3.38000E+01 0.00000E+00
 -1       479 7.79400E+00 2.49500E+01 0.00000E+00
 -1       480 7.79400E+00 2.20000E+01 0.00000E+00
 -1       481 7.79400E+00 1.91000E+01 0.00000E+00
 -1       482 7.79400E+00 1.61500E+01 0.00000E+00
 -1       483 7.79400E+00 1.32000E+01 0.00000E+00
 -1       484 7.79400E+00 1.02500E+01 0.00000E+00
 -1       485 1.30350E+01 6.60425E+00 0.00000E+00
 -1       486 1.06500E+01 4.22060E+01 0.00000E+00
 -1       487 5.89969E+01 1.27920E+01 0.00000E+00
 -1       488 1.36500E+01 4.22060E+01 0.00000E+00
 -1       489 1.66500E+01 4.22060E+01 0.00000E+00
 -1       490 1.96500E+01 4.22060E+01 0.00000E+00
 -1       491 2.26500E+01 4.22060E+01 0.00000E+00
 -1       492 2.56500E+01 4.22060E+01 0.00000E+00
 -1       493 2.86500E+01 4.22060E+01 0.00000E+00
 -1       494 3.16500E+01 4.22060E+01 0.00000E+00
 -1       495 3.46500E+01 4.22060E+01 0.00000E+00
 -1       496 3.76500E+01 4.22060E+01 0.00000E+00
 -1       497 4.06500E+01 4.22060E+01 0.00000E+00
 -1       498 4.36500E+01 4.22060E+01 0.00000E+00
 -1       499 4.66500E+01 4.22060E+01 0.00000E+00
 -1       500 4.96500E+01 4.22060E+01 0.00000E+00
 -1       501 5.26500E+01 4.22060E+01 0.00000E+00
 -1       502 5.56500E+01 4.22060E+01 0.00000E+00
 -1       503 5.86500E+01 4.22060E+01 0.00000E+00
 -1       504 6.16500E+01 4.22060E+01 0.00000E+00
 -1       505 6.46500E+01 4.22060E+01 0.00000E+00
 -1       506 6.76500E+01 4.22060E+01 0.00000E+00
 -1       507 7.06500E+01 4.22060E+01 0.00000E+00
 -1       508 7.36500E+01 4.22060E+01 0.00000E+00
 -1       509 7.66500E+01 4.22060E+01 0.00000E+00
 -1       510 7.96500E+01 4.22060E+01 0.00000E+00
 -1       511 8.26500E+01 4.22060E+01 0.00000E+00
 -1       512 8.56500E+01 4.22060E+01 0.00000E+00
 -1       513 8.86500E+01 4.22060E+01 0.00000E+00
 -1       514 9.16500E+01 4.22060E+01 0.00000E+00
 -1       515 9.46500E+01 4.22060E+01 0.00000E+00
 -1       516 9.76500E+01 4.22060E+01 0.00000E+00
 -1       517 1.00650E+02 4.22060E+01 0.00000E+00
 -1       518 1.03650E+02 4.22060E+01 0.00000E+00
 -1       519 1.06650E+02 4.22060E+01 0.00000E+00
 -1       520 1.09650E+02 4.22060E+01 0.00000E+00
 -1       521 1.12650E+02 4.22060E+01 0.00000E+00
 -1       522 1.15650E+02 4.22060E+01 0.00000E+00
 -1       523 1.18650E+02 4.22060E+01 0.00000E+00
 -1       524 1.21650E+02 4.22060E+01 0.00000E+00
 -1       525 1.24650E+02 4.22060E+01 0.00000E+00
 -1       526 1.27650E+02 4.22060E+01 0.00000E+00
 -1       527 1.30650E+02 4.22060E+01 0.00000E+00
 -1       528 1.33650E+02 4.22060E+01 0.00000E+00
 -1       529 1.36650E+02 4.22060E+01 0.00000E+00
 -1       530 1.39650E+02 4.22060E+01 0.00000E+00
 -1       531 1.90350E+01 6.60425E+00 0.00000E+00
 -1       532 2.20350E+01 6.60425E+00 0.00000E+00
 -1       533 2.50350E+01 6.60425E+00 0.00000E+00
 -1       534 2.80350E+01 6.60425E+00 0.00000E+00
 -1       535 3.10350E+01 6.60425E+00 0.00000E+00
 -1       536 3.40350E+01 6.60425E+00 0.00000E+00
 -1       537 3.70350E+01 6.60425E+00 0.00000E+00
 -1       538 4.00350E+01 6.60425E+00 0.00000E+00
 -1       539 4.30350E+01 6.60425E+00 0.00000E+00
 -1       540 4.60350E+01 6.60425E+00 0.00000E+00
 -1       541 4.90350E+01 6.60425E+00 0.00000E+00
 -1       542 5.20350E+01 6.60425E+00 0.00000E+00
 -1       543 5.50350E+01 6.60425E+00 0.00000E+00
 -1       544 5.80350E+01 6.60425E+00 0.00000E+00
 -1       545 6.10350E+01 6.60425E+00 0.00000E+00
 -1       546 6.40350E+01 6.60425E+00 0.00000E+00
 -1       547 6.70350E+01 6.60425E+00 0.00000E+00
 -1       548 7.00350E+01 6.60425E+00 0.00000E+00
 -1       549 7.30350E+01 6.60425E+00 0.00000E+00
 -1       550 7.60350E+01 6.60425E+00 0.00000E+00
 -1       551 7.90350E+01 6.60425E+00 0.00000E+00
 -1       552 8.20350E+01 6.60425E+00 0.00000E+00
 -1       553 8.50350E+01 6.60425E+00 0.00000E+00
 -1       554 8.80350E+01 6.60425E+00 0.00000E+00
 -1       555 9.10350E+01 6.60425E+00 0.00000E+00
 -1       556 9.40350E+01 6.60425E+00 0.00000E+00
 -1       557 9.70350E+01 6.60425E+00 0.00000E+00
 -1       558 1.00035E+02 6.60425E+00 0.00000E+00
 -1       559 1.03035E+02 6.60425E+00 0.00000E+00
 -1       560 1.06035E+02 6.60425E+00 0.00000E+00
 -1       561 1.09035E+02 6.60425E+00 0.00000E+00
 -1       562 1.12035E+02 6.60425E+00 0.00000E+00
 -1       563 1.15035E+02 6.60425E+00 0.00000E+00
 -1       564 1.18035E+02 6.60425E+00 0.00000E+00
 -1       565 1.21035E+02 6.60425E+00 0.00000E+00
 -1       566 1.24035E+02 6.60425E+00 0.00000E+00
 -1       567 1.27035E+02 6.60425E+00 0.00000E+00
 -1       568 1.30035E+02 6.60425E+00 0.00000E+00
 -1       569 1.33035E+02 6.60425E+00 0.00000E+00
 -1       570 1.36035E+02 6.60425E+00 0.00000E+00
 -1       571 1.39035E+02 6.60425E+00 0.00000E+00
 -1       572 1.42035E+02 6.60425E+00 0.00000E+00
 -1       573 1.42206E+02 1.61750E+01 0.00000E+00
 -1       574 1.42206E+02 1.91250E+01 0.00000E+00
 -1       575 1.42206E+02 1.03250E+01 0.00000E+00
 -1       576 1.42206E+02 1.32500E+01 0.00000E+00
 -1       577 1.42206E+02 2.20750E+01 0.00000E+00
 -1       578 1.42206E+02 2.50250E+01 0.00000E+00
 -1       579 1.42206E+02 2.79750E+01 0.00000E+00
 -1       580 1.42206E+02 3.08750E+01 0.00000E+00
 -1       581 1.42206E+02 3.38250E+01 0.00000E+00
 -1       582 1.42206E+02 3.67750E+01 0.00000E+00
 -1       583 1.42206E+02 3.97250E+01 0.00000E+00
 -1       584 6.24817E+01 1.67289E+01 0.00000E+00
 -1       585 1.60350E+01 6.60425E+00 0.00000E+00
 -1       586 5.64179E+01 1.19231E+01 0.00000E+00
 -1       587 6.09804E+01 1.44738E+01 0.00000E+00
 -1       588 6.35019E+01 2.36481E+01 0.00000E+00
 -1       589 5.24440E+01 3.38342E+01 0.00000E+00
 -1       590 4.15639E+01 2.01476E+01 0.00000E+00
 -1       591 4.95128E+01 1.14668E+01 0.00000E+00
 -1       592 7.79400E+00 2.79000E+01 0.00000E+00
 -1       593 5.43090E+01 1.13480E+01 0.00000E+00
 -1       594 5.20540E+01 1.07500E+01 0.00000E+00
 -1       595 4.19068E+01 1.82868E+01 0.00000E+00
 -1       596 4.49079E+01 1.39560E+01 0.00000E+00
 -1       597 5.48791E+01 3.32800E+01 0.00000E+00
 -1       598 4.33951E+01 1.58292E+01 0.00000E+00
 -1       599 4.13709E+01 2.27882E+01 0.00000E+00
 -1       600 4.15715E+01 2.50232E+01 0.00000E+00
 -1       601 4.23659E+01 2.72870E+01 0.00000E+00
 -1       602 4.55726E+01 3.13267E+01 0.00000E+00
 -1       603 5.01890E+01 3.33469E+01 0.00000E+00
 -1       604 6.08091E+01 2.97133E+01 0.00000E+00
 -1       605 5.66071E+01 3.26968E+01 0.00000E+00
 -1       606 6.19505E+01 2.80852E+01 0.00000E+00
 -1       607 7.92300E+00 4.16780E+01 0.00000E+00
 -1       608 7.61550E+00 6.21462E+00 0.00000E+00
 -1       609 6.33655E+01 1.87874E+01 0.00000E+00
 -1       610 7.79400E+00 3.67375E+01 0.00000E+00
 -1       611 7.85850E+00 3.92077E+01 0.00000E+00
 -1       612 4.24309E+01 2.89698E+01 0.00000E+00
 -1       613 6.45358E+01 1.98445E+01 0.00000E+00
 -1       614 4.78847E+01 1.11586E+01 0.00000E+00
 -1       615 1.41678E+02 4.22645E+01 0.00000E+00
 -1       616 6.33511E+01 2.73603E+01 0.00000E+00
 -1       617 5.81936E+01 3.27820E+01 0.00000E+00
 -1       618 4.63315E+01 3.28086E+01 0.00000E+00
 -1       619 6.04112E+01 3.12767E+01 0.00000E+00
 -1       620 5.58588E+01 9.81919E+00 0.00000E+00
 -1       621 1.03920E+01 2.05500E+01 0.00000E+00
 -1       622 1.03920E+01 2.35000E+01 0.00000E+00
 -1       623 1.03920E+01 1.46750E+01 0.00000E+00
 -1       624 1.03920E+01 1.17250E+01 0.00000E+00
 -1       625 1.15350E+01 9.20225E+00 0.00000E+00
 -1       626 5.36038E+01 9.22126E+00 0.00000E+00
 -1       627 1.51500E+01 3.96080E+01 0.00000E+00
 -1       628 1.81500E+01 3.96080E+01 0.00000E+00
 -1       629 2.11500E+01 3.96080E+01 0.00000E+00
 -1       630 2.41500E+01 3.96080E+01 0.00000E+00
 -1       631 2.71500E+01 3.96080E+01 0.00000E+00
 -1       632 3.01500E+01 3.96080E+01 0.00000E+00
 -1       633 3.31500E+01 3.96080E+01 0.00000E+00
 -1       634 3.61500E+01 3.96080E+01 0.00000E+00
 -1       635 3.91500E+01 3.96080E+01 0.00000E+00
 -1       636 4.21500E+01 3.96080E+01 0.00000E+00
 -1       637 4.51500E+01 3.96080E+01 0.00000E+00
 -1       638 4.81500E+01 3.96080E+01 0.00000E+00
 -1       639 5.11500E+01 3.96080E+01 0.00000E+00
 -1       640 5.41500E+01 3.96080E+01 0.00000E+00
 -1       641 5.71500E+01 3.96080E+01 0.00000E+00
 -1       642 6.01500E+01 3.96080E+01 0.00000E+00
 -1       643 6.31500E+01 3.96080E+01 0.00000E+00
 -1       644 6.61500E+01 3.96080E+01 0.00000E+00
 -1       645 6.91500E+01 3.96080E+01 0.00000E+00
 -1       646 7.21500E+01 3.96080E+01 0.00000E+00
 -1       647 7.51500E+01 3.96080E+01 0.00000E+00
 -1       648 7.81500E+01 3.96080E+01 0.00000E+00
 -1       649 8.11500E+01 3.96080E+01 0.00000E+00
 -1       650 8.41500E+01 3.96080E+01 0.00000E+00
 -1       651 8.71500E+01 3.96080E+01 0.00000E+00
 -1       652 9.01500E+01 3.96080E+01 0.00000E+00
 -1       653 9.31500E+01 3.96080E+01 0.00000E+00
 -1       654 9.61500E+01 3.96080E+01 0.00000E+00
 -1       655 9.91500E+01 3.96080E+01 0.00000E+00
 -1       656 1.02150E+02 3.96080E+01 0.00000E+00
 -1       657 1.05150E+02 3.96080E+01 0.00000E+00
 -1       658 1.08150E+02 3.96080E+01 0.00000E+00
 -1       659 1.11150E+02 3.96080E+01 0.00000E+00
 -1       660 1.14150E+02 3.96080E+01 0.00000E+00
 -1       661 1.17150E+02 3.96080E+01 0.00000E+00
 -1       662 1.20150E+02 3.96080E+01 0.00000E+00
 -1       663 1.23150E+02 3.96080E+01 0.00000E+00
 -1       664 1.26150E+02 3.96080E+01 0.00000E+00
 -1       665 1.29150E+02 3.96080E+01 0.00000E+00
 -1       666 1.32150E+02 3.96080E+01 0.00000E+00
 -1       667 1.35150E+02 3.96080E+01 0.00000E+00
 -1       668 1.38150E+02 3.96080E+01 0.00000E+00
 -1       669 2.35350E+01 9.20225E+00 0.00000E+00
 -1       670 2.05350E+01 9.20225E+00 0.00000E+00
 -1       671 2.95350E+01 9.20225E+00 0.00000E+00
 -1       672 3.25350E+01 9.20225E+00 0.00000E+00
 -1       673 3.55350E+01 9.20225E+00 0.00000E+00
 -1       674 3.85350E+01 9.20225E+00 0.00000E+00
 -1       675 4.15350E+01 9.20225E+00 0.00000E+00
 -1       676 4.45350E+01 9.20225E+00 0.00000E+00
 -1       677 6.25350E+01 9.20225E+00 0.00000E+00
 -1       678 6.55350E+01 9.20225E+00 0.00000E+00
 -1       679 6.85350E+01 9.20225E+00 0.00000E+00
 -1       680 7.15350E+01 9.20225E+00 0.00000E+00
 -1       681 7.45350E+01 9.20225E+00 0.00000E+00
 -1       682 7.75350E+01 9.20225E+00 0.00000E+00
 -1       683 8.05350E+01 9.20225E+00 0.00000E+00
 -1       684 8.35350E+01 9.20225E+00 0.00000E+00
 -1       685 8.65350E+01 9.20225E+00 0.00000E+00
 -1       686 8.95350E+01 9.20225E+00 0.00000E+00
 -1       687 9.25350E+01 9.20225E+00 0.00000E+00
 -1       688 9.55350E+01 9.20225E+00 0.00000E+00
 -1       689 9.85350E+01 9.20225E+00 0.00000E+00
 -1       690 1.01535E+02 9.20225E+00 0.00000E+00
 -1       691 1.04535E+02 9.20225E+00 0.00000E+00
 -1       692 1.07535E+02 9.20225E+00 0.00000E+00
 -1       693 1.10535E+02 9.20225E+00 0.00000E+00
 -1       694 1.13535E+02 9.20225E+00 0.00000E+00
 -1       695 1.16535E+02 9.20225E+00 0.00000E+00
 -1       696 1.19535E+02 9.20225E+00 0.00000E+00
 -1       697 1.22535E+02 9.20225E+00 0.00000E+00
 -1       698 1.25535E+02 9.20225E+00 0.00000E+00
 -1       699 1.28535E+02 9.20225E+00 0.00000E+00
 -1       700 1.31535E+02 9.20225E+00 0.00000E+00
 -1       701 1.34535E+02 9.20225E+00 0.00000E+00
 -1       702 1.37535E+02 9.20225E+00 0.00000E+00
 -1       703 1.39870E+02 9.76363E+00 0.00000E+00
 -1       704 1.39608E+02 2.35500E+01 0.00000E+00
 -1       705 1.40178E+02 3.96665E+01 0.00000E+00
 -1       706 1.39608E+02 1.76500E+01 0.00000E+00
 -1       707 1.39608E+02 2.65000E+01 0.00000E+00
 -1       708 1.39608E+02 2.06000E+01 0.00000E+00
 -1       709 1.75350E+01 9.20225E+00 0.00000E+00
 -1       710 1.39608E+02 2.94000E+01 0.00000E+00
 -1       711 1.39608E+02 3.23500E+01 0.00000E+00
 -1       712 1.39608E+02 3.53000E+01 0.00000E+00
 -1       713 4.08972E+01 1.59960E+01 0.00000E+00
 -1       714 6.34377E+01 1.44652E+01 0.00000E+00
 -1       715 2.65350E+01 9.20225E+00 0.00000E+00
 -1       716 1.21500E+01 3.96080E+01 0.00000E+00
 -1       717 4.00486E+01 1.89064E+01 0.00000E+00
 -1       718 6.46536E+01 1.70154E+01 0.00000E+00
 -1       719 1.45350E+01 9.20225E+00 0.00000E+00
 -1       720 4.84501E+01 3.43353E+01 0.00000E+00
 -1       721 5.84378E+01 1.06881E+01 0.00000E+00
 -1       722 6.51235E+01 2.55440E+01 0.00000E+00
 -1       723 6.27842E+01 2.98837E+01 0.00000E+00
 -1       724 1.03920E+01 1.76125E+01 0.00000E+00
 -1       725 4.54768E+01 1.19293E+01 0.00000E+00
 -1       726 1.03920E+01 3.23250E+01 0.00000E+00
 -1       727 4.25564E+01 1.36045E+01 0.00000E+00
 -1       728 6.12062E+01 1.21969E+01 0.00000E+00
 -1       729 5.03178E+01 9.45769E+00 0.00000E+00
 -1       730 4.03503E+01 2.67231E+01 0.00000E+00
 -1       731 4.31844E+01 3.14167E+01 0.00000E+00
 -1       732 3.95897E+01 2.13307E+01 0.00000E+00
 -1       733 5.40793E+01 3.53928E+01 0.00000E+00
 -1       734 5.58073E+01 3.48096E+01 0.00000E+00
 -1       735 3.94291E+01 2.40890E+01 0.00000E+00
 -1       736 6.49271E+01 2.23338E+01 0.00000E+00
 -1       737 5.09896E+01 3.51031E+01 0.00000E+00
 -1       738 1.00042E+01 3.94079E+01 0.00000E+00
 -1       739 1.03920E+01 2.64500E+01 0.00000E+00
 -1       740 5.26249E+01 3.66618E+01 0.00000E+00
 -1       741 4.39432E+01 3.28986E+01 0.00000E+00
 -1       742 4.04154E+01 2.84058E+01 0.00000E+00
 -1       743 6.58239E+01 1.80726E+01 0.00000E+00
 -1       744 1.39608E+02 1.47250E+01 0.00000E+00
 -1       745 6.41848E+01 2.91589E+01 0.00000E+00
 -1       746 1.39739E+02 1.22443E+01 0.00000E+00
 -1       747 5.99126E+01 3.29431E+01 0.00000E+00
 -1       748 6.23862E+01 3.14472E+01 0.00000E+00
 -1       749 1.03920E+01 2.93875E+01 0.00000E+00
 -1       750 6.65487E+01 2.42297E+01 0.00000E+00
 -1       751 1.03920E+01 3.52625E+01 0.00000E+00
 -1       752 5.73939E+01 3.48948E+01 0.00000E+00
 -1       753 1.38879E+02 3.74540E+01 0.00000E+00
 -1       754 6.60476E+01 1.47859E+01 0.00000E+00
 -1       755 1.29900E+01 1.32000E+01 0.00000E+00
 -1       756 1.66500E+01 3.70100E+01 0.00000E+00
 -1       757 1.01981E+01 3.73352E+01 0.00000E+00
 -1       758 6.59572E+01 2.73425E+01 0.00000E+00
 -1       759 1.96500E+01 3.70100E+01 0.00000E+00
 -1       760 2.26500E+01 3.70100E+01 0.00000E+00
 -1       761 2.56500E+01 3.70100E+01 0.00000E+00
 -1       762 2.86500E+01 3.70100E+01 0.00000E+00
 -1       763 3.16500E+01 3.70100E+01 0.00000E+00
 -1       764 3.46500E+01 3.70100E+01 0.00000E+00
 -1       765 3.76500E+01 3.70100E+01 0.00000E+00
 -1       766 4.06500E+01 3.70100E+01 0.00000E+00
 -1       767 4.36500E+01 3.70100E+01 0.00000E+00
 -1       768 4.66500E+01 3.70100E+01 0.00000E+00
 -1       769 6.16500E+01 3.70100E+01 0.00000E+00
 -1       770 6.46500E+01 3.70100E+01 0.00000E+00
 -1       771 6.76500E+01 3.70100E+01 0.00000E+00
 -1       772 7.06500E+01 3.70100E+01 0.00000E+00
 -1       773 7.36500E+01 3.70100E+01 0.00000E+00
 -1       774 7.66500E+01 3.70100E+01 0.00000E+00
 -1       775 7.96500E+01 3.70100E+01 0.00000E+00
 -1       776 8.26500E+01 3.70100E+01 0.00000E+00
 -1       777 8.56500E+01 3.70100E+01 0.00000E+00
 -1       778 8.86500E+01 3.70100E+01 0.00000E+00
 -1       779 9.16500E+01 3.70100E+01 0.00000E+00
 -1       780 9.46500E+01 3.70100E+01 0.00000E+00
 -1       781 9.76500E+01 3.70100E+01 0.00000E+00
 -1       782 1.00650E+02 3.70100E+01 0.00000E+00
 -1       783 1.03650E+02 3.70100E+01 0.00000E+00
 -1       784 1.06650E+02 3.70100E+01 0.00000E+00
 -1       785 1.09650E+02 3.70100E+01 0.00000E+00
 -1       786 1.12650E+02 3.70100E+01 0.00000E+00
 -1       787 1.15650E+02 3.70100E+01 0.00000E+00
 -1       788 1.18650E+02 3.70100E+01 0.00000E+00
 -1       789 1.21650E+02 3.70100E+01 0.00000E+00
 -1       790 1.24650E+02 3.70100E+01 0.00000E+00
 -1       791 1.27650E+02 3.70100E+01 0.00000E+00
 -1       792 1.30650E+02 3.70100E+01 0.00000E+00
 -1       793 1.33650E+02 3.70100E+01 0.00000E+00
 -1       794 1.36264E+02 3.72320E+01 0.00000E+00
 -1       795 1.37010E+02 2.79500E+01 0.00000E+00
 -1       796 3.40350E+01 1.18003E+01 0.00000E+00
 -1       797 3.10350E+01 1.18003E+01 0.00000E+00
 -1       798 4.00350E+01 1.18003E+01 0.00000E+00
 -1       799 7.30350E+01 1.18003E+01 0.00000E+00
 -1       800 7.60350E+01 1.18003E+01 0.00000E+00
 -1       801 7.90350E+01 1.18003E+01 0.00000E+00
 -1       802 8.20350E+01 1.18003E+01 0.00000E+00
 -1       803 8.50350E+01 1.18003E+01 0.00000E+00
 -1       804 8.80350E+01 1.18003E+01 0.00000E+00
 -1       805 9.10350E+01 1.18003E+01 0.00000E+00
 -1       806 9.40350E+01 1.18003E+01 0.00000E+00
 -1       807 9.70350E+01 1.18003E+01 0.00000E+00
 -1       808 1.00035E+02 1.18003E+01 0.00000E+00
 -1       809 1.03035E+02 1.18003E+01 0.00000E+00
 -1       810 1.06035E+02 1.18003E+01 0.00000E+00
 -1       811 1.09035E+02 1.18003E+01 0.00000E+00
 -1       812 1.12035E+02 1.18003E+01 0.00000E+00
 -1       813 1.15035E+02 1.18003E+01 0.00000E+00
 -1       814 1.18035E+02 1.18003E+01 0.00000E+00
 -1       815 1.21035E+02 1.18003E+01 0.00000E+00
 -1       816 1.24035E+02 1.18003E+01 0.00000E+00
 -1       817 1.27035E+02 1.18003E+01 0.00000E+00
 -1       818 1.30035E+02 1.18003E+01 0.00000E+00
 -1       819 1.33035E+02 1.18003E+01 0.00000E+00
 -1       820 1.36035E+02 1.18003E+01 0.00000E+00
 -1       821 1.37887E+02 1.20223E+01 0.00000E+00
 -1       822 1.90350E+01 1.18003E+01 0.00000E+00
 -1       823 1.37010E+02 2.50000E+01 0.00000E+00
 -1       824 1.37010E+02 3.38250E+01 0.00000E+00
 -1       825 4.92235E+01 3.63609E+01 0.00000E+00
 -1       826 3.72954E+01 2.25809E+01 0.00000E+00
 -1       827 1.37625E+01 1.12011E+01 0.00000E+00
 -1       828 1.36500E+01 3.70100E+01 0.00000E+00
 -1       829 1.37010E+02 3.08875E+01 0.00000E+00
 -1       830 7.00350E+01 1.18003E+01 0.00000E+00
 -1       831 6.70350E+01 1.18003E+01 0.00000E+00
 -1       832 3.70350E+01 1.18003E+01 0.00000E+00
 -1       833 2.20350E+01 1.18003E+01 0.00000E+00
 -1       834 6.42913E+01 1.19941E+01 0.00000E+00
 -1       835 4.11688E+01 3.08528E+01 0.00000E+00
 -1       836 4.01799E+01 1.37270E+01 0.00000E+00
 -1       837 1.29900E+01 2.20250E+01 0.00000E+00
 -1       838 3.81340E+01 1.97995E+01 0.00000E+00
 -1       839 4.61921E+01 3.52353E+01 0.00000E+00
 -1       840 6.64258E+01 2.08228E+01 0.00000E+00
 -1       841 3.83437E+01 1.68304E+01 0.00000E+00
 -1       842 3.82708E+01 2.59722E+01 0.00000E+00
 -1       843 1.29900E+01 2.49750E+01 0.00000E+00
 -1       844 1.29900E+01 1.61375E+01 0.00000E+00
 -1       845 6.73824E+01 2.60282E+01 0.00000E+00
 -1       846 6.72179E+01 1.58430E+01 0.00000E+00
 -1       847 1.37010E+02 1.61875E+01 0.00000E+00
 -1       848 4.96500E+01 3.72226E+01 0.00000E+00
 -1       849 2.50350E+01 1.18003E+01 0.00000E+00
 -1       850 2.80350E+01 1.18003E+01 0.00000E+00
 -1       851 1.37010E+02 1.91375E+01 0.00000E+00
 -1       852 1.37010E+02 2.20688E+01 0.00000E+00
 -1       853 4.16241E+01 3.31092E+01 0.00000E+00
 -1       854 3.61370E+01 2.44641E+01 0.00000E+00
 -1       855 1.63988E+01 1.15007E+01 0.00000E+00
 -1       856 6.18877E+01 3.31135E+01 0.00000E+00
 -1       857 6.37869E+01 3.07224E+01 0.00000E+00
 -1       858 3.83358E+01 2.76549E+01 0.00000E+00
 -1       859 6.80473E+01 2.27187E+01 0.00000E+00
 -1       860 1.29900E+01 1.90875E+01 0.00000E+00
 -1       861 1.36637E+02 3.55285E+01 0.00000E+00
 -1       862 1.29900E+01 3.37938E+01 0.00000E+00
 -1       863 3.76265E+01 1.45614E+01 0.00000E+00
 -1       864 1.29900E+01 3.08563E+01 0.00000E+00
 -1       865 3.88326E+01 3.02326E+01 0.00000E+00
 -1       866 1.81500E+01 3.44120E+01 0.00000E+00
 -1       867 2.11500E+01 3.44120E+01 0.00000E+00
 -1       868 2.41500E+01 3.44120E+01 0.00000E+00
 -1       869 2.71500E+01 3.44120E+01 0.00000E+00
 -1       870 3.01500E+01 3.44120E+01 0.00000E+00
 -1       871 3.31500E+01 3.44120E+01 0.00000E+00
 -1       872 3.61500E+01 3.44120E+01 0.00000E+00
 -1       873 3.91500E+01 3.44120E+01 0.00000E+00
 -1       874 6.61500E+01 3.44120E+01 0.00000E+00
 -1       875 6.91500E+01 3.44120E+01 0.00000E+00
 -1       876 7.21500E+01 3.44120E+01 0.00000E+00
 -1       877 7.51500E+01 3.44120E+01 0.00000E+00
 -1       878 7.81500E+01 3.44120E+01 0.00000E+00
 -1       879 8.11500E+01 3.44120E+01 0.00000E+00
 -1       880 8.41500E+01 3.44120E+01 0.00000E+00
 -1       881 8.71500E+01 3.44120E+01 0.00000E+00
 -1       882 9.01500E+01 3.44120E+01 0.00000E+00
 -1       883 9.31500E+01 3.44120E+01 0.00000E+00
 -1       884 9.61500E+01 3.44120E+01 0.00000E+00
 -1       885 9.91500E+01 3.44120E+01 0.00000E+00
 -1       886 1.02150E+02 3.44120E+01 0.00000E+00
 -1       887 1.05150E+02 3.44120E+01 0.00000E+00
 -1       888 1.08150E+02 3.44120E+01 0.00000E+00
 -1       889 1.11150E+02 3.44120E+01 0.00000E+00
 -1       890 1.14150E+02 3.44120E+01 0.00000E+00
 -1       891 1.17150E+02 3.44120E+01 0.00000E+00
 -1       892 1.20150E+02 3.44120E+01 0.00000E+00
 -1       893 1.23150E+02 3.44120E+01 0.00000E+00
 -1       894 1.26150E+02 3.44120E+01 0.00000E+00
 -1       895 1.29150E+02 3.44120E+01 0.00000E+00
 -1       896 1.32150E+02 3.44120E+01 0.00000E+00
 -1       897 3.25350E+01 1.43982E+01 0.00000E+00
 -1       898 8.05350E+01 1.43982E+01 0.00000E+00
 -1       899 7.15350E+01 1.43982E+01 0.00000E+00
 -1       900 7.45350E+01 1.43982E+01 0.00000E+00
 -1       901 8.35350E+01 1.43982E+01 0.00000E+00
 -1       902 8.65350E+01 1.43982E+01 0.00000E+00
 -1       903 8.95350E+01 1.43982E+01 0.00000E+00
 -1       904 9.25350E+01 1.43982E+01 0.00000E+00
 -1       905 9.55350E+01 1.43982E+01 0.00000E+00
 -1       906 9.85350E+01 1.43982E+01 0.00000E+00
 -1       907 1.01535E+02 1.43982E+01 0.00000E+00
 -1       908 1.04535E+02 1.43982E+01 0.00000E+00
 -1       909 1.07535E+02 1.43982E+01 0.00000E+00
 -1       910 1.10535E+02 1.43982E+01 0.00000E+00
 -1       911 1.13535E+02 1.43982E+01 0.00000E+00
 -1       912 1.16535E+02 1.43982E+01 0.00000E+00
 -1       913 1.19535E+02 1.43982E+01 0.00000E+00
 -1       914 1.22535E+02 1.43982E+01 0.00000E+00
 -1       915 1.25535E+02 1.43982E+01 0.00000E+00
 -1       916 1.28535E+02 1.43982E+01 0.00000E+00
 -1       917 1.31535E+02 1.43982E+01 0.00000E+00
 -1       918 1.34535E+02 1.43982E+01 0.00000E+00
 -1       919 1.34412E+02 2.64750E+01 0.00000E+00
 -1       920 1.37449E+02 1.41049E+01 0.00000E+00
 -1       921 6.65384E+01 2.96826E+01 0.00000E+00
 -1       922 7.75350E+01 1.43982E+01 0.00000E+00
 -1       923 6.87913E+01 1.45921E+01 0.00000E+00
 -1       924 2.05350E+01 1.43982E+01 0.00000E+00
 -1       925 5.88775E+01 3.47370E+01 0.00000E+00
 -1       926 1.29900E+01 2.79188E+01 0.00000E+00
 -1       927 1.55700E+01 3.41029E+01 0.00000E+00
 -1       928 6.81277E+01 1.90094E+01 0.00000E+00
 -1       929 3.55913E+01 2.05500E+01 0.00000E+00
 -1       930 3.58010E+01 1.75808E+01 0.00000E+00
 -1       931 1.55880E+01 1.46687E+01 0.00000E+00
 -1       932 1.34412E+02 2.94125E+01 0.00000E+00
 -1       933 6.79636E+01 2.83683E+01 0.00000E+00
 -1       934 2.35350E+01 1.43982E+01 0.00000E+00
 -1       935 2.95350E+01 1.43982E+01 0.00000E+00
 -1       936 1.34394E+02 3.49702E+01 0.00000E+00
 -1       937 1.75351E+01 1.43983E+01 0.00000E+00
 -1       938 1.34412E+02 2.35438E+01 0.00000E+00
 -1       939 6.97493E+01 2.09052E+01 0.00000E+00
 -1       940 3.58271E+01 2.71662E+01 0.00000E+00
 -1       941 3.44329E+01 2.24332E+01 0.00000E+00
 -1       942 1.59934E+01 1.30847E+01 0.00000E+00
 -1       943 6.61404E+01 3.12461E+01 0.00000E+00
 -1       944 3.88498E+01 3.24949E+01 0.00000E+00
 -1       945 1.34412E+02 1.76625E+01 0.00000E+00
 -1       946 1.55700E+01 3.11654E+01 0.00000E+00
 -1       947 6.88811E+01 2.45172E+01 0.00000E+00
 -1       948 1.55880E+01 2.35000E+01 0.00000E+00
 -1       949 6.40141E+01 3.21798E+01 0.00000E+00
 -1       950 1.34580E+02 3.26497E+01 0.00000E+00
 -1       951 1.55880E+01 2.05625E+01 0.00000E+00
 -1       952 1.55880E+01 2.64438E+01 0.00000E+00
 -1       953 1.34412E+02 2.06031E+01 0.00000E+00
 -1       954 2.26500E+01 3.18140E+01 0.00000E+00
 -1       955 2.56500E+01 3.18140E+01 0.00000E+00
 -1       956 2.86500E+01 3.18140E+01 0.00000E+00
 -1       957 3.16500E+01 3.18140E+01 0.00000E+00
 -1       958 3.46500E+01 3.18140E+01 0.00000E+00
 -1       959 7.06500E+01 3.18140E+01 0.00000E+00
 -1       960 7.36500E+01 3.18140E+01 0.00000E+00
 -1       961 7.66500E+01 3.18140E+01 0.00000E+00
 -1       962 7.96500E+01 3.18140E+01 0.00000E+00
 -1       963 8.26500E+01 3.18140E+01 0.00000E+00
 -1       964 8.56500E+01 3.18140E+01 0.00000E+00
 -1       965 8.86500E+01 3.18140E+01 0.00000E+00
 -1       966 9.16500E+01 3.18140E+01 0.00000E+00
 -1       967 9.46500E+01 3.18140E+01 0.00000E+00
 -1       968 9.76500E+01 3.18140E+01 0.00000E+00
 -1       969 1.00650E+02 3.18140E+01 0.00000E+00
 -1       970 1.03650E+02 3.18140E+01 0.00000E+00
 -1       971 1.06650E+02 3.18140E+01 0.00000E+00
 -1       972 1.09650E+02 3.18140E+01 0.00000E+00
 -1       973 1.12650E+02 3.18140E+01 0.00000E+00
 -1       974 1.15650E+02 3.18140E+01 0.00000E+00
 -1       975 1.18650E+02 3.18140E+01 0.00000E+00
 -1       976 1.21650E+02 3.18140E+01 0.00000E+00
 -1       977 1.24650E+02 3.18140E+01 0.00000E+00
 -1       978 1.27650E+02 3.18140E+01 0.00000E+00
 -1       979 1.30650E+02 3.18140E+01 0.00000E+00
 -1       980 6.98313E+01 1.67038E+01 0.00000E+00
 -1       981 8.50350E+01 1.69963E+01 0.00000E+00
 -1       982 2.65350E+01 1.43982E+01 0.00000E+00
 -1       983 7.30350E+01 1.69963E+01 0.00000E+00
 -1       984 8.80350E+01 1.69963E+01 0.00000E+00
 -1       985 9.10350E+01 1.69963E+01 0.00000E+00
 -1       986 9.40350E+01 1.69963E+01 0.00000E+00
 -1       987 9.70350E+01 1.69963E+01 0.00000E+00
 -1       988 1.00035E+02 1.69963E+01 0.00000E+00
 -1       989 1.03035E+02 1.69963E+01 0.00000E+00
 -1       990 1.06035E+02 1.69963E+01 0.00000E+00
 -1       991 1.09035E+02 1.69963E+01 0.00000E+00
 -1       992 1.12035E+02 1.69963E+01 0.00000E+00
 -1       993 1.15035E+02 1.69963E+01 0.00000E+00
 -1       994 1.18035E+02 1.69963E+01 0.00000E+00
 -1       995 1.21035E+02 1.69963E+01 0.00000E+00
 -1       996 1.24035E+02 1.69963E+01 0.00000E+00
 -1       997 1.27035E+02 1.69963E+01 0.00000E+00
 -1       998 1.30035E+02 1.69963E+01 0.00000E+00
 -1       999 3.34838E+01 1.89091E+01 0.00000E+00
 -1      1000 1.55790E+01 2.88046E+01 0.00000E+00
 -1      1001 1.90351E+01 1.69963E+01 0.00000E+00
 -1      1002 3.36122E+01 2.55434E+01 0.00000E+00
 -1      1003 1.55880E+01 1.76156E+01 0.00000E+00
 -1      1004 1.81500E+01 3.14745E+01 0.00000E+00
 -1      1005 8.20350E+01 1.69963E+01 0.00000E+00
 -1      1006 2.04000E+01 3.16443E+01 0.00000E+00
 -1      1007 6.94622E+01 2.68573E+01 0.00000E+00
 -1      1008 1.31814E+02 2.79438E+01 0.00000E+00
 -1      1009 3.04838E+01 1.89091E+01 0.00000E+00
 -1      1010 6.76500E+01 3.18140E+01 0.00000E+00
 -1      1011 7.90350E+01 1.69963E+01 0.00000E+00
 -1      1012 7.60350E+01 1.69963E+01 0.00000E+00
 -1      1013 1.31814E+02 2.50125E+01 0.00000E+00
 -1      1014 3.23255E+01 2.07924E+01 0.00000E+00
 -1      1015 7.05830E+01 2.27038E+01 0.00000E+00
 -1      1016 3.64065E+01 2.93635E+01 0.00000E+00
 -1      1017 2.20351E+01 1.69963E+01 0.00000E+00
 -1      1018 1.30035E+02 1.99369E+01 0.00000E+00
 -1      1019 1.81860E+01 2.49719E+01 0.00000E+00
 -1      1020 3.33099E+01 2.82790E+01 0.00000E+00
 -1      1021 6.93068E+01 3.00911E+01 0.00000E+00
 -1      1022 1.81860E+01 2.20344E+01 0.00000E+00
 -1      1023 1.30924E+02 2.24747E+01 0.00000E+00
 -1      1024 2.71500E+01 2.92160E+01 0.00000E+00
 -1      1025 3.01500E+01 2.92160E+01 0.00000E+00
 -1      1026 7.21500E+01 2.92160E+01 0.00000E+00
 -1      1027 7.10327E+01 1.93738E+01 0.00000E+00
 -1      1028 7.51500E+01 2.92160E+01 0.00000E+00
 -1      1029 7.81500E+01 2.92160E+01 0.00000E+00
 -1      1030 8.11500E+01 2.92160E+01 0.00000E+00
 -1      1031 8.41500E+01 2.92160E+01 0.00000E+00
 -1      1032 8.71500E+01 2.92160E+01 0.00000E+00
 -1      1033 9.01500E+01 2.92160E+01 0.00000E+00
 -1      1034 9.31500E+01 2.92160E+01 0.00000E+00
 -1      1035 9.61500E+01 2.92160E+01 0.00000E+00
 -1      1036 9.91500E+01 2.92160E+01 0.00000E+00
 -1      1037 1.02150E+02 2.92160E+01 0.00000E+00
 -1      1038 1.05150E+02 2.92160E+01 0.00000E+00
 -1      1039 1.08150E+02 2.92160E+01 0.00000E+00
 -1      1040 1.11150E+02 2.92160E+01 0.00000E+00
 -1      1041 1.14150E+02 2.92160E+01 0.00000E+00
 -1      1042 1.17150E+02 2.92160E+01 0.00000E+00
 -1      1043 1.20150E+02 2.92160E+01 0.00000E+00
 -1      1044 1.23150E+02 2.92160E+01 0.00000E+00
 -1      1045 1.26150E+02 2.92160E+01 0.00000E+00
 -1      1046 1.28982E+02 2.85799E+01 0.00000E+00
 -1      1047 9.25350E+01 1.95942E+01 0.00000E+00
 -1      1048 2.74838E+01 1.89091E+01 0.00000E+00
 -1      1049 8.65350E+01 1.95942E+01 0.00000E+00
 -1      1050 9.55350E+01 1.95942E+01 0.00000E+00
 -1      1051 9.85350E+01 1.95942E+01 0.00000E+00
 -1      1052 1.01535E+02 1.95942E+01 0.00000E+00
 -1      1053 1.04535E+02 1.95942E+01 0.00000E+00
 -1      1054 1.07535E+02 1.95942E+01 0.00000E+00
 -1      1055 1.10535E+02 1.95942E+01 0.00000E+00
 -1      1056 1.13535E+02 1.95942E+01 0.00000E+00
 -1      1057 1.16535E+02 1.95942E+01 0.00000E+00
 -1      1058 1.19535E+02 1.95942E+01 0.00000E+00
 -1      1059 1.22535E+02 1.95942E+01 0.00000E+00
 -1      1060 1.25535E+02 1.95942E+01 0.00000E+00
 -1      1061 1.27785E+02 1.97656E+01 0.00000E+00
 -1      1062 8.95350E+01 1.95942E+01 0.00000E+00
 -1      1063 3.15048E+01 2.39025E+01 0.00000E+00
 -1      1064 2.41500E+01 2.92160E+01 0.00000E+00
 -1      1065 1.81590E+01 2.91137E+01 0.00000E+00
 -1      1066 7.18665E+01 2.11723E+01 0.00000E+00
 -1      1067 3.12025E+01 2.66381E+01 0.00000E+00
 -1      1068 7.39507E+01 1.90843E+01 0.00000E+00
 -1      1069 1.86105E+01 1.95153E+01 0.00000E+00
 -1      1070 8.35350E+01 1.95942E+01 0.00000E+00
 -1      1071 2.47594E+01 1.79527E+01 0.00000E+00
 -1      1072 2.04090E+01 2.92834E+01 0.00000E+00
 -1      1073 7.11642E+01 2.50438E+01 0.00000E+00
 -1      1074 7.08061E+01 2.80366E+01 0.00000E+00
 -1      1075 1.28982E+02 2.56486E+01 0.00000E+00
 -1      1076 8.05350E+01 1.95942E+01 0.00000E+00
 -1      1077 2.16105E+01 1.95153E+01 0.00000E+00
 -1      1078 2.07840E+01 2.35031E+01 0.00000E+00
 -1      1079 2.07636E+01 2.64991E+01 0.00000E+00
 -1      1080 1.81725E+01 2.70428E+01 0.00000E+00
 -1      1081 7.36500E+01 2.66180E+01 0.00000E+00
 -1      1082 8.50350E+01 2.21922E+01 0.00000E+00
 -1      1083 7.66500E+01 2.66180E+01 0.00000E+00
 -1      1084 7.96500E+01 2.66180E+01 0.00000E+00
 -1      1085 8.26500E+01 2.66180E+01 0.00000E+00
 -1      1086 8.56500E+01 2.66180E+01 0.00000E+00
 -1      1087 8.86500E+01 2.66180E+01 0.00000E+00
 -1      1088 9.16500E+01 2.66180E+01 0.00000E+00
 -1      1089 9.46500E+01 2.66180E+01 0.00000E+00
 -1      1090 9.76500E+01 2.66180E+01 0.00000E+00
 -1      1091 1.00650E+02 2.66180E+01 0.00000E+00
 -1      1092 1.03650E+02 2.66180E+01 0.00000E+00
 -1      1093 1.06650E+02 2.66180E+01 0.00000E+00
 -1      1094 1.09650E+02 2.66180E+01 0.00000E+00
 -1      1095 1.12650E+02 2.66180E+01 0.00000E+00
 -1      1096 1.15650E+02 2.66180E+01 0.00000E+00
 -1      1097 1.18650E+02 2.66180E+01 0.00000E+00
 -1      1098 1.21650E+02 2.66180E+01 0.00000E+00
 -1      1099 1.24650E+02 2.66180E+01 0.00000E+00
 -1      1100 1.26816E+02 2.61333E+01 0.00000E+00
 -1      1101 2.89838E+01 2.15071E+01 0.00000E+00
 -1      1102 1.00035E+02 2.21922E+01 0.00000E+00
 -1      1103 9.40350E+01 2.21922E+01 0.00000E+00
 -1      1104 2.56500E+01 2.66180E+01 0.00000E+00
 -1      1105 1.03035E+02 2.21922E+01 0.00000E+00
 -1      1106 1.06035E+02 2.21922E+01 0.00000E+00
 -1      1107 1.09035E+02 2.21922E+01 0.00000E+00
 -1      1108 1.12035E+02 2.21922E+01 0.00000E+00
 -1      1109 1.15035E+02 2.21922E+01 0.00000E+00
 -1      1110 1.18035E+02 2.21922E+01 0.00000E+00
 -1      1111 1.21035E+02 2.21922E+01 0.00000E+00
 -1      1112 1.24035E+02 2.21922E+01 0.00000E+00
 -1      1113 2.33717E+01 2.50188E+01 0.00000E+00
 -1      1114 2.87713E+01 2.49850E+01 0.00000E+00
 -1      1115 9.70350E+01 2.21922E+01 0.00000E+00
 -1      1116 2.79607E+01 2.71005E+01 0.00000E+00
 -1      1117 7.75350E+01 1.95942E+01 0.00000E+00
 -1      1118 2.11973E+01 2.15092E+01 0.00000E+00
 -1      1119 7.24476E+01 2.35124E+01 0.00000E+00
 -1      1120 7.45319E+01 2.14243E+01 0.00000E+00
 -1      1121 8.20350E+01 2.21922E+01 0.00000E+00
 -1      1122 2.59839E+01 2.15072E+01 0.00000E+00
 -1      1123 9.10350E+01 2.21922E+01 0.00000E+00
 -1      1124 2.37850E+01 2.30249E+01 0.00000E+00
 -1      1125 1.26285E+02 2.23636E+01 0.00000E+00
 -1      1126 1.28674E+02 2.23034E+01 0.00000E+00
 -1      1127 8.80350E+01 2.21922E+01 0.00000E+00
 -1      1128 7.81500E+01 2.40200E+01 0.00000E+00
 -1      1129 7.52988E+01 2.37662E+01 0.00000E+00
 -1      1130 0.00000E+00 4.85250E+01 0.00000E+00
 -1      1131 0.00000E+00 4.55750E+01 0.00000E+00
 -1      1132 0.00000E+00 4.26250E+01 0.00000E+00
 -1      1133 0.00000E+00 3.96750E+01 0.00000E+00
 -1      1134 0.00000E+00 3.67250E+01 0.00000E+00
 -1      1135 0.00000E+00 3.38000E+01 0.00000E+00
 -1      1136 0.00000E+00 3.08750E+01 0.00000E+00
 -1      1137 0.00000E+00 2.79250E+01 0.00000E+00
 -1      1138 0.00000E+00 2.49750E+01 0.00000E+00
 -1      1139 0.00000E+00 2.20250E+01 0.00000E+00
 -1      1140 0.00000E+00 1.90750E+01 0.00000E+00
 -1      1141 0.00000E+00 1.61500E+01 0.00000E+00
 -1      1142 0.00000E+00 1.32250E+01 0.00000E+00
 -1      1143 0.00000E+00 1.02750E+01 0.00000E+00
 -1      1144 0.00000E+00 7.32500E+00 0.00000E+00
 -1      1145 0.00000E+00 4.37500E+00 0.00000E+00
 -1      1146 0.00000E+00 1.45000E+00 0.00000E+00
 -1      1147 1.57500E+00 5.00000E+01 0.00000E+00
 -1      1148 4.65000E+00 5.00000E+01 0.00000E+00
 -1      1149 7.65000E+00 5.00000E+01 0.00000E+00
 -1      1150 1.06500E+01 5.00000E+01 0.00000E+00
 -1      1151 1.36500E+01 5.00000E+01 0.00000E+00
 -1      1152 1.66500E+01 5.00000E+01 0.00000E+00
 -1      1153 1.96500E+01 5.00000E+01 0.00000E+00
 -1      1154 2.26500E+01 5.00000E+01 0.00000E+00
 -1      1155 2.56500E+01 5.00000E+01 0.00000E+00
 -1      1156 2.86500E+01 5.00000E+01 0.00000E+00
 -1      1157 3.16500E+01 5.00000E+01 0.00000E+00
 -1      1158 3.46500E+01 5.00000E+01 0.00000E+00
 -1      1159 3.76500E+01 5.00000E+01 0.00000E+00
 -1      1160 4.06500E+01 5.00000E+01 0.00000E+00
 -1      1161 4.36500E+01 5.00000E+01 0.00000E+00
 -1      1162 4.66500E+01 5.00000E+01 0.00000E+00
 -1      1163 4.96500E+01 5.00000E+01 0.00000E+00
 -1      1164 5.26500E+01 5.00000E+01 0.00000E+00
 -1      1165 5.56500E+01 5.00000E+01 0.00000E+00
 -1      1166 5.86500E+01 5.00000E+01 0.00000E+00
 -1      1167 6.16500E+01 5.00000E+01 0.00000E+00
 -1      1168 6.46500E+01 5.00000E+01 0.00000E+00
 -1      1169 6.76500E+01 5.00000E+01 0.00000E+00
 -1      1170 7.06500E+01 5.00000E+01 0.00000E+00
 -1      1171 7.36500E+01 5.00000E+01 0.00000E+00
 -1      1172 7.66500E+01 5.00000E+01 0.00000E+00
 -1      1173 7.96500E+01 5.00000E+01 0.00000E+00
 -1      1174 8.26500E+01 5.00000E+01 0.00000E+00
 -1      1175 8.56500E+01 5.00000E+01 0.00000E+00
 -1      1176 8.86500E+01 5.00000E+01 0.00000E+00
 -1      1177 9.16500E+01 5.00000E+01 0.00000E+00
 -1      1178 9.46500E+01 5.00000E+01 0.00000E+00
 -1      1179 9.76500E+01 5.00000E+01 0.00000E+00
 -1      1180 1.00650E+02 5.00000E+01 0.00000E+00
 -1      1181 1.03650E+02 5.00000E+01 0.00000E+00
 -1      1182 1.06650E+02 5.00000E+01 0.00000E+00
 -1      1183 1.09650E+02 5.00000E+01 0.00000E+00
 -1      1184 1.12650E+02 5.00000E+01 0.00000E+00
 -1      1185 1.15650E+02 5.00000E+01 0.00000E+00
 -1      1186 1.18650E+02 5.00000E+01 0.00000E+00
 -1      1187 1.21650E+02 5.00000E+01 0.00000E+00
 -1      1188 1.24650E+02 5.00000E+01 0.00000E+00
 -1      1189 1.27650E+02 5.00000E+01 0.00000E+00
 -1      1190 1.30650E+02 5.00000E+01 0.00000E+00
 -1      1191 1.33650E+02 5.00000E+01 0.00000E+00
 -1      1192 1.36650E+02 5.00000E+01 0.00000E+00
 -1      1193 1.39650E+02 5.00000E+01 0.00000E+00
 -1      1194 1.42650E+02 5.00000E+01 0.00000E+00
 -1      1195 1.45650E+02 5.00000E+01 0.00000E+00
 -1      1196 1.48575E+02 5.00000E+01 0.00000E+00
 -1      1197 1.57500E+00 0.00000E+00 0.00000E+00
 -1      1198 4.65000E+00 0.00000E+00 0.00000E+00
 -1      1199 7.65000E+00 0.00000E+00 0.00000E+00
 -1      1200 1.06500E+01 0.00000E+00 0.00000E+00
 -1      1201 1.36500E+01 0.00000E+00 0.00000E+00
 -1      1202 1.66500E+01 0.00000E+00 0.00000E+00
 -1      1203 1.96500E+01 0.00000E+00 0.00000E+00
 -1      1204 2.26500E+01 0.00000E+00 0.00000E+00
 -1      1205 2.56500E+01 0.00000E+00 0.00000E+00
 -1      1206 2.86500E+01 0.00000E+00 0.00000E+00
 -1      1207 3.16500E+01 0.00000E+00 0.00000E+00
 -1      1208 3.46500E+01 0.00000E+00 0.00000E+00
 -1      1209 3.76500E+01 0.00000E+00 0.00000E+00
 -1      1210 4.06500E+01 0.00000E+00 0.00000E+00
 -1      1211 4.36500E+01 0.00000E+00 0.00000E+00
 -1      1212 4.66500E+01 0.00000E+00 0.00000E+00
 -1      1213 4.96500E+01 0.00000E+00 0.00000E+00
 -1      1214 5.26500E+01 0.00000E+00 0.00000E+00
 -1      1215 5.56500E+01 0.00000E+00 0.00000E+00
 -1      1216 5.86500E+01 0.00000E+00 0.00000E+00
 -1      1217 6.16500E+01 0.00000E+00 0.00000E+00
 -1      1218 6.46500E+01 0.00000E+00 0.00000E+00
 -1      1219 6.76500E+01 0.00000E+00 0.00000E+00
 -1      1220 7.06500E+01 0.00000E+00 0.00000E+00
 -1      1221 7.36500E+01 0.00000E+00 0.00000E+00
 -1      1222 7.66500E+01 0.00000E+00 0.00000E+00
 -1      1223 7.96500E+01 0.00000E+00 0.00000E+00
 -1      1224 8.26500E+01 0.00000E+00 0.00000E+00
 -1      1225 8.56500E+01 0.00000E+00 0.00000E+00
 -1      1226 8.86500E+01 0.00000E+00 0.00000E+00
 -1      1227 9.16500E+01 0.00000E+00 0.00000E+00
 -1      1228 9.46500E+01 0.00000E+00 0.00000E+00
 -1      1229 9.76500E+01 0.00000E+00 0.00000E+00
 -1      1230 1.00650E+02 0.00000E+00 0.00000E+00
 -1      1231 1.03650E+02 0.00000E+00 0.00000E+00
 -1      1232 1.06650E+02 0.00000E+00 0.00000E+00
 -1      1233 1.09650E+02 0.00000E+00 0.00000E+00
 -1      1234 1.12650E+02 0.00000E+00 0.00000E+00
 -1      1235 1.15650E+02 0.00000E+00 0.00000E+00
 -1      1236 1.18650E+02 0.00000E+00 0.00000E+00
 -1      1237 1.21650E+02 0.00000E+00 0.00000E+00
 -1      1238 1.24650E+02 0.00000E+00 0.00000E+00
 -1      1239 1.27650E+02 0.00000E+00 0.00000E+00
 -1      1240 1.30650E+02 0.00000E+00 0.00000E+00
 -1      1241 1.33650E+02 0.00000E+00 0.00000E+00
 -1      1242 1.36650E+02 0.00000E+00 0.00000E+00
 -1      1243 1.39650E+02 0.00000E+00 0.00000E+00
 -1      1244 1.42650E+02 0.00000E+00 0.00000E+00
 -1      1245 1.45650E+02 0.00000E+00 0.00000E+00
 -1      1246 1.48575E+02 0.00000E+00 0.00000E+00
 -1      1247 1.50000E+02 1.47500E+00 0.00000E+00
 -1      1248 1.50000E+02 4.42500E+00 0.00000E+00
 -1      1249 1.50000E+02 7.37500E+00 0.00000E+00
 -1      1250 1.50000E+02 1.03250E+01 0.00000E+00
 -1      1251 1.50000E+02 1.32750E+01 0.00000E+00
 -1      1252 1.50000E+02 1.62000E+01 0.00000E+00
 -1      1253 1.50000E+02 1.91250E+01 0.00000E+00
 -1      1254 1.50000E+02 2.20750E+01 0.00000E+00
 -1      1255 1.50000E+02 2.50250E+01 0.00000E+00
 -1      1256 1.50000E+02 2.79750E+01 0.00000E+00
 -1      1257 1.50000E+02 3.09250E+01 0.00000E+00
 -1      1258 1.50000E+02 3.38500E+01 0.00000E+00
 -1      1259 1.50000E+02 3.67750E+01 0.00000E+00
 -1      1260 1.50000E+02 3.97250E+01 0.00000E+00
 -1      1261 1.50000E+02 4.26750E+01 0.00000E+00
 -1      1262 1.50000E+02 4.56250E+01 0.00000E+00
 -1      1263 1.50000E+02 4.85500E+01 0.00000E+00
 -1      1264 5.95671E+01 2.17190E+01 0.00000E+00
 -1      1265 5.92424E+01 2.02668E+01 0.00000E+00
 -1      1266 5.86167E+01 1.89138E+01 0.00000E+00
 -1      1267 5.77032E+01 1.77074E+01 0.00000E+00
 -1      1268 5.65206E+01 1.67044E+01 0.00000E+00
 -1      1269 5.51186E+01 1.59758E+01 0.00000E+00
 -1      1270 5.36596E+01 1.55905E+01 0.00000E+00
 -1      1271 5.21756E+01 1.55253E+01 0.00000E+00
 -1      1272 5.06670E+01 1.57874E+01 0.00000E+00
 -1      1273 4.92056E+01 1.63965E+01 0.00000E+00
 -1      1274 4.79697E+01 1.72726E+01 0.00000E+00
 -1      1275 4.69192E+01 1.84385E+01 0.00000E+00
 -1      1276 4.61620E+01 1.97922E+01 0.00000E+00
 -1      1277 4.57334E+01 2.12143E+01 0.00000E+00
 -1      1278 4.56151E+01 2.27161E+01 0.00000E+00
 -1      1279 4.58101E+01 2.41646E+01 0.00000E+00
 -1      1280 4.63029E+01 2.55437E+01 0.00000E+00
 -1      1281 4.71487E+01 2.68879E+01 0.00000E+00
 -1      1282 4.82672E+01 2.80000E+01 0.00000E+00
 -1      1283 4.95777E+01 2.88198E+01 0.00000E+00
 -1      1284 5.10097E+01 2.93258E+01 0.00000E+00
 -1      1285 5.24749E+01 2.95103E+01 0.00000E+00
 -1      1286 5.39514E+01 2.93824E+01 0.00000E+00
 -1      1287 5.53208E+01 2.89664E+01 0.00000E+00
 -1      1288 5.66389E+01 2.82375E+01 0.00000E+00
 -1      1289 5.77787E+01 2.72347E+01 0.00000E+00
 -1      1290 5.86568E+01 2.60418E+01 0.00000E+00
 -1      1291 5.92740E+01 2.46610E+01 0.00000E+00
 -1      1292 5.95761E+01 2.32211E+01 0.00000E+00
 -1      1293 1.57500E+00 4.85250E+01 0.00000E+00
 -1      1294 1.29900E+00 4.48375E+01 0.00000E+00
 -1      1295 1.29900E+00 4.63125E+01 0.00000E+00
 -1      1296 1.29900E+00 4.18875E+01 0.00000E+00
 -1      1297 1.29900E+00 4.33625E+01 0.00000E+00
 -1      1298 2.59800E+00 4.41000E+01 0.00000E+00
 -1      1299 1.29900E+00 3.89375E+01 0.00000E+00
 -1      1300 1.29900E+00 4.04125E+01 0.00000E+00
 -1      1301 2.59800E+00 4.11500E+01 0.00000E+00
 -1      1302 1.29900E+00 3.59875E+01 0.00000E+00
 -1      1303 1.29900E+00 3.74625E+01 0.00000E+00
 -1      1304 2.59800E+00 3.82000E+01 0.00000E+00
 -1      1305 1.29900E+00 3.30875E+01 0.00000E+00
 -1      1306 1.29900E+00 3.45375E+01 0.00000E+00
 -1      1307 2.59800E+00 3.52750E+01 0.00000E+00
 -1      1308 1.29900E+00 3.01375E+01 0.00000E+00
 -1      1309 1.29900E+00 3.16125E+01 0.00000E+00
 -1      1310 2.59800E+00 3.23500E+01 0.00000E+00
 -1      1311 1.29900E+00 2.71875E+01 0.00000E+00
 -1      1312 1.29900E+00 2.86625E+01 0.00000E+00
 -1      1313 2.59800E+00 2.94000E+01 0.00000E+00
 -1      1314 1.29900E+00 2.42375E+01 0.00000E+00
 -1      1315 1.29900E+00 2.57125E+01 0.00000E+00
 -1      1316 2.59800E+00 2.64500E+01 0.00000E+00
 -1      1317 1.29900E+00 2.12875E+01 0.00000E+00
 -1      1318 1.29900E+00 2.27625E+01 0.00000E+00
 -1      1319 2.59800E+00 2.35000E+01 0.00000E+00
 -1      1320 1.29900E+00 1.83375E+01 0.00000E+00
 -1      1321 1.29900E+00 1.98125E+01 0.00000E+00
 -1      1322 2.59800E+00 2.05500E+01 0.00000E+00
 -1      1323 1.29900E+00 1.54375E+01 0.00000E+00
 -1      1324 1.29900E+00 1.68875E+01 0.00000E+00
 -1      1325 2.59800E+00 1.76250E+01 0.00000E+00
 -1      1326 1.29900E+00 1.24875E+01 0.00000E+00
 -1      1327 1.29900E+00 1.39625E+01 0.00000E+00
 -1      1328 2.59800E+00 1.47000E+01 0.00000E+00
 -1      1329 1.29900E+00 9.53750E+00 0.00000E+00
 -1      1330 1.29900E+00 1.10125E+01 0.00000E+00
 -1      1331 2.59800E+00 1.17500E+01 0.00000E+00
 -1      1332 1.29900E+00 6.58750E+00 0.00000E+00
 -1      1333 1.29900E+00 8.06250E+00 0.00000E+00
 -1      1334 2.59800E+00 8.80000E+00 0.00000E+00
 -1      1335 1.29900E+00 3.63750E+00 0.00000E+00
 -1      1336 1.29900E+00 5.11250E+00 0.00000E+00
 -1      1337 2.59800E+00 5.85000E+00 0.00000E+00
 -1      1338 1.43700E+00 1.09375E+00 0.00000E+00
 -1      1339 1.43700E+00 2.54375E+00 0.00000E+00
 -1      1340 2.73600E+00 3.28125E+00 0.00000E+00
 -1      1341 3.01200E+00 1.09375E+00 0.00000E+00
 -1      1342 3.90000E+00 4.87010E+01 0.00000E+00
 -1      1343 5.40000E+00 4.87010E+01 0.00000E+00
 -1      1344 6.90000E+00 4.87010E+01 0.00000E+00
 -1      1345 8.40000E+00 4.87010E+01 0.00000E+00
 -1      1346 6.15000E+00 4.74020E+01 0.00000E+00
 -1      1347 9.90000E+00 4.87010E+01 0.00000E+00
 -1      1348 1.14000E+01 4.87010E+01 0.00000E+00
 -1      1349 9.15000E+00 4.74020E+01 0.00000E+00
 -1      1350 1.29000E+01 4.87010E+01 0.00000E+00
 -1      1351 1.44000E+01 4.87010E+01 0.00000E+00
 -1      1352 1.21500E+01 4.74020E+01 0.00000E+00
 -1      1353 1.59000E+01 4.87010E+01 0.00000E+00
 -1      1354 1.74000E+01 4.87010E+01 0.00000E+00
 -1      1355 1.51500E+01 4.74020E+01 0.00000E+00
 -1      1356 1.89000E+01 4.87010E+01 0.00000E+00
 -1      1357 2.04000E+01 4.87010E+01 0.00000E+00
 -1      1358 1.81500E+01 4.74020E+01 0.00000E+00
 -1      1359 2.19000E+01 4.87010E+01 0.00000E+00
 -1      1360 2.34000E+01 4.87010E+01 0.00000E+00
 -1      1361 2.11500E+01 4.74020E+01 0.00000E+00
 -1      1362 2.49000E+01 4.87010E+01 0.00000E+00
 -1      1363 2.64000E+01 4.87010E+01 0.00000E+00
 -1      1364 2.41500E+01 4.74020E+01 0.00000E+00
 -1      1365 2.79000E+01 4.87010E+01 0.00000E+00
 -1      1366 2.94000E+01 4.87010E+01 0.00000E+00
 -1      1367 2.71500E+01 4.74020E+01 0.00000E+00
 -1      1368 3.09000E+01 4.87010E+01 0.00000E+00
 -1      1369 3.24000E+01 4.87010E+01 0.00000E+00
 -1      1370 3.01500E+01 4.74020E+01 0.00000E+00
 -1      1371 3.39000E+01 4.87010E+01 0.00000E+00
 -1      1372 3.54000E+01 4.87010E+01 0.00000E+00
 -1      1373 3.31500E+01 4.74020E+01 0.00000E+00
 -1      1374 3.69000E+01 4.87010E+01 0.00000E+00
 -1      1375 3.84000E+01 4.87010E+01 0.00000E+00
 -1      1376 3.61500E+01 4.74020E+01 0.00000E+00
 -1      1377 3.99000E+01 4.87010E+01 0.00000E+00
 -1      1378 4.14000E+01 4.87010E+01 0.00000E+00
 -1      1379 3.91500E+01 4.74020E+01 0.00000E+00
 -1      1380 4.29000E+01 4.87010E+01 0.00000E+00
 -1      1381 4.44000E+01 4.87010E+01 0.00000E+00
 -1      1382 4.21500E+01 4.74020E+01 0.00000E+00
 -1      1383 4.59000E+01 4.87010E+01 0.00000E+00
 -1      1384 4.74000E+01 4.87010E+01 0.00000E+00
 -1      1385 4.51500E+01 4.74020E+01 0.00000E+00
 -1      1386 4.89000E+01 4.87010E+01 0.00000E+00
 -1      1387 5.04000E+01 4.87010E+01 0.00000E+00
 -1      1388 4.81500E+01 4.74020E+01 0.00000E+00
 -1      1389 5.19000E+01 4.87010E+01 0.00000E+00
 -1      1390 5.34000E+01 4.87010E+01 0.00000E+00
 -1      1391 5.11500E+01 4.74020E+01 0.00000E+00
 -1      1392 5.49000E+01 4.87010E+01 0.00000E+00
 -1      1393 5.64000E+01 4.87010E+01 0.00000E+00
 -1      1394 5.41500E+01 4.74020E+01 0.00000E+00
 -1      1395 5.79000E+01 4.87010E+01 0.00000E+00
 -1      1396 5.94000E+01 4.87010E+01 0.00000E+00
 -1      1397 5.71500E+01 4.74020E+01 0.00000E+00
 -1      1398 6.09000E+01 4.87010E+01 0.00000E+00
 -1      1399 6.24000E+01 4.87010E+01 0.00000E+00
 -1      1400 6.01500E+01 4.74020E+01 0.00000E+00
 -1      1401 6.39000E+01 4.87010E+01 0.00000E+00
 -1      1402 6.54000E+01 4.87010E+01 0.00000E+00
 -1      1403 6.31500E+01 4.74020E+01 0.00000E+00
 -1      1404 6.69000E+01 4.87010E+01 0.00000E+00
 -1      1405 6.84000E+01 4.87010E+01 0.00000E+00
 -1      1406 6.61500E+01 4.74020E+01 0.00000E+00
 -1      1407 6.99000E+01 4.87010E+01 0.00000E+00
 -1      1408 7.14000E+01 4.87010E+01 0.00000E+00
 -1      1409 6.91500E+01 4.74020E+01 0.00000E+00
 -1      1410 7.29000E+01 4.87010E+01 0.00000E+00
 -1      1411 7.44000E+01 4.87010E+01 0.00000E+00
 -1      1412 7.21500E+01 4.74020E+01 0.00000E+00
 -1      1413 7.59000E+01 4.87010E+01 0.00000E+00
 -1      1414 7.74000E+01 4.87010E+01 0.00000E+00
 -1      1415 7.51500E+01 4.74020E+01 0.00000E+00
 -1      1416 7.89000E+01 4.87010E+01 0.00000E+00
 -1      1417 8.04000E+01 4.87010E+01 0.00000E+00
 -1      1418 7.81500E+01 4.74020E+01 0.00000E+00
 -1      1419 8.19000E+01 4.87010E+01 0.00000E+00
 -1      1420 8.34000E+01 4.87010E+01 0.00000E+00
 -1      1421 8.11500E+01 4.74020E+01 0.00000E+00
 -1      1422 8.49000E+01 4.87010E+01 0.00000E+00
 -1      1423 8.64000E+01 4.87010E+01 0.00000E+00
 -1      1424 8.41500E+01 4.74020E+01 0.00000E+00
 -1      1425 8.79000E+01 4.87010E+01 0.00000E+00
 -1      1426 8.94000E+01 4.87010E+01 0.00000E+00
 -1      1427 8.71500E+01 4.74020E+01 0.00000E+00
 -1      1428 9.09000E+01 4.87010E+01 0.00000E+00
 -1      1429 9.24000E+01 4.87010E+01 0.00000E+00
 -1      1430 9.01500E+01 4.74020E+01 0.00000E+00
 -1      1431 9.39000E+01 4.87010E+01 0.00000E+00
 -1      1432 9.54000E+01 4.87010E+01 0.00000E+00
 -1      1433 9.31500E+01 4.74020E+01 0.00000E+00
 -1      1434 9.69000E+01 4.87010E+01 0.00000E+00
 -1      1435 9.84000E+01 4.87010E+01 0.00000E+00
 -1      1436 9.61500E+01 4.74020E+01 0.00000E+00
 -1      1437 9.99000E+01 4.87010E+01 0.00000E+00
 -1      1438 1.01400E+02 4.87010E+01 0.00000E+00
 -1      1439 9.91500E+01 4.74020E+01 0.00000E+00
 -1      1440 1.02900E+02 4.87010E+01 0.00000E+00
 -1      1441 1.04400E+02 4.87010E+01 0.00000E+00
 -1      1442 1.02150E+02 4.74020E+01 0.00000E+00
 -1      1443 1.05900E+02 4.87010E+01 0.00000E+00
 -1      1444 1.07400E+02 4.87010E+01 0.00000E+00
 -1      1445 1.05150E+02 4.74020E+01 0.00000E+00
 -1      1446 1.08900E+02 4.87010E+01 0.00000E+00
 -1      1447 1.10400E+02 4.87010E+01 0.00000E+00
 -1      1448 1.08150E+02 4.74020E+01 0.00000E+00
 -1      1449 1.11900E+02 4.87010E+01 0.00000E+00
 -1      1450 1.13400E+02 4.87010E+01 0.00000E+00
 -1      1451 1.11150E+02 4.74020E+01 0.00000E+00
 -1      1452 1.14900E+02 4.87010E+01 0.00000E+00
 -1      1453 1.16400E+02 4.87010E+01 0.00000E+00
 -1      1454 1.14150E+02 4.74020E+01 0.00000E+00
 -1      1455 1.17900E+02 4.87010E+01 0.00000E+00
 -1      1456 1.19400E+02 4.87010E+01 0.00000E+00
 -1      1457 1.17150E+02 4.74020E+01 0.00000E+00
 -1      1458 1.20900E+02 4.87010E+01 0.00000E+00
 -1      1459 1.22400E+02 4.87010E+01 0.00000E+00
 -1      1460 1.20150E+02 4.74020E+01 0.00000E+00
 -1      1461 1.23900E+02 4.87010E+01 0.00000E+00
 -1      1462 1.25400E+02 4.87010E+01 0.00000E+00
 -1      1463 1.23150E+02 4.74020E+01 0.00000E+00
 -1      1464 1.26900E+02 4.87010E+01 0.00000E+00
 -1      1465 1.28400E+02 4.87010E+01 0.00000E+00
 -1      1466 1.26150E+02 4.74020E+01 0.00000E+00
 -1      1467 1.29900E+02 4.87010E+01 0.00000E+00
 -1      1468 1.31400E+02 4.87010E+01 0.00000E+00
 -1      1469 1.29150E+02 4.74020E+01 0.00000E+00
 -1      1470 1.32900E+02 4.87010E+01 0.00000E+00
 -1      1471 1.34400E+02 4.87010E+01 0.00000E+00
 -1      1472 1.32150E+02 4.74020E+01 0.00000E+00
 -1      1473 1.35900E+02 4.87010E+01 0.00000E+00
 -1      1474 1.37400E+02 4.87010E+01 0.00000E+00
 -1      1475 1.35150E+02 4.74020E+01 0.00000E+00
 -1      1476 1.38900E+02 4.87010E+01 0.00000E+00
 -1      1477 1.40400E+02 4.87010E+01 0.00000E+00
 -1      1478 1.38150E+02 4.74020E+01 0.00000E+00
 -1      1479 1.41900E+02 4.87010E+01 0.00000E+00
 -1      1480 1.43400E+02 4.87010E+01 0.00000E+00
 -1      1481 1.41150E+02 4.74020E+01 0.00000E+00
 -1      1482 1.44900E+02 4.87010E+01 0.00000E+00
 -1      1483 1.46400E+02 4.87010E+01 0.00000E+00
 -1      1484 1.44150E+02 4.74020E+01 0.00000E+00
 -1      1485 1.48575E+02 4.85500E+01 0.00000E+00
 -1      1486 1.47825E+02 4.72510E+01 0.00000E+00
 -1      1487 6.01200E+00 1.09375E+00 0.00000E+00
 -1      1488 4.51200E+00 1.09375E+00 0.00000E+00
 -1      1489 4.37400E+00 2.18750E+00 0.00000E+00
 -1      1490 9.01200E+00 1.09375E+00 0.00000E+00
 -1      1491 7.51200E+00 1.09375E+00 0.00000E+00
 -1      1492 7.37400E+00 2.18750E+00 0.00000E+00
 -1      1493 1.20120E+01 1.09375E+00 0.00000E+00
 -1      1494 1.05120E+01 1.09375E+00 0.00000E+00
 -1      1495 1.03740E+01 2.18750E+00 0.00000E+00
 -1      1496 1.50120E+01 1.09375E+00 0.00000E+00
 -1      1497 1.35120E+01 1.09375E+00 0.00000E+00
 -1      1498 1.33740E+01 2.18750E+00 0.00000E+00
 -1      1499 1.80120E+01 1.09375E+00 0.00000E+00
 -1      1500 1.65120E+01 1.09375E+00 0.00000E+00
 -1      1501 1.63740E+01 2.18750E+00 0.00000E+00
 -1      1502 2.10120E+01 1.09375E+00 0.00000E+00
 -1      1503 1.95120E+01 1.09375E+00 0.00000E+00
 -1      1504 1.93740E+01 2.18750E+00 0.00000E+00
 -1      1505 2.40120E+01 1.09375E+00 0.00000E+00
 -1      1506 2.25120E+01 1.09375E+00 0.00000E+00
 -1      1507 2.23740E+01 2.18750E+00 0.00000E+00
 -1      1508 2.70120E+01 1.09375E+00 0.00000E+00
 -1      1509 2.55120E+01 1.09375E+00 0.00000E+00
 -1      1510 2.53740E+01 2.18750E+00 0.00000E+00
 -1      1511 3.00120E+01 1.09375E+00 0.00000E+00
 -1      1512 2.85120E+01 1.09375E+00 0.00000E+00
 -1      1513 2.83740E+01 2.18750E+00 0.00000E+00
 -1      1514 3.30120E+01 1.09375E+00 0.00000E+00
 -1      1515 3.15120E+01 1.09375E+00 0.00000E+00
 -1      1516 3.13740E+01 2.18750E+00 0.00000E+00
 -1      1517 3.60120E+01 1.09375E+00 0.00000E+00
 -1      1518 3.45120E+01 1.09375E+00 0.00000E+00
 -1      1519 3.43740E+01 2.18750E+00 0.00000E+00
 -1      1520 3.90120E+01 1.09375E+00 0.00000E+00
 -1      1521 3.75120E+01 1.09375E+00 0.00000E+00
 -1      1522 3.73740E+01 2.18750E+00 0.00000E+00
 -1      1523 4.20120E+01 1.09375E+00 0.00000E+00
 -1      1524 4.05120E+01 1.09375E+00 0.00000E+00
 -1      1525 4.03740E+01 2.18750E+00 0.00000E+00
 -1      1526 4.50120E+01 1.09375E+00 0.00000E+00
 -1      1527 4.35120E+01 1.09375E+00 0.00000E+00
 -1      1528 4.33740E+01 2.18750E+00 0.00000E+00
 -1      1529 4.80120E+01 1.09375E+00 0.00000E+00
 -1      1530 4.65120E+01 1.09375E+00 0.00000E+00
 -1      1531 4.63740E+01 2.18750E+00 0.00000E+00
 -1      1532 5.10120E+01 1.09375E+00 0.00000E+00
 -1      1533 4.95120E+01 1.09375E+00 0.00000E+00
 -1      1534 4.93740E+01 2.18750E+00 0.00000E+00
 -1      1535 5.40120E+01 1.09375E+00 0.00000E+00
 -1      1536 5.25120E+01 1.09375E+00 0.00000E+00
 -1      1537 5.23740E+01 2.18750E+00 0.00000E+00
 -1      1538 5.70120E+01 1.09375E+00 0.00000E+00
 -1      1539 5.55120E+01 1.09375E+00 0.00000E+00
 -1      1540 5.53740E+01 2.18750E+00 0.00000E+00
 -1      1541 6.00120E+01 1.09375E+00 0.00000E+00
 -1      1542 5.85120E+01 1.09375E+00 0.00000E+00
 -1      1543 5.83740E+01 2.18750E+00 0.00000E+00
 -1      1544 6.30120E+01 1.09375E+00 0.00000E+00
 -1      1545 6.15120E+01 1.09375E+00 0.00000E+00
 -1      1546 6.13740E+01 2.18750E+00 0.00000E+00
 -1      1547 6.60120E+01 1.09375E+00 0.00000E+00
 -1      1548 6.45120E+01 1.09375E+00 0.00000E+00
 -1      1549 6.43740E+01 2.18750E+00 0.00000E+00
 -1      1550 6.90120E+01 1.09375E+00 0.00000E+00
 -1      1551 6.75120E+01 1.09375E+00 0.00000E+00
 -1      1552 6.73740E+01 2.18750E+00 0.00000E+00
 -1      1553 7.20120E+01 1.09375E+00 0.00000E+00
 -1      1554 7.05120E+01 1.09375E+00 0.00000E+00
 -1      1555 7.03740E+01 2.18750E+00 0.00000E+00
 -1      1556 7.50120E+01 1.09375E+00 0.00000E+00
 -1      1557 7.35120E+01 1.09375E+00 0.00000E+00
 -1      1558 7.33740E+01 2.18750E+00 0.00000E+00
 -1      1559 7.80120E+01 1.09375E+00 0.00000E+00
 -1      1560 7.65120E+01 1.09375E+00 0.00000E+00
 -1      1561 7.63740E+01 2.18750E+00 0.00000E+00
 -1      1562 8.10120E+01 1.09375E+00 0.00000E+00
 -1      1563 7.95120E+01 1.09375E+00 0.00000E+00
 -1      1564 7.93740E+01 2.18750E+00 0.00000E+00
 -1      1565 8.40120E+01 1.09375E+00 0.00000E+00
 -1      1566 8.25120E+01 1.09375E+00 0.00000E+00
 -1      1567 8.23740E+01 2.18750E+00 0.00000E+00
 -1      1568 8.70120E+01 1.09375E+00 0.00000E+00
 -1      1569 8.55120E+01 1.09375E+00 0.00000E+00
 -1      1570 8.53740E+01 2.18750E+00 0.00000E+00
 -1      1571 9.00120E+01 1.09375E+00 0.00000E+00
 -1      1572 8.85120E+01 1.09375E+00 0.00000E+00
 -1      1573 8.83740E+01 2.18750E+00 0.00000E+00
 -1      1574 9.30120E+01 1.09375E+00 0.00000E+00
 -1      1575 9.15120E+01 1.09375E+00 0.00000E+00
 -1      1576 9.13740E+01 2.18750E+00 0.00000E+00
 -1      1577 9.60120E+01 1.09375E+00 0.00000E+00
 -1      1578 9.45120E+01 1.09375E+00 0.00000E+00
 -1      1579 9.43740E+01 2.18750E+00 0.00000E+00
 -1      1580 9.90120E+01 1.09375E+00 0.00000E+00
 -1      1581 9.75120E+01 1.09375E+00 0.00000E+00
 -1      1582 9.73740E+01 2.18750E+00 0.00000E+00
 -1      1583 1.02012E+02 1.09375E+00 0.00000E+00
 -1      1584 1.00512E+02 1.09375E+00 0.00000E+00
 -1      1585 1.00374E+02 2.18750E+00 0.00000E+00
 -1      1586 1.05012E+02 1.09375E+00 0.00000E+00
 -1      1587 1.03512E+02 1.09375E+00 0.00000E+00
 -1      1588 1.03374E+02 2.18750E+00 0.00000E+00
 -1      1589 1.08012E+02 1.09375E+00 0.00000E+00
 -1      1590 1.06512E+02 1.09375E+00 0.00000E+00
 -1      1591 1.06374E+02 2.18750E+00 0.00000E+00
 -1      1592 1.11012E+02 1.09375E+00 0.00000E+00
 -1      1593 1.09512E+02 1.09375E+00 0.00000E+00
 -1      1594 1.09374E+02 2.18750E+00 0.00000E+00
 -1      1595 1.14012E+02 1.09375E+00 0.00000E+00
 -1      1596 1.12512E+02 1.09375E+00 0.00000E+00
 -1      1597 1.12374E+02 2.18750E+00 0.00000E+00
 -1      1598 1.17012E+02 1.09375E+00 0.00000E+00
 -1      1599 1.15512E+02 1.09375E+00 0.00000E+00
 -1      1600 1.15374E+02 2.18750E+00 0.00000E+00
 -1      1601 1.20012E+02 1.09375E+00 0.00000E+00
 -1      1602 1.18512E+02 1.09375E+00 0.00000E+00
 -1      1603 1.18374E+02 2.18750E+00 0.00000E+00
 -1      1604 1.23012E+02 1.09375E+00 0.00000E+00
 -1      1605 1.21512E+02 1.09375E+00 0.00000E+00
 -1      1606 1.21374E+02 2.18750E+00 0.00000E+00
 -1      1607 1.26012E+02 1.09375E+00 0.00000E+00
 -1      1608 1.24512E+02 1.09375E+00 0.00000E+00
 -1      1609 1.24374E+02 2.18750E+00 0.00000E+00
 -1      1610 1.29012E+02 1.09375E+00 0.00000E+00
 -1      1611 1.27512E+02 1.09375E+00 0.00000E+00
 -1      1612 1.27374E+02 2.18750E+00 0.00000E+00
 -1      1613 1.32012E+02 1.09375E+00 0.00000E+00
 -1      1614 1.30512E+02 1.09375E+00 0.00000E+00
 -1      1615 1.30374E+02 2.18750E+00 0.00000E+00
 -1      1616 1.35012E+02 1.09375E+00 0.00000E+00
 -1      1617 1.33512E+02 1.09375E+00 0.00000E+00
 -1      1618 1.33374E+02 2.18750E+00 0.00000E+00
 -1      1619 1.38012E+02 1.09375E+00 0.00000E+00
 -1      1620 1.36512E+02 1.09375E+00 0.00000E+00
 -1      1621 1.36374E+02 2.18750E+00 0.00000E+00
 -1      1622 1.41012E+02 1.09375E+00 0.00000E+00
 -1      1623 1.39512E+02 1.09375E+00 0.00000E+00
 -1      1624 1.39374E+02 2.18750E+00 0.00000E+00
 -1      1625 1.44012E+02 1.09375E+00 0.00000E+00
 -1      1626 1.42512E+02 1.09375E+00 0.00000E+00
 -1      1627 1.42374E+02 2.18750E+00 0.00000E+00
 -1      1628 1.47012E+02 1.09375E+00 0.00000E+00
 -1      1629 1.45512E+02 1.09375E+00 0.00000E+00
 -1      1630 1.45374E+02 2.18750E+00 0.00000E+00
 -1      1631 1.48575E+02 1.47500E+00 0.00000E+00
 -1      1632 1.48701E+02 5.16250E+00 0.00000E+00
 -1      1633 1.48701E+02 3.68750E+00 0.00000E+00
 -1      1634 1.48701E+02 8.11250E+00 0.00000E+00
 -1      1635 1.48701E+02 6.63750E+00 0.00000E+00
 -1      1636 1.47402E+02 5.90000E+00 0.00000E+00
 -1      1637 1.48701E+02 1.10625E+01 0.00000E+00
 -1      1638 1.48701E+02 9.58750E+00 0.00000E+00
 -1      1639 1.47402E+02 8.85000E+00 0.00000E+00
 -1      1640 1.48701E+02 1.40125E+01 0.00000E+00
 -1      1641 1.48701E+02 1.25375E+01 0.00000E+00
 -1      1642 1.47402E+02 1.18000E+01 0.00000E+00
 -1      1643 1.48701E+02 1.69125E+01 0.00000E+00
 -1      1644 1.48701E+02 1.54625E+01 0.00000E+00
 -1      1645 1.47402E+02 1.47250E+01 0.00000E+00
 -1      1646 1.48701E+02 1.98625E+01 0.00000E+00
 -1      1647 1.48701E+02 1.83875E+01 0.00000E+00
 -1      1648 1.47402E+02 1.76500E+01 0.00000E+00
 -1      1649 1.48701E+02 2.28125E+01 0.00000E+00
 -1      1650 1.48701E+02 2.13375E+01 0.00000E+00
 -1      1651 1.47402E+02 2.06000E+01 0.00000E+00
 -1      1652 1.48701E+02 2.57625E+01 0.00000E+00
 -1      1653 1.48701E+02 2.42875E+01 0.00000E+00
 -1      1654 1.47402E+02 2.35500E+01 0.00000E+00
 -1      1655 1.48701E+02 2.87125E+01 0.00000E+00
 -1      1656 1.48701E+02 2.72375E+01 0.00000E+00
 -1      1657 1.47402E+02 2.65000E+01 0.00000E+00
 -1      1658 1.48701E+02 3.16625E+01 0.00000E+00
 -1      1659 1.48701E+02 3.01875E+01 0.00000E+00
 -1      1660 1.47402E+02 2.94500E+01 0.00000E+00
 -1      1661 1.48701E+02 3.45625E+01 0.00000E+00
 -1      1662 1.48701E+02 3.31125E+01 0.00000E+00
 -1      1663 1.47402E+02 3.23750E+01 0.00000E+00
 -1      1664 1.48701E+02 3.75125E+01 0.00000E+00
 -1      1665 1.48701E+02 3.60375E+01 0.00000E+00
 -1      1666 1.47402E+02 3.53000E+01 0.00000E+00
 -1      1667 1.48701E+02 4.04625E+01 0.00000E+00
 -1      1668 1.48701E+02 3.89875E+01 0.00000E+00
 -1      1669 1.47402E+02 3.82500E+01 0.00000E+00
 -1      1670 1.48701E+02 4.34125E+01 0.00000E+00
 -1      1671 1.48701E+02 4.19375E+01 0.00000E+00
 -1      1672 1.47402E+02 4.12000E+01 0.00000E+00
 -1      1673 1.48263E+02 4.60692E+01 0.00000E+00
 -1      1674 1.48263E+02 4.45942E+01 0.00000E+00
 -1      1675 1.46964E+02 4.38568E+01 0.00000E+00
 -1      1676 1.46088E+02 4.62202E+01 0.00000E+00
 -1      1677 6.02047E+01 2.12474E+01 0.00000E+00
 -1      1678 6.02944E+01 2.20350E+01 0.00000E+00
 -1      1679 5.97120E+01 1.97408E+01 0.00000E+00
 -1      1680 5.99350E+01 2.03993E+01 0.00000E+00
 -1      1681 5.90013E+01 1.82198E+01 0.00000E+00
 -1      1682 5.94101E+01 1.89020E+01 0.00000E+00
 -1      1683 5.78709E+01 1.70557E+01 0.00000E+00
 -1      1684 5.83636E+01 1.75778E+01 0.00000E+00
 -1      1685 5.65327E+01 1.59408E+01 0.00000E+00
 -1      1686 5.72235E+01 1.64058E+01 0.00000E+00
 -1      1687 5.49725E+01 1.53134E+01 0.00000E+00
 -1      1688 5.56702E+01 1.55809E+01 0.00000E+00
 -1      1689 5.33737E+01 1.49338E+01 0.00000E+00
 -1      1690 5.41269E+01 1.50478E+01 0.00000E+00
 -1      1691 5.17790E+01 1.49803E+01 0.00000E+00
 -1      1692 5.25012E+01 1.49351E+01 0.00000E+00
 -1      1693 5.00771E+01 1.52011E+01 0.00000E+00
 -1      1694 5.08528E+01 1.49768E+01 0.00000E+00
 -1      1695 4.85112E+01 1.59469E+01 0.00000E+00
 -1      1696 4.91889E+01 1.55694E+01 0.00000E+00
 -1      1697 4.73170E+01 1.70933E+01 0.00000E+00
 -1      1698 4.78702E+01 1.66031E+01 0.00000E+00
 -1      1699 4.61226E+01 1.83790E+01 0.00000E+00
 -1      1700 4.66057E+01 1.77039E+01 0.00000E+00
 -1      1701 4.54977E+01 1.99033E+01 0.00000E+00
 -1      1702 4.57777E+01 1.92391E+01 0.00000E+00
 -1      1703 4.50668E+01 2.14776E+01 0.00000E+00
 -1      1704 4.52085E+01 2.07264E+01 0.00000E+00
 -1      1705 4.50594E+01 2.31035E+01 0.00000E+00
 -1      1706 4.50378E+01 2.23618E+01 0.00000E+00
 -1      1707 4.53013E+01 2.46585E+01 0.00000E+00
 -1      1708 4.51314E+01 2.39593E+01 0.00000E+00
 -1      1709 4.59159E+01 2.61429E+01 0.00000E+00
 -1      1710 4.55932E+01 2.54715E+01 0.00000E+00
 -1      1711 4.68155E+01 2.76950E+01 0.00000E+00
 -1      1712 4.62883E+01 2.70369E+01 0.00000E+00
 -1      1713 4.82027E+01 2.86728E+01 0.00000E+00
 -1      1714 4.76272E+01 2.82172E+01 0.00000E+00
 -1      1715 4.96103E+01 2.96882E+01 0.00000E+00
 -1      1716 4.88788E+01 2.93363E+01 0.00000E+00
 -1      1717 5.12233E+01 2.99620E+01 0.00000E+00
 -1      1718 5.05350E+01 2.98001E+01 0.00000E+00
 -1      1719 5.28470E+01 3.01653E+01 0.00000E+00
 -1      1720 5.20774E+01 3.01502E+01 0.00000E+00
 -1      1721 5.44100E+01 2.98736E+01 0.00000E+00
 -1      1722 5.37109E+01 3.00098E+01 0.00000E+00
 -1      1723 5.58724E+01 2.93522E+01 0.00000E+00
 -1      1724 5.52096E+01 2.96303E+01 0.00000E+00
 -1      1725 5.73805E+01 2.86076E+01 0.00000E+00
 -1      1726 5.67365E+01 2.90605E+01 0.00000E+00
 -1      1727 5.84443E+01 2.73483E+01 0.00000E+00
 -1      1728 5.79514E+01 2.78876E+01 0.00000E+00
 -1      1729 5.93347E+01 2.60031E+01 0.00000E+00
 -1      1730 5.89562E+01 2.66513E+01 0.00000E+00
 -1      1731 6.00080E+01 2.44976E+01 0.00000E+00
 -1      1732 5.97741E+01 2.52226E+01 0.00000E+00
 -1      1733 6.01793E+01 2.29260E+01 0.00000E+00
 -1      1734 6.01074E+01 2.36318E+01 0.00000E+00
 -1      1735 5.79108E+01 1.62508E+01 0.00000E+00
 -1      1736 5.91958E+01 1.75427E+01 0.00000E+00
 -1      1737 1.48437E+02 2.56875E+00 0.00000E+00
 -1      1738 1.47138E+02 3.30625E+00 0.00000E+00
 -1      1739 6.07070E+01 2.07103E+01 0.00000E+00
 -1      1740 6.01354E+01 1.90235E+01 0.00000E+00
 -1      1741 6.08616E+01 2.24493E+01 0.00000E+00
 -1      1742 5.64009E+01 1.52410E+01 0.00000E+00
 -1      1743 5.46928E+01 1.46156E+01 0.00000E+00
 -1      1744 5.29748E+01 1.43513E+01 0.00000E+00
 -1      1745 5.11761E+01 1.43492E+01 0.00000E+00
 -1      1746 4.93617E+01 1.47139E+01 0.00000E+00
 -1      1747 4.78325E+01 1.57384E+01 0.00000E+00
 -1      1748 4.64803E+01 1.70050E+01 0.00000E+00
 -1      1749 4.54240E+01 1.84756E+01 0.00000E+00
 -1      1750 4.47900E+01 2.01588E+01 0.00000E+00
 -1      1751 4.44717E+01 2.18661E+01 0.00000E+00
 -1      1752 4.45146E+01 2.36062E+01 0.00000E+00
 -1      1753 4.48785E+01 2.52750E+01 0.00000E+00
 -1      1754 4.55429E+01 2.69819E+01 0.00000E+00
 -1      1755 4.67270E+01 2.83981E+01 0.00000E+00
 -1      1756 4.82148E+01 2.95838E+01 0.00000E+00
 -1      1757 4.98157E+01 3.03592E+01 0.00000E+00
 -1      1758 5.15945E+01 3.06594E+01 0.00000E+00
 -1      1759 5.33126E+01 3.06921E+01 0.00000E+00
 -1      1760 5.49760E+01 3.02935E+01 0.00000E+00
 -1      1761 5.66396E+01 2.97586E+01 0.00000E+00
 -1      1762 5.80744E+01 2.87469E+01 0.00000E+00
 -1      1763 5.91571E+01 2.73299E+01 0.00000E+00
 -1      1764 6.01083E+01 2.58524E+01 0.00000E+00
 -1      1765 6.06471E+01 2.42061E+01 0.00000E+00
 -1      1766 2.87400E+00 4.77875E+01 0.00000E+00
 -1      1767 3.89700E+00 4.04125E+01 0.00000E+00
 -1      1768 3.89700E+00 4.18875E+01 0.00000E+00
 -1      1769 3.89700E+00 4.33625E+01 0.00000E+00
 -1      1770 3.89700E+00 4.48375E+01 0.00000E+00
 -1      1771 5.19600E+00 4.26250E+01 0.00000E+00
 -1      1772 3.89700E+00 3.45500E+01 0.00000E+00
 -1      1773 3.89700E+00 3.60000E+01 0.00000E+00
 -1      1774 3.89700E+00 3.16000E+01 0.00000E+00
 -1      1775 3.89700E+00 3.30750E+01 0.00000E+00
 -1      1776 5.19600E+00 3.38000E+01 0.00000E+00
 -1      1777 3.89700E+00 2.86500E+01 0.00000E+00
 -1      1778 3.89700E+00 3.01250E+01 0.00000E+00
 -1      1779 5.19600E+00 3.08500E+01 0.00000E+00
 -1      1780 3.89700E+00 2.57000E+01 0.00000E+00
 -1      1781 3.89700E+00 2.71750E+01 0.00000E+00
 -1      1782 5.19600E+00 2.79000E+01 0.00000E+00
 -1      1783 3.89700E+00 2.27500E+01 0.00000E+00
 -1      1784 3.89700E+00 2.42250E+01 0.00000E+00
 -1      1785 5.19600E+00 2.49500E+01 0.00000E+00
 -1      1786 3.89700E+00 1.98000E+01 0.00000E+00
 -1      1787 3.89700E+00 2.12750E+01 0.00000E+00
 -1      1788 5.19600E+00 2.20000E+01 0.00000E+00
 -1      1789 3.89700E+00 1.69000E+01 0.00000E+00
 -1      1790 3.89700E+00 1.83500E+01 0.00000E+00
 -1      1791 5.19600E+00 1.90750E+01 0.00000E+00
 -1      1792 3.89700E+00 1.39500E+01 0.00000E+00
 -1      1793 3.89700E+00 1.54250E+01 0.00000E+00
 -1      1794 5.19600E+00 1.61500E+01 0.00000E+00
 -1      1795 3.89700E+00 1.10000E+01 0.00000E+00
 -1      1796 3.89700E+00 1.24750E+01 0.00000E+00
 -1      1797 5.19600E+00 1.32000E+01 0.00000E+00
 -1      1798 3.89700E+00 8.05000E+00 0.00000E+00
 -1      1799 3.89700E+00 9.52500E+00 0.00000E+00
 -1      1800 5.19600E+00 1.02500E+01 0.00000E+00
 -1      1801 3.89700E+00 5.10000E+00 0.00000E+00
 -1      1802 3.89700E+00 6.57500E+00 0.00000E+00
 -1      1803 5.19600E+00 7.30000E+00 0.00000E+00
 -1      1804 4.20450E+00 3.09687E+00 0.00000E+00
 -1      1805 4.06650E+00 4.19063E+00 0.00000E+00
 -1      1806 5.36550E+00 4.91563E+00 0.00000E+00
 -1      1807 5.70450E+00 3.09687E+00 0.00000E+00
 -1      1808 3.62400E+00 4.64885E+01 0.00000E+00
 -1      1809 8.70450E+00 3.09687E+00 0.00000E+00
 -1      1810 7.20450E+00 3.09687E+00 0.00000E+00
 -1      1811 7.03500E+00 4.00625E+00 0.00000E+00
 -1      1812 4.92300E+00 4.57510E+01 0.00000E+00
 -1      1813 8.40000E+00 4.61030E+01 0.00000E+00
 -1      1814 9.90000E+00 4.61030E+01 0.00000E+00
 -1      1815 1.14000E+01 4.61030E+01 0.00000E+00
 -1      1816 1.29000E+01 4.61030E+01 0.00000E+00
 -1      1817 1.06500E+01 4.48040E+01 0.00000E+00
 -1      1818 1.44000E+01 4.61030E+01 0.00000E+00
 -1      1819 1.59000E+01 4.61030E+01 0.00000E+00
 -1      1820 1.36500E+01 4.48040E+01 0.00000E+00
 -1      1821 1.74000E+01 4.61030E+01 0.00000E+00
 -1      1822 1.89000E+01 4.61030E+01 0.00000E+00
 -1      1823 1.66500E+01 4.48040E+01 0.00000E+00
 -1      1824 2.04000E+01 4.61030E+01 0.00000E+00
 -1      1825 2.19000E+01 4.61030E+01 0.00000E+00
 -1      1826 1.96500E+01 4.48040E+01 0.00000E+00
 -1      1827 2.34000E+01 4.61030E+01 0.00000E+00
 -1      1828 2.49000E+01 4.61030E+01 0.00000E+00
 -1      1829 2.26500E+01 4.48040E+01 0.00000E+00
 -1      1830 2.64000E+01 4.61030E+01 0.00000E+00
 -1      1831 2.79000E+01 4.61030E+01 0.00000E+00
 -1      1832 2.56500E+01 4.48040E+01 0.00000E+00
 -1      1833 2.94000E+01 4.61030E+01 0.00000E+00
 -1      1834 3.09000E+01 4.61030E+01 0.00000E+00
 -1      1835 2.86500E+01 4.48040E+01 0.00000E+00
 -1      1836 3.24000E+01 4.61030E+01 0.00000E+00
 -1      1837 3.39000E+01 4.61030E+01 0.00000E+00
 -1      1838 3.16500E+01 4.48040E+01 0.00000E+00
 -1      1839 3.54000E+01 4.61030E+01 0.00000E+00
 -1      1840 3.69000E+01 4.61030E+01 0.00000E+00
 -1      1841 3.46500E+01 4.48040E+01 0.00000E+00
 -1      1842 3.84000E+01 4.61030E+01 0.00000E+00
 -1      1843 3.99000E+01 4.61030E+01 0.00000E+00
 -1      1844 3.76500E+01 4.48040E+01 0.00000E+00
 -1      1845 4.14000E+01 4.61030E+01 0.00000E+00
 -1      1846 4.29000E+01 4.61030E+01 0.00000E+00
 -1      1847 4.06500E+01 4.48040E+01 0.00000E+00
 -1      1848 4.44000E+01 4.61030E+01 0.00000E+00
 -1      1849 4.59000E+01 4.61030E+01 0.00000E+00
 -1      1850 4.36500E+01 4.48040E+01 0.00000E+00
 -1      1851 4.74000E+01 4.61030E+01 0.00000E+00
 -1      1852 4.89000E+01 4.61030E+01 0.00000E+00
 -1      1853 4.66500E+01 4.48040E+01 0.00000E+00
 -1      1854 5.04000E+01 4.61030E+01 0.00000E+00
 -1      1855 5.19000E+01 4.61030E+01 0.00000E+00
 -1      1856 4.96500E+01 4.48040E+01 0.00000E+00
 -1      1857 5.34000E+01 4.61030E+01 0.00000E+00
 -1      1858 5.49000E+01 4.61030E+01 0.00000E+00
 -1      1859 5.26500E+01 4.48040E+01 0.00000E+00
 -1      1860 5.64000E+01 4.61030E+01 0.00000E+00
 -1      1861 5.79000E+01 4.61030E+01 0.00000E+00
 -1      1862 5.56500E+01 4.48040E+01 0.00000E+00
 -1      1863 5.94000E+01 4.61030E+01 0.00000E+00
 -1      1864 6.09000E+01 4.61030E+01 0.00000E+00
 -1      1865 5.86500E+01 4.48040E+01 0.00000E+00
 -1      1866 6.24000E+01 4.61030E+01 0.00000E+00
 -1      1867 6.39000E+01 4.61030E+01 0.00000E+00
 -1      1868 6.16500E+01 4.48040E+01 0.00000E+00
 -1      1869 6.54000E+01 4.61030E+01 0.00000E+00
 -1      1870 6.69000E+01 4.61030E+01 0.00000E+00
 -1      1871 6.46500E+01 4.48040E+01 0.00000E+00
 -1      1872 6.84000E+01 4.61030E+01 0.00000E+00
 -1      1873 6.99000E+01 4.61030E+01 0.00000E+00
 -1      1874 6.76500E+01 4.48040E+01 0.00000E+00
 -1      1875 7.14000E+01 4.61030E+01 0.00000E+00
 -1      1876 7.29000E+01 4.61030E+01 0.00000E+00
 -1      1877 7.06500E+01 4.48040E+01 0.00000E+00
 -1      1878 7.44000E+01 4.61030E+01 0.00000E+00
 -1      1879 7.59000E+01 4.61030E+01 0.00000E+00
 -1      1880 7.36500E+01 4.48040E+01 0.00000E+00
 -1      1881 7.74000E+01 4.61030E+01 0.00000E+00
 -1      1882 7.89000E+01 4.61030E+01 0.00000E+00
 -1      1883 7.66500E+01 4.48040E+01 0.00000E+00
 -1      1884 8.04000E+01 4.61030E+01 0.00000E+00
 -1      1885 8.19000E+01 4.61030E+01 0.00000E+00
 -1      1886 7.96500E+01 4.48040E+01 0.00000E+00
 -1      1887 8.34000E+01 4.61030E+01 0.00000E+00
 -1      1888 8.49000E+01 4.61030E+01 0.00000E+00
 -1      1889 8.26500E+01 4.48040E+01 0.00000E+00
 -1      1890 8.64000E+01 4.61030E+01 0.00000E+00
 -1      1891 8.79000E+01 4.61030E+01 0.00000E+00
 -1      1892 8.56500E+01 4.48040E+01 0.00000E+00
 -1      1893 8.94000E+01 4.61030E+01 0.00000E+00
 -1      1894 9.09000E+01 4.61030E+01 0.00000E+00
 -1      1895 8.86500E+01 4.48040E+01 0.00000E+00
 -1      1896 9.24000E+01 4.61030E+01 0.00000E+00
 -1      1897 9.39000E+01 4.61030E+01 0.00000E+00
 -1      1898 9.16500E+01 4.48040E+01 0.00000E+00
 -1      1899 9.54000E+01 4.61030E+01 0.00000E+00
 -1      1900 9.69000E+01 4.61030E+01 0.00000E+00
 -1      1901 9.46500E+01 4.48040E+01 0.00000E+00
 -1      1902 9.84000E+01 4.61030E+01 0.00000E+00
 -1      1903 9.99000E+01 4.61030E+01 0.00000E+00
 -1      1904 9.76500E+01 4.48040E+01 0.00000E+00
 -1      1905 1.01400E+02 4.61030E+01 0.00000E+00
 -1      1906 1.02900E+02 4.61030E+01 0.00000E+00
 -1      1907 1.00650E+02 4.48040E+01 0.00000E+00
 -1      1908 1.04400E+02 4.61030E+01 0.00000E+00
 -1      1909 1.05900E+02 4.61030E+01 0.00000E+00
 -1      1910 1.03650E+02 4.48040E+01 0.00000E+00
 -1      1911 1.07400E+02 4.61030E+01 0.00000E+00
 -1      1912 1.08900E+02 4.61030E+01 0.00000E+00
 -1      1913 1.06650E+02 4.48040E+01 0.00000E+00
 -1      1914 1.10400E+02 4.61030E+01 0.00000E+00
 -1      1915 1.11900E+02 4.61030E+01 0.00000E+00
 -1      1916 1.09650E+02 4.48040E+01 0.00000E+00
 -1      1917 1.13400E+02 4.61030E+01 0.00000E+00
 -1      1918 1.14900E+02 4.61030E+01 0.00000E+00
 -1      1919 1.12650E+02 4.48040E+01 0.00000E+00
 -1      1920 1.16400E+02 4.61030E+01 0.00000E+00
 -1      1921 1.17900E+02 4.61030E+01 0.00000E+00
 -1      1922 1.15650E+02 4.48040E+01 0.00000E+00
 -1      1923 1.19400E+02 4.61030E+01 0.00000E+00
 -1      1924 1.20900E+02 4.61030E+01 0.00000E+00
 -1      1925 1.18650E+02 4.48040E+01 0.00000E+00
 -1      1926 1.22400E+02 4.61030E+01 0.00000E+00
 -1      1927 1.23900E+02 4.61030E+01 0.00000E+00
 -1      1928 1.21650E+02 4.48040E+01 0.00000E+00
 -1      1929 1.25400E+02 4.61030E+01 0.00000E+00
 -1      1930 1.26900E+02 4.61030E+01 0.00000E+00
 -1      1931 1.24650E+02 4.48040E+01 0.00000E+00
 -1      1932 1.28400E+02 4.61030E+01 0.00000E+00
 -1      1933 1.29900E+02 4.61030E+01 0.00000E+00
 -1      1934 1.27650E+02 4.48040E+01 0.00000E+00
 -1      1935 1.31400E+02 4.61030E+01 0.00000E+00
 -1      1936 1.32900E+02 4.61030E+01 0.00000E+00
 -1      1937 1.30650E+02 4.48040E+01 0.00000E+00
 -1      1938 1.34400E+02 4.61030E+01 0.00000E+00
 -1      1939 1.35900E+02 4.61030E+01 0.00000E+00
 -1      1940 1.33650E+02 4.48040E+01 0.00000E+00
 -1      1941 1.37400E+02 4.61030E+01 0.00000E+00
 -1      1942 1.38900E+02 4.61030E+01 0.00000E+00
 -1      1943 1.36650E+02 4.48040E+01 0.00000E+00
 -1      1944 1.40400E+02 4.61030E+01 0.00000E+00
 -1      1945 1.41900E+02 4.61030E+01 0.00000E+00
 -1      1946 1.39650E+02 4.48040E+01 0.00000E+00
 -1      1947 1.43244E+02 4.61616E+01 0.00000E+00
 -1      1948 1.44744E+02 4.61616E+01 0.00000E+00
 -1      1949 1.45182E+02 4.49799E+01 0.00000E+00
 -1      1950 1.42494E+02 4.48626E+01 0.00000E+00
 -1      1951 1.17045E+01 3.09687E+00 0.00000E+00
 -1      1952 1.02045E+01 3.09687E+00 0.00000E+00
 -1      1953 1.00350E+01 4.00625E+00 0.00000E+00
 -1      1954 1.47045E+01 3.09687E+00 0.00000E+00
 -1      1955 1.32045E+01 3.09687E+00 0.00000E+00
 -1      1956 1.30350E+01 4.00625E+00 0.00000E+00
 -1      1957 1.77045E+01 3.09687E+00 0.00000E+00
 -1      1958 1.62045E+01 3.09687E+00 0.00000E+00
 -1      1959 1.60350E+01 4.00625E+00 0.00000E+00
 -1      1960 2.07045E+01 3.09687E+00 0.00000E+00
 -1      1961 1.92045E+01 3.09687E+00 0.00000E+00
 -1      1962 1.90350E+01 4.00625E+00 0.00000E+00
 -1      1963 2.37045E+01 3.09687E+00 0.00000E+00
 -1      1964 2.22045E+01 3.09687E+00 0.00000E+00
 -1      1965 2.20350E+01 4.00625E+00 0.00000E+00
 -1      1966 2.67045E+01 3.09687E+00 0.00000E+00
 -1      1967 2.52045E+01 3.09687E+00 0.00000E+00
 -1      1968 2.50350E+01 4.00625E+00 0.00000E+00
 -1      1969 2.97045E+01 3.09687E+00 0.00000E+00
 -1      1970 2.82045E+01 3.09687E+00 0.00000E+00
 -1      1971 2.80350E+01 4.00625E+00 0.00000E+00
 -1      1972 3.27045E+01 3.09687E+00 0.00000E+00
 -1      1973 3.12045E+01 3.09687E+00 0.00000E+00
 -1      1974 3.10350E+01 4.00625E+00 0.00000E+00
 -1      1975 3.57045E+01 3.09687E+00 0.00000E+00
 -1      1976 3.42045E+01 3.09687E+00 0.00000E+00
 -1      1977 3.40350E+01 4.00625E+00 0.00000E+00
 -1      1978 3.87045E+01 3.09687E+00 0.00000E+00
 -1      1979 3.72045E+01 3.09687E+00 0.00000E+00
 -1      1980 3.70350E+01 4.00625E+00 0.00000E+00
 -1      1981 4.17045E+01 3.09687E+00 0.00000E+00
 -1      1982 4.02045E+01 3.09687E+00 0.00000E+00
 -1      1983 4.00350E+01 4.00625E+00 0.00000E+00
 -1      1984 4.47045E+01 3.09687E+00 0.00000E+00
 -1      1985 4.32045E+01 3.09687E+00 0.00000E+00
 -1      1986 4.30350E+01 4.00625E+00 0.00000E+00
 -1      1987 4.77045E+01 3.09687E+00 0.00000E+00
 -1      1988 4.62045E+01 3.09687E+00 0.00000E+00
 -1      1989 4.60350E+01 4.00625E+00 0.00000E+00
 -1      1990 5.07045E+01 3.09687E+00 0.00000E+00
 -1      1991 4.92045E+01 3.09687E+00 0.00000E+00
 -1      1992 4.90350E+01 4.00625E+00 0.00000E+00
 -1      1993 5.37045E+01 3.09687E+00 0.00000E+00
 -1      1994 5.22045E+01 3.09687E+00 0.00000E+00
 -1      1995 5.20350E+01 4.00625E+00 0.00000E+00
 -1      1996 5.67045E+01 3.09687E+00 0.00000E+00
 -1      1997 5.52045E+01 3.09687E+00 0.00000E+00
 -1      1998 5.50350E+01 4.00625E+00 0.00000E+00
 -1      1999 5.97045E+01 3.09687E+00 0.00000E+00
 -1      2000 5.82045E+01 3.09687E+00 0.00000E+00
 -1      2001 5.80350E+01 4.00625E+00 0.00000E+00
 -1      2002 6.27045E+01 3.09687E+00 0.00000E+00
 -1      2003 6.12045E+01 3.09687E+00 0.00000E+00
 -1      2004 6.10350E+01 4.00625E+00 0.00000E+00
 -1      2005 6.57045E+01 3.09687E+00 0.00000E+00
 -1      2006 6.42045E+01 3.09687E+00 0.00000E+00
 -1      2007 6.40350E+01 4.00625E+00 0.00000E+00
 -1      2008 6.87045E+01 3.09687E+00 0.00000E+00
 -1      2009 6.72045E+01 3.09687E+00 0.00000E+00
 -1      2010 6.70350E+01 4.00625E+00 0.00000E+00
 -1      2011 7.17045E+01 3.09687E+00 0.00000E+00
 -1      2012 7.02045E+01 3.09687E+00 0.00000E+00
 -1      2013 7.00350E+01 4.00625E+00 0.00000E+00
 -1      2014 7.47045E+01 3.09687E+00 0.00000E+00
 -1      2015 7.32045E+01 3.09687E+00 0.00000E+00
 -1      2016 7.30350E+01 4.00625E+00 0.00000E+00
 -1      2017 7.77045E+01 3.09687E+00 0.00000E+00
 -1      2018 7.62045E+01 3.09687E+00 0.00000E+00
 -1      2019 7.60350E+01 4.00625E+00 0.00000E+00
 -1      2020 8.07045E+01 3.09687E+00 0.00000E+00
 -1      2021 7.92045E+01 3.09687E+00 0.00000E+00
 -1      2022 7.90350E+01 4.00625E+00 0.00000E+00
 -1      2023 8.37045E+01 3.09687E+00 0.00000E+00
 -1      2024 8.22045E+01 3.09687E+00 0.00000E+00
 -1      2025 8.20350E+01 4.00625E+00 0.00000E+00
 -1      2026 8.67045E+01 3.09687E+00 0.00000E+00
 -1      2027 8.52045E+01 3.09687E+00 0.00000E+00
 -1      2028 8.50350E+01 4.00625E+00 0.00000E+00
 -1      2029 8.97045E+01 3.09687E+00 0.00000E+00
 -1      2030 8.82045E+01 3.09687E+00 0.00000E+00
 -1      2031 8.80350E+01 4.00625E+00 0.00000E+00
 -1      2032 9.27045E+01 3.09687E+00 0.00000E+00
 -1      2033 9.12045E+01 3.09687E+00 0.00000E+00
 -1      2034 9.10350E+01 4.00625E+00 0.00000E+00
 -1      2035 9.57045E+01 3.09687E+00 0.00000E+00
 -1      2036 9.42045E+01 3.09687E+00 0.00000E+00
 -1      2037 9.40350E+01 4.00625E+00 0.00000E+00
 -1      2038 9.87045E+01 3.09687E+00 0.00000E+00
 -1      2039 9.72045E+01 3.09687E+00 0.00000E+00
 -1      2040 9.70350E+01 4.00625E+00 0.00000E+00
 -1      2041 1.01704E+02 3.09687E+00 0.00000E+00
 -1      2042 1.00204E+02 3.09687E+00 0.00000E+00
 -1      2043 1.00035E+02 4.00625E+00 0.00000E+00
 -1      2044 1.04704E+02 3.09687E+00 0.00000E+00
 -1      2045 1.03204E+02 3.09687E+00 0.00000E+00
 -1      2046 1.03035E+02 4.00625E+00 0.00000E+00
 -1      2047 1.07704E+02 3.09687E+00 0.00000E+00
 -1      2048 1.06204E+02 3.09687E+00 0.00000E+00
 -1      2049 1.06035E+02 4.00625E+00 0.00000E+00
 -1      2050 1.10704E+02 3.09687E+00 0.00000E+00
 -1      2051 1.09204E+02 3.09687E+00 0.00000E+00
 -1      2052 1.09035E+02 4.00625E+00 0.00000E+00
 -1      2053 1.13704E+02 3.09687E+00 0.00000E+00
 -1      2054 1.12204E+02 3.09687E+00 0.00000E+00
 -1      2055 1.12035E+02 4.00625E+00 0.00000E+00
 -1      2056 1.16704E+02 3.09687E+00 0.00000E+00
 -1      2057 1.15204E+02 3.09687E+00 0.00000E+00
 -1      2058 1.15035E+02 4.00625E+00 0.00000E+00
 -1      2059 1.19704E+02 3.09687E+00 0.00000E+00
 -1      2060 1.18204E+02 3.09687E+00 0.00000E+00
 -1      2061 1.18035E+02 4.00625E+00 0.00000E+00
 -1      2062 1.22704E+02 3.09687E+00 0.00000E+00
 -1      2063 1.21204E+02 3.09687E+00 0.00000E+00
 -1      2064 1.21035E+02 4.00625E+00 0.00000E+00
 -1      2065 1.25704E+02 3.09687E+00 0.00000E+00
 -1      2066 1.24204E+02 3.09687E+00 0.00000E+00
 -1      2067 1.24035E+02 4.00625E+00 0.00000E+00
 -1      2068 1.28704E+02 3.09687E+00 0.00000E+00
 -1      2069 1.27204E+02 3.09687E+00 0.00000E+00
 -1      2070 1.27035E+02 4.00625E+00 0.00000E+00
 -1      2071 1.31704E+02 3.09687E+00 0.00000E+00
 -1      2072 1.30204E+02 3.09687E+00 0.00000E+00
 -1      2073 1.30035E+02 4.00625E+00 0.00000E+00
 -1      2074 1.34704E+02 3.09687E+00 0.00000E+00
 -1      2075 1.33204E+02 3.09687E+00 0.00000E+00
 -1      2076 1.33035E+02 4.00625E+00 0.00000E+00
 -1      2077 1.37704E+02 3.09687E+00 0.00000E+00
 -1      2078 1.36204E+02 3.09687E+00 0.00000E+00
 -1      2079 1.36035E+02 4.00625E+00 0.00000E+00
 -1      2080 1.40704E+02 3.09687E+00 0.00000E+00
 -1      2081 1.39204E+02 3.09687E+00 0.00000E+00
 -1      2082 1.39035E+02 4.00625E+00 0.00000E+00
 -1      2083 1.43704E+02 3.09687E+00 0.00000E+00
 -1      2084 1.42204E+02 3.09687E+00 0.00000E+00
 -1      2085 1.42035E+02 4.00625E+00 0.00000E+00
 -1      2086 1.46171E+02 3.20156E+00 0.00000E+00
 -1      2087 1.44671E+02 3.20156E+00 0.00000E+00
 -1      2088 1.44502E+02 4.11094E+00 0.00000E+00
 -1      2089 1.46435E+02 4.32031E+00 0.00000E+00
 -1      2090 1.46103E+02 1.25375E+01 0.00000E+00
 -1      2091 1.46103E+02 1.10625E+01 0.00000E+00
 -1      2092 1.46103E+02 9.58750E+00 0.00000E+00
 -1      2093 1.46103E+02 8.11250E+00 0.00000E+00
 -1      2094 1.44804E+02 1.03250E+01 0.00000E+00
 -1      2095 1.46269E+02 6.95391E+00 0.00000E+00
 -1      2096 1.46269E+02 5.47891E+00 0.00000E+00
 -1      2097 1.45302E+02 5.37422E+00 0.00000E+00
 -1      2098 1.44970E+02 7.69141E+00 0.00000E+00
 -1      2099 1.46103E+02 1.54375E+01 0.00000E+00
 -1      2100 1.46103E+02 1.39875E+01 0.00000E+00
 -1      2101 1.44804E+02 1.32500E+01 0.00000E+00
 -1      2102 1.46103E+02 1.83875E+01 0.00000E+00
 -1      2103 1.46103E+02 1.69125E+01 0.00000E+00
 -1      2104 1.44804E+02 1.61750E+01 0.00000E+00
 -1      2105 1.46103E+02 2.13375E+01 0.00000E+00
 -1      2106 1.46103E+02 1.98625E+01 0.00000E+00
 -1      2107 1.44804E+02 1.91250E+01 0.00000E+00
 -1      2108 1.46103E+02 2.42875E+01 0.00000E+00
 -1      2109 1.46103E+02 2.28125E+01 0.00000E+00
 -1      2110 1.44804E+02 2.20750E+01 0.00000E+00
 -1      2111 1.46103E+02 2.72375E+01 0.00000E+00
 -1      2112 1.46103E+02 2.57625E+01 0.00000E+00
 -1      2113 1.44804E+02 2.50250E+01 0.00000E+00
 -1      2114 1.46103E+02 3.01875E+01 0.00000E+00
 -1      2115 1.46103E+02 2.87125E+01 0.00000E+00
 -1      2116 1.44804E+02 2.79750E+01 0.00000E+00
 -1      2117 1.46103E+02 3.30875E+01 0.00000E+00
 -1      2118 1.46103E+02 3.16375E+01 0.00000E+00
 -1      2119 1.44804E+02 3.09000E+01 0.00000E+00
 -1      2120 1.46103E+02 3.60375E+01 0.00000E+00
 -1      2121 1.46103E+02 3.45625E+01 0.00000E+00
 -1      2122 1.44804E+02 3.38250E+01 0.00000E+00
 -1      2123 1.46103E+02 3.89875E+01 0.00000E+00
 -1      2124 1.46103E+02 3.75125E+01 0.00000E+00
 -1      2125 1.44804E+02 3.67750E+01 0.00000E+00
 -1      2126 1.46103E+02 4.19375E+01 0.00000E+00
 -1      2127 1.46103E+02 4.04625E+01 0.00000E+00
 -1      2128 1.44804E+02 3.97250E+01 0.00000E+00
 -1      2129 6.06336E+01 1.83704E+01 0.00000E+00
 -1      2130 6.09356E+01 1.92091E+01 0.00000E+00
 -1      2131 6.15619E+01 2.20869E+01 0.00000E+00
 -1      2132 6.14467E+01 2.29779E+01 0.00000E+00
 -1      2133 6.12696E+01 2.00644E+01 0.00000E+00
 -1      2134 6.15393E+01 2.09125E+01 0.00000E+00
 -1      2135 5.94855E+01 1.66174E+01 0.00000E+00
 -1      2136 6.01231E+01 1.72594E+01 0.00000E+00
 -1      2137 5.81906E+01 1.53176E+01 0.00000E+00
 -1      2138 5.88381E+01 1.59675E+01 0.00000E+00
 -1      2139 5.97653E+01 1.56842E+01 0.00000E+00
 -1      2140 3.89700E+00 3.74688E+01 0.00000E+00
 -1      2141 3.89700E+00 3.89437E+01 0.00000E+00
 -1      2142 5.19600E+00 3.96813E+01 0.00000E+00
 -1      2143 5.19600E+00 3.67438E+01 0.00000E+00
 -1      2144 5.44643E+01 1.38645E+01 0.00000E+00
 -1      2145 5.53098E+01 1.41300E+01 0.00000E+00
 -1      2146 5.25373E+01 1.35782E+01 0.00000E+00
 -1      2147 5.34098E+01 1.35769E+01 0.00000E+00
 -1      2148 5.06850E+01 1.35712E+01 0.00000E+00
 -1      2149 5.16112E+01 1.35747E+01 0.00000E+00
 -1      2150 5.20462E+01 1.28003E+01 0.00000E+00
 -1      2151 4.86533E+01 1.42607E+01 0.00000E+00
 -1      2152 4.95416E+01 1.38924E+01 0.00000E+00
 -1      2153 4.70185E+01 1.55843E+01 0.00000E+00
 -1      2154 4.76594E+01 1.49281E+01 0.00000E+00
 -1      2155 4.55958E+01 1.68053E+01 0.00000E+00
 -1      2156 4.63072E+01 1.61948E+01 0.00000E+00
 -1      2157 4.61341E+01 1.53846E+01 0.00000E+00
 -1      2158 4.44945E+01 1.86020E+01 0.00000E+00
 -1      2159 4.48394E+01 1.77420E+01 0.00000E+00
 -1      2160 4.40339E+01 2.03555E+01 0.00000E+00
 -1      2161 4.43231E+01 1.95324E+01 0.00000E+00
 -1      2162 4.36001E+01 2.22800E+01 0.00000E+00
 -1      2163 4.36292E+01 2.13958E+01 0.00000E+00
 -1      2164 4.37440E+01 2.39916E+01 0.00000E+00
 -1      2165 4.36721E+01 2.31358E+01 0.00000E+00
 -1      2166 4.28295E+01 2.26655E+01 0.00000E+00
 -1      2167 4.42962E+01 2.59429E+01 0.00000E+00
 -1      2168 4.40043E+01 2.51299E+01 0.00000E+00
 -1      2169 4.50411E+01 2.77309E+01 0.00000E+00
 -1      2170 4.46687E+01 2.68369E+01 0.00000E+00
 -1      2171 4.37944E+01 2.66919E+01 0.00000E+00
 -1      2172 4.67595E+01 2.92395E+01 0.00000E+00
 -1      2173 4.59478E+01 2.87172E+01 0.00000E+00
 -1      2174 4.81118E+01 3.05665E+01 0.00000E+00
 -1      2175 4.74356E+01 2.99030E+01 0.00000E+00
 -1      2176 4.66565E+01 3.02221E+01 0.00000E+00
 -1      2177 5.01951E+01 3.11002E+01 0.00000E+00
 -1      2178 4.92704E+01 3.09882E+01 0.00000E+00
 -1      2179 5.19035E+01 3.14766E+01 0.00000E+00
 -1      2180 5.10493E+01 3.12884E+01 0.00000E+00
 -1      2181 5.05040E+01 3.19174E+01 0.00000E+00
 -1      2182 5.38741E+01 3.13347E+01 0.00000E+00
 -1      2183 5.30102E+01 3.14902E+01 0.00000E+00
 -1      2184 5.55766E+01 3.08320E+01 0.00000E+00
 -1      2185 5.47770E+01 3.10752E+01 0.00000E+00
 -1      2186 5.73046E+01 3.02487E+01 0.00000E+00
 -1      2187 5.64406E+01 3.05403E+01 0.00000E+00
 -1      2188 5.62416E+01 3.13221E+01 0.00000E+00
 -1      2189 5.88677E+01 2.87896E+01 0.00000E+00
 -1      2190 5.82969E+01 2.95096E+01 0.00000E+00
 -1      2191 5.99354E+01 2.73650E+01 0.00000E+00
 -1      2192 5.94235E+01 2.80620E+01 0.00000E+00
 -1      2193 6.08927E+01 2.57802E+01 0.00000E+00
 -1      2194 6.04533E+01 2.65606E+01 0.00000E+00
 -1      2195 6.13474E+01 2.38437E+01 0.00000E+00
 -1      2196 6.12480E+01 2.47096E+01 0.00000E+00
 -1      2197 6.20477E+01 2.34813E+01 0.00000E+00
 -1      2198 5.62676E+01 1.43470E+01 0.00000E+00
 -1      2199 5.71301E+01 1.47068E+01 0.00000E+00
 -1      2200 6.42300E+00 4.57510E+01 0.00000E+00
 -1      2201 5.80574E+01 1.44235E+01 0.00000E+00
 -1      2202 5.60390E+01 1.35959E+01 0.00000E+00
 -1      2203 7.17300E+00 4.44520E+01 0.00000E+00
 -1      2204 6.17679E+01 1.94114E+01 0.00000E+00
 -1      2205 6.21245E+01 2.14411E+01 0.00000E+00
 -1      2206 6.27097E+01 2.19696E+01 0.00000E+00
 -1      2207 6.26871E+01 2.07952E+01 0.00000E+00
 -1      2208 1.45665E+02 4.31193E+01 0.00000E+00
 -1      2209 6.09233E+01 1.74451E+01 0.00000E+00
 -1      2210 6.15931E+01 2.54177E+01 0.00000E+00
 -1      2211 6.19381E+01 2.61259E+01 0.00000E+00
 -1      2212 6.22934E+01 2.50553E+01 0.00000E+00
 -1      2213 6.07198E+01 2.72927E+01 0.00000E+00
 -1      2214 5.80979E+01 3.02913E+01 0.00000E+00
 -1      2215 5.78989E+01 3.10730E+01 0.00000E+00
 -1      2216 5.88912E+01 3.03339E+01 0.00000E+00
 -1      2217 5.24650E+01 3.21192E+01 0.00000E+00
 -1      2218 4.84913E+01 3.13074E+01 0.00000E+00
 -1      2219 4.77121E+01 3.16265E+01 0.00000E+00
 -1      2220 4.88707E+01 3.20483E+01 0.00000E+00
 -1      2221 4.50736E+01 2.85722E+01 0.00000E+00
 -1      2222 4.41994E+01 2.84272E+01 0.00000E+00
 -1      2223 4.51061E+01 2.94136E+01 0.00000E+00
 -1      2224 4.31618E+01 2.46596E+01 0.00000E+00
 -1      2225 4.31623E+01 2.07695E+01 0.00000E+00
 -1      2226 4.46663E+01 1.69318E+01 0.00000E+00
 -1      2227 4.99766E+01 1.31180E+01 0.00000E+00
 -1      2228 5.40268E+01 1.30914E+01 0.00000E+00
 -1      2229 4.78393E+01 1.41066E+01 0.00000E+00
 -1      2230 4.80191E+01 1.32851E+01 0.00000E+00
 -1      2231 4.70252E+01 1.39525E+01 0.00000E+00
 -1      2232 4.37385E+01 1.87988E+01 0.00000E+00
 -1      2233 5.44747E+01 3.18732E+01 0.00000E+00
 -1      2234 5.96460E+01 2.88246E+01 0.00000E+00
 -1      2235 1.07850E+01 5.30525E+00 0.00000E+00
 -1      2236 9.28500E+00 5.30525E+00 0.00000E+00
 -1      2237 6.49500E+00 3.01125E+01 0.00000E+00
 -1      2238 6.49500E+00 3.15875E+01 0.00000E+00
 -1      2239 6.49500E+00 3.30625E+01 0.00000E+00
 -1      2240 6.49500E+00 3.45375E+01 0.00000E+00
 -1      2241 7.79400E+00 3.23250E+01 0.00000E+00
 -1      2242 6.49500E+00 2.42125E+01 0.00000E+00
 -1      2243 6.49500E+00 2.56875E+01 0.00000E+00
 -1      2244 6.49500E+00 2.12625E+01 0.00000E+00
 -1      2245 6.49500E+00 2.27375E+01 0.00000E+00
 -1      2246 7.79400E+00 2.34750E+01 0.00000E+00
 -1      2247 6.49500E+00 1.83625E+01 0.00000E+00
 -1      2248 6.49500E+00 1.98125E+01 0.00000E+00
 -1      2249 7.79400E+00 2.05500E+01 0.00000E+00
 -1      2250 6.49500E+00 1.54125E+01 0.00000E+00
 -1      2251 6.49500E+00 1.68875E+01 0.00000E+00
 -1      2252 7.79400E+00 1.76250E+01 0.00000E+00
 -1      2253 6.49500E+00 1.24625E+01 0.00000E+00
 -1      2254 6.49500E+00 1.39375E+01 0.00000E+00
 -1      2255 7.79400E+00 1.46750E+01 0.00000E+00
 -1      2256 6.49500E+00 9.51250E+00 0.00000E+00
 -1      2257 6.49500E+00 1.09875E+01 0.00000E+00
 -1      2258 7.79400E+00 1.17250E+01 0.00000E+00
 -1      2259 1.37850E+01 5.30525E+00 0.00000E+00
 -1      2260 1.22850E+01 5.30525E+00 0.00000E+00
 -1      2261 1.15350E+01 6.60425E+00 0.00000E+00
 -1      2262 9.90000E+00 4.35050E+01 0.00000E+00
 -1      2263 1.14000E+01 4.35050E+01 0.00000E+00
 -1      2264 5.79968E+01 1.33024E+01 0.00000E+00
 -1      2265 5.90574E+01 1.39132E+01 0.00000E+00
 -1      2266 1.29000E+01 4.35050E+01 0.00000E+00
 -1      2267 1.44000E+01 4.35050E+01 0.00000E+00
 -1      2268 1.21500E+01 4.22060E+01 0.00000E+00
 -1      2269 1.59000E+01 4.35050E+01 0.00000E+00
 -1      2270 1.74000E+01 4.35050E+01 0.00000E+00
 -1      2271 1.51500E+01 4.22060E+01 0.00000E+00
 -1      2272 1.89000E+01 4.35050E+01 0.00000E+00
 -1      2273 2.04000E+01 4.35050E+01 0.00000E+00
 -1      2274 1.81500E+01 4.22060E+01 0.00000E+00
 -1      2275 2.19000E+01 4.35050E+01 0.00000E+00
 -1      2276 2.34000E+01 4.35050E+01 0.00000E+00
 -1      2277 2.11500E+01 4.22060E+01 0.00000E+00
 -1      2278 2.49000E+01 4.35050E+01 0.00000E+00
 -1      2279 2.64000E+01 4.35050E+01 0.00000E+00
 -1      2280 2.41500E+01 4.22060E+01 0.00000E+00
 -1      2281 2.79000E+01 4.35050E+01 0.00000E+00
 -1      2282 2.94000E+01 4.35050E+01 0.00000E+00
 -1      2283 2.71500E+01 4.22060E+01 0.00000E+00
 -1      2284 3.09000E+01 4.35050E+01 0.00000E+00
 -1      2285 3.24000E+01 4.35050E+01 0.00000E+00
 -1      2286 3.01500E+01 4.22060E+01 0.00000E+00
 -1      2287 3.39000E+01 4.35050E+01 0.00000E+00
 -1      2288 3.54000E+01 4.35050E+01 0.00000E+00
 -1      2289 3.31500E+01 4.22060E+01 0.00000E+00
 -1      2290 3.69000E+01 4.35050E+01 0.00000E+00
 -1      2291 3.84000E+01 4.35050E+01 0.00000E+00
 -1      2292 3.61500E+01 4.22060E+01 0.00000E+00
 -1      2293 3.99000E+01 4.35050E+01 0.00000E+00
 -1      2294 4.14000E+01 4.35050E+01 0.00000E+00
 -1      2295 3.91500E+01 4.22060E+01 0.00000E+00
 -1      2296 4.29000E+01 4.35050E+01 0.00000E+00
 -1      2297 4.44000E+01 4.35050E+01 0.00000E+00
 -1      2298 4.21500E+01 4.22060E+01 0.00000E+00
 -1      2299 4.59000E+01 4.35050E+01 0.00000E+00
 -1      2300 4.74000E+01 4.35050E+01 0.00000E+00
 -1      2301 4.51500E+01 4.22060E+01 0.00000E+00
 -1      2302 4.89000E+01 4.35050E+01 0.00000E+00
 -1      2303 5.04000E+01 4.35050E+01 0.00000E+00
 -1      2304 4.81500E+01 4.22060E+01 0.00000E+00
 -1      2305 5.19000E+01 4.35050E+01 0.00000E+00
 -1      2306 5.34000E+01 4.35050E+01 0.00000E+00
 -1      2307 5.11500E+01 4.22060E+01 0.00000E+00
 -1      2308 5.49000E+01 4.35050E+01 0.00000E+00
 -1      2309 5.64000E+01 4.35050E+01 0.00000E+00
 -1      2310 5.41500E+01 4.22060E+01 0.00000E+00
 -1      2311 5.79000E+01 4.35050E+01 0.00000E+00
 -1      2312 5.94000E+01 4.35050E+01 0.00000E+00
 -1      2313 5.71500E+01 4.22060E+01 0.00000E+00
 -1      2314 6.09000E+01 4.35050E+01 0.00000E+00
 -1      2315 6.24000E+01 4.35050E+01 0.00000E+00
 -1      2316 6.01500E+01 4.22060E+01 0.00000E+00
 -1      2317 6.39000E+01 4.35050E+01 0.00000E+00
 -1      2318 6.54000E+01 4.35050E+01 0.00000E+00
 -1      2319 6.31500E+01 4.22060E+01 0.00000E+00
 -1      2320 6.69000E+01 4.35050E+01 0.00000E+00
 -1      2321 6.84000E+01 4.35050E+01 0.00000E+00
 -1      2322 6.61500E+01 4.22060E+01 0.00000E+00
 -1      2323 6.99000E+01 4.35050E+01 0.00000E+00
 -1      2324 7.14000E+01 4.35050E+01 0.00000E+00
 -1      2325 6.91500E+01 4.22060E+01 0.00000E+00
 -1      2326 7.29000E+01 4.35050E+01 0.00000E+00
 -1      2327 7.44000E+01 4.35050E+01 0.00000E+00
 -1      2328 7.21500E+01 4.22060E+01 0.00000E+00
 -1      2329 7.59000E+01 4.35050E+01 0.00000E+00
 -1      2330 7.74000E+01 4.35050E+01 0.00000E+00
 -1      2331 7.51500E+01 4.22060E+01 0.00000E+00
 -1      2332 7.89000E+01 4.35050E+01 0.00000E+00
 -1      2333 8.04000E+01 4.35050E+01 0.00000E+00
 -1      2334 7.81500E+01 4.22060E+01 0.00000E+00
 -1      2335 8.19000E+01 4.35050E+01 0.00000E+00
 -1      2336 8.34000E+01 4.35050E+01 0.00000E+00
 -1      2337 8.11500E+01 4.22060E+01 0.00000E+00
 -1      2338 8.49000E+01 4.35050E+01 0.00000E+00
 -1      2339 8.64000E+01 4.35050E+01 0.00000E+00
 -1      2340 8.41500E+01 4.22060E+01 0.00000E+00
 -1      2341 8.79000E+01 4.35050E+01 0.00000E+00
 -1      2342 8.94000E+01 4.35050E+01 0.00000E+00
 -1      2343 8.71500E+01 4.22060E+01 0.00000E+00
 -1      2344 9.09000E+01 4.35050E+01 0.00000E+00
 -1      2345 9.24000E+01 4.35050E+01 0.00000E+00
 -1      2346 9.01500E+01 4.22060E+01 0.00000E+00
 -1      2347 9.39000E+01 4.35050E+01 0.00000E+00
 -1      2348 9.54000E+01 4.35050E+01 0.00000E+00
 -1      2349 9.31500E+01 4.22060E+01 0.00000E+00
 -1      2350 9.69000E+01 4.35050E+01 0.00000E+00
 -1      2351 9.84000E+01 4.35050E+01 0.00000E+00
 -1      2352 9.61500E+01 4.22060E+01 0.00000E+00
 -1      2353 9.99000E+01 4.35050E+01 0.00000E+00
 -1      2354 1.01400E+02 4.35050E+01 0.00000E+00
 -1      2355 9.91500E+01 4.22060E+01 0.00000E+00
 -1      2356 1.02900E+02 4.35050E+01 0.00000E+00
 -1      2357 1.04400E+02 4.35050E+01 0.00000E+00
 -1      2358 1.02150E+02 4.22060E+01 0.00000E+00
 -1      2359 1.05900E+02 4.35050E+01 0.00000E+00
 -1      2360 1.07400E+02 4.35050E+01 0.00000E+00
 -1      2361 1.05150E+02 4.22060E+01 0.00000E+00
 -1      2362 1.08900E+02 4.35050E+01 0.00000E+00
 -1      2363 1.10400E+02 4.35050E+01 0.00000E+00
 -1      2364 1.08150E+02 4.22060E+01 0.00000E+00
 -1      2365 1.11900E+02 4.35050E+01 0.00000E+00
 -1      2366 1.13400E+02 4.35050E+01 0.00000E+00
 -1      2367 1.11150E+02 4.22060E+01 0.00000E+00
 -1      2368 1.14900E+02 4.35050E+01 0.00000E+00
 -1      2369 1.16400E+02 4.35050E+01 0.00000E+00
 -1      2370 1.14150E+02 4.22060E+01 0.00000E+00
 -1      2371 1.17900E+02 4.35050E+01 0.00000E+00
 -1      2372 1.19400E+02 4.35050E+01 0.00000E+00
 -1      2373 1.17150E+02 4.22060E+01 0.00000E+00
 -1      2374 1.20900E+02 4.35050E+01 0.00000E+00
 -1      2375 1.22400E+02 4.35050E+01 0.00000E+00
 -1      2376 1.20150E+02 4.22060E+01 0.00000E+00
 -1      2377 1.23900E+02 4.35050E+01 0.00000E+00
 -1      2378 1.25400E+02 4.35050E+01 0.00000E+00
 -1      2379 1.23150E+02 4.22060E+01 0.00000E+00
 -1      2380 1.26900E+02 4.35050E+01 0.00000E+00
 -1      2381 1.28400E+02 4.35050E+01 0.00000E+00
 -1      2382 1.26150E+02 4.22060E+01 0.00000E+00
 -1      2383 1.29900E+02 4.35050E+01 0.00000E+00
 -1      2384 1.31400E+02 4.35050E+01 0.00000E+00
 -1      2385 1.29150E+02 4.22060E+01 0.00000E+00
 -1      2386 1.32900E+02 4.35050E+01 0.00000E+00
 -1      2387 1.34400E+02 4.35050E+01 0.00000E+00
 -1      2388 1.32150E+02 4.22060E+01 0.00000E+00
 -1      2389 1.35900E+02 4.35050E+01 0.00000E+00
 -1      2390 1.37400E+02 4.35050E+01 0.00000E+00
 -1      2391 1.35150E+02 4.22060E+01 0.00000E+00
 -1      2392 1.38900E+02 4.35050E+01 0.00000E+00
 -1      2393 1.40400E+02 4.35050E+01 0.00000E+00
 -1      2394 1.38150E+02 4.22060E+01 0.00000E+00
 -1      2395 1.97850E+01 5.30525E+00 0.00000E+00
 -1      2396 1.82850E+01 5.30525E+00 0.00000E+00
 -1      2397 2.27850E+01 5.30525E+00 0.00000E+00
 -1      2398 2.12850E+01 5.30525E+00 0.00000E+00
 -1      2399 2.05350E+01 6.60425E+00 0.00000E+00
 -1      2400 2.57850E+01 5.30525E+00 0.00000E+00
 -1      2401 2.42850E+01 5.30525E+00 0.00000E+00
 -1      2402 2.35350E+01 6.60425E+00 0.00000E+00
 -1      2403 2.87850E+01 5.30525E+00 0.00000E+00
 -1      2404 2.72850E+01 5.30525E+00 0.00000E+00
 -1      2405 2.65350E+01 6.60425E+00 0.00000E+00
 -1      2406 3.17850E+01 5.30525E+00 0.00000E+00
 -1      2407 3.02850E+01 5.30525E+00 0.00000E+00
 -1      2408 2.95350E+01 6.60425E+00 0.00000E+00
 -1      2409 3.47850E+01 5.30525E+00 0.00000E+00
 -1      2410 3.32850E+01 5.30525E+00 0.00000E+00
 -1      2411 3.25350E+01 6.60425E+00 0.00000E+00
 -1      2412 3.77850E+01 5.30525E+00 0.00000E+00
 -1      2413 3.62850E+01 5.30525E+00 0.00000E+00
 -1      2414 3.55350E+01 6.60425E+00 0.00000E+00
 -1      2415 4.07850E+01 5.30525E+00 0.00000E+00
 -1      2416 3.92850E+01 5.30525E+00 0.00000E+00
 -1      2417 3.85350E+01 6.60425E+00 0.00000E+00
 -1      2418 4.37850E+01 5.30525E+00 0.00000E+00
 -1      2419 4.22850E+01 5.30525E+00 0.00000E+00
 -1      2420 4.15350E+01 6.60425E+00 0.00000E+00
 -1      2421 4.67850E+01 5.30525E+00 0.00000E+00
 -1      2422 4.52850E+01 5.30525E+00 0.00000E+00
 -1      2423 4.45350E+01 6.60425E+00 0.00000E+00
 -1      2424 4.97850E+01 5.30525E+00 0.00000E+00
 -1      2425 4.82850E+01 5.30525E+00 0.00000E+00
 -1      2426 4.75350E+01 6.60425E+00 0.00000E+00
 -1      2427 5.27850E+01 5.30525E+00 0.00000E+00
 -1      2428 5.12850E+01 5.30525E+00 0.00000E+00
 -1      2429 5.05350E+01 6.60425E+00 0.00000E+00
 -1      2430 5.57850E+01 5.30525E+00 0.00000E+00
 -1      2431 5.42850E+01 5.30525E+00 0.00000E+00
 -1      2432 5.35350E+01 6.60425E+00 0.00000E+00
 -1      2433 5.87850E+01 5.30525E+00 0.00000E+00
 -1      2434 5.72850E+01 5.30525E+00 0.00000E+00
 -1      2435 5.65350E+01 6.60425E+00 0.00000E+00
 -1      2436 6.17850E+01 5.30525E+00 0.00000E+00
 -1      2437 6.02850E+01 5.30525E+00 0.00000E+00
 -1      2438 5.95350E+01 6.60425E+00 0.00000E+00
 -1      2439 6.47850E+01 5.30525E+00 0.00000E+00
 -1      2440 6.32850E+01 5.30525E+00 0.00000E+00
 -1      2441 6.25350E+01 6.60425E+00 0.00000E+00
 -1      2442 6.77850E+01 5.30525E+00 0.00000E+00
 -1      2443 6.62850E+01 5.30525E+00 0.00000E+00
 -1      2444 6.55350E+01 6.60425E+00 0.00000E+00
 -1      2445 7.07850E+01 5.30525E+00 0.00000E+00
 -1      2446 6.92850E+01 5.30525E+00 0.00000E+00
 -1      2447 6.85350E+01 6.60425E+00 0.00000E+00
 -1      2448 7.37850E+01 5.30525E+00 0.00000E+00
 -1      2449 7.22850E+01 5.30525E+00 0.00000E+00
 -1      2450 7.15350E+01 6.60425E+00 0.00000E+00
 -1      2451 7.67850E+01 5.30525E+00 0.00000E+00
 -1      2452 7.52850E+01 5.30525E+00 0.00000E+00
 -1      2453 7.45350E+01 6.60425E+00 0.00000E+00
 -1      2454 7.97850E+01 5.30525E+00 0.00000E+00
 -1      2455 7.82850E+01 5.30525E+00 0.00000E+00
 -1      2456 7.75350E+01 6.60425E+00 0.00000E+00
 -1      2457 8.27850E+01 5.30525E+00 0.00000E+00
 -1      2458 8.12850E+01 5.30525E+00 0.00000E+00
 -1      2459 8.05350E+01 6.60425E+00 0.00000E+00
 -1      2460 8.57850E+01 5.30525E+00 0.00000E+00
 -1      2461 8.42850E+01 5.30525E+00 0.00000E+00
 -1      2462 8.35350E+01 6.60425E+00 0.00000E+00
 -1      2463 8.87850E+01 5.30525E+00 0.00000E+00
 -1      2464 8.72850E+01 5.30525E+00 0.00000E+00
 -1      2465 8.65350E+01 6.60425E+00 0.00000E+00
 -1      2466 9.17850E+01 5.30525E+00 0.00000E+00
 -1      2467 9.02850E+01 5.30525E+00 0.00000E+00
 -1      2468 8.95350E+01 6.60425E+00 0.00000E+00
 -1      2469 9.47850E+01 5.30525E+00 0.00000E+00
 -1      2470 9.32850E+01 5.30525E+00 0.00000E+00
 -1      2471 9.25350E+01 6.60425E+00 0.00000E+00
 -1      2472 9.77850E+01 5.30525E+00 0.00000E+00
 -1      2473 9.62850E+01 5.30525E+00 0.00000E+00
 -1      2474 9.55350E+01 6.60425E+00 0.00000E+00
 -1      2475 1.00785E+02 5.30525E+00 0.00000E+00
 -1      2476 9.92850E+01 5.30525E+00 0.00000E+00
 -1      2477 9.85350E+01 6.60425E+00 0.00000E+00
 -1      2478 1.03785E+02 5.30525E+00 0.00000E+00
 -1      2479 1.02285E+02 5.30525E+00 0.00000E+00
 -1      2480 1.01535E+02 6.60425E+00 0.00000E+00
 -1      2481 1.06785E+02 5.30525E+00 0.00000E+00
 -1      2482 1.05285E+02 5.30525E+00 0.00000E+00
 -1      2483 1.04535E+02 6.60425E+00 0.00000E+00
 -1      2484 1.09785E+02 5.30525E+00 0.00000E+00
 -1      2485 1.08285E+02 5.30525E+00 0.00000E+00
 -1      2486 1.07535E+02 6.60425E+00 0.00000E+00
 -1      2487 1.12785E+02 5.30525E+00 0.00000E+00
 -1      2488 1.11285E+02 5.30525E+00 0.00000E+00
 -1      2489 1.10535E+02 6.60425E+00 0.00000E+00
 -1      2490 1.15785E+02 5.30525E+00 0.00000E+00
 -1      2491 1.14285E+02 5.30525E+00 0.00000E+00
 -1      2492 1.13535E+02 6.60425E+00 0.00000E+00
 -1      2493 1.18785E+02 5.30525E+00 0.00000E+00
 -1      2494 1.17285E+02 5.30525E+00 0.00000E+00
 -1      2495 1.16535E+02 6.60425E+00 0.00000E+00
 -1      2496 1.21785E+02 5.30525E+00 0.00000E+00
 -1      2497 1.20285E+02 5.30525E+00 0.00000E+00
 -1      2498 1.19535E+02 6.60425E+00 0.00000E+00
 -1      2499 1.24785E+02 5.30525E+00 0.00000E+00
 -1      2500 1.23285E+02 5.30525E+00 0.00000E+00
 -1      2501 1.22535E+02 6.60425E+00 0.00000E+00
 -1      2502 1.27785E+02 5.30525E+00 0.00000E+00
 -1      2503 1.26285E+02 5.30525E+00 0.00000E+00
 -1      2504 1.25535E+02 6.60425E+00 0.00000E+00
 -1      2505 1.30785E+02 5.30525E+00 0.00000E+00
 -1      2506 1.29285E+02 5.30525E+00 0.00000E+00
 -1      2507 1.28535E+02 6.60425E+00 0.00000E+00
 -1      2508 1.33785E+02 5.30525E+00 0.00000E+00
 -1      2509 1.32285E+02 5.30525E+00 0.00000E+00
 -1      2510 1.31535E+02 6.60425E+00 0.00000E+00
 -1      2511 1.36785E+02 5.30525E+00 0.00000E+00
 -1      2512 1.35285E+02 5.30525E+00 0.00000E+00
 -1      2513 1.34535E+02 6.60425E+00 0.00000E+00
 -1      2514 1.39785E+02 5.30525E+00 0.00000E+00
 -1      2515 1.38285E+02 5.30525E+00 0.00000E+00
 -1      2516 1.37535E+02 6.60425E+00 0.00000E+00
 -1      2517 1.42785E+02 5.30525E+00 0.00000E+00
 -1      2518 1.41285E+02 5.30525E+00 0.00000E+00
 -1      2519 1.40535E+02 6.60425E+00 0.00000E+00
 -1      2520 1.44336E+02 5.26953E+00 0.00000E+00
 -1      2521 1.43505E+02 1.69125E+01 0.00000E+00
 -1      2522 1.43505E+02 1.54375E+01 0.00000E+00
 -1      2523 1.43505E+02 1.98625E+01 0.00000E+00
 -1      2524 1.43505E+02 1.83875E+01 0.00000E+00
 -1      2525 1.42206E+02 1.76500E+01 0.00000E+00
 -1      2526 1.43505E+02 1.10625E+01 0.00000E+00
 -1      2527 1.43505E+02 9.58750E+00 0.00000E+00
 -1      2528 1.43505E+02 1.39750E+01 0.00000E+00
 -1      2529 1.43505E+02 1.25250E+01 0.00000E+00
 -1      2530 1.42206E+02 1.17875E+01 0.00000E+00
 -1      2531 1.42206E+02 1.47125E+01 0.00000E+00
 -1      2532 1.43505E+02 2.28125E+01 0.00000E+00
 -1      2533 1.43505E+02 2.13375E+01 0.00000E+00
 -1      2534 1.42206E+02 2.06000E+01 0.00000E+00
 -1      2535 1.43505E+02 2.57625E+01 0.00000E+00
 -1      2536 1.43505E+02 2.42875E+01 0.00000E+00
 -1      2537 1.42206E+02 2.35500E+01 0.00000E+00
 -1      2538 1.43505E+02 2.87125E+01 0.00000E+00
 -1      2539 1.43505E+02 2.72375E+01 0.00000E+00
 -1      2540 1.42206E+02 2.65000E+01 0.00000E+00
 -1      2541 1.43505E+02 3.16125E+01 0.00000E+00
 -1      2542 1.43505E+02 3.01625E+01 0.00000E+00
 -1      2543 1.42206E+02 2.94250E+01 0.00000E+00
 -1      2544 1.43505E+02 3.45625E+01 0.00000E+00
 -1      2545 1.43505E+02 3.30875E+01 0.00000E+00
 -1      2546 1.42206E+02 3.23500E+01 0.00000E+00
 -1      2547 1.43505E+02 3.75125E+01 0.00000E+00
 -1      2548 1.43505E+02 3.60375E+01 0.00000E+00
 -1      2549 1.42206E+02 3.53000E+01 0.00000E+00
 -1      2550 1.43505E+02 4.04625E+01 0.00000E+00
 -1      2551 1.43505E+02 3.89875E+01 0.00000E+00
 -1      2552 1.42206E+02 3.82500E+01 0.00000E+00
 -1      2553 6.14472E+01 1.65315E+01 0.00000E+00
 -1      2554 6.19578E+01 1.76425E+01 0.00000E+00
 -1      2555 1.67850E+01 5.30525E+00 0.00000E+00
 -1      2556 1.52850E+01 5.30525E+00 0.00000E+00
 -1      2557 1.75350E+01 6.60425E+00 0.00000E+00
 -1      2558 5.57495E+01 1.26510E+01 0.00000E+00
 -1      2559 5.67073E+01 1.28679E+01 0.00000E+00
 -1      2560 1.44321E+02 4.30606E+01 0.00000E+00
 -1      2561 6.00492E+01 1.47540E+01 0.00000E+00
 -1      2562 6.06966E+01 1.54039E+01 0.00000E+00
 -1      2563 6.28245E+01 2.31318E+01 0.00000E+00
 -1      2564 6.27252E+01 2.39976E+01 0.00000E+00
 -1      2565 5.30079E+01 3.29835E+01 0.00000E+00
 -1      2566 5.19011E+01 3.29699E+01 0.00000E+00
 -1      2567 4.21607E+01 2.09787E+01 0.00000E+00
 -1      2568 4.25655E+01 1.99384E+01 0.00000E+00
 -1      2569 4.91730E+01 1.24530E+01 0.00000E+00
 -1      2570 5.03164E+01 1.21318E+01 0.00000E+00
 -1      2571 6.49500E+00 2.71625E+01 0.00000E+00
 -1      2572 6.49500E+00 2.86375E+01 0.00000E+00
 -1      2573 7.79400E+00 2.93750E+01 0.00000E+00
 -1      2574 7.79400E+00 2.64250E+01 0.00000E+00
 -1      2575 5.36407E+01 1.20759E+01 0.00000E+00
 -1      2576 5.46951E+01 1.23635E+01 0.00000E+00
 -1      2577 5.53634E+01 1.16355E+01 0.00000E+00
 -1      2578 5.15871E+01 1.17734E+01 0.00000E+00
 -1      2579 5.25132E+01 1.17769E+01 0.00000E+00
 -1      2580 4.27369E+01 1.90080E+01 0.00000E+00
 -1      2581 4.29083E+01 1.80776E+01 0.00000E+00
 -1      2582 4.17353E+01 1.92172E+01 0.00000E+00
 -1      2583 4.51653E+01 1.49756E+01 0.00000E+00
 -1      2584 4.58766E+01 1.43650E+01 0.00000E+00
 -1      2585 5.51283E+01 3.24469E+01 0.00000E+00
 -1      2586 5.42254E+01 3.27064E+01 0.00000E+00
 -1      2587 4.36525E+01 1.68488E+01 0.00000E+00
 -1      2588 4.44089E+01 1.59122E+01 0.00000E+00
 -1      2589 4.41515E+01 1.48926E+01 0.00000E+00
 -1      2590 4.21362E+01 2.31548E+01 0.00000E+00
 -1      2591 4.20642E+01 2.22990E+01 0.00000E+00
 -1      2592 4.24967E+01 2.54106E+01 0.00000E+00
 -1      2593 4.22365E+01 2.42723E+01 0.00000E+00
 -1      2594 4.32664E+01 2.74364E+01 0.00000E+00
 -1      2595 4.28940E+01 2.65425E+01 0.00000E+00
 -1      2596 4.64526E+01 3.11062E+01 0.00000E+00
 -1      2597 4.57765E+01 3.04427E+01 0.00000E+00
 -1      2598 5.07736E+01 3.27263E+01 0.00000E+00
 -1      2599 4.99195E+01 3.25380E+01 0.00000E+00
 -1      2600 6.05055E+01 2.89052E+01 0.00000E+00
 -1      2601 5.99496E+01 2.96327E+01 0.00000E+00
 -1      2602 5.68564E+01 3.18636E+01 0.00000E+00
 -1      2603 5.59924E+01 3.21552E+01 0.00000E+00
 -1      2604 5.57431E+01 3.29884E+01 0.00000E+00
 -1      2605 6.15941E+01 2.72868E+01 0.00000E+00
 -1      2606 6.10761E+01 2.80911E+01 0.00000E+00
 -1      2607 6.55950E+00 4.28890E+01 0.00000E+00
 -1      2608 8.53650E+00 4.32410E+01 0.00000E+00
 -1      2609 9.28650E+00 4.19420E+01 0.00000E+00
 -1      2610 6.55950E+00 4.14140E+01 0.00000E+00
 -1      2611 8.07525E+00 5.11044E+00 0.00000E+00
 -1      2612 6.57525E+00 5.11044E+00 0.00000E+00
 -1      2613 6.40575E+00 6.01981E+00 0.00000E+00
 -1      2614 8.82525E+00 6.40944E+00 0.00000E+00
 -1      2615 6.23996E+01 1.86717E+01 0.00000E+00
 -1      2616 6.27337E+01 1.95270E+01 0.00000E+00
 -1      2617 7.79400E+00 3.52687E+01 0.00000E+00
 -1      2618 6.49500E+00 3.60062E+01 0.00000E+00
 -1      2619 6.49500E+00 3.74750E+01 0.00000E+00
 -1      2620 1.45350E+01 6.60425E+00 0.00000E+00
 -1      2621 6.40575E+00 7.49481E+00 0.00000E+00
 -1      2622 6.29236E+01 1.77582E+01 0.00000E+00
 -1      2623 6.52725E+00 3.87101E+01 0.00000E+00
 -1      2624 6.52725E+00 4.01789E+01 0.00000E+00
 -1      2625 7.89075E+00 4.04429E+01 0.00000E+00
 -1      2626 7.82625E+00 3.79726E+01 0.00000E+00
 -1      2627 4.32989E+01 2.82778E+01 0.00000E+00
 -1      2628 4.23984E+01 2.81284E+01 0.00000E+00
 -1      2629 4.33314E+01 2.91192E+01 0.00000E+00
 -1      2630 4.19687E+01 2.61551E+01 0.00000E+00
 -1      2631 5.99887E+01 1.36329E+01 0.00000E+00
 -1      2632 4.26509E+01 1.70580E+01 0.00000E+00
 -1      2633 6.13798E+01 2.88992E+01 0.00000E+00
 -1      2634 6.17311E+01 1.56013E+01 0.00000E+00
 -1      2635 6.33189E+01 2.00556E+01 0.00000E+00
 -1      2636 6.39040E+01 2.05842E+01 0.00000E+00
 -1      2637 6.39506E+01 1.93159E+01 0.00000E+00
 -1      2638 1.43586E+02 6.56853E+00 0.00000E+00
 -1      2639 1.43419E+02 7.72713E+00 0.00000E+00
 -1      2640 6.33871E+01 2.24860E+01 0.00000E+00
 -1      2641 4.83589E+01 1.22989E+01 0.00000E+00
 -1      2642 4.86987E+01 1.13127E+01 0.00000E+00
 -1      2643 4.75449E+01 1.21448E+01 0.00000E+00
 -1      2644 6.30702E+01 2.47058E+01 0.00000E+00
 -1      2645 7.70475E+00 8.23231E+00 0.00000E+00
 -1      2646 5.31815E+01 1.10490E+01 0.00000E+00
 -1      2647 1.42758E+02 4.35929E+01 0.00000E+00
 -1      2648 1.43241E+02 4.17323E+01 0.00000E+00
 -1      2649 1.41942E+02 4.09948E+01 0.00000E+00
 -1      2650 1.41414E+02 4.35342E+01 0.00000E+00
 -1      2651 6.29948E+01 2.65619E+01 0.00000E+00
 -1      2652 6.22944E+01 2.69243E+01 0.00000E+00
 -1      2653 6.26508E+01 2.77228E+01 0.00000E+00
 -1      2654 5.76497E+01 3.19062E+01 0.00000E+00
 -1      2655 5.74004E+01 3.27394E+01 0.00000E+00
 -1      2656 5.84429E+01 3.19488E+01 0.00000E+00
 -1      2657 5.13165E+01 3.35905E+01 0.00000E+00
 -1      2658 4.68321E+01 3.18471E+01 0.00000E+00
 -1      2659 4.59520E+01 3.20676E+01 0.00000E+00
 -1      2660 4.72115E+01 3.25880E+01 0.00000E+00
 -1      2661 4.14674E+01 2.14679E+01 0.00000E+00
 -1      2662 5.97507E+01 3.04145E+01 0.00000E+00
 -1      2663 5.95517E+01 3.11962E+01 0.00000E+00
 -1      2664 6.06102E+01 3.04950E+01 0.00000E+00
 -1      2665 5.36615E+01 3.35571E+01 0.00000E+00
 -1      2666 4.60565E+01 1.35435E+01 0.00000E+00
 -1      2667 4.91403E+01 3.28572E+01 0.00000E+00
 -1      2668 4.49023E+01 3.02976E+01 0.00000E+00
 -1      2669 5.07834E+01 1.11084E+01 0.00000E+00
 -1      2670 5.77074E+01 1.23576E+01 0.00000E+00
 -1      2671 4.14712E+01 2.39057E+01 0.00000E+00
 -1      2672 1.42120E+02 8.46463E+00 0.00000E+00
 -1      2673 1.40664E+02 4.22352E+01 0.00000E+00
 -1      2674 5.50839E+01 1.05836E+01 0.00000E+00
 -1      2675 5.61383E+01 1.08712E+01 0.00000E+00
 -1      2676 9.09300E+00 1.98250E+01 0.00000E+00
 -1      2677 9.09300E+00 2.12750E+01 0.00000E+00
 -1      2678 9.09300E+00 2.27500E+01 0.00000E+00
 -1      2679 9.09300E+00 2.42250E+01 0.00000E+00
 -1      2680 1.03920E+01 2.20250E+01 0.00000E+00
 -1      2681 9.09300E+00 1.39375E+01 0.00000E+00
 -1      2682 9.09300E+00 1.54125E+01 0.00000E+00
 -1      2683 9.09300E+00 1.09875E+01 0.00000E+00
 -1      2684 9.09300E+00 1.24625E+01 0.00000E+00
 -1      2685 1.03920E+01 1.32000E+01 0.00000E+00
 -1      2686 1.22850E+01 7.90325E+00 0.00000E+00
 -1      2687 1.07850E+01 7.90325E+00 0.00000E+00
 -1      2688 5.28289E+01 9.98565E+00 0.00000E+00
 -1      2689 5.39564E+01 1.02846E+01 0.00000E+00
 -1      2690 5.47313E+01 9.52022E+00 0.00000E+00
 -1      2691 8.91450E+00 8.42712E+00 0.00000E+00
 -1      2692 1.44000E+01 4.09070E+01 0.00000E+00
 -1      2693 1.59000E+01 4.09070E+01 0.00000E+00
 -1      2694 1.74000E+01 4.09070E+01 0.00000E+00
 -1      2695 1.89000E+01 4.09070E+01 0.00000E+00
 -1      2696 1.66500E+01 3.96080E+01 0.00000E+00
 -1      2697 2.04000E+01 4.09070E+01 0.00000E+00
 -1      2698 2.19000E+01 4.09070E+01 0.00000E+00
 -1      2699 1.96500E+01 3.96080E+01 0.00000E+00
 -1      2700 2.34000E+01 4.09070E+01 0.00000E+00
 -1      2701 2.49000E+01 4.09070E+01 0.00000E+00
 -1      2702 2.26500E+01 3.96080E+01 0.00000E+00
 -1      2703 2.64000E+01 4.09070E+01 0.00000E+00
 -1      2704 2.79000E+01 4.09070E+01 0.00000E+00
 -1      2705 2.56500E+01 3.96080E+01 0.00000E+00
 -1      2706 2.94000E+01 4.09070E+01 0.00000E+00
 -1      2707 3.09000E+01 4.09070E+01 0.00000E+00
 -1      2708 2.86500E+01 3.96080E+01 0.00000E+00
 -1      2709 3.24000E+01 4.09070E+01 0.00000E+00
 -1      2710 3.39000E+01 4.09070E+01 0.00000E+00
 -1      2711 3.16500E+01 3.96080E+01 0.00000E+00
 -1      2712 3.54000E+01 4.09070E+01 0.00000E+00
 -1      2713 3.69000E+01 4.09070E+01 0.00000E+00
 -1      2714 3.46500E+01 3.96080E+01 0.00000E+00
 -1      2715 3.84000E+01 4.09070E+01 0.00000E+00
 -1      2716 3.99000E+01 4.09070E+01 0.00000E+00
 -1      2717 3.76500E+01 3.96080E+01 0.00000E+00
 -1      2718 4.14000E+01 4.09070E+01 0.00000E+00
 -1      2719 4.29000E+01 4.09070E+01 0.00000E+00
 -1      2720 4.06500E+01 3.96080E+01 0.00000E+00
 -1      2721 4.44000E+01 4.09070E+01 0.00000E+00
 -1      2722 4.59000E+01 4.09070E+01 0.00000E+00
 -1      2723 4.36500E+01 3.96080E+01 0.00000E+00
 -1      2724 4.74000E+01 4.09070E+01 0.00000E+00
 -1      2725 4.89000E+01 4.09070E+01 0.00000E+00
 -1      2726 4.66500E+01 3.96080E+01 0.00000E+00
 -1      2727 5.04000E+01 4.09070E+01 0.00000E+00
 -1      2728 5.19000E+01 4.09070E+01 0.00000E+00
 -1      2729 4.96500E+01 3.96080E+01 0.00000E+00
 -1      2730 5.34000E+01 4.09070E+01 0.00000E+00
 -1      2731 5.49000E+01 4.09070E+01 0.00000E+00
 -1      2732 5.26500E+01 3.96080E+01 0.00000E+00
 -1      2733 5.64000E+01 4.09070E+01 0.00000E+00
 -1      2734 5.79000E+01 4.09070E+01 0.00000E+00
 -1      2735 5.56500E+01 3.96080E+01 0.00000E+00
 -1      2736 5.94000E+01 4.09070E+01 0.00000E+00
 -1      2737 6.09000E+01 4.09070E+01 0.00000E+00
 -1      2738 5.86500E+01 3.96080E+01 0.00000E+00
 -1      2739 6.24000E+01 4.09070E+01 0.00000E+00
 -1      2740 6.39000E+01 4.09070E+01 0.00000E+00
 -1      2741 6.16500E+01 3.96080E+01 0.00000E+00
 -1      2742 6.54000E+01 4.09070E+01 0.00000E+00
 -1      2743 6.69000E+01 4.09070E+01 0.00000E+00
 -1      2744 6.46500E+01 3.96080E+01 0.00000E+00
 -1      2745 6.84000E+01 4.09070E+01 0.00000E+00
 -1      2746 6.99000E+01 4.09070E+01 0.00000E+00
 -1      2747 6.76500E+01 3.96080E+01 0.00000E+00
 -1      2748 7.14000E+01 4.09070E+01 0.00000E+00
 -1      2749 7.29000E+01 4.09070E+01 0.00000E+00
 -1      2750 7.06500E+01 3.96080E+01 0.00000E+00
 -1      2751 7.44000E+01 4.09070E+01 0.00000E+00
 -1      2752 7.59000E+01 4.09070E+01 0.00000E+00
 -1      2753 7.36500E+01 3.96080E+01 0.00000E+00
 -1      2754 7.74000E+01 4.09070E+01 0.00000E+00
 -1      2755 7.89000E+01 4.09070E+01 0.00000E+00
 -1      2756 7.66500E+01 3.96080E+01 0.00000E+00
 -1      2757 8.04000E+01 4.09070E+01 0.00000E+00
 -1      2758 8.19000E+01 4.09070E+01 0.00000E+00
 -1      2759 7.96500E+01 3.96080E+01 0.00000E+00
 -1      2760 8.34000E+01 4.09070E+01 0.00000E+00
 -1      2761 8.49000E+01 4.09070E+01 0.00000E+00
 -1      2762 8.26500E+01 3.96080E+01 0.00000E+00
 -1      2763 8.64000E+01 4.09070E+01 0.00000E+00
 -1      2764 8.79000E+01 4.09070E+01 0.00000E+00
 -1      2765 8.56500E+01 3.96080E+01 0.00000E+00
 -1      2766 8.94000E+01 4.09070E+01 0.00000E+00
 -1      2767 9.09000E+01 4.09070E+01 0.00000E+00
 -1      2768 8.86500E+01 3.96080E+01 0.00000E+00
 -1      2769 9.24000E+01 4.09070E+01 0.00000E+00
 -1      2770 9.39000E+01 4.09070E+01 0.00000E+00
 -1      2771 9.16500E+01 3.96080E+01 0.00000E+00
 -1      2772 9.54000E+01 4.09070E+01 0.00000E+00
 -1      2773 9.69000E+01 4.09070E+01 0.00000E+00
 -1      2774 9.46500E+01 3.96080E+01 0.00000E+00
 -1      2775 9.84000E+01 4.09070E+01 0.00000E+00
 -1      2776 9.99000E+01 4.09070E+01 0.00000E+00
 -1      2777 9.76500E+01 3.96080E+01 0.00000E+00
 -1      2778 1.01400E+02 4.09070E+01 0.00000E+00
 -1      2779 1.02900E+02 4.09070E+01 0.00000E+00
 -1      2780 1.00650E+02 3.96080E+01 0.00000E+00
 -1      2781 1.04400E+02 4.09070E+01 0.00000E+00
 -1      2782 1.05900E+02 4.09070E+01 0.00000E+00
 -1      2783 1.03650E+02 3.96080E+01 0.00000E+00
 -1      2784 1.07400E+02 4.09070E+01 0.00000E+00
 -1      2785 1.08900E+02 4.09070E+01 0.00000E+00
 -1      2786 1.06650E+02 3.96080E+01 0.00000E+00
 -1      2787 1.10400E+02 4.09070E+01 0.00000E+00
 -1      2788 1.11900E+02 4.09070E+01 0.00000E+00
 -1      2789 1.09650E+02 3.96080E+01 0.00000E+00
 -1      2790 1.13400E+02 4.09070E+01 0.00000E+00
 -1      2791 1.14900E+02 4.09070E+01 0.00000E+00
 -1      2792 1.12650E+02 3.96080E+01 0.00000E+00
 -1      2793 1.16400E+02 4.09070E+01 0.00000E+00
 -1      2794 1.17900E+02 4.09070E+01 0.00000E+00
 -1      2795 1.15650E+02 3.96080E+01 0.00000E+00
 -1      2796 1.19400E+02 4.09070E+01 0.00000E+00
 -1      2797 1.20900E+02 4.09070E+01 0.00000E+00
 -1      2798 1.18650E+02 3.96080E+01 0.00000E+00
 -1      2799 1.22400E+02 4.09070E+01 0.00000E+00
 -1      2800 1.23900E+02 4.09070E+01 0.00000E+00
 -1      2801 1.21650E+02 3.96080E+01 0.00000E+00
 -1      2802 1.25400E+02 4.09070E+01 0.00000E+00
 -1      2803 1.26900E+02 4.09070E+01 0.00000E+00
 -1      2804 1.24650E+02 3.96080E+01 0.00000E+00
 -1      2805 1.28400E+02 4.09070E+01 0.00000E+00
 -1      2806 1.29900E+02 4.09070E+01 0.00000E+00
 -1      2807 1.27650E+02 3.96080E+01 0.00000E+00
 -1      2808 1.31400E+02 4.09070E+01 0.00000E+00
 -1      2809 1.32900E+02 4.09070E+01 0.00000E+00
 -1      2810 1.30650E+02 3.96080E+01 0.00000E+00
 -1      2811 1.34400E+02 4.09070E+01 0.00000E+00
 -1      2812 1.35900E+02 4.09070E+01 0.00000E+00
 -1      2813 1.33650E+02 3.96080E+01 0.00000E+00
 -1      2814 1.37400E+02 4.09070E+01 0.00000E+00
 -1      2815 1.38900E+02 4.09070E+01 0.00000E+00
 -1      2816 1.36650E+02 3.96080E+01 0.00000E+00
 -1      2817 2.42850E+01 7.90325E+00 0.00000E+00
 -1      2818 2.27850E+01 7.90325E+00 0.00000E+00
 -1      2819 2.12850E+01 7.90325E+00 0.00000E+00
 -1      2820 1.97850E+01 7.90325E+00 0.00000E+00
 -1      2821 2.20350E+01 9.20225E+00 0.00000E+00
 -1      2822 3.02850E+01 7.90325E+00 0.00000E+00
 -1      2823 2.87850E+01 7.90325E+00 0.00000E+00
 -1      2824 3.32850E+01 7.90325E+00 0.00000E+00
 -1      2825 3.17850E+01 7.90325E+00 0.00000E+00
 -1      2826 3.10350E+01 9.20225E+00 0.00000E+00
 -1      2827 3.62850E+01 7.90325E+00 0.00000E+00
 -1      2828 3.47850E+01 7.90325E+00 0.00000E+00
 -1      2829 3.40350E+01 9.20225E+00 0.00000E+00
 -1      2830 3.92850E+01 7.90325E+00 0.00000E+00
 -1      2831 3.77850E+01 7.90325E+00 0.00000E+00
 -1      2832 3.70350E+01 9.20225E+00 0.00000E+00
 -1      2833 4.22850E+01 7.90325E+00 0.00000E+00
 -1      2834 4.07850E+01 7.90325E+00 0.00000E+00
 -1      2835 4.00350E+01 9.20225E+00 0.00000E+00
 -1      2836 4.52850E+01 7.90325E+00 0.00000E+00
 -1      2837 4.37850E+01 7.90325E+00 0.00000E+00
 -1      2838 4.30350E+01 9.20225E+00 0.00000E+00
 -1      2839 4.84598E+01 8.88143E+00 0.00000E+00
 -1      2840 4.69598E+01 8.88143E+00 0.00000E+00
 -1      2841 5.43194E+01 7.91275E+00 0.00000E+00
 -1      2842 5.28194E+01 7.91275E+00 0.00000E+00
 -1      2843 5.69469E+01 8.21172E+00 0.00000E+00
 -1      2844 5.54469E+01 8.21172E+00 0.00000E+00
 -1      2845 6.32850E+01 7.90325E+00 0.00000E+00
 -1      2846 6.17850E+01 7.90325E+00 0.00000E+00
 -1      2847 6.62850E+01 7.90325E+00 0.00000E+00
 -1      2848 6.47850E+01 7.90325E+00 0.00000E+00
 -1      2849 6.40350E+01 9.20225E+00 0.00000E+00
 -1      2850 6.92850E+01 7.90325E+00 0.00000E+00
 -1      2851 6.77850E+01 7.90325E+00 0.00000E+00
 -1      2852 6.70350E+01 9.20225E+00 0.00000E+00
 -1      2853 7.22850E+01 7.90325E+00 0.00000E+00
 -1      2854 7.07850E+01 7.90325E+00 0.00000E+00
 -1      2855 7.00350E+01 9.20225E+00 0.00000E+00
 -1      2856 7.52850E+01 7.90325E+00 0.00000E+00
 -1      2857 7.37850E+01 7.90325E+00 0.00000E+00
 -1      2858 7.30350E+01 9.20225E+00 0.00000E+00
 -1      2859 7.82850E+01 7.90325E+00 0.00000E+00
 -1      2860 7.67850E+01 7.90325E+00 0.00000E+00
 -1      2861 7.60350E+01 9.20225E+00 0.00000E+00
 -1      2862 8.12850E+01 7.90325E+00 0.00000E+00
 -1      2863 7.97850E+01 7.90325E+00 0.00000E+00
 -1      2864 7.90350E+01 9.20225E+00 0.00000E+00
 -1      2865 8.42850E+01 7.90325E+00 0.00000E+00
 -1      2866 8.27850E+01 7.90325E+00 0.00000E+00
 -1      2867 8.20350E+01 9.20225E+00 0.00000E+00
 -1      2868 8.72850E+01 7.90325E+00 0.00000E+00
 -1      2869 8.57850E+01 7.90325E+00 0.00000E+00
 -1      2870 8.50350E+01 9.20225E+00 0.00000E+00
 -1      2871 9.02850E+01 7.90325E+00 0.00000E+00
 -1      2872 8.87850E+01 7.90325E+00 0.00000E+00
 -1      2873 8.80350E+01 9.20225E+00 0.00000E+00
 -1      2874 9.32850E+01 7.90325E+00 0.00000E+00
 -1      2875 9.17850E+01 7.90325E+00 0.00000E+00
 -1      2876 9.10350E+01 9.20225E+00 0.00000E+00
 -1      2877 9.62850E+01 7.90325E+00 0.00000E+00
 -1      2878 9.47850E+01 7.90325E+00 0.00000E+00
 -1      2879 9.40350E+01 9.20225E+00 0.00000E+00
 -1      2880 9.92850E+01 7.90325E+00 0.00000E+00
 -1      2881 9.77850E+01 7.90325E+00 0.00000E+00
 -1      2882 9.70350E+01 9.20225E+00 0.00000E+00
 -1      2883 1.02285E+02 7.90325E+00 0.00000E+00
 -1      2884 1.00785E+02 7.90325E+00 0.00000E+00
 -1      2885 1.00035E+02 9.20225E+00 0.00000E+00
 -1      2886 1.05285E+02 7.90325E+00 0.00000E+00
 -1      2887 1.03785E+02 7.90325E+00 0.00000E+00
 -1      2888 1.03035E+02 9.20225E+00 0.00000E+00
 -1      2889 1.08285E+02 7.90325E+00 0.00000E+00
 -1      2890 1.06785E+02 7.90325E+00 0.00000E+00
 -1      2891 1.06035E+02 9.20225E+00 0.00000E+00
 -1      2892 1.11285E+02 7.90325E+00 0.00000E+00
 -1      2893 1.09785E+02 7.90325E+00 0.00000E+00
 -1      2894 1.09035E+02 9.20225E+00 0.00000E+00
 -1      2895 1.14285E+02 7.90325E+00 0.00000E+00
 -1      2896 1.12785E+02 7.90325E+00 0.00000E+00
 -1      2897 1.12035E+02 9.20225E+00 0.00000E+00
 -1      2898 1.17285E+02 7.90325E+00 0.00000E+00
 -1      2899 1.15785E+02 7.90325E+00 0.00000E+00
 -1      2900 1.15035E+02 9.20225E+00 0.00000E+00
 -1      2901 1.20285E+02 7.90325E+00 0.00000E+00
 -1      2902 1.18785E+02 7.90325E+00 0.00000E+00
 -1      2903 1.18035E+02 9.20225E+00 0.00000E+00
 -1      2904 1.23285E+02 7.90325E+00 0.00000E+00
 -1      2905 1.21785E+02 7.90325E+00 0.00000E+00
 -1      2906 1.21035E+02 9.20225E+00 0.00000E+00
 -1      2907 1.26285E+02 7.90325E+00 0.00000E+00
 -1      2908 1.24785E+02 7.90325E+00 0.00000E+00
 -1      2909 1.24035E+02 9.20225E+00 0.00000E+00
 -1      2910 1.29285E+02 7.90325E+00 0.00000E+00
 -1      2911 1.27785E+02 7.90325E+00 0.00000E+00
 -1      2912 1.27035E+02 9.20225E+00 0.00000E+00
 -1      2913 1.32285E+02 7.90325E+00 0.00000E+00
 -1      2914 1.30785E+02 7.90325E+00 0.00000E+00
 -1      2915 1.30035E+02 9.20225E+00 0.00000E+00
 -1      2916 1.35285E+02 7.90325E+00 0.00000E+00
 -1      2917 1.33785E+02 7.90325E+00 0.00000E+00
 -1      2918 1.33035E+02 9.20225E+00 0.00000E+00
 -1      2919 1.38285E+02 7.90325E+00 0.00000E+00
 -1      2920 1.36785E+02 7.90325E+00 0.00000E+00
 -1      2921 1.36035E+02 9.20225E+00 0.00000E+00
 -1      2922 1.40953E+02 8.18394E+00 0.00000E+00
 -1      2923 1.39453E+02 8.18394E+00 0.00000E+00
 -1      2924 1.38703E+02 9.48294E+00 0.00000E+00
 -1      2925 1.41038E+02 1.00443E+01 0.00000E+00
 -1      2926 1.40907E+02 2.42875E+01 0.00000E+00
 -1      2927 1.40907E+02 2.28125E+01 0.00000E+00
 -1      2928 1.39914E+02 4.09362E+01 0.00000E+00
 -1      2929 1.40928E+02 4.09655E+01 0.00000E+00
 -1      2930 1.39164E+02 3.96372E+01 0.00000E+00
 -1      2931 1.40907E+02 1.83875E+01 0.00000E+00
 -1      2932 1.40907E+02 1.69125E+01 0.00000E+00
 -1      2933 1.40907E+02 2.72375E+01 0.00000E+00
 -1      2934 1.40907E+02 2.57625E+01 0.00000E+00
 -1      2935 1.39608E+02 2.50250E+01 0.00000E+00
 -1      2936 1.40907E+02 2.13375E+01 0.00000E+00
 -1      2937 1.40907E+02 1.98625E+01 0.00000E+00
 -1      2938 1.39608E+02 1.91250E+01 0.00000E+00
 -1      2939 1.39608E+02 2.20750E+01 0.00000E+00
 -1      2940 1.82850E+01 7.90325E+00 0.00000E+00
 -1      2941 1.67850E+01 7.90325E+00 0.00000E+00
 -1      2942 1.90350E+01 9.20225E+00 0.00000E+00
 -1      2943 1.40907E+02 3.01375E+01 0.00000E+00
 -1      2944 1.40907E+02 2.86875E+01 0.00000E+00
 -1      2945 1.39608E+02 2.79500E+01 0.00000E+00
 -1      2946 1.40907E+02 3.30875E+01 0.00000E+00
 -1      2947 1.40907E+02 3.16125E+01 0.00000E+00
 -1      2948 1.39608E+02 3.08750E+01 0.00000E+00
 -1      2949 1.40907E+02 3.60375E+01 0.00000E+00
 -1      2950 1.40907E+02 3.45625E+01 0.00000E+00
 -1      2951 1.39608E+02 3.38250E+01 0.00000E+00
 -1      2952 4.14020E+01 1.71414E+01 0.00000E+00
 -1      2953 4.21461E+01 1.59126E+01 0.00000E+00
 -1      2954 6.22091E+01 1.44695E+01 0.00000E+00
 -1      2955 6.29597E+01 1.55971E+01 0.00000E+00
 -1      2956 2.72850E+01 7.90325E+00 0.00000E+00
 -1      2957 2.57850E+01 7.90325E+00 0.00000E+00
 -1      2958 2.50350E+01 9.20225E+00 0.00000E+00
 -1      2959 2.80350E+01 9.20225E+00 0.00000E+00
 -1      2960 1.14000E+01 4.09070E+01 0.00000E+00
 -1      2961 1.29000E+01 4.09070E+01 0.00000E+00
 -1      2962 1.36500E+01 3.96080E+01 0.00000E+00
 -1      2963 4.08063E+01 1.95270E+01 0.00000E+00
 -1      2964 4.09777E+01 1.85966E+01 0.00000E+00
 -1      2965 6.35676E+01 1.68722E+01 0.00000E+00
 -1      2966 6.40095E+01 1.79014E+01 0.00000E+00
 -1      2967 1.52850E+01 7.90325E+00 0.00000E+00
 -1      2968 1.37850E+01 7.90325E+00 0.00000E+00
 -1      2969 1.30350E+01 9.20225E+00 0.00000E+00
 -1      2970 1.60350E+01 9.20225E+00 0.00000E+00
 -1      2971 4.93196E+01 3.38411E+01 0.00000E+00
 -1      2972 4.82708E+01 3.33514E+01 0.00000E+00
 -1      2973 5.74278E+01 1.13056E+01 0.00000E+00
 -1      2974 5.87174E+01 1.17401E+01 0.00000E+00
 -1      2975 5.71483E+01 1.02537E+01 0.00000E+00
 -1      2976 6.43127E+01 2.45961E+01 0.00000E+00
 -1      2977 6.38810E+01 2.56537E+01 0.00000E+00
 -1      2978 6.23673E+01 2.89845E+01 0.00000E+00
 -1      2979 6.17966E+01 2.97985E+01 0.00000E+00
 -1      2980 9.09300E+00 1.68813E+01 0.00000E+00
 -1      2981 9.09300E+00 1.83563E+01 0.00000E+00
 -1      2982 1.03920E+01 1.90812E+01 0.00000E+00
 -1      2983 1.03920E+01 1.61437E+01 0.00000E+00
 -1      2984 4.51923E+01 1.29426E+01 0.00000E+00
 -1      2985 4.63410E+01 1.25302E+01 0.00000E+00
 -1      2986 9.09300E+00 3.15875E+01 0.00000E+00
 -1      2987 9.09300E+00 3.30625E+01 0.00000E+00
 -1      2988 4.29757E+01 1.47169E+01 0.00000E+00
 -1      2989 4.37321E+01 1.37802E+01 0.00000E+00
 -1      2990 6.01015E+01 1.24945E+01 0.00000E+00
 -1      2991 6.10933E+01 1.33353E+01 0.00000E+00
 -1      2992 4.99153E+01 1.04622E+01 0.00000E+00
 -1      2993 5.11859E+01 1.01039E+01 0.00000E+00
 -1      2994 4.13581E+01 2.70050E+01 0.00000E+00
 -1      2995 4.09609E+01 2.58731E+01 0.00000E+00
 -1      2996 4.43785E+01 3.13717E+01 0.00000E+00
 -1      2997 4.37081E+01 3.03427E+01 0.00000E+00
 -1      2998 4.04803E+01 2.20594E+01 0.00000E+00
 -1      2999 4.05768E+01 2.07391E+01 0.00000E+00
 -1      3000 5.44792E+01 3.43364E+01 0.00000E+00
 -1      3001 5.32616E+01 3.46135E+01 0.00000E+00
 -1      3002 1.41192E+02 3.96958E+01 0.00000E+00
 -1      3003 5.62072E+01 3.37532E+01 0.00000E+00
 -1      3004 5.53432E+01 3.40448E+01 0.00000E+00
 -1      3005 5.49433E+01 3.51012E+01 0.00000E+00
 -1      3006 4.05003E+01 2.45561E+01 0.00000E+00
 -1      3007 4.04000E+01 2.34386E+01 0.00000E+00
 -1      3008 6.40997E+01 2.18288E+01 0.00000E+00
 -1      3009 6.42145E+01 2.29910E+01 0.00000E+00
 -1      3010 5.17168E+01 3.44687E+01 0.00000E+00
 -1      3011 5.05893E+01 3.42250E+01 0.00000E+00
 -1      3012 8.96362E+00 4.05429E+01 0.00000E+00
 -1      3013 1.03271E+01 4.08069E+01 0.00000E+00
 -1      3014 1.10771E+01 3.95079E+01 0.00000E+00
 -1      3015 8.93137E+00 3.93078E+01 0.00000E+00
 -1      3016 4.66808E+01 1.15440E+01 0.00000E+00
 -1      3017 1.03920E+01 2.49750E+01 0.00000E+00
 -1      3018 9.09300E+00 2.57000E+01 0.00000E+00
 -1      3019 9.09300E+00 2.71750E+01 0.00000E+00
 -1      3020 4.97199E+01 3.47192E+01 0.00000E+00
 -1      3021 5.25345E+01 3.52480E+01 0.00000E+00
 -1      3022 5.18073E+01 3.58825E+01 0.00000E+00
 -1      3023 5.33521E+01 3.60273E+01 0.00000E+00
 -1      3024 6.47315E+01 2.10892E+01 0.00000E+00
 -1      3025 3.95094E+01 2.27098E+01 0.00000E+00
 -1      3026 6.42373E+01 2.64522E+01 0.00000E+00
 -1      3027 4.47579E+01 3.21127E+01 0.00000E+00
 -1      3028 4.35638E+01 3.21577E+01 0.00000E+00
 -1      3029 4.51373E+01 3.28536E+01 0.00000E+00
 -1      3030 4.13906E+01 2.78464E+01 0.00000E+00
 -1      3031 4.03829E+01 2.75644E+01 0.00000E+00
 -1      3032 4.14231E+01 2.86878E+01 0.00000E+00
 -1      3033 6.45947E+01 1.84300E+01 0.00000E+00
 -1      3034 6.51798E+01 1.89585E+01 0.00000E+00
 -1      3035 6.52387E+01 1.75440E+01 0.00000E+00
 -1      3036 1.39608E+02 1.61875E+01 0.00000E+00
 -1      3037 1.40907E+02 1.54500E+01 0.00000E+00
 -1      3038 1.40907E+02 1.39875E+01 0.00000E+00
 -1      3039 6.37680E+01 2.82596E+01 0.00000E+00
 -1      3040 6.30676E+01 2.86220E+01 0.00000E+00
 -1      3041 6.34845E+01 2.95213E+01 0.00000E+00
 -1      3042 5.11764E+01 8.03097E+00 0.00000E+00
 -1      3043 4.96764E+01 8.03097E+00 0.00000E+00
 -1      3044 6.04864E+01 9.94519E+00 0.00000E+00
 -1      3045 5.97364E+01 8.64619E+00 0.00000E+00
 -1      3046 5.82364E+01 8.64619E+00 0.00000E+00
 -1      3047 5.98220E+01 1.14425E+01 0.00000E+00
 -1      3048 4.40166E+01 1.27669E+01 0.00000E+00
 -1      3049 1.40973E+02 1.27472E+01 0.00000E+00
 -1      3050 1.40973E+02 1.12847E+01 0.00000E+00
 -1      3051 1.39805E+02 1.10040E+01 0.00000E+00
 -1      3052 1.39674E+02 1.34847E+01 0.00000E+00
 -1      3053 6.23220E+01 1.33310E+01 0.00000E+00
 -1      3054 4.17268E+01 1.48002E+01 0.00000E+00
 -1      3055 1.41192E+02 3.82207E+01 0.00000E+00
 -1      3056 9.66450E+00 9.72612E+00 0.00000E+00
 -1      3057 6.40457E+01 1.57403E+01 0.00000E+00
 -1      3058 5.93024E+01 3.20294E+01 0.00000E+00
 -1      3059 5.90531E+01 3.28625E+01 0.00000E+00
 -1      3060 6.01619E+01 3.21099E+01 0.00000E+00
 -1      3061 4.28076E+01 3.01932E+01 0.00000E+00
 -1      3062 4.73908E+01 3.35720E+01 0.00000E+00
 -1      3063 6.15977E+01 3.05802E+01 0.00000E+00
 -1      3064 6.13987E+01 3.13620E+01 0.00000E+00
 -1      3065 6.25852E+01 3.06655E+01 0.00000E+00
 -1      3066 5.19608E+01 9.33947E+00 0.00000E+00
 -1      3067 3.98192E+01 2.01185E+01 0.00000E+00
 -1      3068 9.09300E+00 2.86437E+01 0.00000E+00
 -1      3069 9.09300E+00 3.01187E+01 0.00000E+00
 -1      3070 1.03920E+01 3.08563E+01 0.00000E+00
 -1      3071 1.03920E+01 2.79188E+01 0.00000E+00
 -1      3072 1.09635E+01 1.04636E+01 0.00000E+00
 -1      3073 6.50253E+01 2.39389E+01 0.00000E+00
 -1      3074 6.58361E+01 2.48868E+01 0.00000E+00
 -1      3075 6.57379E+01 2.32818E+01 0.00000E+00
 -1      3076 1.03920E+01 3.37938E+01 0.00000E+00
 -1      3077 9.09300E+00 3.45313E+01 0.00000E+00
 -1      3078 9.09300E+00 3.60000E+01 0.00000E+00
 -1      3079 3.98897E+01 2.54060E+01 0.00000E+00
 -1      3080 5.70005E+01 3.37958E+01 0.00000E+00
 -1      3081 5.66006E+01 3.48522E+01 0.00000E+00
 -1      3082 5.77938E+01 3.38384E+01 0.00000E+00
 -1      3083 1.39529E+02 3.85602E+01 0.00000E+00
 -1      3084 1.40542E+02 3.71145E+01 0.00000E+00
 -1      3085 1.39243E+02 3.63770E+01 0.00000E+00
 -1      3086 1.38514E+02 3.85310E+01 0.00000E+00
 -1      3087 6.47427E+01 1.46255E+01 0.00000E+00
 -1      3088 6.53506E+01 1.59007E+01 0.00000E+00
 -1      3089 1.16910E+01 1.24625E+01 0.00000E+00
 -1      3090 1.16910E+01 1.39375E+01 0.00000E+00
 -1      3091 6.18706E+01 1.06996E+01 0.00000E+00
 -1      3092 1.59000E+01 3.83090E+01 0.00000E+00
 -1      3093 1.74000E+01 3.83090E+01 0.00000E+00
 -1      3094 8.99606E+00 3.70363E+01 0.00000E+00
 -1      3095 9.02831E+00 3.82715E+01 0.00000E+00
 -1      3096 1.01012E+01 3.83715E+01 0.00000E+00
 -1      3097 1.02951E+01 3.62988E+01 0.00000E+00
 -1      3098 4.04729E+01 1.74512E+01 0.00000E+00
 -1      3099 6.55404E+01 2.64433E+01 0.00000E+00
 -1      3100 6.46542E+01 2.73514E+01 0.00000E+00
 -1      3101 6.50710E+01 2.82507E+01 0.00000E+00
 -1      3102 1.89000E+01 3.83090E+01 0.00000E+00
 -1      3103 2.04000E+01 3.83090E+01 0.00000E+00
 -1      3104 1.81500E+01 3.70100E+01 0.00000E+00
 -1      3105 2.19000E+01 3.83090E+01 0.00000E+00
 -1      3106 2.34000E+01 3.83090E+01 0.00000E+00
 -1      3107 2.11500E+01 3.70100E+01 0.00000E+00
 -1      3108 2.49000E+01 3.83090E+01 0.00000E+00
 -1      3109 2.64000E+01 3.83090E+01 0.00000E+00
 -1      3110 2.41500E+01 3.70100E+01 0.00000E+00
 -1      3111 2.79000E+01 3.83090E+01 0.00000E+00
 -1      3112 2.94000E+01 3.83090E+01 0.00000E+00
 -1      3113 2.71500E+01 3.70100E+01 0.00000E+00
 -1      3114 3.09000E+01 3.83090E+01 0.00000E+00
 -1      3115 3.24000E+01 3.83090E+01 0.00000E+00
 -1      3116 3.01500E+01 3.70100E+01 0.00000E+00
 -1      3117 3.39000E+01 3.83090E+01 0.00000E+00
 -1      3118 3.54000E+01 3.83090E+01 0.00000E+00
 -1      3119 3.31500E+01 3.70100E+01 0.00000E+00
 -1      3120 3.69000E+01 3.83090E+01 0.00000E+00
 -1      3121 3.84000E+01 3.83090E+01 0.00000E+00
 -1      3122 3.61500E+01 3.70100E+01 0.00000E+00
 -1      3123 3.99000E+01 3.83090E+01 0.00000E+00
 -1      3124 4.14000E+01 3.83090E+01 0.00000E+00
 -1      3125 3.91500E+01 3.70100E+01 0.00000E+00
 -1      3126 4.29000E+01 3.83090E+01 0.00000E+00
 -1      3127 4.44000E+01 3.83090E+01 0.00000E+00
 -1      3128 4.21500E+01 3.70100E+01 0.00000E+00
 -1      3129 4.59000E+01 3.83090E+01 0.00000E+00
 -1      3130 4.74000E+01 3.83090E+01 0.00000E+00
 -1      3131 4.51500E+01 3.70100E+01 0.00000E+00
 -1      3132 5.18875E+01 3.81349E+01 0.00000E+00
 -1      3133 5.33875E+01 3.81349E+01 0.00000E+00
 -1      3134 5.49787E+01 3.72088E+01 0.00000E+00
 -1      3135 5.64787E+01 3.72088E+01 0.00000E+00
 -1      3136 6.09000E+01 3.83090E+01 0.00000E+00
 -1      3137 6.24000E+01 3.83090E+01 0.00000E+00
 -1      3138 6.39000E+01 3.83090E+01 0.00000E+00
 -1      3139 6.54000E+01 3.83090E+01 0.00000E+00
 -1      3140 6.31500E+01 3.70100E+01 0.00000E+00
 -1      3141 6.69000E+01 3.83090E+01 0.00000E+00
 -1      3142 6.84000E+01 3.83090E+01 0.00000E+00
 -1      3143 6.61500E+01 3.70100E+01 0.00000E+00
 -1      3144 6.99000E+01 3.83090E+01 0.00000E+00
 -1      3145 7.14000E+01 3.83090E+01 0.00000E+00
 -1      3146 6.91500E+01 3.70100E+01 0.00000E+00
 -1      3147 7.29000E+01 3.83090E+01 0.00000E+00
 -1      3148 7.44000E+01 3.83090E+01 0.00000E+00
 -1      3149 7.21500E+01 3.70100E+01 0.00000E+00
 -1      3150 7.59000E+01 3.83090E+01 0.00000E+00
 -1      3151 7.74000E+01 3.83090E+01 0.00000E+00
 -1      3152 7.51500E+01 3.70100E+01 0.00000E+00
 -1      3153 7.89000E+01 3.83090E+01 0.00000E+00
 -1      3154 8.04000E+01 3.83090E+01 0.00000E+00
 -1      3155 7.81500E+01 3.70100E+01 0.00000E+00
 -1      3156 8.19000E+01 3.83090E+01 0.00000E+00
 -1      3157 8.34000E+01 3.83090E+01 0.00000E+00
 -1      3158 8.11500E+01 3.70100E+01 0.00000E+00
 -1      3159 8.49000E+01 3.83090E+01 0.00000E+00
 -1      3160 8.64000E+01 3.83090E+01 0.00000E+00
 -1      3161 8.41500E+01 3.70100E+01 0.00000E+00
 -1      3162 8.79000E+01 3.83090E+01 0.00000E+00
 -1      3163 8.94000E+01 3.83090E+01 0.00000E+00
 -1      3164 8.71500E+01 3.70100E+01 0.00000E+00
 -1      3165 9.09000E+01 3.83090E+01 0.00000E+00
 -1      3166 9.24000E+01 3.83090E+01 0.00000E+00
 -1      3167 9.01500E+01 3.70100E+01 0.00000E+00
 -1      3168 9.39000E+01 3.83090E+01 0.00000E+00
 -1      3169 9.54000E+01 3.83090E+01 0.00000E+00
 -1      3170 9.31500E+01 3.70100E+01 0.00000E+00
 -1      3171 9.69000E+01 3.83090E+01 0.00000E+00
 -1      3172 9.84000E+01 3.83090E+01 0.00000E+00
 -1      3173 9.61500E+01 3.70100E+01 0.00000E+00
 -1      3174 9.99000E+01 3.83090E+01 0.00000E+00
 -1      3175 1.01400E+02 3.83090E+01 0.00000E+00
 -1      3176 9.91500E+01 3.70100E+01 0.00000E+00
 -1      3177 1.02900E+02 3.83090E+01 0.00000E+00
 -1      3178 1.04400E+02 3.83090E+01 0.00000E+00
 -1      3179 1.02150E+02 3.70100E+01 0.00000E+00
 -1      3180 1.05900E+02 3.83090E+01 0.00000E+00
 -1      3181 1.07400E+02 3.83090E+01 0.00000E+00
 -1      3182 1.05150E+02 3.70100E+01 0.00000E+00
 -1      3183 1.08900E+02 3.83090E+01 0.00000E+00
 -1      3184 1.10400E+02 3.83090E+01 0.00000E+00
 -1      3185 1.08150E+02 3.70100E+01 0.00000E+00
 -1      3186 1.11900E+02 3.83090E+01 0.00000E+00
 -1      3187 1.13400E+02 3.83090E+01 0.00000E+00
 -1      3188 1.11150E+02 3.70100E+01 0.00000E+00
 -1      3189 1.14900E+02 3.83090E+01 0.00000E+00
 -1      3190 1.16400E+02 3.83090E+01 0.00000E+00
 -1      3191 1.14150E+02 3.70100E+01 0.00000E+00
 -1      3192 1.17900E+02 3.83090E+01 0.00000E+00
 -1      3193 1.19400E+02 3.83090E+01 0.00000E+00
 -1      3194 1.17150E+02 3.70100E+01 0.00000E+00
 -1      3195 1.20900E+02 3.83090E+01 0.00000E+00
 -1      3196 1.22400E+02 3.83090E+01 0.00000E+00
 -1      3197 1.20150E+02 3.70100E+01 0.00000E+00
 -1      3198 1.23900E+02 3.83090E+01 0.00000E+00
 -1      3199 1.25400E+02 3.83090E+01 0.00000E+00
 -1      3200 1.23150E+02 3.70100E+01 0.00000E+00
 -1      3201 1.26900E+02 3.83090E+01 0.00000E+00
 -1      3202 1.28400E+02 3.83090E+01 0.00000E+00
 -1      3203 1.26150E+02 3.70100E+01 0.00000E+00
 -1      3204 1.29900E+02 3.83090E+01 0.00000E+00
 -1      3205 1.31400E+02 3.83090E+01 0.00000E+00
 -1      3206 1.29150E+02 3.70100E+01 0.00000E+00
 -1      3207 1.32900E+02 3.83090E+01 0.00000E+00
 -1      3208 1.34400E+02 3.83090E+01 0.00000E+00
 -1      3209 1.32150E+02 3.70100E+01 0.00000E+00
 -1      3210 1.35707E+02 3.84200E+01 0.00000E+00
 -1      3211 1.37207E+02 3.84200E+01 0.00000E+00
 -1      3212 1.37572E+02 3.73430E+01 0.00000E+00
 -1      3213 1.34957E+02 3.71210E+01 0.00000E+00
 -1      3214 1.38309E+02 2.86750E+01 0.00000E+00
 -1      3215 1.38309E+02 2.72250E+01 0.00000E+00
 -1      3216 4.91013E+01 1.03082E+01 0.00000E+00
 -1      3217 3.47850E+01 1.05013E+01 0.00000E+00
 -1      3218 3.32850E+01 1.05013E+01 0.00000E+00
 -1      3219 3.17850E+01 1.05013E+01 0.00000E+00
 -1      3220 3.02850E+01 1.05013E+01 0.00000E+00
 -1      3221 3.25350E+01 1.18003E+01 0.00000E+00
 -1      3222 4.07850E+01 1.05013E+01 0.00000E+00
 -1      3223 3.92850E+01 1.05013E+01 0.00000E+00
 -1      3224 4.62098E+01 1.01804E+01 0.00000E+00
 -1      3225 7.37850E+01 1.05013E+01 0.00000E+00
 -1      3226 7.22850E+01 1.05013E+01 0.00000E+00
 -1      3227 7.67850E+01 1.05013E+01 0.00000E+00
 -1      3228 7.52850E+01 1.05013E+01 0.00000E+00
 -1      3229 7.45350E+01 1.18003E+01 0.00000E+00
 -1      3230 7.97850E+01 1.05013E+01 0.00000E+00
 -1      3231 7.82850E+01 1.05013E+01 0.00000E+00
 -1      3232 7.75350E+01 1.18003E+01 0.00000E+00
 -1      3233 8.27850E+01 1.05013E+01 0.00000E+00
 -1      3234 8.12850E+01 1.05013E+01 0.00000E+00
 -1      3235 8.05350E+01 1.18003E+01 0.00000E+00
 -1      3236 8.57850E+01 1.05013E+01 0.00000E+00
 -1      3237 8.42850E+01 1.05013E+01 0.00000E+00
 -1      3238 8.35350E+01 1.18003E+01 0.00000E+00
 -1      3239 8.87850E+01 1.05013E+01 0.00000E+00
 -1      3240 8.72850E+01 1.05013E+01 0.00000E+00
 -1      3241 8.65350E+01 1.18003E+01 0.00000E+00
 -1      3242 9.17850E+01 1.05013E+01 0.00000E+00
 -1      3243 9.02850E+01 1.05013E+01 0.00000E+00
 -1      3244 8.95350E+01 1.18003E+01 0.00000E+00
 -1      3245 9.47850E+01 1.05013E+01 0.00000E+00
 -1      3246 9.32850E+01 1.05013E+01 0.00000E+00
 -1      3247 9.25350E+01 1.18003E+01 0.00000E+00
 -1      3248 9.77850E+01 1.05013E+01 0.00000E+00
 -1      3249 9.62850E+01 1.05013E+01 0.00000E+00
 -1      3250 9.55350E+01 1.18003E+01 0.00000E+00
 -1      3251 1.00785E+02 1.05013E+01 0.00000E+00
 -1      3252 9.92850E+01 1.05013E+01 0.00000E+00
 -1      3253 9.85350E+01 1.18003E+01 0.00000E+00
 -1      3254 1.03785E+02 1.05013E+01 0.00000E+00
 -1      3255 1.02285E+02 1.05013E+01 0.00000E+00
 -1      3256 1.01535E+02 1.18003E+01 0.00000E+00
 -1      3257 1.06785E+02 1.05013E+01 0.00000E+00
 -1      3258 1.05285E+02 1.05013E+01 0.00000E+00
 -1      3259 1.04535E+02 1.18003E+01 0.00000E+00
 -1      3260 1.09785E+02 1.05013E+01 0.00000E+00
 -1      3261 1.08285E+02 1.05013E+01 0.00000E+00
 -1      3262 1.07535E+02 1.18003E+01 0.00000E+00
 -1      3263 1.12785E+02 1.05013E+01 0.00000E+00
 -1      3264 1.11285E+02 1.05013E+01 0.00000E+00
 -1      3265 1.10535E+02 1.18003E+01 0.00000E+00
 -1      3266 1.15785E+02 1.05013E+01 0.00000E+00
 -1      3267 1.14285E+02 1.05013E+01 0.00000E+00
 -1      3268 1.13535E+02 1.18003E+01 0.00000E+00
 -1      3269 1.18785E+02 1.05013E+01 0.00000E+00
 -1      3270 1.17285E+02 1.05013E+01 0.00000E+00
 -1      3271 1.16535E+02 1.18003E+01 0.00000E+00
 -1      3272 1.21785E+02 1.05013E+01 0.00000E+00
 -1      3273 1.20285E+02 1.05013E+01 0.00000E+00
 -1      3274 1.19535E+02 1.18003E+01 0.00000E+00
 -1      3275 1.24785E+02 1.05013E+01 0.00000E+00
 -1      3276 1.23285E+02 1.05013E+01 0.00000E+00
 -1      3277 1.22535E+02 1.18003E+01 0.00000E+00
 -1      3278 1.27785E+02 1.05013E+01 0.00000E+00
 -1      3279 1.26285E+02 1.05013E+01 0.00000E+00
 -1      3280 1.25535E+02 1.18003E+01 0.00000E+00
 -1      3281 1.30785E+02 1.05013E+01 0.00000E+00
 -1      3282 1.29285E+02 1.05013E+01 0.00000E+00
 -1      3283 1.28535E+02 1.18003E+01 0.00000E+00
 -1      3284 1.33785E+02 1.05013E+01 0.00000E+00
 -1      3285 1.32285E+02 1.05013E+01 0.00000E+00
 -1      3286 1.31535E+02 1.18003E+01 0.00000E+00
 -1      3287 1.36785E+02 1.05013E+01 0.00000E+00
 -1      3288 1.35285E+02 1.05013E+01 0.00000E+00
 -1      3289 1.34535E+02 1.18003E+01 0.00000E+00
 -1      3290 1.38879E+02 1.08930E+01 0.00000E+00
 -1      3291 1.37711E+02 1.06123E+01 0.00000E+00
 -1      3292 1.36961E+02 1.19113E+01 0.00000E+00
 -1      3293 1.38813E+02 1.21333E+01 0.00000E+00
 -1      3294 1.97850E+01 1.05013E+01 0.00000E+00
 -1      3295 1.82850E+01 1.05013E+01 0.00000E+00
 -1      3296 1.38309E+02 2.57500E+01 0.00000E+00
 -1      3297 1.38309E+02 2.42750E+01 0.00000E+00
 -1      3298 1.37010E+02 2.64750E+01 0.00000E+00
 -1      3299 1.38309E+02 3.45625E+01 0.00000E+00
 -1      3300 1.38309E+02 3.30875E+01 0.00000E+00
 -1      3301 5.01066E+01 3.57320E+01 0.00000E+00
 -1      3302 4.88368E+01 3.53481E+01 0.00000E+00
 -1      3303 4.50059E+01 1.05658E+01 0.00000E+00
 -1      3304 3.83623E+01 2.33349E+01 0.00000E+00
 -1      3305 3.84425E+01 2.19558E+01 0.00000E+00
 -1      3306 1.26488E+01 1.02017E+01 0.00000E+00
 -1      3307 1.20772E+01 1.14631E+01 0.00000E+00
 -1      3308 1.33763E+01 1.22006E+01 0.00000E+00
 -1      3309 1.41488E+01 1.02017E+01 0.00000E+00
 -1      3310 1.29000E+01 3.83090E+01 0.00000E+00
 -1      3311 1.44000E+01 3.83090E+01 0.00000E+00
 -1      3312 1.51500E+01 3.70100E+01 0.00000E+00
 -1      3313 1.38309E+02 3.16187E+01 0.00000E+00
 -1      3314 1.38309E+02 3.01437E+01 0.00000E+00
 -1      3315 1.37010E+02 2.94188E+01 0.00000E+00
 -1      3316 1.37010E+02 3.23563E+01 0.00000E+00
 -1      3317 7.07850E+01 1.05013E+01 0.00000E+00
 -1      3318 6.92850E+01 1.05013E+01 0.00000E+00
 -1      3319 7.15350E+01 1.18003E+01 0.00000E+00
 -1      3320 6.77850E+01 1.05013E+01 0.00000E+00
 -1      3321 6.62850E+01 1.05013E+01 0.00000E+00
 -1      3322 6.85350E+01 1.18003E+01 0.00000E+00
 -1      3323 3.77850E+01 1.05013E+01 0.00000E+00
 -1      3324 3.62850E+01 1.05013E+01 0.00000E+00
 -1      3325 3.55350E+01 1.18003E+01 0.00000E+00
 -1      3326 3.85350E+01 1.18003E+01 0.00000E+00
 -1      3327 2.27850E+01 1.05013E+01 0.00000E+00
 -1      3328 2.12850E+01 1.05013E+01 0.00000E+00
 -1      3329 2.05350E+01 1.18003E+01 0.00000E+00
 -1      3330 6.27487E+01 1.20955E+01 0.00000E+00
 -1      3331 6.38645E+01 1.32296E+01 0.00000E+00
 -1      3332 6.51695E+01 1.33900E+01 0.00000E+00
 -1      3333 6.34132E+01 1.05982E+01 0.00000E+00
 -1      3334 4.21766E+01 3.11348E+01 0.00000E+00
 -1      3335 4.17999E+01 2.99113E+01 0.00000E+00
 -1      3336 4.07921E+01 2.96293E+01 0.00000E+00
 -1      3337 4.05386E+01 1.48615E+01 0.00000E+00
 -1      3338 4.13682E+01 1.36657E+01 0.00000E+00
 -1      3339 1.16910E+01 2.12875E+01 0.00000E+00
 -1      3340 1.16910E+01 2.27625E+01 0.00000E+00
 -1      3341 3.88619E+01 2.05651E+01 0.00000E+00
 -1      3342 3.90913E+01 1.93530E+01 0.00000E+00
 -1      3343 4.73211E+01 3.47853E+01 0.00000E+00
 -1      3344 4.62618E+01 3.40220E+01 0.00000E+00
 -1      3345 6.54808E+01 2.03337E+01 0.00000E+00
 -1      3346 6.56765E+01 2.15783E+01 0.00000E+00
 -1      3347 3.91962E+01 1.78684E+01 0.00000E+00
 -1      3348 3.96205E+01 1.64132E+01 0.00000E+00
 -1      3349 3.93106E+01 2.63476E+01 0.00000E+00
 -1      3350 3.88500E+01 2.50306E+01 0.00000E+00
 -1      3351 1.16910E+01 2.42375E+01 0.00000E+00
 -1      3352 1.16910E+01 2.57125E+01 0.00000E+00
 -1      3353 1.29900E+01 2.35000E+01 0.00000E+00
 -1      3354 1.29900E+01 1.46687E+01 0.00000E+00
 -1      3355 1.16910E+01 1.54063E+01 0.00000E+00
 -1      3356 1.16910E+01 1.68750E+01 0.00000E+00
 -1      3357 5.87719E+01 3.72514E+01 0.00000E+00
 -1      3358 5.95219E+01 3.59524E+01 0.00000E+00
 -1      3359 6.62530E+01 2.57861E+01 0.00000E+00
 -1      3360 6.66698E+01 2.66854E+01 0.00000E+00
 -1      3361 6.69656E+01 2.51290E+01 0.00000E+00
 -1      3362 4.50677E+01 3.40670E+01 0.00000E+00
 -1      3363 4.01075E+01 1.27636E+01 0.00000E+00
 -1      3364 4.12957E+01 1.27024E+01 0.00000E+00
 -1      3365 6.59358E+01 1.64292E+01 0.00000E+00
 -1      3366 6.65209E+01 1.69578E+01 0.00000E+00
 -1      3367 6.66328E+01 1.53145E+01 0.00000E+00
 -1      3368 1.38309E+02 1.69188E+01 0.00000E+00
 -1      3369 1.38309E+02 1.54563E+01 0.00000E+00
 -1      3370 4.89000E+01 3.84153E+01 0.00000E+00
 -1      3371 5.04000E+01 3.84153E+01 0.00000E+00
 -1      3372 5.72719E+01 3.72514E+01 0.00000E+00
 -1      3373 6.56632E+01 1.18972E+01 0.00000E+00
 -1      3374 6.49132E+01 1.05982E+01 0.00000E+00
 -1      3375 2.42850E+01 1.05013E+01 0.00000E+00
 -1      3376 2.35350E+01 1.18003E+01 0.00000E+00
 -1      3377 2.57850E+01 1.05013E+01 0.00000E+00
 -1      3378 2.95350E+01 1.18003E+01 0.00000E+00
 -1      3379 2.87850E+01 1.05013E+01 0.00000E+00
 -1      3380 2.72850E+01 1.05013E+01 0.00000E+00
 -1      3381 4.20457E+01 1.14034E+01 0.00000E+00
 -1      3382 3.77147E+01 2.11902E+01 0.00000E+00
 -1      3383 4.35457E+01 1.14034E+01 0.00000E+00
 -1      3384 1.38309E+02 1.98687E+01 0.00000E+00
 -1      3385 1.38309E+02 1.83937E+01 0.00000E+00
 -1      3386 1.37010E+02 1.76625E+01 0.00000E+00
 -1      3387 1.38309E+02 2.28094E+01 0.00000E+00
 -1      3388 1.38309E+02 2.13344E+01 0.00000E+00
 -1      3389 1.37010E+02 2.06031E+01 0.00000E+00
 -1      3390 1.37010E+02 2.35344E+01 0.00000E+00
 -1      3391 4.79367E+01 3.66855E+01 0.00000E+00
 -1      3392 4.75501E+01 3.56727E+01 0.00000E+00
 -1      3393 4.24043E+01 3.22630E+01 0.00000E+00
 -1      3394 4.13965E+01 3.19810E+01 0.00000E+00
 -1      3395 3.77831E+01 2.42765E+01 0.00000E+00
 -1      3396 3.67162E+01 2.35225E+01 0.00000E+00
 -1      3397 3.72039E+01 2.52182E+01 0.00000E+00
 -1      3398 4.27837E+01 3.30039E+01 0.00000E+00
 -1      3399 6.61248E+01 1.94477E+01 0.00000E+00
 -1      3400 1.69669E+01 1.03515E+01 0.00000E+00
 -1      3401 1.54669E+01 1.03515E+01 0.00000E+00
 -1      3402 1.50806E+01 1.13509E+01 0.00000E+00
 -1      3403 1.77169E+01 1.16505E+01 0.00000E+00
 -1      3404 6.11494E+01 3.21951E+01 0.00000E+00
 -1      3405 6.09002E+01 3.30283E+01 0.00000E+00
 -1      3406 6.21369E+01 3.22804E+01 0.00000E+00
 -1      3407 6.32855E+01 3.03031E+01 0.00000E+00
 -1      3408 6.30865E+01 3.10848E+01 0.00000E+00
 -1      3409 6.39858E+01 2.99406E+01 0.00000E+00
 -1      3410 3.93756E+01 2.80304E+01 0.00000E+00
 -1      3411 3.93431E+01 2.71890E+01 0.00000E+00
 -1      3412 3.83033E+01 2.68136E+01 0.00000E+00
 -1      3413 6.64872E+01 2.25262E+01 0.00000E+00
 -1      3414 6.72980E+01 2.34742E+01 0.00000E+00
 -1      3415 6.72366E+01 2.17707E+01 0.00000E+00
 -1      3416 1.16910E+01 1.98188E+01 0.00000E+00
 -1      3417 1.29900E+01 2.05562E+01 0.00000E+00
 -1      3418 1.16910E+01 1.83500E+01 0.00000E+00
 -1      3419 1.37758E+02 3.64912E+01 0.00000E+00
 -1      3420 1.38123E+02 3.54142E+01 0.00000E+00
 -1      3421 1.36824E+02 3.46768E+01 0.00000E+00
 -1      3422 1.36451E+02 3.63802E+01 0.00000E+00
 -1      3423 1.16910E+01 3.30594E+01 0.00000E+00
 -1      3424 1.16910E+01 3.45281E+01 0.00000E+00
 -1      3425 3.92618E+01 1.52787E+01 0.00000E+00
 -1      3426 3.89032E+01 1.41442E+01 0.00000E+00
 -1      3427 3.79851E+01 1.56959E+01 0.00000E+00
 -1      3428 3.82389E+01 1.83150E+01 0.00000E+00
 -1      3429 1.16910E+01 3.01219E+01 0.00000E+00
 -1      3430 1.16910E+01 3.15906E+01 0.00000E+00
 -1      3431 1.29900E+01 3.23250E+01 0.00000E+00
 -1      3432 5.09242E+01 3.65114E+01 0.00000E+00
 -1      3433 1.11741E+01 3.84716E+01 0.00000E+00
 -1      3434 1.19241E+01 3.71726E+01 0.00000E+00
 -1      3435 4.00007E+01 3.05427E+01 0.00000E+00
 -1      3436 3.96240E+01 2.93192E+01 0.00000E+00
 -1      3437 1.20210E+01 3.61362E+01 0.00000E+00
 -1      3438 1.74000E+01 3.57110E+01 0.00000E+00
 -1      3439 1.89000E+01 3.57110E+01 0.00000E+00
 -1      3440 2.04000E+01 3.57110E+01 0.00000E+00
 -1      3441 2.19000E+01 3.57110E+01 0.00000E+00
 -1      3442 1.96500E+01 3.44120E+01 0.00000E+00
 -1      3443 2.34000E+01 3.57110E+01 0.00000E+00
 -1      3444 2.49000E+01 3.57110E+01 0.00000E+00
 -1      3445 2.26500E+01 3.44120E+01 0.00000E+00
 -1      3446 2.64000E+01 3.57110E+01 0.00000E+00
 -1      3447 2.79000E+01 3.57110E+01 0.00000E+00
 -1      3448 2.56500E+01 3.44120E+01 0.00000E+00
 -1      3449 2.94000E+01 3.57110E+01 0.00000E+00
 -1      3450 3.09000E+01 3.57110E+01 0.00000E+00
 -1      3451 2.86500E+01 3.44120E+01 0.00000E+00
 -1      3452 3.24000E+01 3.57110E+01 0.00000E+00
 -1      3453 3.39000E+01 3.57110E+01 0.00000E+00
 -1      3454 3.16500E+01 3.44120E+01 0.00000E+00
 -1      3455 3.54000E+01 3.57110E+01 0.00000E+00
 -1      3456 3.69000E+01 3.57110E+01 0.00000E+00
 -1      3457 3.46500E+01 3.44120E+01 0.00000E+00
 -1      3458 3.84000E+01 3.57110E+01 0.00000E+00
 -1      3459 3.99000E+01 3.57110E+01 0.00000E+00
 -1      3460 3.76500E+01 3.44120E+01 0.00000E+00
 -1      3461 4.11371E+01 3.50596E+01 0.00000E+00
 -1      3462 4.26371E+01 3.50596E+01 0.00000E+00
 -1      3463 6.65413E+01 1.32931E+01 0.00000E+00
 -1      3464 1.33200E+01 3.54019E+01 0.00000E+00
 -1      3465 6.54000E+01 3.57110E+01 0.00000E+00
 -1      3466 6.69000E+01 3.57110E+01 0.00000E+00
 -1      3467 6.84000E+01 3.57110E+01 0.00000E+00
 -1      3468 6.99000E+01 3.57110E+01 0.00000E+00
 -1      3469 6.76500E+01 3.44120E+01 0.00000E+00
 -1      3470 7.14000E+01 3.57110E+01 0.00000E+00
 -1      3471 7.29000E+01 3.57110E+01 0.00000E+00
 -1      3472 7.06500E+01 3.44120E+01 0.00000E+00
 -1      3473 7.44000E+01 3.57110E+01 0.00000E+00
 -1      3474 7.59000E+01 3.57110E+01 0.00000E+00
 -1      3475 7.36500E+01 3.44120E+01 0.00000E+00
 -1      3476 7.74000E+01 3.57110E+01 0.00000E+00
 -1      3477 7.89000E+01 3.57110E+01 0.00000E+00
 -1      3478 7.66500E+01 3.44120E+01 0.00000E+00
 -1      3479 8.04000E+01 3.57110E+01 0.00000E+00
 -1      3480 8.19000E+01 3.57110E+01 0.00000E+00
 -1      3481 7.96500E+01 3.44120E+01 0.00000E+00
 -1      3482 8.34000E+01 3.57110E+01 0.00000E+00
 -1      3483 8.49000E+01 3.57110E+01 0.00000E+00
 -1      3484 8.26500E+01 3.44120E+01 0.00000E+00
 -1      3485 8.64000E+01 3.57110E+01 0.00000E+00
 -1      3486 8.79000E+01 3.57110E+01 0.00000E+00
 -1      3487 8.56500E+01 3.44120E+01 0.00000E+00
 -1      3488 8.94000E+01 3.57110E+01 0.00000E+00
 -1      3489 9.09000E+01 3.57110E+01 0.00000E+00
 -1      3490 8.86500E+01 3.44120E+01 0.00000E+00
 -1      3491 9.24000E+01 3.57110E+01 0.00000E+00
 -1      3492 9.39000E+01 3.57110E+01 0.00000E+00
 -1      3493 9.16500E+01 3.44120E+01 0.00000E+00
 -1      3494 9.54000E+01 3.57110E+01 0.00000E+00
 -1      3495 9.69000E+01 3.57110E+01 0.00000E+00
 -1      3496 9.46500E+01 3.44120E+01 0.00000E+00
 -1      3497 9.84000E+01 3.57110E+01 0.00000E+00
 -1      3498 9.99000E+01 3.57110E+01 0.00000E+00
 -1      3499 9.76500E+01 3.44120E+01 0.00000E+00
 -1      3500 1.01400E+02 3.57110E+01 0.00000E+00
 -1      3501 1.02900E+02 3.57110E+01 0.00000E+00
 -1      3502 1.00650E+02 3.44120E+01 0.00000E+00
 -1      3503 1.04400E+02 3.57110E+01 0.00000E+00
 -1      3504 1.05900E+02 3.57110E+01 0.00000E+00
 -1      3505 1.03650E+02 3.44120E+01 0.00000E+00
 -1      3506 1.07400E+02 3.57110E+01 0.00000E+00
 -1      3507 1.08900E+02 3.57110E+01 0.00000E+00
 -1      3508 1.06650E+02 3.44120E+01 0.00000E+00
 -1      3509 1.10400E+02 3.57110E+01 0.00000E+00
 -1      3510 1.11900E+02 3.57110E+01 0.00000E+00
 -1      3511 1.09650E+02 3.44120E+01 0.00000E+00
 -1      3512 1.13400E+02 3.57110E+01 0.00000E+00
 -1      3513 1.14900E+02 3.57110E+01 0.00000E+00
 -1      3514 1.12650E+02 3.44120E+01 0.00000E+00
 -1      3515 1.16400E+02 3.57110E+01 0.00000E+00
 -1      3516 1.17900E+02 3.57110E+01 0.00000E+00
 -1      3517 1.15650E+02 3.44120E+01 0.00000E+00
 -1      3518 1.19400E+02 3.57110E+01 0.00000E+00
 -1      3519 1.20900E+02 3.57110E+01 0.00000E+00
 -1      3520 1.18650E+02 3.44120E+01 0.00000E+00
 -1      3521 1.22400E+02 3.57110E+01 0.00000E+00
 -1      3522 1.23900E+02 3.57110E+01 0.00000E+00
 -1      3523 1.21650E+02 3.44120E+01 0.00000E+00
 -1      3524 1.25400E+02 3.57110E+01 0.00000E+00
 -1      3525 1.26900E+02 3.57110E+01 0.00000E+00
 -1      3526 1.24650E+02 3.44120E+01 0.00000E+00
 -1      3527 1.28400E+02 3.57110E+01 0.00000E+00
 -1      3528 1.29900E+02 3.57110E+01 0.00000E+00
 -1      3529 1.27650E+02 3.44120E+01 0.00000E+00
 -1      3530 1.31400E+02 3.57110E+01 0.00000E+00
 -1      3531 1.32900E+02 3.57110E+01 0.00000E+00
 -1      3532 1.30650E+02 3.44120E+01 0.00000E+00
 -1      3533 3.32850E+01 1.30992E+01 0.00000E+00
 -1      3534 3.17850E+01 1.30992E+01 0.00000E+00
 -1      3535 4.37966E+01 3.49543E+01 0.00000E+00
 -1      3536 8.12850E+01 1.30992E+01 0.00000E+00
 -1      3537 7.97850E+01 1.30992E+01 0.00000E+00
 -1      3538 7.22850E+01 1.30992E+01 0.00000E+00
 -1      3539 7.07850E+01 1.30992E+01 0.00000E+00
 -1      3540 7.52850E+01 1.30992E+01 0.00000E+00
 -1      3541 7.37850E+01 1.30992E+01 0.00000E+00
 -1      3542 7.30350E+01 1.43982E+01 0.00000E+00
 -1      3543 8.42850E+01 1.30992E+01 0.00000E+00
 -1      3544 8.27850E+01 1.30992E+01 0.00000E+00
 -1      3545 8.20350E+01 1.43982E+01 0.00000E+00
 -1      3546 8.72850E+01 1.30992E+01 0.00000E+00
 -1      3547 8.57850E+01 1.30992E+01 0.00000E+00
 -1      3548 8.50350E+01 1.43982E+01 0.00000E+00
 -1      3549 9.02850E+01 1.30992E+01 0.00000E+00
 -1      3550 8.87850E+01 1.30992E+01 0.00000E+00
 -1      3551 8.80350E+01 1.43982E+01 0.00000E+00
 -1      3552 9.32850E+01 1.30992E+01 0.00000E+00
 -1      3553 9.17850E+01 1.30992E+01 0.00000E+00
 -1      3554 9.10350E+01 1.43982E+01 0.00000E+00
 -1      3555 9.62850E+01 1.30992E+01 0.00000E+00
 -1      3556 9.47850E+01 1.30992E+01 0.00000E+00
 -1      3557 9.40350E+01 1.43982E+01 0.00000E+00
 -1      3558 9.92850E+01 1.30992E+01 0.00000E+00
 -1      3559 9.77850E+01 1.30992E+01 0.00000E+00
 -1      3560 9.70350E+01 1.43982E+01 0.00000E+00
 -1      3561 1.02285E+02 1.30992E+01 0.00000E+00
 -1      3562 1.00785E+02 1.30992E+01 0.00000E+00
 -1      3563 1.00035E+02 1.43982E+01 0.00000E+00
 -1      3564 1.05285E+02 1.30992E+01 0.00000E+00
 -1      3565 1.03785E+02 1.30992E+01 0.00000E+00
 -1      3566 1.03035E+02 1.43982E+01 0.00000E+00
 -1      3567 1.08285E+02 1.30992E+01 0.00000E+00
 -1      3568 1.06785E+02 1.30992E+01 0.00000E+00
 -1      3569 1.06035E+02 1.43982E+01 0.00000E+00
 -1      3570 1.11285E+02 1.30992E+01 0.00000E+00
 -1      3571 1.09785E+02 1.30992E+01 0.00000E+00
 -1      3572 1.09035E+02 1.43982E+01 0.00000E+00
 -1      3573 1.14285E+02 1.30992E+01 0.00000E+00
 -1      3574 1.12785E+02 1.30992E+01 0.00000E+00
 -1      3575 1.12035E+02 1.43982E+01 0.00000E+00
 -1      3576 1.17285E+02 1.30992E+01 0.00000E+00
 -1      3577 1.15785E+02 1.30992E+01 0.00000E+00
 -1      3578 1.15035E+02 1.43982E+01 0.00000E+00
 -1      3579 1.20285E+02 1.30992E+01 0.00000E+00
 -1      3580 1.18785E+02 1.30992E+01 0.00000E+00
 -1      3581 1.18035E+02 1.43982E+01 0.00000E+00
 -1      3582 1.23285E+02 1.30992E+01 0.00000E+00
 -1      3583 1.21785E+02 1.30992E+01 0.00000E+00
 -1      3584 1.21035E+02 1.43982E+01 0.00000E+00
 -1      3585 1.26285E+02 1.30992E+01 0.00000E+00
 -1      3586 1.24785E+02 1.30992E+01 0.00000E+00
 -1      3587 1.24035E+02 1.43982E+01 0.00000E+00
 -1      3588 1.29285E+02 1.30992E+01 0.00000E+00
 -1      3589 1.27785E+02 1.30992E+01 0.00000E+00
 -1      3590 1.27035E+02 1.43982E+01 0.00000E+00
 -1      3591 1.32285E+02 1.30992E+01 0.00000E+00
 -1      3592 1.30785E+02 1.30992E+01 0.00000E+00
 -1      3593 1.30035E+02 1.43982E+01 0.00000E+00
 -1      3594 1.35285E+02 1.30992E+01 0.00000E+00
 -1      3595 1.33785E+02 1.30992E+01 0.00000E+00
 -1      3596 1.33035E+02 1.43982E+01 0.00000E+00
 -1      3597 1.35711E+02 2.72125E+01 0.00000E+00
 -1      3598 1.35711E+02 2.57375E+01 0.00000E+00
 -1      3599 1.38528E+02 1.44149E+01 0.00000E+00
 -1      3600 1.38594E+02 1.31746E+01 0.00000E+00
 -1      3601 1.37668E+02 1.30636E+01 0.00000E+00
 -1      3602 1.37229E+02 1.51462E+01 0.00000E+00
 -1      3603 4.64211E+01 3.61227E+01 0.00000E+00
 -1      3604 6.62478E+01 2.85126E+01 0.00000E+00
 -1      3605 6.53616E+01 2.94207E+01 0.00000E+00
 -1      3606 7.82850E+01 1.30992E+01 0.00000E+00
 -1      3607 7.67850E+01 1.30992E+01 0.00000E+00
 -1      3608 7.60350E+01 1.43982E+01 0.00000E+00
 -1      3609 7.90350E+01 1.43982E+01 0.00000E+00
 -1      3610 6.94132E+01 1.31962E+01 0.00000E+00
 -1      3611 6.79132E+01 1.31962E+01 0.00000E+00
 -1      3612 6.74195E+01 1.46890E+01 0.00000E+00
 -1      3613 7.01632E+01 1.44952E+01 0.00000E+00
 -1      3614 2.12850E+01 1.30992E+01 0.00000E+00
 -1      3615 1.97850E+01 1.30992E+01 0.00000E+00
 -1      3616 5.93951E+01 3.38400E+01 0.00000E+00
 -1      3617 5.85356E+01 3.37595E+01 0.00000E+00
 -1      3618 1.16910E+01 2.71844E+01 0.00000E+00
 -1      3619 1.16910E+01 2.86531E+01 0.00000E+00
 -1      3620 1.29900E+01 2.93875E+01 0.00000E+00
 -1      3621 1.46100E+01 3.55564E+01 0.00000E+00
 -1      3622 1.61100E+01 3.55564E+01 0.00000E+00
 -1      3623 1.68600E+01 3.42574E+01 0.00000E+00
 -1      3624 1.42800E+01 3.39483E+01 0.00000E+00
 -1      3625 6.69758E+01 1.85410E+01 0.00000E+00
 -1      3626 6.72767E+01 1.99161E+01 0.00000E+00
 -1      3627 3.64433E+01 2.15654E+01 0.00000E+00
 -1      3628 3.68626E+01 2.01748E+01 0.00000E+00
 -1      3629 3.69675E+01 1.86902E+01 0.00000E+00
 -1      3630 3.70724E+01 1.72056E+01 0.00000E+00
 -1      3631 3.56961E+01 1.90654E+01 0.00000E+00
 -1      3632 6.17688E+01 3.50618E+01 0.00000E+00
 -1      3633 6.32688E+01 3.50618E+01 0.00000E+00
 -1      3634 4.03871E+01 3.37606E+01 0.00000E+00
 -1      3635 4.49211E+01 3.61227E+01 0.00000E+00
 -1      3636 1.42890E+01 1.39344E+01 0.00000E+00
 -1      3637 1.42890E+01 1.54031E+01 0.00000E+00
 -1      3638 5.41146E+01 3.75004E+01 0.00000E+00
 -1      3639 1.35711E+02 3.01500E+01 0.00000E+00
 -1      3640 1.35711E+02 2.86812E+01 0.00000E+00
 -1      3641 1.34412E+02 2.79438E+01 0.00000E+00
 -1      3642 6.76728E+01 1.74262E+01 0.00000E+00
 -1      3643 6.76730E+01 2.71983E+01 0.00000E+00
 -1      3644 6.69604E+01 2.78554E+01 0.00000E+00
 -1      3645 6.72510E+01 2.90254E+01 0.00000E+00
 -1      3646 3.86075E+01 1.27636E+01 0.00000E+00
 -1      3647 2.27850E+01 1.30992E+01 0.00000E+00
 -1      3648 2.20350E+01 1.43982E+01 0.00000E+00
 -1      3649 2.42850E+01 1.30992E+01 0.00000E+00
 -1      3650 6.40188E+01 3.37628E+01 0.00000E+00
 -1      3651 3.10350E+01 1.43982E+01 0.00000E+00
 -1      3652 3.02850E+01 1.30992E+01 0.00000E+00
 -1      3653 2.87850E+01 1.30992E+01 0.00000E+00
 -1      3654 3.58307E+01 1.31808E+01 0.00000E+00
 -1      3655 3.50807E+01 1.44798E+01 0.00000E+00
 -1      3656 1.34022E+02 3.59901E+01 0.00000E+00
 -1      3657 1.35329E+02 3.61011E+01 0.00000E+00
 -1      3658 1.35515E+02 3.52494E+01 0.00000E+00
 -1      3659 1.33272E+02 3.46911E+01 0.00000E+00
 -1      3660 1.90350E+01 1.43983E+01 0.00000E+00
 -1      3661 1.82850E+01 1.30993E+01 0.00000E+00
 -1      3662 2.65350E+01 1.18003E+01 0.00000E+00
 -1      3663 1.34412E+02 2.50094E+01 0.00000E+00
 -1      3664 1.35711E+02 2.42719E+01 0.00000E+00
 -1      3665 1.35711E+02 2.28062E+01 0.00000E+00
 -1      3666 1.36742E+02 1.29526E+01 0.00000E+00
 -1      3667 6.89385E+01 1.99573E+01 0.00000E+00
 -1      3668 6.80875E+01 2.08640E+01 0.00000E+00
 -1      3669 6.88983E+01 2.18119E+01 0.00000E+00
 -1      3670 1.35992E+02 1.42516E+01 0.00000E+00
 -1      3671 3.73307E+01 1.31808E+01 0.00000E+00
 -1      3672 3.70490E+01 2.65692E+01 0.00000E+00
 -1      3673 3.59821E+01 2.58152E+01 0.00000E+00
 -1      3674 3.85842E+01 2.89438E+01 0.00000E+00
 -1      3675 3.52850E+01 2.34487E+01 0.00000E+00
 -1      3676 3.58641E+01 2.25071E+01 0.00000E+00
 -1      3677 3.50121E+01 2.14916E+01 0.00000E+00
 -1      3678 1.48779E+01 1.21429E+01 0.00000E+00
 -1      3679 1.44917E+01 1.31424E+01 0.00000E+00
 -1      3680 1.57907E+01 1.38767E+01 0.00000E+00
 -1      3681 1.61961E+01 1.22927E+01 0.00000E+00
 -1      3682 1.69669E+01 1.29495E+01 0.00000E+00
 -1      3683 1.29900E+01 2.64469E+01 0.00000E+00
 -1      3684 6.51626E+01 3.02025E+01 0.00000E+00
 -1      3685 6.49637E+01 3.09842E+01 0.00000E+00
 -1      3686 6.63394E+01 3.04643E+01 0.00000E+00
 -1      3687 4.81500E+01 3.71163E+01 0.00000E+00
 -1      3688 4.02370E+01 3.28021E+01 0.00000E+00
 -1      3689 4.00093E+01 3.16739E+01 0.00000E+00
 -1      3690 1.35711E+02 1.84000E+01 0.00000E+00
 -1      3691 1.35711E+02 1.69250E+01 0.00000E+00
 -1      3692 5.81357E+01 3.48159E+01 0.00000E+00
 -1      3693 3.70815E+01 2.74105E+01 0.00000E+00
 -1      3694 3.88412E+01 3.13638E+01 0.00000E+00
 -1      3695 1.42800E+01 3.24796E+01 0.00000E+00
 -1      3696 1.55700E+01 3.26341E+01 0.00000E+00
 -1      3697 1.42800E+01 3.10108E+01 0.00000E+00
 -1      3698 6.77149E+01 2.43734E+01 0.00000E+00
 -1      3699 6.81317E+01 2.52727E+01 0.00000E+00
 -1      3700 6.84642E+01 2.36179E+01 0.00000E+00
 -1      3701 1.29900E+01 1.76125E+01 0.00000E+00
 -1      3702 3.67138E+01 1.60711E+01 0.00000E+00
 -1      3703 1.35702E+02 3.43976E+01 0.00000E+00
 -1      3704 1.42890E+01 2.27625E+01 0.00000E+00
 -1      3705 1.42890E+01 2.42375E+01 0.00000E+00
 -1      3706 1.35773E+02 1.52929E+01 0.00000E+00
 -1      3707 6.39005E+01 3.14511E+01 0.00000E+00
 -1      3708 6.32001E+01 3.18135E+01 0.00000E+00
 -1      3709 6.29509E+01 3.26467E+01 0.00000E+00
 -1      3710 6.50773E+01 3.17129E+01 0.00000E+00
 -1      3711 1.34487E+02 3.38100E+01 0.00000E+00
 -1      3712 1.35795E+02 3.32374E+01 0.00000E+00
 -1      3713 1.35795E+02 3.17686E+01 0.00000E+00
 -1      3714 1.33365E+02 3.35309E+01 0.00000E+00
 -1      3715 1.42890E+01 1.98250E+01 0.00000E+00
 -1      3716 1.42890E+01 2.12938E+01 0.00000E+00
 -1      3717 1.55880E+01 2.20313E+01 0.00000E+00
 -1      3718 3.89999E+01 3.34535E+01 0.00000E+00
 -1      3719 1.34473E+02 1.60304E+01 0.00000E+00
 -1      3720 1.42890E+01 2.57094E+01 0.00000E+00
 -1      3721 1.42890E+01 2.71812E+01 0.00000E+00
 -1      3722 1.55880E+01 2.49719E+01 0.00000E+00
 -1      3723 6.80046E+01 1.52175E+01 0.00000E+00
 -1      3724 1.35711E+02 2.13359E+01 0.00000E+00
 -1      3725 1.35711E+02 1.98703E+01 0.00000E+00
 -1      3726 1.34412E+02 1.91328E+01 0.00000E+00
 -1      3727 1.34412E+02 2.20734E+01 0.00000E+00
 -1      3728 5.11375E+01 3.69422E+01 0.00000E+00
 -1      3729 2.19000E+01 3.31130E+01 0.00000E+00
 -1      3730 2.34000E+01 3.31130E+01 0.00000E+00
 -1      3731 2.49000E+01 3.31130E+01 0.00000E+00
 -1      3732 2.64000E+01 3.31130E+01 0.00000E+00
 -1      3733 2.41500E+01 3.18140E+01 0.00000E+00
 -1      3734 2.79000E+01 3.31130E+01 0.00000E+00
 -1      3735 2.94000E+01 3.31130E+01 0.00000E+00
 -1      3736 2.71500E+01 3.18140E+01 0.00000E+00
 -1      3737 3.09000E+01 3.31130E+01 0.00000E+00
 -1      3738 3.24000E+01 3.31130E+01 0.00000E+00
 -1      3739 3.01500E+01 3.18140E+01 0.00000E+00
 -1      3740 3.39000E+01 3.31130E+01 0.00000E+00
 -1      3741 3.54000E+01 3.31130E+01 0.00000E+00
 -1      3742 3.31500E+01 3.18140E+01 0.00000E+00
 -1      3743 3.74999E+01 3.34535E+01 0.00000E+00
 -1      3744 6.99000E+01 3.31130E+01 0.00000E+00
 -1      3745 7.14000E+01 3.31130E+01 0.00000E+00
 -1      3746 7.29000E+01 3.31130E+01 0.00000E+00
 -1      3747 7.44000E+01 3.31130E+01 0.00000E+00
 -1      3748 7.21500E+01 3.18140E+01 0.00000E+00
 -1      3749 7.59000E+01 3.31130E+01 0.00000E+00
 -1      3750 7.74000E+01 3.31130E+01 0.00000E+00
 -1      3751 7.51500E+01 3.18140E+01 0.00000E+00
 -1      3752 7.89000E+01 3.31130E+01 0.00000E+00
 -1      3753 8.04000E+01 3.31130E+01 0.00000E+00
 -1      3754 7.81500E+01 3.18140E+01 0.00000E+00
 -1      3755 8.19000E+01 3.31130E+01 0.00000E+00
 -1      3756 8.34000E+01 3.31130E+01 0.00000E+00
 -1      3757 8.11500E+01 3.18140E+01 0.00000E+00
 -1      3758 8.49000E+01 3.31130E+01 0.00000E+00
 -1      3759 8.64000E+01 3.31130E+01 0.00000E+00
 -1      3760 8.41500E+01 3.18140E+01 0.00000E+00
 -1      3761 8.79000E+01 3.31130E+01 0.00000E+00
 -1      3762 8.94000E+01 3.31130E+01 0.00000E+00
 -1      3763 8.71500E+01 3.18140E+01 0.00000E+00
 -1      3764 9.09000E+01 3.31130E+01 0.00000E+00
 -1      3765 9.24000E+01 3.31130E+01 0.00000E+00
 -1      3766 9.01500E+01 3.18140E+01 0.00000E+00
 -1      3767 9.39000E+01 3.31130E+01 0.00000E+00
 -1      3768 9.54000E+01 3.31130E+01 0.00000E+00
 -1      3769 9.31500E+01 3.18140E+01 0.00000E+00
 -1      3770 9.69000E+01 3.31130E+01 0.00000E+00
 -1      3771 9.84000E+01 3.31130E+01 0.00000E+00
 -1      3772 9.61500E+01 3.18140E+01 0.00000E+00
 -1      3773 9.99000E+01 3.31130E+01 0.00000E+00
 -1      3774 1.01400E+02 3.31130E+01 0.00000E+00
 -1      3775 9.91500E+01 3.18140E+01 0.00000E+00
 -1      3776 1.02900E+02 3.31130E+01 0.00000E+00
 -1      3777 1.04400E+02 3.31130E+01 0.00000E+00
 -1      3778 1.02150E+02 3.18140E+01 0.00000E+00
 -1      3779 1.05900E+02 3.31130E+01 0.00000E+00
 -1      3780 1.07400E+02 3.31130E+01 0.00000E+00
 -1      3781 1.05150E+02 3.18140E+01 0.00000E+00
 -1      3782 1.08900E+02 3.31130E+01 0.00000E+00
 -1      3783 1.10400E+02 3.31130E+01 0.00000E+00
 -1      3784 1.08150E+02 3.18140E+01 0.00000E+00
 -1      3785 1.11900E+02 3.31130E+01 0.00000E+00
 -1      3786 1.13400E+02 3.31130E+01 0.00000E+00
 -1      3787 1.11150E+02 3.18140E+01 0.00000E+00
 -1      3788 1.14900E+02 3.31130E+01 0.00000E+00
 -1      3789 1.16400E+02 3.31130E+01 0.00000E+00
 -1      3790 1.14150E+02 3.18140E+01 0.00000E+00
 -1      3791 1.17900E+02 3.31130E+01 0.00000E+00
 -1      3792 1.19400E+02 3.31130E+01 0.00000E+00
 -1      3793 1.17150E+02 3.18140E+01 0.00000E+00
 -1      3794 1.20900E+02 3.31130E+01 0.00000E+00
 -1      3795 1.22400E+02 3.31130E+01 0.00000E+00
 -1      3796 1.20150E+02 3.18140E+01 0.00000E+00
 -1      3797 1.23900E+02 3.31130E+01 0.00000E+00
 -1      3798 1.25400E+02 3.31130E+01 0.00000E+00
 -1      3799 1.23150E+02 3.18140E+01 0.00000E+00
 -1      3800 1.26900E+02 3.31130E+01 0.00000E+00
 -1      3801 1.28400E+02 3.31130E+01 0.00000E+00
 -1      3802 1.26150E+02 3.18140E+01 0.00000E+00
 -1      3803 1.29900E+02 3.31130E+01 0.00000E+00
 -1      3804 1.31400E+02 3.31130E+01 0.00000E+00
 -1      3805 1.29150E+02 3.18140E+01 0.00000E+00
 -1      3806 6.93113E+01 1.56479E+01 0.00000E+00
 -1      3807 6.85246E+01 1.62734E+01 0.00000E+00
 -1      3808 6.89795E+01 1.78566E+01 0.00000E+00
 -1      3809 7.06832E+01 1.55510E+01 0.00000E+00
 -1      3810 8.57850E+01 1.56973E+01 0.00000E+00
 -1      3811 8.42850E+01 1.56973E+01 0.00000E+00
 -1      3812 3.41680E+01 1.59895E+01 0.00000E+00
 -1      3813 2.72850E+01 1.30992E+01 0.00000E+00
 -1      3814 2.57850E+01 1.30992E+01 0.00000E+00
 -1      3815 2.80350E+01 1.43982E+01 0.00000E+00
 -1      3816 7.37850E+01 1.56973E+01 0.00000E+00
 -1      3817 7.22850E+01 1.56973E+01 0.00000E+00
 -1      3818 8.87850E+01 1.56973E+01 0.00000E+00
 -1      3819 8.72850E+01 1.56973E+01 0.00000E+00
 -1      3820 8.65350E+01 1.69963E+01 0.00000E+00
 -1      3821 9.17850E+01 1.56973E+01 0.00000E+00
 -1      3822 9.02850E+01 1.56973E+01 0.00000E+00
 -1      3823 8.95350E+01 1.69963E+01 0.00000E+00
 -1      3824 9.47850E+01 1.56973E+01 0.00000E+00
 -1      3825 9.32850E+01 1.56973E+01 0.00000E+00
 -1      3826 9.25350E+01 1.69963E+01 0.00000E+00
 -1      3827 9.77850E+01 1.56973E+01 0.00000E+00
 -1      3828 9.62850E+01 1.56973E+01 0.00000E+00
 -1      3829 9.55350E+01 1.69963E+01 0.00000E+00
 -1      3830 1.00785E+02 1.56973E+01 0.00000E+00
 -1      3831 9.92850E+01 1.56973E+01 0.00000E+00
 -1      3832 9.85350E+01 1.69963E+01 0.00000E+00
 -1      3833 1.03785E+02 1.56973E+01 0.00000E+00
 -1      3834 1.02285E+02 1.56973E+01 0.00000E+00
 -1      3835 1.01535E+02 1.69963E+01 0.00000E+00
 -1      3836 1.06785E+02 1.56973E+01 0.00000E+00
 -1      3837 1.05285E+02 1.56973E+01 0.00000E+00
 -1      3838 1.04535E+02 1.69963E+01 0.00000E+00
 -1      3839 1.09785E+02 1.56973E+01 0.00000E+00
 -1      3840 1.08285E+02 1.56973E+01 0.00000E+00
 -1      3841 1.07535E+02 1.69963E+01 0.00000E+00
 -1      3842 1.12785E+02 1.56973E+01 0.00000E+00
 -1      3843 1.11285E+02 1.56973E+01 0.00000E+00
 -1      3844 1.10535E+02 1.69963E+01 0.00000E+00
 -1      3845 1.15785E+02 1.56973E+01 0.00000E+00
 -1      3846 1.14285E+02 1.56973E+01 0.00000E+00
 -1      3847 1.13535E+02 1.69963E+01 0.00000E+00
 -1      3848 1.18785E+02 1.56973E+01 0.00000E+00
 -1      3849 1.17285E+02 1.56973E+01 0.00000E+00
 -1      3850 1.16535E+02 1.69963E+01 0.00000E+00
 -1      3851 1.21785E+02 1.56973E+01 0.00000E+00
 -1      3852 1.20285E+02 1.56973E+01 0.00000E+00
 -1      3853 1.19535E+02 1.69963E+01 0.00000E+00
 -1      3854 1.24785E+02 1.56973E+01 0.00000E+00
 -1      3855 1.23285E+02 1.56973E+01 0.00000E+00
 -1      3856 1.22535E+02 1.69963E+01 0.00000E+00
 -1      3857 1.27785E+02 1.56973E+01 0.00000E+00
 -1      3858 1.26285E+02 1.56973E+01 0.00000E+00
 -1      3859 1.25535E+02 1.69963E+01 0.00000E+00
 -1      3860 1.30785E+02 1.56973E+01 0.00000E+00
 -1      3861 1.29285E+02 1.56973E+01 0.00000E+00
 -1      3862 1.28535E+02 1.69963E+01 0.00000E+00
 -1      3863 1.32973E+02 1.60304E+01 0.00000E+00
 -1      3864 3.45376E+01 1.97296E+01 0.00000E+00
 -1      3865 3.46424E+01 1.82450E+01 0.00000E+00
 -1      3866 3.67499E+01 3.21545E+01 0.00000E+00
 -1      3867 3.30094E+01 1.66537E+01 0.00000E+00
 -1      3868 1.32223E+02 1.73294E+01 0.00000E+00
 -1      3869 6.03826E+01 3.39253E+01 0.00000E+00
 -1      3870 1.42845E+01 2.83617E+01 0.00000E+00
 -1      3871 1.42845E+01 2.98304E+01 0.00000E+00
 -1      3872 1.55745E+01 2.99850E+01 0.00000E+00
 -1      3873 1.55835E+01 2.76242E+01 0.00000E+00
 -1      3874 1.97850E+01 1.56973E+01 0.00000E+00
 -1      3875 1.82851E+01 1.56973E+01 0.00000E+00
 -1      3876 3.47197E+01 2.63548E+01 0.00000E+00
 -1      3877 3.48746E+01 2.50038E+01 0.00000E+00
 -1      3878 1.42890E+01 1.68766E+01 0.00000E+00
 -1      3879 1.42890E+01 1.83516E+01 0.00000E+00
 -1      3880 1.55880E+01 1.90891E+01 0.00000E+00
 -1      3881 1.55880E+01 1.61422E+01 0.00000E+00
 -1      3882 1.68600E+01 3.27887E+01 0.00000E+00
 -1      3883 1.81500E+01 3.29432E+01 0.00000E+00
 -1      3884 1.68600E+01 3.13199E+01 0.00000E+00
 -1      3885 8.27850E+01 1.56973E+01 0.00000E+00
 -1      3886 8.12850E+01 1.56973E+01 0.00000E+00
 -1      3887 8.35350E+01 1.69963E+01 0.00000E+00
 -1      3888 1.92750E+01 3.30281E+01 0.00000E+00
 -1      3889 2.07750E+01 3.30281E+01 0.00000E+00
 -1      3890 2.15250E+01 3.17291E+01 0.00000E+00
 -1      3891 1.92750E+01 3.15594E+01 0.00000E+00
 -1      3892 6.84223E+01 2.64427E+01 0.00000E+00
 -1      3893 6.87129E+01 2.76128E+01 0.00000E+00
 -1      3894 6.91716E+01 2.56872E+01 0.00000E+00
 -1      3895 4.94367E+01 3.67918E+01 0.00000E+00
 -1      3896 1.34496E+02 3.10311E+01 0.00000E+00
 -1      3897 2.50350E+01 1.43982E+01 0.00000E+00
 -1      3898 1.33113E+02 2.86781E+01 0.00000E+00
 -1      3899 1.33113E+02 2.72094E+01 0.00000E+00
 -1      3900 3.19838E+01 1.89091E+01 0.00000E+00
 -1      3901 3.15094E+01 1.66537E+01 0.00000E+00
 -1      3902 3.00094E+01 1.66537E+01 0.00000E+00
 -1      3903 6.69000E+01 3.31130E+01 0.00000E+00
 -1      3904 6.84000E+01 3.31130E+01 0.00000E+00
 -1      3905 6.91500E+01 3.18140E+01 0.00000E+00
 -1      3906 1.32615E+02 3.22319E+01 0.00000E+00
 -1      3907 7.14332E+01 1.68500E+01 0.00000E+00
 -1      3908 8.05350E+01 1.69963E+01 0.00000E+00
 -1      3909 7.97850E+01 1.56973E+01 0.00000E+00
 -1      3910 7.82850E+01 1.56973E+01 0.00000E+00
 -1      3911 7.52850E+01 1.56973E+01 0.00000E+00
 -1      3912 7.45350E+01 1.69963E+01 0.00000E+00
 -1      3913 7.67850E+01 1.56973E+01 0.00000E+00
 -1      3914 1.33113E+02 2.57437E+01 0.00000E+00
 -1      3915 1.33113E+02 2.42781E+01 0.00000E+00
 -1      3916 1.31814E+02 2.64781E+01 0.00000E+00
 -1      3917 3.39584E+01 2.06712E+01 0.00000E+00
 -1      3918 3.29047E+01 1.98507E+01 0.00000E+00
 -1      3919 3.33792E+01 2.16128E+01 0.00000E+00
 -1      3920 7.01661E+01 2.18045E+01 0.00000E+00
 -1      3921 6.93152E+01 2.27112E+01 0.00000E+00
 -1      3922 6.97320E+01 2.36105E+01 0.00000E+00
 -1      3923 3.67413E+01 3.10233E+01 0.00000E+00
 -1      3924 3.76195E+01 2.97981E+01 0.00000E+00
 -1      3925 3.73711E+01 2.85092E+01 0.00000E+00
 -1      3926 3.40226E+01 2.39883E+01 0.00000E+00
 -1      3927 6.70942E+01 3.07483E+01 0.00000E+00
 -1      3928 6.68952E+01 3.15300E+01 0.00000E+00
 -1      3929 2.27850E+01 1.56973E+01 0.00000E+00
 -1      3930 2.12850E+01 1.56973E+01 0.00000E+00
 -1      3931 2.05351E+01 1.69963E+01 0.00000E+00
 -1      3932 1.32223E+02 1.87997E+01 0.00000E+00
 -1      3933 1.30035E+02 1.84666E+01 0.00000E+00
 -1      3934 1.32223E+02 2.02700E+01 0.00000E+00
 -1      3935 1.68870E+01 2.42359E+01 0.00000E+00
 -1      3936 1.68870E+01 2.57078E+01 0.00000E+00
 -1      3937 3.45685E+01 2.77226E+01 0.00000E+00
 -1      3938 3.34611E+01 2.69112E+01 0.00000E+00
 -1      3939 3.61168E+01 2.82648E+01 0.00000E+00
 -1      3940 3.48582E+01 2.88213E+01 0.00000E+00
 -1      3941 6.79226E+01 2.98869E+01 0.00000E+00
 -1      3942 6.84784E+01 3.09526E+01 0.00000E+00
 -1      3943 6.99784E+01 3.09526E+01 0.00000E+00
 -1      3944 6.86352E+01 2.92297E+01 0.00000E+00
 -1      3945 1.68870E+01 2.27672E+01 0.00000E+00
 -1      3946 1.81860E+01 2.35031E+01 0.00000E+00
 -1      3947 1.68870E+01 2.12984E+01 0.00000E+00
 -1      3948 1.32668E+02 2.30092E+01 0.00000E+00
 -1      3949 1.32668E+02 2.15389E+01 0.00000E+00
 -1      3950 1.30480E+02 2.12058E+01 0.00000E+00
 -1      3951 1.31369E+02 2.37436E+01 0.00000E+00
 -1      3952 1.32531E+02 3.06133E+01 0.00000E+00
 -1      3953 1.31232E+02 2.98789E+01 0.00000E+00
 -1      3954 2.64000E+01 3.05150E+01 0.00000E+00
 -1      3955 2.79000E+01 3.05150E+01 0.00000E+00
 -1      3956 2.94000E+01 3.05150E+01 0.00000E+00
 -1      3957 3.09000E+01 3.05150E+01 0.00000E+00
 -1      3958 2.86500E+01 2.92160E+01 0.00000E+00
 -1      3959 6.61452E+01 3.28290E+01 0.00000E+00
 -1      3960 6.50820E+01 3.32959E+01 0.00000E+00
 -1      3961 7.14000E+01 3.05150E+01 0.00000E+00
 -1      3962 7.29000E+01 3.05150E+01 0.00000E+00
 -1      3963 7.04320E+01 1.80388E+01 0.00000E+00
 -1      3964 6.95802E+01 1.91916E+01 0.00000E+00
 -1      3965 7.44000E+01 3.05150E+01 0.00000E+00
 -1      3966 7.59000E+01 3.05150E+01 0.00000E+00
 -1      3967 7.36500E+01 2.92160E+01 0.00000E+00
 -1      3968 7.74000E+01 3.05150E+01 0.00000E+00
 -1      3969 7.89000E+01 3.05150E+01 0.00000E+00
 -1      3970 7.66500E+01 2.92160E+01 0.00000E+00
 -1      3971 8.04000E+01 3.05150E+01 0.00000E+00
 -1      3972 8.19000E+01 3.05150E+01 0.00000E+00
 -1      3973 7.96500E+01 2.92160E+01 0.00000E+00
 -1      3974 8.34000E+01 3.05150E+01 0.00000E+00
 -1      3975 8.49000E+01 3.05150E+01 0.00000E+00
 -1      3976 8.26500E+01 2.92160E+01 0.00000E+00
 -1      3977 8.64000E+01 3.05150E+01 0.00000E+00
 -1      3978 8.79000E+01 3.05150E+01 0.00000E+00
 -1      3979 8.56500E+01 2.92160E+01 0.00000E+00
 -1      3980 8.94000E+01 3.05150E+01 0.00000E+00
 -1      3981 9.09000E+01 3.05150E+01 0.00000E+00
 -1      3982 8.86500E+01 2.92160E+01 0.00000E+00
 -1      3983 9.24000E+01 3.05150E+01 0.00000E+00
 -1      3984 9.39000E+01 3.05150E+01 0.00000E+00
 -1      3985 9.16500E+01 2.92160E+01 0.00000E+00
 -1      3986 9.54000E+01 3.05150E+01 0.00000E+00
 -1      3987 9.69000E+01 3.05150E+01 0.00000E+00
 -1      3988 9.46500E+01 2.92160E+01 0.00000E+00
 -1      3989 9.84000E+01 3.05150E+01 0.00000E+00
 -1      3990 9.99000E+01 3.05150E+01 0.00000E+00
 -1      3991 9.76500E+01 2.92160E+01 0.00000E+00
 -1      3992 1.01400E+02 3.05150E+01 0.00000E+00
 -1      3993 1.02900E+02 3.05150E+01 0.00000E+00
 -1      3994 1.00650E+02 2.92160E+01 0.00000E+00
 -1      3995 1.04400E+02 3.05150E+01 0.00000E+00
 -1      3996 1.05900E+02 3.05150E+01 0.00000E+00
 -1      3997 1.03650E+02 2.92160E+01 0.00000E+00
 -1      3998 1.07400E+02 3.05150E+01 0.00000E+00
 -1      3999 1.08900E+02 3.05150E+01 0.00000E+00
 -1      4000 1.06650E+02 2.92160E+01 0.00000E+00
 -1      4001 1.10400E+02 3.05150E+01 0.00000E+00
 -1      4002 1.11900E+02 3.05150E+01 0.00000E+00
 -1      4003 1.09650E+02 2.92160E+01 0.00000E+00
 -1      4004 1.13400E+02 3.05150E+01 0.00000E+00
 -1      4005 1.14900E+02 3.05150E+01 0.00000E+00
 -1      4006 1.12650E+02 2.92160E+01 0.00000E+00
 -1      4007 1.16400E+02 3.05150E+01 0.00000E+00
 -1      4008 1.17900E+02 3.05150E+01 0.00000E+00
 -1      4009 1.15650E+02 2.92160E+01 0.00000E+00
 -1      4010 1.19400E+02 3.05150E+01 0.00000E+00
 -1      4011 1.20900E+02 3.05150E+01 0.00000E+00
 -1      4012 1.18650E+02 2.92160E+01 0.00000E+00
 -1      4013 1.22400E+02 3.05150E+01 0.00000E+00
 -1      4014 1.23900E+02 3.05150E+01 0.00000E+00
 -1      4015 1.21650E+02 2.92160E+01 0.00000E+00
 -1      4016 1.25400E+02 3.05150E+01 0.00000E+00
 -1      4017 1.26900E+02 3.05150E+01 0.00000E+00
 -1      4018 1.24650E+02 2.92160E+01 0.00000E+00
 -1      4019 1.28316E+02 3.01969E+01 0.00000E+00
 -1      4020 1.29816E+02 3.01969E+01 0.00000E+00
 -1      4021 1.30398E+02 2.82618E+01 0.00000E+00
 -1      4022 1.27566E+02 2.88979E+01 0.00000E+00
 -1      4023 9.32850E+01 1.82952E+01 0.00000E+00
 -1      4024 9.17850E+01 1.82952E+01 0.00000E+00
 -1      4025 2.85094E+01 1.66537E+01 0.00000E+00
 -1      4026 2.70094E+01 1.66537E+01 0.00000E+00
 -1      4027 2.89838E+01 1.89091E+01 0.00000E+00
 -1      4028 7.20339E+01 1.81850E+01 0.00000E+00
 -1      4029 8.72850E+01 1.82952E+01 0.00000E+00
 -1      4030 8.57850E+01 1.82952E+01 0.00000E+00
 -1      4031 9.62850E+01 1.82952E+01 0.00000E+00
 -1      4032 9.47850E+01 1.82952E+01 0.00000E+00
 -1      4033 9.40350E+01 1.95942E+01 0.00000E+00
 -1      4034 9.92850E+01 1.82952E+01 0.00000E+00
 -1      4035 9.77850E+01 1.82952E+01 0.00000E+00
 -1      4036 9.70350E+01 1.95942E+01 0.00000E+00
 -1      4037 1.02285E+02 1.82952E+01 0.00000E+00
 -1      4038 1.00785E+02 1.82952E+01 0.00000E+00
 -1      4039 1.00035E+02 1.95942E+01 0.00000E+00
 -1      4040 1.05285E+02 1.82952E+01 0.00000E+00
 -1      4041 1.03785E+02 1.82952E+01 0.00000E+00
 -1      4042 1.03035E+02 1.95942E+01 0.00000E+00
 -1      4043 1.08285E+02 1.82952E+01 0.00000E+00
 -1      4044 1.06785E+02 1.82952E+01 0.00000E+00
 -1      4045 1.06035E+02 1.95942E+01 0.00000E+00
 -1      4046 1.11285E+02 1.82952E+01 0.00000E+00
 -1      4047 1.09785E+02 1.82952E+01 0.00000E+00
 -1      4048 1.09035E+02 1.95942E+01 0.00000E+00
 -1      4049 1.14285E+02 1.82952E+01 0.00000E+00
 -1      4050 1.12785E+02 1.82952E+01 0.00000E+00
 -1      4051 1.12035E+02 1.95942E+01 0.00000E+00
 -1      4052 1.17285E+02 1.82952E+01 0.00000E+00
 -1      4053 1.15785E+02 1.82952E+01 0.00000E+00
 -1      4054 1.15035E+02 1.95942E+01 0.00000E+00
 -1      4055 1.20285E+02 1.82952E+01 0.00000E+00
 -1      4056 1.18785E+02 1.82952E+01 0.00000E+00
 -1      4057 1.18035E+02 1.95942E+01 0.00000E+00
 -1      4058 1.23285E+02 1.82952E+01 0.00000E+00
 -1      4059 1.21785E+02 1.82952E+01 0.00000E+00
 -1      4060 1.21035E+02 1.95942E+01 0.00000E+00
 -1      4061 1.26285E+02 1.82952E+01 0.00000E+00
 -1      4062 1.24785E+02 1.82952E+01 0.00000E+00
 -1      4063 1.24035E+02 1.95942E+01 0.00000E+00
 -1      4064 1.28910E+02 1.83809E+01 0.00000E+00
 -1      4065 1.27410E+02 1.83809E+01 0.00000E+00
 -1      4066 1.26660E+02 1.96799E+01 0.00000E+00
 -1      4067 1.28910E+02 1.98512E+01 0.00000E+00
 -1      4068 1.73115E+01 1.58325E+01 0.00000E+00
 -1      4069 1.73115E+01 1.73059E+01 0.00000E+00
 -1      4070 6.02638E+01 3.58735E+01 0.00000E+00
 -1      4071 9.02850E+01 1.82952E+01 0.00000E+00
 -1      4072 8.87850E+01 1.82952E+01 0.00000E+00
 -1      4073 8.80350E+01 1.95942E+01 0.00000E+00
 -1      4074 9.10350E+01 1.95942E+01 0.00000E+00
 -1      4075 7.03910E+01 2.01395E+01 0.00000E+00
 -1      4076 3.55282E+01 3.05888E+01 0.00000E+00
 -1      4077 3.25585E+01 2.47230E+01 0.00000E+00
 -1      4078 3.29688E+01 2.31679E+01 0.00000E+00
 -1      4079 3.19151E+01 2.23475E+01 0.00000E+00
 -1      4080 2.34000E+01 3.05150E+01 0.00000E+00
 -1      4081 2.49000E+01 3.05150E+01 0.00000E+00
 -1      4082 2.56500E+01 2.92160E+01 0.00000E+00
 -1      4083 1.68645E+01 3.01395E+01 0.00000E+00
 -1      4084 1.81545E+01 3.02941E+01 0.00000E+00
 -1      4085 1.68690E+01 2.89591E+01 0.00000E+00
 -1      4086 7.14496E+01 2.02731E+01 0.00000E+00
 -1      4087 7.08079E+01 2.10388E+01 0.00000E+00
 -1      4088 7.12247E+01 2.19381E+01 0.00000E+00
 -1      4089 3.22562E+01 2.74586E+01 0.00000E+00
 -1      4090 3.24073E+01 2.60908E+01 0.00000E+00
 -1      4091 3.13536E+01 2.52703E+01 0.00000E+00
 -1      4092 7.34929E+01 1.80403E+01 0.00000E+00
 -1      4093 7.24917E+01 1.92290E+01 0.00000E+00
 -1      4094 7.29086E+01 2.01283E+01 0.00000E+00
 -1      4095 7.49929E+01 1.80403E+01 0.00000E+00
 -1      4096 3.39799E+01 3.00465E+01 0.00000E+00
 -1      4097 3.24799E+01 3.00465E+01 0.00000E+00
 -1      4098 3.17299E+01 2.87475E+01 0.00000E+00
 -1      4099 1.67642E+01 1.37415E+01 0.00000E+00
 -1      4100 1.65615E+01 1.45335E+01 0.00000E+00
 -1      4101 1.70993E+01 1.85655E+01 0.00000E+00
 -1      4102 1.70993E+01 2.00389E+01 0.00000E+00
 -1      4103 1.83983E+01 2.07748E+01 0.00000E+00
 -1      4104 1.88228E+01 1.82558E+01 0.00000E+00
 -1      4105 8.42850E+01 1.82952E+01 0.00000E+00
 -1      4106 8.27850E+01 1.82952E+01 0.00000E+00
 -1      4107 8.50350E+01 1.95942E+01 0.00000E+00
 -1      4108 2.56472E+01 1.61755E+01 0.00000E+00
 -1      4109 2.41472E+01 1.61755E+01 0.00000E+00
 -1      4110 2.33973E+01 1.74745E+01 0.00000E+00
 -1      4111 2.61216E+01 1.84309E+01 0.00000E+00
 -1      4112 3.14047E+01 1.98507E+01 0.00000E+00
 -1      4113 1.92840E+01 2.91986E+01 0.00000E+00
 -1      4114 1.92795E+01 3.03790E+01 0.00000E+00
 -1      4115 2.04045E+01 3.04638E+01 0.00000E+00
 -1      4116 7.00226E+01 2.47805E+01 0.00000E+00
 -1      4117 7.03132E+01 2.59505E+01 0.00000E+00
 -1      4118 7.08736E+01 2.38738E+01 0.00000E+00
 -1      4119 3.06762E+01 2.79271E+01 0.00000E+00
 -1      4120 7.07284E+01 2.96536E+01 0.00000E+00
 -1      4121 6.93849E+01 2.82025E+01 0.00000E+00
 -1      4122 7.00565E+01 2.90639E+01 0.00000E+00
 -1      4123 7.14781E+01 2.86263E+01 0.00000E+00
 -1      4124 7.01342E+01 2.74469E+01 0.00000E+00
 -1      4125 1.28982E+02 2.71143E+01 0.00000E+00
 -1      4126 1.30398E+02 2.67962E+01 0.00000E+00
 -1      4127 1.30398E+02 2.53306E+01 0.00000E+00
 -1      4128 8.12850E+01 1.82952E+01 0.00000E+00
 -1      4129 7.97850E+01 1.82952E+01 0.00000E+00
 -1      4130 8.20350E+01 1.95942E+01 0.00000E+00
 -1      4131 7.75350E+01 1.69963E+01 0.00000E+00
 -1      4132 2.03228E+01 1.82558E+01 0.00000E+00
 -1      4133 2.01105E+01 1.95153E+01 0.00000E+00
 -1      4134 2.18228E+01 1.82558E+01 0.00000E+00
 -1      4135 1.94850E+01 2.27687E+01 0.00000E+00
 -1      4136 1.94850E+01 2.42375E+01 0.00000E+00
 -1      4137 2.07738E+01 2.50011E+01 0.00000E+00
 -1      4138 1.94748E+01 2.57355E+01 0.00000E+00
 -1      4139 1.68803E+01 2.67433E+01 0.00000E+00
 -1      4140 1.68757E+01 2.79237E+01 0.00000E+00
 -1      4141 1.81658E+01 2.80782E+01 0.00000E+00
 -1      4142 1.81793E+01 2.60073E+01 0.00000E+00
 -1      4143 1.94680E+01 2.67709E+01 0.00000E+00
 -1      4144 2.15295E+01 3.05487E+01 0.00000E+00
 -1      4145 2.22795E+01 2.92497E+01 0.00000E+00
 -1      4146 1.94613E+01 2.78064E+01 0.00000E+00
 -1      4147 2.05863E+01 2.78913E+01 0.00000E+00
 -1      4148 7.29000E+01 2.79170E+01 0.00000E+00
 -1      4149 7.44000E+01 2.79170E+01 0.00000E+00
 -1      4150 8.57850E+01 2.08932E+01 0.00000E+00
 -1      4151 8.42850E+01 2.08932E+01 0.00000E+00
 -1      4152 7.59000E+01 2.79170E+01 0.00000E+00
 -1      4153 7.74000E+01 2.79170E+01 0.00000E+00
 -1      4154 7.51500E+01 2.66180E+01 0.00000E+00
 -1      4155 7.89000E+01 2.79170E+01 0.00000E+00
 -1      4156 8.04000E+01 2.79170E+01 0.00000E+00
 -1      4157 7.81500E+01 2.66180E+01 0.00000E+00
 -1      4158 8.19000E+01 2.79170E+01 0.00000E+00
 -1      4159 8.34000E+01 2.79170E+01 0.00000E+00
 -1      4160 8.11500E+01 2.66180E+01 0.00000E+00
 -1      4161 8.49000E+01 2.79170E+01 0.00000E+00
 -1      4162 8.64000E+01 2.79170E+01 0.00000E+00
 -1      4163 8.41500E+01 2.66180E+01 0.00000E+00
 -1      4164 8.79000E+01 2.79170E+01 0.00000E+00
 -1      4165 8.94000E+01 2.79170E+01 0.00000E+00
 -1      4166 8.71500E+01 2.66180E+01 0.00000E+00
 -1      4167 9.09000E+01 2.79170E+01 0.00000E+00
 -1      4168 9.24000E+01 2.79170E+01 0.00000E+00
 -1      4169 9.01500E+01 2.66180E+01 0.00000E+00
 -1      4170 9.39000E+01 2.79170E+01 0.00000E+00
 -1      4171 9.54000E+01 2.79170E+01 0.00000E+00
 -1      4172 9.31500E+01 2.66180E+01 0.00000E+00
 -1      4173 9.69000E+01 2.79170E+01 0.00000E+00
 -1      4174 9.84000E+01 2.79170E+01 0.00000E+00
 -1      4175 9.61500E+01 2.66180E+01 0.00000E+00
 -1      4176 9.99000E+01 2.79170E+01 0.00000E+00
 -1      4177 1.01400E+02 2.79170E+01 0.00000E+00
 -1      4178 9.91500E+01 2.66180E+01 0.00000E+00
 -1      4179 1.02900E+02 2.79170E+01 0.00000E+00
 -1      4180 1.04400E+02 2.79170E+01 0.00000E+00
 -1      4181 1.02150E+02 2.66180E+01 0.00000E+00
 -1      4182 1.05900E+02 2.79170E+01 0.00000E+00
 -1      4183 1.07400E+02 2.79170E+01 0.00000E+00
 -1      4184 1.05150E+02 2.66180E+01 0.00000E+00
 -1      4185 1.08900E+02 2.79170E+01 0.00000E+00
 -1      4186 1.10400E+02 2.79170E+01 0.00000E+00
 -1      4187 1.08150E+02 2.66180E+01 0.00000E+00
 -1      4188 1.11900E+02 2.79170E+01 0.00000E+00
 -1      4189 1.13400E+02 2.79170E+01 0.00000E+00
 -1      4190 1.11150E+02 2.66180E+01 0.00000E+00
 -1      4191 1.14900E+02 2.79170E+01 0.00000E+00
 -1      4192 1.16400E+02 2.79170E+01 0.00000E+00
 -1      4193 1.14150E+02 2.66180E+01 0.00000E+00
 -1      4194 1.17900E+02 2.79170E+01 0.00000E+00
 -1      4195 1.19400E+02 2.79170E+01 0.00000E+00
 -1      4196 1.17150E+02 2.66180E+01 0.00000E+00
 -1      4197 1.20900E+02 2.79170E+01 0.00000E+00
 -1      4198 1.22400E+02 2.79170E+01 0.00000E+00
 -1      4199 1.20150E+02 2.66180E+01 0.00000E+00
 -1      4200 1.23900E+02 2.79170E+01 0.00000E+00
 -1      4201 1.25400E+02 2.79170E+01 0.00000E+00
 -1      4202 1.23150E+02 2.66180E+01 0.00000E+00
 -1      4203 1.26483E+02 2.76747E+01 0.00000E+00
 -1      4204 1.27899E+02 2.73566E+01 0.00000E+00
 -1      4205 1.27899E+02 2.58910E+01 0.00000E+00
 -1      4206 1.25733E+02 2.63757E+01 0.00000E+00
 -1      4207 2.97338E+01 2.02081E+01 0.00000E+00
 -1      4208 2.82338E+01 2.02081E+01 0.00000E+00
 -1      4209 1.00785E+02 2.08932E+01 0.00000E+00
 -1      4210 9.92850E+01 2.08932E+01 0.00000E+00
 -1      4211 9.47850E+01 2.08932E+01 0.00000E+00
 -1      4212 9.32850E+01 2.08932E+01 0.00000E+00
 -1      4213 2.49000E+01 2.79170E+01 0.00000E+00
 -1      4214 2.64000E+01 2.79170E+01 0.00000E+00
 -1      4215 1.03785E+02 2.08932E+01 0.00000E+00
 -1      4216 1.02285E+02 2.08932E+01 0.00000E+00
 -1      4217 1.01535E+02 2.21922E+01 0.00000E+00
 -1      4218 1.06785E+02 2.08932E+01 0.00000E+00
 -1      4219 1.05285E+02 2.08932E+01 0.00000E+00
 -1      4220 1.04535E+02 2.21922E+01 0.00000E+00
 -1      4221 1.09785E+02 2.08932E+01 0.00000E+00
 -1      4222 1.08285E+02 2.08932E+01 0.00000E+00
 -1      4223 1.07535E+02 2.21922E+01 0.00000E+00
 -1      4224 1.12785E+02 2.08932E+01 0.00000E+00
 -1      4225 1.11285E+02 2.08932E+01 0.00000E+00
 -1      4226 1.10535E+02 2.21922E+01 0.00000E+00
 -1      4227 1.15785E+02 2.08932E+01 0.00000E+00
 -1      4228 1.14285E+02 2.08932E+01 0.00000E+00
 -1      4229 1.13535E+02 2.21922E+01 0.00000E+00
 -1      4230 1.18785E+02 2.08932E+01 0.00000E+00
 -1      4231 1.17285E+02 2.08932E+01 0.00000E+00
 -1      4232 1.16535E+02 2.21922E+01 0.00000E+00
 -1      4233 1.21785E+02 2.08932E+01 0.00000E+00
 -1      4234 1.20285E+02 2.08932E+01 0.00000E+00
 -1      4235 1.19535E+02 2.21922E+01 0.00000E+00
 -1      4236 1.24785E+02 2.08932E+01 0.00000E+00
 -1      4237 1.23285E+02 2.08932E+01 0.00000E+00
 -1      4238 1.22535E+02 2.21922E+01 0.00000E+00
 -1      4239 3.06547E+01 2.11497E+01 0.00000E+00
 -1      4240 2.20779E+01 2.42610E+01 0.00000E+00
 -1      4241 2.20676E+01 2.57590E+01 0.00000E+00
 -1      4242 2.99869E+01 2.58116E+01 0.00000E+00
 -1      4243 3.01381E+01 2.44438E+01 0.00000E+00
 -1      4244 2.24568E+01 2.78576E+01 0.00000E+00
 -1      4245 9.77850E+01 2.08932E+01 0.00000E+00
 -1      4246 9.62850E+01 2.08932E+01 0.00000E+00
 -1      4247 9.55350E+01 2.21922E+01 0.00000E+00
 -1      4248 9.85350E+01 2.21922E+01 0.00000E+00
 -1      4249 2.90553E+01 2.81582E+01 0.00000E+00
 -1      4250 2.95816E+01 2.68693E+01 0.00000E+00
 -1      4251 2.83660E+01 2.60427E+01 0.00000E+00
 -1      4252 2.75553E+01 2.81582E+01 0.00000E+00
 -1      4253 7.82850E+01 1.82952E+01 0.00000E+00
 -1      4254 7.67850E+01 1.82952E+01 0.00000E+00
 -1      4255 7.90350E+01 1.95942E+01 0.00000E+00
 -1      4256 3.02443E+01 2.27048E+01 0.00000E+00
 -1      4257 1.99039E+01 2.05123E+01 0.00000E+00
 -1      4258 1.96916E+01 2.17718E+01 0.00000E+00
 -1      4259 2.09906E+01 2.25062E+01 0.00000E+00
 -1      4260 2.14039E+01 2.05123E+01 0.00000E+00
 -1      4261 7.21571E+01 2.23424E+01 0.00000E+00
 -1      4262 7.15153E+01 2.31081E+01 0.00000E+00
 -1      4263 7.18059E+01 2.42781E+01 0.00000E+00
 -1      4264 7.42413E+01 2.02543E+01 0.00000E+00
 -1      4265 7.31992E+01 2.12983E+01 0.00000E+00
 -1      4266 7.34898E+01 2.24684E+01 0.00000E+00
 -1      4267 8.35350E+01 2.21922E+01 0.00000E+00
 -1      4268 8.27850E+01 2.08932E+01 0.00000E+00
 -1      4269 8.12850E+01 2.08932E+01 0.00000E+00
 -1      4270 2.31850E+01 1.87340E+01 0.00000E+00
 -1      4271 7.09851E+01 2.65402E+01 0.00000E+00
 -1      4272 2.74839E+01 2.15071E+01 0.00000E+00
 -1      4273 2.67339E+01 2.02081E+01 0.00000E+00
 -1      4274 9.25350E+01 2.21922E+01 0.00000E+00
 -1      4275 9.17850E+01 2.08932E+01 0.00000E+00
 -1      4276 9.02850E+01 2.08932E+01 0.00000E+00
 -1      4277 2.37609E+01 2.71174E+01 0.00000E+00
 -1      4278 2.45109E+01 2.58184E+01 0.00000E+00
 -1      4279 2.88776E+01 2.32460E+01 0.00000E+00
 -1      4280 2.68053E+01 2.68592E+01 0.00000E+00
 -1      4281 2.24911E+01 2.22671E+01 0.00000E+00
 -1      4282 2.22845E+01 2.32640E+01 0.00000E+00
 -1      4283 2.35784E+01 2.40219E+01 0.00000E+00
 -1      4284 1.25910E+02 2.09789E+01 0.00000E+00
 -1      4285 1.25160E+02 2.22779E+01 0.00000E+00
 -1      4286 1.27035E+02 2.10646E+01 0.00000E+00
 -1      4287 1.29355E+02 2.11201E+01 0.00000E+00
 -1      4288 1.28230E+02 2.10345E+01 0.00000E+00
 -1      4289 1.29799E+02 2.23890E+01 0.00000E+00
 -1      4290 1.29953E+02 2.40617E+01 0.00000E+00
 -1      4291 8.87850E+01 2.08932E+01 0.00000E+00
 -1      4292 8.72850E+01 2.08932E+01 0.00000E+00
 -1      4293 8.65350E+01 2.21922E+01 0.00000E+00
 -1      4294 8.95350E+01 2.21922E+01 0.00000E+00
 -1      4295 7.22281E+01 2.73273E+01 0.00000E+00
 -1      4296 7.57429E+01 1.93393E+01 0.00000E+00
 -1      4297 2.53717E+01 1.97299E+01 0.00000E+00
 -1      4298 2.73776E+01 2.32461E+01 0.00000E+00
 -1      4299 7.24071E+01 2.58309E+01 0.00000E+00
 -1      4300 2.37972E+01 2.05112E+01 0.00000E+00
 -1      4301 7.74000E+01 2.53190E+01 0.00000E+00
 -1      4302 7.89000E+01 2.53190E+01 0.00000E+00
 -1      4303 8.08425E+01 2.44051E+01 0.00000E+00
 -1      4304 8.23425E+01 2.44051E+01 0.00000E+00
 -1      4305 8.38425E+01 2.44051E+01 0.00000E+00
 -1      4306 8.53425E+01 2.44051E+01 0.00000E+00
 -1      4307 8.68425E+01 2.44051E+01 0.00000E+00
 -1      4308 8.83425E+01 2.44051E+01 0.00000E+00
 -1      4309 8.98425E+01 2.44051E+01 0.00000E+00
 -1      4310 9.13425E+01 2.44051E+01 0.00000E+00
 -1      4311 9.28425E+01 2.44051E+01 0.00000E+00
 -1      4312 9.43425E+01 2.44051E+01 0.00000E+00
 -1      4313 9.58425E+01 2.44051E+01 0.00000E+00
 -1      4314 9.73425E+01 2.44051E+01 0.00000E+00
 -1      4315 9.88425E+01 2.44051E+01 0.00000E+00
 -1      4316 1.00342E+02 2.44051E+01 0.00000E+00
 -1      4317 1.01842E+02 2.44051E+01 0.00000E+00
 -1      4318 1.03342E+02 2.44051E+01 0.00000E+00
 -1      4319 1.04842E+02 2.44051E+01 0.00000E+00
 -1      4320 1.06342E+02 2.44051E+01 0.00000E+00
 -1      4321 1.07842E+02 2.44051E+01 0.00000E+00
 -1      4322 1.09342E+02 2.44051E+01 0.00000E+00
 -1      4323 1.10842E+02 2.44051E+01 0.00000E+00
 -1      4324 1.12342E+02 2.44051E+01 0.00000E+00
 -1      4325 1.13842E+02 2.44051E+01 0.00000E+00
 -1      4326 1.15342E+02 2.44051E+01 0.00000E+00
 -1      4327 1.16842E+02 2.44051E+01 0.00000E+00
 -1      4328 1.18342E+02 2.44051E+01 0.00000E+00
 -1      4329 1.19842E+02 2.44051E+01 0.00000E+00
 -1      4330 1.21342E+02 2.44051E+01 0.00000E+00
 -1      4331 1.22842E+02 2.44051E+01 0.00000E+00
 -1      4332 1.24342E+02 2.44051E+01 0.00000E+00
 -1      4333 2.72107E+01 2.58015E+01 0.00000E+00
 -1      4334 7.30488E+01 2.50652E+01 0.00000E+00
 -1      4335 7.93425E+01 2.18071E+01 0.00000E+00
 -1      4336 7.78425E+01 2.18071E+01 0.00000E+00
 -1      4337 7.44744E+01 2.51921E+01 0.00000E+00
 -1      4338 7.59744E+01 2.51921E+01 0.00000E+00
 -1      4339 7.67244E+01 2.38931E+01 0.00000E+00
 -1      4340 7.38732E+01 2.36393E+01 0.00000E+00
 -1      4341 7.60335E+01 2.05093E+01 0.00000E+00
 -1      4342 1.28828E+02 2.39760E+01 0.00000E+00
 -1      4343 2.58170E+01 2.40626E+01 0.00000E+00
 -1      4344 2.46778E+01 2.32630E+01 0.00000E+00
 -1      4345 1.26550E+02 2.42484E+01 0.00000E+00
 -1      4346 1.27633E+02 2.40061E+01 0.00000E+00
 -1      4347 7.49154E+01 2.25953E+01 0.00000E+00
 -1      4348 8.00925E+01 2.31061E+01 0.00000E+00
 -1      4349 1.25467E+02 2.44908E+01 0.00000E+00
 -1      4350 1.27480E+02 2.23335E+01 0.00000E+00
 -1      4351 7.63410E+01 2.27222E+01 0.00000E+00
 -1      4352 2.35906E+01 2.15082E+01 0.00000E+00
 -1      4353 2.48845E+01 2.22660E+01 0.00000E+00
 -3
    3C                          2095                                     1
 -1       164    8    0    1
 -2         6         7        23      1130      1293      1147
 -1       165    8    0    1
 -2         7         8       164      1131      1294      1295
 -1       166    8    0    1
 -2         8         9       165      1132      1296      1297
 -1       167    8    0    1
 -2         8       165       164      1297      1298      1294
 -1       168    8    0    1
 -2         9        10       166      1133      1299      1300
 -1       169    8    0    1
 -2         9       166       165      1300      1301      1296
 -1       170    8    0    1
 -2        10        11       167      1134      1302      1303
 -1       171    8    0    1
 -2        10       167       166      1303      1304      1299
 -1       172    8    0    1
 -2        11        12       168      1135      1305      1306
 -1       173    8    0    1
 -2        11       168       167      1306      1307      1302
 -1       174    8    0    1
 -2        12        13       169      1136      1308      1309
 -1       175    8    0    1
 -2        12       169       168      1309      1310      1305
 -1       176    8    0    1
 -2        13        14       170      1137      1311      1312
 -1       177    8    0    1
 -2        13       170       169      1312      1313      1308
 -1       178    8    0    1
 -2        14        15       171      1138      1314      1315
 -1       179    8    0    1
 -2        14       171       170      1315      1316      1311
 -1       180    8    0    1
 -2        15        16       172      1139      1317      1318
 -1       181    8    0    1
 -2        15       172       171      1318      1319      1314
 -1       182    8    0    1
 -2        16        17       173      1140      1320      1321
 -1       183    8    0    1
 -2        16       173       172      1321      1322      1317
 -1       184    8    0    1
 -2        17        18       174      1141      1323      1324
 -1       185    8    0    1
 -2        17       174       173      1324      1325      1320
 -1       186    8    0    1
 -2        18        19       175      1142      1326      1327
 -1       187    8    0    1
 -2        18       175       174      1327      1328      1323
 -1       188    8    0    1
 -2        19        20       176      1143      1329      1330
 -1       189    8    0    1
 -2        19       176       175      1330      1331      1326
 -1       190    8    0    1
 -2        20        21       177      1144      1332      1333
 -1       191    8    0    1
 -2        20       177       176      1333      1334      1329
 -1       192    8    0    1
 -2        21        22       178      1145      1335      1336
 -1       193    8    0    1
 -2        21       178       177      1336      1337      1332
 -1       194    8    0    1
 -2        22         5       179      1146      1338      1339
 -1       195    8    0    1
 -2       178        22       179      1335      1339      1340
 -1       196    8    0    1
 -2         5        72       179      1197      1341      1338
 -1       197    8    0    1
 -2        24        23       180      1148      1342      1343
 -1       198    8    0    1
 -2        25        24       181      1149      1344      1345
 -1       199    8    0    1
 -2        24       180       181      1343      1346      1344
 -1       200    8    0    1
 -2        26        25       182      1150      1347      1348
 -1       201    8    0    1
 -2        25       181       182      1345      1349      1347
 -1       202    8    0    1
 -2        27        26       183      1151      1350      1351
 -1       203    8    0    1
 -2        26       182       183      1348      1352      1350
 -1       204    8    0    1
 -2        28        27       184      1152      1353      1354
 -1       205    8    0    1
 -2        27       183       184      1351      1355      1353
 -1       206    8    0    1
 -2        29        28       185      1153      1356      1357
 -1       207    8    0    1
 -2        28       184       185      1354      1358      1356
 -1       208    8    0    1
 -2        30        29       186      1154      1359      1360
 -1       209    8    0    1
 -2        29       185       186      1357      1361      1359
 -1       210    8    0    1
 -2        31        30       187      1155      1362      1363
 -1       211    8    0    1
 -2        30       186       187      1360      1364      1362
 -1       212    8    0    1
 -2        32        31       188      1156      1365      1366
 -1       213    8    0    1
 -2        31       187       188      1363      1367      1365
 -1       214    8    0    1
 -2        33        32       189      1157      1368      1369
 -1       215    8    0    1
 -2        32       188       189      1366      1370      1368
 -1       216    8    0    1
 -2        34        33       190      1158      1371      1372
 -1       217    8    0    1
 -2        33       189       190      1369      1373      1371
 -1       218    8    0    1
 -2        35        34       191      1159      1374      1375
 -1       219    8    0    1
 -2        34       190       191      1372      1376      1374
 -1       220    8    0    1
 -2        36        35       192      1160      1377      1378
 -1       221    8    0    1
 -2        35       191       192      1375      1379      1377
 -1       222    8    0    1
 -2        37        36       193      1161      1380      1381
 -1       223    8    0    1
 -2        36       192       193      1378      1382      1380
 -1       224    8    0    1
 -2        38        37       194      1162      1383      1384
 -1       225    8    0    1
 -2        37       193       194      1381      1385      1383
 -1       226    8    0    1
 -2        39        38       195      1163      1386      1387
 -1       227    8    0    1
 -2        38       194       195      1384      1388      1386
 -1       228    8    0    1
 -2        40        39       196      1164      1389      1390
 -1       229    8    0    1
 -2        39       195       196      1387      1391      1389
 -1       230    8    0    1
 -2        41        40       197      1165      1392      1393
 -1       231    8    0    1
 -2        40       196       197      1390      1394      1392
 -1       232    8    0    1
 -2        42        41       198      1166      1395      1396
 -1       233    8    0    1
 -2        41       197       198      1393      1397      1395
 -1       234    8    0    1
 -2        43        42       199      1167      1398      1399
 -1       235    8    0    1
 -2        42       198       199      1396      1400      1398
 -1       236    8    0    1
 -2        44        43       200      1168      1401      1402
 -1       237    8    0    1
 -2        43       199       200      1399      1403      1401
 -1       238    8    0    1
 -2        45        44       201      1169      1404      1405
 -1       239    8    0    1
 -2        44       200       201      1402      1406      1404
 -1       240    8    0    1
 -2        46        45       202      1170      1407      1408
 -1       241    8    0    1
 -2        45       201       202      1405      1409      1407
 -1       242    8    0    1
 -2        47        46       203      1171      1410      1411
 -1       243    8    0    1
 -2        46       202       203      1408      1412      1410
 -1       244    8    0    1
 -2        48        47       204      1172      1413      1414
 -1       245    8    0    1
 -2        47       203       204      1411      1415      1413
 -1       246    8    0    1
 -2        49        48       205      1173      1416      1417
 -1       247    8    0    1
 -2        48       204       205      1414      1418      1416
 -1       248    8    0    1
 -2        50        49       206      1174      1419      1420
 -1       249    8    0    1
 -2        49       205       206      1417      1421      1419
 -1       250    8    0    1
 -2        51        50       207      1175      1422      1423
 -1       251    8    0    1
 -2        50       206       207      1420      1424      1422
 -1       252    8    0    1
 -2        52        51       208      1176      1425      1426
 -1       253    8    0    1
 -2        51       207       208      1423      1427      1425
 -1       254    8    0    1
 -2        53        52       209      1177      1428      1429
 -1       255    8    0    1
 -2        52       208       209      1426      1430      1428
 -1       256    8    0    1
 -2        54        53       210      1178      1431      1432
 -1       257    8    0    1
 -2        53       209       210      1429      1433      1431
 -1       258    8    0    1
 -2        55        54       211      1179      1434      1435
 -1       259    8    0    1
 -2        54       210       211      1432      1436      1434
 -1       260    8    0    1
 -2        56        55       212      1180      1437      1438
 -1       261    8    0    1
 -2        55       211       212      1435      1439      1437
 -1       262    8    0    1
 -2        57        56       213      1181      1440      1441
 -1       263    8    0    1
 -2        56       212       213      1438      1442      1440
 -1       264    8    0    1
 -2        58        57       214      1182      1443      1444
 -1       265    8    0    1
 -2        57       213       214      1441      1445      1443
 -1       266    8    0    1
 -2        59        58       215      1183      1446      1447
 -1       267    8    0    1
 -2        58       214       215      1444      1448      1446
 -1       268    8    0    1
 -2        60        59       216      1184      1449      1450
 -1       269    8    0    1
 -2        59       215       216      1447      1451      1449
 -1       270    8    0    1
 -2        61        60       217      1185      1452      1453
 -1       271    8    0    1
 -2        60       216       217      1450      1454      1452
 -1       272    8    0    1
 -2        62        61       218      1186      1455      1456
 -1       273    8    0    1
 -2        61       217       218      1453      1457      1455
 -1       274    8    0    1
 -2        63        62       219      1187      1458      1459
 -1       275    8    0    1
 -2        62       218       219      1456      1460      1458
 -1       276    8    0    1
 -2        64        63       220      1188      1461      1462
 -1       277    8    0    1
 -2        63       219       220      1459      1463      1461
 -1       278    8    0    1
 -2        65        64       221      1189      1464      1465
 -1       279    8    0    1
 -2        64       220       221      1462      1466      1464
 -1       280    8    0    1
 -2        66        65       222      1190      1467      1468
 -1       281    8    0    1
 -2        65       221       222      1465      1469      1467
 -1       282    8    0    1
 -2        67        66       223      1191      1470      1471
 -1       283    8    0    1
 -2        66       222       223      1468      1472      1470
 -1       284    8    0    1
 -2        68        67       224      1192      1473      1474
 -1       285    8    0    1
 -2        67       223       224      1471      1475      1473
 -1       286    8    0    1
 -2        69        68       225      1193      1476      1477
 -1       287    8    0    1
 -2        68       224       225      1474      1478      1476
 -1       288    8    0    1
 -2        70        69       226      1194      1479      1480
 -1       289    8    0    1
 -2        69       225       226      1477      1481      1479
 -1       290    8    0    1
 -2        71        70       227      1195      1482      1483
 -1       291    8    0    1
 -2        70       226       227      1480      1484      1482
 -1       292    8    0    1
 -2         4        71       136      1196      1485      1263
 -1       293    8    0    1
 -2       136        71       227      1485      1483      1486
 -1       294    8    0    1
 -2        72        73       228      1198      1487      1488
 -1       295    8    0    1
 -2        72       228       179      1488      1489      1341
 -1       296    8    0    1
 -2        73        74       229      1199      1490      1491
 -1       297    8    0    1
 -2        73       229       228      1491      1492      1487
 -1       298    8    0    1
 -2        74        75       230      1200      1493      1494
 -1       299    8    0    1
 -2        74       230       229      1494      1495      1490
 -1       300    8    0    1
 -2        75        76       231      1201      1496      1497
 -1       301    8    0    1
 -2        75       231       230      1497      1498      1493
 -1       302    8    0    1
 -2        76        77       232      1202      1499      1500
 -1       303    8    0    1
 -2        76       232       231      1500      1501      1496
 -1       304    8    0    1
 -2        77        78       233      1203      1502      1503
 -1       305    8    0    1
 -2        77       233       232      1503      1504      1499
 -1       306    8    0    1
 -2        78        79       234      1204      1505      1506
 -1       307    8    0    1
 -2        78       234       233      1506      1507      1502
 -1       308    8    0    1
 -2        79        80       235      1205      1508      1509
 -1       309    8    0    1
 -2        79       235       234      1509      1510      1505
 -1       310    8    0    1
 -2        80        81       236      1206      1511      1512
 -1       311    8    0    1
 -2        80       236       235      1512      1513      1508
 -1       312    8    0    1
 -2        81        82       237      1207      1514      1515
 -1       313    8    0    1
 -2        81       237       236      1515      1516      1511
 -1       314    8    0    1
 -2        82        83       238      1208      1517      1518
 -1       315    8    0    1
 -2        82       238       237      1518      1519      1514
 -1       316    8    0    1
 -2        83        84       239      1209      1520      1521
 -1       317    8    0    1
 -2        83       239       238      1521      1522      1517
 -1       318    8    0    1
 -2        84        85       240      1210      1523      1524
 -1       319    8    0    1
 -2        84       240       239      1524      1525      1520
 -1       320    8    0    1
 -2        85        86       241      1211      1526      1527
 -1       321    8    0    1
 -2        85       241       240      1527      1528      1523
 -1       322    8    0    1
 -2        86        87       242      1212      1529      1530
 -1       323    8    0    1
 -2        86       242       241      1530      1531      1526
 -1       324    8    0    1
 -2        87        88       243      1213      1532      1533
 -1       325    8    0    1
 -2        87       243       242      1533      1534      1529
 -1       326    8    0    1
 -2        88        89       244      1214      1535      1536
 -1       327    8    0    1
 -2        88       244       243      1536      1537      1532
 -1       328    8    0    1
 -2        89        90       245      1215      1538      1539
 -1       329    8    0    1
 -2        89       245       244      1539      1540      1535
 -1       330    8    0    1
 -2        90        91       246      1216      1541      1542
 -1       331    8    0    1
 -2        90       246       245      1542      1543      1538
 -1       332    8    0    1
 -2        91        92       247      1217      1544      1545
 -1       333    8    0    1
 -2        91       247       246      1545      1546      1541
 -1       334    8    0    1
 -2        92        93       248      1218      1547      1548
 -1       335    8    0    1
 -2        92       248       247      1548      1549      1544
 -1       336    8    0    1
 -2        93        94       249      1219      1550      1551
 -1       337    8    0    1
 -2        93       249       248      1551      1552      1547
 -1       338    8    0    1
 -2        94        95       250      1220      1553      1554
 -1       339    8    0    1
 -2        94       250       249      1554      1555      1550
 -1       340    8    0    1
 -2        95        96       251      1221      1556      1557
 -1       341    8    0    1
 -2        95       251       250      1557      1558      1553
 -1       342    8    0    1
 -2        96        97       252      1222      1559      1560
 -1       343    8    0    1
 -2        96       252       251      1560      1561      1556
 -1       344    8    0    1
 -2        97        98       253      1223      1562      1563
 -1       345    8    0    1
 -2        97       253       252      1563      1564      1559
 -1       346    8    0    1
 -2        98        99       254      1224      1565      1566
 -1       347    8    0    1
 -2        98       254       253      1566      1567      1562
 -1       348    8    0    1
 -2        99       100       255      1225      1568      1569
 -1       349    8    0    1
 -2        99       255       254      1569      1570      1565
 -1       350    8    0    1
 -2       100       101       256      1226      1571      1572
 -1       351    8    0    1
 -2       100       256       255      1572      1573      1568
 -1       352    8    0    1
 -2       101       102       257      1227      1574      1575
 -1       353    8    0    1
 -2       101       257       256      1575      1576      1571
 -1       354    8    0    1
 -2       102       103       258      1228      1577      1578
 -1       355    8    0    1
 -2       102       258       257      1578      1579      1574
 -1       356    8    0    1
 -2       103       104       259      1229      1580      1581
 -1       357    8    0    1
 -2       103       259       258      1581      1582      1577
 -1       358    8    0    1
 -2       104       105       260      1230      1583      1584
 -1       359    8    0    1
 -2       104       260       259      1584      1585      1580
 -1       360    8    0    1
 -2       105       106       261      1231      1586      1587
 -1       361    8    0    1
 -2       105       261       260      1587      1588      1583
 -1       362    8    0    1
 -2       106       107       262      1232      1589      1590
 -1       363    8    0    1
 -2       106       262       261      1590      1591      1586
 -1       364    8    0    1
 -2       107       108       263      1233      1592      1593
 -1       365    8    0    1
 -2       107       263       262      1593      1594      1589
 -1       366    8    0    1
 -2       108       109       264      1234      1595      1596
 -1       367    8    0    1
 -2       108       264       263      1596      1597      1592
 -1       368    8    0    1
 -2       109       110       265      1235      1598      1599
 -1       369    8    0    1
 -2       109       265       264      1599      1600      1595
 -1       370    8    0    1
 -2       110       111       266      1236      1601      1602
 -1       371    8    0    1
 -2       110       266       265      1602      1603      1598
 -1       372    8    0    1
 -2       111       112       267      1237      1604      1605
 -1       373    8    0    1
 -2       111       267       266      1605      1606      1601
 -1       374    8    0    1
 -2       112       113       268      1238      1607      1608
 -1       375    8    0    1
 -2       112       268       267      1608      1609      1604
 -1       376    8    0    1
 -2       113       114       269      1239      1610      1611
 -1       377    8    0    1
 -2       113       269       268      1611      1612      1607
 -1       378    8    0    1
 -2       114       115       270      1240      1613      1614
 -1       379    8    0    1
 -2       114       270       269      1614      1615      1610
 -1       380    8    0    1
 -2       115       116       271      1241      1616      1617
 -1       381    8    0    1
 -2       115       271       270      1617      1618      1613
 -1       382    8    0    1
 -2       116       117       272      1242      1619      1620
 -1       383    8    0    1
 -2       116       272       271      1620      1621      1616
 -1       384    8    0    1
 -2       117       118       273      1243      1622      1623
 -1       385    8    0    1
 -2       117       273       272      1623      1624      1619
 -1       386    8    0    1
 -2       118       119       274      1244      1625      1626
 -1       387    8    0    1
 -2       118       274       273      1626      1627      1622
 -1       388    8    0    1
 -2       119       120       275      1245      1628      1629
 -1       389    8    0    1
 -2       119       275       274      1629      1630      1625
 -1       390    8    0    1
 -2       120         3       121      1246      1247      1631
 -1       391    8    0    1
 -2       121       122       276      1248      1632      1633
 -1       392    8    0    1
 -2       122       123       277      1249      1634      1635
 -1       393    8    0    1
 -2       122       277       276      1635      1636      1632
 -1       394    8    0    1
 -2       123       124       278      1250      1637      1638
 -1       395    8    0    1
 -2       123       278       277      1638      1639      1634
 -1       396    8    0    1
 -2       124       125       279      1251      1640      1641
 -1       397    8    0    1
 -2       124       279       278      1641      1642      1637
 -1       398    8    0    1
 -2       125       126       280      1252      1643      1644
 -1       399    8    0    1
 -2       125       280       279      1644      1645      1640
 -1       400    8    0    1
 -2       126       127       281      1253      1646      1647
 -1       401    8    0    1
 -2       126       281       280      1647      1648      1643
 -1       402    8    0    1
 -2       127       128       282      1254      1649      1650
 -1       403    8    0    1
 -2       127       282       281      1650      1651      1646
 -1       404    8    0    1
 -2       128       129       283      1255      1652      1653
 -1       405    8    0    1
 -2       128       283       282      1653      1654      1649
 -1       406    8    0    1
 -2       129       130       284      1256      1655      1656
 -1       407    8    0    1
 -2       129       284       283      1656      1657      1652
 -1       408    8    0    1
 -2       130       131       285      1257      1658      1659
 -1       409    8    0    1
 -2       130       285       284      1659      1660      1655
 -1       410    8    0    1
 -2       131       132       286      1258      1661      1662
 -1       411    8    0    1
 -2       131       286       285      1662      1663      1658
 -1       412    8    0    1
 -2       132       133       287      1259      1664      1665
 -1       413    8    0    1
 -2       132       287       286      1665      1666      1661
 -1       414    8    0    1
 -2       133       134       288      1260      1667      1668
 -1       415    8    0    1
 -2       133       288       287      1668      1669      1664
 -1       416    8    0    1
 -2       134       135       289      1261      1670      1671
 -1       417    8    0    1
 -2       134       289       288      1671      1672      1667
 -1       418    8    0    1
 -2       135       136       290      1262      1673      1674
 -1       419    8    0    1
 -2       289       135       290      1670      1674      1675
 -1       420    8    0    1
 -2       136       227       290      1486      1676      1673
 -1       421    8    0    1
 -2         2       137       291      1264      1677      1678
 -1       422    8    0    1
 -2       137       138       292      1265      1679      1680
 -1       423    8    0    1
 -2       138       139       293      1266      1681      1682
 -1       424    8    0    1
 -2       139       140       294      1267      1683      1684
 -1       425    8    0    1
 -2       140       141       295      1268      1685      1686
 -1       426    8    0    1
 -2       141       142       296      1269      1687      1688
 -1       427    8    0    1
 -2       142       143       297      1270      1689      1690
 -1       428    8    0    1
 -2       143       144       298      1271      1691      1692
 -1       429    8    0    1
 -2       144       145       299      1272      1693      1694
 -1       430    8    0    1
 -2       145       146       300      1273      1695      1696
 -1       431    8    0    1
 -2       146       147       301      1274      1697      1698
 -1       432    8    0    1
 -2       147       148       302      1275      1699      1700
 -1       433    8    0    1
 -2       148       149       303      1276      1701      1702
 -1       434    8    0    1
 -2       149       150       304      1277      1703      1704
 -1       435    8    0    1
 -2       150       151       305      1278      1705      1706
 -1       436    8    0    1
 -2       151       152       306      1279      1707      1708
 -1       437    8    0    1
 -2       152       153       307      1280      1709      1710
 -1       438    8    0    1
 -2       153       154       308      1281      1711      1712
 -1       439    8    0    1
 -2       154       155       309      1282      1713      1714
 -1       440    8    0    1
 -2       155       156       310      1283      1715      1716
 -1       441    8    0    1
 -2       156       157       311      1284      1717      1718
 -1       442    8    0    1
 -2       157       158       312      1285      1719      1720
 -1       443    8    0    1
 -2       158       159       313      1286      1721      1722
 -1       444    8    0    1
 -2       159       160       314      1287      1723      1724
 -1       445    8    0    1
 -2       160         1       315      1288      1725      1726
 -1       446    8    0    1
 -2         1       161       316      1289      1727      1728
 -1       447    8    0    1
 -2       161       162       317      1290      1729      1730
 -1       448    8    0    1
 -2       162       163       318      1291      1731      1732
 -1       449    8    0    1
 -2       163         2       319      1292      1733      1734
 -1       450    8    0    1
 -2       294       140       295      1683      1686      1735
 -1       451    8    0    1
 -2       293       139       294      1681      1684      1736
 -1       452    8    0    1
 -2       120       121       275      1631      1737      1628
 -1       453    8    0    1
 -2       121       276       275      1633      1738      1737
 -1       454    8    0    1
 -2       291       137       292      1677      1680      1739
 -1       455    8    0    1
 -2       292       138       293      1679      1682      1740
 -1       456    8    0    1
 -2         2       291       319      1678      1741      1733
 -1       457    8    0    1
 -2       141       296       295      1688      1742      1685
 -1       458    8    0    1
 -2       142       297       296      1690      1743      1687
 -1       459    8    0    1
 -2       143       298       297      1692      1744      1689
 -1       460    8    0    1
 -2       144       299       298      1694      1745      1691
 -1       461    8    0    1
 -2       145       300       299      1696      1746      1693
 -1       462    8    0    1
 -2       146       301       300      1698      1747      1695
 -1       463    8    0    1
 -2       147       302       301      1700      1748      1697
 -1       464    8    0    1
 -2       148       303       302      1702      1749      1699
 -1       465    8    0    1
 -2       149       304       303      1704      1750      1701
 -1       466    8    0    1
 -2       150       305       304      1706      1751      1703
 -1       467    8    0    1
 -2       151       306       305      1708      1752      1705
 -1       468    8    0    1
 -2       152       307       306      1710      1753      1707
 -1       469    8    0    1
 -2       153       308       307      1712      1754      1709
 -1       470    8    0    1
 -2       154       309       308      1714      1755      1711
 -1       471    8    0    1
 -2       155       310       309      1716      1756      1713
 -1       472    8    0    1
 -2       156       311       310      1718      1757      1715
 -1       473    8    0    1
 -2       157       312       311      1720      1758      1717
 -1       474    8    0    1
 -2       158       313       312      1722      1759      1719
 -1       475    8    0    1
 -2       159       314       313      1724      1760      1721
 -1       476    8    0    1
 -2       160       315       314      1726      1761      1723
 -1       477    8    0    1
 -2         1       316       315      1728      1762      1725
 -1       478    8    0    1
 -2       161       317       316      1730      1763      1727
 -1       479    8    0    1
 -2       162       318       317      1732      1764      1729
 -1       480    8    0    1
 -2       163       319       318      1734      1765      1731
 -1       481    8    0    1
 -2        23         7       164      1293      1295      1766
 -1       482    8    0    1
 -2       165       166       320      1301      1767      1768
 -1       483    8    0    1
 -2       164       165       321      1298      1769      1770
 -1       484    8    0    1
 -2       165       320       321      1768      1771      1769
 -1       485    8    0    1
 -2       167       168       322      1307      1772      1773
 -1       486    8    0    1
 -2       168       169       323      1310      1774      1775
 -1       487    8    0    1
 -2       168       323       322      1775      1776      1772
 -1       488    8    0    1
 -2       169       170       324      1313      1777      1778
 -1       489    8    0    1
 -2       169       324       323      1778      1779      1774
 -1       490    8    0    1
 -2       170       171       325      1316      1780      1781
 -1       491    8    0    1
 -2       170       325       324      1781      1782      1777
 -1       492    8    0    1
 -2       171       172       326      1319      1783      1784
 -1       493    8    0    1
 -2       171       326       325      1784      1785      1780
 -1       494    8    0    1
 -2       172       173       327      1322      1786      1787
 -1       495    8    0    1
 -2       172       327       326      1787      1788      1783
 -1       496    8    0    1
 -2       173       174       328      1325      1789      1790
 -1       497    8    0    1
 -2       173       328       327      1790      1791      1786
 -1       498    8    0    1
 -2       174       175       329      1328      1792      1793
 -1       499    8    0    1
 -2       174       329       328      1793      1794      1789
 -1       500    8    0    1
 -2       175       176       330      1331      1795      1796
 -1       501    8    0    1
 -2       175       330       329      1796      1797      1792
 -1       502    8    0    1
 -2       176       177       331      1334      1798      1799
 -1       503    8    0    1
 -2       176       331       330      1799      1800      1795
 -1       504    8    0    1
 -2       177       178       332      1337      1801      1802
 -1       505    8    0    1
 -2       177       332       331      1802      1803      1798
 -1       506    8    0    1
 -2       178       179       333      1340      1804      1805
 -1       507    8    0    1
 -2       332       178       333      1801      1805      1806
 -1       508    8    0    1
 -2       179       228       333      1489      1807      1804
 -1       509    8    0    1
 -2       180        23       164      1342      1766      1808
 -1       510    8    0    1
 -2       228       229       334      1492      1809      1810
 -1       511    8    0    1
 -2       228       334       333      1810      1811      1807
 -1       512    8    0    1
 -2       180       164       321      1808      1770      1812
 -1       513    8    0    1
 -2       182       181       335      1349      1813      1814
 -1       514    8    0    1
 -2       183       182       336      1352      1815      1816
 -1       515    8    0    1
 -2       182       335       336      1814      1817      1815
 -1       516    8    0    1
 -2       184       183       337      1355      1818      1819
 -1       517    8    0    1
 -2       183       336       337      1816      1820      1818
 -1       518    8    0    1
 -2       185       184       338      1358      1821      1822
 -1       519    8    0    1
 -2       184       337       338      1819      1823      1821
 -1       520    8    0    1
 -2       186       185       339      1361      1824      1825
 -1       521    8    0    1
 -2       185       338       339      1822      1826      1824
 -1       522    8    0    1
 -2       187       186       340      1364      1827      1828
 -1       523    8    0    1
 -2       186       339       340      1825      1829      1827
 -1       524    8    0    1
 -2       188       187       341      1367      1830      1831
 -1       525    8    0    1
 -2       187       340       341      1828      1832      1830
 -1       526    8    0    1
 -2       189       188       342      1370      1833      1834
 -1       527    8    0    1
 -2       188       341       342      1831      1835      1833
 -1       528    8    0    1
 -2       190       189       343      1373      1836      1837
 -1       529    8    0    1
 -2       189       342       343      1834      1838      1836
 -1       530    8    0    1
 -2       191       190       344      1376      1839      1840
 -1       531    8    0    1
 -2       190       343       344      1837      1841      1839
 -1       532    8    0    1
 -2       192       191       345      1379      1842      1843
 -1       533    8    0    1
 -2       191       344       345      1840      1844      1842
 -1       534    8    0    1
 -2       193       192       346      1382      1845      1846
 -1       535    8    0    1
 -2       192       345       346      1843      1847      1845
 -1       536    8    0    1
 -2       194       193       347      1385      1848      1849
 -1       537    8    0    1
 -2       193       346       347      1846      1850      1848
 -1       538    8    0    1
 -2       195       194       348      1388      1851      1852
 -1       539    8    0    1
 -2       194       347       348      1849      1853      1851
 -1       540    8    0    1
 -2       196       195       349      1391      1854      1855
 -1       541    8    0    1
 -2       195       348       349      1852      1856      1854
 -1       542    8    0    1
 -2       197       196       350      1394      1857      1858
 -1       543    8    0    1
 -2       196       349       350      1855      1859      1857
 -1       544    8    0    1
 -2       198       197       351      1397      1860      1861
 -1       545    8    0    1
 -2       197       350       351      1858      1862      1860
 -1       546    8    0    1
 -2       199       198       352      1400      1863      1864
 -1       547    8    0    1
 -2       198       351       352      1861      1865      1863
 -1       548    8    0    1
 -2       200       199       353      1403      1866      1867
 -1       549    8    0    1
 -2       199       352       353      1864      1868      1866
 -1       550    8    0    1
 -2       201       200       354      1406      1869      1870
 -1       551    8    0    1
 -2       200       353       354      1867      1871      1869
 -1       552    8    0    1
 -2       202       201       355      1409      1872      1873
 -1       553    8    0    1
 -2       201       354       355      1870      1874      1872
 -1       554    8    0    1
 -2       203       202       356      1412      1875      1876
 -1       555    8    0    1
 -2       202       355       356      1873      1877      1875
 -1       556    8    0    1
 -2       204       203       357      1415      1878      1879
 -1       557    8    0    1
 -2       203       356       357      1876      1880      1878
 -1       558    8    0    1
 -2       205       204       358      1418      1881      1882
 -1       559    8    0    1
 -2       204       357       358      1879      1883      1881
 -1       560    8    0    1
 -2       206       205       359      1421      1884      1885
 -1       561    8    0    1
 -2       205       358       359      1882      1886      1884
 -1       562    8    0    1
 -2       207       206       360      1424      1887      1888
 -1       563    8    0    1
 -2       206       359       360      1885      1889      1887
 -1       564    8    0    1
 -2       208       207       361      1427      1890      1891
 -1       565    8    0    1
 -2       207       360       361      1888      1892      1890
 -1       566    8    0    1
 -2       209       208       362      1430      1893      1894
 -1       567    8    0    1
 -2       208       361       362      1891      1895      1893
 -1       568    8    0    1
 -2       210       209       363      1433      1896      1897
 -1       569    8    0    1
 -2       209       362       363      1894      1898      1896
 -1       570    8    0    1
 -2       211       210       364      1436      1899      1900
 -1       571    8    0    1
 -2       210       363       364      1897      1901      1899
 -1       572    8    0    1
 -2       212       211       365      1439      1902      1903
 -1       573    8    0    1
 -2       211       364       365      1900      1904      1902
 -1       574    8    0    1
 -2       213       212       366      1442      1905      1906
 -1       575    8    0    1
 -2       212       365       366      1903      1907      1905
 -1       576    8    0    1
 -2       214       213       367      1445      1908      1909
 -1       577    8    0    1
 -2       213       366       367      1906      1910      1908
 -1       578    8    0    1
 -2       215       214       368      1448      1911      1912
 -1       579    8    0    1
 -2       214       367       368      1909      1913      1911
 -1       580    8    0    1
 -2       216       215       369      1451      1914      1915
 -1       581    8    0    1
 -2       215       368       369      1912      1916      1914
 -1       582    8    0    1
 -2       217       216       370      1454      1917      1918
 -1       583    8    0    1
 -2       216       369       370      1915      1919      1917
 -1       584    8    0    1
 -2       218       217       371      1457      1920      1921
 -1       585    8    0    1
 -2       217       370       371      1918      1922      1920
 -1       586    8    0    1
 -2       219       218       372      1460      1923      1924
 -1       587    8    0    1
 -2       218       371       372      1921      1925      1923
 -1       588    8    0    1
 -2       220       219       373      1463      1926      1927
 -1       589    8    0    1
 -2       219       372       373      1924      1928      1926
 -1       590    8    0    1
 -2       221       220       374      1466      1929      1930
 -1       591    8    0    1
 -2       220       373       374      1927      1931      1929
 -1       592    8    0    1
 -2       222       221       375      1469      1932      1933
 -1       593    8    0    1
 -2       221       374       375      1930      1934      1932
 -1       594    8    0    1
 -2       223       222       376      1472      1935      1936
 -1       595    8    0    1
 -2       222       375       376      1933      1937      1935
 -1       596    8    0    1
 -2       224       223       377      1475      1938      1939
 -1       597    8    0    1
 -2       223       376       377      1936      1940      1938
 -1       598    8    0    1
 -2       225       224       378      1478      1941      1942
 -1       599    8    0    1
 -2       224       377       378      1939      1943      1941
 -1       600    8    0    1
 -2       226       225       379      1481      1944      1945
 -1       601    8    0    1
 -2       225       378       379      1942      1946      1944
 -1       602    8    0    1
 -2       227       226       380      1484      1947      1948
 -1       603    8    0    1
 -2       290       227       380      1676      1948      1949
 -1       604    8    0    1
 -2       226       379       380      1945      1950      1947
 -1       605    8    0    1
 -2       229       230       381      1495      1951      1952
 -1       606    8    0    1
 -2       229       381       334      1952      1953      1809
 -1       607    8    0    1
 -2       230       231       382      1498      1954      1955
 -1       608    8    0    1
 -2       230       382       381      1955      1956      1951
 -1       609    8    0    1
 -2       231       232       383      1501      1957      1958
 -1       610    8    0    1
 -2       231       383       382      1958      1959      1954
 -1       611    8    0    1
 -2       232       233       384      1504      1960      1961
 -1       612    8    0    1
 -2       232       384       383      1961      1962      1957
 -1       613    8    0    1
 -2       233       234       385      1507      1963      1964
 -1       614    8    0    1
 -2       233       385       384      1964      1965      1960
 -1       615    8    0    1
 -2       234       235       386      1510      1966      1967
 -1       616    8    0    1
 -2       234       386       385      1967      1968      1963
 -1       617    8    0    1
 -2       235       236       387      1513      1969      1970
 -1       618    8    0    1
 -2       235       387       386      1970      1971      1966
 -1       619    8    0    1
 -2       236       237       388      1516      1972      1973
 -1       620    8    0    1
 -2       236       388       387      1973      1974      1969
 -1       621    8    0    1
 -2       237       238       389      1519      1975      1976
 -1       622    8    0    1
 -2       237       389       388      1976      1977      1972
 -1       623    8    0    1
 -2       238       239       390      1522      1978      1979
 -1       624    8    0    1
 -2       238       390       389      1979      1980      1975
 -1       625    8    0    1
 -2       239       240       391      1525      1981      1982
 -1       626    8    0    1
 -2       239       391       390      1982      1983      1978
 -1       627    8    0    1
 -2       240       241       392      1528      1984      1985
 -1       628    8    0    1
 -2       240       392       391      1985      1986      1981
 -1       629    8    0    1
 -2       241       242       393      1531      1987      1988
 -1       630    8    0    1
 -2       241       393       392      1988      1989      1984
 -1       631    8    0    1
 -2       242       243       394      1534      1990      1991
 -1       632    8    0    1
 -2       242       394       393      1991      1992      1987
 -1       633    8    0    1
 -2       243       244       395      1537      1993      1994
 -1       634    8    0    1
 -2       243       395       394      1994      1995      1990
 -1       635    8    0    1
 -2       244       245       396      1540      1996      1997
 -1       636    8    0    1
 -2       244       396       395      1997      1998      1993
 -1       637    8    0    1
 -2       245       246       397      1543      1999      2000
 -1       638    8    0    1
 -2       245       397       396      2000      2001      1996
 -1       639    8    0    1
 -2       246       247       398      1546      2002      2003
 -1       640    8    0    1
 -2       246       398       397      2003      2004      1999
 -1       641    8    0    1
 -2       247       248       399      1549      2005      2006
 -1       642    8    0    1
 -2       247       399       398      2006      2007      2002
 -1       643    8    0    1
 -2       248       249       400      1552      2008      2009
 -1       644    8    0    1
 -2       248       400       399      2009      2010      2005
 -1       645    8    0    1
 -2       249       250       401      1555      2011      2012
 -1       646    8    0    1
 -2       249       401       400      2012      2013      2008
 -1       647    8    0    1
 -2       250       251       402      1558      2014      2015
 -1       648    8    0    1
 -2       250       402       401      2015      2016      2011
 -1       649    8    0    1
 -2       251       252       403      1561      2017      2018
 -1       650    8    0    1
 -2       251       403       402      2018      2019      2014
 -1       651    8    0    1
 -2       252       253       404      1564      2020      2021
 -1       652    8    0    1
 -2       252       404       403      2021      2022      2017
 -1       653    8    0    1
 -2       253       254       405      1567      2023      2024
 -1       654    8    0    1
 -2       253       405       404      2024      2025      2020
 -1       655    8    0    1
 -2       254       255       406      1570      2026      2027
 -1       656    8    0    1
 -2       254       406       405      2027      2028      2023
 -1       657    8    0    1
 -2       255       256       407      1573      2029      2030
 -1       658    8    0    1
 -2       255       407       406      2030      2031      2026
 -1       659    8    0    1
 -2       256       257       408      1576      2032      2033
 -1       660    8    0    1
 -2       256       408       407      2033      2034      2029
 -1       661    8    0    1
 -2       257       258       409      1579      2035      2036
 -1       662    8    0    1
 -2       257       409       408      2036      2037      2032
 -1       663    8    0    1
 -2       258       259       410      1582      2038      2039
 -1       664    8    0    1
 -2       258       410       409      2039      2040      2035
 -1       665    8    0    1
 -2       259       260       411      1585      2041      2042
 -1       666    8    0    1
 -2       259       411       410      2042      2043      2038
 -1       667    8    0    1
 -2       260       261       412      1588      2044      2045
 -1       668    8    0    1
 -2       260       412       411      2045      2046      2041
 -1       669    8    0    1
 -2       261       262       413      1591      2047      2048
 -1       670    8    0    1
 -2       261       413       412      2048      2049      2044
 -1       671    8    0    1
 -2       262       263       414      1594      2050      2051
 -1       672    8    0    1
 -2       262       414       413      2051      2052      2047
 -1       673    8    0    1
 -2       263       264       415      1597      2053      2054
 -1       674    8    0    1
 -2       263       415       414      2054      2055      2050
 -1       675    8    0    1
 -2       264       265       416      1600      2056      2057
 -1       676    8    0    1
 -2       264       416       415      2057      2058      2053
 -1       677    8    0    1
 -2       265       266       417      1603      2059      2060
 -1       678    8    0    1
 -2       265       417       416      2060      2061      2056
 -1       679    8    0    1
 -2       266       267       418      1606      2062      2063
 -1       680    8    0    1
 -2       266       418       417      2063      2064      2059
 -1       681    8    0    1
 -2       267       268       419      1609      2065      2066
 -1       682    8    0    1
 -2       267       419       418      2066      2067      2062
 -1       683    8    0    1
 -2       268       269       420      1612      2068      2069
 -1       684    8    0    1
 -2       268       420       419      2069      2070      2065
 -1       685    8    0    1
 -2       269       270       421      1615      2071      2072
 -1       686    8    0    1
 -2       269       421       420      2072      2073      2068
 -1       687    8    0    1
 -2       270       271       422      1618      2074      2075
 -1       688    8    0    1
 -2       270       422       421      2075      2076      2071
 -1       689    8    0    1
 -2       271       272       423      1621      2077      2078
 -1       690    8    0    1
 -2       271       423       422      2078      2079      2074
 -1       691    8    0    1
 -2       272       273       424      1624      2080      2081
 -1       692    8    0    1
 -2       272       424       423      2081      2082      2077
 -1       693    8    0    1
 -2       273       274       425      1627      2083      2084
 -1       694    8    0    1
 -2       273       425       424      2084      2085      2080
 -1       695    8    0    1
 -2       274       275       426      1630      2086      2087
 -1       696    8    0    1
 -2       425       274       426      2083      2087      2088
 -1       697    8    0    1
 -2       275       276       426      1738      2089      2086
 -1       698    8    0    1
 -2       278       279       427      1642      2090      2091
 -1       699    8    0    1
 -2       277       278       428      1639      2092      2093
 -1       700    8    0    1
 -2       278       427       428      2091      2094      2092
 -1       701    8    0    1
 -2       276       277       429      1636      2095      2096
 -1       702    8    0    1
 -2       426       276       429      2089      2096      2097
 -1       703    8    0    1
 -2       277       428       429      2093      2098      2095
 -1       704    8    0    1
 -2       279       280       430      1645      2099      2100
 -1       705    8    0    1
 -2       279       430       427      2100      2101      2090
 -1       706    8    0    1
 -2       280       281       431      1648      2102      2103
 -1       707    8    0    1
 -2       280       431       430      2103      2104      2099
 -1       708    8    0    1
 -2       281       282       432      1651      2105      2106
 -1       709    8    0    1
 -2       281       432       431      2106      2107      2102
 -1       710    8    0    1
 -2       282       283       433      1654      2108      2109
 -1       711    8    0    1
 -2       282       433       432      2109      2110      2105
 -1       712    8    0    1
 -2       283       284       434      1657      2111      2112
 -1       713    8    0    1
 -2       283       434       433      2112      2113      2108
 -1       714    8    0    1
 -2       284       285       435      1660      2114      2115
 -1       715    8    0    1
 -2       284       435       434      2115      2116      2111
 -1       716    8    0    1
 -2       285       286       436      1663      2117      2118
 -1       717    8    0    1
 -2       285       436       435      2118      2119      2114
 -1       718    8    0    1
 -2       286       287       437      1666      2120      2121
 -1       719    8    0    1
 -2       286       437       436      2121      2122      2117
 -1       720    8    0    1
 -2       287       288       438      1669      2123      2124
 -1       721    8    0    1
 -2       287       438       437      2124      2125      2120
 -1       722    8    0    1
 -2       288       289       439      1672      2126      2127
 -1       723    8    0    1
 -2       288       439       438      2127      2128      2123
 -1       724    8    0    1
 -2       292       293       440      1740      2129      2130
 -1       725    8    0    1
 -2       319       291       441      1741      2131      2132
 -1       726    8    0    1
 -2       291       292       442      1739      2133      2134
 -1       727    8    0    1
 -2       293       294       443      1736      2135      2136
 -1       728    8    0    1
 -2       294       295       444      1735      2137      2138
 -1       729    8    0    1
 -2       294       444       443      2138      2139      2135
 -1       730    8    0    1
 -2       166       167       445      1304      2140      2141
 -1       731    8    0    1
 -2       320       166       445      1767      2141      2142
 -1       732    8    0    1
 -2       167       322       445      1773      2143      2140
 -1       733    8    0    1
 -2       296       297       446      1743      2144      2145
 -1       734    8    0    1
 -2       297       298       447      1744      2146      2147
 -1       735    8    0    1
 -2       298       299       448      1745      2148      2149
 -1       736    8    0    1
 -2       298       448       447      2149      2150      2146
 -1       737    8    0    1
 -2       299       300       449      1746      2151      2152
 -1       738    8    0    1
 -2       300       301       450      1747      2153      2154
 -1       739    8    0    1
 -2       301       302       451      1748      2155      2156
 -1       740    8    0    1
 -2       301       451       450      2156      2157      2153
 -1       741    8    0    1
 -2       302       303       452      1749      2158      2159
 -1       742    8    0    1
 -2       303       304       453      1750      2160      2161
 -1       743    8    0    1
 -2       304       305       454      1751      2162      2163
 -1       744    8    0    1
 -2       305       306       455      1752      2164      2165
 -1       745    8    0    1
 -2       305       455       454      2165      2166      2162
 -1       746    8    0    1
 -2       306       307       456      1753      2167      2168
 -1       747    8    0    1
 -2       307       308       457      1754      2169      2170
 -1       748    8    0    1
 -2       307       457       456      2170      2171      2167
 -1       749    8    0    1
 -2       308       309       458      1755      2172      2173
 -1       750    8    0    1
 -2       309       310       459      1756      2174      2175
 -1       751    8    0    1
 -2       309       459       458      2175      2176      2172
 -1       752    8    0    1
 -2       310       311       460      1757      2177      2178
 -1       753    8    0    1
 -2       311       312       461      1758      2179      2180
 -1       754    8    0    1
 -2       311       461       460      2180      2181      2177
 -1       755    8    0    1
 -2       312       313       462      1759      2182      2183
 -1       756    8    0    1
 -2       313       314       463      1760      2184      2185
 -1       757    8    0    1
 -2       314       315       464      1761      2186      2187
 -1       758    8    0    1
 -2       314       464       463      2187      2188      2184
 -1       759    8    0    1
 -2       315       316       465      1762      2189      2190
 -1       760    8    0    1
 -2       316       317       466      1763      2191      2192
 -1       761    8    0    1
 -2       317       318       467      1764      2193      2194
 -1       762    8    0    1
 -2       318       319       468      1765      2195      2196
 -1       763    8    0    1
 -2       319       441       468      2132      2197      2195
 -1       764    8    0    1
 -2       295       296       469      1742      2198      2199
 -1       765    8    0    1
 -2       180       321       181      1812      2200      1346
 -1       766    8    0    1
 -2       444       295       469      2137      2199      2201
 -1       767    8    0    1
 -2       296       446       469      2145      2202      2198
 -1       768    8    0    1
 -2       335       181       321      1813      2200      2203
 -1       769    8    0    1
 -2       442       292       440      2133      2130      2204
 -1       770    8    0    1
 -2       441       291       470      2131      2205      2206
 -1       771    8    0    1
 -2       291       442       470      2134      2207      2205
 -1       772    8    0    1
 -2       439       289       290      2126      1675      2208
 -1       773    8    0    1
 -2       440       293       443      2129      2136      2209
 -1       774    8    0    1
 -2       467       318       471      2193      2210      2211
 -1       775    8    0    1
 -2       318       468       471      2196      2212      2210
 -1       776    8    0    1
 -2       466       317       467      2191      2194      2213
 -1       777    8    0    1
 -2       464       315       472      2186      2214      2215
 -1       778    8    0    1
 -2       315       465       472      2190      2216      2214
 -1       779    8    0    1
 -2       461       312       462      2179      2183      2217
 -1       780    8    0    1
 -2       459       310       473      2174      2218      2219
 -1       781    8    0    1
 -2       310       460       473      2178      2220      2218
 -1       782    8    0    1
 -2       457       308       474      2169      2221      2222
 -1       783    8    0    1
 -2       308       458       474      2173      2223      2221
 -1       784    8    0    1
 -2       455       306       456      2164      2168      2224
 -1       785    8    0    1
 -2       453       304       454      2160      2163      2225
 -1       786    8    0    1
 -2       451       302       452      2155      2159      2226
 -1       787    8    0    1
 -2       448       299       449      2148      2152      2227
 -1       788    8    0    1
 -2       446       297       447      2144      2147      2228
 -1       789    8    0    1
 -2       449       300       475      2151      2229      2230
 -1       790    8    0    1
 -2       300       450       475      2154      2231      2229
 -1       791    8    0    1
 -2       452       303       453      2158      2161      2232
 -1       792    8    0    1
 -2       462       313       463      2182      2185      2233
 -1       793    8    0    1
 -2       465       316       466      2189      2192      2234
 -1       794    8    0    1
 -2       334       381       476      1953      2235      2236
 -1       795    8    0    1
 -2       323       324       477      1779      2237      2238
 -1       796    8    0    1
 -2       322       323       478      1776      2239      2240
 -1       797    8    0    1
 -2       323       477       478      2238      2241      2239
 -1       798    8    0    1
 -2       325       326       479      1785      2242      2243
 -1       799    8    0    1
 -2       326       327       480      1788      2244      2245
 -1       800    8    0    1
 -2       326       480       479      2245      2246      2242
 -1       801    8    0    1
 -2       327       328       481      1791      2247      2248
 -1       802    8    0    1
 -2       327       481       480      2248      2249      2244
 -1       803    8    0    1
 -2       328       329       482      1794      2250      2251
 -1       804    8    0    1
 -2       328       482       481      2251      2252      2247
 -1       805    8    0    1
 -2       329       330       483      1797      2253      2254
 -1       806    8    0    1
 -2       329       483       482      2254      2255      2250
 -1       807    8    0    1
 -2       330       331       484      1800      2256      2257
 -1       808    8    0    1
 -2       330       484       483      2257      2258      2253
 -1       809    8    0    1
 -2       381       382       485      1956      2259      2260
 -1       810    8    0    1
 -2       381       485       476      2260      2261      2235
 -1       811    8    0    1
 -2       336       335       486      1817      2262      2263
 -1       812    8    0    1
 -2       444       469       487      2201      2264      2265
 -1       813    8    0    1
 -2       337       336       488      1820      2266      2267
 -1       814    8    0    1
 -2       336       486       488      2263      2268      2266
 -1       815    8    0    1
 -2       338       337       489      1823      2269      2270
 -1       816    8    0    1
 -2       337       488       489      2267      2271      2269
 -1       817    8    0    1
 -2       339       338       490      1826      2272      2273
 -1       818    8    0    1
 -2       338       489       490      2270      2274      2272
 -1       819    8    0    1
 -2       340       339       491      1829      2275      2276
 -1       820    8    0    1
 -2       339       490       491      2273      2277      2275
 -1       821    8    0    1
 -2       341       340       492      1832      2278      2279
 -1       822    8    0    1
 -2       340       491       492      2276      2280      2278
 -1       823    8    0    1
 -2       342       341       493      1835      2281      2282
 -1       824    8    0    1
 -2       341       492       493      2279      2283      2281
 -1       825    8    0    1
 -2       343       342       494      1838      2284      2285
 -1       826    8    0    1
 -2       342       493       494      2282      2286      2284
 -1       827    8    0    1
 -2       344       343       495      1841      2287      2288
 -1       828    8    0    1
 -2       343       494       495      2285      2289      2287
 -1       829    8    0    1
 -2       345       344       496      1844      2290      2291
 -1       830    8    0    1
 -2       344       495       496      2288      2292      2290
 -1       831    8    0    1
 -2       346       345       497      1847      2293      2294
 -1       832    8    0    1
 -2       345       496       497      2291      2295      2293
 -1       833    8    0    1
 -2       347       346       498      1850      2296      2297
 -1       834    8    0    1
 -2       346       497       498      2294      2298      2296
 -1       835    8    0    1
 -2       348       347       499      1853      2299      2300
 -1       836    8    0    1
 -2       347       498       499      2297      2301      2299
 -1       837    8    0    1
 -2       349       348       500      1856      2302      2303
 -1       838    8    0    1
 -2       348       499       500      2300      2304      2302
 -1       839    8    0    1
 -2       350       349       501      1859      2305      2306
 -1       840    8    0    1
 -2       349       500       501      2303      2307      2305
 -1       841    8    0    1
 -2       351       350       502      1862      2308      2309
 -1       842    8    0    1
 -2       350       501       502      2306      2310      2308
 -1       843    8    0    1
 -2       352       351       503      1865      2311      2312
 -1       844    8    0    1
 -2       351       502       503      2309      2313      2311
 -1       845    8    0    1
 -2       353       352       504      1868      2314      2315
 -1       846    8    0    1
 -2       352       503       504      2312      2316      2314
 -1       847    8    0    1
 -2       354       353       505      1871      2317      2318
 -1       848    8    0    1
 -2       353       504       505      2315      2319      2317
 -1       849    8    0    1
 -2       355       354       506      1874      2320      2321
 -1       850    8    0    1
 -2       354       505       506      2318      2322      2320
 -1       851    8    0    1
 -2       356       355       507      1877      2323      2324
 -1       852    8    0    1
 -2       355       506       507      2321      2325      2323
 -1       853    8    0    1
 -2       357       356       508      1880      2326      2327
 -1       854    8    0    1
 -2       356       507       508      2324      2328      2326
 -1       855    8    0    1
 -2       358       357       509      1883      2329      2330
 -1       856    8    0    1
 -2       357       508       509      2327      2331      2329
 -1       857    8    0    1
 -2       359       358       510      1886      2332      2333
 -1       858    8    0    1
 -2       358       509       510      2330      2334      2332
 -1       859    8    0    1
 -2       360       359       511      1889      2335      2336
 -1       860    8    0    1
 -2       359       510       511      2333      2337      2335
 -1       861    8    0    1
 -2       361       360       512      1892      2338      2339
 -1       862    8    0    1
 -2       360       511       512      2336      2340      2338
 -1       863    8    0    1
 -2       362       361       513      1895      2341      2342
 -1       864    8    0    1
 -2       361       512       513      2339      2343      2341
 -1       865    8    0    1
 -2       363       362       514      1898      2344      2345
 -1       866    8    0    1
 -2       362       513       514      2342      2346      2344
 -1       867    8    0    1
 -2       364       363       515      1901      2347      2348
 -1       868    8    0    1
 -2       363       514       515      2345      2349      2347
 -1       869    8    0    1
 -2       365       364       516      1904      2350      2351
 -1       870    8    0    1
 -2       364       515       516      2348      2352      2350
 -1       871    8    0    1
 -2       366       365       517      1907      2353      2354
 -1       872    8    0    1
 -2       365       516       517      2351      2355      2353
 -1       873    8    0    1
 -2       367       366       518      1910      2356      2357
 -1       874    8    0    1
 -2       366       517       518      2354      2358      2356
 -1       875    8    0    1
 -2       368       367       519      1913      2359      2360
 -1       876    8    0    1
 -2       367       518       519      2357      2361      2359
 -1       877    8    0    1
 -2       369       368       520      1916      2362      2363
 -1       878    8    0    1
 -2       368       519       520      2360      2364      2362
 -1       879    8    0    1
 -2       370       369       521      1919      2365      2366
 -1       880    8    0    1
 -2       369       520       521      2363      2367      2365
 -1       881    8    0    1
 -2       371       370       522      1922      2368      2369
 -1       882    8    0    1
 -2       370       521       522      2366      2370      2368
 -1       883    8    0    1
 -2       372       371       523      1925      2371      2372
 -1       884    8    0    1
 -2       371       522       523      2369      2373      2371
 -1       885    8    0    1
 -2       373       372       524      1928      2374      2375
 -1       886    8    0    1
 -2       372       523       524      2372      2376      2374
 -1       887    8    0    1
 -2       374       373       525      1931      2377      2378
 -1       888    8    0    1
 -2       373       524       525      2375      2379      2377
 -1       889    8    0    1
 -2       375       374       526      1934      2380      2381
 -1       890    8    0    1
 -2       374       525       526      2378      2382      2380
 -1       891    8    0    1
 -2       376       375       527      1937      2383      2384
 -1       892    8    0    1
 -2       375       526       527      2381      2385      2383
 -1       893    8    0    1
 -2       377       376       528      1940      2386      2387
 -1       894    8    0    1
 -2       376       527       528      2384      2388      2386
 -1       895    8    0    1
 -2       378       377       529      1943      2389      2390
 -1       896    8    0    1
 -2       377       528       529      2387      2391      2389
 -1       897    8    0    1
 -2       379       378       530      1946      2392      2393
 -1       898    8    0    1
 -2       378       529       530      2390      2394      2392
 -1       899    8    0    1
 -2       383       384       531      1962      2395      2396
 -1       900    8    0    1
 -2       384       385       532      1965      2397      2398
 -1       901    8    0    1
 -2       384       532       531      2398      2399      2395
 -1       902    8    0    1
 -2       385       386       533      1968      2400      2401
 -1       903    8    0    1
 -2       385       533       532      2401      2402      2397
 -1       904    8    0    1
 -2       386       387       534      1971      2403      2404
 -1       905    8    0    1
 -2       386       534       533      2404      2405      2400
 -1       906    8    0    1
 -2       387       388       535      1974      2406      2407
 -1       907    8    0    1
 -2       387       535       534      2407      2408      2403
 -1       908    8    0    1
 -2       388       389       536      1977      2409      2410
 -1       909    8    0    1
 -2       388       536       535      2410      2411      2406
 -1       910    8    0    1
 -2       389       390       537      1980      2412      2413
 -1       911    8    0    1
 -2       389       537       536      2413      2414      2409
 -1       912    8    0    1
 -2       390       391       538      1983      2415      2416
 -1       913    8    0    1
 -2       390       538       537      2416      2417      2412
 -1       914    8    0    1
 -2       391       392       539      1986      2418      2419
 -1       915    8    0    1
 -2       391       539       538      2419      2420      2415
 -1       916    8    0    1
 -2       392       393       540      1989      2421      2422
 -1       917    8    0    1
 -2       392       540       539      2422      2423      2418
 -1       918    8    0    1
 -2       393       394       541      1992      2424      2425
 -1       919    8    0    1
 -2       393       541       540      2425      2426      2421
 -1       920    8    0    1
 -2       394       395       542      1995      2427      2428
 -1       921    8    0    1
 -2       394       542       541      2428      2429      2424
 -1       922    8    0    1
 -2       395       396       543      1998      2430      2431
 -1       923    8    0    1
 -2       395       543       542      2431      2432      2427
 -1       924    8    0    1
 -2       396       397       544      2001      2433      2434
 -1       925    8    0    1
 -2       396       544       543      2434      2435      2430
 -1       926    8    0    1
 -2       397       398       545      2004      2436      2437
 -1       927    8    0    1
 -2       397       545       544      2437      2438      2433
 -1       928    8    0    1
 -2       398       399       546      2007      2439      2440
 -1       929    8    0    1
 -2       398       546       545      2440      2441      2436
 -1       930    8    0    1
 -2       399       400       547      2010      2442      2443
 -1       931    8    0    1
 -2       399       547       546      2443      2444      2439
 -1       932    8    0    1
 -2       400       401       548      2013      2445      2446
 -1       933    8    0    1
 -2       400       548       547      2446      2447      2442
 -1       934    8    0    1
 -2       401       402       549      2016      2448      2449
 -1       935    8    0    1
 -2       401       549       548      2449      2450      2445
 -1       936    8    0    1
 -2       402       403       550      2019      2451      2452
 -1       937    8    0    1
 -2       402       550       549      2452      2453      2448
 -1       938    8    0    1
 -2       403       404       551      2022      2454      2455
 -1       939    8    0    1
 -2       403       551       550      2455      2456      2451
 -1       940    8    0    1
 -2       404       405       552      2025      2457      2458
 -1       941    8    0    1
 -2       404       552       551      2458      2459      2454
 -1       942    8    0    1
 -2       405       406       553      2028      2460      2461
 -1       943    8    0    1
 -2       405       553       552      2461      2462      2457
 -1       944    8    0    1
 -2       406       407       554      2031      2463      2464
 -1       945    8    0    1
 -2       406       554       553      2464      2465      2460
 -1       946    8    0    1
 -2       407       408       555      2034      2466      2467
 -1       947    8    0    1
 -2       407       555       554      2467      2468      2463
 -1       948    8    0    1
 -2       408       409       556      2037      2469      2470
 -1       949    8    0    1
 -2       408       556       555      2470      2471      2466
 -1       950    8    0    1
 -2       409       410       557      2040      2472      2473
 -1       951    8    0    1
 -2       409       557       556      2473      2474      2469
 -1       952    8    0    1
 -2       410       411       558      2043      2475      2476
 -1       953    8    0    1
 -2       410       558       557      2476      2477      2472
 -1       954    8    0    1
 -2       411       412       559      2046      2478      2479
 -1       955    8    0    1
 -2       411       559       558      2479      2480      2475
 -1       956    8    0    1
 -2       412       413       560      2049      2481      2482
 -1       957    8    0    1
 -2       412       560       559      2482      2483      2478
 -1       958    8    0    1
 -2       413       414       561      2052      2484      2485
 -1       959    8    0    1
 -2       413       561       560      2485      2486      2481
 -1       960    8    0    1
 -2       414       415       562      2055      2487      2488
 -1       961    8    0    1
 -2       414       562       561      2488      2489      2484
 -1       962    8    0    1
 -2       415       416       563      2058      2490      2491
 -1       963    8    0    1
 -2       415       563       562      2491      2492      2487
 -1       964    8    0    1
 -2       416       417       564      2061      2493      2494
 -1       965    8    0    1
 -2       416       564       563      2494      2495      2490
 -1       966    8    0    1
 -2       417       418       565      2064      2496      2497
 -1       967    8    0    1
 -2       417       565       564      2497      2498      2493
 -1       968    8    0    1
 -2       418       419       566      2067      2499      2500
 -1       969    8    0    1
 -2       418       566       565      2500      2501      2496
 -1       970    8    0    1
 -2       419       420       567      2070      2502      2503
 -1       971    8    0    1
 -2       419       567       566      2503      2504      2499
 -1       972    8    0    1
 -2       420       421       568      2073      2505      2506
 -1       973    8    0    1
 -2       420       568       567      2506      2507      2502
 -1       974    8    0    1
 -2       421       422       569      2076      2508      2509
 -1       975    8    0    1
 -2       421       569       568      2509      2510      2505
 -1       976    8    0    1
 -2       422       423       570      2079      2511      2512
 -1       977    8    0    1
 -2       422       570       569      2512      2513      2508
 -1       978    8    0    1
 -2       423       424       571      2082      2514      2515
 -1       979    8    0    1
 -2       423       571       570      2515      2516      2511
 -1       980    8    0    1
 -2       424       425       572      2085      2517      2518
 -1       981    8    0    1
 -2       424       572       571      2518      2519      2514
 -1       982    8    0    1
 -2       425       426       429      2088      2097      2520
 -1       983    8    0    1
 -2       430       431       573      2104      2521      2522
 -1       984    8    0    1
 -2       431       432       574      2107      2523      2524
 -1       985    8    0    1
 -2       431       574       573      2524      2525      2521
 -1       986    8    0    1
 -2       428       427       575      2094      2526      2527
 -1       987    8    0    1
 -2       427       430       576      2101      2528      2529
 -1       988    8    0    1
 -2       575       427       576      2526      2529      2530
 -1       989    8    0    1
 -2       430       573       576      2522      2531      2528
 -1       990    8    0    1
 -2       432       433       577      2110      2532      2533
 -1       991    8    0    1
 -2       432       577       574      2533      2534      2523
 -1       992    8    0    1
 -2       433       434       578      2113      2535      2536
 -1       993    8    0    1
 -2       433       578       577      2536      2537      2532
 -1       994    8    0    1
 -2       434       435       579      2116      2538      2539
 -1       995    8    0    1
 -2       434       579       578      2539      2540      2535
 -1       996    8    0    1
 -2       435       436       580      2119      2541      2542
 -1       997    8    0    1
 -2       435       580       579      2542      2543      2538
 -1       998    8    0    1
 -2       436       437       581      2122      2544      2545
 -1       999    8    0    1
 -2       436       581       580      2545      2546      2541
 -1      1000    8    0    1
 -2       437       438       582      2125      2547      2548
 -1      1001    8    0    1
 -2       437       582       581      2548      2549      2544
 -1      1002    8    0    1
 -2       438       439       583      2128      2550      2551
 -1      1003    8    0    1
 -2       438       583       582      2551      2552      2547
 -1      1004    8    0    1
 -2       440       443       584      2209      2553      2554
 -1      1005    8    0    1
 -2       382       383       585      1959      2555      2556
 -1      1006    8    0    1
 -2       383       531       585      2396      2557      2555
 -1      1007    8    0    1
 -2       469       446       586      2202      2558      2559
 -1      1008    8    0    1
 -2       439       290       380      2208      1949      2560
 -1      1009    8    0    1
 -2       443       444       587      2139      2561      2562
 -1      1010    8    0    1
 -2       468       441       588      2197      2563      2564
 -1      1011    8    0    1
 -2       461       462       589      2217      2565      2566
 -1      1012    8    0    1
 -2       453       454       590      2225      2567      2568
 -1      1013    8    0    1
 -2       448       449       591      2227      2569      2570
 -1      1014    8    0    1
 -2       324       325       592      1782      2571      2572
 -1      1015    8    0    1
 -2       477       324       592      2237      2572      2573
 -1      1016    8    0    1
 -2       325       479       592      2243      2574      2571
 -1      1017    8    0    1
 -2       446       447       593      2228      2575      2576
 -1      1018    8    0    1
 -2       446       593       586      2576      2577      2558
 -1      1019    8    0    1
 -2       447       448       594      2150      2578      2579
 -1      1020    8    0    1
 -2       452       453       595      2232      2580      2581
 -1      1021    8    0    1
 -2       453       590       595      2568      2582      2580
 -1      1022    8    0    1
 -2       450       451       596      2157      2583      2584
 -1      1023    8    0    1
 -2       462       463       597      2233      2585      2586
 -1      1024    8    0    1
 -2       451       452       598      2226      2587      2588
 -1      1025    8    0    1
 -2       451       598       596      2588      2589      2583
 -1      1026    8    0    1
 -2       454       455       599      2166      2590      2591
 -1      1027    8    0    1
 -2       455       456       600      2224      2592      2593
 -1      1028    8    0    1
 -2       456       457       601      2171      2594      2595
 -1      1029    8    0    1
 -2       458       459       602      2176      2596      2597
 -1      1030    8    0    1
 -2       460       461       603      2181      2598      2599
 -1      1031    8    0    1
 -2       465       466       604      2234      2600      2601
 -1      1032    8    0    1
 -2       463       464       605      2188      2602      2603
 -1      1033    8    0    1
 -2       463       605       597      2603      2604      2585
 -1      1034    8    0    1
 -2       466       467       606      2213      2605      2606
 -1      1035    8    0    1
 -2       335       321       607      2203      2607      2608
 -1      1036    8    0    1
 -2       486       335       607      2262      2608      2609
 -1      1037    8    0    1
 -2       321       320       607      1771      2610      2607
 -1      1038    8    0    1
 -2       333       334       608      1811      2611      2612
 -1      1039    8    0    1
 -2       332       333       608      1806      2612      2613
 -1      1040    8    0    1
 -2       334       476       608      2236      2614      2611
 -1      1041    8    0    1
 -2       442       440       609      2204      2615      2616
 -1      1042    8    0    1
 -2       322       478       610      2240      2617      2618
 -1      1043    8    0    1
 -2       322       610       445      2618      2619      2143
 -1      1044    8    0    1
 -2       485       382       585      2259      2556      2620
 -1      1045    8    0    1
 -2       331       332       608      1803      2613      2621
 -1      1046    8    0    1
 -2       609       440       584      2615      2554      2622
 -1      1047    8    0    1
 -2       320       445       611      2142      2623      2624
 -1      1048    8    0    1
 -2       607       320       611      2610      2624      2625
 -1      1049    8    0    1
 -2       445       610       611      2619      2626      2623
 -1      1050    8    0    1
 -2       601       457       612      2594      2627      2628
 -1      1051    8    0    1
 -2       457       474       612      2222      2629      2627
 -1      1052    8    0    1
 -2       600       456       601      2592      2595      2630
 -1      1053    8    0    1
 -2       444       487       587      2265      2631      2561
 -1      1054    8    0    1
 -2       598       452       595      2587      2581      2632
 -1      1055    8    0    1
 -2       466       606       604      2606      2633      2600
 -1      1056    8    0    1
 -2       443       587       584      2562      2634      2553
 -1      1057    8    0    1
 -2       470       442       613      2207      2635      2636
 -1      1058    8    0    1
 -2       442       609       613      2616      2637      2635
 -1      1059    8    0    1
 -2       425       429       572      2520      2638      2517
 -1      1060    8    0    1
 -2       429       428       572      2098      2639      2638
 -1      1061    8    0    1
 -2       441       470       588      2206      2640      2563
 -1      1062    8    0    1
 -2       591       449       614      2569      2641      2642
 -1      1063    8    0    1
 -2       449       475       614      2230      2643      2641
 -1      1064    8    0    1
 -2       471       468       588      2212      2564      2644
 -1      1065    8    0    1
 -2       331       608       484      2621      2645      2256
 -1      1066    8    0    1
 -2       447       594       593      2579      2646      2575
 -1      1067    8    0    1
 -2       439       380       615      2560      2647      2648
 -1      1068    8    0    1
 -2       583       439       615      2550      2648      2649
 -1      1069    8    0    1
 -2       380       379       615      1950      2650      2647
 -1      1070    8    0    1
 -2       467       471       616      2211      2651      2652
 -1      1071    8    0    1
 -2       467       616       606      2652      2653      2605
 -1      1072    8    0    1
 -2       605       464       617      2602      2654      2655
 -1      1073    8    0    1
 -2       464       472       617      2215      2656      2654
 -1      1074    8    0    1
 -2       603       461       589      2598      2566      2657
 -1      1075    8    0    1
 -2       602       459       618      2596      2658      2659
 -1      1076    8    0    1
 -2       459       473       618      2219      2660      2658
 -1      1077    8    0    1
 -2       590       454       599      2567      2591      2661
 -1      1078    8    0    1
 -2       472       465       619      2216      2662      2663
 -1      1079    8    0    1
 -2       465       604       619      2601      2664      2662
 -1      1080    8    0    1
 -2       589       462       597      2565      2586      2665
 -1      1081    8    0    1
 -2       450       596       475      2584      2666      2231
 -1      1082    8    0    1
 -2       473       460       603      2220      2599      2667
 -1      1083    8    0    1
 -2       474       458       602      2223      2597      2668
 -1      1084    8    0    1
 -2       448       591       594      2570      2669      2578
 -1      1085    8    0    1
 -2       487       469       586      2264      2559      2670
 -1      1086    8    0    1
 -2       599       455       600      2590      2593      2671
 -1      1087    8    0    1
 -2       572       428       575      2639      2527      2672
 -1      1088    8    0    1
 -2       615       379       530      2650      2393      2673
 -1      1089    8    0    1
 -2       586       593       620      2577      2674      2675
 -1      1090    8    0    1
 -2       480       481       621      2249      2676      2677
 -1      1091    8    0    1
 -2       479       480       622      2246      2678      2679
 -1      1092    8    0    1
 -2       480       621       622      2677      2680      2678
 -1      1093    8    0    1
 -2       482       483       623      2255      2681      2682
 -1      1094    8    0    1
 -2       483       484       624      2258      2683      2684
 -1      1095    8    0    1
 -2       483       624       623      2684      2685      2681
 -1      1096    8    0    1
 -2       476       485       625      2261      2686      2687
 -1      1097    8    0    1
 -2       593       594       626      2646      2688      2689
 -1      1098    8    0    1
 -2       593       626       620      2689      2690      2674
 -1      1099    8    0    1
 -2       608       476       484      2614      2691      2645
 -1      1100    8    0    1
 -2       489       488       627      2271      2692      2693
 -1      1101    8    0    1
 -2       490       489       628      2274      2694      2695
 -1      1102    8    0    1
 -2       489       627       628      2693      2696      2694
 -1      1103    8    0    1
 -2       491       490       629      2277      2697      2698
 -1      1104    8    0    1
 -2       490       628       629      2695      2699      2697
 -1      1105    8    0    1
 -2       492       491       630      2280      2700      2701
 -1      1106    8    0    1
 -2       491       629       630      2698      2702      2700
 -1      1107    8    0    1
 -2       493       492       631      2283      2703      2704
 -1      1108    8    0    1
 -2       492       630       631      2701      2705      2703
 -1      1109    8    0    1
 -2       494       493       632      2286      2706      2707
 -1      1110    8    0    1
 -2       493       631       632      2704      2708      2706
 -1      1111    8    0    1
 -2       495       494       633      2289      2709      2710
 -1      1112    8    0    1
 -2       494       632       633      2707      2711      2709
 -1      1113    8    0    1
 -2       496       495       634      2292      2712      2713
 -1      1114    8    0    1
 -2       495       633       634      2710      2714      2712
 -1      1115    8    0    1
 -2       497       496       635      2295      2715      2716
 -1      1116    8    0    1
 -2       496       634       635      2713      2717      2715
 -1      1117    8    0    1
 -2       498       497       636      2298      2718      2719
 -1      1118    8    0    1
 -2       497       635       636      2716      2720      2718
 -1      1119    8    0    1
 -2       499       498       637      2301      2721      2722
 -1      1120    8    0    1
 -2       498       636       637      2719      2723      2721
 -1      1121    8    0    1
 -2       500       499       638      2304      2724      2725
 -1      1122    8    0    1
 -2       499       637       638      2722      2726      2724
 -1      1123    8    0    1
 -2       501       500       639      2307      2727      2728
 -1      1124    8    0    1
 -2       500       638       639      2725      2729      2727
 -1      1125    8    0    1
 -2       502       501       640      2310      2730      2731
 -1      1126    8    0    1
 -2       501       639       640      2728      2732      2730
 -1      1127    8    0    1
 -2       503       502       641      2313      2733      2734
 -1      1128    8    0    1
 -2       502       640       641      2731      2735      2733
 -1      1129    8    0    1
 -2       504       503       642      2316      2736      2737
 -1      1130    8    0    1
 -2       503       641       642      2734      2738      2736
 -1      1131    8    0    1
 -2       505       504       643      2319      2739      2740
 -1      1132    8    0    1
 -2       504       642       643      2737      2741      2739
 -1      1133    8    0    1
 -2       506       505       644      2322      2742      2743
 -1      1134    8    0    1
 -2       505       643       644      2740      2744      2742
 -1      1135    8    0    1
 -2       507       506       645      2325      2745      2746
 -1      1136    8    0    1
 -2       506       644       645      2743      2747      2745
 -1      1137    8    0    1
 -2       508       507       646      2328      2748      2749
 -1      1138    8    0    1
 -2       507       645       646      2746      2750      2748
 -1      1139    8    0    1
 -2       509       508       647      2331      2751      2752
 -1      1140    8    0    1
 -2       508       646       647      2749      2753      2751
 -1      1141    8    0    1
 -2       510       509       648      2334      2754      2755
 -1      1142    8    0    1
 -2       509       647       648      2752      2756      2754
 -1      1143    8    0    1
 -2       511       510       649      2337      2757      2758
 -1      1144    8    0    1
 -2       510       648       649      2755      2759      2757
 -1      1145    8    0    1
 -2       512       511       650      2340      2760      2761
 -1      1146    8    0    1
 -2       511       649       650      2758      2762      2760
 -1      1147    8    0    1
 -2       513       512       651      2343      2763      2764
 -1      1148    8    0    1
 -2       512       650       651      2761      2765      2763
 -1      1149    8    0    1
 -2       514       513       652      2346      2766      2767
 -1      1150    8    0    1
 -2       513       651       652      2764      2768      2766
 -1      1151    8    0    1
 -2       515       514       653      2349      2769      2770
 -1      1152    8    0    1
 -2       514       652       653      2767      2771      2769
 -1      1153    8    0    1
 -2       516       515       654      2352      2772      2773
 -1      1154    8    0    1
 -2       515       653       654      2770      2774      2772
 -1      1155    8    0    1
 -2       517       516       655      2355      2775      2776
 -1      1156    8    0    1
 -2       516       654       655      2773      2777      2775
 -1      1157    8    0    1
 -2       518       517       656      2358      2778      2779
 -1      1158    8    0    1
 -2       517       655       656      2776      2780      2778
 -1      1159    8    0    1
 -2       519       518       657      2361      2781      2782
 -1      1160    8    0    1
 -2       518       656       657      2779      2783      2781
 -1      1161    8    0    1
 -2       520       519       658      2364      2784      2785
 -1      1162    8    0    1
 -2       519       657       658      2782      2786      2784
 -1      1163    8    0    1
 -2       521       520       659      2367      2787      2788
 -1      1164    8    0    1
 -2       520       658       659      2785      2789      2787
 -1      1165    8    0    1
 -2       522       521       660      2370      2790      2791
 -1      1166    8    0    1
 -2       521       659       660      2788      2792      2790
 -1      1167    8    0    1
 -2       523       522       661      2373      2793      2794
 -1      1168    8    0    1
 -2       522       660       661      2791      2795      2793
 -1      1169    8    0    1
 -2       524       523       662      2376      2796      2797
 -1      1170    8    0    1
 -2       523       661       662      2794      2798      2796
 -1      1171    8    0    1
 -2       525       524       663      2379      2799      2800
 -1      1172    8    0    1
 -2       524       662       663      2797      2801      2799
 -1      1173    8    0    1
 -2       526       525       664      2382      2802      2803
 -1      1174    8    0    1
 -2       525       663       664      2800      2804      2802
 -1      1175    8    0    1
 -2       527       526       665      2385      2805      2806
 -1      1176    8    0    1
 -2       526       664       665      2803      2807      2805
 -1      1177    8    0    1
 -2       528       527       666      2388      2808      2809
 -1      1178    8    0    1
 -2       527       665       666      2806      2810      2808
 -1      1179    8    0    1
 -2       529       528       667      2391      2811      2812
 -1      1180    8    0    1
 -2       528       666       667      2809      2813      2811
 -1      1181    8    0    1
 -2       530       529       668      2394      2814      2815
 -1      1182    8    0    1
 -2       529       667       668      2812      2816      2814
 -1      1183    8    0    1
 -2       532       533       669      2402      2817      2818
 -1      1184    8    0    1
 -2       531       532       670      2399      2819      2820
 -1      1185    8    0    1
 -2       532       669       670      2818      2821      2819
 -1      1186    8    0    1
 -2       534       535       671      2408      2822      2823
 -1      1187    8    0    1
 -2       535       536       672      2411      2824      2825
 -1      1188    8    0    1
 -2       535       672       671      2825      2826      2822
 -1      1189    8    0    1
 -2       536       537       673      2414      2827      2828
 -1      1190    8    0    1
 -2       536       673       672      2828      2829      2824
 -1      1191    8    0    1
 -2       537       538       674      2417      2830      2831
 -1      1192    8    0    1
 -2       537       674       673      2831      2832      2827
 -1      1193    8    0    1
 -2       538       539       675      2420      2833      2834
 -1      1194    8    0    1
 -2       538       675       674      2834      2835      2830
 -1      1195    8    0    1
 -2       539       540       676      2423      2836      2837
 -1      1196    8    0    1
 -2       539       676       675      2837      2838      2833
 -1      1197    8    0    1
 -2       540       541       614      2426      2839      2840
 -1      1198    8    0    1
 -2       542       543       626      2432      2841      2842
 -1      1199    8    0    1
 -2       543       544       620      2435      2843      2844
 -1      1200    8    0    1
 -2       545       546       677      2441      2845      2846
 -1      1201    8    0    1
 -2       546       547       678      2444      2847      2848
 -1      1202    8    0    1
 -2       546       678       677      2848      2849      2845
 -1      1203    8    0    1
 -2       547       548       679      2447      2850      2851
 -1      1204    8    0    1
 -2       547       679       678      2851      2852      2847
 -1      1205    8    0    1
 -2       548       549       680      2450      2853      2854
 -1      1206    8    0    1
 -2       548       680       679      2854      2855      2850
 -1      1207    8    0    1
 -2       549       550       681      2453      2856      2857
 -1      1208    8    0    1
 -2       549       681       680      2857      2858      2853
 -1      1209    8    0    1
 -2       550       551       682      2456      2859      2860
 -1      1210    8    0    1
 -2       550       682       681      2860      2861      2856
 -1      1211    8    0    1
 -2       551       552       683      2459      2862      2863
 -1      1212    8    0    1
 -2       551       683       682      2863      2864      2859
 -1      1213    8    0    1
 -2       552       553       684      2462      2865      2866
 -1      1214    8    0    1
 -2       552       684       683      2866      2867      2862
 -1      1215    8    0    1
 -2       553       554       685      2465      2868      2869
 -1      1216    8    0    1
 -2       553       685       684      2869      2870      2865
 -1      1217    8    0    1
 -2       554       555       686      2468      2871      2872
 -1      1218    8    0    1
 -2       554       686       685      2872      2873      2868
 -1      1219    8    0    1
 -2       555       556       687      2471      2874      2875
 -1      1220    8    0    1
 -2       555       687       686      2875      2876      2871
 -1      1221    8    0    1
 -2       556       557       688      2474      2877      2878
 -1      1222    8    0    1
 -2       556       688       687      2878      2879      2874
 -1      1223    8    0    1
 -2       557       558       689      2477      2880      2881
 -1      1224    8    0    1
 -2       557       689       688      2881      2882      2877
 -1      1225    8    0    1
 -2       558       559       690      2480      2883      2884
 -1      1226    8    0    1
 -2       558       690       689      2884      2885      2880
 -1      1227    8    0    1
 -2       559       560       691      2483      2886      2887
 -1      1228    8    0    1
 -2       559       691       690      2887      2888      2883
 -1      1229    8    0    1
 -2       560       561       692      2486      2889      2890
 -1      1230    8    0    1
 -2       560       692       691      2890      2891      2886
 -1      1231    8    0    1
 -2       561       562       693      2489      2892      2893
 -1      1232    8    0    1
 -2       561       693       692      2893      2894      2889
 -1      1233    8    0    1
 -2       562       563       694      2492      2895      2896
 -1      1234    8    0    1
 -2       562       694       693      2896      2897      2892
 -1      1235    8    0    1
 -2       563       564       695      2495      2898      2899
 -1      1236    8    0    1
 -2       563       695       694      2899      2900      2895
 -1      1237    8    0    1
 -2       564       565       696      2498      2901      2902
 -1      1238    8    0    1
 -2       564       696       695      2902      2903      2898
 -1      1239    8    0    1
 -2       565       566       697      2501      2904      2905
 -1      1240    8    0    1
 -2       565       697       696      2905      2906      2901
 -1      1241    8    0    1
 -2       566       567       698      2504      2907      2908
 -1      1242    8    0    1
 -2       566       698       697      2908      2909      2904
 -1      1243    8    0    1
 -2       567       568       699      2507      2910      2911
 -1      1244    8    0    1
 -2       567       699       698      2911      2912      2907
 -1      1245    8    0    1
 -2       568       569       700      2510      2913      2914
 -1      1246    8    0    1
 -2       568       700       699      2914      2915      2910
 -1      1247    8    0    1
 -2       569       570       701      2513      2916      2917
 -1      1248    8    0    1
 -2       569       701       700      2917      2918      2913
 -1      1249    8    0    1
 -2       570       571       702      2516      2919      2920
 -1      1250    8    0    1
 -2       570       702       701      2920      2921      2916
 -1      1251    8    0    1
 -2       571       572       703      2519      2922      2923
 -1      1252    8    0    1
 -2       702       571       703      2919      2923      2924
 -1      1253    8    0    1
 -2       572       575       703      2672      2925      2922
 -1      1254    8    0    1
 -2       577       578       704      2537      2926      2927
 -1      1255    8    0    1
 -2       615       530       705      2673      2928      2929
 -1      1256    8    0    1
 -2       530       668       705      2815      2930      2928
 -1      1257    8    0    1
 -2       573       574       706      2525      2931      2932
 -1      1258    8    0    1
 -2       578       579       707      2540      2933      2934
 -1      1259    8    0    1
 -2       578       707       704      2934      2935      2926
 -1      1260    8    0    1
 -2       574       577       708      2534      2936      2937
 -1      1261    8    0    1
 -2       706       574       708      2931      2937      2938
 -1      1262    8    0    1
 -2       577       704       708      2927      2939      2936
 -1      1263    8    0    1
 -2       585       531       709      2557      2940      2941
 -1      1264    8    0    1
 -2       531       670       709      2820      2942      2940
 -1      1265    8    0    1
 -2       579       580       710      2543      2943      2944
 -1      1266    8    0    1
 -2       579       710       707      2944      2945      2933
 -1      1267    8    0    1
 -2       580       581       711      2546      2946      2947
 -1      1268    8    0    1
 -2       580       711       710      2947      2948      2943
 -1      1269    8    0    1
 -2       581       582       712      2549      2949      2950
 -1      1270    8    0    1
 -2       581       712       711      2950      2951      2946
 -1      1271    8    0    1
 -2       598       595       713      2632      2952      2953
 -1      1272    8    0    1
 -2       584       587       714      2634      2954      2955
 -1      1273    8    0    1
 -2       533       534       715      2405      2956      2957
 -1      1274    8    0    1
 -2       669       533       715      2817      2957      2958
 -1      1275    8    0    1
 -2       534       671       715      2823      2959      2956
 -1      1276    8    0    1
 -2       488       486       716      2268      2960      2961
 -1      1277    8    0    1
 -2       488       716       627      2961      2962      2692
 -1      1278    8    0    1
 -2       595       590       717      2582      2963      2964
 -1      1279    8    0    1
 -2       609       584       718      2622      2965      2966
 -1      1280    8    0    1
 -2       485       585       719      2620      2967      2968
 -1      1281    8    0    1
 -2       625       485       719      2686      2968      2969
 -1      1282    8    0    1
 -2       585       709       719      2941      2970      2967
 -1      1283    8    0    1
 -2       473       603       720      2667      2971      2972
 -1      1284    8    0    1
 -2       487       586       721      2670      2973      2974
 -1      1285    8    0    1
 -2       586       620       721      2675      2975      2973
 -1      1286    8    0    1
 -2       471       588       722      2644      2976      2977
 -1      1287    8    0    1
 -2       604       606       723      2633      2978      2979
 -1      1288    8    0    1
 -2       481       482       724      2252      2980      2981
 -1      1289    8    0    1
 -2       621       481       724      2676      2981      2982
 -1      1290    8    0    1
 -2       482       623       724      2682      2983      2980
 -1      1291    8    0    1
 -2       475       596       725      2666      2984      2985
 -1      1292    8    0    1
 -2       478       477       726      2241      2986      2987
 -1      1293    8    0    1
 -2       596       598       727      2589      2988      2989
 -1      1294    8    0    1
 -2       587       487       728      2631      2990      2991
 -1      1295    8    0    1
 -2       594       591       729      2669      2992      2993
 -1      1296    8    0    1
 -2       600       601       730      2630      2994      2995
 -1      1297    8    0    1
 -2       474       602       731      2668      2996      2997
 -1      1298    8    0    1
 -2       590       599       732      2661      2998      2999
 -1      1299    8    0    1
 -2       589       597       733      2665      3000      3001
 -1      1300    8    0    1
 -2       583       615       705      2649      2929      3002
 -1      1301    8    0    1
 -2       597       605       734      2604      3003      3004
 -1      1302    8    0    1
 -2       597       734       733      3004      3005      3000
 -1      1303    8    0    1
 -2       599       600       735      2671      3006      3007
 -1      1304    8    0    1
 -2       588       470       736      2640      3008      3009
 -1      1305    8    0    1
 -2       603       589       737      2657      3010      3011
 -1      1306    8    0    1
 -2       486       607       738      2609      3012      3013
 -1      1307    8    0    1
 -2       716       486       738      2960      3013      3014
 -1      1308    8    0    1
 -2       607       611       738      2625      3015      3012
 -1      1309    8    0    1
 -2       475       725       614      2985      3016      2643
 -1      1310    8    0    1
 -2       479       622       739      2679      3017      3018
 -1      1311    8    0    1
 -2       479       739       592      3018      3019      2574
 -1      1312    8    0    1
 -2       720       603       737      2971      3011      3020
 -1      1313    8    0    1
 -2       737       589       740      3010      3021      3022
 -1      1314    8    0    1
 -2       589       733       740      3001      3023      3021
 -1      1315    8    0    1
 -2       736       470       613      3008      2636      3024
 -1      1316    8    0    1
 -2       599       735       732      3007      3025      2998
 -1      1317    8    0    1
 -2       471       722       616      2977      3026      2651
 -1      1318    8    0    1
 -2       731       602       741      2996      3027      3028
 -1      1319    8    0    1
 -2       602       618       741      2659      3029      3027
 -1      1320    8    0    1
 -2       730       601       742      2994      3030      3031
 -1      1321    8    0    1
 -2       601       612       742      2628      3032      3030
 -1      1322    8    0    1
 -2       613       609       743      2637      3033      3034
 -1      1323    8    0    1
 -2       609       718       743      2966      3035      3033
 -1      1324    8    0    1
 -2       573       706       744      2932      3036      3037
 -1      1325    8    0    1
 -2       573       744       576      3037      3038      2531
 -1      1326    8    0    1
 -2       606       616       745      2653      3039      3040
 -1      1327    8    0    1
 -2       606       745       723      3040      3041      2978
 -1      1328    8    0    1
 -2       541       542       729      2429      3042      3043
 -1      1329    8    0    1
 -2       543       620       626      2844      2690      2841
 -1      1330    8    0    1
 -2       545       677       721      2846      3044      3045
 -1      1331    8    0    1
 -2       544       545       721      2438      3045      3046
 -1      1332    8    0    1
 -2       728       487       721      2990      2974      3047
 -1      1333    8    0    1
 -2       725       596       727      2984      2989      3048
 -1      1334    8    0    1
 -2       575       576       746      2530      3049      3050
 -1      1335    8    0    1
 -2       703       575       746      2925      3050      3051
 -1      1336    8    0    1
 -2       576       744       746      3038      3052      3049
 -1      1337    8    0    1
 -2       714       587       728      2954      2991      3053
 -1      1338    8    0    1
 -2       727       598       713      2988      2953      3054
 -1      1339    8    0    1
 -2       582       583       705      2552      3002      3055
 -1      1340    8    0    1
 -2       484       476       625      2691      2687      3056
 -1      1341    8    0    1
 -2       584       714       718      2955      3057      2965
 -1      1342    8    0    1
 -2       617       472       747      2656      3058      3059
 -1      1343    8    0    1
 -2       472       619       747      2663      3060      3058
 -1      1344    8    0    1
 -2       612       474       731      2629      2997      3061
 -1      1345    8    0    1
 -2       618       473       720      2660      2972      3062
 -1      1346    8    0    1
 -2       619       604       748      2664      3063      3064
 -1      1347    8    0    1
 -2       604       723       748      2979      3065      3063
 -1      1348    8    0    1
 -2       620       544       721      2843      3046      2975
 -1      1349    8    0    1
 -2       626       594       729      2688      2993      3066
 -1      1350    8    0    1
 -2       717       590       732      2963      2999      3067
 -1      1351    8    0    1
 -2       477       592       749      2573      3068      3069
 -1      1352    8    0    1
 -2       726       477       749      2986      3069      3070
 -1      1353    8    0    1
 -2       592       739       749      3019      3071      3068
 -1      1354    8    0    1
 -2       624       484       625      2683      3056      3072
 -1      1355    8    0    1
 -2       722       588       750      2976      3073      3074
 -1      1356    8    0    1
 -2       588       736       750      3009      3075      3073
 -1      1357    8    0    1
 -2       478       726       751      2987      3076      3077
 -1      1358    8    0    1
 -2       478       751       610      3077      3078      2617
 -1      1359    8    0    1
 -2       600       730       735      2995      3079      3006
 -1      1360    8    0    1
 -2       734       605       752      3003      3080      3081
 -1      1361    8    0    1
 -2       605       617       752      2655      3082      3080
 -1      1362    8    0    1
 -2       729       542       626      3042      2842      3066
 -1      1363    8    0    1
 -2       582       705       753      3055      3083      3084
 -1      1364    8    0    1
 -2       712       582       753      2949      3084      3085
 -1      1365    8    0    1
 -2       705       668       753      2930      3086      3083
 -1      1366    8    0    1
 -2       718       714       754      3057      3087      3088
 -1      1367    8    0    1
 -2       623       624       755      2685      3089      3090
 -1      1368    8    0    1
 -2       721       677       728      3044      3091      3047
 -1      1369    8    0    1
 -2       628       627       756      2696      3092      3093
 -1      1370    8    0    1
 -2       611       610       757      2626      3094      3095
 -1      1371    8    0    1
 -2       738       611       757      3015      3095      3096
 -1      1372    8    0    1
 -2       610       751       757      3078      3097      3094
 -1      1373    8    0    1
 -2       595       717       713      2964      3098      2952
 -1      1374    8    0    1
 -2       616       722       758      3026      3099      3100
 -1      1375    8    0    1
 -2       616       758       745      3100      3101      3039
 -1      1376    8    0    1
 -2       629       628       759      2699      3102      3103
 -1      1377    8    0    1
 -2       628       756       759      3093      3104      3102
 -1      1378    8    0    1
 -2       630       629       760      2702      3105      3106
 -1      1379    8    0    1
 -2       629       759       760      3103      3107      3105
 -1      1380    8    0    1
 -2       631       630       761      2705      3108      3109
 -1      1381    8    0    1
 -2       630       760       761      3106      3110      3108
 -1      1382    8    0    1
 -2       632       631       762      2708      3111      3112
 -1      1383    8    0    1
 -2       631       761       762      3109      3113      3111
 -1      1384    8    0    1
 -2       633       632       763      2711      3114      3115
 -1      1385    8    0    1
 -2       632       762       763      3112      3116      3114
 -1      1386    8    0    1
 -2       634       633       764      2714      3117      3118
 -1      1387    8    0    1
 -2       633       763       764      3115      3119      3117
 -1      1388    8    0    1
 -2       635       634       765      2717      3120      3121
 -1      1389    8    0    1
 -2       634       764       765      3118      3122      3120
 -1      1390    8    0    1
 -2       636       635       766      2720      3123      3124
 -1      1391    8    0    1
 -2       635       765       766      3121      3125      3123
 -1      1392    8    0    1
 -2       637       636       767      2723      3126      3127
 -1      1393    8    0    1
 -2       636       766       767      3124      3128      3126
 -1      1394    8    0    1
 -2       638       637       768      2726      3129      3130
 -1      1395    8    0    1
 -2       637       767       768      3127      3131      3129
 -1      1396    8    0    1
 -2       640       639       740      2732      3132      3133
 -1      1397    8    0    1
 -2       641       640       734      2735      3134      3135
 -1      1398    8    0    1
 -2       643       642       769      2741      3136      3137
 -1      1399    8    0    1
 -2       644       643       770      2744      3138      3139
 -1      1400    8    0    1
 -2       643       769       770      3137      3140      3138
 -1      1401    8    0    1
 -2       645       644       771      2747      3141      3142
 -1      1402    8    0    1
 -2       644       770       771      3139      3143      3141
 -1      1403    8    0    1
 -2       646       645       772      2750      3144      3145
 -1      1404    8    0    1
 -2       645       771       772      3142      3146      3144
 -1      1405    8    0    1
 -2       647       646       773      2753      3147      3148
 -1      1406    8    0    1
 -2       646       772       773      3145      3149      3147
 -1      1407    8    0    1
 -2       648       647       774      2756      3150      3151
 -1      1408    8    0    1
 -2       647       773       774      3148      3152      3150
 -1      1409    8    0    1
 -2       649       648       775      2759      3153      3154
 -1      1410    8    0    1
 -2       648       774       775      3151      3155      3153
 -1      1411    8    0    1
 -2       650       649       776      2762      3156      3157
 -1      1412    8    0    1
 -2       649       775       776      3154      3158      3156
 -1      1413    8    0    1
 -2       651       650       777      2765      3159      3160
 -1      1414    8    0    1
 -2       650       776       777      3157      3161      3159
 -1      1415    8    0    1
 -2       652       651       778      2768      3162      3163
 -1      1416    8    0    1
 -2       651       777       778      3160      3164      3162
 -1      1417    8    0    1
 -2       653       652       779      2771      3165      3166
 -1      1418    8    0    1
 -2       652       778       779      3163      3167      3165
 -1      1419    8    0    1
 -2       654       653       780      2774      3168      3169
 -1      1420    8    0    1
 -2       653       779       780      3166      3170      3168
 -1      1421    8    0    1
 -2       655       654       781      2777      3171      3172
 -1      1422    8    0    1
 -2       654       780       781      3169      3173      3171
 -1      1423    8    0    1
 -2       656       655       782      2780      3174      3175
 -1      1424    8    0    1
 -2       655       781       782      3172      3176      3174
 -1      1425    8    0    1
 -2       657       656       783      2783      3177      3178
 -1      1426    8    0    1
 -2       656       782       783      3175      3179      3177
 -1      1427    8    0    1
 -2       658       657       784      2786      3180      3181
 -1      1428    8    0    1
 -2       657       783       784      3178      3182      3180
 -1      1429    8    0    1
 -2       659       658       785      2789      3183      3184
 -1      1430    8    0    1
 -2       658       784       785      3181      3185      3183
 -1      1431    8    0    1
 -2       660       659       786      2792      3186      3187
 -1      1432    8    0    1
 -2       659       785       786      3184      3188      3186
 -1      1433    8    0    1
 -2       661       660       787      2795      3189      3190
 -1      1434    8    0    1
 -2       660       786       787      3187      3191      3189
 -1      1435    8    0    1
 -2       662       661       788      2798      3192      3193
 -1      1436    8    0    1
 -2       661       787       788      3190      3194      3192
 -1      1437    8    0    1
 -2       663       662       789      2801      3195      3196
 -1      1438    8    0    1
 -2       662       788       789      3193      3197      3195
 -1      1439    8    0    1
 -2       664       663       790      2804      3198      3199
 -1      1440    8    0    1
 -2       663       789       790      3196      3200      3198
 -1      1441    8    0    1
 -2       665       664       791      2807      3201      3202
 -1      1442    8    0    1
 -2       664       790       791      3199      3203      3201
 -1      1443    8    0    1
 -2       666       665       792      2810      3204      3205
 -1      1444    8    0    1
 -2       665       791       792      3202      3206      3204
 -1      1445    8    0    1
 -2       667       666       793      2813      3207      3208
 -1      1446    8    0    1
 -2       666       792       793      3205      3209      3207
 -1      1447    8    0    1
 -2       668       667       794      2816      3210      3211
 -1      1448    8    0    1
 -2       753       668       794      3086      3211      3212
 -1      1449    8    0    1
 -2       667       793       794      3208      3213      3210
 -1      1450    8    0    1
 -2       707       710       795      2945      3214      3215
 -1      1451    8    0    1
 -2       729       591       614      2992      2642      3216
 -1      1452    8    0    1
 -2       672       673       796      2829      3217      3218
 -1      1453    8    0    1
 -2       671       672       797      2826      3219      3220
 -1      1454    8    0    1
 -2       672       796       797      3218      3221      3219
 -1      1455    8    0    1
 -2       674       675       798      2835      3222      3223
 -1      1456    8    0    1
 -2       540       614       676      2840      3224      2836
 -1      1457    8    0    1
 -2       614       541       729      2839      3043      3216
 -1      1458    8    0    1
 -2       680       681       799      2858      3225      3226
 -1      1459    8    0    1
 -2       681       682       800      2861      3227      3228
 -1      1460    8    0    1
 -2       681       800       799      3228      3229      3225
 -1      1461    8    0    1
 -2       682       683       801      2864      3230      3231
 -1      1462    8    0    1
 -2       682       801       800      3231      3232      3227
 -1      1463    8    0    1
 -2       683       684       802      2867      3233      3234
 -1      1464    8    0    1
 -2       683       802       801      3234      3235      3230
 -1      1465    8    0    1
 -2       684       685       803      2870      3236      3237
 -1      1466    8    0    1
 -2       684       803       802      3237      3238      3233
 -1      1467    8    0    1
 -2       685       686       804      2873      3239      3240
 -1      1468    8    0    1
 -2       685       804       803      3240      3241      3236
 -1      1469    8    0    1
 -2       686       687       805      2876      3242      3243
 -1      1470    8    0    1
 -2       686       805       804      3243      3244      3239
 -1      1471    8    0    1
 -2       687       688       806      2879      3245      3246
 -1      1472    8    0    1
 -2       687       806       805      3246      3247      3242
 -1      1473    8    0    1
 -2       688       689       807      2882      3248      3249
 -1      1474    8    0    1
 -2       688       807       806      3249      3250      3245
 -1      1475    8    0    1
 -2       689       690       808      2885      3251      3252
 -1      1476    8    0    1
 -2       689       808       807      3252      3253      3248
 -1      1477    8    0    1
 -2       690       691       809      2888      3254      3255
 -1      1478    8    0    1
 -2       690       809       808      3255      3256      3251
 -1      1479    8    0    1
 -2       691       692       810      2891      3257      3258
 -1      1480    8    0    1
 -2       691       810       809      3258      3259      3254
 -1      1481    8    0    1
 -2       692       693       811      2894      3260      3261
 -1      1482    8    0    1
 -2       692       811       810      3261      3262      3257
 -1      1483    8    0    1
 -2       693       694       812      2897      3263      3264
 -1      1484    8    0    1
 -2       693       812       811      3264      3265      3260
 -1      1485    8    0    1
 -2       694       695       813      2900      3266      3267
 -1      1486    8    0    1
 -2       694       813       812      3267      3268      3263
 -1      1487    8    0    1
 -2       695       696       814      2903      3269      3270
 -1      1488    8    0    1
 -2       695       814       813      3270      3271      3266
 -1      1489    8    0    1
 -2       696       697       815      2906      3272      3273
 -1      1490    8    0    1
 -2       696       815       814      3273      3274      3269
 -1      1491    8    0    1
 -2       697       698       816      2909      3275      3276
 -1      1492    8    0    1
 -2       697       816       815      3276      3277      3272
 -1      1493    8    0    1
 -2       698       699       817      2912      3278      3279
 -1      1494    8    0    1
 -2       698       817       816      3279      3280      3275
 -1      1495    8    0    1
 -2       699       700       818      2915      3281      3282
 -1      1496    8    0    1
 -2       699       818       817      3282      3283      3278
 -1      1497    8    0    1
 -2       700       701       819      2918      3284      3285
 -1      1498    8    0    1
 -2       700       819       818      3285      3286      3281
 -1      1499    8    0    1
 -2       701       702       820      2921      3287      3288
 -1      1500    8    0    1
 -2       701       820       819      3288      3289      3284
 -1      1501    8    0    1
 -2       702       703       821      2924      3290      3291
 -1      1502    8    0    1
 -2       820       702       821      3287      3291      3292
 -1      1503    8    0    1
 -2       703       746       821      3051      3293      3290
 -1      1504    8    0    1
 -2       709       670       822      2942      3294      3295
 -1      1505    8    0    1
 -2       704       707       823      2935      3296      3297
 -1      1506    8    0    1
 -2       707       795       823      3215      3298      3296
 -1      1507    8    0    1
 -2       711       712       824      2951      3299      3300
 -1      1508    8    0    1
 -2       720       737       825      3020      3301      3302
 -1      1509    8    0    1
 -2       614       725       676      3016      3303      3224
 -1      1510    8    0    1
 -2       732       735       826      3025      3304      3305
 -1      1511    8    0    1
 -2       624       625       827      3072      3306      3307
 -1      1512    8    0    1
 -2       755       624       827      3089      3307      3308
 -1      1513    8    0    1
 -2       625       719       827      2969      3309      3306
 -1      1514    8    0    1
 -2       627       716       828      2962      3310      3311
 -1      1515    8    0    1
 -2       627       828       756      3311      3312      3092
 -1      1516    8    0    1
 -2       710       711       829      2948      3313      3314
 -1      1517    8    0    1
 -2       795       710       829      3214      3314      3315
 -1      1518    8    0    1
 -2       711       824       829      3300      3316      3313
 -1      1519    8    0    1
 -2       679       680       830      2855      3317      3318
 -1      1520    8    0    1
 -2       680       799       830      3226      3319      3317
 -1      1521    8    0    1
 -2       678       679       831      2852      3320      3321
 -1      1522    8    0    1
 -2       679       830       831      3318      3322      3320
 -1      1523    8    0    1
 -2       673       674       832      2832      3323      3324
 -1      1524    8    0    1
 -2       796       673       832      3217      3324      3325
 -1      1525    8    0    1
 -2       674       798       832      3223      3326      3323
 -1      1526    8    0    1
 -2       670       669       833      2821      3327      3328
 -1      1527    8    0    1
 -2       670       833       822      3328      3329      3294
 -1      1528    8    0    1
 -2       714       728       834      3053      3330      3331
 -1      1529    8    0    1
 -2       754       714       834      3087      3331      3332
 -1      1530    8    0    1
 -2       728       677       834      3091      3333      3330
 -1      1531    8    0    1
 -2       612       731       835      3061      3334      3335
 -1      1532    8    0    1
 -2       612       835       742      3335      3336      3032
 -1      1533    8    0    1
 -2       727       713       836      3054      3337      3338
 -1      1534    8    0    1
 -2       622       621       837      2680      3339      3340
 -1      1535    8    0    1
 -2       717       732       838      3067      3341      3342
 -1      1536    8    0    1
 -2       618       720       839      3062      3343      3344
 -1      1537    8    0    1
 -2       736       613       840      3024      3345      3346
 -1      1538    8    0    1
 -2       713       717       841      3098      3347      3348
 -1      1539    8    0    1
 -2       735       730       842      3079      3349      3350
 -1      1540    8    0    1
 -2       739       622       843      3017      3351      3352
 -1      1541    8    0    1
 -2       622       837       843      3340      3353      3351
 -1      1542    8    0    1
 -2       623       755       844      3090      3354      3355
 -1      1543    8    0    1
 -2       623       844       724      3355      3356      2983
 -1      1544    8    0    1
 -2       769       642       752      3136      3357      3358
 -1      1545    8    0    1
 -2       758       722       845      3099      3359      3360
 -1      1546    8    0    1
 -2       722       750       845      3074      3361      3359
 -1      1547    8    0    1
 -2       741       618       839      3029      3344      3362
 -1      1548    8    0    1
 -2       727       836       798      3338      3363      3364
 -1      1549    8    0    1
 -2       743       718       846      3035      3365      3366
 -1      1550    8    0    1
 -2       718       754       846      3088      3367      3365
 -1      1551    8    0    1
 -2       744       706       847      3036      3368      3369
 -1      1552    8    0    1
 -2       639       638       848      2729      3370      3371
 -1      1553    8    0    1
 -2       642       641       752      2738      3372      3357
 -1      1554    8    0    1
 -2       678       831       834      3321      3373      3374
 -1      1555    8    0    1
 -2       833       669       849      3327      3375      3376
 -1      1556    8    0    1
 -2       669       715       849      2958      3377      3375
 -1      1557    8    0    1
 -2       671       797       850      3220      3378      3379
 -1      1558    8    0    1
 -2       671       850       715      3379      3380      2959
 -1      1559    8    0    1
 -2       798       675       727      3222      3381      3364
 -1      1560    8    0    1
 -2       732       826       838      3305      3382      3341
 -1      1561    8    0    1
 -2       675       676       727      2838      3383      3381
 -1      1562    8    0    1
 -2       677       678       834      2849      3374      3333
 -1      1563    8    0    1
 -2       706       708       851      2938      3384      3385
 -1      1564    8    0    1
 -2       706       851       847      3385      3386      3368
 -1      1565    8    0    1
 -2       708       704       852      2939      3387      3388
 -1      1566    8    0    1
 -2       851       708       852      3384      3388      3389
 -1      1567    8    0    1
 -2       704       823       852      3297      3390      3387
 -1      1568    8    0    1
 -2       720       825       768      3302      3391      3392
 -1      1569    8    0    1
 -2       676       725       727      3303      3048      3383
 -1      1570    8    0    1
 -2       835       731       853      3334      3393      3394
 -1      1571    8    0    1
 -2       826       735       854      3304      3395      3396
 -1      1572    8    0    1
 -2       735       842       854      3350      3397      3395
 -1      1573    8    0    1
 -2       731       741       853      3028      3398      3393
 -1      1574    8    0    1
 -2       840       613       743      3345      3034      3399
 -1      1575    8    0    1
 -2       719       709       855      2970      3400      3401
 -1      1576    8    0    1
 -2       827       719       855      3309      3401      3402
 -1      1577    8    0    1
 -2       709       822       855      3295      3403      3400
 -1      1578    8    0    1
 -2       747       619       856      3060      3404      3405
 -1      1579    8    0    1
 -2       619       748       856      3064      3406      3404
 -1      1580    8    0    1
 -2       748       723       857      3065      3407      3408
 -1      1581    8    0    1
 -2       723       745       857      3041      3409      3407
 -1      1582    8    0    1
 -2       730       742       858      3031      3410      3411
 -1      1583    8    0    1
 -2       730       858       842      3411      3412      3349
 -1      1584    8    0    1
 -2       750       736       859      3075      3413      3414
 -1      1585    8    0    1
 -2       736       840       859      3346      3415      3413
 -1      1586    8    0    1
 -2       837       621       860      3339      3416      3417
 -1      1587    8    0    1
 -2       621       724       860      2982      3418      3416
 -1      1588    8    0    1
 -2       712       753       861      3085      3419      3420
 -1      1589    8    0    1
 -2       824       712       861      3299      3420      3421
 -1      1590    8    0    1
 -2       753       794       861      3212      3422      3419
 -1      1591    8    0    1
 -2       751       726       862      3076      3423      3424
 -1      1592    8    0    1
 -2       836       713       863      3337      3425      3426
 -1      1593    8    0    1
 -2       713       841       863      3348      3427      3425
 -1      1594    8    0    1
 -2       717       838       841      3342      3428      3347
 -1      1595    8    0    1
 -2       726       749       864      3070      3429      3430
 -1      1596    8    0    1
 -2       726       864       862      3430      3431      3423
 -1      1597    8    0    1
 -2       737       740       825      3022      3432      3301
 -1      1598    8    0    1
 -2       716       738       757      3014      3096      3433
 -1      1599    8    0    1
 -2       716       757       828      3433      3434      3310
 -1      1600    8    0    1
 -2       742       835       865      3336      3435      3436
 -1      1601    8    0    1
 -2       828       757       751      3434      3097      3437
 -1      1602    8    0    1
 -2       759       756       866      3104      3438      3439
 -1      1603    8    0    1
 -2       760       759       867      3107      3440      3441
 -1      1604    8    0    1
 -2       759       866       867      3439      3442      3440
 -1      1605    8    0    1
 -2       761       760       868      3110      3443      3444
 -1      1606    8    0    1
 -2       760       867       868      3441      3445      3443
 -1      1607    8    0    1
 -2       762       761       869      3113      3446      3447
 -1      1608    8    0    1
 -2       761       868       869      3444      3448      3446
 -1      1609    8    0    1
 -2       763       762       870      3116      3449      3450
 -1      1610    8    0    1
 -2       762       869       870      3447      3451      3449
 -1      1611    8    0    1
 -2       764       763       871      3119      3452      3453
 -1      1612    8    0    1
 -2       763       870       871      3450      3454      3452
 -1      1613    8    0    1
 -2       765       764       872      3122      3455      3456
 -1      1614    8    0    1
 -2       764       871       872      3453      3457      3455
 -1      1615    8    0    1
 -2       766       765       873      3125      3458      3459
 -1      1616    8    0    1
 -2       765       872       873      3456      3460      3458
 -1      1617    8    0    1
 -2       767       766       853      3128      3461      3462
 -1      1618    8    0    1
 -2       834       831       754      3373      3463      3332
 -1      1619    8    0    1
 -2       751       862       828      3424      3464      3437
 -1      1620    8    0    1
 -2       771       770       874      3143      3465      3466
 -1      1621    8    0    1
 -2       772       771       875      3146      3467      3468
 -1      1622    8    0    1
 -2       771       874       875      3466      3469      3467
 -1      1623    8    0    1
 -2       773       772       876      3149      3470      3471
 -1      1624    8    0    1
 -2       772       875       876      3468      3472      3470
 -1      1625    8    0    1
 -2       774       773       877      3152      3473      3474
 -1      1626    8    0    1
 -2       773       876       877      3471      3475      3473
 -1      1627    8    0    1
 -2       775       774       878      3155      3476      3477
 -1      1628    8    0    1
 -2       774       877       878      3474      3478      3476
 -1      1629    8    0    1
 -2       776       775       879      3158      3479      3480
 -1      1630    8    0    1
 -2       775       878       879      3477      3481      3479
 -1      1631    8    0    1
 -2       777       776       880      3161      3482      3483
 -1      1632    8    0    1
 -2       776       879       880      3480      3484      3482
 -1      1633    8    0    1
 -2       778       777       881      3164      3485      3486
 -1      1634    8    0    1
 -2       777       880       881      3483      3487      3485
 -1      1635    8    0    1
 -2       779       778       882      3167      3488      3489
 -1      1636    8    0    1
 -2       778       881       882      3486      3490      3488
 -1      1637    8    0    1
 -2       780       779       883      3170      3491      3492
 -1      1638    8    0    1
 -2       779       882       883      3489      3493      3491
 -1      1639    8    0    1
 -2       781       780       884      3173      3494      3495
 -1      1640    8    0    1
 -2       780       883       884      3492      3496      3494
 -1      1641    8    0    1
 -2       782       781       885      3176      3497      3498
 -1      1642    8    0    1
 -2       781       884       885      3495      3499      3497
 -1      1643    8    0    1
 -2       783       782       886      3179      3500      3501
 -1      1644    8    0    1
 -2       782       885       886      3498      3502      3500
 -1      1645    8    0    1
 -2       784       783       887      3182      3503      3504
 -1      1646    8    0    1
 -2       783       886       887      3501      3505      3503
 -1      1647    8    0    1
 -2       785       784       888      3185      3506      3507
 -1      1648    8    0    1
 -2       784       887       888      3504      3508      3506
 -1      1649    8    0    1
 -2       786       785       889      3188      3509      3510
 -1      1650    8    0    1
 -2       785       888       889      3507      3511      3509
 -1      1651    8    0    1
 -2       787       786       890      3191      3512      3513
 -1      1652    8    0    1
 -2       786       889       890      3510      3514      3512
 -1      1653    8    0    1
 -2       788       787       891      3194      3515      3516
 -1      1654    8    0    1
 -2       787       890       891      3513      3517      3515
 -1      1655    8    0    1
 -2       789       788       892      3197      3518      3519
 -1      1656    8    0    1
 -2       788       891       892      3516      3520      3518
 -1      1657    8    0    1
 -2       790       789       893      3200      3521      3522
 -1      1658    8    0    1
 -2       789       892       893      3519      3523      3521
 -1      1659    8    0    1
 -2       791       790       894      3203      3524      3525
 -1      1660    8    0    1
 -2       790       893       894      3522      3526      3524
 -1      1661    8    0    1
 -2       792       791       895      3206      3527      3528
 -1      1662    8    0    1
 -2       791       894       895      3525      3529      3527
 -1      1663    8    0    1
 -2       793       792       896      3209      3530      3531
 -1      1664    8    0    1
 -2       792       895       896      3528      3532      3530
 -1      1665    8    0    1
 -2       797       796       897      3221      3533      3534
 -1      1666    8    0    1
 -2       767       853       741      3462      3398      3535
 -1      1667    8    0    1
 -2       801       802       898      3235      3536      3537
 -1      1668    8    0    1
 -2       830       799       899      3319      3538      3539
 -1      1669    8    0    1
 -2       799       800       900      3229      3540      3541
 -1      1670    8    0    1
 -2       799       900       899      3541      3542      3538
 -1      1671    8    0    1
 -2       802       803       901      3238      3543      3544
 -1      1672    8    0    1
 -2       802       901       898      3544      3545      3536
 -1      1673    8    0    1
 -2       803       804       902      3241      3546      3547
 -1      1674    8    0    1
 -2       803       902       901      3547      3548      3543
 -1      1675    8    0    1
 -2       804       805       903      3244      3549      3550
 -1      1676    8    0    1
 -2       804       903       902      3550      3551      3546
 -1      1677    8    0    1
 -2       805       806       904      3247      3552      3553
 -1      1678    8    0    1
 -2       805       904       903      3553      3554      3549
 -1      1679    8    0    1
 -2       806       807       905      3250      3555      3556
 -1      1680    8    0    1
 -2       806       905       904      3556      3557      3552
 -1      1681    8    0    1
 -2       807       808       906      3253      3558      3559
 -1      1682    8    0    1
 -2       807       906       905      3559      3560      3555
 -1      1683    8    0    1
 -2       808       809       907      3256      3561      3562
 -1      1684    8    0    1
 -2       808       907       906      3562      3563      3558
 -1      1685    8    0    1
 -2       809       810       908      3259      3564      3565
 -1      1686    8    0    1
 -2       809       908       907      3565      3566      3561
 -1      1687    8    0    1
 -2       810       811       909      3262      3567      3568
 -1      1688    8    0    1
 -2       810       909       908      3568      3569      3564
 -1      1689    8    0    1
 -2       811       812       910      3265      3570      3571
 -1      1690    8    0    1
 -2       811       910       909      3571      3572      3567
 -1      1691    8    0    1
 -2       812       813       911      3268      3573      3574
 -1      1692    8    0    1
 -2       812       911       910      3574      3575      3570
 -1      1693    8    0    1
 -2       813       814       912      3271      3576      3577
 -1      1694    8    0    1
 -2       813       912       911      3577      3578      3573
 -1      1695    8    0    1
 -2       814       815       913      3274      3579      3580
 -1      1696    8    0    1
 -2       814       913       912      3580      3581      3576
 -1      1697    8    0    1
 -2       815       816       914      3277      3582      3583
 -1      1698    8    0    1
 -2       815       914       913      3583      3584      3579
 -1      1699    8    0    1
 -2       816       817       915      3280      3585      3586
 -1      1700    8    0    1
 -2       816       915       914      3586      3587      3582
 -1      1701    8    0    1
 -2       817       818       916      3283      3588      3589
 -1      1702    8    0    1
 -2       817       916       915      3589      3590      3585
 -1      1703    8    0    1
 -2       818       819       917      3286      3591      3592
 -1      1704    8    0    1
 -2       818       917       916      3592      3593      3588
 -1      1705    8    0    1
 -2       819       820       918      3289      3594      3595
 -1      1706    8    0    1
 -2       819       918       917      3595      3596      3591
 -1      1707    8    0    1
 -2       823       795       919      3298      3597      3598
 -1      1708    8    0    1
 -2       746       744       920      3052      3599      3600
 -1      1709    8    0    1
 -2       821       746       920      3293      3600      3601
 -1      1710    8    0    1
 -2       744       847       920      3369      3602      3599
 -1      1711    8    0    1
 -2       720       768       839      3392      3603      3343
 -1      1712    8    0    1
 -2       745       758       921      3101      3604      3605
 -1      1713    8    0    1
 -2       800       801       922      3232      3606      3607
 -1      1714    8    0    1
 -2       900       800       922      3540      3607      3608
 -1      1715    8    0    1
 -2       801       898       922      3537      3609      3606
 -1      1716    8    0    1
 -2       831       830       923      3322      3610      3611
 -1      1717    8    0    1
 -2       754       831       923      3463      3611      3612
 -1      1718    8    0    1
 -2       830       899       923      3539      3613      3610
 -1      1719    8    0    1
 -2       822       833       924      3329      3614      3615
 -1      1720    8    0    1
 -2       617       747       925      3059      3616      3617
 -1      1721    8    0    1
 -2       749       739       926      3071      3618      3619
 -1      1722    8    0    1
 -2       749       926       864      3619      3620      3429
 -1      1723    8    0    1
 -2       756       828       927      3312      3621      3622
 -1      1724    8    0    1
 -2       866       756       927      3438      3622      3623
 -1      1725    8    0    1
 -2       828       862       927      3464      3624      3621
 -1      1726    8    0    1
 -2       840       743       928      3399      3625      3626
 -1      1727    8    0    1
 -2       838       826       929      3382      3627      3628
 -1      1728    8    0    1
 -2       841       838       930      3428      3629      3630
 -1      1729    8    0    1
 -2       838       929       930      3628      3631      3629
 -1      1730    8    0    1
 -2       770       769       856      3140      3632      3633
 -1      1731    8    0    1
 -2       853       766       873      3461      3459      3634
 -1      1732    8    0    1
 -2       839       768       767      3603      3131      3635
 -1      1733    8    0    1
 -2       839       767       741      3635      3535      3362
 -1      1734    8    0    1
 -2       844       755       931      3354      3636      3637
 -1      1735    8    0    1
 -2       740       733       640      3023      3638      3133
 -1      1736    8    0    1
 -2       795       829       932      3315      3639      3640
 -1      1737    8    0    1
 -2       795       932       919      3640      3641      3597
 -1      1738    8    0    1
 -2       928       743       846      3625      3366      3642
 -1      1739    8    0    1
 -2       734       640       733      3134      3638      3005
 -1      1740    8    0    1
 -2       758       845       933      3360      3643      3644
 -1      1741    8    0    1
 -2       758       933       921      3644      3645      3604
 -1      1742    8    0    1
 -2       798       836       832      3363      3646      3326
 -1      1743    8    0    1
 -2       924       833       934      3614      3647      3648
 -1      1744    8    0    1
 -2       833       849       934      3376      3649      3647
 -1      1745    8    0    1
 -2       641       734       752      3135      3081      3372
 -1      1746    8    0    1
 -2       874       770       856      3465      3633      3650
 -1      1747    8    0    1
 -2       797       897       935      3534      3651      3652
 -1      1748    8    0    1
 -2       797       935       850      3652      3653      3378
 -1      1749    8    0    1
 -2       897       796       863      3533      3654      3655
 -1      1750    8    0    1
 -2       794       793       936      3213      3656      3657
 -1      1751    8    0    1
 -2       861       794       936      3422      3657      3658
 -1      1752    8    0    1
 -2       793       896       936      3531      3659      3656
 -1      1753    8    0    1
 -2       822       924       937      3615      3660      3661
 -1      1754    8    0    1
 -2       849       715       850      3377      3380      3662
 -1      1755    8    0    1
 -2       823       919       938      3598      3663      3664
 -1      1756    8    0    1
 -2       823       938       852      3664      3665      3390
 -1      1757    8    0    1
 -2       820       821       920      3292      3601      3666
 -1      1758    8    0    1
 -2       840       928       939      3626      3667      3668
 -1      1759    8    0    1
 -2       840       939       859      3668      3669      3415
 -1      1760    8    0    1
 -2       820       920       918      3666      3670      3594
 -1      1761    8    0    1
 -2       832       836       863      3646      3426      3671
 -1      1762    8    0    1
 -2       854       842       940      3397      3672      3673
 -1      1763    8    0    1
 -2       742       865       858      3436      3674      3410
 -1      1764    8    0    1
 -2       826       854       941      3396      3675      3676
 -1      1765    8    0    1
 -2       826       941       929      3676      3677      3627
 -1      1766    8    0    1
 -2       755       827       942      3308      3678      3679
 -1      1767    8    0    1
 -2       931       755       942      3636      3679      3680
 -1      1768    8    0    1
 -2       827       855       942      3402      3681      3678
 -1      1769    8    0    1
 -2       855       822       937      3403      3661      3682
 -1      1770    8    0    1
 -2       926       739       843      3618      3352      3683
 -1      1771    8    0    1
 -2       857       745       943      3409      3684      3685
 -1      1772    8    0    1
 -2       745       921       943      3605      3686      3684
 -1      1773    8    0    1
 -2       638       768       848      3130      3687      3370
 -1      1774    8    0    1
 -2       835       853       944      3394      3688      3689
 -1      1775    8    0    1
 -2       847       851       945      3386      3690      3691
 -1      1776    8    0    1
 -2       617       925       752      3617      3692      3082
 -1      1777    8    0    1
 -2       842       858       940      3412      3693      3672
 -1      1778    8    0    1
 -2       835       944       865      3689      3694      3435
 -1      1779    8    0    1
 -2       927       862       946      3624      3695      3696
 -1      1780    8    0    1
 -2       862       864       946      3431      3697      3695
 -1      1781    8    0    1
 -2       845       750       947      3361      3698      3699
 -1      1782    8    0    1
 -2       750       859       947      3414      3700      3698
 -1      1783    8    0    1
 -2       860       724       844      3418      3356      3701
 -1      1784    8    0    1
 -2       863       841       930      3427      3630      3702
 -1      1785    8    0    1
 -2       824       861       936      3421      3658      3703
 -1      1786    8    0    1
 -2       843       837       948      3353      3704      3705
 -1      1787    8    0    1
 -2       920       847       918      3602      3706      3670
 -1      1788    8    0    1
 -2       748       857       949      3408      3707      3708
 -1      1789    8    0    1
 -2       856       748       949      3406      3708      3709
 -1      1790    8    0    1
 -2       857       943       949      3685      3710      3707
 -1      1791    8    0    1
 -2       824       936       950      3703      3711      3712
 -1      1792    8    0    1
 -2       829       824       950      3316      3712      3713
 -1      1793    8    0    1
 -2       936       896       950      3659      3714      3711
 -1      1794    8    0    1
 -2       837       860       951      3417      3715      3716
 -1      1795    8    0    1
 -2       837       951       948      3716      3717      3704
 -1      1796    8    0    1
 -2       853       873       944      3634      3718      3688
 -1      1797    8    0    1
 -2       847       945       918      3691      3719      3706
 -1      1798    8    0    1
 -2       926       843       952      3683      3720      3721
 -1      1799    8    0    1
 -2       843       948       952      3705      3722      3720
 -1      1800    8    0    1
 -2       846       754       923      3367      3612      3723
 -1      1801    8    0    1
 -2       851       852       953      3389      3724      3725
 -1      1802    8    0    1
 -2       945       851       953      3690      3725      3726
 -1      1803    8    0    1
 -2       852       938       953      3665      3727      3724
 -1      1804    8    0    1
 -2       639       848       740      3371      3728      3132
 -1      1805    8    0    1
 -2       868       867       954      3445      3729      3730
 -1      1806    8    0    1
 -2       869       868       955      3448      3731      3732
 -1      1807    8    0    1
 -2       868       954       955      3730      3733      3731
 -1      1808    8    0    1
 -2       870       869       956      3451      3734      3735
 -1      1809    8    0    1
 -2       869       955       956      3732      3736      3734
 -1      1810    8    0    1
 -2       871       870       957      3454      3737      3738
 -1      1811    8    0    1
 -2       870       956       957      3735      3739      3737
 -1      1812    8    0    1
 -2       872       871       958      3457      3740      3741
 -1      1813    8    0    1
 -2       871       957       958      3738      3742      3740
 -1      1814    8    0    1
 -2       873       872       944      3460      3743      3718
 -1      1815    8    0    1
 -2       796       832       863      3325      3671      3654
 -1      1816    8    0    1
 -2       876       875       959      3472      3744      3745
 -1      1817    8    0    1
 -2       877       876       960      3475      3746      3747
 -1      1818    8    0    1
 -2       876       959       960      3745      3748      3746
 -1      1819    8    0    1
 -2       878       877       961      3478      3749      3750
 -1      1820    8    0    1
 -2       877       960       961      3747      3751      3749
 -1      1821    8    0    1
 -2       879       878       962      3481      3752      3753
 -1      1822    8    0    1
 -2       878       961       962      3750      3754      3752
 -1      1823    8    0    1
 -2       880       879       963      3484      3755      3756
 -1      1824    8    0    1
 -2       879       962       963      3753      3757      3755
 -1      1825    8    0    1
 -2       881       880       964      3487      3758      3759
 -1      1826    8    0    1
 -2       880       963       964      3756      3760      3758
 -1      1827    8    0    1
 -2       882       881       965      3490      3761      3762
 -1      1828    8    0    1
 -2       881       964       965      3759      3763      3761
 -1      1829    8    0    1
 -2       883       882       966      3493      3764      3765
 -1      1830    8    0    1
 -2       882       965       966      3762      3766      3764
 -1      1831    8    0    1
 -2       884       883       967      3496      3767      3768
 -1      1832    8    0    1
 -2       883       966       967      3765      3769      3767
 -1      1833    8    0    1
 -2       885       884       968      3499      3770      3771
 -1      1834    8    0    1
 -2       884       967       968      3768      3772      3770
 -1      1835    8    0    1
 -2       886       885       969      3502      3773      3774
 -1      1836    8    0    1
 -2       885       968       969      3771      3775      3773
 -1      1837    8    0    1
 -2       887       886       970      3505      3776      3777
 -1      1838    8    0    1
 -2       886       969       970      3774      3778      3776
 -1      1839    8    0    1
 -2       888       887       971      3508      3779      3780
 -1      1840    8    0    1
 -2       887       970       971      3777      3781      3779
 -1      1841    8    0    1
 -2       889       888       972      3511      3782      3783
 -1      1842    8    0    1
 -2       888       971       972      3780      3784      3782
 -1      1843    8    0    1
 -2       890       889       973      3514      3785      3786
 -1      1844    8    0    1
 -2       889       972       973      3783      3787      3785
 -1      1845    8    0    1
 -2       891       890       974      3517      3788      3789
 -1      1846    8    0    1
 -2       890       973       974      3786      3790      3788
 -1      1847    8    0    1
 -2       892       891       975      3520      3791      3792
 -1      1848    8    0    1
 -2       891       974       975      3789      3793      3791
 -1      1849    8    0    1
 -2       893       892       976      3523      3794      3795
 -1      1850    8    0    1
 -2       892       975       976      3792      3796      3794
 -1      1851    8    0    1
 -2       894       893       977      3526      3797      3798
 -1      1852    8    0    1
 -2       893       976       977      3795      3799      3797
 -1      1853    8    0    1
 -2       895       894       978      3529      3800      3801
 -1      1854    8    0    1
 -2       894       977       978      3798      3802      3800
 -1      1855    8    0    1
 -2       896       895       979      3532      3803      3804
 -1      1856    8    0    1
 -2       895       978       979      3801      3805      3803
 -1      1857    8    0    1
 -2       846       923       980      3723      3806      3807
 -1      1858    8    0    1
 -2       928       846       980      3642      3807      3808
 -1      1859    8    0    1
 -2       923       899       980      3613      3809      3806
 -1      1860    8    0    1
 -2       901       902       981      3548      3810      3811
 -1      1861    8    0    1
 -2       897       863       930      3655      3702      3812
 -1      1862    8    0    1
 -2       849       850       982      3662      3813      3814
 -1      1863    8    0    1
 -2       850       935       982      3653      3815      3813
 -1      1864    8    0    1
 -2       899       900       983      3542      3816      3817
 -1      1865    8    0    1
 -2       902       903       984      3551      3818      3819
 -1      1866    8    0    1
 -2       902       984       981      3819      3820      3810
 -1      1867    8    0    1
 -2       903       904       985      3554      3821      3822
 -1      1868    8    0    1
 -2       903       985       984      3822      3823      3818
 -1      1869    8    0    1
 -2       904       905       986      3557      3824      3825
 -1      1870    8    0    1
 -2       904       986       985      3825      3826      3821
 -1      1871    8    0    1
 -2       905       906       987      3560      3827      3828
 -1      1872    8    0    1
 -2       905       987       986      3828      3829      3824
 -1      1873    8    0    1
 -2       906       907       988      3563      3830      3831
 -1      1874    8    0    1
 -2       906       988       987      3831      3832      3827
 -1      1875    8    0    1
 -2       907       908       989      3566      3833      3834
 -1      1876    8    0    1
 -2       907       989       988      3834      3835      3830
 -1      1877    8    0    1
 -2       908       909       990      3569      3836      3837
 -1      1878    8    0    1
 -2       908       990       989      3837      3838      3833
 -1      1879    8    0    1
 -2       909       910       991      3572      3839      3840
 -1      1880    8    0    1
 -2       909       991       990      3840      3841      3836
 -1      1881    8    0    1
 -2       910       911       992      3575      3842      3843
 -1      1882    8    0    1
 -2       910       992       991      3843      3844      3839
 -1      1883    8    0    1
 -2       911       912       993      3578      3845      3846
 -1      1884    8    0    1
 -2       911       993       992      3846      3847      3842
 -1      1885    8    0    1
 -2       912       913       994      3581      3848      3849
 -1      1886    8    0    1
 -2       912       994       993      3849      3850      3845
 -1      1887    8    0    1
 -2       913       914       995      3584      3851      3852
 -1      1888    8    0    1
 -2       913       995       994      3852      3853      3848
 -1      1889    8    0    1
 -2       914       915       996      3587      3854      3855
 -1      1890    8    0    1
 -2       914       996       995      3855      3856      3851
 -1      1891    8    0    1
 -2       915       916       997      3590      3857      3858
 -1      1892    8    0    1
 -2       915       997       996      3858      3859      3854
 -1      1893    8    0    1
 -2       916       917       998      3593      3860      3861
 -1      1894    8    0    1
 -2       916       998       997      3861      3862      3857
 -1      1895    8    0    1
 -2       917       918       945      3596      3719      3863
 -1      1896    8    0    1
 -2       930       929       999      3631      3864      3865
 -1      1897    8    0    1
 -2       944       872       958      3743      3741      3866
 -1      1898    8    0    1
 -2       897       930       999      3812      3865      3867
 -1      1899    8    0    1
 -2       917       945       998      3863      3868      3860
 -1      1900    8    0    1
 -2       925       747       856      3616      3405      3869
 -1      1901    8    0    1
 -2       864       926      1000      3620      3870      3871
 -1      1902    8    0    1
 -2       946       864      1000      3697      3871      3872
 -1      1903    8    0    1
 -2       926       952      1000      3721      3873      3870
 -1      1904    8    0    1
 -2       937       924      1001      3660      3874      3875
 -1      1905    8    0    1
 -2       854       940      1002      3673      3876      3877
 -1      1906    8    0    1
 -2       860       844      1003      3701      3878      3879
 -1      1907    8    0    1
 -2       951       860      1003      3715      3879      3880
 -1      1908    8    0    1
 -2       844       931      1003      3637      3881      3878
 -1      1909    8    0    1
 -2       866       927      1004      3623      3882      3883
 -1      1910    8    0    1
 -2       927       946      1004      3696      3884      3882
 -1      1911    8    0    1
 -2       898       901      1005      3545      3885      3886
 -1      1912    8    0    1
 -2       901       981      1005      3811      3887      3885
 -1      1913    8    0    1
 -2       867       866      1006      3442      3888      3889
 -1      1914    8    0    1
 -2       954       867      1006      3729      3889      3890
 -1      1915    8    0    1
 -2       866      1004      1006      3883      3891      3888
 -1      1916    8    0    1
 -2       933       845      1007      3643      3892      3893
 -1      1917    8    0    1
 -2       845       947      1007      3699      3894      3892
 -1      1918    8    0    1
 -2       768       825       848      3391      3895      3687
 -1      1919    8    0    1
 -2       932       829       950      3639      3713      3896
 -1      1920    8    0    1
 -2       934       849       982      3649      3814      3897
 -1      1921    8    0    1
 -2       919       932      1008      3641      3898      3899
 -1      1922    8    0    1
 -2       897       999      1009      3867      3900      3901
 -1      1923    8    0    1
 -2       897      1009       935      3901      3902      3651
 -1      1924    8    0    1
 -2       875       874      1010      3469      3903      3904
 -1      1925    8    0    1
 -2       875      1010       959      3904      3905      3744
 -1      1926    8    0    1
 -2       896       979       950      3804      3906      3714
 -1      1927    8    0    1
 -2       980       899       983      3809      3817      3907
 -1      1928    8    0    1
 -2       898      1005      1011      3886      3908      3909
 -1      1929    8    0    1
 -2       898      1011       922      3909      3910      3609
 -1      1930    8    0    1
 -2       983       900      1012      3816      3911      3912
 -1      1931    8    0    1
 -2       900       922      1012      3608      3913      3911
 -1      1932    8    0    1
 -2       938       919      1013      3663      3914      3915
 -1      1933    8    0    1
 -2       919      1008      1013      3899      3916      3914
 -1      1934    8    0    1
 -2       999       929      1014      3864      3917      3918
 -1      1935    8    0    1
 -2       929       941      1014      3677      3919      3917
 -1      1936    8    0    1
 -2       859       939      1015      3669      3920      3921
 -1      1937    8    0    1
 -2       859      1015       947      3921      3922      3700
 -1      1938    8    0    1
 -2       865       944       958      3694      3866      3923
 -1      1939    8    0    1
 -2       858       865      1016      3674      3924      3925
 -1      1940    8    0    1
 -2       941       854      1002      3675      3877      3926
 -1      1941    8    0    1
 -2       943       921      1010      3686      3927      3928
 -1      1942    8    0    1
 -2       924       934      1017      3648      3929      3930
 -1      1943    8    0    1
 -2       924      1017      1001      3930      3931      3874
 -1      1944    8    0    1
 -2       998       945      1018      3868      3932      3933
 -1      1945    8    0    1
 -2       945       953      1018      3726      3934      3932
 -1      1946    8    0    1
 -2       952       948      1019      3722      3935      3936
 -1      1947    8    0    1
 -2      1002       940      1020      3876      3937      3938
 -1      1948    8    0    1
 -2       940       858      1016      3693      3925      3939
 -1      1949    8    0    1
 -2      1020       940      1016      3937      3939      3940
 -1      1950    8    0    1
 -2      1010       921      1021      3927      3941      3942
 -1      1951    8    0    1
 -2       959      1010      1021      3905      3942      3943
 -1      1952    8    0    1
 -2       921       933      1021      3645      3944      3941
 -1      1953    8    0    1
 -2      1019       948      1022      3935      3945      3946
 -1      1954    8    0    1
 -2       948       951      1022      3717      3947      3945
 -1      1955    8    0    1
 -2       848       825       740      3895      3432      3728
 -1      1956    8    0    1
 -2       953       938      1023      3727      3948      3949
 -1      1957    8    0    1
 -2      1018       953      1023      3934      3949      3950
 -1      1958    8    0    1
 -2       938      1013      1023      3915      3951      3948
 -1      1959    8    0    1
 -2      1008       932       979      3898      3952      3953
 -1      1960    8    0    1
 -2       956       955      1024      3736      3954      3955
 -1      1961    8    0    1
 -2       957       956      1025      3739      3956      3957
 -1      1962    8    0    1
 -2       956      1024      1025      3955      3958      3956
 -1      1963    8    0    1
 -2      1010       874       943      3903      3959      3928
 -1      1964    8    0    1
 -2       874       856       949      3650      3709      3960
 -1      1965    8    0    1
 -2       960       959      1026      3748      3961      3962
 -1      1966    8    0    1
 -2       928       980      1027      3808      3963      3964
 -1      1967    8    0    1
 -2       961       960      1028      3751      3965      3966
 -1      1968    8    0    1
 -2       960      1026      1028      3962      3967      3965
 -1      1969    8    0    1
 -2       962       961      1029      3754      3968      3969
 -1      1970    8    0    1
 -2       961      1028      1029      3966      3970      3968
 -1      1971    8    0    1
 -2       963       962      1030      3757      3971      3972
 -1      1972    8    0    1
 -2       962      1029      1030      3969      3973      3971
 -1      1973    8    0    1
 -2       964       963      1031      3760      3974      3975
 -1      1974    8    0    1
 -2       963      1030      1031      3972      3976      3974
 -1      1975    8    0    1
 -2       965       964      1032      3763      3977      3978
 -1      1976    8    0    1
 -2       964      1031      1032      3975      3979      3977
 -1      1977    8    0    1
 -2       966       965      1033      3766      3980      3981
 -1      1978    8    0    1
 -2       965      1032      1033      3978      3982      3980
 -1      1979    8    0    1
 -2       967       966      1034      3769      3983      3984
 -1      1980    8    0    1
 -2       966      1033      1034      3981      3985      3983
 -1      1981    8    0    1
 -2       968       967      1035      3772      3986      3987
 -1      1982    8    0    1
 -2       967      1034      1035      3984      3988      3986
 -1      1983    8    0    1
 -2       969       968      1036      3775      3989      3990
 -1      1984    8    0    1
 -2       968      1035      1036      3987      3991      3989
 -1      1985    8    0    1
 -2       970       969      1037      3778      3992      3993
 -1      1986    8    0    1
 -2       969      1036      1037      3990      3994      3992
 -1      1987    8    0    1
 -2       971       970      1038      3781      3995      3996
 -1      1988    8    0    1
 -2       970      1037      1038      3993      3997      3995
 -1      1989    8    0    1
 -2       972       971      1039      3784      3998      3999
 -1      1990    8    0    1
 -2       971      1038      1039      3996      4000      3998
 -1      1991    8    0    1
 -2       973       972      1040      3787      4001      4002
 -1      1992    8    0    1
 -2       972      1039      1040      3999      4003      4001
 -1      1993    8    0    1
 -2       974       973      1041      3790      4004      4005
 -1      1994    8    0    1
 -2       973      1040      1041      4002      4006      4004
 -1      1995    8    0    1
 -2       975       974      1042      3793      4007      4008
 -1      1996    8    0    1
 -2       974      1041      1042      4005      4009      4007
 -1      1997    8    0    1
 -2       976       975      1043      3796      4010      4011
 -1      1998    8    0    1
 -2       975      1042      1043      4008      4012      4010
 -1      1999    8    0    1
 -2       977       976      1044      3799      4013      4014
 -1      2000    8    0    1
 -2       976      1043      1044      4011      4015      4013
 -1      2001    8    0    1
 -2       978       977      1045      3802      4016      4017
 -1      2002    8    0    1
 -2       977      1044      1045      4014      4018      4016
 -1      2003    8    0    1
 -2       979       978      1046      3805      4019      4020
 -1      2004    8    0    1
 -2      1008       979      1046      3953      4020      4021
 -1      2005    8    0    1
 -2       978      1045      1046      4017      4022      4019
 -1      2006    8    0    1
 -2       985       986      1047      3826      4023      4024
 -1      2007    8    0    1
 -2       982       935      1048      3815      4025      4026
 -1      2008    8    0    1
 -2       935      1009      1048      3902      4027      4025
 -1      2009    8    0    1
 -2       980       983      1027      3907      4028      3963
 -1      2010    8    0    1
 -2       981       984      1049      3820      4029      4030
 -1      2011    8    0    1
 -2       986       987      1050      3829      4031      4032
 -1      2012    8    0    1
 -2       986      1050      1047      4032      4033      4023
 -1      2013    8    0    1
 -2       987       988      1051      3832      4034      4035
 -1      2014    8    0    1
 -2       987      1051      1050      4035      4036      4031
 -1      2015    8    0    1
 -2       988       989      1052      3835      4037      4038
 -1      2016    8    0    1
 -2       988      1052      1051      4038      4039      4034
 -1      2017    8    0    1
 -2       989       990      1053      3838      4040      4041
 -1      2018    8    0    1
 -2       989      1053      1052      4041      4042      4037
 -1      2019    8    0    1
 -2       990       991      1054      3841      4043      4044
 -1      2020    8    0    1
 -2       990      1054      1053      4044      4045      4040
 -1      2021    8    0    1
 -2       991       992      1055      3844      4046      4047
 -1      2022    8    0    1
 -2       991      1055      1054      4047      4048      4043
 -1      2023    8    0    1
 -2       992       993      1056      3847      4049      4050
 -1      2024    8    0    1
 -2       992      1056      1055      4050      4051      4046
 -1      2025    8    0    1
 -2       993       994      1057      3850      4052      4053
 -1      2026    8    0    1
 -2       993      1057      1056      4053      4054      4049
 -1      2027    8    0    1
 -2       994       995      1058      3853      4055      4056
 -1      2028    8    0    1
 -2       994      1058      1057      4056      4057      4052
 -1      2029    8    0    1
 -2       995       996      1059      3856      4058      4059
 -1      2030    8    0    1
 -2       995      1059      1058      4059      4060      4055
 -1      2031    8    0    1
 -2       996       997      1060      3859      4061      4062
 -1      2032    8    0    1
 -2       996      1060      1059      4062      4063      4058
 -1      2033    8    0    1
 -2       997       998      1061      3862      4064      4065
 -1      2034    8    0    1
 -2      1060       997      1061      4061      4065      4066
 -1      2035    8    0    1
 -2       998      1018      1061      3933      4067      4064
 -1      2036    8    0    1
 -2      1003       931      1001      3881      4068      4069
 -1      2037    8    0    1
 -2       925       856       769      3869      3632      4070
 -1      2038    8    0    1
 -2       950       979       932      3906      3952      3896
 -1      2039    8    0    1
 -2       984       985      1062      3823      4071      4072
 -1      2040    8    0    1
 -2      1049       984      1062      4029      4072      4073
 -1      2041    8    0    1
 -2       985      1047      1062      4024      4074      4071
 -1      2042    8    0    1
 -2       939       928      1027      3667      3964      4075
 -1      2043    8    0    1
 -2      1016       865       958      3924      3923      4076
 -1      2044    8    0    1
 -2       941      1002      1063      3926      4077      4078
 -1      2045    8    0    1
 -2       941      1063      1014      4078      4079      3919
 -1      2046    8    0    1
 -2       955       954      1064      3733      4080      4081
 -1      2047    8    0    1
 -2       955      1064      1024      4081      4082      3954
 -1      2048    8    0    1
 -2      1004       946      1065      3884      4083      4084
 -1      2049    8    0    1
 -2       946      1000      1065      3872      4085      4083
 -1      2050    8    0    1
 -2       939      1027      1066      4075      4086      4087
 -1      2051    8    0    1
 -2       939      1066      1015      4087      4088      3920
 -1      2052    8    0    1
 -2      1002      1020      1067      3938      4089      4090
 -1      2053    8    0    1
 -2      1002      1067      1063      4090      4091      4077
 -1      2054    8    0    1
 -2       874       949       943      3960      3710      3959
 -1      2055    8    0    1
 -2      1027       983      1068      4028      4092      4093
 -1      2056    8    0    1
 -2      1066      1027      1068      4086      4093      4094
 -1      2057    8    0    1
 -2       983      1012      1068      3912      4095      4092
 -1      2058    8    0    1
 -2      1016       958      1020      4076      4096      3940
 -1      2059    8    0    1
 -2      1020       958       957      4096      3742      4097
 -1      2060    8    0    1
 -2      1020       957      1025      4097      3957      4098
 -1      2061    8    0    1
 -2       931       942       937      3680      4099      4100
 -1      2062    8    0    1
 -2       951      1003      1069      3880      4101      4102
 -1      2063    8    0    1
 -2      1022       951      1069      3947      4102      4103
 -1      2064    8    0    1
 -2      1003      1001      1069      4069      4104      4101
 -1      2065    8    0    1
 -2      1005       981      1070      3887      4105      4106
 -1      2066    8    0    1
 -2       981      1049      1070      4030      4107      4105
 -1      2067    8    0    1
 -2       934       982      1071      3897      4108      4109
 -1      2068    8    0    1
 -2      1017       934      1071      3929      4109      4110
 -1      2069    8    0    1
 -2       982      1048      1071      4026      4111      4108
 -1      2070    8    0    1
 -2       855       937       942      3682      4099      3681
 -1      2071    8    0    1
 -2       931       937      1001      4100      3875      4068
 -1      2072    8    0    1
 -2      1009       999      1014      3900      3918      4112
 -1      2073    8    0    1
 -2      1004      1065      1072      4084      4113      4114
 -1      2074    8    0    1
 -2      1004      1072      1006      4114      4115      3891
 -1      2075    8    0    1
 -2      1007       947      1073      3894      4116      4117
 -1      2076    8    0    1
 -2       947      1015      1073      3922      4118      4116
 -1      2077    8    0    1
 -2      1020      1025      1067      4098      4119      4089
 -1      2078    8    0    1
 -2      1026       959      1021      3961      3943      4120
 -1      2079    8    0    1
 -2      1021       933      1074      3944      4121      4122
 -1      2080    8    0    1
 -2      1026      1021      1074      4120      4122      4123
 -1      2081    8    0    1
 -2       933      1007      1074      3893      4124      4121
 -1      2082    8    0    1
 -2      1008      1046      1075      4021      4125      4126
 -1      2083    8    0    1
 -2      1008      1075      1013      4126      4127      3916
 -1      2084    8    0    1
 -2      1011      1005      1076      3908      4128      4129
 -1      2085    8    0    1
 -2      1005      1070      1076      4106      4130      4128
 -1      2086    8    0    1
 -2      1012       922      1011      3913      3910      4131
 -1      2087    8    0    1
 -2       925       769       752      4070      3358      3692
 -1      2088    8    0    1
 -2      1069      1001      1077      4104      4132      4133
 -1      2089    8    0    1
 -2      1001      1017      1077      3931      4134      4132
 -1      2090    8    0    1
 -2      1019      1022      1078      3946      4135      4136
 -1      2091    8    0    1
 -2      1019      1078      1079      4136      4137      4138
 -1      2092    8    0    1
 -2      1000       952      1080      3873      4139      4140
 -1      2093    8    0    1
 -2      1065      1000      1080      4085      4140      4141
 -1      2094    8    0    1
 -2       952      1019      1080      3936      4142      4139
 -1      2095    8    0    1
 -2      1080      1019      1079      4142      4138      4143
 -1      2096    8    0    1
 -2       954      1006      1072      3890      4115      4144
 -1      2097    8    0    1
 -2       954      1072      1064      4144      4145      4080
 -1      2098    8    0    1
 -2      1072      1065      1079      4113      4146      4147
 -1      2099    8    0    1
 -2      1028      1026      1081      3967      4148      4149
 -1      2100    8    0    1
 -2      1070      1049      1082      4107      4150      4151
 -1      2101    8    0    1
 -2      1029      1028      1083      3970      4152      4153
 -1      2102    8    0    1
 -2      1028      1081      1083      4149      4154      4152
 -1      2103    8    0    1
 -2      1030      1029      1084      3973      4155      4156
 -1      2104    8    0    1
 -2      1029      1083      1084      4153      4157      4155
 -1      2105    8    0    1
 -2      1031      1030      1085      3976      4158      4159
 -1      2106    8    0    1
 -2      1030      1084      1085      4156      4160      4158
 -1      2107    8    0    1
 -2      1032      1031      1086      3979      4161      4162
 -1      2108    8    0    1
 -2      1031      1085      1086      4159      4163      4161
 -1      2109    8    0    1
 -2      1033      1032      1087      3982      4164      4165
 -1      2110    8    0    1
 -2      1032      1086      1087      4162      4166      4164
 -1      2111    8    0    1
 -2      1034      1033      1088      3985      4167      4168
 -1      2112    8    0    1
 -2      1033      1087      1088      4165      4169      4167
 -1      2113    8    0    1
 -2      1035      1034      1089      3988      4170      4171
 -1      2114    8    0    1
 -2      1034      1088      1089      4168      4172      4170
 -1      2115    8    0    1
 -2      1036      1035      1090      3991      4173      4174
 -1      2116    8    0    1
 -2      1035      1089      1090      4171      4175      4173
 -1      2117    8    0    1
 -2      1037      1036      1091      3994      4176      4177
 -1      2118    8    0    1
 -2      1036      1090      1091      4174      4178      4176
 -1      2119    8    0    1
 -2      1038      1037      1092      3997      4179      4180
 -1      2120    8    0    1
 -2      1037      1091      1092      4177      4181      4179
 -1      2121    8    0    1
 -2      1039      1038      1093      4000      4182      4183
 -1      2122    8    0    1
 -2      1038      1092      1093      4180      4184      4182
 -1      2123    8    0    1
 -2      1040      1039      1094      4003      4185      4186
 -1      2124    8    0    1
 -2      1039      1093      1094      4183      4187      4185
 -1      2125    8    0    1
 -2      1041      1040      1095      4006      4188      4189
 -1      2126    8    0    1
 -2      1040      1094      1095      4186      4190      4188
 -1      2127    8    0    1
 -2      1042      1041      1096      4009      4191      4192
 -1      2128    8    0    1
 -2      1041      1095      1096      4189      4193      4191
 -1      2129    8    0    1
 -2      1043      1042      1097      4012      4194      4195
 -1      2130    8    0    1
 -2      1042      1096      1097      4192      4196      4194
 -1      2131    8    0    1
 -2      1044      1043      1098      4015      4197      4198
 -1      2132    8    0    1
 -2      1043      1097      1098      4195      4199      4197
 -1      2133    8    0    1
 -2      1045      1044      1099      4018      4200      4201
 -1      2134    8    0    1
 -2      1044      1098      1099      4198      4202      4200
 -1      2135    8    0    1
 -2      1046      1045      1100      4022      4203      4204
 -1      2136    8    0    1
 -2      1075      1046      1100      4125      4204      4205
 -1      2137    8    0    1
 -2      1045      1099      1100      4201      4206      4203
 -1      2138    8    0    1
 -2      1048      1009      1101      4027      4207      4208
 -1      2139    8    0    1
 -2      1051      1052      1102      4039      4209      4210
 -1      2140    8    0    1
 -2      1047      1050      1103      4033      4211      4212
 -1      2141    8    0    1
 -2      1024      1064      1104      4082      4213      4214
 -1      2142    8    0    1
 -2      1052      1053      1105      4042      4215      4216
 -1      2143    8    0    1
 -2      1052      1105      1102      4216      4217      4209
 -1      2144    8    0    1
 -2      1053      1054      1106      4045      4218      4219
 -1      2145    8    0    1
 -2      1053      1106      1105      4219      4220      4215
 -1      2146    8    0    1
 -2      1054      1055      1107      4048      4221      4222
 -1      2147    8    0    1
 -2      1054      1107      1106      4222      4223      4218
 -1      2148    8    0    1
 -2      1055      1056      1108      4051      4224      4225
 -1      2149    8    0    1
 -2      1055      1108      1107      4225      4226      4221
 -1      2150    8    0    1
 -2      1056      1057      1109      4054      4227      4228
 -1      2151    8    0    1
 -2      1056      1109      1108      4228      4229      4224
 -1      2152    8    0    1
 -2      1057      1058      1110      4057      4230      4231
 -1      2153    8    0    1
 -2      1057      1110      1109      4231      4232      4227
 -1      2154    8    0    1
 -2      1058      1059      1111      4060      4233      4234
 -1      2155    8    0    1
 -2      1058      1111      1110      4234      4235      4230
 -1      2156    8    0    1
 -2      1059      1060      1112      4063      4236      4237
 -1      2157    8    0    1
 -2      1059      1112      1111      4237      4238      4233
 -1      2158    8    0    1
 -2      1009      1014      1101      4112      4239      4207
 -1      2159    8    0    1
 -2      1079      1078      1113      4137      4240      4241
 -1      2160    8    0    1
 -2      1063      1067      1114      4091      4242      4243
 -1      2161    8    0    1
 -2      1072      1079      1064      4147      4244      4145
 -1      2162    8    0    1
 -2      1050      1051      1115      4036      4245      4246
 -1      2163    8    0    1
 -2      1103      1050      1115      4211      4246      4247
 -1      2164    8    0    1
 -2      1051      1102      1115      4210      4248      4245
 -1      2165    8    0    1
 -2      1067      1025      1116      4119      4249      4250
 -1      2166    8    0    1
 -2      1114      1067      1116      4242      4250      4251
 -1      2167    8    0    1
 -2      1025      1024      1116      3958      4252      4249
 -1      2168    8    0    1
 -2      1012      1011      1117      4131      4253      4254
 -1      2169    8    0    1
 -2      1011      1076      1117      4129      4255      4253
 -1      2170    8    0    1
 -2      1014      1063      1101      4079      4256      4239
 -1      2171    8    0    1
 -2      1022      1069      1118      4103      4257      4258
 -1      2172    8    0    1
 -2      1078      1022      1118      4135      4258      4259
 -1      2173    8    0    1
 -2      1069      1077      1118      4133      4260      4257
 -1      2174    8    0    1
 -2      1015      1066      1119      4088      4261      4262
 -1      2175    8    0    1
 -2      1015      1119      1073      4262      4263      4118
 -1      2176    8    0    1
 -2      1066      1068      1120      4094      4264      4265
 -1      2177    8    0    1
 -2      1066      1120      1119      4265      4266      4261
 -1      2178    8    0    1
 -2      1070      1082      1121      4151      4267      4268
 -1      2179    8    0    1
 -2      1070      1121      1076      4268      4269      4130
 -1      2180    8    0    1
 -2      1017      1071      1077      4110      4270      4134
 -1      2181    8    0    1
 -2      1074      1007      1073      4124      4117      4271
 -1      2182    8    0    1
 -2      1048      1101      1122      4208      4272      4273
 -1      2183    8    0    1
 -2      1047      1103      1123      4212      4274      4275
 -1      2184    8    0    1
 -2      1047      1123      1062      4275      4276      4074
 -1      2185    8    0    1
 -2      1104      1064      1113      4213      4277      4278
 -1      2186    8    0    1
 -2      1101      1063      1114      4256      4243      4279
 -1      2187    8    0    1
 -2      1024      1104      1116      4214      4280      4252
 -1      2188    8    0    1
 -2      1078      1118      1124      4259      4281      4282
 -1      2189    8    0    1
 -2      1078      1124      1113      4282      4283      4240
 -1      2190    8    0    1
 -2      1112      1060      1125      4236      4284      4285
 -1      2191    8    0    1
 -2      1060      1061      1125      4066      4286      4284
 -1      2192    8    0    1
 -2      1061      1018      1126      4067      4287      4288
 -1      2193    8    0    1
 -2      1018      1023      1126      3950      4289      4287
 -1      2194    8    0    1
 -2      1064      1079      1113      4244      4241      4277
 -1      2195    8    0    1
 -2      1079      1065      1080      4146      4141      4143
 -1      2196    8    0    1
 -2      1023      1013      1075      3951      4127      4290
 -1      2197    8    0    1
 -2      1049      1062      1127      4073      4291      4292
 -1      2198    8    0    1
 -2      1082      1049      1127      4150      4292      4293
 -1      2199    8    0    1
 -2      1062      1123      1127      4276      4294      4291
 -1      2200    8    0    1
 -2      1026      1074      1081      4123      4295      4148
 -1      2201    8    0    1
 -2      1068      1012      1117      4095      4254      4296
 -1      2202    8    0    1
 -2      1071      1048      1122      4111      4273      4297
 -1      2203    8    0    1
 -2      1122      1101      1114      4272      4279      4298
 -1      2204    8    0    1
 -2      1081      1074      1073      4295      4271      4299
 -1      2205    8    0    1
 -2      1077      1071      1122      4270      4297      4300
 -1      2206    8    0    1
 -2      1084      1083      1128      4157      4301      4302
 -1      2207    8    0    1
 -2      1085      1084      1121      4160      4303      4304
 -1      2208    8    0    1
 -2      1086      1085      1082      4163      4305      4306
 -1      2209    8    0    1
 -2      1087      1086      1127      4166      4307      4308
 -1      2210    8    0    1
 -2      1088      1087      1123      4169      4309      4310
 -1      2211    8    0    1
 -2      1089      1088      1103      4172      4311      4312
 -1      2212    8    0    1
 -2      1090      1089      1115      4175      4313      4314
 -1      2213    8    0    1
 -2      1091      1090      1102      4178      4315      4316
 -1      2214    8    0    1
 -2      1092      1091      1105      4181      4317      4318
 -1      2215    8    0    1
 -2      1093      1092      1106      4184      4319      4320
 -1      2216    8    0    1
 -2      1094      1093      1107      4187      4321      4322
 -1      2217    8    0    1
 -2      1095      1094      1108      4190      4323      4324
 -1      2218    8    0    1
 -2      1096      1095      1109      4193      4325      4326
 -1      2219    8    0    1
 -2      1097      1096      1110      4196      4327      4328
 -1      2220    8    0    1
 -2      1098      1097      1111      4199      4329      4330
 -1      2221    8    0    1
 -2      1099      1098      1112      4202      4331      4332
 -1      2222    8    0    1
 -2      1105      1106      1092      4220      4319      4318
 -1      2223    8    0    1
 -2      1114      1116      1104      4251      4280      4333
 -1      2224    8    0    1
 -2      1106      1107      1093      4223      4321      4320
 -1      2225    8    0    1
 -2      1081      1073      1119      4299      4263      4334
 -1      2226    8    0    1
 -2      1112      1098      1111      4331      4330      4238
 -1      2227    8    0    1
 -2      1102      1105      1091      4217      4317      4316
 -1      2228    8    0    1
 -2      1107      1108      1094      4226      4323      4322
 -1      2229    8    0    1
 -2      1108      1109      1095      4229      4325      4324
 -1      2230    8    0    1
 -2      1109      1110      1096      4232      4327      4326
 -1      2231    8    0    1
 -2      1110      1111      1097      4235      4329      4328
 -1      2232    8    0    1
 -2      1117      1076      1128      4255      4335      4336
 -1      2233    8    0    1
 -2      1083      1081      1129      4154      4337      4338
 -1      2234    8    0    1
 -2      1128      1083      1129      4301      4338      4339
 -1      2235    8    0    1
 -2      1081      1119      1129      4334      4340      4337
 -1      2236    8    0    1
 -2      1102      1090      1115      4315      4314      4248
 -1      2237    8    0    1
 -2      1103      1088      1123      4311      4310      4274
 -1      2238    8    0    1
 -2      1068      1117      1120      4296      4341      4264
 -1      2239    8    0    1
 -2      1023      1075      1126      4290      4342      4289
 -1      2240    8    0    1
 -2      1122      1114      1104      4298      4333      4343
 -1      2241    8    0    1
 -2      1082      1085      1121      4305      4304      4267
 -1      2242    8    0    1
 -2      1086      1082      1127      4306      4293      4307
 -1      2243    8    0    1
 -2      1089      1103      1115      4312      4247      4313
 -1      2244    8    0    1
 -2      1122      1104      1113      4343      4278      4344
 -1      2245    8    0    1
 -2      1075      1100      1125      4205      4345      4346
 -1      2246    8    0    1
 -2      1119      1120      1129      4266      4347      4340
 -1      2247    8    0    1
 -2      1121      1084      1128      4303      4302      4348
 -1      2248    8    0    1
 -2      1087      1127      1123      4308      4294      4309
 -1      2249    8    0    1
 -2      1099      1112      1125      4332      4285      4349
 -1      2250    8    0    1
 -2      1125      1061      1126      4286      4288      4350
 -1      2251    8    0    1
 -2      1128      1076      1121      4335      4269      4348
 -1      2252    8    0    1
 -2      1075      1125      1126      4346      4350      4342
 -1      2253    8    0    1
 -2      1120      1117      1128      4341      4336      4351
 -1      2254    8    0    1
 -2      1100      1099      1125      4206      4349      4345
 -1      2255    8    0    1
 -2      1077      1122      1118      4300      4352      4260
 -1      2256    8    0    1
 -2      1118      1122      1124      4352      4353      4281
 -1      2257    8    0    1
 -2      1129      1120      1128      4347      4351      4339
 -1      2258    8    0    1
 -2      1122      1113      1124      4344      4283      4353
 -3
    1PSTEP                         1           1           1          
  100CL  101 1.000000000        4353                     0    1           1
 -4  DISP        4    1
 -5  D1          1    2    1    0
 -5  D2          1    2    2    0
 -5  D3          1    2    3    0
 -5  ALL         1    2    0    0    1ALL
 -1         1 6.87687E-03-3.96638E-04-2.89274E-14
 -1         2 7.65447E-03 2.34043E-04-3.12190E-14
 -1         3 1.54969E-02 1.85455E-03-1.81314E-13
 -1         4 1.49114E-02 4.23466E-04-1.82227E-13
 -1         5 0.00000E+00 0.00000E+00 0.00000E+00
 -1         6 0.00000E+00 0.00000E+00 0.00000E+00
 -1         7 0.00000E+00 0.00000E+00 0.00000E+00
 -1         8 0.00000E+00 0.00000E+00 0.00000E+00
 -1         9 0.00000E+00 0.00000E+00 0.00000E+00
 -1        10 0.00000E+00 0.00000E+00 0.00000E+00
 -1        11 0.00000E+00 0.00000E+00 0.00000E+00
 -1        12 0.00000E+00 0.00000E+00 0.00000E+00
 -1        13 0.00000E+00 0.00000E+00 0.00000E+00
 -1        14 0.00000E+00 0.00000E+00 0.00000E+00
 -1        15 0.00000E+00 0.00000E+00 0.00000E+00
 -1        16 0.00000E+00 0.00000E+00 0.00000E+00
 -1        17 0.00000E+00 0.00000E+00 0.00000E+00
 -1        18 0.00000E+00 0.00000E+00 0.00000E+00
 -1        19 0.00000E+00 0.00000E+00 0.00000E+00
 -1        20 0.00000E+00 0.00000E+00 0.00000E+00
 -1        21 0.00000E+00 0.00000E+00 0.00000E+00
 -1        22 0.00000E+00 0.00000E+00 0.00000E+00
 -1        23 4.09590E-04-2.51627E-04 5.86316E-17
 -1        24 7.05693E-04-3.80968E-04-6.40730E-17
 -1        25 9.84402E-04-4.67655E-04-3.65081E-16
 -1        26 1.26160E-03-5.26877E-04-8.42489E-16
 -1        27 1.54229E-03-5.68494E-04-1.49427E-15
 -1        28 1.82928E-03-5.98903E-04-2.31830E-15
 -1        29 2.12429E-03-6.23279E-04-3.31503E-15
 -1        30 2.42828E-03-6.46316E-04-4.48269E-15
 -1        31 2.74138E-03-6.72527E-04-5.81792E-15
 -1        32 3.06258E-03-7.06185E-04-7.31988E-15
 -1        33 3.38935E-03-7.50886E-04-8.98505E-15
 -1        34 3.71729E-03-8.08633E-04-1.08106E-14
 -1        35 4.04023E-03-8.78466E-04-1.28009E-14
 -1        36 4.35113E-03-9.55018E-04-1.49573E-14
 -1        37 4.64417E-03-1.02783E-03-1.72838E-14
 -1        38 4.91753E-03-1.08263E-03-1.97829E-14
 -1        39 5.17541E-03-1.10518E-03-2.24534E-14
 -1        40 5.42774E-03-1.08651E-03-2.53011E-14
 -1        41 5.68676E-03-1.02681E-03-2.83306E-14
 -1        42 5.96231E-03-9.35396E-04-3.15392E-14
 -1        43 6.25855E-03-8.26725E-04-3.49215E-14
 -1        44 6.57366E-03-7.15222E-04-3.84655E-14
 -1        45 6.90196E-03-6.11535E-04-4.21619E-14
 -1        46 7.23665E-03-5.21357E-04-4.60076E-14
 -1        47 7.57186E-03-4.46172E-04-4.99902E-14
 -1        48 7.90347E-03-3.84759E-04-5.41058E-14
 -1        49 8.22918E-03-3.34606E-04-5.83472E-14
 -1        50 8.54816E-03-2.92889E-04-6.27210E-14
 -1        51 8.86047E-03-2.57023E-04-6.72225E-14
 -1        52 9.16676E-03-2.24885E-04-7.18437E-14
 -1        53 9.46791E-03-1.94865E-04-7.65747E-14
 -1        54 9.76486E-03-1.65810E-04-8.14090E-14
 -1        55 1.00585E-02-1.36948E-04-8.63489E-14
 -1        56 1.03496E-02-1.07791E-04-9.13898E-14
 -1        57 1.06387E-02-7.80659E-05-9.65227E-14
 -1        58 1.09265E-02-4.76431E-05-1.01736E-13
 -1        59 1.12133E-02-1.64916E-05-1.07031E-13
 -1        60 1.14995E-02 1.53588E-05-1.12407E-13
 -1        61 1.17852E-02 4.78437E-05-1.17863E-13
 -1        62 1.20707E-02 8.08820E-05-1.23413E-13
 -1        63 1.23561E-02 1.14387E-04-1.29046E-13
 -1        64 1.26414E-02 1.48274E-04-1.34749E-13
 -1        65 1.29267E-02 1.82464E-04-1.40527E-13
 -1        66 1.32121E-02 2.16886E-04-1.46382E-13
 -1        67 1.34975E-02 2.51475E-04-1.52309E-13
 -1        68 1.37830E-02 2.86176E-04-1.58279E-13
 -1        69 1.40686E-02 3.20937E-04-1.64296E-13
 -1        70 1.43542E-02 3.55715E-04-1.70346E-13
 -1        71 1.46399E-02 3.90474E-04-1.76426E-13
 -1        72 4.11509E-04 2.51672E-04 8.08002E-17
 -1        73 7.05352E-04 3.82101E-04-4.18095E-18
 -1        74 9.85197E-04 4.66783E-04-2.52236E-16
 -1        75 1.26360E-03 5.24508E-04-6.66944E-16
 -1        76 1.54617E-03 5.64326E-04-1.24914E-15
 -1        77 1.83637E-03 5.92573E-04-1.99748E-15
 -1        78 2.13684E-03 6.14599E-04-2.91087E-15
 -1        79 2.44978E-03 6.35655E-04-3.98636E-15
 -1        80 2.77695E-03 6.61459E-04-5.22391E-15
 -1        81 3.11921E-03 6.98490E-04-6.62644E-15
 -1        82 3.47564E-03 7.53838E-04-8.19570E-15
 -1        83 3.84227E-03 8.34209E-04-9.93204E-15
 -1        84 4.21083E-03 9.43500E-04-1.18335E-14
 -1        85 4.56854E-03 1.07872E-03-1.39102E-14
 -1        86 4.90100E-03 1.22550E-03-1.61676E-14
 -1        87 5.19886E-03 1.35709E-03-1.86089E-14
 -1        88 5.46580E-03 1.44160E-03-2.12371E-14
 -1        89 5.72068E-03 1.45676E-03-2.40662E-14
 -1        90 5.98930E-03 1.40310E-03-2.70988E-14
 -1        91 6.29030E-03 1.30368E-03-3.03122E-14
 -1        92 6.62692E-03 1.19070E-03-3.36935E-14
 -1        93 6.98958E-03 1.09074E-03-3.72283E-14
 -1        94 7.36391E-03 1.01807E-03-4.09170E-14
 -1        95 7.73747E-03 9.75835E-04-4.47549E-14
 -1        96 8.10235E-03 9.60570E-04-4.87281E-14
 -1        97 8.45496E-03 9.66319E-04-5.28482E-14
 -1        98 8.79467E-03 9.87067E-04-5.71127E-14
 -1        99 9.12249E-03 1.01779E-03-6.15081E-14
 -1       100 9.44015E-03 1.05469E-03-6.60222E-14
 -1       101 9.74952E-03 1.09508E-03-7.06514E-14
 -1       102 1.00523E-02 1.13716E-03-7.53911E-14
 -1       103 1.03501E-02 1.17974E-03-8.02466E-14
 -1       104 1.06441E-02 1.22213E-03-8.51980E-14
 -1       105 1.09354E-02 1.26392E-03-9.02387E-14
 -1       106 1.12245E-02 1.30491E-03-9.53894E-14
 -1       107 1.15123E-02 1.34504E-03-1.00639E-13
 -1       108 1.17990E-02 1.38434E-03-1.05984E-13
 -1       109 1.20851E-02 1.42286E-03-1.11414E-13
 -1       110 1.23708E-02 1.46071E-03-1.16932E-13
 -1       111 1.26563E-02 1.49797E-03-1.22524E-13
 -1       112 1.29416E-02 1.53475E-03-1.28197E-13
 -1       113 1.32269E-02 1.57114E-03-1.33935E-13
 -1       114 1.35122E-02 1.60722E-03-1.39753E-13
 -1       115 1.37976E-02 1.64306E-03-1.45645E-13
 -1       116 1.40830E-02 1.67874E-03-1.51580E-13
 -1       117 1.43685E-02 1.71430E-03-1.57543E-13
 -1       118 1.46541E-02 1.74980E-03-1.63532E-13
 -1       119 1.49398E-02 1.78529E-03-1.69551E-13
 -1       120 1.52255E-02 1.82079E-03-1.75592E-13
 -1       121 1.54619E-02 1.77027E-03-1.81427E-13
 -1       122 1.54270E-02 1.68596E-03-1.81545E-13
 -1       123 1.53920E-02 1.60162E-03-1.81637E-13
 -1       124 1.53570E-02 1.51721E-03-1.81712E-13
 -1       125 1.53220E-02 1.43276E-03-1.81781E-13
 -1       126 1.52878E-02 1.34968E-03-1.81845E-13
 -1       127 1.52530E-02 1.26514E-03-1.81911E-13
 -1       128 1.52183E-02 1.18057E-03-1.81979E-13
 -1       129 1.51838E-02 1.09600E-03-1.82055E-13
 -1       130 1.51494E-02 1.01144E-03-1.82119E-13
 -1       131 1.51150E-02 9.26898E-04-1.82168E-13
 -1       132 1.50814E-02 8.43826E-04-1.82220E-13
 -1       133 1.50472E-02 7.59369E-04-1.82251E-13
 -1       134 1.50131E-02 6.74967E-04-1.82267E-13
 -1       135 1.49790E-02 5.90623E-04-1.82273E-13
 -1       136 1.49449E-02 5.06321E-04-1.82254E-13
 -1       137 7.61379E-03 4.16976E-04-3.09568E-14
 -1       138 7.48784E-03 5.73583E-04-3.04244E-14
 -1       139 7.24505E-03 7.37504E-04-2.95088E-14
 -1       140 6.94433E-03 8.67209E-04-2.84471E-14
 -1       141 6.51488E-03 9.85363E-04-2.70074E-14
 -1       142 6.07276E-03 1.05301E-03-2.56090E-14
 -1       143 5.59192E-03 1.07834E-03-2.41543E-14
 -1       144 5.12553E-03 1.05870E-03-2.28136E-14
 -1       145 4.62779E-03 9.87441E-04-2.14328E-14
 -1       146 4.19262E-03 8.77354E-04-2.02784E-14
 -1       147 3.83636E-03 7.42825E-04-1.93752E-14
 -1       148 3.52688E-03 5.67726E-04-1.86233E-14
 -1       149 3.34666E-03 4.01655E-04-1.82143E-14
 -1       150 3.25322E-03 2.20867E-04-1.80342E-14
 -1       151 3.26212E-03 4.52787E-05-1.81177E-14
 -1       152 3.36376E-03-1.17515E-04-1.84388E-14
 -1       153 3.56082E-03-2.73528E-04-1.90146E-14
 -1       154 3.88522E-03-4.25245E-04-1.99405E-14
 -1       155 4.24359E-03-5.29689E-04-2.09573E-14
 -1       156 4.69609E-03-6.09167E-04-2.22745E-14
 -1       157 5.12878E-03-6.41101E-04-2.35438E-14
 -1       158 5.61003E-03-6.35446E-04-2.49950E-14
 -1       159 6.05084E-03-5.92619E-04-2.63415E-14
 -1       160 6.47010E-03-5.15462E-04-2.76441E-14
 -1       161 7.19285E-03-2.61746E-04-2.99128E-14
 -1       162 7.43864E-03-1.03769E-04-3.06662E-14
 -1       163 7.59671E-03 6.73501E-05-3.11188E-14
 -1       164 2.43808E-04-1.16480E-04-2.79013E-17
 -1       165 2.28470E-04-8.41696E-05-5.46099E-17
 -1       166 2.21489E-04-6.17442E-05-6.95279E-17
 -1       167 2.17010E-04-4.44767E-05-7.81574E-17
 -1       168 2.13826E-04-3.07260E-05-8.26806E-17
 -1       169 2.11503E-04-1.89887E-05-8.49676E-17
 -1       170 2.10055E-04-8.74601E-06-8.56384E-17
 -1       171 2.09519E-04 7.07388E-07-8.54216E-17
 -1       172 2.09935E-04 1.00771E-05-8.42832E-17
 -1       173 2.11320E-04 2.00980E-05-8.18539E-17
 -1       174 2.13626E-04 3.13477E-05-7.78322E-17
 -1       175 2.16985E-04 4.50950E-05-7.12151E-17
 -1       176 2.21652E-04 6.23252E-05-6.07153E-17
 -1       177 2.28789E-04 8.49965E-05-4.29886E-17
 -1       178 2.42946E-04 1.17980E-04-1.32171E-17
 -1       179 3.00304E-04 1.75977E-04 1.90210E-17
 -1       180 4.74306E-04-2.47637E-04-7.81879E-17
 -1       181 7.79000E-04-3.54508E-04-3.27951E-16
 -1       182 1.07230E-03-4.26308E-04-7.44921E-16
 -1       183 1.36246E-03-4.75373E-04-1.33122E-15
 -1       184 1.65364E-03-5.09523E-04-2.08633E-15
 -1       185 1.94843E-03-5.34658E-04-3.01067E-15
 -1       186 2.24845E-03-5.55847E-04-4.10274E-15
 -1       187 2.55450E-03-5.77876E-04-5.36053E-15
 -1       188 2.86664E-03-6.05417E-04-6.78324E-15
 -1       189 3.18396E-03-6.42821E-04-8.36882E-15
 -1       190 3.50450E-03-6.93442E-04-1.01145E-14
 -1       191 3.82511E-03-7.58412E-04-1.20200E-14
 -1       192 4.14179E-03-8.34988E-04-1.40901E-14
 -1       193 4.45044E-03-9.15078E-04-1.63251E-14
 -1       194 4.74839E-03-9.85166E-04-1.87334E-14
 -1       195 5.03596E-03-1.02896E-03-2.13146E-14
 -1       196 5.31722E-03-1.03279E-03-2.40709E-14
 -1       197 5.59892E-03-9.91396E-04-2.70052E-14
 -1       198 5.88777E-03-9.10445E-04-3.01214E-14
 -1       199 6.18778E-03-8.03877E-04-3.34124E-14
 -1       200 6.49929E-03-6.88135E-04-3.68738E-14
 -1       201 6.81964E-03-5.76869E-04-4.04921E-14
 -1       202 7.14486E-03-4.78397E-04-4.42611E-14
 -1       203 7.47108E-03-3.95873E-04-4.81719E-14
 -1       204 7.79527E-03-3.28817E-04-5.22184E-14
 -1       205 8.11551E-03-2.74818E-04-5.63947E-14
 -1       206 8.43087E-03-2.30814E-04-6.06960E-14
 -1       207 8.74112E-03-1.93863E-04-6.51270E-14
 -1       208 9.04652E-03-1.61484E-04-6.96799E-14
 -1       209 9.34761E-03-1.31765E-04-7.43484E-14
 -1       210 9.64501E-03-1.03323E-04-7.91256E-14
 -1       211 9.93939E-03-7.52191E-05-8.40060E-14
 -1       212 1.02313E-02-4.68574E-05-8.89904E-14
 -1       213 1.05214E-02-1.78941E-05-9.40705E-14
 -1       214 1.08101E-02 1.18380E-05-9.92405E-14
 -1       215 1.10977E-02 4.23883E-05-1.04496E-13
 -1       216 1.13845E-02 7.37319E-05-1.09832E-13
 -1       217 1.16708E-02 1.05801E-04-1.15247E-13
 -1       218 1.19568E-02 1.38506E-04-1.20748E-13
 -1       219 1.22425E-02 1.71752E-04-1.26334E-13
 -1       220 1.25281E-02 2.05441E-04-1.31995E-13
 -1       221 1.28136E-02 2.39486E-04-1.37731E-13
 -1       222 1.30991E-02 2.73807E-04-1.43534E-13
 -1       223 1.33847E-02 3.08332E-04-1.49412E-13
 -1       224 1.36702E-02 3.42999E-04-1.55346E-13
 -1       225 1.39558E-02 3.77752E-04-1.61331E-13
 -1       226 1.42415E-02 4.12541E-04-1.67353E-13
 -1       227 1.45271E-02 4.47323E-04-1.73412E-13
 -1       228 6.12283E-04 3.09065E-04-9.34718E-17
 -1       229 9.09674E-04 3.98070E-04-3.59261E-16
 -1       230 1.20055E-03 4.57826E-04-7.85471E-16
 -1       231 1.49127E-03 4.98114E-04-1.37470E-15
 -1       232 1.78577E-03 5.25652E-04-2.12727E-15
 -1       233 2.08685E-03 5.45959E-04-3.04316E-15
 -1       234 2.39660E-03 5.64360E-04-4.11988E-15
 -1       235 2.71658E-03 5.86631E-04-5.35658E-15
 -1       236 3.04757E-03 6.19392E-04-6.75510E-15
 -1       237 3.38924E-03 6.70100E-04-8.31767E-15
 -1       238 3.73939E-03 7.46218E-04-1.00443E-14
 -1       239 4.09341E-03 8.52933E-04-1.19355E-14
 -1       240 4.44407E-03 9.88934E-04-1.39975E-14
 -1       241 4.78285E-03 1.14112E-03-1.62371E-14
 -1       242 5.10346E-03 1.28218E-03-1.86588E-14
 -1       243 5.40660E-03 1.37706E-03-2.12706E-14
 -1       244 5.70191E-03 1.39907E-03-2.40815E-14
 -1       245 6.00385E-03 1.34626E-03-2.70890E-14
 -1       246 6.32326E-03 1.24278E-03-3.02835E-14
 -1       247 6.66213E-03 1.12386E-03-3.36500E-14
 -1       248 7.01499E-03 1.01869E-03-3.71733E-14
 -1       249 7.37348E-03 9.42690E-04-4.08497E-14
 -1       250 7.73015E-03 8.99037E-04-4.46713E-14
 -1       251 8.08009E-03 8.83790E-04-4.86326E-14
 -1       252 8.42090E-03 8.90429E-04-5.27386E-14
 -1       253 8.75200E-03 9.12490E-04-5.69850E-14
 -1       254 9.07396E-03 9.44648E-04-6.13618E-14
 -1       255 9.38787E-03 9.82932E-04-6.58577E-14
 -1       256 9.69505E-03 1.02457E-03-7.04667E-14
 -1       257 9.99675E-03 1.06770E-03-7.51922E-14
 -1       258 1.02941E-02 1.11117E-03-8.00278E-14
 -1       259 1.05882E-02 1.15427E-03-8.49657E-14
 -1       260 1.08796E-02 1.19661E-03-8.99964E-14
 -1       261 1.11692E-02 1.23804E-03-9.51327E-14
 -1       262 1.14575E-02 1.27851E-03-1.00366E-13
 -1       263 1.17447E-02 1.31806E-03-1.05692E-13
 -1       264 1.20312E-02 1.35677E-03-1.11105E-13
 -1       265 1.23173E-02 1.39475E-03-1.16602E-13
 -1       266 1.26031E-02 1.43211E-03-1.22177E-13
 -1       267 1.28887E-02 1.46895E-03-1.27835E-13
 -1       268 1.31743E-02 1.50538E-03-1.33563E-13
 -1       269 1.34597E-02 1.54148E-03-1.39367E-13
 -1       270 1.37452E-02 1.57733E-03-1.45234E-13
 -1       271 1.40307E-02 1.61301E-03-1.51150E-13
 -1       272 1.43163E-02 1.64856E-03-1.57098E-13
 -1       273 1.46019E-02 1.68406E-03-1.63077E-13
 -1       274 1.48876E-02 1.71953E-03-1.69087E-13
 -1       275 1.51733E-02 1.75502E-03-1.75115E-13
 -1       276 1.51970E-02 1.69734E-03-1.76262E-13
 -1       277 1.51620E-02 1.61301E-03-1.76368E-13
 -1       278 1.51270E-02 1.52866E-03-1.76459E-13
 -1       279 1.50920E-02 1.44426E-03-1.76541E-13
 -1       280 1.50577E-02 1.36127E-03-1.76610E-13
 -1       281 1.50229E-02 1.27682E-03-1.76677E-13
 -1       282 1.49882E-02 1.19234E-03-1.76747E-13
 -1       283 1.49536E-02 1.10786E-03-1.76814E-13
 -1       284 1.49191E-02 1.02339E-03-1.76873E-13
 -1       285 1.48847E-02 9.38916E-04-1.76922E-13
 -1       286 1.48510E-02 8.55896E-04-1.76961E-13
 -1       287 1.48168E-02 7.71471E-04-1.76985E-13
 -1       288 1.47827E-02 6.87079E-04-1.76993E-13
 -1       289 1.47486E-02 6.02723E-04-1.76992E-13
 -1       290 1.46379E-02 5.25014E-04-1.75206E-13
 -1       291 7.67288E-03 2.89244E-04-3.28087E-14
 -1       292 7.54520E-03 3.92460E-04-3.21254E-14
 -1       293 7.29457E-03 5.12686E-04-3.13927E-14
 -1       294 6.97073E-03 6.91381E-04-2.99360E-14
 -1       295 6.56798E-03 8.69812E-04-2.85084E-14
 -1       296 6.16702E-03 1.03914E-03-2.67007E-14
 -1       297 5.77245E-03 1.13986E-03-2.50080E-14
 -1       298 5.39321E-03 1.14728E-03-2.33548E-14
 -1       299 5.01355E-03 1.06932E-03-2.16783E-14
 -1       300 4.59813E-03 8.93887E-04-2.01773E-14
 -1       301 4.16559E-03 7.09307E-04-1.91635E-14
 -1       302 3.79025E-03 4.98783E-04-1.80816E-14
 -1       303 3.46630E-03 3.56941E-04-1.76008E-14
 -1       304 3.27574E-03 2.34665E-04-1.72203E-14
 -1       305 3.21837E-03 1.38997E-04-1.72301E-14
 -1       306 3.29872E-03 4.58121E-05-1.73987E-14
 -1       307 3.50392E-03-6.78716E-05-1.78961E-14
 -1       308 3.84693E-03-2.05531E-04-1.85420E-14
 -1       309 4.20973E-03-4.03887E-04-1.98734E-14
 -1       310 4.63455E-03-5.64391E-04-2.10523E-14
 -1       311 4.99766E-03-6.79236E-04-2.26832E-14
 -1       312 5.37036E-03-7.24244E-04-2.42659E-14
 -1       313 5.74617E-03-6.73490E-04-2.59157E-14
 -1       314 6.11711E-03-5.59655E-04-2.74963E-14
 -1       315 6.48752E-03-3.80046E-04-2.92697E-14
 -1       316 6.90546E-03-2.08000E-04-3.04394E-14
 -1       317 7.24578E-03-4.40573E-05-3.15110E-14
 -1       318 7.50980E-03 1.03005E-04-3.24473E-14
 -1       319 7.65726E-03 1.97729E-04-3.26023E-14
 -1       320 4.60915E-04-1.43545E-04-2.39029E-16
 -1       321 4.82061E-04-1.92884E-04-1.94479E-16
 -1       322 4.38477E-04-7.51058E-05-2.83133E-16
 -1       323 4.31717E-04-4.96322E-05-2.92633E-16
 -1       324 4.27120E-04-2.76882E-05-2.97170E-16
 -1       325 4.24689E-04-7.89253E-06-2.98054E-16
 -1       326 4.24523E-04 1.10773E-05-2.95923E-16
 -1       327 4.26702E-04 3.05727E-05-2.90458E-16
 -1       328 4.31157E-04 5.16355E-05-2.80964E-16
 -1       329 4.38110E-04 7.65353E-05-2.66256E-16
 -1       330 4.47852E-04 1.06800E-04-2.43885E-16
 -1       331 4.61666E-04 1.45012E-04-2.09905E-16
 -1       332 4.84059E-04 1.95634E-04-1.58158E-16
 -1       333 5.40891E-04 2.48201E-04-1.35098E-16
 -1       334 8.40787E-04 3.38755E-04-4.10360E-16
 -1       335 8.79934E-04-3.22033E-04-6.25696E-16
 -1       336 1.17502E-03-3.79773E-04-1.15202E-15
 -1       337 1.46900E-03-4.19430E-04-1.84262E-15
 -1       338 1.76390E-03-4.47110E-04-2.69815E-15
 -1       339 2.06137E-03-4.68062E-04-3.71846E-15
 -1       340 2.36266E-03-4.87160E-04-4.90192E-15
 -1       341 2.66865E-03-5.09194E-04-6.24722E-15
 -1       342 2.97980E-03-5.38883E-04-7.75442E-15
 -1       343 3.29597E-03-5.80533E-04-9.42182E-15
 -1       344 3.61621E-03-6.37162E-04-1.12460E-14
 -1       345 3.93845E-03-7.08989E-04-1.32303E-14
 -1       346 4.25940E-03-7.91446E-04-1.53776E-14
 -1       347 4.57517E-03-8.73539E-04-1.76928E-14
 -1       348 4.88302E-03-9.38348E-04-2.01819E-14
 -1       349 5.18346E-03-9.67432E-04-2.28453E-14
 -1       350 5.48105E-03-9.48487E-04-2.56865E-14
 -1       351 5.78213E-03-8.81804E-04-2.87096E-14
 -1       352 6.09116E-03-7.80012E-04-3.19119E-14
 -1       353 6.40861E-03-6.61732E-04-3.52896E-14
 -1       354 6.73172E-03-5.43969E-04-3.88295E-14
 -1       355 7.05665E-03-4.37849E-04-4.25213E-14
 -1       356 7.38017E-03-3.48237E-04-4.63614E-14
 -1       357 7.70027E-03-2.75445E-04-5.03385E-14
 -1       358 8.01598E-03-2.17263E-04-5.44467E-14
 -1       359 8.32704E-03-1.70514E-04-5.86823E-14
 -1       360 8.63366E-03-1.31994E-04-6.30425E-14
 -1       361 8.93624E-03-9.89353E-05-6.75288E-14
 -1       362 9.23529E-03-6.91561E-05-7.21345E-14
 -1       363 9.53135E-03-4.10519E-05-7.68489E-14
 -1       364 9.82493E-03-1.35126E-05-8.16719E-14
 -1       365 1.01165E-02 1.41809E-05-8.66013E-14
 -1       366 1.04065E-02 4.24557E-05-9.16284E-14
 -1       367 1.06952E-02 7.15321E-05-9.67509E-14
 -1       368 1.09830E-02 1.01489E-04-1.01961E-13
 -1       369 1.12701E-02 1.32317E-04-1.07256E-13
 -1       370 1.15567E-02 1.63950E-04-1.12635E-13
 -1       371 1.18429E-02 1.96297E-04-1.18093E-13
 -1       372 1.21289E-02 2.29255E-04-1.23633E-13
 -1       373 1.24147E-02 2.62720E-04-1.29252E-13
 -1       374 1.27004E-02 2.96595E-04-1.34946E-13
 -1       375 1.29861E-02 3.30792E-04-1.40709E-13
 -1       376 1.32717E-02 3.65231E-04-1.46537E-13
 -1       377 1.35573E-02 3.99845E-04-1.52430E-13
 -1       378 1.38430E-02 4.34574E-04-1.58378E-13
 -1       379 1.41286E-02 4.69364E-04-1.64369E-13
 -1       380 1.43833E-02 4.97199E-04-1.69771E-13
 -1       381 1.13633E-03 4.00507E-04-8.41277E-16
 -1       382 1.43046E-03 4.41945E-04-1.43141E-15
 -1       383 1.72627E-03 4.69688E-04-2.18266E-15
 -1       384 2.02616E-03 4.89266E-04-3.09522E-15
 -1       385 2.33208E-03 5.05976E-04-4.16631E-15
 -1       386 2.64556E-03 5.25508E-04-5.39744E-15
 -1       387 2.96776E-03 5.54390E-04-6.78734E-15
 -1       388 3.29931E-03 6.00108E-04-8.33893E-15
 -1       389 3.63994E-03 6.70528E-04-1.00522E-14
 -1       390 3.98788E-03 7.71999E-04-1.19270E-14
 -1       391 4.33912E-03 9.05445E-04-1.39703E-14
 -1       392 4.68702E-03 1.06057E-03-1.61878E-14
 -1       393 5.02433E-03 1.21112E-03-1.85870E-14
 -1       394 5.34820E-03 1.31906E-03-2.11752E-14
 -1       395 5.66440E-03 1.35123E-03-2.39623E-14
 -1       396 5.98482E-03 1.30135E-03-2.69457E-14
 -1       397 6.31831E-03 1.19470E-03-3.01212E-14
 -1       398 6.66493E-03 1.07062E-03-3.34705E-14
 -1       399 7.01840E-03 9.61059E-04-3.69796E-14
 -1       400 7.37159E-03 8.82305E-04-4.06404E-14
 -1       401 7.71949E-03 8.37281E-04-4.44465E-14
 -1       402 8.05962E-03 8.21597E-04-4.83929E-14
 -1       403 8.39126E-03 8.28377E-04-5.24810E-14
 -1       404 8.71469E-03 8.50913E-04-5.67077E-14
 -1       405 9.03067E-03 8.83717E-04-6.10664E-14
 -1       406 9.34020E-03 9.22711E-04-6.55425E-14
 -1       407 9.64432E-03 9.65047E-04-7.01320E-14
 -1       408 9.94399E-03 1.00883E-03-7.48396E-14
 -1       409 1.02401E-02 1.05288E-03-7.96579E-14
 -1       410 1.05334E-02 1.09648E-03-8.45787E-14
 -1       411 1.08245E-02 1.13925E-03-8.95958E-14
 -1       412 1.11140E-02 1.18102E-03-9.47156E-14
 -1       413 1.14023E-02 1.22177E-03-9.99346E-14
 -1       414 1.16896E-02 1.26153E-03-1.05243E-13
 -1       415 1.19764E-02 1.30041E-03-1.10640E-13
 -1       416 1.22626E-02 1.33852E-03-1.16117E-13
 -1       417 1.25486E-02 1.37597E-03-1.21678E-13
 -1       418 1.28344E-02 1.41288E-03-1.27320E-13
 -1       419 1.31200E-02 1.44935E-03-1.33036E-13
 -1       420 1.34056E-02 1.48549E-03-1.38824E-13
 -1       421 1.36912E-02 1.52136E-03-1.44673E-13
 -1       422 1.39768E-02 1.55705E-03-1.50572E-13
 -1       423 1.42624E-02 1.59261E-03-1.56509E-13
 -1       424 1.45481E-02 1.62809E-03-1.62478E-13
 -1       425 1.48337E-02 1.66356E-03-1.68479E-13
 -1       426 1.50154E-02 1.68044E-03-1.72368E-13
 -1       427 1.48620E-02 1.45577E-03-1.71291E-13
 -1       428 1.48971E-02 1.54012E-03-1.71199E-13
 -1       429 1.49562E-02 1.61029E-03-1.71785E-13
 -1       430 1.48277E-02 1.37284E-03-1.71371E-13
 -1       431 1.47928E-02 1.28845E-03-1.71443E-13
 -1       432 1.47580E-02 1.20405E-03-1.71511E-13
 -1       433 1.47234E-02 1.11965E-03-1.71578E-13
 -1       434 1.46888E-02 1.03524E-03-1.71642E-13
 -1       435 1.46544E-02 9.50833E-04-1.71691E-13
 -1       436 1.46207E-02 8.67866E-04-1.71725E-13
 -1       437 1.45864E-02 7.83480E-04-1.71739E-13
 -1       438 1.45523E-02 6.99112E-04-1.71742E-13
 -1       439 1.45182E-02 6.14766E-04-1.71737E-13
 -1       440 7.43803E-03 3.93420E-04-3.32572E-14
 -1       441 7.69750E-03 2.48977E-04-3.42339E-14
 -1       442 7.62750E-03 3.13708E-04-3.41007E-14
 -1       443 7.06127E-03 5.55452E-04-3.20020E-14
 -1       444 6.73180E-03 7.23430E-04-3.05003E-14
 -1       445 4.47738E-04-1.05607E-04-2.66531E-16
 -1       446 5.94016E-03 1.11541E-03-2.61811E-14
 -1       447 5.57225E-03 1.19337E-03-2.40995E-14
 -1       448 5.27334E-03 1.15756E-03-2.23861E-14
 -1       449 4.86489E-03 9.88065E-04-2.04148E-14
 -1       450 4.40550E-03 7.40491E-04-1.88370E-14
 -1       451 4.03964E-03 5.40814E-04-1.77731E-14
 -1       452 3.61439E-03 3.33550E-04-1.67129E-14
 -1       453 3.36452E-03 2.41297E-04-1.65253E-14
 -1       454 3.20651E-03 1.59247E-04-1.60212E-14
 -1       455 3.21265E-03 1.18489E-04-1.61766E-14
 -1       456 3.38998E-03 3.99426E-05-1.66184E-14
 -1       457 3.65548E-03-6.56760E-05-1.72167E-14
 -1       458 4.12503E-03-2.88390E-04-1.86536E-14
 -1       459 4.47566E-03-4.62998E-04-1.97685E-14
 -1       460 4.90562E-03-6.61758E-04-2.17439E-14
 -1       461 5.19461E-03-7.41438E-04-2.32780E-14
 -1       462 5.55171E-03-7.36123E-04-2.53588E-14
 -1       463 5.87081E-03-6.36165E-04-2.71318E-14
 -1       464 6.19742E-03-4.77973E-04-2.88957E-14
 -1       465 6.67818E-03-2.23836E-04-3.09858E-14
 -1       466 7.03258E-03-5.39992E-05-3.21785E-14
 -1       467 7.35400E-03 9.07492E-05-3.33082E-14
 -1       468 7.61578E-03 1.97698E-04-3.40610E-14
 -1       469 6.28284E-03 9.64214E-04-2.81638E-14
 -1       470 7.70772E-03 2.80067E-04-3.55294E-14
 -1       471 7.51249E-03 1.73930E-04-3.49226E-14
 -1       472 6.41890E-03-3.39931E-04-3.05900E-14
 -1       473 4.71094E-03-5.80915E-04-2.04222E-14
 -1       474 3.88051E-03-1.57831E-04-1.73096E-14
 -1       475 4.64508E-03 8.56859E-04-1.90516E-14
 -1       476 9.48699E-04 3.03478E-04-7.21747E-16
 -1       477 6.52378E-04-5.65568E-05-6.28956E-16
 -1       478 6.62204E-04-9.10099E-05-6.16240E-16
 -1       479 6.43880E-04 2.56248E-06-6.32913E-16
 -1       480 6.45554E-04 3.08198E-05-6.25534E-16
 -1       481 6.51203E-04 6.01779E-05-6.11324E-16
 -1       482 6.61062E-04 9.36188E-05-5.88729E-16
 -1       483 6.75242E-04 1.32814E-04-5.55674E-16
 -1       484 6.94542E-04 1.80176E-04-5.07918E-16
 -1       485 1.24249E-03 3.51541E-04-1.26092E-15
 -1       486 9.91890E-04-2.86516E-04-9.60149E-16
 -1       487 6.49468E-03 8.56240E-04-3.02602E-14
 -1       488 1.28418E-03-3.30787E-04-1.58914E-15
 -1       489 1.57726E-03-3.61504E-04-2.37880E-15
 -1       490 1.87170E-03-3.83194E-04-3.33042E-15
 -1       491 2.16848E-03-4.00376E-04-4.44266E-15
 -1       492 2.46880E-03-4.17581E-04-5.71388E-15
 -1       493 2.77391E-03-4.39458E-04-7.14454E-15
 -1       494 3.08509E-03-4.70731E-04-8.73251E-15
 -1       495 3.40330E-03-5.15815E-04-1.04777E-14
 -1       496 3.72859E-03-5.77833E-04-1.23803E-14
 -1       497 4.05919E-03-6.56734E-04-1.44414E-14
 -1       498 4.39084E-03-7.46434E-04-1.66647E-14
 -1       499 4.71769E-03-8.32070E-04-1.90570E-14
 -1       500 5.03575E-03-8.91082E-04-2.16248E-14
 -1       501 5.34671E-03-9.01183E-04-2.43707E-14
 -1       502 5.65790E-03-8.53058E-04-2.73016E-14
 -1       503 5.97652E-03-7.56598E-04-3.04158E-14
 -1       504 6.30420E-03-6.34402E-04-3.37107E-14
 -1       505 6.63680E-03-5.09017E-04-3.71725E-14
 -1       506 6.96849E-03-3.95299E-04-4.07906E-14
 -1       507 7.29510E-03-2.99512E-04-4.45574E-14
 -1       508 7.61488E-03-2.22115E-04-4.84652E-14
 -1       509 7.92789E-03-1.60656E-04-5.25080E-14
 -1       510 8.23498E-03-1.11683E-04-5.66791E-14
 -1       511 8.53726E-03-7.17675E-05-6.09710E-14
 -1       512 8.83574E-03-3.79563E-05-6.53887E-14
 -1       513 9.13124E-03-7.90802E-06-6.99319E-14
 -1       514 9.42442E-03 2.01211E-05-7.45880E-14
 -1       515 9.71580E-03 4.73583E-05-7.93508E-14
 -1       516 1.00058E-02 7.46171E-05-8.42199E-14
 -1       517 1.02946E-02 1.02397E-04-8.91943E-14
 -1       518 1.05826E-02 1.30968E-04-9.42651E-14
 -1       519 1.08700E-02 1.60443E-04-9.94303E-14
 -1       520 1.11568E-02 1.90834E-04-1.04685E-13
 -1       521 1.14433E-02 2.22084E-04-1.10023E-13
 -1       522 1.17295E-02 2.54106E-04-1.15444E-13
 -1       523 1.20155E-02 2.86795E-04-1.20940E-13
 -1       524 1.23014E-02 3.20043E-04-1.26518E-13
 -1       525 1.25872E-02 3.53747E-04-1.32169E-13
 -1       526 1.28730E-02 3.87814E-04-1.37891E-13
 -1       527 1.31587E-02 4.22160E-04-1.43678E-13
 -1       528 1.34444E-02 4.56713E-04-1.49530E-13
 -1       529 1.37301E-02 4.91408E-04-1.55441E-13
 -1       530 1.40158E-02 5.26190E-04-1.61397E-13
 -1       531 1.83206E-03 4.05338E-04-2.81184E-15
 -1       532 2.13016E-03 4.21016E-04-3.82339E-15
 -1       533 2.43230E-03 4.35964E-04-4.99181E-15
 -1       534 2.74001E-03 4.55909E-04-6.31670E-15
 -1       535 3.05515E-03 4.87547E-04-7.80036E-15
 -1       536 3.37994E-03 5.38634E-04-9.44301E-15
 -1       537 3.71671E-03 6.17395E-04-1.12420E-14
 -1       538 4.06662E-03 7.30593E-04-1.32011E-14
 -1       539 4.42742E-03 8.78660E-04-1.53283E-14
 -1       540 4.79064E-03 1.04741E-03-1.76303E-14
 -1       541 5.14462E-03 1.19876E-03-2.01178E-14
 -1       542 5.48688E-03 1.28303E-03-2.28008E-14
 -1       543 5.82611E-03 1.26720E-03-2.56860E-14
 -1       544 6.17628E-03 1.16742E-03-2.87701E-14
 -1       545 6.53836E-03 1.03257E-03-3.20417E-14
 -1       546 6.90248E-03 9.07530E-04-3.54802E-14
 -1       547 7.25888E-03 8.15081E-04-3.90720E-14
 -1       548 7.60280E-03 7.59524E-04-4.28076E-14
 -1       549 7.93447E-03 7.36135E-04-4.66848E-14
 -1       550 8.25599E-03 7.37506E-04-5.07024E-14
 -1       551 8.56961E-03 7.56474E-04-5.48574E-14
 -1       552 8.87716E-03 7.87153E-04-5.91444E-14
 -1       553 9.17998E-03 8.25098E-04-6.35548E-14
 -1       554 9.47905E-03 8.67144E-04-6.80802E-14
 -1       555 9.77511E-03 9.11137E-04-7.27226E-14
 -1       556 1.00687E-02 9.55683E-04-7.74788E-14
 -1       557 1.03604E-02 9.99928E-04-8.23439E-14
 -1       558 1.06506E-02 1.04339E-03-8.73093E-14
 -1       559 1.09395E-02 1.08584E-03-9.23682E-14
 -1       560 1.12275E-02 1.12721E-03-9.75303E-14
 -1       561 1.15148E-02 1.16753E-03-1.02787E-13
 -1       562 1.18016E-02 1.20689E-03-1.08132E-13
 -1       563 1.20880E-02 1.24539E-03-1.13560E-13
 -1       564 1.23742E-02 1.28316E-03-1.19074E-13
 -1       565 1.26601E-02 1.32033E-03-1.24669E-13
 -1       566 1.29459E-02 1.35701E-03-1.30341E-13
 -1       567 1.32316E-02 1.39329E-03-1.36081E-13
 -1       568 1.35173E-02 1.42927E-03-1.41887E-13
 -1       569 1.38030E-02 1.46503E-03-1.47745E-13
 -1       570 1.40887E-02 1.50063E-03-1.53652E-13
 -1       571 1.43743E-02 1.53614E-03-1.59594E-13
 -1       572 1.46600E-02 1.57159E-03-1.65576E-13
 -1       573 1.45628E-02 1.30004E-03-1.66218E-13
 -1       574 1.45279E-02 1.21570E-03-1.66290E-13
 -1       575 1.46321E-02 1.46728E-03-1.66047E-13
 -1       576 1.45974E-02 1.38366E-03-1.66137E-13
 -1       577 1.44932E-02 1.13136E-03-1.66359E-13
 -1       578 1.44586E-02 1.04702E-03-1.66419E-13
 -1       579 1.44241E-02 9.62675E-04-1.66472E-13
 -1       580 1.43903E-02 8.79764E-04-1.66507E-13
 -1       581 1.43561E-02 7.95425E-04-1.66522E-13
 -1       582 1.43219E-02 7.11090E-04-1.66526E-13
 -1       583 1.42878E-02 6.26764E-04-1.66518E-13
 -1       584 7.30965E-03 4.40852E-04-3.44091E-14
 -1       585 1.53661E-03 3.83818E-04-1.95723E-15
 -1       586 6.07253E-03 1.07572E-03-2.74695E-14
 -1       587 6.90935E-03 6.29952E-04-3.25640E-14
 -1       588 7.69448E-03 2.41065E-04-3.58819E-14
 -1       589 5.36542E-03-7.72554E-04-2.43063E-14
 -1       590 3.25606E-03 1.79131E-04-1.51377E-14
 -1       591 5.08775E-03 1.09749E-03-2.08953E-14
 -1       592 6.46217E-04-2.59589E-05-6.34146E-16
 -1       593 5.75833E-03 1.19054E-03-2.53128E-14
 -1       594 5.45256E-03 1.21353E-03-2.31286E-14
 -1       595 3.43006E-03 2.39485E-04-1.53037E-14
 -1       596 4.23946E-03 6.18853E-04-1.72889E-14
 -1       597 5.70833E-03-7.00965E-04-2.66571E-14
 -1       598 3.83783E-03 4.10405E-04-1.62553E-14
 -1       599 3.16623E-03 1.30552E-04-1.50928E-14
 -1       600 3.24795E-03 8.86438E-05-1.52945E-14
 -1       601 3.48210E-03 7.08146E-06-1.59061E-14
 -1       602 4.27274E-03-3.56149E-04-1.83716E-14
 -1       603 5.05310E-03-7.23567E-04-2.22419E-14
 -1       604 6.86353E-03-9.66287E-05-3.29094E-14
 -1       605 5.98170E-03-5.78010E-04-2.84066E-14
 -1       606 7.19203E-03 5.51386E-05-3.41813E-14
 -1       607 7.22592E-04-2.20073E-04-5.38855E-16
 -1       608 7.16518E-04 2.58823E-04-3.87308E-16
 -1       609 7.56796E-03 3.41046E-04-3.55440E-14
 -1       610 6.75767E-04-1.30990E-04-5.93696E-16
 -1       611 6.96695E-04-1.71745E-04-5.73163E-16
 -1       612 3.65933E-03-7.27152E-05-1.59837E-14
 -1       613 7.69346E-03 3.09444E-04-3.69876E-14
 -1       614 4.87530E-03 9.95461E-04-1.94961E-14
 -1       615 1.42082E-02 5.48054E-04-1.65447E-13
 -1       616 7.38858E-03 1.36131E-04-3.58037E-14
 -1       617 6.20114E-03-4.59379E-04-3.00773E-14
 -1       618 4.48899E-03-4.82150E-04-1.89865E-14
 -1       619 6.63539E-03-2.14199E-04-3.24874E-14
 -1       620 5.94382E-03 1.16422E-03-2.67670E-14
 -1       621 8.73074E-04 5.84686E-05-1.06591E-15
 -1       622 8.67704E-04 2.15094E-05-1.08331E-15
 -1       623 9.01921E-04 1.43145E-04-9.96250E-16
 -1       624 9.25549E-04 1.95782E-04-9.37211E-16
 -1       625 1.06081E-03 2.65702E-04-1.07393E-15
 -1       626 5.65721E-03 1.23793E-03-2.44919E-14
 -1       627 1.39477E-03-2.80152E-04-2.05707E-15
 -1       628 1.68455E-03-3.02603E-04-2.94101E-15
 -1       629 1.97598E-03-3.18561E-04-3.98344E-15
 -1       630 2.26988E-03-3.31832E-04-5.18322E-15
 -1       631 2.56765E-03-3.46497E-04-6.53897E-15
 -1       632 2.87128E-03-3.67004E-04-8.05094E-15
 -1       633 3.18321E-03-3.98234E-04-9.71731E-15
 -1       634 3.50580E-03-4.45311E-04-1.15392E-14
 -1       635 3.84009E-03-5.12592E-04-1.35163E-14
 -1       636 4.18409E-03-6.01031E-04-1.56498E-14
 -1       637 4.53092E-03-7.03027E-04-1.79462E-14
 -1       638 4.87107E-03-7.96449E-04-2.04135E-14
 -1       639 5.19955E-03-8.47348E-04-2.30629E-14
 -1       640 5.52276E-03-8.27768E-04-2.58982E-14
 -1       641 5.85081E-03-7.39247E-04-2.89226E-14
 -1       642 6.19154E-03-6.09028E-04-3.21334E-14
 -1       643 6.53837E-03-4.71122E-04-3.55202E-14
 -1       644 6.88222E-03-3.47628E-04-3.90646E-14
 -1       645 7.21629E-03-2.46088E-04-4.27596E-14
 -1       646 7.53861E-03-1.65815E-04-4.65981E-14
 -1       647 7.85029E-03-1.02988E-04-5.05720E-14
 -1       648 8.15367E-03-5.32983E-05-5.46793E-14
 -1       649 8.45109E-03-1.29347E-05-5.89107E-14
 -1       650 8.74448E-03 2.11767E-05-6.32632E-14
 -1       651 9.03521E-03 5.13980E-05-6.77413E-14
 -1       652 9.32423E-03 7.94750E-05-7.23360E-14
 -1       653 9.61215E-03 1.06646E-04-7.70387E-14
 -1       654 9.89937E-03 1.33746E-04-8.18503E-14
 -1       655 1.01861E-02 1.61301E-04-8.67686E-14
 -1       656 1.04726E-02 1.89611E-04-9.17851E-14
 -1       657 1.07588E-02 2.18812E-04-9.69010E-14
 -1       658 1.10449E-02 2.48932E-04-1.02115E-13
 -1       659 1.13309E-02 2.79930E-04-1.07415E-13
 -1       660 1.16168E-02 3.11725E-04-1.12796E-13
 -1       661 1.19026E-02 3.44216E-04-1.18252E-13
 -1       662 1.21884E-02 3.77297E-04-1.23790E-13
 -1       663 1.24742E-02 4.10865E-04-1.29402E-13
 -1       664 1.27600E-02 4.44823E-04-1.35082E-13
 -1       665 1.30457E-02 4.79087E-04-1.40829E-13
 -1       666 1.33314E-02 5.13582E-04-1.46641E-13
 -1       667 1.36172E-02 5.48243E-04-1.52513E-13
 -1       668 1.39029E-02 5.83013E-04-1.58436E-13
 -1       669 2.22281E-03 3.54644E-04-4.57571E-15
 -1       670 1.93083E-03 3.42057E-04-3.46800E-15
 -1       671 2.81598E-03 3.88129E-04-7.25672E-15
 -1       672 3.12220E-03 4.20808E-04-8.83064E-15
 -1       673 3.44050E-03 4.74184E-04-1.05590E-14
 -1       674 3.77677E-03 5.57873E-04-1.24405E-14
 -1       675 4.13498E-03 6.81933E-04-1.44798E-14
 -1       676 4.51561E-03 8.49549E-04-1.66863E-14
 -1       677 6.79368E-03 8.47970E-04-3.39778E-14
 -1       678 7.16157E-03 7.41248E-04-3.75042E-14
 -1       679 7.50650E-03 6.78458E-04-4.11739E-14
 -1       680 7.83152E-03 6.51123E-04-4.49837E-14
 -1       681 8.14242E-03 6.49674E-04-4.89309E-14
 -1       682 8.44437E-03 6.66283E-04-5.30164E-14
 -1       683 8.74091E-03 6.95029E-04-5.72329E-14
 -1       684 9.03424E-03 7.31537E-04-6.15747E-14
 -1       685 9.32558E-03 7.72652E-04-6.60339E-14
 -1       686 9.61560E-03 8.16159E-04-7.06132E-14
 -1       687 9.90468E-03 8.60568E-04-7.53094E-14
 -1       688 1.01930E-02 9.04922E-04-8.01142E-14
 -1       689 1.04808E-02 9.48648E-04-8.50254E-14
 -1       690 1.07681E-02 9.91446E-04-9.00324E-14
 -1       691 1.10550E-02 1.03319E-03-9.51353E-14
 -1       692 1.13416E-02 1.07388E-03-1.00340E-13
 -1       693 1.16279E-02 1.11358E-03-1.05631E-13
 -1       694 1.19141E-02 1.15239E-03-1.11009E-13
 -1       695 1.22001E-02 1.19042E-03-1.16478E-13
 -1       696 1.24860E-02 1.22781E-03-1.22029E-13
 -1       697 1.27719E-02 1.26466E-03-1.27653E-13
 -1       698 1.30577E-02 1.30108E-03-1.33351E-13
 -1       699 1.33434E-02 1.33717E-03-1.39114E-13
 -1       700 1.36292E-02 1.37300E-03-1.44935E-13
 -1       701 1.39149E-02 1.40865E-03-1.50805E-13
 -1       702 1.42006E-02 1.44418E-03-1.56722E-13
 -1       703 1.44163E-02 1.45574E-03-1.61373E-13
 -1       704 1.42284E-02 1.05873E-03-1.61229E-13
 -1       705 1.40954E-02 6.04882E-04-1.62467E-13
 -1       706 1.42979E-02 1.22729E-03-1.61093E-13
 -1       707 1.41939E-02 9.74455E-04-1.61280E-13
 -1       708 1.42631E-02 1.14301E-03-1.61168E-13
 -1       709 1.64013E-03 3.25806E-04-2.51455E-15
 -1       710 1.41600E-02 8.91605E-04-1.61317E-13
 -1       711 1.41257E-02 8.07322E-04-1.61337E-13
 -1       712 1.40915E-02 7.23033E-04-1.61344E-13
 -1       713 3.57212E-03 3.08260E-04-1.44952E-14
 -1       714 7.19916E-03 5.31383E-04-3.54084E-14
 -1       715 2.51723E-03 3.68219E-04-5.83760E-15
 -1       716 1.10659E-03-2.47714E-04-1.33125E-15
 -1       717 3.26615E-03 1.90367E-04-1.40561E-14
 -1       718 7.51759E-03 3.91979E-04-3.69967E-14
 -1       719 1.35014E-03 3.01666E-04-1.71656E-15
 -1       720 4.84439E-03-6.65941E-04-2.07394E-14
 -1       721 6.30750E-03 9.94631E-04-2.95250E-14
 -1       722 7.65172E-03 2.20650E-04-3.78827E-14
 -1       723 7.06575E-03-2.15367E-06-3.51813E-14
 -1       724 8.84501E-04 9.82024E-05-1.03770E-15
 -1       725 4.49225E-03 7.76723E-04-1.76096E-14
 -1       726 8.86779E-04-9.35945E-05-1.07422E-15
 -1       727 3.97298E-03 4.95224E-04-1.55276E-14
 -1       728 6.75918E-03 7.52306E-04-3.26859E-14
 -1       729 5.25006E-03 1.18394E-03-2.14711E-14
 -1       730 3.29643E-03 4.54337E-05-1.44919E-14
 -1       731 3.97023E-03-2.34626E-04-1.65581E-14
 -1       732 3.12598E-03 1.40508E-04-1.38408E-14
 -1       733 5.55811E-03-7.61395E-04-2.58807E-14
 -1       734 5.78412E-03-6.82734E-04-2.76008E-14
 -1       735 3.11926E-03 1.01500E-04-1.38155E-14
 -1       736 7.76476E-03 2.70823E-04-3.75527E-14
 -1       737 5.18122E-03-7.72933E-04-2.29709E-14
 -1       738 9.00130E-04-2.12674E-04-9.12814E-16
 -1       739 8.68406E-04-1.47792E-05-1.09013E-15
 -1       740 5.37369E-03-8.01694E-04-2.44801E-14
 -1       741 4.17366E-03-3.52576E-04-1.71290E-14
 -1       742 3.42656E-03-1.44894E-05-1.45602E-14
 -1       743 7.67126E-03 3.54367E-04-3.84639E-14
 -1       744 1.43325E-02 1.31087E-03-1.61014E-13
 -1       745 7.27826E-03 8.07633E-05-3.68206E-14
 -1       746 1.43744E-02 1.38331E-03-1.61198E-13
 -1       747 6.42583E-03-3.40239E-04-3.19485E-14
 -1       748 6.86832E-03-1.07351E-04-3.47352E-14
 -1       749 8.74893E-04-5.24203E-05-1.08720E-15
 -1       750 7.78758E-03 2.55250E-04-3.95858E-14
 -1       751 9.03774E-04-1.40183E-04-1.04875E-15
 -1       752 5.98501E-03-5.94067E-04-2.92396E-14
 -1       753 1.39972E-02 6.53015E-04-1.59892E-13
 -1       754 7.49140E-03 4.70968E-04-3.85467E-14
 -1       755 1.15361E-03 1.96530E-04-1.49603E-15
 -1       756 1.50452E-03-2.28187E-04-2.55446E-15
 -1       757 9.00861E-04-1.74855E-04-9.84601E-16
 -1       758 7.57709E-03 1.81998E-04-3.89294E-14
 -1       759 1.78953E-03-2.43099E-04-3.52768E-15
 -1       760 2.07612E-03-2.53407E-04-4.65662E-15
 -1       761 2.36519E-03-2.62202E-04-5.94019E-15
 -1       762 2.65858E-03-2.73035E-04-7.37763E-15
 -1       763 2.95920E-03-2.90165E-04-8.96788E-15
 -1       764 3.27104E-03-3.18999E-04-1.07101E-14
 -1       765 3.59845E-03-3.66514E-04-1.26050E-14
 -1       766 3.94395E-03-4.40376E-04-1.46518E-14
 -1       767 4.30588E-03-5.44472E-04-1.68556E-14
 -1       768 4.67309E-03-6.68500E-04-1.92215E-14
 -1       769 6.44425E-03-4.32038E-04-3.38673E-14
 -1       770 6.80465E-03-2.93348E-04-3.73422E-14
 -1       771 7.14884E-03-1.85187E-04-4.09677E-14
 -1       772 7.47457E-03-1.03912E-04-4.47375E-14
 -1       773 7.78464E-03-4.23366E-05-4.86443E-14
 -1       774 8.08340E-03 5.77842E-06-5.26849E-14
 -1       775 8.37484E-03 4.49757E-05-5.68544E-14
 -1       776 8.66192E-03 7.84387E-05-6.11481E-14
 -1       777 8.94666E-03 1.08407E-04-6.55611E-14
 -1       778 9.23035E-03 1.36466E-04-7.00931E-14
 -1       779 9.51374E-03 1.63723E-04-7.47383E-14
 -1       780 9.79724E-03 1.90930E-04-7.94928E-14
 -1       781 1.00810E-02 2.18571E-04-8.43521E-14
 -1       782 1.03652E-02 2.46927E-04-8.93144E-14
 -1       783 1.06497E-02 2.76135E-04-9.43764E-14
 -1       784 1.09345E-02 3.06229E-04-9.95432E-14
 -1       785 1.12195E-02 3.37177E-04-1.04804E-13
 -1       786 1.15048E-02 3.68908E-04-1.10148E-13
 -1       787 1.17902E-02 4.01329E-04-1.15568E-13
 -1       788 1.20758E-02 4.34339E-04-1.21064E-13
 -1       789 1.23614E-02 4.67841E-04-1.26636E-13
 -1       790 1.26471E-02 5.01741E-04-1.32279E-13
 -1       791 1.29328E-02 5.35958E-04-1.37988E-13
 -1       792 1.32185E-02 5.70417E-04-1.43763E-13
 -1       793 1.35043E-02 6.05056E-04-1.49595E-13
 -1       794 1.37507E-02 6.29007E-04-1.54725E-13
 -1       795 1.39295E-02 9.02679E-04-1.56167E-13
 -1       796 3.16780E-03 3.52265E-04-9.87614E-15
 -1       797 2.87443E-03 3.21617E-04-8.21657E-15
 -1       798 3.80789E-03 4.87123E-04-1.36444E-14
 -1       799 8.05014E-03 5.63488E-04-4.71645E-14
 -1       800 8.33729E-03 5.80133E-04-5.11808E-14
 -1       801 8.62009E-03 6.07937E-04-5.53314E-14
 -1       802 8.90146E-03 6.43071E-04-5.96047E-14
 -1       803 9.18285E-03 6.82804E-04-6.39980E-14
 -1       804 9.46486E-03 7.25152E-04-6.85141E-14
 -1       805 9.74765E-03 7.68704E-04-7.31471E-14
 -1       806 1.00312E-02 8.12493E-04-7.78924E-14
 -1       807 1.03153E-02 8.55897E-04-8.27446E-14
 -1       808 1.05999E-02 8.98555E-04-8.77012E-14
 -1       809 1.08849E-02 9.40286E-04-9.27510E-14
 -1       810 1.11702E-02 9.81040E-04-9.78992E-14
 -1       811 1.14556E-02 1.02085E-03-1.03143E-13
 -1       812 1.17411E-02 1.05978E-03-1.08472E-13
 -1       813 1.20268E-02 1.09795E-03-1.13891E-13
 -1       814 1.23124E-02 1.13546E-03-1.19397E-13
 -1       815 1.25981E-02 1.17242E-03-1.24979E-13
 -1       816 1.28839E-02 1.20894E-03-1.30634E-13
 -1       817 1.31696E-02 1.24510E-03-1.36355E-13
 -1       818 1.34554E-02 1.28099E-03-1.42139E-13
 -1       819 1.37411E-02 1.31668E-03-1.47976E-13
 -1       820 1.40268E-02 1.35223E-03-1.53858E-13
 -1       821 1.42006E-02 1.36778E-03-1.57519E-13
 -1       822 1.73962E-03 2.69333E-04-3.10311E-15
 -1       823 1.39640E-02 9.86882E-04-1.56127E-13
 -1       824 1.38612E-02 7.34953E-04-1.56198E-13
 -1       825 4.97558E-03-7.47867E-04-2.13979E-14
 -1       826 3.00221E-03 1.10818E-04-1.23858E-14
 -1       827 1.24905E-03 2.46622E-04-1.61191E-15
 -1       828 1.22112E-03-2.05986E-04-1.73721E-15
 -1       829 1.38953E-02 8.18824E-04-1.56191E-13
 -1       830 7.75341E-03 5.63641E-04-4.32830E-14
 -1       831 7.43865E-03 5.89775E-04-3.95390E-14
 -1       832 3.47551E-03 4.02903E-04-1.16852E-14
 -1       833 2.02255E-03 2.81299E-04-4.15164E-15
 -1       834 7.13567E-03 6.39081E-04-3.62473E-14
 -1       835 3.69133E-03-1.40875E-04-1.51006E-14
 -1       836 3.68952E-03 3.96444E-04-1.38735E-14
 -1       837 1.09626E-03 4.78054E-05-1.64201E-15
 -1       838 3.10822E-03 1.56854E-04-1.28294E-14
 -1       839 4.57598E-03-5.81763E-04-1.88723E-14
 -1       840 7.81228E-03 2.99930E-04-3.93204E-14
 -1       841 3.28875E-03 2.32842E-04-1.28314E-14
 -1       842 3.12439E-03 6.05907E-05-1.30901E-14
 -1       843 1.09334E-03 4.85741E-06-1.65920E-15
 -1       844 1.12680E-03 1.41326E-04-1.56274E-15
 -1       845 7.75327E-03 2.27943E-04-4.06567E-14
 -1       846 7.65749E-03 4.24866E-04-4.00449E-14
 -1       847 1.40677E-02 1.23846E-03-1.55924E-13
 -1       848 5.03181E-03-7.78542E-04-2.17619E-14
 -1       849 2.30516E-03 2.91318E-04-5.35333E-15
 -1       850 2.58838E-03 3.03262E-04-6.70838E-15
 -1       851 1.40329E-02 1.15423E-03-1.56006E-13
 -1       852 1.39983E-02 1.07055E-03-1.56076E-13
 -1       853 3.89408E-03-2.73594E-04-1.54179E-14
 -1       854 2.95154E-03 7.67460E-05-1.17035E-14
 -1       855 1.49499E-03 2.61454E-04-2.29621E-15
 -1       856 6.67304E-03-2.26317E-04-3.41684E-14
 -1       857 7.09415E-03-8.66056E-06-3.63650E-14
 -1       858 3.21224E-03 1.66415E-05-1.31547E-14
 -1       859 7.89627E-03 2.85176E-04-4.13937E-14
 -1       860 1.10746E-03 9.23520E-05-1.61033E-15
 -1       861 1.38059E-02 6.81979E-04-1.55463E-13
 -1       862 1.13076E-03-1.36273E-04-1.62738E-15
 -1       863 3.37278E-03 3.03366E-04-1.22431E-14
 -1       864 1.11127E-03-8.50089E-05-1.65242E-15
 -1       865 3.40955E-03-7.90697E-05-1.34970E-14
 -1       866 1.61276E-03-1.75176E-04-3.07932E-15
 -1       867 1.89179E-03-1.83257E-04-4.13754E-15
 -1       868 2.17175E-03-1.87903E-04-5.34919E-15
 -1       869 2.45358E-03-1.91461E-04-6.71362E-15
 -1       870 2.73951E-03-1.96832E-04-8.22891E-15
 -1       871 3.03338E-03-2.08089E-04-9.89420E-15
 -1       872 3.34116E-03-2.31552E-04-1.17083E-14
 -1       873 3.66995E-03-2.77294E-04-1.36714E-14
 -1       874 7.10389E-03-1.14905E-04-3.91795E-14
 -1       875 7.43007E-03-3.47648E-05-4.28832E-14
 -1       876 7.73494E-03 2.23757E-05-4.67254E-14
 -1       877 8.02588E-03 6.61194E-05-5.07001E-14
 -1       878 8.30878E-03 1.02149E-04-5.48057E-14
 -1       879 8.58760E-03 1.33727E-04-5.90384E-14
 -1       880 8.86486E-03 1.62810E-04-6.33921E-14
 -1       881 9.14203E-03 1.90648E-04-6.78608E-14
 -1       882 9.41990E-03 2.18068E-04-7.24469E-14
 -1       883 9.69884E-03 2.45625E-04-7.71443E-14
 -1       884 9.97896E-03 2.73673E-04-8.19477E-14
 -1       885 1.02602E-02 3.02422E-04-8.68551E-14
 -1       886 1.05425E-02 3.31972E-04-9.18632E-14
 -1       887 1.08256E-02 3.62344E-04-9.69774E-14
 -1       888 1.11094E-02 3.93506E-04-1.02191E-13
 -1       889 1.13937E-02 4.25394E-04-1.07498E-13
 -1       890 1.16785E-02 4.57924E-04-1.12882E-13
 -1       891 1.19636E-02 4.91006E-04-1.18343E-13
 -1       892 1.22490E-02 5.24551E-04-1.23879E-13
 -1       893 1.25344E-02 5.58476E-04-1.29483E-13
 -1       894 1.28201E-02 5.92705E-04-1.35151E-13
 -1       895 1.31057E-02 6.27170E-04-1.40887E-13
 -1       896 1.33914E-02 6.61814E-04-1.46686E-13
 -1       897 2.91514E-03 2.57015E-04-9.19453E-15
 -1       898 8.77914E-03 5.60519E-04-5.76453E-14
 -1       899 7.98063E-03 4.79213E-04-4.54003E-14
 -1       900 8.24700E-03 4.98472E-04-4.93511E-14
 -1       901 9.04874E-03 5.98536E-04-6.19746E-14
 -1       902 9.32126E-03 6.39098E-04-6.64239E-14
 -1       903 9.59651E-03 6.81054E-04-7.09922E-14
 -1       904 9.87413E-03 7.23539E-04-7.56775E-14
 -1       905 1.01537E-02 7.65942E-04-8.04702E-14
 -1       906 1.04349E-02 8.07866E-04-8.53693E-14
 -1       907 1.07172E-02 8.49085E-04-9.03705E-14
 -1       908 1.10006E-02 8.89495E-04-9.54687E-14
 -1       909 1.12846E-02 9.29083E-04-1.00663E-13
 -1       910 1.15692E-02 9.67891E-04-1.05943E-13
 -1       911 1.18541E-02 1.00599E-03-1.11313E-13
 -1       912 1.21393E-02 1.04347E-03-1.16772E-13
 -1       913 1.24248E-02 1.08044E-03-1.22312E-13
 -1       914 1.27103E-02 1.11696E-03-1.27926E-13
 -1       915 1.29960E-02 1.15315E-03-1.33608E-13
 -1       916 1.32817E-02 1.18905E-03-1.39353E-13
 -1       917 1.35674E-02 1.22475E-03-1.45156E-13
 -1       918 1.38531E-02 1.26030E-03-1.51005E-13
 -1       919 1.36993E-02 9.14401E-04-1.51060E-13
 -1       920 1.41341E-02 1.30311E-03-1.56723E-13
 -1       921 7.45194E-03 1.07888E-04-3.96647E-14
 -1       922 8.51226E-03 5.26531E-04-5.34341E-14
 -1       923 7.73941E-03 4.66842E-04-4.19196E-14
 -1       924 1.83555E-03 2.15303E-04-3.72288E-15
 -1       925 6.18466E-03-4.94012E-04-3.08204E-14
 -1       926 1.09855E-03-3.86586E-05-1.66273E-15
 -1       927 1.37045E-03-1.57540E-04-2.29741E-15
 -1       928 7.86089E-03 3.42542E-04-4.13447E-14
 -1       929 2.93306E-03 1.32478E-04-1.12611E-14
 -1       930 3.05162E-03 1.91948E-04-1.12669E-14
 -1       931 1.37792E-03 1.86798E-04-2.18133E-15
 -1       932 1.36650E-02 8.30639E-04-1.51085E-13
 -1       933 7.66046E-03 1.71987E-04-4.14130E-14
 -1       934 2.10864E-03 2.24002E-04-4.86364E-15
 -1       935 2.64726E-03 2.41737E-04-7.60063E-15
 -1       936 1.35987E-02 6.71880E-04-1.51060E-13
 -1       937 1.56034E-03 2.03144E-04-2.73333E-15
 -1       938 1.37336E-02 9.97978E-04-1.51016E-13
 -1       939 7.99464E-03 3.22410E-04-4.34688E-14
 -1       940 3.00459E-03 2.08895E-05-1.15512E-14
 -1       941 2.83523E-03 9.89408E-05-1.06232E-14
 -1       942 1.43483E-03 2.22801E-04-2.24285E-15
 -1       943 7.30131E-03 3.33009E-05-3.91842E-14
 -1       944 3.54234E-03-1.80634E-04-1.34961E-14
 -1       945 1.38028E-02 1.16571E-03-1.50870E-13
 -1       946 1.34491E-03-9.97240E-05-2.33083E-15
 -1       947 7.90437E-03 2.64593E-04-4.24920E-14
 -1       948 1.32085E-03 3.07085E-05-2.33576E-15
 -1       949 7.00127E-03-7.69984E-05-3.66371E-14
 -1       950 1.36433E-02 7.40254E-04-1.51427E-13
 -1       951 1.32958E-03 7.88887E-05-2.30400E-15
 -1       952 1.32283E-03-1.72735E-05-2.34985E-15
 -1       953 1.37681E-02 1.08183E-03-1.50952E-13
 -1       954 1.99173E-03-1.23518E-04-4.76872E-15
 -1       955 2.26290E-03-1.22685E-04-6.05920E-15
 -1       956 2.53412E-03-1.20422E-04-7.50014E-15
 -1       957 2.80743E-03-1.18814E-04-9.08942E-15
 -1       958 3.08741E-03-1.21946E-04-1.08263E-14
 -1       959 7.70738E-03 9.04301E-05-4.48127E-14
 -1       960 7.98370E-03 1.26989E-04-4.87225E-14
 -1       961 8.25339E-03 1.57948E-04-5.27638E-14
 -1       962 8.52093E-03 1.86512E-04-5.69339E-14
 -1       963 8.78874E-03 2.14131E-04-6.12270E-14
 -1       964 9.05809E-03 2.41561E-04-6.56376E-14
 -1       965 9.32955E-03 2.69224E-04-7.01642E-14
 -1       966 9.60328E-03 2.97374E-04-7.48048E-14
 -1       967 9.87920E-03 3.26163E-04-7.95528E-14
 -1       968 1.01571E-02 3.55676E-04-8.44042E-14
 -1       969 1.04368E-02 3.85938E-04-8.93619E-14
 -1       970 1.07179E-02 4.16935E-04-9.44228E-14
 -1       971 1.10002E-02 4.48622E-04-9.95861E-14
 -1       972 1.12834E-02 4.80933E-04-1.04848E-13
 -1       973 1.15674E-02 5.13795E-04-1.10195E-13
 -1       974 1.18519E-02 5.47130E-04-1.15620E-13
 -1       975 1.21368E-02 5.80864E-04-1.21118E-13
 -1       976 1.24221E-02 6.14925E-04-1.26687E-13
 -1       977 1.27075E-02 6.49250E-04-1.32320E-13
 -1       978 1.29931E-02 6.83784E-04-1.38017E-13
 -1       979 1.32787E-02 7.18477E-04-1.43782E-13
 -1       980 7.90899E-03 4.06742E-04-4.33641E-14
 -1       981 9.18217E-03 5.58637E-04-6.43454E-14
 -1       982 2.37914E-03 2.31896E-04-6.15651E-15
 -1       983 8.17056E-03 4.23491E-04-4.75234E-14
 -1       984 9.44926E-03 5.98262E-04-6.88490E-14
 -1       985 9.72042E-03 6.38698E-04-7.34711E-14
 -1       986 9.99493E-03 6.79392E-04-7.82054E-14
 -1       987 1.02721E-02 7.19943E-04-8.30467E-14
 -1       988 1.05515E-02 7.60089E-04-8.79925E-14
 -1       989 1.08325E-02 7.99681E-04-9.30404E-14
 -1       990 1.11148E-02 8.38657E-04-9.81844E-14
 -1       991 1.13981E-02 8.77015E-04-1.03421E-13
 -1       992 1.16822E-02 9.14791E-04-1.08743E-13
 -1       993 1.19668E-02 9.52046E-04-1.14157E-13
 -1       994 1.22518E-02 9.88850E-04-1.19656E-13
 -1       995 1.25371E-02 1.02527E-03-1.25228E-13
 -1       996 1.28225E-02 1.06138E-03-1.30871E-13
 -1       997 1.31081E-02 1.09725E-03-1.36580E-13
 -1       998 1.33938E-02 1.13292E-03-1.42346E-13
 -1       999 2.83197E-03 1.54568E-04-9.95253E-15
 -1      1000 1.33093E-03-5.72328E-05-2.34620E-15
 -1      1001 1.66375E-03 1.55814E-04-3.29281E-15
 -1      1002 2.80293E-03 4.34192E-05-1.02031E-14
 -1      1003 1.34891E-03 1.30155E-04-2.25327E-15
 -1      1004 1.58053E-03-1.12014E-04-3.12049E-15
 -1      1005 8.91997E-03 5.20513E-04-5.99588E-14
 -1      1006 1.78594E-03-1.18643E-04-3.90213E-15
 -1      1007 7.85250E-03 2.23527E-04-4.32743E-14
 -1      1008 1.34347E-02 8.42212E-04-1.46017E-13
 -1      1009 2.60553E-03 1.45376E-04-8.29920E-15
 -1      1010 7.41705E-03 4.14102E-05-4.10351E-14
 -1      1011 8.66350E-03 4.84701E-04-5.56881E-14
 -1      1012 8.41354E-03 4.52055E-04-5.15393E-14
 -1      1013 1.34689E-02 9.25676E-04-1.45984E-13
 -1      1014 2.70898E-03 1.16927E-04-9.36363E-15
 -1      1015 8.04184E-03 3.02487E-04-4.45987E-14
 -1      1016 3.14254E-03-3.96888E-05-1.19222E-14
 -1      1017 1.93018E-03 1.64419E-04-4.37184E-15
 -1      1018 1.33591E-02 1.04921E-03-1.42438E-13
 -1      1019 1.54729E-03 9.44877E-06-3.14440E-15
 -1      1020 2.84538E-03-1.74599E-05-1.00492E-14
 -1      1021 7.67399E-03 1.31681E-04-4.31054E-14
 -1      1022 1.55086E-03 6.05141E-05-3.11540E-15
 -1      1023 1.34140E-02 9.87478E-04-1.44216E-13
 -1      1024 2.35073E-03-5.91289E-05-6.78322E-15
 -1      1025 2.60715E-03-5.11807E-05-8.29732E-15
 -1      1026 7.95852E-03 1.85408E-04-4.67516E-14
 -1      1027 8.06159E-03 3.58134E-04-4.50424E-14
 -1      1028 8.20812E-03 2.10482E-04-5.07275E-14
 -1      1029 8.46037E-03 2.35589E-04-5.48330E-14
 -1      1030 8.71649E-03 2.61596E-04-5.90646E-14
 -1      1031 8.97673E-03 2.88667E-04-6.34199E-14
 -1      1032 9.24106E-03 3.16774E-04-6.78876E-14
 -1      1033 9.50916E-03 3.45817E-04-7.24711E-14
 -1      1034 9.78064E-03 3.75710E-04-7.71633E-14
 -1      1035 1.00551E-02 4.06377E-04-8.19615E-14
 -1      1036 1.03320E-02 4.37743E-04-8.68665E-14
 -1      1037 1.06109E-02 4.69736E-04-9.18744E-14
 -1      1038 1.08916E-02 5.02283E-04-9.69851E-14
 -1      1039 1.11736E-02 5.35314E-04-1.02198E-13
 -1      1040 1.14567E-02 5.68762E-04-1.07503E-13
 -1      1041 1.17406E-02 6.02562E-04-1.12891E-13
 -1      1042 1.20250E-02 6.36655E-04-1.18355E-13
 -1      1043 1.23099E-02 6.70989E-04-1.23891E-13
 -1      1044 1.25951E-02 7.05518E-04-1.29490E-13
 -1      1045 1.28806E-02 7.40199E-04-1.35150E-13
 -1      1046 1.31576E-02 7.91131E-04-1.40554E-13
 -1      1047 9.83735E-03 5.96567E-04-7.59515E-14
 -1      1048 2.36567E-03 1.38141E-04-6.79022E-15
 -1      1049 9.30298E-03 5.20548E-04-6.67172E-14
 -1      1050 1.01106E-02 6.35127E-04-8.07344E-14
 -1      1051 1.03868E-02 6.73641E-04-8.56230E-14
 -1      1052 1.06654E-02 7.11921E-04-9.06151E-14
 -1      1053 1.09459E-02 7.49859E-04-9.57111E-14
 -1      1054 1.12278E-02 7.87410E-04-1.00901E-13
 -1      1055 1.15109E-02 8.24568E-04-1.06179E-13
 -1      1056 1.17947E-02 8.61356E-04-1.11549E-13
 -1      1057 1.20792E-02 8.97812E-04-1.17005E-13
 -1      1058 1.23641E-02 9.33981E-04-1.22540E-13
 -1      1059 1.26493E-02 9.69910E-04-1.28144E-13
 -1      1060 1.29348E-02 1.00564E-03-1.33813E-13
 -1      1061 1.31469E-02 1.02747E-03-1.38109E-13
 -1      1062 9.56785E-03 5.58244E-04-7.12764E-14
 -1      1063 2.63495E-03 6.23867E-05-8.98630E-15
 -1      1064 2.09079E-03-6.48353E-05-5.41722E-15
 -1      1065 1.56179E-03-6.55250E-05-3.14024E-15
 -1      1066 8.13142E-03 3.35403E-04-4.62003E-14
 -1      1067 2.64166E-03 1.01665E-05-8.85666E-15
 -1      1068 8.26926E-03 3.89803E-04-4.88472E-14
 -1      1069 1.60193E-03 1.06510E-04-3.21237E-15
 -1      1070 9.04382E-03 4.83959E-04-6.22718E-14
 -1      1071 2.15276E-03 1.51159E-04-5.51690E-15
 -1      1072 1.76261E-03-6.93543E-05-3.92455E-15
 -1      1073 8.03440E-03 2.69730E-04-4.54124E-14
 -1      1074 7.90039E-03 2.05016E-04-4.50030E-14
 -1      1075 1.31919E-02 8.74435E-04-1.40527E-13
 -1      1076 8.79157E-03 4.48955E-04-5.79423E-14
 -1      1077 1.86328E-03 1.14131E-04-4.28122E-15
 -1      1078 1.77169E-03 3.95152E-05-4.04247E-15
 -1      1079 1.77503E-03-1.52473E-05-4.05796E-15
 -1      1080 1.55156E-03-2.72472E-05-3.14770E-15
 -1      1081 8.16891E-03 2.56555E-04-4.86935E-14
 -1      1082 9.15390E-03 4.47509E-04-6.45846E-14
 -1      1083 8.40203E-03 2.79199E-04-5.27356E-14
 -1      1084 8.64485E-03 3.04326E-04-5.69040E-14
 -1      1085 8.89509E-03 3.31453E-04-6.11990E-14
 -1      1086 9.15209E-03 3.60442E-04-6.56114E-14
 -1      1087 9.41460E-03 3.90767E-04-7.01379E-14
 -1      1088 9.68174E-03 4.22155E-04-7.47755E-14
 -1      1089 9.95279E-03 4.54370E-04-7.95199E-14
 -1      1090 1.02271E-02 4.87228E-04-8.43715E-14
 -1      1091 1.05040E-02 5.20587E-04-8.93267E-14
 -1      1092 1.07832E-02 5.54337E-04-9.43874E-14
 -1      1093 1.10640E-02 5.88395E-04-9.95515E-14
 -1      1094 1.13462E-02 6.22694E-04-1.04808E-13
 -1      1095 1.16294E-02 6.57185E-04-1.10155E-13
 -1      1096 1.19134E-02 6.91826E-04-1.15584E-13
 -1      1097 1.21980E-02 7.26586E-04-1.21087E-13
 -1      1098 1.24829E-02 7.61438E-04-1.26657E-13
 -1      1099 1.27682E-02 7.96363E-04-1.32290E-13
 -1      1100 1.29800E-02 8.35360E-04-1.36391E-13
 -1      1101 2.45246E-03 9.44979E-05-7.60562E-15
 -1      1102 1.04985E-02 6.26357E-04-8.81971E-14
 -1      1103 9.94865E-03 5.53438E-04-7.84302E-14
 -1      1104 2.19230E-03-8.50788E-06-6.08019E-15
 -1      1105 1.07772E-02 6.62855E-04-9.32366E-14
 -1      1106 1.10578E-02 6.99243E-04-9.83825E-14
 -1      1107 1.13398E-02 7.35479E-04-1.03619E-13
 -1      1108 1.16229E-02 7.71545E-04-1.08943E-13
 -1      1109 1.19068E-02 8.07445E-04-1.14358E-13
 -1      1110 1.21913E-02 8.43191E-04-1.19852E-13
 -1      1111 1.24763E-02 8.78805E-04-1.25417E-13
 -1      1112 1.27616E-02 9.14305E-04-1.31048E-13
 -1      1113 1.99243E-03 1.68772E-05-5.07775E-15
 -1      1114 2.43358E-03 3.24045E-05-7.56392E-15
 -1      1115 1.02221E-02 5.89838E-04-8.32606E-14
 -1      1116 2.38849E-03-1.14875E-05-7.17691E-15
 -1      1117 8.54862E-03 4.16391E-04-5.37322E-14
 -1      1118 1.81336E-03 7.62984E-05-4.16709E-15
 -1      1119 8.15320E-03 3.03516E-04-4.70399E-14
 -1      1120 8.31752E-03 3.54252E-04-4.97242E-14
 -1      1121 8.90129E-03 4.14615E-04-6.01954E-14
 -1      1122 2.21425E-03 8.66681E-05-6.16185E-15
 -1      1123 9.67885E-03 5.17371E-04-7.37042E-14
 -1      1124 2.02653E-03 5.42877E-05-5.22598E-15
 -1      1125 1.29736E-02 9.36012E-04-1.35315E-13
 -1      1126 1.32018E-02 9.65876E-04-1.39877E-13
 -1      1127 9.41357E-03 4.81934E-04-6.90895E-14
 -1      1128 8.56737E-03 3.41364E-04-5.47475E-14
 -1      1129 8.35270E-03 3.21333E-04-5.08346E-14
 -1      1130 0.00000E+00 0.00000E+00 0.00000E+00
 -1      1131 0.00000E+00 0.00000E+00 0.00000E+00
 -1      1132 0.00000E+00 0.00000E+00 0.00000E+00
 -1      1133 0.00000E+00 0.00000E+00 0.00000E+00
 -1      1134 0.00000E+00 0.00000E+00 0.00000E+00
 -1      1135 0.00000E+00 0.00000E+00 0.00000E+00
 -1      1136 0.00000E+00 0.00000E+00 0.00000E+00
 -1      1137 0.00000E+00 0.00000E+00 0.00000E+00
 -1      1138 0.00000E+00 0.00000E+00 0.00000E+00
 -1      1139 0.00000E+00 0.00000E+00 0.00000E+00
 -1      1140 0.00000E+00 0.00000E+00 0.00000E+00
 -1      1141 0.00000E+00 0.00000E+00 0.00000E+00
 -1      1142 0.00000E+00 0.00000E+00 0.00000E+00
 -1      1143 0.00000E+00 0.00000E+00 0.00000E+00
 -1      1144 0.00000E+00 0.00000E+00 0.00000E+00
 -1      1145 0.00000E+00 0.00000E+00 0.00000E+00
 -1      1146 0.00000E+00 0.00000E+00 0.00000E+00
 -1      1147 2.10307E-04-1.44650E-04 2.60344E-17
 -1      1148 5.52059E-04-3.23267E-04-2.68882E-17
 -1      1149 8.40519E-04-4.33361E-04-2.35435E-16
 -1      1150 1.12084E-03-5.04514E-04-6.26520E-16
 -1      1151 1.40122E-03-5.52758E-04-1.19231E-15
 -1      1152 1.68580E-03-5.86757E-04-1.93077E-15
 -1      1153 1.97715E-03-6.12350E-04-2.84127E-15
 -1      1154 2.27677E-03-6.34398E-04-3.92320E-15
 -1      1155 2.58530E-03-6.57502E-04-5.17373E-15
 -1      1156 2.90231E-03-6.86173E-04-6.59229E-15
 -1      1157 3.22608E-03-7.24595E-04-8.17544E-15
 -1      1158 3.55322E-03-7.75939E-04-9.92129E-15
 -1      1159 3.87852E-03-8.41127E-04-1.18303E-14
 -1      1160 4.19545E-03-9.17228E-04-1.39059E-14
 -1      1161 4.49756E-03-9.96104E-04-1.61472E-14
 -1      1162 4.78091E-03-1.06452E-03-1.85601E-14
 -1      1163 5.04658E-03-1.10683E-03-2.11439E-14
 -1      1164 5.30162E-03-1.11011E-03-2.39014E-14
 -1      1165 5.55724E-03-1.06944E-03-2.68402E-14
 -1      1166 5.82459E-03-9.90142E-04-2.99612E-14
 -1      1167 6.11065E-03-8.85401E-04-3.32570E-14
 -1      1168 6.41647E-03-7.71028E-04-3.67201E-14
 -1      1169 6.73819E-03-6.60403E-04-4.03380E-14
 -1      1170 7.06955E-03-5.61892E-04-4.41073E-14
 -1      1171 7.40427E-03-4.78829E-04-4.80211E-14
 -1      1172 7.73744E-03-4.10925E-04-5.20681E-14
 -1      1173 8.06593E-03-3.55922E-04-5.62450E-14
 -1      1174 8.38816E-03-3.10873E-04-6.05513E-14
 -1      1175 8.70376E-03-2.72908E-04-6.49898E-14
 -1      1176 9.01308E-03-2.39599E-04-6.95518E-14
 -1      1177 9.31685E-03-2.09060E-04-7.42264E-14
 -1      1178 9.61596E-03-1.79918E-04-7.90095E-14
 -1      1179 9.91131E-03-1.51233E-04-8.38938E-14
 -1      1180 1.02037E-02-1.22402E-04-8.88826E-14
 -1      1181 1.04939E-02-9.30685E-05-9.39680E-14
 -1      1182 1.07824E-02-6.30505E-05-9.91410E-14
 -1      1183 1.10698E-02-3.22845E-05-1.04396E-13
 -1      1184 1.13563E-02-7.81964E-07-1.09731E-13
 -1      1185 1.16423E-02 3.14011E-05-1.15147E-13
 -1      1186 1.19279E-02 6.41855E-05-1.20650E-13
 -1      1187 1.22133E-02 9.74831E-05-1.26241E-13
 -1      1188 1.24987E-02 1.31206E-04-1.31910E-13
 -1      1189 1.27840E-02 1.65270E-04-1.37653E-13
 -1      1190 1.30694E-02 1.99599E-04-1.43466E-13
 -1      1191 1.33548E-02 2.34127E-04-1.49358E-13
 -1      1192 1.36402E-02 2.68791E-04-1.55303E-13
 -1      1193 1.39258E-02 3.03539E-04-1.61295E-13
 -1      1194 1.42114E-02 3.38323E-04-1.67324E-13
 -1      1195 1.44971E-02 3.73100E-04-1.73390E-13
 -1      1196 1.47756E-02 4.06977E-04-1.79332E-13
 -1      1197 2.26615E-04 1.56548E-04 4.11997E-17
 -1      1198 5.53951E-04 3.26745E-04 1.94208E-17
 -1      1199 8.41542E-04 4.33482E-04-1.47723E-16
 -1      1200 1.12255E-03 5.02909E-04-4.81006E-16
 -1      1201 1.40432E-03 5.49476E-04-9.80742E-16
 -1      1202 1.69147E-03 5.81408E-04-1.64681E-15
 -1      1203 1.98724E-03 6.04516E-04-2.47817E-15
 -1      1204 2.29418E-03 6.23957E-04-3.47214E-15
 -1      1205 2.61429E-03 6.45130E-04-4.62828E-15
 -1      1206 2.94889E-03 6.74185E-04-5.94846E-15
 -1      1207 3.29795E-03 7.18204E-04-7.43511E-15
 -1      1208 3.65915E-03 7.84742E-04-9.08819E-15
 -1      1209 4.02655E-03 8.80156E-04-1.09078E-14
 -1      1210 4.38986E-03 1.00609E-03-1.28976E-14
 -1      1211 4.73548E-03 1.15439E-03-1.50647E-14
 -1      1212 5.05109E-03 1.30325E-03-1.74168E-14
 -1      1213 5.33329E-03 1.41993E-03-1.99516E-14
 -1      1214 5.59330E-03 1.47315E-03-2.26789E-14
 -1      1215 5.85418E-03 1.45006E-03-2.56095E-14
 -1      1216 6.13882E-03 1.36450E-03-2.87323E-14
 -1      1217 6.45807E-03 1.24841E-03-3.20277E-14
 -1      1218 6.80818E-03 1.13466E-03-3.54841E-14
 -1      1219 7.17682E-03 1.04479E-03-3.90937E-14
 -1      1220 7.55059E-03 9.86821E-04-4.28582E-14
 -1      1221 7.91949E-03 9.59299E-04-4.67643E-14
 -1      1222 8.27795E-03 9.56433E-04-5.08093E-14
 -1      1223 8.62394E-03 9.71582E-04-5.49997E-14
 -1      1224 8.95767E-03 9.98932E-04-5.93272E-14
 -1      1225 9.28046E-03 1.03399E-03-6.37838E-14
 -1      1226 9.59407E-03 1.07355E-03-6.83557E-14
 -1      1227 9.90028E-03 1.11541E-03-7.30370E-14
 -1      1228 1.02007E-02 1.15816E-03-7.78353E-14
 -1      1229 1.04967E-02 1.20091E-03-8.27376E-14
 -1      1230 1.07894E-02 1.24316E-03-8.77287E-14
 -1      1231 1.10797E-02 1.28463E-03-9.28265E-14
 -1      1232 1.13682E-02 1.32523E-03-9.80267E-14
 -1      1233 1.16555E-02 1.36495E-03-1.03323E-13
 -1      1234 1.19420E-02 1.40384E-03-1.08712E-13
 -1      1235 1.22279E-02 1.44200E-03-1.14186E-13
 -1      1236 1.25135E-02 1.47953E-03-1.19737E-13
 -1      1237 1.27989E-02 1.51652E-03-1.25372E-13
 -1      1238 1.30843E-02 1.55307E-03-1.31078E-13
 -1      1239 1.33696E-02 1.58928E-03-1.36855E-13
 -1      1240 1.36549E-02 1.62522E-03-1.42706E-13
 -1      1241 1.39403E-02 1.66095E-03-1.48615E-13
 -1      1242 1.42258E-02 1.69655E-03-1.54566E-13
 -1      1243 1.45113E-02 1.73207E-03-1.60542E-13
 -1      1244 1.47969E-02 1.76755E-03-1.66545E-13
 -1      1245 1.50826E-02 1.80303E-03-1.72575E-13
 -1      1246 1.53612E-02 1.83766E-03-1.78459E-13
 -1      1247 1.54794E-02 1.81240E-03-1.81367E-13
 -1      1248 1.54445E-02 1.72811E-03-1.81491E-13
 -1      1249 1.54095E-02 1.64379E-03-1.81593E-13
 -1      1250 1.53744E-02 1.55941E-03-1.81673E-13
 -1      1251 1.53395E-02 1.47498E-03-1.81745E-13
 -1      1252 1.53049E-02 1.39122E-03-1.81811E-13
 -1      1253 1.52703E-02 1.30741E-03-1.81877E-13
 -1      1254 1.52356E-02 1.22285E-03-1.81944E-13
 -1      1255 1.52010E-02 1.13829E-03-1.82022E-13
 -1      1256 1.51665E-02 1.05372E-03-1.82088E-13
 -1      1257 1.51322E-02 9.69171E-04-1.82142E-13
 -1      1258 1.50982E-02 8.85365E-04-1.82193E-13
 -1      1259 1.50643E-02 8.01600E-04-1.82236E-13
 -1      1260 1.50302E-02 7.17171E-04-1.82256E-13
 -1      1261 1.49961E-02 6.32797E-04-1.82266E-13
 -1      1262 1.49620E-02 5.48475E-04-1.82266E-13
 -1      1263 1.49281E-02 4.64899E-04-1.82249E-13
 -1      1264 7.68687E-03 3.11949E-04-3.11437E-14
 -1      1265 7.58528E-03 4.61131E-04-3.07364E-14
 -1      1266 7.37703E-03 6.14724E-04-3.00320E-14
 -1      1267 7.07695E-03 7.71059E-04-2.90479E-14
 -1      1268 6.69763E-03 9.20277E-04-2.78136E-14
 -1      1269 6.26063E-03 1.04227E-03-2.63957E-14
 -1      1270 5.81585E-03 1.10895E-03-2.49646E-14
 -1      1271 5.36667E-03 1.11534E-03-2.35562E-14
 -1      1272 4.90541E-03 1.05524E-03-2.21782E-14
 -1      1273 4.44630E-03 9.37100E-04-2.08939E-14
 -1      1274 4.04083E-03 7.88109E-04-1.98470E-14
 -1      1275 3.68126E-03 6.16090E-04-1.89918E-14
 -1      1276 3.41013E-03 4.45818E-04-1.84080E-14
 -1      1277 3.25165E-03 2.89192E-04-1.81011E-14
 -1      1278 3.20390E-03 1.36504E-04-1.80507E-14
 -1      1279 3.27079E-03-9.25929E-06-1.82584E-14
 -1      1280 3.44265E-03-1.55905E-04-1.87164E-14
 -1      1281 3.73003E-03-3.14124E-04-1.94777E-14
 -1      1282 4.09474E-03-4.62669E-04-2.04756E-14
 -1      1283 4.50458E-03-5.82102E-04-2.16577E-14
 -1      1284 4.93712E-03-6.60932E-04-2.29744E-14
 -1      1285 5.37143E-03-6.83683E-04-2.43452E-14
 -1      1286 5.80949E-03-6.52914E-04-2.57496E-14
 -1      1287 6.22517E-03-5.72880E-04-2.70746E-14
 -1      1288 6.64028E-03-4.47569E-04-2.83675E-14
 -1      1289 7.01784E-03-2.98206E-04-2.94904E-14
 -1      1290 7.32548E-03-1.42652E-04-3.03484E-14
 -1      1291 7.55364E-03 1.48025E-05-3.09450E-14
 -1      1292 7.67618E-03 1.63152E-04-3.12150E-14
 -1      1293 1.67479E-04-1.06531E-04-4.06576E-20
 -1      1294 1.14270E-04-5.24319E-05-3.23228E-17
 -1      1295 1.19183E-04-6.35855E-05-2.35136E-17
 -1      1296 1.09882E-04-3.79951E-05-4.68646E-17
 -1      1297 1.11917E-04-4.44547E-05-4.23923E-17
 -1      1298 2.30005E-04-9.77812E-05-9.97059E-17
 -1      1299 1.07688E-04-2.77493E-05-5.51046E-17
 -1      1300 1.08868E-04-3.25411E-05-5.27193E-17
 -1      1301 2.21876E-04-7.13513E-05-1.26093E-16
 -1      1302 1.06143E-04-1.97336E-05-6.03087E-17
 -1      1303 1.06968E-04-2.35449E-05-5.89806E-17
 -1      1304 2.17145E-04-5.19193E-05-1.42112E-16
 -1      1305 1.04994E-04-1.33091E-05-6.31412E-17
 -1      1306 1.05590E-04-1.64003E-05-6.25314E-17
 -1      1307 2.13779E-04-3.66936E-05-1.51829E-16
 -1      1308 1.04154E-04-7.81237E-06-6.45778E-17
 -1      1309 1.04570E-04-1.04899E-05-6.43610E-17
 -1      1310 2.11266E-04-2.41785E-05-1.57318E-16
 -1      1311 1.03663E-04-2.99768E-06-6.50657E-17
 -1      1312 1.03883E-04-5.38563E-06-6.51063E-17
 -1      1313 2.09513E-04-1.34394E-05-1.59947E-16
 -1      1314 1.03549E-04 1.49288E-06-6.49031E-17
 -1      1315 1.03562E-04-7.82418E-07-6.49573E-17
 -1      1316 2.08580E-04-3.86347E-06-1.60435E-16
 -1      1317 1.03830E-04 6.02966E-06-6.40492E-17
 -1      1318 1.03630E-04 3.68396E-06-6.43067E-17
 -1      1319 2.08520E-04 5.26152E-06-1.59364E-16
 -1      1320 1.04506E-04 1.10018E-05-6.21248E-17
 -1      1321 1.04093E-04 8.39289E-06-6.27346E-17
 -1      1322 2.09362E-04 1.46702E-05-1.56410E-16
 -1      1323 1.05544E-04 1.67145E-05-5.89128E-17
 -1      1324 1.04931E-04 1.36950E-05-5.98751E-17
 -1      1325 2.11081E-04 2.50408E-05-1.50880E-16
 -1      1326 1.06992E-04 2.38227E-05-5.40475E-17
 -1      1327 1.06132E-04 2.00468E-05-5.56602E-17
 -1      1328 2.13667E-04 3.72712E-05-1.42342E-16
 -1      1329 1.08955E-04 3.28473E-05-4.67156E-17
 -1      1330 1.07737E-04 2.80323E-05-4.96158E-17
 -1      1331 2.17211E-04 5.24837E-05-1.29887E-16
 -1      1332 1.12000E-04 4.49137E-05-3.46403E-17
 -1      1333 1.09973E-04 3.83853E-05-3.97767E-17
 -1      1334 2.22100E-04 7.20461E-05-1.10833E-16
 -1      1335 1.18575E-04 6.34327E-05-1.53415E-17
 -1      1336 1.14021E-04 5.29813E-05-2.47334E-17
 -1      1337 2.30201E-04 9.90310E-05-8.18302E-17
 -1      1338 1.57917E-04 1.06281E-04 1.49349E-17
 -1      1339 1.37187E-04 8.20154E-05-3.80826E-18
 -1      1340 2.59826E-04 1.42796E-04-4.68782E-17
 -1      1341 3.36555E-04 2.11623E-04 3.33392E-18
 -1      1342 4.24470E-04-2.49772E-04-5.15538E-17
 -1      1343 5.80119E-04-3.18845E-04-1.20170E-16
 -1      1344 7.30680E-04-3.73519E-04-2.35977E-16
 -1      1345 8.78049E-04-4.17049E-04-3.95381E-16
 -1      1346 6.21461E-04-3.09035E-04-2.27994E-16
 -1      1347 1.02317E-03-4.52611E-04-5.97097E-16
 -1      1348 1.16703E-03-4.81430E-04-8.42357E-16
 -1      1349 9.22782E-04-3.97880E-04-5.61319E-16
 -1      1350 1.31054E-03-5.05413E-04-1.13009E-15
 -1      1351 1.45423E-03-5.25164E-04-1.46095E-15
 -1      1352 1.21637E-03-4.56523E-04-1.06336E-15
 -1      1353 1.59864E-03-5.41835E-04-1.83428E-15
 -1      1354 1.74409E-03-5.55931E-04-2.25055E-15
 -1      1355 1.50801E-03-4.96222E-04-1.73434E-15
 -1      1356 1.89089E-03-5.68245E-04-2.70904E-15
 -1      1357 2.03922E-03-5.79296E-04-3.21011E-15
 -1      1358 1.80146E-03-5.24101E-04-2.57407E-15
 -1      1359 2.18925E-03-5.89752E-04-3.75328E-15
 -1      1360 2.34105E-03-6.00137E-04-4.33842E-15
 -1      1361 2.09907E-03-5.45612E-04-3.58182E-15
 -1      1362 2.49467E-03-6.11099E-04-4.96566E-15
 -1      1363 2.65006E-03-6.23152E-04-5.63442E-15
 -1      1364 2.40213E-03-5.65667E-04-4.75654E-15
 -1      1365 2.80716E-03-6.36953E-04-6.34490E-15
 -1      1366 2.96577E-03-6.52959E-04-7.09628E-15
 -1      1367 2.71111E-03-5.89056E-04-6.09673E-15
 -1      1368 3.12566E-03-6.71792E-04-7.88756E-15
 -1      1369 3.28648E-03-6.93768E-04-8.71985E-15
 -1      1370 3.02560E-03-6.20469E-04-7.60031E-15
 -1      1371 3.44784E-03-7.19342E-04-9.59261E-15
 -1      1372 3.60920E-03-7.48551E-04-1.05061E-14
 -1      1373 3.34419E-03-6.64068E-04-9.26519E-15
 -1      1374 3.77000E-03-7.81461E-04-1.14602E-14
 -1      1375 3.92961E-03-8.17646E-04-1.24557E-14
 -1      1376 3.66444E-03-7.22509E-04-1.10912E-14
 -1      1377 4.08738E-03-8.56507E-04-1.34921E-14
 -1      1378 4.24271E-03-8.97004E-04-1.45701E-14
 -1      1379 3.98286E-03-7.95372E-04-1.30806E-14
 -1      1380 4.39505E-03-9.37698E-04-1.56897E-14
 -1      1381 4.54404E-03-9.76934E-04-1.68520E-14
 -1      1382 4.29550E-03-8.77337E-04-1.52338E-14
 -1      1383 4.68950E-03-1.01258E-03-1.80575E-14
 -1      1384 4.83155E-03-1.04267E-03-1.93056E-14
 -1      1385 4.59896E-03-9.57106E-04-1.75560E-14
 -1      1386 4.97053E-03-1.06499E-03-2.05964E-14
 -1      1387 5.10714E-03-1.07790E-03-2.19303E-14
 -1      1388 4.89196E-03-1.01856E-03-2.00499E-14
 -1      1389 5.24225E-03-1.07996E-03-2.33093E-14
 -1      1390 5.37695E-03-1.07056E-03-2.47325E-14
 -1      1391 5.17657E-03-1.04516E-03-2.27178E-14
 -1      1392 5.51231E-03-1.04973E-03-2.62017E-14
 -1      1393 5.64942E-03-1.01813E-03-2.77156E-14
 -1      1394 5.45821E-03-1.02630E-03-2.55634E-14
 -1      1395 5.78914E-03-9.77248E-04-2.92743E-14
 -1      1396 5.93215E-03-9.28748E-04-3.08777E-14
 -1      1397 5.74369E-03-9.62219E-04-2.85893E-14
 -1      1398 6.07880E-03-8.74877E-04-3.25245E-14
 -1      1399 6.22921E-03-8.17619E-04-3.42132E-14
 -1      1400 6.03836E-03-8.63847E-04-3.17933E-14
 -1      1401 6.38320E-03-7.59109E-04-3.59433E-14
 -1      1402 6.54041E-03-7.01034E-04-3.77135E-14
 -1      1403 6.34428E-03-7.47927E-04-3.51690E-14
 -1      1404 6.70032E-03-6.44835E-04-3.95228E-14
 -1      1405 6.86233E-03-5.91593E-04-4.13684E-14
 -1      1406 6.66020E-03-6.30691E-04-3.87080E-14
 -1      1407 7.02583E-03-5.41931E-04-4.32519E-14
 -1      1408 7.19019E-03-4.96334E-04-4.51731E-14
 -1      1409 6.98277E-03-5.23588E-04-4.24002E-14
 -1      1410 7.35488E-03-4.54790E-04-4.71288E-14
 -1      1411 7.51941E-03-4.17350E-04-4.91189E-14
 -1      1412 7.30817E-03-4.32230E-04-4.62387E-14
 -1      1413 7.68338E-03-3.83649E-04-5.11425E-14
 -1      1414 7.84647E-03-3.53488E-04-5.31969E-14
 -1      1415 7.63304E-03-3.57551E-04-5.02164E-14
 -1      1416 8.00846E-03-3.26379E-04-5.52850E-14
 -1      1417 8.16916E-03-3.02019E-04-5.74050E-14
 -1      1418 7.95499E-03-2.97673E-04-5.43270E-14
 -1      1419 8.32850E-03-2.79938E-04-5.95575E-14
 -1      1420 8.48641E-03-2.59817E-04-6.17426E-14
 -1      1421 8.27263E-03-2.49532E-04-5.85643E-14
 -1      1422 8.64290E-03-2.41271E-04-6.39596E-14
 -1      1423 8.79800E-03-2.24011E-04-6.62074E-14
 -1      1424 8.58536E-03-2.09914E-04-6.29313E-14
 -1      1425 8.95177E-03-2.07750E-04-6.84858E-14
 -1      1426 9.10426E-03-1.92251E-04-7.07926E-14
 -1      1427 8.89319E-03-1.76002E-04-6.74225E-14
 -1      1428 9.25558E-03-1.77319E-04-7.31284E-14
 -1      1429 9.40582E-03-1.62767E-04-7.54917E-14
 -1      1430 9.19649E-03-1.45558E-04-7.20324E-14
 -1      1431 9.55506E-03-1.48473E-04-7.78809E-14
 -1      1432 9.70340E-03-1.34299E-04-8.02959E-14
 -1      1433 9.49581E-03-1.16935E-04-7.67542E-14
 -1      1434 9.85094E-03-1.20177E-04-8.27373E-14
 -1      1435 9.99776E-03-1.06009E-04-8.52034E-14
 -1      1436 9.79178E-03-8.89897E-05-8.15821E-14
 -1      1437 1.01439E-02-9.17630E-05-8.76971E-14
 -1      1438 1.02896E-02-7.73743E-05-9.02155E-14
 -1      1439 1.00850E-02-6.09781E-05-8.65134E-14
 -1      1440 1.04347E-02-6.28343E-05-9.27553E-14
 -1      1441 1.05794E-02-4.81029E-05-9.53184E-14
 -1      1442 1.03761E-02-3.24556E-05-9.15455E-14
 -1      1443 1.07238E-02-3.31863E-05-9.79040E-14
 -1      1444 1.08678E-02-1.80620E-05-1.00510E-13
 -1      1445 1.06655E-02-3.18811E-06-9.66689E-14
 -1      1446 1.10116E-02-2.74422E-06-1.03138E-13
 -1      1447 1.11552E-02 1.27772E-05-1.05786E-13
 -1      1448 1.09537E-02 2.69148E-05-1.01881E-13
 -1      1449 1.12986E-02 2.84840E-05-1.08454E-13
 -1      1450 1.14418E-02 4.43784E-05-1.11143E-13
 -1      1451 1.12410E-02 5.78516E-05-1.07177E-13
 -1      1452 1.15849E-02 6.04412E-05-1.13850E-13
 -1      1453 1.17279E-02 7.66693E-05-1.16578E-13
 -1      1454 1.15276E-02 8.95657E-05-1.12553E-13
 -1      1455 1.18708E-02 9.30442E-05-1.19330E-13
 -1      1456 1.20137E-02 1.09560E-04-1.22103E-13
 -1      1457 1.18137E-02 1.21971E-04-1.18011E-13
 -1      1458 1.21565E-02 1.26200E-04-1.24895E-13
 -1      1459 1.22993E-02 1.42956E-04-1.27709E-13
 -1      1460 1.20996E-02 1.54970E-04-1.23553E-13
 -1      1461 1.24420E-02 1.59813E-04-1.30543E-13
 -1      1462 1.25847E-02 1.76765E-04-1.33394E-13
 -1      1463 1.23853E-02 1.88462E-04-1.29176E-13
 -1      1464 1.27275E-02 1.93797E-04-1.36263E-13
 -1      1465 1.28702E-02 2.10903E-04-1.39149E-13
 -1      1466 1.26708E-02 2.22355E-04-1.34876E-13
 -1      1467 1.30129E-02 2.28070E-04-1.42055E-13
 -1      1468 1.31556E-02 2.45292E-04-1.44977E-13
 -1      1469 1.29564E-02 2.56562E-04-1.40645E-13
 -1      1470 1.32984E-02 2.62560E-04-1.47917E-13
 -1      1471 1.34411E-02 2.79866E-04-1.50874E-13
 -1      1472 1.32419E-02 2.91007E-04-1.46485E-13
 -1      1473 1.35839E-02 2.97203E-04-1.53843E-13
 -1      1474 1.37266E-02 3.14565E-04-1.56825E-13
 -1      1475 1.35275E-02 3.25623E-04-1.52388E-13
 -1      1476 1.38694E-02 3.31944E-04-1.59818E-13
 -1      1477 1.40122E-02 3.49335E-04-1.62821E-13
 -1      1478 1.38130E-02 3.60351E-04-1.58346E-13
 -1      1479 1.41550E-02 3.66731E-04-1.65836E-13
 -1      1480 1.42979E-02 3.84128E-04-1.68857E-13
 -1      1481 1.40987E-02 3.95137E-04-1.64348E-13
 -1      1482 1.44407E-02 4.01520E-04-1.71887E-13
 -1      1483 1.45835E-02 4.18904E-04-1.74927E-13
 -1      1484 1.43843E-02 4.29935E-04-1.70387E-13
 -1      1485 1.47924E-02 4.48406E-04-1.79346E-13
 -1      1486 1.47360E-02 4.76839E-04-1.77833E-13
 -1      1487 6.49535E-04 3.50248E-04-9.29974E-17
 -1      1488 4.96455E-04 2.88318E-04-2.42590E-17
 -1      1489 4.50383E-04 2.50450E-04-6.15149E-17
 -1      1490 9.43974E-04 4.37625E-04-3.52244E-16
 -1      1491 7.98190E-04 3.98357E-04-2.02366E-16
 -1      1492 7.57151E-04 3.62218E-04-2.48215E-16
 -1      1493 1.23194E-03 4.95217E-04-7.73822E-16
 -1      1494 1.08818E-03 4.69311E-04-5.42264E-16
 -1      1495 1.05345E-03 4.34955E-04-5.95430E-16
 -1      1496 1.52051E-03 5.33850E-04-1.36005E-15
 -1      1497 1.37577E-03 5.16442E-04-1.04635E-15
 -1      1498 1.34565E-03 4.82952E-04-1.10395E-15
 -1      1499 1.81409E-03 5.60323E-04-2.11087E-15
 -1      1500 1.66643E-03 5.48249E-04-1.71468E-15
 -1      1501 1.63903E-03 5.14895E-04-1.77529E-15
 -1      1502 2.11569E-03 5.80045E-04-3.02463E-15
 -1      1503 1.96371E-03 5.70682E-04-2.54733E-15
 -1      1504 1.93725E-03 5.36882E-04-2.60931E-15
 -1      1505 2.42756E-03 5.98249E-04-4.10009E-15
 -1      1506 2.27021E-03 5.88967E-04-3.54239E-15
 -1      1507 2.24291E-03 5.54223E-04-3.60528E-15
 -1      1508 2.75124E-03 6.20693E-04-5.33770E-15
 -1      1509 2.58783E-03 6.08533E-04-4.69859E-15
 -1      1510 2.55785E-03 5.72387E-04-4.76180E-15
 -1      1511 3.08739E-03 6.54062E-04-6.73906E-15
 -1      1512 2.91774E-03 6.35578E-04-6.01782E-15
 -1      1513 2.88322E-03 5.97605E-04-6.07980E-15
 -1      1514 3.43513E-03 7.05970E-04-8.30557E-15
 -1      1515 3.25991E-03 6.77297E-04-7.50155E-15
 -1      1516 3.21921E-03 6.37152E-04-7.56105E-15
 -1      1517 3.79128E-03 7.84080E-04-1.00360E-14
 -1      1518 3.61244E-03 7.41512E-04-9.14974E-15
 -1      1519 3.56460E-03 6.99057E-04-9.20534E-15
 -1      1520 4.14965E-03 8.93669E-04-1.19355E-14
 -1      1521 3.97072E-03 8.35096E-04-1.09649E-14
 -1      1522 3.91613E-03 7.90621E-04-1.10147E-14
 -1      1523 4.50107E-03 1.03311E-03-1.40056E-14
 -1      1524 4.32694E-03 9.60495E-04-1.29485E-14
 -1      1525 4.26816E-03 9.15025E-04-1.29923E-14
 -1      1526 4.83537E-03 1.18837E-03-1.62551E-14
 -1      1527 4.67102E-03 1.11042E-03-1.51076E-14
 -1      1528 4.61300E-03 1.06589E-03-1.51432E-14
 -1      1529 5.14589E-03 1.33087E-03-1.86897E-14
 -1      1530 4.99378E-03 1.26338E-03-1.74489E-14
 -1      1531 4.94309E-03 1.22222E-03-1.74752E-14
 -1      1532 5.43478E-03 1.42470E-03-2.13113E-14
 -1      1533 5.29244E-03 1.38563E-03-1.99765E-14
 -1      1534 5.25522E-03 1.34958E-03-1.99924E-14
 -1      1535 5.71471E-03 1.44337E-03-2.41302E-14
 -1      1536 5.57467E-03 1.44373E-03-2.26957E-14
 -1      1537 5.55430E-03 1.41252E-03-2.27038E-14
 -1      1538 6.00349E-03 1.38611E-03-2.71481E-14
 -1      1539 5.85686E-03 1.42280E-03-2.56155E-14
 -1      1540 5.85279E-03 1.39401E-03-2.56129E-14
 -1      1541 6.31436E-03 1.27840E-03-3.03488E-14
 -1      1542 6.15567E-03 1.33622E-03-2.87264E-14
 -1      1543 6.16370E-03 1.30693E-03-2.87141E-14
 -1      1544 6.65017E-03 1.15644E-03-3.37176E-14
 -1      1545 6.47937E-03 1.21713E-03-3.20124E-14
 -1      1546 6.49329E-03 1.18551E-03-3.19924E-14
 -1      1547 7.00474E-03 1.04982E-03-3.72461E-14
 -1      1548 6.82573E-03 1.10008E-03-3.54631E-14
 -1      1549 6.83932E-03 1.06577E-03-3.54359E-14
 -1      1550 7.36808E-03 9.73734E-04-4.09250E-14
 -1      1551 7.18598E-03 1.00770E-03-3.90665E-14
 -1      1552 7.19472E-03 9.71297E-04-3.90338E-14
 -1      1553 7.73099E-03 9.30753E-04-4.47567E-14
 -1      1554 7.55010E-03 9.48362E-04-4.28232E-14
 -1      1555 7.55176E-03 9.10743E-04-4.27828E-14
 -1      1556 8.08724E-03 9.16405E-04-4.87245E-14
 -1      1557 7.91026E-03 9.20443E-04-4.67229E-14
 -1      1558 7.90453E-03 8.82395E-04-4.66758E-14
 -1      1559 8.43361E-03 9.23842E-04-5.28359E-14
 -1      1560 8.26179E-03 9.17840E-04-5.07615E-14
 -1      1561 8.24953E-03 8.79918E-04-5.07088E-14
 -1      1562 8.76922E-03 9.46461E-04-5.70856E-14
 -1      1563 8.60277E-03 9.33614E-04-5.49442E-14
 -1      1564 8.58533E-03 8.96149E-04-5.48829E-14
 -1      1565 9.09459E-03 9.78927E-04-6.14701E-14
 -1      1566 8.93312E-03 9.61731E-04-5.92616E-14
 -1      1567 8.91185E-03 9.24882E-04-5.91920E-14
 -1      1568 9.41096E-03 1.01732E-03-6.59746E-14
 -1      1569 9.25381E-03 9.97569E-04-6.37077E-14
 -1      1570 9.22989E-03 9.61375E-04-6.36290E-14
 -1      1571 9.71982E-03 1.05891E-03-7.05943E-14
 -1      1572 9.56623E-03 1.03784E-03-6.82710E-14
 -1      1573 9.54057E-03 1.00227E-03-6.81817E-14
 -1      1574 1.00226E-02 1.10193E-03-7.53237E-14
 -1      1575 9.87188E-03 1.08033E-03-7.29446E-14
 -1      1576 9.84516E-03 1.04531E-03-7.28479E-14
 -1      1577 1.03206E-02 1.14523E-03-8.01683E-14
 -1      1578 1.01721E-02 1.12359E-03-7.77318E-14
 -1      1579 1.01448E-02 1.08906E-03-7.76269E-14
 -1      1580 1.06150E-02 1.18815E-03-8.51070E-14
 -1      1581 1.04682E-02 1.16677E-03-8.26267E-14
 -1      1582 1.04407E-02 1.13263E-03-8.25115E-14
 -1      1583 1.09067E-02 1.23033E-03-9.01477E-14
 -1      1584 1.07611E-02 1.20935E-03-8.76146E-14
 -1      1585 1.07335E-02 1.17553E-03-8.74947E-14
 -1      1586 1.11963E-02 1.27160E-03-9.52875E-14
 -1      1587 1.10517E-02 1.25108E-03-9.27041E-14
 -1      1588 1.10242E-02 1.21751E-03-9.25772E-14
 -1      1589 1.14844E-02 1.31193E-03-1.00528E-13
 -1      1590 1.13405E-02 1.29188E-03-9.78956E-14
 -1      1591 1.13132E-02 1.25851E-03-9.77609E-14
 -1      1592 1.17716E-02 1.35135E-03-1.05862E-13
 -1      1593 1.16281E-02 1.33175E-03-1.03183E-13
 -1      1594 1.16009E-02 1.29853E-03-1.03040E-13
 -1      1595 1.20580E-02 1.38997E-03-1.11285E-13
 -1      1596 1.19149E-02 1.37076E-03-1.08563E-13
 -1      1597 1.18879E-02 1.33765E-03-1.08411E-13
 -1      1598 1.23440E-02 1.42786E-03-1.16789E-13
 -1      1599 1.22010E-02 1.40900E-03-1.14028E-13
 -1      1600 1.21742E-02 1.37597E-03-1.13866E-13
 -1      1601 1.26296E-02 1.46516E-03-1.22375E-13
 -1      1602 1.24868E-02 1.44658E-03-1.19573E-13
 -1      1603 1.24602E-02 1.41361E-03-1.19403E-13
 -1      1604 1.29151E-02 1.50195E-03-1.28036E-13
 -1      1605 1.27724E-02 1.48361E-03-1.25196E-13
 -1      1606 1.27459E-02 1.45068E-03-1.25020E-13
 -1      1607 1.32006E-02 1.53834E-03-1.33773E-13
 -1      1608 1.30579E-02 1.52019E-03-1.30895E-13
 -1      1609 1.30315E-02 1.48729E-03-1.30711E-13
 -1      1610 1.34860E-02 1.57441E-03-1.39580E-13
 -1      1611 1.33433E-02 1.55641E-03-1.36666E-13
 -1      1612 1.33170E-02 1.52353E-03-1.36475E-13
 -1      1613 1.37714E-02 1.61024E-03-1.45448E-13
 -1      1614 1.36287E-02 1.59235E-03-1.42508E-13
 -1      1615 1.36025E-02 1.55948E-03-1.42307E-13
 -1      1616 1.40569E-02 1.64590E-03-1.51373E-13
 -1      1617 1.39142E-02 1.62809E-03-1.48405E-13
 -1      1618 1.38880E-02 1.59522E-03-1.48196E-13
 -1      1619 1.43424E-02 1.68145E-03-1.57329E-13
 -1      1620 1.41997E-02 1.66369E-03-1.54347E-13
 -1      1621 1.41735E-02 1.63082E-03-1.54128E-13
 -1      1622 1.46280E-02 1.71694E-03-1.63316E-13
 -1      1623 1.44852E-02 1.69920E-03-1.60318E-13
 -1      1624 1.44591E-02 1.66633E-03-1.60093E-13
 -1      1625 1.49137E-02 1.75241E-03-1.69325E-13
 -1      1626 1.47709E-02 1.73467E-03-1.66316E-13
 -1      1627 1.47448E-02 1.70180E-03-1.66087E-13
 -1      1628 1.51994E-02 1.78790E-03-1.75355E-13
 -1      1629 1.50565E-02 1.77015E-03-1.72340E-13
 -1      1630 1.50304E-02 1.73727E-03-1.72104E-13
 -1      1631 1.53437E-02 1.79552E-03-1.78510E-13
 -1      1632 1.53120E-02 1.69164E-03-1.78903E-13
 -1      1633 1.53295E-02 1.73379E-03-1.78848E-13
 -1      1634 1.52770E-02 1.60730E-03-1.79001E-13
 -1      1635 1.52945E-02 1.64947E-03-1.78956E-13
 -1      1636 1.51795E-02 1.65517E-03-1.76317E-13
 -1      1637 1.52420E-02 1.52292E-03-1.79083E-13
 -1      1638 1.52595E-02 1.56512E-03-1.79042E-13
 -1      1639 1.51445E-02 1.57083E-03-1.76413E-13
 -1      1640 1.52070E-02 1.43850E-03-1.79159E-13
 -1      1641 1.52245E-02 1.48072E-03-1.79122E-13
 -1      1642 1.51095E-02 1.48646E-03-1.76496E-13
 -1      1643 1.51727E-02 1.35547E-03-1.79226E-13
 -1      1644 1.51898E-02 1.39699E-03-1.79193E-13
 -1      1645 1.50748E-02 1.40276E-03-1.76573E-13
 -1      1646 1.51379E-02 1.27098E-03-1.79295E-13
 -1      1647 1.51553E-02 1.31323E-03-1.79262E-13
 -1      1648 1.50403E-02 1.31904E-03-1.76644E-13
 -1      1649 1.51032E-02 1.18647E-03-1.79363E-13
 -1      1650 1.51205E-02 1.22872E-03-1.79326E-13
 -1      1651 1.50055E-02 1.23458E-03-1.76712E-13
 -1      1652 1.50686E-02 1.10195E-03-1.79431E-13
 -1      1653 1.50859E-02 1.14421E-03-1.79398E-13
 -1      1654 1.49708E-02 1.15010E-03-1.76778E-13
 -1      1655 1.50342E-02 1.01743E-03-1.79492E-13
 -1      1656 1.50514E-02 1.05969E-03-1.79464E-13
 -1      1657 1.49363E-02 1.06563E-03-1.76842E-13
 -1      1658 1.49998E-02 9.32927E-04-1.79544E-13
 -1      1659 1.50170E-02 9.75176E-04-1.79519E-13
 -1      1660 1.49018E-02 9.81152E-04-1.76899E-13
 -1      1661 1.49662E-02 8.49883E-04-1.79582E-13
 -1      1662 1.49830E-02 8.91402E-04-1.79564E-13
 -1      1663 1.48678E-02 8.97409E-04-1.76940E-13
 -1      1664 1.49320E-02 7.65442E-04-1.79614E-13
 -1      1665 1.49491E-02 8.07658E-04-1.79601E-13
 -1      1666 1.48339E-02 8.13687E-04-1.76972E-13
 -1      1667 1.48979E-02 6.81043E-04-1.79625E-13
 -1      1668 1.49150E-02 7.23237E-04-1.79623E-13
 -1      1669 1.47998E-02 7.29279E-04-1.76991E-13
 -1      1670 1.48638E-02 5.96688E-04-1.79629E-13
 -1      1671 1.48809E-02 6.38860E-04-1.79626E-13
 -1      1672 1.47657E-02 6.44905E-04-1.76995E-13
 -1      1673 1.47914E-02 5.15681E-04-1.78731E-13
 -1      1674 1.48085E-02 5.57837E-04-1.78737E-13
 -1      1675 1.46933E-02 5.63873E-04-1.76102E-13
 -1      1676 1.45825E-02 4.86171E-04-1.74316E-13
 -1      1677 7.68406E-03 3.11361E-04-3.18930E-14
 -1      1678 7.71323E-03 2.65907E-04-3.20230E-14
 -1      1679 7.53165E-03 4.23178E-04-3.12887E-14
 -1      1680 7.61416E-03 3.72610E-04-3.15563E-14
 -1      1681 7.24870E-03 5.61120E-04-3.04775E-14
 -1      1682 7.39453E-03 4.88351E-04-3.09379E-14
 -1      1683 6.91466E-03 7.41310E-04-2.92338E-14
 -1      1684 7.07575E-03 6.63483E-04-2.97683E-14
 -1      1685 6.49006E-03 9.26910E-04-2.78178E-14
 -1      1686 6.69134E-03 8.35967E-04-2.85406E-14
 -1      1687 6.08756E-03 1.08072E-03-2.62305E-14
 -1      1688 6.27179E-03 1.01916E-03-2.69327E-14
 -1      1689 5.68523E-03 1.16200E-03-2.46591E-14
 -1      1690 5.86867E-03 1.13484E-03-2.53909E-14
 -1      1691 5.29859E-03 1.15057E-03-2.31630E-14
 -1      1692 5.47467E-03 1.16617E-03-2.38337E-14
 -1      1693 4.89618E-03 1.04791E-03-2.16280E-14
 -1      1694 5.08923E-03 1.11094E-03-2.23151E-14
 -1      1695 4.47203E-03 8.66699E-04-2.02909E-14
 -1      1696 4.66330E-03 9.55016E-04-2.08628E-14
 -1      1697 4.04671E-03 6.81870E-04-1.93152E-14
 -1      1698 4.22740E-03 7.70664E-04-1.97653E-14
 -1      1699 3.66964E-03 4.75253E-04-1.83844E-14
 -1      1700 3.84652E-03 5.63742E-04-1.87555E-14
 -1      1701 3.38032E-03 3.38766E-04-1.79281E-14
 -1      1702 3.49217E-03 4.00705E-04-1.81293E-14
 -1      1703 3.21802E-03 2.18750E-04-1.76398E-14
 -1      1704 3.27830E-03 2.69619E-04-1.77295E-14
 -1      1705 3.19426E-03 1.18188E-04-1.76824E-14
 -1      1706 3.18737E-03 1.64026E-04-1.76413E-14
 -1      1707 3.30598E-03 1.77411E-05-1.79298E-14
 -1      1708 3.23883E-03 6.55250E-05-1.77712E-14
 -1      1709 3.53767E-03-1.08320E-04-1.84753E-14
 -1      1710 3.41649E-03-4.66135E-05-1.81901E-14
 -1      1711 3.90859E-03-2.63615E-04-1.92721E-14
 -1      1712 3.72865E-03-1.78930E-04-1.88171E-14
 -1      1713 4.27526E-03-4.54667E-04-2.04623E-14
 -1      1714 4.10027E-03-3.77566E-04-1.99566E-14
 -1      1715 4.70967E-03-6.11691E-04-2.17223E-14
 -1      1716 4.51904E-03-5.37704E-04-2.10695E-14
 -1      1717 5.07492E-03-7.07127E-04-2.31867E-14
 -1      1718 4.90573E-03-6.72788E-04-2.25525E-14
 -1      1719 5.46269E-03-7.30788E-04-2.47068E-14
 -1      1720 5.28366E-03-7.31711E-04-2.39826E-14
 -1      1721 5.84416E-03-6.66312E-04-2.62055E-14
 -1      1722 5.67239E-03-7.03410E-04-2.55302E-14
 -1      1723 6.22559E-03-5.40766E-04-2.76386E-14
 -1      1724 6.04832E-03-6.06022E-04-2.69862E-14
 -1      1725 6.61479E-03-3.53426E-04-2.91577E-14
 -1      1726 6.42380E-03-4.43259E-04-2.85092E-14
 -1      1727 7.01855E-03-1.84149E-04-3.02198E-14
 -1      1728 6.84989E-03-2.65157E-04-2.97240E-14
 -1      1729 7.34768E-03-2.36047E-05-3.11138E-14
 -1      1730 7.20284E-03-9.50870E-05-3.07361E-14
 -1      1731 7.58873E-03 1.16157E-04-3.17965E-14
 -1      1732 7.48913E-03 6.02650E-05-3.15669E-14
 -1      1733 7.70390E-03 2.12704E-04-3.19202E-14
 -1      1734 7.66748E-03 1.68762E-04-3.18678E-14
 -1      1735 6.73580E-03 7.55106E-04-2.92697E-14
 -1      1736 7.12462E-03 5.57052E-04-3.06939E-14
 -1      1737 1.53176E-02 1.76263E-03-1.78275E-13
 -1      1738 1.51851E-02 1.72618E-03-1.75690E-13
 -1      1739 7.65376E-03 3.11106E-04-3.24779E-14
 -1      1740 7.44091E-03 4.09196E-04-3.17789E-14
 -1      1741 7.71898E-03 2.46347E-04-3.27140E-14
 -1      1742 6.32892E-03 9.61009E-04-2.76640E-14
 -1      1743 5.93783E-03 1.12310E-03-2.59246E-14
 -1      1744 5.57887E-03 1.19101E-03-2.42520E-14
 -1      1745 5.21746E-03 1.15137E-03-2.25811E-14
 -1      1746 4.84503E-03 1.00006E-03-2.09835E-14
 -1      1747 4.42493E-03 7.87534E-04-1.97191E-14
 -1      1748 3.99568E-03 5.65666E-04-1.86532E-14
 -1      1749 3.61718E-03 3.82674E-04-1.78645E-14
 -1      1750 3.33311E-03 2.60034E-04-1.74248E-14
 -1      1751 3.19412E-03 1.77682E-04-1.72357E-14
 -1      1752 3.20935E-03 1.08973E-04-1.73247E-14
 -1      1753 3.37097E-03 2.77078E-05-1.76628E-14
 -1      1754 3.67312E-03-9.26778E-05-1.82466E-14
 -1      1755 4.05184E-03-2.72718E-04-1.92407E-14
 -1      1756 4.46882E-03-4.78106E-04-2.05137E-14
 -1      1757 4.84488E-03-6.48212E-04-2.19239E-14
 -1      1758 5.20291E-03-7.43856E-04-2.35411E-14
 -1      1759 5.54364E-03-7.42376E-04-2.51590E-14
 -1      1760 5.89910E-03-6.45485E-04-2.67708E-14
 -1      1761 6.26532E-03-4.73917E-04-2.84360E-14
 -1      1762 6.66154E-03-2.67989E-04-2.99016E-14
 -1      1763 7.06784E-03-8.36463E-05-3.10060E-14
 -1      1764 7.39942E-03 7.39463E-05-3.19948E-14
 -1      1765 7.62801E-03 1.74918E-04-3.25347E-14
 -1      1766 2.88259E-04-1.67706E-04-5.09439E-17
 -1      1767 3.35895E-04-1.00257E-04-2.02149E-16
 -1      1768 3.41061E-04-1.16851E-04-1.87377E-16
 -1      1769 3.47829E-04-1.36529E-04-1.69569E-16
 -1      1770 3.57744E-04-1.59478E-04-1.45107E-16
 -1      1771 4.65617E-04-1.66992E-04-2.71782E-16
 -1      1772 3.22870E-04-5.09012E-05-2.34852E-16
 -1      1773 3.25384E-04-6.11474E-05-2.29417E-16
 -1      1774 3.18850E-04-3.25641E-05-2.41777E-16
 -1      1775 3.20698E-04-4.13153E-05-2.38782E-16
 -1      1776 4.32733E-04-6.15379E-05-3.49872E-16
 -1      1777 3.16196E-04-1.67447E-05-2.44718E-16
 -1      1778 3.17355E-04-2.43882E-05-2.43647E-16
 -1      1779 4.27294E-04-3.80548E-05-3.58112E-16
 -1      1780 3.14968E-04-2.36788E-06-2.44894E-16
 -1      1781 3.15401E-04-9.42531E-06-2.45152E-16
 -1      1782 4.23889E-04-1.74607E-05-3.61337E-16
 -1      1783 3.15245E-04 1.16169E-05-2.42550E-16
 -1      1784 3.14914E-04 4.62236E-06-2.44135E-16
 -1      1785 4.22618E-04 1.61266E-06-3.60701E-16
 -1      1786 3.17064E-04 2.62949E-05-2.37237E-16
 -1      1787 3.15958E-04 1.88172E-05-2.40313E-16
 -1      1788 4.23583E-04 2.05253E-05-3.56188E-16
 -1      1789 3.20354E-04 4.25182E-05-2.27994E-16
 -1      1790 3.18517E-04 3.41359E-05-2.33253E-16
 -1      1791 4.26795E-04 4.05136E-05-3.47229E-16
 -1      1792 3.25254E-04 6.21204E-05-2.14401E-16
 -1      1793 3.22589E-04 5.18818E-05-2.22153E-16
 -1      1794 4.32254E-04 6.32241E-05-3.33257E-16
 -1      1795 3.31973E-04 8.64727E-05-1.94018E-16
 -1      1796 3.28336E-04 7.36523E-05-2.05429E-16
 -1      1797 4.40139E-04 9.06086E-05-3.12413E-16
 -1      1798 3.41601E-04 1.18105E-04-1.62644E-16
 -1      1799 3.36248E-04 1.01304E-04-1.80303E-16
 -1      1800 4.50947E-04 1.24734E-04-2.81079E-16
 -1      1801 3.58594E-04 1.62159E-04-1.15901E-16
 -1      1802 3.48726E-04 1.38373E-04-1.42017E-16
 -1      1803 4.66951E-04 1.69143E-04-2.34621E-16
 -1      1804 4.13925E-04 2.18358E-04-8.25484E-17
 -1      1805 3.84636E-04 1.87119E-04-1.04395E-16
 -1      1806 5.05140E-04 2.22246E-04-1.92825E-16
 -1      1807 5.67915E-04 2.80590E-04-1.58497E-16
 -1      1808 3.45310E-04-1.78637E-04-9.95704E-17
 -1      1809 8.71019E-04 3.72021E-04-4.30970E-16
 -1      1810 7.20221E-04 3.30849E-04-2.75184E-16
 -1      1811 6.86482E-04 3.00310E-04-2.97207E-16
 -1      1812 4.66917E-04-2.18696E-04-1.87079E-16
 -1      1813 8.23100E-04-3.42186E-04-5.19455E-16
 -1      1814 9.72749E-04-3.77528E-04-7.35306E-16
 -1      1815 1.12062E-03-4.06661E-04-9.92167E-16
 -1      1816 1.26805E-03-4.30346E-04-1.29093E-15
 -1      1817 1.02540E-03-3.56272E-04-9.16923E-16
 -1      1818 1.41498E-03-4.50066E-04-1.63106E-15
 -1      1819 1.56206E-03-4.66226E-04-2.01316E-15
 -1      1820 1.32106E-03-4.03568E-04-1.52489E-15
 -1      1821 1.70949E-03-4.79906E-04-2.43674E-15
 -1      1822 1.85759E-03-4.91504E-04-2.90223E-15
 -1      1823 1.61616E-03-4.35731E-04-2.29723E-15
 -1      1824 2.00658E-03-5.01881E-04-3.40906E-15
 -1      1825 2.15658E-03-5.11461E-04-3.95688E-15
 -1      1826 1.91267E-03-4.58548E-04-3.23468E-15
 -1      1827 2.30777E-03-5.21018E-04-4.54666E-15
 -1      1828 2.46017E-03-5.31008E-04-5.17716E-15
 -1      1829 2.21218E-03-4.77111E-04-4.33623E-15
 -1      1830 2.61394E-03-5.42178E-04-5.84825E-15
 -1      1831 2.76890E-03-5.54997E-04-6.56066E-15
 -1      1832 2.51581E-03-4.96296E-04-5.60049E-15
 -1      1833 2.92526E-03-5.70175E-04-7.31365E-15
 -1      1834 3.08262E-03-5.88154E-04-8.10601E-15
 -1      1835 2.82427E-03-5.20970E-04-7.02640E-15
 -1      1836 3.24121E-03-6.09512E-04-8.93896E-15
 -1      1837 3.40037E-03-6.34562E-04-9.81143E-15
 -1      1838 3.13780E-03-5.55871E-04-8.61361E-15
 -1      1839 3.56038E-03-6.63571E-04-1.07237E-14
 -1      1840 3.72028E-03-6.96550E-04-1.16772E-14
 -1      1841 3.45597E-03-6.05003E-04-1.03585E-14
 -1      1842 3.88037E-03-7.33200E-04-1.26711E-14
 -1      1843 4.03949E-03-7.72972E-04-1.37055E-14
 -1      1844 3.77739E-03-6.70416E-04-1.22634E-14
 -1      1845 4.19786E-03-8.14768E-04-1.47805E-14
 -1      1846 4.35446E-03-8.57270E-04-1.58980E-14
 -1      1847 4.09944E-03-7.50299E-04-1.43299E-14
 -1      1848 4.50927E-03-8.98532E-04-1.70580E-14
 -1      1849 4.66192E-03-9.36514E-04-1.82603E-14
 -1      1850 4.41838E-03-8.36840E-04-1.65618E-14
 -1      1851 4.81213E-03-9.68797E-04-1.95055E-14
 -1      1852 4.96057E-03-9.93144E-04-2.07942E-14
 -1      1853 4.73049E-03-9.15301E-04-1.89630E-14
 -1      1854 5.10679E-03-1.00748E-03-2.21281E-14
 -1      1855 5.25253E-03-1.01032E-03-2.35052E-14
 -1      1856 5.03427E-03-9.66418E-04-2.15390E-14
 -1      1857 5.39727E-03-1.00085E-03-2.49270E-14
 -1      1858 5.54321E-03-9.79112E-04-2.63941E-14
 -1      1859 5.33229E-03-9.73069E-04-2.42918E-14
 -1      1860 5.68980E-03-9.45974E-04-2.79067E-14
 -1      1861 5.83879E-03-9.02960E-04-2.94639E-14
 -1      1862 5.63065E-03-9.28511E-04-2.72244E-14
 -1      1863 5.98972E-03-8.52183E-04-3.10652E-14
 -1      1864 6.14324E-03-7.95888E-04-3.27104E-14
 -1      1865 5.93535E-03-8.40003E-04-3.03385E-14
 -1      1866 6.29910E-03-7.36510E-04-3.43977E-14
 -1      1867 6.45690E-03-6.76109E-04-3.61265E-14
 -1      1868 6.24890E-03-7.24875E-04-3.36275E-14
 -1      1869 6.61663E-03-6.16639E-04-3.78958E-14
 -1      1870 6.77729E-03-5.59431E-04-3.97044E-14
 -1      1871 6.56977E-03-6.02500E-04-3.70859E-14
 -1      1872 6.93908E-03-5.05614E-04-4.15495E-14
 -1      1873 7.10090E-03-4.55762E-04-4.34317E-14
 -1      1874 6.89424E-03-4.87707E-04-4.07004E-14
 -1      1875 7.26301E-03-4.10229E-04-4.53501E-14
 -1      1876 7.42450E-03-3.69062E-04-4.73041E-14
 -1      1877 7.21863E-03-3.88486E-04-4.44647E-14
 -1      1878 7.58563E-03-3.32089E-04-4.92926E-14
 -1      1879 7.74576E-03-2.99075E-04-5.13147E-14
 -1      1880 7.54038E-03-3.07045E-04-4.83708E-14
 -1      1881 7.90509E-03-2.69583E-04-5.33692E-14
 -1      1882 8.06326E-03-2.43278E-04-5.54551E-14
 -1      1883 7.85811E-03-2.41994E-04-5.24133E-14
 -1      1884 8.22039E-03-2.19652E-04-5.75738E-14
 -1      1885 8.37634E-03-1.98370E-04-5.97236E-14
 -1      1886 8.17132E-03-1.90279E-04-5.65858E-14
 -1      1887 8.53117E-03-1.78966E-04-6.19052E-14
 -1      1888 8.68488E-03-1.61148E-04-6.41183E-14
 -1      1889 8.48002E-03-1.48470E-04-6.08821E-14
 -1      1890 8.83750E-03-1.44540E-04-6.63629E-14
 -1      1891 8.98913E-03-1.28909E-04-6.86369E-14
 -1      1892 8.78455E-03-1.13447E-04-6.53050E-14
 -1      1893 9.13976E-03-1.13978E-04-7.09398E-14
 -1      1894 9.28952E-03-9.95680E-05-7.32714E-14
 -1      1895 9.08534E-03-8.26738E-05-6.98508E-14
 -1      1896 9.43842E-03-8.54915E-05-7.56299E-14
 -1      1897 9.58659E-03-7.16192E-05-7.80160E-14
 -1      1898 9.38291E-03-5.42401E-05-7.45099E-14
 -1      1899 9.73404E-03-5.78324E-05-8.04313E-14
 -1      1900 9.88089E-03-4.40415E-05-8.28688E-14
 -1      1901 9.67777E-03-2.67969E-05-7.92802E-14
 -1      1902 1.00271E-02-3.01801E-05-8.53313E-14
 -1      1903 1.01729E-02-1.61885E-05-8.78225E-14
 -1      1904 9.97040E-03 5.51040E-07-8.41541E-14
 -1      1905 1.03183E-02-2.03682E-06-9.03373E-14
 -1      1906 1.04632E-02 1.23122E-05-9.28743E-14
 -1      1907 1.02612E-02 2.83549E-05-8.91309E-14
 -1      1908 1.06078E-02 2.68645E-05-9.54357E-14
 -1      1909 1.07521E-02 4.16413E-05-9.80196E-14
 -1      1910 1.05506E-02 5.69173E-05-9.42037E-14
 -1      1911 1.08961E-02 5.66338E-05-1.00625E-13
 -1      1912 1.10400E-02 7.18518E-05-1.03252E-13
 -1      1913 1.08390E-02 8.63699E-05-9.93705E-14
 -1      1914 1.11836E-02 8.72786E-05-1.05899E-13
 -1      1915 1.13270E-02 1.02917E-04-1.08568E-13
 -1      1916 1.11264E-02 1.16732E-04-1.04624E-13
 -1      1917 1.14704E-02 1.18745E-04-1.11256E-13
 -1      1918 1.16136E-02 1.34763E-04-1.13964E-13
 -1      1919 1.14133E-02 1.47956E-04-1.09959E-13
 -1      1920 1.17567E-02 1.50947E-04-1.16694E-13
 -1      1921 1.18997E-02 1.67293E-04-1.19444E-13
 -1      1922 1.16998E-02 1.79954E-04-1.15379E-13
 -1      1923 1.20427E-02 1.83782E-04-1.22214E-13
 -1      1924 1.21856E-02 2.00405E-04-1.25004E-13
 -1      1925 1.19859E-02 2.12623E-04-1.20876E-13
 -1      1926 1.23285E-02 2.17146E-04-1.27813E-13
 -1      1927 1.24714E-02 2.33996E-04-1.30643E-13
 -1      1928 1.22718E-02 2.45854E-04-1.26455E-13
 -1      1929 1.26142E-02 2.50940E-04-1.33492E-13
 -1      1930 1.27570E-02 2.67971E-04-1.36357E-13
 -1      1931 1.25575E-02 2.79546E-04-1.32109E-13
 -1      1932 1.28998E-02 2.85074E-04-1.39241E-13
 -1      1933 1.30426E-02 3.02244E-04-1.42141E-13
 -1      1934 1.28432E-02 3.13604E-04-1.37839E-13
 -1      1935 1.31854E-02 3.19468E-04-1.45059E-13
 -1      1936 1.33282E-02 3.36741E-04-1.47991E-13
 -1      1937 1.31289E-02 3.47943E-04-1.43634E-13
 -1      1938 1.34710E-02 3.54052E-04-1.50937E-13
 -1      1939 1.36138E-02 3.71395E-04-1.53901E-13
 -1      1940 1.34145E-02 3.82489E-04-1.49494E-13
 -1      1941 1.37566E-02 3.88762E-04-1.56878E-13
 -1      1942 1.38994E-02 4.06147E-04-1.59864E-13
 -1      1943 1.37002E-02 4.17178E-04-1.55411E-13
 -1      1944 1.40422E-02 4.23544E-04-1.62864E-13
 -1      1945 1.41851E-02 4.40947E-04-1.65873E-13
 -1      1946 1.39858E-02 4.51953E-04-1.61383E-13
 -1      1947 1.43124E-02 4.54865E-04-1.68575E-13
 -1      1948 1.44552E-02 4.72264E-04-1.71600E-13
 -1      1949 1.45106E-02 5.11113E-04-1.72492E-13
 -1      1950 1.42560E-02 4.83278E-04-1.67079E-13
 -1      1951 1.16731E-03 4.32336E-04-8.60274E-16
 -1      1952 1.01948E-03 4.05314E-04-6.25530E-16
 -1      1953 9.86396E-04 3.75716E-04-6.50521E-16
 -1      1954 1.46156E-03 4.72177E-04-1.45053E-15
 -1      1955 1.31429E-03 4.54374E-04-1.13509E-15
 -1      1956 1.28268E-03 4.25792E-04-1.16118E-15
 -1      1957 1.75784E-03 4.98623E-04-2.20229E-15
 -1      1958 1.60919E-03 4.86744E-04-1.80602E-15
 -1      1959 1.57847E-03 4.58684E-04-1.83194E-15
 -1      1960 2.05904E-03 5.17280E-04-3.11575E-15
 -1      1961 1.90764E-03 5.08622E-04-2.63879E-15
 -1      1962 1.87678E-03 4.80568E-04-2.66336E-15
 -1      1963 2.36730E-03 5.33458E-04-4.18921E-15
 -1      1964 2.21215E-03 5.25359E-04-3.63247E-15
 -1      1965 2.17992E-03 4.96815E-04-3.65502E-15
 -1      1966 2.68415E-03 5.52926E-04-5.42340E-15
 -1      1967 2.52455E-03 5.42421E-04-4.78647E-15
 -1      1968 2.48967E-03 5.12865E-04-4.80600E-15
 -1      1969 3.01047E-03 5.82391E-04-6.81830E-15
 -1      1970 2.84608E-03 5.66000E-04-6.10029E-15
 -1      1971 2.80738E-03 5.34845E-04-6.11661E-15
 -1      1972 3.34633E-03 6.29625E-04-8.37572E-15
 -1      1973 3.17728E-03 6.03358E-04-7.57634E-15
 -1      1974 3.13394E-03 5.69956E-04-7.58736E-15
 -1      1975 3.69054E-03 7.02791E-04-1.00945E-14
 -1      1976 3.51764E-03 6.62609E-04-9.21510E-15
 -1      1977 3.46961E-03 6.26360E-04-9.22012E-15
 -1      1978 4.04014E-03 8.08302E-04-1.19809E-14
 -1      1979 3.86516E-03 7.51425E-04-1.10171E-14
 -1      1980 3.81364E-03 7.12066E-04-1.10151E-14
 -1      1981 4.38999E-03 9.46488E-04-1.40346E-14
 -1      1982 4.21576E-03 8.73861E-04-1.29862E-14
 -1      1983 4.16352E-03 8.32022E-04-1.29753E-14
 -1      1984 4.73296E-03 1.10539E-03-1.62643E-14
 -1      1985 4.56307E-03 1.02482E-03-1.51267E-14
 -1      1986 4.51412E-03 9.82660E-04-1.51061E-14
 -1      1987 5.06249E-03 1.25693E-03-1.86770E-14
 -1      1988 4.89972E-03 1.18435E-03-1.74478E-14
 -1      1989 4.85790E-03 1.14536E-03-1.74157E-14
 -1      1990 5.37720E-03 1.36226E-03-2.12796E-14
 -1      1991 5.22114E-03 1.31744E-03-1.99537E-14
 -1      1992 5.18854E-03 1.28471E-03-1.99099E-14
 -1      1993 5.68445E-03 1.38967E-03-2.40765E-14
 -1      1994 5.53047E-03 1.38630E-03-2.26529E-14
 -1      1995 5.50683E-03 1.36015E-03-2.25973E-14
 -1      1996 5.99682E-03 1.33491E-03-2.70714E-14
 -1      1997 5.83872E-03 1.37114E-03-2.55496E-14
 -1      1998 5.82296E-03 1.34853E-03-2.54814E-14
 -1      1999 6.32383E-03 1.22436E-03-3.02535E-14
 -1      2000 6.15807E-03 1.28420E-03-2.86403E-14
 -1      2001 6.14921E-03 1.26123E-03-2.85613E-14
 -1      2002 6.66598E-03 1.09735E-03-3.36059E-14
 -1      2003 6.49331E-03 1.16082E-03-3.19092E-14
 -1      2004 6.49020E-03 1.13548E-03-3.18221E-14
 -1      2005 7.01775E-03 9.86034E-04-3.71221E-14
 -1      2006 6.84133E-03 1.03865E-03-3.53451E-14
 -1      2007 6.84143E-03 1.01083E-03-3.52502E-14
 -1      2008 7.37192E-03 9.06721E-04-4.07864E-14
 -1      2009 7.19517E-03 9.42201E-04-3.89358E-14
 -1      2010 7.19535E-03 9.12695E-04-3.88343E-14
 -1      2011 7.72282E-03 8.62033E-04-4.46021E-14
 -1      2012 7.54823E-03 8.80354E-04-4.26766E-14
 -1      2013 7.54580E-03 8.49943E-04-4.25674E-14
 -1      2014 8.06701E-03 8.47169E-04-4.85566E-14
 -1      2015 7.89601E-03 8.51328E-04-4.65610E-14
 -1      2016 7.88942E-03 8.20522E-04-4.64440E-14
 -1      2017 8.40290E-03 8.54893E-04-5.26514E-14
 -1      2018 8.23610E-03 8.48636E-04-5.05856E-14
 -1      2019 8.22491E-03 8.17748E-04-5.04606E-14
 -1      2020 8.73023E-03 8.78268E-04-5.68841E-14
 -1      2021 8.56764E-03 8.64963E-04-5.47518E-14
 -1      2022 8.55219E-03 8.34188E-04-5.46167E-14
 -1      2023 9.04949E-03 9.11709E-04-6.12489E-14
 -1      2024 8.89081E-03 8.93974E-04-5.90506E-14
 -1      2025 8.87180E-03 8.63434E-04-5.89073E-14
 -1      2026 9.36162E-03 9.51126E-04-6.57340E-14
 -1      2027 9.20637E-03 9.30835E-04-6.34773E-14
 -1      2028 9.18457E-03 9.00596E-04-6.33231E-14
 -1      2029 9.66768E-03 9.93703E-04-7.03353E-14
 -1      2030 9.51532E-03 9.72126E-04-6.80200E-14
 -1      2031 9.49148E-03 9.42212E-04-6.78557E-14
 -1      2032 9.96876E-03 1.03760E-03-7.50482E-14
 -1      2033 9.81876E-03 1.01555E-03-7.26774E-14
 -1      2034 9.79348E-03 9.85958E-04-7.25039E-14
 -1      2035 1.02659E-02 1.08166E-03-7.98732E-14
 -1      2036 1.01177E-02 1.05964E-03-7.74479E-14
 -1      2037 1.00915E-02 1.03035E-03-7.72661E-14
 -1      2038 1.05598E-02 1.12521E-03-8.47985E-14
 -1      2039 1.04132E-02 1.10351E-03-8.23241E-14
 -1      2040 1.03863E-02 1.07448E-03-8.21342E-14
 -1      2041 1.08514E-02 1.16790E-03-8.98253E-14
 -1      2042 1.07058E-02 1.14667E-03-8.72999E-14
 -1      2043 1.06786E-02 1.11787E-03-8.71027E-14
 -1      2044 1.11411E-02 1.20958E-03-9.49519E-14
 -1      2045 1.09964E-02 1.18887E-03-9.23765E-14
 -1      2046 1.09690E-02 1.16025E-03-9.21715E-14
 -1      2047 1.14295E-02 1.25023E-03-1.00175E-13
 -1      2048 1.12854E-02 1.23003E-03-9.75508E-14
 -1      2049 1.12579E-02 1.20157E-03-9.73399E-14
 -1      2050 1.17169E-02 1.28991E-03-1.05490E-13
 -1      2051 1.15733E-02 1.27019E-03-1.02821E-13
 -1      2052 1.15458E-02 1.24185E-03-1.02600E-13
 -1      2053 1.20036E-02 1.32871E-03-1.10896E-13
 -1      2054 1.18603E-02 1.30941E-03-1.08183E-13
 -1      2055 1.18329E-02 1.28118E-03-1.07953E-13
 -1      2056 1.22899E-02 1.36675E-03-1.16383E-13
 -1      2057 1.21468E-02 1.34781E-03-1.13630E-13
 -1      2058 1.21194E-02 1.31966E-03-1.13392E-13
 -1      2059 1.25758E-02 1.40414E-03-1.21954E-13
 -1      2060 1.24328E-02 1.38552E-03-1.19158E-13
 -1      2061 1.24056E-02 1.35742E-03-1.18913E-13
 -1      2062 1.28615E-02 1.44100E-03-1.27599E-13
 -1      2063 1.27187E-02 1.42263E-03-1.24768E-13
 -1      2064 1.26914E-02 1.39457E-03-1.24513E-13
 -1      2065 1.31471E-02 1.47744E-03-1.33321E-13
 -1      2066 1.30043E-02 1.45927E-03-1.30450E-13
 -1      2067 1.29772E-02 1.43124E-03-1.30191E-13
 -1      2068 1.34327E-02 1.51354E-03-1.39113E-13
 -1      2069 1.32899E-02 1.49553E-03-1.36208E-13
 -1      2070 1.32628E-02 1.46752E-03-1.35939E-13
 -1      2071 1.37182E-02 1.54939E-03-1.44964E-13
 -1      2072 1.35755E-02 1.53149E-03-1.42033E-13
 -1      2073 1.35484E-02 1.50350E-03-1.41756E-13
 -1      2074 1.40038E-02 1.58506E-03-1.50869E-13
 -1      2075 1.38610E-02 1.56724E-03-1.47911E-13
 -1      2076 1.38340E-02 1.53926E-03-1.47627E-13
 -1      2077 1.42894E-02 1.62060E-03-1.56810E-13
 -1      2078 1.41466E-02 1.60284E-03-1.53833E-13
 -1      2079 1.41196E-02 1.57486E-03-1.53542E-13
 -1      2080 1.45750E-02 1.65608E-03-1.62789E-13
 -1      2081 1.44322E-02 1.63835E-03-1.59796E-13
 -1      2082 1.44052E-02 1.61037E-03-1.59497E-13
 -1      2083 1.48607E-02 1.69155E-03-1.68789E-13
 -1      2084 1.47178E-02 1.67381E-03-1.65786E-13
 -1      2085 1.46909E-02 1.64583E-03-1.65484E-13
 -1      2086 1.50943E-02 1.71773E-03-1.73745E-13
 -1      2087 1.49515E-02 1.69998E-03-1.70733E-13
 -1      2088 1.49245E-02 1.67200E-03-1.70428E-13
 -1      2089 1.51062E-02 1.68888E-03-1.74317E-13
 -1      2090 1.49770E-02 1.45001E-03-1.73917E-13
 -1      2091 1.49945E-02 1.49220E-03-1.73874E-13
 -1      2092 1.50120E-02 1.53438E-03-1.73829E-13
 -1      2093 1.50295E-02 1.57656E-03-1.73785E-13
 -1      2094 1.48795E-02 1.49795E-03-1.71250E-13
 -1      2095 1.50591E-02 1.61164E-03-1.74078E-13
 -1      2096 1.50766E-02 1.65380E-03-1.74025E-13
 -1      2097 1.49858E-02 1.64536E-03-1.72081E-13
 -1      2098 1.49266E-02 1.57520E-03-1.71496E-13
 -1      2099 1.49427E-02 1.36705E-03-1.73991E-13
 -1      2100 1.49598E-02 1.40853E-03-1.73954E-13
 -1      2101 1.48448E-02 1.41430E-03-1.71337E-13
 -1      2102 1.49078E-02 1.28263E-03-1.74065E-13
 -1      2103 1.49252E-02 1.32484E-03-1.74027E-13
 -1      2104 1.48102E-02 1.33064E-03-1.71413E-13
 -1      2105 1.48731E-02 1.19820E-03-1.74130E-13
 -1      2106 1.48904E-02 1.24042E-03-1.74098E-13
 -1      2107 1.47754E-02 1.24625E-03-1.71483E-13
 -1      2108 1.48384E-02 1.11376E-03-1.74197E-13
 -1      2109 1.48557E-02 1.15598E-03-1.74163E-13
 -1      2110 1.47407E-02 1.16185E-03-1.71550E-13
 -1      2111 1.48039E-02 1.02932E-03-1.74257E-13
 -1      2112 1.48212E-02 1.07154E-03-1.74228E-13
 -1      2113 1.47060E-02 1.07744E-03-1.71614E-13
 -1      2114 1.47695E-02 9.44888E-04-1.74305E-13
 -1      2115 1.47867E-02 9.87104E-04-1.74282E-13
 -1      2116 1.46716E-02 9.93036E-04-1.71669E-13
 -1      2117 1.47358E-02 8.61896E-04-1.74340E-13
 -1      2118 1.47526E-02 9.03390E-04-1.74326E-13
 -1      2119 1.46375E-02 9.09350E-04-1.71711E-13
 -1      2120 1.47016E-02 7.77491E-04-1.74363E-13
 -1      2121 1.47187E-02 8.19691E-04-1.74354E-13
 -1      2122 1.46035E-02 8.25674E-04-1.71739E-13
 -1      2123 1.46675E-02 6.93110E-04-1.74372E-13
 -1      2124 1.46846E-02 7.35297E-04-1.74369E-13
 -1      2125 1.45694E-02 7.41297E-04-1.71752E-13
 -1      2126 1.46334E-02 6.08756E-04-1.74368E-13
 -1      2127 1.46505E-02 6.50929E-04-1.74372E-13
 -1      2128 1.45353E-02 6.56939E-04-1.71753E-13
 -1      2129 7.36834E-03 4.00178E-04-3.23461E-14
 -1      2130 7.50375E-03 3.52110E-04-3.27139E-14
 -1      2131 7.72463E-03 2.56588E-04-3.35355E-14
 -1      2132 7.71434E-03 2.38425E-04-3.34304E-14
 -1      2133 7.60981E-03 3.10446E-04-3.31280E-14
 -1      2134 7.68370E-03 2.84014E-04-3.34705E-14
 -1      2135 6.98362E-03 5.73000E-04-3.10038E-14
 -1      2136 7.15704E-03 4.86011E-04-3.17359E-14
 -1      2137 6.60697E-03 7.71078E-04-2.95508E-14
 -1      2138 6.79944E-03 6.68120E-04-3.02708E-14
 -1      2139 6.87442E-03 6.06335E-04-3.12901E-14
 -1      2140 3.28308E-04-7.27436E-05-2.22573E-16
 -1      2141 3.31781E-04-8.55941E-05-2.13235E-16
 -1      2142 4.50519E-04-1.23468E-04-3.10421E-16
 -1      2143 4.40271E-04-8.93639E-05-3.34910E-16
 -1      2144 5.83808E-03 1.16204E-03-2.56655E-14
 -1      2145 6.00055E-03 1.09847E-03-2.65173E-14
 -1      2146 5.49772E-03 1.21408E-03-2.38019E-14
 -1      2147 5.64445E-03 1.20698E-03-2.46285E-14
 -1      2148 5.18543E-03 1.14429E-03-2.21006E-14
 -1      2149 5.33758E-03 1.19384E-03-2.29423E-14
 -1      2150 5.42808E-03 1.21713E-03-2.33026E-14
 -1      2151 4.78860E-03 9.45595E-04-2.03584E-14
 -1      2152 4.97092E-03 1.04863E-03-2.11061E-14
 -1      2153 4.34153E-03 6.95805E-04-1.90503E-14
 -1      2154 4.54297E-03 8.06198E-04-1.95534E-14
 -1      2155 3.94432E-03 4.74742E-04-1.79663E-14
 -1      2156 4.13939E-03 5.83986E-04-1.85037E-14
 -1      2157 4.25207E-03 6.13307E-04-1.83429E-14
 -1      2158 3.54048E-03 2.97286E-04-1.71853E-14
 -1      2159 3.71021E-03 3.60916E-04-1.74205E-14
 -1      2160 3.29127E-03 2.11323E-04-1.68932E-14
 -1      2161 3.39774E-03 2.50528E-04-1.70814E-14
 -1      2162 3.17438E-03 1.53603E-04-1.66411E-14
 -1      2163 3.20565E-03 1.70330E-04-1.66360E-14
 -1      2164 3.22092E-03 1.15651E-04-1.68013E-14
 -1      2165 3.17953E-03 1.33976E-04-1.67192E-14
 -1      2166 3.16624E-03 1.41681E-04-1.61196E-14
 -1      2167 3.43678E-03 3.79283E-05-1.72760E-14
 -1      2168 3.32367E-03 7.61399E-05-1.70301E-14
 -1      2169 3.76379E-03-8.59755E-05-1.79063E-14
 -1      2170 3.58725E-03-1.88967E-05-1.75878E-14
 -1      2171 3.50844E-03 2.71603E-05-1.69443E-14
 -1      2172 4.21003E-03-3.14861E-04-1.93040E-14
 -1      2173 4.02089E-03-2.09283E-04-1.86403E-14
 -1      2174 4.59622E-03-5.11529E-04-2.04607E-14
 -1      2175 4.40668E-03-4.13278E-04-1.98769E-14
 -1      2176 4.33728E-03-3.58751E-04-1.92539E-14
 -1      2177 4.97966E-03-6.97805E-04-2.22795E-14
 -1      2178 4.82142E-03-6.26261E-04-2.14616E-14
 -1      2179 5.28157E-03-7.72333E-04-2.38409E-14
 -1      2180 5.13496E-03-7.45094E-04-2.30518E-14
 -1      2181 5.07411E-03-7.32446E-04-2.25691E-14
 -1      2182 5.61540E-03-7.41345E-04-2.57109E-14
 -1      2183 5.46799E-03-7.70601E-04-2.48832E-14
 -1      2184 5.93977E-03-6.15213E-04-2.73831E-14
 -1      2185 5.78533E-03-6.85812E-04-2.65910E-14
 -1      2186 6.28747E-03-4.20492E-04-2.91419E-14
 -1      2187 6.11442E-03-5.25742E-04-2.82542E-14
 -1      2188 5.99872E-03-5.72397E-04-2.80677E-14
 -1      2189 6.74706E-03-1.77398E-04-3.07629E-14
 -1      2190 6.54509E-03-2.78051E-04-3.01735E-14
 -1      2191 7.12238E-03-1.15745E-06-3.18814E-14
 -1      2192 6.94338E-03-8.42080E-05-3.13440E-14
 -1      2193 7.44588E-03 1.35811E-04-3.28986E-14
 -1      2194 7.29898E-03 7.68132E-05-3.24304E-14
 -1      2195 7.66964E-03 2.13391E-04-3.33480E-14
 -1      2196 7.58998E-03 1.88469E-04-3.32677E-14
 -1      2197 7.69870E-03 2.36270E-04-3.41658E-14
 -1      2198 6.18244E-03 1.01152E-03-2.74975E-14
 -1      2199 6.36348E-03 9.08214E-04-2.84025E-14
 -1      2200 6.18948E-04-2.73891E-04-3.10285E-16
 -1      2201 6.47235E-03 8.34083E-04-2.93754E-14
 -1      2202 6.07844E-03 1.05870E-03-2.72295E-14
 -1      2203 6.75967E-04-2.64267E-04-4.27718E-16
 -1      2204 7.56062E-03 3.18083E-04-3.36989E-14
 -1      2205 7.71742E-03 2.67551E-04-3.41836E-14
 -1      2206 7.73576E-03 2.62193E-04-3.49006E-14
 -1      2207 7.69829E-03 2.75364E-04-3.48338E-14
 -1      2208 1.45781E-02 5.69893E-04-1.73480E-13
 -1      2209 7.25598E-03 4.30748E-04-3.26577E-14
 -1      2210 7.52208E-03 1.81585E-04-3.37027E-14
 -1      2211 7.44839E-03 1.71004E-04-3.41364E-14
 -1      2212 7.58623E-03 2.10577E-04-3.45163E-14
 -1      2213 7.19704E-03 6.16585E-05-3.27709E-14
 -1      2214 6.39795E-03-3.39558E-04-2.99839E-14
 -1      2215 6.27390E-03-4.01526E-04-2.97906E-14
 -1      2216 6.50735E-03-2.62753E-04-3.08403E-14
 -1      2217 5.37501E-03-7.83181E-04-2.43738E-14
 -1      2218 4.72901E-03-5.75436E-04-2.07999E-14
 -1      2219 4.63692E-03-5.23492E-04-2.01508E-14
 -1      2220 4.83715E-03-6.33000E-04-2.11383E-14
 -1      2221 3.89911E-03-1.33494E-04-1.79624E-14
 -1      2222 3.78278E-03-7.59028E-05-1.73002E-14
 -1      2223 4.02381E-03-1.88365E-04-1.80142E-14
 -1      2224 3.25714E-03 1.06544E-04-1.64189E-14
 -1      2225 3.23917E-03 1.74190E-04-1.62939E-14
 -1      2226 3.82763E-03 3.92714E-04-1.72715E-14
 -1      2227 5.09822E-03 1.10564E-03-2.14491E-14
 -1      2228 5.73442E-03 1.19650E-03-2.51988E-14
 -1      2229 4.67925E-03 8.67038E-04-1.96705E-14
 -1      2230 4.78678E-03 9.25475E-04-1.97817E-14
 -1      2231 4.57142E-03 7.88772E-04-1.89955E-14
 -1      2232 3.47011E-03 2.49255E-04-1.66465E-14
 -1      2233 5.68712E-03-7.20587E-04-2.63050E-14
 -1      2234 6.83320E-03-1.04100E-04-3.16230E-14
 -1      2235 1.03949E-03 3.53940E-04-8.29875E-16
 -1      2236 8.90613E-04 3.24085E-04-6.06259E-16
 -1      2237 5.36733E-04-4.08034E-05-5.10185E-16
 -1      2238 5.39763E-04-5.43625E-05-5.06471E-16
 -1      2239 5.43512E-04-6.89399E-05-5.01037E-16
 -1      2240 5.47920E-04-8.46440E-05-4.93569E-16
 -1      2241 6.54685E-04-7.30802E-05-6.83224E-16
 -1      2242 5.31756E-04 7.92440E-06-5.10849E-16
 -1      2243 5.31880E-04-3.80294E-06-5.12733E-16
 -1      2244 5.33830E-04 3.17748E-05-5.03409E-16
 -1      2245 5.32407E-04 1.97364E-05-5.07949E-16
 -1      2246 6.42239E-04 1.65609E-05-6.90284E-16
 -1      2247 5.38926E-04 5.70900E-05-4.89748E-16
 -1      2248 5.36009E-04 4.41141E-05-4.97500E-16
 -1      2249 6.45858E-04 4.50628E-05-6.78711E-16
 -1      2250 5.47240E-04 8.65736E-05-4.68877E-16
 -1      2251 5.42703E-04 7.12682E-05-4.80288E-16
 -1      2252 6.53469E-04 7.61855E-05-6.58924E-16
 -1      2253 5.58939E-04 1.21924E-04-4.38085E-16
 -1      2254 5.52671E-04 1.03409E-04-4.55080E-16
 -1      2255 6.65230E-04 1.12339E-04-6.29420E-16
 -1      2256 5.74975E-04 1.65807E-04-3.93132E-16
 -1      2257 5.66386E-04 1.42651E-04-4.17811E-16
 -1      2258 6.81443E-04 1.55627E-04-5.86635E-16
 -1      2259 1.33564E-03 3.98361E-04-1.39438E-15
 -1      2260 1.18761E-03 3.78571E-04-1.09225E-15
 -1      2261 1.09370E-03 3.31668E-04-1.01836E-15
 -1      2262 9.32584E-04-3.06878E-04-8.37966E-16
 -1      2263 1.08038E-03-3.34480E-04-1.10682E-15
 -1      2264 6.35551E-03 9.02824E-04-2.92618E-14
 -1      2265 6.56709E-03 7.74816E-04-3.04360E-14
 -1      2266 1.22776E-03-3.57443E-04-1.41566E-15
 -1      2267 1.37522E-03-3.76258E-04-1.76546E-15
 -1      2268 1.13610E-03-3.12136E-04-1.30466E-15
 -1      2269 1.52259E-03-3.91912E-04-2.15600E-15
 -1      2270 1.67023E-03-4.04793E-04-2.58742E-15
 -1      2271 1.42960E-03-3.48668E-04-2.01315E-15
 -1      2272 1.81821E-03-4.15776E-04-3.05921E-15
 -1      2273 1.96675E-03-4.25260E-04-3.57200E-15
 -1      2274 1.72383E-03-3.73678E-04-2.88293E-15
 -1      2275 2.11599E-03-4.34022E-04-4.12468E-15
 -1      2276 2.26606E-03-4.42505E-04-4.71845E-15
 -1      2277 2.01966E-03-3.91839E-04-3.91347E-15
 -1      2278 2.41716E-03-4.51435E-04-5.35241E-15
 -1      2279 2.56932E-03-4.61313E-04-6.02633E-15
 -1      2280 2.31827E-03-4.07742E-04-5.10434E-15
 -1      2281 2.72281E-03-4.72827E-04-6.74048E-15
 -1      2282 2.87753E-03-4.86534E-04-7.49448E-15
 -1      2283 2.62093E-03-4.26046E-04-6.45530E-15
 -1      2284 3.03382E-03-5.03042E-04-8.28813E-15
 -1      2285 3.19138E-03-5.22916E-04-9.12153E-15
 -1      2286 2.92903E-03-4.51569E-04-7.96437E-15
 -1      2287 3.35066E-03-5.46580E-04-9.99390E-15
 -1      2288 3.51103E-03-5.74468E-04-1.09059E-14
 -1      2289 3.24383E-03-4.89122E-04-9.63066E-15
 -1      2290 3.67297E-03-6.06639E-04-1.18578E-14
 -1      2291 3.83551E-03-6.43130E-04-1.28497E-14
 -1      2292 3.56604E-03-5.42864E-04-1.14542E-14
 -1      2293 3.99900E-03-6.83415E-04-1.38815E-14
 -1      2294 4.16218E-03-7.26663E-04-1.49544E-14
 -1      2295 3.89499E-03-6.14896E-04-1.34360E-14
 -1      2296 4.32508E-03-7.71555E-04-1.60687E-14
 -1      2297 4.48655E-03-8.16032E-04-1.72250E-14
 -1      2298 4.22754E-03-7.02697E-04-1.55789E-14
 -1      2299 4.64627E-03-8.57977E-04-1.84248E-14
 -1      2300 4.80390E-03-8.94292E-04-1.96662E-14
 -1      2301 4.55798E-03-7.95751E-04-1.78873E-14
 -1      2302 4.95889E-03-9.22598E-04-2.09520E-14
 -1      2303 5.11236E-03-9.39801E-04-2.22828E-14
 -1      2304 4.88030E-03-8.74096E-04-2.03679E-14
 -1      2305 5.26373E-03-9.44279E-04-2.36581E-14
 -1      2306 5.41546E-03-9.34729E-04-2.50780E-14
 -1      2307 5.19278E-03-9.12792E-04-2.30250E-14
 -1      2308 5.56695E-03-9.11218E-04-2.65434E-14
 -1      2309 5.72069E-03-8.75130E-04-2.80554E-14
 -1      2310 5.50084E-03-8.93606E-04-2.58640E-14
 -1      2311 5.87603E-03-8.28114E-04-2.96123E-14
 -1      2312 6.03415E-03-7.73258E-04-3.12141E-14
 -1      2313 5.81368E-03-8.17106E-04-2.88863E-14
 -1      2314 6.19446E-03-7.12972E-04-3.28586E-14
 -1      2315 6.35658E-03-6.50364E-04-3.45466E-14
 -1      2316 6.13674E-03-7.01682E-04-3.20907E-14
 -1      2317 6.52020E-03-5.87565E-04-3.62757E-14
 -1      2318 6.68416E-03-5.26626E-04-3.80445E-14
 -1      2319 6.46809E-03-5.72425E-04-3.54673E-14
 -1      2320 6.84852E-03-4.68895E-04-3.98534E-14
 -1      2321 7.01202E-03-4.15188E-04-4.16984E-14
 -1      2322 6.80164E-03-4.49309E-04-3.90064E-14
 -1      2323 7.17502E-03-3.66080E-04-4.35807E-14
 -1      2324 7.33656E-03-3.21586E-04-4.54983E-14
 -1      2325 7.13174E-03-3.42863E-04-4.26984E-14
 -1      2326 7.49709E-03-2.81725E-04-4.74513E-14
 -1      2327 7.65603E-03-2.46121E-04-4.94388E-14
 -1      2328 7.45535E-03-2.55883E-04-4.65335E-14
 -1      2329 7.81378E-03-2.14477E-04-5.14603E-14
 -1      2330 7.97006E-03-1.86316E-04-5.35140E-14
 -1      2331 7.77178E-03-1.86817E-04-5.05075E-14
 -1      2332 8.12516E-03-1.61210E-04-5.55989E-14
 -1      2333 8.27899E-03-1.38713E-04-5.77152E-14
 -1      2334 8.08169E-03-1.32308E-04-5.46146E-14
 -1      2335 8.43174E-03-1.18391E-04-5.98635E-14
 -1      2336 8.58345E-03-9.98763E-05-6.20412E-14
 -1      2337 8.38619E-03-8.86675E-05-5.88454E-14
 -1      2338 8.73420E-03-8.27904E-05-6.42520E-14
 -1      2339 8.88410E-03-6.68545E-05-6.64937E-14
 -1      2340 8.68641E-03-5.25702E-05-6.32017E-14
 -1      2341 9.03319E-03-5.17689E-05-6.87650E-14
 -1      2342 9.18158E-03-3.73309E-05-7.10653E-14
 -1      2343 8.98329E-03-2.13028E-05-6.76817E-14
 -1      2344 9.32929E-03-2.33227E-05-7.33930E-14
 -1      2345 9.47643E-03-9.60240E-06-7.57481E-14
 -1      2346 9.27757E-03 7.19925E-06-7.22793E-14
 -1      2347 9.62302E-03 3.97674E-06-7.81308E-14
 -1      2348 9.76915E-03 1.75103E-05-8.05420E-14
 -1      2349 9.56983E-03 3.44193E-05-7.69866E-14
 -1      2350 9.91483E-03 3.10885E-05-8.29778E-14
 -1      2351 1.00601E-02 4.47727E-05-8.54394E-14
 -1      2352 9.86050E-03 6.13634E-05-8.18021E-14
 -1      2353 1.02051E-02 5.86112E-05-8.79265E-14
 -1      2354 1.03498E-02 7.26411E-05-9.04379E-14
 -1      2355 1.01499E-02 8.86689E-05-8.67246E-14
 -1      2356 1.04942E-02 8.68814E-05-9.29745E-14
 -1      2357 1.06383E-02 1.01352E-04-9.55336E-14
 -1      2358 1.04384E-02 1.16702E-04-9.17458E-14
 -1      2359 1.07823E-02 1.16053E-04-9.81170E-14
 -1      2360 1.09260E-02 1.30992E-04-1.00722E-13
 -1      2361 1.07261E-02 1.45636E-04-9.68644E-14
 -1      2362 1.10696E-02 1.46158E-04-1.03347E-13
 -1      2363 1.12131E-02 1.61553E-04-1.05995E-13
 -1      2364 1.10132E-02 1.75519E-04-1.02072E-13
 -1      2365 1.13565E-02 1.77156E-04-1.08663E-13
 -1      2366 1.14998E-02 1.92967E-04-1.11352E-13
 -1      2367 1.12999E-02 2.06317E-04-1.07368E-13
 -1      2368 1.16429E-02 2.08962E-04-1.14062E-13
 -1      2369 1.17861E-02 2.25138E-04-1.16791E-13
 -1      2370 1.15863E-02 2.37949E-04-1.12747E-13
 -1      2371 1.19291E-02 2.41472E-04-1.19541E-13
 -1      2372 1.20721E-02 2.57957E-04-1.22310E-13
 -1      2373 1.18725E-02 2.70311E-04-1.18206E-13
 -1      2374 1.22151E-02 2.74575E-04-1.25097E-13
 -1      2375 1.23580E-02 2.91317E-04-1.27904E-13
 -1      2376 1.21584E-02 3.03294E-04-1.23742E-13
 -1      2377 1.25009E-02 3.08165E-04-1.30732E-13
 -1      2378 1.26438E-02 3.25113E-04-1.33576E-13
 -1      2379 1.24443E-02 3.36787E-04-1.29355E-13
 -1      2380 1.27867E-02 3.42145E-04-1.36438E-13
 -1      2381 1.29295E-02 3.59254E-04-1.39318E-13
 -1      2382 1.27301E-02 3.70691E-04-1.35041E-13
 -1      2383 1.30724E-02 3.76427E-04-1.42214E-13
 -1      2384 1.32152E-02 3.93657E-04-1.45126E-13
 -1      2385 1.30158E-02 4.04916E-04-1.40796E-13
 -1      2386 1.33580E-02 4.10933E-04-1.48053E-13
 -1      2387 1.35009E-02 4.28251E-04-1.50995E-13
 -1      2388 1.33015E-02 4.39383E-04-1.46614E-13
 -1      2389 1.36437E-02 4.45599E-04-1.53949E-13
 -1      2390 1.37865E-02 4.62973E-04-1.56920E-13
 -1      2391 1.35872E-02 4.74023E-04-1.52493E-13
 -1      2392 1.39294E-02 4.80364E-04-1.59901E-13
 -1      2393 1.40722E-02 4.97768E-04-1.62894E-13
 -1      2394 1.38729E-02 5.08777E-04-1.58424E-13
 -1      2395 1.93017E-03 4.46731E-04-3.00000E-15
 -1      2396 1.78059E-03 4.38017E-04-2.53878E-15
 -1      2397 2.23244E-03 4.61496E-04-4.04063E-15
 -1      2398 2.08068E-03 4.54394E-04-3.50058E-15
 -1      2399 1.98118E-03 4.13102E-04-3.34270E-15
 -1      2400 2.54021E-03 4.77172E-04-5.24019E-15
 -1      2401 2.38553E-03 4.68888E-04-4.62056E-15
 -1      2402 2.28139E-03 4.26611E-04-4.43248E-15
 -1      2403 2.85493E-03 5.00008E-04-6.59793E-15
 -1      2404 2.69663E-03 4.87292E-04-5.89924E-15
 -1      2405 2.58621E-03 4.42061E-04-5.67929E-15
 -1      2406 3.17798E-03 5.37374E-04-8.11540E-15
 -1      2407 3.01541E-03 5.16383E-04-7.33643E-15
 -1      2408 2.89736E-03 4.65716E-04-7.08382E-15
 -1      2409 3.51065E-03 5.97604E-04-9.79188E-15
 -1      2410 3.34323E-03 5.64081E-04-8.93369E-15
 -1      2411 3.21700E-03 5.05024E-04-8.64636E-15
 -1      2412 3.85360E-03 6.88791E-04-1.16304E-14
 -1      2413 3.68115E-03 6.38834E-04-1.06905E-14
 -1      2414 3.54771E-03 5.68476E-04-1.03673E-14
 -1      2415 4.20577E-03 8.15696E-04-1.36334E-14
 -1      2416 4.02916E-03 7.47655E-04-1.26111E-14
 -1      2417 3.89177E-03 6.64549E-04-1.22473E-14
 -1      2418 4.56239E-03 9.73765E-04-1.58064E-14
 -1      2419 4.38449E-03 8.91749E-04-1.46980E-14
 -1      2420 4.24921E-03 7.98545E-04-1.42919E-14
 -1      2421 4.91406E-03 1.14090E-03-1.81590E-14
 -1      2422 4.73963E-03 1.05856E-03-1.69598E-14
 -1      2423 4.61431E-03 9.65256E-04-1.65068E-14
 -1      2424 5.25244E-03 1.27611E-03-2.06992E-14
 -1      2425 5.08466E-03 1.21572E-03-1.94051E-14
 -1      2426 4.97463E-03 1.13815E-03-1.89020E-14
 -1      2427 5.57887E-03 1.33421E-03-2.34343E-14
 -1      2428 5.41560E-03 1.31697E-03-2.20429E-14
 -1      2429 5.31999E-03 1.26758E-03-2.14876E-14
 -1      2430 5.90612E-03 1.29709E-03-2.63688E-14
 -1      2431 5.74051E-03 1.32694E-03-2.48770E-14
 -1      2432 5.65453E-03 1.30390E-03-2.42723E-14
 -1      2433 6.24667E-03 1.18747E-03-2.94965E-14
 -1      2434 6.07398E-03 1.24816E-03-2.79084E-14
 -1      2435 5.99462E-03 1.23697E-03-2.72566E-14
 -1      2436 6.60081E-03 1.05270E-03-3.28018E-14
 -1      2437 6.42287E-03 1.12044E-03-3.11280E-14
 -1      2438 6.35099E-03 1.10617E-03-3.04330E-14
 -1      2439 6.95906E-03 9.31274E-04-3.62742E-14
 -1      2440 6.78041E-03 9.88565E-04-3.45176E-14
 -1      2441 6.71722E-03 9.66178E-04-3.37864E-14
 -1      2442 7.31289E-03 8.43445E-04-3.98967E-14
 -1      2443 7.13729E-03 8.82782E-04-3.80672E-14
 -1      2444 7.08009E-03 8.52104E-04-3.73005E-14
 -1      2445 7.65785E-03 7.92375E-04-4.36677E-14
 -1      2446 7.48684E-03 8.13574E-04-4.17635E-14
 -1      2447 7.43140E-03 7.76905E-04-4.09630E-14
 -1      2448 7.99313E-03 7.73050E-04-4.75802E-14
 -1      2449 7.82681E-03 7.79211E-04-4.56059E-14
 -1      2450 7.76931E-03 7.38284E-04-4.47694E-14
 -1      2451 8.31950E-03 7.77889E-04-5.16296E-14
 -1      2452 8.15741E-03 7.72912E-04-4.95875E-14
 -1      2453 8.09558E-03 7.28939E-04-4.87167E-14
 -1      2454 8.63816E-03 7.99613E-04-5.58196E-14
 -1      2455 8.47972E-03 7.87023E-04-5.37085E-14
 -1      2456 8.41276E-03 7.40908E-04-5.28019E-14
 -1      2457 8.95031E-03 8.32319E-04-6.01371E-14
 -1      2458 8.79496E-03 8.14883E-04-5.79621E-14
 -1      2459 8.72307E-03 7.67355E-04-5.70211E-14
 -1      2460 9.25697E-03 8.71634E-04-6.45788E-14
 -1      2461 9.10424E-03 8.51358E-04-6.23439E-14
 -1      2462 9.02809E-03 8.03002E-04-6.13667E-14
 -1      2463 9.55908E-03 9.14511E-04-6.91383E-14
 -1      2464 9.40852E-03 8.92770E-04-6.68439E-14
 -1      2465 9.32898E-03 8.44032E-04-6.58351E-14
 -1      2466 9.85744E-03 9.58930E-04-7.38105E-14
 -1      2467 9.70866E-03 9.36623E-04-7.14597E-14
 -1      2468 9.62655E-03 8.87819E-04-7.04185E-14
 -1      2469 1.01527E-02 1.00362E-03-7.85966E-14
 -1      2470 1.00054E-02 9.81302E-04-7.61890E-14
 -1      2471 9.92144E-03 9.32636E-04-7.51176E-14
 -1      2472 1.04456E-02 1.04782E-03-8.34866E-14
 -1      2473 1.02994E-02 1.02582E-03-8.10293E-14
 -1      2474 1.02142E-02 9.77410E-04-7.99256E-14
 -1      2475 1.07366E-02 1.09113E-03-8.84790E-14
 -1      2476 1.05913E-02 1.06960E-03-8.59707E-14
 -1      2477 1.05052E-02 1.02151E-03-8.48416E-14
 -1      2478 1.10260E-02 1.13336E-03-9.35709E-14
 -1      2479 1.08815E-02 1.11239E-03-9.10131E-14
 -1      2480 1.07948E-02 1.06463E-03-8.98557E-14
 -1      2481 1.13144E-02 1.17450E-03-9.87569E-14
 -1      2482 1.11703E-02 1.15407E-03-9.61506E-14
 -1      2483 1.10833E-02 1.10664E-03-9.49656E-14
 -1      2484 1.16019E-02 1.21459E-03-1.04036E-13
 -1      2485 1.14582E-02 1.19468E-03-1.01385E-13
 -1      2486 1.13710E-02 1.14753E-03-1.00172E-13
 -1      2487 1.18887E-02 1.25373E-03-1.09408E-13
 -1      2488 1.17454E-02 1.23428E-03-1.06712E-13
 -1      2489 1.16581E-02 1.18738E-03-1.05472E-13
 -1      2490 1.21751E-02 1.29204E-03-1.14861E-13
 -1      2491 1.20320E-02 1.27299E-03-1.12124E-13
 -1      2492 1.19447E-02 1.22631E-03-1.10859E-13
 -1      2493 1.24613E-02 1.32966E-03-1.20399E-13
 -1      2494 1.23182E-02 1.31093E-03-1.17620E-13
 -1      2495 1.22310E-02 1.26444E-03-1.16329E-13
 -1      2496 1.27472E-02 1.36669E-03-1.26015E-13
 -1      2497 1.26042E-02 1.34824E-03-1.23198E-13
 -1      2498 1.25171E-02 1.30189E-03-1.21885E-13
 -1      2499 1.30329E-02 1.40325E-03-1.31707E-13
 -1      2500 1.28901E-02 1.38502E-03-1.28852E-13
 -1      2501 1.28030E-02 1.33879E-03-1.27517E-13
 -1      2502 1.33186E-02 1.43945E-03-1.37468E-13
 -1      2503 1.31758E-02 1.42139E-03-1.34579E-13
 -1      2504 1.30887E-02 1.37525E-03-1.33221E-13
 -1      2505 1.36043E-02 1.47536E-03-1.43290E-13
 -1      2506 1.34614E-02 1.45744E-03-1.40372E-13
 -1      2507 1.33745E-02 1.41136E-03-1.38993E-13
 -1      2508 1.38899E-02 1.51107E-03-1.49168E-13
 -1      2509 1.37471E-02 1.49324E-03-1.46224E-13
 -1      2510 1.36601E-02 1.44721E-03-1.44824E-13
 -1      2511 1.41755E-02 1.54664E-03-1.55087E-13
 -1      2512 1.40327E-02 1.52887E-03-1.52124E-13
 -1      2513 1.39458E-02 1.48288E-03-1.50707E-13
 -1      2514 1.44612E-02 1.58213E-03-1.61045E-13
 -1      2515 1.43184E-02 1.56439E-03-1.58059E-13
 -1      2516 1.42315E-02 1.51841E-03-1.56630E-13
 -1      2517 1.47469E-02 1.61758E-03-1.67032E-13
 -1      2518 1.46040E-02 1.59985E-03-1.64035E-13
 -1      2519 1.45172E-02 1.55388E-03-1.62587E-13
 -1      2520 1.48950E-02 1.63693E-03-1.70137E-13
 -1      2521 1.46778E-02 1.29425E-03-1.68836E-13
 -1      2522 1.46952E-02 1.33643E-03-1.68798E-13
 -1      2523 1.46429E-02 1.20988E-03-1.68906E-13
 -1      2524 1.46603E-02 1.25207E-03-1.68872E-13
 -1      2525 1.45453E-02 1.25787E-03-1.66265E-13
 -1      2526 1.47471E-02 1.46153E-03-1.68674E-13
 -1      2527 1.47646E-02 1.50370E-03-1.68627E-13
 -1      2528 1.47125E-02 1.37825E-03-1.68759E-13
 -1      2529 1.47297E-02 1.41971E-03-1.68718E-13
 -1      2530 1.46147E-02 1.42547E-03-1.66102E-13
 -1      2531 1.45801E-02 1.34185E-03-1.66186E-13
 -1      2532 1.46083E-02 1.12551E-03-1.68973E-13
 -1      2533 1.46256E-02 1.16770E-03-1.68940E-13
 -1      2534 1.45105E-02 1.17353E-03-1.66336E-13
 -1      2535 1.45737E-02 1.04114E-03-1.69035E-13
 -1      2536 1.45909E-02 1.08332E-03-1.69005E-13
 -1      2537 1.44759E-02 1.08919E-03-1.66403E-13
 -1      2538 1.45392E-02 9.56763E-04-1.69083E-13
 -1      2539 1.45564E-02 9.98949E-04-1.69060E-13
 -1      2540 1.44413E-02 1.00485E-03-1.66457E-13
 -1      2541 1.45055E-02 8.73823E-04-1.69117E-13
 -1      2542 1.45223E-02 9.15292E-04-1.69101E-13
 -1      2543 1.44072E-02 9.21219E-04-1.66498E-13
 -1      2544 1.44712E-02 7.89460E-04-1.69137E-13
 -1      2545 1.44883E-02 8.31641E-04-1.69129E-13
 -1      2546 1.43732E-02 8.37593E-04-1.66525E-13
 -1      2547 1.44371E-02 7.05107E-04-1.69142E-13
 -1      2548 1.44542E-02 7.47282E-04-1.69141E-13
 -1      2549 1.43390E-02 7.53255E-04-1.66539E-13
 -1      2550 1.44030E-02 6.20769E-04-1.69137E-13
 -1      2551 1.44201E-02 6.62936E-04-1.69140E-13
 -1      2552 1.43049E-02 6.68923E-04-1.66539E-13
 -1      2553 7.18080E-03 4.55535E-04-3.32295E-14
 -1      2554 7.36858E-03 3.80029E-04-3.38620E-14
 -1      2555 1.63184E-03 4.27417E-04-2.11784E-15
 -1      2556 1.48356E-03 4.14513E-04-1.73623E-15
 -1      2557 1.68410E-03 3.96129E-04-2.41053E-15
 -1      2558 5.97933E-03 1.11325E-03-2.68888E-14
 -1      2559 6.13214E-03 1.02997E-03-2.78813E-14
 -1      2560 1.44507E-02 5.55976E-04-1.70768E-13
 -1      2561 6.79416E-03 6.46930E-04-3.15709E-14
 -1      2562 6.95705E-03 5.61184E-04-3.23261E-14
 -1      2563 7.72576E-03 2.49352E-04-3.50785E-14
 -1      2564 7.68271E-03 2.39363E-04-3.49910E-14
 -1      2565 5.44502E-03-7.87641E-04-2.48979E-14
 -1      2566 5.29712E-03-7.90065E-04-2.38564E-14
 -1      2567 3.20134E-03 1.57004E-04-1.56034E-14
 -1      2568 3.28891E-03 1.78717E-04-1.58515E-14
 -1      2569 5.01773E-03 1.06115E-03-2.07162E-14
 -1      2570 5.19477E-03 1.15331E-03-2.16983E-14
 -1      2571 5.32766E-04-1.57210E-05-5.13234E-16
 -1      2572 5.34383E-04-2.79630E-05-5.12326E-16
 -1      2573 6.46807E-04-4.07747E-05-6.92697E-16
 -1      2574 6.42589E-04-1.15044E-05-6.94879E-16
 -1      2575 5.66215E-03 1.22484E-03-2.47716E-14
 -1      2576 5.81382E-03 1.18170E-03-2.58178E-14
 -1      2577 5.89265E-03 1.16164E-03-2.64418E-14
 -1      2578 5.38278E-03 1.21713E-03-2.28231E-14
 -1      2579 5.50549E-03 1.23603E-03-2.36821E-14
 -1      2580 3.38916E-03 2.07854E-04-1.59417E-14
 -1      2581 3.51365E-03 2.45372E-04-1.60321E-14
 -1      2582 3.31860E-03 1.84136E-04-1.52510E-14
 -1      2583 4.17753E-03 5.51161E-04-1.75781E-14
 -1      2584 4.35545E-03 6.54659E-04-1.81026E-14
 -1      2585 5.75550E-03-6.92027E-04-2.69616E-14
 -1      2586 5.61995E-03-7.47633E-04-2.60716E-14
 -1      2587 3.73812E-03 3.35140E-04-1.65228E-14
 -1      2588 3.95500E-03 4.35208E-04-1.70455E-14
 -1      2589 4.05359E-03 4.85903E-04-1.68099E-14
 -1      2590 3.16017E-03 1.34295E-04-1.56558E-14
 -1      2591 3.15572E-03 1.39728E-04-1.55794E-14
 -1      2592 3.29713E-03 9.69394E-05-1.59770E-14
 -1      2593 3.20442E-03 1.18609E-04-1.57599E-14
 -1      2594 3.56640E-03 1.11623E-05-1.65874E-14
 -1      2595 3.43054E-03 5.64685E-05-1.62919E-14
 -1      2596 4.40602E-03-3.94383E-04-1.91112E-14
 -1      2597 4.23943E-03-2.99772E-04-1.85593E-14
 -1      2598 5.13740E-03-7.59519E-04-2.28230E-14
 -1      2599 5.01336E-03-7.13830E-04-2.20584E-14
 -1      2600 6.92092E-03-3.93962E-05-3.25880E-14
 -1      2601 6.74581E-03-1.27598E-04-3.19874E-14
 -1      2602 6.04499E-03-5.35497E-04-2.87107E-14
 -1      2603 5.89766E-03-6.21932E-04-2.78287E-14
 -1      2604 5.81944E-03-6.61614E-04-2.75850E-14
 -1      2605 7.26874E-03 1.10138E-04-3.37765E-14
 -1      2606 7.10258E-03 4.34726E-05-3.32107E-14
 -1      2607 5.98346E-04-2.11537E-04-3.98539E-16
 -1      2608 7.95324E-04-2.70582E-04-6.36969E-16
 -1      2609 8.53758E-04-2.56028E-04-7.85776E-16
 -1      2610 5.86925E-04-1.83233E-04-4.27176E-16
 -1      2611 7.73360E-04 3.00325E-04-4.47193E-16
 -1      2612 6.23334E-04 2.57644E-04-2.93941E-16
 -1      2613 5.95700E-04 2.31078E-04-3.05731E-16
 -1      2614 8.29437E-04 2.85038E-04-5.87665E-16
 -1      2615 7.51437E-03 3.28752E-04-3.44193E-14
 -1      2616 7.61368E-03 3.01542E-04-3.48443E-14
 -1      2617 6.66097E-04-1.10192E-04-6.64521E-16
 -1      2618 5.53097E-04-1.01766E-04-4.83988E-16
 -1      2619 5.59019E-04-1.20482E-04-4.71289E-16
 -1      2620 1.38871E-03 3.70690E-04-1.63582E-15
 -1      2621 5.81673E-04 2.00258E-04-3.43204E-16
 -1      2622 7.45429E-03 3.57285E-04-3.50014E-14
 -1      2623 5.67788E-04-1.38443E-04-4.62168E-16
 -1      2624 5.75732E-04-1.61176E-04-4.42897E-16
 -1      2625 7.05695E-04-1.95600E-04-6.11693E-16
 -1      2626 6.82990E-04-1.50824E-04-6.40926E-16
 -1      2627 3.67297E-03-3.17883E-05-1.66334E-14
 -1      2628 3.57099E-03-3.71274E-06-1.59804E-14
 -1      2629 3.77715E-03-8.18160E-05-1.66766E-14
 -1      2630 3.33812E-03 7.77084E-05-1.56297E-14
 -1      2631 6.67748E-03 7.25678E-04-3.14487E-14
 -1      2632 3.61884E-03 2.85706E-04-1.58116E-14
 -1      2633 7.01979E-03 1.31908E-05-3.35818E-14
 -1      2634 7.10430E-03 5.01027E-04-3.35162E-14
 -1      2635 7.67496E-03 2.86672E-04-3.55599E-14
 -1      2636 7.72334E-03 2.80975E-04-3.62806E-14
 -1      2637 7.65177E-03 3.02188E-04-3.62875E-14
 -1      2638 1.48081E-02 1.59094E-03-1.68681E-13
 -1      2639 1.47785E-02 1.55586E-03-1.68391E-13
 -1      2640 7.74643E-03 2.59563E-04-3.57302E-14
 -1      2641 4.90757E-03 9.99036E-04-2.00151E-14
 -1      2642 5.00151E-03 1.06123E-03-2.02448E-14
 -1      2643 4.79767E-03 9.32482E-04-1.93272E-14
 -1      2644 7.64127E-03 2.31404E-04-3.54260E-14
 -1      2645 6.99816E-04 2.17950E-04-5.01674E-16
 -1      2646 5.59707E-03 1.24064E-03-2.42700E-14
 -1      2647 1.42957E-02 5.22625E-04-1.67619E-13
 -1      2648 1.43632E-02 5.81408E-04-1.68601E-13
 -1      2649 1.42480E-02 5.87403E-04-1.65999E-13
 -1      2650 1.41684E-02 5.08700E-04-1.64924E-13
 -1      2651 7.45918E-03 1.83207E-04-3.53954E-14
 -1      2652 7.36899E-03 1.53284E-04-3.45815E-14
 -1      2653 7.29545E-03 1.28939E-04-3.50240E-14
 -1      2654 6.15817E-03-4.65740E-04-2.95422E-14
 -1      2655 6.06452E-03-5.24236E-04-2.92912E-14
 -1      2656 6.27128E-03-3.95877E-04-3.03876E-14
 -1      2657 5.22277E-03-7.84019E-04-2.33233E-14
 -1      2658 4.52478E-03-4.64220E-04-1.94304E-14
 -1      2659 4.41298E-03-4.12035E-04-1.87255E-14
 -1      2660 4.62673E-03-5.31241E-04-1.97508E-14
 -1      2661 3.16413E-03 1.44912E-04-1.51440E-14
 -1      2662 6.61638E-03-1.92090E-04-3.17863E-14
 -1      2663 6.50080E-03-2.58805E-04-3.15821E-14
 -1      2664 6.72376E-03-1.33283E-04-3.27456E-14
 -1      2665 5.52463E-03-7.75499E-04-2.55288E-14
 -1      2666 4.46764E-03 7.23566E-04-1.82050E-14
 -1      2667 4.91300E-03-6.74921E-04-2.13806E-14
 -1      2668 4.10220E-03-2.32711E-04-1.78783E-14
 -1      2669 5.28722E-03 1.19337E-03-2.20538E-14
 -1      2670 6.25467E-03 9.73486E-04-2.89022E-14
 -1      2671 3.16797E-03 1.22005E-04-1.52223E-14
 -1      2672 1.46461E-02 1.51944E-03-1.65821E-13
 -1      2673 1.41120E-02 5.37113E-04-1.63432E-13
 -1      2674 5.83976E-03 1.19828E-03-2.60975E-14
 -1      2675 5.98068E-03 1.13719E-03-2.71802E-14
 -1      2676 7.59871E-04 6.04099E-05-8.80806E-16
 -1      2677 7.56440E-04 4.36626E-05-8.90537E-16
 -1      2678 7.54179E-04 2.71819E-05-8.97936E-16
 -1      2679 7.53194E-04 1.10305E-05-9.02991E-16
 -1      2680 8.67541E-04 3.97067E-05-1.13282E-15
 -1      2681 7.86411E-04 1.39833E-04-8.13707E-16
 -1      2682 7.77897E-04 1.17656E-04-8.35527E-16
 -1      2683 8.07715E-04 1.90633E-04-7.57166E-16
 -1      2684 7.96394E-04 1.64069E-04-7.88066E-16
 -1      2685 9.10682E-04 1.68672E-04-1.02126E-15
 -1      2686 1.14884E-03 3.09152E-04-1.21666E-15
 -1      2687 1.00233E-03 2.86400E-04-9.40220E-16
 -1      2688 5.55843E-03 1.25385E-03-2.38670E-14
 -1      2689 5.69419E-03 1.23891E-03-2.49689E-14
 -1      2690 5.78899E-03 1.22945E-03-2.56743E-14
 -1      2691 8.14699E-04 2.39770E-04-6.65538E-16
 -1      2692 1.33814E-03-3.06642E-04-1.86923E-15
 -1      2693 1.48416E-03-3.20833E-04-2.26772E-15
 -1      2694 1.63035E-03-3.32628E-04-2.70591E-15
 -1      2695 1.77694E-03-3.42391E-04-3.18404E-15
 -1      2696 1.53835E-03-2.92795E-04-2.52886E-15
 -1      2697 1.92392E-03-3.50794E-04-3.70208E-15
 -1      2698 2.07147E-03-3.58243E-04-4.25952E-15
 -1      2699 1.82926E-03-3.11013E-04-3.49074E-15
 -1      2700 2.21973E-03-3.65380E-04-4.85717E-15
 -1      2701 2.36887E-03-3.72685E-04-5.49452E-15
 -1      2702 2.12203E-03-3.24517E-04-4.61091E-15
 -1      2703 2.51913E-03-3.80766E-04-6.17075E-15
 -1      2704 2.67064E-03-3.90212E-04-6.88685E-15
 -1      2705 2.41784E-03-3.37303E-04-5.88779E-15
 -1      2706 2.82378E-03-4.01584E-04-7.64234E-15
 -1      2707 2.97860E-03-4.15602E-04-8.43629E-15
 -1      2708 2.71847E-03-3.53688E-04-7.32144E-15
 -1      2709 3.13561E-03-4.32737E-04-9.26945E-15
 -1      2710 3.29467E-03-4.53806E-04-1.01415E-14
 -1      2711 3.02631E-03-3.78440E-04-8.91068E-15
 -1      2712 3.45639E-03-4.79105E-04-1.10527E-14
 -1      2713 3.62021E-03-5.09360E-04-1.20035E-14
 -1      2714 3.34401E-03-4.16811E-04-1.06542E-14
 -1      2715 3.78673E-03-5.44533E-04-1.29928E-14
 -1      2716 3.95480E-03-5.84853E-04-1.40222E-14
 -1      2717 3.67363E-03-4.74048E-04-1.25532E-14
 -1      2718 4.12478E-03-6.29742E-04-1.50920E-14
 -1      2719 4.29475E-03-6.77918E-04-1.62020E-14
 -1      2720 4.01495E-03-5.53782E-04-1.46086E-14
 -1      2721 4.46458E-03-7.27911E-04-1.73539E-14
 -1      2722 4.63245E-03-7.76274E-04-1.85483E-14
 -1      2723 4.36318E-03-6.53906E-04-1.68249E-14
 -1      2724 4.79767E-03-8.20587E-04-1.97867E-14
 -1      2725 4.96006E-03-8.55754E-04-2.10678E-14
 -1      2726 4.70828E-03-7.59408E-04-1.92080E-14
 -1      2727 5.11887E-03-8.79215E-04-2.23946E-14
 -1      2728 5.27635E-03-8.86703E-04-2.37671E-14
 -1      2729 5.04087E-03-8.39866E-04-2.17669E-14
 -1      2730 5.43195E-03-8.77089E-04-2.51859E-14
 -1      2731 5.58956E-03-8.50393E-04-2.66509E-14
 -1      2732 5.36153E-03-8.59457E-04-2.45094E-14
 -1      2733 5.74799E-03-8.08113E-04-2.81638E-14
 -1      2734 5.91059E-03-7.54115E-04-2.97220E-14
 -1      2735 5.68155E-03-8.01857E-04-2.74407E-14
 -1      2736 6.07612E-03-6.91211E-04-3.13233E-14
 -1      2737 6.24427E-03-6.24549E-04-3.29705E-14
 -1      2738 6.01409E-03-6.83333E-04-3.05579E-14
 -1      2739 6.41434E-03-5.56574E-04-3.46598E-14
 -1      2740 6.58453E-03-4.90580E-04-3.63902E-14
 -1      2741 6.35950E-03-5.41477E-04-3.38528E-14
 -1      2742 6.75462E-03-4.28116E-04-3.81606E-14
 -1      2743 6.92289E-03-3.70386E-04-3.99702E-14
 -1      2744 6.70758E-03-4.05987E-04-3.73171E-14
 -1      2745 7.08963E-03-3.17986E-04-4.18169E-14
 -1      2746 7.25370E-03-2.70774E-04-4.36985E-14
 -1      2747 7.04859E-03-2.91509E-04-4.09357E-14
 -1      2748 7.41566E-03-2.28847E-04-4.56173E-14
 -1      2749 7.57500E-03-1.91501E-04-4.75695E-14
 -1      2750 7.37790E-03-2.00381E-04-4.47015E-14
 -1      2751 7.73230E-03-1.58554E-04-4.95565E-14
 -1      2752 7.88745E-03-1.29263E-04-5.15772E-14
 -1      2753 7.69526E-03-1.29417E-04-4.86073E-14
 -1      2754 8.04090E-03-1.03309E-04-5.36299E-14
 -1      2755 8.19273E-03-8.00712E-05-5.57136E-14
 -1      2756 8.00273E-03-7.40047E-05-5.26466E-14
 -1      2757 8.34327E-03-5.91957E-05-5.78303E-14
 -1      2758 8.49264E-03-4.02132E-05-5.99772E-14
 -1      2759 8.30291E-03-2.98462E-05-5.68158E-14
 -1      2760 8.64105E-03-2.27924E-05-6.21534E-14
 -1      2761 8.78865E-03-6.59809E-06-6.43621E-14
 -1      2762 8.59807E-03 6.60115E-06-6.11088E-14
 -1      2763 8.93555E-03 8.64937E-06-6.66005E-14
 -1      2764 9.08188E-03 2.31810E-05-6.88695E-14
 -1      2765 8.88993E-03 3.80939E-05-6.55226E-14
 -1      2766 9.22770E-03 3.72143E-05-7.11679E-14
 -1      2767 9.37313E-03 5.09035E-05-7.34925E-14
 -1      2768 9.17966E-03 6.66950E-05-7.00578E-14
 -1      2769 9.51817E-03 6.44059E-05-7.58460E-14
 -1      2770 9.66293E-03 7.78207E-05-7.82254E-14
 -1      2771 9.46804E-03 9.38905E-05-7.47071E-14
 -1      2772 9.80740E-03 9.12530E-05-8.06314E-14
 -1      2773 9.95167E-03 1.04763E-04-8.30644E-14
 -1      2774 9.75556E-03 1.20703E-04-7.94642E-14
 -1      2775 1.00957E-02 1.18416E-04-8.55253E-14
 -1      2776 1.02396E-02 1.32244E-04-8.80092E-14
 -1      2777 1.00425E-02 1.47797E-04-8.43277E-14
 -1      2778 1.03834E-02 1.46280E-04-9.05191E-14
 -1      2779 1.05270E-02 1.60542E-04-9.30536E-14
 -1      2780 1.03291E-02 1.75566E-04-8.92950E-14
 -1      2781 1.06705E-02 1.75039E-04-9.56116E-14
 -1      2782 1.08139E-02 1.89776E-04-9.81937E-14
 -1      2783 1.06155E-02 2.04214E-04-9.43607E-14
 -1      2784 1.09572E-02 2.04749E-04-1.00797E-13
 -1      2785 1.11005E-02 2.19957E-04-1.03424E-13
 -1      2786 1.09017E-02 2.33808E-04-9.95228E-14
 -1      2787 1.12437E-02 2.35386E-04-1.06072E-13
 -1      2788 1.13868E-02 2.51031E-04-1.08742E-13
 -1      2789 1.11877E-02 2.64331E-04-1.04777E-13
 -1      2790 1.15299E-02 2.66874E-04-1.11432E-13
 -1      2791 1.16729E-02 2.82907E-04-1.14142E-13
 -1      2792 1.14737E-02 2.95712E-04-1.10117E-13
 -1      2793 1.18159E-02 2.99112E-04-1.16871E-13
 -1      2794 1.19589E-02 3.15479E-04-1.19621E-13
 -1      2795 1.17596E-02 3.27853E-04-1.15538E-13
 -1      2796 1.21019E-02 3.31989E-04-1.22388E-13
 -1      2797 1.22448E-02 3.48634E-04-1.25173E-13
 -1      2798 1.20454E-02 3.60645E-04-1.21034E-13
 -1      2799 1.23877E-02 3.65396E-04-1.27978E-13
 -1      2800 1.25306E-02 3.82267E-04-1.30803E-13
 -1      2801 1.23312E-02 3.93981E-04-1.26605E-13
 -1      2802 1.26735E-02 3.99232E-04-1.33646E-13
 -1      2803 1.28164E-02 4.16282E-04-1.36503E-13
 -1      2804 1.26170E-02 4.27759E-04-1.32250E-13
 -1      2805 1.29593E-02 4.33404E-04-1.39378E-13
 -1      2806 1.31022E-02 4.50592E-04-1.42272E-13
 -1      2807 1.29028E-02 4.61885E-04-1.37965E-13
 -1      2808 1.32450E-02 4.67833E-04-1.45179E-13
 -1      2809 1.33879E-02 4.85122E-04-1.48101E-13
 -1      2810 1.31885E-02 4.96280E-04-1.43745E-13
 -1      2811 1.35307E-02 5.02449E-04-1.51039E-13
 -1      2812 1.36736E-02 5.19807E-04-1.53988E-13
 -1      2813 1.34743E-02 5.30872E-04-1.49586E-13
 -1      2814 1.38165E-02 5.37190E-04-1.56951E-13
 -1      2815 1.39593E-02 5.54591E-04-1.59927E-13
 -1      2816 1.37600E-02 5.65601E-04-1.55481E-13
 -1      2817 2.32706E-03 3.92315E-04-4.82963E-15
 -1      2818 2.17810E-03 3.86134E-04-4.24130E-15
 -1      2819 2.02996E-03 3.79897E-04-3.69221E-15
 -1      2820 1.88234E-03 3.73117E-04-3.18207E-15
 -1      2821 2.07634E-03 3.47318E-04-4.04819E-15
 -1      2822 2.93489E-03 4.31683E-04-7.57460E-15
 -1      2823 2.78055E-03 4.18044E-04-6.82923E-15
 -1      2824 3.25083E-03 4.72177E-04-9.18135E-15
 -1      2825 3.09157E-03 4.49290E-04-8.35836E-15
 -1      2826 2.96778E-03 3.97668E-04-8.06923E-15
 -1      2827 3.57988E-03 5.37727E-04-1.09443E-14
 -1      2828 3.41362E-03 5.01087E-04-1.00430E-14
 -1      2829 3.27978E-03 4.38443E-04-9.71952E-15
 -1      2830 3.92623E-03 6.37564E-04-1.28662E-14
 -1      2831 3.75107E-03 5.82555E-04-1.18852E-14
 -1      2832 3.60755E-03 5.04863E-04-1.15244E-14
 -1      2833 4.29119E-03 7.78365E-04-1.49507E-14
 -1      2834 4.10718E-03 7.02415E-04-1.38881E-14
 -1      2835 3.95733E-03 6.07968E-04-1.34863E-14
 -1      2836 4.66939E-03 9.55570E-04-1.72070E-14
 -1      2837 4.48084E-03 8.63832E-04-1.60568E-14
 -1      2838 4.33210E-03 7.56870E-04-1.56105E-14
 -1      2839 5.04262E-03 1.11798E-03-1.98718E-14
 -1      2840 4.85270E-03 1.02456E-03-1.86257E-14
 -1      2841 5.73986E-03 1.27022E-03-2.51476E-14
 -1      2842 5.56673E-03 1.28205E-03-2.37037E-14
 -1      2843 6.05161E-03 1.17430E-03-2.78213E-14
 -1      2844 5.87012E-03 1.23367E-03-2.62888E-14
 -1      2845 6.84076E-03 8.74518E-04-3.47724E-14
 -1      2846 6.65366E-03 9.41216E-04-3.30521E-14
 -1      2847 7.20525E-03 7.72920E-04-3.83292E-14
 -1      2848 7.02596E-03 8.18564E-04-3.65320E-14
 -1      2849 6.97461E-03 7.82697E-04-3.57628E-14
 -1      2850 7.55088E-03 7.13040E-04-4.20302E-14
 -1      2851 7.38074E-03 7.38384E-04-4.01626E-14
 -1      2852 7.33451E-03 6.97585E-04-3.93607E-14
 -1      2853 7.87975E-03 6.87760E-04-4.58740E-14
 -1      2854 7.71732E-03 6.96794E-04-4.39346E-14
 -1      2855 7.67053E-03 6.54185E-04-4.31005E-14
 -1      2856 8.19618E-03 6.88293E-04-4.98549E-14
 -1      2857 8.03931E-03 6.85396E-04-4.78475E-14
 -1      2858 7.98835E-03 6.41891E-04-4.69790E-14
 -1      2859 8.50412E-03 7.06897E-04-5.39741E-14
 -1      2860 8.35101E-03 6.95778E-04-5.18968E-14
 -1      2861 8.29427E-03 6.51430E-04-5.09945E-14
 -1      2862 8.80637E-03 7.37483E-04-5.82212E-14
 -1      2863 8.65580E-03 7.21005E-04-5.60817E-14
 -1      2864 8.59302E-03 6.75779E-04-5.51441E-14
 -1      2865 9.10470E-03 7.75532E-04-6.25955E-14
 -1      2866 8.95591E-03 7.55792E-04-6.03939E-14
 -1      2867 8.88760E-03 7.09765E-04-5.94230E-14
 -1      2868 9.40020E-03 8.17823E-04-6.70897E-14
 -1      2869 9.25271E-03 7.96295E-04-6.48280E-14
 -1      2870 9.17970E-03 7.49643E-04-6.38234E-14
 -1      2871 9.69355E-03 8.62154E-04-7.16987E-14
 -1      2872 9.54708E-03 8.39831E-04-6.93790E-14
 -1      2873 9.47026E-03 7.92764E-04-6.83420E-14
 -1      2874 9.98521E-03 9.07086E-04-7.64225E-14
 -1      2875 9.83954E-03 8.84607E-04-7.40475E-14
 -1      2876 9.75977E-03 8.37321E-04-7.29778E-14
 -1      2877 1.02755E-02 9.51729E-04-8.12557E-14
 -1      2878 1.01305E-02 9.29481E-04-7.88259E-14
 -1      2879 1.00485E-02 8.82131E-04-7.77283E-14
 -1      2880 1.05647E-02 9.95577E-04-8.61926E-14
 -1      2881 1.04202E-02 9.73773E-04-8.37109E-14
 -1      2882 1.03366E-02 9.26468E-04-8.25834E-14
 -1      2883 1.08531E-02 1.03838E-03-9.12269E-14
 -1      2884 1.07090E-02 1.01712E-03-8.86972E-14
 -1      2885 1.06242E-02 9.69928E-04-8.75420E-14
 -1      2886 1.11407E-02 1.08006E-03-9.63585E-14
 -1      2887 1.09969E-02 1.05937E-03-9.37827E-14
 -1      2888 1.09113E-02 1.01233E-03-9.25973E-14
 -1      2889 1.14278E-02 1.12065E-03-1.01585E-13
 -1      2890 1.12843E-02 1.10049E-03-9.89597E-14
 -1      2891 1.11981E-02 1.05362E-03-9.77506E-14
 -1      2892 1.17145E-02 1.16023E-03-1.06904E-13
 -1      2893 1.15712E-02 1.14056E-03-1.04234E-13
 -1      2894 1.14846E-02 1.09385E-03-1.02998E-13
 -1      2895 1.20008E-02 1.19892E-03-1.12308E-13
 -1      2896 1.18577E-02 1.17968E-03-1.09596E-13
 -1      2897 1.17709E-02 1.13312E-03-1.08334E-13
 -1      2898 1.22870E-02 1.23684E-03-1.17798E-13
 -1      2899 1.21439E-02 1.21797E-03-1.15043E-13
 -1      2900 1.20570E-02 1.17154E-03-1.13758E-13
 -1      2901 1.25730E-02 1.27412E-03-1.23369E-13
 -1      2902 1.24300E-02 1.25555E-03-1.20572E-13
 -1      2903 1.23430E-02 1.20924E-03-1.19265E-13
 -1      2904 1.28588E-02 1.31089E-03-1.29016E-13
 -1      2905 1.27159E-02 1.29256E-03-1.26185E-13
 -1      2906 1.26289E-02 1.24635E-03-1.24852E-13
 -1      2907 1.31446E-02 1.34724E-03-1.34734E-13
 -1      2908 1.30017E-02 1.32911E-03-1.31867E-13
 -1      2909 1.29147E-02 1.28297E-03-1.30515E-13
 -1      2910 1.34303E-02 1.38326E-03-1.40513E-13
 -1      2911 1.32875E-02 1.36528E-03-1.37616E-13
 -1      2912 1.32005E-02 1.31921E-03-1.36242E-13
 -1      2913 1.37161E-02 1.41905E-03-1.46352E-13
 -1      2914 1.35732E-02 1.40118E-03-1.43426E-13
 -1      2915 1.34863E-02 1.35515E-03-1.42033E-13
 -1      2916 1.40018E-02 1.45467E-03-1.52239E-13
 -1      2917 1.38589E-02 1.43688E-03-1.49291E-13
 -1      2918 1.37720E-02 1.39087E-03-1.47879E-13
 -1      2919 1.42875E-02 1.49017E-03-1.58167E-13
 -1      2920 1.41446E-02 1.47243E-03-1.55200E-13
 -1      2921 1.40577E-02 1.42645E-03-1.53771E-13
 -1      2922 1.45382E-02 1.51367E-03-1.63480E-13
 -1      2923 1.43953E-02 1.49595E-03-1.60496E-13
 -1      2924 1.43084E-02 1.44998E-03-1.59057E-13
 -1      2925 1.45242E-02 1.46152E-03-1.63718E-13
 -1      2926 1.43435E-02 1.05288E-03-1.63834E-13
 -1      2927 1.43608E-02 1.09504E-03-1.63804E-13
 -1      2928 1.40555E-02 5.65525E-04-1.61946E-13
 -1      2929 1.41518E-02 5.76463E-04-1.63971E-13
 -1      2930 1.39991E-02 5.93935E-04-1.60463E-13
 -1      2931 1.44129E-02 1.22151E-03-1.63702E-13
 -1      2932 1.44303E-02 1.26367E-03-1.63663E-13
 -1      2933 1.43090E-02 9.68572E-04-1.63881E-13
 -1      2934 1.43262E-02 1.01073E-03-1.63860E-13
 -1      2935 1.42111E-02 1.01659E-03-1.61270E-13
 -1      2936 1.43781E-02 1.13719E-03-1.63773E-13
 -1      2937 1.43955E-02 1.17935E-03-1.63737E-13
 -1      2938 1.42804E-02 1.18515E-03-1.61146E-13
 -1      2939 1.42457E-02 1.10087E-03-1.61214E-13
 -1      2940 1.73524E-03 3.65035E-04-2.71067E-15
 -1      2941 1.58836E-03 3.55243E-04-2.27874E-15
 -1      2942 1.78487E-03 3.34365E-04-3.01853E-15
 -1      2943 1.42752E-02 8.85690E-04-1.63916E-13
 -1      2944 1.42920E-02 9.27131E-04-1.63901E-13
 -1      2945 1.41769E-02 9.33029E-04-1.61313E-13
 -1      2946 1.42409E-02 8.01376E-04-1.63939E-13
 -1      2947 1.42580E-02 8.43533E-04-1.63929E-13
 -1      2948 1.41428E-02 8.49461E-04-1.61342E-13
 -1      2949 1.42067E-02 7.17061E-04-1.63946E-13
 -1      2950 1.42238E-02 7.59218E-04-1.63944E-13
 -1      2951 1.41086E-02 7.65173E-04-1.61358E-13
 -1      2952 3.50134E-03 2.47956E-04-1.49368E-14
 -1      2953 3.70446E-03 3.26224E-04-1.54022E-14
 -1      2954 7.04628E-03 5.51451E-04-3.40126E-14
 -1      2955 7.24033E-03 4.60023E-04-3.49436E-14
 -1      2956 2.62800E-03 4.07530E-04-6.12359E-15
 -1      2957 2.47692E-03 3.99231E-04-5.45710E-15
 -1      2958 2.36945E-03 3.58719E-04-5.23287E-15
 -1      2959 2.66573E-03 3.73543E-04-6.57304E-15
 -1      2960 1.04702E-03-2.68701E-04-1.19224E-15
 -1      2961 1.19249E-03-2.89367E-04-1.51082E-15
 -1      2962 1.24879E-03-2.66100E-04-1.72536E-15
 -1      2963 3.24694E-03 1.67041E-04-1.46253E-14
 -1      2964 3.33252E-03 1.89814E-04-1.47067E-14
 -1      2965 7.41906E-03 3.85537E-04-3.57234E-14
 -1      2966 7.54666E-03 3.42492E-04-3.62976E-14
 -1      2967 1.44179E-03 3.42982E-04-1.88578E-15
 -1      2968 1.29519E-03 3.27877E-04-1.53157E-15
 -1      2969 1.20381E-03 2.86323E-04-1.42434E-15
 -1      2970 1.49414E-03 3.15423E-04-2.14362E-15
 -1      2971 4.96651E-03-7.11867E-04-2.15443E-14
 -1      2972 4.81190E-03-6.34795E-04-2.06415E-14
 -1      2973 6.16907E-03 1.04082E-03-2.85454E-14
 -1      2974 6.36860E-03 9.26800E-04-2.99471E-14
 -1      2975 6.10511E-03 1.09671E-03-2.81826E-14
 -1      2976 7.69352E-03 2.44185E-04-3.69100E-14
 -1      2977 7.59653E-03 2.23442E-04-3.64218E-14
 -1      2978 7.11480E-03 5.49788E-05-3.47221E-14
 -1      2979 6.95270E-03-1.86311E-05-3.40807E-14
 -1      2980 7.70613E-04 9.72640E-05-8.53443E-16
 -1      2981 7.64628E-04 7.82418E-05-8.68514E-16
 -1      2982 8.75923E-04 7.77543E-05-1.10892E-15
 -1      2983 8.90302E-04 1.19898E-04-1.07280E-15
 -1      2984 4.39640E-03 6.87170E-04-1.74987E-14
 -1      2985 4.59601E-03 8.08090E-04-1.83760E-14
 -1      2986 7.66296E-04-7.41142E-05-8.96323E-16
 -1      2987 7.72273E-04-9.37914E-05-8.87840E-16
 -1      2988 3.92638E-03 4.29191E-04-1.59367E-14
 -1      2989 4.12069E-03 5.32475E-04-1.64417E-14
 -1      2990 6.60726E-03 7.90205E-04-3.15111E-14
 -1      2991 6.80664E-03 6.75247E-04-3.26715E-14
 -1      2992 5.19014E-03 1.16209E-03-2.12424E-14
 -1      2993 5.35537E-03 1.22519E-03-2.23525E-14
 -1      2994 3.37727E-03 5.46557E-05-1.52238E-14
 -1      2995 3.25930E-03 8.66935E-05-1.49239E-14
 -1      2996 4.13835E-03-2.72114E-04-1.74954E-14
 -1      2997 3.95310E-03-1.71261E-04-1.69764E-14
 -1      2998 3.12126E-03 1.33926E-04-1.44928E-14
 -1      2999 3.16603E-03 1.45255E-04-1.45139E-14
 -1      3000 5.61353E-03-7.54649E-04-2.63309E-14
 -1      3001 5.46285E-03-7.94057E-04-2.51489E-14
 -1      3002 1.41916E-02 6.15817E-04-1.64505E-13
 -1      3003 5.85125E-03-6.47896E-04-2.80634E-14
 -1      3004 5.73016E-03-7.09513E-04-2.71905E-14
 -1      3005 5.65838E-03-7.44456E-04-2.67914E-14
 -1      3006 3.16139E-03 1.10527E-04-1.45780E-14
 -1      3007 3.12106E-03 1.20705E-04-1.44798E-14
 -1      3008 7.76221E-03 2.67964E-04-3.65624E-14
 -1      3009 7.75777E-03 2.62014E-04-3.67409E-14
 -1      3010 5.27512E-03-7.98805E-04-2.36951E-14
 -1      3011 5.13670E-03-7.71171E-04-2.26676E-14
 -1      3012 8.08652E-04-2.18920E-04-7.67913E-16
 -1      3013 9.42312E-04-2.49270E-04-9.91693E-16
 -1      3014 1.00082E-03-2.31691E-04-1.16453E-15
 -1      3015 7.95264E-04-1.93493E-04-7.87199E-16
 -1      3016 4.70640E-03 8.89542E-04-1.85888E-14
 -1      3017 8.65237E-04 3.42335E-06-1.14538E-15
 -1      3018 7.53452E-04-5.09830E-06-9.05824E-16
 -1      3019 7.54923E-04-2.14261E-05-9.06678E-16
 -1      3020 5.03180E-03-7.46698E-04-2.18951E-14
 -1      3021 5.37122E-03-8.07890E-04-2.44578E-14
 -1      3022 5.28535E-03-8.11192E-04-2.37759E-14
 -1      3023 5.45951E-03-8.04314E-04-2.52318E-14
 -1      3024 7.76633E-03 2.79223E-04-3.72971E-14
 -1      3025 3.08550E-03 1.21903E-04-1.38638E-14
 -1      3026 7.54419E-03 2.06096E-04-3.68713E-14
 -1      3027 4.24948E-03-3.39099E-04-1.77920E-14
 -1      3028 4.08989E-03-2.80442E-04-1.68852E-14
 -1      3029 4.34999E-03-4.06710E-04-1.80909E-14
 -1      3030 3.45617E-03 2.23922E-05-1.52626E-14
 -1      3031 3.35261E-03 3.60219E-05-1.45613E-14
 -1      3032 3.53862E-03-1.62607E-05-1.52995E-14
 -1      3033 7.62560E-03 3.24746E-04-3.70236E-14
 -1      3034 7.69480E-03 3.14745E-04-3.77528E-14
 -1      3035 7.60663E-03 3.52670E-04-3.77575E-14
 -1      3036 1.43151E-02 1.26909E-03-1.61067E-13
 -1      3037 1.44476E-02 1.30547E-03-1.63621E-13
 -1      3038 1.44649E-02 1.34727E-03-1.63580E-13
 -1      3039 7.33135E-03 1.33034E-04-3.63518E-14
 -1      3040 7.22669E-03 9.87755E-05-3.55324E-14
 -1      3041 7.17098E-03 6.40782E-05-3.60385E-14
 -1      3042 5.38051E-03 1.25663E-03-2.21890E-14
 -1      3043 5.20473E-03 1.20520E-03-2.08529E-14
 -1      3044 6.54226E-03 9.09981E-04-3.17642E-14
 -1      3045 6.40854E-03 1.01210E-03-3.08336E-14
 -1      3046 6.21679E-03 1.09276E-03-2.92116E-14
 -1      3047 6.51215E-03 8.69478E-04-3.11338E-14
 -1      3048 4.24690E-03 6.16623E-04-1.65952E-14
 -1      3049 1.44859E-02 1.38349E-03-1.63674E-13
 -1      3050 1.45032E-02 1.42529E-03-1.63628E-13
 -1      3051 1.43953E-02 1.41953E-03-1.61298E-13
 -1      3052 1.43534E-02 1.34709E-03-1.61117E-13
 -1      3053 6.96950E-03 6.18825E-04-3.40763E-14
 -1      3054 3.77244E-03 3.74387E-04-1.50493E-14
 -1      3055 1.42086E-02 6.57974E-04-1.64511E-13
 -1      3056 8.73513E-04 2.25496E-04-8.14832E-16
 -1      3057 7.36391E-03 4.33853E-04-3.62337E-14
 -1      3058 6.38721E-03-3.28063E-04-3.13211E-14
 -1      3059 6.29025E-03-3.94616E-04-3.10579E-14
 -1      3060 6.50254E-03-2.67087E-04-3.22688E-14
 -1      3061 3.82797E-03-1.29106E-04-1.63104E-14
 -1      3062 4.69734E-03-5.85552E-04-1.99047E-14
 -1      3063 6.84109E-03-7.72062E-05-3.38651E-14
 -1      3064 6.73655E-03-1.39197E-04-3.36494E-14
 -1      3065 6.95416E-03-3.42673E-05-3.50025E-14
 -1      3066 5.45815E-03 1.25200E-03-2.30092E-14
 -1      3067 3.16570E-03 1.50646E-04-1.39839E-14
 -1      3068 7.57583E-04-3.81749E-05-9.05349E-16
 -1      3069 7.61376E-04-5.56912E-05-9.01866E-16
 -1      3070 8.78081E-04-7.23923E-05-1.13927E-15
 -1      3071 8.68876E-04-3.32265E-05-1.14738E-15
 -1      3072 9.89682E-04 2.30176E-04-1.05711E-15
 -1      3073 7.75293E-03 2.57515E-04-3.77504E-14
 -1      3074 7.74060E-03 2.50116E-04-3.87640E-14
 -1      3075 7.79926E-03 2.66234E-04-3.85965E-14
 -1      3076 8.92476E-04-1.16152E-04-1.11943E-15
 -1      3077 7.79363E-04-1.14848E-04-8.76564E-16
 -1      3078 7.87464E-04-1.37562E-04-8.61832E-16
 -1      3079 3.17624E-03 9.17840E-05-1.41868E-14
 -1      3080 5.95571E-03-5.93793E-04-2.88820E-14
 -1      3081 5.86857E-03-6.51876E-04-2.84710E-14
 -1      3082 6.06135E-03-5.35593E-04-2.97137E-14
 -1      3083 1.40462E-02 6.28943E-04-1.61195E-13
 -1      3084 1.41595E-02 6.82041E-04-1.63218E-13
 -1      3085 1.40443E-02 6.88015E-04-1.60635E-13
 -1      3086 1.39500E-02 6.18002E-04-1.59180E-13
 -1      3087 7.34790E-03 4.77789E-04-3.70009E-14
 -1      3088 7.50014E-03 4.13218E-04-3.78052E-14
 -1      3089 1.03787E-03 1.98041E-04-1.25107E-15
 -1      3090 1.02440E-03 1.69727E-04-1.28645E-15
 -1      3091 6.75552E-03 7.93831E-04-3.33791E-14
 -1      3092 1.44842E-03-2.54653E-04-2.35258E-15
 -1      3093 1.59223E-03-2.64612E-04-2.79677E-15
 -1      3094 7.85042E-04-1.53399E-04-8.33087E-16
 -1      3095 7.96433E-04-1.75630E-04-8.20240E-16
 -1      3096 8.97782E-04-1.93884E-04-1.00344E-15
 -1      3097 8.99797E-04-1.57407E-04-1.07244E-15
 -1      3098 3.39943E-03 2.22328E-04-1.43141E-14
 -1      3099 7.62564E-03 2.17403E-04-3.84407E-14
 -1      3100 7.49017E-03 1.83839E-04-3.73901E-14
 -1      3101 7.44134E-03 1.55532E-04-3.79076E-14
 -1      3102 1.73632E-03-2.72802E-04-3.28057E-15
 -1      3103 1.88084E-03-2.79553E-04-3.80326E-15
 -1      3104 1.64551E-03-2.36257E-04-3.07133E-15
 -1      3105 2.02578E-03-2.85365E-04-4.36526E-15
 -1      3106 2.17135E-03-2.90630E-04-4.96664E-15
 -1      3107 1.93147E-03-2.48014E-04-4.12140E-15
 -1      3108 2.31769E-03-2.95839E-04-5.60649E-15
 -1      3109 2.46506E-03-3.01506E-04-6.28520E-15
 -1      3110 2.21929E-03-2.56552E-04-5.32674E-15
 -1      3111 2.61375E-03-3.08090E-04-7.00274E-15
 -1      3112 2.76408E-03-3.16291E-04-7.75940E-15
 -1      3113 2.51040E-03-2.65195E-04-6.68651E-15
 -1      3114 2.91653E-03-3.26519E-04-8.55357E-15
 -1      3115 3.07140E-03-3.39758E-04-9.38652E-15
 -1      3116 2.80730E-03-2.77827E-04-8.19937E-15
 -1      3117 3.22939E-03-3.56357E-04-1.02586E-14
 -1      3118 3.39058E-03-3.77609E-04-1.11686E-14
 -1      3119 3.11369E-03-2.99295E-04-9.86529E-15
 -1      3120 3.55582E-03-4.03788E-04-1.21165E-14
 -1      3121 3.72458E-03-4.36197E-04-1.31030E-14
 -1      3122 3.43417E-03-3.36043E-04-1.16834E-14
 -1      3123 3.89772E-03-4.74842E-04-1.41288E-14
 -1      3124 4.07355E-03-5.20579E-04-1.51941E-14
 -1      3125 3.77285E-03-3.95997E-04-1.36536E-14
 -1      3126 4.25302E-03-5.73002E-04-1.62994E-14
 -1      3127 4.43215E-03-6.29863E-04-1.74456E-14
 -1      3128 4.13053E-03-4.86764E-04-1.57794E-14
 -1      3129 4.61095E-03-6.89428E-04-1.86346E-14
 -1      3130 4.78636E-03-7.45349E-04-1.98661E-14
 -1      3131 4.50022E-03-6.08714E-04-1.80658E-14
 -1      3132 5.28555E-03-8.39151E-04-2.38261E-14
 -1      3133 5.44878E-03-8.29799E-04-2.52430E-14
 -1      3134 5.63039E-03-7.76456E-04-2.68135E-14
 -1      3135 5.80337E-03-7.17196E-04-2.83326E-14
 -1      3136 6.30380E-03-5.26070E-04-3.30479E-14
 -1      3137 6.48294E-03-4.51246E-04-3.47406E-14
 -1      3138 6.66225E-03-3.81996E-04-3.64729E-14
 -1      3139 6.83766E-03-3.18784E-04-3.82462E-14
 -1      3140 6.61842E-03-3.56979E-04-3.56310E-14
 -1      3141 7.01039E-03-2.62614E-04-4.00578E-14
 -1      3142 7.17867E-03-2.13032E-04-4.19050E-14
 -1      3143 6.97518E-03-2.31680E-04-3.91789E-14
 -1      3144 7.34337E-03-1.69978E-04-4.37887E-14
 -1      3145 7.50399E-03-1.32047E-04-4.57073E-14
 -1      3146 7.31224E-03-1.37368E-04-4.28771E-14
 -1      3147 7.66139E-03-9.90962E-05-4.76595E-14
 -1      3148 7.81567E-03-6.98955E-05-4.96460E-14
 -1      3149 7.63087E-03-6.72606E-05-4.67142E-14
 -1      3150 7.96750E-03-4.42256E-05-5.16666E-14
 -1      3151 8.11719E-03-2.11939E-05-5.37185E-14
 -1      3152 7.93532E-03-1.37167E-05-5.06869E-14
 -1      3153 8.26519E-03-5.52741E-07-5.58023E-14
 -1      3154 8.41184E-03 1.82970E-05-5.79192E-14
 -1      3155 8.23016E-03 2.88467E-05-5.47921E-14
 -1      3156 8.55742E-03 3.56025E-05-6.00659E-14
 -1      3157 8.70219E-03 5.17524E-05-6.22423E-14
 -1      3158 8.51908E-03 6.42969E-05-5.90236E-14
 -1      3159 8.84632E-03 6.69718E-05-6.44479E-14
 -1      3160 8.99001E-03 8.15085E-05-6.66845E-14
 -1      3161 8.80469E-03 9.53131E-05-6.33755E-14
 -1      3162 9.13333E-03 9.55513E-05-6.89507E-14
 -1      3163 9.27644E-03 1.09255E-04-7.12459E-14
 -1      3164 9.08868E-03 1.23776E-04-6.78464E-14
 -1      3165 9.41935E-03 1.22768E-04-7.35696E-14
 -1      3166 9.56217E-03 1.36182E-04-7.59212E-14
 -1      3167 9.37206E-03 1.51007E-04-7.24340E-14
 -1      3168 9.70490E-03 1.49605E-04-7.82981E-14
 -1      3169 9.84761E-03 1.63090E-04-8.07015E-14
 -1      3170 9.65539E-03 1.77916E-04-7.71340E-14
 -1      3171 9.99028E-03 1.76707E-04-8.31324E-14
 -1      3172 1.01330E-02 1.90485E-04-8.55894E-14
 -1      3173 9.93897E-03 2.05101E-04-8.19398E-14
 -1      3174 1.02756E-02 2.04465E-04-8.80720E-14
 -1      3175 1.04184E-02 2.18656E-04-9.05787E-14
 -1      3176 1.02229E-02 2.32929E-04-8.68512E-14
 -1      3177 1.05611E-02 2.33080E-04-9.31114E-14
 -1      3178 1.07038E-02 2.47736E-04-9.56687E-14
 -1      3179 1.05072E-02 2.61594E-04-9.18628E-14
 -1      3180 1.08466E-02 2.62628E-04-9.82494E-14
 -1      3181 1.09893E-02 2.77749E-04-1.00854E-13
 -1      3182 1.07919E-02 2.91168E-04-9.69773E-14
 -1      3183 1.11321E-02 2.93095E-04-1.03483E-13
 -1      3184 1.12749E-02 3.08654E-04-1.06133E-13
 -1      3185 1.10769E-02 3.21643E-04-1.02188E-13
 -1      3186 1.14177E-02 3.24416E-04-1.08802E-13
 -1      3187 1.15606E-02 3.40369E-04-1.11494E-13
 -1      3188 1.13620E-02 3.52958E-04-1.07489E-13
 -1      3189 1.17034E-02 3.56498E-04-1.14203E-13
 -1      3190 1.18463E-02 3.72792E-04-1.16932E-13
 -1      3191 1.16474E-02 3.85025E-04-1.12869E-13
 -1      3192 1.19891E-02 3.89235E-04-1.19681E-13
 -1      3193 1.21320E-02 4.05817E-04-1.22447E-13
 -1      3194 1.19329E-02 4.17741E-04-1.18327E-13
 -1      3195 1.22748E-02 4.22522E-04-1.25233E-13
 -1      3196 1.24177E-02 4.39340E-04-1.28036E-13
 -1      3197 1.22185E-02 4.51003E-04-1.23861E-13
 -1      3198 1.25606E-02 4.56257E-04-1.30856E-13
 -1      3199 1.27034E-02 4.73264E-04-1.33696E-13
 -1      3200 1.25042E-02 4.84715E-04-1.29466E-13
 -1      3201 1.28463E-02 4.90348E-04-1.36552E-13
 -1      3202 1.29892E-02 5.07503E-04-1.39424E-13
 -1      3203 1.27899E-02 5.18785E-04-1.35139E-13
 -1      3204 1.31321E-02 5.24716E-04-1.42314E-13
 -1      3205 1.32749E-02 5.41981E-04-1.45218E-13
 -1      3206 1.30756E-02 5.53135E-04-1.40882E-13
 -1      3207 1.34178E-02 5.59290E-04-1.48136E-13
 -1      3208 1.35607E-02 5.76635E-04-1.51069E-13
 -1      3209 1.33614E-02 5.87697E-04-1.46688E-13
 -1      3210 1.36839E-02 5.88605E-04-1.53634E-13
 -1      3211 1.38268E-02 6.05999E-04-1.56590E-13
 -1      3212 1.38739E-02 6.40995E-04-1.57319E-13
 -1      3213 1.36275E-02 6.17006E-04-1.52169E-13
 -1      3214 1.40447E-02 8.97146E-04-1.58750E-13
 -1      3215 1.40616E-02 9.38555E-04-1.58733E-13
 -1      3216 5.08711E-03 1.11665E-03-2.05232E-14
 -1      3217 3.30244E-03 4.03556E-04-1.02605E-14
 -1      3218 3.14732E-03 3.80848E-04-9.39537E-15
 -1      3219 2.99569E-03 3.63629E-04-8.56827E-15
 -1      3220 2.84664E-03 3.50273E-04-7.77918E-15
 -1      3221 3.01850E-03 3.29213E-04-9.07129E-15
 -1      3222 3.98102E-03 5.74402E-04-1.41062E-14
 -1      3223 3.80068E-03 5.15258E-04-1.30861E-14
 -1      3224 4.70878E-03 9.19567E-04-1.81197E-14
 -1      3225 8.09414E-03 6.00819E-04-4.80858E-14
 -1      3226 7.94332E-03 5.98320E-04-4.61125E-14
 -1      3227 8.38912E-03 6.18373E-04-5.21359E-14
 -1      3228 8.24248E-03 6.07903E-04-5.00940E-14
 -1      3229 8.19561E-03 5.64908E-04-4.91943E-14
 -1      3230 8.67894E-03 6.47526E-04-5.63145E-14
 -1      3231 8.53442E-03 6.31804E-04-5.42088E-14
 -1      3232 8.47987E-03 5.88966E-04-5.32752E-14
 -1      3233 8.96637E-03 6.84155E-04-6.06217E-14
 -1      3234 8.82280E-03 6.65108E-04-5.84534E-14
 -1      3235 8.76137E-03 6.21806E-04-5.74861E-14
 -1      3236 9.25282E-03 7.25288E-04-6.50498E-14
 -1      3237 9.10962E-03 7.04295E-04-6.28207E-14
 -1      3238 9.04235E-03 6.60291E-04-6.18206E-14
 -1      3239 9.53895E-03 7.68814E-04-6.95956E-14
 -1      3240 9.39587E-03 7.46843E-04-6.73081E-14
 -1      3241 9.32380E-03 7.02136E-04-6.62757E-14
 -1      3242 9.82503E-03 8.13281E-04-7.42577E-14
 -1      3243 9.68196E-03 7.90989E-04-7.19120E-14
 -1      3244 9.60605E-03 7.45694E-04-7.08490E-14
 -1      3245 1.01111E-02 8.57736E-04-7.90305E-14
 -1      3246 9.96805E-03 8.35546E-04-7.66298E-14
 -1      3247 9.88915E-03 7.89812E-04-7.55349E-14
 -1      3248 1.03972E-02 9.01596E-04-8.39106E-14
 -1      3249 1.02542E-02 8.79761E-04-8.14581E-14
 -1      3250 1.01730E-02 8.33731E-04-8.03327E-14
 -1      3251 1.06833E-02 9.44544E-04-8.88914E-14
 -1      3252 1.05403E-02 9.23194E-04-8.63891E-14
 -1      3253 1.04574E-02 8.76986E-04-8.52370E-14
 -1      3254 1.09694E-02 9.86445E-04-9.39690E-14
 -1      3255 1.08264E-02 9.65628E-04-9.14162E-14
 -1      3256 1.07422E-02 9.19332E-04-9.02388E-14
 -1      3257 1.12554E-02 1.02728E-03-9.91423E-14
 -1      3258 1.11124E-02 1.00699E-03-9.65454E-14
 -1      3259 1.10273E-02 9.60671E-04-9.53388E-14
 -1      3260 1.15414E-02 1.06712E-03-1.04409E-13
 -1      3261 1.13984E-02 1.04732E-03-1.01764E-13
 -1      3262 1.13127E-02 1.00101E-03-1.00534E-13
 -1      3263 1.18274E-02 1.10604E-03-1.09765E-13
 -1      3264 1.16844E-02 1.08669E-03-1.07077E-13
 -1      3265 1.15982E-02 1.04041E-03-1.05821E-13
 -1      3266 1.21133E-02 1.14418E-03-1.15208E-13
 -1      3267 1.19703E-02 1.12520E-03-1.12475E-13
 -1      3268 1.18838E-02 1.07897E-03-1.11195E-13
 -1      3269 1.23991E-02 1.18165E-03-1.20732E-13
 -1      3270 1.22562E-02 1.16299E-03-1.17961E-13
 -1      3271 1.21695E-02 1.11681E-03-1.16657E-13
 -1      3272 1.26849E-02 1.21857E-03-1.26337E-13
 -1      3273 1.25420E-02 1.20017E-03-1.23524E-13
 -1      3274 1.24552E-02 1.15404E-03-1.22201E-13
 -1      3275 1.29707E-02 1.25504E-03-1.32010E-13
 -1      3276 1.28278E-02 1.23685E-03-1.29165E-13
 -1      3277 1.27409E-02 1.19077E-03-1.27818E-13
 -1      3278 1.32565E-02 1.29117E-03-1.37750E-13
 -1      3279 1.31136E-02 1.27314E-03-1.34874E-13
 -1      3280 1.30267E-02 1.22710E-03-1.33506E-13
 -1      3281 1.35422E-02 1.32702E-03-1.43550E-13
 -1      3282 1.33993E-02 1.30912E-03-1.40642E-13
 -1      3283 1.33124E-02 1.26311E-03-1.39256E-13
 -1      3284 1.38280E-02 1.36269E-03-1.49401E-13
 -1      3285 1.36851E-02 1.34488E-03-1.46469E-13
 -1      3286 1.35982E-02 1.29888E-03-1.45064E-13
 -1      3287 1.41137E-02 1.39822E-03-1.55302E-13
 -1      3288 1.39708E-02 1.38046E-03-1.52347E-13
 -1      3289 1.38839E-02 1.33449E-03-1.50922E-13
 -1      3290 1.43085E-02 1.41177E-03-1.59456E-13
 -1      3291 1.42006E-02 1.40599E-03-1.57134E-13
 -1      3292 1.41137E-02 1.36002E-03-1.55700E-13
 -1      3293 1.42875E-02 1.37555E-03-1.59369E-13
 -1      3294 1.83320E-03 3.04287E-04-3.33333E-15
 -1      3295 1.68951E-03 2.97118E-04-2.85243E-15
 -1      3296 1.40789E-02 9.80677E-04-1.58711E-13
 -1      3297 1.40962E-02 1.02280E-03-1.58689E-13
 -1      3298 1.39467E-02 9.44779E-04-1.56163E-13
 -1      3299 1.39763E-02 7.28988E-04-1.58782E-13
 -1      3300 1.39934E-02 7.71121E-04-1.58778E-13
 -1      3301 5.08653E-03-7.78407E-04-2.22352E-14
 -1      3302 4.93109E-03-7.22886E-04-2.11265E-14
 -1      3303 4.52790E-03 8.11165E-04-1.72018E-14
 -1      3304 3.04109E-03 1.10064E-04-1.31279E-14
 -1      3305 3.04667E-03 1.22304E-04-1.31405E-14
 -1      3306 1.15364E-03 2.58004E-04-1.37944E-15
 -1      3307 1.08456E-03 2.23108E-04-1.30194E-15
 -1      3308 1.19880E-03 2.21231E-04-1.60463E-15
 -1      3309 1.29754E-03 2.74159E-04-1.71429E-15
 -1      3310 1.16207E-03-2.27761E-04-1.58167E-15
 -1      3311 1.30507E-03-2.42461E-04-1.94770E-15
 -1      3312 1.36095E-03-2.18336E-04-2.17746E-15
 -1      3313 1.40105E-02 8.13073E-04-1.58774E-13
 -1      3314 1.40276E-02 8.55200E-04-1.58764E-13
 -1      3315 1.39123E-02 8.60749E-04-1.56197E-13
 -1      3316 1.38782E-02 7.76884E-04-1.56212E-13
 -1      3317 7.78918E-03 6.00725E-04-4.41720E-14
 -1      3318 7.63082E-03 6.10139E-04-4.22664E-14
 -1      3319 7.90428E-03 5.54178E-04-4.52451E-14
 -1      3320 7.46675E-03 6.26664E-04-4.03957E-14
 -1      3321 7.29637E-03 6.53789E-04-3.85593E-14
 -1      3322 7.59841E-03 5.63918E-04-4.14335E-14
 -1      3323 3.62776E-03 4.69362E-04-1.21061E-14
 -1      3324 3.46234E-03 4.32076E-04-1.11639E-14
 -1      3325 3.31879E-03 3.66928E-04-1.08048E-14
 -1      3326 3.64020E-03 4.30508E-04-1.26890E-14
 -1      3327 2.12063E-03 3.15525E-04-4.41052E-15
 -1      3328 1.97683E-03 3.10307E-04-3.85275E-15
 -1      3329 1.88008E-03 2.74911E-04-3.65559E-15
 -1      3330 6.94152E-03 6.75293E-04-3.44892E-14
 -1      3331 7.15289E-03 5.70115E-04-3.58676E-14
 -1      3332 7.31365E-03 5.33696E-04-3.74317E-14
 -1      3333 6.95202E-03 7.32996E-04-3.51489E-14
 -1      3334 3.83614E-03-1.65886E-04-1.58609E-14
 -1      3335 3.68806E-03-8.49763E-05-1.55810E-14
 -1      3336 3.55809E-03-5.52345E-05-1.48692E-14
 -1      3337 3.63797E-03 3.34340E-04-1.42269E-14
 -1      3338 3.83392E-03 4.24242E-04-1.47324E-14
 -1      3339 9.82387E-04 5.40133E-05-1.39432E-15
 -1      3340 9.79280E-04 3.38500E-05-1.40519E-15
 -1      3341 3.10055E-03 1.40282E-04-1.33674E-14
 -1      3342 3.17014E-03 1.59210E-04-1.34721E-14
 -1      3343 4.72715E-03-6.29628E-04-1.98478E-14
 -1      3344 4.56197E-03-5.33879E-04-1.89829E-14
 -1      3345 7.77308E-03 2.91774E-04-3.81760E-14
 -1      3346 7.80922E-03 2.81265E-04-3.84634E-14
 -1      3347 3.27259E-03 1.95132E-04-1.34776E-14
 -1      3348 3.41949E-03 2.47457E-04-1.36902E-14
 -1      3349 3.19627E-03 6.93601E-05-1.38175E-14
 -1      3350 3.10541E-03 9.08830E-05-1.34871E-14
 -1      3351 9.77964E-04 1.39999E-05-1.41278E-15
 -1      3352 9.78434E-04-5.84192E-06-1.41717E-15
 -1      3353 1.09162E-03 2.62382E-05-1.70693E-15
 -1      3354 1.13732E-03 1.68088E-04-1.58314E-15
 -1      3355 1.01254E-03 1.43599E-04-1.31657E-15
 -1      3356 1.00244E-03 1.19245E-04-1.34184E-15
 -1      3357 6.07453E-03-6.00118E-04-3.07385E-14
 -1      3358 6.20532E-03-5.07840E-04-3.15663E-14
 -1      3359 7.71172E-03 2.36778E-04-3.92944E-14
 -1      3360 7.67987E-03 2.18961E-04-3.98247E-14
 -1      3361 7.78603E-03 2.50501E-04-4.01548E-14
 -1      3362 4.40062E-03-4.67822E-04-1.80355E-14
 -1      3363 3.75515E-03 4.29085E-04-1.38039E-14
 -1      3364 3.90093E-03 4.75229E-04-1.46201E-14
 -1      3365 7.58731E-03 3.90380E-04-3.85429E-14
 -1      3366 7.66795E-03 3.73862E-04-3.92868E-14
 -1      3367 7.57996E-03 4.32044E-04-3.93298E-14
 -1      3368 1.41828E-02 1.23289E-03-1.58520E-13
 -1      3369 1.42001E-02 1.27467E-03-1.58475E-13
 -1      3370 4.95738E-03-7.96719E-04-2.11410E-14
 -1      3371 5.12423E-03-8.29216E-04-2.24637E-14
 -1      3372 5.89516E-03-6.78511E-04-2.91519E-14
 -1      3373 7.28641E-03 5.98643E-04-3.79176E-14
 -1      3374 7.13730E-03 6.82379E-04-3.69172E-14
 -1      3375 2.26454E-03 3.20588E-04-5.00671E-15
 -1      3376 2.16280E-03 2.84599E-04-4.77971E-15
 -1      3377 2.40889E-03 3.25951E-04-5.64215E-15
 -1      3378 2.72953E-03 3.07255E-04-7.48834E-15
 -1      3379 2.69956E-03 3.40162E-04-7.02829E-15
 -1      3380 2.55374E-03 3.32257E-04-6.31587E-15
 -1      3381 4.08498E-03 5.82364E-04-1.50616E-14
 -1      3382 3.02723E-03 1.27616E-04-1.26474E-14
 -1      3383 4.27947E-03 6.67190E-04-1.61546E-14
 -1      3384 1.41479E-02 1.14863E-03-1.58595E-13
 -1      3385 1.41653E-02 1.19076E-03-1.58559E-13
 -1      3386 1.40502E-02 1.19635E-03-1.55979E-13
 -1      3387 1.41133E-02 1.06465E-03-1.58661E-13
 -1      3388 1.41307E-02 1.10678E-03-1.58630E-13
 -1      3389 1.40156E-02 1.11239E-03-1.56054E-13
 -1      3390 1.39811E-02 1.02872E-03-1.56116E-13
 -1      3391 4.83533E-03-7.19872E-04-2.03467E-14
 -1      3392 4.77563E-03-6.72265E-04-2.00339E-14
 -1      3393 3.94825E-03-2.39808E-04-1.60284E-14
 -1      3394 3.80416E-03-1.93076E-04-1.53024E-14
 -1      3395 3.02752E-03 9.47577E-05-1.27770E-14
 -1      3396 2.96074E-03 9.63789E-05-1.20832E-14
 -1      3397 3.02162E-03 7.67038E-05-1.24266E-14
 -1      3398 4.04443E-03-2.99254E-04-1.63054E-14
 -1      3399 7.76950E-03 3.11228E-04-3.89257E-14
 -1      3400 1.56570E-03 2.93081E-04-2.45466E-15
 -1      3401 1.42180E-03 2.82246E-04-2.04682E-15
 -1      3402 1.37069E-03 2.55297E-04-1.98756E-15
 -1      3403 1.61631E-03 2.65883E-04-2.73268E-15
 -1      3404 6.62984E-03-2.05447E-04-3.33749E-14
 -1      3405 6.53349E-03-2.72584E-04-3.30993E-14
 -1      3406 6.75389E-03-1.54042E-04-3.44987E-14
 -1      3407 7.07088E-03 1.49974E-05-3.58147E-14
 -1      3408 6.97421E-03-3.84613E-05-3.55894E-14
 -1      3409 7.18290E-03 5.62810E-05-3.66352E-14
 -1      3410 3.30928E-03 1.97439E-05-1.38857E-14
 -1      3411 3.24950E-03 4.69285E-05-1.38527E-14
 -1      3412 3.15602E-03 5.13597E-05-1.31603E-14
 -1      3413 7.84145E-03 2.77515E-04-3.94890E-14
 -1      3414 7.86092E-03 2.73706E-04-4.05207E-14
 -1      3415 7.87549E-03 2.88967E-04-4.03870E-14
 -1      3416 9.87302E-04 7.47044E-05-1.38043E-15
 -1      3417 1.09871E-03 6.96228E-05-1.68184E-15
 -1      3418 9.93952E-04 9.63174E-05-1.36286E-15
 -1      3419 1.39015E-02 6.67490E-04-1.57690E-13
 -1      3420 1.39487E-02 7.02490E-04-1.58412E-13
 -1      3421 1.38335E-02 7.08456E-04-1.55846E-13
 -1      3422 1.37783E-02 6.55480E-04-1.55108E-13
 -1      3423 1.00549E-03-1.14381E-04-1.39300E-15
 -1      3424 1.01534E-03-1.39805E-04-1.37740E-15
 -1      3425 3.47642E-03 2.87370E-04-1.33906E-14
 -1      3426 3.52567E-03 3.31196E-04-1.30874E-14
 -1      3427 3.32833E-03 2.54190E-04-1.25800E-14
 -1      3428 3.17889E-03 1.78450E-04-1.28729E-14
 -1      3429 9.90010E-04-6.79838E-05-1.41208E-15
 -1      3430 9.96988E-04-9.05200E-05-1.40437E-15
 -1      3431 1.11816E-03-1.09905E-04-1.69606E-15
 -1      3432 5.18277E-03-8.07328E-04-2.29626E-14
 -1      3433 9.99977E-04-2.10714E-04-1.20639E-15
 -1      3434 1.05856E-03-1.92682E-04-1.38760E-15
 -1      3435 3.54723E-03-9.03481E-05-1.43274E-14
 -1      3436 3.42150E-03-3.06184E-05-1.40645E-14
 -1      3437 1.05851E-03-1.72946E-04-1.42667E-15
 -1      3438 1.55727E-03-2.01668E-04-2.86406E-15
 -1      3439 1.69834E-03-2.07818E-04-3.35237E-15
 -1      3440 1.83961E-03-2.12660E-04-3.87906E-15
 -1      3441 1.98125E-03-2.16464E-04-4.44456E-15
 -1      3442 1.75057E-03-1.79265E-04-3.63914E-15
 -1      3443 2.12324E-03-2.19572E-04-5.04844E-15
 -1      3444 2.26583E-03-2.22353E-04-5.69076E-15
 -1      3445 2.03007E-03-1.84875E-04-4.77244E-15
 -1      3446 2.40914E-03-2.25145E-04-6.37172E-15
 -1      3447 2.55360E-03-2.28462E-04-7.09093E-15
 -1      3448 2.31083E-03-1.87999E-04-6.05935E-15
 -1      3449 2.69950E-03-2.32607E-04-7.84732E-15
 -1      3450 2.84744E-03-2.38402E-04-8.64188E-15
 -1      3451 2.59446E-03-1.91189E-04-7.49776E-15
 -1      3452 2.99793E-03-2.46087E-04-9.47472E-15
 -1      3453 3.15174E-03-2.57068E-04-1.03453E-14
 -1      3454 2.88416E-03-1.97754E-04-9.08727E-15
 -1      3455 3.30971E-03-2.71643E-04-1.12535E-14
 -1      3456 3.47242E-03-2.91891E-04-1.21988E-14
 -1      3457 3.18509E-03-2.12759E-04-1.08263E-14
 -1      3458 3.64128E-03-3.17842E-04-1.31821E-14
 -1      3459 3.81585E-03-3.52701E-04-1.42037E-14
 -1      3460 3.50494E-03-2.44820E-04-1.27153E-14
 -1      3461 3.93932E-03-3.53842E-04-1.50871E-14
 -1      3462 4.12526E-03-4.07024E-04-1.61777E-14
 -1      3463 7.45714E-03 5.18151E-04-3.90847E-14
 -1      3464 1.17268E-03-1.69815E-04-1.73798E-15
 -1      3465 6.94584E-03-1.97558E-04-3.83014E-14
 -1      3466 7.11917E-03-1.45413E-04-4.01166E-14
 -1      3467 7.28682E-03-1.02354E-04-4.19658E-14
 -1      3468 7.44832E-03-6.52195E-05-4.38509E-14
 -1      3469 7.26756E-03-6.44885E-05-4.10566E-14
 -1      3470 7.60507E-03-3.39543E-05-4.57702E-14
 -1      3471 7.75763E-03-6.44841E-06-4.77228E-14
 -1      3472 7.58441E-03 1.26918E-06-4.48277E-14
 -1      3473 7.90685E-03 1.74200E-05-4.97103E-14
 -1      3474 8.05348E-03 3.89433E-05-5.17301E-14
 -1      3475 7.88238E-03 4.94799E-05-4.87350E-14
 -1      3476 8.19803E-03 5.82496E-05-5.37826E-14
 -1      3477 8.34112E-03 7.60842E-05-5.58670E-14
 -1      3478 8.16895E-03 8.78217E-05-5.27749E-14
 -1      3479 8.48305E-03 9.25904E-05-5.79820E-14
 -1      3480 8.62427E-03 1.08188E-04-6.01292E-14
 -1      3481 8.44936E-03 1.20563E-04-5.69429E-14
 -1      3482 8.76493E-03 1.23027E-04-6.23044E-14
 -1      3483 8.90533E-03 1.37343E-04-6.45090E-14
 -1      3484 8.72699E-03 1.50140E-04-6.12341E-14
 -1      3485 9.04555E-03 1.51277E-04-6.67447E-14
 -1      3486 9.18577E-03 1.64961E-04-6.90089E-14
 -1      3487 9.00387E-03 1.78050E-04-6.56440E-14
 -1      3488 9.32601E-03 1.78515E-04-7.13016E-14
 -1      3489 9.46640E-03 1.92011E-04-7.36238E-14
 -1      3490 9.28115E-03 2.05269E-04-7.01726E-14
 -1      3491 9.60691E-03 2.05543E-04-7.59732E-14
 -1      3492 9.74762E-03 2.19145E-04-7.83489E-14
 -1      3493 9.55939E-03 2.32452E-04-7.48143E-14
 -1      3494 9.88850E-03 2.32888E-04-8.07501E-14
 -1      3495 1.00296E-02 2.46782E-04-8.31790E-14
 -1      3496 9.83882E-03 2.60028E-04-7.95641E-14
 -1      3497 1.01709E-02 2.60876E-04-8.56345E-14
 -1      3498 1.03123E-02 2.75165E-04-8.81139E-14
 -1      3499 1.01194E-02 2.88263E-04-8.44196E-14
 -1      3500 1.04539E-02 2.89680E-04-9.06199E-14
 -1      3501 1.05957E-02 3.04408E-04-9.31518E-14
 -1      3502 1.04012E-02 3.17298E-04-8.93788E-14
 -1      3503 1.07377E-02 3.19365E-04-9.57077E-14
 -1      3504 1.08797E-02 3.34536E-04-9.82883E-14
 -1      3505 1.06838E-02 3.47181E-04-9.44407E-14
 -1      3506 1.10219E-02 3.49923E-04-1.00894E-13
 -1      3507 1.11642E-02 3.65510E-04-1.03524E-13
 -1      3508 1.09673E-02 3.77899E-04-9.96023E-14
 -1      3509 1.13066E-02 3.81295E-04-1.06173E-13
 -1      3510 1.14491E-02 3.97260E-04-1.08844E-13
 -1      3511 1.12514E-02 4.09395E-04-1.04859E-13
 -1      3512 1.15916E-02 4.13397E-04-1.11534E-13
 -1      3513 1.17342E-02 4.29692E-04-1.14245E-13
 -1      3514 1.15360E-02 4.41590E-04-1.10200E-13
 -1      3515 1.18769E-02 4.46133E-04-1.16974E-13
 -1      3516 1.20196E-02 4.62708E-04-1.19723E-13
 -1      3517 1.18210E-02 4.74392E-04-1.15622E-13
 -1      3518 1.21623E-02 4.79404E-04-1.22490E-13
 -1      3519 1.23051E-02 4.96211E-04-1.25276E-13
 -1      3520 1.21062E-02 5.07708E-04-1.21119E-13
 -1      3521 1.24479E-02 5.13116E-04-1.28076E-13
 -1      3522 1.25907E-02 5.30111E-04-1.30894E-13
 -1      3523 1.23916E-02 5.41449E-04-1.26688E-13
 -1      3524 1.27335E-02 5.47184E-04-1.33731E-13
 -1      3525 1.28764E-02 5.64326E-04-1.36583E-13
 -1      3526 1.26772E-02 5.75534E-04-1.32324E-13
 -1      3527 1.30192E-02 5.81529E-04-1.39453E-13
 -1      3528 1.31621E-02 5.98786E-04-1.42341E-13
 -1      3529 1.29628E-02 6.09891E-04-1.38027E-13
 -1      3530 1.33049E-02 6.16087E-04-1.45242E-13
 -1      3531 1.34478E-02 6.33427E-04-1.48156E-13
 -1      3532 1.32486E-02 6.44455E-04-1.43796E-13
 -1      3533 3.03561E-03 2.95009E-04-9.57784E-15
 -1      3534 2.89478E-03 2.83800E-04-8.74679E-15
 -1      3535 4.27051E-03-4.49523E-04-1.70484E-14
 -1      3536 8.84001E-03 5.98445E-04-5.86563E-14
 -1      3537 8.70283E-03 5.80075E-04-5.65204E-14
 -1      3538 8.01449E-03 5.14564E-04-4.63206E-14
 -1      3539 7.87249E-03 5.10224E-04-4.43794E-14
 -1      3540 8.29189E-03 5.34010E-04-5.03026E-14
 -1      3541 8.15375E-03 5.22939E-04-4.82947E-14
 -1      3542 8.11698E-03 4.81698E-04-4.73964E-14
 -1      3543 9.11535E-03 6.38034E-04-6.30196E-14
 -1      3544 8.97742E-03 6.17818E-04-6.08231E-14
 -1      3545 8.91460E-03 5.76894E-04-5.98282E-14
 -1      3546 9.39251E-03 6.80081E-04-6.75010E-14
 -1      3547 9.25366E-03 6.58819E-04-6.52447E-14
 -1      3548 9.18527E-03 6.16932E-04-6.42173E-14
 -1      3549 9.67148E-03 7.23321E-04-7.20998E-14
 -1      3550 9.53176E-03 7.01599E-04-6.97875E-14
 -1      3551 9.45890E-03 6.58761E-04-6.87258E-14
 -1      3552 9.95206E-03 7.66851E-04-7.68129E-14
 -1      3553 9.81157E-03 7.45081E-04-7.44433E-14
 -1      3554 9.73519E-03 7.01414E-04-7.33525E-14
 -1      3555 1.02339E-02 8.10066E-04-8.16355E-14
 -1      3556 1.00928E-02 7.88516E-04-7.92100E-14
 -1      3557 1.00137E-02 7.44178E-04-7.80914E-14
 -1      3558 1.05169E-02 8.52598E-04-8.65615E-14
 -1      3559 1.03753E-02 8.31427E-04-8.40862E-14
 -1      3560 1.02940E-02 7.86573E-04-8.29365E-14
 -1      3561 1.08006E-02 8.94258E-04-9.15858E-14
 -1      3562 1.06587E-02 8.73540E-04-8.90611E-14
 -1      3563 1.05758E-02 8.28307E-04-8.78845E-14
 -1      3564 1.10850E-02 9.34979E-04-9.67083E-14
 -1      3565 1.09427E-02 9.14734E-04-9.41343E-14
 -1      3566 1.08587E-02 8.69230E-04-9.29326E-14
 -1      3567 1.13698E-02 9.74777E-04-1.01924E-13
 -1      3568 1.12273E-02 9.54988E-04-9.93053E-14
 -1      3569 1.11424E-02 9.09300E-04-9.80757E-14
 -1      3570 1.16549E-02 1.01372E-03-1.07233E-13
 -1      3571 1.15123E-02 9.94350E-04-1.04567E-13
 -1      3572 1.14267E-02 9.48539E-04-1.03316E-13
 -1      3573 1.19402E-02 1.05191E-03-1.12626E-13
 -1      3574 1.17975E-02 1.03290E-03-1.09918E-13
 -1      3575 1.17115E-02 9.87014E-04-1.08643E-13
 -1      3576 1.22257E-02 1.08944E-03-1.18104E-13
 -1      3577 1.20830E-02 1.07075E-03-1.15354E-13
 -1      3578 1.19966E-02 1.02481E-03-1.14055E-13
 -1      3579 1.25113E-02 1.12642E-03-1.23667E-13
 -1      3580 1.23685E-02 1.10799E-03-1.20877E-13
 -1      3581 1.22819E-02 1.06204E-03-1.19554E-13
 -1      3582 1.27970E-02 1.16296E-03-1.29299E-13
 -1      3583 1.26542E-02 1.14474E-03-1.26475E-13
 -1      3584 1.25675E-02 1.09877E-03-1.25132E-13
 -1      3585 1.30827E-02 1.19914E-03-1.34999E-13
 -1      3586 1.29399E-02 1.18109E-03-1.32139E-13
 -1      3587 1.28531E-02 1.13512E-03-1.30779E-13
 -1      3588 1.33685E-02 1.23504E-03-1.40759E-13
 -1      3589 1.32256E-02 1.21712E-03-1.37872E-13
 -1      3590 1.31388E-02 1.17116E-03-1.36489E-13
 -1      3591 1.36542E-02 1.27073E-03-1.46575E-13
 -1      3592 1.35113E-02 1.25291E-03-1.43661E-13
 -1      3593 1.34245E-02 1.20695E-03-1.42261E-13
 -1      3594 1.39400E-02 1.30628E-03-1.52443E-13
 -1      3595 1.37971E-02 1.28852E-03-1.49501E-13
 -1      3596 1.37102E-02 1.24256E-03-1.48087E-13
 -1      3597 1.38143E-02 9.08547E-04-1.53621E-13
 -1      3598 1.38316E-02 9.50629E-04-1.53601E-13
 -1      3599 1.42333E-02 1.30700E-03-1.58877E-13
 -1      3600 1.42542E-02 1.34321E-03-1.58969E-13
 -1      3601 1.41673E-02 1.33545E-03-1.57134E-13
 -1      3602 1.41009E-02 1.27079E-03-1.56336E-13
 -1      3603 4.64190E-03-6.31684E-04-1.90980E-14
 -1      3604 7.51784E-03 1.60579E-04-3.93356E-14
 -1      3605 7.36532E-03 1.12825E-04-3.82717E-14
 -1      3606 8.56600E-03 5.63015E-04-5.44163E-14
 -1      3607 8.42901E-03 5.47559E-04-5.23439E-14
 -1      3608 8.38170E-03 5.07496E-04-5.14117E-14
 -1      3609 8.64695E-03 5.39897E-04-5.55582E-14
 -1      3610 7.74378E-03 5.06294E-04-4.26396E-14
 -1      3611 7.59427E-03 5.11929E-04-4.07636E-14
 -1      3612 7.61897E-03 4.54026E-04-4.02551E-14
 -1      3613 7.86363E-03 4.63142E-04-4.36822E-14
 -1      3614 1.92589E-03 2.46373E-04-3.98494E-15
 -1      3615 1.78655E-03 2.41282E-04-3.45697E-15
 -1      3616 6.28011E-03-4.18125E-04-3.14362E-14
 -1      3617 6.16586E-03-4.77819E-04-3.05052E-14
 -1      3618 9.80653E-04-2.59272E-05-1.41854E-15
 -1      3619 9.84512E-04-4.65390E-05-1.41675E-15
 -1      3620 1.10192E-03-6.12717E-05-1.71399E-15
 -1      3621 1.29423E-03-1.82433E-04-2.06238E-15
 -1      3622 1.43448E-03-1.91631E-04-2.47857E-15
 -1      3623 1.48960E-03-1.66575E-04-2.72574E-15
 -1      3624 1.24832E-03-1.47328E-04-2.00122E-15
 -1      3625 7.78038E-03 3.34008E-04-3.99273E-14
 -1      3626 7.84867E-03 3.12432E-04-4.03624E-14
 -1      3627 2.95235E-03 1.18944E-04-1.18578E-14
 -1      3628 3.00865E-03 1.38017E-04-1.20719E-14
 -1      3629 3.07395E-03 1.64330E-04-1.20787E-14
 -1      3630 3.15993E-03 1.99071E-04-1.20774E-14
 -1      3631 2.97485E-03 1.53320E-04-1.13087E-14
 -1      3632 6.53046E-03-3.30158E-04-3.40745E-14
 -1      3633 6.71934E-03-2.53523E-04-3.57956E-14
 -1      3634 3.78860E-03-2.65054E-04-1.45774E-14
 -1      3635 4.45304E-03-5.60349E-04-1.79013E-14
 -1      3636 1.26442E-03 1.92771E-04-1.87292E-15
 -1      3637 1.24937E-03 1.63810E-04-1.91162E-15
 -1      3638 5.53176E-03-8.07486E-04-2.59581E-14
 -1      3639 1.37801E-02 8.24732E-04-1.53648E-13
 -1      3640 1.37972E-02 8.66641E-04-1.53636E-13
 -1      3641 1.36821E-02 8.72518E-04-1.51086E-13
 -1      3642 7.77810E-03 3.66387E-04-4.07330E-14
 -1      3643 7.71670E-03 2.11881E-04-4.10707E-14
 -1      3644 7.62222E-03 1.89585E-04-4.01998E-14
 -1      3645 7.56415E-03 1.53912E-04-4.05710E-14
 -1      3646 3.58825E-03 3.86810E-04-1.28036E-14
 -1      3647 2.06474E-03 2.50763E-04-4.55098E-15
 -1      3648 1.97068E-03 2.18728E-04-4.32151E-15
 -1      3649 2.20331E-03 2.54712E-04-5.15512E-15
 -1      3650 6.88492E-03-1.51870E-04-3.66841E-14
 -1      3651 2.77831E-03 2.44039E-04-8.42215E-15
 -1      3652 2.75579E-03 2.75234E-04-7.95292E-15
 -1      3653 2.61731E-03 2.68432E-04-7.19670E-15
 -1      3654 3.27665E-03 3.19116E-04-1.10788E-14
 -1      3655 3.13837E-03 2.66381E-04-1.07084E-14
 -1      3656 1.35514E-02 6.38450E-04-1.50343E-13
 -1      3657 1.36747E-02 6.50434E-04-1.52902E-13
 -1      3658 1.37023E-02 6.76913E-04-1.53271E-13
 -1      3659 1.34950E-02 6.66827E-04-1.48884E-13
 -1      3660 1.69650E-03 2.09225E-04-3.25772E-15
 -1      3661 1.64695E-03 2.34987E-04-2.96708E-15
 -1      3662 2.44542E-03 2.94018E-04-6.05727E-15
 -1      3663 1.37164E-02 9.56189E-04-1.51049E-13
 -1      3664 1.38487E-02 9.92443E-04-1.53579E-13
 -1      3665 1.38659E-02 1.03426E-03-1.53553E-13
 -1      3666 1.40805E-02 1.32769E-03-1.55303E-13
 -1      3667 7.94436E-03 3.25328E-04-4.24387E-14
 -1      3668 7.91126E-03 3.05648E-04-4.14093E-14
 -1      3669 7.95979E-03 3.01506E-04-4.24633E-14
 -1      3670 1.39936E-02 1.28173E-03-1.53870E-13
 -1      3671 3.42667E-03 3.42848E-04-1.20101E-14
 -1      3672 3.05947E-03 4.93213E-05-1.23492E-14
 -1      3673 2.96256E-03 5.66580E-05-1.16713E-14
 -1      3674 3.30309E-03-1.43903E-05-1.33666E-14
 -1      3675 2.87824E-03 8.93956E-05-1.11997E-14
 -1      3676 2.91076E-03 1.04301E-04-1.15283E-14
 -1      3677 2.86981E-03 1.13533E-04-1.09822E-14
 -1      3678 1.34091E-03 2.35648E-04-1.96467E-15
 -1      3679 1.29231E-03 2.10769E-04-1.90016E-15
 -1      3680 1.40427E-03 2.04361E-04-2.26276E-15
 -1      3681 1.46309E-03 2.41789E-04-2.31965E-15
 -1      3682 1.52610E-03 2.31646E-04-2.56267E-15
 -1      3683 1.09283E-03-1.66286E-05-1.71747E-15
 -1      3684 7.28071E-03 7.36003E-05-3.80408E-14
 -1      3685 7.19477E-03 2.99265E-05-3.78065E-14
 -1      3686 7.37713E-03 8.43720E-05-3.94647E-14
 -1      3687 4.86407E-03-7.39518E-04-2.05208E-14
 -1      3688 3.71910E-03-2.11114E-04-1.44829E-14
 -1      3689 3.62423E-03-1.46708E-04-1.43321E-14
 -1      3690 1.39178E-02 1.15999E-03-1.53447E-13
 -1      3691 1.39352E-02 1.20209E-03-1.53405E-13
 -1      3692 6.06758E-03-5.50435E-04-3.00795E-14
 -1      3693 3.09912E-03 2.95242E-05-1.23798E-14
 -1      3694 3.47862E-03-1.17389E-04-1.35399E-14
 -1      3695 1.23614E-03-1.19199E-04-2.01843E-15
 -1      3696 1.35486E-03-1.27747E-04-2.36902E-15
 -1      3697 1.22575E-03-9.25357E-05-2.03109E-15
 -1      3698 7.85628E-03 2.65043E-04-4.10628E-14
 -1      3699 7.84464E-03 2.53828E-04-4.16054E-14
 -1      3700 7.91639E-03 2.77656E-04-4.19772E-14
 -1      3701 1.11408E-03 1.16097E-04-1.64156E-15
 -1      3702 3.19603E-03 2.30624E-04-1.17952E-14
 -1      3703 1.37299E-02 7.03392E-04-1.53639E-13
 -1      3704 1.20618E-03 3.98707E-05-2.02777E-15
 -1      3705 1.20460E-03 1.71324E-05-2.03810E-15
 -1      3706 1.39604E-02 1.24941E-03-1.53475E-13
 -1      3707 7.03861E-03-2.79416E-05-3.65460E-14
 -1      3708 6.92477E-03-7.58494E-05-3.57264E-14
 -1      3709 6.82941E-03-1.36483E-04-3.54391E-14
 -1      3710 7.15105E-03-4.67722E-06-3.79450E-14
 -1      3711 1.36210E-02 7.06057E-04-1.51258E-13
 -1      3712 1.37522E-02 7.37596E-04-1.53823E-13
 -1      3713 1.37693E-02 7.79517E-04-1.53822E-13
 -1      3714 1.35174E-02 7.01003E-04-1.49068E-13
 -1      3715 1.21649E-03 8.62847E-05-1.99504E-15
 -1      3716 1.21016E-03 6.27629E-05-2.01355E-15
 -1      3717 1.32167E-03 5.45146E-05-2.37446E-15
 -1      3718 3.61121E-03-2.20203E-04-1.36283E-14
 -1      3719 1.38279E-02 1.21301E-03-1.50952E-13
 -1      3720 1.20539E-03-5.58525E-06-2.04433E-15
 -1      3721 1.20846E-03-2.86958E-05-2.04663E-15
 -1      3722 1.31830E-03 6.86989E-06-2.39793E-15
 -1      3723 7.70007E-03 4.34541E-04-4.10134E-14
 -1      3724 1.38832E-02 1.07621E-03-1.53522E-13
 -1      3725 1.39005E-02 1.11803E-03-1.53486E-13
 -1      3726 1.37854E-02 1.12377E-03-1.50925E-13
 -1      3727 1.37508E-02 1.03991E-03-1.50996E-13
 -1      3728 5.20604E-03-8.16592E-04-2.31526E-14
 -1      3729 1.94019E-03-1.52494E-04-4.49941E-15
 -1      3730 2.07809E-03-1.53411E-04-5.10532E-15
 -1      3731 2.21601E-03-1.53757E-04-5.74932E-15
 -1      3732 2.35430E-03-1.53752E-04-6.43170E-15
 -1      3733 2.12528E-03-1.22128E-04-5.44260E-15
 -1      3734 2.49298E-03-1.53613E-04-7.15136E-15
 -1      3735 2.63267E-03-1.53797E-04-7.90817E-15
 -1      3736 2.39617E-03-1.19605E-04-6.80722E-15
 -1      3737 2.77352E-03-1.54456E-04-8.70244E-15
 -1      3738 2.91655E-03-1.56538E-04-9.53446E-15
 -1      3739 2.66799E-03-1.16193E-04-8.32122E-15
 -1      3740 3.06199E-03-1.60207E-04-1.04033E-14
 -1      3741 3.21145E-03-1.67025E-04-1.13092E-14
 -1      3742 2.94404E-03-1.14484E-04-9.98312E-15
 -1      3743 3.44583E-03-1.98662E-04-1.26338E-14
 -1      3744 7.57100E-03 3.76207E-05-4.38866E-14
 -1      3745 7.71895E-03 6.14931E-05-4.58073E-14
 -1      3746 7.86281E-03 8.18515E-05-4.77610E-14
 -1      3747 8.00410E-03 1.00386E-04-4.97488E-14
 -1      3748 7.84855E-03 1.14852E-04-4.67891E-14
 -1      3749 8.14317E-03 1.17146E-04-5.17690E-14
 -1      3750 8.28107E-03 1.32985E-04-5.38219E-14
 -1      3751 8.12088E-03 1.46364E-04-5.07655E-14
 -1      3752 8.41795E-03 1.47949E-04-5.59056E-14
 -1      3753 8.55447E-03 1.62423E-04-5.80205E-14
 -1      3754 8.38884E-03 1.74791E-04-5.48696E-14
 -1      3755 8.69069E-03 1.76483E-04-6.01662E-14
 -1      3756 8.82701E-03 1.90303E-04-6.23416E-14
 -1      3757 8.65597E-03 2.02056E-04-5.90994E-14
 -1      3758 8.96343E-03 2.03974E-04-6.45473E-14
 -1      3759 9.10019E-03 2.17568E-04-6.67815E-14
 -1      3760 8.92412E-03 2.29034E-04-6.34509E-14
 -1      3761 9.23725E-03 2.31174E-04-6.90442E-14
 -1      3762 9.37476E-03 2.44812E-04-7.13365E-14
 -1      3763 9.19420E-03 2.56203E-04-6.79184E-14
 -1      3764 9.51265E-03 2.58561E-04-7.36569E-14
 -1      3765 9.65100E-03 2.72419E-04-7.60050E-14
 -1      3766 9.46656E-03 2.83841E-04-7.25016E-14
 -1      3767 9.78976E-03 2.86449E-04-7.83792E-14
 -1      3768 9.92896E-03 3.00635E-04-8.07788E-14
 -1      3769 9.74124E-03 3.12116E-04-7.71953E-14
 -1      3770 1.00685E-02 3.15026E-04-8.32048E-14
 -1      3771 1.02085E-02 3.29599E-04-8.56581E-14
 -1      3772 1.00181E-02 3.41128E-04-8.19943E-14
 -1      3773 1.03488E-02 3.44388E-04-8.81378E-14
 -1      3774 1.04894E-02 3.59370E-04-9.06440E-14
 -1      3775 1.02968E-02 3.70916E-04-8.68990E-14
 -1      3776 1.06303E-02 3.74563E-04-9.31745E-14
 -1      3777 1.07715E-02 3.89946E-04-9.57286E-14
 -1      3778 1.05772E-02 4.01478E-04-9.19091E-14
 -1      3779 1.09130E-02 4.05527E-04-9.83106E-14
 -1      3780 1.10546E-02 4.21284E-04-1.00917E-13
 -1      3781 1.08589E-02 4.32775E-04-9.70205E-14
 -1      3782 1.11964E-02 4.37221E-04-1.03545E-13
 -1      3783 1.13384E-02 4.53318E-04-1.06194E-13
 -1      3784 1.11416E-02 4.64746E-04-1.02231E-13
 -1      3785 1.14805E-02 4.69571E-04-1.08865E-13
 -1      3786 1.16228E-02 4.85964E-04-1.11558E-13
 -1      3787 1.14252E-02 4.97318E-04-1.07532E-13
 -1      3788 1.17652E-02 5.02491E-04-1.14269E-13
 -1      3789 1.19076E-02 5.19136E-04-1.16999E-13
 -1      3790 1.17095E-02 5.30410E-04-1.12915E-13
 -1      3791 1.20502E-02 5.35893E-04-1.19748E-13
 -1      3792 1.21928E-02 5.52749E-04-1.22516E-13
 -1      3793 1.19943E-02 5.63944E-04-1.18376E-13
 -1      3794 1.23355E-02 5.69696E-04-1.25301E-13
 -1      3795 1.24782E-02 5.86724E-04-1.28100E-13
 -1      3796 1.22794E-02 5.97845E-04-1.23911E-13
 -1      3797 1.26209E-02 6.03824E-04-1.30919E-13
 -1      3798 1.27637E-02 6.20989E-04-1.33752E-13
 -1      3799 1.25647E-02 6.32043E-04-1.29512E-13
 -1      3800 1.29065E-02 6.38210E-04-1.36602E-13
 -1      3801 1.30493E-02 6.55481E-04-1.39470E-13
 -1      3802 1.28502E-02 6.66479E-04-1.35180E-13
 -1      3803 1.31922E-02 6.72795E-04-1.42351E-13
 -1      3804 1.33350E-02 6.90146E-04-1.45250E-13
 -1      3805 1.31359E-02 7.01100E-04-1.40910E-13
 -1      3806 7.83277E-03 4.24761E-04-4.26768E-14
 -1      3807 7.79280E-03 4.02150E-04-4.17280E-14
 -1      3808 7.89023E-03 3.64875E-04-4.23871E-14
 -1      3809 7.94602E-03 4.34788E-04-4.44167E-14
 -1      3810 9.25210E-03 5.96801E-04-6.54160E-14
 -1      3811 9.11805E-03 5.76596E-04-6.31935E-14
 -1      3812 2.98609E-03 2.16796E-04-1.02547E-14
 -1      3813 2.47946E-03 2.63168E-04-6.47854E-15
 -1      3814 2.34142E-03 2.58723E-04-5.79753E-15
 -1      3815 2.51113E-03 2.33433E-04-6.90480E-15
 -1      3816 8.21086E-03 4.55166E-04-4.84736E-14
 -1      3817 8.08477E-03 4.42432E-04-4.64993E-14
 -1      3818 9.52298E-03 6.38047E-04-6.99523E-14
 -1      3819 9.38706E-03 6.17283E-04-6.76690E-14
 -1      3820 9.31597E-03 5.77190E-04-6.66157E-14
 -1      3821 9.79719E-03 6.79876E-04-7.46050E-14
 -1      3822 9.65969E-03 6.58909E-04-7.22643E-14
 -1      3823 9.58487E-03 6.17599E-04-7.11785E-14
 -1      3824 1.00741E-02 7.21723E-04-7.93674E-14
 -1      3825 9.93534E-03 7.00811E-04-7.69730E-14
 -1      3826 9.85757E-03 6.58453E-04-7.58572E-14
 -1      3827 1.03532E-02 7.63199E-04-8.42365E-14
 -1      3828 1.02134E-02 7.42515E-04-8.17887E-14
 -1      3829 1.01333E-02 6.99291E-04-8.06436E-14
 -1      3830 1.06341E-02 8.04069E-04-8.92074E-14
 -1      3831 1.04935E-02 7.83712E-04-8.67089E-14
 -1      3832 1.04116E-02 7.39797E-04-8.55353E-14
 -1      3833 1.09163E-02 8.44216E-04-9.42800E-14
 -1      3834 1.07750E-02 8.24232E-04-9.17323E-14
 -1      3835 1.06918E-02 7.79776E-04-9.05316E-14
 -1      3836 1.11995E-02 8.83610E-04-9.94463E-14
 -1      3837 1.10578E-02 8.64003E-04-9.68504E-14
 -1      3838 1.09735E-02 8.19134E-04-9.56267E-14
 -1      3839 1.14834E-02 9.22275E-04-1.04707E-13
 -1      3840 1.13414E-02 9.03028E-04-1.02065E-13
 -1      3841 1.12563E-02 8.57848E-04-1.00816E-13
 -1      3842 1.17680E-02 9.60275E-04-1.10054E-13
 -1      3843 1.16256E-02 9.41352E-04-1.07370E-13
 -1      3844 1.15400E-02 8.95943E-04-1.06097E-13
 -1      3845 1.20529E-02 9.97688E-04-1.15487E-13
 -1      3846 1.19104E-02 9.79049E-04-1.12761E-13
 -1      3847 1.18243E-02 9.33472E-04-1.11465E-13
 -1      3848 1.23382E-02 1.03460E-03-1.21004E-13
 -1      3849 1.21955E-02 1.01620E-03-1.18234E-13
 -1      3850 1.21092E-02 9.70506E-04-1.16919E-13
 -1      3851 1.26236E-02 1.07110E-03-1.26597E-13
 -1      3852 1.24808E-02 1.05290E-03-1.23792E-13
 -1      3853 1.23943E-02 1.00712E-03-1.22453E-13
 -1      3854 1.29092E-02 1.10726E-03-1.32257E-13
 -1      3855 1.27664E-02 1.08922E-03-1.29419E-13
 -1      3856 1.26797E-02 1.04338E-03-1.28060E-13
 -1      3857 1.31948E-02 1.14315E-03-1.37981E-13
 -1      3858 1.30520E-02 1.12523E-03-1.35110E-13
 -1      3859 1.29653E-02 1.07936E-03-1.33734E-13
 -1      3860 1.34805E-02 1.17884E-03-1.43761E-13
 -1      3861 1.33377E-02 1.16102E-03-1.40864E-13
 -1      3862 1.32509E-02 1.11512E-03-1.39469E-13
 -1      3863 1.36850E-02 1.19528E-03-1.48024E-13
 -1      3864 2.87579E-03 1.38573E-04-1.06395E-14
 -1      3865 2.93140E-03 1.65668E-04-1.06422E-14
 -1      3866 3.30680E-03-1.36009E-04-1.21678E-14
 -1      3867 2.86468E-03 1.96037E-04-9.62369E-15
 -1      3868 1.35983E-02 1.14936E-03-1.46607E-13
 -1      3869 6.41001E-03-3.56394E-04-3.25232E-14
 -1      3870 1.21216E-03-4.76640E-05-2.04425E-15
 -1      3871 1.21910E-03-7.21156E-05-2.03922E-15
 -1      3872 1.33516E-03-7.79339E-05-2.39262E-15
 -1      3873 1.32392E-03-3.68816E-05-2.40247E-15
 -1      3874 1.74588E-03 1.84103E-04-3.55632E-15
 -1      3875 1.61009E-03 1.78861E-04-3.05843E-15
 -1      3876 2.89163E-03 3.83689E-05-1.09095E-14
 -1      3877 2.87077E-03 6.35426E-05-1.09831E-14
 -1      3878 1.23619E-03 1.36571E-04-1.94439E-15
 -1      3879 1.22523E-03 1.10776E-04-1.97207E-15
 -1      3880 1.33584E-03 1.03840E-04-2.33272E-15
 -1      3881 1.36036E-03 1.57518E-04-2.27062E-15
 -1      3882 1.47408E-03-1.35477E-04-2.74763E-15
 -1      3883 1.59386E-03-1.42478E-04-3.15397E-15
 -1      3884 1.46053E-03-1.05906E-04-2.76363E-15
 -1      3885 8.98512E-03 5.56896E-04-6.09986E-14
 -1      3886 8.85322E-03 5.37688E-04-5.88327E-14
 -1      3887 9.05168E-03 5.37833E-04-6.21693E-14
 -1      3888 1.69800E-03-1.46885E-04-3.53215E-15
 -1      3889 1.83571E-03-1.49327E-04-4.07150E-15
 -1      3890 1.88679E-03-1.20519E-04-4.37396E-15
 -1      3891 1.68120E-03-1.15084E-04-3.55144E-15
 -1      3892 7.80936E-03 2.33652E-04-4.19916E-14
 -1      3893 7.76793E-03 2.08147E-04-4.23734E-14
 -1      3894 7.89151E-03 2.51208E-04-4.29187E-14
 -1      3895 5.01344E-03-7.76851E-04-2.16357E-14
 -1      3896 1.36541E-02 7.85445E-04-1.51272E-13
 -1      3897 2.24227E-03 2.25918E-04-5.53725E-15
 -1      3898 1.35498E-02 8.36429E-04-1.48561E-13
 -1      3899 1.35669E-02 8.78286E-04-1.48547E-13
 -1      3900 2.71438E-03 1.45905E-04-9.15040E-15
 -1      3901 2.74242E-03 1.91115E-04-8.79392E-15
 -1      3902 2.61819E-03 1.87141E-04-8.00071E-15
 -1      3903 7.25861E-03-2.44676E-05-4.01463E-14
 -1      3904 7.41815E-03 1.02254E-05-4.19985E-14
 -1      3905 7.56542E-03 7.58058E-05-4.29457E-14
 -1      3906 1.34610E-02 7.29345E-04-1.47608E-13
 -1      3907 8.04513E-03 4.07403E-04-4.54609E-14
 -1      3908 8.79288E-03 5.00215E-04-5.78405E-14
 -1      3909 8.72257E-03 5.19250E-04-5.66994E-14
 -1      3910 8.59295E-03 5.01569E-04-5.45954E-14
 -1      3911 8.33719E-03 4.69338E-04-5.04818E-14
 -1      3912 8.29508E-03 4.33100E-04-4.95530E-14
 -1      3913 8.46466E-03 4.84927E-04-5.25223E-14
 -1      3914 1.35841E-02 9.20051E-04-1.48528E-13
 -1      3915 1.36012E-02 9.61814E-04-1.48507E-13
 -1      3916 1.34518E-02 8.83943E-04-1.46017E-13
 -1      3917 2.81546E-03 1.21665E-04-1.03320E-14
 -1      3918 2.76006E-03 1.31932E-04-9.69932E-15
 -1      3919 2.76354E-03 1.05984E-04-1.00264E-14
 -1      3920 8.03202E-03 3.10768E-04-4.40696E-14
 -1      3921 7.97771E-03 2.93675E-04-4.30202E-14
 -1      3922 7.98739E-03 2.85463E-04-4.35765E-14
 -1      3923 3.25040E-03-8.98663E-05-1.21708E-14
 -1      3924 3.26851E-03-4.50405E-05-1.27381E-14
 -1      3925 3.17606E-03-6.45904E-07-1.25732E-14
 -1      3926 2.80251E-03 7.40508E-05-1.04588E-14
 -1      3927 7.43120E-03 8.57294E-05-4.03880E-14
 -1      3928 7.35816E-03 4.84243E-05-4.01464E-14
 -1      3929 2.01499E-03 1.92114E-04-4.66511E-15
 -1      3930 1.88084E-03 1.88493E-04-4.09160E-15
 -1      3931 1.79528E-03 1.59639E-04-3.86216E-15
 -1      3932 1.35809E-02 1.10745E-03-1.46653E-13
 -1      3933 1.33764E-02 1.09107E-03-1.42406E-13
 -1      3934 1.35636E-02 1.06556E-03-1.46692E-13
 -1      3935 1.43150E-03 2.05000E-05-2.77788E-15
 -1      3936 1.43275E-03-4.37271E-06-2.78618E-15
 -1      3937 2.92167E-03 7.27359E-06-1.08306E-14
 -1      3938 2.81407E-03 1.88838E-05-1.01722E-14
 -1      3939 3.06391E-03 1.09867E-06-1.17793E-14
 -1      3940 2.98490E-03-1.96028E-05-1.10088E-14
 -1      3941 7.56556E-03 1.31306E-04-4.14095E-14
 -1      3942 7.55082E-03 9.85304E-05-4.21044E-14
 -1      3943 7.69094E-03 1.18020E-04-4.39956E-14
 -1      3944 7.66908E-03 1.61118E-04-4.22933E-14
 -1      3945 1.43325E-03 4.51315E-05-2.76497E-15
 -1      3946 1.54501E-03 3.49484E-05-3.18387E-15
 -1      3947 1.43802E-03 7.00361E-05-2.74684E-15
 -1      3948 1.35737E-02 9.92751E-04-1.47618E-13
 -1      3949 1.35910E-02 1.03464E-03-1.47587E-13
 -1      3950 1.33865E-02 1.01836E-03-1.43340E-13
 -1      3951 1.34414E-02 9.56588E-04-1.45113E-13
 -1      3952 1.34718E-02 7.74504E-04-1.47440E-13
 -1      3953 1.33567E-02 7.80324E-04-1.44918E-13
 -1      3954 2.30446E-03-8.89649E-05-6.46576E-15
 -1      3955 2.43669E-03-8.60732E-05-7.18573E-15
 -1      3956 2.56841E-03-8.27682E-05-7.94242E-15
 -1      3957 2.70044E-03-7.92750E-05-8.73551E-15
 -1      3958 2.47594E-03-5.32120E-05-7.56676E-15
 -1      3959 7.19340E-03-3.01547E-05-3.92293E-14
 -1      3960 7.04211E-03-8.57695E-05-3.79470E-14
 -1      3961 7.84030E-03 1.47093E-04-4.58191E-14
 -1      3962 7.97192E-03 1.61272E-04-4.77744E-14
 -1      3963 7.99972E-03 3.73196E-04-4.42402E-14
 -1      3964 7.96923E-03 3.43312E-04-4.32149E-14
 -1      3965 8.10202E-03 1.74609E-04-4.97612E-14
 -1      3966 8.23205E-03 1.87683E-04-5.17816E-14
 -1      3967 8.08665E-03 2.01960E-04-4.87591E-14
 -1      3968 8.36174E-03 2.00596E-04-5.38350E-14
 -1      3969 8.49195E-03 2.13547E-04-5.59182E-14
 -1      3970 8.33653E-03 2.25346E-04-5.27991E-14
 -1      3971 8.62246E-03 2.26587E-04-5.80341E-14
 -1      3972 8.75372E-03 2.39737E-04-6.01794E-14
 -1      3973 8.58997E-03 2.50040E-04-5.69687E-14
 -1      3974 8.88557E-03 2.53070E-04-6.23544E-14
 -1      3975 9.01826E-03 2.66556E-04-6.45606E-14
 -1      3976 8.84759E-03 2.76050E-04-6.12599E-14
 -1      3977 9.15167E-03 2.80263E-04-6.67949E-14
 -1      3978 9.28590E-03 2.94131E-04-6.90567E-14
 -1      3979 9.10947E-03 3.03320E-04-6.56708E-14
 -1      3980 9.42087E-03 3.08226E-04-7.13473E-14
 -1      3981 9.55661E-03 3.22490E-04-7.36663E-14
 -1      3982 9.37540E-03 3.31687E-04-7.01957E-14
 -1      3983 9.69303E-03 3.36980E-04-7.60138E-14
 -1      3984 9.83014E-03 3.51643E-04-7.83861E-14
 -1      3985 9.64499E-03 3.61012E-04-7.48320E-14
 -1      3986 9.96786E-03 3.66525E-04-8.07858E-14
 -1      3987 1.01062E-02 3.81580E-04-8.32101E-14
 -1      3988 9.91780E-03 3.91192E-04-7.95776E-14
 -1      3989 1.02450E-02 3.96842E-04-8.56630E-14
 -1      3990 1.03844E-02 4.12270E-04-8.81431E-14
 -1      3991 1.01934E-02 4.22140E-04-8.44294E-14
 -1      3992 1.05242E-02 4.27889E-04-9.06460E-14
 -1      3993 1.06644E-02 4.43664E-04-9.31752E-14
 -1      3994 1.04713E-02 4.53772E-04-8.93839E-14
 -1      3995 1.08049E-02 4.59611E-04-9.57326E-14
 -1      3996 1.09458E-02 4.75700E-04-9.83138E-14
 -1      3997 1.07511E-02 4.86011E-04-9.44436E-14
 -1      3998 1.10870E-02 4.91940E-04-1.00918E-13
 -1      3999 1.12284E-02 5.08307E-04-1.03545E-13
 -1      4000 1.10324E-02 5.18781E-04-9.96056E-14
 -1      4001 1.13701E-02 5.24804E-04-1.06197E-13
 -1      4002 1.15119E-02 5.41411E-04-1.08868E-13
 -1      4003 1.13150E-02 5.52010E-04-1.04861E-13
 -1      4004 1.16540E-02 5.58128E-04-1.11561E-13
 -1      4005 1.17961E-02 5.74940E-04-1.14273E-13
 -1      4006 1.15985E-02 5.85628E-04-1.10206E-13
 -1      4007 1.19384E-02 5.91842E-04-1.17004E-13
 -1      4008 1.20808E-02 6.08824E-04-1.19754E-13
 -1      4009 1.18827E-02 6.19574E-04-1.15631E-13
 -1      4010 1.22233E-02 6.25880E-04-1.22521E-13
 -1      4011 1.23659E-02 6.43000E-04-1.25304E-13
 -1      4012 1.21674E-02 6.53789E-04-1.21129E-13
 -1      4013 1.25086E-02 6.60180E-04-1.28104E-13
 -1      4014 1.26513E-02 6.77411E-04-1.30922E-13
 -1      4015 1.24525E-02 6.88224E-04-1.26698E-13
 -1      4016 1.27940E-02 6.94689E-04-1.33754E-13
 -1      4017 1.29368E-02 7.12008E-04-1.36602E-13
 -1      4018 1.27378E-02 7.22833E-04-1.32329E-13
 -1      4019 1.30753E-02 7.37430E-04-1.39307E-13
 -1      4020 1.32181E-02 7.54824E-04-1.42186E-13
 -1      4021 1.32961E-02 8.16651E-04-1.43297E-13
 -1      4022 1.30190E-02 7.65636E-04-1.37864E-13
 -1      4023 9.91640E-03 6.37057E-04-7.71076E-14
 -1      4024 9.78006E-03 6.17136E-04-7.47423E-14
 -1      4025 2.49280E-03 1.83518E-04-7.24457E-15
 -1      4026 2.36540E-03 1.80524E-04-6.52512E-15
 -1      4027 2.48238E-03 1.39326E-04-7.56987E-15
 -1      4028 8.12066E-03 3.84997E-04-4.63165E-14
 -1      4029 9.37705E-03 5.57927E-04-6.78144E-14
 -1      4030 9.24505E-03 5.38503E-04-6.55626E-14
 -1      4031 1.01914E-02 6.76820E-04-8.19194E-14
 -1      4032 1.00535E-02 6.56943E-04-7.95009E-14
 -1      4033 9.97386E-03 6.15483E-04-7.83603E-14
 -1      4034 1.04691E-02 7.16318E-04-8.68347E-14
 -1      4035 1.03300E-02 6.96604E-04-8.43640E-14
 -1      4036 1.02485E-02 6.54153E-04-8.31950E-14
 -1      4037 1.07489E-02 7.55390E-04-9.18539E-14
 -1      4038 1.06088E-02 7.35907E-04-8.93316E-14
 -1      4039 1.05259E-02 6.92647E-04-8.81335E-14
 -1      4040 1.10302E-02 7.93955E-04-9.69730E-14
 -1      4041 1.08894E-02 7.74733E-04-9.44024E-14
 -1      4042 1.08055E-02 7.30824E-04-9.31765E-14
 -1      4043 1.13128E-02 8.31993E-04-1.02185E-13
 -1      4044 1.11714E-02 8.13036E-04-9.95674E-14
 -1      4045 1.10867E-02 7.68615E-04-9.83205E-14
 -1      4046 1.15964E-02 8.69525E-04-1.07490E-13
 -1      4047 1.14545E-02 8.50818E-04-1.04826E-13
 -1      4048 1.13692E-02 8.05999E-04-1.03556E-13
 -1      4049 1.18806E-02 9.06595E-04-1.12877E-13
 -1      4050 1.17384E-02 8.88113E-04-1.10172E-13
 -1      4051 1.16526E-02 8.42989E-04-1.08880E-13
 -1      4052 1.21654E-02 9.43260E-04-1.18351E-13
 -1      4053 1.20229E-02 9.24974E-04-1.15604E-13
 -1      4054 1.19368E-02 8.79619E-04-1.14290E-13
 -1      4055 1.24505E-02 9.79582E-04-1.23901E-13
 -1      4056 1.23079E-02 9.61460E-04-1.21115E-13
 -1      4057 1.22215E-02 9.15934E-04-1.19782E-13
 -1      4058 1.27358E-02 1.01562E-03-1.29523E-13
 -1      4059 1.25931E-02 9.97633E-04-1.26704E-13
 -1      4060 1.25066E-02 9.51982E-04-1.25349E-13
 -1      4061 1.30214E-02 1.05143E-03-1.35209E-13
 -1      4062 1.28786E-02 1.03355E-03-1.32359E-13
 -1      4063 1.27920E-02 9.87809E-04-1.30984E-13
 -1      4064 1.32703E-02 1.08018E-03-1.40238E-13
 -1      4065 1.31275E-02 1.06238E-03-1.37362E-13
 -1      4066 1.30408E-02 1.01658E-03-1.35969E-13
 -1      4067 1.32530E-02 1.03836E-03-1.40283E-13
 -1      4068 1.52008E-03 1.71993E-04-2.75966E-15
 -1      4069 1.50413E-03 1.43085E-04-2.79925E-15
 -1      4070 6.30178E-03-4.59067E-04-3.23824E-14
 -1      4071 9.64467E-03 5.97298E-04-7.24043E-14
 -1      4072 9.51028E-03 5.77508E-04-7.00951E-14
 -1      4073 9.43563E-03 5.38632E-04-6.90134E-14
 -1      4074 9.70261E-03 5.76866E-04-7.36303E-14
 -1      4075 8.03751E-03 3.35833E-04-4.42912E-14
 -1      4076 3.11583E-03-7.31379E-05-1.14143E-14
 -1      4077 2.70959E-03 5.49308E-05-9.62887E-15
 -1      4078 2.72868E-03 8.11291E-05-9.83175E-15
 -1      4079 2.65825E-03 8.92341E-05-9.22075E-15
 -1      4080 2.03887E-03-9.29965E-05-5.13910E-15
 -1      4081 2.17198E-03-9.12891E-05-5.78354E-15
 -1      4082 2.21833E-03-6.09816E-05-6.12799E-15
 -1      4083 1.45156E-03-8.32352E-05-2.77412E-15
 -1      4084 1.56829E-03-8.80084E-05-3.18357E-15
 -1      4085 1.44412E-03-6.13496E-05-2.78137E-15
 -1      4086 8.10755E-03 3.43064E-04-4.56579E-14
 -1      4087 8.07080E-03 3.26173E-04-4.48614E-14
 -1      4088 8.09665E-03 3.17477E-04-4.54324E-14
 -1      4089 2.73493E-03 9.85728E-07-9.48764E-15
 -1      4090 2.71795E-03 2.95717E-05-9.56199E-15
 -1      4091 2.62827E-03 3.90937E-05-8.96777E-15
 -1      4092 8.22806E-03 4.01701E-04-4.82227E-14
 -1      4093 8.16951E-03 3.69896E-04-4.69661E-14
 -1      4094 8.20664E-03 3.59001E-04-4.75527E-14
 -1      4095 8.34446E-03 4.16837E-04-5.02239E-14
 -1      4096 2.95587E-03-5.86331E-05-1.04826E-14
 -1      4097 2.82494E-03-6.25130E-05-9.61388E-15
 -1      4098 2.72418E-03-3.11325E-05-9.19712E-15
 -1      4099 1.49627E-03 2.12984E-04-2.53201E-15
 -1      4100 1.46733E-03 1.94956E-04-2.49940E-15
 -1      4101 1.47377E-03 1.18819E-04-2.76369E-15
 -1      4102 1.46324E-03 9.24062E-05-2.79204E-15
 -1      4103 1.57272E-03 8.29447E-05-3.21699E-15
 -1      4104 1.62933E-03 1.30202E-04-3.30495E-15
 -1      4105 9.11449E-03 5.19442E-04-6.33402E-14
 -1      4106 8.98541E-03 5.00672E-04-6.11449E-14
 -1      4107 9.17393E-03 5.01206E-04-6.45104E-14
 -1      4108 2.25809E-03 1.87834E-04-5.88521E-15
 -1      4109 2.12695E-03 1.84943E-04-5.23802E-15
 -1      4110 2.03992E-03 1.56624E-04-4.97557E-15
 -1      4111 2.25714E-03 1.42977E-04-6.18341E-15
 -1      4112 2.65109E-03 1.28104E-04-8.86753E-15
 -1      4113 1.66002E-03-6.72172E-05-3.57220E-15
 -1      4114 1.66974E-03-9.07128E-05-3.56356E-15
 -1      4115 1.77124E-03-9.29526E-05-3.96517E-15
 -1      4116 7.97659E-03 2.70492E-04-4.39777E-14
 -1      4117 7.95613E-03 2.52542E-04-4.43738E-14
 -1      4118 8.05163E-03 2.88455E-04-4.50431E-14
 -1      4119 2.61900E-03-1.68336E-05-8.62174E-15
 -1      4120 7.82322E-03 1.66884E-04-4.49514E-14
 -1      4121 7.78742E-03 1.97321E-04-4.32281E-14
 -1      4122 7.79648E-03 1.78034E-04-4.40889E-14
 -1      4123 7.93307E-03 2.00501E-04-4.59111E-14
 -1      4124 7.88197E-03 2.20500E-04-4.41706E-14
 -1      4125 1.31747E-02 8.32782E-04-1.40563E-13
 -1      4126 1.33132E-02 8.58350E-04-1.43283E-13
 -1      4127 1.33304E-02 9.00044E-04-1.43264E-13
 -1      4128 8.85809E-03 4.82429E-04-5.89818E-14
 -1      4129 8.73256E-03 4.64567E-04-5.68483E-14
 -1      4130 8.91871E-03 4.65086E-04-6.01237E-14
 -1      4131 8.54044E-03 4.65104E-04-5.36331E-14
 -1      4132 1.76154E-03 1.34377E-04-3.82217E-15
 -1      4133 1.73077E-03 1.09999E-04-3.77785E-15
 -1      4134 1.89270E-03 1.37904E-04-4.37745E-15
 -1      4135 1.65875E-03 5.01155E-05-3.61512E-15
 -1      4136 1.65701E-03 2.41905E-05-3.63120E-15
 -1      4137 1.76866E-03 1.25553E-05-4.10284E-15
 -1      4138 1.65822E-03-2.46365E-06-3.63780E-15
 -1      4139 1.43483E-03-2.21034E-05-2.78714E-15
 -1      4140 1.43914E-03-4.27778E-05-2.78591E-15
 -1      4141 1.55370E-03-4.58867E-05-3.19672E-15
 -1      4142 1.54628E-03-8.61042E-06-3.19869E-15
 -1      4143 1.66124E-03-2.13023E-05-3.63927E-15
 -1      4144 1.87273E-03-9.47508E-05-4.38762E-15
 -1      4145 1.92484E-03-6.69704E-05-4.69034E-15
 -1      4146 1.66601E-03-4.05642E-05-3.63773E-15
 -1      4147 1.76500E-03-4.14194E-05-4.04321E-15
 -1      4148 8.07365E-03 2.27167E-04-4.77602E-14
 -1      4149 8.19230E-03 2.37351E-04-4.97470E-14
 -1      4150 9.23031E-03 4.82928E-04-6.56814E-14
 -1      4151 9.10186E-03 4.65191E-04-6.34580E-14
 -1      4152 8.31226E-03 2.48379E-04-5.17657E-14
 -1      4153 8.43429E-03 2.59879E-04-5.38187E-14
 -1      4154 8.28847E-03 2.69592E-04-5.07357E-14
 -1      4155 8.55779E-03 2.72082E-04-5.59036E-14
 -1      4156 8.68303E-03 2.84703E-04-5.80189E-14
 -1      4157 8.52543E-03 2.92649E-04-5.48387E-14
 -1      4158 8.80959E-03 2.97805E-04-6.01645E-14
 -1      4159 8.93773E-03 3.11323E-04-6.23405E-14
 -1      4160 8.77121E-03 3.18258E-04-5.90690E-14
 -1      4161 9.06714E-03 3.25301E-04-6.45457E-14
 -1      4162 9.19790E-03 3.39572E-04-6.67814E-14
 -1      4163 9.02436E-03 3.46153E-04-6.34215E-14
 -1      4164 9.32978E-03 3.54190E-04-6.90436E-14
 -1      4165 9.46281E-03 3.69050E-04-7.13330E-14
 -1      4166 9.28377E-03 3.75699E-04-6.78900E-14
 -1      4167 9.59682E-03 3.84194E-04-7.36526E-14
 -1      4168 9.73182E-03 3.99537E-04-7.59980E-14
 -1      4169 9.54835E-03 4.06499E-04-7.24722E-14
 -1      4170 9.86766E-03 4.15115E-04-7.83698E-14
 -1      4171 1.00043E-02 4.30858E-04-8.07696E-14
 -1      4172 9.81728E-03 4.38270E-04-7.71638E-14
 -1      4173 1.01417E-02 4.46796E-04-8.31954E-14
 -1      4174 1.02798E-02 4.62873E-04-8.56480E-14
 -1      4175 1.00898E-02 4.70792E-04-8.19621E-14
 -1      4176 1.04184E-02 4.79113E-04-8.81263E-14
 -1      4177 1.05576E-02 4.95469E-04-9.06280E-14
 -1      4178 1.03654E-02 5.03893E-04-8.68669E-14
 -1      4179 1.06973E-02 5.11961E-04-9.31574E-14
 -1      4180 1.08374E-02 5.28552E-04-9.57152E-14
 -1      4181 1.06434E-02 5.37444E-04-9.18728E-14
 -1      4182 1.09779E-02 5.45256E-04-9.82943E-14
 -1      4183 1.11188E-02 5.62042E-04-1.00899E-13
 -1      4184 1.09234E-02 5.71347E-04-9.69834E-14
 -1      4185 1.12599E-02 5.78922E-04-1.03527E-13
 -1      4186 1.14014E-02 5.95871E-04-1.06177E-13
 -1      4187 1.12049E-02 6.05526E-04-1.02192E-13
 -1      4188 1.15430E-02 6.12897E-04-1.08849E-13
 -1      4189 1.16849E-02 6.29981E-04-1.11542E-13
 -1      4190 1.14876E-02 6.39922E-04-1.07492E-13
 -1      4191 1.18269E-02 6.47127E-04-1.14254E-13
 -1      4192 1.19691E-02 6.64320E-04-1.16986E-13
 -1      4193 1.17712E-02 6.74489E-04-1.12877E-13
 -1      4194 1.21114E-02 6.81563E-04-1.19738E-13
 -1      4195 1.22539E-02 6.98845E-04-1.22505E-13
 -1      4196 1.20555E-02 7.09192E-04-1.18343E-13
 -1      4197 1.23964E-02 7.16166E-04-1.25289E-13
 -1      4198 1.25390E-02 7.33519E-04-1.28089E-13
 -1      4199 1.23404E-02 7.44000E-04-1.23879E-13
 -1      4200 1.26816E-02 7.50902E-04-1.30906E-13
 -1      4201 1.28243E-02 7.68310E-04-1.33738E-13
 -1      4202 1.26255E-02 7.78890E-04-1.29482E-13
 -1      4203 1.29302E-02 7.87765E-04-1.35791E-13
 -1      4204 1.30687E-02 8.13274E-04-1.38490E-13
 -1      4205 1.30859E-02 8.54888E-04-1.38473E-13
 -1      4206 1.28741E-02 8.15848E-04-1.34354E-13
 -1      4207 2.51967E-03 1.17665E-04-7.99564E-15
 -1      4208 2.40294E-03 1.14344E-04-7.24000E-15
 -1      4209 1.05821E-02 6.68746E-04-8.94327E-14
 -1      4210 1.04431E-02 6.50004E-04-8.69392E-14
 -1      4211 1.00301E-02 5.93662E-04-7.96107E-14
 -1      4212 9.89400E-03 5.74887E-04-7.72196E-14
 -1      4213 2.13786E-03-3.53642E-05-5.79448E-15
 -1      4214 2.26514E-03-3.15037E-05-6.47598E-15
 -1      4215 1.08616E-02 7.06052E-04-9.45027E-14
 -1      4216 1.07216E-02 6.87423E-04-9.19544E-14
 -1      4217 1.06377E-02 6.44538E-04-9.07343E-14
 -1      4218 1.11428E-02 7.43094E-04-9.96658E-14
 -1      4219 1.10020E-02 7.24605E-04-9.70716E-14
 -1      4220 1.09173E-02 6.81014E-04-9.58259E-14
 -1      4221 1.14253E-02 7.79849E-04-1.04926E-13
 -1      4222 1.12839E-02 7.61505E-04-1.02285E-13
 -1      4223 1.11986E-02 7.17349E-04-1.01014E-13
 -1      4224 1.17087E-02 8.16323E-04-1.10271E-13
 -1      4225 1.15669E-02 7.98119E-04-1.07587E-13
 -1      4226 1.14812E-02 7.53514E-04-1.06294E-13
 -1      4227 1.19929E-02 8.52536E-04-1.15703E-13
 -1      4228 1.18507E-02 8.34459E-04-1.12977E-13
 -1      4229 1.17647E-02 7.89505E-04-1.11663E-13
 -1      4230 1.22776E-02 8.88522E-04-1.21212E-13
 -1      4231 1.21352E-02 8.70555E-04-1.18449E-13
 -1      4232 1.20490E-02 8.25333E-04-1.17114E-13
 -1      4233 1.25627E-02 9.24313E-04-1.26794E-13
 -1      4234 1.24201E-02 9.06439E-04-1.23994E-13
 -1      4235 1.23337E-02 8.61014E-04-1.22641E-13
 -1      4236 1.28481E-02 9.59944E-04-1.32440E-13
 -1      4237 1.27054E-02 9.42147E-04-1.29610E-13
 -1      4238 1.26188E-02 8.96571E-04-1.28235E-13
 -1      4239 2.57667E-03 1.04161E-04-8.50596E-15
 -1      4240 1.87898E-03 2.83027E-05-4.59511E-15
 -1      4241 1.88145E-03 8.53539E-07-4.60345E-15
 -1      4242 2.53066E-03 2.32156E-05-8.24323E-15
 -1      4243 2.53039E-03 4.81926E-05-8.30492E-15
 -1      4244 1.92747E-03-3.85617E-05-4.76459E-15
 -1      4245 1.03047E-02 6.31241E-04-8.44686E-14
 -1      4246 1.01670E-02 6.12439E-04-8.20269E-14
 -1      4247 1.00853E-02 5.71459E-04-8.08597E-14
 -1      4248 1.03601E-02 6.07982E-04-8.57439E-14
 -1      4249 2.49059E-03-2.81482E-05-7.77380E-15
 -1      4250 2.51243E-03 9.10193E-07-8.04013E-15
 -1      4251 2.40544E-03 1.20747E-05-7.41654E-15
 -1      4252 2.36548E-03-3.32686E-05-7.02633E-15
 -1      4253 8.60931E-03 4.47499E-04-5.47445E-14
 -1      4254 8.48814E-03 4.30811E-04-5.26721E-14
 -1      4255 8.67177E-03 4.30879E-04-5.58563E-14
 -1      4256 2.53600E-03 7.77599E-05-8.32834E-15
 -1      4257 1.70525E-03 9.12697E-05-3.72554E-15
 -1      4258 1.67998E-03 6.81457E-05-3.67305E-15
 -1      4259 1.78887E-03 5.76575E-05-4.15550E-15
 -1      4260 1.83468E-03 9.45624E-05-4.27444E-15
 -1      4261 8.15419E-03 3.18920E-04-4.66562E-14
 -1      4262 8.10505E-03 3.03435E-04-4.58478E-14
 -1      4263 8.10359E-03 2.88507E-04-4.62584E-14
 -1      4264 8.30234E-03 3.69426E-04-4.93232E-14
 -1      4265 8.22925E-03 3.43090E-04-4.79842E-14
 -1      4266 8.24342E-03 3.28020E-04-4.84111E-14
 -1      4267 9.02839E-03 4.30426E-04-6.24056E-14
 -1      4268 8.97529E-03 4.47928E-04-6.12644E-14
 -1      4269 8.85078E-03 4.30960E-04-5.91009E-14
 -1      4270 2.00450E-03 1.31438E-04-4.92885E-15
 -1      4271 7.98103E-03 2.44387E-04-4.52478E-14
 -1      4272 2.33062E-03 8.97332E-05-6.91072E-15
 -1      4273 2.28310E-03 1.10938E-04-6.52114E-15
 -1      4274 9.81374E-03 5.35144E-04-7.60820E-14
 -1      4275 9.75888E-03 5.56208E-04-7.48567E-14
 -1      4276 9.62481E-03 5.37592E-04-7.25201E-14
 -1      4277 2.03365E-03-2.18669E-05-5.30073E-15
 -1      4278 2.08829E-03 4.85986E-06-5.61606E-15
 -1      4279 2.43222E-03 6.38561E-05-7.63503E-15
 -1      4280 2.28684E-03-8.91059E-06-6.66367E-15
 -1      4281 1.91720E-03 6.49945E-05-4.73089E-15
 -1      4282 1.89695E-03 4.66084E-05-4.66445E-15
 -1      4283 2.00519E-03 3.56848E-05-5.20086E-15
 -1      4284 1.29541E-02 9.70843E-04-1.34580E-13
 -1      4285 1.28675E-02 9.25172E-04-1.33189E-13
 -1      4286 1.30602E-02 9.81721E-04-1.36726E-13
 -1      4287 1.32804E-02 1.00753E-03-1.41172E-13
 -1      4288 1.31743E-02 9.96691E-04-1.39010E-13
 -1      4289 1.33078E-02 9.76687E-04-1.42056E-13
 -1      4290 1.33029E-02 9.30925E-04-1.42387E-13
 -1      4291 9.49194E-03 5.19170E-04-7.02126E-14
 -1      4292 9.36038E-03 5.00889E-04-6.79332E-14
 -1      4293 9.28416E-03 4.64246E-04-6.68528E-14
 -1      4294 9.54637E-03 4.99292E-04-7.14115E-14
 -1      4295 8.04335E-03 2.35871E-04-4.68723E-14
 -1      4296 8.41190E-03 4.00163E-04-5.13016E-14
 -1      4297 2.17695E-03 1.17075E-04-5.88737E-15
 -1      4298 2.31515E-03 5.94132E-05-6.89628E-15
 -1      4299 8.10589E-03 2.66177E-04-4.70795E-14
 -1      4300 2.03779E-03 9.95222E-05-5.22870E-15
 -1      4301 8.49145E-03 3.11509E-04-5.37763E-14
 -1      4302 8.61020E-03 3.24114E-04-5.58615E-14
 -1      4303 8.78081E-03 3.59325E-04-5.85836E-14
 -1      4304 8.90451E-03 3.73878E-04-6.07380E-14
 -1      4305 9.03020E-03 3.89100E-04-6.29226E-14
 -1      4306 9.15773E-03 4.04578E-04-6.51375E-14
 -1      4307 9.28689E-03 4.20570E-04-6.73815E-14
 -1      4308 9.41756E-03 4.36774E-04-6.96527E-14
 -1      4309 9.54957E-03 4.53348E-04-7.19515E-14
 -1      4310 9.68282E-03 4.70071E-04-7.42786E-14
 -1      4311 9.81717E-03 4.87055E-04-7.66323E-14
 -1      4312 9.95252E-03 5.04136E-04-7.90126E-14
 -1      4313 1.00888E-02 5.21396E-04-8.14190E-14
 -1      4314 1.02259E-02 5.38713E-04-8.38525E-14
 -1      4315 1.03637E-02 5.56149E-04-8.63133E-14
 -1      4316 1.05021E-02 5.73614E-04-8.87985E-14
 -1      4317 1.06412E-02 5.91156E-04-9.13105E-14
 -1      4318 1.07808E-02 6.08710E-04-9.38493E-14
 -1      4319 1.09208E-02 6.26310E-04-9.64109E-14
 -1      4320 1.10613E-02 6.43911E-04-9.89980E-14
 -1      4321 1.12021E-02 6.61538E-04-1.01611E-13
 -1      4322 1.13432E-02 6.79160E-04-1.04245E-13
 -1      4323 1.14846E-02 6.96796E-04-1.06901E-13
 -1      4324 1.16263E-02 7.14424E-04-1.09578E-13
 -1      4325 1.17681E-02 7.32057E-04-1.12278E-13
 -1      4326 1.19101E-02 7.49682E-04-1.14998E-13
 -1      4327 1.20523E-02 7.67308E-04-1.17736E-13
 -1      4328 1.21946E-02 7.84926E-04-1.20494E-13
 -1      4329 1.23371E-02 8.02542E-04-1.23266E-13
 -1      4330 1.24796E-02 8.20151E-04-1.26059E-13
 -1      4331 1.26222E-02 8.37756E-04-1.28864E-13
 -1      4332 1.27648E-02 8.55357E-04-1.31689E-13
 -1      4333 2.31027E-03 1.26759E-05-6.84991E-15
 -1      4334 8.17114E-03 2.83428E-04-4.79052E-14
 -1      4335 8.68765E-03 3.93310E-04-5.63790E-14
 -1      4336 8.56933E-03 3.77877E-04-5.42855E-14
 -1      4337 8.27140E-03 2.91244E-04-4.98016E-14
 -1      4338 8.38392E-03 3.02213E-04-5.18219E-14
 -1      4339 8.46268E-03 3.31445E-04-5.28128E-14
 -1      4340 8.25681E-03 3.12772E-04-4.89577E-14
 -1      4341 8.43604E-03 3.82717E-04-5.17486E-14
 -1      4342 1.31968E-02 9.20160E-04-1.40223E-13
 -1      4343 2.19006E-03 4.04421E-05-6.17932E-15
 -1      4344 2.09694E-03 5.17815E-05-5.65971E-15
 -1      4345 1.29768E-02 8.85700E-04-1.35875E-13
 -1      4346 1.30827E-02 9.05284E-04-1.37935E-13
 -1      4347 8.34331E-03 3.37720E-04-5.03168E-14
 -1      4348 8.73612E-03 3.76728E-04-5.74813E-14
 -1      4349 1.28709E-02 8.66129E-04-1.33822E-13
 -1      4350 1.30877E-02 9.50953E-04-1.37608E-13
 -1      4351 8.44759E-03 3.48002E-04-5.22516E-14
 -1      4352 2.01323E-03 8.09656E-05-5.16473E-15
 -1      4353 2.11678E-03 7.01154E-05-5.73246E-15
 -3
    1PSTEP                         2           1           1          
  100CL  101 1.000000000        4353                     0    1           1
 -4  STRESS      6    1
 -5  SXX         1    4    1    1
 -5  SYY         1    4    2    2
 -5  SZZ         1    4    3    3
 -5  SXY         1    4    1    2
 -5  SYZ         1    4    2    3
 -5  SZX         1    4    3    1
 -1         1 1.55370E+01 1.03141E+01 3.81037E-01-1.25059E+01-3.38973E-12 3.79480E-12
 -1         2-7.54249E-01-2.45297E+01-3.34594E+00-2.43758E-01-9.35788E-13-5.17225E-14
 -1         3 2.00000E+01 2.07078E-04-1.43743E-04 2.01342E-04-6.83499E-13-7.24536E-13
 -1         4 2.00000E+01 1.75593E-04-1.63699E-04-1.74087E-04 2.46822E-13-8.75821E-14
 -1         5 3.24291E+01 6.08847E+00 2.63487E+00 6.11095E+00-5.01196E-14 3.80129E-12
 -1         6 3.53244E+01 1.20848E+01 4.95821E+00-8.47773E+00-2.04614E-13 3.66052E-12
 -1         7 2.10638E+01 6.16091E+00-8.96829E-02-4.51606E+00-2.83801E-14 8.04988E-13
 -1         8 1.99466E+01 6.01167E+00 6.96724E-02-2.97673E+00-4.54220E-14-1.04180E-13
 -1         9 1.93590E+01 5.83513E+00 5.82846E-02-2.17467E+00-3.89827E-14-6.07860E-13
 -1        10 1.90096E+01 5.72423E+00 5.22975E-02-1.58535E+00-2.69177E-14-8.62998E-13
 -1        11 1.87595E+01 5.64568E+00 4.45687E-02-1.11617E+00-2.02251E-14-9.97902E-13
 -1        12 1.85762E+01 5.58833E+00 3.72820E-02-7.36125E-01-1.22168E-14-1.05343E-12
 -1        13 1.84471E+01 5.54841E+00 3.15669E-02-4.08065E-01-3.18278E-15-1.06943E-12
 -1        14 1.83788E+01 5.52737E+00 2.82319E-02-1.16688E-01 5.85469E-17-1.06507E-12
 -1        15 1.83753E+01 5.52627E+00 2.77230E-02 1.60332E-01 6.17562E-15-1.06195E-12
 -1        16 1.84384E+01 5.54568E+00 3.02307E-02 4.46271E-01 1.10758E-14-1.04217E-12
 -1        17 1.85674E+01 5.58529E+00 3.56445E-02 7.65680E-01 1.74713E-14-9.81489E-13
 -1        18 1.87562E+01 5.64412E+00 4.32083E-02 1.13701E+00 2.30684E-14-8.83997E-13
 -1        19 1.90162E+01 5.72577E+00 5.16202E-02 1.60223E+00 3.69722E-14-7.21024E-13
 -1        20 1.93755E+01 5.84043E+00 5.83050E-02 2.19453E+00 4.45997E-14-4.12315E-13
 -1        21 1.99583E+01 6.02958E+00 6.63761E-02 2.99503E+00 5.46854E-14 1.59113E-13
 -1        22 2.14097E+01 6.42828E+00 1.61603E-01 4.30596E+00 6.12010E-15 1.30487E-12
 -1        23 2.31424E+01-1.39216E+00-9.48003E-01-6.52809E-01-1.41488E-13 2.92792E-12
 -1        24 1.98292E+01-9.96475E-02-3.04050E-01 7.10361E-02-3.79479E-14 2.27719E-12
 -1        25 1.94245E+01-5.75510E-02-6.78163E-02 6.43694E-02-2.05573E-14 1.62027E-12
 -1        26 1.95156E+01-2.46229E-02-9.50711E-03 3.74654E-02 5.42968E-15 1.17381E-12
 -1        27 1.98616E+01-1.47955E-02-3.22544E-03 2.90645E-02-1.36418E-14 9.25265E-13
 -1        28 2.03638E+01-8.79352E-03-3.13257E-03 2.53802E-02-1.47434E-14 7.33432E-13
 -1        29 2.09619E+01-4.04463E-03-1.47151E-03 2.39884E-02 1.44324E-14 5.39217E-13
 -1        30 2.16011E+01 8.63131E-04 2.87563E-03 2.31407E-02 3.68329E-15 3.82300E-13
 -1        31 2.22137E+01 6.64778E-03 1.03969E-02 2.10469E-02-2.44748E-14 1.50387E-13
 -1        32 2.27072E+01 1.33381E-02 2.12211E-02 1.54645E-02-1.49128E-14 3.67466E-14
 -1        33 2.29611E+01 1.99636E-02 3.40106E-02 3.84669E-03 4.77114E-15-1.33524E-13
 -1        34 2.28426E+01 2.42671E-02 4.46480E-02-1.55784E-02-3.48009E-14-1.90755E-13
 -1        35 2.22493E+01 2.29699E-02 4.58006E-02-4.15061E-02 2.54421E-14-3.28510E-13
 -1        36 2.11819E+01 1.32859E-02 2.96621E-02-6.68924E-02 6.83568E-15-1.26121E-13
 -1        37 1.98179E+01-4.39948E-03-5.44805E-03-7.89673E-02-3.80777E-14-7.18696E-14
 -1        38 1.85237E+01-2.45806E-02-4.88229E-02-6.53868E-02 3.07827E-14-1.64035E-13
 -1        39 1.77429E+01-3.81818E-02-7.92423E-02-2.48891E-02-1.72757E-14-1.38699E-13
 -1        40 1.77835E+01-3.80917E-02-7.88458E-02 2.69616E-02 6.77193E-15-3.72104E-13
 -1        41 1.86419E+01-2.43958E-02-4.81185E-02 6.68143E-02 1.52183E-14-7.32261E-13
 -1        42 2.00073E+01-4.37415E-03-5.12481E-03 7.98847E-02 1.10071E-14-8.11341E-13
 -1        43 2.14403E+01 1.29718E-02 2.92350E-02 6.77433E-02-6.66031E-14-7.28619E-13
 -1        44 2.25825E+01 2.23102E-02 4.45364E-02 4.28106E-02 6.14129E-14-5.87551E-13
 -1        45 2.32641E+01 2.34119E-02 4.27924E-02 1.77867E-02 3.99526E-14-3.37724E-13
 -1        46 2.34897E+01 1.91335E-02 3.18701E-02-4.24916E-04-3.93132E-15-3.70992E-13
 -1        47 2.33635E+01 1.27965E-02 1.90115E-02-1.05890E-02 2.57637E-14-1.41686E-13
 -1        48 2.30169E+01 6.72188E-03 8.30038E-03-1.44358E-02-8.56096E-14-1.07989E-13
 -1        49 2.25648E+01 1.99838E-03 9.89097E-04-1.43788E-02 5.46965E-14-2.61066E-13
 -1        50 2.20900E+01-1.15337E-03-3.22322E-03-1.23987E-02-1.63717E-14-5.38576E-13
 -1        51 2.16437E+01-2.95197E-03-5.17258E-03-9.77853E-03-4.78580E-14-6.49016E-13
 -1        52 2.12525E+01-3.75462E-03-5.68853E-03-7.21582E-03-1.18501E-14-4.60776E-13
 -1        53 2.09258E+01-3.90296E-03-5.40313E-03-5.02058E-03-1.88844E-14-4.83852E-13
 -1        54 2.06631E+01-3.66615E-03-4.73600E-03-3.28219E-03 2.68665E-14-2.33426E-13
 -1        55 2.04585E+01-3.23399E-03-3.94022E-03-1.98040E-03-2.47833E-14-3.34542E-13
 -1        56 2.03036E+01-2.72978E-03-3.15549E-03-1.04998E-03 3.72138E-14-4.28120E-13
 -1        57 2.01896E+01-2.22758E-03-2.45052E-03-4.14658E-04 4.72941E-14-3.92651E-13
 -1        58 2.01082E+01-1.76773E-03-1.85226E-03-2.86656E-06 2.65503E-14-5.50178E-13
 -1        59 2.00520E+01-1.36876E-03-1.36449E-03 2.46090E-04-1.24404E-14-2.27404E-13
 -1        60 2.00148E+01-1.03579E-03-9.79128E-04 3.80797E-04-8.81062E-14-3.20391E-13
 -1        61 1.99917E+01-7.66231E-04-6.82847E-04 4.38624E-04 1.19860E-13-1.88869E-13
 -1        62 1.99787E+01-5.53494E-04-4.60765E-04 4.47437E-04 1.86983E-14-4.15044E-13
 -1        63 1.99728E+01-3.89226E-04-2.98412E-04 4.27442E-04-1.51029E-14-6.65570E-13
 -1        64 1.99717E+01-2.64642E-04-1.82602E-04 3.92866E-04-3.76843E-14-5.10572E-13
 -1        65 1.99738E+01-1.71231E-04-1.01636E-04 3.53346E-04-1.10636E-13-1.70714E-13
 -1        66 1.99777E+01-1.01025E-04-4.49090E-05 3.14922E-04 7.67023E-14-3.52174E-13
 -1        67 1.99827E+01-4.66231E-05-1.85470E-06 2.80506E-04 9.55071E-15-1.68193E-13
 -1        68 1.99880E+01-1.11962E-06 3.99133E-05 2.49424E-04 1.64627E-13 2.72537E-13
 -1        69 1.99931E+01 4.05575E-05 9.47430E-05 2.13785E-04-4.51892E-14 2.87260E-13
 -1        70 1.99973E+01 6.63421E-05 1.55473E-04 1.38797E-04 3.87103E-14 5.66073E-14
 -1        71 1.99997E+01-1.39044E-05 1.15566E-04 9.36546E-06-1.10205E-13 2.12330E-13
 -1        72 2.11839E+01-4.03863E-01-9.84262E-01-3.27236E-01 4.53387E-14 3.51187E-12
 -1        73 1.98185E+01-6.67078E-02-2.85832E-01-5.71657E-02 3.83374E-14 2.72756E-12
 -1        74 1.94808E+01-2.30979E-02-6.48206E-02-2.06602E-02 1.69246E-14 2.15607E-12
 -1        75 1.96156E+01-1.36939E-02-1.48636E-02-1.51999E-02 9.84499E-15 1.73105E-12
 -1        76 2.00380E+01-9.78105E-03-8.27465E-03-1.32003E-02 6.87319E-15 1.44311E-12
 -1        77 2.06667E+01-7.43155E-03-9.48469E-03-1.35677E-02 2.28132E-14 1.23914E-12
 -1        78 2.14655E+01-5.13057E-03-1.02272E-02-1.63416E-02-1.56699E-14 1.16545E-12
 -1        79 2.24069E+01-1.73396E-03-8.23441E-03-2.17153E-02 2.31521E-14 1.07897E-12
 -1        80 2.34467E+01 3.79857E-03-1.17004E-03-2.95877E-02-1.23779E-14 8.35823E-13
 -1        81 2.44947E+01 1.20947E-02 1.42140E-02-3.84948E-02 2.38946E-14 6.61918E-13
 -1        82 2.53836E+01 2.24148E-02 4.04534E-02-4.39394E-02 5.79170E-15 4.96301E-13
 -1        83 2.58486E+01 3.10943E-02 7.47811E-02-3.66832E-02 8.23885E-15 4.69253E-13
 -1        84 2.55578E+01 3.07914E-02 1.01979E-01-4.11768E-03 6.54815E-15 4.67095E-13
 -1        85 2.42541E+01 1.43174E-02 9.26464E-02 5.92082E-02-1.05345E-14 3.13215E-13
 -1        86 2.20271E+01-1.57954E-02 2.21570E-02 1.32643E-01 1.35245E-14 1.17767E-13
 -1        87 1.95513E+01-4.38139E-02-9.17578E-02 1.65525E-01-5.53351E-14 4.80171E-14
 -1        88 1.79339E+01-4.93271E-02-1.79916E-01 1.13992E-01 1.89068E-14 3.90660E-15
 -1        89 1.80611E+01-3.06211E-02-1.72600E-01-5.63782E-03 2.36898E-14-5.35669E-13
 -1        90 1.98841E+01-1.95007E-03-7.53932E-02-1.13520E-01-5.13046E-14-8.09089E-13
 -1        91 2.24617E+01 2.00669E-02 3.59230E-02-1.49720E-01-7.38141E-14-6.50188E-13
 -1        92 2.47007E+01 2.87567E-02 9.65397E-02-1.19769E-01-2.09262E-14-4.65822E-13
 -1        93 2.59929E+01 2.59476E-02 9.84178E-02-6.48346E-02 5.28223E-16-4.43000E-13
 -1        94 2.62993E+01 1.76674E-02 6.89089E-02-1.77006E-02 2.53344E-14-8.53713E-13
 -1        95 2.58962E+01 8.87070E-03 3.48865E-02 1.04915E-02-1.54408E-14-5.32976E-13
 -1        96 2.51142E+01 2.14447E-03 9.64969E-03 2.25192E-02 3.14332E-14-1.60044E-13
 -1        97 2.42079E+01-2.00776E-03-4.72571E-03 2.46954E-02-3.32403E-14-1.64938E-13
 -1        98 2.33312E+01-4.07093E-03-1.09750E-02 2.21834E-02 5.79061E-14-2.32474E-13
 -1        99 2.25592E+01-4.75323E-03-1.24551E-02 1.80862E-02-4.01230E-14-7.53834E-13
 -1       100 2.19171E+01-4.64826E-03-1.16150E-02 1.39341E-02-1.27160E-14-2.08665E-13
 -1       101 2.14030E+01-4.16030E-03-9.89050E-03 1.03387E-02-1.71492E-14 6.94770E-14
 -1       102 2.10029E+01-3.53195E-03-8.00644E-03 7.45436E-03 1.66638E-14-1.75978E-13
 -1       103 2.06983E+01-2.89482E-03-6.27853E-03 5.23932E-03-6.57366E-14-9.22428E-14
 -1       104 2.04712E+01-2.31243E-03-4.81420E-03 3.58574E-03 9.38728E-14 2.83633E-13
 -1       105 2.03052E+01-1.80977E-03-3.62535E-03 2.37718E-03 5.06204E-14-2.51430E-13
 -1       106 2.01864E+01-1.39148E-03-2.68547E-03 1.51021E-03-6.43014E-14-4.88194E-13
 -1       107 2.01035E+01-1.05228E-03-1.95631E-03 9.00090E-04 2.10293E-15-4.80341E-13
 -1       108 2.00473E+01-7.82734E-04-1.39931E-03 4.80129E-04 5.04893E-14-6.90757E-13
 -1       109 2.00109E+01-5.72211E-04-9.80016E-04 1.98921E-04 3.33169E-14-4.62619E-13
 -1       110 1.99887E+01-4.10373E-04-6.69153E-04 1.73343E-05 4.06438E-14-6.12742E-13
 -1       111 1.99766E+01-2.87806E-04-4.42545E-04-9.41867E-05 2.87734E-14-8.42139E-13
 -1       112 1.99714E+01-1.96227E-04-2.80466E-04-1.57845E-04-2.07685E-14-8.30755E-13
 -1       113 1.99708E+01-1.28470E-04-1.66874E-04-1.90240E-04 1.02795E-14-7.43585E-13
 -1       114 1.99732E+01-7.83542E-05-8.86190E-05-2.03713E-04-5.53453E-14-1.12885E-12
 -1       115 1.99774E+01-4.04354E-05-3.44135E-05-2.07428E-04 9.08996E-14-1.37899E-12
 -1       116 1.99826E+01-9.82910E-06 6.86587E-06-2.07999E-04-2.87137E-14-1.72208E-12
 -1       117 1.99880E+01 1.78946E-05 4.84437E-05-2.09223E-04 1.77195E-14-1.48164E-12
 -1       118 1.99932E+01 4.51394E-05 1.04847E-04-2.09812E-04 5.71252E-14-1.46558E-12
 -1       119 1.99974E+01 6.80396E-05 1.72045E-04-1.87929E-04-1.81805E-14-1.63774E-12
 -1       120 1.99997E+01-4.91006E-05 8.93060E-05-5.75707E-05 3.62034E-13-1.65016E-12
 -1       121 1.99998E+01-2.68328E-04 7.89588E-05-2.52257E-05-1.50750E-12 2.80161E-13
 -1       122 1.99999E+01-2.53506E-03 1.28764E-04-1.48987E-04-1.39022E-13-2.55055E-14
 -1       123 1.99998E+01-6.30815E-03 3.53038E-05-1.84434E-04 3.79267E-13 1.35743E-13
 -1       124 1.99998E+01-1.04199E-02-3.53666E-05-1.67843E-04 3.62866E-13 6.01144E-14
 -1       125 1.99998E+01-1.41682E-02-7.24308E-05-1.31398E-04 3.82515E-13-2.28412E-13
 -1       126 1.99997E+01-1.71231E-02-8.91349E-05-9.28548E-05-3.64314E-14 2.34148E-13
 -1       127 1.99997E+01-1.91796E-02-9.38132E-05-5.35862E-05 4.30056E-13-3.16406E-14
 -1       128 1.99997E+01-2.02014E-02-9.44122E-05-1.65555E-05-4.27360E-13 1.17774E-13
 -1       129 1.99997E+01-2.01661E-02-9.38058E-05 1.92602E-05-2.09766E-13 1.57917E-13
 -1       130 1.99997E+01-1.90801E-02-9.21784E-05 5.56001E-05-1.56808E-13-1.35225E-13
 -1       131 1.99997E+01-1.69784E-02-8.61196E-05 9.50877E-05-3.86792E-13-5.33904E-14
 -1       132 1.99998E+01-1.40053E-02-7.04664E-05 1.31659E-04-7.92530E-13 3.40469E-13
 -1       133 1.99998E+01-1.02625E-02-3.34607E-05 1.66499E-04-6.60371E-13 2.64825E-16
 -1       134 1.99998E+01-6.17482E-03 4.16885E-05 1.92896E-04-5.45303E-13 1.99106E-13
 -1       135 1.99999E+01-2.52770E-03 1.08417E-04 2.05145E-04-4.14483E-13-1.42686E-13
 -1       136 1.99999E+01-3.34443E-04 7.00371E-05-2.02470E-05-2.40931E-13 1.18709E-13
 -1       137-1.47974E+00-1.97878E+01-3.07965E+00-3.84737E+00 1.17686E-12 4.38035E-13
 -1       138-1.73008E+00-9.00829E+00-2.35085E+00-3.19782E+00 3.49504E-12 1.74086E-12
 -1       139 3.39189E+00 3.46527E+00-1.11581E+00 3.78521E+00 4.32776E-12 3.29808E-12
 -1       140 1.59256E+01 1.02043E+01 3.45236E-01 1.27014E+01 3.57264E-12 4.04909E-12
 -1       141 3.75322E+01 9.57668E+00 1.97376E+00 1.83552E+01 2.00434E-12 3.93008E-12
 -1       142 5.71816E+01 4.39790E+00 3.17447E+00 1.44119E+01 7.88203E-13 2.29683E-12
 -1       143 6.72588E+01 9.44425E-01 3.73632E+00 2.77080E+00 4.17444E-14 2.14988E-13
 -1       144 6.29687E+01 2.67761E+00 3.52193E+00-1.03990E+01 3.53054E-13-1.62201E-12
 -1       145 4.55532E+01 7.83613E+00 2.48878E+00-1.77339E+01 1.44984E-12-3.22536E-12
 -1       146 2.43479E+01 1.08293E+01 1.04489E+00-1.58691E+01 2.79343E-12-3.87251E-12
 -1       147 7.73865E+00 7.25337E+00-5.22714E-01-7.63743E+00 3.71547E-12-3.40233E-12
 -1       148-8.78158E-01-4.29374E+00-1.97006E+00 1.46055E+00 3.39484E-12-1.97067E-12
 -1       149-1.77238E+00-1.66833E+01-2.92734E+00 4.39820E+00 2.54624E-12-7.26669E-13
 -1       150-8.36577E-01-2.43629E+01-3.38993E+00 1.78745E+00 6.98705E-13-1.17059E-13
 -1       151-1.01988E+00-2.27446E+01-3.27075E+00-2.81398E+00-1.39233E-12-2.39232E-13
 -1       152-1.77636E+00-1.33329E+01-2.64261E+00-3.97748E+00-3.23658E-12-1.28005E-12
 -1       153 7.14997E-01-5.73020E-01-1.50266E+00 7.72948E-01-4.10572E-12-2.51749E-12
 -1       154 1.18105E+01 9.30624E+00 3.24172E-02 1.05215E+01-3.61694E-12-3.65968E-12
 -1       155 2.96768E+01 1.06286E+01 1.49967E+00 1.72424E+01-2.55385E-12-4.04543E-12
 -1       156 5.03198E+01 6.41056E+00 2.73566E+00 1.67741E+01-1.33814E-12-3.54544E-12
 -1       157 6.35207E+01 1.76323E+00 3.42163E+00 7.73469E+00-3.15055E-13-2.10124E-12
 -1       158 6.46921E+01 1.30148E+00 3.46559E+00-5.42277E+00-1.59529E-13 3.41727E-13
 -1       159 5.35491E+01 5.19887E+00 2.88542E+00-1.55916E+01-7.26419E-13 2.20507E-12
 -1       160 3.49454E+01 1.00102E+01 1.80504E+00-1.81663E+01-1.89976E-12 3.37813E-12
 -1       161 3.05754E+00 3.78529E+00-1.03021E+00-3.64060E+00-4.41819E-12 3.17069E-12
 -1       162-1.47145E+00-8.47248E+00-2.23835E+00 2.86449E+00-3.61172E-12 1.81263E-12
 -1       163-1.35301E+00-1.99382E+01-3.04642E+00 3.74593E+00-2.10779E-12 4.81025E-13
 -1       164 2.13478E+01 3.65627E+00-5.35405E-02-3.30777E+00-5.14658E-13 3.04097E-13
 -1       165 2.02873E+01 4.21503E+00-4.34593E-02-2.46201E+00-4.91495E-13-2.58651E-13
 -1       166 1.96898E+01 4.51922E+00-2.99791E-02-1.82877E+00-4.03519E-13-5.80539E-13
 -1       167 1.92932E+01 4.68814E+00-2.21800E-02-1.32038E+00-3.02902E-13-7.57253E-13
 -1       168 1.90076E+01 4.79449E+00-1.78225E-02-9.10382E-01-2.09080E-13-8.36834E-13
 -1       169 1.87976E+01 4.86570E+00-1.53076E-02-5.60003E-01-1.24415E-13-8.88882E-13
 -1       170 1.86662E+01 4.90856E+00-1.39668E-02-2.55644E-01-4.02033E-14-8.90534E-13
 -1       171 1.86173E+01 4.92574E+00-1.35223E-02 2.37514E-02 5.14128E-14-8.86827E-13
 -1       172 1.86547E+01 4.91699E+00-1.39051E-02 2.99909E-01 1.33059E-13-8.67087E-13
 -1       173 1.87800E+01 4.87983E+00-1.51996E-02 5.95626E-01 2.08510E-13-8.43465E-13
 -1       174 1.89883E+01 4.81084E+00-1.77425E-02 9.28636E-01 2.94155E-13-7.68761E-13
 -1       175 1.92901E+01 4.69758E+00-2.23858E-02 1.33574E+00 3.95478E-13-6.49067E-13
 -1       176 1.97047E+01 4.51636E+00-3.11266E-02 1.84189E+00 4.79078E-13-4.37698E-13
 -1       177 2.03241E+01 4.19720E+00-4.43182E-02 2.47971E+00 5.38630E-13-5.15941E-14
 -1       178 2.14786E+01 3.43224E+00-5.56729E-02 3.22432E+00 4.96537E-13 6.37247E-13
 -1       179 2.26995E+01 1.10777E+00-3.30101E-01 2.78554E+00 3.60148E-13 1.55272E-12
 -1       180 2.23341E+01 8.36428E-01 1.30452E-03-1.73388E+00-4.37969E-13 9.60603E-13
 -1       181 2.10029E+01 1.88862E-01-8.67829E-03-5.42796E-01-3.86578E-13 7.38051E-13
 -1       182 2.04495E+01 1.11024E-01 1.43239E-02-5.08440E-02-2.78609E-13 5.50320E-13
 -1       183 2.03598E+01 6.21859E-02 1.04606E-02 1.98930E-01-1.89894E-13 3.68142E-13
 -1       184 2.05149E+01 3.89551E-02 5.41900E-03 3.46200E-01-1.20118E-13 2.37151E-13
 -1       185 2.08203E+01 2.22637E-02 2.33302E-03 4.35315E-01-1.17979E-13 1.89284E-13
 -1       186 2.12110E+01 4.44912E-03 4.06102E-04 4.76056E-01-9.65146E-14 1.18571E-13
 -1       187 2.16310E+01-1.90637E-02-1.08471E-03 4.61914E-01-1.08936E-13 6.97636E-14
 -1       188 2.20203E+01-5.07950E-02-2.34969E-03 3.77107E-01-1.04792E-13 7.18934E-14
 -1       189 2.23092E+01-8.96309E-02-3.23587E-03 2.03982E-01-8.47245E-14 4.11505E-14
 -1       190 2.24212E+01-1.27740E-01-3.41480E-03-6.42835E-02-9.10617E-14-8.74249E-14
 -1       191 2.22874E+01-1.47874E-01-2.57855E-03-4.04317E-01-3.82481E-14-9.81226E-14
 -1       192 2.18764E+01-1.25822E-01-8.65302E-04-7.42716E-01 6.06936E-14-3.52995E-14
 -1       193 2.12334E+01-4.41118E-02 1.05903E-03-9.54962E-01-1.52346E-14-1.01898E-13
 -1       194 2.05080E+01 8.54317E-02 2.44909E-03-9.08385E-01-6.84060E-14-8.58124E-15
 -1       195 1.99321E+01 2.10461E-01 2.98780E-03-5.47837E-01-4.00422E-14-1.22130E-13
 -1       196 1.97294E+01 2.61828E-01 3.00066E-03 3.16280E-02-1.66501E-13-2.58981E-13
 -1       197 1.99921E+01 2.08427E-01 2.90344E-03 6.08393E-01-1.54387E-13-3.97790E-13
 -1       198 2.06249E+01 8.39294E-02 2.43762E-03 9.64817E-01-6.69118E-14-4.30681E-13
 -1       199 2.14056E+01-4.36781E-02 1.11036E-03 1.01022E+00 1.13669E-14-5.95503E-13
 -1       200 2.21052E+01-1.22947E-01-8.16064E-04 8.02081E-01 8.45988E-14-4.11108E-13
 -1       201 2.25782E+01-1.42973E-01-2.49636E-03 4.73182E-01 9.36365E-14-3.42667E-13
 -1       202 2.27823E+01-1.21851E-01-3.32334E-03 1.46037E-01 1.07632E-13-2.99694E-13
 -1       203 2.27493E+01-8.38476E-02-3.22684E-03-1.08745E-01 1.99966E-14-2.58793E-13
 -1       204 2.25454E+01-4.61798E-02-2.49850E-03-2.70712E-01-4.32657E-14-2.92632E-13
 -1       205 2.22409E+01-1.68418E-02-1.54131E-03-3.49955E-01-1.07649E-13-2.42927E-13
 -1       206 2.18947E+01 2.58510E-03-6.47286E-04-3.68410E-01-1.44806E-13-2.39620E-13
 -1       207 2.15488E+01 1.35922E-02 3.86003E-05-3.48429E-01-1.05579E-13-2.84393E-13
 -1       208 2.12292E+01 1.85430E-02 4.85211E-04-3.07908E-01 4.21876E-14-2.68060E-13
 -1       209 2.09496E+01 1.96183E-02 7.24297E-04-2.59304E-01-3.06314E-14-2.94003E-13
 -1       210 2.07147E+01 1.84756E-02 8.10023E-04-2.10394E-01-2.51200E-14-2.44418E-13
 -1       211 2.05239E+01 1.62422E-02 7.95728E-04-1.65496E-01-5.72397E-14-4.34736E-13
 -1       212 2.03730E+01 1.36247E-02 7.24237E-04-1.26610E-01 3.63022E-14-2.39439E-13
 -1       213 2.02569E+01 1.10321E-02 6.25999E-04-9.42988E-02 6.04660E-14-2.36778E-13
 -1       214 2.01697E+01 8.67794E-03 5.20742E-04-6.83045E-02-2.82198E-14-4.35659E-13
 -1       215 2.01059E+01 6.65435E-03 4.20119E-04-4.79530E-02 1.18350E-13-3.93517E-13
 -1       216 2.00605E+01 4.98180E-03 3.30202E-04-3.24037E-02-6.98104E-14-4.06187E-13
 -1       217 2.00294E+01 3.64150E-03 2.53453E-04-2.07975E-02 1.44934E-13-2.76354E-14
 -1       218 2.00090E+01 2.59532E-03 1.90132E-04-1.23365E-02-1.66268E-13-1.44794E-13
 -1       219 1.99964E+01 1.79779E-03 1.39257E-04-6.32249E-03-4.28593E-14-2.03343E-14
 -1       220 1.99896E+01 1.20271E-03 9.92025E-05-2.17064E-03-4.17290E-14-7.58743E-14
 -1       221 1.99867E+01 7.66512E-04 6.80859E-05 5.90885E-04 1.30747E-13-1.58636E-13
 -1       222 1.99865E+01 4.49356E-04 4.39877E-05 2.32764E-03 2.27105E-14 9.59367E-14
 -1       223 1.99880E+01 2.14595E-04 2.51931E-05 3.30733E-03 3.00111E-13 1.60792E-13
 -1       224 1.99904E+01 2.70945E-05 1.05451E-05 3.70649E-03 2.72591E-13 2.68958E-13
 -1       225 1.99932E+01-1.50999E-04 4.22753E-07 3.61360E-03 8.82617E-14 1.82928E-13
 -1       226 1.99959E+01-3.65770E-04-4.76178E-06 3.02910E-03-1.46285E-13 1.81031E-13
 -1       227 1.99981E+01-6.43796E-04-1.22242E-06 1.91687E-03-5.22972E-15 1.80841E-13
 -1       228 2.14308E+01 2.71206E-01-4.82407E-02 9.58196E-01 3.79408E-13 1.35256E-12
 -1       229 2.05788E+01 1.32733E-01 9.56338E-03 2.31509E-01 2.83678E-13 1.06279E-12
 -1       230 2.03548E+01 7.27300E-02 1.32327E-02-9.54642E-02 2.11923E-13 8.37298E-13
 -1       231 2.04852E+01 4.92151E-02 7.90690E-03-2.90787E-01 1.48472E-13 6.99544E-13
 -1       232 2.08502E+01 3.94538E-02 3.89924E-03-4.32456E-01 1.10780E-13 5.93422E-13
 -1       233 2.13860E+01 3.34393E-02 1.58427E-03-5.46389E-01 3.57651E-14 5.31202E-13
 -1       234 2.20494E+01 2.52765E-02 6.19895E-05-6.35541E-01 1.02239E-13 3.88229E-13
 -1       235 2.27948E+01 8.99547E-03-1.05438E-03-6.85231E-01 9.04945E-14 3.40559E-13
 -1       236 2.35548E+01-2.22957E-02-1.49215E-03-6.62280E-01 1.07986E-13 2.74746E-13
 -1       237 2.42239E+01-7.43712E-02-5.07097E-04-5.16158E-01 1.51845E-14 2.91009E-13
 -1       238 2.46519E+01-1.45258E-01 2.49585E-03-1.92331E-01 1.38310E-14 3.27571E-13
 -1       239 2.46616E+01-2.11690E-01 6.83030E-03 3.27520E-01 3.99455E-14 2.95413E-13
 -1       240 2.41153E+01-2.18811E-01 8.55815E-03 9.51864E-01 7.03031E-14 2.48047E-13
 -1       241 2.30418E+01-1.01704E-01 2.23201E-03 1.41710E+00 7.19490E-14 1.79922E-13
 -1       242 2.17687E+01 1.31489E-01-1.21396E-02 1.36795E+00 3.31922E-14 1.97906E-13
 -1       243 2.08733E+01 3.57405E-01-2.41250E-02 6.46042E-01 1.49478E-13-5.27117E-14
 -1       244 2.08694E+01 3.90219E-01-2.26870E-02-4.52974E-01 2.83213E-13-2.49422E-13
 -1       245 2.17808E+01 2.05000E-01-7.87882E-03-1.30782E+00 1.14202E-13-4.82081E-13
 -1       246 2.31215E+01-4.23435E-02 6.66742E-03-1.51199E+00-8.52235E-14-5.86113E-13
 -1       247 2.42933E+01-1.92612E-01 1.05190E-02-1.14023E+00-1.39532E-13-6.03164E-13
 -1       248 2.49519E+01-2.15261E-01 6.18084E-03-5.32740E-01-1.95330E-15-5.84274E-13
 -1       249 2.50536E+01-1.61316E-01 6.74381E-04 1.58438E-02 1.14437E-13-5.39625E-13
 -1       250 2.47325E+01-9.03675E-02-2.54277E-03 3.77364E-01-1.39892E-13-5.77789E-13
 -1       251 2.41657E+01-3.34975E-02-3.22346E-03 5.52430E-01-1.88206E-13-5.00203E-13
 -1       252 2.35021E+01 2.14203E-03-2.46646E-03 5.93529E-01-1.27045E-13-1.27486E-13
 -1       253 2.28421E+01 2.03046E-02-1.32351E-03 5.56741E-01 6.37322E-14 5.30231E-14
 -1       254 2.22421E+01 2.70896E-02-3.56680E-04 4.83746E-01 7.47688E-14 1.06404E-13
 -1       255 2.17269E+01 2.75262E-02 2.75520E-04 4.00278E-01-2.64643E-13 1.09692E-13
 -1       256 2.13016E+01 2.49209E-02 6.08226E-04 3.20106E-01-4.20073E-14 6.31608E-14
 -1       257 2.09607E+01 2.11846E-02 7.32201E-04 2.49442E-01-3.46704E-14 1.96668E-13
 -1       258 2.06938E+01 1.73132E-02 7.31659E-04 1.90235E-01-9.83377E-14 3.63183E-13
 -1       259 2.04892E+01 1.37677E-02 6.66867E-04 1.42258E-01 1.62310E-13 9.29953E-14
 -1       260 2.03351E+01 1.07209E-02 5.75499E-04 1.04317E-01 2.92151E-13 4.41893E-14
 -1       261 2.02214E+01 8.20129E-03 4.78920E-04 7.48958E-02 4.91768E-14-1.97790E-13
 -1       262 2.01392E+01 6.17123E-03 3.88120E-04 5.24689E-02 4.57381E-14-3.51314E-13
 -1       263 2.00811E+01 4.56778E-03 3.07979E-04 3.56521E-02 7.69723E-14-4.03544E-13
 -1       264 2.00413E+01 3.32245E-03 2.39983E-04 2.32508E-02-1.12370E-14-2.81646E-13
 -1       265 2.00150E+01 2.37032E-03 1.83844E-04 1.42683E-02 1.52233E-13-5.23948E-13
 -1       266 1.99987E+01 1.65362E-03 1.38415E-04 7.89185E-03-6.02027E-14-9.58488E-14
 -1       267 1.99894E+01 1.12264E-03 1.02205E-04 3.47134E-03 3.29143E-14-7.83228E-14
 -1       268 1.99851E+01 7.35238E-04 7.36366E-05 4.96926E-04-2.32281E-14-1.56611E-13
 -1       269 1.99841E+01 4.55901E-04 5.11869E-05-1.42209E-03 1.27993E-13-1.36255E-15
 -1       270 1.99853E+01 2.54377E-04 3.35130E-05-2.57513E-03 3.12433E-13-2.48080E-13
 -1       271 1.99878E+01 1.03524E-04 1.98145E-05-3.16370E-03 4.15205E-14-5.08172E-13
 -1       272 1.99909E+01-2.33543E-05 1.07772E-05-3.30802E-03-1.23875E-13-6.63264E-13
 -1       273 1.99941E+01-1.53492E-04 9.33719E-06-3.04906E-03 6.20033E-14-4.78932E-13
 -1       274 1.99968E+01-3.31410E-04 1.11429E-05-2.34839E-03 1.81309E-13-4.89560E-13
 -1       275 1.99988E+01-5.23645E-04 8.44505E-06-1.17083E-03-2.35884E-14-4.79695E-13
 -1       276 1.99992E+01-1.80977E-03-4.32391E-06-1.92246E-03-1.88136E-13 6.73794E-13
 -1       277 1.99996E+01-3.94087E-03-3.24308E-06-2.81019E-03 4.28457E-14 3.12100E-13
 -1       278 1.99998E+01-6.39406E-03-1.82010E-06-3.04551E-03 2.75183E-13 5.09546E-14
 -1       279 2.00000E+01-8.81367E-03 2.45297E-06-2.79209E-03 9.96638E-14-1.60829E-13
 -1       280 2.00001E+01-1.08764E-02 7.16319E-06-2.25091E-03 8.04125E-14-2.05445E-13
 -1       281 2.00001E+01-1.24680E-02 1.06429E-05-1.54499E-03 1.83650E-13 1.22379E-13
 -1       282 2.00001E+01-1.34417E-02 1.26705E-05-7.69424E-04 1.52521E-13-4.07379E-13
 -1       283 2.00001E+01-1.37539E-02 1.32759E-05 2.70668E-05 8.31846E-14 2.49710E-13
 -1       284 2.00001E+01-1.33952E-02 1.25774E-05 8.18548E-04 7.73925E-15-6.07651E-14
 -1       285 2.00001E+01-1.23831E-02 1.04419E-05 1.58067E-03-1.22399E-13-4.42463E-14
 -1       286 2.00001E+01-1.08012E-02 6.74570E-06 2.25754E-03-6.98397E-14-4.57114E-14
 -1       287 2.00000E+01-8.69886E-03 2.16825E-06 2.78703E-03-2.30644E-14 1.49846E-13
 -1       288 1.99998E+01-6.29380E-03-3.10060E-06 3.02425E-03-1.26808E-13 2.54742E-13
 -1       289 1.99995E+01-3.85153E-03-6.85461E-06 2.73069E-03-1.09839E-13 3.10187E-13
 -1       290 1.99990E+01-2.08666E-03-1.17971E-05 2.70644E-03-6.65012E-14 7.95877E-15
 -1       291-5.59103E-01-9.24319E+00-7.08251E-01 1.33711E+00 2.00812E-14 1.22399E-12
 -1       292 2.85127E+00-8.42719E+00-7.31328E-01 3.45118E+00 7.18980E-13 1.60885E-12
 -1       293 1.04870E+01-5.45061E+00-4.12144E-01 5.89302E+00 1.13559E-12 1.55560E-12
 -1       294 1.89592E+01-1.23663E+00-1.27944E-01 7.00482E+00 1.69989E-12 1.49417E-12
 -1       295 3.02448E+01 1.79013E+00 2.91270E-01 6.62698E+00 1.38461E-12 1.28783E-12
 -1       296 4.02266E+01 5.01658E+00 7.84933E-01 5.80876E+00 1.38092E-12 9.63368E-13
 -1       297 4.57212E+01 6.53457E+00 9.87521E-01 2.34272E+00 1.07336E-12 2.66537E-13
 -1       298 4.73786E+01 6.70720E+00 1.08852E+00-1.18531E+00 9.44134E-13-2.85341E-13
 -1       299 4.09904E+01 5.74366E+00 5.98045E-01-3.07416E+00 1.09936E-12-5.57665E-13
 -1       300 3.40793E+01 2.44570E+00 3.44755E-01-5.16745E+00 1.11265E-12-8.03801E-13
 -1       301 2.34715E+01 4.78710E-01 6.40033E-02-7.47997E+00 1.38919E-12-1.37296E-12
 -1       302 1.40161E+01-4.26999E+00-3.06928E-01-6.44687E+00 9.99117E-13-1.28679E-12
 -1       303 4.57356E+00-7.65172E+00-7.43876E-01-4.01259E+00 1.05452E-12-1.16849E-12
 -1       304 2.77323E-02-1.01245E+01-9.01582E-01-1.93716E+00 4.59757E-13-1.09256E-12
 -1       305-1.26926E+00-1.12732E+01-1.00485E+00 4.62447E-01-1.65992E-13-1.00611E-12
 -1       306 1.05827E+00-9.35419E+00-8.27440E-01 2.86653E+00-7.36494E-13-1.18988E-12
 -1       307 6.75864E+00-6.38967E+00-5.58391E-01 5.12020E+00-1.16268E-12-1.32632E-12
 -1       308 1.74846E+01-3.62516E+00-1.39522E-01 6.89690E+00-1.06815E-12-1.16841E-12
 -1       309 2.61675E+01 1.76870E+00 2.15089E-01 7.70300E+00-1.48623E-12-1.61848E-12
 -1       310 3.54095E+01 3.57680E+00 3.64026E-01 4.46764E+00-1.03117E-12-1.12454E-12
 -1       311 4.37527E+01 6.14544E+00 9.01090E-01 4.11437E+00-1.11736E-12-1.33851E-12
 -1       312 4.51956E+01 7.06428E+00 8.80651E-01 3.55382E-01-1.14408E-12-6.28851E-13
 -1       313 4.47673E+01 6.27926E+00 9.66546E-01-3.52032E+00-9.63563E-13 8.72635E-14
 -1       314 3.83519E+01 5.01320E+00 6.96493E-01-6.32738E+00-1.19164E-12 7.42267E-13
 -1       315 2.93485E+01 1.21237E+00 2.11502E-01-6.17113E+00-1.17359E-12 6.94472E-13
 -1       316 1.82145E+01-7.56482E-01-9.80161E-02-7.26818E+00-1.62434E-12 1.21000E-12
 -1       317 9.02657E+00-4.84396E+00-5.17803E-01-5.47459E+00-1.39749E-12 1.46112E-12
 -1       318 3.03145E+00-8.07044E+00-6.55196E-01-3.95971E+00-8.84293E-13 1.26608E-12
 -1       319-8.66310E-01-1.08599E+01-9.79337E-01-1.19347E+00-7.52842E-13 6.67133E-13
 -1       320 2.04010E+01 3.04311E+00-2.18272E-02-1.69360E+00-5.09554E-13-2.62835E-13
 -1       321 2.11383E+01 2.19938E+00-1.66284E-02-2.00404E+00-5.55493E-13 6.56818E-14
 -1       322 1.94866E+01 3.86474E+00-1.44222E-02-9.41893E-01-3.06003E-13-5.90061E-13
 -1       323 1.91856E+01 4.08285E+00-1.18722E-02-6.16718E-01-2.02304E-13-6.50508E-13
 -1       324 1.89771E+01 4.22321E+00-1.03603E-02-3.35720E-01-9.80594E-14-6.74311E-13
 -1       325 1.88654E+01 4.29675E+00-9.62754E-03-8.63145E-02 1.32270E-14-6.84096E-13
 -1       326 1.88564E+01 4.30557E+00-9.58529E-03 1.48620E-01 1.19840E-13-6.67398E-13
 -1       327 1.89544E+01 4.24675E+00-1.02381E-02 3.88481E-01 2.14170E-13-6.51806E-13
 -1       328 1.91551E+01 4.11617E+00-1.17050E-02 6.48495E-01 3.07029E-13-6.09273E-13
 -1       329 1.94646E+01 3.89522E+00-1.42161E-02 9.54419E-01 4.21643E-13-5.12564E-13
 -1       330 1.98864E+01 3.55329E+00-1.80253E-02 1.30998E+00 5.12829E-13-3.75635E-13
 -1       331 2.04509E+01 3.02114E+00-2.19739E-02 1.69383E+00 5.66631E-13-1.38309E-13
 -1       332 2.11504E+01 2.13380E+00-2.90012E-02 1.93817E+00 5.76006E-13 3.04994E-13
 -1       333 2.15433E+01 1.17709E+00-2.26308E-02 1.60505E+00 4.99944E-13 7.11109E-13
 -1       334 2.10075E+01 5.12236E-01 9.47861E-03 5.80117E-01 4.13891E-13 5.61878E-13
 -1       335 2.10059E+01 7.05330E-01 1.31871E-02-6.41877E-01-4.27697E-13 1.31641E-13
 -1       336 2.07464E+01 3.89658E-01 7.66389E-03-2.32950E-02-3.25495E-13 9.13039E-14
 -1       337 2.06851E+01 2.39934E-01 4.55522E-03 3.51643E-01-2.26373E-13 6.34792E-14
 -1       338 2.07741E+01 1.48550E-01 2.20944E-03 5.90332E-01-1.42364E-13-2.52623E-14
 -1       339 2.09726E+01 7.24633E-02 7.14713E-04 7.32346E-01-1.13971E-13-3.06532E-14
 -1       340 2.12449E+01-1.22542E-02-5.13980E-04 7.84812E-01-9.51134E-14-2.90722E-14
 -1       341 2.15584E+01-1.20066E-01-1.78639E-03 7.34704E-01-8.55635E-14-1.19145E-14
 -1       342 2.18783E+01-2.55008E-01-3.10014E-03 5.58155E-01-1.22772E-13 3.87721E-14
 -1       343 2.21621E+01-4.02728E-01-4.17539E-03 2.33863E-01-1.16838E-13 3.05618E-14
 -1       344 2.23556E+01-5.19676E-01-4.52575E-03-2.34092E-01-7.99146E-14 1.07078E-13
 -1       345 2.23953E+01-5.29548E-01-3.44625E-03-7.83993E-01 1.08850E-14 6.05706E-14
 -1       346 2.22287E+01-3.47537E-01-1.07283E-03-1.26766E+00 5.45972E-14 5.78902E-14
 -1       347 2.18646E+01 5.00417E-02 1.59558E-03-1.46434E+00-4.67147E-14 8.18486E-14
 -1       348 2.14241E+01 5.48636E-01 3.76587E-03-1.18360E+00-1.44125E-13-4.71116E-14
 -1       349 2.11230E+01 9.04423E-01 4.77171E-03-4.25626E-01-1.91023E-13-1.40031E-13
 -1       350 2.11455E+01 8.98480E-01 4.16653E-03 5.32553E-01-2.41995E-13-1.56919E-13
 -1       351 2.14867E+01 5.42014E-01 3.23097E-03 1.28373E+00-2.11734E-13-2.39817E-13
 -1       352 2.19651E+01 4.79878E-02 1.45626E-03 1.55939E+00-6.40665E-14-3.74373E-13
 -1       353 2.23648E+01-3.41467E-01-1.24873E-03 1.36445E+00 8.61330E-14-3.24465E-13
 -1       354 2.25684E+01-5.15137E-01-3.42942E-03 8.91329E-01 1.24500E-13-3.48920E-13
 -1       355 2.25696E+01-5.00528E-01-4.32890E-03 3.58044E-01 8.01243E-14-2.39374E-13
 -1       356 2.24197E+01-3.83341E-01-4.02808E-03-9.20830E-02 5.59694E-14-2.28232E-13
 -1       357 2.21792E+01-2.40024E-01-2.98506E-03-4.02469E-01-1.64150E-14-3.39227E-13
 -1       358 2.18965E+01-1.14794E-01-1.78638E-03-5.74935E-01-2.71382E-14-3.83457E-13
 -1       359 2.16051E+01-2.37022E-02-7.56270E-04-6.38213E-01-3.65153E-14-2.55913E-13
 -1       360 2.13259E+01 3.35737E-02-1.23851E-05-6.26981E-01-1.42450E-13-2.28213E-13
 -1       361 2.10714E+01 6.40557E-02 4.48826E-04-5.71598E-01-7.26617E-14-3.28228E-13
 -1       362 2.08479E+01 7.59293E-02 6.84264E-04-4.94799E-01-2.21059E-14-2.91086E-13
 -1       363 2.06574E+01 7.61700E-02 7.62075E-04-4.11870E-01-1.07184E-13-4.07812E-13
 -1       364 2.04992E+01 6.99230E-02 7.41775E-04-3.32111E-01-8.29050E-14-3.47586E-13
 -1       365 2.03710E+01 6.06493E-02 6.68061E-04-2.60515E-01 1.56184E-13-2.56438E-13
 -1       366 2.02693E+01 5.05088E-02 5.71185E-04-1.99213E-01-2.41651E-14-3.81421E-13
 -1       367 2.01903E+01 4.07458E-02 4.69925E-04-1.48555E-01 1.41844E-14-3.11407E-13
 -1       368 2.01302E+01 3.20007E-02 3.74883E-04-1.07883E-01 4.75557E-15-1.71455E-13
 -1       369 2.00856E+01 2.45347E-02 2.91253E-04-7.60332E-02 7.07024E-14-1.99001E-13
 -1       370 2.00532E+01 1.83841E-02 2.20862E-04-5.16559E-02 2.47468E-13 1.70316E-13
 -1       371 2.00304E+01 1.34609E-02 1.63577E-04-3.34063E-02 1.01445E-13 5.73790E-14
 -1       372 2.00149E+01 9.61620E-03 1.18212E-04-2.00493E-02 1.08794E-13 4.90365E-13
 -1       373 2.00048E+01 6.67863E-03 8.30906E-05-1.05102E-02-6.29946E-14 3.25774E-13
 -1       374 1.99988E+01 4.47576E-03 5.63721E-05-3.89203E-03-8.58371E-14 3.25322E-13
 -1       375 1.99956E+01 2.84482E-03 3.62475E-05 5.25989E-04 1.67194E-13 2.17038E-13
 -1       376 1.99945E+01 1.63603E-03 2.10016E-05 3.29883E-03 3.10799E-13 4.81940E-13
 -1       377 1.99945E+01 7.10926E-04 9.12882E-06 4.82960E-03 2.54418E-13 3.16570E-13
 -1       378 1.99954E+01-6.00284E-05 3.64002E-08 5.38255E-03-7.60604E-15 2.14316E-13
 -1       379 1.99966E+01-8.06955E-04-9.21366E-06 5.11405E-03-2.81559E-13 8.46086E-14
 -1       380 1.99977E+01-1.45319E-03-1.72239E-05 4.18253E-03-9.13562E-15 1.54745E-13
 -1       381 2.07211E+01 2.78304E-01 1.16772E-02-9.35500E-03 3.10526E-13 4.50023E-13
 -1       382 2.06982E+01 1.86718E-01 7.32955E-03-3.78195E-01 2.21544E-13 3.31401E-13
 -1       383 2.08859E+01 1.44149E-01 4.08598E-03-6.40986E-01 1.64828E-13 2.38588E-13
 -1       384 2.12316E+01 1.17417E-01 2.28133E-03-8.45020E-01 1.15575E-13 1.76353E-13
 -1       385 2.16975E+01 8.60539E-02 9.11475E-04-1.00152E+00 1.51180E-13 1.21494E-13
 -1       386 2.22511E+01 3.09063E-02-6.82376E-04-1.09418E+00 1.29952E-13 1.19671E-13
 -1       387 2.28555E+01-6.87753E-02-2.71519E-03-1.07983E+00 1.18580E-13 1.48217E-13
 -1       388 2.34594E+01-2.29345E-01-4.87771E-03-8.90492E-01 4.03692E-15 2.08480E-13
 -1       389 2.39877E+01-4.44430E-01-6.52858E-03-4.49975E-01-2.66367E-14 2.45613E-13
 -1       390 2.43329E+01-6.49137E-01-6.78455E-03 2.77645E-01 4.36426E-14 3.09051E-13
 -1       391 2.43586E+01-6.86642E-01-5.04958E-03 1.19103E+00 1.46146E-13 3.40272E-13
 -1       392 2.39561E+01-3.59515E-01-5.71654E-03 1.94548E+00 9.09522E-14 2.94105E-13
 -1       393 2.32215E+01 3.43931E-01-7.99890E-03 2.00227E+00 6.62794E-14 2.27005E-13
 -1       394 2.25403E+01 1.07475E+00-9.84413E-03 1.06221E+00 2.64764E-13 1.37239E-13
 -1       395 2.24431E+01 1.23043E+00-8.09386E-03-5.33175E-01 4.41102E-13-8.86077E-14
 -1       396 2.30193E+01 6.85066E-01-4.81454E-03-1.83369E+00 2.92937E-13-2.91427E-13
 -1       397 2.38616E+01-1.02417E-01-1.14890E-03-2.16971E+00-6.36410E-15-5.32329E-13
 -1       398 2.44597E+01-5.97522E-01-3.81102E-03-1.63028E+00-9.43030E-14-7.09567E-13
 -1       399 2.46290E+01-6.89677E-01-8.18964E-03-7.30919E-01-1.12018E-13-5.69842E-13
 -1       400 2.44284E+01-5.28574E-01-8.86662E-03 8.58286E-02 3.41485E-14-2.81782E-13
 -1       401 2.40006E+01-3.03591E-01-7.05130E-03 6.29312E-01-9.72950E-14-2.43093E-13
 -1       402 2.34679E+01-1.17849E-01-4.29351E-03 8.98181E-01-3.07457E-13-2.23103E-13
 -1       403 2.29119E+01 1.79046E-03-1.75774E-03 9.66064E-01-2.56158E-13-7.58660E-14
 -1       404 2.23820E+01 6.48705E-02 3.79746E-05 9.13522E-01-9.58179E-14-1.76982E-14
 -1       405 2.19050E+01 8.99915E-02 1.05841E-03 8.02113E-01 3.15129E-14 1.59757E-13
 -1       406 2.14928E+01 9.32526E-02 1.49866E-03 6.71227E-01-2.34603E-14 1.19428E-13
 -1       407 2.11477E+01 8.56042E-02 1.57636E-03 5.42936E-01 6.06354E-14 1.09337E-13
 -1       408 2.08660E+01 7.35770E-02 1.46127E-03 4.27905E-01-7.27249E-14 1.63667E-13
 -1       409 2.06410E+01 6.06934E-02 1.26339E-03 3.30062E-01 6.14106E-14-3.14435E-14
 -1       410 2.04648E+01 4.86605E-02 1.04545E-03 2.49699E-01 1.92020E-13-1.22919E-13
 -1       411 2.03293E+01 3.81750E-02 8.39238E-04 1.85357E-01 1.27214E-13 8.84982E-15
 -1       412 2.02269E+01 2.94089E-02 6.58390E-04 1.34877E-01 3.53244E-13 1.82123E-13
 -1       413 2.01511E+01 2.22821E-02 5.06766E-04 9.59640E-02 9.58550E-14 1.01074E-13
 -1       414 2.00960E+01 1.66085E-02 3.83403E-04 6.64569E-02 1.98661E-13 6.11682E-14
 -1       415 2.00569E+01 1.21702E-02 2.85241E-04 4.44452E-02-1.66083E-14-2.41999E-13
 -1       416 2.00300E+01 8.75321E-03 2.08532E-04 2.83042E-02 1.79263E-13-2.84893E-13
 -1       417 2.00122E+01 6.16287E-03 1.49528E-04 1.66888E-02-2.94593E-13-1.45853E-13
 -1       418 2.00011E+01 4.22913E-03 1.04777E-04 8.50942E-03 5.89555E-14 5.50093E-14
 -1       419 1.99948E+01 2.80632E-03 7.12267E-05 2.90128E-03-4.32853E-14 1.90322E-13
 -1       420 1.99918E+01 1.77068E-03 4.62218E-05-8.06083E-04 1.01754E-13 2.54432E-13
 -1       421 1.99911E+01 1.01670E-03 2.74542E-05-3.11640E-03 3.77185E-13 4.88031E-13
 -1       422 1.99918E+01 4.51515E-04 1.29901E-05-4.38993E-03 2.33951E-13 4.73750E-13
 -1       423 1.99934E+01-1.32712E-05 2.04198E-06-4.85939E-03 1.92262E-14 2.07336E-13
 -1       424 1.99953E+01-4.56960E-04-5.33749E-06-4.64002E-03 9.44895E-14-3.24959E-14
 -1       425 1.99972E+01-9.59480E-04-8.31327E-06-3.76141E-03 8.24357E-14 3.03333E-13
 -1       426 1.99983E+01-1.40175E-03-1.07907E-05-2.95943E-03-4.34898E-14 6.11045E-13
 -1       427 2.00002E+01-5.12855E-03 1.59175E-06-4.62190E-03 1.75994E-13 6.60583E-14
 -1       428 1.99995E+01-3.68701E-03-8.72317E-06-4.73117E-03-3.62525E-14 3.98990E-13
 -1       429 1.99988E+01-2.59861E-03-1.50035E-05-4.11943E-03-7.63585E-14 2.86126E-13
 -1       430 2.00007E+01-6.34064E-03 7.16254E-06-3.96011E-03 5.23948E-14-4.65256E-13
 -1       431 2.00009E+01-7.29887E-03 1.05026E-05-2.96243E-03 3.70112E-14 2.09253E-13
 -1       432 2.00010E+01-7.93919E-03 1.25201E-05-1.79998E-03 1.79420E-14-1.87370E-13
 -1       433 2.00010E+01-8.24995E-03 1.33800E-05-5.73552E-04-1.12658E-13-1.48113E-13
 -1       434 2.00010E+01-8.23112E-03 1.33155E-05 6.62752E-04-2.48579E-13-1.23201E-14
 -1       435 2.00010E+01-7.88605E-03 1.23513E-05 1.87340E-03-1.81054E-13-5.27901E-14
 -1       436 2.00009E+01-7.23423E-03 1.02024E-05 2.99002E-03 2.18442E-13 4.37830E-14
 -1       437 2.00006E+01-6.26978E-03 6.60378E-06 3.95780E-03 3.21361E-13 3.03600E-13
 -1       438 2.00002E+01-5.03562E-03 1.05780E-06 4.60082E-03 2.26525E-13-1.32929E-13
 -1       439 1.99995E+01-3.63471E-03-9.85286E-06 4.73471E-03-5.33253E-14 2.14085E-13
 -1       440 1.02040E+01-5.60903E+00-4.66180E-02 6.66986E+00-1.23790E-13 1.42771E-12
 -1       441 1.03645E+00-4.52750E+00-8.15800E-02-5.33644E-01-1.52161E-14 9.11132E-13
 -1       442 4.50821E+00-4.48864E+00 1.27638E-02 4.52992E+00-8.96089E-14 1.46523E-12
 -1       443 2.07834E+01-5.64421E+00 3.21564E-02 6.16555E+00 1.04236E-13 2.79353E-13
 -1       444 2.71939E+01-4.03678E+00-4.07659E-02 3.65308E+00 3.63529E-13 5.61079E-14
 -1       445 1.98834E+01 3.53998E+00-1.81713E-02-1.31161E+00-4.17725E-13-4.72898E-13
 -1       446 3.62299E+01 5.49117E+00 9.86135E-02-9.80025E-02 1.27444E-12-1.58207E-15
 -1       447 3.59109E+01 7.91384E+00 3.79603E-02-2.44340E-01 1.14039E-12 2.01870E-14
 -1       448 3.52740E+01 7.09089E+00 3.02064E-02 5.60684E-01 1.05119E-12 1.33227E-14
 -1       449 3.36765E+01 2.69909E+00-3.37989E-02 6.73529E-02 8.04391E-13 8.15598E-14
 -1       450 2.92024E+01-2.30633E+00-1.96486E-02-3.14202E+00 3.93768E-13-4.16611E-14
 -1       451 2.30295E+01-5.11030E+00-1.95049E-03-5.65852E+00 1.12715E-13-2.43305E-13
 -1       452 1.34607E+01-5.78643E+00-1.59238E-02-7.11139E+00-1.40860E-13-7.47312E-13
 -1       453 5.61187E+00-5.47023E+00-7.81749E-02-5.42751E+00 7.25808E-15-9.49532E-13
 -1       454 1.96820E+00-3.72281E+00 2.62365E-02-1.45093E+00-1.31648E-13-1.21642E-12
 -1       455 2.19151E+00-4.13857E+00-3.03173E-03 2.55206E+00-9.20791E-15-1.21336E-12
 -1       456 7.89026E+00-5.11908E+00 5.32774E-03 6.47563E+00 4.71567E-14-1.02718E-12
 -1       457 1.55774E+01-5.60447E+00 1.33478E-02 7.22666E+00-2.14551E-14-7.05591E-13
 -1       458 2.54989E+01-3.58744E+00 1.85611E-02 4.88327E+00-4.07341E-13-4.14294E-13
 -1       459 3.06233E+01-7.30112E-01-2.40726E-02 1.91459E+00-4.85318E-13-4.01595E-13
 -1       460 3.42656E+01 4.98603E+00 3.28254E-02 2.18755E-01-9.28771E-13-3.64639E-13
 -1       461 3.53884E+01 7.52520E+00 4.00778E-02-1.63992E-01-1.17364E-12-3.82347E-13
 -1       462 3.54909E+01 7.79207E+00 4.92591E-02 2.25727E-01-1.25391E-12-3.70391E-13
 -1       463 3.51228E+01 5.22441E+00 7.66746E-02-3.32268E-01-9.94232E-13-3.18107E-13
 -1       464 3.21618E+01 1.35034E+00 1.76917E-02-1.49551E+00-8.18005E-13-3.37425E-13
 -1       465 2.56668E+01-3.36971E+00-2.87494E-03-4.85019E+00-4.41036E-13-1.21445E-13
 -1       466 1.82073E+01-5.10706E+00-4.14027E-02-6.80621E+00-2.63178E-13 3.35836E-13
 -1       467 1.04671E+01-5.55072E+00-4.95828E-02-6.90814E+00-1.66256E-14 9.66560E-13
 -1       468 3.08031E+00-4.85258E+00-8.87048E-02-4.08788E+00-1.94469E-13 8.59507E-13
 -1       469 3.29960E+01 1.04840E+00 1.78095E-02 6.41576E-01 8.70286E-13-5.70100E-14
 -1       470 4.23089E+00-2.15216E+00 1.45161E-01 2.26409E+00 4.50473E-14 1.35955E-12
 -1       471 8.60449E+00-3.86738E+00 1.08599E-01-6.28237E+00 1.97231E-13 7.73909E-13
 -1       472 2.90944E+01-2.28855E+00-4.29706E-02-1.63876E+00-1.48923E-13-7.06449E-13
 -1       473 3.08955E+01 1.45053E+00-1.06764E-01-9.02673E-01-5.43537E-13-1.32977E-13
 -1       474 2.21879E+01-5.70258E+00 1.30010E-02 5.72615E+00 1.02821E-13-1.97457E-13
 -1       475 3.08024E+01-1.13152E+00-6.18850E-02 3.53617E-01 2.44645E-13 3.73077E-13
 -1       476 2.09006E+01 9.36465E-01 4.36090E-03 4.45815E-01 4.15465E-13 6.39079E-14
 -1       477 1.92880E+01 3.49086E+00-4.48429E-03-3.18195E-01-1.47738E-13-5.92201E-13
 -1       478 1.95757E+01 3.23472E+00-5.31786E-03-5.38666E-01-2.35636E-13-5.43517E-13
 -1       479 1.90265E+01 3.71042E+00-3.84983E-03 4.20464E-02 6.16229E-14-5.90820E-13
 -1       480 1.90732E+01 3.67628E+00-3.95970E-03 2.03004E-01 1.55235E-13-5.92545E-13
 -1       481 1.92391E+01 3.54253E+00-4.41240E-03 3.69197E-01 2.37776E-13-5.65448E-13
 -1       482 1.95248E+01 3.29429E+00-5.20568E-03 5.58789E-01 3.54899E-13-4.90135E-13
 -1       483 1.99170E+01 2.91428E+00-6.11862E-03 7.69669E-01 4.30468E-13-3.92381E-13
 -1       484 2.04088E+01 2.36372E+00-5.58808E-03 9.81508E-01 5.07630E-13-2.39024E-13
 -1       485 2.07819E+01 6.09709E-01 5.75684E-03-1.73622E-01 3.28196E-13 2.13271E-14
 -1       486 2.07756E+01 1.07393E+00 2.85613E-03-4.26749E-01-3.79002E-13-1.08050E-13
 -1       487 2.94068E+01-2.66849E+00-7.49988E-02-2.64926E-01 2.35358E-13-1.94733E-13
 -1       488 2.07105E+01 6.73009E-01 2.06754E-03 1.34664E-01-2.77455E-13-1.06760E-13
 -1       489 2.06998E+01 4.37626E-01 1.23517E-03 5.31625E-01-2.14612E-13-7.39577E-14
 -1       490 2.07692E+01 2.66122E-01 5.50090E-04 8.03249E-01-1.55565E-13-8.74651E-14
 -1       491 2.09201E+01 1.02905E-01 1.63997E-05 9.68676E-01-1.10308E-13-1.07787E-13
 -1       492 2.11505E+01-8.85343E-02-5.29677E-04 1.02504E+00-1.02080E-13-1.18975E-13
 -1       493 2.14588E+01-3.29607E-01-1.17489E-03 9.51429E-01-6.00956E-14-1.45505E-13
 -1       494 2.18389E+01-6.17852E-01-1.82437E-03 7.15268E-01-9.19163E-14-5.37597E-14
 -1       495 2.22668E+01-9.07215E-01-2.26911E-03 2.87029E-01-4.79695E-14 5.47881E-14
 -1       496 2.26811E+01-1.08682E+00-2.31747E-03-3.28951E-01-1.25832E-14 1.53033E-13
 -1       497 2.29713E+01-9.82055E-01-1.10489E-03-1.04443E+00 3.70600E-14 1.91685E-13
 -1       498 2.30042E+01-4.29205E-01-4.27383E-04-1.62916E+00-4.10313E-14 9.00266E-14
 -1       499 2.27440E+01 5.30632E-01-2.40456E-03-1.73758E+00-1.59561E-13 1.36275E-13
 -1       500 2.23664E+01 1.51677E+00-3.78710E-03-1.12248E+00-2.58301E-13 1.18936E-13
 -1       501 2.21861E+01 1.94543E+00-4.69961E-03 7.23560E-02-3.22933E-13-8.58428E-15
 -1       502 2.23892E+01 1.50694E+00-5.82534E-03 1.24959E+00-2.97619E-13-1.54837E-13
 -1       503 2.27922E+01 5.17651E-01-3.56765E-03 1.85839E+00-2.17346E-13-1.81625E-13
 -1       504 2.30684E+01-4.28237E-01-1.70212E-03 1.74531E+00-1.60189E-14-1.84714E-13
 -1       505 2.30473E+01-9.60884E-01-1.61575E-03 1.16756E+00 8.11929E-14-3.92378E-13
 -1       506 2.27739E+01-1.05388E+00-2.10932E-03 4.69111E-01 1.46369E-13-2.81012E-13
 -1       507 2.23771E+01-8.71706E-01-2.30881E-03-1.28007E-01 6.25620E-14-2.11048E-13
 -1       508 2.19649E+01-5.89480E-01-1.79361E-03-5.41778E-01-9.37836E-14-3.68282E-13
 -1       509 2.15936E+01-3.19312E-01-1.12574E-03-7.75432E-01-1.86016E-13-4.10579E-13
 -1       510 2.12805E+01-1.09784E-01-5.47107E-04-8.67052E-01-9.39958E-14-6.08842E-13
 -1       511 2.10234E+01 3.07070E-02-1.28366E-04-8.60841E-01-1.99312E-15-6.45106E-13
 -1       512 2.08138E+01 1.12377E-01 1.35279E-04-7.94948E-01-5.54375E-14-5.53754E-13
 -1       513 2.06428E+01 1.50794E-01 2.77195E-04-6.98147E-01 2.43434E-14-2.90700E-13
 -1       514 2.05032E+01 1.60568E-01 3.34206E-04-5.90277E-01-6.40069E-14-2.03274E-13
 -1       515 2.03896E+01 1.53170E-01 3.37426E-04-4.83941E-01-3.78018E-14 2.98767E-14
 -1       516 2.02976E+01 1.36730E-01 3.10384E-04-3.86384E-01 3.87982E-14 1.24230E-13
 -1       517 2.02239E+01 1.16593E-01 2.69086E-04-3.01139E-01-1.22290E-13 5.56078E-15
 -1       518 2.01655E+01 9.60329E-02 2.23610E-04-2.29316E-01-2.63773E-14-8.06775E-14
 -1       519 2.01199E+01 7.68912E-02 1.79778E-04-1.70549E-01 4.74815E-14-8.36249E-14
 -1       520 2.00848E+01 6.00668E-02 1.40580E-04-1.23651E-01 1.62839E-13 1.82509E-13
 -1       521 2.00583E+01 4.58701E-02 1.07220E-04-8.70558E-02 1.85705E-13 6.86284E-15
 -1       522 2.00387E+01 3.42637E-02 7.98487E-05-5.91004E-02 8.45307E-14 6.22636E-15
 -1       523 2.00245E+01 2.50208E-02 5.80386E-05-3.81890E-02 2.17829E-13 1.04208E-13
 -1       524 2.00145E+01 1.78257E-02 4.10825E-05-2.28857E-02 6.36988E-14 1.46358E-13
 -1       525 2.00077E+01 1.23346E-02 2.81623E-05-1.19564E-02-1.93169E-14 3.54913E-13
 -1       526 2.00033E+01 8.20937E-03 1.84292E-05-4.38038E-03-1.62237E-13 3.48100E-13
 -1       527 2.00006E+01 5.13367E-03 1.11663E-05 6.56425E-04 2.83578E-13 4.03722E-13
 -1       528 1.99992E+01 2.81851E-03 5.63712E-06 3.77719E-03 1.87689E-13 3.66690E-13
 -1       529 1.99986E+01 9.97917E-04 1.68854E-06 5.43144E-03-1.73526E-14 1.99595E-13
 -1       530 1.99985E+01-5.68713E-04-1.61440E-06 5.92016E-03-1.04215E-13 1.12848E-13
 -1       531 2.08767E+01 3.50351E-01 1.85025E-03-9.68864E-01 1.78072E-13-5.05963E-14
 -1       532 2.10811E+01 2.73941E-01 1.00346E-03-1.24360E+00 1.67674E-13-8.66340E-14
 -1       533 2.13791E+01 1.70703E-01 1.65181E-04-1.44961E+00 1.42957E-13-7.60817E-14
 -1       534 2.17729E+01-4.59989E-03-1.01019E-03-1.56043E+00 6.04616E-14-6.48944E-15
 -1       535 2.22776E+01-2.97078E-01-2.58442E-03-1.51766E+00 8.42582E-15 8.55040E-14
 -1       536 2.29126E+01-7.27437E-01-3.97893E-03-1.23297E+00-7.64237E-14 1.46934E-13
 -1       537 2.36762E+01-1.24213E+00-5.62869E-03-6.06167E-01-2.37081E-14 1.19236E-13
 -1       538 2.44884E+01-1.61929E+00-7.41537E-03 4.07812E-01 3.38336E-15 2.71054E-13
 -1       539 2.51166E+01-1.41798E+00-8.15241E-03 1.65220E+00 1.23450E-13 4.08659E-13
 -1       540 2.52256E+01-2.43580E-01-1.18285E-02 2.55925E+00 1.20984E-13 4.79999E-13
 -1       541 2.46647E+01 1.70448E+00-6.21018E-02 2.22794E+00 2.59744E-13 3.65209E-13
 -1       542 2.43465E+01 2.90795E+00-5.58260E-02 3.80717E-01 6.14290E-13 1.08757E-13
 -1       543 2.45473E+01 2.28761E+00-5.05406E-02-1.76077E+00 5.80827E-13-9.10253E-14
 -1       544 2.50549E+01 4.71998E-01-3.87074E-02-2.72238E+00 2.58156E-13-3.41085E-13
 -1       545 2.52995E+01-1.11735E+00-5.71787E-03-2.19314E+00-5.80955E-14-3.26474E-13
 -1       546 2.48829E+01-1.62619E+00-9.80366E-03-1.00428E+00-1.88973E-13-2.91737E-13
 -1       547 2.41317E+01-1.40264E+00-7.76466E-03 1.28239E-01-2.76120E-13-2.46529E-13
 -1       548 2.33623E+01-8.99347E-01-5.53794E-03 8.88870E-01-8.95531E-14-8.52544E-14
 -1       549 2.27031E+01-4.24284E-01-3.44739E-03 1.27900E+00-1.53185E-13 4.35786E-14
 -1       550 2.21742E+01-8.84430E-02-1.56866E-03 1.39586E+00-2.64887E-13-1.31866E-13
 -1       551 2.17521E+01 1.07577E-01-1.82942E-04 1.34417E+00-2.50436E-13-1.72259E-13
 -1       552 2.14093E+01 2.00512E-01 6.17238E-04 1.20406E+00-1.16047E-13-9.70929E-14
 -1       553 2.11261E+01 2.28892E-01 9.82456E-04 1.02854E+00 8.63413E-14-1.94735E-13
 -1       554 2.08906E+01 2.21685E-01 1.07064E-03 8.49232E-01-8.00651E-14-2.25960E-13
 -1       555 2.06952E+01 1.97605E-01 1.00864E-03 6.83055E-01-1.72959E-13-7.79582E-14
 -1       556 2.05346E+01 1.67577E-01 8.79595E-04 5.37631E-01 1.36753E-13-1.08543E-13
 -1       557 2.04045E+01 1.37433E-01 7.31336E-04 4.15132E-01 1.21162E-13-1.00362E-13
 -1       558 2.03005E+01 1.09964E-01 5.88633E-04 3.14775E-01-3.48959E-14 7.71356E-14
 -1       559 2.02188E+01 8.62555E-02 4.62439E-04 2.34340E-01 2.06483E-13 3.10831E-13
 -1       560 2.01557E+01 6.64941E-02 3.56187E-04 1.71060E-01 3.49100E-13 4.81113E-13
 -1       561 2.01079E+01 5.04303E-02 2.69552E-04 1.22107E-01 1.64988E-13 3.85666E-13
 -1       562 2.00723E+01 3.76283E-02 2.00543E-04 8.48441E-02 2.85684E-13 2.78115E-13
 -1       563 2.00463E+01 2.75989E-02 1.46596E-04 5.69380E-02 2.04104E-13 9.21479E-14
 -1       564 2.00279E+01 1.98650E-02 1.05110E-04 3.63949E-02 1.45866E-13 3.76499E-14
 -1       565 2.00152E+01 1.39914E-02 7.36855E-05 2.15552E-02-2.65742E-13-3.26735E-13
 -1       566 2.00068E+01 9.59514E-03 5.01998E-05 1.10683E-02-5.39140E-14-1.87599E-13
 -1       567 2.00016E+01 6.34481E-03 3.28240E-05 3.85976E-03 1.06988E-14-7.99471E-14
 -1       568 1.99987E+01 3.95616E-03 1.99968E-05-9.02748E-04-5.92380E-14 2.92677E-14
 -1       569 1.99973E+01 2.18551E-03 1.02896E-05-3.84329E-03 2.05478E-13 3.52851E-13
 -1       570 1.99970E+01 8.16868E-04 2.93837E-06-5.40827E-03 1.11103E-13 6.20201E-13
 -1       571 1.99973E+01-3.52341E-04-5.06797E-06-5.90406E-03 2.49713E-13 6.16960E-13
 -1       572 1.99980E+01-1.47925E-03-9.31686E-06-5.49036E-03-1.09106E-13 5.06398E-13
 -1       573 2.00018E+01-3.19021E-03 4.00355E-06-3.98315E-03 2.31230E-13-9.03790E-14
 -1       574 2.00021E+01-3.29508E-03 4.96612E-06-2.69777E-03 1.19934E-13 1.98069E-13
 -1       575 2.00001E+01-2.48626E-03-3.22341E-06-5.67876E-03 6.15778E-14 3.70883E-13
 -1       576 2.00012E+01-2.94059E-03 2.73486E-06-5.03877E-03 1.96535E-13-4.22529E-13
 -1       577 2.00022E+01-3.31584E-03 5.74671E-06-1.32613E-03 7.41019E-14-4.24627E-13
 -1       578 2.00022E+01-3.30418E-03 5.95556E-06 6.16741E-05 5.18666E-14-9.28790E-14
 -1       579 2.00022E+01-3.28150E-03 5.69479E-06 1.43824E-03-2.11026E-13-5.99535E-14
 -1       580 2.00020E+01-3.23388E-03 4.93598E-06 2.75787E-03-2.21950E-14 2.69484E-13
 -1       581 2.00017E+01-3.11522E-03 3.42122E-06 4.00599E-03 2.25280E-13 1.76096E-13
 -1       582 2.00011E+01-2.84173E-03 1.26646E-06 5.03689E-03 1.95446E-13-3.41367E-14
 -1       583 2.00000E+01-2.36680E-03-2.33900E-06 5.59699E-03-1.64039E-13-2.59736E-13
 -1       584 1.74492E+01-5.21660E+00 7.45525E-02 6.42071E+00-5.69551E-13 3.49044E-13
 -1       585 2.07735E+01 4.43736E-01 3.27192E-03-6.22927E-01 2.48343E-13-2.67547E-14
 -1       586 3.09864E+01 2.55594E+00-1.28496E-01-2.15546E+00 8.92481E-13-2.84855E-13
 -1       587 2.52209E+01-5.47570E+00 1.01209E-02 3.58721E+00-2.29219E-13-9.58227E-14
 -1       588 4.75063E+00-1.86291E+00 1.81215E-01-2.65788E+00 2.62342E-13 7.87953E-13
 -1       589 2.97622E+01 7.31834E+00-1.81868E-01-6.47509E-02-1.21179E-12-1.20071E-13
 -1       590 7.18258E+00-2.20030E+00 1.81250E-01-4.38843E+00-3.13242E-13-9.43537E-13
 -1       591 3.03469E+01 4.09675E+00-1.67310E-01 2.15633E+00 7.37674E-13 3.49575E-13
 -1       592 1.91010E+01 3.64782E+00-4.02051E-03-1.27025E-01-3.32758E-14-5.97542E-13
 -1       593 3.05382E+01 5.98923E+00-1.82480E-01-1.59174E+00 1.05214E-12-1.11376E-13
 -1       594 2.92916E+01 6.47965E+00-1.95795E-01 4.75323E-01 9.69405E-13 1.76584E-13
 -1       595 1.22710E+01-3.77593E+00 1.19701E-01-6.42445E+00-4.66099E-13-5.39360E-13
 -1       596 2.70023E+01-4.93082E+00-4.17259E-02-2.51679E+00-2.24203E-13 3.95906E-13
 -1       597 3.07481E+01 5.86332E+00-1.51075E-01 1.42238E+00-8.61436E-13-3.94677E-13
 -1       598 2.10092E+01-5.76680E+00 6.63593E-02-5.83209E+00-4.53533E-13 3.90801E-14
 -1       599 4.72374E+00-1.36927E+00 1.74138E-01 7.57214E-01-3.06109E-14-1.08114E-12
 -1       600 7.59366E+00-2.36906E+00 1.61413E-01 4.96356E+00 2.11088E-13-9.30783E-13
 -1       601 1.40672E+01-4.43371E+00 1.24999E-01 6.94908E+00 3.63848E-13-6.64489E-13
 -1       602 2.78302E+01-3.73746E+00-3.84638E-02 2.02293E+00-5.77021E-14-1.53842E-13
 -1       603 3.06277E+01 5.57805E+00-1.55301E-01-1.42269E+00-9.21985E-13-8.76799E-14
 -1       604 2.33677E+01-5.29926E+00 2.47329E-02-5.00347E+00 3.63369E-13-4.49411E-13
 -1       605 3.08086E+01 2.68693E+00-1.19992E-01 1.31787E+00-6.42104E-13-6.13419E-13
 -1       606 1.71015E+01-5.30677E+00 6.89860E-02-6.83966E+00 4.97213E-13 1.56038E-14
 -1       607 2.07209E+01 1.82961E+00-4.99765E-03-1.06682E+00-4.63610E-13-1.78753E-13
 -1       608 2.10473E+01 1.35430E+00-6.16853E-04 1.10366E+00 5.09018E-13 1.56916E-13
 -1       609 1.06829E+01-3.28263E+00 1.50871E-01 5.92113E+00-5.30992E-13 1.18023E-12
 -1       610 1.99468E+01 2.86554E+00-6.43889E-03-7.77495E-01-3.28217E-13-4.66995E-13
 -1       611 2.03204E+01 2.42054E+00-5.99272E-03-9.56167E-01-4.09563E-13-3.56153E-13
 -1       612 1.93522E+01-5.14352E+00 6.56900E-02 6.13175E+00 3.85796E-13-3.32130E-13
 -1       613 8.92954E+00-1.44125E+00 1.64830E-01 4.19605E+00-2.39198E-13 9.63542E-13
 -1       614 2.93080E+01 9.83337E-01-1.16411E-01 2.43822E+00 3.75068E-13 4.77819E-13
 -1       615 1.99987E+01-1.57823E-03-5.39603E-06 5.69309E-03-2.59566E-13 3.93689E-13
 -1       616 1.41794E+01-3.94356E+00 1.20992E-01-6.64191E+00 5.52641E-13 1.61808E-13
 -1       617 2.93117E+01-4.36626E-01-8.85298E-02 9.23544E-01-2.23061E-13-8.25076E-13
 -1       618 2.87538E+01-1.63462E+00-7.66551E-02-5.39619E-01-1.17116E-13 2.20310E-14
 -1       619 2.65645E+01-4.43505E+00-3.34704E-02-2.41845E+00 2.39340E-13-9.77975E-13
 -1       620 2.78415E+01 3.12971E+00-1.29352E-01-2.57768E+00 7.32130E-13-9.99409E-14
 -1       621 1.92461E+01 3.06515E+00-1.24729E-03 1.53442E-01 1.74677E-13-5.03814E-13
 -1       622 1.91345E+01 3.16122E+00-1.16409E-03 9.07111E-02 9.40645E-14-5.28236E-13
 -1       623 1.98407E+01 2.49173E+00-1.44704E-03 3.05571E-01 3.53968E-13-3.79917E-13
 -1       624 2.02637E+01 1.99633E+00-1.98507E-03 3.80360E-01 4.03498E-13-2.68796E-13
 -1       625 2.06259E+01 1.27856E+00 2.72739E-03 1.73006E-01 3.86408E-13-1.66756E-13
 -1       626 2.69035E+01 4.88200E+00-1.48443E-01-9.96198E-01 9.14380E-13 3.33995E-14
 -1       627 2.05188E+01 9.03425E-01 4.53884E-04 3.44591E-01-2.17898E-13-1.97469E-13
 -1       628 2.05291E+01 6.09034E-01 2.63566E-04 7.22666E-01-1.84215E-13-1.77178E-13
 -1       629 2.05874E+01 3.59346E-01 1.00800E-04 1.00312E+00-1.33392E-13-1.75296E-13
 -1       630 2.07213E+01 9.53353E-02-5.50052E-05 1.18971E+00-1.08392E-13-2.23136E-13
 -1       631 2.09592E+01-2.27786E-01-2.84908E-04 1.27146E+00-4.34803E-14-1.68477E-13
 -1       632 2.13329E+01-6.35268E-01-6.12508E-04 1.21857E+00 1.95320E-15-7.90829E-14
 -1       633 2.18677E+01-1.11220E+00-8.59029E-04 9.80950E-01 2.73722E-14 4.95810E-14
 -1       634 2.25531E+01-1.56367E+00-1.07249E-03 4.99181E-01 6.77204E-14 1.22108E-13
 -1       635 2.33023E+01-1.77895E+00-2.37060E-03-2.52896E-01 2.95269E-14 1.59291E-13
 -1       636 2.39165E+01-1.42716E+00-2.47865E-03-1.18244E+00 6.51855E-15 1.91506E-13
 -1       637 2.41090E+01-2.24207E-01-9.55204E-03-1.91588E+00-4.09189E-14 2.89154E-13
 -1       638 2.38199E+01 1.58784E+00-2.45393E-02-1.87650E+00-3.10492E-13 2.41944E-13
 -1       639 2.34369E+01 3.01384E+00-2.84489E-02-7.38815E-01-4.63867E-13 1.48640E-14
 -1       640 2.32598E+01 3.00627E+00-5.78371E-02 9.28679E-01-4.16660E-13-2.11602E-13
 -1       641 2.37412E+01 1.52394E+00-2.93700E-02 2.03509E+00-2.15488E-13-3.03346E-13
 -1       642 2.41174E+01-2.75142E-01 1.30656E-03 2.03434E+00-9.18048E-14-2.41006E-13
 -1       643 2.39211E+01-1.40650E+00-3.03405E-03 1.30059E+00-2.04558E-14-2.24720E-13
 -1       644 2.33000E+01-1.73405E+00-1.25798E-03 3.89154E-01 1.76210E-13-3.06059E-13
 -1       645 2.25485E+01-1.51200E+00-1.55609E-03-3.43292E-01 1.09561E-13-4.12768E-13
 -1       646 2.18607E+01-1.06784E+00-1.06067E-03-8.09078E-01-1.11494E-13-3.51321E-13
 -1       647 2.13187E+01-6.15954E-01-6.02519E-04-1.04382E+00-1.94661E-13-3.93585E-13
 -1       648 2.09273E+01-2.52717E-01-2.74752E-04-1.11476E+00-2.30157E-13-3.85682E-13
 -1       649 2.06575E+01-1.40715E-04-7.07812E-05-1.08188E+00-3.62868E-14-3.64437E-13
 -1       650 2.04751E+01 1.54272E-01 4.01240E-05-9.89360E-01 1.45552E-13-1.72690E-13
 -1       651 2.03511E+01 2.34009E-01 9.41711E-05-8.67538E-01 1.46619E-13-7.61862E-14
 -1       652 2.02651E+01 2.62418E-01 1.15186E-04-7.36361E-01-4.47609E-14-1.37598E-13
 -1       653 2.02034E+01 2.58573E-01 1.16445E-04-6.08354E-01 1.60781E-13 5.47215E-14
 -1       654 2.01576E+01 2.36498E-01 1.07206E-04-4.90812E-01 1.12206E-13 1.06908E-13
 -1       655 2.01225E+01 2.05775E-01 9.30835E-05-3.87415E-01-5.42428E-14 2.39646E-13
 -1       656 2.00950E+01 1.72541E-01 7.75092E-05-2.99427E-01-2.80627E-13 2.64850E-13
 -1       657 2.00733E+01 1.40459E-01 6.24653E-05-2.26569E-01-1.36791E-13 1.76188E-13
 -1       658 2.00559E+01 1.11496E-01 4.89766E-05-1.67649E-01-2.38243E-14-4.18417E-14
 -1       659 2.00422E+01 8.65182E-02 3.74642E-05-1.21009E-01 5.50286E-14-3.54279E-13
 -1       660 2.00313E+01 6.57066E-02 2.79906E-05-8.48248E-02 1.10739E-13-2.19942E-13
 -1       661 2.00229E+01 4.88430E-02 2.04197E-05-5.72996E-02 1.64066E-13 5.99449E-14
 -1       662 2.00164E+01 3.54993E-02 1.45180E-05-3.67773E-02 8.46787E-14 2.63226E-14
 -1       663 2.00114E+01 2.51579E-02 1.00165E-05-2.18019E-02 8.07126E-14-1.16004E-13
 -1       664 2.00077E+01 1.72825E-02 6.60802E-06-1.11416E-02 1.04487E-13-5.01891E-14
 -1       665 2.00050E+01 1.13588E-02 3.91573E-06-3.78889E-03 6.88261E-14 1.64175E-13
 -1       666 2.00031E+01 6.91156E-03 1.95402E-06 1.05140E-03 8.99069E-14 1.03662E-14
 -1       667 2.00017E+01 3.51221E-03 2.91482E-06 3.98919E-03 1.08067E-14-2.04728E-13
 -1       668 2.00008E+01 7.65190E-04-1.47676E-06 5.44001E-03-2.71090E-14-1.96754E-14
 -1       669 2.06417E+01 4.41932E-01 2.98745E-04-1.53333E+00 1.34509E-13-1.46747E-13
 -1       670 2.05649E+01 5.82198E-01 4.68401E-04-1.21965E+00 1.97114E-13-1.52514E-13
 -1       671 2.10960E+01-1.08086E-01-6.84027E-04-1.95312E+00-4.64839E-15-3.49567E-14
 -1       672 2.16043E+01-6.61583E-01-1.40782E-03-1.97666E+00-6.06053E-14 1.13873E-14
 -1       673 2.24348E+01-1.44256E+00-4.48892E-05-1.75770E+00-4.09271E-14 3.45792E-14
 -1       674 2.36706E+01-2.31791E+00 2.48337E-04-1.10921E+00-1.49348E-13 8.64402E-14
 -1       675 2.52384E+01-2.78464E+00-1.47570E-02 1.36606E-01-1.23297E-13 2.57686E-13
 -1       676 2.66108E+01-2.04582E+00-3.97658E-02 1.71557E+00 1.70107E-14 4.82346E-13
 -1       677 2.58085E+01-2.74005E+00-5.04397E-03-8.10260E-01-1.77213E-13-3.40611E-13
 -1       678 2.42752E+01-2.56120E+00-8.02522E-04 5.85183E-01-3.30482E-13-1.79037E-13
 -1       679 2.29036E+01-1.74545E+00-3.44026E-04 1.41216E+00-2.28755E-13-1.10601E-13
 -1       680 2.19306E+01-8.98350E-01-8.99096E-04 1.75741E+00-1.45404E-13-8.26639E-14
 -1       681 2.13158E+01-2.71189E-01-7.13139E-04 1.80554E+00-1.83494E-13 4.49979E-14
 -1       682 2.09442E+01 1.14626E-01-1.72070E-04 1.69523E+00-2.81840E-13 1.08334E-13
 -1       683 2.07163E+01 3.14225E-01 1.49724E-04 1.50889E+00-1.79883E-13 1.53059E-13
 -1       684 2.05671E+01 3.91482E-01 3.17834E-04 1.29477E+00 8.95145E-14-5.25675E-15
 -1       685 2.04595E+01 3.97056E-01 3.70304E-04 1.08058E+00 6.90602E-14 8.01101E-14
 -1       686 2.03747E+01 3.65356E-01 3.59203E-04 8.81552E-01-1.65606E-13 8.98666E-14
 -1       687 2.03040E+01 3.17621E-01 3.19230E-04 7.05144E-01-6.59201E-14 1.03846E-14
 -1       688 2.02437E+01 2.65962E-01 2.69019E-04 5.53982E-01 9.20699E-14 1.81538E-13
 -1       689 2.01925E+01 2.16732E-01 2.18913E-04 4.27806E-01 1.10036E-13 8.94322E-14
 -1       690 2.01494E+01 1.72874E-01 1.73680E-04 3.24738E-01 6.93705E-14-2.15812E-13
 -1       691 2.01138E+01 1.35401E-01 1.35040E-04 2.42111E-01 1.28456E-13-8.64709E-14
 -1       692 2.00850E+01 1.04305E-01 1.03166E-04 1.76992E-01 3.23328E-13 7.13997E-14
 -1       693 2.00622E+01 7.90696E-02 7.75177E-05 1.26496E-01 2.64356E-13-2.82471E-14
 -1       694 2.00444E+01 5.89674E-02 5.72785E-05 8.79606E-02 3.05832E-13 8.17851E-14
 -1       695 2.00309E+01 4.32184E-02 4.15735E-05 5.90312E-02 1.78944E-13 8.79978E-14
 -1       696 2.00208E+01 3.10709E-02 2.95731E-05 3.76880E-02 6.64718E-14 1.76999E-13
 -1       697 2.00135E+01 2.18398E-02 2.05372E-05 2.22430E-02 9.56941E-15-6.10552E-14
 -1       698 2.00082E+01 1.49190E-02 1.38054E-05 1.13182E-02 1.74448E-14-1.56485E-13
 -1       699 2.00047E+01 9.78039E-03 8.82590E-06 3.81553E-03-5.03464E-15-2.16235E-13
 -1       700 2.00023E+01 5.96822E-03 4.91058E-06-1.11268E-03-1.96236E-13-2.43507E-13
 -1       701 2.00008E+01 3.09844E-03 2.65508E-06-4.10568E-03 4.26578E-14-1.12728E-13
 -1       702 2.00000E+01 8.10829E-04 4.59360E-06-5.62089E-03 5.22280E-15 1.25617E-13
 -1       703 2.00001E+01-7.63584E-04 1.51360E-07-5.93001E-03-1.15141E-13 3.26716E-13
 -1       704 2.00034E+01 1.65277E-03 1.73554E-06-5.50169E-04 1.53632E-13-2.72048E-13
 -1       705 2.00003E+01-8.57401E-04-5.82883E-06 5.74641E-03-1.49162E-13-4.24897E-13
 -1       706 2.00031E+01 8.01421E-04 3.76772E-07-3.14020E-03 2.09730E-13-1.10387E-13
 -1       707 2.00034E+01 1.67106E-03 1.91988E-06 7.01412E-04 4.71441E-14-5.44680E-13
 -1       708 2.00033E+01 1.33453E-03 1.08830E-06-1.83147E-03 1.22028E-13-2.34000E-13
 -1       709 2.05479E+01 7.23374E-01 8.81667E-04-8.44121E-01 2.44248E-13-1.29293E-13
 -1       710 2.00033E+01 1.39402E-03 1.13092E-06 1.93456E-03-8.18959E-14 3.45464E-13
 -1       711 2.00030E+01 8.84290E-04 4.40215E-08 3.19934E-03 1.00330E-13 4.00678E-13
 -1       712 2.00024E+01 2.80120E-04-1.64417E-07 4.41025E-03 1.41482E-13 6.24509E-14
 -1       713 1.84781E+01-4.03613E+00 9.01012E-02-5.58679E+00-5.43968E-13-8.25034E-14
 -1       714 2.21101E+01-4.87620E+00 3.44721E-02 4.26577E+00-6.32744E-13-7.47952E-14
 -1       715 2.08026E+01 2.36178E-01-7.00276E-05-1.78538E+00 3.59660E-14-9.54574E-14
 -1       716 2.05167E+01 1.31976E+00-4.41596E-04-1.42488E-01-3.00803E-13-2.27725E-13
 -1       717 1.16414E+01-1.71243E+00 1.15898E-01-4.88747E+00-4.70655E-13-5.24122E-13
 -1       718 1.58719E+01-3.23854E+00 9.27042E-02 5.57182E+00-8.03576E-13 3.76973E-13
 -1       719 2.05739E+01 9.29730E-01 1.49994E-03-3.90176E-01 3.02827E-13-1.56884E-13
 -1       720 2.84020E+01 2.45903E+00-1.34942E-01-2.12182E+00-4.65843E-13 1.78437E-13
 -1       721 2.84119E+01-6.90733E-01-8.18927E-02-2.36571E+00 2.92915E-13-4.61863E-13
 -1       722 1.03684E+01-1.32140E+00 1.54431E-01-4.64668E+00 5.18391E-13 5.75553E-13
 -1       723 2.12295E+01-5.02730E+00 4.82557E-02-5.13483E+00 5.01196E-13-3.77629E-13
 -1       724 1.94880E+01 2.84400E+00-1.34778E-03 2.23540E-01 2.77636E-13-4.47235E-13
 -1       725 2.85894E+01-3.00801E+00-1.57889E-02 6.49909E-01-1.26003E-13 3.62863E-13
 -1       726 1.95733E+01 2.75323E+00-1.38339E-03-1.77574E-01-1.75725E-13-5.08047E-13
 -1       727 2.45124E+01-5.15669E+00 6.64526E-03-3.12826E+00-3.79852E-13 2.22904E-13
 -1       728 2.69411E+01-4.28614E+00-3.73238E-02 6.52116E-01-3.10873E-13-3.44582E-13
 -1       729 2.73503E+01 4.15708E+00-1.52692E-01 1.84238E+00 6.31148E-13 2.91969E-13
 -1       730 1.28400E+01-2.37473E+00 1.27886E-01 5.64976E+00 3.45616E-13-5.92401E-13
 -1       731 2.47525E+01-5.00254E+00 1.74394E-02 3.25742E+00 1.93671E-13-2.87357E-14
 -1       732 8.35416E+00-1.59655E-01 1.47335E-01-1.72426E+00-1.81604E-13-8.49432E-13
 -1       733 2.70081E+01 5.49576E+00-1.26457E-01 1.27094E+00-8.23175E-13-4.04508E-13
 -1       734 2.75896E+01 3.98170E+00-1.45487E-01 2.12894E+00-5.23755E-13-5.93248E-13
 -1       735 9.04774E+00-2.42558E-01 1.47866E-01 2.57825E+00 7.56756E-14-8.48516E-13
 -1       736 6.69771E+00-3.36216E-01 1.75852E-01 8.67150E-02 1.53131E-13 9.48332E-13
 -1       737 2.73990E+01 5.66320E+00-1.50760E-01-1.25157E+00-9.43329E-13 1.06928E-13
 -1       738 2.04534E+01 1.80143E+00 4.29521E-04-5.42394E-01-3.61221E-13-2.85039E-13
 -1       739 1.91594E+01 3.13685E+00-1.18505E-03 2.25294E-02 1.12474E-14-5.26535E-13
 -1       740 2.53739E+01 5.15229E+00-1.18880E-01-3.84974E-02-8.16045E-13-1.13472E-13
 -1       741 2.64334E+01-3.97176E+00-3.17326E-02 1.02782E+00 2.03729E-13 3.15754E-14
 -1       742 1.67997E+01-3.49613E+00 7.21501E-02 5.78134E+00 4.34586E-13-3.82243E-13
 -1       743 1.35822E+01-1.66193E+00 9.81251E-02 4.77453E+00-5.15574E-13 5.31422E-13
 -1       744 2.00025E+01 1.83173E-04-4.27475E-08-4.38888E-03 1.96022E-13-2.07027E-13
 -1       745 1.85928E+01-4.12133E+00 7.37289E-02-5.58633E+00 5.77153E-13-7.74641E-14
 -1       746 2.00015E+01-4.10757E-04-4.78764E-07-5.31565E-03-1.12928E-13 4.72166E-14
 -1       747 2.75738E+01-2.76491E+00-6.42769E-02-8.06539E-02 2.00675E-13-8.68215E-13
 -1       748 2.41405E+01-4.87607E+00-4.27424E-03-3.26031E+00 3.30388E-13-7.07653E-13
 -1       749 1.93119E+01 2.99919E+00-1.29574E-03-6.46671E-02-9.11547E-14-4.96952E-13
 -1       750 1.00973E+01 6.48390E-02 1.16456E-01-2.47919E+00 3.02508E-13 5.73239E-13
 -1       751 1.99214E+01 2.39598E+00-3.82900E-04-3.09225E-01-2.47679E-13-4.27784E-13
 -1       752 2.74375E+01 1.49868E+00-8.79379E-02 2.30280E+00-2.25896E-13-7.15372E-13
 -1       753 2.00019E+01 6.53385E-04-1.22488E-06 5.01781E-03-2.60911E-13-7.22248E-13
 -1       754 1.95543E+01-3.09443E+00 2.39691E-02 4.20354E+00-4.85934E-13 1.89168E-13
 -1       755 2.00711E+01 1.78938E+00-3.45937E-04-7.87346E-02 3.02790E-13-3.01159E-13
 -1       756 2.02322E+01 1.08058E+00 1.96205E-04 5.48939E-01-1.70738E-13-2.65720E-13
 -1       757 2.01870E+01 2.12359E+00 6.65597E-05-4.30463E-01-2.96397E-13-3.46207E-13
 -1       758 1.43795E+01-2.01541E+00 8.09841E-02-5.13274E+00 5.35154E-13 7.02702E-14
 -1       759 2.02301E+01 7.45422E-01 3.70511E-05 9.03879E-01-1.39480E-13-2.37851E-13
 -1       760 2.02643E+01 4.27333E-01 6.94730E-05 1.19673E+00-1.27523E-13-2.13066E-13
 -1       761 2.03812E+01 6.33695E-02 1.11271E-05 1.42722E+00-5.85806E-14-2.06183E-13
 -1       762 2.06375E+01-3.99353E-01-7.93783E-05 1.58248E+00 5.98402E-14-1.71434E-13
 -1       763 2.11032E+01-9.93568E-01-3.13297E-04 1.62398E+00 1.23973E-13-1.45663E-13
 -1       764 2.18510E+01-1.69694E+00 1.43252E-04 1.46979E+00 1.13310E-13-3.93169E-14
 -1       765 2.29070E+01-2.35186E+00 1.66133E-03 9.91084E-01 1.16611E-13 2.48556E-14
 -1       766 2.41677E+01-2.57791E+00-5.47098E-03 4.00474E-02 1.11704E-13 1.40626E-13
 -1       767 2.53113E+01-1.83790E+00-1.98004E-02-1.25207E+00 1.42316E-13 2.72142E-13
 -1       768 2.56205E+01 4.35545E-01-4.82321E-02-2.18499E+00-1.82283E-13 4.20895E-13
 -1       769 2.50550E+01-1.86413E+00-3.07281E-02 1.31272E+00 5.38371E-14-3.62680E-13
 -1       770 2.40857E+01-2.56497E+00-1.66003E-04 6.21079E-02-3.95452E-14-3.59256E-13
 -1       771 2.28124E+01-2.28696E+00-7.88960E-04-8.51811E-01 7.96839E-14-4.15773E-13
 -1       772 2.17456E+01-1.63324E+00-5.99594E-04-1.31119E+00 1.15473E-13-3.70223E-13
 -1       773 2.09834E+01-9.60189E-01-3.02501E-04-1.46024E+00-1.04116E-13-3.19212E-13
 -1       774 2.04940E+01-4.18889E-01-1.01431E-04-1.43397E+00-2.34145E-13-2.54996E-13
 -1       775 2.02059E+01-3.94226E-02 1.75086E-05-1.32006E+00-1.19123E-13-2.95320E-13
 -1       776 2.00513E+01 1.97664E-01 5.51519E-05-1.16805E+00 2.31262E-13-3.94647E-14
 -1       777 1.99784E+01 3.25884E-01 5.69325E-05-1.00472E+00 1.88604E-13 4.83177E-14
 -1       778 1.99520E+01 3.77978E-01 5.11431E-05-8.44698E-01 5.23503E-14 7.22690E-14
 -1       779 1.99499E+01 3.80853E-01 4.23635E-05-6.96011E-01 1.68083E-14 2.27359E-13
 -1       780 1.99586E+01 3.54651E-01 3.44158E-05-5.62830E-01 6.59224E-15 1.64700E-13
 -1       781 1.99707E+01 3.13488E-01 2.75747E-05-4.46937E-01 4.99449E-14 9.46702E-14
 -1       782 1.99825E+01 2.66713E-01 2.17406E-05-3.48542E-01-1.68808E-13-5.84389E-15
 -1       783 1.99923E+01 2.20152E-01 1.68414E-05-2.66817E-01-2.47535E-13 1.06729E-13
 -1       784 1.99996E+01 1.77144E-01 1.28096E-05-2.00296E-01-1.79777E-13 1.04293E-13
 -1       785 2.00045E+01 1.39344E-01 9.55973E-06-1.47167E-01-1.19923E-13 1.53270E-13
 -1       786 2.00075E+01 1.07320E-01 6.99201E-06-1.05505E-01-5.48218E-15 1.62397E-13
 -1       787 2.00089E+01 8.09702E-02 5.00157E-06-7.34180E-02 2.11486E-13 2.34147E-14
 -1       788 2.00093E+01 5.98177E-02 3.48409E-06-4.91554E-02 1.71761E-13 4.01916E-14
 -1       789 2.00088E+01 4.31981E-02 2.34185E-06-3.11609E-02 2.17700E-13 9.90249E-15
 -1       790 2.00079E+01 3.03826E-02 1.49481E-06-1.80981E-02 2.17760E-13 1.51722E-13
 -1       791 2.00067E+01 2.06473E-02 6.78836E-07-8.85567E-03-9.16464E-14-2.13200E-13
 -1       792 2.00054E+01 1.33144E-02 1.74330E-07-2.53462E-03-6.72038E-14-3.74777E-13
 -1       793 2.00041E+01 7.76196E-03 2.10195E-06 1.54397E-03-9.44686E-14-2.42207E-13
 -1       794 2.00029E+01 3.80027E-03-1.93019E-06 3.80687E-03-1.28209E-13-4.64908E-13
 -1       795 2.00043E+01 6.92425E-03 6.89124E-07 9.14537E-04 1.93625E-13-1.84463E-13
 -1       796 2.06513E+01-1.04339E+00-2.01239E-03-2.57364E+00-9.25543E-14-1.10582E-13
 -1       797 2.01387E+01-2.14662E-01-1.19508E-03-2.35309E+00-6.02318E-14-1.41004E-13
 -1       798 2.34670E+01-3.52561E+00 5.40369E-03-2.30897E+00-2.85443E-13 6.64850E-14
 -1       799 2.02214E+01-4.62554E-01 6.53266E-04 2.28203E+00-2.15600E-13 2.58432E-13
 -1       800 1.99313E+01 1.21732E-01 2.23521E-04 2.00482E+00-1.96393E-13 2.74863E-13
 -1       801 1.98433E+01 4.35594E-01 1.03729E-04 1.72200E+00-2.25750E-13 1.11598E-13
 -1       802 1.98487E+01 5.69575E-01 1.32401E-04 1.45609E+00-4.17224E-14 1.66708E-14
 -1       803 1.98878E+01 5.94870E-01 1.36437E-04 1.21354E+00 2.77308E-14 1.13216E-13
 -1       804 1.99320E+01 5.60229E-01 1.20823E-04 9.96686E-01-1.74572E-13 1.91964E-13
 -1       805 1.99692E+01 4.96946E-01 1.02887E-04 8.06422E-01 1.84435E-14 8.40432E-14
 -1       806 1.99961E+01 4.23720E-01 8.39189E-05 6.42586E-01-7.27397E-14-1.09617E-13
 -1       807 2.00133E+01 3.51063E-01 6.67736E-05 5.04131E-01 1.60980E-13-1.77320E-13
 -1       808 2.00229E+01 2.84388E-01 5.22524E-05 3.89233E-01 2.70391E-13 7.38097E-15
 -1       809 2.00269E+01 2.26050E-01 4.03303E-05 2.95530E-01 6.07751E-14-2.16387E-13
 -1       810 2.00273E+01 1.76650E-01 3.07183E-05 2.20377E-01 6.05313E-14-2.79234E-13
 -1       811 2.00256E+01 1.35839E-01 2.30761E-05 1.61070E-01 9.97151E-14-4.95270E-14
 -1       812 2.00227E+01 1.02800E-01 1.70785E-05 1.15012E-01 1.39210E-13 1.08341E-13
 -1       813 2.00194E+01 7.65195E-02 1.24328E-05 7.98156E-02 1.08828E-13 4.01996E-13
 -1       814 2.00160E+01 5.59521E-02 8.87752E-06 5.33665E-02 1.35406E-13 3.25427E-13
 -1       815 2.00129E+01 4.01010E-02 6.18377E-06 3.38447E-02 2.15810E-13 1.43850E-13
 -1       816 2.00101E+01 2.80598E-02 4.17482E-06 1.97235E-02-3.75411E-14 2.45368E-15
 -1       817 2.00077E+01 1.90241E-02 2.77629E-06 9.75137E-03-2.96317E-14 5.15747E-14
 -1       818 2.00057E+01 1.22855E-02 2.17272E-06 2.93082E-03-1.45632E-13 3.49086E-13
 -1       819 2.00040E+01 7.24702E-03 7.35892E-07-1.48178E-03 1.91932E-14 7.45326E-14
 -1       820 2.00026E+01 3.38728E-03 1.31512E-06-4.09045E-03-6.04569E-15-1.55749E-13
 -1       821 2.00020E+01 1.45332E-03-7.06872E-06-4.92823E-03-2.57114E-13 1.11782E-14
 -1       822 2.01237E+01 9.85396E-01 6.01246E-05-1.00454E+00 2.24885E-13-1.71366E-13
 -1       823 2.00043E+01 7.23755E-03 1.14737E-06 8.72275E-05 1.78817E-13-4.21963E-13
 -1       824 2.00038E+01 4.65813E-03 1.35325E-06 2.90854E-03-4.97150E-14 2.09171E-13
 -1       825 2.60215E+01 3.33275E+00-9.83824E-02-2.04851E+00-5.82236E-13 2.76680E-13
 -1       826 1.10387E+01 6.88464E-01 7.62461E-02 1.86742E-01-8.46711E-14-6.73826E-13
 -1       827 2.03429E+01 1.34897E+00 2.34680E-04-2.29140E-01 3.07530E-13-2.17256E-13
 -1       828 2.02269E+01 1.49478E+00-3.24553E-04 1.28665E-01-2.29053E-13-2.86782E-13
 -1       829 2.00042E+01 6.01252E-03-9.47730E-07 1.82898E-03 1.43361E-13 6.49777E-13
 -1       830 2.08938E+01-1.40472E+00 3.40896E-03 2.49127E+00-2.41229E-13 8.39702E-14
 -1       831 2.22112E+01-2.69667E+00 8.00092E-03 2.45774E+00-3.20864E-13-7.32639E-14
 -1       832 2.16534E+01-2.22203E+00 1.93059E-04-2.65675E+00-1.42261E-13 2.19514E-14
 -1       833 2.00310E+01 8.08559E-01 2.58517E-04-1.37968E+00 1.61738E-13-1.45873E-13
 -1       834 2.40538E+01-3.91731E+00 2.08025E-02 2.04421E+00-5.06554E-13-1.81206E-13
 -1       835 2.18400E+01-4.55461E+00 3.66197E-02 4.36372E+00 4.15874E-13-1.70895E-13
 -1       836 2.16799E+01-3.83228E+00 2.10993E-02-3.69962E+00-3.34697E-13 1.11121E-13
 -1       837 1.91784E+01 2.66342E+00-2.69204E-04 3.67237E-02 1.18622E-13-4.48639E-13
 -1       838 1.17718E+01-1.77760E-01 7.61783E-02-3.04790E+00-3.23143E-13-4.83630E-13
 -1       839 2.69907E+01-5.30683E-01-5.45828E-02-1.76019E+00-8.63268E-14 2.36554E-13
 -1       840 9.81898E+00 7.29921E-02 1.12683E-01 2.08437E+00-8.73884E-14 6.96672E-13
 -1       841 1.61325E+01-1.77226E+00 5.17196E-02-4.59069E+00-3.51330E-13-2.17753E-13
 -1       842 1.26648E+01-7.23412E-01 7.11563E-02 3.90063E+00 2.12209E-13-5.25475E-13
 -1       843 1.91427E+01 2.69208E+00-3.13363E-04 8.50893E-02 3.62478E-14-4.45501E-13
 -1       844 1.96751E+01 2.20637E+00-1.36606E-04-5.22886E-02 2.51585E-13-3.46717E-13
 -1       845 1.28891E+01-5.25317E-01 6.54288E-02-3.71095E+00 3.43144E-13 2.75786E-13
 -1       846 1.76043E+01-1.96104E+00 5.27406E-02 4.21712E+00-5.61579E-13 3.06840E-13
 -1       847 2.00040E+01 4.53926E-03-1.87433E-06-2.85135E-03-2.62358E-13 8.92984E-14
 -1       848 2.52310E+01 3.35917E+00-7.82804E-02-1.76958E+00-6.02227E-13 2.98773E-13
 -1       849 1.99652E+01 6.06851E-01 3.01038E-04-1.72196E+00 9.03289E-14-1.42832E-13
 -1       850 1.99740E+01 2.97844E-01 5.68523E-05-2.04542E+00-4.49764E-14-1.68656E-13
 -1       851 2.00043E+01 5.92223E-03-1.38234E-06-1.72277E-03 7.93768E-14-1.00228E-13
 -1       852 2.00044E+01 6.87740E-03 1.02230E-07-7.48777E-04 1.06636E-13-3.01281E-13
 -1       853 2.43855E+01-4.20576E+00 2.28787E-03 2.09652E+00 3.13023E-13 3.44928E-15
 -1       854 1.28886E+01 5.33762E-01 4.04761E-02 1.85666E+00 9.45244E-14-5.14385E-13
 -1       855 2.02477E+01 1.13421E+00 1.78622E-04-6.44271E-01 2.32471E-13-2.01640E-13
 -1       856 2.57850E+01-4.05355E+00-3.07293E-02-1.12065E+00 2.08515E-13-7.36170E-13
 -1       857 2.16845E+01-4.55127E+00 3.23760E-02-4.35798E+00 4.05943E-13-5.62001E-13
 -1       858 1.52970E+01-1.72236E+00 5.65203E-02 4.69072E+00 3.00988E-13-3.53301E-13
 -1       859 1.10729E+01 7.37767E-01 7.08293E-02-4.01547E-01 1.00380E-13 4.94297E-13
 -1       860 1.93618E+01 2.50131E+00-3.06726E-04-1.36455E-02 1.87582E-13-4.10856E-13
 -1       861 2.00035E+01 4.37044E-03 1.51236E-05 3.34851E-03-2.76006E-13-2.84289E-13
 -1       862 1.98141E+01 2.05922E+00-6.35328E-04 8.19306E-02-1.92879E-13-4.13352E-13
 -1       863 1.93409E+01-2.20836E+00 3.45433E-02-3.89046E+00-2.78782E-13-6.15519E-14
 -1       864 1.94890E+01 2.37725E+00-5.25262E-04 1.13587E-01-1.28621E-13-4.47859E-13
 -1       865 1.93308E+01-3.12655E+00 2.91884E-02 4.47695E+00 3.78742E-13-2.58537E-13
 -1       866 1.98731E+01 1.21646E+00 1.97862E-04 7.13931E-01-1.34612E-13-3.13132E-13
 -1       867 1.98203E+01 8.60995E-01 3.22845E-04 1.05400E+00-1.13807E-13-2.80724E-13
 -1       868 1.97939E+01 4.93030E-01 3.63429E-06 1.37595E+00-6.43617E-14-2.24621E-13
 -1       869 1.98540E+01 4.85052E-02 1.09661E-04 1.68830E+00 2.11778E-14-2.04320E-13
 -1       870 2.00846E+01-5.41545E-01 2.53661E-04 1.98459E+00 8.60802E-14-2.00908E-13
 -1       871 2.05949E+01-1.32604E+00-3.48949E-04 2.22624E+00 1.57387E-13-2.78113E-13
 -1       872 2.15517E+01-2.30785E+00 3.90790E-03 2.28597E+00 2.41660E-13-1.98865E-13
 -1       873 2.30503E+01-3.26365E+00-1.12415E-03 1.96637E+00 2.38803E-13-5.96198E-14
 -1       874 2.29206E+01-3.18848E+00 1.33673E-02-1.85254E+00 6.50757E-14-4.24571E-13
 -1       875 2.13859E+01-2.22087E+00 2.91609E-03-2.15255E+00 1.49211E-13-2.47557E-13
 -1       876 2.04108E+01-1.27644E+00 6.33973E-04-2.07851E+00 2.32489E-14-2.50771E-13
 -1       877 1.98684E+01-5.46657E-01 1.08925E-04-1.84951E+00-1.63998E-13-3.11444E-13
 -1       878 1.96071E+01-4.55853E-02 8.31711E-05-1.58476E+00-3.81550E-14-2.34612E-14
 -1       879 1.95153E+01 2.66027E-01 8.36366E-05-1.33199E+00 6.94780E-14 8.85825E-14
 -1       880 1.95179E+01 4.36848E-01 5.64335E-05-1.10569E+00 2.71890E-13-3.71321E-14
 -1       881 1.95680E+01 5.09392E-01 4.02510E-05-9.08175E-01 1.05205E-13-1.19907E-13
 -1       882 1.96375E+01 5.17560E-01 2.41570E-05-7.37993E-01 2.20321E-13-1.00112E-13
 -1       883 1.97100E+01 4.86676E-01 1.46475E-05-5.92730E-01 4.86502E-14 8.90918E-15
 -1       884 1.97771E+01 4.34703E-01 9.19752E-06-4.69977E-01 6.40220E-14 8.63910E-14
 -1       885 1.98349E+01 3.73847E-01 5.87179E-06-3.67461E-01-1.61442E-13-1.63330E-13
 -1       886 1.98822E+01 3.11983E-01 3.72023E-06-2.82974E-01 6.29410E-14-9.52114E-14
 -1       887 1.99195E+01 2.53845E-01 2.29187E-06-2.14331E-01-2.31750E-13 1.48809E-13
 -1       888 1.99478E+01 2.01966E-01 1.34335E-06-1.59382E-01-1.21157E-14 2.15331E-13
 -1       889 1.99686E+01 1.57399E-01 7.23323E-07-1.16064E-01-2.80049E-14 3.55809E-13
 -1       890 1.99833E+01 1.20248E-01 3.30719E-07-8.24474E-02 7.87770E-15 3.11141E-13
 -1       891 1.99933E+01 9.00486E-02 9.28738E-08-5.67809E-02 2.07401E-13 1.40989E-13
 -1       892 1.99996E+01 6.60324E-02-5.55964E-08-3.75201E-02 2.01162E-13 5.49542E-14
 -1       893 2.00033E+01 4.73012E-02-9.72167E-08-2.33378E-02 9.57190E-14-9.29272E-14
 -1       894 2.00051E+01 3.29363E-02-3.06534E-07-1.31181E-02 5.11903E-14-3.85355E-13
 -1       895 2.00057E+01 2.20403E-02 6.75063E-09-5.96129E-03-6.04512E-14-2.72260E-13
 -1       896 2.00053E+01 1.37568E-02-1.42456E-05-1.11434E-03 2.24835E-14 3.79988E-15
 -1       897 1.87442E+01-1.97364E-01 5.73564E-03-2.77046E+00-1.16669E-13-9.16124E-14
 -1       898 1.89861E+01 7.64758E-01-5.88489E-05 1.48719E+00-1.25547E-13-2.46420E-14
 -1       899 1.86356E+01-5.19621E-01 1.95226E-03 2.79847E+00-2.24175E-13 1.78887E-13
 -1       900 1.86072E+01 2.06345E-01 6.05348E-04 2.24267E+00-2.15586E-13 1.10353E-13
 -1       901 1.92045E+01 8.03233E-01 1.88533E-05 1.22410E+00-8.99881E-14 1.14992E-13
 -1       902 1.93974E+01 7.65467E-01 1.75120E-05 1.00533E+00-9.19606E-14 4.44730E-14
 -1       903 1.95564E+01 6.88831E-01 1.71415E-05 8.19730E-01-4.00336E-15-4.63398E-14
 -1       904 1.96819E+01 5.96216E-01 1.24296E-05 6.61133E-01 6.91569E-14 7.60800E-14
 -1       905 1.97778E+01 5.01370E-01 8.22219E-06 5.26269E-01 8.40106E-14-5.79712E-14
 -1       906 1.98494E+01 4.12038E-01 5.34643E-06 4.12844E-01 1.74472E-13-1.07117E-13
 -1       907 1.99015E+01 3.32103E-01 3.53159E-06 3.18794E-01 2.07394E-13 8.01101E-14
 -1       908 1.99386E+01 2.63063E-01 2.38849E-06 2.42018E-01 4.81859E-14-1.31302E-14
 -1       909 1.99644E+01 2.05009E-01 1.64890E-06 1.80344E-01-1.69191E-14-2.22021E-15
 -1       910 1.99819E+01 1.57245E-01 1.15510E-06 1.31602E-01-4.81972E-14 4.63946E-14
 -1       911 1.99933E+01 1.18679E-01 8.18538E-07 9.37066E-02-1.85569E-13 3.14485E-13
 -1       912 2.00003E+01 8.80682E-02 5.87809E-07 6.47326E-02 1.67906E-13 8.68594E-14
 -1       913 2.00044E+01 6.41558E-02 4.07597E-07 4.29631E-02 1.12621E-13 3.29056E-13
 -1       914 2.00063E+01 4.57557E-02 2.47925E-07 2.69139E-02 2.04607E-13 5.55735E-13
 -1       915 2.00069E+01 3.17948E-02-1.18167E-07 1.53352E-02-1.05441E-13 5.32204E-13
 -1       916 2.00066E+01 2.12993E-02-5.20431E-07 7.19391E-03-1.89402E-13 6.26389E-13
 -1       917 2.00057E+01 1.33953E-02-1.45624E-05 1.64929E-03 1.06146E-13 3.01444E-13
 -1       918 2.00045E+01 7.56999E-03 8.76093E-06-1.87677E-03 1.10121E-13 2.05634E-14
 -1       919 2.00047E+01 1.36692E-02-1.15597E-06 1.19346E-04 1.20710E-13-2.28697E-13
 -1       920 2.00032E+01 2.86393E-03 2.45276E-06-3.92613E-03-3.03243E-13 1.46879E-13
 -1       921 1.83368E+01-2.76898E+00 4.16939E-02-4.56480E+00 4.96839E-13-2.66141E-14
 -1       922 1.87663E+01 5.95248E-01-7.30233E-05 1.81592E+00-1.38966E-13 1.04173E-13
 -1       923 1.88257E+01-1.54712E+00 1.76278E-02 3.45962E+00-3.91702E-13 4.72886E-13
 -1       924 1.95625E+01 1.21577E+00-1.65279E-04-1.06225E+00 1.63644E-13-2.15687E-13
 -1       925 2.75548E+01-6.88870E-01-5.01895E-02 1.74998E+00-2.78204E-14-7.92227E-13
 -1       926 1.92535E+01 2.59220E+00-5.57646E-04 1.14308E-01-4.30183E-14-4.44052E-13
 -1       927 1.98633E+01 1.59983E+00 9.91147E-05 4.00420E-01-1.44497E-13-3.57522E-13
 -1       928 1.32980E+01-8.53620E-02 4.79965E-02 3.06535E+00-3.06685E-13 4.29129E-13
 -1       929 1.33078E+01 7.20335E-01 3.55291E-02-1.58523E+00-1.19729E-13-4.51266E-13
 -1       930 1.56663E+01-3.06185E-01 2.30120E-02-3.30952E+00-1.83433E-13-3.15991E-13
 -1       931 1.98078E+01 1.66533E+00-1.41619E-04-4.27127E-01 2.27861E-13-2.98995E-13
 -1       932 2.00048E+01 1.26183E-02-2.53160E-06 3.25306E-04 3.35502E-13 1.75029E-13
 -1       933 1.62400E+01-1.45158E+00 3.80060E-02-4.16558E+00 4.02410E-13-6.34015E-14
 -1       934 1.93202E+01 1.02074E+00-4.59074E-06-1.42336E+00 1.11785E-13-1.64142E-13
 -1       935 1.88118E+01 4.10982E-01-4.30267E-04-2.23464E+00-6.89427E-14-1.23953E-13
 -1       936 2.00045E+01 8.50584E-03 1.23382E-06 1.48714E-03-7.90283E-14-1.79248E-13
 -1       937 1.97548E+01 1.43953E+00-7.53650E-04-6.88889E-01 1.93593E-13-2.81248E-13
 -1       938 2.00047E+01 1.36326E-02-2.16844E-06 4.51584E-05-4.25855E-14-3.24544E-13
 -1       939 1.30299E+01 8.41323E-01 3.33516E-02 1.17055E+00-1.37428E-13 3.62153E-13
 -1       940 1.53263E+01-3.99753E-01 3.06155E-02 3.33555E+00 1.77185E-13-3.35213E-13
 -1       941 1.36773E+01 1.03127E+00 1.90927E-02 1.82517E-02-6.89309E-15-4.64070E-13
 -1       942 2.00265E+01 1.40290E+00 6.82328E-04-5.36424E-01 2.22975E-13-2.77895E-13
 -1       943 2.05984E+01-3.40006E+00 1.74663E-02-3.84984E+00 4.00917E-13-3.04190E-13
 -1       944 2.17195E+01-3.38697E+00 1.19259E-02 3.18498E+00 3.20028E-13-1.84842E-13
 -1       945 2.00051E+01 1.04530E-02-4.99065E-06-7.10563E-04 1.19955E-13 2.58833E-13
 -1       946 1.95053E+01 1.92591E+00 1.88808E-04 3.64118E-01-9.89915E-14-4.03023E-13
 -1       947 1.25175E+01 5.14323E-01 4.22317E-02-1.97184E+00 8.87719E-14 4.92722E-13
 -1       948 1.90460E+01 2.31379E+00-9.40288E-05 4.28163E-02 6.40890E-14-3.68601E-13
 -1       949 2.31819E+01-4.30321E+00 1.47555E-02-2.95870E+00 2.94471E-13-5.35324E-13
 -1       950 2.00048E+01 1.00926E-02 9.36681E-06 9.90580E-04 1.19457E-13 4.60676E-14
 -1       951 1.91542E+01 2.22908E+00-2.47980E-04-1.29287E-01 1.30636E-13-3.98121E-13
 -1       952 1.91085E+01 2.25901E+00-2.23896E-04 1.99661E-01-1.92177E-15-3.98130E-13
 -1       953 2.00050E+01 1.24714E-02 1.24759E-06-1.28729E-04-4.65031E-14-6.69370E-14
 -1       954 1.92897E+01 9.75647E-01-4.63310E-04 1.13863E+00-2.37205E-14-1.92543E-13
 -1       955 1.91432E+01 5.94239E-01 9.48020E-05 1.50656E+00-4.29934E-14-1.84427E-13
 -1       956 1.90535E+01 1.13082E-01 2.21790E-04 1.93516E+00 6.80147E-14-1.87181E-13
 -1       957 1.91277E+01-5.67276E-01-2.19887E-03 2.45264E+00 7.56878E-14-1.46851E-13
 -1       958 1.95242E+01-1.50630E+00 8.43591E-03 3.03249E+00 2.03660E-13-2.38018E-13
 -1       959 1.93009E+01-1.44330E+00 6.48885E-03-2.88711E+00 1.37592E-13-1.46585E-13
 -1       960 1.88756E+01-5.48381E-01 1.56829E-04-2.32709E+00-9.69103E-15 4.80540E-15
 -1       961 1.87693E+01 3.83034E-02 4.01019E-05-1.84134E+00 8.03354E-14 2.20838E-13
 -1       962 1.88255E+01 3.91553E-01-1.12484E-05-1.45390E+00 3.65324E-14 1.59934E-13
 -1       963 1.89563E+01 5.82816E-01-2.95926E-05-1.15038E+00 5.76946E-14 1.16375E-13
 -1       964 1.91151E+01 6.62089E-01-1.39934E-05-9.11543E-01 1.45905E-13-2.69994E-14
 -1       965 1.92754E+01 6.67904E-01-1.44218E-05-7.22102E-01 1.97213E-13 4.45646E-14
 -1       966 1.94235E+01 6.28548E-01-1.39904E-05-5.70186E-01 2.73631E-13 4.80299E-14
 -1       967 1.95532E+01 5.64067E-01-1.20975E-05-4.47438E-01-1.05584E-14 1.92443E-13
 -1       968 1.96623E+01 4.88392E-01-9.96174E-06-3.48056E-01-1.48994E-13 2.08236E-14
 -1       969 1.97514E+01 4.10821E-01-8.09032E-06-2.67806E-01 1.95249E-14 2.32754E-14
 -1       970 1.98220E+01 3.37182E-01-6.53325E-06-2.03409E-01 9.28048E-14 3.38239E-14
 -1       971 1.98767E+01 2.70768E-01-5.23664E-06-1.52190E-01 5.54089E-15 2.06451E-13
 -1       972 1.99179E+01 2.13100E-01-4.15087E-06-1.11889E-01 1.86906E-15 4.50140E-13
 -1       973 1.99482E+01 1.64515E-01-3.24037E-06-8.05662E-02-1.14571E-13 1.16728E-13
 -1       974 1.99698E+01 1.24603E-01-2.47471E-06-5.65466E-02 5.24094E-14-3.84776E-14
 -1       975 1.99847E+01 9.25326E-02-1.83672E-06-3.83972E-02 1.70709E-13-1.83611E-13
 -1       976 1.99944E+01 6.72649E-02-1.34577E-06-2.49067E-02-1.21650E-15-1.89971E-13
 -1       977 2.00004E+01 4.77022E-02-1.52948E-06-1.50673E-02-9.76071E-14-2.22290E-13
 -1       978 2.00036E+01 3.27992E-02-3.69575E-06-8.05211E-03 8.77930E-14-1.84348E-13
 -1       979 2.00050E+01 2.14645E-02 3.36584E-06-3.13762E-03 1.21828E-13-8.05581E-14
 -1       980 1.64670E+01-4.30911E-01 1.42116E-02 3.19973E+00-2.39036E-13 1.49677E-13
 -1       981 1.88113E+01 9.62738E-01-7.39789E-05 8.84016E-01-5.53864E-14-8.28583E-14
 -1       982 1.90534E+01 7.83942E-01 6.05882E-04-1.79932E+00 1.98186E-14-1.45475E-13
 -1       983 1.68706E+01 4.50744E-01 5.23503E-03 2.23873E+00-2.18701E-13 3.38482E-13
 -1       984 1.91010E+01 8.74411E-01-7.76471E-05 7.26755E-01-2.16726E-13-5.58985E-14
 -1       985 1.93301E+01 7.66276E-01-5.82962E-05 5.94046E-01-5.92397E-14-4.86165E-14
 -1       986 1.95086E+01 6.53121E-01-4.49391E-05 4.80568E-01 8.79622E-14 1.99669E-13
 -1       987 1.96457E+01 5.44130E-01-3.47673E-05 3.83594E-01 1.58184E-13 4.47455E-13
 -1       988 1.97496E+01 4.44496E-01-2.66819E-05 3.01531E-01 3.57711E-14 3.60471E-13
 -1       989 1.98272E+01 3.56726E-01-2.02402E-05 2.33089E-01 2.76041E-13 3.55087E-13
 -1       990 1.98843E+01 2.81580E-01-1.51354E-05 1.76948E-01 1.04388E-13 2.21212E-13
 -1       991 1.99256E+01 2.18726E-01-1.11261E-05 1.31689E-01-6.04695E-14 1.05046E-13
 -1       992 1.99548E+01 1.67204E-01-8.01420E-06 9.58348E-02-1.61955E-13-3.03531E-14
 -1       993 1.99750E+01 1.25730E-01-5.62844E-06 6.79261E-02 1.98557E-13 1.00248E-14
 -1       994 1.99885E+01 9.29004E-02-3.82337E-06 4.65857E-02-7.10999E-14 1.04964E-13
 -1       995 1.99971E+01 6.73207E-02-2.53297E-06 3.05681E-02-7.80001E-14 8.90213E-14
 -1       996 2.00021E+01 4.76791E-02-2.51098E-06 1.87903E-02-2.71836E-14 5.53832E-13
 -1       997 2.00047E+01 3.28115E-02 1.52329E-06 1.03564E-02-1.72399E-13 5.05116E-13
 -1       998 2.00056E+01 2.16058E-02 1.41855E-05 4.42513E-03 7.99529E-14 2.64015E-13
 -1       999 1.55014E+01 6.27154E-01 3.10924E-03-2.06205E+00-5.76964E-14-3.25775E-13
 -1      1000 1.92694E+01 2.12599E+00 3.28715E-05 2.98531E-01-4.48480E-14-3.86566E-13
 -1      1001 1.92586E+01 1.60875E+00 5.06604E-04-6.78524E-01 1.37699E-13-2.56892E-13
 -1      1002 1.50530E+01 6.50688E-01 1.52558E-02 1.87602E+00 1.05745E-13-3.47624E-13
 -1      1003 1.94227E+01 2.00774E+00 5.43307E-05-2.94641E-01 1.64651E-13-3.40172E-13
 -1      1004 1.94627E+01 1.54334E+00-2.10295E-04 6.34121E-01-7.60037E-14-3.50443E-13
 -1      1005 1.84477E+01 1.01020E+00-1.15843E-04 1.07890E+00-6.24749E-14-2.01190E-14
 -1      1006 1.93842E+01 1.25412E+00 2.14610E-04 8.77625E-01-4.53343E-14-2.78098E-13
 -1      1007 1.48161E+01-2.11720E-01 3.11023E-02-3.13216E+00 3.56614E-13-1.73316E-14
 -1      1008 2.00044E+01 2.11689E-02-7.38898E-06-1.01817E-03 2.75599E-13 1.08093E-13
 -1      1009 1.66121E+01 1.04295E+00 7.01708E-04-1.52803E+00-5.33010E-14-2.95691E-13
 -1      1010 2.03327E+01-2.71077E+00 8.02627E-03-3.36881E+00 3.08051E-13-1.70419E-13
 -1      1011 1.80046E+01 9.77767E-01-3.99416E-04 1.33196E+00 3.23377E-14 9.44349E-14
 -1      1012 1.74762E+01 8.19340E-01 2.19976E-04 1.69290E+00-8.29616E-14 2.40014E-13
 -1      1013 2.00042E+01 2.19855E-02 6.68522E-06 1.62371E-04 1.09127E-13-1.87035E-13
 -1      1014 1.52761E+01 1.10770E+00 6.21782E-03-9.08939E-01-2.26201E-14-3.94745E-13
 -1      1015 1.32828E+01 1.02399E+00 2.14031E-02-2.52825E-01-1.47944E-13 3.59311E-13
 -1      1016 1.75912E+01-1.51334E+00 2.12324E-02 3.84678E+00 2.51184E-13-2.38707E-13
 -1      1017 1.89273E+01 1.40205E+00 4.41946E-04-9.62144E-01 9.65750E-14-2.18521E-13
 -1      1018 2.00045E+01 2.55519E-02-7.23806E-06 3.53296E-03 2.23155E-13-2.75509E-13
 -1      1019 1.88657E+01 1.99502E+00 1.88589E-04 1.80694E-01 3.51182E-14-3.53074E-13
 -1      1020 1.69003E+01-1.23975E-01 7.59822E-03 2.73562E+00 1.07506E-13-2.50561E-13
 -1      1021 1.80955E+01-1.52362E+00 1.41806E-02-3.53623E+00 2.63478E-13-5.17164E-15
 -1      1022 1.88728E+01 1.99869E+00-2.05509E-04-1.10962E-01 5.94111E-14-3.15518E-13
 -1      1023 2.00041E+01 2.44603E-02 4.18975E-07 1.63135E-03 1.74452E-14-1.96481E-13
 -1      1024 1.82824E+01 7.58592E-01-1.08330E-03 1.50878E+00 8.51966E-15-2.44466E-13
 -1      1025 1.79129E+01 3.07912E-01 1.74739E-03 2.05179E+00 8.93732E-14-2.30419E-13
 -1      1026 1.72987E+01-3.19098E-01 5.98976E-03-2.70064E+00 8.95267E-14 6.03384E-14
 -1      1027 1.46599E+01 6.87860E-01 1.47824E-02 1.88813E+00-3.07368E-13 2.99149E-13
 -1      1028 1.76000E+01 2.65667E-01 1.13373E-04-1.98152E+00 1.17349E-13-8.61176E-14
 -1      1029 1.79476E+01 6.02645E-01-9.22744E-05-1.46115E+00 2.16141E-14-1.77620E-14
 -1      1030 1.82893E+01 7.74866E-01-3.39188E-04-1.09463E+00-3.55616E-14 4.13009E-14
 -1      1031 1.86017E+01 8.39294E-01-2.50119E-04-8.26389E-01 9.89314E-14 1.29625E-13
 -1      1032 1.88786E+01 8.29567E-01-1.19465E-04-6.30172E-01 2.35979E-13 2.47721E-13
 -1      1033 1.91154E+01 7.75222E-01-9.17294E-05-4.82924E-01 2.91556E-13 1.13474E-13
 -1      1034 1.93145E+01 6.95359E-01-7.48601E-05-3.70323E-01 1.07756E-13-2.04662E-14
 -1      1035 1.94786E+01 6.03897E-01-6.27629E-05-2.83228E-01 1.77769E-14 1.42330E-13
 -1      1036 1.96114E+01 5.10562E-01-5.29662E-05-2.15416E-01-3.21870E-14 1.93752E-13
 -1      1037 1.97167E+01 4.21707E-01-4.45010E-05-1.62497E-01-8.80996E-14 1.54331E-13
 -1      1038 1.97987E+01 3.41097E-01-3.69884E-05-1.21262E-01 1.29339E-13-1.43682E-14
 -1      1039 1.98612E+01 2.70586E-01-3.03094E-05-8.92757E-02 6.64952E-14-1.19920E-13
 -1      1040 1.99079E+01 2.10698E-01-2.44409E-05-6.46384E-02-2.28123E-13-2.88386E-13
 -1      1041 1.99419E+01 1.61087E-01-1.93679E-05-4.58340E-02-1.61441E-13-2.05810E-13
 -1      1042 1.99660E+01 1.20879E-01-1.50563E-05-3.16392E-02 1.65150E-13-1.43617E-13
 -1      1043 1.99824E+01 8.89265E-02-1.15146E-05-2.10612E-02 1.30260E-13-1.61288E-13
 -1      1044 1.99932E+01 6.39809E-02-9.22256E-06-1.32961E-02-6.49441E-14 2.49991E-14
 -1      1045 1.99997E+01 4.48826E-02-7.80852E-06-7.73531E-03 4.53246E-14 1.73001E-13
 -1      1046 2.00029E+01 3.16871E-02 4.54445E-06-3.48240E-03 2.64477E-13 1.49961E-13
 -1      1047 1.92358E+01 7.89331E-01-1.54420E-04 3.58663E-01-1.10478E-13-1.59932E-13
 -1      1048 1.74976E+01 1.26564E+00-8.62407E-04-1.15382E+00-4.48400E-15-2.25036E-13
 -1      1049 1.86508E+01 1.03069E+00-2.55529E-04 5.13538E-01-1.72560E-13 7.33529E-14
 -1      1050 1.94351E+01 6.66717E-01-1.22023E-04 2.93999E-01-1.22395E-13-2.56473E-14
 -1      1051 1.95889E+01 5.52046E-01-9.66938E-05 2.36897E-01 1.07231E-13 8.43754E-14
 -1      1052 1.97062E+01 4.48855E-01-7.66153E-05 1.87395E-01 2.79760E-13 6.55306E-14
 -1      1053 1.97947E+01 3.58780E-01-6.04048E-05 1.45390E-01 1.77344E-13-3.22194E-14
 -1      1054 1.98605E+01 2.82115E-01-4.71935E-05 1.10517E-01 1.14491E-13 1.19255E-13
 -1      1055 1.99086E+01 2.18274E-01-3.64345E-05 8.21752E-02-6.15391E-14 1.94147E-13
 -1      1056 1.99431E+01 1.66139E-01-2.77381E-05 5.96099E-02-6.90713E-14 2.81736E-13
 -1      1057 1.99672E+01 1.24322E-01-2.07771E-05 4.19992E-02-1.34952E-13 4.26828E-13
 -1      1058 1.99834E+01 9.13389E-02-1.54080E-05 2.85238E-02-1.61097E-14 4.48588E-13
 -1      1059 1.99940E+01 6.57214E-02-1.12943E-05 1.84138E-02-2.18300E-13 3.41010E-13
 -1      1060 2.00003E+01 4.61806E-02-2.60504E-06 1.10767E-02 5.14871E-14 1.61647E-13
 -1      1061 2.00029E+01 3.49277E-02-6.76807E-06 6.81252E-03 2.04701E-13-1.29294E-13
 -1      1062 1.89794E+01 9.13803E-01-1.95913E-04 4.31205E-01-1.09005E-13-3.51799E-14
 -1      1063 1.55393E+01 1.15052E+00 2.84028E-03 6.76461E-01 5.80127E-14-3.64017E-13
 -1      1064 1.86343E+01 1.11785E+00-3.13169E-04 1.10369E+00-6.72398E-15-2.96330E-13
 -1      1065 1.91738E+01 1.76182E+00-4.40213E-04 5.15704E-01-2.38176E-14-3.17948E-13
 -1      1066 1.43326E+01 1.06776E+00 9.64488E-03 7.36217E-01-1.90637E-13 3.00971E-13
 -1      1067 1.65332E+01 7.04482E-01 3.67978E-03 1.71680E+00 7.63060E-14-2.79057E-13
 -1      1068 1.60586E+01 9.56484E-01 3.58711E-03 1.44609E+00-1.92384E-13 1.91727E-13
 -1      1069 1.89970E+01 1.85047E+00 7.63805E-04-3.95307E-01 8.13071E-14-3.21550E-13
 -1      1070 1.82322E+01 1.12496E+00-2.75604E-04 6.10915E-01 6.10239E-14 2.08469E-13
 -1      1071 1.83237E+01 1.33631E+00 2.49543E-03-1.08409E+00 5.71513E-14-1.78327E-13
 -1      1072 1.90295E+01 1.49284E+00 5.96893E-05 7.20074E-01 5.98700E-15-3.01999E-13
 -1      1073 1.42905E+01 7.06015E-01 6.89214E-03-1.72056E+00 1.23734E-13 1.16850E-13
 -1      1074 1.62096E+01-2.73465E-01 1.51146E-02-2.98063E+00 1.94532E-13-5.55051E-14
 -1      1075 2.00021E+01 3.33623E-02-1.79830E-05-6.63614E-04 9.68107E-15-3.30920E-14
 -1      1076 1.76806E+01 1.19062E+00 1.10087E-03 7.43413E-01 8.46317E-14 4.35346E-13
 -1      1077 1.86163E+01 1.63302E+00-5.21396E-04-5.80477E-01 6.53719E-14-2.46291E-13
 -1      1078 1.85259E+01 1.78967E+00-4.39148E-06 5.17252E-02 1.38235E-14-3.03423E-13
 -1      1079 1.86694E+01 1.67918E+00-1.71408E-04 4.62610E-01-6.08167E-15-3.14018E-13
 -1      1080 1.89862E+01 1.90898E+00 1.86802E-03 3.65038E-01 1.10690E-14-3.47237E-13
 -1      1081 1.60731E+01 6.51414E-01 3.98718E-03-1.79089E+00 1.40405E-14 1.89448E-15
 -1      1082 1.82561E+01 1.13192E+00-5.50817E-06 1.75125E-01 1.48655E-13-1.07133E-13
 -1      1083 1.69084E+01 8.83573E-01 1.99977E-04-1.23200E+00 1.41775E-14-7.66105E-14
 -1      1084 1.75357E+01 1.00895E+00-9.13556E-04-8.58305E-01 5.42653E-14-2.23610E-13
 -1      1085 1.80486E+01 1.03491E+00 5.72633E-04-6.07410E-01 7.74768E-14-9.04888E-14
 -1      1086 1.84645E+01 9.94701E-01-2.06983E-04-4.39159E-01 9.89493E-14-1.10971E-13
 -1      1087 1.88022E+01 9.19672E-01-1.35931E-04-3.17107E-01 1.18906E-13-7.41159E-14
 -1      1088 1.90761E+01 8.21959E-01-1.03595E-04-2.29658E-01 1.29807E-13-1.78444E-13
 -1      1089 1.92970E+01 7.14190E-01-7.94095E-05-1.66651E-01 1.22042E-13-2.61136E-13
 -1      1090 1.94735E+01 6.05587E-01-5.86561E-05-1.20966E-01-2.26527E-14-1.14704E-13
 -1      1091 1.96128E+01 5.02454E-01-4.11805E-05-8.76589E-02-1.70771E-13-8.16081E-14
 -1      1092 1.97212E+01 4.08682E-01-2.70924E-05-6.32714E-02-5.46610E-14-2.71908E-13
 -1      1093 1.98042E+01 3.26280E-01-1.62287E-05-4.53660E-02 1.55061E-13-1.91246E-13
 -1      1094 1.98667E+01 2.55882E-01-8.21806E-06-3.22067E-02-1.45235E-13-9.61694E-14
 -1      1095 1.99127E+01 1.97176E-01-2.59605E-06-2.25450E-02-1.35545E-13-1.79105E-13
 -1      1096 1.99459E+01 1.49258E-01 1.10161E-06-1.54743E-02-5.21014E-14-1.12208E-13
 -1      1097 1.99691E+01 1.10901E-01 3.24488E-06-1.03308E-02 3.26837E-14-3.82846E-13
 -1      1098 1.99847E+01 8.07318E-02 2.25307E-06-6.62245E-03 1.70323E-13-4.11105E-13
 -1      1099 1.99947E+01 5.74497E-02-9.53443E-06-4.03776E-03 2.37769E-13-3.36133E-14
 -1      1100 1.99993E+01 4.43310E-02 4.99198E-05-1.90817E-03 3.80686E-14 9.23011E-14
 -1      1101 1.65832E+01 1.35735E+00 2.72075E-03-4.28019E-01 2.27262E-14-3.22619E-13
 -1      1102 1.95886E+01 5.31478E-01 6.59561E-05 1.04045E-01 7.90233E-14-6.18792E-13
 -1      1103 1.92403E+01 7.67201E-01 9.18923E-05 1.44715E-01-7.12343E-14-3.47496E-13
 -1      1104 1.78881E+01 1.27478E+00-1.81333E-03 8.86529E-01 5.63507E-14-2.96862E-13
 -1      1105 1.97054E+01 4.30363E-01 5.41544E-05 8.43280E-02 1.84204E-13-2.05571E-13
 -1      1106 1.97939E+01 3.42580E-01 4.34315E-05 6.65203E-02 8.88002E-14-2.57351E-13
 -1      1107 1.98599E+01 2.68204E-01 3.40149E-05 5.11105E-02-4.00755E-14-1.56220E-13
 -1      1108 1.99083E+01 2.06526E-01 2.59913E-05 3.82325E-02-8.27634E-14-8.20801E-14
 -1      1109 1.99430E+01 1.56366E-01 1.93284E-05 2.77857E-02-1.75522E-13 4.81726E-14
 -1      1110 1.99672E+01 1.16302E-01 1.39995E-05 1.95343E-02-2.75671E-14 4.18102E-14
 -1      1111 1.99836E+01 8.48463E-02 1.15334E-05 1.31829E-02 1.57483E-14 9.31036E-14
 -1      1112 1.99940E+01 6.05780E-02 1.19667E-05 8.41525E-03 1.52121E-13-4.42268E-13
 -1      1113 1.81256E+01 1.56023E+00-3.79485E-03 4.00562E-01 4.39324E-14-2.96706E-13
 -1      1114 1.68065E+01 1.21418E+00-7.74965E-04 7.87865E-01 5.21660E-14-3.17127E-13
 -1      1115 1.94365E+01 6.44694E-01 7.85327E-05 1.24699E-01 6.40948E-14-5.17703E-13
 -1      1116 1.75340E+01 9.93013E-01-1.37213E-03 1.26841E+00 6.14514E-14-2.44723E-13
 -1      1117 1.69895E+01 1.18664E+00 2.22914E-03 9.14649E-01 1.40610E-14 2.70837E-13
 -1      1118 1.85310E+01 1.73691E+00 6.98135E-04-2.56443E-01 1.81075E-14-2.95672E-13
 -1      1119 1.45516E+01 1.08194E+00 6.30724E-03-6.37399E-01 5.04929E-14 8.83638E-14
 -1      1120 1.55979E+01 1.22587E+00-1.27455E-03 4.44666E-01-1.26253E-13-2.86829E-14
 -1      1121 1.77224E+01 1.22052E+00-1.33220E-03 1.67790E-01 1.91213E-13-2.10465E-14
 -1      1122 1.75076E+01 1.50467E+00 2.59475E-03-3.54013E-01 4.09514E-14-2.96567E-13
 -1      1123 1.89890E+01 8.94216E-01 1.07758E-04 1.61853E-01-6.38602E-14-3.41486E-13
 -1      1124 1.80104E+01 1.58286E+00-6.08790E-04-3.31306E-03 4.08157E-14-2.97101E-13
 -1      1125 1.99989E+01 4.63220E-02-8.51969E-06 5.22054E-03 3.42351E-13-5.88147E-13
 -1      1126 2.00025E+01 3.38948E-02 3.39327E-05 3.16880E-03 1.46729E-13-4.93334E-13
 -1      1127 1.86682E+01 1.01877E+00 1.30384E-04 1.73173E-01-5.75039E-14-2.80649E-13
 -1      1128 1.68078E+01 1.22034E+00-3.83561E-03-3.79818E-01-9.08243E-14-8.80887E-14
 -1      1129 1.59216E+01 1.17517E+00 8.14510E-03-5.08337E-01-6.15080E-14 9.72527E-14
 -1      1130 2.79016E+01 9.05475E+00 2.28069E+00-6.52294E+00-5.45675E-14 2.19588E-12
 -1      1131 2.07943E+01 6.30837E+00 2.33549E-01-3.64666E+00-3.38618E-14 4.41605E-13
 -1      1132 1.96858E+01 5.93337E+00 9.20825E-02-2.56038E+00-2.41612E-14-3.32682E-13
 -1      1133 1.91957E+01 5.77882E+00 6.70451E-02-1.87384E+00-1.76456E-14-7.15622E-13
 -1      1134 1.88905E+01 5.68383E+00 5.56105E-02-1.34633E+00-1.23686E-14-9.10097E-13
 -1      1135 1.86715E+01 5.61523E+00 4.59394E-02-9.22866E-01-7.28584E-15-1.00820E-12
 -1      1136 1.85144E+01 5.56585E+00 3.84048E-02-5.69776E-01-3.99160E-15-1.04044E-12
 -1      1137 1.84152E+01 5.53450E+00 3.31632E-02-2.61099E-01-1.55778E-15-1.04903E-12
 -1      1138 1.83791E+01 5.52303E+00 3.09986E-02 2.19750E-02 1.81018E-15-1.04420E-12
 -1      1139 1.84091E+01 5.53242E+00 3.22357E-02 3.02268E-01 3.78864E-15-1.03388E-12
 -1      1140 1.85057E+01 5.56280E+00 3.69152E-02 6.03674E-01 5.90673E-15-9.92712E-13
 -1      1141 1.86664E+01 5.61338E+00 4.48738E-02 9.47994E-01 1.11161E-14-9.14519E-13
 -1      1142 1.88928E+01 5.68432E+00 5.49350E-02 1.36490E+00 1.52170E-14-7.79483E-13
 -1      1143 1.92077E+01 5.78237E+00 6.68778E-02 1.89197E+00 1.92485E-14-5.47014E-13
 -1      1144 1.96965E+01 5.93520E+00 8.75140E-02 2.58378E+00 2.69090E-14-1.02664E-13
 -1      1145 2.07124E+01 6.26790E+00 1.80500E-01 3.61050E+00 2.96985E-14 7.35856E-13
 -1      1146 2.52178E+01 7.98743E+00 1.40685E+00 5.66480E+00 5.93414E-14 2.45967E-12
 -1      1147 2.86414E+01 3.52046E+00 1.18342E+00-4.10175E+00-2.40419E-13 3.31751E-12
 -1      1148 2.05143E+01-1.81958E-01-6.19600E-01-8.49963E-02-8.02275E-14 2.75854E-12
 -1      1149 1.94383E+01-9.82978E-02-2.33575E-01 6.82592E-02-3.18929E-14 1.94895E-12
 -1      1150 1.93864E+01-5.19467E-02-6.27994E-02 4.49100E-02-1.59282E-14 1.39645E-12
 -1      1151 1.96421E+01-2.99707E-02-2.21165E-02 3.25182E-02-1.49516E-14 1.05067E-12
 -1      1152 2.00846E+01-1.86072E-02-1.29819E-02 2.70221E-02-1.32021E-14 8.34877E-13
 -1      1153 2.06473E+01-1.06470E-02-7.85242E-03 2.46776E-02-1.24805E-14 6.50494E-13
 -1      1154 2.12784E+01-3.08093E-03-7.53770E-04 2.35469E-02 8.12902E-15 4.53273E-13
 -1      1155 2.19200E+01 5.82920E-03 1.01025E-02 2.19404E-02-1.97443E-14 2.73608E-13
 -1      1156 2.24933E+01 1.69230E-02 2.55255E-02 1.78969E-02-5.67255E-16 9.51478E-14
 -1      1157 2.28908E+01 2.97335E-02 4.46665E-02 9.09359E-03-1.68103E-14-6.42854E-14
 -1      1158 2.29806E+01 4.16541E-02 6.33095E-02-6.53970E-03-4.32467E-15-1.40624E-13
 -1      1159 2.26346E+01 4.73542E-02 7.26091E-02-2.91713E-02-1.30625E-14-2.89282E-13
 -1      1160 2.17883E+01 3.96345E-02 6.07280E-02-5.46505E-02 2.32431E-14-2.21101E-13
 -1      1161 2.05225E+01 1.36004E-02 1.99890E-02-7.31798E-02-1.00652E-14-9.91845E-14
 -1      1162 1.91180E+01-2.66976E-02-4.27702E-02-7.23005E-02-5.49604E-15-1.49721E-13
 -1      1163 1.80097E+01-6.52230E-02-1.02172E-01-4.51871E-02 2.98268E-14-1.22763E-13
 -1      1164 1.76108E+01-8.10558E-02-1.26426E-01 1.07516E-03 1.77115E-15-2.18412E-13
 -1      1165 1.80900E+01-6.47006E-02-1.01299E-01 4.69907E-02-2.66454E-15-5.67421E-13
 -1      1166 1.92725E+01-2.63120E-02-4.20153E-02 7.35306E-02 7.59288E-15-8.30572E-13
 -1      1167 2.07461E+01 1.34251E-02 1.98408E-02 7.41367E-02 5.16731E-15-7.28445E-13
 -1      1168 2.20824E+01 3.87010E-02 5.93431E-02 5.58085E-02-1.39372E-14-7.21589E-13
 -1      1169 2.30090E+01 4.58505E-02 7.01635E-02 3.10118E-02 3.80156E-14-3.83690E-13
 -1      1170 2.34521E+01 3.99601E-02 6.02932E-02 9.44125E-03-1.74210E-15-3.95191E-13
 -1      1171 2.34799E+01 2.82589E-02 4.15644E-02-4.85761E-03 1.32689E-14-2.78002E-13
 -1      1172 2.32207E+01 1.61505E-02 2.27897E-02-1.20707E-02-3.52522E-14-8.46372E-14
 -1      1173 2.28028E+01 6.34847E-03 8.18122E-03-1.41878E-02 8.77011E-16-1.18112E-13
 -1      1174 2.23268E+01-4.12586E-04-1.39919E-03-1.33517E-02 1.32657E-14-4.49762E-13
 -1      1175 2.18589E+01-4.44015E-03-6.72571E-03-1.11744E-02-2.20714E-14-6.07554E-13
 -1      1176 2.14367E+01-6.40556E-03-9.03301E-03-8.64979E-03 2.79198E-15-5.47182E-13
 -1      1177 2.10767E+01-6.98741E-03-9.44710E-03-6.29542E-03-4.78476E-14-4.94637E-13
 -1      1178 2.07826E+01-6.73339E-03-8.80739E-03-4.32587E-03 5.03062E-14-3.87333E-13
 -1      1179 2.05503E+01-6.03555E-03-7.67167E-03-2.78791E-03-8.64521E-15-2.58603E-13
 -1      1180 2.03722E+01-5.15198E-03-6.38020E-03-1.64736E-03 1.68342E-14-4.07676E-13
 -1      1181 2.02394E+01-4.24032E-03-5.12386E-03-8.38841E-04 3.52812E-14-4.11556E-13
 -1      1182 2.01432E+01-3.38878E-03-3.99813E-03-2.91406E-04 4.35820E-14-4.79864E-13
 -1      1183 2.00756E+01-2.64024E-03-3.04090E-03 5.96644E-05 1.14333E-14-4.31352E-13
 -1      1184 2.00300E+01-2.00956E-03-2.25718E-03 2.68581E-04-5.32520E-14-2.83616E-13
 -1      1185 2.00008E+01-1.49520E-03-1.63462E-03 3.78436E-04 4.20529E-14-2.18697E-13
 -1      1186 1.99834E+01-1.08683E-03-1.15282E-03 4.22227E-04 2.90396E-14-2.50994E-13
 -1      1187 1.99745E+01-7.70063E-04-7.88747E-04 4.24474E-04-3.09199E-14-5.49375E-13
 -1      1188 1.99714E+01-5.29276E-04-5.19703E-04 4.02875E-04 1.90038E-14-6.16200E-13
 -1      1189 1.99722E+01-3.49125E-04-3.24621E-04 3.69792E-04-4.46287E-14-3.24252E-13
 -1      1190 1.99754E+01-2.15255E-04-1.84341E-04 3.33413E-04-3.30996E-14-2.04567E-13
 -1      1191 1.99801E+01-1.14423E-04-8.09138E-05 2.98468E-04 1.96789E-14-3.11539E-13
 -1      1192 1.99853E+01-3.43533E-05 3.97039E-06 2.66233E-04 5.43494E-14 1.05666E-13
 -1      1193 1.99907E+01 3.62092E-05 9.03710E-05 2.32878E-04 5.94539E-15 2.70929E-13
 -1      1194 1.99954E+01 1.05021E-04 1.90189E-04 1.81202E-04 4.26957E-14 2.11448E-13
 -1      1195 1.99988E+01 1.78442E-04 2.60916E-04 7.44163E-05-4.17781E-14 1.50352E-13
 -1      1196 1.99999E+01-3.25919E-05-3.21546E-05-4.83115E-05 5.95634E-14 6.65566E-14
 -1      1197 2.76170E+01 5.15291E-01 3.06137E-01 1.92798E+00-4.38677E-14 3.86530E-12
 -1      1198 2.03980E+01-7.04925E-02-5.74584E-01 1.20343E-01 2.62186E-14 3.15645E-12
 -1      1199 1.95408E+01-4.62446E-02-1.94036E-01 1.79626E-02 2.01731E-14 2.45937E-12
 -1      1200 1.94772E+01-2.94474E-02-5.82530E-02 2.89831E-03 1.80069E-14 1.96353E-12
 -1      1201 1.97745E+01-2.27357E-02-2.68892E-02-1.77768E-03 9.26256E-15 1.60620E-12
 -1      1202 2.03077E+01-1.94867E-02-2.24778E-02-3.94141E-03 1.34413E-14 1.34620E-12
 -1      1203 2.10247E+01-1.69008E-02-2.23700E-02-6.58096E-03 1.08758E-14 1.20762E-12
 -1      1204 2.18983E+01-1.28668E-02-2.02415E-02-1.10574E-02-7.17482E-15 1.15794E-12
 -1      1205 2.28972E+01-5.02888E-03-1.24184E-02-1.82858E-02 7.63007E-15 9.68024E-13
 -1      1206 2.39602E+01 9.12785E-03 5.61515E-03-2.85029E-02 7.78923E-15 7.78308E-13
 -1      1207 2.49649E+01 3.10312E-02 3.83733E-02-4.00557E-02 8.88395E-15 5.57283E-13
 -1      1208 2.56980E+01 5.80124E-02 8.58584E-02-4.74113E-02 1.69240E-14 4.72228E-13
 -1      1209 2.58514E+01 7.90421E-02 1.35077E-01-3.97498E-02-2.40407E-14 4.93428E-13
 -1      1210 2.50982E+01 7.39798E-02 1.53160E-01-4.68090E-03 6.28837E-15 4.05509E-13
 -1      1211 2.33058E+01 2.69341E-02 9.92863E-02 5.82751E-02-2.17014E-15 2.21073E-13
 -1      1212 2.08309E+01-4.84780E-02-3.34173E-02 1.22727E-01 5.19615E-15 3.54716E-14
 -1      1213 1.86113E+01-1.06754E-01-1.82958E-01 1.41756E-01-3.98744E-14 1.10731E-13
 -1      1214 1.77507E+01-1.03408E-01-2.47814E-01 8.74446E-02 2.20553E-14-2.41886E-13
 -1      1215 1.87453E+01-4.89767E-02-1.80820E-01-1.21104E-02-3.39485E-15-7.39089E-13
 -1      1216 2.10637E+01 1.03060E-02-4.04524E-02-9.41568E-02-4.83717E-14-7.06768E-13
 -1      1217 2.35937E+01 4.20891E-02 7.59405E-02-1.20189E-01-1.54655E-14-5.74138E-13
 -1      1218 2.54256E+01 4.61229E-02 1.20532E-01-9.78147E-02-5.45571E-15-4.09728E-13
 -1      1219 2.62354E+01 3.52963E-02 1.06564E-01-5.64073E-02 1.26218E-14-6.50095E-13
 -1      1220 2.61677E+01 2.12292E-02 6.87432E-02-1.94007E-02-3.44429E-15-8.16323E-13
 -1      1221 2.55490E+01 9.54020E-03 3.23718E-02 4.48168E-03 1.17640E-14-2.83537E-13
 -1      1222 2.46830E+01 1.67132E-03 7.26641E-03 1.61735E-02 6.18700E-15-1.86257E-13
 -1      1223 2.37767E+01-2.85214E-03-6.55317E-03 1.97378E-02-7.80756E-15-1.63147E-13
 -1      1224 2.29437E+01-5.01221E-03-1.24621E-02 1.89347E-02 4.22738E-14-5.11410E-13
 -1      1225 2.22323E+01-5.70174E-03-1.38149E-02 1.62713E-02-1.00864E-14-4.96662E-13
 -1      1226 2.16524E+01-5.56805E-03-1.29323E-02 1.31366E-02-3.30677E-14-1.00461E-13
 -1      1227 2.11951E+01-5.02773E-03-1.11624E-02 1.01891E-02 4.13558E-15-4.19335E-14
 -1      1228 2.08433E+01-4.32829E-03-9.19849E-03 7.67890E-03 1.94700E-14-2.96725E-13
 -1      1229 2.05784E+01-3.60695E-03-7.35737E-03 5.65383E-03-2.97651E-14 1.85015E-13
 -1      1230 2.03828E+01-2.93381E-03-5.75958E-03 4.07436E-03-4.36592E-15 4.93247E-14
 -1      1231 2.02413E+01-2.33999E-03-4.43108E-03 2.87124E-03 1.05241E-14-3.86056E-13
 -1      1232 2.01413E+01-1.83496E-03-3.35621E-03 1.97191E-03-2.86181E-15-5.62195E-13
 -1      1233 2.00725E+01-1.41672E-03-2.50361E-03 1.31110E-03 7.34049E-14-6.08097E-13
 -1      1234 2.00269E+01-1.07763E-03-1.83834E-03 8.33933E-04-2.43607E-16-5.72757E-13
 -1      1235 1.99981E+01-8.07736E-04-1.32708E-03 4.95907E-04 3.20634E-14-6.00296E-13
 -1      1236 1.99813E+01-5.96460E-04-9.40174E-04 2.61665E-04 1.29948E-14-7.74904E-13
 -1      1237 1.99730E+01-4.33563E-04-6.52009E-04 1.03439E-04 1.98443E-14-8.24851E-13
 -1      1238 1.99703E+01-3.09489E-04-4.40821E-04-4.21487E-07-3.45741E-14-7.06811E-13
 -1      1239 1.99715E+01-2.15447E-04-2.88100E-04-6.67418E-05 3.92684E-14-9.02213E-13
 -1      1240 1.99749E+01-1.43226E-04-1.77708E-04-1.08630E-04-2.07743E-14-1.20312E-12
 -1      1241 1.99797E+01-8.46745E-05-9.43167E-05-1.36381E-04 8.13215E-14-1.56541E-12
 -1      1242 1.99851E+01-3.11952E-05-2.10965E-05-1.57861E-04-3.01351E-14-1.67002E-12
 -1      1243 1.99905E+01 2.67025E-05 6.17652E-05-1.77840E-04 4.23388E-14-1.52087E-12
 -1      1244 1.99954E+01 9.49688E-05 1.67330E-04-1.91510E-04 1.52296E-14-1.36646E-12
 -1      1245 1.99988E+01 1.45444E-04 2.40763E-04-1.58144E-04 1.01627E-13-1.74000E-12
 -1      1246 1.99999E+01-3.53793E-05-3.81694E-05 3.93555E-05 1.34786E-14-1.22000E-12
 -1      1247 1.99998E+01 1.00465E-04-4.11426E-05 2.60913E-05-1.29076E-12-7.32223E-14
 -1      1248 1.99999E+01-1.04348E-03 2.17304E-04-6.32535E-05-8.93075E-13 1.35135E-13
 -1      1249 1.99999E+01-4.27455E-03 1.23229E-04-1.67578E-04 2.28650E-13-1.40082E-14
 -1      1250 1.99998E+01-8.37001E-03-3.77006E-06-1.76871E-04 4.57134E-13 2.22856E-14
 -1      1251 1.99997E+01-1.24026E-02-8.79206E-05-1.50844E-04 3.37957E-13-1.54019E-13
 -1      1252 1.99997E+01-1.58099E-02-1.32581E-04-1.12092E-04 1.24985E-13-3.58117E-14
 -1      1253 1.99997E+01-1.83431E-02-1.50697E-04-7.43276E-05 2.42678E-13 1.33463E-13
 -1      1254 1.99997E+01-1.98934E-02-1.56930E-04-3.56752E-05 8.09671E-14-4.78400E-14
 -1      1255 1.99997E+01-2.03883E-02-1.57464E-04 1.34369E-06-3.68895E-13 1.30966E-13
 -1      1256 1.99997E+01-1.98235E-02-1.54995E-04 3.80987E-05-2.63662E-13-2.93644E-14
 -1      1257 1.99997E+01-1.82165E-02-1.47046E-04 7.59734E-05-1.31544E-13-1.16057E-13
 -1      1258 1.99997E+01-1.56482E-02-1.27575E-04 1.14748E-04-6.89486E-13 1.30653E-13
 -1      1259 1.99997E+01-1.22370E-02-8.43149E-05 1.50380E-04-7.16131E-13 4.31503E-14
 -1      1260 1.99998E+01-8.21995E-03 9.51039E-07 1.77759E-04-5.89107E-13 1.25208E-13
 -1      1261 1.99999E+01-4.10991E-03 1.47611E-04 1.96618E-04-5.79461E-13 6.62489E-14
 -1      1262 2.00000E+01-1.05402E-03 2.20373E-04 5.74822E-05-2.12774E-13-2.64881E-14
 -1      1263 1.99997E+01 9.81981E-05-5.26961E-05-1.92060E-05-4.03510E-14 3.17897E-14
 -1      1264-1.24532E+00-2.38940E+01-3.69951E+00-2.35007E+00 1.24900E-14 2.53755E-13
 -1      1265-1.97810E+00-1.57584E+01-3.19943E+00-4.27044E+00 2.42206E-12 1.07919E-12
 -1      1266 1.84940E-01-3.02307E+00-1.96453E+00-3.12359E-01 4.12270E-12 2.66287E-12
 -1      1267 9.10715E+00 7.34372E+00-3.90806E-01 8.14667E+00 4.08873E-12 3.91687E-12
 -1      1268 2.69002E+01 1.07474E+01 1.44212E+00 1.61621E+01 2.86038E-12 4.13047E-12
 -1      1269 4.88654E+01 7.45704E+00 3.11999E+00 1.73418E+01 1.39588E-12 3.29203E-12
 -1      1270 6.44851E+01 2.90254E+00 4.13888E+00 9.06513E+00 3.50955E-13 1.25056E-12
 -1      1271 6.79644E+01 1.81569E+00 4.42931E+00-4.06981E+00 1.37439E-13-7.01661E-13
 -1      1272 5.62776E+01 5.84583E+00 3.71185E+00-1.49576E+01 9.21291E-13-2.57372E-12
 -1      1273 3.58182E+01 1.03109E+01 2.29470E+00-1.76295E+01 2.15605E-12-3.71170E-12
 -1      1274 1.58572E+01 9.89566E+00 4.54994E-01-1.21440E+01 3.40084E-12-3.84670E-12
 -1      1275 2.75957E+00 1.63149E+00-1.37044E+00-2.65710E+00 3.70171E-12-2.78300E-12
 -1      1276-1.70177E+00-1.13824E+01-2.78828E+00 3.70348E+00 3.01292E-12-1.39022E-12
 -1      1277-1.44518E+00-2.20574E+01-3.60242E+00 3.55767E+00 1.75504E-12-4.83724E-13
 -1      1278-8.64025E-01-2.54320E+01-3.81807E+00-6.18463E-01-3.56104E-13-1.59345E-13
 -1      1279-1.63432E+00-1.93846E+01-3.38644E+00-3.94449E+00-2.37643E-12-7.63029E-13
 -1      1280-1.01945E+00-7.55979E+00-2.35344E+00-2.36546E+00-3.90421E-12-2.04248E-12
 -1      1281 5.63875E+00 4.76685E+00-7.84666E-01 5.39671E+00-3.96838E-12-3.19922E-12
 -1      1282 2.08138E+01 1.08890E+01 1.04939E+00 1.45163E+01-3.19766E-12-4.07985E-12
 -1      1283 4.09352E+01 9.33304E+00 2.59051E+00 1.77416E+01-1.96454E-12-3.96350E-12
 -1      1284 5.92567E+01 4.32259E+00 3.80284E+00 1.30588E+01-8.01803E-13-3.01237E-12
 -1      1285 6.64361E+01 1.74599E+00 4.13888E+00 1.22161E+00-2.07938E-13-9.20458E-13
 -1      1286 6.12677E+01 3.48582E+00 3.84571E+00-1.11009E+01-3.87107E-13 1.40210E-12
 -1      1287 4.55111E+01 8.13760E+00 2.83858E+00-1.77871E+01-1.29646E-12 2.90301E-12
 -1      1288 2.54344E+01 1.10131E+01 1.38157E+00-1.58328E+01-2.67497E-12 3.67928E-12
 -1      1289 8.93489E+00 7.70479E+00-2.22420E-01-8.10604E+00-4.07918E-12 3.70082E-12
 -1      1290 2.26954E-01-2.59085E+00-1.85362E+00 2.12709E-01-4.27147E-12 2.64544E-12
 -1      1291-1.73514E+00-1.52930E+01-3.01369E+00 3.91025E+00-2.77911E-12 1.13576E-12
 -1      1292-1.05654E+00-2.41624E+01-3.73219E+00 2.06470E+00-1.56009E-12 2.44169E-13
 -1      1293 2.24293E+01 1.85083E+00-7.13896E-01-2.65534E+00-8.90121E-14 1.83370E-12
 -1      1294 2.06543E+01 4.70194E+00-4.20580E-02-3.01786E+00-2.69118E-13 7.39894E-14
 -1      1295 2.11514E+01 4.80769E+00-9.92340E-02-3.89771E+00-3.34927E-13 4.82406E-13
 -1      1296 1.97849E+01 5.02210E+00-1.73296E-02-2.30862E+00-2.73441E-13-5.02494E-13
 -1      1297 2.01181E+01 5.12671E+00 1.00420E-02-2.72137E+00-3.10023E-13-2.50577E-13
 -1      1298 2.08429E+01 3.94689E+00-2.12614E-02-2.75497E+00-4.71206E-13 7.08461E-14
 -1      1299 1.93264E+01 5.11763E+00-4.71331E-03-1.70602E+00-2.20782E-13-7.95496E-13
 -1      1300 1.95376E+01 5.19062E+00 1.67076E-02-2.00380E+00-2.54727E-13-6.61023E-13
 -1      1301 1.99950E+01 4.39661E+00-2.08013E-02-2.13256E+00-4.30583E-13-4.08493E-13
 -1      1302 1.90106E+01 5.16292E+00-3.12895E-04-1.21826E+00-1.65472E-13-9.54174E-13
 -1      1303 1.91613E+01 5.21391E+00 1.59568E-02-1.45451E+00-1.86705E-13-8.82992E-13
 -1      1304 1.94961E+01 4.61512E+00-1.76838E-02-1.56924E+00-3.31297E-13-6.61797E-13
 -1      1305 1.87807E+01 5.18888E+00 1.14101E-03-8.23279E-01-1.12035E-13-1.02412E-12
 -1      1306 1.88907E+01 5.22548E+00 1.33816E-02-1.01492E+00-1.31428E-13-9.88092E-13
 -1      1307 1.91534E+01 4.74678E+00-1.46943E-02-1.11189E+00-2.45725E-13-7.83869E-13
 -1      1308 1.86149E+01 5.20597E+00 1.78085E-03-4.83676E-01-6.17596E-14-1.05748E-12
 -1      1309 1.86918E+01 5.23102E+00 1.03222E-02-6.49523E-01-8.00540E-14-1.04669E-12
 -1      1310 1.89045E+01 4.83308E+00-1.26710E-02-7.32699E-01-1.56928E-13-8.59358E-13
 -1      1311 1.85184E+01 5.21849E+00 2.69824E-03-1.85429E-01-1.72345E-14-1.05714E-12
 -1      1312 1.85591E+01 5.23164E+00 7.35116E-03-3.33245E-01-3.07011E-14-1.05645E-12
 -1      1313 1.87332E+01 4.88863E+00-1.15393E-02-4.06288E-01-7.97157E-14-8.79288E-13
 -1      1314 1.84952E+01 5.22796E+00 4.25002E-03 9.30981E-02 3.66152E-14-1.04850E-12
 -1      1315 1.84978E+01 5.22874E+00 4.81101E-03-4.76896E-02 2.11255E-14-1.05210E-12
 -1      1316 1.86427E+01 4.91796E+00-1.10001E-02-1.15342E-01 4.59366E-15-8.84520E-13
 -1      1317 1.85485E+01 5.23446E+00 6.58065E-03 3.74373E-01 8.47343E-14-1.02826E-12
 -1      1318 1.85115E+01 5.22252E+00 2.85290E-03 2.29203E-01 6.85151E-14-1.04007E-12
 -1      1319 1.86369E+01 4.92222E+00-1.09422E-02 1.61462E-01 8.55769E-14-8.69192E-13
 -1      1320 1.86783E+01 5.23662E+00 9.54817E-03 6.82012E-01 1.29164E-13-9.81729E-13
 -1      1321 1.86021E+01 5.21205E+00 1.48553E-03 5.20437E-01 1.11149E-13-1.01457E-12
 -1      1322 1.87185E+01 4.90012E+00-1.13849E-02 4.46366E-01 1.62472E-13-8.48221E-13
 -1      1323 1.88798E+01 5.23284E+00 1.29313E-02 1.03429E+00 1.81112E-13-8.95815E-13
 -1      1324 1.87667E+01 5.19532E+00 3.88823E-04 8.47189E-01 1.60955E-13-9.47463E-13
 -1      1325 1.88865E+01 4.84875E+00-1.23255E-02 7.59757E-01 2.38234E-13-7.97841E-13
 -1      1326 1.91640E+01 5.21984E+00 1.59690E-02 1.47065E+00 2.46757E-13-7.48804E-13
 -1      1327 1.90065E+01 5.16662E+00-1.39983E-03 1.23657E+00 2.15033E-13-8.36824E-13
 -1      1328 1.91424E+01 4.76069E+00-1.43583E-02 1.12841E+00 3.25672E-13-7.01446E-13
 -1      1329 1.95548E+01 5.19312E+00 1.69303E-02 2.02021E+00 2.97540E-13-4.88644E-13
 -1      1330 1.93356E+01 5.11657E+00-6.20833E-03 1.72128E+00 2.70509E-13-6.49751E-13
 -1      1331 1.95029E+01 4.61961E+00-1.77270E-02 1.58306E+00 4.20563E-13-5.34166E-13
 -1      1332 2.01585E+01 5.13984E+00 1.68317E-02 2.74135E+00 3.40158E-13-9.03444E-15
 -1      1333 1.98085E+01 5.01666E+00-1.81816E-02 2.33194E+00 3.01564E-13-2.94917E-13
 -1      1334 2.00219E+01 4.38665E+00-2.11615E-02 2.15081E+00 4.82048E-13-2.28553E-13
 -1      1335 2.13833E+01 4.90170E+00 1.84083E-02 3.78563E+00 2.79970E-13 8.96810E-13
 -1      1336 2.06465E+01 4.74470E+00-4.04907E-02 3.10840E+00 2.79374E-13 3.45148E-13
 -1      1337 2.08964E+01 3.91512E+00-1.67864E-02 2.83769E+00 4.98403E-13 3.04201E-13
 -1      1338 2.71957E+01 3.16170E+00 8.87394E-01 4.41191E+00 1.29521E-13 2.57450E-12
 -1      1339 2.22487E+01 3.51276E+00-1.73752E-01 3.66763E+00 1.34351E-13 1.41381E-12
 -1      1340 2.24225E+01 2.53759E+00-2.59883E-02 3.17776E+00 4.52891E-13 1.12477E-12
 -1      1341 2.16509E+01 3.46482E-01-7.56077E-01 1.05490E+00 2.36290E-13 2.49545E-12
 -1      1342 2.22702E+01 1.22476E-01-3.97192E-01-1.15002E+00-2.70325E-13 1.91369E-12
 -1      1343 2.10958E+01 2.97366E-01-1.58528E-01-6.90238E-01-2.53339E-13 1.60121E-12
 -1      1344 2.05907E+01 1.52893E-01-7.09386E-02-2.88235E-01-2.01478E-13 1.46306E-12
 -1      1345 2.02619E+01 9.22290E-02-1.24466E-02-2.17711E-01-1.95274E-13 1.17420E-12
 -1      1346 2.14283E+01 3.58917E-01-1.03244E-01-1.05075E+00-4.41182E-13 8.62872E-13
 -1      1347 2.00173E+01 6.85627E-02 3.82105E-03-1.71780E-02-1.55972E-13 1.06380E-12
 -1      1348 2.00098E+01 4.63432E-02 1.40267E-02 3.21735E-03-1.33327E-13 8.55028E-13
 -1      1349 2.05828E+01 1.35559E-01-3.63451E-02-2.77129E-01-3.37855E-13 6.65926E-13
 -1      1350 1.99768E+01 3.85834E-02 1.28684E-02 1.05973E-01-9.18094E-14 7.59968E-13
 -1      1351 2.01231E+01 2.63844E-02 1.10754E-02 1.19379E-01-9.74420E-14 6.30451E-13
 -1      1352 2.03401E+01 6.47037E-02-1.04521E-02 8.02733E-02-2.39047E-13 4.73649E-13
 -1      1353 2.02122E+01 2.42609E-02 7.83593E-03 1.79609E-01-6.89457E-14 5.70571E-13
 -1      1354 2.04448E+01 1.59823E-02 6.01634E-03 1.88682E-01-6.97615E-14 4.72596E-13
 -1      1355 2.03978E+01 3.67321E-02-5.98265E-03 2.75659E-01-1.56763E-13 3.03457E-13
 -1      1356 2.06079E+01 1.50760E-02 3.40647E-03 2.24984E-01-6.46020E-14 4.54291E-13
 -1      1357 2.08908E+01 7.76511E-03 2.88588E-03 2.30511E-01-5.19910E-14 3.62361E-13
 -1      1358 2.06438E+01 2.16820E-02-4.62135E-03 3.93163E-01-1.20623E-13 2.20410E-13
 -1      1359 2.10957E+01 6.38641E-03 1.05072E-03 2.46822E-01-3.87210E-14 3.20785E-13
 -1      1360 2.13992E+01-1.41743E-03 1.22212E-03 2.48226E-01-4.52374E-14 2.36356E-13
 -1      1361 2.10039E+01 8.49570E-03-2.94471E-03 4.58196E-01-1.09582E-13 1.65315E-13
 -1      1362 2.16180E+01-4.38932E-03 1.99905E-04 2.41685E-01-5.26382E-14 2.12264E-13
 -1      1363 2.19072E+01-1.34086E-02 5.30394E-04 2.37348E-01-7.80973E-14 1.12566E-13
 -1      1364 2.14211E+01-7.83418E-03-4.41918E-04 4.72102E-01-9.91766E-14 8.42581E-14
 -1      1365 2.21094E+01-1.88247E-02 5.99261E-04 2.01246E-01-5.36966E-14 1.05077E-13
 -1      1366 2.23389E+01-2.89076E-02 7.68986E-04 1.88853E-01-5.36871E-14 4.95090E-14
 -1      1367 2.18390E+01-3.01626E-02 3.10360E-03 4.23491E-01-1.11000E-13 7.96958E-14
 -1      1368 2.24881E+01-3.70056E-02 2.28420E-03 1.15764E-01-7.18891E-14 1.94515E-14
 -1      1369 2.26011E+01-4.65831E-02 2.02836E-03 9.31312E-02-5.23609E-14-7.03972E-14
 -1      1370 2.21933E+01-5.89396E-02 7.81287E-03 2.95214E-01-1.07496E-13 4.94977E-14
 -1      1371 2.26571E+01-5.62142E-02 5.08746E-03-1.97135E-02-2.27882E-14-1.04468E-13
 -1      1372 2.25932E+01-6.17141E-02 4.07494E-03-5.29065E-02-6.19071E-14-1.46299E-13
 -1      1373 2.24088E+01-9.02265E-02 1.33061E-02 7.42448E-02-6.98244E-14-1.01815E-14
 -1      1374 2.25192E+01-6.94660E-02 8.09881E-03-1.95453E-01-5.85712E-14-1.26002E-13
 -1      1375 2.22354E+01-6.55063E-02 5.87245E-03-2.34992E-01-3.09015E-14-2.01873E-13
 -1      1376 2.24084E+01-1.13348E-01 1.81625E-02-2.32257E-01-8.17480E-14-1.11299E-13
 -1      1377 2.20140E+01-6.58252E-02 9.32694E-03-3.76156E-01 7.30622E-14-1.73226E-13
 -1      1378 2.15168E+01-4.74632E-02 5.54323E-03-4.10986E-01 3.94251E-14-9.00946E-14
 -1      1379 2.21347E+01-1.10976E-01 1.96055E-02-5.76779E-01 3.37560E-14-6.50417E-14
 -1      1380 2.11713E+01-3.54050E-02 6.52200E-03-4.98600E-01-1.02622E-14-1.12410E-13
 -1      1381 2.05468E+01-2.82487E-03 1.44247E-03-5.12149E-01-5.07556E-14-1.09648E-13
 -1      1382 2.15877E+01-6.66545E-02 1.40742E-02-8.59603E-01 1.18672E-14-5.52249E-14
 -1      1383 2.01567E+01 2.05836E-02-7.61414E-04-4.91296E-01-7.03600E-14-2.21698E-14
 -1      1384 1.95717E+01 5.79205E-02-5.91633E-03-4.69504E-01-4.32024E-14-8.98170E-14
 -1      1385 2.08641E+01 2.03982E-02 2.45620E-05-9.48496E-01-5.20352E-14-8.17020E-14
 -1      1386 1.92615E+01 8.23045E-02-9.57236E-03-3.18065E-01 1.13052E-14-1.28647E-13
 -1      1387 1.89119E+01 1.07613E-01-1.28609E-02-2.61358E-01-2.96386E-14-1.67163E-13
 -1      1388 2.01663E+01 1.23067E-01-1.85829E-02-7.44355E-01-4.40342E-14-4.79929E-14
 -1      1389 1.88022E+01 1.17956E-01-1.46742E-02-1.93770E-02-8.70502E-14-2.10875E-13
 -1      1390 1.88218E+01 1.17576E-01-1.45374E-02 5.18037E-02-9.17374E-14-3.19715E-13
 -1      1391 1.97443E+01 1.92986E-01-3.22929E-02-2.64776E-01-9.40775E-14-2.07420E-13
 -1      1392 1.89623E+01 1.06971E-01-1.28265E-02 2.92727E-01-1.00024E-13-3.82068E-13
 -1      1393 1.93498E+01 8.12764E-02-9.31438E-03 3.48822E-01-1.06637E-13-5.16885E-13
 -1      1394 1.97746E+01 1.92251E-01-3.21667E-02 3.26992E-01-1.65375E-13-3.39532E-13
 -1      1395 1.96891E+01 5.72394E-02-5.83617E-03 4.98533E-01-2.48660E-14-5.73951E-13
 -1      1396 2.03095E+01 2.00048E-02-5.08642E-04 5.19867E-01-2.18280E-14-6.32661E-13
 -1      1397 2.02551E+01 1.21558E-01-1.84421E-02 8.02824E-01-1.27238E-13-4.21468E-13
 -1      1398 2.07277E+01-2.76464E-03 1.43972E-03 5.40242E-01 2.36482E-14-6.91204E-13
 -1      1399 2.13869E+01-3.50038E-02 6.67168E-03 5.26771E-01-2.91748E-14-6.77833E-13
 -1      1400 2.10087E+01 2.00321E-02 1.14748E-04 1.00415E+00-5.58538E-15-5.13452E-13
 -1      1401 2.17612E+01-4.62999E-02 5.37082E-03 4.40886E-01-2.83263E-14-5.75144E-13
 -1      1402 2.22959E+01-6.43410E-02 9.29429E-03 4.06804E-01 8.88664E-14-5.13558E-13
 -1      1403 2.17875E+01-6.53077E-02 1.38483E-02 9.16664E-01 2.07299E-16-5.47416E-13
 -1      1404 2.25489E+01-6.33176E-02 5.51881E-03 2.69627E-01 1.07509E-13-4.78763E-13
 -1      1405 2.28765E+01-6.72172E-02 7.92422E-03 2.31377E-01 7.72377E-14-3.62918E-13
 -1      1406 2.23931E+01-1.07767E-01 1.90958E-02 6.40710E-01 1.39727E-13-3.89967E-13
 -1      1407 2.29866E+01-5.89142E-02 3.56481E-03 9.42722E-02 6.98261E-14-3.55499E-13
 -1      1408 2.31029E+01-5.37353E-02 4.79614E-03 6.26292E-02 4.74369E-14-3.42852E-13
 -1      1409 2.27326E+01-1.08772E-01 1.75468E-02 3.07525E-01 7.03387E-14-2.98000E-13
 -1      1410 2.30879E+01-4.36831E-02 1.33333E-03-4.44747E-02 9.12811E-15-2.67691E-13
 -1      1411 2.30368E+01-3.48530E-02 1.81586E-03-6.55795E-02 2.59350E-14-2.04236E-13
 -1      1412 2.28079E+01-8.51526E-02 1.27156E-02 1.43583E-02 5.58832E-14-2.76746E-13
 -1      1413 2.29321E+01-2.64166E-02-1.94083E-04-1.33837E-01 1.43522E-14-2.18640E-13
 -1      1414 2.27729E+01-1.75648E-02-1.52595E-04-1.44976E-01-5.93432E-14-2.14653E-13
 -1      1415 2.26752E+01-5.41602E-02 7.41899E-03-1.94138E-01 9.76649E-15-2.84125E-13
 -1      1416 2.26160E+01-1.19017E-02-8.50842E-04-1.78496E-01-7.94788E-14-1.85724E-13
 -1      1417 2.24026E+01-4.72433E-03-1.08023E-03-1.82135E-01-2.10128E-14-2.39551E-13
 -1      1418 2.24076E+01-2.65262E-02 3.08491E-03-3.13880E-01-1.17092E-13-2.63472E-13
 -1      1419 2.22244E+01-1.66299E-03-8.83888E-04-1.90100E-01-6.54868E-14-2.86309E-13
 -1      1420 2.19969E+01 3.43430E-03-1.28231E-03-1.88925E-01-1.01084E-13-3.77636E-13
 -1      1421 2.20719E+01-6.39275E-03 1.02127E-04-3.61635E-01-1.24038E-13-2.81830E-13
 -1      1422 2.18192E+01 4.57046E-03-6.08855E-04-1.80728E-01-3.48237E-14-3.97614E-13
 -1      1423 2.16031E+01 7.81600E-03-1.10261E-03-1.76922E-01-4.74721E-14-4.82650E-13
 -1      1424 2.17188E+01 6.14443E-03-1.66894E-03-3.59911E-01-1.16859E-13-2.57951E-13
 -1      1425 2.14394E+01 7.73860E-03-2.58360E-04-1.60092E-01-2.11525E-14-4.60959E-13
 -1      1426 2.12483E+01 9.56902E-03-7.87071E-04-1.55175E-01 3.72116E-14-3.84054E-13
 -1      1427 2.13820E+01 1.26873E-02-2.54019E-03-3.28945E-01-5.27135E-14-2.79326E-13
 -1      1428 2.11055E+01 8.83906E-03 4.36138E-05-1.34950E-01-4.21169E-14-3.59567E-13
 -1      1429 2.09448E+01 9.68781E-03-4.72368E-04-1.29869E-01-4.90501E-14-3.50317E-13
 -1      1430 2.10805E+01 1.51373E-02-2.81775E-03-2.83905E-01 1.52265E-14-3.51201E-13
 -1      1431 2.08252E+01 8.68516E-03 2.53555E-04-1.09512E-01 7.17742E-15-2.92369E-13
 -1      1432 2.06953E+01 8.90404E-03-2.16743E-04-1.04792E-01 5.57437E-14-2.41738E-13
 -1      1433 2.08229E+01 1.50956E-02-2.74060E-03-2.34858E-01-4.82901E-14-2.13509E-13
 -1      1434 2.05983E+01 7.85828E-03 3.72417E-04-8.61131E-02-1.05107E-14-3.06811E-13
 -1      1435 2.04965E+01 7.70462E-03-3.37592E-05-8.20021E-02-3.54450E-14-3.46131E-13
 -1      1436 2.06106E+01 1.37164E-02-2.47502E-03-1.87794E-01-5.90890E-15-3.88595E-13
 -1      1437 2.04202E+01 6.73903E-03 4.19321E-04-6.58355E-02-6.78190E-15-3.12996E-13
 -1      1438 2.03426E+01 6.38875E-03 8.37798E-05-6.24108E-02 3.89468E-14-3.45651E-13
 -1      1439 2.04407E+01 1.17532E-02-2.12826E-03-1.45828E-01-2.18483E-14-3.59792E-13
 -1      1440 2.02840E+01 5.55853E-03 4.16845E-04-4.89888E-02 4.91484E-14-3.36921E-13
 -1      1441 2.02267E+01 5.12548E-03 1.50092E-04-4.62309E-02 5.13022E-14-3.22997E-13
 -1      1442 2.03084E+01 9.65889E-03-1.76527E-03-1.10208E-01 4.84311E-14-2.03026E-13
 -1      1443 2.01828E+01 4.44568E-03 3.84529E-04-3.54432E-02-1.52743E-14-4.04326E-13
 -1      1444 2.01415E+01 3.99957E-03 1.79752E-04-3.32838E-02 4.59935E-15-4.86779E-13
 -1      1445 2.02079E+01 7.68268E-03-1.42255E-03-8.10638E-02-6.06839E-15-3.43171E-13
 -1      1446 2.01095E+01 3.46349E-03 3.36997E-04-2.48465E-02 9.34161E-14-4.89983E-13
 -1      1447 2.00808E+01 3.04402E-03 1.85064E-04-2.31975E-02 6.78627E-14-2.87516E-13
 -1      1448 2.01335E+01 5.94396E-03-1.11835E-03-5.79150E-02 5.60285E-14-4.80660E-13
 -1      1449 2.00582E+01 2.63468E-03 2.84172E-04-1.67584E-02 5.48869E-15-3.05009E-13
 -1      1450 2.00391E+01 2.26187E-03 1.75427E-04-1.55286E-02-5.54305E-14-3.25210E-13
 -1      1451 2.00799E+01 4.48428E-03-8.59599E-04-3.99951E-02 3.18488E-14-4.17522E-13
 -1      1452 2.00236E+01 1.95867E-03 2.32215E-04-1.07283E-02 2.91664E-14-1.62140E-13
 -1      1453 2.00115E+01 1.64005E-03 1.57558E-04-9.83303E-03 1.38289E-13-1.65070E-13
 -1      1454 2.00424E+01 3.30118E-03-6.46553E-04-2.64488E-02 3.30221E-14-1.40840E-13
 -1      1455 2.00015E+01 1.42247E-03 1.84559E-04-6.33842E-03-2.99489E-14-1.93223E-13
 -1      1456 1.99945E+01 1.15804E-03 1.35990E-04-5.70304E-03-1.04163E-13-2.86533E-13
 -1      1457 2.00173E+01 2.36950E-03-4.75773E-04-1.64447E-02-1.30892E-14-8.13456E-14
 -1      1458 1.99884E+01 1.00739E-03 1.42778E-04-3.22310E-03-9.53832E-15-3.26156E-13
 -1      1459 1.99851E+01 7.92806E-04 1.13589E-04-2.78505E-03-9.19249E-14-4.13082E-13
 -1      1460 2.00013E+01 1.65415E-03-3.42032E-04-9.23316E-03-9.45476E-14-9.74844E-14
 -1      1461 1.99818E+01 6.93007E-04 1.07258E-04-1.07627E-03-2.15211E-14-3.98857E-13
 -1      1462 1.99809E+01 5.21654E-04 9.20172E-05-7.84836E-04-1.60553E-14-3.25075E-13
 -1      1463 1.99920E+01 1.11747E-03-2.39466E-04-4.17214E-03-1.00057E-13-1.23301E-15
 -1      1464 1.99796E+01 4.59229E-04 7.76845E-05 3.48991E-04 5.08967E-14-3.01130E-13
 -1      1465 1.99804E+01 3.23484E-04 7.21140E-05 5.33499E-04 3.28458E-14-2.09988E-13
 -1      1466 1.99875E+01 7.23050E-04-1.62238E-04-7.33152E-04 5.24472E-14-1.35080E-13
 -1      1467 1.99804E+01 2.87264E-04 5.34258E-05 1.24418E-03-8.28648E-14 2.17053E-14
 -1      1468 1.99822E+01 1.79152E-04 5.42873E-05 1.35144E-03 4.49730E-14-5.42452E-14
 -1      1469 1.99861E+01 4.37322E-04-1.04859E-04 1.50235E-03 9.12431E-14-7.94608E-14
 -1      1470 1.99830E+01 1.59656E-04 3.39691E-05 1.74989E-03 1.66606E-13-1.05155E-13
 -1      1471 1.99853E+01 7.11446E-05 3.90794E-05 1.80043E-03 1.45691E-13 1.83193E-14
 -1      1472 1.99869E+01 2.29563E-04-6.22590E-05 2.85081E-03 1.58037E-13 8.27698E-14
 -1      1473 1.99867E+01 5.97304E-05 1.96102E-05 1.95945E-03 1.37016E-13 2.23259E-14
 -1      1474 1.99891E+01-1.72593E-05 2.80418E-05 1.96497E-03 2.25742E-13 2.35857E-13
 -1      1475 1.99890E+01 7.08321E-05-2.95610E-05 3.53424E-03 2.60822E-13 2.07210E-13
 -1      1476 1.99906E+01-2.96021E-05 1.26814E-05 1.92019E-03 1.27751E-13 1.87748E-13
 -1      1477 1.99930E+01-1.03078E-04 2.47358E-05 1.88254E-03-1.93037E-14 2.73728E-13
 -1      1478 1.99918E+01-6.85605E-05-1.76174E-06 3.68553E-03 1.96637E-13 1.53855E-13
 -1      1479 1.99945E+01-1.27667E-04 1.77048E-05 1.63287E-03-9.55767E-14 2.33673E-13
 -1      1480 1.99964E+01-2.03247E-04 2.82622E-05 1.54069E-03-2.19510E-14 1.69954E-13
 -1      1481 1.99946E+01-2.23233E-04 2.49017E-05 3.34704E-03-8.94039E-14 2.20544E-13
 -1      1482 1.99976E+01-2.58310E-04 3.06330E-05 1.05230E-03-1.11536E-15 8.51196E-14
 -1      1483 1.99988E+01-2.96158E-04 2.70224E-05 9.07060E-04-7.90076E-14 1.88292E-13
 -1      1484 1.99971E+01-4.38562E-04 4.87076E-05 2.49583E-03-7.02424E-15 2.09645E-13
 -1      1485 1.99997E+01-1.94721E-04 4.78525E-05 8.43104E-05-1.79506E-13 1.94204E-13
 -1      1486 1.99992E+01-6.46236E-04 4.39111E-05 9.37406E-04-1.26360E-13 1.43374E-13
 -1      1487 2.07392E+01 7.41947E-02-1.46274E-01 3.76777E-01 2.24740E-13 2.01751E-12
 -1      1488 2.18444E+01 2.17127E-01-2.27184E-01 6.07261E-01 1.88405E-13 2.35234E-12
 -1      1489 2.20789E+01 8.54579E-01-8.97053E-02 1.84945E+00 3.72868E-13 1.54396E-12
 -1      1490 2.00858E+01 3.53655E-02-1.93854E-02 7.67715E-02 1.56241E-13 1.58798E-12
 -1      1491 2.03544E+01 1.17473E-01-5.89226E-02 1.30721E-01 1.58523E-13 1.84468E-12
 -1      1492 2.08823E+01 1.83504E-01-5.66180E-02 5.79874E-01 3.27835E-13 1.23875E-12
 -1      1493 2.00160E+01 2.10220E-02 5.11398E-03-7.37379E-02 1.13954E-13 1.27153E-12
 -1      1494 1.99864E+01 6.04002E-02 2.92314E-03-4.13428E-02 1.12645E-13 1.47031E-12
 -1      1495 2.03984E+01 7.81792E-02-1.48501E-02 7.27773E-02 2.44992E-13 9.72927E-13
 -1      1496 2.02830E+01 1.52627E-02 5.08586E-03-1.66122E-01 8.50873E-14 1.05906E-12
 -1      1497 2.00938E+01 3.90253E-02 1.18962E-02-1.42330E-01 7.97713E-14 1.18706E-12
 -1      1498 2.03712E+01 4.42393E-02-6.59488E-03-1.87485E-01 1.76401E-13 7.79529E-13
 -1      1499 2.07755E+01 1.27973E-02 2.09799E-03-2.35045E-01 6.91305E-14 9.02133E-13
 -1      1500 2.04780E+01 3.05695E-02 8.81217E-03-2.14703E-01 5.91688E-14 9.88647E-13
 -1      1501 2.06287E+01 3.12850E-02-7.02201E-03-3.56448E-01 1.34321E-13 6.58061E-13
 -1      1502 2.14400E+01 1.08427E-02 1.91341E-04-2.91884E-01 1.03901E-14 8.38583E-13
 -1      1503 2.10567E+01 2.62397E-02 5.31723E-03-2.73134E-01 2.55997E-14 8.70998E-13
 -1      1504 2.10845E+01 2.52427E-02-8.12018E-03-4.84779E-01 7.02468E-14 5.75822E-13
 -1      1505 2.22389E+01 7.49306E-03-3.27088E-04-3.36909E-01 5.55239E-14 7.26329E-13
 -1      1506 2.17862E+01 2.17981E-02 3.04057E-03-3.20094E-01 2.79689E-14 7.64583E-13
 -1      1507 2.16885E+01 1.98557E-02-8.41757E-03-5.87157E-01 6.46367E-14 4.77875E-13
 -1      1508 2.31251E+01 6.60928E-04 9.92525E-04-3.61342E-01 4.61985E-14 5.84307E-13
 -1      1509 2.26273E+01 1.35232E-02 1.74166E-03-3.49209E-01 7.03154E-14 6.93202E-13
 -1      1510 2.23994E+01 1.04403E-02-7.28459E-03-6.58217E-01 1.03638E-13 3.75620E-13
 -1      1511 2.40177E+01-1.19747E-02 5.32305E-03-3.46417E-01 7.18065E-14 4.69517E-13
 -1      1512 2.35205E+01-2.78755E-03 1.54264E-03-3.44875E-01 4.03880E-14 5.49283E-13
 -1      1513 2.31644E+01-8.15570E-03-3.57919E-03-6.74641E-01 8.48943E-14 3.19087E-13
 -1      1514 2.47793E+01-3.19169E-02 1.39983E-02-2.63804E-01 2.41552E-14 3.93284E-13
 -1      1515 2.43641E+01-3.11014E-02 3.16005E-03-2.82244E-01 2.78041E-14 4.53755E-13
 -1      1516 2.39002E+01-4.11840E-02 4.25630E-03-5.94985E-01 6.65787E-14 2.76031E-13
 -1      1517 2.52046E+01-5.70538E-02 2.66898E-02-8.31426E-02 3.04548E-14 3.86087E-13
 -1      1518 2.49951E+01-7.19227E-02 7.36716E-03-1.32549E-01 1.57227E-14 4.20691E-13
 -1      1519 2.44805E+01-9.06834E-02 1.70706E-02-3.66258E-01 1.73490E-14 3.33776E-13
 -1      1520 2.50475E+01-7.68681E-02 3.80828E-02 2.04871E-01 2.70790E-14 3.88432E-13
 -1      1521 2.51928E+01-1.15552E-01 1.35250E-02 1.19159E-01-5.51642E-16 3.72740E-13
 -1      1522 2.47366E+01-1.47553E-01 3.26324E-02 5.05359E-02 1.39298E-15 2.98867E-13
 -1      1523 2.41256E+01-7.03550E-02 3.55649E-02 5.46537E-01 2.91902E-14 2.96582E-13
 -1      1524 2.47332E+01-1.35415E-01 1.71784E-02 4.38891E-01 3.89376E-14 3.46695E-13
 -1      1525 2.44956E+01-1.80366E-01 4.30037E-02 6.23961E-01 7.06778E-14 3.03355E-13
 -1      1526 2.25095E+01-1.84789E-02 5.67623E-03 7.92537E-01 2.98169E-14 1.68532E-13
 -1      1527 2.35267E+01-9.52853E-02 9.94169E-03 7.08045E-01 2.83402E-14 2.45165E-13
 -1      1528 2.36790E+01-1.38230E-01 3.51932E-02 1.18067E+00 7.45896E-14 2.17961E-13
 -1      1529 2.06927E+01 6.67202E-02-4.62732E-02 7.47534E-01 2.32540E-15 1.04514E-13
 -1      1530 2.18082E+01 1.55539E-02-1.26168E-02 7.45777E-01 3.20959E-14 1.33532E-13
 -1      1531 2.24511E+01 1.30356E-02 4.64578E-03 1.40680E+00 4.54532E-14 1.78406E-13
 -1      1532 1.94846E+01 1.33640E-01-8.89387E-02 3.32598E-01 9.19074E-14-3.85074E-14
 -1      1533 2.02053E+01 1.47942E-01-4.06616E-02 4.38971E-01 1.40860E-14-1.92901E-14
 -1      1534 2.12842E+01 2.19562E-01-3.53906E-02 1.03143E+00 5.66040E-14 6.64330E-14
 -1      1535 1.95526E+01 1.25433E-01-8.45105E-02-2.79012E-01 1.27377E-13-3.69829E-13
 -1      1536 1.94888E+01 2.10967E-01-5.21409E-02-1.14021E-01 1.45679E-13-1.30644E-13
 -1      1537 2.07723E+01 3.49737E-01-5.58587E-02 1.10761E-01 2.30854E-13-1.29225E-13
 -1      1538 2.08834E+01 5.03929E-02-3.26590E-02-7.40689E-01-8.08815E-15-6.51257E-13
 -1      1539 2.00582E+01 1.57487E-01-3.43292E-02-6.11141E-01 8.73416E-14-5.00475E-13
 -1      1540 2.12172E+01 2.82273E-01-4.68563E-02-8.84209E-01 2.43902E-13-3.61801E-13
 -1      1541 2.27932E+01-3.10915E-02 2.60420E-02-8.36187E-01-8.65738E-14-6.20198E-13
 -1      1542 2.16230E+01 3.85177E-02 4.10396E-04-7.98281E-01-5.87995E-14-6.64468E-13
 -1      1543 2.23786E+01 7.25590E-02-2.03792E-02-1.42161E+00-1.05332E-14-5.63615E-13
 -1      1544 2.44648E+01-7.21724E-02 5.50585E-02-6.17979E-01-7.57666E-14-5.22367E-13
 -1      1545 2.34386E+01-6.10499E-02 2.64238E-02-6.58224E-01-1.16691E-13-5.92346E-13
 -1      1546 2.36814E+01-1.24177E-01 1.68984E-03-1.33343E+00-1.26479E-13-5.54494E-13
 -1      1547 2.54300E+01-7.14579E-02 5.15711E-02-2.80310E-01 1.32064E-14-4.87055E-13
 -1      1548 2.48285E+01-1.00842E-01 3.21380E-02-3.52240E-01-1.22645E-14-4.96145E-13
 -1      1549 2.46331E+01-2.06174E-01 1.18190E-02-8.37475E-01-4.43725E-14-6.21884E-13
 -1      1550 2.56403E+01-4.94571E-02 3.26929E-02 1.61747E-02 8.02032E-14-6.81207E-13
 -1      1551 2.54911E+01-9.15124E-02 2.33318E-02-4.94400E-02 6.87558E-14-4.99094E-13
 -1      1552 2.50315E+01-1.85386E-01 1.25984E-02-2.56239E-01 7.44266E-14-5.10502E-13
 -1      1553 2.52907E+01-2.53075E-02 1.36203E-02 2.06165E-01-8.91665E-14-5.60330E-13
 -1      1554 2.54747E+01-6.13569E-02 1.09541E-02 1.62291E-01-5.49439E-14-6.77560E-13
 -1      1555 2.49250E+01-1.19755E-01 9.44380E-03 1.98752E-01 1.32706E-15-5.60905E-13
 -1      1556 2.46282E+01-7.43160E-03 8.81552E-04 2.94489E-01-7.52959E-14-2.91624E-13
 -1      1557 2.49955E+01-3.11659E-02 1.53041E-03 2.72022E-01-1.10247E-13-4.49063E-13
 -1      1558 2.44755E+01-5.55531E-02 5.70210E-03 4.65963E-01-1.64259E-13-5.56904E-13
 -1      1559 2.38518E+01 3.08908E-03-5.38600E-03 3.12002E-01-6.86537E-14-1.43004E-13
 -1      1560 2.42834E+01-9.21579E-03-3.35504E-03 3.04769E-01-3.82083E-14-1.64736E-13
 -1      1561 2.38517E+01-1.07340E-02 2.84491E-03 5.73162E-01-1.43393E-13-3.25601E-13
 -1      1562 2.30887E+01 8.05089E-03-7.34308E-03 2.89624E-01 6.54211E-14-7.55750E-14
 -1      1563 2.35104E+01 3.85671E-03-4.80478E-03 2.91299E-01 2.75127E-15-3.93401E-14
 -1      1564 2.31818E+01 1.42493E-02 1.06231E-03 5.74917E-01-5.77893E-14-7.80626E-17
 -1      1565 2.24054E+01 9.58925E-03-7.08919E-03 2.49525E-01 3.19764E-14-3.22634E-13
 -1      1566 2.27796E+01 1.02520E-02-4.43449E-03 2.55515E-01 1.18713E-13-1.27703E-13
 -1      1567 2.25458E+01 2.50446E-02 7.26450E-05 5.19973E-01 1.13489E-13 3.08733E-14
 -1      1568 2.18277E+01 9.31381E-03-5.97324E-03 2.04987E-01-1.63648E-13-3.94467E-14
 -1      1569 2.21410E+01 1.24464E-02-3.41456E-03 2.12483E-01-1.99132E-13-3.21181E-13
 -1      1570 2.19842E+01 2.74566E-02-4.33344E-04 4.41849E-01-1.40687E-13 1.39096E-13
 -1      1571 2.13579E+01 8.22789E-03-4.68954E-03 1.62891E-01-4.10366E-14 1.24477E-13
 -1      1572 2.16101E+01 1.23240E-02-2.35445E-03 1.70377E-01-3.23504E-14-4.00565E-14
 -1      1573 2.15116E+01 2.56341E-02-6.66341E-04 3.60173E-01-1.37933E-13 6.65069E-14
 -1      1574 2.09869E+01 6.88724E-03-3.52996E-03 1.26194E-01-4.75076E-15 7.29447E-14
 -1      1575 2.11842E+01 1.10948E-02-1.48759E-03 1.32957E-01-1.16708E-14 1.22435E-13
 -1      1576 2.11274E+01 2.20779E-02-7.48444E-04 2.84876E-01-6.19626E-14 5.86765E-14
 -1      1577 2.07005E+01 5.56888E-03-2.58250E-03 9.57051E-02-7.76664E-14 1.12985E-13
 -1      1578 2.08513E+01 9.45753E-03-8.56448E-04 1.01481E-01-1.14299E-14 9.24642E-14
 -1      1579 2.08232E+01 1.81268E-02-7.46647E-04 2.20020E-01-1.96097E-14 3.30622E-13
 -1      1580 2.04838E+01 4.39310E-03-1.84714E-03 7.11693E-02 1.38084E-13 2.00652E-13
 -1      1581 2.05968E+01 7.78146E-03-4.28872E-04 7.59305E-02-2.72254E-14 1.52633E-13
 -1      1582 2.05875E+01 1.44178E-02-6.98628E-04 1.66468E-01-3.98481E-14 2.63461E-13
 -1      1583 2.03231E+01 3.39863E-03-1.29317E-03 5.18819E-02 2.01298E-13-1.37437E-13
 -1      1584 2.04060E+01 6.24198E-03-1.54914E-04 5.57090E-02 2.23300E-13 1.10413E-13
 -1      1585 2.04085E+01 1.12029E-02-6.26843E-04 1.23521E-01 2.45433E-13 3.68606E-14
 -1      1586 2.02062E+01 2.58489E-03-8.84069E-04 3.70058E-02-5.66255E-14-2.96422E-13
 -1      1587 2.02658E+01 4.90807E-03 1.10518E-05 4.00223E-02 4.96719E-14-2.33073E-13
 -1      1588 2.02751E+01 8.54009E-03-5.45313E-04 8.98322E-02 1.84958E-13-6.21376E-14
 -1      1589 2.01231E+01 1.93434E-03-5.86736E-04 2.57251E-02 3.77720E-15-3.65941E-13
 -1      1590 2.01650E+01 3.79364E-03 1.04369E-04 2.80631E-02-4.15884E-15-3.77372E-13
 -1      1591 2.01776E+01 6.39862E-03-4.62893E-04 6.38883E-02 5.71552E-14-2.87633E-13
 -1      1592 2.00656E+01 1.42372E-03-3.73975E-04 1.73098E-02 9.41589E-14-5.17929E-13
 -1      1593 2.00941E+01 2.88610E-03 1.50416E-04 1.90942E-02 6.66700E-14-4.25570E-13
 -1      1594 2.01079E+01 4.71280E-03-3.85011E-04 4.42413E-02 8.10904E-14-3.92433E-13
 -1      1595 2.00272E+01 1.02933E-03-2.24402E-04 1.11376E-02 1.52135E-14-3.38602E-13
 -1      1596 2.00458E+01 2.16171E-03 1.66696E-04 1.24792E-02-4.47734E-14-4.19515E-13
 -1      1597 2.00594E+01 3.40859E-03-3.14736E-04 2.96057E-02-4.35847E-14-2.86848E-13
 -1      1598 2.00027E+01 7.29371E-04-1.21549E-04 6.69313E-03 6.04543E-14-5.11669E-13
 -1      1599 2.00142E+01 1.59341E-03 1.64986E-04 7.68663E-03 6.71309E-14-4.53107E-13
 -1      1600 2.00267E+01 2.41543E-03-2.53513E-04 1.88883E-02 1.49609E-13-4.44082E-13
 -1      1601 1.99882E+01 5.04760E-04-5.28676E-05 3.55905E-03 1.27163E-14-4.49691E-13
 -1      1602 1.99947E+01 1.15467E-03 1.53064E-04 4.28321E-03 1.45654E-14-3.88789E-13
 -1      1603 2.00057E+01 1.67085E-03-2.01691E-04 1.11857E-02 1.02029E-14-3.88572E-13
 -1      1604 1.99808E+01 3.39196E-04-8.84490E-06 1.40337E-03-3.52844E-14-4.94247E-13
 -1      1605 1.99837E+01 8.21191E-04 1.35965E-04 1.92248E-03 2.53229E-15-4.61134E-13
 -1      1606 1.99932E+01 1.12159E-03-1.58901E-04 5.76691E-03 1.31200E-14-1.01118E-15
 -1      1607 1.99782E+01 2.18924E-04 1.77195E-05-3.29697E-05-1.41323E-14-4.66523E-13
 -1      1608 1.99788E+01 5.71411E-04 1.16858E-04 3.32407E-04-3.05081E-14-5.16827E-13
 -1      1609 1.99866E+01 7.23165E-04-1.24308E-04 2.05221E-03-2.34878E-14-1.57338E-13
 -1      1610 1.99788E+01 1.32341E-04 3.23025E-05-9.47431E-04 1.62591E-14-5.99534E-13
 -1      1611 1.99779E+01 3.86476E-04 9.76516E-05-6.95851E-04 8.87342E-14-4.45854E-13
 -1      1612 1.99841E+01 4.38739E-04-9.67664E-05-4.09007E-04 1.01977E-13-6.41419E-14
 -1      1613 1.99815E+01 6.94950E-05 3.92545E-05-1.48531E-03 1.85497E-13-8.26309E-13
 -1      1614 1.99796E+01 2.49802E-04 7.94387E-05-1.31771E-03 1.06088E-13-6.06516E-13
 -1      1615 1.99843E+01 2.37737E-04-7.48663E-05-1.95738E-03 1.46619E-13-4.57212E-14
 -1      1616 1.99853E+01 2.12773E-05 4.27556E-05-1.74645E-03-1.50316E-14-1.15288E-12
 -1      1617 1.99829E+01 1.46151E-04 6.30301E-05-1.64250E-03 8.87520E-14-1.01566E-12
 -1      1618 1.99862E+01 9.41464E-05-5.66980E-05-2.83929E-03 2.38252E-13-4.30437E-13
 -1      1619 1.99895E+01-2.12876E-05 4.82259E-05-1.78831E-03-4.74275E-14-1.02157E-12
 -1      1620 1.99869E+01 6.02796E-05 4.98928E-05-1.73757E-03-1.02814E-13-1.17730E-12
 -1      1621 1.99891E+01-1.57401E-05-3.91349E-05-3.21692E-03-6.08044E-14-7.12401E-13
 -1      1622 1.99936E+01-6.78300E-05 6.16877E-05-1.62582E-03 4.83774E-14-1.01822E-12
 -1      1623 1.99912E+01-2.42837E-05 4.30104E-05-1.62926E-03 4.24128E-14-1.00272E-12
 -1      1624 1.99924E+01-1.16315E-04-1.74345E-05-3.17261E-03-1.30305E-14-5.79129E-13
 -1      1625 1.99970E+01-1.29452E-04 7.88143E-05-1.22728E-03 4.41358E-14-1.07040E-12
 -1      1626 1.99951E+01-1.27018E-04 4.41715E-05-1.30399E-03 6.40700E-14-9.36492E-13
 -1      1627 1.99954E+01-2.36061E-04 1.18056E-05-2.71024E-03 7.35463E-14-4.00810E-13
 -1      1628 1.99991E+01-2.16636E-04 3.74316E-05-5.76934E-04 5.55688E-14-1.12813E-12
 -1      1629 1.99980E+01-2.46471E-04 4.39506E-05-7.27614E-04 2.13622E-14-1.15978E-12
 -1      1630 1.99979E+01-4.08105E-04 4.04901E-05-1.78059E-03 1.63561E-13-4.99055E-13
 -1      1631 1.99996E+01-2.22567E-04 3.44916E-05-1.14529E-04-6.01381E-13-6.13035E-13
 -1      1632 1.99996E+01-2.25550E-03 3.35055E-05-1.06491E-03-1.67962E-13 3.58629E-13
 -1      1633 1.99995E+01-1.13869E-03 1.08154E-05-8.90613E-04-7.65509E-13 5.00397E-13
 -1      1634 1.99997E+01-5.13072E-03 4.84425E-06-1.49983E-03 2.45445E-13 2.71124E-13
 -1      1635 1.99997E+01-3.37277E-03 2.00599E-05-1.44454E-03-3.05383E-14 9.96758E-14
 -1      1636 1.99994E+01-2.77016E-03 3.40888E-05-2.39636E-03-1.29569E-13 3.85321E-13
 -1      1637 1.99998E+01-8.34810E-03-1.06583E-05-1.58849E-03 3.58906E-13 3.36685E-15
 -1      1638 1.99998E+01-6.41753E-03 4.51779E-06-1.59902E-03 2.93200E-13 1.37520E-13
 -1      1639 1.99997E+01-5.13527E-03 8.75590E-06-2.95876E-03 2.26083E-13 2.51357E-13
 -1      1640 1.99999E+01-1.13977E-02-1.44492E-05-1.43396E-03 2.30263E-13-1.57103E-13
 -1      1641 1.99999E+01-9.61881E-03-3.74172E-06-1.48356E-03 1.52659E-13 5.24078E-14
 -1      1642 1.99999E+01-7.64108E-03-1.56708E-05-2.93999E-03 1.68682E-13-1.45806E-13
 -1      1643 1.99999E+01-1.38907E-02-1.25807E-05-1.13952E-03 1.85117E-14 9.00482E-15
 -1      1644 1.99999E+01-1.24763E-02-4.43256E-06-1.20697E-03 2.30699E-13-2.47080E-13
 -1      1645 2.00000E+01-9.93478E-03-3.09812E-05-2.53262E-03 9.74583E-14-3.38516E-13
 -1      1646 2.00000E+01-1.57136E-02-8.96488E-06-7.65803E-04 2.56795E-13-3.47520E-15
 -1      1647 1.99999E+01-1.47237E-02-3.90508E-06-8.43118E-04 1.14310E-13 2.01071E-13
 -1      1648 2.00000E+01-1.17931E-02-3.73317E-05-1.90446E-03 1.42293E-13 6.38548E-14
 -1      1649 2.00000E+01-1.67155E-02-5.53252E-06-3.60377E-04-6.21512E-14-2.09596E-13
 -1      1650 1.99999E+01-1.62217E-02-2.97745E-06-4.40091E-04 2.60271E-13-1.94228E-13
 -1      1651 2.00001E+01-1.30908E-02-3.99346E-05-1.15986E-03 1.09459E-13-1.07034E-13
 -1      1652 2.00000E+01-1.68618E-02-3.38903E-06 5.39248E-05-3.70751E-14 2.17116E-13
 -1      1653 2.00000E+01-1.68783E-02-3.43987E-06-2.58364E-05-1.62376E-13 2.92965E-13
 -1      1654 2.00001E+01-1.37394E-02-4.03874E-05-3.71697E-04 1.41909E-13-5.62642E-14
 -1      1655 1.99999E+01-1.61507E-02-2.74748E-06 4.65028E-04-1.44444E-13-1.15061E-13
 -1      1656 2.00000E+01-1.66748E-02-5.47990E-06 3.86396E-04-9.55223E-14 6.97438E-14
 -1      1657 2.00001E+01-1.37152E-02-4.00931E-05 4.23871E-04 8.24121E-14 1.14901E-13
 -1      1658 1.99999E+01-1.46115E-02-3.42979E-06 8.60378E-04-1.89065E-13-1.38025E-13
 -1      1659 1.99999E+01-1.56228E-02-9.04745E-06 7.85084E-04-9.56306E-14-1.02404E-13
 -1      1660 2.00001E+01-1.30228E-02-3.90458E-05 1.20268E-03-1.01945E-13-6.42398E-14
 -1      1661 1.99999E+01-1.23626E-02-4.70030E-06 1.21006E-03-4.19564E-13 2.06803E-13
 -1      1662 1.99999E+01-1.37848E-02-1.26945E-05 1.14532E-03-2.01430E-13-4.72397E-14
 -1      1663 2.00000E+01-1.17073E-02-3.62854E-05 1.92536E-03-8.52649E-14-1.68204E-13
 -1      1664 1.99999E+01-9.48411E-03-3.54090E-06 1.47952E-03-3.18793E-13 9.40181E-15
 -1      1665 1.99999E+01-1.12614E-02-1.46556E-05 1.43214E-03-4.33429E-13 2.55845E-13
 -1      1666 2.00000E+01-9.83595E-03-2.93060E-05 2.53435E-03-1.39667E-13 1.76903E-13
 -1      1667 1.99998E+01-6.30954E-03 2.50462E-06 1.59183E-03-3.54924E-13 2.66210E-13
 -1      1668 1.99998E+01-8.22143E-03-1.08478E-05 1.57795E-03-4.16856E-13 1.55835E-13
 -1      1669 1.99999E+01-7.52943E-03-1.46714E-05 2.92528E-03-5.00689E-14 6.95453E-14
 -1      1670 1.99997E+01-3.35037E-03 2.25289E-06 1.41967E-03-3.25232E-13 3.78864E-14
 -1      1671 1.99997E+01-5.04220E-03 1.95370E-06 1.47322E-03-3.33239E-13 1.90224E-13
 -1      1672 1.99997E+01-5.03371E-03 7.36126E-06 2.92911E-03-1.27470E-13 3.02231E-13
 -1      1673 1.99994E+01-1.35997E-03-1.62938E-05 1.22294E-03-1.66124E-13-2.21788E-14
 -1      1674 1.99995E+01-2.44911E-03 7.30104E-07 1.47832E-03-1.86805E-13-1.25891E-13
 -1      1675 1.99994E+01-2.83435E-03 5.85726E-05 2.71768E-03-8.57211E-14 2.18364E-13
 -1      1676 1.99986E+01-1.27569E-03 2.06337E-05 2.31319E-03-6.53043E-14 8.14345E-14
 -1      1677-5.21712E-01-1.39685E+01-1.54026E+00-8.93820E-01 5.32796E-13 8.19622E-13
 -1      1678-5.27234E-01-1.59888E+01-1.70380E+00 2.72818E-01-4.25909E-13 5.40457E-13
 -1      1679 1.20625E+00-8.40703E+00-1.22036E+00 2.54489E-01 2.04947E-12 1.56192E-12
 -1      1680 5.95682E-01-1.31345E+01-1.66601E+00-1.97647E-01 9.72111E-13 1.02341E-12
 -1      1681 7.58331E+00-1.07595E+00-5.28764E-01 4.66144E+00 2.71250E-12 2.25819E-12
 -1      1682 4.34408E+00-6.61418E+00-1.25483E+00 1.79225E+00 2.26597E-12 1.69020E-12
 -1      1683 1.72953E+01 4.74107E+00 1.92933E-01 9.45492E+00 2.66343E-12 2.66609E-12
 -1      1684 1.08672E+01 1.28231E+00-7.08656E-01 5.77043E+00 2.90989E-12 2.41784E-12
 -1      1685 3.31882E+01 5.83498E+00 1.02452E+00 1.20702E+01 1.73961E-12 2.53197E-12
 -1      1686 2.31371E+01 5.33209E+00 6.79882E-02 9.93144E+00 2.36100E-12 2.59837E-12
 -1      1687 4.75792E+01 4.83733E+00 1.70874E+00 1.01375E+01 1.12768E-12 1.65246E-12
 -1      1688 3.85872E+01 6.44826E+00 9.94098E-01 1.19483E+01 1.57613E-12 2.39808E-12
 -1      1689 5.52862E+01 3.55698E+00 1.95621E+00 2.94824E+00 5.75623E-13 2.97928E-13
 -1      1690 5.08515E+01 4.71914E+00 1.65027E+00 7.91316E+00 8.81531E-13 1.15941E-12
 -1      1691 5.42499E+01 4.02121E+00 1.81185E+00-5.34567E+00 5.83644E-13-8.59313E-13
 -1      1692 5.62991E+01 3.49192E+00 2.00176E+00 3.29162E-01 4.69125E-13-6.42472E-14
 -1      1693 4.28367E+01 5.78739E+00 1.06042E+00-9.95638E+00 1.20259E-12-1.73239E-12
 -1      1694 5.05221E+01 4.28792E+00 1.67241E+00-6.74981E+00 8.08367E-13-1.11289E-12
 -1      1695 2.92109E+01 5.80224E+00 3.69508E-01-1.05975E+01 1.83287E-12-2.25042E-12
 -1      1696 3.85352E+01 5.15316E+00 1.08799E+00-1.10672E+01 1.31761E-12-1.93334E-12
 -1      1697 1.53353E+01 3.76466E+00-3.92414E-01-7.91736E+00 2.47602E-12-2.36300E-12
 -1      1698 2.33660E+01 5.80731E+00 4.80158E-01-1.12620E+01 2.13607E-12-2.54929E-12
 -1      1699 6.53348E+00-3.91752E+00-1.10267E+00-3.01857E+00 2.14018E-12-1.65779E-12
 -1      1700 1.13305E+01 1.34082E+00-2.55479E-01-6.68316E+00 2.32769E-12-2.23832E-12
 -1      1701 1.17043E+00-1.13989E+01-1.69903E+00 1.40073E-01 1.77003E-12-9.58247E-13
 -1      1702 2.41633E+00-5.79300E+00-1.09158E+00-1.25091E+00 2.19647E-12-1.50024E-12
 -1      1703-3.58344E-01-1.63608E+01-1.87900E+00 1.62909E-01 5.90972E-13-6.35936E-13
 -1      1704-2.64210E-01-1.30221E+01-1.59056E+00 9.54706E-01 1.45406E-12-8.61616E-13
 -1      1705-7.66877E-01-1.64405E+01-1.83811E+00-8.59639E-01-7.54063E-13-5.89639E-13
 -1      1706-7.73240E-01-1.71461E+01-1.90352E+00 7.62398E-01 2.25042E-13-5.04763E-13
 -1      1707 3.08877E-01-1.10194E+01-1.40905E+00-3.31319E-01-1.92013E-12-1.16045E-12
 -1      1708 8.10324E-03-1.51547E+01-1.80571E+00-9.20505E-02-1.08458E-12-7.28473E-13
 -1      1709 4.19885E+00-3.40509E+00-8.19063E-01 2.80169E+00-2.61391E-12-1.81088E-12
 -1      1710 2.21373E+00-9.16217E+00-1.50249E+00 7.03545E-01-2.14184E-12-1.34476E-12
 -1      1711 1.49061E+01 2.58764E+00 3.11985E-02 8.19643E+00-2.32503E-12-2.26696E-12
 -1      1712 9.20333E+00-1.84638E+00-7.86307E-01 4.46810E+00-2.44160E-12-1.83042E-12
 -1      1713 2.71253E+01 6.42156E+00 7.31063E-01 1.21325E+01-2.07823E-12-2.78200E-12
 -1      1714 1.86510E+01 5.38364E+00-6.43093E-02 9.44861E+00-2.46625E-12-2.64677E-12
 -1      1715 4.16271E+01 5.05935E+00 1.24399E+00 1.02394E+01-1.28031E-12-2.23965E-12
 -1      1716 3.26742E+01 6.16442E+00 6.11566E-01 1.07598E+01-1.69098E-12-2.48646E-12
 -1      1717 5.24379E+01 3.93896E+00 1.80980E+00 6.19739E+00-7.42517E-13-1.74988E-12
 -1      1718 4.64133E+01 5.53813E+00 1.38447E+00 1.01996E+01-1.16403E-12-2.37166E-12
 -1      1719 5.39403E+01 3.77165E+00 1.74001E+00-2.03630E+00-7.03326E-13-2.15022E-13
 -1      1720 5.34198E+01 3.92289E+00 1.70933E+00 3.53316E+00-7.42101E-13-1.20870E-12
 -1      1721 4.86034E+01 5.02889E+00 1.52295E+00-9.19617E+00-7.93768E-13 1.10645E-12
 -1      1722 5.35275E+01 3.62836E+00 1.82001E+00-4.77457E+00-5.73069E-13 2.42528E-13
 -1      1723 3.63593E+01 6.78842E+00 9.06522E-01-1.22067E+01-1.48248E-12 2.02549E-12
 -1      1724 4.49681E+01 5.31678E+00 1.58419E+00-1.09330E+01-1.00189E-12 1.47193E-12
 -1      1725 2.26736E+01 5.10747E+00 9.30338E-02-9.61728E+00-2.11475E-12 2.14750E-12
 -1      1726 3.14694E+01 5.60110E+00 8.62402E-01-1.15915E+01-1.59517E-12 1.97153E-12
 -1      1727 1.03756E+01 1.51740E+00-6.84453E-01-5.79928E+00-2.90812E-12 2.19902E-12
 -1      1728 1.66364E+01 4.79071E+00 1.24077E-01-9.45547E+00-2.55840E-12 2.42095E-12
 -1      1729 3.57771E+00-6.04306E+00-1.29354E+00-1.55819E+00-2.45659E-12 1.65745E-12
 -1      1730 6.48092E+00-4.56055E-01-5.75466E-01-4.35657E+00-2.90101E-12 2.19536E-12
 -1      1731 7.17875E-01-1.30782E+01-1.62645E+00-1.26749E-01-1.49702E-12 8.46309E-13
 -1      1732 1.42755E+00-8.14845E+00-1.16143E+00-6.71016E-01-2.15916E-12 1.44909E-12
 -1      1733-6.50018E-01-1.68277E+01-1.85964E+00-4.46723E-01-8.57731E-13 2.98928E-13
 -1      1734-6.77033E-01-1.48195E+01-1.69405E+00 9.79893E-01-1.42431E-12 5.67657E-13
 -1      1735 2.50370E+01 5.22642E-01 2.55147E-01 7.06629E+00 1.62970E-12 1.44440E-12
 -1      1736 1.44809E+01-3.70133E+00-3.99047E-01 6.22503E+00 1.46605E-12 1.59095E-12
 -1      1737 1.99995E+01-5.04521E-04 5.75149E-05-5.88104E-04-7.13363E-13-1.76598E-13
 -1      1738 1.99990E+01-1.10908E-03 3.11559E-05-1.53586E-03-1.80353E-13 2.78151E-13
 -1      1739 6.28553E-01-9.83067E+00-1.10860E+00 2.28712E+00 3.40283E-13 1.52800E-12
 -1      1740 6.27205E+00-7.37433E+00-8.06218E-01 4.66129E+00 1.02540E-12 1.68133E-12
 -1      1741-1.24200E+00-1.09698E+01-1.21360E+00 3.62700E-02-3.77656E-13 8.83793E-13
 -1      1742 3.58427E+01 3.92101E+00 8.60787E-01 6.29872E+00 1.38131E-12 1.24500E-12
 -1      1743 4.42973E+01 6.35931E+00 1.40265E+00 4.25262E+00 1.25266E-12 6.05072E-13
 -1      1744 4.79984E+01 7.37268E+00 1.64673E+00 6.15577E-01 1.00742E-12 4.57412E-14
 -1      1745 4.53312E+01 7.03546E+00 1.39360E+00-2.27406E+00 1.05899E-12-5.11646E-13
 -1      1746 3.85062E+01 4.59802E+00 8.69006E-01-4.26907E+00 1.12393E-12-7.08655E-13
 -1      1747 2.96454E+01 1.99048E+00 5.52244E-01-6.79566E+00 1.30657E-12-1.19760E-12
 -1      1748 1.86516E+01-2.03335E+00-1.46009E-01-6.78970E+00 1.24567E-12-1.39844E-12
 -1      1749 9.05523E+00-6.12176E+00-6.47405E-01-5.35068E+00 1.07669E-12-1.30376E-12
 -1      1750 1.87535E+00-9.71019E+00-1.14502E+00-2.82367E+00 8.05800E-13-1.13876E-12
 -1      1751-1.17770E+00-1.16201E+01-1.34846E+00-7.19621E-01 1.93373E-13-1.07941E-12
 -1      1752-6.13577E-01-1.12311E+01-1.30063E+00 1.65497E+00-5.09481E-13-1.14042E-12
 -1      1753 3.50305E+00-8.53884E+00-9.76241E-01 3.86325E+00-9.71778E-13-1.34057E-12
 -1      1754 1.20238E+01-4.91889E+00-3.66668E-01 6.25886E+00-1.22991E-12-1.32117E-12
 -1      1755 2.15492E+01-1.05057E+00-1.35602E-02 7.02757E+00-1.34248E-12-1.46450E-12
 -1      1756 3.19916E+01 3.16837E+00 7.11741E-01 6.53964E+00-1.29011E-12-1.46927E-12
 -1      1757 4.00854E+01 5.48188E+00 9.61822E-01 4.40859E+00-1.13459E-12-1.33960E-12
 -1      1758 4.59000E+01 7.25902E+00 1.45940E+00 2.26892E+00-1.12471E-12-9.63674E-13
 -1      1759 4.63552E+01 7.34592E+00 1.48759E+00-1.58155E+00-1.07148E-12-3.27738E-13
 -1      1760 4.27063E+01 6.23958E+00 1.31131E+00-5.12190E+00-1.06681E-12 4.75397E-13
 -1      1761 3.40602E+01 3.49325E+00 6.38843E-01-6.23528E+00-1.26066E-12 8.51319E-13
 -1      1762 2.43572E+01 6.24744E-01 2.95013E-01-7.13409E+00-1.44812E-12 9.84990E-13
 -1      1763 1.34852E+01-2.87739E+00-3.53913E-01-6.35159E+00-1.62603E-12 1.38956E-12
 -1      1764 5.62446E+00-7.18662E+00-8.67149E-01-4.51231E+00-1.11300E-12 1.49792E-12
 -1      1765 5.89434E-01-1.00911E+01-1.11136E+00-2.51471E+00-8.71525E-13 9.49851E-13
 -1      1766 2.30890E+01 1.95737E+00-2.64069E-02-2.52813E+00-3.31672E-13 1.50452E-12
 -1      1767 2.00385E+01 3.75741E+00-3.65024E-02-1.77180E+00-4.51084E-13-3.58914E-13
 -1      1768 2.03363E+01 3.58656E+00-3.96035E-02-2.06589E+00-5.08836E-13-2.06307E-13
 -1      1769 2.06987E+01 3.17738E+00-4.56401E-02-2.23620E+00-5.04396E-13-1.74027E-14
 -1      1770 2.09543E+01 2.79010E+00-1.36007E-01-2.52549E+00-5.31339E-13 2.45276E-13
 -1      1771 2.07578E+01 2.71033E+00-1.32280E-03-1.83929E+00-5.29551E-13-8.81864E-14
 -1      1772 1.92373E+01 4.32215E+00-2.10283E-02-9.29518E-01-2.57363E-13-6.38729E-13
 -1      1773 1.93967E+01 4.27388E+00-1.41405E-02-1.13107E+00-3.10631E-13-5.98811E-13
 -1      1774 1.89846E+01 4.46932E+00-1.68385E-02-5.90677E-01-1.63226E-13-6.96091E-13
 -1      1775 1.91027E+01 4.43847E+00-1.10609E-02-7.63708E-01-2.09174E-13-6.69758E-13
 -1      1776 1.93407E+01 3.98661E+00-7.64279E-03-7.77024E-01-2.51995E-13-6.20297E-13
 -1      1777 1.88174E+01 4.56277E+00-1.39359E-02-2.97158E-01-6.79107E-14-7.07731E-13
 -1      1778 1.88917E+01 4.54482E+00-1.00339E-02-4.48071E-01-1.15442E-13-7.06704E-13
 -1      1779 1.90849E+01 4.16190E+00-6.93256E-03-4.74479E-01-1.47384E-13-6.67985E-13
 -1      1780 1.87397E+01 4.60957E+00-1.19266E-02-3.20857E-02 3.47138E-14-7.10425E-13
 -1      1781 1.87677E+01 4.60254E+00-1.02855E-02-1.70854E-01-1.32050E-14-7.11450E-13
 -1      1782 1.89242E+01 4.26715E+00-6.35864E-03-2.09986E-01-4.13748E-14-6.82793E-13
 -1      1783 1.87567E+01 4.61067E+00-1.06801E-02 2.23977E-01 1.26925E-13-6.93796E-13
 -1      1784 1.87360E+01 4.61443E+00-1.15154E-02 8.69134E-02 8.46858E-14-7.02202E-13
 -1      1785 1.88638E+01 4.30805E+00-6.02436E-03 3.13561E-02 6.44525E-14-6.77041E-13
 -1      1786 1.88709E+01 4.56315E+00-1.03277E-02 4.92100E-01 2.15974E-13-6.73531E-13
 -1      1787 1.88006E+01 4.57909E+00-1.36245E-02 3.45760E-01 1.74511E-13-6.87219E-13
 -1      1788 1.89085E+01 4.28395E+00-6.03163E-03 2.67877E-01 1.62938E-13-6.66191E-13
 -1      1789 1.90776E+01 4.46311E+00-1.11410E-02 7.88570E-01 3.03579E-13-6.14876E-13
 -1      1790 1.89605E+01 4.49288E+00-1.67607E-02 6.24635E-01 2.55149E-13-6.55222E-13
 -1      1791 1.90589E+01 4.19129E+00-6.26634E-03 5.16993E-01 2.52801E-13-6.30840E-13
 -1      1792 1.93847E+01 4.29349E+00-1.40657E-02 1.14458E+00 4.13426E-13-5.18547E-13
 -1      1793 1.92158E+01 4.34511E+00-2.13574E-02 9.45344E-01 3.55824E-13-5.75814E-13
 -1      1794 1.93149E+01 4.01999E+00-6.85967E-03 7.99146E-01 3.58382E-13-5.58189E-13
 -1      1795 1.98013E+01 4.02242E+00-2.18642E-02 1.57327E+00 5.02231E-13-3.47011E-13
 -1      1796 1.95741E+01 4.11206E+00-2.85147E-02 1.32847E+00 4.51313E-13-4.51889E-13
 -1      1797 1.96831E+01 3.74746E+00-7.01314E-03 1.12954E+00 4.58634E-13-4.47295E-13
 -1      1798 2.03718E+01 3.56301E+00-4.13700E-02 2.07239E+00 5.59637E-13-4.22648E-14
 -1      1799 2.00564E+01 3.74058E+00-4.09551E-02 1.77609E+00 5.13799E-13-2.22117E-13
 -1      1800 2.01790E+01 3.32937E+00-4.32307E-03 1.50124E+00 5.34190E-13-2.47739E-13
 -1      1801 2.12971E+01 2.67036E+00-5.36018E-02 2.51106E+00 5.39597E-13 5.08246E-13
 -1      1802 2.07642E+01 3.10226E+00-5.01109E-02 2.24159E+00 5.45857E-13 1.81251E-13
 -1      1803 2.08515E+01 2.64605E+00 3.35491E-03 1.83448E+00 5.57461E-13 7.96377E-14
 -1      1804 2.20961E+01 1.19467E+00-1.18625E-01 2.06222E+00 4.42646E-13 1.17839E-12
 -1      1805 2.16561E+01 2.23908E+00-4.34858E-04 2.42833E+00 4.85424E-13 7.37715E-13
 -1      1806 2.13677E+01 1.68520E+00-1.87347E-02 1.78718E+00 5.40961E-13 5.11154E-13
 -1      1807 2.14176E+01 7.72159E-01-5.70665E-02 1.25727E+00 4.51021E-13 1.03879E-12
 -1      1808 2.21304E+01 2.42134E+00 8.74935E-02-2.77767E+00-4.50083E-13 7.02105E-13
 -1      1809 2.07721E+01 3.14965E-01-4.78868E-03 3.74164E-01 3.53627E-13 8.20292E-13
 -1      1810 2.12002E+01 4.48717E-01-1.00505E-02 7.61157E-01 3.83034E-13 9.57324E-13
 -1      1811 2.12657E+01 8.48149E-01 1.14871E-04 1.08533E+00 4.54931E-13 6.49593E-13
 -1      1812 2.18777E+01 1.72554E+00 7.79742E-02-2.03861E+00-4.86174E-13 5.07004E-13
 -1      1813 2.10765E+01 5.13346E-01 3.31522E-02-6.21486E-01-3.92672E-13 4.34849E-13
 -1      1814 2.07582E+01 3.75365E-01 1.13084E-02-3.19893E-01-3.42271E-13 3.29485E-13
 -1      1815 2.06420E+01 2.87447E-01 2.76649E-02-5.78462E-02-2.96914E-13 3.17990E-13
 -1      1816 2.05771E+01 2.14749E-01 1.33826E-02 9.92417E-02-2.55337E-13 2.32359E-13
 -1      1817 2.08218E+01 5.22048E-01-7.99898E-03-3.14999E-01-3.84184E-13 1.13372E-13
 -1      1818 2.05504E+01 1.72239E-01 1.69274E-02 2.62240E-01-2.08777E-13 2.15881E-13
 -1      1819 2.06152E+01 1.34240E-01 9.39486E-03 3.56361E-01-1.62748E-13 1.51297E-13
 -1      1820 2.06740E+01 2.99426E-01-7.62205E-03 1.71408E-01-2.85160E-13 8.43704E-14
 -1      1821 2.06621E+01 1.07560E-01 9.11275E-03 4.60097E-01-1.21801E-13 1.18427E-13
 -1      1822 2.08060E+01 8.10539E-02 5.52873E-03 5.17345E-01-1.19856E-13 8.40669E-14
 -1      1823 2.07005E+01 1.83414E-01-6.47352E-03 4.75598E-01-1.90666E-13 2.27830E-14
 -1      1824 2.09072E+01 5.82320E-02 4.63368E-03 5.78726E-01-1.25410E-13 8.46981E-14
 -1      1825 2.10949E+01 3.21957E-02 1.94529E-03 6.06039E-01-9.74945E-14 4.63876E-14
 -1      1826 2.08542E+01 1.03226E-01-5.21225E-03 6.65155E-01-1.40057E-13-3.38336E-14
 -1      1827 2.12336E+01 6.47594E-03 2.00672E-03 6.27707E-01-9.81354E-14 4.97965E-14
 -1      1828 2.14351E+01-2.56988E-02-2.04007E-03 6.22291E-01-8.70616E-14 2.43995E-14
 -1      1829 2.10979E+01 2.58256E-02-3.85489E-03 7.62701E-01-1.04770E-13-2.54677E-14
 -1      1830 2.15958E+01-5.84336E-02 2.73355E-04 5.97869E-01-1.01856E-13 3.99277E-14
 -1      1831 2.17799E+01-1.00298E-01-6.68444E-03 5.51486E-01-9.91162E-14 2.67581E-14
 -1      1832 2.13985E+01-6.74887E-02-2.43849E-03 7.64893E-01-9.39689E-14-1.68823E-14
 -1      1833 2.19456E+01-1.41132E-01-1.05835E-03 4.69751E-01-1.24452E-13 6.23997E-14
 -1      1834 2.20776E+01-1.91445E-01-1.15412E-02 3.72996E-01-9.46361E-14 7.29135E-14
 -1      1835 2.17231E+01-1.85632E-01-7.83827E-04 6.52861E-01-1.00255E-13 6.17778E-16
 -1      1836 2.22268E+01-2.35944E-01-2.31167E-03 2.24084E-01-7.62290E-14 5.00821E-14
 -1      1837 2.22702E+01-2.85073E-01-1.52690E-02 7.34210E-02-9.64541E-14 4.38104E-15
 -1      1838 2.20336E+01-3.23241E-01 1.46731E-03 4.03249E-01-1.33423E-13 2.46125E-14
 -1      1839 2.23741E+01-3.19923E-01-3.82152E-03-1.40551E-01-1.02414E-13 7.51287E-15
 -1      1840 2.22990E+01-3.46689E-01-1.56273E-02-3.32207E-01-4.23914E-14-2.53942E-14
 -1      1841 2.22811E+01-4.51410E-01 4.62720E-03 6.11483E-03-9.88749E-14 8.52879E-14
 -1      1842 2.23224E+01-3.48476E-01-5.71078E-03-5.82219E-01 6.68215E-15-1.89000E-14
 -1      1843 2.21197E+01-3.23001E-01-1.03075E-02-7.74411E-01 1.39697E-14-3.21791E-16
 -1      1844 2.24051E+01-5.10920E-01 8.52344E-03-5.07424E-01-2.43711E-14 7.82588E-14
 -1      1845 2.20323E+01-2.65591E-01-7.62279E-03-9.91890E-01 2.92301E-14 6.30225E-15
 -1      1846 2.17301E+01-1.65845E-01 7.04145E-04-1.11499E+00 1.93717E-14-2.06267E-14
 -1      1847 2.23431E+01-4.22700E-01 1.16003E-02-1.03368E+00 2.15405E-14 4.63965E-14
 -1      1848 2.15342E+01-4.17932E-02-7.76155E-03-1.19998E+00-1.51285E-14 1.36523E-15
 -1      1849 2.12051E+01 1.18195E-01 1.31838E-02-1.17801E+00-4.96755E-14 4.14642E-14
 -1      1850 2.20668E+01-1.36898E-01 9.80115E-03-1.38588E+00 4.04581E-15 5.94060E-14
 -1      1851 2.09655E+01 2.73486E-01-3.24901E-03-1.04663E+00-8.54742E-14-2.52263E-14
 -1      1852 2.07115E+01 4.28934E-01 2.00520E-02-8.45893E-01-9.06306E-14-3.38440E-14
 -1      1853 2.16391E+01 2.98119E-01 6.50408E-04-1.35084E+00-1.06153E-13 6.66134E-15
 -1      1854 2.05466E+01 5.39633E-01 6.43482E-03-5.01164E-01-1.16216E-13-1.35287E-13
 -1      1855 2.04595E+01 6.03823E-01 1.66128E-02-1.74053E-01-1.72773E-13-1.78783E-13
 -1      1856 2.12387E+01 7.08140E-01-1.18941E-02-8.24877E-01-1.56632E-13-8.59688E-14
 -1      1857 2.04709E+01 6.01990E-01 1.63982E-02 2.59408E-01-2.10993E-13-2.04206E-13
 -1      1858 2.05876E+01 5.35539E-01 6.22369E-03 5.84687E-01-1.62089E-13-2.83176E-13
 -1      1859 2.10857E+01 8.74309E-01-1.84375E-02 5.40730E-02-2.23152E-13-1.43852E-13
 -1      1860 2.07726E+01 4.24446E-01 1.94181E-02 9.26240E-01-1.44873E-13-3.50333E-13
 -1      1861 2.10553E+01 2.69740E-01-3.22160E-03 1.12480E+00-1.30117E-13-3.43709E-13
 -1      1862 2.12812E+01 7.01456E-01-1.25718E-02 9.28225E-01-2.10543E-13-1.97683E-13
 -1      1863 2.13136E+01 1.15740E-01 1.26492E-02 1.25398E+00-7.61032E-14-4.03648E-13
 -1      1864 2.16709E+01-4.17859E-02-7.31690E-03 1.27531E+00-1.30368E-14-4.42154E-13
 -1      1865 2.17210E+01 2.94457E-01 6.33958E-04 1.44828E+00-1.50073E-13-3.32315E-13
 -1      1866 2.18840E+01-1.63452E-01 1.71277E-04 1.19112E+00 3.68741E-14-4.28506E-13
 -1      1867 2.22154E+01-2.60044E-01-7.02878E-03 1.07034E+00 1.11145E-13-3.64564E-13
 -1      1868 2.21850E+01-1.34915E-01 9.63262E-03 1.48142E+00-3.57180E-15-3.67467E-13
 -1      1869 2.23207E+01-3.15042E-01-1.06694E-02 8.57619E-01 1.48904E-13-3.54123E-13
 -1      1870 2.25551E+01-3.38004E-01-5.00811E-03 6.70752E-01 1.19342E-13-3.07316E-13
 -1      1871 2.24972E+01-4.12834E-01 1.12448E-02 1.13534E+00 1.26348E-13-3.26144E-13
 -1      1872 2.25516E+01-3.34904E-01-1.58017E-02 4.28366E-01 1.96518E-14-2.16069E-13
 -1      1873 2.26621E+01-3.07031E-01-3.11409E-03 2.43763E-01 9.55312E-14-2.76122E-13
 -1      1874 2.25981E+01-4.94403E-01 8.39333E-03 6.22909E-01 6.73350E-14-2.79385E-13
 -1      1875 2.25798E+01-2.72269E-01-1.54579E-02 3.81225E-02 7.09337E-14-2.64869E-13
 -1      1876 2.25756E+01-2.23576E-01-1.82118E-03-1.05430E-01 3.83370E-14-2.96488E-13
 -1      1877 2.25168E+01-4.32367E-01 4.65021E-03 1.26811E-01 7.14667E-14-2.50168E-13
 -1      1878 2.24480E+01-1.80567E-01-1.19134E-02-2.47597E-01 1.77714E-14-3.18401E-13
 -1      1879 2.23577E+01-1.32319E-01-9.34129E-04-3.38956E-01-3.05376E-14-3.05480E-13
 -1      1880 2.23137E+01-3.05906E-01 1.77888E-03-2.54218E-01 6.63792E-14-2.80424E-13
 -1      1881 2.22108E+01-9.45614E-02-7.42144E-03-4.18117E-01-1.05675E-13-3.34407E-13
 -1      1882 2.20675E+01-5.67592E-02-2.77522E-04-4.62886E-01-1.12325E-13-2.87652E-13
 -1      1883 2.20451E+01-1.74776E-01-7.38185E-06-4.94562E-01-4.62475E-14-3.68106E-13
 -1      1884 2.19182E+01-2.91495E-02-3.38485E-03-4.92153E-01-6.77874E-14-2.14140E-13
 -1      1885 2.17510E+01-3.91810E-03 2.39517E-04-5.02477E-01-7.18148E-14-2.44238E-13
 -1      1886 2.17525E+01-6.89621E-02-1.01478E-03-6.10778E-01-4.69716E-14-2.87276E-13
 -1      1887 2.16096E+01 1.36070E-02-3.73927E-04-4.97771E-01-1.31455E-13-1.88105E-13
 -1      1888 2.14399E+01 2.80091E-02 6.32456E-04-4.86120E-01-1.52443E-13-2.61867E-13
 -1      1889 2.14633E+01 3.61966E-03-1.54478E-03-6.35239E-01-6.90673E-14-2.33082E-13
 -1      1890 2.13121E+01 3.75281E-02 1.55811E-03-4.61359E-01-1.17620E-13-2.96693E-13
 -1      1891 2.11537E+01 4.40184E-02 8.96895E-04-4.37808E-01 6.44949E-15-2.71525E-13
 -1      1892 2.11940E+01 4.65276E-02-1.78980E-03-6.00712E-01-1.06432E-13-3.13056E-13
 -1      1893 2.10421E+01 4.79585E-02 2.59723E-03-4.03375E-01-4.81234E-15-2.83518E-13
 -1      1894 2.09023E+01 4.93021E-02 1.03862E-03-3.75021E-01 1.56830E-15-3.22407E-13
 -1      1895 2.09536E+01 6.72282E-02-1.85664E-03-5.33774E-01-5.28429E-14-3.27856E-13
 -1      1896 2.08077E+01 4.97310E-02 2.99392E-03-3.37860E-01-6.57658E-14-3.26504E-13
 -1      1897 2.06895E+01 4.80772E-02 1.07726E-03-3.09191E-01-1.12234E-13-3.93129E-13
 -1      1898 2.07460E+01 7.31650E-02-1.80650E-03-4.53376E-01-3.44875E-14-2.91175E-13
 -1      1899 2.06113E+01 4.65211E-02 2.97736E-03-2.73500E-01-8.52927E-14-3.33588E-13
 -1      1900 2.05147E+01 4.33640E-02 1.03957E-03-2.47052E-01-5.78720E-14-3.84582E-13
 -1      1901 2.05718E+01 7.02778E-02-1.67987E-03-3.71727E-01-1.10522E-13-4.17347E-13
 -1      1902 2.04514E+01 4.08520E-02 2.72514E-03-2.15068E-01 4.83389E-14-3.53795E-13
 -1      1903 2.03748E+01 3.71477E-02 9.52471E-04-1.92047E-01 1.48972E-13-2.24674E-13
 -1      1904 2.04291E+01 6.27732E-02-1.50710E-03-2.95902E-01 5.98003E-14-3.36008E-13
 -1      1905 2.03247E+01 3.43257E-02 2.36129E-03-1.64710E-01-2.25416E-15-2.41982E-13
 -1      1906 2.02654E+01 3.06401E-02 8.38744E-04-1.45487E-01 1.64092E-14-2.52419E-13
 -1      1907 2.03148E+01 5.33901E-02-1.31193E-03-2.29404E-01 4.75591E-14-3.09240E-13
 -1      1908 2.02266E+01 2.78841E-02 1.96540E-03-1.22938E-01 3.43827E-14-2.83039E-13
 -1      1909 2.01819E+01 2.45199E-02 7.15572E-04-1.07396E-01 3.51705E-14-3.38826E-13
 -1      1910 2.02252E+01 4.37814E-02-1.11242E-03-1.73434E-01-2.46673E-14-4.21500E-13
 -1      1911 2.01524E+01 2.20276E-02 1.58437E-03-8.93260E-02-4.55316E-15-3.21423E-13
 -1      1912 2.01196E+01 1.91205E-02 5.94674E-04-7.70955E-02 6.93238E-14-2.79865E-13
 -1      1913 2.01565E+01 3.48581E-02-9.21386E-04-1.27811E-01 2.82992E-14-1.84752E-13
 -1      1914 2.00977E+01 1.69768E-02 1.24276E-03-6.29723E-02 5.59291E-14-2.90971E-13
 -1      1915 2.00743E+01 1.45615E-02 4.83229E-04-5.35782E-02-7.28976E-14-3.64762E-13
 -1      1916 2.01048E+01 2.70529E-02-7.46980E-04-9.16062E-02 5.99252E-14-1.70568E-13
 -1      1917 2.00584E+01 1.27841E-02 9.50740E-04-4.27903E-02 5.06192E-14-8.21504E-14
 -1      1918 2.00422E+01 1.08388E-02 3.84972E-04-3.57385E-02 2.24810E-13 8.12505E-14
 -1      1919 2.00670E+01 2.05061E-02-5.93563E-04-6.35517E-02 1.29639E-13 1.80246E-14
 -1      1920 2.00311E+01 9.40739E-03 7.09827E-04-2.76797E-02 1.38552E-13 1.40119E-14
 -1      1921 2.00204E+01 7.88130E-03 3.01207E-04-2.25066E-02-2.06646E-15-7.07755E-15
 -1      1922 2.00399E+01 1.51895E-02-4.62631E-04-4.22943E-02 1.54503E-13 5.78665E-14
 -1      1923 2.00128E+01 6.75666E-03 5.16657E-04-1.66223E-02-7.87082E-15 2.11601E-13
 -1      1924 2.00062E+01 5.58717E-03 2.31612E-04-1.29193E-02 7.64034E-14 3.33335E-13
 -1      1925 2.00212E+01 1.09863E-02-3.53686E-04-2.65409E-02 1.21027E-13 3.02002E-13
 -1      1926 2.00013E+01 4.72233E-03 3.65471E-04-8.72812E-03-5.42268E-14 2.94916E-13
 -1      1927 1.99976E+01 3.84483E-03 1.74831E-04-6.15054E-03-6.48183E-14 2.19945E-13
 -1      1928 2.00088E+01 7.74023E-03-2.64980E-04-1.51354E-02 1.45107E-16 3.75449E-13
 -1      1929 1.99947E+01 3.19163E-03 2.49632E-04-3.25166E-03-6.69065E-14 1.70078E-13
 -1      1930 1.99930E+01 2.54463E-03 1.28880E-04-1.51978E-03 2.05227E-14 1.72982E-13
 -1      1931 2.00011E+01 5.28424E-03-1.94072E-04-7.09155E-03-4.42379E-14 2.89953E-13
 -1      1932 1.99915E+01 2.05699E-03 1.62542E-04 4.08023E-04 1.60937E-13 3.66397E-14
 -1      1933 1.99912E+01 1.58409E-03 9.14097E-05 1.51221E-03 2.00073E-13 1.69543E-13
 -1      1934 1.99967E+01 3.45602E-03-1.38246E-04-1.60083E-03 3.98214E-16 1.97197E-13
 -1      1935 1.99907E+01 1.21917E-03 9.81626E-05 2.71569E-03 1.77941E-13 2.99662E-13
 -1      1936 1.99913E+01 8.68915E-04 5.99087E-05 3.35316E-03 3.15151E-13 4.94949E-13
 -1      1937 1.99947E+01 2.10450E-03-9.48006E-05 1.97408E-03 2.99212E-13 3.41093E-13
 -1      1938 1.99914E+01 5.86613E-04 5.14394E-05 4.01070E-03 2.83159E-13 3.00156E-13
 -1      1939 1.99925E+01 3.11240E-04 3.20233E-05 4.28955E-03 2.61142E-13 3.68530E-13
 -1      1940 1.99943E+01 1.09017E-03-6.13263E-05 4.11168E-03 2.63987E-13 4.60190E-13
 -1      1941 1.99930E+01 7.34411E-05 1.86685E-05 4.51734E-03 1.21358E-13 2.11791E-13
 -1      1942 1.99943E+01-1.70319E-04 8.12790E-06 4.49531E-03 8.87988E-14 1.60196E-13
 -1      1943 1.99949E+01 2.83572E-04-3.54546E-05 5.14584E-03 1.10849E-13 1.61957E-13
 -1      1944 1.99949E+01-4.09834E-04-3.93717E-06 4.36342E-03-7.64390E-14 2.54860E-14
 -1      1945 1.99962E+01-6.59364E-04-1.18089E-05 4.04747E-03-2.20130E-13 6.99270E-14
 -1      1946 1.99960E+01-4.29686E-04-1.58349E-05 5.28268E-03-1.30877E-13 1.63883E-13
 -1      1947 1.99968E+01-8.66824E-04-1.06410E-05 3.60485E-03-5.51876E-14 5.45831E-14
 -1      1948 1.99979E+01-1.14022E-03-2.97915E-05 3.00642E-03 5.00855E-14 2.27473E-13
 -1      1949 1.99984E+01-1.72317E-03-1.44234E-06 3.47139E-03-4.11621E-14 2.07245E-13
 -1      1950 1.99972E+01-1.13835E-03-3.88782E-06 4.66709E-03-1.38579E-13 1.16972E-13
 -1      1951 2.05383E+01 1.76971E-01 1.13375E-02-7.10272E-02 2.69042E-13 6.45152E-13
 -1      1952 2.06664E+01 2.32678E-01 1.83268E-02 1.26486E-01 2.88830E-13 7.58719E-13
 -1      1953 2.08173E+01 3.83551E-01-3.63648E-03 2.79239E-01 3.60318E-13 5.16352E-13
 -1      1954 2.05994E+01 1.20912E-01 1.04760E-02-3.48007E-01 1.81695E-13 5.15138E-13
 -1      1955 2.05420E+01 1.46435E-01 1.61898E-02-2.22436E-01 2.11590E-13 5.86298E-13
 -1      1956 2.06645E+01 2.21755E-01-4.38331E-03-1.94965E-01 2.70711E-13 4.11022E-13
 -1      1957 2.08782E+01 9.47726E-02 8.04038E-03-5.47611E-01 1.35945E-13 4.20474E-13
 -1      1958 2.06993E+01 1.08675E-01 1.05648E-02-4.53360E-01 1.50297E-13 4.73255E-13
 -1      1959 2.07570E+01 1.54946E-01-5.54610E-03-5.09094E-01 1.97905E-13 2.81720E-13
 -1      1960 2.13193E+01 7.74191E-02 6.07360E-03-7.05006E-01 7.40389E-14 3.47884E-13
 -1      1961 2.10537E+01 8.81493E-02 6.56534E-03-6.27444E-01 9.89278E-14 3.99198E-13
 -1      1962 2.10309E+01 1.21322E-01-6.01142E-03-7.41888E-01 1.33245E-13 2.15951E-13
 -1      1963 2.18821E+01 5.55567E-02 3.83356E-03-8.26247E-01 1.51785E-13 2.49513E-13
 -1      1964 2.15538E+01 6.88905E-02 3.83697E-03-7.63701E-01 1.05996E-13 3.28362E-13
 -1      1965 2.14424E+01 9.33677E-02-6.00652E-03-9.22561E-01 1.34572E-13 1.59894E-13
 -1      1966 2.25267E+01 1.63367E-02 5.10532E-04-8.94869E-01 8.56677E-14 2.28832E-13
 -1      1967 2.21606E+01 3.78709E-02 1.41298E-03-8.56197E-01 1.11192E-13 2.50047E-13
 -1      1968 2.19579E+01 5.15478E-02-5.84935E-03-1.04874E+00 1.46272E-13 1.14623E-13
 -1      1969 2.31997E+01-5.40013E-02-4.18087E-03-8.71630E-01 1.08291E-13 2.04619E-13
 -1      1970 2.28315E+01-1.88542E-02-1.26127E-03-8.77031E-01 8.42232E-14 2.31024E-13
 -1      1971 2.25444E+01-2.35269E-02-5.41943E-03-1.09110E+00 1.14085E-13 1.34871E-13
 -1      1972 2.38229E+01-1.65297E-01-9.52423E-03-6.96361E-01 2.70443E-15 2.32042E-13
 -1      1973 2.35057E+01-1.14253E-01-4.20365E-03-7.76852E-01 6.55032E-14 2.39676E-13
 -1      1974 2.31592E+01-1.49646E-01-4.07777E-03-9.94190E-01 6.63644E-14 2.06772E-13
 -1      1975 2.42869E+01-3.09856E-01-1.33175E-02-3.03607E-01 5.86250E-15 2.95743E-13
 -1      1976 2.40920E+01-2.50907E-01-7.01098E-03-4.93379E-01-9.67629E-15 2.78996E-13
 -1      1977 2.37399E+01-3.31165E-01-8.57456E-04-6.85094E-01-5.40887E-15 2.10583E-13
 -1      1978 2.44577E+01-4.37637E-01-1.19242E-02 3.31271E-01 5.41164E-14 3.07639E-13
 -1      1979 2.44624E+01-4.00222E-01-9.12716E-03 1.87748E-02-9.12465E-16 3.15173E-13
 -1      1980 2.41941E+01-5.32093E-01 5.10882E-03-1.04472E-01-1.99962E-14 2.66269E-13
 -1      1981 2.42094E+01-4.39387E-01-3.40379E-03 1.10545E+00 1.19104E-13 2.85508E-13
 -1      1982 2.44663E+01-4.76294E-01-9.89260E-03 7.22408E-01 1.14991E-13 3.02758E-13
 -1      1983 2.43957E+01-6.43968E-01 1.29747E-02 7.22024E-01 1.26189E-13 3.21730E-13
 -1      1984 2.35019E+01-1.93708E-01 4.89073E-03 1.70466E+00 1.07253E-13 2.23550E-13
 -1      1985 2.39903E+01-3.46045E-01-1.04609E-02 1.40994E+00 6.76143E-14 2.64223E-13
 -1      1986 2.42121E+01-4.91190E-01 1.75058E-02 1.57840E+00 9.12751E-14 3.43198E-13
 -1      1987 2.25242E+01 2.78709E-01 2.29803E-03 1.68297E+00 4.24036E-14 2.34073E-13
 -1      1988 2.31033E+01 5.60224E-02-9.07341E-03 1.69287E+00 5.65624E-14 1.83485E-13
 -1      1989 2.36190E+01 1.29721E-02 6.24423E-03 2.01390E+00 9.95454E-14 2.28819E-13
 -1      1990 2.17335E+01 7.21913E-01-1.53326E-02 8.24928E-01 2.09509E-13 5.52813E-14
 -1      1991 2.21644E+01 5.65764E-01-3.70772E-03 1.23342E+00 1.23700E-13 1.47138E-13
 -1      1992 2.28744E+01 6.96143E-01-1.50311E-02 1.58444E+00 1.46515E-13 1.69008E-13
 -1      1993 2.16525E+01 7.74912E-01-3.09039E-02-5.26692E-01 3.41505E-13-1.87832E-13
 -1      1994 2.17007E+01 8.30115E-01 6.23891E-03 9.33918E-02 2.97640E-13-2.63652E-14
 -1      1995 2.24550E+01 1.11392E+00-3.07073E-02 2.74375E-01 3.53242E-13 6.57955E-14
 -1      1996 2.23821E+01 3.96138E-01-2.46451E-02-1.59197E+00 2.08692E-13-3.95753E-13
 -1      1997 2.19959E+01 6.16816E-01 8.43287E-03-1.11730E+00 3.31297E-13-2.70495E-13
 -1      1998 2.27006E+01 9.35249E-01-2.04792E-02-1.21811E+00 3.74083E-13-1.89153E-13
 -1      1999 2.34855E+01-9.87714E-02-1.48588E-03-1.84693E+00-9.48720E-14-6.03219E-13
 -1      2000 2.28573E+01 1.18305E-01 2.68142E-03-1.73310E+00 4.15570E-14-5.41296E-13
 -1      2001 2.34355E+01 2.96937E-01-1.69644E-03-2.04838E+00 1.56470E-13-4.41331E-13
 -1      2002 2.43935E+01-3.94907E-01 1.54155E-02-1.38197E+00-1.16822E-13-6.93886E-13
 -1      2003 2.38033E+01-2.99563E-01-7.97996E-03-1.57234E+00-9.34842E-14-6.13981E-13
 -1      2004 2.41682E+01-3.28726E-01 7.07282E-03-1.92040E+00-6.89422E-14-6.10114E-13
 -1      2005 2.48182E+01-4.37706E-01 1.77113E-02-6.23718E-01-5.63525E-14-6.29837E-13
 -1      2006 2.44580E+01-4.56095E-01-1.52531E-02-9.36954E-01-8.59625E-14-6.32714E-13
 -1      2007 2.45542E+01-6.29462E-01 9.63849E-04-1.17730E+00-9.14234E-14-6.82121E-13
 -1      2008 2.47649E+01-3.28455E-01 1.17172E-02 6.03293E-02 9.01796E-14-4.60349E-13
 -1      2009 2.46796E+01-3.99632E-01-1.61799E-02-2.23705E-01 2.24300E-14-4.53895E-13
 -1      2010 2.45363E+01-6.05095E-01-5.71284E-03-3.09153E-01-4.44141E-14-4.11242E-13
 -1      2011 2.43803E+01-1.85080E-01 4.36465E-03 5.11569E-01-1.37355E-13-4.78981E-13
 -1      2012 2.45157E+01-2.57267E-01-1.26049E-02 3.21350E-01-1.98869E-14-4.94107E-13
 -1      2013 2.42212E+01-4.16640E-01-7.07678E-03 3.70255E-01-2.15791E-14-3.15321E-13
 -1      2014 2.38209E+01-6.89839E-02-5.97942E-04 7.30988E-01-2.55028E-13-3.85097E-13
 -1      2015 2.40906E+01-1.20847E-01-7.69756E-03 6.35427E-01-2.27369E-13-4.58882E-13
 -1      2016 2.37402E+01-2.12752E-01-5.38876E-03 7.72221E-01-1.89074E-13-2.77867E-13
 -1      2017 2.32049E+01 4.90787E-03-2.79954E-03 7.82821E-01-1.86166E-13-1.10989E-13
 -1      2018 2.35318E+01-2.47922E-02-3.19885E-03 7.56577E-01-2.33056E-13-2.90103E-13
 -1      2019 2.31938E+01-6.01567E-02-3.08409E-03 9.36552E-01-3.02039E-13-8.57404E-14
 -1      2020 2.26070E+01 4.33978E-02-3.18926E-03 7.36028E-01-2.03211E-14 1.88781E-14
 -1      2021 2.29376E+01 3.02544E-02 1.28659E-04 7.51292E-01-1.27132E-13-3.04557E-14
 -1      2022 2.26481E+01 3.13336E-02-1.38727E-03 9.41459E-01-1.63913E-13-6.16265E-14
 -1      2023 2.20677E+01 5.83563E-02-2.73965E-03 6.42400E-01 1.77406E-14 1.73342E-13
 -1      2024 2.23711E+01 5.54203E-02 2.17771E-03 6.77979E-01 3.51086E-14 8.56442E-14
 -1      2025 2.21419E+01 7.54855E-02-4.99038E-04 8.57921E-01-5.28896E-15 2.72022E-14
 -1      2026 2.16044E+01 5.98592E-02-2.04744E-03 5.34413E-01-1.44774E-13 1.40407E-13
 -1      2027 2.18665E+01 6.23255E-02 3.17805E-03 5.76831E-01-6.01090E-14 1.49649E-13
 -1      2028 2.16953E+01 8.96762E-02-1.87472E-04 7.36033E-01-1.25284E-14 1.44653E-13
 -1      2029 2.12201E+01 5.47006E-02-1.39349E-03 4.29820E-01 3.86889E-14 6.27399E-14
 -1      2030 2.14372E+01 5.95232E-02 3.45749E-03 4.71583E-01-4.83749E-14 9.54641E-14
 -1      2031 2.13155E+01 8.74990E-02-1.74272E-04 6.06185E-01 1.81972E-15 1.02450E-13
 -1      2032 2.09098E+01 4.69111E-02-8.72950E-04 3.36901E-01-8.04424E-14 1.39889E-13
 -1      2033 2.10843E+01 5.23705E-02 3.30806E-03 3.74409E-01-6.95184E-14 8.86242E-14
 -1      2034 2.10016E+01 7.77327E-02-2.67629E-04 4.84513E-01 3.51954E-15 1.31324E-13
 -1      2035 2.06648E+01 3.86554E-02-4.94777E-04 2.58472E-01-1.89506E-14 1.67241E-13
 -1      2036 2.08017E+01 4.38809E-02 2.94296E-03 2.90402E-01 5.27963E-15 1.33622E-13
 -1      2037 2.07483E+01 6.54076E-02-3.66347E-04 3.78175E-01 2.34405E-16 3.86790E-14
 -1      2038 2.04750E+01 3.09776E-02-2.36507E-04 1.94481E-01 2.30860E-13-9.75038E-14
 -1      2039 2.05802E+01 3.55899E-02 2.49840E-03 2.20726E-01 3.47066E-14 7.35424E-14
 -1      2040 2.05481E+01 5.31234E-02-4.30756E-04 2.89206E-01 1.18588E-13-8.62888E-14
 -1      2041 2.03308E+01 2.42995E-02-6.92125E-05 1.43552E-01 1.98825E-13 6.49774E-14
 -1      2042 2.04101E+01 2.81833E-02 2.05236E-03 1.64581E-01 2.28495E-13 3.41345E-15
 -1      2043 2.03928E+01 4.20616E-02-4.54145E-04 2.16988E-01 2.00038E-13-1.77197E-14
 -1      2044 2.02232E+01 1.87209E-02 3.30007E-05 1.03814E-01 1.90428E-13 3.43982E-15
 -1      2045 2.02819E+01 2.18912E-02 1.64441E-03 1.20329E-01 2.81146E-13 1.67623E-13
 -1      2046 2.02744E+01 3.26384E-02-4.43744E-04 1.59697E-01 2.31764E-13 1.03768E-13
 -1      2047 2.01445E+01 1.41867E-02 9.05136E-05 7.33413E-02 5.47406E-14-1.74402E-13
 -1      2048 2.01870E+01 1.67164E-02 1.29094E-03 8.60887E-02 5.73439E-14-1.29064E-13
 -1      2049 2.01859E+01 2.48860E-02-4.10496E-04 1.15101E-01 1.97585E-13 7.23441E-14
 -1      2050 2.00882E+01 1.05770E-02 1.18382E-04 5.03537E-02 1.30220E-13-2.28412E-13
 -1      2051 2.01182E+01 1.25587E-02 9.95412E-04 6.00352E-02 1.31743E-13-1.82071E-13
 -1      2052 2.01210E+01 1.86631E-02-3.64506E-04 8.09718E-02 1.81559E-13 1.66711E-13
 -1      2053 2.00489E+01 7.75301E-03 1.27319E-04 3.32960E-02-4.33713E-14-3.66496E-13
 -1      2054 2.00695E+01 9.28009E-03 7.54656E-04 4.05325E-02-4.37326E-14-3.72660E-13
 -1      2055 2.00744E+01 1.37630E-02-3.13526E-04 5.52762E-02 5.43835E-14-7.46754E-14
 -1      2056 2.00224E+01 5.57853E-03 1.24733E-04 2.08580E-02 2.59216E-13-4.32565E-13
 -1      2057 2.00361E+01 6.73695E-03 5.62499E-04 2.61779E-02 1.72938E-13-3.12235E-13
 -1      2058 2.00419E+01 9.96837E-03-2.62840E-04 3.62491E-02 1.08832E-13-2.99885E-13
 -1      2059 2.00054E+01 3.92986E-03 1.15605E-04 1.19627E-02-2.07008E-13-1.43968E-13
 -1      2060 2.00140E+01 4.79481E-03 4.11771E-04 1.58041E-02-6.97307E-14-3.57192E-13
 -1      2061 2.00199E+01 7.07554E-03-2.15673E-04 2.24085E-02-8.43904E-14-2.30492E-13
 -1      2062 1.99953E+01 2.69878E-03 1.03147E-04 5.74324E-03 1.06946E-13 6.87974E-14
 -1      2063 2.00002E+01 3.33423E-03 2.95348E-04 8.46143E-03-3.96736E-14 7.42643E-14
 -1      2064 2.00057E+01 4.90396E-03-1.73720E-04 1.25393E-02-1.37347E-13-7.24351E-14
 -1      2065 1.99900E+01 1.79244E-03 8.92786E-05 1.51534E-03-1.88584E-14 3.09369E-14
 -1      2066 1.99923E+01 2.25196E-03 2.06636E-04 3.39255E-03 1.82740E-14 4.50117E-14
 -1      2067 1.99973E+01 3.29824E-03-1.37612E-04 5.66622E-03 1.37511E-14 6.52605E-14
 -1      2068 1.99880E+01 1.13172E-03 7.49668E-05-1.24835E-03 1.37069E-13 1.34882E-13
 -1      2069 1.99886E+01 1.45985E-03 1.39759E-04 6.53154E-06 2.81388E-14 4.75565E-14
 -1      2070 1.99928E+01 2.12649E-03-1.07278E-04 1.02308E-03 2.59821E-14 1.87693E-13
 -1      2071 1.99882E+01 6.48793E-04 6.04317E-05-2.94130E-03 2.86464E-13 4.27599E-14
 -1      2072 1.99877E+01 8.82702E-04 8.95864E-05-2.14517E-03 2.15027E-13 2.76355E-13
 -1      2073 1.99911E+01 1.27705E-03-8.22189E-05-1.97613E-03 2.44087E-13 4.63637E-13
 -1      2074 1.99899E+01 2.83156E-04 4.54118E-05-3.84126E-03 1.18685E-13 2.48791E-14
 -1      2075 1.99887E+01 4.55061E-04 5.18071E-05-3.38906E-03 3.39166E-13 7.40987E-14
 -1      2076 1.99912E+01 6.53552E-04-6.17440E-05-3.76275E-03 3.48782E-13 4.72909E-13
 -1      2077 1.99922E+01-2.28432E-05 3.03957E-05-4.12134E-03-7.84172E-14-2.80764E-13
 -1      2078 1.99906E+01 1.16261E-04 2.32640E-05-3.94423E-03 3.52669E-15-9.40108E-14
 -1      2079 1.99924E+01 1.68771E-04-4.46689E-05-4.63342E-03 7.90226E-14 3.49982E-13
 -1      2080 1.99947E+01-3.24633E-04 1.67086E-05-3.85741E-03 5.42375E-14-2.03821E-13
 -1      2081 1.99931E+01-1.91265E-04 2.90499E-06-3.93128E-03-2.81680E-14-2.85912E-13
 -1      2082 1.99942E+01-2.58833E-04-2.84969E-05-4.76053E-03 4.41793E-14-5.17818E-15
 -1      2083 1.99970E+01-6.77357E-04 1.89909E-06-3.03546E-03 1.68110E-13-8.97603E-14
 -1      2084 1.99956E+01-5.19325E-04-6.83477E-06-3.39126E-03 8.84755E-14-7.48487E-14
 -1      2085 1.99962E+01-7.08971E-04-1.34563E-05-4.22636E-03 7.79488E-14 1.57338E-13
 -1      2086 1.99985E+01-1.02272E-03-1.50602E-05-2.02383E-03-3.46717E-14 1.95619E-13
 -1      2087 1.99975E+01-8.45927E-04-9.88995E-06-2.64838E-03 1.16642E-13 7.11805E-14
 -1      2088 1.99977E+01-1.13693E-03 4.20746E-06-3.36262E-03 2.83600E-14 4.51915E-13
 -1      2089 1.99988E+01-1.59098E-03 9.51034E-06-2.43979E-03-1.34880E-13 6.54996E-13
 -1      2090 2.00002E+01-6.94075E-03 7.37011E-06-3.68975E-03 2.05322E-13-4.72210E-14
 -1      2091 2.00000E+01-5.76658E-03 1.25905E-06-3.83348E-03 1.87746E-13 9.80533E-14
 -1      2092 1.99997E+01-5.01729E-03 3.66457E-06-3.88842E-03 1.19888E-13 2.45992E-13
 -1      2093 1.99995E+01-3.84341E-03-1.30789E-05-3.75231E-03 4.95136E-14 3.87107E-13
 -1      2094 1.99999E+01-4.41823E-03-9.56262E-06-4.71973E-03 1.88197E-14 1.97798E-13
 -1      2095 1.99992E+01-3.28235E-03 4.70540E-07-3.45719E-03-9.97385E-14 2.38517E-13
 -1      2096 1.99989E+01-2.23938E-03-1.96365E-05-2.97968E-03-7.88241E-14 3.02893E-13
 -1      2097 1.99985E+01-2.01697E-03-1.76335E-05-3.52787E-03 8.37458E-15 4.20298E-13
 -1      2098 1.99992E+01-3.16540E-03-8.98395E-06-4.44649E-03-1.30786E-13 4.05100E-13
 -1      2099 2.00004E+01-8.56802E-03 1.27765E-05-3.08287E-03 6.80736E-14-3.74602E-13
 -1      2100 2.00003E+01-7.55355E-03 1.93787E-05-3.38870E-03 1.08660E-13-3.40162E-13
 -1      2101 2.00004E+01-5.77216E-03-1.19499E-05-4.30942E-03 1.36241E-13-2.21672E-13
 -1      2102 2.00005E+01-9.83577E-03 1.86663E-05-2.22770E-03 9.78208E-14 1.60950E-13
 -1      2103 2.00005E+01-9.04897E-03 2.93997E-05-2.62922E-03 5.13913E-14 1.15699E-13
 -1      2104 2.00008E+01-6.87592E-03-1.38524E-05-3.47230E-03 1.08174E-13-9.11315E-14
 -1      2105 2.00006E+01-1.06386E-02 2.42195E-05-1.25711E-03 3.65683E-14-3.36325E-13
 -1      2106 2.00006E+01-1.01536E-02 3.36558E-05-1.69936E-03 1.07747E-13 4.27451E-14
 -1      2107 2.00009E+01-7.68524E-03-1.42977E-05-2.38589E-03 4.38030E-14 4.44385E-14
 -1      2108 2.00006E+01-1.09482E-02 2.90769E-05-2.45045E-04-8.69149E-14 4.00811E-14
 -1      2109 2.00006E+01-1.07917E-02 3.30055E-05-6.99929E-04 4.49932E-14-2.63614E-13
 -1      2110 2.00010E+01-8.16514E-03-1.38241E-05-1.18809E-03-3.89175E-14-3.12672E-13
 -1      2111 2.00006E+01-1.07600E-02 3.24854E-05 7.68610E-04-4.33311E-14-4.32124E-14
 -1      2112 2.00006E+01-1.09385E-02 2.92972E-05 3.16609E-04-5.44273E-14 1.96958E-13
 -1      2113 2.00010E+01-8.31180E-03-1.34271E-05 4.50252E-05-2.67618E-13 8.44913E-14
 -1      2114 2.00005E+01-1.00862E-02 3.30408E-05 1.75294E-03-1.47336E-13 5.87290E-14
 -1      2115 2.00006E+01-1.05893E-02 2.38949E-05 1.31871E-03-1.28804E-13-1.22371E-13
 -1      2116 2.00010E+01-8.12807E-03-1.34263E-05 1.27018E-03-2.24147E-13-1.91371E-13
 -1      2117 2.00005E+01-8.97945E-03 2.86438E-05 2.64456E-03 1.25225E-13-3.65334E-14
 -1      2118 2.00005E+01-9.76305E-03 1.79587E-05 2.26083E-03-9.02751E-17 1.47905E-13
 -1      2119 2.00009E+01-7.62308E-03-1.35149E-05 2.43659E-03 1.81885E-15 8.53766E-14
 -1      2120 2.00003E+01-7.46430E-03 1.79799E-05 3.38493E-03 1.52020E-13 2.78036E-13
 -1      2121 2.00004E+01-8.49591E-03 1.19142E-05 3.08534E-03 1.36980E-13 1.48323E-13
 -1      2122 2.00007E+01-6.80497E-03-1.31763E-05 3.48422E-03 3.39874E-13 9.23791E-14
 -1      2123 2.00000E+01-5.66901E-03 3.92778E-07 3.80860E-03 9.29401E-14 1.64477E-15
 -1      2124 2.00001E+01-6.83826E-03 6.51107E-06 3.67642E-03 1.63090E-13 1.96222E-14
 -1      2125 2.00004E+01-5.68781E-03-1.15978E-05 4.29944E-03 2.32018E-13 1.29074E-13
 -1      2126 1.99994E+01-3.76260E-03-1.92798E-05 3.75166E-03-7.82883E-14 3.32117E-13
 -1      2127 1.99997E+01-4.93367E-03 8.86735E-06 3.85511E-03-6.27452E-14 2.39639E-13
 -1      2128 1.99998E+01-4.32945E-03-3.86035E-06 4.67898E-03 7.88733E-14-4.92718E-15
 -1      2129 1.03601E+01-5.39272E+00-1.53943E-01 6.35817E+00 5.25135E-13 1.43552E-12
 -1      2130 6.49889E+00-6.85237E+00-3.98355E-01 4.95848E+00 2.79443E-13 1.48592E-12
 -1      2131 2.69199E-01-6.76129E+00-3.62095E-01 4.95819E-01-3.49026E-14 1.06531E-12
 -1      2132 1.77368E-01-7.67467E+00-5.08434E-01-1.09662E+00-4.06286E-13 7.89258E-13
 -1      2133 3.82778E+00-6.41780E+00-2.77314E-01 4.20309E+00 2.93765E-13 1.49591E-12
 -1      2134 1.96164E+00-6.49484E+00-2.72013E-01 2.84883E+00 3.53884E-14 1.41609E-12
 -1      2135 2.01257E+01-3.66501E+00 1.28760E-02 6.56282E+00 8.87901E-13 8.17679E-13
 -1      2136 1.57011E+01-5.43622E+00-2.13767E-01 6.05431E+00 5.66880E-13 8.57120E-13
 -1      2137 2.84440E+01-1.18065E+00 1.07146E-01 5.10694E+00 8.92564E-13 5.98244E-13
 -1      2138 2.32787E+01-2.94954E+00-1.83321E-01 5.30772E+00 9.65061E-13 7.06935E-13
 -1      2139 2.41726E+01-4.87365E+00 4.53010E-02 4.88388E+00 2.60292E-13 2.42251E-13
 -1      2140 1.95770E+01 4.10295E+00-2.71213E-02-1.32096E+00-3.55809E-13-5.50858E-13
 -1      2141 1.97916E+01 4.01834E+00-2.15195E-02-1.56841E+00-4.15312E-13-4.63192E-13
 -1      2142 2.01536E+01 3.32946E+00-6.92629E-03-1.50172E+00-4.55913E-13-3.64861E-13
 -1      2143 1.96915E+01 3.72363E+00-8.26649E-03-1.12432E+00-3.53347E-13-5.34964E-13
 -1      2144 4.03972E+01 5.95690E+00 3.87911E-01 1.35217E+00 1.19182E-12 1.11244E-13
 -1      2145 3.79960E+01 4.90614E+00 2.57038E-01 2.55699E+00 1.31600E-12 4.22440E-13
 -1      2146 4.10505E+01 7.08343E+00 3.47357E-01-3.16286E-01 1.03939E-12-1.19939E-13
 -1      2147 4.03530E+01 7.04401E+00 3.23976E-01 6.55761E-01 1.06498E-12 1.45162E-13
 -1      2148 3.77807E+01 6.13319E+00 1.08084E-01-1.03778E+00 1.03506E-12-2.53852E-13
 -1      2149 4.08217E+01 6.87913E+00 4.53950E-01-5.97030E-01 1.05693E-12-1.72501E-13
 -1      2150 3.61476E+01 7.96854E+00 3.25069E-01 1.67438E-01 1.11144E-12-1.49464E-14
 -1      2151 3.39268E+01 2.46392E+00 1.07386E-01-2.43817E+00 9.14324E-13-2.93654E-13
 -1      2152 3.71164E+01 4.31376E+00 2.87357E-01-1.83599E+00 9.49740E-13-2.71061E-13
 -1      2153 2.65952E+01-1.25451E+00-6.14744E-02-5.14786E+00 8.34555E-13-7.23310E-13
 -1      2154 3.11449E+01 8.03108E-02 8.08900E-02-4.10228E+00 7.77461E-13-4.87888E-13
 -1      2155 1.84192E+01-4.65404E+00-2.27581E-01-5.98213E+00 5.35572E-13-7.51843E-13
 -1      2156 2.32473E+01-2.46730E+00 5.63072E-02-6.52406E+00 7.53619E-13-7.80098E-13
 -1      2157 2.64320E+01-3.64041E+00 9.11123E-02-4.36285E+00 2.72338E-13-1.63980E-13
 -1      2158 9.11749E+00-6.62753E+00-3.97018E-01-5.62106E+00 3.77309E-13-9.70453E-13
 -1      2159 1.37412E+01-5.00176E+00-9.69738E-02-6.85492E+00 4.33875E-13-9.47582E-13
 -1      2160 2.72963E+00-7.49026E+00-4.51967E-01-3.55791E+00 2.11886E-13-9.79439E-13
 -1      2161 5.30537E+00-6.49058E+00-3.10989E-01-4.87546E+00 5.29687E-13-9.82131E-13
 -1      2162 4.63995E-01-7.01025E+00-3.52543E-01-3.00703E-01-1.30672E-13-1.10312E-12
 -1      2163 1.16074E+00-6.54891E+00-2.84052E-01-1.95761E+00 1.67033E-13-1.13876E-12
 -1      2164 1.69645E+00-6.46624E+00-2.88621E-01 2.93282E+00-3.55882E-13-1.15175E-12
 -1      2165 5.99240E-01-7.24769E+00-3.76063E-01 1.34189E+00-7.12347E-14-1.11616E-12
 -1      2166 1.93673E+00-4.29127E+00-1.38835E-01 5.44608E-01-7.69107E-14-1.23512E-12
 -1      2167 7.55110E+00-5.72151E+00-1.78685E-01 5.95906E+00-5.50726E-13-1.13426E-12
 -1      2168 4.46350E+00-6.93660E+00-3.74925E-01 4.61346E+00-2.96707E-13-1.10081E-12
 -1      2169 1.62440E+01-4.66055E+00-1.03405E-01 6.99166E+00-5.67213E-13-8.80906E-13
 -1      2170 1.12295E+01-6.02945E+00-3.21689E-01 6.15405E+00-5.82090E-13-1.00388E-12
 -1      2171 1.17538E+01-5.52257E+00-1.66409E-02 6.89139E+00-3.23075E-14-9.30034E-13
 -1      2172 2.58656E+01-1.07569E+00 1.42018E-01 6.27961E+00-9.66838E-13-9.76108E-13
 -1      2173 2.14273E+01-3.41270E+00-7.81342E-02 5.97455E+00-7.54286E-13-8.17402E-13
 -1      2174 3.23728E+01 1.31770E+00 5.91180E-03 3.19392E+00-7.47008E-13-7.61446E-13
 -1      2175 2.88136E+01 1.53626E-01 2.93257E-02 4.63504E+00-9.14213E-13-9.45910E-13
 -1      2176 2.85244E+01-2.03790E+00 1.39571E-01 3.44691E+00-4.61894E-13-4.36318E-13
 -1      2177 3.88724E+01 5.61550E+00 4.90709E-01 2.31566E+00-1.05882E-12-8.63920E-13
 -1      2178 3.48148E+01 4.20453E+00 1.40231E-01 2.32670E+00-9.43190E-13-7.61891E-13
 -1      2179 3.97365E+01 7.18288E+00 2.90242E-01 3.67267E-01-1.13792E-12-5.70391E-13
 -1      2180 3.93603E+01 6.52177E+00 3.18536E-01 1.57539E+00-1.13520E-12-7.98694E-13
 -1      2181 3.53738E+01 6.54435E+00 2.66121E-01-1.27726E-02-1.06298E-12-3.72230E-13
 -1      2182 3.97838E+01 6.80911E+00 3.53923E-01-1.25106E+00-1.10756E-12-1.77469E-13
 -1      2183 3.97638E+01 7.25456E+00 2.65916E-01-5.37352E-03-1.15241E-12-5.15622E-13
 -1      2184 3.65530E+01 4.73783E+00 1.95934E-01-3.04293E+00-1.06470E-12 1.51434E-13
 -1      2185 3.93683E+01 5.72852E+00 3.86765E-01-2.06080E+00-1.00953E-12-1.07581E-13
 -1      2186 3.07315E+01 1.25106E+00 5.24127E-02-3.85231E+00-9.71542E-13 1.52989E-13
 -1      2187 3.51518E+01 3.29089E+00 4.10360E-01-3.99317E+00-1.02488E-12 1.55209E-13
 -1      2188 3.40757E+01 3.49084E+00 2.12002E-01-9.39257E-01-9.20486E-13-2.79776E-13
 -1      2189 2.20933E+01-2.29346E+00-1.26786E-01-5.98343E+00-9.49574E-13 5.70544E-13
 -1      2190 2.69740E+01-1.10764E+00-6.91319E-03-5.46231E+00-8.07909E-13 3.03424E-13
 -1      2191 1.35667E+01-4.94317E+00-3.42323E-01-6.15309E+00-8.47544E-13 8.42160E-13
 -1      2192 1.82146E+01-2.96972E+00-2.77593E-02-7.02189E+00-9.47242E-13 7.27196E-13
 -1      2193 6.71988E+00-6.41944E+00-2.89500E-01-5.44169E+00-4.90497E-13 1.16157E-12
 -1      2194 9.91931E+00-5.18395E+00-1.85195E-01-6.33647E+00-7.25420E-13 1.19749E-12
 -1      2195 1.12663E+00-7.77069E+00-5.38193E-01-2.47121E+00-4.35624E-13 7.48179E-13
 -1      2196 3.11503E+00-6.44992E+00-3.42205E-01-4.11158E+00-5.36737E-13 1.03023E-12
 -1      2197 1.93176E+00-5.04666E+00-1.91511E-01-2.31486E+00-1.11355E-13 8.27893E-13
 -1      2198 3.62384E+01 3.05111E+00 3.63822E-01 3.24030E+00 1.17020E-12 4.33875E-13
 -1      2199 3.15073E+01 1.12767E+00-1.86542E-02 3.42002E+00 1.04636E-12 5.95191E-13
 -1      2200 2.12019E+01 1.10432E+00-1.81622E-02-1.31655E+00-4.73496E-13 3.92278E-13
 -1      2201 3.05368E+01-1.47771E+00 1.11981E-01 2.15511E+00 6.11011E-13 4.01346E-14
 -1      2202 3.50337E+01 3.59454E+00 2.71615E-01 2.31210E-01 1.10545E-12 1.27121E-14
 -1      2203 2.10762E+01 1.33880E+00-2.08522E-02-1.30545E+00-4.98279E-13 1.27849E-13
 -1      2204 7.09941E+00-5.36274E+00-1.35490E-01 5.57323E+00-1.17795E-13 1.48737E-12
 -1      2205 2.11335E+00-5.28082E+00-1.74430E-01 1.91076E+00 3.01148E-14 1.33793E-12
 -1      2206 2.60399E+00-3.25870E+00 3.83451E-02 9.44692E-01 6.58709E-14 1.16079E-12
 -1      2207 4.25962E+00-3.44280E+00 9.08730E-04 3.31128E+00-6.84452E-14 1.43402E-12
 -1      2208 1.99992E+01-2.92449E-03-1.72306E-05 3.74003E-03-5.93344E-14 1.75421E-13
 -1      2209 1.54826E+01-5.78507E+00-3.99616E-02 6.63102E+00 3.80251E-14 8.56096E-13
 -1      2210 6.13627E+00-5.77178E+00-1.97069E-01-5.30248E+00-2.68729E-13 9.76302E-13
 -1      2211 9.32996E+00-4.92826E+00-8.80903E-02-6.52275E+00 1.38778E-13 8.34249E-13
 -1      2212 5.93404E+00-4.23268E+00 5.74033E-02-5.25194E+00-3.72757E-14 8.77298E-13
 -1      2213 1.41855E+01-5.57381E+00-1.22305E-01-6.88334E+00-1.55320E-13 6.89934E-13
 -1      2214 2.93595E+01-6.84935E-01 1.09142E-01-3.71329E+00-6.26110E-13-6.01186E-14
 -1      2215 3.03701E+01-7.17455E-01-1.32639E-01-1.50118E+00-4.85827E-13-5.32352E-13
 -1      2216 2.77700E+01-2.61231E+00 1.20130E-01-3.32449E+00-3.26614E-13-4.03871E-13
 -1      2217 3.61390E+01 8.01835E+00 2.94727E-01 2.62967E-02-1.22197E-12-4.01033E-13
 -1      2218 3.29769E+01 2.36470E+00 9.17431E-02 1.50906E+00-7.31526E-13-5.99854E-13
 -1      2219 3.11135E+01 6.02573E-01 9.95064E-02 5.75466E-01-5.42372E-13-2.92988E-13
 -1      2220 3.22748E+01 2.92014E+00-1.86499E-01-4.07253E-01-7.29528E-13-2.52881E-13
 -1      2221 2.01567E+01-4.74532E+00-7.54737E-03 6.28011E+00-4.14224E-13-6.65468E-13
 -1      2222 1.91769E+01-5.41659E+00 1.45313E-01 6.59868E+00 1.44329E-14-4.50220E-13
 -1      2223 2.34349E+01-5.03065E+00-1.76490E-01 5.28881E+00-1.25427E-13-2.83551E-13
 -1      2224 4.72815E+00-4.95084E+00-1.13516E-01 4.58967E+00 1.53211E-14-1.14780E-12
 -1      2225 3.45527E+00-5.02001E+00-1.68174E-01-3.40804E+00-8.61256E-14-1.12227E-12
 -1      2226 1.83216E+01-5.65932E+00-1.05778E-03-6.44573E+00 3.33067E-15-5.30131E-13
 -1      2227 3.51479E+01 5.07507E+00 1.69225E-01 3.08447E-01 9.32143E-13 1.06581E-14
 -1      2228 3.69140E+01 7.10193E+00 3.56925E-01-1.76390E-01 1.21669E-12 2.58127E-14
 -1      2229 3.22866E+01 4.09328E-01 8.51331E-02-2.05258E+00 6.55448E-13-1.46827E-13
 -1      2230 3.19686E+01 6.71816E-01-1.20035E-01 2.96127E-01 5.21361E-13 2.47413E-13
 -1      2231 3.02978E+01-1.51968E+00 7.71816E-02-1.38257E+00 3.14804E-13 2.05225E-13
 -1      2232 9.52126E+00-5.70596E+00-8.58167E-02-6.39275E+00-1.32672E-14-9.07913E-13
 -1      2233 3.59476E+01 6.87087E+00 3.28784E-01-5.74398E-02-1.13498E-12-3.61489E-13
 -1      2234 2.21970E+01-4.14253E+00 7.40579E-02-5.89995E+00-3.68816E-13 1.43552E-13
 -1      2235 2.08319E+01 5.88879E-01 7.91527E-03 2.06807E-01 3.60609E-13 2.52611E-13
 -1      2236 2.09901E+01 7.61955E-01 2.07402E-02 5.33576E-01 4.09272E-13 3.11735E-13
 -1      2237 1.91267E+01 3.84968E+00-1.14378E-02-3.30221E-01-1.20474E-13-6.30341E-13
 -1      2238 1.92396E+01 3.78250E+00-7.76298E-03-4.65371E-01-1.77498E-13-6.29163E-13
 -1      2239 1.93735E+01 3.64931E+00-1.37014E-02-5.81816E-01-2.13853E-13-5.95813E-13
 -1      2240 1.95326E+01 3.54223E+00-1.01335E-02-7.37016E-01-2.77303E-13-5.73037E-13
 -1      2241 1.94377E+01 3.37880E+00 1.34559E-03-4.26869E-01-1.87423E-13-5.71670E-13
 -1      2242 1.89398E+01 4.00298E+00-8.52523E-03 9.29652E-02 9.30419E-14-6.32519E-13
 -1      2243 1.89459E+01 3.99943E+00-7.79270E-03-2.01017E-02 3.03730E-14-6.40191E-13
 -1      2244 1.90141E+01 3.95672E+00-7.97491E-03 2.93456E-01 1.88881E-13-6.30623E-13
 -1      2245 1.89623E+01 3.98540E+00-9.15696E-03 1.78451E-01 1.37806E-13-6.38205E-13
 -1      2246 1.90550E+01 3.70616E+00 1.63156E-03 1.22533E-01 1.11064E-13-5.95536E-13
 -1      2247 1.91988E+01 3.82383E+00-8.32139E-03 5.06175E-01 2.78783E-13-5.99654E-13
 -1      2248 1.90918E+01 3.88683E+00-1.11971E-02 3.82138E-01 2.22043E-13-6.18969E-13
 -1      2249 1.91623E+01 3.62379E+00 1.99304E-03 2.85381E-01 1.89399E-13-5.80800E-13
 -1      2250 1.94962E+01 3.58628E+00-1.02701E-02 7.52785E-01 3.94564E-13-4.99785E-13
 -1      2251 1.93327E+01 3.69476E+00-1.38607E-02 6.08176E-01 3.25888E-13-5.56305E-13
 -1      2252 1.93886E+01 3.43654E+00 2.36093E-03 4.62749E-01 2.90497E-13-5.31245E-13
 -1      2253 1.98983E+01 3.21739E+00-1.52740E-02 1.03301E+00 4.79110E-13-3.88196E-13
 -1      2254 1.96834E+01 3.38983E+00-1.69937E-02 8.68227E-01 4.19769E-13-4.56666E-13
 -1      2255 1.97298E+01 3.12842E+00 3.38881E-03 6.63238E-01 3.89498E-13-4.38268E-13
 -1      2256 2.04006E+01 2.66681E+00-2.53557E-02 1.31899E+00 5.47686E-13-1.93658E-13
 -1      2257 2.01379E+01 2.93961E+00-1.93250E-02 1.14904E+00 5.03664E-13-3.03790E-13
 -1      2258 2.01680E+01 2.67752E+00 6.41410E-03 8.71926E-01 4.66243E-13-3.08290E-13
 -1      2259 2.07599E+01 3.87121E-01 9.64727E-03-2.87152E-01 2.80033E-13 1.68924E-13
 -1      2260 2.07856E+01 4.68880E-01 2.02971E-02-7.98696E-02 3.18190E-13 2.37166E-13
 -1      2261 2.08021E+01 7.61728E-01-4.51991E-03 1.24377E-01 3.77359E-13 5.67623E-14
 -1      2262 2.08966E+01 9.19669E-01 1.40508E-02-5.52747E-01-3.96926E-13 6.06134E-15
 -1      2263 2.07647E+01 7.06801E-01-1.49960E-03-2.15514E-01-3.51013E-13-1.32388E-14
 -1      2264 3.08976E+01-1.07078E+00-1.27559E-01 2.86977E-01 5.70592E-13-1.21875E-13
 -1      2265 2.84680E+01-3.17398E+00-1.69782E-02 1.57366E+00 2.77285E-13-3.77476E-14
 -1      2266 2.07509E+01 5.60091E-01 1.61778E-02 4.19936E-02-2.99652E-13-9.36751E-17
 -1      2267 2.07071E+01 4.42845E-01 2.54711E-03 2.49114E-01-2.51568E-13-1.83789E-14
 -1      2268 2.07233E+01 8.58821E-01-4.01572E-03-1.35419E-01-3.39058E-13-1.01139E-13
 -1      2269 2.07112E+01 3.59235E-01 1.11316E-02 4.31810E-01-2.20618E-13 8.81044E-15
 -1      2270 2.07448E+01 2.83959E-01 2.59539E-03 5.65101E-01-1.82954E-13-3.98457E-14
 -1      2271 2.06826E+01 5.46020E-01-5.50591E-03 3.39590E-01-2.48020E-13-8.93530E-14
 -1      2272 2.07859E+01 2.23198E-01 7.34316E-03 6.89535E-01-1.49433E-13-5.11865E-14
 -1      2273 2.08761E+01 1.60847E-01 1.36128E-03 7.70328E-01-1.26432E-13-6.47695E-14
 -1      2274 2.07151E+01 3.44288E-01-5.62052E-03 6.72231E-01-1.88936E-13-7.48256E-14
 -1      2275 2.09576E+01 1.02296E-01 5.40759E-03 8.44883E-01-1.04263E-13-7.42977E-14
 -1      2276 2.10846E+01 3.48258E-02-8.13824E-04 8.77742E-01-9.60037E-14-8.31585E-14
 -1      2277 2.08287E+01 1.78379E-01-5.38422E-03 8.90431E-01-1.42567E-13-9.78674E-14
 -1      2278 2.12072E+01-3.45549E-02 4.79877E-03 9.00230E-01-1.02646E-13-7.82870E-14
 -1      2279 2.13531E+01-1.18791E-01-3.96928E-03 8.79353E-01-8.72953E-14-6.78419E-14
 -1      2280 2.10217E+01 1.98091E-03-5.31532E-03 1.00193E+00-1.05024E-13-1.13179E-13
 -1      2281 2.15172E+01-2.06339E-01 4.98377E-03 8.38886E-01-5.27779E-14-8.13996E-14
 -1      2282 2.16632E+01-3.11612E-01-7.97521E-03 7.52741E-01-6.30663E-14-6.62119E-14
 -1      2283 2.12925E+01-2.13824E-01-5.51155E-03 9.94639E-01-8.22687E-14-1.44028E-13
 -1      2284 2.18662E+01-4.15703E-01 5.29612E-03 6.33122E-01-1.09754E-13-1.56662E-14
 -1      2285 2.19911E+01-5.32954E-01-1.21178E-02 4.70969E-01-1.27616E-13 1.78400E-15
 -1      2286 2.16380E+01-4.78253E-01-5.57200E-03 8.41464E-01-6.78501E-14-1.05399E-13
 -1      2287 2.22193E+01-6.35813E-01 4.62484E-03 2.58421E-01-8.39810E-14 4.75384E-14
 -1      2288 2.22984E+01-7.33903E-01-1.47479E-02 2.14433E-02-5.49907E-14 1.00289E-13
 -1      2289 2.20453E+01-7.66211E-01-4.46524E-03 5.10460E-01-8.19817E-14 1.15400E-14
 -1      2290 2.25165E+01-7.94308E-01 1.35999E-03-2.79754E-01-4.45685E-14 1.23657E-13
 -1      2291 2.25251E+01-8.15183E-01-1.29798E-02-5.62437E-01 1.17484E-14 1.23775E-13
 -1      2292 2.24741E+01-9.97858E-01-9.11111E-04-1.27766E-02-3.27386E-14 8.81536E-14
 -1      2293 2.26702E+01-7.70114E-01-5.34103E-03-9.05560E-01 3.67922E-14 1.36382E-13
 -1      2294 2.25933E+01-6.43020E-01-3.76646E-03-1.16117E+00 6.28672E-14 1.63544E-13
 -1      2295 2.28401E+01-1.02964E+00 5.87829E-03-6.84920E-01 4.74577E-15 1.75595E-13
 -1      2296 2.25912E+01-4.36373E-01-1.48724E-02-1.43204E+00 3.07887E-14 8.16929E-14
 -1      2297 2.24424E+01-1.32455E-01 1.07594E-02-1.54590E+00-4.06132E-14 9.47020E-14
 -1      2298 2.30168E+01-6.91000E-01 1.37842E-02-1.35032E+00-2.70573E-15 1.40610E-13
 -1      2299 2.22756E+01 2.17446E-01-2.15508E-02-1.58313E+00-1.00472E-13 7.68552E-14
 -1      2300 2.21077E+01 6.14429E-01 2.16422E-02-1.44982E+00-1.53706E-13 4.52876E-14
 -1      2301 2.29047E+01 6.80107E-02 1.24544E-02-1.71531E+00-1.11093E-13 8.22465E-14
 -1      2302 2.18791E+01 9.69256E-01-1.61264E-02-1.14611E+00-1.93401E-13 3.63511E-15
 -1      2303 2.17701E+01 1.25981E+00 1.89094E-02-7.57306E-01-2.28658E-13-5.66496E-15
 -1      2304 2.25656E+01 1.02835E+00-1.79817E-03-1.46856E+00-1.92849E-13 1.43397E-13
 -1      2305 2.16648E+01 1.41092E+00 1.40372E-03-1.87542E-01-2.75641E-13-8.54191E-14
 -1      2306 2.16754E+01 1.40500E+00 4.16229E-04 3.12095E-01-2.85593E-13-8.65297E-14
 -1      2307 2.22654E+01 1.72035E+00-1.59706E-02-5.45531E-01-3.06124E-13 4.45639E-14
 -1      2308 2.17940E+01 1.25039E+00 1.74327E-02 8.74364E-01-2.59026E-13-1.56693E-13
 -1      2309 2.19206E+01 9.59885E-01-1.78408E-02 1.26138E+00-2.48955E-13-1.74356E-13
 -1      2310 2.22798E+01 1.71503E+00-1.56494E-02 6.81917E-01-3.02881E-13-9.27522E-14
 -1      2311 2.21638E+01 6.04812E-01 2.07038E-02 1.56159E+00-2.47818E-13-2.06453E-13
 -1      2312 2.23503E+01 2.10765E-01-2.18765E-02 1.69124E+00-1.39101E-13-2.42021E-13
 -1      2313 2.26022E+01 1.02130E+00-1.81913E-03 1.59483E+00-2.55834E-13-2.01773E-13
 -1      2314 2.25239E+01-1.33354E-01 9.51480E-03 1.65181E+00-2.62344E-14-3.22141E-13
 -1      2315 2.26914E+01-4.30823E-01-1.48226E-02 1.53859E+00 6.10978E-14-3.09335E-13
 -1      2316 2.29607E+01 6.13880E-02 1.09274E-02 1.83382E+00-1.30239E-13-1.89592E-13
 -1      2317 2.26990E+01-6.30774E-01-4.76708E-03 1.27114E+00 6.37732E-14-3.87018E-13
 -1      2318 2.27953E+01-7.51398E-01-4.92230E-03 1.02107E+00 9.28849E-14-3.73872E-13
 -1      2319 2.30862E+01-6.79731E-01 1.26779E-02 1.46891E+00 3.22091E-14-2.88876E-13
 -1      2320 2.26577E+01-7.92087E-01-1.33582E-02 6.86169E-01 1.02245E-13-3.48385E-13
 -1      2321 2.26699E+01-7.67951E-01 1.95033E-03 4.11844E-01 1.44174E-13-2.76425E-13
 -1      2322 2.29247E+01-1.00226E+00 5.84353E-03 8.16409E-01 1.11052E-13-3.46260E-13
 -1      2323 2.24603E+01-7.06553E-01-1.50134E-02 1.20080E-01 9.73687E-14-2.44660E-13
 -1      2324 2.24026E+01-6.08898E-01 4.78349E-03-1.08299E-01 6.07298E-14-2.22242E-13
 -1      2325 2.25762E+01-9.63651E-01-7.79983E-04 1.62410E-01 1.20331E-13-2.22754E-13
 -1      2326 2.21824E+01-5.08473E-01-1.23815E-02-3.13206E-01-2.28333E-15-2.59038E-13
 -1      2327 2.20782E+01-3.95578E-01 5.06746E-03-4.69260E-01-5.59745E-14-3.13379E-13
 -1      2328 2.21649E+01-7.33771E-01-4.05747E-03-3.43853E-01-1.01544E-14-2.85997E-13
 -1      2329 2.18801E+01-2.97769E-01-8.28099E-03-5.86530E-01-1.14874E-13-3.83731E-13
 -1      2330 2.17509E+01-2.01410E-01 4.14272E-03-6.72341E-01-3.62367E-14-3.87147E-13
 -1      2331 2.17713E+01-4.57913E-01-4.66195E-03-6.66035E-01-1.69613E-13-4.22654E-13
 -1      2332 2.15854E+01-1.24820E-01-4.40935E-03-7.19744E-01-4.89463E-15-5.20817E-13
 -1      2333 2.14476E+01-5.56137E-02 2.95559E-03-7.50160E-01-4.55742E-14-4.61021E-13
 -1      2334 2.14295E+01-2.17663E-01-4.05461E-03-8.26565E-01-1.30301E-13-5.02212E-13
 -1      2335 2.13136E+01-3.87492E-03-1.41179E-03-7.49266E-01-1.94040E-14-4.83670E-13
 -1      2336 2.11785E+01 3.92445E-02 1.94256E-03-7.41821E-01-7.05720E-14-4.19805E-13
 -1      2337 2.11455E+01-4.21938E-02-3.18026E-03-8.67354E-01-3.16852E-14-6.33498E-13
 -1      2338 2.10710E+01 6.96011E-02 6.21392E-04-7.11466E-01-1.11364E-13-3.84055E-13
 -1      2339 2.09457E+01 9.22538E-02 1.21603E-03-6.81493E-01-7.88395E-14-4.28102E-13
 -1      2340 2.09130E+01 6.92173E-02-2.43714E-03-8.29813E-01-6.81393E-14-5.96099E-13
 -1      2341 2.08594E+01 1.06822E-01 1.83080E-03-6.35897E-01-3.82507E-14-3.17762E-13
 -1      2342 2.07479E+01 1.15283E-01 7.45643E-04-5.94938E-01 8.08815E-16-2.82884E-13
 -1      2343 2.07233E+01 1.29479E-01-1.90862E-03-7.47410E-01 1.05288E-14-4.56184E-13
 -1      2344 2.06785E+01 1.19373E-01 2.42130E-03-5.43866E-01-5.13921E-14-2.62342E-13
 -1      2345 2.05824E+01 1.18943E-01 4.61163E-04-4.99744E-01-5.61944E-14-2.69193E-13
 -1      2346 2.05684E+01 1.53738E-01-1.55502E-03-6.44383E-01-3.64285E-14-2.33091E-13
 -1      2347 2.05266E+01 1.16735E-01 2.58827E-03-4.49356E-01-5.25223E-14-2.32511E-13
 -1      2348 2.04462E+01 1.11331E-01 2.96783E-04-4.06879E-01-5.10437E-14-1.02123E-13
 -1      2349 2.04422E+01 1.55080E-01-1.31338E-03-5.36863E-01-2.11512E-14-1.32312E-13
 -1      2350 2.04015E+01 1.05787E-01 2.49069E-03-3.60689E-01-1.71890E-14-1.61592E-13
 -1      2351 2.03358E+01 9.80637E-02 2.04165E-04-3.22471E-01 1.14776E-13-7.37025E-14
 -1      2352 2.03397E+01 1.43326E-01-1.13317E-03-4.34694E-01-1.28575E-14 1.07422E-13
 -1      2353 2.03003E+01 9.11267E-02 2.24614E-03-2.82172E-01-2.52869E-14-1.23399E-13
 -1      2354 2.02479E+01 8.27551E-02 1.51854E-04-2.49353E-01-4.52879E-14-1.99033E-13
 -1      2355 2.02573E+01 1.25217E-01-9.83364E-04-3.43201E-01-5.19388E-14 7.18744E-14
 -1      2356 2.02199E+01 7.56151E-02 1.93543E-03-2.15464E-01-8.76496E-16-2.69746E-13
 -1      2357 2.01790E+01 6.75685E-02 1.21037E-04-1.88256E-01 1.52954E-14-1.97488E-13
 -1      2358 2.01916E+01 1.05057E-01-8.48676E-04-2.64657E-01-8.92513E-14-7.81336E-14
 -1      2359 2.01573E+01 6.08948E-02 1.61051E-03-1.60585E-01 2.20363E-14-2.36797E-13
 -1      2360 2.01259E+01 5.36799E-02 1.01201E-04-1.38665E-01 4.65917E-14-1.51823E-13
 -1      2361 2.01400E+01 8.53938E-02-7.23585E-04-1.99399E-01 4.36559E-15-9.06971E-14
 -1      2362 2.01093E+01 4.78013E-02 1.30219E-03-1.16630E-01 2.26519E-14-2.29271E-14
 -1      2363 2.00859E+01 4.16282E-02 8.68264E-05-9.94021E-02 1.24761E-13 3.54066E-14
 -1      2364 2.01001E+01 6.75894E-02-6.07449E-04-1.46627E-01 1.44554E-13 7.53248E-14
 -1      2365 2.00734E+01 3.66608E-02 1.02674E-03-8.22486E-02 1.53137E-13-3.47834E-14
 -1      2366 2.00563E+01 3.15613E-02 7.52014E-05-6.90111E-02 2.16713E-13 8.78040E-14
 -1      2367 2.00697E+01 5.22424E-02-5.01401E-04-1.04951E-01 1.40344E-13 1.56602E-13
 -1      2368 2.00471E+01 2.74963E-02 7.90886E-04-5.59396E-02 1.78959E-13 8.42940E-14
 -1      2369 2.00350E+01 2.34015E-02 6.50765E-05-4.59880E-02 1.10362E-13 9.40777E-14
 -1      2370 2.00470E+01 3.94855E-02-4.06713E-04-7.27460E-02 1.37521E-13-6.34508E-14
 -1      2371 2.00284E+01 2.01617E-02 5.95416E-04-3.62361E-02 1.90805E-13 1.01091E-13
 -1      2372 2.00200E+01 1.69529E-02 5.58836E-05-2.89188E-02 1.82494E-13 2.57742E-13
 -1      2373 2.00304E+01 2.91854E-02-3.24105E-04-4.83774E-02 1.64552E-13 9.59777E-14
 -1      2374 2.00154E+01 1.44291E-02 4.37735E-04-2.18030E-02 9.50656E-15 2.45658E-13
 -1      2375 2.00099E+01 1.19682E-02 4.72966E-05-1.65501E-02-3.76574E-15 1.65571E-13
 -1      2376 2.00186E+01 2.10710E-02-2.53590E-04-3.03269E-02 7.78845E-14 1.32630E-13
 -1      2377 2.00068E+01 1.00406E-02 3.13531E-04-1.14848E-02-2.30298E-14 2.84230E-13
 -1      2378 2.00034E+01 8.18777E-03 3.89937E-05-7.81823E-03-3.44924E-14 3.15232E-13
 -1      2379 2.00104E+01 1.48141E-02-1.94574E-04-1.72586E-02 6.69168E-14 2.56985E-13
 -1      2380 2.00014E+01 6.73808E-03 2.17854E-04-4.32041E-03-1.00702E-13 2.53171E-13
 -1      2381 1.99996E+01 5.36101E-03 3.05664E-05-1.85445E-03-1.90793E-14 2.21947E-13
 -1      2382 2.00050E+01 1.00758E-02-1.46047E-04-8.04476E-03-7.61097E-14 3.71195E-13
 -1      2383 1.99984E+01 4.27829E-03 1.45848E-04 4.59879E-04 1.88243E-13 2.85285E-13
 -1      2384 1.99976E+01 3.25560E-03 2.15583E-05 2.02381E-03 3.48505E-13 2.86338E-13
 -1      2385 2.00016E+01 6.53111E-03-1.06785E-04-1.76865E-03 1.42846E-14 3.73825E-13
 -1      2386 1.99970E+01 2.43773E-03 9.31054E-05 3.44750E-03 2.28074E-13 2.80978E-13
 -1      2387 1.99969E+01 1.65839E-03 1.12791E-05 4.32837E-03 2.13143E-13 3.52933E-13
 -1      2388 1.99996E+01 3.88015E-03-7.54817E-05 2.28744E-03 2.55420E-13 3.02225E-13
 -1      2389 1.99967E+01 1.01040E-03 5.58545E-05 5.07138E-03 1.63146E-13 2.07959E-13
 -1      2390 1.99970E+01 3.76802E-04 1.43298E-06 5.41486E-03 7.36937E-14 2.41025E-13
 -1      2391 1.99987E+01 1.84636E-03-5.14571E-05 4.66065E-03 9.51767E-14 3.12148E-13
 -1      2392 1.99970E+01-2.03019E-04 2.65000E-05 5.62138E-03-9.60776E-14 2.08246E-13
 -1      2393 1.99976E+01-7.51939E-04-4.45583E-06 5.50468E-03-2.45354E-13 1.65329E-13
 -1      2394 1.99984E+01 1.94057E-04-3.21379E-05 5.72691E-03-4.36171E-14 1.96983E-13
 -1      2395 2.10642E+01 2.31044E-01 6.99742E-03-9.15368E-01 1.44200E-13 5.10744E-14
 -1      2396 2.08985E+01 2.58186E-01 7.65689E-03-8.00048E-01 1.69103E-13 9.96292E-14
 -1      2397 2.13951E+01 1.75445E-01 5.01107E-03-1.12927E+00 1.43514E-13 3.98011E-15
 -1      2398 2.11686E+01 2.05211E-01 4.75948E-03-1.04090E+00 1.53944E-13 3.77237E-14
 -1      2399 2.09589E+01 3.04443E-01-5.63842E-03-1.10899E+00 1.74214E-13-6.25278E-14
 -1      2400 2.18162E+01 9.10227E-02 1.70044E-03-1.27619E+00 1.45959E-13 2.66655E-14
 -1      2401 2.15471E+01 1.39763E-01 3.40213E-03-1.22277E+00 1.25150E-13 1.37731E-14
 -1      2402 2.12137E+01 2.16016E-01-5.57752E-03-1.34991E+00 1.58127E-13-9.11439E-14
 -1      2403 2.23098E+01-5.54001E-02-3.66779E-03-1.32082E+00 8.73847E-14 6.18099E-14
 -1      2404 2.20184E+01 2.98490E-02 3.22339E-03-1.32416E+00 1.04352E-13 5.67623E-14
 -1      2405 2.15611E+01 7.73844E-02-6.38467E-03-1.51021E+00 1.01632E-13-3.38113E-14
 -1      2406 2.28579E+01-2.93387E-01-1.12109E-02-1.19951E+00 7.09285E-15 1.47879E-13
 -1      2407 2.25711E+01-1.57718E-01 4.13087E-03-1.29405E+00 7.80478E-14 1.16376E-13
 -1      2408 2.20094E+01-1.56932E-01-8.32929E-03-1.54770E+00 3.95015E-14 3.54341E-14
 -1      2409 2.34327E+01-6.26007E-01-1.99893E-02-8.30373E-01-4.99861E-14 1.96123E-13
 -1      2410 2.31887E+01-4.43796E-01 5.89301E-03-1.05430E+00-2.80791E-14 1.87828E-13
 -1      2411 2.25764E+01-5.19763E-01-1.06990E-02-1.38859E+00-3.07575E-14 1.23160E-13
 -1      2412 2.39824E+01-9.82251E-01-2.67364E-02-1.45962E-01 1.42577E-14 2.12897E-13
 -1      2413 2.38309E+01-8.04682E-01 6.50058E-03-5.18384E-01-3.27802E-14 2.06031E-13
 -1      2414 2.32744E+01-9.94041E-01-1.18037E-02-9.37972E-01-4.07582E-14 1.41156E-13
 -1      2415 2.44006E+01-1.15404E+00-2.50382E-02 8.21511E-01 8.37958E-14 3.21066E-13
 -1      2416 2.43981E+01-1.10817E+00 1.80708E-03 3.49546E-01 4.22119E-14 2.81784E-13
 -1      2417 2.40674E+01-1.43698E+00-9.01875E-03-1.18879E-01-1.11395E-14 1.63898E-13
 -1      2418 2.45273E+01-8.13052E-01-9.05255E-03 1.81654E+00 1.03972E-13 3.50098E-13
 -1      2419 2.47091E+01-1.07329E+00-1.14899E-02 1.41422E+00 1.13987E-13 3.87352E-13
 -1      2420 2.48103E+01-1.52692E+00-2.22893E-03 1.02427E+00 6.61736E-14 3.64584E-13
 -1      2421 2.42457E+01 2.27848E-01 1.43841E-02 2.25591E+00 1.44419E-13 3.08408E-13
 -1      2422 2.45375E+01-3.74184E-01-3.96364E-02 2.21137E+00 1.17041E-13 3.62954E-13
 -1      2423 2.51917E+01-8.05890E-01-3.65645E-03 2.14326E+00 1.23489E-13 4.52872E-13
 -1      2424 2.37136E+01 1.48680E+00 1.19696E-02 1.58129E+00 2.79089E-13 2.58813E-13
 -1      2425 2.39475E+01 8.49916E-01-6.56076E-02 2.04793E+00 1.61496E-13 3.16836E-13
 -1      2426 2.49985E+01 7.66821E-01-1.23831E-02 2.50207E+00 1.88859E-13 4.03913E-13
 -1      2427 2.34330E+01 2.03379E+00-2.46714E-02-1.07534E-01 5.41685E-13 3.26497E-14
 -1      2428 2.34718E+01 1.91557E+00-3.76456E-02 7.07534E-01 4.41126E-13 1.85094E-13
 -1      2429 2.46259E+01 2.33734E+00-2.31884E-02 1.37447E+00 4.24050E-13 2.50525E-13
 -1      2430 2.37792E+01 1.34481E+00-5.27061E-02-1.77735E+00 3.79734E-13-1.79111E-13
 -1      2431 2.35619E+01 1.83277E+00 1.17512E-03-1.12754E+00 5.31190E-13-6.27814E-14
 -1      2432 2.44853E+01 2.61983E+00-5.13903E-02-7.19970E-01 6.14973E-13 1.44138E-14
 -1      2433 2.44348E+01 4.62146E-02-4.92812E-02-2.39495E+00 1.49859E-13-3.98583E-13
 -1      2434 2.41061E+01 7.13330E-01 1.34498E-02-2.25187E+00 2.89650E-13-3.23652E-13
 -1      2435 2.48986E+01 1.36823E+00-2.40129E-02-2.31436E+00 3.99770E-13-2.43652E-13
 -1      2436 2.48228E+01-8.79966E-01-1.98461E-02-1.88153E+00-9.25787E-14-5.22810E-13
 -1      2437 2.45735E+01-4.94823E-01 3.01270E-03-2.17169E+00 1.61798E-14-4.12211E-13
 -1      2438 2.52571E+01-3.26257E-01 1.52789E-03-2.53943E+00 1.04257E-13-3.38998E-13
 -1      2439 2.47270E+01-1.13576E+00 2.23926E-04-8.65440E-01-1.90377E-13-4.32624E-13
 -1      2440 2.46289E+01-1.08917E+00-2.13915E-02-1.32303E+00-1.37253E-13-4.71055E-13
 -1      2441 2.50972E+01-1.34136E+00-3.84632E-03-1.61434E+00-1.32053E-13-2.95710E-13
 -1      2442 2.42723E+01-9.19565E-01 7.45030E-03 9.78990E-02-1.48400E-13-2.22888E-13
 -1      2443 2.43400E+01-1.06868E+00-2.86854E-02-3.05419E-01-1.97087E-13-3.91858E-13
 -1      2444 2.44976E+01-1.52299E+00-9.34415E-03-4.19128E-01-2.32849E-13-3.03450E-13
 -1      2445 2.36837E+01-5.58585E-01 7.10240E-03 7.49965E-01-7.44539E-14-9.17851E-14
 -1      2446 2.38687E+01-7.45609E-01-2.26899E-02 4.84022E-01-4.25493E-14-1.56217E-13
 -1      2447 2.37258E+01-1.16081E+00-1.34250E-02 5.27701E-01-1.83030E-13-1.88677E-13
 -1      2448 2.30920E+01-2.40892E-01 4.58334E-03 1.08250E+00-2.33293E-13-1.14386E-13
 -1      2449 2.33385E+01-3.90804E-01-1.39656E-02 9.51938E-01-1.01707E-13-6.99848E-14
 -1      2450 2.30126E+01-6.70163E-01-1.22703E-02 1.09877E+00-1.05981E-13-2.88648E-14
 -1      2451 2.25511E+01-2.56581E-02 2.50494E-03 1.17755E+00-2.63831E-13-1.31481E-13
 -1      2452 2.28177E+01-1.21215E-01-6.14800E-03 1.14607E+00-2.99767E-13-1.25649E-13
 -1      2453 2.24238E+01-2.62133E-01-8.78693E-03 1.34690E+00-2.48811E-13-1.98753E-14
 -1      2454 2.20755E+01 9.48240E-02 1.35146E-03 1.12694E+00-1.92947E-13-1.01229E-13
 -1      2455 2.23350E+01 4.45950E-02-5.82426E-04 1.15544E+00-2.41355E-13-1.49934E-13
 -1      2456 2.19525E+01 5.38136E-03-5.57519E-03 1.37530E+00-2.38736E-13-1.56343E-13
 -1      2457 2.16654E+01 1.48241E-01 8.42045E-04 1.00181E+00-1.25998E-14 3.77015E-15
 -1      2458 2.19023E+01 1.28428E-01 2.76688E-03 1.06009E+00-8.58909E-14-6.42176E-14
 -1      2459 2.15723E+01 1.50546E-01-3.47983E-03 1.27659E+00-1.64061E-13-1.55881E-13
 -1      2460 2.13172E+01 1.60996E-01 6.73104E-04 8.48774E-01 1.02151E-14-2.00410E-14
 -1      2461 2.15240E+01 1.58904E-01 4.41620E-03 9.17227E-01 3.24851E-14-1.43716E-14
 -1      2462 2.12601E+01 2.11462E-01-2.35401E-03 1.11704E+00-1.34326E-14-1.48038E-13
 -1      2463 2.10260E+01 1.52120E-01 6.37696E-04 6.94984E-01-6.56320E-14 3.19277E-14
 -1      2464 2.12005E+01 1.59043E-01 4.93775E-03 7.62387E-01-3.13608E-14-2.68888E-14
 -1      2465 2.10011E+01 2.22182E-01-1.81862E-03 9.38651E-01 6.91851E-15-2.50204E-13
 -1      2466 2.07866E+01 1.33545E-01 6.32111E-04 5.54371E-01-1.54916E-13 1.19570E-13
 -1      2467 2.09298E+01 1.44191E-01 4.79387E-03 6.15157E-01-6.24251E-14 7.68253E-14
 -1      2468 2.07860E+01 2.06699E-01-1.56914E-03 7.65426E-01-1.30073E-13-1.22239E-13
 -1      2469 2.05929E+01 1.12052E-01 6.15357E-04 4.32764E-01 1.38689E-13-1.15065E-13
 -1      2470 2.07079E+01 1.23495E-01 4.30964E-03 4.84778E-01 5.72773E-14 3.19469E-14
 -1      2471 2.06084E+01 1.79872E-01-1.42556E-03 6.09439E-01-4.36130E-14-4.17060E-14
 -1      2472 2.04388E+01 9.11529E-02 5.77959E-04 3.31403E-01 9.06955E-14-1.68066E-13
 -1      2473 2.05292E+01 1.01923E-01 3.69058E-03 3.74375E-01 1.13008E-13-1.36751E-13
 -1      2474 2.04636E+01 1.50072E-01-1.30280E-03 4.75458E-01 1.52958E-13-1.49940E-13
 -1      2475 2.03183E+01 7.24483E-02 5.23547E-04 2.49154E-01 1.82949E-14 1.34863E-14
 -1      2476 2.03881E+01 8.19149E-02 3.05528E-03 2.83753E-01 5.26530E-14-7.02823E-14
 -1      2477 2.03473E+01 1.21584E-01-1.17154E-03 3.64095E-01 2.71093E-14-8.71977E-14
 -1      2478 2.02256E+01 5.64952E-02 4.59348E-04 1.83814E-01 2.62719E-13 2.00029E-13
 -1      2479 2.02785E+01 6.44759E-02 2.46558E-03 2.11106E-01 1.06661E-13 5.10497E-14
 -1      2480 2.02552E+01 9.63173E-02-1.02896E-03 2.73802E-01 8.11717E-14 2.16650E-13
 -1      2481 2.01555E+01 4.33138E-02 3.92194E-04 1.32838E-01 2.04598E-13 2.46058E-13
 -1      2482 2.01949E+01 4.98529E-02 1.94879E-03 1.53988E-01 3.46069E-13 3.04834E-13
 -1      2483 2.01835E+01 7.48892E-02-8.81866E-04 2.02059E-01 2.79110E-13 5.15050E-13
 -1      2484 2.01035E+01 3.26733E-02 3.27197E-04 9.37234E-02 2.02911E-13 2.58194E-13
 -1      2485 2.01322E+01 3.79166E-02 1.51256E-03 1.09846E-01 1.72636E-13 3.23951E-13
 -1      2486 2.01287E+01 5.72557E-02-7.38512E-04 1.46053E-01 2.43783E-13 3.80914E-13
 -1      2487 2.00658E+01 2.42442E-02 2.67611E-04 6.41911E-02 1.28619E-13 1.14161E-13
 -1      2488 2.00863E+01 2.83734E-02 1.15412E-03 7.62839E-02 2.04437E-13 2.01087E-13
 -1      2489 2.00876E+01 4.30674E-02-6.05437E-04 1.03046E-01 2.17160E-13 3.83912E-13
 -1      2490 2.00391E+01 1.76768E-02 2.15121E-04 4.22593E-02 1.47981E-13-1.98339E-14
 -1      2491 2.00532E+01 2.08762E-02 8.65747E-04 5.11781E-02 1.51958E-13 4.46050E-14
 -1      2492 2.00573E+01 3.18599E-02-4.86668E-04 7.05495E-02 2.88825E-13 1.71047E-13
 -1      2493 2.00207E+01 1.26393E-02 1.70242E-04 2.62580E-02-8.25423E-14-7.69855E-14
 -1      2494 2.00302E+01 1.50798E-02 6.37855E-04 3.27168E-02 1.22694E-13-9.20847E-14
 -1      2495 2.00356E+01 2.31514E-02-3.83980E-04 4.63992E-02 1.79608E-13 9.00393E-14
 -1      2496 2.00086E+01 8.83323E-03 1.32659E-04 1.48132E-02-1.65058E-13-1.33951E-13
 -1      2497 2.00146E+01 1.06669E-02 4.60637E-04 1.93942E-02-3.03081E-13-2.40503E-13
 -1      2498 2.00204E+01 1.64888E-02-2.97465E-04 2.87691E-02-7.35882E-14-2.13278E-13
 -1      2499 2.00011E+01 5.99820E-03 1.01485E-04 6.81857E-03-7.45979E-14-1.21688E-14
 -1      2500 2.00046E+01 7.35664E-03 3.24922E-04 9.98651E-03-1.75224E-14-7.81178E-14
 -1      2501 2.00102E+01 1.14669E-02-2.26130E-04 1.61552E-02-1.83466E-13-2.71662E-13
 -1      2502 1.99969E+01 3.91004E-03 7.54604E-05 1.40357E-03 1.41444E-14-2.37947E-14
 -1      2503 1.99986E+01 4.90611E-03 2.22553E-04 3.52053E-03-1.36779E-14 6.07809E-15
 -1      2504 2.00036E+01 7.73290E-03-1.68369E-04 7.34639E-03 7.12387E-15-1.12080E-13
 -1      2505 1.99950E+01 2.37674E-03 5.31665E-05-2.09770E-03 1.81795E-13 3.10669E-13
 -1      2506 1.99955E+01 3.10690E-03 1.46485E-04-7.58410E-04 4.04387E-14 1.85296E-13
 -1      2507 1.99997E+01 4.98319E-03-1.22250E-04 1.39055E-03-8.09842E-14-7.31806E-14
 -1      2508 1.99946E+01 1.23201E-03 3.29851E-05-4.17545E-03 2.51529E-13 4.41012E-13
 -1      2509 1.99944E+01 1.78033E-03 9.07827E-05-3.41698E-03 3.06940E-13 4.30795E-13
 -1      2510 1.99977E+01 2.95804E-03-8.58458E-05-2.43908E-03 7.84467E-14 1.61137E-13
 -1      2511 1.99952E+01 3.27366E-04 1.51861E-05-5.16655E-03 8.33396E-14 4.61998E-13
 -1      2512 1.99945E+01 7.68438E-04 5.06977E-05-4.86063E-03 1.22496E-13 5.89841E-13
 -1      2513 1.99969E+01 1.43065E-03-5.77070E-05-4.67738E-03 1.64422E-13 5.44016E-13
 -1      2514 1.99963E+01-4.82969E-04-1.75781E-06-5.27738E-03 2.16095E-13 2.16850E-13
 -1      2515 1.99954E+01-8.13751E-05 2.04864E-05-5.35861E-03 1.92601E-13 4.40658E-13
 -1      2516 1.99970E+01 2.08881E-04-3.42499E-05-5.69415E-03 1.95335E-13 6.87967E-13
 -1      2517 1.99975E+01-1.29293E-03-1.92348E-05-4.60895E-03-9.81476E-14 3.20399E-13
 -1      2518 1.99966E+01-8.72008E-04 6.69017E-06-5.03506E-03 1.78288E-14 2.50834E-13
 -1      2519 1.99976E+01-9.41698E-04-1.75783E-05-5.73431E-03 1.09702E-13 5.80888E-13
 -1      2520 1.99980E+01-1.70575E-03-3.26404E-06-3.94107E-03 2.32478E-14 3.47952E-13
 -1      2521 2.00014E+01-5.22653E-03 8.51962E-06-3.46106E-03 1.21260E-13 2.97177E-14
 -1      2522 2.00012E+01-4.75755E-03 1.47940E-05-3.97423E-03 1.47784E-13-3.12252E-13
 -1      2523 2.00016E+01-5.60123E-03 9.23783E-06-2.23893E-03 1.07503E-13 3.93257E-14
 -1      2524 2.00015E+01-5.28175E-03 1.94086E-05-2.83634E-03 9.85232E-14 2.03737E-13
 -1      2525 2.00019E+01-3.25064E-03-8.61217E-07-3.34704E-03 2.05523E-13 1.21834E-13
 -1      2526 2.00002E+01-3.77872E-03 1.28223E-05-5.12765E-03 7.40952E-14 2.22762E-13
 -1      2527 1.99997E+01-3.08480E-03-1.66034E-05-5.20341E-03 2.33814E-14 3.99399E-13
 -1      2528 2.00010E+01-4.61916E-03 9.34503E-06-4.48559E-03 7.25751E-14-5.05865E-13
 -1      2529 2.00006E+01-4.03165E-03 5.03841E-06-4.82505E-03 1.61191E-13-2.40263E-13
 -1      2530 2.00006E+01-2.72400E-03-5.71252E-06-5.36821E-03 1.02021E-13-2.90424E-14
 -1      2531 2.00015E+01-3.07778E-03-4.49444E-06-4.52412E-03 2.36014E-13-3.43878E-13
 -1      2532 2.00016E+01-5.76751E-03 1.20524E-05-9.41251E-04-2.00032E-14-2.89271E-13
 -1      2533 2.00016E+01-5.61002E-03 1.96008E-05-1.57092E-03 1.32502E-14-3.45510E-13
 -1      2534 2.00021E+01-3.30843E-03 2.94741E-06-2.01356E-03 4.54188E-14-1.59922E-13
 -1      2535 2.00016E+01-5.75158E-03 1.58201E-05 3.70123E-04-1.88392E-13-2.27410E-14
 -1      2536 2.00016E+01-5.76008E-03 1.65630E-05-2.64276E-04-3.26686E-14-4.40886E-14
 -1      2537 2.00022E+01-3.30958E-03 5.40185E-06-6.32051E-04 1.16721E-13-2.47331E-13
 -1      2538 2.00016E+01-5.56771E-03 1.88415E-05 1.66307E-03-1.78662E-13-8.81735E-14
 -1      2539 2.00016E+01-5.74042E-03 1.24106E-05 1.04183E-03-2.48201E-13-1.69627E-13
 -1      2540 2.00022E+01-3.29190E-03 5.54708E-06 7.50927E-04-1.36810E-13-1.27217E-13
 -1      2541 2.00014E+01-5.21977E-03 1.86903E-05 2.87915E-03 8.11928E-14 2.01300E-13
 -1      2542 2.00015E+01-5.54517E-03 9.07291E-06 2.30638E-03-4.60532E-14 1.90807E-13
 -1      2543 2.00021E+01-3.25876E-03 3.72643E-06 2.10012E-03-6.95267E-14 9.35465E-14
 -1      2544 2.00012E+01-4.68427E-03 1.33068E-05 3.98259E-03 2.87383E-13 2.50164E-13
 -1      2545 2.00013E+01-5.15590E-03 7.93911E-06 3.48579E-03 2.13148E-13 9.23084E-15
 -1      2546 2.00019E+01-3.17950E-03 1.01266E-07 3.38766E-03 9.55536E-14 1.60674E-13
 -1      2547 2.00006E+01-3.95721E-03-2.73735E-07 4.80643E-03 2.16435E-13-2.00337E-14
 -1      2548 2.00009E+01-4.53926E-03 1.02727E-05 4.47604E-03 2.15662E-13 2.29909E-13
 -1      2549 2.00014E+01-2.98476E-03 9.23682E-07 4.53579E-03 1.90464E-13 1.11746E-13
 -1      2550 1.99997E+01-3.01686E-03-1.24885E-05 5.12965E-03-8.60843E-14 2.30928E-14
 -1      2551 2.00002E+01-3.69109E-03 8.72955E-06 5.08950E-03 2.21976E-14-1.95726E-13
 -1      2552 2.00006E+01-2.63450E-03-7.67198E-06 5.32965E-03 4.06688E-14-2.08662E-13
 -1      2553 1.87304E+01-5.57619E+00-5.00774E-02 6.35717E+00-1.97842E-13 3.29434E-13
 -1      2554 1.40587E+01-5.26596E+00 6.96280E-02 6.50338E+00-3.86219E-13 8.89872E-13
 -1      2555 2.08442E+01 2.89311E-01 8.44732E-03-6.41806E-01 2.06441E-13 1.02178E-13
 -1      2556 2.07601E+01 3.31083E-01 1.28342E-02-4.93206E-01 2.31172E-13 1.47622E-13
 -1      2557 2.08000E+01 3.87323E-01-5.91599E-03-7.99307E-01 2.17194E-13-3.23734E-14
 -1      2558 3.32802E+01 3.85382E+00-1.03857E-01-1.02078E+00 1.07719E-12-1.35919E-13
 -1      2559 3.18976E+01 1.91514E+00-7.99278E-02-9.00630E-01 8.87124E-13-1.64424E-13
 -1      2560 1.99987E+01-2.45907E-03 2.78812E-06 4.49189E-03-8.19535E-14 1.94487E-13
 -1      2561 2.59166E+01-4.89391E+00-1.04973E-01 3.73823E+00 1.04972E-13-2.47025E-15
 -1      2562 2.31570E+01-5.41930E+00 6.75974E-02 4.68586E+00-8.61811E-14 1.03834E-13
 -1      2563 2.94513E+00-3.13099E+00 8.02796E-02-1.46708E+00 1.20411E-13 8.08409E-13
 -1      2564 3.93363E+00-3.36979E+00 5.90055E-02-3.48271E+00 2.43416E-14 8.22453E-13
 -1      2565 3.24788E+01 7.52422E+00-1.14433E-01 2.40780E-01-1.22213E-12-2.14814E-13
 -1      2566 3.24228E+01 7.37595E+00-1.28281E-01-2.64016E-01-1.16041E-12-1.78260E-13
 -1      2567 4.54103E+00-2.89480E+00 1.05138E-01-2.92429E+00-2.26860E-13-1.07303E-12
 -1      2568 6.45854E+00-3.84295E+00 5.77968E-02-4.99426E+00-1.53710E-13-9.51961E-13
 -1      2569 3.20706E+01 3.37666E+00-1.10283E-01 1.21540E+00 7.97723E-13 1.77913E-13
 -1      2570 3.26143E+01 5.48141E+00-1.21824E-01 1.27119E+00 8.89178E-13 1.46105E-13
 -1      2571 1.89792E+01 3.96638E+00-9.72445E-03-1.09355E-01-6.53964E-15-6.47691E-13
 -1      2572 1.90409E+01 3.93192E+00-7.22479E-03-2.29589E-01-6.79169E-14-6.35950E-13
 -1      2573 1.91995E+01 3.58239E+00 1.17250E-03-2.21350E-01-9.03540E-14-5.87478E-13
 -1      2574 1.90686E+01 3.69133E+00 1.33708E-03-4.17478E-02 1.09222E-14-5.98321E-13
 -1      2575 3.28970E+01 6.83769E+00-1.79264E-01-8.36038E-01 1.13909E-12-4.03844E-14
 -1      2576 3.32787E+01 5.73613E+00-8.52174E-02-1.06108E+00 1.12843E-12-7.21090E-14
 -1      2577 3.10620E+01 4.46426E+00-4.42407E-02-1.92494E+00 9.24677E-13-2.16105E-13
 -1      2578 3.19971E+01 6.73803E+00-1.49577E-01 6.92032E-01 9.87543E-13 1.01780E-13
 -1      2579 3.22884E+01 7.08844E+00-1.44747E-01-3.30680E-02 1.08652E-12 6.31821E-14
 -1      2580 9.16657E+00-4.45622E+00 6.15750E-02-5.88809E+00-2.23155E-13-7.72576E-13
 -1      2581 1.26256E+01-4.79837E+00-4.55583E-03-6.83626E+00-2.77112E-13-6.35991E-13
 -1      2582 9.83539E+00-3.03129E+00 1.64199E-01-5.43621E+00-3.72258E-13-7.80098E-13
 -1      2583 2.52491E+01-4.92610E+00 6.55128E-03-3.94854E+00-8.01859E-14 1.24623E-13
 -1      2584 2.79642E+01-3.74846E+00-6.15259E-02-2.93286E+00 8.41133E-14 2.21184E-13
 -1      2585 3.28985E+01 5.46975E+00-6.71112E-02 6.94756E-01-9.18210E-13-3.81278E-13
 -1      2586 3.28364E+01 6.72937E+00-1.37124E-01 7.19682E-01-1.07303E-12-3.55993E-13
 -1      2587 1.73965E+01-5.62412E+00 7.07673E-02-6.39897E+00-3.00787E-13-3.27030E-13
 -1      2588 2.17817E+01-5.60898E+00-5.15083E-02-5.82451E+00-1.58262E-13-8.89844E-14
 -1      2589 2.42706E+01-5.43989E+00 4.64492E-02-4.21456E+00-3.40616E-13 2.17201E-13
 -1      2590 3.52356E+00-2.74254E+00 7.40380E-02 1.72557E+00-4.55053E-14-1.12316E-12
 -1      2591 3.40254E+00-2.51440E+00 1.04387E-01-4.05280E-01-7.03604E-14-1.11511E-12
 -1      2592 7.58935E+00-3.77920E+00 4.72044E-02 5.78003E+00 1.21181E-13-9.44522E-13
 -1      2593 4.96085E+00-3.16281E+00 9.52148E-02 3.70292E+00 1.22694E-13-1.06637E-12
 -1      2594 1.46276E+01-5.10795E+00 1.27390E-02 7.10465E+00 1.71169E-13-6.82121E-13
 -1      2595 1.11318E+01-4.72054E+00 8.13600E-02 6.62421E+00 2.10609E-13-8.36942E-13
 -1      2596 2.88135E+01-2.32493E+00-1.37828E-01 2.01478E+00-2.75231E-13-2.82968E-13
 -1      2597 2.69414E+01-3.67607E+00 2.56562E-02 3.27409E+00-2.01728E-13-2.87048E-13
 -1      2598 3.27225E+01 6.42879E+00-1.33923E-01-6.70036E-01-1.01946E-12-2.22364E-13
 -1      2599 3.24588E+01 5.24009E+00-7.29919E-02-8.16330E-01-8.83738E-13-2.19824E-13
 -1      2600 2.09220E+01-5.17826E+00-6.49620E-03-5.81525E+00 6.22835E-14-5.66630E-14
 -1      2601 2.42122E+01-4.44986E+00-7.06044E-02-4.91968E+00-5.30687E-14-2.92266E-13
 -1      2602 3.15155E+01 1.99266E+00-8.29163E-02-2.58611E-02-7.59642E-13-4.41869E-13
 -1      2603 3.28010E+01 3.85714E+00-6.12184E-02 3.66145E-01-8.50736E-13-4.43062E-13
 -1      2604 3.11157E+01 4.38257E+00-2.31803E-02 1.41566E+00-7.45487E-13-4.88720E-13
 -1      2605 1.38644E+01-5.24995E+00 4.97381E-02-6.87529E+00 2.21601E-13 4.98102E-13
 -1      2606 1.75158E+01-5.24768E+00 2.94251E-03-6.90615E+00 9.99201E-14 2.12486E-13
 -1      2607 2.09096E+01 1.98916E+00-1.15853E-02-1.49750E+00-5.00313E-13-6.87488E-14
 -1      2608 2.08531E+01 1.26896E+00-4.12984E-03-8.62392E-01-4.55105E-13-2.72736E-14
 -1      2609 2.07463E+01 1.45848E+00 8.28760E-04-7.46126E-01-4.22626E-13-1.30598E-13
 -1      2610 2.05766E+01 2.41867E+00-1.06653E-02-1.39771E+00-4.75597E-13-2.13520E-13
 -1      2611 2.10364E+01 9.15200E-01-3.05909E-03 8.29665E-01 4.65107E-13 3.54162E-13
 -1      2612 2.13000E+01 1.27646E+00-4.63042E-03 1.35049E+00 4.95659E-13 4.26860E-13
 -1      2613 2.10755E+01 1.74265E+00-1.55625E-02 1.50917E+00 5.42787E-13 2.32349E-13
 -1      2614 2.09411E+01 1.13458E+00-9.87935E-03 7.57824E-01 4.70445E-13 1.19291E-13
 -1      2615 1.03351E+01-4.41932E+00 4.73425E-02 6.38880E+00-2.96402E-13 1.34581E-12
 -1      2616 7.63428E+00-3.73100E+00 1.09749E-01 5.19019E+00-2.89102E-13 1.31875E-12
 -1      2617 1.97686E+01 3.07151E+00 1.65148E-03-6.57798E-01-2.82531E-13-5.07501E-13
 -1      2618 1.97123E+01 3.35222E+00-1.60669E-02-8.66365E-01-3.08954E-13-5.39450E-13
 -1      2619 1.99131E+01 3.18687E+00-1.49696E-02-1.03984E+00-3.75124E-13-4.80071E-13
 -1      2620 2.07472E+01 5.14066E-01-5.56140E-03-4.03908E-01 2.95498E-13-2.16407E-15
 -1      2621 2.07837E+01 2.17292E+00-1.29072E-02 1.43270E+00 5.29965E-13 2.00187E-15
 -1      2622 1.40455E+01-4.30736E+00 1.23444E-01 6.26176E+00-5.73042E-13 8.52943E-13
 -1      2623 2.01055E+01 2.95906E+00-1.68923E-02-1.14367E+00-4.05282E-13-4.14033E-13
 -1      2624 2.03474E+01 2.70473E+00-2.03078E-02-1.31277E+00-4.56533E-13-3.24910E-13
 -1      2625 2.05275E+01 2.15863E+00 3.43729E-03-1.01551E+00-4.42759E-13-2.61103E-13
 -1      2626 2.01461E+01 2.66935E+00 3.48779E-03-8.67278E-01-3.67638E-13-4.09457E-13
 -1      2627 1.77441E+01-5.34289E+00 9.59398E-02 6.64373E+00 2.18603E-13-5.17728E-13
 -1      2628 1.68106E+01-4.74652E+00 1.23599E-01 6.60272E+00 3.53245E-13-4.95437E-13
 -1      2629 2.03798E+01-5.54614E+00-8.49970E-02 5.89317E+00 2.36700E-13-2.55402E-13
 -1      2630 1.08150E+01-3.49125E+00 1.54867E-01 6.05945E+00 2.83079E-13-8.20011E-13
 -1      2631 2.75994E+01-4.12217E+00 1.82414E-02 1.64530E+00 1.50643E-14-7.21367E-14
 -1      2632 1.66914E+01-4.86920E+00 1.32580E-01-6.28295E+00-4.73760E-13-3.00850E-13
 -1      2633 2.03331E+01-5.40105E+00 6.39117E-02-6.00396E+00 4.03400E-13-2.07112E-13
 -1      2634 2.14944E+01-5.45958E+00 7.21748E-02 5.16002E+00-3.70398E-13 1.10946E-13
 -1      2635 6.97575E+00-2.94055E+00 1.06979E-01 4.38304E+00-1.53988E-13 1.21431E-12
 -1      2636 6.61922E+00-1.71154E+00 1.70874E-01 3.30728E+00-1.02723E-13 1.16485E-12
 -1      2637 9.73153E+00-2.42932E+00 1.14229E-01 4.93940E+00-4.10200E-13 1.04688E-12
 -1      2638 1.99984E+01-2.00470E-03-1.60277E-05-4.82021E-03-1.51262E-13 3.56033E-13
 -1      2639 1.99989E+01-2.50322E-03 1.01794E-05-5.09305E-03-9.56670E-14 4.31231E-13
 -1      2640 4.27217E+00-2.12732E+00 1.43091E-01-2.10419E-01 1.61236E-13 1.03978E-12
 -1      2641 3.14576E+01 1.61493E+00-1.01910E-01 1.30290E+00 5.86656E-13 2.42667E-13
 -1      2642 2.96910E+01 2.48608E+00-1.98023E-01 2.27705E+00 5.63188E-13 3.97377E-13
 -1      2643 3.01774E+01 1.39272E-01-4.00289E-02 1.29285E+00 3.22659E-13 3.86829E-13
 -1      2644 6.46212E+00-3.06061E+00 9.33408E-02-4.44747E+00 2.19436E-13 8.56842E-13
 -1      2645 2.07572E+01 1.91788E+00 1.17296E-02 1.07383E+00 5.00358E-13-5.23201E-14
 -1      2646 3.01931E+01 6.40410E+00-8.41898E-02-5.27253E-01 1.05801E-12 1.05124E-14
 -1      2647 1.99981E+01-1.57155E-03-1.78608E-05 4.92669E-03-1.45819E-13 2.50724E-13
 -1      2648 1.99991E+01-2.57548E-03-3.82713E-06 5.24736E-03-1.52945E-13 3.12155E-13
 -1      2649 1.99994E+01-1.92695E-03 9.32019E-06 5.65112E-03-2.32701E-13 1.49618E-13
 -1      2650 1.99976E+01-1.13499E-03 2.97366E-06 5.37628E-03-2.83033E-13 2.54343E-13
 -1      2651 1.14525E+01-3.73759E+00 1.57662E-01-6.53797E+00 3.54522E-13 4.38788E-13
 -1      2652 1.25735E+01-4.81219E+00 4.86083E-02-6.79303E+00 2.96596E-13 5.48978E-13
 -1      2653 1.55242E+01-4.74274E+00 3.61050E-02-6.66313E+00 5.45564E-13 1.22499E-13
 -1      2654 3.07866E+01 3.01310E-01-2.78996E-02-2.06625E-01-5.43579E-13-5.47368E-13
 -1      2655 3.00580E+01 1.07764E+00-1.03446E-01 1.16332E+00-4.44936E-13-7.20063E-13
 -1      2656 2.92971E+01-1.23001E+00-2.58948E-02-4.34714E-01-2.19665E-13-7.72910E-13
 -1      2657 3.04432E+01 6.63103E+00-8.67792E-02-7.88488E-01-1.06226E-12-1.23013E-13
 -1      2658 2.97455E+01-1.20422E+00-1.22409E-02 6.42277E-01-2.83096E-13-1.91042E-13
 -1      2659 2.83533E+01-2.54270E+00-5.63545E-03 8.05394E-01-1.17210E-13-8.78048E-14
 -1      2660 2.94986E+01-2.62376E-01-2.13733E-01-6.95636E-01-3.03063E-13-6.59750E-14
 -1      2661 5.70336E+00-1.81035E+00 1.66283E-01-1.85848E+00-1.68046E-13-1.04095E-12
 -1      2662 2.63243E+01-3.95026E+00 2.27201E-02-3.58106E+00-8.97893E-14-6.09957E-13
 -1      2663 2.75003E+01-3.52386E+00-1.56777E-01-1.97792E+00 7.82777E-14-8.35776E-13
 -1      2664 2.51991E+01-4.75614E+00 7.27994E-02-3.76443E+00 2.91989E-13-7.09571E-13
 -1      2665 3.05733E+01 6.84805E+00-6.21575E-02 7.13492E-01-1.06964E-12-2.79804E-13
 -1      2666 2.89412E+01-3.10449E+00-4.20694E-02-9.93907E-01 8.47239E-15 3.64486E-13
 -1      2667 3.10815E+01 3.60265E+00-5.93619E-02-1.12938E+00-7.38132E-13-9.82547E-14
 -1      2668 2.53285E+01-4.68144E+00 5.84172E-02 3.96255E+00-1.48492E-14-1.87711E-13
 -1      2669 3.01634E+01 5.40347E+00-9.83049E-02 1.36157E+00 8.30613E-13 2.87451E-13
 -1      2670 3.04414E+01-5.78582E-02-4.13518E-02-1.30570E+00 6.01033E-13-2.45415E-13
 -1      2671 6.15741E+00-1.92457E+00 1.73927E-01 2.89282E+00 9.14824E-14-1.04147E-12
 -1      2672 1.99991E+01-1.97533E-03-5.64575E-06-5.63647E-03-8.54469E-15 5.48644E-13
 -1      2673 1.99985E+01-1.10832E-03-2.44258E-05 5.81146E-03-1.94464E-13 2.18854E-13
 -1      2674 2.90185E+01 4.42742E+00-2.18372E-01-1.98921E+00 8.90371E-13-4.83641E-14
 -1      2675 2.94464E+01 3.01388E+00-8.40775E-02-2.47520E+00 8.01054E-13-1.94622E-13
 -1      2676 1.92413E+01 3.29575E+00-5.34295E-03 2.57557E-01 2.10562E-13-5.31737E-13
 -1      2677 1.91557E+01 3.36196E+00-6.47129E-03 1.82265E-01 1.57081E-13-5.43719E-13
 -1      2678 1.91010E+01 3.41106E+00-5.61414E-03 1.43074E-01 1.30314E-13-5.59604E-13
 -1      2679 1.90788E+01 3.42871E+00-5.17663E-03 6.97017E-02 8.01221E-14-5.56111E-13
 -1      2680 1.91972E+01 3.13034E+00 5.99372E-03 1.21969E-01 1.27428E-13-5.15915E-13
 -1      2681 1.98737E+01 2.68936E+00-8.12532E-03 5.31115E-01 3.96997E-13-3.87764E-13
 -1      2682 1.96773E+01 2.87991E+00-8.77816E-03 4.38346E-01 3.52671E-13-4.30012E-13
 -1      2683 2.03235E+01 2.15890E+00-9.50486E-03 6.65993E-01 4.59308E-13-2.56575E-13
 -1      2684 2.00917E+01 2.44301E+00-7.56491E-03 5.85187E-01 4.13576E-13-3.29860E-13
 -1      2685 2.00617E+01 2.27099E+00 7.10818E-03 3.44757E-01 3.77449E-13-3.23143E-13
 -1      2686 2.07067E+01 9.31082E-01 5.87245E-04-6.92018E-03 3.56358E-13-7.08283E-14
 -1      2687 2.07742E+01 1.12318E+00 8.88767E-03 3.15939E-01 3.92845E-13-5.68309E-14
 -1      2688 2.80698E+01 5.72022E+00-1.68968E-01-2.31378E-01 9.33392E-13 1.33581E-13
 -1      2689 2.87170E+01 5.37656E+00-1.60852E-01-1.35224E+00 9.68420E-13-8.89566E-15
 -1      2690 2.74992E+01 4.05826E+00-1.08042E-01-1.81781E+00 8.23494E-13-4.67890E-14
 -1      2691 2.06869E+01 1.64316E+00-4.34536E-04 7.36966E-01 4.58722E-13-9.65998E-14
 -1      2692 2.06270E+01 8.07270E-01 8.24843E-03 2.32409E-01-2.40619E-13-1.60024E-13
 -1      2693 2.06122E+01 6.58854E-01-1.18974E-03 4.40576E-01-2.08871E-13-1.51667E-13
 -1      2694 2.06271E+01 5.39668E-01 6.94436E-03 6.20398E-01-1.92926E-13-1.36476E-13
 -1      2695 2.06532E+01 4.28100E-01-4.14954E-05 7.65251E-01-1.68857E-13-1.44303E-13
 -1      2696 2.05118E+01 7.51003E-01-3.36533E-03 5.38139E-01-2.01209E-13-1.79639E-13
 -1      2697 2.06904E+01 3.27772E-01 6.05671E-03 8.97071E-01-1.45694E-13-1.34390E-13
 -1      2698 2.07579E+01 2.21824E-01 1.75005E-05 9.87910E-01-1.23723E-13-1.37769E-13
 -1      2699 2.05443E+01 4.78784E-01-4.56631E-03 8.66957E-01-1.62194E-13-1.63538E-13
 -1      2700 2.08333E+01 1.15098E-01 6.24303E-03 1.07303E+00-9.86555E-14-1.45111E-13
 -1      2701 2.09398E+01-7.85267E-03-9.08153E-04 1.10926E+00-9.85522E-14-1.65308E-13
 -1      2702 2.06383E+01 2.21353E-01-5.81269E-03 1.10054E+00-1.21709E-13-2.02445E-13
 -1      2703 2.10695E+01-1.38781E-01 7.61676E-03 1.14117E+00-7.86595E-14-1.31442E-13
 -1      2704 2.12123E+01-2.93897E-01-2.94092E-03 1.11346E+00-7.01153E-14-1.47965E-13
 -1      2705 2.08205E+01-7.36521E-02-7.60570E-03 1.23555E+00-8.42279E-14-1.95986E-13
 -1      2706 2.14135E+01-4.57636E-01 9.92229E-03 1.07622E+00-4.34378E-14-9.82780E-14
 -1      2707 2.15877E+01-6.47140E-01-6.19817E-03 9.69166E-01-3.01553E-14-7.74127E-14
 -1      2708 2.11206E+01-4.41419E-01-1.00072E-02 1.25176E+00-2.32489E-14-1.42597E-13
 -1      2709 2.18733E+01-8.34661E-01 1.23375E-02 8.37659E-01-3.07573E-14-4.63193E-15
 -1      2710 2.20659E+01-1.03478E+00-1.02757E-02 6.35937E-01-1.45548E-14 3.99375E-14
 -1      2711 2.15687E+01-8.86962E-01-1.22801E-02 1.10935E+00 1.37712E-14 2.38590E-15
 -1      2712 2.24282E+01-1.20439E+00 1.27032E-02 3.83075E-01 7.19848E-15 8.65501E-14
 -1      2713 2.26108E+01-1.34844E+00-1.37290E-02 8.56463E-02 2.88127E-14 1.31248E-13
 -1      2714 2.21773E+01-1.35333E+00-1.22754E-02 7.52605E-01 4.73373E-14 8.22887E-14
 -1      2715 2.29984E+01-1.41348E+00 7.12137E-03-2.94922E-01 2.65110E-14 1.74253E-13
 -1      2716 2.31260E+01-1.38491E+00-1.27638E-02-6.50938E-01 3.05435E-14 1.66752E-13
 -1      2717 2.29034E+01-1.68340E+00-7.90188E-03 1.36735E-01 5.00962E-14 1.38538E-13
 -1      2718 2.34277E+01-1.22050E+00-6.29800E-03-1.10285E+00 1.18482E-15 1.81910E-13
 -1      2719 2.34531E+01-8.84913E-01-1.18973E-03-1.41256E+00-3.71031E-14 1.23867E-13
 -1      2720 2.36100E+01-1.61053E+00 7.82789E-04-7.10707E-01 8.07687E-15 1.84531E-13
 -1      2721 2.35142E+01-3.99600E-01-2.92180E-02-1.74454E+00-3.46377E-14 1.84143E-13
 -1      2722 2.34369E+01 2.46738E-01 1.31626E-02-1.82776E+00-1.10324E-13 1.91411E-13
 -1      2723 2.40509E+01-8.02840E-01 1.46473E-02-1.57157E+00-1.05074E-14 2.50450E-13
 -1      2724 2.32339E+01 9.46248E-01-4.67023E-02-1.77649E+00-2.24726E-13 2.04324E-13
 -1      2725 2.31170E+01 1.65006E+00 1.55316E-02-1.48743E+00-2.96284E-13 1.88909E-13
 -1      2726 2.40189E+01 7.04562E-01 3.73861E-03-1.95150E+00-1.62146E-13 2.57346E-13
 -1      2727 2.28775E+01 2.19058E+00-3.56945E-02-9.25696E-01-3.78307E-13 6.85615E-14
 -1      2728 2.28189E+01 2.50640E+00-5.69135E-03-3.31848E-01-3.81032E-13 2.64693E-14
 -1      2729 2.36626E+01 2.32064E+00-2.26475E-02-1.35798E+00-4.19553E-13 9.70825E-14
 -1      2730 2.28315E+01 2.48557E+00-7.84413E-03 4.73692E-01-3.44329E-13-8.75758E-14
 -1      2731 2.28539E+01 2.15721E+00-5.60480E-02 1.04180E+00-3.68927E-13-1.77267E-13
 -1      2732 2.35021E+01 3.04161E+00-1.14826E-02 1.06845E-01-4.06898E-13-8.84102E-14
 -1      2733 2.31426E+01 1.64543E+00 1.67486E-02 1.63943E+00-2.91711E-13-2.35043E-13
 -1      2734 2.32627E+01 9.16283E-01-5.22922E-02 1.91630E+00-2.03493E-13-2.46573E-13
 -1      2735 2.36480E+01 2.36403E+00 3.32683E-03 1.56841E+00-3.60181E-13-2.98834E-13
 -1      2736 2.34730E+01 2.35617E-01 1.25403E-02 1.94186E+00-1.61659E-13-2.04009E-13
 -1      2737 2.35479E+01-4.01956E-01-3.29121E-02 1.86205E+00-7.64532E-14-1.76296E-13
 -1      2738 2.40363E+01 6.17285E-01 1.20246E-02 2.10467E+00-1.37534E-13-2.56538E-13
 -1      2739 2.34884E+01-8.75751E-01-2.51467E-03 1.52920E+00-4.32983E-14-1.53620E-13
 -1      2740 2.34657E+01-1.19818E+00-6.91379E-03 1.22437E+00 4.36374E-14-3.06343E-13
 -1      2741 2.40504E+01-7.97955E-01 8.50461E-03 1.70057E+00-7.33940E-14-2.65569E-13
 -1      2742 2.31625E+01-1.35310E+00-1.31801E-02 7.81182E-01 1.11703E-13-2.90098E-13
 -1      2743 2.30439E+01-1.37476E+00 7.95291E-03 4.33435E-01 1.39165E-13-3.07355E-13
 -1      2744 2.36111E+01-1.57070E+00 3.44347E-03 8.38293E-01 8.11512E-14-2.17920E-13
 -1      2745 2.26546E+01-1.30624E+00-1.40926E-02 6.26173E-02 1.18432E-13-2.80523E-13
 -1      2746 2.24802E+01-1.16141E+00 1.24358E-02-2.25979E-01 7.59033E-14-3.03017E-13
 -1      2747 2.29012E+01-1.63601E+00-7.75437E-03 9.53329E-03 1.50601E-13-4.04761E-13
 -1      2748 2.21169E+01-9.94196E-01-1.06101E-02-4.70301E-01-3.72456E-14-2.96561E-13
 -1      2749 2.19311E+01-8.00140E-01 1.17415E-02-6.65849E-01-1.06108E-13-3.47901E-13
 -1      2750 2.21730E+01-1.30464E+00-1.21878E-02-5.88381E-01 1.10224E-14-4.29696E-13
 -1      2751 2.16427E+01-6.21879E-01-6.30154E-03-7.94616E-01-1.50853E-13-4.43165E-13
 -1      2752 2.14710E+01-4.45920E-01 8.88899E-03-9.02237E-01-2.06302E-13-4.16413E-13
 -1      2753 2.15610E+01-8.53935E-01-1.14827E-02-9.35274E-01-1.92354E-13-3.60953E-13
 -1      2754 2.12624E+01-2.98939E-01-2.91114E-03-9.46491E-01-2.19815E-13-4.18035E-13
 -1      2755 2.11144E+01-1.66607E-01 5.83017E-03-9.85858E-01-2.03933E-13-4.76218E-13
 -1      2756 2.11015E+01-4.42765E-01-8.80153E-03-1.08499E+00-1.76180E-13-3.94579E-13
 -1      2757 2.09713E+01-6.26425E-02-6.36283E-04-9.75488E-01-7.77420E-14-5.16686E-13
 -1      2758 2.08472E+01 2.42015E-02 3.35868E-03-9.68121E-01 4.03956E-14-5.10518E-13
 -1      2759 2.07780E+01-1.31867E-01-6.02813E-03-1.10172E+00-1.74355E-13-3.83831E-13
 -1      2760 2.07516E+01 8.87131E-02 7.72084E-04-9.25946E-01 6.72434E-14-4.90250E-13
 -1      2761 2.06485E+01 1.38105E-01 1.62408E-03-8.90134E-01 1.66133E-14-3.82321E-13
 -1      2762 2.05572E+01 7.36852E-02-3.87060E-03-1.03744E+00 9.40733E-14-2.95139E-13
 -1      2763 2.05848E+01 1.72127E-01 1.57888E-03-8.32059E-01 8.40179E-14-3.67036E-13
 -1      2764 2.04993E+01 1.94405E-01 5.23798E-04-7.81577E-01 1.01318E-13-2.40702E-13
 -1      2765 2.04074E+01 1.92031E-01-2.41111E-03-9.29226E-01 1.21904E-13-1.10569E-13
 -1      2766 2.04563E+01 2.07300E-01 1.97782E-03-7.18108E-01-7.71312E-15-2.11305E-13
 -1      2767 2.03855E+01 2.11756E-01-1.08745E-04-6.62499E-01-5.14511E-14-1.47135E-13
 -1      2768 2.03045E+01 2.46833E-01-1.50493E-03-8.02052E-01 4.78517E-14-1.39441E-13
 -1      2769 2.03557E+01 2.11307E-01 2.10246E-03-6.00215E-01 1.99235E-14-3.29971E-14
 -1      2770 2.02972E+01 2.05129E-01-4.27844E-04-5.45585E-01 3.14110E-14 1.35033E-14
 -1      2771 2.02318E+01 2.59511E-01-9.76393E-04-6.72050E-01 5.50363E-14-5.58895E-14
 -1      2772 2.02759E+01 1.97096E-01 2.04858E-03-4.88292E-01 7.59218E-15 1.24956E-13
 -1      2773 2.02280E+01 1.85364E-01-5.51476E-04-4.38186E-01 7.67337E-14 1.34844E-13
 -1      2774 2.01786E+01 2.46763E-01-6.80456E-04-5.49049E-01 1.20715E-13 6.83129E-14
 -1      2775 2.02122E+01 1.73684E-01 1.88621E-03-3.87795E-01-1.65141E-14 2.31974E-13
 -1      2776 2.01735E+01 1.59746E-01-5.62011E-04-3.43956E-01-7.76054E-14 1.53260E-13
 -1      2777 2.01385E+01 2.20484E-01-5.16101E-04-4.38480E-01 2.95469E-14 7.68157E-14
 -1      2778 2.01614E+01 1.46940E-01 1.66615E-03-3.01124E-01-1.91470E-13 1.54412E-13
 -1      2779 2.01305E+01 1.32855E-01-5.13262E-04-2.64113E-01-1.60063E-13 1.01644E-13
 -1      2780 2.01074E+01 1.88585E-01-4.20665E-04-3.42770E-01-1.58270E-13 2.60297E-13
 -1      2781 2.01211E+01 1.20423E-01 1.42418E-03-2.28705E-01-1.23424E-13 7.08039E-14
 -1      2782 2.00967E+01 1.07357E-01-4.38561E-04-1.98345E-01-8.84855E-14 4.10439E-14
 -1      2783 2.00829E+01 1.55991E-01-3.58601E-04-2.62381E-01-1.89836E-13 2.58422E-13
 -1      2784 2.00894E+01 9.61065E-02 1.18427E-03-1.69768E-01 4.23511E-14 5.85103E-14
 -1      2785 2.00705E+01 8.46291E-02-3.57437E-04-1.45472E-01 1.53577E-13 3.09791E-15
 -1      2786 2.00635E+01 1.25527E-01-3.11473E-04-1.96555E-01-6.38200E-14 1.04762E-13
 -1      2787 2.00647E+01 7.49177E-02 9.61225E-04-1.22901E-01 1.13225E-13-1.07305E-13
 -1      2788 2.00504E+01 6.52245E-02-2.80528E-04-1.03885E-01 1.17267E-13-1.77779E-13
 -1      2789 2.00481E+01 9.86153E-02-2.70732E-04-1.43849E-01-7.95282E-15-3.05666E-13
 -1      2790 2.00459E+01 5.71314E-02 7.63075E-04-8.64170E-02 1.44598E-13-1.61826E-13
 -1      2791 2.00351E+01 4.91931E-02-2.12959E-04-7.18416E-02 8.13037E-14-1.61795E-13
 -1      2792 2.00359E+01 7.57774E-02-2.33067E-04-1.02515E-01 9.91977E-14-2.42908E-13
 -1      2793 2.00316E+01 4.26371E-02 5.93092E-04-5.85889E-02 9.29754E-14-6.75660E-15
 -1      2794 2.00238E+01 3.63008E-02-1.56593E-04-4.76465E-02 1.80091E-13 1.05697E-14
 -1      2795 2.00264E+01 5.69937E-02-1.97661E-04-7.07335E-02 1.46442E-13-3.02926E-14
 -1      2796 2.00211E+01 3.11160E-02 4.51406E-04-3.77939E-02 1.28026E-13 8.82294E-14
 -1      2797 2.00155E+01 2.61704E-02-1.11480E-04-2.97540E-02 9.26332E-14 7.74774E-14
 -1      2798 2.00190E+01 4.19399E-02-1.64692E-04-4.67756E-02 1.12429E-13 6.01217E-14
 -1      2799 2.00135E+01 2.21549E-02 3.36251E-04-2.25872E-02 1.47953E-13 5.25027E-14
 -1      2800 2.00096E+01 1.83691E-02-7.67859E-05-1.68193E-02 5.80054E-14 3.82299E-14
 -1      2801 2.00134E+01 3.01422E-02-1.34590E-04-2.90835E-02 7.47899E-14-5.16575E-15
 -1      2802 2.00081E+01 1.53135E-02 2.44852E-04-1.17359E-02 9.52078E-15 1.19011E-13
 -1      2803 2.00056E+01 1.24604E-02-5.13497E-05-7.71654E-03-5.01971E-14 2.11073E-13
 -1      2804 2.00092E+01 2.10732E-02-1.07763E-04-1.63128E-02 6.36938E-14-1.71739E-13
 -1      2805 2.00044E+01 1.01631E-02 1.73990E-04-4.22525E-03-1.07295E-13 2.83461E-13
 -1      2806 2.00029E+01 8.03052E-03-3.39149E-05-1.53525E-03 1.31082E-13 3.41487E-13
 -1      2807 2.00061E+01 1.42077E-02-8.44165E-05-7.34415E-03 1.13319E-13 8.35164E-14
 -1      2808 2.00021E+01 6.30513E-03 1.20627E-04 7.50465E-04 2.27439E-13 3.32604E-13
 -1      2809 2.00011E+01 4.70052E-03-2.28623E-05 2.43327E-03 1.70904E-13 2.53286E-13
 -1      2810 2.00038E+01 9.05103E-03-6.46238E-05-1.27674E-03 9.97340E-14 1.06690E-13
 -1      2811 2.00006E+01 3.37963E-03 8.21833E-05 3.80769E-03 6.06658E-14 2.04484E-13
 -1      2812 2.00002E+01 2.12693E-03-1.63570E-05 4.72131E-03-7.29566E-14-4.52042E-15
 -1      2813 2.00022E+01 5.15518E-03-4.78918E-05 2.58840E-03 2.13581E-14-1.19349E-13
 -1      2814 1.99998E+01 1.03951E-03 5.15207E-05 5.38823E-03-1.37367E-13 1.78819E-13
 -1      2815 1.99997E+01 2.88413E-05-5.13399E-06 5.68176E-03-4.31648E-14 3.87035E-14
 -1      2816 2.00011E+01 2.08384E-03-4.21822E-05 4.78000E-03 4.75925E-14 6.18106E-15
 -1      2817 2.10165E+01 3.00721E-01 3.34931E-03-1.49349E+00 1.47676E-13-1.12631E-13
 -1      2818 2.08713E+01 3.68453E-01 3.40315E-03-1.38345E+00 1.51841E-13-1.03399E-13
 -1      2819 2.08295E+01 4.23977E-01 3.81023E-03-1.23424E+00 1.73894E-13-1.24177E-13
 -1      2820 2.07316E+01 4.77087E-01 4.36967E-03-1.08849E+00 1.85060E-13-1.05186E-13
 -1      2821 2.05909E+01 5.07739E-01-4.06501E-03-1.37902E+00 1.68446E-13-1.54061E-13
 -1      2822 2.16947E+01-2.21444E-01-1.54622E-03-1.73877E+00-1.13434E-14 2.32152E-14
 -1      2823 2.14517E+01-3.42764E-02 7.26959E-03-1.74865E+00 2.94376E-14-1.75917E-14
 -1      2824 2.22677E+01-7.25088E-01-6.66451E-03-1.61032E+00-7.55845E-14 7.64412E-14
 -1      2825 2.19682E+01-4.43656E-01 1.31538E-02-1.73426E+00-2.88643E-14 6.80340E-14
 -1      2826 2.13113E+01-3.99225E-01-1.61182E-02-1.97336E+00-3.18893E-14-1.17233E-14
 -1      2827 2.30627E+01-1.38918E+00-1.49371E-02-1.18970E+00-3.85239E-14 5.69080E-14
 -1      2828 2.27117E+01-1.03144E+00 2.18525E-02-1.47363E+00-5.63602E-14 8.63767E-14
 -1      2829 2.19558E+01-1.07529E+00-2.40255E-02-1.88094E+00-4.41836E-14 3.03928E-14
 -1      2830 2.40816E+01-2.01281E+00-2.19698E-02-3.61771E-01-9.60673E-14 1.65561E-13
 -1      2831 2.37128E+01-1.71452E+00 2.68721E-02-8.32511E-01-1.05306E-13 1.01624E-13
 -1      2832 2.29676E+01-1.91813E+00-2.93513E-02-1.45832E+00-7.87916E-14 5.79489E-14
 -1      2833 2.51488E+01-2.12141E+00-2.57459E-02 8.30379E-01 1.31076E-14 3.38125E-13
 -1      2834 2.48535E+01-2.15392E+00 1.61314E-02 2.52350E-01-7.49834E-14 2.83899E-13
 -1      2835 2.43015E+01-2.61433E+00-4.82134E-02-5.17176E-01-1.53963E-13 1.67557E-13
 -1      2836 2.58805E+01-1.08103E+00-1.66326E-02 2.09225E+00 7.07412E-14 5.08364E-13
 -1      2837 2.59137E+01-1.74251E+00 6.45684E-03 1.66830E+00 6.12314E-14 4.74810E-13
 -1      2838 2.59098E+01-2.52938E+00-6.56828E-02 9.04240E-01-4.86104E-14 3.96199E-13
 -1      2839 2.68787E+01 1.66679E+00-7.35061E-02 2.41563E+00 3.59865E-13 3.93515E-13
 -1      2840 2.69986E+01 2.05286E-01-9.30881E-02 2.51091E+00 2.18624E-13 5.00874E-13
 -1      2841 2.56050E+01 3.49571E+00-1.21738E-01-1.34325E+00 7.81208E-13-6.77401E-14
 -1      2842 2.55262E+01 3.91586E+00-1.11063E-01-2.98451E-01 7.74755E-13 4.87180E-14
 -1      2843 2.62549E+01 1.58176E+00-1.41280E-01-2.59845E+00 4.61131E-13-2.37657E-13
 -1      2844 2.61058E+01 2.82614E+00-7.10558E-02-2.16807E+00 6.60846E-13-1.27273E-13
 -1      2845 2.53852E+01-2.14565E+00 9.51993E-03-9.09755E-01-1.90552E-13-3.24655E-13
 -1      2846 2.55487E+01-1.90737E+00-9.94456E-03-1.47646E+00-1.19862E-13-3.24947E-13
 -1      2847 2.42392E+01-1.91525E+00 2.63616E-02 3.34605E-01-3.05676E-13-1.98094E-13
 -1      2848 2.45746E+01-2.13504E+00-2.67223E-02-1.94449E-01-2.61536E-13-2.53720E-13
 -1      2849 2.49576E+01-2.71556E+00-4.36343E-02-7.61744E-02-2.76628E-13-2.56396E-13
 -1      2850 2.31731E+01-1.26224E+00 2.41819E-02 1.12738E+00-1.78784E-13-1.03542E-13
 -1      2851 2.35231E+01-1.62156E+00-1.89316E-02 7.78954E-01-2.42260E-13-1.72923E-13
 -1      2852 2.34935E+01-2.19613E+00-3.23879E-02 1.02553E+00-2.45144E-13-1.44773E-13
 -1      2853 2.23467E+01-6.20303E-01 1.58233E-02 1.50280E+00-1.88942E-13 6.47540E-15
 -1      2854 2.26553E+01-9.34729E-01-9.95703E-03 1.32946E+00-1.53936E-13-8.34749E-14
 -1      2855 2.23455E+01-1.34946E+00-2.62272E-02 1.60234E+00-1.79745E-13-9.94755E-14
 -1      2856 2.17632E+01-1.55871E-01 8.43561E-03 1.59203E+00-2.08236E-13-1.40577E-14
 -1      2857 2.20173E+01-3.69403E-01-3.39532E-03 1.54564E+00-1.48307E-13 7.17920E-14
 -1      2858 2.15787E+01-6.00083E-01-1.76101E-02 1.79076E+00-1.88233E-13 2.27431E-14
 -1      2859 2.13578E+01 1.23296E-01 3.66370E-03 1.51512E+00-2.79614E-13-1.67897E-14
 -1      2860 2.15650E+01 1.80086E-03 5.55880E-04 1.54721E+00-2.35671E-13 1.33210E-15
 -1      2861 2.11062E+01-8.59334E-02-1.00032E-02 1.75505E+00-2.31548E-13 9.02622E-14
 -1      2862 2.10675E+01 2.62279E-01 9.47793E-04 1.35407E+00-1.46630E-13 9.57810E-15
 -1      2863 2.12387E+01 2.06470E-01 2.75735E-03 1.42761E+00-1.61212E-13 3.02452E-14
 -1      2864 2.08187E+01 2.10860E-01-5.04656E-03 1.60409E+00-2.37425E-13 1.60359E-13
 -1      2865 2.08489E+01 3.10952E-01-3.84740E-04 1.16028E+00 1.07411E-13-1.14803E-13
 -1      2866 2.09922E+01 2.95835E-01 3.83068E-03 1.25051E+00-4.77457E-14-4.70520E-14
 -1      2867 2.06363E+01 3.51181E-01-2.34455E-03 1.40234E+00-4.43436E-14 5.63935E-14
 -1      2868 2.06762E+01 3.07993E-01-9.16748E-04 9.63976E-01 1.89440E-14-1.20503E-13
 -1      2869 2.07967E+01 3.15280E-01 4.19912E-03 1.05586E+00 1.45539E-13-7.21434E-14
 -1      2870 2.05104E+01 3.93275E-01-1.08732E-03 1.18731E+00 9.21674E-14 2.06014E-14
 -1      2871 2.05357E+01 2.79161E-01-1.02709E-03 7.81557E-01-1.44324E-13-1.02132E-13
 -1      2872 2.06365E+01 2.97076E-01 4.13011E-03 8.66879E-01-8.69661E-14-1.16495E-13
 -1      2873 2.04150E+01 3.80367E-01-6.06052E-04 9.80239E-01-5.32861E-14 1.13991E-13
 -1      2874 2.04199E+01 2.40017E-01-9.41989E-04 6.20727E-01 4.65871E-15-7.09084E-14
 -1      2875 2.05034E+01 2.61627E-01 3.80807E-03 6.95671E-01-8.62761E-14-1.00461E-13
 -1      2876 2.03373E+01 3.40622E-01-4.82562E-04 7.92321E-01-1.26355E-13 4.37458E-14
 -1      2877 2.03247E+01 1.99208E-01-7.85531E-04 4.83957E-01 1.26724E-13 7.83624E-14
 -1      2878 2.03927E+01 2.20758E-01 3.35967E-03 5.47356E-01 1.10589E-13 4.16268E-14
 -1      2879 2.02717E+01 2.90878E-01-4.87846E-04 6.28493E-01 1.99300E-14 7.87096E-14
 -1      2880 2.02471E+01 1.61119E-01-6.19072E-04 3.70750E-01 3.45689E-14 7.49397E-14
 -1      2881 2.03017E+01 1.80774E-01 2.86826E-03 4.22918E-01 1.61281E-13 9.97526E-14
 -1      2882 2.02159E+01 2.40422E-01-5.15501E-04 4.89874E-01 1.30873E-13 1.15269E-13
 -1      2883 2.01847E+01 1.27654E-01-4.69448E-04 2.79064E-01 1.52856E-13 7.29889E-14
 -1      2884 2.02278E+01 1.44680E-01 2.38591E-03 3.21055E-01 2.34882E-14 3.15599E-14
 -1      2885 2.01688E+01 1.93913E-01-5.25233E-04 3.75352E-01 7.53896E-14-1.21912E-13
 -1      2886 2.01353E+01 9.93606E-02-3.45577E-04 2.06178E-01 2.76527E-13 2.27935E-13
 -1      2887 2.01688E+01 1.13616E-01 1.94217E-03 2.39350E-01 1.94738E-13 1.66446E-13
 -1      2888 2.01296E+01 1.53319E-01-5.08560E-04 2.82625E-01 6.58807E-14-1.76892E-13
 -1      2889 2.00969E+01 7.60788E-02-2.47846E-04 1.49209E-01 2.09027E-13 1.22987E-13
 -1      2890 2.01224E+01 8.77210E-02 1.55125E-03 1.74974E-01 3.75432E-13 2.22793E-13
 -1      2891 2.00976E+01 1.19128E-01-4.69977E-04 2.08876E-01 2.75871E-13 6.36344E-14
 -1      2892 2.00676E+01 5.73216E-02-1.73141E-04 1.05391E-01 3.43625E-13 4.01760E-14
 -1      2893 2.00867E+01 6.66426E-02 1.21758E-03 1.25083E-01 2.49303E-13 1.87557E-13
 -1      2894 2.00721E+01 9.10650E-02-4.17609E-04 1.51186E-01 2.66829E-13 7.60089E-14
 -1      2895 2.00457E+01 4.24776E-02-1.17364E-04 7.22266E-02 3.01845E-13 4.41535E-14
 -1      2896 2.00597E+01 4.98125E-02 9.39735E-04 8.70331E-02 3.77586E-13 1.97385E-13
 -1      2897 2.00520E+01 6.84981E-02-3.59126E-04 1.06776E-01 2.79432E-13 3.06072E-14
 -1      2898 2.00297E+01 3.09198E-02-7.65711E-05 4.75386E-02 1.84509E-13 1.14891E-13
 -1      2899 2.00397E+01 3.66002E-02 7.13088E-04 5.84846E-02 1.98838E-13 8.91392E-14
 -1      2900 2.00366E+01 5.06678E-02-3.00347E-04 7.31362E-02 2.39876E-13 4.44418E-14
 -1      2901 2.00182E+01 2.20578E-02-4.74098E-05 2.94878E-02-5.59969E-14-2.01412E-14
 -1      2902 2.00252E+01 2.63902E-02 5.31538E-04 3.74307E-02 8.02815E-14 9.99230E-14
 -1      2903 2.00250E+01 3.68047E-02-2.45081E-04 4.80778E-02 1.10119E-13 1.36861E-13
 -1      2904 2.00103E+01 1.53618E-02-2.72473E-05 1.65556E-02-9.52457E-15-1.78214E-13
 -1      2905 2.00150E+01 1.86183E-02 3.88568E-04 2.21968E-02-7.83329E-14-1.62293E-13
 -1      2906 2.00164E+01 2.61891E-02-1.95460E-04 2.97480E-02 6.26383E-14 1.30459E-13
 -1      2907 2.00051E+01 1.03667E-02-1.41977E-05 7.51655E-03 1.03772E-14-1.20949E-13
 -1      2908 2.00080E+01 1.27846E-02 2.77904E-04 1.14168E-02-3.97153E-15-1.71186E-13
 -1      2909 2.00103E+01 1.81753E-02-1.52449E-04 1.66151E-02 2.45789E-14-1.14000E-13
 -1      2910 2.00018E+01 6.67012E-03-6.93170E-06 1.40668E-03-5.42435E-14-1.62321E-13
 -1      2911 2.00035E+01 8.45375E-03 1.93852E-04 4.00225E-03 4.53617E-14-7.33304E-14
 -1      2912 2.00060E+01 1.21967E-02-1.16229E-04 7.44213E-03 8.46707E-15-1.33005E-13
 -1      2913 1.99999E+01 3.92673E-03-4.28760E-06-2.50887E-03 1.58569E-14-2.50493E-14
 -1      2914 2.00007E+01 5.25028E-03 1.31235E-04-8.89584E-04-7.16316E-14-8.25722E-14
 -1      2915 2.00032E+01 7.76346E-03-8.62718E-05 1.25732E-03-1.09659E-13-2.74053E-13
 -1      2916 1.99989E+01 1.84044E-03-4.37686E-06-4.77235E-03 1.27503E-13 1.93450E-13
 -1      2917 1.99992E+01 2.85368E-03 8.56830E-05-3.89186E-03 1.44501E-13 1.85122E-13
 -1      2918 2.00014E+01 4.45599E-03-6.21102E-05-2.68057E-03-7.41473E-14-1.43103E-13
 -1      2919 1.99987E+01 1.62052E-04 2.19720E-06-5.74226E-03 1.26331E-13 4.90939E-13
 -1      2920 1.99986E+01 9.59027E-04 4.78363E-05-5.46184E-03 6.39540E-14 3.29363E-13
 -1      2921 2.00003E+01 1.92154E-03-3.83373E-05-4.92568E-03-8.50084E-15-5.07908E-14
 -1      2922 1.99990E+01-1.21765E-03-9.02816E-06-5.73325E-03-1.71753E-14 5.85544E-13
 -1      2923 1.99987E+01-4.72990E-04 1.30434E-05-5.90724E-03 5.45367E-14 5.19191E-13
 -1      2924 2.00000E+01-3.54886E-06-2.22226E-05-5.79539E-03-3.78935E-14 2.77224E-13
 -1      2925 2.00001E+01-1.63906E-03-9.87992E-08-5.81633E-03-3.26195E-14 3.32486E-13
 -1      2926 2.00028E+01-8.44715E-04-4.07692E-06-2.54747E-04 1.28281E-13-2.18614E-13
 -1      2927 2.00028E+01-8.46031E-04 2.38471E-06-9.28688E-04 1.91970E-13-2.94946E-13
 -1      2928 1.99995E+01-6.44370E-04 2.55581E-05 5.80307E-03-8.55478E-14-3.92289E-14
 -1      2929 1.99995E+01-1.26920E-03-1.70213E-06 5.71341E-03-1.52742E-13 1.21517E-13
 -1      2930 2.00005E+01-1.06273E-04-3.70720E-05 5.62065E-03-1.58687E-13-2.63234E-13
 -1      2931 2.00026E+01-1.25963E-03-7.66793E-06-2.92465E-03 1.64910E-13 4.51820E-14
 -1      2932 2.00024E+01-1.20246E-03 8.35002E-06-3.55570E-03 3.04719E-13-1.07199E-14
 -1      2933 2.00028E+01-8.21513E-04 1.25712E-06 1.06012E-03-1.31097E-13-2.24749E-13
 -1      2934 2.00028E+01-8.34441E-04-3.18831E-06 3.91886E-04 2.01072E-14-3.25024E-13
 -1      2935 2.00034E+01 1.73428E-03 2.77152E-05 7.61578E-05 6.25846E-14-4.96109E-13
 -1      2936 2.00028E+01-1.00904E-03-7.82143E-06-1.58779E-03 7.60200E-14-3.55566E-13
 -1      2937 2.00027E+01-9.90532E-04 6.60794E-06-2.25696E-03 4.56271E-14-1.07178E-13
 -1      2938 2.00033E+01 1.11997E-03 1.71930E-05-2.48597E-03 8.47426E-14-1.36821E-13
 -1      2939 2.00034E+01 1.56034E-03 2.48170E-05-1.18879E-03 1.84934E-13-2.76881E-13
 -1      2940 2.07196E+01 5.30929E-01 3.53875E-03-9.10132E-01 2.09136E-13-9.94897E-14
 -1      2941 2.06736E+01 5.96862E-01 6.76135E-03-7.26470E-01 2.45516E-13-8.04303E-14
 -1      2942 2.05439E+01 6.47112E-01-3.54082E-03-1.03478E+00 2.17850E-13-1.45875E-13
 -1      2943 2.00026E+01-9.31573E-04 5.74551E-06 2.33756E-03-4.48458E-14 2.74524E-13
 -1      2944 2.00027E+01-9.62819E-04-7.40190E-06 1.69526E-03-1.32014E-13 2.54900E-13
 -1      2945 2.00033E+01 1.59960E-03 2.54943E-05 1.31715E-03-1.35505E-14-3.56948E-14
 -1      2946 2.00023E+01-1.12726E-03 5.67428E-06 3.59461E-03 1.24530E-13 2.55029E-13
 -1      2947 2.00025E+01-1.18689E-03-7.78366E-06 2.98307E-03 1.94185E-14 2.63220E-13
 -1      2948 2.00032E+01 1.19353E-03 1.80620E-05 2.56645E-03 3.55879E-14 3.47890E-13
 -1      2949 2.00017E+01-1.32988E-03-5.43205E-06 4.71051E-03 1.76610E-13-2.14711E-14
 -1      2950 2.00021E+01-1.42238E-03-5.82215E-06 4.19829E-03 2.08956E-13 2.18949E-13
 -1      2951 2.00027E+01 6.33985E-04 1.39037E-05 3.81266E-03 6.95432E-14 2.49167E-13
 -1      2952 1.55957E+01-3.79750E+00 1.68648E-01-5.97656E+00-5.45994E-13-2.77500E-13
 -1      2953 1.93844E+01-5.04404E+00-3.20537E-02-5.79969E+00-5.04013E-13-3.43753E-14
 -1      2954 2.32872E+01-5.40250E+00-1.14800E-01 4.04308E+00-4.45449E-13-1.07888E-13
 -1      2955 2.00586E+01-4.85917E+00 1.43060E-01 5.23485E+00-5.86087E-13 2.57329E-14
 -1      2956 2.12944E+01 1.05598E-01 1.77978E-03-1.67498E+00 6.36096E-14-4.52094E-14
 -1      2957 2.11025E+01 2.17295E-01 4.19040E-03-1.61194E+00 1.12028E-13-6.99490E-14
 -1      2958 2.07075E+01 3.34330E-01-5.55242E-03-1.66226E+00 9.28572E-14-1.16909E-13
 -1      2959 2.09265E+01 5.69383E-02-9.22866E-03-1.87366E+00 1.47826E-14-7.99625E-14
 -1      2960 2.06526E+01 1.21244E+00 6.01753E-03-2.89104E-01-3.35275E-13-1.71854E-13
 -1      2961 2.06124E+01 9.83814E-01-3.47010E-03-1.86642E-03-2.89752E-13-1.71224E-13
 -1      2962 2.05094E+01 1.10893E+00-1.24565E-03 1.07058E-01-2.67097E-13-2.06263E-13
 -1      2963 9.59229E+00-1.90782E+00 1.77258E-01-4.52694E+00-4.10200E-13-7.28084E-13
 -1      2964 1.17023E+01-2.83159E+00 1.75828E-02-5.67093E+00-4.51347E-13-5.01071E-13
 -1      2965 1.63709E+01-4.28312E+00 7.86048E-03 6.05506E+00-7.15622E-13 3.44863E-13
 -1      2966 1.33691E+01-3.19173E+00 1.44570E-01 5.70961E+00-7.06796E-13 7.78211E-13
 -1      2967 2.06816E+01 6.76818E-01 2.60957E-03-5.10667E-01 2.79445E-13-9.18628E-14
 -1      2968 2.06914E+01 7.87101E-01 9.65164E-03-2.73033E-01 3.05181E-13-6.84547E-14
 -1      2969 2.05871E+01 1.09775E+00-1.19082E-03-1.15385E-01 3.47961E-13-1.57524E-13
 -1      2970 2.05480E+01 8.19472E-01-2.93431E-03-6.20542E-01 2.79519E-13-1.32639E-13
 -1      2971 2.93333E+01 3.90847E+00-2.13822E-01-1.71903E+00-7.02799E-13 7.17898E-14
 -1      2972 2.97736E+01 2.12090E+00-6.09059E-02-1.56285E+00-4.83946E-13 3.54994E-14
 -1      2973 2.94831E+01 7.17192E-01-2.05967E-01-2.13483E+00 6.14009E-13-3.45030E-13
 -1      2974 2.90620E+01-1.36323E+00 9.73968E-03-1.41069E+00 2.54380E-13-4.41425E-13
 -1      2975 2.83277E+01 1.28256E+00-7.46583E-02-2.58742E+00 5.29118E-13-2.34548E-13
 -1      2976 7.60807E+00-1.50430E+00 1.66716E-01-3.76872E+00 3.80168E-13 6.51090E-13
 -1      2977 9.50165E+00-2.50651E+00 1.65709E-01-5.49685E+00 3.70176E-13 6.78541E-13
 -1      2978 1.93028E+01-5.12861E+00 7.44896E-02-5.96056E+00 5.50962E-13-2.41411E-13
 -1      2979 2.21449E+01-5.23616E+00 1.73763E-03-5.10806E+00 4.86555E-13-4.15676E-13
 -1      2980 1.95048E+01 3.05938E+00-6.00053E-03 3.86473E-01 3.21767E-13-4.72758E-13
 -1      2981 1.93578E+01 3.18258E+00-7.83761E-03 3.01433E-01 2.55806E-13-4.98644E-13
 -1      2982 1.93747E+01 2.97370E+00 6.46562E-03 1.87844E-01 2.26253E-13-4.79486E-13
 -1      2983 1.96730E+01 2.69005E+00 7.12932E-03 2.63907E-01 3.14426E-13-4.13702E-13
 -1      2984 2.77695E+01-3.71304E+00 1.15812E-02-8.51189E-01-1.48687E-13 3.51913E-13
 -1      2985 2.95186E+01-2.19688E+00-9.94003E-02 3.50173E-01 5.52319E-14 3.38479E-13
 -1      2986 1.94245E+01 3.11201E+00-7.80838E-03-2.52379E-01-1.56335E-13-5.46640E-13
 -1      2987 1.95739E+01 2.98572E+00-5.29263E-03-3.53909E-01-2.10351E-13-5.23623E-13
 -1      2988 2.29123E+01-5.23006E+00 1.19144E-01-4.35151E+00-4.26589E-13 2.09735E-13
 -1      2989 2.54011E+01-5.25730E+00-1.31173E-01-3.01762E+00-2.89546E-13 3.11039E-13
 -1      2990 2.78604E+01-3.72555E+00-1.90280E-01 3.46111E-01-3.40492E-14-2.72671E-13
 -1      2991 2.63252E+01-4.61186E+00 9.53454E-02 1.94654E+00-2.71394E-13-2.07209E-13
 -1      2992 2.90744E+01 4.12171E+00-1.03422E-01 2.12168E+00 6.66439E-13 3.89827E-13
 -1      2993 2.82625E+01 5.23339E+00-2.09938E-01 1.10944E+00 7.81319E-13 2.44346E-13
 -1      2994 1.32908E+01-3.47540E+00 7.52471E-02 6.31184E+00 3.61350E-13-6.30926E-13
 -1      2995 1.03216E+01-2.34044E+00 1.58063E-01 5.29747E+00 2.85189E-13-7.37715E-13
 -1      2996 2.60117E+01-4.53875E+00-9.02442E-02 2.65839E+00 6.30815E-14-7.36078E-14
 -1      2997 2.37182E+01-5.20448E+00 8.84155E-02 4.38285E+00 1.42164E-13-1.49353E-13
 -1      2998 6.49263E+00-7.49979E-01 1.35563E-01-4.98608E-01-1.12023E-13-9.74942E-13
 -1      2999 7.63518E+00-1.18966E+00 1.23704E-01-3.04318E+00-2.39725E-13-8.66474E-13
 -1      3000 2.88481E+01 5.77909E+00-1.22516E-01 1.44672E+00-8.55982E-13-4.19803E-13
 -1      3001 2.82500E+01 6.39274E+00-1.94497E-01 6.19986E-01-1.05330E-12-2.47500E-13
 -1      3002 2.00001E+01-1.60263E-03-1.25584E-05 5.68700E-03-1.17154E-13-4.14053E-13
 -1      3003 2.92635E+01 3.35123E+00-1.50673E-01 1.77819E+00-5.57360E-13-5.99895E-13
 -1      3004 2.89776E+01 4.75297E+00-2.37936E-01 1.66383E+00-6.70797E-13-4.53082E-13
 -1      3005 2.75208E+01 4.90565E+00-4.51135E-02 1.76965E+00-6.88505E-13-5.28869E-13
 -1      3006 8.19076E+00-1.30138E+00 1.12149E-01 3.77562E+00 1.33893E-13-8.85625E-13
 -1      3007 6.93891E+00-7.55097E-01 1.59657E-01 1.66166E+00 3.16136E-14-9.54514E-13
 -1      3008 5.43484E+00-1.25361E+00 1.67528E-01 1.18417E+00 9.24608E-14 1.15047E-12
 -1      3009 5.58439E+00-1.11877E+00 1.33468E-01-1.22598E+00 2.21614E-13 8.47517E-13
 -1      3010 2.84856E+01 6.44493E+00-1.83067E-01-6.53770E-01-1.06593E-12-4.38607E-14
 -1      3011 2.90400E+01 5.69786E+00-1.17725E-01-1.41242E+00-9.50490E-13 1.21014E-14
 -1      3012 2.05776E+01 1.81379E+00-5.42813E-03-7.94989E-01-4.09939E-13-2.37514E-13
 -1      3013 2.06100E+01 1.44169E+00-1.18284E-03-4.87532E-01-3.75424E-13-1.98200E-13
 -1      3014 2.04815E+01 1.56204E+00-3.89069E-04-3.40709E-01-3.35764E-13-2.51212E-13
 -1      3015 2.03885E+01 2.10659E+00-2.74185E-03-7.54152E-01-3.78227E-13-3.08521E-13
 -1      3016 2.91471E+01-1.21382E+00-7.18435E-02 1.48865E+00 1.07993E-13 4.45810E-13
 -1      3017 1.91534E+01 3.16495E+00 5.58027E-03 5.72264E-02 5.80547E-14-5.21590E-13
 -1      3018 1.90884E+01 3.41560E+00-6.29373E-03 2.84195E-02 4.40230E-14-5.56315E-13
 -1      3019 1.91304E+01 3.38616E+00-4.33397E-03-4.93874E-02-1.82335E-14-5.64975E-13
 -1      3020 2.79927E+01 4.12772E+00-1.43950E-01-1.71542E+00-7.03604E-13 1.78045E-13
 -1      3021 2.74370E+01 6.01168E+00-1.69985E-01-1.64601E-02-9.87987E-13-1.40422E-13
 -1      3022 2.63909E+01 5.47777E+00-1.09428E-01-6.04698E-01-8.79158E-13-8.98587E-16
 -1      3023 2.61917E+01 5.25181E+00-1.26289E-01 5.42450E-01-7.85927E-13-2.97757E-13
 -1      3024 7.65163E+00-9.24649E-01 1.80758E-01 2.18893E+00-6.02920E-14 1.00708E-12
 -1      3025 8.63602E+00-1.58428E-01 1.76934E-01 4.57898E-01-6.48058E-14-9.11660E-13
 -1      3026 1.20961E+01-2.73797E+00 1.14677E-01-5.63100E+00 5.49269E-13 3.83818E-13
 -1      3027 2.71189E+01-3.88014E+00-6.95507E-03 1.52002E+00 9.06220E-14-7.63278E-14
 -1      3028 2.55368E+01-4.45078E+00 1.85769E-03 2.27447E+00 1.84130E-13-2.70964E-15
 -1      3029 2.73462E+01-2.96762E+00-1.35152E-01 2.85273E-01 2.44874E-14 2.17604E-14
 -1      3030 1.56390E+01-3.89657E+00 1.46612E-01 6.26912E+00 4.09617E-13-5.02876E-13
 -1      3031 1.48587E+01-2.95376E+00 9.90135E-02 5.76858E+00 3.77948E-13-4.88526E-13
 -1      3032 1.77673E+01-4.39524E+00-1.63380E-02 5.95591E+00 4.21330E-13-3.54626E-13
 -1      3033 1.22932E+01-2.49863E+00 1.21472E-01 5.33501E+00-5.61065E-13 8.32140E-13
 -1      3034 1.13066E+01-1.53210E+00 1.34484E-01 4.51426E+00-3.75984E-13 7.51468E-13
 -1      3035 1.46897E+01-2.42786E+00 9.04199E-02 5.04530E+00-6.92363E-13 4.56198E-13
 -1      3036 2.00028E+01 5.24078E-04 5.52014E-06-3.77173E-03 2.68823E-13-5.46663E-14
 -1      3037 2.00022E+01-1.50065E-03-3.70278E-06-4.19063E-03 2.41638E-13-1.93889E-13
 -1      3038 2.00018E+01-1.38356E-03 9.04390E-06-4.70935E-03 2.17552E-13-3.48664E-13
 -1      3039 1.64061E+01-3.95419E+00 1.04111E-01-6.13980E+00 5.93012E-13-3.39728E-14
 -1      3040 1.79556E+01-4.74840E+00 7.62206E-02-6.21256E+00 5.80147E-13-7.82222E-14
 -1      3041 1.98486E+01-4.65350E+00 3.26111E-02-5.33567E+00 5.17503E-13-1.65982E-13
 -1      3042 2.56964E+01 3.65556E+00-1.02305E-01 1.10163E+00 6.20587E-13 1.53906E-13
 -1      3043 2.57775E+01 2.76714E+00-1.78499E-01 1.98369E+00 4.42785E-13 2.98444E-13
 -1      3044 2.69394E+01-1.97482E+00-7.04079E-02-1.57126E+00 3.47708E-14-4.09464E-13
 -1      3045 2.66755E+01-1.05424E+00-5.32668E-02-2.28120E+00 8.12996E-14-3.41144E-13
 -1      3046 2.66532E+01 1.44244E-01-4.06592E-02-2.61284E+00 2.82371E-13-3.42223E-13
 -1      3047 2.79183E+01-2.59528E+00-4.58746E-02-8.79675E-01-5.02376E-15-4.61242E-13
 -1      3048 2.65835E+01-4.23826E+00-2.68397E-02-1.27104E+00-2.44027E-13 2.75086E-13
 -1      3049 2.00014E+01-1.67504E-03-4.06943E-07-5.17988E-03 6.74349E-14-6.54791E-14
 -1      3050 2.00008E+01-1.47146E-03 3.95072E-06-5.47973E-03-6.75899E-14 7.49569E-14
 -1      3051 2.00008E+01-5.54707E-04 2.33199E-06-5.61211E-03-2.17249E-13 3.34224E-14
 -1      3052 2.00020E+01-9.38288E-05 1.68213E-06-4.85794E-03 5.68920E-14 1.31628E-14
 -1      3053 2.47077E+01-4.67795E+00 2.80031E-02 2.52568E+00-4.69132E-13-1.48111E-13
 -1      3054 2.15443E+01-4.61512E+00 9.34927E-02-4.50858E+00-4.54345E-13 9.39179E-14
 -1      3055 2.00008E+01-1.72623E-03 2.22864E-05 5.37035E-03 5.30867E-14-3.69898E-13
 -1      3056 2.05207E+01 1.79589E+00-3.36050E-03 5.77902E-01 4.53813E-13-1.89649E-13
 -1      3057 1.90667E+01-4.07837E+00 9.77317E-02 5.06957E+00-7.10487E-13 1.39326E-13
 -1      3058 2.83802E+01-2.53713E+00-3.05421E-02-8.28670E-01 6.64867E-14-7.94281E-13
 -1      3059 2.83454E+01-1.63287E+00-9.73770E-02 4.77500E-01 2.72005E-14-8.83849E-13
 -1      3060 2.71876E+01-3.53563E+00-1.42901E-02-1.33642E+00 1.80946E-13-8.78936E-13
 -1      3061 2.22979E+01-5.10023E+00 7.58640E-02 4.77697E+00 2.64441E-13-2.12920E-13
 -1      3062 2.88534E+01 4.80933E-01-5.92934E-02-1.35998E+00-2.95056E-13 9.64367E-14
 -1      3063 2.38721E+01-5.07744E+00 3.05914E-02-4.05112E+00 4.00693E-13-6.20955E-13
 -1      3064 2.51397E+01-4.71771E+00-7.55340E-02-2.80887E+00 3.14734E-13-8.61436E-13
 -1      3065 2.28092E+01-4.97017E+00 4.20169E-02-4.23209E+00 3.83513E-13-5.45453E-13
 -1      3066 2.71645E+01 4.73355E+00-1.32315E-01 4.56167E-01 7.69218E-13 1.55796E-13
 -1      3067 9.99235E+00-8.82306E-01 1.76385E-01-3.34546E+00-3.16601E-13-7.00676E-13
 -1      3068 1.92006E+01 3.31470E+00-7.08753E-03-9.99282E-02-5.40416E-14-5.42169E-13
 -1      3069 1.93007E+01 3.23867E+00-4.25063E-03-1.88430E-01-1.25597E-13-5.38073E-13
 -1      3070 1.94491E+01 2.89249E+00 5.17247E-03-1.19981E-01-1.38636E-13-5.04420E-13
 -1      3071 1.92418E+01 3.08347E+00 5.19759E-03-1.99844E-02-3.72222E-14-5.17975E-13
 -1      3072 2.04471E+01 1.64910E+00 3.67908E-03 2.81797E-01 3.99650E-13-2.19369E-13
 -1      3073 7.76390E+00-7.77059E-01 1.95018E-01-2.59489E+00 2.75550E-13 6.46011E-13
 -1      3074 1.01236E+01-6.75897E-01 9.05188E-02-3.47355E+00 3.99750E-13 5.65978E-13
 -1      3075 8.41352E+00-1.00445E-01 1.43690E-01-1.35761E+00 2.12930E-13 6.94445E-13
 -1      3076 1.97534E+01 2.59614E+00 6.25972E-03-2.43404E-01-2.16926E-13-4.66357E-13
 -1      3077 1.97429E+01 2.80589E+00-7.70615E-03-4.29387E-01-2.36698E-13-4.86950E-13
 -1      3078 1.99288E+01 2.62041E+00-6.92975E-03-5.36174E-01-2.92186E-13-4.47221E-13
 -1      3079 1.08211E+01-1.31620E+00 1.53045E-01 4.20431E+00 2.20518E-13-7.23893E-13
 -1      3080 2.91193E+01 2.01464E+00-1.32291E-01 1.77726E+00-4.03830E-13-6.69631E-13
 -1      3081 2.77173E+01 2.81935E+00-6.02348E-02 2.31478E+00-3.75325E-13-6.55878E-13
 -1      3082 2.84704E+01 6.52908E-01-9.34730E-02 1.59707E+00-2.22933E-13-7.74394E-13
 -1      3083 2.00011E+01-1.49779E-04-1.09901E-05 5.37506E-03-3.00099E-13-6.40412E-13
 -1      3084 2.00015E+01-1.08497E-03-1.20205E-05 5.07653E-03 1.31573E-14-3.57171E-13
 -1      3085 2.00022E+01 5.78900E-04 3.68717E-05 4.70798E-03-5.27950E-15-3.33484E-13
 -1      3086 2.00014E+01 8.52039E-04 5.21136E-05 5.16984E-03-2.13045E-13-5.58497E-13
 -1      3087 2.05160E+01-4.07067E+00-6.46785E-02 4.30669E+00-5.42601E-13 6.24084E-14
 -1      3088 1.78882E+01-3.10368E+00 1.00343E-01 4.86507E+00-6.10428E-13 2.66738E-13
 -1      3089 2.01611E+01 1.88397E+00-5.00109E-03 1.45447E-01 3.50677E-13-2.85788E-13
 -1      3090 1.99545E+01 2.13142E+00-3.58710E-03 1.20661E-01 3.20907E-13-3.40419E-13
 -1      3091 2.64729E+01-3.35929E+00 5.16542E-02-2.22373E-01-2.51420E-13-3.71442E-13
 -1      3092 2.03816E+01 1.00306E+00 3.85585E-03 4.42553E-01-1.93133E-13-2.28259E-13
 -1      3093 2.03816E+01 8.36460E-01-1.16443E-03 6.36649E-01-1.74413E-13-2.36491E-13
 -1      3094 2.00641E+01 2.48116E+00-7.57355E-03-6.08261E-01-3.07966E-13-4.00286E-13
 -1      3095 2.02439E+01 2.26340E+00-7.48370E-03-6.84830E-01-3.50356E-13-3.54793E-13
 -1      3096 2.03249E+01 1.97961E+00 5.98753E-03-4.87880E-01-3.23389E-13-3.17315E-13
 -1      3097 2.00659E+01 2.27503E+00 7.53939E-03-3.69480E-01-2.70597E-13-3.86108E-13
 -1      3098 1.51207E+01-2.86457E+00 1.45005E-01-5.37618E+00-5.15768E-13-2.98706E-13
 -1      3099 1.23257E+01-1.69776E+00 8.93187E-02-4.91051E+00 5.18349E-13 3.38368E-13
 -1      3100 1.42372E+01-2.93579E+00 1.13805E-01-5.88818E+00 5.54973E-13 1.31214E-13
 -1      3101 1.64149E+01-3.11419E+00 8.21886E-02-5.41443E+00 5.78877E-13 2.07473E-15
 -1      3102 2.03881E+01 6.88797E-01 4.25848E-03 8.08788E-01-1.63357E-13-1.98129E-13
 -1      3103 2.04121E+01 5.45398E-01 1.50155E-04 9.55081E-01-1.38363E-13-2.06585E-13
 -1      3104 2.02246E+01 9.09565E-01-1.96863E-03 7.29274E-01-1.48328E-13-2.47717E-13
 -1      3105 2.04365E+01 4.05461E-01 4.84910E-03 1.09470E+00-1.36418E-13-1.90969E-13
 -1      3106 2.04985E+01 2.54567E-01 1.12972E-03 1.19571E+00-1.23419E-13-2.28030E-13
 -1      3107 2.02360E+01 5.82272E-01-3.91064E-03 1.05290E+00-1.42416E-13-2.16538E-13
 -1      3108 2.05655E+01 9.40254E-02 6.42097E-03 1.30169E+00-8.44374E-14-2.08216E-13
 -1      3109 2.06787E+01-9.04958E-02 1.38930E-03 1.35327E+00-4.45125E-14-1.86559E-13
 -1      3110 2.03052E+01 2.39066E-01-6.55079E-03 1.31472E+00-8.76018E-14-2.05138E-13
 -1      3111 2.08185E+01-2.93197E-01 9.49124E-03 1.41723E+00 1.56506E-14-1.83603E-13
 -1      3112 2.09965E+01-5.29854E-01 4.45870E-04 1.40647E+00 2.87753E-14-1.41155E-13
 -1      3113 2.04817E+01-1.78055E-01-1.04493E-02 1.50849E+00-9.88885E-15-1.91910E-13
 -1      3114 2.12461E+01-7.84278E-01 1.42229E-02 1.40699E+00 5.20724E-14-7.94251E-14
 -1      3115 2.14981E+01-1.07366E+00-2.68023E-03 1.31085E+00 7.17293E-14-4.71035E-14
 -1      3116 2.08282E+01-7.12092E-01-1.57111E-02 1.60920E+00 8.73208E-14-1.53312E-13
 -1      3117 2.18952E+01-1.36181E+00 2.01237E-02 1.20564E+00 7.70326E-14-1.20722E-14
 -1      3118 2.22116E+01-1.66158E+00-8.42528E-03 9.93496E-01 9.71987E-14 3.97788E-14
 -1      3119 2.14178E+01-1.37001E+00-2.16398E-02 1.55803E+00 1.18110E-13-1.08663E-13
 -1      3120 2.27638E+01-1.90593E+00 2.34881E-02 7.22879E-01 9.42006E-14 7.94317E-14
 -1      3121 2.31046E+01-2.09975E+00-1.53993E-02 3.77468E-01 6.99597E-14 8.78755E-14
 -1      3122 2.23076E+01-2.05567E+00-2.31134E-02 1.24867E+00 1.07675E-13 3.62254E-15
 -1      3123 2.37347E+01-2.13888E+00 1.45172E-02-9.86320E-02 4.81021E-14 1.36132E-13
 -1      3124 2.40107E+01-2.02415E+00-2.21000E-02-5.33006E-01 6.97790E-14 1.42445E-13
 -1      3125 2.34429E+01-2.51018E+00-2.84864E-02 5.39628E-01 1.00806E-13 8.80468E-14
 -1      3126 2.45786E+01-1.63306E+00-3.56980E-03-1.18534E+00 7.74086E-14 2.26607E-13
 -1      3127 2.46838E+01-9.40534E-01-1.49848E-03-1.55883E+00 3.86262E-14 2.73312E-13
 -1      3128 2.46637E+01-2.28656E+00-4.65816E-02-5.77056E-01 1.24220E-13 1.80982E-13
 -1      3129 2.48068E+01 6.28789E-03-6.45798E-02-2.01576E+00-8.98231E-14 3.62425E-13
 -1      3130 2.47273E+01 1.18673E+00-9.72010E-03-2.02840E+00-2.58182E-13 3.71683E-13
 -1      3131 2.54846E+01-7.53206E-01-2.12371E-02-1.71400E+00 3.47535E-14 3.21725E-13
 -1      3132 2.43178E+01 4.00417E+00-9.28261E-02-3.49060E-01-6.11497E-13-1.48653E-14
 -1      3133 2.42575E+01 4.06482E+00-7.02281E-02 5.13956E-01-5.88266E-13-2.03289E-13
 -1      3134 2.52842E+01 3.64265E+00-8.33209E-02 1.53152E+00-5.01016E-13-4.22411E-13
 -1      3135 2.54315E+01 2.56669E+00-1.25862E-01 2.02564E+00-3.36522E-13-4.46495E-13
 -1      3136 2.46245E+01-1.02480E+00 1.67101E-03 1.64419E+00-2.39028E-14-3.24438E-13
 -1      3137 2.45287E+01-1.65236E+00-2.14736E-02 1.27183E+00 3.04305E-14-2.93639E-13
 -1      3138 2.39972E+01-1.97836E+00-1.12554E-02 6.64763E-01-3.65359E-14-2.74817E-13
 -1      3139 2.37005E+01-2.09800E+00 1.63891E-02 2.26083E-01 6.84266E-14-3.27887E-13
 -1      3140 2.46176E+01-2.14459E+00 5.15860E-03 6.98562E-01-7.30319E-16-3.55526E-13
 -1      3141 2.30553E+01-2.04406E+00-1.58953E-02-2.39541E-01 1.04935E-13-3.86318E-13
 -1      3142 2.27143E+01-1.84767E+00 2.24249E-02-5.76938E-01 9.63188E-14-4.32549E-13
 -1      3143 2.33662E+01-2.45971E+00-2.74812E-02-4.21541E-01 3.55662E-15-3.82043E-13
 -1      3144 2.21560E+01-1.60283E+00-9.02135E-03-8.36535E-01 1.06913E-13-3.77792E-13
 -1      3145 2.18371E+01-1.30964E+00 1.90413E-02-1.04159E+00 1.30985E-14-3.54111E-13
 -1      3146 2.22084E+01-1.99129E+00-2.47877E-02-1.10018E+00 1.21342E-13-3.99680E-13
 -1      3147 2.14339E+01-1.03315E+00-2.70019E-03-1.14250E+00-1.24332E-13-3.16742E-13
 -1      3148 2.11766E+01-7.60942E-01 1.31390E-02-1.23910E+00-1.75495E-13-3.20700E-13
 -1      3149 2.13080E+01-1.31934E+00-2.08408E-02-1.39594E+00-5.74985E-15-3.62312E-13
 -1      3150 2.09167E+01-5.27788E-01 6.41240E-04-1.24432E+00-1.97876E-13-2.31997E-13
 -1      3151 2.07273E+01-3.19623E-01 7.90859E-03-1.26635E+00-2.22624E-13-2.47452E-13
 -1      3152 2.07000E+01-7.04061E-01-1.47651E-02-1.45220E+00-1.48774E-13-2.68938E-13
 -1      3153 2.05742E+01-1.50993E-01 1.98479E-03-1.22077E+00-1.98800E-13-2.94823E-13
 -1      3154 2.04415E+01-1.10242E-02 4.14112E-03-1.19643E+00-1.21888E-13-2.92537E-13
 -1      3155 2.03262E+01-2.37704E-01-9.38201E-03-1.37934E+00-2.05423E-13-2.80971E-13
 -1      3156 2.03596E+01 9.70135E-02 2.34407E-03-1.12690E+00 7.18480E-14-1.85846E-13
 -1      3157 2.02683E+01 1.80007E-01 1.67942E-03-1.07636E+00 2.11289E-13-2.47795E-14
 -1      3158 2.01153E+01 7.44962E-02-5.47565E-03-1.24493E+00 5.75990E-14-2.19599E-13
 -1      3159 2.02302E+01 2.40201E-01 2.31627E-03-9.98148E-01 1.69521E-13 1.86671E-14
 -1      3160 2.01670E+01 2.81088E-01 1.88380E-04-9.35081E-01 1.40533E-13 3.56487E-14
 -1      3161 2.00081E+01 2.59518E-01-2.94192E-03-1.08649E+00 2.29598E-13 2.04378E-14
 -1      3162 2.01540E+01 3.07240E-01 2.16782E-03-8.56799E-01 6.45900E-14 5.85659E-14
 -1      3163 2.01091E+01 3.19632E-01-6.36815E-04-7.90193E-01-8.79530E-15-7.49272E-16
 -1      3164 1.99623E+01 3.51018E-01-1.40819E-03-9.24379E-01 1.05505E-13 5.12040E-14
 -1      3165 2.01093E+01 3.23535E-01 1.98656E-03-7.16679E-01-4.75161E-14 4.86657E-14
 -1      3166 2.00764E+01 3.18214E-01-1.03209E-03-6.52200E-01 1.07371E-13 1.68274E-13
 -1      3167 1.99501E+01 3.79191E-01-5.46124E-04-7.69785E-01 3.98048E-14 7.14876E-14
 -1      3168 2.00825E+01 3.08843E-01 1.79577E-03-5.86023E-01 8.95069E-14 1.09545E-13
 -1      3169 2.00575E+01 2.93641E-01-1.16171E-03-5.26991E-01 5.66116E-14 1.56071E-13
 -1      3170 1.99543E+01 3.67833E-01-1.04106E-04-6.28731E-01 1.42219E-14 2.17157E-13
 -1      3171 2.00655E+01 2.77328E-01 1.60022E-03-4.69294E-01 6.57887E-14 7.88796E-14
 -1      3172 2.00459E+01 2.57579E-01-1.13684E-03-4.17389E-01-1.81946E-14 1.61201E-13
 -1      3173 1.99651E+01 3.34249E-01 9.25889E-05-5.04153E-01 1.37888E-14 6.91396E-14
 -1      3174 2.00537E+01 2.38523E-01 1.40221E-03-3.68396E-01-1.08470E-13 1.59970E-13
 -1      3175 2.00381E+01 2.17648E-01-1.02985E-03-3.24187E-01-2.48833E-13 1.21768E-13
 -1      3176 1.99770E+01 2.90277E-01 1.55328E-04-3.97022E-01-1.62170E-14 7.53670E-14
 -1      3177 2.00448E+01 1.98463E-01 1.20621E-03-2.83532E-01-3.32316E-13 1.54370E-13
 -1      3178 2.00322E+01 1.78507E-01-8.86541E-04-2.46862E-01-2.07796E-13 1.18555E-13
 -1      3179 1.99877E+01 2.43564E-01 1.51489E-04-3.07010E-01-2.34115E-13 5.98321E-14
 -1      3180 2.00374E+01 1.60692E-01 1.01794E-03-2.13823E-01-1.29376E-13 1.35154E-13
 -1      3181 2.00273E+01 1.42754E-01-7.34767E-04-1.84103E-01-1.32256E-13 3.91110E-14
 -1      3182 1.99961E+01 1.98726E-01 1.19769E-04-2.32956E-01-1.77890E-13 9.06865E-14
 -1      3183 2.00311E+01 1.27057E-01 8.42760E-04-1.57767E-01-1.42696E-13-2.54310E-14
 -1      3184 2.00230E+01 1.11611E-01-5.90501E-04-1.34182E-01-3.39150E-14-1.12302E-13
 -1      3185 2.00021E+01 1.58272E-01 8.09883E-05-1.73210E-01-1.93143E-13 2.14136E-14
 -1      3186 2.00256E+01 9.82995E-02 6.84661E-04-1.13578E-01 4.01755E-14-1.37066E-13
 -1      3187 2.00192E+01 8.54297E-02-4.61975E-04-9.52276E-02 7.50944E-14-1.76989E-13
 -1      3188 2.00060E+01 1.23322E-01 4.52975E-05-1.25896E-01-3.78028E-14 2.49010E-13
 -1      3189 2.00208E+01 7.44758E-02 5.45929E-04-7.94001E-02 1.70142E-13-8.75597E-14
 -1      3190 2.00157E+01 6.40379E-02-3.52537E-04-6.53978E-02 2.04923E-13-6.10722E-15
 -1      3191 2.00081E+01 9.41092E-02 1.67842E-05-8.90977E-02 1.11507E-13 1.12636E-13
 -1      3192 2.00166E+01 5.52478E-02 4.27269E-04-5.34636E-02 1.28078E-13 8.68217E-14
 -1      3193 2.00127E+01 4.69763E-02-2.62594E-04-4.29880E-02 9.04999E-14 1.56933E-16
 -1      3194 2.00090E+01 7.03429E-02-3.70128E-06-6.09927E-02 1.97312E-13-1.52766E-16
 -1      3195 2.00130E+01 4.00748E-02 3.28156E-04-3.41645E-02 1.18608E-13 4.13706E-14
 -1      3196 2.00100E+01 3.36520E-02-1.90884E-04-2.64913E-02 7.49754E-14 6.50893E-15
 -1      3197 2.00089E+01 5.14502E-02-1.68754E-05-3.99249E-02 1.97293E-13 6.25180E-15
 -1      3198 2.00100E+01 2.83350E-02 2.47271E-04-2.01083E-02 7.55113E-14 6.49134E-14
 -1      3199 2.00078E+01 2.34330E-02-1.35468E-04-1.46225E-02 1.44059E-13 2.69816E-14
 -1      3200 2.00082E+01 3.67324E-02-2.41050E-05-2.44476E-02 1.55652E-13 1.09264E-13
 -1      3201 2.00075E+01 1.93977E-02 1.82757E-04-1.01243E-02 4.74622E-14-4.34129E-14
 -1      3202 2.00058E+01 1.57028E-02-9.41167E-05-6.32171E-03 2.60616E-15-9.44328E-14
 -1      3203 2.00072E+01 2.54604E-02-2.71658E-05-1.33369E-02 1.09785E-13-6.64626E-15
 -1      3204 2.00054E+01 1.26646E-02 1.32232E-04-3.26073E-03 3.47182E-14-1.59168E-13
 -1      3205 2.00042E+01 9.88773E-03-6.39655E-05-7.41172E-04 5.04018E-15-2.77831E-13
 -1      3206 2.00059E+01 1.69350E-02-2.66422E-05-5.58881E-03-1.06336E-13-3.96493E-13
 -1      3207 2.00038E+01 7.58633E-03 9.31041E-05 1.22807E-03-9.67154E-14-2.34980E-13
 -1      3208 2.00029E+01 5.48234E-03-3.70431E-05 2.76731E-03-6.85249E-14-2.96538E-13
 -1      3209 2.00047E+01 1.05123E-02-2.19352E-05-4.12148E-04-6.47772E-14-2.97660E-13
 -1      3210 2.00024E+01 3.84559E-03 6.89242E-05 3.83676E-03-1.18533E-14-3.48307E-13
 -1      3211 2.00018E+01 2.17585E-03-2.13286E-05 4.63452E-03 2.86403E-14-3.50286E-13
 -1      3212 2.00023E+01 2.13154E-03-4.65806E-05 4.44984E-03-1.79906E-13-7.12860E-13
 -1      3213 2.00034E+01 5.71116E-03-4.36888E-05 2.72631E-03-1.07272E-13-2.39517E-13
 -1      3214 2.00038E+01 4.11786E-03-6.57345E-06 1.39968E-03 1.92859E-14 1.12397E-13
 -1      3215 2.00038E+01 4.24227E-03-2.27936E-05 8.36271E-04 1.42129E-13-3.17736E-13
 -1      3216 2.86120E+01 2.81534E+00-6.05656E-02 2.29045E+00 5.39221E-13 4.13031E-13
 -1      3217 2.15710E+01-1.25880E+00 7.94223E-03-2.19562E+00-6.36409E-14-4.16633E-14
 -1      3218 2.11704E+01-8.10837E-01 2.15849E-02-2.26150E+00-7.51732E-14-3.83109E-14
 -1      3219 2.08956E+01-4.52642E-01 5.10568E-03-2.17728E+00-7.23089E-14-6.43128E-14
 -1      3220 2.06438E+01-1.44266E-01 8.03984E-03-2.14171E+00-2.53190E-14-7.68442E-14
 -1      3221 2.03267E+01-6.70206E-01-2.87441E-02-2.47829E+00-7.85836E-14-1.09436E-13
 -1      3222 2.45678E+01-3.20629E+00 1.91959E-02-1.03955E+00-2.19116E-13 1.33189E-13
 -1      3223 2.37071E+01-2.85556E+00 5.39635E-02-1.65774E+00-2.15291E-13 6.95685E-14
 -1      3224 2.76753E+01-7.32677E-01-9.55797E-02 2.06166E+00 1.58498E-13 4.96117E-13
 -1      3225 2.07974E+01-3.45517E-01 1.10278E-02 2.03099E+00-2.48980E-13 1.07470E-13
 -1      3226 2.11041E+01-6.91606E-01 7.99424E-03 2.03173E+00-1.65547E-13 1.02865E-13
 -1      3227 2.04508E+01 1.26715E-01 3.63235E-03 1.84462E+00-2.43162E-13 1.55070E-13
 -1      3228 2.06394E+01-7.80661E-02 6.78131E-03 1.91069E+00-2.10023E-13 1.24650E-13
 -1      3229 2.00411E+01-1.80662E-01-1.32887E-02 2.14425E+00-2.31187E-13 2.40404E-13
 -1      3230 2.02841E+01 3.76814E-01-1.62981E-04 1.61388E+00-2.55654E-13 3.96761E-14
 -1      3231 2.04020E+01 2.75306E-01 5.49538E-03 1.71063E+00-2.36940E-13 8.03660E-14
 -1      3232 1.98741E+01 2.75520E-01-5.65458E-03 1.86283E+00-2.05083E-13 2.15643E-13
 -1      3233 2.02080E+01 4.79174E-01-1.84523E-03 1.37551E+00 4.80983E-14-2.73482E-15
 -1      3234 2.02865E+01 4.43706E-01 4.40437E-03 1.48294E+00-1.02231E-13 1.43705E-14
 -1      3235 1.98437E+01 5.02823E-01-1.49225E-03 1.58815E+00-1.21011E-13 2.57285E-14
 -1      3236 2.01721E+01 4.93073E-01-2.44344E-03 1.14771E+00 5.18693E-14 5.51801E-14
 -1      3237 2.02296E+01 4.95879E-01 3.67224E-03 1.25416E+00 9.80745E-14 5.09424E-14
 -1      3238 1.98705E+01 5.83578E-01 3.80404E-04 1.33382E+00 2.83423E-15 9.97939E-14
 -1      3239 2.01513E+01 4.59312E-01-2.48684E-03 9.39855E-01-1.93647E-13 1.95724E-13
 -1      3240 2.01973E+01 4.81898E-01 3.18429E-03 1.03866E+00-5.52767E-14 1.20056E-13
 -1      3241 1.99133E+01 5.79080E-01 1.02879E-03 1.10405E+00-7.25943E-14 7.74381E-14
 -1      3242 2.01347E+01 4.03731E-01-2.26659E-03 7.56404E-01-6.89042E-14 9.50947E-14
 -1      3243 2.01734E+01 4.34669E-01 2.81433E-03 8.44204E-01-1.21525E-13 1.34862E-13
 -1      3244 1.99537E+01 5.29859E-01 1.07377E-03 9.00466E-01-8.41340E-14 1.94636E-13
 -1      3245 2.01184E+01 3.41497E-01-1.94527E-03 5.98743E-01-2.47651E-14 6.73747E-14
 -1      3246 2.01516E+01 3.74216E-01 2.49062E-03 6.74271E-01-5.32182E-14 3.47916E-14
 -1      3247 1.99850E+01 4.61239E-01 8.82056E-04 7.23428E-01-3.66242E-14-1.34238E-14
 -1      3248 2.01017E+01 2.80904E-01-1.60611E-03 4.66277E-01 1.56494E-13-9.94941E-15
 -1      3249 2.01301E+01 3.11900E-01 2.17945E-03 5.29594E-01 1.38904E-13 4.21312E-14
 -1      3250 2.00063E+01 3.87955E-01 6.31596E-04 5.72336E-01 4.04423E-14-1.62623E-13
 -1      3251 2.00853E+01 2.26041E-01-1.29001E-03 3.57175E-01 1.80043E-13-1.29854E-13
 -1      3252 2.01093E+01 2.53663E-01 1.87527E-03 4.09121E-01 1.85266E-13 3.98979E-14
 -1      3253 2.00190E+01 3.18017E-01 4.02056E-04 4.45745E-01 2.25277E-13-1.31930E-13
 -1      3254 2.00698E+01 1.78544E-01-1.01418E-03 2.68923E-01 6.79023E-14-2.35527E-13
 -1      3255 2.00897E+01 2.02209E-01 1.58366E-03 3.10743E-01 6.51520E-14-1.75101E-13
 -1      3256 2.00252E+01 2.55316E-01 2.21278E-04 3.41549E-01 1.74560E-13-2.13689E-14
 -1      3257 2.00558E+01 1.38679E-01-7.83033E-04 1.98728E-01 1.98758E-13-1.06523E-13
 -1      3258 2.00720E+01 1.58390E-01 1.31249E-03 2.31821E-01 9.05437E-14-2.39410E-13
 -1      3259 2.00271E+01 2.01319E-01 9.21075E-05 2.57233E-01 5.18950E-14-3.27829E-13
 -1      3260 2.00436E+01 1.05999E-01-5.94615E-04 1.43789E-01 1.76491E-13 5.99651E-14
 -1      3261 2.00565E+01 1.22060E-01 1.06801E-03 1.69553E-01 2.36752E-13 7.90373E-14
 -1      3262 2.00262E+01 1.56140E-01 7.14292E-06 1.90114E-01 6.00892E-14-1.57456E-13
 -1      3263 2.00334E+01 7.97252E-02-4.44180E-04 1.01471E-01 1.74995E-13 1.68135E-13
 -1      3264 2.00435E+01 9.25701E-02 8.53759E-04 1.21208E-01 1.49772E-13 1.07925E-13
 -1      3265 2.00238E+01 1.19178E-01-4.38239E-05 1.37537E-01 1.48820E-13 3.15287E-14
 -1      3266 2.00251E+01 5.89613E-02-3.26140E-04 6.93976E-02 1.22891E-13 1.67095E-13
 -1      3267 2.00328E+01 6.90639E-02 6.70681E-04 8.42727E-02 1.80894E-13 1.48361E-13
 -1      3268 2.00206E+01 8.95069E-02-7.04678E-05 9.70042E-02 1.22771E-13 2.05875E-13
 -1      3269 2.00184E+01 4.28108E-02-2.35017E-04 4.54974E-02 6.29279E-14 2.37366E-13
 -1      3270 2.00241E+01 5.06329E-02 5.17721E-04 5.65162E-02 1.07864E-13 1.76593E-13
 -1      3271 2.00173E+01 6.60873E-02-8.07226E-05 6.62642E-02 1.29992E-13 3.92775E-13
 -1      3272 2.00132E+01 3.04371E-02-1.65832E-04 2.80145E-02 9.66147E-14 3.04577E-14
 -1      3273 2.00174E+01 3.64034E-02 3.92518E-04 3.60224E-02 1.36262E-13 7.75185E-14
 -1      3274 2.00141E+01 4.78915E-02-8.05718E-05 4.33489E-02 1.40074E-13 2.18777E-13
 -1      3275 2.00092E+01 2.10886E-02-1.14328E-04 1.54947E-02 2.35815E-15-4.03768E-14
 -1      3276 2.00122E+01 2.55777E-02 2.92046E-04 2.11857E-02-3.36107E-14-7.89332E-14
 -1      3277 2.00112E+01 3.39633E-02-7.42727E-05 2.65855E-02 1.11421E-13 6.79941E-14
 -1      3278 2.00062E+01 1.41028E-02-7.72032E-05 6.76210E-03-2.02665E-14-5.37490E-14
 -1      3279 2.00083E+01 1.74471E-02 2.13180E-04 1.06920E-02 3.40928E-14-6.85292E-14
 -1      3280 2.00086E+01 2.34440E-02-6.49816E-05 1.45861E-02-1.65779E-14 1.70640E-15
 -1      3281 2.00040E+01 8.90107E-03-5.16116E-05 8.94670E-04-2.11835E-13 3.88750E-14
 -1      3282 2.00054E+01 1.13894E-02 1.52678E-04 3.49445E-03-5.38468E-14 3.93779E-14
 -1      3283 2.00065E+01 1.55762E-02-5.40967E-05 6.22694E-03-7.03209E-14 1.91162E-13
 -1      3284 2.00024E+01 5.00559E-03-3.36253E-05-2.80660E-03 1.39487E-14-2.27470E-14
 -1      3285 2.00033E+01 6.87177E-03 1.06406E-04-1.20989E-03-1.86042E-13-9.68622E-15
 -1      3286 2.00047E+01 9.71014E-03-4.06600E-05 6.37364E-04-1.41691E-13 2.49402E-13
 -1      3287 2.00013E+01 2.00934E-03-6.37904E-06-4.85809E-03-3.14918E-14-6.79650E-14
 -1      3288 2.00019E+01 3.42407E-03 6.84448E-05-4.04480E-03-1.07502E-14-1.63868E-13
 -1      3289 2.00032E+01 5.27259E-03-3.45937E-05-2.86822E-03 8.40771E-14-8.64258E-14
 -1      3290 2.00010E+01 3.15918E-04 6.92830E-06-5.41130E-03-1.71201E-13 1.03962E-13
 -1      3291 2.00011E+01 1.20556E-03 2.16009E-05-5.25406E-03-7.06168E-14 1.36472E-14
 -1      3292 2.00023E+01 2.41979E-03-2.21278E-05-4.51761E-03-1.51789E-13 2.73832E-14
 -1      3293 2.00017E+01 4.85423E-04-1.43073E-05-5.12128E-03-2.35497E-13-2.36820E-14
 -1      3294 2.03461E+01 7.79044E-01 1.32494E-03-1.11338E+00 2.10973E-13-1.54346E-13
 -1      3295 2.03414E+01 8.62299E-01 1.99797E-03-9.20994E-01 2.33803E-13-1.45687E-13
 -1      3296 2.00038E+01 4.40305E-03-1.55983E-05 3.65155E-04 1.17532E-13-5.57913E-13
 -1      3297 2.00038E+01 4.39422E-03-1.46996E-05-2.03065E-04 1.69941E-13-3.28149E-13
 -1      3298 2.00044E+01 7.22728E-03 5.35275E-05 4.97812E-04 1.38913E-13-4.08663E-13
 -1      3299 2.00031E+01 2.39486E-03-9.88622E-06 3.65904E-03-1.04679E-14 1.56729E-13
 -1      3300 2.00034E+01 2.72839E-03-2.34611E-05 3.06392E-03 8.40215E-14 3.04820E-13
 -1      3301 2.66767E+01 4.42152E+00-1.52766E-01-1.61777E+00-7.65929E-13 1.99299E-13
 -1      3302 2.71796E+01 3.01616E+00-8.36283E-02-2.08889E+00-5.27967E-13 2.20532E-13
 -1      3303 2.76404E+01-2.46324E+00-2.65016E-03 1.24799E+00-5.41962E-14 4.02511E-13
 -1      3304 9.96626E+00 2.03866E-01 7.54311E-02 1.30580E+00 4.66641E-16-7.62973E-13
 -1      3305 9.71737E+00 2.97218E-01 1.14918E-01-7.22813E-01-1.23944E-13-7.62834E-13
 -1      3306 2.04796E+01 1.31236E+00-8.92387E-04-2.82434E-02 3.43378E-13-1.94575E-13
 -1      3307 2.03062E+01 1.66922E+00 1.35095E-03 7.63498E-02 3.57342E-13-2.32689E-13
 -1      3308 2.02113E+01 1.57541E+00 3.05158E-03-1.51266E-01 3.13621E-13-2.50372E-13
 -1      3309 2.04545E+01 1.13949E+00-6.10167E-04-3.11516E-01 3.07640E-13-1.95536E-13
 -1      3310 2.03783E+01 1.42064E+00 4.66134E-03-8.52800E-03-2.61392E-13-2.58777E-13
 -1      3311 2.03707E+01 1.19214E+00-2.74937E-03 2.36847E-01-2.29841E-13-2.50382E-13
 -1      3312 2.02262E+01 1.28749E+00-3.39682E-04 3.42419E-01-2.09753E-13-2.66450E-13
 -1      3313 2.00036E+01 3.41125E-03-5.28274E-07 2.49954E-03 1.92021E-13 5.30540E-13
 -1      3314 2.00037E+01 3.64805E-03-2.67821E-05 1.91011E-03 1.43270E-14 4.61327E-13
 -1      3315 2.00043E+01 6.59365E-03 4.63087E-05 1.36591E-03 1.39367E-13 3.22555E-13
 -1      3316 2.00040E+01 5.43180E-03 2.56736E-05 2.36507E-03 1.34236E-13 3.43003E-13
 -1      3317 2.14648E+01-1.10743E+00 2.42255E-02 2.09838E+00-1.25673E-13 8.30304E-15
 -1      3318 2.19436E+01-1.60558E+00 7.40242E-03 1.97289E+00-2.25713E-13 9.28348E-15
 -1      3319 2.04805E+01-9.55806E-01-2.55672E-02 2.39138E+00-2.14013E-13 2.29476E-13
 -1      3320 2.26364E+01-2.14038E+00 4.34076E-02 1.88695E+00-2.92247E-13-9.88000E-14
 -1      3321 2.33171E+01-2.68096E+00 5.43591E-03 1.54018E+00-3.10176E-13-9.62736E-14
 -1      3322 2.14079E+01-2.09285E+00-4.00935E-02 2.49404E+00-2.87373E-13-1.89657E-14
 -1      3323 2.27250E+01-2.32618E+00 2.79974E-03-1.91000E+00-1.36131E-13 4.86304E-14
 -1      3324 2.21277E+01-1.77531E+00 3.53789E-02-2.17968E+00-9.80097E-14 2.82393E-14
 -1      3325 2.10486E+01-1.63750E+00-3.42561E-02-2.61451E+00-1.14827E-13-6.27944E-14
 -1      3326 2.24215E+01-2.88471E+00-2.43323E-02-2.48949E+00-2.07381E-13 6.31621E-14
 -1      3327 2.03404E+01 6.22142E-01 3.05848E-03-1.45743E+00 1.44825E-13-1.39189E-13
 -1      3328 2.03036E+01 7.02160E-01 1.47847E-03-1.29668E+00 1.85852E-13-1.24704E-13
 -1      3329 2.00744E+01 8.96148E-01-5.45265E-04-1.19419E+00 1.96846E-13-1.53387E-13
 -1      3330 2.52035E+01-4.22401E+00-8.64987E-02 1.44190E+00-4.17612E-13-2.16438E-13
 -1      3331 2.33086E+01-4.24296E+00 1.17051E-01 3.05089E+00-5.74972E-13-1.07483E-13
 -1      3332 2.19512E+01-3.56022E+00 5.64167E-02 3.21564E+00-5.13325E-13-2.82684E-14
 -1      3333 2.50448E+01-3.39335E+00-7.16364E-03 6.21187E-01-3.28458E-13-2.10701E-13
 -1      3334 2.30838E+01-4.86740E+00-4.48008E-02 3.82698E+00 3.07601E-13-1.05858E-13
 -1      3335 2.08264E+01-4.72359E+00 1.28311E-01 5.20174E+00 3.88661E-13-2.55387E-13
 -1      3336 1.94386E+01-4.09119E+00 7.04890E-02 5.16846E+00 4.09561E-13-2.93827E-13
 -1      3337 2.02268E+01-3.92803E+00 7.00102E-02-4.60083E+00-4.11129E-13 2.02963E-14
 -1      3338 2.28823E+01-4.50013E+00 3.48713E-03-3.49760E+00-3.60038E-13 1.70709E-13
 -1      3339 1.92090E+01 2.85500E+00-4.48943E-03 9.05976E-02 1.48018E-13-4.79290E-13
 -1      3340 1.91535E+01 2.90352E+00-4.25853E-03 6.81154E-02 9.43896E-14-4.97951E-13
 -1      3341 1.00692E+01-1.92047E-01 9.46228E-02-2.36489E+00-2.54310E-13-6.38808E-13
 -1      3342 1.15122E+01-1.02912E+00 1.75240E-02-3.96221E+00-3.94504E-13-5.01821E-13
 -1      3343 2.75289E+01 8.18555E-01-1.49576E-01-1.92459E+00-2.86590E-13 1.71835E-13
 -1      3344 2.80427E+01-9.70088E-01-5.69130E-03-1.23298E+00-1.07435E-13 1.61759E-13
 -1      3345 9.25131E+00-7.09050E-01 1.18065E-01 3.12317E+00-1.49013E-13 8.47350E-13
 -1      3346 8.19533E+00-1.58373E-01 1.15649E-01 1.12967E+00 1.07969E-14 8.71442E-13
 -1      3347 1.41295E+01-1.69881E+00 1.36476E-01-4.74522E+00-4.22162E-13-3.55993E-13
 -1      3348 1.70476E+01-2.90124E+00 1.62854E-02-5.03892E+00-4.40377E-13-1.41248E-13
 -1      3349 1.26580E+01-1.55429E+00 8.33988E-02 4.75106E+00 2.70554E-13-5.65797E-13
 -1      3350 1.08697E+01-4.90919E-01 1.05886E-01 3.31554E+00 1.46050E-13-6.72157E-13
 -1      3351 1.91337E+01 2.91726E+00-5.02212E-03 8.33897E-02 6.95349E-14-4.79590E-13
 -1      3352 1.91501E+01 2.90686E+00-3.39659E-03 5.74133E-02 1.65969E-14-4.83047E-13
 -1      3353 1.91680E+01 2.69586E+00 7.43938E-03 6.14616E-02 7.66052E-14-4.44242E-13
 -1      3354 1.98804E+01 2.01809E+00 6.85294E-03-6.61196E-02 2.77682E-13-3.24719E-13
 -1      3355 1.97545E+01 2.33839E+00-4.63700E-03 1.21097E-01 3.07926E-13-3.71462E-13
 -1      3356 1.95764E+01 2.51357E+00-5.45464E-03 9.13680E-02 2.63208E-13-4.01059E-13
 -1      3357 2.55451E+01 4.18557E-01-6.48834E-02 2.16352E+00-1.44044E-13-4.45793E-13
 -1      3358 2.62046E+01-4.50676E-01-4.83651E-02 1.84536E+00-6.88373E-14-5.74540E-13
 -1      3359 1.18249E+01-9.05138E-01 1.47417E-01-4.13743E+00 3.86472E-13 4.13780E-13
 -1      3360 1.35406E+01-1.27651E+00 4.96012E-02-4.36963E+00 4.48825E-13 1.40055E-13
 -1      3361 1.14086E+01-2.81534E-01 6.25256E-02-3.13727E+00 2.95482E-13 4.54414E-13
 -1      3362 2.70276E+01-2.24969E+00 3.76931E-04-4.85041E-01 5.39777E-14 1.68060E-13
 -1      3363 2.25217E+01-3.68069E+00-1.16793E-03-3.04594E+00-2.98915E-13 9.31234E-14
 -1      3364 2.37926E+01-4.31805E+00-3.13923E-02-2.67981E+00-3.36904E-13 1.21824E-13
 -1      3365 1.68135E+01-2.62175E+00 5.65706E-02 4.86867E+00-6.27449E-13 3.20563E-13
 -1      3366 1.56812E+01-1.81150E+00 8.15052E-02 4.49144E+00-5.06064E-13 3.78371E-13
 -1      3367 1.85877E+01-2.49785E+00 4.90950E-02 4.13349E+00-5.33211E-13 2.96183E-13
 -1      3368 2.00035E+01 2.64061E-03-2.20446E-05-3.02025E-03-3.15540E-14-3.86749E-14
 -1      3369 2.00032E+01 2.33229E-03 4.48658E-06-3.62328E-03 1.87398E-15 2.39011E-14
 -1      3370 2.44468E+01 2.33501E+00-9.03970E-02-1.79936E+00-4.63123E-13 2.78541E-13
 -1      3371 2.42883E+01 3.31360E+00-2.91610E-02-1.24810E+00-5.58005E-13 1.80424E-13
 -1      3372 2.53866E+01 1.65895E+00-5.96273E-02 2.15977E+00-2.14141E-13-4.46311E-13
 -1      3373 2.29217E+01-3.40507E+00-6.40487E-02 2.28678E+00-4.02497E-13-1.42778E-13
 -1      3374 2.42805E+01-3.11676E+00 6.35732E-02 1.22995E+00-3.92499E-13-2.05012E-13
 -1      3375 2.03107E+01 5.30724E-01 1.50439E-03-1.62433E+00 1.03281E-13-1.39187E-13
 -1      3376 1.99933E+01 7.06946E-01-1.53702E-03-1.55179E+00 1.24709E-13-1.51788E-13
 -1      3377 2.03915E+01 4.18979E-01 4.67988E-03-1.75543E+00 4.79236E-14-1.19008E-13
 -1      3378 2.00301E+01 3.53339E-02-1.05053E-02-2.19690E+00-4.61508E-14-1.57943E-13
 -1      3379 2.05495E+01 9.14879E-02 6.46196E-03-2.00351E+00-3.30728E-14-9.96571E-14
 -1      3380 2.04004E+01 2.76151E-01 3.09421E-03-1.90988E+00-2.68024E-14-1.32961E-13
 -1      3381 2.51949E+01-3.82921E+00 4.07859E-02-1.27018E+00-2.46032E-13 2.02401E-13
 -1      3382 1.13486E+01 3.30489E-01 1.16125E-01-1.39541E+00-2.03096E-13-6.06105E-13
 -1      3383 2.60942E+01-3.62794E+00-1.00508E-03-5.31770E-01-1.72514E-13 2.87770E-13
 -1      3384 2.00038E+01 3.57458E-03-2.78647E-05-1.80225E-03 1.00019E-13-8.97948E-14
 -1      3385 2.00037E+01 3.33399E-03 1.99644E-06-2.41410E-03 1.42841E-13-1.93379E-13
 -1      3386 2.00042E+01 5.32669E-03 2.69149E-05-2.27927E-03-3.54684E-14-3.78140E-14
 -1      3387 2.00038E+01 4.21018E-03-2.39555E-05-6.79325E-04 1.38007E-13-3.57269E-13
 -1      3388 2.00038E+01 4.06636E-03-5.39606E-06-1.26549E-03 1.50175E-13-2.59444E-13
 -1      3389 2.00044E+01 6.52783E-03 4.62930E-05-1.22790E-03 1.42456E-14-1.50310E-13
 -1      3390 2.00044E+01 7.20523E-03 5.45943E-05-3.27402E-04 2.02717E-13-3.77198E-13
 -1      3391 2.58137E+01 1.80547E+00-7.68501E-02-2.14599E+00-3.93942E-13 3.35162E-13
 -1      3392 2.68954E+01 1.27192E+00-1.02935E-01-2.10425E+00-3.24810E-13 2.53519E-13
 -1      3393 2.46344E+01-4.52165E+00 6.41659E-02 2.62614E+00 2.65683E-13-5.91367E-15
 -1      3394 2.30932E+01-4.37357E+00 1.25015E-02 3.27563E+00 3.56035E-13-6.98859E-14
 -1      3395 1.12301E+01 1.50707E-01 1.13341E-01 2.15751E+00 8.72930E-14-6.56912E-13
 -1      3396 1.19464E+01 5.95359E-01 4.22596E-02 1.09300E+00 7.32574E-15-5.95135E-13
 -1      3397 1.26738E+01-1.01152E-01 2.51138E-02 2.82302E+00 1.56147E-13-5.07469E-13
 -1      3398 2.52294E+01-4.19133E+00-8.19510E-02 1.61887E+00 2.67023E-13 1.25733E-14
 -1      3399 1.15914E+01-7.86794E-01 1.26126E-01 3.54075E+00-2.59771E-13 6.42014E-13
 -1      3400 2.03990E+01 9.23918E-01 2.95079E-04-7.44312E-01 2.46313E-13-1.60704E-13
 -1      3401 2.04148E+01 1.03877E+00 2.37738E-03-5.12669E-01 2.64221E-13-1.76791E-13
 -1      3402 2.02933E+01 1.24392E+00 7.77222E-04-4.37942E-01 2.61556E-13-2.12016E-13
 -1      3403 2.01851E+01 1.05881E+00 3.77928E-05-8.26563E-01 2.40099E-13-1.82777E-13
 -1      3404 2.62081E+01-4.18093E+00-3.88090E-03-1.73528E+00 2.14100E-13-7.95697E-13
 -1      3405 2.65181E+01-3.60272E+00-1.43036E-01-6.16966E-01 2.20698E-13-7.58935E-13
 -1      3406 2.50301E+01-4.32088E+00 3.42534E-02-2.27704E+00 2.48048E-13-7.39551E-13
 -1      3407 2.15491E+01-4.78360E+00 6.68096E-02-4.74642E+00 4.07105E-13-4.60609E-13
 -1      3408 2.28723E+01-4.73658E+00 4.68624E-03-3.79584E+00 3.83929E-13-6.28105E-13
 -1      3409 2.02068E+01-4.35974E+00 6.24203E-02-5.00105E+00 4.42917E-13-2.31769E-13
 -1      3410 1.58325E+01-2.64976E+00 2.89128E-03 5.23027E+00 3.67463E-13-3.61836E-13
 -1      3411 1.42301E+01-1.99207E+00 1.29329E-01 5.08161E+00 3.24275E-13-4.74502E-13
 -1      3412 1.40438E+01-1.25376E+00 7.60519E-02 4.33544E+00 2.51389E-13-4.57766E-13
 -1      3413 9.14972E+00 2.73390E-01 1.63132E-01-1.92906E-01 1.47530E-13 7.00745E-13
 -1      3414 1.04490E+01 3.43762E-01 4.94151E-02-1.36573E+00 2.03731E-13 5.24858E-13
 -1      3415 1.04338E+01 4.39571E-01 9.60049E-02 7.10711E-01-8.49841E-15 6.23335E-13
 -1      3416 1.92993E+01 2.77287E+00-5.18142E-03 7.49390E-02 1.79167E-13-4.57132E-13
 -1      3417 1.92781E+01 2.60140E+00 7.71797E-03 1.13385E-02 1.52972E-13-4.27920E-13
 -1      3418 1.94226E+01 2.66307E+00-4.25896E-03 1.00153E-01 2.38302E-13-4.35283E-13
 -1      3419 2.00027E+01 2.37905E-03-1.66250E-05 4.18852E-03-2.44412E-13-5.18550E-13
 -1      3420 2.00029E+01 2.23506E-03-2.22439E-05 3.93207E-03-4.52528E-14-1.49251E-13
 -1      3421 2.00037E+01 4.60642E-03 3.48677E-05 3.12674E-03-1.85699E-13 7.45577E-14
 -1      3422 2.00033E+01 4.20846E-03 5.86507E-05 3.53420E-03-2.85636E-13-3.86433E-13
 -1      3423 1.96895E+01 2.39600E+00-4.80953E-03-5.38898E-02-1.78440E-13-4.60321E-13
 -1      3424 1.98646E+01 2.21630E+00-4.22832E-03-1.11997E-01-2.24225E-13-4.23898E-13
 -1      3425 1.89849E+01-3.11454E+00 6.03685E-02-4.63333E+00-4.03615E-13-7.72368E-14
 -1      3426 2.04885E+01-3.02931E+00 3.16538E-02-3.76289E+00-3.31248E-13 2.39236E-14
 -1      3427 1.77552E+01-2.01190E+00 3.91007E-02-4.26026E+00-3.08812E-13-1.29303E-13
 -1      3428 1.40859E+01-9.70794E-01 1.14058E-01-3.93747E+00-3.48034E-13-3.79301E-13
 -1      3429 1.93945E+01 2.67917E+00-5.16782E-03 1.90967E-02-1.09201E-13-4.69617E-13
 -1      3430 1.95310E+01 2.55702E+00-3.19076E-03-2.99851E-02-1.60453E-13-4.78935E-13
 -1      3431 1.96577E+01 2.23334E+00 5.28856E-03 9.85979E-02-1.71224E-13-4.37535E-13
 -1      3432 2.57738E+01 4.39467E+00-1.11167E-01-1.08609E+00-7.45209E-13 1.28019E-13
 -1      3433 2.03484E+01 1.71361E+00-4.21943E-03-2.90431E-01-3.00147E-13-2.92310E-13
 -1      3434 2.02054E+01 1.79776E+00-1.95841E-03-1.47445E-01-2.65629E-13-3.08511E-13
 -1      3435 2.03950E+01-3.88655E+00-1.35371E-02 4.43206E+00 4.19432E-13-2.09457E-13
 -1      3436 1.82540E+01-3.21576E+00 1.13323E-01 5.10611E+00 3.94511E-13-3.18148E-13
 -1      3437 2.00722E+01 1.93163E+00-3.37358E-03-9.69895E-02-2.31322E-13-3.52627E-13
 -1      3438 2.00534E+01 1.15215E+00 5.17999E-04 6.28146E-01-1.48706E-13-2.78048E-13
 -1      3439 2.00519E+01 9.77200E-01 3.46622E-04 8.08697E-01-1.36849E-13-2.78975E-13
 -1      3440 2.00294E+01 8.08720E-01 1.65725E-03 9.75746E-01-1.25456E-13-2.69293E-13
 -1      3441 2.00459E+01 6.41648E-01 1.96684E-03 1.12675E+00-1.19160E-13-2.55284E-13
 -1      3442 1.98424E+01 1.03548E+00-1.54579E-03 8.84866E-01-1.29842E-13-2.99124E-13
 -1      3443 2.00379E+01 4.66936E-01 2.77546E-03 1.28238E+00-9.91185E-14-2.27022E-13
 -1      3444 2.00964E+01 2.77089E-01 3.89823E-03 1.40508E+00-6.43362E-14-2.21503E-13
 -1      3445 1.97987E+01 6.74240E-01-2.90905E-03 1.21567E+00-9.22544E-14-2.46220E-13
 -1      3446 2.01324E+01 6.57476E-02 5.03111E-03 1.55093E+00-1.63610E-14-2.16303E-13
 -1      3447 2.02609E+01-1.76981E-01 5.79880E-03 1.64185E+00 4.38644E-14-1.70648E-13
 -1      3448 1.98062E+01 2.65081E-01-6.70039E-03 1.53233E+00-2.12153E-14-2.20014E-13
 -1      3449 2.03857E+01-4.52745E-01 9.59044E-03 1.77168E+00 6.75700E-14-1.62702E-13
 -1      3450 2.06169E+01-7.73013E-01 6.73309E-03 1.81492E+00 1.13052E-13-1.83909E-13
 -1      3451 1.99352E+01-2.57950E-01-1.25565E-02 1.83742E+00 5.04992E-14-1.87251E-13
 -1      3452 2.08914E+01-1.12737E+00 1.76084E-02 1.90509E+00 1.47898E-13-2.09170E-13
 -1      3453 2.12529E+01-1.53279E+00 3.50971E-03 1.86575E+00 1.39155E-13-1.66555E-13
 -1      3454 2.02817E+01-9.53853E-01-2.11443E-02 2.10745E+00 1.16982E-13-2.48947E-13
 -1      3455 2.17689E+01-1.94739E+00 3.11204E-02 1.84657E+00 1.64487E-13-1.03887E-13
 -1      3456 2.22715E+01-2.36536E+00 1.53463E-03 1.65205E+00 1.79580E-13-8.64612E-14
 -1      3457 2.09848E+01-1.86579E+00-3.42997E-02 2.27705E+00 2.00245E-13-2.46248E-13
 -1      3458 2.30835E+01-2.74774E+00 4.05888E-02 1.44654E+00 1.68563E-13-8.82541E-17
 -1      3459 2.37538E+01-2.96403E+00 1.14561E-02 9.73242E-01 1.70319E-13 7.21437E-14
 -1      3460 2.22029E+01-2.77400E+00-1.57832E-02 2.13647E+00 2.45528E-13-1.31309E-13
 -1      3461 2.44528E+01-3.29158E+00 3.64220E-02 9.67175E-01 2.08255E-13 1.03433E-13
 -1      3462 2.51421E+01-3.02873E+00 6.96672E-03 3.13878E-01 2.06748E-13 1.55060E-13
 -1      3463 2.10600E+01-2.84006E+00 6.37757E-02 3.30390E+00-4.07312E-13 1.89813E-14
 -1      3464 2.00253E+01 1.79085E+00 3.82200E-03 1.02506E-01-2.11171E-13-3.52609E-13
 -1      3465 2.35503E+01-2.94570E+00-2.81190E-03-9.18040E-01 9.46465E-15-4.46017E-13
 -1      3466 2.29482E+01-2.65206E+00 4.35458E-02-1.30633E+00 9.97592E-14-4.38611E-13
 -1      3467 2.21362E+01-2.29219E+00-8.00717E-04-1.52182E+00 1.13307E-13-3.44428E-13
 -1      3468 2.16237E+01-1.87118E+00 2.92197E-02-1.70014E+00 1.32637E-13-3.58713E-13
 -1      3469 2.20206E+01-2.74272E+00-3.65798E-02-2.02264E+00 1.39546E-13-3.15415E-13
 -1      3470 2.11079E+01-1.47238E+00 4.43192E-03-1.71068E+00 8.33838E-14-3.32880E-13
 -1      3471 2.07357E+01-1.08809E+00 1.67290E-02-1.75024E+00-2.28882E-14-2.81243E-13
 -1      3472 2.08061E+01-1.78320E+00-3.08628E-02-2.12674E+00 1.13097E-13-2.30026E-13
 -1      3473 2.04480E+01-7.57560E-01 6.76728E-03-1.66511E+00-1.01607E-13-3.10722E-13
 -1      3474 2.02034E+01-4.68619E-01 8.27461E-03-1.63129E+00-1.62559E-13-3.17899E-13
 -1      3475 2.00838E+01-9.31367E-01-2.03455E-02-1.96657E+00-8.93773E-14-2.89735E-13
 -1      3476 2.00652E+01-2.30976E-01 6.38426E-03-1.51538E+00-1.49437E-13-2.24950E-13
 -1      3477 1.99180E+01-3.72012E-02 3.35979E-03-1.44726E+00-6.77673E-14-1.53958E-13
 -1      3478 1.97070E+01-3.06385E-01-1.18588E-02-1.71690E+00-1.06071E-13-2.35004E-13
 -1      3479 1.98695E+01 1.16205E-01 5.12902E-03-1.32922E+00-8.85202E-15-1.45018E-13
 -1      3480 1.97883E+01 2.32700E-01 6.41789E-04-1.24789E+00 1.67466E-13-2.07273E-14
 -1      3481 1.95462E+01 1.05451E-01-6.19554E-03-1.45725E+00-1.54350E-15 1.40270E-13
 -1      3482 1.97896E+01 3.20359E-01 3.85770E-03-1.13839E+00 2.62172E-13-3.96955E-14
 -1      3483 1.97494E+01 3.80021E-01-7.99609E-04-1.05472E+00 2.51421E-13-9.90222E-15
 -1      3484 1.95106E+01 3.49704E-01-2.81961E-03-1.21760E+00 1.79274E-13-2.05958E-14
 -1      3485 1.97759E+01 4.20566E-01 2.87644E-03-9.57037E-01 1.28329E-13-2.89663E-14
 -1      3486 1.97594E+01 4.41304E-01-1.49050E-03-8.76785E-01 9.05103E-14-5.30432E-15
 -1      3487 1.95419E+01 4.73074E-01-8.68723E-04-1.00575E+00 2.02777E-13-6.38256E-14
 -1      3488 1.97962E+01 4.50469E-01 2.18358E-03-7.91479E-01 1.38705E-13-3.15376E-14
 -1      3489 1.97921E+01 4.46411E-01-1.75305E-03-7.17715E-01 1.44833E-13 6.67491E-14
 -1      3490 1.96042E+01 5.14238E-01 1.73467E-04-8.22006E-01 1.36136E-13-1.38233E-13
 -1      3491 1.98307E+01 4.36262E-01 1.71074E-03-6.44326E-01 4.81802E-14 9.12663E-14
 -1      3492 1.98324E+01 4.17794E-01-1.77013E-03-5.78600E-01 2.50188E-14 6.87578E-14
 -1      3493 1.96762E+01 5.03183E-01 6.63560E-04-6.64389E-01 1.58262E-13-5.27167E-14
 -1      3494 1.98683E+01 3.96995E-01 1.38426E-03-5.16324E-01 7.73330E-15 6.68091E-14
 -1      3495 1.98721E+01 3.71347E-01-1.65266E-03-4.59248E-01 6.42127E-14 5.40907E-14
 -1      3496 1.97462E+01 4.61788E-01 8.38033E-04-5.30475E-01 2.70346E-14 7.69168E-14
 -1      3497 1.99032E+01 3.45801E-01 1.14565E-03-4.07150E-01-3.50497E-14 1.14346E-14
 -1      3498 1.99070E+01 3.17765E-01-1.46759E-03-3.58700E-01-1.68551E-13-8.84956E-14
 -1      3499 1.98084E+01 4.05271E-01 8.39543E-04-4.17929E-01-3.15504E-14-3.77021E-14
 -1      3500 1.99327E+01 2.91283E-01 9.58356E-04-3.15758E-01-7.78470E-14-5.39040E-14
 -1      3501 1.99358E+01 2.63845E-01-1.25622E-03-2.75479E-01-5.74311E-14 4.24675E-14
 -1      3502 1.98606E+01 3.43752E-01 7.54328E-04-3.24515E-01-5.11055E-14-1.41109E-13
 -1      3503 1.99562E+01 2.38720E-01 8.02313E-04-2.40622E-01-2.01064E-13 1.83022E-13
 -1      3504 1.99584E+01 2.13585E-01-1.04399E-03-2.07781E-01-1.97099E-13 1.57244E-13
 -1      3505 1.99025E+01 2.83581E-01 6.33737E-04-2.48038E-01-7.31424E-14 6.37671E-15
 -1      3506 1.99740E+01 1.91054E-01 6.67550E-04-1.79923E-01-1.53179E-13 1.39624E-13
 -1      3507 1.99752E+01 1.69055E-01-8.45871E-04-1.53637E-01-5.71820E-14 2.00304E-13
 -1      3508 1.99349E+01 2.28414E-01 5.07088E-04-1.86329E-01-1.54031E-13 1.61314E-13
 -1      3509 1.99869E+01 1.49651E-01 5.49578E-04-1.31722E-01-4.43240E-14 3.19455E-13
 -1      3510 1.99873E+01 1.31048E-01-6.69824E-04-1.11057E-01-3.60068E-14 3.56626E-13
 -1      3511 1.99591E+01 1.80054E-01 3.89871E-04-1.37279E-01 3.26703E-14 2.68508E-13
 -1      3512 1.99957E+01 1.14853E-01 4.46506E-04-9.40922E-02-3.15499E-14 3.78079E-13
 -1      3513 1.99956E+01 9.95557E-02-5.19093E-04-7.81313E-02 9.30042E-14 2.41907E-13
 -1      3514 1.99766E+01 1.39084E-01 2.89109E-04-9.88886E-02-4.27757E-14 3.40699E-13
 -1      3515 2.00014E+01 8.63866E-02 3.57427E-04-6.52160E-02 1.60863E-13 1.02330E-13
 -1      3516 2.00009E+01 7.41025E-02-3.93909E-04-5.31089E-02 2.29939E-13 9.96501E-14
 -1      3517 1.99887E+01 1.05323E-01 2.06846E-04-6.93157E-02 1.02950E-13 2.24047E-13
 -1      3518 2.00047E+01 6.36318E-02 2.81626E-04-4.34479E-02 2.42907E-13 7.36731E-14
 -1      3519 2.00040E+01 5.39717E-02-2.92687E-04-3.44372E-02 2.85235E-13 7.92970E-14
 -1      3520 1.99967E+01 7.81502E-02 1.42370E-04-4.69120E-02 2.57225E-13 5.91507E-14
 -1      3521 2.00063E+01 4.58095E-02 2.18279E-04-2.73487E-02 1.82649E-13-1.21749E-14
 -1      3522 2.00054E+01 3.83516E-02-2.12682E-04-2.07823E-02 1.87114E-13 8.44267E-14
 -1      3523 2.00016E+01 5.67300E-02 9.36305E-05-3.02412E-02 1.26686E-13 3.79740E-14
 -1      3524 2.00067E+01 3.20959E-02 1.66576E-04-1.56948E-02 1.68010E-13-1.48295E-13
 -1      3525 2.00058E+01 2.64211E-02-1.52066E-04-1.10275E-02-4.02735E-14-2.77369E-13
 -1      3526 2.00043E+01 4.01494E-02 5.79735E-05-1.80833E-02 7.54225E-14-2.27565E-13
 -1      3527 2.00063E+01 2.16829E-02 1.25012E-04-7.47923E-03-8.86496E-14-2.39512E-13
 -1      3528 2.00055E+01 1.74128E-02-1.02840E-04-4.27520E-03-9.40600E-14-2.74125E-13
 -1      3529 2.00054E+01 2.74946E-02 3.10630E-05-9.42160E-03-1.55449E-15-3.88495E-13
 -1      3530 2.00055E+01 1.37978E-02 8.08501E-05-1.87468E-03-4.67728E-14-1.34783E-13
 -1      3531 2.00047E+01 1.06108E-02-4.91728E-05 1.76587E-04 2.37921E-14-5.78346E-14
 -1      3532 2.00054E+01 1.79560E-02 1.93948E-05-3.44458E-03-3.34565E-14-1.38908E-13
 -1      3533 1.97209E+01-6.39264E-01 9.28271E-03-2.68508E+00-1.09063E-13-1.13356E-13
 -1      3534 1.94509E+01-1.97303E-01 4.00551E-03-2.53526E+00-9.59695E-14-1.24499E-13
 -1      3535 2.60971E+01-2.67502E+00 4.71471E-02-2.83149E-01 1.79606E-13 2.06994E-13
 -1      3536 1.94133E+01 6.60538E-01-4.54331E-03 1.47403E+00-1.13781E-13 5.83893E-14
 -1      3537 1.94181E+01 6.06750E-01 5.90653E-03 1.60417E+00-1.46204E-13 1.00246E-13
 -1      3538 1.94615E+01-4.83811E-01 8.13258E-03 2.52799E+00-1.95995E-13 2.12512E-13
 -1      3539 1.98143E+01-9.47999E-01 2.63889E-02 2.66492E+00-2.76298E-13 1.44325E-13
 -1      3540 1.92800E+01 1.60001E-01-7.93417E-04 2.12081E+00-2.40796E-13 2.11085E-13
 -1      3541 1.94394E+01-1.15342E-01 1.61792E-02 2.27098E+00-2.06247E-13 2.17376E-13
 -1      3542 1.85900E+01-1.62993E-01-1.05125E-02 2.51497E+00-1.72293E-13 1.06655E-13
 -1      3543 1.95410E+01 6.93066E-01-4.31796E-03 1.22139E+00-1.91017E-14 1.45756E-13
 -1      3544 1.95266E+01 6.90624E-01 3.63724E-03 1.33877E+00-7.96787E-14 1.16890E-13
 -1      3545 1.91058E+01 7.88590E-01 2.97978E-03 1.35359E+00-1.47825E-13 6.30571E-14
 -1      3546 1.96596E+01 6.57575E-01-3.86051E-03 1.00336E+00-1.41347E-13 9.41444E-14
 -1      3547 1.96415E+01 6.83382E-01 2.46489E-03 1.10799E+00-5.47703E-14 1.00623E-13
 -1      3548 1.93114E+01 7.88654E-01 3.28805E-03 1.11319E+00-5.30755E-14 6.50670E-14
 -1      3549 1.97583E+01 5.88230E-01-3.32975E-03 8.15027E-01 4.10489E-14 2.40783E-14
 -1      3550 1.97430E+01 6.27296E-01 1.86223E-03 9.07037E-01-6.09312E-14 7.10769E-14
 -1      3551 1.94859E+01 7.30722E-01 2.97699E-03 9.11366E-01-5.30933E-14-5.70363E-14
 -1      3552 1.98353E+01 5.05860E-01-2.80805E-03 6.53406E-01-1.26291E-14-6.57507E-14
 -1      3553 1.98247E+01 5.49198E-01 1.55845E-03 7.32967E-01 6.11036E-14 4.73051E-14
 -1      3554 1.96263E+01 6.45353E-01 2.48291E-03 7.39417E-01-8.46883E-15 4.36482E-14
 -1      3555 1.98927E+01 4.22632E-01-2.32367E-03 5.16387E-01 8.82407E-14-1.66556E-13
 -1      3556 1.98866E+01 4.65076E-01 1.37299E-03 5.83952E-01 1.71327E-14-1.28090E-13
 -1      3557 1.97354E+01 5.50936E-01 1.96108E-03 5.92779E-01 8.20108E-14 3.68102E-14
 -1      3558 1.99339E+01 3.45130E-01-1.89084E-03 4.01927E-01 2.33086E-13-2.04915E-14
 -1      3559 1.99313E+01 3.83962E-01 1.22680E-03 4.58277E-01 1.65697E-13-9.39194E-14
 -1      3560 1.98177E+01 4.58270E-01 1.48943E-03 4.68712E-01 1.30436E-13-1.38257E-13
 -1      3561 1.99625E+01 2.76466E-01-1.51507E-03 3.07815E-01 1.56397E-13-4.73663E-14
 -1      3562 1.99624E+01 3.10481E-01 1.08811E-03 3.53992E-01 2.81965E-13 1.64140E-14
 -1      3563 1.98783E+01 3.73181E-01 1.09697E-03 3.65056E-01 2.15991E-13-4.47151E-14
 -1      3564 1.99817E+01 2.17683E-01-1.19631E-03 2.31668E-01 9.02769E-14-6.64229E-14
 -1      3565 1.99832E+01 2.46569E-01 9.48573E-04 2.68872E-01 7.14134E-14-1.65276E-13
 -1      3566 1.99220E+01 2.98346E-01 7.86670E-04 2.79730E-01 1.21587E-13 9.53830E-14
 -1      3567 1.99941E+01 1.68645E-01-9.31094E-04 1.71040E-01-3.88539E-15-7.39173E-14
 -1      3568 1.99964E+01 1.92592E-01 8.09957E-04 2.00526E-01 2.32923E-14-4.77659E-14
 -1      3569 1.99528E+01 2.34544E-01 5.49882E-04 2.10595E-01-1.48546E-15 7.16592E-15
 -1      3570 2.00016E+01 1.28588E-01-7.14157E-04 1.23538E-01 9.38934E-14 2.39705E-14
 -1      3571 2.00042E+01 1.48046E-01 6.77033E-04 1.46531E-01 3.60987E-14-3.15374E-14
 -1      3572 1.99740E+01 1.81451E-01 3.74057E-04 1.55476E-01-2.51326E-14 1.21564E-14
 -1      3573 2.00058E+01 9.64615E-02-5.39487E-04 8.69180E-02-7.98009E-14 3.21925E-13
 -1      3574 2.00085E+01 1.11995E-01 5.54306E-04 1.04559E-01-4.46099E-14 1.13496E-13
 -1      3575 1.99881E+01 1.38157E-01 2.46503E-04 1.12241E-01-9.76626E-14 2.09778E-13
 -1      3576 2.00079E+01 7.11211E-02-4.01004E-04 5.91530E-02 2.38567E-13 2.18357E-13
 -1      3577 2.00103E+01 8.33198E-02 4.44851E-04 7.24629E-02 1.76582E-13 3.51980E-13
 -1      3578 1.99971E+01 1.03481E-01 1.55980E-04 7.88832E-02-3.04624E-14 2.02363E-13
 -1      3579 2.00084E+01 5.14440E-02-2.92975E-04 3.84697E-02 1.89866E-13 2.63036E-13
 -1      3580 2.00106E+01 6.08769E-02 3.50162E-04 4.83341E-02 1.67312E-13 3.06522E-13
 -1      3581 2.00025E+01 7.61614E-02 9.31808E-05 5.35787E-02 1.41487E-13 2.02584E-13
 -1      3582 2.00081E+01 3.63886E-02-2.09975E-04 2.33590E-02 7.72888E-14 3.11072E-13
 -1      3583 2.00099E+01 4.35772E-02 2.70392E-04 3.05251E-02 2.35234E-13 3.92270E-13
 -1      3584 2.00054E+01 5.49686E-02 5.07543E-05 3.47265E-02 1.66628E-13 4.31421E-13
 -1      3585 2.00072E+01 2.50211E-02-1.47603E-04 1.25654E-02-7.70515E-14 2.83079E-13
 -1      3586 2.00088E+01 3.04307E-02 2.05026E-04 1.76500E-02-3.56462E-14 2.71570E-13
 -1      3587 2.00066E+01 3.87660E-02 2.29309E-05 2.09601E-02 3.26985E-14 5.46602E-13
 -1      3588 2.00061E+01 1.65124E-02-1.00162E-04 5.07465E-03-1.43079E-13 4.42210E-13
 -1      3589 2.00073E+01 2.05523E-02 1.53398E-04 8.56740E-03-1.00120E-13 3.87352E-13
 -1      3590 2.00067E+01 2.65235E-02 2.27524E-06 1.11329E-02-1.51907E-13 5.62487E-13
 -1      3591 2.00048E+01 1.01083E-02-7.00090E-05 1.16951E-04 5.52661E-14 1.19405E-13
 -1      3592 2.00058E+01 1.31291E-02 1.04865E-04 2.36673E-03-5.01560E-14 2.92595E-13
 -1      3593 2.00061E+01 1.73376E-02-8.58259E-06 4.31349E-03-5.27229E-14 4.67763E-13
 -1      3594 2.00036E+01 5.32459E-03-2.78253E-05-2.98852E-03 6.88370E-14-1.44357E-13
 -1      3595 2.00044E+01 7.61246E-03 7.40661E-05-1.61083E-03 1.14567E-13 1.01899E-14
 -1      3596 2.00051E+01 1.05489E-02 1.05518E-05-1.36075E-04 1.48415E-13 2.14734E-13
 -1      3597 2.00045E+01 1.02209E-02-2.07029E-05 4.69618E-04 2.18621E-13-2.76920E-13
 -1      3598 2.00045E+01 1.03617E-02-3.69390E-05 1.53678E-04 1.20670E-13-3.41256E-13
 -1      3599 2.00028E+01 1.48083E-03-1.29278E-05-4.15329E-03-1.05055E-13-2.42581E-14
 -1      3600 2.00024E+01 1.17256E-03 4.41018E-06-4.61854E-03-1.60505E-13 1.13187E-13
 -1      3601 2.00026E+01 2.14857E-03-2.67809E-06-4.41025E-03-3.01355E-13 7.12099E-14
 -1      3602 2.00036E+01 3.71398E-03-5.36077E-06-3.40328E-03-2.88896E-13 1.60543E-13
 -1      3603 2.62442E+01 6.45384E-02-2.07334E-02-1.93209E+00-1.30833E-13 2.90603E-13
 -1      3604 1.63702E+01-2.44063E+00 4.20977E-02-4.89585E+00 5.10154E-13 1.38778E-17
 -1      3605 1.83957E+01-3.41998E+00 5.01762E-02-5.05385E+00 5.29660E-13-7.32366E-14
 -1      3606 1.93050E+01 5.08478E-01-3.96757E-03 1.76997E+00-1.98821E-13 1.82172E-13
 -1      3607 1.93598E+01 3.68296E-01 9.92913E-03 1.91281E+00-1.71495E-13 2.35357E-13
 -1      3608 1.86828E+01 4.01510E-01-2.61773E-03 2.02440E+00-2.44312E-13 1.14697E-13
 -1      3609 1.88834E+01 6.83996E-01 1.43275E-03 1.64807E+00-7.98969E-14 2.10725E-14
 -1      3610 1.99459E+01-1.46320E+00 2.90914E-02 2.95642E+00-3.27049E-13 1.75843E-13
 -1      3611 2.06001E+01-2.12327E+00 4.32991E-02 3.01034E+00-3.32415E-13 1.61234E-13
 -1      3612 1.90525E+01-2.34652E+00-2.45821E-02 3.83553E+00-4.53719E-13 3.54782E-13
 -1      3613 1.86670E+01-1.08424E+00-2.71241E-02 3.12598E+00-3.15136E-13 3.72022E-13
 -1      3614 1.97956E+01 1.00974E+00 1.01701E-03-1.21934E+00 1.61380E-13-1.81141E-13
 -1      3615 1.98429E+01 1.10367E+00-8.79397E-04-1.03351E+00 1.86667E-13-2.12832E-13
 -1      3616 2.77000E+01-1.56064E+00 2.78963E-03 9.08486E-01 6.65856E-14-8.58827E-13
 -1      3617 2.83533E+01-5.57009E-01-9.35939E-02 1.32444E+00-1.10946E-13-7.94947E-13
 -1      3618 1.92007E+01 2.85541E+00-5.25919E-03 6.38242E-02-9.91716E-15-4.86192E-13
 -1      3619 1.92830E+01 2.78848E+00-2.97451E-03 2.75215E-02-6.96206E-14-4.74422E-13
 -1      3620 1.93764E+01 2.50115E+00 5.83169E-03 1.15328E-01-8.38964E-14-4.43134E-13
 -1      3621 2.00433E+01 1.55053E+00-1.22107E-03 2.65592E-01-1.90033E-13-3.27201E-13
 -1      3622 2.00473E+01 1.33928E+00-1.24696E-05 4.74259E-01-1.63501E-13-3.04726E-13
 -1      3623 1.98651E+01 1.40512E+00-9.32798E-04 5.56575E-01-1.30204E-13-3.13032E-13
 -1      3624 1.98379E+01 1.82932E+00-1.97763E-04 2.38074E-01-1.69208E-13-3.76863E-13
 -1      3625 1.32764E+01-9.09014E-01 3.31934E-02 3.92086E+00-3.65687E-13 4.76771E-13
 -1      3626 1.15882E+01-2.01414E-02 7.15564E-02 2.61050E+00-1.84141E-13 5.57346E-13
 -1      3627 1.21013E+01 6.56394E-01 2.52290E-02-7.47842E-01-1.08836E-13-5.73118E-13
 -1      3628 1.25039E+01 2.74203E-01 3.92553E-02-2.28324E+00-2.11072E-13-4.58467E-13
 -1      3629 1.38524E+01-2.00071E-01 7.04746E-02-3.19708E+00-2.58692E-13-3.89619E-13
 -1      3630 1.57404E+01-1.13110E+00-2.91865E-02-3.94657E+00-2.69496E-13-2.93675E-13
 -1      3631 1.45118E+01 2.63782E-01 6.77620E-02-2.49651E+00-1.44770E-13-3.67676E-13
 -1      3632 2.55679E+01-2.77847E+00-9.35046E-03 2.15379E-01 9.05352E-14-5.20072E-13
 -1      3633 2.49085E+01-3.24371E+00-2.44531E-03-4.76749E-01 6.62751E-14-5.35728E-13
 -1      3634 2.35830E+01-3.73113E+00-2.01251E-02 2.06506E+00 2.83881E-13-4.49519E-14
 -1      3635 2.59409E+01-1.35664E+00-1.15882E-01-1.42876E+00 6.19591E-14 2.68089E-13
 -1      3636 1.99374E+01 1.72237E+00-2.26427E-03-2.54725E-01 2.53140E-13-3.15901E-13
 -1      3637 1.97354E+01 1.92724E+00-3.33827E-03-2.31747E-01 2.27369E-13-3.14990E-13
 -1      3638 2.48460E+01 4.04934E+00-1.77266E-01 1.00577E+00-5.83533E-13-3.10077E-13
 -1      3639 2.00045E+01 9.28267E-03-3.11877E-06 1.00334E-03 1.98874E-13 4.11012E-13
 -1      3640 2.00045E+01 9.68966E-03-4.55721E-05 6.48550E-04 3.23847E-13-1.82423E-14
 -1      3641 2.00049E+01 1.33919E-02 9.29873E-05 2.12190E-04 3.08003E-13 2.37570E-14
 -1      3642 1.53912E+01-1.02128E+00 6.40170E-02 3.77387E+00-3.97307E-13 3.46286E-13
 -1      3643 1.45620E+01-1.03884E+00 3.58653E-02-4.01244E+00 3.81847E-13 9.80188E-14
 -1      3644 1.54535E+01-1.70206E+00 8.96961E-02-4.61463E+00 4.46771E-13-3.27446E-14
 -1      3645 1.72589E+01-2.10382E+00 4.27777E-02-4.35038E+00 4.74239E-13-2.06883E-14
 -1      3646 2.17311E+01-2.98284E+00 3.69219E-02-3.15511E+00-2.40568E-13 6.98053E-14
 -1      3647 1.96783E+01 9.13568E-01-1.82094E-03-1.39819E+00 1.27992E-13-1.72623E-13
 -1      3648 1.94536E+01 1.12266E+00 4.11002E-03-1.24229E+00 1.46805E-13-1.76311E-13
 -1      3649 1.96480E+01 8.14314E-01 4.15599E-03-1.56667E+00 1.01784E-13-1.56113E-13
 -1      3650 2.40916E+01-3.65352E+00-2.42485E-02-1.56942E+00 8.62001E-14-6.19177E-13
 -1      3651 1.87886E+01 1.25063E-01 1.34368E-02-2.47858E+00-9.26681E-14-1.15720E-13
 -1      3652 1.95213E+01 1.07529E-01 1.58702E-02-2.27649E+00-6.38537E-14-1.58681E-13
 -1      3653 1.94049E+01 3.41181E-01-7.43209E-03-2.12624E+00-4.68207E-14-1.51706E-13
 -1      3654 2.00427E+01-1.56324E+00 2.02241E-02-3.13471E+00-1.79278E-13-7.55358E-14
 -1      3655 1.88676E+01-1.15411E+00-1.83174E-02-3.29507E+00-1.85277E-13-8.92723E-14
 -1      3656 2.00044E+01 8.28739E-03 5.96254E-05 1.44683E-03-4.11353E-14-1.26503E-13
 -1      3657 2.00037E+01 6.04037E-03-1.36825E-05 2.63704E-03-1.37753E-13-1.99186E-13
 -1      3658 2.00039E+01 6.32877E-03-3.01785E-05 2.44009E-03-1.61113E-13-1.92735E-13
 -1      3659 2.00049E+01 1.11349E-02-6.76682E-06 1.72342E-04-3.44482E-14-5.46361E-14
 -1      3660 1.96654E+01 1.33249E+00 3.35907E-03-8.78361E-01 1.79728E-13-2.67207E-13
 -1      3661 1.99351E+01 1.20909E+00-9.70175E-04-8.44335E-01 2.17374E-13-2.41686E-13
 -1      3662 1.99580E+01 4.50817E-01-4.18721E-03-1.88399E+00 2.81676E-14-1.66741E-13
 -1      3663 2.00048E+01 1.39224E-02 9.23170E-05 8.25958E-05 3.64267E-14-3.16812E-13
 -1      3664 2.00045E+01 1.03721E-02-3.09670E-05 3.93048E-05 1.39179E-13-3.01721E-13
 -1      3665 2.00045E+01 1.01815E-02-2.59924E-05-2.77742E-04 8.05122E-14-2.70754E-13
 -1      3666 2.00030E+01 3.24122E-03 3.17158E-05-3.96395E-03-1.24697E-13 3.24395E-15
 -1      3667 1.31769E+01 4.22858E-01 6.10050E-02 2.02969E+00-2.27398E-13 3.99722E-13
 -1      3668 1.15997E+01 5.04922E-01 9.62499E-02 1.59919E+00-1.13985E-13 4.86916E-13
 -1      3669 1.19664E+01 7.48689E-01 1.83617E-02 4.55364E-01-4.37584E-15 4.75106E-13
 -1      3670 2.00038E+01 5.16383E-03-3.66303E-06-2.94039E-03-1.18763E-13 8.67605E-14
 -1      3671 2.05463E+01-2.24695E+00 1.10654E-02-3.28327E+00-1.93382E-13-2.44475E-14
 -1      3672 1.41556E+01-5.00945E-01 9.46326E-02 3.58592E+00 1.91958E-13-4.17638E-13
 -1      3673 1.40671E+01 5.07879E-02 3.51096E-02 2.67358E+00 1.13489E-13-4.32397E-13
 -1      3674 1.73610E+01-2.47898E+00 4.66115E-02 4.67520E+00 3.24483E-13-3.20743E-13
 -1      3675 1.31462E+01 7.42394E-01-1.13172E-02 8.80790E-01 4.81620E-14-4.78062E-13
 -1      3676 1.25438E+01 8.71973E-01 8.19423E-02 7.99572E-02-5.16505E-14-5.44158E-13
 -1      3677 1.34808E+01 8.89621E-01 3.09805E-02-7.30611E-01-6.99562E-14-4.74860E-13
 -1      3678 2.01808E+01 1.37424E+00-2.34063E-03-3.83529E-01 2.60195E-13-2.52084E-13
 -1      3679 2.00486E+01 1.59205E+00-3.70735E-05-3.08216E-01 2.61365E-13-2.76517E-13
 -1      3680 1.99233E+01 1.54115E+00 4.74548E-03-4.81139E-01 2.26702E-13-2.89572E-13
 -1      3681 2.01328E+01 1.26960E+00-6.82296E-04-5.90327E-01 2.22800E-13-2.48668E-13
 -1      3682 2.00010E+01 1.29105E+00-5.79053E-04-6.66772E-01 2.19150E-13-2.58591E-13
 -1      3683 1.92038E+01 2.65925E+00 6.49244E-03 1.00863E-01-6.60385E-15-4.50406E-13
 -1      3684 1.96539E+01-3.68872E+00 5.10136E-02-4.64170E+00 5.01391E-13-2.21637E-13
 -1      3685 2.10438E+01-3.99063E+00-5.39844E-04-4.11875E+00 4.29594E-13-4.40543E-13
 -1      3686 1.95848E+01-3.06954E+00 6.46263E-02-4.18743E+00 4.09638E-13-1.71243E-13
 -1      3687 2.55049E+01 1.93400E+00-4.84397E-02-2.04031E+00-4.09686E-13 3.40936E-13
 -1      3688 2.29500E+01-3.83190E+00 2.44608E-04 2.68698E+00 3.42756E-13-1.03935E-13
 -1      3689 2.18827E+01-3.90389E+00 6.82768E-02 3.71825E+00 3.95925E-13-1.62266E-13
 -1      3690 2.00046E+01 8.12135E-03-6.47932E-05-1.25765E-03 6.19807E-14 2.76611E-14
 -1      3691 2.00045E+01 7.53581E-03 3.74562E-06-1.73676E-03-5.58930E-14 1.71747E-13
 -1      3692 2.74868E+01 4.38840E-01-7.17417E-02 1.96642E+00-1.38625E-13-7.71716E-13
 -1      3693 1.51867E+01-1.09185E+00-5.07817E-03 3.98588E+00 2.31298E-13-3.34451E-13
 -1      3694 2.05031E+01-3.28536E+00-1.65997E-03 3.87232E+00 3.57114E-13-2.12535E-13
 -1      3695 1.96565E+01 1.98872E+00-2.84639E-03 2.29055E-01-1.46465E-13-4.21571E-13
 -1      3696 1.96875E+01 1.77363E+00 4.16153E-03 3.83942E-01-1.27617E-13-3.93616E-13
 -1      3697 1.94964E+01 2.14441E+00-2.25223E-03 2.36267E-01-1.11337E-13-4.27471E-13
 -1      3698 1.14597E+01 3.21778E-01 1.26526E-01-2.19044E+00 2.10096E-13 5.53890E-13
 -1      3699 1.25835E+01-2.70339E-02 2.20641E-02-2.80658E+00 2.12559E-13 4.50799E-13
 -1      3700 1.17159E+01 5.86881E-01 3.30244E-02-1.22432E+00 7.42028E-14 4.26048E-13
 -1      3701 1.95266E+01 2.37354E+00 7.70374E-03-3.36357E-02 2.22631E-13-3.82133E-13
 -1      3702 1.74775E+01-1.27909E+00 4.34610E-02-3.69360E+00-2.43175E-13-2.11327E-13
 -1      3703 2.00041E+01 6.54168E-03-2.12202E-05 2.23862E-03-8.07663E-14 1.24537E-14
 -1      3704 1.91072E+01 2.47882E+00-4.75821E-03 3.50606E-02 9.46741E-14-3.98876E-13
 -1      3705 1.90929E+01 2.49496E+00-3.16805E-03 6.80386E-02 4.93565E-14-4.19280E-13
 -1      3706 2.00043E+01 6.02882E-03-1.52137E-05-2.35935E-03-9.45470E-14 2.27818E-14
 -1      3707 2.23764E+01-4.38090E+00 1.22017E-02-3.64160E+00 3.76248E-13-5.47223E-13
 -1      3708 2.36315E+01-4.61343E+00-7.53587E-03-3.14810E+00 3.03368E-13-5.87398E-13
 -1      3709 2.44699E+01-4.28509E+00-1.93774E-02-2.16399E+00 2.25028E-13-7.06862E-13
 -1      3710 2.18470E+01-3.82155E+00 2.88820E-02-3.43618E+00 3.55257E-13-3.99131E-13
 -1      3711 2.00046E+01 9.43905E-03 2.46120E-05 1.23550E-03 1.42642E-14-1.29881E-13
 -1      3712 2.00043E+01 7.33844E-03 4.06825E-06 1.93033E-03 6.73073E-14 1.17564E-13
 -1      3713 2.00044E+01 7.95748E-03-4.91831E-05 1.42202E-03 1.14670E-13 3.67258E-13
 -1      3714 2.00050E+01 1.19251E-02-1.41511E-05-5.28419E-05 7.51217E-14-1.83587E-14
 -1      3715 1.92551E+01 2.35540E+00-4.26570E-03-7.58183E-02 1.59073E-13-4.12223E-13
 -1      3716 1.91629E+01 2.43771E+00-3.72200E-03-4.18052E-02 1.32142E-13-4.19390E-13
 -1      3717 1.91065E+01 2.29077E+00 7.81195E-03-4.28058E-02 9.88928E-14-3.65702E-13
 -1      3718 2.23411E+01-3.35700E+00-1.68789E-02 2.58752E+00 2.74776E-13-1.39947E-13
 -1      3719 2.00048E+01 9.15487E-03-5.31401E-06-1.27502E-03 1.80466E-13 2.21366E-13
 -1      3720 1.91194E+01 2.46695E+00-4.57607E-03 1.37268E-01 2.37152E-14-4.27924E-13
 -1      3721 1.91805E+01 2.41787E+00-3.02863E-03 1.59255E-01-2.25034E-14-4.21866E-13
 -1      3722 1.90822E+01 2.30476E+00 7.15530E-03 1.22728E-01 3.57965E-14-3.86692E-13
 -1      3723 1.82058E+01-1.70056E+00 4.75021E-02 3.74374E+00-5.29166E-13 4.40401E-13
 -1      3724 2.00046E+01 9.63529E-03-4.44351E-05-4.62439E-04 1.45026E-14-1.40165E-13
 -1      3725 2.00047E+01 9.18307E-03-4.66496E-06-8.45390E-04 5.26717E-15-4.55301E-14
 -1      3726 2.00053E+01 1.17366E-02 1.26450E-04-3.63541E-04 8.07328E-15 2.36857E-14
 -1      3727 2.00050E+01 1.33780E-02 1.16599E-04-2.54593E-05-8.43770E-14-1.72561E-13
 -1      3728 2.53225E+01 4.35672E+00-1.06123E-01-9.35728E-01-7.46389E-13 1.42740E-13
 -1      3729 1.95576E+01 9.16680E-01-1.24564E-03 1.09685E+00-6.27345E-14-2.37370E-13
 -1      3730 1.95471E+01 7.36377E-01 3.44259E-03 1.25810E+00-3.84407E-14-2.04367E-13
 -1      3731 1.94728E+01 5.42144E-01-9.38603E-04 1.43944E+00-4.24012E-14-2.07971E-13
 -1      3732 1.95097E+01 3.28550E-01 7.62487E-03 1.60104E+00-1.60668E-14-2.05803E-13
 -1      3733 1.92158E+01 7.85044E-01-8.55418E-04 1.32050E+00-4.30647E-14-1.71613E-13
 -1      3734 1.94662E+01 7.98580E-02 9.45912E-04 1.80666E+00 4.57941E-14-1.98405E-13
 -1      3735 1.95918E+01-2.05012E-01 1.23728E-02 1.96793E+00 8.31685E-14-2.11617E-13
 -1      3736 1.90881E+01 3.50726E-01-4.21630E-03 1.71708E+00 1.47065E-14-1.90832E-13
 -1      3737 1.96330E+01-5.47055E-01 5.63773E-03 2.20450E+00 8.50636E-14-1.80177E-13
 -1      3738 1.99022E+01-9.41286E-01 1.58332E-02 2.35084E+00 1.09881E-13-2.27725E-13
 -1      3739 1.90593E+01-2.30045E-01-1.01915E-02 2.18826E+00 7.41359E-14-1.63106E-13
 -1      3740 2.01123E+01-1.37308E+00 2.43234E-02 2.58912E+00 1.94217E-13-2.39100E-13
 -1      3741 2.05244E+01-1.94939E+00-1.84914E-03 2.70615E+00 2.43658E-13-2.28044E-13
 -1      3742 1.92701E+01-1.07601E+00-2.38934E-02 2.73603E+00 1.28950E-13-1.85563E-13
 -1      3743 2.16739E+01-2.77551E+00 3.51635E-02 2.70252E+00 2.73240E-13-1.80261E-13
 -1      3744 2.03915E+01-1.84313E+00 1.74136E-02-2.54393E+00 1.79950E-13-1.47093E-13
 -1      3745 1.99119E+01-1.33444E+00 1.95782E-02-2.45732E+00 7.91975E-14-1.72741E-13
 -1      3746 1.96779E+01-9.05614E-01 1.57398E-02-2.21771E+00-4.72087E-14-1.73464E-13
 -1      3747 1.93969E+01-5.42308E-01 5.35391E-03-2.07792E+00-1.14452E-13-1.35234E-13
 -1      3748 1.90309E+01-1.02303E+00-2.15305E-02-2.60626E+00 5.03805E-14-1.10915E-13
 -1      3749 1.93399E+01-2.42802E-01 1.22903E-02-1.85322E+00-1.25769E-14-2.60554E-14
 -1      3750 1.91977E+01-6.87141E-03-1.81197E-04-1.70930E+00 5.29717E-14 6.50386E-14
 -1      3751 1.87943E+01-2.62942E-01-1.09499E-02-2.07914E+00 5.51920E-14 1.50334E-13
 -1      3752 1.92277E+01 1.82979E-01 8.51319E-03-1.52294E+00 1.66506E-14 8.01736E-14
 -1      3753 1.91724E+01 3.23240E-01-2.26205E-03-1.39241E+00 7.21518E-14 1.68646E-13
 -1      3754 1.87878E+01 2.12828E-01-4.41317E-03-1.64328E+00 4.51942E-14 1.77152E-13
 -1      3755 1.92414E+01 4.31880E-01 5.62478E-03-1.24260E+00 7.09810E-14 1.26134E-13
 -1      3756 1.92356E+01 5.04003E-01-2.94200E-03-1.12894E+00 1.58939E-13 8.36253E-14
 -1      3757 1.88903E+01 4.87673E-01-1.11113E-03-1.29900E+00 5.89206E-14 1.34004E-13
 -1      3758 1.93188E+01 5.54905E-01 3.69006E-03-1.00881E+00 2.04261E-13-3.49870E-14
 -1      3759 1.93385E+01 5.80348E-01-2.99959E-03-9.11393E-01 1.67986E-13-7.08379E-14
 -1      3760 1.90394E+01 6.24305E-01 6.42336E-04-1.02858E+00 8.57860E-14-3.00109E-15
 -1      3761 1.94223E+01 5.92616E-01 2.42297E-03-8.14732E-01 1.40109E-13-9.56597E-14
 -1      3762 1.94529E+01 5.87977E-01-2.80947E-03-7.31737E-01 2.20755E-13-3.12502E-14
 -1      3763 1.92007E+01 6.67337E-01 1.47203E-03-8.15046E-01 1.66435E-13-2.46233E-15
 -1      3764 1.95303E+01 5.76043E-01 1.62477E-03-6.53466E-01 2.47621E-13-2.86089E-14
 -1      3765 1.95633E+01 5.53479E-01-2.52087E-03-5.83077E-01 1.66800E-13 7.23739E-14
 -1      3766 1.93552E+01 6.50589E-01 1.75407E-03-6.44798E-01 2.26331E-13 4.37957E-14
 -1      3767 1.96310E+01 5.27737E-01 1.13846E-03-5.19439E-01 3.53029E-14 1.49597E-13
 -1      3768 1.96620E+01 4.95816E-01-2.20210E-03-4.60155E-01 6.39422E-14 1.96289E-13
 -1      3769 1.94937E+01 5.98494E-01 1.76055E-03-5.07749E-01 1.49951E-13 1.62699E-13
 -1      3770 1.97191E+01 4.63502E-01 8.38180E-04-4.08446E-01-6.33439E-14 6.57026E-14
 -1      3771 1.97459E+01 4.28060E-01-1.88284E-03-3.58995E-01-1.86268E-13-6.02963E-14
 -1      3772 1.96125E+01 5.28141E-01 1.62316E-03-3.96882E-01-7.71530E-14 1.10005E-13
 -1      3773 1.97926E+01 3.93994E-01 6.45813E-04-3.17174E-01-7.67246E-14-5.64560E-14
 -1      3774 1.98145E+01 3.58808E-01-1.57875E-03-2.76412E-01 4.26181E-14-1.09104E-14
 -1      3775 1.97108E+01 4.51209E-01 1.41743E-03-3.07216E-01-9.24791E-14 2.40756E-14
 -1      3776 1.98517E+01 3.26008E-01 5.15222E-04-2.42847E-01 6.58731E-14-3.47966E-14
 -1      3777 1.98689E+01 2.93343E-01-1.29925E-03-2.09690E-01-3.84462E-14 8.83974E-14
 -1      3778 1.97899E+01 3.75301E-01 1.18932E-03-2.35011E-01 5.24463E-14-5.66347E-14
 -1      3779 1.98978E+01 2.63531E-01 4.20056E-04-1.83020E-01-1.41028E-13 1.17927E-13
 -1      3780 1.99108E+01 2.34577E-01-1.04991E-03-1.56428E-01-1.58779E-14 2.11282E-13
 -1      3781 1.98519E+01 3.04998E-01 9.66260E-04-1.77303E-01 8.45670E-14 1.18853E-13
 -1      3782 1.99327E+01 2.08577E-01 3.45818E-04-1.35482E-01 2.10737E-14 3.25889E-13
 -1      3783 1.99421E+01 1.83796E-01-8.33283E-04-1.14468E-01 1.03045E-14 4.00184E-13
 -1      3784 1.98993E+01 2.42719E-01 7.63418E-04-1.31629E-01 1.96591E-14 3.73519E-13
 -1      3785 1.99583E+01 1.61836E-01 2.84857E-04-9.82274E-02-9.35731E-14 2.20186E-13
 -1      3786 1.99649E+01 1.41219E-01-6.49573E-04-8.18745E-02-4.87301E-14 9.00906E-14
 -1      3787 1.99345E+01 1.89394E-01 5.87914E-04-9.58913E-02-8.59863E-14 3.04099E-13
 -1      3788 1.99765E+01 1.23155E-01 2.33294E-04-6.94573E-02 4.02853E-14 1.07108E-13
 -1      3789 1.99809E+01 1.06411E-01-4.97239E-04-5.69324E-02 1.38874E-13 4.22871E-14
 -1      3790 1.99601E+01 1.44985E-01 4.41722E-04-6.82841E-02-4.09697E-14 2.16198E-15
 -1      3791 1.99890E+01 9.18875E-02 1.89215E-04-4.75825E-02 2.12193E-13 3.37232E-14
 -1      3792 1.99917E+01 7.85732E-02-3.73621E-04-3.81502E-02 1.57924E-13-9.20319E-14
 -1      3793 1.99780E+01 1.08869E-01 3.23687E-04-4.72543E-02 1.64447E-13-1.22059E-13
 -1      3794 1.99971E+01 6.71300E-02 1.51642E-04-3.12277E-02 5.17130E-14-9.78265E-14
 -1      3795 1.99986E+01 5.67414E-02-2.75340E-04-2.42551E-02 3.37950E-14-1.70529E-13
 -1      3796 1.99901E+01 8.01045E-02 2.30883E-04-3.14803E-02 4.84433E-14-2.01646E-13
 -1      3797 2.00019E+01 4.78853E-02 1.20327E-04-1.92280E-02-1.89564E-14-2.53680E-13
 -1      3798 2.00025E+01 3.99105E-02-2.00411E-04-1.41815E-02 1.24899E-14-2.13512E-13
 -1      3799 1.99977E+01 5.76180E-02 1.59224E-04-1.98533E-02-5.37616E-14-2.50271E-13
 -1      3800 2.00045E+01 3.31709E-02 1.00329E-04-1.06177E-02 1.07287E-13-3.10557E-13
 -1      3801 2.00045E+01 2.71006E-02-1.49161E-04-7.05289E-03 3.67791E-14-2.80042E-13
 -1      3802 2.00022E+01 4.03052E-02 1.02903E-04-1.14528E-02 1.75516E-14-1.33746E-13
 -1      3803 2.00054E+01 2.19965E-02 7.88383E-05-4.61064E-03 3.72757E-14-2.49529E-13
 -1      3804 2.00051E+01 1.74560E-02-5.44698E-05-2.15536E-03 6.05382E-14-1.62109E-13
 -1      3805 2.00044E+01 2.71770E-02 5.40147E-05-5.54038E-03 1.14064E-13-1.39339E-13
 -1      3806 1.76634E+01-9.78234E-01 3.29427E-02 3.35230E+00-3.00050E-13 3.26917E-13
 -1      3807 1.68787E+01-1.22949E+00-5.88897E-03 3.71647E+00-4.06380E-13 2.15113E-13
 -1      3808 1.49417E+01-2.68477E-01 3.41189E-02 3.16533E+00-3.08715E-13 2.76345E-13
 -1      3809 1.75723E+01-4.77303E-01 3.48786E-03 2.98258E+00-2.12399E-13 1.42155E-13
 -1      3810 1.90953E+01 8.56781E-01-5.39216E-03 9.48938E-01-7.11079E-14-4.34834E-14
 -1      3811 1.90028E+01 8.86097E-01 1.33355E-03 1.05066E+00-9.59298E-14 2.24786E-15
 -1      3812 1.73711E+01-2.33714E-01 3.99002E-02-2.99695E+00-1.46902E-13-1.83916E-13
 -1      3813 1.95340E+01 5.47671E-01 9.74706E-03-1.90983E+00-1.05798E-14-1.63061E-13
 -1      3814 1.95170E+01 6.88816E-01-3.52716E-03-1.75196E+00 5.61857E-14-1.47045E-13
 -1      3815 1.89560E+01 6.24306E-01 1.22203E-02-2.00839E+00-1.89041E-14-1.34788E-13
 -1      3816 1.77300E+01 3.06624E-01-7.97373E-03 2.24704E+00-1.81568E-13 1.82147E-13
 -1      3817 1.77625E+01 1.37240E-03 2.64866E-02 2.53179E+00-1.83532E-13 2.23794E-13
 -1      3818 1.93215E+01 7.75955E-01-4.29230E-03 7.76605E-01-8.97161E-14-8.14590E-14
 -1      3819 1.92448E+01 8.21666E-01 6.16046E-04 8.63290E-01-1.21583E-13-3.03505E-15
 -1      3820 1.89720E+01 9.24692E-01 5.23599E-03 8.04312E-01-1.16957E-13-5.65276E-14
 -1      3821 1.95002E+01 6.76637E-01-3.47038E-03 6.30232E-01 9.56647E-15 2.13530E-14
 -1      3822 1.94397E+01 7.28906E-01 4.09698E-04 7.04740E-01-3.58439E-14 4.09383E-14
 -1      3823 1.92281E+01 8.25178E-01 4.20432E-03 6.59559E-01-1.70496E-13-3.45238E-14
 -1      3824 1.96387E+01 5.73390E-01-2.82201E-03 5.05468E-01 8.02454E-14 1.44213E-13
 -1      3825 1.95926E+01 6.25970E-01 3.76478E-04 5.69266E-01 9.55246E-14 1.41840E-13
 -1      3826 1.94290E+01 7.13430E-01 3.32233E-03 5.36602E-01 2.82605E-14 3.29402E-15
 -1      3827 1.97440E+01 4.74820E-01-2.29207E-03 3.99793E-01 1.32426E-13 1.17557E-13
 -1      3828 1.97099E+01 5.24094E-01 4.03984E-04 4.53819E-01 1.16984E-13 1.53850E-13
 -1      3829 1.95845E+01 6.01467E-01 2.58492E-03 4.31444E-01 1.24119E-13 2.80445E-13
 -1      3830 1.98228E+01 3.85538E-01-1.85040E-03 3.11359E-01 9.42289E-14 1.84002E-13
 -1      3831 1.97983E+01 4.29638E-01 4.33426E-04 3.56445E-01 1.18811E-13 5.99611E-14
 -1      3832 1.97031E+01 4.96448E-01 1.98363E-03 3.41973E-01 1.16028E-13 4.04951E-13
 -1      3833 1.98808E+01 3.07578E-01-1.47993E-03 2.38454E-01 1.59182E-13 2.05425E-13
 -1      3834 1.98636E+01 3.45759E-01 4.42496E-04 2.75474E-01 2.04489E-13 2.40453E-13
 -1      3835 1.97925E+01 4.02192E-01 1.50217E-03 2.66769E-01 1.08671E-13 3.81080E-13
 -1      3836 1.99228E+01 2.41376E-01-1.17008E-03 1.79315E-01 4.78055E-14 3.62537E-14
 -1      3837 1.99111E+01 2.73587E-01 4.28070E-04 2.09212E-01 4.86350E-14 7.74606E-14
 -1      3838 1.98587E+01 3.20307E-01 1.12249E-03 2.04533E-01 2.08821E-13 3.79718E-13
 -1      3839 1.99525E+01 1.86420E-01-9.13161E-04 1.32136E-01-1.21587E-13 8.83033E-14
 -1      3840 1.99448E+01 2.13014E-01 3.95030E-04 1.55881E-01-3.68445E-14 6.36174E-14
 -1      3841 1.99071E+01 2.50981E-01 8.27171E-04 1.53893E-01 3.56998E-14 4.44541E-14
 -1      3842 1.99732E+01 1.41684E-01-7.02636E-04 9.51247E-02-1.40758E-13 1.84981E-13
 -1      3843 1.99683E+01 1.63229E-01 3.50374E-04 1.13671E-01-1.40595E-13 5.16952E-14
 -1      3844 1.99417E+01 1.93549E-01 6.00445E-04 1.13398E-01-1.23860E-13 1.05041E-13
 -1      3845 1.99871E+01 1.05904E-01-5.32449E-04 6.65805E-02 1.26816E-13-2.93845E-14
 -1      3846 1.99842E+01 1.23061E-01 3.00556E-04 8.08239E-02 2.76311E-14 1.93927E-13
 -1      3847 1.99660E+01 1.46869E-01 4.28598E-04 8.15764E-02-2.02563E-14-8.23972E-14
 -1      3848 1.99960E+01 7.77536E-02-3.96958E-04 4.49489E-02-4.52442E-15 1.36136E-13
 -1      3849 1.99945E+01 9.11961E-02 2.50555E-04 5.56979E-02 9.44180E-15 2.60111E-14
 -1      3850 1.99824E+01 1.09585E-01 3.00041E-04 5.70072E-02 9.23958E-14 1.12519E-13
 -1      3851 2.00014E+01 5.59437E-02-2.91013E-04 2.88592E-02 8.54602E-14 3.26902E-13
 -1      3852 2.00009E+01 6.63176E-02 2.03758E-04 3.68199E-02 1.13403E-14 2.09828E-13
 -1      3853 1.99932E+01 8.02852E-02 2.05032E-04 3.83774E-02-1.14222E-13 6.16609E-14
 -1      3854 2.00043E+01 3.92843E-02-2.11283E-04 1.71388E-02-6.17209E-14 5.65662E-13
 -1      3855 2.00044E+01 4.71819E-02 1.62358E-04 2.29112E-02 1.44541E-13 5.41834E-13
 -1      3856 1.99999E+01 5.76064E-02 1.35113E-04 2.45224E-02 5.99893E-15 2.73265E-13
 -1      3857 2.00055E+01 2.67195E-02-1.50030E-04 8.78460E-03-2.15223E-13 5.27419E-13
 -1      3858 2.00059E+01 3.26916E-02 1.36303E-04 1.28961E-02-1.48837E-13 4.89733E-13
 -1      3859 2.00036E+01 4.02771E-02 7.55292E-05 1.44521E-02-1.58399E-13 5.91713E-13
 -1      3860 2.00055E+01 1.72750E-02-1.07958E-04 2.95800E-03 1.12223E-13 3.45275E-13
 -1      3861 2.00062E+01 2.18078E-02 1.21121E-04 5.88027E-03-7.52360E-14 5.39615E-13
 -1      3862 2.00052E+01 2.71236E-02-4.82918E-06 7.31387E-03-5.58317E-14 4.42167E-13
 -1      3863 2.00055E+01 1.22149E-02 6.03347E-05 4.78785E-04 2.10909E-13 3.00911E-13
 -1      3864 1.44737E+01 6.58469E-01 2.85688E-02-1.82876E+00-7.80010E-14-3.76789E-13
 -1      3865 1.54636E+01 1.29743E-01-2.74014E-02-2.70164E+00-1.06538E-13-2.93897E-13
 -1      3866 2.04657E+01-2.44573E+00-1.47176E-02 3.12614E+00 2.60797E-13-2.23457E-13
 -1      3867 1.71236E+01 1.75259E-01-5.42273E-03-2.51782E+00-9.48512E-14-1.83853E-13
 -1      3868 2.00053E+01 1.57143E-02-7.48176E-05 1.63143E-03 1.41015E-13 1.88033E-13
 -1      3869 2.68749E+01-2.45466E+00-2.69920E-02 4.20109E-01 1.32878E-13-7.69315E-13
 -1      3870 1.92580E+01 2.35057E+00-3.68119E-03 2.02847E-01-4.26694E-14-4.16332E-13
 -1      3871 1.93763E+01 2.24478E+00-3.35162E-03 2.10201E-01-8.22022E-14-4.20034E-13
 -1      3872 1.93939E+01 2.03869E+00 6.02699E-03 3.31604E-01-7.75075E-14-3.94139E-13
 -1      3873 1.91968E+01 2.20665E+00 6.64452E-03 2.49843E-01-2.84167E-14-3.88840E-13
 -1      3874 1.93999E+01 1.40881E+00-1.88948E-03-8.64797E-01 1.45736E-13-2.42973E-13
 -1      3875 1.95075E+01 1.53324E+00 2.14510E-03-6.88060E-01 1.57278E-13-2.68985E-13
 -1      3876 1.50497E+01 8.92348E-02-2.09841E-02 2.58466E+00 1.41083E-13-3.54512E-13
 -1      3877 1.40954E+01 6.58424E-01 7.93860E-02 1.86812E+00 9.95278E-14-4.29734E-13
 -1      3878 1.95474E+01 2.09776E+00-3.31607E-03-1.76514E-01 2.06238E-13-3.49132E-13
 -1      3879 1.93865E+01 2.24544E+00-3.98794E-03-1.48196E-01 1.74688E-13-3.75796E-13
 -1      3880 1.92947E+01 2.13772E+00 7.61938E-03-2.12318E-01 1.49385E-13-3.73830E-13
 -1      3881 1.96229E+01 1.85204E+00 6.48175E-03-3.62348E-01 1.97431E-13-3.08662E-13
 -1      3882 1.96638E+01 1.56834E+00-1.74319E-03 5.20724E-01-1.14467E-13-3.69819E-13
 -1      3883 1.96717E+01 1.38657E+00 2.92766E-03 6.76352E-01-1.13568E-13-3.49936E-13
 -1      3884 1.94815E+01 1.72971E+00-1.80276E-03 4.95719E-01-7.84366E-14-3.61914E-13
 -1      3885 1.88158E+01 8.96077E-01-6.91124E-03 1.15650E+00-1.35994E-13 6.64421E-15
 -1      3886 1.87126E+01 8.92426E-01 2.75317E-03 1.27932E+00-1.01861E-13-4.20244E-14
 -1      3887 1.86503E+01 9.94000E-01 6.57467E-03 9.79103E-01-7.48536E-14-1.02675E-13
 -1      3888 1.96320E+01 1.23462E+00-8.58163E-04 7.97831E-01-9.22856E-14-3.11639E-13
 -1      3889 1.96050E+01 1.06072E+00 2.50066E-03 9.66178E-01-8.65904E-14-2.66316E-13
 -1      3890 1.93368E+01 1.11820E+00 1.14598E-03 1.00625E+00-3.16982E-14-2.23313E-13
 -1      3891 1.94200E+01 1.39435E+00-2.35609E-03 7.55067E-01-5.79792E-14-3.30589E-13
 -1      3892 1.39814E+01-3.18503E-01 8.95626E-02-3.40725E+00 3.61759E-13 1.94723E-13
 -1      3893 1.54793E+01-8.48905E-01 2.38952E-02-3.64978E+00 3.76067E-13-2.63400E-14
 -1      3894 1.36121E+01 1.21306E-01 1.68585E-02-2.62435E+00 2.28323E-13 2.96575E-13
 -1      3895 2.56805E+01 3.34923E+00-7.95135E-02-1.90283E+00-5.71501E-13 2.78257E-13
 -1      3896 2.00049E+01 1.14795E-02 4.46515E-05 6.36443E-04 1.58078E-13 1.44487E-13
 -1      3897 1.92092E+01 9.14368E-01 8.75120E-03-1.60926E+00 6.74515E-14-1.64746E-13
 -1      3898 2.00046E+01 1.67210E-02-4.97358E-05-3.62344E-04 3.21628E-13 1.51191E-13
 -1      3899 2.00045E+01 1.72393E-02-7.15470E-05-3.75094E-04 2.05650E-13-3.09766E-14
 -1      3900 1.61158E+01 8.93205E-01 3.04343E-02-1.78387E+00-5.96944E-14-3.30055E-13
 -1      3901 1.75664E+01 4.20719E-01-2.74064E-03-2.21291E+00-9.25042E-14-1.74353E-13
 -1      3902 1.76398E+01 6.80195E-01-2.76627E-02-1.93917E+00-6.63595E-14-1.70117E-13
 -1      3903 2.17227E+01-3.00054E+00 1.66369E-02-2.64140E+00 2.21471E-13-2.41475E-13
 -1      3904 2.09481E+01-2.41645E+00 3.68380E-02-2.72431E+00 2.47137E-13-1.98686E-13
 -1      3905 1.96997E+01-2.09487E+00-2.43697E-02-3.14617E+00 2.51923E-13-1.44088E-13
 -1      3906 2.00050E+01 1.55463E-02 7.61691E-06-9.98179E-04 1.30099E-13-8.48465E-15
 -1      3907 1.66461E+01 1.69425E-02 1.15803E-03 2.69983E+00-2.00231E-13 2.50064E-13
 -1      3908 1.82515E+01 1.00418E+00 7.97954E-03 1.20311E+00-3.29400E-15 7.64266E-14
 -1      3909 1.84826E+01 8.57103E-01-9.11552E-03 1.41619E+00-5.63441E-14 2.16862E-14
 -1      3910 1.83825E+01 7.98435E-01 5.91632E-03 1.57132E+00-3.70434E-14 6.76172E-14
 -1      3911 1.80416E+01 5.33548E-01 1.23719E-02 1.97086E+00-1.44452E-13 1.96602E-13
 -1      3912 1.71898E+01 6.31787E-01 2.76270E-03 1.95807E+00-1.60135E-13 3.52816E-13
 -1      3913 1.81065E+01 6.89345E-01-1.05061E-02 1.76301E+00-1.32058E-13 1.16062E-13
 -1      3914 2.00045E+01 1.76399E-02-4.69682E-05 6.53317E-05 7.98113E-14-1.93052E-13
 -1      3915 2.00044E+01 1.75451E-02-8.53957E-05 1.00632E-04-7.02331E-15-2.67766E-13
 -1      3916 2.00044E+01 2.18477E-02 1.00098E-04-4.58708E-04 2.19523E-13-5.46236E-14
 -1      3917 1.43793E+01 9.24336E-01 3.26212E-02-1.24124E+00-6.40993E-14-4.23833E-13
 -1      3918 1.54327E+01 8.84224E-01 2.46524E-02-1.42779E+00-3.90651E-14-3.61433E-13
 -1      3919 1.44148E+01 1.01875E+00-2.38048E-02-4.67173E-01-9.36360E-15-4.45918E-13
 -1      3920 1.31130E+01 9.19645E-01 1.94672E-02 4.35488E-01-1.28661E-13 4.23488E-13
 -1      3921 1.23043E+01 9.09309E-01 8.24046E-02-3.03794E-01-2.07031E-14 4.04975E-13
 -1      3922 1.28129E+01 7.51228E-01 4.72447E-03-1.06064E+00-5.14627E-14 3.80682E-13
 -1      3923 1.94688E+01-2.25760E+00 3.49570E-02 3.68697E+00 2.83569E-13-2.54354E-13
 -1      3924 1.83877E+01-2.33650E+00 8.26619E-03 4.13153E+00 3.06981E-13-2.76015E-13
 -1      3925 1.65776E+01-1.56148E+00 7.90773E-02 4.25265E+00 2.73151E-13-2.89761E-13
 -1      3926 1.43260E+01 8.55408E-01 2.30992E-02 9.96209E-01 5.13513E-14-4.14826E-13
 -1      3927 1.93725E+01-2.71890E+00 2.98891E-02-3.93421E+00 3.71966E-13-1.48229E-13
 -1      3928 2.04096E+01-3.11544E+00-2.39213E-02-3.59387E+00 3.14936E-13-2.36368E-13
 -1      3929 1.90999E+01 1.21000E+00-4.58158E-03-1.19362E+00 1.09747E-13-1.86998E-13
 -1      3930 1.92301E+01 1.30841E+00-5.23044E-03-1.01390E+00 1.26689E-13-2.06432E-13
 -1      3931 1.91007E+01 1.50599E+00 2.48223E-03-8.19959E-01 1.08829E-13-2.36207E-13
 -1      3932 2.00049E+01 1.75418E-02-5.57825E-05 1.46418E-03 1.29020E-13-5.22652E-15
 -1      3933 2.00053E+01 2.39271E-02 1.52086E-04 4.07039E-03 1.31153E-13-8.93782E-14
 -1      3934 2.00047E+01 1.86212E-02-8.71735E-05 1.56352E-03 6.74721E-14-2.27839E-13
 -1      3935 1.89494E+01 2.14486E+00-4.81742E-03 1.06722E-01 4.98003E-14-3.57350E-13
 -1      3936 1.89864E+01 2.11988E+00-2.79283E-03 1.93610E-01 9.04048E-15-3.75931E-13
 -1      3937 1.62249E+01-2.01717E-01 6.32875E-02 2.98738E+00 1.52225E-13-2.89956E-13
 -1      3938 1.59519E+01 2.37053E-01 6.04174E-04 2.32770E+00 1.07933E-13-2.98516E-13
 -1      3939 1.64834E+01-9.95844E-01 2.86733E-02 3.64502E+00 2.25038E-13-2.75396E-13
 -1      3940 1.71118E+01-8.43273E-01-2.25053E-02 3.29704E+00 1.75038E-13-2.23896E-13
 -1      3941 1.81870E+01-2.15856E+00 1.49197E-02-4.03977E+00 4.02310E-13 1.72293E-14
 -1      3942 1.92316E+01-2.10106E+00 3.10902E-02-3.47514E+00 3.05147E-13-8.88612E-14
 -1      3943 1.87348E+01-1.45881E+00 2.49950E-02-3.18358E+00 1.69844E-13-1.35261E-13
 -1      3944 1.71782E+01-1.48171E+00 2.24234E-02-3.81993E+00 3.43987E-13-1.82198E-14
 -1      3945 1.89583E+01 2.14936E+00-2.46588E-03-2.95529E-02 6.63555E-14-3.43847E-13
 -1      3946 1.88735E+01 2.01535E+00 7.52555E-03 3.60736E-02 4.87842E-14-3.27038E-13
 -1      3947 1.90067E+01 2.10162E+00-6.10514E-03-1.22319E-01 1.00021E-13-3.56906E-13
 -1      3948 2.00044E+01 1.87659E-02-5.75920E-05 7.49980E-04-1.06748E-13-3.10134E-13
 -1      3949 2.00045E+01 1.80569E-02-9.94763E-05 7.54529E-04-2.97639E-14-1.18248E-13
 -1      3950 2.00045E+01 2.53841E-02 1.26004E-04 2.57725E-03 1.67884E-13-2.08795E-13
 -1      3951 2.00042E+01 2.34016E-02 4.15085E-05 9.19961E-04 1.55122E-14-2.25964E-13
 -1      3952 2.00048E+01 1.69757E-02-3.73925E-05-1.20211E-03 2.18929E-13 1.21324E-13
 -1      3953 2.00047E+01 2.17239E-02 8.14067E-05-2.08969E-03 1.92911E-13 8.01659E-14
 -1      3954 1.87085E+01 6.65006E-01-6.95945E-03 1.51133E+00-1.44618E-14-2.12729E-13
 -1      3955 1.86735E+01 4.52873E-01 8.92193E-03 1.72376E+00 4.18247E-14-2.07706E-13
 -1      3956 1.84787E+01 1.92080E-01-7.51393E-03 1.99170E+00 8.02995E-14-1.98232E-13
 -1      3957 1.85284E+01-1.09352E-01 1.17944E-02 2.25176E+00 9.24621E-14-1.82589E-13
 -1      3958 1.81089E+01 5.41556E-01 4.99685E-03 1.76865E+00 5.26224E-14-2.35224E-13
 -1      3959 2.18634E+01-3.31474E+00 1.66588E-02-2.85661E+00 2.29106E-13-3.19688E-13
 -1      3960 2.30715E+01-3.67998E+00 4.18103E-02-2.35688E+00 1.54170E-13-4.79770E-13
 -1      3961 1.83051E+01-8.69123E-01 1.86426E-02-2.82670E+00 1.15700E-13-1.07080E-13
 -1      3962 1.81092E+01-4.39862E-01 7.14492E-04-2.51123E+00 1.04054E-13 7.35620E-15
 -1      3963 1.55844E+01 1.76736E-01 4.65274E-02 2.55060E+00-3.18923E-13 2.76771E-13
 -1      3964 1.40036E+01 3.19833E-01 3.13280E-02 2.44318E+00-3.30166E-13 3.53488E-13
 -1      3965 1.82573E+01-1.19051E-01 1.69103E-02-2.16102E+00 5.60722E-14 1.94045E-14
 -1      3966 1.81846E+01 1.34072E-01-7.58264E-03-1.91273E+00 6.01080E-14 5.37241E-14
 -1      3967 1.74530E+01-3.81715E-02-3.93136E-03-2.32975E+00 1.15181E-13 2.71141E-14
 -1      3968 1.83680E+01 3.37918E-01 1.10613E-02-1.65316E+00 2.62605E-14 1.18507E-13
 -1      3969 1.83809E+01 4.80626E-01-7.72275E-03-1.46099E+00 1.65698E-14 1.19055E-13
 -1      3970 1.77850E+01 4.39839E-01 2.71370E-03-1.71291E+00 9.11081E-14-1.04716E-13
 -1      3971 1.85606E+01 5.94846E-01 6.44810E-03-1.27413E+00-2.71387E-14 9.32249E-14
 -1      3972 1.86151E+01 6.66708E-01-6.65914E-03-1.12589E+00 2.67624E-14 6.70525E-14
 -1      3973 1.81331E+01 6.94016E-01 3.81098E-03-1.27200E+00-4.45426E-14 3.98510E-14
 -1      3974 1.87794E+01 7.18557E-01 3.83534E-03-9.87356E-01 9.91218E-14 7.39401E-14
 -1      3975 1.88514E+01 7.40882E-01-5.38466E-03-8.72380E-01 1.54716E-13 8.86887E-14
 -1      3976 1.84589E+01 8.13475E-01 4.01277E-03-9.56951E-01 4.59093E-14 1.51724E-14
 -1      3977 1.89956E+01 7.50700E-01 2.22612E-03-7.69410E-01 1.91893E-13 1.71480E-13
 -1      3978 1.90706E+01 7.41284E-01-4.31745E-03-6.79127E-01 2.41010E-13 1.86368E-13
 -1      3979 1.87530E+01 8.39569E-01 3.94415E-03-7.25670E-01 1.81999E-13 2.23887E-13
 -1      3980 1.91936E+01 7.24733E-01 1.24330E-03-6.01043E-01 2.44262E-13 8.36012E-14
 -1      3981 1.92640E+01 6.96103E-01-3.48851E-03-5.29117E-01 3.01163E-13 1.12901E-13
 -1      3982 1.90080E+01 8.06765E-01 3.51901E-03-5.54788E-01 2.33280E-13 1.24728E-13
 -1      3983 1.93671E+01 6.64130E-01 6.91355E-04-4.68896E-01 2.16987E-13-2.97292E-14
 -1      3984 1.94292E+01 6.25144E-01-2.83795E-03-4.11041E-01 4.52491E-14 9.58332E-14
 -1      3985 1.92242E+01 7.38981E-01 3.05541E-03-4.25352E-01 2.32678E-13 4.38738E-14
 -1      3986 1.95141E+01 5.85561E-01 3.80004E-04-3.64153E-01-4.05709E-14 9.74522E-14
 -1      3987 1.95666E+01 5.42493E-01-2.31178E-03-3.17431E-01-2.85301E-14 8.33000E-14
 -1      3988 1.94042E+01 6.52689E-01 2.60155E-03-3.25834E-01 4.13817E-14 1.08487E-13
 -1      3989 1.96353E+01 5.00686E-01 2.10041E-04-2.80758E-01-3.32770E-14 4.82983E-14
 -1      3990 1.96782E+01 4.57759E-01-1.87636E-03-2.43065E-01-7.06748E-15 1.51767E-13
 -1      3991 1.95512E+01 5.59725E-01 2.17301E-03-2.48609E-01 9.82846E-15 9.78768E-14
 -1      3992 1.97327E+01 4.17233E-01 1.21569E-04-2.14372E-01-3.55119E-14 4.51639E-14
 -1      3993 1.97668E+01 3.77090E-01-1.51166E-03-1.84114E-01 1.22762E-14 2.15747E-14
 -1      3994 1.96690E+01 4.68133E-01 1.78058E-03-1.88406E-01-9.46522E-14 2.55643E-13
 -1      3995 1.98093E+01 3.39940E-01 7.82930E-05-1.61735E-01 1.02189E-13 1.99858E-14
 -1      3996 1.98357E+01 3.04050E-01-1.20544E-03-1.37636E-01 7.53206E-14 5.34586E-14
 -1      3997 1.97616E+01 3.82974E-01 1.43135E-03-1.41450E-01 8.48270E-14 4.29151E-14
 -1      3998 1.98682E+01 2.71349E-01 5.86781E-05-1.20285E-01 5.17481E-14 8.58671E-14
 -1      3999 1.98880E+01 2.40349E-01-9.49564E-04-1.01283E-01 5.51706E-14 1.31285E-13
 -1      4000 1.98330E+01 3.07053E-01 1.12879E-03-1.04931E-01 8.90179E-14-5.86728E-14
 -1      4001 1.99123E+01 2.12467E-01 5.03795E-05-8.79418E-02-1.65261E-13 2.30481E-14
 -1      4002 1.99269E+01 1.86433E-01-7.37816E-04-7.31313E-02-1.88247E-13-2.02699E-14
 -1      4003 1.98868E+01 2.41559E-01 8.73190E-04-7.66908E-02-7.13254E-14-2.98677E-13
 -1      4004 1.99446E+01 1.63279E-01 4.66774E-05-6.29770E-02-1.03180E-13-3.30478E-14
 -1      4005 1.99550E+01 1.41934E-01-5.64776E-04-5.15821E-02-3.49357E-14-6.68194E-14
 -1      4006 1.99266E+01 1.86572E-01 6.62319E-04-5.50269E-02-2.04400E-13-2.50350E-13
 -1      4007 1.99676E+01 1.23140E-01 4.42186E-05-4.39453E-02 8.73491E-14-1.09250E-13
 -1      4008 1.99747E+01 1.06007E-01-4.25373E-04-3.53023E-02 1.72456E-13-1.97980E-13
 -1      4009 1.99551E+01 1.41475E-01 4.92220E-04-3.85729E-02-1.28044E-14-1.53206E-13
 -1      4010 1.99834E+01 9.10593E-02 4.16204E-05-2.96375E-02 1.47043E-13-1.95029E-13
 -1      4011 1.99880E+01 7.75668E-02-3.14932E-04-2.31851E-02 6.97876E-14-1.06789E-13
 -1      4012 1.99751E+01 1.05250E-01 3.57817E-04-2.62231E-02 1.88513E-13-1.82552E-13
 -1      4013 1.99937E+01 6.58943E-02 3.90483E-05-1.90506E-02 2.79741E-14-1.04809E-13
 -1      4014 1.99965E+01 5.54405E-02-2.31663E-04-1.43179E-02-7.50859E-14-1.60584E-13
 -1      4015 1.99884E+01 7.66901E-02 2.52562E-04-1.70827E-02 1.79102E-14-2.35509E-14
 -1      4016 2.00000E+01 4.65214E-02 4.96058E-05-1.13695E-02-5.39455E-14-1.40031E-14
 -1      4017 2.00014E+01 3.85091E-02-1.83497E-04-7.94224E-03 3.90801E-14-5.29268E-14
 -1      4018 1.99969E+01 5.45180E-02 1.57769E-04-1.04510E-02-2.48801E-14 1.52473E-13
 -1      4019 2.00033E+01 3.25429E-02 7.39910E-05-5.78262E-03 1.60248E-13-6.90644E-15
 -1      4020 2.00038E+01 2.63669E-02-1.20500E-04-3.44431E-03 1.92044E-13 1.09868E-13
 -1      4021 2.00037E+01 2.63504E-02-7.78048E-06-2.12032E-03 2.62897E-13 1.16235E-13
 -1      4022 2.00014E+01 3.82881E-02 5.36754E-05-5.47133E-03 1.64065E-13 8.99693E-14
 -1      4023 1.93662E+01 7.17392E-01-3.12425E-03 4.22397E-01-1.98692E-14 6.59977E-14
 -1      4024 1.92779E+01 7.77291E-01-9.24353E-04 4.73605E-01-9.41299E-14-1.23838E-13
 -1      4025 1.80768E+01 8.52132E-01-4.71984E-03-1.72093E+00-4.29928E-14-1.65212E-13
 -1      4026 1.82311E+01 1.00370E+00-1.48845E-02-1.51230E+00 3.46403E-15-1.76658E-13
 -1      4027 1.71461E+01 1.18794E+00 3.03511E-02-1.31814E+00-2.23790E-14-2.60580E-13
 -1      4028 1.57625E+01 5.38915E-01-4.95617E-03 2.08498E+00-2.78512E-13 3.57468E-13
 -1      4029 1.88659E+01 9.46103E-01-5.10429E-03 6.24873E-01-2.28134E-13 5.03112E-14
 -1      4030 1.87226E+01 9.96144E-01-1.31821E-03 6.94192E-01-1.02425E-13 5.24981E-14
 -1      4031 1.95357E+01 6.02263E-01-2.51394E-03 3.40945E-01 1.83085E-14 2.63874E-13
 -1      4032 1.94681E+01 6.59743E-01-6.41539E-04 3.85236E-01-2.70228E-14 1.07818E-13
 -1      4033 1.93461E+01 7.32118E-01 3.63483E-03 3.25977E-01-8.64053E-14-9.10871E-14
 -1      4034 1.96656E+01 4.95619E-01-2.03339E-03 2.70872E-01 9.50723E-14 2.48439E-13
 -1      4035 1.96145E+01 5.48227E-01-3.97996E-04 3.08749E-01 1.45320E-13 3.47344E-13
 -1      4036 1.95200E+01 6.12513E-01 2.80906E-03 2.65092E-01-1.17946E-14 1.48239E-14
 -1      4037 1.97639E+01 4.00562E-01-1.64019E-03 2.11514E-01 2.57783E-13 1.53044E-13
 -1      4038 1.97260E+01 4.47048E-01-2.11156E-04 2.43392E-01 1.44980E-13 2.45018E-13
 -1      4039 1.96536E+01 5.02830E-01 2.16099E-03 2.11791E-01 2.01028E-13 9.96419E-14
 -1      4040 1.98373E+01 3.18321E-01-1.31246E-03 1.62136E-01 1.27191E-13 2.00932E-13
 -1      4041 1.98096E+01 3.58268E-01-7.94011E-05 1.88490E-01 2.37045E-13 1.57793E-13
 -1      4042 1.97550E+01 4.05609E-01 1.64962E-03 1.66051E-01 2.28986E-13-5.32407E-14
 -1      4043 1.98914E+01 2.48891E-01-1.03841E-03 1.21830E-01 1.34780E-14 8.11835E-14
 -1      4044 1.98715E+01 2.82426E-01 6.26465E-06 1.43222E-01 9.01950E-14 1.84163E-13
 -1      4045 1.98310E+01 3.21782E-01 1.24670E-03 1.27638E-01 1.63383E-13 6.56129E-14
 -1      4046 1.99305E+01 1.91499E-01-8.10651E-04 8.95450E-02-8.94738E-14 8.75087E-14
 -1      4047 1.99165E+01 2.19082E-01 5.66671E-05 1.06596E-01-5.95954E-14 1.50502E-13
 -1      4048 1.98870E+01 2.51175E-01 9.31027E-04 9.60644E-02-1.73698E-14 1.19938E-13
 -1      4049 1.99581E+01 1.44946E-01-6.23502E-04 6.41627E-02 2.52117E-14 7.23776E-14
 -1      4050 1.99486E+01 1.67219E-01 8.18810E-05 7.75100E-02-1.11394E-13 1.02316E-13
 -1      4051 1.99276E+01 1.92915E-01 6.85807E-04 7.06492E-02-4.24926E-14 2.85614E-13
 -1      4052 1.99772E+01 1.07836E-01-4.71791E-04 4.45761E-02-8.19637E-14 3.88134E-13
 -1      4053 1.99709E+01 1.25516E-01 9.02273E-05 5.48367E-02 3.67594E-14 2.80450E-13
 -1      4054 1.99564E+01 1.45733E-01 4.97318E-04 5.06001E-02-1.30631E-13 2.67779E-13
 -1      4055 1.99898E+01 7.87314E-02-3.50829E-04 2.97455E-02-9.88712E-14 2.75604E-13
 -1      4056 1.99859E+01 9.25419E-02 8.81492E-05 3.74874E-02-3.79593E-14 3.55654E-13
 -1      4057 1.99762E+01 1.08179E-01 3.54163E-04 3.50942E-02-5.64836E-14 4.76387E-13
 -1      4058 1.99977E+01 5.62411E-02-2.57662E-04 1.87395E-02-1.53198E-13 4.33323E-13
 -1      4059 1.99955E+01 6.68773E-02 8.08504E-05 2.44639E-02-1.34959E-13 2.08532E-13
 -1      4060 1.99893E+01 7.87664E-02 2.45881E-04 2.33358E-02-9.81145E-14 3.20735E-13
 -1      4061 2.00023E+01 3.91736E-02-1.66067E-04 1.08009E-02-6.04665E-14 3.12206E-13
 -1      4062 2.00012E+01 4.72188E-02 8.30911E-05 1.48975E-02-8.27994E-14 3.85121E-13
 -1      4063 1.99975E+01 5.60463E-02 1.55849E-04 1.46237E-02-1.34328E-13 3.37873E-13
 -1      4064 2.00043E+01 2.80003E-02-7.25593E-05 5.80641E-03 1.00229E-13 8.61056E-14
 -1      4065 2.00040E+01 3.41685E-02 1.06817E-04 8.64065E-03 1.79113E-14 1.53393E-13
 -1      4066 2.00017E+01 4.06433E-02 5.20184E-05 8.82738E-03 1.34501E-13-1.02186E-13
 -1      4067 2.00037E+01 3.01663E-02-4.48452E-05 5.10731E-03 2.42438E-13-1.27976E-13
 -1      4068 1.95379E+01 1.63432E+00-1.66549E-03-5.61622E-01 1.93936E-13-2.74533E-13
 -1      4069 1.93422E+01 1.79948E+00-1.39924E-03-4.83627E-01 1.48358E-13-2.90249E-13
 -1      4070 2.61243E+01-1.44143E+00-9.01218E-02 1.51382E+00 3.65584E-14-5.56589E-13
 -1      4071 1.91470E+01 8.35205E-01-3.94367E-03 5.16240E-01-8.89745E-14-5.69665E-14
 -1      4072 1.90335E+01 8.93391E-01-1.18681E-03 5.75361E-01-1.87335E-13 1.76225E-15
 -1      4073 1.88336E+01 9.79252E-01 6.11462E-03 4.71863E-01-1.56710E-13 4.79624E-14
 -1      4074 1.91216E+01 8.56906E-01 4.70298E-03 3.94555E-01-1.18611E-13-1.79612E-13
 -1      4075 1.37649E+01 7.12491E-01-1.02516E-02 1.52598E+00-1.99670E-13 2.57643E-13
 -1      4076 1.86135E+01-1.50153E+00 1.94368E-02 3.43479E+00 2.10494E-13-2.50316E-13
 -1      4077 1.52118E+01 8.49534E-01-2.95190E-02 1.26175E+00 7.69593E-14-3.54092E-13
 -1      4078 1.46811E+01 1.12375E+00 3.47790E-02 3.64817E-01 3.39536E-14-4.23770E-13
 -1      4079 1.53853E+01 1.16468E+00 1.87453E-02-9.31608E-02 2.35601E-14-3.75228E-13
 -1      4080 1.89620E+01 1.03459E+00-5.76209E-03 1.12538E+00-2.50097E-14-2.50598E-13
 -1      4081 1.88952E+01 8.60928E-01 4.79800E-03 1.30533E+00-3.77108E-14-2.26922E-13
 -1      4082 1.84737E+01 9.37482E-01 1.39486E-03 1.30546E+00-5.14805E-15-2.63025E-13
 -1      4083 1.93374E+01 1.83718E+00-3.17640E-03 4.40341E-01-6.22117E-14-3.58855E-13
 -1      4084 1.93240E+01 1.66296E+00 5.00126E-03 5.74952E-01-4.60779E-14-3.28083E-13
 -1      4085 1.92197E+01 1.93792E+00-2.38926E-03 4.03456E-01-2.89402E-14-3.53047E-13
 -1      4086 1.44935E+01 8.96227E-01 2.17311E-02 1.29197E+00-2.55295E-13 2.76615E-13
 -1      4087 1.37469E+01 9.65338E-01 4.43692E-02 9.51453E-01-1.71826E-13 3.03740E-13
 -1      4088 1.37360E+01 1.00085E+00-1.59271E-02 2.47213E-01-1.17500E-13 3.36850E-13
 -1      4089 1.66461E+01 2.79144E-01-1.40185E-02 2.20523E+00 1.06599E-13-2.69832E-13
 -1      4090 1.58889E+01 7.09397E-01 4.09725E-02 1.78465E+00 9.09372E-14-2.91455E-13
 -1      4091 1.60372E+01 9.20179E-01 6.55268E-03 1.22855E+00 5.58490E-14-3.23850E-13
 -1      4092 1.64780E+01 7.26260E-01 1.94622E-02 1.82659E+00-2.22184E-13 3.26229E-13
 -1      4093 1.54170E+01 8.16942E-01 1.53612E-02 1.66675E+00-2.33809E-13 2.69091E-13
 -1      4094 1.51689E+01 9.85371E-01-1.30433E-02 1.12178E+00-2.17146E-13 2.02598E-13
 -1      4095 1.67453E+01 8.65886E-01-1.33658E-02 1.56821E+00-1.07017E-13 2.98606E-13
 -1      4096 1.82178E+01-8.32637E-01 1.57207E-02 2.94984E+00 1.48805E-13-2.39755E-13
 -1      4097 1.80697E+01-3.62944E-01 4.23926E-03 2.61865E+00 8.95048E-14-2.06537E-13
 -1      4098 1.74665E+01 8.85896E-02 1.07866E-02 2.37183E+00 9.63986E-14-2.49147E-13
 -1      4099 1.98925E+01 1.41966E+00-8.52895E-04-6.11746E-01 2.13411E-13-2.72597E-13
 -1      4100 1.97761E+01 1.54352E+00-4.63992E-03-5.58207E-01 2.07844E-13-2.68434E-13
 -1      4101 1.92049E+01 1.91715E+00-5.35071E-03-3.48247E-01 1.30762E-13-3.35367E-13
 -1      4102 1.90769E+01 2.03122E+00-1.67773E-03-2.58148E-01 1.07140E-13-3.65586E-13
 -1      4103 1.89382E+01 1.93739E+00 5.91154E-03-2.50196E-01 6.96085E-14-3.21535E-13
 -1      4104 1.91305E+01 1.73794E+00 4.79041E-03-5.34413E-01 1.13339E-13-2.91870E-13
 -1      4105 1.85083E+01 1.03488E+00-6.84282E-03 7.53669E-01-1.34893E-14 5.93982E-14
 -1      4106 1.83279E+01 1.06829E+00-1.54567E-03 8.38133E-01-6.85156E-15 8.70766E-14
 -1      4107 1.84655E+01 1.08761E+00 8.08716E-03 5.61705E-01-5.64700E-14 1.18176E-13
 -1      4108 1.86304E+01 1.05596E+00-9.60668E-03-1.44736E+00 4.46810E-14-1.60412E-13
 -1      4109 1.87945E+01 1.17025E+00-8.59099E-03-1.26174E+00 8.77589E-14-1.72104E-13
 -1      4110 1.86524E+01 1.36682E+00 5.99405E-03-1.01529E+00 8.14719E-14-1.98169E-13
 -1      4111 1.79803E+01 1.32868E+00 2.52826E-02-1.11915E+00 3.42346E-14-1.96973E-13
 -1      4112 1.58956E+01 1.03336E+00-2.84312E-02-1.21577E+00-4.10585E-14-3.57922E-13
 -1      4113 1.91019E+01 1.61984E+00-2.60369E-03 6.18682E-01-5.11830E-15-3.03043E-13
 -1      4114 1.92455E+01 1.51422E+00-2.41450E-03 6.78061E-01-3.37043E-14-3.09666E-13
 -1      4115 1.91995E+01 1.37598E+00-3.67141E-04 7.99722E-01-1.74320E-14-2.89095E-13
 -1      4116 1.35351E+01 6.68404E-01 7.04142E-02-1.82823E+00 1.11782E-13 3.45470E-13
 -1      4117 1.44323E+01 2.11691E-01-1.86933E-02-2.42464E+00 2.29014E-13 6.66637E-14
 -1      4118 1.37520E+01 8.69851E-01 1.22133E-02-1.01428E+00-2.95649E-14 2.48048E-13
 -1      4119 1.71911E+01 4.83658E-01-1.42376E-02 1.90750E+00 7.58809E-14-2.63524E-13
 -1      4120 1.76074E+01-9.33119E-01-1.36429E-02-3.12880E+00 1.39328E-13 1.19653E-14
 -1      4121 1.61852E+01-8.66993E-01 1.21327E-02-3.56003E+00 3.08784E-13-2.41508E-14
 -1      4122 1.71483E+01-8.99983E-01 1.99853E-02-3.27371E+00 2.37042E-13 9.37098E-15
 -1      4123 1.67883E+01-2.88857E-01 1.99805E-02-2.80673E+00 1.04440E-13 8.09162E-15
 -1      4124 1.55622E+01-2.19392E-01 4.14882E-02-3.04332E+00 2.75052E-13-8.66399E-14
 -1      4125 2.00027E+01 3.28289E-02 1.35633E-04-2.13007E-03 2.01655E-13 3.20949E-14
 -1      4126 2.00033E+01 2.70232E-02-6.69549E-05-9.75026E-04 1.78250E-13 8.01301E-14
 -1      4127 2.00033E+01 2.75493E-02-1.85918E-06-1.53293E-04 9.83579E-14-1.00441E-13
 -1      4128 1.80548E+01 1.07969E+00-9.34447E-03 9.12503E-01 3.41665E-15 2.22001E-13
 -1      4129 1.78294E+01 1.07977E+00-2.94788E-03 1.01847E+00 6.90901E-14 2.47907E-13
 -1      4130 1.80071E+01 1.16805E+00 1.52895E-02 6.75641E-01 6.89373E-14 3.42191E-13
 -1      4131 1.77649E+01 9.08117E-01 7.39483E-03 1.50655E+00-4.44525E-14 7.95167E-14
 -1      4132 1.89310E+01 1.61898E+00-3.16292E-03-6.38088E-01 1.01898E-13-2.42873E-13
 -1      4133 1.88159E+01 1.74277E+00 3.14153E-03-4.88106E-01 6.30319E-14-2.72225E-13
 -1      4134 1.87694E+01 1.52278E+00 2.65275E-03-7.75546E-01 9.12108E-14-2.34717E-13
 -1      4135 1.86913E+01 1.88329E+00-6.24098E-03-3.40364E-02 3.28941E-14-3.06839E-13
 -1      4136 1.86982E+01 1.89019E+00 6.97424E-05 1.22362E-01 2.45797E-14-3.33970E-13
 -1      4137 1.86029E+01 1.74922E+00 7.22881E-03 2.60763E-01 3.93523E-15-3.11352E-13
 -1      4138 1.87602E+01 1.82711E+00-5.13571E-03 3.12992E-01 2.06740E-14-3.47301E-13
 -1      4139 1.90439E+01 2.07306E+00-3.53565E-03 2.80461E-01-7.33239E-16-3.77761E-13
 -1      4140 1.91239E+01 2.00850E+00-3.28522E-03 3.33557E-01-1.63765E-14-3.61749E-13
 -1      4141 1.90805E+01 1.84476E+00 3.90046E-03 4.40909E-01-6.39356E-15-3.32652E-13
 -1      4142 1.89307E+01 1.96228E+00 5.89497E-03 2.74576E-01 2.13247E-14-3.50497E-13
 -1      4143 1.88367E+01 1.78702E+00 2.01183E-04 4.12040E-01 9.77934E-15-3.34903E-13
 -1      4144 1.91516E+01 1.24051E+00 1.14684E-03 9.23584E-01-2.56587E-15-2.59923E-13
 -1      4145 1.88520E+01 1.30534E+00 3.78511E-03 9.01680E-01-2.70687E-15-3.13305E-13
 -1      4146 1.89264E+01 1.71959E+00-5.25687E-04 4.98791E-01-1.05816E-14-3.12295E-13
 -1      4147 1.88409E+01 1.59298E+00 1.07701E-04 6.00142E-01 1.00430E-15-3.08188E-13
 -1      4148 1.66702E+01 1.79368E-01 1.21476E-02-2.24999E+00 1.69559E-14 3.87875E-14
 -1      4149 1.68231E+01 4.28791E-01-1.37055E-02-1.90074E+00 5.67190E-14-7.12462E-14
 -1      4150 1.84481E+01 1.07074E+00-6.06710E-03 3.50808E-01 4.27241E-15-5.98313E-14
 -1      4151 1.82358E+01 1.11922E+00-5.43959E-03 3.84484E-01 1.59918E-13 1.04886E-13
 -1      4152 1.72519E+01 5.97195E-01 1.00748E-02-1.59890E+00 9.97659E-14-8.27685E-14
 -1      4153 1.74078E+01 7.15929E-01-1.49541E-02-1.35618E+00 3.57842E-14-1.10663E-13
 -1      4154 1.65496E+01 7.85648E-01 1.92306E-02-1.49612E+00 4.14974E-14-7.57597E-15
 -1      4155 1.77467E+01 8.11190E-01 4.79931E-03-1.16059E+00-3.64856E-15-1.70968E-13
 -1      4156 1.78936E+01 8.63666E-01-1.55929E-02-9.93996E-01-1.49754E-14-5.08703E-14
 -1      4157 1.72817E+01 9.55163E-01 1.58694E-02-1.03825E+00 3.61320E-14-2.35716E-13
 -1      4158 1.81720E+01 9.11171E-01 2.95593E-03-8.45678E-01 4.56365E-14-5.51556E-14
 -1      4159 1.83171E+01 9.18007E-01-9.56574E-03-7.25426E-01 7.33649E-14 5.78926E-14
 -1      4160 1.78311E+01 1.05054E+00 1.69441E-02-7.24544E-01 5.20775E-14-2.11571E-13
 -1      4161 1.85348E+01 9.18260E-01 5.59653E-04-6.27426E-01 5.51678E-14-3.93468E-15
 -1      4162 1.86665E+01 8.98133E-01-7.03835E-03-5.40398E-01 1.66636E-13-2.55815E-14
 -1      4163 1.83012E+01 1.03283E+00 1.59021E-02-5.18482E-01 5.89450E-14-4.81592E-14
 -1      4164 1.88411E+01 8.74834E-01 6.74598E-05-4.69636E-01 1.35111E-13 2.20141E-14
 -1      4165 1.89550E+01 8.37060E-01-5.19265E-03-4.04681E-01 1.80374E-13-2.84952E-14
 -1      4166 1.86678E+01 9.72408E-01 1.24037E-02-3.74319E-01 1.23767E-13-1.38284E-13
 -1      4167 1.90957E+01 7.98251E-01-2.90605E-04-3.53296E-01 2.02119E-13-5.38249E-15
 -1      4168 1.91922E+01 7.50889E-01-3.90822E-03-3.03795E-01 1.48437E-13-7.33674E-14
 -1      4169 1.89655E+01 8.82326E-01 9.55351E-03-2.70783E-01 1.34507E-13-1.17841E-13
 -1      4170 1.93051E+01 7.04177E-01-4.73470E-04-2.66262E-01 9.11643E-14-4.93281E-14
 -1      4171 1.93853E+01 6.53170E-01-2.97348E-03-2.28020E-01 4.91274E-14 2.28725E-14
 -1      4172 1.92069E+01 7.76795E-01 7.38758E-03-1.96407E-01 1.53134E-13-2.00223E-13
 -1      4173 1.94752E+01 6.04070E-01-5.35250E-04-2.00460E-01 1.64649E-14 5.71415E-14
 -1      4174 1.95404E+01 5.53603E-01-2.27328E-03-1.70656E-01-3.06527E-14 4.53783E-14
 -1      4175 1.94009E+01 6.66483E-01 5.72732E-03-1.42656E-01 3.42501E-14-1.67736E-13
 -1      4176 1.96112E+01 5.05865E-01-5.23240E-04-1.50347E-01-5.24717E-14 1.36519E-13
 -1      4177 1.96631E+01 4.58666E-01-1.73821E-03-1.27022E-01-1.26319E-13 1.13438E-13
 -1      4178 1.95552E+01 5.58977E-01 4.43190E-03-1.03571E-01-6.27022E-14-6.20800E-14
 -1      4179 1.97181E+01 4.14633E-01-4.70933E-04-1.12034E-01-6.30485E-14-4.42016E-14
 -1      4180 1.97587E+01 3.72282E-01-1.32416E-03-9.37760E-02 6.35376E-14-1.45553E-13
 -1      4181 1.96762E+01 4.59256E-01 3.40903E-03-7.50034E-02-1.70250E-13-1.92778E-13
 -1      4182 1.98007E+01 3.33229E-01-4.00561E-04-8.27207E-02 1.28153E-13-1.27057E-13
 -1      4183 1.98317E+01 2.96450E-01-1.00183E-03-6.84725E-02 1.26426E-13-1.11258E-13
 -1      4184 1.97697E+01 3.70190E-01 2.59801E-03-5.40449E-02 4.22369E-14-3.08908E-13
 -1      4185 1.98633E+01 2.62877E-01-3.26158E-04-6.03393E-02-7.37121E-14-9.88808E-14
 -1      4186 1.98865E+01 2.31792E-01-7.50771E-04-4.92849E-02-1.45916E-13-2.00874E-13
 -1      4187 1.98407E+01 2.93039E-01 1.95647E-03-3.86359E-02 1.62208E-14-9.54349E-14
 -1      4188 1.99098E+01 2.03673E-01-2.55973E-04-4.33298E-02-1.63760E-13-1.35244E-13
 -1      4189 1.99267E+01 1.78009E-01-5.55992E-04-3.48223E-02-1.77498E-13-1.48756E-13
 -1      4190 1.98935E+01 2.27916E-01 1.45254E-03-2.73040E-02-1.26428E-13-1.65171E-13
 -1      4191 1.99434E+01 1.54987E-01-1.94267E-04-3.04925E-02-1.38542E-13-7.68330E-14
 -1      4192 1.99555E+01 1.34237E-01-4.06005E-04-2.40106E-02 9.26442E-14-5.78970E-14
 -1      4193 1.99321E+01 1.74177E-01 1.06073E-03-1.89858E-02-1.20196E-13-1.12758E-13
 -1      4194 1.99672E+01 1.15768E-01-1.42601E-04-2.08924E-02 1.66504E-13-2.04662E-13
 -1      4195 1.99754E+01 9.93053E-02-2.91453E-04-1.60123E-02 1.12672E-13-2.85811E-13
 -1      4196 1.99594E+01 1.30724E-01 7.59505E-04-1.29063E-02 1.57903E-14-2.50651E-13
 -1      4197 1.99833E+01 8.47616E-02-1.00604E-04-1.37919E-02 1.07546E-13-3.61089E-13
 -1      4198 1.99887E+01 7.19211E-02-2.04907E-04-1.01696E-02 7.43782E-15-1.51899E-13
 -1      4199 1.99782E+01 9.62321E-02 5.28165E-04-8.49632E-03 8.61471E-14-5.16304E-13
 -1      4200 1.99938E+01 6.06854E-02-5.47863E-05-8.60123E-03 8.53804E-14 1.17403E-14
 -1      4201 1.99970E+01 5.08169E-02-1.64767E-04-6.01833E-03 1.62168E-13 2.38778E-13
 -1      4202 1.99906E+01 6.92623E-02 3.29399E-04-5.33969E-03 2.09313E-13-2.46664E-13
 -1      4203 1.99995E+01 4.48738E-02 7.97484E-05-4.82139E-03 1.16641E-13 1.69310E-13
 -1      4204 2.00009E+01 3.76512E-02-1.23090E-04-2.79571E-03 1.81791E-13 2.14023E-13
 -1      4205 2.00008E+01 3.86145E-02-2.04483E-05-1.27521E-03-2.84477E-15-2.21776E-14
 -1      4206 1.99974E+01 5.10637E-02 1.79142E-04-2.89201E-03 1.15074E-13 8.54337E-14
 -1      4207 1.66127E+01 1.20836E+00 8.16500E-03-9.36928E-01-1.69140E-14-3.34619E-13
 -1      4208 1.69984E+01 1.28309E+00-2.21066E-02-8.03384E-01 1.72726E-14-2.81789E-13
 -1      4209 1.96455E+01 4.86811E-01-1.88043E-03 1.46645E-01 1.79949E-13-1.69816E-13
 -1      4210 1.95876E+01 5.39786E-01-9.57665E-04 1.67753E-01 1.02112E-13-2.21772E-13
 -1      4211 1.93350E+01 7.11947E-01-2.84575E-03 2.21306E-01-8.51400E-14-1.73259E-13
 -1      4212 1.92355E+01 7.74172E-01-2.02495E-03 2.47045E-01-6.13795E-14-2.51092E-13
 -1      4213 1.82615E+01 1.18591E+00-5.37177E-03 9.96815E-01 2.48780E-14-2.96514E-13
 -1      4214 1.80794E+01 1.02363E+00 1.13794E-03 1.18971E+00 2.51537E-14-2.69687E-13
 -1      4215 1.97484E+01 3.91831E-01-1.52022E-03 1.15476E-01 2.09550E-13-1.44514E-13
 -1      4216 1.97050E+01 4.38312E-01-6.28575E-04 1.33807E-01 2.68271E-13-5.41489E-14
 -1      4217 1.96578E+01 4.85260E-01 4.12781E-03 9.44354E-02 1.34178E-13-3.89879E-13
 -1      4218 1.98258E+01 3.10131E-01-1.21574E-03 8.89157E-02 1.06888E-13-1.16821E-13
 -1      4219 1.97938E+01 3.49871E-01-3.95332E-04 1.04422E-01 1.09145E-13-1.69948E-13
 -1      4220 1.97577E+01 3.89683E-01 3.12335E-03 7.54716E-02 1.26763E-13-2.36919E-13
 -1      4221 1.98832E+01 2.41470E-01-9.59050E-04 6.68863E-02-4.39158E-14 6.31321E-14
 -1      4222 1.98599E+01 2.74690E-01-2.34287E-04 7.96859E-02 4.95972E-14-1.55431E-14
 -1      4223 1.98328E+01 3.07741E-01 2.33916E-03 5.87400E-02-4.11508E-15-2.54311E-13
 -1      4224 1.99248E+01 1.84942E-01-7.44993E-04 4.90593E-02-3.70798E-14 1.38499E-13
 -1      4225 1.99083E+01 2.12158E-01-1.26369E-04 5.93884E-02-3.65895E-14 9.24751E-14
 -1      4226 1.98884E+01 2.39058E-01 1.72947E-03 4.45291E-02-4.29840E-14-1.09299E-13
 -1      4227 1.99544E+01 1.39268E-01-5.69208E-04 3.49605E-02-1.67464E-13 2.86590E-13
 -1      4228 1.99430E+01 1.61158E-01-5.66256E-05 4.31201E-02-1.19730E-13 2.68257E-13
 -1      4229 1.99287E+01 1.82644E-01 1.25920E-03 3.28377E-02-1.26047E-13 7.48624E-15
 -1      4230 1.99748E+01 1.03003E-01-4.27401E-04 2.40522E-02 1.53794E-14 3.26858E-13
 -1      4231 1.99672E+01 1.20308E-01-1.36615E-05 3.03671E-02-3.62562E-14 2.89664E-13
 -1      4232 1.99573E+01 1.37163E-01 9.00238E-04 2.34840E-02-1.21139E-13 1.96565E-14
 -1      4233 1.99884E+01 7.46804E-02-3.11382E-04 1.57931E-02-9.87417E-14 1.71779E-13
 -1      4234 1.99835E+01 8.81404E-02 1.14501E-05 2.05815E-02 1.95728E-14 2.50024E-13
 -1      4235 1.99769E+01 1.01129E-01 6.29210E-04 1.61914E-02 4.53123E-14 8.54306E-14
 -1      4236 1.99969E+01 5.29284E-02-2.08148E-04 9.73579E-03 8.32527E-14-6.63737E-14
 -1      4237 1.99941E+01 6.31888E-02 2.42792E-05 1.32023E-02-3.65380E-14-4.92313E-14
 -1      4238 1.99898E+01 7.30405E-02 4.19052E-04 1.06338E-02 5.93094E-14-1.86239E-13
 -1      4239 1.59884E+01 1.25750E+00 2.44910E-02-6.56584E-01-1.31108E-14-3.54961E-13
 -1      4240 1.83184E+01 1.66907E+00-7.47965E-03 2.15782E-01 3.31628E-14-3.01621E-13
 -1      4241 1.84158E+01 1.62042E+00 2.31308E-03 4.32494E-01 7.75051E-15-2.94733E-13
 -1      4242 1.66349E+01 9.36851E-01-1.50688E-02 1.23536E+00 6.44363E-14-3.08682E-13
 -1      4243 1.62375E+01 1.20907E+00 2.31355E-02 7.27058E-01 4.50707E-14-3.31538E-13
 -1      4244 1.86262E+01 1.40370E+00-3.64833E-03 7.68542E-01 2.93168E-15-3.00942E-13
 -1      4245 1.95104E+01 5.94279E-01-2.31167E-03 1.82152E-01 7.86188E-14-1.98527E-13
 -1      4246 1.94341E+01 6.52812E-01-1.41136E-03 2.05785E-01-2.09470E-14-1.72223E-13
 -1      4247 1.93572E+01 7.13689E-01 7.08127E-03 1.35709E-01-1.22733E-14-3.40637E-13
 -1      4248 1.95268E+01 5.93897E-01 5.41587E-03 1.14928E-01 9.29116E-14-6.43221E-13
 -1      4249 1.76919E+01 6.66427E-01 4.38348E-04 1.65213E+00 7.21173E-14-2.34486E-13
 -1      4250 1.70889E+01 8.66788E-01 1.66564E-02 1.47719E+00 5.97059E-14-2.72240E-13
 -1      4251 1.72015E+01 1.08958E+00 2.26469E-03 1.04920E+00 6.36338E-14-3.05125E-13
 -1      4252 1.78775E+01 8.60142E-01-1.32865E-02 1.38674E+00 3.20373E-14-2.34535E-13
 -1      4253 1.74654E+01 1.06455E+00-1.33650E-02 1.13735E+00 2.23184E-14 2.16299E-13
 -1      4254 1.72253E+01 1.01748E+00 7.33300E-03 1.29744E+00-2.65098E-14 2.87982E-13
 -1      4255 1.73674E+01 1.21295E+00 1.74544E-02 8.27628E-01 3.93921E-14 3.32326E-13
 -1      4256 1.59947E+01 1.22119E+00-2.58172E-02 1.00027E-01 3.40032E-14-3.30275E-13
 -1      4257 1.87466E+01 1.78490E+00-6.47684E-03-3.30299E-01 4.40983E-14-3.05955E-13
 -1      4258 1.87045E+01 1.86705E+00 1.39398E-03-1.82709E-01 2.54286E-14-3.01139E-13
 -1      4259 1.85296E+01 1.77294E+00 5.14332E-03-9.83473E-02 1.16558E-14-2.94717E-13
 -1      4260 1.85826E+01 1.68760E+00 3.64024E-03-4.09398E-01 4.65491E-14-2.68958E-13
 -1      4261 1.44178E+01 1.08140E+00 1.07507E-02 3.72205E-02-6.97478E-14 2.50637E-13
 -1      4262 1.40053E+01 1.08885E+00 4.92640E-02-4.51516E-01-7.18570E-14 1.87658E-13
 -1      4263 1.43375E+01 8.54860E-01-2.80522E-02-1.18599E+00 1.00351E-13 2.46730E-14
 -1      4264 1.58436E+01 1.09803E+00 1.35015E-02 9.35375E-01-1.62395E-13 8.56396E-14
 -1      4265 1.50191E+01 1.15720E+00 1.75172E-02 5.94205E-01-1.28969E-13 1.92681E-13
 -1      4266 1.50338E+01 1.14276E+00-1.26061E-02-4.43407E-02-4.45065E-14 6.93707E-14
 -1      4267 1.80431E+01 1.19873E+00 1.88548E-02 1.72297E-01 1.98058E-13-4.92049E-14
 -1      4268 1.79636E+01 1.16173E+00-9.02285E-03 3.99564E-01 1.72936E-13 1.40408E-13
 -1      4269 1.76661E+01 1.19092E+00-1.41614E-02 4.55212E-01 1.68760E-13 2.40189E-13
 -1      4270 1.84545E+01 1.47163E+00-7.78468E-03-8.25253E-01 5.23432E-14-2.18733E-13
 -1      4271 1.52215E+01 2.13877E-01 1.23847E-02-2.39215E+00 1.46417E-13-1.25724E-14
 -1      4272 1.71102E+01 1.45461E+00 2.62599E-02-4.01537E-01 5.09635E-14-3.11845E-13
 -1      4273 1.74757E+01 1.35869E+00-1.48940E-02-7.34683E-01 2.96189E-14-2.69551E-13
 -1      4274 1.91395E+01 8.41006E-01 9.27004E-03 1.54909E-01-7.32155E-14-3.82521E-13
 -1      4275 1.91092E+01 8.35526E-01-3.54795E-03 2.63043E-01-8.49827E-14-2.82656E-13
 -1      4276 1.89806E+01 8.98399E-01-2.84450E-03 2.90493E-01-7.24164E-14-1.41518E-13
 -1      4277 1.83689E+01 1.35549E+00 3.61482E-03 7.61197E-01 2.48178E-14-2.90356E-13
 -1      4278 1.80014E+01 1.40681E+00-5.13176E-03 6.39202E-01 5.31077E-14-3.04629E-13
 -1      4279 1.66452E+01 1.29432E+00-3.17009E-03 1.99385E-01 3.61393E-14-3.15235E-13
 -1      4280 1.77038E+01 1.12089E+00-1.00337E-02 1.07224E+00 6.21275E-14-2.68033E-13
 -1      4281 1.82670E+01 1.65655E+00-3.93784E-03-1.38435E-01 3.31926E-14-2.95648E-13
 -1      4282 1.82757E+01 1.68507E+00 1.43712E-04 2.14671E-02 2.46420E-14-2.94617E-13
 -1      4283 1.80602E+01 1.57816E+00-1.44217E-03 1.99696E-01 4.39930E-14-3.01784E-13
 -1      4284 1.99997E+01 4.64196E-02 5.16270E-05 8.17834E-03 2.09868E-13-1.96941E-13
 -1      4285 1.99969E+01 5.37886E-02 2.44065E-04 6.72864E-03 2.15513E-13-5.70620E-13
 -1      4286 2.00009E+01 4.03787E-02-9.14598E-05 6.06586E-03 2.69920E-13-3.51649E-13
 -1      4287 2.00033E+01 2.96115E-02-9.72776E-05 3.37654E-03 2.42691E-13-3.56637E-13
 -1      4288 2.00026E+01 3.45489E-02 2.72325E-05 5.04184E-03 1.94782E-13-3.09214E-13
 -1      4289 2.00033E+01 2.92204E-02 3.65488E-05 2.32188E-03 1.35605E-13-3.05607E-13
 -1      4290 2.00031E+01 2.89675E-02-3.56396E-05 7.09198E-04 1.85589E-14-7.17686E-14
 -1      4291 1.88197E+01 9.58259E-01-4.54476E-03 3.06245E-01-1.37702E-13-2.04032E-13
 -1      4292 1.86543E+01 1.01734E+00-3.91970E-03 3.35569E-01-1.17169E-13-1.13661E-13
 -1      4293 1.85065E+01 1.09338E+00 1.60360E-02 1.77710E-01 3.78756E-14-2.09417E-13
 -1      4294 1.88616E+01 9.70185E-01 1.22029E-02 1.69994E-01-8.22204E-14-3.38077E-13
 -1      4295 1.60608E+01 1.81366E-01-1.46933E-02-2.37301E+00 8.26476E-14-1.70038E-14
 -1      4296 1.65478E+01 1.07475E+00 4.97255E-03 1.17531E+00-7.38987E-14 2.25741E-13
 -1      4297 1.79104E+01 1.41227E+00-1.52380E-03-7.48948E-01 4.44696E-14-2.33597E-13
 -1      4298 1.70811E+01 1.35886E+00-1.56573E-02 1.87052E-01 4.58359E-14-3.09906E-13
 -1      4299 1.52980E+01 7.10362E-01 3.85075E-02-1.75001E+00 4.32434E-14 3.53659E-14
 -1      4300 1.80983E+01 1.55800E+00-6.41637E-05-4.90785E-01 4.62276E-14-2.63942E-13
 -1      4301 1.68366E+01 1.04773E+00-6.56160E-03-7.95496E-01-3.49574E-14 1.96248E-14
 -1      4302 1.71310E+01 1.08402E+00-2.34901E-02-6.21007E-01 4.25058E-14-7.31688E-14
 -1      4303 1.75877E+01 1.13335E+00-2.06278E-03-3.30441E-01 1.09962E-13-9.26300E-14
 -1      4304 1.78295E+01 1.11054E+00-1.54975E-02-2.38659E-01 1.19347E-13-6.76678E-14
 -1      4305 1.80992E+01 1.08115E+00-1.06692E-02-2.12134E-01 8.26370E-14-6.06378E-14
 -1      4306 1.83119E+01 1.05421E+00-1.20493E-02-1.42469E-01 9.53724E-14-4.72877E-14
 -1      4307 1.85233E+01 1.00455E+00-9.54831E-03-1.29023E-01 8.42670E-14-1.11484E-13
 -1      4308 1.86978E+01 9.63112E-01-9.09231E-03-7.86927E-02 5.99548E-14-1.29535E-13
 -1      4309 1.88632E+01 9.04834E-01-7.48638E-03-7.38199E-02 3.53211E-15-2.21863E-13
 -1      4310 1.90044E+01 8.54196E-01-6.71626E-03-3.85037E-02 2.24965E-14-3.05525E-13
 -1      4311 1.91339E+01 7.92630E-01-5.84432E-03-3.88799E-02 4.95280E-15-3.22656E-13
 -1      4312 1.92474E+01 7.38375E-01-4.96027E-03-1.41200E-02 5.15133E-14-3.91296E-13
 -1      4313 1.93485E+01 6.77659E-01-4.58463E-03-1.76712E-02 8.57584E-14-5.16949E-13
 -1      4314 1.94390E+01 6.23916E-01-3.66362E-03-2.68479E-04 2.59042E-14-4.26952E-13
 -1      4315 1.95174E+01 5.66932E-01-3.60041E-03-5.50052E-03-5.82093E-15-4.47206E-13
 -1      4316 1.95887E+01 5.16480E-01-2.69782E-03 6.77555E-03-7.59454E-14-4.15248E-13
 -1      4317 1.96489E+01 4.65004E-01-2.81651E-03 9.15925E-04-6.06908E-14-2.03504E-13
 -1      4318 1.97043E+01 4.19508E-01-1.97404E-03 9.61255E-03 1.64590E-14-2.21193E-13
 -1      4319 1.97500E+01 3.74428E-01-2.18575E-03 3.81895E-03 7.50756E-14-1.61110E-13
 -1      4320 1.97924E+01 3.34696E-01-1.43074E-03 1.00082E-02 1.26444E-13-1.72725E-13
 -1      4321 1.98265E+01 2.96237E-01-1.67756E-03 4.69377E-03 4.88789E-14-1.42037E-13
 -1      4322 1.98585E+01 2.62453E-01-1.02397E-03 9.11836E-03-7.07902E-14-1.31966E-13
 -1      4323 1.98835E+01 2.30385E-01-1.27031E-03 4.49124E-03-1.49499E-13-1.08358E-13
 -1      4324 1.99070E+01 2.02316E-01-7.21258E-04 7.66625E-03-1.36302E-13-1.81801E-13
 -1      4325 1.99250E+01 1.76119E-01-9.47058E-04 3.79495E-03-1.36070E-13-1.90459E-13
 -1      4326 1.99420E+01 1.53275E-01-4.97918E-04 6.07844E-03-1.12195E-13-1.72442E-13
 -1      4327 1.99546E+01 1.32273E-01-6.93318E-04 2.94429E-03-1.01468E-13-1.75468E-13
 -1      4328 1.99665E+01 1.14029E-01-3.34335E-04 4.58580E-03-3.54314E-14-1.96299E-13
 -1      4329 1.99750E+01 9.74864E-02-4.94615E-04 2.12346E-03 8.92598E-15-1.75965E-13
 -1      4330 1.99831E+01 8.31670E-02-2.12010E-04 3.30048E-03 1.01174E-13-1.98439E-13
 -1      4331 1.99886E+01 7.03946E-02-3.20427E-04 1.43281E-03 1.99148E-13-3.84528E-13
 -1      4332 1.99937E+01 5.93108E-02-1.24371E-04 2.20708E-03 2.29659E-13-3.79242E-13
 -1      4333 1.73991E+01 1.25455E+00 1.17751E-02 8.43970E-01 6.01003E-14-3.00943E-13
 -1      4334 1.52858E+01 8.45613E-01-6.45903E-03-1.26284E+00 6.91391E-14 3.38523E-14
 -1      4335 1.72041E+01 1.21781E+00-3.01827E-03 2.25077E-01-1.16396E-14 8.18068E-14
 -1      4336 1.68420E+01 1.21449E+00-2.72039E-03 2.55487E-01-4.66138E-14 7.54279E-15
 -1      4337 1.59307E+01 9.17640E-01-4.48083E-03-1.12995E+00 1.24876E-14 5.20073E-14
 -1      4338 1.63491E+01 1.00966E+00-1.77622E-02-8.85521E-01-4.05502E-14 7.28131E-14
 -1      4339 1.64291E+01 1.19353E+00 1.28474E-02-4.61110E-01-7.83143E-14 5.01457E-14
 -1      4340 1.53070E+01 1.15747E+00 2.82548E-02-5.62241E-01 1.65031E-14 1.14755E-13
 -1      4341 1.62979E+01 1.18511E+00-9.26461E-03 6.74313E-01-6.96474E-14 9.92457E-14
 -1      4342 2.00021E+01 3.38962E-02 1.94354E-05 1.26488E-03 3.26969E-14-2.05199E-13
 -1      4343 1.76297E+01 1.41955E+00 1.14710E-03 2.90580E-01 4.67092E-14-3.03947E-13
 -1      4344 1.78029E+01 1.54820E+00 4.11978E-03 5.33548E-02 3.71723E-14-3.03923E-13
 -1      4345 1.99987E+01 4.55731E-02-6.26175E-05 1.60668E-03 1.44173E-13-3.29216E-13
 -1      4346 2.00004E+01 3.98553E-02-6.03147E-05 1.93836E-03 1.16458E-13-3.05621E-13
 -1      4347 1.57460E+01 1.19802E+00 7.63252E-04-3.54123E-02-1.02066E-13-2.40854E-14
 -1      4348 1.73371E+01 1.24451E+00 2.01800E-02-8.24489E-02 5.19562E-14-1.11204E-13
 -1      4349 1.99963E+01 5.19193E-02-1.67651E-04 8.94332E-04 2.83346E-13-4.07855E-13
 -1      4350 2.00010E+01 3.99259E-02 7.48604E-05 4.14150E-03 2.30135E-13-5.00673E-13
 -1      4351 1.62087E+01 1.23432E+00-2.49644E-03-6.55985E-03-1.46301E-13-1.06916E-13
 -1      4352 1.80644E+01 1.60567E+00 8.35171E-04-3.08405E-01 3.62209E-14-2.83822E-13
 -1      4353 1.77911E+01 1.54009E+00 7.59208E-03-1.53045E-01 4.26037E-14-2.92397E-13
 -3
    1PSTEP                         3           1           1          
  100CL  101 1.000000000        4353                     0    1           1
 -4  TOSTRAIN    6    1
 -5  EXX         1    4    1    1
 -5  EYY         1    4    2    2
 -5  EZZ         1    4    3    3
 -5  EXY         1    4    1    2
 -5  EYZ         1    4    2    3
 -5  EZX         1    4    3    1
 -1         1 5.87068E-05 2.63748E-05-3.51157E-05-7.74176E-05-2.09827E-17 2.34929E-17
 -1         2 3.62308E-05-1.10951E-04 2.01870E-05-1.50898E-06-5.79302E-18-3.20073E-19
 -1         3 9.52380E-05-2.85702E-05-2.85724E-05 1.24640E-09-4.23118E-18-4.48522E-18
 -1         4 9.52379E-05-2.85703E-05-2.85724E-05-1.07768E-09 1.52794E-18-5.42175E-19
 -1         5 1.41962E-04-2.10987E-05-4.24781E-05 3.78297E-05-3.10120E-19 2.35320E-17
 -1         6 1.43864E-04 2.58428E-10-4.41169E-05-5.24812E-05-1.26758E-18 2.26602E-17
 -1         7 9.16305E-05-6.25324E-07-3.93195E-05-2.79565E-05-1.75653E-19 4.98320E-18
 -1         8 8.62963E-05 3.23087E-08-3.67515E-05-1.84274E-05-2.81162E-19-6.44913E-19
 -1         9 8.37663E-05 4.74366E-08-3.57140E-05-1.34622E-05-2.41404E-19-3.76295E-18
 -1        10 8.22698E-05 2.69416E-08-3.50850E-05-9.81407E-06-1.66640E-19-5.34236E-18
 -1        11 8.12022E-05 2.11880E-08-3.46524E-05-6.90963E-06-1.25202E-19-6.17748E-18
 -1        12 8.04216E-05 2.03814E-08-3.43433E-05-4.55696E-06-7.56506E-20-6.52124E-18
 -1        13 7.98721E-05 2.28639E-08-3.41290E-05-2.52612E-06-1.96968E-20-6.62026E-18
 -1        14 7.95816E-05 2.50077E-08-3.40173E-05-7.22355E-07 3.57342E-22-6.59326E-18
 -1        15 7.95670E-05 2.55660E-08-3.40130E-05 9.92531E-07 3.82248E-20-6.57398E-18
 -1        16 7.98363E-05 2.42252E-08-3.41190E-05 2.76263E-06 6.85534E-20-6.45156E-18
 -1        17 8.03862E-05 2.08674E-08-3.43341E-05 4.73993E-06 1.08116E-19-6.07588E-18
 -1        18 8.11906E-05 2.04420E-08-3.46519E-05 7.03861E-06 1.42778E-19-5.47238E-18
 -1        19 8.23000E-05 2.57975E-08-3.50999E-05 9.91857E-06 2.28831E-19-4.46349E-18
 -1        20 8.38373E-05 4.90647E-08-3.57450E-05 1.35852E-05 2.76106E-19-2.55243E-18
 -1        21 8.63309E-05 1.05635E-07-3.68094E-05 1.85407E-05 3.38496E-19 9.84965E-19
 -1        22 9.25366E-05-2.05223E-07-3.89989E-05 2.66559E-05 3.82224E-20 8.07780E-18
 -1        23 1.13545E-04-3.83356E-05-3.55860E-05-4.04120E-06-8.75964E-19 1.81253E-17
 -1        24 9.50014E-05-2.83676E-05-2.96329E-05 4.39747E-07-2.34906E-19 1.40969E-17
 -1        25 9.26768E-05-2.79265E-05-2.79900E-05 3.98477E-07-1.27260E-19 1.00302E-17
 -1        26 9.29801E-05-2.79831E-05-2.78895E-05 2.31928E-07 3.36191E-20 7.26651E-18
 -1        27 9.46049E-05-2.84396E-05-2.83680E-05 1.79923E-07-8.44477E-20 5.72782E-18
 -1        28 9.69877E-05-2.91286E-05-2.90936E-05 1.57116E-07-9.12695E-20 4.54031E-18
 -1        29 9.98262E-05-2.99627E-05-2.99467E-05 1.48500E-07 8.93419E-20 3.33800E-18
 -1        30 1.02857E-04-3.08587E-05-3.08462E-05 1.43252E-07 2.28013E-20 2.36663E-18
 -1        31 1.05755E-04-3.17171E-05-3.16939E-05 1.30291E-07-1.51511E-19 9.30955E-19
 -1        32 1.08080E-04-3.24056E-05-3.23568E-05 9.57326E-08-9.23175E-20 2.27491E-19
 -1        33 1.09262E-04-3.27551E-05-3.26682E-05 2.38129E-08 2.95353E-20-8.26574E-19
 -1        34 1.08676E-04-3.25805E-05-3.24544E-05-9.64379E-08-2.15434E-19-1.18086E-18
 -1        35 1.05851E-04-3.17408E-05-3.15995E-05-2.56942E-07 1.57500E-19-2.03371E-18
 -1        36 1.00805E-04-3.02389E-05-3.01375E-05-4.14096E-07 4.23153E-20-7.80726E-19
 -1        37 9.43852E-05-2.83245E-05-2.83310E-05-4.88845E-07-2.35718E-19-4.44904E-19
 -1        38 8.83132E-05-2.65098E-05-2.66599E-05-4.04775E-07 1.90561E-19-1.01553E-18
 -1        39 8.46577E-05-2.54156E-05-2.56698E-05-1.54075E-07-1.06968E-19-8.58647E-19
 -1        40 8.48506E-05-2.54738E-05-2.57261E-05 1.66905E-07 4.19166E-20-2.30351E-18
 -1        41 8.88746E-05-2.66787E-05-2.68256E-05 4.13612E-07 9.42051E-20-4.53310E-18
 -1        42 9.52863E-05-2.85953E-05-2.86000E-05 4.94524E-07 6.81388E-20-5.02259E-18
 -1        43 1.02037E-04-3.06091E-05-3.05084E-05 4.19363E-07-4.12303E-19-4.51053E-18
 -1        44 1.07440E-04-3.22182E-05-3.20806E-05 2.65018E-07 3.80180E-19-3.63719E-18
 -1        45 1.10687E-04-3.31841E-05-3.30641E-05 1.10108E-07 2.47325E-19-2.09066E-18
 -1        46 1.11783E-04-3.35111E-05-3.34323E-05-2.63043E-09-2.43390E-20-2.29662E-18
 -1        47 1.11210E-04-3.33427E-05-3.33042E-05-6.55510E-08 1.59485E-19-8.77099E-19
 -1        48 1.09583E-04-3.28611E-05-3.28514E-05-8.93643E-08-5.29966E-19-6.68517E-19
 -1        49 1.07447E-04-3.22273E-05-3.22335E-05-8.90114E-08 3.38597E-19-1.61614E-18
 -1        50 1.05197E-04-3.15580E-05-3.15708E-05-7.67537E-08-1.01348E-19-3.33405E-18
 -1        51 1.03077E-04-3.09263E-05-3.09401E-05-6.05338E-08-2.96263E-19-4.01772E-18
 -1        52 1.01216E-04-3.03704E-05-3.03824E-05-4.46694E-08-7.33571E-20-2.85242E-18
 -1        53 9.96598E-05-2.99048E-05-2.99141E-05-3.10798E-08-1.16904E-19-2.99528E-18
 -1        54 9.84078E-05-2.95294E-05-2.95360E-05-2.03183E-08 1.66316E-19-1.44502E-18
 -1        55 9.74317E-05-2.92362E-05-2.92406E-05-1.22596E-08-1.53421E-19-2.07097E-18
 -1        56 9.66924E-05-2.90137E-05-2.90163E-05-6.49990E-09 2.30371E-19-2.65027E-18
 -1        57 9.61478E-05-2.88495E-05-2.88508E-05-2.56693E-09 2.92773E-19-2.43069E-18
 -1        58 9.57585E-05-2.87318E-05-2.87323E-05-1.77454E-11 1.64359E-19-3.40586E-18
 -1        59 9.54894E-05-2.86502E-05-2.86502E-05 1.52342E-09-7.70122E-20-1.40774E-18
 -1        60 9.53114E-05-2.85961E-05-2.85957E-05 2.35731E-09-5.45419E-19-1.98337E-18
 -1        61 9.52006E-05-2.85622E-05-2.85617E-05 2.71529E-09 7.41993E-19-1.16919E-18
 -1        62 9.51381E-05-2.85430E-05-2.85424E-05 2.76985E-09 1.15751E-19-2.56932E-18
 -1        63 9.51096E-05-2.85340E-05-2.85334E-05 2.64607E-09-9.34944E-20-4.12020E-18
 -1        64 9.51041E-05-2.85320E-05-2.85315E-05 2.43203E-09-2.33283E-19-3.16068E-18
 -1        65 9.51136E-05-2.85346E-05-2.85342E-05 2.18738E-09-6.84891E-19-1.05680E-18
 -1        66 9.51322E-05-2.85400E-05-2.85397E-05 1.94952E-09 4.74824E-19-2.18013E-18
 -1        67 9.51558E-05-2.85469E-05-2.85467E-05 1.73647E-09 5.91235E-20-1.04120E-18
 -1        68 9.51810E-05-2.85544E-05-2.85541E-05 1.54406E-09 1.01912E-18 1.68714E-18
 -1        69 9.52051E-05-2.85615E-05-2.85612E-05 1.32343E-09-2.79743E-19 1.77828E-18
 -1        70 9.52248E-05-2.85674E-05-2.85669E-05 8.59220E-10 2.39635E-19 3.50427E-19
 -1        71 9.52365E-05-2.85712E-05-2.85704E-05 5.79767E-11-6.82224E-19 1.31442E-18
 -1        72 1.02859E-04-3.07798E-05-3.43727E-05-2.02575E-06 2.80712E-19 2.17401E-17
 -1        73 9.48773E-05-2.82214E-05-2.95779E-05-3.53883E-07 2.37331E-19 1.68849E-17
 -1        74 9.28913E-05-2.78471E-05-2.81054E-05-1.27896E-07 1.04775E-19 1.33471E-17
 -1        75 9.34482E-05-2.80662E-05-2.80734E-05-9.40947E-08 6.09417E-20 1.07160E-17
 -1        76 9.54448E-05-2.86605E-05-2.86511E-05-8.17163E-08 4.25460E-20 8.93350E-18
 -1        77 9.84372E-05-2.95458E-05-2.95585E-05-8.39903E-08 1.41220E-19 7.67084E-18
 -1        78 1.02239E-04-3.06748E-05-3.07063E-05-1.01162E-07-9.70047E-20 7.21470E-18
 -1        79 1.06714E-04-3.20064E-05-3.20466E-05-1.34428E-07 1.43321E-19 6.67934E-18
 -1        80 1.11647E-04-3.34755E-05-3.35063E-05-1.83162E-07-7.66246E-20 5.17413E-18
 -1        81 1.16604E-04-3.49552E-05-3.49420E-05-2.38301E-07 1.47920E-19 4.09765E-18
 -1        82 1.20784E-04-3.62133E-05-3.61016E-05-2.72006E-07 3.58541E-20 3.07233E-18
 -1        83 1.22937E-04-3.68853E-05-3.66149E-05-2.27087E-07 5.10056E-20 2.90490E-18
 -1        84 1.21514E-04-3.65102E-05-3.60696E-05-2.54904E-08 4.05302E-20 2.89151E-18
 -1        85 1.15343E-04-3.47128E-05-3.42279E-05 3.66527E-07-6.52133E-20 1.93891E-18
 -1        86 1.04882E-04-3.15741E-05-3.13392E-05 8.21126E-07 8.37206E-20 7.28978E-19
 -1        87 9.32952E-05-2.80080E-05-2.83048E-05 1.02468E-06-3.42552E-19 2.97309E-19
 -1        88 8.57272E-05-2.55978E-05-2.64062E-05 7.05662E-07 1.17059E-19 2.41669E-20
 -1        89 8.62957E-05-2.57008E-05-2.65798E-05-3.49008E-08 1.46656E-19-3.31609E-18
 -1        90 9.47967E-05-2.83074E-05-2.87621E-05-7.02742E-07-3.17600E-19-5.00856E-18
 -1        91 1.06880E-04-3.20439E-05-3.19457E-05-9.26839E-07-4.56946E-19-4.02478E-18
 -1        92 1.17443E-04-3.52876E-05-3.48680E-05-7.41429E-07-1.29543E-19-2.88351E-18
 -1        93 1.23598E-04-3.71498E-05-3.67012E-05-4.01357E-07 3.26075E-21-2.74235E-18
 -1        94 1.25111E-04-3.75847E-05-3.72675E-05-1.09575E-07 1.56831E-19-5.28489E-18
 -1        95 1.23253E-04-3.70021E-05-3.68411E-05 6.49471E-08-9.55803E-20-3.29940E-18
 -1        96 1.19575E-04-3.58810E-05-3.58346E-05 1.39405E-07 1.94586E-19-9.90764E-19
 -1        97 1.15285E-04-3.45855E-05-3.46023E-05 1.52876E-07-2.05774E-19-1.02104E-18
 -1        98 1.11122E-04-3.33340E-05-3.33767E-05 1.37326E-07 3.58467E-19-1.43914E-18
 -1        99 1.07450E-04-3.22323E-05-3.22800E-05 1.11962E-07-2.48380E-19-4.66658E-18
 -1       100 1.04390E-04-3.13157E-05-3.13588E-05 8.62586E-08-7.87191E-20-1.29173E-18
 -1       101 1.01939E-04-3.05814E-05-3.06169E-05 6.40014E-08-1.06160E-19 4.30088E-19
 -1       102 1.00030E-04-3.00095E-05-3.00372E-05 4.61460E-08 1.03156E-19-1.08940E-18
 -1       103 9.85766E-05-2.95739E-05-2.95948E-05 3.24339E-08-4.06941E-19-5.71027E-19
 -1       104 9.74922E-05-2.92487E-05-2.92642E-05 2.21975E-08 5.81117E-19 1.75583E-18
 -1       105 9.66992E-05-2.90109E-05-2.90221E-05 1.47159E-08 3.13364E-19-1.55647E-18
 -1       106 9.61315E-05-2.88405E-05-2.88485E-05 9.34890E-09-3.98056E-19-3.02215E-18
 -1       107 9.57351E-05-2.87215E-05-2.87271E-05 5.57199E-09 1.30181E-20-2.97354E-18
 -1       108 9.54667E-05-2.86408E-05-2.86446E-05 2.97223E-09 3.12553E-19-4.27611E-18
 -1       109 9.52923E-05-2.85884E-05-2.85909E-05 1.23141E-09 2.06248E-19-2.86383E-18
 -1       110 9.51859E-05-2.85563E-05-2.85579E-05 1.07307E-10 2.51604E-19-3.79317E-18
 -1       111 9.51276E-05-2.85387E-05-2.85397E-05-5.83060E-10 1.78121E-19-5.21324E-18
 -1       112 9.51024E-05-2.85310E-05-2.85316E-05-9.77139E-10-1.28567E-19-5.14277E-18
 -1       113 9.50994E-05-2.85301E-05-2.85303E-05-1.17768E-09 6.36347E-20-4.60314E-18
 -1       114 9.51108E-05-2.85334E-05-2.85335E-05-1.26108E-09-3.42614E-19-6.98809E-18
 -1       115 9.51307E-05-2.85393E-05-2.85393E-05-1.28408E-09 5.62712E-19-8.53658E-18
 -1       116 9.51552E-05-2.85466E-05-2.85465E-05-1.28761E-09-1.77752E-19-1.06605E-17
 -1       117 9.51810E-05-2.85543E-05-2.85541E-05-1.29519E-09 1.09692E-19-9.17203E-18
 -1       118 9.52054E-05-2.85616E-05-2.85613E-05-1.29884E-09 3.53632E-19-9.07264E-18
 -1       119 9.52252E-05-2.85676E-05-2.85670E-05-1.16337E-09-1.12546E-19-1.01384E-17
 -1       120 9.52364E-05-2.85713E-05-2.85705E-05-3.56390E-10 2.24116E-18-1.02153E-17
 -1       121 9.52375E-05-2.85726E-05-2.85704E-05-1.56159E-10-9.33213E-18 1.73433E-18
 -1       122 9.52409E-05-2.85835E-05-2.85670E-05-9.22298E-10-8.60611E-19-1.57891E-19
 -1       123 9.52462E-05-2.86013E-05-2.85620E-05-1.14174E-09 2.34785E-18 8.40314E-19
 -1       124 9.52520E-05-2.86207E-05-2.85564E-05-1.03903E-09 2.24632E-18 3.72137E-19
 -1       125 9.52573E-05-2.86385E-05-2.85512E-05-8.13414E-10 2.36795E-18-1.41398E-18
 -1       126 9.52615E-05-2.86525E-05-2.85470E-05-5.74816E-10-2.25528E-19 1.44949E-18
 -1       127 9.52644E-05-2.86623E-05-2.85441E-05-3.31724E-10 2.66225E-18-1.95870E-19
 -1       128 9.52658E-05-2.86671E-05-2.85426E-05-1.02486E-10-2.64556E-18 7.29078E-19
 -1       129 9.52658E-05-2.86669E-05-2.85427E-05 1.19230E-10-1.29855E-18 9.77583E-19
 -1       130 9.52642E-05-2.86618E-05-2.85442E-05 3.44191E-10-9.70717E-19-8.37110E-19
 -1       131 9.52613E-05-2.86518E-05-2.85472E-05 5.88638E-10-2.39443E-18-3.30512E-19
 -1       132 9.52571E-05-2.86377E-05-2.85514E-05 8.15031E-10-4.90614E-18 2.10767E-18
 -1       133 9.52518E-05-2.86199E-05-2.85566E-05 1.03071E-09-4.08801E-18 1.63939E-21
 -1       134 9.52461E-05-2.86007E-05-2.85622E-05 1.19412E-09-3.37568E-18 1.23256E-18
 -1       135 9.52409E-05-2.85834E-05-2.85671E-05 1.26995E-09-2.56585E-18-8.83296E-19
 -1       136 9.52378E-05-2.85729E-05-2.85704E-05-1.25339E-10-1.49148E-18 7.34867E-19
 -1       137 2.56214E-05-8.77140E-05 1.57171E-05-2.38171E-05 7.28491E-18 2.71170E-18
 -1       138 7.98887E-06-3.70667E-05 4.14598E-06-1.97960E-05 2.16353E-17 1.07768E-17
 -1       139 1.27955E-05 1.32497E-05-1.51093E-05 2.34323E-05 2.67929E-17 2.04160E-17
 -1       140 6.07654E-05 2.53480E-05-3.56845E-05 7.86277E-05 2.21160E-17 2.50667E-17
 -1       141 1.62224E-04-1.08339E-05-5.78996E-05 1.13627E-04 1.24076E-17 2.43298E-17
 -1       142 2.61476E-04-6.52806E-05-7.28542E-05 8.92164E-05 4.87939E-18 1.42187E-17
 -1       143 3.13593E-04-9.69243E-05-7.96412E-05 1.71526E-05 2.58424E-19 1.33085E-18
 -1       144 2.90994E-04-8.22360E-05-7.70093E-05-6.43745E-05 2.18556E-18-1.00418E-17
 -1       145 2.02170E-04-3.13166E-05-6.44192E-05-1.09781E-04 8.97506E-18-1.99675E-17
 -1       146 9.89790E-05 1.52929E-05-4.52775E-05-9.82374E-05 1.72922E-17-2.39710E-17
 -1       147 2.72355E-05 2.42314E-05-2.39063E-05-4.72793E-05 2.30016E-17-2.10619E-17
 -1       148 4.76658E-06-1.63775E-05-1.99278E-06 9.04153E-06 2.10149E-17-1.22007E-17
 -1       149 1.95753E-05-7.27302E-05 1.24255E-05 2.72269E-05 1.57620E-17-4.49843E-18
 -1       150 3.56632E-05-1.09976E-04 1.98567E-05 1.10652E-05 4.32516E-18-7.24557E-19
 -1       151 3.23082E-05-1.02178E-04 1.83742E-05-1.74199E-05-8.61962E-18-1.48100E-18
 -1       152 1.43632E-05-5.71771E-05 9.00079E-06-2.46225E-05-2.00378E-17-7.92378E-18
 -1       153 6.37000E-06-1.60344E-06-7.35834E-06 4.78492E-06-2.54148E-17-1.55839E-17
 -1       154 4.28996E-05 2.73970E-05-3.00124E-05 6.51333E-05-2.23913E-17-2.26543E-17
 -1       155 1.23992E-04 6.07452E-06-5.04378E-05 1.06738E-04-1.58088E-17-2.50434E-17
 -1       156 2.26552E-04-4.52670E-05-6.80164E-05 1.03840E-04-8.28356E-18-2.19479E-17
 -1       157 2.95073E-04-8.72356E-05-7.69693E-05 4.78814E-05-1.95048E-18-1.30075E-17
 -1       158 3.01248E-04-9.11707E-05-7.77738E-05-3.35695E-05-9.87508E-19 2.11546E-18
 -1       159 2.43447E-04-5.58643E-05-7.01856E-05-9.65196E-05-4.49722E-18 1.36508E-17
 -1       160 1.49528E-04-4.83318E-06-5.56268E-05-1.12458E-04-1.17606E-17 2.09141E-17
 -1       161 1.06239E-05 1.51290E-05-1.46812E-05-2.25370E-05-2.73498E-17 1.96279E-17
 -1       162 8.29430E-06-3.50454E-05 3.54680E-06 1.77326E-05-2.23612E-17 1.12213E-17
 -1       163 2.63923E-05-8.86589E-05 1.59093E-05 2.31891E-05-1.30477E-17 2.97769E-18
 -1       164 9.65095E-05-1.30096E-05-3.59751E-05-2.04767E-05-3.18598E-18 1.88242E-18
 -1       165 9.06470E-05-8.84827E-06-3.52103E-05-1.52410E-05-3.04258E-18-1.60118E-18
 -1       166 8.73476E-05-6.56532E-06-3.47270E-05-1.13210E-05-2.49797E-18-3.59383E-18
 -1       167 8.52067E-05-5.20555E-06-3.43646E-05-8.17381E-06-1.87510E-18-4.68776E-18
 -1       168 8.36883E-05-4.29727E-06-3.40878E-05-5.63570E-06-1.29430E-18-5.18041E-18
 -1       169 8.25835E-05-3.66191E-06-3.38777E-05-3.46669E-06-7.70185E-19-5.50260E-18
 -1       170 8.18946E-05-3.27204E-06-3.37448E-05-1.58256E-06-2.48876E-19-5.51283E-18
 -1       171 8.16362E-05-3.12086E-06-3.36973E-05 1.47033E-07 3.18270E-19-5.48988E-18
 -1       172 8.18273E-05-3.21542E-06-3.37400E-05 1.85658E-06 8.23697E-19-5.36769E-18
 -1       173 8.24789E-05-3.56951E-06-3.38721E-05 3.68721E-06 1.29078E-18-5.22145E-18
 -1       174 8.35731E-05-4.19201E-06-3.40832E-05 5.74870E-06 1.82096E-18-4.75900E-18
 -1       175 8.51785E-05-5.15581E-06-3.43746E-05 8.26890E-06 2.44820E-18-4.01802E-18
 -1       176 8.74246E-05-6.59869E-06-3.47498E-05 1.14022E-05 2.96573E-18-2.70958E-18
 -1       177 9.08486E-05-8.98440E-06-3.52414E-05 1.53506E-05 3.33440E-18-3.19411E-19
 -1       178 9.74553E-05-1.42602E-05-3.58520E-05 1.99601E-05 3.07382E-18 3.94479E-18
 -1       179 1.06982E-04-2.66812E-05-3.55824E-05 1.72438E-05 2.22946E-18 9.61192E-18
 -1       180 1.05156E-04-2.79248E-05-3.30946E-05-1.07335E-05-2.71125E-18 5.94659E-18
 -1       181 9.97565E-05-2.90924E-05-3.03153E-05-3.36017E-06-2.39307E-18 4.56888E-18
 -1       182 9.71996E-05-2.87054E-05-2.93040E-05-3.14748E-07-1.72472E-18 3.40675E-18
 -1       183 9.68474E-05-2.88042E-05-2.91244E-05 1.23147E-06-1.17554E-18 2.27898E-18
 -1       184 9.76265E-05-2.91292E-05-2.93368E-05 2.14314E-06-7.43587E-19 1.46808E-18
 -1       185 9.91091E-05-2.96406E-05-2.97640E-05 2.69481E-06-7.30348E-19 1.17176E-18
 -1       186 1.00998E-04-3.02808E-05-3.03059E-05 2.94701E-06-5.97471E-19 7.34005E-19
 -1       187 1.03034E-04-3.09907E-05-3.08794E-05 2.85947E-06-6.74363E-19 4.31870E-19
 -1       188 1.04935E-04-3.16961E-05-3.13962E-05 2.33447E-06-6.48713E-19 4.45056E-19
 -1       189 1.06367E-04-3.22925E-05-3.17577E-05 1.26274E-06-5.24487E-19 2.54742E-19
 -1       190 1.06955E-04-3.26336E-05-3.18640E-05-3.97945E-07-5.63720E-19-5.41200E-19
 -1       191 1.06345E-04-3.25396E-05-3.16402E-05-2.50292E-06-2.36769E-19-6.07429E-19
 -1       192 1.04354E-04-3.18499E-05-3.10764E-05-4.59776E-06 3.75715E-19-2.18515E-19
 -1       193 1.01173E-04-3.05451E-05-3.02654E-05-5.91167E-06-9.43093E-20-6.30808E-19
 -1       194 9.75316E-05-2.88938E-05-2.94075E-05-5.62333E-06-4.23468E-19-5.31182E-20
 -1       195 9.46101E-05-2.74766E-05-2.87609E-05-3.39137E-06-2.47886E-19-7.56040E-19
 -1       196 9.35713E-05-2.69424E-05-2.85446E-05 1.95792E-07-1.03071E-18-1.60321E-18
 -1       197 9.48983E-05-2.75717E-05-2.88440E-05 3.76624E-06-9.55728E-19-2.46250E-18
 -1       198 9.80903E-05-2.90679E-05-2.95724E-05 5.97268E-06-4.14214E-19-2.66612E-18
 -1       199 1.01992E-04-3.07890E-05-3.05117E-05 6.25373E-06 7.03658E-20-3.68646E-18
 -1       200 1.05440E-04-3.21631E-05-3.14071E-05 4.96526E-06 5.23696E-19-2.54495E-18
 -1       201 1.07723E-04-3.29318E-05-3.20622E-05 2.92922E-06 5.79650E-19-2.12127E-18
 -1       202 1.08666E-04-3.31216E-05-3.23878E-05 9.04038E-07 6.66297E-19-1.85525E-18
 -1       203 1.08454E-04-3.28936E-05-3.23946E-05-6.73186E-07 1.23789E-19-1.60205E-18
 -1       204 1.07428E-04-3.24240E-05-3.21536E-05-1.67584E-06-2.67840E-19-1.81153E-18
 -1       205 1.05935E-04-3.18508E-05-3.17560E-05-2.16639E-06-6.66399E-19-1.50383E-18
 -1       206 1.04258E-04-3.12650E-05-3.12850E-05-2.28063E-06-8.96418E-19-1.48336E-18
 -1       207 1.02594E-04-3.07193E-05-3.08032E-05-2.15694E-06-6.53582E-19-1.76052E-18
 -1       208 1.01064E-04-3.02398E-05-3.03516E-05-1.90609E-06 2.61162E-19-1.65942E-18
 -1       209 9.97310E-05-2.98356E-05-2.99526E-05-1.60521E-06-1.89623E-19-1.82002E-18
 -1       210 9.86141E-05-2.95057E-05-2.96150E-05-1.30244E-06-1.55505E-19-1.51306E-18
 -1       211 9.77083E-05-2.92436E-05-2.93392E-05-1.02450E-06-3.54341E-19-2.69122E-18
 -1       212 9.69940E-05-2.90405E-05-2.91204E-05-7.83777E-07 2.24727E-19-1.48224E-18
 -1       213 9.64448E-05-2.88868E-05-2.89512E-05-5.83754E-07 3.74313E-19-1.46577E-18
 -1       214 9.60331E-05-2.87733E-05-2.88238E-05-4.22838E-07-1.74695E-19-2.69693E-18
 -1       215 9.57323E-05-2.86916E-05-2.87302E-05-2.96852E-07 7.32642E-19-2.43605E-18
 -1       216 9.55188E-05-2.86347E-05-2.86635E-05-2.00594E-07-4.32159E-19-2.51449E-18
 -1       217 9.53726E-05-2.85965E-05-2.86174E-05-1.28747E-07 8.97208E-19-1.71076E-19
 -1       218 9.52769E-05-2.85722E-05-2.85871E-05-7.63688E-08-1.02928E-18-8.96345E-19
 -1       219 9.52184E-05-2.85580E-05-2.85683E-05-3.91392E-08-2.65320E-19-1.25879E-19
 -1       220 9.51867E-05-2.85510E-05-2.85578E-05-1.34373E-08-2.58322E-19-4.69698E-19
 -1       221 9.51736E-05-2.85489E-05-2.85532E-05 3.65786E-09 8.09384E-19-9.82031E-19
 -1       222 9.51730E-05-2.85500E-05-2.85525E-05 1.44092E-08 1.40589E-19 5.93894E-19
 -1       223 9.51804E-05-2.85532E-05-2.85544E-05 2.04739E-08 1.85783E-18 9.95377E-19
 -1       224 9.51923E-05-2.85576E-05-2.85577E-05 2.29450E-08 1.68747E-18 1.66498E-18
 -1       225 9.52059E-05-2.85624E-05-2.85615E-05 2.23699E-08 5.46382E-19 1.13241E-18
 -1       226 9.52190E-05-2.85673E-05-2.85650E-05 1.87515E-08-9.05573E-19 1.12067E-18
 -1       227 9.52300E-05-2.85718E-05-2.85678E-05 1.18664E-08-3.23745E-20 1.11949E-18
 -1       228 1.01733E-04-2.92551E-05-3.12326E-05 5.93169E-06 2.34866E-18 8.37300E-18
 -1       229 9.77909E-05-2.87799E-05-2.95423E-05 1.43315E-06 1.75609E-18 6.57916E-18
 -1       230 9.68047E-05-2.87508E-05-2.91191E-05-5.90969E-07 1.31190E-18 5.18328E-18
 -1       231 9.74670E-05-2.90415E-05-2.92972E-05-1.80011E-06 9.19113E-19 4.33052E-18
 -1       232 9.92245E-05-2.96036E-05-2.98237E-05-2.67711E-06 6.85776E-19 3.67355E-18
 -1       233 1.01788E-04-3.03944E-05-3.05916E-05-3.38241E-06 2.21402E-19 3.28839E-18
 -1       234 1.04961E-04-3.13789E-05-3.15350E-05-3.93430E-06 6.32909E-19 2.40332E-18
 -1       235 1.08535E-04-3.25197E-05-3.25819E-05-4.24191E-06 5.60204E-19 2.10821E-18
 -1       236 1.12200E-04-3.37537E-05-3.36249E-05-4.09983E-06 6.68484E-19 1.70080E-18
 -1       237 1.15459E-04-3.49590E-05-3.45017E-05-3.19527E-06 9.40008E-20 1.80148E-18
 -1       238 1.17594E-04-3.59122E-05-3.49976E-05-1.19062E-06 8.56198E-20 2.02782E-18
 -1       239 1.17729E-04-3.62486E-05-3.48959E-05 2.02750E-06 2.47284E-19 1.82874E-18
 -1       240 1.15135E-04-3.55046E-05-3.40971E-05 5.89249E-06 4.35203E-19 1.53554E-18
 -1       241 1.09865E-04-3.34044E-05-3.27610E-05 8.77255E-06 4.45397E-19 1.11385E-18
 -1       242 1.03490E-04-3.04547E-05-3.13438E-05 8.46826E-06 2.05475E-19 1.22511E-18
 -1       243 9.89206E-05-2.80826E-05-3.04445E-05 3.99931E-06 9.25370E-19-3.26310E-19
 -1       244 9.88531E-05-2.79229E-05-3.04789E-05-2.80412E-06 1.75322E-18-1.54405E-18
 -1       245 1.03437E-04-3.01280E-05-3.14458E-05-8.09604E-06 7.06968E-19-2.98424E-18
 -1       246 1.10153E-04-3.32419E-05-3.29385E-05-9.35993E-06-5.27577E-19-3.62827E-18
 -1       247 1.15943E-04-3.56370E-05-3.43795E-05-7.05854E-06-8.63759E-19-3.73389E-18
 -1       248 1.19117E-04-3.66795E-05-3.53086E-05-3.29792E-06-1.21000E-20-3.61694E-18
 -1       249 1.19533E-04-3.65600E-05-3.55572E-05 9.80805E-08 7.08440E-19-3.34054E-18
 -1       250 1.17907E-04-3.57589E-05-3.52152E-05 2.33607E-06-8.66004E-19-3.57679E-18
 -1       251 1.15127E-04-3.46773E-05-3.44899E-05 3.41980E-06-1.16509E-18-3.09650E-18
 -1       252 1.11915E-04-3.35606E-05-3.35892E-05 3.67423E-06-7.86470E-19-7.89201E-19
 -1       253 1.08745E-04-3.25330E-05-3.26669E-05 3.44649E-06 3.94533E-19 3.28237E-19
 -1       254 1.05877E-04-3.16450E-05-3.18149E-05 2.99462E-06 4.62854E-19 6.58693E-19
 -1       255 1.03422E-04-3.09078E-05-3.10765E-05 2.47791E-06-1.63827E-18 6.79045E-19
 -1       256 1.01400E-04-3.03131E-05-3.04636E-05 1.98161E-06-2.60047E-19 3.90995E-19
 -1       257 9.97816E-05-2.98440E-05-2.99707E-05 1.54417E-06-2.14627E-19 1.21747E-18
 -1       258 9.85164E-05-2.94812E-05-2.95839E-05 1.17764E-06-6.08756E-19 2.24827E-18
 -1       259 9.75468E-05-2.92056E-05-2.92867E-05 8.80642E-07 1.00478E-18 5.75685E-19
 -1       260 9.68177E-05-2.89999E-05-2.90627E-05 6.45775E-07 1.80855E-18 2.73553E-19
 -1       261 9.62799E-05-2.88493E-05-2.88971E-05 4.63641E-07 3.04427E-19-1.22441E-18
 -1       262 9.58914E-05-2.87414E-05-2.87772E-05 3.24808E-07 2.83141E-19-2.17480E-18
 -1       263 9.56173E-05-2.86660E-05-2.86923E-05 2.20703E-07 4.76495E-19-2.49813E-18
 -1       264 9.54296E-05-2.86149E-05-2.86340E-05 1.43934E-07-6.95623E-20-1.74353E-18
 -1       265 9.53060E-05-2.85819E-05-2.85954E-05 8.83278E-08 9.42395E-19-3.24349E-18
 -1       266 9.52292E-05-2.85619E-05-2.85712E-05 4.88543E-08-3.72684E-19-5.93350E-19
 -1       267 9.51858E-05-2.85511E-05-2.85574E-05 2.14892E-08 2.03755E-19-4.84856E-19
 -1       268 9.51658E-05-2.85467E-05-2.85508E-05 3.07621E-09-1.43793E-19-9.69495E-19
 -1       269 9.51616E-05-2.85466E-05-2.85491E-05-8.80339E-09 7.92337E-19-8.43489E-21
 -1       270 9.51676E-05-2.85492E-05-2.85506E-05-1.59413E-08 1.93411E-18-1.53573E-18
 -1       271 9.51796E-05-2.85535E-05-2.85540E-05-1.95848E-08 2.57031E-19-3.14583E-18
 -1       272 9.51946E-05-2.85585E-05-2.85583E-05-2.04782E-08-7.66848E-19-4.10592E-18
 -1       273 9.52100E-05-2.85637E-05-2.85627E-05-1.88751E-08 3.83830E-19-2.96482E-18
 -1       274 9.52234E-05-2.85685E-05-2.85664E-05-1.45376E-08 1.12239E-18-3.03061E-18
 -1       275 9.52332E-05-2.85723E-05-2.85690E-05-7.24799E-09-1.46024E-19-2.96954E-18
 -1       276 9.52370E-05-2.85789E-05-2.85677E-05-1.19010E-08-1.16465E-18 4.17111E-18
 -1       277 9.52416E-05-2.85896E-05-2.85652E-05-1.73964E-08 2.65235E-19 1.93205E-18
 -1       278 9.52464E-05-2.86016E-05-2.85621E-05-1.88532E-08 1.70351E-18 3.15433E-19
 -1       279 9.52506E-05-2.86134E-05-2.85588E-05-1.72843E-08 6.16966E-19-9.95605E-19
 -1       280 9.52539E-05-2.86233E-05-2.85560E-05-1.39342E-08 4.97792E-19-1.27180E-18
 -1       281 9.52564E-05-2.86310E-05-2.85537E-05-9.56424E-09 1.13688E-18 7.57584E-19
 -1       282 9.52579E-05-2.86356E-05-2.85523E-05-4.76310E-09 9.44176E-19-2.52187E-18
 -1       283 9.52583E-05-2.86371E-05-2.85519E-05 1.67556E-10 5.14953E-19 1.54582E-18
 -1       284 9.52578E-05-2.86354E-05-2.85524E-05 5.06720E-09 4.79096E-20-3.76165E-19
 -1       285 9.52562E-05-2.86306E-05-2.85538E-05 9.78510E-09-7.57708E-19-2.73905E-19
 -1       286 9.52538E-05-2.86230E-05-2.85561E-05 1.39752E-08-4.32341E-19-2.82975E-19
 -1       287 9.52504E-05-2.86128E-05-2.85590E-05 1.72530E-08-1.42780E-19 9.27618E-19
 -1       288 9.52462E-05-2.86011E-05-2.85622E-05 1.87215E-08-7.84999E-19 1.57697E-18
 -1       289 9.52414E-05-2.85891E-05-2.85653E-05 1.69043E-08-6.79957E-19 1.92020E-18
 -1       290 9.52363E-05-2.85799E-05-2.85671E-05 1.67541E-08-4.11674E-19 4.92686E-20
 -1       291 1.15540E-05-4.22047E-05 1.06307E-05 8.27736E-06 1.24355E-19 7.57724E-18
 -1       292 2.66611E-05-4.31580E-05 4.48309E-06 2.13645E-05 4.45031E-18 9.95968E-18
 -1       293 5.83137E-05-4.03480E-05-9.15749E-06 3.64806E-05 7.03037E-18 9.62997E-18
 -1       294 9.22314E-05-3.27905E-05-2.59273E-05 4.33631E-05 1.05233E-17 9.24939E-18
 -1       295 1.41049E-04-3.50985E-05-4.43771E-05 4.10241E-05 8.57155E-18 7.97291E-18
 -1       296 1.83267E-04-3.46994E-05-6.08953E-05 3.59590E-05 8.54856E-18 5.96396E-18
 -1       297 2.06974E-04-3.56097E-05-6.99486E-05 1.45026E-05 6.64487E-18 1.65013E-18
 -1       298 2.14476E-04-3.72998E-05-7.20820E-05-7.33765E-06 5.84474E-18-1.76649E-18
 -1       299 1.86133E-04-3.20613E-05-6.39151E-05-1.90305E-05 6.80591E-18-3.45293E-18
 -1       300 1.58296E-04-3.75311E-05-5.05369E-05-3.19890E-05 6.88791E-18-4.97568E-18
 -1       301 1.10994E-04-3.13426E-05-3.39099E-05-4.63045E-05 8.59929E-18-8.50019E-18
 -1       302 7.32819E-05-3.99179E-05-1.53846E-05-3.99092E-05 6.18503E-18-7.96613E-18
 -1       303 3.37726E-05-4.19077E-05 8.55100E-07-2.48399E-05 6.52893E-18-7.23346E-18
 -1       304 1.58835E-05-4.69634E-05 1.01306E-05-1.19919E-05 2.84582E-18-6.76366E-18
 -1       305 1.14959E-05-5.04330E-05 1.31328E-05 2.86277E-06-1.02764E-18-6.22845E-18
 -1       306 1.95845E-05-4.48735E-05 7.91112E-06 1.77452E-05-4.55937E-18-7.36569E-18
 -1       307 4.21098E-05-3.92845E-05-3.18611E-06 3.16965E-05-7.19893E-18-8.21069E-18
 -1       308 8.86383E-05-4.20414E-05-2.04636E-05 4.26951E-05-6.61236E-18-7.23260E-18
 -1       309 1.21773E-04-2.92671E-05-3.88846E-05 4.76853E-05-9.20068E-18-1.00183E-17
 -1       310 1.62987E-04-3.40726E-05-5.39613E-05 2.76568E-05-6.38350E-18-6.96134E-18
 -1       311 1.98280E-04-3.45272E-05-6.69922E-05 2.54699E-05-6.91729E-18-8.28589E-18
 -1       312 2.03867E-04-3.21838E-05-7.04634E-05 2.19999E-06-7.08236E-18-3.89296E-18
 -1       313 2.02826E-04-3.54328E-05-6.83210E-05-2.17925E-05-5.96491E-18 5.39772E-19
 -1       314 1.74472E-04-3.19111E-05-5.86336E-05-3.91695E-05-7.37688E-18 4.59494E-18
 -1       315 1.37721E-04-3.64554E-05-4.26513E-05-3.82022E-05-7.26511E-18 4.29869E-18
 -1       316 8.79566E-05-2.94830E-05-2.54068E-05-4.49935E-05-1.00556E-17 7.49074E-18
 -1       317 5.06433E-05-3.52219E-05-8.44090E-06-3.38903E-05-8.65181E-18 9.04483E-18
 -1       318 2.69007E-05-4.18253E-05 4.07857E-06-2.45125E-05-5.47395E-18 7.83760E-18
 -1       319 1.27879E-05-4.90771E-05 1.20882E-05-7.38817E-06-4.66075E-18 4.12971E-18
 -1       320 9.28315E-05-1.46221E-05-3.35955E-05-1.04842E-05-3.15439E-18-1.62708E-18
 -1       321 9.75405E-05-1.97006E-05-3.34188E-05-1.24060E-05-3.43877E-18 4.06609E-19
 -1       322 8.72930E-05-9.41393E-06-3.34278E-05-5.83076E-06-1.89430E-18-3.65277E-18
 -1       323 8.55445E-05-7.94894E-06-3.32972E-05-3.81778E-06-1.25236E-18-4.02696E-18
 -1       324 8.43490E-05-6.98489E-06-3.31927E-05-2.07827E-06-6.07035E-19-4.17431E-18
 -1       325 8.37106E-05-6.47603E-06-3.31346E-05-5.34328E-07 8.18819E-20-4.23488E-18
 -1       326 8.36555E-05-6.42136E-06-3.31342E-05 9.20031E-07 7.41868E-19-4.13151E-18
 -1       327 8.42068E-05-6.84047E-06-3.31932E-05 2.40488E-06 1.32581E-18-4.03499E-18
 -1       328 8.53510E-05-7.74684E-06-3.33003E-05 4.01449E-06 1.90065E-18-3.77169E-18
 -1       329 8.71443E-05-9.23762E-06-3.34389E-05 5.90831E-06 2.61017E-18-3.17302E-18
 -1       330 8.96468E-05-1.14630E-05-3.35711E-05 8.10940E-06 3.17465E-18-2.32538E-18
 -1       331 9.31006E-05-1.47978E-05-3.36361E-05 1.04856E-05 3.50772E-18-8.56185E-19
 -1       332 9.77095E-05-2.00125E-05-3.34013E-05 1.19982E-05 3.56575E-18 1.88804E-18
 -1       333 1.00938E-04-2.51387E-05-3.25655E-05 9.93604E-06 3.09487E-18 4.40208E-18
 -1       334 9.92905E-05-2.75851E-05-3.06974E-05 3.59120E-06 2.56218E-18 3.47829E-18
 -1       335 9.90018E-05-2.66686E-05-3.09533E-05-3.97352E-06-2.64765E-18 8.14923E-19
 -1       336 9.82247E-05-2.77931E-05-3.01579E-05-1.44207E-07-2.01497E-18 5.65217E-19
 -1       337 9.81511E-05-2.84141E-05-2.98712E-05 2.17684E-06-1.40135E-18 3.92966E-19
 -1       338 9.87089E-05-2.89731E-05-2.98790E-05 3.65443E-06-8.81302E-19-1.56388E-19
 -1       339 9.97650E-05-2.96168E-05-3.00610E-05 4.53357E-06-7.05536E-19-1.89758E-19
 -1       340 1.01185E-04-3.04075E-05-3.03348E-05 4.85836E-06-5.88797E-19-1.79971E-19
 -1       341 1.02833E-04-3.13669E-05-3.06347E-05 4.54817E-06-5.29680E-19-7.37564E-20
 -1       342 1.04551E-04-3.24646E-05-3.09051E-05 3.45525E-06-7.60014E-19 2.40018E-19
 -1       343 1.06115E-04-3.35719E-05-3.11047E-05 1.44772E-06-7.23279E-19 1.89190E-19
 -1       344 1.07204E-04-3.44048E-05-3.12157E-05-1.44914E-06-4.94710E-19 6.62861E-19
 -1       345 1.07406E-04-3.45100E-05-3.12532E-05-4.85329E-06 6.73888E-20 3.74961E-19
 -1       346 1.06349E-04-3.34087E-05-3.12639E-05-7.84744E-06 3.37982E-19 3.58371E-19
 -1       347 1.04043E-04-3.09991E-05-3.12990E-05-9.06495E-06-2.89186E-19 5.06679E-19
 -1       348 1.01230E-04-2.79987E-05-3.13717E-05-7.32708E-06-8.92195E-19-2.91642E-19
 -1       349 9.92867E-05-2.58757E-05-3.14450E-05-2.63483E-06-1.18252E-18-8.66856E-19
 -1       350 9.94034E-05-2.59353E-05-3.14716E-05 3.29676E-06-1.49806E-18-9.71400E-19
 -1       351 1.01539E-04-2.81189E-05-3.14542E-05 7.94691E-06-1.31073E-18-1.48458E-18
 -1       352 1.04525E-04-3.11522E-05-3.14403E-05 9.65335E-06-3.96602E-19-2.31755E-18
 -1       353 1.06989E-04-3.35740E-05-3.14678E-05 8.44659E-06 5.33206E-19-2.00859E-18
 -1       354 1.08209E-04-3.46887E-05-3.15210E-05 5.51775E-06 7.70717E-19-2.15998E-18
 -1       355 1.08195E-04-3.46195E-05-3.15478E-05 2.21647E-06 4.96007E-19-1.48184E-18
 -1       356 1.07314E-04-3.38478E-05-3.14997E-05-5.70038E-07 3.46480E-19-1.41286E-18
 -1       357 1.05962E-04-3.28232E-05-3.13559E-05-2.49148E-06-1.01617E-19-2.09998E-18
 -1       358 1.04436E-04-3.18248E-05-3.11253E-05-3.55912E-06-1.67999E-19-2.37378E-18
 -1       359 1.02916E-04-3.09762E-05-3.08341E-05-3.95084E-06-2.26047E-19-1.58423E-18
 -1       360 1.01504E-04-3.03057E-05-3.05136E-05-3.88131E-06-8.81831E-19-1.41275E-18
 -1       361 1.00248E-04-2.97976E-05-3.01914E-05-3.53846E-06-4.49811E-19-2.03189E-18
 -1       362 9.91661E-05-2.94221E-05-2.98879E-05-3.06304E-06-1.36846E-19-1.80196E-18
 -1       363 9.82585E-05-2.91489E-05-2.96157E-05-2.54967E-06-6.63517E-19-2.52455E-18
 -1       364 9.75144E-05-2.89527E-05-2.93810E-05-2.05592E-06-5.13222E-19-2.15172E-18
 -1       365 9.69171E-05-2.88136E-05-2.91849E-05-1.61271E-06 9.66853E-19-1.58748E-18
 -1       366 9.64473E-05-2.87164E-05-2.90255E-05-1.23322E-06-1.49594E-19-2.36118E-18
 -1       367 9.60852E-05-2.86499E-05-2.88992E-05-9.19624E-07 8.78082E-20-1.92776E-18
 -1       368 9.58119E-05-2.86056E-05-2.88014E-05-6.67846E-07 2.94394E-20-1.06139E-18
 -1       369 9.56101E-05-2.85772E-05-2.87273E-05-4.70682E-07 4.37682E-19-1.23191E-18
 -1       370 9.54648E-05-2.85602E-05-2.86726E-05-3.19775E-07 1.53194E-18 1.05434E-18
 -1       371 9.53632E-05-2.85509E-05-2.86333E-05-2.06801E-07 6.27994E-19 3.55204E-19
 -1       372 9.52949E-05-2.85470E-05-2.86058E-05-1.24115E-07 6.73488E-19 3.03559E-18
 -1       373 9.52514E-05-2.85466E-05-2.85875E-05-6.50633E-08-3.89967E-19 2.01669E-18
 -1       374 9.52259E-05-2.85485E-05-2.85758E-05-2.40935E-08-5.31373E-19 2.01390E-18
 -1       375 9.52132E-05-2.85517E-05-2.85691E-05 3.25612E-09 1.03501E-18 1.34357E-18
 -1       376 9.52093E-05-2.85557E-05-2.85657E-05 2.04214E-08 1.92400E-18 2.98344E-18
 -1       377 9.52111E-05-2.85603E-05-2.85646E-05 2.98975E-08 1.57497E-18 1.95972E-18
 -1       378 9.52163E-05-2.85651E-05-2.85648E-05 3.33205E-08-4.70850E-20 1.32672E-18
 -1       379 9.52232E-05-2.85704E-05-2.85655E-05 3.16584E-08-1.74298E-18 5.23767E-19
 -1       380 9.52295E-05-2.85751E-05-2.85662E-05 2.58918E-08-5.65538E-20 9.57942E-19
 -1       381 9.82577E-05-2.82930E-05-2.99436E-05-5.79119E-08 1.92232E-18 2.78586E-18
 -1       382 9.82856E-05-2.86902E-05-2.98007E-05-2.34120E-06 1.37146E-18 2.05153E-18
 -1       383 9.92451E-05-2.91565E-05-3.00235E-05-3.96801E-06 1.02036E-18 1.47698E-18
 -1       384 1.00932E-04-2.97750E-05-3.04877E-05-5.23107E-06 7.15464E-19 1.09171E-18
 -1       385 1.03197E-04-3.05880E-05-3.11150E-05-6.19986E-06 9.35880E-19 7.52111E-19
 -1       386 1.05915E-04-3.16392E-05-3.18347E-05-6.77347E-06 8.04463E-19 7.40819E-19
 -1       387 1.08938E-04-3.29743E-05-3.25654E-05-6.68468E-06 7.34064E-19 9.17539E-19
 -1       388 1.12046E-04-3.45986E-05-3.32090E-05-5.51257E-06 2.49924E-20 1.29059E-18
 -1       389 1.14872E-04-3.63752E-05-3.36644E-05-2.78556E-06-1.64885E-19 1.52046E-18
 -1       390 1.16808E-04-3.78428E-05-3.38663E-05 1.71876E-06 2.70164E-19 1.91317E-18
 -1       391 1.16982E-04-3.80606E-05-3.38412E-05 7.37305E-06 9.04704E-19 2.10645E-18
 -1       392 1.14598E-04-3.59267E-05-3.37366E-05 1.20434E-05 5.63037E-19 1.82064E-18
 -1       393 1.10099E-04-3.15244E-05-3.37030E-05 1.23950E-05 4.10288E-19 1.40527E-18
 -1       394 1.05813E-04-2.70685E-05-3.37826E-05 6.57560E-06 1.63899E-18 8.49584E-19
 -1       395 1.05126E-04-2.61908E-05-3.38579E-05-3.30061E-06 2.73064E-18-5.48513E-19
 -1       396 1.08644E-04-2.96156E-05-3.38863E-05-1.13514E-05 1.81344E-18-1.80408E-18
 -1       397 1.13775E-04-3.45741E-05-3.39472E-05-1.34315E-05-3.94002E-20-3.29538E-18
 -1       398 1.17334E-04-3.77823E-05-3.41070E-05-1.00922E-05-5.83781E-19-4.39256E-18
 -1       399 1.18278E-04-3.84567E-05-3.42380E-05-4.52474E-06-6.93449E-19-3.52759E-18
 -1       400 1.17093E-04-3.74020E-05-3.41848E-05 5.31320E-07 2.11388E-19-1.74437E-18
 -1       401 1.14733E-04-3.57222E-05-3.38865E-05 3.89574E-06-6.02307E-19-1.50486E-18
 -1       402 1.11926E-04-3.40806E-05-3.33776E-05 5.56017E-06-1.90331E-18-1.38111E-18
 -1       403 1.09104E-04-3.27203E-05-3.27422E-05 5.98040E-06-1.58574E-18-4.69647E-19
 -1       404 1.06488E-04-3.16654E-05-3.20668E-05 5.65513E-06-5.93159E-19-1.09563E-19
 -1       405 1.04179E-04-3.08658E-05-3.14164E-05 4.96546E-06 1.95079E-19 9.88971E-19
 -1       406 1.02211E-04-3.02621E-05-3.08301E-05 4.15522E-06-1.45231E-19 7.39318E-19
 -1       407 1.00579E-04-2.98056E-05-3.03258E-05 3.36103E-06 3.75360E-19 6.76850E-19
 -1       408 9.92548E-05-2.94603E-05-2.99067E-05 2.64894E-06-4.50202E-19 1.01318E-18
 -1       409 9.82022E-05-2.92000E-05-2.95679E-05 2.04324E-06 3.80161E-19-1.94651E-19
 -1       410 9.73805E-05-2.90052E-05-2.93000E-05 1.54576E-06 1.18870E-18-7.60929E-19
 -1       411 9.67505E-05-2.88613E-05-2.90924E-05 1.14745E-06 7.87518E-19 5.47847E-20
 -1       412 9.62758E-05-2.87565E-05-2.89345E-05 8.34951E-07 2.18675E-18 1.12743E-18
 -1       413 9.59249E-05-2.86818E-05-2.88166E-05 5.94063E-07 5.93388E-19 6.25696E-19
 -1       414 9.56708E-05-2.86300E-05-2.87304E-05 4.11400E-07 1.22981E-18 3.78661E-19
 -1       415 9.54913E-05-2.85952E-05-2.86688E-05 2.75137E-07-1.02813E-19-1.49809E-18
 -1       416 9.53683E-05-2.85729E-05-2.86258E-05 1.75216E-07 1.10972E-18-1.76362E-18
 -1       417 9.52874E-05-2.85598E-05-2.85970E-05 1.03312E-07-1.82367E-18-9.02899E-19
 -1       418 9.52372E-05-2.85530E-05-2.85786E-05 5.26774E-08 3.64963E-19 3.40534E-19
 -1       419 9.52091E-05-2.85507E-05-2.85676E-05 1.79603E-08-2.67956E-19 1.17819E-18
 -1       420 9.51965E-05-2.85514E-05-2.85620E-05-4.99004E-09 6.29906E-19 1.57505E-18
 -1       421 9.51942E-05-2.85539E-05-2.85600E-05-1.92920E-08 2.33495E-18 3.02115E-18
 -1       422 9.51985E-05-2.85576E-05-2.85603E-05-2.71758E-08 1.44827E-18 2.93274E-18
 -1       423 9.52066E-05-2.85620E-05-2.85619E-05-3.00819E-08 1.19019E-19 1.28351E-18
 -1       424 9.52162E-05-2.85668E-05-2.85640E-05-2.87240E-08 5.84935E-19-2.01165E-19
 -1       425 9.52260E-05-2.85719E-05-2.85661E-05-2.32849E-08 5.10316E-19 1.87777E-18
 -1       426 9.52320E-05-2.85756E-05-2.85670E-05-1.83203E-08-2.69222E-19 3.78266E-18
 -1       427 9.52465E-05-2.85962E-05-2.85644E-05-2.86118E-08 1.08949E-18 4.08933E-19
 -1       428 9.52410E-05-2.85883E-05-2.85655E-05-2.92882E-08-2.24420E-19 2.46994E-18
 -1       429 9.52363E-05-2.85821E-05-2.85661E-05-2.55013E-08-4.72696E-19 1.77126E-18
 -1       430 9.52503E-05-2.86026E-05-2.85633E-05-2.45150E-08 3.24349E-19-2.88015E-18
 -1       431 9.52528E-05-2.86075E-05-2.85622E-05-1.83388E-08 2.29117E-19 1.29538E-18
 -1       432 9.52542E-05-2.86107E-05-2.85615E-05-1.11427E-08 1.11070E-19-1.15991E-18
 -1       433 9.52548E-05-2.86122E-05-2.85610E-05-3.55056E-09-6.97408E-19-9.16893E-19
 -1       434 9.52547E-05-2.86121E-05-2.85611E-05 4.10275E-09-1.53882E-18-7.62675E-20
 -1       435 9.52540E-05-2.86104E-05-2.85615E-05 1.15972E-08-1.12081E-18-3.26796E-19
 -1       436 9.52525E-05-2.86071E-05-2.85623E-05 1.85096E-08 1.35226E-18 2.71038E-19
 -1       437 9.52501E-05-2.86022E-05-2.85633E-05 2.45006E-08 1.98938E-18 1.87943E-18
 -1       438 9.52462E-05-2.85957E-05-2.85645E-05 2.84813E-08 1.40230E-18-8.22892E-19
 -1       439 9.52408E-05-2.85880E-05-2.85655E-05 2.93101E-08-3.30109E-19 1.32529E-18
 -1       440 5.66698E-05-4.12202E-05-6.78620E-06 4.12896E-05-7.66353E-19 8.83815E-18
 -1       441 1.15199E-05-2.29236E-05 4.59873E-06-3.30351E-06-9.41729E-20 5.64039E-18
 -1       442 2.78618E-05-2.78330E-05 3.28297E-08 2.80424E-05-5.55018E-19 9.07045E-18
 -1       443 1.06986E-04-5.66137E-05-2.14743E-05 3.81677E-05 6.45227E-19 1.72927E-18
 -1       444 1.35320E-04-5.80129E-05-3.32757E-05 2.26143E-05 2.25073E-18 3.47813E-19
 -1       445 8.96518E-05-1.15219E-05-3.35485E-05-8.11950E-06-2.58592E-18-2.92746E-18
 -1       446 1.64538E-04-2.57495E-05-5.91320E-05-6.06682E-07 7.88916E-18-1.00585E-20
 -1       447 1.59645E-04-1.36706E-05-6.24260E-05-1.51258E-06 7.05991E-18 1.24845E-19
 -1       448 1.57798E-04-1.66684E-05-6.03774E-05 3.47090E-06 6.50722E-18 8.26916E-20
 -1       449 1.56557E-04-3.52082E-05-5.21260E-05 4.16946E-07 4.97976E-18 5.04938E-19
 -1       450 1.42382E-04-5.26721E-05-3.85165E-05-1.94506E-05 2.43765E-18-2.57922E-19
 -1       451 1.16968E-04-5.72313E-05-2.56082E-05-3.50290E-05 6.97849E-19-1.50629E-18
 -1       452 7.23874E-05-4.67612E-05-1.10390E-05-4.40229E-05-8.71809E-19-4.62620E-18
 -1       453 3.46495E-05-3.39540E-05-5.74602E-07-3.35989E-05 4.47869E-20-5.87777E-18
 -1       454 1.46532E-05-2.05769E-05 2.63151E-06-8.98195E-06-8.15031E-19-7.53002E-18
 -1       455 1.63523E-05-2.28339E-05 2.76708E-06 1.57985E-05-5.70159E-20-7.51138E-18
 -1       456 4.48780E-05-3.56560E-05-3.93345E-06 4.00872E-05 2.92015E-19-6.35889E-18
 -1       457 8.21654E-05-4.89605E-05-1.41835E-05 4.47365E-05-1.32667E-19-4.36794E-18
 -1       458 1.26522E-04-5.35366E-05-3.12137E-05 3.02298E-05-2.52172E-18-2.56460E-18
 -1       459 1.46903E-04-4.71899E-05-4.28192E-05 1.18522E-05-3.00431E-18-2.48647E-18
 -1       460 1.56000E-04-2.52548E-05-5.59175E-05 1.35420E-06-5.74955E-18-2.25692E-18
 -1       461 1.57709E-04-1.47778E-05-6.11143E-05-1.01519E-06-7.26564E-18-2.36698E-18
 -1       462 1.57802E-04-1.36665E-05-6.15982E-05 1.39735E-06-7.76200E-18-2.29292E-18
 -1       463 1.59679E-04-2.54068E-05-5.72738E-05-2.05690E-06-6.15486E-18-1.96914E-18
 -1       464 1.51197E-04-3.95405E-05-4.77903E-05-9.25789E-06-5.06380E-18-2.08900E-18
 -1       465 1.27041E-04-5.27091E-05-3.18667E-05-3.00250E-05-2.73046E-18-7.51318E-19
 -1       466 9.40562E-05-5.02705E-05-1.89117E-05-4.21337E-05-1.62959E-18 2.07915E-18
 -1       467 5.78436E-05-4.13141E-05-7.25947E-06-4.27647E-05-1.03020E-19 5.98344E-18
 -1       468 2.17271E-05-2.73813E-05 2.10941E-06-2.53059E-05-1.20422E-18 5.32085E-18
 -1       469 1.55600E-04-4.21702E-05-4.85500E-05 3.97166E-06 5.38755E-18-3.53424E-19
 -1       470 2.30142E-05-1.64999E-05-2.27837E-06 1.40158E-05 2.78833E-19 8.41644E-18
 -1       471 4.63435E-05-3.08634E-05-6.25016E-06-3.88909E-05 1.22095E-18 4.79103E-18
 -1       472 1.41876E-04-5.23999E-05-3.84987E-05-1.01447E-05-9.21889E-19-4.37339E-18
 -1       473 1.45202E-04-3.70766E-05-4.67170E-05-5.58798E-06-3.36484E-18-8.23369E-19
 -1       474 1.13784E-04-5.88707E-05-2.34885E-05 3.54476E-05 6.36386E-19-1.22237E-18
 -1       475 1.48383E-04-4.93032E-05-4.26817E-05 2.18906E-06 1.51447E-18 2.30949E-18
 -1       476 9.81824E-05-2.54048E-05-3.11750E-05 2.75980E-06 2.57192E-18 3.95619E-19
 -1       477 8.68672E-05-1.09248E-05-3.25626E-05-1.96978E-06-9.14569E-19-3.66601E-18
 -1       478 8.86041E-05-1.25543E-05-3.26116E-05-3.33460E-06-1.45870E-18-3.36462E-18
 -1       479 8.53075E-05-9.50664E-06-3.24997E-05 2.60287E-07 3.81475E-19-3.65746E-18
 -1       480 8.55788E-05-9.73577E-06-3.25182E-05 1.25669E-06 9.60976E-19-3.66813E-18
 -1       481 8.65602E-05-1.06089E-05-3.25662E-05 2.28550E-06 1.47195E-18-3.50039E-18
 -1       482 8.82763E-05-1.21980E-05-3.26234E-05 3.45917E-06 2.19699E-18-3.03417E-18
 -1       483 9.06881E-05-1.45665E-05-3.26452E-05 4.76462E-06 2.66480E-18-2.42902E-18
 -1       484 9.38162E-05-1.78917E-05-3.25588E-05 6.07600E-06 3.14247E-18-1.47967E-18
 -1       485 9.80820E-05-2.67932E-05-3.05320E-05-1.07480E-06 2.03169E-18 1.32023E-19
 -1       486 9.73929E-05-2.45695E-05-3.12000E-05-2.64178E-06-2.34621E-18-6.68879E-19
 -1       487 1.43952E-04-5.46097E-05-3.85547E-05-1.64002E-06 1.45702E-18-1.20538E-18
 -1       488 9.76569E-05-2.63845E-05-3.05380E-05 8.33634E-07-1.71758E-18-6.60893E-19
 -1       489 9.79436E-05-2.74890E-05-3.01905E-05 3.29101E-06-1.32855E-18-4.57834E-19
 -1       490 9.85200E-05-2.84038E-05-3.00478E-05 4.97250E-06-9.63024E-19-5.41451E-19
 -1       491 9.94727E-05-2.93959E-05-3.00328E-05 5.99657E-06-6.82861E-19-6.67254E-19
 -1       492 1.00844E-04-3.06359E-05-3.00911E-05 6.34551E-06-6.31925E-19-7.36513E-19
 -1       493 1.02657E-04-3.22233E-05-3.01901E-05 5.88980E-06-3.72020E-19-9.00743E-19
 -1       494 1.04880E-04-3.41380E-05-3.03245E-05 4.42785E-06-5.69006E-19-3.32799E-19
 -1       495 1.07332E-04-3.61266E-05-3.05245E-05 1.77685E-06-2.96955E-19 3.39164E-19
 -1       496 1.09561E-04-3.75736E-05-3.08600E-05-2.03637E-06-7.78968E-20 9.47349E-19
 -1       497 1.10792E-04-3.74911E-05-3.14185E-05-6.46553E-06 2.29420E-19 1.18662E-18
 -1       498 1.10157E-04-3.49063E-05-3.22520E-05-1.00853E-05-2.54002E-19 5.57309E-19
 -1       499 1.07550E-04-2.99612E-05-3.32610E-05-1.07564E-05-9.87759E-19 8.43613E-19
 -1       500 1.04345E-04-2.47239E-05-3.41369E-05-6.94866E-06-1.59900E-18 7.36268E-19
 -1       501 1.02875E-04-2.24237E-05-3.44959E-05 4.47918E-07-1.99911E-18-5.31422E-20
 -1       502 1.04471E-04-2.48004E-05-3.41651E-05 7.73559E-06-1.84242E-18-9.58510E-19
 -1       503 1.07800E-04-3.00902E-05-3.33168E-05 1.15043E-05-1.34547E-18-1.12435E-18
 -1       504 1.10464E-04-3.49917E-05-3.23513E-05 1.08043E-05-9.91649E-20-1.14347E-18
 -1       505 1.11124E-04-3.74981E-05-3.15598E-05 7.22775E-06 5.02623E-19-2.42900E-18
 -1       506 1.09955E-04-3.75495E-05-3.10386E-05 2.90402E-06 9.06091E-19-1.73960E-18
 -1       507 1.07806E-04-3.61149E-05-3.07329E-05-7.92422E-07 3.87287E-19-1.30649E-18
 -1       508 1.05439E-04-3.41829E-05-3.05449E-05-3.35387E-06-5.80564E-19-2.27984E-18
 -1       509 1.03284E-04-3.23669E-05-3.03972E-05-4.80029E-06-1.15153E-18-2.54168E-18
 -1       510 1.01493E-04-3.09227E-05-3.02465E-05-5.36747E-06-5.81878E-19-3.76902E-18
 -1       511 1.00068E-04-2.98871E-05-3.00779E-05-5.32902E-06-1.23384E-20-3.99351E-18
 -1       512 9.89527E-05-2.91991E-05-2.98939E-05-4.92111E-06-3.43184E-19-3.42800E-18
 -1       513 9.80833E-05-2.87721E-05-2.97038E-05-4.32186E-06 1.50697E-19-1.79957E-18
 -1       514 9.74046E-05-2.85262E-05-2.95181E-05-3.65410E-06-3.96233E-19-1.25836E-18
 -1       515 9.68739E-05-2.83991E-05-2.93452E-05-2.99582E-06-2.34012E-19 1.84951E-19
 -1       516 9.64595E-05-2.83459E-05-2.91904E-05-2.39190E-06 2.40179E-19 7.69046E-19
 -1       517 9.61372E-05-2.83364E-05-2.90565E-05-1.86419E-06-7.57035E-19 3.44239E-20
 -1       518 9.58885E-05-2.83508E-05-2.89439E-05-1.41958E-06-1.63288E-19-4.99432E-19
 -1       519 9.56987E-05-2.83768E-05-2.88516E-05-1.05578E-06 2.93933E-19-5.17678E-19
 -1       520 9.55558E-05-2.84067E-05-2.87777E-05-7.65457E-07 1.00805E-18 1.12982E-18
 -1       521 9.54501E-05-2.84364E-05-2.87197E-05-5.38917E-07 1.14961E-18 4.24843E-20
 -1       522 9.53733E-05-2.84637E-05-2.86753E-05-3.65860E-07 5.23285E-19 3.85441E-20
 -1       523 9.53189E-05-2.84874E-05-2.86419E-05-2.36408E-07 1.34847E-18 6.45096E-19
 -1       524 9.52816E-05-2.85073E-05-2.86174E-05-1.41673E-07 3.94326E-19 9.06025E-19
 -1       525 9.52571E-05-2.85237E-05-2.85999E-05-7.40160E-08-1.19581E-19 2.19708E-18
 -1       526 9.52419E-05-2.85370E-05-2.85877E-05-2.71166E-08-1.00432E-18 2.15490E-18
 -1       527 9.52336E-05-2.85479E-05-2.85796E-05 4.06358E-09 1.75548E-18 2.49923E-18
 -1       528 9.52300E-05-2.85568E-05-2.85742E-05 2.33826E-08 1.16188E-18 2.26999E-18
 -1       529 9.52298E-05-2.85646E-05-2.85708E-05 3.36232E-08-1.07421E-19 1.23559E-18
 -1       530 9.52318E-05-2.85720E-05-2.85685E-05 3.66486E-08-6.45139E-19 6.98583E-19
 -1       531 9.89095E-05-2.81581E-05-3.03155E-05-5.99773E-06 1.10235E-18-3.13215E-19
 -1       532 9.99936E-05-2.88129E-05-3.05025E-05-7.69848E-06 1.03798E-18-5.36306E-19
 -1       533 1.01561E-04-2.97289E-05-3.07846E-05-8.97375E-06 8.84973E-19-4.70981E-19
 -1       534 1.03689E-04-3.11247E-05-3.11024E-05-9.65978E-06 3.74286E-19-4.01733E-20
 -1       535 1.06512E-04-3.32362E-05-3.14131E-05-9.39506E-06 5.21604E-20 5.29309E-19
 -1       536 1.10152E-04-3.61905E-05-3.17120E-05-7.63268E-06-4.73096E-19 9.09588E-19
 -1       537 1.14527E-04-3.97301E-05-3.20755E-05-3.75246E-06-1.46760E-19 7.38128E-19
 -1       538 1.18935E-04-4.26837E-05-3.27055E-05 2.52455E-06 2.09442E-20 1.67794E-18
 -1       539 1.21640E-04-4.26215E-05-3.38939E-05 1.02279E-05 7.64216E-19 2.52980E-18
 -1       540 1.20487E-04-3.71796E-05-3.57449E-05 1.58430E-05 7.48944E-19 2.97143E-18
 -1       541 1.15105E-04-2.70300E-05-3.79660E-05 1.37920E-05 1.60792E-18 2.26079E-18
 -1       542 1.11861E-04-2.08536E-05-3.92007E-05 2.35682E-06 3.80274E-18 6.73255E-19
 -1       543 1.13696E-04-2.41021E-05-3.85763E-05-1.09000E-05 3.59558E-18-5.63502E-19
 -1       544 1.18690E-04-3.34898E-05-3.66513E-05-1.68529E-05 1.59810E-18-2.11148E-18
 -1       545 1.22078E-04-4.14547E-05-3.45732E-05-1.35766E-05-3.59655E-19-2.02102E-18
 -1       546 1.20827E-04-4.32767E-05-3.32705E-05-6.21699E-06-1.16984E-18-1.80599E-18
 -1       547 1.16928E-04-4.11421E-05-3.25071E-05 7.93863E-07-1.70932E-18-1.52613E-18
 -1       548 1.12542E-04-3.76495E-05-3.21164E-05 5.50253E-06-5.54378E-19-5.27764E-19
 -1       549 1.08721E-04-3.44485E-05-3.18433E-05 7.91761E-06-9.48291E-19 2.69771E-19
 -1       550 1.05720E-04-3.20964E-05-3.15586E-05 8.64101E-06-1.63978E-18-8.16311E-19
 -1       551 1.03428E-04-3.05619E-05-3.12290E-05 8.32105E-06-1.55032E-18-1.06636E-18
 -1       552 1.01662E-04-2.96307E-05-3.08682E-05 7.45372E-06-7.18385E-19-6.01051E-19
 -1       553 1.00272E-04-2.90916E-05-3.05025E-05 6.36715E-06 5.34493E-19-1.20550E-18
 -1       554 9.91608E-05-2.87896E-05-3.01553E-05 5.25715E-06-4.95639E-19-1.39880E-18
 -1       555 9.82649E-05-2.86250E-05-2.98421E-05 4.22844E-06-1.07070E-18-4.82598E-19
 -1       556 9.75434E-05-2.85385E-05-2.95704E-05 3.32819E-06 8.46564E-19-6.71932E-19
 -1       557 9.69667E-05-2.84958E-05-2.93421E-05 2.56987E-06 7.50048E-19-6.21290E-19
 -1       558 9.65111E-05-2.84779E-05-2.91550E-05 1.94861E-06-2.16022E-19 4.77506E-19
 -1       559 9.61562E-05-2.84739E-05-2.90050E-05 1.45068E-06 1.27823E-18 1.92419E-18
 -1       560 9.58841E-05-2.84778E-05-2.88872E-05 1.05894E-06 2.16109E-18 2.97832E-18
 -1       561 9.56793E-05-2.84858E-05-2.87963E-05 7.55900E-07 1.02135E-18 2.38745E-18
 -1       562 9.55281E-05-2.84957E-05-2.87274E-05 5.25225E-07 1.76852E-18 1.72166E-18
 -1       563 9.54190E-05-2.85064E-05-2.86763E-05 3.52473E-07 1.26350E-18 5.70439E-19
 -1       564 9.53424E-05-2.85168E-05-2.86392E-05 2.25302E-07 9.02977E-19 2.33071E-19
 -1       565 9.52905E-05-2.85266E-05-2.86128E-05 1.33437E-07-1.64507E-18-2.02264E-18
 -1       566 9.52569E-05-2.85356E-05-2.85947E-05 6.85180E-08-3.33753E-19-1.16132E-18
 -1       567 9.52367E-05-2.85436E-05-2.85827E-05 2.38938E-08 6.62309E-20-4.94911E-19
 -1       568 9.52261E-05-2.85507E-05-2.85751E-05-5.58844E-09-3.66712E-19 1.81181E-19
 -1       569 9.52221E-05-2.85572E-05-2.85706E-05-2.37918E-08 1.27201E-18 2.18432E-18
 -1       570 9.52225E-05-2.85632E-05-2.85682E-05-3.34798E-08 6.87783E-19 3.83934E-18
 -1       571 9.52256E-05-2.85692E-05-2.85671E-05-3.65489E-08 1.54584E-18 3.81927E-18
 -1       572 9.52306E-05-2.85756E-05-2.85665E-05-3.39880E-08-6.75420E-19 3.13485E-18
 -1       573 9.52511E-05-2.85892E-05-2.85694E-05-2.46576E-08 1.43143E-18-5.59489E-19
 -1       574 9.52527E-05-2.85901E-05-2.85697E-05-1.67005E-08 7.42450E-19 1.22614E-18
 -1       575 9.52421E-05-2.85834E-05-2.85680E-05-3.51542E-08 3.81196E-19 2.29595E-18
 -1       576 9.52478E-05-2.85871E-05-2.85689E-05-3.11924E-08 1.21665E-18-2.61566E-18
 -1       577 9.52532E-05-2.85903E-05-2.85698E-05-8.20939E-09 4.58726E-19-2.62865E-18
 -1       578 9.52533E-05-2.85903E-05-2.85698E-05 3.81792E-10 3.21079E-19-5.74965E-19
 -1       579 9.52530E-05-2.85901E-05-2.85698E-05 8.90340E-09-1.30635E-18-3.71140E-19
 -1       580 9.52524E-05-2.85897E-05-2.85697E-05 1.70726E-08-1.37397E-19 1.66823E-18
 -1       581 9.52507E-05-2.85887E-05-2.85694E-05 2.47990E-08 1.39459E-18 1.09012E-18
 -1       582 9.52475E-05-2.85866E-05-2.85690E-05 3.11807E-08 1.20991E-18-2.11322E-19
 -1       583 9.52416E-05-2.85827E-05-2.85681E-05 3.46480E-08-1.01548E-18-1.60789E-18
 -1       584 9.04372E-05-4.98749E-05-1.71201E-05 3.97473E-05-3.52572E-18 2.16070E-18
 -1       585 9.82830E-05-2.75681E-05-3.02948E-05-3.85621E-06 1.53736E-18-1.65623E-19
 -1       586 1.44087E-04-3.19116E-05-4.85295E-05-1.33433E-05 5.52467E-18-1.76336E-18
 -1       587 1.27908E-04-6.21191E-05-2.81592E-05 2.22065E-05-1.41907E-18-5.93108E-19
 -1       588 2.50245E-05-1.59165E-05-3.26239E-06-1.64535E-05 1.62403E-18 4.87806E-18
 -1       589 1.31530E-04-7.40841E-06-5.38382E-05-4.00839E-07-7.50154E-18-7.43275E-19
 -1       590 3.70871E-05-2.09974E-05-6.25444E-06-2.71665E-05-1.93907E-18-5.84109E-18
 -1       591 1.38896E-04-2.36054E-05-5.00020E-05 1.33487E-05 4.56651E-18 2.16401E-18
 -1       592 8.57518E-05-9.91083E-06-3.25175E-05-7.86346E-07-2.05993E-19-3.69907E-18
 -1       593 1.37125E-04-1.48452E-05-5.30510E-05-9.85360E-06 6.51305E-18-6.89591E-19
 -1       594 1.30507E-04-1.07099E-05-5.20341E-05 2.94248E-06 6.00102E-18 1.09315E-18
 -1       595 6.36565E-05-3.56816E-05-1.15658E-05-3.97704E-05-2.88536E-18-3.33885E-18
 -1       596 1.35686E-04-6.19952E-05-3.17294E-05-1.55801E-05-1.38802E-18 2.45084E-18
 -1       597 1.38259E-04-1.57894E-05-5.30214E-05 8.80522E-06-5.33250E-18-2.44327E-18
 -1       598 1.08187E-04-5.75689E-05-2.14589E-05-3.61034E-05-2.80749E-18 2.41888E-19
 -1       599 2.42013E-05-1.35173E-05-3.96286E-06 4.68752E-06-1.89504E-19-6.69283E-18
 -1       600 3.93141E-05-2.23599E-05-6.69509E-06 3.07268E-05 1.30687E-18-5.76226E-18
 -1       601 7.31421E-05-4.13875E-05-1.31669E-05 4.30181E-05 2.25231E-18-4.11359E-18
 -1       602 1.37919E-04-5.75000E-05-3.46014E-05 1.25229E-05-3.57183E-19-9.52224E-19
 -1       603 1.38099E-04-1.69698E-05-5.24620E-05-8.80716E-06-5.70784E-18-5.42842E-19
 -1       604 1.18810E-04-5.86523E-05-2.56943E-05-3.09738E-05 2.24945E-18-2.78208E-18
 -1       605 1.43041E-04-3.10460E-05-4.84222E-05 8.15822E-06-3.97486E-18-3.79746E-18
 -1       606 8.89184E-05-4.97996E-05-1.65211E-05-4.23407E-05 3.07796E-18 9.66015E-20
 -1       607 9.60642E-05-2.08817E-05-3.22388E-05-6.60410E-06-2.86997E-18-1.10657E-18
 -1       608 9.82916E-05-2.36177E-05-3.20053E-05 6.83215E-06 3.15106E-18 9.71390E-19
 -1       609 5.53449E-05-3.11084E-05-9.85338E-06 3.66546E-05-3.28718E-18 7.30614E-18
 -1       610 9.09005E-05-1.48409E-05-3.26198E-05-4.81307E-06-2.03182E-18-2.89092E-18
 -1       611 9.33145E-05-1.74942E-05-3.25156E-05-5.91913E-06-2.53539E-18-2.20476E-18
 -1       612 9.94076E-05-5.22328E-05-1.99854E-05 3.79585E-05 2.38824E-18-2.05607E-18
 -1       613 4.43451E-05-1.98551E-05-9.91265E-06 2.59755E-05-1.48077E-18 5.96486E-18
 -1       614 1.38323E-04-3.70197E-05-4.38277E-05 1.50938E-05 2.32182E-18 2.95792E-18
 -1       615 9.52340E-05-2.85770E-05-2.85673E-05 3.52429E-08-1.60684E-18 2.43713E-18
 -1       616 7.29816E-05-3.92079E-05-1.40464E-05-4.11166E-05 3.42109E-18 1.00164E-18
 -1       617 1.40330E-04-4.38265E-05-4.16716E-05 5.71718E-06-1.38088E-18-5.10756E-18
 -1       618 1.39368E-04-4.87512E-05-3.91067E-05-3.34050E-06-7.25034E-19 1.36478E-19
 -1       619 1.32881E-04-5.90207E-05-3.17729E-05-1.49713E-05 1.48170E-18-6.05414E-18
 -1       620 1.28292E-04-2.46854E-05-4.48605E-05-1.59570E-05 4.53218E-18-6.18705E-19
 -1       621 8.72709E-05-1.28967E-05-3.18791E-05 9.49877E-07 1.08133E-18-3.11885E-18
 -1       622 8.66021E-05-1.22799E-05-3.18565E-05 5.61545E-07 5.82305E-19-3.27003E-18
 -1       623 9.09218E-05-1.64764E-05-3.19103E-05 1.89163E-06 2.19123E-18-2.35187E-18
 -1       624 9.36447E-05-1.94390E-05-3.18095E-05 2.35461E-06 2.49785E-18-1.66398E-18
 -1       625 9.63881E-05-2.33811E-05-3.12791E-05 1.07099E-06 2.39205E-18-1.03230E-18
 -1       626 1.21350E-04-1.49739E-05-4.61147E-05-6.16694E-06 5.66040E-18 2.06742E-19
 -1       627 9.64174E-05-2.50112E-05-3.06011E-05 2.13318E-06-1.34889E-18-1.22243E-18
 -1       628 9.68870E-05-2.64274E-05-3.01960E-05 4.47365E-06-1.14038E-18-1.09682E-18
 -1       629 9.75215E-05-2.76995E-05-2.99234E-05 6.20980E-06-8.25758E-19-1.08517E-18
 -1       630 9.85366E-05-2.91478E-05-2.97383E-05 7.36487E-06-6.71001E-19-1.38132E-18
 -1       631 1.00132E-04-3.10261E-05-2.96177E-05 7.87095E-06-2.69164E-19-1.04295E-18
 -1       632 1.02494E-04-3.34998E-05-2.95710E-05 7.54350E-06 1.20913E-20-4.89562E-19
 -1       633 1.05722E-04-3.65345E-05-2.96548E-05 6.07255E-06 1.69448E-19 3.06928E-19
 -1       634 1.09631E-04-3.96632E-05-2.99900E-05 3.09017E-06 4.19223E-19 7.55905E-19
 -1       635 1.13508E-04-4.17568E-05-3.07589E-05-1.56555E-06 1.82786E-19 9.86089E-19
 -1       636 1.15930E-04-4.09589E-05-3.21394E-05-7.31984E-06 4.03548E-20 1.18551E-18
 -1       637 1.15139E-04-3.54954E-05-3.41666E-05-1.18602E-05-2.53314E-19 1.79001E-18
 -1       638 1.11195E-04-2.64323E-05-3.64136E-05-1.16164E-05-1.92210E-18 1.49774E-18
 -1       639 1.07339E-04-1.90890E-05-3.79222E-05-4.57362E-06-2.87155E-18 9.20156E-20
 -1       640 1.06549E-04-1.88300E-05-3.77983E-05 5.74896E-06-2.57931E-18-1.30992E-18
 -1       641 1.10918E-04-2.66172E-05-3.62329E-05 1.25982E-05-1.33397E-18-1.87783E-18
 -1       642 1.15236E-04-3.57655E-05-3.40542E-05 1.25935E-05-5.68309E-19-1.49194E-18
 -1       643 1.15924E-04-4.08663E-05-3.21782E-05 8.05129E-06-1.26635E-19-1.39112E-18
 -1       644 1.13431E-04-4.15413E-05-3.08145E-05 2.40905E-06 1.09083E-18-1.89465E-18
 -1       645 1.09536E-04-3.94099E-05-3.00595E-05-2.12514E-06 6.78234E-19-2.55523E-18
 -1       646 1.05625E-04-3.63129E-05-2.97091E-05-5.00858E-06-6.90204E-19-2.17484E-18
 -1       647 1.02398E-04-3.33875E-05-2.95782E-05-6.46177E-06-1.20504E-18-2.43648E-18
 -1       648 1.00015E-04-3.10991E-05-2.95364E-05-6.90093E-06-1.42478E-18-2.38755E-18
 -1       649 9.83695E-05-2.95113E-05-2.95109E-05-6.69733E-06-2.24633E-19-2.25604E-18
 -1       650 9.72799E-05-2.85155E-05-2.94703E-05-6.12461E-06 9.01037E-19-1.06903E-18
 -1       651 9.65756E-05-2.79588E-05-2.94069E-05-5.37047E-06 9.07640E-19-4.71629E-19
 -1       652 9.61254E-05-2.77007E-05-2.93245E-05-4.55843E-06-2.77091E-19-8.51798E-19
 -1       653 9.58371E-05-2.76309E-05-2.92308E-05-3.76600E-06 9.95314E-19 3.38752E-19
 -1       654 9.56505E-05-2.76705E-05-2.91339E-05-3.03836E-06 6.94610E-19 6.61809E-19
 -1       655 9.55274E-05-2.77667E-05-2.90400E-05-2.39828E-06-3.35789E-19 1.48352E-18
 -1       656 9.54440E-05-2.78857E-05-2.89533E-05-1.85360E-06-1.73722E-18 1.63955E-18
 -1       657 9.53862E-05-2.80073E-05-2.88764E-05-1.40257E-06-8.46799E-19 1.09068E-18
 -1       658 9.53451E-05-2.81205E-05-2.88104E-05-1.03783E-06-1.47484E-19-2.59020E-19
 -1       659 9.53152E-05-2.82197E-05-2.87551E-05-7.49102E-07 3.40653E-19-2.19316E-18
 -1       660 9.52934E-05-2.83033E-05-2.87099E-05-5.25106E-07 6.85525E-19-1.36154E-18
 -1       661 9.52772E-05-2.83716E-05-2.86738E-05-3.54712E-07 1.01564E-18 3.71088E-19
 -1       662 9.52653E-05-2.84258E-05-2.86455E-05-2.27669E-07 5.24202E-19 1.62949E-19
 -1       663 9.52565E-05-2.84680E-05-2.86236E-05-1.34964E-07 4.99649E-19-7.18121E-19
 -1       664 9.52502E-05-2.85002E-05-2.86071E-05-6.89717E-08 6.46826E-19-3.10695E-19
 -1       665 9.52458E-05-2.85245E-05-2.85948E-05-2.34550E-08 4.26066E-19 1.01632E-18
 -1       666 9.52429E-05-2.85429E-05-2.85857E-05 6.50868E-09 5.56567E-19 6.41719E-20
 -1       667 9.52412E-05-2.85572E-05-2.85789E-05 2.46950E-08 6.68988E-20-1.26737E-18
 -1       668 9.52407E-05-2.85689E-05-2.85736E-05 3.36763E-08-1.67817E-19-1.21800E-19
 -1       669 9.76620E-05-2.73841E-05-3.01180E-05-9.49204E-06 8.32673E-19-9.08437E-19
 -1       670 9.70955E-05-2.66067E-05-3.02079E-05-7.55024E-06 1.22023E-18-9.44132E-19
 -1       671 1.00612E-04-3.06508E-05-2.99859E-05-1.20907E-05-2.87753E-20-2.16397E-19
 -1       672 1.03825E-04-3.40117E-05-2.99249E-05-1.22365E-05-3.75176E-19 7.04927E-20
 -1       673 1.08893E-04-3.89190E-05-2.99892E-05-1.08810E-05-2.53357E-19 2.14065E-19
 -1       674 1.16028E-04-4.48532E-05-3.05027E-05-6.86652E-06-9.24537E-19 5.35111E-19
 -1       675 1.24182E-04-4.92940E-05-3.21471E-05 8.45659E-07-7.63276E-19 1.59521E-18
 -1       676 1.29697E-04-4.77006E-05-3.52822E-05 1.06202E-05 1.05284E-19 2.98596E-18
 -1       677 1.26819E-04-4.99100E-05-3.29790E-05-5.01589E-06-1.09705E-18-2.10856E-18
 -1       678 1.19256E-04-4.68739E-05-3.10238E-05 3.62256E-06-2.04584E-18-1.10833E-18
 -1       679 1.11559E-04-4.10306E-05-3.02276E-05 8.74196E-06-1.41611E-18-6.84671E-19
 -1       680 1.05716E-04-3.56060E-05-3.00503E-05 1.08792E-05-9.00121E-19-5.11732E-19
 -1       681 1.01892E-04-3.17416E-05-3.00672E-05 1.11772E-05-1.13592E-18 2.78560E-19
 -1       682 9.95708E-05-2.93742E-05-3.00849E-05 1.04943E-05-1.74472E-18 6.70640E-19
 -1       683 9.82001E-05-2.80987E-05-3.00429E-05 9.34073E-06-1.11356E-18 9.47511E-19
 -1       684 9.73790E-05-2.75179E-05-2.99394E-05 8.01523E-06 5.54137E-19-3.25418E-20
 -1       685 9.68586E-05-2.73377E-05-2.97934E-05 6.68929E-06 4.27516E-19 4.95920E-19
 -1       686 9.64999E-05-2.73674E-05-2.96269E-05 5.45722E-06-1.02518E-18 5.56317E-19
 -1       687 9.62314E-05-2.74937E-05-2.94579E-05 4.36518E-06-4.08077E-19 6.42859E-20
 -1       688 9.60184E-05-2.76535E-05-2.92983E-05 3.42941E-06 5.69957E-19 1.12381E-18
 -1       689 9.58447E-05-2.78146E-05-2.91550E-05 2.64832E-06 6.81172E-19 5.53628E-19
 -1       690 9.57023E-05-2.79619E-05-2.90310E-05 2.01028E-06 4.29436E-19-1.33598E-18
 -1       691 9.55865E-05-2.80895E-05-2.89268E-05 1.49878E-06 7.95203E-19-5.35296E-19
 -1       692 9.54939E-05-2.81964E-05-2.88414E-05 1.09566E-06 2.00155E-18 4.41998E-19
 -1       693 9.54212E-05-2.82839E-05-2.87729E-05 7.83068E-07 1.63649E-18-1.74863E-19
 -1       694 9.53653E-05-2.83542E-05-2.87189E-05 5.44518E-07 1.89325E-18 5.06289E-19
 -1       695 9.53234E-05-2.84098E-05-2.86771E-05 3.65432E-07 1.10775E-18 5.44749E-19
 -1       696 9.52927E-05-2.84532E-05-2.86454E-05 2.33306E-07 4.11492E-19 1.09571E-18
 -1       697 9.52709E-05-2.84867E-05-2.86217E-05 1.37695E-07 5.92392E-20-3.77961E-19
 -1       698 9.52560E-05-2.85122E-05-2.86044E-05 7.00650E-08 1.07991E-19-9.68719E-19
 -1       699 9.52463E-05-2.85315E-05-2.85920E-05 2.36199E-08-3.11668E-20-1.33859E-18
 -1       700 9.52405E-05-2.85463E-05-2.85832E-05-6.88803E-09-1.21479E-18-1.50742E-18
 -1       701 9.52376E-05-2.85579E-05-2.85770E-05-2.54161E-08 2.64072E-19-6.97841E-19
 -1       702 9.52370E-05-2.85676E-05-2.85726E-05-3.47960E-08 3.23316E-20 7.77632E-19
 -1       703 9.52395E-05-2.85752E-05-2.85704E-05-3.67096E-08-7.12780E-19 2.02253E-18
 -1       704 9.52519E-05-2.85684E-05-2.85786E-05-3.40581E-09 9.51055E-19-1.68410E-18
 -1       705 9.52409E-05-2.85760E-05-2.85707E-05 3.55730E-08-9.23386E-19-2.63031E-18
 -1       706 9.52518E-05-2.85721E-05-2.85770E-05-1.94393E-08 1.29833E-18-6.83348E-19
 -1       707 9.52517E-05-2.85683E-05-2.85786E-05 4.34207E-09 2.91845E-19-3.37183E-18
 -1       708 9.52521E-05-2.85699E-05-2.85781E-05-1.13377E-08 7.55415E-19-1.44857E-18
 -1       709 9.68123E-05-2.59107E-05-3.03833E-05-5.22551E-06 1.51201E-18-8.00382E-19
 -1       710 9.52517E-05-2.85695E-05-2.85781E-05 1.19759E-08-5.06975E-19 2.13859E-18
 -1       711 9.52512E-05-2.85715E-05-2.85770E-05 1.98054E-08 6.21090E-19 2.48039E-18
 -1       712 9.52491E-05-2.85735E-05-2.85753E-05 2.73015E-08 8.75839E-19 3.86601E-19
 -1       713 9.36283E-05-4.57457E-05-2.02024E-05-3.45849E-05-3.36733E-18-5.10734E-19
 -1       714 1.12203E-04-5.48550E-05-2.44556E-05 2.64071E-05-3.91695E-18-4.62996E-19
 -1       715 9.87227E-05-2.85932E-05-3.00557E-05-1.10524E-05 2.22646E-19-5.90926E-19
 -1       716 9.58138E-05-2.30244E-05-3.11970E-05-8.82068E-07-1.86212E-18-1.40973E-18
 -1       717 5.77161E-05-2.49506E-05-1.36324E-05-3.02558E-05-2.91353E-18-3.24469E-18
 -1       718 8.00747E-05-3.82283E-05-1.76063E-05 3.44922E-05-4.97455E-18 2.33366E-18
 -1       719 9.66408E-05-2.49662E-05-3.07124E-05-2.41538E-06 1.87464E-18-9.71189E-19
 -1       720 1.31928E-04-2.86719E-05-4.47298E-05-1.31351E-05-2.88372E-18 1.10461E-18
 -1       721 1.36399E-04-4.37607E-05-3.99917E-05-1.46449E-05 1.81334E-18-2.85916E-18
 -1       722 5.10402E-05-2.13249E-05-1.21888E-05-2.87652E-05 3.20912E-18 3.56299E-18
 -1       723 1.08206E-04-5.43363E-05-2.29162E-05-3.17870E-05 3.10263E-18-2.33772E-18
 -1       724 8.87390E-05-1.42952E-05-3.19093E-05 1.38382E-06 1.71870E-18-2.76860E-18
 -1       725 1.40460E-04-5.51434E-05-3.66201E-05 4.02325E-06-7.80010E-19 2.24612E-18
 -1       726 8.92750E-05-1.48493E-05-3.19016E-05-1.09927E-06-1.08782E-18-3.14505E-18
 -1       727 1.24083E-04-5.95829E-05-2.76194E-05-1.93654E-05-2.35147E-18 1.37986E-18
 -1       728 1.34468E-04-5.88442E-05-3.25420E-05 4.03691E-06-1.92449E-18-2.13320E-18
 -1       729 1.24519E-04-1.90580E-05-4.57376E-05 1.14052E-05 3.90715E-18 1.80741E-18
 -1       730 6.43527E-05-2.98338E-05-1.43414E-05 3.49747E-05 2.13966E-18-3.66720E-18
 -1       731 1.24991E-04-5.92073E-05-2.81312E-05 2.01650E-05 1.19883E-18-1.77850E-19
 -1       732 3.97993E-05-1.29052E-05-1.10048E-05-1.06740E-05-1.12422E-18-5.25812E-18
 -1       733 1.20940E-04-1.22321E-05-4.70363E-05 7.86772E-06-5.09586E-18-2.50407E-18
 -1       734 1.25899E-04-2.02454E-05-4.57946E-05 1.31791E-05-3.24239E-18-3.67247E-18
 -1       735 4.32197E-05-1.42916E-05-1.18747E-05 1.59606E-05 4.68416E-19-5.25277E-18
 -1       736 3.21230E-05-1.14204E-05-8.25046E-06 5.36807E-07 9.47946E-19 5.87068E-18
 -1       737 1.22597E-04-1.19585E-05-4.79497E-05-7.74779E-06-5.83966E-18 6.61943E-19
 -1       738 9.48231E-05-2.06415E-05-3.17906E-05-3.35768E-06-2.23613E-18-1.76453E-18
 -1       739 8.67560E-05-1.24316E-05-3.18575E-05 1.39468E-07 6.96268E-20-3.25950E-18
 -1       740 1.13638E-04-1.15439E-05-4.41750E-05-2.38317E-07-5.05176E-18-7.02442E-19
 -1       741 1.31593E-04-5.66299E-05-3.22392E-05 6.36267E-06 1.26120E-18 1.95493E-19
 -1       742 8.48901E-05-4.07509E-05-1.86616E-05 3.57892E-05 2.69034E-18-2.36624E-18
 -1       743 6.69111E-05-2.74573E-05-1.65617E-05 2.95566E-05-3.19166E-18 3.28980E-18
 -1       744 9.52498E-05-2.85742E-05-2.85753E-05-2.71693E-08 1.21347E-18-1.28159E-18
 -1       745 9.43194E-05-4.62919E-05-2.03224E-05-3.45820E-05 3.57276E-18-4.79553E-19
 -1       746 9.52459E-05-2.85755E-05-2.85730E-05-3.29064E-08-6.99081E-19 2.92293E-19
 -1       747 1.35346E-04-5.24656E-05-3.57474E-05-4.99286E-07 1.24225E-18-5.37469E-18
 -1       748 1.21927E-04-5.76997E-05-2.75410E-05-2.01829E-05 2.04527E-18-4.38069E-18
 -1       749 8.76787E-05-1.33047E-05-3.18791E-05-4.00320E-07-5.64291E-19-3.07637E-18
 -1       750 4.78232E-05-1.42823E-05-1.39627E-05-1.53474E-05 1.87266E-18 3.54872E-18
 -1       751 9.14416E-05-1.70492E-05-3.18838E-05-1.91425E-06-1.53325E-18-2.64819E-18
 -1       752 1.28639E-04-3.19342E-05-4.17561E-05 1.42554E-05-1.39837E-18-4.42850E-18
 -1       753 9.52460E-05-2.85710E-05-2.85750E-05 3.10626E-08-1.61516E-18-4.47106E-18
 -1       754 9.75022E-05-4.27044E-05-2.34000E-05 2.60219E-05-3.00815E-18 1.17104E-18
 -1       755 9.30209E-05-2.01516E-05-3.12309E-05-4.87405E-07 1.87442E-18-1.86431E-18
 -1       756 9.47999E-05-2.37578E-05-3.04459E-05 3.39819E-06-1.05695E-18-1.64493E-18
 -1       757 9.30950E-05-1.87264E-05-3.18720E-05-2.66477E-06-1.83484E-18-2.14319E-18
 -1       758 7.12371E-05-3.02550E-05-1.72773E-05-3.17741E-05 3.31292E-18 4.35031E-19
 -1       759 9.52689E-05-2.53506E-05-2.99649E-05 5.59544E-06-8.63449E-19-1.47241E-18
 -1       760 9.58863E-05-2.69142E-05-2.95592E-05 7.40832E-06-7.89425E-19-1.31898E-18
 -1       761 9.69630E-05-2.88143E-05-2.92065E-05 8.83515E-06-3.62641E-19-1.27637E-18
 -1       762 9.88445E-05-3.13837E-05-2.89120E-05 9.79629E-06 3.70440E-19-1.06126E-18
 -1       763 1.01911E-04-3.48783E-05-2.87296E-05 1.00532E-05 7.67449E-19-9.01722E-19
 -1       764 1.06476E-04-3.92965E-05-2.87908E-05 9.09869E-06 7.01442E-19-2.43389E-19
 -1       765 1.12438E-04-4.39260E-05-2.93566E-05 6.13528E-06 7.21883E-19 1.53867E-19
 -1       766 1.18775E-04-4.67932E-05-3.08686E-05 2.47913E-07 6.91503E-19 8.70545E-19
 -1       767 1.23184E-04-4.48826E-05-3.36277E-05-7.75090E-06 8.81020E-19 1.68470E-18
 -1       768 1.21449E-04-3.44577E-05-3.74525E-05-1.35261E-05-1.12842E-18 2.60557E-18
 -1       769 1.22016E-04-4.46257E-05-3.32761E-05 8.12637E-06 3.33255E-19-2.24513E-18
 -1       770 1.18358E-04-4.66220E-05-3.07447E-05 3.84477E-07-2.44809E-19-2.22397E-18
 -1       771 1.11899E-04-4.34784E-05-2.93259E-05-5.27311E-06 4.93284E-19-2.57383E-18
 -1       772 1.05884E-04-3.88415E-05-2.87347E-05-8.11690E-06 7.14835E-19-2.29185E-18
 -1       773 1.01293E-04-3.45481E-05-2.86060E-05-9.03957E-06-6.44528E-19-1.97607E-18
 -1       774 9.81889E-05-3.12717E-05-2.86792E-05-8.87693E-06-1.44947E-18-1.57854E-18
 -1       775 9.62749E-05-2.90533E-05-2.88092E-05-8.17179E-06-7.37430E-19-1.82817E-18
 -1       776 9.51997E-05-2.77035E-05-2.89268E-05-7.23076E-06 1.43162E-18-2.44305E-19
 -1       777 9.46694E-05-2.69888E-05-2.90058E-05-6.21968E-06 1.16755E-18 2.99110E-19
 -1       778 9.44696E-05-2.67031E-05-2.90426E-05-5.22909E-06 3.24074E-19 4.47379E-19
 -1       779 9.44553E-05-2.66863E-05-2.90437E-05-4.30864E-06 1.04051E-19 1.40746E-18
 -1       780 9.45342E-05-2.68235E-05-2.90187E-05-3.48418E-06 4.08091E-20 1.01957E-18
 -1       781 9.46508E-05-2.70368E-05-2.89773E-05-2.76675E-06 3.09183E-19 5.86054E-19
 -1       782 9.47738E-05-2.72764E-05-2.89274E-05-2.15764E-06-1.04500E-18-3.61764E-20
 -1       783 9.48869E-05-2.75121E-05-2.88748E-05-1.65173E-06-1.53236E-18 6.60703E-19
 -1       784 9.49831E-05-2.77273E-05-2.88239E-05-1.23993E-06-1.11291E-18 6.45624E-19
 -1       785 9.50607E-05-2.79144E-05-2.87769E-05-9.11036E-07-7.42380E-19 9.48816E-19
 -1       786 9.51206E-05-2.80711E-05-2.87354E-05-6.53125E-07-3.39373E-20 1.00532E-18
 -1       787 9.51650E-05-2.81986E-05-2.86999E-05-4.54492E-07 1.30920E-18 1.44948E-19
 -1       788 9.51967E-05-2.82998E-05-2.86701E-05-3.04296E-07 1.06328E-18 2.48805E-19
 -1       789 9.52184E-05-2.83783E-05-2.86457E-05-1.92901E-07 1.34767E-18 6.13011E-20
 -1       790 9.52323E-05-2.84380E-05-2.86261E-05-1.12036E-07 1.34804E-18 9.39233E-19
 -1       791 9.52406E-05-2.84827E-05-2.86105E-05-5.48208E-08-5.67335E-19-1.31981E-18
 -1       792 9.52449E-05-2.85158E-05-2.85982E-05-1.56905E-08-4.16024E-19-2.32005E-18
 -1       793 9.52467E-05-2.85404E-05-2.85884E-05 9.55792E-09-5.84806E-19-1.49937E-18
 -1       794 9.52465E-05-2.85575E-05-2.85810E-05 2.35663E-08-7.93677E-19-2.87800E-18
 -1       795 9.52486E-05-2.85446E-05-2.85874E-05 5.66142E-09 1.19863E-18-1.14192E-18
 -1       796 9.98330E-05-3.44675E-05-2.80209E-05-1.59321E-05-5.72956E-19-6.84561E-19
 -1       797 9.62069E-05-2.97900E-05-2.84686E-05-1.45667E-05-3.72864E-19-8.72884E-19
 -1       798 1.16777E-04-5.03207E-05-2.84620E-05-1.42936E-05-1.76702E-18 4.11572E-19
 -1       799 9.69523E-05-3.10913E-05-2.82238E-05 1.41268E-05-1.33467E-18 1.59982E-18
 -1       800 9.47366E-05-2.78939E-05-2.86461E-05 1.24108E-05-1.21576E-18 1.70153E-18
 -1       801 9.38694E-05-2.62734E-05-2.89693E-05 1.06600E-05-1.39750E-18 6.90843E-19
 -1       802 9.37036E-05-2.56432E-05-2.91683E-05 9.01391E-06-2.58282E-19 1.03200E-19
 -1       803 9.38539E-05-2.55787E-05-2.92603E-05 7.51237E-06 1.71667E-19 7.00861E-19
 -1       804 9.41138E-05-2.58067E-05-2.92740E-05 6.16996E-06-1.08068E-18 1.18835E-18
 -1       805 9.43813E-05-2.61611E-05-2.92368E-05 4.99214E-06 1.14174E-19 5.20268E-19
 -1       806 9.46141E-05-2.65483E-05-2.91708E-05 3.97791E-06-4.50293E-19-6.78582E-19
 -1       807 9.48000E-05-2.69189E-05-2.90917E-05 3.12081E-06 9.96544E-19-1.09770E-18
 -1       808 9.49408E-05-2.72500E-05-2.90102E-05 2.40954E-06 1.67385E-18 4.56917E-20
 -1       809 9.50433E-05-2.75335E-05-2.89326E-05 1.82947E-06 3.76227E-19-1.33954E-18
 -1       810 9.51159E-05-2.77693E-05-2.88627E-05 1.36424E-06 3.74717E-19-1.72859E-18
 -1       811 9.51658E-05-2.79612E-05-2.88019E-05 9.97100E-07 6.17284E-19-3.06596E-19
 -1       812 9.51993E-05-2.81144E-05-2.87506E-05 7.11978E-07 8.61776E-19 6.70682E-19
 -1       813 9.52210E-05-2.82347E-05-2.87083E-05 4.94097E-07 6.73696E-19 2.48855E-18
 -1       814 9.52344E-05-2.83279E-05-2.86742E-05 3.30364E-07 8.38231E-19 2.01455E-18
 -1       815 9.52421E-05-2.83989E-05-2.86471E-05 2.09515E-07 1.33596E-18 8.90501E-19
 -1       816 9.52461E-05-2.84522E-05-2.86259E-05 1.22098E-07-2.32397E-19 1.51894E-20
 -1       817 9.52475E-05-2.84918E-05-2.86096E-05 6.03657E-08-1.83435E-19 3.19272E-19
 -1       818 9.52475E-05-2.85210E-05-2.85971E-05 1.81432E-08-9.01531E-19 2.16101E-18
 -1       819 9.52467E-05-2.85426E-05-2.85875E-05-9.17295E-09 1.18815E-19 4.61392E-19
 -1       820 9.52457E-05-2.85590E-05-2.85800E-05-2.53218E-08-3.74257E-20-9.64160E-19
 -1       821 9.52456E-05-2.85674E-05-2.85764E-05-3.05081E-08-1.59166E-18 6.91984E-20
 -1       822 9.44195E-05-2.40559E-05-3.01556E-05-6.21856E-06 1.39215E-18-1.06084E-18
 -1       823 9.52483E-05-2.85431E-05-2.85879E-05 5.39980E-10 1.10696E-18-2.61215E-18
 -1       824 9.52496E-05-2.85547E-05-2.85835E-05 1.80053E-08-3.07760E-19 1.29487E-18
 -1       825 1.19291E-04-2.11627E-05-4.24031E-05-1.26812E-05-3.60423E-18 1.71275E-18
 -1       826 5.14729E-05-1.26001E-05-1.63900E-05 1.15602E-06-5.24160E-19-4.17128E-18
 -1       827 9.49437E-05-2.26380E-05-3.09873E-05-1.41849E-06 1.90376E-18-1.34492E-18
 -1       828 9.41836E-05-2.17771E-05-3.10325E-05 7.96498E-07-1.41795E-18-1.77532E-18
 -1       829 9.52495E-05-2.85488E-05-2.85860E-05 1.13223E-08 8.87470E-19 4.02243E-18
 -1       830 1.01496E-04-3.65424E-05-2.78254E-05 1.54222E-05-1.49332E-18 5.19818E-19
 -1       831 1.09609E-04-4.45830E-05-2.78398E-05 1.52146E-05-1.98632E-18-4.53555E-19
 -1       832 1.06285E-04-4.15147E-05-2.77581E-05-1.64466E-05-8.80656E-19 1.35896E-19
 -1       833 9.42301E-05-2.47657E-05-2.97695E-05-8.54087E-06 1.00124E-18-9.03023E-19
 -1       834 1.20108E-04-5.30462E-05-2.86673E-05 1.26546E-05-3.13579E-18-1.12176E-18
 -1       835 1.10454E-04-5.29409E-05-2.45190E-05 2.70135E-05 2.57440E-18-1.05792E-18
 -1       836 1.08682E-04-4.92504E-05-2.53961E-05-2.29024E-05-2.07192E-18 6.87903E-19
 -1       837 8.75214E-05-1.47144E-05-3.12039E-05 2.27337E-07 7.34329E-19-2.77729E-18
 -1       838 5.62012E-05-1.77721E-05-1.62001E-05-1.88679E-05-2.00041E-18-2.99394E-18
 -1       839 1.29363E-04-4.10072E-05-3.80599E-05-1.08964E-05-5.34372E-19 1.46436E-18
 -1       840 4.64918E-05-1.38405E-05-1.35948E-05 1.29032E-05-5.40989E-19 4.31275E-18
 -1       841 7.92792E-05-3.15596E-05-2.02683E-05-2.84186E-05-2.17489E-18-1.34800E-18
 -1       842 6.12403E-05-2.16390E-05-1.67203E-05 2.41468E-05 1.31368E-18-3.25300E-18
 -1       843 8.73103E-05-1.45268E-05-3.11940E-05 5.26743E-07 2.24391E-19-2.75786E-18
 -1       844 9.05391E-05-1.76005E-05-3.12599E-05-3.23691E-07 1.55743E-18-2.14635E-18
 -1       845 6.20338E-05-2.10080E-05-1.73510E-05-2.29726E-05 2.12422E-18 1.70727E-18
 -1       846 8.65561E-05-3.45626E-05-2.20964E-05 2.61060E-05-3.47644E-18 1.89949E-18
 -1       847 9.52506E-05-2.85555E-05-2.85836E-05-1.76512E-08-1.62412E-18 5.52800E-19
 -1       848 1.15461E-04-1.99364E-05-4.12158E-05-1.09545E-05-3.72811E-18 1.84955E-18
 -1       849 9.42049E-05-2.56323E-05-2.93872E-05-1.06598E-05 5.59180E-19-8.84200E-19
 -1       850 9.46888E-05-2.71161E-05-2.89595E-05-1.26621E-05-2.78425E-19-1.04406E-18
 -1       851 9.52503E-05-2.85494E-05-2.85861E-05-1.06648E-08 4.91380E-19-6.20458E-19
 -1       852 9.52490E-05-2.85449E-05-2.85875E-05-4.63528E-09 6.60129E-19-1.86508E-18
 -1       853 1.22126E-04-5.48671E-05-2.88173E-05 1.29785E-05 1.93776E-18 2.13561E-20
 -1       854 6.05541E-05-1.59284E-05-1.89821E-05 1.14936E-05 5.85155E-19-3.18427E-18
 -1       855 9.47968E-05-2.35245E-05-3.05447E-05-3.98834E-06 1.43911E-18-1.24825E-18
 -1       856 1.28620E-04-5.60944E-05-3.11912E-05-6.93737E-06 1.29081E-18-4.55728E-18
 -1       857 1.09715E-04-5.26968E-05-2.43219E-05-2.69780E-05 2.51293E-18-3.47905E-18
 -1       858 7.52229E-05-3.01354E-05-1.91233E-05 2.90378E-05 1.86327E-18-2.18705E-18
 -1       859 5.15732E-05-1.24065E-05-1.65352E-05-2.48577E-06 6.21400E-19 3.05993E-18
 -1       860 8.86263E-05-1.57483E-05-3.12345E-05-8.44724E-08 1.16122E-18-2.54340E-18
 -1       861 9.52484E-05-2.85556E-05-2.85826E-05 2.07289E-08-1.70861E-18-1.75989E-18
 -1       862 9.14120E-05-1.84991E-05-3.12506E-05 5.07190E-07-1.19402E-18-2.55884E-18
 -1       863 9.52049E-05-3.81952E-05-2.43105E-05-2.40838E-05-1.72579E-18-3.81032E-19
 -1       864 8.94097E-05-1.65205E-05-3.12401E-05 7.03158E-07-7.96225E-19-2.77246E-18
 -1       865 9.64764E-05-4.25455E-05-2.30100E-05 2.77145E-05 2.34458E-18-1.60046E-18
 -1       866 9.28959E-05-2.25978E-05-3.01270E-05 4.41957E-06-8.33314E-19-1.93844E-18
 -1       867 9.31517E-05-2.42151E-05-2.95431E-05 6.52475E-06-7.04517E-19-1.73782E-18
 -1       868 9.35525E-05-2.59293E-05-2.89813E-05 8.51778E-06-3.98430E-19-1.39051E-18
 -1       869 9.44736E-05-2.81321E-05-2.84317E-05 1.04514E-05 1.31100E-19-1.26484E-18
 -1       870 9.64142E-05-3.12714E-05-2.79174E-05 1.22855E-05 5.32878E-19-1.24372E-18
 -1       871 9.99658E-05-3.57353E-05-2.75286E-05 1.37815E-05 9.74298E-19-1.72165E-18
 -1       872 1.05919E-04-4.17835E-05-2.74726E-05 1.41512E-05 1.49599E-18-1.23106E-18
 -1       873 1.14427E-04-4.84686E-05-2.82721E-05 1.21728E-05 1.47829E-18-3.69091E-19
 -1       874 1.13682E-04-4.79460E-05-2.81251E-05-1.14681E-05 4.02845E-19-2.62830E-18
 -1       875 1.05006E-04-4.11310E-05-2.73647E-05-1.33253E-05 9.23688E-19-1.53250E-18
 -1       876 9.90168E-05-3.52374E-05-2.73318E-05-1.28670E-05 1.43918E-19-1.55239E-18
 -1       877 9.53924E-05-3.09868E-05-2.76020E-05-1.14494E-05-1.01522E-18-1.92799E-18
 -1       878 9.34323E-05-2.82274E-05-2.79447E-05-9.81040E-06-2.36198E-19-1.45236E-19
 -1       879 9.25499E-05-2.66123E-05-2.82586E-05-8.24567E-06 4.30102E-19 5.48368E-19
 -1       880 9.23180E-05-2.58025E-05-2.85065E-05-6.84474E-06 1.68313E-18-2.29865E-19
 -1       881 9.24533E-05-2.55287E-05-2.86818E-05-5.62203E-06 6.51269E-19-7.42282E-19
 -1       882 9.27724E-05-2.55890E-05-2.87928E-05-4.56853E-06 1.36389E-18-6.19741E-19
 -1       883 9.31619E-05-2.58397E-05-2.88523E-05-3.66928E-06 3.01168E-19 5.51521E-20
 -1       884 9.35556E-05-2.61830E-05-2.88740E-05-2.90938E-06 3.96327E-19 5.34801E-19
 -1       885 9.39177E-05-2.65553E-05-2.88696E-05-2.27476E-06-9.99406E-19-1.01109E-18
 -1       886 9.42314E-05-2.69175E-05-2.88488E-05-1.75174E-06 3.89635E-19-5.89404E-19
 -1       887 9.44919E-05-2.72476E-05-2.88190E-05-1.32681E-06-1.43464E-18 9.21198E-19
 -1       888 9.47009E-05-2.75351E-05-2.87853E-05-9.86653E-07-7.50020E-20 1.33300E-18
 -1       889 9.48635E-05-2.77770E-05-2.87514E-05-7.18494E-07-1.73363E-19 2.20263E-18
 -1       890 9.49867E-05-2.79749E-05-2.87193E-05-5.10389E-07 4.87667E-20 1.92611E-18
 -1       891 9.50774E-05-2.81330E-05-2.86904E-05-3.51501E-07 1.28391E-18 8.72786E-19
 -1       892 9.51420E-05-2.82565E-05-2.86652E-05-2.32267E-07 1.24529E-18 3.40193E-19
 -1       893 9.51864E-05-2.83510E-05-2.86438E-05-1.44472E-07 5.92546E-19-5.75264E-19
 -1       894 9.52155E-05-2.84219E-05-2.86258E-05-8.12070E-08 3.16893E-19-2.38553E-18
 -1       895 9.52335E-05-2.84746E-05-2.86110E-05-3.69032E-08-3.74222E-19-1.68542E-18
 -1       896 9.52436E-05-2.85135E-05-2.85987E-05-6.89827E-09 1.39184E-19 2.35231E-20
 -1       897 8.95318E-05-2.77254E-05-2.64682E-05-1.71505E-05-7.22245E-19-5.67125E-19
 -1       898 8.93177E-05-2.34813E-05-2.82158E-05 9.20640E-06-7.77197E-19-1.52546E-19
 -1       899 8.94805E-05-2.90995E-05-2.58707E-05 1.73238E-05-1.38775E-18 1.10739E-18
 -1       900 8.83099E-05-2.55999E-05-2.68736E-05 1.38832E-05-1.33458E-18 6.83141E-19
 -1       901 9.03027E-05-2.36102E-05-2.85824E-05 7.57773E-06-5.57069E-19 7.11858E-19
 -1       902 9.12751E-05-2.40655E-05-2.88040E-05 6.22350E-06-5.69280E-19 2.75309E-19
 -1       903 9.21415E-05-2.46575E-05-2.89216E-05 5.07452E-06-2.47828E-20-2.86866E-19
 -1       904 9.28714E-05-2.52778E-05-2.89686E-05 4.09273E-06 4.28114E-19 4.70971E-19
 -1       905 9.34639E-05-2.58666E-05-2.89703E-05 3.25785E-06 5.20066E-19-3.58869E-19
 -1       906 9.39321E-05-2.63941E-05-2.89448E-05 2.55570E-06 1.08007E-18-6.63107E-19
 -1       907 9.42944E-05-2.68492E-05-2.89051E-05 1.97349E-06 1.28387E-18 4.95920E-19
 -1       908 9.45697E-05-2.72310E-05-2.88595E-05 1.49821E-06 2.98294E-19-8.12822E-20
 -1       909 9.47756E-05-2.75443E-05-2.88134E-05 1.11642E-06-1.04737E-19-1.37442E-20
 -1       910 9.49271E-05-2.77967E-05-2.87701E-05 8.14680E-07-2.98363E-19 2.87205E-19
 -1       911 9.50365E-05-2.79967E-05-2.87314E-05 5.80088E-07-1.14876E-18 1.94681E-18
 -1       912 9.51139E-05-2.81526E-05-2.86977E-05 4.00725E-07 1.03942E-18 5.37701E-19
 -1       913 9.51673E-05-2.82722E-05-2.86693E-05 2.65962E-07 6.97180E-19 2.03701E-18
 -1       914 9.52029E-05-2.83626E-05-2.86458E-05 1.66610E-07 1.26661E-18 3.44026E-18
 -1       915 9.52255E-05-2.84299E-05-2.86267E-05 9.49320E-08-6.52727E-19 3.29460E-18
 -1       916 9.52389E-05-2.84794E-05-2.86112E-05 4.45338E-08-1.17249E-18 3.87765E-18
 -1       917 9.52461E-05-2.85158E-05-2.85988E-05 1.02099E-08 6.57093E-19 1.86608E-18
 -1       918 9.52489E-05-2.85419E-05-2.85887E-05-1.16181E-08 6.81700E-19 1.27297E-19
 -1       919 9.52410E-05-2.85131E-05-2.85977E-05 7.38806E-10 7.47251E-19-1.41574E-18
 -1       920 9.52492E-05-2.85624E-05-2.85801E-05-2.43046E-08-1.87722E-18 9.09253E-19
 -1       921 9.12142E-05-3.94406E-05-2.20412E-05-2.82583E-05 3.07570E-18-1.64768E-19
 -1       922 8.85131E-05-2.39744E-05-2.76597E-05 1.12414E-05-8.60264E-19 6.44882E-19
 -1       923 9.18312E-05-3.42863E-05-2.45998E-05 2.14167E-05-2.42482E-18 2.92739E-18
 -1       924 9.14180E-05-2.21568E-05-2.96840E-05-6.57586E-06 1.01303E-18-1.33520E-18
 -1       925 1.32269E-04-4.25727E-05-3.86190E-05 1.08332E-05-1.72212E-19-4.90427E-18
 -1       926 8.79810E-05-1.51604E-05-3.12108E-05 7.07622E-07-2.66304E-19-2.74890E-18
 -1       927 9.23014E-05-2.07580E-05-3.06611E-05 2.47879E-06-8.94503E-19-2.21323E-18
 -1       928 6.33773E-05-1.94722E-05-1.86467E-05 1.89760E-05-1.89854E-18 2.65653E-18
 -1       929 6.22908E-05-1.56318E-05-1.98710E-05-9.81336E-06-7.41160E-19-2.79351E-18
 -1       930 7.50062E-05-2.38714E-05-2.18335E-05-2.04875E-05-1.13554E-18-1.95613E-18
 -1       931 9.19442E-05-2.03666E-05-3.06766E-05-2.64412E-06 1.41057E-18-1.85092E-18
 -1       932 9.52430E-05-2.85182E-05-2.85963E-05 2.01380E-09 2.07692E-18 1.08351E-18
 -1       933 7.93527E-05-3.01666E-05-2.09453E-05-2.57869E-05 2.49110E-18-3.92474E-19
 -1       934 9.05425E-05-2.27396E-05-2.90584E-05-8.81125E-06 6.92003E-19-1.01612E-18
 -1       935 8.89934E-05-2.49163E-05-2.74631E-05-1.38335E-05-4.26790E-19-7.67324E-19
 -1       936 9.52473E-05-2.85373E-05-2.85900E-05 9.20609E-09-4.89223E-19-1.10963E-18
 -1       937 9.20153E-05-2.13652E-05-3.02813E-05-4.26455E-06 1.19844E-18-1.74106E-18
 -1       938 9.52412E-05-2.85133E-05-2.85977E-05 2.79552E-10-2.63625E-19-2.00908E-18
 -1       939 6.07975E-05-1.46555E-05-1.96572E-05 7.24629E-06-8.50749E-19 2.24192E-18
 -1       940 7.35097E-05-2.38420E-05-2.11778E-05 2.06486E-05 1.09686E-18-2.07513E-18
 -1       941 6.36296E-05-1.46555E-05-2.09214E-05 1.12987E-07-4.26631E-20-2.87280E-18
 -1       942 9.33590E-05-2.19298E-05-3.06101E-05-3.32072E-06 1.38032E-18-1.72030E-18
 -1       943 1.02920E-04-4.56420E-05-2.44858E-05-2.38323E-05 2.48187E-18-1.88308E-18
 -1       944 1.08247E-04-4.71733E-05-2.61325E-05 1.97166E-05 1.98112E-18-1.14426E-18
 -1       945 9.52477E-05-2.85290E-05-2.85937E-05-4.39872E-09 7.42580E-19 1.60230E-18
 -1       946 9.01308E-05-1.86940E-05-3.06151E-05 2.25407E-06-6.12805E-19-2.49491E-18
 -1       947 5.88120E-05-1.54933E-05-1.84158E-05-1.22067E-05 5.49539E-19 3.05018E-18
 -1       948 8.73900E-05-1.61904E-05-3.05145E-05 2.65053E-07 3.96742E-19-2.28182E-18
 -1       949 1.16516E-04-5.36295E-05-2.68993E-05-1.83158E-05 1.82290E-18-3.31390E-18
 -1       950 9.52465E-05-2.85302E-05-2.85927E-05 6.13216E-09 7.39499E-19 2.85180E-19
 -1       951 8.80263E-05-1.67481E-05-3.05487E-05-8.00349E-07 8.08701E-19-2.46456E-18
 -1       952 8.77661E-05-1.65404E-05-3.05261E-05 1.23599E-06-1.18966E-20-2.46461E-18
 -1       953 9.52441E-05-2.85192E-05-2.85964E-05-7.96894E-10-2.87876E-19-4.14372E-19
 -1       954 9.04626E-05-2.29101E-05-2.89527E-05 7.04868E-06-1.46840E-19-1.19193E-18
 -1       955 9.03088E-05-2.45178E-05-2.81958E-05 9.32633E-06-2.66150E-19-1.14169E-18
 -1       956 9.05692E-05-2.66811E-05-2.73798E-05 1.19796E-05 4.21044E-19-1.15874E-18
 -1       957 9.18979E-05-3.00235E-05-2.65254E-05 1.51830E-05 4.68541E-19-9.09081E-19
 -1       958 9.51120E-05-3.50766E-05-2.56996E-05 1.87726E-05 1.26076E-18-1.47345E-18
 -1       959 9.39617E-05-3.44549E-05-2.54800E-05-1.78726E-05 8.51759E-19-9.07429E-19
 -1       960 9.06669E-05-2.95767E-05-2.61810E-05-1.44058E-05-5.99901E-20 2.97487E-20
 -1       961 8.93226E-05-2.66309E-05-2.68677E-05-1.13988E-05 4.97315E-19 1.36709E-18
 -1       962 8.90857E-05-2.50289E-05-2.74529E-05-9.00033E-06 2.26153E-19 9.90065E-19
 -1       963 8.94355E-05-2.43051E-05-2.79132E-05-7.12137E-06 3.57157E-19 7.20417E-19
 -1       964 9.00783E-05-2.41544E-05-2.82532E-05-5.64289E-06 9.03221E-19-1.67139E-19
 -1       965 9.08335E-05-2.43558E-05-2.84905E-05-4.47016E-06 1.22085E-18 2.75876E-19
 -1       966 9.15951E-05-2.47548E-05-2.86459E-05-3.52972E-06 1.69390E-18 2.97328E-19
 -1       967 9.23045E-05-2.52470E-05-2.87390E-05-2.76985E-06-6.53617E-20 1.19132E-18
 -1       968 9.29324E-05-2.57633E-05-2.87868E-05-2.15463E-06-9.22341E-19 1.28908E-19
 -1       969 9.34672E-05-2.62599E-05-2.88032E-05-1.65785E-06 1.20869E-19 1.44085E-19
 -1       970 9.39089E-05-2.67115E-05-2.87989E-05-1.25920E-06 5.74506E-19 2.09386E-19
 -1       971 9.42642E-05-2.71059E-05-2.87821E-05-9.42126E-07 3.43008E-20 1.27803E-18
 -1       972 9.45429E-05-2.74394E-05-2.87587E-05-6.92648E-07 1.15703E-20 2.78658E-18
 -1       973 9.47566E-05-2.77141E-05-2.87325E-05-4.98743E-07-7.09252E-19 7.22602E-19
 -1       974 9.49164E-05-2.79350E-05-2.87064E-05-3.50050E-07 3.24439E-19-2.38195E-19
 -1       975 9.50330E-05-2.81089E-05-2.86818E-05-2.37697E-07 1.05677E-18-1.13664E-18
 -1       976 9.51155E-05-2.82432E-05-2.86596E-05-1.54184E-07-7.53073E-21-1.17601E-18
 -1       977 9.51719E-05-2.83448E-05-2.86402E-05-9.32740E-08-6.04234E-19-1.37608E-18
 -1       978 9.52085E-05-2.84204E-05-2.86235E-05-4.98464E-08 5.43480E-19-1.14120E-18
 -1       979 9.52312E-05-2.84764E-05-2.86092E-05-1.94233E-08 7.54172E-19-4.98693E-19
 -1       980 7.90096E-05-2.55965E-05-2.28410E-05 1.98079E-05-1.47974E-18 9.26561E-19
 -1       981 8.82024E-05-2.22887E-05-2.82490E-05 5.47248E-06-3.42868E-19-5.12932E-19
 -1       982 8.96095E-05-2.34869E-05-2.83361E-05-1.11387E-05 1.22687E-19-9.00558E-19
 -1       983 7.96848E-05-2.19620E-05-2.47199E-05 1.38588E-05-1.35387E-18 2.09537E-18
 -1       984 8.97082E-05-2.31232E-05-2.85367E-05 4.49896E-06-1.34164E-18-3.46039E-19
 -1       985 9.09536E-05-2.39655E-05-2.87094E-05 3.67743E-06-3.66722E-19-3.00959E-19
 -1       986 9.19652E-05-2.47593E-05-2.88027E-05 2.97495E-06 5.44528E-19 1.23605E-18
 -1       987 9.27737E-05-2.54742E-05-2.88428E-05 2.37463E-06 9.79231E-19 2.76996E-18
 -1       988 9.34108E-05-2.60970E-05-2.88489E-05 1.86662E-06 2.21440E-19 2.23149E-18
 -1       989 9.39058E-05-2.66259E-05-2.88343E-05 1.44293E-06 1.70883E-18 2.19816E-18
 -1       990 9.42851E-05-2.70653E-05-2.88085E-05 1.09539E-06 6.46210E-19 1.36940E-18
 -1       991 9.45714E-05-2.74236E-05-2.87777E-05 8.15217E-07-3.74335E-19 6.50282E-19
 -1       992 9.47842E-05-2.77107E-05-2.87458E-05 5.93263E-07-1.00258E-18-1.87900E-19
 -1       993 9.49396E-05-2.79370E-05-2.87154E-05 4.20495E-07 1.22916E-18 6.20580E-20
 -1       994 9.50506E-05-2.81126E-05-2.86877E-05 2.88387E-07-4.40142E-19 6.49776E-19
 -1       995 9.51280E-05-2.82467E-05-2.86634E-05 1.89231E-07-4.82858E-19 5.51085E-19
 -1       996 9.51801E-05-2.83474E-05-2.86426E-05 1.16321E-07-1.68280E-19 3.42849E-18
 -1       997 9.52137E-05-2.84219E-05-2.86250E-05 6.41113E-08-1.06723E-18 3.12691E-18
 -1       998 9.52341E-05-2.84766E-05-2.86103E-05 2.73936E-08 4.94947E-19 1.63438E-18
 -1       999 7.29156E-05-1.91628E-05-2.30259E-05-1.27651E-05-3.57174E-19-2.01670E-18
 -1      1000 8.87218E-05-1.74040E-05-3.05647E-05 1.84805E-06-2.77630E-19-2.39303E-18
 -1      1001 8.94087E-05-1.98523E-05-2.98081E-05-4.20039E-06 8.52420E-19-1.59028E-18
 -1      1002 7.07295E-05-1.84275E-05-2.23612E-05 1.16135E-05 6.54610E-19-2.15196E-18
 -1      1003 8.96208E-05-1.81862E-05-3.06147E-05-1.82397E-06 1.01927E-18-2.10583E-18
 -1      1004 9.04749E-05-2.04543E-05-3.00096E-05 3.92551E-06-4.70499E-19-2.16941E-18
 -1      1005 8.64033E-05-2.15432E-05-2.77976E-05 6.67888E-06-3.86750E-19-1.24546E-19
 -1      1006 9.05140E-05-2.17201E-05-2.94823E-05 5.43292E-06-2.80641E-19-1.72156E-18
 -1      1007 7.08107E-05-2.22184E-05-2.07152E-05-1.93895E-05 2.20760E-18-1.07315E-19
 -1      1008 9.52289E-05-2.84769E-05-2.86080E-05-6.30295E-09 1.70609E-18 6.69148E-19
 -1      1009 7.76144E-05-1.87662E-05-2.52182E-05-9.45923E-06-3.29952E-19-1.83047E-18
 -1      1010 1.00683E-04-4.19666E-05-2.51359E-05-2.08545E-05 1.90699E-18-1.05498E-18
 -1      1011 8.43399E-05-2.10642E-05-2.71196E-05 8.24549E-06 2.00186E-19 5.84597E-19
 -1      1012 8.20493E-05-2.10647E-05-2.61355E-05 1.04798E-05-5.13573E-19 1.48580E-18
 -1      1013 9.52268E-05-2.84728E-05-2.86088E-05 1.00516E-09 6.75549E-19-1.15783E-18
 -1      1014 7.11520E-05-1.65571E-05-2.33758E-05-5.62676E-06-1.40035E-19-2.44366E-18
 -1      1015 6.17580E-05-1.41299E-05-2.03363E-05-1.56511E-06-9.15849E-19 2.22431E-18
 -1      1016 8.58991E-05-3.23670E-05-2.28672E-05 2.38134E-05 1.55496E-18-1.47771E-18
 -1      1017 8.81265E-05-2.03632E-05-2.90399E-05-5.95613E-06 5.97847E-19-1.35275E-18
 -1      1018 9.52232E-05-2.84562E-05-2.86144E-05 2.18707E-08 1.38143E-18-1.70553E-18
 -1      1019 8.69863E-05-1.74511E-05-2.98001E-05 1.11858E-06 2.17399E-19-2.18570E-18
 -1      1020 8.06441E-05-2.47446E-05-2.39301E-05 1.69348E-05 6.65511E-19-1.55110E-18
 -1      1021 8.83252E-05-3.31263E-05-2.36065E-05-2.18910E-05 1.63106E-18-3.20152E-20
 -1      1022 8.70155E-05-1.74433E-05-2.98174E-05-6.86907E-07 3.67783E-19-1.95320E-18
 -1      1023 9.52229E-05-2.84609E-05-2.86123E-05 1.00988E-08 1.07994E-19-1.21631E-18
 -1      1024 8.59767E-05-2.25038E-05-2.72065E-05 9.34004E-06 5.27404E-20-1.51336E-18
 -1      1025 8.48570E-05-2.41261E-05-2.60214E-05 1.27016E-05 5.53264E-19-1.42640E-18
 -1      1026 8.28220E-05-2.62405E-05-2.42280E-05-1.67182E-05 5.54212E-19 3.73525E-19
 -1      1027 6.88053E-05-1.76883E-05-2.18550E-05 1.16884E-05-1.90275E-18 1.85187E-18
 -1      1028 8.34299E-05-2.38780E-05-2.55219E-05-1.22666E-05 7.26448E-19-5.33109E-19
 -1      1029 8.46038E-05-2.27695E-05-2.65007E-05-9.04519E-06 1.33802E-19-1.09955E-19
 -1      1030 8.59856E-05-2.24373E-05-2.72362E-05-6.77627E-06-2.20143E-19 2.55672E-19
 -1      1031 8.73808E-05-2.25768E-05-2.77740E-05-5.11574E-06 6.12432E-19 8.02438E-19
 -1      1032 8.87130E-05-2.30189E-05-2.81550E-05-3.90107E-06 1.46082E-18 1.53351E-18
 -1      1033 8.99186E-05-2.36161E-05-2.84157E-05-2.98953E-06 1.80487E-18 7.02456E-19
 -1      1034 9.09806E-05-2.42808E-05-2.85859E-05-2.29248E-06 6.67063E-19-1.26695E-19
 -1      1035 9.18928E-05-2.49508E-05-2.86896E-05-1.75332E-06 1.10047E-19 8.81092E-19
 -1      1036 9.26582E-05-2.55849E-05-2.87459E-05-1.33352E-06-1.99253E-19 1.19942E-18
 -1      1037 9.32867E-05-2.61585E-05-2.87694E-05-1.00593E-06-5.45378E-19 9.55385E-19
 -1      1038 9.37922E-05-2.66595E-05-2.87713E-05-7.50668E-07 8.00668E-19-8.89461E-20
 -1      1039 9.41906E-05-2.70846E-05-2.87598E-05-5.52659E-07 4.11637E-19-7.42359E-19
 -1      1040 9.44983E-05-2.74364E-05-2.87409E-05-4.00142E-07-1.41219E-18-1.78524E-18
 -1      1041 9.47311E-05-2.77213E-05-2.87186E-05-2.83734E-07-9.99396E-19-1.27406E-18
 -1      1042 9.49033E-05-2.79472E-05-2.86955E-05-1.95862E-07 1.02235E-18-8.89057E-19
 -1      1043 9.50275E-05-2.81229E-05-2.86734E-05-1.30379E-07 8.06369E-19-9.98449E-19
 -1      1044 9.51144E-05-2.82570E-05-2.86532E-05-8.23093E-08-4.02035E-19 1.54756E-19
 -1      1045 9.51726E-05-2.83573E-05-2.86352E-05-4.78853E-08 2.80581E-19 1.07096E-18
 -1      1046 9.52066E-05-2.84247E-05-2.86208E-05-2.15577E-08 1.63724E-18 9.28331E-19
 -1      1047 9.04719E-05-2.37208E-05-2.86081E-05 2.22029E-06-6.83912E-19-9.90054E-19
 -1      1048 8.15152E-05-1.89685E-05-2.68088E-05-7.14269E-06-2.77557E-20-1.39308E-18
 -1      1049 8.73414E-05-2.17356E-05-2.81177E-05 3.17905E-06-1.06823E-18 4.54089E-19
 -1      1050 9.15960E-05-2.45895E-05-2.87175E-05 1.81999E-06-7.57683E-19-1.58769E-19
 -1      1051 9.24917E-05-2.53551E-05-2.87732E-05 1.46651E-06 6.63809E-19 5.22324E-19
 -1      1052 9.31980E-05-2.60142E-05-2.87933E-05 1.16006E-06 1.73185E-18 4.05666E-19
 -1      1053 9.37481E-05-2.65696E-05-2.87910E-05 9.00032E-07 1.09784E-18-1.99453E-19
 -1      1054 9.41710E-05-2.70287E-05-2.87754E-05 6.84153E-07 7.08752E-19 7.38242E-19
 -1      1055 9.44912E-05-2.74014E-05-2.87529E-05 5.08704E-07-3.80956E-19 1.20186E-18
 -1      1056 9.47298E-05-2.76990E-05-2.87276E-05 3.69014E-07-4.27584E-19 1.74408E-18
 -1      1057 9.49042E-05-2.79325E-05-2.87022E-05 2.59995E-07-8.35416E-19 2.64227E-18
 -1      1058 9.50288E-05-2.81128E-05-2.86783E-05 1.76576E-07-9.97269E-20 2.77697E-18
 -1      1059 9.51156E-05-2.82499E-05-2.86568E-05 1.13990E-07-1.35138E-18 2.11102E-18
 -1      1060 9.51736E-05-2.83520E-05-2.86379E-05 6.85699E-08 3.18730E-19 1.00067E-18
 -1      1061 9.52022E-05-2.84093E-05-2.86256E-05 4.21727E-08 1.26720E-18-8.00393E-19
 -1      1062 8.90729E-05-2.27617E-05-2.84198E-05 2.66937E-06-6.74796E-19-2.17780E-19
 -1      1063 7.23489E-05-1.67244E-05-2.38290E-05 4.18761E-06 3.59124E-19-2.25344E-18
 -1      1064 8.71381E-05-2.12968E-05-2.82188E-05 6.83236E-06-4.16249E-20-1.83442E-18
 -1      1065 8.87875E-05-1.90009E-05-2.99101E-05 3.19245E-06-1.47442E-19-1.96825E-18
 -1      1066 6.67114E-05-1.54044E-05-2.19546E-05 4.55753E-06-1.18013E-18 1.86316E-18
 -1      1067 7.77181E-05-2.02695E-05-2.46078E-05 1.06278E-05 4.72371E-19-1.72750E-18
 -1      1068 7.50981E-05-1.83913E-05-2.42902E-05 8.95200E-06-1.19095E-18 1.18688E-18
 -1      1069 8.78175E-05-1.83280E-05-2.97785E-05-2.44714E-06 5.03329E-19-1.99055E-18
 -1      1070 8.52132E-05-2.06886E-05-2.76544E-05 3.78186E-06 3.77768E-19 1.29052E-18
 -1      1071 8.53431E-05-1.98169E-05-2.80738E-05-6.71100E-06 3.53795E-19-1.10393E-18
 -1      1072 8.84842E-05-2.00764E-05-2.93174E-05 4.45760E-06 3.70620E-20-1.86952E-18
 -1      1073 6.70317E-05-1.70629E-05-2.13908E-05-1.06511E-05 7.65971E-19 7.23364E-19
 -1      1074 7.75576E-05-2.44804E-05-2.26939E-05-1.84515E-05 1.20425E-18-3.43603E-19
 -1      1075 9.52006E-05-2.84156E-05-2.86222E-05-4.10809E-09 5.99304E-20-2.04855E-19
 -1      1076 8.24910E-05-1.95900E-05-2.69537E-05 4.60208E-06 5.23911E-19 2.69500E-18
 -1      1077 8.63167E-05-1.88176E-05-2.89300E-05-3.59343E-06 4.04684E-19-1.52466E-18
 -1      1078 8.56619E-05-1.79433E-05-2.90223E-05 3.20203E-07 8.55739E-20-1.87833E-18
 -1      1079 8.65033E-05-1.86742E-05-2.90702E-05 2.86378E-06-3.76485E-20-1.94392E-18
 -1      1080 8.76807E-05-1.80354E-05-2.98414E-05 2.25976E-06 6.85227E-20-2.14956E-18
 -1      1081 7.56025E-05-1.98654E-05-2.38732E-05-1.10865E-05 8.69194E-20 1.17286E-20
 -1      1082 8.53169E-05-2.06901E-05-2.76972E-05 1.08411E-06 9.20246E-19-6.63203E-19
 -1      1083 7.92537E-05-1.99477E-05-2.54162E-05-7.62667E-06 8.77676E-20-4.74256E-19
 -1      1084 8.20635E-05-2.02452E-05-2.64968E-05-5.31332E-06 3.35928E-19-1.38425E-18
 -1      1085 8.44666E-05-2.08564E-05-2.72595E-05-3.76016E-06 4.79617E-19-5.60169E-19
 -1      1086 8.65056E-05-2.16409E-05-2.77999E-05-2.71860E-06 6.12543E-19-6.86960E-19
 -1      1087 8.82205E-05-2.24806E-05-2.81747E-05-1.96305E-06 7.36084E-19-4.58813E-19
 -1      1088 8.96644E-05-2.33373E-05-2.84263E-05-1.42169E-06 8.03567E-19-1.10466E-18
 -1      1089 9.08703E-05-2.41661E-05-2.85878E-05-1.03165E-06 7.55500E-19-1.61656E-18
 -1      1090 9.18659E-05-2.49354E-05-2.86847E-05-7.48839E-07-1.40231E-19-7.10073E-19
 -1      1091 9.26766E-05-2.56256E-05-2.87363E-05-5.42650E-07-1.05715E-18-5.05193E-19
 -1      1092 9.33268E-05-2.62270E-05-2.87571E-05-3.91680E-07-3.38378E-19-1.68324E-18
 -1      1093 9.38398E-05-2.67380E-05-2.87580E-05-2.80837E-07 9.59903E-19-1.18391E-18
 -1      1094 9.42378E-05-2.71625E-05-2.87466E-05-1.99375E-07-8.99074E-19-5.95335E-19
 -1      1095 9.45409E-05-2.75078E-05-2.87285E-05-1.39564E-07-8.39088E-19-1.10875E-18
 -1      1096 9.47672E-05-2.77834E-05-2.87073E-05-9.57932E-08-3.22532E-19-6.94624E-19
 -1      1097 9.49324E-05-2.79992E-05-2.86857E-05-6.39528E-08 2.02327E-19-2.37000E-18
 -1      1098 9.50500E-05-2.81652E-05-2.86649E-05-4.09961E-08 1.05438E-18-2.54493E-18
 -1      1099 9.51307E-05-2.82902E-05-2.86459E-05-2.49957E-08 1.47191E-18-2.08082E-19
 -1      1100 9.51716E-05-2.83595E-05-2.86336E-05-1.18125E-08 2.35663E-19 5.71388E-19
 -1      1101 7.70247E-05-1.72306E-05-2.56164E-05-2.64964E-06 1.40685E-19-1.99716E-18
 -1      1102 9.25199E-05-2.54530E-05-2.87427E-05 6.44089E-07 4.89192E-19-3.83062E-18
 -1      1103 9.05241E-05-2.38329E-05-2.85816E-05 8.95857E-07-4.40975E-19-2.15116E-18
 -1      1104 8.33628E-05-1.94814E-05-2.73842E-05 5.48804E-06 3.48837E-19-1.83772E-18
 -1      1105 9.32204E-05-2.61013E-05-2.87651E-05 5.22030E-07 1.14031E-18-1.27258E-18
 -1      1106 9.37671E-05-2.66457E-05-2.87662E-05 4.11792E-07 5.49716E-19-1.59312E-18
 -1      1107 9.41877E-05-2.70942E-05-2.87543E-05 3.16399E-07-2.48086E-19-9.67075E-19
 -1      1108 9.45062E-05-2.74570E-05-2.87353E-05 2.36677E-07-5.12345E-19-5.08115E-19
 -1      1109 9.47432E-05-2.77454E-05-2.87133E-05 1.72007E-07-1.08657E-18 2.98211E-19
 -1      1110 9.49159E-05-2.79708E-05-2.86907E-05 1.20927E-07-1.70653E-19 2.58825E-19
 -1      1111 9.50387E-05-2.81440E-05-2.86691E-05 8.16082E-08 9.74894E-20 5.76355E-19
 -1      1112 9.51232E-05-2.82745E-05-2.86494E-05 5.20944E-08 9.41701E-19-2.73785E-18
 -1      1113 8.40888E-05-1.84586E-05-2.81407E-05 2.47967E-06 2.71963E-19-1.83675E-18
 -1      1114 7.82973E-05-1.82263E-05-2.57475E-05 4.87726E-06 3.22930E-19-1.96317E-18
 -1      1115 9.16335E-05-2.46965E-05-2.86870E-05 7.71944E-07 3.96778E-19-3.20483E-18
 -1      1116 8.20786E-05-2.03180E-05-2.64737E-05 7.85203E-06 3.80413E-19-1.51495E-18
 -1      1117 7.92042E-05-1.86233E-05-2.59554E-05 5.66212E-06 8.70440E-20 1.67661E-18
 -1      1118 8.57605E-05-1.82028E-05-2.89508E-05-1.58750E-06 1.12094E-19-1.83035E-18
 -1      1119 6.77388E-05-1.56450E-05-2.23036E-05-3.94580E-06 3.12574E-19 5.47011E-19
 -1      1120 7.25261E-05-1.64434E-05-2.40400E-05 2.75270E-06-7.81566E-19-1.77558E-19
 -1      1121 8.26509E-05-1.95039E-05-2.70677E-05 1.03870E-06 1.18370E-18-1.30289E-19
 -1      1122 8.12165E-05-1.78495E-05-2.71481E-05-2.19151E-06 2.53508E-19-1.83589E-18
 -1      1123 8.91463E-05-2.28692E-05-2.84041E-05 1.00195E-06-3.95325E-19-2.11396E-18
 -1      1124 8.35036E-05-1.81909E-05-2.79933E-05-2.05094E-08 2.52669E-19-1.83920E-18
 -1      1125 9.51669E-05-2.83493E-05-2.86361E-05 3.23176E-08 2.11932E-18-3.64091E-18
 -1      1126 9.52014E-05-2.84136E-05-2.86232E-05 1.96164E-08 9.08322E-19-3.05397E-18
 -1      1127 8.74407E-05-2.18178E-05-2.81237E-05 1.07202E-06-3.55977E-19-1.73735E-18
 -1      1128 7.82994E-05-1.81946E-05-2.57728E-05-2.35125E-06-5.62247E-19-5.45310E-19
 -1      1129 7.41269E-05-1.71608E-05-2.43852E-05-3.14685E-06-3.80762E-19 6.02044E-19
 -1      1130 1.16671E-04 2.58428E-10-4.19344E-05-4.03801E-05-3.38390E-19 1.35934E-17
 -1      1131 8.96749E-05 7.56179E-11-3.76060E-05-2.25745E-05-2.09429E-19 2.73375E-18
 -1      1132 8.51340E-05 4.37935E-11-3.61603E-05-1.58500E-05-1.49501E-19-2.05943E-18
 -1      1133 8.30567E-05 3.24864E-11-3.53586E-05-1.16000E-05-1.09320E-19-4.43006E-18
 -1      1134 8.17555E-05 2.58395E-11-3.48414E-05-8.33441E-06-7.65506E-20-5.63393E-18
 -1      1135 8.08245E-05 2.13190E-11-3.44766E-05-5.71298E-06-4.50516E-20-6.24122E-18
 -1      1136 8.01578E-05 1.81530E-11-3.42175E-05-3.52718E-06-2.46963E-20-6.44080E-18
 -1      1137 7.97374E-05 1.61895E-11-3.40559E-05-1.61633E-06-9.63500E-21-6.49400E-18
 -1      1138 7.95852E-05 1.54257E-11-3.39983E-05 1.36036E-07 1.12000E-20-6.46410E-18
 -1      1139 7.97131E-05 1.59031E-11-3.40487E-05 1.87119E-06 2.34588E-20-6.40024E-18
 -1      1140 8.01230E-05 1.76875E-11-3.42079E-05 3.73703E-06 3.65415E-20-6.14537E-18
 -1      1141 8.08043E-05 2.08238E-11-3.44717E-05 5.86854E-06 6.87685E-20-5.66131E-18
 -1      1142 8.17667E-05 2.55993E-11-3.48485E-05 8.44936E-06 9.41795E-20-4.82539E-18
 -1      1143 8.31089E-05 3.26441E-11-3.53816E-05 1.17122E-05 1.19114E-19-3.38625E-18
 -1      1144 8.51888E-05 4.42601E-11-3.61999E-05 1.59949E-05 1.66654E-19-6.35553E-19
 -1      1145 8.94187E-05 7.08566E-11-3.76838E-05 2.23507E-05 1.83912E-19 4.55526E-18
 -1      1146 1.06664E-04 1.67347E-10-4.07368E-05 3.50678E-05 3.68036E-19 1.52263E-17
 -1      1147 1.29668E-04-2.58427E-05-4.03101E-05-2.53918E-05-1.48887E-18 2.05372E-17
 -1      1148 9.88324E-05-2.92875E-05-3.19967E-05-5.26167E-07-4.96652E-19 1.70768E-17
 -1      1149 9.30373E-05-2.79034E-05-2.87408E-05 4.22557E-07-1.97451E-19 1.20649E-17
 -1      1150 9.24800E-05-2.78525E-05-2.79197E-05 2.78014E-07-9.85933E-20 8.64471E-18
 -1      1151 9.36081E-05-2.81712E-05-2.81226E-05 2.01303E-07-9.25582E-20 6.50410E-18
 -1      1152 9.56860E-05-2.87623E-05-2.87275E-05 1.67280E-07-8.17271E-20 5.16828E-18
 -1      1153 9.83468E-05-2.95356E-05-2.95183E-05 1.52766E-07-7.72636E-20 4.02693E-18
 -1      1154 1.01331E-04-3.04114E-05-3.03970E-05 1.45766E-07 5.03217E-20 2.80598E-18
 -1      1155 1.04358E-04-3.13010E-05-3.12746E-05 1.35822E-07-1.22226E-19 1.69377E-18
 -1      1156 1.07050E-04-3.20892E-05-3.20360E-05 1.10790E-07-3.51055E-21 5.89006E-19
 -1      1157 1.08897E-04-3.26233E-05-3.25309E-05 5.62936E-08-1.04068E-19-3.97953E-19
 -1      1158 1.09281E-04-3.27215E-05-3.25874E-05-4.04839E-08-2.67709E-20-8.70531E-19
 -1      1159 1.07612E-04-3.22133E-05-3.20570E-05-1.80584E-07-8.08553E-20-1.79079E-18
 -1      1160 1.03610E-04-3.10241E-05-3.08936E-05-3.38313E-07 1.43883E-19-1.36886E-18
 -1      1161 9.76784E-05-2.92817E-05-2.92422E-05-4.53018E-07-6.23082E-20-6.13993E-19
 -1      1162 9.11371E-05-2.73774E-05-2.74769E-05-4.47575E-07-3.40170E-20-9.26866E-19
 -1      1163 8.59994E-05-2.58927E-05-2.61214E-05-2.79730E-07 1.84630E-19-7.60053E-19
 -1      1164 8.41572E-05-2.53636E-05-2.56445E-05 6.65576E-09 1.09585E-20-1.35208E-18
 -1      1165 8.63801E-05-2.60063E-05-2.62328E-05 2.90895E-07-1.65006E-20-3.51259E-18
 -1      1166 9.18713E-05-2.75974E-05-2.76946E-05 4.55190E-07 4.70087E-20-5.14160E-18
 -1      1167 9.87434E-05-2.96017E-05-2.95620E-05 4.58941E-07 3.19846E-20-4.50950E-18
 -1      1168 1.05014E-04-3.14467E-05-3.13189E-05 3.45481E-07-8.62782E-20-4.46704E-18
 -1      1169 1.09401E-04-3.27519E-05-3.26013E-05 1.91978E-07 2.35336E-19-2.37519E-18
 -1      1170 1.11533E-04-3.33989E-05-3.32730E-05 5.84459E-08-1.07864E-20-2.44643E-18
 -1      1171 1.11709E-04-3.34675E-05-3.33852E-05-3.00709E-08 8.21374E-20-1.72097E-18
 -1      1172 1.10519E-04-3.31280E-05-3.30869E-05-7.47233E-08-2.18232E-19-5.23956E-19
 -1      1173 1.08564E-04-3.25569E-05-3.25456E-05-8.78291E-08 5.42961E-21-7.31175E-19
 -1      1174 1.06321E-04-3.18954E-05-3.19015E-05-8.26532E-08 8.21207E-20-2.78425E-18
 -1      1175 1.04106E-04-3.12386E-05-3.12527E-05-6.91746E-08-1.36632E-19-3.76106E-18
 -1      1176 1.02101E-04-3.06414E-05-3.06577E-05-5.35463E-08 1.72848E-20-3.38732E-18
 -1      1177 1.00389E-04-3.01294E-05-3.01446E-05-3.89717E-08-2.96199E-19-3.06204E-18
 -1      1178 9.89869E-05-2.97089E-05-2.97217E-05-2.67792E-08 3.11418E-19-2.39778E-18
 -1      1179 9.78780E-05-2.93753E-05-2.93854E-05-1.72585E-08-5.35182E-20-1.60087E-18
 -1      1180 9.70268E-05-2.91185E-05-2.91261E-05-1.01980E-08 1.04212E-19-2.52371E-18
 -1      1181 9.63913E-05-2.89262E-05-2.89317E-05-5.19282E-09 2.18407E-19-2.54772E-18
 -1      1182 9.59303E-05-2.87864E-05-2.87901E-05-1.80394E-09 2.69793E-19-2.97059E-18
 -1      1183 9.56063E-05-2.86877E-05-2.86902E-05 3.69351E-10 7.07775E-20-2.67027E-18
 -1      1184 9.53871E-05-2.86207E-05-2.86222E-05 1.66265E-09-3.29655E-19-1.75572E-18
 -1      1185 9.52462E-05-2.85773E-05-2.85782E-05 2.34270E-09 2.60327E-19-1.35384E-18
 -1      1186 9.51623E-05-2.85513E-05-2.85517E-05 2.61379E-09 1.79769E-19-1.55377E-18
 -1      1187 9.51190E-05-2.85376E-05-2.85377E-05 2.62770E-09-1.91409E-19-3.40090E-18
 -1      1188 9.51035E-05-2.85324E-05-2.85323E-05 2.49399E-09 1.17642E-19-3.81457E-18
 -1      1189 9.51067E-05-2.85329E-05-2.85328E-05 2.28919E-09-2.76273E-19-2.00727E-18
 -1      1190 9.51216E-05-2.85371E-05-2.85369E-05 2.06398E-09-2.04902E-19-1.26637E-18
 -1      1191 9.51434E-05-2.85434E-05-2.85432E-05 1.84766E-09 1.21822E-19-1.92858E-18
 -1      1192 9.51683E-05-2.85507E-05-2.85504E-05 1.64811E-09 3.36449E-19 6.54120E-19
 -1      1193 9.51934E-05-2.85580E-05-2.85577E-05 1.44163E-09 3.68048E-20 1.67718E-18
 -1      1194 9.52158E-05-2.85646E-05-2.85641E-05 1.12173E-09 2.64306E-19 1.30896E-18
 -1      1195 9.52319E-05-2.85693E-05-2.85688E-05 4.60672E-10-2.58626E-19 9.30752E-19
 -1      1196 9.52378E-05-2.85714E-05-2.85714E-05-2.99071E-10 3.68726E-19 4.12017E-19
 -1      1197 1.30336E-04-3.74365E-05-3.87312E-05 1.19351E-05-2.71553E-19 2.39287E-17
 -1      1198 9.80547E-05-2.86548E-05-3.17754E-05 7.44982E-07 1.62339E-19 1.95400E-17
 -1      1199 9.33947E-05-2.78585E-05-2.87734E-05 1.11197E-07 1.24898E-19 1.52247E-17
 -1      1200 9.28738E-05-2.78816E-05-2.80599E-05 1.79419E-08 1.11468E-19 1.21551E-17
 -1      1201 9.42351E-05-2.83191E-05-2.83448E-05-1.10047E-08 5.73352E-20 9.94311E-18
 -1      1202 9.67632E-05-2.90717E-05-2.90902E-05-2.43992E-08 8.32028E-20 8.33361E-18
 -1      1203 1.00174E-04-3.00838E-05-3.01177E-05-4.07393E-08 6.73226E-20 7.47570E-18
 -1      1204 1.04325E-04-3.13156E-05-3.13613E-05-6.84504E-08-4.44155E-20 7.16825E-18
 -1      1205 1.09059E-04-3.27165E-05-3.27623E-05-1.13198E-07 4.72328E-20 5.99255E-18
 -1      1206 1.14075E-04-3.41935E-05-3.42152E-05-1.76447E-07 4.82193E-20 4.81808E-18
 -1      1207 1.18782E-04-3.55713E-05-3.55258E-05-2.47964E-07 5.49959E-20 3.44991E-18
 -1      1208 1.22166E-04-3.65579E-05-3.63855E-05-2.93499E-07 1.04764E-19 2.92331E-18
 -1      1209 1.22796E-04-3.67472E-05-3.64003E-05-2.46070E-07-1.48813E-19 3.05453E-18
 -1      1210 1.19191E-04-3.57211E-05-3.52309E-05-2.89770E-08 3.89172E-20 2.51034E-18
 -1      1211 1.10799E-04-3.33075E-05-3.28596E-05 3.60751E-07-1.34400E-20 1.36838E-18
 -1      1212 9.93120E-05-2.99416E-05-2.98484E-05 7.59739E-07 3.21666E-20 2.19487E-19
 -1      1213 8.90393E-05-2.68346E-05-2.73064E-05 8.77539E-07-2.46857E-19 6.85461E-19
 -1      1214 8.50287E-05-2.54965E-05-2.63904E-05 5.41324E-07 1.36558E-19-1.49740E-18
 -1      1215 8.95916E-05-2.67539E-05-2.75701E-05-7.49694E-08-2.10104E-20-4.57535E-18
 -1      1216 1.00346E-04-2.99841E-05-3.02983E-05-5.82875E-07-2.99438E-19-4.37514E-18
 -1      1217 1.12182E-04-3.36133E-05-3.34038E-05-7.44027E-07-9.57412E-20-3.55394E-18
 -1      1218 1.20836E-04-3.62748E-05-3.58142E-05-6.05520E-07-3.37754E-20-2.53655E-18
 -1      1219 1.24728E-04-3.74633E-05-3.70221E-05-3.49188E-07 7.81289E-20-4.02433E-18
 -1      1220 1.24480E-04-3.73795E-05-3.70854E-05-1.20100E-07-2.13115E-20-5.05343E-18
 -1      1221 1.21602E-04-3.64994E-05-3.63581E-05 2.77437E-08 7.28266E-20-1.75521E-18
 -1      1222 1.17525E-04-3.52639E-05-3.52292E-05 1.00122E-07 3.83014E-20-1.15308E-18
 -1      1223 1.13236E-04-3.39709E-05-3.39938E-05 1.22186E-07-4.83328E-20-1.00995E-18
 -1      1224 1.09281E-04-3.27828E-05-3.28289E-05 1.17215E-07 2.61695E-19-3.16587E-18
 -1      1225 1.05896E-04-3.17678E-05-3.18180E-05 1.00727E-07-6.24389E-20-3.07457E-18
 -1      1226 1.03133E-04-3.09401E-05-3.09857E-05 8.13216E-08-2.04704E-19-6.21907E-19
 -1      1227 1.00952E-04-3.02867E-05-3.03247E-05 6.30754E-08 2.56012E-20-2.59589E-19
 -1      1228 9.92730E-05-2.97836E-05-2.98137E-05 4.75361E-08 1.20528E-19-1.83688E-18
 -1      1229 9.80078E-05-2.94043E-05-2.94275E-05 3.49999E-08-1.84261E-19 1.14533E-18
 -1      1230 9.70732E-05-2.91240E-05-2.91415E-05 2.52222E-08-2.70273E-20 3.05345E-19
 -1      1231 9.63968E-05-2.89210E-05-2.89339E-05 1.77743E-08 6.51487E-20-2.38987E-18
 -1      1232 9.59184E-05-2.87772E-05-2.87866E-05 1.22071E-08-1.77157E-20-3.48026E-18
 -1      1233 9.55890E-05-2.86782E-05-2.86849E-05 8.11635E-09 4.54411E-19-3.76441E-18
 -1      1234 9.53702E-05-2.86123E-05-2.86170E-05 5.16244E-09-1.50816E-21-3.54564E-18
 -1      1235 9.52320E-05-2.85706E-05-2.85738E-05 3.06990E-09 1.98488E-19-3.71612E-18
 -1      1236 9.51513E-05-2.85462E-05-2.85484E-05 1.61983E-09 8.04438E-20-4.79702E-18
 -1      1237 9.51109E-05-2.85339E-05-2.85353E-05 6.40336E-10 1.22846E-19-5.10622E-18
 -1      1238 9.50979E-05-2.85299E-05-2.85307E-05-2.60921E-12-2.14030E-19-4.37550E-18
 -1      1239 9.51029E-05-2.85313E-05-2.85317E-05-4.13164E-10 2.43090E-19-5.58513E-18
 -1      1240 9.51191E-05-2.85360E-05-2.85362E-05-6.72471E-10-1.28603E-19-7.44788E-18
 -1      1241 9.51418E-05-2.85427E-05-2.85428E-05-8.44263E-10 5.03419E-19-9.69066E-18
 -1      1242 9.51674E-05-2.85503E-05-2.85503E-05-9.77235E-10-1.86551E-19-1.03382E-17
 -1      1243 9.51929E-05-2.85579E-05-2.85577E-05-1.10091E-09 2.62097E-19-9.41492E-18
 -1      1244 9.52156E-05-2.85646E-05-2.85641E-05-1.18554E-09 9.42784E-20-8.45904E-18
 -1      1245 9.52319E-05-2.85694E-05-2.85688E-05-9.78990E-10 6.29119E-19-1.07714E-17
 -1      1246 9.52378E-05-2.85714E-05-2.85714E-05 2.43629E-10 8.34389E-20-7.55239E-18
 -1      1247 9.52368E-05-2.85705E-05-2.85714E-05 1.61517E-10-7.99045E-18-4.53281E-19
 -1      1248 9.52390E-05-2.85766E-05-2.85688E-05-3.91569E-10-5.52856E-18 8.36552E-19
 -1      1249 9.52434E-05-2.85918E-05-2.85645E-05-1.03739E-09 1.41545E-18-8.67175E-20
 -1      1250 9.52491E-05-2.86110E-05-2.85592E-05-1.09492E-09 2.82988E-18 1.37958E-19
 -1      1251 9.52547E-05-2.86300E-05-2.85538E-05-9.33794E-10 2.09212E-18-9.53451E-19
 -1      1252 9.52595E-05-2.86461E-05-2.85491E-05-6.93904E-10 7.73718E-19-2.21691E-19
 -1      1253 9.52631E-05-2.86581E-05-2.85455E-05-4.60124E-10 1.50229E-18 8.26198E-19
 -1      1254 9.52653E-05-2.86655E-05-2.85433E-05-2.20846E-10 5.01225E-19-2.96152E-19
 -1      1255 9.52660E-05-2.86678E-05-2.85426E-05 8.31807E-12-2.28364E-18 8.10739E-19
 -1      1256 9.52652E-05-2.86652E-05-2.85434E-05 2.35849E-10-1.63220E-18-1.81780E-19
 -1      1257 9.52629E-05-2.86575E-05-2.85457E-05 4.70312E-10-8.14322E-19-7.18447E-19
 -1      1258 9.52593E-05-2.86454E-05-2.85493E-05 7.10347E-10-4.26825E-18 8.08805E-19
 -1      1259 9.52545E-05-2.86292E-05-2.85540E-05 9.30922E-10-4.43319E-18 2.67121E-19
 -1      1260 9.52489E-05-2.86103E-05-2.85594E-05 1.10041E-09-3.64685E-18 7.75094E-19
 -1      1261 9.52432E-05-2.85911E-05-2.85647E-05 1.21716E-09-3.58714E-18 4.10112E-19
 -1      1262 9.52392E-05-2.85767E-05-2.85688E-05 3.55842E-10-1.31717E-18-1.63974E-19
 -1      1263 9.52368E-05-2.85705E-05-2.85714E-05-1.18895E-10-2.49792E-19 1.96793E-19
 -1      1264 3.34892E-05-1.06717E-04 1.82966E-05-1.45480E-05 7.79270E-20 1.57090E-18
 -1      1265 1.76631E-05-6.76436E-05 1.01025E-05-2.64360E-05 1.49899E-17 6.68076E-18
 -1      1266 8.00582E-06-1.18533E-05-5.30044E-06-1.93365E-06 2.55245E-17 1.64841E-17
 -1      1267 3.34346E-05 2.25182E-05-2.53622E-05 5.04318E-05 2.53110E-17 2.42472E-17
 -1      1268 1.10682E-04 1.06892E-05-4.69150E-05 1.00051E-04 1.77089E-17 2.55685E-17
 -1      1269 2.17582E-04-3.87551E-05-6.56035E-05 1.07354E-04 8.64016E-18 2.03796E-17
 -1      1270 2.97013E-04-8.42126E-05-7.65591E-05 5.61175E-05 2.17264E-18 7.74188E-18
 -1      1271 3.14719E-04-9.47735E-05-7.85940E-05-2.51941E-05 8.50739E-19-4.34380E-18
 -1      1272 2.54335E-04-5.78619E-05-7.10722E-05-9.25946E-05 5.70328E-18-1.59344E-17
 -1      1273 1.52555E-04-5.34750E-06-5.49716E-05-1.09135E-04 1.33459E-17-2.29817E-17
 -1      1274 6.07241E-05 2.38190E-05-3.46232E-05-7.51772E-05 2.10513E-17-2.38118E-17
 -1      1275 1.27679E-05 5.78455E-06-1.27989E-05-1.64487E-05 2.29139E-17-1.72278E-17
 -1      1276 1.21402E-05-4.77875E-05 5.41413E-06 2.29263E-05 1.86508E-17-8.60670E-18
 -1      1277 2.97751E-05-9.78245E-05 1.64208E-05 2.20237E-05 1.08640E-17-2.99447E-18
 -1      1278 3.76713E-05-1.14416E-04 1.93844E-05-3.82858E-06-2.20462E-18-9.86264E-19
 -1      1279 2.47475E-05-8.51349E-05 1.39010E-05-2.44183E-05-1.47121E-17-4.72348E-18
 -1      1280 9.30724E-06-3.11806E-05 1.04918E-06-1.46433E-05-2.41709E-17-1.26441E-17
 -1      1281 2.11623E-05 1.57649E-05-1.86016E-05 3.34082E-05-2.45656E-17-1.98053E-17
 -1      1282 8.20583E-05 2.06192E-05-4.02925E-05 8.98625E-05-1.97952E-17-2.52534E-17
 -1      1283 1.77896E-04-1.77366E-05-5.94760E-05 1.09829E-04-1.21613E-17-2.45369E-17
 -1      1284 2.70567E-04-6.95013E-05-7.27188E-05 8.08401E-05-4.96330E-18-1.86474E-17
 -1      1285 3.07955E-04-9.25072E-05-7.76940E-05 7.56235E-06-1.28733E-18-5.69852E-18
 -1      1286 2.81277E-04-7.64200E-05-7.41922E-05-6.87201E-05-2.39636E-18 8.68039E-18
 -1      1287 2.01039E-04-3.03206E-05-6.31240E-05-1.10110E-04-8.02648E-18 1.79723E-17
 -1      1288 1.03410E-04 1.41347E-05-4.54890E-05-9.80126E-05-1.65578E-17 2.27801E-17
 -1      1289 3.18580E-05 2.42431E-05-2.48301E-05-5.01802E-05-2.52467E-17 2.29122E-17
 -1      1290 7.42997E-06-1.00136E-05-5.44976E-06 1.31677E-06-2.64444E-17 1.63765E-17
 -1      1291 1.78898E-05-6.60397E-05 9.97497E-06 2.42063E-05-1.72032E-17 7.03143E-18
 -1      1292 3.48182E-05-1.08218E-04 1.82547E-05 1.27815E-05-9.65872E-18 1.51156E-18
 -1      1293 1.05182E-04-2.22085E-05-3.80854E-05-1.64378E-05-5.51207E-19 1.13515E-17
 -1      1294 9.16967E-05-7.05583E-06-3.64235E-05-1.86820E-05-1.66601E-18 4.57927E-19
 -1      1295 9.39943E-05-7.18069E-06-3.75569E-05-2.41287E-05-2.07311E-18 2.98632E-18
 -1      1296 8.70640E-05-4.32459E-06-3.55211E-05-1.42914E-05-1.69272E-18-3.11070E-18
 -1      1297 8.84622E-05-4.34157E-06-3.60162E-05-1.68466E-05-1.91916E-18-1.55121E-18
 -1      1298 9.36438E-05-1.09505E-05-3.55152E-05-1.70546E-05-2.91697E-18 4.38604E-19
 -1      1299 8.47263E-05-3.23272E-06-3.49425E-05-1.05611E-05-1.36677E-18-4.92450E-18
 -1      1300 8.55970E-05-3.21747E-06-3.52464E-05-1.24045E-05-1.57694E-18-4.09210E-18
 -1      1301 8.89631E-05-7.59835E-06-3.49442E-05-1.32016E-05-2.66552E-18-2.52874E-18
 -1      1302 8.31514E-05-2.57216E-06-3.45351E-05-7.54159E-06-1.02433E-18-5.90680E-18
 -1      1303 8.37733E-05-2.56798E-06-3.47458E-05-9.00412E-06-1.15578E-18-5.46612E-18
 -1      1304 8.62709E-05-5.84957E-06-3.45288E-05-9.71431E-06-2.05089E-18-4.09683E-18
 -1      1305 8.20176E-05-2.12224E-06-3.42368E-05-5.09649E-06-6.93561E-19-6.33978E-18
 -1      1306 8.24719E-05-2.12268E-06-3.43880E-05-6.28282E-06-8.13575E-19-6.11674E-18
 -1      1307 8.44467E-05-4.73733E-06-3.42131E-05-6.88316E-06-1.52115E-18-4.85255E-18
 -1      1308 8.12026E-05-1.80491E-06-3.40213E-05-2.99418E-06-3.82316E-19-6.54629E-18
 -1      1309 8.15208E-05-1.80766E-06-3.41263E-05-4.02086E-06-4.95594E-19-6.47951E-18
 -1      1310 8.31353E-05-3.97370E-06-3.39712E-05-4.53576E-06-9.71457E-19-5.31987E-18
 -1      1311 8.07238E-05-1.60872E-06-3.38969E-05-1.14789E-06-1.06690E-19-6.54422E-18
 -1      1312 8.08925E-05-1.61099E-06-3.39518E-05-2.06295E-06-1.90053E-19-6.53993E-18
 -1      1313 8.22386E-05-3.46610E-06-3.38005E-05-2.51512E-06-4.93479E-19-5.44322E-18
 -1      1314 8.05980E-05-1.53280E-06-3.38700E-05 5.76322E-07 2.26664E-19-6.49073E-18
 -1      1315 8.06080E-05-1.53349E-06-3.38721E-05-2.95221E-07 1.30776E-19-6.51301E-18
 -1      1316 8.17649E-05-3.19789E-06-3.37105E-05-7.14021E-07 2.84360E-20-5.47562E-18
 -1      1317 8.08388E-05-1.58118E-06-3.39443E-05 2.31755E-06 5.24538E-19-6.36543E-18
 -1      1318 8.06854E-05-1.58000E-06-3.38922E-05 1.41888E-06 4.24135E-19-6.43853E-18
 -1      1319 8.17311E-05-3.16938E-06-3.37080E-05 9.99525E-07 5.29761E-19-5.38071E-18
 -1      1320 8.14497E-05-1.76065E-06-3.41187E-05 4.22198E-06 7.99573E-19-6.07736E-18
 -1      1321 8.11336E-05-1.75731E-06-3.40132E-05 3.22176E-06 6.88042E-19-6.28068E-18
 -1      1322 8.21518E-05-3.39057E-06-3.37951E-05 2.76322E-06 1.00578E-18-5.25090E-18
 -1      1323 8.24096E-05-2.07126E-06-3.43850E-05 6.40273E-06 1.12115E-18-5.54552E-18
 -1      1324 8.19429E-05-2.07054E-06-3.42296E-05 5.24450E-06 9.96375E-19-5.86525E-18
 -1      1325 8.30265E-05-3.87380E-06-3.39662E-05 4.70326E-06 1.47478E-18-4.93905E-18
 -1      1326 8.37775E-05-2.54362E-06-3.47580E-05 9.10405E-06 1.52752E-18-4.63547E-18
 -1      1327 8.31282E-05-2.54717E-06-3.45397E-05 7.65495E-06 1.33115E-18-5.18033E-18
 -1      1328 8.43738E-05-4.65581E-06-3.42156E-05 6.98542E-06 2.01606E-18-4.34226E-18
 -1      1329 8.56751E-05-3.23046E-06-3.52735E-05 1.25060E-05 1.84190E-18-3.02494E-18
 -1      1330 8.47737E-05-3.24876E-06-3.49612E-05 1.06556E-05 1.67458E-18-4.02229E-18
 -1      1331 8.62967E-05-5.83776E-06-3.45451E-05 9.79990E-06 2.60351E-18-3.30676E-18
 -1      1332 8.86260E-05-4.34642E-06-3.60603E-05 1.69703E-05 2.10583E-18-5.59306E-20
 -1      1333 8.71853E-05-4.38299E-06-3.55510E-05 1.44358E-05 1.86681E-18-1.82570E-18
 -1      1334 8.91058E-05-7.68359E-06-3.49701E-05 1.33145E-05 2.98411E-18-1.41492E-18
 -1      1335 9.47963E-05-7.23238E-06-3.74623E-05 2.34349E-05 1.73314E-18 5.55161E-18
 -1      1336 9.15962E-05-6.84330E-06-3.64659E-05 1.92425E-05 1.72959E-18 2.13659E-18
 -1      1337 9.39375E-05-1.11846E-05-3.55249E-05 1.75666E-05 3.08537E-18 1.88317E-18
 -1      1338 1.23719E-04-2.50630E-05-3.91420E-05 2.73118E-05 8.01823E-19 1.59373E-17
 -1      1339 1.01176E-04-1.48082E-05-3.76294E-05 2.27044E-05 8.31892E-19 8.75207E-18
 -1      1340 1.03186E-04-1.99112E-05-3.57810E-05 1.96718E-05 2.80361E-18 6.96261E-18
 -1      1341 1.03685E-04-2.81998E-05-3.50252E-05 6.53035E-06 1.46275E-18 1.54482E-17
 -1      1342 1.06441E-04-3.06640E-05-3.38810E-05-7.11917E-06-1.67353E-18 1.18465E-17
 -1      1343 1.00258E-04-2.84944E-05-3.13166E-05-4.27290E-06-1.56818E-18 9.91230E-18
 -1      1344 9.79338E-05-2.85859E-05-2.99715E-05-1.78431E-06-1.24726E-18 9.05707E-18
 -1      1345 9.63711E-05-2.84886E-05-2.91365E-05-1.34774E-06-1.20882E-18 7.26881E-18
 -1      1346 1.01674E-04-2.87553E-05-3.16163E-05-6.50467E-06-2.73105E-18 5.34160E-18
 -1      1347 9.52169E-05-2.82751E-05-2.86759E-05-1.06340E-07-9.65532E-19 6.58536E-18
 -1      1348 9.51985E-05-2.83848E-05-2.85848E-05 1.99169E-08-8.25341E-19 5.29303E-18
 -1      1349 9.78715E-05-2.87065E-05-2.97707E-05-1.71556E-06-2.09154E-18 4.12242E-18
 -1      1350 9.50540E-05-2.83729E-05-2.85321E-05 6.56022E-07-5.68343E-19 4.70458E-18
 -1      1351 9.57708E-05-2.86375E-05-2.87322E-05 7.39015E-07-6.03213E-19 3.90280E-18
 -1      1352 9.67799E-05-2.87342E-05-2.91994E-05 4.96930E-07-1.47981E-18 2.93211E-18
 -1      1353 9.62028E-05-2.87703E-05-2.88719E-05 1.11187E-06-4.26805E-19 3.53211E-18
 -1      1354 9.73250E-05-2.91394E-05-2.92011E-05 1.16803E-06-4.31854E-19 2.92560E-18
 -1      1355 9.70887E-05-2.89563E-05-2.92207E-05 1.70646E-06-9.70455E-19 1.87855E-18
 -1      1356 9.81064E-05-2.93729E-05-2.94451E-05 1.39276E-06-3.99916E-19 2.81229E-18
 -1      1357 9.94648E-05-2.98112E-05-2.98414E-05 1.42697E-06-3.21848E-19 2.24321E-18
 -1      1358 9.82796E-05-2.93814E-05-2.95442E-05 2.43387E-06-7.46716E-19 1.36445E-18
 -1      1359 1.00445E-04-3.01079E-05-3.01409E-05 1.52795E-06-2.39701E-19 1.98579E-18
 -1      1360 1.01901E-04-3.05787E-05-3.05624E-05 1.53664E-06-2.80041E-19 1.46317E-18
 -1      1361 1.00011E-04-2.99609E-05-3.00318E-05 2.83645E-06-6.78361E-19 1.02337E-18
 -1      1362 1.02949E-04-3.09041E-05-3.08757E-05 1.49614E-06-3.25856E-19 1.31401E-18
 -1      1363 1.04338E-04-3.13606E-05-3.12743E-05 1.46930E-06-4.83460E-19 6.96843E-19
 -1      1364 1.02017E-04-3.06382E-05-3.05924E-05 2.92254E-06-6.13950E-19 5.21597E-19
 -1      1365 1.05309E-04-3.16753E-05-3.15551E-05 1.24581E-06-3.32406E-19 6.50468E-19
 -1      1366 1.06416E-04-3.20514E-05-3.18677E-05 1.16909E-06-3.32350E-19 3.06494E-19
 -1      1367 1.04034E-04-3.13467E-05-3.11408E-05 2.62161E-06-6.87139E-19 4.93357E-19
 -1      1368 1.07136E-04-3.23054E-05-3.20622E-05 7.16633E-07-4.45026E-19 1.20411E-19
 -1      1369 1.07688E-04-3.25120E-05-3.22110E-05 5.76527E-07-3.24146E-19-4.35789E-19
 -1      1370 1.05755E-04-3.19965E-05-3.15833E-05 1.82751E-06-6.65454E-19 3.06414E-19
 -1      1371 1.07964E-04-3.26423E-05-3.22628E-05-1.22036E-07-1.41064E-19-6.46711E-19
 -1      1372 1.07669E-04-3.25757E-05-3.21684E-05-3.27516E-07-3.83236E-19-9.05664E-19
 -1      1373 1.06819E-04-3.24613E-05-3.18204E-05 4.59610E-07-4.32245E-19-6.30229E-20
 -1      1374 1.07322E-04-3.25127E-05-3.20325E-05-1.20995E-06-3.62583E-19-7.80038E-19
 -1      1375 1.05968E-04-3.20852E-05-3.16433E-05-1.45471E-06-1.91284E-19-1.24972E-18
 -1      1376 1.06843E-04-3.25777E-05-3.17636E-05-1.43778E-06-5.06062E-19-6.88995E-19
 -1      1377 1.04909E-04-3.17754E-05-3.13102E-05-2.32858E-06 4.52286E-19-1.07240E-18
 -1      1378 1.02521E-04-3.09722E-05-3.06441E-05-2.54420E-06 2.44055E-19-5.57692E-19
 -1      1379 1.05534E-04-3.21775E-05-3.13692E-05-3.57054E-06 2.08959E-19-4.02632E-19
 -1      1380 1.00857E-04-3.04226E-05-3.01631E-05-3.08657E-06-6.35275E-20-6.95891E-19
 -1      1381 9.78439E-05-2.93681E-05-2.93417E-05-3.17045E-06-3.14203E-19-6.78791E-19
 -1      1382 1.02874E-04-3.11771E-05-3.06774E-05-5.32135E-06 7.34603E-20-3.41870E-19
 -1      1383 9.59561E-05-2.86962E-05-2.88283E-05-3.04135E-06-4.35564E-19-1.37193E-19
 -1      1384 9.31243E-05-2.76753E-05-2.80705E-05-2.90645E-06-2.67444E-19-5.56024E-19
 -1      1385 9.93237E-05-2.97088E-05-2.98349E-05-5.87164E-06-3.22126E-19-5.05771E-19
 -1      1386 9.16177E-05-2.71109E-05-2.76796E-05-1.96897E-06 6.99861E-20-7.96423E-19
 -1      1387 8.99212E-05-2.64862E-05-2.72320E-05-1.61793E-06-1.83482E-19-1.03484E-18
 -1      1388 9.58809E-05-2.81965E-05-2.90734E-05-4.60791E-06-2.72599E-19-2.97097E-19
 -1      1389 8.93865E-05-2.62776E-05-2.70986E-05-1.19953E-07-5.38872E-19-1.30542E-18
 -1      1390 8.94806E-05-2.63077E-05-2.71255E-05 3.20690E-07-5.67889E-19-1.97919E-18
 -1      1391 9.37907E-05-2.72410E-05-2.86356E-05-1.63909E-06-5.82388E-19-1.28404E-18
 -1      1392 9.01622E-05-2.65613E-05-2.73029E-05 1.81212E-06-6.19194E-19-2.36519E-18
 -1      1393 9.20391E-05-2.72422E-05-2.78030E-05 2.15938E-06-6.60136E-19-3.19977E-18
 -1      1394 9.39359E-05-2.72879E-05-2.86772E-05 2.02424E-06-1.02373E-18-2.10186E-18
 -1      1395 9.36841E-05-2.78463E-05-2.82368E-05 3.08615E-06-1.53928E-19-3.55304E-18
 -1      1396 9.66839E-05-2.89175E-05-2.90445E-05 3.21823E-06-1.35128E-19-3.91650E-18
 -1      1397 9.63058E-05-2.83307E-05-2.91974E-05 4.96986E-06-7.87655E-19-2.60909E-18
 -1      1398 9.87050E-05-2.96262E-05-2.96001E-05 3.34435E-06 1.46389E-19-4.27889E-18
 -1      1399 1.01883E-04-3.07289E-05-3.04709E-05 3.26096E-06-1.80608E-19-4.19612E-18
 -1      1400 1.00013E-04-2.99172E-05-3.00405E-05 6.21619E-06-3.45795E-20-3.17852E-18
 -1      1401 1.03683E-04-3.13155E-05-3.09957E-05 2.72930E-06-1.75356E-19-3.56042E-18
 -1      1402 1.06249E-04-3.21709E-05-3.17151E-05 2.51831E-06 5.50121E-19-3.17918E-18
 -1      1403 1.03823E-04-3.14557E-05-3.09657E-05 5.67458E-06 1.28378E-21-3.38877E-18
 -1      1404 1.07459E-04-3.25222E-05-3.20960E-05 1.66912E-06 6.65536E-19-2.96377E-18
 -1      1405 1.09020E-04-3.30121E-05-3.25469E-05 1.43234E-06 4.78137E-19-2.24662E-18
 -1      1406 1.06760E-04-3.25306E-05-3.17452E-05 3.96630E-06 8.64966E-19-2.41407E-18
 -1      1407 1.09539E-04-3.31237E-05-3.27369E-05 5.83590E-07 4.32258E-19-2.20070E-18
 -1      1408 1.10084E-04-3.32669E-05-3.29046E-05 3.87705E-07 2.93656E-19-2.12242E-18
 -1      1409 1.08381E-04-3.30181E-05-3.22362E-05 1.90373E-06 4.35428E-19-1.84476E-18
 -1      1410 1.10003E-04-3.31926E-05-3.29139E-05-2.75320E-07 5.65064E-20-1.65713E-18
 -1      1411 1.09746E-04-3.30783E-05-3.28513E-05-4.05968E-07 1.60546E-19-1.26431E-18
 -1      1412 1.08712E-04-3.30063E-05-3.24005E-05 8.88846E-08 3.45947E-19-1.71319E-18
 -1      1413 1.09239E-04-3.28857E-05-3.27234E-05-8.28513E-07 8.88409E-20-1.35349E-18
 -1      1414 1.08468E-04-3.26161E-05-3.25083E-05-8.97469E-07-3.67362E-19-1.32882E-18
 -1      1415 1.08044E-04-3.26617E-05-3.22804E-05-1.20181E-06 6.04570E-20-1.75887E-18
 -1      1416 1.07713E-04-3.23640E-05-3.22956E-05-1.10498E-06-4.92012E-19-1.14973E-18
 -1      1417 1.06687E-04-3.20247E-05-3.20021E-05-1.12750E-06-1.30078E-19-1.48294E-18
 -1      1418 1.06736E-04-3.21416E-05-3.19583E-05-1.94307E-06-7.24855E-19-1.63101E-18
 -1      1419 1.05834E-04-3.17558E-05-3.17509E-05-1.17681E-06-4.05395E-19-1.77239E-18
 -1      1420 1.04744E-04-3.14059E-05-3.14351E-05-1.16953E-06-6.25757E-19-2.33776E-18
 -1      1421 1.05113E-04-3.15618E-05-3.15216E-05-2.23869E-06-7.67853E-19-1.74466E-18
 -1      1422 1.03895E-04-3.11477E-05-3.11797E-05-1.11879E-06-2.15574E-19-2.46142E-18
 -1      1423 1.02862E-04-3.08228E-05-3.08780E-05-1.09523E-06-2.93875E-19-2.98783E-18
 -1      1424 1.03416E-04-3.09952E-05-3.10436E-05-2.22802E-06-7.23411E-19-1.59684E-18
 -1      1425 1.02082E-04-3.05905E-05-3.06400E-05-9.91048E-07-1.30944E-19-2.85356E-18
 -1      1426 1.01170E-04-3.03081E-05-3.03722E-05-9.60609E-07 2.30357E-19-2.37748E-18
 -1      1427 1.01804E-04-3.04816E-05-3.05759E-05-2.03633E-06-3.26322E-19-1.72916E-18
 -1      1428 1.00490E-04-3.01087E-05-3.01632E-05-8.35405E-07-2.60723E-19-2.22588E-18
 -1      1429 9.97242E-05-2.98744E-05-2.99373E-05-8.03948E-07-3.03644E-19-2.16862E-18
 -1      1430 1.00366E-04-3.00389E-05-3.01501E-05-1.75751E-06 9.42572E-20-2.17410E-18
 -1      1431 9.91551E-05-2.97094E-05-2.97616E-05-6.77932E-07 4.44295E-20-1.80991E-18
 -1      1432 9.85364E-05-2.95219E-05-2.95784E-05-6.48712E-07 3.45080E-19-1.49647E-18
 -1      1433 9.91392E-05-2.96712E-05-2.97817E-05-1.45388E-06-2.98938E-19-1.32172E-18
 -1      1434 9.80756E-05-2.93893E-05-2.94357E-05-5.33081E-07-6.50660E-20-1.89931E-18
 -1      1435 9.75915E-05-2.92440E-05-2.92919E-05-5.07632E-07-2.19421E-19-2.14272E-18
 -1      1436 9.81296E-05-2.93748E-05-2.94751E-05-1.16254E-06-3.65804E-20-2.40559E-18
 -1      1437 9.72286E-05-2.91402E-05-2.91793E-05-4.07553E-07-4.19844E-20-1.93760E-18
 -1      1438 9.68605E-05-2.90306E-05-2.90696E-05-3.86352E-07 2.41099E-19-2.13975E-18
 -1      1439 9.73230E-05-2.91420E-05-2.92279E-05-9.02746E-07-1.35251E-19-2.22729E-18
 -1      1440 9.65821E-05-2.89513E-05-2.89832E-05-3.03264E-07 3.04251E-19-2.08570E-18
 -1      1441 9.63099E-05-2.88710E-05-2.89018E-05-2.86191E-07 3.17585E-19-1.99950E-18
 -1      1442 9.66954E-05-2.89635E-05-2.90342E-05-6.82240E-07 2.99812E-19-1.25683E-18
 -1      1443 9.61016E-05-2.88119E-05-2.88371E-05-2.19411E-07-9.45558E-20-2.50297E-18
 -1      1444 9.59060E-05-2.87548E-05-2.87785E-05-2.06043E-07 2.84720E-20-3.01339E-18
 -1      1445 9.62192E-05-2.88298E-05-2.88862E-05-5.01824E-07-3.75656E-20-2.12439E-18
 -1      1446 9.57543E-05-2.87119E-05-2.87313E-05-1.53812E-07 5.78290E-19-3.03323E-18
 -1      1447 9.56185E-05-2.86727E-05-2.86904E-05-1.43603E-07 4.20102E-19-1.77986E-18
 -1      1448 9.58668E-05-2.87322E-05-2.87759E-05-3.58521E-07 3.46842E-19-2.97551E-18
 -1      1449 9.55111E-05-2.86425E-05-2.86570E-05-1.03742E-07 3.39777E-20-1.88815E-18
 -1      1450 9.54206E-05-2.86167E-05-2.86296E-05-9.61297E-08-3.43141E-19-2.01320E-18
 -1      1451 9.56132E-05-2.86629E-05-2.86960E-05-2.47588E-07 1.97159E-19-2.58466E-18
 -1      1452 9.53474E-05-2.85962E-05-2.86068E-05-6.64135E-08 1.80555E-19-1.00373E-18
 -1      1453 9.52904E-05-2.85803E-05-2.85895E-05-6.08711E-08 8.56073E-19-1.02186E-18
 -1      1454 9.54363E-05-2.86154E-05-2.86398E-05-1.63731E-07 2.04422E-19-8.71869E-19
 -1      1455 9.52428E-05-2.85670E-05-2.85747E-05-3.92378E-08-1.85398E-19-1.19614E-18
 -1      1456 9.52101E-05-2.85583E-05-2.85646E-05-3.53045E-08-6.44817E-19-1.77378E-18
 -1      1457 9.53177E-05-2.85842E-05-2.86018E-05-1.01800E-07-8.10279E-20-5.03568E-19
 -1      1458 9.51812E-05-2.85503E-05-2.85556E-05-1.99525E-08-5.90466E-20-2.01906E-18
 -1      1459 9.51656E-05-2.85465E-05-2.85507E-05-1.72408E-08-5.69059E-19-2.55717E-18
 -1      1460 9.52425E-05-2.85649E-05-2.85773E-05-5.71577E-08-5.85295E-19-6.03475E-19
 -1      1461 9.51502E-05-2.85423E-05-2.85459E-05-6.66262E-09-1.33226E-19-2.46911E-18
 -1      1462 9.51464E-05-2.85418E-05-2.85445E-05-4.85851E-09-9.93901E-20-2.01237E-18
 -1      1463 9.51989E-05-2.85544E-05-2.85628E-05-2.58275E-08-6.19401E-19-7.63291E-21
 -1      1464 9.51403E-05-2.85402E-05-2.85426E-05 2.16042E-09 3.15075E-19-1.86414E-18
 -1      1465 9.51441E-05-2.85420E-05-2.85435E-05 3.30261E-09 2.03331E-19-1.29993E-18
 -1      1466 9.51776E-05-2.85498E-05-2.85553E-05-4.53856E-09 3.24673E-19-8.36213E-19
 -1      1467 9.51443E-05-2.85421E-05-2.85436E-05 7.70206E-09-5.12973E-19 1.34366E-19
 -1      1468 9.51528E-05-2.85452E-05-2.85459E-05 8.36605E-09 2.78404E-19-3.35803E-19
 -1      1469 9.51716E-05-2.85494E-05-2.85528E-05 9.30024E-09 5.64838E-19-4.91900E-19
 -1      1470 9.51570E-05-2.85465E-05-2.85472E-05 1.08327E-08 1.03137E-18-6.50961E-19
 -1      1471 9.51680E-05-2.85502E-05-2.85504E-05 1.11455E-08 9.01896E-19 1.13405E-19
 -1      1472 9.51757E-05-2.85516E-05-2.85534E-05 1.76479E-08 9.78323E-19 5.12385E-19
 -1      1473 9.51744E-05-2.85521E-05-2.85524E-05 1.21299E-08 8.48195E-19 1.38208E-19
 -1      1474 9.51864E-05-2.85560E-05-2.85558E-05 1.21641E-08 1.39745E-18 1.46007E-18
 -1      1475 9.51858E-05-2.85554E-05-2.85560E-05 2.18786E-08 1.61461E-18 1.28273E-18
 -1      1476 9.51936E-05-2.85582E-05-2.85580E-05 1.18869E-08 7.90838E-19 1.16225E-18
 -1      1477 9.52050E-05-2.85620E-05-2.85612E-05 1.16538E-08-1.19499E-19 1.69450E-18
 -1      1478 9.51990E-05-2.85600E-05-2.85596E-05 2.28152E-08 1.21728E-18 9.52438E-19
 -1      1479 9.52118E-05-2.85641E-05-2.85632E-05 1.01083E-08-5.91665E-19 1.44655E-18
 -1      1480 9.52212E-05-2.85673E-05-2.85659E-05 9.53759E-09-1.35887E-19 1.05210E-18
 -1      1481 9.52127E-05-2.85648E-05-2.85633E-05 2.07198E-08-5.53453E-19 1.36527E-18
 -1      1482 9.52268E-05-2.85692E-05-2.85674E-05 6.51425E-09-6.90461E-21 5.26931E-19
 -1      1483 9.52326E-05-2.85711E-05-2.85691E-05 5.61513E-09-4.89095E-19 1.16562E-18
 -1      1484 9.52249E-05-2.85695E-05-2.85665E-05 1.54504E-08-4.34834E-20 1.29781E-18
 -1      1485 9.52367E-05-2.85720E-05-2.85705E-05 5.21922E-10-1.11123E-18 1.20221E-18
 -1      1486 9.52351E-05-2.85734E-05-2.85691E-05 5.80299E-09-7.82228E-19 8.87554E-19
 -1      1487 9.88608E-05-2.90651E-05-3.04299E-05 2.33243E-06 1.39123E-18 1.24893E-17
 -1      1488 1.04035E-04-2.98478E-05-3.25983E-05 3.75924E-06 1.16642E-18 1.45621E-17
 -1      1489 1.04045E-04-2.73437E-05-3.31893E-05 1.14490E-05 2.30827E-18 9.55797E-18
 -1      1490 9.56239E-05-2.84979E-05-2.88369E-05 4.75252E-07 9.67219E-19 9.83037E-18
 -1      1491 9.68420E-05-2.84341E-05-2.95261E-05 8.09226E-07 9.81341E-19 1.14194E-17
 -1      1492 9.92585E-05-2.88772E-05-3.03637E-05 3.58970E-06 2.02939E-18 7.66842E-18
 -1      1493 9.52769E-05-2.85015E-05-2.86000E-05-4.56473E-07 7.05426E-19 7.87140E-18
 -1      1494 9.50829E-05-2.82686E-05-2.86244E-05-2.55932E-07 6.97313E-19 9.10195E-18
 -1      1495 9.70448E-05-2.87471E-05-2.93230E-05 4.50526E-07 1.51661E-18 6.02287E-18
 -1      1496 9.65568E-05-2.89103E-05-2.89733E-05-1.02837E-06 5.26732E-19 6.55609E-18
 -1      1497 9.56122E-05-2.85366E-05-2.87046E-05-8.81088E-07 4.93820E-19 7.34843E-18
 -1      1498 9.69521E-05-2.88817E-05-2.91964E-05-1.16062E-06 1.09200E-18 4.82564E-18
 -1      1499 9.89098E-05-2.96214E-05-2.96876E-05-1.45504E-06 4.27944E-19 5.58463E-18
 -1      1500 9.74579E-05-2.91213E-05-2.92560E-05-1.32911E-06 3.66286E-19 6.12018E-18
 -1      1501 9.81972E-05-2.93106E-05-2.95477E-05-2.20658E-06 8.31512E-19 4.07372E-18
 -1      1502 1.02079E-04-3.05772E-05-3.06431E-05-1.80690E-06 6.43216E-20 5.19125E-18
 -1      1503 1.00225E-04-2.99636E-05-3.00931E-05-1.69083E-06 1.58473E-19 5.39188E-18
 -1      1504 1.00378E-04-2.99889E-05-3.01954E-05-3.00101E-06 4.34859E-19 3.56461E-18
 -1      1505 1.05889E-04-3.17337E-05-3.17821E-05-2.08563E-06 3.43720E-19 4.49633E-18
 -1      1506 1.03708E-04-3.10237E-05-3.11399E-05-1.98154E-06 1.73139E-19 4.73317E-18
 -1      1507 1.03262E-04-3.08769E-05-3.10520E-05-3.63478E-06 4.00132E-19 2.95827E-18
 -1      1508 1.10117E-04-3.30341E-05-3.30320E-05-2.23688E-06 2.85990E-19 3.61717E-18
 -1      1509 1.07727E-04-3.22628E-05-3.23357E-05-2.16177E-06 4.35286E-19 4.29124E-18
 -1      1510 1.06660E-04-3.19391E-05-3.20488E-05-4.07467E-06 6.41567E-19 2.32527E-18
 -1      1511 1.14380E-04-3.43757E-05-3.42686E-05-2.14448E-06 4.44517E-19 2.90654E-18
 -1      1512 1.12004E-04-3.36162E-05-3.35894E-05-2.13494E-06 2.50024E-19 3.40033E-18
 -1      1513 1.10323E-04-3.31257E-05-3.30973E-05-4.17635E-06 5.25539E-19 1.97530E-18
 -1      1514 1.18022E-04-3.55710E-05-3.52868E-05-1.63307E-06 1.49534E-19 2.43460E-18
 -1      1515 1.16059E-04-3.49584E-05-3.47463E-05-1.74722E-06 1.72120E-19 2.80896E-18
 -1      1516 1.13863E-04-3.43454E-05-3.40641E-05-3.68324E-06 4.12148E-19 1.70876E-18
 -1      1517 1.20065E-04-3.63163E-05-3.57979E-05-5.14692E-07 1.88538E-19 2.39006E-18
 -1      1518 1.19116E-04-3.60602E-05-3.55694E-05-8.20541E-07 9.73426E-20 2.60427E-18
 -1      1519 1.16679E-04-3.54284E-05-3.47613E-05-2.26731E-06 1.07414E-19 2.06624E-18
 -1      1520 1.19329E-04-3.62025E-05-3.54909E-05 1.26825E-06 1.67633E-19 2.40451E-18
 -1      1521 1.20111E-04-3.65592E-05-3.57602E-05 7.37649E-07-3.40137E-21 2.30744E-18
 -1      1522 1.17957E-04-3.60872E-05-3.49718E-05 3.12841E-07 8.60268E-21 1.85013E-18
 -1      1523 1.14934E-04-3.48510E-05-3.41953E-05 3.38333E-06 1.80696E-19 1.83594E-18
 -1      1524 1.17946E-04-3.60025E-05-3.50579E-05 2.71695E-06 2.41021E-19 2.14622E-18
 -1      1525 1.16842E-04-3.59141E-05-3.45313E-05 3.86261E-06 4.37532E-19 1.87792E-18
 -1      1526 1.07207E-04-3.22526E-05-3.21031E-05 4.90618E-06 1.84577E-19 1.04333E-18
 -1      1527 1.12154E-04-3.40776E-05-3.34261E-05 4.38314E-06 1.75428E-19 1.51762E-18
 -1      1528 1.12904E-04-3.45357E-05-3.34621E-05 7.30893E-06 4.61752E-19 1.34930E-18
 -1      1529 9.85076E-05-2.91772E-05-2.98767E-05 4.62759E-06 1.43929E-20 6.47027E-19
 -1      1530 1.03844E-04-3.10624E-05-3.12368E-05 4.61671E-06 1.98682E-19 8.26810E-19
 -1      1531 1.06885E-04-3.20176E-05-3.20695E-05 8.70875E-06 2.81374E-19 1.10437E-18
 -1      1532 9.27198E-05-2.70716E-05-2.84495E-05 2.05894E-06 5.68941E-19-2.38387E-19
 -1      1533 9.60623E-05-2.81021E-05-2.92696E-05 2.71744E-06 8.72179E-20-1.19273E-19
 -1      1534 1.01090E-04-2.93099E-05-3.08881E-05 6.38505E-06 3.50407E-19 4.11287E-19
 -1      1535 9.30492E-05-2.72143E-05-2.85139E-05-1.72722E-06 7.88521E-19-2.28945E-18
 -1      1536 9.25769E-05-2.67620E-05-2.83908E-05-7.05847E-07 9.01825E-19-8.08744E-19
 -1      1537 9.84959E-05-2.79295E-05-3.04403E-05 6.85663E-07 1.42913E-18-7.99970E-19
 -1      1538 9.94193E-05-2.95468E-05-3.00609E-05-4.58521E-06-5.00676E-20-4.03167E-18
 -1      1539 9.53393E-05-2.78556E-05-2.90430E-05-3.78325E-06 5.40698E-19-3.09813E-18
 -1      1540 1.00698E-04-2.88992E-05-3.09367E-05-5.47368E-06 1.50984E-18-2.23966E-18
 -1      1541 1.08546E-04-3.27469E-05-3.23933E-05-5.17639E-06-5.35935E-19-3.83928E-18
 -1      1542 1.02911E-04-3.07072E-05-3.09431E-05-4.94174E-06-3.63995E-19-4.11340E-18
 -1      1543 1.06490E-04-3.15948E-05-3.21701E-05-8.80042E-06-6.51951E-20-3.48903E-18
 -1      1544 1.16524E-04-3.53721E-05-3.45845E-05-3.82558E-06-4.69018E-19-3.23355E-18
 -1      1545 1.11662E-04-3.38122E-05-3.32706E-05-4.07472E-06-7.22360E-19-3.66670E-18
 -1      1546 1.12944E-04-3.44244E-05-3.36452E-05-8.25457E-06-7.82963E-19-3.43255E-18
 -1      1547 1.21124E-04-3.67425E-05-3.59809E-05-1.73525E-06 8.17519E-20-3.01512E-18
 -1      1548 1.18329E-04-3.59954E-05-3.51722E-05-2.18053E-06-7.59418E-20-3.07129E-18
 -1      1549 1.17578E-04-3.61887E-05-3.48393E-05-5.18437E-06-2.74690E-19-3.84978E-18
 -1      1550 1.22121E-04-3.69113E-05-3.64027E-05 1.00129E-07 4.96494E-19-4.21699E-18
 -1      1551 1.21484E-04-3.68850E-05-3.61741E-05-3.06057E-07 4.25654E-19-3.08959E-18
 -1      1552 1.19444E-04-3.66601E-05-3.54344E-05-1.58624E-06 4.60733E-19-3.16025E-18
 -1      1553 1.20449E-04-3.62695E-05-3.60285E-05 1.27626E-06-5.51978E-19-3.46873E-18
 -1      1554 1.21380E-04-3.67002E-05-3.62526E-05 1.00466E-06-3.40130E-19-4.19442E-18
 -1      1555 1.18848E-04-3.61909E-05-3.53911E-05 1.23037E-06 8.22548E-21-3.47227E-18
 -1      1556 1.17286E-04-3.52197E-05-3.51683E-05 1.82303E-06-4.66115E-19-1.80527E-18
 -1      1557 1.19068E-04-3.58584E-05-3.56560E-05 1.68394E-06-6.82484E-19-2.77991E-18
 -1      1558 1.16621E-04-3.52376E-05-3.48584E-05 2.88453E-06-1.01686E-18-3.44750E-18
 -1      1559 1.13583E-04-3.40516E-05-3.41041E-05 1.93144E-06-4.25000E-19-8.85255E-19
 -1      1560 1.15653E-04-3.47297E-05-3.46934E-05 1.88667E-06-2.36526E-19-1.01981E-18
 -1      1561 1.13591E-04-3.41290E-05-3.40449E-05 3.54815E-06-8.87667E-19-2.01562E-18
 -1      1562 1.09945E-04-3.29351E-05-3.30304E-05 1.79291E-06 4.04987E-19-4.67853E-19
 -1      1563 1.11956E-04-3.35610E-05-3.36147E-05 1.80328E-06 1.70308E-20-2.43522E-19
 -1      1564 1.10368E-04-3.30506E-05-3.31322E-05 3.55901E-06-3.57742E-19-4.83073E-22
 -1      1565 1.06689E-04-3.19519E-05-3.20552E-05 1.54468E-06 1.97950E-19-1.99725E-18
 -1      1566 1.08466E-04-3.24872E-05-3.25781E-05 1.58176E-06 7.34894E-19-7.90573E-19
 -1      1567 1.07325E-04-3.20891E-05-3.22437E-05 3.21888E-06 7.02553E-19 1.91118E-19
 -1      1568 1.03937E-04-3.11295E-05-3.12241E-05 1.26897E-06-1.01306E-18-2.44197E-19
 -1      1569 1.05420E-04-3.15658E-05-3.16640E-05 1.31537E-06-1.23272E-18-1.98825E-18
 -1      1570 1.04648E-04-3.12746E-05-3.14472E-05 2.73526E-06-8.70922E-19 8.61074E-19
 -1      1571 1.01699E-04-3.04655E-05-3.05454E-05 1.00837E-06-2.54035E-19 7.70568E-19
 -1      1572 1.02891E-04-3.08096E-05-3.09005E-05 1.05471E-06-2.00265E-19-2.47962E-19
 -1      1573 1.02401E-04-3.06078E-05-3.07707E-05 2.22965E-06-8.53870E-19 4.11711E-19
 -1      1574 9.99328E-05-2.99434E-05-3.00079E-05 7.81202E-07-2.94096E-20 4.51558E-19
 -1      1575 1.00863E-04-3.02081E-05-3.02860E-05 8.23064E-07-7.22476E-20 7.57932E-19
 -1      1576 1.00576E-04-3.00758E-05-3.02171E-05 1.76352E-06-3.83577E-19 3.63235E-19
 -1      1577 9.85695E-05-2.95419E-05-2.95924E-05 5.92460E-07-4.80790E-19 6.99429E-19
 -1      1578 9.92794E-05-2.97412E-05-2.98051E-05 6.28217E-07-7.07562E-20 5.72389E-19
 -1      1579 9.91332E-05-2.96600E-05-2.97769E-05 1.36203E-06-1.21390E-19 2.04670E-18
 -1      1580 9.75385E-05-2.92391E-05-2.92777E-05 4.40572E-07 8.54807E-19 1.24213E-18
 -1      1581 9.80693E-05-2.93863E-05-2.94371E-05 4.70046E-07-1.68538E-19 9.44867E-19
 -1      1582 9.80163E-05-2.93411E-05-2.94347E-05 1.03052E-06-2.46680E-19 1.63095E-18
 -1      1583 9.67737E-05-2.90150E-05-2.90440E-05 3.21173E-07 1.24613E-18-8.50799E-19
 -1      1584 9.71628E-05-2.91215E-05-2.91611E-05 3.44865E-07 1.38233E-18 6.83510E-19
 -1      1585 9.71684E-05-2.91008E-05-2.91740E-05 7.64655E-07 1.51935E-18 2.28185E-19
 -1      1586 9.62177E-05-2.88525E-05-2.88740E-05 2.29084E-07-3.50538E-19-1.83500E-18
 -1      1587 9.64970E-05-2.89278E-05-2.89582E-05 2.47757E-07 3.07492E-19-1.44284E-18
 -1      1588 9.65367E-05-2.89230E-05-2.89792E-05 5.56104E-07 1.14498E-18-3.84661E-19
 -1      1589 9.58225E-05-2.87373E-05-2.87529E-05 1.59250E-07 2.33832E-20-2.26535E-18
 -1      1590 9.60181E-05-2.87892E-05-2.88120E-05 1.73724E-07-2.57448E-20-2.33611E-18
 -1      1591 9.60754E-05-2.87940E-05-2.88365E-05 3.95499E-07 3.53818E-19-1.78059E-18
 -1      1592 9.55491E-05-2.86579E-05-2.86690E-05 1.07156E-07 5.82889E-19-3.20623E-18
 -1      1593 9.56819E-05-2.86924E-05-2.87093E-05 1.18202E-07 4.12719E-19-2.63448E-18
 -1      1594 9.57459E-05-2.87026E-05-2.87342E-05 2.73875E-07 5.01989E-19-2.42935E-18
 -1      1595 9.53663E-05-2.86050E-05-2.86128E-05 6.89469E-08 9.41782E-20-2.09611E-18
 -1      1596 9.54530E-05-2.86268E-05-2.86392E-05 7.72524E-08-2.77169E-19-2.59700E-18
 -1      1597 9.55166E-05-2.86396E-05-2.86627E-05 1.83274E-07-2.69811E-19-1.77573E-18
 -1      1598 9.52499E-05-2.85716E-05-2.85769E-05 4.14337E-08 3.74240E-19-3.16747E-18
 -1      1599 9.53032E-05-2.85844E-05-2.85932E-05 4.75839E-08 4.15572E-19-2.80495E-18
 -1      1600 9.53624E-05-2.85978E-05-2.86143E-05 1.16928E-07 9.26154E-19-2.74908E-18
 -1      1601 9.51812E-05-2.85521E-05-2.85555E-05 2.20322E-08 7.87203E-20-2.78380E-18
 -1      1602 9.52108E-05-2.85585E-05-2.85647E-05 2.65151E-08 9.01666E-20-2.40679E-18
 -1      1603 9.52634E-05-2.85714E-05-2.85830E-05 6.92446E-08 6.31608E-20-2.40544E-18
 -1      1604 9.51461E-05-2.85424E-05-2.85445E-05 8.68753E-09-2.18427E-19-3.05962E-18
 -1      1605 9.51593E-05-2.85445E-05-2.85487E-05 1.19010E-08 1.56760E-20-2.85464E-18
 -1      1606 9.52042E-05-2.85561E-05-2.85640E-05 3.56999E-08 8.12190E-20-6.25959E-21
 -1      1607 9.51340E-05-2.85393E-05-2.85405E-05-2.04098E-10-8.74859E-20-2.88800E-18
 -1      1608 9.51362E-05-2.85386E-05-2.85414E-05 2.05775E-09-1.88860E-19-3.19941E-18
 -1      1609 9.51733E-05-2.85486E-05-2.85539E-05 1.27042E-08-1.45401E-19-9.73995E-19
 -1      1610 9.51371E-05-2.85406E-05-2.85412E-05-5.86505E-09 1.00652E-19-3.71140E-18
 -1      1611 9.51321E-05-2.85381E-05-2.85399E-05-4.30765E-09 5.49307E-19-2.76005E-18
 -1      1612 9.51618E-05-2.85464E-05-2.85498E-05-2.53195E-09 6.31288E-19-3.97069E-19
 -1      1613 9.51498E-05-2.85447E-05-2.85449E-05-9.19476E-09 1.14832E-18-5.11524E-18
 -1      1614 9.51405E-05-2.85412E-05-2.85423E-05-8.15723E-09 6.56737E-19-3.75462E-18
 -1      1615 9.51631E-05-2.85478E-05-2.85497E-05-1.21171E-08 9.07644E-19-2.83036E-19
 -1      1616 9.51678E-05-2.85503E-05-2.85502E-05-1.08114E-08-9.30529E-20-7.13689E-18
 -1      1617 9.51562E-05-2.85463E-05-2.85469E-05-1.01679E-08 5.49417E-19-6.28742E-18
 -1      1618 9.51726E-05-2.85513E-05-2.85522E-05-1.75766E-08 1.47490E-18-2.66461E-18
 -1      1619 9.51880E-05-2.85566E-05-2.85561E-05-1.10705E-08-2.93599E-19-6.32401E-18
 -1      1620 9.51757E-05-2.85525E-05-2.85526E-05-1.07564E-08-6.36469E-19-7.28804E-18
 -1      1621 9.51864E-05-2.85559E-05-2.85561E-05-1.99143E-08-3.76408E-19-4.41010E-18
 -1      1622 9.52076E-05-2.85627E-05-2.85619E-05-1.00646E-08 2.99479E-19-6.30328E-18
 -1      1623 9.51960E-05-2.85590E-05-2.85586E-05-1.00859E-08 2.62555E-19-6.20731E-18
 -1      1624 9.52019E-05-2.85610E-05-2.85604E-05-1.96400E-08-8.06652E-20-3.58509E-18
 -1      1625 9.52240E-05-2.85679E-05-2.85666E-05-7.59747E-09 2.73222E-19-6.62627E-18
 -1      1626 9.52147E-05-2.85650E-05-2.85640E-05-8.07230E-09 3.96624E-19-5.79733E-18
 -1      1627 9.52166E-05-2.85660E-05-2.85645E-05-1.67777E-08 4.55287E-19-2.48120E-18
 -1      1628 9.52342E-05-2.85713E-05-2.85697E-05-3.57150E-09 3.43997E-19-6.98367E-18
 -1      1629 9.52291E-05-2.85699E-05-2.85681E-05-4.50428E-09 1.32242E-19-7.17960E-18
 -1      1630 9.52286E-05-2.85704E-05-2.85677E-05-1.10227E-08 1.01252E-18-3.08939E-18
 -1      1631 9.52367E-05-2.85720E-05-2.85704E-05-7.08987E-10-3.72283E-18-3.79498E-18
 -1      1632 9.52393E-05-2.85816E-05-2.85675E-05-6.59228E-09-1.03976E-18 2.22008E-18
 -1      1633 9.52374E-05-2.85762E-05-2.85691E-05-5.51332E-09-4.73887E-18 3.09769E-18
 -1      1634 9.52442E-05-2.85955E-05-2.85637E-05-9.28469E-09 1.51942E-18 1.67839E-18
 -1      1635 9.52412E-05-2.85870E-05-2.85660E-05-8.94241E-09-1.89046E-19 6.17041E-19
 -1      1636 9.52393E-05-2.85839E-05-2.85665E-05-1.48346E-08-8.02095E-19 2.38532E-18
 -1      1637 9.52493E-05-2.86109E-05-2.85593E-05-9.83351E-09 2.22180E-18 2.08424E-20
 -1      1638 9.52462E-05-2.86017E-05-2.85619E-05-9.89871E-09 1.81505E-18 8.51316E-19
 -1      1639 9.52440E-05-2.85955E-05-2.85636E-05-1.83161E-08 1.39956E-18 1.55602E-18
 -1      1640 9.52539E-05-2.86255E-05-2.85551E-05-8.87688E-09 1.42544E-18-9.72545E-19
 -1      1641 9.52512E-05-2.86170E-05-2.85575E-05-9.18397E-09 9.45030E-19 3.24429E-19
 -1      1642 9.52485E-05-2.86076E-05-2.85604E-05-1.82000E-08 1.04422E-18-9.02609E-19
 -1      1643 9.52577E-05-2.86375E-05-2.85516E-05-7.05415E-09 1.14596E-19 5.57442E-20
 -1      1644 9.52555E-05-2.86307E-05-2.85535E-05-7.47171E-09 1.42814E-18-1.52955E-18
 -1      1645 9.52523E-05-2.86187E-05-2.85574E-05-1.56781E-08 6.03313E-19-2.09558E-18
 -1      1646 9.52603E-05-2.86462E-05-2.85490E-05-4.74068E-09 1.58969E-18-2.15131E-20
 -1      1647 9.52588E-05-2.86414E-05-2.85503E-05-5.21930E-09 7.07636E-19 1.24473E-18
 -1      1648 9.52552E-05-2.86276E-05-2.85548E-05-1.17895E-08 8.80861E-19 3.95292E-19
 -1      1649 9.52618E-05-2.86510E-05-2.85475E-05-2.23090E-09-3.84745E-19-1.29750E-18
 -1      1650 9.52610E-05-2.86486E-05-2.85482E-05-2.72437E-09 1.61120E-18-1.20237E-18
 -1      1651 9.52571E-05-2.86338E-05-2.85530E-05-7.18009E-09 6.77602E-19-6.62589E-19
 -1      1652 9.52620E-05-2.86516E-05-2.85473E-05 3.33820E-10-2.29513E-19 1.34405E-18
 -1      1653 9.52620E-05-2.86517E-05-2.85473E-05-1.59939E-10-1.00519E-18 1.81359E-18
 -1      1654 9.52581E-05-2.86369E-05-2.85521E-05-2.30098E-09 8.78482E-19-3.48302E-19
 -1      1655 9.52609E-05-2.86483E-05-2.85483E-05 2.87875E-09-8.94177E-19-7.12282E-19
 -1      1656 9.52617E-05-2.86508E-05-2.85476E-05 2.39197E-09-5.91329E-19 4.31747E-19
 -1      1657 9.52580E-05-2.86368E-05-2.85521E-05 2.62396E-09 5.10170E-19 7.11293E-19
 -1      1658 9.52587E-05-2.86409E-05-2.85505E-05 5.32615E-09-1.17040E-18-8.54441E-19
 -1      1659 9.52602E-05-2.86457E-05-2.85491E-05 4.86005E-09-5.91999E-19-6.33932E-19
 -1      1660 9.52570E-05-2.86335E-05-2.85531E-05 7.44519E-09-6.31087E-19-3.97675E-19
 -1      1661 9.52553E-05-2.86302E-05-2.85537E-05 7.49083E-09-2.59730E-18 1.28021E-18
 -1      1662 9.52575E-05-2.86370E-05-2.85517E-05 7.09009E-09-1.24695E-18-2.92436E-19
 -1      1663 9.52550E-05-2.86272E-05-2.85549E-05 1.19189E-08-5.27831E-19-1.04126E-18
 -1      1664 9.52510E-05-2.86164E-05-2.85577E-05 9.15894E-09-1.97348E-18 5.82017E-20
 -1      1665 9.52537E-05-2.86249E-05-2.85553E-05 8.86563E-09-2.68313E-18 1.58380E-18
 -1      1666 9.52521E-05-2.86182E-05-2.85575E-05 1.56888E-08-8.64603E-19 1.09511E-18
 -1      1667 9.52460E-05-2.86012E-05-2.85621E-05 9.85417E-09-2.19715E-18 1.64797E-18
 -1      1668 9.52491E-05-2.86103E-05-2.85595E-05 9.76823E-09-2.58053E-18 9.64696E-19
 -1      1669 9.52483E-05-2.86071E-05-2.85606E-05 1.81089E-08-3.09950E-19 4.30519E-19
 -1      1670 9.52412E-05-2.85869E-05-2.85661E-05 8.78843E-09-2.01334E-18 2.34535E-19
 -1      1671 9.52440E-05-2.85951E-05-2.85638E-05 9.11990E-09-2.06291E-18 1.17758E-18
 -1      1672 9.52438E-05-2.85950E-05-2.85638E-05 1.81326E-08-7.89097E-19 1.87096E-18
 -1      1673 9.52372E-05-2.85770E-05-2.85687E-05 7.57059E-09-1.02839E-18-1.37297E-19
 -1      1674 9.52390E-05-2.85823E-05-2.85672E-05 9.15152E-09-1.15641E-18-7.79324E-19
 -1      1675 9.52391E-05-2.85841E-05-2.85662E-05 1.68237E-08-5.30655E-19 1.35177E-18
 -1      1676 9.52330E-05-2.85755E-05-2.85675E-05 1.43198E-08-4.04265E-19 5.04118E-19
 -1      1677 1.96710E-05-6.35709E-05 1.33657E-05-5.53317E-06 3.29835E-18 5.07394E-18
 -1      1678 2.27645E-05-7.29498E-05 1.54809E-05 1.68887E-06-2.63671E-18 3.34578E-18
 -1      1679 1.94975E-05-4.00133E-05 4.47559E-06 1.57541E-06 1.26869E-17 9.66899E-18
 -1      1680 2.39801E-05-6.10161E-05 9.97919E-06-1.22353E-06 6.01732E-18 6.33541E-18
 -1      1681 3.84034E-05-1.52015E-05-1.18141E-05 2.88566E-05 1.67950E-17 1.39786E-17
 -1      1682 3.19275E-05-3.59093E-05-2.73238E-06 1.10949E-05 1.40277E-17 1.04634E-17
 -1      1683 7.53099E-05-2.40664E-06-3.05618E-05 5.85304E-05 1.64875E-17 1.65061E-17
 -1      1684 5.09292E-05-8.40600E-06-2.07310E-05 3.57217E-05 1.80138E-17 1.49671E-17
 -1      1685 1.48240E-04-2.10896E-05-5.08687E-05 7.47204E-05 1.07688E-17 1.56752E-17
 -1      1686 1.02462E-04-7.75926E-06-4.03465E-05 6.14804E-05 1.46156E-17 1.60852E-17
 -1      1687 2.17216E-04-4.73765E-05-6.67439E-05 6.27559E-05 6.98093E-18 1.02305E-17
 -1      1688 1.73117E-04-2.58387E-05-5.96026E-05 7.39656E-05 9.75655E-18 1.48468E-17
 -1      1689 2.55392E-04-6.48368E-05-7.47464E-05 1.82510E-05 3.56347E-18 1.84399E-18
 -1      1690 2.33051E-04-5.25305E-05-7.15282E-05 4.89862E-05 5.45722E-18 7.17606E-18
 -1      1691 2.50000E-04-6.09395E-05-7.46165E-05-3.30923E-05 3.61302E-18-5.31937E-18
 -1      1692 2.60243E-04-6.66588E-05-7.58836E-05 2.03767E-06 2.90363E-18-3.97708E-19
 -1      1693 1.94202E-04-3.51511E-05-6.44134E-05-6.16347E-05 7.44489E-18-1.07260E-17
 -1      1694 2.32067E-04-5.41449E-05-7.03362E-05-4.17845E-05 5.00427E-18-6.88934E-18
 -1      1695 1.30283E-04-1.46280E-05-4.82592E-05-6.56037E-05 1.13460E-17-1.39303E-17
 -1      1696 1.74585E-04-3.20657E-05-5.72310E-05-6.85111E-05 8.15650E-18-1.19703E-17
 -1      1697 6.82078E-05-3.42004E-06-2.91543E-05-4.90123E-05 1.53279E-17-1.46300E-17
 -1      1698 1.02284E-04-6.41200E-06-3.93896E-05-6.97170E-05 1.32222E-17-1.57802E-17
 -1      1699 3.82835E-05-2.64131E-05-8.98791E-06-1.86864E-05 1.32484E-17-1.02635E-17
 -1      1700 5.24041E-05-9.43654E-06-1.93184E-05-4.13719E-05 1.44106E-17-1.38575E-17
 -1      1701 2.42848E-05-5.35254E-05 6.52148E-06 8.67116E-07 1.09572E-17-5.93177E-18
 -1      1702 2.13415E-05-2.94782E-05-3.74187E-07-7.74373E-06 1.35966E-17-9.28814E-18
 -1      1703 2.43505E-05-7.47126E-05 1.49369E-05 1.00848E-06 3.65876E-18-3.93637E-18
 -1      1704 1.96170E-05-5.93601E-05 1.14063E-05 5.91008E-06 9.00057E-18-5.33366E-18
 -1      1705 2.24605E-05-7.45666E-05 1.58290E-05-5.32158E-06-4.66842E-18-3.64944E-18
 -1      1706 2.35316E-05-7.78240E-05 1.65346E-05 4.71961E-06 1.39310E-18-3.12492E-18
 -1      1707 1.92257E-05-5.09014E-05 8.59091E-06-2.05102E-06-1.18873E-17-7.18363E-18
 -1      1708 2.42677E-05-6.95972E-05 1.30394E-05-5.69837E-07-6.71443E-18-4.50950E-18
 -1      1709 2.60290E-05-2.10430E-05-5.03424E-06 1.73438E-05-1.61817E-17-1.12105E-17
 -1      1710 2.57768E-05-4.46455E-05 2.77165E-06 4.35528E-06-1.32603E-17-8.32443E-18
 -1      1711 6.72400E-05-9.01685E-06-2.48424E-05 5.07398E-05-1.43928E-17-1.40336E-17
 -1      1712 4.75863E-05-2.08166E-05-1.42542E-05 2.76597E-05-1.51145E-17-1.13299E-17
 -1      1713 1.18950E-04-9.21597E-06-4.44429E-05 7.51060E-05-1.28647E-17-1.72210E-17
 -1      1714 8.12153E-05-9.16056E-07-3.46414E-05 5.84914E-05-1.52678E-17-1.63842E-17
 -1      1715 1.89219E-04-3.71522E-05-6.07711E-05 6.33869E-05-7.92569E-18-1.38642E-17
 -1      1716 1.45911E-04-1.81967E-05-5.25715E-05 6.66083E-05-1.04685E-17-1.53931E-17
 -1      1717 2.41492E-04-5.87397E-05-7.19203E-05 3.83648E-05-4.59695E-18-1.08319E-17
 -1      1718 2.11126E-04-4.19104E-05-6.76236E-05 6.31405E-05-7.20592E-18-1.46825E-17
 -1      1719 2.48985E-04-6.15830E-05-7.41598E-05-1.26057E-05-4.35396E-18-1.33122E-18
 -1      1720 2.46334E-04-6.00755E-05-7.37785E-05 2.18720E-05-4.59388E-18-7.48269E-18
 -1      1721 2.22085E-04-4.76619E-05-6.93654E-05-5.69287E-05-4.91385E-18 6.84911E-18
 -1      1722 2.47109E-04-6.17900E-05-7.29845E-05-2.95568E-05-3.54737E-18 1.50137E-18
 -1      1723 1.62147E-04-2.09110E-05-5.73228E-05-7.55653E-05-9.17760E-18 1.25395E-17
 -1      1724 2.04275E-04-4.11852E-05-6.42918E-05-6.76802E-05-6.20250E-18 9.11238E-18
 -1      1725 1.00540E-04-8.20243E-06-3.92442E-05-5.95355E-05-1.30917E-17 1.32942E-17
 -1      1726 1.40621E-04-1.95164E-05-4.88512E-05-7.17566E-05-9.87513E-18 1.22049E-17
 -1      1727 4.82176E-05-6.61875E-06-2.02493E-05-3.59003E-05-1.80011E-17 1.36135E-17
 -1      1728 7.21999E-05-1.13065E-06-3.00193E-05-5.85339E-05-1.58370E-17 1.49882E-17
 -1      1729 2.75176E-05-3.20396E-05-2.63780E-06-9.64594E-06-1.52093E-17 1.02597E-17
 -1      1730 3.23351E-05-1.06081E-05-1.13473E-05-2.69693E-05-1.79596E-17 1.35911E-17
 -1      1731 2.44252E-05-6.09794E-05 9.91265E-06-7.84639E-07-9.26739E-18 5.23890E-18
 -1      1732 2.00977E-05-3.91823E-05 4.07069E-06-4.15391E-06-1.33679E-17 8.97071E-18
 -1      1733 2.36009E-05-7.65469E-05 1.61128E-05-2.76543E-06-5.31005E-18 1.85034E-18
 -1      1734 2.03669E-05-6.71819E-05 1.40710E-05 6.06600E-06-8.81761E-18 3.51370E-18
 -1      1735 1.18113E-04-3.36429E-05-3.52988E-05 4.37437E-05 1.00890E-17 8.94213E-18
 -1      1736 7.48146E-05-3.77424E-05-1.72997E-05 3.85359E-05 9.07681E-18 9.84845E-18
 -1      1737 9.52361E-05-2.85731E-05-2.85697E-05-3.64065E-09-4.41606E-18-1.09323E-18
 -1      1738 9.52351E-05-2.85754E-05-2.85683E-05-9.50769E-09-1.11647E-18 1.72189E-18
 -1      1739 1.86206E-05-4.61269E-05 7.86682E-06 1.41584E-05 2.10657E-18 9.45924E-18
 -1      1740 4.15534E-05-4.29242E-05-2.26445E-06 2.88556E-05 6.34597E-18 1.04083E-17
 -1      1741 1.14906E-05-4.87292E-05 1.16664E-05 2.24529E-07-2.33797E-18 5.47056E-18
 -1      1742 1.63848E-04-3.37621E-05-5.27063E-05 3.89921E-05 8.55112E-18 7.70631E-18
 -1      1743 1.99851E-04-3.50033E-05-6.56874E-05 2.63258E-05 7.75501E-18 3.74600E-18
 -1      1744 2.15679E-04-3.58136E-05-7.12600E-05 3.81071E-06 6.23670E-18 2.82909E-19
 -1      1745 2.03821E-04-3.32475E-05-6.81733E-05-1.40775E-05 6.55604E-18-3.16790E-18
 -1      1746 1.75553E-04-3.43549E-05-5.74393E-05-2.64276E-05 6.95769E-18-4.38678E-18
 -1      1747 1.37536E-04-3.36611E-05-4.25644E-05-4.20684E-05 8.08747E-18-7.41493E-18
 -1      1748 9.19304E-05-3.61191E-05-2.44356E-05-4.20315E-05 7.71054E-18-8.65752E-18
 -1      1749 5.27904E-05-4.11624E-05-7.27356E-06-3.31233E-05 6.66446E-18-8.07117E-18
 -1      1750 2.44377E-05-4.72823E-05 5.74014E-06-1.74799E-05 4.98818E-18-7.04964E-18
 -1      1751 1.29184E-05-5.17249E-05 1.18613E-05-4.45480E-06 1.19686E-18-6.68224E-18
 -1      1752 1.49807E-05-5.07470E-05 1.07275E-05 1.02451E-05-3.15456E-18-7.06002E-18
 -1      1753 3.02742E-05-4.42709E-05 2.54522E-06 2.39154E-05-6.01648E-18-8.29881E-18
 -1      1754 6.48068E-05-4.00763E-05-1.18959E-05 3.87453E-05-7.61398E-18-8.17874E-18
 -1      1755 1.04135E-04-3.57678E-05-2.93483E-05 4.35040E-05-8.31109E-18-9.06495E-18
 -1      1756 1.46798E-04-3.16316E-05-4.68393E-05 4.04835E-05-7.98667E-18-9.09544E-18
 -1      1757 1.81677E-04-3.25346E-05-6.05160E-05 2.72913E-05-7.02381E-18-8.29203E-18
 -1      1758 2.06117E-04-3.30895E-05-6.89919E-05 1.40457E-05-6.96261E-18-5.96544E-18
 -1      1759 2.08120E-04-3.33663E-05-6.96322E-05-9.79054E-06-6.63312E-18-2.02907E-18
 -1      1760 1.92577E-04-3.31701E-05-6.36784E-05-3.17070E-05-6.60410E-18 2.94302E-18
 -1      1761 1.56288E-04-3.29355E-05-5.06057E-05-3.85994E-05-7.80435E-18 5.27024E-18
 -1      1762 1.14673E-04-3.22424E-05-3.42836E-05-4.41634E-05-8.96500E-18 6.09694E-18
 -1      1763 6.88313E-05-3.24608E-05-1.68393E-05-3.93194E-05-1.00661E-17 8.60247E-18
 -1      1764 3.82886E-05-4.10182E-05-1.89763E-06-2.79333E-05-6.88977E-18 9.27295E-18
 -1      1765 1.88103E-05-4.73071E-05 8.28161E-06-1.55673E-05-5.39475E-18 5.88053E-18
 -1      1766 1.07189E-04-2.36258E-05-3.59063E-05-1.56503E-05-2.05321E-18 9.31355E-18
 -1      1767 9.01058E-05-1.06818E-05-3.41679E-05-1.09683E-05-2.79243E-18-2.22185E-18
 -1      1768 9.17724E-05-1.19164E-05-3.43641E-05-1.27888E-05-3.14995E-18-1.27714E-18
 -1      1769 9.40912E-05-1.43739E-05-3.43260E-05-1.38431E-05-3.12246E-18-1.07758E-19
 -1      1770 9.59907E-05-1.64542E-05-3.45682E-05-1.56340E-05-3.28927E-18 1.51836E-18
 -1      1771 9.49767E-05-1.67458E-05-3.35322E-05-1.13861E-05-3.27818E-18-5.45913E-19
 -1      1772 8.54619E-05-6.87019E-06-3.37565E-05-5.75416E-06-1.59320E-18-3.95404E-18
 -1      1773 8.62798E-05-7.33756E-06-3.38824E-05-7.00187E-06-1.92295E-18-3.70692E-18
 -1      1774 8.40420E-05-5.81430E-06-3.35857E-05-3.65657E-06-1.01045E-18-4.30912E-18
 -1      1775 8.46401E-05-6.13812E-06-3.36828E-05-4.72772E-06-1.29489E-18-4.14611E-18
 -1      1776 8.64145E-05-8.63485E-06-3.33612E-05-4.81015E-06-1.55997E-18-3.83994E-18
 -1      1777 8.31082E-05-5.13456E-06-3.34666E-05-1.83955E-06-4.20400E-19-4.38119E-18
 -1      1778 8.34821E-05-5.33176E-06-3.35285E-05-2.77377E-06-7.14639E-19-4.37485E-18
 -1      1779 8.49447E-05-7.43562E-06-3.32427E-05-2.93725E-06-9.12380E-19-4.13515E-18
 -1      1780 8.26688E-05-4.80370E-06-3.34129E-05-1.98626E-07 2.14895E-19-4.39787E-18
 -1      1781 8.28098E-05-4.87949E-06-3.34351E-05-1.05767E-06-8.17461E-20-4.40421E-18
 -1      1782 8.40284E-05-6.70574E-06-3.31608E-05-1.29991E-06-2.56129E-19-4.22681E-18
 -1      1783 8.27463E-05-4.82450E-06-3.34328E-05 1.38652E-06 7.85725E-19-4.29492E-18
 -1      1784 8.26435E-05-4.77580E-06-3.34126E-05 5.38035E-07 5.24245E-19-4.34695E-18
 -1      1785 8.36818E-05-6.42516E-06-3.31313E-05 1.94109E-07 3.98992E-19-4.19121E-18
 -1      1786 8.33573E-05-5.21435E-06-3.35264E-05 3.04634E-06 1.33698E-18-4.16948E-18
 -1      1787 8.30047E-05-5.03339E-06-3.34645E-05 2.14042E-06 1.08031E-18-4.25422E-18
 -1      1788 8.39291E-05-6.60373E-06-3.31608E-05 1.65829E-06 1.00867E-18-4.12404E-18
 -1      1789 8.44857E-05-5.98488E-06-3.36826E-05 4.88162E-06 1.87929E-18-3.80635E-18
 -1      1790 8.38938E-05-5.66784E-06-3.35847E-05 3.86679E-06 1.57949E-18-4.05614E-18
 -1      1791 8.47783E-05-7.25960E-06-3.32445E-05 3.20043E-06 1.56496E-18-3.90520E-18
 -1      1792 8.61947E-05-7.22716E-06-3.38930E-05 7.08552E-06 2.55930E-18-3.21004E-18
 -1      1793 8.53270E-05-6.72962E-06-3.37602E-05 5.85213E-06 2.20272E-18-3.56457E-18
 -1      1794 8.62427E-05-8.44009E-06-3.33682E-05 4.94710E-06 2.21855E-18-3.45546E-18
 -1      1795 8.85771E-05-9.10205E-06-3.41381E-05 9.73930E-06 3.10905E-18-2.14817E-18
 -1      1796 8.73763E-05-8.34099E-06-3.39731E-05 8.22385E-06 2.79384E-18-2.79742E-18
 -1      1797 8.83855E-05-1.02636E-05-3.35056E-05 6.99241E-06 2.83916E-18-2.76900E-18
 -1      1798 9.19775E-05-1.20767E-05-3.43895E-05 1.28291E-05 3.46443E-18-2.61654E-19
 -1      1799 9.02216E-05-1.07812E-05-3.41907E-05 1.09948E-05 3.18065E-18-1.37505E-18
 -1      1800 9.13405E-05-1.29669E-05-3.36040E-05 9.29342E-06 3.30689E-18-1.53362E-18
 -1      1801 9.76765E-05-1.76318E-05-3.44945E-05 1.55447E-05 3.34036E-18 3.14620E-18
 -1      1802 9.45167E-05-1.48188E-05-3.43335E-05 1.38765E-05 3.37912E-18 1.12200E-18
 -1      1803 9.55082E-05-1.71925E-05-3.35520E-05 1.13563E-05 3.45095E-18 4.93000E-19
 -1      1804 1.03682E-04-2.57075E-05-3.38374E-05 1.27661E-05 2.74015E-18 7.29465E-18
 -1      1805 9.99261E-05-2.02744E-05-3.41380E-05 1.50325E-05 3.00499E-18 4.56688E-18
 -1      1806 9.93703E-05-2.24737E-05-3.30219E-05 1.10635E-05 3.34882E-18 3.16428E-18
 -1      1807 1.00967E-04-2.68380E-05-3.19713E-05 7.78310E-06 2.79198E-18 6.43058E-18
 -1      1808 1.01799E-04-2.02096E-05-3.46573E-05-1.71951E-05-2.78625E-18 4.34644E-18
 -1      1809 9.84714E-05-2.81677E-05-3.01471E-05 2.31626E-06 2.18912E-18 5.07799E-18
 -1      1810 1.00327E-04-2.81349E-05-3.09749E-05 4.71192E-06 2.37116E-18 5.92629E-18
 -1      1811 1.00054E-04-2.63410E-05-3.15907E-05 6.71869E-06 2.81623E-18 4.02128E-18
 -1      1812 1.01603E-04-2.31484E-05-3.33476E-05-1.26200E-05-3.00969E-18 3.13863E-18
 -1      1813 9.95836E-05-2.77121E-05-3.06848E-05-3.84729E-06-2.43083E-18 2.69192E-18
 -1      1814 9.82960E-05-2.78832E-05-3.01369E-05-1.98029E-06-2.11884E-18 2.03968E-18
 -1      1815 9.78449E-05-2.81593E-05-2.97674E-05-3.58095E-07-1.83805E-18 1.96852E-18
 -1      1816 9.76603E-05-2.83924E-05-2.96389E-05 6.14353E-07-1.58066E-18 1.43841E-18
 -1      1817 9.84169E-05-2.72480E-05-3.05292E-05-1.94999E-06-2.37828E-18 7.01828E-19
 -1      1818 9.75889E-05-2.85617E-05-2.95232E-05 1.62339E-06-1.29243E-18 1.33640E-18
 -1      1819 9.79624E-05-2.88245E-05-2.95973E-05 2.20604E-06-1.00749E-18 9.36600E-19
 -1      1820 9.80307E-05-2.80975E-05-2.99983E-05 1.06110E-06-1.76528E-18 5.22292E-19
 -1      1821 9.82241E-05-2.90181E-05-2.96275E-05 2.84822E-06-7.54008E-19 7.33117E-19
 -1      1822 9.89523E-05-2.93447E-05-2.98123E-05 3.20261E-06-7.41964E-19 5.20412E-19
 -1      1823 9.83209E-05-2.86894E-05-2.98649E-05 2.94418E-06-1.18031E-18 1.41039E-19
 -1      1824 9.94684E-05-2.95968E-05-2.99286E-05 3.58259E-06-7.76347E-19 5.24323E-19
 -1      1825 1.00403E-04-2.99850E-05-3.01723E-05 3.75167E-06-6.03536E-19 2.87161E-19
 -1      1826 9.91657E-05-2.92927E-05-2.99640E-05 4.11763E-06-8.67021E-19-2.09445E-19
 -1      1827 1.01100E-04-3.03058E-05-3.03335E-05 3.88580E-06-6.07504E-19 3.08264E-19
 -1      1828 1.02111E-04-3.07410E-05-3.05946E-05 3.85228E-06-5.38952E-19 1.51045E-19
 -1      1829 1.00435E-04-3.00113E-05-3.01951E-05 4.72148E-06-6.48574E-19-1.57658E-19
 -1      1830 1.02920E-04-3.11297E-05-3.07663E-05 3.70109E-06-6.30540E-19 2.47171E-19
 -1      1831 1.03867E-04-3.15822E-05-3.10027E-05 3.41396E-06-6.13578E-19 1.65645E-19
 -1      1832 1.01997E-04-3.08872E-05-3.04845E-05 4.73505E-06-5.81712E-19-1.04510E-19
 -1      1833 1.04706E-04-3.20214E-05-3.11543E-05 2.90798E-06-7.70416E-19 3.86283E-19
 -1      1834 1.05421E-04-3.24346E-05-3.13209E-05 2.30903E-06-5.85842E-19 4.51368E-19
 -1      1835 1.03710E-04-3.19159E-05-3.07716E-05 4.04152E-06-6.20624E-19 3.82488E-21
 -1      1836 1.06182E-04-3.28728E-05-3.14265E-05 1.38718E-06-4.71887E-19 3.10031E-19
 -1      1837 1.06478E-04-3.31502E-05-3.14800E-05 4.54511E-07-5.97099E-19 2.71199E-20
 -1      1838 1.05382E-04-3.30179E-05-3.10078E-05 2.49630E-06-8.25953E-19 1.52363E-19
 -1      1839 1.07006E-04-3.34809E-05-3.15241E-05-8.70077E-07-6.33991E-19 4.65099E-20
 -1      1840 1.06703E-04-3.34842E-05-3.14348E-05-2.05652E-06-2.62421E-19-1.57201E-19
 -1      1841 1.06739E-04-3.39864E-05-3.11633E-05 3.78537E-08-6.12087E-19 5.27972E-19
 -1      1842 1.06803E-04-3.35404E-05-3.14186E-05-3.60421E-06 4.13656E-20-1.17000E-19
 -1      1843 1.05808E-04-3.31229E-05-3.11872E-05-4.79397E-06 8.64768E-20-2.00178E-21
 -1      1844 1.07408E-04-3.44524E-05-3.12368E-05-3.14119E-06-1.50868E-19 4.84460E-19
 -1      1845 1.05306E-04-3.27286E-05-3.11316E-05-6.14027E-06 1.80951E-19 3.90165E-20
 -1      1846 1.03712E-04-3.18337E-05-3.08027E-05-6.90235E-06 1.19921E-19-1.27697E-19
 -1      1847 1.06983E-04-3.39481E-05-3.12596E-05-6.39897E-06 1.33342E-19 2.87220E-19
 -1      1848 1.02615E-04-3.09510E-05-3.07404E-05-7.42845E-06-9.36511E-20 8.44386E-21
 -1      1849 1.00789E-04-2.97491E-05-3.03991E-05-7.29246E-06-3.07519E-19 2.56691E-19
 -1      1850 1.05261E-04-3.21898E-05-3.12817E-05-8.57923E-06 2.50487E-20 3.67751E-19
 -1      1851 9.94497E-05-2.86438E-05-3.03569E-05-6.47911E-06-5.29124E-19-1.56145E-19
 -1      1852 9.79849E-05-2.75740E-05-3.01052E-05-5.23648E-06-5.61047E-19-2.09508E-19
 -1      1853 1.02616E-04-2.94943E-05-3.13358E-05-8.36232E-06-6.57137E-19 4.12399E-20
 -1      1854 9.70607E-05-2.67917E-05-3.00925E-05-3.10244E-06-7.19435E-19-8.37494E-19
 -1      1855 9.65398E-05-2.63762E-05-3.00113E-05-1.07747E-06-1.06954E-18-1.10675E-18
 -1      1856 1.00142E-04-2.69519E-05-3.14092E-05-5.10638E-06-9.69614E-19-5.32190E-19
 -1      1857 9.65971E-05-2.64010E-05-3.00261E-05 1.60586E-06-1.30614E-18-1.26413E-18
 -1      1858 9.72621E-05-2.68695E-05-3.01462E-05 3.61949E-06-1.00339E-18-1.75299E-18
 -1      1859 9.91855E-05-2.59327E-05-3.14593E-05 3.34738E-07-1.38142E-18-8.90506E-19
 -1      1860 9.82831E-05-2.76817E-05-3.01890E-05 5.73387E-06-8.96836E-19-2.16873E-18
 -1      1861 9.98826E-05-2.87899E-05-3.04797E-05 6.96305E-06-8.05482E-19-2.12773E-18
 -1      1862 1.00355E-04-2.70435E-05-3.14636E-05 5.74615E-06-1.30337E-18-1.22376E-18
 -1      1863 1.01310E-04-2.99149E-05-3.05531E-05 7.76275E-06-4.71116E-19-2.49878E-18
 -1      1864 1.03265E-04-3.11469E-05-3.09336E-05 7.89480E-06-8.07033E-20-2.73715E-18
 -1      1865 1.03012E-04-2.96288E-05-3.14477E-05 8.96552E-06-9.29020E-19-2.05718E-18
 -1      1866 1.04443E-04-3.20415E-05-3.10286E-05 7.37359E-06 2.28275E-19-2.65266E-18
 -1      1867 1.06169E-04-3.29645E-05-3.13982E-05 6.62589E-06 6.88042E-19-2.25683E-18
 -1      1868 1.05822E-04-3.23491E-05-3.14543E-05 9.17071E-06-2.21089E-20-2.27479E-18
 -1      1869 1.06755E-04-3.33717E-05-3.14875E-05 5.30907E-06 9.21784E-19-2.19219E-18
 -1      1870 1.07895E-04-3.38239E-05-3.17625E-05 4.15228E-06 7.38785E-19-1.90244E-18
 -1      1871 1.07703E-04-3.41208E-05-3.14955E-05 7.02829E-06 7.82156E-19-2.01899E-18
 -1      1872 1.07890E-04-3.37888E-05-3.18134E-05 2.65179E-06 1.21668E-19-1.33757E-18
 -1      1873 1.08358E-04-3.38320E-05-3.19507E-05 1.50901E-06 5.91381E-19-1.70933E-18
 -1      1874 1.08304E-04-3.46493E-05-3.15367E-05 3.85610E-06 4.16839E-19-1.72953E-18
 -1      1875 1.07934E-04-3.35313E-05-3.19415E-05 2.35996E-07 4.39117E-19-1.63967E-18
 -1      1876 1.07825E-04-3.33129E-05-3.19402E-05-6.52665E-07 2.37325E-19-1.83540E-18
 -1      1877 1.07834E-04-3.42324E-05-3.15271E-05 7.85020E-07 4.42409E-19-1.54866E-18
 -1      1878 1.07170E-04-3.29114E-05-3.18674E-05-1.53274E-06 1.10015E-19-1.97105E-18
 -1      1879 1.06656E-04-3.25684E-05-3.17550E-05-2.09830E-06-1.89047E-19-1.89107E-18
 -1      1880 1.06690E-04-3.33359E-05-3.14312E-05-1.57373E-06 4.10922E-19-1.73596E-18
 -1      1881 1.05911E-04-3.21693E-05-3.16299E-05-2.58835E-06-6.54184E-19-2.07014E-18
 -1      1882 1.05165E-04-3.17949E-05-3.14453E-05-2.86548E-06-6.95346E-19-1.78070E-18
 -1      1883 1.05226E-04-3.23252E-05-3.12433E-05-3.06158E-06-2.86297E-19-2.27875E-18
 -1      1884 1.04419E-04-3.14457E-05-3.12862E-05-3.04666E-06-4.19637E-19-1.32563E-18
 -1      1885 1.03582E-04-3.10919E-05-3.10662E-05-3.11057E-06-4.44567E-19-1.51195E-18
 -1      1886 1.03683E-04-3.14020E-05-3.09814E-05-3.78101E-06-2.90778E-19-1.77837E-18
 -1      1887 1.02884E-04-3.08055E-05-3.08921E-05-3.08144E-06-8.13771E-19-1.16446E-18
 -1      1888 1.02054E-04-3.04960E-05-3.06655E-05-3.00931E-06-9.43692E-19-1.62109E-18
 -1      1889 1.02203E-04-3.06424E-05-3.06744E-05-3.93243E-06-4.27559E-19-1.44289E-18
 -1      1890 1.01430E-04-3.02694E-05-3.04920E-05-2.85603E-06-7.28122E-19-1.83667E-18
 -1      1891 1.00668E-04-3.00112E-05-3.02781E-05-2.71024E-06 3.99259E-20-1.68087E-18
 -1      1892 1.00860E-04-3.00530E-05-3.03521E-05-3.71870E-06-6.58868E-19-1.93797E-18
 -1      1893 1.00128E-04-2.98354E-05-3.01162E-05-2.49709E-06-2.97901E-20-1.75512E-18
 -1      1894 9.94629E-05-2.96272E-05-2.99259E-05-2.32156E-06 9.70945E-21-1.99585E-18
 -1      1895 9.96855E-05-2.96109E-05-3.00385E-05-3.30432E-06-3.27123E-19-2.02958E-18
 -1      1896 9.90089E-05-2.94927E-05-2.97820E-05-2.09151E-06-4.07121E-19-2.02122E-18
 -1      1897 9.84514E-05-2.93291E-05-2.96200E-05-1.91404E-06-6.94784E-19-2.43365E-18
 -1      1898 9.86887E-05-2.92862E-05-2.97503E-05-2.80661E-06-2.13494E-19-1.80251E-18
 -1      1899 9.80781E-05-2.92274E-05-2.94969E-05-1.69309E-06-5.28003E-19-2.06507E-18
 -1      1900 9.76258E-05-2.91018E-05-2.93638E-05-1.52937E-06-3.58255E-19-2.38074E-18
 -1      1901 9.78630E-05-2.90513E-05-2.94967E-05-2.30117E-06-6.84187E-19-2.58358E-18
 -1      1902 9.73255E-05-2.90257E-05-2.92617E-05-1.33137E-06 2.99240E-19-2.19016E-18
 -1      1903 9.69685E-05-2.89313E-05-2.91554E-05-1.18886E-06 9.22207E-19-1.39084E-18
 -1      1904 9.71940E-05-2.88834E-05-2.92813E-05-1.83177E-06 3.70192E-19-2.08005E-18
 -1      1905 9.67319E-05-2.88752E-05-2.90731E-05-1.01963E-06-1.39541E-20-1.49799E-18
 -1      1906 9.64572E-05-2.88059E-05-2.89904E-05-9.00633E-07 1.01581E-19-1.56259E-18
 -1      1907 9.66629E-05-2.87651E-05-2.91037E-05-1.42012E-06 2.94414E-19-1.91435E-18
 -1      1908 9.62745E-05-2.87652E-05-2.89256E-05-7.61046E-07 2.12846E-19-1.75214E-18
 -1      1909 9.60683E-05-2.87156E-05-2.88629E-05-6.64832E-07 2.17723E-19-2.09749E-18
 -1      1910 9.62497E-05-2.86831E-05-2.89610E-05-1.07364E-06-1.52702E-19-2.60928E-18
 -1      1911 9.59302E-05-2.86866E-05-2.88131E-05-5.52970E-07-2.81870E-20-1.98976E-18
 -1      1912 9.57795E-05-2.86521E-05-2.87668E-05-4.77258E-07 4.29148E-19-1.73250E-18
 -1      1913 9.59348E-05-2.86277E-05-2.88492E-05-7.91212E-07 1.75186E-19-1.14370E-18
 -1      1914 9.56774E-05-2.86320E-05-2.87294E-05-3.89829E-07 3.46228E-19-1.80125E-18
 -1      1915 9.55703E-05-2.86089E-05-2.86960E-05-3.31675E-07-4.51271E-19-2.25805E-18
 -1      1916 9.56998E-05-2.85913E-05-2.87634E-05-5.67086E-07 3.70965E-19-1.05590E-18
 -1      1917 9.54967E-05-2.85954E-05-2.86686E-05-2.64892E-07 3.13357E-19-5.08550E-19
 -1      1918 9.54231E-05-2.85807E-05-2.86454E-05-2.21238E-07 1.39168E-18 5.02980E-19
 -1      1919 9.55285E-05-2.85686E-05-2.86992E-05-3.93415E-07 8.02527E-19 1.11581E-19
 -1      1920 9.53716E-05-2.85720E-05-2.86259E-05-1.71350E-07 8.57701E-19 8.67403E-20
 -1      1921 9.53234E-05-2.85634E-05-2.86104E-05-1.39327E-07-1.27923E-20-4.38134E-20
 -1      1922 9.54071E-05-2.85555E-05-2.86523E-05-2.61822E-07 9.56448E-19 3.58221E-19
 -1      1923 9.52887E-05-2.85583E-05-2.85969E-05-1.02900E-07-4.87241E-20 1.30991E-18
 -1      1924 9.52592E-05-2.85540E-05-2.85871E-05-7.99769E-08 4.72973E-19 2.06350E-18
 -1      1925 9.53238E-05-2.85489E-05-2.86191E-05-1.64301E-07 7.49212E-19 1.86953E-18
 -1      1926 9.52370E-05-2.85513E-05-2.85783E-05-5.40312E-08-3.35690E-19 1.82567E-18
 -1      1927 9.52208E-05-2.85499E-05-2.85726E-05-3.80748E-08-4.01256E-19 1.36157E-18
 -1      1928 9.52693E-05-2.85468E-05-2.85963E-05-9.36952E-08 8.98266E-22 2.32421E-18
 -1      1929 9.52078E-05-2.85490E-05-2.85672E-05-2.01293E-08-4.14183E-19 1.05287E-18
 -1      1930 9.52010E-05-2.85495E-05-2.85645E-05-9.40815E-09 1.27046E-19 1.07084E-18
 -1      1931 9.52358E-05-2.85475E-05-2.85814E-05-4.39001E-08-2.73854E-19 1.79495E-18
 -1      1932 9.51944E-05-2.85497E-05-2.85614E-05 2.52586E-09 9.96275E-19 2.26817E-19
 -1      1933 9.51939E-05-2.85515E-05-2.85607E-05 9.36128E-09 1.23855E-18 1.04955E-18
 -1      1934 9.52176E-05-2.85500E-05-2.85723E-05-9.90990E-09 2.46515E-21 1.22075E-18
 -1      1935 9.51918E-05-2.85524E-05-2.85594E-05 1.68114E-08 1.10154E-18 1.85505E-18
 -1      1936 9.51954E-05-2.85550E-05-2.85600E-05 2.07576E-08 1.95094E-18 3.06397E-18
 -1      1937 9.52099E-05-2.85537E-05-2.85673E-05 1.22205E-08 1.85226E-18 2.11153E-18
 -1      1938 9.51961E-05-2.85564E-05-2.85597E-05 2.48281E-08 1.75289E-18 1.85811E-18
 -1      1939 9.52019E-05-2.85593E-05-2.85610E-05 2.65544E-08 1.61660E-18 2.28138E-18
 -1      1940 9.52093E-05-2.85580E-05-2.85651E-05 2.54532E-08 1.63421E-18 2.84880E-18
 -1      1941 9.52044E-05-2.85610E-05-2.85614E-05 2.79645E-08 7.51261E-19 1.31109E-18
 -1      1942 9.52112E-05-2.85641E-05-2.85630E-05 2.78281E-08 5.49707E-19 9.91691E-19
 -1      1943 9.52132E-05-2.85627E-05-2.85646E-05 3.18552E-08 6.86210E-19 1.00259E-18
 -1      1944 9.52146E-05-2.85661E-05-2.85636E-05 2.70116E-08-4.73194E-19 1.57771E-19
 -1      1945 9.52211E-05-2.85692E-05-2.85652E-05 2.50558E-08-1.36271E-18 4.32882E-19
 -1      1946 9.52195E-05-2.85677E-05-2.85651E-05 3.27023E-08-8.10192E-19 1.01452E-18
 -1      1947 9.52242E-05-2.85710E-05-2.85657E-05 2.23158E-08-3.41637E-19 3.37895E-19
 -1      1948 9.52297E-05-2.85738E-05-2.85669E-05 1.86112E-08 3.10053E-19 1.40816E-18
 -1      1949 9.52328E-05-2.85773E-05-2.85666E-05 2.14896E-08-2.54813E-19 1.28295E-18
 -1      1950 9.52264E-05-2.85729E-05-2.85658E-05 2.88915E-08-8.57873E-19 7.24114E-19
 -1      1951 9.75325E-05-2.85139E-05-2.95393E-05-4.39692E-07 1.66549E-18 3.99380E-18
 -1      1952 9.80530E-05-2.84417E-05-2.97686E-05 7.83006E-07 1.78799E-18 4.69682E-18
 -1      1953 9.85874E-05-2.79074E-05-3.03043E-05 1.72862E-06 2.23056E-18 3.19646E-18
 -1      1954 9.79047E-05-2.88669E-05-2.95506E-05-2.15433E-06 1.12479E-18 3.18895E-18
 -1      1955 9.75867E-05-2.86715E-05-2.94778E-05-1.37699E-06 1.30984E-18 3.62946E-18
 -1      1956 9.80917E-05-2.84584E-05-2.98583E-05-1.20692E-06 1.67582E-18 2.54441E-18
 -1      1957 9.92731E-05-2.93862E-05-2.99231E-05-3.38998E-06 8.41567E-19 2.60293E-18
 -1      1958 9.83978E-05-2.90680E-05-2.96754E-05-2.80652E-06 9.30413E-19 2.92969E-18
 -1      1959 9.86294E-05-2.89071E-05-2.99006E-05-3.15153E-06 1.22511E-18 1.74398E-18
 -1      1960 1.01401E-04-3.00961E-05-3.05378E-05-4.36432E-06 4.58334E-19 2.15356E-18
 -1      1961 1.00120E-04-2.96664E-05-3.01714E-05-3.88418E-06 6.12408E-19 2.47122E-18
 -1      1962 9.99825E-05-2.94579E-05-3.02461E-05-4.59264E-06 8.24848E-19 1.33684E-18
 -1      1963 1.04116E-04-3.10011E-05-3.13213E-05-5.11486E-06 9.39621E-19 1.54460E-18
 -1      1964 1.02533E-04-3.04685E-05-3.08712E-05-4.72767E-06 6.56161E-19 2.03271E-18
 -1      1965 1.01982E-04-3.01788E-05-3.07939E-05-5.71109E-06 8.33067E-19 9.89823E-19
 -1      1966 1.07246E-04-3.21040E-05-3.22019E-05-5.53966E-06 5.30323E-19 1.41658E-18
 -1      1967 1.05470E-04-3.14797E-05-3.17053E-05-5.30027E-06 6.88333E-19 1.54792E-18
 -1      1968 1.04496E-04-3.11146E-05-3.14699E-05-6.49220E-06 9.05496E-19 7.09572E-19
 -1      1969 1.10558E-04-3.33936E-05-3.30852E-05-5.39580E-06 6.70377E-19 1.26668E-18
 -1      1970 1.08750E-04-3.27044E-05-3.25955E-05-5.42924E-06 5.21380E-19 1.43014E-18
 -1      1971 1.07396E-04-3.23106E-05-3.21985E-05-6.75442E-06 7.06235E-19 8.34916E-19
 -1      1972 1.13692E-04-3.48062E-05-3.38419E-05-4.31081E-06 1.67355E-20 1.43645E-18
 -1      1973 1.12101E-04-3.41177E-05-3.34364E-05-4.80909E-06 4.05491E-19 1.48371E-18
 -1      1974 1.10502E-04-3.37914E-05-3.28903E-05-6.15451E-06 4.10831E-19 1.28001E-18
 -1      1975 1.16113E-04-3.61520E-05-3.43163E-05-1.87947E-06 3.62835E-20 1.83079E-18
 -1      1976 1.15092E-04-3.56019E-05-3.40921E-05-3.05425E-06-5.99011E-20 1.72713E-18
 -1      1977 1.13521E-04-3.54899E-05-3.34451E-05-4.24106E-06-3.34777E-20 1.30361E-18
 -1      1978 1.17107E-04-3.70065E-05-3.43711E-05 2.05072E-06 3.35015E-19 1.90445E-18
 -1      1979 1.17072E-04-3.68391E-05-3.44180E-05 1.16225E-07-5.65130E-21 1.95107E-18
 -1      1980 1.15963E-04-3.71040E-05-3.37785E-05-6.46730E-07-1.23759E-19 1.64833E-18
 -1      1981 1.15915E-04-3.66723E-05-3.39734E-05 6.84328E-06 7.37309E-19 1.76745E-18
 -1      1982 1.17201E-04-3.72058E-05-3.43186E-05 4.47205E-06 7.11865E-19 1.87422E-18
 -1      1983 1.17072E-04-3.79361E-05-3.38693E-05 4.46967E-06 7.81163E-19 1.99167E-18
 -1      1984 1.12183E-04-3.45035E-05-3.32741E-05 1.05526E-05 6.63946E-19 1.38389E-18
 -1      1985 1.14749E-04-3.59048E-05-3.38274E-05 8.72822E-06 4.18553E-19 1.63566E-18
 -1      1986 1.15973E-04-3.69528E-05-3.38037E-05 9.77104E-06 5.65031E-19 2.12456E-18
 -1      1987 1.06857E-04-3.08535E-05-3.25646E-05 1.04184E-05 2.62494E-19 1.44906E-18
 -1      1988 1.09949E-04-3.27250E-05-3.31280E-05 1.04796E-05 3.50149E-19 1.13582E-18
 -1      1989 1.12444E-04-3.36886E-05-3.37303E-05 1.24670E-05 6.16223E-19 1.41648E-18
 -1      1990 1.02483E-04-2.75882E-05-3.21521E-05 5.10670E-06 1.29694E-18 3.42221E-19
 -1      1991 1.04742E-04-2.89640E-05-3.24893E-05 7.63548E-06 7.65771E-19 9.10905E-19
 -1      1992 1.07953E-04-2.93412E-05-3.37437E-05 9.80845E-06 9.07000E-19 1.04624E-18
 -1      1993 1.02044E-04-2.71979E-05-3.21863E-05-3.26047E-06 2.11409E-18-1.16274E-18
 -1      1994 1.02142E-04-2.70570E-05-3.21572E-05 5.78139E-07 1.84256E-18-1.63206E-19
 -1      1995 1.05381E-04-2.67303E-05-3.38161E-05 1.69851E-06 2.18677E-18 4.07307E-19
 -1      1996 1.06051E-04-3.00528E-05-3.26577E-05-9.85506E-06 1.29191E-18-2.44988E-18
 -1      1997 1.03849E-04-2.84976E-05-3.22638E-05-6.91662E-06 2.05090E-18-1.67452E-18
 -1      1998 1.06791E-04-2.79467E-05-3.38631E-05-7.54070E-06 2.31579E-18-1.17093E-18
 -1      1999 1.11979E-04-3.40189E-05-3.34166E-05-1.14334E-05-5.87303E-19-3.73422E-18
 -1      2000 1.08672E-04-3.20938E-05-3.28096E-05-1.07287E-05 2.57286E-19-3.35086E-18
 -1      2001 1.11176E-04-3.20628E-05-3.39115E-05-1.26804E-05 9.68622E-19-2.73205E-18
 -1      2002 1.16702E-04-3.67504E-05-3.42103E-05-8.55506E-06-7.23187E-19-4.29549E-18
 -1      2003 1.13788E-04-3.54198E-05-3.36147E-05-9.73356E-06-5.78722E-19-3.80082E-18
 -1      2004 1.15546E-04-3.61015E-05-3.40227E-05-1.18882E-05-4.26785E-19-3.77691E-18
 -1      2005 1.18782E-04-3.75642E-05-3.47450E-05-3.86111E-06-3.48865E-19-3.89899E-18
 -1      2006 1.17140E-04-3.70900E-05-3.43610E-05-5.80019E-06-5.32162E-19-3.91681E-18
 -1      2007 1.17822E-04-3.80762E-05-3.41736E-05-7.28805E-06-5.65957E-19-4.22266E-18
 -1      2008 1.18381E-04-3.69593E-05-3.48534E-05 3.73467E-07 5.58248E-19-2.84979E-18
 -1      2009 1.18116E-04-3.71364E-05-3.47627E-05-1.38484E-06 1.38834E-19-2.80983E-18
 -1      2010 1.17712E-04-3.79251E-05-3.42146E-05-1.91380E-06-2.74955E-19-2.54578E-18
 -1      2011 1.16355E-04-3.57165E-05-3.45438E-05 3.16685E-06-8.50302E-19-2.96512E-18
 -1      2012 1.17127E-04-3.62294E-05-3.47149E-05 1.98931E-06-1.23111E-19-3.05877E-18
 -1      2013 1.15944E-04-3.65756E-05-3.40402E-05 2.29205E-06-1.33600E-19-1.95199E-18
 -1      2014 1.13532E-04-3.43575E-05-3.39342E-05 4.52516E-06-1.57874E-18-2.38394E-18
 -1      2015 1.14901E-04-3.49796E-05-3.42792E-05 3.93359E-06-1.40753E-18-2.84070E-18
 -1      2016 1.13360E-04-3.49199E-05-3.36362E-05 4.78041E-06-1.17047E-18-1.72013E-18
 -1      2017 1.10497E-04-3.31225E-05-3.31702E-05 4.84603E-06-1.15246E-18-6.87063E-19
 -1      2018 1.12096E-04-3.37304E-05-3.35967E-05 4.68357E-06-1.44273E-18-1.79587E-18
 -1      2019 1.10537E-04-3.34161E-05-3.30628E-05 5.79770E-06-1.86976E-18-5.30772E-19
 -1      2020 1.07595E-04-3.20845E-05-3.23729E-05 4.55637E-06-1.25798E-19 1.16864E-19
 -1      2021 1.09183E-04-3.26241E-05-3.28106E-05 4.65085E-06-7.87010E-19-1.88538E-19
 -1      2022 1.07805E-04-3.22032E-05-3.24058E-05 5.82808E-06-1.01470E-18-3.81494E-19
 -1      2023 1.05005E-04-3.12435E-05-3.16218E-05 3.97676E-06 1.09823E-19 1.07307E-18
 -1      2024 1.06447E-04-3.16979E-05-3.20275E-05 4.19701E-06 2.17340E-19 5.30178E-19
 -1      2025 1.05331E-04-3.12712E-05-3.17416E-05 5.31094E-06-3.27431E-20 1.68392E-19
 -1      2026 1.02796E-04-3.05755E-05-3.09588E-05 3.30827E-06-8.96219E-19 8.69186E-19
 -1      2027 1.04032E-04-3.09455E-05-3.13117E-05 3.57086E-06-3.72102E-19 9.26396E-19
 -1      2028 1.03183E-04-3.05660E-05-3.11223E-05 4.55640E-06-7.75565E-20 8.95471E-19
 -1      2029 1.00972E-04-3.00520E-05-3.03992E-05 2.66079E-06 2.39502E-19 3.88390E-19
 -1      2030 1.01992E-04-3.03461E-05-3.06932E-05 2.91932E-06-2.99463E-19 5.90968E-19
 -1      2031 1.01377E-04-3.00338E-05-3.05765E-05 3.75258E-06 1.12662E-20 6.34211E-19
 -1      2032 9.95046E-05-2.96465E-05-2.99423E-05 2.08558E-06-4.97976E-19 8.65978E-19
 -1      2033 1.00322E-04-2.98758E-05-3.01795E-05 2.31777E-06-4.30354E-19 5.48626E-19
 -1      2034 9.98968E-05-2.96317E-05-3.01146E-05 2.99937E-06 2.17879E-20 8.12958E-19
 -1      2035 9.83491E-05-2.93363E-05-2.95787E-05 1.60006E-06-1.17312E-19 1.03530E-18
 -1      2036 9.89886E-05-2.95119E-05-2.97653E-05 1.79773E-06 3.26836E-20 8.27187E-19
 -1      2037 9.87084E-05-2.93284E-05-2.97356E-05 2.34108E-06 1.45087E-21 2.39441E-19
 -1      2038 9.74563E-05-2.91022E-05-2.92954E-05 1.20393E-06 1.42913E-18-6.03595E-19
 -1      2039 9.79467E-05-2.92344E-05-2.94393E-05 1.36640E-06 2.14852E-19 4.55262E-19
 -1      2040 9.77727E-05-2.91008E-05-2.94323E-05 1.79032E-06 7.34116E-19-5.34169E-19
 -1      2041 9.67789E-05-2.89282E-05-2.90791E-05 8.88653E-07 1.23082E-18 4.02241E-19
 -1      2042 9.71479E-05-2.90260E-05-2.91878E-05 1.01884E-06 1.41450E-18 2.11309E-20
 -1      2043 9.70489E-05-2.89316E-05-2.91948E-05 1.34326E-06 1.23833E-18-1.09693E-19
 -1      2044 9.62743E-05-2.88012E-05-2.89169E-05 6.42656E-07 1.17884E-18 2.12941E-20
 -1      2045 9.65467E-05-2.88722E-05-2.89975E-05 7.44895E-07 1.74043E-18 1.03767E-18
 -1      2046 9.64989E-05-2.88074E-05-2.90122E-05 9.88600E-07 1.43473E-18 6.42375E-19
 -1      2047 9.59058E-05-2.87104E-05-2.87977E-05 4.54018E-07 3.38871E-19-1.07963E-18
 -1      2048 9.61027E-05-2.87608E-05-2.88563E-05 5.32930E-07 3.54987E-19-7.98965E-19
 -1      2049 9.60885E-05-2.87179E-05-2.88745E-05 7.12529E-07 1.22315E-18 4.47844E-19
 -1      2050 9.56426E-05-2.86472E-05-2.87119E-05 3.11714E-07 8.06124E-19-1.41398E-18
 -1      2051 9.57816E-05-2.86819E-05-2.87535E-05 3.71646E-07 8.15552E-19-1.12711E-18
 -1      2052 9.57882E-05-2.86549E-05-2.87727E-05 5.01254E-07 1.12393E-18 1.03202E-18
 -1      2053 9.54596E-05-2.86045E-05-2.86517E-05 2.06118E-07-2.68490E-19-2.26878E-18
 -1      2054 9.55549E-05-2.86277E-05-2.86804E-05 2.50915E-07-2.70726E-19-2.30695E-18
 -1      2055 9.55733E-05-2.86118E-05-2.86989E-05 3.42186E-07 3.36660E-19-4.62276E-19
 -1      2056 9.53368E-05-2.85771E-05-2.86109E-05 1.29121E-07 1.60467E-18-2.67778E-18
 -1      2057 9.53996E-05-2.85917E-05-2.86300E-05 1.62054E-07 1.07057E-18-1.93288E-18
 -1      2058 9.54237E-05-2.85834E-05-2.86468E-05 2.24399E-07 6.73720E-19-1.85643E-18
 -1      2059 9.52582E-05-2.85606E-05-2.85843E-05 7.40550E-08-1.28148E-18-8.91227E-19
 -1      2060 9.52973E-05-2.85692E-05-2.85963E-05 9.78350E-08-4.31666E-19-2.21119E-18
 -1      2061 9.53231E-05-2.85659E-05-2.86110E-05 1.38719E-07-5.22417E-19-1.42685E-18
 -1      2062 9.52116E-05-2.85520E-05-2.85680E-05 3.55534E-08 6.62047E-19 4.25889E-19
 -1      2063 9.52338E-05-2.85562E-05-2.85751E-05 5.23803E-08-2.45599E-19 4.59731E-19
 -1      2064 9.52587E-05-2.85560E-05-2.85875E-05 7.76242E-08-8.50241E-19-4.48408E-19
 -1      2065 9.51877E-05-2.85487E-05-2.85592E-05 9.38065E-09-1.16743E-19 1.91514E-19
 -1      2066 9.51980E-05-2.85500E-05-2.85627E-05 2.10015E-08 1.13125E-19 2.78644E-19
 -1      2067 9.52205E-05-2.85516E-05-2.85729E-05 3.50766E-08 8.51260E-20 4.03994E-19
 -1      2068 9.51793E-05-2.85490E-05-2.85556E-05-7.72789E-09 8.48521E-19 8.34984E-19
 -1      2069 9.51816E-05-2.85484E-05-2.85566E-05 4.04334E-11 1.74193E-19 2.94398E-19
 -1      2070 9.52008E-05-2.85508E-05-2.85647E-05 6.33334E-09 1.60842E-19 1.16191E-18
 -1      2071 9.51811E-05-2.85516E-05-2.85553E-05-1.82081E-08 1.77335E-18 2.64704E-19
 -1      2072 9.51783E-05-2.85498E-05-2.85547E-05-1.32797E-08 1.33112E-18 1.71077E-18
 -1      2073 9.51939E-05-2.85525E-05-2.85609E-05-1.22332E-08 1.51101E-18 2.87013E-18
 -1      2074 9.51893E-05-2.85556E-05-2.85571E-05-2.37792E-08 7.34718E-19 1.54013E-19
 -1      2075 9.51833E-05-2.85531E-05-2.85556E-05-2.09799E-08 2.09960E-18 4.58706E-19
 -1      2076 9.51953E-05-2.85557E-05-2.85601E-05-2.32932E-08 2.15913E-18 2.92753E-18
 -1      2077 9.52008E-05-2.85604E-05-2.85601E-05-2.55131E-08-4.85440E-19-1.73806E-18
 -1      2078 9.51933E-05-2.85575E-05-2.85581E-05-2.44167E-08 2.18319E-20-5.81971E-19
 -1      2079 9.52019E-05-2.85598E-05-2.85611E-05-2.86831E-08 4.89187E-19 2.16655E-18
 -1      2080 9.52132E-05-2.85654E-05-2.85633E-05-2.38792E-08 3.35756E-19-1.26175E-18
 -1      2081 9.52056E-05-2.85625E-05-2.85613E-05-2.43365E-08-1.74373E-19-1.76993E-18
 -1      2082 9.52111E-05-2.85644E-05-2.85630E-05-2.94699E-08 2.73491E-19-3.20554E-20
 -1      2083 9.52247E-05-2.85703E-05-2.85661E-05-1.87909E-08 1.04068E-18-5.55659E-19
 -1      2084 9.52180E-05-2.85677E-05-2.85645E-05-2.09935E-08 5.47705E-19-4.63349E-19
 -1      2085 9.52210E-05-2.85694E-05-2.85650E-05-2.61632E-08 4.82540E-19 9.73995E-19
 -1      2086 9.52325E-05-2.85742E-05-2.85679E-05-1.25285E-08-2.14634E-19 1.21098E-18
 -1      2087 9.52275E-05-2.85719E-05-2.85667E-05-1.63948E-08 7.22070E-19 4.40641E-19
 -1      2088 9.52290E-05-2.85736E-05-2.85666E-05-2.08162E-08 1.75562E-19 2.79757E-18
 -1      2089 9.52345E-05-2.85773E-05-2.85673E-05-1.51034E-08-8.34972E-19 4.05474E-18
 -1      2090 9.52487E-05-2.86047E-05-2.85617E-05-2.28413E-08 1.27104E-18-2.92320E-19
 -1      2091 9.52462E-05-2.85988E-05-2.85631E-05-2.37311E-08 1.16224E-18 6.06997E-19
 -1      2092 9.52440E-05-2.85949E-05-2.85639E-05-2.40712E-08 7.42163E-19 1.52281E-18
 -1      2093 9.52410E-05-2.85889E-05-2.85652E-05-2.32286E-08 3.06513E-19 2.39638E-18
 -1      2094 9.52437E-05-2.85922E-05-2.85650E-05-2.92174E-08 1.16503E-19 1.22446E-18
 -1      2095 9.52392E-05-2.85860E-05-2.85657E-05-2.14016E-08-6.17429E-19 1.47654E-18
 -1      2096 9.52363E-05-2.85806E-05-2.85668E-05-1.84456E-08-4.87959E-19 1.87505E-18
 -1      2097 9.52341E-05-2.85789E-05-2.85666E-05-2.18392E-08 5.18427E-20 2.60185E-18
 -1      2098 9.52388E-05-2.85853E-05-2.85658E-05-2.75259E-08-8.09628E-19 2.50776E-18
 -1      2099 9.52522E-05-2.86128E-05-2.85597E-05-1.90844E-08 4.21408E-19-2.31896E-18
 -1      2100 9.52503E-05-2.86079E-05-2.85610E-05-2.09777E-08 6.72657E-19-2.10576E-18
 -1      2101 9.52484E-05-2.85995E-05-2.85638E-05-2.66773E-08 8.43397E-19-1.37226E-18
 -1      2102 9.52546E-05-2.86190E-05-2.85580E-05-1.37905E-08 6.05558E-19 9.96358E-19
 -1      2103 9.52533E-05-2.86152E-05-2.85590E-05-1.62761E-08 3.18137E-19 7.16231E-19
 -1      2104 9.52515E-05-2.86052E-05-2.85627E-05-2.14952E-08 6.69649E-19-5.64147E-19
 -1      2105 9.52560E-05-2.86230E-05-2.85569E-05-7.78210E-09 2.26375E-19-2.08201E-18
 -1      2106 9.52552E-05-2.86206E-05-2.85576E-05-1.05199E-08 6.67005E-19 2.64613E-19
 -1      2107 9.52535E-05-2.86093E-05-2.85618E-05-1.47698E-08 2.71162E-19 2.75095E-19
 -1      2108 9.52565E-05-2.86245E-05-2.85565E-05-1.51694E-09-5.38045E-19 2.48121E-19
 -1      2109 9.52563E-05-2.86237E-05-2.85567E-05-4.33290E-09 2.78529E-19-1.63189E-18
 -1      2110 9.52545E-05-2.86117E-05-2.85612E-05-7.35485E-09-2.40918E-19-1.93559E-18
 -1      2111 9.52562E-05-2.86235E-05-2.85567E-05 4.75806E-09-2.68240E-19-2.67505E-19
 -1      2112 9.52565E-05-2.86244E-05-2.85565E-05 1.95996E-09-3.36931E-19 1.21926E-18
 -1      2113 9.52547E-05-2.86124E-05-2.85610E-05 2.78727E-10-1.65669E-18 5.23041E-19
 -1      2114 9.52551E-05-2.86203E-05-2.85576E-05 1.08515E-08-9.12080E-19 3.63560E-19
 -1      2115 9.52559E-05-2.86227E-05-2.85570E-05 8.16343E-09-7.97356E-19-7.57537E-19
 -1      2116 9.52543E-05-2.86115E-05-2.85613E-05 7.86300E-09-1.38758E-18-1.18468E-18
 -1      2117 9.52531E-05-2.86149E-05-2.85591E-05 1.63711E-08 7.75202E-19-2.26159E-19
 -1      2118 9.52545E-05-2.86187E-05-2.85581E-05 1.39956E-08-5.58851E-22 9.15600E-19
 -1      2119 9.52533E-05-2.86090E-05-2.85619E-05 1.50837E-08 1.12595E-20 5.28522E-19
 -1      2120 9.52501E-05-2.86074E-05-2.85611E-05 2.09543E-08 9.41076E-19 1.72118E-18
 -1      2121 9.52520E-05-2.86125E-05-2.85598E-05 1.90997E-08 8.47973E-19 9.18189E-19
 -1      2122 9.52513E-05-2.86049E-05-2.85628E-05 2.15690E-08 2.10398E-18 5.71871E-19
 -1      2123 9.52460E-05-2.85984E-05-2.85633E-05 2.35770E-08 5.75343E-19 1.01819E-20
 -1      2124 9.52485E-05-2.86042E-05-2.85618E-05 2.27588E-08 1.00961E-18 1.21471E-19
 -1      2125 9.52481E-05-2.85991E-05-2.85639E-05 2.66156E-08 1.43630E-18 7.99029E-19
 -1      2126 9.52406E-05-2.85885E-05-2.85653E-05 2.32245E-08-4.84642E-19 2.05596E-18
 -1      2127 9.52439E-05-2.85946E-05-2.85640E-05 2.38650E-08-3.88423E-19 1.48348E-18
 -1      2128 9.52436E-05-2.85918E-05-2.85650E-05 2.89651E-08 4.88263E-19-3.05016E-20
 -1      2129 5.72575E-05-4.02598E-05-7.82930E-06 3.93601E-05 3.25091E-18 8.88654E-18
 -1      2130 4.13053E-05-4.13454E-05-1.39195E-06 3.06953E-05 1.73006E-18 9.19867E-18
 -1      2131 1.14582E-05-3.20639E-05 7.55015E-06 3.06936E-06-2.16099E-19 6.59458E-18
 -1      2132 1.25348E-05-3.60731E-05 8.28932E-06-6.78861E-06-2.51516E-18 4.88569E-18
 -1      2133 2.77920E-05-3.56330E-05 2.37948E-06 2.60192E-05 1.81858E-18 9.26040E-18
 -1      2134 1.90081E-05-3.33416E-05 5.18071E-06 1.76356E-05 2.19382E-19 8.76679E-18
 -1      2135 1.01054E-04-4.62218E-05-2.34539E-05 4.06270E-05 5.49724E-18 5.06208E-18
 -1      2136 8.28388E-05-4.80116E-05-1.56821E-05 3.74791E-05 3.50968E-18 5.30592E-18
 -1      2137 1.36981E-04-4.64095E-05-3.84374E-05 3.16144E-05 5.52520E-18 3.70323E-18
 -1      2138 1.15326E-04-4.70388E-05-2.99146E-05 3.28573E-05 5.97455E-18 4.37662E-18
 -1      2139 1.22005E-04-5.78048E-05-2.73542E-05 3.02336E-05 1.61148E-18 1.49967E-18
 -1      2140 8.74014E-05-8.39061E-06-3.39577E-05-8.17737E-06-2.20263E-18-3.41009E-18
 -1      2141 8.85360E-05-9.10804E-06-3.41167E-05-9.70919E-06-2.57097E-18-2.86734E-18
 -1      2142 9.12229E-05-1.29264E-05-3.35802E-05-9.29636E-06-2.82232E-18-2.25869E-18
 -1      2143 8.84616E-05-1.03874E-05-3.34896E-05-6.96009E-06-2.18738E-18-3.31166E-18
 -1      2144 1.83304E-04-2.98983E-05-6.43730E-05 8.37056E-06 7.37808E-18 6.88638E-19
 -1      2145 1.73557E-04-3.12846E-05-6.00648E-05 1.58290E-05 8.14655E-18 2.61479E-18
 -1      2146 1.84863E-04-2.54091E-05-6.71087E-05-1.95796E-06 6.43491E-18-7.42530E-19
 -1      2147 1.81632E-04-2.45671E-05-6.61673E-05 4.05948E-06 6.59288E-18 8.98914E-19
 -1      2148 1.70992E-04-2.49212E-05-6.22195E-05-6.42434E-06 6.40696E-18-1.57167E-18
 -1      2149 1.83913E-04-2.62074E-05-6.59824E-05-3.69590E-06 6.54291E-18-1.06811E-18
 -1      2150 1.60283E-04-1.41583E-05-6.14751E-05 1.03652E-06 6.88045E-18-9.24325E-20
 -1      2151 1.57883E-04-3.68873E-05-5.14754E-05-1.50935E-05 5.66014E-18-1.81900E-18
 -1      2152 1.70172E-04-3.28922E-05-5.78176E-05-1.13657E-05 5.87926E-18-1.67797E-18
 -1      2153 1.28524E-04-4.38792E-05-3.64937E-05-3.18677E-05 5.16605E-18-4.47826E-18
 -1      2154 1.48079E-04-4.42259E-05-4.42223E-05-2.53950E-05 4.81274E-18-3.02010E-18
 -1      2155 9.46843E-05-4.81501E-05-2.07482E-05-3.70322E-05 3.31529E-18-4.65445E-18
 -1      2156 1.14146E-04-4.50399E-05-2.94176E-05-4.03871E-05 4.66503E-18-4.82893E-18
 -1      2157 1.30937E-04-5.52254E-05-3.21255E-05-2.70081E-05 1.68623E-18-1.01517E-18
 -1      2158 5.34517E-05-4.40175E-05-5.44765E-06-3.47970E-05 2.33527E-18-6.00748E-18
 -1      2159 7.27180E-05-4.33096E-05-1.29466E-05-4.24352E-05 2.68679E-18-5.86602E-18
 -1      2160 2.43443E-05-3.89217E-05 4.64867E-06-2.20252E-05 1.31121E-18-6.06327E-18
 -1      2161 3.49802E-05-3.80424E-05 2.12267E-07-3.01814E-05 3.27844E-18-6.08000E-18
 -1      2162 1.27278E-05-3.35413E-05 7.67301E-06-1.86149E-06-8.08983E-19-6.82878E-18
 -1      2163 1.52887E-05-3.24377E-05 6.34475E-06-1.21185E-05 1.03423E-18-7.04901E-18
 -1      2164 1.77281E-05-3.28028E-05 5.43960E-06 1.81555E-05-2.20356E-18-7.12990E-18
 -1      2165 1.37446E-05-3.48316E-05 7.70700E-06 8.30693E-06-4.40987E-19-6.90967E-18
 -1      2166 1.55512E-05-2.30030E-05 2.70250E-06 3.37138E-06-4.76112E-19-7.64532E-18
 -1      2167 4.43865E-05-3.77773E-05-3.46457E-06 3.68894E-05-3.40931E-18-7.02148E-18
 -1      2168 3.16998E-05-3.88723E-05 1.74764E-06 2.85595E-05-1.83721E-18-6.81459E-18
 -1      2169 8.41579E-05-4.52511E-05-1.70402E-05 4.32817E-05-3.51095E-18-5.45341E-18
 -1      2170 6.25468E-05-4.42943E-05-8.96048E-06 3.80965E-05-3.60413E-18-6.21463E-18
 -1      2171 6.38837E-05-4.30654E-05-8.98101E-06 4.26610E-05-2.00323E-19-5.75749E-18
 -1      2172 1.24503E-04-4.22761E-05-3.47379E-05 3.88738E-05-5.98513E-18-6.04231E-18
 -1      2173 1.07022E-04-4.67498E-05-2.61072E-05 3.69853E-05-4.66927E-18-5.05975E-18
 -1      2174 1.52265E-04-3.99805E-05-4.81011E-05 1.97719E-05-4.62435E-18-4.71459E-18
 -1      2175 1.36946E-04-4.04727E-05-4.12422E-05 2.86931E-05-5.66009E-18-5.85681E-18
 -1      2176 1.38542E-04-5.06528E-05-3.71732E-05 2.13380E-05-2.85927E-18-2.70119E-18
 -1      2177 1.76383E-04-2.94925E-05-6.12174E-05 1.43350E-05-6.55476E-18-5.34817E-18
 -1      2178 1.59578E-04-2.99142E-05-5.50742E-05 1.44034E-05-5.83902E-18-4.71628E-18
 -1      2179 1.78546E-04-2.29769E-05-6.56456E-05 2.27356E-06-7.04477E-18-3.53086E-18
 -1      2180 1.77658E-04-2.56280E-05-6.40290E-05 9.75239E-06-7.02783E-18-4.94434E-18
 -1      2181 1.58717E-04-1.97505E-05-5.86158E-05-7.90683E-08-6.58060E-18-2.30414E-18
 -1      2182 1.79214E-04-2.49153E-05-6.48760E-05-7.74464E-06-6.85631E-18-1.09881E-18
 -1      2183 1.78608E-04-2.26398E-05-6.59029E-05-3.32646E-08-7.13371E-18-3.19199E-18
 -1      2184 1.67014E-04-2.99374E-05-5.80539E-05-1.88372E-05-6.59087E-18 9.37242E-19
 -1      2185 1.78732E-04-2.95143E-05-6.25823E-05-1.27573E-05-6.24983E-18-6.66191E-19
 -1      2186 1.44478E-04-3.80196E-05-4.54398E-05-2.38476E-05-6.01425E-18 9.46136E-19
 -1      2187 1.62102E-04-3.51321E-05-5.29640E-05-2.47196E-05-6.34449E-18 9.60112E-19
 -1      2188 1.56976E-04-3.23594E-05-5.26570E-05-5.81445E-06-5.69799E-18-1.73218E-18
 -1      2189 1.08664E-04-4.23019E-05-2.88892E-05-3.70403E-05-5.87926E-18 3.53170E-18
 -1      2190 1.30040E-04-4.37989E-05-3.69849E-05-3.38143E-05-5.00088E-18 1.87872E-18
 -1      2191 7.21542E-05-4.24309E-05-1.39495E-05-3.80906E-05-5.24779E-18 5.21328E-18
 -1      2192 9.10185E-05-4.01228E-05-2.19106E-05-4.34688E-05-5.86316E-18 4.50240E-18
 -1      2193 4.15836E-05-3.97550E-05-1.80778E-06-3.36867E-05-3.03619E-18 7.19057E-18
 -1      2194 5.49050E-05-3.85913E-05-7.64668E-06-3.92258E-05-4.49139E-18 7.41294E-18
 -1      2195 1.72347E-05-3.78439E-05 6.92868E-06-1.52980E-05-2.69695E-18 4.63242E-18
 -1      2196 2.45365E-05-3.46751E-05 3.13459E-06-2.54526E-05-3.32206E-18 6.37710E-18
 -1      2197 1.66820E-05-2.65178E-05 3.53791E-06-1.43301E-05-6.89591E-19 5.12540E-18
 -1      2198 1.67685E-04-3.77598E-05-5.43954E-05 2.00590E-05 7.24409E-18 2.68679E-18
 -1      2199 1.48451E-04-3.96140E-05-4.67102E-05 2.11716E-05 6.47737E-18 3.68417E-18
 -1      2200 9.94098E-05-2.50038E-05-3.19525E-05-8.15010E-06-2.93116E-18 2.42838E-18
 -1      2201 1.47364E-04-5.08207E-05-4.09797E-05 1.33411E-05 3.78243E-18 2.48181E-19
 -1      2202 1.61304E-04-3.33193E-05-5.38898E-05 1.43130E-06 6.84318E-18 7.83505E-20
 -1      2203 9.84800E-05-2.37038E-05-3.21207E-05-8.08135E-06-3.08456E-18 7.91446E-19
 -1      2204 4.16613E-05-3.54853E-05-3.12615E-06 3.45009E-05-7.29719E-19 9.20746E-18
 -1      2205 1.78568E-05-2.79167E-05 3.69435E-06 1.18285E-05 1.86559E-19 8.28229E-18
 -1      2206 1.70005E-05-1.92924E-05 1.11789E-06 5.84809E-06 4.07767E-19 7.18623E-18
 -1      2207 2.52009E-05-2.24808E-05-1.16256E-06 2.04984E-05-4.23728E-19 8.87796E-18
 -1      2208 9.52383E-05-2.85841E-05-2.85661E-05 2.31526E-08-3.67308E-19 1.08594E-18
 -1      2209 8.20480E-05-4.96088E-05-1.40439E-05 4.10492E-05 2.35475E-19 5.29958E-18
 -1      2210 3.77473E-05-3.59692E-05-1.45914E-06-3.28249E-05-1.66273E-18 6.04358E-18
 -1      2211 5.15946E-05-3.66706E-05-6.70762E-06-4.03789E-05 8.59103E-19 5.16436E-18
 -1      2212 3.42220E-05-2.87148E-05-2.15717E-06-3.25120E-05-2.30816E-19 5.43118E-18
 -1      2213 7.56874E-05-4.66323E-05-1.28848E-05-4.26111E-05-9.61382E-19 4.27111E-18
 -1      2214 1.40630E-04-4.53597E-05-4.04440E-05-2.29870E-05-3.87581E-18-3.71847E-19
 -1      2215 1.45834E-04-4.66128E-05-4.29925E-05-9.29304E-06-3.00754E-18-3.29559E-18
 -1      2216 1.35798E-04-5.22826E-05-3.53675E-05-2.05802E-05-2.02208E-18-2.50023E-18
 -1      2217 1.60215E-04-1.38655E-05-6.16785E-05 1.62789E-07-7.56443E-18-2.48257E-18
 -1      2218 1.53524E-04-3.59804E-05-5.00511E-05 9.34177E-06-4.52856E-18-3.71339E-18
 -1      2219 1.47157E-04-4.17206E-05-4.48348E-05 3.56241E-06-3.35753E-18-1.81413E-18
 -1      2220 1.49784E-04-3.19350E-05-5.11666E-05-2.52109E-06-4.51596E-18-1.56532E-18
 -1      2221 1.02774E-04-5.13813E-05-2.20523E-05 3.88769E-05-2.56397E-18-4.11976E-18
 -1      2222 9.88490E-05-5.33964E-05-1.89656E-05 4.08490E-05 8.95737E-20-2.78706E-18
 -1      2223 1.19033E-04-5.71817E-05-2.71322E-05 3.27403E-05-7.76729E-19-1.75558E-18
 -1      2224 2.97498E-05-3.01678E-05-2.22423E-07 2.84122E-05 9.50794E-20-7.10534E-18
 -1      2225 2.38654E-05-2.86007E-05 1.43451E-06-2.10974E-05-5.33207E-19-6.94694E-18
 -1      2226 9.53319E-05-5.31213E-05-1.80940E-05-3.99022E-05 2.07523E-20-3.28194E-18
 -1      2227 1.59879E-04-2.62860E-05-5.66556E-05 1.90943E-06 5.77020E-18 6.60686E-20
 -1      2228 1.65126E-04-1.94255E-05-6.11803E-05-1.09194E-06 7.53182E-18 1.59666E-19
 -1      2229 1.53039E-04-4.42962E-05-4.63031E-05-1.27064E-05 4.05745E-18-9.08019E-19
 -1      2230 1.51443E-04-4.22988E-05-4.72007E-05 1.83317E-06 3.22741E-18 1.53186E-18
 -1      2231 1.46336E-04-5.06294E-05-4.07441E-05-8.55875E-06 1.94876E-18 1.27013E-18
 -1      2232 5.36133E-05-4.06504E-05-5.85908E-06-3.95741E-05-8.17387E-20-5.62028E-18
 -1      2233 1.60894E-04-1.91050E-05-5.96037E-05-3.55580E-07-7.02656E-18-2.23765E-18
 -1      2234 1.11512E-04-5.15421E-05-2.54394E-05-3.65235E-05-2.28402E-18 8.88749E-19
 -1      2235 9.83470E-05-2.69670E-05-3.05634E-05 1.28023E-06 2.23235E-18 1.56378E-18
 -1      2236 9.88348E-05-2.63872E-05-3.09756E-05 3.30309E-06 2.53357E-18 1.92979E-18
 -1      2237 8.55964E-05-8.97573E-06-3.28779E-05-2.04422E-06-7.45789E-19-3.90212E-18
 -1      2238 8.62247E-05-9.46217E-06-3.29257E-05-2.88087E-06-1.09880E-18-3.89482E-18
 -1      2239 8.70612E-05-1.02793E-05-3.29550E-05-3.60172E-06-1.32385E-18-3.68838E-18
 -1      2240 8.79665E-05-1.10214E-05-3.30123E-05-4.56248E-06-1.71664E-18-3.54737E-18
 -1      2241 8.77316E-05-1.16805E-05-3.25886E-05-2.64252E-06-1.16024E-18-3.53891E-18
 -1      2242 8.44830E-05-7.98282E-06-3.28159E-05 5.75499E-07 5.75974E-19-3.91560E-18
 -1      2243 8.45161E-05-8.00946E-06-3.28161E-05-1.24439E-07 1.88023E-19-3.96309E-18
 -1      2244 8.49023E-05-8.31008E-06-3.28534E-05 1.81663E-06 1.16927E-18-3.90385E-18
 -1      2245 8.46161E-05-8.09777E-06-3.28260E-05 1.10470E-06 8.53082E-19-3.95079E-18
 -1      2246 8.54413E-05-9.57538E-06-3.25082E-05 7.58536E-07 6.87538E-19-3.68665E-18
 -1      2247 8.59721E-05-9.20626E-06-3.29291E-05 3.13346E-06 1.72580E-18-3.71215E-18
 -1      2248 8.53766E-05-8.74927E-06-3.28799E-05 2.36562E-06 1.37455E-18-3.83171E-18
 -1      2249 8.60694E-05-1.01214E-05-3.25421E-05 1.76665E-06 1.17247E-18-3.59543E-18
 -1      2250 8.77304E-05-1.07595E-05-3.30238E-05 4.66010E-06 2.44254E-18-3.09391E-18
 -1      2251 8.68021E-05-1.00043E-05-3.29624E-05 3.76490E-06 2.01740E-18-3.44380E-18
 -1      2252 8.74140E-05-1.13369E-05-3.25961E-05 2.86464E-06 1.79832E-18-3.28866E-18
 -1      2253 9.01792E-05-1.30834E-05-3.30951E-05 6.39484E-06 2.96592E-18-2.40313E-18
 -1      2254 8.89123E-05-1.19529E-05-3.30427E-05 5.37474E-06 2.59857E-18-2.82697E-18
 -1      2255 8.94772E-05-1.32930E-05-3.26384E-05 4.10576E-06 2.41118E-18-2.71309E-18
 -1      2256 9.33723E-05-1.64084E-05-3.30742E-05 8.16515E-06 3.39043E-18-1.19883E-18
 -1      2257 9.17228E-05-1.47426E-05-3.30598E-05 7.11312E-06 3.11791E-18-1.88060E-18
 -1      2258 9.22037E-05-1.60704E-05-3.26058E-05 5.39764E-06 2.88626E-18-1.90846E-18
 -1      2259 9.82899E-05-2.78274E-05-3.01641E-05-1.77761E-06 1.73353E-18 1.04572E-18
 -1      2260 9.82801E-05-2.74899E-05-3.02669E-05-4.94431E-07 1.96975E-18 1.46817E-18
 -1      2261 9.79758E-05-2.60835E-05-3.08270E-05 7.69952E-07 2.33603E-18 3.51380E-19
 -1      2262 9.81738E-05-2.54930E-05-3.10992E-05-3.42177E-06-2.45716E-18 3.75176E-20
 -1      2263 9.78719E-05-2.62960E-05-3.06807E-05-1.33413E-06-2.17294E-18-8.19546E-20
 -1      2264 1.48843E-04-4.90561E-05-4.32172E-05 1.77652E-06 3.53227E-18-7.54706E-19
 -1      2265 1.40120E-04-5.57585E-05-3.62152E-05 9.74169E-06 1.71646E-18-2.33146E-19
 -1      2266 9.79908E-05-2.70002E-05-3.03673E-05 2.59961E-07-1.85499E-18-5.79026E-22
 -1      2267 9.79691E-05-2.74765E-05-3.02021E-05 1.54213E-06-1.55732E-18-1.13773E-19
 -1      2268 9.74614E-05-2.55094E-05-3.08508E-05-8.38309E-07-2.09893E-18-6.26098E-19
 -1      2269 9.80955E-05-2.78926E-05-3.00476E-05 2.67311E-06-1.36572E-18 5.45397E-20
 -1      2270 9.83756E-05-2.82870E-05-3.00288E-05 3.49824E-06-1.13257E-18-2.46666E-19
 -1      2271 9.77162E-05-2.69386E-05-3.03528E-05 2.10222E-06-1.53536E-18-5.53137E-19
 -1      2272 9.86512E-05-2.86418E-05-2.99781E-05 4.26855E-06-9.25065E-19-3.16869E-19
 -1      2273 9.91783E-05-2.90590E-05-3.00463E-05 4.76870E-06-7.82677E-19-4.00954E-19
 -1      2274 9.81596E-05-2.79455E-05-3.01116E-05 4.16143E-06-1.16960E-18-4.63205E-19
 -1      2275 9.96441E-05-2.94600E-05-3.00598E-05 5.23023E-06-6.45437E-19-4.59938E-19
 -1      2276 1.00354E-04-2.99539E-05-3.01745E-05 5.43364E-06-5.94308E-19-5.14791E-19
 -1      2277 9.89370E-05-2.88981E-05-3.00357E-05 5.51219E-06-8.82557E-19-6.05845E-19
 -1      2278 1.01029E-04-3.04674E-05-3.02238E-05 5.57285E-06-6.35425E-19-4.84634E-19
 -1      2279 1.01857E-04-3.10644E-05-3.03536E-05 5.44361E-06-5.40400E-19-4.19974E-19
 -1      2280 1.00108E-04-3.00140E-05-3.00592E-05 6.20244E-06-6.50151E-19-7.00633E-19
 -1      2281 1.02751E-04-3.17286E-05-3.04204E-05 5.19310E-06-3.26721E-19-5.03902E-19
 -1      2282 1.03615E-04-3.24200E-05-3.05403E-05 4.65983E-06-3.90408E-19-4.09883E-19
 -1      2283 1.01706E-04-3.14282E-05-3.01386E-05 6.15729E-06-5.09282E-19-8.91604E-19
 -1      2284 1.04711E-04-3.32245E-05-3.06184E-05 3.91933E-06-6.79431E-19-9.69787E-20
 -1      2285 1.05498E-04-3.39364E-05-3.07122E-05 2.91552E-06-7.90009E-19 1.10429E-20
 -1      2286 1.03729E-04-3.31809E-05-3.02548E-05 5.20906E-06-4.20024E-19-6.52470E-19
 -1      2287 1.06708E-04-3.47761E-05-3.08115E-05 1.59975E-06-5.19883E-19 2.94284E-19
 -1      2288 1.07253E-04-3.53286E-05-3.08767E-05 1.32744E-07-3.40418E-19 6.20839E-19
 -1      2289 1.06078E-04-3.51355E-05-3.04199E-05 3.15999E-06-5.07507E-19 7.14374E-20
 -1      2290 1.08354E-04-3.59508E-05-3.10252E-05-1.73181E-06-2.75903E-19 7.65494E-19
 -1      2291 1.08445E-04-3.60420E-05-3.10760E-05-3.48175E-06 7.27356E-20 7.66224E-19
 -1      2292 1.08446E-04-3.68562E-05-3.06847E-05-7.90933E-08-2.02668E-19 5.45713E-19
 -1      2293 1.09061E-04-3.60456E-05-3.13112E-05-5.60585E-06 2.27766E-19 8.44270E-19
 -1      2294 1.08511E-04-3.53328E-05-3.13755E-05-7.18817E-06 3.89175E-19 1.01242E-18
 -1      2295 1.10225E-04-3.75402E-05-3.11298E-05-4.23998E-06 2.93798E-20 1.08702E-18
 -1      2296 1.08222E-04-3.43299E-05-3.17206E-05-8.86503E-06 1.90601E-19 5.05717E-19
 -1      2297 1.07042E-04-3.27066E-05-3.18200E-05-9.56984E-06-2.51416E-19 5.86249E-19
 -1      2298 1.10571E-04-3.61913E-05-3.18284E-05-8.35909E-06-1.67463E-20 8.70441E-19
 -1      2299 1.05794E-04-3.07560E-05-3.22355E-05-9.80034E-06-6.21969E-19 4.75768E-19
 -1      2300 1.04366E-04-2.86875E-05-3.23571E-05-8.97510E-06-9.51509E-19 2.80351E-19
 -1      2301 1.08955E-04-3.24149E-05-3.27588E-05-1.06186E-05-6.87718E-19 5.09148E-19
 -1      2302 1.02825E-04-2.66173E-05-3.27173E-05-7.09495E-06-1.19724E-18 2.24960E-20
 -1      2303 1.01840E-04-2.51280E-05-3.28098E-05-4.68809E-06-1.41550E-18-3.50691E-20
 -1      2304 1.05989E-04-2.73371E-05-3.37142E-05-9.09110E-06-1.19382E-18 8.87692E-19
 -1      2305 1.01148E-04-2.42331E-05-3.29587E-05-1.16098E-06-1.70635E-18-5.28783E-19
 -1      2306 1.01208E-04-2.42750E-05-3.29700E-05 1.93202E-06-1.76796E-18-5.35660E-19
 -1      2307 1.03591E-04-2.35928E-05-3.43414E-05-3.37709E-06-1.89505E-18 2.75870E-19
 -1      2308 1.01970E-04-2.52050E-05-3.28376E-05 5.41273E-06-1.60349E-18-9.70006E-19
 -1      2309 1.03038E-04-2.67188E-05-3.27714E-05 7.80856E-06-1.54115E-18-1.07934E-18
 -1      2310 1.03666E-04-2.36391E-05-3.43528E-05 4.22139E-06-1.87497E-18-5.74179E-19
 -1      2311 1.04649E-04-2.88122E-05-3.24281E-05 9.66699E-06-1.53411E-18-1.27804E-18
 -1      2312 1.06160E-04-3.08940E-05-3.23342E-05 1.04696E-05-8.61100E-19-1.49822E-18
 -1      2313 1.06173E-04-2.74229E-05-3.37565E-05 9.87273E-06-1.58373E-18-1.24906E-18
 -1      2314 1.07434E-04-3.28256E-05-3.19412E-05 1.02255E-05-1.62404E-19-1.99420E-18
 -1      2315 1.08691E-04-3.44467E-05-3.18715E-05 9.52458E-06 3.78223E-19-1.91493E-18
 -1      2316 1.09233E-04-3.25243E-05-3.28367E-05 1.13522E-05-8.06240E-19-1.17367E-18
 -1      2317 1.08999E-04-3.54241E-05-3.15488E-05 7.86896E-06 3.94785E-19-2.39583E-18
 -1      2318 1.09629E-04-3.61358E-05-3.15147E-05 6.32089E-06 5.75006E-19-2.31445E-18
 -1      2319 1.10887E-04-3.62352E-05-3.19489E-05 9.09326E-06 1.99391E-19-1.78828E-18
 -1      2320 1.09045E-04-3.61209E-05-3.13002E-05 4.24771E-06 6.32952E-19-2.15667E-18
 -1      2321 1.09046E-04-3.60453E-05-3.12792E-05 2.54951E-06 8.92508E-19-1.71120E-18
 -1      2322 1.10588E-04-3.75305E-05-3.12899E-05 5.05396E-06 6.87466E-19-2.14351E-18
 -1      2323 1.07985E-04-3.54292E-05-3.11482E-05 7.43355E-07 6.02757E-19-1.51456E-18
 -1      2324 1.07542E-04-3.49101E-05-3.11111E-05-6.70420E-07 3.75945E-19-1.37578E-18
 -1      2325 1.08883E-04-3.68394E-05-3.08788E-05 1.00539E-06 7.44911E-19-1.37895E-18
 -1      2326 1.06374E-04-3.40927E-05-3.10217E-05-1.93889E-06-1.41316E-20-1.60357E-18
 -1      2327 1.05692E-04-3.34312E-05-3.09510E-05-2.90494E-06-3.46506E-19-1.93996E-18
 -1      2328 1.06601E-04-3.51525E-05-3.06352E-05-2.12862E-06-6.28608E-20-1.77046E-18
 -1      2329 1.04628E-04-3.26634E-05-3.08714E-05-3.63090E-06-7.11127E-19-2.37548E-18
 -1      2330 1.03858E-04-3.20378E-05-3.07653E-05-4.16211E-06-2.24324E-19-2.39663E-18
 -1      2331 1.04334E-04-3.32757E-05-3.04699E-05-4.12307E-06-1.04999E-18-2.61643E-18
 -1      2332 1.02972E-04-3.14244E-05-3.06790E-05-4.45556E-06-3.03005E-20-3.22410E-18
 -1      2333 1.02207E-04-3.09085E-05-3.05460E-05-4.64385E-06-2.82126E-19-2.85394E-18
 -1      2334 1.02362E-04-3.16443E-05-3.03220E-05-5.11683E-06-8.06627E-19-3.10893E-18
 -1      2335 1.01501E-04-3.04645E-05-3.04492E-05-4.63831E-06-1.20120E-19-2.99415E-18
 -1      2336 1.00791E-04-3.00709E-05-3.03019E-05-4.59223E-06-4.36875E-19-2.59879E-18
 -1      2337 1.00758E-04-3.04042E-05-3.01627E-05-5.36934E-06-1.96146E-19-3.92166E-18
 -1      2338 1.00238E-04-2.97709E-05-3.01979E-05-4.40431E-06-6.89396E-19-2.37748E-18
 -1      2339 9.96079E-05-2.94849E-05-3.00484E-05-4.21876E-06-4.88054E-19-2.65015E-18
 -1      2340 9.94904E-05-2.95427E-05-2.99862E-05-5.13694E-06-4.21815E-19-3.69014E-18
 -1      2341 9.91753E-05-2.92931E-05-2.99430E-05-3.93650E-06-2.36790E-19-1.96710E-18
 -1      2342 9.86336E-05-2.90919E-05-2.98009E-05-3.68295E-06 5.00734E-21-1.75119E-18
 -1      2343 9.85002E-05-2.89854E-05-2.97988E-05-4.62682E-06 6.51784E-20-2.82399E-18
 -1      2344 9.82949E-05-2.89757E-05-2.96997E-05-3.36679E-06-3.18141E-19-1.62402E-18
 -1      2345 9.78409E-05-2.88377E-05-2.95712E-05-3.09365E-06-3.47870E-19-1.66643E-18
 -1      2346 9.77275E-05-2.86492E-05-2.96105E-05-3.98904E-06-2.25510E-19-1.44294E-18
 -1      2347 9.75754E-05-2.87716E-05-2.94782E-05-2.78173E-06-3.25138E-19-1.43935E-18
 -1      2348 9.72034E-05-2.86791E-05-2.93665E-05-2.51877E-06-3.15985E-19-6.32189E-19
 -1      2349 9.71240E-05-2.84627E-05-2.94309E-05-3.32344E-06-1.30935E-19-8.19073E-19
 -1      2350 9.69954E-05-2.86448E-05-2.92843E-05-2.23283E-06-1.06409E-19-1.00033E-18
 -1      2351 9.66969E-05-2.85845E-05-2.91903E-05-1.99625E-06 7.10516E-19-4.56254E-19
 -1      2352 9.66526E-05-2.83726E-05-2.92669E-05-2.69096E-06-7.95944E-20 6.64992E-19
 -1      2353 9.65348E-05-2.85697E-05-2.91199E-05-1.74678E-06-1.56538E-19-7.63897E-19
 -1      2354 9.63000E-05-2.85317E-05-2.90430E-05-1.54362E-06-2.80354E-19-1.23211E-18
 -1      2355 9.62856E-05-2.83413E-05-2.91225E-05-2.12458E-06-3.21526E-19 4.44937E-19
 -1      2356 9.61746E-05-2.85283E-05-2.89844E-05-1.33383E-06-5.42568E-21-1.66986E-18
 -1      2357 9.59936E-05-2.85055E-05-2.89230E-05-1.16540E-06 9.46857E-20-1.22255E-18
 -1      2358 9.60016E-05-2.83437E-05-2.89993E-05-1.63835E-06-5.52508E-19-4.83684E-19
 -1      2359 9.58977E-05-2.85084E-05-2.88754E-05-9.94095E-07 1.36415E-19-1.46589E-18
 -1      2360 9.57609E-05-2.84959E-05-2.88275E-05-8.58400E-07 2.88425E-19-9.39857E-19
 -1      2361 9.57839E-05-2.83638E-05-2.88969E-05-1.23437E-06 2.70250E-20-5.61458E-19
 -1      2362 9.56886E-05-2.85019E-05-2.87897E-05-7.21996E-07 1.40226E-19-1.41930E-19
 -1      2363 9.55876E-05-2.84960E-05-2.87532E-05-6.15346E-07 7.72328E-19 2.19184E-19
 -1      2364 9.56191E-05-2.83917E-05-2.88139E-05-9.07693E-07 8.94858E-19 4.66296E-19
 -1      2365 9.55339E-05-2.85032E-05-2.87238E-05-5.09158E-07 9.47992E-19-2.15326E-19
 -1      2366 9.54611E-05-2.85017E-05-2.86966E-05-4.27212E-07 1.34156E-18 5.43548E-19
 -1      2367 9.54962E-05-2.84215E-05-2.87481E-05-6.49696E-07 8.68797E-19 9.69438E-19
 -1      2368 9.54221E-05-2.85089E-05-2.86743E-05-3.46293E-07 1.10784E-18 5.21820E-19
 -1      2369 9.53712E-05-2.85101E-05-2.86545E-05-2.84688E-07 6.83194E-19 5.82386E-19
 -1      2370 9.54062E-05-2.84500E-05-2.86969E-05-4.50332E-07 8.51323E-19-3.92791E-19
 -1      2371 9.53434E-05-2.85168E-05-2.86379E-05-2.24319E-07 1.18117E-18 6.25804E-19
 -1      2372 9.53092E-05-2.85194E-05-2.86240E-05-1.79021E-07 1.12973E-18 1.59555E-18
 -1      2373 9.53417E-05-2.84754E-05-2.86581E-05-2.99479E-07 1.01866E-18 5.94148E-19
 -1      2374 9.52901E-05-2.85253E-05-2.86119E-05-1.34971E-07 5.88501E-20 1.52074E-18
 -1      2375 9.52682E-05-2.85287E-05-2.86025E-05-1.02453E-07-2.33117E-20 1.02496E-18
 -1      2376 9.52969E-05-2.84973E-05-2.86293E-05-1.87738E-07 4.82142E-19 8.21044E-19
 -1      2377 9.52556E-05-2.85338E-05-2.85940E-05-7.10965E-08-1.42566E-19 1.75952E-18
 -1      2378 9.52428E-05-2.85374E-05-2.85879E-05-4.83986E-08-2.13524E-19 1.95144E-18
 -1      2379 9.52667E-05-2.85155E-05-2.86084E-05-1.06839E-07 4.14247E-19 1.59086E-18
 -1      2380 9.52349E-05-2.85417E-05-2.85820E-05-2.67454E-08-6.23393E-19 1.56725E-18
 -1      2381 9.52285E-05-2.85454E-05-2.85784E-05-1.14799E-08-1.18110E-19 1.37396E-18
 -1      2382 9.52476E-05-2.85303E-05-2.85936E-05-4.98009E-08-4.71155E-19 2.29787E-18
 -1      2383 9.52241E-05-2.85490E-05-2.85746E-05 2.84687E-09 1.16532E-18 1.76605E-18
 -1      2384 9.52221E-05-2.85526E-05-2.85726E-05 1.25283E-08 2.15741E-18 1.77257E-18
 -1      2385 9.52364E-05-2.85424E-05-2.85835E-05-1.09488E-08 8.84282E-20 2.31415E-18
 -1      2386 9.52201E-05-2.85557E-05-2.85702E-05 2.13417E-08 1.41189E-18 1.73939E-18
 -1      2387 9.52210E-05-2.85591E-05-2.85693E-05 2.67947E-08 1.31946E-18 2.18482E-18
 -1      2388 9.52308E-05-2.85523E-05-2.85768E-05 1.41603E-08 1.58117E-18 1.87092E-18
 -1      2389 9.52207E-05-2.85619E-05-2.85679E-05 3.13942E-08 1.00995E-18 1.28737E-18
 -1      2390 9.52233E-05-2.85654E-05-2.85677E-05 3.35206E-08 4.56199E-19 1.49206E-18
 -1      2391 9.52293E-05-2.85607E-05-2.85724E-05 2.88516E-08 5.89189E-19 1.93234E-18
 -1      2392 9.52242E-05-2.85682E-05-2.85668E-05 3.47990E-08-5.94766E-19 1.28914E-18
 -1      2393 9.52276E-05-2.85715E-05-2.85669E-05 3.40766E-08-1.51886E-18 1.02347E-18
 -1      2394 9.52304E-05-2.85682E-05-2.85696E-05 3.54523E-08-2.70011E-19 1.21942E-18
 -1      2395 9.99656E-05-2.90015E-05-3.03884E-05-5.66656E-06 8.92664E-19 3.16174E-19
 -1      2396 9.91371E-05-2.86365E-05-3.01874E-05-4.95268E-06 1.04683E-18 6.16752E-19
 -1      2397 1.01624E-04-2.97362E-05-3.07912E-05-6.99074E-06 8.88418E-19 2.46401E-20
 -1      2398 1.00503E-04-2.92705E-05-3.05114E-05-6.44368E-06 9.52987E-19 2.33528E-19
 -1      2399 9.93775E-05-2.84835E-05-3.04031E-05-6.86518E-06 1.07847E-18-3.87076E-19
 -1      2400 1.03754E-04-3.07350E-05-3.12880E-05-7.90020E-06 9.03559E-19 1.65071E-19
 -1      2401 1.02401E-04-3.01209E-05-3.09650E-05-7.56955E-06 7.74740E-19 8.52633E-20
 -1      2402 1.00717E-04-2.92687E-05-3.06404E-05-8.35660E-06 9.78883E-19-5.64223E-19
 -1      2403 1.06322E-04-3.21297E-05-3.18095E-05-8.17648E-06 5.40955E-19 3.82637E-19
 -1      2404 1.04802E-04-3.13173E-05-3.14821E-05-8.19716E-06 6.45986E-19 3.51386E-19
 -1      2405 1.02570E-04-3.04240E-05-3.09425E-05-9.34891E-06 6.29150E-19-2.09308E-19
 -1      2406 1.09282E-04-3.40351E-05-3.22883E-05-7.42557E-06 4.39134E-20 9.15437E-19
 -1      2407 1.07701E-04-3.30014E-05-3.19995E-05-8.01081E-06 4.83155E-19 7.20426E-19
 -1      2408 1.05043E-04-3.21774E-05-3.12575E-05-9.58100E-06 2.44534E-19 2.19353E-19
 -1      2409 1.12507E-04-3.64278E-05-3.26762E-05-5.14040E-06-3.09425E-19 1.21410E-18
 -1      2410 1.11048E-04-3.52484E-05-3.24646E-05-6.52663E-06-1.73814E-19 1.16274E-18
 -1      2411 1.08264E-04-3.47118E-05-3.15604E-05-8.59603E-06-1.90407E-19 7.62420E-19
 -1      2412 1.15643E-04-3.88998E-05-3.29847E-05-9.03572E-07 8.82701E-20 1.31793E-18
 -1      2413 1.14621E-04-3.78853E-05-3.28637E-05-3.20904E-06-2.02917E-19 1.27544E-18
 -1      2414 1.12267E-04-3.79658E-05-3.18853E-05-5.80649E-06-2.52307E-19 8.73821E-19
 -1      2415 1.17878E-04-4.03177E-05-3.33286E-05 5.08555E-06 5.18735E-19 1.98755E-18
 -1      2416 1.17762E-04-4.01340E-05-3.32627E-05 2.16385E-06 2.61306E-19 1.74438E-18
 -1      2417 1.16672E-04-4.12119E-05-3.23721E-05-7.35919E-07-6.89571E-20 1.01461E-18
 -1      2418 1.17971E-04-3.88977E-05-3.39206E-05 1.12453E-05 6.43639E-19 2.16728E-18
 -1      2419 1.19212E-04-4.03932E-05-3.38202E-05 8.75470E-06 7.05625E-19 2.39789E-18
 -1      2420 1.20329E-04-4.27112E-05-3.32726E-05 6.34072E-06 4.09650E-19 2.25695E-18
 -1      2421 1.15110E-04-3.35723E-05-3.48937E-05 1.39652E-05 8.94004E-19 1.90918E-18
 -1      2422 1.17436E-04-3.67788E-05-3.47078E-05 1.36894E-05 7.24534E-19 2.24685E-18
 -1      2423 1.21117E-04-3.98205E-05-3.48543E-05 1.32678E-05 7.64447E-19 2.80349E-18
 -1      2424 1.10781E-04-2.68136E-05-3.59435E-05 9.78893E-06 1.72768E-18 1.60218E-18
 -1      2425 1.12915E-04-3.00698E-05-3.57373E-05 1.26776E-05 9.99737E-19 1.96137E-18
 -1      2426 1.17962E-04-3.20429E-05-3.68665E-05 1.54890E-05 1.16912E-18 2.50043E-18
 -1      2427 1.08715E-04-2.37557E-05-3.64986E-05-6.65685E-07 3.35332E-18 2.02113E-19
 -1      2428 1.09088E-04-2.43556E-05-3.64469E-05 4.37997E-06 2.73083E-18 1.14582E-18
 -1      2429 1.13960E-04-2.40166E-05-3.86294E-05 8.50863E-06 2.62509E-18 1.55086E-18
 -1      2430 1.11388E-04-2.74911E-05-3.61424E-05-1.10026E-05 2.35075E-18-1.10878E-18
 -1      2431 1.09580E-04-2.49340E-05-3.62725E-05-6.98001E-06 3.28834E-18-3.88652E-19
 -1      2432 1.12927E-04-2.24302E-05-3.89663E-05-4.45695E-06 3.80694E-18 8.92164E-20
 -1      2433 1.16361E-04-3.46164E-05-3.52075E-05-1.48259E-05 9.27713E-19-2.46741E-18
 -1      2434 1.13753E-04-3.10596E-05-3.53922E-05-1.39401E-05 1.79304E-18-2.00355E-18
 -1      2435 1.16644E-04-2.90197E-05-3.76383E-05-1.43270E-05 2.47477E-18-1.50835E-18
 -1      2436 1.19489E-04-3.96232E-05-3.42986E-05-1.16476E-05-5.73107E-19-3.23643E-18
 -1      2437 1.17719E-04-3.74656E-05-3.43837E-05-1.34438E-05 1.00158E-19-2.55177E-18
 -1      2438 1.20736E-04-3.76374E-05-3.56082E-05-1.57203E-05 6.45360E-19-2.09854E-18
 -1      2439 1.19370E-04-4.07330E-05-3.37008E-05-5.35748E-06-1.17853E-18-2.67814E-18
 -1      2440 1.18867E-04-4.03401E-05-3.37301E-05-8.19017E-06-8.49660E-19-2.91606E-18
 -1      2441 1.21432E-04-4.22351E-05-3.39553E-05-9.99353E-06-8.17472E-19-1.83058E-18
 -1      2442 1.16885E-04-3.90642E-05-3.33255E-05 6.06041E-07-9.18657E-19-1.37978E-18
 -1      2443 1.17473E-04-3.98195E-05-3.33814E-05-1.89069E-06-1.22006E-18-2.42579E-18
 -1      2444 1.18844E-04-4.22355E-05-3.28653E-05-2.59460E-06-1.44145E-18-1.87850E-18
 -1      2445 1.13567E-04-3.65040E-05-3.30021E-05 4.64264E-06-4.60905E-19-5.68190E-19
 -1      2446 1.14758E-04-3.76163E-05-3.31411E-05 2.99633E-06-2.63407E-19-9.67059E-19
 -1      2447 1.14658E-04-3.94025E-05-3.22997E-05 3.26672E-06-1.13304E-18-1.16800E-18
 -1      2448 1.10299E-04-3.41422E-05-3.26226E-05 6.70117E-06-1.44420E-18-7.08103E-19
 -1      2449 1.11714E-04-3.51818E-05-3.28490E-05 5.89295E-06-6.29613E-19-4.33244E-19
 -1      2450 1.10559E-04-3.60489E-05-3.19762E-05 6.80192E-06-6.56077E-19-1.78685E-19
 -1      2451 1.07419E-04-3.23417E-05-3.21673E-05 7.28957E-06-1.63324E-18-8.13931E-19
 -1      2452 1.08838E-04-3.31651E-05-3.24528E-05 7.09475E-06-1.85570E-18-7.77826E-19
 -1      2453 1.07167E-04-3.32697E-05-3.17013E-05 8.33794E-06-1.54025E-18-1.23037E-19
 -1      2454 1.04984E-04-3.10868E-05-3.16655E-05 6.97629E-06-1.19443E-18-6.26659E-19
 -1      2455 1.06294E-04-3.16940E-05-3.19737E-05 7.15270E-06-1.49410E-18-9.28166E-19
 -1      2456 1.04536E-04-3.13272E-05-3.13950E-05 8.51379E-06-1.47789E-18-9.67839E-19
 -1      2457 1.02956E-04-3.02458E-05-3.11583E-05 6.20166E-06-7.79998E-20 2.33389E-20
 -1      2458 1.04109E-04-3.06814E-05-3.14594E-05 6.56247E-06-5.31706E-19-3.97537E-19
 -1      2459 1.02515E-04-3.00956E-05-3.10491E-05 7.90269E-06-1.01561E-18-9.64976E-19
 -1      2460 1.01279E-04-2.96874E-05-3.06799E-05 5.25432E-06 6.32363E-20-1.24063E-19
 -1      2461 1.02262E-04-2.99981E-05-3.09545E-05 5.67807E-06 2.01098E-19-8.89678E-20
 -1      2462 1.00940E-04-2.93613E-05-3.06849E-05 6.91501E-06-8.31548E-20-9.16427E-19
 -1      2463 9.99057E-05-2.93137E-05-3.02515E-05 4.30228E-06-4.06292E-19 1.97648E-19
 -1      2464 1.00721E-04-2.95361E-05-3.04901E-05 4.71954E-06-1.94140E-19-1.66455E-19
 -1      2465 9.96905E-05-2.89410E-05-3.03277E-05 5.81070E-06 4.28281E-20-1.54888E-18
 -1      2466 9.87921E-05-2.90601E-05-2.98829E-05 3.43182E-06-9.59003E-19 7.40198E-19
 -1      2467 9.94530E-05-2.92200E-05-3.00829E-05 3.80812E-06-3.86441E-19 4.75586E-19
 -1      2468 9.86877E-05-2.87077E-05-2.99970E-05 4.73835E-06-8.05213E-19-7.56717E-19
 -1      2469 9.79005E-05-2.88857E-05-2.95756E-05 2.67902E-06 8.58551E-19-7.12305E-19
 -1      2470 9.84263E-05-2.90007E-05-2.97385E-05 3.00101E-06 3.54574E-19 1.97766E-19
 -1      2471 9.78804E-05-2.85820E-05-2.97043E-05 3.77272E-06-2.69985E-19-2.58180E-19
 -1      2472 9.71967E-05-2.87651E-05-2.93258E-05 2.05154E-06 5.61448E-19-1.04041E-18
 -1      2473 9.76074E-05-2.88474E-05-2.94555E-05 2.31756E-06 6.99572E-19-8.46553E-19
 -1      2474 9.72334E-05-2.85173E-05-2.94544E-05 2.94331E-06 9.46880E-19-9.28202E-19
 -1      2475 9.66495E-05-2.86819E-05-2.91271E-05 1.54238E-06 1.13253E-19 8.34865E-20
 -1      2476 9.69647E-05-2.87401E-05-2.92283E-05 1.75657E-06 3.25946E-19-4.35081E-19
 -1      2477 9.67197E-05-2.84869E-05-2.92468E-05 2.25392E-06 1.67819E-19-5.39795E-19
 -1      2478 9.62308E-05-2.86253E-05-2.89722E-05 1.13789E-06 1.62636E-18 1.23828E-18
 -1      2479 9.64686E-05-2.86658E-05-2.90496E-05 1.30685E-06 6.60285E-19 3.16022E-19
 -1      2480 9.63171E-05-2.84759E-05-2.90785E-05 1.69497E-06 5.02492E-19 1.34116E-18
 -1      2481 9.59161E-05-2.85879E-05-2.88536E-05 8.22330E-07 1.26656E-18 1.52322E-18
 -1      2482 9.60921E-05-2.86152E-05-2.89118E-05 9.53259E-07 2.14233E-18 1.88707E-18
 -1      2483 9.60063E-05-2.84757E-05-2.89448E-05 1.25084E-06 1.72783E-18 3.18841E-18
 -1      2484 9.56839E-05-2.85642E-05-2.87644E-05 5.80192E-07 1.25612E-18 1.59834E-18
 -1      2485 9.58115E-05-2.85820E-05-2.88073E-05 6.80001E-07 1.06870E-18 2.00541E-18
 -1      2486 9.57704E-05-2.84816E-05-2.88406E-05 9.04139E-07 1.50913E-18 2.35804E-18
 -1      2487 9.55164E-05-2.85504E-05-2.86988E-05 3.97373E-07 7.96214E-19 7.06711E-19
 -1      2488 9.56067E-05-2.85612E-05-2.87297E-05 4.72234E-07 1.26556E-18 1.24483E-18
 -1      2489 9.55946E-05-2.84906E-05-2.87610E-05 6.37904E-07 1.34432E-18 2.37660E-18
 -1      2490 9.53986E-05-2.85434E-05-2.86515E-05 2.61605E-07 9.16074E-19-1.22781E-19
 -1      2491 9.54606E-05-2.85493E-05-2.86732E-05 3.16817E-07 9.40692E-19 2.76126E-19
 -1      2492 9.54663E-05-2.85009E-05-2.87012E-05 4.36735E-07 1.78797E-18 1.05886E-18
 -1      2493 9.53185E-05-2.85411E-05-2.86183E-05 1.62550E-07-5.10976E-19-4.76577E-19
 -1      2494 9.53593E-05-2.85436E-05-2.86330E-05 2.02533E-07 7.59534E-19-5.70048E-19
 -1      2495 9.53751E-05-2.85115E-05-2.86572E-05 2.87233E-07 1.11186E-18 5.57386E-19
 -1      2496 9.52664E-05-2.85419E-05-2.85957E-05 9.17008E-08-1.02179E-18-8.29219E-19
 -1      2497 9.52918E-05-2.85422E-05-2.86054E-05 1.20059E-07-1.87622E-18-1.48883E-18
 -1      2498 9.53121E-05-2.85216E-05-2.86256E-05 1.78094E-07-4.55546E-19-1.32029E-18
 -1      2499 9.52348E-05-2.85446E-05-2.85811E-05 4.22102E-08-4.61797E-19-7.53310E-20
 -1      2500 9.52491E-05-2.85435E-05-2.85870E-05 6.18212E-08-1.08472E-19-4.83587E-19
 -1      2501 9.52705E-05-2.85310E-05-2.86034E-05 1.00008E-07-1.13574E-18-1.68172E-18
 -1      2502 9.52177E-05-2.85485E-05-2.85723E-05 8.68880E-09 8.75605E-20-1.47300E-19
 -1      2503 9.52243E-05-2.85465E-05-2.85754E-05 2.17937E-08-8.46725E-20 3.76263E-20
 -1      2504 9.52444E-05-2.85395E-05-2.85884E-05 4.54777E-08 4.41002E-20-6.93829E-19
 -1      2505 9.52108E-05-2.85531E-05-2.85674E-05-1.29857E-08 1.12540E-18 1.92319E-18
 -1      2506 9.52122E-05-2.85505E-05-2.85688E-05-4.69492E-09 2.50335E-19 1.14707E-18
 -1      2507 9.52297E-05-2.85471E-05-2.85787E-05 8.60818E-09-5.01330E-19-4.53023E-19
 -1      2508 9.52107E-05-2.85579E-05-2.85653E-05-2.58480E-08 1.55709E-18 2.73007E-18
 -1      2509 9.52087E-05-2.85551E-05-2.85655E-05-2.11527E-08 1.90010E-18 2.66683E-18
 -1      2510 9.52229E-05-2.85539E-05-2.85727E-05-1.50991E-08 4.85622E-19 9.97514E-19
 -1      2511 9.52147E-05-2.85630E-05-2.85649E-05-3.19834E-08 5.15912E-19 2.85999E-18
 -1      2512 9.52107E-05-2.85600E-05-2.85644E-05-3.00896E-08 7.58309E-19 3.65140E-18
 -1      2513 9.52215E-05-2.85602E-05-2.85694E-05-2.89552E-08 1.01785E-18 3.36772E-18
 -1      2514 9.52210E-05-2.85684E-05-2.85654E-05-3.26695E-08 1.33773E-18 1.34240E-18
 -1      2515 9.52161E-05-2.85652E-05-2.85646E-05-3.31724E-08 1.19229E-18 2.72788E-18
 -1      2516 9.52236E-05-2.85661E-05-2.85676E-05-3.52495E-08 1.20922E-18 4.25884E-18
 -1      2517 9.52282E-05-2.85740E-05-2.85661E-05-2.85316E-08-6.07580E-19 1.98342E-18
 -1      2518 9.52233E-05-2.85708E-05-2.85653E-05-3.11694E-08 1.10368E-19 1.55278E-18
 -1      2519 9.52280E-05-2.85724E-05-2.85667E-05-3.54981E-08 6.79107E-19 3.59597E-18
 -1      2520 9.52311E-05-2.85767E-05-2.85662E-05-2.43971E-08 1.43915E-19 2.15399E-18
 -1      2521 9.52520E-05-2.85983E-05-2.85659E-05-2.14256E-08 7.50655E-19 1.83966E-19
 -1      2522 9.52506E-05-2.85958E-05-2.85663E-05-2.46024E-08 9.14851E-19-1.93299E-18
 -1      2523 9.52535E-05-2.86003E-05-2.85656E-05-1.38600E-08 6.65498E-19 2.43445E-19
 -1      2524 9.52527E-05-2.85987E-05-2.85659E-05-1.75583E-08 6.09905E-19 1.26123E-18
 -1      2525 9.52519E-05-2.85897E-05-2.85695E-05-2.07198E-08 1.27229E-18 7.54209E-19
 -1      2526 9.52446E-05-2.85898E-05-2.85663E-05-3.17426E-08 4.58684E-19 1.37900E-18
 -1      2527 9.52412E-05-2.85857E-05-2.85667E-05-3.22116E-08 1.44742E-19 2.47247E-18
 -1      2528 9.52492E-05-2.85948E-05-2.85662E-05-2.77679E-08 4.49274E-19-3.13155E-18
 -1      2529 9.52469E-05-2.85916E-05-2.85666E-05-2.98693E-08 9.97851E-19-1.48734E-18
 -1      2530 9.52450E-05-2.85853E-05-2.85685E-05-3.32318E-08 6.31556E-19-1.79786E-19
 -1      2531 9.52495E-05-2.85882E-05-2.85691E-05-2.80065E-08 1.46104E-18-2.12877E-18
 -1      2532 9.52540E-05-2.86012E-05-2.85654E-05-5.82679E-09-1.23829E-19-1.79072E-18
 -1      2533 9.52537E-05-2.86005E-05-2.85656E-05-9.72477E-09 8.20252E-20-2.13887E-18
 -1      2534 9.52530E-05-2.85902E-05-2.85697E-05-1.24649E-08 2.81164E-19-9.89993E-19
 -1      2535 9.52540E-05-2.86011E-05-2.85654E-05 2.29123E-09-1.16624E-18-1.40777E-19
 -1      2536 9.52540E-05-2.86012E-05-2.85654E-05-1.63600E-09-2.02234E-19-2.72930E-19
 -1      2537 9.52533E-05-2.85903E-05-2.85698E-05-3.91270E-09 7.22558E-19-1.53110E-18
 -1      2538 9.52535E-05-2.86002E-05-2.85656E-05 1.02952E-08-1.10600E-18-5.45836E-19
 -1      2539 9.52539E-05-2.86011E-05-2.85654E-05 6.44942E-09-1.53648E-18-1.05007E-18
 -1      2540 9.52532E-05-2.85902E-05-2.85698E-05 4.64860E-09-8.46922E-19-7.87531E-19
 -1      2541 9.52524E-05-2.85984E-05-2.85659E-05 1.78233E-08 5.02622E-19 1.24614E-18
 -1      2542 9.52532E-05-2.86000E-05-2.85656E-05 1.42776E-08-2.85091E-19 1.18119E-18
 -1      2543 9.52527E-05-2.85899E-05-2.85697E-05 1.30008E-08-4.30403E-19 5.79097E-19
 -1      2544 9.52502E-05-2.85954E-05-2.85663E-05 2.46542E-08 1.77904E-18 1.54863E-18
 -1      2545 9.52517E-05-2.85979E-05-2.85659E-05 2.15787E-08 1.31949E-18 5.71433E-20
 -1      2546 9.52515E-05-2.85892E-05-2.85696E-05 2.09712E-08 5.91522E-19 9.94649E-19
 -1      2547 9.52466E-05-2.85911E-05-2.85666E-05 2.97541E-08 1.33984E-18-1.24018E-19
 -1      2548 9.52489E-05-2.85944E-05-2.85662E-05 2.77088E-08 1.33505E-18 1.42325E-18
 -1      2549 9.52491E-05-2.85877E-05-2.85692E-05 2.80787E-08 1.17906E-18 6.91762E-19
 -1      2550 9.52409E-05-2.85853E-05-2.85667E-05 3.17550E-08-5.32903E-19 1.42955E-19
 -1      2551 9.52442E-05-2.85893E-05-2.85664E-05 3.15064E-08 1.37414E-19-1.21164E-18
 -1      2552 9.52448E-05-2.85848E-05-2.85686E-05 3.29930E-08 2.51760E-19-1.29172E-18
 -1      2553 9.72298E-05-5.32394E-05-1.90302E-05 3.93539E-05-1.22481E-18 2.03928E-18
 -1      2554 7.43694E-05-4.52593E-05-1.22294E-05 4.02590E-05-2.39096E-18 5.50878E-18
 -1      2555 9.88329E-05-2.84119E-05-3.01506E-05-3.97308E-06 1.27797E-18 6.32533E-19
 -1      2556 9.83664E-05-2.80991E-05-3.00692E-05-3.05318E-06 1.43106E-18 9.13853E-19
 -1      2557 9.85027E-05-2.78614E-05-3.02958E-05-4.94809E-06 1.34454E-18-2.00406E-19
 -1      2558 1.53120E-04-2.90433E-05-5.35431E-05-6.31909E-06 6.66784E-18-8.41527E-19
 -1      2559 1.49272E-04-3.63342E-05-4.86846E-05-5.57533E-06 5.49195E-18-1.01792E-18
 -1      2560 9.52353E-05-2.85812E-05-2.85660E-05 2.78069E-08-5.07331E-19 1.20396E-18
 -1      2561 1.30554E-04-6.01781E-05-3.05323E-05 2.31414E-05 6.49886E-19-1.52466E-20
 -1      2562 1.17917E-04-5.89842E-05-2.50177E-05 2.90077E-05-5.33843E-19 6.42792E-19
 -1      2563 1.83826E-05-1.92315E-05 6.47796E-07-9.08190E-06 7.45442E-19 5.00469E-18
 -1      2564 2.34612E-05-2.17504E-05-5.24507E-07-2.15596E-05 1.50454E-19 5.09194E-18
 -1      2565 1.44076E-04-1.04052E-05-5.76921E-05 1.49054E-06-7.56485E-18-1.32984E-18
 -1      2566 1.44040E-04-1.10114E-05-5.74662E-05-1.63439E-06-7.18369E-18-1.10358E-18
 -1      2567 2.56092E-05-2.04221E-05-1.85110E-06-1.81028E-05-1.40438E-18-6.64243E-18
 -1      2568 3.61623E-05-2.76088E-05-3.46133E-06-3.09169E-05-9.51430E-19-5.89323E-18
 -1      2569 1.48051E-04-2.95783E-05-5.11641E-05 7.52393E-06 4.93841E-18 1.10157E-18
 -1      2570 1.47650E-04-2.03159E-05-5.50026E-05 7.86928E-06 5.50444E-18 9.04631E-19
 -1      2571 8.47249E-05-8.21177E-06-3.28258E-05-6.76959E-07-4.04834E-20-4.00951E-18
 -1      2572 8.50644E-05-8.46759E-06-3.28528E-05-1.42127E-06-4.20439E-19-3.93683E-18
 -1      2573 8.63069E-05-1.03705E-05-3.25400E-05-1.37026E-06-5.59335E-19-3.63677E-18
 -1      2574 8.55278E-05-9.66506E-06-3.25079E-05-2.58439E-07 6.76142E-20-3.70389E-18
 -1      2575 1.47140E-04-1.41792E-05-5.76175E-05-5.17547E-06 7.05155E-18-2.50086E-19
 -1      2576 1.50397E-04-2.01043E-05-5.61413E-05-6.56859E-06 6.98506E-18-4.46386E-19
 -1      2577 1.41600E-04-2.30527E-05-5.09625E-05-1.19163E-05 5.72425E-18-1.33789E-18
 -1      2578 1.42955E-04-1.34106E-05-5.60482E-05 4.28401E-06 6.11388E-18 6.30193E-19
 -1      2579 1.43835E-04-1.21651E-05-5.69419E-05-2.04707E-07 6.72587E-18 3.91104E-19
 -1      2580 4.99284E-05-3.44032E-05-6.43586E-06-3.64501E-05-1.38151E-18-4.78277E-18
 -1      2581 6.69831E-05-4.08794E-05-1.12034E-05-4.23197E-05-1.71503E-18-3.93680E-18
 -1      2582 5.09310E-05-2.87198E-05-8.93824E-06-3.36527E-05-2.30425E-18-4.82915E-18
 -1      2583 1.27262E-04-5.95371E-05-2.90016E-05-2.44434E-05-4.96467E-19 7.71647E-19
 -1      2584 1.38606E-04-5.77107E-05-3.48869E-05-1.81558E-05 5.20608E-19 1.36923E-18
 -1      2585 1.48942E-04-2.08556E-05-5.51314E-05 4.30087E-06-5.68423E-18-2.36005E-18
 -1      2586 1.46946E-04-1.46687E-05-5.71756E-05 4.45517E-06-6.64243E-18-2.20387E-18
 -1      2587 9.07739E-05-5.17348E-05-1.64807E-05-3.96126E-05-1.86178E-18-2.02451E-18
 -1      2588 1.11809E-04-5.77526E-05-2.33492E-05-3.60565E-05-9.79805E-19-5.50942E-19
 -1      2589 1.23279E-04-6.06429E-05-2.66798E-05-2.60901E-05-2.10848E-18 1.34456E-18
 -1      2590 2.05910E-05-1.81991E-05-7.63184E-07 1.06821E-05-2.81691E-19-6.95266E-18
 -1      2591 1.96455E-05-1.69832E-05-7.71694E-07-2.50888E-06-4.35534E-19-6.90247E-18
 -1      2592 4.14712E-05-2.89055E-05-5.21829E-06 3.57811E-05 7.50471E-19-5.84686E-18
 -1      2593 2.80054E-05-2.22839E-05-2.11522E-06 2.29228E-05 7.59577E-19-6.60199E-18
 -1      2594 7.69343E-05-4.52384E-05-1.35389E-05 4.39811E-05 1.06006E-18-4.22257E-18
 -1      2595 5.96361E-05-3.84976E-05-8.77155E-06 4.10070E-05 1.30380E-18-5.18109E-18
 -1      2596 1.40725E-04-5.20364E-05-3.84972E-05 1.24724E-05-1.70373E-18-1.75166E-18
 -1      2597 1.33507E-04-5.60295E-05-3.31140E-05 2.02682E-05-1.24906E-18-1.77665E-18
 -1      2598 1.46829E-04-1.59418E-05-5.65681E-05-4.14784E-06-6.31124E-18-1.37643E-18
 -1      2599 1.47184E-04-2.13126E-05-5.42031E-05-5.05347E-06-5.47056E-18-1.36076E-18
 -1      2600 1.07035E-04-5.45377E-05-2.25220E-05-3.59991E-05 3.84976E-19-3.50989E-19
 -1      2601 1.21754E-04-5.56778E-05-2.85681E-05-3.04552E-05-3.28649E-19-1.80905E-18
 -1      2602 1.47346E-04-3.54149E-05-4.82637E-05-1.60093E-07-4.70252E-18-2.73549E-18
 -1      2603 1.50772E-04-2.84037E-05-5.26603E-05 2.26661E-06-5.26643E-18-2.74290E-18
 -1      2604 1.41943E-04-2.35486E-05-5.08223E-05 8.76362E-06-4.61485E-18-3.02560E-18
 -1      2605 7.34500E-05-4.48772E-05-1.20696E-05-4.25613E-05 1.37177E-18 3.08346E-18
 -1      2606 9.09010E-05-5.00157E-05-1.75119E-05-4.27523E-05 6.18334E-19 1.31539E-18
 -1      2607 9.67442E-05-2.03820E-05-3.27676E-05-9.27026E-06-3.09716E-18-4.25568E-19
 -1      2608 9.74936E-05-2.37416E-05-3.16226E-05-5.33862E-06-2.81731E-18-1.68836E-19
 -1      2609 9.67071E-05-2.26936E-05-3.17172E-05-4.61888E-06-2.61625E-18-8.08466E-19
 -1      2610 9.45438E-05-1.78624E-05-3.29012E-05-8.65248E-06-2.94418E-18-1.32179E-18
 -1      2611 9.88703E-05-2.56895E-05-3.13740E-05 5.13602E-06 2.87922E-18 2.19244E-18
 -1      2612 9.96119E-05-2.43436E-05-3.22742E-05 8.36015E-06 3.06838E-18 2.64245E-18
 -1      2613 9.78923E-05-2.17873E-05-3.26715E-05 9.34247E-06 3.36011E-18 1.43834E-18
 -1      2614 9.81126E-05-2.44989E-05-3.15837E-05 4.69129E-06 2.91228E-18 7.38472E-19
 -1      2615 5.54606E-05-3.58765E-05-8.22571E-06 3.95497E-05-1.83510E-18 8.33099E-18
 -1      2616 4.15269E-05-2.88296E-05-5.05349E-06 3.21298E-05-1.78999E-18 8.16370E-18
 -1      2617 8.97460E-05-1.36170E-05-3.26209E-05-4.07208E-06-1.74900E-18-3.14167E-18
 -1      2618 8.91023E-05-1.21746E-05-3.30259E-05-5.36321E-06-1.91257E-18-3.33945E-18
 -1      2619 9.02928E-05-1.32502E-05-3.30712E-05-6.43713E-06-2.32220E-18-2.97185E-18
 -1      2620 9.80696E-05-2.71829E-05-3.03997E-05-2.50038E-06 1.82927E-18-1.33954E-20
 -1      2621 9.58842E-05-1.93253E-05-3.28566E-05 8.86908E-06 3.28074E-18 1.23879E-20
 -1      2622 7.28601E-05-4.07525E-05-1.33237E-05 3.87633E-05-3.54695E-18 5.28009E-18
 -1      2623 9.15375E-05-1.46073E-05-3.30298E-05-7.07986E-06-2.50889E-18-2.56306E-18
 -1      2624 9.30577E-05-1.61591E-05-3.30284E-05-8.12665E-06-2.82616E-18-2.01135E-18
 -1      2625 9.46611E-05-1.90506E-05-3.23923E-05-6.28646E-06-2.74089E-18-1.61636E-18
 -1      2626 9.21154E-05-1.60739E-05-3.25769E-05-5.36886E-06-2.27586E-18-2.53474E-18
 -1      2627 9.19916E-05-5.09282E-05-1.72592E-05 4.11278E-05 1.35335E-18-3.20497E-18
 -1      2628 8.66544E-05-4.67941E-05-1.66458E-05 4.08740E-05 2.18672E-18-3.06700E-18
 -1      2629 1.05091E-04-5.54028E-05-2.15958E-05 3.64815E-05 1.46537E-18-1.58101E-18
 -1      2630 5.62664E-05-3.22963E-05-9.72509E-06 3.75109E-05 1.75251E-18-5.07627E-18
 -1      2631 1.37289E-04-5.90832E-05-3.34521E-05 1.01852E-05 9.31736E-20-4.46175E-19
 -1      2632 8.62494E-05-4.72209E-05-1.62575E-05-3.88944E-05-2.93264E-18-1.86231E-18
 -1      2633 1.04449E-04-5.48579E-05-2.10272E-05-3.71674E-05 2.49726E-18-1.28214E-18
 -1      2634 1.10051E-04-5.68074E-05-2.25632E-05 3.19430E-05-2.29334E-18 6.86811E-19
 -1      2635 3.72658E-05-2.41208E-05-5.25515E-06 2.71331E-05-9.53653E-19 7.51721E-18
 -1      2636 3.37211E-05-1.78503E-05-6.19728E-06 2.04737E-05-6.36016E-19 7.21100E-18
 -1      2637 4.96479E-05-2.56335E-05-9.88779E-06 3.05772E-05-2.53930E-18 6.48065E-18
 -1      2638 9.52332E-05-2.85786E-05-2.85663E-05-2.98394E-08-9.36384E-19 2.20401E-18
 -1      2639 9.52363E-05-2.85818E-05-2.85662E-05-3.15284E-08-5.92224E-19 2.66952E-18
 -1      2640 2.31783E-05-1.64376E-05-2.38268E-06-1.30260E-06 9.98136E-19 6.43703E-18
 -1      2641 1.47637E-04-3.71037E-05-4.77318E-05 8.06557E-06 3.63165E-18 1.50221E-18
 -1      2642 1.38117E-04-3.02944E-05-4.69103E-05 1.40960E-05 3.48618E-18 2.46000E-18
 -1      2643 1.43560E-04-4.23902E-05-4.35001E-05 8.00337E-06 1.99741E-18 2.39467E-18
 -1      2644 3.50110E-05-2.39393E-05-4.41483E-06-2.75319E-05 1.35843E-18 5.30433E-18
 -1      2645 9.60874E-05-2.05372E-05-3.23372E-05 6.64752E-06 3.09745E-18-3.23878E-19
 -1      2646 1.34748E-04-1.25170E-05-5.26826E-05-3.26395E-06 6.54947E-18 6.49568E-20
 -1      2647 9.52316E-05-2.85762E-05-2.85666E-05 3.04985E-08-9.02688E-19 1.55210E-18
 -1      2648 9.52376E-05-2.85824E-05-2.85665E-05 3.24837E-08-9.46799E-19 1.93239E-18
 -1      2649 9.52378E-05-2.85797E-05-2.85677E-05 3.49831E-08-1.44053E-18 9.26207E-19
 -1      2650 9.52284E-05-2.85735E-05-2.85664E-05 3.32817E-08-1.75211E-18 1.57450E-18
 -1      2651 5.96499E-05-3.43840E-05-1.02705E-05-4.04731E-05 2.19466E-18 2.71665E-18
 -1      2652 6.66789E-05-4.09468E-05-1.08561E-05-4.20521E-05 1.83637E-18 3.39819E-18
 -1      2653 8.06487E-05-4.48135E-05-1.52302E-05-4.12479E-05 3.37744E-18 7.58306E-19
 -1      2654 1.46212E-04-4.25061E-05-4.45441E-05-1.27911E-06-3.36500E-18-3.38834E-18
 -1      2655 1.41742E-04-3.76607E-05-4.49721E-05 7.20150E-06-2.75434E-18-4.45751E-18
 -1      2656 1.41304E-04-4.76732E-05-4.02192E-05-2.69108E-06-1.35978E-18-4.78468E-18
 -1      2657 1.35618E-04-1.17899E-05-5.33763E-05-4.88112E-06-6.57615E-18-7.61483E-19
 -1      2658 1.43383E-04-4.82104E-05-4.08315E-05 3.97600E-06-1.75250E-18-1.18267E-18
 -1      2659 1.38656E-04-5.26047E-05-3.68990E-05 4.98577E-06-7.25616E-19-5.43478E-19
 -1      2660 1.41150E-04-4.30849E-05-4.27838E-05-4.30632E-06-1.87607E-18-4.08693E-19
 -1      2661 2.95075E-05-1.70059E-05-4.76962E-06-1.15049E-05-1.04037E-18-6.44423E-18
 -1      2662 1.30964E-04-5.64493E-05-3.18547E-05-2.21685E-05-5.55971E-19-3.77586E-18
 -1      2663 1.36212E-04-5.58425E-05-3.49987E-05-1.22443E-05 4.84582E-19-5.17378E-18
 -1      2664 1.26686E-04-5.87509E-05-2.88575E-05-2.33036E-05 1.80767E-18-4.39271E-18
 -1      2665 1.35893E-04-1.09775E-05-5.37550E-05 4.41685E-06-6.62168E-18-1.73218E-18
 -1      2666 1.42310E-04-5.60677E-05-3.71099E-05-6.15276E-06 5.23837E-20 2.25650E-18
 -1      2667 1.42946E-04-2.71619E-05-4.98315E-05-6.99143E-06-4.56974E-18-6.08593E-19
 -1      2668 1.27216E-04-5.85596E-05-2.92177E-05 2.45301E-05-9.20090E-20-1.16202E-18
 -1      2669 1.36056E-04-1.72193E-05-5.12779E-05 8.42874E-06 5.14234E-18 1.77940E-18
 -1      2670 1.45101E-04-4.37041E-05-4.36019E-05-8.08291E-06 3.72070E-18-1.51915E-18
 -1      2671 3.18219E-05-1.82094E-05-5.21868E-06 1.79080E-05 5.66400E-19-6.44740E-18
 -1      2672 9.52364E-05-2.85795E-05-2.85673E-05-3.48924E-08-5.28957E-20 3.39637E-18
 -1      2673 9.52327E-05-2.85746E-05-2.85679E-05 3.59757E-08-1.20382E-18 1.35481E-18
 -1      2674 1.32170E-04-2.00601E-05-4.88197E-05-1.23142E-05 5.51186E-18-2.99479E-19
 -1      2675 1.36035E-04-2.75944E-05-4.67722E-05-1.53226E-05 4.95874E-18-1.20490E-18
 -1      2676 8.69246E-05-1.17859E-05-3.22212E-05 1.59440E-06 1.30348E-18-3.29171E-18
 -1      2677 8.64241E-05-1.13467E-05-3.21989E-05 1.12831E-06 9.72405E-19-3.36588E-18
 -1      2678 8.60922E-05-1.10360E-05-3.21868E-05 8.85695E-07 8.06704E-19-3.46422E-18
 -1      2679 8.59607E-05-1.09208E-05-3.21783E-05 4.31486E-07 4.95994E-19-3.44259E-18
 -1      2680 8.69346E-05-1.25267E-05-3.18679E-05 7.55047E-07 7.88840E-19-3.19376E-18
 -1      2681 9.08061E-05-1.55729E-05-3.22716E-05 3.28786E-06 2.45760E-18-2.40045E-18
 -1      2682 8.96000E-05-1.43841E-05-3.22664E-05 2.71357E-06 2.18320E-18-2.66198E-18
 -1      2683 9.37080E-05-1.87395E-05-3.21630E-05 4.12281E-06 2.84334E-18-1.58833E-18
 -1      2684 9.21954E-05-1.70582E-05-3.22284E-05 3.62259E-06 2.56023E-18-2.04199E-18
 -1      2685 9.22776E-05-1.78555E-05-3.18700E-05 2.13421E-06 2.33659E-18-2.00041E-18
 -1      2686 9.72722E-05-2.51481E-05-3.09083E-05-4.28392E-08 2.20603E-18-4.38464E-19
 -1      2687 9.73075E-05-2.43417E-05-3.12396E-05 1.95581E-06 2.43189E-18-3.51812E-19
 -1      2688 1.25735E-04-1.26192E-05-4.90761E-05-1.43234E-06 5.77825E-18 8.26949E-19
 -1      2689 1.29297E-04-1.51918E-05-4.94711E-05-8.37101E-06 5.99509E-18-5.51101E-20
 -1      2690 1.25305E-04-1.98052E-05-4.55966E-05-1.12531E-05 5.09776E-18-2.89685E-19
 -1      2691 9.61621E-05-2.17275E-05-3.19021E-05 4.56217E-06 2.83970E-18-5.97999E-19
 -1      2692 9.70590E-05-2.56348E-05-3.05812E-05 1.43872E-06-1.48955E-18-9.90626E-19
 -1      2693 9.72139E-05-2.63069E-05-3.03929E-05 2.72737E-06-1.29301E-18-9.38887E-19
 -1      2694 9.74432E-05-2.69073E-05-3.02051E-05 3.84056E-06-1.19430E-18-8.44852E-19
 -1      2695 9.77372E-05-2.74660E-05-3.01164E-05 4.73727E-06-1.04530E-18-8.93305E-19
 -1      2696 9.66069E-05-2.57215E-05-3.03914E-05 3.33134E-06-1.24558E-18-1.11205E-18
 -1      2697 9.80489E-05-2.80056E-05-2.99972E-05 5.55330E-06-9.01913E-19-8.31940E-19
 -1      2698 9.85302E-05-2.85979E-05-2.99710E-05 6.11563E-06-7.65903E-19-8.52856E-19
 -1      2699 9.71525E-05-2.70625E-05-3.00547E-05 5.36687E-06-1.00406E-18-1.01238E-18
 -1      2700 9.90329E-05-2.92227E-05-2.98966E-05 6.64255E-06-6.10725E-19-8.98309E-19
 -1      2701 9.97256E-05-2.99500E-05-2.99070E-05 6.86686E-06-6.10085E-19-1.02334E-18
 -1      2702 9.79698E-05-2.84210E-05-2.98272E-05 6.81285E-06-7.53438E-19-1.25323E-18
 -1      2703 1.00518E-04-3.07710E-05-2.98647E-05 7.06438E-06-4.86939E-19-8.13691E-19
 -1      2704 1.01435E-04-3.16985E-05-2.98974E-05 6.89283E-06-4.34047E-19-9.15972E-19
 -1      2705 9.92614E-05-3.00834E-05-2.96746E-05 7.64866E-06-5.21411E-19-1.21325E-18
 -1      2706 1.02608E-04-3.27840E-05-2.98896E-05 6.66232E-06-2.68900E-19-6.08388E-19
 -1      2707 1.03732E-04-3.39123E-05-2.99446E-05 5.99960E-06-1.86675E-19-4.79222E-19
 -1      2708 1.01219E-04-3.22600E-05-2.95893E-05 7.74901E-06-1.43923E-19-8.82745E-19
 -1      2709 1.05333E-04-3.52397E-05-2.99964E-05 5.18551E-06-1.90402E-19-2.86742E-20
 -1      2710 1.06568E-04-3.64355E-05-3.00933E-05 3.93675E-06-9.01015E-20 2.47230E-19
 -1      2711 1.03993E-04-3.50186E-05-2.96039E-05 6.86739E-06 8.52513E-20 1.47697E-20
 -1      2712 1.08503E-04-3.77936E-05-3.02592E-05 2.37142E-06 4.45629E-20 5.35786E-19
 -1      2713 1.09616E-04-3.87027E-05-3.04402E-05 5.30191E-07 1.78365E-19 8.12487E-19
 -1      2714 1.07557E-04-3.81088E-05-2.98070E-05 4.65898E-06 2.93042E-19 5.09404E-19
 -1      2715 1.11525E-04-3.95958E-05-3.08016E-05-1.82571E-06 1.64114E-19 1.07871E-18
 -1      2716 1.12121E-04-3.96138E-05-3.11195E-05-4.02961E-06 1.89081E-19 1.03227E-18
 -1      2717 1.11480E-04-4.07240E-05-3.03519E-05 8.46455E-07 3.10121E-19 8.57617E-19
 -1      2718 1.13313E-04-3.92710E-05-3.17545E-05-6.82715E-06 7.33544E-21 1.12611E-18
 -1      2719 1.12947E-04-3.77166E-05-3.22459E-05-8.74439E-06-2.29686E-19 7.66799E-19
 -1      2720 1.14728E-04-4.13988E-05-3.14240E-05-4.39961E-06 4.99998E-20 1.14234E-18
 -1      2721 1.12585E-04-3.54528E-05-3.31599E-05-1.07996E-05-2.14422E-19 1.13994E-18
 -1      2722 1.11233E-04-3.23251E-05-3.37710E-05-1.13147E-05-6.82973E-19 1.18493E-18
 -1      2723 1.15654E-04-3.82024E-05-3.31417E-05-9.72879E-06-6.50478E-20 1.55041E-18
 -1      2724 1.09353E-04-2.86186E-05-3.47655E-05-1.09973E-05-1.39116E-18 1.26486E-18
 -1      2725 1.07702E-04-2.51891E-05-3.53076E-05-9.20793E-06-1.83413E-18 1.16944E-18
 -1      2726 1.13364E-04-3.09630E-05-3.53014E-05-1.20807E-05-1.00377E-18 1.59308E-18
 -1      2727 1.05862E-04-2.21998E-05-3.59815E-05-5.73050E-06-2.34189E-18 4.24430E-19
 -1      2728 1.05089E-04-2.06550E-05-3.62061E-05-2.05430E-06-2.35876E-18 1.63855E-19
 -1      2729 1.09396E-04-2.27206E-05-3.72267E-05-8.40653E-06-2.59723E-18 6.00983E-19
 -1      2730 1.05182E-04-2.07692E-05-3.62046E-05 2.93238E-06-2.13156E-18-5.42154E-19
 -1      2731 1.05826E-04-2.22959E-05-3.59971E-05 6.44924E-06-2.28384E-18-1.09736E-18
 -1      2732 1.07586E-04-1.90742E-05-3.79743E-05 6.61420E-07-2.51892E-18-5.47316E-19
 -1      2733 1.07828E-04-2.52493E-05-3.53317E-05 1.01489E-05-1.80585E-18-1.45503E-18
 -1      2734 1.09541E-04-2.87945E-05-3.47905E-05 1.18628E-05-1.25972E-18-1.52641E-18
 -1      2735 1.09227E-04-2.25303E-05-3.71442E-05 9.70920E-06-2.22971E-18-1.84996E-18
 -1      2736 1.11421E-04-3.24287E-05-3.38097E-05 1.20210E-05-1.00074E-18-1.26291E-18
 -1      2737 1.12754E-04-3.55069E-05-3.32223E-05 1.15270E-05-4.73286E-19-1.09136E-18
 -1      2738 1.13560E-04-3.14154E-05-3.51622E-05 1.30289E-05-8.51394E-19-1.58808E-18
 -1      2739 1.13104E-04-3.77215E-05-3.23158E-05 9.46650E-06-2.68037E-19-9.50980E-19
 -1      2740 1.13463E-04-3.92182E-05-3.18437E-05 7.57942E-06 2.70139E-19-1.89640E-18
 -1      2741 1.15654E-04-3.81697E-05-3.31773E-05 1.05273E-05-4.54350E-19-1.64400E-18
 -1      2742 1.12249E-04-3.95138E-05-3.12190E-05 4.83589E-06 6.91495E-19-1.79585E-18
 -1      2743 1.11686E-04-3.94778E-05-3.09181E-05 2.68317E-06 8.61495E-19-1.90268E-18
 -1      2744 1.14673E-04-4.12146E-05-3.14699E-05 5.18943E-06 5.02362E-19-1.34903E-18
 -1      2745 1.09765E-04-3.85637E-05-3.05647E-05 3.87631E-07 7.33153E-19-1.73657E-18
 -1      2746 1.08690E-04-3.76628E-05-3.03962E-05-1.39892E-06 4.69877E-19-1.87582E-18
 -1      2747 1.11402E-04-4.04955E-05-3.04158E-05 5.90156E-08 9.32290E-19-2.50566E-18
 -1      2748 1.06754E-04-3.63147E-05-3.02258E-05-2.91139E-06-2.30568E-19-1.83585E-18
 -1      2749 1.05560E-04-3.51571E-05-3.01312E-05-4.12192E-06-6.56860E-19-2.15367E-18
 -1      2750 1.07467E-04-3.78709E-05-2.98700E-05-3.64236E-06 6.82333E-20-2.66002E-18
 -1      2751 1.03958E-04-3.38704E-05-3.00597E-05-4.91905E-06-9.33851E-19-2.74340E-18
 -1      2752 1.02867E-04-3.28090E-05-2.99935E-05-5.58527E-06-1.27711E-18-2.57779E-18
 -1      2753 1.03908E-04-3.48513E-05-2.96362E-05-5.78979E-06-1.19076E-18-2.23447E-18
 -1      2754 1.01681E-04-3.17943E-05-2.99617E-05-5.85923E-06-1.36076E-18-2.58784E-18
 -1      2755 1.00774E-04-3.09651E-05-2.98976E-05-6.10293E-06-1.26244E-18-2.94802E-18
 -1      2756 1.01129E-04-3.22409E-05-2.95544E-05-6.71658E-06-1.09064E-18-2.44263E-18
 -1      2757 9.99537E-05-3.02564E-05-2.98725E-05-6.03873E-06-4.81260E-19-3.19853E-18
 -1      2758 9.92331E-05-2.96713E-05-2.98003E-05-5.99313E-06 2.50068E-19-3.16035E-18
 -1      2759 9.91400E-05-3.03022E-05-2.95232E-05-6.82015E-06-1.07934E-18-2.37610E-18
 -1      2760 9.86891E-05-2.92237E-05-2.97681E-05-5.73205E-06 4.16268E-19-3.03488E-18
 -1      2761 9.81265E-05-2.88425E-05-2.96874E-05-5.51035E-06 1.02844E-19-2.36675E-18
 -1      2762 9.77918E-05-2.90110E-05-2.94911E-05-6.42226E-06 5.82359E-19-1.82705E-18
 -1      2763 9.77746E-05-2.85894E-05-2.96452E-05-5.15084E-06 5.20111E-19-2.27213E-18
 -1      2764 9.73373E-05-2.83597E-05-2.95599E-05-4.83833E-06 6.27209E-19-1.49006E-18
 -1      2765 9.69074E-05-2.82356E-05-2.94393E-05-5.75235E-06 7.54646E-19-6.84477E-19
 -1      2766 9.71119E-05-2.82390E-05-2.95100E-05-4.44543E-06-4.77484E-20-1.30808E-18
 -1      2767 9.67713E-05-2.81136E-05-2.94251E-05-4.10119E-06-3.18507E-19-9.10833E-19
 -1      2768 9.63376E-05-2.78289E-05-2.93662E-05-4.96508E-06 2.96225E-19-8.63206E-19
 -1      2769 9.66268E-05-2.80763E-05-2.93714E-05-3.71561E-06 1.23336E-19-2.04268E-19
 -1      2770 9.63611E-05-2.80186E-05-2.92911E-05-3.37743E-06 1.94449E-19 8.35918E-20
 -1      2771 9.59723E-05-2.76653E-05-2.92779E-05-4.16031E-06 3.40701E-19-3.45982E-19
 -1      2772 9.62672E-05-2.80299E-05-2.92373E-05-3.02276E-06 4.69991E-20 7.73538E-19
 -1      2773 9.60600E-05-2.80137E-05-2.91646E-05-2.71258E-06 4.75018E-19 8.34747E-19
 -1      2774 9.57370E-05-2.76505E-05-2.91823E-05-3.39888E-06 7.47283E-19 4.22889E-19
 -1      2775 9.59977E-05-2.80502E-05-2.91137E-05-2.40063E-06-1.02230E-19 1.43603E-18
 -1      2776 9.58368E-05-2.80578E-05-2.90501E-05-2.12925E-06-4.80414E-19 9.48749E-19
 -1      2777 9.55832E-05-2.77186E-05-2.90867E-05-2.71440E-06 1.82909E-19 4.75526E-19
 -1      2778 9.57944E-05-2.81047E-05-2.90040E-05-1.86410E-06-1.18529E-18 9.55881E-19
 -1      2779 9.56703E-05-2.81244E-05-2.89500E-05-1.63498E-06-9.90868E-19 6.29226E-19
 -1      2780 9.54806E-05-2.78262E-05-2.89962E-05-2.12191E-06-9.79769E-19 1.61136E-18
 -1      2781 9.56407E-05-2.81730E-05-2.89097E-05-1.41579E-06-7.64052E-19 4.38310E-19
 -1      2782 9.55460E-05-2.81978E-05-2.88651E-05-1.22785E-06-5.47767E-19 2.54081E-19
 -1      2783 9.54105E-05-2.79465E-05-2.89144E-05-1.62427E-06-1.17517E-18 1.59976E-18
 -1      2784 9.55248E-05-2.82432E-05-2.88308E-05-1.05095E-06 2.62173E-19 3.62207E-19
 -1      2785 9.54535E-05-2.82687E-05-2.87948E-05-9.00540E-07 9.50713E-19 1.91776E-20
 -1      2786 9.53615E-05-2.80639E-05-2.88429E-05-1.21677E-06-3.95076E-19 6.48527E-19
 -1      2787 9.54380E-05-2.83086E-05-2.87664E-05-7.60818E-07 7.00917E-19-6.64267E-19
 -1      2788 9.53852E-05-2.83324E-05-2.87379E-05-6.43096E-07 7.25942E-19-1.10053E-18
 -1      2789 9.53265E-05-2.81701E-05-2.87823E-05-8.90497E-07-4.92318E-20-1.89221E-18
 -1      2790 9.53738E-05-2.83660E-05-2.87149E-05-5.34962E-07 8.95133E-19-1.00178E-18
 -1      2791 9.53354E-05-2.83871E-05-2.86929E-05-4.44734E-07 5.03308E-19-1.00159E-18
 -1      2792 9.53011E-05-2.82615E-05-2.87321E-05-6.34615E-07 6.14081E-19-1.50371E-18
 -1      2793 9.53270E-05-2.84144E-05-2.86747E-05-3.62693E-07 5.75562E-19-4.18266E-20
 -1      2794 9.52998E-05-2.84323E-05-2.86580E-05-2.94955E-07 1.11485E-18 6.54314E-20
 -1      2795 9.52826E-05-2.83374E-05-2.86915E-05-4.37874E-07 9.06546E-19-1.87525E-19
 -1      2796 9.52935E-05-2.84540E-05-2.86439E-05-2.33962E-07 7.92544E-19 5.46182E-19
 -1      2797 9.52748E-05-2.84688E-05-2.86315E-05-1.84191E-07 5.73443E-19 4.79622E-19
 -1      2798 9.52690E-05-2.83987E-05-2.86593E-05-2.89563E-07 6.95991E-19 3.72182E-19
 -1      2799 9.52702E-05-2.84857E-05-2.86207E-05-1.39825E-07 9.15897E-19 3.25017E-19
 -1      2800 9.52579E-05-2.84976E-05-2.86118E-05-1.04120E-07 3.59081E-19 2.36661E-19
 -1      2801 9.52591E-05-2.84469E-05-2.86343E-05-1.80041E-07 4.62985E-19-3.19785E-20
 -1      2802 9.52545E-05-2.85104E-05-2.86037E-05-7.26508E-08 5.89381E-20 7.36732E-19
 -1      2803 9.52469E-05-2.85200E-05-2.85974E-05-4.77691E-08-3.10744E-19 1.30664E-18
 -1      2804 9.52519E-05-2.84841E-05-2.86152E-05-1.00984E-07 3.94295E-19-1.06315E-18
 -1      2805 9.52445E-05-2.85296E-05-2.85915E-05-2.61563E-08-6.64209E-19 1.75476E-18
 -1      2806 9.52403E-05-2.85372E-05-2.85871E-05-9.50395E-09 8.11459E-19 2.11397E-18
 -1      2807 9.52469E-05-2.85123E-05-2.86008E-05-4.54638E-08 7.01497E-19 5.17006E-19
 -1      2808 9.52387E-05-2.85445E-05-2.85828E-05 4.64574E-09 1.40796E-18 2.05898E-18
 -1      2809 9.52369E-05-2.85507E-05-2.85799E-05 1.50631E-08 1.05797E-18 1.56796E-18
 -1      2810 9.52435E-05-2.85337E-05-2.85901E-05-7.90364E-09 6.17401E-19 6.60460E-19
 -1      2811 9.52359E-05-2.85563E-05-2.85767E-05 2.35714E-08 3.75550E-19 1.26586E-18
 -1      2812 9.52358E-05-2.85615E-05-2.85748E-05 2.92272E-08-4.51636E-19-2.79835E-20
 -1      2813 9.52414E-05-2.85500E-05-2.85822E-05 1.60234E-08 1.32217E-19-7.38829E-19
 -1      2814 9.52355E-05-2.85662E-05-2.85724E-05 3.33557E-08-8.50365E-19 1.10697E-18
 -1      2815 9.52364E-05-2.85708E-05-2.85710E-05 3.51728E-08-2.67211E-19 2.39593E-19
 -1      2816 9.52405E-05-2.85630E-05-2.85762E-05 2.95905E-08 2.94620E-19 3.82637E-20
 -1      2817 9.96443E-05-2.85964E-05-3.04373E-05-9.24544E-06 9.14187E-19-6.97242E-19
 -1      2818 9.88560E-05-2.80665E-05-3.03263E-05-8.56422E-06 9.39969E-19-6.40087E-19
 -1      2819 9.85772E-05-2.77430E-05-3.03440E-05-7.64050E-06 1.07649E-18-7.68715E-19
 -1      2820 9.80343E-05-2.73510E-05-3.02774E-05-6.73829E-06 1.14561E-18-6.51149E-19
 -1      2821 9.73324E-05-2.69920E-05-3.01603E-05-8.53679E-06 1.04276E-18-9.53711E-19
 -1      2822 1.03626E-04-3.20447E-05-3.06834E-05-1.07638E-05-7.02202E-20 1.43712E-19
 -1      2823 1.02189E-04-3.08188E-05-3.05616E-05-1.08250E-05 1.82233E-19-1.08901E-19
 -1      2824 1.07082E-04-3.52544E-05-3.08070E-05-9.96866E-06-4.67906E-19 4.73203E-19
 -1      2825 1.05225E-04-3.35146E-05-3.06867E-05-1.07359E-05-1.78683E-19 4.21162E-19
 -1      2826 1.02076E-04-3.23228E-05-2.99512E-05-1.22160E-05-1.97409E-19-7.25719E-20
 -1      2827 1.11828E-04-3.95405E-05-3.10333E-05-7.36478E-06-2.38476E-19 3.52289E-19
 -1      2828 1.09593E-04-3.73882E-05-3.08678E-05-9.12246E-06-3.48897E-19 5.34709E-19
 -1      2829 1.06122E-04-3.64515E-05-2.99437E-05-1.16439E-05-2.73517E-19 1.88147E-19
 -1      2830 1.17581E-04-4.39557E-05-3.16314E-05-2.23953E-06-5.94703E-19 1.02488E-18
 -1      2831 1.15329E-04-4.20783E-05-3.12982E-05-5.15364E-06-6.51890E-19 6.29097E-19
 -1      2832 1.12151E-04-4.19028E-05-3.02104E-05-9.02771E-06-4.87757E-19 3.58732E-19
 -1      2833 1.22824E-04-4.59921E-05-3.30189E-05 5.14044E-06 8.11365E-20 2.09316E-18
 -1      2834 1.21404E-04-4.57849E-05-3.23512E-05 1.56217E-06-4.64191E-19 1.75746E-18
 -1      2835 1.19525E-04-4.70968E-05-3.12113E-05-3.20156E-06-9.53124E-19 1.03726E-18
 -1      2836 1.24808E-04-4.20961E-05-3.55070E-05 1.29520E-05 4.37919E-19 3.14703E-18
 -1      2837 1.25878E-04-4.53264E-05-3.44995E-05 1.03276E-05 3.79047E-19 2.93930E-18
 -1      2838 1.27087E-04-4.89648E-05-3.37133E-05 5.59767E-06-3.00908E-19 2.45265E-18
 -1      2839 1.25718E-04-3.03560E-05-4.11293E-05 1.49539E-05 2.22759E-18 2.43607E-18
 -1      2840 1.28404E-04-3.74589E-05-3.93059E-05 1.55437E-05 1.35335E-18 3.10062E-18
 -1      2841 1.17109E-04-1.97584E-05-4.21522E-05-8.31534E-06 4.83603E-18-4.19344E-19
 -1      2842 1.16118E-04-1.76604E-05-4.25889E-05-1.84755E-06 4.79611E-18 3.01583E-19
 -1      2843 1.22965E-04-2.97729E-05-4.04394E-05-1.60857E-05 2.85471E-18-1.47124E-18
 -1      2844 1.20378E-04-2.37347E-05-4.16697E-05-1.34214E-05 4.09101E-18-7.87873E-19
 -1      2845 1.23933E-04-4.64955E-05-3.31540E-05-5.63182E-06-1.17962E-18-2.00977E-18
 -1      2846 1.24400E-04-4.55667E-05-3.38207E-05-9.14000E-06-7.42021E-19-2.01156E-18
 -1      2847 1.18123E-04-4.37853E-05-3.17658E-05 2.07137E-06-1.89228E-18-1.22630E-18
 -1      2848 1.20110E-04-4.52353E-05-3.21838E-05-1.20373E-06-1.61904E-18-1.57065E-18
 -1      2849 1.22787E-04-4.85226E-05-3.19821E-05-4.71556E-07-1.71247E-18-1.58721E-18
 -1      2850 1.12117E-04-3.91496E-05-3.11860E-05 6.97905E-06-1.10676E-18-6.40972E-19
 -1      2851 1.14358E-04-4.12991E-05-3.13780E-05 4.82209E-06-1.49970E-18-1.07047E-18
 -1      2852 1.15057E-04-4.39736E-05-3.05790E-05 6.34851E-06-1.51756E-18-8.96214E-19
 -1      2853 1.07276E-04-3.49003E-05-3.09624E-05 9.30302E-06-1.16964E-18 4.00860E-20
 -1      2854 1.09232E-04-3.68015E-05-3.10768E-05 8.23000E-06-9.52939E-19-5.16750E-19
 -1      2855 1.08372E-04-3.83107E-05-3.01192E-05 9.91924E-06-1.11270E-18-6.15806E-19
 -1      2856 1.03845E-04-3.18445E-05-3.08274E-05 9.85542E-06-1.28908E-18-8.70239E-20
 -1      2857 1.05377E-04-3.32075E-05-3.09418E-05 9.56825E-06-9.18091E-19 4.44428E-19
 -1      2858 1.03638E-04-3.36592E-05-3.00534E-05 1.10857E-05-1.16525E-18 1.40793E-19
 -1      2859 1.01523E-04-2.99293E-05-3.06699E-05 9.37932E-06-1.73094E-18-1.03936E-19
 -1      2860 1.02687E-04-3.07994E-05-3.08071E-05 9.57796E-06-1.45892E-18 8.24616E-21
 -1      2861 1.00643E-04-3.05466E-05-3.00766E-05 1.08646E-05-1.43339E-18 5.58766E-19
 -1      2862 9.99456E-05-2.88489E-05-3.04666E-05 8.38236E-06-9.07709E-19 5.92929E-20
 -1      2863 1.00838E-04-2.93618E-05-3.06229E-05 8.83756E-06-9.97979E-19 1.87232E-19
 -1      2864 9.88424E-05-2.87296E-05-3.00662E-05 9.93009E-06-1.46977E-18 9.92696E-19
 -1      2865 9.88366E-05-2.83028E-05-3.02301E-05 7.18269E-06 6.64925E-19-7.10688E-19
 -1      2866 9.95346E-05-2.85856E-05-3.03932E-05 7.74124E-06-2.95570E-19-2.91274E-19
 -1      2867 9.77696E-05-2.78047E-05-2.99932E-05 8.68114E-06-2.74508E-19 3.49103E-19
 -1      2868 9.80194E-05-2.80695E-05-2.99818E-05 5.96747E-06 1.17273E-19-7.45972E-19
 -1      2869 9.85755E-05-2.82142E-05-3.01400E-05 6.53628E-06 9.00957E-19-4.46602E-19
 -1      2870 9.71085E-05-2.74263E-05-2.98676E-05 7.35002E-06 5.70560E-19 1.27533E-19
 -1      2871 9.73917E-05-2.80059E-05-2.97404E-05 4.83821E-06-8.93433E-19-6.32247E-19
 -1      2872 9.78388E-05-2.80720E-05-2.98854E-05 5.36639E-06-5.38361E-19-7.21159E-19
 -1      2873 9.66718E-05-2.73522E-05-2.97106E-05 6.06815E-06-3.29867E-19 7.05658E-19
 -1      2874 9.68963E-05-2.80271E-05-2.95187E-05 3.84259E-06 2.88397E-20-4.38957E-19
 -1      2875 9.72559E-05-2.80501E-05-2.96461E-05 4.30653E-06-5.34091E-19-6.21899E-19
 -1      2876 9.63585E-05-2.74306E-05-2.95422E-05 4.90484E-06-7.82195E-19 2.70807E-19
 -1      2877 9.65009E-05-2.80856E-05-2.93236E-05 2.99592E-06 7.84484E-19 4.85100E-19
 -1      2878 9.67882E-05-2.80861E-05-2.94319E-05 3.38840E-06 6.84599E-19 2.57690E-19
 -1      2879 9.61173E-05-2.75738E-05-2.93775E-05 3.89067E-06 1.23376E-19 4.87250E-19
 -1      2880 9.61854E-05-2.81563E-05-2.91575E-05 2.29512E-06 2.13998E-19 4.63913E-19
 -1      2881 9.64124E-05-2.81457E-05-2.92470E-05 2.61806E-06 9.98410E-19 6.17516E-19
 -1      2882 9.59236E-05-2.77343E-05-2.92258E-05 3.03256E-06 8.10167E-19 7.13567E-19
 -1      2883 9.59359E-05-2.82267E-05-2.90199E-05 1.72754E-06 9.46249E-19 4.51836E-19
 -1      2884 9.61127E-05-2.82113E-05-2.90922E-05 1.98748E-06 1.45403E-19 1.95371E-19
 -1      2885 9.57656E-05-2.78884E-05-2.90921E-05 2.32361E-06 4.66698E-19-7.54694E-19
 -1      2886 9.57410E-05-2.82911E-05-2.89083E-05 1.27634E-06 1.71183E-18 1.41102E-18
 -1      2887 9.58767E-05-2.82743E-05-2.89656E-05 1.48169E-06 1.20552E-18 1.03038E-18
 -1      2888 9.56370E-05-2.80258E-05-2.89780E-05 1.74958E-06 4.07833E-19-1.09505E-18
 -1      2889 9.55913E-05-2.83473E-05-2.88198E-05 9.23672E-07 1.29398E-18 7.61347E-19
 -1      2890 9.56935E-05-2.83308E-05-2.88643E-05 1.08317E-06 2.32410E-18 1.37920E-18
 -1      2891 9.55335E-05-2.81430E-05-2.88833E-05 1.29304E-06 1.70777E-18 3.93927E-19
 -1      2892 9.54785E-05-2.83948E-05-2.87508E-05 6.52423E-07 2.12720E-18 2.48709E-19
 -1      2893 9.55540E-05-2.83797E-05-2.87847E-05 7.74321E-07 1.54330E-18 1.16107E-18
 -1      2894 9.54517E-05-2.82401E-05-2.88064E-05 9.35911E-07 1.65180E-18 4.70531E-19
 -1      2895 9.53952E-05-2.84343E-05-2.86980E-05 4.47117E-07 1.86857E-18 2.73331E-19
 -1      2896 9.54498E-05-2.84208E-05-2.87234E-05 5.38777E-07 2.33744E-18 1.22191E-18
 -1      2897 9.53883E-05-2.83190E-05-2.87453E-05 6.60995E-07 1.72982E-18 1.89473E-19
 -1      2898 9.53353E-05-2.84665E-05-2.86583E-05 2.94287E-07 1.14220E-18 7.11231E-19
 -1      2899 9.53737E-05-2.84548E-05-2.86770E-05 3.62047E-07 1.23090E-18 5.51814E-19
 -1      2900 9.53403E-05-2.83820E-05-2.86975E-05 4.52748E-07 1.48494E-18 2.75116E-19
 -1      2901 9.52934E-05-2.84924E-05-2.86292E-05 1.82544E-07-3.46647E-19-1.24683E-19
 -1      2902 9.53195E-05-2.84825E-05-2.86426E-05 2.31714E-07 4.96981E-19 6.18571E-19
 -1      2903 9.53048E-05-2.84315E-05-2.86608E-05 2.97624E-07 6.81691E-19 8.47235E-19
 -1      2904 9.52653E-05-2.85130E-05-2.86082E-05 1.02487E-07-5.89617E-20-1.10323E-18
 -1      2905 9.52822E-05-2.85047E-05-2.86175E-05 1.37409E-07-4.84918E-19-1.00467E-18
 -1      2906 9.52792E-05-2.84699E-05-2.86332E-05 1.84155E-07 3.87761E-19 8.07601E-19
 -1      2907 9.52474E-05-2.85293E-05-2.85935E-05 4.65310E-08 6.42397E-20-7.48729E-19
 -1      2908 9.52576E-05-2.85224E-05-2.85998E-05 7.06753E-08-2.45857E-20-1.05972E-18
 -1      2909 9.52614E-05-2.84994E-05-2.86128E-05 1.02855E-07 1.52155E-19-7.05712E-19
 -1      2910 9.52370E-05-2.85422E-05-2.85835E-05 8.70799E-09-3.35793E-19-1.00485E-18
 -1      2911 9.52423E-05-2.85364E-05-2.85876E-05 2.47758E-08 2.80811E-19-4.53950E-19
 -1      2912 9.52496E-05-2.85218E-05-2.85980E-05 4.60703E-08 5.24152E-20-8.23361E-19
 -1      2913 9.52318E-05-2.85525E-05-2.85769E-05-1.55311E-08 9.81617E-20-1.55067E-19
 -1      2914 9.52339E-05-2.85477E-05-2.85793E-05-5.50695E-09-4.43433E-19-5.11161E-19
 -1      2915 9.52423E-05-2.85389E-05-2.85875E-05 7.78341E-09-6.78844E-19-1.69652E-18
 -1      2916 9.52304E-05-2.85611E-05-2.85725E-05-2.95431E-08 7.89306E-19 1.19755E-18
 -1      2917 9.52302E-05-2.85569E-05-2.85740E-05-2.40924E-08 8.94532E-19 1.14599E-18
 -1      2918 9.52383E-05-2.85521E-05-2.85800E-05-1.65940E-08-4.59007E-19-8.85874E-19
 -1      2919 9.52315E-05-2.85687E-05-2.85697E-05-3.55473E-08 7.82047E-19 3.03915E-18
 -1      2920 9.52299E-05-2.85649E-05-2.85706E-05-3.38114E-08 3.95906E-19 2.03891E-18
 -1      2921 9.52367E-05-2.85626E-05-2.85747E-05-3.04923E-08-5.26242E-20-3.14419E-19
 -1      2922 9.52349E-05-2.85757E-05-2.85683E-05-3.54915E-08-1.06323E-19 3.62479E-18
 -1      2923 9.52326E-05-2.85719E-05-2.85689E-05-3.65686E-08 3.37608E-19 3.21404E-18
 -1      2924 9.52382E-05-2.85714E-05-2.85715E-05-3.58762E-08-2.34579E-19 1.71615E-18
 -1      2925 9.52409E-05-2.85794E-05-2.85692E-05-3.60058E-08-2.01930E-19 2.05825E-18
 -1      2926 9.52526E-05-2.85794E-05-2.85742E-05-1.57701E-09 7.94120E-19-1.35333E-18
 -1      2927 9.52526E-05-2.85794E-05-2.85742E-05-5.74902E-09 1.18838E-18-1.82586E-18
 -1      2928 9.52364E-05-2.85738E-05-2.85696E-05 3.59238E-08-5.29582E-19-2.42845E-19
 -1      2929 9.52375E-05-2.85767E-05-2.85689E-05 3.53687E-08-9.45546E-19 7.52249E-19
 -1      2930 9.52406E-05-2.85726E-05-2.85721E-05 3.47945E-08-9.82346E-19-1.62954E-18
 -1      2931 9.52523E-05-2.85811E-05-2.85734E-05-1.81049E-08 1.02087E-18 2.79698E-19
 -1      2932 9.52514E-05-2.85806E-05-2.85731E-05-2.20115E-08 1.88635E-18-6.63610E-20
 -1      2933 9.52524E-05-2.85793E-05-2.85742E-05 6.56267E-09-8.11554E-19-1.39130E-18
 -1      2934 9.52525E-05-2.85794E-05-2.85742E-05 2.42596E-09 1.24473E-19-2.01206E-18
 -1      2935 9.52518E-05-2.85681E-05-2.85786E-05 4.71453E-10 3.87429E-19-3.07115E-18
 -1      2936 9.52527E-05-2.85802E-05-2.85740E-05-9.82916E-09 4.70600E-19-2.20112E-18
 -1      2937 9.52524E-05-2.85800E-05-2.85738E-05-1.39717E-08 2.82453E-19-6.63481E-19
 -1      2938 9.52519E-05-2.85708E-05-2.85776E-05-1.53893E-08 5.24597E-19-8.46987E-19
 -1      2939 9.52520E-05-2.85689E-05-2.85784E-05-7.35916E-09 1.14483E-18-1.71403E-18
 -1      2940 9.79013E-05-2.70763E-05-3.03411E-05-5.63415E-06 1.29465E-18-6.15887E-19
 -1      2941 9.75832E-05-2.67011E-05-3.03541E-05-4.49719E-06 1.51987E-18-4.97902E-19
 -1      2942 9.69086E-05-2.62618E-05-3.02897E-05-6.40578E-06 1.34859E-18-9.03036E-19
 -1      2943 9.52520E-05-2.85796E-05-2.85738E-05 1.44706E-08-2.77617E-19 1.69944E-18
 -1      2944 9.52524E-05-2.85799E-05-2.85740E-05 1.04945E-08-8.17227E-19 1.57796E-18
 -1      2945 9.52517E-05-2.85686E-05-2.85784E-05 8.15379E-09-8.38839E-20-2.20968E-19
 -1      2946 9.52509E-05-2.85802E-05-2.85731E-05 2.22523E-08 7.70901E-19 1.57875E-18
 -1      2947 9.52518E-05-2.85807E-05-2.85734E-05 1.84666E-08 1.20210E-19 1.62946E-18
 -1      2948 9.52514E-05-2.85703E-05-2.85776E-05 1.58876E-08 2.20306E-19 2.15361E-18
 -1      2949 9.52482E-05-2.85802E-05-2.85720E-05 2.91603E-08 1.09330E-18-1.32917E-19
 -1      2950 9.52501E-05-2.85812E-05-2.85724E-05 2.59894E-08 1.29353E-18 1.35540E-18
 -1      2951 9.52502E-05-2.85723E-05-2.85762E-05 2.36022E-08 4.30506E-19 1.54246E-18
 -1      2952 7.94493E-05-4.06038E-05-1.60515E-05-3.69977E-05-3.37987E-18-1.71789E-18
 -1      2953 9.95580E-05-5.16654E-05-2.06388E-05-3.59028E-05-3.12005E-18-2.12923E-19
 -1      2954 1.18773E-04-5.88296E-05-2.60962E-05 2.50286E-05-2.75752E-18-6.67899E-19
 -1      2955 1.02255E-04-5.19985E-05-2.10323E-05 3.24062E-05-3.62805E-18 1.59322E-19
 -1      2956 1.01249E-04-2.99203E-05-3.05630E-05-1.03690E-05 3.93774E-19-2.79867E-19
 -1      2957 1.00172E-04-2.91177E-05-3.04369E-05-9.97865E-06 6.93505E-19-4.33017E-19
 -1      2958 9.81374E-05-2.79821E-05-3.00862E-05-1.02902E-05 5.74831E-19-7.23725E-19
 -1      2959 9.95820E-05-2.96107E-05-3.00203E-05-1.15989E-05 9.15098E-20-4.95006E-19
 -1      2960 9.66049E-05-2.37387E-05-3.12071E-05-1.78969E-06-2.07551E-18-1.06386E-18
 -1      2961 9.67540E-05-2.47566E-05-3.08683E-05-1.15541E-08-1.79370E-18-1.05996E-18
 -1      2962 9.60812E-05-2.40167E-05-3.08892E-05 6.62738E-07-1.65346E-18-1.27687E-18
 -1      2963 4.81498E-05-2.30414E-05-1.01337E-05-2.80239E-05-2.53930E-18-4.50738E-18
 -1      2964 5.97454E-05-3.02265E-05-1.25888E-05-3.51058E-05-2.79415E-18-3.10205E-18
 -1      2965 8.40640E-05-4.37940E-05-1.72308E-05 3.74837E-05-4.42956E-18 2.13495E-18
 -1      2966 6.80155E-05-3.45040E-05-1.38507E-05 3.53452E-05-4.37545E-18 4.81761E-18
 -1      2967 9.75133E-05-2.63260E-05-3.04996E-05-3.16127E-06 1.72990E-18-5.68674E-19
 -1      2968 9.73921E-05-2.58248E-05-3.06376E-05-1.69020E-06 1.88921E-18-4.23769E-19
 -1      2969 9.64673E-05-2.41811E-05-3.09840E-05-7.14290E-07 2.15404E-18-9.75146E-19
 -1      2970 9.66809E-05-2.54478E-05-3.05389E-05-3.84145E-06 1.73035E-18-8.21098E-19
 -1      2971 1.34404E-04-2.29875E-05-4.85064E-05-1.06416E-05-4.35057E-18 4.44481E-19
 -1      2972 1.38836E-04-3.23472E-05-4.58536E-05-9.67478E-06-2.99585E-18 2.19699E-19
 -1      2973 1.39665E-04-3.84093E-05-4.41241E-05-1.32156E-05 3.80095E-18-2.13590E-18
 -1      2974 1.40324E-04-4.80226E-05-3.95233E-05-8.73284E-06 1.57490E-18-2.73253E-18
 -1      2975 1.33168E-04-3.42540E-05-4.26559E-05-1.60174E-05 3.27558E-18-1.45203E-18
 -1      2976 3.81398E-05-1.82702E-05-7.92579E-06-2.33302E-05 2.35348E-18 4.03061E-18
 -1      2977 4.85900E-05-2.57463E-05-9.20396E-06-3.40281E-05 2.29165E-18 4.20044E-18
 -1      2978 9.91382E-05-5.21038E-05-1.98941E-05-3.68987E-05 3.41068E-18-1.49443E-18
 -1      2979 1.12930E-04-5.65722E-05-2.41471E-05-3.16213E-05 3.01205E-18-2.57323E-18
 -1      2980 8.85182E-05-1.32870E-05-3.22632E-05 2.39245E-06 1.99189E-18-2.92659E-18
 -1      2981 8.76445E-05-1.24876E-05-3.22378E-05 1.86601E-06 1.58356E-18-3.08684E-18
 -1      2982 8.80030E-05-1.35269E-05-3.18955E-05 1.16284E-06 1.40061E-18-2.96825E-18
 -1      2983 8.98281E-05-1.53048E-05-3.19133E-05 1.63371E-06 1.94645E-18-2.56101E-18
 -1      2984 1.37523E-04-5.73684E-05-3.43112E-05-5.26927E-06-9.20473E-19 2.17836E-18
 -1      2985 1.43845E-04-5.24887E-05-3.95043E-05 2.16774E-06 3.41897E-19 2.09556E-18
 -1      2986 8.80632E-05-1.29191E-05-3.22322E-05-1.56235E-06-9.67787E-19-3.38396E-18
 -1      2987 8.89515E-05-1.37375E-05-3.22533E-05-2.19087E-06-1.30217E-18-3.24147E-18
 -1      2988 1.16408E-04-5.78071E-05-2.46930E-05-2.69379E-05-2.64063E-18 1.29829E-18
 -1      2989 1.28656E-04-6.11347E-05-2.94016E-05-1.86805E-05-1.79243E-18 1.92549E-18
 -1      2990 1.38262E-04-5.72694E-05-3.53844E-05 2.14259E-06-2.10752E-19-1.68792E-18
 -1      2991 1.31810E-04-5.97048E-05-3.05650E-05 1.20500E-05-1.68006E-18-1.28262E-18
 -1      2992 1.32709E-04-2.17600E-05-4.79155E-05 1.31342E-05 4.12547E-18 2.41330E-18
 -1      2993 1.27407E-04-1.51541E-05-4.88509E-05 6.86795E-06 4.83656E-18 1.51264E-18
 -1      2994 6.81467E-05-3.56438E-05-1.36636E-05 3.90733E-05 2.23701E-18-3.90577E-18
 -1      2995 5.22683E-05-2.61159E-05-1.06490E-05 3.27939E-05 1.76553E-18-4.56699E-18
 -1      2996 1.30478E-04-5.86438E-05-3.11054E-05 1.64567E-05 3.90482E-19-4.55651E-19
 -1      2997 1.20252E-04-5.87927E-05-2.60271E-05 2.71319E-05 8.80067E-19-9.24642E-19
 -1      2998 3.17950E-05-1.30402E-05-7.55825E-06-3.08662E-06-6.93490E-19-6.03553E-18
 -1      2999 3.78808E-05-1.67491E-05-8.61882E-06-1.88388E-05-1.48411E-18-5.36362E-18
 -1      3000 1.29291E-04-1.35171E-05-5.00508E-05 8.95586E-06-5.29861E-18-2.59891E-18
 -1      3001 1.25669E-04-9.63758E-06-5.04157E-05 3.83801E-06-6.52046E-18-1.53212E-18
 -1      3002 9.52411E-05-2.85792E-05-2.85694E-05 3.52053E-08-7.25237E-19-2.56319E-18
 -1      3003 1.34778E-04-2.56316E-05-4.73100E-05 1.10079E-05-3.45060E-18-3.71360E-18
 -1      3004 1.31538E-04-1.84234E-05-4.93195E-05 1.02999E-05-4.15258E-18-2.80474E-18
 -1      3005 1.24108E-04-1.58908E-05-4.65384E-05 1.09550E-05-4.26227E-18-3.27389E-18
 -1      3006 4.07025E-05-1.80583E-05-9.30793E-06 2.33729E-05 8.28875E-19-5.48284E-18
 -1      3007 3.38930E-05-1.37365E-05-8.07374E-06 1.02865E-05 1.95651E-19-5.90890E-18
 -1      3008 2.74318E-05-1.39730E-05-5.17544E-06 7.33060E-06 5.72277E-19 7.12185E-18
 -1      3009 2.79999E-05-1.34958E-05-5.74390E-06-7.58943E-06 1.37189E-18 5.24652E-18
 -1      3010 1.26700E-04-9.74200E-06-5.07725E-05-4.04715E-06-6.59860E-18-2.71501E-19
 -1      3011 1.30314E-04-1.41848E-05-5.01860E-05-8.74357E-06-5.88370E-18 7.50154E-20
 -1      3012 9.54052E-05-2.07517E-05-3.20135E-05-4.92136E-06-2.53772E-18-1.47033E-18
 -1      3013 9.60852E-05-2.25760E-05-3.15081E-05-3.01805E-06-2.32405E-18-1.22695E-18
 -1      3014 9.53002E-05-2.18205E-05-3.14927E-05-2.10915E-06-2.07854E-18-1.55512E-18
 -1      3015 9.40824E-05-1.90911E-05-3.21488E-05-4.66856E-06-2.34140E-18-1.90990E-18
 -1      3016 1.40632E-04-4.73161E-05-4.02468E-05 9.21544E-06 6.68494E-19 2.75942E-18
 -1      3017 8.66773E-05-1.22988E-05-3.18568E-05 3.54259E-07 3.59386E-19-3.22889E-18
 -1      3018 8.60267E-05-1.09954E-05-3.21785E-05 1.75930E-07 2.72523E-19-3.44385E-18
 -1      3019 8.62657E-05-1.11983E-05-3.21871E-05-3.05732E-07-1.12874E-19-3.49747E-18
 -1      3020 1.27608E-04-2.01282E-05-4.65718E-05-1.06193E-05-4.35544E-18 1.10220E-18
 -1      3021 1.22307E-04-1.03258E-05-4.85933E-05-1.01896E-07-6.11632E-18-8.69274E-19
 -1      3022 1.18002E-04-1.14603E-05-4.60477E-05-3.74337E-06-5.44261E-18-5.54542E-21
 -1      3023 1.17400E-04-1.22277E-05-4.55207E-05 3.35802E-06-4.86536E-18-1.84322E-18
 -1      3024 3.74990E-05-1.55922E-05-8.74922E-06 1.35505E-05-3.73224E-19 6.23416E-18
 -1      3025 4.10975E-05-1.33444E-05-1.12683E-05 2.83461E-06-4.01189E-19-5.64357E-18
 -1      3026 6.13479E-05-3.04819E-05-1.28226E-05-3.48586E-05 3.40041E-18 2.37614E-18
 -1      3027 1.34691E-04-5.72082E-05-3.32313E-05 9.40964E-06 5.61027E-19-4.72433E-19
 -1      3028 1.27959E-04-5.76780E-05-3.01140E-05 1.40801E-05 1.13982E-18-1.67818E-20
 -1      3029 1.34652E-04-5.30044E-05-3.54701E-05 1.76598E-06 1.51539E-19 1.34784E-19
 -1      3030 7.98285E-05-4.11060E-05-1.60767E-05 3.88089E-05 2.53570E-18-3.11306E-18
 -1      3031 7.48338E-05-3.54337E-05-1.65355E-05 3.57102E-05 2.33972E-18-3.02423E-18
 -1      3032 9.09085E-05-4.62882E-05-1.91808E-05 3.68699E-05 2.60823E-18-2.19524E-18
 -1      3033 6.19352E-05-2.96335E-05-1.34139E-05 3.30263E-05-3.47326E-18 5.15144E-18
 -1      3034 5.58378E-05-2.36402E-05-1.33232E-05 2.79454E-05-2.32754E-18 4.65180E-18
 -1      3035 7.32904E-05-3.26758E-05-1.70864E-05 3.12328E-05-4.28609E-18 2.82401E-18
 -1      3036 9.52508E-05-2.85730E-05-2.85762E-05-2.33488E-08 1.66414E-18-3.38411E-19
 -1      3037 9.52506E-05-2.85817E-05-2.85724E-05-2.59420E-08 1.49586E-18-1.20027E-18
 -1      3038 9.52487E-05-2.85806E-05-2.85720E-05-2.91531E-08 1.34675E-18-2.15840E-18
 -1      3039 8.36242E-05-4.24154E-05-1.72926E-05-3.80083E-05 3.67093E-18-2.10488E-19
 -1      3040 9.21773E-05-4.83711E-05-1.85044E-05-3.84587E-05 3.59142E-18-4.84291E-19
 -1      3041 1.01118E-04-5.05612E-05-2.15520E-05-3.30303E-05 3.20358E-18-1.02750E-18
 -1      3042 1.17288E-04-1.91555E-05-4.24185E-05 6.81964E-06 3.84182E-18 9.52753E-19
 -1      3043 1.19052E-04-2.33932E-05-4.16281E-05 1.22800E-05 2.74110E-18 1.84748E-18
 -1      3044 1.31205E-04-4.77882E-05-3.59990E-05-9.72686E-06 2.15226E-19-2.53477E-18
 -1      3045 1.28608E-04-4.30519E-05-3.68554E-05-1.41217E-05 5.03270E-19-2.11184E-18
 -1      3046 1.26772E-04-3.73311E-05-3.84757E-05-1.61747E-05 1.74796E-18-2.11851E-18
 -1      3047 1.36717E-04-5.21762E-05-3.63942E-05-5.44560E-06-3.10491E-20-2.85545E-18
 -1      3048 1.32681E-04-5.81202E-05-3.20495E-05-7.86837E-06-1.51066E-18 1.70296E-18
 -1      3049 9.52470E-05-2.85814E-05-2.85710E-05-3.20659E-08 4.17454E-19-4.05347E-19
 -1      3050 9.52438E-05-2.85795E-05-2.85704E-05-3.39222E-08-4.18414E-19 4.64019E-19
 -1      3051 9.52426E-05-2.85752E-05-2.85717E-05-3.47416E-08-1.34487E-18 2.06901E-19
 -1      3052 9.52479E-05-2.85748E-05-2.85742E-05-3.00730E-08 3.52189E-19 8.14839E-20
 -1      3053 1.24298E-04-5.76126E-05-2.84805E-05 1.56352E-05-2.90416E-18-9.16860E-19
 -1      3054 1.09051E-04-5.28878E-05-2.37393E-05-2.79102E-05-2.81252E-18 5.81351E-19
 -1      3055 9.52444E-05-2.85808E-05-2.85700E-05 3.32450E-08 3.28632E-19-2.28984E-18
 -1      3056 9.51568E-05-2.07586E-05-3.18968E-05 3.57749E-06 2.80932E-18-1.17401E-18
 -1      3057 9.64803E-05-4.67986E-05-2.09465E-05 3.13831E-05-4.39811E-18 8.62571E-19
 -1      3058 1.38812E-04-5.25811E-05-3.70641E-05-5.12986E-06 4.11592E-19-4.91692E-18
 -1      3059 1.37450E-04-4.81299E-05-3.86245E-05 2.95595E-06 1.68401E-19-5.47152E-18
 -1      3060 1.34536E-04-5.56553E-05-3.38565E-05-8.27306E-06 1.12015E-18-5.44097E-18
 -1      3061 1.13358E-04-5.62493E-05-2.42069E-05 2.95717E-05 1.63700E-18-1.31809E-18
 -1      3062 1.36795E-04-3.88442E-05-4.21885E-05-8.41891E-06-1.82652E-18 5.97158E-19
 -1      3063 1.20887E-04-5.83250E-05-2.67039E-05-2.50784E-05 2.48043E-18-3.84394E-18
 -1      3064 1.26560E-04-5.82712E-05-2.95340E-05-1.73882E-05 1.94844E-18-5.33281E-18
 -1      3065 1.15656E-04-5.63121E-05-2.52843E-05-2.61986E-05 2.37423E-18-3.37662E-18
 -1      3066 1.22782E-04-1.60767E-05-4.61987E-05 2.82389E-06 4.76202E-18 9.64460E-19
 -1      3067 4.85911E-05-1.87282E-05-1.21744E-05-2.07100E-05-1.95982E-18-4.33744E-18
 -1      3068 8.67061E-05-1.16350E-05-3.21984E-05-6.18603E-07-3.34543E-19-3.35629E-18
 -1      3069 8.72876E-05-1.21442E-05-3.22194E-05-1.16647E-06-7.77505E-19-3.33093E-18
 -1      3070 8.84750E-05-1.40180E-05-3.18919E-05-7.42737E-07-8.58224E-19-3.12260E-18
 -1      3071 8.72155E-05-1.28126E-05-3.18686E-05-1.23713E-07-2.30423E-19-3.20651E-18
 -1      3072 9.50060E-05-2.13625E-05-3.15485E-05 1.74446E-06 2.47402E-18-1.35800E-18
 -1      3073 3.78024E-05-1.50702E-05-9.05254E-06-1.60636E-05 1.70582E-18 3.99916E-18
 -1      3074 4.90441E-05-1.78102E-05-1.30657E-05-2.15029E-05 2.47466E-18 3.50396E-18
 -1      3075 4.00026E-05-1.27029E-05-1.11916E-05-8.40425E-06 1.31814E-18 4.29912E-18
 -1      3076 9.03460E-05-1.58655E-05-3.18981E-05-1.50678E-06-1.34287E-18-2.88697E-18
 -1      3077 9.00165E-05-1.48318E-05-3.22493E-05-2.65811E-06-1.46527E-18-3.01445E-18
 -1      3078 9.11657E-05-1.59817E-05-3.22462E-05-3.31917E-06-1.80877E-18-2.76851E-18
 -1      3079 5.31906E-05-2.19449E-05-1.28496E-05 2.60267E-05 1.36515E-18-4.48123E-18
 -1      3080 1.35974E-04-3.18165E-05-4.51070E-05 1.10021E-05-2.50002E-18-4.14527E-18
 -1      3081 1.28046E-04-2.60847E-05-4.39107E-05 1.43296E-05-2.32341E-18-4.06004E-18
 -1      3082 1.34774E-04-3.74293E-05-4.20498E-05 9.88665E-06-1.38003E-18-4.79378E-18
 -1      3083 9.52436E-05-2.85737E-05-2.85729E-05 3.32742E-08-1.85775E-18-3.96445E-18
 -1      3084 9.52466E-05-2.85787E-05-2.85720E-05 3.14261E-08 8.14499E-20-2.21106E-18
 -1      3085 9.52476E-05-2.85718E-05-2.85752E-05 2.91446E-08-3.26826E-20-2.06442E-18
 -1      3086 9.52434E-05-2.85694E-05-2.85744E-05 3.20038E-08-1.31885E-18-3.45736E-18
 -1      3087 1.03603E-04-4.86004E-05-2.38014E-05 2.66605E-05-3.35891E-18 3.86353E-19
 -1      3088 8.94722E-05-4.04773E-05-2.06429E-05 3.01171E-05-3.77877E-18 1.65129E-18
 -1      3089 9.33211E-05-1.98232E-05-3.15168E-05 9.00387E-07 2.17086E-18-1.76916E-18
 -1      3090 9.19817E-05-1.83517E-05-3.15684E-05 7.46950E-07 1.98657E-18-2.10735E-18
 -1      3091 1.30786E-04-5.38888E-05-3.27734E-05-1.37659E-06-1.55642E-18-2.29943E-18
 -1      3092 9.56168E-05-2.43456E-05-3.05311E-05 2.73961E-06-1.19558E-18-1.41303E-18
 -1      3093 9.58619E-05-2.51318E-05-3.03171E-05 3.94116E-06-1.07970E-18-1.46399E-18
 -1      3094 9.20097E-05-1.68372E-05-3.22436E-05-3.76543E-06-1.90646E-18-2.47796E-18
 -1      3095 9.31768E-05-1.81311E-05-3.21889E-05-4.23943E-06-2.16888E-18-2.19634E-18
 -1      3096 9.39488E-05-1.96174E-05-3.18351E-05-3.02021E-06-2.00193E-18-1.96433E-18
 -1      3097 9.22911E-05-1.78429E-05-3.18797E-05-2.28726E-06-1.67512E-18-2.39019E-18
 -1      3098 7.58883E-05-3.54489E-05-1.68182E-05-3.32811E-05-3.19289E-18-1.84907E-18
 -1      3099 6.09915E-05-2.58203E-05-1.47574E-05-3.03984E-05 3.20893E-18 2.09482E-18
 -1      3100 7.18277E-05-3.44814E-05-1.56030E-05-3.64506E-05 3.43557E-18 8.12305E-19
 -1      3101 8.24975E-05-3.83967E-05-1.86096E-05-3.35179E-05 3.58348E-18 1.28643E-20
 -1      3102 9.60963E-05-2.58520E-05-3.00896E-05 5.00678E-06-1.01126E-18-1.22651E-18
 -1      3103 9.64210E-05-2.65632E-05-2.99385E-05 5.91240E-06-8.56534E-19-1.27886E-18
 -1      3104 9.50109E-05-2.45582E-05-3.02010E-05 4.51455E-06-9.18219E-19-1.53348E-18
 -1      3105 9.67305E-05-2.72712E-05-2.97511E-05 6.77671E-06-8.44493E-19-1.18219E-18
 -1      3106 9.72468E-05-2.80730E-05-2.96419E-05 7.40204E-06-7.64020E-19-1.41161E-18
 -1      3107 9.55359E-05-2.61303E-05-2.97591E-05 6.51794E-06-8.81622E-19-1.34047E-18
 -1      3108 9.77873E-05-2.89407E-05-2.94830E-05 8.05807E-06-5.22708E-19-1.28896E-18
 -1      3109 9.85973E-05-2.99739E-05-2.94051E-05 8.37739E-06-2.75553E-19-1.15489E-18
 -1      3110 9.63592E-05-2.78596E-05-2.93801E-05 8.13873E-06-5.42297E-19-1.26990E-18
 -1      3111 9.95408E-05-3.11504E-05-2.92766E-05 8.77336E-06 9.68846E-20-1.13659E-18
 -1      3112 1.00740E-04-3.25188E-05-2.92360E-05 8.70675E-06 1.78133E-19-8.73818E-19
 -1      3113 9.78012E-05-3.00925E-05-2.90550E-05 9.33830E-06-6.12163E-20-1.18802E-18
 -1      3114 1.02272E-04-3.41066E-05-2.91635E-05 8.70996E-06 3.22354E-19-4.91680E-19
 -1      3115 1.03909E-04-3.58204E-05-2.91905E-05 8.11479E-06 4.44037E-19-2.91597E-19
 -1      3116 1.00222E-04-3.31230E-05-2.88121E-05 9.96172E-06 5.40558E-19-9.49077E-19
 -1      3117 1.06179E-04-3.77924E-05-2.92376E-05 7.46351E-06 4.76866E-19-7.47349E-20
 -1      3118 1.08155E-04-3.96311E-05-2.93973E-05 6.15021E-06 6.01704E-19 2.46247E-19
 -1      3119 1.03978E-04-3.70898E-05-2.87428E-05 9.64493E-06 7.31154E-19-6.72677E-19
 -1      3120 1.11088E-04-4.16291E-05-2.96851E-05 4.47497E-06 5.83150E-19 4.91718E-19
 -1      3121 1.13043E-04-4.29833E-05-3.00802E-05 2.33671E-06 4.33089E-19 5.43990E-19
 -1      3122 1.09196E-04-4.16238E-05-2.90413E-05 7.72984E-06 6.66558E-19 2.24265E-20
 -1      3123 1.16057E-04-4.41125E-05-3.07820E-05-6.10579E-07 2.97775E-19 8.42722E-19
 -1      3124 1.17260E-04-4.39082E-05-3.15146E-05-3.29956E-06 4.31968E-19 8.81803E-19
 -1      3125 1.15259E-04-4.54024E-05-3.00395E-05 3.34055E-06 6.24038E-19 5.45054E-19
 -1      3126 1.19379E-04-4.28836E-05-3.27963E-05-7.33780E-06 4.79201E-19 1.40280E-18
 -1      3127 1.18888E-04-3.97392E-05-3.39261E-05-9.64990E-06 2.39115E-19 1.69193E-18
 -1      3128 1.20779E-04-4.60557E-05-3.21892E-05-3.57225E-06 7.69013E-19 1.12037E-18
 -1      3129 1.18211E-04-3.53161E-05-3.57549E-05-1.24785E-05-5.56044E-19 2.24360E-18
 -1      3130 1.16068E-04-2.96597E-05-3.70663E-05-1.25568E-05-1.59830E-18 2.30087E-18
 -1      3131 1.22462E-04-3.99630E-05-3.54317E-05-1.06105E-05 2.15140E-19 1.99164E-18
 -1      3132 1.10212E-04-1.55397E-05-4.09020E-05-2.16085E-06-3.78550E-18-9.20288E-20
 -1      3133 1.09806E-04-1.51970E-05-4.07949E-05 3.18163E-06-3.64161E-18-1.25846E-18
 -1      3134 1.15316E-04-1.86552E-05-4.17208E-05 9.48085E-06-3.10152E-18-2.61491E-18
 -1      3135 1.17616E-04-2.39286E-05-4.05968E-05 1.25397E-05-2.08317E-18-2.76397E-18
 -1      3136 1.18721E-04-4.00602E-05-3.37059E-05 1.01783E-05-1.47966E-19-2.00843E-18
 -1      3137 1.19195E-04-4.28787E-05-3.27828E-05 7.87322E-06 1.88372E-19-1.81777E-18
 -1      3138 1.17115E-04-4.36864E-05-3.15091E-05 4.11520E-06-2.26174E-19-1.70124E-18
 -1      3139 1.15833E-04-4.38717E-05-3.07827E-05 1.39956E-06 4.23594E-19-2.02977E-18
 -1      3140 1.20283E-04-4.53877E-05-3.20798E-05 4.32443E-06-4.55280E-21-2.20087E-18
 -1      3141 1.12730E-04-4.26471E-05-3.00918E-05-1.48288E-06 6.49601E-19-2.39149E-18
 -1      3142 1.10771E-04-4.12796E-05-2.97028E-05-3.57152E-06 5.96258E-19-2.67769E-18
 -1      3143 1.14821E-04-4.50540E-05-2.99973E-05-2.60954E-06 2.20220E-20-2.36503E-18
 -1      3144 1.07807E-04-3.92711E-05-2.94047E-05-5.17855E-06 6.61839E-19-2.33872E-18
 -1      3145 1.05830E-04-3.74594E-05-2.92342E-05-6.44795E-06 8.10852E-20-2.19212E-18
 -1      3146 1.08635E-04-4.11733E-05-2.89997E-05-6.81061E-06 7.51164E-19-2.47421E-18
 -1      3147 1.03546E-04-3.55357E-05-2.91568E-05-7.07260E-06-7.69673E-19-1.96078E-18
 -1      3148 1.01909E-04-3.38946E-05-2.91026E-05-7.67061E-06-1.08640E-18-1.98528E-18
 -1      3149 1.03381E-04-3.66928E-05-2.86545E-05-8.64156E-06-3.55919E-20-2.24288E-18
 -1      3150 1.00356E-04-3.23952E-05-2.91240E-05-7.70294E-06-1.22495E-18-1.43617E-18
 -1      3151 9.91467E-05-3.11437E-05-2.91162E-05-7.83934E-06-1.37815E-18-1.53184E-18
 -1      3152 9.95985E-05-3.29031E-05-2.86360E-05-8.98982E-06-9.20985E-19-1.66485E-18
 -1      3153 9.81854E-05-3.01136E-05-2.91666E-05-7.55714E-06-1.23067E-18-1.82510E-18
 -1      3154 9.73504E-05-2.92606E-05-2.91667E-05-7.40647E-06-7.54548E-19-1.81094E-18
 -1      3155 9.71446E-05-3.01560E-05-2.87426E-05-8.53875E-06-1.27167E-18-1.73934E-18
 -1      3156 9.68084E-05-2.86265E-05-2.92125E-05-6.97606E-06 4.44773E-19-1.15047E-18
 -1      3157 9.62560E-05-2.80999E-05-2.92038E-05-6.66319E-06 1.30798E-18-1.53397E-19
 -1      3158 9.56887E-05-2.83736E-05-2.88687E-05-7.70672E-06 3.56565E-19-1.35942E-18
 -1      3159 9.59877E-05-2.77597E-05-2.92324E-05-6.17901E-06 1.04942E-18 1.15558E-19
 -1      3160 9.56313E-05-2.74717E-05-2.92106E-05-5.78859E-06 8.69966E-19 2.20682E-19
 -1      3161 9.49103E-05-2.73430E-05-2.89678E-05-6.72587E-06 1.42132E-18 1.26520E-19
 -1      3162 9.55293E-05-2.73314E-05-2.92200E-05-5.30399E-06 3.99843E-19 3.62551E-19
 -1      3163 9.53021E-05-2.72044E-05-2.91870E-05-4.89167E-06-5.44470E-20-4.63821E-21
 -1      3164 9.45592E-05-2.68441E-05-2.90257E-05-5.72235E-06 6.53124E-19 3.16977E-19
 -1      3165 9.52936E-05-2.71898E-05-2.91803E-05-4.43659E-06-2.94147E-19 3.01264E-19
 -1      3166 9.51487E-05-2.71638E-05-2.91400E-05-4.03743E-06 6.64676E-19 1.04169E-18
 -1      3167 9.44595E-05-2.66937E-05-2.90444E-05-4.76534E-06 2.46411E-19 4.42542E-19
 -1      3168 9.51872E-05-2.72212E-05-2.91220E-05-3.62776E-06 5.54090E-19 6.78134E-19
 -1      3169 9.50938E-05-2.72536E-05-2.90785E-05-3.26232E-06 3.50453E-19 9.66154E-19
 -1      3170 9.44951E-05-2.67544E-05-2.90321E-05-3.89214E-06 8.80404E-20 1.34430E-18
 -1      3171 9.51515E-05-2.73467E-05-2.90536E-05-2.90515E-06 4.07263E-19 4.88302E-19
 -1      3172 9.50902E-05-2.74088E-05-2.90103E-05-2.58384E-06-1.12633E-19 9.97913E-19
 -1      3173 9.45940E-05-2.69300E-05-2.89986E-05-3.12095E-06 8.53593E-20 4.28007E-19
 -1      3174 9.51512E-05-2.75144E-05-2.89823E-05-2.28055E-06-6.71480E-19 9.90288E-19
 -1      3175 9.51099E-05-2.75879E-05-2.89416E-05-2.00687E-06-1.54039E-18 7.53805E-19
 -1      3176 9.47139E-05-2.71566E-05-2.89526E-05-2.45775E-06-1.00391E-19 4.66557E-19
 -1      3177 9.51661E-05-2.76921E-05-2.89132E-05-1.75520E-06-2.05719E-18 9.55623E-19
 -1      3178 9.51376E-05-2.77661E-05-2.88766E-05-1.52820E-06-1.28636E-18 7.33910E-19
 -1      3179 9.48315E-05-2.73943E-05-2.89011E-05-1.90054E-06-1.44929E-18 3.70389E-19
 -1      3180 9.51853E-05-2.78611E-05-2.88496E-05-1.32366E-06-8.00896E-19 8.36670E-19
 -1      3181 9.51651E-05-2.79296E-05-2.88178E-05-1.13968E-06-8.18730E-19 2.42116E-19
 -1      3182 9.49357E-05-2.76198E-05-2.88492E-05-1.44211E-06-1.10122E-18 5.61393E-19
 -1      3183 9.52036E-05-2.80121E-05-2.87934E-05-9.76655E-07-8.83357E-19-1.57430E-19
 -1      3184 9.51890E-05-2.80719E-05-2.87665E-05-8.30648E-07-2.09950E-19-6.95204E-19
 -1      3185 9.50221E-05-2.78209E-05-2.88002E-05-1.07226E-06-1.19565E-18 1.32560E-19
 -1      3186 9.52186E-05-2.81409E-05-2.87452E-05-7.03100E-07 2.48706E-19-8.48503E-19
 -1      3187 9.52079E-05-2.81913E-05-2.87230E-05-5.89504E-07 4.64870E-19-1.09564E-18
 -1      3188 9.50904E-05-2.79928E-05-2.87560E-05-7.79354E-07-2.34017E-19 1.54149E-18
 -1      3189 9.52299E-05-2.82473E-05-2.87049E-05-4.91524E-07 1.05326E-18-5.42036E-19
 -1      3190 9.52220E-05-2.82884E-05-2.86870E-05-4.04843E-07 1.26857E-18-3.78066E-20
 -1      3191 9.51423E-05-2.81349E-05-2.87174E-05-5.51557E-07 6.90278E-19 6.97271E-19
 -1      3192 9.52376E-05-2.83327E-05-2.86720E-05-3.30965E-07 7.92865E-19 5.37468E-19
 -1      3193 9.52318E-05-2.83655E-05-2.86579E-05-2.66116E-07 5.60237E-19 9.71465E-22
 -1      3194 9.51803E-05-2.82493E-05-2.86847E-05-3.77574E-07 1.22145E-18-9.45700E-22
 -1      3195 9.52424E-05-2.83997E-05-2.86457E-05-2.11494E-07 7.34238E-19 2.56104E-19
 -1      3196 9.52381E-05-2.84253E-05-2.86348E-05-1.63994E-07 4.64134E-19 4.02934E-20
 -1      3197 9.52069E-05-2.83391E-05-2.86577E-05-2.47154E-07 1.22134E-18 3.87016E-20
 -1      3198 9.52449E-05-2.84512E-05-2.86250E-05-1.24480E-07 4.67451E-19 4.01845E-19
 -1      3199 9.52418E-05-2.84707E-05-2.86167E-05-9.05204E-08 8.91792E-19 1.67029E-19
 -1      3200 9.52247E-05-2.84082E-05-2.86357E-05-1.51342E-07 9.63560E-19 6.76394E-19
 -1      3201 9.52458E-05-2.84900E-05-2.86090E-05-6.26745E-08 2.93813E-19-2.68747E-19
 -1      3202 9.52436E-05-2.85049E-05-2.86027E-05-3.91344E-08 1.61334E-20-5.84584E-19
 -1      3203 9.52359E-05-2.84604E-05-2.86182E-05-8.25615E-08 6.79622E-19-4.11435E-20
 -1      3204 9.52457E-05-2.85191E-05-2.85967E-05-2.01855E-08 2.14922E-19-9.85324E-19
 -1      3205 9.52442E-05-2.85303E-05-2.85919E-05-4.58821E-09 3.12011E-20-1.71990E-18
 -1      3206 9.52422E-05-2.84992E-05-2.86042E-05-3.45974E-08-6.58268E-19-2.45448E-18
 -1      3207 9.52450E-05-2.85408E-05-2.85872E-05 7.60236E-09-5.98715E-19-1.45464E-18
 -1      3208 9.52442E-05-2.85494E-05-2.85836E-05 1.71310E-08-4.24202E-19-1.83571E-18
 -1      3209 9.52453E-05-2.85280E-05-2.85932E-05-2.55139E-09-4.01002E-19-1.84266E-18
 -1      3210 9.52441E-05-2.85567E-05-2.85801E-05 2.37514E-08-7.33775E-20-2.15618E-18
 -1      3211 9.52437E-05-2.85637E-05-2.85773E-05 2.86899E-08 1.77297E-19-2.16844E-18
 -1      3212 9.52460E-05-2.85645E-05-2.85780E-05 2.75466E-08-1.11370E-18-4.41294E-18
 -1      3213 9.52462E-05-2.85490E-05-2.85847E-05 1.68772E-08-6.64063E-19-1.48272E-18
 -1      3214 9.52502E-05-2.85572E-05-2.85827E-05 8.66466E-09 1.19389E-19 6.95792E-19
 -1      3215 9.52501E-05-2.85566E-05-2.85830E-05 5.17692E-09 8.79844E-19-1.96694E-18
 -1      3216 1.32312E-04-2.73814E-05-4.51846E-05 1.41789E-05 3.33816E-18 2.55682E-18
 -1      3217 1.04506E-04-3.68214E-05-2.89796E-05-1.35919E-05-3.93963E-19-2.57918E-19
 -1      3218 1.01939E-04-3.41354E-05-2.89823E-05-1.39998E-05-4.65356E-19-2.37161E-19
 -1      3219 1.00142E-04-3.20136E-05-2.91799E-05-1.34784E-05-4.47627E-19-3.98125E-19
 -1      3220 9.84983E-05-3.01896E-05-2.92467E-05-1.32582E-05-1.56737E-19-4.75702E-19
 -1      3221 9.77925E-05-3.21886E-05-2.82176E-05-1.53418E-05-4.86472E-19-6.77460E-19
 -1      3222 1.21542E-04-5.03923E-05-3.04250E-05-6.43531E-06-1.35645E-18 8.24507E-19
 -1      3223 1.16893E-04-4.75423E-05-2.95310E-05-1.02622E-05-1.33275E-18 4.30670E-19
 -1      3224 1.32970E-04-4.28886E-05-3.89446E-05 1.27627E-05 9.81129E-19 3.07116E-18
 -1      3225 9.95130E-05-3.13716E-05-2.91644E-05 1.25728E-05-1.54130E-18 6.65291E-19
 -1      3226 1.01472E-04-3.34535E-05-2.91227E-05 1.25774E-05-1.02481E-18 6.36778E-19
 -1      3227 9.71985E-05-2.86172E-05-2.93791E-05 1.14191E-05-1.50529E-18 9.59956E-19
 -1      3228 9.83849E-05-2.98664E-05-2.93411E-05 1.18281E-05-1.30014E-18 7.71642E-19
 -1      3229 9.57109E-05-2.94715E-05-2.84353E-05 1.32739E-05-1.43115E-18 1.48822E-18
 -1      3230 9.60530E-05-2.71828E-05-2.95164E-05 9.99068E-06-1.58262E-18 2.45614E-19
 -1      3231 9.67510E-05-2.78425E-05-2.95128E-05 1.05896E-05-1.46677E-18 4.97504E-19
 -1      3232 9.42530E-05-2.70715E-05-2.88121E-05 1.15318E-05-1.26956E-18 1.33493E-18
 -1      3233 9.55467E-05-2.65842E-05-2.95619E-05 8.51508E-06 2.97751E-19-1.69299E-20
 -1      3234 9.59622E-05-2.68741E-05-2.95936E-05 9.18012E-06-6.32858E-19 8.89609E-20
 -1      3235 9.37779E-05-2.59517E-05-2.90736E-05 9.83139E-06-7.49118E-19 1.59272E-19
 -1      3236 9.53566E-05-2.64658E-05-2.95333E-05 7.10489E-06 3.21096E-19 3.41591E-19
 -1      3237 9.56178E-05-2.65433E-05-2.95903E-05 7.76382E-06 6.07128E-19 3.15358E-19
 -1      3238 9.37871E-05-2.56080E-05-2.92183E-05 8.25701E-06 1.75451E-20 6.17772E-19
 -1      3239 9.53060E-05-2.65968E-05-2.94556E-05 5.81815E-06-1.19877E-18 1.21162E-18
 -1      3240 9.54845E-05-2.65630E-05-2.95265E-05 6.42980E-06-3.42190E-19 7.43202E-19
 -1      3241 9.39967E-05-2.56916E-05-2.92700E-05 6.83458E-06-4.49393E-19 4.79379E-19
 -1      3242 9.53060E-05-2.68381E-05-2.93514E-05 4.68250E-06-4.26550E-19 5.88681E-19
 -1      3243 9.54387E-05-2.67533E-05-2.94267E-05 5.22603E-06-7.52299E-19 8.34862E-19
 -1      3244 9.42593E-05-2.59837E-05-2.92572E-05 5.57431E-06-5.20829E-19 1.20489E-18
 -1      3245 9.53167E-05-2.71116E-05-2.92377E-05 3.70651E-06-1.53307E-19 4.17082E-19
 -1      3246 9.54217E-05-2.70095E-05-2.93107E-05 4.17406E-06-3.29446E-19 2.15377E-19
 -1      3247 9.45066E-05-2.63549E-05-2.92047E-05 4.47837E-06-2.26721E-19-8.31001E-20
 -1      3248 9.53236E-05-2.73768E-05-2.91257E-05 2.88648E-06 9.68773E-19-6.15916E-20
 -1      3249 9.54091E-05-2.72752E-05-2.91925E-05 3.27844E-06 8.59881E-19 2.60812E-19
 -1      3250 9.47128E-05-2.67339E-05-2.91316E-05 3.54303E-06 2.50357E-19-1.00672E-18
 -1      3251 9.53232E-05-2.76151E-05-2.90224E-05 2.21108E-06 1.11455E-18-8.03857E-19
 -1      3252 9.53933E-05-2.75223E-05-2.90810E-05 2.53265E-06 1.14688E-18 2.46987E-19
 -1      3253 9.48735E-05-2.70847E-05-2.90509E-05 2.75937E-06 1.39457E-18-8.16710E-19
 -1      3254 9.53169E-05-2.78195E-05-2.89310E-05 1.66476E-06 4.20348E-19-1.45803E-18
 -1      3255 9.53739E-05-2.77389E-05-2.89808E-05 1.92365E-06 4.03322E-19-1.08396E-18
 -1      3256 9.49932E-05-2.73920E-05-2.89712E-05 2.11435E-06 1.08061E-18-1.32284E-19
 -1      3257 9.53069E-05-2.79897E-05-2.88530E-05 1.23022E-06 1.23041E-18-6.59429E-19
 -1      3258 9.53526E-05-2.79219E-05-2.88942E-05 1.43508E-06 5.60509E-19-1.48206E-18
 -1      3259 9.50794E-05-2.76516E-05-2.88973E-05 1.59239E-06 3.21255E-19-2.02942E-18
 -1      3260 9.52954E-05-2.81282E-05-2.87880E-05 8.90125E-07 1.09256E-18 3.71212E-19
 -1      3261 9.53313E-05-2.80725E-05-2.88215E-05 1.04961E-06 1.46561E-18 4.89279E-19
 -1      3262 9.51399E-05-2.78654E-05-2.88319E-05 1.17690E-06 3.71981E-19-9.74729E-19
 -1      3263 9.52840E-05-2.82389E-05-2.87352E-05 6.28156E-07 1.08330E-18 1.04083E-18
 -1      3264 9.53116E-05-2.81939E-05-2.87617E-05 7.50337E-07 9.27159E-19 6.68108E-19
 -1      3265 9.51812E-05-2.80378E-05-2.87759E-05 8.51418E-07 9.21264E-19 1.95177E-19
 -1      3266 9.52736E-05-2.83260E-05-2.86930E-05 4.29604E-07 7.60755E-19 1.03440E-18
 -1      3267 9.52944E-05-2.82903E-05-2.87137E-05 5.21688E-07 1.11982E-18 9.18424E-19
 -1      3268 9.52086E-05-2.81746E-05-2.87291E-05 6.00502E-07 7.60012E-19 1.27446E-18
 -1      3269 9.52648E-05-2.83935E-05-2.86600E-05 2.81651E-07 3.89554E-19 1.46941E-18
 -1      3270 9.52800E-05-2.83656E-05-2.86758E-05 3.49862E-07 6.67729E-19 1.09319E-18
 -1      3271 9.52262E-05-2.82813E-05-2.86909E-05 4.10207E-07 8.04714E-19 2.43146E-18
 -1      3272 9.52575E-05-2.84451E-05-2.86345E-05 1.73423E-07 5.98091E-19 1.88548E-19
 -1      3273 9.52684E-05-2.84235E-05-2.86464E-05 2.22996E-07 8.43529E-19 4.79876E-19
 -1      3274 9.52369E-05-2.83634E-05-2.86604E-05 2.68350E-07 8.67126E-19 1.35434E-18
 -1      3275 9.52518E-05-2.84840E-05-2.86152E-05 9.59196E-08 1.45981E-20-2.49952E-19
 -1      3276 9.52593E-05-2.84675E-05-2.86240E-05 1.31150E-07-2.08066E-19-4.88634E-19
 -1      3277 9.52429E-05-2.84256E-05-2.86363E-05 1.64577E-07 6.89749E-19 4.20916E-19
 -1      3278 9.52475E-05-2.85130E-05-2.86008E-05 4.18606E-08-1.25459E-19-3.32732E-19
 -1      3279 9.52524E-05-2.85005E-05-2.86072E-05 6.61884E-08 2.11051E-19-4.24228E-19
 -1      3280 9.52458E-05-2.84720E-05-2.86176E-05 9.02948E-08-1.02625E-19 1.05634E-20
 -1      3281 9.52445E-05-2.85347E-05-2.85901E-05 5.53843E-09-1.31136E-18 2.40655E-19
 -1      3282 9.52474E-05-2.85251E-05-2.85947E-05 2.16323E-08-3.33338E-19 2.43768E-19
 -1      3283 9.52467E-05-2.85064E-05-2.86032E-05 3.85477E-08-4.35320E-19 1.18338E-18
 -1      3284 9.52425E-05-2.85510E-05-2.85822E-05-1.73742E-08 8.63492E-20-1.40815E-19
 -1      3285 9.52440E-05-2.85436E-05-2.85855E-05-7.48980E-09-1.15169E-18-5.99623E-20
 -1      3286 9.52464E-05-2.85318E-05-2.85921E-05 3.94559E-09-8.77132E-19 1.54392E-18
 -1      3287 9.52415E-05-2.85637E-05-2.85762E-05-3.00739E-08-1.94949E-19-4.20736E-19
 -1      3288 9.52419E-05-2.85579E-05-2.85786E-05-2.50393E-08-6.65487E-20-1.01442E-18
 -1      3289 9.52457E-05-2.85508E-05-2.85836E-05-1.77557E-08 5.20477E-19-5.35017E-19
 -1      3290 9.52426E-05-2.85714E-05-2.85733E-05-3.34985E-08-1.05982E-18 6.43574E-19
 -1      3291 9.52414E-05-2.85672E-05-2.85746E-05-3.25251E-08-4.37152E-19 8.44830E-20
 -1      3292 9.52454E-05-2.85631E-05-2.85782E-05-2.79662E-08-9.39649E-19 1.69515E-19
 -1      3293 9.52457E-05-2.85716E-05-2.85747E-05-3.17031E-08-1.45784E-18-1.46603E-19
 -1      3294 9.57713E-05-2.53580E-05-3.01724E-05-6.89237E-06 1.30602E-18-9.55476E-19
 -1      3295 9.56289E-05-2.49557E-05-3.02814E-05-5.70139E-06 1.44735E-18-9.01870E-19
 -1      3296 9.52500E-05-2.85559E-05-2.85832E-05 2.26048E-09 7.27579E-19-3.45375E-18
 -1      3297 9.52501E-05-2.85560E-05-2.85833E-05-1.25707E-09 1.05201E-18-2.03140E-18
 -1      3298 9.52484E-05-2.85433E-05-2.85877E-05 3.08169E-09 8.59936E-19-2.52982E-18
 -1      3299 9.52494E-05-2.85644E-05-2.85793E-05 2.26512E-08-6.48015E-20 9.70229E-19
 -1      3300 9.52504E-05-2.85633E-05-2.85803E-05 1.89671E-08 5.20133E-19 1.88698E-18
 -1      3301 1.20934E-04-1.68365E-05-4.51535E-05-1.00148E-05-4.74148E-18 1.23378E-18
 -1      3302 1.25237E-04-2.43459E-05-4.35350E-05-1.29312E-05-3.26838E-18 1.36521E-18
 -1      3303 1.35144E-04-5.12122E-05-3.59800E-05 7.72568E-06-3.35531E-19 2.49171E-18
 -1      3304 4.70594E-05-1.33745E-05-1.41696E-05 8.08353E-06 2.88521E-21-4.72316E-18
 -1      3305 4.56844E-05-1.26308E-05-1.37593E-05-4.47456E-06-7.67273E-19-4.72221E-18
 -1      3306 9.56485E-05-2.30060E-05-3.11357E-05-1.74840E-07 2.12567E-18-1.20451E-18
 -1      3307 9.43098E-05-2.10622E-05-3.13871E-05 4.72642E-07 2.21212E-18-1.44046E-18
 -1      3308 9.39895E-05-2.13758E-05-3.11094E-05-9.36409E-07 1.94146E-18-1.54992E-18
 -1      3309 9.57755E-05-2.37937E-05-3.08515E-05-1.92843E-06 1.90444E-18-1.21046E-18
 -1      3310 9.50032E-05-2.23535E-05-3.11191E-05-5.27924E-08-1.61815E-18-1.60196E-18
 -1      3311 9.53043E-05-2.34202E-05-3.08172E-05 1.46619E-06-1.42282E-18-1.54999E-18
 -1      3312 9.44763E-05-2.27631E-05-3.07354E-05 2.11974E-06-1.29847E-18-1.64945E-18
 -1      3313 9.52503E-05-2.85603E-05-2.85814E-05 1.54733E-08 1.18870E-18 3.28429E-18
 -1      3314 9.52505E-05-2.85593E-05-2.85821E-05 1.18245E-08 8.86907E-20 2.85583E-18
 -1      3315 9.52491E-05-2.85462E-05-2.85868E-05 8.45560E-09 8.62746E-19 1.99677E-18
 -1      3316 9.52495E-05-2.85514E-05-2.85848E-05 1.46409E-08 8.30986E-19 2.12335E-18
 -1      3317 1.03761E-04-3.59721E-05-2.89667E-05 1.29900E-05-7.77970E-19 5.13969E-20
 -1      3318 1.06777E-04-3.90042E-05-2.90191E-05 1.22131E-05-1.39726E-18 5.74725E-20
 -1      3319 9.89282E-05-3.37728E-05-2.80142E-05 1.48038E-05-1.32484E-18 1.42056E-18
 -1      3320 1.10788E-04-4.25920E-05-2.90734E-05 1.16811E-05-1.80916E-18-6.11614E-19
 -1      3321 1.14856E-04-4.60843E-05-2.94542E-05 9.53444E-06-1.92015E-18-5.95991E-19
 -1      3322 1.04990E-04-4.04915E-05-2.77839E-05 1.54393E-05-1.77897E-18-1.17407E-19
 -1      3323 1.11533E-04-4.35454E-05-2.91278E-05-1.18238E-05-8.42705E-19 3.01054E-19
 -1      3324 1.07855E-04-4.01153E-05-2.89063E-05-1.34933E-05-6.06725E-19 1.74819E-19
 -1      3325 1.02619E-04-3.78181E-05-2.78932E-05-1.61851E-05-7.10828E-19-3.88729E-19
 -1      3326 1.10925E-04-4.57326E-05-2.80255E-05-1.54111E-05-1.28377E-18 3.91005E-19
 -1      3327 9.59660E-05-2.60995E-05-2.99320E-05-9.02217E-06 8.96536E-19-8.61649E-19
 -1      3328 9.56787E-05-2.56637E-05-3.00012E-05-8.02706E-06 1.15051E-18-7.71975E-19
 -1      3329 9.43129E-05-2.44095E-05-2.99605E-05-7.39259E-06 1.21857E-18-9.49540E-19
 -1      3330 1.26175E-04-5.59958E-05-3.03826E-05 8.92603E-06-2.58526E-18-1.33983E-18
 -1      3331 1.16887E-04-5.36697E-05-2.66792E-05 1.88865E-05-3.55936E-18-6.65397E-19
 -1      3332 1.09535E-04-4.83929E-05-2.60042E-05 1.99063E-05-3.17770E-18-1.75007E-19
 -1      3333 1.24119E-04-5.19269E-05-3.09648E-05 3.84544E-06-2.03332E-18-1.30434E-18
 -1      3334 1.16940E-04-5.60909E-05-2.62368E-05 2.36908E-05 1.90416E-18-6.55299E-19
 -1      3335 1.05738E-04-5.24286E-05-2.23931E-05 3.22013E-05 2.40589E-18-1.58098E-18
 -1      3336 9.83088E-05-4.73520E-05-2.15893E-05 3.19952E-05 2.53538E-18-1.81894E-18
 -1      3337 1.01829E-04-4.77003E-05-2.29505E-05-2.84814E-05-2.54504E-18 1.25679E-19
 -1      3338 1.15387E-04-5.41231E-05-2.62436E-05-2.16518E-05-2.22873E-18 1.05678E-18
 -1      3339 8.73994E-05-1.38398E-05-3.15414E-05 5.60842E-07 9.16301E-19-2.96703E-18
 -1      3340 8.70654E-05-1.35298E-05-3.15303E-05 4.21667E-07 5.84317E-19-3.08255E-18
 -1      3341 4.80878E-05-1.54343E-05-1.36597E-05-1.46398E-05-1.57432E-18-3.95459E-18
 -1      3342 5.62651E-05-2.13716E-05-1.48924E-05-2.45279E-05-2.44208E-18-3.10649E-18
 -1      3343 1.30134E-04-3.52154E-05-4.12086E-05-1.19141E-05-1.77411E-18 1.06366E-18
 -1      3344 1.34931E-04-4.46723E-05-3.87022E-05-7.63273E-06-6.65133E-19 1.00151E-18
 -1      3345 4.48981E-05-1.67612E-05-1.16410E-05 1.93339E-05-9.22419E-19 5.24525E-18
 -1      3346 3.90864E-05-1.26270E-05-1.09307E-05 6.99321E-06 6.68627E-20 5.39444E-18
 -1      3347 6.95154E-05-2.84696E-05-1.71083E-05-2.93752E-05-2.61344E-18-2.20377E-18
 -1      3348 8.53003E-05-3.81924E-05-2.01315E-05-3.11933E-05-2.72612E-18-8.74456E-19
 -1      3349 6.23775E-05-2.56034E-05-1.54653E-05 2.94113E-05 1.67490E-18-3.50248E-18
 -1      3350 5.23107E-05-1.80172E-05-1.43227E-05 2.05248E-05 9.04102E-19-4.16105E-18
 -1      3351 8.69524E-05-1.34349E-05-3.15252E-05 5.16222E-07 4.30454E-19-2.96889E-18
 -1      3352 8.70430E-05-1.35102E-05-3.15261E-05 3.55415E-07 1.02743E-19-2.99029E-18
 -1      3353 8.74142E-05-1.45560E-05-3.11986E-05 3.80476E-07 4.74222E-19-2.75007E-18
 -1      3354 9.17758E-05-1.88004E-05-3.12509E-05-4.09312E-07 1.71898E-18-2.01016E-18
 -1      3355 9.07350E-05-1.70789E-05-3.15833E-05 7.49651E-07 1.90621E-18-2.29953E-18
 -1      3356 8.96379E-05-1.59891E-05-3.15831E-05 5.65612E-07 1.62938E-18-2.48275E-18
 -1      3357 1.21138E-04-3.44072E-05-3.73999E-05 1.33932E-05-8.91714E-19-2.75971E-18
 -1      3358 1.25497E-04-3.95121E-05-3.70216E-05 1.14236E-05-4.26137E-19-3.55674E-18
 -1      3359 5.73915E-05-2.14135E-05-1.48977E-05-2.56127E-05 2.39242E-18 2.56153E-18
 -1      3360 6.62319E-05-2.54932E-05-1.72840E-05-2.70501E-05 2.77843E-18 8.67044E-19
 -1      3361 5.46397E-05-1.77280E-05-1.55981E-05-1.94212E-05 1.82917E-18 2.81316E-18
 -1      3362 1.31916E-04-4.93242E-05-3.53953E-05-3.00264E-06 3.34161E-19 1.04037E-18
 -1      3363 1.12506E-04-4.96993E-05-2.69213E-05-1.88558E-05-1.85044E-18 5.76538E-19
 -1      3364 1.19512E-04-5.45067E-05-2.79703E-05-1.65893E-05-2.08558E-18 7.54150E-19
 -1      3365 8.37286E-05-3.65846E-05-2.00045E-05 3.01394E-05-3.88423E-18 1.98444E-18
 -1      3366 7.71439E-05-3.11444E-05-1.94258E-05 2.78041E-05-3.13275E-18 2.34228E-18
 -1      3367 9.20111E-05-3.85185E-05-2.27517E-05 2.55883E-05-3.30085E-18 1.83351E-18
 -1      3368 9.52512E-05-2.85639E-05-2.85804E-05-1.86968E-08-1.95334E-19-2.39416E-19
 -1      3369 9.52502E-05-2.85650E-05-2.85794E-05-2.24299E-08 1.16008E-20 1.47959E-19
 -1      3370 1.13207E-04-2.36758E-05-3.86902E-05-1.11389E-05-2.86694E-18 1.72429E-18
 -1      3371 1.10967E-04-1.88769E-05-3.95702E-05-7.72631E-06-3.45431E-18 1.11690E-18
 -1      3372 1.18604E-04-2.82817E-05-3.89205E-05 1.33700E-05-1.32561E-18-2.76287E-18
 -1      3373 1.14107E-04-4.88684E-05-2.81859E-05 1.41563E-05-2.49166E-18-8.83905E-19
 -1      3374 1.19983E-04-4.96190E-05-2.99312E-05 7.61395E-06-2.42975E-18-1.26913E-18
 -1      3375 9.59572E-05-2.64901E-05-2.97663E-05-1.00554E-05 6.39358E-19-8.61634E-19
 -1      3376 9.41987E-05-2.51933E-05-2.95792E-05-9.60631E-06 7.72010E-19-9.39638E-19
 -1      3377 9.64971E-05-2.71422E-05-2.97069E-05-1.08669E-05 2.96670E-19-7.36716E-19
 -1      3378 9.53458E-05-2.84311E-05-2.87149E-05-1.35998E-05-2.85695E-19-9.77745E-19
 -1      3379 9.77149E-05-2.89300E-05-2.94564E-05-1.24027E-05-2.04737E-19-6.16925E-19
 -1      3380 9.67459E-05-2.78329E-05-2.95232E-05-1.18231E-05-1.65920E-19-8.23091E-19
 -1      3381 1.25388E-04-5.42853E-05-3.03282E-05-7.86305E-06-1.52306E-18 1.25297E-18
 -1      3382 5.34028E-05-1.48044E-05-1.61314E-05-8.63826E-06-1.25726E-18-3.75209E-18
 -1      3383 1.29442E-04-5.45520E-05-3.20995E-05-3.29191E-06-1.06794E-18 1.78144E-18
 -1      3384 9.52511E-05-2.85598E-05-2.85821E-05-1.11568E-08 6.19166E-19-5.55873E-19
 -1      3385 9.52510E-05-2.85609E-05-2.85815E-05-1.49444E-08 8.84251E-19-1.19711E-18
 -1      3386 9.52504E-05-2.85521E-05-2.85849E-05-1.41098E-08-2.19566E-19-2.34087E-19
 -1      3387 9.52504E-05-2.85568E-05-2.85830E-05-4.20535E-09 8.54326E-19-2.21167E-18
 -1      3388 9.52506E-05-2.85575E-05-2.85828E-05-7.83396E-09 9.29658E-19-1.60608E-18
 -1      3389 9.52497E-05-2.85467E-05-2.85868E-05-7.60126E-09 8.81873E-20-9.30489E-19
 -1      3390 9.52487E-05-2.85435E-05-2.85877E-05-2.02677E-09 1.25491E-18-2.33503E-18
 -1      3391 1.20453E-04-2.81694E-05-3.98219E-05-1.32847E-05-2.43871E-18 2.07481E-18
 -1      3392 1.26403E-04-3.22182E-05-4.07292E-05-1.30263E-05-2.01064E-18 1.56953E-18
 -1      3393 1.23675E-04-5.68154E-05-2.84270E-05 1.62570E-05 1.64467E-18-3.65945E-20
 -1      3394 1.16198E-04-5.38347E-05-2.66828E-05 2.02777E-05 2.20403E-18-4.32629E-19
 -1      3395 5.30993E-05-1.54872E-05-1.57185E-05 1.33560E-05 5.40381E-19-4.06655E-18
 -1      3396 5.59767E-05-1.42916E-05-1.77156E-05 6.76616E-06 4.53427E-20-3.68417E-18
 -1      3397 6.04602E-05-1.86230E-05-1.78414E-05 1.74758E-05 9.66622E-19-3.14149E-18
 -1      3398 1.26245E-04-5.58837E-05-3.04446E-05 1.00216E-05 1.65303E-18 7.78344E-20
 -1      3399 5.61409E-05-2.04859E-05-1.48345E-05 2.19189E-05-1.60814E-18 3.97428E-18
 -1      3400 9.58179E-05-2.47423E-05-3.04599E-05-4.60765E-06 1.52479E-18-9.94837E-19
 -1      3401 9.57260E-05-2.42209E-05-3.06367E-05-3.17366E-06 1.63565E-18-1.09442E-18
 -1      3402 9.48565E-05-2.30681E-05-3.07637E-05-2.71107E-06 1.61915E-18-1.31248E-18
 -1      3403 9.46071E-05-2.37940E-05-3.03483E-05-5.11682E-06 1.48633E-18-1.13148E-18
 -1      3404 1.30779E-04-5.73438E-05-3.14858E-05-1.07422E-05 1.32542E-18-4.92566E-18
 -1      3405 1.31628E-04-5.48345E-05-3.34174E-05-3.81932E-06 1.36621E-18-4.69817E-18
 -1      3406 1.25315E-04-5.63818E-05-2.94214E-05-1.40960E-05 1.53556E-18-4.57819E-18
 -1      3407 1.09353E-04-5.36589E-05-2.36325E-05-2.93826E-05 2.52019E-18-2.85138E-18
 -1      3408 1.15675E-04-5.52365E-05-2.58858E-05-2.34980E-05 2.37672E-18-3.88827E-18
 -1      3409 1.02362E-04-4.97167E-05-2.23414E-05-3.09589E-05 2.74174E-18-1.43475E-18
 -1      3410 7.91742E-05-3.52399E-05-1.88188E-05 3.23779E-05 2.27479E-18-2.23982E-18
 -1      3411 7.04235E-05-2.99995E-05-1.68671E-05 3.14576E-05 2.00742E-18-2.93735E-18
 -1      3412 6.85578E-05-2.61416E-05-1.79094E-05 2.68385E-05 1.55624E-18-2.83380E-18
 -1      3413 4.29465E-05-1.20022E-05-1.26848E-05-1.19418E-06 9.13254E-19 4.33797E-18
 -1      3414 4.91953E-05-1.33607E-05-1.51829E-05-8.45454E-06 1.26117E-18 3.24906E-18
 -1      3415 4.89199E-05-1.29495E-05-1.50763E-05 4.39964E-06-5.26087E-20 3.85871E-18
 -1      3416 8.79474E-05-1.43588E-05-3.15563E-05 4.63908E-07 1.10913E-18-2.82987E-18
 -1      3417 8.80730E-05-1.51635E-05-3.12196E-05 7.01907E-08 9.46972E-19-2.64903E-18
 -1      3418 8.86902E-05-1.50592E-05-3.15712E-05 6.19996E-07 1.47520E-18-2.69461E-18
 -1      3419 9.52474E-05-2.85639E-05-2.85787E-05 2.59289E-08-1.51303E-18-3.21007E-18
 -1      3420 9.52488E-05-2.85649E-05-2.85789E-05 2.43414E-08-2.80136E-19-9.23935E-19
 -1      3421 9.52489E-05-2.85548E-05-2.85831E-05 1.93560E-08-1.14956E-18 4.61548E-19
 -1      3422 9.52476E-05-2.85561E-05-2.85818E-05 2.18783E-08-1.76822E-18-2.39220E-18
 -1      3423 9.03435E-05-1.67115E-05-3.15736E-05-3.33603E-07-1.10463E-18-2.84961E-18
 -1      3424 9.14333E-05-1.78182E-05-3.15643E-05-6.93314E-07-1.38806E-18-2.62413E-18
 -1      3425 9.47673E-05-4.20386E-05-2.23844E-05-2.86825E-05-2.49854E-18-4.78163E-19
 -1      3426 1.01847E-04-4.37398E-05-2.47910E-05-2.32941E-05-2.05059E-18 1.48098E-19
 -1      3427 8.73667E-05-3.50008E-05-2.23042E-05-2.63731E-05-1.91167E-18-8.00499E-19
 -1      3428 6.82996E-05-2.49085E-05-1.81927E-05-2.43748E-05-2.15448E-18-2.34808E-18
 -1      3429 8.85348E-05-1.49411E-05-3.15584E-05 1.18218E-07-6.76008E-19-2.90715E-18
 -1      3430 8.93565E-05-1.57206E-05-3.15695E-05-1.85622E-07-9.93279E-19-2.96483E-18
 -1      3431 9.04099E-05-1.74550E-05-3.12477E-05 6.10368E-07-1.05996E-18-2.70855E-18
 -1      3432 1.16613E-04-1.57339E-05-4.36272E-05-6.72343E-06-4.61315E-18 7.92532E-19
 -1      3433 9.44552E-05-2.09031E-05-3.15373E-05-1.79791E-06-1.85805E-18-1.80954E-18
 -1      3434 9.36509E-05-2.03013E-05-3.14424E-05-9.12754E-07-1.64437E-18-1.90983E-18
 -1      3435 1.02691E-04-4.76238E-05-2.36480E-05 2.74366E-05 2.59645E-18-1.29665E-18
 -1      3436 9.13559E-05-4.15522E-05-2.09436E-05 3.16093E-05 2.44229E-18-1.96951E-18
 -1      3437 9.28272E-05-1.94715E-05-3.14501E-05-6.00411E-07-1.43199E-18-2.18293E-18
 -1      3438 9.38455E-05-2.31620E-05-3.02911E-05 3.88853E-06-9.20562E-19-1.72125E-18
 -1      3439 9.40888E-05-2.39927E-05-3.00399E-05 5.00622E-06-8.47163E-19-1.72699E-18
 -1      3440 9.42205E-05-2.47648E-05-2.97609E-05 6.04033E-06-7.76631E-19-1.66705E-18
 -1      3441 9.45373E-05-2.55844E-05-2.95443E-05 6.97510E-06-7.37657E-19-1.58033E-18
 -1      3442 9.30108E-05-2.34133E-05-2.98330E-05 5.47774E-06-8.03783E-19-1.85172E-18
 -1      3443 9.47474E-05-2.64060E-05-2.92794E-05 7.93855E-06-6.13591E-19-1.40537E-18
 -1      3444 9.52957E-05-2.73952E-05-2.90864E-05 8.69810E-06-3.98271E-19-1.37121E-18
 -1      3445 9.33203E-05-2.50690E-05-2.92609E-05 7.52558E-06-5.71099E-19-1.52422E-18
 -1      3446 9.57675E-05-2.84547E-05-2.88305E-05 9.60100E-06-1.01282E-19-1.33902E-18
 -1      3447 9.67251E-05-2.97952E-05-2.86637E-05 1.01638E-05 2.71542E-19-1.05639E-18
 -1      3448 9.39461E-05-2.70227E-05-2.87051E-05 9.48585E-06-1.31333E-19-1.36199E-18
 -1      3449 9.77079E-05-3.12921E-05-2.84300E-05 1.09675E-05 4.18290E-19-1.00720E-18
 -1      3450 9.92702E-05-3.31433E-05-2.83163E-05 1.12352E-05 6.99848E-19-1.13848E-18
 -1      3451 9.53159E-05-2.96892E-05-2.81701E-05 1.13745E-05 3.12614E-19-1.15917E-18
 -1      3452 1.01068E-04-3.52385E-05-2.81505E-05 1.17934E-05 9.15560E-19-1.29486E-18
 -1      3453 1.03389E-04-3.76652E-05-2.81548E-05 1.15499E-05 8.61434E-19-1.03105E-18
 -1      3454 9.79725E-05-3.34858E-05-2.77119E-05 1.30461E-05 7.24175E-19-1.54110E-18
 -1      3455 1.06399E-04-4.04162E-05-2.81683E-05 1.14311E-05 1.01825E-18-6.43101E-19
 -1      3456 1.09432E-04-4.30822E-05-2.84300E-05 1.02270E-05 1.11168E-18-5.35232E-19
 -1      3457 1.02642E-04-3.88139E-05-2.74761E-05 1.40960E-05 1.23961E-18-1.52439E-18
 -1      3458 1.13789E-04-4.61189E-05-2.88578E-05 8.95476E-06 1.04348E-18-5.50902E-22
 -1      3459 1.17331E-04-4.80648E-05-2.96451E-05 6.02483E-06 1.05433E-18 4.46592E-19
 -1      3460 1.09713E-04-4.49054E-05-2.78307E-05 1.32258E-05 1.51993E-18-8.12867E-19
 -1      3461 1.21092E-04-5.06588E-05-3.00569E-05 5.98728E-06 1.28922E-18 6.40291E-19
 -1      3462 1.24041E-04-5.03498E-05-3.15574E-05 1.94306E-06 1.27989E-18 9.59900E-19
 -1      3463 1.04252E-04-4.37009E-05-2.57248E-05 2.04527E-05-2.52146E-18 1.17473E-19
 -1      3464 9.27946E-05-2.00851E-05-3.11477E-05 6.34561E-07-1.30725E-18-2.18282E-18
 -1      3465 1.16356E-04-4.76664E-05-2.94485E-05-5.68311E-06 5.85776E-20-2.76106E-18
 -1      3466 1.13003E-04-4.54741E-05-2.87871E-05-8.08682E-06 6.17563E-19-2.71521E-18
 -1      3467 1.08686E-04-4.25372E-05-2.83524E-05-9.42076E-06 7.01426E-19-2.13217E-18
 -1      3468 1.05602E-04-3.98432E-05-2.80788E-05-1.05247E-05 8.21089E-19-2.22060E-18
 -1      3469 1.08830E-04-4.44663E-05-2.77140E-05-1.25211E-05 8.63856E-19-1.95257E-18
 -1      3470 1.02611E-04-3.71717E-05-2.80296E-05-1.05899E-05 5.16184E-19-2.06068E-18
 -1      3471 1.00272E-04-3.48277E-05-2.79883E-05-1.08348E-05-1.41686E-19-1.74103E-18
 -1      3472 1.01668E-04-3.81703E-05-2.73226E-05-1.31656E-05 7.00115E-19-1.42397E-18
 -1      3473 9.84441E-05-3.28285E-05-2.80970E-05-1.03078E-05-6.28996E-19-1.92352E-18
 -1      3474 9.68643E-05-3.11053E-05-2.81531E-05-1.00984E-05-1.00632E-18-1.96795E-18
 -1      3475 9.69968E-05-3.30972E-05-2.74575E-05-1.21740E-05-5.53290E-19-1.79360E-18
 -1      3476 9.58693E-05-2.97735E-05-2.83042E-05-9.38090E-06-9.25087E-19-1.39254E-18
 -1      3477 9.48961E-05-2.86363E-05-2.83852E-05-8.95922E-06-4.19511E-19-9.53075E-19
 -1      3478 9.42973E-05-2.95948E-05-2.77716E-05-1.06284E-05-6.56627E-19-1.45478E-18
 -1      3479 9.44432E-05-2.78389E-05-2.85265E-05-8.22850E-06-5.47982E-20-8.97733E-19
 -1      3480 9.38966E-05-2.71618E-05-2.85983E-05-7.72502E-06 1.03670E-18-1.28312E-19
 -1      3481 9.29353E-05-2.74121E-05-2.81033E-05-9.02107E-06-9.55476E-21 8.68337E-19
 -1      3482 9.37729E-05-2.67508E-05-2.87101E-05-7.04717E-06 1.62297E-18-2.45734E-19
 -1      3483 9.35031E-05-2.64027E-05-2.87601E-05-6.52920E-06 1.55642E-18-6.12995E-20
 -1      3484 9.24121E-05-2.62030E-05-2.83853E-05-7.53751E-06 1.10979E-18-1.27498E-19
 -1      3485 9.35660E-05-2.62527E-05-2.88384E-05-5.92452E-06 7.94418E-19-1.79315E-19
 -1      3486 9.34639E-05-2.61241E-05-2.88652E-05-5.42771E-06 5.60302E-19-3.28363E-20
 -1      3487 9.23821E-05-2.56630E-05-2.85970E-05-6.22605E-06 1.25529E-18-3.95111E-19
 -1      3488 9.36208E-05-2.61383E-05-2.89134E-05-4.89963E-06 8.58649E-19-1.95233E-19
 -1      3489 9.36130E-05-2.61462E-05-2.89205E-05-4.44300E-06 8.96586E-19 4.13208E-19
 -1      3490 9.26184E-05-2.55575E-05-2.87398E-05-5.08861E-06 8.42749E-19-8.55729E-19
 -1      3491 9.38063E-05-2.62546E-05-2.89447E-05-3.98868E-06 2.98259E-19 5.64982E-19
 -1      3492 9.38458E-05-2.63400E-05-2.89373E-05-3.58181E-06 1.54879E-19 4.25643E-19
 -1      3493 9.29763E-05-2.57137E-05-2.88245E-05-4.11289E-06 9.79720E-19-3.26342E-19
 -1      3494 9.40419E-05-2.64948E-05-2.89439E-05-3.19629E-06 4.78728E-20 4.13580E-19
 -1      3495 9.41007E-05-2.66180E-05-2.89270E-05-2.84296E-06 3.97507E-19 3.34847E-19
 -1      3496 9.33686E-05-2.60111E-05-2.88645E-05-3.28389E-06 1.67357E-19 4.76151E-19
 -1      3497 9.42813E-05-2.67881E-05-2.89216E-05-2.52045E-06-2.16974E-19 7.07856E-20
 -1      3498 9.43435E-05-2.69233E-05-2.88995E-05-2.22052E-06-1.04341E-18-5.47830E-19
 -1      3499 9.37457E-05-2.63691E-05-2.88727E-05-2.58718E-06-1.95312E-19-2.33394E-19
 -1      3500 9.45001E-05-2.70896E-05-2.88868E-05-1.95469E-06-4.81910E-19-3.33691E-19
 -1      3501 9.45573E-05-2.72215E-05-2.88626E-05-1.70535E-06-3.55526E-19 2.62894E-19
 -1      3502 9.40822E-05-2.67365E-05-2.88598E-05-2.00890E-06-3.16368E-19-8.73532E-19
 -1      3503 9.46875E-05-2.73733E-05-2.88461E-05-1.48956E-06-1.24468E-18 1.13299E-18
 -1      3504 9.47362E-05-2.74934E-05-2.88220E-05-1.28626E-06-1.22014E-18 9.73415E-19
 -1      3505 9.43677E-05-2.70826E-05-2.88342E-05-1.53548E-06-4.52786E-19 3.94748E-20
 -1      3506 9.48406E-05-2.76255E-05-2.88041E-05-1.11381E-06-9.48253E-19 8.64342E-19
 -1      3507 9.48799E-05-2.77298E-05-2.87816E-05-9.51086E-07-3.53983E-19 1.23998E-18
 -1      3508 9.46009E-05-2.73914E-05-2.88023E-05-1.15347E-06-9.53527E-19 9.98612E-19
 -1      3509 9.49612E-05-2.78409E-05-2.87639E-05-8.15421E-07-2.74387E-19 1.97758E-18
 -1      3510 9.49915E-05-2.79283E-05-2.87437E-05-6.87494E-07-2.22899E-19 2.20768E-18
 -1      3511 9.47855E-05-2.76561E-05-2.87683E-05-8.49824E-07 2.02245E-19 1.66220E-18
 -1      3512 9.50530E-05-2.80190E-05-2.87273E-05-5.82475E-07-1.95309E-19 2.34049E-18
 -1      3513 9.50756E-05-2.80903E-05-2.87098E-05-4.83670E-07 5.75740E-19 1.49752E-18
 -1      3514 9.49274E-05-2.78761E-05-2.87353E-05-6.12168E-07-2.64802E-19 2.10909E-18
 -1      3515 9.51209E-05-2.81626E-05-2.86951E-05-4.03718E-07 9.95816E-19 6.33469E-19
 -1      3516 9.51370E-05-2.82192E-05-2.86804E-05-3.28769E-07 1.42343E-18 6.16882E-19
 -1      3517 9.50335E-05-2.80540E-05-2.87048E-05-4.29097E-07 6.37310E-19 1.38696E-18
 -1      3518 9.51692E-05-2.82756E-05-2.86677E-05-2.68963E-07 1.50371E-18 4.56072E-19
 -1      3519 9.51802E-05-2.83196E-05-2.86556E-05-2.13183E-07 1.76574E-18 4.90886E-19
 -1      3520 9.51106E-05-2.81948E-05-2.86777E-05-2.90407E-07 1.59235E-18 3.66171E-19
 -1      3521 9.52024E-05-2.83626E-05-2.86448E-05-1.69302E-07 1.13069E-18-7.53686E-20
 -1      3522 9.52095E-05-2.83963E-05-2.86350E-05-1.28652E-07 1.15833E-18 5.22641E-19
 -1      3523 9.51647E-05-2.83038E-05-2.86544E-05-1.87208E-07 7.84247E-19 2.35077E-19
 -1      3524 9.52240E-05-2.84284E-05-2.86261E-05-9.71582E-08 1.04006E-18-9.18015E-19
 -1      3525 9.52282E-05-2.84537E-05-2.86182E-05-6.82655E-08-2.49312E-19-1.71705E-18
 -1      3526 9.52012E-05-2.83865E-05-2.86347E-05-1.11944E-07 4.66901E-19-1.40873E-18
 -1      3527 9.52371E-05-2.84774E-05-2.86109E-05-4.63000E-08-5.48783E-19-1.48269E-18
 -1      3528 9.52393E-05-2.84962E-05-2.86046E-05-2.64655E-08-5.82276E-19-1.69696E-18
 -1      3529 9.52246E-05-2.84483E-05-2.86183E-05-5.83242E-08-9.62306E-21-2.40497E-18
 -1      3530 9.52443E-05-2.85137E-05-2.85986E-05-1.16051E-08-2.89546E-19-8.34374E-19
 -1      3531 9.52454E-05-2.85275E-05-2.85935E-05 1.09315E-09 1.47285E-19-3.58024E-19
 -1      3532 9.52383E-05-2.84937E-05-2.86048E-05-2.13236E-08-2.07112E-19-8.59908E-19
 -1      3533 9.48089E-05-3.12300E-05-2.72152E-05-1.66219E-05-6.75155E-19-7.01734E-19
 -1      3534 9.28993E-05-2.87322E-05-2.74860E-05-1.56945E-05-5.94097E-19-7.70709E-19
 -1      3535 1.28026E-04-5.00872E-05-3.32357E-05-1.75283E-06 1.11186E-18 1.28143E-18
 -1      3536 9.15074E-05-2.45814E-05-2.86986E-05 9.12494E-06-7.04361E-19 3.61458E-19
 -1      3537 9.15920E-05-2.48593E-05-2.85788E-05 9.93060E-06-9.05073E-19 6.20571E-19
 -1      3538 9.33534E-05-3.01176E-05-2.70723E-05 1.56495E-05-1.21330E-18 1.31554E-18
 -1      3539 9.56704E-05-3.28581E-05-2.68262E-05 1.64971E-05-1.71042E-18 8.93439E-19
 -1      3540 9.15820E-05-2.67798E-05-2.77752E-05 1.31288E-05-1.49064E-18 1.30672E-18
 -1      3541 9.27104E-05-2.83430E-05-2.75288E-05 1.40584E-05-1.27677E-18 1.34566E-18
 -1      3542 8.87718E-05-2.73183E-05-2.63744E-05 1.55689E-05-1.06658E-18 6.60248E-19
 -1      3543 9.20684E-05-2.46092E-05-2.89263E-05 7.56102E-06-1.18249E-19 9.02299E-19
 -1      3544 9.19921E-05-2.46117E-05-2.88645E-05 8.28759E-06-4.93249E-19 7.23604E-19
 -1      3545 8.98492E-05-2.35431E-05-2.84064E-05 8.37935E-06-9.15105E-19 3.90354E-19
 -1      3546 9.26834E-05-2.49483E-05-2.90430E-05 6.21127E-06-8.75008E-19 5.82798E-19
 -1      3547 9.25513E-05-2.48086E-05-2.90238E-05 6.85898E-06-3.39054E-19 6.22907E-19
 -1      3548 9.08278E-05-2.38369E-05-2.86987E-05 6.89115E-06-3.28563E-19 4.02795E-19
 -1      3549 9.32518E-05-2.54203E-05-2.90824E-05 5.04540E-06 2.54112E-19 1.49056E-19
 -1      3550 9.31155E-05-2.52198E-05-2.90916E-05 5.61499E-06-3.77193E-19 4.40000E-19
 -1      3551 9.17418E-05-2.43616E-05-2.88667E-05 5.64179E-06-3.28673E-19-3.53082E-19
 -1      3552 9.37353E-05-2.59233E-05-2.90722E-05 4.04490E-06-7.81798E-20-4.07027E-19
 -1      3553 9.36166E-05-2.57080E-05-2.90982E-05 4.53741E-06 3.78260E-19 2.92841E-19
 -1      3554 9.25333E-05-2.49681E-05-2.89477E-05 4.57734E-06-5.24261E-20 2.70203E-19
 -1      3555 9.41267E-05-2.64023E-05-2.90330E-05 3.19668E-06 5.46252E-19-1.03106E-18
 -1      3556 9.40317E-05-2.61967E-05-2.90673E-05 3.61494E-06 1.06059E-19-7.92937E-19
 -1      3557 9.31881E-05-2.55727E-05-2.89711E-05 3.66958E-06 5.07686E-19 2.27873E-19
 -1      3558 9.44329E-05-2.68308E-05-2.89790E-05 2.48812E-06 1.44291E-18-1.26852E-19
 -1      3559 9.43609E-05-2.66467E-05-2.90160E-05 2.83695E-06 1.02574E-18-5.81406E-19
 -1      3560 9.37130E-05-2.61308E-05-2.89585E-05 2.90155E-06 8.07458E-19-8.55875E-19
 -1      3561 9.46667E-05-2.71992E-05-2.89200E-05 1.90552E-06 9.68171E-19-2.93220E-19
 -1      3562 9.46141E-05-2.70408E-05-2.89561E-05 2.19138E-06 1.74550E-18 1.01610E-19
 -1      3563 9.41238E-05-2.66221E-05-2.89254E-05 2.25987E-06 1.33709E-18-2.76808E-19
 -1      3564 9.48416E-05-2.75070E-05-2.88619E-05 1.43413E-06 5.58857E-19-4.11189E-19
 -1      3565 9.48044E-05-2.73746E-05-2.88951E-05 1.66445E-06 4.42083E-19-1.02314E-18
 -1      3566 9.44393E-05-2.70404E-05-2.88824E-05 1.73166E-06 7.52684E-19 5.90466E-19
 -1      3567 9.49702E-05-2.77585E-05-2.88083E-05 1.05882E-06-2.40524E-20-4.57583E-19
 -1      3568 9.49445E-05-2.76503E-05-2.88375E-05 1.24135E-06 1.44190E-19-2.95693E-19
 -1      3569 9.46774E-05-2.73879E-05-2.88364E-05 1.30368E-06-9.19562E-21 4.43604E-20
 -1      3570 9.50631E-05-2.79604E-05-2.87608E-05 7.64760E-07 5.81245E-19 1.48389E-19
 -1      3571 9.50458E-05-2.78735E-05-2.87858E-05 9.07099E-07 2.23468E-19-1.95232E-19
 -1      3572 9.48543E-05-2.76707E-05-2.87917E-05 9.62471E-07-1.55583E-19 7.52542E-20
 -1      3573 9.51289E-05-2.81197E-05-2.87202E-05 5.38063E-07-4.94006E-19 1.99287E-18
 -1      3574 9.51177E-05-2.80510E-05-2.87409E-05 6.47270E-07-2.76156E-19 7.02593E-19
 -1      3575 9.49835E-05-2.78968E-05-2.87506E-05 6.94828E-07-6.04578E-19 1.29862E-18
 -1      3576 9.51745E-05-2.82434E-05-2.86862E-05 3.66185E-07 1.47684E-18 1.35174E-18
 -1      3577 9.51675E-05-2.81900E-05-2.87031E-05 4.48580E-07 1.09313E-18 2.17892E-18
 -1      3578 9.50761E-05-2.80747E-05-2.87143E-05 4.88325E-07-1.88577E-19 1.25272E-18
 -1      3579 9.52051E-05-2.83381E-05-2.86583E-05 2.38146E-07 1.17536E-18 1.62832E-18
 -1      3580 9.52010E-05-2.82972E-05-2.86719E-05 2.99211E-07 1.03574E-18 1.89751E-18
 -1      3581 9.51410E-05-2.82124E-05-2.86833E-05 3.31678E-07 8.75875E-19 1.25409E-18
 -1      3582 9.52249E-05-2.84094E-05-2.86359E-05 1.44603E-07 4.78454E-19 1.92568E-18
 -1      3583 9.52228E-05-2.83785E-05-2.86466E-05 1.88965E-07 1.45621E-18 2.42834E-18
 -1      3584 9.51851E-05-2.83174E-05-2.86574E-05 2.14974E-07 1.03151E-18 2.67070E-18
 -1      3585 9.52368E-05-2.84624E-05-2.86182E-05 7.77857E-08-4.76986E-19 1.75239E-18
 -1      3586 9.52361E-05-2.84393E-05-2.86264E-05 1.09262E-07-2.20667E-19 1.68115E-18
 -1      3587 9.52141E-05-2.83963E-05-2.86361E-05 1.29753E-07 2.02419E-19 3.38373E-18
 -1      3588 9.52435E-05-2.85013E-05-2.86041E-05 3.14145E-08-8.85728E-19 2.73749E-18
 -1      3589 9.52435E-05-2.84843E-05-2.86105E-05 5.30363E-08-6.19788E-19 2.39789E-18
 -1      3590 9.52320E-05-2.84547E-05-2.86188E-05 6.89182E-08-9.40375E-19 3.48206E-18
 -1      3591 9.52467E-05-2.85301E-05-2.85931E-05 7.23984E-10 3.42123E-19 7.39175E-19
 -1      3592 9.52470E-05-2.85174E-05-2.85980E-05 1.46512E-08-3.10490E-19 1.81130E-18
 -1      3593 9.52422E-05-2.84975E-05-2.86049E-05 2.67025E-08-3.26380E-19 2.89568E-18
 -1      3594 9.52475E-05-2.85511E-05-2.85843E-05-1.85003E-08 4.26134E-19-8.93636E-19
 -1      3595 9.52479E-05-2.85415E-05-2.85882E-05-9.97180E-09 7.09224E-19 6.30805E-20
 -1      3596 9.52471E-05-2.85284E-05-2.85937E-05-8.42368E-10 9.18760E-19 1.32931E-18
 -1      3597 9.52448E-05-2.85291E-05-2.85925E-05 2.90716E-09 1.35337E-18-1.71426E-18
 -1      3598 9.52446E-05-2.85284E-05-2.85928E-05 9.51342E-10 7.47003E-19-2.11254E-18
 -1      3599 9.52495E-05-2.85684E-05-2.85777E-05-2.57108E-08-6.50342E-19-1.50169E-19
 -1      3600 9.52476E-05-2.85692E-05-2.85764E-05-2.85909E-08-9.93602E-19 7.00682E-19
 -1      3601 9.52476E-05-2.85650E-05-2.85783E-05-2.73015E-08-1.86553E-18 4.40823E-19
 -1      3602 9.52498E-05-2.85588E-05-2.85818E-05-2.10679E-08-1.78840E-18 9.93839E-19
 -1      3603 1.24910E-04-3.71548E-05-3.76826E-05-1.19606E-05-8.09922E-19 1.79897E-18
 -1      3604 8.13797E-05-3.50681E-05-1.96989E-05-3.03076E-05 3.15816E-18 0.00000E+00
 -1      3605 9.24125E-05-4.26368E-05-2.11549E-05-3.12858E-05 3.27881E-18-4.53401E-19
 -1      3606 9.12076E-05-2.51515E-05-2.83238E-05 1.09570E-05-1.23080E-18 1.12773E-18
 -1      3607 9.16492E-05-2.59172E-05-2.81357E-05 1.18412E-05-1.06163E-18 1.45697E-18
 -1      3608 8.83959E-05-2.47740E-05-2.72758E-05 1.25320E-05-1.51241E-18 7.10032E-19
 -1      3609 8.89419E-05-2.37212E-05-2.79466E-05 1.02023E-05-4.94600E-19 1.30449E-19
 -1      3610 9.70291E-05-3.55033E-05-2.62653E-05 1.83017E-05-2.02459E-18 1.08856E-18
 -1      3611 1.01067E-04-3.96013E-05-2.61892E-05 1.86354E-05-2.05779E-18 9.98113E-19
 -1      3612 9.41134E-05-3.83566E-05-2.39827E-05 2.37438E-05-2.80873E-18 2.19625E-18
 -1      3613 9.04783E-05-3.17915E-05-2.52474E-05 1.93513E-05-1.95085E-18 2.30299E-18
 -1      3614 9.28209E-05-2.34726E-05-2.97171E-05-7.54828E-06 9.99021E-19-1.12135E-18
 -1      3615 9.29144E-05-2.30901E-05-2.99278E-05-6.39790E-06 1.15556E-18-1.31753E-18
 -1      3616 1.34130E-04-4.70070E-05-3.73286E-05 5.62396E-06 4.12187E-19-5.31672E-18
 -1      3617 1.35945E-04-4.30234E-05-4.01546E-05 8.19894E-06-6.86785E-19-4.92105E-18
 -1      3618 8.73602E-05-1.38248E-05-3.15338E-05 3.95102E-07-6.13920E-20-3.00976E-18
 -1      3619 8.78446E-05-1.42644E-05-3.15449E-05 1.70371E-07-4.30984E-19-2.93690E-18
 -1      3620 8.86873E-05-1.57787E-05-3.12259E-05 7.13936E-07-5.19359E-19-2.74321E-18
 -1      3621 9.32311E-05-2.12481E-05-3.08542E-05 1.64414E-06-1.17640E-18-2.02553E-18
 -1      3622 9.35502E-05-2.22615E-05-3.05523E-05 2.93589E-06-1.01215E-18-1.88640E-18
 -1      3623 9.25900E-05-2.16864E-05-3.03905E-05 3.44546E-06-8.06023E-19-1.93782E-18
 -1      3624 9.18531E-05-1.96285E-05-3.09541E-05 1.47379E-06-1.04748E-18-2.33296E-18
 -1      3625 6.44721E-05-2.33423E-05-1.75096E-05 2.42720E-05-2.26380E-18 2.95165E-18
 -1      3626 5.51083E-05-1.67527E-05-1.61850E-05 1.61602E-05-1.13989E-18 3.45028E-18
 -1      3627 5.66517E-05-1.41980E-05-1.81052E-05-4.62950E-06-6.73729E-19-3.54785E-18
 -1      3628 5.90946E-05-1.66131E-05-1.80675E-05-1.41343E-05-1.30663E-18-2.83809E-18
 -1      3629 6.61490E-05-2.08425E-05-1.91677E-05-1.97915E-05-1.60145E-18-2.41193E-18
 -1      3630 7.66117E-05-2.78308E-05-2.10094E-05-2.44311E-05-1.66830E-18-1.81797E-18
 -1      3631 6.86301E-05-1.95718E-05-2.07853E-05-1.54546E-05-8.96194E-19-2.27608E-18
 -1      3632 1.25734E-04-4.97430E-05-3.26008E-05 1.33330E-06 5.60392E-19-3.21956E-18
 -1      3633 1.23249E-04-5.10263E-05-3.09613E-05-2.95131E-06 4.10265E-19-3.31643E-18
 -1      3634 1.17659E-04-5.14286E-05-2.84557E-05 1.27837E-05 1.75734E-18-2.78277E-19
 -1      3635 1.25631E-04-4.33530E-05-3.56721E-05-8.84469E-06 3.83574E-19 1.65963E-18
 -1      3636 9.24829E-05-2.02770E-05-3.09534E-05-1.57687E-06 1.56706E-18-1.95558E-18
 -1      3637 9.12295E-05-1.90113E-05-3.09625E-05-1.43463E-06 1.40752E-18-1.94994E-18
 -1      3638 1.12783E-04-1.59585E-05-4.21232E-05 6.22619E-06-3.61244E-18-1.91950E-18
 -1      3639 9.52462E-05-2.85336E-05-2.85911E-05 6.21112E-09 1.23113E-18 2.54436E-18
 -1      3640 9.52456E-05-2.85316E-05-2.85919E-05 4.01483E-09 2.00477E-18-1.12929E-19
 -1      3641 9.52420E-05-2.85147E-05-2.85971E-05 1.31356E-09 1.90668E-18 1.47067E-19
 -1      3642 7.46591E-05-2.69422E-05-2.02237E-05 2.33621E-05-2.45955E-18 2.14363E-18
 -1      3643 7.07757E-05-2.58009E-05-1.91480E-05-2.48389E-05 2.36378E-18 6.06740E-19
 -1      3644 7.58913E-05-3.03096E-05-1.92177E-05-2.85668E-05 2.76575E-18-2.02732E-19
 -1      3645 8.51295E-05-3.47349E-05-2.14464E-05-2.69309E-05 2.93576E-18-1.28061E-19
 -1      3646 1.07690E-04-4.53011E-05-2.66073E-05-1.95316E-05-1.48923E-18 4.32132E-19
 -1      3647 9.24038E-05-2.37590E-05-2.94257E-05-8.65546E-06 7.92334E-19-1.06862E-18
 -1      3648 9.10266E-05-2.24508E-05-2.93751E-05-7.69038E-06 9.08793E-19-1.09145E-18
 -1      3649 9.23926E-05-2.41968E-05-2.92121E-05-9.69844E-06 6.30088E-19-9.66416E-19
 -1      3650 1.19976E-04-5.17797E-05-2.93128E-05-9.71545E-06 5.33601E-19-3.83300E-18
 -1      3651 8.92717E-05-2.62645E-05-2.69555E-05-1.53436E-05-5.73660E-19-7.16363E-19
 -1      3652 9.27822E-05-2.73982E-05-2.79656E-05-1.40925E-05-3.95284E-19-9.82313E-19
 -1      3653 9.19275E-05-2.60860E-05-2.82441E-05-1.31624E-05-2.89843E-19-9.39134E-19
 -1      3654 9.76457E-05-3.61053E-05-2.63029E-05-1.94053E-05-1.10982E-18-4.67610E-19
 -1      3655 9.15208E-05-3.24234E-05-2.53923E-05-2.03980E-05-1.14695E-18-5.52649E-19
 -1      3656 9.52471E-05-2.85383E-05-2.85893E-05 8.95654E-09-2.54647E-19-7.83115E-19
 -1      3657 9.52472E-05-2.85480E-05-2.85855E-05 1.63245E-08-8.52757E-19-1.23306E-18
 -1      3658 9.52479E-05-2.85469E-05-2.85862E-05 1.51053E-08-9.97364E-19-1.19312E-18
 -1      3659 9.52453E-05-2.85253E-05-2.85943E-05 1.06688E-09-2.13251E-19-3.38224E-19
 -1      3660 9.17365E-05-2.17531E-05-2.99810E-05-5.43747E-06 1.11260E-18-1.65414E-18
 -1      3661 9.32032E-05-2.27198E-05-3.02106E-05-5.22684E-06 1.34565E-18-1.49615E-18
 -1      3662 9.44001E-05-2.63587E-05-2.91754E-05-1.16628E-05 1.74372E-19-1.03221E-18
 -1      3663 9.52410E-05-2.85122E-05-2.85978E-05 5.11308E-10 2.25499E-19-1.96121E-18
 -1      3664 9.52447E-05-2.85284E-05-2.85928E-05 2.43316E-10 8.61586E-19-1.86780E-18
 -1      3665 9.52452E-05-2.85294E-05-2.85926E-05-1.71936E-09 4.98409E-19-1.67609E-18
 -1      3666 9.52475E-05-2.85603E-05-2.85801E-05-2.45387E-08-7.71933E-19 2.00816E-20
 -1      3667 6.20558E-05-1.68977E-05-1.91377E-05 1.25647E-05-1.40771E-18 2.47450E-18
 -1      3668 5.43779E-05-1.43041E-05-1.68340E-05 9.89975E-06-7.05625E-19 3.01448E-18
 -1      3669 5.58870E-05-1.35559E-05-1.80770E-05 2.81892E-06-2.70918E-20 2.94114E-18
 -1      3670 9.52490E-05-2.85523E-05-2.85843E-05-1.82024E-08-7.35199E-19 5.37089E-19
 -1      3671 1.01034E-04-4.00674E-05-2.60892E-05-2.03250E-05-1.19711E-18-1.51334E-19
 -1      3672 6.79882E-05-2.27430E-05-1.90561E-05 2.21985E-05 1.18833E-18-2.58538E-18
 -1      3673 6.68634E-05-1.99041E-05-2.00012E-05 1.65508E-05 7.02534E-19-2.67677E-18
 -1      3674 8.61460E-05-3.66726E-05-2.10380E-05 2.89417E-05 2.00869E-18-1.98550E-18
 -1      3675 6.15565E-05-1.52289E-05-1.98947E-05 5.45251E-06 2.98162E-19-2.95940E-18
 -1      3676 5.83698E-05-1.38846E-05-1.87752E-05 4.94973E-07-3.19738E-19-3.36862E-18
 -1      3677 6.28793E-05-1.50663E-05-2.03817E-05-4.52283E-06-4.33065E-19-2.93960E-18
 -1      3678 9.41390E-05-2.22823E-05-3.08040E-05-2.37422E-06 1.61073E-18-1.56052E-18
 -1      3679 9.31951E-05-2.10596E-05-3.09154E-05-1.90800E-06 1.61797E-18-1.71177E-18
 -1      3680 9.26643E-05-2.11298E-05-3.06409E-05-2.97848E-06 1.40340E-18-1.79259E-18
 -1      3681 9.40575E-05-2.27144E-05-3.05780E-05-3.65441E-06 1.37924E-18-1.53937E-18
 -1      3682 9.33992E-05-2.24241E-05-3.04199E-05-4.12763E-06 1.35664E-18-1.60080E-18
 -1      3683 8.76386E-05-1.47802E-05-3.12020E-05 6.24387E-07-4.08812E-20-2.78822E-18
 -1      3684 9.87869E-05-4.57152E-05-2.25645E-05-2.87343E-05 3.10379E-18-1.37203E-18
 -1      3685 1.05910E-04-4.90648E-05-2.43642E-05-2.54970E-05 2.65937E-18-2.72718E-18
 -1      3686 9.75537E-05-4.26875E-05-2.32855E-05-2.59222E-05 2.53586E-18-1.06007E-18
 -1      3687 1.18758E-04-2.71569E-05-3.94291E-05-1.26305E-05-2.53615E-18 2.11051E-18
 -1      3688 1.14760E-04-5.10332E-05-2.73104E-05 1.66337E-05 2.12182E-18-6.43408E-19
 -1      3689 1.09683E-04-4.99484E-05-2.53588E-05 2.30177E-05 2.45096E-18-1.00450E-18
 -1      3690 9.52486E-05-2.85393E-05-2.85899E-05-7.78544E-09 3.83690E-19 1.71235E-19
 -1      3691 9.52489E-05-2.85420E-05-2.85886E-05-1.07514E-08-3.46004E-19 1.06319E-18
 -1      3692 1.30365E-04-3.70746E-05-4.02354E-05 1.21731E-05-8.58150E-19-4.77711E-18
 -1      3693 7.38846E-05-2.68873E-05-2.01597E-05 2.46745E-05 1.43186E-18-2.07041E-18
 -1      3694 1.02330E-04-4.49324E-05-2.46048E-05 2.39715E-05 2.21070E-18-1.31568E-18
 -1      3695 9.07653E-05-1.86065E-05-3.09353E-05 1.41796E-06-9.06686E-19-2.60973E-18
 -1      3696 9.12105E-05-1.96852E-05-3.06390E-05 2.37678E-06-7.90011E-19-2.43667E-18
 -1      3697 8.97798E-05-1.76373E-05-3.09262E-05 1.46260E-06-6.89230E-19-2.64625E-18
 -1      3698 5.39297E-05-1.50195E-05-1.62282E-05-1.35599E-05 1.30059E-18 3.42890E-18
 -1      3699 5.99284E-05-1.81366E-05-1.78327E-05-1.73741E-05 1.31585E-18 2.79074E-18
 -1      3700 5.49045E-05-1.39895E-05-1.74182E-05-7.57911E-06 4.59357E-19 2.63740E-18
 -1      3701 8.95820E-05-1.66036E-05-3.12492E-05-2.08221E-07 1.37819E-18-2.36559E-18
 -1      3702 8.49912E-05-3.11208E-05-2.29336E-05-2.28652E-05-1.50537E-18-1.30820E-18
 -1      3703 9.52485E-05-2.85462E-05-2.85868E-05 1.38581E-08-4.99982E-19 7.70946E-20
 -1      3704 8.74522E-05-1.54853E-05-3.08598E-05 2.17042E-07 5.86077E-19-2.46923E-18
 -1      3705 8.73587E-05-1.53903E-05-3.08548E-05 4.21191E-07 3.05540E-19-2.59554E-18
 -1      3706 9.52498E-05-2.85488E-05-2.85862E-05-1.46055E-08-5.85291E-19 1.41030E-19
 -1      3707 1.12795E-04-5.28452E-05-2.56498E-05-2.25432E-05 2.32916E-18-3.38756E-18
 -1      3708 1.19132E-04-5.57172E-05-2.72045E-05-1.94882E-05 1.87792E-18-3.63626E-18
 -1      3709 1.22672E-04-5.53344E-05-2.89276E-05-1.33961E-05 1.39305E-18-4.37583E-18
 -1      3710 1.09452E-04-4.94492E-05-2.56132E-05-2.12716E-05 2.19920E-18-2.47080E-18
 -1      3711 9.52466E-05-2.85331E-05-2.85914E-05 7.64831E-09 8.83019E-20-8.04025E-19
 -1      3712 9.52481E-05-2.85427E-05-2.85881E-05 1.19497E-08 4.16664E-19 7.27777E-19
 -1      3713 9.52480E-05-2.85398E-05-2.85894E-05 8.80300E-09 7.09859E-19 2.27350E-18
 -1      3714 9.52449E-05-2.85218E-05-2.85957E-05-3.27117E-10 4.65039E-19-1.13649E-19
 -1      3715 8.83320E-05-1.62850E-05-3.08924E-05-4.69351E-07 9.84735E-19-2.55186E-18
 -1      3716 8.77747E-05-1.57621E-05-3.08757E-05-2.58794E-07 8.18025E-19-2.59622E-18
 -1      3717 8.76997E-05-1.63977E-05-3.05304E-05-2.64988E-07 6.12194E-19-2.26387E-18
 -1      3718 1.11206E-04-4.78774E-05-2.72005E-05 1.60180E-05 1.70100E-18-8.66356E-19
 -1      3719 9.52478E-05-2.85347E-05-2.85914E-05-7.89301E-09 1.11717E-18 1.37036E-18
 -1      3720 8.75271E-05-1.55595E-05-3.08594E-05 8.49756E-07 1.46809E-19-2.64905E-18
 -1      3721 8.78857E-05-1.58826E-05-3.08692E-05 9.85862E-07-1.39307E-19-2.61155E-18
 -1      3722 8.75647E-05-1.62954E-05-3.05187E-05 7.59747E-07 2.21597E-19-2.39381E-18
 -1      3723 8.90556E-05-3.41740E-05-2.33527E-05 2.31755E-05-3.27579E-18 2.72631E-18
 -1      3724 9.52463E-05-2.85320E-05-2.85920E-05-2.86272E-09 8.97777E-20-8.67687E-19
 -1      3725 9.52472E-05-2.85344E-05-2.85912E-05-5.23337E-09 3.26063E-20-2.81853E-19
 -1      3726 9.52462E-05-2.85233E-05-2.85951E-05-2.25049E-09 4.99775E-20 1.46626E-19
 -1      3727 9.52426E-05-2.85150E-05-2.85971E-05-1.57605E-10-5.22334E-19-1.06824E-18
 -1      3728 1.14511E-04-1.52770E-05-4.29042E-05-5.79260E-06-4.62056E-18 8.83588E-19
 -1      3729 9.18235E-05-2.35725E-05-2.92549E-05 6.79005E-06-3.88356E-19-1.46943E-18
 -1      3730 9.20245E-05-2.44228E-05-2.89600E-05 7.78826E-06-2.37966E-19-1.26513E-18
 -1      3731 9.19544E-05-2.52353E-05-2.85972E-05 8.91082E-06-2.62484E-19-1.28744E-18
 -1      3732 9.24232E-05-2.63174E-05-2.83041E-05 9.91122E-06-9.94619E-20-1.27402E-18
 -1      3733 9.03837E-05-2.37117E-05-2.85768E-05 8.17454E-06-2.66591E-19-1.06236E-18
 -1      3734 9.25808E-05-2.74299E-05-2.79184E-05 1.11841E-05 2.83487E-19-1.22822E-18
 -1      3735 9.35695E-05-2.89822E-05-2.76365E-05 1.21824E-05 5.14853E-19-1.31001E-18
 -1      3736 9.04008E-05-2.55926E-05-2.77899E-05 1.06295E-05 9.10401E-20-1.18134E-18
 -1      3737 9.42638E-05-3.06602E-05-2.72388E-05 1.36469E-05 5.26585E-19-1.11538E-18
 -1      3738 9.60943E-05-3.29366E-05-2.70116E-05 1.45528E-05 6.80211E-19-1.40973E-18
 -1      3739 9.11017E-05-2.83084E-05-2.69475E-05 1.35464E-05 4.58937E-19-1.00970E-18
 -1      3740 9.76995E-05-3.53050E-05-2.66544E-05 1.60279E-05 1.20229E-18-1.48015E-18
 -1      3741 1.00523E-04-3.86007E-05-2.65445E-05 1.67524E-05 1.50835E-18-1.41170E-18
 -1      3742 9.33336E-05-3.26184E-05-2.61053E-05 1.69373E-05 7.98256E-19-1.14873E-18
 -1      3743 1.07124E-04-4.42297E-05-2.68303E-05 1.67299E-05 1.69147E-18-1.11590E-18
 -1      3744 9.97107E-05-3.79325E-05-2.64148E-05-1.57481E-05 1.11397E-18-9.10575E-19
 -1      3745 9.66969E-05-3.48280E-05-2.64460E-05-1.52120E-05 4.90267E-19-1.06935E-18
 -1      3746 9.49758E-05-3.24463E-05-2.67427E-05-1.37287E-05-2.92243E-19-1.07382E-18
 -1      3747 9.31335E-05-3.03000E-05-2.69097E-05-1.28633E-05-7.08515E-19-8.37162E-19
 -1      3748 9.21157E-05-3.20279E-05-2.58281E-05-1.61340E-05 3.11883E-19-6.86616E-19
 -1      3749 9.24240E-05-2.88022E-05-2.72230E-05-1.14723E-05-7.78555E-20-1.61295E-19
 -1      3750 9.14277E-05-2.74577E-05-2.74163E-05-1.05814E-05 3.27920E-19 4.02620E-19
 -1      3751 8.98880E-05-2.80855E-05-2.65255E-05-1.28709E-05 3.41665E-19 9.30638E-19
 -1      3752 9.12870E-05-2.66090E-05-2.76890E-05-9.42774E-06 1.03076E-19 4.96313E-19
 -1      3753 9.08387E-05-2.58467E-05-2.78617E-05-8.61967E-06 4.46654E-19 1.04400E-18
 -1      3754 8.91679E-05-2.58199E-05-2.71648E-05-1.01727E-05 2.79774E-19 1.09665E-18
 -1      3755 9.10008E-05-2.54392E-05-2.80779E-05-7.69230E-06 4.39406E-19 7.80827E-19
 -1      3756 9.08821E-05-2.50752E-05-2.82134E-05-6.98867E-06 9.83910E-19 5.17681E-19
 -1      3757 8.92589E-05-2.46624E-05-2.76882E-05-8.04141E-06 3.64746E-19 8.29551E-19
 -1      3758 9.11964E-05-2.49612E-05-2.83735E-05-6.24500E-06 1.26447E-18-2.16586E-19
 -1      3759 9.12634E-05-2.48586E-05-2.84698E-05-5.64195E-06 1.03991E-18-4.38520E-19
 -1      3760 8.97709E-05-2.42271E-05-2.80879E-05-6.36739E-06 5.31056E-19-1.85782E-20
 -1      3761 9.16372E-05-2.49276E-05-2.85812E-05-5.04358E-06 8.67342E-19-5.92179E-19
 -1      3762 9.17971E-05-2.49860E-05-2.86433E-05-4.52980E-06 1.36658E-18-1.93454E-19
 -1      3763 9.04763E-05-2.42538E-05-2.83758E-05-5.04553E-06 1.03032E-18-1.52429E-20
 -1      3764 9.21760E-05-2.51596E-05-2.87155E-05-4.04526E-06 1.53289E-18-1.77103E-19
 -1      3765 9.23716E-05-2.53084E-05-2.87503E-05-3.60952E-06 1.03257E-18 4.48029E-19
 -1      3766 9.12358E-05-2.45548E-05-2.85714E-05-3.99161E-06 1.40110E-18 2.71116E-19
 -1      3767 9.27255E-05-2.55329E-05-2.87928E-05-3.21558E-06 2.18542E-19 9.26075E-19
 -1      3768 9.29234E-05-2.57244E-05-2.88074E-05-2.84858E-06 3.95832E-19 1.21512E-18
 -1      3769 9.19699E-05-2.50008E-05-2.86948E-05-3.14321E-06 9.28271E-19 1.00718E-18
 -1      3770 9.32370E-05-2.59642E-05-2.88283E-05-2.52847E-06-3.92129E-19 4.06731E-19
 -1      3771 9.34191E-05-2.61673E-05-2.88289E-05-2.22235E-06-1.15309E-18-3.73263E-19
 -1      3772 9.26360E-05-2.55052E-05-2.87646E-05-2.45689E-06-4.77614E-19 6.80986E-19
 -1      3773 9.36866E-05-2.63999E-05-2.88349E-05-1.96346E-06-4.74962E-19-3.49490E-19
 -1      3774 9.38444E-05-2.65956E-05-2.88265E-05-1.71112E-06 2.63826E-19-6.75404E-20
 -1      3775 9.32145E-05-2.60117E-05-2.87962E-05-1.90181E-06-5.72490E-19 1.49039E-19
 -1      3776 9.40654E-05-2.68079E-05-2.88228E-05-1.50334E-06 4.07786E-19-2.15407E-19
 -1      3777 9.41965E-05-2.69854E-05-2.88094E-05-1.29808E-06-2.38000E-19 5.47222E-19
 -1      3778 9.36999E-05-2.64859E-05-2.88018E-05-1.45483E-06 3.24668E-19-3.50596E-19
 -1      3779 9.43743E-05-2.71711E-05-2.87999E-05-1.13298E-06-8.73028E-19 7.30026E-19
 -1      3780 9.44795E-05-2.73254E-05-2.87841E-05-9.68367E-07-9.82917E-20 1.30793E-18
 -1      3781 9.40958E-05-2.69089E-05-2.87910E-05-1.09759E-06 5.23510E-19 7.35756E-19
 -1      3782 9.46191E-05-2.74825E-05-2.87716E-05-8.38696E-07 1.30456E-19 2.01741E-18
 -1      3783 9.47010E-05-2.76123E-05-2.87553E-05-7.08614E-07 6.37897E-20 2.47733E-18
 -1      3784 9.44106E-05-2.72728E-05-2.87706E-05-8.14844E-07 1.21699E-19 2.31226E-18
 -1      3785 9.48080E-05-2.77416E-05-2.87417E-05-6.08074E-07-5.79262E-19 1.36305E-18
 -1      3786 9.48701E-05-2.78479E-05-2.87261E-05-5.06842E-07-3.01662E-19 5.57704E-19
 -1      3787 9.46550E-05-2.75769E-05-2.87457E-05-5.93613E-07-5.32296E-19 1.88252E-18
 -1      3788 9.49501E-05-2.79518E-05-2.87127E-05-4.29974E-07 2.49385E-19 6.63048E-19
 -1      3789 9.49958E-05-2.80367E-05-2.86985E-05-3.52438E-07 8.59696E-19 2.61777E-19
 -1      3790 9.48403E-05-2.78246E-05-2.87194E-05-4.22711E-07-2.53622E-19 1.33837E-20
 -1      3791 9.50542E-05-2.81184E-05-2.86861E-05-2.94558E-07 1.31358E-18 2.08763E-19
 -1      3792 9.50868E-05-2.81849E-05-2.86736E-05-2.36168E-07 9.77627E-19-5.69721E-19
 -1      3793 9.49774E-05-2.80220E-05-2.86940E-05-2.92527E-07 1.01801E-18-7.55601E-19
 -1      3794 9.51281E-05-2.82478E-05-2.86624E-05-1.93314E-07 3.20128E-19-6.05593E-19
 -1      3795 9.51506E-05-2.82988E-05-2.86517E-05-1.50151E-07 2.09207E-19-1.05565E-18
 -1      3796 9.50760E-05-2.81761E-05-2.86706E-05-1.94878E-07 2.99887E-19-1.24828E-18
 -1      3797 9.51788E-05-2.83463E-05-2.86420E-05-1.19030E-07-1.17349E-19-1.57040E-18
 -1      3798 9.51935E-05-2.83847E-05-2.86330E-05-8.77901E-08 7.73183E-20-1.32174E-18
 -1      3799 9.51448E-05-2.82941E-05-2.86498E-05-1.22901E-07-3.32810E-19-1.54930E-18
 -1      3800 9.52118E-05-2.84200E-05-2.86247E-05-6.57286E-08 6.64160E-19-1.92249E-18
 -1      3801 9.52208E-05-2.84485E-05-2.86172E-05-4.36608E-08 2.27680E-19-1.73360E-18
 -1      3802 9.51910E-05-2.83828E-05-2.86317E-05-7.08985E-08 1.08653E-19-8.27950E-19
 -1      3803 9.52323E-05-2.84745E-05-2.86102E-05-2.85421E-08 2.30754E-19-1.54470E-18
 -1      3804 9.52375E-05-2.84955E-05-2.86039E-05-1.33427E-08 3.74760E-19-1.00353E-18
 -1      3805 9.52200E-05-2.84483E-05-2.86163E-05-3.42976E-08 7.06112E-19-8.62573E-19
 -1      3806 8.54619E-05-2.99388E-05-2.36791E-05 2.07523E-05-1.85744E-18 2.02378E-18
 -1      3807 8.21395E-05-2.99587E-05-2.23840E-05 2.30067E-05-2.51570E-18 1.33163E-18
 -1      3808 7.14858E-05-2.26725E-05-2.07993E-05 1.95949E-05-1.91109E-18 1.71074E-18
 -1      3809 8.43546E-05-2.73812E-05-2.44049E-05 1.84636E-05-1.31485E-18 8.80001E-19
 -1      3810 8.97137E-05-2.31914E-05-2.85286E-05 5.87438E-06-4.40192E-19-2.69183E-19
 -1      3811 8.92219E-05-2.29293E-05-2.84064E-05 6.50408E-06-5.93852E-19 1.39160E-20
 -1      3812 8.29964E-05-2.59858E-05-2.42920E-05-1.85526E-05-9.09389E-19-1.13853E-18
 -1      3813 9.22227E-05-2.53117E-05-2.86417E-05-1.18228E-05-6.54941E-20-1.00943E-18
 -1      3814 9.19589E-05-2.45963E-05-2.88822E-05-1.08455E-05 3.47817E-19-9.10275E-19
 -1      3815 8.93574E-05-2.41246E-05-2.79137E-05-1.24329E-05-1.17028E-19-8.34403E-19
 -1      3816 8.40019E-05-2.38571E-05-2.58046E-05 1.39102E-05-1.12400E-18 1.12758E-18
 -1      3817 8.45433E-05-2.54062E-05-2.52508E-05 1.56730E-05-1.13615E-18 1.38539E-18
 -1      3818 9.09045E-05-2.39009E-05-2.87310E-05 4.80755E-06-5.55385E-19-5.04271E-19
 -1      3819 9.04670E-05-2.35807E-05-2.86634E-05 5.34418E-06-7.52656E-19-1.87882E-20
 -1      3820 8.90146E-05-2.27071E-05-2.83990E-05 4.97907E-06-7.24018E-19-3.49933E-19
 -1      3821 9.18965E-05-2.46304E-05-2.88406E-05 3.90144E-06 5.92210E-20 1.32185E-19
 -1      3822 9.15281E-05-2.43006E-05-2.88103E-05 4.36267E-06-2.21892E-19 2.53427E-19
 -1      3823 9.03773E-05-2.35452E-05-2.86274E-05 4.08298E-06-1.05545E-18-2.13719E-19
 -1      3824 9.27023E-05-2.53208E-05-2.88878E-05 3.12909E-06 4.96757E-19 8.92749E-19
 -1      3825 9.24033E-05-2.50091E-05-2.88819E-05 3.52403E-06 5.91343E-19 8.78056E-19
 -1      3826 9.14951E-05-2.43632E-05-2.87591E-05 3.32182E-06 1.74946E-19 2.03917E-20
 -1      3827 9.33438E-05-2.59413E-05-2.88949E-05 2.47491E-06 8.19782E-19 7.27731E-19
 -1      3828 9.31075E-05-2.56619E-05-2.89038E-05 2.80935E-06 7.24185E-19 9.52405E-19
 -1      3829 9.23965E-05-2.51174E-05-2.88248E-05 2.67084E-06 7.68356E-19 1.73609E-18
 -1      3830 9.38460E-05-2.64797E-05-2.88778E-05 1.92746E-06 5.83322E-19 1.13906E-18
 -1      3831 9.36631E-05-2.62380E-05-2.88950E-05 2.20656E-06 7.35494E-19 3.71188E-19
 -1      3832 9.31125E-05-2.57861E-05-2.88471E-05 2.11698E-06 7.18269E-19 2.50684E-18
 -1      3833 9.42331E-05-2.69343E-05-2.88476E-05 1.47614E-06 9.85414E-19 1.27168E-18
 -1      3834 9.40941E-05-2.67308E-05-2.88684E-05 1.70532E-06 1.26588E-18 1.48852E-18
 -1      3835 9.36731E-05-2.63619E-05-2.88424E-05 1.65143E-06 6.72723E-19 2.35907E-18
 -1      3836 9.45271E-05-2.73100E-05-2.88115E-05 1.11005E-06 2.95939E-19 2.24428E-19
 -1      3837 9.44232E-05-2.71422E-05-2.88332E-05 1.29512E-06 3.01074E-19 4.79518E-19
 -1      3838 9.41062E-05-2.68459E-05-2.88218E-05 1.26616E-06 1.29270E-18 2.35064E-18
 -1      3839 9.47471E-05-2.76146E-05-2.87743E-05 8.17983E-07-7.52681E-19 5.46639E-19
 -1      3840 9.46706E-05-2.74789E-05-2.87951E-05 9.64977E-07-2.28085E-19 3.93822E-19
 -1      3841 9.44359E-05-2.72447E-05-2.87933E-05 9.52671E-07 2.20999E-19 2.75192E-19
 -1      3842 9.49090E-05-2.78574E-05-2.87389E-05 5.88867E-07-8.71357E-19 1.14512E-18
 -1      3843 9.48537E-05-2.77494E-05-2.87577E-05 7.03679E-07-8.70352E-19 3.20018E-19
 -1      3844 9.46831E-05-2.75673E-05-2.87618E-05 7.01988E-07-7.66754E-19 6.50256E-19
 -1      3845 9.50259E-05-2.80479E-05-2.87068E-05 4.12165E-07 7.85054E-19-1.81904E-19
 -1      3846 9.49868E-05-2.79633E-05-2.87233E-05 5.00338E-07 1.71049E-19 1.20050E-18
 -1      3847 9.48655E-05-2.78240E-05-2.87306E-05 5.04997E-07-1.25396E-19-5.10078E-19
 -1      3848 9.51085E-05-2.81949E-05-2.86787E-05 2.78255E-07-2.80083E-20 8.42748E-19
 -1      3849 9.50815E-05-2.81297E-05-2.86927E-05 3.44797E-07 5.84493E-20 1.61021E-19
 -1      3850 9.49975E-05-2.80249E-05-2.87015E-05 3.52902E-07 5.71974E-19 6.96546E-19
 -1      3851 9.51652E-05-2.83066E-05-2.86547E-05 1.78652E-07 5.29039E-19 2.02368E-18
 -1      3852 9.51472E-05-2.82572E-05-2.86664E-05 2.27932E-07 7.02020E-20 1.29894E-18
 -1      3853 9.50908E-05-2.81797E-05-2.86755E-05 2.37575E-07-7.07091E-19 3.81710E-19
 -1      3854 9.52027E-05-2.83902E-05-2.86347E-05 1.06097E-07-3.82082E-19 3.50171E-18
 -1      3855 9.51913E-05-2.83532E-05-2.86443E-05 1.41831E-07 8.94775E-19 3.35421E-18
 -1      3856 9.51550E-05-2.82971E-05-2.86529E-05 1.51805E-07 3.71362E-20 1.69164E-18
 -1      3857 9.52263E-05-2.84518E-05-2.86182E-05 5.43809E-08-1.33233E-18 3.26498E-18
 -1      3858 9.52195E-05-2.84244E-05-2.86260E-05 7.98328E-08-9.21370E-19 3.03168E-18
 -1      3859 9.51974E-05-2.83848E-05-2.86337E-05 8.94656E-08-9.80566E-19 3.66299E-18
 -1      3860 9.52399E-05-2.84969E-05-2.86045E-05 1.83114E-08 6.94713E-19 2.13742E-18
 -1      3861 9.52363E-05-2.84766E-05-2.86109E-05 3.64016E-08-4.65747E-19 3.34047E-18
 -1      3862 9.52239E-05-2.84496E-05-2.86176E-05 4.52764E-08-3.45625E-19 2.73722E-18
 -1      3863 9.52468E-05-2.85212E-05-2.85965E-05 2.96391E-09 1.30563E-18 1.86278E-18
 -1      3864 6.79407E-05-1.75819E-05-2.14813E-05-1.13209E-05-4.82868E-19-2.33250E-18
 -1      3865 7.34898E-05-2.14338E-05-2.24066E-05-1.67244E-05-6.59521E-19-1.81937E-18
 -1      3866 1.00971E-04-4.08621E-05-2.58129E-05 1.93523E-05 1.61446E-18-1.38331E-18
 -1      3867 8.12985E-05-2.36200E-05-2.47385E-05-1.55865E-05-5.87166E-19-1.13815E-18
 -1      3868 9.52410E-05-2.85041E-05-2.86018E-05 1.00993E-08 8.72951E-19 1.16401E-18
 -1      3869 1.31521E-04-5.00430E-05-3.50146E-05 2.60068E-06 8.22575E-19-4.76276E-18
 -1      3870 8.83519E-05-1.63129E-05-3.08869E-05 1.25572E-06-2.64145E-19-2.57730E-18
 -1      3871 8.90661E-05-1.69862E-05-3.09032E-05 1.30124E-06-5.08871E-19-2.60021E-18
 -1      3872 8.94308E-05-1.80061E-05-3.05893E-05 2.05279E-06-4.79808E-19-2.43991E-18
 -1      3873 8.82514E-05-1.69256E-05-3.05447E-05 1.54665E-06-1.75913E-19-2.40711E-18
 -1      3874 9.03704E-05-2.10028E-05-2.97357E-05-5.35350E-06 9.02174E-19-1.50412E-18
 -1      3875 9.06995E-05-2.05698E-05-3.00480E-05-4.25942E-06 9.73628E-19-1.66514E-18
 -1      3876 7.15677E-05-2.10447E-05-2.17270E-05 1.60003E-05 8.73371E-19-2.19460E-18
 -1      3877 6.60671E-05-1.71144E-05-2.06989E-05 1.15645E-05 6.16129E-19-2.66025E-18
 -1      3878 9.00907E-05-1.79307E-05-3.09374E-05-1.09271E-06 1.27671E-18-2.16129E-18
 -1      3879 8.91146E-05-1.69968E-05-3.09218E-05-9.17406E-07 1.08140E-18-2.32636E-18
 -1      3880 8.88146E-05-1.73951E-05-3.05814E-05-1.31435E-06 9.24762E-19-2.31419E-18
 -1      3881 9.07872E-05-1.92227E-05-3.06476E-05-2.24311E-06 1.22219E-18-1.91076E-18
 -1      3882 9.13993E-05-2.06204E-05-3.03400E-05 3.22353E-06-7.08603E-19-2.28936E-18
 -1      3883 9.16898E-05-2.15039E-05-3.00693E-05 4.18694E-06-7.03040E-19-2.16627E-18
 -1      3884 9.03008E-05-1.95915E-05-3.03104E-05 3.06874E-06-4.85560E-19-2.24042E-18
 -1      3885 8.83286E-05-2.26028E-05-2.81927E-05 7.15926E-06-8.41865E-19 4.11307E-20
 -1      3886 8.78289E-05-2.24866E-05-2.79941E-05 7.91961E-06-6.30568E-19-2.60151E-19
 -1      3887 8.73816E-05-2.19194E-05-2.80320E-05 6.06112E-06-4.63380E-19-6.35606E-19
 -1      3888 9.17233E-05-2.21654E-05-2.98136E-05 4.93896E-06-5.71291E-19-1.92920E-18
 -1      3889 9.18381E-05-2.29596E-05-2.95105E-05 5.98110E-06-5.36035E-19-1.64862E-18
 -1      3890 9.04809E-05-2.23009E-05-2.92160E-05 6.22914E-06-1.96226E-19-1.38242E-18
 -1      3891 9.04874E-05-2.10997E-05-2.97459E-05 4.67423E-06-3.58918E-19-2.04650E-18
 -1      3892 6.69053E-05-2.16181E-05-1.90920E-05-2.10925E-05 2.23945E-18 1.20541E-18
 -1      3893 7.48894E-05-2.61898E-05-2.07867E-05-2.25939E-05 2.32804E-18-1.63094E-19
 -1      3894 6.46220E-05-1.88923E-05-1.95388E-05-1.62460E-05 1.41341E-18 1.83594E-18
 -1      3895 1.17617E-04-2.06241E-05-4.18497E-05-1.17794E-05-3.53784E-18 1.72255E-18
 -1      3896 9.52448E-05-2.85238E-05-2.85946E-05 3.93988E-09 9.78578E-19 8.94444E-19
 -1      3897 9.01536E-05-2.31001E-05-2.87063E-05-9.96209E-06 4.17561E-19-1.01986E-18
 -1      3898 9.52362E-05-2.84983E-05-2.86021E-05-2.24308E-09 1.99103E-18 9.35947E-19
 -1      3899 9.52349E-05-2.84956E-05-2.86028E-05-2.32201E-09 1.27307E-18-1.91760E-19
 -1      3900 7.54222E-05-1.88126E-05-2.41536E-05-1.10430E-05-3.69531E-19-2.04320E-18
 -1      3901 8.30523E-05-2.30875E-05-2.57089E-05-1.36990E-05-5.72645E-19-1.07933E-18
 -1      3902 8.30667E-05-2.19211E-05-2.63031E-05-1.20044E-05-4.10799E-19-1.05310E-18
 -1      3903 1.07704E-04-4.53446E-05-2.66668E-05-1.63515E-05 1.37102E-18-1.49485E-18
 -1      3904 1.03152E-04-4.14854E-05-2.62984E-05-1.68648E-05 1.52990E-18-1.22996E-18
 -1      3905 9.68355E-05-3.80832E-05-2.52658E-05-1.94763E-05 1.55953E-18-8.91965E-19
 -1      3906 9.52396E-05-2.85045E-05-2.86007E-05-6.17920E-09 8.05376E-19-5.25240E-20
 -1      3907 7.92413E-05-2.37011E-05-2.37989E-05 1.67133E-05-1.23953E-18 1.54801E-18
 -1      3908 8.54659E-05-2.13031E-05-2.74701E-05 7.44782E-06-2.03912E-20 4.73118E-19
 -1      3909 8.68009E-05-2.23092E-05-2.76715E-05 8.76690E-06-3.48796E-19 1.34248E-19
 -1      3910 8.63867E-05-2.24671E-05-2.73732E-05 9.72720E-06-2.29316E-19 4.18582E-19
 -1      3911 8.51325E-05-2.32507E-05-2.64770E-05 1.22006E-05-8.94227E-19 1.21706E-18
 -1      3912 8.09496E-05-2.15523E-05-2.54462E-05 1.21214E-05-9.91311E-19 2.18410E-18
 -1      3913 8.52516E-05-2.25688E-05-2.69012E-05 1.09139E-05-8.17500E-19 7.18475E-19
 -1      3914 9.52342E-05-2.84937E-05-2.86032E-05 4.04434E-10 4.94070E-19-1.19509E-18
 -1      3915 9.52342E-05-2.84941E-05-2.86032E-05 6.22958E-10-4.34777E-20-1.65760E-18
 -1      3916 9.52278E-05-2.84739E-05-2.86085E-05-2.83962E-09 1.35895E-18-3.38146E-19
 -1      3917 6.71060E-05-1.61869E-05-2.17071E-05-7.68387E-06-3.96808E-19-2.62371E-18
 -1      3918 7.21904E-05-1.78713E-05-2.31924E-05-8.83872E-06-2.41835E-19-2.23744E-18
 -1      3919 6.72208E-05-1.57075E-05-2.21613E-05-2.89202E-06-5.79663E-20-2.76045E-18
 -1      3920 6.11013E-05-1.43814E-05-1.99539E-05 2.69588E-06-7.96476E-19 2.62165E-18
 -1      3921 5.71753E-05-1.33653E-05-1.84842E-05-1.88063E-06-1.28167E-19 2.50698E-18
 -1      3922 5.99341E-05-1.47337E-05-1.93549E-05-6.56585E-06-3.18584E-19 2.35660E-18
 -1      3923 9.58838E-05-3.86130E-05-2.44210E-05 2.28241E-05 1.75543E-18-1.57457E-18
 -1      3924 9.08864E-05-3.74061E-05-2.28909E-05 2.55761E-05 1.90035E-18-1.70865E-18
 -1      3925 8.10587E-05-3.12309E-05-2.10750E-05 2.63259E-05 1.69096E-18-1.79378E-18
 -1      3926 6.69642E-05-1.64254E-05-2.15778E-05 6.16701E-06 3.17889E-19-2.56796E-18
 -1      3927 9.60913E-05-4.06648E-05-2.36485E-05-2.43546E-05 2.30267E-18-9.17601E-19
 -1      3928 1.01673E-04-4.39578E-05-2.48198E-05-2.22478E-05 1.94961E-18-1.46324E-18
 -1      3929 8.92299E-05-2.15171E-05-2.90360E-05-7.38911E-06 6.79389E-19-1.15760E-18
 -1      3930 8.97101E-05-2.12335E-05-2.93656E-05-6.27652E-06 7.84264E-19-1.27791E-18
 -1      3931 8.88009E-05-2.01189E-05-2.94263E-05-5.07594E-06 6.73702E-19-1.46224E-18
 -1      3932 9.52365E-05-2.84948E-05-2.86038E-05 9.06399E-09 7.98693E-19-3.23546E-20
 -1      3933 9.52290E-05-2.84653E-05-2.86125E-05 2.51977E-08 8.11899E-19-5.53293E-19
 -1      3934 9.52341E-05-2.84894E-05-2.86052E-05 9.67894E-09 4.17685E-19-1.41043E-18
 -1      3935 8.71781E-05-1.68501E-05-3.01576E-05 6.60659E-07 3.08288E-19-2.21217E-18
 -1      3936 8.73868E-05-1.70247E-05-3.01651E-05 1.19854E-06 5.59650E-20-2.32719E-18
 -1      3937 7.74594E-05-2.42295E-05-2.25890E-05 1.84933E-05 9.42349E-19-1.79498E-18
 -1      3938 7.56221E-05-2.16605E-05-2.31242E-05 1.44096E-05 6.68150E-19-1.84795E-18
 -1      3939 7.98740E-05-2.83308E-05-2.19885E-05 2.25644E-05 1.39310E-18-1.70484E-18
 -1      3940 8.27215E-05-2.84289E-05-2.33479E-05 2.04102E-05 1.08357E-18-1.38601E-18
 -1      3941 8.96673E-05-3.62817E-05-2.28268E-05-2.50081E-05 2.49050E-18 1.06673E-19
 -1      3942 9.45360E-05-3.75231E-05-2.43241E-05-2.15128E-05 1.88901E-18-5.50098E-19
 -1      3943 9.12616E-05-3.37464E-05-2.45610E-05-1.97078E-05 1.05142E-18-8.37325E-19
 -1      3944 8.38857E-05-3.16281E-05-2.23168E-05-2.36472E-05 2.12945E-18-1.12761E-19
 -1      3945 8.72108E-05-1.68448E-05-3.01656E-05-1.82946E-07 4.10772E-19-2.12858E-18
 -1      3946 8.69838E-05-1.73759E-05-2.98053E-05 2.23313E-07 3.01997E-19-2.02452E-18
 -1      3947 8.75147E-05-1.71360E-05-3.01839E-05-7.57213E-07 6.19175E-19-2.20942E-18
 -1      3948 9.52325E-05-2.84883E-05-2.86049E-05 4.64273E-09-6.60822E-19-1.91988E-18
 -1      3949 9.52340E-05-2.84918E-05-2.86042E-05 4.67089E-09-1.84253E-19-7.32012E-19
 -1      3950 9.52229E-05-2.84571E-05-2.86135E-05 1.59544E-08 1.03928E-18-1.29254E-18
 -1      3951 9.52245E-05-2.84660E-05-2.86106E-05 5.69500E-09 9.60279E-20-1.39882E-18
 -1      3952 9.52369E-05-2.84974E-05-2.86028E-05-7.44161E-09 1.35527E-18 7.51052E-19
 -1      3953 9.52294E-05-2.84748E-05-2.86088E-05-1.29362E-08 1.19421E-18 4.96265E-19
 -1      3954 8.81481E-05-2.35498E-05-2.77096E-05 9.35587E-06-8.95253E-20-1.31689E-18
 -1      3955 8.82615E-05-2.45326E-05-2.72808E-05 1.06709E-05 2.58915E-19-1.28580E-18
 -1      3956 8.77300E-05-2.54727E-05-2.67083E-05 1.23296E-05 4.97092E-19-1.22715E-18
 -1      3957 8.83697E-05-2.70067E-05-2.62567E-05 1.39394E-05 5.72384E-19-1.13031E-18
 -1      3958 8.54522E-05-2.32982E-05-2.66198E-05 1.09488E-05 3.25756E-19-1.45615E-18
 -1      3959 1.08823E-04-4.70417E-05-2.64188E-05-1.76838E-05 1.41828E-18-1.97903E-18
 -1      3960 1.15062E-04-5.05427E-05-2.75031E-05-1.45902E-05 9.54378E-19-2.97001E-18
 -1      3961 8.83822E-05-3.03155E-05-2.48198E-05-1.74986E-05 7.16233E-19-6.62874E-19
 -1      3962 8.68618E-05-2.79659E-05-2.52386E-05-1.55457E-05 6.44143E-19 4.55371E-20
 -1      3963 7.38923E-05-2.14882E-05-2.22943E-05 1.57894E-05-1.97428E-18 1.71334E-18
 -1      3964 6.61820E-05-1.85268E-05-2.03128E-05 1.51245E-05-2.04388E-18 2.18828E-18
 -1      3965 8.70853E-05-2.66729E-05-2.58312E-05-1.33778E-05 3.47113E-19 1.20123E-19
 -1      3966 8.64127E-05-2.53287E-05-2.62056E-05-1.18407E-05 3.72097E-19 3.32578E-19
 -1      3967 8.31698E-05-2.51090E-05-2.48971E-05-1.44223E-05 7.13023E-19 1.67849E-19
 -1      3968 8.69683E-05-2.46467E-05-2.66701E-05-1.02338E-05 1.62565E-19 7.33614E-19
 -1      3969 8.68526E-05-2.39587E-05-2.69818E-05-9.04422E-06 1.02575E-19 7.37005E-19
 -1      3970 8.40584E-05-2.33166E-05-2.60226E-05-1.06037E-05 5.64003E-19-6.48240E-19
 -1      3971 8.75246E-05-2.36917E-05-2.73342E-05-7.88749E-06-1.68001E-19 5.77107E-19
 -1      3972 8.77005E-05-2.34087E-05-2.75772E-05-6.96979E-06 1.65672E-19 4.15087E-19
 -1      3973 8.53510E-05-2.26050E-05-2.68777E-05-7.87428E-06-2.75740E-19 2.46696E-19
 -1      3974 8.83936E-05-2.34115E-05-2.78359E-05-6.11221E-06 6.13611E-19 4.57724E-19
 -1      3975 8.87179E-05-2.33949E-05-2.80146E-05-5.40045E-06 9.57767E-19 5.49026E-19
 -1      3976 8.67318E-05-2.25019E-05-2.75129E-05-5.92398E-06 2.84201E-19 9.39249E-20
 -1      3977 8.93795E-05-2.35650E-05-2.81984E-05-4.76301E-06 1.18791E-18 1.06154E-18
 -1      3978 8.97595E-05-2.37076E-05-2.83232E-05-4.20412E-06 1.49197E-18 1.15370E-18
 -1      3979 8.80952E-05-2.27978E-05-2.79707E-05-4.49224E-06 1.12666E-18 1.38597E-18
 -1      3980 9.03609E-05-2.39701E-05-2.84488E-05-3.72075E-06 1.51210E-18 5.17531E-19
 -1      3981 9.07438E-05-2.42002E-05-2.85310E-05-3.27549E-06 1.86434E-18 6.98910E-19
 -1      3982 8.93566E-05-2.33175E-05-2.82900E-05-3.43440E-06 1.44411E-18 7.72125E-19
 -1      3983 9.12745E-05-2.45057E-05-2.86127E-05-2.90269E-06 1.34326E-18-1.84038E-19
 -1      3984 9.16310E-05-2.47751E-05-2.86626E-05-2.54454E-06 2.80114E-19 5.93253E-19
 -1      3985 9.04838E-05-2.39486E-05-2.85043E-05-2.63313E-06 1.44039E-18 2.71600E-19
 -1      3986 9.20872E-05-2.50894E-05-2.87120E-05-2.25428E-06-2.51153E-19 6.03276E-19
 -1      3987 9.24027E-05-2.53657E-05-2.87383E-05-1.96505E-06-1.76615E-19 5.15666E-19
 -1      3988 9.14649E-05-2.46160E-05-2.86403E-05-2.01707E-06 2.56172E-19 6.71587E-19
 -1      3989 9.27857E-05-2.56665E-05-2.87647E-05-1.73803E-06-2.06001E-19 2.98989E-19
 -1      3990 9.30545E-05-2.59293E-05-2.87746E-05-1.50469E-06-4.37511E-20 9.39513E-19
 -1      3991 9.22984E-05-2.52681E-05-2.87196E-05-1.53901E-06 6.08429E-20 6.05904E-19
 -1      3992 9.33692E-05-2.62030E-05-2.87851E-05-1.32706E-06-2.19836E-19 2.79586E-19
 -1      3993 9.35913E-05-2.64405E-05-2.87842E-05-1.13975E-06 7.59954E-20 1.33558E-19
 -1      3994 9.29907E-05-2.58719E-05-2.87589E-05-1.16632E-06-5.85942E-19 1.58255E-18
 -1      3995 9.38444E-05-2.66804E-05-2.87843E-05-1.00122E-06 6.32596E-19 1.23721E-19
 -1      3996 9.40230E-05-2.68871E-05-2.87768E-05-8.52030E-07 4.66271E-19 3.30934E-19
 -1      3997 9.35537E-05-2.64092E-05-2.87712E-05-8.75641E-07 5.25119E-19 2.65665E-19
 -1      3998 9.42226E-05-2.70910E-05-2.87705E-05-7.44623E-07 3.20345E-19 5.31558E-19
 -1      3999 9.43628E-05-2.72656E-05-2.87593E-05-6.26989E-07 3.41532E-19 8.12717E-19
 -1      4000 9.40024E-05-2.68723E-05-2.87661E-05-6.49572E-07 5.51063E-19-3.63212E-19
 -1      4001 9.45170E-05-2.74345E-05-2.87495E-05-5.44402E-07-1.02305E-18 1.42679E-19
 -1      4002 9.46245E-05-2.75781E-05-2.87368E-05-4.52718E-07-1.16534E-18-1.25480E-19
 -1      4003 9.43528E-05-2.72607E-05-2.87507E-05-4.74753E-07-4.41538E-19-1.84895E-18
 -1      4004 9.47412E-05-2.77149E-05-2.87254E-05-3.89858E-07-6.38732E-19-2.04581E-19
 -1      4005 9.48217E-05-2.78304E-05-2.87125E-05-3.19318E-07-2.16269E-19-4.13644E-19
 -1      4006 9.46209E-05-2.75790E-05-2.87299E-05-3.40643E-07-1.26533E-18-1.54978E-18
 -1      4007 9.49080E-05-2.79389E-05-2.87009E-05-2.72042E-07 5.40733E-19-6.76308E-19
 -1      4008 9.49667E-05-2.80298E-05-2.86887E-05-2.18538E-07 1.06759E-18-1.22559E-18
 -1      4009 9.48216E-05-2.78344E-05-2.87071E-05-2.38785E-07-7.92650E-20-9.48415E-19
 -1      4010 9.50289E-05-2.81141E-05-2.86776E-05-1.83470E-07 9.10268E-19-1.20732E-18
 -1      4011 9.50705E-05-2.81844E-05-2.86666E-05-1.43527E-07 4.32018E-19-6.61073E-19
 -1      4012 9.49685E-05-2.80351E-05-2.86845E-05-1.62334E-07 1.16699E-18-1.13009E-18
 -1      4013 9.51140E-05-2.82487E-05-2.86564E-05-1.17932E-07 1.73173E-19-6.48820E-19
 -1      4014 9.51424E-05-2.83021E-05-2.86467E-05-8.86346E-08-4.64817E-19-9.94089E-19
 -1      4015 9.50730E-05-2.81901E-05-2.86632E-05-1.05750E-07 1.10873E-19-1.45792E-19
 -1      4016 9.51717E-05-2.83500E-05-2.86377E-05-7.03829E-08-3.33948E-19-8.66859E-20
 -1      4017 9.51901E-05-2.83898E-05-2.86293E-05-4.91662E-08 2.41925E-19-3.27642E-19
 -1      4018 9.51450E-05-2.83076E-05-2.86441E-05-6.46969E-08-1.54020E-19 9.43882E-19
 -1      4019 9.52071E-05-2.84213E-05-2.86223E-05-3.57972E-08 9.92014E-19-4.27542E-20
 -1      4020 9.52186E-05-2.84511E-05-2.86151E-05-2.13219E-08 1.18884E-18 6.80137E-19
 -1      4021 9.52179E-05-2.84512E-05-2.86144E-05-1.31258E-08 1.62746E-18 7.19548E-19
 -1      4022 9.51901E-05-2.83912E-05-2.86279E-05-3.38701E-08 1.01564E-18 5.56953E-19
 -1      4023 9.11996E-05-2.42454E-05-2.87057E-05 2.61484E-06-1.23000E-19 4.08557E-19
 -1      4024 9.06905E-05-2.38372E-05-2.86547E-05 2.93184E-06-5.82709E-19-7.66617E-19
 -1      4025 8.48695E-05-2.17595E-05-2.70638E-05-1.06533E-05-2.66144E-19-1.02274E-18
 -1      4026 8.54020E-05-2.12436E-05-2.75491E-05-9.36185E-06 2.14430E-20-1.09360E-18
 -1      4027 7.99077E-05-1.88809E-05-2.60470E-05-8.15992E-06-1.38533E-19-1.61311E-18
 -1      4028 7.42969E-05-1.99446E-05-2.33114E-05 1.29070E-05-1.72412E-18 2.21289E-18
 -1      4029 8.84935E-05-2.24388E-05-2.83272E-05 3.86826E-06-1.41226E-18 3.11450E-19
 -1      4030 8.77340E-05-2.20011E-05-2.81759E-05 4.29738E-06-6.34061E-19 3.24989E-19
 -1      4031 9.21705E-05-2.50367E-05-2.87805E-05 2.11061E-06 1.13338E-19 1.63350E-18
 -1      4032 9.17637E-05-2.46690E-05-2.87571E-05 2.38479E-06-1.67284E-19 6.67443E-19
 -1      4033 9.10732E-05-2.41562E-05-2.86659E-05 2.01795E-06-5.34890E-19-5.63872E-19
 -1      4034 9.29404E-05-2.57307E-05-2.88114E-05 1.67683E-06 5.88543E-19 1.53796E-18
 -1      4035 9.26200E-05-2.54096E-05-2.88058E-05 1.91131E-06 8.99599E-19 2.15023E-18
 -1      4036 9.20735E-05-2.49731E-05-2.87474E-05 1.64105E-06-7.30145E-20 9.17672E-20
 -1      4037 9.35438E-05-2.63243E-05-2.88141E-05 1.30937E-06 1.59580E-18 9.47417E-19
 -1      4038 9.32948E-05-2.60508E-05-2.88196E-05 1.50671E-06 8.97495E-19 1.51678E-18
 -1      4039 9.28671E-05-2.56852E-05-2.87846E-05 1.31109E-06 1.24446E-18 6.16831E-19
 -1      4040 9.40106E-05-2.68214E-05-2.88000E-05 1.00370E-06 7.87370E-19 1.24387E-18
 -1      4041 9.38199E-05-2.65933E-05-2.88117E-05 1.16684E-06 1.46742E-18 9.76811E-19
 -1      4042 9.34897E-05-2.62923E-05-2.87930E-05 1.02793E-06 1.41753E-18-3.29585E-19
 -1      4043 9.43669E-05-2.72296E-05-2.87768E-05 7.54188E-07 8.34349E-20 5.02565E-19
 -1      4044 9.42228E-05-2.70430E-05-2.87913E-05 8.86614E-07 5.58350E-19 1.14006E-18
 -1      4045 9.39718E-05-2.67995E-05-2.87837E-05 7.90138E-07 1.01142E-18 4.06175E-19
 -1      4046 9.46346E-05-2.75591E-05-2.87495E-05 5.54326E-07-5.53885E-19 5.41720E-19
 -1      4047 9.45276E-05-2.74090E-05-2.87649E-05 6.59878E-07-3.68924E-19 9.31682E-19
 -1      4048 9.43400E-05-2.72153E-05-2.87644E-05 5.94684E-07-1.07527E-19 7.42471E-19
 -1      4049 9.48325E-05-2.78205E-05-2.87216E-05 3.97198E-07 1.56072E-19 4.48052E-19
 -1      4050 9.47544E-05-2.77018E-05-2.87365E-05 4.79824E-07-6.89579E-19 6.33384E-19
 -1      4051 9.46169E-05-2.75504E-05-2.87404E-05 4.37352E-07-2.63050E-19 1.76809E-18
 -1      4052 9.49759E-05-2.80246E-05-2.86951E-05 2.75947E-07-5.07394E-19 2.40273E-18
 -1      4053 9.49200E-05-2.79323E-05-2.87087E-05 3.39465E-07 2.27558E-19 1.73612E-18
 -1      4054 9.48214E-05-2.78158E-05-2.87149E-05 3.13239E-07-8.08669E-19 1.65768E-18
 -1      4055 9.50774E-05-2.81814E-05-2.86710E-05 1.84139E-07-6.12060E-19 1.70612E-18
 -1      4056 9.50385E-05-2.81107E-05-2.86830E-05 2.32065E-07-2.34986E-19 2.20166E-18
 -1      4057 9.49695E-05-2.80227E-05-2.86902E-05 2.17250E-07-3.49660E-19 2.94906E-18
 -1      4058 9.51472E-05-2.83000E-05-2.86497E-05 1.16006E-07-9.48369E-19 2.68247E-18
 -1      4059 9.51210E-05-2.82466E-05-2.86601E-05 1.51443E-07-8.35459E-19 1.29091E-18
 -1      4060 9.50742E-05-2.81814E-05-2.86675E-05 1.44460E-07-6.07375E-19 1.98550E-18
 -1      4061 9.51934E-05-2.83879E-05-2.86315E-05 6.68626E-08-3.74316E-19 1.93270E-18
 -1      4062 9.51765E-05-2.83485E-05-2.86403E-05 9.22228E-08-5.12568E-19 2.38408E-18
 -1      4063 9.51460E-05-2.83012E-05-2.86472E-05 9.05277E-08-8.31557E-19 2.09159E-18
 -1      4064 9.52187E-05-2.84441E-05-2.86179E-05 3.59445E-08 6.20463E-19 5.33035E-19
 -1      4065 9.52080E-05-2.84145E-05-2.86254E-05 5.34897E-08 1.10879E-19 9.49574E-19
 -1      4066 9.51880E-05-2.83804E-05-2.86317E-05 5.46457E-08 8.32624E-19-6.32582E-19
 -1      4067 9.52126E-05-2.84330E-05-2.86200E-05 3.16167E-08 1.50080E-18-7.92230E-19
 -1      4068 9.07052E-05-2.01264E-05-3.02539E-05-3.47671E-06 1.20056E-18-1.69949E-18
 -1      4069 8.95370E-05-1.90608E-05-3.02090E-05-2.99388E-06 9.18404E-19-1.79678E-18
 -1      4070 1.26589E-04-4.40557E-05-3.56904E-05 9.37126E-06 2.26297E-19-3.44552E-18
 -1      4071 8.99887E-05-2.33701E-05-2.85648E-05 3.19577E-06-5.50794E-19-3.52650E-19
 -1      4072 8.93613E-05-2.29348E-05-2.84727E-05 3.56176E-06-1.15969E-18 1.09092E-20
 -1      4073 8.82760E-05-2.22507E-05-2.82749E-05 2.92106E-06-9.70109E-19 2.96910E-19
 -1      4074 8.98243E-05-2.32428E-05-2.85183E-05 2.44248E-06-7.34258E-19-1.11188E-18
 -1      4075 6.45440E-05-1.62567E-05-2.07308E-05 9.44655E-06-1.23607E-18 1.59492E-18
 -1      4076 9.07530E-05-3.37686E-05-2.43531E-05 2.12630E-05 1.30306E-18-1.54959E-18
 -1      4077 7.12655E-05-1.76435E-05-2.30853E-05 7.81084E-06 4.76406E-19-2.19200E-18
 -1      4078 6.82549E-05-1.56715E-05-2.24127E-05 2.25839E-06 2.10187E-19-2.62333E-18
 -1      4079 7.15726E-05-1.64597E-05-2.35535E-05-5.76710E-07 1.45842E-19-2.32284E-18
 -1      4080 8.88254E-05-2.21537E-05-2.85940E-05 6.96662E-06-1.54822E-19-1.55132E-18
 -1      4081 8.87404E-05-2.29003E-05-2.82002E-05 8.08059E-06-2.33448E-19-1.40475E-18
 -1      4082 8.66289E-05-2.19288E-05-2.77237E-05 8.08139E-06-3.18689E-20-1.62825E-18
 -1      4083 8.94629E-05-1.88719E-05-3.02645E-05 2.72592E-06-3.85120E-19-2.22148E-18
 -1      4084 8.96362E-05-1.96940E-05-2.99576E-05 3.55922E-06-2.85244E-19-2.03099E-18
 -1      4085 8.87571E-05-1.82250E-05-3.02365E-05 2.49758E-06-1.79154E-19-2.18553E-18
 -1      4086 6.77052E-05-1.64683E-05-2.18818E-05 7.99792E-06-1.58040E-18 1.71238E-18
 -1      4087 6.40189E-05-1.51049E-05-2.08062E-05 5.88995E-06-1.06369E-18 1.88029E-18
 -1      4088 6.40026E-05-1.48342E-05-2.11285E-05 1.53036E-06-7.27383E-19 2.08526E-18
 -1      4089 7.88883E-05-2.24308E-05-2.42456E-05 1.36514E-05 6.59902E-19-1.67039E-18
 -1      4090 7.45895E-05-1.93789E-05-2.35168E-05 1.10478E-05 5.62948E-19-1.80425E-18
 -1      4091 7.50437E-05-1.85379E-05-2.41936E-05 7.60530E-06 3.45733E-19-2.00479E-18
 -1      4092 7.74011E-05-2.01094E-05-2.44848E-05 1.13074E-05-1.37542E-18 2.01952E-18
 -1      4093 7.22253E-05-1.81560E-05-2.31182E-05 1.03180E-05-1.44739E-18 1.66580E-18
 -1      4094 7.08438E-05-1.69590E-05-2.31396E-05 6.94436E-06-1.34423E-18 1.25418E-18
 -1      4095 7.85216E-05-1.97795E-05-2.52225E-05 9.70795E-06-6.62487E-19 1.84852E-18
 -1      4096 8.79186E-05-3.00129E-05-2.47611E-05 1.82609E-05 9.21181E-19-1.48420E-18
 -1      4097 8.65584E-05-2.75481E-05-2.52751E-05 1.62107E-05 5.54072E-19-1.27856E-18
 -1      4098 8.30319E-05-2.45457E-05-2.50273E-05 1.46828E-05 5.96755E-19-1.54233E-18
 -1      4099 9.26995E-05-2.16564E-05-3.04501E-05-3.78700E-06 1.32111E-18-1.68751E-18
 -1      4100 9.19737E-05-2.08949E-05-3.04787E-05-3.45557E-06 1.28665E-18-1.66173E-18
 -1      4101 8.87206E-05-1.82986E-05-3.01998E-05-2.15582E-06 8.09476E-19-2.07608E-18
 -1      4102 8.79430E-05-1.75778E-05-3.01624E-05-1.59806E-06 6.63246E-19-2.26315E-18
 -1      4103 8.74060E-05-1.78374E-05-2.97942E-05-1.54883E-06 4.30910E-19-1.99046E-18
 -1      4104 8.86080E-05-1.90602E-05-2.97892E-05-3.30827E-06 7.01623E-19-1.80681E-18
 -1      4105 8.66661E-05-2.15026E-05-2.79514E-05 4.66557E-06-8.35043E-20 3.67703E-19
 -1      4106 8.57520E-05-2.10935E-05-2.77163E-05 5.18844E-06-4.24137E-20 5.39045E-19
 -1      4107 8.63656E-05-2.12118E-05-2.78945E-05 3.47722E-06-3.49576E-19 7.31563E-19
 -1      4108 8.72213E-05-2.15727E-05-2.81691E-05-8.95983E-06 2.76598E-19-9.93029E-19
 -1      4109 8.78382E-05-2.12644E-05-2.85620E-05-7.81077E-06 5.43271E-19-1.06540E-18
 -1      4110 8.68600E-05-2.01462E-05-2.85704E-05-6.28513E-06 5.04350E-19-1.22676E-18
 -1      4111 8.36863E-05-1.93952E-05-2.74639E-05-6.92809E-06 2.11929E-19-1.21936E-18
 -1      4112 7.42578E-05-1.77466E-05-2.43196E-05-7.52623E-06-2.54168E-19-2.21571E-18
 -1      4113 8.86513E-05-1.95712E-05-2.96149E-05 3.82994E-06-3.16852E-20-1.87598E-18
 -1      4114 8.94857E-05-2.02796E-05-2.96683E-05 4.19752E-06-2.08645E-19-1.91698E-18
 -1      4115 8.94608E-05-2.08750E-05-2.93952E-05 4.95066E-06-1.07912E-19-1.78963E-18
 -1      4116 6.33976E-05-1.62536E-05-1.99555E-05-1.13176E-05 6.91979E-19 2.13864E-18
 -1      4117 6.84496E-05-1.95828E-05-2.10090E-05-1.50097E-05 1.41769E-18 4.12677E-19
 -1      4118 6.42254E-05-1.55209E-05-2.08301E-05-6.27886E-06-1.83022E-19 1.53554E-18
 -1      4119 8.11916E-05-2.22352E-05-2.53174E-05 1.18083E-05 4.69743E-19-1.63134E-18
 -1      4120 8.51972E-05-2.95773E-05-2.38853E-05-1.93688E-05 8.62511E-19 7.40757E-20
 -1      4121 7.82938E-05-2.72676E-05-2.18254E-05-2.20383E-05 1.91153E-18-1.49501E-19
 -1      4122 8.29157E-05-2.88118E-05-2.31167E-05-2.02658E-05 1.46741E-18 5.80151E-20
 -1      4123 8.03283E-05-2.53873E-05-2.34754E-05-1.73750E-05 6.46537E-19 5.00874E-20
 -1      4124 7.43598E-05-2.33357E-05-2.17207E-05-1.88396E-05 1.70270E-18-5.36351E-19
 -1      4125 9.52040E-05-2.84192E-05-2.86216E-05-1.31861E-08 1.24834E-18 1.98683E-19
 -1      4126 9.52152E-05-2.84473E-05-2.86150E-05-6.03588E-09 1.10345E-18 4.96044E-19
 -1      4127 9.52143E-05-2.84449E-05-2.86155E-05-9.48959E-10 6.08882E-19-6.21779E-19
 -1      4128 8.44461E-05-2.06378E-05-2.73795E-05 5.64883E-06 2.11502E-20 1.37429E-18
 -1      4129 8.33636E-05-2.03246E-05-2.70271E-05 6.30481E-06 4.27701E-19 1.53466E-18
 -1      4130 8.40577E-05-2.01842E-05-2.73203E-05 4.18254E-06 4.26754E-19 2.11833E-18
 -1      4131 8.32866E-05-2.10646E-05-2.66405E-05 9.32628E-06-2.75182E-19 4.92246E-19
 -1      4132 8.78394E-05-1.93304E-05-2.93722E-05-3.95007E-06 6.30795E-19-1.50350E-18
 -1      4133 8.71056E-05-1.85855E-05-2.93546E-05-3.02161E-06 3.90197E-19-1.68520E-18
 -1      4134 8.71989E-05-1.95659E-05-2.89762E-05-4.80100E-06 5.64638E-19-1.45301E-18
 -1      4135 8.63247E-05-1.77249E-05-2.94220E-05-2.10701E-07 2.03630E-19-1.89948E-18
 -1      4136 8.63389E-05-1.77110E-05-2.94117E-05 7.57476E-07 1.52160E-19-2.06743E-18
 -1      4137 8.60760E-05-1.82563E-05-2.90400E-05 1.61425E-06 2.43612E-20-1.92742E-18
 -1      4138 8.67316E-05-1.80925E-05-2.94349E-05 1.93757E-06 1.27982E-19-2.14996E-18
 -1      4139 8.77289E-05-1.73289E-05-3.01840E-05 1.73619E-06-4.53910E-21-2.33852E-18
 -1      4140 8.82016E-05-1.77509E-05-3.02048E-05 2.06488E-06-1.01378E-19-2.23940E-18
 -1      4141 8.82184E-05-1.84788E-05-2.98746E-05 2.72943E-06-3.95791E-20-2.05927E-18
 -1      4142 8.73348E-05-1.77082E-05-2.98191E-05 1.69976E-06 1.32010E-19-2.16975E-18
 -1      4143 8.71454E-05-1.84003E-05-2.94615E-05 2.55072E-06 6.05385E-20-2.07321E-18
 -1      4144 8.94244E-05-2.14539E-05-2.91262E-05 5.71743E-06-1.58852E-20-1.60905E-18
 -1      4145 8.79010E-05-2.07209E-05-2.87781E-05 5.58183E-06-1.67579E-20-1.93950E-18
 -1      4146 8.76701E-05-1.88485E-05-2.94968E-05 3.08775E-06-6.55053E-20-1.93326E-18
 -1      4147 8.74428E-05-1.93301E-05-2.91908E-05 3.71516E-06 6.21668E-21-1.90783E-18
 -1      4148 7.91081E-05-2.29777E-05-2.40129E-05-1.39285E-05 1.04964E-19 2.40115E-19
 -1      4149 7.95172E-05-2.19716E-05-2.47109E-05-1.17665E-05 3.51117E-19-4.41046E-19
 -1      4150 8.63270E-05-2.12470E-05-2.79129E-05 2.17167E-06 2.64486E-20-3.70385E-19
 -1      4151 8.52462E-05-2.07138E-05-2.76760E-05 2.38014E-06 9.89966E-19 6.49293E-19
 -1      4152 8.12843E-05-2.18161E-05-2.54507E-05-9.89794E-06 6.17599E-19-5.12379E-19
 -1      4153 8.18927E-05-2.14377E-05-2.59622E-05-8.39542E-06 2.21521E-19-6.85057E-19
 -1      4154 7.76576E-05-1.99285E-05-2.46730E-05-9.26168E-06 2.56892E-19-4.68978E-20
 -1      4155 8.33426E-05-2.14965E-05-2.64885E-05-7.18463E-06-2.25870E-20-1.05837E-18
 -1      4156 8.39959E-05-2.14273E-05-2.68703E-05-6.15331E-06-9.27040E-20-3.14911E-19
 -1      4157 8.09065E-05-2.01624E-05-2.59771E-05-6.42727E-06 2.23673E-19-1.45919E-18
 -1      4158 8.52277E-05-2.16254E-05-2.72477E-05-5.23515E-06 2.82512E-19-3.41439E-19
 -1      4159 8.59265E-05-2.17821E-05-2.75243E-05-4.49073E-06 4.54164E-19 3.58383E-19
 -1      4160 8.33849E-05-2.04946E-05-2.68931E-05-4.48527E-06 3.22383E-19-1.30972E-18
 -1      4161 8.69484E-05-2.21064E-05-2.77874E-05-3.88407E-06 3.41516E-19-2.43576E-20
 -1      4162 8.76153E-05-2.23796E-05-2.79831E-05-3.34532E-06 1.03155E-18-1.58362E-19
 -1      4163 8.56502E-05-2.12490E-05-2.75443E-05-3.20965E-06 3.64896E-19-2.98128E-19
 -1      4164 8.84696E-05-2.27501E-05-2.81653E-05-2.90727E-06 8.36405E-19 1.36278E-19
 -1      4165 8.90733E-05-2.30851E-05-2.82990E-05-2.50517E-06 1.11660E-18-1.76399E-19
 -1      4166 8.74872E-05-2.20554E-05-2.79983E-05-2.31721E-06 7.66176E-19-8.56041E-19
 -1      4167 8.97917E-05-2.34779E-05-2.84213E-05-2.18707E-06 1.25121E-18-3.33205E-20
 -1      4168 9.03243E-05-2.38362E-05-2.85087E-05-1.88064E-06 9.18898E-19-4.54179E-19
 -1      4169 8.90379E-05-2.29057E-05-2.83086E-05-1.67628E-06 8.32662E-19-7.29495E-19
 -1      4170 9.09240E-05-2.42249E-05-2.85870E-05-1.64829E-06 5.64350E-19-3.05364E-19
 -1      4171 9.13821E-05-2.45787E-05-2.86405E-05-1.41155E-06 3.04122E-19 1.41592E-19
 -1      4172 9.03410E-05-2.37499E-05-2.85129E-05-1.21585E-06 9.47974E-19-1.23948E-18
 -1      4173 9.18770E-05-2.49445E-05-2.86872E-05-1.24094E-06 1.01926E-19 3.53734E-19
 -1      4174 9.22619E-05-2.52754E-05-2.87166E-05-1.05644E-06-1.89755E-19 2.80913E-19
 -1      4175 9.14251E-05-2.45501E-05-2.86405E-05-8.83106E-07 2.12025E-19-1.03836E-18
 -1      4176 9.26647E-05-2.56063E-05-2.87411E-05-9.30720E-07-3.24825E-19 8.45118E-19
 -1      4177 9.29812E-05-2.59036E-05-2.87537E-05-7.86328E-07-7.81975E-19 7.02235E-19
 -1      4178 9.23152E-05-2.52806E-05-2.87135E-05-6.41151E-07-3.88157E-19-3.84304E-19
 -1      4179 9.33040E-05-2.61936E-05-2.87633E-05-6.93546E-07-3.90300E-19-2.73629E-19
 -1      4180 9.35590E-05-2.64520E-05-2.87648E-05-5.80518E-07 3.93328E-19-9.01044E-19
 -1      4181 9.30354E-05-2.59268E-05-2.87488E-05-4.64307E-07-1.05393E-18-1.19339E-18
 -1      4182 9.38135E-05-2.66993E-05-2.87646E-05-5.12081E-07 7.93330E-19-7.86546E-19
 -1      4183 9.40147E-05-2.69179E-05-2.87593E-05-4.23877E-07 7.82638E-19-6.88741E-19
 -1      4184 9.36089E-05-2.64833E-05-2.87589E-05-3.34564E-07 2.61467E-19-1.91229E-18
 -1      4185 9.42120E-05-2.71239E-05-2.87532E-05-3.73529E-07-4.56313E-19-6.12119E-19
 -1      4186 9.43676E-05-2.73045E-05-2.87440E-05-3.05097E-07-9.03289E-19-1.24351E-18
 -1      4187 9.40580E-05-2.69512E-05-2.87531E-05-2.39175E-07 1.00414E-19-5.90787E-19
 -1      4188 9.45178E-05-2.74723E-05-2.87347E-05-2.68232E-07-1.01375E-18-8.37223E-19
 -1      4189 9.46357E-05-2.76183E-05-2.87237E-05-2.15567E-07-1.09880E-18-9.20872E-19
 -1      4190 9.44035E-05-2.73361E-05-2.87380E-05-1.69025E-07-7.82652E-19-1.02249E-18
 -1      4191 9.47476E-05-2.77523E-05-2.87130E-05-1.88763E-07-8.57638E-19-4.75633E-19
 -1      4192 9.48350E-05-2.78680E-05-2.87015E-05-1.48637E-07 5.73512E-19-3.58410E-19
 -1      4193 9.46643E-05-2.76465E-05-2.87182E-05-1.17531E-07-7.44071E-19-6.98027E-19
 -1      4194 9.49167E-05-2.79731E-05-2.86906E-05-1.29334E-07 1.03074E-18-1.26696E-18
 -1      4195 9.49797E-05-2.80631E-05-2.86796E-05-9.91240E-08 6.97494E-19-1.76930E-18
 -1      4196 9.48571E-05-2.78921E-05-2.86966E-05-7.98961E-08 9.77497E-20-1.55165E-18
 -1      4197 9.50378E-05-2.81438E-05-2.86692E-05-8.53785E-08 6.65758E-19-2.23531E-18
 -1      4198 9.50820E-05-2.82126E-05-2.86591E-05-6.29544E-08 4.60436E-20-9.40327E-19
 -1      4199 9.49962E-05-2.80828E-05-2.86753E-05-5.25963E-08 5.33291E-19-3.19617E-18
 -1      4200 9.51220E-05-2.82735E-05-2.86495E-05-5.32457E-08 5.28546E-19 7.26783E-20
 -1      4201 9.51515E-05-2.83250E-05-2.86406E-05-3.72563E-08 1.00389E-18 1.47815E-18
 -1      4202 9.50938E-05-2.82286E-05-2.86554E-05-3.30552E-08 1.29575E-18-1.52697E-18
 -1      4203 9.51716E-05-2.83572E-05-2.86345E-05-2.98467E-08 7.22064E-19 1.04811E-18
 -1      4204 9.51890E-05-2.83933E-05-2.86272E-05-1.73068E-08 1.12537E-18 1.32490E-18
 -1      4205 9.51868E-05-2.83887E-05-2.86278E-05-7.89417E-09-1.76105E-20-1.37290E-19
 -1      4206 9.51523E-05-2.83247E-05-2.86397E-05-1.79029E-08 7.12362E-19 5.28875E-19
 -1      4207 7.73701E-05-1.79900E-05-2.54198E-05-5.80003E-06-1.04706E-19-2.07145E-18
 -1      4208 7.91436E-05-1.81420E-05-2.62217E-05-4.97333E-06 1.06930E-19-1.74441E-18
 -1      4209 9.28571E-05-2.57441E-05-2.87693E-05 9.07805E-07 1.11397E-18-1.05124E-18
 -1      4210 9.25043E-05-2.54104E-05-2.87579E-05 1.03847E-06 6.32124E-19-1.37287E-18
 -1      4211 9.10583E-05-2.42271E-05-2.86520E-05 1.36999E-06-5.27057E-19-1.07256E-18
 -1      4212 9.04948E-05-2.37899E-05-2.85949E-05 1.52933E-06-3.79969E-19-1.55438E-18
 -1      4213 8.52729E-05-2.04330E-05-2.78076E-05 6.17076E-06 1.54006E-19-1.83556E-18
 -1      4214 8.46282E-05-2.09548E-05-2.72846E-05 7.36485E-06 1.55711E-19-1.66949E-18
 -1      4215 9.34825E-05-2.63440E-05-2.87790E-05 7.14849E-07 1.29722E-18-8.94613E-19
 -1      4216 9.32082E-05-2.60619E-05-2.87792E-05 8.28332E-07 1.66073E-18-3.35207E-19
 -1      4217 9.29092E-05-2.57776E-05-2.87561E-05 5.84600E-07 8.30624E-19-2.41353E-18
 -1      4218 9.39675E-05-2.68441E-05-2.87715E-05 5.50431E-07 6.61687E-19-7.23179E-19
 -1      4219 9.37569E-05-2.66102E-05-2.87786E-05 6.46421E-07 6.75657E-19-1.05206E-18
 -1      4220 9.35230E-05-2.63741E-05-2.87671E-05 4.67205E-07 7.84724E-19-1.46664E-18
 -1      4221 9.43381E-05-2.72533E-05-2.87540E-05 4.14058E-07-2.71860E-19 3.90818E-19
 -1      4222 9.41789E-05-2.70629E-05-2.87648E-05 4.93293E-07 3.07030E-19-9.62190E-20
 -1      4223 9.39991E-05-2.68705E-05-2.87611E-05 3.63629E-07-2.54744E-20-1.57431E-18
 -1      4224 9.46169E-05-2.75823E-05-2.87318E-05 3.03700E-07-2.29542E-19 8.57373E-19
 -1      4225 9.44985E-05-2.74300E-05-2.87441E-05 3.67643E-07-2.26507E-19 5.72465E-19
 -1      4226 9.43628E-05-2.72761E-05-2.87453E-05 2.75657E-07-2.66091E-19-6.76614E-19
 -1      4227 9.48228E-05-2.78423E-05-2.87079E-05 2.16422E-07-1.03668E-18 1.77413E-18
 -1      4228 9.47363E-05-2.77224E-05-2.87204E-05 2.66934E-07-7.41183E-19 1.66064E-18
 -1      4229 9.46360E-05-2.76017E-05-2.87245E-05 2.03281E-07-7.80290E-19 4.63434E-20
 -1      4230 9.49716E-05-2.80443E-05-2.86846E-05 1.48895E-07 9.52058E-20 2.02341E-18
 -1      4231 9.49099E-05-2.79516E-05-2.86965E-05 1.87987E-07-2.24443E-19 1.79316E-18
 -1      4232 9.48375E-05-2.78585E-05-2.87021E-05 1.45377E-07-7.49909E-19 1.21683E-19
 -1      4233 9.50765E-05-2.81988E-05-2.86630E-05 9.77670E-08-6.11258E-19 1.06339E-18
 -1      4234 9.50337E-05-2.81282E-05-2.86737E-05 1.27409E-07 1.21165E-19 1.54776E-18
 -1      4235 9.49827E-05-2.80578E-05-2.86799E-05 1.00233E-07 2.80505E-19 5.28856E-19
 -1      4236 9.51481E-05-2.83147E-05-2.86436E-05 6.02692E-08 5.15374E-19-4.10885E-19
 -1      4237 9.51195E-05-2.82621E-05-2.86531E-05 8.17285E-08-2.26188E-19-3.04765E-19
 -1      4238 9.50846E-05-2.82096E-05-2.86592E-05 6.58283E-08 3.67153E-19-1.15291E-18
 -1      4239 7.43037E-05-1.68874E-05-2.45203E-05-4.06457E-06-8.11663E-20-2.19738E-18
 -1      4240 8.48569E-05-1.82106E-05-2.85892E-05 1.33579E-06 2.05293E-19-1.86718E-18
 -1      4241 8.53759E-05-1.85952E-05-2.86121E-05 2.67734E-06 4.79798E-20-1.82454E-18
 -1      4242 7.78971E-05-1.92815E-05-2.51743E-05 7.64749E-06 3.98890E-19-1.91089E-18
 -1      4243 7.55609E-05-1.74719E-05-2.48134E-05 4.50084E-06 2.79007E-19-2.05238E-18
 -1      4244 8.66959E-05-1.99193E-05-2.86314E-05 4.75764E-06 1.81483E-20-1.86297E-18
 -1      4245 9.20608E-05-2.50387E-05-2.87319E-05 1.12761E-06 4.86688E-19-1.22898E-18
 -1      4246 9.16126E-05-2.46523E-05-2.87023E-05 1.27391E-06-1.29671E-19-1.06615E-18
 -1      4247 9.11472E-05-2.42647E-05-2.86389E-05 8.40102E-07-7.59774E-20-2.10871E-18
 -1      4248 9.21285E-05-2.50751E-05-2.87180E-05 7.11460E-07 5.75166E-19-3.98185E-18
 -1      4249 8.32947E-05-2.21014E-05-2.62242E-05 1.02275E-05 4.46438E-19-1.45158E-18
 -1      4250 8.01138E-05-2.03090E-05-2.55717E-05 9.14450E-06 3.69605E-19-1.68529E-18
 -1      4251 8.03521E-05-1.93883E-05-2.61193E-05 6.49502E-06 3.93925E-19-1.88887E-18
 -1      4252 8.39210E-05-2.14243E-05-2.68313E-05 8.58457E-06 1.98328E-19-1.45189E-18
 -1      4253 8.16668E-05-1.98622E-05-2.65350E-05 7.04075E-06 1.38161E-19 1.33899E-18
 -1      4254 8.05613E-05-1.97729E-05-2.60262E-05 8.03174E-06-1.64109E-19 1.78274E-18
 -1      4255 8.09442E-05-1.90595E-05-2.64602E-05 5.12341E-06 2.43855E-19 2.05725E-18
 -1      4256 7.44574E-05-1.69974E-05-2.47170E-05 6.19212E-07 2.10496E-19-2.04456E-18
 -1      4257 8.67290E-05-1.82721E-05-2.93616E-05-2.04471E-06 2.72989E-19-1.89401E-18
 -1      4258 8.63999E-05-1.78320E-05-2.93813E-05-1.13106E-06 1.57415E-19-1.86419E-18
 -1      4259 8.56958E-05-1.80355E-05-2.89791E-05-6.08817E-07 7.21552E-20-1.82444E-18
 -1      4260 8.60726E-05-1.85156E-05-2.89401E-05-2.53437E-06 2.88160E-19-1.66498E-18
 -1      4261 6.70959E-05-1.54627E-05-2.20905E-05 2.30413E-07-4.31773E-19 1.55157E-18
 -1      4262 6.50658E-05-1.48929E-05-2.13284E-05-2.79510E-06-4.44833E-19 1.16169E-18
 -1      4263 6.70925E-05-1.63713E-05-2.18369E-05-7.34185E-06 6.21219E-19 1.52731E-19
 -1      4264 7.38578E-05-1.74243E-05-2.41380E-05 5.79041E-06-1.00530E-18 5.30149E-19
 -1      4265 6.98413E-05-1.59704E-05-2.30256E-05 3.67841E-06-7.98380E-19 1.19279E-18
 -1      4266 6.99751E-05-1.60172E-05-2.31694E-05-2.74490E-07-2.75517E-19 4.29432E-19
 -1      4267 8.41799E-05-2.00945E-05-2.73985E-05 1.06660E-06 1.22607E-18-3.04604E-19
 -1      4268 8.38943E-05-2.01174E-05-2.73649E-05 2.47349E-06 1.07056E-18 8.69195E-19
 -1      4269 8.24433E-05-1.95460E-05-2.70061E-05 2.81798E-06 1.04471E-18 1.48689E-18
 -1      4270 8.57874E-05-1.93447E-05-2.85030E-05-5.10871E-06 3.24030E-19-1.35406E-18
 -1      4271 7.21602E-05-2.07442E-05-2.19916E-05-1.48086E-05 9.06385E-19-7.78145E-20
 -1      4272 7.93615E-05-1.75539E-05-2.63961E-05-2.48570E-06 3.15488E-19-1.93047E-18
 -1      4273 8.12980E-05-1.84741E-05-2.69772E-05-4.54803E-06 1.83354E-19-1.66865E-18
 -1      4274 8.99256E-05-2.33505E-05-2.84994E-05 9.58960E-07-4.53239E-19-2.36799E-18
 -1      4275 8.98076E-05-2.33151E-05-2.85094E-05 1.62836E-06-5.26083E-19-1.74978E-18
 -1      4276 8.91046E-05-2.28330E-05-2.84121E-05 1.79829E-06-4.48292E-19-8.76060E-19
 -1      4277 8.55295E-05-1.97918E-05-2.81605E-05 4.71217E-06 1.53634E-19-1.79744E-18
 -1      4278 8.37183E-05-1.90098E-05-2.77504E-05 3.95697E-06 3.28760E-19-1.88580E-18
 -1      4279 7.74182E-05-1.76109E-05-2.56429E-05 1.23429E-06 2.23719E-19-1.95145E-18
 -1      4280 8.27168E-05-1.99392E-05-2.69402E-05 6.63767E-06 3.84602E-19-1.65925E-18
 -1      4281 8.46249E-05-1.82018E-05-2.84810E-05-8.56979E-07 2.05478E-19-1.83021E-18
 -1      4282 8.46195E-05-1.80841E-05-2.85146E-05 1.32892E-07 1.52549E-19-1.82382E-18
 -1      4283 8.37484E-05-1.82832E-05-2.80616E-05 1.23621E-06 2.72338E-19-1.86819E-18
 -1      4284 9.51702E-05-2.83500E-05-2.86371E-05 5.06278E-08 1.29918E-18-1.21916E-18
 -1      4285 9.51463E-05-2.83113E-05-2.86427E-05 4.16535E-08 1.33413E-18-3.53241E-18
 -1      4286 9.51849E-05-2.83803E-05-2.86308E-05 3.75506E-08 1.67093E-18-2.17687E-18
 -1      4287 9.52116E-05-2.84350E-05-2.86189E-05 2.09024E-08 1.50237E-18-2.20775E-18
 -1      4288 9.52013E-05-2.84107E-05-2.86244E-05 3.12114E-08 1.20579E-18-1.91418E-18
 -1      4289 9.52122E-05-2.84371E-05-2.86178E-05 1.43736E-08 8.39458E-19-1.89186E-18
 -1      4290 9.52114E-05-2.84378E-05-2.86174E-05 4.39027E-09 1.14888E-19-4.44281E-19
 -1      4291 8.82554E-05-2.23157E-05-2.82759E-05 1.89580E-06-8.52442E-19-1.26306E-18
 -1      4292 8.73823E-05-2.17989E-05-2.81210E-05 2.07733E-06-7.25333E-19-7.03614E-19
 -1      4293 8.65412E-05-2.12542E-05-2.79234E-05 1.10011E-06 2.34467E-19-1.29639E-18
 -1      4294 8.84138E-05-2.23427E-05-2.82730E-05 1.05235E-06-5.08984E-19-2.09286E-18
 -1      4295 7.62418E-05-2.20593E-05-2.32730E-05-1.46901E-05 5.11634E-19-1.05264E-19
 -1      4296 7.72568E-05-1.85290E-05-2.51515E-05 7.27571E-06-4.57468E-19 1.39745E-18
 -1      4297 8.32725E-05-1.88591E-05-2.76111E-05-4.63634E-06 2.75286E-19-1.44608E-18
 -1      4298 7.94198E-05-1.79085E-05-2.64174E-05 1.15794E-06 2.83744E-19-1.91846E-18
 -1      4299 7.17777E-05-1.85266E-05-2.26857E-05-1.08334E-05 2.67699E-19 2.18929E-19
 -1      4300 8.39568E-05-1.84356E-05-2.80808E-05-3.03819E-06 2.86171E-19-1.63392E-18
 -1      4301 7.86868E-05-1.90537E-05-2.55803E-05-4.92450E-06-2.16400E-19 1.21488E-19
 -1      4302 8.00611E-05-1.92773E-05-2.61333E-05-3.84433E-06 2.63132E-19-4.52952E-19
 -1      4303 8.21347E-05-1.97254E-05-2.67541E-05-2.04559E-06 6.80715E-19-5.73425E-19
 -1      4304 8.33381E-05-2.01603E-05-2.71310E-05-1.47742E-06 7.38811E-19-4.18895E-19
 -1      4305 8.46573E-05-2.06924E-05-2.74513E-05-1.31321E-06 5.11562E-19-3.75376E-19
 -1      4306 8.57106E-05-2.11226E-05-2.77232E-05-8.81952E-07 5.90401E-19-2.92731E-19
 -1      4307 8.67848E-05-2.16647E-05-2.79424E-05-7.98713E-07 5.21652E-19-6.90135E-19
 -1      4308 8.76742E-05-2.21119E-05-2.81303E-05-4.87145E-07 3.71148E-19-8.01887E-19
 -1      4309 8.85429E-05-2.26280E-05-2.82757E-05-4.56980E-07 2.18659E-20-1.37344E-18
 -1      4310 8.92864E-05-2.30719E-05-2.84014E-05-2.38356E-07 1.39262E-19-1.89135E-18
 -1      4311 8.99899E-05-2.35514E-05-2.84943E-05-2.40685E-07 3.06586E-20-1.99739E-18
 -1      4312 9.06066E-05-2.39732E-05-2.85748E-05-8.74095E-08 3.18893E-19-2.42231E-18
 -1      4313 9.11743E-05-2.44072E-05-2.86307E-05-1.09393E-07 5.30886E-19-3.20016E-18
 -1      4314 9.16806E-05-2.47937E-05-2.86787E-05-1.66201E-09 1.60360E-19-2.64304E-18
 -1      4315 9.21351E-05-2.51771E-05-2.87090E-05-3.40508E-08-3.60348E-20-2.76842E-18
 -1      4316 9.25456E-05-2.55206E-05-2.87345E-05 4.19439E-08-4.70138E-19-2.57058E-18
 -1      4317 9.29058E-05-2.58515E-05-2.87475E-05 5.67001E-09-3.75705E-19-1.25979E-18
 -1      4318 9.32337E-05-2.61486E-05-2.87578E-05 5.95063E-08 1.01889E-19-1.36929E-18
 -1      4319 9.35156E-05-2.64281E-05-2.87595E-05 2.36411E-08 4.64754E-19-9.97345E-19
 -1      4320 9.37736E-05-2.66791E-05-2.87599E-05 6.19555E-08 7.82750E-19-1.06925E-18
 -1      4321 9.39911E-05-2.69105E-05-2.87548E-05 2.90567E-08 3.02584E-19-8.79276E-19
 -1      4322 9.41906E-05-2.71180E-05-2.87490E-05 5.64470E-08-4.38225E-19-8.16933E-19
 -1      4323 9.43558E-05-2.73061E-05-2.87401E-05 2.78029E-08-9.25470E-19-6.70785E-19
 -1      4324 9.45074E-05-2.74742E-05-2.87311E-05 4.74577E-08-8.43772E-19-1.12543E-18
 -1      4325 9.46307E-05-2.76243E-05-2.87204E-05 2.34925E-08-8.42338E-19-1.17903E-18
 -1      4326 9.47437E-05-2.77580E-05-2.87099E-05 3.76284E-08-6.94540E-19-1.06750E-18
 -1      4327 9.48338E-05-2.78757E-05-2.86988E-05 1.82266E-08-6.28137E-19-1.08623E-18
 -1      4328 9.49161E-05-2.79801E-05-2.86881E-05 2.83883E-08-2.19337E-19-1.21518E-18
 -1      4329 9.49806E-05-2.80708E-05-2.86774E-05 1.31452E-08 5.52560E-20-1.08930E-18
 -1      4330 9.50390E-05-2.81509E-05-2.86671E-05 2.04315E-08 6.26312E-19-1.22843E-18
 -1      4331 9.50837E-05-2.82195E-05-2.86572E-05 8.86976E-09 1.23282E-18-2.38041E-18
 -1      4332 9.51237E-05-2.82799E-05-2.86478E-05 1.36629E-08 1.42170E-18-2.34769E-18
 -1      4333 8.10438E-05-1.88986E-05-2.65920E-05 5.22457E-06 3.72050E-19-1.86298E-18
 -1      4334 7.15908E-05-1.78009E-05-2.30757E-05-7.81757E-06 4.28006E-19 2.09561E-19
 -1      4335 8.01887E-05-1.87738E-05-2.63313E-05 1.39333E-06-7.20540E-20 5.06423E-19
 -1      4336 7.84690E-05-1.82728E-05-2.58080E-05 1.58158E-06-2.88561E-19 4.66939E-20
 -1      4337 7.45559E-05-1.83820E-05-2.40904E-05-6.99493E-06 7.73066E-20 3.21953E-19
 -1      4338 7.64359E-05-1.85226E-05-2.48828E-05-5.48180E-06-2.51021E-19 4.50749E-19
 -1      4339 7.65106E-05-1.78051E-05-2.51141E-05-2.85449E-06-4.84802E-19 3.10424E-19
 -1      4340 7.11964E-05-1.63957E-05-2.33861E-05-3.48054E-06 1.02164E-19 7.10388E-19
 -1      4341 7.59294E-05-1.76261E-05-2.50199E-05 4.17432E-06-4.31151E-19 6.14379E-19
 -1      4342 9.51999E-05-2.84131E-05-2.86228E-05 7.83024E-09 2.02410E-19-1.27028E-18
 -1      4343 8.19214E-05-1.84271E-05-2.72078E-05 1.79883E-06 2.89151E-19-1.88157E-18
 -1      4344 8.25582E-05-1.80662E-05-2.76248E-05 3.30292E-07 2.30115E-19-1.88143E-18
 -1      4345 9.51668E-05-2.83524E-05-2.86350E-05 9.94611E-09 8.92497E-19-2.03801E-18
 -1      4346 9.51829E-05-2.83821E-05-2.86292E-05 1.19994E-08 7.20931E-19-1.89194E-18
 -1      4347 7.32683E-05-1.67905E-05-2.42021E-05-2.19219E-07-6.31837E-19-1.49098E-19
 -1      4348 8.07510E-05-1.88699E-05-2.64491E-05-5.10398E-07 3.21633E-19-6.88410E-19
 -1      4349 9.51467E-05-2.83187E-05-2.86412E-05 5.53634E-09 1.75405E-18-2.52482E-18
 -1      4350 9.51858E-05-2.83829E-05-2.86296E-05 2.56379E-08 1.42464E-18-3.09941E-18
 -1      4351 7.54244E-05-1.72739E-05-2.49304E-05-4.06086E-08-9.05677E-19-6.61861E-19
 -1      4352 8.37262E-05-1.81615E-05-2.80962E-05-1.90917E-06 2.24225E-19-1.75699E-18
 -1      4353 8.25085E-05-1.80929E-05-2.75798E-05-9.47423E-07 2.63739E-19-1.81008E-18
 -3
    1PSTEP                         4           1           1          
  100CL  101 1.000000000        4353                     0    1           1
 -4  ERROR       1    1
 -5  STR(%)      1    1    0    0
 -1         1 2.08268E+01
 -1         2 2.60173E+01
 -1         3 6.45404E-04
 -1         4 6.69801E-04
 -1         5 1.36460E+01
 -1         6 1.27672E+01
 -1         7 1.27672E+01
 -1         8 3.53534E+00
 -1         9 1.84952E+00
 -1        10 1.35035E+00
 -1        11 1.07794E+00
 -1        12 8.88795E-01
 -1        13 7.42552E-01
 -1        14 6.32225E-01
 -1        15 6.20376E-01
 -1        16 7.28953E-01
 -1        17 8.69946E-01
 -1        18 1.07558E+00
 -1        19 1.36211E+00
 -1        20 1.85798E+00
 -1        21 3.36893E+00
 -1        22 8.26595E+00
 -1        23 1.27672E+01
 -1        24 4.17259E+00
 -1        25 3.04823E+00
 -1        26 1.84114E+00
 -1        27 1.31043E+00
 -1        28 9.23257E-01
 -1        29 6.75325E-01
 -1        30 6.65430E-01
 -1        31 8.57379E-01
 -1        32 9.30602E-01
 -1        33 9.30602E-01
 -1        34 9.26126E-01
 -1        35 1.14708E+00
 -1        36 1.49307E+00
 -1        37 2.55815E+00
 -1        38 3.22259E+00
 -1        39 3.22259E+00
 -1        40 3.23264E+00
 -1        41 3.23264E+00
 -1        42 2.54117E+00
 -1        43 1.48530E+00
 -1        44 1.20194E+00
 -1        45 1.02402E+00
 -1        46 1.02202E+00
 -1        47 9.88107E-01
 -1        48 9.63523E-01
 -1        49 8.42844E-01
 -1        50 6.83876E-01
 -1        51 5.45906E-01
 -1        52 4.27817E-01
 -1        53 3.71546E-01
 -1        54 3.08961E-01
 -1        55 2.47873E-01
 -1        56 1.92696E-01
 -1        57 1.45444E-01
 -1        58 1.06578E-01
 -1        59 8.84099E-02
 -1        60 7.30299E-02
 -1        61 5.88078E-02
 -1        62 4.62114E-02
 -1        63 3.53895E-02
 -1        64 2.62909E-02
 -1        65 2.06174E-02
 -1        66 1.66235E-02
 -1        67 1.27254E-02
 -1        68 8.96341E-03
 -1        69 5.65670E-03
 -1        70 4.95716E-03
 -1        71 3.26962E-03
 -1        72 1.36460E+01
 -1        73 3.34849E+00
 -1        74 2.28886E+00
 -1        75 1.60390E+00
 -1        76 1.37485E+00
 -1        77 1.17845E+00
 -1        78 9.91687E-01
 -1        79 1.00111E+00
 -1        80 1.00111E+00
 -1        81 1.20867E+00
 -1        82 1.45002E+00
 -1        83 1.60877E+00
 -1        84 1.89856E+00
 -1        85 2.04216E+00
 -1        86 2.55084E+00
 -1        87 3.99643E+00
 -1        88 4.46873E+00
 -1        89 4.98713E+00
 -1        90 4.98713E+00
 -1        91 3.66964E+00
 -1        92 2.03097E+00
 -1        93 1.48160E+00
 -1        94 1.69950E+00
 -1        95 1.74433E+00
 -1        96 1.74433E+00
 -1        97 1.57265E+00
 -1        98 1.32326E+00
 -1        99 1.09850E+00
 -1       100 8.71458E-01
 -1       101 6.65922E-01
 -1       102 4.92107E-01
 -1       103 3.67055E-01
 -1       104 2.82011E-01
 -1       105 2.11740E-01
 -1       106 1.55406E-01
 -1       107 1.11335E-01
 -1       108 7.75777E-02
 -1       109 5.31803E-02
 -1       110 4.42817E-02
 -1       111 3.60230E-02
 -1       112 2.86382E-02
 -1       113 2.21965E-02
 -1       114 1.88351E-02
 -1       115 1.62267E-02
 -1       116 1.33100E-02
 -1       117 1.01918E-02
 -1       118 7.15330E-03
 -1       119 4.94653E-03
 -1       120 3.04595E-03
 -1       121 1.42299E-03
 -1       122 1.14790E-03
 -1       123 5.30046E-04
 -1       124 4.30226E-04
 -1       125 6.04825E-04
 -1       126 6.81494E-04
 -1       127 7.03109E-04
 -1       128 7.03109E-04
 -1       129 7.00512E-04
 -1       130 6.94997E-04
 -1       131 6.60978E-04
 -1       132 5.85980E-04
 -1       133 4.12803E-04
 -1       134 5.53800E-04
 -1       135 1.50124E-03
 -1       136 2.18541E-03
 -1       137 2.60173E+01
 -1       138 4.72581E+01
 -1       139 4.72581E+01
 -1       140 2.06154E+01
 -1       141 1.21690E+01
 -1       142 1.23700E+01
 -1       143 1.23700E+01
 -1       144 1.35701E+01
 -1       145 1.35701E+01
 -1       146 1.47113E+01
 -1       147 4.01872E+01
 -1       148 4.01872E+01
 -1       149 2.48329E+01
 -1       150 2.48329E+01
 -1       151 2.49536E+01
 -1       152 2.80646E+01
 -1       153 3.11981E+01
 -1       154 2.91426E+01
 -1       155 1.27812E+01
 -1       156 1.27812E+01
 -1       157 1.22103E+01
 -1       158 1.21779E+01
 -1       159 1.20360E+01
 -1       160 1.17592E+01
 -1       161 4.80817E+01
 -1       162 4.80817E+01
 -1       163 2.49288E+01
 -1       164 5.83623E+00
 -1       165 2.33408E+00
 -1       166 1.58591E+00
 -1       167 1.21519E+00
 -1       168 9.81057E-01
 -1       169 8.15508E-01
 -1       170 6.87684E-01
 -1       171 5.95129E-01
 -1       172 6.75016E-01
 -1       173 7.99315E-01
 -1       174 9.76828E-01
 -1       175 1.22208E+00
 -1       176 1.60526E+00
 -1       177 2.31968E+00
 -1       178 3.78523E+00
 -1       179 1.36460E+01
 -1       180 4.17259E+00
 -1       181 3.04823E+00
 -1       182 1.84114E+00
 -1       183 1.31043E+00
 -1       184 9.23257E-01
 -1       185 6.75325E-01
 -1       186 6.65430E-01
 -1       187 6.56961E-01
 -1       188 8.57379E-01
 -1       189 9.30602E-01
 -1       190 8.93262E-01
 -1       191 9.26126E-01
 -1       192 1.14708E+00
 -1       193 1.67504E+00
 -1       194 2.55815E+00
 -1       195 3.22259E+00
 -1       196 3.16271E+00
 -1       197 3.23264E+00
 -1       198 2.54117E+00
 -1       199 1.64943E+00
 -1       200 1.20194E+00
 -1       201 1.02402E+00
 -1       202 1.02202E+00
 -1       203 9.88107E-01
 -1       204 9.63523E-01
 -1       205 8.42844E-01
 -1       206 6.94172E-01
 -1       207 5.87604E-01
 -1       208 5.01815E-01
 -1       209 4.07095E-01
 -1       210 3.15924E-01
 -1       211 2.47873E-01
 -1       212 1.93422E-01
 -1       213 1.51406E-01
 -1       214 1.15362E-01
 -1       215 8.84099E-02
 -1       216 7.30299E-02
 -1       217 5.88078E-02
 -1       218 4.62114E-02
 -1       219 3.53895E-02
 -1       220 2.64792E-02
 -1       221 2.06174E-02
 -1       222 1.66235E-02
 -1       223 1.27254E-02
 -1       224 9.03120E-03
 -1       225 6.16512E-03
 -1       226 4.95716E-03
 -1       227 3.26962E-03
 -1       228 3.34849E+00
 -1       229 2.28886E+00
 -1       230 1.60390E+00
 -1       231 1.37485E+00
 -1       232 1.17845E+00
 -1       233 9.91687E-01
 -1       234 9.83348E-01
 -1       235 1.00111E+00
 -1       236 9.90649E-01
 -1       237 1.20867E+00
 -1       238 1.45002E+00
 -1       239 1.60877E+00
 -1       240 1.89856E+00
 -1       241 2.04216E+00
 -1       242 2.68876E+00
 -1       243 3.99643E+00
 -1       244 4.46873E+00
 -1       245 4.98713E+00
 -1       246 3.66964E+00
 -1       247 2.03097E+00
 -1       248 1.23936E+00
 -1       249 1.48160E+00
 -1       250 1.69950E+00
 -1       251 1.74433E+00
 -1       252 1.57265E+00
 -1       253 1.32326E+00
 -1       254 1.09942E+00
 -1       255 8.98287E-01
 -1       256 7.05532E-01
 -1       257 5.35823E-01
 -1       258 3.94602E-01
 -1       259 2.85520E-01
 -1       260 2.11740E-01
 -1       261 1.55406E-01
 -1       262 1.13479E-01
 -1       263 8.12953E-02
 -1       264 5.66692E-02
 -1       265 4.42817E-02
 -1       266 3.60230E-02
 -1       267 2.86382E-02
 -1       268 2.21965E-02
 -1       269 1.88351E-02
 -1       270 1.62267E-02
 -1       271 1.33100E-02
 -1       272 1.01918E-02
 -1       273 7.15330E-03
 -1       274 4.94653E-03
 -1       275 3.04595E-03
 -1       276 1.19234E-03
 -1       277 1.02247E-03
 -1       278 7.03154E-04
 -1       279 1.01550E-03
 -1       280 1.17439E-03
 -1       281 1.22582E-03
 -1       282 1.23086E-03
 -1       283 1.23086E-03
 -1       284 1.22785E-03
 -1       285 1.20326E-03
 -1       286 1.14390E-03
 -1       287 9.90683E-04
 -1       288 7.22035E-04
 -1       289 7.22035E-04
 -1       290 2.04048E-03
 -1       291 3.05731E+01
 -1       292 2.83566E+01
 -1       293 4.72581E+01
 -1       294 2.12195E+01
 -1       295 1.21690E+01
 -1       296 1.20464E+01
 -1       297 1.23700E+01
 -1       298 1.19129E+01
 -1       299 1.35701E+01
 -1       300 1.23496E+01
 -1       301 1.47113E+01
 -1       302 4.01872E+01
 -1       303 3.69514E+01
 -1       304 3.09944E+01
 -1       305 3.09944E+01
 -1       306 2.75151E+01
 -1       307 3.11981E+01
 -1       308 3.11981E+01
 -1       309 1.26312E+01
 -1       310 1.27812E+01
 -1       311 1.22103E+01
 -1       312 1.21779E+01
 -1       313 1.20360E+01
 -1       314 1.17592E+01
 -1       315 1.13393E+01
 -1       316 2.24127E+01
 -1       317 4.80817E+01
 -1       318 2.88279E+01
 -1       319 2.85297E+01
 -1       320 1.14773E+00
 -1       321 2.39334E+00
 -1       322 8.43070E-01
 -1       323 7.10155E-01
 -1       324 6.01254E-01
 -1       325 5.08978E-01
 -1       326 4.98152E-01
 -1       327 5.87264E-01
 -1       328 7.04819E-01
 -1       329 8.43610E-01
 -1       330 1.00975E+00
 -1       331 1.24217E+00
 -1       332 1.35925E+00
 -1       333 1.96163E+00
 -1       334 1.60172E+00
 -1       335 1.43161E+00
 -1       336 8.89044E-01
 -1       337 6.34812E-01
 -1       338 4.51592E-01
 -1       339 4.61248E-01
 -1       340 4.60366E-01
 -1       341 5.45004E-01
 -1       342 5.93058E-01
 -1       343 5.13385E-01
 -1       344 5.42081E-01
 -1       345 7.73713E-01
 -1       346 1.21510E+00
 -1       347 1.56953E+00
 -1       348 1.99721E+00
 -1       349 2.04886E+00
 -1       350 2.07515E+00
 -1       351 2.00097E+00
 -1       352 1.55337E+00
 -1       353 1.17840E+00
 -1       354 6.73324E-01
 -1       355 5.25977E-01
 -1       356 5.89884E-01
 -1       357 7.25792E-01
 -1       358 7.38572E-01
 -1       359 6.76448E-01
 -1       360 6.02440E-01
 -1       361 5.34931E-01
 -1       362 4.58164E-01
 -1       363 3.75210E-01
 -1       364 2.95711E-01
 -1       365 2.25031E-01
 -1       366 1.65467E-01
 -1       367 1.17332E-01
 -1       368 8.55719E-02
 -1       369 6.16876E-02
 -1       370 4.48963E-02
 -1       371 3.64918E-02
 -1       372 2.98491E-02
 -1       373 2.36897E-02
 -1       374 1.81649E-02
 -1       375 1.33201E-02
 -1       376 1.09120E-02
 -1       377 8.45561E-03
 -1       378 5.97574E-03
 -1       379 4.13346E-03
 -1       380 2.89931E-03
 -1       381 9.57128E-01
 -1       382 7.32948E-01
 -1       383 6.99740E-01
 -1       384 6.80501E-01
 -1       385 8.47241E-01
 -1       386 1.02142E+00
 -1       387 1.15587E+00
 -1       388 1.15903E+00
 -1       389 1.11860E+00
 -1       390 9.80644E-01
 -1       391 1.09896E+00
 -1       392 1.80980E+00
 -1       393 2.37261E+00
 -1       394 2.82724E+00
 -1       395 2.71831E+00
 -1       396 2.79177E+00
 -1       397 2.41432E+00
 -1       398 1.40200E+00
 -1       399 9.88030E-01
 -1       400 1.11841E+00
 -1       401 1.28650E+00
 -1       402 1.30038E+00
 -1       403 1.25893E+00
 -1       404 1.12973E+00
 -1       405 9.97717E-01
 -1       406 8.34389E-01
 -1       407 6.69093E-01
 -1       408 5.18559E-01
 -1       409 3.90166E-01
 -1       410 2.85520E-01
 -1       411 2.06521E-01
 -1       412 1.54742E-01
 -1       413 1.13479E-01
 -1       414 8.12953E-02
 -1       415 5.66692E-02
 -1       416 3.81675E-02
 -1       417 2.76321E-02
 -1       418 2.32625E-02
 -1       419 1.89225E-02
 -1       420 1.48275E-02
 -1       421 1.10930E-02
 -1       422 8.94598E-03
 -1       423 7.27638E-03
 -1       424 5.56984E-03
 -1       425 4.06796E-03
 -1       426 2.79758E-03
 -1       427 1.37736E-03
 -1       428 2.00566E-03
 -1       429 2.16390E-03
 -1       430 1.52214E-03
 -1       431 1.53478E-03
 -1       432 1.53478E-03
 -1       433 1.50089E-03
 -1       434 1.48836E-03
 -1       435 1.50149E-03
 -1       436 1.50149E-03
 -1       437 1.47703E-03
 -1       438 1.34817E-03
 -1       439 2.37440E-03
 -1       440 2.83566E+01
 -1       441 3.05731E+01
 -1       442 2.39927E+01
 -1       443 1.66574E+01
 -1       444 9.44685E+00
 -1       445 9.91526E-01
 -1       446 9.52246E+00
 -1       447 1.11238E+01
 -1       448 1.11000E+01
 -1       449 7.66495E+00
 -1       450 6.82953E+00
 -1       451 1.32362E+01
 -1       452 2.37194E+01
 -1       453 2.83607E+01
 -1       454 3.67988E+01
 -1       455 3.67988E+01
 -1       456 2.51754E+01
 -1       457 1.99323E+01
 -1       458 1.09953E+01
 -1       459 5.52571E+00
 -1       460 8.84545E+00
 -1       461 1.00326E+01
 -1       462 1.02443E+01
 -1       463 9.62889E+00
 -1       464 7.79559E+00
 -1       465 9.17119E+00
 -1       466 1.73744E+01
 -1       467 2.88279E+01
 -1       468 2.85371E+01
 -1       469 7.59788E+00
 -1       470 3.05731E+01
 -1       471 2.46536E+01
 -1       472 4.68405E+00
 -1       473 6.01296E+00
 -1       474 1.07986E+01
 -1       475 4.33892E+00
 -1       476 7.69840E-01
 -1       477 5.06710E-01
 -1       478 5.75723E-01
 -1       479 3.43592E-01
 -1       480 3.99935E-01
 -1       481 4.85426E-01
 -1       482 5.62866E-01
 -1       483 6.13098E-01
 -1       484 8.85786E-01
 -1       485 4.29302E-01
 -1       486 5.81762E-01
 -1       487 5.35576E+00
 -1       488 3.95748E-01
 -1       489 3.16920E-01
 -1       490 3.67246E-01
 -1       491 4.49146E-01
 -1       492 5.40464E-01
 -1       493 6.15866E-01
 -1       494 6.45764E-01
 -1       495 8.41171E-01
 -1       496 9.77825E-01
 -1       497 1.22164E+00
 -1       498 1.38677E+00
 -1       499 1.58935E+00
 -1       500 1.98817E+00
 -1       501 1.97576E+00
 -1       502 2.13767E+00
 -1       503 1.58562E+00
 -1       504 1.32158E+00
 -1       505 1.11950E+00
 -1       506 9.89315E-01
 -1       507 8.37852E-01
 -1       508 7.76104E-01
 -1       509 7.63490E-01
 -1       510 7.01080E-01
 -1       511 6.28112E-01
 -1       512 5.67839E-01
 -1       513 4.95439E-01
 -1       514 4.14908E-01
 -1       515 3.35738E-01
 -1       516 2.63567E-01
 -1       517 2.01149E-01
 -1       518 1.49292E-01
 -1       519 1.07609E-01
 -1       520 7.50626E-02
 -1       521 5.03358E-02
 -1       522 3.20976E-02
 -1       523 2.22112E-02
 -1       524 1.74608E-02
 -1       525 1.48180E-02
 -1       526 1.20114E-02
 -1       527 9.24671E-03
 -1       528 6.70324E-03
 -1       529 5.29292E-03
 -1       530 3.80270E-03
 -1       531 5.67306E-01
 -1       532 7.68703E-01
 -1       533 9.52219E-01
 -1       534 1.08444E+00
 -1       535 1.28858E+00
 -1       536 1.46681E+00
 -1       537 1.53077E+00
 -1       538 1.82723E+00
 -1       539 2.34009E+00
 -1       540 3.24457E+00
 -1       541 5.60549E+00
 -1       542 4.49494E+00
 -1       543 4.56604E+00
 -1       544 3.80318E+00
 -1       545 2.99178E+00
 -1       546 2.06285E+00
 -1       547 1.60747E+00
 -1       548 1.62207E+00
 -1       549 1.49191E+00
 -1       550 1.30369E+00
 -1       551 1.18799E+00
 -1       552 1.05741E+00
 -1       553 8.95156E-01
 -1       554 7.29177E-01
 -1       555 5.75878E-01
 -1       556 4.43005E-01
 -1       557 3.32760E-01
 -1       558 2.44221E-01
 -1       559 1.74955E-01
 -1       560 1.21983E-01
 -1       561 8.23262E-02
 -1       562 5.34239E-02
 -1       563 3.72580E-02
 -1       564 2.76321E-02
 -1       565 2.32625E-02
 -1       566 1.89225E-02
 -1       567 1.48275E-02
 -1       568 1.10930E-02
 -1       569 8.61597E-03
 -1       570 6.69782E-03
 -1       571 4.76154E-03
 -1       572 3.31979E-03
 -1       573 1.86541E-03
 -1       574 1.76020E-03
 -1       575 2.87952E-03
 -1       576 1.97327E-03
 -1       577 1.60972E-03
 -1       578 1.50613E-03
 -1       579 1.57911E-03
 -1       580 1.70569E-03
 -1       581 1.77494E-03
 -1       582 1.77494E-03
 -1       583 1.86524E-03
 -1       584 1.34970E+01
 -1       585 3.85339E-01
 -1       586 5.75986E+00
 -1       587 9.62156E+00
 -1       588 2.85371E+01
 -1       589 8.04590E+00
 -1       590 2.83607E+01
 -1       591 6.15667E+00
 -1       592 4.25370E-01
 -1       593 7.91867E+00
 -1       594 8.70137E+00
 -1       595 1.73932E+01
 -1       596 7.35050E+00
 -1       597 6.72900E+00
 -1       598 1.21836E+01
 -1       599 3.67988E+01
 -1       600 2.51754E+01
 -1       601 1.45423E+01
 -1       602 7.29264E+00
 -1       603 6.67101E+00
 -1       604 8.47105E+00
 -1       605 4.93768E+00
 -1       606 1.33523E+01
 -1       607 8.67537E-01
 -1       608 1.10150E+00
 -1       609 1.98099E+01
 -1       610 5.75723E-01
 -1       611 6.12407E-01
 -1       612 9.33542E+00
 -1       613 1.94733E+01
 -1       614 5.60549E+00
 -1       615 2.49328E-03
 -1       616 1.37668E+01
 -1       617 3.00554E+00
 -1       618 2.85906E+00
 -1       619 5.23065E+00
 -1       620 4.56604E+00
 -1       621 3.19759E-01
 -1       622 2.43247E-01
 -1       623 5.24701E-01
 -1       624 5.76763E-01
 -1       625 5.81856E-01
 -1       626 5.65285E+00
 -1       627 4.02294E-01
 -1       628 4.05994E-01
 -1       629 4.76532E-01
 -1       630 5.87929E-01
 -1       631 7.28143E-01
 -1       632 8.78393E-01
 -1       633 1.00788E+00
 -1       634 1.28273E+00
 -1       635 1.54430E+00
 -1       636 1.78365E+00
 -1       637 1.78474E+00
 -1       638 2.29369E+00
 -1       639 2.91976E+00
 -1       640 6.02915E+00
 -1       641 4.56065E+00
 -1       642 3.13240E+00
 -1       643 1.65125E+00
 -1       644 1.60420E+00
 -1       645 1.29094E+00
 -1       646 1.11097E+00
 -1       647 9.94247E-01
 -1       648 8.47309E-01
 -1       649 7.12165E-01
 -1       650 6.29575E-01
 -1       651 5.37585E-01
 -1       652 4.45647E-01
 -1       653 3.60252E-01
 -1       654 2.84707E-01
 -1       655 2.20238E-01
 -1       656 1.66791E-01
 -1       657 1.23570E-01
 -1       658 8.93998E-02
 -1       659 6.29630E-02
 -1       660 4.29505E-02
 -1       661 2.81476E-02
 -1       662 1.74791E-02
 -1       663 1.06036E-02
 -1       664 8.47401E-03
 -1       665 7.51011E-03
 -1       666 6.19238E-03
 -1       667 4.73157E-03
 -1       668 3.43604E-03
 -1       669 9.12467E-01
 -1       670 7.05824E-01
 -1       671 1.35090E+00
 -1       672 1.68342E+00
 -1       673 2.16873E+00
 -1       674 2.60579E+00
 -1       675 2.65678E+00
 -1       676 3.96394E+00
 -1       677 3.41988E+00
 -1       678 2.76472E+00
 -1       679 2.42898E+00
 -1       680 1.97446E+00
 -1       681 1.55844E+00
 -1       682 1.37181E+00
 -1       683 1.16539E+00
 -1       684 9.62312E-01
 -1       685 7.77083E-01
 -1       686 6.15652E-01
 -1       687 4.79325E-01
 -1       688 3.66936E-01
 -1       689 2.76148E-01
 -1       690 2.04131E-01
 -1       691 1.47974E-01
 -1       692 1.04908E-01
 -1       693 7.24424E-02
 -1       694 4.84111E-02
 -1       695 3.09838E-02
 -1       696 1.87134E-02
 -1       697 1.30256E-02
 -1       698 1.15583E-02
 -1       699 9.68291E-03
 -1       700 7.65560E-03
 -1       701 5.64726E-03
 -1       702 4.22955E-03
 -1       703 3.49391E-03
 -1       704 1.49809E-03
 -1       705 2.55934E-03
 -1       706 1.97438E-03
 -1       707 1.50613E-03
 -1       708 1.60972E-03
 -1       709 5.39320E-01
 -1       710 1.57911E-03
 -1       711 1.90066E-03
 -1       712 2.08863E-03
 -1       713 1.08244E+01
 -1       714 8.24332E+00
 -1       715 1.13766E+00
 -1       716 4.31352E-01
 -1       717 1.19153E+01
 -1       718 1.04259E+01
 -1       719 4.12223E-01
 -1       720 3.88019E+00
 -1       721 3.80318E+00
 -1       722 1.82646E+01
 -1       723 7.11159E+00
 -1       724 4.32779E-01
 -1       725 4.42471E+00
 -1       726 4.29860E-01
 -1       727 7.19596E+00
 -1       728 5.97897E+00
 -1       729 5.60549E+00
 -1       730 1.27239E+01
 -1       731 7.33637E+00
 -1       732 1.50056E+01
 -1       733 6.02915E+00
 -1       734 6.02915E+00
 -1       735 1.50056E+01
 -1       736 1.44581E+01
 -1       737 5.22546E+00
 -1       738 4.96809E-01
 -1       739 2.80380E-01
 -1       740 5.02640E+00
 -1       741 3.99378E+00
 -1       742 7.37308E+00
 -1       743 1.08027E+01
 -1       744 2.24854E-03
 -1       745 7.78665E+00
 -1       746 2.52990E-03
 -1       747 3.12237E+00
 -1       748 4.44415E+00
 -1       749 3.56613E-01
 -1       750 1.37357E+01
 -1       751 5.10775E-01
 -1       752 4.56065E+00
 -1       753 2.63770E-03
 -1       754 6.04403E+00
 -1       755 5.03195E-01
 -1       756 4.69375E-01
 -1       757 4.51875E-01
 -1       758 9.02684E+00
 -1       759 5.15966E-01
 -1       760 6.34699E-01
 -1       761 7.85853E-01
 -1       762 9.82641E-01
 -1       763 1.28091E+00
 -1       764 1.61383E+00
 -1       765 1.93086E+00
 -1       766 1.88372E+00
 -1       767 2.52131E+00
 -1       768 2.57112E+00
 -1       769 3.13240E+00
 -1       770 2.98451E+00
 -1       771 1.98028E+00
 -1       772 1.69728E+00
 -1       773 1.37292E+00
 -1       774 1.07045E+00
 -1       775 8.97227E-01
 -1       776 7.38808E-01
 -1       777 6.01412E-01
 -1       778 4.82159E-01
 -1       779 3.78992E-01
 -1       780 2.96158E-01
 -1       781 2.32538E-01
 -1       782 1.77480E-01
 -1       783 1.31724E-01
 -1       784 9.49251E-02
 -1       785 6.76370E-02
 -1       786 4.68018E-02
 -1       787 3.21310E-02
 -1       788 2.13443E-02
 -1       789 1.35930E-02
 -1       790 8.17893E-03
 -1       791 4.89556E-03
 -1       792 4.42086E-03
 -1       793 4.01795E-03
 -1       794 3.31805E-03
 -1       795 1.44277E-03
 -1       796 2.46576E+00
 -1       797 1.90981E+00
 -1       798 3.51929E+00
 -1       799 2.24808E+00
 -1       800 1.75190E+00
 -1       801 1.34209E+00
 -1       802 1.04650E+00
 -1       803 8.12354E-01
 -1       804 6.46605E-01
 -1       805 5.01555E-01
 -1       806 3.80559E-01
 -1       807 2.82821E-01
 -1       808 2.07325E-01
 -1       809 1.53861E-01
 -1       810 1.12324E-01
 -1       811 8.04346E-02
 -1       812 5.62937E-02
 -1       813 3.83140E-02
 -1       814 2.51750E-02
 -1       815 1.57894E-02
 -1       816 9.27214E-03
 -1       817 6.30903E-03
 -1       818 5.92724E-03
 -1       819 5.07213E-03
 -1       820 3.96479E-03
 -1       821 3.06642E-03
 -1       822 6.66525E-01
 -1       823 1.36292E-03
 -1       824 2.08863E-03
 -1       825 3.43284E+00
 -1       826 8.65665E+00
 -1       827 4.16064E-01
 -1       828 5.10775E-01
 -1       829 1.62260E-03
 -1       830 3.06303E+00
 -1       831 4.10398E+00
 -1       832 3.34201E+00
 -1       833 8.15422E-01
 -1       834 5.53871E+00
 -1       835 7.06214E+00
 -1       836 5.41675E+00
 -1       837 2.85963E-01
 -1       838 8.81113E+00
 -1       839 2.84146E+00
 -1       840 1.09290E+01
 -1       841 8.18553E+00
 -1       842 9.46467E+00
 -1       843 2.09043E-01
 -1       844 4.82437E-01
 -1       845 7.46641E+00
 -1       846 6.64641E+00
 -1       847 2.24321E-03
 -1       848 2.91976E+00
 -1       849 1.08086E+00
 -1       850 1.45051E+00
 -1       851 1.67130E-03
 -1       852 1.46605E-03
 -1       853 3.99917E+00
 -1       854 7.54225E+00
 -1       855 6.10120E-01
 -1       856 3.27891E+00
 -1       857 5.03228E+00
 -1       858 6.08877E+00
 -1       859 1.09290E+01
 -1       860 3.75012E-01
 -1       861 2.63770E-03
 -1       862 5.10775E-01
 -1       863 4.94443E+00
 -1       864 3.79583E-01
 -1       865 6.08877E+00
 -1       866 5.82339E-01
 -1       867 6.33621E-01
 -1       868 8.26649E-01
 -1       869 1.11937E+00
 -1       870 1.46337E+00
 -1       871 1.85295E+00
 -1       872 2.88944E+00
 -1       873 3.15450E+00
 -1       874 3.27891E+00
 -1       875 2.62721E+00
 -1       876 1.91558E+00
 -1       877 1.55208E+00
 -1       878 1.19778E+00
 -1       879 8.97348E-01
 -1       880 7.01133E-01
 -1       881 5.58884E-01
 -1       882 4.60657E-01
 -1       883 3.71821E-01
 -1       884 2.93503E-01
 -1       885 2.26898E-01
 -1       886 1.71797E-01
 -1       887 1.27274E-01
 -1       888 9.20691E-02
 -1       889 6.48093E-02
 -1       890 4.48600E-02
 -1       891 3.03252E-02
 -1       892 1.96362E-02
 -1       893 1.19740E-02
 -1       894 6.68758E-03
 -1       895 3.29974E-03
 -1       896 2.58682E-03
 -1       897 5.21568E+00
 -1       898 1.30167E+00
 -1       899 2.85687E+00
 -1       900 2.31404E+00
 -1       901 1.03148E+00
 -1       902 8.07253E-01
 -1       903 6.24680E-01
 -1       904 4.78212E-01
 -1       905 3.61715E-01
 -1       906 2.69928E-01
 -1       907 1.98359E-01
 -1       908 1.43188E-01
 -1       909 1.01196E-01
 -1       910 7.04854E-02
 -1       911 4.83383E-02
 -1       912 3.20396E-02
 -1       913 2.03317E-02
 -1       914 1.21941E-02
 -1       915 6.94424E-03
 -1       916 4.01969E-03
 -1       917 3.41811E-03
 -1       918 3.26445E-03
 -1       919 1.61160E-03
 -1       920 2.34657E-03
 -1       921 6.30495E+00
 -1       922 1.68131E+00
 -1       923 4.10398E+00
 -1       924 8.33754E-01
 -1       925 2.89559E+00
 -1       926 2.83594E-01
 -1       927 4.91978E-01
 -1       928 7.96748E+00
 -1       929 6.87146E+00
 -1       930 6.87146E+00
 -1       931 6.57097E-01
 -1       932 1.61160E-03
 -1       933 6.07753E+00
 -1       934 1.41899E+00
 -1       935 3.23549E+00
 -1       936 2.82378E-03
 -1       937 6.40276E-01
 -1       938 2.12874E-03
 -1       939 6.53125E+00
 -1       940 5.29632E+00
 -1       941 5.16817E+00
 -1       942 5.51511E-01
 -1       943 3.42926E+00
 -1       944 3.66572E+00
 -1       945 2.40934E-03
 -1       946 4.70482E-01
 -1       947 4.97719E+00
 -1       948 3.82418E-01
 -1       949 3.36517E+00
 -1       950 1.70939E-03
 -1       951 5.36371E-01
 -1       952 3.74307E-01
 -1       953 2.40934E-03
 -1       954 7.89167E-01
 -1       955 1.07944E+00
 -1       956 1.56664E+00
 -1       957 2.99288E+00
 -1       958 3.77292E+00
 -1       959 2.73877E+00
 -1       960 2.34306E+00
 -1       961 1.59540E+00
 -1       962 1.14292E+00
 -1       963 8.65012E-01
 -1       964 7.01133E-01
 -1       965 5.58884E-01
 -1       966 4.40392E-01
 -1       967 3.43268E-01
 -1       968 2.64380E-01
 -1       969 2.00885E-01
 -1       970 1.50314E-01
 -1       971 1.10515E-01
 -1       972 7.96145E-02
 -1       973 5.59816E-02
 -1       974 3.82100E-02
 -1       975 2.59315E-02
 -1       976 1.69610E-02
 -1       977 1.05111E-02
 -1       978 5.99877E-03
 -1       979 3.35731E-03
 -1       980 5.59623E+00
 -1       981 9.35813E-01
 -1       982 2.30045E+00
 -1       983 3.32013E+00
 -1       984 7.09828E-01
 -1       985 5.40621E-01
 -1       986 4.10848E-01
 -1       987 3.10388E-01
 -1       988 2.32306E-01
 -1       989 1.71702E-01
 -1       990 1.24940E-01
 -1       991 8.91947E-02
 -1       992 6.22015E-02
 -1       993 4.26395E-02
 -1       994 2.87756E-02
 -1       995 1.86630E-02
 -1       996 1.14524E-02
 -1       997 6.46326E-03
 -1       998 4.44084E-03
 -1       999 5.21568E+00
 -1      1000 4.14161E-01
 -1      1001 8.20911E-01
 -1      1002 4.34323E+00
 -1      1003 6.57097E-01
 -1      1004 5.82339E-01
 -1      1005 1.24765E+00
 -1      1006 6.33621E-01
 -1      1007 4.90049E+00
 -1      1008 3.46368E-03
 -1      1009 4.06651E+00
 -1      1010 2.94840E+00
 -1      1011 1.68131E+00
 -1      1012 2.26847E+00
 -1      1013 3.46368E-03
 -1      1014 3.80110E+00
 -1      1015 4.74926E+00
 -1      1016 4.12282E+00
 -1      1017 1.11647E+00
 -1      1018 4.44084E-03
 -1      1019 4.97948E-01
 -1      1020 3.77292E+00
 -1      1021 3.31738E+00
 -1      1022 6.01367E-01
 -1      1023 3.08669E-03
 -1      1024 1.43061E+00
 -1      1025 2.55106E+00
 -1      1026 2.73877E+00
 -1      1027 4.85698E+00
 -1      1028 2.11690E+00
 -1      1029 1.52349E+00
 -1      1030 1.14292E+00
 -1      1031 8.63363E-01
 -1      1032 6.50081E-01
 -1      1033 4.92305E-01
 -1      1034 3.74030E-01
 -1      1035 2.83587E-01
 -1      1036 2.13796E-01
 -1      1037 1.59752E-01
 -1      1038 1.17953E-01
 -1      1039 8.57877E-02
 -1      1040 6.12419E-02
 -1      1041 4.27189E-02
 -1      1042 2.89346E-02
 -1      1043 1.98157E-02
 -1      1044 1.33553E-02
 -1      1045 8.55783E-03
 -1      1046 4.95108E-03
 -1      1047 4.14397E-01
 -1      1048 2.65750E+00
 -1      1049 7.23761E-01
 -1      1050 3.15897E-01
 -1      1051 2.39822E-01
 -1      1052 1.80465E-01
 -1      1053 1.34112E-01
 -1      1054 9.81051E-02
 -1      1055 7.03976E-02
 -1      1056 4.93425E-02
 -1      1057 3.35843E-02
 -1      1058 2.28132E-02
 -1      1059 1.49524E-02
 -1      1060 9.33359E-03
 -1      1061 5.82917E-03
 -1      1062 5.44992E-01
 -1      1063 3.67958E+00
 -1      1064 1.07944E+00
 -1      1065 6.06081E-01
 -1      1066 3.15252E+00
 -1      1067 2.48662E+00
 -1      1068 3.32013E+00
 -1      1069 7.90336E-01
 -1      1070 9.36050E-01
 -1      1071 1.73871E+00
 -1      1072 7.75552E-01
 -1      1073 4.02470E+00
 -1      1074 4.02470E+00
 -1      1075 4.86085E-03
 -1      1076 1.65371E+00
 -1      1077 1.44726E+00
 -1      1078 8.02773E-01
 -1      1079 8.02773E-01
 -1      1080 5.97075E-01
 -1      1081 3.53773E+00
 -1      1082 7.45438E-01
 -1      1083 2.11690E+00
 -1      1084 1.46778E+00
 -1      1085 1.03510E+00
 -1      1086 6.92098E-01
 -1      1087 5.03428E-01
 -1      1088 3.69932E-01
 -1      1089 2.90596E-01
 -1      1090 2.26913E-01
 -1      1091 1.75323E-01
 -1      1092 1.33722E-01
 -1      1093 1.00456E-01
 -1      1094 7.41478E-02
 -1      1095 5.36079E-02
 -1      1096 3.77999E-02
 -1      1097 2.58491E-02
 -1      1098 1.77303E-02
 -1      1099 1.15725E-02
 -1      1100 5.96701E-03
 -1      1101 2.28950E+00
 -1      1102 2.19259E-01
 -1      1103 3.50044E-01
 -1      1104 1.62144E+00
 -1      1105 1.69753E-01
 -1      1106 1.29220E-01
 -1      1107 9.65422E-02
 -1      1108 7.06329E-02
 -1      1109 5.04457E-02
 -1      1110 3.57631E-02
 -1      1111 2.46794E-02
 -1      1112 1.62151E-02
 -1      1113 1.01957E+00
 -1      1114 2.17680E+00
 -1      1115 2.78917E-01
 -1      1116 1.73731E+00
 -1      1117 2.17808E+00
 -1      1118 1.44726E+00
 -1      1119 3.53773E+00
 -1      1120 2.94012E+00
 -1      1121 1.46778E+00
 -1      1122 1.62144E+00
 -1      1123 4.33973E-01
 -1      1124 1.31602E+00
 -1      1125 8.12202E-03
 -1      1126 4.18706E-03
 -1      1127 5.51220E-01
 -1      1128 2.17808E+00
 -1      1129 2.35815E+00
 -1      1130 1.27672E+01
 -1      1131 8.15127E+00
 -1      1132 2.69243E+00
 -1      1133 1.59994E+00
 -1      1134 1.21414E+00
 -1      1135 9.83366E-01
 -1      1136 8.15674E-01
 -1      1137 6.87389E-01
 -1      1138 6.26301E-01
 -1      1139 6.74664E-01
 -1      1140 7.99450E-01
 -1      1141 9.72765E-01
 -1      1142 1.21885E+00
 -1      1143 1.61005E+00
 -1      1144 2.61346E+00
 -1      1145 5.81744E+00
 -1      1146 1.09560E+01
 -1      1147 1.27672E+01
 -1      1148 8.46990E+00
 -1      1149 3.61041E+00
 -1      1150 2.44469E+00
 -1      1151 1.57579E+00
 -1      1152 1.11684E+00
 -1      1153 7.99291E-01
 -1      1154 6.70377E-01
 -1      1155 7.61404E-01
 -1      1156 8.93990E-01
 -1      1157 9.30602E-01
 -1      1158 9.28364E-01
 -1      1159 1.03660E+00
 -1      1160 1.32008E+00
 -1      1161 2.02561E+00
 -1      1162 2.89037E+00
 -1      1163 3.22259E+00
 -1      1164 3.22761E+00
 -1      1165 3.23264E+00
 -1      1166 2.88690E+00
 -1      1167 2.01323E+00
 -1      1168 1.34362E+00
 -1      1169 1.11299E+00
 -1      1170 1.02302E+00
 -1      1171 1.00507E+00
 -1      1172 9.75815E-01
 -1      1173 9.03183E-01
 -1      1174 7.63360E-01
 -1      1175 6.14891E-01
 -1      1176 4.86861E-01
 -1      1177 3.99682E-01
 -1      1178 3.40254E-01
 -1      1179 2.78417E-01
 -1      1180 2.20284E-01
 -1      1181 1.69070E-01
 -1      1182 1.26011E-01
 -1      1183 9.74942E-02
 -1      1184 8.07199E-02
 -1      1185 6.59188E-02
 -1      1186 5.25096E-02
 -1      1187 4.08004E-02
 -1      1188 3.08402E-02
 -1      1189 2.34542E-02
 -1      1190 1.86204E-02
 -1      1191 1.46744E-02
 -1      1192 1.08444E-02
 -1      1193 7.31006E-03
 -1      1194 5.30693E-03
 -1      1195 4.11339E-03
 -1      1196 1.96971E-03
 -1      1197 1.36460E+01
 -1      1198 8.49723E+00
 -1      1199 2.81868E+00
 -1      1200 1.94638E+00
 -1      1201 1.48937E+00
 -1      1202 1.27665E+00
 -1      1203 1.08507E+00
 -1      1204 9.96398E-01
 -1      1205 1.00111E+00
 -1      1206 1.10489E+00
 -1      1207 1.32934E+00
 -1      1208 1.52939E+00
 -1      1209 1.75366E+00
 -1      1210 1.97036E+00
 -1      1211 2.29650E+00
 -1      1212 3.27363E+00
 -1      1213 4.23258E+00
 -1      1214 4.72793E+00
 -1      1215 4.98713E+00
 -1      1216 4.32838E+00
 -1      1217 2.85030E+00
 -1      1218 1.75628E+00
 -1      1219 1.59055E+00
 -1      1220 1.72192E+00
 -1      1221 1.74433E+00
 -1      1222 1.65849E+00
 -1      1223 1.44795E+00
 -1      1224 1.21088E+00
 -1      1225 9.84979E-01
 -1      1226 7.68690E-01
 -1      1227 5.79015E-01
 -1      1228 4.29581E-01
 -1      1229 3.24533E-01
 -1      1230 2.46876E-01
 -1      1231 1.83573E-01
 -1      1232 1.33371E-01
 -1      1233 9.44562E-02
 -1      1234 6.53790E-02
 -1      1235 4.87310E-02
 -1      1236 4.01523E-02
 -1      1237 3.23306E-02
 -1      1238 2.54174E-02
 -1      1239 2.05158E-02
 -1      1240 1.75309E-02
 -1      1241 1.47683E-02
 -1      1242 1.17509E-02
 -1      1243 8.67257E-03
 -1      1244 6.04992E-03
 -1      1245 3.99624E-03
 -1      1246 1.84568E-03
 -1      1247 1.03420E-03
 -1      1248 1.28545E-03
 -1      1249 8.38974E-04
 -1      1250 4.80136E-04
 -1      1251 5.17525E-04
 -1      1252 6.43159E-04
 -1      1253 6.92301E-04
 -1      1254 7.03109E-04
 -1      1255 7.01811E-04
 -1      1256 6.97755E-04
 -1      1257 6.77988E-04
 -1      1258 6.23479E-04
 -1      1259 4.99392E-04
 -1      1260 4.83301E-04
 -1      1261 1.02752E-03
 -1      1262 1.84332E-03
 -1      1263 1.42760E-03
 -1      1264 2.60173E+01
 -1      1265 3.66377E+01
 -1      1266 4.72581E+01
 -1      1267 3.39368E+01
 -1      1268 1.63922E+01
 -1      1269 1.22695E+01
 -1      1270 1.23700E+01
 -1      1271 1.29700E+01
 -1      1272 1.35701E+01
 -1      1273 1.41407E+01
 -1      1274 2.74493E+01
 -1      1275 4.01872E+01
 -1      1276 3.25100E+01
 -1      1277 2.48329E+01
 -1      1278 2.48932E+01
 -1      1279 2.65091E+01
 -1      1280 2.96313E+01
 -1      1281 3.01703E+01
 -1      1282 2.09619E+01
 -1      1283 1.27812E+01
 -1      1284 1.24957E+01
 -1      1285 1.21941E+01
 -1      1286 1.21070E+01
 -1      1287 1.18976E+01
 -1      1288 1.62930E+01
 -1      1289 3.44543E+01
 -1      1290 4.80817E+01
 -1      1291 3.65052E+01
 -1      1292 2.54730E+01
 -1      1293 1.27672E+01
 -1      1294 4.68579E+00
 -1      1295 9.30172E+00
 -1      1296 2.09180E+00
 -1      1297 2.93471E+00
 -1      1298 4.08516E+00
 -1      1299 1.46813E+00
 -1      1300 1.71772E+00
 -1      1301 1.95999E+00
 -1      1302 1.14656E+00
 -1      1303 1.28277E+00
 -1      1304 1.40055E+00
 -1      1305 9.34926E-01
 -1      1306 1.02950E+00
 -1      1307 1.09813E+00
 -1      1308 7.79030E-01
 -1      1309 8.52152E-01
 -1      1310 8.98283E-01
 -1      1311 6.59954E-01
 -1      1312 7.15118E-01
 -1      1313 7.51596E-01
 -1      1314 6.07753E-01
 -1      1315 6.13677E-01
 -1      1316 6.41407E-01
 -1      1317 7.01984E-01
 -1      1318 6.47696E-01
 -1      1319 6.35073E-01
 -1      1320 8.34631E-01
 -1      1321 7.64134E-01
 -1      1322 7.37165E-01
 -1      1323 1.02621E+00
 -1      1324 9.23387E-01
 -1      1325 8.88072E-01
 -1      1326 1.29210E+00
 -1      1327 1.14883E+00
 -1      1328 1.09946E+00
 -1      1329 1.73162E+00
 -1      1330 1.48369E+00
 -1      1331 1.41367E+00
 -1      1332 2.84430E+00
 -1      1333 2.08883E+00
 -1      1334 1.96247E+00
 -1      1335 6.02559E+00
 -1      1336 3.57708E+00
 -1      1337 3.05245E+00
 -1      1338 1.36460E+01
 -1      1339 1.09560E+01
 -1      1340 8.71560E+00
 -1      1341 1.36460E+01
 -1      1342 8.46990E+00
 -1      1343 4.17259E+00
 -1      1344 3.61041E+00
 -1      1345 3.04823E+00
 -1      1346 3.61041E+00
 -1      1347 2.44469E+00
 -1      1348 1.84114E+00
 -1      1349 2.44469E+00
 -1      1350 1.57579E+00
 -1      1351 1.31043E+00
 -1      1352 1.57579E+00
 -1      1353 1.11684E+00
 -1      1354 9.23257E-01
 -1      1355 1.11684E+00
 -1      1356 7.99291E-01
 -1      1357 6.75325E-01
 -1      1358 7.99291E-01
 -1      1359 6.70377E-01
 -1      1360 6.65430E-01
 -1      1361 6.70377E-01
 -1      1362 6.61195E-01
 -1      1363 7.57170E-01
 -1      1364 6.61195E-01
 -1      1365 8.57379E-01
 -1      1366 8.93990E-01
 -1      1367 7.57170E-01
 -1      1368 9.30602E-01
 -1      1369 9.30602E-01
 -1      1370 8.93990E-01
 -1      1371 9.11932E-01
 -1      1372 9.09694E-01
 -1      1373 9.11932E-01
 -1      1374 9.26126E-01
 -1      1375 1.03660E+00
 -1      1376 9.09694E-01
 -1      1377 1.14708E+00
 -1      1378 1.32008E+00
 -1      1379 1.03660E+00
 -1      1380 1.58406E+00
 -1      1381 2.11659E+00
 -1      1382 1.41106E+00
 -1      1383 2.55815E+00
 -1      1384 2.89037E+00
 -1      1385 2.11659E+00
 -1      1386 3.22259E+00
 -1      1387 3.22259E+00
 -1      1388 2.89037E+00
 -1      1389 3.19265E+00
 -1      1390 3.19767E+00
 -1      1391 3.19265E+00
 -1      1392 3.23264E+00
 -1      1393 3.23264E+00
 -1      1394 3.19767E+00
 -1      1395 2.88690E+00
 -1      1396 2.54117E+00
 -1      1397 2.88690E+00
 -1      1398 2.09530E+00
 -1      1399 1.56736E+00
 -1      1400 2.09530E+00
 -1      1401 1.34362E+00
 -1      1402 1.20194E+00
 -1      1403 1.42569E+00
 -1      1404 1.11299E+00
 -1      1405 1.02402E+00
 -1      1406 1.11299E+00
 -1      1407 1.02302E+00
 -1      1408 1.02202E+00
 -1      1409 1.02302E+00
 -1      1410 1.00507E+00
 -1      1411 9.88107E-01
 -1      1412 1.00507E+00
 -1      1413 9.75815E-01
 -1      1414 9.63523E-01
 -1      1415 9.75815E-01
 -1      1416 9.03183E-01
 -1      1417 8.42844E-01
 -1      1418 9.03183E-01
 -1      1419 7.68508E-01
 -1      1420 6.89024E-01
 -1      1421 7.68508E-01
 -1      1422 6.35740E-01
 -1      1423 5.66755E-01
 -1      1424 6.40888E-01
 -1      1425 5.23861E-01
 -1      1426 4.64816E-01
 -1      1427 5.44710E-01
 -1      1428 4.17456E-01
 -1      1429 3.89321E-01
 -1      1430 4.54455E-01
 -1      1431 3.43735E-01
 -1      1432 3.12443E-01
 -1      1433 3.61509E-01
 -1      1434 2.78417E-01
 -1      1435 2.47873E-01
 -1      1436 2.81899E-01
 -1      1437 2.20648E-01
 -1      1438 1.93059E-01
 -1      1439 2.20648E-01
 -1      1440 1.72051E-01
 -1      1441 1.48425E-01
 -1      1442 1.72414E-01
 -1      1443 1.30403E-01
 -1      1444 1.10970E-01
 -1      1445 1.33384E-01
 -1      1446 9.74942E-02
 -1      1447 8.84099E-02
 -1      1448 1.01886E-01
 -1      1449 8.07199E-02
 -1      1450 7.30299E-02
 -1      1451 8.07199E-02
 -1      1452 6.59188E-02
 -1      1453 5.88078E-02
 -1      1454 6.59188E-02
 -1      1455 5.25096E-02
 -1      1456 4.62114E-02
 -1      1457 5.25096E-02
 -1      1458 4.08004E-02
 -1      1459 3.53895E-02
 -1      1460 4.08004E-02
 -1      1461 3.09344E-02
 -1      1462 2.63851E-02
 -1      1463 3.09344E-02
 -1      1464 2.34542E-02
 -1      1465 2.06174E-02
 -1      1466 2.35483E-02
 -1      1467 1.86204E-02
 -1      1468 1.66235E-02
 -1      1469 1.86204E-02
 -1      1470 1.46744E-02
 -1      1471 1.27254E-02
 -1      1472 1.46744E-02
 -1      1473 1.08783E-02
 -1      1474 8.99731E-03
 -1      1475 1.08783E-02
 -1      1476 7.56427E-03
 -1      1477 5.91091E-03
 -1      1478 7.59816E-03
 -1      1479 5.30693E-03
 -1      1480 4.95716E-03
 -1      1481 5.56114E-03
 -1      1482 4.11339E-03
 -1      1483 3.26962E-03
 -1      1484 4.11339E-03
 -1      1485 2.72751E-03
 -1      1486 2.72751E-03
 -1      1487 3.34849E+00
 -1      1488 8.49723E+00
 -1      1489 8.49723E+00
 -1      1490 2.28886E+00
 -1      1491 2.81868E+00
 -1      1492 2.81868E+00
 -1      1493 1.60390E+00
 -1      1494 1.94638E+00
 -1      1495 1.94638E+00
 -1      1496 1.37485E+00
 -1      1497 1.48937E+00
 -1      1498 1.48937E+00
 -1      1499 1.17845E+00
 -1      1500 1.27665E+00
 -1      1501 1.27665E+00
 -1      1502 9.91687E-01
 -1      1503 1.08507E+00
 -1      1504 1.08507E+00
 -1      1505 9.92229E-01
 -1      1506 9.87517E-01
 -1      1507 9.87517E-01
 -1      1508 1.00111E+00
 -1      1509 1.00111E+00
 -1      1510 9.92229E-01
 -1      1511 1.09966E+00
 -1      1512 9.95879E-01
 -1      1513 9.95879E-01
 -1      1514 1.32934E+00
 -1      1515 1.20867E+00
 -1      1516 1.09966E+00
 -1      1517 1.52939E+00
 -1      1518 1.45002E+00
 -1      1519 1.32934E+00
 -1      1520 1.75366E+00
 -1      1521 1.60877E+00
 -1      1522 1.52939E+00
 -1      1523 1.97036E+00
 -1      1524 1.89856E+00
 -1      1525 1.75366E+00
 -1      1526 2.29650E+00
 -1      1527 2.04216E+00
 -1      1528 1.97036E+00
 -1      1529 3.34259E+00
 -1      1530 2.61980E+00
 -1      1531 2.36546E+00
 -1      1532 4.23258E+00
 -1      1533 3.99643E+00
 -1      1534 3.34259E+00
 -1      1535 4.72793E+00
 -1      1536 4.46873E+00
 -1      1537 4.23258E+00
 -1      1538 4.98713E+00
 -1      1539 4.98713E+00
 -1      1540 4.72793E+00
 -1      1541 3.66964E+00
 -1      1542 4.32838E+00
 -1      1543 4.32838E+00
 -1      1544 2.03097E+00
 -1      1545 2.85030E+00
 -1      1546 2.85030E+00
 -1      1547 1.36048E+00
 -1      1548 1.63517E+00
 -1      1549 1.63517E+00
 -1      1550 1.59055E+00
 -1      1551 1.48160E+00
 -1      1552 1.36048E+00
 -1      1553 1.72192E+00
 -1      1554 1.69950E+00
 -1      1555 1.59055E+00
 -1      1556 1.74433E+00
 -1      1557 1.74433E+00
 -1      1558 1.72192E+00
 -1      1559 1.57265E+00
 -1      1560 1.65849E+00
 -1      1561 1.65849E+00
 -1      1562 1.32326E+00
 -1      1563 1.44795E+00
 -1      1564 1.44795E+00
 -1      1565 1.09896E+00
 -1      1566 1.21134E+00
 -1      1567 1.21134E+00
 -1      1568 8.84873E-01
 -1      1569 9.98394E-01
 -1      1570 9.98854E-01
 -1      1571 6.85727E-01
 -1      1572 7.88495E-01
 -1      1573 8.01910E-01
 -1      1574 5.13965E-01
 -1      1575 6.00872E-01
 -1      1576 6.20677E-01
 -1      1577 3.80829E-01
 -1      1578 4.43355E-01
 -1      1579 4.65212E-01
 -1      1580 2.83766E-01
 -1      1581 3.26288E-01
 -1      1582 3.40061E-01
 -1      1583 2.11740E-01
 -1      1584 2.46876E-01
 -1      1585 2.48630E-01
 -1      1586 1.55406E-01
 -1      1587 1.83573E-01
 -1      1588 1.83573E-01
 -1      1589 1.12407E-01
 -1      1590 1.34443E-01
 -1      1591 1.34443E-01
 -1      1592 7.94365E-02
 -1      1593 9.63150E-02
 -1      1594 9.73874E-02
 -1      1595 5.49247E-02
 -1      1596 6.71235E-02
 -1      1597 6.89823E-02
 -1      1598 4.42817E-02
 -1      1599 4.87310E-02
 -1      1600 5.04755E-02
 -1      1601 3.60230E-02
 -1      1602 4.01523E-02
 -1      1603 4.01523E-02
 -1      1604 2.86382E-02
 -1      1605 3.23306E-02
 -1      1606 3.23306E-02
 -1      1607 2.21965E-02
 -1      1608 2.54174E-02
 -1      1609 2.54174E-02
 -1      1610 1.88351E-02
 -1      1611 2.05158E-02
 -1      1612 2.05158E-02
 -1      1613 1.62267E-02
 -1      1614 1.75309E-02
 -1      1615 1.75309E-02
 -1      1616 1.33100E-02
 -1      1617 1.47683E-02
 -1      1618 1.47683E-02
 -1      1619 1.01918E-02
 -1      1620 1.17509E-02
 -1      1621 1.17509E-02
 -1      1622 7.15330E-03
 -1      1623 8.67257E-03
 -1      1624 8.67257E-03
 -1      1625 4.94653E-03
 -1      1626 6.04992E-03
 -1      1627 6.04992E-03
 -1      1628 3.04595E-03
 -1      1629 3.99624E-03
 -1      1630 3.99624E-03
 -1      1631 2.23447E-03
 -1      1632 1.17012E-03
 -1      1633 1.30767E-03
 -1      1634 7.76256E-04
 -1      1635 1.08518E-03
 -1      1636 1.10740E-03
 -1      1637 5.66690E-04
 -1      1638 6.16600E-04
 -1      1639 8.62810E-04
 -1      1640 8.10163E-04
 -1      1641 7.22864E-04
 -1      1642 8.59328E-04
 -1      1643 9.27939E-04
 -1      1644 8.89605E-04
 -1      1645 1.09494E-03
 -1      1646 9.64464E-04
 -1      1647 9.53656E-04
 -1      1648 1.20010E-03
 -1      1649 9.66986E-04
 -1      1650 9.66986E-04
 -1      1651 1.22834E-03
 -1      1652 9.65687E-04
 -1      1653 9.66986E-04
 -1      1654 1.23086E-03
 -1      1655 9.61425E-04
 -1      1656 9.64183E-04
 -1      1657 1.22936E-03
 -1      1658 9.32118E-04
 -1      1659 9.49127E-04
 -1      1660 1.21556E-03
 -1      1661 8.64938E-04
 -1      1662 9.02437E-04
 -1      1663 1.17358E-03
 -1      1664 7.01743E-04
 -1      1665 7.88332E-04
 -1      1666 1.06729E-03
 -1      1667 6.37917E-04
 -1      1668 5.67419E-04
 -1      1669 8.56359E-04
 -1      1670 1.11164E-03
 -1      1671 6.37917E-04
 -1      1672 7.22035E-04
 -1      1673 2.11294E-03
 -1      1674 1.77086E-03
 -1      1675 1.38126E-03
 -1      1676 2.65505E-03
 -1      1677 2.82952E+01
 -1      1678 2.82952E+01
 -1      1679 3.78074E+01
 -1      1680 2.71869E+01
 -1      1681 4.72581E+01
 -1      1682 4.72581E+01
 -1      1683 2.09174E+01
 -1      1684 3.42388E+01
 -1      1685 1.21690E+01
 -1      1686 1.63922E+01
 -1      1687 1.22082E+01
 -1      1688 1.21077E+01
 -1      1689 1.23700E+01
 -1      1690 1.23700E+01
 -1      1691 1.27415E+01
 -1      1692 1.21414E+01
 -1      1693 1.35701E+01
 -1      1694 1.35701E+01
 -1      1695 1.35305E+01
 -1      1696 1.29599E+01
 -1      1697 2.74493E+01
 -1      1698 1.47113E+01
 -1      1699 4.01872E+01
 -1      1700 4.01872E+01
 -1      1701 3.08922E+01
 -1      1702 3.85693E+01
 -1      1703 2.79136E+01
 -1      1704 2.79136E+01
 -1      1705 2.79740E+01
 -1      1706 2.79136E+01
 -1      1707 2.77898E+01
 -1      1708 2.62343E+01
 -1      1709 3.11981E+01
 -1      1710 2.96313E+01
 -1      1711 3.01703E+01
 -1      1712 3.11981E+01
 -1      1713 1.27062E+01
 -1      1714 2.08869E+01
 -1      1715 1.27812E+01
 -1      1716 1.27812E+01
 -1      1717 1.22103E+01
 -1      1718 1.24957E+01
 -1      1719 1.21779E+01
 -1      1720 1.21941E+01
 -1      1721 1.20360E+01
 -1      1722 1.21070E+01
 -1      1723 1.17592E+01
 -1      1724 1.18976E+01
 -1      1725 1.60831E+01
 -1      1726 1.15493E+01
 -1      1727 3.52472E+01
 -1      1728 2.16198E+01
 -1      1729 4.80817E+01
 -1      1730 4.80817E+01
 -1      1731 2.68784E+01
 -1      1732 3.84548E+01
 -1      1733 2.72735E+01
 -1      1734 2.67292E+01
 -1      1735 1.66942E+01
 -1      1736 3.42388E+01
 -1      1737 2.23447E-03
 -1      1738 2.11915E-03
 -1      1739 2.94648E+01
 -1      1740 3.78074E+01
 -1      1741 2.95514E+01
 -1      1742 1.21077E+01
 -1      1743 1.22082E+01
 -1      1744 1.21414E+01
 -1      1745 1.27415E+01
 -1      1746 1.29599E+01
 -1      1747 1.35305E+01
 -1      1748 2.74493E+01
 -1      1749 3.85693E+01
 -1      1750 3.39729E+01
 -1      1751 3.09944E+01
 -1      1752 2.92547E+01
 -1      1753 2.93566E+01
 -1      1754 3.11981E+01
 -1      1755 2.19146E+01
 -1      1756 1.27062E+01
 -1      1757 1.24957E+01
 -1      1758 1.21941E+01
 -1      1759 1.21070E+01
 -1      1760 1.18976E+01
 -1      1761 1.15493E+01
 -1      1762 1.68760E+01
 -1      1763 3.52472E+01
 -1      1764 3.84548E+01
 -1      1765 2.86788E+01
 -1      1766 9.30172E+00
 -1      1767 1.36682E+00
 -1      1768 1.74090E+00
 -1      1769 2.36371E+00
 -1      1770 4.11479E+00
 -1      1771 1.77054E+00
 -1      1772 9.12064E-01
 -1      1773 1.02913E+00
 -1      1774 7.62832E-01
 -1      1775 8.45606E-01
 -1      1776 7.76612E-01
 -1      1777 6.44469E-01
 -1      1778 7.08381E-01
 -1      1779 6.55705E-01
 -1      1780 5.52054E-01
 -1      1781 5.98331E-01
 -1      1782 5.55116E-01
 -1      1783 5.86584E-01
 -1      1784 5.46641E-01
 -1      1785 5.03565E-01
 -1      1786 6.93290E-01
 -1      1787 6.31140E-01
 -1      1788 5.42708E-01
 -1      1789 8.40823E-01
 -1      1790 7.52067E-01
 -1      1791 6.46041E-01
 -1      1792 1.03285E+00
 -1      1793 9.10219E-01
 -1      1794 7.74215E-01
 -1      1795 1.30751E+00
 -1      1796 1.11592E+00
 -1      1797 9.26681E-01
 -1      1798 1.78092E+00
 -1      1799 1.42371E+00
 -1      1800 1.12596E+00
 -1      1801 2.57224E+00
 -1      1802 1.83946E+00
 -1      1803 1.30071E+00
 -1      1804 7.80380E+00
 -1      1805 2.87343E+00
 -1      1806 1.66044E+00
 -1      1807 2.65506E+00
 -1      1808 5.00441E+00
 -1      1809 1.94529E+00
 -1      1810 2.47511E+00
 -1      1811 1.78168E+00
 -1      1812 3.28297E+00
 -1      1813 2.23992E+00
 -1      1814 1.63637E+00
 -1      1815 1.36509E+00
 -1      1816 1.09974E+00
 -1      1817 1.16033E+00
 -1      1818 9.72620E-01
 -1      1819 7.79035E-01
 -1      1820 7.61928E-01
 -1      1821 6.87424E-01
 -1      1822 5.63458E-01
 -1      1823 5.43202E-01
 -1      1824 5.68287E-01
 -1      1825 5.63339E-01
 -1      1826 4.56420E-01
 -1      1827 5.62898E-01
 -1      1828 5.58663E-01
 -1      1829 4.60807E-01
 -1      1830 6.00982E-01
 -1      1831 7.01191E-01
 -1      1832 5.02685E-01
 -1      1833 7.25218E-01
 -1      1834 7.61830E-01
 -1      1835 5.69031E-01
 -1      1836 7.21993E-01
 -1      1837 7.03324E-01
 -1      1838 5.53222E-01
 -1      1839 7.17671E-01
 -1      1840 7.34103E-01
 -1      1841 5.27733E-01
 -1      1842 8.49919E-01
 -1      1843 9.60397E-01
 -1      1844 6.57897E-01
 -1      1845 1.18109E+00
 -1      1846 1.44507E+00
 -1      1847 9.94409E-01
 -1      1848 1.62229E+00
 -1      1849 2.06384E+00
 -1      1850 1.39232E+00
 -1      1851 2.27768E+00
 -1      1852 2.60990E+00
 -1      1853 1.78337E+00
 -1      1854 2.63572E+00
 -1      1855 2.60578E+00
 -1      1856 2.02303E+00
 -1      1857 2.61893E+00
 -1      1858 2.65390E+00
 -1      1859 2.06201E+00
 -1      1860 2.61681E+00
 -1      1861 2.27107E+00
 -1      1862 2.03806E+00
 -1      1863 2.04727E+00
 -1      1864 1.60140E+00
 -1      1865 1.77717E+00
 -1      1866 1.41391E+00
 -1      1867 1.19017E+00
 -1      1868 1.36588E+00
 -1      1869 9.37634E-01
 -1      1870 8.48674E-01
 -1      1871 9.25860E-01
 -1      1872 7.75001E-01
 -1      1873 7.74000E-01
 -1      1874 5.99650E-01
 -1      1875 8.05953E-01
 -1      1876 7.88995E-01
 -1      1877 5.57930E-01
 -1      1878 8.56950E-01
 -1      1879 8.44657E-01
 -1      1880 6.57838E-01
 -1      1881 8.51048E-01
 -1      1882 7.90708E-01
 -1      1883 7.32182E-01
 -1      1884 7.59646E-01
 -1      1885 6.85310E-01
 -1      1886 7.07510E-01
 -1      1887 6.48306E-01
 -1      1888 5.95022E-01
 -1      1889 6.39444E-01
 -1      1890 5.61268E-01
 -1      1891 5.18373E-01
 -1      1892 5.68686E-01
 -1      1893 4.79990E-01
 -1      1894 4.32629E-01
 -1      1895 4.96547E-01
 -1      1896 3.91152E-01
 -1      1897 3.45567E-01
 -1      1898 4.16687E-01
 -1      1899 3.05817E-01
 -1      1900 2.71792E-01
 -1      1901 3.35460E-01
 -1      1902 2.36452E-01
 -1      1903 2.09227E-01
 -1      1904 2.60371E-01
 -1      1905 1.79445E-01
 -1      1906 1.58437E-01
 -1      1907 1.95249E-01
 -1      1908 1.34369E-01
 -1      1909 1.16347E-01
 -1      1910 1.41400E-01
 -1      1911 1.00467E-01
 -1      1912 8.69909E-02
 -1      1913 1.01452E-01
 -1      1914 7.50487E-02
 -1      1915 6.73587E-02
 -1      1916 7.36297E-02
 -1      1917 5.89631E-02
 -1      1918 5.18520E-02
 -1      1919 5.32919E-02
 -1      1920 4.76498E-02
 -1      1921 4.13516E-02
 -1      1922 4.06940E-02
 -1      1923 3.80302E-02
 -1      1924 3.26193E-02
 -1      1925 3.31704E-02
 -1      1926 2.95396E-02
 -1      1927 2.50845E-02
 -1      1928 2.67694E-02
 -1      1929 2.23221E-02
 -1      1930 1.93912E-02
 -1      1931 2.09273E-02
 -1      1932 1.69688E-02
 -1      1933 1.49718E-02
 -1      1934 1.57425E-02
 -1      1935 1.37677E-02
 -1      1936 1.18187E-02
 -1      1937 1.21161E-02
 -1      1938 1.05905E-02
 -1      1939 8.74340E-03
 -1      1940 9.68382E-03
 -1      1941 7.50347E-03
 -1      1942 6.07043E-03
 -1      1943 7.21568E-03
 -1      1944 5.14929E-03
 -1      1945 4.54531E-03
 -1      1946 5.05460E-03
 -1      1947 3.92823E-03
 -1      1948 3.08447E-03
 -1      1949 2.46990E-03
 -1      1950 3.51639E-03
 -1      1951 1.28051E+00
 -1      1952 1.62299E+00
 -1      1953 1.27943E+00
 -1      1954 1.05390E+00
 -1      1955 1.16842E+00
 -1      1956 8.45038E-01
 -1      1957 9.39098E-01
 -1      1958 1.03729E+00
 -1      1959 7.16344E-01
 -1      1960 8.36094E-01
 -1      1961 9.29478E-01
 -1      1962 6.90121E-01
 -1      1963 9.15295E-01
 -1      1964 9.19464E-01
 -1      1965 7.63871E-01
 -1      1966 1.01126E+00
 -1      1967 1.00238E+00
 -1      1968 9.34330E-01
 -1      1969 1.07326E+00
 -1      1970 1.07849E+00
 -1      1971 1.08865E+00
 -1      1972 1.18385E+00
 -1      1973 1.07484E+00
 -1      1974 1.15745E+00
 -1      1975 1.28431E+00
 -1      1976 1.16363E+00
 -1      1977 1.13881E+00
 -1      1978 1.29471E+00
 -1      1979 1.21533E+00
 -1      1980 1.04962E+00
 -1      1981 1.49876E+00
 -1      1982 1.35386E+00
 -1      1983 1.03980E+00
 -1      1984 1.92598E+00
 -1      1985 1.85418E+00
 -1      1986 1.45438E+00
 -1      1987 2.53069E+00
 -1      1988 2.20738E+00
 -1      1989 2.09121E+00
 -1      1990 3.41183E+00
 -1      1991 2.75800E+00
 -1      1992 2.59993E+00
 -1      1993 3.59352E+00
 -1      1994 3.35737E+00
 -1      1995 2.77277E+00
 -1      1996 3.88945E+00
 -1      1997 3.63025E+00
 -1      1998 2.75504E+00
 -1      1999 3.04198E+00
 -1      2000 3.70072E+00
 -1      2001 2.60304E+00
 -1      2002 1.71649E+00
 -1      2003 2.53582E+00
 -1      2004 1.90816E+00
 -1      2005 1.11370E+00
 -1      2006 1.50950E+00
 -1      2007 1.19502E+00
 -1      2008 1.30001E+00
 -1      2009 1.17889E+00
 -1      2010 1.05322E+00
 -1      2011 1.49300E+00
 -1      2012 1.38405E+00
 -1      2013 1.20246E+00
 -1      2014 1.52236E+00
 -1      2015 1.49994E+00
 -1      2016 1.29344E+00
 -1      2017 1.41579E+00
 -1      2018 1.50163E+00
 -1      2019 1.27966E+00
 -1      2020 1.22650E+00
 -1      2021 1.35119E+00
 -1      2022 1.19433E+00
 -1      2023 1.04857E+00
 -1      2024 1.16049E+00
 -1      2025 1.06372E+00
 -1      2026 8.66338E-01
 -1      2027 9.66905E-01
 -1      2028 9.16053E-01
 -1      2029 6.87312E-01
 -1      2030 7.83690E-01
 -1      2031 7.51741E-01
 -1      2032 5.27191E-01
 -1      2033 6.12046E-01
 -1      2034 5.93826E-01
 -1      2035 3.92384E-01
 -1      2036 4.62994E-01
 -1      2037 4.54363E-01
 -1      2038 2.85520E-01
 -1      2039 3.40061E-01
 -1      2040 3.37843E-01
 -1      2041 2.09131E-01
 -1      2042 2.46021E-01
 -1      2043 2.46021E-01
 -1      2044 1.55074E-01
 -1      2045 1.83241E-01
 -1      2046 1.80632E-01
 -1      2047 1.13479E-01
 -1      2048 1.34443E-01
 -1      2049 1.34110E-01
 -1      2050 8.12953E-02
 -1      2051 9.73874E-02
 -1      2052 9.73874E-02
 -1      2053 5.66692E-02
 -1      2054 6.89823E-02
 -1      2055 6.89823E-02
 -1      2056 4.12246E-02
 -1      2057 4.74184E-02
 -1      2058 4.74184E-02
 -1      2059 3.18276E-02
 -1      2060 3.59569E-02
 -1      2061 3.28998E-02
 -1      2062 2.59504E-02
 -1      2063 2.96428E-02
 -1      2064 2.54473E-02
 -1      2065 2.05595E-02
 -1      2066 2.37803E-02
 -1      2067 2.10925E-02
 -1      2068 1.68313E-02
 -1      2069 1.85120E-02
 -1      2070 1.68750E-02
 -1      2071 1.36598E-02
 -1      2072 1.49640E-02
 -1      2073 1.29603E-02
 -1      2074 1.11280E-02
 -1      2075 1.25863E-02
 -1      2076 1.00195E-02
 -1      2077 8.73410E-03
 -1      2078 1.02932E-02
 -1      2079 8.11118E-03
 -1      2080 6.36157E-03
 -1      2081 7.88083E-03
 -1      2082 6.42311E-03
 -1      2083 4.50725E-03
 -1      2084 5.61063E-03
 -1      2085 4.81890E-03
 -1      2086 2.92176E-03
 -1      2087 3.87205E-03
 -1      2088 3.43277E-03
 -1      2089 1.99496E-03
 -1      2090 1.19643E-03
 -1      2091 1.04026E-03
 -1      2092 1.35441E-03
 -1      2093 1.51406E-03
 -1      2094 1.69151E-03
 -1      2095 1.59318E-03
 -1      2096 1.67812E-03
 -1      2097 2.48074E-03
 -1      2098 2.08478E-03
 -1      2099 1.34826E-03
 -1      2100 1.26882E-03
 -1      2101 1.44975E-03
 -1      2102 1.38030E-03
 -1      2103 1.35458E-03
 -1      2104 1.52846E-03
 -1      2105 1.38282E-03
 -1      2106 1.38030E-03
 -1      2107 1.53478E-03
 -1      2108 1.36587E-03
 -1      2109 1.36587E-03
 -1      2110 1.51783E-03
 -1      2111 1.35810E-03
 -1      2112 1.35961E-03
 -1      2113 1.49462E-03
 -1      2114 1.35237E-03
 -1      2115 1.36467E-03
 -1      2116 1.49492E-03
 -1      2117 1.32269E-03
 -1      2118 1.35237E-03
 -1      2119 1.50149E-03
 -1      2120 1.23386E-03
 -1      2121 1.31046E-03
 -1      2122 1.48926E-03
 -1      2123 1.03510E-03
 -1      2124 1.16942E-03
 -1      2125 1.41260E-03
 -1      2126 1.54822E-03
 -1      2127 1.54822E-03
 -1      2128 1.86128E-03
 -1      2129 3.78074E+01
 -1      2130 2.83566E+01
 -1      2131 3.05731E+01
 -1      2132 2.95514E+01
 -1      2133 2.61746E+01
 -1      2134 2.72829E+01
 -1      2135 1.89384E+01
 -1      2136 3.19578E+01
 -1      2137 1.08079E+01
 -1      2138 1.53332E+01
 -1      2139 1.30521E+01
 -1      2140 1.10336E+00
 -1      2141 1.28872E+00
 -1      2142 1.06963E+00
 -1      2143 9.17298E-01
 -1      2144 1.09462E+01
 -1      2145 1.07844E+01
 -1      2146 1.15184E+01
 -1      2147 1.17469E+01
 -1      2148 1.23351E+01
 -1      2149 1.15065E+01
 -1      2150 1.11119E+01
 -1      2151 1.00073E+01
 -1      2152 1.06175E+01
 -1      2153 1.07704E+01
 -1      2154 9.58958E+00
 -1      2155 2.67117E+01
 -1      2156 1.39737E+01
 -1      2157 1.00328E+01
 -1      2158 3.03354E+01
 -1      2159 3.19533E+01
 -1      2160 2.96775E+01
 -1      2161 3.26561E+01
 -1      2162 3.38966E+01
 -1      2163 3.38966E+01
 -1      2164 3.21570E+01
 -1      2165 3.38966E+01
 -1      2166 3.67988E+01
 -1      2167 2.81868E+01
 -1      2168 2.63453E+01
 -1      2169 2.55652E+01
 -1      2170 2.55652E+01
 -1      2171 2.25539E+01
 -1      2172 1.18132E+01
 -1      2173 2.10967E+01
 -1      2174 9.15343E+00
 -1      2175 9.07843E+00
 -1      2176 8.26051E+00
 -1      2177 1.05279E+01
 -1      2178 1.08133E+01
 -1      2179 1.11053E+01
 -1      2180 1.11215E+01
 -1      2181 9.43905E+00
 -1      2182 1.11401E+01
 -1      2183 1.12111E+01
 -1      2184 1.06941E+01
 -1      2185 1.08324E+01
 -1      2186 9.56745E+00
 -1      2187 9.77741E+00
 -1      2188 8.71224E+00
 -1      2189 1.57920E+01
 -1      2190 1.02552E+01
 -1      2191 3.27280E+01
 -1      2192 1.98935E+01
 -1      2193 2.88279E+01
 -1      2194 3.84548E+01
 -1      2195 2.85334E+01
 -1      2196 2.86825E+01
 -1      2197 2.95551E+01
 -1      2198 9.82213E+00
 -1      2199 9.88344E+00
 -1      2200 2.72079E+00
 -1      2201 8.52237E+00
 -1      2202 8.56017E+00
 -1      2203 1.91247E+00
 -1      2204 2.61746E+01
 -1      2205 3.05731E+01
 -1      2206 3.05731E+01
 -1      2207 2.72829E+01
 -1      2208 2.20744E-03
 -1      2209 2.25070E+01
 -1      2210 2.67408E+01
 -1      2211 2.67408E+01
 -1      2212 2.65954E+01
 -1      2213 2.31012E+01
 -1      2214 8.01168E+00
 -1      2215 6.23982E+00
 -1      2216 6.92762E+00
 -1      2217 1.01385E+01
 -1      2218 9.39706E+00
 -1      2219 5.76934E+00
 -1      2220 7.42921E+00
 -1      2221 2.09983E+01
 -1      2222 1.53654E+01
 -1      2223 1.08969E+01
 -1      2224 3.09871E+01
 -1      2225 3.25798E+01
 -1      2226 1.84778E+01
 -1      2227 9.38249E+00
 -1      2228 1.03231E+01
 -1      2229 8.34427E+00
 -1      2230 6.00193E+00
 -1      2231 5.58422E+00
 -1      2232 2.60400E+01
 -1      2233 9.93658E+00
 -1      2234 1.32728E+01
 -1      2235 8.63484E-01
 -1      2236 1.18578E+00
 -1      2237 5.53982E-01
 -1      2238 6.08432E-01
 -1      2239 6.42939E-01
 -1      2240 7.09396E-01
 -1      2241 5.41216E-01
 -1      2242 4.20872E-01
 -1      2243 4.26285E-01
 -1      2244 4.93599E-01
 -1      2245 4.49043E-01
 -1      2246 3.71763E-01
 -1      2247 5.95122E-01
 -1      2248 5.36345E-01
 -1      2249 4.42680E-01
 -1      2250 7.03238E-01
 -1      2251 6.33842E-01
 -1      2252 5.24146E-01
 -1      2253 8.11425E-01
 -1      2254 7.28354E-01
 -1      2255 5.87982E-01
 -1      2256 1.06398E+00
 -1      2257 9.47769E-01
 -1      2258 7.49442E-01
 -1      2259 5.81125E-01
 -1      2260 6.93215E-01
 -1      2261 5.99571E-01
 -1      2262 1.00668E+00
 -1      2263 7.35403E-01
 -1      2264 6.47682E+00
 -1      2265 7.40131E+00
 -1      2266 6.42396E-01
 -1      2267 5.15280E-01
 -1      2268 4.88755E-01
 -1      2269 4.75866E-01
 -1      2270 3.84256E-01
 -1      2271 3.56334E-01
 -1      2272 4.09419E-01
 -1      2273 4.14247E-01
 -1      2274 3.42083E-01
 -1      2275 4.55197E-01
 -1      2276 4.54756E-01
 -1      2277 4.08196E-01
 -1      2278 5.00415E-01
 -1      2279 5.42734E-01
 -1      2280 4.94805E-01
 -1      2281 5.80435E-01
 -1      2282 6.04462E-01
 -1      2283 5.78165E-01
 -1      2284 6.19411E-01
 -1      2285 5.79574E-01
 -1      2286 6.30815E-01
 -1      2287 6.77278E-01
 -1      2288 6.91626E-01
 -1      2289 7.43467E-01
 -1      2290 7.59953E-01
 -1      2291 8.75769E-01
 -1      2292 9.09498E-01
 -1      2293 9.97677E-01
 -1      2294 1.21837E+00
 -1      2295 1.09973E+00
 -1      2296 1.30094E+00
 -1      2297 1.47815E+00
 -1      2298 1.30421E+00
 -1      2299 1.57944E+00
 -1      2300 1.79328E+00
 -1      2301 1.48806E+00
 -1      2302 1.99269E+00
 -1      2303 2.01852E+00
 -1      2304 1.78876E+00
 -1      2305 2.01231E+00
 -1      2306 2.02546E+00
 -1      2307 1.98197E+00
 -1      2308 2.10641E+00
 -1      2309 2.06932E+00
 -1      2310 2.05672E+00
 -1      2311 1.79329E+00
 -1      2312 1.56949E+00
 -1      2313 1.86164E+00
 -1      2314 1.43748E+00
 -1      2315 1.24999E+00
 -1      2316 1.45360E+00
 -1      2317 1.14895E+00
 -1      2318 8.96410E-01
 -1      2319 1.22054E+00
 -1      2320 8.31319E-01
 -1      2321 7.57646E-01
 -1      2322 1.05440E+00
 -1      2323 6.81914E-01
 -1      2324 7.13868E-01
 -1      2325 9.13583E-01
 -1      2326 6.82994E-01
 -1      2327 7.50948E-01
 -1      2328 8.06978E-01
 -1      2329 7.44641E-01
 -1      2330 7.51031E-01
 -1      2331 7.69797E-01
 -1      2332 7.19826E-01
 -1      2333 6.88764E-01
 -1      2334 7.32285E-01
 -1      2335 6.52280E-01
 -1      2336 6.15276E-01
 -1      2337 6.64596E-01
 -1      2338 5.85139E-01
 -1      2339 5.51385E-01
 -1      2340 5.97975E-01
 -1      2341 5.15185E-01
 -1      2342 4.76801E-01
 -1      2343 5.31639E-01
 -1      2344 4.36536E-01
 -1      2345 3.95059E-01
 -1      2346 4.55173E-01
 -1      2347 3.55474E-01
 -1      2348 3.15724E-01
 -1      2349 3.75323E-01
 -1      2350 2.79639E-01
 -1      2351 2.44299E-01
 -1      2352 2.99653E-01
 -1      2353 2.13090E-01
 -1      2354 1.83308E-01
 -1      2355 2.32358E-01
 -1      2356 1.57380E-01
 -1      2357 1.33312E-01
 -1      2358 1.75221E-01
 -1      2359 1.12470E-01
 -1      2360 9.65904E-02
 -1      2361 1.28451E-01
 -1      2362 8.03172E-02
 -1      2363 6.83751E-02
 -1      2364 9.13358E-02
 -1      2365 5.60117E-02
 -1      2366 4.76160E-02
 -1      2367 6.26992E-02
 -1      2368 3.84969E-02
 -1      2369 3.42947E-02
 -1      2370 4.12167E-02
 -1      2371 2.93515E-02
 -1      2372 2.60301E-02
 -1      2373 2.71544E-02
 -1      2374 2.36550E-02
 -1      2375 2.05753E-02
 -1      2376 1.98360E-02
 -1      2377 1.92538E-02
 -1      2378 1.64915E-02
 -1      2379 1.61394E-02
 -1      2380 1.50882E-02
 -1      2381 1.26658E-02
 -1      2382 1.34147E-02
 -1      2383 1.12834E-02
 -1      2384 1.00794E-02
 -1      2385 1.06290E-02
 -1      2386 8.80763E-03
 -1      2387 7.57943E-03
 -1      2388 7.97498E-03
 -1      2389 6.87427E-03
 -1      2390 5.63433E-03
 -1      2391 5.99808E-03
 -1      2392 4.88922E-03
 -1      2393 3.96808E-03
 -1      2394 4.54781E-03
 -1      2395 6.23903E-01
 -1      2396 6.33523E-01
 -1      2397 8.07972E-01
 -1      2398 7.24602E-01
 -1      2399 6.68004E-01
 -1      2400 9.86819E-01
 -1      2401 8.99730E-01
 -1      2402 8.60461E-01
 -1      2403 1.12016E+00
 -1      2404 1.05293E+00
 -1      2405 1.01833E+00
 -1      2406 1.22381E+00
 -1      2407 1.22223E+00
 -1      2408 1.18651E+00
 -1      2409 1.29270E+00
 -1      2410 1.31292E+00
 -1      2411 1.37770E+00
 -1      2412 1.25571E+00
 -1      2413 1.32468E+00
 -1      2414 1.49879E+00
 -1      2415 1.46309E+00
 -1      2416 1.40394E+00
 -1      2417 1.67900E+00
 -1      2418 2.07495E+00
 -1      2419 1.71952E+00
 -1      2420 2.08366E+00
 -1      2421 2.80859E+00
 -1      2422 2.52719E+00
 -1      2423 2.79233E+00
 -1      2424 4.21636E+00
 -1      2425 3.98905E+00
 -1      2426 4.42503E+00
 -1      2427 3.60662E+00
 -1      2428 3.66109E+00
 -1      2429 5.05021E+00
 -1      2430 3.67891E+00
 -1      2431 3.64217E+00
 -1      2432 4.53049E+00
 -1      2433 3.10875E+00
 -1      2434 3.29747E+00
 -1      2435 4.18461E+00
 -1      2436 2.19689E+00
 -1      2437 2.70305E+00
 -1      2438 3.39748E+00
 -1      2439 1.52544E+00
 -1      2440 1.73242E+00
 -1      2441 2.52731E+00
 -1      2442 1.36294E+00
 -1      2443 1.29775E+00
 -1      2444 1.83516E+00
 -1      2445 1.45429E+00
 -1      2446 1.37024E+00
 -1      2447 1.61477E+00
 -1      2448 1.39615E+00
 -1      2449 1.38921E+00
 -1      2450 1.55699E+00
 -1      2451 1.28131E+00
 -1      2452 1.30204E+00
 -1      2453 1.39780E+00
 -1      2454 1.15886E+00
 -1      2455 1.22346E+00
 -1      2456 1.24584E+00
 -1      2457 1.02757E+00
 -1      2458 1.09357E+00
 -1      2459 1.12270E+00
 -1      2460 8.64772E-01
 -1      2461 9.46436E-01
 -1      2462 9.76286E-01
 -1      2463 6.99135E-01
 -1      2464 7.81783E-01
 -1      2465 8.12167E-01
 -1      2466 5.47219E-01
 -1      2467 6.22485E-01
 -1      2468 6.52528E-01
 -1      2469 4.16585E-01
 -1      2470 4.80782E-01
 -1      2471 5.09441E-01
 -1      2472 3.09140E-01
 -1      2473 3.61463E-01
 -1      2474 3.87883E-01
 -1      2475 2.25371E-01
 -1      2476 2.64871E-01
 -1      2477 2.88491E-01
 -1      2478 1.64848E-01
 -1      2479 1.90738E-01
 -1      2480 2.09588E-01
 -1      2481 1.17731E-01
 -1      2482 1.38362E-01
 -1      2483 1.48469E-01
 -1      2484 8.18108E-02
 -1      2485 9.79028E-02
 -1      2486 1.02155E-01
 -1      2487 5.50466E-02
 -1      2488 6.73596E-02
 -1      2489 6.78751E-02
 -1      2490 3.77127E-02
 -1      2491 4.69636E-02
 -1      2492 4.53410E-02
 -1      2493 2.76321E-02
 -1      2494 3.28998E-02
 -1      2495 3.24450E-02
 -1      2496 2.32625E-02
 -1      2497 2.54473E-02
 -1      2498 2.54473E-02
 -1      2499 1.89225E-02
 -1      2500 2.10925E-02
 -1      2501 2.10925E-02
 -1      2502 1.48275E-02
 -1      2503 1.68750E-02
 -1      2504 1.68750E-02
 -1      2505 1.10930E-02
 -1      2506 1.29603E-02
 -1      2507 1.29603E-02
 -1      2508 8.78098E-03
 -1      2509 9.85449E-03
 -1      2510 9.85449E-03
 -1      2511 6.98710E-03
 -1      2512 7.82190E-03
 -1      2513 7.65690E-03
 -1      2514 5.16569E-03
 -1      2515 6.01896E-03
 -1      2516 5.72968E-03
 -1      2517 3.69388E-03
 -1      2518 4.44481E-03
 -1      2519 4.04066E-03
 -1      2520 3.11593E-03
 -1      2521 1.70010E-03
 -1      2522 1.69377E-03
 -1      2523 1.64749E-03
 -1      2524 1.64749E-03
 -1      2525 1.81281E-03
 -1      2526 2.12844E-03
 -1      2527 2.44259E-03
 -1      2528 1.74770E-03
 -1      2529 1.67532E-03
 -1      2530 2.42640E-03
 -1      2531 1.91934E-03
 -1      2532 1.55530E-03
 -1      2533 1.57225E-03
 -1      2534 1.68496E-03
 -1      2535 1.49724E-03
 -1      2536 1.50351E-03
 -1      2537 1.55793E-03
 -1      2538 1.54030E-03
 -1      2539 1.53373E-03
 -1      2540 1.54262E-03
 -1      2541 1.60359E-03
 -1      2542 1.60359E-03
 -1      2543 1.64240E-03
 -1      2544 1.62598E-03
 -1      2545 1.63821E-03
 -1      2546 1.74031E-03
 -1      2547 1.56155E-03
 -1      2548 1.62598E-03
 -1      2549 1.77494E-03
 -1      2550 2.11982E-03
 -1      2551 1.60670E-03
 -1      2552 1.82009E-03
 -1      2553 1.50772E+01
 -1      2554 2.09268E+01
 -1      2555 5.42540E-01
 -1      2556 5.59143E-01
 -1      2557 4.76322E-01
 -1      2558 7.64116E+00
 -1      2559 6.67887E+00
 -1      2560 2.63685E-03
 -1      2561 9.53420E+00
 -1      2562 1.31395E+01
 -1      2563 2.95551E+01
 -1      2564 2.85371E+01
 -1      2565 9.14508E+00
 -1      2566 9.03927E+00
 -1      2567 3.25798E+01
 -1      2568 2.83607E+01
 -1      2569 6.91081E+00
 -1      2570 8.62835E+00
 -1      2571 4.67174E-01
 -1      2572 5.13312E-01
 -1      2573 4.66040E-01
 -1      2574 3.84481E-01
 -1      2575 9.52125E+00
 -1      2576 8.72057E+00
 -1      2577 6.83926E+00
 -1      2578 9.90070E+00
 -1      2579 9.91259E+00
 -1      2580 2.28769E+01
 -1      2581 2.05563E+01
 -1      2582 2.28769E+01
 -1      2583 1.02933E+01
 -1      2584 7.09001E+00
 -1      2585 8.17895E+00
 -1      2586 8.48663E+00
 -1      2587 1.79515E+01
 -1      2588 1.27099E+01
 -1      2589 9.76703E+00
 -1      2590 3.67988E+01
 -1      2591 3.67988E+01
 -1      2592 2.51754E+01
 -1      2593 3.09871E+01
 -1      2594 1.72373E+01
 -1      2595 1.98589E+01
 -1      2596 6.40918E+00
 -1      2597 9.14398E+00
 -1      2598 8.35183E+00
 -1      2599 7.75823E+00
 -1      2600 1.29227E+01
 -1      2601 8.82112E+00
 -1      2602 6.36663E+00
 -1      2603 7.28329E+00
 -1      2604 5.83334E+00
 -1      2605 2.10901E+01
 -1      2606 1.53633E+01
 -1      2607 1.63044E+00
 -1      2608 1.14957E+00
 -1      2609 7.24649E-01
 -1      2610 1.00763E+00
 -1      2611 1.35161E+00
 -1      2612 1.53157E+00
 -1      2613 1.23037E+00
 -1      2614 9.35670E-01
 -1      2615 2.40832E+01
 -1      2616 2.19013E+01
 -1      2617 5.75723E-01
 -1      2618 7.09396E-01
 -1      2619 7.83625E-01
 -1      2620 4.07320E-01
 -1      2621 1.17183E+00
 -1      2622 1.66535E+01
 -1      2623 8.01966E-01
 -1      2624 8.80069E-01
 -1      2625 7.39972E-01
 -1      2626 5.94065E-01
 -1      2627 1.46339E+01
 -1      2628 1.19389E+01
 -1      2629 1.00670E+01
 -1      2630 1.98589E+01
 -1      2631 7.48866E+00
 -1      2632 1.47884E+01
 -1      2633 1.09117E+01
 -1      2634 1.15593E+01
 -1      2635 2.17330E+01
 -1      2636 2.50232E+01
 -1      2637 1.96416E+01
 -1      2638 2.74184E-03
 -1      2639 2.66272E-03
 -1      2640 2.95551E+01
 -1      2641 6.63522E+00
 -1      2642 5.88108E+00
 -1      2643 4.97220E+00
 -1      2644 2.65954E+01
 -1      2645 9.93643E-01
 -1      2646 8.31002E+00
 -1      2647 2.69630E-03
 -1      2648 2.43384E-03
 -1      2649 2.17926E-03
 -1      2650 3.31337E-03
 -1      2651 1.92102E+01
 -1      2652 2.12974E+01
 -1      2653 1.35595E+01
 -1      2654 5.40057E+00
 -1      2655 3.97161E+00
 -1      2656 3.84480E+00
 -1      2657 7.35846E+00
 -1      2658 4.19238E+00
 -1      2659 5.07585E+00
 -1      2660 4.43601E+00
 -1      2661 3.25798E+01
 -1      2662 7.20092E+00
 -1      2663 4.95735E+00
 -1      2664 6.85085E+00
 -1      2665 7.38745E+00
 -1      2666 5.84471E+00
 -1      2667 6.34199E+00
 -1      2668 9.04561E+00
 -1      2669 7.42902E+00
 -1      2670 5.55781E+00
 -1      2671 3.09871E+01
 -1      2672 3.09966E-03
 -1      2673 3.14799E-03
 -1      2674 6.24235E+00
 -1      2675 5.16295E+00
 -1      2676 4.02592E-01
 -1      2677 3.59847E-01
 -1      2678 3.21591E-01
 -1      2679 2.93420E-01
 -1      2680 2.81503E-01
 -1      2681 5.68900E-01
 -1      2682 5.43784E-01
 -1      2683 7.31274E-01
 -1      2684 5.94931E-01
 -1      2685 5.50732E-01
 -1      2686 5.05579E-01
 -1      2687 6.75848E-01
 -1      2688 7.17711E+00
 -1      2689 6.78576E+00
 -1      2690 5.10944E+00
 -1      2691 8.27813E-01
 -1      2692 3.99021E-01
 -1      2693 3.59607E-01
 -1      2694 3.61457E-01
 -1      2695 3.86620E-01
 -1      2696 4.04144E-01
 -1      2697 4.21889E-01
 -1      2698 4.62839E-01
 -1      2699 4.41263E-01
 -1      2700 5.18538E-01
 -1      2701 5.64196E-01
 -1      2702 5.32230E-01
 -1      2703 6.34303E-01
 -1      2704 6.72004E-01
 -1      2705 6.58036E-01
 -1      2706 7.47129E-01
 -1      2707 7.62078E-01
 -1      2708 8.03268E-01
 -1      2709 8.26823E-01
 -1      2710 9.24526E-01
 -1      2711 9.43137E-01
 -1      2712 1.06195E+00
 -1      2713 1.13028E+00
 -1      2714 1.14531E+00
 -1      2715 1.26106E+00
 -1      2716 1.38297E+00
 -1      2717 1.41352E+00
 -1      2718 1.50265E+00
 -1      2719 1.58521E+00
 -1      2720 1.66398E+00
 -1      2721 1.58576E+00
 -1      2722 1.68704E+00
 -1      2723 1.78419E+00
 -1      2724 1.94152E+00
 -1      2725 2.14093E+00
 -1      2726 2.03922E+00
 -1      2727 2.45397E+00
 -1      2728 2.44776E+00
 -1      2729 2.60673E+00
 -1      2730 4.00246E+00
 -1      2731 4.08341E+00
 -1      2732 4.47446E+00
 -1      2733 3.34916E+00
 -1      2734 3.07313E+00
 -1      2735 5.29490E+00
 -1      2736 2.35901E+00
 -1      2737 2.22699E+00
 -1      2738 3.84652E+00
 -1      2739 1.48642E+00
 -1      2740 1.38537E+00
 -1      2741 2.39182E+00
 -1      2742 1.36185E+00
 -1      2743 1.29676E+00
 -1      2744 1.62772E+00
 -1      2745 1.14013E+00
 -1      2746 1.06439E+00
 -1      2747 1.44757E+00
 -1      2748 9.74412E-01
 -1      2749 9.43538E-01
 -1      2750 1.20096E+00
 -1      2751 8.85176E-01
 -1      2752 8.78869E-01
 -1      2753 1.05261E+00
 -1      2754 8.05400E-01
 -1      2755 7.74194E-01
 -1      2756 9.20778E-01
 -1      2757 7.06622E-01
 -1      2758 6.70138E-01
 -1      2759 7.79737E-01
 -1      2760 6.28843E-01
 -1      2761 5.98707E-01
 -1      2762 6.70870E-01
 -1      2763 5.52712E-01
 -1      2764 5.16512E-01
 -1      2765 5.83580E-01
 -1      2766 4.70543E-01
 -1      2767 4.30277E-01
 -1      2768 4.91616E-01
 -1      2769 3.87580E-01
 -1      2770 3.47995E-01
 -1      2771 4.02949E-01
 -1      2772 3.10222E-01
 -1      2773 2.74137E-01
 -1      2774 3.22479E-01
 -1      2775 2.41902E-01
 -1      2776 2.10693E-01
 -1      2777 2.52472E-01
 -1      2778 1.83970E-01
 -1      2779 1.58042E-01
 -1      2780 1.93515E-01
 -1      2781 1.36431E-01
 -1      2782 1.15590E-01
 -1      2783 1.45181E-01
 -1      2784 9.85043E-02
 -1      2785 8.22312E-02
 -1      2786 1.06485E-01
 -1      2787 6.90128E-02
 -1      2788 5.66494E-02
 -1      2789 7.61814E-02
 -1      2790 4.66431E-02
 -1      2791 3.75240E-02
 -1      2792 5.29568E-02
 -1      2793 3.01226E-02
 -1      2794 2.51794E-02
 -1      2795 3.55490E-02
 -1      2796 1.98451E-02
 -1      2797 1.74700E-02
 -1      2798 2.28133E-02
 -1      2799 1.40322E-02
 -1      2800 1.27108E-02
 -1      2801 1.40413E-02
 -1      2802 1.16460E-02
 -1      2803 1.02427E-02
 -1      2804 9.53880E-03
 -1      2805 9.76074E-03
 -1      2806 8.37841E-03
 -1      2807 7.99206E-03
 -1      2808 7.71954E-03
 -1      2809 6.44781E-03
 -1      2810 6.85124E-03
 -1      2811 5.71741E-03
 -1      2812 5.01225E-03
 -1      2813 5.46198E-03
 -1      2814 4.36448E-03
 -1      2815 3.61937E-03
 -1      2816 4.08381E-03
 -1      2817 9.32343E-01
 -1      2818 8.40585E-01
 -1      2819 7.37263E-01
 -1      2820 6.36565E-01
 -1      2821 8.09145E-01
 -1      2822 1.31974E+00
 -1      2823 1.21767E+00
 -1      2824 1.57511E+00
 -1      2825 1.48600E+00
 -1      2826 1.51716E+00
 -1      2827 1.84975E+00
 -1      2828 1.81777E+00
 -1      2829 1.92608E+00
 -1      2830 2.21651E+00
 -1      2831 2.06828E+00
 -1      2832 2.38726E+00
 -1      2833 2.49844E+00
 -1      2834 2.24200E+00
 -1      2835 2.63129E+00
 -1      2836 3.60426E+00
 -1      2837 3.15202E+00
 -1      2838 3.31036E+00
 -1      2839 5.60549E+00
 -1      2840 4.42503E+00
 -1      2841 5.10944E+00
 -1      2842 5.07389E+00
 -1      2843 4.18461E+00
 -1      2844 4.56604E+00
 -1      2845 2.74137E+00
 -1      2846 3.20583E+00
 -1      2847 2.18609E+00
 -1      2848 2.41378E+00
 -1      2849 3.09230E+00
 -1      2850 2.02552E+00
 -1      2851 2.01822E+00
 -1      2852 2.59685E+00
 -1      2853 1.73319E+00
 -1      2854 1.79826E+00
 -1      2855 2.20172E+00
 -1      2856 1.43107E+00
 -1      2857 1.52518E+00
 -1      2858 1.76645E+00
 -1      2859 1.27990E+00
 -1      2860 1.33775E+00
 -1      2861 1.46512E+00
 -1      2862 1.11140E+00
 -1      2863 1.17669E+00
 -1      2864 1.26860E+00
 -1      2865 9.28734E-01
 -1      2866 1.00986E+00
 -1      2867 1.06385E+00
 -1      2868 7.53130E-01
 -1      2869 8.36120E-01
 -1      2870 8.69698E-01
 -1      2871 5.95765E-01
 -1      2872 6.72415E-01
 -1      2873 6.96368E-01
 -1      2874 4.61165E-01
 -1      2875 5.27601E-01
 -1      2876 5.47488E-01
 -1      2877 3.49848E-01
 -1      2878 4.04971E-01
 -1      2879 4.23131E-01
 -1      2880 2.60185E-01
 -1      2881 3.04454E-01
 -1      2882 3.21542E-01
 -1      2883 1.89543E-01
 -1      2884 2.24176E-01
 -1      2885 2.40140E-01
 -1      2886 1.34978E-01
 -1      2887 1.61464E-01
 -1      2888 1.76053E-01
 -1      2889 9.36171E-02
 -1      2890 1.13445E-01
 -1      2891 1.26441E-01
 -1      2892 6.29332E-02
 -1      2893 7.73843E-02
 -1      2894 8.86752E-02
 -1      2895 4.28346E-02
 -1      2896 5.09175E-02
 -1      2897 6.04268E-02
 -1      2898 2.93079E-02
 -1      2899 3.41209E-02
 -1      2900 3.96975E-02
 -1      2901 2.09880E-02
 -1      2902 2.31728E-02
 -1      2903 2.48486E-02
 -1      2904 1.59740E-02
 -1      2905 1.81441E-02
 -1      2906 1.58695E-02
 -1      2907 1.31929E-02
 -1      2908 1.52404E-02
 -1      2909 1.22919E-02
 -1      2910 1.03880E-02
 -1      2911 1.22552E-02
 -1      2912 1.06206E-02
 -1      2913 8.13579E-03
 -1      2914 9.37431E-03
 -1      2915 8.66926E-03
 -1      2916 6.17254E-03
 -1      2917 7.13162E-03
 -1      2918 6.65143E-03
 -1      2919 4.49554E-03
 -1      2920 5.46368E-03
 -1      2921 4.93840E-03
 -1      2922 3.40685E-03
 -1      2923 4.12772E-03
 -1      2924 3.86173E-03
 -1      2925 3.18672E-03
 -1      2926 1.50211E-03
 -1      2927 1.55391E-03
 -1      2928 3.18102E-03
 -1      2929 2.52631E-03
 -1      2930 2.99769E-03
 -1      2931 1.86729E-03
 -1      2932 1.91989E-03
 -1      2933 1.54262E-03
 -1      2934 1.50613E-03
 -1      2935 1.50211E-03
 -1      2936 1.60972E-03
 -1      2937 1.68496E-03
 -1      2938 1.79205E-03
 -1      2939 1.55391E-03
 -1      2940 5.53313E-01
 -1      2941 4.62329E-01
 -1      2942 6.22572E-01
 -1      2943 1.64240E-03
 -1      2944 1.57911E-03
 -1      2945 1.54262E-03
 -1      2946 1.83780E-03
 -1      2947 1.80317E-03
 -1      2948 1.73988E-03
 -1      2949 1.93178E-03
 -1      2950 1.93178E-03
 -1      2951 1.99464E-03
 -1      2952 1.41088E+01
 -1      2953 1.15040E+01
 -1      2954 8.93244E+00
 -1      2955 1.08702E+01
 -1      2956 1.11105E+00
 -1      2957 1.04494E+00
 -1      2958 1.02506E+00
 -1      2959 1.24428E+00
 -1      2960 5.06557E-01
 -1      2961 4.13550E-01
 -1      2962 4.16823E-01
 -1      2963 2.01380E+01
 -1      2964 1.46542E+01
 -1      2965 1.19615E+01
 -1      2966 1.51179E+01
 -1      2967 3.98781E-01
 -1      2968 4.20762E-01
 -1      2969 4.97039E-01
 -1      2970 4.75771E-01
 -1      2971 5.27560E+00
 -1      2972 4.94657E+00
 -1      2973 4.78152E+00
 -1      2974 4.57947E+00
 -1      2975 4.18461E+00
 -1      2976 2.34008E+01
 -1      2977 2.14591E+01
 -1      2978 1.02319E+01
 -1      2979 7.79132E+00
 -1      2980 4.97823E-01
 -1      2981 4.59103E-01
 -1      2982 3.76269E-01
 -1      2983 4.78740E-01
 -1      2984 5.88760E+00
 -1      2985 4.38182E+00
 -1      2986 4.68285E-01
 -1      2987 5.02791E-01
 -1      2988 9.68976E+00
 -1      2989 7.27323E+00
 -1      2990 5.66737E+00
 -1      2991 7.80026E+00
 -1      2992 5.88108E+00
 -1      2993 7.15343E+00
 -1      2994 1.36331E+01
 -1      2995 1.89497E+01
 -1      2996 7.31451E+00
 -1      2997 9.06747E+00
 -1      2998 2.59022E+01
 -1      2999 2.16831E+01
 -1      3000 6.37908E+00
 -1      3001 7.03752E+00
 -1      3002 2.21229E-03
 -1      3003 5.48341E+00
 -1      3004 6.37908E+00
 -1      3005 6.02915E+00
 -1      3006 2.00905E+01
 -1      3007 2.59022E+01
 -1      3008 2.25156E+01
 -1      3009 2.14976E+01
 -1      3010 6.63568E+00
 -1      3011 5.94824E+00
 -1      3012 6.82173E-01
 -1      3013 5.39285E-01
 -1      3014 4.64080E-01
 -1      3015 5.54608E-01
 -1      3016 5.01510E+00
 -1      3017 2.61814E-01
 -1      3018 3.11986E-01
 -1      3019 3.52875E-01
 -1      3020 4.55282E+00
 -1      3021 6.53615E+00
 -1      3022 5.12593E+00
 -1      3023 5.52778E+00
 -1      3024 1.69657E+01
 -1      3025 1.50056E+01
 -1      3026 1.60157E+01
 -1      3027 5.64321E+00
 -1      3028 5.66508E+00
 -1      3029 3.42642E+00
 -1      3030 1.09577E+01
 -1      3031 1.00485E+01
 -1      3032 8.35425E+00
 -1      3033 1.53063E+01
 -1      3034 1.51380E+01
 -1      3035 1.06143E+01
 -1      3036 2.11146E-03
 -1      3037 2.05698E-03
 -1      3038 2.11091E-03
 -1      3039 1.07767E+01
 -1      3040 1.05695E+01
 -1      3041 7.44912E+00
 -1      3042 5.05021E+00
 -1      3043 5.60549E+00
 -1      3044 3.61153E+00
 -1      3045 3.39748E+00
 -1      3046 3.80318E+00
 -1      3047 4.89108E+00
 -1      3048 5.81034E+00
 -1      3049 2.25159E-03
 -1      3050 2.70471E-03
 -1      3051 3.01190E-03
 -1      3052 2.38922E-03
 -1      3053 7.11115E+00
 -1      3054 9.01020E+00
 -1      3055 2.16714E-03
 -1      3056 7.33821E-01
 -1      3057 9.33462E+00
 -1      3058 3.90321E+00
 -1      3059 3.06396E+00
 -1      3060 4.17651E+00
 -1      3061 8.33589E+00
 -1      3062 3.36962E+00
 -1      3063 6.45760E+00
 -1      3064 4.83740E+00
 -1      3065 5.77787E+00
 -1      3066 5.62917E+00
 -1      3067 1.34604E+01
 -1      3068 3.90992E-01
 -1      3069 4.31661E-01
 -1      3070 3.93236E-01
 -1      3071 3.18497E-01
 -1      3072 5.79309E-01
 -1      3073 2.11364E+01
 -1      3074 1.60001E+01
 -1      3075 1.40969E+01
 -1      3076 4.70318E-01
 -1      3077 5.43249E-01
 -1      3078 5.43249E-01
 -1      3079 1.38648E+01
 -1      3080 4.74916E+00
 -1      3081 5.29490E+00
 -1      3082 3.78310E+00
 -1      3083 2.59852E-03
 -1      3084 2.20632E-03
 -1      3085 2.36316E-03
 -1      3086 3.03687E-03
 -1      3087 7.14368E+00
 -1      3088 8.23497E+00
 -1      3089 5.39979E-01
 -1      3090 5.13948E-01
 -1      3091 4.69943E+00
 -1      3092 4.35835E-01
 -1      3093 4.37685E-01
 -1      3094 5.13799E-01
 -1      3095 5.32141E-01
 -1      3096 4.74342E-01
 -1      3097 4.81325E-01
 -1      3098 1.13699E+01
 -1      3099 1.36457E+01
 -1      3100 1.13968E+01
 -1      3101 8.40674E+00
 -1      3102 4.60980E-01
 -1      3103 4.96249E-01
 -1      3104 4.92671E-01
 -1      3105 5.55616E-01
 -1      3106 6.11314E-01
 -1      3107 5.75333E-01
 -1      3108 6.86891E-01
 -1      3109 7.56998E-01
 -1      3110 7.10276E-01
 -1      3111 8.55392E-01
 -1      3112 9.30517E-01
 -1      3113 8.84247E-01
 -1      3114 1.07965E+00
 -1      3115 1.14439E+00
 -1      3116 1.13177E+00
 -1      3117 1.31086E+00
 -1      3118 1.44828E+00
 -1      3119 1.44737E+00
 -1      3120 1.60680E+00
 -1      3121 1.73758E+00
 -1      3122 1.77235E+00
 -1      3123 1.71401E+00
 -1      3124 1.83368E+00
 -1      3125 1.90729E+00
 -1      3126 2.15248E+00
 -1      3127 2.15302E+00
 -1      3128 2.20251E+00
 -1      3129 2.17793E+00
 -1      3130 2.43241E+00
 -1      3131 2.54621E+00
 -1      3132 3.97308E+00
 -1      3133 5.52778E+00
 -1      3134 6.02915E+00
 -1      3135 5.29490E+00
 -1      3136 3.13240E+00
 -1      3137 2.39182E+00
 -1      3138 2.31788E+00
 -1      3139 2.29435E+00
 -1      3140 3.05845E+00
 -1      3141 1.79224E+00
 -1      3142 1.63561E+00
 -1      3143 2.48239E+00
 -1      3144 1.49411E+00
 -1      3145 1.40413E+00
 -1      3146 1.83878E+00
 -1      3147 1.24194E+00
 -1      3148 1.18358E+00
 -1      3149 1.53510E+00
 -1      3150 1.03235E+00
 -1      3151 9.58880E-01
 -1      3152 1.22168E+00
 -1      3153 8.72268E-01
 -1      3154 8.04696E-01
 -1      3155 9.83839E-01
 -1      3156 7.25487E-01
 -1      3157 6.84192E-01
 -1      3158 8.18018E-01
 -1      3159 6.15494E-01
 -1      3160 5.69499E-01
 -1      3161 6.70110E-01
 -1      3162 5.09872E-01
 -1      3163 4.63903E-01
 -1      3164 5.41786E-01
 -1      3165 4.12319E-01
 -1      3166 3.69622E-01
 -1      3167 4.30575E-01
 -1      3168 3.28205E-01
 -1      3169 2.90432E-01
 -1      3170 3.37575E-01
 -1      3171 2.58622E-01
 -1      3172 2.26388E-01
 -1      3173 2.64348E-01
 -1      3174 1.98859E-01
 -1      3175 1.72136E-01
 -1      3176 2.05009E-01
 -1      3177 1.49258E-01
 -1      3178 1.27647E-01
 -1      3179 1.54602E-01
 -1      3180 1.09248E-01
 -1      3181 9.21624E-02
 -1      3182 1.13325E-01
 -1      3183 7.85184E-02
 -1      3184 6.53000E-02
 -1      3185 8.12810E-02
 -1      3186 5.48824E-02
 -1      3187 4.48761E-02
 -1      3188 5.72194E-02
 -1      3189 3.75407E-02
 -1      3190 3.01393E-02
 -1      3191 3.94664E-02
 -1      3192 2.47459E-02
 -1      3193 1.94117E-02
 -1      3194 2.67376E-02
 -1      3195 1.55360E-02
 -1      3196 1.20983E-02
 -1      3197 1.74686E-02
 -1      3198 9.39126E-03
 -1      3199 8.32647E-03
 -1      3200 1.08860E-02
 -1      3201 6.68479E-03
 -1      3202 6.20284E-03
 -1      3203 6.53725E-03
 -1      3204 5.96549E-03
 -1      3205 5.30662E-03
 -1      3206 4.65821E-03
 -1      3207 5.10516E-03
 -1      3208 4.37476E-03
 -1      3209 4.21941E-03
 -1      3210 4.02481E-03
 -1      3211 3.37705E-03
 -1      3212 2.97788E-03
 -1      3213 3.66800E-03
 -1      3214 1.51094E-03
 -1      3215 1.47445E-03
 -1      3216 5.60549E+00
 -1      3217 2.31725E+00
 -1      3218 2.07459E+00
 -1      3219 1.79661E+00
 -1      3220 1.63036E+00
 -1      3221 2.18778E+00
 -1      3222 3.08803E+00
 -1      3223 3.06254E+00
 -1      3224 4.78471E+00
 -1      3225 1.90326E+00
 -1      3226 2.11127E+00
 -1      3227 1.56185E+00
 -1      3228 1.65517E+00
 -1      3229 1.99999E+00
 -1      3230 1.25374E+00
 -1      3231 1.35695E+00
 -1      3232 1.54699E+00
 -1      3233 1.00441E+00
 -1      3234 1.10595E+00
 -1      3235 1.19430E+00
 -1      3236 7.94719E-01
 -1      3237 8.87333E-01
 -1      3238 9.29429E-01
 -1      3239 6.31128E-01
 -1      3240 7.11844E-01
 -1      3241 7.29479E-01
 -1      3242 4.90440E-01
 -1      3243 5.58603E-01
 -1      3244 5.74080E-01
 -1      3245 3.73748E-01
 -1      3246 4.29942E-01
 -1      3247 4.41057E-01
 -1      3248 2.79484E-01
 -1      3249 3.24879E-01
 -1      3250 3.31690E-01
 -1      3251 2.05728E-01
 -1      3252 2.41737E-01
 -1      3253 2.45073E-01
 -1      3254 1.50917E-01
 -1      3255 1.78996E-01
 -1      3256 1.80593E-01
 -1      3257 1.08616E-01
 -1      3258 1.30149E-01
 -1      3259 1.33092E-01
 -1      3260 7.64385E-02
 -1      3261 9.26713E-02
 -1      3262 9.63793E-02
 -1      3263 5.23524E-02
 -1      3264 6.43681E-02
 -1      3265 6.83642E-02
 -1      3266 3.46489E-02
 -1      3267 4.33626E-02
 -1      3268 4.73039E-02
 -1      3269 2.19442E-02
 -1      3270 2.80794E-02
 -1      3271 3.17445E-02
 -1      3272 1.44075E-02
 -1      3273 1.72514E-02
 -1      3274 2.04822E-02
 -1      3275 1.04152E-02
 -1      3276 1.11489E-02
 -1      3277 1.25308E-02
 -1      3278 7.99597E-03
 -1      3279 8.93364E-03
 -1      3280 7.79059E-03
 -1      3281 6.79142E-03
 -1      3282 7.80508E-03
 -1      3283 6.11814E-03
 -1      3284 5.35969E-03
 -1      3285 6.36387E-03
 -1      3286 5.49969E-03
 -1      3287 4.09717E-03
 -1      3288 4.80602E-03
 -1      3289 4.51846E-03
 -1      3290 3.28016E-03
 -1      3291 3.64798E-03
 -1      3292 3.51560E-03
 -1      3293 2.79816E-03
 -1      3294 6.86174E-01
 -1      3295 6.02922E-01
 -1      3296 1.43453E-03
 -1      3297 1.43050E-03
 -1      3298 1.40284E-03
 -1      3299 2.08863E-03
 -1      3300 1.99464E-03
 -1      3301 4.32915E+00
 -1      3302 3.65651E+00
 -1      3303 4.19433E+00
 -1      3304 1.18311E+01
 -1      3305 1.18311E+01
 -1      3306 4.98960E-01
 -1      3307 4.96413E-01
 -1      3308 4.59630E-01
 -1      3309 4.14143E-01
 -1      3310 4.71064E-01
 -1      3311 4.56535E-01
 -1      3312 4.90075E-01
 -1      3313 1.76163E-03
 -1      3314 1.60085E-03
 -1      3315 1.53268E-03
 -1      3316 1.85562E-03
 -1      3317 2.51874E+00
 -1      3318 2.74600E+00
 -1      3319 2.65555E+00
 -1      3320 3.26648E+00
 -1      3321 3.43435E+00
 -1      3322 3.58350E+00
 -1      3323 2.97390E+00
 -1      3324 2.75537E+00
 -1      3325 2.90388E+00
 -1      3326 3.43065E+00
 -1      3327 8.63944E-01
 -1      3328 7.60623E-01
 -1      3329 7.40973E-01
 -1      3330 5.75884E+00
 -1      3331 6.89102E+00
 -1      3332 5.79137E+00
 -1      3333 4.47930E+00
 -1      3334 7.19925E+00
 -1      3335 8.19878E+00
 -1      3336 7.21761E+00
 -1      3337 8.12059E+00
 -1      3338 6.30635E+00
 -1      3339 3.02861E-01
 -1      3340 2.64605E-01
 -1      3341 1.19084E+01
 -1      3342 1.03632E+01
 -1      3343 3.36082E+00
 -1      3344 2.85026E+00
 -1      3345 1.52011E+01
 -1      3346 1.26935E+01
 -1      3347 1.00504E+01
 -1      3348 9.50498E+00
 -1      3349 1.10943E+01
 -1      3350 1.22351E+01
 -1      3351 2.26145E-01
 -1      3352 2.44712E-01
 -1      3353 2.47503E-01
 -1      3354 4.92816E-01
 -1      3355 5.03569E-01
 -1      3356 4.57608E-01
 -1      3357 3.84652E+00
 -1      3358 3.84652E+00
 -1      3359 1.28655E+01
 -1      3360 8.24662E+00
 -1      3361 1.06010E+01
 -1      3362 3.41762E+00
 -1      3363 4.46802E+00
 -1      3364 5.35762E+00
 -1      3365 8.53616E+00
 -1      3366 8.72455E+00
 -1      3367 6.34522E+00
 -1      3368 2.10879E-03
 -1      3369 2.24588E-03
 -1      3370 2.60673E+00
 -1      3371 2.91976E+00
 -1      3372 4.56065E+00
 -1      3373 4.82135E+00
 -1      3374 4.15171E+00
 -1      3375 9.96663E-01
 -1      3376 9.48141E-01
 -1      3377 1.10926E+00
 -1      3378 1.68016E+00
 -1      3379 1.40071E+00
 -1      3380 1.29408E+00
 -1      3381 4.92637E+00
 -1      3382 8.73389E+00
 -1      3383 5.57995E+00
 -1      3384 1.64051E-03
 -1      3385 1.82284E-03
 -1      3386 1.95726E-03
 -1      3387 1.48207E-03
 -1      3388 1.53788E-03
 -1      3389 1.56867E-03
 -1      3390 1.41448E-03
 -1      3391 3.00198E+00
 -1      3392 3.22565E+00
 -1      3393 5.66777E+00
 -1      3394 5.53066E+00
 -1      3395 1.12739E+01
 -1      3396 8.09945E+00
 -1      3397 8.50346E+00
 -1      3398 3.99648E+00
 -1      3399 1.08658E+01
 -1      3400 5.74720E-01
 -1      3401 5.11171E-01
 -1      3402 5.13092E-01
 -1      3403 6.38322E-01
 -1      3404 4.25478E+00
 -1      3405 3.20064E+00
 -1      3406 3.86153E+00
 -1      3407 6.07194E+00
 -1      3408 4.73822E+00
 -1      3409 6.40947E+00
 -1      3410 6.73093E+00
 -1      3411 9.40635E+00
 -1      3412 7.77672E+00
 -1      3413 1.26935E+01
 -1      3414 1.23323E+01
 -1      3415 1.09290E+01
 -1      3416 3.47385E-01
 -1      3417 3.30487E-01
 -1      3418 4.03895E-01
 -1      3419 2.63770E-03
 -1      3420 2.36316E-03
 -1      3421 2.36316E-03
 -1      3422 2.97788E-03
 -1      3423 4.70318E-01
 -1      3424 5.10775E-01
 -1      3425 7.88443E+00
 -1      3426 5.18059E+00
 -1      3427 6.56498E+00
 -1      3428 8.49833E+00
 -1      3429 3.68098E-01
 -1      3430 4.04722E-01
 -1      3431 4.45179E-01
 -1      3432 4.22962E+00
 -1      3433 4.41613E-01
 -1      3434 4.81325E-01
 -1      3435 6.57546E+00
 -1      3436 6.73093E+00
 -1      3437 5.10775E-01
 -1      3438 5.25857E-01
 -1      3439 5.49153E-01
 -1      3440 5.74794E-01
 -1      3441 6.34160E-01
 -1      3442 6.07980E-01
 -1      3443 7.30674E-01
 -1      3444 8.06251E-01
 -1      3445 7.30135E-01
 -1      3446 9.52609E-01
 -1      3447 1.05100E+00
 -1      3448 9.73008E-01
 -1      3449 1.22301E+00
 -1      3450 1.37214E+00
 -1      3451 1.29137E+00
 -1      3452 1.56693E+00
 -1      3453 1.73339E+00
 -1      3454 1.65816E+00
 -1      3455 2.25163E+00
 -1      3456 2.41015E+00
 -1      3457 2.37119E+00
 -1      3458 2.54268E+00
 -1      3459 2.51911E+00
 -1      3460 3.02197E+00
 -1      3461 2.94144E+00
 -1      3462 3.26024E+00
 -1      3463 5.07401E+00
 -1      3464 5.10775E-01
 -1      3465 3.13171E+00
 -1      3466 2.62960E+00
 -1      3467 2.30375E+00
 -1      3468 2.16225E+00
 -1      3469 2.95306E+00
 -1      3470 1.80643E+00
 -1      3471 1.64425E+00
 -1      3472 2.27140E+00
 -1      3473 1.46250E+00
 -1      3474 1.31127E+00
 -1      3475 1.73383E+00
 -1      3476 1.13411E+00
 -1      3477 1.04750E+00
 -1      3478 1.37493E+00
 -1      3479 8.97288E-01
 -1      3480 8.18078E-01
 -1      3481 1.04756E+00
 -1      3482 7.19971E-01
 -1      3483 6.51273E-01
 -1      3484 7.99241E-01
 -1      3485 5.80148E-01
 -1      3486 5.20521E-01
 -1      3487 6.30008E-01
 -1      3488 4.71408E-01
 -1      3489 4.19824E-01
 -1      3490 5.09770E-01
 -1      3491 3.75406E-01
 -1      3492 3.33989E-01
 -1      3493 4.16239E-01
 -1      3494 2.94831E-01
 -1      3495 2.63021E-01
 -1      3496 3.32662E-01
 -1      3497 2.29718E-01
 -1      3498 2.02189E-01
 -1      3499 2.60201E-01
 -1      3500 1.74638E-01
 -1      3501 1.51760E-01
 -1      3502 1.99347E-01
 -1      3503 1.29499E-01
 -1      3504 1.11100E-01
 -1      3505 1.49535E-01
 -1      3506 9.34971E-02
 -1      3507 7.98530E-02
 -1      3508 1.09672E-01
 -1      3509 6.62231E-02
 -1      3510 5.58055E-02
 -1      3511 7.84392E-02
 -1      3512 4.58309E-02
 -1      3513 3.84955E-02
 -1      3514 5.48346E-02
 -1      3515 3.12281E-02
 -1      3516 2.58348E-02
 -1      3517 3.75926E-02
 -1      3518 2.04903E-02
 -1      3519 1.66146E-02
 -1      3520 2.49807E-02
 -1      3521 1.27835E-02
 -1      3522 1.00765E-02
 -1      3523 1.58051E-02
 -1      3524 7.43325E-03
 -1      3525 5.79157E-03
 -1      3526 9.33078E-03
 -1      3527 4.09765E-03
 -1      3528 3.86030E-03
 -1      3529 4.99366E-03
 -1      3530 3.50384E-03
 -1      3531 3.30238E-03
 -1      3532 2.94328E-03
 -1      3533 3.84072E+00
 -1      3534 3.56274E+00
 -1      3535 3.25755E+00
 -1      3536 1.17409E+00
 -1      3537 1.32188E+00
 -1      3538 2.55248E+00
 -1      3539 2.95995E+00
 -1      3540 2.03297E+00
 -1      3541 2.28106E+00
 -1      3542 2.58545E+00
 -1      3543 9.21916E-01
 -1      3544 1.03899E+00
 -1      3545 1.16658E+00
 -1      3546 7.26929E-01
 -1      3547 8.09804E-01
 -1      3548 9.19365E-01
 -1      3549 5.63117E-01
 -1      3550 6.35642E-01
 -1      3551 7.15967E-01
 -1      3552 4.29386E-01
 -1      3553 4.89883E-01
 -1      3554 5.51446E-01
 -1      3555 3.22268E-01
 -1      3556 3.71137E-01
 -1      3557 4.19964E-01
 -1      3558 2.38627E-01
 -1      3559 2.76374E-01
 -1      3560 3.15821E-01
 -1      3561 1.76110E-01
 -1      3562 2.02842E-01
 -1      3563 2.34143E-01
 -1      3564 1.27756E-01
 -1      3565 1.48524E-01
 -1      3566 1.70773E-01
 -1      3567 9.08153E-02
 -1      3568 1.06760E-01
 -1      3569 1.22192E-01
 -1      3570 6.33896E-02
 -1      3571 7.54600E-02
 -1      3572 8.58407E-02
 -1      3573 4.33261E-02
 -1      3574 5.23160E-02
 -1      3575 5.94119E-02
 -1      3576 2.86073E-02
 -1      3577 3.51768E-02
 -1      3578 4.01889E-02
 -1      3579 1.80605E-02
 -1      3580 2.27533E-02
 -1      3581 2.61856E-02
 -1      3582 1.07331E-02
 -1      3583 1.39917E-02
 -1      3584 1.62629E-02
 -1      3585 6.62664E-03
 -1      3586 8.10819E-03
 -1      3587 9.56917E-03
 -1      3588 4.97346E-03
 -1      3589 5.16436E-03
 -1      3590 5.48196E-03
 -1      3591 4.24512E-03
 -1      3592 4.67268E-03
 -1      3593 3.71890E-03
 -1      3594 3.61462E-03
 -1      3595 4.16829E-03
 -1      3596 3.34128E-03
 -1      3597 1.52718E-03
 -1      3598 1.48726E-03
 -1      3599 2.29755E-03
 -1      3600 2.43823E-03
 -1      3601 2.70649E-03
 -1      3602 2.29489E-03
 -1      3603 2.70629E+00
 -1      3604 7.66589E+00
 -1      3605 7.04580E+00
 -1      3606 1.51170E+00
 -1      3607 1.71661E+00
 -1      3608 1.99767E+00
 -1      3609 1.49149E+00
 -1      3610 3.58350E+00
 -1      3611 4.10398E+00
 -1      3612 5.07401E+00
 -1      3613 3.48043E+00
 -1      3614 8.24588E-01
 -1      3615 7.50139E-01
 -1      3616 3.00898E+00
 -1      3617 2.95057E+00
 -1      3618 2.81987E-01
 -1      3619 3.20104E-01
 -1      3620 3.31589E-01
 -1      3621 5.01377E-01
 -1      3622 4.80677E-01
 -1      3623 5.37159E-01
 -1      3624 5.01377E-01
 -1      3625 9.38509E+00
 -1      3626 9.44822E+00
 -1      3627 7.76406E+00
 -1      3628 7.84129E+00
 -1      3629 7.84129E+00
 -1      3630 7.52849E+00
 -1      3631 6.87146E+00
 -1      3632 3.20565E+00
 -1      3633 3.13171E+00
 -1      3634 3.57684E+00
 -1      3635 2.68138E+00
 -1      3636 5.80146E-01
 -1      3637 5.69767E-01
 -1      3638 6.02915E+00
 -1      3639 1.61710E-03
 -1      3640 1.52718E-03
 -1      3641 1.61160E-03
 -1      3642 7.30694E+00
 -1      3643 6.77197E+00
 -1      3644 7.55218E+00
 -1      3645 6.19124E+00
 -1      3646 4.37938E+00
 -1      3647 1.11721E+00
 -1      3648 1.12637E+00
 -1      3649 1.24992E+00
 -1      3650 3.27891E+00
 -1      3651 4.22559E+00
 -1      3652 2.57265E+00
 -1      3653 2.34300E+00
 -1      3654 3.70509E+00
 -1      3655 5.08005E+00
 -1      3656 3.42087E-03
 -1      3657 3.07092E-03
 -1      3658 2.73074E-03
 -1      3659 2.70530E-03
 -1      3660 7.37015E-01
 -1      3661 6.53401E-01
 -1      3662 1.26568E+00
 -1      3663 1.87017E-03
 -1      3664 1.74583E-03
 -1      3665 1.79739E-03
 -1      3666 3.15568E-03
 -1      3667 7.24937E+00
 -1      3668 8.73011E+00
 -1      3669 8.73011E+00
 -1      3670 2.80551E-03
 -1      3671 4.14322E+00
 -1      3672 7.38050E+00
 -1      3673 6.41928E+00
 -1      3674 6.08877E+00
 -1      3675 6.35521E+00
 -1      3676 6.91241E+00
 -1      3677 6.01981E+00
 -1      3678 4.83787E-01
 -1      3679 5.27353E-01
 -1      3680 6.04304E-01
 -1      3681 5.80815E-01
 -1      3682 6.25198E-01
 -1      3683 2.46319E-01
 -1      3684 5.60795E+00
 -1      3685 4.23077E+00
 -1      3686 4.86710E+00
 -1      3687 2.74544E+00
 -1      3688 3.83245E+00
 -1      3689 5.36393E+00
 -1      3690 2.04032E-03
 -1      3691 2.32628E-03
 -1      3692 3.72812E+00
 -1      3693 5.69255E+00
 -1      3694 4.87725E+00
 -1      3695 4.90629E-01
 -1      3696 4.81230E-01
 -1      3697 4.25033E-01
 -1      3698 9.35642E+00
 -1      3699 6.22180E+00
 -1      3700 7.95307E+00
 -1      3701 4.28724E-01
 -1      3702 5.90794E+00
 -1      3703 2.45621E-03
 -1      3704 3.34190E-01
 -1      3705 2.95731E-01
 -1      3706 2.75383E-03
 -1      3707 4.19873E+00
 -1      3708 3.90466E+00
 -1      3709 3.32204E+00
 -1      3710 3.39721E+00
 -1      3711 2.26658E-03
 -1      3712 1.89901E-03
 -1      3713 1.66599E-03
 -1      3714 2.14810E-03
 -1      3715 4.55691E-01
 -1      3716 4.11167E-01
 -1      3717 4.59395E-01
 -1      3718 3.41011E+00
 -1      3719 2.83690E-03
 -1      3720 2.91675E-01
 -1      3721 3.28951E-01
 -1      3722 3.78363E-01
 -1      3723 5.37520E+00
 -1      3724 1.93769E-03
 -1      3725 2.04032E-03
 -1      3726 2.40934E-03
 -1      3727 2.26904E-03
 -1      3728 3.97308E+00
 -1      3729 7.11394E-01
 -1      3730 8.07908E-01
 -1      3731 9.53045E-01
 -1      3732 1.09940E+00
 -1      3733 9.34304E-01
 -1      3734 1.34300E+00
 -1      3735 1.51500E+00
 -1      3736 1.32304E+00
 -1      3737 2.22812E+00
 -1      3738 2.42291E+00
 -1      3739 2.27976E+00
 -1      3740 2.81293E+00
 -1      3741 3.33118E+00
 -1      3742 3.38290E+00
 -1      3743 3.27758E+00
 -1      3744 2.68299E+00
 -1      3745 2.32718E+00
 -1      3746 2.12932E+00
 -1      3747 1.94757E+00
 -1      3748 2.54091E+00
 -1      3749 1.57374E+00
 -1      3750 1.39659E+00
 -1      3751 1.96923E+00
 -1      3752 1.17035E+00
 -1      3753 1.02013E+00
 -1      3754 1.36916E+00
 -1      3755 8.81180E-01
 -1      3756 7.83073E-01
 -1      3757 1.00397E+00
 -1      3758 7.01133E-01
 -1      3759 6.30008E-01
 -1      3760 7.83073E-01
 -1      3761 5.58884E-01
 -1      3762 5.09770E-01
 -1      3763 6.30008E-01
 -1      3764 4.50524E-01
 -1      3765 4.06106E-01
 -1      3766 4.99638E-01
 -1      3767 3.57544E-01
 -1      3768 3.18386E-01
 -1      3769 3.91830E-01
 -1      3770 2.78942E-01
 -1      3771 2.45639E-01
 -1      3772 3.03824E-01
 -1      3773 2.13892E-01
 -1      3774 1.86341E-01
 -1      3775 2.32633E-01
 -1      3776 1.61055E-01
 -1      3777 1.38794E-01
 -1      3778 1.75600E-01
 -1      3779 1.18895E-01
 -1      3780 1.01292E-01
 -1      3781 1.30414E-01
 -1      3782 8.58418E-02
 -1      3783 7.22119E-02
 -1      3784 9.50648E-02
 -1      3785 6.03955E-02
 -1      3786 5.04208E-02
 -1      3787 6.77981E-02
 -1      3788 4.15350E-02
 -1      3789 3.42676E-02
 -1      3790 4.70958E-02
 -1      3791 2.81284E-02
 -1      3792 2.27839E-02
 -1      3793 3.20708E-02
 -1      3794 1.82986E-02
 -1      3795 1.44675E-02
 -1      3796 2.14463E-02
 -1      3797 1.12425E-02
 -1      3798 8.59934E-03
 -1      3799 1.37361E-02
 -1      3800 6.34318E-03
 -1      3801 4.64926E-03
 -1      3802 8.25494E-03
 -1      3803 3.32853E-03
 -1      3804 2.97206E-03
 -1      3805 4.67804E-03
 -1      3806 4.85011E+00
 -1      3807 6.12132E+00
 -1      3808 6.78185E+00
 -1      3809 4.22655E+00
 -1      3810 8.71533E-01
 -1      3811 9.83645E-01
 -1      3812 6.04357E+00
 -1      3813 1.87548E+00
 -1      3814 1.69065E+00
 -1      3815 2.76797E+00
 -1      3816 2.81708E+00
 -1      3817 3.08850E+00
 -1      3818 6.67254E-01
 -1      3819 7.58541E-01
 -1      3820 8.22820E-01
 -1      3821 5.09417E-01
 -1      3822 5.82651E-01
 -1      3823 6.25225E-01
 -1      3824 3.86282E-01
 -1      3825 4.44530E-01
 -1      3826 4.75735E-01
 -1      3827 2.90158E-01
 -1      3828 3.36051E-01
 -1      3829 3.60618E-01
 -1      3830 2.15332E-01
 -1      3831 2.51117E-01
 -1      3832 2.71347E-01
 -1      3833 1.57445E-01
 -1      3834 1.85030E-01
 -1      3835 2.02004E-01
 -1      3836 1.13068E-01
 -1      3837 1.34064E-01
 -1      3838 1.48321E-01
 -1      3839 7.98401E-02
 -1      3840 9.51953E-02
 -1      3841 1.07067E-01
 -1      3842 5.52699E-02
 -1      3843 6.63435E-02
 -1      3844 7.56981E-02
 -1      3845 3.73395E-02
 -1      3846 4.54889E-02
 -1      3847 5.24205E-02
 -1      3848 2.45536E-02
 -1      3849 3.04076E-02
 -1      3850 3.57076E-02
 -1      3851 1.54285E-02
 -1      3852 1.94973E-02
 -1      3853 2.37193E-02
 -1      3854 9.19832E-03
 -1      3855 1.18233E-02
 -1      3856 1.50577E-02
 -1      3857 5.24147E-03
 -1      3858 6.70375E-03
 -1      3859 8.95783E-03
 -1      3860 3.92947E-03
 -1      3861 4.23026E-03
 -1      3862 5.45205E-03
 -1      3863 2.91373E-03
 -1      3864 6.04357E+00
 -1      3865 6.04357E+00
 -1      3866 3.71932E+00
 -1      3867 5.21568E+00
 -1      3868 3.42509E-03
 -1      3869 3.08725E+00
 -1      3870 3.48878E-01
 -1      3871 3.96872E-01
 -1      3872 4.42321E-01
 -1      3873 3.94234E-01
 -1      3874 8.27332E-01
 -1      3875 7.30593E-01
 -1      3876 4.81978E+00
 -1      3877 5.94274E+00
 -1      3878 5.69767E-01
 -1      3879 5.16054E-01
 -1      3880 5.96734E-01
 -1      3881 6.57097E-01
 -1      3882 5.37159E-01
 -1      3883 5.82339E-01
 -1      3884 5.26411E-01
 -1      3885 1.13957E+00
 -1      3886 1.27466E+00
 -1      3887 1.09173E+00
 -1      3888 6.07980E-01
 -1      3889 6.33621E-01
 -1      3890 7.11394E-01
 -1      3891 6.07980E-01
 -1      3892 6.18345E+00
 -1      3893 5.48901E+00
 -1      3894 4.93884E+00
 -1      3895 3.17630E+00
 -1      3896 1.66050E-03
 -1      3897 1.85972E+00
 -1      3898 2.53764E-03
 -1      3899 2.53764E-03
 -1      3900 4.64110E+00
 -1      3901 4.64110E+00
 -1      3902 3.65100E+00
 -1      3903 3.11366E+00
 -1      3904 2.78781E+00
 -1      3905 2.84359E+00
 -1      3906 2.53335E-03
 -1      3907 4.45818E+00
 -1      3908 1.46448E+00
 -1      3909 1.49149E+00
 -1      3910 1.68131E+00
 -1      3911 2.29125E+00
 -1      3912 2.79430E+00
 -1      3913 1.97489E+00
 -1      3914 2.53764E-03
 -1      3915 2.79621E-03
 -1      3916 3.46368E-03
 -1      3917 5.33628E+00
 -1      3918 4.50839E+00
 -1      3919 4.48463E+00
 -1      3920 5.64026E+00
 -1      3921 7.83911E+00
 -1      3922 4.86322E+00
 -1      3923 4.93085E+00
 -1      3924 5.10580E+00
 -1      3925 5.10580E+00
 -1      3926 4.75570E+00
 -1      3927 4.62668E+00
 -1      3928 3.18883E+00
 -1      3929 1.26773E+00
 -1      3930 9.75110E-01
 -1      3931 9.68688E-01
 -1      3932 3.42509E-03
 -1      3933 4.44084E-03
 -1      3934 3.42509E-03
 -1      3935 4.40183E-01
 -1      3936 4.36127E-01
 -1      3937 4.53462E+00
 -1      3938 4.05808E+00
 -1      3939 4.70957E+00
 -1      3940 3.94787E+00
 -1      3941 4.81116E+00
 -1      3942 3.13289E+00
 -1      3943 3.02807E+00
 -1      3944 4.69745E+00
 -1      3945 4.91893E-01
 -1      3946 5.49657E-01
 -1      3947 5.68869E-01
 -1      3948 2.60772E-03
 -1      3949 2.74802E-03
 -1      3950 3.76376E-03
 -1      3951 3.27518E-03
 -1      3952 2.48446E-03
 -1      3953 3.41050E-03
 -1      3954 1.25502E+00
 -1      3955 1.49862E+00
 -1      3956 2.05885E+00
 -1      3957 2.77197E+00
 -1      3958 1.99083E+00
 -1      3959 3.35408E+00
 -1      3960 3.32204E+00
 -1      3961 2.73877E+00
 -1      3962 2.54091E+00
 -1      3963 5.22660E+00
 -1      3964 6.41223E+00
 -1      3965 2.22998E+00
 -1      3966 1.85615E+00
 -1      3967 2.42784E+00
 -1      3968 1.55945E+00
 -1      3969 1.33320E+00
 -1      3970 1.82020E+00
 -1      3971 1.14292E+00
 -1      3972 1.00397E+00
 -1      3973 1.33320E+00
 -1      3974 8.64187E-01
 -1      3975 7.82248E-01
 -1      3976 1.00314E+00
 -1      3977 6.75607E-01
 -1      3978 6.04482E-01
 -1      3979 7.56722E-01
 -1      3980 5.25595E-01
 -1      3981 4.66349E-01
 -1      3982 5.71193E-01
 -1      3983 4.07211E-01
 -1      3984 3.58649E-01
 -1      3985 4.33167E-01
 -1      3986 3.13428E-01
 -1      3987 2.73984E-01
 -1      3988 3.28809E-01
 -1      3989 2.39088E-01
 -1      3990 2.07341E-01
 -1      3991 2.48692E-01
 -1      3992 1.80319E-01
 -1      3993 1.55033E-01
 -1      3994 1.86774E-01
 -1      3995 1.34133E-01
 -1      3996 1.14234E-01
 -1      3997 1.38852E-01
 -1      3998 9.81514E-02
 -1      3999 8.27011E-02
 -1      4000 1.01870E-01
 -1      4001 7.04282E-02
 -1      4002 5.86118E-02
 -1      4003 7.35148E-02
 -1      4004 4.93503E-02
 -1      4005 4.04644E-02
 -1      4006 5.19804E-02
 -1      4007 3.35723E-02
 -1      4008 2.74331E-02
 -1      4009 3.58268E-02
 -1      4010 2.28736E-02
 -1      4011 1.83884E-02
 -1      4012 2.43752E-02
 -1      4013 1.51582E-02
 -1      4014 1.19332E-02
 -1      4015 1.65855E-02
 -1      4016 9.53446E-03
 -1      4017 7.27830E-03
 -1      4018 1.09566E-02
 -1      4019 5.47493E-03
 -1      4020 4.15420E-03
 -1      4021 4.20738E-03
 -1      4022 6.75445E-03
 -1      4023 4.12623E-01
 -1      4024 4.77509E-01
 -1      4025 2.94650E+00
 -1      4026 2.47897E+00
 -1      4027 3.36201E+00
 -1      4028 4.08856E+00
 -1      4029 7.16794E-01
 -1      4030 8.29787E-01
 -1      4031 3.13143E-01
 -1      4032 3.63373E-01
 -1      4033 3.65147E-01
 -1      4034 2.36064E-01
 -1      4035 2.75105E-01
 -1      4036 2.77860E-01
 -1      4037 1.76084E-01
 -1      4038 2.06385E-01
 -1      4039 2.10144E-01
 -1      4040 1.29526E-01
 -1      4041 1.52907E-01
 -1      4042 1.57289E-01
 -1      4043 9.36499E-02
 -1      4044 1.11523E-01
 -1      4045 1.16109E-01
 -1      4046 6.62996E-02
 -1      4047 7.97962E-02
 -1      4048 8.42514E-02
 -1      4049 4.59910E-02
 -1      4050 5.57720E-02
 -1      4051 5.98701E-02
 -1      4052 3.11799E-02
 -1      4053 3.81119E-02
 -1      4054 4.14634E-02
 -1      4055 2.07381E-02
 -1      4056 2.57944E-02
 -1      4057 2.81988E-02
 -1      4058 1.32024E-02
 -1      4059 1.68077E-02
 -1      4060 1.88828E-02
 -1      4061 7.89843E-03
 -1      4062 1.03930E-02
 -1      4063 1.21430E-02
 -1      4064 5.13500E-03
 -1      4065 6.14621E-03
 -1      4066 7.58138E-03
 -1      4067 5.13500E-03
 -1      4068 7.39004E-01
 -1      4069 7.39004E-01
 -1      4070 3.01399E+00
 -1      4071 5.42807E-01
 -1      4072 6.27410E-01
 -1      4073 6.34376E-01
 -1      4074 4.79695E-01
 -1      4075 5.69412E+00
 -1      4076 3.94787E+00
 -1      4077 4.01140E+00
 -1      4078 4.42387E+00
 -1      4079 3.74034E+00
 -1      4080 9.34304E-01
 -1      4081 1.07944E+00
 -1      4082 1.25502E+00
 -1      4083 5.38281E-01
 -1      4084 5.94210E-01
 -1      4085 5.10121E-01
 -1      4086 4.00475E+00
 -1      4087 4.84189E+00
 -1      4088 3.95089E+00
 -1      4089 3.12977E+00
 -1      4090 3.41493E+00
 -1      4091 3.08310E+00
 -1      4092 3.32013E+00
 -1      4093 4.08856E+00
 -1      4094 3.23633E+00
 -1      4095 2.79430E+00
 -1      4096 3.77292E+00
 -1      4097 3.38290E+00
 -1      4098 3.16199E+00
 -1      4099 5.95894E-01
 -1      4100 6.48686E-01
 -1      4101 7.23716E-01
 -1      4102 6.63353E-01
 -1      4103 6.95852E-01
 -1      4104 8.05623E-01
 -1      4105 9.35932E-01
 -1      4106 1.09185E+00
 -1      4107 8.29906E-01
 -1      4108 2.01958E+00
 -1      4109 1.57885E+00
 -1      4110 1.42759E+00
 -1      4111 2.19811E+00
 -1      4112 3.93381E+00
 -1      4113 6.90816E-01
 -1      4114 6.78946E-01
 -1      4115 7.04587E-01
 -1      4116 4.50094E+00
 -1      4117 4.46259E+00
 -1      4118 4.38698E+00
 -1      4119 2.51884E+00
 -1      4120 3.02807E+00
 -1      4121 5.05111E+00
 -1      4122 3.67104E+00
 -1      4123 3.38173E+00
 -1      4124 4.46259E+00
 -1      4125 4.90597E-03
 -1      4126 4.16227E-03
 -1      4127 4.16227E-03
 -1      4128 1.45068E+00
 -1      4129 1.66751E+00
 -1      4130 1.29488E+00
 -1      4131 1.97489E+00
 -1      4132 1.13409E+00
 -1      4133 1.11880E+00
 -1      4134 1.28186E+00
 -1      4135 7.02070E-01
 -1      4136 6.50360E-01
 -1      4137 8.02773E-01
 -1      4138 6.50360E-01
 -1      4139 4.85691E-01
 -1      4140 5.05618E-01
 -1      4141 6.01578E-01
 -1      4142 5.47511E-01
 -1      4143 6.99924E-01
 -1      4144 7.82360E-01
 -1      4145 9.27496E-01
 -1      4146 7.04427E-01
 -1      4147 7.89163E-01
 -1      4148 3.13825E+00
 -1      4149 2.82732E+00
 -1      4150 7.34600E-01
 -1      4151 8.40744E-01
 -1      4152 2.11690E+00
 -1      4153 1.82020E+00
 -1      4154 2.82732E+00
 -1      4155 1.49564E+00
 -1      4156 1.30535E+00
 -1      4157 1.79234E+00
 -1      4158 1.08901E+00
 -1      4159 9.49231E-01
 -1      4160 1.25144E+00
 -1      4161 7.77730E-01
 -1      4162 6.71089E-01
 -1      4163 8.63598E-01
 -1      4164 5.76754E-01
 -1      4165 4.97867E-01
 -1      4166 5.97763E-01
 -1      4167 4.31119E-01
 -1      4168 3.71981E-01
 -1      4169 4.36680E-01
 -1      4170 3.32313E-01
 -1      4171 2.87092E-01
 -1      4172 3.30264E-01
 -1      4173 2.55250E-01
 -1      4174 2.20354E-01
 -1      4175 2.58755E-01
 -1      4176 1.94559E-01
 -1      4177 1.67538E-01
 -1      4178 2.01118E-01
 -1      4179 1.46737E-01
 -1      4180 1.25837E-01
 -1      4181 1.54523E-01
 -1      4182 1.09205E-01
 -1      4183 9.31220E-02
 -1      4184 1.17089E-01
 -1      4185 7.99678E-02
 -1      4186 6.76949E-02
 -1      4187 8.73021E-02
 -1      4188 5.74249E-02
 -1      4189 4.81634E-02
 -1      4190 6.38779E-02
 -1      4191 4.02594E-02
 -1      4192 3.33673E-02
 -1      4193 4.57039E-02
 -1      4194 2.73919E-02
 -1      4195 2.28324E-02
 -1      4196 3.18245E-02
 -1      4197 1.87730E-02
 -1      4198 1.55428E-02
 -1      4199 2.17897E-02
 -1      4200 1.24639E-02
 -1      4201 1.00652E-02
 -1      4202 1.46514E-02
 -1      4203 7.26242E-03
 -1      4204 5.45905E-03
 -1      4205 5.41393E-03
 -1      4206 8.76977E-03
 -1      4207 3.17801E+00
 -1      4208 2.47350E+00
 -1      4209 1.99862E-01
 -1      4210 2.29541E-01
 -1      4211 3.32971E-01
 -1      4212 3.82221E-01
 -1      4213 1.35044E+00
 -1      4214 1.52602E+00
 -1      4215 1.51932E-01
 -1      4216 1.75109E-01
 -1      4217 1.94506E-01
 -1      4218 1.13662E-01
 -1      4219 1.31666E-01
 -1      4220 1.49486E-01
 -1      4221 8.34699E-02
 -1      4222 9.73236E-02
 -1      4223 1.12881E-01
 -1      4224 5.99877E-02
 -1      4225 7.05153E-02
 -1      4226 8.35875E-02
 -1      4227 4.20150E-02
 -1      4228 4.98941E-02
 -1      4229 6.05393E-02
 -1      4230 2.92882E-02
 -1      4231 3.46737E-02
 -1      4232 4.31044E-02
 -1      4233 1.98159E-02
 -1      4234 2.37463E-02
 -1      4235 3.02212E-02
 -1      4236 1.27743E-02
 -1      4237 1.55837E-02
 -1      4238 2.04472E-02
 -1      4239 3.04530E+00
 -1      4240 9.11173E-01
 -1      4241 9.11173E-01
 -1      4242 2.33171E+00
 -1      4243 2.92819E+00
 -1      4244 9.41107E-01
 -1      4245 2.59370E-01
 -1      4246 2.97407E-01
 -1      4247 3.14480E-01
 -1      4248 2.49088E-01
 -1      4249 2.14418E+00
 -1      4250 2.11197E+00
 -1      4251 1.95706E+00
 -1      4252 1.58396E+00
 -1      4253 1.92970E+00
 -1      4254 2.22328E+00
 -1      4255 1.91590E+00
 -1      4256 2.98454E+00
 -1      4257 1.11880E+00
 -1      4258 1.02431E+00
 -1      4259 1.12502E+00
 -1      4260 1.44726E+00
 -1      4261 3.34513E+00
 -1      4262 4.14350E+00
 -1      4263 3.78122E+00
 -1      4264 3.13012E+00
 -1      4265 3.04632E+00
 -1      4266 3.23893E+00
 -1      4267 1.10661E+00
 -1      4268 1.20192E+00
 -1      4269 1.56075E+00
 -1      4270 1.59299E+00
 -1      4271 4.02470E+00
 -1      4272 1.95547E+00
 -1      4273 2.13947E+00
 -1      4274 3.92009E-01
 -1      4275 4.24185E-01
 -1      4276 4.89483E-01
 -1      4277 1.04951E+00
 -1      4278 1.32051E+00
 -1      4279 2.23315E+00
 -1      4280 1.67938E+00
 -1      4281 1.38164E+00
 -1      4282 1.05940E+00
 -1      4283 1.16780E+00
 -1      4284 8.72781E-03
 -1      4285 1.21686E-02
 -1      4286 6.97559E-03
 -1      4287 4.31395E-03
 -1      4288 5.00811E-03
 -1      4289 3.63687E-03
 -1      4290 3.97377E-03
 -1      4291 5.48106E-01
 -1      4292 6.37490E-01
 -1      4293 6.48329E-01
 -1      4294 4.92597E-01
 -1      4295 3.78122E+00
 -1      4296 2.74911E+00
 -1      4297 1.68008E+00
 -1      4298 1.89912E+00
 -1      4299 3.78122E+00
 -1      4300 1.53435E+00
 -1      4301 2.14749E+00
 -1      4302 1.82293E+00
 -1      4303 1.46778E+00
 -1      4304 1.25144E+00
 -1      4305 8.90268E-01
 -1      4306 7.18768E-01
 -1      4307 6.21659E-01
 -1      4308 5.27324E-01
 -1      4309 4.68701E-01
 -1      4310 4.01953E-01
 -1      4311 3.59988E-01
 -1      4312 3.20320E-01
 -1      4313 2.84756E-01
 -1      4314 2.52915E-01
 -1      4315 2.23086E-01
 -1      4316 1.97291E-01
 -1      4317 1.72538E-01
 -1      4318 1.51737E-01
 -1      4319 1.31471E-01
 -1      4320 1.14838E-01
 -1      4321 9.84992E-02
 -1      4322 8.53450E-02
 -1      4323 7.23904E-02
 -1      4324 6.21204E-02
 -1      4325 5.20268E-02
 -1      4326 4.41228E-02
 -1      4327 3.67815E-02
 -1      4328 3.08061E-02
 -1      4329 2.52643E-02
 -1      4330 2.12048E-02
 -1      4331 1.69727E-02
 -1      4332 1.38938E-02
 -1      4333 1.89912E+00
 -1      4334 3.53773E+00
 -1      4335 1.91590E+00
 -1      4336 2.17808E+00
 -1      4337 2.94794E+00
 -1      4338 2.23752E+00
 -1      4339 2.26811E+00
 -1      4340 2.94794E+00
 -1      4341 2.55910E+00
 -1      4342 4.52395E-03
 -1      4343 1.62144E+00
 -1      4344 1.32051E+00
 -1      4345 7.04452E-03
 -1      4346 6.49144E-03
 -1      4347 2.64913E+00
 -1      4348 1.82293E+00
 -1      4349 9.84727E-03
 -1      4350 6.15454E-03
 -1      4351 2.55910E+00
 -1      4352 1.53435E+00
 -1      4353 1.46873E+00
 -3
 9999
