    1C
    1UUSER                                                              
    1UDATE              27.october.2022                                 
    1UTIME              00:22:34                                        
    1UHOST                                                              
    1UPGM               CalculiX                                        
    1UVERSION           Version 2.17                             
    1UCOMPILETIME       Thu Jul 23 21:43:50 CEST 2020                    
    1UDIR                                                               
    1UDBN                                                               
    1UMAT    1SOLIDMATERIAL                                             
    2C                          4324                                     1
 -1         1 8.29976E+01 3.14134E+01 0.00000E+00
 -1         2 9.29927E+01 2.50865E+01 0.00000E+00
 -1         3 1.50000E+02 0.00000E+00 0.00000E+00
 -1         4 1.50000E+02 5.00000E+01 0.00000E+00
 -1         5 0.00000E+00 0.00000E+00 0.00000E+00
 -1         6 0.00000E+00 5.00000E+01 0.00000E+00
 -1         7 0.00000E+00 4.70500E+01 0.00000E+00
 -1         8 0.00000E+00 4.41000E+01 0.00000E+00
 -1         9 0.00000E+00 4.11500E+01 0.00000E+00
 -1        10 0.00000E+00 3.82000E+01 0.00000E+00
 -1        11 0.00000E+00 3.52500E+01 0.00000E+00
 -1        12 0.00000E+00 3.23500E+01 0.00000E+00
 -1        13 0.00000E+00 2.94000E+01 0.00000E+00
 -1        14 0.00000E+00 2.64500E+01 0.00000E+00
 -1        15 0.00000E+00 2.35000E+01 0.00000E+00
 -1        16 0.00000E+00 2.05500E+01 0.00000E+00
 -1        17 0.00000E+00 1.76000E+01 0.00000E+00
 -1        18 0.00000E+00 1.47000E+01 0.00000E+00
 -1        19 0.00000E+00 1.17500E+01 0.00000E+00
 -1        20 0.00000E+00 8.80000E+00 0.00000E+00
 -1        21 0.00000E+00 5.85000E+00 0.00000E+00
 -1        22 0.00000E+00 2.90000E+00 0.00000E+00
 -1        23 3.15000E+00 5.00000E+01 0.00000E+00
 -1        24 6.15000E+00 5.00000E+01 0.00000E+00
 -1        25 9.15000E+00 5.00000E+01 0.00000E+00
 -1        26 1.21500E+01 5.00000E+01 0.00000E+00
 -1        27 1.51500E+01 5.00000E+01 0.00000E+00
 -1        28 1.81500E+01 5.00000E+01 0.00000E+00
 -1        29 2.11500E+01 5.00000E+01 0.00000E+00
 -1        30 2.41500E+01 5.00000E+01 0.00000E+00
 -1        31 2.71500E+01 5.00000E+01 0.00000E+00
 -1        32 3.01500E+01 5.00000E+01 0.00000E+00
 -1        33 3.31500E+01 5.00000E+01 0.00000E+00
 -1        34 3.61500E+01 5.00000E+01 0.00000E+00
 -1        35 3.91500E+01 5.00000E+01 0.00000E+00
 -1        36 4.21500E+01 5.00000E+01 0.00000E+00
 -1        37 4.51500E+01 5.00000E+01 0.00000E+00
 -1        38 4.81500E+01 5.00000E+01 0.00000E+00
 -1        39 5.11500E+01 5.00000E+01 0.00000E+00
 -1        40 5.41500E+01 5.00000E+01 0.00000E+00
 -1        41 5.71500E+01 5.00000E+01 0.00000E+00
 -1        42 6.01500E+01 5.00000E+01 0.00000E+00
 -1        43 6.31500E+01 5.00000E+01 0.00000E+00
 -1        44 6.61500E+01 5.00000E+01 0.00000E+00
 -1        45 6.91500E+01 5.00000E+01 0.00000E+00
 -1        46 7.21500E+01 5.00000E+01 0.00000E+00
 -1        47 7.51500E+01 5.00000E+01 0.00000E+00
 -1        48 7.81500E+01 5.00000E+01 0.00000E+00
 -1        49 8.11500E+01 5.00000E+01 0.00000E+00
 -1        50 8.41500E+01 5.00000E+01 0.00000E+00
 -1        51 8.71500E+01 5.00000E+01 0.00000E+00
 -1        52 9.01500E+01 5.00000E+01 0.00000E+00
 -1        53 9.31500E+01 5.00000E+01 0.00000E+00
 -1        54 9.61500E+01 5.00000E+01 0.00000E+00
 -1        55 9.91500E+01 5.00000E+01 0.00000E+00
 -1        56 1.02150E+02 5.00000E+01 0.00000E+00
 -1        57 1.05150E+02 5.00000E+01 0.00000E+00
 -1        58 1.08150E+02 5.00000E+01 0.00000E+00
 -1        59 1.11150E+02 5.00000E+01 0.00000E+00
 -1        60 1.14150E+02 5.00000E+01 0.00000E+00
 -1        61 1.17150E+02 5.00000E+01 0.00000E+00
 -1        62 1.20150E+02 5.00000E+01 0.00000E+00
 -1        63 1.23150E+02 5.00000E+01 0.00000E+00
 -1        64 1.26150E+02 5.00000E+01 0.00000E+00
 -1        65 1.29150E+02 5.00000E+01 0.00000E+00
 -1        66 1.32150E+02 5.00000E+01 0.00000E+00
 -1        67 1.35150E+02 5.00000E+01 0.00000E+00
 -1        68 1.38150E+02 5.00000E+01 0.00000E+00
 -1        69 1.41150E+02 5.00000E+01 0.00000E+00
 -1        70 1.44150E+02 5.00000E+01 0.00000E+00
 -1        71 1.47150E+02 5.00000E+01 0.00000E+00
 -1        72 3.15000E+00 0.00000E+00 0.00000E+00
 -1        73 6.15000E+00 0.00000E+00 0.00000E+00
 -1        74 9.15000E+00 0.00000E+00 0.00000E+00
 -1        75 1.21500E+01 0.00000E+00 0.00000E+00
 -1        76 1.51500E+01 0.00000E+00 0.00000E+00
 -1        77 1.81500E+01 0.00000E+00 0.00000E+00
 -1        78 2.11500E+01 0.00000E+00 0.00000E+00
 -1        79 2.41500E+01 0.00000E+00 0.00000E+00
 -1        80 2.71500E+01 0.00000E+00 0.00000E+00
 -1        81 3.01500E+01 0.00000E+00 0.00000E+00
 -1        82 3.31500E+01 0.00000E+00 0.00000E+00
 -1        83 3.61500E+01 0.00000E+00 0.00000E+00
 -1        84 3.91500E+01 0.00000E+00 0.00000E+00
 -1        85 4.21500E+01 0.00000E+00 0.00000E+00
 -1        86 4.51500E+01 0.00000E+00 0.00000E+00
 -1        87 4.81500E+01 0.00000E+00 0.00000E+00
 -1        88 5.11500E+01 0.00000E+00 0.00000E+00
 -1        89 5.41500E+01 0.00000E+00 0.00000E+00
 -1        90 5.71500E+01 0.00000E+00 0.00000E+00
 -1        91 6.01500E+01 0.00000E+00 0.00000E+00
 -1        92 6.31500E+01 0.00000E+00 0.00000E+00
 -1        93 6.61500E+01 0.00000E+00 0.00000E+00
 -1        94 6.91500E+01 0.00000E+00 0.00000E+00
 -1        95 7.21500E+01 0.00000E+00 0.00000E+00
 -1        96 7.51500E+01 0.00000E+00 0.00000E+00
 -1        97 7.81500E+01 0.00000E+00 0.00000E+00
 -1        98 8.11500E+01 0.00000E+00 0.00000E+00
 -1        99 8.41500E+01 0.00000E+00 0.00000E+00
 -1       100 8.71500E+01 0.00000E+00 0.00000E+00
 -1       101 9.01500E+01 0.00000E+00 0.00000E+00
 -1       102 9.31500E+01 0.00000E+00 0.00000E+00
 -1       103 9.61500E+01 0.00000E+00 0.00000E+00
 -1       104 9.91500E+01 0.00000E+00 0.00000E+00
 -1       105 1.02150E+02 0.00000E+00 0.00000E+00
 -1       106 1.05150E+02 0.00000E+00 0.00000E+00
 -1       107 1.08150E+02 0.00000E+00 0.00000E+00
 -1       108 1.11150E+02 0.00000E+00 0.00000E+00
 -1       109 1.14150E+02 0.00000E+00 0.00000E+00
 -1       110 1.17150E+02 0.00000E+00 0.00000E+00
 -1       111 1.20150E+02 0.00000E+00 0.00000E+00
 -1       112 1.23150E+02 0.00000E+00 0.00000E+00
 -1       113 1.26150E+02 0.00000E+00 0.00000E+00
 -1       114 1.29150E+02 0.00000E+00 0.00000E+00
 -1       115 1.32150E+02 0.00000E+00 0.00000E+00
 -1       116 1.35150E+02 0.00000E+00 0.00000E+00
 -1       117 1.38150E+02 0.00000E+00 0.00000E+00
 -1       118 1.41150E+02 0.00000E+00 0.00000E+00
 -1       119 1.44150E+02 0.00000E+00 0.00000E+00
 -1       120 1.47150E+02 0.00000E+00 0.00000E+00
 -1       121 1.50000E+02 2.95000E+00 0.00000E+00
 -1       122 1.50000E+02 5.90000E+00 0.00000E+00
 -1       123 1.50000E+02 8.85000E+00 0.00000E+00
 -1       124 1.50000E+02 1.18000E+01 0.00000E+00
 -1       125 1.50000E+02 1.47500E+01 0.00000E+00
 -1       126 1.50000E+02 1.76500E+01 0.00000E+00
 -1       127 1.50000E+02 2.06000E+01 0.00000E+00
 -1       128 1.50000E+02 2.35500E+01 0.00000E+00
 -1       129 1.50000E+02 2.65000E+01 0.00000E+00
 -1       130 1.50000E+02 2.94500E+01 0.00000E+00
 -1       131 1.50000E+02 3.24000E+01 0.00000E+00
 -1       132 1.50000E+02 3.53000E+01 0.00000E+00
 -1       133 1.50000E+02 3.82500E+01 0.00000E+00
 -1       134 1.50000E+02 4.12000E+01 0.00000E+00
 -1       135 1.50000E+02 4.41500E+01 0.00000E+00
 -1       136 1.50000E+02 4.71000E+01 0.00000E+00
 -1       137 9.28444E+01 2.36535E+01 0.00000E+00
 -1       138 9.23486E+01 2.21535E+01 0.00000E+00
 -1       139 9.15526E+01 2.08335E+01 0.00000E+00
 -1       140 9.05484E+01 1.97719E+01 0.00000E+00
 -1       141 8.93064E+01 1.89205E+01 0.00000E+00
 -1       142 8.79379E+01 1.83622E+01 0.00000E+00
 -1       143 8.65150E+01 1.81060E+01 0.00000E+00
 -1       144 8.50125E+01 1.81554E+01 0.00000E+00
 -1       145 8.33669E+01 1.85976E+01 0.00000E+00
 -1       146 8.21278E+01 1.92501E+01 0.00000E+00
 -1       147 8.09380E+01 2.02439E+01 0.00000E+00
 -1       148 8.00501E+01 2.13870E+01 0.00000E+00
 -1       149 7.94137E+01 2.26955E+01 0.00000E+00
 -1       150 7.90539E+01 2.41623E+01 0.00000E+00
 -1       151 7.90096E+01 2.55728E+01 0.00000E+00
 -1       152 7.92446E+01 2.69474E+01 0.00000E+00
 -1       153 7.98288E+01 2.84042E+01 0.00000E+00
 -1       154 8.06260E+01 2.95808E+01 0.00000E+00
 -1       155 8.17434E+01 3.06492E+01 0.00000E+00
 -1       156 8.43244E+01 3.18848E+01 0.00000E+00
 -1       157 8.56809E+01 3.20795E+01 0.00000E+00
 -1       158 8.70607E+01 3.20045E+01 0.00000E+00
 -1       159 8.84813E+01 3.16292E+01 0.00000E+00
 -1       160 8.97094E+01 3.10182E+01 0.00000E+00
 -1       161 9.08120E+01 3.01633E+01 0.00000E+00
 -1       162 9.17175E+01 2.91147E+01 0.00000E+00
 -1       163 9.24379E+01 2.78175E+01 0.00000E+00
 -1       164 9.28458E+01 2.65129E+01 0.00000E+00
 -1       165 2.59800E+00 4.55750E+01 0.00000E+00
 -1       166 2.59800E+00 4.26250E+01 0.00000E+00
 -1       167 2.59800E+00 3.96750E+01 0.00000E+00
 -1       168 2.59800E+00 3.67250E+01 0.00000E+00
 -1       169 2.59800E+00 3.38250E+01 0.00000E+00
 -1       170 2.59800E+00 3.08750E+01 0.00000E+00
 -1       171 2.59800E+00 2.79250E+01 0.00000E+00
 -1       172 2.59800E+00 2.49750E+01 0.00000E+00
 -1       173 2.59800E+00 2.20250E+01 0.00000E+00
 -1       174 2.59800E+00 1.90750E+01 0.00000E+00
 -1       175 2.59800E+00 1.61750E+01 0.00000E+00
 -1       176 2.59800E+00 1.32250E+01 0.00000E+00
 -1       177 2.59800E+00 1.02750E+01 0.00000E+00
 -1       178 2.59800E+00 7.32500E+00 0.00000E+00
 -1       179 2.59800E+00 4.37500E+00 0.00000E+00
 -1       180 2.87400E+00 2.18750E+00 0.00000E+00
 -1       181 4.65000E+00 4.74020E+01 0.00000E+00
 -1       182 7.65000E+00 4.74020E+01 0.00000E+00
 -1       183 1.06500E+01 4.74020E+01 0.00000E+00
 -1       184 1.36500E+01 4.74020E+01 0.00000E+00
 -1       185 1.66500E+01 4.74020E+01 0.00000E+00
 -1       186 1.96500E+01 4.74020E+01 0.00000E+00
 -1       187 2.26500E+01 4.74020E+01 0.00000E+00
 -1       188 2.56500E+01 4.74020E+01 0.00000E+00
 -1       189 2.86500E+01 4.74020E+01 0.00000E+00
 -1       190 3.16500E+01 4.74020E+01 0.00000E+00
 -1       191 3.46500E+01 4.74020E+01 0.00000E+00
 -1       192 3.76500E+01 4.74020E+01 0.00000E+00
 -1       193 4.06500E+01 4.74020E+01 0.00000E+00
 -1       194 4.36500E+01 4.74020E+01 0.00000E+00
 -1       195 4.66500E+01 4.74020E+01 0.00000E+00
 -1       196 4.96500E+01 4.74020E+01 0.00000E+00
 -1       197 5.26500E+01 4.74020E+01 0.00000E+00
 -1       198 5.56500E+01 4.74020E+01 0.00000E+00
 -1       199 5.86500E+01 4.74020E+01 0.00000E+00
 -1       200 6.16500E+01 4.74020E+01 0.00000E+00
 -1       201 6.46500E+01 4.74020E+01 0.00000E+00
 -1       202 6.76500E+01 4.74020E+01 0.00000E+00
 -1       203 7.06500E+01 4.74020E+01 0.00000E+00
 -1       204 7.36500E+01 4.74020E+01 0.00000E+00
 -1       205 7.66500E+01 4.74020E+01 0.00000E+00
 -1       206 7.96500E+01 4.74020E+01 0.00000E+00
 -1       207 8.26500E+01 4.74020E+01 0.00000E+00
 -1       208 8.56500E+01 4.74020E+01 0.00000E+00
 -1       209 8.86500E+01 4.74020E+01 0.00000E+00
 -1       210 9.16500E+01 4.74020E+01 0.00000E+00
 -1       211 9.46500E+01 4.74020E+01 0.00000E+00
 -1       212 9.76500E+01 4.74020E+01 0.00000E+00
 -1       213 1.00650E+02 4.74020E+01 0.00000E+00
 -1       214 1.03650E+02 4.74020E+01 0.00000E+00
 -1       215 1.06650E+02 4.74020E+01 0.00000E+00
 -1       216 1.09650E+02 4.74020E+01 0.00000E+00
 -1       217 1.12650E+02 4.74020E+01 0.00000E+00
 -1       218 1.15650E+02 4.74020E+01 0.00000E+00
 -1       219 1.18650E+02 4.74020E+01 0.00000E+00
 -1       220 1.21650E+02 4.74020E+01 0.00000E+00
 -1       221 1.24650E+02 4.74020E+01 0.00000E+00
 -1       222 1.27650E+02 4.74020E+01 0.00000E+00
 -1       223 1.30650E+02 4.74020E+01 0.00000E+00
 -1       224 1.33650E+02 4.74020E+01 0.00000E+00
 -1       225 1.36650E+02 4.74020E+01 0.00000E+00
 -1       226 1.39650E+02 4.74020E+01 0.00000E+00
 -1       227 1.42650E+02 4.74020E+01 0.00000E+00
 -1       228 1.45650E+02 4.74020E+01 0.00000E+00
 -1       229 5.87400E+00 2.18750E+00 0.00000E+00
 -1       230 8.87400E+00 2.18750E+00 0.00000E+00
 -1       231 1.18740E+01 2.18750E+00 0.00000E+00
 -1       232 1.48740E+01 2.18750E+00 0.00000E+00
 -1       233 1.78740E+01 2.18750E+00 0.00000E+00
 -1       234 2.08740E+01 2.18750E+00 0.00000E+00
 -1       235 2.38740E+01 2.18750E+00 0.00000E+00
 -1       236 2.68740E+01 2.18750E+00 0.00000E+00
 -1       237 2.98740E+01 2.18750E+00 0.00000E+00
 -1       238 3.28740E+01 2.18750E+00 0.00000E+00
 -1       239 3.58740E+01 2.18750E+00 0.00000E+00
 -1       240 3.88740E+01 2.18750E+00 0.00000E+00
 -1       241 4.18740E+01 2.18750E+00 0.00000E+00
 -1       242 4.48740E+01 2.18750E+00 0.00000E+00
 -1       243 4.78740E+01 2.18750E+00 0.00000E+00
 -1       244 5.08740E+01 2.18750E+00 0.00000E+00
 -1       245 5.38740E+01 2.18750E+00 0.00000E+00
 -1       246 5.68740E+01 2.18750E+00 0.00000E+00
 -1       247 5.98740E+01 2.18750E+00 0.00000E+00
 -1       248 6.28740E+01 2.18750E+00 0.00000E+00
 -1       249 6.58740E+01 2.18750E+00 0.00000E+00
 -1       250 6.88740E+01 2.18750E+00 0.00000E+00
 -1       251 7.18740E+01 2.18750E+00 0.00000E+00
 -1       252 7.48740E+01 2.18750E+00 0.00000E+00
 -1       253 7.78740E+01 2.18750E+00 0.00000E+00
 -1       254 8.08740E+01 2.18750E+00 0.00000E+00
 -1       255 8.38740E+01 2.18750E+00 0.00000E+00
 -1       256 8.68740E+01 2.18750E+00 0.00000E+00
 -1       257 8.98740E+01 2.18750E+00 0.00000E+00
 -1       258 9.28740E+01 2.18750E+00 0.00000E+00
 -1       259 9.58740E+01 2.18750E+00 0.00000E+00
 -1       260 9.88740E+01 2.18750E+00 0.00000E+00
 -1       261 1.01874E+02 2.18750E+00 0.00000E+00
 -1       262 1.04874E+02 2.18750E+00 0.00000E+00
 -1       263 1.07874E+02 2.18750E+00 0.00000E+00
 -1       264 1.10874E+02 2.18750E+00 0.00000E+00
 -1       265 1.13874E+02 2.18750E+00 0.00000E+00
 -1       266 1.16874E+02 2.18750E+00 0.00000E+00
 -1       267 1.19874E+02 2.18750E+00 0.00000E+00
 -1       268 1.22874E+02 2.18750E+00 0.00000E+00
 -1       269 1.25874E+02 2.18750E+00 0.00000E+00
 -1       270 1.28874E+02 2.18750E+00 0.00000E+00
 -1       271 1.31874E+02 2.18750E+00 0.00000E+00
 -1       272 1.34874E+02 2.18750E+00 0.00000E+00
 -1       273 1.37874E+02 2.18750E+00 0.00000E+00
 -1       274 1.40874E+02 2.18750E+00 0.00000E+00
 -1       275 1.43874E+02 2.18750E+00 0.00000E+00
 -1       276 1.46874E+02 2.18750E+00 0.00000E+00
 -1       277 1.47402E+02 4.42500E+00 0.00000E+00
 -1       278 1.47402E+02 7.37500E+00 0.00000E+00
 -1       279 1.47402E+02 1.03250E+01 0.00000E+00
 -1       280 1.47402E+02 1.32750E+01 0.00000E+00
 -1       281 1.47402E+02 1.61750E+01 0.00000E+00
 -1       282 1.47402E+02 1.91250E+01 0.00000E+00
 -1       283 1.47402E+02 2.20750E+01 0.00000E+00
 -1       284 1.47402E+02 2.50250E+01 0.00000E+00
 -1       285 1.47402E+02 2.79750E+01 0.00000E+00
 -1       286 1.47402E+02 3.09250E+01 0.00000E+00
 -1       287 1.47402E+02 3.38250E+01 0.00000E+00
 -1       288 1.47402E+02 3.67750E+01 0.00000E+00
 -1       289 1.47402E+02 3.97250E+01 0.00000E+00
 -1       290 1.47402E+02 4.26750E+01 0.00000E+00
 -1       291 1.46526E+02 4.50385E+01 0.00000E+00
 -1       292 9.41245E+01 2.42452E+01 0.00000E+00
 -1       293 9.39067E+01 2.24704E+01 0.00000E+00
 -1       294 9.29888E+01 2.08674E+01 0.00000E+00
 -1       295 9.20531E+01 1.93545E+01 0.00000E+00
 -1       296 9.06603E+01 1.82771E+01 0.00000E+00
 -1       297 8.90802E+01 1.75188E+01 0.00000E+00
 -1       298 8.74562E+01 1.69584E+01 0.00000E+00
 -1       299 8.57211E+01 1.68352E+01 0.00000E+00
 -1       300 8.37881E+01 1.68820E+01 0.00000E+00
 -1       301 8.21824E+01 1.78511E+01 0.00000E+00
 -1       302 8.06483E+01 1.86879E+01 0.00000E+00
 -1       303 7.95366E+01 2.00717E+01 0.00000E+00
 -1       304 7.86416E+01 2.15110E+01 0.00000E+00
 -1       305 7.79749E+01 2.31202E+01 0.00000E+00
 -1       306 7.78200E+01 2.48295E+01 0.00000E+00
 -1       307 7.79320E+01 2.64644E+01 0.00000E+00
 -1       308 7.82559E+01 2.81895E+01 0.00000E+00
 -1       309 7.92237E+01 2.96725E+01 0.00000E+00
 -1       310 8.01152E+01 3.12335E+01 0.00000E+00
 -1       311 8.16525E+01 3.22097E+01 0.00000E+00
 -1       312 8.32551E+01 3.27915E+01 0.00000E+00
 -1       313 8.48304E+01 3.31822E+01 0.00000E+00
 -1       314 8.64366E+01 3.32526E+01 0.00000E+00
 -1       315 8.81235E+01 3.31510E+01 0.00000E+00
 -1       316 8.96353E+01 3.24092E+01 0.00000E+00
 -1       317 9.10036E+01 3.15489E+01 0.00000E+00
 -1       318 9.21823E+01 3.04314E+01 0.00000E+00
 -1       319 9.32841E+01 2.91362E+01 0.00000E+00
 -1       320 9.37990E+01 2.75270E+01 0.00000E+00
 -1       321 9.42086E+01 2.59324E+01 0.00000E+00
 -1       322 5.19600E+00 4.11500E+01 0.00000E+00
 -1       323 5.19600E+00 4.41000E+01 0.00000E+00
 -1       324 5.19600E+00 3.52750E+01 0.00000E+00
 -1       325 5.19600E+00 3.23250E+01 0.00000E+00
 -1       326 5.19600E+00 2.93750E+01 0.00000E+00
 -1       327 5.19600E+00 2.64250E+01 0.00000E+00
 -1       328 5.19600E+00 2.34750E+01 0.00000E+00
 -1       329 5.19600E+00 2.05250E+01 0.00000E+00
 -1       330 5.19600E+00 1.76250E+01 0.00000E+00
 -1       331 5.19600E+00 1.46750E+01 0.00000E+00
 -1       332 5.19600E+00 1.17250E+01 0.00000E+00
 -1       333 5.19600E+00 8.77500E+00 0.00000E+00
 -1       334 5.19600E+00 5.82500E+00 0.00000E+00
 -1       335 5.53500E+00 4.00625E+00 0.00000E+00
 -1       336 8.53500E+00 4.00625E+00 0.00000E+00
 -1       337 9.15000E+00 4.48040E+01 0.00000E+00
 -1       338 1.21500E+01 4.48040E+01 0.00000E+00
 -1       339 1.51500E+01 4.48040E+01 0.00000E+00
 -1       340 1.81500E+01 4.48040E+01 0.00000E+00
 -1       341 2.11500E+01 4.48040E+01 0.00000E+00
 -1       342 2.41500E+01 4.48040E+01 0.00000E+00
 -1       343 2.71500E+01 4.48040E+01 0.00000E+00
 -1       344 3.01500E+01 4.48040E+01 0.00000E+00
 -1       345 3.31500E+01 4.48040E+01 0.00000E+00
 -1       346 3.61500E+01 4.48040E+01 0.00000E+00
 -1       347 3.91500E+01 4.48040E+01 0.00000E+00
 -1       348 4.21500E+01 4.48040E+01 0.00000E+00
 -1       349 4.51500E+01 4.48040E+01 0.00000E+00
 -1       350 4.81500E+01 4.48040E+01 0.00000E+00
 -1       351 5.11500E+01 4.48040E+01 0.00000E+00
 -1       352 5.41500E+01 4.48040E+01 0.00000E+00
 -1       353 5.71500E+01 4.48040E+01 0.00000E+00
 -1       354 6.01500E+01 4.48040E+01 0.00000E+00
 -1       355 6.31500E+01 4.48040E+01 0.00000E+00
 -1       356 6.61500E+01 4.48040E+01 0.00000E+00
 -1       357 6.91500E+01 4.48040E+01 0.00000E+00
 -1       358 7.21500E+01 4.48040E+01 0.00000E+00
 -1       359 7.51500E+01 4.48040E+01 0.00000E+00
 -1       360 7.81500E+01 4.48040E+01 0.00000E+00
 -1       361 8.11500E+01 4.48040E+01 0.00000E+00
 -1       362 8.41500E+01 4.48040E+01 0.00000E+00
 -1       363 8.71500E+01 4.48040E+01 0.00000E+00
 -1       364 9.01500E+01 4.48040E+01 0.00000E+00
 -1       365 9.31500E+01 4.48040E+01 0.00000E+00
 -1       366 9.61500E+01 4.48040E+01 0.00000E+00
 -1       367 9.91500E+01 4.48040E+01 0.00000E+00
 -1       368 1.02150E+02 4.48040E+01 0.00000E+00
 -1       369 1.05150E+02 4.48040E+01 0.00000E+00
 -1       370 1.08150E+02 4.48040E+01 0.00000E+00
 -1       371 1.11150E+02 4.48040E+01 0.00000E+00
 -1       372 1.14150E+02 4.48040E+01 0.00000E+00
 -1       373 1.17150E+02 4.48040E+01 0.00000E+00
 -1       374 1.20150E+02 4.48040E+01 0.00000E+00
 -1       375 1.23150E+02 4.48040E+01 0.00000E+00
 -1       376 1.26150E+02 4.48040E+01 0.00000E+00
 -1       377 1.29150E+02 4.48040E+01 0.00000E+00
 -1       378 1.32150E+02 4.48040E+01 0.00000E+00
 -1       379 1.35150E+02 4.48040E+01 0.00000E+00
 -1       380 1.38150E+02 4.48040E+01 0.00000E+00
 -1       381 1.41150E+02 4.48040E+01 0.00000E+00
 -1       382 1.43838E+02 4.49212E+01 0.00000E+00
 -1       383 1.15350E+01 4.00625E+00 0.00000E+00
 -1       384 1.45350E+01 4.00625E+00 0.00000E+00
 -1       385 1.75350E+01 4.00625E+00 0.00000E+00
 -1       386 2.05350E+01 4.00625E+00 0.00000E+00
 -1       387 2.35350E+01 4.00625E+00 0.00000E+00
 -1       388 2.65350E+01 4.00625E+00 0.00000E+00
 -1       389 2.95350E+01 4.00625E+00 0.00000E+00
 -1       390 3.25350E+01 4.00625E+00 0.00000E+00
 -1       391 3.55350E+01 4.00625E+00 0.00000E+00
 -1       392 3.85350E+01 4.00625E+00 0.00000E+00
 -1       393 4.15350E+01 4.00625E+00 0.00000E+00
 -1       394 4.45350E+01 4.00625E+00 0.00000E+00
 -1       395 4.75350E+01 4.00625E+00 0.00000E+00
 -1       396 5.05350E+01 4.00625E+00 0.00000E+00
 -1       397 5.35350E+01 4.00625E+00 0.00000E+00
 -1       398 5.65350E+01 4.00625E+00 0.00000E+00
 -1       399 5.95350E+01 4.00625E+00 0.00000E+00
 -1       400 6.25350E+01 4.00625E+00 0.00000E+00
 -1       401 6.55350E+01 4.00625E+00 0.00000E+00
 -1       402 6.85350E+01 4.00625E+00 0.00000E+00
 -1       403 7.15350E+01 4.00625E+00 0.00000E+00
 -1       404 7.45350E+01 4.00625E+00 0.00000E+00
 -1       405 7.75350E+01 4.00625E+00 0.00000E+00
 -1       406 8.05350E+01 4.00625E+00 0.00000E+00
 -1       407 8.35350E+01 4.00625E+00 0.00000E+00
 -1       408 8.65350E+01 4.00625E+00 0.00000E+00
 -1       409 8.95350E+01 4.00625E+00 0.00000E+00
 -1       410 9.25350E+01 4.00625E+00 0.00000E+00
 -1       411 9.55350E+01 4.00625E+00 0.00000E+00
 -1       412 9.85350E+01 4.00625E+00 0.00000E+00
 -1       413 1.01535E+02 4.00625E+00 0.00000E+00
 -1       414 1.04535E+02 4.00625E+00 0.00000E+00
 -1       415 1.07535E+02 4.00625E+00 0.00000E+00
 -1       416 1.10535E+02 4.00625E+00 0.00000E+00
 -1       417 1.13535E+02 4.00625E+00 0.00000E+00
 -1       418 1.16535E+02 4.00625E+00 0.00000E+00
 -1       419 1.19535E+02 4.00625E+00 0.00000E+00
 -1       420 1.22535E+02 4.00625E+00 0.00000E+00
 -1       421 1.25535E+02 4.00625E+00 0.00000E+00
 -1       422 1.28535E+02 4.00625E+00 0.00000E+00
 -1       423 1.31535E+02 4.00625E+00 0.00000E+00
 -1       424 1.34535E+02 4.00625E+00 0.00000E+00
 -1       425 1.37535E+02 4.00625E+00 0.00000E+00
 -1       426 1.40535E+02 4.00625E+00 0.00000E+00
 -1       427 1.43535E+02 4.00625E+00 0.00000E+00
 -1       428 1.45469E+02 4.21562E+00 0.00000E+00
 -1       429 1.44804E+02 1.18000E+01 0.00000E+00
 -1       430 1.44804E+02 8.85000E+00 0.00000E+00
 -1       431 1.45136E+02 6.53281E+00 0.00000E+00
 -1       432 1.44804E+02 1.47000E+01 0.00000E+00
 -1       433 1.44804E+02 1.76500E+01 0.00000E+00
 -1       434 1.44804E+02 2.06000E+01 0.00000E+00
 -1       435 1.44804E+02 2.35500E+01 0.00000E+00
 -1       436 1.44804E+02 2.65000E+01 0.00000E+00
 -1       437 1.44804E+02 2.94500E+01 0.00000E+00
 -1       438 1.44804E+02 3.23500E+01 0.00000E+00
 -1       439 1.44804E+02 3.53000E+01 0.00000E+00
 -1       440 1.44804E+02 3.82500E+01 0.00000E+00
 -1       441 1.44804E+02 4.12000E+01 0.00000E+00
 -1       442 9.47907E+01 2.08999E+01 0.00000E+00
 -1       443 9.58795E+01 2.50035E+01 0.00000E+00
 -1       444 9.56618E+01 2.32286E+01 0.00000E+00
 -1       445 9.38550E+01 1.93869E+01 0.00000E+00
 -1       446 9.23548E+01 1.75254E+01 0.00000E+00
 -1       447 5.19600E+00 3.82125E+01 0.00000E+00
 -1       448 8.87183E+01 1.59341E+01 0.00000E+00
 -1       449 8.66982E+01 1.53532E+01 0.00000E+00
 -1       450 8.47192E+01 1.53953E+01 0.00000E+00
 -1       451 8.21423E+01 1.59699E+01 0.00000E+00
 -1       452 8.06082E+01 1.68067E+01 0.00000E+00
 -1       453 7.88860E+01 1.84106E+01 0.00000E+00
 -1       454 7.79172E+01 2.00626E+01 0.00000E+00
 -1       455 7.69560E+01 2.17553E+01 0.00000E+00
 -1       456 7.65231E+01 2.38502E+01 0.00000E+00
 -1       457 7.64993E+01 2.57413E+01 0.00000E+00
 -1       458 7.65730E+01 2.76125E+01 0.00000E+00
 -1       459 7.74438E+01 2.97767E+01 0.00000E+00
 -1       460 7.83353E+01 3.13377E+01 0.00000E+00
 -1       461 8.00992E+01 3.29573E+01 0.00000E+00
 -1       462 8.19829E+01 3.37977E+01 0.00000E+00
 -1       463 8.35582E+01 3.41885E+01 0.00000E+00
 -1       464 8.55657E+01 3.47635E+01 0.00000E+00
 -1       465 8.72526E+01 3.46619E+01 0.00000E+00
 -1       466 8.94873E+01 3.40190E+01 0.00000E+00
 -1       467 9.10540E+01 3.31473E+01 0.00000E+00
 -1       468 9.27153E+01 3.21740E+01 0.00000E+00
 -1       469 9.37205E+01 3.06236E+01 0.00000E+00
 -1       470 9.51751E+01 2.88543E+01 0.00000E+00
 -1       471 9.55846E+01 2.72598E+01 0.00000E+00
 -1       472 9.04673E+01 1.66538E+01 0.00000E+00
 -1       473 8.30734E+01 1.44832E+01 0.00000E+00
 -1       474 1.00350E+01 6.60425E+00 0.00000E+00
 -1       475 7.79400E+00 3.08500E+01 0.00000E+00
 -1       476 7.79400E+00 3.38000E+01 0.00000E+00
 -1       477 7.79400E+00 2.49500E+01 0.00000E+00
 -1       478 7.79400E+00 2.20000E+01 0.00000E+00
 -1       479 7.79400E+00 1.91000E+01 0.00000E+00
 -1       480 7.79400E+00 1.61500E+01 0.00000E+00
 -1       481 7.79400E+00 1.32000E+01 0.00000E+00
 -1       482 7.79400E+00 1.02500E+01 0.00000E+00
 -1       483 1.30350E+01 6.60425E+00 0.00000E+00
 -1       484 1.06500E+01 4.22060E+01 0.00000E+00
 -1       485 1.36500E+01 4.22060E+01 0.00000E+00
 -1       486 1.66500E+01 4.22060E+01 0.00000E+00
 -1       487 1.96500E+01 4.22060E+01 0.00000E+00
 -1       488 2.26500E+01 4.22060E+01 0.00000E+00
 -1       489 2.56500E+01 4.22060E+01 0.00000E+00
 -1       490 2.86500E+01 4.22060E+01 0.00000E+00
 -1       491 3.16500E+01 4.22060E+01 0.00000E+00
 -1       492 3.46500E+01 4.22060E+01 0.00000E+00
 -1       493 3.76500E+01 4.22060E+01 0.00000E+00
 -1       494 4.06500E+01 4.22060E+01 0.00000E+00
 -1       495 4.36500E+01 4.22060E+01 0.00000E+00
 -1       496 4.66500E+01 4.22060E+01 0.00000E+00
 -1       497 4.96500E+01 4.22060E+01 0.00000E+00
 -1       498 5.26500E+01 4.22060E+01 0.00000E+00
 -1       499 5.56500E+01 4.22060E+01 0.00000E+00
 -1       500 5.86500E+01 4.22060E+01 0.00000E+00
 -1       501 6.16500E+01 4.22060E+01 0.00000E+00
 -1       502 6.46500E+01 4.22060E+01 0.00000E+00
 -1       503 6.76500E+01 4.22060E+01 0.00000E+00
 -1       504 7.06500E+01 4.22060E+01 0.00000E+00
 -1       505 7.36500E+01 4.22060E+01 0.00000E+00
 -1       506 7.66500E+01 4.22060E+01 0.00000E+00
 -1       507 7.96500E+01 4.22060E+01 0.00000E+00
 -1       508 8.26500E+01 4.22060E+01 0.00000E+00
 -1       509 8.56500E+01 4.22060E+01 0.00000E+00
 -1       510 8.86500E+01 4.22060E+01 0.00000E+00
 -1       511 9.16500E+01 4.22060E+01 0.00000E+00
 -1       512 9.46500E+01 4.22060E+01 0.00000E+00
 -1       513 9.76500E+01 4.22060E+01 0.00000E+00
 -1       514 1.00650E+02 4.22060E+01 0.00000E+00
 -1       515 1.03650E+02 4.22060E+01 0.00000E+00
 -1       516 1.06650E+02 4.22060E+01 0.00000E+00
 -1       517 1.09650E+02 4.22060E+01 0.00000E+00
 -1       518 1.12650E+02 4.22060E+01 0.00000E+00
 -1       519 1.15650E+02 4.22060E+01 0.00000E+00
 -1       520 1.18650E+02 4.22060E+01 0.00000E+00
 -1       521 1.21650E+02 4.22060E+01 0.00000E+00
 -1       522 1.24650E+02 4.22060E+01 0.00000E+00
 -1       523 1.27650E+02 4.22060E+01 0.00000E+00
 -1       524 1.30650E+02 4.22060E+01 0.00000E+00
 -1       525 1.33650E+02 4.22060E+01 0.00000E+00
 -1       526 1.36650E+02 4.22060E+01 0.00000E+00
 -1       527 1.39650E+02 4.22060E+01 0.00000E+00
 -1       528 1.90350E+01 6.60425E+00 0.00000E+00
 -1       529 2.20350E+01 6.60425E+00 0.00000E+00
 -1       530 2.50350E+01 6.60425E+00 0.00000E+00
 -1       531 2.80350E+01 6.60425E+00 0.00000E+00
 -1       532 3.10350E+01 6.60425E+00 0.00000E+00
 -1       533 3.40350E+01 6.60425E+00 0.00000E+00
 -1       534 3.70350E+01 6.60425E+00 0.00000E+00
 -1       535 4.00350E+01 6.60425E+00 0.00000E+00
 -1       536 4.30350E+01 6.60425E+00 0.00000E+00
 -1       537 4.60350E+01 6.60425E+00 0.00000E+00
 -1       538 4.90350E+01 6.60425E+00 0.00000E+00
 -1       539 5.20350E+01 6.60425E+00 0.00000E+00
 -1       540 5.50350E+01 6.60425E+00 0.00000E+00
 -1       541 5.80350E+01 6.60425E+00 0.00000E+00
 -1       542 6.10350E+01 6.60425E+00 0.00000E+00
 -1       543 6.40350E+01 6.60425E+00 0.00000E+00
 -1       544 6.70350E+01 6.60425E+00 0.00000E+00
 -1       545 7.00350E+01 6.60425E+00 0.00000E+00
 -1       546 7.30350E+01 6.60425E+00 0.00000E+00
 -1       547 7.60350E+01 6.60425E+00 0.00000E+00
 -1       548 7.90350E+01 6.60425E+00 0.00000E+00
 -1       549 8.20350E+01 6.60425E+00 0.00000E+00
 -1       550 8.50350E+01 6.60425E+00 0.00000E+00
 -1       551 8.80350E+01 6.60425E+00 0.00000E+00
 -1       552 9.10350E+01 6.60425E+00 0.00000E+00
 -1       553 9.40350E+01 6.60425E+00 0.00000E+00
 -1       554 9.70350E+01 6.60425E+00 0.00000E+00
 -1       555 1.00035E+02 6.60425E+00 0.00000E+00
 -1       556 1.03035E+02 6.60425E+00 0.00000E+00
 -1       557 1.06035E+02 6.60425E+00 0.00000E+00
 -1       558 1.09035E+02 6.60425E+00 0.00000E+00
 -1       559 1.12035E+02 6.60425E+00 0.00000E+00
 -1       560 1.15035E+02 6.60425E+00 0.00000E+00
 -1       561 1.18035E+02 6.60425E+00 0.00000E+00
 -1       562 1.21035E+02 6.60425E+00 0.00000E+00
 -1       563 1.24035E+02 6.60425E+00 0.00000E+00
 -1       564 1.27035E+02 6.60425E+00 0.00000E+00
 -1       565 1.30035E+02 6.60425E+00 0.00000E+00
 -1       566 1.33035E+02 6.60425E+00 0.00000E+00
 -1       567 1.36035E+02 6.60425E+00 0.00000E+00
 -1       568 1.39035E+02 6.60425E+00 0.00000E+00
 -1       569 1.42035E+02 6.60425E+00 0.00000E+00
 -1       570 1.42206E+02 1.61750E+01 0.00000E+00
 -1       571 1.42206E+02 1.91250E+01 0.00000E+00
 -1       572 1.42206E+02 1.03250E+01 0.00000E+00
 -1       573 1.42206E+02 1.32500E+01 0.00000E+00
 -1       574 9.57815E+01 1.92412E+01 0.00000E+00
 -1       575 1.42206E+02 2.20750E+01 0.00000E+00
 -1       576 1.42206E+02 2.50250E+01 0.00000E+00
 -1       577 1.42206E+02 2.79750E+01 0.00000E+00
 -1       578 1.42206E+02 3.08750E+01 0.00000E+00
 -1       579 1.42206E+02 3.38250E+01 0.00000E+00
 -1       580 1.42206E+02 3.67750E+01 0.00000E+00
 -1       581 1.42206E+02 3.97250E+01 0.00000E+00
 -1       582 9.42814E+01 1.73797E+01 0.00000E+00
 -1       583 1.60350E+01 6.60425E+00 0.00000E+00
 -1       584 9.73067E+01 2.39276E+01 0.00000E+00
 -1       585 9.71835E+01 2.63213E+01 0.00000E+00
 -1       586 9.21301E+01 1.55325E+01 0.00000E+00
 -1       587 9.55785E+01 3.06685E+01 0.00000E+00
 -1       588 7.79439E+01 3.35343E+01 0.00000E+00
 -1       589 7.52618E+01 2.93974E+01 0.00000E+00
 -1       590 8.81360E+01 1.41564E+01 0.00000E+00
 -1       591 7.79400E+00 2.79000E+01 0.00000E+00
 -1       592 8.56722E+01 1.36595E+01 0.00000E+00
 -1       593 7.69944E+01 1.84114E+01 0.00000E+00
 -1       594 9.03811E+01 1.48128E+01 0.00000E+00
 -1       595 8.03935E+01 1.45884E+01 0.00000E+00
 -1       596 8.03422E+01 3.49438E+01 0.00000E+00
 -1       597 7.86713E+01 1.61923E+01 0.00000E+00
 -1       598 7.60331E+01 2.01041E+01 0.00000E+00
 -1       599 7.52240E+01 2.24896E+01 0.00000E+00
 -1       600 7.50475E+01 2.47773E+01 0.00000E+00
 -1       601 7.49061E+01 2.67411E+01 0.00000E+00
 -1       602 7.64003E+01 3.14078E+01 0.00000E+00
 -1       603 9.09823E+01 3.48622E+01 0.00000E+00
 -1       604 8.23576E+01 3.56578E+01 0.00000E+00
 -1       605 8.43652E+01 3.62328E+01 0.00000E+00
 -1       606 8.65022E+01 3.62574E+01 0.00000E+00
 -1       607 8.88442E+01 3.59887E+01 0.00000E+00
 -1       608 9.26246E+01 3.39236E+01 0.00000E+00
 -1       609 9.45733E+01 3.22189E+01 0.00000E+00
 -1       610 9.72033E+01 2.85254E+01 0.00000E+00
 -1       611 7.92300E+00 4.16780E+01 0.00000E+00
 -1       612 7.61550E+00 6.21462E+00 0.00000E+00
 -1       613 9.71466E+01 2.13459E+01 0.00000E+00
 -1       614 7.79400E+00 3.67375E+01 0.00000E+00
 -1       615 9.44825E+01 3.39685E+01 0.00000E+00
 -1       616 1.41678E+02 4.22645E+01 0.00000E+00
 -1       617 9.40566E+01 1.53868E+01 0.00000E+00
 -1       618 1.03920E+01 2.05500E+01 0.00000E+00
 -1       619 1.03920E+01 2.35000E+01 0.00000E+00
 -1       620 1.03920E+01 1.46750E+01 0.00000E+00
 -1       621 1.03920E+01 1.17250E+01 0.00000E+00
 -1       622 1.15350E+01 9.20225E+00 0.00000E+00
 -1       623 1.45350E+01 9.20225E+00 0.00000E+00
 -1       624 9.66556E+01 3.24679E+01 0.00000E+00
 -1       625 9.64973E+01 1.71291E+01 0.00000E+00
 -1       626 1.51500E+01 3.96080E+01 0.00000E+00
 -1       627 1.81500E+01 3.96080E+01 0.00000E+00
 -1       628 2.11500E+01 3.96080E+01 0.00000E+00
 -1       629 2.41500E+01 3.96080E+01 0.00000E+00
 -1       630 2.71500E+01 3.96080E+01 0.00000E+00
 -1       631 3.01500E+01 3.96080E+01 0.00000E+00
 -1       632 3.31500E+01 3.96080E+01 0.00000E+00
 -1       633 3.61500E+01 3.96080E+01 0.00000E+00
 -1       634 3.91500E+01 3.96080E+01 0.00000E+00
 -1       635 4.21500E+01 3.96080E+01 0.00000E+00
 -1       636 4.51500E+01 3.96080E+01 0.00000E+00
 -1       637 4.81500E+01 3.96080E+01 0.00000E+00
 -1       638 5.11500E+01 3.96080E+01 0.00000E+00
 -1       639 5.41500E+01 3.96080E+01 0.00000E+00
 -1       640 5.71500E+01 3.96080E+01 0.00000E+00
 -1       641 6.01500E+01 3.96080E+01 0.00000E+00
 -1       642 6.31500E+01 3.96080E+01 0.00000E+00
 -1       643 6.61500E+01 3.96080E+01 0.00000E+00
 -1       644 6.91500E+01 3.96080E+01 0.00000E+00
 -1       645 7.21500E+01 3.96080E+01 0.00000E+00
 -1       646 7.51500E+01 3.96080E+01 0.00000E+00
 -1       647 7.81500E+01 3.96080E+01 0.00000E+00
 -1       648 8.11500E+01 3.96080E+01 0.00000E+00
 -1       649 8.41500E+01 3.96080E+01 0.00000E+00
 -1       650 8.71500E+01 3.96080E+01 0.00000E+00
 -1       651 9.01500E+01 3.96080E+01 0.00000E+00
 -1       652 9.31500E+01 3.96080E+01 0.00000E+00
 -1       653 9.61500E+01 3.96080E+01 0.00000E+00
 -1       654 9.91500E+01 3.96080E+01 0.00000E+00
 -1       655 1.02150E+02 3.96080E+01 0.00000E+00
 -1       656 1.05150E+02 3.96080E+01 0.00000E+00
 -1       657 1.08150E+02 3.96080E+01 0.00000E+00
 -1       658 1.11150E+02 3.96080E+01 0.00000E+00
 -1       659 1.14150E+02 3.96080E+01 0.00000E+00
 -1       660 1.17150E+02 3.96080E+01 0.00000E+00
 -1       661 1.20150E+02 3.96080E+01 0.00000E+00
 -1       662 1.23150E+02 3.96080E+01 0.00000E+00
 -1       663 1.26150E+02 3.96080E+01 0.00000E+00
 -1       664 1.29150E+02 3.96080E+01 0.00000E+00
 -1       665 1.32150E+02 3.96080E+01 0.00000E+00
 -1       666 1.35150E+02 3.96080E+01 0.00000E+00
 -1       667 1.38150E+02 3.96080E+01 0.00000E+00
 -1       668 2.35350E+01 9.20225E+00 0.00000E+00
 -1       669 9.91253E+01 2.52212E+01 0.00000E+00
 -1       670 2.05350E+01 9.20225E+00 0.00000E+00
 -1       671 2.95350E+01 9.20225E+00 0.00000E+00
 -1       672 3.25350E+01 9.20225E+00 0.00000E+00
 -1       673 3.55350E+01 9.20225E+00 0.00000E+00
 -1       674 3.85350E+01 9.20225E+00 0.00000E+00
 -1       675 4.15350E+01 9.20225E+00 0.00000E+00
 -1       676 4.45350E+01 9.20225E+00 0.00000E+00
 -1       677 4.75350E+01 9.20225E+00 0.00000E+00
 -1       678 5.05350E+01 9.20225E+00 0.00000E+00
 -1       679 5.35350E+01 9.20225E+00 0.00000E+00
 -1       680 5.65350E+01 9.20225E+00 0.00000E+00
 -1       681 5.95350E+01 9.20225E+00 0.00000E+00
 -1       682 6.25350E+01 9.20225E+00 0.00000E+00
 -1       683 6.55350E+01 9.20225E+00 0.00000E+00
 -1       684 6.85350E+01 9.20225E+00 0.00000E+00
 -1       685 7.15350E+01 9.20225E+00 0.00000E+00
 -1       686 7.45350E+01 9.20225E+00 0.00000E+00
 -1       687 7.75350E+01 9.20225E+00 0.00000E+00
 -1       688 8.05350E+01 9.20225E+00 0.00000E+00
 -1       689 8.35350E+01 9.20225E+00 0.00000E+00
 -1       690 8.65350E+01 9.20225E+00 0.00000E+00
 -1       691 8.95350E+01 9.20225E+00 0.00000E+00
 -1       692 9.25350E+01 9.20225E+00 0.00000E+00
 -1       693 9.55350E+01 9.20225E+00 0.00000E+00
 -1       694 9.85350E+01 9.20225E+00 0.00000E+00
 -1       695 1.01535E+02 9.20225E+00 0.00000E+00
 -1       696 1.04535E+02 9.20225E+00 0.00000E+00
 -1       697 1.07535E+02 9.20225E+00 0.00000E+00
 -1       698 1.10535E+02 9.20225E+00 0.00000E+00
 -1       699 1.13535E+02 9.20225E+00 0.00000E+00
 -1       700 1.16535E+02 9.20225E+00 0.00000E+00
 -1       701 1.19535E+02 9.20225E+00 0.00000E+00
 -1       702 1.22535E+02 9.20225E+00 0.00000E+00
 -1       703 1.25535E+02 9.20225E+00 0.00000E+00
 -1       704 1.28535E+02 9.20225E+00 0.00000E+00
 -1       705 1.31535E+02 9.20225E+00 0.00000E+00
 -1       706 1.34535E+02 9.20225E+00 0.00000E+00
 -1       707 1.37535E+02 9.20225E+00 0.00000E+00
 -1       708 1.39870E+02 9.76363E+00 0.00000E+00
 -1       709 1.39608E+02 2.35500E+01 0.00000E+00
 -1       710 1.40178E+02 3.96665E+01 0.00000E+00
 -1       711 1.39608E+02 1.76500E+01 0.00000E+00
 -1       712 8.16531E+01 1.24871E+01 0.00000E+00
 -1       713 1.39608E+02 2.65000E+01 0.00000E+00
 -1       714 1.39608E+02 2.06000E+01 0.00000E+00
 -1       715 1.39608E+02 2.94000E+01 0.00000E+00
 -1       716 1.39608E+02 3.23500E+01 0.00000E+00
 -1       717 1.39608E+02 3.53000E+01 0.00000E+00
 -1       718 1.75350E+01 9.20225E+00 0.00000E+00
 -1       719 9.26129E+01 3.58092E+01 0.00000E+00
 -1       720 9.91451E+01 2.74253E+01 0.00000E+00
 -1       721 7.41928E+01 3.13303E+01 0.00000E+00
 -1       722 7.30990E+01 2.56239E+01 0.00000E+00
 -1       723 2.65350E+01 9.20225E+00 0.00000E+00
 -1       724 9.83248E+01 1.90868E+01 0.00000E+00
 -1       725 9.82804E+01 3.03248E+01 0.00000E+00
 -1       726 1.21500E+01 3.96080E+01 0.00000E+00
 -1       727 1.03920E+01 1.76125E+01 0.00000E+00
 -1       728 8.06093E+01 3.73913E+01 0.00000E+00
 -1       729 9.19720E+01 1.34316E+01 0.00000E+00
 -1       730 7.50224E+01 1.84108E+01 0.00000E+00
 -1       731 7.38457E+01 2.06921E+01 0.00000E+00
 -1       732 1.03920E+01 3.23250E+01 0.00000E+00
 -1       733 7.80209E+01 1.37674E+01 0.00000E+00
 -1       734 7.32755E+01 2.33363E+01 0.00000E+00
 -1       735 8.78592E+01 3.77437E+01 0.00000E+00
 -1       736 7.61971E+01 1.60658E+01 0.00000E+00
 -1       737 7.81042E+01 3.60066E+01 0.00000E+00
 -1       738 8.54149E+01 3.78763E+01 0.00000E+00
 -1       739 8.97269E+01 1.27752E+01 0.00000E+00
 -1       740 8.30121E+01 3.76338E+01 0.00000E+00
 -1       741 7.55129E+01 3.36755E+01 0.00000E+00
 -1       742 9.89652E+01 2.26396E+01 0.00000E+00
 -1       743 9.07127E+01 3.69429E+01 0.00000E+00
 -1       744 7.33840E+01 2.82969E+01 0.00000E+00
 -1       745 8.73094E+01 1.18982E+01 0.00000E+00
 -1       746 1.03920E+01 3.52625E+01 0.00000E+00
 -1       747 1.03920E+01 2.64500E+01 0.00000E+00
 -1       748 1.00143E+02 2.03804E+01 0.00000E+00
 -1       749 1.39608E+02 1.47250E+01 0.00000E+00
 -1       750 1.05210E+01 3.87342E+01 0.00000E+00
 -1       751 1.39739E+02 1.22443E+01 0.00000E+00
 -1       752 7.56732E+01 3.61478E+01 0.00000E+00
 -1       753 8.49891E+01 1.13830E+01 0.00000E+00
 -1       754 7.23150E+01 3.02298E+01 0.00000E+00
 -1       755 8.38040E+01 1.22767E+01 0.00000E+00
 -1       756 1.03920E+01 2.93875E+01 0.00000E+00
 -1       757 9.64682E+01 1.45893E+01 0.00000E+00
 -1       758 1.29900E+01 1.32000E+01 0.00000E+00
 -1       759 1.29900E+01 2.20250E+01 0.00000E+00
 -1       760 1.36500E+01 3.70100E+01 0.00000E+00
 -1       761 1.96500E+01 3.70100E+01 0.00000E+00
 -1       762 2.26500E+01 3.70100E+01 0.00000E+00
 -1       763 2.56500E+01 3.70100E+01 0.00000E+00
 -1       764 2.86500E+01 3.70100E+01 0.00000E+00
 -1       765 3.16500E+01 3.70100E+01 0.00000E+00
 -1       766 3.46500E+01 3.70100E+01 0.00000E+00
 -1       767 3.76500E+01 3.70100E+01 0.00000E+00
 -1       768 4.06500E+01 3.70100E+01 0.00000E+00
 -1       769 4.36500E+01 3.70100E+01 0.00000E+00
 -1       770 4.66500E+01 3.70100E+01 0.00000E+00
 -1       771 4.96500E+01 3.70100E+01 0.00000E+00
 -1       772 5.26500E+01 3.70100E+01 0.00000E+00
 -1       773 5.56500E+01 3.70100E+01 0.00000E+00
 -1       774 5.86500E+01 3.70100E+01 0.00000E+00
 -1       775 6.16500E+01 3.70100E+01 0.00000E+00
 -1       776 6.46500E+01 3.70100E+01 0.00000E+00
 -1       777 6.76500E+01 3.70100E+01 0.00000E+00
 -1       778 7.06500E+01 3.70100E+01 0.00000E+00
 -1       779 9.46500E+01 3.73902E+01 0.00000E+00
 -1       780 9.76500E+01 3.72226E+01 0.00000E+00
 -1       781 1.00650E+02 3.72226E+01 0.00000E+00
 -1       782 1.03650E+02 3.72226E+01 0.00000E+00
 -1       783 1.06650E+02 3.72226E+01 0.00000E+00
 -1       784 1.09650E+02 3.72226E+01 0.00000E+00
 -1       785 1.12650E+02 3.72226E+01 0.00000E+00
 -1       786 1.15650E+02 3.72226E+01 0.00000E+00
 -1       787 1.18650E+02 3.72226E+01 0.00000E+00
 -1       788 1.21650E+02 3.72226E+01 0.00000E+00
 -1       789 1.24650E+02 3.72226E+01 0.00000E+00
 -1       790 1.27650E+02 3.72226E+01 0.00000E+00
 -1       791 1.30650E+02 3.72226E+01 0.00000E+00
 -1       792 1.33650E+02 3.72226E+01 0.00000E+00
 -1       793 1.36650E+02 3.72226E+01 0.00000E+00
 -1       794 3.40350E+01 1.18003E+01 0.00000E+00
 -1       795 3.10350E+01 1.18003E+01 0.00000E+00
 -1       796 4.00350E+01 1.18003E+01 0.00000E+00
 -1       797 4.30350E+01 1.18003E+01 0.00000E+00
 -1       798 4.60350E+01 1.18003E+01 0.00000E+00
 -1       799 4.90350E+01 1.18003E+01 0.00000E+00
 -1       800 5.20350E+01 1.18003E+01 0.00000E+00
 -1       801 5.50350E+01 1.18003E+01 0.00000E+00
 -1       802 5.80350E+01 1.18003E+01 0.00000E+00
 -1       803 6.10350E+01 1.18003E+01 0.00000E+00
 -1       804 6.40350E+01 1.18003E+01 0.00000E+00
 -1       805 6.70350E+01 1.18003E+01 0.00000E+00
 -1       806 7.00350E+01 1.18003E+01 0.00000E+00
 -1       807 7.30350E+01 1.18003E+01 0.00000E+00
 -1       808 7.90350E+01 1.17552E+01 0.00000E+00
 -1       809 9.40350E+01 1.18003E+01 0.00000E+00
 -1       810 9.70350E+01 1.18003E+01 0.00000E+00
 -1       811 1.00035E+02 1.18003E+01 0.00000E+00
 -1       812 1.03035E+02 1.18003E+01 0.00000E+00
 -1       813 1.06035E+02 1.18003E+01 0.00000E+00
 -1       814 1.09035E+02 1.18003E+01 0.00000E+00
 -1       815 1.12035E+02 1.18003E+01 0.00000E+00
 -1       816 1.15035E+02 1.18003E+01 0.00000E+00
 -1       817 1.18035E+02 1.18003E+01 0.00000E+00
 -1       818 1.21035E+02 1.18003E+01 0.00000E+00
 -1       819 1.24035E+02 1.18003E+01 0.00000E+00
 -1       820 1.27035E+02 1.18003E+01 0.00000E+00
 -1       821 1.30035E+02 1.18003E+01 0.00000E+00
 -1       822 1.33035E+02 1.18003E+01 0.00000E+00
 -1       823 1.36035E+02 1.18003E+01 0.00000E+00
 -1       824 1.37887E+02 1.20223E+01 0.00000E+00
 -1       825 1.37010E+02 3.38250E+01 0.00000E+00
 -1       826 1.37010E+02 2.50250E+01 0.00000E+00
 -1       827 1.00850E+02 2.63078E+01 0.00000E+00
 -1       828 1.37625E+01 1.12011E+01 0.00000E+00
 -1       829 7.14772E+01 2.43482E+01 0.00000E+00
 -1       830 1.37010E+02 3.08750E+01 0.00000E+00
 -1       831 3.70350E+01 1.18003E+01 0.00000E+00
 -1       832 2.20350E+01 1.18003E+01 0.00000E+00
 -1       833 9.65436E+01 3.46295E+01 0.00000E+00
 -1       834 7.36268E+01 1.62450E+01 0.00000E+00
 -1       835 1.66500E+01 3.70100E+01 0.00000E+00
 -1       836 9.91548E+01 1.64802E+01 0.00000E+00
 -1       837 7.52404E+01 1.34339E+01 0.00000E+00
 -1       838 9.91018E+01 3.26350E+01 0.00000E+00
 -1       839 1.00838E+02 2.95089E+01 0.00000E+00
 -1       840 7.15360E+01 2.71423E+01 0.00000E+00
 -1       841 7.15564E+01 2.15820E+01 0.00000E+00
 -1       842 7.24501E+01 1.85263E+01 0.00000E+00
 -1       843 1.37010E+02 2.79500E+01 0.00000E+00
 -1       844 1.01092E+02 2.38035E+01 0.00000E+00
 -1       845 1.20210E+01 3.61362E+01 0.00000E+00
 -1       846 7.29202E+01 3.35908E+01 0.00000E+00
 -1       847 7.62779E+01 1.14848E+01 0.00000E+00
 -1       848 1.29900E+01 2.49750E+01 0.00000E+00
 -1       849 1.29900E+01 1.61375E+01 0.00000E+00
 -1       850 1.00973E+02 1.77738E+01 0.00000E+00
 -1       851 1.37010E+02 1.61875E+01 0.00000E+00
 -1       852 1.90350E+01 1.18003E+01 0.00000E+00
 -1       853 2.50350E+01 1.18003E+01 0.00000E+00
 -1       854 7.10424E+01 3.24904E+01 0.00000E+00
 -1       855 2.80350E+01 1.18003E+01 0.00000E+00
 -1       856 1.02270E+02 2.15443E+01 0.00000E+00
 -1       857 1.37010E+02 1.91375E+01 0.00000E+00
 -1       858 1.63988E+01 1.15007E+01 0.00000E+00
 -1       859 1.20210E+01 3.31987E+01 0.00000E+00
 -1       860 1.37010E+02 2.20812E+01 0.00000E+00
 -1       861 7.04670E+01 2.90752E+01 0.00000E+00
 -1       862 1.20210E+01 3.02612E+01 0.00000E+00
 -1       863 1.29900E+01 1.90812E+01 0.00000E+00
 -1       864 7.00355E+01 1.94786E+01 0.00000E+00
 -1       865 2.41500E+01 3.44120E+01 0.00000E+00
 -1       866 2.71500E+01 3.44120E+01 0.00000E+00
 -1       867 3.01500E+01 3.44120E+01 0.00000E+00
 -1       868 3.31500E+01 3.44120E+01 0.00000E+00
 -1       869 3.61500E+01 3.44120E+01 0.00000E+00
 -1       870 3.91500E+01 3.44120E+01 0.00000E+00
 -1       871 4.21500E+01 3.44120E+01 0.00000E+00
 -1       872 4.51500E+01 3.44120E+01 0.00000E+00
 -1       873 4.81500E+01 3.44120E+01 0.00000E+00
 -1       874 5.11500E+01 3.44120E+01 0.00000E+00
 -1       875 5.41500E+01 3.44120E+01 0.00000E+00
 -1       876 5.71500E+01 3.44120E+01 0.00000E+00
 -1       877 6.01500E+01 3.44120E+01 0.00000E+00
 -1       878 6.31500E+01 3.44120E+01 0.00000E+00
 -1       879 6.61500E+01 3.44120E+01 0.00000E+00
 -1       880 6.91500E+01 3.44120E+01 0.00000E+00
 -1       881 1.34412E+02 3.23500E+01 0.00000E+00
 -1       882 1.02150E+02 3.46246E+01 0.00000E+00
 -1       883 1.05150E+02 3.46246E+01 0.00000E+00
 -1       884 1.08150E+02 3.46246E+01 0.00000E+00
 -1       885 1.11150E+02 3.46246E+01 0.00000E+00
 -1       886 1.14150E+02 3.46246E+01 0.00000E+00
 -1       887 1.17150E+02 3.46246E+01 0.00000E+00
 -1       888 1.20150E+02 3.46246E+01 0.00000E+00
 -1       889 1.23150E+02 3.46246E+01 0.00000E+00
 -1       890 1.26150E+02 3.46246E+01 0.00000E+00
 -1       891 1.29150E+02 3.46246E+01 0.00000E+00
 -1       892 1.32150E+02 3.46246E+01 0.00000E+00
 -1       893 1.01535E+02 1.43982E+01 0.00000E+00
 -1       894 4.45350E+01 1.43982E+01 0.00000E+00
 -1       895 4.15350E+01 1.43982E+01 0.00000E+00
 -1       896 5.05350E+01 1.43982E+01 0.00000E+00
 -1       897 5.35350E+01 1.43982E+01 0.00000E+00
 -1       898 5.65350E+01 1.43982E+01 0.00000E+00
 -1       899 5.95350E+01 1.43982E+01 0.00000E+00
 -1       900 6.25350E+01 1.43982E+01 0.00000E+00
 -1       901 6.55350E+01 1.43982E+01 0.00000E+00
 -1       902 6.85350E+01 1.43982E+01 0.00000E+00
 -1       903 7.15350E+01 1.43982E+01 0.00000E+00
 -1       904 9.90880E+01 1.37211E+01 0.00000E+00
 -1       905 1.04535E+02 1.43982E+01 0.00000E+00
 -1       906 1.07535E+02 1.43982E+01 0.00000E+00
 -1       907 1.10535E+02 1.43982E+01 0.00000E+00
 -1       908 1.13535E+02 1.43982E+01 0.00000E+00
 -1       909 1.16535E+02 1.43982E+01 0.00000E+00
 -1       910 1.19535E+02 1.43982E+01 0.00000E+00
 -1       911 1.22535E+02 1.43982E+01 0.00000E+00
 -1       912 1.25535E+02 1.43982E+01 0.00000E+00
 -1       913 1.28535E+02 1.43982E+01 0.00000E+00
 -1       914 1.31535E+02 1.43982E+01 0.00000E+00
 -1       915 1.34535E+02 1.43982E+01 0.00000E+00
 -1       916 1.37449E+02 1.41049E+01 0.00000E+00
 -1       917 1.02055E+02 3.22302E+01 0.00000E+00
 -1       918 1.02727E+02 2.79155E+01 0.00000E+00
 -1       919 4.75350E+01 1.43982E+01 0.00000E+00
 -1       920 3.25350E+01 1.43982E+01 0.00000E+00
 -1       921 1.56263E+01 1.34996E+01 0.00000E+00
 -1       922 2.11500E+01 3.44120E+01 0.00000E+00
 -1       923 1.25055E+01 2.76181E+01 0.00000E+00
 -1       924 1.43355E+01 3.51044E+01 0.00000E+00
 -1       925 1.81500E+01 3.44120E+01 0.00000E+00
 -1       926 6.92999E+01 2.29016E+01 0.00000E+00
 -1       927 1.02968E+02 2.54111E+01 0.00000E+00
 -1       928 7.07852E+01 1.69384E+01 0.00000E+00
 -1       929 6.93587E+01 2.56957E+01 0.00000E+00
 -1       930 9.98759E+01 3.49288E+01 0.00000E+00
 -1       931 1.34412E+02 2.64875E+01 0.00000E+00
 -1       932 2.05350E+01 1.43982E+01 0.00000E+00
 -1       933 3.55350E+01 1.43982E+01 0.00000E+00
 -1       934 2.95350E+01 1.43982E+01 0.00000E+00
 -1       935 3.85350E+01 1.43982E+01 0.00000E+00
 -1       936 1.03100E+02 1.89377E+01 0.00000E+00
 -1       937 1.34535E+02 1.73482E+01 0.00000E+00
 -1       938 1.03944E+02 3.06368E+01 0.00000E+00
 -1       939 1.55880E+01 2.05531E+01 0.00000E+00
 -1       940 1.34412E+02 2.35438E+01 0.00000E+00
 -1       941 2.35350E+01 1.43982E+01 0.00000E+00
 -1       942 6.91945E+01 3.13357E+01 0.00000E+00
 -1       943 1.55880E+01 2.35031E+01 0.00000E+00
 -1       944 1.04146E+02 2.31520E+01 0.00000E+00
 -1       945 1.48296E+01 3.21459E+01 0.00000E+00
 -1       946 6.82897E+01 2.76286E+01 0.00000E+00
 -1       947 1.34412E+02 2.94250E+01 0.00000E+00
 -1       948 1.03817E+02 1.66680E+01 0.00000E+00
 -1       949 2.86500E+01 3.18140E+01 0.00000E+00
 -1       950 3.16500E+01 3.18140E+01 0.00000E+00
 -1       951 3.46500E+01 3.18140E+01 0.00000E+00
 -1       952 3.76500E+01 3.18140E+01 0.00000E+00
 -1       953 4.06500E+01 3.18140E+01 0.00000E+00
 -1       954 4.36500E+01 3.18140E+01 0.00000E+00
 -1       955 4.66500E+01 3.18140E+01 0.00000E+00
 -1       956 4.96500E+01 3.18140E+01 0.00000E+00
 -1       957 5.26500E+01 3.18140E+01 0.00000E+00
 -1       958 5.56500E+01 3.18140E+01 0.00000E+00
 -1       959 5.86500E+01 3.18140E+01 0.00000E+00
 -1       960 6.16500E+01 3.18140E+01 0.00000E+00
 -1       961 6.46500E+01 3.18140E+01 0.00000E+00
 -1       962 2.56500E+01 3.18140E+01 0.00000E+00
 -1       963 1.75351E+01 1.43983E+01 0.00000E+00
 -1       964 2.65350E+01 1.43982E+01 0.00000E+00
 -1       965 1.06650E+02 3.20266E+01 0.00000E+00
 -1       966 1.09650E+02 3.20266E+01 0.00000E+00
 -1       967 1.12650E+02 3.20266E+01 0.00000E+00
 -1       968 1.15650E+02 3.20266E+01 0.00000E+00
 -1       969 1.18650E+02 3.20266E+01 0.00000E+00
 -1       970 1.21650E+02 3.20266E+01 0.00000E+00
 -1       971 1.24650E+02 3.20266E+01 0.00000E+00
 -1       972 1.27650E+02 3.20266E+01 0.00000E+00
 -1       973 1.30650E+02 3.20266E+01 0.00000E+00
 -1       974 1.06817E+02 1.66680E+01 0.00000E+00
 -1       975 5.50350E+01 1.69963E+01 0.00000E+00
 -1       976 5.20350E+01 1.69963E+01 0.00000E+00
 -1       977 6.10350E+01 1.69963E+01 0.00000E+00
 -1       978 6.40350E+01 1.69963E+01 0.00000E+00
 -1       979 6.70350E+01 1.69963E+01 0.00000E+00
 -1       980 6.72795E+01 2.43419E+01 0.00000E+00
 -1       981 6.71277E+01 2.06443E+01 0.00000E+00
 -1       982 1.09817E+02 1.66680E+01 0.00000E+00
 -1       983 1.12817E+02 1.66680E+01 0.00000E+00
 -1       984 1.15817E+02 1.66680E+01 0.00000E+00
 -1       985 1.18817E+02 1.66680E+01 0.00000E+00
 -1       986 1.21817E+02 1.66680E+01 0.00000E+00
 -1       987 1.24817E+02 1.66680E+01 0.00000E+00
 -1       988 1.27817E+02 1.66680E+01 0.00000E+00
 -1       989 1.30817E+02 1.66680E+01 0.00000E+00
 -1       990 1.55880E+01 1.76094E+01 0.00000E+00
 -1       991 2.26500E+01 3.18140E+01 0.00000E+00
 -1       992 1.53141E+01 2.95028E+01 0.00000E+00
 -1       993 1.96500E+01 3.18140E+01 0.00000E+00
 -1       994 4.30350E+01 1.69963E+01 0.00000E+00
 -1       995 1.04888E+02 2.68599E+01 0.00000E+00
 -1       996 5.80350E+01 1.69963E+01 0.00000E+00
 -1       997 1.34412E+02 2.06000E+01 0.00000E+00
 -1       998 1.74820E+01 3.06584E+01 0.00000E+00
 -1       999 6.70171E+01 2.98892E+01 0.00000E+00
 -1      1000 6.76500E+01 3.18140E+01 0.00000E+00
 -1      1001 1.85879E+01 1.76093E+01 0.00000E+00
 -1      1002 3.10350E+01 1.69963E+01 0.00000E+00
 -1      1003 4.00350E+01 1.69963E+01 0.00000E+00
 -1      1004 4.90350E+01 1.69963E+01 0.00000E+00
 -1      1005 6.62105E+01 2.62748E+01 0.00000E+00
 -1      1006 1.31814E+02 2.79562E+01 0.00000E+00
 -1      1007 1.31814E+02 2.50125E+01 0.00000E+00
 -1      1008 4.60350E+01 1.69963E+01 0.00000E+00
 -1      1009 1.81860E+01 2.20281E+01 0.00000E+00
 -1      1010 1.04976E+02 2.05454E+01 0.00000E+00
 -1      1011 1.54510E+01 2.65030E+01 0.00000E+00
 -1      1012 1.06067E+02 2.46008E+01 0.00000E+00
 -1      1013 3.40350E+01 1.69963E+01 0.00000E+00
 -1      1014 2.15879E+01 1.76093E+01 0.00000E+00
 -1      1015 3.01500E+01 2.92160E+01 0.00000E+00
 -1      1016 3.31500E+01 2.92160E+01 0.00000E+00
 -1      1017 3.61500E+01 2.92160E+01 0.00000E+00
 -1      1018 3.91500E+01 2.92160E+01 0.00000E+00
 -1      1019 4.21500E+01 2.92160E+01 0.00000E+00
 -1      1020 4.51500E+01 2.92160E+01 0.00000E+00
 -1      1021 4.81500E+01 2.92160E+01 0.00000E+00
 -1      1022 5.11500E+01 2.92160E+01 0.00000E+00
 -1      1023 5.41500E+01 2.92160E+01 0.00000E+00
 -1      1024 5.71500E+01 2.92160E+01 0.00000E+00
 -1      1025 6.01500E+01 2.92160E+01 0.00000E+00
 -1      1026 6.31500E+01 2.92160E+01 0.00000E+00
 -1      1027 1.08150E+02 2.94286E+01 0.00000E+00
 -1      1028 2.45879E+01 1.76093E+01 0.00000E+00
 -1      1029 2.11860E+01 2.20281E+01 0.00000E+00
 -1      1030 2.80350E+01 1.69963E+01 0.00000E+00
 -1      1031 1.11150E+02 2.94286E+01 0.00000E+00
 -1      1032 1.14150E+02 2.94286E+01 0.00000E+00
 -1      1033 1.17150E+02 2.94286E+01 0.00000E+00
 -1      1034 1.20150E+02 2.94286E+01 0.00000E+00
 -1      1035 1.23150E+02 2.94286E+01 0.00000E+00
 -1      1036 1.26150E+02 2.94286E+01 0.00000E+00
 -1      1037 1.29150E+02 2.94286E+01 0.00000E+00
 -1      1038 1.11317E+02 1.92660E+01 0.00000E+00
 -1      1039 5.65350E+01 1.95942E+01 0.00000E+00
 -1      1040 5.35350E+01 1.95942E+01 0.00000E+00
 -1      1041 6.41277E+01 2.06443E+01 0.00000E+00
 -1      1042 6.11277E+01 2.06443E+01 0.00000E+00
 -1      1043 1.30694E+02 1.99197E+01 0.00000E+00
 -1      1044 1.08317E+02 1.92660E+01 0.00000E+00
 -1      1045 1.17317E+02 1.92660E+01 0.00000E+00
 -1      1046 1.20317E+02 1.92660E+01 0.00000E+00
 -1      1047 1.23317E+02 1.92660E+01 0.00000E+00
 -1      1048 1.26317E+02 1.92660E+01 0.00000E+00
 -1      1049 1.05897E+02 1.86067E+01 0.00000E+00
 -1      1050 6.51691E+01 2.34595E+01 0.00000E+00
 -1      1051 3.70350E+01 1.69963E+01 0.00000E+00
 -1      1052 2.41500E+01 2.92160E+01 0.00000E+00
 -1      1053 5.88313E+01 2.01193E+01 0.00000E+00
 -1      1054 2.11500E+01 2.92160E+01 0.00000E+00
 -1      1055 4.45350E+01 1.95942E+01 0.00000E+00
 -1      1056 1.80490E+01 2.50280E+01 0.00000E+00
 -1      1057 2.71500E+01 2.92160E+01 0.00000E+00
 -1      1058 1.31254E+02 2.24661E+01 0.00000E+00
 -1      1059 1.14317E+02 1.92660E+01 0.00000E+00
 -1      1060 3.25350E+01 1.95942E+01 0.00000E+00
 -1      1061 2.95350E+01 1.95942E+01 0.00000E+00
 -1      1062 5.05350E+01 1.95942E+01 0.00000E+00
 -1      1063 4.15350E+01 1.95942E+01 0.00000E+00
 -1      1064 1.29150E+02 2.64849E+01 0.00000E+00
 -1      1065 4.75350E+01 1.95942E+01 0.00000E+00
 -1      1066 1.06897E+02 2.19942E+01 0.00000E+00
 -1      1067 2.10490E+01 2.50280E+01 0.00000E+00
 -1      1068 1.83005E+01 2.78595E+01 0.00000E+00
 -1      1069 1.08608E+02 2.70147E+01 0.00000E+00
 -1      1070 3.46500E+01 2.66180E+01 0.00000E+00
 -1      1071 3.76500E+01 2.66180E+01 0.00000E+00
 -1      1072 4.06500E+01 2.66180E+01 0.00000E+00
 -1      1073 4.36500E+01 2.66180E+01 0.00000E+00
 -1      1074 4.66500E+01 2.66180E+01 0.00000E+00
 -1      1075 4.96500E+01 2.66180E+01 0.00000E+00
 -1      1076 5.26500E+01 2.66180E+01 0.00000E+00
 -1      1077 5.56500E+01 2.66180E+01 0.00000E+00
 -1      1078 5.86500E+01 2.66180E+01 0.00000E+00
 -1      1079 6.16500E+01 2.66180E+01 0.00000E+00
 -1      1080 2.41860E+01 2.20281E+01 0.00000E+00
 -1      1081 1.12650E+02 2.68306E+01 0.00000E+00
 -1      1082 1.15650E+02 2.68306E+01 0.00000E+00
 -1      1083 1.18650E+02 2.68306E+01 0.00000E+00
 -1      1084 1.21650E+02 2.68306E+01 0.00000E+00
 -1      1085 1.24650E+02 2.68306E+01 0.00000E+00
 -1      1086 1.26900E+02 2.66577E+01 0.00000E+00
 -1      1087 3.55350E+01 1.95942E+01 0.00000E+00
 -1      1088 6.21691E+01 2.34595E+01 0.00000E+00
 -1      1089 1.24817E+02 2.18640E+01 0.00000E+00
 -1      1090 2.86500E+01 2.66180E+01 0.00000E+00
 -1      1091 1.09817E+02 2.18640E+01 0.00000E+00
 -1      1092 1.21817E+02 2.18640E+01 0.00000E+00
 -1      1093 1.18817E+02 2.18640E+01 0.00000E+00
 -1      1094 1.12817E+02 2.18640E+01 0.00000E+00
 -1      1095 1.07607E+02 2.06301E+01 0.00000E+00
 -1      1096 5.50350E+01 2.21922E+01 0.00000E+00
 -1      1097 4.60350E+01 2.21922E+01 0.00000E+00
 -1      1098 2.26500E+01 2.66180E+01 0.00000E+00
 -1      1099 1.28036E+02 2.21651E+01 0.00000E+00
 -1      1100 2.56500E+01 2.66180E+01 0.00000E+00
 -1      1101 2.68605E+01 2.08112E+01 0.00000E+00
 -1      1102 1.15817E+02 2.18640E+01 0.00000E+00
 -1      1103 3.16500E+01 2.66180E+01 0.00000E+00
 -1      1104 3.40350E+01 2.21922E+01 0.00000E+00
 -1      1105 5.20350E+01 2.21922E+01 0.00000E+00
 -1      1106 4.30350E+01 2.21922E+01 0.00000E+00
 -1      1107 3.85350E+01 1.95942E+01 0.00000E+00
 -1      1108 1.29077E+02 2.45619E+01 0.00000E+00
 -1      1109 4.90350E+01 2.21922E+01 0.00000E+00
 -1      1110 1.09773E+02 2.44124E+01 0.00000E+00
 -1      1111 5.98727E+01 2.29345E+01 0.00000E+00
 -1      1112 5.73313E+01 2.27173E+01 0.00000E+00
 -1      1113 3.10350E+01 2.21922E+01 0.00000E+00
 -1      1114 3.91500E+01 2.40200E+01 0.00000E+00
 -1      1115 1.17317E+02 2.44620E+01 0.00000E+00
 -1      1116 3.70349E+01 2.21923E+01 0.00000E+00
 -1      1117 1.20317E+02 2.44620E+01 0.00000E+00
 -1      1118 1.23317E+02 2.44620E+01 0.00000E+00
 -1      1119 2.71500E+01 2.40200E+01 0.00000E+00
 -1      1120 1.13545E+02 2.44372E+01 0.00000E+00
 -1      1121 1.26343E+02 2.44978E+01 0.00000E+00
 -1      1122 4.00350E+01 2.21923E+01 0.00000E+00
 -1      1123 0.00000E+00 4.85250E+01 0.00000E+00
 -1      1124 0.00000E+00 4.55750E+01 0.00000E+00
 -1      1125 0.00000E+00 4.26250E+01 0.00000E+00
 -1      1126 0.00000E+00 3.96750E+01 0.00000E+00
 -1      1127 0.00000E+00 3.67250E+01 0.00000E+00
 -1      1128 0.00000E+00 3.38000E+01 0.00000E+00
 -1      1129 0.00000E+00 3.08750E+01 0.00000E+00
 -1      1130 0.00000E+00 2.79250E+01 0.00000E+00
 -1      1131 0.00000E+00 2.49750E+01 0.00000E+00
 -1      1132 0.00000E+00 2.20250E+01 0.00000E+00
 -1      1133 0.00000E+00 1.90750E+01 0.00000E+00
 -1      1134 0.00000E+00 1.61500E+01 0.00000E+00
 -1      1135 0.00000E+00 1.32250E+01 0.00000E+00
 -1      1136 0.00000E+00 1.02750E+01 0.00000E+00
 -1      1137 0.00000E+00 7.32500E+00 0.00000E+00
 -1      1138 0.00000E+00 4.37500E+00 0.00000E+00
 -1      1139 0.00000E+00 1.45000E+00 0.00000E+00
 -1      1140 1.57500E+00 5.00000E+01 0.00000E+00
 -1      1141 4.65000E+00 5.00000E+01 0.00000E+00
 -1      1142 7.65000E+00 5.00000E+01 0.00000E+00
 -1      1143 1.06500E+01 5.00000E+01 0.00000E+00
 -1      1144 1.36500E+01 5.00000E+01 0.00000E+00
 -1      1145 1.66500E+01 5.00000E+01 0.00000E+00
 -1      1146 1.96500E+01 5.00000E+01 0.00000E+00
 -1      1147 2.26500E+01 5.00000E+01 0.00000E+00
 -1      1148 2.56500E+01 5.00000E+01 0.00000E+00
 -1      1149 2.86500E+01 5.00000E+01 0.00000E+00
 -1      1150 3.16500E+01 5.00000E+01 0.00000E+00
 -1      1151 3.46500E+01 5.00000E+01 0.00000E+00
 -1      1152 3.76500E+01 5.00000E+01 0.00000E+00
 -1      1153 4.06500E+01 5.00000E+01 0.00000E+00
 -1      1154 4.36500E+01 5.00000E+01 0.00000E+00
 -1      1155 4.66500E+01 5.00000E+01 0.00000E+00
 -1      1156 4.96500E+01 5.00000E+01 0.00000E+00
 -1      1157 5.26500E+01 5.00000E+01 0.00000E+00
 -1      1158 5.56500E+01 5.00000E+01 0.00000E+00
 -1      1159 5.86500E+01 5.00000E+01 0.00000E+00
 -1      1160 6.16500E+01 5.00000E+01 0.00000E+00
 -1      1161 6.46500E+01 5.00000E+01 0.00000E+00
 -1      1162 6.76500E+01 5.00000E+01 0.00000E+00
 -1      1163 7.06500E+01 5.00000E+01 0.00000E+00
 -1      1164 7.36500E+01 5.00000E+01 0.00000E+00
 -1      1165 7.66500E+01 5.00000E+01 0.00000E+00
 -1      1166 7.96500E+01 5.00000E+01 0.00000E+00
 -1      1167 8.26500E+01 5.00000E+01 0.00000E+00
 -1      1168 8.56500E+01 5.00000E+01 0.00000E+00
 -1      1169 8.86500E+01 5.00000E+01 0.00000E+00
 -1      1170 9.16500E+01 5.00000E+01 0.00000E+00
 -1      1171 9.46500E+01 5.00000E+01 0.00000E+00
 -1      1172 9.76500E+01 5.00000E+01 0.00000E+00
 -1      1173 1.00650E+02 5.00000E+01 0.00000E+00
 -1      1174 1.03650E+02 5.00000E+01 0.00000E+00
 -1      1175 1.06650E+02 5.00000E+01 0.00000E+00
 -1      1176 1.09650E+02 5.00000E+01 0.00000E+00
 -1      1177 1.12650E+02 5.00000E+01 0.00000E+00
 -1      1178 1.15650E+02 5.00000E+01 0.00000E+00
 -1      1179 1.18650E+02 5.00000E+01 0.00000E+00
 -1      1180 1.21650E+02 5.00000E+01 0.00000E+00
 -1      1181 1.24650E+02 5.00000E+01 0.00000E+00
 -1      1182 1.27650E+02 5.00000E+01 0.00000E+00
 -1      1183 1.30650E+02 5.00000E+01 0.00000E+00
 -1      1184 1.33650E+02 5.00000E+01 0.00000E+00
 -1      1185 1.36650E+02 5.00000E+01 0.00000E+00
 -1      1186 1.39650E+02 5.00000E+01 0.00000E+00
 -1      1187 1.42650E+02 5.00000E+01 0.00000E+00
 -1      1188 1.45650E+02 5.00000E+01 0.00000E+00
 -1      1189 1.48575E+02 5.00000E+01 0.00000E+00
 -1      1190 1.57500E+00 0.00000E+00 0.00000E+00
 -1      1191 4.65000E+00 0.00000E+00 0.00000E+00
 -1      1192 7.65000E+00 0.00000E+00 0.00000E+00
 -1      1193 1.06500E+01 0.00000E+00 0.00000E+00
 -1      1194 1.36500E+01 0.00000E+00 0.00000E+00
 -1      1195 1.66500E+01 0.00000E+00 0.00000E+00
 -1      1196 1.96500E+01 0.00000E+00 0.00000E+00
 -1      1197 2.26500E+01 0.00000E+00 0.00000E+00
 -1      1198 2.56500E+01 0.00000E+00 0.00000E+00
 -1      1199 2.86500E+01 0.00000E+00 0.00000E+00
 -1      1200 3.16500E+01 0.00000E+00 0.00000E+00
 -1      1201 3.46500E+01 0.00000E+00 0.00000E+00
 -1      1202 3.76500E+01 0.00000E+00 0.00000E+00
 -1      1203 4.06500E+01 0.00000E+00 0.00000E+00
 -1      1204 4.36500E+01 0.00000E+00 0.00000E+00
 -1      1205 4.66500E+01 0.00000E+00 0.00000E+00
 -1      1206 4.96500E+01 0.00000E+00 0.00000E+00
 -1      1207 5.26500E+01 0.00000E+00 0.00000E+00
 -1      1208 5.56500E+01 0.00000E+00 0.00000E+00
 -1      1209 5.86500E+01 0.00000E+00 0.00000E+00
 -1      1210 6.16500E+01 0.00000E+00 0.00000E+00
 -1      1211 6.46500E+01 0.00000E+00 0.00000E+00
 -1      1212 6.76500E+01 0.00000E+00 0.00000E+00
 -1      1213 7.06500E+01 0.00000E+00 0.00000E+00
 -1      1214 7.36500E+01 0.00000E+00 0.00000E+00
 -1      1215 7.66500E+01 0.00000E+00 0.00000E+00
 -1      1216 7.96500E+01 0.00000E+00 0.00000E+00
 -1      1217 8.26500E+01 0.00000E+00 0.00000E+00
 -1      1218 8.56500E+01 0.00000E+00 0.00000E+00
 -1      1219 8.86500E+01 0.00000E+00 0.00000E+00
 -1      1220 9.16500E+01 0.00000E+00 0.00000E+00
 -1      1221 9.46500E+01 0.00000E+00 0.00000E+00
 -1      1222 9.76500E+01 0.00000E+00 0.00000E+00
 -1      1223 1.00650E+02 0.00000E+00 0.00000E+00
 -1      1224 1.03650E+02 0.00000E+00 0.00000E+00
 -1      1225 1.06650E+02 0.00000E+00 0.00000E+00
 -1      1226 1.09650E+02 0.00000E+00 0.00000E+00
 -1      1227 1.12650E+02 0.00000E+00 0.00000E+00
 -1      1228 1.15650E+02 0.00000E+00 0.00000E+00
 -1      1229 1.18650E+02 0.00000E+00 0.00000E+00
 -1      1230 1.21650E+02 0.00000E+00 0.00000E+00
 -1      1231 1.24650E+02 0.00000E+00 0.00000E+00
 -1      1232 1.27650E+02 0.00000E+00 0.00000E+00
 -1      1233 1.30650E+02 0.00000E+00 0.00000E+00
 -1      1234 1.33650E+02 0.00000E+00 0.00000E+00
 -1      1235 1.36650E+02 0.00000E+00 0.00000E+00
 -1      1236 1.39650E+02 0.00000E+00 0.00000E+00
 -1      1237 1.42650E+02 0.00000E+00 0.00000E+00
 -1      1238 1.45650E+02 0.00000E+00 0.00000E+00
 -1      1239 1.48575E+02 0.00000E+00 0.00000E+00
 -1      1240 1.50000E+02 1.47500E+00 0.00000E+00
 -1      1241 1.50000E+02 4.42500E+00 0.00000E+00
 -1      1242 1.50000E+02 7.37500E+00 0.00000E+00
 -1      1243 1.50000E+02 1.03250E+01 0.00000E+00
 -1      1244 1.50000E+02 1.32750E+01 0.00000E+00
 -1      1245 1.50000E+02 1.62000E+01 0.00000E+00
 -1      1246 1.50000E+02 1.91250E+01 0.00000E+00
 -1      1247 1.50000E+02 2.20750E+01 0.00000E+00
 -1      1248 1.50000E+02 2.50250E+01 0.00000E+00
 -1      1249 1.50000E+02 2.79750E+01 0.00000E+00
 -1      1250 1.50000E+02 3.09250E+01 0.00000E+00
 -1      1251 1.50000E+02 3.38500E+01 0.00000E+00
 -1      1252 1.50000E+02 3.67750E+01 0.00000E+00
 -1      1253 1.50000E+02 3.97250E+01 0.00000E+00
 -1      1254 1.50000E+02 4.26750E+01 0.00000E+00
 -1      1255 1.50000E+02 4.56250E+01 0.00000E+00
 -1      1256 1.50000E+02 4.85500E+01 0.00000E+00
 -1      1257 9.29555E+01 2.43661E+01 0.00000E+00
 -1      1258 9.26390E+01 2.28895E+01 0.00000E+00
 -1      1259 9.19870E+01 2.14715E+01 0.00000E+00
 -1      1260 9.10783E+01 2.02764E+01 0.00000E+00
 -1      1261 8.99504E+01 1.93127E+01 0.00000E+00
 -1      1262 8.86370E+01 1.86051E+01 0.00000E+00
 -1      1263 8.72331E+01 1.81972E+01 0.00000E+00
 -1      1264 8.57624E+01 1.80903E+01 0.00000E+00
 -1      1265 8.41762E+01 1.83263E+01 0.00000E+00
 -1      1266 8.27310E+01 1.88928E+01 0.00000E+00
 -1      1267 8.15053E+01 1.97140E+01 0.00000E+00
 -1      1268 8.04644E+01 2.07924E+01 0.00000E+00
 -1      1269 7.96978E+01 2.20247E+01 0.00000E+00
 -1      1270 7.91941E+01 2.34192E+01 0.00000E+00
 -1      1271 7.89961E+01 2.48665E+01 0.00000E+00
 -1      1272 7.90928E+01 2.62660E+01 0.00000E+00
 -1      1273 7.94957E+01 2.76922E+01 0.00000E+00
 -1      1274 8.01975E+01 2.90128E+01 0.00000E+00
 -1      1275 8.11551E+01 3.01459E+01 0.00000E+00
 -1      1276 8.23504E+01 3.10642E+01 0.00000E+00
 -1      1277 8.36491E+01 3.16825E+01 0.00000E+00
 -1      1278 8.49979E+01 3.20154E+01 0.00000E+00
 -1      1279 8.63727E+01 3.20761E+01 0.00000E+00
 -1      1280 8.77809E+01 3.18542E+01 0.00000E+00
 -1      1281 8.91103E+01 3.13538E+01 0.00000E+00
 -1      1282 9.02820E+01 3.06183E+01 0.00000E+00
 -1      1283 9.12907E+01 2.96615E+01 0.00000E+00
 -1      1284 9.21122E+01 2.84853E+01 0.00000E+00
 -1      1285 9.26738E+01 2.71752E+01 0.00000E+00
 -1      1286 9.29559E+01 2.58034E+01 0.00000E+00
 -1      1287 1.57500E+00 4.85250E+01 0.00000E+00
 -1      1288 1.29900E+00 4.48375E+01 0.00000E+00
 -1      1289 1.29900E+00 4.63125E+01 0.00000E+00
 -1      1290 1.29900E+00 4.18875E+01 0.00000E+00
 -1      1291 1.29900E+00 4.33625E+01 0.00000E+00
 -1      1292 2.59800E+00 4.41000E+01 0.00000E+00
 -1      1293 1.29900E+00 3.89375E+01 0.00000E+00
 -1      1294 1.29900E+00 4.04125E+01 0.00000E+00
 -1      1295 2.59800E+00 4.11500E+01 0.00000E+00
 -1      1296 1.29900E+00 3.59875E+01 0.00000E+00
 -1      1297 1.29900E+00 3.74625E+01 0.00000E+00
 -1      1298 2.59800E+00 3.82000E+01 0.00000E+00
 -1      1299 1.29900E+00 3.30875E+01 0.00000E+00
 -1      1300 1.29900E+00 3.45375E+01 0.00000E+00
 -1      1301 2.59800E+00 3.52750E+01 0.00000E+00
 -1      1302 1.29900E+00 3.01375E+01 0.00000E+00
 -1      1303 1.29900E+00 3.16125E+01 0.00000E+00
 -1      1304 2.59800E+00 3.23500E+01 0.00000E+00
 -1      1305 1.29900E+00 2.71875E+01 0.00000E+00
 -1      1306 1.29900E+00 2.86625E+01 0.00000E+00
 -1      1307 2.59800E+00 2.94000E+01 0.00000E+00
 -1      1308 1.29900E+00 2.42375E+01 0.00000E+00
 -1      1309 1.29900E+00 2.57125E+01 0.00000E+00
 -1      1310 2.59800E+00 2.64500E+01 0.00000E+00
 -1      1311 1.29900E+00 2.12875E+01 0.00000E+00
 -1      1312 1.29900E+00 2.27625E+01 0.00000E+00
 -1      1313 2.59800E+00 2.35000E+01 0.00000E+00
 -1      1314 1.29900E+00 1.83375E+01 0.00000E+00
 -1      1315 1.29900E+00 1.98125E+01 0.00000E+00
 -1      1316 2.59800E+00 2.05500E+01 0.00000E+00
 -1      1317 1.29900E+00 1.54375E+01 0.00000E+00
 -1      1318 1.29900E+00 1.68875E+01 0.00000E+00
 -1      1319 2.59800E+00 1.76250E+01 0.00000E+00
 -1      1320 1.29900E+00 1.24875E+01 0.00000E+00
 -1      1321 1.29900E+00 1.39625E+01 0.00000E+00
 -1      1322 2.59800E+00 1.47000E+01 0.00000E+00
 -1      1323 1.29900E+00 9.53750E+00 0.00000E+00
 -1      1324 1.29900E+00 1.10125E+01 0.00000E+00
 -1      1325 2.59800E+00 1.17500E+01 0.00000E+00
 -1      1326 1.29900E+00 6.58750E+00 0.00000E+00
 -1      1327 1.29900E+00 8.06250E+00 0.00000E+00
 -1      1328 2.59800E+00 8.80000E+00 0.00000E+00
 -1      1329 1.29900E+00 3.63750E+00 0.00000E+00
 -1      1330 1.29900E+00 5.11250E+00 0.00000E+00
 -1      1331 2.59800E+00 5.85000E+00 0.00000E+00
 -1      1332 1.43700E+00 1.09375E+00 0.00000E+00
 -1      1333 1.43700E+00 2.54375E+00 0.00000E+00
 -1      1334 2.73600E+00 3.28125E+00 0.00000E+00
 -1      1335 3.01200E+00 1.09375E+00 0.00000E+00
 -1      1336 3.90000E+00 4.87010E+01 0.00000E+00
 -1      1337 5.40000E+00 4.87010E+01 0.00000E+00
 -1      1338 6.90000E+00 4.87010E+01 0.00000E+00
 -1      1339 8.40000E+00 4.87010E+01 0.00000E+00
 -1      1340 6.15000E+00 4.74020E+01 0.00000E+00
 -1      1341 9.90000E+00 4.87010E+01 0.00000E+00
 -1      1342 1.14000E+01 4.87010E+01 0.00000E+00
 -1      1343 9.15000E+00 4.74020E+01 0.00000E+00
 -1      1344 1.29000E+01 4.87010E+01 0.00000E+00
 -1      1345 1.44000E+01 4.87010E+01 0.00000E+00
 -1      1346 1.21500E+01 4.74020E+01 0.00000E+00
 -1      1347 1.59000E+01 4.87010E+01 0.00000E+00
 -1      1348 1.74000E+01 4.87010E+01 0.00000E+00
 -1      1349 1.51500E+01 4.74020E+01 0.00000E+00
 -1      1350 1.89000E+01 4.87010E+01 0.00000E+00
 -1      1351 2.04000E+01 4.87010E+01 0.00000E+00
 -1      1352 1.81500E+01 4.74020E+01 0.00000E+00
 -1      1353 2.19000E+01 4.87010E+01 0.00000E+00
 -1      1354 2.34000E+01 4.87010E+01 0.00000E+00
 -1      1355 2.11500E+01 4.74020E+01 0.00000E+00
 -1      1356 2.49000E+01 4.87010E+01 0.00000E+00
 -1      1357 2.64000E+01 4.87010E+01 0.00000E+00
 -1      1358 2.41500E+01 4.74020E+01 0.00000E+00
 -1      1359 2.79000E+01 4.87010E+01 0.00000E+00
 -1      1360 2.94000E+01 4.87010E+01 0.00000E+00
 -1      1361 2.71500E+01 4.74020E+01 0.00000E+00
 -1      1362 3.09000E+01 4.87010E+01 0.00000E+00
 -1      1363 3.24000E+01 4.87010E+01 0.00000E+00
 -1      1364 3.01500E+01 4.74020E+01 0.00000E+00
 -1      1365 3.39000E+01 4.87010E+01 0.00000E+00
 -1      1366 3.54000E+01 4.87010E+01 0.00000E+00
 -1      1367 3.31500E+01 4.74020E+01 0.00000E+00
 -1      1368 3.69000E+01 4.87010E+01 0.00000E+00
 -1      1369 3.84000E+01 4.87010E+01 0.00000E+00
 -1      1370 3.61500E+01 4.74020E+01 0.00000E+00
 -1      1371 3.99000E+01 4.87010E+01 0.00000E+00
 -1      1372 4.14000E+01 4.87010E+01 0.00000E+00
 -1      1373 3.91500E+01 4.74020E+01 0.00000E+00
 -1      1374 4.29000E+01 4.87010E+01 0.00000E+00
 -1      1375 4.44000E+01 4.87010E+01 0.00000E+00
 -1      1376 4.21500E+01 4.74020E+01 0.00000E+00
 -1      1377 4.59000E+01 4.87010E+01 0.00000E+00
 -1      1378 4.74000E+01 4.87010E+01 0.00000E+00
 -1      1379 4.51500E+01 4.74020E+01 0.00000E+00
 -1      1380 4.89000E+01 4.87010E+01 0.00000E+00
 -1      1381 5.04000E+01 4.87010E+01 0.00000E+00
 -1      1382 4.81500E+01 4.74020E+01 0.00000E+00
 -1      1383 5.19000E+01 4.87010E+01 0.00000E+00
 -1      1384 5.34000E+01 4.87010E+01 0.00000E+00
 -1      1385 5.11500E+01 4.74020E+01 0.00000E+00
 -1      1386 5.49000E+01 4.87010E+01 0.00000E+00
 -1      1387 5.64000E+01 4.87010E+01 0.00000E+00
 -1      1388 5.41500E+01 4.74020E+01 0.00000E+00
 -1      1389 5.79000E+01 4.87010E+01 0.00000E+00
 -1      1390 5.94000E+01 4.87010E+01 0.00000E+00
 -1      1391 5.71500E+01 4.74020E+01 0.00000E+00
 -1      1392 6.09000E+01 4.87010E+01 0.00000E+00
 -1      1393 6.24000E+01 4.87010E+01 0.00000E+00
 -1      1394 6.01500E+01 4.74020E+01 0.00000E+00
 -1      1395 6.39000E+01 4.87010E+01 0.00000E+00
 -1      1396 6.54000E+01 4.87010E+01 0.00000E+00
 -1      1397 6.31500E+01 4.74020E+01 0.00000E+00
 -1      1398 6.69000E+01 4.87010E+01 0.00000E+00
 -1      1399 6.84000E+01 4.87010E+01 0.00000E+00
 -1      1400 6.61500E+01 4.74020E+01 0.00000E+00
 -1      1401 6.99000E+01 4.87010E+01 0.00000E+00
 -1      1402 7.14000E+01 4.87010E+01 0.00000E+00
 -1      1403 6.91500E+01 4.74020E+01 0.00000E+00
 -1      1404 7.29000E+01 4.87010E+01 0.00000E+00
 -1      1405 7.44000E+01 4.87010E+01 0.00000E+00
 -1      1406 7.21500E+01 4.74020E+01 0.00000E+00
 -1      1407 7.59000E+01 4.87010E+01 0.00000E+00
 -1      1408 7.74000E+01 4.87010E+01 0.00000E+00
 -1      1409 7.51500E+01 4.74020E+01 0.00000E+00
 -1      1410 7.89000E+01 4.87010E+01 0.00000E+00
 -1      1411 8.04000E+01 4.87010E+01 0.00000E+00
 -1      1412 7.81500E+01 4.74020E+01 0.00000E+00
 -1      1413 8.19000E+01 4.87010E+01 0.00000E+00
 -1      1414 8.34000E+01 4.87010E+01 0.00000E+00
 -1      1415 8.11500E+01 4.74020E+01 0.00000E+00
 -1      1416 8.49000E+01 4.87010E+01 0.00000E+00
 -1      1417 8.64000E+01 4.87010E+01 0.00000E+00
 -1      1418 8.41500E+01 4.74020E+01 0.00000E+00
 -1      1419 8.79000E+01 4.87010E+01 0.00000E+00
 -1      1420 8.94000E+01 4.87010E+01 0.00000E+00
 -1      1421 8.71500E+01 4.74020E+01 0.00000E+00
 -1      1422 9.09000E+01 4.87010E+01 0.00000E+00
 -1      1423 9.24000E+01 4.87010E+01 0.00000E+00
 -1      1424 9.01500E+01 4.74020E+01 0.00000E+00
 -1      1425 9.39000E+01 4.87010E+01 0.00000E+00
 -1      1426 9.54000E+01 4.87010E+01 0.00000E+00
 -1      1427 9.31500E+01 4.74020E+01 0.00000E+00
 -1      1428 9.69000E+01 4.87010E+01 0.00000E+00
 -1      1429 9.84000E+01 4.87010E+01 0.00000E+00
 -1      1430 9.61500E+01 4.74020E+01 0.00000E+00
 -1      1431 9.99000E+01 4.87010E+01 0.00000E+00
 -1      1432 1.01400E+02 4.87010E+01 0.00000E+00
 -1      1433 9.91500E+01 4.74020E+01 0.00000E+00
 -1      1434 1.02900E+02 4.87010E+01 0.00000E+00
 -1      1435 1.04400E+02 4.87010E+01 0.00000E+00
 -1      1436 1.02150E+02 4.74020E+01 0.00000E+00
 -1      1437 1.05900E+02 4.87010E+01 0.00000E+00
 -1      1438 1.07400E+02 4.87010E+01 0.00000E+00
 -1      1439 1.05150E+02 4.74020E+01 0.00000E+00
 -1      1440 1.08900E+02 4.87010E+01 0.00000E+00
 -1      1441 1.10400E+02 4.87010E+01 0.00000E+00
 -1      1442 1.08150E+02 4.74020E+01 0.00000E+00
 -1      1443 1.11900E+02 4.87010E+01 0.00000E+00
 -1      1444 1.13400E+02 4.87010E+01 0.00000E+00
 -1      1445 1.11150E+02 4.74020E+01 0.00000E+00
 -1      1446 1.14900E+02 4.87010E+01 0.00000E+00
 -1      1447 1.16400E+02 4.87010E+01 0.00000E+00
 -1      1448 1.14150E+02 4.74020E+01 0.00000E+00
 -1      1449 1.17900E+02 4.87010E+01 0.00000E+00
 -1      1450 1.19400E+02 4.87010E+01 0.00000E+00
 -1      1451 1.17150E+02 4.74020E+01 0.00000E+00
 -1      1452 1.20900E+02 4.87010E+01 0.00000E+00
 -1      1453 1.22400E+02 4.87010E+01 0.00000E+00
 -1      1454 1.20150E+02 4.74020E+01 0.00000E+00
 -1      1455 1.23900E+02 4.87010E+01 0.00000E+00
 -1      1456 1.25400E+02 4.87010E+01 0.00000E+00
 -1      1457 1.23150E+02 4.74020E+01 0.00000E+00
 -1      1458 1.26900E+02 4.87010E+01 0.00000E+00
 -1      1459 1.28400E+02 4.87010E+01 0.00000E+00
 -1      1460 1.26150E+02 4.74020E+01 0.00000E+00
 -1      1461 1.29900E+02 4.87010E+01 0.00000E+00
 -1      1462 1.31400E+02 4.87010E+01 0.00000E+00
 -1      1463 1.29150E+02 4.74020E+01 0.00000E+00
 -1      1464 1.32900E+02 4.87010E+01 0.00000E+00
 -1      1465 1.34400E+02 4.87010E+01 0.00000E+00
 -1      1466 1.32150E+02 4.74020E+01 0.00000E+00
 -1      1467 1.35900E+02 4.87010E+01 0.00000E+00
 -1      1468 1.37400E+02 4.87010E+01 0.00000E+00
 -1      1469 1.35150E+02 4.74020E+01 0.00000E+00
 -1      1470 1.38900E+02 4.87010E+01 0.00000E+00
 -1      1471 1.40400E+02 4.87010E+01 0.00000E+00
 -1      1472 1.38150E+02 4.74020E+01 0.00000E+00
 -1      1473 1.41900E+02 4.87010E+01 0.00000E+00
 -1      1474 1.43400E+02 4.87010E+01 0.00000E+00
 -1      1475 1.41150E+02 4.74020E+01 0.00000E+00
 -1      1476 1.44900E+02 4.87010E+01 0.00000E+00
 -1      1477 1.46400E+02 4.87010E+01 0.00000E+00
 -1      1478 1.44150E+02 4.74020E+01 0.00000E+00
 -1      1479 1.48575E+02 4.85500E+01 0.00000E+00
 -1      1480 1.47825E+02 4.72510E+01 0.00000E+00
 -1      1481 6.01200E+00 1.09375E+00 0.00000E+00
 -1      1482 4.51200E+00 1.09375E+00 0.00000E+00
 -1      1483 4.37400E+00 2.18750E+00 0.00000E+00
 -1      1484 9.01200E+00 1.09375E+00 0.00000E+00
 -1      1485 7.51200E+00 1.09375E+00 0.00000E+00
 -1      1486 7.37400E+00 2.18750E+00 0.00000E+00
 -1      1487 1.20120E+01 1.09375E+00 0.00000E+00
 -1      1488 1.05120E+01 1.09375E+00 0.00000E+00
 -1      1489 1.03740E+01 2.18750E+00 0.00000E+00
 -1      1490 1.50120E+01 1.09375E+00 0.00000E+00
 -1      1491 1.35120E+01 1.09375E+00 0.00000E+00
 -1      1492 1.33740E+01 2.18750E+00 0.00000E+00
 -1      1493 1.80120E+01 1.09375E+00 0.00000E+00
 -1      1494 1.65120E+01 1.09375E+00 0.00000E+00
 -1      1495 1.63740E+01 2.18750E+00 0.00000E+00
 -1      1496 2.10120E+01 1.09375E+00 0.00000E+00
 -1      1497 1.95120E+01 1.09375E+00 0.00000E+00
 -1      1498 1.93740E+01 2.18750E+00 0.00000E+00
 -1      1499 2.40120E+01 1.09375E+00 0.00000E+00
 -1      1500 2.25120E+01 1.09375E+00 0.00000E+00
 -1      1501 2.23740E+01 2.18750E+00 0.00000E+00
 -1      1502 2.70120E+01 1.09375E+00 0.00000E+00
 -1      1503 2.55120E+01 1.09375E+00 0.00000E+00
 -1      1504 2.53740E+01 2.18750E+00 0.00000E+00
 -1      1505 3.00120E+01 1.09375E+00 0.00000E+00
 -1      1506 2.85120E+01 1.09375E+00 0.00000E+00
 -1      1507 2.83740E+01 2.18750E+00 0.00000E+00
 -1      1508 3.30120E+01 1.09375E+00 0.00000E+00
 -1      1509 3.15120E+01 1.09375E+00 0.00000E+00
 -1      1510 3.13740E+01 2.18750E+00 0.00000E+00
 -1      1511 3.60120E+01 1.09375E+00 0.00000E+00
 -1      1512 3.45120E+01 1.09375E+00 0.00000E+00
 -1      1513 3.43740E+01 2.18750E+00 0.00000E+00
 -1      1514 3.90120E+01 1.09375E+00 0.00000E+00
 -1      1515 3.75120E+01 1.09375E+00 0.00000E+00
 -1      1516 3.73740E+01 2.18750E+00 0.00000E+00
 -1      1517 4.20120E+01 1.09375E+00 0.00000E+00
 -1      1518 4.05120E+01 1.09375E+00 0.00000E+00
 -1      1519 4.03740E+01 2.18750E+00 0.00000E+00
 -1      1520 4.50120E+01 1.09375E+00 0.00000E+00
 -1      1521 4.35120E+01 1.09375E+00 0.00000E+00
 -1      1522 4.33740E+01 2.18750E+00 0.00000E+00
 -1      1523 4.80120E+01 1.09375E+00 0.00000E+00
 -1      1524 4.65120E+01 1.09375E+00 0.00000E+00
 -1      1525 4.63740E+01 2.18750E+00 0.00000E+00
 -1      1526 5.10120E+01 1.09375E+00 0.00000E+00
 -1      1527 4.95120E+01 1.09375E+00 0.00000E+00
 -1      1528 4.93740E+01 2.18750E+00 0.00000E+00
 -1      1529 5.40120E+01 1.09375E+00 0.00000E+00
 -1      1530 5.25120E+01 1.09375E+00 0.00000E+00
 -1      1531 5.23740E+01 2.18750E+00 0.00000E+00
 -1      1532 5.70120E+01 1.09375E+00 0.00000E+00
 -1      1533 5.55120E+01 1.09375E+00 0.00000E+00
 -1      1534 5.53740E+01 2.18750E+00 0.00000E+00
 -1      1535 6.00120E+01 1.09375E+00 0.00000E+00
 -1      1536 5.85120E+01 1.09375E+00 0.00000E+00
 -1      1537 5.83740E+01 2.18750E+00 0.00000E+00
 -1      1538 6.30120E+01 1.09375E+00 0.00000E+00
 -1      1539 6.15120E+01 1.09375E+00 0.00000E+00
 -1      1540 6.13740E+01 2.18750E+00 0.00000E+00
 -1      1541 6.60120E+01 1.09375E+00 0.00000E+00
 -1      1542 6.45120E+01 1.09375E+00 0.00000E+00
 -1      1543 6.43740E+01 2.18750E+00 0.00000E+00
 -1      1544 6.90120E+01 1.09375E+00 0.00000E+00
 -1      1545 6.75120E+01 1.09375E+00 0.00000E+00
 -1      1546 6.73740E+01 2.18750E+00 0.00000E+00
 -1      1547 7.20120E+01 1.09375E+00 0.00000E+00
 -1      1548 7.05120E+01 1.09375E+00 0.00000E+00
 -1      1549 7.03740E+01 2.18750E+00 0.00000E+00
 -1      1550 7.50120E+01 1.09375E+00 0.00000E+00
 -1      1551 7.35120E+01 1.09375E+00 0.00000E+00
 -1      1552 7.33740E+01 2.18750E+00 0.00000E+00
 -1      1553 7.80120E+01 1.09375E+00 0.00000E+00
 -1      1554 7.65120E+01 1.09375E+00 0.00000E+00
 -1      1555 7.63740E+01 2.18750E+00 0.00000E+00
 -1      1556 8.10120E+01 1.09375E+00 0.00000E+00
 -1      1557 7.95120E+01 1.09375E+00 0.00000E+00
 -1      1558 7.93740E+01 2.18750E+00 0.00000E+00
 -1      1559 8.40120E+01 1.09375E+00 0.00000E+00
 -1      1560 8.25120E+01 1.09375E+00 0.00000E+00
 -1      1561 8.23740E+01 2.18750E+00 0.00000E+00
 -1      1562 8.70120E+01 1.09375E+00 0.00000E+00
 -1      1563 8.55120E+01 1.09375E+00 0.00000E+00
 -1      1564 8.53740E+01 2.18750E+00 0.00000E+00
 -1      1565 9.00120E+01 1.09375E+00 0.00000E+00
 -1      1566 8.85120E+01 1.09375E+00 0.00000E+00
 -1      1567 8.83740E+01 2.18750E+00 0.00000E+00
 -1      1568 9.30120E+01 1.09375E+00 0.00000E+00
 -1      1569 9.15120E+01 1.09375E+00 0.00000E+00
 -1      1570 9.13740E+01 2.18750E+00 0.00000E+00
 -1      1571 9.60120E+01 1.09375E+00 0.00000E+00
 -1      1572 9.45120E+01 1.09375E+00 0.00000E+00
 -1      1573 9.43740E+01 2.18750E+00 0.00000E+00
 -1      1574 9.90120E+01 1.09375E+00 0.00000E+00
 -1      1575 9.75120E+01 1.09375E+00 0.00000E+00
 -1      1576 9.73740E+01 2.18750E+00 0.00000E+00
 -1      1577 1.02012E+02 1.09375E+00 0.00000E+00
 -1      1578 1.00512E+02 1.09375E+00 0.00000E+00
 -1      1579 1.00374E+02 2.18750E+00 0.00000E+00
 -1      1580 1.05012E+02 1.09375E+00 0.00000E+00
 -1      1581 1.03512E+02 1.09375E+00 0.00000E+00
 -1      1582 1.03374E+02 2.18750E+00 0.00000E+00
 -1      1583 1.08012E+02 1.09375E+00 0.00000E+00
 -1      1584 1.06512E+02 1.09375E+00 0.00000E+00
 -1      1585 1.06374E+02 2.18750E+00 0.00000E+00
 -1      1586 1.11012E+02 1.09375E+00 0.00000E+00
 -1      1587 1.09512E+02 1.09375E+00 0.00000E+00
 -1      1588 1.09374E+02 2.18750E+00 0.00000E+00
 -1      1589 1.14012E+02 1.09375E+00 0.00000E+00
 -1      1590 1.12512E+02 1.09375E+00 0.00000E+00
 -1      1591 1.12374E+02 2.18750E+00 0.00000E+00
 -1      1592 1.17012E+02 1.09375E+00 0.00000E+00
 -1      1593 1.15512E+02 1.09375E+00 0.00000E+00
 -1      1594 1.15374E+02 2.18750E+00 0.00000E+00
 -1      1595 1.20012E+02 1.09375E+00 0.00000E+00
 -1      1596 1.18512E+02 1.09375E+00 0.00000E+00
 -1      1597 1.18374E+02 2.18750E+00 0.00000E+00
 -1      1598 1.23012E+02 1.09375E+00 0.00000E+00
 -1      1599 1.21512E+02 1.09375E+00 0.00000E+00
 -1      1600 1.21374E+02 2.18750E+00 0.00000E+00
 -1      1601 1.26012E+02 1.09375E+00 0.00000E+00
 -1      1602 1.24512E+02 1.09375E+00 0.00000E+00
 -1      1603 1.24374E+02 2.18750E+00 0.00000E+00
 -1      1604 1.29012E+02 1.09375E+00 0.00000E+00
 -1      1605 1.27512E+02 1.09375E+00 0.00000E+00
 -1      1606 1.27374E+02 2.18750E+00 0.00000E+00
 -1      1607 1.32012E+02 1.09375E+00 0.00000E+00
 -1      1608 1.30512E+02 1.09375E+00 0.00000E+00
 -1      1609 1.30374E+02 2.18750E+00 0.00000E+00
 -1      1610 1.35012E+02 1.09375E+00 0.00000E+00
 -1      1611 1.33512E+02 1.09375E+00 0.00000E+00
 -1      1612 1.33374E+02 2.18750E+00 0.00000E+00
 -1      1613 1.38012E+02 1.09375E+00 0.00000E+00
 -1      1614 1.36512E+02 1.09375E+00 0.00000E+00
 -1      1615 1.36374E+02 2.18750E+00 0.00000E+00
 -1      1616 1.41012E+02 1.09375E+00 0.00000E+00
 -1      1617 1.39512E+02 1.09375E+00 0.00000E+00
 -1      1618 1.39374E+02 2.18750E+00 0.00000E+00
 -1      1619 1.44012E+02 1.09375E+00 0.00000E+00
 -1      1620 1.42512E+02 1.09375E+00 0.00000E+00
 -1      1621 1.42374E+02 2.18750E+00 0.00000E+00
 -1      1622 1.47012E+02 1.09375E+00 0.00000E+00
 -1      1623 1.45512E+02 1.09375E+00 0.00000E+00
 -1      1624 1.45374E+02 2.18750E+00 0.00000E+00
 -1      1625 1.48575E+02 1.47500E+00 0.00000E+00
 -1      1626 1.48701E+02 5.16250E+00 0.00000E+00
 -1      1627 1.48701E+02 3.68750E+00 0.00000E+00
 -1      1628 1.48701E+02 8.11250E+00 0.00000E+00
 -1      1629 1.48701E+02 6.63750E+00 0.00000E+00
 -1      1630 1.47402E+02 5.90000E+00 0.00000E+00
 -1      1631 1.48701E+02 1.10625E+01 0.00000E+00
 -1      1632 1.48701E+02 9.58750E+00 0.00000E+00
 -1      1633 1.47402E+02 8.85000E+00 0.00000E+00
 -1      1634 1.48701E+02 1.40125E+01 0.00000E+00
 -1      1635 1.48701E+02 1.25375E+01 0.00000E+00
 -1      1636 1.47402E+02 1.18000E+01 0.00000E+00
 -1      1637 1.48701E+02 1.69125E+01 0.00000E+00
 -1      1638 1.48701E+02 1.54625E+01 0.00000E+00
 -1      1639 1.47402E+02 1.47250E+01 0.00000E+00
 -1      1640 1.48701E+02 1.98625E+01 0.00000E+00
 -1      1641 1.48701E+02 1.83875E+01 0.00000E+00
 -1      1642 1.47402E+02 1.76500E+01 0.00000E+00
 -1      1643 1.48701E+02 2.28125E+01 0.00000E+00
 -1      1644 1.48701E+02 2.13375E+01 0.00000E+00
 -1      1645 1.47402E+02 2.06000E+01 0.00000E+00
 -1      1646 1.48701E+02 2.57625E+01 0.00000E+00
 -1      1647 1.48701E+02 2.42875E+01 0.00000E+00
 -1      1648 1.47402E+02 2.35500E+01 0.00000E+00
 -1      1649 1.48701E+02 2.87125E+01 0.00000E+00
 -1      1650 1.48701E+02 2.72375E+01 0.00000E+00
 -1      1651 1.47402E+02 2.65000E+01 0.00000E+00
 -1      1652 1.48701E+02 3.16625E+01 0.00000E+00
 -1      1653 1.48701E+02 3.01875E+01 0.00000E+00
 -1      1654 1.47402E+02 2.94500E+01 0.00000E+00
 -1      1655 1.48701E+02 3.45625E+01 0.00000E+00
 -1      1656 1.48701E+02 3.31125E+01 0.00000E+00
 -1      1657 1.47402E+02 3.23750E+01 0.00000E+00
 -1      1658 1.48701E+02 3.75125E+01 0.00000E+00
 -1      1659 1.48701E+02 3.60375E+01 0.00000E+00
 -1      1660 1.47402E+02 3.53000E+01 0.00000E+00
 -1      1661 1.48701E+02 4.04625E+01 0.00000E+00
 -1      1662 1.48701E+02 3.89875E+01 0.00000E+00
 -1      1663 1.47402E+02 3.82500E+01 0.00000E+00
 -1      1664 1.48701E+02 4.34125E+01 0.00000E+00
 -1      1665 1.48701E+02 4.19375E+01 0.00000E+00
 -1      1666 1.47402E+02 4.12000E+01 0.00000E+00
 -1      1667 1.48263E+02 4.60692E+01 0.00000E+00
 -1      1668 1.48263E+02 4.45942E+01 0.00000E+00
 -1      1669 1.46964E+02 4.38568E+01 0.00000E+00
 -1      1670 1.46088E+02 4.62202E+01 0.00000E+00
 -1      1671 9.34845E+01 2.39494E+01 0.00000E+00
 -1      1672 9.35586E+01 2.46658E+01 0.00000E+00
 -1      1673 9.31277E+01 2.23119E+01 0.00000E+00
 -1      1674 9.33756E+01 2.30619E+01 0.00000E+00
 -1      1675 9.22707E+01 2.08505E+01 0.00000E+00
 -1      1676 9.26687E+01 2.15104E+01 0.00000E+00
 -1      1677 9.13008E+01 1.95632E+01 0.00000E+00
 -1      1678 9.18028E+01 2.00940E+01 0.00000E+00
 -1      1679 8.99834E+01 1.85988E+01 0.00000E+00
 -1      1680 9.06044E+01 1.90245E+01 0.00000E+00
 -1      1681 8.85090E+01 1.79405E+01 0.00000E+00
 -1      1682 8.91933E+01 1.82196E+01 0.00000E+00
 -1      1683 8.69856E+01 1.75322E+01 0.00000E+00
 -1      1684 8.76971E+01 1.76603E+01 0.00000E+00
 -1      1685 8.53668E+01 1.74953E+01 0.00000E+00
 -1      1686 8.61181E+01 1.74706E+01 0.00000E+00
 -1      1687 8.35775E+01 1.77398E+01 0.00000E+00
 -1      1688 8.44003E+01 1.75187E+01 0.00000E+00
 -1      1689 8.21551E+01 1.85506E+01 0.00000E+00
 -1      1690 8.27746E+01 1.82244E+01 0.00000E+00
 -1      1691 8.07932E+01 1.94659E+01 0.00000E+00
 -1      1692 8.13880E+01 1.89690E+01 0.00000E+00
 -1      1693 7.97933E+01 2.07294E+01 0.00000E+00
 -1      1694 8.02373E+01 2.01578E+01 0.00000E+00
 -1      1695 7.90276E+01 2.21032E+01 0.00000E+00
 -1      1696 7.93459E+01 2.14490E+01 0.00000E+00
 -1      1697 7.85144E+01 2.36413E+01 0.00000E+00
 -1      1698 7.86943E+01 2.29078E+01 0.00000E+00
 -1      1699 7.84148E+01 2.52012E+01 0.00000E+00
 -1      1700 7.84370E+01 2.44959E+01 0.00000E+00
 -1      1701 7.85883E+01 2.67059E+01 0.00000E+00
 -1      1702 7.84708E+01 2.60186E+01 0.00000E+00
 -1      1703 7.90424E+01 2.82968E+01 0.00000E+00
 -1      1704 7.87502E+01 2.75684E+01 0.00000E+00
 -1      1705 7.99249E+01 2.96267E+01 0.00000E+00
 -1      1706 7.95263E+01 2.90383E+01 0.00000E+00
 -1      1707 8.09293E+01 3.09413E+01 0.00000E+00
 -1      1708 8.03706E+01 3.04071E+01 0.00000E+00
 -1      1709 8.23250E+01 3.18115E+01 0.00000E+00
 -1      1710 8.16979E+01 3.14294E+01 0.00000E+00
 -1      1711 8.37898E+01 3.23381E+01 0.00000E+00
 -1      1712 8.31264E+01 3.21024E+01 0.00000E+00
 -1      1713 8.52556E+01 3.26309E+01 0.00000E+00
 -1      1714 8.45774E+01 3.25335E+01 0.00000E+00
 -1      1715 8.67487E+01 3.26286E+01 0.00000E+00
 -1      1716 8.60588E+01 3.26661E+01 0.00000E+00
 -1      1717 8.83024E+01 3.23901E+01 0.00000E+00
 -1      1718 8.75921E+01 3.25778E+01 0.00000E+00
 -1      1719 8.96724E+01 3.17137E+01 0.00000E+00
 -1      1720 8.90583E+01 3.20192E+01 0.00000E+00
 -1      1721 9.09078E+01 3.08561E+01 0.00000E+00
 -1      1722 9.03565E+01 3.12836E+01 0.00000E+00
 -1      1723 9.19499E+01 2.97730E+01 0.00000E+00
 -1      1724 9.14972E+01 3.02974E+01 0.00000E+00
 -1      1725 9.28610E+01 2.84768E+01 0.00000E+00
 -1      1726 9.25008E+01 2.91254E+01 0.00000E+00
 -1      1727 9.33224E+01 2.70199E+01 0.00000E+00
 -1      1728 9.31185E+01 2.76723E+01 0.00000E+00
 -1      1729 9.36006E+01 2.55095E+01 0.00000E+00
 -1      1730 9.35272E+01 2.62227E+01 0.00000E+00
 -1      1731 9.13567E+01 1.88158E+01 0.00000E+00
 -1      1732 9.25210E+01 2.01109E+01 0.00000E+00
 -1      1733 1.48437E+02 2.56875E+00 0.00000E+00
 -1      1734 1.47138E+02 3.30625E+00 0.00000E+00
 -1      1735 9.40156E+01 2.33578E+01 0.00000E+00
 -1      1736 9.34478E+01 2.16689E+01 0.00000E+00
 -1      1737 9.41666E+01 2.50888E+01 0.00000E+00
 -1      1738 8.98702E+01 1.78979E+01 0.00000E+00
 -1      1739 8.82682E+01 1.72386E+01 0.00000E+00
 -1      1740 8.65887E+01 1.68968E+01 0.00000E+00
 -1      1741 8.47546E+01 1.68586E+01 0.00000E+00
 -1      1742 8.29853E+01 1.73666E+01 0.00000E+00
 -1      1743 8.14154E+01 1.82695E+01 0.00000E+00
 -1      1744 8.00924E+01 1.93798E+01 0.00000E+00
 -1      1745 7.90891E+01 2.07913E+01 0.00000E+00
 -1      1746 7.83083E+01 2.23156E+01 0.00000E+00
 -1      1747 7.78974E+01 2.39748E+01 0.00000E+00
 -1      1748 7.78760E+01 2.56469E+01 0.00000E+00
 -1      1749 7.80940E+01 2.73269E+01 0.00000E+00
 -1      1750 7.87398E+01 2.89310E+01 0.00000E+00
 -1      1751 7.96695E+01 3.04530E+01 0.00000E+00
 -1      1752 8.08839E+01 3.17216E+01 0.00000E+00
 -1      1753 8.24538E+01 3.25006E+01 0.00000E+00
 -1      1754 8.40427E+01 3.29869E+01 0.00000E+00
 -1      1755 8.56335E+01 3.32174E+01 0.00000E+00
 -1      1756 8.72801E+01 3.32018E+01 0.00000E+00
 -1      1757 8.88794E+01 3.27801E+01 0.00000E+00
 -1      1758 9.03195E+01 3.19790E+01 0.00000E+00
 -1      1759 9.15930E+01 3.09901E+01 0.00000E+00
 -1      1760 9.27332E+01 2.97838E+01 0.00000E+00
 -1      1761 9.35416E+01 2.83316E+01 0.00000E+00
 -1      1762 9.40038E+01 2.67297E+01 0.00000E+00
 -1      1763 2.87400E+00 4.77875E+01 0.00000E+00
 -1      1764 3.89700E+00 4.04125E+01 0.00000E+00
 -1      1765 3.89700E+00 4.18875E+01 0.00000E+00
 -1      1766 3.89700E+00 4.33625E+01 0.00000E+00
 -1      1767 3.89700E+00 4.48375E+01 0.00000E+00
 -1      1768 5.19600E+00 4.26250E+01 0.00000E+00
 -1      1769 3.89700E+00 3.45500E+01 0.00000E+00
 -1      1770 3.89700E+00 3.60000E+01 0.00000E+00
 -1      1771 3.89700E+00 3.16000E+01 0.00000E+00
 -1      1772 3.89700E+00 3.30750E+01 0.00000E+00
 -1      1773 5.19600E+00 3.38000E+01 0.00000E+00
 -1      1774 3.89700E+00 2.86500E+01 0.00000E+00
 -1      1775 3.89700E+00 3.01250E+01 0.00000E+00
 -1      1776 5.19600E+00 3.08500E+01 0.00000E+00
 -1      1777 3.89700E+00 2.57000E+01 0.00000E+00
 -1      1778 3.89700E+00 2.71750E+01 0.00000E+00
 -1      1779 5.19600E+00 2.79000E+01 0.00000E+00
 -1      1780 3.89700E+00 2.27500E+01 0.00000E+00
 -1      1781 3.89700E+00 2.42250E+01 0.00000E+00
 -1      1782 5.19600E+00 2.49500E+01 0.00000E+00
 -1      1783 3.89700E+00 1.98000E+01 0.00000E+00
 -1      1784 3.89700E+00 2.12750E+01 0.00000E+00
 -1      1785 5.19600E+00 2.20000E+01 0.00000E+00
 -1      1786 3.89700E+00 1.69000E+01 0.00000E+00
 -1      1787 3.89700E+00 1.83500E+01 0.00000E+00
 -1      1788 5.19600E+00 1.90750E+01 0.00000E+00
 -1      1789 3.89700E+00 1.39500E+01 0.00000E+00
 -1      1790 3.89700E+00 1.54250E+01 0.00000E+00
 -1      1791 5.19600E+00 1.61500E+01 0.00000E+00
 -1      1792 3.89700E+00 1.10000E+01 0.00000E+00
 -1      1793 3.89700E+00 1.24750E+01 0.00000E+00
 -1      1794 5.19600E+00 1.32000E+01 0.00000E+00
 -1      1795 3.89700E+00 8.05000E+00 0.00000E+00
 -1      1796 3.89700E+00 9.52500E+00 0.00000E+00
 -1      1797 5.19600E+00 1.02500E+01 0.00000E+00
 -1      1798 3.89700E+00 5.10000E+00 0.00000E+00
 -1      1799 3.89700E+00 6.57500E+00 0.00000E+00
 -1      1800 5.19600E+00 7.30000E+00 0.00000E+00
 -1      1801 4.20450E+00 3.09687E+00 0.00000E+00
 -1      1802 4.06650E+00 4.19063E+00 0.00000E+00
 -1      1803 5.36550E+00 4.91563E+00 0.00000E+00
 -1      1804 5.70450E+00 3.09687E+00 0.00000E+00
 -1      1805 3.62400E+00 4.64885E+01 0.00000E+00
 -1      1806 8.70450E+00 3.09687E+00 0.00000E+00
 -1      1807 7.20450E+00 3.09687E+00 0.00000E+00
 -1      1808 7.03500E+00 4.00625E+00 0.00000E+00
 -1      1809 4.92300E+00 4.57510E+01 0.00000E+00
 -1      1810 8.40000E+00 4.61030E+01 0.00000E+00
 -1      1811 9.90000E+00 4.61030E+01 0.00000E+00
 -1      1812 1.14000E+01 4.61030E+01 0.00000E+00
 -1      1813 1.29000E+01 4.61030E+01 0.00000E+00
 -1      1814 1.06500E+01 4.48040E+01 0.00000E+00
 -1      1815 1.44000E+01 4.61030E+01 0.00000E+00
 -1      1816 1.59000E+01 4.61030E+01 0.00000E+00
 -1      1817 1.36500E+01 4.48040E+01 0.00000E+00
 -1      1818 1.74000E+01 4.61030E+01 0.00000E+00
 -1      1819 1.89000E+01 4.61030E+01 0.00000E+00
 -1      1820 1.66500E+01 4.48040E+01 0.00000E+00
 -1      1821 2.04000E+01 4.61030E+01 0.00000E+00
 -1      1822 2.19000E+01 4.61030E+01 0.00000E+00
 -1      1823 1.96500E+01 4.48040E+01 0.00000E+00
 -1      1824 2.34000E+01 4.61030E+01 0.00000E+00
 -1      1825 2.49000E+01 4.61030E+01 0.00000E+00
 -1      1826 2.26500E+01 4.48040E+01 0.00000E+00
 -1      1827 2.64000E+01 4.61030E+01 0.00000E+00
 -1      1828 2.79000E+01 4.61030E+01 0.00000E+00
 -1      1829 2.56500E+01 4.48040E+01 0.00000E+00
 -1      1830 2.94000E+01 4.61030E+01 0.00000E+00
 -1      1831 3.09000E+01 4.61030E+01 0.00000E+00
 -1      1832 2.86500E+01 4.48040E+01 0.00000E+00
 -1      1833 3.24000E+01 4.61030E+01 0.00000E+00
 -1      1834 3.39000E+01 4.61030E+01 0.00000E+00
 -1      1835 3.16500E+01 4.48040E+01 0.00000E+00
 -1      1836 3.54000E+01 4.61030E+01 0.00000E+00
 -1      1837 3.69000E+01 4.61030E+01 0.00000E+00
 -1      1838 3.46500E+01 4.48040E+01 0.00000E+00
 -1      1839 3.84000E+01 4.61030E+01 0.00000E+00
 -1      1840 3.99000E+01 4.61030E+01 0.00000E+00
 -1      1841 3.76500E+01 4.48040E+01 0.00000E+00
 -1      1842 4.14000E+01 4.61030E+01 0.00000E+00
 -1      1843 4.29000E+01 4.61030E+01 0.00000E+00
 -1      1844 4.06500E+01 4.48040E+01 0.00000E+00
 -1      1845 4.44000E+01 4.61030E+01 0.00000E+00
 -1      1846 4.59000E+01 4.61030E+01 0.00000E+00
 -1      1847 4.36500E+01 4.48040E+01 0.00000E+00
 -1      1848 4.74000E+01 4.61030E+01 0.00000E+00
 -1      1849 4.89000E+01 4.61030E+01 0.00000E+00
 -1      1850 4.66500E+01 4.48040E+01 0.00000E+00
 -1      1851 5.04000E+01 4.61030E+01 0.00000E+00
 -1      1852 5.19000E+01 4.61030E+01 0.00000E+00
 -1      1853 4.96500E+01 4.48040E+01 0.00000E+00
 -1      1854 5.34000E+01 4.61030E+01 0.00000E+00
 -1      1855 5.49000E+01 4.61030E+01 0.00000E+00
 -1      1856 5.26500E+01 4.48040E+01 0.00000E+00
 -1      1857 5.64000E+01 4.61030E+01 0.00000E+00
 -1      1858 5.79000E+01 4.61030E+01 0.00000E+00
 -1      1859 5.56500E+01 4.48040E+01 0.00000E+00
 -1      1860 5.94000E+01 4.61030E+01 0.00000E+00
 -1      1861 6.09000E+01 4.61030E+01 0.00000E+00
 -1      1862 5.86500E+01 4.48040E+01 0.00000E+00
 -1      1863 6.24000E+01 4.61030E+01 0.00000E+00
 -1      1864 6.39000E+01 4.61030E+01 0.00000E+00
 -1      1865 6.16500E+01 4.48040E+01 0.00000E+00
 -1      1866 6.54000E+01 4.61030E+01 0.00000E+00
 -1      1867 6.69000E+01 4.61030E+01 0.00000E+00
 -1      1868 6.46500E+01 4.48040E+01 0.00000E+00
 -1      1869 6.84000E+01 4.61030E+01 0.00000E+00
 -1      1870 6.99000E+01 4.61030E+01 0.00000E+00
 -1      1871 6.76500E+01 4.48040E+01 0.00000E+00
 -1      1872 7.14000E+01 4.61030E+01 0.00000E+00
 -1      1873 7.29000E+01 4.61030E+01 0.00000E+00
 -1      1874 7.06500E+01 4.48040E+01 0.00000E+00
 -1      1875 7.44000E+01 4.61030E+01 0.00000E+00
 -1      1876 7.59000E+01 4.61030E+01 0.00000E+00
 -1      1877 7.36500E+01 4.48040E+01 0.00000E+00
 -1      1878 7.74000E+01 4.61030E+01 0.00000E+00
 -1      1879 7.89000E+01 4.61030E+01 0.00000E+00
 -1      1880 7.66500E+01 4.48040E+01 0.00000E+00
 -1      1881 8.04000E+01 4.61030E+01 0.00000E+00
 -1      1882 8.19000E+01 4.61030E+01 0.00000E+00
 -1      1883 7.96500E+01 4.48040E+01 0.00000E+00
 -1      1884 8.34000E+01 4.61030E+01 0.00000E+00
 -1      1885 8.49000E+01 4.61030E+01 0.00000E+00
 -1      1886 8.26500E+01 4.48040E+01 0.00000E+00
 -1      1887 8.64000E+01 4.61030E+01 0.00000E+00
 -1      1888 8.79000E+01 4.61030E+01 0.00000E+00
 -1      1889 8.56500E+01 4.48040E+01 0.00000E+00
 -1      1890 8.94000E+01 4.61030E+01 0.00000E+00
 -1      1891 9.09000E+01 4.61030E+01 0.00000E+00
 -1      1892 8.86500E+01 4.48040E+01 0.00000E+00
 -1      1893 9.24000E+01 4.61030E+01 0.00000E+00
 -1      1894 9.39000E+01 4.61030E+01 0.00000E+00
 -1      1895 9.16500E+01 4.48040E+01 0.00000E+00
 -1      1896 9.54000E+01 4.61030E+01 0.00000E+00
 -1      1897 9.69000E+01 4.61030E+01 0.00000E+00
 -1      1898 9.46500E+01 4.48040E+01 0.00000E+00
 -1      1899 9.84000E+01 4.61030E+01 0.00000E+00
 -1      1900 9.99000E+01 4.61030E+01 0.00000E+00
 -1      1901 9.76500E+01 4.48040E+01 0.00000E+00
 -1      1902 1.01400E+02 4.61030E+01 0.00000E+00
 -1      1903 1.02900E+02 4.61030E+01 0.00000E+00
 -1      1904 1.00650E+02 4.48040E+01 0.00000E+00
 -1      1905 1.04400E+02 4.61030E+01 0.00000E+00
 -1      1906 1.05900E+02 4.61030E+01 0.00000E+00
 -1      1907 1.03650E+02 4.48040E+01 0.00000E+00
 -1      1908 1.07400E+02 4.61030E+01 0.00000E+00
 -1      1909 1.08900E+02 4.61030E+01 0.00000E+00
 -1      1910 1.06650E+02 4.48040E+01 0.00000E+00
 -1      1911 1.10400E+02 4.61030E+01 0.00000E+00
 -1      1912 1.11900E+02 4.61030E+01 0.00000E+00
 -1      1913 1.09650E+02 4.48040E+01 0.00000E+00
 -1      1914 1.13400E+02 4.61030E+01 0.00000E+00
 -1      1915 1.14900E+02 4.61030E+01 0.00000E+00
 -1      1916 1.12650E+02 4.48040E+01 0.00000E+00
 -1      1917 1.16400E+02 4.61030E+01 0.00000E+00
 -1      1918 1.17900E+02 4.61030E+01 0.00000E+00
 -1      1919 1.15650E+02 4.48040E+01 0.00000E+00
 -1      1920 1.19400E+02 4.61030E+01 0.00000E+00
 -1      1921 1.20900E+02 4.61030E+01 0.00000E+00
 -1      1922 1.18650E+02 4.48040E+01 0.00000E+00
 -1      1923 1.22400E+02 4.61030E+01 0.00000E+00
 -1      1924 1.23900E+02 4.61030E+01 0.00000E+00
 -1      1925 1.21650E+02 4.48040E+01 0.00000E+00
 -1      1926 1.25400E+02 4.61030E+01 0.00000E+00
 -1      1927 1.26900E+02 4.61030E+01 0.00000E+00
 -1      1928 1.24650E+02 4.48040E+01 0.00000E+00
 -1      1929 1.28400E+02 4.61030E+01 0.00000E+00
 -1      1930 1.29900E+02 4.61030E+01 0.00000E+00
 -1      1931 1.27650E+02 4.48040E+01 0.00000E+00
 -1      1932 1.31400E+02 4.61030E+01 0.00000E+00
 -1      1933 1.32900E+02 4.61030E+01 0.00000E+00
 -1      1934 1.30650E+02 4.48040E+01 0.00000E+00
 -1      1935 1.34400E+02 4.61030E+01 0.00000E+00
 -1      1936 1.35900E+02 4.61030E+01 0.00000E+00
 -1      1937 1.33650E+02 4.48040E+01 0.00000E+00
 -1      1938 1.37400E+02 4.61030E+01 0.00000E+00
 -1      1939 1.38900E+02 4.61030E+01 0.00000E+00
 -1      1940 1.36650E+02 4.48040E+01 0.00000E+00
 -1      1941 1.40400E+02 4.61030E+01 0.00000E+00
 -1      1942 1.41900E+02 4.61030E+01 0.00000E+00
 -1      1943 1.39650E+02 4.48040E+01 0.00000E+00
 -1      1944 1.43244E+02 4.61616E+01 0.00000E+00
 -1      1945 1.44744E+02 4.61616E+01 0.00000E+00
 -1      1946 1.45182E+02 4.49799E+01 0.00000E+00
 -1      1947 1.42494E+02 4.48626E+01 0.00000E+00
 -1      1948 1.17045E+01 3.09687E+00 0.00000E+00
 -1      1949 1.02045E+01 3.09687E+00 0.00000E+00
 -1      1950 1.00350E+01 4.00625E+00 0.00000E+00
 -1      1951 1.47045E+01 3.09687E+00 0.00000E+00
 -1      1952 1.32045E+01 3.09687E+00 0.00000E+00
 -1      1953 1.30350E+01 4.00625E+00 0.00000E+00
 -1      1954 1.77045E+01 3.09687E+00 0.00000E+00
 -1      1955 1.62045E+01 3.09687E+00 0.00000E+00
 -1      1956 1.60350E+01 4.00625E+00 0.00000E+00
 -1      1957 2.07045E+01 3.09687E+00 0.00000E+00
 -1      1958 1.92045E+01 3.09687E+00 0.00000E+00
 -1      1959 1.90350E+01 4.00625E+00 0.00000E+00
 -1      1960 2.37045E+01 3.09687E+00 0.00000E+00
 -1      1961 2.22045E+01 3.09687E+00 0.00000E+00
 -1      1962 2.20350E+01 4.00625E+00 0.00000E+00
 -1      1963 2.67045E+01 3.09687E+00 0.00000E+00
 -1      1964 2.52045E+01 3.09687E+00 0.00000E+00
 -1      1965 2.50350E+01 4.00625E+00 0.00000E+00
 -1      1966 2.97045E+01 3.09687E+00 0.00000E+00
 -1      1967 2.82045E+01 3.09687E+00 0.00000E+00
 -1      1968 2.80350E+01 4.00625E+00 0.00000E+00
 -1      1969 3.27045E+01 3.09687E+00 0.00000E+00
 -1      1970 3.12045E+01 3.09687E+00 0.00000E+00
 -1      1971 3.10350E+01 4.00625E+00 0.00000E+00
 -1      1972 3.57045E+01 3.09687E+00 0.00000E+00
 -1      1973 3.42045E+01 3.09687E+00 0.00000E+00
 -1      1974 3.40350E+01 4.00625E+00 0.00000E+00
 -1      1975 3.87045E+01 3.09687E+00 0.00000E+00
 -1      1976 3.72045E+01 3.09687E+00 0.00000E+00
 -1      1977 3.70350E+01 4.00625E+00 0.00000E+00
 -1      1978 4.17045E+01 3.09687E+00 0.00000E+00
 -1      1979 4.02045E+01 3.09687E+00 0.00000E+00
 -1      1980 4.00350E+01 4.00625E+00 0.00000E+00
 -1      1981 4.47045E+01 3.09687E+00 0.00000E+00
 -1      1982 4.32045E+01 3.09687E+00 0.00000E+00
 -1      1983 4.30350E+01 4.00625E+00 0.00000E+00
 -1      1984 4.77045E+01 3.09687E+00 0.00000E+00
 -1      1985 4.62045E+01 3.09687E+00 0.00000E+00
 -1      1986 4.60350E+01 4.00625E+00 0.00000E+00
 -1      1987 5.07045E+01 3.09687E+00 0.00000E+00
 -1      1988 4.92045E+01 3.09687E+00 0.00000E+00
 -1      1989 4.90350E+01 4.00625E+00 0.00000E+00
 -1      1990 5.37045E+01 3.09687E+00 0.00000E+00
 -1      1991 5.22045E+01 3.09687E+00 0.00000E+00
 -1      1992 5.20350E+01 4.00625E+00 0.00000E+00
 -1      1993 5.67045E+01 3.09687E+00 0.00000E+00
 -1      1994 5.52045E+01 3.09687E+00 0.00000E+00
 -1      1995 5.50350E+01 4.00625E+00 0.00000E+00
 -1      1996 5.97045E+01 3.09687E+00 0.00000E+00
 -1      1997 5.82045E+01 3.09687E+00 0.00000E+00
 -1      1998 5.80350E+01 4.00625E+00 0.00000E+00
 -1      1999 6.27045E+01 3.09687E+00 0.00000E+00
 -1      2000 6.12045E+01 3.09687E+00 0.00000E+00
 -1      2001 6.10350E+01 4.00625E+00 0.00000E+00
 -1      2002 6.57045E+01 3.09687E+00 0.00000E+00
 -1      2003 6.42045E+01 3.09687E+00 0.00000E+00
 -1      2004 6.40350E+01 4.00625E+00 0.00000E+00
 -1      2005 6.87045E+01 3.09687E+00 0.00000E+00
 -1      2006 6.72045E+01 3.09687E+00 0.00000E+00
 -1      2007 6.70350E+01 4.00625E+00 0.00000E+00
 -1      2008 7.17045E+01 3.09687E+00 0.00000E+00
 -1      2009 7.02045E+01 3.09687E+00 0.00000E+00
 -1      2010 7.00350E+01 4.00625E+00 0.00000E+00
 -1      2011 7.47045E+01 3.09687E+00 0.00000E+00
 -1      2012 7.32045E+01 3.09687E+00 0.00000E+00
 -1      2013 7.30350E+01 4.00625E+00 0.00000E+00
 -1      2014 7.77045E+01 3.09687E+00 0.00000E+00
 -1      2015 7.62045E+01 3.09687E+00 0.00000E+00
 -1      2016 7.60350E+01 4.00625E+00 0.00000E+00
 -1      2017 8.07045E+01 3.09687E+00 0.00000E+00
 -1      2018 7.92045E+01 3.09687E+00 0.00000E+00
 -1      2019 7.90350E+01 4.00625E+00 0.00000E+00
 -1      2020 8.37045E+01 3.09687E+00 0.00000E+00
 -1      2021 8.22045E+01 3.09687E+00 0.00000E+00
 -1      2022 8.20350E+01 4.00625E+00 0.00000E+00
 -1      2023 8.67045E+01 3.09687E+00 0.00000E+00
 -1      2024 8.52045E+01 3.09687E+00 0.00000E+00
 -1      2025 8.50350E+01 4.00625E+00 0.00000E+00
 -1      2026 8.97045E+01 3.09687E+00 0.00000E+00
 -1      2027 8.82045E+01 3.09687E+00 0.00000E+00
 -1      2028 8.80350E+01 4.00625E+00 0.00000E+00
 -1      2029 9.27045E+01 3.09687E+00 0.00000E+00
 -1      2030 9.12045E+01 3.09687E+00 0.00000E+00
 -1      2031 9.10350E+01 4.00625E+00 0.00000E+00
 -1      2032 9.57045E+01 3.09687E+00 0.00000E+00
 -1      2033 9.42045E+01 3.09687E+00 0.00000E+00
 -1      2034 9.40350E+01 4.00625E+00 0.00000E+00
 -1      2035 9.87045E+01 3.09687E+00 0.00000E+00
 -1      2036 9.72045E+01 3.09687E+00 0.00000E+00
 -1      2037 9.70350E+01 4.00625E+00 0.00000E+00
 -1      2038 1.01704E+02 3.09687E+00 0.00000E+00
 -1      2039 1.00204E+02 3.09687E+00 0.00000E+00
 -1      2040 1.00035E+02 4.00625E+00 0.00000E+00
 -1      2041 1.04704E+02 3.09687E+00 0.00000E+00
 -1      2042 1.03204E+02 3.09687E+00 0.00000E+00
 -1      2043 1.03035E+02 4.00625E+00 0.00000E+00
 -1      2044 1.07704E+02 3.09687E+00 0.00000E+00
 -1      2045 1.06204E+02 3.09687E+00 0.00000E+00
 -1      2046 1.06035E+02 4.00625E+00 0.00000E+00
 -1      2047 1.10704E+02 3.09687E+00 0.00000E+00
 -1      2048 1.09204E+02 3.09687E+00 0.00000E+00
 -1      2049 1.09035E+02 4.00625E+00 0.00000E+00
 -1      2050 1.13704E+02 3.09687E+00 0.00000E+00
 -1      2051 1.12204E+02 3.09687E+00 0.00000E+00
 -1      2052 1.12035E+02 4.00625E+00 0.00000E+00
 -1      2053 1.16704E+02 3.09687E+00 0.00000E+00
 -1      2054 1.15204E+02 3.09687E+00 0.00000E+00
 -1      2055 1.15035E+02 4.00625E+00 0.00000E+00
 -1      2056 1.19704E+02 3.09687E+00 0.00000E+00
 -1      2057 1.18204E+02 3.09687E+00 0.00000E+00
 -1      2058 1.18035E+02 4.00625E+00 0.00000E+00
 -1      2059 1.22704E+02 3.09687E+00 0.00000E+00
 -1      2060 1.21204E+02 3.09687E+00 0.00000E+00
 -1      2061 1.21035E+02 4.00625E+00 0.00000E+00
 -1      2062 1.25704E+02 3.09687E+00 0.00000E+00
 -1      2063 1.24204E+02 3.09687E+00 0.00000E+00
 -1      2064 1.24035E+02 4.00625E+00 0.00000E+00
 -1      2065 1.28704E+02 3.09687E+00 0.00000E+00
 -1      2066 1.27204E+02 3.09687E+00 0.00000E+00
 -1      2067 1.27035E+02 4.00625E+00 0.00000E+00
 -1      2068 1.31704E+02 3.09687E+00 0.00000E+00
 -1      2069 1.30204E+02 3.09687E+00 0.00000E+00
 -1      2070 1.30035E+02 4.00625E+00 0.00000E+00
 -1      2071 1.34704E+02 3.09687E+00 0.00000E+00
 -1      2072 1.33204E+02 3.09687E+00 0.00000E+00
 -1      2073 1.33035E+02 4.00625E+00 0.00000E+00
 -1      2074 1.37704E+02 3.09687E+00 0.00000E+00
 -1      2075 1.36204E+02 3.09687E+00 0.00000E+00
 -1      2076 1.36035E+02 4.00625E+00 0.00000E+00
 -1      2077 1.40704E+02 3.09687E+00 0.00000E+00
 -1      2078 1.39204E+02 3.09687E+00 0.00000E+00
 -1      2079 1.39035E+02 4.00625E+00 0.00000E+00
 -1      2080 1.43704E+02 3.09687E+00 0.00000E+00
 -1      2081 1.42204E+02 3.09687E+00 0.00000E+00
 -1      2082 1.42035E+02 4.00625E+00 0.00000E+00
 -1      2083 1.46171E+02 3.20156E+00 0.00000E+00
 -1      2084 1.44671E+02 3.20156E+00 0.00000E+00
 -1      2085 1.44502E+02 4.11094E+00 0.00000E+00
 -1      2086 1.46435E+02 4.32031E+00 0.00000E+00
 -1      2087 1.46103E+02 1.25375E+01 0.00000E+00
 -1      2088 1.46103E+02 1.10625E+01 0.00000E+00
 -1      2089 1.46103E+02 9.58750E+00 0.00000E+00
 -1      2090 1.46103E+02 8.11250E+00 0.00000E+00
 -1      2091 1.44804E+02 1.03250E+01 0.00000E+00
 -1      2092 1.46269E+02 6.95391E+00 0.00000E+00
 -1      2093 1.46269E+02 5.47891E+00 0.00000E+00
 -1      2094 1.45302E+02 5.37422E+00 0.00000E+00
 -1      2095 1.44970E+02 7.69141E+00 0.00000E+00
 -1      2096 1.46103E+02 1.54375E+01 0.00000E+00
 -1      2097 1.46103E+02 1.39875E+01 0.00000E+00
 -1      2098 1.44804E+02 1.32500E+01 0.00000E+00
 -1      2099 1.46103E+02 1.83875E+01 0.00000E+00
 -1      2100 1.46103E+02 1.69125E+01 0.00000E+00
 -1      2101 1.44804E+02 1.61750E+01 0.00000E+00
 -1      2102 1.46103E+02 2.13375E+01 0.00000E+00
 -1      2103 1.46103E+02 1.98625E+01 0.00000E+00
 -1      2104 1.44804E+02 1.91250E+01 0.00000E+00
 -1      2105 1.46103E+02 2.42875E+01 0.00000E+00
 -1      2106 1.46103E+02 2.28125E+01 0.00000E+00
 -1      2107 1.44804E+02 2.20750E+01 0.00000E+00
 -1      2108 1.46103E+02 2.72375E+01 0.00000E+00
 -1      2109 1.46103E+02 2.57625E+01 0.00000E+00
 -1      2110 1.44804E+02 2.50250E+01 0.00000E+00
 -1      2111 1.46103E+02 3.01875E+01 0.00000E+00
 -1      2112 1.46103E+02 2.87125E+01 0.00000E+00
 -1      2113 1.44804E+02 2.79750E+01 0.00000E+00
 -1      2114 1.46103E+02 3.30875E+01 0.00000E+00
 -1      2115 1.46103E+02 3.16375E+01 0.00000E+00
 -1      2116 1.44804E+02 3.09000E+01 0.00000E+00
 -1      2117 1.46103E+02 3.60375E+01 0.00000E+00
 -1      2118 1.46103E+02 3.45625E+01 0.00000E+00
 -1      2119 1.44804E+02 3.38250E+01 0.00000E+00
 -1      2120 1.46103E+02 3.89875E+01 0.00000E+00
 -1      2121 1.46103E+02 3.75125E+01 0.00000E+00
 -1      2122 1.44804E+02 3.67750E+01 0.00000E+00
 -1      2123 1.46103E+02 4.19375E+01 0.00000E+00
 -1      2124 1.46103E+02 4.04625E+01 0.00000E+00
 -1      2125 1.44804E+02 3.97250E+01 0.00000E+00
 -1      2126 9.38898E+01 2.08836E+01 0.00000E+00
 -1      2127 9.43487E+01 2.16851E+01 0.00000E+00
 -1      2128 9.50020E+01 2.46243E+01 0.00000E+00
 -1      2129 9.50441E+01 2.54679E+01 0.00000E+00
 -1      2130 9.47843E+01 2.28495E+01 0.00000E+00
 -1      2131 9.48931E+01 2.37369E+01 0.00000E+00
 -1      2132 9.57707E+01 2.41160E+01 0.00000E+00
 -1      2133 9.29540E+01 1.93707E+01 0.00000E+00
 -1      2134 9.34219E+01 2.01272E+01 0.00000E+00
 -1      2135 9.43228E+01 2.01434E+01 0.00000E+00
 -1      2136 9.15076E+01 1.79012E+01 0.00000E+00
 -1      2137 9.22039E+01 1.84399E+01 0.00000E+00
 -1      2138 3.89700E+00 3.74688E+01 0.00000E+00
 -1      2139 3.89700E+00 3.89437E+01 0.00000E+00
 -1      2140 5.19600E+00 3.96813E+01 0.00000E+00
 -1      2141 5.19600E+00 3.67438E+01 0.00000E+00
 -1      2142 8.80872E+01 1.64463E+01 0.00000E+00
 -1      2143 8.88992E+01 1.67264E+01 0.00000E+00
 -1      2144 8.62097E+01 1.60942E+01 0.00000E+00
 -1      2145 8.70772E+01 1.61558E+01 0.00000E+00
 -1      2146 8.42536E+01 1.61386E+01 0.00000E+00
 -1      2147 8.52202E+01 1.61153E+01 0.00000E+00
 -1      2148 8.21623E+01 1.69105E+01 0.00000E+00
 -1      2149 8.29652E+01 1.64260E+01 0.00000E+00
 -1      2150 8.06282E+01 1.77473E+01 0.00000E+00
 -1      2151 8.13953E+01 1.73289E+01 0.00000E+00
 -1      2152 8.13752E+01 1.63883E+01 0.00000E+00
 -1      2153 7.92113E+01 1.92412E+01 0.00000E+00
 -1      2154 7.97671E+01 1.85492E+01 0.00000E+00
 -1      2155 7.82794E+01 2.07868E+01 0.00000E+00
 -1      2156 7.87269E+01 2.00672E+01 0.00000E+00
 -1      2157 7.74655E+01 2.24378E+01 0.00000E+00
 -1      2158 7.77988E+01 2.16331E+01 0.00000E+00
 -1      2159 7.71715E+01 2.43399E+01 0.00000E+00
 -1      2160 7.72490E+01 2.34852E+01 0.00000E+00
 -1      2161 7.72156E+01 2.61029E+01 0.00000E+00
 -1      2162 7.71596E+01 2.52854E+01 0.00000E+00
 -1      2163 7.74145E+01 2.79010E+01 0.00000E+00
 -1      2164 7.72525E+01 2.70385E+01 0.00000E+00
 -1      2165 7.83337E+01 2.97246E+01 0.00000E+00
 -1      2166 7.78499E+01 2.89831E+01 0.00000E+00
 -1      2167 7.92253E+01 3.12856E+01 0.00000E+00
 -1      2168 7.87795E+01 3.05051E+01 0.00000E+00
 -1      2169 7.78896E+01 3.05572E+01 0.00000E+00
 -1      2170 8.08758E+01 3.25835E+01 0.00000E+00
 -1      2171 8.01072E+01 3.20954E+01 0.00000E+00
 -1      2172 8.26190E+01 3.32946E+01 0.00000E+00
 -1      2173 8.18177E+01 3.30037E+01 0.00000E+00
 -1      2174 8.41943E+01 3.36854E+01 0.00000E+00
 -1      2175 8.34066E+01 3.34900E+01 0.00000E+00
 -1      2176 8.27705E+01 3.39931E+01 0.00000E+00
 -1      2177 8.60012E+01 3.40081E+01 0.00000E+00
 -1      2178 8.51980E+01 3.39729E+01 0.00000E+00
 -1      2179 8.76881E+01 3.39064E+01 0.00000E+00
 -1      2180 8.68446E+01 3.39572E+01 0.00000E+00
 -1      2181 8.64092E+01 3.47127E+01 0.00000E+00
 -1      2182 8.95613E+01 3.32141E+01 0.00000E+00
 -1      2183 8.88054E+01 3.35850E+01 0.00000E+00
 -1      2184 9.10288E+01 3.23481E+01 0.00000E+00
 -1      2185 9.03447E+01 3.27782E+01 0.00000E+00
 -1      2186 9.24488E+01 3.13027E+01 0.00000E+00
 -1      2187 9.18595E+01 3.18615E+01 0.00000E+00
 -1      2188 9.35023E+01 2.98799E+01 0.00000E+00
 -1      2189 9.29514E+01 3.05275E+01 0.00000E+00
 -1      2190 9.44870E+01 2.81906E+01 0.00000E+00
 -1      2191 9.42296E+01 2.89952E+01 0.00000E+00
 -1      2192 9.48966E+01 2.65961E+01 0.00000E+00
 -1      2193 9.46918E+01 2.73934E+01 0.00000E+00
 -1      2194 9.53799E+01 2.80570E+01 0.00000E+00
 -1      2195 8.97737E+01 1.70863E+01 0.00000E+00
 -1      2196 9.05638E+01 1.74654E+01 0.00000E+00
 -1      2197 6.42300E+00 4.57510E+01 0.00000E+00
 -1      2198 8.34307E+01 1.56826E+01 0.00000E+00
 -1      2199 8.38963E+01 1.49392E+01 0.00000E+00
 -1      2200 8.26078E+01 1.52266E+01 0.00000E+00
 -1      2201 8.95928E+01 1.62939E+01 0.00000E+00
 -1      2202 7.17300E+00 4.44520E+01 0.00000E+00
 -1      2203 9.52262E+01 2.20642E+01 0.00000E+00
 -1      2204 1.45665E+02 4.31193E+01 0.00000E+00
 -1      2205 9.31049E+01 1.84562E+01 0.00000E+00
 -1      2206 9.57321E+01 2.61316E+01 0.00000E+00
 -1      2207 9.14110E+01 1.70896E+01 0.00000E+00
 -1      2208 9.44478E+01 2.97389E+01 0.00000E+00
 -1      2209 9.32179E+01 3.13988E+01 0.00000E+00
 -1      2210 9.18847E+01 3.26606E+01 0.00000E+00
 -1      2211 8.83700E+01 3.43404E+01 0.00000E+00
 -1      2212 8.45619E+01 3.44760E+01 0.00000E+00
 -1      2213 7.92173E+01 3.21475E+01 0.00000E+00
 -1      2214 7.70084E+01 2.86946E+01 0.00000E+00
 -1      2215 7.65361E+01 2.66769E+01 0.00000E+00
 -1      2216 7.65112E+01 2.47958E+01 0.00000E+00
 -1      2217 7.67395E+01 2.28028E+01 0.00000E+00
 -1      2218 7.74366E+01 2.09090E+01 0.00000E+00
 -1      2219 7.97471E+01 1.76086E+01 0.00000E+00
 -1      2220 8.77083E+01 1.56436E+01 0.00000E+00
 -1      2221 8.57087E+01 1.53742E+01 0.00000E+00
 -1      2222 7.84016E+01 1.92366E+01 0.00000E+00
 -1      2223 8.10410E+01 3.33775E+01 0.00000E+00
 -1      2224 9.02706E+01 3.35831E+01 0.00000E+00
 -1      2225 1.07850E+01 5.30525E+00 0.00000E+00
 -1      2226 9.28500E+00 5.30525E+00 0.00000E+00
 -1      2227 6.49500E+00 3.01125E+01 0.00000E+00
 -1      2228 6.49500E+00 3.15875E+01 0.00000E+00
 -1      2229 6.49500E+00 3.30625E+01 0.00000E+00
 -1      2230 6.49500E+00 3.45375E+01 0.00000E+00
 -1      2231 7.79400E+00 3.23250E+01 0.00000E+00
 -1      2232 6.49500E+00 2.42125E+01 0.00000E+00
 -1      2233 6.49500E+00 2.56875E+01 0.00000E+00
 -1      2234 6.49500E+00 2.12625E+01 0.00000E+00
 -1      2235 6.49500E+00 2.27375E+01 0.00000E+00
 -1      2236 7.79400E+00 2.34750E+01 0.00000E+00
 -1      2237 6.49500E+00 1.83625E+01 0.00000E+00
 -1      2238 6.49500E+00 1.98125E+01 0.00000E+00
 -1      2239 7.79400E+00 2.05500E+01 0.00000E+00
 -1      2240 6.49500E+00 1.54125E+01 0.00000E+00
 -1      2241 6.49500E+00 1.68875E+01 0.00000E+00
 -1      2242 7.79400E+00 1.76250E+01 0.00000E+00
 -1      2243 6.49500E+00 1.24625E+01 0.00000E+00
 -1      2244 6.49500E+00 1.39375E+01 0.00000E+00
 -1      2245 7.79400E+00 1.46750E+01 0.00000E+00
 -1      2246 6.49500E+00 9.51250E+00 0.00000E+00
 -1      2247 6.49500E+00 1.09875E+01 0.00000E+00
 -1      2248 7.79400E+00 1.17250E+01 0.00000E+00
 -1      2249 1.37850E+01 5.30525E+00 0.00000E+00
 -1      2250 1.22850E+01 5.30525E+00 0.00000E+00
 -1      2251 1.15350E+01 6.60425E+00 0.00000E+00
 -1      2252 9.90000E+00 4.35050E+01 0.00000E+00
 -1      2253 1.14000E+01 4.35050E+01 0.00000E+00
 -1      2254 1.29000E+01 4.35050E+01 0.00000E+00
 -1      2255 1.44000E+01 4.35050E+01 0.00000E+00
 -1      2256 1.21500E+01 4.22060E+01 0.00000E+00
 -1      2257 1.59000E+01 4.35050E+01 0.00000E+00
 -1      2258 1.74000E+01 4.35050E+01 0.00000E+00
 -1      2259 1.51500E+01 4.22060E+01 0.00000E+00
 -1      2260 1.89000E+01 4.35050E+01 0.00000E+00
 -1      2261 2.04000E+01 4.35050E+01 0.00000E+00
 -1      2262 1.81500E+01 4.22060E+01 0.00000E+00
 -1      2263 2.19000E+01 4.35050E+01 0.00000E+00
 -1      2264 2.34000E+01 4.35050E+01 0.00000E+00
 -1      2265 2.11500E+01 4.22060E+01 0.00000E+00
 -1      2266 2.49000E+01 4.35050E+01 0.00000E+00
 -1      2267 2.64000E+01 4.35050E+01 0.00000E+00
 -1      2268 2.41500E+01 4.22060E+01 0.00000E+00
 -1      2269 2.79000E+01 4.35050E+01 0.00000E+00
 -1      2270 2.94000E+01 4.35050E+01 0.00000E+00
 -1      2271 2.71500E+01 4.22060E+01 0.00000E+00
 -1      2272 3.09000E+01 4.35050E+01 0.00000E+00
 -1      2273 3.24000E+01 4.35050E+01 0.00000E+00
 -1      2274 3.01500E+01 4.22060E+01 0.00000E+00
 -1      2275 3.39000E+01 4.35050E+01 0.00000E+00
 -1      2276 3.54000E+01 4.35050E+01 0.00000E+00
 -1      2277 3.31500E+01 4.22060E+01 0.00000E+00
 -1      2278 3.69000E+01 4.35050E+01 0.00000E+00
 -1      2279 3.84000E+01 4.35050E+01 0.00000E+00
 -1      2280 3.61500E+01 4.22060E+01 0.00000E+00
 -1      2281 3.99000E+01 4.35050E+01 0.00000E+00
 -1      2282 4.14000E+01 4.35050E+01 0.00000E+00
 -1      2283 3.91500E+01 4.22060E+01 0.00000E+00
 -1      2284 4.29000E+01 4.35050E+01 0.00000E+00
 -1      2285 4.44000E+01 4.35050E+01 0.00000E+00
 -1      2286 4.21500E+01 4.22060E+01 0.00000E+00
 -1      2287 4.59000E+01 4.35050E+01 0.00000E+00
 -1      2288 4.74000E+01 4.35050E+01 0.00000E+00
 -1      2289 4.51500E+01 4.22060E+01 0.00000E+00
 -1      2290 4.89000E+01 4.35050E+01 0.00000E+00
 -1      2291 5.04000E+01 4.35050E+01 0.00000E+00
 -1      2292 4.81500E+01 4.22060E+01 0.00000E+00
 -1      2293 5.19000E+01 4.35050E+01 0.00000E+00
 -1      2294 5.34000E+01 4.35050E+01 0.00000E+00
 -1      2295 5.11500E+01 4.22060E+01 0.00000E+00
 -1      2296 5.49000E+01 4.35050E+01 0.00000E+00
 -1      2297 5.64000E+01 4.35050E+01 0.00000E+00
 -1      2298 5.41500E+01 4.22060E+01 0.00000E+00
 -1      2299 5.79000E+01 4.35050E+01 0.00000E+00
 -1      2300 5.94000E+01 4.35050E+01 0.00000E+00
 -1      2301 5.71500E+01 4.22060E+01 0.00000E+00
 -1      2302 6.09000E+01 4.35050E+01 0.00000E+00
 -1      2303 6.24000E+01 4.35050E+01 0.00000E+00
 -1      2304 6.01500E+01 4.22060E+01 0.00000E+00
 -1      2305 6.39000E+01 4.35050E+01 0.00000E+00
 -1      2306 6.54000E+01 4.35050E+01 0.00000E+00
 -1      2307 6.31500E+01 4.22060E+01 0.00000E+00
 -1      2308 6.69000E+01 4.35050E+01 0.00000E+00
 -1      2309 6.84000E+01 4.35050E+01 0.00000E+00
 -1      2310 6.61500E+01 4.22060E+01 0.00000E+00
 -1      2311 6.99000E+01 4.35050E+01 0.00000E+00
 -1      2312 7.14000E+01 4.35050E+01 0.00000E+00
 -1      2313 6.91500E+01 4.22060E+01 0.00000E+00
 -1      2314 7.29000E+01 4.35050E+01 0.00000E+00
 -1      2315 7.44000E+01 4.35050E+01 0.00000E+00
 -1      2316 7.21500E+01 4.22060E+01 0.00000E+00
 -1      2317 7.59000E+01 4.35050E+01 0.00000E+00
 -1      2318 7.74000E+01 4.35050E+01 0.00000E+00
 -1      2319 7.51500E+01 4.22060E+01 0.00000E+00
 -1      2320 7.89000E+01 4.35050E+01 0.00000E+00
 -1      2321 8.04000E+01 4.35050E+01 0.00000E+00
 -1      2322 7.81500E+01 4.22060E+01 0.00000E+00
 -1      2323 8.19000E+01 4.35050E+01 0.00000E+00
 -1      2324 8.34000E+01 4.35050E+01 0.00000E+00
 -1      2325 8.11500E+01 4.22060E+01 0.00000E+00
 -1      2326 8.49000E+01 4.35050E+01 0.00000E+00
 -1      2327 8.64000E+01 4.35050E+01 0.00000E+00
 -1      2328 8.41500E+01 4.22060E+01 0.00000E+00
 -1      2329 8.79000E+01 4.35050E+01 0.00000E+00
 -1      2330 8.94000E+01 4.35050E+01 0.00000E+00
 -1      2331 8.71500E+01 4.22060E+01 0.00000E+00
 -1      2332 9.09000E+01 4.35050E+01 0.00000E+00
 -1      2333 9.24000E+01 4.35050E+01 0.00000E+00
 -1      2334 9.01500E+01 4.22060E+01 0.00000E+00
 -1      2335 9.39000E+01 4.35050E+01 0.00000E+00
 -1      2336 9.54000E+01 4.35050E+01 0.00000E+00
 -1      2337 9.31500E+01 4.22060E+01 0.00000E+00
 -1      2338 9.69000E+01 4.35050E+01 0.00000E+00
 -1      2339 9.84000E+01 4.35050E+01 0.00000E+00
 -1      2340 9.61500E+01 4.22060E+01 0.00000E+00
 -1      2341 9.99000E+01 4.35050E+01 0.00000E+00
 -1      2342 1.01400E+02 4.35050E+01 0.00000E+00
 -1      2343 9.91500E+01 4.22060E+01 0.00000E+00
 -1      2344 1.02900E+02 4.35050E+01 0.00000E+00
 -1      2345 1.04400E+02 4.35050E+01 0.00000E+00
 -1      2346 1.02150E+02 4.22060E+01 0.00000E+00
 -1      2347 1.05900E+02 4.35050E+01 0.00000E+00
 -1      2348 1.07400E+02 4.35050E+01 0.00000E+00
 -1      2349 1.05150E+02 4.22060E+01 0.00000E+00
 -1      2350 1.08900E+02 4.35050E+01 0.00000E+00
 -1      2351 1.10400E+02 4.35050E+01 0.00000E+00
 -1      2352 1.08150E+02 4.22060E+01 0.00000E+00
 -1      2353 1.11900E+02 4.35050E+01 0.00000E+00
 -1      2354 1.13400E+02 4.35050E+01 0.00000E+00
 -1      2355 1.11150E+02 4.22060E+01 0.00000E+00
 -1      2356 1.14900E+02 4.35050E+01 0.00000E+00
 -1      2357 1.16400E+02 4.35050E+01 0.00000E+00
 -1      2358 1.14150E+02 4.22060E+01 0.00000E+00
 -1      2359 1.17900E+02 4.35050E+01 0.00000E+00
 -1      2360 1.19400E+02 4.35050E+01 0.00000E+00
 -1      2361 1.17150E+02 4.22060E+01 0.00000E+00
 -1      2362 1.20900E+02 4.35050E+01 0.00000E+00
 -1      2363 1.22400E+02 4.35050E+01 0.00000E+00
 -1      2364 1.20150E+02 4.22060E+01 0.00000E+00
 -1      2365 1.23900E+02 4.35050E+01 0.00000E+00
 -1      2366 1.25400E+02 4.35050E+01 0.00000E+00
 -1      2367 1.23150E+02 4.22060E+01 0.00000E+00
 -1      2368 1.26900E+02 4.35050E+01 0.00000E+00
 -1      2369 1.28400E+02 4.35050E+01 0.00000E+00
 -1      2370 1.26150E+02 4.22060E+01 0.00000E+00
 -1      2371 1.29900E+02 4.35050E+01 0.00000E+00
 -1      2372 1.31400E+02 4.35050E+01 0.00000E+00
 -1      2373 1.29150E+02 4.22060E+01 0.00000E+00
 -1      2374 1.32900E+02 4.35050E+01 0.00000E+00
 -1      2375 1.34400E+02 4.35050E+01 0.00000E+00
 -1      2376 1.32150E+02 4.22060E+01 0.00000E+00
 -1      2377 1.35900E+02 4.35050E+01 0.00000E+00
 -1      2378 1.37400E+02 4.35050E+01 0.00000E+00
 -1      2379 1.35150E+02 4.22060E+01 0.00000E+00
 -1      2380 1.38900E+02 4.35050E+01 0.00000E+00
 -1      2381 1.40400E+02 4.35050E+01 0.00000E+00
 -1      2382 1.38150E+02 4.22060E+01 0.00000E+00
 -1      2383 1.97850E+01 5.30525E+00 0.00000E+00
 -1      2384 1.82850E+01 5.30525E+00 0.00000E+00
 -1      2385 2.27850E+01 5.30525E+00 0.00000E+00
 -1      2386 2.12850E+01 5.30525E+00 0.00000E+00
 -1      2387 2.05350E+01 6.60425E+00 0.00000E+00
 -1      2388 2.57850E+01 5.30525E+00 0.00000E+00
 -1      2389 2.42850E+01 5.30525E+00 0.00000E+00
 -1      2390 2.35350E+01 6.60425E+00 0.00000E+00
 -1      2391 2.87850E+01 5.30525E+00 0.00000E+00
 -1      2392 2.72850E+01 5.30525E+00 0.00000E+00
 -1      2393 2.65350E+01 6.60425E+00 0.00000E+00
 -1      2394 3.17850E+01 5.30525E+00 0.00000E+00
 -1      2395 3.02850E+01 5.30525E+00 0.00000E+00
 -1      2396 2.95350E+01 6.60425E+00 0.00000E+00
 -1      2397 3.47850E+01 5.30525E+00 0.00000E+00
 -1      2398 3.32850E+01 5.30525E+00 0.00000E+00
 -1      2399 3.25350E+01 6.60425E+00 0.00000E+00
 -1      2400 3.77850E+01 5.30525E+00 0.00000E+00
 -1      2401 3.62850E+01 5.30525E+00 0.00000E+00
 -1      2402 3.55350E+01 6.60425E+00 0.00000E+00
 -1      2403 4.07850E+01 5.30525E+00 0.00000E+00
 -1      2404 3.92850E+01 5.30525E+00 0.00000E+00
 -1      2405 3.85350E+01 6.60425E+00 0.00000E+00
 -1      2406 4.37850E+01 5.30525E+00 0.00000E+00
 -1      2407 4.22850E+01 5.30525E+00 0.00000E+00
 -1      2408 4.15350E+01 6.60425E+00 0.00000E+00
 -1      2409 4.67850E+01 5.30525E+00 0.00000E+00
 -1      2410 4.52850E+01 5.30525E+00 0.00000E+00
 -1      2411 4.45350E+01 6.60425E+00 0.00000E+00
 -1      2412 4.97850E+01 5.30525E+00 0.00000E+00
 -1      2413 4.82850E+01 5.30525E+00 0.00000E+00
 -1      2414 4.75350E+01 6.60425E+00 0.00000E+00
 -1      2415 5.27850E+01 5.30525E+00 0.00000E+00
 -1      2416 5.12850E+01 5.30525E+00 0.00000E+00
 -1      2417 5.05350E+01 6.60425E+00 0.00000E+00
 -1      2418 5.57850E+01 5.30525E+00 0.00000E+00
 -1      2419 5.42850E+01 5.30525E+00 0.00000E+00
 -1      2420 5.35350E+01 6.60425E+00 0.00000E+00
 -1      2421 5.87850E+01 5.30525E+00 0.00000E+00
 -1      2422 5.72850E+01 5.30525E+00 0.00000E+00
 -1      2423 5.65350E+01 6.60425E+00 0.00000E+00
 -1      2424 6.17850E+01 5.30525E+00 0.00000E+00
 -1      2425 6.02850E+01 5.30525E+00 0.00000E+00
 -1      2426 5.95350E+01 6.60425E+00 0.00000E+00
 -1      2427 6.47850E+01 5.30525E+00 0.00000E+00
 -1      2428 6.32850E+01 5.30525E+00 0.00000E+00
 -1      2429 6.25350E+01 6.60425E+00 0.00000E+00
 -1      2430 6.77850E+01 5.30525E+00 0.00000E+00
 -1      2431 6.62850E+01 5.30525E+00 0.00000E+00
 -1      2432 6.55350E+01 6.60425E+00 0.00000E+00
 -1      2433 7.07850E+01 5.30525E+00 0.00000E+00
 -1      2434 6.92850E+01 5.30525E+00 0.00000E+00
 -1      2435 6.85350E+01 6.60425E+00 0.00000E+00
 -1      2436 7.37850E+01 5.30525E+00 0.00000E+00
 -1      2437 7.22850E+01 5.30525E+00 0.00000E+00
 -1      2438 7.15350E+01 6.60425E+00 0.00000E+00
 -1      2439 7.67850E+01 5.30525E+00 0.00000E+00
 -1      2440 7.52850E+01 5.30525E+00 0.00000E+00
 -1      2441 7.45350E+01 6.60425E+00 0.00000E+00
 -1      2442 7.97850E+01 5.30525E+00 0.00000E+00
 -1      2443 7.82850E+01 5.30525E+00 0.00000E+00
 -1      2444 7.75350E+01 6.60425E+00 0.00000E+00
 -1      2445 8.27850E+01 5.30525E+00 0.00000E+00
 -1      2446 8.12850E+01 5.30525E+00 0.00000E+00
 -1      2447 8.05350E+01 6.60425E+00 0.00000E+00
 -1      2448 8.57850E+01 5.30525E+00 0.00000E+00
 -1      2449 8.42850E+01 5.30525E+00 0.00000E+00
 -1      2450 8.35350E+01 6.60425E+00 0.00000E+00
 -1      2451 8.87850E+01 5.30525E+00 0.00000E+00
 -1      2452 8.72850E+01 5.30525E+00 0.00000E+00
 -1      2453 8.65350E+01 6.60425E+00 0.00000E+00
 -1      2454 9.17850E+01 5.30525E+00 0.00000E+00
 -1      2455 9.02850E+01 5.30525E+00 0.00000E+00
 -1      2456 8.95350E+01 6.60425E+00 0.00000E+00
 -1      2457 9.47850E+01 5.30525E+00 0.00000E+00
 -1      2458 9.32850E+01 5.30525E+00 0.00000E+00
 -1      2459 9.25350E+01 6.60425E+00 0.00000E+00
 -1      2460 9.77850E+01 5.30525E+00 0.00000E+00
 -1      2461 9.62850E+01 5.30525E+00 0.00000E+00
 -1      2462 9.55350E+01 6.60425E+00 0.00000E+00
 -1      2463 1.00785E+02 5.30525E+00 0.00000E+00
 -1      2464 9.92850E+01 5.30525E+00 0.00000E+00
 -1      2465 9.85350E+01 6.60425E+00 0.00000E+00
 -1      2466 1.03785E+02 5.30525E+00 0.00000E+00
 -1      2467 1.02285E+02 5.30525E+00 0.00000E+00
 -1      2468 1.01535E+02 6.60425E+00 0.00000E+00
 -1      2469 1.06785E+02 5.30525E+00 0.00000E+00
 -1      2470 1.05285E+02 5.30525E+00 0.00000E+00
 -1      2471 1.04535E+02 6.60425E+00 0.00000E+00
 -1      2472 1.09785E+02 5.30525E+00 0.00000E+00
 -1      2473 1.08285E+02 5.30525E+00 0.00000E+00
 -1      2474 1.07535E+02 6.60425E+00 0.00000E+00
 -1      2475 1.12785E+02 5.30525E+00 0.00000E+00
 -1      2476 1.11285E+02 5.30525E+00 0.00000E+00
 -1      2477 1.10535E+02 6.60425E+00 0.00000E+00
 -1      2478 1.15785E+02 5.30525E+00 0.00000E+00
 -1      2479 1.14285E+02 5.30525E+00 0.00000E+00
 -1      2480 1.13535E+02 6.60425E+00 0.00000E+00
 -1      2481 1.18785E+02 5.30525E+00 0.00000E+00
 -1      2482 1.17285E+02 5.30525E+00 0.00000E+00
 -1      2483 1.16535E+02 6.60425E+00 0.00000E+00
 -1      2484 1.21785E+02 5.30525E+00 0.00000E+00
 -1      2485 1.20285E+02 5.30525E+00 0.00000E+00
 -1      2486 1.19535E+02 6.60425E+00 0.00000E+00
 -1      2487 1.24785E+02 5.30525E+00 0.00000E+00
 -1      2488 1.23285E+02 5.30525E+00 0.00000E+00
 -1      2489 1.22535E+02 6.60425E+00 0.00000E+00
 -1      2490 1.27785E+02 5.30525E+00 0.00000E+00
 -1      2491 1.26285E+02 5.30525E+00 0.00000E+00
 -1      2492 1.25535E+02 6.60425E+00 0.00000E+00
 -1      2493 1.30785E+02 5.30525E+00 0.00000E+00
 -1      2494 1.29285E+02 5.30525E+00 0.00000E+00
 -1      2495 1.28535E+02 6.60425E+00 0.00000E+00
 -1      2496 1.33785E+02 5.30525E+00 0.00000E+00
 -1      2497 1.32285E+02 5.30525E+00 0.00000E+00
 -1      2498 1.31535E+02 6.60425E+00 0.00000E+00
 -1      2499 1.36785E+02 5.30525E+00 0.00000E+00
 -1      2500 1.35285E+02 5.30525E+00 0.00000E+00
 -1      2501 1.34535E+02 6.60425E+00 0.00000E+00
 -1      2502 1.39785E+02 5.30525E+00 0.00000E+00
 -1      2503 1.38285E+02 5.30525E+00 0.00000E+00
 -1      2504 1.37535E+02 6.60425E+00 0.00000E+00
 -1      2505 1.42785E+02 5.30525E+00 0.00000E+00
 -1      2506 1.41285E+02 5.30525E+00 0.00000E+00
 -1      2507 1.40535E+02 6.60425E+00 0.00000E+00
 -1      2508 1.44336E+02 5.26953E+00 0.00000E+00
 -1      2509 1.43505E+02 1.69125E+01 0.00000E+00
 -1      2510 1.43505E+02 1.54375E+01 0.00000E+00
 -1      2511 1.43505E+02 1.98625E+01 0.00000E+00
 -1      2512 1.43505E+02 1.83875E+01 0.00000E+00
 -1      2513 1.42206E+02 1.76500E+01 0.00000E+00
 -1      2514 1.43505E+02 1.10625E+01 0.00000E+00
 -1      2515 1.43505E+02 9.58750E+00 0.00000E+00
 -1      2516 1.43505E+02 1.39750E+01 0.00000E+00
 -1      2517 1.43505E+02 1.25250E+01 0.00000E+00
 -1      2518 1.42206E+02 1.17875E+01 0.00000E+00
 -1      2519 1.42206E+02 1.47125E+01 0.00000E+00
 -1      2520 9.48183E+01 1.93141E+01 0.00000E+00
 -1      2521 9.52861E+01 2.00705E+01 0.00000E+00
 -1      2522 1.43505E+02 2.28125E+01 0.00000E+00
 -1      2523 1.43505E+02 2.13375E+01 0.00000E+00
 -1      2524 1.42206E+02 2.06000E+01 0.00000E+00
 -1      2525 1.43505E+02 2.57625E+01 0.00000E+00
 -1      2526 1.43505E+02 2.42875E+01 0.00000E+00
 -1      2527 1.42206E+02 2.35500E+01 0.00000E+00
 -1      2528 1.43505E+02 2.87125E+01 0.00000E+00
 -1      2529 1.43505E+02 2.72375E+01 0.00000E+00
 -1      2530 1.42206E+02 2.65000E+01 0.00000E+00
 -1      2531 1.43505E+02 3.16125E+01 0.00000E+00
 -1      2532 1.43505E+02 3.01625E+01 0.00000E+00
 -1      2533 1.42206E+02 2.94250E+01 0.00000E+00
 -1      2534 1.43505E+02 3.45625E+01 0.00000E+00
 -1      2535 1.43505E+02 3.30875E+01 0.00000E+00
 -1      2536 1.42206E+02 3.23500E+01 0.00000E+00
 -1      2537 1.43505E+02 3.75125E+01 0.00000E+00
 -1      2538 1.43505E+02 3.60375E+01 0.00000E+00
 -1      2539 1.42206E+02 3.53000E+01 0.00000E+00
 -1      2540 1.43505E+02 4.04625E+01 0.00000E+00
 -1      2541 1.43505E+02 3.89875E+01 0.00000E+00
 -1      2542 1.42206E+02 3.82500E+01 0.00000E+00
 -1      2543 1.44321E+02 4.30606E+01 0.00000E+00
 -1      2544 9.33181E+01 1.74526E+01 0.00000E+00
 -1      2545 9.40682E+01 1.83833E+01 0.00000E+00
 -1      2546 9.50314E+01 1.83105E+01 0.00000E+00
 -1      2547 1.67850E+01 5.30525E+00 0.00000E+00
 -1      2548 1.52850E+01 5.30525E+00 0.00000E+00
 -1      2549 1.75350E+01 6.60425E+00 0.00000E+00
 -1      2550 9.64842E+01 2.35781E+01 0.00000E+00
 -1      2551 9.65931E+01 2.44655E+01 0.00000E+00
 -1      2552 9.65315E+01 2.56624E+01 0.00000E+00
 -1      2553 9.63841E+01 2.67905E+01 0.00000E+00
 -1      2554 9.12987E+01 1.60931E+01 0.00000E+00
 -1      2555 9.22425E+01 1.65290E+01 0.00000E+00
 -1      2556 9.53768E+01 2.97614E+01 0.00000E+00
 -1      2557 9.46495E+01 3.06460E+01 0.00000E+00
 -1      2558 7.90215E+01 3.32458E+01 0.00000E+00
 -1      2559 7.81396E+01 3.24360E+01 0.00000E+00
 -1      2560 7.63528E+01 2.95871E+01 0.00000E+00
 -1      2561 7.59174E+01 2.85049E+01 0.00000E+00
 -1      2562 8.74171E+01 1.47548E+01 0.00000E+00
 -1      2563 8.84271E+01 1.50452E+01 0.00000E+00
 -1      2564 6.49500E+00 2.71625E+01 0.00000E+00
 -1      2565 6.49500E+00 2.86375E+01 0.00000E+00
 -1      2566 7.79400E+00 2.93750E+01 0.00000E+00
 -1      2567 7.79400E+00 2.64250E+01 0.00000E+00
 -1      2568 8.51957E+01 1.45274E+01 0.00000E+00
 -1      2569 8.61852E+01 1.45063E+01 0.00000E+00
 -1      2570 7.74558E+01 1.92370E+01 0.00000E+00
 -1      2571 7.79402E+01 1.84110E+01 0.00000E+00
 -1      2572 8.95497E+01 1.53735E+01 0.00000E+00
 -1      2573 9.04242E+01 1.57333E+01 0.00000E+00
 -1      2574 9.12556E+01 1.51727E+01 0.00000E+00
 -1      2575 8.05008E+01 1.56975E+01 0.00000E+00
 -1      2576 8.12679E+01 1.52791E+01 0.00000E+00
 -1      2577 8.11626E+01 3.43708E+01 0.00000E+00
 -1      2578 8.02207E+01 3.39505E+01 0.00000E+00
 -1      2579 7.87786E+01 1.73015E+01 0.00000E+00
 -1      2580 7.96397E+01 1.64995E+01 0.00000E+00
 -1      2581 7.95324E+01 1.53903E+01 0.00000E+00
 -1      2582 7.64946E+01 2.09297E+01 0.00000E+00
 -1      2583 7.69752E+01 2.00834E+01 0.00000E+00
 -1      2584 7.65138E+01 1.92578E+01 0.00000E+00
 -1      2585 7.58736E+01 2.31699E+01 0.00000E+00
 -1      2586 7.60900E+01 2.21225E+01 0.00000E+00
 -1      2587 7.57734E+01 2.52593E+01 0.00000E+00
 -1      2588 7.57853E+01 2.43138E+01 0.00000E+00
 -1      2589 7.57395E+01 2.71768E+01 0.00000E+00
 -1      2590 7.57027E+01 2.62412E+01 0.00000E+00
 -1      2591 7.73678E+01 3.13728E+01 0.00000E+00
 -1      2592 7.69220E+01 3.05923E+01 0.00000E+00
 -1      2593 9.10182E+01 3.40048E+01 0.00000E+00
 -1      2594 9.02348E+01 3.44406E+01 0.00000E+00
 -1      2595 8.29579E+01 3.49231E+01 0.00000E+00
 -1      2596 8.21702E+01 3.47278E+01 0.00000E+00
 -1      2597 8.49655E+01 3.54981E+01 0.00000E+00
 -1      2598 8.39617E+01 3.52106E+01 0.00000E+00
 -1      2599 8.33614E+01 3.59453E+01 0.00000E+00
 -1      2600 8.68774E+01 3.54596E+01 0.00000E+00
 -1      2601 8.60340E+01 3.55105E+01 0.00000E+00
 -1      2602 8.91657E+01 3.50038E+01 0.00000E+00
 -1      2603 8.80484E+01 3.53253E+01 0.00000E+00
 -1      2604 9.26699E+01 3.30488E+01 0.00000E+00
 -1      2605 9.18393E+01 3.35354E+01 0.00000E+00
 -1      2606 9.41469E+01 3.14213E+01 0.00000E+00
 -1      2607 9.36443E+01 3.21965E+01 0.00000E+00
 -1      2608 9.50759E+01 3.14437E+01 0.00000E+00
 -1      2609 9.63940E+01 2.78926E+01 0.00000E+00
 -1      2610 9.61892E+01 2.86899E+01 0.00000E+00
 -1      2611 6.55950E+00 4.28890E+01 0.00000E+00
 -1      2612 8.53650E+00 4.32410E+01 0.00000E+00
 -1      2613 9.28650E+00 4.19420E+01 0.00000E+00
 -1      2614 6.55950E+00 4.14140E+01 0.00000E+00
 -1      2615 8.07525E+00 5.11044E+00 0.00000E+00
 -1      2616 6.57525E+00 5.11044E+00 0.00000E+00
 -1      2617 6.40575E+00 6.01981E+00 0.00000E+00
 -1      2618 8.82525E+00 6.40944E+00 0.00000E+00
 -1      2619 9.59686E+01 2.11229E+01 0.00000E+00
 -1      2620 9.64042E+01 2.22873E+01 0.00000E+00
 -1      2621 8.69041E+01 1.39079E+01 0.00000E+00
 -1      2622 7.79400E+00 3.52687E+01 0.00000E+00
 -1      2623 6.49500E+00 3.60062E+01 0.00000E+00
 -1      2624 6.49500E+00 3.74750E+01 0.00000E+00
 -1      2625 1.45350E+01 6.60425E+00 0.00000E+00
 -1      2626 6.40575E+00 7.49481E+00 0.00000E+00
 -1      2627 9.64640E+01 2.02936E+01 0.00000E+00
 -1      2628 8.17334E+01 1.45358E+01 0.00000E+00
 -1      2629 8.43728E+01 1.40714E+01 0.00000E+00
 -1      2630 9.35989E+01 3.30713E+01 0.00000E+00
 -1      2631 9.35535E+01 3.39461E+01 0.00000E+00
 -1      2632 9.45279E+01 3.30937E+01 0.00000E+00
 -1      2633 8.99132E+01 3.54254E+01 0.00000E+00
 -1      2634 8.54337E+01 3.62451E+01 0.00000E+00
 -1      2635 1.43586E+02 6.56853E+00 0.00000E+00
 -1      2636 7.70475E+00 8.23231E+00 0.00000E+00
 -1      2637 1.43419E+02 7.72713E+00 0.00000E+00
 -1      2638 1.42758E+02 4.35929E+01 0.00000E+00
 -1      2639 1.43241E+02 4.17323E+01 0.00000E+00
 -1      2640 1.41942E+02 4.09948E+01 0.00000E+00
 -1      2641 1.41414E+02 4.35342E+01 0.00000E+00
 -1      2642 9.72451E+01 2.51244E+01 0.00000E+00
 -1      2643 9.32057E+01 1.64561E+01 0.00000E+00
 -1      2644 9.41690E+01 1.63833E+01 0.00000E+00
 -1      2645 9.30934E+01 1.54597E+01 0.00000E+00
 -1      2646 9.18034E+01 3.43929E+01 0.00000E+00
 -1      2647 9.72266E+01 2.26368E+01 0.00000E+00
 -1      2648 7.71721E+01 3.24710E+01 0.00000E+00
 -1      2649 9.71934E+01 2.74234E+01 0.00000E+00
 -1      2650 7.50839E+01 2.80693E+01 0.00000E+00
 -1      2651 6.55950E+00 3.99453E+01 0.00000E+00
 -1      2652 9.63909E+01 2.95970E+01 0.00000E+00
 -1      2653 7.49768E+01 2.57592E+01 0.00000E+00
 -1      2654 7.78328E+01 1.73019E+01 0.00000E+00
 -1      2655 8.13499E+01 3.53008E+01 0.00000E+00
 -1      2656 8.92586E+01 1.44846E+01 0.00000E+00
 -1      2657 7.58310E+01 3.04026E+01 0.00000E+00
 -1      2658 7.91431E+01 3.42390E+01 0.00000E+00
 -1      2659 7.56286E+01 2.12969E+01 0.00000E+00
 -1      2660 7.51358E+01 2.36335E+01 0.00000E+00
 -1      2661 8.76732E+01 3.61230E+01 0.00000E+00
 -1      2662 1.42120E+02 8.46463E+00 0.00000E+00
 -1      2663 1.40664E+02 4.22352E+01 0.00000E+00
 -1      2664 9.09300E+00 1.98250E+01 0.00000E+00
 -1      2665 9.09300E+00 2.12750E+01 0.00000E+00
 -1      2666 9.09300E+00 2.27500E+01 0.00000E+00
 -1      2667 9.09300E+00 2.42250E+01 0.00000E+00
 -1      2668 1.03920E+01 2.20250E+01 0.00000E+00
 -1      2669 9.09300E+00 1.39375E+01 0.00000E+00
 -1      2670 9.09300E+00 1.54125E+01 0.00000E+00
 -1      2671 9.09300E+00 1.09875E+01 0.00000E+00
 -1      2672 9.09300E+00 1.24625E+01 0.00000E+00
 -1      2673 1.03920E+01 1.32000E+01 0.00000E+00
 -1      2674 1.22850E+01 7.90325E+00 0.00000E+00
 -1      2675 1.07850E+01 7.90325E+00 0.00000E+00
 -1      2676 1.52850E+01 7.90325E+00 0.00000E+00
 -1      2677 1.37850E+01 7.90325E+00 0.00000E+00
 -1      2678 1.30350E+01 9.20225E+00 0.00000E+00
 -1      2679 9.61171E+01 3.15682E+01 0.00000E+00
 -1      2680 9.56144E+01 3.23434E+01 0.00000E+00
 -1      2681 8.91450E+00 8.42712E+00 0.00000E+00
 -1      2682 9.53893E+01 1.72544E+01 0.00000E+00
 -1      2683 9.61394E+01 1.81852E+01 0.00000E+00
 -1      2684 1.44000E+01 4.09070E+01 0.00000E+00
 -1      2685 1.59000E+01 4.09070E+01 0.00000E+00
 -1      2686 1.74000E+01 4.09070E+01 0.00000E+00
 -1      2687 1.89000E+01 4.09070E+01 0.00000E+00
 -1      2688 1.66500E+01 3.96080E+01 0.00000E+00
 -1      2689 2.04000E+01 4.09070E+01 0.00000E+00
 -1      2690 2.19000E+01 4.09070E+01 0.00000E+00
 -1      2691 1.96500E+01 3.96080E+01 0.00000E+00
 -1      2692 2.34000E+01 4.09070E+01 0.00000E+00
 -1      2693 2.49000E+01 4.09070E+01 0.00000E+00
 -1      2694 2.26500E+01 3.96080E+01 0.00000E+00
 -1      2695 2.64000E+01 4.09070E+01 0.00000E+00
 -1      2696 2.79000E+01 4.09070E+01 0.00000E+00
 -1      2697 2.56500E+01 3.96080E+01 0.00000E+00
 -1      2698 2.94000E+01 4.09070E+01 0.00000E+00
 -1      2699 3.09000E+01 4.09070E+01 0.00000E+00
 -1      2700 2.86500E+01 3.96080E+01 0.00000E+00
 -1      2701 3.24000E+01 4.09070E+01 0.00000E+00
 -1      2702 3.39000E+01 4.09070E+01 0.00000E+00
 -1      2703 3.16500E+01 3.96080E+01 0.00000E+00
 -1      2704 3.54000E+01 4.09070E+01 0.00000E+00
 -1      2705 3.69000E+01 4.09070E+01 0.00000E+00
 -1      2706 3.46500E+01 3.96080E+01 0.00000E+00
 -1      2707 3.84000E+01 4.09070E+01 0.00000E+00
 -1      2708 3.99000E+01 4.09070E+01 0.00000E+00
 -1      2709 3.76500E+01 3.96080E+01 0.00000E+00
 -1      2710 4.14000E+01 4.09070E+01 0.00000E+00
 -1      2711 4.29000E+01 4.09070E+01 0.00000E+00
 -1      2712 4.06500E+01 3.96080E+01 0.00000E+00
 -1      2713 4.44000E+01 4.09070E+01 0.00000E+00
 -1      2714 4.59000E+01 4.09070E+01 0.00000E+00
 -1      2715 4.36500E+01 3.96080E+01 0.00000E+00
 -1      2716 4.74000E+01 4.09070E+01 0.00000E+00
 -1      2717 4.89000E+01 4.09070E+01 0.00000E+00
 -1      2718 4.66500E+01 3.96080E+01 0.00000E+00
 -1      2719 5.04000E+01 4.09070E+01 0.00000E+00
 -1      2720 5.19000E+01 4.09070E+01 0.00000E+00
 -1      2721 4.96500E+01 3.96080E+01 0.00000E+00
 -1      2722 5.34000E+01 4.09070E+01 0.00000E+00
 -1      2723 5.49000E+01 4.09070E+01 0.00000E+00
 -1      2724 5.26500E+01 3.96080E+01 0.00000E+00
 -1      2725 5.64000E+01 4.09070E+01 0.00000E+00
 -1      2726 5.79000E+01 4.09070E+01 0.00000E+00
 -1      2727 5.56500E+01 3.96080E+01 0.00000E+00
 -1      2728 5.94000E+01 4.09070E+01 0.00000E+00
 -1      2729 6.09000E+01 4.09070E+01 0.00000E+00
 -1      2730 5.86500E+01 3.96080E+01 0.00000E+00
 -1      2731 6.24000E+01 4.09070E+01 0.00000E+00
 -1      2732 6.39000E+01 4.09070E+01 0.00000E+00
 -1      2733 6.16500E+01 3.96080E+01 0.00000E+00
 -1      2734 6.54000E+01 4.09070E+01 0.00000E+00
 -1      2735 6.69000E+01 4.09070E+01 0.00000E+00
 -1      2736 6.46500E+01 3.96080E+01 0.00000E+00
 -1      2737 6.84000E+01 4.09070E+01 0.00000E+00
 -1      2738 6.99000E+01 4.09070E+01 0.00000E+00
 -1      2739 6.76500E+01 3.96080E+01 0.00000E+00
 -1      2740 7.14000E+01 4.09070E+01 0.00000E+00
 -1      2741 7.29000E+01 4.09070E+01 0.00000E+00
 -1      2742 7.06500E+01 3.96080E+01 0.00000E+00
 -1      2743 7.44000E+01 4.09070E+01 0.00000E+00
 -1      2744 7.59000E+01 4.09070E+01 0.00000E+00
 -1      2745 7.36500E+01 3.96080E+01 0.00000E+00
 -1      2746 7.74000E+01 4.09070E+01 0.00000E+00
 -1      2747 7.89000E+01 4.09070E+01 0.00000E+00
 -1      2748 7.66500E+01 3.96080E+01 0.00000E+00
 -1      2749 8.04000E+01 4.09070E+01 0.00000E+00
 -1      2750 8.19000E+01 4.09070E+01 0.00000E+00
 -1      2751 7.96500E+01 3.96080E+01 0.00000E+00
 -1      2752 8.34000E+01 4.09070E+01 0.00000E+00
 -1      2753 8.49000E+01 4.09070E+01 0.00000E+00
 -1      2754 8.26500E+01 3.96080E+01 0.00000E+00
 -1      2755 8.64000E+01 4.09070E+01 0.00000E+00
 -1      2756 8.79000E+01 4.09070E+01 0.00000E+00
 -1      2757 8.56500E+01 3.96080E+01 0.00000E+00
 -1      2758 8.94000E+01 4.09070E+01 0.00000E+00
 -1      2759 9.09000E+01 4.09070E+01 0.00000E+00
 -1      2760 8.86500E+01 3.96080E+01 0.00000E+00
 -1      2761 9.24000E+01 4.09070E+01 0.00000E+00
 -1      2762 9.39000E+01 4.09070E+01 0.00000E+00
 -1      2763 9.16500E+01 3.96080E+01 0.00000E+00
 -1      2764 9.54000E+01 4.09070E+01 0.00000E+00
 -1      2765 9.69000E+01 4.09070E+01 0.00000E+00
 -1      2766 9.46500E+01 3.96080E+01 0.00000E+00
 -1      2767 9.84000E+01 4.09070E+01 0.00000E+00
 -1      2768 9.99000E+01 4.09070E+01 0.00000E+00
 -1      2769 9.76500E+01 3.96080E+01 0.00000E+00
 -1      2770 1.01400E+02 4.09070E+01 0.00000E+00
 -1      2771 1.02900E+02 4.09070E+01 0.00000E+00
 -1      2772 1.00650E+02 3.96080E+01 0.00000E+00
 -1      2773 1.04400E+02 4.09070E+01 0.00000E+00
 -1      2774 1.05900E+02 4.09070E+01 0.00000E+00
 -1      2775 1.03650E+02 3.96080E+01 0.00000E+00
 -1      2776 1.07400E+02 4.09070E+01 0.00000E+00
 -1      2777 1.08900E+02 4.09070E+01 0.00000E+00
 -1      2778 1.06650E+02 3.96080E+01 0.00000E+00
 -1      2779 1.10400E+02 4.09070E+01 0.00000E+00
 -1      2780 1.11900E+02 4.09070E+01 0.00000E+00
 -1      2781 1.09650E+02 3.96080E+01 0.00000E+00
 -1      2782 1.13400E+02 4.09070E+01 0.00000E+00
 -1      2783 1.14900E+02 4.09070E+01 0.00000E+00
 -1      2784 1.12650E+02 3.96080E+01 0.00000E+00
 -1      2785 1.16400E+02 4.09070E+01 0.00000E+00
 -1      2786 1.17900E+02 4.09070E+01 0.00000E+00
 -1      2787 1.15650E+02 3.96080E+01 0.00000E+00
 -1      2788 1.19400E+02 4.09070E+01 0.00000E+00
 -1      2789 1.20900E+02 4.09070E+01 0.00000E+00
 -1      2790 1.18650E+02 3.96080E+01 0.00000E+00
 -1      2791 1.22400E+02 4.09070E+01 0.00000E+00
 -1      2792 1.23900E+02 4.09070E+01 0.00000E+00
 -1      2793 1.21650E+02 3.96080E+01 0.00000E+00
 -1      2794 1.25400E+02 4.09070E+01 0.00000E+00
 -1      2795 1.26900E+02 4.09070E+01 0.00000E+00
 -1      2796 1.24650E+02 3.96080E+01 0.00000E+00
 -1      2797 1.28400E+02 4.09070E+01 0.00000E+00
 -1      2798 1.29900E+02 4.09070E+01 0.00000E+00
 -1      2799 1.27650E+02 3.96080E+01 0.00000E+00
 -1      2800 1.31400E+02 4.09070E+01 0.00000E+00
 -1      2801 1.32900E+02 4.09070E+01 0.00000E+00
 -1      2802 1.30650E+02 3.96080E+01 0.00000E+00
 -1      2803 1.34400E+02 4.09070E+01 0.00000E+00
 -1      2804 1.35900E+02 4.09070E+01 0.00000E+00
 -1      2805 1.33650E+02 3.96080E+01 0.00000E+00
 -1      2806 1.37400E+02 4.09070E+01 0.00000E+00
 -1      2807 1.38900E+02 4.09070E+01 0.00000E+00
 -1      2808 1.36650E+02 3.96080E+01 0.00000E+00
 -1      2809 2.42850E+01 7.90325E+00 0.00000E+00
 -1      2810 2.27850E+01 7.90325E+00 0.00000E+00
 -1      2811 9.82160E+01 2.45744E+01 0.00000E+00
 -1      2812 9.81544E+01 2.57712E+01 0.00000E+00
 -1      2813 2.12850E+01 7.90325E+00 0.00000E+00
 -1      2814 1.97850E+01 7.90325E+00 0.00000E+00
 -1      2815 2.20350E+01 9.20225E+00 0.00000E+00
 -1      2816 3.02850E+01 7.90325E+00 0.00000E+00
 -1      2817 2.87850E+01 7.90325E+00 0.00000E+00
 -1      2818 3.32850E+01 7.90325E+00 0.00000E+00
 -1      2819 3.17850E+01 7.90325E+00 0.00000E+00
 -1      2820 3.10350E+01 9.20225E+00 0.00000E+00
 -1      2821 3.62850E+01 7.90325E+00 0.00000E+00
 -1      2822 3.47850E+01 7.90325E+00 0.00000E+00
 -1      2823 3.40350E+01 9.20225E+00 0.00000E+00
 -1      2824 3.92850E+01 7.90325E+00 0.00000E+00
 -1      2825 3.77850E+01 7.90325E+00 0.00000E+00
 -1      2826 3.70350E+01 9.20225E+00 0.00000E+00
 -1      2827 4.22850E+01 7.90325E+00 0.00000E+00
 -1      2828 4.07850E+01 7.90325E+00 0.00000E+00
 -1      2829 4.00350E+01 9.20225E+00 0.00000E+00
 -1      2830 4.52850E+01 7.90325E+00 0.00000E+00
 -1      2831 4.37850E+01 7.90325E+00 0.00000E+00
 -1      2832 4.30350E+01 9.20225E+00 0.00000E+00
 -1      2833 4.82850E+01 7.90325E+00 0.00000E+00
 -1      2834 4.67850E+01 7.90325E+00 0.00000E+00
 -1      2835 4.60350E+01 9.20225E+00 0.00000E+00
 -1      2836 5.12850E+01 7.90325E+00 0.00000E+00
 -1      2837 4.97850E+01 7.90325E+00 0.00000E+00
 -1      2838 4.90350E+01 9.20225E+00 0.00000E+00
 -1      2839 5.42850E+01 7.90325E+00 0.00000E+00
 -1      2840 5.27850E+01 7.90325E+00 0.00000E+00
 -1      2841 5.20350E+01 9.20225E+00 0.00000E+00
 -1      2842 5.72850E+01 7.90325E+00 0.00000E+00
 -1      2843 5.57850E+01 7.90325E+00 0.00000E+00
 -1      2844 5.50350E+01 9.20225E+00 0.00000E+00
 -1      2845 6.02850E+01 7.90325E+00 0.00000E+00
 -1      2846 5.87850E+01 7.90325E+00 0.00000E+00
 -1      2847 5.80350E+01 9.20225E+00 0.00000E+00
 -1      2848 6.32850E+01 7.90325E+00 0.00000E+00
 -1      2849 6.17850E+01 7.90325E+00 0.00000E+00
 -1      2850 6.10350E+01 9.20225E+00 0.00000E+00
 -1      2851 6.62850E+01 7.90325E+00 0.00000E+00
 -1      2852 6.47850E+01 7.90325E+00 0.00000E+00
 -1      2853 6.40350E+01 9.20225E+00 0.00000E+00
 -1      2854 6.92850E+01 7.90325E+00 0.00000E+00
 -1      2855 6.77850E+01 7.90325E+00 0.00000E+00
 -1      2856 6.70350E+01 9.20225E+00 0.00000E+00
 -1      2857 7.22850E+01 7.90325E+00 0.00000E+00
 -1      2858 7.07850E+01 7.90325E+00 0.00000E+00
 -1      2859 7.00350E+01 9.20225E+00 0.00000E+00
 -1      2860 7.52850E+01 7.90325E+00 0.00000E+00
 -1      2861 7.37850E+01 7.90325E+00 0.00000E+00
 -1      2862 7.30350E+01 9.20225E+00 0.00000E+00
 -1      2863 7.82850E+01 7.90325E+00 0.00000E+00
 -1      2864 7.67850E+01 7.90325E+00 0.00000E+00
 -1      2865 7.60350E+01 9.20225E+00 0.00000E+00
 -1      2866 8.12850E+01 7.90325E+00 0.00000E+00
 -1      2867 7.97850E+01 7.90325E+00 0.00000E+00
 -1      2868 7.90350E+01 9.20225E+00 0.00000E+00
 -1      2869 8.42850E+01 7.90325E+00 0.00000E+00
 -1      2870 8.27850E+01 7.90325E+00 0.00000E+00
 -1      2871 8.20350E+01 9.20225E+00 0.00000E+00
 -1      2872 8.72850E+01 7.90325E+00 0.00000E+00
 -1      2873 8.57850E+01 7.90325E+00 0.00000E+00
 -1      2874 8.50350E+01 9.20225E+00 0.00000E+00
 -1      2875 9.02850E+01 7.90325E+00 0.00000E+00
 -1      2876 8.87850E+01 7.90325E+00 0.00000E+00
 -1      2877 8.80350E+01 9.20225E+00 0.00000E+00
 -1      2878 9.32850E+01 7.90325E+00 0.00000E+00
 -1      2879 9.17850E+01 7.90325E+00 0.00000E+00
 -1      2880 9.10350E+01 9.20225E+00 0.00000E+00
 -1      2881 9.62850E+01 7.90325E+00 0.00000E+00
 -1      2882 9.47850E+01 7.90325E+00 0.00000E+00
 -1      2883 9.40350E+01 9.20225E+00 0.00000E+00
 -1      2884 9.92850E+01 7.90325E+00 0.00000E+00
 -1      2885 9.77850E+01 7.90325E+00 0.00000E+00
 -1      2886 9.70350E+01 9.20225E+00 0.00000E+00
 -1      2887 1.02285E+02 7.90325E+00 0.00000E+00
 -1      2888 1.00785E+02 7.90325E+00 0.00000E+00
 -1      2889 1.00035E+02 9.20225E+00 0.00000E+00
 -1      2890 1.05285E+02 7.90325E+00 0.00000E+00
 -1      2891 1.03785E+02 7.90325E+00 0.00000E+00
 -1      2892 1.03035E+02 9.20225E+00 0.00000E+00
 -1      2893 1.08285E+02 7.90325E+00 0.00000E+00
 -1      2894 1.06785E+02 7.90325E+00 0.00000E+00
 -1      2895 1.06035E+02 9.20225E+00 0.00000E+00
 -1      2896 1.11285E+02 7.90325E+00 0.00000E+00
 -1      2897 1.09785E+02 7.90325E+00 0.00000E+00
 -1      2898 1.09035E+02 9.20225E+00 0.00000E+00
 -1      2899 1.14285E+02 7.90325E+00 0.00000E+00
 -1      2900 1.12785E+02 7.90325E+00 0.00000E+00
 -1      2901 1.12035E+02 9.20225E+00 0.00000E+00
 -1      2902 1.17285E+02 7.90325E+00 0.00000E+00
 -1      2903 1.15785E+02 7.90325E+00 0.00000E+00
 -1      2904 1.15035E+02 9.20225E+00 0.00000E+00
 -1      2905 1.20285E+02 7.90325E+00 0.00000E+00
 -1      2906 1.18785E+02 7.90325E+00 0.00000E+00
 -1      2907 1.18035E+02 9.20225E+00 0.00000E+00
 -1      2908 1.23285E+02 7.90325E+00 0.00000E+00
 -1      2909 1.21785E+02 7.90325E+00 0.00000E+00
 -1      2910 1.21035E+02 9.20225E+00 0.00000E+00
 -1      2911 1.26285E+02 7.90325E+00 0.00000E+00
 -1      2912 1.24785E+02 7.90325E+00 0.00000E+00
 -1      2913 1.24035E+02 9.20225E+00 0.00000E+00
 -1      2914 1.29285E+02 7.90325E+00 0.00000E+00
 -1      2915 1.27785E+02 7.90325E+00 0.00000E+00
 -1      2916 1.27035E+02 9.20225E+00 0.00000E+00
 -1      2917 1.32285E+02 7.90325E+00 0.00000E+00
 -1      2918 1.30785E+02 7.90325E+00 0.00000E+00
 -1      2919 1.30035E+02 9.20225E+00 0.00000E+00
 -1      2920 1.35285E+02 7.90325E+00 0.00000E+00
 -1      2921 1.33785E+02 7.90325E+00 0.00000E+00
 -1      2922 1.33035E+02 9.20225E+00 0.00000E+00
 -1      2923 1.38285E+02 7.90325E+00 0.00000E+00
 -1      2924 1.36785E+02 7.90325E+00 0.00000E+00
 -1      2925 1.36035E+02 9.20225E+00 0.00000E+00
 -1      2926 1.40953E+02 8.18394E+00 0.00000E+00
 -1      2927 1.39453E+02 8.18394E+00 0.00000E+00
 -1      2928 1.38703E+02 9.48294E+00 0.00000E+00
 -1      2929 1.41038E+02 1.00443E+01 0.00000E+00
 -1      2930 1.40907E+02 2.42875E+01 0.00000E+00
 -1      2931 1.40907E+02 2.28125E+01 0.00000E+00
 -1      2932 1.39914E+02 4.09362E+01 0.00000E+00
 -1      2933 1.40928E+02 4.09655E+01 0.00000E+00
 -1      2934 1.39164E+02 3.96372E+01 0.00000E+00
 -1      2935 1.40907E+02 1.83875E+01 0.00000E+00
 -1      2936 1.40907E+02 1.69125E+01 0.00000E+00
 -1      2937 8.10233E+01 1.35377E+01 0.00000E+00
 -1      2938 8.23632E+01 1.34852E+01 0.00000E+00
 -1      2939 1.40907E+02 2.72375E+01 0.00000E+00
 -1      2940 1.40907E+02 2.57625E+01 0.00000E+00
 -1      2941 1.39608E+02 2.50250E+01 0.00000E+00
 -1      2942 1.40907E+02 2.13375E+01 0.00000E+00
 -1      2943 1.40907E+02 1.98625E+01 0.00000E+00
 -1      2944 1.39608E+02 1.91250E+01 0.00000E+00
 -1      2945 1.39608E+02 2.20750E+01 0.00000E+00
 -1      2946 1.40907E+02 3.01375E+01 0.00000E+00
 -1      2947 1.40907E+02 2.86875E+01 0.00000E+00
 -1      2948 1.39608E+02 2.79500E+01 0.00000E+00
 -1      2949 1.40907E+02 3.30875E+01 0.00000E+00
 -1      2950 1.40907E+02 3.16125E+01 0.00000E+00
 -1      2951 1.39608E+02 3.08750E+01 0.00000E+00
 -1      2952 1.40907E+02 3.60375E+01 0.00000E+00
 -1      2953 1.40907E+02 3.45625E+01 0.00000E+00
 -1      2954 1.39608E+02 3.38250E+01 0.00000E+00
 -1      2955 1.41192E+02 3.96958E+01 0.00000E+00
 -1      2956 1.82850E+01 7.90325E+00 0.00000E+00
 -1      2957 1.67850E+01 7.90325E+00 0.00000E+00
 -1      2958 1.60350E+01 9.20225E+00 0.00000E+00
 -1      2959 1.90350E+01 9.20225E+00 0.00000E+00
 -1      2960 9.26187E+01 3.48664E+01 0.00000E+00
 -1      2961 9.17976E+01 3.53357E+01 0.00000E+00
 -1      2962 9.81643E+01 2.68733E+01 0.00000E+00
 -1      2963 9.81742E+01 2.79754E+01 0.00000E+00
 -1      2964 9.91352E+01 2.63232E+01 0.00000E+00
 -1      2965 7.85850E+00 3.92077E+01 0.00000E+00
 -1      2966 7.52965E+01 3.13691E+01 0.00000E+00
 -1      2967 7.47273E+01 3.03638E+01 0.00000E+00
 -1      2968 7.40025E+01 2.61825E+01 0.00000E+00
 -1      2969 7.40733E+01 2.52006E+01 0.00000E+00
 -1      2970 2.72850E+01 7.90325E+00 0.00000E+00
 -1      2971 2.57850E+01 7.90325E+00 0.00000E+00
 -1      2972 2.50350E+01 9.20225E+00 0.00000E+00
 -1      2973 2.80350E+01 9.20225E+00 0.00000E+00
 -1      2974 9.70531E+01 1.91640E+01 0.00000E+00
 -1      2975 9.77357E+01 2.02164E+01 0.00000E+00
 -1      2976 9.77419E+01 2.94251E+01 0.00000E+00
 -1      2977 9.69295E+01 3.04967E+01 0.00000E+00
 -1      2978 9.74680E+01 3.13964E+01 0.00000E+00
 -1      2979 1.14000E+01 4.09070E+01 0.00000E+00
 -1      2980 1.29000E+01 4.09070E+01 0.00000E+00
 -1      2981 1.36500E+01 3.96080E+01 0.00000E+00
 -1      2982 9.09300E+00 1.68813E+01 0.00000E+00
 -1      2983 9.09300E+00 1.83563E+01 0.00000E+00
 -1      2984 1.03920E+01 1.90812E+01 0.00000E+00
 -1      2985 1.03920E+01 1.61437E+01 0.00000E+00
 -1      2986 8.14834E+01 3.65245E+01 0.00000E+00
 -1      2987 8.04757E+01 3.61675E+01 0.00000E+00
 -1      2988 9.11766E+01 1.41222E+01 0.00000E+00
 -1      2989 9.20511E+01 1.44821E+01 0.00000E+00
 -1      2990 7.55277E+01 1.92575E+01 0.00000E+00
 -1      2991 7.60084E+01 1.84111E+01 0.00000E+00
 -1      2992 7.45349E+01 2.15909E+01 0.00000E+00
 -1      2993 7.49394E+01 2.03981E+01 0.00000E+00
 -1      2994 9.09300E+00 3.15875E+01 0.00000E+00
 -1      2995 9.09300E+00 3.30625E+01 0.00000E+00
 -1      2996 7.83461E+01 1.49798E+01 0.00000E+00
 -1      2997 7.92072E+01 1.41779E+01 0.00000E+00
 -1      2998 7.41615E+01 2.40568E+01 0.00000E+00
 -1      2999 7.42498E+01 2.29129E+01 0.00000E+00
 -1      3000 7.31872E+01 2.44801E+01 0.00000E+00
 -1      3001 8.83517E+01 3.68662E+01 0.00000E+00
 -1      3002 8.71807E+01 3.70006E+01 0.00000E+00
 -1      3003 7.65957E+01 1.72386E+01 0.00000E+00
 -1      3004 7.74342E+01 1.61290E+01 0.00000E+00
 -1      3005 7.92232E+01 3.54752E+01 0.00000E+00
 -1      3006 7.80241E+01 3.47704E+01 0.00000E+00
 -1      3007 8.59586E+01 3.70669E+01 0.00000E+00
 -1      3008 8.48900E+01 3.70545E+01 0.00000E+00
 -1      3009 8.89314E+01 1.34658E+01 0.00000E+00
 -1      3010 9.00540E+01 1.37940E+01 0.00000E+00
 -1      3011 9.08495E+01 1.31034E+01 0.00000E+00
 -1      3012 8.36886E+01 3.69333E+01 0.00000E+00
 -1      3013 8.26848E+01 3.66458E+01 0.00000E+00
 -1      3014 8.18107E+01 3.75125E+01 0.00000E+00
 -1      3015 8.42135E+01 3.77551E+01 0.00000E+00
 -1      3016 7.67284E+01 3.36049E+01 0.00000E+00
 -1      3017 7.59566E+01 3.25417E+01 0.00000E+00
 -1      3018 9.80559E+01 2.19928E+01 0.00000E+00
 -1      3019 9.81359E+01 2.32836E+01 0.00000E+00
 -1      3020 9.90452E+01 2.39304E+01 0.00000E+00
 -1      3021 9.08475E+01 3.59025E+01 0.00000E+00
 -1      3022 8.97784E+01 3.64658E+01 0.00000E+00
 -1      3023 7.43229E+01 2.88472E+01 0.00000E+00
 -1      3024 7.41450E+01 2.75190E+01 0.00000E+00
 -1      3025 8.64908E+01 1.27788E+01 0.00000E+00
 -1      3026 8.77227E+01 1.30273E+01 0.00000E+00
 -1      3027 9.09300E+00 3.45313E+01 0.00000E+00
 -1      3028 9.09300E+00 3.60000E+01 0.00000E+00
 -1      3029 1.03920E+01 3.37938E+01 0.00000E+00
 -1      3030 1.03920E+01 2.49750E+01 0.00000E+00
 -1      3031 9.09300E+00 2.57000E+01 0.00000E+00
 -1      3032 9.09300E+00 2.71750E+01 0.00000E+00
 -1      3033 9.55691E+01 3.32182E+01 0.00000E+00
 -1      3034 9.66450E+00 9.72612E+00 0.00000E+00
 -1      3035 9.52770E+01 1.62580E+01 0.00000E+00
 -1      3036 7.93568E+01 3.66989E+01 0.00000E+00
 -1      3037 1.09635E+01 1.04636E+01 0.00000E+00
 -1      3038 9.92341E+01 1.97336E+01 0.00000E+00
 -1      3039 9.86450E+01 2.08632E+01 0.00000E+00
 -1      3040 9.95543E+01 2.15100E+01 0.00000E+00
 -1      3041 1.39608E+02 1.61875E+01 0.00000E+00
 -1      3042 1.40907E+02 1.54500E+01 0.00000E+00
 -1      3043 1.40907E+02 1.39875E+01 0.00000E+00
 -1      3044 9.74111E+01 1.81080E+01 0.00000E+00
 -1      3045 9.15750E+00 3.77359E+01 0.00000E+00
 -1      3046 9.22200E+00 4.02061E+01 0.00000E+00
 -1      3047 1.05855E+01 4.04701E+01 0.00000E+00
 -1      3048 1.04565E+01 3.69984E+01 0.00000E+00
 -1      3049 9.16628E+01 3.63760E+01 0.00000E+00
 -1      3050 1.13355E+01 3.91711E+01 0.00000E+00
 -1      3051 1.40973E+02 1.27472E+01 0.00000E+00
 -1      3052 1.40973E+02 1.12847E+01 0.00000E+00
 -1      3053 1.39805E+02 1.10040E+01 0.00000E+00
 -1      3054 1.39674E+02 1.34847E+01 0.00000E+00
 -1      3055 7.68086E+01 3.48410E+01 0.00000E+00
 -1      3056 7.55931E+01 3.49117E+01 0.00000E+00
 -1      3057 7.68887E+01 3.60772E+01 0.00000E+00
 -1      3058 7.44340E+01 1.95515E+01 0.00000E+00
 -1      3059 1.41192E+02 3.82207E+01 0.00000E+00
 -1      3060 1.39893E+02 3.74832E+01 0.00000E+00
 -1      3061 8.53307E+01 1.25212E+01 0.00000E+00
 -1      3062 8.61493E+01 1.16406E+01 0.00000E+00
 -1      3063 7.37884E+01 2.98136E+01 0.00000E+00
 -1      3064 7.28495E+01 2.92634E+01 0.00000E+00
 -1      3065 7.32539E+01 3.07801E+01 0.00000E+00
 -1      3066 9.30143E+01 1.44092E+01 0.00000E+00
 -1      3067 8.85182E+01 1.23367E+01 0.00000E+00
 -1      3068 8.66370E+01 3.78100E+01 0.00000E+00
 -1      3069 7.56097E+01 1.72383E+01 0.00000E+00
 -1      3070 9.87128E+01 2.88751E+01 0.00000E+00
 -1      3071 7.71090E+01 1.49166E+01 0.00000E+00
 -1      3072 7.35606E+01 2.20142E+01 0.00000E+00
 -1      3073 7.32415E+01 2.69604E+01 0.00000E+00
 -1      3074 7.48529E+01 3.25029E+01 0.00000E+00
 -1      3075 8.92859E+01 3.73433E+01 0.00000E+00
 -1      3076 8.34387E+01 1.33799E+01 0.00000E+00
 -1      3077 8.47381E+01 1.29681E+01 0.00000E+00
 -1      3078 9.09300E+00 2.86437E+01 0.00000E+00
 -1      3079 9.09300E+00 3.01187E+01 0.00000E+00
 -1      3080 1.03920E+01 3.08563E+01 0.00000E+00
 -1      3081 1.03920E+01 2.79188E+01 0.00000E+00
 -1      3082 8.43966E+01 1.18298E+01 0.00000E+00
 -1      3083 9.35477E+01 3.48889E+01 0.00000E+00
 -1      3084 8.27285E+01 1.23819E+01 0.00000E+00
 -1      3085 9.52624E+01 1.49880E+01 0.00000E+00
 -1      3086 9.64828E+01 1.58592E+01 0.00000E+00
 -1      3087 1.16910E+01 1.24625E+01 0.00000E+00
 -1      3088 1.16910E+01 1.39375E+01 0.00000E+00
 -1      3089 1.16910E+01 2.12875E+01 0.00000E+00
 -1      3090 1.16910E+01 2.27625E+01 0.00000E+00
 -1      3091 1.29000E+01 3.83090E+01 0.00000E+00
 -1      3092 1.44000E+01 3.83090E+01 0.00000E+00
 -1      3093 1.89000E+01 3.83090E+01 0.00000E+00
 -1      3094 2.04000E+01 3.83090E+01 0.00000E+00
 -1      3095 2.19000E+01 3.83090E+01 0.00000E+00
 -1      3096 2.34000E+01 3.83090E+01 0.00000E+00
 -1      3097 2.11500E+01 3.70100E+01 0.00000E+00
 -1      3098 2.49000E+01 3.83090E+01 0.00000E+00
 -1      3099 2.64000E+01 3.83090E+01 0.00000E+00
 -1      3100 2.41500E+01 3.70100E+01 0.00000E+00
 -1      3101 2.79000E+01 3.83090E+01 0.00000E+00
 -1      3102 2.94000E+01 3.83090E+01 0.00000E+00
 -1      3103 2.71500E+01 3.70100E+01 0.00000E+00
 -1      3104 3.09000E+01 3.83090E+01 0.00000E+00
 -1      3105 3.24000E+01 3.83090E+01 0.00000E+00
 -1      3106 3.01500E+01 3.70100E+01 0.00000E+00
 -1      3107 3.39000E+01 3.83090E+01 0.00000E+00
 -1      3108 3.54000E+01 3.83090E+01 0.00000E+00
 -1      3109 3.31500E+01 3.70100E+01 0.00000E+00
 -1      3110 3.69000E+01 3.83090E+01 0.00000E+00
 -1      3111 3.84000E+01 3.83090E+01 0.00000E+00
 -1      3112 3.61500E+01 3.70100E+01 0.00000E+00
 -1      3113 3.99000E+01 3.83090E+01 0.00000E+00
 -1      3114 4.14000E+01 3.83090E+01 0.00000E+00
 -1      3115 3.91500E+01 3.70100E+01 0.00000E+00
 -1      3116 4.29000E+01 3.83090E+01 0.00000E+00
 -1      3117 4.44000E+01 3.83090E+01 0.00000E+00
 -1      3118 4.21500E+01 3.70100E+01 0.00000E+00
 -1      3119 4.59000E+01 3.83090E+01 0.00000E+00
 -1      3120 4.74000E+01 3.83090E+01 0.00000E+00
 -1      3121 4.51500E+01 3.70100E+01 0.00000E+00
 -1      3122 4.89000E+01 3.83090E+01 0.00000E+00
 -1      3123 5.04000E+01 3.83090E+01 0.00000E+00
 -1      3124 4.81500E+01 3.70100E+01 0.00000E+00
 -1      3125 5.19000E+01 3.83090E+01 0.00000E+00
 -1      3126 5.34000E+01 3.83090E+01 0.00000E+00
 -1      3127 5.11500E+01 3.70100E+01 0.00000E+00
 -1      3128 5.49000E+01 3.83090E+01 0.00000E+00
 -1      3129 5.64000E+01 3.83090E+01 0.00000E+00
 -1      3130 5.41500E+01 3.70100E+01 0.00000E+00
 -1      3131 5.79000E+01 3.83090E+01 0.00000E+00
 -1      3132 5.94000E+01 3.83090E+01 0.00000E+00
 -1      3133 5.71500E+01 3.70100E+01 0.00000E+00
 -1      3134 6.09000E+01 3.83090E+01 0.00000E+00
 -1      3135 6.24000E+01 3.83090E+01 0.00000E+00
 -1      3136 6.01500E+01 3.70100E+01 0.00000E+00
 -1      3137 6.39000E+01 3.83090E+01 0.00000E+00
 -1      3138 6.54000E+01 3.83090E+01 0.00000E+00
 -1      3139 6.31500E+01 3.70100E+01 0.00000E+00
 -1      3140 6.69000E+01 3.83090E+01 0.00000E+00
 -1      3141 6.84000E+01 3.83090E+01 0.00000E+00
 -1      3142 6.61500E+01 3.70100E+01 0.00000E+00
 -1      3143 6.99000E+01 3.83090E+01 0.00000E+00
 -1      3144 7.14000E+01 3.83090E+01 0.00000E+00
 -1      3145 6.91500E+01 3.70100E+01 0.00000E+00
 -1      3146 7.39116E+01 3.78779E+01 0.00000E+00
 -1      3147 7.54116E+01 3.78779E+01 0.00000E+00
 -1      3148 7.69116E+01 3.78779E+01 0.00000E+00
 -1      3149 7.93796E+01 3.84996E+01 0.00000E+00
 -1      3150 8.08796E+01 3.84996E+01 0.00000E+00
 -1      3151 8.20810E+01 3.86209E+01 0.00000E+00
 -1      3152 8.35810E+01 3.86209E+01 0.00000E+00
 -1      3153 8.47824E+01 3.87422E+01 0.00000E+00
 -1      3154 8.62824E+01 3.87422E+01 0.00000E+00
 -1      3155 8.75046E+01 3.86759E+01 0.00000E+00
 -1      3156 8.90046E+01 3.86759E+01 0.00000E+00
 -1      3157 9.39000E+01 3.84991E+01 0.00000E+00
 -1      3158 9.54000E+01 3.84991E+01 0.00000E+00
 -1      3159 9.69000E+01 3.84153E+01 0.00000E+00
 -1      3160 9.84000E+01 3.84153E+01 0.00000E+00
 -1      3161 9.99000E+01 3.84153E+01 0.00000E+00
 -1      3162 1.01400E+02 3.84153E+01 0.00000E+00
 -1      3163 9.91500E+01 3.72226E+01 0.00000E+00
 -1      3164 1.02900E+02 3.84153E+01 0.00000E+00
 -1      3165 1.04400E+02 3.84153E+01 0.00000E+00
 -1      3166 1.02150E+02 3.72226E+01 0.00000E+00
 -1      3167 1.05900E+02 3.84153E+01 0.00000E+00
 -1      3168 1.07400E+02 3.84153E+01 0.00000E+00
 -1      3169 1.05150E+02 3.72226E+01 0.00000E+00
 -1      3170 1.08900E+02 3.84153E+01 0.00000E+00
 -1      3171 1.10400E+02 3.84153E+01 0.00000E+00
 -1      3172 1.08150E+02 3.72226E+01 0.00000E+00
 -1      3173 1.11900E+02 3.84153E+01 0.00000E+00
 -1      3174 1.13400E+02 3.84153E+01 0.00000E+00
 -1      3175 1.11150E+02 3.72226E+01 0.00000E+00
 -1      3176 1.14900E+02 3.84153E+01 0.00000E+00
 -1      3177 1.16400E+02 3.84153E+01 0.00000E+00
 -1      3178 1.14150E+02 3.72226E+01 0.00000E+00
 -1      3179 1.17900E+02 3.84153E+01 0.00000E+00
 -1      3180 1.19400E+02 3.84153E+01 0.00000E+00
 -1      3181 1.17150E+02 3.72226E+01 0.00000E+00
 -1      3182 1.20900E+02 3.84153E+01 0.00000E+00
 -1      3183 1.22400E+02 3.84153E+01 0.00000E+00
 -1      3184 1.20150E+02 3.72226E+01 0.00000E+00
 -1      3185 1.23900E+02 3.84153E+01 0.00000E+00
 -1      3186 1.25400E+02 3.84153E+01 0.00000E+00
 -1      3187 1.23150E+02 3.72226E+01 0.00000E+00
 -1      3188 1.26900E+02 3.84153E+01 0.00000E+00
 -1      3189 1.28400E+02 3.84153E+01 0.00000E+00
 -1      3190 1.26150E+02 3.72226E+01 0.00000E+00
 -1      3191 1.29900E+02 3.84153E+01 0.00000E+00
 -1      3192 1.31400E+02 3.84153E+01 0.00000E+00
 -1      3193 1.29150E+02 3.72226E+01 0.00000E+00
 -1      3194 1.32900E+02 3.84153E+01 0.00000E+00
 -1      3195 1.34400E+02 3.84153E+01 0.00000E+00
 -1      3196 1.32150E+02 3.72226E+01 0.00000E+00
 -1      3197 1.35900E+02 3.84153E+01 0.00000E+00
 -1      3198 1.37400E+02 3.84153E+01 0.00000E+00
 -1      3199 1.35150E+02 3.72226E+01 0.00000E+00
 -1      3200 3.47850E+01 1.05013E+01 0.00000E+00
 -1      3201 3.32850E+01 1.05013E+01 0.00000E+00
 -1      3202 3.17850E+01 1.05013E+01 0.00000E+00
 -1      3203 3.02850E+01 1.05013E+01 0.00000E+00
 -1      3204 3.25350E+01 1.18003E+01 0.00000E+00
 -1      3205 4.07850E+01 1.05013E+01 0.00000E+00
 -1      3206 3.92850E+01 1.05013E+01 0.00000E+00
 -1      3207 4.37850E+01 1.05013E+01 0.00000E+00
 -1      3208 4.22850E+01 1.05013E+01 0.00000E+00
 -1      3209 4.15350E+01 1.18003E+01 0.00000E+00
 -1      3210 4.67850E+01 1.05013E+01 0.00000E+00
 -1      3211 4.52850E+01 1.05013E+01 0.00000E+00
 -1      3212 4.45350E+01 1.18003E+01 0.00000E+00
 -1      3213 4.97850E+01 1.05013E+01 0.00000E+00
 -1      3214 4.82850E+01 1.05013E+01 0.00000E+00
 -1      3215 4.75350E+01 1.18003E+01 0.00000E+00
 -1      3216 5.27850E+01 1.05013E+01 0.00000E+00
 -1      3217 5.12850E+01 1.05013E+01 0.00000E+00
 -1      3218 5.05350E+01 1.18003E+01 0.00000E+00
 -1      3219 5.57850E+01 1.05013E+01 0.00000E+00
 -1      3220 5.42850E+01 1.05013E+01 0.00000E+00
 -1      3221 5.35350E+01 1.18003E+01 0.00000E+00
 -1      3222 5.87850E+01 1.05013E+01 0.00000E+00
 -1      3223 5.72850E+01 1.05013E+01 0.00000E+00
 -1      3224 5.65350E+01 1.18003E+01 0.00000E+00
 -1      3225 6.17850E+01 1.05013E+01 0.00000E+00
 -1      3226 6.02850E+01 1.05013E+01 0.00000E+00
 -1      3227 5.95350E+01 1.18003E+01 0.00000E+00
 -1      3228 6.47850E+01 1.05013E+01 0.00000E+00
 -1      3229 6.32850E+01 1.05013E+01 0.00000E+00
 -1      3230 6.25350E+01 1.18003E+01 0.00000E+00
 -1      3231 6.77850E+01 1.05013E+01 0.00000E+00
 -1      3232 6.62850E+01 1.05013E+01 0.00000E+00
 -1      3233 6.55350E+01 1.18003E+01 0.00000E+00
 -1      3234 7.07850E+01 1.05013E+01 0.00000E+00
 -1      3235 6.92850E+01 1.05013E+01 0.00000E+00
 -1      3236 6.85350E+01 1.18003E+01 0.00000E+00
 -1      3237 7.37850E+01 1.05013E+01 0.00000E+00
 -1      3238 7.22850E+01 1.05013E+01 0.00000E+00
 -1      3239 7.15350E+01 1.18003E+01 0.00000E+00
 -1      3240 7.97850E+01 1.04787E+01 0.00000E+00
 -1      3241 7.82850E+01 1.04787E+01 0.00000E+00
 -1      3242 8.25940E+01 1.08447E+01 0.00000E+00
 -1      3243 8.10940E+01 1.08447E+01 0.00000E+00
 -1      3244 8.57621E+01 1.02926E+01 0.00000E+00
 -1      3245 8.42621E+01 1.02926E+01 0.00000E+00
 -1      3246 8.84222E+01 1.05502E+01 0.00000E+00
 -1      3247 8.69222E+01 1.05502E+01 0.00000E+00
 -1      3248 9.11310E+01 1.09887E+01 0.00000E+00
 -1      3249 8.96310E+01 1.09887E+01 0.00000E+00
 -1      3250 9.47850E+01 1.05013E+01 0.00000E+00
 -1      3251 9.32850E+01 1.05013E+01 0.00000E+00
 -1      3252 9.77850E+01 1.05013E+01 0.00000E+00
 -1      3253 9.62850E+01 1.05013E+01 0.00000E+00
 -1      3254 9.55350E+01 1.18003E+01 0.00000E+00
 -1      3255 1.00785E+02 1.05013E+01 0.00000E+00
 -1      3256 9.92850E+01 1.05013E+01 0.00000E+00
 -1      3257 9.85350E+01 1.18003E+01 0.00000E+00
 -1      3258 1.03785E+02 1.05013E+01 0.00000E+00
 -1      3259 1.02285E+02 1.05013E+01 0.00000E+00
 -1      3260 1.01535E+02 1.18003E+01 0.00000E+00
 -1      3261 1.06785E+02 1.05013E+01 0.00000E+00
 -1      3262 1.05285E+02 1.05013E+01 0.00000E+00
 -1      3263 1.04535E+02 1.18003E+01 0.00000E+00
 -1      3264 1.09785E+02 1.05013E+01 0.00000E+00
 -1      3265 1.08285E+02 1.05013E+01 0.00000E+00
 -1      3266 1.07535E+02 1.18003E+01 0.00000E+00
 -1      3267 1.12785E+02 1.05013E+01 0.00000E+00
 -1      3268 1.11285E+02 1.05013E+01 0.00000E+00
 -1      3269 1.10535E+02 1.18003E+01 0.00000E+00
 -1      3270 1.15785E+02 1.05013E+01 0.00000E+00
 -1      3271 1.14285E+02 1.05013E+01 0.00000E+00
 -1      3272 1.13535E+02 1.18003E+01 0.00000E+00
 -1      3273 1.18785E+02 1.05013E+01 0.00000E+00
 -1      3274 1.17285E+02 1.05013E+01 0.00000E+00
 -1      3275 1.16535E+02 1.18003E+01 0.00000E+00
 -1      3276 1.21785E+02 1.05013E+01 0.00000E+00
 -1      3277 1.20285E+02 1.05013E+01 0.00000E+00
 -1      3278 1.19535E+02 1.18003E+01 0.00000E+00
 -1      3279 1.24785E+02 1.05013E+01 0.00000E+00
 -1      3280 1.23285E+02 1.05013E+01 0.00000E+00
 -1      3281 1.22535E+02 1.18003E+01 0.00000E+00
 -1      3282 1.27785E+02 1.05013E+01 0.00000E+00
 -1      3283 1.26285E+02 1.05013E+01 0.00000E+00
 -1      3284 1.25535E+02 1.18003E+01 0.00000E+00
 -1      3285 1.30785E+02 1.05013E+01 0.00000E+00
 -1      3286 1.29285E+02 1.05013E+01 0.00000E+00
 -1      3287 1.28535E+02 1.18003E+01 0.00000E+00
 -1      3288 1.33785E+02 1.05013E+01 0.00000E+00
 -1      3289 1.32285E+02 1.05013E+01 0.00000E+00
 -1      3290 1.31535E+02 1.18003E+01 0.00000E+00
 -1      3291 1.36785E+02 1.05013E+01 0.00000E+00
 -1      3292 1.35285E+02 1.05013E+01 0.00000E+00
 -1      3293 1.34535E+02 1.18003E+01 0.00000E+00
 -1      3294 1.38879E+02 1.08930E+01 0.00000E+00
 -1      3295 1.37711E+02 1.06123E+01 0.00000E+00
 -1      3296 1.36961E+02 1.19113E+01 0.00000E+00
 -1      3297 1.38813E+02 1.21333E+01 0.00000E+00
 -1      3298 1.38309E+02 3.45625E+01 0.00000E+00
 -1      3299 1.38309E+02 3.30875E+01 0.00000E+00
 -1      3300 1.38309E+02 2.57625E+01 0.00000E+00
 -1      3301 1.38309E+02 2.42875E+01 0.00000E+00
 -1      3302 9.45663E+01 3.56794E+01 0.00000E+00
 -1      3303 9.36315E+01 3.65997E+01 0.00000E+00
 -1      3304 9.99878E+01 2.57645E+01 0.00000E+00
 -1      3305 9.99977E+01 2.68666E+01 0.00000E+00
 -1      3306 1.26488E+01 1.02017E+01 0.00000E+00
 -1      3307 1.20772E+01 1.14631E+01 0.00000E+00
 -1      3308 1.33763E+01 1.22006E+01 0.00000E+00
 -1      3309 1.41488E+01 1.02017E+01 0.00000E+00
 -1      3310 7.22881E+01 2.49861E+01 0.00000E+00
 -1      3311 7.23764E+01 2.38422E+01 0.00000E+00
 -1      3312 1.38309E+02 3.16125E+01 0.00000E+00
 -1      3313 1.38309E+02 3.01375E+01 0.00000E+00
 -1      3314 1.37010E+02 3.23500E+01 0.00000E+00
 -1      3315 7.97142E+01 1.31718E+01 0.00000E+00
 -1      3316 8.03440E+01 1.21212E+01 0.00000E+00
 -1      3317 3.77850E+01 1.05013E+01 0.00000E+00
 -1      3318 3.62850E+01 1.05013E+01 0.00000E+00
 -1      3319 3.55350E+01 1.18003E+01 0.00000E+00
 -1      3320 3.85350E+01 1.18003E+01 0.00000E+00
 -1      3321 2.27850E+01 1.05013E+01 0.00000E+00
 -1      3322 2.12850E+01 1.05013E+01 0.00000E+00
 -1      3323 9.65996E+01 3.35487E+01 0.00000E+00
 -1      3324 9.55131E+01 3.42990E+01 0.00000E+00
 -1      3325 9.30035E+01 1.26159E+01 0.00000E+00
 -1      3326 9.40458E+01 1.35935E+01 0.00000E+00
 -1      3327 7.43246E+01 1.73279E+01 0.00000E+00
 -1      3328 7.49120E+01 1.61554E+01 0.00000E+00
 -1      3329 1.59000E+01 3.83090E+01 0.00000E+00
 -1      3330 1.74000E+01 3.83090E+01 0.00000E+00
 -1      3331 1.81500E+01 3.70100E+01 0.00000E+00
 -1      3332 9.78261E+01 1.68047E+01 0.00000E+00
 -1      3333 9.87398E+01 1.77835E+01 0.00000E+00
 -1      3334 7.57188E+01 1.47498E+01 0.00000E+00
 -1      3335 7.66306E+01 1.36006E+01 0.00000E+00
 -1      3336 9.86911E+01 3.14799E+01 0.00000E+00
 -1      3337 9.78787E+01 3.25515E+01 0.00000E+00
 -1      3338 9.99916E+01 2.84671E+01 0.00000E+00
 -1      3339 9.95593E+01 2.99168E+01 0.00000E+00
 -1      3340 7.85279E+01 1.27613E+01 0.00000E+00
 -1      3341 7.24600E+01 2.77196E+01 0.00000E+00
 -1      3342 7.23175E+01 2.63831E+01 0.00000E+00
 -1      3343 7.24159E+01 2.24591E+01 0.00000E+00
 -1      3344 7.27010E+01 2.11371E+01 0.00000E+00
 -1      3345 7.31479E+01 1.96092E+01 0.00000E+00
 -1      3346 7.37362E+01 1.84686E+01 0.00000E+00
 -1      3347 7.30385E+01 1.73856E+01 0.00000E+00
 -1      3348 9.04313E+01 3.82754E+01 0.00000E+00
 -1      3349 1.38309E+02 2.86750E+01 0.00000E+00
 -1      3350 1.38309E+02 2.72250E+01 0.00000E+00
 -1      3351 1.37010E+02 2.64875E+01 0.00000E+00
 -1      3352 1.37010E+02 2.94125E+01 0.00000E+00
 -1      3353 1.00028E+02 2.32215E+01 0.00000E+00
 -1      3354 1.00108E+02 2.45123E+01 0.00000E+00
 -1      3355 1.12710E+01 3.74352E+01 0.00000E+00
 -1      3356 1.20855E+01 3.78721E+01 0.00000E+00
 -1      3357 1.12065E+01 3.56994E+01 0.00000E+00
 -1      3358 7.42166E+01 3.36332E+01 0.00000E+00
 -1      3359 7.35565E+01 3.24606E+01 0.00000E+00
 -1      3360 9.19313E+01 3.82754E+01 0.00000E+00
 -1      3361 7.76565E+01 1.16200E+01 0.00000E+00
 -1      3362 7.69065E+01 1.03435E+01 0.00000E+00
 -1      3363 7.54065E+01 1.03435E+01 0.00000E+00
 -1      3364 7.71494E+01 1.26261E+01 0.00000E+00
 -1      3365 9.26813E+01 3.71665E+01 0.00000E+00
 -1      3366 1.16910E+01 2.42375E+01 0.00000E+00
 -1      3367 1.16910E+01 2.57125E+01 0.00000E+00
 -1      3368 1.29900E+01 2.35000E+01 0.00000E+00
 -1      3369 1.29900E+01 1.46687E+01 0.00000E+00
 -1      3370 1.16910E+01 1.54063E+01 0.00000E+00
 -1      3371 1.16910E+01 1.68750E+01 0.00000E+00
 -1      3372 7.15168E+01 2.29651E+01 0.00000E+00
 -1      3373 1.51500E+01 3.70100E+01 0.00000E+00
 -1      3374 9.96491E+01 1.84303E+01 0.00000E+00
 -1      3375 1.00558E+02 1.90771E+01 0.00000E+00
 -1      3376 1.00064E+02 1.71270E+01 0.00000E+00
 -1      3377 1.38309E+02 1.69188E+01 0.00000E+00
 -1      3378 1.38309E+02 1.54563E+01 0.00000E+00
 -1      3379 7.31616E+01 3.65789E+01 0.00000E+00
 -1      3380 7.81271E+01 3.78073E+01 0.00000E+00
 -1      3381 7.57592E+01 1.24593E+01 0.00000E+00
 -1      3382 9.61500E+01 3.73064E+01 0.00000E+00
 -1      3383 7.46565E+01 1.16425E+01 0.00000E+00
 -1      3384 2.05350E+01 1.18003E+01 0.00000E+00
 -1      3385 1.97850E+01 1.05013E+01 0.00000E+00
 -1      3386 1.82850E+01 1.05013E+01 0.00000E+00
 -1      3387 2.42850E+01 1.05013E+01 0.00000E+00
 -1      3388 2.35350E+01 1.18003E+01 0.00000E+00
 -1      3389 2.57850E+01 1.05013E+01 0.00000E+00
 -1      3390 7.19813E+01 3.30406E+01 0.00000E+00
 -1      3391 7.26176E+01 3.19103E+01 0.00000E+00
 -1      3392 7.16787E+01 3.13601E+01 0.00000E+00
 -1      3393 9.18810E+01 1.22877E+01 0.00000E+00
 -1      3394 2.95350E+01 1.18003E+01 0.00000E+00
 -1      3395 2.87850E+01 1.05013E+01 0.00000E+00
 -1      3396 2.72850E+01 1.05013E+01 0.00000E+00
 -1      3397 1.00844E+02 2.79083E+01 0.00000E+00
 -1      3398 9.99699E+01 3.10720E+01 0.00000E+00
 -1      3399 8.36695E+01 1.07395E+01 0.00000E+00
 -1      3400 9.55968E+01 3.60099E+01 0.00000E+00
 -1      3401 1.00617E+02 2.20919E+01 0.00000E+00
 -1      3402 1.01681E+02 2.26739E+01 0.00000E+00
 -1      3403 1.01207E+02 2.09624E+01 0.00000E+00
 -1      3404 1.38129E+02 3.62613E+01 0.00000E+00
 -1      3405 1.36830E+02 3.55238E+01 0.00000E+00
 -1      3406 1.38309E+02 1.98687E+01 0.00000E+00
 -1      3407 1.38309E+02 1.83937E+01 0.00000E+00
 -1      3408 1.37010E+02 1.76625E+01 0.00000E+00
 -1      3409 1.38879E+02 3.74540E+01 0.00000E+00
 -1      3410 1.69669E+01 1.03515E+01 0.00000E+00
 -1      3411 1.54669E+01 1.03515E+01 0.00000E+00
 -1      3412 1.50806E+01 1.13509E+01 0.00000E+00
 -1      3413 1.77169E+01 1.16505E+01 0.00000E+00
 -1      3414 9.78115E+01 1.55347E+01 0.00000E+00
 -1      3415 1.12065E+01 3.27619E+01 0.00000E+00
 -1      3416 1.12065E+01 3.42306E+01 0.00000E+00
 -1      3417 1.20210E+01 3.46675E+01 0.00000E+00
 -1      3418 1.38309E+02 2.28156E+01 0.00000E+00
 -1      3419 1.38309E+02 2.13406E+01 0.00000E+00
 -1      3420 1.37010E+02 2.06094E+01 0.00000E+00
 -1      3421 1.37010E+02 2.35531E+01 0.00000E+00
 -1      3422 1.00971E+02 2.50556E+01 0.00000E+00
 -1      3423 7.13910E+01 2.96525E+01 0.00000E+00
 -1      3424 7.19255E+01 2.86861E+01 0.00000E+00
 -1      3425 7.10015E+01 2.81087E+01 0.00000E+00
 -1      3426 7.44336E+01 1.48394E+01 0.00000E+00
 -1      3427 1.28355E+01 3.65731E+01 0.00000E+00
 -1      3428 7.15066E+01 2.57452E+01 0.00000E+00
 -1      3429 9.78227E+01 3.36323E+01 0.00000E+00
 -1      3430 9.52516E+01 1.31948E+01 0.00000E+00
 -1      3431 1.12065E+01 2.98244E+01 0.00000E+00
 -1      3432 1.12065E+01 3.12931E+01 0.00000E+00
 -1      3433 1.20210E+01 3.17300E+01 0.00000E+00
 -1      3434 1.16910E+01 1.83469E+01 0.00000E+00
 -1      3435 1.16910E+01 1.98156E+01 0.00000E+00
 -1      3436 1.29900E+01 2.05531E+01 0.00000E+00
 -1      3437 1.29900E+01 1.76094E+01 0.00000E+00
 -1      3438 7.20033E+01 2.00541E+01 0.00000E+00
 -1      3439 7.42967E+01 3.48693E+01 0.00000E+00
 -1      3440 7.07959E+01 2.05303E+01 0.00000E+00
 -1      3441 7.12428E+01 1.90024E+01 0.00000E+00
 -1      3442 7.17851E+01 3.53004E+01 0.00000E+00
 -1      3443 2.34000E+01 3.57110E+01 0.00000E+00
 -1      3444 2.49000E+01 3.57110E+01 0.00000E+00
 -1      3445 2.64000E+01 3.57110E+01 0.00000E+00
 -1      3446 2.79000E+01 3.57110E+01 0.00000E+00
 -1      3447 2.56500E+01 3.44120E+01 0.00000E+00
 -1      3448 2.94000E+01 3.57110E+01 0.00000E+00
 -1      3449 3.09000E+01 3.57110E+01 0.00000E+00
 -1      3450 2.86500E+01 3.44120E+01 0.00000E+00
 -1      3451 3.24000E+01 3.57110E+01 0.00000E+00
 -1      3452 3.39000E+01 3.57110E+01 0.00000E+00
 -1      3453 3.16500E+01 3.44120E+01 0.00000E+00
 -1      3454 3.54000E+01 3.57110E+01 0.00000E+00
 -1      3455 3.69000E+01 3.57110E+01 0.00000E+00
 -1      3456 3.46500E+01 3.44120E+01 0.00000E+00
 -1      3457 3.84000E+01 3.57110E+01 0.00000E+00
 -1      3458 3.99000E+01 3.57110E+01 0.00000E+00
 -1      3459 3.76500E+01 3.44120E+01 0.00000E+00
 -1      3460 4.14000E+01 3.57110E+01 0.00000E+00
 -1      3461 4.29000E+01 3.57110E+01 0.00000E+00
 -1      3462 4.06500E+01 3.44120E+01 0.00000E+00
 -1      3463 4.44000E+01 3.57110E+01 0.00000E+00
 -1      3464 4.59000E+01 3.57110E+01 0.00000E+00
 -1      3465 4.36500E+01 3.44120E+01 0.00000E+00
 -1      3466 4.74000E+01 3.57110E+01 0.00000E+00
 -1      3467 4.89000E+01 3.57110E+01 0.00000E+00
 -1      3468 4.66500E+01 3.44120E+01 0.00000E+00
 -1      3469 5.04000E+01 3.57110E+01 0.00000E+00
 -1      3470 5.19000E+01 3.57110E+01 0.00000E+00
 -1      3471 4.96500E+01 3.44120E+01 0.00000E+00
 -1      3472 5.34000E+01 3.57110E+01 0.00000E+00
 -1      3473 5.49000E+01 3.57110E+01 0.00000E+00
 -1      3474 5.26500E+01 3.44120E+01 0.00000E+00
 -1      3475 5.64000E+01 3.57110E+01 0.00000E+00
 -1      3476 5.79000E+01 3.57110E+01 0.00000E+00
 -1      3477 5.56500E+01 3.44120E+01 0.00000E+00
 -1      3478 5.94000E+01 3.57110E+01 0.00000E+00
 -1      3479 6.09000E+01 3.57110E+01 0.00000E+00
 -1      3480 5.86500E+01 3.44120E+01 0.00000E+00
 -1      3481 6.24000E+01 3.57110E+01 0.00000E+00
 -1      3482 6.39000E+01 3.57110E+01 0.00000E+00
 -1      3483 6.16500E+01 3.44120E+01 0.00000E+00
 -1      3484 6.54000E+01 3.57110E+01 0.00000E+00
 -1      3485 6.69000E+01 3.57110E+01 0.00000E+00
 -1      3486 6.46500E+01 3.44120E+01 0.00000E+00
 -1      3487 6.84000E+01 3.57110E+01 0.00000E+00
 -1      3488 6.99000E+01 3.57110E+01 0.00000E+00
 -1      3489 6.76500E+01 3.44120E+01 0.00000E+00
 -1      3490 1.35711E+02 3.30875E+01 0.00000E+00
 -1      3491 1.35711E+02 3.16125E+01 0.00000E+00
 -1      3492 1.01400E+02 3.59236E+01 0.00000E+00
 -1      3493 1.02900E+02 3.59236E+01 0.00000E+00
 -1      3494 1.04400E+02 3.59236E+01 0.00000E+00
 -1      3495 1.05900E+02 3.59236E+01 0.00000E+00
 -1      3496 1.03650E+02 3.46246E+01 0.00000E+00
 -1      3497 1.07400E+02 3.59236E+01 0.00000E+00
 -1      3498 1.08900E+02 3.59236E+01 0.00000E+00
 -1      3499 1.06650E+02 3.46246E+01 0.00000E+00
 -1      3500 1.10400E+02 3.59236E+01 0.00000E+00
 -1      3501 1.11900E+02 3.59236E+01 0.00000E+00
 -1      3502 1.09650E+02 3.46246E+01 0.00000E+00
 -1      3503 1.13400E+02 3.59236E+01 0.00000E+00
 -1      3504 1.14900E+02 3.59236E+01 0.00000E+00
 -1      3505 1.12650E+02 3.46246E+01 0.00000E+00
 -1      3506 1.16400E+02 3.59236E+01 0.00000E+00
 -1      3507 1.17900E+02 3.59236E+01 0.00000E+00
 -1      3508 1.15650E+02 3.46246E+01 0.00000E+00
 -1      3509 1.19400E+02 3.59236E+01 0.00000E+00
 -1      3510 1.20900E+02 3.59236E+01 0.00000E+00
 -1      3511 1.18650E+02 3.46246E+01 0.00000E+00
 -1      3512 1.22400E+02 3.59236E+01 0.00000E+00
 -1      3513 1.23900E+02 3.59236E+01 0.00000E+00
 -1      3514 1.21650E+02 3.46246E+01 0.00000E+00
 -1      3515 1.25400E+02 3.59236E+01 0.00000E+00
 -1      3516 1.26900E+02 3.59236E+01 0.00000E+00
 -1      3517 1.24650E+02 3.46246E+01 0.00000E+00
 -1      3518 1.28400E+02 3.59236E+01 0.00000E+00
 -1      3519 1.29900E+02 3.59236E+01 0.00000E+00
 -1      3520 1.27650E+02 3.46246E+01 0.00000E+00
 -1      3521 1.31400E+02 3.59236E+01 0.00000E+00
 -1      3522 1.32900E+02 3.59236E+01 0.00000E+00
 -1      3523 1.30650E+02 3.46246E+01 0.00000E+00
 -1      3524 1.35330E+02 3.55238E+01 0.00000E+00
 -1      3525 1.02285E+02 1.30992E+01 0.00000E+00
 -1      3526 1.00785E+02 1.30992E+01 0.00000E+00
 -1      3527 4.52850E+01 1.30992E+01 0.00000E+00
 -1      3528 4.37850E+01 1.30992E+01 0.00000E+00
 -1      3529 4.22850E+01 1.30992E+01 0.00000E+00
 -1      3530 4.07850E+01 1.30992E+01 0.00000E+00
 -1      3531 4.30350E+01 1.43982E+01 0.00000E+00
 -1      3532 5.12850E+01 1.30992E+01 0.00000E+00
 -1      3533 4.97850E+01 1.30992E+01 0.00000E+00
 -1      3534 5.42850E+01 1.30992E+01 0.00000E+00
 -1      3535 5.27850E+01 1.30992E+01 0.00000E+00
 -1      3536 5.20350E+01 1.43982E+01 0.00000E+00
 -1      3537 5.72850E+01 1.30992E+01 0.00000E+00
 -1      3538 5.57850E+01 1.30992E+01 0.00000E+00
 -1      3539 5.50350E+01 1.43982E+01 0.00000E+00
 -1      3540 6.02850E+01 1.30992E+01 0.00000E+00
 -1      3541 5.87850E+01 1.30992E+01 0.00000E+00
 -1      3542 5.80350E+01 1.43982E+01 0.00000E+00
 -1      3543 6.32850E+01 1.30992E+01 0.00000E+00
 -1      3544 6.17850E+01 1.30992E+01 0.00000E+00
 -1      3545 6.10350E+01 1.43982E+01 0.00000E+00
 -1      3546 6.62850E+01 1.30992E+01 0.00000E+00
 -1      3547 6.47850E+01 1.30992E+01 0.00000E+00
 -1      3548 6.40350E+01 1.43982E+01 0.00000E+00
 -1      3549 6.92850E+01 1.30992E+01 0.00000E+00
 -1      3550 6.77850E+01 1.30992E+01 0.00000E+00
 -1      3551 6.70350E+01 1.43982E+01 0.00000E+00
 -1      3552 7.22850E+01 1.30992E+01 0.00000E+00
 -1      3553 7.07850E+01 1.30992E+01 0.00000E+00
 -1      3554 7.00350E+01 1.43982E+01 0.00000E+00
 -1      3555 9.77781E+01 1.41552E+01 0.00000E+00
 -1      3556 9.91214E+01 1.51007E+01 0.00000E+00
 -1      3557 9.67516E+01 1.31948E+01 0.00000E+00
 -1      3558 1.05285E+02 1.30992E+01 0.00000E+00
 -1      3559 1.03785E+02 1.30992E+01 0.00000E+00
 -1      3560 1.03035E+02 1.43982E+01 0.00000E+00
 -1      3561 1.08285E+02 1.30992E+01 0.00000E+00
 -1      3562 1.06785E+02 1.30992E+01 0.00000E+00
 -1      3563 1.06035E+02 1.43982E+01 0.00000E+00
 -1      3564 1.11285E+02 1.30992E+01 0.00000E+00
 -1      3565 1.09785E+02 1.30992E+01 0.00000E+00
 -1      3566 1.09035E+02 1.43982E+01 0.00000E+00
 -1      3567 1.14285E+02 1.30992E+01 0.00000E+00
 -1      3568 1.12785E+02 1.30992E+01 0.00000E+00
 -1      3569 1.12035E+02 1.43982E+01 0.00000E+00
 -1      3570 1.17285E+02 1.30992E+01 0.00000E+00
 -1      3571 1.15785E+02 1.30992E+01 0.00000E+00
 -1      3572 1.15035E+02 1.43982E+01 0.00000E+00
 -1      3573 1.20285E+02 1.30992E+01 0.00000E+00
 -1      3574 1.18785E+02 1.30992E+01 0.00000E+00
 -1      3575 1.18035E+02 1.43982E+01 0.00000E+00
 -1      3576 1.23285E+02 1.30992E+01 0.00000E+00
 -1      3577 1.21785E+02 1.30992E+01 0.00000E+00
 -1      3578 1.21035E+02 1.43982E+01 0.00000E+00
 -1      3579 1.26285E+02 1.30992E+01 0.00000E+00
 -1      3580 1.24785E+02 1.30992E+01 0.00000E+00
 -1      3581 1.24035E+02 1.43982E+01 0.00000E+00
 -1      3582 1.29285E+02 1.30992E+01 0.00000E+00
 -1      3583 1.27785E+02 1.30992E+01 0.00000E+00
 -1      3584 1.27035E+02 1.43982E+01 0.00000E+00
 -1      3585 1.32285E+02 1.30992E+01 0.00000E+00
 -1      3586 1.30785E+02 1.30992E+01 0.00000E+00
 -1      3587 1.30035E+02 1.43982E+01 0.00000E+00
 -1      3588 1.35285E+02 1.30992E+01 0.00000E+00
 -1      3589 1.33785E+02 1.30992E+01 0.00000E+00
 -1      3590 1.33035E+02 1.43982E+01 0.00000E+00
 -1      3591 1.38528E+02 1.44149E+01 0.00000E+00
 -1      3592 1.38594E+02 1.31746E+01 0.00000E+00
 -1      3593 1.37668E+02 1.30636E+01 0.00000E+00
 -1      3594 1.37229E+02 1.51462E+01 0.00000E+00
 -1      3595 1.01447E+02 3.08695E+01 0.00000E+00
 -1      3596 1.00579E+02 3.24326E+01 0.00000E+00
 -1      3597 1.01789E+02 2.71116E+01 0.00000E+00
 -1      3598 1.01782E+02 2.87122E+01 0.00000E+00
 -1      3599 4.82850E+01 1.30992E+01 0.00000E+00
 -1      3600 4.67850E+01 1.30992E+01 0.00000E+00
 -1      3601 4.60350E+01 1.43982E+01 0.00000E+00
 -1      3602 4.90350E+01 1.43982E+01 0.00000E+00
 -1      3603 3.32850E+01 1.30992E+01 0.00000E+00
 -1      3604 3.17850E+01 1.30992E+01 0.00000E+00
 -1      3605 7.41377E+01 1.26171E+01 0.00000E+00
 -1      3606 1.46944E+01 1.23503E+01 0.00000E+00
 -1      3607 1.43081E+01 1.33498E+01 0.00000E+00
 -1      3608 1.60125E+01 1.25001E+01 0.00000E+00
 -1      3609 2.04000E+01 3.57110E+01 0.00000E+00
 -1      3610 2.19000E+01 3.57110E+01 0.00000E+00
 -1      3611 2.26500E+01 3.44120E+01 0.00000E+00
 -1      3612 1.14487E+01 2.70341E+01 0.00000E+00
 -1      3613 1.14487E+01 2.85028E+01 0.00000E+00
 -1      3614 1.22633E+01 2.89397E+01 0.00000E+00
 -1      3615 1.27478E+01 2.62966E+01 0.00000E+00
 -1      3616 1.31783E+01 3.56203E+01 0.00000E+00
 -1      3617 1.39928E+01 3.60572E+01 0.00000E+00
 -1      3618 1.54928E+01 3.60572E+01 0.00000E+00
 -1      3619 1.31783E+01 3.41516E+01 0.00000E+00
 -1      3620 1.74000E+01 3.57110E+01 0.00000E+00
 -1      3621 1.89000E+01 3.57110E+01 0.00000E+00
 -1      3622 1.96500E+01 3.44120E+01 0.00000E+00
 -1      3623 9.70968E+01 3.59261E+01 0.00000E+00
 -1      3624 7.03886E+01 2.36249E+01 0.00000E+00
 -1      3625 7.04282E+01 2.22418E+01 0.00000E+00
 -1      3626 1.02030E+02 2.46073E+01 0.00000E+00
 -1      3627 1.01909E+02 2.58595E+01 0.00000E+00
 -1      3628 1.02847E+02 2.66633E+01 0.00000E+00
 -1      3629 7.25809E+01 1.53216E+01 0.00000E+00
 -1      3630 7.33877E+01 1.39161E+01 0.00000E+00
 -1      3631 7.16177E+01 1.77324E+01 0.00000E+00
 -1      3632 7.22060E+01 1.65917E+01 0.00000E+00
 -1      3633 7.11601E+01 1.56683E+01 0.00000E+00
 -1      3634 7.04103E+01 1.82085E+01 0.00000E+00
 -1      3635 7.04474E+01 2.64190E+01 0.00000E+00
 -1      3636 7.04180E+01 2.50220E+01 0.00000E+00
 -1      3637 6.93293E+01 2.42987E+01 0.00000E+00
 -1      3638 1.34580E+02 3.42248E+01 0.00000E+00
 -1      3639 9.80615E+01 1.27607E+01 0.00000E+00
 -1      3640 9.82098E+01 3.47792E+01 0.00000E+00
 -1      3641 9.87629E+01 3.60757E+01 0.00000E+00
 -1      3642 1.00263E+02 3.60757E+01 0.00000E+00
 -1      3643 9.94888E+01 3.37819E+01 0.00000E+00
 -1      3644 1.43081E+01 1.48185E+01 0.00000E+00
 -1      3645 7.10351E+01 3.40014E+01 0.00000E+00
 -1      3646 1.00345E+02 1.54392E+01 0.00000E+00
 -1      3647 1.01254E+02 1.60860E+01 0.00000E+00
 -1      3648 9.95615E+01 1.27607E+01 0.00000E+00
 -1      3649 1.35711E+02 2.72188E+01 0.00000E+00
 -1      3650 1.35711E+02 2.57563E+01 0.00000E+00
 -1      3651 2.12850E+01 1.30992E+01 0.00000E+00
 -1      3652 1.97850E+01 1.30992E+01 0.00000E+00
 -1      3653 2.65350E+01 1.18003E+01 0.00000E+00
 -1      3654 6.96677E+01 2.11901E+01 0.00000E+00
 -1      3655 3.47850E+01 1.30992E+01 0.00000E+00
 -1      3656 3.40350E+01 1.43982E+01 0.00000E+00
 -1      3657 3.62850E+01 1.30992E+01 0.00000E+00
 -1      3658 3.10350E+01 1.43982E+01 0.00000E+00
 -1      3659 3.02850E+01 1.30992E+01 0.00000E+00
 -1      3660 2.87850E+01 1.30992E+01 0.00000E+00
 -1      3661 4.00350E+01 1.43982E+01 0.00000E+00
 -1      3662 3.92850E+01 1.30992E+01 0.00000E+00
 -1      3663 3.77850E+01 1.30992E+01 0.00000E+00
 -1      3664 1.01013E+02 3.47767E+01 0.00000E+00
 -1      3665 1.01622E+02 1.96591E+01 0.00000E+00
 -1      3666 1.02685E+02 2.02410E+01 0.00000E+00
 -1      3667 1.02037E+02 1.83558E+01 0.00000E+00
 -1      3668 1.35773E+02 1.52929E+01 0.00000E+00
 -1      3669 1.35992E+02 1.42516E+01 0.00000E+00
 -1      3670 1.36742E+02 1.29526E+01 0.00000E+00
 -1      3671 1.35773E+02 1.82429E+01 0.00000E+00
 -1      3672 1.35773E+02 1.67679E+01 0.00000E+00
 -1      3673 1.34535E+02 1.58733E+01 0.00000E+00
 -1      3674 1.02391E+02 3.00728E+01 0.00000E+00
 -1      3675 1.03000E+02 3.14335E+01 0.00000E+00
 -1      3676 1.03335E+02 2.92761E+01 0.00000E+00
 -1      3677 1.00966E+02 3.35795E+01 0.00000E+00
 -1      3678 1.42890E+01 1.98172E+01 0.00000E+00
 -1      3679 1.42890E+01 2.12891E+01 0.00000E+00
 -1      3680 1.35711E+02 2.42844E+01 0.00000E+00
 -1      3681 1.35711E+02 2.28125E+01 0.00000E+00
 -1      3682 1.34412E+02 2.50156E+01 0.00000E+00
 -1      3683 2.42850E+01 1.30992E+01 0.00000E+00
 -1      3684 2.27850E+01 1.30992E+01 0.00000E+00
 -1      3685 2.20350E+01 1.43982E+01 0.00000E+00
 -1      3686 7.07547E+01 3.07828E+01 0.00000E+00
 -1      3687 6.98307E+01 3.02055E+01 0.00000E+00
 -1      3688 7.01184E+01 3.19130E+01 0.00000E+00
 -1      3689 1.62428E+01 3.47582E+01 0.00000E+00
 -1      3690 1.42890E+01 2.27641E+01 0.00000E+00
 -1      3691 1.42890E+01 2.42391E+01 0.00000E+00
 -1      3692 1.55880E+01 2.20281E+01 0.00000E+00
 -1      3693 1.03208E+02 2.23481E+01 0.00000E+00
 -1      3694 1.02619E+02 2.34777E+01 0.00000E+00
 -1      3695 1.03557E+02 2.42815E+01 0.00000E+00
 -1      3696 1.34253E+01 3.26723E+01 0.00000E+00
 -1      3697 1.45825E+01 3.36251E+01 0.00000E+00
 -1      3698 1.34253E+01 3.12036E+01 0.00000E+00
 -1      3699 6.99129E+01 2.73855E+01 0.00000E+00
 -1      3700 6.88242E+01 2.66622E+01 0.00000E+00
 -1      3701 6.93784E+01 2.83519E+01 0.00000E+00
 -1      3702 1.34412E+02 3.08875E+01 0.00000E+00
 -1      3703 1.35711E+02 3.01500E+01 0.00000E+00
 -1      3704 1.35711E+02 2.86875E+01 0.00000E+00
 -1      3705 1.00312E+02 1.40597E+01 0.00000E+00
 -1      3706 1.02676E+02 1.55331E+01 0.00000E+00
 -1      3707 1.02395E+02 1.72209E+01 0.00000E+00
 -1      3708 1.03459E+02 1.78029E+01 0.00000E+00
 -1      3709 1.04176E+02 1.55331E+01 0.00000E+00
 -1      3710 2.79000E+01 3.31130E+01 0.00000E+00
 -1      3711 2.94000E+01 3.31130E+01 0.00000E+00
 -1      3712 3.09000E+01 3.31130E+01 0.00000E+00
 -1      3713 3.24000E+01 3.31130E+01 0.00000E+00
 -1      3714 3.01500E+01 3.18140E+01 0.00000E+00
 -1      3715 3.39000E+01 3.31130E+01 0.00000E+00
 -1      3716 3.54000E+01 3.31130E+01 0.00000E+00
 -1      3717 3.31500E+01 3.18140E+01 0.00000E+00
 -1      3718 3.69000E+01 3.31130E+01 0.00000E+00
 -1      3719 3.84000E+01 3.31130E+01 0.00000E+00
 -1      3720 3.61500E+01 3.18140E+01 0.00000E+00
 -1      3721 3.99000E+01 3.31130E+01 0.00000E+00
 -1      3722 4.14000E+01 3.31130E+01 0.00000E+00
 -1      3723 3.91500E+01 3.18140E+01 0.00000E+00
 -1      3724 4.29000E+01 3.31130E+01 0.00000E+00
 -1      3725 4.44000E+01 3.31130E+01 0.00000E+00
 -1      3726 4.21500E+01 3.18140E+01 0.00000E+00
 -1      3727 4.59000E+01 3.31130E+01 0.00000E+00
 -1      3728 4.74000E+01 3.31130E+01 0.00000E+00
 -1      3729 4.51500E+01 3.18140E+01 0.00000E+00
 -1      3730 4.89000E+01 3.31130E+01 0.00000E+00
 -1      3731 5.04000E+01 3.31130E+01 0.00000E+00
 -1      3732 4.81500E+01 3.18140E+01 0.00000E+00
 -1      3733 5.19000E+01 3.31130E+01 0.00000E+00
 -1      3734 5.34000E+01 3.31130E+01 0.00000E+00
 -1      3735 5.11500E+01 3.18140E+01 0.00000E+00
 -1      3736 5.49000E+01 3.31130E+01 0.00000E+00
 -1      3737 5.64000E+01 3.31130E+01 0.00000E+00
 -1      3738 5.41500E+01 3.18140E+01 0.00000E+00
 -1      3739 5.79000E+01 3.31130E+01 0.00000E+00
 -1      3740 5.94000E+01 3.31130E+01 0.00000E+00
 -1      3741 5.71500E+01 3.18140E+01 0.00000E+00
 -1      3742 6.09000E+01 3.31130E+01 0.00000E+00
 -1      3743 6.24000E+01 3.31130E+01 0.00000E+00
 -1      3744 6.01500E+01 3.18140E+01 0.00000E+00
 -1      3745 6.39000E+01 3.31130E+01 0.00000E+00
 -1      3746 6.54000E+01 3.31130E+01 0.00000E+00
 -1      3747 6.31500E+01 3.18140E+01 0.00000E+00
 -1      3748 1.33281E+02 3.34873E+01 0.00000E+00
 -1      3749 2.49000E+01 3.31130E+01 0.00000E+00
 -1      3750 2.64000E+01 3.31130E+01 0.00000E+00
 -1      3751 2.71500E+01 3.18140E+01 0.00000E+00
 -1      3752 1.34412E+02 2.79562E+01 0.00000E+00
 -1      3753 1.90350E+01 1.43983E+01 0.00000E+00
 -1      3754 1.82850E+01 1.30993E+01 0.00000E+00
 -1      3755 2.72850E+01 1.30992E+01 0.00000E+00
 -1      3756 2.57850E+01 1.30992E+01 0.00000E+00
 -1      3757 2.80350E+01 1.43982E+01 0.00000E+00
 -1      3758 1.05900E+02 3.33256E+01 0.00000E+00
 -1      3759 1.07400E+02 3.33256E+01 0.00000E+00
 -1      3760 1.08900E+02 3.33256E+01 0.00000E+00
 -1      3761 1.10400E+02 3.33256E+01 0.00000E+00
 -1      3762 1.08150E+02 3.20266E+01 0.00000E+00
 -1      3763 1.11900E+02 3.33256E+01 0.00000E+00
 -1      3764 1.13400E+02 3.33256E+01 0.00000E+00
 -1      3765 1.11150E+02 3.20266E+01 0.00000E+00
 -1      3766 1.14900E+02 3.33256E+01 0.00000E+00
 -1      3767 1.16400E+02 3.33256E+01 0.00000E+00
 -1      3768 1.14150E+02 3.20266E+01 0.00000E+00
 -1      3769 1.17900E+02 3.33256E+01 0.00000E+00
 -1      3770 1.19400E+02 3.33256E+01 0.00000E+00
 -1      3771 1.17150E+02 3.20266E+01 0.00000E+00
 -1      3772 1.20900E+02 3.33256E+01 0.00000E+00
 -1      3773 1.22400E+02 3.33256E+01 0.00000E+00
 -1      3774 1.20150E+02 3.20266E+01 0.00000E+00
 -1      3775 1.23900E+02 3.33256E+01 0.00000E+00
 -1      3776 1.25400E+02 3.33256E+01 0.00000E+00
 -1      3777 1.23150E+02 3.20266E+01 0.00000E+00
 -1      3778 1.26900E+02 3.33256E+01 0.00000E+00
 -1      3779 1.28400E+02 3.33256E+01 0.00000E+00
 -1      3780 1.26150E+02 3.20266E+01 0.00000E+00
 -1      3781 1.29900E+02 3.33256E+01 0.00000E+00
 -1      3782 1.31400E+02 3.33256E+01 0.00000E+00
 -1      3783 1.29150E+02 3.20266E+01 0.00000E+00
 -1      3784 1.07176E+02 1.55331E+01 0.00000E+00
 -1      3785 1.05676E+02 1.55331E+01 0.00000E+00
 -1      3786 1.05317E+02 1.66680E+01 0.00000E+00
 -1      3787 7.00962E+01 3.34512E+01 0.00000E+00
 -1      3788 5.57850E+01 1.56973E+01 0.00000E+00
 -1      3789 5.42850E+01 1.56973E+01 0.00000E+00
 -1      3790 5.27850E+01 1.56973E+01 0.00000E+00
 -1      3791 5.12850E+01 1.56973E+01 0.00000E+00
 -1      3792 5.35350E+01 1.69963E+01 0.00000E+00
 -1      3793 6.17850E+01 1.56973E+01 0.00000E+00
 -1      3794 6.02850E+01 1.56973E+01 0.00000E+00
 -1      3795 6.47850E+01 1.56973E+01 0.00000E+00
 -1      3796 6.32850E+01 1.56973E+01 0.00000E+00
 -1      3797 6.25350E+01 1.69963E+01 0.00000E+00
 -1      3798 6.77850E+01 1.56973E+01 0.00000E+00
 -1      3799 6.62850E+01 1.56973E+01 0.00000E+00
 -1      3800 6.55350E+01 1.69963E+01 0.00000E+00
 -1      3801 6.96601E+01 1.56683E+01 0.00000E+00
 -1      3802 6.83191E+01 2.50188E+01 0.00000E+00
 -1      3803 6.82897E+01 2.36217E+01 0.00000E+00
 -1      3804 6.82138E+01 2.17730E+01 0.00000E+00
 -1      3805 6.85816E+01 2.00615E+01 0.00000E+00
 -1      3806 1.10176E+02 1.55331E+01 0.00000E+00
 -1      3807 1.08676E+02 1.55331E+01 0.00000E+00
 -1      3808 1.08317E+02 1.66680E+01 0.00000E+00
 -1      3809 1.13176E+02 1.55331E+01 0.00000E+00
 -1      3810 1.11676E+02 1.55331E+01 0.00000E+00
 -1      3811 1.11317E+02 1.66680E+01 0.00000E+00
 -1      3812 1.16176E+02 1.55331E+01 0.00000E+00
 -1      3813 1.14676E+02 1.55331E+01 0.00000E+00
 -1      3814 1.14317E+02 1.66680E+01 0.00000E+00
 -1      3815 1.19176E+02 1.55331E+01 0.00000E+00
 -1      3816 1.17676E+02 1.55331E+01 0.00000E+00
 -1      3817 1.17317E+02 1.66680E+01 0.00000E+00
 -1      3818 1.22176E+02 1.55331E+01 0.00000E+00
 -1      3819 1.20676E+02 1.55331E+01 0.00000E+00
 -1      3820 1.20317E+02 1.66680E+01 0.00000E+00
 -1      3821 1.25176E+02 1.55331E+01 0.00000E+00
 -1      3822 1.23676E+02 1.55331E+01 0.00000E+00
 -1      3823 1.23317E+02 1.66680E+01 0.00000E+00
 -1      3824 1.28176E+02 1.55331E+01 0.00000E+00
 -1      3825 1.26676E+02 1.55331E+01 0.00000E+00
 -1      3826 1.26317E+02 1.66680E+01 0.00000E+00
 -1      3827 1.31176E+02 1.55331E+01 0.00000E+00
 -1      3828 1.29676E+02 1.55331E+01 0.00000E+00
 -1      3829 1.29317E+02 1.66680E+01 0.00000E+00
 -1      3830 1.33035E+02 1.58733E+01 0.00000E+00
 -1      3831 1.69669E+01 1.29495E+01 0.00000E+00
 -1      3832 1.42890E+01 1.83453E+01 0.00000E+00
 -1      3833 1.55880E+01 1.90812E+01 0.00000E+00
 -1      3834 1.42890E+01 1.68734E+01 0.00000E+00
 -1      3835 1.02103E+02 3.34274E+01 0.00000E+00
 -1      3836 2.19000E+01 3.31130E+01 0.00000E+00
 -1      3837 2.34000E+01 3.31130E+01 0.00000E+00
 -1      3838 2.41500E+01 3.18140E+01 0.00000E+00
 -1      3839 1.65807E+01 1.39489E+01 0.00000E+00
 -1      3840 6.91722E+01 3.28739E+01 0.00000E+00
 -1      3841 1.36675E+01 2.98820E+01 0.00000E+00
 -1      3842 1.50718E+01 3.08243E+01 0.00000E+00
 -1      3843 1.39098E+01 2.85605E+01 0.00000E+00
 -1      3844 1.64898E+01 3.32789E+01 0.00000E+00
 -1      3845 1.89000E+01 3.31130E+01 0.00000E+00
 -1      3846 2.04000E+01 3.31130E+01 0.00000E+00
 -1      3847 2.11500E+01 3.18140E+01 0.00000E+00
 -1      3848 1.03603E+02 3.34274E+01 0.00000E+00
 -1      3849 4.37850E+01 1.56973E+01 0.00000E+00
 -1      3850 4.22850E+01 1.56973E+01 0.00000E+00
 -1      3851 1.03928E+02 2.61355E+01 0.00000E+00
 -1      3852 1.03808E+02 2.73877E+01 0.00000E+00
 -1      3853 5.87850E+01 1.56973E+01 0.00000E+00
 -1      3854 5.72850E+01 1.56973E+01 0.00000E+00
 -1      3855 5.95350E+01 1.69963E+01 0.00000E+00
 -1      3856 1.56071E+01 1.55545E+01 0.00000E+00
 -1      3857 1.35711E+02 2.13406E+01 0.00000E+00
 -1      3858 1.35711E+02 1.98687E+01 0.00000E+00
 -1      3859 1.34412E+02 2.20719E+01 0.00000E+00
 -1      3860 1.61558E+01 3.14021E+01 0.00000E+00
 -1      3861 1.78160E+01 3.25352E+01 0.00000E+00
 -1      3862 1.85660E+01 3.12362E+01 0.00000E+00
 -1      3863 1.63981E+01 3.00806E+01 0.00000E+00
 -1      3864 1.32531E+02 3.21883E+01 0.00000E+00
 -1      3865 1.04353E+02 3.21284E+01 0.00000E+00
 -1      3866 6.81058E+01 3.06124E+01 0.00000E+00
 -1      3867 6.87421E+01 2.94822E+01 0.00000E+00
 -1      3868 6.76534E+01 2.87589E+01 0.00000E+00
 -1      3869 6.69000E+01 3.31130E+01 0.00000E+00
 -1      3870 6.84000E+01 3.31130E+01 0.00000E+00
 -1      3871 1.65615E+01 1.60038E+01 0.00000E+00
 -1      3872 1.95615E+01 1.60038E+01 0.00000E+00
 -1      3873 1.80615E+01 1.60038E+01 0.00000E+00
 -1      3874 1.70880E+01 1.76094E+01 0.00000E+00
 -1      3875 2.50350E+01 1.43982E+01 0.00000E+00
 -1      3876 3.70350E+01 1.43982E+01 0.00000E+00
 -1      3877 3.17850E+01 1.56973E+01 0.00000E+00
 -1      3878 3.02850E+01 1.56973E+01 0.00000E+00
 -1      3879 5.65350E+01 1.69963E+01 0.00000E+00
 -1      3880 4.07850E+01 1.56973E+01 0.00000E+00
 -1      3881 3.92850E+01 1.56973E+01 0.00000E+00
 -1      3882 4.15350E+01 1.69963E+01 0.00000E+00
 -1      3883 5.05350E+01 1.69963E+01 0.00000E+00
 -1      3884 4.97850E+01 1.56973E+01 0.00000E+00
 -1      3885 4.82850E+01 1.56973E+01 0.00000E+00
 -1      3886 6.89101E+01 1.69673E+01 0.00000E+00
 -1      3887 6.72036E+01 2.24931E+01 0.00000E+00
 -1      3888 6.77846E+01 2.59852E+01 0.00000E+00
 -1      3889 6.67450E+01 2.53083E+01 0.00000E+00
 -1      3890 6.72501E+01 2.69517E+01 0.00000E+00
 -1      3891 1.33113E+02 2.86906E+01 0.00000E+00
 -1      3892 1.33113E+02 2.72219E+01 0.00000E+00
 -1      3893 1.32676E+02 1.70081E+01 0.00000E+00
 -1      3894 1.34473E+02 1.89741E+01 0.00000E+00
 -1      3895 1.04416E+02 2.87484E+01 0.00000E+00
 -1      3896 1.33113E+02 2.57500E+01 0.00000E+00
 -1      3897 1.33113E+02 2.42781E+01 0.00000E+00
 -1      3898 1.31814E+02 2.64844E+01 0.00000E+00
 -1      3899 4.67850E+01 1.56973E+01 0.00000E+00
 -1      3900 4.52850E+01 1.56973E+01 0.00000E+00
 -1      3901 4.75350E+01 1.69963E+01 0.00000E+00
 -1      3902 1.32531E+02 3.07258E+01 0.00000E+00
 -1      3903 1.68870E+01 2.12906E+01 0.00000E+00
 -1      3904 1.68870E+01 2.27656E+01 0.00000E+00
 -1      3905 1.03623E+02 2.10449E+01 0.00000E+00
 -1      3906 1.04561E+02 2.18487E+01 0.00000E+00
 -1      3907 1.04038E+02 1.97416E+01 0.00000E+00
 -1      3908 1.42205E+01 2.57390E+01 0.00000E+00
 -1      3909 1.39783E+01 2.70605E+01 0.00000E+00
 -1      3910 1.53826E+01 2.80029E+01 0.00000E+00
 -1      3911 1.55195E+01 2.50030E+01 0.00000E+00
 -1      3912 4.45350E+01 1.69963E+01 0.00000E+00
 -1      3913 6.85352E+01 1.82374E+01 0.00000E+00
 -1      3914 1.04517E+02 2.50059E+01 0.00000E+00
 -1      3915 1.05477E+02 2.57304E+01 0.00000E+00
 -1      3916 1.05106E+02 2.38764E+01 0.00000E+00
 -1      3917 6.70813E+01 1.88203E+01 0.00000E+00
 -1      3918 6.61500E+01 3.18140E+01 0.00000E+00
 -1      3919 3.47850E+01 1.56973E+01 0.00000E+00
 -1      3920 3.32850E+01 1.56973E+01 0.00000E+00
 -1      3921 3.25350E+01 1.69963E+01 0.00000E+00
 -1      3922 1.70880E+01 1.90812E+01 0.00000E+00
 -1      3923 2.25615E+01 1.60038E+01 0.00000E+00
 -1      3924 2.10615E+01 1.60038E+01 0.00000E+00
 -1      3925 2.00879E+01 1.76093E+01 0.00000E+00
 -1      3926 1.83870E+01 1.98187E+01 0.00000E+00
 -1      3927 2.94000E+01 3.05150E+01 0.00000E+00
 -1      3928 3.09000E+01 3.05150E+01 0.00000E+00
 -1      3929 3.24000E+01 3.05150E+01 0.00000E+00
 -1      3930 3.39000E+01 3.05150E+01 0.00000E+00
 -1      3931 3.16500E+01 2.92160E+01 0.00000E+00
 -1      3932 3.54000E+01 3.05150E+01 0.00000E+00
 -1      3933 3.69000E+01 3.05150E+01 0.00000E+00
 -1      3934 3.46500E+01 2.92160E+01 0.00000E+00
 -1      3935 3.84000E+01 3.05150E+01 0.00000E+00
 -1      3936 3.99000E+01 3.05150E+01 0.00000E+00
 -1      3937 3.76500E+01 2.92160E+01 0.00000E+00
 -1      3938 4.14000E+01 3.05150E+01 0.00000E+00
 -1      3939 4.29000E+01 3.05150E+01 0.00000E+00
 -1      3940 4.06500E+01 2.92160E+01 0.00000E+00
 -1      3941 4.44000E+01 3.05150E+01 0.00000E+00
 -1      3942 4.59000E+01 3.05150E+01 0.00000E+00
 -1      3943 4.36500E+01 2.92160E+01 0.00000E+00
 -1      3944 4.74000E+01 3.05150E+01 0.00000E+00
 -1      3945 4.89000E+01 3.05150E+01 0.00000E+00
 -1      3946 4.66500E+01 2.92160E+01 0.00000E+00
 -1      3947 5.04000E+01 3.05150E+01 0.00000E+00
 -1      3948 5.19000E+01 3.05150E+01 0.00000E+00
 -1      3949 4.96500E+01 2.92160E+01 0.00000E+00
 -1      3950 5.34000E+01 3.05150E+01 0.00000E+00
 -1      3951 5.49000E+01 3.05150E+01 0.00000E+00
 -1      3952 5.26500E+01 2.92160E+01 0.00000E+00
 -1      3953 5.64000E+01 3.05150E+01 0.00000E+00
 -1      3954 5.79000E+01 3.05150E+01 0.00000E+00
 -1      3955 5.56500E+01 2.92160E+01 0.00000E+00
 -1      3956 5.94000E+01 3.05150E+01 0.00000E+00
 -1      3957 6.09000E+01 3.05150E+01 0.00000E+00
 -1      3958 5.86500E+01 2.92160E+01 0.00000E+00
 -1      3959 6.24000E+01 3.05150E+01 0.00000E+00
 -1      3960 6.39000E+01 3.05150E+01 0.00000E+00
 -1      3961 6.16500E+01 2.92160E+01 0.00000E+00
 -1      3962 1.07400E+02 3.07276E+01 0.00000E+00
 -1      3963 1.08900E+02 3.07276E+01 0.00000E+00
 -1      3964 2.55615E+01 1.60038E+01 0.00000E+00
 -1      3965 2.40615E+01 1.60038E+01 0.00000E+00
 -1      3966 2.30879E+01 1.76093E+01 0.00000E+00
 -1      3967 1.98870E+01 1.98187E+01 0.00000E+00
 -1      3968 1.96860E+01 2.20281E+01 0.00000E+00
 -1      3969 2.13870E+01 1.98187E+01 0.00000E+00
 -1      3970 2.87850E+01 1.56973E+01 0.00000E+00
 -1      3971 2.72850E+01 1.56973E+01 0.00000E+00
 -1      3972 2.95350E+01 1.69963E+01 0.00000E+00
 -1      3973 1.10400E+02 3.07276E+01 0.00000E+00
 -1      3974 1.11900E+02 3.07276E+01 0.00000E+00
 -1      3975 1.09650E+02 2.94286E+01 0.00000E+00
 -1      3976 1.13400E+02 3.07276E+01 0.00000E+00
 -1      3977 1.14900E+02 3.07276E+01 0.00000E+00
 -1      3978 1.12650E+02 2.94286E+01 0.00000E+00
 -1      3979 1.16400E+02 3.07276E+01 0.00000E+00
 -1      3980 1.17900E+02 3.07276E+01 0.00000E+00
 -1      3981 1.15650E+02 2.94286E+01 0.00000E+00
 -1      3982 1.19400E+02 3.07276E+01 0.00000E+00
 -1      3983 1.20900E+02 3.07276E+01 0.00000E+00
 -1      3984 1.18650E+02 2.94286E+01 0.00000E+00
 -1      3985 1.22400E+02 3.07276E+01 0.00000E+00
 -1      3986 1.23900E+02 3.07276E+01 0.00000E+00
 -1      3987 1.21650E+02 2.94286E+01 0.00000E+00
 -1      3988 1.25400E+02 3.07276E+01 0.00000E+00
 -1      3989 1.26900E+02 3.07276E+01 0.00000E+00
 -1      3990 1.24650E+02 2.94286E+01 0.00000E+00
 -1      3991 1.28400E+02 3.07276E+01 0.00000E+00
 -1      3992 1.29900E+02 3.07276E+01 0.00000E+00
 -1      3993 1.27650E+02 2.94286E+01 0.00000E+00
 -1      3994 1.12067E+02 1.79670E+01 0.00000E+00
 -1      3995 1.10567E+02 1.79670E+01 0.00000E+00
 -1      3996 5.72850E+01 1.82952E+01 0.00000E+00
 -1      3997 5.57850E+01 1.82952E+01 0.00000E+00
 -1      3998 5.42850E+01 1.82952E+01 0.00000E+00
 -1      3999 5.27850E+01 1.82952E+01 0.00000E+00
 -1      4000 5.50350E+01 1.95942E+01 0.00000E+00
 -1      4001 6.55813E+01 1.88203E+01 0.00000E+00
 -1      4002 6.40813E+01 1.88203E+01 0.00000E+00
 -1      4003 6.56277E+01 2.06443E+01 0.00000E+00
 -1      4004 6.25813E+01 1.88203E+01 0.00000E+00
 -1      4005 6.10813E+01 1.88203E+01 0.00000E+00
 -1      4006 6.26277E+01 2.06443E+01 0.00000E+00
 -1      4007 1.31232E+02 2.99914E+01 0.00000E+00
 -1      4008 1.32615E+02 1.86340E+01 0.00000E+00
 -1      4009 1.30756E+02 1.82939E+01 0.00000E+00
 -1      4010 1.32553E+02 2.02599E+01 0.00000E+00
 -1      4011 1.09067E+02 1.79670E+01 0.00000E+00
 -1      4012 1.07567E+02 1.79670E+01 0.00000E+00
 -1      4013 1.09817E+02 1.92660E+01 0.00000E+00
 -1      4014 1.18067E+02 1.79670E+01 0.00000E+00
 -1      4015 1.16567E+02 1.79670E+01 0.00000E+00
 -1      4016 1.21067E+02 1.79670E+01 0.00000E+00
 -1      4017 1.19567E+02 1.79670E+01 0.00000E+00
 -1      4018 1.18817E+02 1.92660E+01 0.00000E+00
 -1      4019 1.24067E+02 1.79670E+01 0.00000E+00
 -1      4020 1.22567E+02 1.79670E+01 0.00000E+00
 -1      4021 1.21817E+02 1.92660E+01 0.00000E+00
 -1      4022 1.27067E+02 1.79670E+01 0.00000E+00
 -1      4023 1.25567E+02 1.79670E+01 0.00000E+00
 -1      4024 1.24817E+02 1.92660E+01 0.00000E+00
 -1      4025 1.29256E+02 1.82939E+01 0.00000E+00
 -1      4026 6.84222E+01 3.15749E+01 0.00000E+00
 -1      4027 1.04857E+02 1.76373E+01 0.00000E+00
 -1      4028 1.04498E+02 1.87722E+01 0.00000E+00
 -1      4029 1.05437E+02 1.95761E+01 0.00000E+00
 -1      4030 1.06357E+02 1.76373E+01 0.00000E+00
 -1      4031 6.62243E+01 2.39007E+01 0.00000E+00
 -1      4032 6.61484E+01 2.20519E+01 0.00000E+00
 -1      4033 6.46484E+01 2.20519E+01 0.00000E+00
 -1      4034 6.56898E+01 2.48671E+01 0.00000E+00
 -1      4035 3.77850E+01 1.56973E+01 0.00000E+00
 -1      4036 3.62850E+01 1.56973E+01 0.00000E+00
 -1      4037 3.55350E+01 1.69963E+01 0.00000E+00
 -1      4038 3.85350E+01 1.69963E+01 0.00000E+00
 -1      4039 2.34000E+01 3.05150E+01 0.00000E+00
 -1      4040 2.49000E+01 3.05150E+01 0.00000E+00
 -1      4041 5.99332E+01 1.85578E+01 0.00000E+00
 -1      4042 5.84332E+01 1.85578E+01 0.00000E+00
 -1      4043 5.76832E+01 1.98568E+01 0.00000E+00
 -1      4044 5.99795E+01 2.03818E+01 0.00000E+00
 -1      4045 2.04000E+01 3.05150E+01 0.00000E+00
 -1      4046 2.19000E+01 3.05150E+01 0.00000E+00
 -1      4047 2.26500E+01 2.92160E+01 0.00000E+00
 -1      4048 4.52850E+01 1.82952E+01 0.00000E+00
 -1      4049 4.37850E+01 1.82952E+01 0.00000E+00
 -1      4050 1.81175E+01 2.35280E+01 0.00000E+00
 -1      4051 1.68185E+01 2.42655E+01 0.00000E+00
 -1      4052 1.67500E+01 2.57655E+01 0.00000E+00
 -1      4053 2.64000E+01 3.05150E+01 0.00000E+00
 -1      4054 2.79000E+01 3.05150E+01 0.00000E+00
 -1      4055 2.56500E+01 2.92160E+01 0.00000E+00
 -1      4056 1.32833E+02 2.30049E+01 0.00000E+00
 -1      4057 1.32833E+02 2.15331E+01 0.00000E+00
 -1      4058 1.30974E+02 2.11929E+01 0.00000E+00
 -1      4059 1.31534E+02 2.37393E+01 0.00000E+00
 -1      4060 6.73336E+01 3.08516E+01 0.00000E+00
 -1      4061 1.15067E+02 1.79670E+01 0.00000E+00
 -1      4062 1.13567E+02 1.79670E+01 0.00000E+00
 -1      4063 1.15817E+02 1.92660E+01 0.00000E+00
 -1      4064 1.30482E+02 2.86924E+01 0.00000E+00
 -1      4065 3.32850E+01 1.82952E+01 0.00000E+00
 -1      4066 3.17850E+01 1.82952E+01 0.00000E+00
 -1      4067 3.02850E+01 1.82952E+01 0.00000E+00
 -1      4068 2.87850E+01 1.82952E+01 0.00000E+00
 -1      4069 3.10350E+01 1.95942E+01 0.00000E+00
 -1      4070 6.66138E+01 2.80820E+01 0.00000E+00
 -1      4071 2.86500E+01 2.92160E+01 0.00000E+00
 -1      4072 1.12817E+02 1.92660E+01 0.00000E+00
 -1      4073 5.20350E+01 1.95942E+01 0.00000E+00
 -1      4074 5.12850E+01 1.82952E+01 0.00000E+00
 -1      4075 4.97850E+01 1.82952E+01 0.00000E+00
 -1      4076 4.22850E+01 1.82952E+01 0.00000E+00
 -1      4077 4.07850E+01 1.82952E+01 0.00000E+00
 -1      4078 4.30350E+01 1.95942E+01 0.00000E+00
 -1      4079 1.05297E+02 3.13317E+01 0.00000E+00
 -1      4080 6.58336E+01 3.08516E+01 0.00000E+00
 -1      4081 1.28506E+02 1.95929E+01 0.00000E+00
 -1      4082 1.07107E+02 1.89363E+01 0.00000E+00
 -1      4083 1.30482E+02 2.72206E+01 0.00000E+00
 -1      4084 1.30482E+02 2.57487E+01 0.00000E+00
 -1      4085 1.29150E+02 2.79567E+01 0.00000E+00
 -1      4086 4.82850E+01 1.82952E+01 0.00000E+00
 -1      4087 4.67850E+01 1.82952E+01 0.00000E+00
 -1      4088 4.90350E+01 1.95942E+01 0.00000E+00
 -1      4089 1.06519E+02 2.81443E+01 0.00000E+00
 -1      4090 1.06047E+02 3.00327E+01 0.00000E+00
 -1      4091 1.93160E+01 2.99372E+01 0.00000E+00
 -1      4092 4.60350E+01 1.95942E+01 0.00000E+00
 -1      4093 1.05936E+02 2.12698E+01 0.00000E+00
 -1      4094 1.05521E+02 2.25731E+01 0.00000E+00
 -1      4095 1.06482E+02 2.32975E+01 0.00000E+00
 -1      4096 6.50836E+01 2.95526E+01 0.00000E+00
 -1      4097 1.96175E+01 2.35280E+01 0.00000E+00
 -1      4098 1.95490E+01 2.50280E+01 0.00000E+00
 -1      4099 2.11175E+01 2.35280E+01 0.00000E+00
 -1      4100 2.63115E+01 1.73028E+01 0.00000E+00
 -1      4101 1.68073E+01 2.86811E+01 0.00000E+00
 -1      4102 1.78913E+01 2.92589E+01 0.00000E+00
 -1      4103 1.97253E+01 2.85377E+01 0.00000E+00
 -1      4104 1.68758E+01 2.71812E+01 0.00000E+00
 -1      4105 1.06748E+02 2.69373E+01 0.00000E+00
 -1      4106 1.08379E+02 2.82217E+01 0.00000E+00
 -1      4107 1.09879E+02 2.82217E+01 0.00000E+00
 -1      4108 1.07337E+02 2.58077E+01 0.00000E+00
 -1      4109 3.39000E+01 2.79170E+01 0.00000E+00
 -1      4110 3.54000E+01 2.79170E+01 0.00000E+00
 -1      4111 3.69000E+01 2.79170E+01 0.00000E+00
 -1      4112 3.84000E+01 2.79170E+01 0.00000E+00
 -1      4113 3.61500E+01 2.66180E+01 0.00000E+00
 -1      4114 3.99000E+01 2.79170E+01 0.00000E+00
 -1      4115 4.14000E+01 2.79170E+01 0.00000E+00
 -1      4116 3.91500E+01 2.66180E+01 0.00000E+00
 -1      4117 4.29000E+01 2.79170E+01 0.00000E+00
 -1      4118 4.44000E+01 2.79170E+01 0.00000E+00
 -1      4119 4.21500E+01 2.66180E+01 0.00000E+00
 -1      4120 4.59000E+01 2.79170E+01 0.00000E+00
 -1      4121 4.74000E+01 2.79170E+01 0.00000E+00
 -1      4122 4.51500E+01 2.66180E+01 0.00000E+00
 -1      4123 4.89000E+01 2.79170E+01 0.00000E+00
 -1      4124 5.04000E+01 2.79170E+01 0.00000E+00
 -1      4125 4.81500E+01 2.66180E+01 0.00000E+00
 -1      4126 5.19000E+01 2.79170E+01 0.00000E+00
 -1      4127 5.34000E+01 2.79170E+01 0.00000E+00
 -1      4128 5.11500E+01 2.66180E+01 0.00000E+00
 -1      4129 5.49000E+01 2.79170E+01 0.00000E+00
 -1      4130 5.64000E+01 2.79170E+01 0.00000E+00
 -1      4131 5.41500E+01 2.66180E+01 0.00000E+00
 -1      4132 5.79000E+01 2.79170E+01 0.00000E+00
 -1      4133 5.94000E+01 2.79170E+01 0.00000E+00
 -1      4134 5.71500E+01 2.66180E+01 0.00000E+00
 -1      4135 6.09000E+01 2.79170E+01 0.00000E+00
 -1      4136 6.24000E+01 2.79170E+01 0.00000E+00
 -1      4137 6.01500E+01 2.66180E+01 0.00000E+00
 -1      4138 2.43870E+01 1.98187E+01 0.00000E+00
 -1      4139 2.28870E+01 1.98187E+01 0.00000E+00
 -1      4140 2.26860E+01 2.20281E+01 0.00000E+00
 -1      4141 1.11900E+02 2.81296E+01 0.00000E+00
 -1      4142 1.13400E+02 2.81296E+01 0.00000E+00
 -1      4143 1.14900E+02 2.81296E+01 0.00000E+00
 -1      4144 1.16400E+02 2.81296E+01 0.00000E+00
 -1      4145 1.14150E+02 2.68306E+01 0.00000E+00
 -1      4146 1.17900E+02 2.81296E+01 0.00000E+00
 -1      4147 1.19400E+02 2.81296E+01 0.00000E+00
 -1      4148 1.17150E+02 2.68306E+01 0.00000E+00
 -1      4149 1.20900E+02 2.81296E+01 0.00000E+00
 -1      4150 1.22400E+02 2.81296E+01 0.00000E+00
 -1      4151 1.20150E+02 2.68306E+01 0.00000E+00
 -1      4152 1.23900E+02 2.81296E+01 0.00000E+00
 -1      4153 1.25400E+02 2.81296E+01 0.00000E+00
 -1      4154 1.23150E+02 2.68306E+01 0.00000E+00
 -1      4155 1.26525E+02 2.80432E+01 0.00000E+00
 -1      4156 1.28025E+02 2.80432E+01 0.00000E+00
 -1      4157 1.28025E+02 2.65713E+01 0.00000E+00
 -1      4158 1.25775E+02 2.67442E+01 0.00000E+00
 -1      4159 3.47850E+01 1.82952E+01 0.00000E+00
 -1      4160 3.40350E+01 1.95942E+01 0.00000E+00
 -1      4161 3.62850E+01 1.82952E+01 0.00000E+00
 -1      4162 6.46802E+01 2.77454E+01 0.00000E+00
 -1      4163 6.31484E+01 2.20519E+01 0.00000E+00
 -1      4164 6.16484E+01 2.20519E+01 0.00000E+00
 -1      4165 6.36691E+01 2.34595E+01 0.00000E+00
 -1      4166 1.25567E+02 2.05650E+01 0.00000E+00
 -1      4167 1.24067E+02 2.05650E+01 0.00000E+00
 -1      4168 2.79000E+01 2.79170E+01 0.00000E+00
 -1      4169 2.94000E+01 2.79170E+01 0.00000E+00
 -1      4170 1.10567E+02 2.05650E+01 0.00000E+00
 -1      4171 1.09067E+02 2.05650E+01 0.00000E+00
 -1      4172 1.22567E+02 2.05650E+01 0.00000E+00
 -1      4173 1.21067E+02 2.05650E+01 0.00000E+00
 -1      4174 1.23317E+02 2.18640E+01 0.00000E+00
 -1      4175 1.19567E+02 2.05650E+01 0.00000E+00
 -1      4176 1.18067E+02 2.05650E+01 0.00000E+00
 -1      4177 1.20317E+02 2.18640E+01 0.00000E+00
 -1      4178 1.13567E+02 2.05650E+01 0.00000E+00
 -1      4179 1.12067E+02 2.05650E+01 0.00000E+00
 -1      4180 1.11317E+02 2.18640E+01 0.00000E+00
 -1      4181 1.06752E+02 1.96184E+01 0.00000E+00
 -1      4182 1.06292E+02 2.05878E+01 0.00000E+00
 -1      4183 1.07252E+02 2.13122E+01 0.00000E+00
 -1      4184 1.07962E+02 1.99480E+01 0.00000E+00
 -1      4185 5.57850E+01 2.08932E+01 0.00000E+00
 -1      4186 5.42850E+01 2.08932E+01 0.00000E+00
 -1      4187 4.67850E+01 2.08932E+01 0.00000E+00
 -1      4188 4.52850E+01 2.08932E+01 0.00000E+00
 -1      4189 2.19000E+01 2.79170E+01 0.00000E+00
 -1      4190 2.34000E+01 2.79170E+01 0.00000E+00
 -1      4191 1.29365E+02 2.10424E+01 0.00000E+00
 -1      4192 1.27177E+02 2.07155E+01 0.00000E+00
 -1      4193 1.26427E+02 2.20145E+01 0.00000E+00
 -1      4194 1.29645E+02 2.23156E+01 0.00000E+00
 -1      4195 1.81748E+01 2.64437E+01 0.00000E+00
 -1      4196 2.49000E+01 2.79170E+01 0.00000E+00
 -1      4197 2.64000E+01 2.79170E+01 0.00000E+00
 -1      4198 2.41500E+01 2.66180E+01 0.00000E+00
 -1      4199 6.39302E+01 2.64464E+01 0.00000E+00
 -1      4200 2.74478E+01 1.89037E+01 0.00000E+00
 -1      4201 2.57242E+01 1.92103E+01 0.00000E+00
 -1      4202 2.55233E+01 2.14197E+01 0.00000E+00
 -1      4203 2.81978E+01 2.02027E+01 0.00000E+00
 -1      4204 1.16567E+02 2.05650E+01 0.00000E+00
 -1      4205 1.15067E+02 2.05650E+01 0.00000E+00
 -1      4206 1.17317E+02 2.18640E+01 0.00000E+00
 -1      4207 3.09000E+01 2.79170E+01 0.00000E+00
 -1      4208 3.24000E+01 2.79170E+01 0.00000E+00
 -1      4209 3.01500E+01 2.66180E+01 0.00000E+00
 -1      4210 1.14317E+02 2.18640E+01 0.00000E+00
 -1      4211 1.96748E+01 2.64437E+01 0.00000E+00
 -1      4212 1.10629E+02 2.69227E+01 0.00000E+00
 -1      4213 3.47850E+01 2.08932E+01 0.00000E+00
 -1      4214 3.32850E+01 2.08932E+01 0.00000E+00
 -1      4215 3.31500E+01 2.66180E+01 0.00000E+00
 -1      4216 5.27850E+01 2.08932E+01 0.00000E+00
 -1      4217 5.12850E+01 2.08932E+01 0.00000E+00
 -1      4218 5.35350E+01 2.21922E+01 0.00000E+00
 -1      4219 2.71500E+01 2.66180E+01 0.00000E+00
 -1      4220 4.37850E+01 2.08932E+01 0.00000E+00
 -1      4221 4.22850E+01 2.08932E+01 0.00000E+00
 -1      4222 4.45350E+01 2.21922E+01 0.00000E+00
 -1      4223 3.92850E+01 1.82952E+01 0.00000E+00
 -1      4224 3.77850E+01 1.82952E+01 0.00000E+00
 -1      4225 4.00350E+01 1.95942E+01 0.00000E+00
 -1      4226 1.29114E+02 2.55234E+01 0.00000E+00
 -1      4227 1.30446E+02 2.47872E+01 0.00000E+00
 -1      4228 1.30166E+02 2.35140E+01 0.00000E+00
 -1      4229 1.27989E+02 2.56098E+01 0.00000E+00
 -1      4230 4.97850E+01 2.08932E+01 0.00000E+00
 -1      4231 4.82850E+01 2.08932E+01 0.00000E+00
 -1      4232 5.05350E+01 2.21922E+01 0.00000E+00
 -1      4233 1.07920E+02 2.45066E+01 0.00000E+00
 -1      4234 1.09191E+02 2.57136E+01 0.00000E+00
 -1      4235 1.11212E+02 2.56215E+01 0.00000E+00
 -1      4236 1.08335E+02 2.32033E+01 0.00000E+00
 -1      4237 6.05002E+01 2.17894E+01 0.00000E+00
 -1      4238 5.93520E+01 2.15269E+01 0.00000E+00
 -1      4239 6.10209E+01 2.31970E+01 0.00000E+00
 -1      4240 6.34095E+01 2.50388E+01 0.00000E+00
 -1      4241 5.69332E+01 2.11558E+01 0.00000E+00
 -1      4242 5.61832E+01 2.24548E+01 0.00000E+00
 -1      4243 5.80813E+01 2.14183E+01 0.00000E+00
 -1      4244 2.04753E+01 2.72387E+01 0.00000E+00
 -1      4245 2.26175E+01 2.35280E+01 0.00000E+00
 -1      4246 4.75350E+01 2.21922E+01 0.00000E+00
 -1      4247 3.25350E+01 2.21922E+01 0.00000E+00
 -1      4248 3.17850E+01 2.08932E+01 0.00000E+00
 -1      4249 3.02850E+01 2.08932E+01 0.00000E+00
 -1      4250 3.84000E+01 2.53190E+01 0.00000E+00
 -1      4251 3.99000E+01 2.53190E+01 0.00000E+00
 -1      4252 4.18425E+01 2.44051E+01 0.00000E+00
 -1      4253 4.33425E+01 2.44051E+01 0.00000E+00
 -1      4254 4.48425E+01 2.44051E+01 0.00000E+00
 -1      4255 4.63425E+01 2.44051E+01 0.00000E+00
 -1      4256 4.78425E+01 2.44051E+01 0.00000E+00
 -1      4257 4.93425E+01 2.44051E+01 0.00000E+00
 -1      4258 5.08425E+01 2.44051E+01 0.00000E+00
 -1      4259 5.23425E+01 2.44051E+01 0.00000E+00
 -1      4260 5.38425E+01 2.44051E+01 0.00000E+00
 -1      4261 5.53425E+01 2.44051E+01 0.00000E+00
 -1      4262 5.92614E+01 2.47763E+01 0.00000E+00
 -1      4263 6.07614E+01 2.47763E+01 0.00000E+00
 -1      4264 1.18067E+02 2.31630E+01 0.00000E+00
 -1      4265 1.16567E+02 2.31630E+01 0.00000E+00
 -1      4266 3.62850E+01 2.08933E+01 0.00000E+00
 -1      4267 3.55350E+01 2.21923E+01 0.00000E+00
 -1      4268 3.28425E+01 2.44051E+01 0.00000E+00
 -1      4269 3.43425E+01 2.44051E+01 0.00000E+00
 -1      4270 1.16484E+02 2.56463E+01 0.00000E+00
 -1      4271 1.17984E+02 2.56463E+01 0.00000E+00
 -1      4272 1.19484E+02 2.56463E+01 0.00000E+00
 -1      4273 1.20984E+02 2.56463E+01 0.00000E+00
 -1      4274 1.18817E+02 2.44620E+01 0.00000E+00
 -1      4275 1.22484E+02 2.56463E+01 0.00000E+00
 -1      4276 1.23984E+02 2.56463E+01 0.00000E+00
 -1      4277 1.21817E+02 2.44620E+01 0.00000E+00
 -1      4278 1.08712E+02 2.12470E+01 0.00000E+00
 -1      4279 1.21067E+02 2.31630E+01 0.00000E+00
 -1      4280 1.19567E+02 2.31630E+01 0.00000E+00
 -1      4281 2.64000E+01 2.53190E+01 0.00000E+00
 -1      4282 2.79000E+01 2.53190E+01 0.00000E+00
 -1      4283 3.70350E+01 1.95942E+01 0.00000E+00
 -1      4284 3.58425E+01 2.44051E+01 0.00000E+00
 -1      4285 3.73425E+01 2.44051E+01 0.00000E+00
 -1      4286 1.24067E+02 2.31630E+01 0.00000E+00
 -1      4287 1.22567E+02 2.31630E+01 0.00000E+00
 -1      4288 2.98425E+01 2.44051E+01 0.00000E+00
 -1      4289 3.13425E+01 2.44051E+01 0.00000E+00
 -1      4290 1.13098E+02 2.56339E+01 0.00000E+00
 -1      4291 1.14598E+02 2.56339E+01 0.00000E+00
 -1      4292 1.15431E+02 2.44496E+01 0.00000E+00
 -1      4293 1.11659E+02 2.44248E+01 0.00000E+00
 -1      4294 5.64907E+01 2.46676E+01 0.00000E+00
 -1      4295 3.77850E+01 2.08933E+01 0.00000E+00
 -1      4296 2.70053E+01 2.24156E+01 0.00000E+00
 -1      4297 2.56680E+01 2.30241E+01 0.00000E+00
 -1      4298 1.25580E+02 2.31809E+01 0.00000E+00
 -1      4299 1.24830E+02 2.44799E+01 0.00000E+00
 -1      4300 1.25496E+02 2.56642E+01 0.00000E+00
 -1      4301 1.27189E+02 2.33314E+01 0.00000E+00
 -1      4302 5.79907E+01 2.46676E+01 0.00000E+00
 -1      4303 1.14681E+02 2.31506E+01 0.00000E+00
 -1      4304 1.28556E+02 2.33635E+01 0.00000E+00
 -1      4305 2.89478E+01 2.15017E+01 0.00000E+00
 -1      4306 1.08357E+02 2.19291E+01 0.00000E+00
 -1      4307 2.49180E+01 2.43231E+01 0.00000E+00
 -1      4308 1.26621E+02 2.55778E+01 0.00000E+00
 -1      4309 1.09795E+02 2.31382E+01 0.00000E+00
 -1      4310 1.11295E+02 2.31382E+01 0.00000E+00
 -1      4311 2.34180E+01 2.43231E+01 0.00000E+00
 -1      4312 4.07850E+01 2.08933E+01 0.00000E+00
 -1      4313 3.92850E+01 2.08933E+01 0.00000E+00
 -1      4314 3.85349E+01 2.21923E+01 0.00000E+00
 -1      4315 4.15350E+01 2.21923E+01 0.00000E+00
 -1      4316 6.19095E+01 2.50388E+01 0.00000E+00
 -1      4317 1.13181E+02 2.31506E+01 0.00000E+00
 -1      4318 2.18495E+01 2.58230E+01 0.00000E+00
 -1      4319 5.86020E+01 2.28259E+01 0.00000E+00
 -1      4320 1.27710E+02 2.45299E+01 0.00000E+00
 -1      4321 2.90925E+01 2.31061E+01 0.00000E+00
 -1      4322 4.10925E+01 2.31061E+01 0.00000E+00
 -1      4323 3.80925E+01 2.31061E+01 0.00000E+00
 -1      4324 3.95925E+01 2.31061E+01 0.00000E+00
 -3
    3C                          2080                                     1
 -1       165    8    0    1
 -2         6         7        23      1123      1287      1140
 -1       166    8    0    1
 -2         7         8       165      1124      1288      1289
 -1       167    8    0    1
 -2         8         9       166      1125      1290      1291
 -1       168    8    0    1
 -2         8       166       165      1291      1292      1288
 -1       169    8    0    1
 -2         9        10       167      1126      1293      1294
 -1       170    8    0    1
 -2         9       167       166      1294      1295      1290
 -1       171    8    0    1
 -2        10        11       168      1127      1296      1297
 -1       172    8    0    1
 -2        10       168       167      1297      1298      1293
 -1       173    8    0    1
 -2        11        12       169      1128      1299      1300
 -1       174    8    0    1
 -2        11       169       168      1300      1301      1296
 -1       175    8    0    1
 -2        12        13       170      1129      1302      1303
 -1       176    8    0    1
 -2        12       170       169      1303      1304      1299
 -1       177    8    0    1
 -2        13        14       171      1130      1305      1306
 -1       178    8    0    1
 -2        13       171       170      1306      1307      1302
 -1       179    8    0    1
 -2        14        15       172      1131      1308      1309
 -1       180    8    0    1
 -2        14       172       171      1309      1310      1305
 -1       181    8    0    1
 -2        15        16       173      1132      1311      1312
 -1       182    8    0    1
 -2        15       173       172      1312      1313      1308
 -1       183    8    0    1
 -2        16        17       174      1133      1314      1315
 -1       184    8    0    1
 -2        16       174       173      1315      1316      1311
 -1       185    8    0    1
 -2        17        18       175      1134      1317      1318
 -1       186    8    0    1
 -2        17       175       174      1318      1319      1314
 -1       187    8    0    1
 -2        18        19       176      1135      1320      1321
 -1       188    8    0    1
 -2        18       176       175      1321      1322      1317
 -1       189    8    0    1
 -2        19        20       177      1136      1323      1324
 -1       190    8    0    1
 -2        19       177       176      1324      1325      1320
 -1       191    8    0    1
 -2        20        21       178      1137      1326      1327
 -1       192    8    0    1
 -2        20       178       177      1327      1328      1323
 -1       193    8    0    1
 -2        21        22       179      1138      1329      1330
 -1       194    8    0    1
 -2        21       179       178      1330      1331      1326
 -1       195    8    0    1
 -2        22         5       180      1139      1332      1333
 -1       196    8    0    1
 -2       179        22       180      1329      1333      1334
 -1       197    8    0    1
 -2         5        72       180      1190      1335      1332
 -1       198    8    0    1
 -2        24        23       181      1141      1336      1337
 -1       199    8    0    1
 -2        25        24       182      1142      1338      1339
 -1       200    8    0    1
 -2        24       181       182      1337      1340      1338
 -1       201    8    0    1
 -2        26        25       183      1143      1341      1342
 -1       202    8    0    1
 -2        25       182       183      1339      1343      1341
 -1       203    8    0    1
 -2        27        26       184      1144      1344      1345
 -1       204    8    0    1
 -2        26       183       184      1342      1346      1344
 -1       205    8    0    1
 -2        28        27       185      1145      1347      1348
 -1       206    8    0    1
 -2        27       184       185      1345      1349      1347
 -1       207    8    0    1
 -2        29        28       186      1146      1350      1351
 -1       208    8    0    1
 -2        28       185       186      1348      1352      1350
 -1       209    8    0    1
 -2        30        29       187      1147      1353      1354
 -1       210    8    0    1
 -2        29       186       187      1351      1355      1353
 -1       211    8    0    1
 -2        31        30       188      1148      1356      1357
 -1       212    8    0    1
 -2        30       187       188      1354      1358      1356
 -1       213    8    0    1
 -2        32        31       189      1149      1359      1360
 -1       214    8    0    1
 -2        31       188       189      1357      1361      1359
 -1       215    8    0    1
 -2        33        32       190      1150      1362      1363
 -1       216    8    0    1
 -2        32       189       190      1360      1364      1362
 -1       217    8    0    1
 -2        34        33       191      1151      1365      1366
 -1       218    8    0    1
 -2        33       190       191      1363      1367      1365
 -1       219    8    0    1
 -2        35        34       192      1152      1368      1369
 -1       220    8    0    1
 -2        34       191       192      1366      1370      1368
 -1       221    8    0    1
 -2        36        35       193      1153      1371      1372
 -1       222    8    0    1
 -2        35       192       193      1369      1373      1371
 -1       223    8    0    1
 -2        37        36       194      1154      1374      1375
 -1       224    8    0    1
 -2        36       193       194      1372      1376      1374
 -1       225    8    0    1
 -2        38        37       195      1155      1377      1378
 -1       226    8    0    1
 -2        37       194       195      1375      1379      1377
 -1       227    8    0    1
 -2        39        38       196      1156      1380      1381
 -1       228    8    0    1
 -2        38       195       196      1378      1382      1380
 -1       229    8    0    1
 -2        40        39       197      1157      1383      1384
 -1       230    8    0    1
 -2        39       196       197      1381      1385      1383
 -1       231    8    0    1
 -2        41        40       198      1158      1386      1387
 -1       232    8    0    1
 -2        40       197       198      1384      1388      1386
 -1       233    8    0    1
 -2        42        41       199      1159      1389      1390
 -1       234    8    0    1
 -2        41       198       199      1387      1391      1389
 -1       235    8    0    1
 -2        43        42       200      1160      1392      1393
 -1       236    8    0    1
 -2        42       199       200      1390      1394      1392
 -1       237    8    0    1
 -2        44        43       201      1161      1395      1396
 -1       238    8    0    1
 -2        43       200       201      1393      1397      1395
 -1       239    8    0    1
 -2        45        44       202      1162      1398      1399
 -1       240    8    0    1
 -2        44       201       202      1396      1400      1398
 -1       241    8    0    1
 -2        46        45       203      1163      1401      1402
 -1       242    8    0    1
 -2        45       202       203      1399      1403      1401
 -1       243    8    0    1
 -2        47        46       204      1164      1404      1405
 -1       244    8    0    1
 -2        46       203       204      1402      1406      1404
 -1       245    8    0    1
 -2        48        47       205      1165      1407      1408
 -1       246    8    0    1
 -2        47       204       205      1405      1409      1407
 -1       247    8    0    1
 -2        49        48       206      1166      1410      1411
 -1       248    8    0    1
 -2        48       205       206      1408      1412      1410
 -1       249    8    0    1
 -2        50        49       207      1167      1413      1414
 -1       250    8    0    1
 -2        49       206       207      1411      1415      1413
 -1       251    8    0    1
 -2        51        50       208      1168      1416      1417
 -1       252    8    0    1
 -2        50       207       208      1414      1418      1416
 -1       253    8    0    1
 -2        52        51       209      1169      1419      1420
 -1       254    8    0    1
 -2        51       208       209      1417      1421      1419
 -1       255    8    0    1
 -2        53        52       210      1170      1422      1423
 -1       256    8    0    1
 -2        52       209       210      1420      1424      1422
 -1       257    8    0    1
 -2        54        53       211      1171      1425      1426
 -1       258    8    0    1
 -2        53       210       211      1423      1427      1425
 -1       259    8    0    1
 -2        55        54       212      1172      1428      1429
 -1       260    8    0    1
 -2        54       211       212      1426      1430      1428
 -1       261    8    0    1
 -2        56        55       213      1173      1431      1432
 -1       262    8    0    1
 -2        55       212       213      1429      1433      1431
 -1       263    8    0    1
 -2        57        56       214      1174      1434      1435
 -1       264    8    0    1
 -2        56       213       214      1432      1436      1434
 -1       265    8    0    1
 -2        58        57       215      1175      1437      1438
 -1       266    8    0    1
 -2        57       214       215      1435      1439      1437
 -1       267    8    0    1
 -2        59        58       216      1176      1440      1441
 -1       268    8    0    1
 -2        58       215       216      1438      1442      1440
 -1       269    8    0    1
 -2        60        59       217      1177      1443      1444
 -1       270    8    0    1
 -2        59       216       217      1441      1445      1443
 -1       271    8    0    1
 -2        61        60       218      1178      1446      1447
 -1       272    8    0    1
 -2        60       217       218      1444      1448      1446
 -1       273    8    0    1
 -2        62        61       219      1179      1449      1450
 -1       274    8    0    1
 -2        61       218       219      1447      1451      1449
 -1       275    8    0    1
 -2        63        62       220      1180      1452      1453
 -1       276    8    0    1
 -2        62       219       220      1450      1454      1452
 -1       277    8    0    1
 -2        64        63       221      1181      1455      1456
 -1       278    8    0    1
 -2        63       220       221      1453      1457      1455
 -1       279    8    0    1
 -2        65        64       222      1182      1458      1459
 -1       280    8    0    1
 -2        64       221       222      1456      1460      1458
 -1       281    8    0    1
 -2        66        65       223      1183      1461      1462
 -1       282    8    0    1
 -2        65       222       223      1459      1463      1461
 -1       283    8    0    1
 -2        67        66       224      1184      1464      1465
 -1       284    8    0    1
 -2        66       223       224      1462      1466      1464
 -1       285    8    0    1
 -2        68        67       225      1185      1467      1468
 -1       286    8    0    1
 -2        67       224       225      1465      1469      1467
 -1       287    8    0    1
 -2        69        68       226      1186      1470      1471
 -1       288    8    0    1
 -2        68       225       226      1468      1472      1470
 -1       289    8    0    1
 -2        70        69       227      1187      1473      1474
 -1       290    8    0    1
 -2        69       226       227      1471      1475      1473
 -1       291    8    0    1
 -2        71        70       228      1188      1476      1477
 -1       292    8    0    1
 -2        70       227       228      1474      1478      1476
 -1       293    8    0    1
 -2         4        71       136      1189      1479      1256
 -1       294    8    0    1
 -2       136        71       228      1479      1477      1480
 -1       295    8    0    1
 -2        72        73       229      1191      1481      1482
 -1       296    8    0    1
 -2        72       229       180      1482      1483      1335
 -1       297    8    0    1
 -2        73        74       230      1192      1484      1485
 -1       298    8    0    1
 -2        73       230       229      1485      1486      1481
 -1       299    8    0    1
 -2        74        75       231      1193      1487      1488
 -1       300    8    0    1
 -2        74       231       230      1488      1489      1484
 -1       301    8    0    1
 -2        75        76       232      1194      1490      1491
 -1       302    8    0    1
 -2        75       232       231      1491      1492      1487
 -1       303    8    0    1
 -2        76        77       233      1195      1493      1494
 -1       304    8    0    1
 -2        76       233       232      1494      1495      1490
 -1       305    8    0    1
 -2        77        78       234      1196      1496      1497
 -1       306    8    0    1
 -2        77       234       233      1497      1498      1493
 -1       307    8    0    1
 -2        78        79       235      1197      1499      1500
 -1       308    8    0    1
 -2        78       235       234      1500      1501      1496
 -1       309    8    0    1
 -2        79        80       236      1198      1502      1503
 -1       310    8    0    1
 -2        79       236       235      1503      1504      1499
 -1       311    8    0    1
 -2        80        81       237      1199      1505      1506
 -1       312    8    0    1
 -2        80       237       236      1506      1507      1502
 -1       313    8    0    1
 -2        81        82       238      1200      1508      1509
 -1       314    8    0    1
 -2        81       238       237      1509      1510      1505
 -1       315    8    0    1
 -2        82        83       239      1201      1511      1512
 -1       316    8    0    1
 -2        82       239       238      1512      1513      1508
 -1       317    8    0    1
 -2        83        84       240      1202      1514      1515
 -1       318    8    0    1
 -2        83       240       239      1515      1516      1511
 -1       319    8    0    1
 -2        84        85       241      1203      1517      1518
 -1       320    8    0    1
 -2        84       241       240      1518      1519      1514
 -1       321    8    0    1
 -2        85        86       242      1204      1520      1521
 -1       322    8    0    1
 -2        85       242       241      1521      1522      1517
 -1       323    8    0    1
 -2        86        87       243      1205      1523      1524
 -1       324    8    0    1
 -2        86       243       242      1524      1525      1520
 -1       325    8    0    1
 -2        87        88       244      1206      1526      1527
 -1       326    8    0    1
 -2        87       244       243      1527      1528      1523
 -1       327    8    0    1
 -2        88        89       245      1207      1529      1530
 -1       328    8    0    1
 -2        88       245       244      1530      1531      1526
 -1       329    8    0    1
 -2        89        90       246      1208      1532      1533
 -1       330    8    0    1
 -2        89       246       245      1533      1534      1529
 -1       331    8    0    1
 -2        90        91       247      1209      1535      1536
 -1       332    8    0    1
 -2        90       247       246      1536      1537      1532
 -1       333    8    0    1
 -2        91        92       248      1210      1538      1539
 -1       334    8    0    1
 -2        91       248       247      1539      1540      1535
 -1       335    8    0    1
 -2        92        93       249      1211      1541      1542
 -1       336    8    0    1
 -2        92       249       248      1542      1543      1538
 -1       337    8    0    1
 -2        93        94       250      1212      1544      1545
 -1       338    8    0    1
 -2        93       250       249      1545      1546      1541
 -1       339    8    0    1
 -2        94        95       251      1213      1547      1548
 -1       340    8    0    1
 -2        94       251       250      1548      1549      1544
 -1       341    8    0    1
 -2        95        96       252      1214      1550      1551
 -1       342    8    0    1
 -2        95       252       251      1551      1552      1547
 -1       343    8    0    1
 -2        96        97       253      1215      1553      1554
 -1       344    8    0    1
 -2        96       253       252      1554      1555      1550
 -1       345    8    0    1
 -2        97        98       254      1216      1556      1557
 -1       346    8    0    1
 -2        97       254       253      1557      1558      1553
 -1       347    8    0    1
 -2        98        99       255      1217      1559      1560
 -1       348    8    0    1
 -2        98       255       254      1560      1561      1556
 -1       349    8    0    1
 -2        99       100       256      1218      1562      1563
 -1       350    8    0    1
 -2        99       256       255      1563      1564      1559
 -1       351    8    0    1
 -2       100       101       257      1219      1565      1566
 -1       352    8    0    1
 -2       100       257       256      1566      1567      1562
 -1       353    8    0    1
 -2       101       102       258      1220      1568      1569
 -1       354    8    0    1
 -2       101       258       257      1569      1570      1565
 -1       355    8    0    1
 -2       102       103       259      1221      1571      1572
 -1       356    8    0    1
 -2       102       259       258      1572      1573      1568
 -1       357    8    0    1
 -2       103       104       260      1222      1574      1575
 -1       358    8    0    1
 -2       103       260       259      1575      1576      1571
 -1       359    8    0    1
 -2       104       105       261      1223      1577      1578
 -1       360    8    0    1
 -2       104       261       260      1578      1579      1574
 -1       361    8    0    1
 -2       105       106       262      1224      1580      1581
 -1       362    8    0    1
 -2       105       262       261      1581      1582      1577
 -1       363    8    0    1
 -2       106       107       263      1225      1583      1584
 -1       364    8    0    1
 -2       106       263       262      1584      1585      1580
 -1       365    8    0    1
 -2       107       108       264      1226      1586      1587
 -1       366    8    0    1
 -2       107       264       263      1587      1588      1583
 -1       367    8    0    1
 -2       108       109       265      1227      1589      1590
 -1       368    8    0    1
 -2       108       265       264      1590      1591      1586
 -1       369    8    0    1
 -2       109       110       266      1228      1592      1593
 -1       370    8    0    1
 -2       109       266       265      1593      1594      1589
 -1       371    8    0    1
 -2       110       111       267      1229      1595      1596
 -1       372    8    0    1
 -2       110       267       266      1596      1597      1592
 -1       373    8    0    1
 -2       111       112       268      1230      1598      1599
 -1       374    8    0    1
 -2       111       268       267      1599      1600      1595
 -1       375    8    0    1
 -2       112       113       269      1231      1601      1602
 -1       376    8    0    1
 -2       112       269       268      1602      1603      1598
 -1       377    8    0    1
 -2       113       114       270      1232      1604      1605
 -1       378    8    0    1
 -2       113       270       269      1605      1606      1601
 -1       379    8    0    1
 -2       114       115       271      1233      1607      1608
 -1       380    8    0    1
 -2       114       271       270      1608      1609      1604
 -1       381    8    0    1
 -2       115       116       272      1234      1610      1611
 -1       382    8    0    1
 -2       115       272       271      1611      1612      1607
 -1       383    8    0    1
 -2       116       117       273      1235      1613      1614
 -1       384    8    0    1
 -2       116       273       272      1614      1615      1610
 -1       385    8    0    1
 -2       117       118       274      1236      1616      1617
 -1       386    8    0    1
 -2       117       274       273      1617      1618      1613
 -1       387    8    0    1
 -2       118       119       275      1237      1619      1620
 -1       388    8    0    1
 -2       118       275       274      1620      1621      1616
 -1       389    8    0    1
 -2       119       120       276      1238      1622      1623
 -1       390    8    0    1
 -2       119       276       275      1623      1624      1619
 -1       391    8    0    1
 -2       120         3       121      1239      1240      1625
 -1       392    8    0    1
 -2       121       122       277      1241      1626      1627
 -1       393    8    0    1
 -2       122       123       278      1242      1628      1629
 -1       394    8    0    1
 -2       122       278       277      1629      1630      1626
 -1       395    8    0    1
 -2       123       124       279      1243      1631      1632
 -1       396    8    0    1
 -2       123       279       278      1632      1633      1628
 -1       397    8    0    1
 -2       124       125       280      1244      1634      1635
 -1       398    8    0    1
 -2       124       280       279      1635      1636      1631
 -1       399    8    0    1
 -2       125       126       281      1245      1637      1638
 -1       400    8    0    1
 -2       125       281       280      1638      1639      1634
 -1       401    8    0    1
 -2       126       127       282      1246      1640      1641
 -1       402    8    0    1
 -2       126       282       281      1641      1642      1637
 -1       403    8    0    1
 -2       127       128       283      1247      1643      1644
 -1       404    8    0    1
 -2       127       283       282      1644      1645      1640
 -1       405    8    0    1
 -2       128       129       284      1248      1646      1647
 -1       406    8    0    1
 -2       128       284       283      1647      1648      1643
 -1       407    8    0    1
 -2       129       130       285      1249      1649      1650
 -1       408    8    0    1
 -2       129       285       284      1650      1651      1646
 -1       409    8    0    1
 -2       130       131       286      1250      1652      1653
 -1       410    8    0    1
 -2       130       286       285      1653      1654      1649
 -1       411    8    0    1
 -2       131       132       287      1251      1655      1656
 -1       412    8    0    1
 -2       131       287       286      1656      1657      1652
 -1       413    8    0    1
 -2       132       133       288      1252      1658      1659
 -1       414    8    0    1
 -2       132       288       287      1659      1660      1655
 -1       415    8    0    1
 -2       133       134       289      1253      1661      1662
 -1       416    8    0    1
 -2       133       289       288      1662      1663      1658
 -1       417    8    0    1
 -2       134       135       290      1254      1664      1665
 -1       418    8    0    1
 -2       134       290       289      1665      1666      1661
 -1       419    8    0    1
 -2       135       136       291      1255      1667      1668
 -1       420    8    0    1
 -2       290       135       291      1664      1668      1669
 -1       421    8    0    1
 -2       136       228       291      1480      1670      1667
 -1       422    8    0    1
 -2         2       137       292      1257      1671      1672
 -1       423    8    0    1
 -2       137       138       293      1258      1673      1674
 -1       424    8    0    1
 -2       138       139       294      1259      1675      1676
 -1       425    8    0    1
 -2       139       140       295      1260      1677      1678
 -1       426    8    0    1
 -2       140       141       296      1261      1679      1680
 -1       427    8    0    1
 -2       141       142       297      1262      1681      1682
 -1       428    8    0    1
 -2       142       143       298      1263      1683      1684
 -1       429    8    0    1
 -2       143       144       299      1264      1685      1686
 -1       430    8    0    1
 -2       144       145       300      1265      1687      1688
 -1       431    8    0    1
 -2       145       146       301      1266      1689      1690
 -1       432    8    0    1
 -2       146       147       302      1267      1691      1692
 -1       433    8    0    1
 -2       147       148       303      1268      1693      1694
 -1       434    8    0    1
 -2       148       149       304      1269      1695      1696
 -1       435    8    0    1
 -2       149       150       305      1270      1697      1698
 -1       436    8    0    1
 -2       150       151       306      1271      1699      1700
 -1       437    8    0    1
 -2       151       152       307      1272      1701      1702
 -1       438    8    0    1
 -2       152       153       308      1273      1703      1704
 -1       439    8    0    1
 -2       153       154       309      1274      1705      1706
 -1       440    8    0    1
 -2       154       155       310      1275      1707      1708
 -1       441    8    0    1
 -2       155         1       311      1276      1709      1710
 -1       442    8    0    1
 -2         1       156       312      1277      1711      1712
 -1       443    8    0    1
 -2       156       157       313      1278      1713      1714
 -1       444    8    0    1
 -2       157       158       314      1279      1715      1716
 -1       445    8    0    1
 -2       158       159       315      1280      1717      1718
 -1       446    8    0    1
 -2       159       160       316      1281      1719      1720
 -1       447    8    0    1
 -2       160       161       317      1282      1721      1722
 -1       448    8    0    1
 -2       161       162       318      1283      1723      1724
 -1       449    8    0    1
 -2       162       163       319      1284      1725      1726
 -1       450    8    0    1
 -2       163       164       320      1285      1727      1728
 -1       451    8    0    1
 -2       164         2       321      1286      1729      1730
 -1       452    8    0    1
 -2       295       140       296      1677      1680      1731
 -1       453    8    0    1
 -2       294       139       295      1675      1678      1732
 -1       454    8    0    1
 -2       120       121       276      1625      1733      1622
 -1       455    8    0    1
 -2       121       277       276      1627      1734      1733
 -1       456    8    0    1
 -2       292       137       293      1671      1674      1735
 -1       457    8    0    1
 -2       293       138       294      1673      1676      1736
 -1       458    8    0    1
 -2         2       292       321      1672      1737      1729
 -1       459    8    0    1
 -2       141       297       296      1682      1738      1679
 -1       460    8    0    1
 -2       142       298       297      1684      1739      1681
 -1       461    8    0    1
 -2       143       299       298      1686      1740      1683
 -1       462    8    0    1
 -2       144       300       299      1688      1741      1685
 -1       463    8    0    1
 -2       145       301       300      1690      1742      1687
 -1       464    8    0    1
 -2       146       302       301      1692      1743      1689
 -1       465    8    0    1
 -2       147       303       302      1694      1744      1691
 -1       466    8    0    1
 -2       148       304       303      1696      1745      1693
 -1       467    8    0    1
 -2       149       305       304      1698      1746      1695
 -1       468    8    0    1
 -2       150       306       305      1700      1747      1697
 -1       469    8    0    1
 -2       151       307       306      1702      1748      1699
 -1       470    8    0    1
 -2       152       308       307      1704      1749      1701
 -1       471    8    0    1
 -2       153       309       308      1706      1750      1703
 -1       472    8    0    1
 -2       154       310       309      1708      1751      1705
 -1       473    8    0    1
 -2       155       311       310      1710      1752      1707
 -1       474    8    0    1
 -2         1       312       311      1712      1753      1709
 -1       475    8    0    1
 -2       156       313       312      1714      1754      1711
 -1       476    8    0    1
 -2       157       314       313      1716      1755      1713
 -1       477    8    0    1
 -2       158       315       314      1718      1756      1715
 -1       478    8    0    1
 -2       159       316       315      1720      1757      1717
 -1       479    8    0    1
 -2       160       317       316      1722      1758      1719
 -1       480    8    0    1
 -2       161       318       317      1724      1759      1721
 -1       481    8    0    1
 -2       162       319       318      1726      1760      1723
 -1       482    8    0    1
 -2       163       320       319      1728      1761      1725
 -1       483    8    0    1
 -2       164       321       320      1730      1762      1727
 -1       484    8    0    1
 -2        23         7       165      1287      1289      1763
 -1       485    8    0    1
 -2       166       167       322      1295      1764      1765
 -1       486    8    0    1
 -2       165       166       323      1292      1766      1767
 -1       487    8    0    1
 -2       166       322       323      1765      1768      1766
 -1       488    8    0    1
 -2       168       169       324      1301      1769      1770
 -1       489    8    0    1
 -2       169       170       325      1304      1771      1772
 -1       490    8    0    1
 -2       169       325       324      1772      1773      1769
 -1       491    8    0    1
 -2       170       171       326      1307      1774      1775
 -1       492    8    0    1
 -2       170       326       325      1775      1776      1771
 -1       493    8    0    1
 -2       171       172       327      1310      1777      1778
 -1       494    8    0    1
 -2       171       327       326      1778      1779      1774
 -1       495    8    0    1
 -2       172       173       328      1313      1780      1781
 -1       496    8    0    1
 -2       172       328       327      1781      1782      1777
 -1       497    8    0    1
 -2       173       174       329      1316      1783      1784
 -1       498    8    0    1
 -2       173       329       328      1784      1785      1780
 -1       499    8    0    1
 -2       174       175       330      1319      1786      1787
 -1       500    8    0    1
 -2       174       330       329      1787      1788      1783
 -1       501    8    0    1
 -2       175       176       331      1322      1789      1790
 -1       502    8    0    1
 -2       175       331       330      1790      1791      1786
 -1       503    8    0    1
 -2       176       177       332      1325      1792      1793
 -1       504    8    0    1
 -2       176       332       331      1793      1794      1789
 -1       505    8    0    1
 -2       177       178       333      1328      1795      1796
 -1       506    8    0    1
 -2       177       333       332      1796      1797      1792
 -1       507    8    0    1
 -2       178       179       334      1331      1798      1799
 -1       508    8    0    1
 -2       178       334       333      1799      1800      1795
 -1       509    8    0    1
 -2       179       180       335      1334      1801      1802
 -1       510    8    0    1
 -2       334       179       335      1798      1802      1803
 -1       511    8    0    1
 -2       180       229       335      1483      1804      1801
 -1       512    8    0    1
 -2       181        23       165      1336      1763      1805
 -1       513    8    0    1
 -2       229       230       336      1486      1806      1807
 -1       514    8    0    1
 -2       229       336       335      1807      1808      1804
 -1       515    8    0    1
 -2       181       165       323      1805      1767      1809
 -1       516    8    0    1
 -2       183       182       337      1343      1810      1811
 -1       517    8    0    1
 -2       184       183       338      1346      1812      1813
 -1       518    8    0    1
 -2       183       337       338      1811      1814      1812
 -1       519    8    0    1
 -2       185       184       339      1349      1815      1816
 -1       520    8    0    1
 -2       184       338       339      1813      1817      1815
 -1       521    8    0    1
 -2       186       185       340      1352      1818      1819
 -1       522    8    0    1
 -2       185       339       340      1816      1820      1818
 -1       523    8    0    1
 -2       187       186       341      1355      1821      1822
 -1       524    8    0    1
 -2       186       340       341      1819      1823      1821
 -1       525    8    0    1
 -2       188       187       342      1358      1824      1825
 -1       526    8    0    1
 -2       187       341       342      1822      1826      1824
 -1       527    8    0    1
 -2       189       188       343      1361      1827      1828
 -1       528    8    0    1
 -2       188       342       343      1825      1829      1827
 -1       529    8    0    1
 -2       190       189       344      1364      1830      1831
 -1       530    8    0    1
 -2       189       343       344      1828      1832      1830
 -1       531    8    0    1
 -2       191       190       345      1367      1833      1834
 -1       532    8    0    1
 -2       190       344       345      1831      1835      1833
 -1       533    8    0    1
 -2       192       191       346      1370      1836      1837
 -1       534    8    0    1
 -2       191       345       346      1834      1838      1836
 -1       535    8    0    1
 -2       193       192       347      1373      1839      1840
 -1       536    8    0    1
 -2       192       346       347      1837      1841      1839
 -1       537    8    0    1
 -2       194       193       348      1376      1842      1843
 -1       538    8    0    1
 -2       193       347       348      1840      1844      1842
 -1       539    8    0    1
 -2       195       194       349      1379      1845      1846
 -1       540    8    0    1
 -2       194       348       349      1843      1847      1845
 -1       541    8    0    1
 -2       196       195       350      1382      1848      1849
 -1       542    8    0    1
 -2       195       349       350      1846      1850      1848
 -1       543    8    0    1
 -2       197       196       351      1385      1851      1852
 -1       544    8    0    1
 -2       196       350       351      1849      1853      1851
 -1       545    8    0    1
 -2       198       197       352      1388      1854      1855
 -1       546    8    0    1
 -2       197       351       352      1852      1856      1854
 -1       547    8    0    1
 -2       199       198       353      1391      1857      1858
 -1       548    8    0    1
 -2       198       352       353      1855      1859      1857
 -1       549    8    0    1
 -2       200       199       354      1394      1860      1861
 -1       550    8    0    1
 -2       199       353       354      1858      1862      1860
 -1       551    8    0    1
 -2       201       200       355      1397      1863      1864
 -1       552    8    0    1
 -2       200       354       355      1861      1865      1863
 -1       553    8    0    1
 -2       202       201       356      1400      1866      1867
 -1       554    8    0    1
 -2       201       355       356      1864      1868      1866
 -1       555    8    0    1
 -2       203       202       357      1403      1869      1870
 -1       556    8    0    1
 -2       202       356       357      1867      1871      1869
 -1       557    8    0    1
 -2       204       203       358      1406      1872      1873
 -1       558    8    0    1
 -2       203       357       358      1870      1874      1872
 -1       559    8    0    1
 -2       205       204       359      1409      1875      1876
 -1       560    8    0    1
 -2       204       358       359      1873      1877      1875
 -1       561    8    0    1
 -2       206       205       360      1412      1878      1879
 -1       562    8    0    1
 -2       205       359       360      1876      1880      1878
 -1       563    8    0    1
 -2       207       206       361      1415      1881      1882
 -1       564    8    0    1
 -2       206       360       361      1879      1883      1881
 -1       565    8    0    1
 -2       208       207       362      1418      1884      1885
 -1       566    8    0    1
 -2       207       361       362      1882      1886      1884
 -1       567    8    0    1
 -2       209       208       363      1421      1887      1888
 -1       568    8    0    1
 -2       208       362       363      1885      1889      1887
 -1       569    8    0    1
 -2       210       209       364      1424      1890      1891
 -1       570    8    0    1
 -2       209       363       364      1888      1892      1890
 -1       571    8    0    1
 -2       211       210       365      1427      1893      1894
 -1       572    8    0    1
 -2       210       364       365      1891      1895      1893
 -1       573    8    0    1
 -2       212       211       366      1430      1896      1897
 -1       574    8    0    1
 -2       211       365       366      1894      1898      1896
 -1       575    8    0    1
 -2       213       212       367      1433      1899      1900
 -1       576    8    0    1
 -2       212       366       367      1897      1901      1899
 -1       577    8    0    1
 -2       214       213       368      1436      1902      1903
 -1       578    8    0    1
 -2       213       367       368      1900      1904      1902
 -1       579    8    0    1
 -2       215       214       369      1439      1905      1906
 -1       580    8    0    1
 -2       214       368       369      1903      1907      1905
 -1       581    8    0    1
 -2       216       215       370      1442      1908      1909
 -1       582    8    0    1
 -2       215       369       370      1906      1910      1908
 -1       583    8    0    1
 -2       217       216       371      1445      1911      1912
 -1       584    8    0    1
 -2       216       370       371      1909      1913      1911
 -1       585    8    0    1
 -2       218       217       372      1448      1914      1915
 -1       586    8    0    1
 -2       217       371       372      1912      1916      1914
 -1       587    8    0    1
 -2       219       218       373      1451      1917      1918
 -1       588    8    0    1
 -2       218       372       373      1915      1919      1917
 -1       589    8    0    1
 -2       220       219       374      1454      1920      1921
 -1       590    8    0    1
 -2       219       373       374      1918      1922      1920
 -1       591    8    0    1
 -2       221       220       375      1457      1923      1924
 -1       592    8    0    1
 -2       220       374       375      1921      1925      1923
 -1       593    8    0    1
 -2       222       221       376      1460      1926      1927
 -1       594    8    0    1
 -2       221       375       376      1924      1928      1926
 -1       595    8    0    1
 -2       223       222       377      1463      1929      1930
 -1       596    8    0    1
 -2       222       376       377      1927      1931      1929
 -1       597    8    0    1
 -2       224       223       378      1466      1932      1933
 -1       598    8    0    1
 -2       223       377       378      1930      1934      1932
 -1       599    8    0    1
 -2       225       224       379      1469      1935      1936
 -1       600    8    0    1
 -2       224       378       379      1933      1937      1935
 -1       601    8    0    1
 -2       226       225       380      1472      1938      1939
 -1       602    8    0    1
 -2       225       379       380      1936      1940      1938
 -1       603    8    0    1
 -2       227       226       381      1475      1941      1942
 -1       604    8    0    1
 -2       226       380       381      1939      1943      1941
 -1       605    8    0    1
 -2       228       227       382      1478      1944      1945
 -1       606    8    0    1
 -2       291       228       382      1670      1945      1946
 -1       607    8    0    1
 -2       227       381       382      1942      1947      1944
 -1       608    8    0    1
 -2       230       231       383      1489      1948      1949
 -1       609    8    0    1
 -2       230       383       336      1949      1950      1806
 -1       610    8    0    1
 -2       231       232       384      1492      1951      1952
 -1       611    8    0    1
 -2       231       384       383      1952      1953      1948
 -1       612    8    0    1
 -2       232       233       385      1495      1954      1955
 -1       613    8    0    1
 -2       232       385       384      1955      1956      1951
 -1       614    8    0    1
 -2       233       234       386      1498      1957      1958
 -1       615    8    0    1
 -2       233       386       385      1958      1959      1954
 -1       616    8    0    1
 -2       234       235       387      1501      1960      1961
 -1       617    8    0    1
 -2       234       387       386      1961      1962      1957
 -1       618    8    0    1
 -2       235       236       388      1504      1963      1964
 -1       619    8    0    1
 -2       235       388       387      1964      1965      1960
 -1       620    8    0    1
 -2       236       237       389      1507      1966      1967
 -1       621    8    0    1
 -2       236       389       388      1967      1968      1963
 -1       622    8    0    1
 -2       237       238       390      1510      1969      1970
 -1       623    8    0    1
 -2       237       390       389      1970      1971      1966
 -1       624    8    0    1
 -2       238       239       391      1513      1972      1973
 -1       625    8    0    1
 -2       238       391       390      1973      1974      1969
 -1       626    8    0    1
 -2       239       240       392      1516      1975      1976
 -1       627    8    0    1
 -2       239       392       391      1976      1977      1972
 -1       628    8    0    1
 -2       240       241       393      1519      1978      1979
 -1       629    8    0    1
 -2       240       393       392      1979      1980      1975
 -1       630    8    0    1
 -2       241       242       394      1522      1981      1982
 -1       631    8    0    1
 -2       241       394       393      1982      1983      1978
 -1       632    8    0    1
 -2       242       243       395      1525      1984      1985
 -1       633    8    0    1
 -2       242       395       394      1985      1986      1981
 -1       634    8    0    1
 -2       243       244       396      1528      1987      1988
 -1       635    8    0    1
 -2       243       396       395      1988      1989      1984
 -1       636    8    0    1
 -2       244       245       397      1531      1990      1991
 -1       637    8    0    1
 -2       244       397       396      1991      1992      1987
 -1       638    8    0    1
 -2       245       246       398      1534      1993      1994
 -1       639    8    0    1
 -2       245       398       397      1994      1995      1990
 -1       640    8    0    1
 -2       246       247       399      1537      1996      1997
 -1       641    8    0    1
 -2       246       399       398      1997      1998      1993
 -1       642    8    0    1
 -2       247       248       400      1540      1999      2000
 -1       643    8    0    1
 -2       247       400       399      2000      2001      1996
 -1       644    8    0    1
 -2       248       249       401      1543      2002      2003
 -1       645    8    0    1
 -2       248       401       400      2003      2004      1999
 -1       646    8    0    1
 -2       249       250       402      1546      2005      2006
 -1       647    8    0    1
 -2       249       402       401      2006      2007      2002
 -1       648    8    0    1
 -2       250       251       403      1549      2008      2009
 -1       649    8    0    1
 -2       250       403       402      2009      2010      2005
 -1       650    8    0    1
 -2       251       252       404      1552      2011      2012
 -1       651    8    0    1
 -2       251       404       403      2012      2013      2008
 -1       652    8    0    1
 -2       252       253       405      1555      2014      2015
 -1       653    8    0    1
 -2       252       405       404      2015      2016      2011
 -1       654    8    0    1
 -2       253       254       406      1558      2017      2018
 -1       655    8    0    1
 -2       253       406       405      2018      2019      2014
 -1       656    8    0    1
 -2       254       255       407      1561      2020      2021
 -1       657    8    0    1
 -2       254       407       406      2021      2022      2017
 -1       658    8    0    1
 -2       255       256       408      1564      2023      2024
 -1       659    8    0    1
 -2       255       408       407      2024      2025      2020
 -1       660    8    0    1
 -2       256       257       409      1567      2026      2027
 -1       661    8    0    1
 -2       256       409       408      2027      2028      2023
 -1       662    8    0    1
 -2       257       258       410      1570      2029      2030
 -1       663    8    0    1
 -2       257       410       409      2030      2031      2026
 -1       664    8    0    1
 -2       258       259       411      1573      2032      2033
 -1       665    8    0    1
 -2       258       411       410      2033      2034      2029
 -1       666    8    0    1
 -2       259       260       412      1576      2035      2036
 -1       667    8    0    1
 -2       259       412       411      2036      2037      2032
 -1       668    8    0    1
 -2       260       261       413      1579      2038      2039
 -1       669    8    0    1
 -2       260       413       412      2039      2040      2035
 -1       670    8    0    1
 -2       261       262       414      1582      2041      2042
 -1       671    8    0    1
 -2       261       414       413      2042      2043      2038
 -1       672    8    0    1
 -2       262       263       415      1585      2044      2045
 -1       673    8    0    1
 -2       262       415       414      2045      2046      2041
 -1       674    8    0    1
 -2       263       264       416      1588      2047      2048
 -1       675    8    0    1
 -2       263       416       415      2048      2049      2044
 -1       676    8    0    1
 -2       264       265       417      1591      2050      2051
 -1       677    8    0    1
 -2       264       417       416      2051      2052      2047
 -1       678    8    0    1
 -2       265       266       418      1594      2053      2054
 -1       679    8    0    1
 -2       265       418       417      2054      2055      2050
 -1       680    8    0    1
 -2       266       267       419      1597      2056      2057
 -1       681    8    0    1
 -2       266       419       418      2057      2058      2053
 -1       682    8    0    1
 -2       267       268       420      1600      2059      2060
 -1       683    8    0    1
 -2       267       420       419      2060      2061      2056
 -1       684    8    0    1
 -2       268       269       421      1603      2062      2063
 -1       685    8    0    1
 -2       268       421       420      2063      2064      2059
 -1       686    8    0    1
 -2       269       270       422      1606      2065      2066
 -1       687    8    0    1
 -2       269       422       421      2066      2067      2062
 -1       688    8    0    1
 -2       270       271       423      1609      2068      2069
 -1       689    8    0    1
 -2       270       423       422      2069      2070      2065
 -1       690    8    0    1
 -2       271       272       424      1612      2071      2072
 -1       691    8    0    1
 -2       271       424       423      2072      2073      2068
 -1       692    8    0    1
 -2       272       273       425      1615      2074      2075
 -1       693    8    0    1
 -2       272       425       424      2075      2076      2071
 -1       694    8    0    1
 -2       273       274       426      1618      2077      2078
 -1       695    8    0    1
 -2       273       426       425      2078      2079      2074
 -1       696    8    0    1
 -2       274       275       427      1621      2080      2081
 -1       697    8    0    1
 -2       274       427       426      2081      2082      2077
 -1       698    8    0    1
 -2       275       276       428      1624      2083      2084
 -1       699    8    0    1
 -2       427       275       428      2080      2084      2085
 -1       700    8    0    1
 -2       276       277       428      1734      2086      2083
 -1       701    8    0    1
 -2       279       280       429      1636      2087      2088
 -1       702    8    0    1
 -2       278       279       430      1633      2089      2090
 -1       703    8    0    1
 -2       279       429       430      2088      2091      2089
 -1       704    8    0    1
 -2       277       278       431      1630      2092      2093
 -1       705    8    0    1
 -2       428       277       431      2086      2093      2094
 -1       706    8    0    1
 -2       278       430       431      2090      2095      2092
 -1       707    8    0    1
 -2       280       281       432      1639      2096      2097
 -1       708    8    0    1
 -2       280       432       429      2097      2098      2087
 -1       709    8    0    1
 -2       281       282       433      1642      2099      2100
 -1       710    8    0    1
 -2       281       433       432      2100      2101      2096
 -1       711    8    0    1
 -2       282       283       434      1645      2102      2103
 -1       712    8    0    1
 -2       282       434       433      2103      2104      2099
 -1       713    8    0    1
 -2       283       284       435      1648      2105      2106
 -1       714    8    0    1
 -2       283       435       434      2106      2107      2102
 -1       715    8    0    1
 -2       284       285       436      1651      2108      2109
 -1       716    8    0    1
 -2       284       436       435      2109      2110      2105
 -1       717    8    0    1
 -2       285       286       437      1654      2111      2112
 -1       718    8    0    1
 -2       285       437       436      2112      2113      2108
 -1       719    8    0    1
 -2       286       287       438      1657      2114      2115
 -1       720    8    0    1
 -2       286       438       437      2115      2116      2111
 -1       721    8    0    1
 -2       287       288       439      1660      2117      2118
 -1       722    8    0    1
 -2       287       439       438      2118      2119      2114
 -1       723    8    0    1
 -2       288       289       440      1663      2120      2121
 -1       724    8    0    1
 -2       288       440       439      2121      2122      2117
 -1       725    8    0    1
 -2       289       290       441      1666      2123      2124
 -1       726    8    0    1
 -2       289       441       440      2124      2125      2120
 -1       727    8    0    1
 -2       293       294       442      1736      2126      2127
 -1       728    8    0    1
 -2       321       292       443      1737      2128      2129
 -1       729    8    0    1
 -2       292       293       444      1735      2130      2131
 -1       730    8    0    1
 -2       292       444       443      2131      2132      2128
 -1       731    8    0    1
 -2       294       295       445      1732      2133      2134
 -1       732    8    0    1
 -2       294       445       442      2134      2135      2126
 -1       733    8    0    1
 -2       295       296       446      1731      2136      2137
 -1       734    8    0    1
 -2       167       168       447      1298      2138      2139
 -1       735    8    0    1
 -2       322       167       447      1764      2139      2140
 -1       736    8    0    1
 -2       168       324       447      1770      2141      2138
 -1       737    8    0    1
 -2       297       298       448      1739      2142      2143
 -1       738    8    0    1
 -2       298       299       449      1740      2144      2145
 -1       739    8    0    1
 -2       299       300       450      1741      2146      2147
 -1       740    8    0    1
 -2       300       301       451      1742      2148      2149
 -1       741    8    0    1
 -2       301       302       452      1743      2150      2151
 -1       742    8    0    1
 -2       301       452       451      2151      2152      2148
 -1       743    8    0    1
 -2       302       303       453      1744      2153      2154
 -1       744    8    0    1
 -2       303       304       454      1745      2155      2156
 -1       745    8    0    1
 -2       304       305       455      1746      2157      2158
 -1       746    8    0    1
 -2       305       306       456      1747      2159      2160
 -1       747    8    0    1
 -2       306       307       457      1748      2161      2162
 -1       748    8    0    1
 -2       307       308       458      1749      2163      2164
 -1       749    8    0    1
 -2       308       309       459      1750      2165      2166
 -1       750    8    0    1
 -2       309       310       460      1751      2167      2168
 -1       751    8    0    1
 -2       309       460       459      2168      2169      2165
 -1       752    8    0    1
 -2       310       311       461      1752      2170      2171
 -1       753    8    0    1
 -2       311       312       462      1753      2172      2173
 -1       754    8    0    1
 -2       312       313       463      1754      2174      2175
 -1       755    8    0    1
 -2       312       463       462      2175      2176      2172
 -1       756    8    0    1
 -2       313       314       464      1755      2177      2178
 -1       757    8    0    1
 -2       314       315       465      1756      2179      2180
 -1       758    8    0    1
 -2       314       465       464      2180      2181      2177
 -1       759    8    0    1
 -2       315       316       466      1757      2182      2183
 -1       760    8    0    1
 -2       316       317       467      1758      2184      2185
 -1       761    8    0    1
 -2       317       318       468      1759      2186      2187
 -1       762    8    0    1
 -2       318       319       469      1760      2188      2189
 -1       763    8    0    1
 -2       319       320       470      1761      2190      2191
 -1       764    8    0    1
 -2       320       321       471      1762      2192      2193
 -1       765    8    0    1
 -2       320       471       470      2193      2194      2190
 -1       766    8    0    1
 -2       296       297       472      1738      2195      2196
 -1       767    8    0    1
 -2       181       323       182      1809      2197      1340
 -1       768    8    0    1
 -2       450       300       473      2146      2198      2199
 -1       769    8    0    1
 -2       300       451       473      2149      2200      2198
 -1       770    8    0    1
 -2       297       448       472      2143      2201      2195
 -1       771    8    0    1
 -2       337       182       323      1810      2197      2202
 -1       772    8    0    1
 -2       444       293       442      2130      2127      2203
 -1       773    8    0    1
 -2       441       290       291      2123      1669      2204
 -1       774    8    0    1
 -2       295       446       445      2137      2205      2133
 -1       775    8    0    1
 -2       321       443       471      2129      2206      2192
 -1       776    8    0    1
 -2       446       296       472      2136      2196      2207
 -1       777    8    0    1
 -2       469       319       470      2188      2191      2208
 -1       778    8    0    1
 -2       468       318       469      2186      2189      2209
 -1       779    8    0    1
 -2       467       317       468      2184      2187      2210
 -1       780    8    0    1
 -2       465       315       466      2179      2183      2211
 -1       781    8    0    1
 -2       463       313       464      2174      2178      2212
 -1       782    8    0    1
 -2       460       310       461      2167      2171      2213
 -1       783    8    0    1
 -2       458       308       459      2163      2166      2214
 -1       784    8    0    1
 -2       457       307       458      2161      2164      2215
 -1       785    8    0    1
 -2       456       306       457      2159      2162      2216
 -1       786    8    0    1
 -2       455       305       456      2157      2160      2217
 -1       787    8    0    1
 -2       454       304       455      2155      2158      2218
 -1       788    8    0    1
 -2       452       302       453      2150      2154      2219
 -1       789    8    0    1
 -2       448       298       449      2142      2145      2220
 -1       790    8    0    1
 -2       449       299       450      2144      2147      2221
 -1       791    8    0    1
 -2       453       303       454      2153      2156      2222
 -1       792    8    0    1
 -2       461       311       462      2170      2173      2223
 -1       793    8    0    1
 -2       466       316       467      2182      2185      2224
 -1       794    8    0    1
 -2       336       383       474      1950      2225      2226
 -1       795    8    0    1
 -2       325       326       475      1776      2227      2228
 -1       796    8    0    1
 -2       324       325       476      1773      2229      2230
 -1       797    8    0    1
 -2       325       475       476      2228      2231      2229
 -1       798    8    0    1
 -2       327       328       477      1782      2232      2233
 -1       799    8    0    1
 -2       328       329       478      1785      2234      2235
 -1       800    8    0    1
 -2       328       478       477      2235      2236      2232
 -1       801    8    0    1
 -2       329       330       479      1788      2237      2238
 -1       802    8    0    1
 -2       329       479       478      2238      2239      2234
 -1       803    8    0    1
 -2       330       331       480      1791      2240      2241
 -1       804    8    0    1
 -2       330       480       479      2241      2242      2237
 -1       805    8    0    1
 -2       331       332       481      1794      2243      2244
 -1       806    8    0    1
 -2       331       481       480      2244      2245      2240
 -1       807    8    0    1
 -2       332       333       482      1797      2246      2247
 -1       808    8    0    1
 -2       332       482       481      2247      2248      2243
 -1       809    8    0    1
 -2       383       384       483      1953      2249      2250
 -1       810    8    0    1
 -2       383       483       474      2250      2251      2225
 -1       811    8    0    1
 -2       338       337       484      1814      2252      2253
 -1       812    8    0    1
 -2       339       338       485      1817      2254      2255
 -1       813    8    0    1
 -2       338       484       485      2253      2256      2254
 -1       814    8    0    1
 -2       340       339       486      1820      2257      2258
 -1       815    8    0    1
 -2       339       485       486      2255      2259      2257
 -1       816    8    0    1
 -2       341       340       487      1823      2260      2261
 -1       817    8    0    1
 -2       340       486       487      2258      2262      2260
 -1       818    8    0    1
 -2       342       341       488      1826      2263      2264
 -1       819    8    0    1
 -2       341       487       488      2261      2265      2263
 -1       820    8    0    1
 -2       343       342       489      1829      2266      2267
 -1       821    8    0    1
 -2       342       488       489      2264      2268      2266
 -1       822    8    0    1
 -2       344       343       490      1832      2269      2270
 -1       823    8    0    1
 -2       343       489       490      2267      2271      2269
 -1       824    8    0    1
 -2       345       344       491      1835      2272      2273
 -1       825    8    0    1
 -2       344       490       491      2270      2274      2272
 -1       826    8    0    1
 -2       346       345       492      1838      2275      2276
 -1       827    8    0    1
 -2       345       491       492      2273      2277      2275
 -1       828    8    0    1
 -2       347       346       493      1841      2278      2279
 -1       829    8    0    1
 -2       346       492       493      2276      2280      2278
 -1       830    8    0    1
 -2       348       347       494      1844      2281      2282
 -1       831    8    0    1
 -2       347       493       494      2279      2283      2281
 -1       832    8    0    1
 -2       349       348       495      1847      2284      2285
 -1       833    8    0    1
 -2       348       494       495      2282      2286      2284
 -1       834    8    0    1
 -2       350       349       496      1850      2287      2288
 -1       835    8    0    1
 -2       349       495       496      2285      2289      2287
 -1       836    8    0    1
 -2       351       350       497      1853      2290      2291
 -1       837    8    0    1
 -2       350       496       497      2288      2292      2290
 -1       838    8    0    1
 -2       352       351       498      1856      2293      2294
 -1       839    8    0    1
 -2       351       497       498      2291      2295      2293
 -1       840    8    0    1
 -2       353       352       499      1859      2296      2297
 -1       841    8    0    1
 -2       352       498       499      2294      2298      2296
 -1       842    8    0    1
 -2       354       353       500      1862      2299      2300
 -1       843    8    0    1
 -2       353       499       500      2297      2301      2299
 -1       844    8    0    1
 -2       355       354       501      1865      2302      2303
 -1       845    8    0    1
 -2       354       500       501      2300      2304      2302
 -1       846    8    0    1
 -2       356       355       502      1868      2305      2306
 -1       847    8    0    1
 -2       355       501       502      2303      2307      2305
 -1       848    8    0    1
 -2       357       356       503      1871      2308      2309
 -1       849    8    0    1
 -2       356       502       503      2306      2310      2308
 -1       850    8    0    1
 -2       358       357       504      1874      2311      2312
 -1       851    8    0    1
 -2       357       503       504      2309      2313      2311
 -1       852    8    0    1
 -2       359       358       505      1877      2314      2315
 -1       853    8    0    1
 -2       358       504       505      2312      2316      2314
 -1       854    8    0    1
 -2       360       359       506      1880      2317      2318
 -1       855    8    0    1
 -2       359       505       506      2315      2319      2317
 -1       856    8    0    1
 -2       361       360       507      1883      2320      2321
 -1       857    8    0    1
 -2       360       506       507      2318      2322      2320
 -1       858    8    0    1
 -2       362       361       508      1886      2323      2324
 -1       859    8    0    1
 -2       361       507       508      2321      2325      2323
 -1       860    8    0    1
 -2       363       362       509      1889      2326      2327
 -1       861    8    0    1
 -2       362       508       509      2324      2328      2326
 -1       862    8    0    1
 -2       364       363       510      1892      2329      2330
 -1       863    8    0    1
 -2       363       509       510      2327      2331      2329
 -1       864    8    0    1
 -2       365       364       511      1895      2332      2333
 -1       865    8    0    1
 -2       364       510       511      2330      2334      2332
 -1       866    8    0    1
 -2       366       365       512      1898      2335      2336
 -1       867    8    0    1
 -2       365       511       512      2333      2337      2335
 -1       868    8    0    1
 -2       367       366       513      1901      2338      2339
 -1       869    8    0    1
 -2       366       512       513      2336      2340      2338
 -1       870    8    0    1
 -2       368       367       514      1904      2341      2342
 -1       871    8    0    1
 -2       367       513       514      2339      2343      2341
 -1       872    8    0    1
 -2       369       368       515      1907      2344      2345
 -1       873    8    0    1
 -2       368       514       515      2342      2346      2344
 -1       874    8    0    1
 -2       370       369       516      1910      2347      2348
 -1       875    8    0    1
 -2       369       515       516      2345      2349      2347
 -1       876    8    0    1
 -2       371       370       517      1913      2350      2351
 -1       877    8    0    1
 -2       370       516       517      2348      2352      2350
 -1       878    8    0    1
 -2       372       371       518      1916      2353      2354
 -1       879    8    0    1
 -2       371       517       518      2351      2355      2353
 -1       880    8    0    1
 -2       373       372       519      1919      2356      2357
 -1       881    8    0    1
 -2       372       518       519      2354      2358      2356
 -1       882    8    0    1
 -2       374       373       520      1922      2359      2360
 -1       883    8    0    1
 -2       373       519       520      2357      2361      2359
 -1       884    8    0    1
 -2       375       374       521      1925      2362      2363
 -1       885    8    0    1
 -2       374       520       521      2360      2364      2362
 -1       886    8    0    1
 -2       376       375       522      1928      2365      2366
 -1       887    8    0    1
 -2       375       521       522      2363      2367      2365
 -1       888    8    0    1
 -2       377       376       523      1931      2368      2369
 -1       889    8    0    1
 -2       376       522       523      2366      2370      2368
 -1       890    8    0    1
 -2       378       377       524      1934      2371      2372
 -1       891    8    0    1
 -2       377       523       524      2369      2373      2371
 -1       892    8    0    1
 -2       379       378       525      1937      2374      2375
 -1       893    8    0    1
 -2       378       524       525      2372      2376      2374
 -1       894    8    0    1
 -2       380       379       526      1940      2377      2378
 -1       895    8    0    1
 -2       379       525       526      2375      2379      2377
 -1       896    8    0    1
 -2       381       380       527      1943      2380      2381
 -1       897    8    0    1
 -2       380       526       527      2378      2382      2380
 -1       898    8    0    1
 -2       385       386       528      1959      2383      2384
 -1       899    8    0    1
 -2       386       387       529      1962      2385      2386
 -1       900    8    0    1
 -2       386       529       528      2386      2387      2383
 -1       901    8    0    1
 -2       387       388       530      1965      2388      2389
 -1       902    8    0    1
 -2       387       530       529      2389      2390      2385
 -1       903    8    0    1
 -2       388       389       531      1968      2391      2392
 -1       904    8    0    1
 -2       388       531       530      2392      2393      2388
 -1       905    8    0    1
 -2       389       390       532      1971      2394      2395
 -1       906    8    0    1
 -2       389       532       531      2395      2396      2391
 -1       907    8    0    1
 -2       390       391       533      1974      2397      2398
 -1       908    8    0    1
 -2       390       533       532      2398      2399      2394
 -1       909    8    0    1
 -2       391       392       534      1977      2400      2401
 -1       910    8    0    1
 -2       391       534       533      2401      2402      2397
 -1       911    8    0    1
 -2       392       393       535      1980      2403      2404
 -1       912    8    0    1
 -2       392       535       534      2404      2405      2400
 -1       913    8    0    1
 -2       393       394       536      1983      2406      2407
 -1       914    8    0    1
 -2       393       536       535      2407      2408      2403
 -1       915    8    0    1
 -2       394       395       537      1986      2409      2410
 -1       916    8    0    1
 -2       394       537       536      2410      2411      2406
 -1       917    8    0    1
 -2       395       396       538      1989      2412      2413
 -1       918    8    0    1
 -2       395       538       537      2413      2414      2409
 -1       919    8    0    1
 -2       396       397       539      1992      2415      2416
 -1       920    8    0    1
 -2       396       539       538      2416      2417      2412
 -1       921    8    0    1
 -2       397       398       540      1995      2418      2419
 -1       922    8    0    1
 -2       397       540       539      2419      2420      2415
 -1       923    8    0    1
 -2       398       399       541      1998      2421      2422
 -1       924    8    0    1
 -2       398       541       540      2422      2423      2418
 -1       925    8    0    1
 -2       399       400       542      2001      2424      2425
 -1       926    8    0    1
 -2       399       542       541      2425      2426      2421
 -1       927    8    0    1
 -2       400       401       543      2004      2427      2428
 -1       928    8    0    1
 -2       400       543       542      2428      2429      2424
 -1       929    8    0    1
 -2       401       402       544      2007      2430      2431
 -1       930    8    0    1
 -2       401       544       543      2431      2432      2427
 -1       931    8    0    1
 -2       402       403       545      2010      2433      2434
 -1       932    8    0    1
 -2       402       545       544      2434      2435      2430
 -1       933    8    0    1
 -2       403       404       546      2013      2436      2437
 -1       934    8    0    1
 -2       403       546       545      2437      2438      2433
 -1       935    8    0    1
 -2       404       405       547      2016      2439      2440
 -1       936    8    0    1
 -2       404       547       546      2440      2441      2436
 -1       937    8    0    1
 -2       405       406       548      2019      2442      2443
 -1       938    8    0    1
 -2       405       548       547      2443      2444      2439
 -1       939    8    0    1
 -2       406       407       549      2022      2445      2446
 -1       940    8    0    1
 -2       406       549       548      2446      2447      2442
 -1       941    8    0    1
 -2       407       408       550      2025      2448      2449
 -1       942    8    0    1
 -2       407       550       549      2449      2450      2445
 -1       943    8    0    1
 -2       408       409       551      2028      2451      2452
 -1       944    8    0    1
 -2       408       551       550      2452      2453      2448
 -1       945    8    0    1
 -2       409       410       552      2031      2454      2455
 -1       946    8    0    1
 -2       409       552       551      2455      2456      2451
 -1       947    8    0    1
 -2       410       411       553      2034      2457      2458
 -1       948    8    0    1
 -2       410       553       552      2458      2459      2454
 -1       949    8    0    1
 -2       411       412       554      2037      2460      2461
 -1       950    8    0    1
 -2       411       554       553      2461      2462      2457
 -1       951    8    0    1
 -2       412       413       555      2040      2463      2464
 -1       952    8    0    1
 -2       412       555       554      2464      2465      2460
 -1       953    8    0    1
 -2       413       414       556      2043      2466      2467
 -1       954    8    0    1
 -2       413       556       555      2467      2468      2463
 -1       955    8    0    1
 -2       414       415       557      2046      2469      2470
 -1       956    8    0    1
 -2       414       557       556      2470      2471      2466
 -1       957    8    0    1
 -2       415       416       558      2049      2472      2473
 -1       958    8    0    1
 -2       415       558       557      2473      2474      2469
 -1       959    8    0    1
 -2       416       417       559      2052      2475      2476
 -1       960    8    0    1
 -2       416       559       558      2476      2477      2472
 -1       961    8    0    1
 -2       417       418       560      2055      2478      2479
 -1       962    8    0    1
 -2       417       560       559      2479      2480      2475
 -1       963    8    0    1
 -2       418       419       561      2058      2481      2482
 -1       964    8    0    1
 -2       418       561       560      2482      2483      2478
 -1       965    8    0    1
 -2       419       420       562      2061      2484      2485
 -1       966    8    0    1
 -2       419       562       561      2485      2486      2481
 -1       967    8    0    1
 -2       420       421       563      2064      2487      2488
 -1       968    8    0    1
 -2       420       563       562      2488      2489      2484
 -1       969    8    0    1
 -2       421       422       564      2067      2490      2491
 -1       970    8    0    1
 -2       421       564       563      2491      2492      2487
 -1       971    8    0    1
 -2       422       423       565      2070      2493      2494
 -1       972    8    0    1
 -2       422       565       564      2494      2495      2490
 -1       973    8    0    1
 -2       423       424       566      2073      2496      2497
 -1       974    8    0    1
 -2       423       566       565      2497      2498      2493
 -1       975    8    0    1
 -2       424       425       567      2076      2499      2500
 -1       976    8    0    1
 -2       424       567       566      2500      2501      2496
 -1       977    8    0    1
 -2       425       426       568      2079      2502      2503
 -1       978    8    0    1
 -2       425       568       567      2503      2504      2499
 -1       979    8    0    1
 -2       426       427       569      2082      2505      2506
 -1       980    8    0    1
 -2       426       569       568      2506      2507      2502
 -1       981    8    0    1
 -2       427       428       431      2085      2094      2508
 -1       982    8    0    1
 -2       432       433       570      2101      2509      2510
 -1       983    8    0    1
 -2       433       434       571      2104      2511      2512
 -1       984    8    0    1
 -2       433       571       570      2512      2513      2509
 -1       985    8    0    1
 -2       430       429       572      2091      2514      2515
 -1       986    8    0    1
 -2       429       432       573      2098      2516      2517
 -1       987    8    0    1
 -2       572       429       573      2514      2517      2518
 -1       988    8    0    1
 -2       432       570       573      2510      2519      2516
 -1       989    8    0    1
 -2       442       445       574      2135      2520      2521
 -1       990    8    0    1
 -2       434       435       575      2107      2522      2523
 -1       991    8    0    1
 -2       434       575       571      2523      2524      2511
 -1       992    8    0    1
 -2       435       436       576      2110      2525      2526
 -1       993    8    0    1
 -2       435       576       575      2526      2527      2522
 -1       994    8    0    1
 -2       436       437       577      2113      2528      2529
 -1       995    8    0    1
 -2       436       577       576      2529      2530      2525
 -1       996    8    0    1
 -2       437       438       578      2116      2531      2532
 -1       997    8    0    1
 -2       437       578       577      2532      2533      2528
 -1       998    8    0    1
 -2       438       439       579      2119      2534      2535
 -1       999    8    0    1
 -2       438       579       578      2535      2536      2531
 -1      1000    8    0    1
 -2       439       440       580      2122      2537      2538
 -1      1001    8    0    1
 -2       439       580       579      2538      2539      2534
 -1      1002    8    0    1
 -2       440       441       581      2125      2540      2541
 -1      1003    8    0    1
 -2       440       581       580      2541      2542      2537
 -1      1004    8    0    1
 -2       441       291       382      2204      1946      2543
 -1      1005    8    0    1
 -2       445       446       582      2205      2544      2545
 -1      1006    8    0    1
 -2       445       582       574      2545      2546      2520
 -1      1007    8    0    1
 -2       384       385       583      1956      2547      2548
 -1      1008    8    0    1
 -2       385       528       583      2384      2549      2547
 -1      1009    8    0    1
 -2       443       444       584      2132      2550      2551
 -1      1010    8    0    1
 -2       471       443       585      2206      2552      2553
 -1      1011    8    0    1
 -2       446       472       586      2207      2554      2555
 -1      1012    8    0    1
 -2       469       470       587      2208      2556      2557
 -1      1013    8    0    1
 -2       460       461       588      2213      2558      2559
 -1      1014    8    0    1
 -2       458       459       589      2214      2560      2561
 -1      1015    8    0    1
 -2       448       449       590      2220      2562      2563
 -1      1016    8    0    1
 -2       326       327       591      1779      2564      2565
 -1      1017    8    0    1
 -2       475       326       591      2227      2565      2566
 -1      1018    8    0    1
 -2       327       477       591      2233      2567      2564
 -1      1019    8    0    1
 -2       449       450       592      2221      2568      2569
 -1      1020    8    0    1
 -2       453       454       593      2222      2570      2571
 -1      1021    8    0    1
 -2       472       448       594      2201      2572      2573
 -1      1022    8    0    1
 -2       472       594       586      2573      2574      2554
 -1      1023    8    0    1
 -2       451       452       595      2152      2575      2576
 -1      1024    8    0    1
 -2       461       462       596      2223      2577      2578
 -1      1025    8    0    1
 -2       452       453       597      2219      2579      2580
 -1      1026    8    0    1
 -2       452       597       595      2580      2581      2575
 -1      1027    8    0    1
 -2       454       455       598      2218      2582      2583
 -1      1028    8    0    1
 -2       454       598       593      2583      2584      2570
 -1      1029    8    0    1
 -2       455       456       599      2217      2585      2586
 -1      1030    8    0    1
 -2       456       457       600      2216      2587      2588
 -1      1031    8    0    1
 -2       457       458       601      2215      2589      2590
 -1      1032    8    0    1
 -2       459       460       602      2169      2591      2592
 -1      1033    8    0    1
 -2       466       467       603      2224      2593      2594
 -1      1034    8    0    1
 -2       462       463       604      2176      2595      2596
 -1      1035    8    0    1
 -2       463       464       605      2212      2597      2598
 -1      1036    8    0    1
 -2       463       605       604      2598      2599      2595
 -1      1037    8    0    1
 -2       464       465       606      2181      2600      2601
 -1      1038    8    0    1
 -2       465       466       607      2211      2602      2603
 -1      1039    8    0    1
 -2       467       468       608      2210      2604      2605
 -1      1040    8    0    1
 -2       468       469       609      2209      2606      2607
 -1      1041    8    0    1
 -2       469       587       609      2557      2608      2606
 -1      1042    8    0    1
 -2       470       471       610      2194      2609      2610
 -1      1043    8    0    1
 -2       337       323       611      2202      2611      2612
 -1      1044    8    0    1
 -2       484       337       611      2252      2612      2613
 -1      1045    8    0    1
 -2       323       322       611      1768      2614      2611
 -1      1046    8    0    1
 -2       335       336       612      1808      2615      2616
 -1      1047    8    0    1
 -2       334       335       612      1803      2616      2617
 -1      1048    8    0    1
 -2       336       474       612      2226      2618      2615
 -1      1049    8    0    1
 -2       444       442       613      2203      2619      2620
 -1      1050    8    0    1
 -2       449       592       590      2569      2621      2562
 -1      1051    8    0    1
 -2       324       476       614      2230      2622      2623
 -1      1052    8    0    1
 -2       324       614       447      2623      2624      2141
 -1      1053    8    0    1
 -2       483       384       583      2249      2548      2625
 -1      1054    8    0    1
 -2       333       334       612      1800      2617      2626
 -1      1055    8    0    1
 -2       613       442       574      2619      2521      2627
 -1      1056    8    0    1
 -2       473       451       595      2200      2576      2628
 -1      1057    8    0    1
 -2       450       473       592      2199      2629      2568
 -1      1058    8    0    1
 -2       608       468       615      2604      2630      2631
 -1      1059    8    0    1
 -2       468       609       615      2607      2632      2630
 -1      1060    8    0    1
 -2       607       466       603      2602      2594      2633
 -1      1061    8    0    1
 -2       605       464       606      2597      2601      2634
 -1      1062    8    0    1
 -2       427       431       569      2508      2635      2505
 -1      1063    8    0    1
 -2       333       612       482      2626      2636      2246
 -1      1064    8    0    1
 -2       431       430       569      2095      2637      2635
 -1      1065    8    0    1
 -2       441       382       616      2543      2638      2639
 -1      1066    8    0    1
 -2       581       441       616      2540      2639      2640
 -1      1067    8    0    1
 -2       382       381       616      1947      2641      2638
 -1      1068    8    0    1
 -2       585       443       584      2552      2551      2642
 -1      1069    8    0    1
 -2       582       446       617      2544      2643      2644
 -1      1070    8    0    1
 -2       446       586       617      2555      2645      2643
 -1      1071    8    0    1
 -2       603       467       608      2593      2605      2646
 -1      1072    8    0    1
 -2       584       444       613      2550      2620      2647
 -1      1073    8    0    1
 -2       602       460       588      2591      2559      2648
 -1      1074    8    0    1
 -2       471       585       610      2553      2649      2609
 -1      1075    8    0    1
 -2       601       458       589      2589      2561      2650
 -1      1076    8    0    1
 -2       611       322       447      2614      2140      2651
 -1      1077    8    0    1
 -2       470       610       587      2610      2652      2556
 -1      1078    8    0    1
 -2       600       457       601      2587      2590      2653
 -1      1079    8    0    1
 -2       597       453       593      2579      2571      2654
 -1      1080    8    0    1
 -2       596       462       604      2577      2596      2655
 -1      1081    8    0    1
 -2       594       448       590      2572      2563      2656
 -1      1082    8    0    1
 -2       589       459       602      2560      2592      2657
 -1      1083    8    0    1
 -2       588       461       596      2558      2578      2658
 -1      1084    8    0    1
 -2       455       599       598      2586      2659      2582
 -1      1085    8    0    1
 -2       599       456       600      2585      2588      2660
 -1      1086    8    0    1
 -2       606       465       607      2600      2603      2661
 -1      1087    8    0    1
 -2       569       430       572      2637      2515      2662
 -1      1088    8    0    1
 -2       616       381       527      2641      2381      2663
 -1      1089    8    0    1
 -2       478       479       618      2239      2664      2665
 -1      1090    8    0    1
 -2       477       478       619      2236      2666      2667
 -1      1091    8    0    1
 -2       478       618       619      2665      2668      2666
 -1      1092    8    0    1
 -2       480       481       620      2245      2669      2670
 -1      1093    8    0    1
 -2       481       482       621      2248      2671      2672
 -1      1094    8    0    1
 -2       481       621       620      2672      2673      2669
 -1      1095    8    0    1
 -2       474       483       622      2251      2674      2675
 -1      1096    8    0    1
 -2       483       583       623      2625      2676      2677
 -1      1097    8    0    1
 -2       483       623       622      2677      2678      2674
 -1      1098    8    0    1
 -2       609       587       624      2608      2679      2680
 -1      1099    8    0    1
 -2       612       474       482      2618      2681      2636
 -1      1100    8    0    1
 -2       574       582       625      2546      2682      2683
 -1      1101    8    0    1
 -2       486       485       626      2259      2684      2685
 -1      1102    8    0    1
 -2       487       486       627      2262      2686      2687
 -1      1103    8    0    1
 -2       486       626       627      2685      2688      2686
 -1      1104    8    0    1
 -2       488       487       628      2265      2689      2690
 -1      1105    8    0    1
 -2       487       627       628      2687      2691      2689
 -1      1106    8    0    1
 -2       489       488       629      2268      2692      2693
 -1      1107    8    0    1
 -2       488       628       629      2690      2694      2692
 -1      1108    8    0    1
 -2       490       489       630      2271      2695      2696
 -1      1109    8    0    1
 -2       489       629       630      2693      2697      2695
 -1      1110    8    0    1
 -2       491       490       631      2274      2698      2699
 -1      1111    8    0    1
 -2       490       630       631      2696      2700      2698
 -1      1112    8    0    1
 -2       492       491       632      2277      2701      2702
 -1      1113    8    0    1
 -2       491       631       632      2699      2703      2701
 -1      1114    8    0    1
 -2       493       492       633      2280      2704      2705
 -1      1115    8    0    1
 -2       492       632       633      2702      2706      2704
 -1      1116    8    0    1
 -2       494       493       634      2283      2707      2708
 -1      1117    8    0    1
 -2       493       633       634      2705      2709      2707
 -1      1118    8    0    1
 -2       495       494       635      2286      2710      2711
 -1      1119    8    0    1
 -2       494       634       635      2708      2712      2710
 -1      1120    8    0    1
 -2       496       495       636      2289      2713      2714
 -1      1121    8    0    1
 -2       495       635       636      2711      2715      2713
 -1      1122    8    0    1
 -2       497       496       637      2292      2716      2717
 -1      1123    8    0    1
 -2       496       636       637      2714      2718      2716
 -1      1124    8    0    1
 -2       498       497       638      2295      2719      2720
 -1      1125    8    0    1
 -2       497       637       638      2717      2721      2719
 -1      1126    8    0    1
 -2       499       498       639      2298      2722      2723
 -1      1127    8    0    1
 -2       498       638       639      2720      2724      2722
 -1      1128    8    0    1
 -2       500       499       640      2301      2725      2726
 -1      1129    8    0    1
 -2       499       639       640      2723      2727      2725
 -1      1130    8    0    1
 -2       501       500       641      2304      2728      2729
 -1      1131    8    0    1
 -2       500       640       641      2726      2730      2728
 -1      1132    8    0    1
 -2       502       501       642      2307      2731      2732
 -1      1133    8    0    1
 -2       501       641       642      2729      2733      2731
 -1      1134    8    0    1
 -2       503       502       643      2310      2734      2735
 -1      1135    8    0    1
 -2       502       642       643      2732      2736      2734
 -1      1136    8    0    1
 -2       504       503       644      2313      2737      2738
 -1      1137    8    0    1
 -2       503       643       644      2735      2739      2737
 -1      1138    8    0    1
 -2       505       504       645      2316      2740      2741
 -1      1139    8    0    1
 -2       504       644       645      2738      2742      2740
 -1      1140    8    0    1
 -2       506       505       646      2319      2743      2744
 -1      1141    8    0    1
 -2       505       645       646      2741      2745      2743
 -1      1142    8    0    1
 -2       507       506       647      2322      2746      2747
 -1      1143    8    0    1
 -2       506       646       647      2744      2748      2746
 -1      1144    8    0    1
 -2       508       507       648      2325      2749      2750
 -1      1145    8    0    1
 -2       507       647       648      2747      2751      2749
 -1      1146    8    0    1
 -2       509       508       649      2328      2752      2753
 -1      1147    8    0    1
 -2       508       648       649      2750      2754      2752
 -1      1148    8    0    1
 -2       510       509       650      2331      2755      2756
 -1      1149    8    0    1
 -2       509       649       650      2753      2757      2755
 -1      1150    8    0    1
 -2       511       510       651      2334      2758      2759
 -1      1151    8    0    1
 -2       510       650       651      2756      2760      2758
 -1      1152    8    0    1
 -2       512       511       652      2337      2761      2762
 -1      1153    8    0    1
 -2       511       651       652      2759      2763      2761
 -1      1154    8    0    1
 -2       513       512       653      2340      2764      2765
 -1      1155    8    0    1
 -2       512       652       653      2762      2766      2764
 -1      1156    8    0    1
 -2       514       513       654      2343      2767      2768
 -1      1157    8    0    1
 -2       513       653       654      2765      2769      2767
 -1      1158    8    0    1
 -2       515       514       655      2346      2770      2771
 -1      1159    8    0    1
 -2       514       654       655      2768      2772      2770
 -1      1160    8    0    1
 -2       516       515       656      2349      2773      2774
 -1      1161    8    0    1
 -2       515       655       656      2771      2775      2773
 -1      1162    8    0    1
 -2       517       516       657      2352      2776      2777
 -1      1163    8    0    1
 -2       516       656       657      2774      2778      2776
 -1      1164    8    0    1
 -2       518       517       658      2355      2779      2780
 -1      1165    8    0    1
 -2       517       657       658      2777      2781      2779
 -1      1166    8    0    1
 -2       519       518       659      2358      2782      2783
 -1      1167    8    0    1
 -2       518       658       659      2780      2784      2782
 -1      1168    8    0    1
 -2       520       519       660      2361      2785      2786
 -1      1169    8    0    1
 -2       519       659       660      2783      2787      2785
 -1      1170    8    0    1
 -2       521       520       661      2364      2788      2789
 -1      1171    8    0    1
 -2       520       660       661      2786      2790      2788
 -1      1172    8    0    1
 -2       522       521       662      2367      2791      2792
 -1      1173    8    0    1
 -2       521       661       662      2789      2793      2791
 -1      1174    8    0    1
 -2       523       522       663      2370      2794      2795
 -1      1175    8    0    1
 -2       522       662       663      2792      2796      2794
 -1      1176    8    0    1
 -2       524       523       664      2373      2797      2798
 -1      1177    8    0    1
 -2       523       663       664      2795      2799      2797
 -1      1178    8    0    1
 -2       525       524       665      2376      2800      2801
 -1      1179    8    0    1
 -2       524       664       665      2798      2802      2800
 -1      1180    8    0    1
 -2       526       525       666      2379      2803      2804
 -1      1181    8    0    1
 -2       525       665       666      2801      2805      2803
 -1      1182    8    0    1
 -2       527       526       667      2382      2806      2807
 -1      1183    8    0    1
 -2       526       666       667      2804      2808      2806
 -1      1184    8    0    1
 -2       529       530       668      2390      2809      2810
 -1      1185    8    0    1
 -2       585       584       669      2642      2811      2812
 -1      1186    8    0    1
 -2       528       529       670      2387      2813      2814
 -1      1187    8    0    1
 -2       529       668       670      2810      2815      2813
 -1      1188    8    0    1
 -2       531       532       671      2396      2816      2817
 -1      1189    8    0    1
 -2       532       533       672      2399      2818      2819
 -1      1190    8    0    1
 -2       532       672       671      2819      2820      2816
 -1      1191    8    0    1
 -2       533       534       673      2402      2821      2822
 -1      1192    8    0    1
 -2       533       673       672      2822      2823      2818
 -1      1193    8    0    1
 -2       534       535       674      2405      2824      2825
 -1      1194    8    0    1
 -2       534       674       673      2825      2826      2821
 -1      1195    8    0    1
 -2       535       536       675      2408      2827      2828
 -1      1196    8    0    1
 -2       535       675       674      2828      2829      2824
 -1      1197    8    0    1
 -2       536       537       676      2411      2830      2831
 -1      1198    8    0    1
 -2       536       676       675      2831      2832      2827
 -1      1199    8    0    1
 -2       537       538       677      2414      2833      2834
 -1      1200    8    0    1
 -2       537       677       676      2834      2835      2830
 -1      1201    8    0    1
 -2       538       539       678      2417      2836      2837
 -1      1202    8    0    1
 -2       538       678       677      2837      2838      2833
 -1      1203    8    0    1
 -2       539       540       679      2420      2839      2840
 -1      1204    8    0    1
 -2       539       679       678      2840      2841      2836
 -1      1205    8    0    1
 -2       540       541       680      2423      2842      2843
 -1      1206    8    0    1
 -2       540       680       679      2843      2844      2839
 -1      1207    8    0    1
 -2       541       542       681      2426      2845      2846
 -1      1208    8    0    1
 -2       541       681       680      2846      2847      2842
 -1      1209    8    0    1
 -2       542       543       682      2429      2848      2849
 -1      1210    8    0    1
 -2       542       682       681      2849      2850      2845
 -1      1211    8    0    1
 -2       543       544       683      2432      2851      2852
 -1      1212    8    0    1
 -2       543       683       682      2852      2853      2848
 -1      1213    8    0    1
 -2       544       545       684      2435      2854      2855
 -1      1214    8    0    1
 -2       544       684       683      2855      2856      2851
 -1      1215    8    0    1
 -2       545       546       685      2438      2857      2858
 -1      1216    8    0    1
 -2       545       685       684      2858      2859      2854
 -1      1217    8    0    1
 -2       546       547       686      2441      2860      2861
 -1      1218    8    0    1
 -2       546       686       685      2861      2862      2857
 -1      1219    8    0    1
 -2       547       548       687      2444      2863      2864
 -1      1220    8    0    1
 -2       547       687       686      2864      2865      2860
 -1      1221    8    0    1
 -2       548       549       688      2447      2866      2867
 -1      1222    8    0    1
 -2       548       688       687      2867      2868      2863
 -1      1223    8    0    1
 -2       549       550       689      2450      2869      2870
 -1      1224    8    0    1
 -2       549       689       688      2870      2871      2866
 -1      1225    8    0    1
 -2       550       551       690      2453      2872      2873
 -1      1226    8    0    1
 -2       550       690       689      2873      2874      2869
 -1      1227    8    0    1
 -2       551       552       691      2456      2875      2876
 -1      1228    8    0    1
 -2       551       691       690      2876      2877      2872
 -1      1229    8    0    1
 -2       552       553       692      2459      2878      2879
 -1      1230    8    0    1
 -2       552       692       691      2879      2880      2875
 -1      1231    8    0    1
 -2       553       554       693      2462      2881      2882
 -1      1232    8    0    1
 -2       553       693       692      2882      2883      2878
 -1      1233    8    0    1
 -2       554       555       694      2465      2884      2885
 -1      1234    8    0    1
 -2       554       694       693      2885      2886      2881
 -1      1235    8    0    1
 -2       555       556       695      2468      2887      2888
 -1      1236    8    0    1
 -2       555       695       694      2888      2889      2884
 -1      1237    8    0    1
 -2       556       557       696      2471      2890      2891
 -1      1238    8    0    1
 -2       556       696       695      2891      2892      2887
 -1      1239    8    0    1
 -2       557       558       697      2474      2893      2894
 -1      1240    8    0    1
 -2       557       697       696      2894      2895      2890
 -1      1241    8    0    1
 -2       558       559       698      2477      2896      2897
 -1      1242    8    0    1
 -2       558       698       697      2897      2898      2893
 -1      1243    8    0    1
 -2       559       560       699      2480      2899      2900
 -1      1244    8    0    1
 -2       559       699       698      2900      2901      2896
 -1      1245    8    0    1
 -2       560       561       700      2483      2902      2903
 -1      1246    8    0    1
 -2       560       700       699      2903      2904      2899
 -1      1247    8    0    1
 -2       561       562       701      2486      2905      2906
 -1      1248    8    0    1
 -2       561       701       700      2906      2907      2902
 -1      1249    8    0    1
 -2       562       563       702      2489      2908      2909
 -1      1250    8    0    1
 -2       562       702       701      2909      2910      2905
 -1      1251    8    0    1
 -2       563       564       703      2492      2911      2912
 -1      1252    8    0    1
 -2       563       703       702      2912      2913      2908
 -1      1253    8    0    1
 -2       564       565       704      2495      2914      2915
 -1      1254    8    0    1
 -2       564       704       703      2915      2916      2911
 -1      1255    8    0    1
 -2       565       566       705      2498      2917      2918
 -1      1256    8    0    1
 -2       565       705       704      2918      2919      2914
 -1      1257    8    0    1
 -2       566       567       706      2501      2920      2921
 -1      1258    8    0    1
 -2       566       706       705      2921      2922      2917
 -1      1259    8    0    1
 -2       567       568       707      2504      2923      2924
 -1      1260    8    0    1
 -2       567       707       706      2924      2925      2920
 -1      1261    8    0    1
 -2       568       569       708      2507      2926      2927
 -1      1262    8    0    1
 -2       707       568       708      2923      2927      2928
 -1      1263    8    0    1
 -2       569       572       708      2662      2929      2926
 -1      1264    8    0    1
 -2       575       576       709      2527      2930      2931
 -1      1265    8    0    1
 -2       616       527       710      2663      2932      2933
 -1      1266    8    0    1
 -2       527       667       710      2807      2934      2932
 -1      1267    8    0    1
 -2       570       571       711      2513      2935      2936
 -1      1268    8    0    1
 -2       473       595       712      2628      2937      2938
 -1      1269    8    0    1
 -2       576       577       713      2530      2939      2940
 -1      1270    8    0    1
 -2       576       713       709      2940      2941      2930
 -1      1271    8    0    1
 -2       571       575       714      2524      2942      2943
 -1      1272    8    0    1
 -2       711       571       714      2935      2943      2944
 -1      1273    8    0    1
 -2       575       709       714      2931      2945      2942
 -1      1274    8    0    1
 -2       577       578       715      2533      2946      2947
 -1      1275    8    0    1
 -2       577       715       713      2947      2948      2939
 -1      1276    8    0    1
 -2       578       579       716      2536      2949      2950
 -1      1277    8    0    1
 -2       578       716       715      2950      2951      2946
 -1      1278    8    0    1
 -2       579       580       717      2539      2952      2953
 -1      1279    8    0    1
 -2       579       717       716      2953      2954      2949
 -1      1280    8    0    1
 -2       581       616       710      2640      2933      2955
 -1      1281    8    0    1
 -2       583       528       718      2549      2956      2957
 -1      1282    8    0    1
 -2       623       583       718      2676      2957      2958
 -1      1283    8    0    1
 -2       528       670       718      2814      2959      2956
 -1      1284    8    0    1
 -2       603       608       719      2646      2960      2961
 -1      1285    8    0    1
 -2       610       585       720      2649      2962      2963
 -1      1286    8    0    1
 -2       585       669       720      2812      2964      2962
 -1      1287    8    0    1
 -2       611       447       614      2651      2624      2965
 -1      1288    8    0    1
 -2       589       602       721      2657      2966      2967
 -1      1289    8    0    1
 -2       600       601       722      2653      2968      2969
 -1      1290    8    0    1
 -2       530       531       723      2393      2970      2971
 -1      1291    8    0    1
 -2       668       530       723      2809      2971      2972
 -1      1292    8    0    1
 -2       531       671       723      2817      2973      2970
 -1      1293    8    0    1
 -2       613       574       724      2627      2974      2975
 -1      1294    8    0    1
 -2       587       610       725      2652      2976      2977
 -1      1295    8    0    1
 -2       587       725       624      2977      2978      2679
 -1      1296    8    0    1
 -2       485       484       726      2256      2979      2980
 -1      1297    8    0    1
 -2       485       726       626      2980      2981      2684
 -1      1298    8    0    1
 -2       479       480       727      2242      2982      2983
 -1      1299    8    0    1
 -2       618       479       727      2664      2983      2984
 -1      1300    8    0    1
 -2       480       620       727      2670      2985      2982
 -1      1301    8    0    1
 -2       596       604       728      2655      2986      2987
 -1      1302    8    0    1
 -2       586       594       729      2574      2988      2989
 -1      1303    8    0    1
 -2       593       598       730      2584      2990      2991
 -1      1304    8    0    1
 -2       598       599       731      2659      2992      2993
 -1      1305    8    0    1
 -2       476       475       732      2231      2994      2995
 -1      1306    8    0    1
 -2       595       597       733      2581      2996      2997
 -1      1307    8    0    1
 -2       599       600       734      2660      2998      2999
 -1      1308    8    0    1
 -2       600       722       734      2969      3000      2998
 -1      1309    8    0    1
 -2       606       607       735      2661      3001      3002
 -1      1310    8    0    1
 -2       597       593       736      2654      3003      3004
 -1      1311    8    0    1
 -2       588       596       737      2658      3005      3006
 -1      1312    8    0    1
 -2       605       606       738      2634      3007      3008
 -1      1313    8    0    1
 -2       594       590       739      2656      3009      3010
 -1      1314    8    0    1
 -2       594       739       729      3010      3011      2988
 -1      1315    8    0    1
 -2       604       605       740      2599      3012      3013
 -1      1316    8    0    1
 -2       728       604       740      2986      3013      3014
 -1      1317    8    0    1
 -2       605       738       740      3008      3015      3012
 -1      1318    8    0    1
 -2       602       588       741      2648      3016      3017
 -1      1319    8    0    1
 -2       584       613       742      2647      3018      3019
 -1      1320    8    0    1
 -2       584       742       669      3019      3020      2811
 -1      1321    8    0    1
 -2       607       603       743      2633      3021      3022
 -1      1322    8    0    1
 -2       601       589       744      2650      3023      3024
 -1      1323    8    0    1
 -2       590       592       745      2621      3025      3026
 -1      1324    8    0    1
 -2       614       476       746      2622      3027      3028
 -1      1325    8    0    1
 -2       476       732       746      2995      3029      3027
 -1      1326    8    0    1
 -2       477       619       747      2667      3030      3031
 -1      1327    8    0    1
 -2       477       747       591      3031      3032      2567
 -1      1328    8    0    1
 -2       609       624       615      2680      3033      2632
 -1      1329    8    0    1
 -2       482       474       622      2681      2675      3034
 -1      1330    8    0    1
 -2       625       582       617      2682      2644      3035
 -1      1331    8    0    1
 -2       596       728       737      2987      3036      3005
 -1      1332    8    0    1
 -2       482       622       621      3034      3037      2671
 -1      1333    8    0    1
 -2       613       724       748      2975      3038      3039
 -1      1334    8    0    1
 -2       613       748       742      3039      3040      3018
 -1      1335    8    0    1
 -2       570       711       749      2936      3041      3042
 -1      1336    8    0    1
 -2       570       749       573      3042      3043      2519
 -1      1337    8    0    1
 -2       724       574       625      2974      2683      3044
 -1      1338    8    0    1
 -2       611       614       750      2965      3045      3046
 -1      1339    8    0    1
 -2       484       611       750      2613      3046      3047
 -1      1340    8    0    1
 -2       614       746       750      3028      3048      3045
 -1      1341    8    0    1
 -2       603       719       743      2961      3049      3021
 -1      1342    8    0    1
 -2       484       750       726      3047      3050      2979
 -1      1343    8    0    1
 -2       572       573       751      2518      3051      3052
 -1      1344    8    0    1
 -2       708       572       751      2929      3052      3053
 -1      1345    8    0    1
 -2       573       749       751      3043      3054      3051
 -1      1346    8    0    1
 -2       741       588       752      3016      3055      3056
 -1      1347    8    0    1
 -2       588       737       752      3006      3057      3055
 -1      1348    8    0    1
 -2       730       598       731      2990      2993      3058
 -1      1349    8    0    1
 -2       581       710       580      2955      3059      2542
 -1      1350    8    0    1
 -2       717       580       710      2952      3059      3060
 -1      1351    8    0    1
 -2       745       592       753      3025      3061      3062
 -1      1352    8    0    1
 -2       744       589       754      3023      3063      3064
 -1      1353    8    0    1
 -2       589       721       754      2967      3065      3063
 -1      1354    8    0    1
 -2       617       586       729      2645      2989      3066
 -1      1355    8    0    1
 -2       739       590       745      3009      3026      3067
 -1      1356    8    0    1
 -2       738       606       735      3007      3002      3068
 -1      1357    8    0    1
 -2       736       593       730      3003      2991      3069
 -1      1358    8    0    1
 -2       610       720       725      2963      3070      2976
 -1      1359    8    0    1
 -2       733       597       736      2996      3004      3071
 -1      1360    8    0    1
 -2       731       599       734      2992      2999      3072
 -1      1361    8    0    1
 -2       722       601       744      2968      3024      3073
 -1      1362    8    0    1
 -2       721       602       741      2966      3017      3074
 -1      1363    8    0    1
 -2       607       743       735      3022      3075      3001
 -1      1364    8    0    1
 -2       592       473       755      2629      3076      3077
 -1      1365    8    0    1
 -2       475       591       756      2566      3078      3079
 -1      1366    8    0    1
 -2       732       475       756      2994      3079      3080
 -1      1367    8    0    1
 -2       591       747       756      3032      3081      3078
 -1      1368    8    0    1
 -2       592       755       753      3077      3082      3061
 -1      1369    8    0    1
 -2       719       608       615      2960      2631      3083
 -1      1370    8    0    1
 -2       755       473       712      3076      2938      3084
 -1      1371    8    0    1
 -2       625       617       757      3035      3085      3086
 -1      1372    8    0    1
 -2       620       621       758      2673      3087      3088
 -1      1373    8    0    1
 -2       619       618       759      2668      3089      3090
 -1      1374    8    0    1
 -2       626       726       760      2981      3091      3092
 -1      1375    8    0    1
 -2       628       627       761      2691      3093      3094
 -1      1376    8    0    1
 -2       629       628       762      2694      3095      3096
 -1      1377    8    0    1
 -2       628       761       762      3094      3097      3095
 -1      1378    8    0    1
 -2       630       629       763      2697      3098      3099
 -1      1379    8    0    1
 -2       629       762       763      3096      3100      3098
 -1      1380    8    0    1
 -2       631       630       764      2700      3101      3102
 -1      1381    8    0    1
 -2       630       763       764      3099      3103      3101
 -1      1382    8    0    1
 -2       632       631       765      2703      3104      3105
 -1      1383    8    0    1
 -2       631       764       765      3102      3106      3104
 -1      1384    8    0    1
 -2       633       632       766      2706      3107      3108
 -1      1385    8    0    1
 -2       632       765       766      3105      3109      3107
 -1      1386    8    0    1
 -2       634       633       767      2709      3110      3111
 -1      1387    8    0    1
 -2       633       766       767      3108      3112      3110
 -1      1388    8    0    1
 -2       635       634       768      2712      3113      3114
 -1      1389    8    0    1
 -2       634       767       768      3111      3115      3113
 -1      1390    8    0    1
 -2       636       635       769      2715      3116      3117
 -1      1391    8    0    1
 -2       635       768       769      3114      3118      3116
 -1      1392    8    0    1
 -2       637       636       770      2718      3119      3120
 -1      1393    8    0    1
 -2       636       769       770      3117      3121      3119
 -1      1394    8    0    1
 -2       638       637       771      2721      3122      3123
 -1      1395    8    0    1
 -2       637       770       771      3120      3124      3122
 -1      1396    8    0    1
 -2       639       638       772      2724      3125      3126
 -1      1397    8    0    1
 -2       638       771       772      3123      3127      3125
 -1      1398    8    0    1
 -2       640       639       773      2727      3128      3129
 -1      1399    8    0    1
 -2       639       772       773      3126      3130      3128
 -1      1400    8    0    1
 -2       641       640       774      2730      3131      3132
 -1      1401    8    0    1
 -2       640       773       774      3129      3133      3131
 -1      1402    8    0    1
 -2       642       641       775      2733      3134      3135
 -1      1403    8    0    1
 -2       641       774       775      3132      3136      3134
 -1      1404    8    0    1
 -2       643       642       776      2736      3137      3138
 -1      1405    8    0    1
 -2       642       775       776      3135      3139      3137
 -1      1406    8    0    1
 -2       644       643       777      2739      3140      3141
 -1      1407    8    0    1
 -2       643       776       777      3138      3142      3140
 -1      1408    8    0    1
 -2       645       644       778      2742      3143      3144
 -1      1409    8    0    1
 -2       644       777       778      3141      3145      3143
 -1      1410    8    0    1
 -2       646       645       752      2745      3146      3147
 -1      1411    8    0    1
 -2       647       646       752      2748      3147      3148
 -1      1412    8    0    1
 -2       648       647       728      2751      3149      3150
 -1      1413    8    0    1
 -2       649       648       740      2754      3151      3152
 -1      1414    8    0    1
 -2       650       649       738      2757      3153      3154
 -1      1415    8    0    1
 -2       651       650       735      2760      3155      3156
 -1      1416    8    0    1
 -2       653       652       779      2766      3157      3158
 -1      1417    8    0    1
 -2       654       653       780      2769      3159      3160
 -1      1418    8    0    1
 -2       655       654       781      2772      3161      3162
 -1      1419    8    0    1
 -2       654       780       781      3160      3163      3161
 -1      1420    8    0    1
 -2       656       655       782      2775      3164      3165
 -1      1421    8    0    1
 -2       655       781       782      3162      3166      3164
 -1      1422    8    0    1
 -2       657       656       783      2778      3167      3168
 -1      1423    8    0    1
 -2       656       782       783      3165      3169      3167
 -1      1424    8    0    1
 -2       658       657       784      2781      3170      3171
 -1      1425    8    0    1
 -2       657       783       784      3168      3172      3170
 -1      1426    8    0    1
 -2       659       658       785      2784      3173      3174
 -1      1427    8    0    1
 -2       658       784       785      3171      3175      3173
 -1      1428    8    0    1
 -2       660       659       786      2787      3176      3177
 -1      1429    8    0    1
 -2       659       785       786      3174      3178      3176
 -1      1430    8    0    1
 -2       661       660       787      2790      3179      3180
 -1      1431    8    0    1
 -2       660       786       787      3177      3181      3179
 -1      1432    8    0    1
 -2       662       661       788      2793      3182      3183
 -1      1433    8    0    1
 -2       661       787       788      3180      3184      3182
 -1      1434    8    0    1
 -2       663       662       789      2796      3185      3186
 -1      1435    8    0    1
 -2       662       788       789      3183      3187      3185
 -1      1436    8    0    1
 -2       664       663       790      2799      3188      3189
 -1      1437    8    0    1
 -2       663       789       790      3186      3190      3188
 -1      1438    8    0    1
 -2       665       664       791      2802      3191      3192
 -1      1439    8    0    1
 -2       664       790       791      3189      3193      3191
 -1      1440    8    0    1
 -2       666       665       792      2805      3194      3195
 -1      1441    8    0    1
 -2       665       791       792      3192      3196      3194
 -1      1442    8    0    1
 -2       667       666       793      2808      3197      3198
 -1      1443    8    0    1
 -2       666       792       793      3195      3199      3197
 -1      1444    8    0    1
 -2       672       673       794      2823      3200      3201
 -1      1445    8    0    1
 -2       671       672       795      2820      3202      3203
 -1      1446    8    0    1
 -2       672       794       795      3201      3204      3202
 -1      1447    8    0    1
 -2       674       675       796      2829      3205      3206
 -1      1448    8    0    1
 -2       675       676       797      2832      3207      3208
 -1      1449    8    0    1
 -2       675       797       796      3208      3209      3205
 -1      1450    8    0    1
 -2       676       677       798      2835      3210      3211
 -1      1451    8    0    1
 -2       676       798       797      3211      3212      3207
 -1      1452    8    0    1
 -2       677       678       799      2838      3213      3214
 -1      1453    8    0    1
 -2       677       799       798      3214      3215      3210
 -1      1454    8    0    1
 -2       678       679       800      2841      3216      3217
 -1      1455    8    0    1
 -2       678       800       799      3217      3218      3213
 -1      1456    8    0    1
 -2       679       680       801      2844      3219      3220
 -1      1457    8    0    1
 -2       679       801       800      3220      3221      3216
 -1      1458    8    0    1
 -2       680       681       802      2847      3222      3223
 -1      1459    8    0    1
 -2       680       802       801      3223      3224      3219
 -1      1460    8    0    1
 -2       681       682       803      2850      3225      3226
 -1      1461    8    0    1
 -2       681       803       802      3226      3227      3222
 -1      1462    8    0    1
 -2       682       683       804      2853      3228      3229
 -1      1463    8    0    1
 -2       682       804       803      3229      3230      3225
 -1      1464    8    0    1
 -2       683       684       805      2856      3231      3232
 -1      1465    8    0    1
 -2       683       805       804      3232      3233      3228
 -1      1466    8    0    1
 -2       684       685       806      2859      3234      3235
 -1      1467    8    0    1
 -2       684       806       805      3235      3236      3231
 -1      1468    8    0    1
 -2       685       686       807      2862      3237      3238
 -1      1469    8    0    1
 -2       685       807       806      3238      3239      3234
 -1      1470    8    0    1
 -2       687       688       808      2868      3240      3241
 -1      1471    8    0    1
 -2       688       689       712      2871      3242      3243
 -1      1472    8    0    1
 -2       689       690       753      2874      3244      3245
 -1      1473    8    0    1
 -2       690       691       745      2877      3246      3247
 -1      1474    8    0    1
 -2       691       692       739      2880      3248      3249
 -1      1475    8    0    1
 -2       692       693       809      2883      3250      3251
 -1      1476    8    0    1
 -2       693       694       810      2886      3252      3253
 -1      1477    8    0    1
 -2       693       810       809      3253      3254      3250
 -1      1478    8    0    1
 -2       694       695       811      2889      3255      3256
 -1      1479    8    0    1
 -2       694       811       810      3256      3257      3252
 -1      1480    8    0    1
 -2       695       696       812      2892      3258      3259
 -1      1481    8    0    1
 -2       695       812       811      3259      3260      3255
 -1      1482    8    0    1
 -2       696       697       813      2895      3261      3262
 -1      1483    8    0    1
 -2       696       813       812      3262      3263      3258
 -1      1484    8    0    1
 -2       697       698       814      2898      3264      3265
 -1      1485    8    0    1
 -2       697       814       813      3265      3266      3261
 -1      1486    8    0    1
 -2       698       699       815      2901      3267      3268
 -1      1487    8    0    1
 -2       698       815       814      3268      3269      3264
 -1      1488    8    0    1
 -2       699       700       816      2904      3270      3271
 -1      1489    8    0    1
 -2       699       816       815      3271      3272      3267
 -1      1490    8    0    1
 -2       700       701       817      2907      3273      3274
 -1      1491    8    0    1
 -2       700       817       816      3274      3275      3270
 -1      1492    8    0    1
 -2       701       702       818      2910      3276      3277
 -1      1493    8    0    1
 -2       701       818       817      3277      3278      3273
 -1      1494    8    0    1
 -2       702       703       819      2913      3279      3280
 -1      1495    8    0    1
 -2       702       819       818      3280      3281      3276
 -1      1496    8    0    1
 -2       703       704       820      2916      3282      3283
 -1      1497    8    0    1
 -2       703       820       819      3283      3284      3279
 -1      1498    8    0    1
 -2       704       705       821      2919      3285      3286
 -1      1499    8    0    1
 -2       704       821       820      3286      3287      3282
 -1      1500    8    0    1
 -2       705       706       822      2922      3288      3289
 -1      1501    8    0    1
 -2       705       822       821      3289      3290      3285
 -1      1502    8    0    1
 -2       706       707       823      2925      3291      3292
 -1      1503    8    0    1
 -2       706       823       822      3292      3293      3288
 -1      1504    8    0    1
 -2       707       708       824      2928      3294      3295
 -1      1505    8    0    1
 -2       823       707       824      3291      3295      3296
 -1      1506    8    0    1
 -2       708       751       824      3053      3297      3294
 -1      1507    8    0    1
 -2       716       717       825      2954      3298      3299
 -1      1508    8    0    1
 -2       745       691       739      3246      3249      3067
 -1      1509    8    0    1
 -2       709       713       826      2941      3300      3301
 -1      1510    8    0    1
 -2       753       690       745      3244      3247      3062
 -1      1511    8    0    1
 -2       719       615       779      3083      3302      3303
 -1      1512    8    0    1
 -2       720       669       827      2964      3304      3305
 -1      1513    8    0    1
 -2       621       622       828      3037      3306      3307
 -1      1514    8    0    1
 -2       758       621       828      3087      3307      3308
 -1      1515    8    0    1
 -2       622       623       828      2678      3309      3306
 -1      1516    8    0    1
 -2       734       722       829      3000      3310      3311
 -1      1517    8    0    1
 -2       735       650       738      3155      3154      3068
 -1      1518    8    0    1
 -2       738       649       740      3153      3152      3015
 -1      1519    8    0    1
 -2       715       716       830      2951      3312      3313
 -1      1520    8    0    1
 -2       716       825       830      3299      3314      3312
 -1      1521    8    0    1
 -2       712       595       808      2937      3315      3316
 -1      1522    8    0    1
 -2       673       674       831      2826      3317      3318
 -1      1523    8    0    1
 -2       794       673       831      3200      3318      3319
 -1      1524    8    0    1
 -2       674       796       831      3206      3320      3317
 -1      1525    8    0    1
 -2       670       668       832      2815      3321      3322
 -1      1526    8    0    1
 -2       615       624       833      3033      3323      3324
 -1      1527    8    0    1
 -2       617       729       809      3066      3325      3326
 -1      1528    8    0    1
 -2       736       730       834      3069      3327      3328
 -1      1529    8    0    1
 -2       627       626       835      2688      3329      3330
 -1      1530    8    0    1
 -2       627       835       761      3330      3331      3093
 -1      1531    8    0    1
 -2       724       625       836      3044      3332      3333
 -1      1532    8    0    1
 -2       733       736       837      3071      3334      3335
 -1      1533    8    0    1
 -2       624       725       838      2978      3336      3337
 -1      1534    8    0    1
 -2       712       808       688      3316      3240      3243
 -1      1535    8    0    1
 -2       725       720       839      3070      3338      3339
 -1      1536    8    0    1
 -2       595       733       808      2997      3340      3315
 -1      1537    8    0    1
 -2       722       744       840      3073      3341      3342
 -1      1538    8    0    1
 -2       731       734       841      3072      3343      3344
 -1      1539    8    0    1
 -2       730       731       842      3058      3345      3346
 -1      1540    8    0    1
 -2       730       842       834      3346      3347      3327
 -1      1541    8    0    1
 -2       735       743       651      3075      3348      3156
 -1      1542    8    0    1
 -2       713       715       843      2948      3349      3350
 -1      1543    8    0    1
 -2       826       713       843      3300      3350      3351
 -1      1544    8    0    1
 -2       715       830       843      3313      3352      3349
 -1      1545    8    0    1
 -2       669       742       844      3020      3353      3354
 -1      1546    8    0    1
 -2       726       750       845      3050      3355      3356
 -1      1547    8    0    1
 -2       750       746       845      3048      3357      3355
 -1      1548    8    0    1
 -2       721       741       846      3074      3358      3359
 -1      1549    8    0    1
 -2       648       728       740      3150      3014      3151
 -1      1550    8    0    1
 -2       651       743       652      3348      3360      2763
 -1      1551    8    0    1
 -2       687       808       847      3241      3361      3362
 -1      1552    8    0    1
 -2       686       687       847      2865      3362      3363
 -1      1553    8    0    1
 -2       808       733       847      3340      3364      3361
 -1      1554    8    0    1
 -2       652       743       779      3360      3365      3157
 -1      1555    8    0    1
 -2       747       619       848      3030      3366      3367
 -1      1556    8    0    1
 -2       619       759       848      3090      3368      3366
 -1      1557    8    0    1
 -2       620       758       849      3088      3369      3370
 -1      1558    8    0    1
 -2       620       849       727      3370      3371      2985
 -1      1559    8    0    1
 -2       734       829       841      3311      3372      3343
 -1      1560    8    0    1
 -2       626       760       835      3092      3373      3329
 -1      1561    8    0    1
 -2       748       724       850      3038      3374      3375
 -1      1562    8    0    1
 -2       724       836       850      3333      3376      3374
 -1      1563    8    0    1
 -2       749       711       851      3041      3377      3378
 -1      1564    8    0    1
 -2       645       778       752      3144      3379      3146
 -1      1565    8    0    1
 -2       728       647       737      3149      3380      3036
 -1      1566    8    0    1
 -2       847       733       837      3364      3335      3381
 -1      1567    8    0    1
 -2       653       779       780      3158      3382      3159
 -1      1568    8    0    1
 -2       686       847       807      3363      3383      3237
 -1      1569    8    0    1
 -2       670       832       852      3322      3384      3385
 -1      1570    8    0    1
 -2       670       852       718      3385      3386      2959
 -1      1571    8    0    1
 -2       832       668       853      3321      3387      3388
 -1      1572    8    0    1
 -2       668       723       853      2972      3389      3387
 -1      1573    8    0    1
 -2       721       846       854      3359      3390      3391
 -1      1574    8    0    1
 -2       721       854       754      3391      3392      3065
 -1      1575    8    0    1
 -2       739       692       809      3248      3251      3393
 -1      1576    8    0    1
 -2       671       795       855      3203      3394      3395
 -1      1577    8    0    1
 -2       671       855       723      3395      3396      2973
 -1      1578    8    0    1
 -2       839       720       827      3338      3305      3397
 -1      1579    8    0    1
 -2       725       839       838      3339      3398      3336
 -1      1580    8    0    1
 -2       689       753       755      3245      3082      3399
 -1      1581    8    0    1
 -2       779       615       833      3302      3324      3400
 -1      1582    8    0    1
 -2       844       742       856      3353      3401      3402
 -1      1583    8    0    1
 -2       742       748       856      3040      3403      3401
 -1      1584    8    0    1
 -2       825       717       793      3298      3404      3405
 -1      1585    8    0    1
 -2       711       714       857      2944      3406      3407
 -1      1586    8    0    1
 -2       711       857       851      3407      3408      3377
 -1      1587    8    0    1
 -2       752       737       647      3057      3380      3148
 -1      1588    8    0    1
 -2       710       667       717      2934      3409      3060
 -1      1589    8    0    1
 -2       623       718       858      2958      3410      3411
 -1      1590    8    0    1
 -2       828       623       858      3309      3411      3412
 -1      1591    8    0    1
 -2       718       852       858      3386      3413      3410
 -1      1592    8    0    1
 -2       625       757       836      3086      3414      3332
 -1      1593    8    0    1
 -2       746       732       859      3029      3415      3416
 -1      1594    8    0    1
 -2       746       859       845      3416      3417      3357
 -1      1595    8    0    1
 -2       714       709       860      2945      3418      3419
 -1      1596    8    0    1
 -2       857       714       860      3406      3419      3420
 -1      1597    8    0    1
 -2       709       826       860      3301      3421      3418
 -1      1598    8    0    1
 -2       827       669       844      3304      3354      3422
 -1      1599    8    0    1
 -2       712       689       755      3242      3399      3084
 -1      1600    8    0    1
 -2       744       754       861      3064      3423      3424
 -1      1601    8    0    1
 -2       744       861       840      3424      3425      3341
 -1      1602    8    0    1
 -2       837       736       834      3334      3328      3426
 -1      1603    8    0    1
 -2       760       726       845      3091      3356      3427
 -1      1604    8    0    1
 -2       722       840       829      3342      3428      3310
 -1      1605    8    0    1
 -2       833       624       838      3323      3337      3429
 -1      1606    8    0    1
 -2       617       809       757      3326      3430      3085
 -1      1607    8    0    1
 -2       732       756       862      3080      3431      3432
 -1      1608    8    0    1
 -2       732       862       859      3432      3433      3415
 -1      1609    8    0    1
 -2       618       727       863      2984      3434      3435
 -1      1610    8    0    1
 -2       759       618       863      3089      3435      3436
 -1      1611    8    0    1
 -2       727       849       863      3371      3437      3434
 -1      1612    8    0    1
 -2       842       731       841      3345      3344      3438
 -1      1613    8    0    1
 -2       741       752       846      3056      3439      3358
 -1      1614    8    0    1
 -2       717       667       793      3409      3198      3404
 -1      1615    8    0    1
 -2       842       841       864      3438      3440      3441
 -1      1616    8    0    1
 -2       752       778       846      3379      3442      3439
 -1      1617    8    0    1
 -2       763       762       865      3100      3443      3444
 -1      1618    8    0    1
 -2       764       763       866      3103      3445      3446
 -1      1619    8    0    1
 -2       763       865       866      3444      3447      3445
 -1      1620    8    0    1
 -2       765       764       867      3106      3448      3449
 -1      1621    8    0    1
 -2       764       866       867      3446      3450      3448
 -1      1622    8    0    1
 -2       766       765       868      3109      3451      3452
 -1      1623    8    0    1
 -2       765       867       868      3449      3453      3451
 -1      1624    8    0    1
 -2       767       766       869      3112      3454      3455
 -1      1625    8    0    1
 -2       766       868       869      3452      3456      3454
 -1      1626    8    0    1
 -2       768       767       870      3115      3457      3458
 -1      1627    8    0    1
 -2       767       869       870      3455      3459      3457
 -1      1628    8    0    1
 -2       769       768       871      3118      3460      3461
 -1      1629    8    0    1
 -2       768       870       871      3458      3462      3460
 -1      1630    8    0    1
 -2       770       769       872      3121      3463      3464
 -1      1631    8    0    1
 -2       769       871       872      3461      3465      3463
 -1      1632    8    0    1
 -2       771       770       873      3124      3466      3467
 -1      1633    8    0    1
 -2       770       872       873      3464      3468      3466
 -1      1634    8    0    1
 -2       772       771       874      3127      3469      3470
 -1      1635    8    0    1
 -2       771       873       874      3467      3471      3469
 -1      1636    8    0    1
 -2       773       772       875      3130      3472      3473
 -1      1637    8    0    1
 -2       772       874       875      3470      3474      3472
 -1      1638    8    0    1
 -2       774       773       876      3133      3475      3476
 -1      1639    8    0    1
 -2       773       875       876      3473      3477      3475
 -1      1640    8    0    1
 -2       775       774       877      3136      3478      3479
 -1      1641    8    0    1
 -2       774       876       877      3476      3480      3478
 -1      1642    8    0    1
 -2       776       775       878      3139      3481      3482
 -1      1643    8    0    1
 -2       775       877       878      3479      3483      3481
 -1      1644    8    0    1
 -2       777       776       879      3142      3484      3485
 -1      1645    8    0    1
 -2       776       878       879      3482      3486      3484
 -1      1646    8    0    1
 -2       778       777       880      3145      3487      3488
 -1      1647    8    0    1
 -2       777       879       880      3485      3489      3487
 -1      1648    8    0    1
 -2       830       825       881      3314      3490      3491
 -1      1649    8    0    1
 -2       782       781       882      3166      3492      3493
 -1      1650    8    0    1
 -2       783       782       883      3169      3494      3495
 -1      1651    8    0    1
 -2       782       882       883      3493      3496      3494
 -1      1652    8    0    1
 -2       784       783       884      3172      3497      3498
 -1      1653    8    0    1
 -2       783       883       884      3495      3499      3497
 -1      1654    8    0    1
 -2       785       784       885      3175      3500      3501
 -1      1655    8    0    1
 -2       784       884       885      3498      3502      3500
 -1      1656    8    0    1
 -2       786       785       886      3178      3503      3504
 -1      1657    8    0    1
 -2       785       885       886      3501      3505      3503
 -1      1658    8    0    1
 -2       787       786       887      3181      3506      3507
 -1      1659    8    0    1
 -2       786       886       887      3504      3508      3506
 -1      1660    8    0    1
 -2       788       787       888      3184      3509      3510
 -1      1661    8    0    1
 -2       787       887       888      3507      3511      3509
 -1      1662    8    0    1
 -2       789       788       889      3187      3512      3513
 -1      1663    8    0    1
 -2       788       888       889      3510      3514      3512
 -1      1664    8    0    1
 -2       790       789       890      3190      3515      3516
 -1      1665    8    0    1
 -2       789       889       890      3513      3517      3515
 -1      1666    8    0    1
 -2       791       790       891      3193      3518      3519
 -1      1667    8    0    1
 -2       790       890       891      3516      3520      3518
 -1      1668    8    0    1
 -2       792       791       892      3196      3521      3522
 -1      1669    8    0    1
 -2       791       891       892      3519      3523      3521
 -1      1670    8    0    1
 -2       793       792       825      3199      3524      3405
 -1      1671    8    0    1
 -2       811       812       893      3260      3525      3526
 -1      1672    8    0    1
 -2       797       798       894      3212      3527      3528
 -1      1673    8    0    1
 -2       796       797       895      3209      3529      3530
 -1      1674    8    0    1
 -2       797       894       895      3528      3531      3529
 -1      1675    8    0    1
 -2       799       800       896      3218      3532      3533
 -1      1676    8    0    1
 -2       800       801       897      3221      3534      3535
 -1      1677    8    0    1
 -2       800       897       896      3535      3536      3532
 -1      1678    8    0    1
 -2       801       802       898      3224      3537      3538
 -1      1679    8    0    1
 -2       801       898       897      3538      3539      3534
 -1      1680    8    0    1
 -2       802       803       899      3227      3540      3541
 -1      1681    8    0    1
 -2       802       899       898      3541      3542      3537
 -1      1682    8    0    1
 -2       803       804       900      3230      3543      3544
 -1      1683    8    0    1
 -2       803       900       899      3544      3545      3540
 -1      1684    8    0    1
 -2       804       805       901      3233      3546      3547
 -1      1685    8    0    1
 -2       804       901       900      3547      3548      3543
 -1      1686    8    0    1
 -2       805       806       902      3236      3549      3550
 -1      1687    8    0    1
 -2       805       902       901      3550      3551      3546
 -1      1688    8    0    1
 -2       806       807       903      3239      3552      3553
 -1      1689    8    0    1
 -2       806       903       902      3553      3554      3549
 -1      1690    8    0    1
 -2       836       757       904      3414      3555      3556
 -1      1691    8    0    1
 -2       809       810       757      3254      3557      3430
 -1      1692    8    0    1
 -2       812       813       905      3263      3558      3559
 -1      1693    8    0    1
 -2       812       905       893      3559      3560      3525
 -1      1694    8    0    1
 -2       813       814       906      3266      3561      3562
 -1      1695    8    0    1
 -2       813       906       905      3562      3563      3558
 -1      1696    8    0    1
 -2       814       815       907      3269      3564      3565
 -1      1697    8    0    1
 -2       814       907       906      3565      3566      3561
 -1      1698    8    0    1
 -2       815       816       908      3272      3567      3568
 -1      1699    8    0    1
 -2       815       908       907      3568      3569      3564
 -1      1700    8    0    1
 -2       816       817       909      3275      3570      3571
 -1      1701    8    0    1
 -2       816       909       908      3571      3572      3567
 -1      1702    8    0    1
 -2       817       818       910      3278      3573      3574
 -1      1703    8    0    1
 -2       817       910       909      3574      3575      3570
 -1      1704    8    0    1
 -2       818       819       911      3281      3576      3577
 -1      1705    8    0    1
 -2       818       911       910      3577      3578      3573
 -1      1706    8    0    1
 -2       819       820       912      3284      3579      3580
 -1      1707    8    0    1
 -2       819       912       911      3580      3581      3576
 -1      1708    8    0    1
 -2       820       821       913      3287      3582      3583
 -1      1709    8    0    1
 -2       820       913       912      3583      3584      3579
 -1      1710    8    0    1
 -2       821       822       914      3290      3585      3586
 -1      1711    8    0    1
 -2       821       914       913      3586      3587      3582
 -1      1712    8    0    1
 -2       822       823       915      3293      3588      3589
 -1      1713    8    0    1
 -2       822       915       914      3589      3590      3585
 -1      1714    8    0    1
 -2       751       749       916      3054      3591      3592
 -1      1715    8    0    1
 -2       824       751       916      3297      3592      3593
 -1      1716    8    0    1
 -2       749       851       916      3378      3594      3591
 -1      1717    8    0    1
 -2       838       839       917      3398      3595      3596
 -1      1718    8    0    1
 -2       839       827       918      3397      3597      3598
 -1      1719    8    0    1
 -2       798       799       919      3215      3599      3600
 -1      1720    8    0    1
 -2       894       798       919      3527      3600      3601
 -1      1721    8    0    1
 -2       799       896       919      3533      3602      3599
 -1      1722    8    0    1
 -2       795       794       920      3204      3603      3604
 -1      1723    8    0    1
 -2       807       847       837      3383      3381      3605
 -1      1724    8    0    1
 -2       758       828       921      3308      3606      3607
 -1      1725    8    0    1
 -2       828       858       921      3412      3608      3606
 -1      1726    8    0    1
 -2       762       761       922      3097      3609      3610
 -1      1727    8    0    1
 -2       762       922       865      3610      3611      3443
 -1      1728    8    0    1
 -2       756       747       923      3081      3612      3613
 -1      1729    8    0    1
 -2       862       756       923      3431      3613      3614
 -1      1730    8    0    1
 -2       747       848       923      3367      3615      3612
 -1      1731    8    0    1
 -2       760       845       924      3427      3616      3617
 -1      1732    8    0    1
 -2       835       760       924      3373      3617      3618
 -1      1733    8    0    1
 -2       845       859       924      3417      3619      3616
 -1      1734    8    0    1
 -2       761       835       925      3331      3620      3621
 -1      1735    8    0    1
 -2       761       925       922      3621      3622      3609
 -1      1736    8    0    1
 -2       780       779       833      3382      3400      3623
 -1      1737    8    0    1
 -2       841       829       926      3372      3624      3625
 -1      1738    8    0    1
 -2       827       844       927      3422      3626      3627
 -1      1739    8    0    1
 -2       827       927       918      3627      3628      3597
 -1      1740    8    0    1
 -2       837       834       903      3426      3629      3630
 -1      1741    8    0    1
 -2       834       842       928      3347      3631      3632
 -1      1742    8    0    1
 -2       903       834       928      3629      3632      3633
 -1      1743    8    0    1
 -2       842       864       928      3441      3634      3631
 -1      1744    8    0    1
 -2       829       840       929      3428      3635      3636
 -1      1745    8    0    1
 -2       829       929       926      3636      3637      3624
 -1      1746    8    0    1
 -2       743       719       779      3049      3303      3365
 -1      1747    8    0    1
 -2       825       792       892      3524      3522      3638
 -1      1748    8    0    1
 -2       757       810       904      3557      3639      3555
 -1      1749    8    0    1
 -2       807       837       903      3605      3630      3552
 -1      1750    8    0    1
 -2       780       833       930      3623      3640      3641
 -1      1751    8    0    1
 -2       781       780       930      3163      3641      3642
 -1      1752    8    0    1
 -2       833       838       930      3429      3643      3640
 -1      1753    8    0    1
 -2       849       758       921      3369      3607      3644
 -1      1754    8    0    1
 -2       846       778       880      3442      3488      3645
 -1      1755    8    0    1
 -2       850       836       893      3376      3646      3647
 -1      1756    8    0    1
 -2       904       810       811      3639      3257      3648
 -1      1757    8    0    1
 -2       826       843       931      3351      3649      3650
 -1      1758    8    0    1
 -2       852       832       932      3384      3651      3652
 -1      1759    8    0    1
 -2       853       723       855      3389      3396      3653
 -1      1760    8    0    1
 -2       864       841       926      3440      3625      3654
 -1      1761    8    0    1
 -2       920       794       933      3603      3655      3656
 -1      1762    8    0    1
 -2       794       831       933      3319      3657      3655
 -1      1763    8    0    1
 -2       795       920       934      3604      3658      3659
 -1      1764    8    0    1
 -2       795       934       855      3659      3660      3394
 -1      1765    8    0    1
 -2       796       895       935      3530      3661      3662
 -1      1766    8    0    1
 -2       796       935       831      3662      3663      3320
 -1      1767    8    0    1
 -2       781       930       882      3642      3664      3492
 -1      1768    8    0    1
 -2       856       748       936      3403      3665      3666
 -1      1769    8    0    1
 -2       748       850       936      3375      3667      3665
 -1      1770    8    0    1
 -2       916       851       915      3594      3668      3669
 -1      1771    8    0    1
 -2       823       824       916      3296      3593      3670
 -1      1772    8    0    1
 -2       851       857       937      3408      3671      3672
 -1      1773    8    0    1
 -2       851       937       915      3672      3673      3668
 -1      1774    8    0    1
 -2       917       839       938      3595      3674      3675
 -1      1775    8    0    1
 -2       839       918       938      3598      3676      3674
 -1      1776    8    0    1
 -2       930       838       917      3643      3596      3677
 -1      1777    8    0    1
 -2       759       863       939      3436      3678      3679
 -1      1778    8    0    1
 -2       860       826       940      3421      3680      3681
 -1      1779    8    0    1
 -2       826       931       940      3650      3682      3680
 -1      1780    8    0    1
 -2       832       853       941      3388      3683      3684
 -1      1781    8    0    1
 -2       832       941       932      3684      3685      3651
 -1      1782    8    0    1
 -2       861       754       942      3423      3686      3687
 -1      1783    8    0    1
 -2       754       854       942      3392      3688      3686
 -1      1784    8    0    1
 -2       835       924       925      3618      3689      3620
 -1      1785    8    0    1
 -2       848       759       943      3368      3690      3691
 -1      1786    8    0    1
 -2       759       939       943      3679      3692      3690
 -1      1787    8    0    1
 -2       844       856       944      3402      3693      3694
 -1      1788    8    0    1
 -2       844       944       927      3694      3695      3626
 -1      1789    8    0    1
 -2       924       859       945      3619      3696      3697
 -1      1790    8    0    1
 -2       859       862       945      3433      3698      3696
 -1      1791    8    0    1
 -2       929       840       946      3635      3699      3700
 -1      1792    8    0    1
 -2       840       861       946      3425      3701      3699
 -1      1793    8    0    1
 -2       830       881       947      3491      3702      3703
 -1      1794    8    0    1
 -2       830       947       843      3703      3704      3352
 -1      1795    8    0    1
 -2       729       739       809      3011      3393      3325
 -1      1796    8    0    1
 -2       811       893       904      3526      3705      3648
 -1      1797    8    0    1
 -2       893       836       904      3646      3556      3705
 -1      1798    8    0    1
 -2       823       916       915      3670      3669      3588
 -1      1799    8    0    1
 -2       850       893       948      3647      3706      3707
 -1      1800    8    0    1
 -2       936       850       948      3667      3707      3708
 -1      1801    8    0    1
 -2       893       905       948      3560      3709      3706
 -1      1802    8    0    1
 -2       867       866       949      3450      3710      3711
 -1      1803    8    0    1
 -2       868       867       950      3453      3712      3713
 -1      1804    8    0    1
 -2       867       949       950      3711      3714      3712
 -1      1805    8    0    1
 -2       869       868       951      3456      3715      3716
 -1      1806    8    0    1
 -2       868       950       951      3713      3717      3715
 -1      1807    8    0    1
 -2       870       869       952      3459      3718      3719
 -1      1808    8    0    1
 -2       869       951       952      3716      3720      3718
 -1      1809    8    0    1
 -2       871       870       953      3462      3721      3722
 -1      1810    8    0    1
 -2       870       952       953      3719      3723      3721
 -1      1811    8    0    1
 -2       872       871       954      3465      3724      3725
 -1      1812    8    0    1
 -2       871       953       954      3722      3726      3724
 -1      1813    8    0    1
 -2       873       872       955      3468      3727      3728
 -1      1814    8    0    1
 -2       872       954       955      3725      3729      3727
 -1      1815    8    0    1
 -2       874       873       956      3471      3730      3731
 -1      1816    8    0    1
 -2       873       955       956      3728      3732      3730
 -1      1817    8    0    1
 -2       875       874       957      3474      3733      3734
 -1      1818    8    0    1
 -2       874       956       957      3731      3735      3733
 -1      1819    8    0    1
 -2       876       875       958      3477      3736      3737
 -1      1820    8    0    1
 -2       875       957       958      3734      3738      3736
 -1      1821    8    0    1
 -2       877       876       959      3480      3739      3740
 -1      1822    8    0    1
 -2       876       958       959      3737      3741      3739
 -1      1823    8    0    1
 -2       878       877       960      3483      3742      3743
 -1      1824    8    0    1
 -2       877       959       960      3740      3744      3742
 -1      1825    8    0    1
 -2       879       878       961      3486      3745      3746
 -1      1826    8    0    1
 -2       878       960       961      3743      3747      3745
 -1      1827    8    0    1
 -2       881       825       892      3490      3638      3748
 -1      1828    8    0    1
 -2       866       865       962      3447      3749      3750
 -1      1829    8    0    1
 -2       866       962       949      3750      3751      3710
 -1      1830    8    0    1
 -2       931       843       947      3649      3704      3752
 -1      1831    8    0    1
 -2       852       932       963      3652      3753      3754
 -1      1832    8    0    1
 -2       853       855       964      3653      3755      3756
 -1      1833    8    0    1
 -2       855       934       964      3660      3757      3755
 -1      1834    8    0    1
 -2       884       883       965      3499      3758      3759
 -1      1835    8    0    1
 -2       885       884       966      3502      3760      3761
 -1      1836    8    0    1
 -2       884       965       966      3759      3762      3760
 -1      1837    8    0    1
 -2       886       885       967      3505      3763      3764
 -1      1838    8    0    1
 -2       885       966       967      3761      3765      3763
 -1      1839    8    0    1
 -2       887       886       968      3508      3766      3767
 -1      1840    8    0    1
 -2       886       967       968      3764      3768      3766
 -1      1841    8    0    1
 -2       888       887       969      3511      3769      3770
 -1      1842    8    0    1
 -2       887       968       969      3767      3771      3769
 -1      1843    8    0    1
 -2       889       888       970      3514      3772      3773
 -1      1844    8    0    1
 -2       888       969       970      3770      3774      3772
 -1      1845    8    0    1
 -2       890       889       971      3517      3775      3776
 -1      1846    8    0    1
 -2       889       970       971      3773      3777      3775
 -1      1847    8    0    1
 -2       891       890       972      3520      3778      3779
 -1      1848    8    0    1
 -2       890       971       972      3776      3780      3778
 -1      1849    8    0    1
 -2       892       891       973      3523      3781      3782
 -1      1850    8    0    1
 -2       891       972       973      3779      3783      3781
 -1      1851    8    0    1
 -2       905       906       974      3563      3784      3785
 -1      1852    8    0    1
 -2       905       974       948      3785      3786      3709
 -1      1853    8    0    1
 -2       854       846       880      3390      3645      3787
 -1      1854    8    0    1
 -2       897       898       975      3539      3788      3789
 -1      1855    8    0    1
 -2       896       897       976      3536      3790      3791
 -1      1856    8    0    1
 -2       897       975       976      3789      3792      3790
 -1      1857    8    0    1
 -2       899       900       977      3545      3793      3794
 -1      1858    8    0    1
 -2       900       901       978      3548      3795      3796
 -1      1859    8    0    1
 -2       900       978       977      3796      3797      3793
 -1      1860    8    0    1
 -2       901       902       979      3551      3798      3799
 -1      1861    8    0    1
 -2       901       979       978      3799      3800      3795
 -1      1862    8    0    1
 -2       902       903       928      3554      3633      3801
 -1      1863    8    0    1
 -2       926       929       980      3637      3802      3803
 -1      1864    8    0    1
 -2       864       926       981      3654      3804      3805
 -1      1865    8    0    1
 -2       906       907       982      3566      3806      3807
 -1      1866    8    0    1
 -2       906       982       974      3807      3808      3784
 -1      1867    8    0    1
 -2       907       908       983      3569      3809      3810
 -1      1868    8    0    1
 -2       907       983       982      3810      3811      3806
 -1      1869    8    0    1
 -2       908       909       984      3572      3812      3813
 -1      1870    8    0    1
 -2       908       984       983      3813      3814      3809
 -1      1871    8    0    1
 -2       909       910       985      3575      3815      3816
 -1      1872    8    0    1
 -2       909       985       984      3816      3817      3812
 -1      1873    8    0    1
 -2       910       911       986      3578      3818      3819
 -1      1874    8    0    1
 -2       910       986       985      3819      3820      3815
 -1      1875    8    0    1
 -2       911       912       987      3581      3821      3822
 -1      1876    8    0    1
 -2       911       987       986      3822      3823      3818
 -1      1877    8    0    1
 -2       912       913       988      3584      3824      3825
 -1      1878    8    0    1
 -2       912       988       987      3825      3826      3821
 -1      1879    8    0    1
 -2       913       914       989      3587      3827      3828
 -1      1880    8    0    1
 -2       913       989       988      3828      3829      3824
 -1      1881    8    0    1
 -2       914       915       937      3590      3673      3830
 -1      1882    8    0    1
 -2       858       852       963      3413      3754      3831
 -1      1883    8    0    1
 -2       939       863       990      3678      3832      3833
 -1      1884    8    0    1
 -2       863       849       990      3437      3834      3832
 -1      1885    8    0    1
 -2       930       917       882      3677      3835      3664
 -1      1886    8    0    1
 -2       865       922       991      3611      3836      3837
 -1      1887    8    0    1
 -2       865       991       962      3837      3838      3749
 -1      1888    8    0    1
 -2       921       858       963      3608      3831      3839
 -1      1889    8    0    1
 -2       854       880       942      3787      3840      3688
 -1      1890    8    0    1
 -2       945       862       992      3698      3841      3842
 -1      1891    8    0    1
 -2       862       923       992      3614      3843      3841
 -1      1892    8    0    1
 -2       924       945       925      3697      3844      3689
 -1      1893    8    0    1
 -2       922       925       993      3622      3845      3846
 -1      1894    8    0    1
 -2       922       993       991      3846      3847      3836
 -1      1895    8    0    1
 -2       882       917       883      3835      3848      3496
 -1      1896    8    0    1
 -2       895       894       994      3531      3849      3850
 -1      1897    8    0    1
 -2       918       927       995      3628      3851      3852
 -1      1898    8    0    1
 -2       898       899       996      3542      3853      3854
 -1      1899    8    0    1
 -2       899       977       996      3794      3855      3853
 -1      1900    8    0    1
 -2       849       921       990      3644      3856      3834
 -1      1901    8    0    1
 -2       857       860       997      3420      3857      3858
 -1      1902    8    0    1
 -2       860       940       997      3681      3859      3857
 -1      1903    8    0    1
 -2       925       945       998      3844      3860      3861
 -1      1904    8    0    1
 -2       993       925       998      3845      3861      3862
 -1      1905    8    0    1
 -2       945       992       998      3842      3863      3860
 -1      1906    8    0    1
 -2       881       892       973      3748      3782      3864
 -1      1907    8    0    1
 -2       883       917       965      3848      3865      3758
 -1      1908    8    0    1
 -2       861       942       999      3687      3866      3867
 -1      1909    8    0    1
 -2       861       999       946      3867      3868      3701
 -1      1910    8    0    1
 -2       880       879      1000      3489      3869      3870
 -1      1911    8    0    1
 -2       921       963       990      3839      3871      3856
 -1      1912    8    0    1
 -2       963       932      1001      3753      3872      3873
 -1      1913    8    0    1
 -2       963      1001       990      3873      3874      3871
 -1      1914    8    0    1
 -2       853       964       941      3756      3875      3683
 -1      1915    8    0    1
 -2       933       831       935      3657      3663      3876
 -1      1916    8    0    1
 -2       934       920      1002      3658      3877      3878
 -1      1917    8    0    1
 -2       975       898       996      3788      3854      3879
 -1      1918    8    0    1
 -2       935       895      1003      3661      3880      3881
 -1      1919    8    0    1
 -2       895       994      1003      3850      3882      3880
 -1      1920    8    0    1
 -2       896       976      1004      3791      3883      3884
 -1      1921    8    0    1
 -2       896      1004       919      3884      3885      3602
 -1      1922    8    0    1
 -2       979       902       928      3798      3801      3886
 -1      1923    8    0    1
 -2       981       926       980      3804      3803      3887
 -1      1924    8    0    1
 -2       980       929      1005      3802      3888      3889
 -1      1925    8    0    1
 -2       929       946      1005      3700      3890      3888
 -1      1926    8    0    1
 -2       931       947      1006      3752      3891      3892
 -1      1927    8    0    1
 -2       914       937       989      3830      3893      3827
 -1      1928    8    0    1
 -2       937       857       997      3671      3858      3894
 -1      1929    8    0    1
 -2       938       918       995      3676      3852      3895
 -1      1930    8    0    1
 -2       940       931      1007      3682      3896      3897
 -1      1931    8    0    1
 -2       931      1006      1007      3892      3898      3896
 -1      1932    8    0    1
 -2       894       919      1008      3601      3899      3900
 -1      1933    8    0    1
 -2       919      1004      1008      3885      3901      3899
 -1      1934    8    0    1
 -2       881       973       947      3864      3902      3702
 -1      1935    8    0    1
 -2       943       939      1009      3692      3903      3904
 -1      1936    8    0    1
 -2       944       856      1010      3693      3905      3906
 -1      1937    8    0    1
 -2       856       936      1010      3666      3907      3905
 -1      1938    8    0    1
 -2       923       848      1011      3615      3908      3909
 -1      1939    8    0    1
 -2       992       923      1011      3843      3909      3910
 -1      1940    8    0    1
 -2       848       943      1011      3691      3911      3908
 -1      1941    8    0    1
 -2       894      1008       994      3900      3912      3849
 -1      1942    8    0    1
 -2       928       864       979      3634      3913      3886
 -1      1943    8    0    1
 -2       995       927      1012      3851      3914      3915
 -1      1944    8    0    1
 -2       927       944      1012      3695      3916      3914
 -1      1945    8    0    1
 -2       979       864       981      3913      3805      3917
 -1      1946    8    0    1
 -2       879       961      1000      3746      3918      3869
 -1      1947    8    0    1
 -2       920       933      1013      3656      3919      3920
 -1      1948    8    0    1
 -2       920      1013      1002      3920      3921      3877
 -1      1949    8    0    1
 -2       939       990      1001      3833      3874      3922
 -1      1950    8    0    1
 -2       932       941      1014      3685      3923      3924
 -1      1951    8    0    1
 -2       932      1014      1001      3924      3925      3872
 -1      1952    8    0    1
 -2       939      1001      1009      3922      3926      3903
 -1      1953    8    0    1
 -2       950       949      1015      3714      3927      3928
 -1      1954    8    0    1
 -2       951       950      1016      3717      3929      3930
 -1      1955    8    0    1
 -2       950      1015      1016      3928      3931      3929
 -1      1956    8    0    1
 -2       952       951      1017      3720      3932      3933
 -1      1957    8    0    1
 -2       951      1016      1017      3930      3934      3932
 -1      1958    8    0    1
 -2       953       952      1018      3723      3935      3936
 -1      1959    8    0    1
 -2       952      1017      1018      3933      3937      3935
 -1      1960    8    0    1
 -2       954       953      1019      3726      3938      3939
 -1      1961    8    0    1
 -2       953      1018      1019      3936      3940      3938
 -1      1962    8    0    1
 -2       955       954      1020      3729      3941      3942
 -1      1963    8    0    1
 -2       954      1019      1020      3939      3943      3941
 -1      1964    8    0    1
 -2       956       955      1021      3732      3944      3945
 -1      1965    8    0    1
 -2       955      1020      1021      3942      3946      3944
 -1      1966    8    0    1
 -2       957       956      1022      3735      3947      3948
 -1      1967    8    0    1
 -2       956      1021      1022      3945      3949      3947
 -1      1968    8    0    1
 -2       958       957      1023      3738      3950      3951
 -1      1969    8    0    1
 -2       957      1022      1023      3948      3952      3950
 -1      1970    8    0    1
 -2       959       958      1024      3741      3953      3954
 -1      1971    8    0    1
 -2       958      1023      1024      3951      3955      3953
 -1      1972    8    0    1
 -2       960       959      1025      3744      3956      3957
 -1      1973    8    0    1
 -2       959      1024      1025      3954      3958      3956
 -1      1974    8    0    1
 -2       961       960      1026      3747      3959      3960
 -1      1975    8    0    1
 -2       960      1025      1026      3957      3961      3959
 -1      1976    8    0    1
 -2       966       965      1027      3762      3962      3963
 -1      1977    8    0    1
 -2       941       964      1028      3875      3964      3965
 -1      1978    8    0    1
 -2       941      1028      1014      3965      3966      3923
 -1      1979    8    0    1
 -2      1009      1001      1029      3926      3967      3968
 -1      1980    8    0    1
 -2      1001      1014      1029      3925      3969      3967
 -1      1981    8    0    1
 -2       964       934      1030      3757      3970      3971
 -1      1982    8    0    1
 -2       934      1002      1030      3878      3972      3970
 -1      1983    8    0    1
 -2       967       966      1031      3765      3973      3974
 -1      1984    8    0    1
 -2       966      1027      1031      3963      3975      3973
 -1      1985    8    0    1
 -2       968       967      1032      3768      3976      3977
 -1      1986    8    0    1
 -2       967      1031      1032      3974      3978      3976
 -1      1987    8    0    1
 -2       969       968      1033      3771      3979      3980
 -1      1988    8    0    1
 -2       968      1032      1033      3977      3981      3979
 -1      1989    8    0    1
 -2       970       969      1034      3774      3982      3983
 -1      1990    8    0    1
 -2       969      1033      1034      3980      3984      3982
 -1      1991    8    0    1
 -2       971       970      1035      3777      3985      3986
 -1      1992    8    0    1
 -2       970      1034      1035      3983      3987      3985
 -1      1993    8    0    1
 -2       972       971      1036      3780      3988      3989
 -1      1994    8    0    1
 -2       971      1035      1036      3986      3990      3988
 -1      1995    8    0    1
 -2       973       972      1037      3783      3991      3992
 -1      1996    8    0    1
 -2       972      1036      1037      3989      3993      3991
 -1      1997    8    0    1
 -2       982       983      1038      3811      3994      3995
 -1      1998    8    0    1
 -2       975       996      1039      3879      3996      3997
 -1      1999    8    0    1
 -2       976       975      1040      3792      3998      3999
 -1      2000    8    0    1
 -2       975      1039      1040      3997      4000      3998
 -1      2001    8    0    1
 -2       978       979      1041      3800      4001      4002
 -1      2002    8    0    1
 -2       979       981      1041      3917      4003      4001
 -1      2003    8    0    1
 -2       977       978      1042      3797      4004      4005
 -1      2004    8    0    1
 -2       978      1041      1042      4002      4006      4004
 -1      2005    8    0    1
 -2      1006       947       973      3891      3902      4007
 -1      2006    8    0    1
 -2       989       937      1043      3893      4008      4009
 -1      2007    8    0    1
 -2       937       997      1043      3894      4010      4008
 -1      2008    8    0    1
 -2       974       982      1044      3808      4011      4012
 -1      2009    8    0    1
 -2       982      1038      1044      3995      4013      4011
 -1      2010    8    0    1
 -2       984       985      1045      3817      4014      4015
 -1      2011    8    0    1
 -2       985       986      1046      3820      4016      4017
 -1      2012    8    0    1
 -2       985      1046      1045      4017      4018      4014
 -1      2013    8    0    1
 -2       986       987      1047      3823      4019      4020
 -1      2014    8    0    1
 -2       986      1047      1046      4020      4021      4016
 -1      2015    8    0    1
 -2       987       988      1048      3826      4022      4023
 -1      2016    8    0    1
 -2       987      1048      1047      4023      4024      4019
 -1      2017    8    0    1
 -2       988       989      1043      3829      4009      4025
 -1      2018    8    0    1
 -2       942       880      1000      3840      3870      4026
 -1      2019    8    0    1
 -2       936       948      1049      3708      4027      4028
 -1      2020    8    0    1
 -2      1010       936      1049      3907      4028      4029
 -1      2021    8    0    1
 -2       948       974      1049      3786      4030      4027
 -1      2022    8    0    1
 -2       981       980      1050      3887      4031      4032
 -1      2023    8    0    1
 -2      1041       981      1050      4003      4032      4033
 -1      2024    8    0    1
 -2       980      1005      1050      3889      4034      4031
 -1      2025    8    0    1
 -2       933       935      1051      3876      4035      4036
 -1      2026    8    0    1
 -2      1013       933      1051      3919      4036      4037
 -1      2027    8    0    1
 -2       935      1003      1051      3881      4038      4035
 -1      2028    8    0    1
 -2       962       991      1052      3838      4039      4040
 -1      2029    8    0    1
 -2       996       977      1053      3855      4041      4042
 -1      2030    8    0    1
 -2      1039       996      1053      3996      4042      4043
 -1      2031    8    0    1
 -2       977      1042      1053      4005      4044      4041
 -1      2032    8    0    1
 -2       991       993      1054      3847      4045      4046
 -1      2033    8    0    1
 -2       991      1054      1052      4046      4047      4039
 -1      2034    8    0    1
 -2       994      1008      1055      3912      4048      4049
 -1      2035    8    0    1
 -2       943      1009      1056      3904      4050      4051
 -1      2036    8    0    1
 -2       943      1056      1011      4051      4052      3911
 -1      2037    8    0    1
 -2       949       962      1057      3751      4053      4054
 -1      2038    8    0    1
 -2       962      1052      1057      4040      4055      4053
 -1      2039    8    0    1
 -2       997       940      1058      3859      4056      4057
 -1      2040    8    0    1
 -2      1043       997      1058      4010      4057      4058
 -1      2041    8    0    1
 -2       940      1007      1058      3897      4059      4056
 -1      2042    8    0    1
 -2       942      1000       999      4026      4060      3866
 -1      2043    8    0    1
 -2       983       984      1059      3814      4061      4062
 -1      2044    8    0    1
 -2       984      1045      1059      4015      4063      4061
 -1      2045    8    0    1
 -2      1006       973      1037      4007      3992      4064
 -1      2046    8    0    1
 -2      1002      1013      1060      3921      4065      4066
 -1      2047    8    0    1
 -2      1030      1002      1061      3972      4067      4068
 -1      2048    8    0    1
 -2      1002      1060      1061      4066      4069      4067
 -1      2049    8    0    1
 -2       946       999      1005      3868      4070      3890
 -1      2050    8    0    1
 -2      1015       949      1057      3927      4054      4071
 -1      2051    8    0    1
 -2      1038       983      1059      3994      4062      4072
 -1      2052    8    0    1
 -2       976      1040      1062      3999      4073      4074
 -1      2053    8    0    1
 -2       976      1062      1004      4074      4075      3883
 -1      2054    8    0    1
 -2      1003       994      1063      3882      4076      4077
 -1      2055    8    0    1
 -2       994      1055      1063      4049      4078      4076
 -1      2056    8    0    1
 -2       917       938       965      3675      4079      3865
 -1      2057    8    0    1
 -2      1000       961       999      3918      4080      4060
 -1      2058    8    0    1
 -2       988      1043      1048      4025      4081      4022
 -1      2059    8    0    1
 -2       974      1044      1049      4012      4082      4030
 -1      2060    8    0    1
 -2      1007      1006      1064      3898      4083      4084
 -1      2061    8    0    1
 -2      1006      1037      1064      4064      4085      4083
 -1      2062    8    0    1
 -2      1008      1004      1065      3901      4086      4087
 -1      2063    8    0    1
 -2      1004      1062      1065      4075      4088      4086
 -1      2064    8    0    1
 -2       938       995      1027      3895      4089      4090
 -1      2065    8    0    1
 -2       993       998      1054      3862      4091      4045
 -1      2066    8    0    1
 -2       938      1027       965      4090      3962      4079
 -1      2067    8    0    1
 -2      1008      1065      1055      4087      4092      4048
 -1      2068    8    0    1
 -2       944      1010      1066      3906      4093      4094
 -1      2069    8    0    1
 -2       944      1066      1012      4094      4095      3916
 -1      2070    8    0    1
 -2       999       961      1026      4080      3960      4096
 -1      2071    8    0    1
 -2      1056      1009      1067      4050      4097      4098
 -1      2072    8    0    1
 -2      1009      1029      1067      3968      4099      4097
 -1      2073    8    0    1
 -2      1028       964      1030      3964      3971      4100
 -1      2074    8    0    1
 -2       998       992      1068      3863      4101      4102
 -1      2075    8    0    1
 -2      1054       998      1068      4091      4102      4103
 -1      2076    8    0    1
 -2       992      1011      1068      3910      4104      4101
 -1      2077    8    0    1
 -2      1027       995      1069      4089      4105      4106
 -1      2078    8    0    1
 -2      1031      1027      1069      3975      4106      4107
 -1      2079    8    0    1
 -2       995      1012      1069      3915      4108      4105
 -1      2080    8    0    1
 -2      1017      1016      1070      3934      4109      4110
 -1      2081    8    0    1
 -2      1018      1017      1071      3937      4111      4112
 -1      2082    8    0    1
 -2      1017      1070      1071      4110      4113      4111
 -1      2083    8    0    1
 -2      1019      1018      1072      3940      4114      4115
 -1      2084    8    0    1
 -2      1018      1071      1072      4112      4116      4114
 -1      2085    8    0    1
 -2      1020      1019      1073      3943      4117      4118
 -1      2086    8    0    1
 -2      1019      1072      1073      4115      4119      4117
 -1      2087    8    0    1
 -2      1021      1020      1074      3946      4120      4121
 -1      2088    8    0    1
 -2      1020      1073      1074      4118      4122      4120
 -1      2089    8    0    1
 -2      1022      1021      1075      3949      4123      4124
 -1      2090    8    0    1
 -2      1021      1074      1075      4121      4125      4123
 -1      2091    8    0    1
 -2      1023      1022      1076      3952      4126      4127
 -1      2092    8    0    1
 -2      1022      1075      1076      4124      4128      4126
 -1      2093    8    0    1
 -2      1024      1023      1077      3955      4129      4130
 -1      2094    8    0    1
 -2      1023      1076      1077      4127      4131      4129
 -1      2095    8    0    1
 -2      1025      1024      1078      3958      4132      4133
 -1      2096    8    0    1
 -2      1024      1077      1078      4130      4134      4132
 -1      2097    8    0    1
 -2      1026      1025      1079      3961      4135      4136
 -1      2098    8    0    1
 -2      1025      1078      1079      4133      4137      4135
 -1      2099    8    0    1
 -2      1014      1028      1080      3966      4138      4139
 -1      2100    8    0    1
 -2      1014      1080      1029      4139      4140      3969
 -1      2101    8    0    1
 -2      1032      1031      1081      3978      4141      4142
 -1      2102    8    0    1
 -2      1033      1032      1082      3981      4143      4144
 -1      2103    8    0    1
 -2      1032      1081      1082      4142      4145      4143
 -1      2104    8    0    1
 -2      1034      1033      1083      3984      4146      4147
 -1      2105    8    0    1
 -2      1033      1082      1083      4144      4148      4146
 -1      2106    8    0    1
 -2      1035      1034      1084      3987      4149      4150
 -1      2107    8    0    1
 -2      1034      1083      1084      4147      4151      4149
 -1      2108    8    0    1
 -2      1036      1035      1085      3990      4152      4153
 -1      2109    8    0    1
 -2      1035      1084      1085      4150      4154      4152
 -1      2110    8    0    1
 -2      1037      1036      1086      3993      4155      4156
 -1      2111    8    0    1
 -2      1064      1037      1086      4085      4156      4157
 -1      2112    8    0    1
 -2      1036      1085      1086      4153      4158      4155
 -1      2113    8    0    1
 -2      1060      1013      1087      4065      4159      4160
 -1      2114    8    0    1
 -2      1013      1051      1087      4037      4161      4159
 -1      2115    8    0    1
 -2      1005       999      1026      4070      4096      4162
 -1      2116    8    0    1
 -2      1042      1041      1088      4006      4163      4164
 -1      2117    8    0    1
 -2      1041      1050      1088      4033      4165      4163
 -1      2118    8    0    1
 -2      1047      1048      1089      4024      4166      4167
 -1      2119    8    0    1
 -2      1015      1057      1090      4071      4168      4169
 -1      2120    8    0    1
 -2      1044      1038      1091      4013      4170      4171
 -1      2121    8    0    1
 -2      1046      1047      1092      4021      4172      4173
 -1      2122    8    0    1
 -2      1047      1089      1092      4167      4174      4172
 -1      2123    8    0    1
 -2      1045      1046      1093      4018      4175      4176
 -1      2124    8    0    1
 -2      1046      1092      1093      4173      4177      4175
 -1      2125    8    0    1
 -2      1038      1059      1094      4072      4178      4179
 -1      2126    8    0    1
 -2      1038      1094      1091      4179      4180      4170
 -1      2127    8    0    1
 -2      1010      1049      1095      4029      4181      4182
 -1      2128    8    0    1
 -2      1066      1010      1095      4093      4182      4183
 -1      2129    8    0    1
 -2      1049      1044      1095      4082      4184      4181
 -1      2130    8    0    1
 -2      1040      1039      1096      4000      4185      4186
 -1      2131    8    0    1
 -2      1055      1065      1097      4092      4187      4188
 -1      2132    8    0    1
 -2      1052      1054      1098      4047      4189      4190
 -1      2133    8    0    1
 -2      1048      1043      1099      4081      4191      4192
 -1      2134    8    0    1
 -2      1089      1048      1099      4166      4192      4193
 -1      2135    8    0    1
 -2      1043      1058      1099      4058      4194      4191
 -1      2136    8    0    1
 -2      1011      1056      1068      4052      4195      4104
 -1      2137    8    0    1
 -2      1057      1052      1100      4055      4196      4197
 -1      2138    8    0    1
 -2      1052      1098      1100      4190      4198      4196
 -1      2139    8    0    1
 -2      1005      1026      1079      4162      4136      4199
 -1      2140    8    0    1
 -2      1028      1030      1101      4100      4200      4201
 -1      2141    8    0    1
 -2      1080      1028      1101      4138      4201      4202
 -1      2142    8    0    1
 -2      1030      1061      1101      4068      4203      4200
 -1      2143    8    0    1
 -2      1059      1045      1102      4063      4204      4205
 -1      2144    8    0    1
 -2      1045      1093      1102      4176      4206      4204
 -1      2145    8    0    1
 -2      1016      1015      1103      3931      4207      4208
 -1      2146    8    0    1
 -2      1015      1090      1103      4169      4209      4207
 -1      2147    8    0    1
 -2      1059      1102      1094      4205      4210      4178
 -1      2148    8    0    1
 -2      1056      1067      1068      4098      4211      4195
 -1      2149    8    0    1
 -2      1081      1031      1069      4141      4107      4212
 -1      2150    8    0    1
 -2      1060      1087      1104      4160      4213      4214
 -1      2151    8    0    1
 -2      1070      1016      1103      4109      4208      4215
 -1      2152    8    0    1
 -2      1062      1040      1105      4073      4216      4217
 -1      2153    8    0    1
 -2      1040      1096      1105      4186      4218      4216
 -1      2154    8    0    1
 -2      1090      1057      1100      4168      4197      4219
 -1      2155    8    0    1
 -2      1063      1055      1106      4078      4220      4221
 -1      2156    8    0    1
 -2      1055      1097      1106      4188      4222      4220
 -1      2157    8    0    1
 -2      1051      1003      1107      4038      4223      4224
 -1      2158    8    0    1
 -2      1003      1063      1107      4077      4225      4223
 -1      2159    8    0    1
 -2      1007      1064      1108      4084      4226      4227
 -1      2160    8    0    1
 -2      1058      1007      1108      4059      4227      4228
 -1      2161    8    0    1
 -2      1064      1086      1108      4157      4229      4226
 -1      2162    8    0    1
 -2      1065      1062      1109      4088      4230      4231
 -1      2163    8    0    1
 -2      1062      1105      1109      4217      4232      4230
 -1      2164    8    0    1
 -2      1069      1012      1110      4108      4233      4234
 -1      2165    8    0    1
 -2      1081      1069      1110      4212      4234      4235
 -1      2166    8    0    1
 -2      1012      1066      1110      4095      4236      4233
 -1      2167    8    0    1
 -2      1053      1042      1111      4044      4237      4238
 -1      2168    8    0    1
 -2      1042      1088      1111      4164      4239      4237
 -1      2169    8    0    1
 -2      1050      1005      1079      4034      4199      4240
 -1      2170    8    0    1
 -2      1096      1039      1112      4185      4241      4242
 -1      2171    8    0    1
 -2      1039      1053      1112      4043      4243      4241
 -1      2172    8    0    1
 -2      1098      1054      1068      4189      4103      4244
 -1      2173    8    0    1
 -2      1067      1029      1080      4099      4140      4245
 -1      2174    8    0    1
 -2      1097      1065      1109      4187      4231      4246
 -1      2175    8    0    1
 -2      1060      1104      1113      4214      4247      4248
 -1      2176    8    0    1
 -2      1060      1113      1061      4248      4249      4069
 -1      2177    8    0    1
 -2      1072      1071      1114      4116      4250      4251
 -1      2178    8    0    1
 -2      1073      1072      1106      4119      4252      4253
 -1      2179    8    0    1
 -2      1074      1073      1097      4122      4254      4255
 -1      2180    8    0    1
 -2      1075      1074      1109      4125      4256      4257
 -1      2181    8    0    1
 -2      1076      1075      1105      4128      4258      4259
 -1      2182    8    0    1
 -2      1077      1076      1096      4131      4260      4261
 -1      2183    8    0    1
 -2      1079      1078      1111      4137      4262      4263
 -1      2184    8    0    1
 -2      1102      1093      1115      4206      4264      4265
 -1      2185    8    0    1
 -2      1104      1087      1116      4213      4266      4267
 -1      2186    8    0    1
 -2      1070      1103      1104      4215      4268      4269
 -1      2187    8    0    1
 -2      1083      1082      1115      4148      4270      4271
 -1      2188    8    0    1
 -2      1084      1083      1117      4151      4272      4273
 -1      2189    8    0    1
 -2      1083      1115      1117      4271      4274      4272
 -1      2190    8    0    1
 -2      1085      1084      1118      4154      4275      4276
 -1      2191    8    0    1
 -2      1084      1117      1118      4273      4277      4275
 -1      2192    8    0    1
 -2      1044      1091      1095      4171      4278      4184
 -1      2193    8    0    1
 -2      1093      1092      1117      4177      4279      4280
 -1      2194    8    0    1
 -2      1090      1100      1119      4219      4281      4282
 -1      2195    8    0    1
 -2      1087      1051      1107      4161      4224      4283
 -1      2196    8    0    1
 -2      1071      1070      1116      4113      4284      4285
 -1      2197    8    0    1
 -2      1096      1076      1105      4260      4259      4218
 -1      2198    8    0    1
 -2      1109      1074      1097      4256      4255      4246
 -1      2199    8    0    1
 -2      1097      1073      1106      4254      4253      4222
 -1      2200    8    0    1
 -2      1092      1089      1118      4174      4286      4287
 -1      2201    8    0    1
 -2      1103      1090      1113      4209      4288      4289
 -1      2202    8    0    1
 -2      1082      1081      1120      4145      4290      4291
 -1      2203    8    0    1
 -2      1115      1082      1120      4270      4291      4292
 -1      2204    8    0    1
 -2      1081      1110      1120      4235      4293      4290
 -1      2205    8    0    1
 -2      1104      1103      1113      4268      4289      4247
 -1      2206    8    0    1
 -2      1075      1109      1105      4257      4232      4258
 -1      2207    8    0    1
 -2      1077      1096      1112      4261      4242      4294
 -1      2208    8    0    1
 -2      1070      1104      1116      4269      4267      4284
 -1      2209    8    0    1
 -2      1116      1087      1107      4266      4283      4295
 -1      2210    8    0    1
 -2      1080      1101      1119      4202      4296      4297
 -1      2211    8    0    1
 -2      1118      1089      1121      4286      4298      4299
 -1      2212    8    0    1
 -2      1085      1118      1121      4276      4299      4300
 -1      2213    8    0    1
 -2      1089      1099      1121      4193      4301      4298
 -1      2214    8    0    1
 -2      1078      1077      1112      4134      4294      4302
 -1      2215    8    0    1
 -2      1102      1115      1120      4265      4292      4303
 -1      2216    8    0    1
 -2      1099      1058      1108      4194      4228      4304
 -1      2217    8    0    1
 -2      1061      1113      1101      4249      4305      4203
 -1      2218    8    0    1
 -2      1095      1091      1066      4278      4306      4183
 -1      2219    8    0    1
 -2      1119      1100      1080      4281      4307      4297
 -1      2220    8    0    1
 -2      1086      1085      1121      4158      4300      4308
 -1      2221    8    0    1
 -2      1066      1091      1110      4306      4309      4236
 -1      2222    8    0    1
 -2      1110      1091      1094      4309      4180      4310
 -1      2223    8    0    1
 -2      1080      1100      1098      4307      4198      4311
 -1      2224    8    0    1
 -2      1115      1093      1117      4264      4280      4274
 -1      2225    8    0    1
 -2      1092      1118      1117      4287      4277      4279
 -1      2226    8    0    1
 -2      1107      1063      1122      4225      4312      4313
 -1      2227    8    0    1
 -2      1116      1107      1122      4295      4313      4314
 -1      2228    8    0    1
 -2      1063      1106      1122      4221      4315      4312
 -1      2229    8    0    1
 -2      1088      1050      1079      4165      4240      4316
 -1      2230    8    0    1
 -2      1094      1102      1120      4210      4303      4317
 -1      2231    8    0    1
 -2      1088      1079      1111      4316      4263      4239
 -1      2232    8    0    1
 -2      1080      1098      1067      4311      4318      4245
 -1      2233    8    0    1
 -2      1068      1067      1098      4211      4318      4244
 -1      2234    8    0    1
 -2      1111      1078      1112      4262      4302      4319
 -1      2235    8    0    1
 -2      1110      1094      1120      4310      4317      4293
 -1      2236    8    0    1
 -2      1112      1053      1111      4243      4238      4319
 -1      2237    8    0    1
 -2      1121      1099      1108      4301      4304      4320
 -1      2238    8    0    1
 -2      1108      1086      1121      4229      4308      4320
 -1      2239    8    0    1
 -2      1090      1119      1113      4282      4321      4288
 -1      2240    8    0    1
 -2      1113      1119      1101      4321      4296      4305
 -1      2241    8    0    1
 -2      1106      1072      1114      4252      4251      4322
 -1      2242    8    0    1
 -2      1071      1116      1114      4285      4323      4250
 -1      2243    8    0    1
 -2      1114      1116      1122      4323      4314      4324
 -1      2244    8    0    1
 -2      1106      1114      1122      4322      4324      4315
 -3
    1PSTEP                         1           1           1          
  100CL  101 1.000000000        4324                     0    1           1
 -4  DISP        4    1
 -5  D1          1    2    1    0
 -5  D2          1    2    2    0
 -5  D3          1    2    3    0
 -5  ALL         1    2    0    0    1ALL
 -1         1 7.67142E-03-7.59211E-04-3.10779E-14
 -1         2 1.07953E-02-5.76707E-06-3.85799E-14
 -1         3 1.51746E-02 6.73331E-04-8.97875E-14
 -1         4 1.51937E-02-7.17158E-04-8.98165E-14
 -1         5 0.00000E+00 0.00000E+00 0.00000E+00
 -1         6 0.00000E+00 0.00000E+00 0.00000E+00
 -1         7 0.00000E+00 0.00000E+00 0.00000E+00
 -1         8 0.00000E+00 0.00000E+00 0.00000E+00
 -1         9 0.00000E+00 0.00000E+00 0.00000E+00
 -1        10 0.00000E+00 0.00000E+00 0.00000E+00
 -1        11 0.00000E+00 0.00000E+00 0.00000E+00
 -1        12 0.00000E+00 0.00000E+00 0.00000E+00
 -1        13 0.00000E+00 0.00000E+00 0.00000E+00
 -1        14 0.00000E+00 0.00000E+00 0.00000E+00
 -1        15 0.00000E+00 0.00000E+00 0.00000E+00
 -1        16 0.00000E+00 0.00000E+00 0.00000E+00
 -1        17 0.00000E+00 0.00000E+00 0.00000E+00
 -1        18 0.00000E+00 0.00000E+00 0.00000E+00
 -1        19 0.00000E+00 0.00000E+00 0.00000E+00
 -1        20 0.00000E+00 0.00000E+00 0.00000E+00
 -1        21 0.00000E+00 0.00000E+00 0.00000E+00
 -1        22 0.00000E+00 0.00000E+00 0.00000E+00
 -1        23 4.10660E-04-2.60318E-04 3.40846E-17
 -1        24 7.02052E-04-4.00091E-04-3.07168E-17
 -1        25 9.71553E-04-4.96788E-04-1.93727E-16
 -1        26 1.23550E-03-5.64592E-04-4.52973E-16
 -1        27 1.49854E-03-6.12586E-04-8.06026E-16
 -1        28 1.76281E-03-6.46091E-04-1.25244E-15
 -1        29 2.02934E-03-6.68739E-04-1.79179E-15
 -1        30 2.29861E-03-6.83145E-04-2.42353E-15
 -1        31 2.57084E-03-6.91249E-04-3.14751E-15
 -1        32 2.84613E-03-6.94511E-04-3.96053E-15
 -1        33 3.12457E-03-6.94048E-04-4.85724E-15
 -1        34 3.40630E-03-6.90742E-04-5.82933E-15
 -1        35 3.69160E-03-6.85336E-04-6.87967E-15
 -1        36 3.98090E-03-6.78540E-04-7.99897E-15
 -1        37 4.27485E-03-6.71134E-04-9.19027E-15
 -1        38 4.57429E-03-6.64095E-04-1.04522E-14
 -1        39 4.88026E-03-6.58740E-04-1.17803E-14
 -1        40 5.19391E-03-6.56878E-04-1.31800E-14
 -1        41 5.51638E-03-6.60968E-04-1.46481E-14
 -1        42 5.84844E-03-6.74211E-04-1.61836E-14
 -1        43 6.19004E-03-7.00493E-04-1.77925E-14
 -1        44 6.53959E-03-7.43966E-04-1.94743E-14
 -1        45 6.89317E-03-8.08029E-04-2.12269E-14
 -1        46 7.24396E-03-8.93456E-04-2.30668E-14
 -1        47 7.58272E-03-9.95832E-04-2.49818E-14
 -1        48 7.90007E-03-1.10330E-03-2.69658E-14
 -1        49 8.19076E-03-1.19676E-03-2.90140E-14
 -1        50 8.45804E-03-1.25461E-03-3.11299E-14
 -1        51 8.71463E-03-1.26131E-03-3.33243E-14
 -1        52 8.97805E-03-1.21509E-03-3.55937E-14
 -1        53 9.26273E-03-1.12883E-03-3.79304E-14
 -1        54 9.57419E-03-1.02355E-03-4.03319E-14
 -1        55 9.90879E-03-9.19497E-04-4.27887E-14
 -1        56 1.02577E-02-8.30332E-04-4.52919E-14
 -1        57 1.06114E-02-7.62006E-04-4.78423E-14
 -1        58 1.09624E-02-7.14679E-04-5.04278E-14
 -1        59 1.13062E-02-6.85344E-04-5.30390E-14
 -1        60 1.16409E-02-6.69896E-04-5.56725E-14
 -1        61 1.19660E-02-6.64339E-04-5.83553E-14
 -1        62 1.22824E-02-6.65316E-04-6.10864E-14
 -1        63 1.25913E-02-6.70240E-04-6.38725E-14
 -1        64 1.28939E-02-6.77230E-04-6.66857E-14
 -1        65 1.31914E-02-6.84974E-04-6.95259E-14
 -1        66 1.34850E-02-6.92596E-04-7.23844E-14
 -1        67 1.37757E-02-6.99524E-04-7.52659E-14
 -1        68 1.40641E-02-7.05403E-04-7.81564E-14
 -1        69 1.43509E-02-7.10038E-04-8.10639E-14
 -1        70 1.46368E-02-7.13376E-04-8.39963E-14
 -1        71 1.49223E-02-7.15590E-04-8.69730E-14
 -1        72 4.13105E-04 2.61020E-04 3.61005E-17
 -1        73 7.01876E-04 4.02792E-04-2.75523E-17
 -1        74 9.72089E-04 4.98556E-04-1.85988E-16
 -1        75 1.23633E-03 5.66298E-04-4.41274E-16
 -1        76 1.49950E-03 6.14343E-04-7.94002E-16
 -1        77 1.76384E-03 6.47940E-04-1.24309E-15
 -1        78 2.03040E-03 6.70699E-04-1.78432E-15
 -1        79 2.29970E-03 6.85229E-04-2.41465E-15
 -1        80 2.57195E-03 6.93463E-04-3.13590E-15
 -1        81 2.84725E-03 6.96862E-04-3.94816E-15
 -1        82 3.12570E-03 6.96541E-04-4.85183E-15
 -1        83 3.40743E-03 6.93383E-04-5.84117E-15
 -1        84 3.69273E-03 6.88134E-04-6.91695E-15
 -1        85 3.98203E-03 6.81506E-04-8.07421E-15
 -1        86 4.27595E-03 6.74282E-04-9.31595E-15
 -1        87 4.57533E-03 6.67443E-04-1.06391E-14
 -1        88 4.88120E-03 6.62305E-04-1.20406E-14
 -1        89 5.19467E-03 6.60671E-04-1.35123E-14
 -1        90 5.51684E-03 6.64982E-04-1.50571E-14
 -1        91 5.84841E-03 6.78399E-04-1.66706E-14
 -1        92 6.18929E-03 7.04731E-04-1.83574E-14
 -1        93 6.53782E-03 7.48012E-04-2.01083E-14
 -1        94 6.89007E-03 8.11475E-04-2.19273E-14
 -1        95 7.23930E-03 8.95720E-04-2.37965E-14
 -1        96 7.57648E-03 9.96228E-04-2.57154E-14
 -1        97 7.89250E-03 1.10125E-03-2.76907E-14
 -1        98 8.18236E-03 1.19209E-03-2.97325E-14
 -1        99 8.44930E-03 1.24779E-03-3.18552E-14
 -1       100 8.70573E-03 1.25335E-03-3.40482E-14
 -1       101 8.96879E-03 1.20705E-03-3.63189E-14
 -1       102 9.25264E-03 1.12127E-03-3.86622E-14
 -1       103 9.56279E-03 1.01638E-03-4.10676E-14
 -1       104 9.89583E-03 9.12163E-04-4.35247E-14
 -1       105 1.02432E-02 8.22119E-04-4.60363E-14
 -1       106 1.05955E-02 7.52298E-04-4.86016E-14
 -1       107 1.09455E-02 7.03042E-04-5.12118E-14
 -1       108 1.12885E-02 6.71523E-04-5.38509E-14
 -1       109 1.16226E-02 6.53764E-04-5.65311E-14
 -1       110 1.19474E-02 6.45846E-04-5.92416E-14
 -1       111 1.22637E-02 6.44454E-04-6.19714E-14
 -1       112 1.25724E-02 6.47019E-04-6.47285E-14
 -1       113 1.28749E-02 6.51665E-04-6.74968E-14
 -1       114 1.31724E-02 6.57084E-04-7.02809E-14
 -1       115 1.34660E-02 6.62392E-04-7.30643E-14
 -1       116 1.37566E-02 6.67018E-04-7.58438E-14
 -1       117 1.40450E-02 6.70602E-04-7.86190E-14
 -1       118 1.43319E-02 6.72948E-04-8.14119E-14
 -1       119 1.46178E-02 6.74002E-04-8.42370E-14
 -1       120 1.49033E-02 6.73929E-04-8.70814E-14
 -1       121 1.51753E-02 5.88939E-04-8.98102E-14
 -1       122 1.51766E-02 5.04495E-04-8.98346E-14
 -1       123 1.51788E-02 4.20450E-04-8.98465E-14
 -1       124 1.51819E-02 3.37278E-04-8.98510E-14
 -1       125 1.51855E-02 2.55256E-04-8.98755E-14
 -1       126 1.51891E-02 1.75793E-04-8.99195E-14
 -1       127 1.51922E-02 9.59791E-05-8.99760E-14
 -1       128 1.51944E-02 1.68566E-05-9.00328E-14
 -1       129 1.51955E-02-6.20253E-05-9.00700E-14
 -1       130 1.51955E-02-1.41155E-04-9.00826E-14
 -1       131 1.51947E-02-2.20982E-04-9.00945E-14
 -1       132 1.51933E-02-3.00464E-04-9.01179E-14
 -1       133 1.51919E-02-3.82505E-04-9.01198E-14
 -1       134 1.51911E-02-4.65695E-04-9.00779E-14
 -1       135 1.51911E-02-5.49765E-04-9.00002E-14
 -1       136 1.51921E-02-6.34185E-04-8.99092E-14
 -1       137 1.07494E-02 1.60451E-04-3.84731E-14
 -1       138 1.05962E-02 3.34535E-04-3.80927E-14
 -1       139 1.03498E-02 4.92111E-04-3.74748E-14
 -1       140 1.00381E-02 6.21584E-04-3.67028E-14
 -1       141 9.65075E-03 7.28739E-04-3.57618E-14
 -1       142 9.22132E-03 8.00631E-04-3.47406E-14
 -1       143 8.77469E-03 8.34511E-04-3.36906E-14
 -1       144 8.30116E-03 8.28709E-04-3.25911E-14
 -1       145 7.78753E-03 7.71092E-04-3.14017E-14
 -1       146 7.39854E-03 6.88662E-04-3.05200E-14
 -1       147 7.02889E-03 5.65727E-04-2.96822E-14
 -1       148 6.75369E-03 4.28135E-04-2.90595E-14
 -1       149 6.55746E-03 2.73687E-04-2.86168E-14
 -1       150 6.44682E-03 1.03907E-04-2.83669E-14
 -1       151 6.43329E-03-5.91916E-05-2.83351E-14
 -1       152 6.50558E-03-2.18858E-04-2.84950E-14
 -1       153 6.68591E-03-3.89137E-04-2.88880E-14
 -1       154 6.93303E-03-5.30650E-04-2.94279E-14
 -1       155 7.27991E-03-6.62047E-04-3.01992E-14
 -1       156 8.08826E-03-8.20355E-04-3.20143E-14
 -1       157 8.51495E-03-8.46086E-04-3.29877E-14
 -1       158 8.94970E-03-8.36510E-04-3.39950E-14
 -1       159 9.39434E-03-7.87594E-04-3.50499E-14
 -1       160 9.77931E-03-7.09813E-04-3.59822E-14
 -1       161 1.01228E-02-6.03226E-04-3.68279E-14
 -1       162 1.04033E-02-4.75586E-04-3.75330E-14
 -1       163 1.06254E-02-3.22447E-04-3.81084E-14
 -1       164 1.07505E-02-1.69918E-04-3.84473E-14
 -1       165 2.40166E-04-1.25341E-04-1.49349E-17
 -1       166 2.25187E-04-9.44652E-05-3.03001E-17
 -1       167 2.19543E-04-7.26262E-05-3.89466E-17
 -1       168 2.16809E-04-5.49612E-05-4.39813E-17
 -1       169 2.15372E-04-3.98368E-05-4.66783E-17
 -1       170 2.14568E-04-2.58155E-05-4.81758E-17
 -1       171 2.14166E-04-1.25903E-05-4.89721E-17
 -1       172 2.14048E-04 2.72351E-07-4.91449E-17
 -1       173 2.14184E-04 1.31475E-05-4.89958E-17
 -1       174 2.14608E-04 2.64126E-05-4.80539E-17
 -1       175 2.15420E-04 4.02615E-05-4.62412E-17
 -1       176 2.16917E-04 5.57662E-05-4.31106E-17
 -1       177 2.19694E-04 7.36650E-05-3.78827E-17
 -1       178 2.25354E-04 9.58628E-05-2.89956E-17
 -1       179 2.39095E-04 1.27416E-04-1.34577E-17
 -1       180 2.97276E-04 1.85226E-04 2.65291E-18
 -1       181 4.67980E-04-2.63048E-04-4.12336E-17
 -1       182 7.65725E-04-3.81063E-04-1.76769E-16
 -1       183 1.04922E-03-4.63130E-04-4.03960E-16
 -1       184 1.32633E-03-5.20792E-04-7.23370E-16
 -1       185 1.60076E-03-5.61003E-04-1.13388E-15
 -1       186 1.87464E-03-5.88374E-04-1.63638E-15
 -1       187 2.14919E-03-6.06117E-04-2.22927E-15
 -1       188 2.42515E-03-6.16563E-04-2.91227E-15
 -1       189 2.70293E-03-6.21432E-04-3.68369E-15
 -1       190 2.98286E-03-6.22010E-04-4.54007E-15
 -1       191 3.26517E-03-6.19277E-04-5.47622E-15
 -1       192 3.55015E-03-6.14010E-04-6.48758E-15
 -1       193 3.83815E-03-6.06890E-04-7.57454E-15
 -1       194 4.12964E-03-5.98604E-04-8.73176E-15
 -1       195 4.42517E-03-5.89971E-04-9.96019E-15
 -1       196 4.72544E-03-5.82079E-04-1.12583E-14
 -1       197 5.03123E-03-5.76442E-04-1.26250E-14
 -1       198 5.34330E-03-5.75184E-04-1.40611E-14
 -1       199 5.66231E-03-5.81192E-04-1.55667E-14
 -1       200 5.98851E-03-5.98196E-04-1.71401E-14
 -1       201 6.32148E-03-6.30600E-04-1.87876E-14
 -1       202 6.65969E-03-6.82837E-04-2.05061E-14
 -1       203 7.00013E-03-7.57914E-04-2.23028E-14
 -1       204 7.33819E-03-8.54964E-04-2.41769E-14
 -1       205 7.66829E-03-9.66246E-04-2.61212E-14
 -1       206 7.98564E-03-1.07526E-03-2.81360E-14
 -1       207 8.28889E-03-1.15882E-03-3.02183E-14
 -1       208 8.58218E-03-1.19482E-03-3.23731E-14
 -1       209 8.87433E-03-1.17267E-03-3.46000E-14
 -1       210 9.17473E-03-1.09919E-03-3.69009E-14
 -1       211 9.48880E-03-9.94712E-04-3.92684E-14
 -1       212 9.81634E-03-8.83029E-04-4.16940E-14
 -1       213 1.01531E-02-7.82531E-04-4.41723E-14
 -1       214 1.04935E-02-7.02878E-04-4.66962E-14
 -1       215 1.08327E-02-6.46231E-04-4.92594E-14
 -1       216 1.11672E-02-6.10203E-04-5.18594E-14
 -1       217 1.14954E-02-5.90514E-04-5.44843E-14
 -1       218 1.18165E-02-5.82664E-04-5.71418E-14
 -1       219 1.21308E-02-5.82749E-04-5.98476E-14
 -1       220 1.24389E-02-5.87709E-04-6.25994E-14
 -1       221 1.27417E-02-5.95302E-04-6.53955E-14
 -1       222 1.30400E-02-6.03966E-04-6.82174E-14
 -1       223 1.33348E-02-6.12653E-04-7.10593E-14
 -1       224 1.36268E-02-6.20689E-04-7.39243E-14
 -1       225 1.39165E-02-6.27656E-04-7.68026E-14
 -1       226 1.42047E-02-6.33308E-04-7.96988E-14
 -1       227 1.44916E-02-6.37536E-04-8.26185E-14
 -1       228 1.47779E-02-6.40393E-04-8.55704E-14
 -1       229 6.03685E-04 3.30303E-04-7.39528E-17
 -1       230 8.92369E-04 4.31251E-04-2.40086E-16
 -1       231 1.17090E-03 5.02069E-04-4.99323E-16
 -1       232 1.44497E-03 5.51907E-04-8.52901E-16
 -1       233 1.71763E-03 5.86512E-04-1.30001E-15
 -1       234 1.99057E-03 6.09782E-04-1.83938E-15
 -1       235 2.26474E-03 6.24500E-04-2.46805E-15
 -1       236 2.54070E-03 6.32705E-04-3.18642E-15
 -1       237 2.81879E-03 6.35918E-04-3.99305E-15
 -1       238 3.09926E-03 6.35284E-04-4.88860E-15
 -1       239 3.38235E-03 6.31689E-04-5.87111E-15
 -1       240 3.66836E-03 6.25865E-04-6.93754E-15
 -1       241 3.95770E-03 6.18489E-04-8.08677E-15
 -1       242 4.25088E-03 6.10297E-04-9.31726E-15
 -1       243 4.54854E-03 6.02207E-04-1.06287E-14
 -1       244 4.85143E-03 5.95469E-04-1.20169E-14
 -1       245 5.16038E-03 5.91825E-04-1.34785E-14
 -1       246 5.47611E-03 5.93676E-04-1.50103E-14
 -1       247 5.79913E-03 6.04210E-04-1.66114E-14
 -1       248 6.12937E-03 6.27381E-04-1.82851E-14
 -1       249 6.46582E-03 6.67567E-04-2.00251E-14
 -1       250 6.80607E-03 7.28618E-04-2.18298E-14
 -1       251 7.14606E-03 8.12021E-04-2.36871E-14
 -1       252 7.48029E-03 9.14218E-04-2.55971E-14
 -1       253 7.80306E-03 1.02398E-03-2.75688E-14
 -1       254 8.11078E-03 1.12202E-03-2.96061E-14
 -1       255 8.40462E-03 1.18537E-03-3.17183E-14
 -1       256 8.69140E-03 1.19645E-03-3.39053E-14
 -1       257 8.98124E-03 1.15184E-03-3.61695E-14
 -1       258 9.28277E-03 1.06413E-03-3.85030E-14
 -1       259 9.59956E-03 9.55284E-04-4.08975E-14
 -1       260 9.92972E-03 8.46871E-04-4.33488E-14
 -1       261 1.02681E-02 7.53572E-04-4.58560E-14
 -1       262 1.06089E-02 6.81829E-04-4.84176E-14
 -1       263 1.09474E-02 6.31873E-04-5.10239E-14
 -1       264 1.12806E-02 6.00554E-04-5.36586E-14
 -1       265 1.16071E-02 5.83551E-04-5.63268E-14
 -1       266 1.19263E-02 5.76669E-04-5.90242E-14
 -1       267 1.22388E-02 5.76401E-04-6.17454E-14
 -1       268 1.25452E-02 5.80057E-04-6.44918E-14
 -1       269 1.28465E-02 5.85698E-04-6.72569E-14
 -1       270 1.31435E-02 5.91986E-04-7.00357E-14
 -1       271 1.34372E-02 5.98035E-04-7.28186E-14
 -1       272 1.37282E-02 6.03276E-04-7.55992E-14
 -1       273 1.40173E-02 6.07361E-04-7.83821E-14
 -1       274 1.43048E-02 6.10098E-04-8.11802E-14
 -1       275 1.45914E-02 6.11429E-04-8.40008E-14
 -1       276 1.48774E-02 6.11492E-04-8.68411E-14
 -1       277 1.49284E-02 5.47574E-04-8.73620E-14
 -1       278 1.49302E-02 4.63777E-04-8.73839E-14
 -1       279 1.49332E-02 3.80638E-04-8.74076E-14
 -1       280 1.49369E-02 2.98350E-04-8.74274E-14
 -1       281 1.49408E-02 2.18355E-04-8.74566E-14
 -1       282 1.49445E-02 1.37821E-04-8.74889E-14
 -1       283 1.49473E-02 5.79353E-05-8.75254E-14
 -1       284 1.49491E-02-2.16019E-05-8.75508E-14
 -1       285 1.49495E-02-1.01142E-04-8.75625E-14
 -1       286 1.49489E-02-1.81034E-04-8.75681E-14
 -1       287 1.49475E-02-2.60208E-04-8.75649E-14
 -1       288 1.49458E-02-3.41589E-04-8.75484E-14
 -1       289 1.49443E-02-4.23891E-04-8.75092E-14
 -1       290 1.49436E-02-5.07036E-04-8.74454E-14
 -1       291 1.48604E-02-5.73636E-04-8.65113E-14
 -1       292 1.08054E-02 3.89026E-05-3.95156E-14
 -1       293 1.06678E-02 1.34994E-04-3.93603E-14
 -1       294 1.04045E-02 2.81709E-04-3.86330E-14
 -1       295 1.00545E-02 4.34135E-04-3.79037E-14
 -1       296 9.68395E-03 6.15526E-04-3.68197E-14
 -1       297 9.30172E-03 7.76405E-04-3.56128E-14
 -1       298 8.92190E-03 8.83969E-04-3.43988E-14
 -1       299 8.55299E-03 9.13554E-04-3.31226E-14
 -1       300 8.16078E-03 8.53722E-04-3.17322E-14
 -1       301 7.74216E-03 7.09965E-04-3.05902E-14
 -1       302 7.37259E-03 5.35298E-04-2.95286E-14
 -1       303 6.99512E-03 3.70157E-04-2.87623E-14
 -1       304 6.69806E-03 2.24711E-04-2.81530E-14
 -1       305 6.48859E-03 1.02494E-04-2.77020E-14
 -1       306 6.40283E-03 1.06295E-05-2.75859E-14
 -1       307 6.44514E-03-7.77814E-05-2.76481E-14
 -1       308 6.61879E-03-1.77762E-04-2.78513E-14
 -1       309 6.89559E-03-3.27743E-04-2.84836E-14
 -1       310 7.26622E-03-4.77270E-04-2.90712E-14
 -1       311 7.64342E-03-6.66477E-04-3.01153E-14
 -1       312 8.00478E-03-8.14789E-04-3.12292E-14
 -1       313 8.36142E-03-9.02669E-04-3.23436E-14
 -1       314 8.70890E-03-9.19127E-04-3.35068E-14
 -1       315 9.06299E-03-8.63329E-04-3.47554E-14
 -1       316 9.43960E-03-7.36569E-04-3.59043E-14
 -1       317 9.79968E-03-5.81532E-04-3.69630E-14
 -1       318 1.01449E-02-4.18932E-04-3.78918E-14
 -1       319 1.04501E-02-2.56973E-04-3.87798E-14
 -1       320 1.06854E-02-1.46395E-04-3.92124E-14
 -1       321 1.08073E-02-4.86947E-05-3.95643E-14
 -1       322 4.55338E-04-1.64321E-04-1.32286E-16
 -1       323 4.73938E-04-2.12472E-04-1.06540E-16
 -1       324 4.40696E-04-9.36214E-05-1.58727E-16
 -1       325 4.37802E-04-6.45970E-05-1.64619E-16
 -1       326 4.36217E-04-3.77037E-05-1.68282E-16
 -1       327 4.35522E-04-1.19493E-05-1.69735E-16
 -1       328 4.35552E-04 1.34625E-05-1.69474E-16
 -1       329 4.36313E-04 3.92752E-05-1.67574E-16
 -1       330 4.37942E-04 6.58232E-05-1.63440E-16
 -1       331 4.40926E-04 9.50191E-05-1.56762E-16
 -1       332 4.46191E-04 1.27883E-04-1.46042E-16
 -1       333 4.55838E-04 1.66832E-04-1.29247E-16
 -1       334 4.75563E-04 2.16536E-04-1.03091E-16
 -1       335 5.31446E-04 2.69364E-04-9.35395E-17
 -1       336 8.23640E-04 3.72253E-04-2.63319E-16
 -1       337 8.62606E-04-3.56025E-04-3.42045E-16
 -1       338 1.14882E-03-4.23817E-04-6.30081E-16
 -1       339 1.43154E-03-4.71686E-04-1.00727E-15
 -1       340 1.71233E-03-5.04707E-04-1.47377E-15
 -1       341 1.99236E-03-5.26587E-04-2.02996E-15
 -1       342 2.27248E-03-5.40048E-04-2.67483E-15
 -1       343 2.55328E-03-5.47102E-04-3.40638E-15
 -1       344 2.83516E-03-5.49244E-04-4.22287E-15
 -1       345 3.11844E-03-5.47590E-04-5.12118E-15
 -1       346 3.40338E-03-5.42992E-04-6.09718E-15
 -1       347 3.69027E-03-5.36146E-04-7.14828E-15
 -1       348 3.97943E-03-5.27690E-04-8.27291E-15
 -1       349 4.27124E-03-5.18325E-04-9.46798E-15
 -1       350 4.56616E-03-5.08934E-04-1.07345E-14
 -1       351 4.86472E-03-5.00740E-04-1.20701E-14
 -1       352 5.16754E-03-4.95472E-04-1.34744E-14
 -1       353 5.47528E-03-4.95547E-04-1.49473E-14
 -1       354 5.78864E-03-5.04221E-04-1.64878E-14
 -1       355 6.10823E-03-5.25625E-04-1.81010E-14
 -1       356 6.43443E-03-5.64508E-04-1.97856E-14
 -1       357 6.76703E-03-6.25413E-04-2.15431E-14
 -1       358 7.10463E-03-7.10883E-04-2.33771E-14
 -1       359 7.44396E-03-8.18451E-04-2.52851E-14
 -1       360 7.77983E-03-9.36981E-04-2.72611E-14
 -1       361 8.10693E-03-1.04469E-03-2.93082E-14
 -1       362 8.42369E-03-1.11355E-03-3.14259E-14
 -1       363 8.73506E-03-1.12156E-03-3.36165E-14
 -1       364 9.04993E-03-1.06610E-03-3.58767E-14
 -1       365 9.37459E-03-9.65671E-04-3.82045E-14
 -1       366 9.70886E-03-8.48219E-04-4.05982E-14
 -1       367 1.00479E-02-7.37595E-04-4.30510E-14
 -1       368 1.03864E-02-6.47355E-04-4.55520E-14
 -1       369 1.07204E-02-5.81613E-04-4.80969E-14
 -1       370 1.10482E-02-5.38641E-04-5.06773E-14
 -1       371 1.13695E-02-5.14139E-04-5.32892E-14
 -1       372 1.16846E-02-5.03294E-04-5.59348E-14
 -1       373 1.19940E-02-5.01793E-04-5.86151E-14
 -1       374 1.22986E-02-5.06184E-04-6.13407E-14
 -1       375 1.25989E-02-5.13897E-04-6.41104E-14
 -1       376 1.28958E-02-5.23115E-04-6.69157E-14
 -1       377 1.31898E-02-5.32611E-04-6.97456E-14
 -1       378 1.34815E-02-5.41586E-04-7.25919E-14
 -1       379 1.37714E-02-5.49546E-04-7.54534E-14
 -1       380 1.40599E-02-5.56196E-04-7.83350E-14
 -1       381 1.43473E-02-5.61381E-04-8.12378E-14
 -1       382 1.46041E-02-5.68085E-04-8.38615E-14
 -1       383 1.10889E-03 4.45670E-04-5.22701E-16
 -1       384 1.38949E-03 4.97510E-04-8.74284E-16
 -1       385 1.66777E-03 5.33506E-04-1.31784E-15
 -1       386 1.94533E-03 5.57694E-04-1.85244E-15
 -1       387 2.22320E-03 5.72987E-04-2.47620E-15
 -1       388 2.50202E-03 5.81521E-04-3.18895E-15
 -1       389 2.78225E-03 5.84882E-04-3.98868E-15
 -1       390 3.06420E-03 5.84255E-04-4.87525E-15
 -1       391 3.34816E-03 5.80543E-04-5.84813E-15
 -1       392 3.63441E-03 5.74476E-04-6.90370E-15
 -1       393 3.92330E-03 5.66713E-04-8.04251E-15
 -1       394 4.21525E-03 5.57950E-04-9.26189E-15
 -1       395 4.51077E-03 5.49052E-04-1.05622E-14
 -1       396 4.81046E-03 5.41189E-04-1.19388E-14
 -1       397 5.11496E-03 5.36012E-04-1.33880E-14
 -1       398 5.42495E-03 5.35819E-04-1.49064E-14
 -1       399 5.74098E-03 5.43708E-04-1.64959E-14
 -1       400 6.06337E-03 5.63606E-04-1.81571E-14
 -1       401 6.39197E-03 6.00027E-04-1.98856E-14
 -1       402 6.72578E-03 6.57277E-04-2.16770E-14
 -1       403 7.06259E-03 7.37785E-04-2.35242E-14
 -1       404 7.39870E-03 8.39413E-04-2.54266E-14
 -1       405 7.72924E-03 9.52337E-04-2.73882E-14
 -1       406 8.04981E-03 1.05752E-03-2.94140E-14
 -1       407 8.35938E-03 1.13007E-03-3.15166E-14
 -1       408 8.66229E-03 1.14886E-03-3.36927E-14
 -1       409 8.96680E-03 1.10772E-03-3.59487E-14
 -1       410 9.28017E-03 1.01921E-03-3.82753E-14
 -1       411 9.60474E-03 9.07183E-04-4.06617E-14
 -1       412 9.93790E-03 7.95263E-04-4.31068E-14
 -1       413 1.02748E-02 6.99231E-04-4.56080E-14
 -1       414 1.06110E-02 6.25770E-04-4.81642E-14
 -1       415 1.09432E-02 5.74965E-04-5.07659E-14
 -1       416 1.12699E-02 5.43427E-04-5.33965E-14
 -1       417 1.15903E-02 5.26621E-04-5.60575E-14
 -1       418 1.19045E-02 5.20186E-04-5.87432E-14
 -1       419 1.22132E-02 5.20494E-04-6.14564E-14
 -1       420 1.25168E-02 5.24774E-04-6.41963E-14
 -1       421 1.28162E-02 5.31034E-04-6.69560E-14
 -1       422 1.31121E-02 5.37905E-04-6.97308E-14
 -1       423 1.34051E-02 5.44483E-04-7.25108E-14
 -1       424 1.36959E-02 5.50196E-04-7.52932E-14
 -1       425 1.39850E-02 5.54696E-04-7.80792E-14
 -1       426 1.42727E-02 5.57790E-04-8.08817E-14
 -1       427 1.45595E-02 5.59414E-04-8.36989E-14
 -1       428 1.47440E-02 5.53744E-04-8.55290E-14
 -1       429 1.46880E-02 3.39922E-04-8.49686E-14
 -1       430 1.46843E-02 4.22455E-04-8.49422E-14
 -1       431 1.47137E-02 4.87894E-04-8.52355E-14
 -1       432 1.46922E-02 2.59663E-04-8.49884E-14
 -1       433 1.46964E-02 1.78864E-04-8.50090E-14
 -1       434 1.47000E-02 9.87652E-05-8.50295E-14
 -1       435 1.47025E-02 1.91250E-05-8.50449E-14
 -1       436 1.47036E-02-6.03567E-05-8.50551E-14
 -1       437 1.47033E-02-1.40000E-04-8.50547E-14
 -1       438 1.47020E-02-2.18743E-04-8.50426E-14
 -1       439 1.47001E-02-2.99539E-04-8.50139E-14
 -1       440 1.46980E-02-3.81186E-04-8.49679E-14
 -1       441 1.46965E-02-4.63727E-04-8.49088E-14
 -1       442 1.05138E-02 1.47743E-04-4.00997E-14
 -1       443 1.08442E-02-4.26071E-06-4.09427E-14
 -1       444 1.07798E-02 4.01758E-05-4.07894E-14
 -1       445 1.02305E-02 2.71648E-04-3.93526E-14
 -1       446 9.79003E-03 4.86579E-04-3.81659E-14
 -1       447 4.45726E-04-1.26043E-04-1.48610E-16
 -1       448 9.07233E-03 8.49301E-04-3.53571E-14
 -1       449 8.72209E-03 9.43543E-04-3.38551E-14
 -1       450 8.40742E-03 9.29519E-04-3.24161E-14
 -1       451 7.96794E-03 7.70655E-04-3.05930E-14
 -1       452 7.65584E-03 6.09524E-04-2.95328E-14
 -1       453 7.21432E-03 3.81117E-04-2.83664E-14
 -1       454 6.87329E-03 2.27960E-04-2.77138E-14
 -1       455 6.59369E-03 1.07634E-04-2.70753E-14
 -1       456 6.41329E-03 3.01447E-05-2.67757E-14
 -1       457 6.39269E-03-1.97889E-05-2.67399E-14
 -1       458 6.50033E-03-7.36596E-05-2.67661E-14
 -1       459 6.79179E-03-1.90914E-04-2.73058E-14
 -1       460 7.09311E-03-3.23647E-04-2.78720E-14
 -1       461 7.53614E-03-5.52568E-04-2.90317E-14
 -1       462 7.91035E-03-7.52520E-04-3.03118E-14
 -1       463 8.19475E-03-8.75522E-04-3.14096E-14
 -1       464 8.54491E-03-9.57028E-04-3.28335E-14
 -1       465 8.81790E-03-9.38374E-04-3.40732E-14
 -1       466 9.21544E-03-8.01302E-04-3.57595E-14
 -1       467 9.54798E-03-6.37044E-04-3.69743E-14
 -1       468 9.90489E-03-4.42793E-04-3.82845E-14
 -1       469 1.02450E-02-2.84770E-04-3.91079E-14
 -1       470 1.05887E-02-1.27077E-04-4.03103E-14
 -1       471 1.07570E-02-6.26985E-05-4.06687E-14
 -1       472 9.41304E-03 6.92997E-04-3.66902E-14
 -1       473 8.19273E-03 8.74577E-04-3.12573E-14
 -1       474 9.30812E-04 3.44432E-04-4.39918E-16
 -1       475 6.66295E-04-7.46382E-05-3.53643E-16
 -1       476 6.70196E-04-1.15202E-04-3.44709E-16
 -1       477 6.63658E-04 1.09948E-06-3.59704E-16
 -1       478 6.64370E-04 3.84987E-05-3.57699E-16
 -1       479 6.66482E-04 7.63186E-05-3.51905E-16
 -1       480 6.70510E-04 1.17037E-04-3.42008E-16
 -1       481 6.77391E-04 1.61515E-04-3.26430E-16
 -1       482 6.89086E-04 2.11787E-04-3.03322E-16
 -1       483 1.21664E-03 4.03870E-04-7.58759E-16
 -1       484 9.76044E-04-3.26900E-04-5.28278E-16
 -1       485 1.26197E-03-3.80650E-04-8.73000E-16
 -1       486 1.54705E-03-4.18923E-04-1.30537E-15
 -1       487 1.83135E-03-4.45049E-04-1.82642E-15
 -1       488 2.11521E-03-4.61828E-04-2.43455E-15
 -1       489 2.39900E-03-4.71448E-04-3.12825E-15
 -1       490 2.68305E-03-4.75573E-04-3.90638E-15
 -1       491 2.96761E-03-4.75451E-04-4.76624E-15
 -1       492 3.25290E-03-4.72027E-04-5.70555E-15
 -1       493 3.53911E-03-4.66033E-04-6.72155E-15
 -1       494 3.82644E-03-4.58090E-04-7.81183E-15
 -1       495 4.11511E-03-4.48809E-04-8.97504E-15
 -1       496 4.40539E-03-4.38902E-04-1.02082E-14
 -1       497 4.69761E-03-4.29308E-04-1.15119E-14
 -1       498 4.99223E-03-4.21345E-04-1.28848E-14
 -1       499 5.28987E-03-4.16869E-04-1.43267E-14
 -1       500 5.59141E-03-4.18446E-04-1.58363E-14
 -1       501 5.89809E-03-4.29508E-04-1.74156E-14
 -1       502 6.21156E-03-4.54403E-04-1.90668E-14
 -1       503 6.53379E-03-4.98227E-04-2.07881E-14
 -1       504 6.86646E-03-5.66076E-04-2.25828E-14
 -1       505 7.20961E-03-6.61131E-04-2.44536E-14
 -1       506 7.55973E-03-7.80415E-04-2.63956E-14
 -1       507 7.90885E-03-9.09142E-04-2.84049E-14
 -1       508 8.24847E-03-1.01653E-03-3.04847E-14
 -1       509 8.57738E-03-1.06525E-03-3.26346E-14
 -1       510 8.90490E-03-1.03483E-03-3.48591E-14
 -1       511 9.24179E-03-9.38624E-04-3.71488E-14
 -1       512 9.58936E-03-8.12530E-04-3.95051E-14
 -1       513 9.94006E-03-6.89995E-04-4.19279E-14
 -1       514 1.02853E-02-5.89607E-04-4.44072E-14
 -1       515 1.06206E-02-5.16413E-04-4.69329E-14
 -1       516 1.09451E-02-4.68153E-04-4.94958E-14
 -1       517 1.12606E-02-4.39925E-04-5.20938E-14
 -1       518 1.15688E-02-4.26526E-04-5.47229E-14
 -1       519 1.18716E-02-4.23396E-04-5.73865E-14
 -1       520 1.21704E-02-4.26898E-04-6.00880E-14
 -1       521 1.24661E-02-4.34293E-04-6.28311E-14
 -1       522 1.27594E-02-4.43615E-04-6.56158E-14
 -1       523 1.30509E-02-4.53510E-04-6.84282E-14
 -1       524 1.33408E-02-4.63084E-04-7.12599E-14
 -1       525 1.36296E-02-4.71769E-04-7.41083E-14
 -1       526 1.39174E-02-4.79227E-04-7.69744E-14
 -1       527 1.42045E-02-4.85262E-04-7.98561E-14
 -1       528 1.78366E-03 4.75173E-04-1.66600E-15
 -1       529 2.06598E-03 4.94138E-04-2.25359E-15
 -1       530 2.34829E-03 5.05428E-04-2.92780E-15
 -1       531 2.63104E-03 5.10848E-04-3.68861E-15
 -1       532 2.91457E-03 5.11749E-04-4.53484E-15
 -1       533 3.19912E-03 5.09147E-04-5.46600E-15
 -1       534 3.48496E-03 5.03824E-04-6.47961E-15
 -1       535 3.77231E-03 4.96436E-04-7.57482E-15
 -1       536 4.06145E-03 4.87611E-04-8.75222E-15
 -1       537 4.35270E-03 4.78061E-04-1.00100E-14
 -1       538 4.64646E-03 4.68719E-04-1.13455E-14
 -1       539 4.94320E-03 4.60880E-04-1.27542E-14
 -1       540 5.24353E-03 4.56369E-04-1.42330E-14
 -1       541 5.54819E-03 4.57717E-04-1.57810E-14
 -1       542 5.85809E-03 4.68289E-04-1.74007E-14
 -1       543 6.17433E-03 4.92306E-04-1.90907E-14
 -1       544 6.49801E-03 5.34580E-04-2.08458E-14
 -1       545 6.82977E-03 5.99647E-04-2.26599E-14
 -1       546 7.16887E-03 6.89852E-04-2.45295E-14
 -1       547 7.51195E-03 8.01910E-04-2.64546E-14
 -1       548 7.85275E-03 9.22463E-04-2.84412E-14
 -1       549 8.18471E-03 1.02599E-03-3.05014E-14
 -1       550 8.50663E-03 1.08119E-03-3.26360E-14
 -1       551 8.82531E-03 1.06771E-03-3.48495E-14
 -1       552 9.15052E-03 9.90428E-04-3.71413E-14
 -1       553 9.48624E-03 8.75951E-04-3.95003E-14
 -1       554 9.82871E-03 7.54816E-04-4.19203E-14
 -1       555 1.01710E-02 6.48411E-04-4.43950E-14
 -1       556 1.05077E-02 5.65898E-04-4.69231E-14
 -1       557 1.08366E-02 5.08011E-04-4.95053E-14
 -1       558 1.11576E-02 4.71297E-04-5.21234E-14
 -1       559 1.14717E-02 4.50956E-04-5.47680E-14
 -1       560 1.17799E-02 4.42320E-04-5.74353E-14
 -1       561 1.20833E-02 4.41463E-04-6.01269E-14
 -1       562 1.23828E-02 4.45344E-04-6.28460E-14
 -1       563 1.26791E-02 4.51740E-04-6.55926E-14
 -1       564 1.29729E-02 4.59098E-04-6.83563E-14
 -1       565 1.32646E-02 4.66383E-04-7.11317E-14
 -1       566 1.35547E-02 4.72929E-04-7.39121E-14
 -1       567 1.38434E-02 4.78330E-04-7.66971E-14
 -1       568 1.41311E-02 4.82348E-04-7.94942E-14
 -1       569 1.44179E-02 4.84867E-04-8.23126E-14
 -1       570 1.44482E-02 2.18852E-04-8.25363E-14
 -1       571 1.44526E-02 1.38820E-04-8.25477E-14
 -1       572 1.44388E-02 3.80261E-04-8.25021E-14
 -1       573 1.44434E-02 2.99065E-04-8.25206E-14
 -1       574 1.03896E-02 1.83768E-04-4.09249E-14
 -1       575 1.44560E-02 5.94272E-05-8.25568E-14
 -1       576 1.44579E-02-1.96267E-05-8.25623E-14
 -1       577 1.44582E-02-9.86818E-05-8.25563E-14
 -1       578 1.44571E-02-1.76728E-04-8.25385E-14
 -1       579 1.44549E-02-2.56754E-04-8.25029E-14
 -1       580 1.44523E-02-3.37652E-04-8.24518E-14
 -1       581 1.44499E-02-4.19544E-04-8.23903E-14
 -1       582 1.00178E-02 3.55922E-04-3.97146E-14
 -1       583 1.50077E-03 4.46133E-04-1.16767E-15
 -1       584 1.08564E-02 1.09800E-05-4.21306E-14
 -1       585 1.08513E-02-2.55956E-05-4.19925E-14
 -1       586 9.55038E-03 6.08076E-04-3.80024E-14
 -1       587 1.04045E-02-1.90290E-04-4.06018E-14
 -1       588 7.31230E-03-4.22793E-04-2.75667E-14
 -1       589 6.60070E-03-1.03676E-04-2.58995E-14
 -1       590 8.90719E-03 9.17452E-04-3.49345E-14
 -1       591 6.64260E-04-3.62641E-05-3.58586E-16
 -1       592 8.56707E-03 9.68548E-04-3.31187E-14
 -1       593 7.00421E-03 2.62589E-04-2.71396E-14
 -1       594 9.25206E-03 7.69319E-04-3.66390E-14
 -1       595 7.80981E-03 6.94216E-04-2.94057E-14
 -1       596 7.76398E-03-6.69360E-04-2.91494E-14
 -1       597 7.44886E-03 4.89762E-04-2.82471E-14
 -1       598 6.72200E-03 1.42537E-04-2.65088E-14
 -1       599 6.45626E-03 4.73457E-05-2.59722E-14
 -1       600 6.35922E-03 2.49394E-06-2.58341E-14
 -1       601 6.39205E-03-2.95646E-05-2.57174E-14
 -1       602 6.90478E-03-2.23907E-04-2.65969E-14
 -1       603 9.37447E-03-7.17370E-04-3.68801E-14
 -1       604 8.09345E-03-8.39874E-04-3.05236E-14
 -1       605 8.39153E-03-9.50057E-04-3.19270E-14
 -1       606 8.68300E-03-9.74499E-04-3.34763E-14
 -1       607 9.01067E-03-8.94442E-04-3.52249E-14
 -1       608 9.68652E-03-5.45073E-04-3.81771E-14
 -1       609 1.01209E-02-3.18157E-04-3.97579E-14
 -1       610 1.07262E-02-7.31580E-05-4.19697E-14
 -1       611 7.12488E-04-2.50831E-04-2.97021E-16
 -1       612 7.03401E-04 2.89920E-04-2.41574E-16
 -1       613 1.06975E-02 6.97151E-05-4.20296E-14
 -1       614 6.76899E-04-1.59223E-04-3.30580E-16
 -1       615 9.93024E-03-4.25222E-04-3.96438E-14
 -1       616 1.43981E-02-4.90136E-04-8.18179E-14
 -1       617 9.80261E-03 4.85143E-04-3.95429E-14
 -1       618 9.00301E-04 7.34687E-05-6.09234E-16
 -1       619 8.98220E-04 2.49562E-05-6.15403E-16
 -1       620 9.12254E-04 1.76934E-04-5.78662E-16
 -1       621 9.24430E-04 2.35295E-04-5.50778E-16
 -1       622 1.04885E-03 3.11939E-04-6.37867E-16
 -1       623 1.33462E-03 3.58394E-04-1.01252E-15
 -1       624 1.03229E-02-2.46139E-04-4.14342E-14
 -1       625 1.02506E-02 2.68940E-04-4.15244E-14
 -1       626 1.38347E-03-3.33703E-04-1.13368E-15
 -1       627 1.66973E-03-3.63014E-04-1.61944E-15
 -1       628 1.95604E-03-3.82697E-04-2.19167E-15
 -1       629 2.24222E-03-3.94814E-04-2.84906E-15
 -1       630 2.52827E-03-4.01051E-04-3.58988E-15
 -1       631 2.81423E-03-4.02724E-04-4.41250E-15
 -1       632 3.10019E-03-4.00840E-04-5.31462E-15
 -1       633 3.38621E-03-3.96168E-04-6.29423E-15
 -1       634 3.67235E-03-3.89325E-04-7.34962E-15
 -1       635 3.95867E-03-3.80858E-04-8.47987E-15
 -1       636 4.24528E-03-3.71341E-04-9.68068E-15
 -1       637 4.53230E-03-3.61471E-04-1.09524E-14
 -1       638 4.81998E-03-3.52186E-04-1.22942E-14
 -1       639 5.10875E-03-3.44789E-04-1.37049E-14
 -1       640 5.39936E-03-3.41091E-04-1.51840E-14
 -1       641 5.69310E-03-3.43578E-04-1.67309E-14
 -1       642 5.99204E-03-3.55607E-04-1.83483E-14
 -1       643 6.29928E-03-3.81650E-04-2.00360E-14
 -1       644 6.61890E-03-4.27530E-04-2.17938E-14
 -1       645 6.95502E-03-5.00101E-04-2.36254E-14
 -1       646 7.30956E-03-6.06143E-04-2.55302E-14
 -1       647 7.67744E-03-7.43536E-04-2.75041E-14
 -1       648 8.04570E-03-8.90653E-04-2.95465E-14
 -1       649 8.40143E-03-9.97396E-04-3.16580E-14
 -1       650 8.74749E-03-1.01028E-03-3.38443E-14
 -1       651 9.10017E-03-9.22111E-04-3.60977E-14
 -1       652 9.46656E-03-7.79675E-04-3.84193E-14
 -1       653 9.83570E-03-6.37835E-04-4.08079E-14
 -1       654 1.01940E-02-5.25154E-04-4.32604E-14
 -1       655 1.05344E-02-4.46149E-04-4.57669E-14
 -1       656 1.08575E-02-3.95508E-04-4.83139E-14
 -1       657 1.11672E-02-3.66105E-04-5.08960E-14
 -1       658 1.14677E-02-3.51812E-04-5.35108E-14
 -1       659 1.17625E-02-3.47853E-04-5.61576E-14
 -1       660 1.20537E-02-3.50636E-04-5.88381E-14
 -1       661 1.23429E-02-3.57504E-04-6.15624E-14
 -1       662 1.26309E-02-3.66531E-04-6.43209E-14
 -1       663 1.29181E-02-3.76362E-04-6.71154E-14
 -1       664 1.32049E-02-3.86077E-04-6.99330E-14
 -1       665 1.34914E-02-3.95078E-04-7.27672E-14
 -1       666 1.37776E-02-4.03000E-04-7.56181E-14
 -1       667 1.40636E-02-4.09621E-04-7.84836E-14
 -1       668 2.19116E-03 4.28048E-04-2.66555E-15
 -1       669 1.09339E-02-8.41894E-06-4.36189E-14
 -1       670 1.90592E-03 4.13917E-04-2.02718E-15
 -1       671 2.76156E-03 4.38528E-04-4.19496E-15
 -1       672 3.04703E-03 4.37444E-04-5.08549E-15
 -1       673 3.33288E-03 4.33356E-04-6.05877E-15
 -1       674 3.61923E-03 4.26932E-04-7.11295E-15
 -1       675 3.90621E-03 4.18754E-04-8.24767E-15
 -1       676 4.19398E-03 4.09419E-04-9.46402E-15
 -1       677 4.48275E-03 3.99643E-04-1.07587E-14
 -1       678 4.77281E-03 3.90384E-04-1.21265E-14
 -1       679 5.06461E-03 3.82981E-04-1.35670E-14
 -1       680 5.35885E-03 3.79303E-04-1.50752E-14
 -1       681 5.65664E-03 3.81914E-04-1.66537E-14
 -1       682 5.95965E-03 3.94224E-04-1.83026E-14
 -1       683 6.27027E-03 4.20624E-04-2.00201E-14
 -1       684 6.59147E-03 4.66449E-04-2.18015E-14
 -1       685 6.92599E-03 5.37388E-04-2.36386E-14
 -1       686 7.27430E-03 6.37431E-04-2.55300E-14
 -1       687 7.63200E-03 7.63690E-04-2.74764E-14
 -1       688 7.98875E-03 8.97573E-04-2.94916E-14
 -1       689 8.33383E-03 1.00021E-03-3.15831E-14
 -1       690 8.66903E-03 1.02865E-03-3.37546E-14
 -1       691 9.00672E-03 9.68234E-04-3.60035E-14
 -1       692 9.35712E-03 8.47811E-04-3.83329E-14
 -1       693 9.71533E-03 7.11750E-04-4.07275E-14
 -1       694 1.00706E-02 5.92599E-04-4.31833E-14
 -1       695 1.04142E-02 5.01906E-04-4.56879E-14
 -1       696 1.07437E-02 4.39215E-04-4.82442E-14
 -1       697 1.10608E-02 3.99531E-04-5.08460E-14
 -1       698 1.13684E-02 3.77148E-04-5.34775E-14
 -1       699 1.16694E-02 3.67036E-04-5.61283E-14
 -1       700 1.19659E-02 3.65158E-04-5.88040E-14
 -1       701 1.22594E-02 3.68427E-04-6.15050E-14
 -1       702 1.25508E-02 3.74571E-04-6.42322E-14
 -1       703 1.28406E-02 3.81976E-04-6.69831E-14
 -1       704 1.31295E-02 3.89542E-04-6.97530E-14
 -1       705 1.34174E-02 3.96546E-04-7.25314E-14
 -1       706 1.37048E-02 4.02538E-04-7.53123E-14
 -1       707 1.39915E-02 4.07245E-04-7.81106E-14
 -1       708 1.42154E-02 3.94206E-04-8.03013E-14
 -1       709 1.42125E-02 2.04489E-05-8.00883E-14
 -1       710 1.42568E-02-4.14914E-04-8.04276E-14
 -1       711 1.42051E-02 1.77792E-04-8.00817E-14
 -1       712 8.06437E-03 8.49233E-04-3.02743E-14
 -1       713 1.42136E-02-5.77223E-05-8.00820E-14
 -1       714 1.42096E-02 9.88245E-05-8.00863E-14
 -1       715 1.42129E-02-1.34767E-04-8.00579E-14
 -1       716 1.42107E-02-2.13725E-04-8.00258E-14
 -1       717 1.42075E-02-2.93601E-04-7.99742E-14
 -1       718 1.62041E-03 3.91482E-04-1.47602E-15
 -1       719 9.54236E-03-6.44055E-04-3.81195E-14
 -1       720 1.08856E-02-4.00351E-05-4.35960E-14
 -1       721 6.69192E-03-1.61335E-04-2.51792E-14
 -1       722 6.30149E-03-8.97862E-06-2.46041E-14
 -1       723 2.47632E-03 4.35766E-04-3.38787E-15
 -1       724 1.05962E-02 1.34076E-04-4.30239E-14
 -1       725 1.06548E-02-1.19503E-04-4.28177E-14
 -1       726 1.09784E-03-2.92521E-04-7.35004E-16
 -1       727 9.04720E-04 1.23609E-04-5.97365E-16
 -1       728 7.92345E-03-7.88529E-04-2.92555E-14
 -1       729 9.40296E-03 7.16599E-04-3.78886E-14
 -1       730 6.80541E-03 1.93615E-04-2.58810E-14
 -1       731 6.51469E-03 8.41532E-05-2.51258E-14
 -1       732 9.04362E-04-1.21213E-04-6.00980E-16
 -1       733 7.53358E-03 5.81181E-04-2.78249E-14
 -1       734 6.33546E-03 2.18767E-05-2.47447E-14
 -1       735 8.84525E-03-9.65933E-04-3.44347E-14
 -1       736 7.14252E-03 3.59438E-04-2.66397E-14
 -1       737 7.52542E-03-5.71235E-04-2.76038E-14
 -1       738 8.54308E-03-9.91883E-04-3.26326E-14
 -1       739 9.08384E-03 8.71484E-04-3.61481E-14
 -1       740 8.24075E-03-9.22780E-04-3.09205E-14
 -1       741 7.02847E-03-3.13574E-04-2.59668E-14
 -1       742 1.08713E-02 2.89051E-05-4.35206E-14
 -1       743 9.23176E-03-8.14042E-04-3.66168E-14
 -1       744 6.40883E-03-5.44240E-05-2.47355E-14
 -1       745 8.76819E-03 9.75958E-04-3.43307E-14
 -1       746 9.11695E-04-1.74339E-04-5.83867E-16
 -1       747 8.98161E-04-2.29463E-05-6.16000E-16
 -1       748 1.08234E-02 7.77890E-05-4.45297E-14
 -1       749 1.41997E-02 2.56994E-04-8.00765E-14
 -1       750 9.38428E-04-2.45592E-04-5.65405E-16
 -1       751 1.42073E-02 3.25155E-04-8.01910E-14
 -1       752 7.22006E-03-4.55120E-04-2.59972E-14
 -1       753 8.49076E-03 9.88921E-04-3.26326E-14
 -1       754 6.45925E-03-1.01597E-04-2.40300E-14
 -1       755 8.33973E-03 9.48100E-04-3.17841E-14
 -1       756 9.00102E-04-7.11956E-05-6.11236E-16
 -1       757 1.00557E-02 4.08669E-04-4.15044E-14
 -1       758 1.16192E-03 2.41472E-04-8.69916E-16
 -1       759 1.13874E-03 5.83835E-05-9.32715E-16
 -1       760 1.22491E-03-2.52587E-04-9.61806E-16
 -1       761 1.79758E-03-3.04107E-04-1.94864E-15
 -1       762 2.08508E-03-3.18029E-04-2.56953E-15
 -1       763 2.37259E-03-3.26068E-04-3.27382E-15
 -1       764 2.65981E-03-3.29479E-04-4.05948E-15
 -1       765 2.94661E-03-3.29260E-04-4.92572E-15
 -1       766 3.23284E-03-3.26186E-04-5.86961E-15
 -1       767 3.51843E-03-3.20860E-04-6.88874E-15
 -1       768 3.80329E-03-3.13782E-04-7.98466E-15
 -1       769 4.08732E-03-3.05420E-04-9.15295E-15
 -1       770 4.37047E-03-2.96283E-04-1.03928E-14
 -1       771 4.65275E-03-2.87005E-04-1.17023E-14
 -1       772 4.93428E-03-2.78427E-04-1.30812E-14
 -1       773 5.21546E-03-2.71689E-04-1.45313E-14
 -1       774 5.49714E-03-2.68343E-04-1.60479E-14
 -1       775 5.78094E-03-2.70521E-04-1.76324E-14
 -1       776 6.06974E-03-2.81254E-04-1.92870E-14
 -1       777 6.36812E-03-3.05111E-04-2.10104E-14
 -1       778 6.68265E-03-3.49545E-04-2.28047E-14
 -1       779 9.73216E-03-6.02316E-04-3.96800E-14
 -1       780 1.01140E-02-4.62657E-04-4.21086E-14
 -1       781 1.04603E-02-3.77141E-04-4.45930E-14
 -1       782 1.07812E-02-3.26276E-04-4.71227E-14
 -1       783 1.10841E-02-2.98170E-04-4.96883E-14
 -1       784 1.13758E-02-2.84792E-04-5.22865E-14
 -1       785 1.16615E-02-2.81036E-04-5.49196E-14
 -1       786 1.19442E-02-2.83497E-04-5.75872E-14
 -1       787 1.22260E-02-2.89804E-04-6.02845E-14
 -1       788 1.25077E-02-2.98251E-04-6.30228E-14
 -1       789 1.27898E-02-3.07611E-04-6.57971E-14
 -1       790 1.30726E-02-3.17024E-04-6.85993E-14
 -1       791 1.33560E-02-3.25908E-04-7.14175E-14
 -1       792 1.36400E-02-3.33878E-04-7.42570E-14
 -1       793 1.39244E-02-3.40742E-04-7.71084E-14
 -1       794 3.17955E-03 3.62753E-04-5.64165E-15
 -1       795 2.89332E-03 3.65287E-04-4.70857E-15
 -1       796 3.75105E-03 3.50794E-04-7.75048E-15
 -1       797 4.03630E-03 3.42425E-04-8.92475E-15
 -1       798 4.32123E-03 3.33177E-04-1.01785E-14
 -1       799 4.60593E-03 3.23726E-04-1.15066E-14
 -1       800 4.89060E-03 3.14975E-04-1.29073E-14
 -1       801 5.17569E-03 3.08169E-04-1.43769E-14
 -1       802 5.46206E-03 3.05024E-04-1.59150E-14
 -1       803 5.75126E-03 3.07881E-04-1.75222E-14
 -1       804 6.04585E-03 3.19961E-04-1.92007E-14
 -1       805 6.34978E-03 3.45811E-04-2.09475E-14
 -1       806 6.66838E-03 3.91908E-04-2.27524E-14
 -1       807 7.00737E-03 4.66802E-04-2.46128E-14
 -1       808 7.74957E-03 7.32206E-04-2.84922E-14
 -1       809 9.60850E-03 6.68923E-04-3.95304E-14
 -1       810 9.98267E-03 5.30015E-04-4.19655E-14
 -1       811 1.03363E-02 4.30008E-04-4.44541E-14
 -1       812 1.06674E-02 3.65159E-04-4.69852E-14
 -1       813 1.09800E-02 3.25811E-04-4.95638E-14
 -1       814 1.12800E-02 3.04014E-04-5.21816E-14
 -1       815 1.15722E-02 2.94056E-04-5.48238E-14
 -1       816 1.18601E-02 2.91919E-04-5.74844E-14
 -1       817 1.21458E-02 2.94731E-04-6.01660E-14
 -1       818 1.24306E-02 3.00411E-04-6.28754E-14
 -1       819 1.27150E-02 3.07464E-04-6.56108E-14
 -1       820 1.29996E-02 3.14840E-04-6.83687E-14
 -1       821 1.32843E-02 3.21834E-04-7.11456E-14
 -1       822 1.35692E-02 3.27985E-04-7.39274E-14
 -1       823 1.38543E-02 3.33011E-04-7.67196E-14
 -1       824 1.40309E-02 3.29357E-04-7.84511E-14
 -1       825 1.39639E-02-2.49468E-04-7.75231E-14
 -1       826 1.39699E-02-1.76466E-05-7.76260E-14
 -1       827 1.10007E-02-2.33213E-05-4.50420E-14
 -1       828 1.24645E-03 2.98171E-04-9.43527E-16
 -1       829 6.23317E-03 7.65247E-06-2.36224E-14
 -1       830 1.39677E-02-1.70972E-04-7.75714E-14
 -1       831 3.46547E-03 3.57738E-04-6.65577E-15
 -1       832 2.03302E-03 3.50205E-04-2.40185E-15
 -1       833 1.01337E-02-3.66124E-04-4.12847E-14
 -1       834 6.83489E-03 2.66365E-04-2.50067E-14
 -1       835 1.51058E-03-2.82811E-04-1.41226E-15
 -1       836 1.04849E-02 2.33264E-04-4.37251E-14
 -1       837 7.19642E-03 4.63756E-04-2.60224E-14
 -1       838 1.05549E-02-2.00617E-04-4.34403E-14
 -1       839 1.08894E-02-8.28603E-05-4.49659E-14
 -1       840 6.26284E-03-3.03794E-05-2.36153E-14
 -1       841 6.31798E-03 5.34543E-05-2.37011E-14
 -1       842 6.56203E-03 1.47214E-04-2.42695E-14
 -1       843 1.39699E-02-9.40657E-05-7.76039E-14
 -1       844 1.10113E-02 1.00225E-05-4.52871E-14
 -1       845 1.06702E-03-2.13140E-04-7.62316E-16
 -1       846 6.73967E-03-2.39295E-04-2.43195E-14
 -1       847 7.41137E-03 6.05953E-04-2.66776E-14
 -1       848 1.13736E-03 1.18547E-06-9.37425E-16
 -1       849 1.15027E-03 1.77315E-04-9.00244E-16
 -1       850 1.07393E-02 1.57118E-04-4.52442E-14
 -1       851 1.39572E-02 2.15180E-04-7.76357E-14
 -1       852 1.74600E-03 3.33809E-04-1.80016E-15
 -1       853 2.32001E-03 3.60014E-04-3.08840E-15
 -1       854 6.49060E-03-1.69920E-04-2.31898E-14
 -1       855 2.60680E-03 3.64665E-04-3.85712E-15
 -1       856 1.10198E-02 4.88685E-05-4.63130E-14
 -1       857 1.39633E-02 1.36670E-04-7.76383E-14
 -1       858 1.49587E-03 3.20293E-04-1.33739E-15
 -1       859 1.05727E-03-1.53021E-04-7.85908E-16
 -1       860 1.39676E-02 5.92627E-05-7.76347E-14
 -1       861 6.26964E-03-6.73274E-05-2.29255E-14
 -1       862 1.05131E-03-9.63326E-05-8.00853E-16
 -1       863 1.14288E-03 1.16652E-04-9.20579E-16
 -1       864 6.31043E-03 1.04247E-04-2.27855E-14
 -1       865 2.21762E-03-2.51358E-04-2.95971E-15
 -1       866 2.50573E-03-2.56052E-04-3.70924E-15
 -1       867 2.79333E-03-2.57307E-04-4.53913E-15
 -1       868 3.08006E-03-2.55841E-04-5.44773E-15
 -1       869 3.36565E-03-2.52219E-04-6.43175E-15
 -1       870 3.64985E-03-2.46888E-04-7.49073E-15
 -1       871 3.93243E-03-2.40231E-04-8.62503E-15
 -1       872 4.21313E-03-2.32622E-04-9.83257E-15
 -1       873 4.49174E-03-2.24477E-04-1.11105E-14
 -1       874 4.76807E-03-2.16302E-04-1.24574E-14
 -1       875 5.04207E-03-2.08746E-04-1.38757E-14
 -1       876 5.31395E-03-2.02643E-04-1.53634E-14
 -1       877 5.58439E-03-1.99082E-04-1.69183E-14
 -1       878 5.85492E-03-1.99585E-04-1.85408E-14
 -1       879 6.12858E-03-2.06540E-04-2.02318E-14
 -1       880 6.41107E-03-2.24514E-04-2.19889E-14
 -1       881 1.37222E-02-2.05760E-04-7.50861E-14
 -1       882 1.07390E-02-2.43899E-04-4.59380E-14
 -1       883 1.10266E-02-2.22108E-04-4.84895E-14
 -1       884 1.13034E-02-2.12868E-04-5.10712E-14
 -1       885 1.15755E-02-2.11308E-04-5.36859E-14
 -1       886 1.18466E-02-2.14409E-04-5.63381E-14
 -1       887 1.21185E-02-2.20415E-04-5.90226E-14
 -1       888 1.23920E-02-2.28102E-04-6.17350E-14
 -1       889 1.26676E-02-2.36565E-04-6.44853E-14
 -1       890 1.29451E-02-2.45133E-04-6.72710E-14
 -1       891 1.32244E-02-2.53324E-04-7.00768E-14
 -1       892 1.35052E-02-2.60815E-04-7.29002E-14
 -1       893 1.06164E-02 2.83864E-04-4.57258E-14
 -1       894 4.16315E-03 2.68352E-04-9.60443E-15
 -1       895 3.88079E-03 2.76279E-04-8.39211E-15
 -1       896 4.72329E-03 2.51167E-04-1.22550E-14
 -1       897 5.00108E-03 2.43230E-04-1.36864E-14
 -1       898 5.27775E-03 2.36977E-04-1.51860E-14
 -1       899 5.55419E-03 2.33759E-04-1.67524E-14
 -1       900 5.83211E-03 2.35432E-04-1.83903E-14
 -1       901 6.11466E-03 2.44763E-04-2.00984E-14
 -1       902 6.40731E-03 2.66473E-04-2.18700E-14
 -1       903 6.71831E-03 3.08936E-04-2.36987E-14
 -1       904 1.03157E-02 3.65672E-04-4.36719E-14
 -1       905 1.09196E-02 2.48845E-04-4.82827E-14
 -1       906 1.12076E-02 2.30924E-04-5.08825E-14
 -1       907 1.14879E-02 2.23266E-04-5.35144E-14
 -1       908 1.17647E-02 2.22018E-04-5.61660E-14
 -1       909 1.20408E-02 2.24792E-04-5.88330E-14
 -1       910 1.23174E-02 2.29953E-04-6.15221E-14
 -1       911 1.25952E-02 2.36323E-04-6.42427E-14
 -1       912 1.28744E-02 2.43045E-04-6.69900E-14
 -1       913 1.31549E-02 2.49511E-04-6.97553E-14
 -1       914 1.34366E-02 2.55310E-04-7.25358E-14
 -1       915 1.37193E-02 2.60193E-04-7.53244E-14
 -1       916 1.39939E-02 2.71855E-04-7.80449E-14
 -1       917 1.08479E-02-1.58713E-04-4.59255E-14
 -1       918 1.10725E-02-5.09319E-05-4.65971E-14
 -1       919 4.44400E-03 2.59790E-04-1.08935E-14
 -1       920 3.02617E-03 2.91804E-04-5.22874E-15
 -1       921 1.41081E-03 2.62796E-04-1.24836E-15
 -1       922 1.92944E-03-2.42331E-04-2.29196E-15
 -1       923 1.09330E-03-4.86163E-05-8.70496E-16
 -1       924 1.28131E-03-2.15909E-04-1.07994E-15
 -1       925 1.64187E-03-2.27933E-04-1.70763E-15
 -1       926 6.13823E-03 3.08442E-05-2.23212E-14
 -1       927 1.11245E-02-1.19809E-05-4.68513E-14
 -1       928 6.50683E-03 1.92333E-04-2.32449E-14
 -1       929 6.11979E-03-1.01547E-05-2.23222E-14
 -1       930 1.04901E-02-2.89715E-04-4.40207E-14
 -1       931 1.37281E-02-5.41132E-05-7.51638E-14
 -1       932 1.87602E-03 2.73231E-04-2.14043E-15
 -1       933 3.31214E-03 2.88430E-04-6.20385E-15
 -1       934 2.73934E-03 2.92717E-04-4.33475E-15
 -1       935 3.59707E-03 2.83110E-04-7.25767E-15
 -1       936 1.09776E-02 1.10862E-04-4.70423E-14
 -1       937 1.37273E-02 1.81825E-04-7.53234E-14
 -1       938 1.10713E-02-1.09480E-04-4.75699E-14
 -1       939 1.38447E-03 9.86056E-05-1.30962E-15
 -1       940 1.37269E-02 2.12769E-05-7.51840E-14
 -1       941 2.16394E-03 2.84373E-04-2.78996E-15
 -1       942 6.27379E-03-1.23761E-04-2.21066E-14
 -1       943 1.38127E-03 3.35368E-05-1.31997E-15
 -1       944 1.11810E-02 2.17746E-05-4.78941E-14
 -1       945 1.31830E-03-1.53086E-04-1.17895E-15
 -1       946 6.08222E-03-4.09417E-05-2.16532E-14
 -1       947 1.37263E-02-1.29659E-04-7.51329E-14
 -1       948 1.09424E-02 1.76874E-04-4.76674E-14
 -1       949 2.64134E-03-1.85214E-04-4.15522E-15
 -1       950 2.92867E-03-1.85073E-04-5.02770E-15
 -1       951 3.21466E-03-1.83072E-04-5.97662E-15
 -1       952 3.49890E-03-1.79587E-04-7.00024E-15
 -1       953 3.78102E-03-1.74923E-04-8.09785E-15
 -1       954 4.06063E-03-1.69349E-04-9.27192E-15
 -1       955 4.33731E-03-1.63134E-04-1.05190E-14
 -1       956 4.61065E-03-1.56572E-04-1.18350E-14
 -1       957 4.88021E-03-1.50003E-04-1.32209E-14
 -1       958 5.14561E-03-1.43823E-04-1.46772E-14
 -1       959 5.40658E-03-1.38471E-04-1.62024E-14
 -1       960 5.66310E-03-1.34476E-04-1.77965E-14
 -1       961 5.91573E-03-1.32668E-04-1.94548E-14
 -1       962 2.35314E-03-1.83022E-04-3.36214E-15
 -1       963 1.58869E-03 2.55865E-04-1.57547E-15
 -1       964 2.45184E-03 2.90518E-04-3.52134E-15
 -1       965 1.12460E-02-1.44464E-04-4.98566E-14
 -1       966 1.14995E-02-1.45926E-04-5.24573E-14
 -1       967 1.17558E-02-1.50078E-04-5.50872E-14
 -1       968 1.20161E-02-1.55784E-04-5.77534E-14
 -1       969 1.22804E-02-1.62448E-04-6.04486E-14
 -1       970 1.25486E-02-1.69585E-04-6.31792E-14
 -1       971 1.28202E-02-1.76786E-04-6.59474E-14
 -1       972 1.30949E-02-1.83727E-04-6.87368E-14
 -1       973 1.33722E-02-1.90164E-04-7.15465E-14
 -1       974 1.12116E-02 1.66858E-04-5.02604E-14
 -1       975 5.10608E-03 1.75826E-04-1.44639E-14
 -1       976 4.83643E-03 1.82674E-04-1.30019E-14
 -1       977 5.63652E-03 1.66212E-04-1.75904E-14
 -1       978 5.89895E-03 1.65337E-04-1.92582E-14
 -1       979 6.16279E-03 1.69801E-04-2.09932E-14
 -1       980 5.99246E-03 1.00834E-05-2.11089E-14
 -1       981 6.04740E-03 7.64626E-05-2.10469E-14
 -1       982 1.14765E-02 1.63804E-04-5.28848E-14
 -1       983 1.17412E-02 1.64735E-04-5.55296E-14
 -1       984 1.20075E-02 1.68132E-04-5.81920E-14
 -1       985 1.22764E-02 1.72997E-04-6.08727E-14
 -1       986 1.25480E-02 1.78590E-04-6.35843E-14
 -1       987 1.28223E-02 1.84342E-04-6.63244E-14
 -1       988 1.30990E-02 1.89814E-04-6.90864E-14
 -1       989 1.33778E-02 1.94758E-04-7.18620E-14
 -1       990 1.39113E-03 1.65157E-04-1.28964E-15
 -1       991 2.06464E-03-1.77907E-04-2.64934E-15
 -1       992 1.35850E-03-9.71736E-05-1.26890E-15
 -1       993 1.77661E-03-1.69164E-04-2.01858E-15
 -1       994 4.00913E-03 2.04137E-04-9.03569E-15
 -1       995 1.12333E-02-3.54767E-05-4.84680E-14
 -1       996 5.37261E-03 1.70061E-04-1.59918E-14
 -1       997 1.37230E-02 9.69812E-05-7.51989E-14
 -1       998 1.56646E-03-1.32421E-04-1.62358E-15
 -1       999 6.05046E-03-8.65919E-05-2.08594E-14
 -1      1000 6.16621E-03-1.34371E-04-2.11803E-14
 -1      1001 1.67697E-03 1.81255E-04-1.80594E-15
 -1      1002 2.87372E-03 2.20479E-04-4.82114E-15
 -1      1003 3.72812E-03 2.10201E-04-7.86449E-15
 -1      1004 4.56358E-03 1.89995E-04-1.16092E-14
 -1      1005 5.92450E-03-2.00878E-05-2.04617E-14
 -1      1006 1.34868E-02-8.91154E-05-7.27049E-14
 -1      1007 1.34875E-02-1.53595E-05-7.27413E-14
 -1      1008 4.28773E-03 1.97287E-04-1.02856E-14
 -1      1009 1.62915E-03 7.18943E-05-1.76260E-15
 -1      1010 1.11796E-02 7.11931E-05-4.86411E-14
 -1      1011 1.36829E-03-3.18869E-05-1.29939E-15
 -1      1012 1.13218E-02-5.39947E-07-4.95271E-14
 -1      1013 3.16009E-03 2.18712E-04-5.75787E-15
 -1      1014 1.96464E-03 1.92377E-04-2.40615E-15
 -1      1015 2.77929E-03-1.14010E-04-4.61056E-15
 -1      1016 3.06589E-03-1.13275E-04-5.52352E-15
 -1      1017 3.35067E-03-1.11469E-04-6.51241E-15
 -1      1018 3.63314E-03-1.08806E-04-7.57405E-15
 -1      1019 3.91279E-03-1.05460E-04-8.71155E-15
 -1      1020 4.18912E-03-1.01600E-04-9.92547E-15
 -1      1021 4.46153E-03-9.73795E-05-1.12116E-14
 -1      1022 4.72939E-03-9.29681E-05-1.25668E-14
 -1      1023 4.99194E-03-8.85427E-05-1.39909E-14
 -1      1024 5.24830E-03-8.42552E-05-1.54862E-14
 -1      1025 5.49736E-03-8.02042E-05-1.70502E-14
 -1      1026 5.73766E-03-7.64490E-05-1.86788E-14
 -1      1027 1.14292E-02-8.72308E-05-5.12272E-14
 -1      1028 2.25305E-03 1.99303E-04-3.08904E-15
 -1      1029 1.91625E-03 7.68629E-05-2.35685E-15
 -1      1030 2.58623E-03 2.20009E-04-3.96416E-15
 -1      1031 1.16680E-02-9.16833E-05-5.38430E-14
 -1      1032 1.19154E-02-9.65438E-05-5.64891E-14
 -1      1033 1.21699E-02-1.01691E-04-5.91657E-14
 -1      1034 1.24305E-02-1.06996E-04-6.18769E-14
 -1      1035 1.26962E-02-1.12301E-04-6.46210E-14
 -1      1036 1.29662E-02-1.17453E-04-6.73980E-14
 -1      1037 1.32397E-02-1.22297E-04-7.01892E-14
 -1      1038 1.16572E-02 1.03617E-04-5.41899E-14
 -1      1039 5.20839E-03 1.13479E-04-1.52385E-14
 -1      1040 4.94767E-03 1.18801E-04-1.37473E-14
 -1      1041 5.81909E-03 7.99713E-05-1.93179E-14
 -1      1042 5.58034E-03 8.40633E-05-1.76553E-14
 -1      1043 1.33767E-02 1.11751E-04-7.17337E-14
 -1      1044 1.14096E-02 1.01220E-04-5.15565E-14
 -1      1045 1.21694E-02 1.10829E-04-5.95140E-14
 -1      1046 1.24331E-02 1.15001E-04-6.22113E-14
 -1      1047 1.27012E-02 1.19197E-04-6.49349E-14
 -1      1048 1.29729E-02 1.23189E-04-6.76892E-14
 -1      1049 1.11937E-02 1.16418E-04-4.94538E-14
 -1      1050 5.85548E-03 2.59749E-05-1.98959E-14
 -1      1051 3.44500E-03 2.15164E-04-6.77183E-15
 -1      1052 2.20287E-03-1.11138E-04-3.01920E-15
 -1      1053 5.39757E-03 9.84048E-05-1.64276E-14
 -1      1054 1.91452E-03-1.06799E-04-2.34414E-15
 -1      1055 4.13712E-03 1.34940E-04-9.68258E-15
 -1      1056 1.61428E-03 2.16715E-07-1.74368E-15
 -1      1057 2.49140E-03-1.13411E-04-3.77493E-15
 -1      1058 1.34336E-02 4.82745E-05-7.22414E-14
 -1      1059 1.19106E-02 1.06940E-04-5.68420E-14
 -1      1060 3.00993E-03 1.48470E-04-5.31663E-15
 -1      1061 2.72299E-03 1.48942E-04-4.41734E-15
 -1      1062 4.68185E-03 1.24323E-04-1.23222E-14
 -1      1063 3.85931E-03 1.39593E-04-8.47369E-15
 -1      1064 1.32433E-02-5.01860E-05-7.02365E-14
 -1      1065 4.41148E-03 1.29779E-04-1.09672E-14
 -1      1066 1.13537E-02 4.42081E-05-5.02875E-14
 -1      1067 1.90116E-03 2.07897E-07-2.33454E-15
 -1      1068 1.63977E-03-6.76528E-05-1.78561E-15
 -1      1069 1.14958E-02-4.22120E-05-5.16857E-14
 -1      1070 3.20518E-03-4.23414E-05-6.02599E-15
 -1      1071 3.48852E-03-4.14235E-05-7.05205E-15
 -1      1072 3.76912E-03-4.01915E-05-8.15267E-15
 -1      1073 4.04629E-03-3.87585E-05-9.33066E-15
 -1      1074 4.31949E-03-3.71396E-05-1.05846E-14
 -1      1075 4.58798E-03-3.54167E-05-1.19107E-14
 -1      1076 4.85089E-03-3.36523E-05-1.33041E-14
 -1      1077 5.10710E-03-3.19271E-05-1.47674E-14
 -1      1078 5.35528E-03-3.01988E-05-1.62998E-14
 -1      1079 5.59321E-03-2.84357E-05-1.79000E-14
 -1      1080 2.20460E-03 8.00434E-05-3.03305E-15
 -1      1081 1.18109E-02-4.29547E-05-5.52295E-14
 -1      1082 1.20564E-02-4.58481E-05-5.78882E-14
 -1      1083 1.23102E-02-4.87622E-05-6.05776E-14
 -1      1084 1.25706E-02-5.16690E-05-6.33012E-14
 -1      1085 1.28363E-02-5.45314E-05-6.60553E-14
 -1      1086 1.30388E-02-5.25087E-05-6.81421E-14
 -1      1087 3.29527E-03 1.46572E-04-6.29219E-15
 -1      1088 5.63350E-03 2.85453E-05-1.82151E-14
 -1      1089 1.28467E-02 6.00087E-05-6.62840E-14
 -1      1090 2.63231E-03-4.29512E-05-4.19672E-15
 -1      1091 1.15737E-02 4.91894E-05-5.28391E-14
 -1      1092 1.25797E-02 5.80455E-05-6.35404E-14
 -1      1093 1.23177E-02 5.59290E-05-6.08265E-14
 -1      1094 1.18132E-02 5.14923E-05-5.54812E-14
 -1      1095 1.13822E-02 7.14093E-05-5.09229E-14
 -1      1096 5.06032E-03 5.98121E-05-1.44898E-14
 -1      1097 4.26618E-03 6.89977E-05-1.03306E-14
 -1      1098 2.05546E-03-4.12058E-05-2.68221E-15
 -1      1099 1.31384E-02 5.45630E-05-6.92564E-14
 -1      1100 2.34399E-03-4.24565E-05-3.39940E-15
 -1      1101 2.46373E-03 1.14739E-04-3.69477E-15
 -1      1102 1.20618E-02 5.37237E-05-5.81404E-14
 -1      1103 2.91958E-03-4.28883E-05-5.07321E-15
 -1      1104 3.14810E-03 7.71565E-05-5.81839E-15
 -1      1105 4.80136E-03 6.29848E-05-1.30345E-14
 -1      1106 3.99167E-03 7.16646E-05-9.08610E-15
 -1      1107 3.57854E-03 1.43539E-04-7.34373E-15
 -1      1108 1.32364E-02-3.38298E-06-7.01960E-14
 -1      1109 4.53633E-03 6.60736E-05-1.16487E-14
 -1      1110 1.15894E-02 2.65171E-06-5.27583E-14
 -1      1111 5.45664E-03 4.00954E-05-1.69761E-14
 -1      1112 5.25069E-03 4.66424E-05-1.56481E-14
 -1      1113 2.86206E-03 7.77764E-05-4.88029E-15
 -1      1114 3.62881E-03 2.68512E-05-7.59639E-15
 -1      1115 1.21981E-02 1.08814E-06-5.94351E-14
 -1      1116 3.43205E-03 7.58379E-05-6.83147E-15
 -1      1117 1.24551E-02 6.64973E-07-6.21365E-14
 -1      1118 1.27182E-02 1.72371E-07-6.48729E-14
 -1      1119 2.48794E-03 2.76538E-05-3.78825E-15
 -1      1120 1.18857E-02 1.97660E-06-5.60765E-14
 -1      1121 1.29885E-02-1.23019E-06-6.76582E-14
 -1      1122 3.71343E-03 7.39848E-05-7.91929E-15
 -1      1123 0.00000E+00 0.00000E+00 0.00000E+00
 -1      1124 0.00000E+00 0.00000E+00 0.00000E+00
 -1      1125 0.00000E+00 0.00000E+00 0.00000E+00
 -1      1126 0.00000E+00 0.00000E+00 0.00000E+00
 -1      1127 0.00000E+00 0.00000E+00 0.00000E+00
 -1      1128 0.00000E+00 0.00000E+00 0.00000E+00
 -1      1129 0.00000E+00 0.00000E+00 0.00000E+00
 -1      1130 0.00000E+00 0.00000E+00 0.00000E+00
 -1      1131 0.00000E+00 0.00000E+00 0.00000E+00
 -1      1132 0.00000E+00 0.00000E+00 0.00000E+00
 -1      1133 0.00000E+00 0.00000E+00 0.00000E+00
 -1      1134 0.00000E+00 0.00000E+00 0.00000E+00
 -1      1135 0.00000E+00 0.00000E+00 0.00000E+00
 -1      1136 0.00000E+00 0.00000E+00 0.00000E+00
 -1      1137 0.00000E+00 0.00000E+00 0.00000E+00
 -1      1138 0.00000E+00 0.00000E+00 0.00000E+00
 -1      1139 0.00000E+00 0.00000E+00 0.00000E+00
 -1      1140 2.11306E-04-1.48145E-04 1.51788E-17
 -1      1141 5.50622E-04-3.36935E-04-1.15603E-17
 -1      1142 8.31858E-04-4.57854E-04-1.23545E-16
 -1      1143 1.10088E-03-5.38734E-04-3.35425E-16
 -1      1144 1.36578E-03-5.94893E-04-6.42363E-16
 -1      1145 1.63016E-03-6.34162E-04-1.04238E-15
 -1      1146 1.89593E-03-6.61117E-04-1.53539E-15
 -1      1147 2.16403E-03-6.78796E-04-2.12025E-15
 -1      1148 2.43490E-03-6.89399E-04-2.79750E-15
 -1      1149 2.70875E-03-6.94571E-04-3.56597E-15
 -1      1150 2.98568E-03-6.95559E-04-4.42081E-15
 -1      1151 3.26582E-03-6.93323E-04-5.35437E-15
 -1      1152 3.54939E-03-6.88641E-04-6.36532E-15
 -1      1153 3.83677E-03-6.82200E-04-7.45047E-15
 -1      1154 4.12847E-03-6.74703E-04-8.60562E-15
 -1      1155 4.42524E-03-6.66982E-04-9.83186E-15
 -1      1156 4.72801E-03-6.60136E-04-1.11273E-14
 -1      1157 5.03787E-03-6.55685E-04-1.24902E-14
 -1      1158 5.35592E-03-6.55742E-04-1.39237E-14
 -1      1159 5.68310E-03-6.63167E-04-1.54268E-14
 -1      1160 6.01974E-03-6.81635E-04-1.69987E-14
 -1      1161 6.36505E-03-7.15463E-04-1.86455E-14
 -1      1162 6.71632E-03-7.68937E-04-2.03619E-14
 -1      1163 7.06832E-03-8.44830E-04-2.21572E-14
 -1      1164 7.41313E-03-9.41955E-04-2.40360E-14
 -1      1165 7.74145E-03-1.05228E-03-2.59857E-14
 -1      1166 8.04575E-03-1.15936E-03-2.80017E-14
 -1      1167 8.32475E-03-1.24079E-03-3.00811E-14
 -1      1168 8.58638E-03-1.27571E-03-3.22388E-14
 -1      1169 8.84604E-03-1.25427E-03-3.44719E-14
 -1      1170 9.12003E-03-1.18278E-03-3.67720E-14
 -1      1171 9.41834E-03-1.08037E-03-3.91371E-14
 -1      1172 9.74166E-03-9.69908E-04-4.15649E-14
 -1      1173 1.00835E-02-8.69562E-04-4.40448E-14
 -1      1174 1.04347E-02-7.89243E-04-4.65703E-14
 -1      1175 1.07868E-02-7.31447E-04-4.91392E-14
 -1      1176 1.11339E-02-6.94047E-04-5.17390E-14
 -1      1177 1.14729E-02-6.72925E-04-5.43631E-14
 -1      1178 1.18027E-02-6.63685E-04-5.70217E-14
 -1      1179 1.21235E-02-6.62484E-04-5.97273E-14
 -1      1180 1.24362E-02-6.66300E-04-6.24821E-14
 -1      1181 1.27420E-02-6.72906E-04-6.52833E-14
 -1      1182 1.30421E-02-6.80740E-04-6.81126E-14
 -1      1183 1.33378E-02-6.88747E-04-7.09611E-14
 -1      1184 1.36300E-02-6.96238E-04-7.38304E-14
 -1      1185 1.39196E-02-7.02777E-04-7.67136E-14
 -1      1186 1.42073E-02-7.08100E-04-7.96128E-14
 -1      1187 1.44937E-02-7.12081E-04-8.25343E-14
 -1      1188 1.47794E-02-7.14766E-04-8.54878E-14
 -1      1189 1.50579E-02-7.16521E-04-8.84017E-14
 -1      1190 2.28040E-04 1.60506E-04 1.87838E-17
 -1      1191 5.52793E-04 3.41561E-04-6.95245E-18
 -1      1192 8.32787E-04 4.60018E-04-1.18463E-16
 -1      1193 1.10178E-03 5.40417E-04-3.26128E-16
 -1      1194 1.36668E-03 5.96572E-04-6.30640E-16
 -1      1195 1.63111E-03 6.35931E-04-1.03175E-15
 -1      1196 1.89694E-03 6.62993E-04-1.52770E-15
 -1      1197 2.16508E-03 6.80792E-04-2.11235E-15
 -1      1198 2.43598E-03 6.91526E-04-2.78784E-15
 -1      1199 2.70984E-03 6.96835E-04-3.55483E-15
 -1      1200 2.98678E-03 6.97966E-04-4.41295E-15
 -1      1201 3.26693E-03 6.95879E-04-5.35872E-15
 -1      1202 3.55051E-03 6.91352E-04-6.39091E-15
 -1      1203 3.83788E-03 6.85076E-04-7.50684E-15
 -1      1204 4.12956E-03 6.77755E-04-8.70533E-15
 -1      1205 4.42629E-03 6.70225E-04-9.98926E-15
 -1      1206 4.72898E-03 6.63586E-04-1.13517E-14
 -1      1207 5.03869E-03 6.59358E-04-1.27869E-14
 -1      1208 5.35650E-03 6.59643E-04-1.42957E-14
 -1      1209 5.68329E-03 6.67275E-04-1.58755E-14
 -1      1210 6.01934E-03 6.85874E-04-1.75244E-14
 -1      1211 6.36379E-03 7.19662E-04-1.92418E-14
 -1      1212 6.71391E-03 7.72779E-04-2.10253E-14
 -1      1213 7.06448E-03 8.47815E-04-2.28704E-14
 -1      1214 7.40772E-03 9.43425E-04-2.47668E-14
 -1      1215 7.73457E-03 1.05157E-03-2.67134E-14
 -1      1216 8.03776E-03 1.15611E-03-2.87221E-14
 -1      1217 8.31617E-03 1.23517E-03-3.08047E-14
 -1      1218 8.57757E-03 1.26842E-03-3.29609E-14
 -1      1219 8.83700E-03 1.24629E-03-3.51898E-14
 -1      1220 9.11039E-03 1.17488E-03-3.74967E-14
 -1      1221 9.40759E-03 1.07283E-03-3.98725E-14
 -1      1222 9.72943E-03 9.62482E-04-4.23037E-14
 -1      1223 1.00697E-02 8.61678E-04-4.47892E-14
 -1      1224 1.04194E-02 7.80255E-04-4.73287E-14
 -1      1225 1.07703E-02 7.20811E-04-4.99099E-14
 -1      1226 1.11166E-02 6.81389E-04-5.25300E-14
 -1      1227 1.14550E-02 6.58030E-04-5.51930E-14
 -1      1228 1.17843E-02 6.46451E-04-5.78923E-14
 -1      1229 1.21048E-02 6.42877E-04-6.06112E-14
 -1      1230 1.24174E-02 6.44317E-04-6.33522E-14
 -1      1231 1.27230E-02 6.48560E-04-6.61165E-14
 -1      1232 1.30232E-02 6.54050E-04-6.88892E-14
 -1      1233 1.33188E-02 6.59729E-04-7.16741E-14
 -1      1234 1.36110E-02 6.64906E-04-7.44555E-14
 -1      1235 1.39006E-02 6.69141E-04-7.72307E-14
 -1      1236 1.41883E-02 6.72167E-04-8.00189E-14
 -1      1237 1.44747E-02 6.73857E-04-8.28296E-14
 -1      1238 1.47604E-02 6.74257E-04-8.56594E-14
 -1      1239 1.50388E-02 6.73776E-04-8.84348E-14
 -1      1240 1.51748E-02 6.31266E-04-8.97994E-14
 -1      1241 1.51757E-02 5.46828E-04-8.98239E-14
 -1      1242 1.51774E-02 4.62563E-04-8.98429E-14
 -1      1243 1.51801E-02 3.78949E-04-8.98451E-14
 -1      1244 1.51836E-02 2.96351E-04-8.98582E-14
 -1      1245 1.51874E-02 2.15606E-04-8.98928E-14
 -1      1246 1.51909E-02 1.35945E-04-8.99473E-14
 -1      1247 1.51936E-02 5.64497E-05-9.00063E-14
 -1      1248 1.51953E-02-2.25846E-05-9.00562E-14
 -1      1249 1.51958E-02-1.01622E-04-9.00760E-14
 -1      1250 1.51953E-02-1.81128E-04-9.00836E-14
 -1      1251 1.51940E-02-2.60805E-04-9.01040E-14
 -1      1252 1.51925E-02-3.41569E-04-9.01187E-14
 -1      1253 1.51913E-02-4.24186E-04-9.00999E-14
 -1      1254 1.51908E-02-5.07817E-04-9.00369E-14
 -1      1255 1.51914E-02-5.92081E-04-8.99542E-14
 -1      1256 1.51927E-02-6.75805E-04-8.98683E-14
 -1      1257 1.08227E-02 6.48996E-05-3.85583E-14
 -1      1258 1.07085E-02 2.14690E-04-3.83217E-14
 -1      1259 1.04818E-02 3.73473E-04-3.78248E-14
 -1      1260 1.01757E-02 5.26492E-04-3.71281E-14
 -1      1261 9.81083E-03 6.68063E-04-3.62737E-14
 -1      1262 9.40226E-03 7.84732E-04-3.52893E-14
 -1      1263 8.97888E-03 8.57171E-04-3.42533E-14
 -1      1264 8.54236E-03 8.77212E-04-3.31724E-14
 -1      1265 8.06990E-03 8.33493E-04-3.20168E-14
 -1      1266 7.62931E-03 7.37823E-04-3.09743E-14
 -1      1267 7.24133E-03 6.08753E-04-3.01025E-14
 -1      1268 6.89854E-03 4.60165E-04-2.93642E-14
 -1      1269 6.63642E-03 3.11397E-04-2.88200E-14
 -1      1270 6.45956E-03 1.62177E-04-2.84666E-14
 -1      1271 6.38795E-03 1.85860E-05-2.83283E-14
 -1      1272 6.42279E-03-1.19017E-04-2.83994E-14
 -1      1273 6.56686E-03-2.67203E-04-2.86721E-14
 -1      1274 6.80912E-03-4.20315E-04-2.91449E-14
 -1      1275 7.12900E-03-5.70367E-04-2.98047E-14
 -1      1276 7.51153E-03-7.09882E-04-3.06426E-14
 -1      1277 7.91243E-03-8.14988E-04-3.15608E-14
 -1      1278 8.31769E-03-8.75402E-04-3.25229E-14
 -1      1279 8.72585E-03-8.86682E-04-3.35187E-14
 -1      1280 9.14572E-03-8.45290E-04-3.45553E-14
 -1      1281 9.55038E-03-7.59160E-04-3.55496E-14
 -1      1282 9.91945E-03-6.42009E-04-3.64414E-14
 -1      1283 1.02490E-02-5.05559E-04-3.72157E-14
 -1      1284 1.05267E-02-3.58708E-04-3.78567E-14
 -1      1285 1.07232E-02-2.14047E-04-3.83071E-14
 -1      1286 1.08231E-02-7.56168E-05-3.85464E-14
 -1      1287 1.66437E-04-1.10227E-04 6.36969E-19
 -1      1288 1.12447E-04-5.69420E-05-1.76318E-17
 -1      1289 1.17487E-04-6.75368E-05-1.26445E-17
 -1      1290 1.08399E-04-4.34639E-05-2.59395E-17
 -1      1291 1.10229E-04-4.95775E-05-2.33646E-17
 -1      1292 2.26179E-04-1.07514E-04-5.47387E-17
 -1      1293 1.06866E-04-3.35734E-05-3.06965E-17
 -1      1294 1.07691E-04-3.82988E-05-2.92057E-17
 -1      1295 2.19088E-04-8.23532E-05-6.98362E-17
 -1      1296 1.06123E-04-2.53135E-05-3.36509E-17
 -1      1297 1.06536E-04-2.93447E-05-3.28513E-17
 -1      1298 2.15934E-04-6.31646E-05-7.90383E-17
 -1      1299 1.05748E-04-1.80519E-05-3.53721E-17
 -1      1300 1.05967E-04-2.16168E-05-3.49655E-17
 -1      1301 2.14346E-04-4.70807E-05-8.47033E-17
 -1      1302 1.05542E-04-1.12088E-05-3.64834E-17
 -1      1303 1.05659E-04-1.45864E-05-3.62666E-17
 -1      1304 2.13476E-04-3.26566E-05-8.83354E-17
 -1      1305 1.05450E-04-4.67526E-06-3.69713E-17
 -1      1306 1.05499E-04-7.91769E-06-3.68900E-17
 -1      1307 2.13002E-04-1.91241E-05-9.03547E-17
 -1      1308 1.05440E-04 1.73684E-06-3.70526E-17
 -1      1309 1.05438E-04-1.46460E-06-3.70526E-17
 -1      1310 2.12798E-04-6.13717E-06-9.12085E-17
 -1      1311 1.05507E-04 8.19977E-06-3.68493E-17
 -1      1312 1.05454E-04 4.95078E-06-3.69171E-17
 -1      1313 2.12806E-04 6.68458E-06-9.11272E-17
 -1      1314 1.05674E-04 1.48937E-05-3.61988E-17
 -1      1315 1.05553E-04 1.15014E-05-3.63750E-17
 -1      1316 2.13026E-04 1.96977E-05-9.01650E-17
 -1      1317 1.05987E-04 2.19074E-05-3.46674E-17
 -1      1318 1.05763E-04 1.83198E-05-3.51417E-17
 -1      1319 2.13513E-04 3.31698E-05-8.78475E-17
 -1      1320 1.06581E-04 2.97773E-05-3.23363E-17
 -1      1321 1.06158E-04 2.57002E-05-3.31359E-17
 -1      1322 2.14412E-04 4.76835E-05-8.39037E-17
 -1      1323 1.07727E-04 3.88839E-05-2.86907E-17
 -1      1324 1.06899E-04 3.40885E-05-3.00866E-17
 -1      1325 2.16050E-04 6.40970E-05-7.78322E-17
 -1      1326 1.10207E-04 5.03151E-05-2.25379E-17
 -1      1327 1.08401E-04 4.41322E-05-2.52077E-17
 -1      1328 2.19182E-04 8.36015E-05-6.83589E-17
 -1      1329 1.16803E-04 6.75726E-05-1.23192E-17
 -1      1330 1.12094E-04 5.77406E-05-1.72659E-17
 -1      1331 2.26165E-04 1.09332E-04-5.33292E-17
 -1      1332 1.57323E-04 1.09741E-04 4.01155E-18
 -1      1333 1.35473E-04 8.60160E-05-6.39679E-18
 -1      1334 2.55722E-04 1.51924E-04-3.52637E-17
 -1      1335 3.34532E-04 2.20446E-04-8.52454E-18
 -1      1336 4.20854E-04-2.61343E-04-2.64139E-17
 -1      1337 5.73694E-04-3.36162E-04-6.30057E-17
 -1      1338 7.20636E-04-3.96476E-04-1.25347E-16
 -1      1339 8.63568E-04-4.45431E-04-2.11975E-16
 -1      1340 6.11232E-04-3.30176E-04-1.22623E-16
 -1      1341 1.00337E-03-4.86100E-04-3.21642E-16
 -1      1342 1.14100E-03-5.19617E-04-4.54782E-16
 -1      1343 9.04092E-04-4.30184E-04-3.03834E-16
 -1      1344 1.27730E-03-5.47842E-04-6.11233E-16
 -1      1345 1.41278E-03-5.71246E-04-7.91142E-16
 -1      1346 1.18621E-03-4.98652E-04-5.77433E-16
 -1      1347 1.54788E-03-5.90882E-04-9.93712E-16
 -1      1348 1.68287E-03-6.07080E-04-1.21946E-15
 -1      1349 1.46292E-03-5.46143E-04-9.42646E-16
 -1      1350 1.81799E-03-6.20451E-04-1.46797E-15
 -1      1351 1.95338E-03-6.31284E-04-1.73948E-15
 -1      1352 1.73753E-03-5.78762E-04-1.39878E-15
 -1      1353 2.08916E-03-6.39962E-04-2.03398E-15
 -1      1354 2.22540E-03-6.46731E-04-2.35147E-15
 -1      1355 2.01198E-03-6.00405E-04-1.94620E-15
 -1      1356 2.36218E-03-6.51846E-04-2.69132E-15
 -1      1357 2.49952E-03-6.55511E-04-3.05352E-15
 -1      1358 2.28737E-03-6.13789E-04-2.58371E-15
 -1      1359 2.63748E-03-6.57899E-04-3.43872E-15
 -1      1360 2.77607E-03-6.59177E-04-3.84553E-15
 -1      1361 2.56432E-03-6.20888E-04-3.31098E-15
 -1      1362 2.91532E-03-6.59464E-04-4.27233E-15
 -1      1363 3.05526E-03-6.58899E-04-4.71984E-15
 -1      1364 2.84324E-03-6.23165E-04-4.12417E-15
 -1      1365 3.19592E-03-6.57563E-04-5.18689E-15
 -1      1366 3.33733E-03-6.55578E-04-5.67343E-15
 -1      1367 3.12441E-03-6.21717E-04-5.01940E-15
 -1      1368 3.47953E-03-6.53000E-04-6.17892E-15
 -1      1369 3.62256E-03-6.49944E-04-6.70341E-15
 -1      1370 3.40811E-03-6.17387E-04-5.99262E-15
 -1      1371 3.76648E-03-6.46458E-04-7.24601E-15
 -1      1372 3.91135E-03-6.42661E-04-7.80642E-15
 -1      1373 3.69467E-03-6.10867E-04-7.04191E-15
 -1      1374 4.05725E-03-6.38604E-04-8.38518E-15
 -1      1375 4.20425E-03-6.34428E-04-8.98084E-15
 -1      1376 3.98449E-03-6.02804E-04-8.16385E-15
 -1      1377 4.35244E-03-6.30204E-04-9.59434E-15
 -1      1378 4.50193E-03-6.26108E-04-1.02258E-14
 -1      1379 4.27809E-03-5.93908E-04-9.35696E-15
 -1      1380 4.65283E-03-6.22255E-04-1.08737E-14
 -1      1381 4.80523E-03-6.18869E-04-1.15388E-14
 -1      1382 4.57608E-03-5.85085E-04-1.06200E-14
 -1      1383 4.95928E-03-6.16138E-04-1.22217E-14
 -1      1384 5.11506E-03-6.14353E-04-1.29213E-14
 -1      1385 4.87919E-03-5.77591E-04-1.19522E-14
 -1      1386 5.27269E-03-6.13803E-04-1.36385E-14
 -1      1387 5.43225E-03-6.14856E-04-1.43736E-14
 -1      1388 5.18817E-03-5.73211E-04-1.33539E-14
 -1      1389 5.59381E-03-6.17938E-04-1.51254E-14
 -1      1390 5.75740E-03-6.23489E-04-1.58945E-14
 -1      1391 5.50368E-03-5.74445E-04-1.48238E-14
 -1      1392 5.92299E-03-6.32090E-04-1.66821E-14
 -1      1393 6.09049E-03-6.44223E-04-1.74875E-14
 -1      1394 5.82615E-03-5.84669E-04-1.63642E-14
 -1      1395 6.25973E-03-6.60592E-04-1.83096E-14
 -1      1396 6.43043E-03-6.81645E-04-1.91509E-14
 -1      1397 6.15547E-03-6.08136E-04-1.79749E-14
 -1      1398 6.60222E-03-7.08078E-04-2.00115E-14
 -1      1399 6.77457E-03-7.40129E-04-2.08890E-14
 -1      1400 6.49067E-03-6.49648E-04-1.96589E-14
 -1      1401 6.94686E-03-7.78209E-04-2.17870E-14
 -1      1402 7.11834E-03-8.22084E-04-2.27057E-14
 -1      1403 6.82956E-03-7.13526E-04-2.14172E-14
 -1      1404 7.28818E-03-8.71428E-04-2.36420E-14
 -1      1405 7.45549E-03-9.25183E-04-2.45985E-14
 -1      1406 7.16850E-03-8.01583E-04-2.32513E-14
 -1      1407 7.61945E-03-9.81846E-04-2.55726E-14
 -1      1408 7.77935E-03-1.03933E-03-2.65632E-14
 -1      1409 7.50255E-03-9.10062E-04-2.51604E-14
 -1      1410 7.93471E-03-1.09485E-03-2.75704E-14
 -1      1411 8.08542E-03-1.14555E-03-2.85935E-14
 -1      1412 7.82653E-03-1.02658E-03-2.71400E-14
 -1      1413 8.23170E-03-1.18809E-03-2.96346E-14
 -1      1414 8.37434E-03-1.21975E-03-3.06939E-14
 -1      1415 8.13715E-03-1.12975E-03-2.91877E-14
 -1      1416 8.51437E-03-1.23806E-03-3.17719E-14
 -1      1417 8.65333E-03-1.24172E-03-3.28696E-14
 -1      1418 8.43555E-03-1.19434E-03-3.13066E-14
 -1      1419 8.79265E-03-1.23046E-03-3.39845E-14
 -1      1420 8.93397E-03-1.20509E-03-3.51175E-14
 -1      1421 8.72824E-03-1.20182E-03-3.34992E-14
 -1      1422 9.07845E-03-1.16768E-03-3.62671E-14
 -1      1423 9.22709E-03-1.12073E-03-3.74323E-14
 -1      1424 9.02460E-03-1.15003E-03-3.57614E-14
 -1      1425 9.38030E-03-1.06751E-03-3.86164E-14
 -1      1426 9.53817E-03-1.01096E-03-3.98140E-14
 -1      1427 9.33213E-03-1.05440E-03-3.80933E-14
 -1      1428 9.70036E-03-9.54082E-04-4.10261E-14
 -1      1429 9.86623E-03-8.99176E-04-4.22534E-14
 -1      1430 9.65323E-03-9.39649E-04-4.04885E-14
 -1      1431 1.00350E-02-8.48054E-04-4.34921E-14
 -1      1432 1.02059E-02-8.02000E-04-4.47423E-14
 -1      1433 9.98543E-03-8.28717E-04-4.29391E-14
 -1      1434 1.03779E-02-7.61571E-04-4.60045E-14
 -1      1435 1.05504E-02-7.27162E-04-4.72786E-14
 -1      1436 1.03238E-02-7.36150E-04-4.54397E-14
 -1      1437 1.07226E-02-6.98484E-04-4.85609E-14
 -1      1438 1.08939E-02-6.75377E-04-4.98515E-14
 -1      1439 1.06631E-02-6.67443E-04-4.79840E-14
 -1      1440 1.10639E-02-6.57175E-04-5.11502E-14
 -1      1441 1.12324E-02-6.43461E-04-5.24567E-14
 -1      1442 1.09996E-02-6.21742E-04-5.05636E-14
 -1      1443 1.13990E-02-6.33513E-04-5.37701E-14
 -1      1444 1.15637E-02-6.26849E-04-5.50920E-14
 -1      1445 1.13306E-02-5.95062E-04-5.31773E-14
 -1      1446 1.17264E-02-6.22852E-04-5.64211E-14
 -1      1447 1.18872E-02-6.21072E-04-5.77609E-14
 -1      1448 1.16551E-02-5.82582E-04-5.58196E-14
 -1      1449 1.20460E-02-6.21045E-04-5.91152E-14
 -1      1450 1.22031E-02-6.22394E-04-6.04814E-14
 -1      1451 1.19727E-02-5.79870E-04-5.85033E-14
 -1      1452 1.23584E-02-6.24798E-04-6.18571E-14
 -1      1453 1.25122E-02-6.27960E-04-6.32437E-14
 -1      1454 1.22840E-02-5.83354E-04-6.12312E-14
 -1      1455 1.26645E-02-6.31675E-04-6.46406E-14
 -1      1456 1.28154E-02-6.35719E-04-6.60473E-14
 -1      1457 1.25895E-02-5.90371E-04-6.40035E-14
 -1      1458 1.29652E-02-6.39968E-04-6.74601E-14
 -1      1459 1.31139E-02-6.44259E-04-6.88791E-14
 -1      1460 1.28902E-02-5.99044E-04-6.68101E-14
 -1      1461 1.32617E-02-6.48523E-04-7.03017E-14
 -1      1462 1.34086E-02-6.52645E-04-7.17275E-14
 -1      1463 1.31869E-02-6.08106E-04-6.96428E-14
 -1      1464 1.35547E-02-6.56591E-04-7.31606E-14
 -1      1465 1.37002E-02-6.60281E-04-7.45989E-14
 -1      1466 1.34804E-02-6.16733E-04-7.24953E-14
 -1      1467 1.38452E-02-6.63699E-04-7.60398E-14
 -1      1468 1.39896E-02-6.66794E-04-7.74822E-14
 -1      1469 1.37714E-02-6.24409E-04-7.53657E-14
 -1      1470 1.41337E-02-6.69562E-04-7.89322E-14
 -1      1471 1.42774E-02-6.71971E-04-8.03886E-14
 -1      1472 1.40604E-02-6.30822E-04-7.82535E-14
 -1      1473 1.44208E-02-6.74030E-04-8.18490E-14
 -1      1474 1.45640E-02-6.75727E-04-8.33159E-14
 -1      1475 1.43480E-02-6.35802E-04-8.11622E-14
 -1      1476 1.47070E-02-6.77098E-04-8.47923E-14
 -1      1477 1.48500E-02-6.78166E-04-8.62779E-14
 -1      1478 1.46346E-02-6.39312E-04-8.40968E-14
 -1      1479 1.50570E-02-6.75091E-04-8.84449E-14
 -1      1480 1.49849E-02-6.37596E-04-8.77404E-14
 -1      1481 6.41996E-04 3.71250E-04-7.66802E-17
 -1      1482 4.92130E-04 3.03185E-04-3.03577E-17
 -1      1483 4.44230E-04 2.65462E-04-5.02121E-17
 -1      1484 9.27092E-04 4.70540E-04-2.40246E-16
 -1      1485 7.86469E-04 4.25415E-04-1.46706E-16
 -1      1486 7.43660E-04 3.89724E-04-1.70071E-16
 -1      1487 1.20154E-03 5.39029E-04-4.98055E-16
 -1      1488 1.06509E-03 5.07851E-04-3.57123E-16
 -1      1489 1.02933E-03 4.74376E-04-3.83333E-16
 -1      1490 1.47172E-03 5.86977E-04-8.50950E-16
 -1      1491 1.33684E-03 5.65186E-04-6.62664E-16
 -1      1492 1.30692E-03 5.33124E-04-6.90027E-16
 -1      1493 1.74101E-03 6.20232E-04-1.29898E-15
 -1      1494 1.60630E-03 6.05204E-04-1.06305E-15
 -1      1495 1.58094E-03 5.73981E-04-1.09045E-15
 -1      1496 2.01117E-03 6.42581E-04-1.83839E-15
 -1      1497 1.87589E-03 6.32601E-04-1.55735E-15
 -1      1498 1.85407E-03 6.01843E-04-1.58353E-15
 -1      1499 2.28313E-03 6.56681E-04-2.46747E-15
 -1      1500 2.14688E-03 6.50534E-04-2.14191E-15
 -1      1501 2.12780E-03 6.20004E-04-2.16714E-15
 -1      1502 2.55736E-03 6.64486E-04-3.18692E-15
 -1      1503 2.41994E-03 6.61272E-04-2.81585E-15
 -1      1504 2.40297E-03 6.30817E-04-2.84030E-15
 -1      1505 2.83415E-03 6.67454E-04-3.99674E-15
 -1      1506 2.69542E-03 6.66496E-04-3.58056E-15
 -1      1507 2.68006E-03 6.36014E-04-3.60259E-15
 -1      1508 3.11370E-03 6.66691E-04-4.89577E-15
 -1      1509 2.97357E-03 6.67475E-04-4.43551E-15
 -1      1510 2.95939E-03 6.36889E-04-4.45392E-15
 -1      1511 3.39624E-03 6.63056E-04-5.88075E-15
 -1      1512 3.25458E-03 6.65176E-04-5.37722E-15
 -1      1513 3.24122E-03 6.34423E-04-5.39263E-15
 -1      1514 3.68206E-03 6.57262E-04-6.95102E-15
 -1      1515 3.53872E-03 6.60374E-04-6.40520E-15
 -1      1516 3.52583E-03 6.29389E-04-6.41619E-15
 -1      1517 3.97159E-03 6.49976E-04-8.10327E-15
 -1      1518 3.82634E-03 6.53745E-04-7.51725E-15
 -1      1519 3.81358E-03 6.22453E-04-7.52348E-15
 -1      1520 4.26541E-03 6.41927E-04-9.33937E-15
 -1      1521 4.11793E-03 6.45974E-04-8.71045E-15
 -1      1522 4.10492E-03 6.14283E-04-8.71249E-15
 -1      1523 4.56424E-03 6.34035E-04-1.06567E-14
 -1      1524 4.41415E-03 6.37868E-04-9.98839E-15
 -1      1525 4.40043E-03 6.05662E-04-9.98424E-15
 -1      1526 4.86892E-03 6.27555E-04-1.20502E-14
 -1      1527 4.71579E-03 6.30495E-04-1.13444E-14
 -1      1528 4.70080E-03 5.97628E-04-1.13343E-14
 -1      1529 5.18038E-03 6.24243E-04-1.35164E-14
 -1      1530 5.02375E-03 6.25342E-04-1.27741E-14
 -1      1531 5.00679E-03 5.91636E-04-1.27585E-14
 -1      1532 5.49943E-03 6.26533E-04-1.50540E-14
 -1      1533 5.33891E-03 6.24488E-04-1.42761E-14
 -1      1534 5.31915E-03 5.89735E-04-1.42546E-14
 -1      1535 5.82653E-03 6.37666E-04-1.66635E-14
 -1      1536 5.66195E-03 6.30762E-04-1.58502E-14
 -1      1537 5.63846E-03 5.94744E-04-1.58220E-14
 -1      1538 6.16144E-03 6.61681E-04-1.83408E-14
 -1      1539 5.99305E-03 6.47825E-04-1.74938E-14
 -1      1540 5.96492E-03 6.10345E-04-1.74598E-14
 -1      1541 6.50270E-03 7.03060E-04-2.00852E-14
 -1      1542 6.33141E-03 6.80014E-04-1.92045E-14
 -1      1543 6.29794E-03 6.40963E-04-1.91654E-14
 -1      1544 6.84714E-03 7.65738E-04-2.18937E-14
 -1      1545 6.67479E-03 7.31708E-04-2.09822E-14
 -1      1546 6.63587E-03 6.91168E-04-2.09364E-14
 -1      1547 7.18962E-03 8.51167E-04-2.37581E-14
 -1      1548 7.01903E-03 8.05881E-04-2.28196E-14
 -1      1549 6.97557E-03 7.64279E-04-2.27679E-14
 -1      1550 7.52348E-03 9.55510E-04-2.56774E-14
 -1      1551 7.35811E-03 9.01688E-04-2.47109E-14
 -1      1552 7.31242E-03 8.59926E-04-2.46539E-14
 -1      1553 7.84217E-03 1.06697E-03-2.76481E-14
 -1      1554 7.68512E-03 1.01153E-03-2.66546E-14
 -1      1555 7.64093E-03 9.70987E-04-2.65944E-14
 -1      1556 8.14205E-03 1.16557E-03-2.96933E-14
 -1      1557 7.99453E-03 1.11929E-03-2.86617E-14
 -1      1558 7.95641E-03 1.08150E-03-2.85983E-14
 -1      1559 8.42528E-03 1.22796E-03-3.18073E-14
 -1      1560 8.28534E-03 1.20243E-03-3.07406E-14
 -1      1561 8.25747E-03 1.16839E-03-3.06730E-14
 -1      1562 8.70054E-03 1.23671E-03-3.39971E-14
 -1      1563 8.56313E-03 1.23934E-03-3.28934E-14
 -1      1564 8.54797E-03 1.20887E-03-3.28220E-14
 -1      1565 8.97996E-03 1.18905E-03-3.62606E-14
 -1      1566 8.83891E-03 1.21921E-03-3.51198E-14
 -1      1567 8.83645E-03 1.19087E-03-3.50452E-14
 -1      1568 9.27386E-03 1.09837E-03-3.85991E-14
 -1      1569 9.12461E-03 1.14768E-03-3.74211E-14
 -1      1570 9.13240E-03 1.11955E-03-3.73432E-14
 -1      1571 9.58661E-03 9.87238E-04-4.09980E-14
 -1      1572 9.42784E-03 1.04389E-03-3.97915E-14
 -1      1573 9.44185E-03 1.01449E-03-3.97073E-14
 -1      1574 9.91622E-03 8.77526E-04-4.34527E-14
 -1      1575 9.74962E-03 9.31170E-04-4.22185E-14
 -1      1576 9.76544E-03 8.99840E-04-4.21313E-14
 -1      1577 1.02567E-02 7.83853E-04-4.59653E-14
 -1      1578 1.00856E-02 8.28212E-04-4.47016E-14
 -1      1579 1.00995E-02 7.95081E-04-4.46116E-14
 -1      1580 1.06013E-02 7.12371E-04-4.85239E-14
 -1      1581 1.04289E-02 7.45303E-04-4.72380E-14
 -1      1582 1.04387E-02 7.10883E-04-4.71458E-14
 -1      1583 1.09442E-02 6.62965E-04-5.11209E-14
 -1      1584 1.07732E-02 6.85112E-04-4.98180E-14
 -1      1585 1.07780E-02 6.49995E-04-4.97239E-14
 -1      1586 1.12816E-02 6.32222E-04-5.37610E-14
 -1      1587 1.11137E-02 6.45547E-04-5.24377E-14
 -1      1588 1.11135E-02 6.10239E-04-5.23420E-14
 -1      1589 1.16117E-02 6.15679E-04-5.64363E-14
 -1      1590 1.14476E-02 6.22455E-04-5.50934E-14
 -1      1591 1.14431E-02 5.87315E-04-5.49949E-14
 -1      1592 1.19338E-02 6.09087E-04-5.91408E-14
 -1      1593 1.17737E-02 6.11373E-04-5.77863E-14
 -1      1594 1.17658E-02 5.76618E-04-5.76789E-14
 -1      1595 1.22485E-02 6.08948E-04-6.18660E-14
 -1      1596 1.20921E-02 6.08391E-04-6.05013E-14
 -1      1597 1.20817E-02 5.74128E-04-6.03895E-14
 -1      1598 1.25565E-02 6.12606E-04-6.46156E-14
 -1      1599 1.24033E-02 6.10433E-04-6.32380E-14
 -1      1600 1.23912E-02 5.76689E-04-6.31230E-14
 -1      1601 1.28588E-02 6.18163E-04-6.73822E-14
 -1      1602 1.27083E-02 6.15238E-04-6.59979E-14
 -1      1603 1.26951E-02 5.81994E-04-6.58794E-14
 -1      1604 1.31565E-02 6.24315E-04-7.01585E-14
 -1      1605 1.30081E-02 6.21226E-04-6.87680E-14
 -1      1606 1.29944E-02 5.88434E-04-6.86478E-14
 -1      1607 1.34505E-02 6.30202E-04-7.29420E-14
 -1      1608 1.33039E-02 6.27331E-04-7.15511E-14
 -1      1609 1.32899E-02 5.94935E-04-7.14270E-14
 -1      1610 1.37416E-02 6.35274E-04-7.57215E-14
 -1      1611 1.35963E-02 6.32865E-04-7.43317E-14
 -1      1612 1.35824E-02 6.00804E-04-7.42083E-14
 -1      1613 1.40305E-02 6.39191E-04-7.85048E-14
 -1      1614 1.38863E-02 6.37391E-04-7.71128E-14
 -1      1615 1.38725E-02 6.05610E-04-7.69914E-14
 -1      1616 1.43179E-02 6.41762E-04-8.13065E-14
 -1      1617 1.41744E-02 6.40650E-04-7.99019E-14
 -1      1618 1.41609E-02 6.09096E-04-7.97863E-14
 -1      1619 1.46043E-02 6.42933E-04-8.41255E-14
 -1      1620 1.44612E-02 6.42517E-04-8.27124E-14
 -1      1621 1.44480E-02 6.11142E-04-8.25946E-14
 -1      1622 1.48902E-02 6.42860E-04-8.69598E-14
 -1      1623 1.47473E-02 6.43027E-04-8.55413E-14
 -1      1624 1.47343E-02 6.11774E-04-8.54224E-14
 -1      1625 1.50391E-02 6.31631E-04-8.84468E-14
 -1      1626 1.50523E-02 5.26312E-04-8.85974E-14
 -1      1627 1.50517E-02 5.68386E-04-8.85837E-14
 -1      1628 1.50543E-02 4.42502E-04-8.86149E-14
 -1      1629 1.50532E-02 4.84335E-04-8.86088E-14
 -1      1630 1.49290E-02 5.05767E-04-8.73705E-14
 -1      1631 1.50574E-02 3.59406E-04-8.86268E-14
 -1      1632 1.50558E-02 4.00847E-04-8.86201E-14
 -1      1633 1.49314E-02 4.22300E-04-8.73914E-14
 -1      1634 1.50612E-02 2.77239E-04-8.86479E-14
 -1      1635 1.50593E-02 3.18198E-04-8.86366E-14
 -1      1636 1.49349E-02 3.39593E-04-8.74099E-14
 -1      1637 1.50650E-02 1.97429E-04-8.86837E-14
 -1      1638 1.50631E-02 2.37217E-04-8.86642E-14
 -1      1639 1.49388E-02 2.58454E-04-8.74351E-14
 -1      1640 1.50685E-02 1.17119E-04-8.87274E-14
 -1      1641 1.50669E-02 1.57175E-04-8.87057E-14
 -1      1642 1.49428E-02 1.78172E-04-8.74672E-14
 -1      1643 1.50711E-02 3.74478E-05-8.87730E-14
 -1      1644 1.50699E-02 7.72226E-05-8.87499E-14
 -1      1645 1.49462E-02 9.79345E-05-8.75015E-14
 -1      1646 1.50725E-02-4.19328E-05-8.88070E-14
 -1      1647 1.50720E-02-2.25582E-06-8.87940E-14
 -1      1648 1.49485E-02 1.81863E-05-8.75357E-14
 -1      1649 1.50727E-02-1.21416E-04-8.88180E-14
 -1      1650 1.50728E-02-8.16379E-05-8.88141E-14
 -1      1651 1.49496E-02-6.13920E-05-8.75564E-14
 -1      1652 1.50719E-02-2.01378E-04-8.88265E-14
 -1      1653 1.50724E-02-1.61316E-04-8.88228E-14
 -1      1654 1.49495E-02-1.41145E-04-8.75631E-14
 -1      1655 1.50704E-02-2.80745E-04-8.88319E-14
 -1      1656 1.50712E-02-2.40954E-04-8.88304E-14
 -1      1657 1.49483E-02-2.20708E-04-8.75647E-14
 -1      1658 1.50687E-02-3.62430E-04-8.88261E-14
 -1      1659 1.50695E-02-3.21463E-04-8.88309E-14
 -1      1660 1.49466E-02-3.00996E-04-8.75568E-14
 -1      1661 1.50675E-02-4.45094E-04-8.87902E-14
 -1      1662 1.50680E-02-4.03646E-04-8.88143E-14
 -1      1663 1.49449E-02-3.82838E-04-8.75319E-14
 -1      1664 1.50671E-02-5.28593E-04-8.87206E-14
 -1      1665 1.50672E-02-4.86756E-04-8.87594E-14
 -1      1666 1.49437E-02-4.65559E-04-8.74830E-14
 -1      1667 1.50261E-02-6.04086E-04-8.82123E-14
 -1      1668 1.50256E-02-5.62050E-04-8.82528E-14
 -1      1669 1.49018E-02-5.40487E-04-8.69826E-14
 -1      1670 1.48189E-02-6.07159E-04-8.60484E-14
 -1      1671 1.08177E-02 6.40469E-05-3.89969E-14
 -1      1672 1.08481E-02 1.97704E-05-3.90502E-14
 -1      1673 1.06450E-02 1.73974E-04-3.87332E-14
 -1      1674 1.07431E-02 1.17587E-04-3.89209E-14
 -1      1675 1.03595E-02 3.29916E-04-3.80659E-14
 -1      1676 1.05044E-02 2.57911E-04-3.83749E-14
 -1      1677 1.00003E-02 4.89198E-04-3.73225E-14
 -1      1678 1.01661E-02 4.09886E-04-3.77071E-14
 -1      1679 9.61670E-03 6.69731E-04-3.63148E-14
 -1      1680 9.79913E-03 5.88416E-04-3.67887E-14
 -1      1681 9.22775E-03 8.19560E-04-3.52063E-14
 -1      1682 9.40848E-03 7.56439E-04-3.57166E-14
 -1      1683 8.84531E-03 9.09215E-04-3.40759E-14
 -1      1684 9.01697E-03 8.76861E-04-3.46022E-14
 -1      1685 8.46301E-03 9.19428E-04-3.28902E-14
 -1      1686 8.63975E-03 9.25390E-04-3.34388E-14
 -1      1687 8.04646E-03 8.34678E-04-3.15989E-14
 -1      1688 8.24495E-03 8.89705E-04-3.21914E-14
 -1      1689 7.63732E-03 6.88469E-04-3.05813E-14
 -1      1690 7.80872E-03 7.57534E-04-3.10222E-14
 -1      1691 7.25365E-03 5.06824E-04-2.96278E-14
 -1      1692 7.43732E-03 5.92742E-04-3.00436E-14
 -1      1693 6.89131E-03 3.45629E-04-2.89245E-14
 -1      1694 7.04507E-03 4.19866E-04-2.92357E-14
 -1      1695 6.61086E-03 2.04050E-04-2.83907E-14
 -1      1696 6.73060E-03 2.66071E-04-2.86129E-14
 -1      1697 6.42606E-03 8.44572E-05-2.80377E-14
 -1      1698 6.49810E-03 1.34750E-04-2.81634E-14
 -1      1699 6.37061E-03-9.66854E-06-2.79634E-14
 -1      1700 6.37987E-03 3.25666E-05-2.79795E-14
 -1      1701 6.44122E-03-1.04401E-04-2.80786E-14
 -1      1702 6.39345E-03-5.97762E-05-2.79997E-14
 -1      1703 6.64856E-03-2.19934E-04-2.83750E-14
 -1      1704 6.53524E-03-1.59524E-04-2.81844E-14
 -1      1705 6.93911E-03-3.75243E-04-2.89622E-14
 -1      1706 6.79685E-03-3.05466E-04-2.86952E-14
 -1      1707 7.32546E-03-5.37111E-04-2.96470E-14
 -1      1708 7.14690E-03-4.51174E-04-2.92643E-14
 -1      1709 7.70813E-03-7.18932E-04-3.06139E-14
 -1      1710 7.53030E-03-6.40998E-04-3.01773E-14
 -1      1711 8.07618E-03-8.53903E-04-3.16442E-14
 -1      1712 7.90452E-03-7.98957E-04-3.11757E-14
 -1      1713 8.43664E-03-9.24983E-04-3.26931E-14
 -1      1714 8.27248E-03-9.00311E-04-3.22061E-14
 -1      1715 8.79388E-03-9.24687E-04-3.37783E-14
 -1      1716 8.62894E-03-9.34237E-04-3.32735E-14
 -1      1717 9.16343E-03-8.48708E-04-3.49293E-14
 -1      1718 8.98934E-03-8.95176E-04-3.43995E-14
 -1      1719 9.54212E-03-7.16002E-04-3.59649E-14
 -1      1720 9.37409E-03-7.81474E-04-3.54990E-14
 -1      1721 9.90696E-03-5.56148E-04-3.69180E-14
 -1      1722 9.73901E-03-6.32576E-04-3.64918E-14
 -1      1723 1.02481E-02-3.95062E-04-3.77297E-14
 -1      1724 1.00951E-02-4.68259E-04-3.73762E-14
 -1      1725 1.05448E-02-2.38223E-04-3.84563E-14
 -1      1726 1.04113E-02-3.04135E-04-3.81670E-14
 -1      1727 1.07533E-02-1.29207E-04-3.88351E-14
 -1      1728 1.06733E-02-1.78677E-04-3.86664E-14
 -1      1729 1.08485E-02-3.04996E-05-3.90761E-14
 -1      1730 1.08187E-02-7.30958E-05-3.90083E-14
 -1      1731 9.83713E-03 5.00311E-04-3.73810E-14
 -1      1732 1.02199E-02 3.15880E-04-3.82820E-14
 -1      1733 1.50262E-02 6.00413E-04-8.83257E-14
 -1      1734 1.49027E-02 5.79665E-04-8.70993E-14
 -1      1735 1.07809E-02 6.24932E-05-3.94421E-14
 -1      1736 1.05571E-02 1.63848E-04-3.90045E-14
 -1      1737 1.08578E-02-6.03074E-06-3.95432E-14
 -1      1738 9.45328E-03 7.00098E-04-3.62416E-14
 -1      1739 9.07859E-03 8.59611E-04-3.50333E-14
 -1      1740 8.72818E-03 9.43180E-04-3.37897E-14
 -1      1741 8.36956E-03 9.27208E-04-3.24550E-14
 -1      1742 7.99554E-03 8.01264E-04-3.11866E-14
 -1      1743 7.59531E-03 6.13419E-04-3.00794E-14
 -1      1744 7.20816E-03 4.18110E-04-2.91601E-14
 -1      1745 6.84374E-03 2.52456E-04-2.84651E-14
 -1      1746 6.56321E-03 1.24084E-04-2.79312E-14
 -1      1747 6.39727E-03 3.98649E-05-2.76471E-14
 -1      1748 6.37349E-03-2.43044E-05-2.76220E-14
 -1      1749 6.49392E-03-9.63026E-05-2.77577E-14
 -1      1750 6.74490E-03-2.06641E-04-2.81742E-14
 -1      1751 7.09897E-03-3.62735E-04-2.87883E-14
 -1      1752 7.48974E-03-5.53622E-04-2.96077E-14
 -1      1753 7.86230E-03-7.51614E-04-3.06904E-14
 -1      1754 8.21123E-03-8.92162E-04-3.18092E-14
 -1      1755 8.54069E-03-9.55384E-04-3.29499E-14
 -1      1756 8.87026E-03-9.31641E-04-3.41536E-14
 -1      1757 9.21117E-03-8.19526E-04-3.53498E-14
 -1      1758 9.57880E-03-6.53034E-04-3.64532E-14
 -1      1759 9.94346E-03-4.69809E-04-3.74450E-14
 -1      1760 1.02928E-02-2.93439E-04-3.83484E-14
 -1      1761 1.05899E-02-1.60793E-04-3.90048E-14
 -1      1762 1.07890E-02-7.11347E-05-3.93926E-14
 -1      1763 2.84824E-04-1.76017E-04-2.69153E-17
 -1      1764 3.32199E-04-1.16524E-04-1.12120E-16
 -1      1765 3.36254E-04-1.32766E-04-1.03568E-16
 -1      1766 3.42036E-04-1.51748E-04-9.32685E-17
 -1      1767 3.51474E-04-1.73733E-04-7.93365E-17
 -1      1768 4.58172E-04-1.87631E-04-1.49633E-16
 -1      1769 3.24790E-04-6.51567E-05-1.31487E-16
 -1      1770 3.25890E-04-7.64425E-05-1.28139E-16
 -1      1771 3.23347E-04-4.37118E-05-1.35973E-16
 -1      1772 3.23979E-04-5.41745E-05-1.33899E-16
 -1      1773 4.36821E-04-7.89420E-05-1.96024E-16
 -1      1774 3.22592E-04-2.36648E-05-1.38547E-16
 -1      1775 3.22911E-04-3.35402E-05-1.37477E-16
 -1      1776 4.34875E-04-5.10643E-05-2.01580E-16
 -1      1777 3.22309E-04-4.31608E-06-1.39374E-16
 -1      1778 3.22403E-04-1.39242E-05-1.39225E-16
 -1      1779 4.33883E-04-2.47909E-05-2.04657E-16
 -1      1780 3.22428E-04 1.49132E-05-1.38886E-16
 -1      1781 3.22318E-04 5.29493E-06-1.39279E-16
 -1      1782 4.33595E-04 7.54803E-07-2.05307E-16
 -1      1783 3.22973E-04 3.45833E-05-1.36921E-16
 -1      1784 3.22634E-04 2.46751E-05-1.38182E-16
 -1      1785 4.33941E-04 2.63297E-05-2.03993E-16
 -1      1786 3.24061E-04 5.49624E-05-1.32910E-16
 -1      1787 3.23421E-04 4.46263E-05-1.35254E-16
 -1      1788 4.34988E-04 5.24674E-05-2.00442E-16
 -1      1789 3.26047E-04 7.75787E-05-1.26553E-16
 -1      1790 3.24889E-04 6.60123E-05-1.30199E-16
 -1      1791 4.36985E-04 8.02576E-05-1.94275E-16
 -1      1792 3.29625E-04 1.03403E-04-1.16619E-16
 -1      1793 3.27538E-04 9.00576E-05-1.22284E-16
 -1      1794 4.40532E-04 1.11170E-04-1.84409E-16
 -1      1795 3.36500E-04 1.34854E-04-1.00871E-16
 -1      1796 3.32404E-04 1.18360E-04-1.09694E-16
 -1      1797 4.46843E-04 1.46909E-04-1.69041E-16
 -1      1798 3.52008E-04 1.77321E-04-7.65718E-17
 -1      1799 3.42629E-04 1.54494E-04-9.02869E-17
 -1      1800 4.59146E-04 1.91006E-04-1.45635E-16
 -1      1801 4.07178E-04 2.33310E-04-6.05798E-17
 -1      1802 3.77698E-04 2.02338E-04-7.14760E-17
 -1      1803 4.95426E-04 2.43481E-04-1.25280E-16
 -1      1804 5.57838E-04 3.01878E-04-1.09694E-16
 -1      1805 3.39618E-04-1.90636E-04-5.38442E-17
 -1      1806 8.52516E-04 4.05829E-04-2.78721E-16
 -1      1807 7.06278E-04 3.58448E-04-1.82918E-16
 -1      1808 6.72694E-04 3.27946E-04-1.92974E-16
 -1      1809 4.58489E-04-2.36268E-04-1.01739E-16
 -1      1810 8.06382E-04-3.72932E-04-2.82543E-16
 -1      1811 9.51522E-04-4.13707E-04-4.00382E-16
 -1      1812 1.09425E-03-4.47913E-04-5.40543E-16
 -1      1813 1.23583E-03-4.76247E-04-7.03620E-16
 -1      1814 1.00320E-03-3.96127E-04-5.01227E-16
 -1      1815 1.37618E-03-5.00079E-04-8.88924E-16
 -1      1816 1.51584E-03-5.19705E-04-1.09709E-15
 -1      1817 1.28879E-03-4.52958E-04-8.33304E-16
 -1      1818 1.65501E-03-5.36028E-04-1.32797E-15
 -1      1819 1.79391E-03-5.49281E-04-1.58100E-15
 -1      1820 1.57122E-03-4.92400E-04-1.25496E-15
 -1      1821 1.93275E-03-5.60052E-04-1.85667E-15
 -1      1822 2.07159E-03-5.68539E-04-2.15500E-15
 -1      1823 1.85202E-03-5.18981E-04-1.76603E-15
 -1      1824 2.21062E-03-5.75140E-04-2.47552E-15
 -1      1825 2.34983E-03-5.80022E-04-2.81781E-15
 -1      1826 2.13233E-03-5.35939E-04-2.36605E-15
 -1      1827 2.48937E-03-5.83457E-04-3.18226E-15
 -1      1828 2.62923E-03-5.85584E-04-3.56877E-15
 -1      1829 2.41295E-03-5.45619E-04-3.05370E-15
 -1      1830 2.76950E-03-5.86593E-04-3.97612E-15
 -1      1831 2.91019E-03-5.86599E-04-4.40369E-15
 -1      1832 2.69440E-03-5.49749E-04-3.82731E-15
 -1      1833 3.05137E-03-5.85732E-04-4.85218E-15
 -1      1834 3.19304E-03-5.84091E-04-5.31967E-15
 -1      1835 2.97706E-03-5.49602E-04-4.68457E-15
 -1      1836 3.33526E-03-5.81769E-04-5.80662E-15
 -1      1837 3.47806E-03-5.78853E-04-6.31302E-15
 -1      1838 3.26124E-03-5.46135E-04-5.62080E-15
 -1      1839 3.62148E-03-5.75417E-04-6.83781E-15
 -1      1840 3.76558E-03-5.71546E-04-7.38114E-15
 -1      1841 3.54722E-03-5.40089E-04-6.63403E-15
 -1      1842 3.91039E-03-5.67311E-04-7.94247E-15
 -1      1843 4.05599E-03-5.62806E-04-8.52214E-15
 -1      1844 3.83531E-03-5.32098E-04-7.72117E-15
 -1      1845 4.20240E-03-5.58118E-04-9.11939E-15
 -1      1846 4.34975E-03-5.53362E-04-9.73417E-15
 -1      1847 4.12586E-03-5.22794E-04-8.88120E-15
 -1      1848 4.49805E-03-5.48663E-04-1.03663E-14
 -1      1849 4.64743E-03-5.44172E-04-1.10155E-14
 -1      1850 4.41928E-03-5.12928E-04-1.01121E-14
 -1      1851 4.79791E-03-5.40078E-04-1.16830E-14
 -1      1852 4.94965E-03-5.36584E-04-1.23675E-14
 -1      1853 4.71605E-03-5.03512E-04-1.14130E-14
 -1      1854 5.10264E-03-5.33975E-04-1.30682E-14
 -1      1855 5.25704E-03-5.32523E-04-1.37863E-14
 -1      1856 5.01674E-03-4.95986E-04-1.27823E-14
 -1      1857 5.41287E-03-5.32640E-04-1.45228E-14
 -1      1858 5.57024E-03-5.34683E-04-1.52754E-14
 -1      1859 5.32197E-03-4.92403E-04-1.42206E-14
 -1      1860 5.72917E-03-5.39208E-04-1.60461E-14
 -1      1861 5.88966E-03-5.46667E-04-1.68348E-14
 -1      1862 5.63238E-03-4.95621E-04-1.57289E-14
 -1      1863 6.05182E-03-5.57743E-04-1.76402E-14
 -1      1864 6.21541E-03-5.72964E-04-1.84634E-14
 -1      1865 5.94864E-03-5.09433E-04-1.73050E-14
 -1      1866 6.38066E-03-5.93046E-04-1.93063E-14
 -1      1867 6.54698E-03-6.18521E-04-2.01679E-14
 -1      1868 6.27127E-03-5.38510E-04-1.89550E-14
 -1      1869 6.71477E-03-6.49931E-04-2.10468E-14
 -1      1870 6.88295E-03-6.87584E-04-2.19441E-14
 -1      1871 6.60051E-03-5.87937E-04-2.06765E-14
 -1      1872 7.05204E-03-7.31484E-04-2.28619E-14
 -1      1873 7.22055E-03-7.81384E-04-2.37971E-14
 -1      1874 6.93573E-03-6.61906E-04-2.24725E-14
 -1      1875 7.38895E-03-8.36304E-04-2.47500E-14
 -1      1876 7.55557E-03-8.94867E-04-2.57219E-14
 -1      1877 7.27481E-03-7.61255E-04-2.43425E-14
 -1      1878 7.72063E-03-9.54789E-04-2.67117E-14
 -1      1879 7.88300E-03-1.01337E-03-2.77173E-14
 -1      1880 7.61346E-03-8.79653E-04-2.62842E-14
 -1      1881 8.04241E-03-1.06728E-03-2.87417E-14
 -1      1882 8.19925E-03-1.11295E-03-2.97828E-14
 -1      1883 7.94575E-03-1.00004E-03-2.82967E-14
 -1      1884 8.35279E-03-1.14709E-03-3.08417E-14
 -1      1885 8.50536E-03-1.16694E-03-3.19198E-14
 -1      1886 8.26731E-03-1.09524E-03-3.03789E-14
 -1      1887 8.65596E-03-1.17090E-03-3.30149E-14
 -1      1888 8.80802E-03-1.15864E-03-3.41285E-14
 -1      1889 8.57961E-03-1.13697E-03-3.25324E-14
 -1      1890 8.96054E-03-1.13118E-03-3.52590E-14
 -1      1891 9.11619E-03-1.09087E-03-3.64056E-14
 -1      1892 8.89080E-03-1.11112E-03-3.47563E-14
 -1      1893 9.27418E-03-1.04072E-03-3.75713E-14
 -1      1894 9.43533E-03-9.84303E-04-3.87521E-14
 -1      1895 9.20985E-03-1.02682E-03-3.70499E-14
 -1      1896 9.59925E-03-9.25051E-04-3.99502E-14
 -1      1897 9.76510E-03-8.65958E-04-4.11612E-14
 -1      1898 9.53993E-03-9.10441E-04-3.94111E-14
 -1      1899 9.93299E-03-8.09592E-04-4.23848E-14
 -1      1900 1.01013E-02-7.57623E-04-4.36226E-14
 -1      1901 9.87767E-03-7.90504E-04-4.18323E-14
 -1      1902 1.02705E-02-7.11313E-04-4.48737E-14
 -1      1903 1.04389E-02-6.71124E-04-4.61353E-14
 -1      1904 1.02172E-02-6.86686E-04-4.43075E-14
 -1      1905 1.06072E-02-6.37240E-04-4.74073E-14
 -1      1906 1.07741E-02-6.09428E-04-4.86881E-14
 -1      1907 1.05536E-02-6.07518E-04-4.68307E-14
 -1      1908 1.09401E-02-5.87231E-04-4.99781E-14
 -1      1909 1.11045E-02-5.70146E-04-5.12765E-14
 -1      1910 1.08844E-02-5.53414E-04-4.93924E-14
 -1      1911 1.12675E-02-5.57468E-04-5.25822E-14
 -1      1912 1.14288E-02-5.48660E-04-5.38973E-14
 -1      1913 1.12088E-02-5.20652E-04-5.19894E-14
 -1      1914 1.15887E-02-5.43017E-04-5.52176E-14
 -1      1915 1.17470E-02-5.40066E-04-5.65487E-14
 -1      1916 1.15267E-02-5.04191E-04-5.46158E-14
 -1      1917 1.19038E-02-5.39219E-04-5.78922E-14
 -1      1918 1.20592E-02-5.40098E-04-5.92450E-14
 -1      1919 1.18388E-02-4.99194E-04-5.72806E-14
 -1      1920 1.22131E-02-5.42260E-04-6.06087E-14
 -1      1921 1.23659E-02-5.45421E-04-6.19820E-14
 -1      1922 1.21457E-02-5.01651E-04-5.99854E-14
 -1      1923 1.25175E-02-5.49270E-04-6.33668E-14
 -1      1924 1.26680E-02-5.53600E-04-6.47598E-14
 -1      1925 1.24482E-02-5.08514E-04-6.27317E-14
 -1      1926 1.28174E-02-5.58209E-04-6.61618E-14
 -1      1927 1.29660E-02-5.62948E-04-6.75728E-14
 -1      1928 1.27468E-02-5.17597E-04-6.55167E-14
 -1      1929 1.31138E-02-5.67694E-04-6.89880E-14
 -1      1930 1.32609E-02-5.72342E-04-7.04071E-14
 -1      1931 1.30424E-02-5.27406E-04-6.83325E-14
 -1      1932 1.34072E-02-5.76824E-04-7.18329E-14
 -1      1933 1.35530E-02-5.81066E-04-7.32623E-14
 -1      1934 1.33353E-02-5.36963E-04-7.11706E-14
 -1      1935 1.36983E-02-5.85033E-04-7.46934E-14
 -1      1936 1.38432E-02-5.88676E-04-7.61304E-14
 -1      1937 1.36262E-02-5.45653E-04-7.40244E-14
 -1      1938 1.39876E-02-5.91982E-04-7.75747E-14
 -1      1939 1.41317E-02-5.94916E-04-7.90222E-14
 -1      1940 1.39154E-02-5.53103E-04-7.68955E-14
 -1      1941 1.42755E-02-5.97482E-04-8.04765E-14
 -1      1942 1.44191E-02-5.99657E-04-8.19363E-14
 -1      1943 1.42034E-02-5.59105E-04-7.97898E-14
 -1      1944 1.45475E-02-6.02969E-04-8.32478E-14
 -1      1945 1.46907E-02-6.04439E-04-8.47219E-14
 -1      1946 1.47321E-02-5.71155E-04-8.51886E-14
 -1      1947 1.44755E-02-5.65042E-04-8.25530E-14
 -1      1948 1.13728E-03 4.77873E-04-5.38225E-16
 -1      1949 9.95648E-04 4.45117E-04-3.96655E-16
 -1      1950 9.63507E-04 4.15741E-04-4.07497E-16
 -1      1951 1.41620E-03 5.28115E-04-8.90821E-16
 -1      1952 1.27713E-03 5.05330E-04-7.02875E-16
 -1      1953 1.24780E-03 4.77285E-04-7.12890E-16
 -1      1954 1.69252E-03 5.62775E-04-1.33597E-15
 -1      1955 1.55450E-03 5.47152E-04-1.10185E-15
 -1      1956 1.52799E-03 5.20087E-04-1.11052E-15
 -1      1957 1.96823E-03 5.85945E-04-1.87192E-15
 -1      1958 1.83035E-03 5.75630E-04-1.59261E-15
 -1      1959 1.80631E-03 5.49218E-04-1.59935E-15
 -1      1960 2.24452E-03 6.00484E-04-2.49818E-15
 -1      1961 2.10625E-03 5.94172E-04-2.17402E-15
 -1      1962 2.08425E-03 5.68179E-04-2.17834E-15
 -1      1963 2.52208E-03 6.08467E-04-3.21273E-15
 -1      1964 2.38311E-03 6.05204E-04-2.84439E-15
 -1      1965 2.36274E-03 5.79467E-04-2.84618E-15
 -1      1966 2.80135E-03 6.11430E-04-4.01593E-15
 -1      1967 2.66148E-03 6.10507E-04-3.60316E-15
 -1      1968 2.64236E-03 5.84913E-04-3.60177E-15
 -1      1969 3.08266E-03 6.10516E-04-4.90699E-15
 -1      1970 2.94174E-03 6.11403E-04-4.45051E-15
 -1      1971 2.92352E-03 5.85868E-04-4.44466E-15
 -1      1972 3.36630E-03 6.06602E-04-5.88303E-15
 -1      1973 3.22417E-03 6.08889E-04-5.38422E-15
 -1      1974 3.20654E-03 5.83345E-04-5.37394E-15
 -1      1975 3.65256E-03 6.00395E-04-6.94399E-15
 -1      1976 3.50908E-03 6.03743E-04-6.40360E-15
 -1      1977 3.49171E-03 5.78129E-04-6.38798E-15
 -1      1978 3.94184E-03 5.92538E-04-8.08698E-15
 -1      1979 3.79679E-03 5.96627E-04-7.50502E-15
 -1      1980 3.77934E-03 5.70880E-04-7.48476E-15
 -1      1981 4.23459E-03 5.83722E-04-9.31194E-15
 -1      1982 4.08774E-03 5.88195E-04-8.68931E-15
 -1      1983 4.06983E-03 5.62237E-04-8.66352E-15
 -1      1984 4.53139E-03 5.74813E-04-1.06173E-14
 -1      1985 4.38243E-03 5.79207E-04-9.95447E-15
 -1      1986 4.36364E-03 5.52939E-04-9.92335E-15
 -1      1987 4.83288E-03 5.66999E-04-1.19990E-14
 -1      1988 4.68149E-03 5.70672E-04-1.12989E-14
 -1      1989 4.66131E-03 5.43963E-04-1.12613E-14
 -1      1990 5.13977E-03 5.61966E-04-1.34536E-14
 -1      1991 4.98559E-03 5.64005E-04-1.27173E-14
 -1      1992 4.96344E-03 5.36677E-04-1.26743E-14
 -1      1993 5.45267E-03 5.62081E-04-1.49780E-14
 -1      1994 5.29541E-03 5.61209E-04-1.42071E-14
 -1      1995 5.27067E-03 5.33034E-04-1.41576E-14
 -1      1996 5.77206E-03 5.70550E-04-1.65752E-14
 -1      1997 5.61152E-03 5.65059E-04-1.57677E-14
 -1      1998 5.58359E-03 5.35744E-04-1.57125E-14
 -1      1999 6.09797E-03 5.91455E-04-1.82417E-14
 -1      2000 5.93422E-03 5.79207E-04-1.74001E-14
 -1      2001 5.90261E-03 5.48412E-04-1.73380E-14
 -1      2002 6.42976E-03 6.29485E-04-1.99739E-14
 -1      2003 6.26324E-03 6.08100E-04-1.90992E-14
 -1      2004 6.22782E-03 5.75481E-04-1.90323E-14
 -1      2005 6.76578E-03 6.89057E-04-2.17696E-14
 -1      2006 6.59748E-03 6.56448E-04-2.08645E-14
 -1      2007 6.55872E-03 6.21775E-04-2.07912E-14
 -1      2008 7.10307E-03 7.72485E-04-2.36224E-14
 -1      2009 6.93465E-03 7.27903E-04-2.26894E-14
 -1      2010 6.89387E-03 6.91290E-04-2.26107E-14
 -1      2011 7.43737E-03 8.77101E-04-2.55323E-14
 -1      2012 7.27109E-03 8.22683E-04-2.45698E-14
 -1      2013 7.23049E-03 7.84889E-04-2.44861E-14
 -1      2014 7.76374E-03 9.92126E-04-2.74968E-14
 -1      2015 7.60200E-03 9.34388E-04-2.65070E-14
 -1      2016 7.56436E-03 8.97019E-04-2.64175E-14
 -1      2017 8.07839E-03 1.09753E-03-2.95331E-14
 -1      2018 7.92268E-03 1.04748E-03-2.85061E-14
 -1      2019 7.89053E-03 1.01273E-03-2.84125E-14
 -1      2020 8.38129E-03 1.16814E-03-3.16377E-14
 -1      2021 8.23095E-03 1.13848E-03-3.05758E-14
 -1      2022 8.20568E-03 1.10815E-03-3.04766E-14
 -1      2023 8.67767E-03 1.18360E-03-3.38206E-14
 -1      2024 8.52948E-03 1.18323E-03-3.27205E-14
 -1      2025 8.51119E-03 1.15754E-03-3.26162E-14
 -1      2026 8.97622E-03 1.13894E-03-3.60775E-14
 -1      2027 8.82580E-03 1.16812E-03-3.49395E-14
 -1      2028 8.81387E-03 1.14543E-03-3.48313E-14
 -1      2029 9.28441E-03 1.04744E-03-3.84046E-14
 -1      2030 9.12861E-03 1.09762E-03-3.72322E-14
 -1      2031 9.12236E-03 1.07555E-03-3.71201E-14
 -1      2032 9.60492E-03 9.33207E-04-4.07949E-14
 -1      2033 9.44311E-03 9.91694E-04-3.95922E-14
 -1      2034 9.44164E-03 9.68485E-04-3.94756E-14
 -1      2035 9.93566E-03 8.19858E-04-4.32444E-14
 -1      2036 9.76935E-03 8.75409E-04-4.20139E-14
 -1      2037 9.77114E-03 8.50461E-04-4.18934E-14
 -1      2038 1.02720E-02 7.23164E-04-4.57501E-14
 -1      2039 1.01036E-02 7.69003E-04-4.44893E-14
 -1      2040 1.01066E-02 7.42522E-04-4.43672E-14
 -1      2041 1.06092E-02 6.49686E-04-4.83047E-14
 -1      2042 1.04409E-02 6.83527E-04-4.70207E-14
 -1      2043 1.04432E-02 6.56000E-04-4.68946E-14
 -1      2044 1.09437E-02 5.99281E-04-5.08990E-14
 -1      2045 1.07771E-02 6.21822E-04-4.95980E-14
 -1      2046 1.07772E-02 5.93701E-04-4.94694E-14
 -1      2047 1.12731E-02 5.68329E-04-5.35340E-14
 -1      2048 1.11092E-02 5.81663E-04-5.22124E-14
 -1      2049 1.11063E-02 5.53283E-04-5.20832E-14
 -1      2050 1.15963E-02 5.52115E-04-5.61970E-14
 -1      2051 1.14355E-02 5.58650E-04-5.48614E-14
 -1      2052 1.14296E-02 5.30246E-04-5.47280E-14
 -1      2053 1.19131E-02 5.46173E-04-5.88915E-14
 -1      2054 1.17555E-02 5.48080E-04-5.75415E-14
 -1      2055 1.17468E-02 5.19806E-04-5.74037E-14
 -1      2056 1.22238E-02 5.46837E-04-6.16090E-14
 -1      2057 1.20692E-02 5.45843E-04-6.02468E-14
 -1      2058 1.20582E-02 5.17795E-04-6.01046E-14
 -1      2059 1.25291E-02 5.51338E-04-6.43494E-14
 -1      2060 1.23771E-02 5.48723E-04-6.29761E-14
 -1      2061 1.23643E-02 5.20950E-04-6.28299E-14
 -1      2062 1.28298E-02 5.57704E-04-6.71118E-14
 -1      2063 1.26800E-02 5.54365E-04-6.57289E-14
 -1      2064 1.26659E-02 5.26884E-04-6.55795E-14
 -1      2065 1.31266E-02 5.64594E-04-6.98835E-14
 -1      2066 1.29786E-02 5.61133E-04-6.84967E-14
 -1      2067 1.29636E-02 5.33939E-04-6.83441E-14
 -1      2068 1.34202E-02 5.71132E-04-7.26649E-14
 -1      2069 1.32737E-02 5.67937E-04-7.12745E-14
 -1      2070 1.32582E-02 5.41014E-04-7.11226E-14
 -1      2071 1.37113E-02 5.76764E-04-7.54463E-14
 -1      2072 1.35660E-02 5.74079E-04-7.40559E-14
 -1      2073 1.35502E-02 5.47402E-04-7.39031E-14
 -1      2074 1.40006E-02 5.81156E-04-7.82357E-14
 -1      2075 1.38562E-02 5.79125E-04-7.68386E-14
 -1      2076 1.38402E-02 5.52669E-04-7.66869E-14
 -1      2077 1.42884E-02 5.84120E-04-8.10380E-14
 -1      2078 1.41446E-02 5.82819E-04-7.96347E-14
 -1      2079 1.41287E-02 5.56560E-04-7.94827E-14
 -1      2080 1.45752E-02 5.85598E-04-8.38554E-14
 -1      2081 1.44319E-02 5.85040E-04-8.24442E-14
 -1      2082 1.44160E-02 5.58952E-04-8.22923E-14
 -1      2083 1.48105E-02 5.82788E-04-8.61848E-14
 -1      2084 1.46675E-02 5.82783E-04-8.47683E-14
 -1      2085 1.46516E-02 5.56815E-04-8.46165E-14
 -1      2086 1.48361E-02 5.50873E-04-8.64440E-14
 -1      2087 1.48124E-02 3.19493E-04-8.61958E-14
 -1      2088 1.48104E-02 3.60576E-04-8.61841E-14
 -1      2089 1.48086E-02 4.01885E-04-8.61725E-14
 -1      2090 1.48070E-02 4.43384E-04-8.61625E-14
 -1      2091 1.46859E-02 3.81233E-04-8.49539E-14
 -1      2092 1.48218E-02 4.76111E-04-8.63100E-14
 -1      2093 1.48208E-02 5.17928E-04-8.62961E-14
 -1      2094 1.47286E-02 5.20939E-04-8.53827E-14
 -1      2095 1.46987E-02 4.55275E-04-8.50886E-14
 -1      2096 1.48165E-02 2.39338E-04-8.62196E-14
 -1      2097 1.48145E-02 2.79311E-04-8.62067E-14
 -1      2098 1.46900E-02 2.99835E-04-8.49770E-14
 -1      2099 1.48206E-02 1.58601E-04-8.62460E-14
 -1      2100 1.48186E-02 1.98879E-04-8.62312E-14
 -1      2101 1.46944E-02 2.19297E-04-8.49964E-14
 -1      2102 1.48238E-02 7.85022E-05-8.62721E-14
 -1      2103 1.48223E-02 1.18491E-04-8.62601E-14
 -1      2104 1.46984E-02 1.38841E-04-8.50173E-14
 -1      2105 1.48259E-02-1.21049E-06-8.62983E-14
 -1      2106 1.48250E-02 3.86238E-05-8.62859E-14
 -1      2107 1.47015E-02 5.89592E-05-8.50382E-14
 -1      2108 1.48267E-02-8.08442E-05-8.63075E-14
 -1      2109 1.48265E-02-4.10090E-05-8.63045E-14
 -1      2110 1.47033E-02-2.06160E-05-8.50532E-14
 -1      2111 1.48262E-02-1.60717E-04-8.63077E-14
 -1      2112 1.48266E-02-1.20725E-04-8.63081E-14
 -1      2113 1.47037E-02-1.00193E-04-8.50562E-14
 -1      2114 1.48248E-02-2.39745E-04-8.63004E-14
 -1      2115 1.48256E-02-2.00149E-04-8.63051E-14
 -1      2116 1.47029E-02-1.79400E-04-8.50493E-14
 -1      2117 1.48228E-02-3.20865E-04-8.62772E-14
 -1      2118 1.48238E-02-2.80203E-04-8.62910E-14
 -1      2119 1.47011E-02-2.59175E-04-8.50296E-14
 -1      2120 1.48210E-02-4.02834E-04-8.62385E-14
 -1      2121 1.48218E-02-3.61744E-04-8.62601E-14
 -1      2122 1.46989E-02-3.40402E-04-8.49952E-14
 -1      2123 1.48199E-02-4.85656E-04-8.61790E-14
 -1      2124 1.48203E-02-4.44149E-04-8.62122E-14
 -1      2125 1.46970E-02-4.22502E-04-8.49439E-14
 -1      2126 1.04562E-02 1.59073E-04-3.93758E-14
 -1      2127 1.06019E-02 1.01613E-04-3.97381E-14
 -1      2128 1.08614E-02 1.73343E-06-4.02344E-14
 -1      2129 1.08628E-02-1.21089E-05-4.02577E-14
 -1      2130 1.07505E-02 4.60236E-05-4.00772E-14
 -1      2131 1.08247E-02 2.35152E-05-4.01539E-14
 -1      2132 1.08537E-02 5.42317E-06-4.08708E-14
 -1      2133 1.01187E-02 3.05799E-04-3.86428E-14
 -1      2134 1.02974E-02 2.27411E-04-3.90079E-14
 -1      2135 1.03744E-02 1.68084E-04-3.97383E-14
 -1      2136 9.69184E-03 5.27029E-04-3.75161E-14
 -1      2137 9.87400E-03 4.24722E-04-3.80579E-14
 -1      2138 3.27268E-04-8.87415E-05-1.23979E-16
 -1      2139 3.29320E-04-1.01880E-04-1.18503E-16
 -1      2140 4.46376E-04-1.44679E-04-1.72198E-16
 -1      2141 4.40211E-04-1.09549E-04-1.86781E-16
 -1      2142 8.97588E-03 8.97707E-04-3.49075E-14
 -1      2143 9.13288E-03 8.30439E-04-3.55165E-14
 -1      2144 8.64715E-03 9.70057E-04-3.35202E-14
 -1      2145 8.79068E-03 9.50971E-04-3.41577E-14
 -1      2146 8.32240E-03 9.23903E-04-3.21031E-14
 -1      2147 8.47975E-03 9.61407E-04-3.27978E-14
 -1      2148 7.91884E-03 7.44177E-04-3.06182E-14
 -1      2149 8.09383E-03 8.33433E-04-3.11871E-14
 -1      2150 7.57241E-03 5.49818E-04-2.95541E-14
 -1      2151 7.74656E-03 6.52807E-04-3.00839E-14
 -1      2152 7.85029E-03 6.92684E-04-3.00823E-14
 -1      2153 7.14216E-03 3.30198E-04-2.85811E-14
 -1      2154 7.32938E-03 4.21990E-04-2.89627E-14
 -1      2155 6.79152E-03 1.78938E-04-2.79417E-14
 -1      2156 6.95057E-03 2.46922E-04-2.82465E-14
 -1      2157 6.52008E-03 7.20113E-05-2.73957E-14
 -1      2158 6.63705E-03 1.13995E-04-2.76201E-14
 -1      2159 6.37112E-03 1.47088E-05-2.71860E-14
 -1      2160 6.41912E-03 3.43773E-05-2.72451E-14
 -1      2161 6.38307E-03-2.52041E-05-2.72000E-14
 -1      2162 6.35915E-03-8.12500E-06-2.71691E-14
 -1      2163 6.54018E-03-7.93269E-05-2.73161E-14
 -1      2164 6.44521E-03-5.05939E-05-2.72185E-14
 -1      2165 6.85407E-03-2.04009E-04-2.79021E-14
 -1      2166 6.70243E-03-1.40380E-04-2.75907E-14
 -1      2167 7.20882E-03-3.58205E-04-2.84823E-14
 -1      2168 7.02431E-03-2.76643E-04-2.81905E-14
 -1      2169 6.94786E-03-2.17117E-04-2.76012E-14
 -1      2170 7.63490E-03-5.93456E-04-2.95868E-14
 -1      2171 7.45089E-03-4.86130E-04-2.90663E-14
 -1      2172 7.99707E-03-7.97498E-04-3.07881E-14
 -1      2173 7.83494E-03-7.07205E-04-3.02329E-14
 -1      2174 8.29421E-03-9.23772E-04-3.18997E-14
 -1      2175 8.14765E-03-8.67132E-04-3.13413E-14
 -1      2176 8.08556E-03-8.32787E-04-3.08779E-14
 -1      2177 8.61380E-03-9.80326E-04-3.31962E-14
 -1      2178 8.47953E-03-9.68994E-04-3.26153E-14
 -1      2179 8.90025E-03-9.32763E-04-3.44368E-14
 -1      2180 8.75872E-03-9.68652E-04-3.38124E-14
 -1      2181 8.67584E-03-9.86988E-04-3.34733E-14
 -1      2182 9.26921E-03-7.76203E-04-3.58531E-14
 -1      2183 9.10925E-03-8.54293E-04-3.52776E-14
 -1      2184 9.61615E-03-5.90369E-04-3.69901E-14
 -1      2185 9.44920E-03-6.83882E-04-3.64572E-14
 -1      2186 9.98071E-03-3.89152E-04-3.81084E-14
 -1      2187 9.80932E-03-4.80117E-04-3.76410E-14
 -1      2188 1.03350E-02-2.24745E-04-3.89590E-14
 -1      2189 1.01712E-02-3.02917E-04-3.85143E-14
 -1      2190 1.06489E-02-9.67369E-05-3.97689E-14
 -1      2191 1.05229E-02-1.38073E-04-3.95520E-14
 -1      2192 1.08151E-02-3.95212E-05-4.01225E-14
 -1      2193 1.07444E-02-6.30969E-05-3.99466E-14
 -1      2194 1.06987E-02-6.33974E-05-4.04968E-14
 -1      2195 9.31587E-03 7.42151E-04-3.61799E-14
 -1      2196 9.48948E-03 6.44626E-04-3.67846E-14
 -1      2197 6.07270E-04-2.97404E-04-1.68688E-16
 -1      2198 8.21735E-03 8.87984E-04-3.15220E-14
 -1      2199 8.31381E-03 9.29310E-04-3.18573E-14
 -1      2200 8.11939E-03 8.40225E-04-3.09462E-14
 -1      2201 9.20589E-03 7.86907E-04-3.60501E-14
 -1      2202 6.63131E-04-2.91563E-04-2.33984E-16
 -1      2203 1.06841E-02 5.73285E-05-4.04502E-14
 -1      2204 1.47780E-02-5.18738E-04-8.57170E-14
 -1      2205 9.98986E-03 3.45783E-04-3.87773E-14
 -1      2206 1.08501E-02-1.97587E-05-4.08137E-14
 -1      2207 9.56734E-03 5.79642E-04-3.74507E-14
 -1      2208 1.04292E-02-1.60315E-04-3.97182E-14
 -1      2209 1.00548E-02-3.28245E-04-3.87127E-14
 -1      2210 9.69373E-03-5.21654E-04-3.76454E-14
 -1      2211 8.98796E-03-9.03396E-04-3.49320E-14
 -1      2212 8.39147E-03-9.55664E-04-3.21410E-14
 -1      2213 7.33906E-03-4.08957E-04-2.84619E-14
 -1      2214 6.61856E-03-9.26896E-05-2.70468E-14
 -1      2215 6.40607E-03-2.80166E-05-2.67627E-14
 -1      2216 6.35619E-03 1.43710E-06-2.67652E-14
 -1      2217 6.46396E-03 4.07991E-05-2.69329E-14
 -1      2218 6.71896E-03 1.25339E-04-2.74012E-14
 -1      2219 7.46686E-03 4.73722E-04-2.89647E-14
 -1      2220 8.87354E-03 9.33675E-04-3.46324E-14
 -1      2221 8.56773E-03 9.77820E-04-3.31595E-14
 -1      2222 7.05688E-03 2.65585E-04-2.80510E-14
 -1      2223 7.75934E-03-6.49193E-04-2.96831E-14
 -1      2224 9.34204E-03-7.24986E-04-3.63842E-14
 -1      2225 1.01588E-03 3.97978E-04-5.09060E-16
 -1      2226 8.71488E-04 3.62047E-04-3.75649E-16
 -1      2227 5.48224E-04-5.49840E-05-2.87232E-16
 -1      2228 5.49240E-04-7.16227E-05-2.84291E-16
 -1      2229 5.50630E-04-8.88764E-05-2.80673E-16
 -1      2230 5.52464E-04-1.06793E-04-2.75943E-16
 -1      2231 6.65747E-04-9.49062E-05-3.82737E-16
 -1      2232 5.46868E-04 8.80458E-06-2.90769E-16
 -1      2233 5.46848E-04-6.93661E-06-2.91027E-16
 -1      2234 5.47610E-04 4.06301E-05-2.88398E-16
 -1      2235 5.47118E-04 2.46464E-05-2.89983E-16
 -1      2236 6.61856E-04 1.97953E-05-3.92861E-16
 -1      2237 5.49402E-04 7.30940E-05-2.82814E-16
 -1      2238 5.48360E-04 5.66765E-05-2.86067E-16
 -1      2239 6.63166E-04 5.74058E-05-3.88917E-16
 -1      2240 5.52723E-04 1.08444E-04-2.73409E-16
 -1      2241 5.50840E-04 9.04254E-05-2.78586E-16
 -1      2242 6.65986E-04 9.66653E-05-3.80487E-16
 -1      2243 5.58473E-04 1.47699E-04-2.58542E-16
 -1      2244 5.55228E-04 1.27509E-04-2.66660E-16
 -1      2245 6.70988E-04 1.39276E-04-3.66813E-16
 -1      2246 5.68592E-04 1.93249E-04-2.36559E-16
 -1      2247 5.62869E-04 1.69552E-04-2.48824E-16
 -1      2248 6.79472E-04 1.86713E-04-3.46267E-16
 -1      2249 1.30125E-03 4.53775E-04-8.43821E-16
 -1      2250 1.15896E-03 4.28447E-04-6.64928E-16
 -1      2251 1.07132E-03 3.79278E-04-6.15176E-16
 -1      2252 9.14742E-04-3.44858E-04-4.59417E-16
 -1      2253 1.05880E-03-3.77698E-04-6.06625E-16
 -1      2254 1.20204E-03-4.05509E-04-7.75801E-16
 -1      2255 1.34486E-03-4.28730E-04-9.67122E-16
 -1      2256 1.11674E-03-3.58272E-04-7.16725E-16
 -1      2257 1.48706E-03-4.48197E-04-1.18063E-15
 -1      2258 1.62890E-03-4.64176E-04-1.41643E-15
 -1      2259 1.40312E-03-4.03743E-04-1.10498E-15
 -1      2260 1.77042E-03-4.77323E-04-1.67402E-15
 -1      2261 1.91174E-03-4.87845E-04-1.95394E-15
 -1      2262 1.68837E-03-4.35270E-04-1.58090E-15
 -1      2263 2.05296E-03-4.96219E-04-2.25578E-15
 -1      2264 2.19414E-03-5.02612E-04-2.57959E-15
 -1      2265 1.97282E-03-4.56093E-04-2.14473E-15
 -1      2266 2.33537E-03-5.07364E-04-2.92449E-15
 -1      2267 2.47668E-03-5.10611E-04-3.29116E-15
 -1      2268 2.25689E-03-4.68748E-04-2.79499E-15
 -1      2269 2.61815E-03-5.12597E-04-3.67891E-15
 -1      2270 2.75980E-03-5.13431E-04-4.08747E-15
 -1      2271 2.54099E-03-4.75160E-04-3.53049E-15
 -1      2272 2.90168E-03-5.13284E-04-4.51689E-15
 -1      2273 3.04381E-03-5.12246E-04-4.96624E-15
 -1      2274 2.82542E-03-4.76772E-04-4.34939E-15
 -1      2275 3.18624E-03-5.10440E-04-5.43433E-15
 -1      2276 3.32899E-03-5.07942E-04-5.92256E-15
 -1      2277 3.11045E-03-4.74659E-04-5.24823E-15
 -1      2278 3.47208E-03-5.04843E-04-6.42962E-15
 -1      2279 3.61558E-03-5.01214E-04-6.95548E-15
 -1      2280 3.39628E-03-4.69635E-04-6.22527E-15
 -1      2281 3.75947E-03-4.97133E-04-7.49977E-15
 -1      2282 3.90384E-03-4.92671E-04-8.06236E-15
 -1      2283 3.68311E-03-4.62349E-04-7.27777E-15
 -1      2284 4.04869E-03-4.87913E-04-8.64222E-15
 -1      2285 4.19409E-03-4.82943E-04-9.24091E-15
 -1      2286 3.97116E-03-4.53386E-04-8.40387E-15
 -1      2287 4.34004E-03-4.77869E-04-9.85755E-15
 -1      2288 4.48667E-03-4.72802E-04-1.04909E-14
 -1      2289 4.26066E-03-4.43373E-04-9.60161E-15
 -1      2290 4.63394E-03-4.67898E-04-1.11420E-14
 -1      2291 4.78200E-03-4.63309E-04-1.18112E-14
 -1      2292 4.55191E-03-4.33100E-04-1.08710E-14
 -1      2293 4.93084E-03-4.59263E-04-1.24967E-14
 -1      2294 5.08061E-03-4.55975E-04-1.31983E-14
 -1      2295 4.84529E-03-4.23661E-04-1.22095E-14
 -1      2296 5.23133E-03-4.53768E-04-1.39184E-14
 -1      2297 5.38315E-03-4.52948E-04-1.46562E-14
 -1      2298 5.14131E-03-4.16614E-04-1.36162E-14
 -1      2299 5.53613E-03-4.53949E-04-1.54104E-14
 -1      2300 5.69042E-03-4.57198E-04-1.61821E-14
 -1      2301 5.44072E-03-4.14158E-04-1.50920E-14
 -1      2302 5.84616E-03-4.63237E-04-1.69721E-14
 -1      2303 6.00342E-03-4.72643E-04-1.77788E-14
 -1      2304 5.74457E-03-4.19318E-04-1.66373E-14
 -1      2305 6.16252E-03-4.86018E-04-1.86031E-14
 -1      2306 6.32333E-03-5.04092E-04-1.94460E-14
 -1      2307 6.05437E-03-4.36080E-04-1.82528E-14
 -1      2308 6.48639E-03-5.27404E-04-2.03084E-14
 -1      2309 6.65124E-03-5.56782E-04-2.11869E-14
 -1      2310 6.37206E-03-4.69376E-04-1.99393E-14
 -1      2311 6.81862E-03-5.92512E-04-2.20841E-14
 -1      2312 6.98751E-03-6.35120E-04-2.30005E-14
 -1      2313 6.69979E-03-5.24785E-04-2.16979E-14
 -1      2314 7.15862E-03-6.84325E-04-2.39358E-14
 -1      2315 7.33039E-03-7.39863E-04-2.48880E-14
 -1      2316 7.03876E-03-6.07221E-04-2.35288E-14
 -1      2317 7.50333E-03-8.00384E-04-2.58588E-14
 -1      2318 7.67520E-03-8.63820E-04-2.68478E-14
 -1      2319 7.38750E-03-7.17896E-04-2.54349E-14
 -1      2320 7.84580E-03-9.27620E-04-2.78538E-14
 -1      2321 8.01387E-03-9.87283E-04-2.88770E-14
 -1      2322 7.73966E-03-8.48964E-04-2.74118E-14
 -1      2323 8.17851E-03-1.03940E-03-2.99169E-14
 -1      2324 8.34072E-03-1.07851E-03-3.09752E-14
 -1      2325 8.08478E-03-9.76502E-04-2.94564E-14
 -1      2326 8.49929E-03-1.10187E-03-3.20513E-14
 -1      2327 8.65810E-03-1.10644E-03-3.31450E-14
 -1      2328 8.41616E-03-1.06240E-03-3.15708E-14
 -1      2329 8.81589E-03-1.09186E-03-3.42560E-14
 -1      2330 8.97694E-03-1.06018E-03-3.53846E-14
 -1      2331 8.73904E-03-1.07248E-03-3.37566E-14
 -1      2332 9.14003E-03-1.01369E-03-3.65326E-14
 -1      2333 9.30682E-03-9.57636E-04-3.76948E-14
 -1      2334 9.06755E-03-1.00250E-03-3.60139E-14
 -1      2335 9.47633E-03-8.95499E-04-3.88735E-14
 -1      2336 9.64763E-03-8.32082E-04-4.00695E-14
 -1      2337 9.40983E-03-8.81795E-04-3.83376E-14
 -1      2338 9.82039E-03-7.70219E-04-4.12801E-14
 -1      2339 9.99252E-03-7.12616E-04-4.25034E-14
 -1      2340 9.76124E-03-7.49705E-04-4.07267E-14
 -1      2341 1.01644E-02-6.60838E-04-4.37402E-14
 -1      2342 1.03341E-02-6.15495E-04-4.49909E-14
 -1      2343 1.01116E-02-6.33921E-04-4.31746E-14
 -1      2344 1.05025E-02-5.77093E-04-4.62548E-14
 -1      2345 1.06683E-02-5.45156E-04-4.75268E-14
 -1      2346 1.04532E-02-5.45695E-04-4.56767E-14
 -1      2347 1.08324E-02-5.19514E-04-4.88064E-14
 -1      2348 1.09942E-02-4.99370E-04-5.00965E-14
 -1      2349 1.07835E-02-4.85190E-04-4.82218E-14
 -1      2350 1.11542E-02-4.84216E-04-5.13945E-14
 -1      2351 1.13123E-02-4.73292E-04-5.27008E-14
 -1      2352 1.11034E-02-4.47913E-04-5.07997E-14
 -1      2353 1.14689E-02-4.65994E-04-5.40150E-14
 -1      2354 1.16239E-02-4.61707E-04-5.53373E-14
 -1      2355 1.14149E-02-4.28302E-04-5.34133E-14
 -1      2356 1.17777E-02-4.59866E-04-5.66688E-14
 -1      2357 1.19302E-02-4.60016E-04-5.80116E-14
 -1      2358 1.17202E-02-4.21214E-04-5.60581E-14
 -1      2359 1.20816E-02-4.61693E-04-5.93647E-14
 -1      2360 1.22321E-02-4.64571E-04-6.07272E-14
 -1      2361 1.20208E-02-4.22432E-04-5.87419E-14
 -1      2362 1.23817E-02-4.68305E-04-6.20990E-14
 -1      2363 1.25305E-02-4.72665E-04-6.34800E-14
 -1      2364 1.23179E-02-4.28726E-04-6.14671E-14
 -1      2365 1.26785E-02-4.77410E-04-6.48723E-14
 -1      2366 1.28259E-02-4.82383E-04-6.62722E-14
 -1      2367 1.26124E-02-4.37747E-04-6.42288E-14
 -1      2368 1.29727E-02-4.87427E-04-6.76777E-14
 -1      2369 1.31189E-02-4.92435E-04-6.90898E-14
 -1      2370 1.29048E-02-4.47855E-04-6.70248E-14
 -1      2371 1.32647E-02-4.97310E-04-7.05064E-14
 -1      2372 1.34101E-02-5.01983E-04-7.19300E-14
 -1      2373 1.31955E-02-4.57956E-04-6.98445E-14
 -1      2374 1.35550E-02-5.06398E-04-7.33551E-14
 -1      2375 1.36997E-02-5.10508E-04-7.47824E-14
 -1      2376 1.34849E-02-4.67347E-04-7.26842E-14
 -1      2377 1.38440E-02-5.14289E-04-7.62185E-14
 -1      2378 1.39880E-02-5.17705E-04-7.76587E-14
 -1      2379 1.37733E-02-4.75601E-04-7.55415E-14
 -1      2380 1.41318E-02-5.20753E-04-7.91033E-14
 -1      2381 1.42754E-02-5.23409E-04-8.05541E-14
 -1      2382 1.40608E-02-4.82469E-04-7.84182E-14
 -1      2383 1.86462E-03 5.18750E-04-1.78519E-15
 -1      2384 1.72427E-03 5.07066E-04-1.51630E-15
 -1      2385 2.14511E-03 5.35449E-04-2.39052E-15
 -1      2386 2.00487E-03 5.28152E-04-2.07671E-15
 -1      2387 1.92442E-03 4.87586E-04-1.97437E-15
 -1      2388 2.42591E-03 5.44971E-04-3.08316E-15
 -1      2389 2.28544E-03 5.41006E-04-2.72606E-15
 -1      2390 2.20698E-03 5.02103E-04-2.60520E-15
 -1      2391 2.70753E-03 5.49013E-04-3.86286E-15
 -1      2392 2.56660E-03 5.47599E-04-3.46210E-15
 -1      2393 2.48968E-03 5.09951E-04-3.32221E-15
 -1      2394 2.99035E-03 5.48833E-04-4.72873E-15
 -1      2395 2.84878E-03 5.49390E-04-4.28465E-15
 -1      2396 2.77293E-03 5.12690E-04-4.12502E-15
 -1      2397 3.27467E-03 5.45374E-04-5.67936E-15
 -1      2398 3.13231E-03 5.47464E-04-5.19367E-15
 -1      2399 3.05707E-03 5.11479E-04-5.01304E-15
 -1      2400 3.56076E-03 5.39372E-04-6.71394E-15
 -1      2401 3.41747E-03 5.42648E-04-6.18617E-15
 -1      2402 3.34234E-03 5.07190E-04-5.98560E-15
 -1      2403 3.84892E-03 5.31461E-04-7.83064E-15
 -1      2404 3.70455E-03 5.35614E-04-7.26241E-15
 -1      2405 3.62899E-03 5.00514E-04-7.04002E-15
 -1      2406 4.13951E-03 5.22277E-04-9.02857E-15
 -1      2407 3.99388E-03 5.26982E-04-8.41905E-15
 -1      2408 3.91729E-03 4.92060E-04-8.17643E-15
 -1      2409 4.43293E-03 5.12582E-04-1.03066E-14
 -1      2410 4.28582E-03 5.17436E-04-9.65771E-15
 -1      2411 4.20753E-03 4.82463E-04-9.39305E-15
 -1      2412 4.72966E-03 5.03406E-04-1.16615E-14
 -1      2413 4.58083E-03 5.07852E-04-1.09744E-14
 -1      2414 4.50006E-03 4.72508E-04-1.06895E-14
 -1      2415 5.03023E-03 4.96206E-04-1.30895E-14
 -1      2416 4.87941E-03 4.99451E-04-1.23664E-14
 -1      2417 4.79531E-03 4.63271E-04-1.20603E-14
 -1      2418 5.33527E-03 4.93056E-04-1.45878E-14
 -1      2419 5.18214E-03 4.93977E-04-1.38299E-14
 -1      2420 5.09378E-03 4.56283E-04-1.35037E-14
 -1      2421 5.64542E-03 4.96825E-04-1.61573E-14
 -1      2422 5.48967E-03 4.93877E-04-1.53634E-14
 -1      2423 5.39615E-03 4.53712E-04-1.50176E-14
 -1      2424 5.96132E-03 5.11290E-04-1.77984E-14
 -1      2425 5.80264E-03 5.02465E-04-1.69693E-14
 -1      2426 5.70323E-03 4.58536E-04-1.66023E-14
 -1      2427 6.28351E-03 5.41065E-04-1.95053E-14
 -1      2428 6.12168E-03 5.23962E-04-1.86436E-14
 -1      2429 6.01605E-03 4.74657E-04-1.82567E-14
 -1      2430 6.61221E-03 5.91090E-04-2.12771E-14
 -1      2431 6.44720E-03 5.63245E-04-2.03837E-14
 -1      2432 6.33581E-03 5.06829E-04-1.99781E-14
 -1      2433 6.94682E-03 6.65333E-04-2.31076E-14
 -1      2434 6.77908E-03 6.25009E-04-2.21850E-14
 -1      2435 6.66359E-03 5.60174E-04-2.17625E-14
 -1      2436 7.28522E-03 7.64269E-04-2.49946E-14
 -1      2437 7.11603E-03 7.11886E-04-2.40430E-14
 -1      2438 6.99963E-03 6.38844E-04-2.36036E-14
 -1      2439 7.62308E-03 8.81194E-04-2.69370E-14
 -1      2440 7.45480E-03 8.21282E-04-2.59585E-14
 -1      2441 7.34206E-03 7.43236E-04-2.55010E-14
 -1      2442 7.95455E-03 9.98856E-04-2.89488E-14
 -1      2443 7.79003E-03 9.41529E-04-2.79349E-14
 -1      2444 7.68571E-03 8.65623E-04-2.74585E-14
 -1      2445 8.27523E-03 1.09019E-03-3.10283E-14
 -1      2446 8.11604E-03 1.04981E-03-2.99798E-14
 -1      2447 8.02291E-03 9.85750E-04-2.94829E-14
 -1      2448 8.58683E-03 1.12761E-03-3.31866E-14
 -1      2449 8.43123E-03 1.11702E-03-3.20982E-14
 -1      2450 8.34838E-03 1.07209E-03-3.15817E-14
 -1      2451 8.89758E-03 1.09797E-03-3.54191E-14
 -1      2452 8.74110E-03 1.12101E-03-3.42930E-14
 -1      2453 8.66532E-03 1.09500E-03-3.37557E-14
 -1      2454 9.21649E-03 1.01137E-03-3.77244E-14
 -1      2455 9.05535E-03 1.06022E-03-3.65629E-14
 -1      2456 8.98438E-03 1.04532E-03-3.60053E-14
 -1      2457 9.54634E-03 8.94349E-04-4.00960E-14
 -1      2458 9.38016E-03 9.54766E-04-3.89019E-14
 -1      2459 9.31430E-03 9.41667E-04-3.83292E-14
 -1      2460 9.88359E-03 7.74649E-04-4.25291E-14
 -1      2461 9.71461E-03 8.33374E-04-4.13041E-14
 -1      2462 9.65470E-03 8.16318E-04-4.07159E-14
 -1      2463 1.02223E-02 6.71253E-04-4.50190E-14
 -1      2464 1.00534E-02 7.20226E-04-4.37687E-14
 -1      2465 9.99877E-03 6.97474E-04-4.31670E-14
 -1      2466 1.05577E-02 5.92111E-04-4.75571E-14
 -1      2467 1.03908E-02 6.28537E-04-4.62817E-14
 -1      2468 1.03394E-02 6.00672E-04-4.56693E-14
 -1      2469 1.08875E-02 5.37421E-04-5.01432E-14
 -1      2470 1.07235E-02 5.61888E-04-4.88456E-14
 -1      2471 1.06725E-02 5.30042E-04-4.82211E-14
 -1      2472 1.12108E-02 5.03514E-04-5.27649E-14
 -1      2473 1.10500E-02 5.18157E-04-5.14498E-14
 -1      2474 1.09975E-02 4.83369E-04-5.08185E-14
 -1      2475 1.15279E-02 4.85470E-04-5.54166E-14
 -1      2476 1.13701E-02 4.92798E-04-5.40883E-14
 -1      2477 1.13147E-02 4.55923E-04-5.34472E-14
 -1      2478 1.18392E-02 4.78583E-04-5.80947E-14
 -1      2479 1.16842E-02 4.80879E-04-5.67522E-14
 -1      2480 1.16256E-02 4.42608E-04-5.61043E-14
 -1      2481 1.21455E-02 4.78951E-04-6.07984E-14
 -1      2482 1.19929E-02 4.78054E-04-5.94437E-14
 -1      2483 1.19312E-02 4.38940E-04-5.87839E-14
 -1      2484 1.24474E-02 4.83603E-04-6.35269E-14
 -1      2485 1.22969E-02 4.80886E-04-6.21599E-14
 -1      2486 1.22326E-02 4.41357E-04-6.14921E-14
 -1      2487 1.27457E-02 4.90404E-04-6.62794E-14
 -1      2488 1.25970E-02 4.86837E-04-6.49006E-14
 -1      2489 1.25305E-02 4.47213E-04-6.42233E-14
 -1      2490 1.30409E-02 4.97892E-04-6.90453E-14
 -1      2491 1.28936E-02 4.94132E-04-6.76601E-14
 -1      2492 1.28256E-02 4.54635E-04-6.69773E-14
 -1      2493 1.33336E-02 5.05107E-04-7.18210E-14
 -1      2494 1.31875E-02 5.01580E-04-7.04324E-14
 -1      2495 1.31184E-02 4.62356E-04-6.97448E-14
 -1      2496 1.36243E-02 5.11444E-04-7.46037E-14
 -1      2497 1.34792E-02 5.08416E-04-7.32124E-14
 -1      2498 1.34093E-02 4.69557E-04-7.25219E-14
 -1      2499 1.39135E-02 5.16539E-04-7.73928E-14
 -1      2500 1.37691E-02 5.14167E-04-7.59968E-14
 -1      2501 1.36988E-02 4.75727E-04-7.53055E-14
 -1      2502 1.42014E-02 5.20184E-04-8.01954E-14
 -1      2503 1.40576E-02 5.18556E-04-7.87917E-14
 -1      2504 1.39870E-02 4.80568E-04-7.80997E-14
 -1      2505 1.44883E-02 5.22292E-04-8.30080E-14
 -1      2506 1.43450E-02 5.21438E-04-8.15984E-14
 -1      2507 1.42743E-02 4.83910E-04-8.09059E-14
 -1      2508 1.46363E-02 5.23809E-04-8.44696E-14
 -1      2509 1.45724E-02 1.99094E-04-8.37706E-14
 -1      2510 1.45701E-02 2.39428E-04-8.37642E-14
 -1      2511 1.45764E-02 1.18977E-04-8.37870E-14
 -1      2512 1.45745E-02 1.58957E-04-8.37786E-14
 -1      2513 1.44505E-02 1.78800E-04-8.25444E-14
 -1      2514 1.45633E-02 3.60362E-04-8.37354E-14
 -1      2515 1.45613E-02 4.01592E-04-8.37241E-14
 -1      2516 1.45678E-02 2.79628E-04-8.37555E-14
 -1      2517 1.45655E-02 3.19703E-04-8.37443E-14
 -1      2518 1.44409E-02 3.39632E-04-8.25155E-14
 -1      2519 1.44458E-02 2.58920E-04-8.25315E-14
 -1      2520 1.03012E-02 1.86452E-04-4.01501E-14
 -1      2521 1.04457E-02 1.29577E-04-4.05231E-14
 -1      2522 1.45793E-02 3.93906E-05-8.38028E-14
 -1      2523 1.45780E-02 7.91408E-05-8.37956E-14
 -1      2524 1.44545E-02 9.90993E-05-8.25566E-14
 -1      2525 1.45808E-02-3.99571E-05-8.38091E-14
 -1      2526 1.45802E-02-2.86196E-07-8.38067E-14
 -1      2527 1.44572E-02 1.98919E-05-8.25652E-14
 -1      2528 1.45808E-02-1.19386E-04-8.38038E-14
 -1      2529 1.45810E-02-7.96346E-05-8.38079E-14
 -1      2530 1.44583E-02-5.91457E-05-8.25644E-14
 -1      2531 1.45795E-02-1.97850E-04-8.37891E-14
 -1      2532 1.45803E-02-1.58548E-04-8.37984E-14
 -1      2533 1.44579E-02-1.37683E-04-8.25522E-14
 -1      2534 1.45774E-02-2.78316E-04-8.37582E-14
 -1      2535 1.45785E-02-2.37984E-04-8.37762E-14
 -1      2536 1.44561E-02-2.16705E-04-8.25284E-14
 -1      2537 1.45750E-02-3.59629E-04-8.37147E-14
 -1      2538 1.45762E-02-3.18858E-04-8.37396E-14
 -1      2539 1.44536E-02-2.97161E-04-8.24896E-14
 -1      2540 1.45730E-02-4.41876E-04-8.36549E-14
 -1      2541 1.45739E-02-4.00637E-04-8.36837E-14
 -1      2542 1.44509E-02-3.78568E-04-8.24357E-14
 -1      2543 1.46499E-02-5.15937E-04-8.43931E-14
 -1      2544 9.87971E-03 3.91896E-04-3.89582E-14
 -1      2545 1.00957E-02 2.80521E-04-3.95515E-14
 -1      2546 1.01979E-02 2.36359E-04-4.03323E-14
 -1      2547 1.58369E-03 4.92573E-04-1.26974E-15
 -1      2548 1.44273E-03 4.75064E-04-1.04546E-15
 -1      2549 1.64145E-03 4.64305E-04-1.43188E-15
 -1      2550 1.08446E-02 7.28234E-06-4.14634E-14
 -1      2551 1.08789E-02-1.49637E-07-4.15436E-14
 -1      2552 1.08785E-02-1.22969E-05-4.14769E-14
 -1      2553 1.08323E-02-2.31404E-05-4.13389E-14
 -1      2554 9.44570E-03 6.43128E-04-3.73719E-14
 -1      2555 9.62659E-03 5.34351E-04-3.81102E-14
 -1      2556 1.04982E-02-1.23882E-04-4.04681E-14
 -1      2557 1.03169E-02-1.94451E-04-3.98677E-14
 -1      2558 7.45248E-03-4.62153E-04-2.83093E-14
 -1      2559 7.23691E-03-3.44330E-04-2.77360E-14
 -1      2560 6.68834E-03-1.05543E-04-2.66140E-14
 -1      2561 6.53895E-03-6.00754E-05-2.63494E-14
 -1      2562 8.80746E-03 9.60808E-04-3.44225E-14
 -1      2563 8.95559E-03 9.07413E-04-3.51762E-14
 -1      2564 5.47058E-04-2.27618E-05-2.90715E-16
 -1      2565 5.47507E-04-3.87113E-05-2.89360E-16
 -1      2566 6.63018E-04-5.54431E-05-3.90123E-16
 -1      2567 6.61804E-04-1.75803E-05-3.93389E-16
 -1      2568 8.50348E-03 9.80047E-04-3.27932E-14
 -1      2569 8.63471E-03 9.88279E-04-3.35137E-14
 -1      2570 6.95790E-03 2.07237E-04-2.74377E-14
 -1      2571 7.12642E-03 2.84389E-04-2.77639E-14
 -1      2572 9.13482E-03 8.23357E-04-3.60258E-14
 -1      2573 9.28633E-03 7.35895E-04-3.66954E-14
 -1      2574 9.37125E-03 6.91467E-04-3.73451E-14
 -1      2575 7.77959E-03 6.47614E-04-2.94941E-14
 -1      2576 7.92096E-03 7.34255E-04-3.00206E-14
 -1      2577 7.87160E-03-7.09446E-04-2.97445E-14
 -1      2578 7.69584E-03-6.02267E-04-2.91059E-14
 -1      2579 7.37242E-03 4.10628E-04-2.83264E-14
 -1      2580 7.58322E-03 5.31707E-04-2.89066E-14
 -1      2581 7.66047E-03 5.87131E-04-2.88436E-14
 -1      2582 6.65343E-03 9.07606E-05-2.68014E-14
 -1      2583 6.79927E-03 1.41981E-04-2.71183E-14
 -1      2584 6.86241E-03 1.68531E-04-2.68339E-14
 -1      2585 6.41041E-03 2.11911E-05-2.63824E-14
 -1      2586 6.50416E-03 4.37442E-05-2.65311E-14
 -1      2587 6.34475E-03-3.35162E-06-2.62940E-14
 -1      2588 6.35541E-03 3.82077E-06-2.63133E-14
 -1      2589 6.41997E-03-2.64168E-05-2.62523E-14
 -1      2590 6.36616E-03-1.48866E-05-2.62395E-14
 -1      2591 7.01084E-03-2.34665E-04-2.72453E-14
 -1      2592 6.86040E-03-1.70806E-04-2.69658E-14
 -1      2593 9.41421E-03-6.74524E-04-3.69465E-14
 -1      2594 9.26267E-03-7.65549E-04-3.63367E-14
 -1      2595 8.17112E-03-8.75673E-04-3.09868E-14
 -1      2596 8.04606E-03-8.07870E-04-3.04376E-14
 -1      2597 8.47221E-03-9.84424E-04-3.24044E-14
 -1      2598 8.32806E-03-9.41007E-04-3.16910E-14
 -1      2599 8.26458E-03-9.22556E-04-3.12434E-14
 -1      2600 8.73377E-03-9.87556E-04-3.37953E-14
 -1      2601 8.62016E-03-9.98243E-04-3.31781E-14
 -1      2602 9.07107E-03-8.66732E-04-3.55127E-14
 -1      2603 8.90116E-03-9.43304E-04-3.46664E-14
 -1      2604 9.75628E-03-4.73757E-04-3.82509E-14
 -1      2605 9.58158E-03-5.76307E-04-3.75917E-14
 -1      2606 1.01580E-02-2.64891E-04-3.94506E-14
 -1      2607 9.99184E-03-3.46553E-04-3.90366E-14
 -1      2608 1.02567E-02-2.21171E-04-4.01951E-14
 -1      2609 1.07566E-02-4.36051E-05-4.13284E-14
 -1      2610 1.06710E-02-6.54503E-05-4.11464E-14
 -1      2611 5.88271E-04-2.37283E-04-2.19022E-16
 -1      2612 7.80957E-04-3.03678E-04-3.49642E-16
 -1      2613 8.40568E-04-2.92285E-04-4.32353E-16
 -1      2614 5.78896E-04-2.09504E-04-2.35692E-16
 -1      2615 7.57283E-04 3.33153E-04-2.80537E-16
 -1      2616 6.10973E-04 2.84126E-04-1.87215E-16
 -1      2617 5.84385E-04 2.57409E-04-1.91768E-16
 -1      2618 8.13294E-04 3.21665E-04-3.60416E-16
 -1      2619 1.06181E-02 6.85091E-05-4.10712E-14
 -1      2620 1.07559E-02 3.14495E-05-4.14125E-14
 -1      2621 8.72681E-03 9.81947E-04-3.40460E-14
 -1      2622 6.70617E-04-1.37207E-04-3.70363E-16
 -1      2623 5.54915E-04-1.25648E-04-2.69641E-16
 -1      2624 5.57997E-04-1.45610E-04-2.61889E-16
 -1      2625 1.35733E-03 4.29453E-04-9.78709E-16
 -1      2626 5.72061E-04 2.27236E-04-2.10837E-16
 -1      2627 1.05622E-02 9.21513E-05-4.14859E-14
 -1      2628 8.02479E-03 7.99419E-04-3.03446E-14
 -1      2629 8.39872E-03 9.60687E-04-3.22031E-14
 -1      2630 9.88098E-03-4.04931E-04-3.89831E-14
 -1      2631 9.78690E-03-4.65526E-04-3.89263E-14
 -1      2632 1.00025E-02-3.48769E-04-3.97208E-14
 -1      2633 9.16000E-03-8.25373E-04-3.60669E-14
 -1      2634 8.54144E-03-9.98695E-04-3.27191E-14
 -1      2635 1.45657E-02 4.86734E-04-8.37722E-14
 -1      2636 6.89403E-04 2.50328E-04-3.03671E-16
 -1      2637 1.45510E-02 4.53912E-04-8.36255E-14
 -1      2638 1.45007E-02-5.29284E-04-8.28463E-14
 -1      2639 1.45472E-02-4.77273E-04-8.33661E-14
 -1      2640 1.44237E-02-4.54871E-04-8.21157E-14
 -1      2641 1.43723E-02-5.25817E-04-8.15380E-14
 -1      2642 1.08966E-02-6.48052E-06-4.20718E-14
 -1      2643 9.75569E-03 4.62689E-04-3.88765E-14
 -1      2644 9.88269E-03 4.02255E-04-3.96483E-14
 -1      2645 9.65417E-03 5.33512E-04-3.87928E-14
 -1      2646 9.49880E-03-6.26903E-04-3.75441E-14
 -1      2647 1.08125E-02 2.06980E-05-4.20883E-14
 -1      2648 7.11990E-03-2.93513E-04-2.70953E-14
 -1      2649 1.08199E-02-3.10417E-05-4.19930E-14
 -1      2650 6.46229E-03-4.17605E-05-2.58262E-14
 -1      2651 5.71878E-04-1.84551E-04-2.49163E-16
 -1      2652 1.05889E-02-9.51654E-05-4.12969E-14
 -1      2653 6.33821E-03-8.22074E-06-2.57882E-14
 -1      2654 7.24574E-03 3.49465E-04-2.77062E-14
 -1      2655 7.95794E-03-7.64570E-04-2.98505E-14
 -1      2656 9.05383E-03 8.67997E-04-3.58097E-14
 -1      2657 6.74181E-03-1.29975E-04-2.62645E-14
 -1      2658 7.56365E-03-5.33471E-04-2.83688E-14
 -1      2659 6.56222E-03 6.27800E-05-2.62495E-14
 -1      2660 6.36764E-03 1.09404E-05-2.59129E-14
 -1      2661 8.83280E-03-9.69428E-04-3.43652E-14
 -1      2662 1.44279E-02 4.32495E-04-8.24111E-14
 -1      2663 1.43011E-02-4.87886E-04-8.08437E-14
 -1      2664 7.80733E-04 7.67614E-05-5.04655E-16
 -1      2665 7.79483E-04 5.50504E-05-5.08504E-16
 -1      2666 7.78643E-04 3.33011E-05-5.11079E-16
 -1      2667 7.78223E-04 1.18055E-05-5.12502E-16
 -1      2668 8.97064E-04 4.92462E-05-6.44924E-16
 -1      2669 7.91914E-04 1.72097E-04-4.74366E-16
 -1      2670 7.87974E-04 1.46772E-04-4.84855E-16
 -1      2671 8.03564E-04 2.27162E-04-4.47464E-16
 -1      2672 7.97064E-04 1.98830E-04-4.62182E-16
 -1      2673 9.15206E-04 2.06441E-04-5.95905E-16
 -1      2674 1.12959E-03 3.59685E-04-7.26077E-16
 -1      2675 9.85993E-04 3.31137E-04-5.63826E-16
 -1      2676 1.41587E-03 4.04276E-04-1.11781E-15
 -1      2677 1.27280E-03 3.83946E-04-9.10865E-16
 -1      2678 1.18966E-03 3.38998E-04-8.42303E-16
 -1      2679 1.03519E-02-1.90593E-04-4.10342E-14
 -1      2680 1.02127E-02-2.51684E-04-4.06105E-14
 -1      2681 8.02961E-04 2.77041E-04-4.00233E-16
 -1      2682 1.01228E-02 2.83773E-04-4.06314E-14
 -1      2683 1.03065E-02 2.00433E-04-4.12372E-14
 -1      2684 1.32015E-03-3.59681E-04-1.02833E-15
 -1      2685 1.46342E-03-3.77934E-04-1.24700E-15
 -1      2686 1.60652E-03-3.93179E-04-1.48715E-15
 -1      2687 1.74953E-03-4.05633E-04-1.74940E-15
 -1      2688 1.52522E-03-3.51328E-04-1.39287E-15
 -1      2689 1.89240E-03-4.15749E-04-2.03323E-15
 -1      2690 2.03518E-03-4.23706E-04-2.33861E-15
 -1      2691 1.81200E-03-3.75369E-04-1.92136E-15
 -1      2692 2.17788E-03-4.29861E-04-2.66521E-15
 -1      2693 2.32054E-03-4.34359E-04-3.01305E-15
 -1      2694 2.09859E-03-3.90813E-04-2.53511E-15
 -1      2695 2.46319E-03-4.37468E-04-3.38192E-15
 -1      2696 2.60584E-03-4.39303E-04-3.77147E-15
 -1      2697 2.38496E-03-3.99577E-04-3.23343E-15
 -1      2698 2.74852E-03-4.40062E-04-4.18198E-15
 -1      2699 2.89125E-03-4.39834E-04-4.61270E-15
 -1      2700 2.67115E-03-4.03168E-04-4.01483E-15
 -1      2701 3.03406E-03-4.38766E-04-5.06267E-15
 -1      2702 3.17697E-03-4.36926E-04-5.53198E-15
 -1      2703 2.95725E-03-4.02741E-04-4.87688E-15
 -1      2704 3.31998E-03-4.34426E-04-6.02089E-15
 -1      2705 3.46312E-03-4.31322E-04-6.52890E-15
 -1      2706 3.24335E-03-3.99168E-04-5.81750E-15
 -1      2707 3.60640E-03-4.27705E-04-7.05616E-15
 -1      2708 3.74985E-03-4.23626E-04-7.60175E-15
 -1      2709 3.52950E-03-3.93121E-04-6.83432E-15
 -1      2710 3.89346E-03-4.19171E-04-8.16586E-15
 -1      2711 4.03730E-03-4.14397E-04-8.74733E-15
 -1      2712 3.81578E-03-3.85160E-04-7.92716E-15
 -1      2713 4.18133E-03-4.09402E-04-9.34634E-15
 -1      2714 4.32564E-03-4.04257E-04-9.96422E-15
 -1      2715 4.10226E-03-3.75816E-04-9.09192E-15
 -1      2716 4.47020E-03-3.99089E-04-1.05993E-14
 -1      2717 4.61512E-03-3.94000E-04-1.12517E-14
 -1      2718 4.38906E-03-3.65697E-04-1.03274E-14
 -1      2719 4.76037E-03-3.89165E-04-1.19223E-14
 -1      2720 4.90608E-03-3.84733E-04-1.26092E-14
 -1      2721 4.67634E-03-3.55588E-04-1.16345E-14
 -1      2722 5.05224E-03-3.80943E-04-1.33134E-14
 -1      2723 5.19904E-03-3.78021E-04-1.40349E-14
 -1      2724 4.96442E-03-3.46578E-04-1.30101E-14
 -1      2725 5.34652E-03-3.76280E-04-1.47736E-14
 -1      2726 5.49489E-03-3.76059E-04-1.55293E-14
 -1      2727 5.25389E-03-3.40198E-04-1.44550E-14
 -1      2728 5.64429E-03-3.77747E-04-1.63029E-14
 -1      2729 5.79497E-03-3.81853E-04-1.70948E-14
 -1      2730 5.54575E-03-3.38573E-04-1.59692E-14
 -1      2731 5.94724E-03-3.88817E-04-1.79022E-14
 -1      2732 6.10135E-03-3.99392E-04-1.87267E-14
 -1      2733 5.84171E-03-3.44614E-04-1.75515E-14
 -1      2734 6.25785E-03-4.14015E-04-1.95708E-14
 -1      2735 6.41689E-03-4.33740E-04-2.04331E-14
 -1      2736 6.14447E-03-3.62263E-04-1.92038E-14
 -1      2737 6.57928E-03-4.58900E-04-2.13124E-14
 -1      2738 6.74488E-03-4.90915E-04-2.22089E-14
 -1      2739 6.45789E-03-3.96755E-04-2.09274E-14
 -1      2740 6.91467E-03-5.30021E-04-2.31244E-14
 -1      2741 7.08771E-03-5.77134E-04-2.40591E-14
 -1      2742 6.78660E-03-4.55172E-04-2.27213E-14
 -1      2743 7.26515E-03-6.31557E-04-2.50111E-14
 -1      2744 7.44429E-03-6.93888E-04-2.59811E-14
 -1      2745 7.13466E-03-5.44783E-04-2.45890E-14
 -1      2746 7.62601E-03-7.63097E-04-2.69698E-14
 -1      2747 7.80623E-03-8.34614E-04-2.79747E-14
 -1      2748 7.50015E-03-6.70350E-04-2.65280E-14
 -1      2749 7.98463E-03-9.05691E-04-2.89956E-14
 -1      2750 8.15925E-03-9.68546E-04-3.00349E-14
 -1      2751 7.87261E-03-8.23735E-04-2.85357E-14
 -1      2752 8.32846E-03-1.01920E-03-3.10917E-14
 -1      2753 8.49538E-03-1.04864E-03-3.21662E-14
 -1      2754 8.23310E-03-9.65502E-04-3.06134E-14
 -1      2755 8.65840E-03-1.05470E-03-3.32593E-14
 -1      2756 8.82424E-03-1.03618E-03-3.43690E-14
 -1      2757 8.57574E-03-1.03409E-03-3.27619E-14
 -1      2758 8.99139E-03-9.94295E-04-3.54966E-14
 -1      2759 9.16415E-03-9.37398E-04-3.66418E-14
 -1      2760 8.91580E-03-9.90461E-04-3.49813E-14
 -1      2761 9.34082E-03-8.69189E-04-3.78041E-14
 -1      2762 9.52035E-03-7.98198E-04-3.89812E-14
 -1      2763 9.27206E-03-8.60717E-04-3.72701E-14
 -1      2764 9.70187E-03-7.27771E-04-4.01758E-14
 -1      2765 9.88190E-03-6.62638E-04-4.13849E-14
 -1      2766 9.64306E-03-7.07001E-04-3.96255E-14
 -1      2767 1.00607E-02-6.04627E-04-4.26090E-14
 -1      2768 1.02354E-02-5.54290E-04-4.38471E-14
 -1      2769 1.00116E-02-5.73780E-04-4.20440E-14
 -1      2770 1.04070E-02-5.12288E-04-4.50987E-14
 -1      2771 1.05743E-02-4.77425E-04-4.63630E-14
 -1      2772 1.03640E-02-4.76713E-04-4.45222E-14
 -1      2773 1.07384E-02-4.49737E-04-4.76341E-14
 -1      2774 1.08988E-02-4.27803E-04-4.89149E-14
 -1      2775 1.06970E-02-4.12749E-04-4.70462E-14
 -1      2776 1.10565E-02-4.11330E-04-5.02059E-14
 -1      2777 1.12117E-02-3.99185E-04-5.15043E-14
 -1      2778 1.10135E-02-3.74128E-04-4.96103E-14
 -1      2779 1.13648E-02-3.90940E-04-5.28111E-14
 -1      2780 1.15162E-02-3.85772E-04-5.41260E-14
 -1      2781 1.13184E-02-3.53686E-04-5.22079E-14
 -1      2782 1.16663E-02-3.83232E-04-5.54491E-14
 -1      2783 1.18151E-02-3.82766E-04-5.67800E-14
 -1      2784 1.16157E-02-3.45814E-04-5.48387E-14
 -1      2785 1.19631E-02-3.83967E-04-5.81211E-14
 -1      2786 1.21103E-02-3.86468E-04-5.94749E-14
 -1      2787 1.19084E-02-3.46279E-04-5.75037E-14
 -1      2788 1.22569E-02-3.89934E-04-6.08367E-14
 -1      2789 1.24029E-02-3.94124E-04-6.22074E-14
 -1      2790 1.21983E-02-3.51961E-04-6.02065E-14
 -1      2791 1.25485E-02-3.98784E-04-6.35883E-14
 -1      2792 1.26938E-02-4.03759E-04-6.49767E-14
 -1      2793 1.24868E-02-3.60585E-04-6.29470E-14
 -1      2794 1.28387E-02-4.08866E-04-6.63719E-14
 -1      2795 1.29833E-02-4.14006E-04-6.77739E-14
 -1      2796 1.27743E-02-3.70534E-04-6.57210E-14
 -1      2797 1.31277E-02-4.19059E-04-6.91843E-14
 -1      2798 1.32719E-02-4.23961E-04-7.05985E-14
 -1      2799 1.30613E-02-3.80698E-04-6.85242E-14
 -1      2800 1.34159E-02-4.28637E-04-7.20171E-14
 -1      2801 1.35597E-02-4.33049E-04-7.34392E-14
 -1      2802 1.33479E-02-3.90343E-04-7.13504E-14
 -1      2803 1.37034E-02-4.37154E-04-7.48658E-14
 -1      2804 1.38469E-02-4.40926E-04-7.62985E-14
 -1      2805 1.36343E-02-3.99009E-04-7.41923E-14
 -1      2806 1.39903E-02-4.44344E-04-7.77332E-14
 -1      2807 1.41336E-02-4.47391E-04-7.91733E-14
 -1      2808 1.39204E-02-4.06429E-04-7.70504E-14
 -1      2809 2.26982E-03 4.68150E-04-2.82180E-15
 -1      2810 2.12775E-03 4.62826E-04-2.48322E-15
 -1      2811 1.09199E-02-3.77147E-06-4.28822E-14
 -1      2812 1.09157E-02-1.06846E-05-4.28140E-14
 -1      2813 1.98565E-03 4.55711E-04-2.16648E-15
 -1      2814 1.84345E-03 4.46649E-04-1.87118E-15
 -1      2815 2.04804E-03 4.23287E-04-2.36126E-15
 -1      2816 2.83855E-03 4.75999E-04-4.38885E-15
 -1      2817 2.69623E-03 4.75748E-04-3.96540E-15
 -1      2818 3.12366E-03 4.73884E-04-5.29897E-15
 -1      2819 2.98103E-03 4.75352E-04-4.83332E-15
 -1      2820 2.90436E-03 4.39071E-04-4.65429E-15
 -1      2821 3.40955E-03 4.68897E-04-6.29198E-15
 -1      2822 3.26650E-03 4.71710E-04-5.78537E-15
 -1      2823 3.19012E-03 4.36171E-04-5.58576E-15
 -1      2824 3.69642E-03 4.61685E-04-7.36692E-15
 -1      2825 3.55284E-03 4.65535E-04-6.81912E-15
 -1      2826 3.47629E-03 4.30614E-04-6.59946E-15
 -1      2827 3.98446E-03 4.52832E-04-8.52259E-15
 -1      2828 3.84027E-03 4.57429E-04-7.93487E-15
 -1      2829 3.76302E-03 4.23000E-04-7.69405E-15
 -1      2830 4.27393E-03 4.42971E-04-9.75838E-15
 -1      2831 4.12899E-03 4.47986E-04-9.13005E-15
 -1      2832 4.05042E-03 4.13890E-04-8.86926E-15
 -1      2833 4.56510E-03 4.32903E-04-1.10719E-14
 -1      2834 4.41926E-03 4.37907E-04-1.04058E-14
 -1      2835 4.33870E-03 4.03909E-04-1.01236E-14
 -1      2836 4.85838E-03 4.23734E-04-1.24596E-14
 -1      2837 4.71143E-03 4.28127E-04-1.17571E-14
 -1      2838 4.62807E-03 3.93861E-04-1.14550E-14
 -1      2839 5.15427E-03 4.17039E-04-1.39183E-14
 -1      2840 5.00594E-03 4.19963E-04-1.31801E-14
 -1      2841 4.91891E-03 3.84864E-04-1.28586E-14
 -1      2842 5.45353E-03 4.15031E-04-1.54462E-14
 -1      2843 5.30341E-03 4.15286E-04-1.46734E-14
 -1      2844 5.21176E-03 3.78496E-04-1.43319E-14
 -1      2845 5.75724E-03 4.20734E-04-1.70470E-14
 -1      2846 5.60475E-03 4.16691E-04-1.62377E-14
 -1      2847 5.50752E-03 3.76961E-04-1.58750E-14
 -1      2848 6.06692E-03 4.38109E-04-1.87143E-14
 -1      2849 5.91125E-03 4.27654E-04-1.78721E-14
 -1      2850 5.80760E-03 3.83264E-04-1.74886E-14
 -1      2851 6.38455E-03 4.72038E-04-2.04503E-14
 -1      2852 6.22469E-03 4.52612E-04-1.95741E-14
 -1      2853 6.11413E-03 4.01373E-04-1.91716E-14
 -1      2854 6.71224E-03 5.27934E-04-2.22450E-14
 -1      2855 6.54719E-03 4.96803E-04-2.13398E-14
 -1      2856 6.43001E-03 4.36342E-04-2.09199E-14
 -1      2857 7.05121E-03 6.10516E-04-2.40992E-14
 -1      2858 6.88060E-03 5.65580E-04-2.31653E-14
 -1      2859 6.75850E-03 4.94158E-04-2.27276E-14
 -1      2860 7.39973E-03 7.20677E-04-2.60061E-14
 -1      2861 7.22490E-03 6.62317E-04-2.50454E-14
 -1      2862 7.10178E-03 5.80673E-04-2.45922E-14
 -1      2863 7.75124E-03 8.49912E-04-2.79780E-14
 -1      2864 7.57600E-03 7.84104E-04-2.69837E-14
 -1      2865 7.45790E-03 6.97891E-04-2.65121E-14
 -1      2866 8.09542E-03 9.74430E-04-3.00173E-14
 -1      2867 7.92489E-03 9.15428E-04-2.89884E-14
 -1      2868 7.81811E-03 8.36528E-04-2.84950E-14
 -1      2869 8.42557E-03 1.05585E-03-3.21321E-14
 -1      2870 8.26163E-03 1.02340E-03-3.10644E-14
 -1      2871 8.16901E-03 9.66548E-04-3.05502E-14
 -1      2872 8.74756E-03 1.06132E-03-3.43221E-14
 -1      2873 8.58593E-03 1.06924E-03-3.32166E-14
 -1      2874 8.50397E-03 1.03996E-03-3.26795E-14
 -1      2875 9.07545E-03 9.87629E-04-3.65918E-14
 -1      2876 8.90927E-03 1.03252E-03-3.54490E-14
 -1      2877 8.83341E-03 1.02190E-03-3.48908E-14
 -1      2878 9.41719E-03 8.65567E-04-3.89342E-14
 -1      2879 9.24449E-03 9.29734E-04-3.77549E-14
 -1      2880 9.17353E-03 9.20976E-04-3.71793E-14
 -1      2881 9.76823E-03 7.33512E-04-4.13405E-14
 -1      2882 9.59254E-03 7.98498E-04-4.01294E-14
 -1      2883 9.52910E-03 7.82081E-04-3.95416E-14
 -1      2884 1.01178E-02 6.18434E-04-4.38058E-14
 -1      2885 9.94417E-03 6.72906E-04-4.25639E-14
 -1      2886 9.88953E-03 6.47486E-04-4.19651E-14
 -1      2887 1.04584E-02 5.30616E-04-4.63200E-14
 -1      2888 1.02897E-02 5.71106E-04-4.50577E-14
 -1      2889 1.02417E-02 5.39848E-04-4.44439E-14
 -1      2890 1.07878E-02 4.69803E-04-4.88850E-14
 -1      2891 1.06246E-02 4.97153E-04-4.75974E-14
 -1      2892 1.05795E-02 4.62924E-04-4.69737E-14
 -1      2893 1.11068E-02 4.31618E-04-5.14905E-14
 -1      2894 1.09486E-02 4.48288E-04-5.01832E-14
 -1      2895 1.09031E-02 4.12581E-04-4.95483E-14
 -1      2896 1.14177E-02 4.10598E-04-5.41266E-14
 -1      2897 1.12632E-02 4.19321E-04-5.28048E-14
 -1      2898 1.12153E-02 3.82757E-04-5.21625E-14
 -1      2899 1.17224E-02 4.01736E-04-5.67871E-14
 -1      2900 1.15707E-02 4.04932E-04-5.54551E-14
 -1      2901 1.15194E-02 3.67731E-04-5.48039E-14
 -1      2902 1.20225E-02 4.00936E-04-5.94710E-14
 -1      2903 1.18729E-02 4.00542E-04-5.81254E-14
 -1      2904 1.18178E-02 3.62832E-04-5.74685E-14
 -1      2905 1.23192E-02 4.05056E-04-6.21809E-14
 -1      2906 1.21712E-02 4.02535E-04-6.08229E-14
 -1      2907 1.21126E-02 3.64449E-04-6.01550E-14
 -1      2908 1.26133E-02 4.11809E-04-6.49174E-14
 -1      2909 1.24665E-02 4.08211E-04-6.35477E-14
 -1      2910 1.24049E-02 3.69896E-04-6.28701E-14
 -1      2911 1.29054E-02 4.19596E-04-6.76737E-14
 -1      2912 1.27595E-02 4.15646E-04-6.62937E-14
 -1      2913 1.26954E-02 3.77246E-04-6.56104E-14
 -1      2914 1.31959E-02 4.27347E-04-7.04429E-14
 -1      2915 1.30508E-02 4.23524E-04-6.90567E-14
 -1      2916 1.29848E-02 3.85165E-04-6.83676E-14
 -1      2917 1.34851E-02 4.34375E-04-7.32204E-14
 -1      2918 1.33406E-02 4.30982E-04-7.18297E-14
 -1      2919 1.32732E-02 3.92769E-04-7.11402E-14
 -1      2920 1.37734E-02 4.40263E-04-7.60092E-14
 -1      2921 1.36294E-02 4.37481E-04-7.46146E-14
 -1      2922 1.35608E-02 3.99495E-04-7.39214E-14
 -1      2923 1.40608E-02 4.44767E-04-7.88080E-14
 -1      2924 1.39171E-02 4.42699E-04-7.74066E-14
 -1      2925 1.38479E-02 4.05006E-04-7.67139E-14
 -1      2926 1.43161E-02 4.39584E-04-8.13094E-14
 -1      2927 1.41728E-02 4.38202E-04-7.99048E-14
 -1      2928 1.41033E-02 4.00864E-04-7.92093E-14
 -1      2929 1.43270E-02 3.87431E-04-8.14056E-14
 -1      2930 1.43352E-02 5.23764E-07-8.13254E-14
 -1      2931 1.43343E-02 3.98707E-05-8.13267E-14
 -1      2932 1.42303E-02-4.50059E-04-8.01536E-14
 -1      2933 1.43271E-02-4.52550E-04-8.11330E-14
 -1      2934 1.41600E-02-4.12381E-04-7.94622E-14
 -1      2935 1.43289E-02 1.58480E-04-8.13157E-14
 -1      2936 1.43265E-02 1.98357E-04-8.13115E-14
 -1      2937 7.96821E-03 7.84156E-04-2.98628E-14
 -1      2938 8.14847E-03 8.74133E-04-3.07879E-14
 -1      2939 1.43359E-02-7.81346E-05-8.13187E-14
 -1      2940 1.43358E-02-3.87871E-05-8.13247E-14
 -1      2941 1.42134E-02-1.86364E-05-8.00907E-14
 -1      2942 1.43328E-02 7.92750E-05-8.13264E-14
 -1      2943 1.43310E-02 1.18805E-04-8.13211E-14
 -1      2944 1.42075E-02 1.38213E-04-8.00903E-14
 -1      2945 1.42114E-02 5.95857E-05-8.00941E-14
 -1      2946 1.43350E-02-1.55729E-04-8.12998E-14
 -1      2947 1.43356E-02-1.16871E-04-8.13107E-14
 -1      2948 1.42136E-02-9.61952E-05-8.00759E-14
 -1      2949 1.43327E-02-2.35274E-04-8.12668E-14
 -1      2950 1.43339E-02-1.95401E-04-8.12851E-14
 -1      2951 1.42120E-02-1.74151E-04-8.00494E-14
 -1      2952 1.43297E-02-3.15710E-04-8.12195E-14
 -1      2953 1.43312E-02-2.75366E-04-8.12439E-14
 -1      2954 1.42091E-02-2.53537E-04-8.00087E-14
 -1      2955 1.43532E-02-4.17403E-04-8.14186E-14
 -1      2956 1.70113E-03 4.35240E-04-1.59787E-15
 -1      2957 1.55860E-03 4.21289E-04-1.34671E-15
 -1      2958 1.47617E-03 3.78323E-04-1.26093E-15
 -1      2959 1.76232E-03 4.05529E-04-1.76757E-15
 -1      2960 9.58044E-03-5.87979E-04-3.81690E-14
 -1      2961 9.43181E-03-6.77593E-04-3.75175E-14
 -1      2962 1.08848E-02-2.20501E-05-4.28049E-14
 -1      2963 1.08273E-02-3.70266E-05-4.27925E-14
 -1      2964 1.09383E-02-1.72285E-05-4.36203E-14
 -1      2965 6.88674E-04-2.03118E-04-3.47555E-16
 -1      2966 6.79782E-03-1.62768E-04-2.59015E-14
 -1      2967 6.64636E-03-1.08335E-04-2.55604E-14
 -1      2968 6.32203E-03-9.74864E-06-2.51721E-14
 -1      2969 6.30854E-03-3.88150E-06-2.52284E-14
 -1      2970 2.55402E-03 4.74441E-04-3.56269E-15
 -1      2971 2.41190E-03 4.71981E-04-3.18171E-15
 -1      2972 2.33349E-03 4.33745E-04-3.04088E-15
 -1      2973 2.61887E-03 4.38582E-04-3.80562E-15
 -1      2974 1.04944E-02 1.28627E-04-4.19813E-14
 -1      2975 1.06498E-02 7.92671E-05-4.25344E-14
 -1      2976 1.06983E-02-7.44799E-05-4.24081E-14
 -1      2977 1.05369E-02-1.21180E-04-4.17203E-14
 -1      2978 1.04996E-02-1.53920E-04-4.21418E-14
 -1      2979 1.03368E-03-3.12333E-04-6.56647E-16
 -1      2980 1.17693E-03-3.37908E-04-8.31529E-16
 -1      2981 1.23858E-03-3.16410E-04-9.51320E-16
 -1      2982 7.84874E-04 1.22624E-04-4.92811E-16
 -1      2983 7.82518E-04 9.93122E-05-4.99370E-16
 -1      2984 9.00162E-04 9.86232E-05-6.35410E-16
 -1      2985 9.05844E-04 1.50441E-04-6.19730E-16
 -1      2986 8.03040E-03-8.21340E-04-2.99066E-14
 -1      2987 7.87861E-03-7.34083E-04-2.92203E-14
 -1      2988 9.30297E-03 7.45549E-04-3.72905E-14
 -1      2989 9.44345E-03 6.62737E-04-3.79729E-14
 -1      2990 6.76934E-03 1.40536E-04-2.62051E-14
 -1      2991 6.90935E-03 1.97283E-04-2.65184E-14
 -1      2992 6.47432E-03 4.44376E-05-2.55583E-14
 -1      2993 6.60693E-03 8.26236E-05-2.58233E-14
 -1      2994 7.82253E-04-9.72660E-05-5.02080E-16
 -1      2995 7.84534E-04-1.20498E-04-4.96212E-16
 -1      2996 7.52347E-03 5.25920E-04-2.80577E-14
 -1      2997 7.69121E-03 6.30588E-04-2.86316E-14
 -1      2998 6.32457E-03 6.14418E-06-2.52978E-14
 -1      2999 6.37404E-03 1.71441E-05-2.53670E-14
 -1      3000 6.28597E-03 2.48354E-06-2.46875E-14
 -1      3001 8.90663E-03-9.52966E-04-3.48488E-14
 -1      3002 8.76004E-03-9.95504E-04-3.39739E-14
 -1      3003 7.09768E-03 2.87494E-04-2.69032E-14
 -1      3004 7.31045E-03 4.00986E-04-2.74544E-14
 -1      3005 7.66703E-03-6.10368E-04-2.83889E-14
 -1      3006 7.45032E-03-4.86577E-04-2.76039E-14
 -1      3007 8.60872E-03-1.00961E-03-3.30749E-14
 -1      3008 8.47956E-03-9.96723E-04-3.23013E-14
 -1      3009 8.98094E-03 9.11924E-04-3.55680E-14
 -1      3010 9.13664E-03 8.34364E-04-3.64234E-14
 -1      3011 9.22228E-03 8.05725E-04-3.70408E-14
 -1      3012 8.32736E-03-9.56820E-04-3.14447E-14
 -1      3013 8.19418E-03-8.99522E-04-3.07430E-14
 -1      3014 8.09964E-03-8.72344E-04-3.01010E-14
 -1      3015 8.40172E-03-9.86594E-04-3.17911E-14
 -1      3016 7.18150E-03-3.42179E-04-2.67785E-14
 -1      3017 6.98499E-03-2.44768E-04-2.63011E-14
 -1      3018 1.08068E-02 2.83501E-05-4.27835E-14
 -1      3019 1.08820E-02 9.34867E-06-4.28348E-14
 -1      3020 1.09355E-02 2.89371E-06-4.35831E-14
 -1      3021 9.26814E-03-7.73369E-04-3.67680E-14
 -1      3022 9.10281E-03-8.67779E-04-3.59359E-14
 -1      3023 6.48542E-03-5.40908E-05-2.53322E-14
 -1      3024 6.38371E-03-2.70731E-05-2.52415E-14
 -1      3025 8.67020E-03 9.98887E-04-3.37456E-14
 -1      3026 8.81967E-03 9.70106E-04-3.46590E-14
 -1      3027 7.87551E-04-1.44542E-04-4.88853E-16
 -1      3028 7.91399E-04-1.69633E-04-4.79258E-16
 -1      3029 9.05379E-04-1.47940E-04-6.24257E-16
 -1      3030 8.96043E-04 1.00434E-06-6.48488E-16
 -1      3031 7.78195E-04-9.64205E-06-5.12814E-16
 -1      3032 7.78557E-04-3.11218E-05-5.12109E-16
 -1      3033 1.01212E-02-3.07877E-04-4.05538E-14
 -1      3034 8.64889E-04 2.65197E-04-4.84272E-16
 -1      3035 1.00176E-02 3.52275E-04-4.05453E-14
 -1      3036 7.74713E-03-6.82215E-04-2.84411E-14
 -1      3037 9.83082E-04 2.74083E-04-6.23742E-16
 -1      3038 1.07226E-02 8.61702E-05-4.37857E-14
 -1      3039 1.07631E-02 5.36616E-05-4.32835E-14
 -1      3040 1.08601E-02 3.91345E-05-4.40383E-14
 -1      3041 1.42024E-02 2.17271E-04-8.00829E-14
 -1      3042 1.43240E-02 2.38111E-04-8.13071E-14
 -1      3043 1.43213E-02 2.78117E-04-8.13019E-14
 -1      3044 1.04296E-02 1.73801E-04-4.22841E-14
 -1      3045 8.03346E-04-2.02200E-04-4.71194E-16
 -1      3046 8.21730E-04-2.52621E-04-4.50608E-16
 -1      3047 9.52834E-04-2.86628E-04-5.77460E-16
 -1      3048 9.21508E-04-2.09858E-04-6.06327E-16
 -1      3049 9.36172E-03-7.35051E-04-3.73845E-14
 -1      3050 1.01540E-03-2.70599E-04-6.76122E-16
 -1      3051 1.43253E-02 3.12299E-04-8.13587E-14
 -1      3052 1.43227E-02 3.52804E-04-8.13515E-14
 -1      3053 1.42111E-02 3.59612E-04-8.02516E-14
 -1      3054 1.42034E-02 2.90985E-04-8.01388E-14
 -1      3055 7.29323E-03-4.21477E-04-2.67977E-14
 -1      3056 7.14117E-03-3.70703E-04-2.60040E-14
 -1      3057 7.38447E-03-5.00689E-04-2.68132E-14
 -1      3058 6.64652E-03 1.10894E-04-2.55124E-14
 -1      3059 1.43545E-02-3.76358E-04-8.14521E-14
 -1      3060 1.42318E-02-3.53942E-04-8.02127E-14
 -1      3061 8.53040E-03 1.00024E-03-3.29004E-14
 -1      3062 8.62684E-03 1.01092E-03-3.34977E-14
 -1      3063 6.52820E-03-7.90878E-05-2.49773E-14
 -1      3064 6.42463E-03-6.17037E-05-2.44009E-14
 -1      3065 6.56472E-03-1.09795E-04-2.46211E-14
 -1      3066 9.57616E-03 5.98941E-04-3.87349E-14
 -1      3067 8.91031E-03 9.50396E-04-3.52592E-14
 -1      3068 8.68982E-03-1.01114E-03-3.35476E-14
 -1      3069 6.98110E-03 2.52056E-04-2.62710E-14
 -1      3070 1.07985E-02-5.75315E-05-4.32222E-14
 -1      3071 7.35814E-03 4.57554E-04-2.72458E-14
 -1      3072 6.39569E-03 3.35577E-05-2.49464E-14
 -1      3073 6.32149E-03-1.93832E-05-2.46856E-14
 -1      3074 6.86048E-03-2.11933E-04-2.55930E-14
 -1      3075 9.01855E-03-9.16948E-04-3.55365E-14
 -1      3076 8.29070E-03 9.33008E-04-3.15416E-14
 -1      3077 8.45580E-03 9.84901E-04-3.24715E-14
 -1      3078 7.79329E-04-5.27436E-05-5.09982E-16
 -1      3079 7.80535E-04-7.47811E-05-5.06580E-16
 -1      3080 8.99876E-04-9.62866E-05-6.38419E-16
 -1      3081 8.96934E-04-4.71053E-05-6.46306E-16
 -1      3082 8.42372E-03 9.89946E-04-3.22277E-14
 -1      3083 9.71170E-03-5.24596E-04-3.88987E-14
 -1      3084 8.21636E-03 9.18799E-04-3.10463E-14
 -1      3085 9.91603E-03 4.29942E-04-4.05373E-14
 -1      3086 1.01360E-02 3.23225E-04-4.15294E-14
 -1      3087 1.04061E-03 2.41469E-04-7.30685E-16
 -1      3088 1.03409E-03 2.09869E-04-7.47313E-16
 -1      3089 1.01712E-03 6.75329E-05-7.93975E-16
 -1      3090 1.01595E-03 4.08127E-05-7.97851E-16
 -1      3091 1.15880E-03-2.74655E-04-8.74517E-16
 -1      3092 1.30169E-03-2.93859E-04-1.07603E-15
 -1      3093 1.73204E-03-3.35265E-04-1.80917E-15
 -1      3094 1.87572E-03-3.44455E-04-2.09645E-15
 -1      3095 2.01937E-03-3.51789E-04-2.40496E-15
 -1      3096 2.16301E-03-3.57413E-04-2.73449E-15
 -1      3097 1.94044E-03-3.12942E-04-2.27486E-15
 -1      3098 2.30659E-03-3.61587E-04-3.08495E-15
 -1      3099 2.45011E-03-3.64425E-04-3.45604E-15
 -1      3100 2.22827E-03-3.23591E-04-2.93655E-15
 -1      3101 2.59355E-03-3.66135E-04-3.84798E-15
 -1      3102 2.73692E-03-3.66803E-04-4.26003E-15
 -1      3103 2.51588E-03-3.29005E-04-3.68148E-15
 -1      3104 2.88021E-03-3.66591E-04-4.69145E-15
 -1      3105 3.02342E-03-3.65561E-04-5.14308E-15
 -1      3106 2.80308E-03-3.30315E-04-4.50683E-15
 -1      3107 3.16656E-03-3.63840E-04-5.61405E-15
 -1      3108 3.30961E-03-3.61474E-04-6.10390E-15
 -1      3109 3.08973E-03-3.28406E-04-5.41082E-15
 -1      3110 3.45258E-03-3.58562E-04-6.61302E-15
 -1      3111 3.59547E-03-3.55142E-04-7.14126E-15
 -1      3112 3.37575E-03-3.23953E-04-6.39242E-15
 -1      3113 3.73826E-03-3.51304E-04-7.68763E-15
 -1      3114 3.88099E-03-3.47079E-04-8.25276E-15
 -1      3115 3.66103E-03-3.17493E-04-7.44894E-15
 -1      3116 4.02361E-03-3.42560E-04-8.83625E-15
 -1      3117 4.16617E-03-3.37786E-04-9.43707E-15
 -1      3118 3.94550E-03-3.09486E-04-8.58043E-15
 -1      3119 4.30864E-03-3.32863E-04-1.00565E-14
 -1      3120 4.45106E-03-3.27844E-04-1.06930E-14
 -1      3121 4.22908E-03-3.00401E-04-9.78472E-15
 -1      3122 4.59340E-03-3.22867E-04-1.13459E-14
 -1      3123 4.73576E-03-3.18014E-04-1.20179E-14
 -1      3124 4.51172E-03-2.90782E-04-1.10591E-14
 -1      3125 4.87810E-03-3.13460E-04-1.27078E-14
 -1      3126 5.02056E-03-3.09336E-04-1.34134E-14
 -1      3127 4.79347E-03-2.81340E-04-1.24032E-14
 -1      3128 5.16315E-03-3.05864E-04-1.41363E-14
 -1      3129 5.30607E-03-3.03255E-04-1.48771E-14
 -1      3130 5.07459E-03-2.73034E-04-1.38180E-14
 -1      3131 5.44938E-03-3.01774E-04-1.56341E-14
 -1      3132 5.59342E-03-3.01764E-04-1.64093E-14
 -1      3133 5.35566E-03-2.67169E-04-1.53003E-14
 -1      3134 5.73835E-03-3.03514E-04-1.72023E-14
 -1      3135 5.88464E-03-3.07601E-04-1.80106E-14
 -1      3136 5.63794E-03-2.65527E-04-1.68513E-14
 -1      3137 6.03268E-03-3.14307E-04-1.88366E-14
 -1      3138 6.18306E-03-3.24599E-04-1.96814E-14
 -1      3139 5.92372E-03-2.70590E-04-1.84714E-14
 -1      3140 6.33649E-03-3.38719E-04-2.05437E-14
 -1      3141 6.49359E-03-3.58204E-04-2.14228E-14
 -1      3142 6.21693E-03-2.86024E-04-2.01606E-14
 -1      3143 6.65553E-03-3.83267E-04-2.23200E-14
 -1      3144 6.82254E-03-4.16448E-04-2.32349E-14
 -1      3145 6.52355E-03-3.17504E-04-2.19194E-14
 -1      3146 7.09947E-03-4.69703E-04-2.48247E-14
 -1      3147 7.28315E-03-5.27885E-04-2.57865E-14
 -1      3148 7.47258E-03-5.99002E-04-2.67679E-14
 -1      3149 7.81406E-03-7.65592E-04-2.83938E-14
 -1      3150 8.00404E-03-8.50023E-04-2.94203E-14
 -1      3151 8.15415E-03-9.17779E-04-3.02514E-14
 -1      3152 8.33492E-03-9.79911E-04-3.13094E-14
 -1      3153 8.47471E-03-1.01425E-03-3.21656E-14
 -1      3154 8.64807E-03-1.02445E-03-3.32558E-14
 -1      3155 8.78744E-03-1.00758E-03-3.41589E-14
 -1      3156 8.96503E-03-9.60060E-04-3.52812E-14
 -1      3157 9.58074E-03-6.94198E-04-3.90693E-14
 -1      3158 9.77165E-03-6.16487E-04-4.02626E-14
 -1      3159 9.96389E-03-5.45202E-04-4.14758E-14
 -1      3160 1.01459E-02-4.88588E-04-4.27007E-14
 -1      3161 1.03227E-02-4.43144E-04-4.39405E-14
 -1      3162 1.04926E-02-4.06363E-04-4.51928E-14
 -1      3163 1.02863E-02-4.07082E-04-4.33601E-14
 -1      3164 1.06572E-02-3.78193E-04-4.64552E-14
 -1      3165 1.08166E-02-3.56101E-04-4.77282E-14
 -1      3166 1.06223E-02-3.41541E-04-4.58639E-14
 -1      3167 1.09720E-02-3.39877E-04-4.90104E-14
 -1      3168 1.11239E-02-3.27880E-04-5.03007E-14
 -1      3169 1.09346E-02-3.04586E-04-4.84113E-14
 -1      3170 1.12732E-02-3.19831E-04-5.16002E-14
 -1      3171 1.14205E-02-3.14660E-04-5.29078E-14
 -1      3172 1.12317E-02-2.85769E-04-5.09920E-14
 -1      3173 1.15663E-02-3.12064E-04-5.42244E-14
 -1      3174 1.17109E-02-3.11404E-04-5.55490E-14
 -1      3175 1.15199E-02-2.78690E-04-5.36089E-14
 -1      3176 1.18547E-02-3.12377E-04-5.68788E-14
 -1      3177 1.19980E-02-3.14595E-04-5.82204E-14
 -1      3178 1.18036E-02-2.79162E-04-5.62566E-14
 -1      3179 1.21409E-02-3.17783E-04-5.95724E-14
 -1      3180 1.22835E-02-3.21701E-04-6.09337E-14
 -1      3181 1.20855E-02-2.84412E-04-5.89385E-14
 -1      3182 1.24260E-02-3.26121E-04-6.23042E-14
 -1      3183 1.25684E-02-3.30894E-04-6.36818E-14
 -1      3184 1.23669E-02-2.92461E-04-6.16604E-14
 -1      3185 1.27108E-02-3.35843E-04-6.50681E-14
 -1      3186 1.28532E-02-3.40877E-04-6.64604E-14
 -1      3187 1.26487E-02-3.01884E-04-6.44129E-14
 -1      3188 1.29956E-02-3.45868E-04-6.78599E-14
 -1      3189 1.31381E-02-3.50762E-04-6.92678E-14
 -1      3190 1.29311E-02-3.11665E-04-6.71992E-14
 -1      3191 1.32806E-02-3.55471E-04-7.06789E-14
 -1      3192 1.34231E-02-3.59964E-04-7.20943E-14
 -1      3193 1.32141E-02-3.21109E-04-7.00072E-14
 -1      3194 1.35657E-02-3.64182E-04-7.35146E-14
 -1      3195 1.37083E-02-3.68118E-04-7.49381E-14
 -1      3196 1.34978E-02-3.29759E-04-7.28365E-14
 -1      3197 1.38510E-02-3.71739E-04-7.63658E-14
 -1      3198 1.39936E-02-3.75021E-04-7.77977E-14
 -1      3199 1.37820E-02-3.37346E-04-7.56811E-14
 -1      3200 3.25645E-03 3.98429E-04-5.87399E-15
 -1      3201 3.11339E-03 4.00550E-04-5.38737E-15
 -1      3202 2.97034E-03 4.01972E-04-4.92061E-15
 -1      3203 2.82728E-03 4.02639E-04-4.47517E-15
 -1      3204 3.03646E-03 3.64819E-04-5.18930E-15
 -1      3205 3.82884E-03 3.84591E-04-8.02184E-15
 -1      3206 3.68570E-03 3.88729E-04-7.45434E-15
 -1      3207 4.11526E-03 3.75383E-04-9.21665E-15
 -1      3208 3.97201E-03 3.80127E-04-8.60981E-15
 -1      3209 3.89391E-03 3.46566E-04-8.35115E-15
 -1      3210 4.40196E-03 3.65436E-04-1.04890E-14
 -1      3211 4.25855E-03 3.70465E-04-9.84294E-15
 -1      3212 4.17899E-03 3.37413E-04-9.56433E-15
 -1      3213 4.68912E-03 3.55543E-04-1.18368E-14
 -1      3214 4.54545E-03 3.60431E-04-1.11538E-14
 -1      3215 4.46376E-03 3.27642E-04-1.08548E-14
 -1      3216 4.97709E-03 3.46801E-04-1.32562E-14
 -1      3217 4.83296E-03 3.50951E-04-1.25376E-14
 -1      3218 4.74832E-03 3.18016E-04-1.22183E-14
 -1      3219 5.26646E-03 3.40749E-04-1.47440E-14
 -1      3220 5.12153E-03 3.43325E-04-1.39915E-14
 -1      3221 5.03301E-03 3.09578E-04-1.36529E-14
 -1      3222 5.55827E-03 3.39521E-04-1.63035E-14
 -1      3223 5.41195E-03 3.39364E-04-1.55151E-14
 -1      3224 5.31845E-03 3.03778E-04-1.51571E-14
 -1      3225 5.85429E-03 3.46026E-04-1.79311E-14
 -1      3226 5.70560E-03 3.41559E-04-1.71090E-14
 -1      3227 5.60585E-03 3.02609E-04-1.67308E-14
 -1      3228 6.15726E-03 3.64182E-04-1.96290E-14
 -1      3229 6.00470E-03 3.53277E-04-1.87710E-14
 -1      3230 5.89731E-03 3.08799E-04-1.83732E-14
 -1      3231 6.47109E-03 3.99243E-04-2.13881E-14
 -1      3232 6.31260E-03 3.79064E-04-2.05008E-14
 -1      3233 6.19624E-03 3.26173E-04-2.00834E-14
 -1      3234 6.80041E-03 4.57974E-04-2.32102E-14
 -1      3235 6.63370E-03 4.24931E-04-2.22919E-14
 -1      3236 6.50768E-03 3.60301E-04-2.18578E-14
 -1      3237 7.14884E-03 5.48142E-04-2.50831E-14
 -1      3238 6.97253E-03 4.98423E-04-2.41400E-14
 -1      3239 6.83794E-03 4.19277E-04-2.36895E-14
 -1      3240 7.88661E-03 8.25361E-04-2.90127E-14
 -1      3241 7.70184E-03 7.48831E-04-2.80061E-14
 -1      3242 8.22107E-03 9.46844E-04-3.09506E-14
 -1      3243 8.04089E-03 8.80174E-04-2.99084E-14
 -1      3244 8.58417E-03 1.02833E-03-3.32123E-14
 -1      3245 8.41531E-03 1.01063E-03-3.21295E-14
 -1      3246 8.88379E-03 9.87336E-04-3.51861E-14
 -1      3247 8.71244E-03 1.01930E-03-3.40660E-14
 -1      3248 9.20893E-03 8.61771E-04-3.72605E-14
 -1      3249 9.02713E-03 9.32759E-04-3.61057E-14
 -1      3250 9.65104E-03 6.89667E-04-4.01489E-14
 -1      3251 9.46509E-03 7.65823E-04-3.89499E-14
 -1      3252 1.00190E-02 5.58018E-04-4.25897E-14
 -1      3253 9.83735E-03 6.19684E-04-4.13615E-14
 -1      3254 9.78790E-03 5.91532E-04-4.07578E-14
 -1      3255 1.03702E-02 4.61999E-04-4.50831E-14
 -1      3256 1.01974E-02 5.05886E-04-4.38296E-14
 -1      3257 1.01572E-02 4.69379E-04-4.32161E-14
 -1      3258 1.07023E-02 3.97959E-04-4.76263E-14
 -1      3259 1.05388E-02 4.26638E-04-4.63493E-14
 -1      3260 1.05025E-02 3.87971E-04-4.57231E-14
 -1      3261 1.10181E-02 3.58626E-04-5.02112E-14
 -1      3262 1.08620E-02 3.75844E-04-4.89147E-14
 -1      3263 1.08253E-02 3.37643E-04-4.82794E-14
 -1      3264 1.13224E-02 3.36922E-04-5.28332E-14
 -1      3265 1.11714E-02 3.46031E-04-5.15181E-14
 -1      3266 1.11315E-02 3.08831E-04-5.08743E-14
 -1      3267 1.16192E-02 3.27382E-04-5.54801E-14
 -1      3268 1.14715E-02 3.30951E-04-5.41534E-14
 -1      3269 1.14272E-02 2.94414E-04-5.35030E-14
 -1      3270 1.19116E-02 3.25908E-04-5.81472E-14
 -1      3271 1.17658E-02 3.25857E-04-5.68102E-14
 -1      3272 1.17169E-02 2.89540E-04-5.61534E-14
 -1      3273 1.22013E-02 3.29470E-04-6.08384E-14
 -1      3274 1.20566E-02 3.27212E-04-5.94908E-14
 -1      3275 1.20033E-02 2.90815E-04-5.88252E-14
 -1      3276 1.24894E-02 3.35859E-04-6.35599E-14
 -1      3277 1.23455E-02 3.32416E-04-6.21959E-14
 -1      3278 1.22883E-02 2.95802E-04-6.15216E-14
 -1      3279 1.27768E-02 3.43502E-04-6.62998E-14
 -1      3280 1.26332E-02 3.39594E-04-6.49267E-14
 -1      3281 1.25727E-02 3.02745E-04-6.42455E-14
 -1      3282 1.30636E-02 3.51321E-04-6.90645E-14
 -1      3283 1.29202E-02 3.47436E-04-6.76820E-14
 -1      3284 1.28571E-02 3.10401E-04-6.69924E-14
 -1      3285 1.33501E-02 3.58602E-04-7.18370E-14
 -1      3286 1.32069E-02 3.55058E-04-7.04490E-14
 -1      3287 1.31417E-02 3.17918E-04-6.97590E-14
 -1      3288 1.36364E-02 3.64898E-04-7.46225E-14
 -1      3289 1.34932E-02 3.61891E-04-7.32270E-14
 -1      3290 1.34265E-02 3.24733E-04-7.25358E-14
 -1      3291 1.39224E-02 3.69943E-04-7.74193E-14
 -1      3292 1.37794E-02 3.67586E-04-7.60198E-14
 -1      3293 1.37116E-02 3.30501E-04-7.53219E-14
 -1      3294 1.41227E-02 3.61742E-04-7.93824E-14
 -1      3295 1.40109E-02 3.68138E-04-7.82867E-14
 -1      3296 1.39424E-02 3.31201E-04-7.75887E-14
 -1      3297 1.41190E-02 3.27328E-04-7.93267E-14
 -1      3298 1.40855E-02-2.71486E-04-7.87511E-14
 -1      3299 1.40874E-02-2.31728E-04-7.87764E-14
 -1      3300 1.40918E-02-3.75441E-05-7.88539E-14
 -1      3301 1.40912E-02 1.26186E-06-7.88590E-14
 -1      3302 9.79714E-03-5.06709E-04-3.96846E-14
 -1      3303 9.61846E-03-6.16294E-04-3.89171E-14
 -1      3304 1.09836E-02-1.32430E-05-4.43408E-14
 -1      3305 1.09615E-02-2.37442E-05-4.43300E-14
 -1      3306 1.14514E-03 3.08281E-04-8.12271E-16
 -1      3307 1.08262E-03 2.69632E-04-7.63116E-16
 -1      3308 1.20178E-03 2.70642E-04-9.35802E-16
 -1      3309 1.28833E-03 3.29654E-04-1.00694E-15
 -1      3310 6.24789E-03-5.75139E-07-2.41254E-14
 -1      3311 6.26552E-03 8.49501E-06-2.41941E-14
 -1      3312 1.40891E-02-1.92256E-04-7.87997E-14
 -1      3313 1.40904E-02-1.53011E-04-7.88179E-14
 -1      3314 1.39660E-02-2.10021E-04-7.75504E-14
 -1      3315 7.80643E-03 7.12553E-04-2.89736E-14
 -1      3316 7.92081E-03 7.96200E-04-2.93999E-14
 -1      3317 3.54260E-03 3.92451E-04-6.90725E-15
 -1      3318 3.39951E-03 3.95714E-04-6.38016E-15
 -1      3319 3.32263E-03 3.60773E-04-6.16304E-15
 -1      3320 3.60845E-03 3.54520E-04-7.21625E-15
 -1      3321 2.11154E-03 3.90306E-04-2.55922E-15
 -1      3322 1.96825E-03 3.83672E-04-2.23904E-15
 -1      3323 1.02159E-02-2.87480E-04-4.13783E-14
 -1      3324 1.00192E-02-3.76021E-04-4.04805E-14
 -1      3325 9.48955E-03 6.91034E-04-3.87303E-14
 -1      3326 9.67170E-03 5.75600E-04-3.95587E-14
 -1      3327 6.83158E-03 2.11402E-04-2.54555E-14
 -1      3328 6.99203E-03 2.91213E-04-2.58306E-14
 -1      3329 1.44493E-03-3.10209E-04-1.29859E-15
 -1      3330 1.58844E-03-3.23905E-04-1.54312E-15
 -1      3331 1.65275E-03-2.95659E-04-1.69713E-15
 -1      3332 1.03641E-02 2.30143E-04-4.26328E-14
 -1      3333 1.05350E-02 1.66497E-04-4.33850E-14
 -1      3334 7.18956E-03 4.00292E-04-2.63456E-14
 -1      3335 7.37468E-03 5.09225E-04-2.69338E-14
 -1      3336 1.06045E-02-1.41346E-04-4.31465E-14
 -1      3337 1.04390E-02-2.00686E-04-4.24496E-14
 -1      3338 1.08981E-02-4.90976E-05-4.42922E-14
 -1      3339 1.07852E-02-8.24918E-05-4.39014E-14
 -1      3340 7.66306E-03 6.57911E-04-2.81790E-14
 -1      3341 6.31730E-03-2.97275E-05-2.41895E-14
 -1      3342 6.26446E-03-1.41574E-05-2.41237E-14
 -1      3343 6.31357E-03 2.68065E-05-2.42341E-14
 -1      3344 6.40121E-03 5.11884E-05-2.44216E-14
 -1      3345 6.53711E-03 9.73381E-05-2.47086E-14
 -1      3346 6.67964E-03 1.47122E-04-2.50820E-14
 -1      3347 6.69517E-03 1.87379E-04-2.46495E-14
 -1      3348 9.14387E-03-8.80884E-04-3.63775E-14
 -1      3349 1.40913E-02-1.14296E-04-7.88326E-14
 -1      3350 1.40918E-02-7.60371E-05-7.88444E-14
 -1      3351 1.39703E-02-5.58103E-05-7.76174E-14
 -1      3352 1.39691E-02-1.32389E-04-7.75911E-14
 -1      3353 1.09589E-02 1.08376E-05-4.44141E-14
 -1      3354 1.09891E-02-1.24451E-06-4.44625E-14
 -1      3355 9.99925E-04-2.31419E-04-6.90366E-16
 -1      3356 1.07909E-03-2.53099E-04-7.79812E-16
 -1      3357 9.86803E-04-1.94490E-04-7.00544E-16
 -1      3358 6.88544E-03-2.55382E-04-2.51570E-14
 -1      3359 6.72342E-03-1.83053E-04-2.47705E-14
 -1      3360 9.33386E-03-7.97223E-04-3.75338E-14
 -1      3361 7.59017E-03 6.65464E-04-2.75969E-14
 -1      3362 7.53400E-03 6.86352E-04-2.70936E-14
 -1      3363 7.35030E-03 6.18940E-04-2.61187E-14
 -1      3364 7.48842E-03 5.87878E-04-2.72683E-14
 -1      3365 9.46814E-03-7.04747E-04-3.81527E-14
 -1      3366 1.01535E-03 1.43096E-05-7.99843E-16
 -1      3367 1.01531E-03-1.20880E-05-8.00182E-16
 -1      3368 1.13598E-03 2.98232E-05-9.66485E-16
 -1      3369 1.15356E-03 2.09833E-04-9.15812E-16
 -1      3370 1.02881E-03 1.79633E-04-7.60974E-16
 -1      3371 1.02467E-03 1.50487E-04-7.72182E-16
 -1      3372 6.24998E-03 2.15012E-05-2.36772E-14
 -1      3373 1.36585E-03-2.70102E-04-1.20474E-15
 -1      3374 1.06656E-02 1.29730E-04-4.41414E-14
 -1      3375 1.07853E-02 1.03472E-04-4.49011E-14
 -1      3376 1.06172E-02 1.79165E-04-4.44956E-14
 -1      3377 1.40812E-02 1.96615E-04-7.88614E-14
 -1      3378 1.40782E-02 2.36040E-04-7.88584E-14
 -1      3379 6.94871E-03-3.80698E-04-2.43971E-14
 -1      3380 7.62900E-03-6.59813E-04-2.75760E-14
 -1      3381 7.31632E-03 5.29483E-04-2.63637E-14
 -1      3382 9.91632E-03-5.20246E-04-4.09040E-14
 -1      3383 7.21318E-03 5.26277E-04-2.56506E-14
 -1      3384 1.88863E-03 3.44145E-04-2.11727E-15
 -1      3385 1.82491E-03 3.75140E-04-1.94060E-15
 -1      3386 1.68151E-03 3.64549E-04-1.66371E-15
 -1      3387 2.25478E-03 3.95341E-04-2.90047E-15
 -1      3388 2.17597E-03 3.56869E-04-2.76047E-15
 -1      3389 2.39796E-03 3.98905E-04-3.26278E-15
 -1      3390 6.61029E-03-1.88591E-04-2.37709E-14
 -1      3391 6.59377E-03-1.47395E-04-2.41962E-14
 -1      3392 6.47408E-03-1.21828E-04-2.36290E-14
 -1      3393 9.33407E-03 7.73701E-04-3.78452E-14
 -1      3394 2.74994E-03 3.66063E-04-4.29688E-15
 -1      3395 2.68420E-03 4.02417E-04-4.05043E-15
 -1      3396 2.54110E-03 4.01231E-04-3.64601E-15
 -1      3397 1.09699E-02-4.14384E-05-4.50180E-14
 -1      3398 1.07412E-02-1.18712E-04-4.42175E-14
 -1      3399 8.34650E-03 9.88114E-04-3.17078E-14
 -1      3400 9.91349E-03-4.73853E-04-4.04991E-14
 -1      3401 1.09496E-02 2.86825E-05-4.49230E-14
 -1      3402 1.10298E-02 2.24368E-05-4.58126E-14
 -1      3403 1.09351E-02 5.17247E-05-4.54316E-14
 -1      3404 1.40660E-02-3.17324E-04-7.85448E-14
 -1      3405 1.39442E-02-2.94827E-04-7.73187E-14
 -1      3406 1.40865E-02 1.17887E-04-7.88667E-14
 -1      3407 1.40840E-02 1.57138E-04-7.88630E-14
 -1      3408 1.39604E-02 1.75723E-04-7.76426E-14
 -1      3409 1.41355E-02-3.51383E-04-7.92367E-14
 -1      3410 1.55655E-03 3.57230E-04-1.43502E-15
 -1      3411 1.41314E-03 3.41842E-04-1.19907E-15
 -1      3412 1.36941E-03 3.11904E-04-1.16023E-15
 -1      3413 1.61964E-03 3.29379E-04-1.58841E-15
 -1      3414 1.02703E-02 2.99448E-04-4.26244E-14
 -1      3415 9.78458E-04-1.37439E-04-7.21320E-16
 -1      3416 9.82127E-04-1.65458E-04-7.11955E-16
 -1      3417 1.05957E-03-1.83394E-04-8.05115E-16
 -1      3418 1.40901E-02 4.00014E-05-7.88622E-14
 -1      3419 1.40886E-02 7.89213E-05-7.88651E-14
 -1      3420 1.39658E-02 9.78341E-05-7.76410E-14
 -1      3421 1.39692E-02 2.07628E-05-7.76337E-14
 -1      3422 1.10304E-02-6.62632E-06-4.51785E-14
 -1      3423 6.35122E-03-7.06681E-05-2.34931E-14
 -1      3424 6.33379E-03-4.79269E-05-2.38407E-14
 -1      3425 6.25351E-03-3.97274E-05-2.32876E-14
 -1      3426 7.02497E-03 3.49394E-04-2.55264E-14
 -1      3427 1.14369E-03-2.33936E-04-8.88788E-16
 -1      3428 6.21916E-03-8.26125E-06-2.36362E-14
 -1      3429 1.03482E-02-2.58630E-04-4.23754E-14
 -1      3430 9.81151E-03 5.32672E-04-4.05298E-14
 -1      3431 9.73479E-04-8.37503E-05-7.34357E-16
 -1      3432 9.75604E-04-1.10261E-04-7.28733E-16
 -1      3433 1.05198E-03-1.24842E-04-8.24671E-16
 -1      3434 1.02139E-03 1.22149E-04-7.81452E-16
 -1      3435 1.01893E-03 9.46044E-05-7.88689E-16
 -1      3436 1.13866E-03 8.76379E-05-9.58055E-16
 -1      3437 1.14428E-03 1.47222E-04-9.41602E-16
 -1      3438 6.42100E-03 8.07708E-05-2.39989E-14
 -1      3439 6.98106E-03-3.25664E-04-2.51724E-14
 -1      3440 6.30788E-03 6.77577E-05-2.32575E-14
 -1      3441 6.42613E-03 1.10299E-04-2.35368E-14
 -1      3442 6.72408E-03-2.85408E-04-2.35822E-14
 -1      3443 2.15025E-03-2.85750E-04-2.78892E-15
 -1      3444 2.29434E-03-2.89365E-04-3.14160E-15
 -1      3445 2.43836E-03-2.91871E-04-3.51511E-15
 -1      3446 2.58228E-03-2.93350E-04-3.90917E-15
 -1      3447 2.36112E-03-2.54804E-04-3.35005E-15
 -1      3448 2.72604E-03-2.93959E-04-4.32213E-15
 -1      3449 2.86964E-03-2.93758E-04-4.75561E-15
 -1      3450 2.64922E-03-2.57547E-04-4.13866E-15
 -1      3451 3.01304E-03-2.92873E-04-5.20853E-15
 -1      3452 3.15621E-03-2.91344E-04-5.68046E-15
 -1      3453 2.93656E-03-2.57225E-04-5.00649E-15
 -1      3454 3.29914E-03-2.89276E-04-6.17223E-15
 -1      3455 3.44182E-03-2.86693E-04-6.68249E-15
 -1      3456 3.22285E-03-2.54473E-04-5.95262E-15
 -1      3457 3.58420E-03-2.83686E-04-7.21149E-15
 -1      3458 3.72629E-03-2.80271E-04-7.75874E-15
 -1      3459 3.50783E-03-2.49788E-04-6.97406E-15
 -1      3460 3.86803E-03-2.76536E-04-8.32497E-15
 -1      3461 4.00945E-03-2.72493E-04-8.91007E-15
 -1      3462 3.79127E-03-2.43572E-04-8.07045E-15
 -1      3463 4.15048E-03-2.68237E-04-9.51260E-15
 -1      3464 4.29115E-03-2.63782E-04-1.01334E-14
 -1      3465 4.07290E-03-2.36186E-04-9.24091E-15
 -1      3466 4.43140E-03-2.59241E-04-1.07711E-14
 -1      3467 4.57126E-03-2.54637E-04-1.14260E-14
 -1      3468 4.35249E-03-2.28007E-04-1.04829E-14
 -1      3469 4.71069E-03-2.50108E-04-1.20992E-14
 -1      3470 4.84976E-03-2.45699E-04-1.27904E-14
 -1      3471 4.62982E-03-2.19475E-04-1.17958E-14
 -1      3472 4.98841E-03-2.41574E-04-1.34980E-14
 -1      3473 5.12680E-03-2.37816E-04-1.42228E-14
 -1      3474 4.90476E-03-2.11140E-04-1.31780E-14
 -1      3475 5.26489E-03-2.34612E-04-1.49658E-14
 -1      3476 5.40294E-03-2.32113E-04-1.57254E-14
 -1      3477 5.17735E-03-2.03708E-04-1.46302E-14
 -1      3478 5.54097E-03-2.30517E-04-1.65013E-14
 -1      3479 5.67942E-03-2.30106E-04-1.72957E-14
 -1      3480 5.44802E-03-1.98075E-04-1.61522E-14
 -1      3481 5.81839E-03-2.31053E-04-1.81059E-14
 -1      3482 5.95863E-03-2.33937E-04-1.89329E-14
 -1      3483 5.71787E-03-1.95412E-04-1.77406E-14
 -1      3484 6.10042E-03-2.38874E-04-1.97782E-14
 -1      3485 6.24492E-03-2.47041E-04-2.06409E-14
 -1      3486 5.98922E-03-1.97436E-04-1.93969E-14
 -1      3487 6.39266E-03-2.58569E-04-2.15194E-14
 -1      3488 6.54529E-03-2.75414E-04-2.24157E-14
 -1      3489 6.26661E-03-2.07307E-04-2.11211E-14
 -1      3490 1.38428E-02-2.27433E-04-7.63037E-14
 -1      3491 1.38451E-02-1.88454E-04-7.63294E-14
 -1      3492 1.05998E-02-2.98825E-04-4.52771E-14
 -1      3493 1.07561E-02-2.78577E-04-4.65408E-14
 -1      3494 1.09069E-02-2.64824E-04-4.78138E-14
 -1      3495 1.10537E-02-2.54842E-04-4.90962E-14
 -1      3496 1.08859E-02-2.23838E-04-4.72179E-14
 -1      3497 1.11973E-02-2.48549E-04-5.03883E-14
 -1      3498 1.13389E-02-2.44638E-04-5.16878E-14
 -1      3499 1.11677E-02-2.11182E-04-4.97843E-14
 -1      3500 1.14790E-02-2.42952E-04-5.29965E-14
 -1      3501 1.16182E-02-2.42797E-04-5.43133E-14
 -1      3502 1.14414E-02-2.07793E-04-5.23839E-14
 -1      3503 1.17567E-02-2.44006E-04-5.56384E-14
 -1      3504 1.18951E-02-2.46229E-04-5.69704E-14
 -1      3505 1.17123E-02-2.09795E-04-5.50179E-14
 -1      3506 1.20334E-02-2.49268E-04-5.83105E-14
 -1      3507 1.21719E-02-2.52932E-04-5.96613E-14
 -1      3508 1.19833E-02-2.15212E-04-5.76848E-14
 -1      3509 1.23105E-02-2.57032E-04-6.10192E-14
 -1      3510 1.24495E-02-2.61462E-04-6.23876E-14
 -1      3511 1.22556E-02-2.22696E-04-6.03804E-14
 -1      3512 1.25887E-02-2.66060E-04-6.37647E-14
 -1      3513 1.27283E-02-2.70767E-04-6.51488E-14
 -1      3514 1.25299E-02-2.31256E-04-6.31144E-14
 -1      3515 1.28682E-02-2.75452E-04-6.65391E-14
 -1      3516 1.30084E-02-2.80086E-04-6.79366E-14
 -1      3517 1.28063E-02-2.40140E-04-6.58814E-14
 -1      3518 1.31490E-02-2.84573E-04-6.93404E-14
 -1      3519 1.32898E-02-2.88897E-04-7.07489E-14
 -1      3520 1.30846E-02-2.48800E-04-6.86743E-14
 -1      3521 1.34309E-02-2.92995E-04-7.21617E-14
 -1      3522 1.35723E-02-2.96858E-04-7.35797E-14
 -1      3523 1.33646E-02-2.56853E-04-7.14869E-14
 -1      3524 1.38025E-02-2.91759E-04-7.58923E-14
 -1      3525 1.06372E-02 3.18621E-04-4.63660E-14
 -1      3526 1.04740E-02 3.46772E-04-4.50995E-14
 -1      3527 4.24178E-03 3.00109E-04-9.91287E-15
 -1      3528 4.10016E-03 3.04687E-04-9.28744E-15
 -1      3529 3.95832E-03 3.09045E-04-8.68117E-15
 -1      3530 3.81623E-03 3.13156E-04-8.09418E-15
 -1      3531 4.02212E-03 2.72120E-04-9.01140E-15
 -1      3532 4.80591E-03 2.81417E-04-1.26002E-14
 -1      3533 4.66518E-03 2.85973E-04-1.19011E-14
 -1      3534 5.08691E-03 2.73329E-04-1.40491E-14
 -1      3535 4.94643E-03 2.77164E-04-1.33160E-14
 -1      3536 4.86198E-03 2.45798E-04-1.29811E-14
 -1      3537 5.36795E-03 2.67712E-04-1.55688E-14
 -1      3538 5.22734E-03 2.70114E-04-1.48001E-14
 -1      3539 5.13892E-03 2.38074E-04-1.44460E-14
 -1      3540 5.65032E-03 2.66359E-04-1.71575E-14
 -1      3541 5.50882E-03 2.66350E-04-1.63548E-14
 -1      3542 5.41505E-03 2.32525E-04-1.59803E-14
 -1      3543 5.93636E-03 2.71745E-04-1.88140E-14
 -1      3544 5.79263E-03 2.67960E-04-1.79772E-14
 -1      3545 5.69169E-03 2.30668E-04-1.75834E-14
 -1      3546 6.23006E-03 2.87519E-04-2.05387E-14
 -1      3547 6.08188E-03 2.77892E-04-1.96683E-14
 -1      3548 5.97132E-03 2.34609E-04-1.92550E-14
 -1      3549 6.53760E-03 3.19599E-04-2.23256E-14
 -1      3550 6.38162E-03 3.00764E-04-2.14244E-14
 -1      3551 6.25839E-03 2.47745E-04-2.09937E-14
 -1      3552 6.86714E-03 3.77537E-04-2.41668E-14
 -1      3553 6.69921E-03 3.44037E-04-2.32399E-14
 -1      3554 6.56044E-03 2.76443E-04-2.27912E-14
 -1      3555 1.01797E-02 3.73830E-04-4.25964E-14
 -1      3556 1.03923E-02 2.88052E-04-4.37101E-14
 -1      3557 1.00023E-02 4.63104E-04-4.17516E-14
 -1      3558 1.09473E-02 2.82370E-04-4.89327E-14
 -1      3559 1.07946E-02 2.98127E-04-4.76446E-14
 -1      3560 1.07704E-02 2.56736E-04-4.70082E-14
 -1      3561 1.12425E-02 2.63329E-04-5.15366E-14
 -1      3562 1.10963E-02 2.71325E-04-5.02299E-14
 -1      3563 1.10660E-02 2.33201E-04-4.95855E-14
 -1      3564 1.15292E-02 2.55216E-04-5.41711E-14
 -1      3565 1.13866E-02 2.58260E-04-5.28506E-14
 -1      3566 1.13496E-02 2.22342E-04-5.21984E-14
 -1      3567 1.18118E-02 2.54135E-04-5.68253E-14
 -1      3568 1.16708E-02 2.54008E-04-5.54953E-14
 -1      3569 1.16276E-02 2.19206E-04-5.48372E-14
 -1      3570 1.20927E-02 2.57470E-04-5.95025E-14
 -1      3571 1.19523E-02 2.55383E-04-5.81623E-14
 -1      3572 1.19036E-02 2.20917E-04-5.74980E-14
 -1      3573 1.23734E-02 2.63367E-04-6.22046E-14
 -1      3574 1.22330E-02 2.60185E-04-6.08504E-14
 -1      3575 1.21795E-02 2.25596E-04-6.01790E-14
 -1      3576 1.26545E-02 2.70491E-04-6.49315E-14
 -1      3577 1.25138E-02 2.66833E-04-6.35656E-14
 -1      3578 1.24565E-02 2.31906E-04-6.28861E-14
 -1      3579 1.29364E-02 2.77889E-04-6.76839E-14
 -1      3580 1.27953E-02 2.74193E-04-6.63030E-14
 -1      3581 1.27348E-02 2.38869E-04-6.56179E-14
 -1      3582 1.32191E-02 2.84912E-04-7.04511E-14
 -1      3583 1.30776E-02 2.81470E-04-6.90677E-14
 -1      3584 1.30145E-02 2.45779E-04-6.83730E-14
 -1      3585 1.35024E-02 2.91126E-04-7.32325E-14
 -1      3586 1.33607E-02 2.88133E-04-7.18406E-14
 -1      3587 1.32955E-02 2.52156E-04-7.11459E-14
 -1      3588 1.37864E-02 2.96275E-04-7.60243E-14
 -1      3589 1.36443E-02 2.93843E-04-7.46264E-14
 -1      3590 1.35777E-02 2.57671E-04-7.39312E-14
 -1      3591 1.40967E-02 2.64503E-04-7.90636E-14
 -1      3592 1.41003E-02 2.98458E-04-7.91242E-14
 -1      3593 1.40122E-02 3.00472E-04-7.82546E-14
 -1      3594 1.39755E-02 2.43357E-04-7.78459E-14
 -1      3595 1.08721E-02-1.08971E-04-4.54587E-14
 -1      3596 1.07080E-02-1.63520E-04-4.46915E-14
 -1      3597 1.10472E-02-3.13890E-05-4.58292E-14
 -1      3598 1.09961E-02-5.67864E-05-4.57915E-14
 -1      3599 4.52429E-03 2.90663E-04-1.12199E-14
 -1      3600 4.38314E-03 2.95421E-04-1.05568E-14
 -1      3601 4.30368E-03 2.63556E-04-1.02616E-14
 -1      3602 4.58364E-03 2.54571E-04-1.15853E-14
 -1      3603 3.10274E-03 3.27680E-04-5.45953E-15
 -1      3604 2.95950E-03 3.28984E-04-4.99199E-15
 -1      3605 7.10915E-03 4.57006E-04-2.53278E-14
 -1      3606 1.32648E-03 2.82736E-04-1.12006E-15
 -1      3607 1.28434E-03 2.54331E-04-1.07930E-15
 -1      3608 1.45151E-03 2.92501E-04-1.32174E-15
 -1      3609 1.86207E-03-2.74519E-04-2.14541E-15
 -1      3610 2.00614E-03-2.80837E-04-2.45682E-15
 -1      3611 2.07267E-03-2.48184E-04-2.64175E-15
 -1      3612 9.93415E-04-3.52301E-05-7.69811E-16
 -1      3613 9.94426E-04-6.13531E-05-7.67114E-16
 -1      3614 1.07023E-03-7.29596E-05-8.66887E-16
 -1      3615 1.11331E-03-2.41063E-05-9.35192E-16
 -1      3616 1.17200E-03-2.16650E-04-9.43581E-16
 -1      3617 1.25105E-03-2.35432E-04-1.04966E-15
 -1      3618 1.39381E-03-2.50120E-04-1.26980E-15
 -1      3619 1.16667E-03-1.84510E-04-9.57581E-16
 -1      3620 1.57440E-03-2.56918E-04-1.58594E-15
 -1      3621 1.71813E-03-2.66588E-04-1.85514E-15
 -1      3622 1.78441E-03-2.36695E-04-2.01683E-15
 -1      3623 1.01078E-02-4.04710E-04-4.17149E-14
 -1      3624 6.17434E-03 1.50207E-05-2.29840E-14
 -1      3625 6.21322E-03 3.37549E-05-2.30218E-14
 -1      3626 1.10826E-02-2.45660E-06-4.60802E-14
 -1      3627 1.10748E-02-1.56826E-05-4.59558E-14
 -1      3628 1.11162E-02-2.72702E-05-4.67368E-14
 -1      3629 6.78334E-03 2.75981E-04-2.43630E-14
 -1      3630 6.95507E-03 3.66826E-04-2.48630E-14
 -1      3631 6.53569E-03 1.57175E-04-2.37690E-14
 -1      3632 6.66576E-03 2.11163E-04-2.41327E-14
 -1      3633 6.61230E-03 2.37933E-04-2.34855E-14
 -1      3634 6.40059E-03 1.34504E-04-2.30307E-14
 -1      3635 6.17610E-03-1.58466E-05-2.29822E-14
 -1      3636 6.16270E-03-1.29260E-06-2.29839E-14
 -1      3637 6.10849E-03 8.02682E-06-2.23396E-14
 -1      3638 1.37344E-02-2.55425E-04-7.52091E-14
 -1      3639 1.01426E-02 4.37645E-04-4.28280E-14
 -1      3640 1.03110E-02-3.08273E-04-4.26599E-14
 -1      3641 1.02993E-02-3.60833E-04-4.30768E-14
 -1      3642 1.04692E-02-3.25096E-04-4.43213E-14
 -1      3643 1.05173E-02-2.32083E-04-4.37466E-14
 -1      3644 1.27777E-03 2.19984E-04-1.09786E-15
 -1      3645 6.57435E-03-2.17921E-04-2.31610E-14
 -1      3646 1.05445E-02 2.48205E-04-4.47336E-14
 -1      3647 1.06739E-02 2.09180E-04-4.54990E-14
 -1      3648 1.03196E-02 3.91364E-04-4.40731E-14
 -1      3649 1.38489E-02-7.38953E-05-7.63849E-14
 -1      3650 1.38490E-02-3.60496E-05-7.63957E-14
 -1      3651 1.95342E-03 3.12536E-04-2.29767E-15
 -1      3652 1.80951E-03 3.04983E-04-1.99612E-15
 -1      3653 2.46310E-03 3.63744E-04-3.48712E-15
 -1      3654 6.20316E-03 5.55274E-05-2.25709E-14
 -1      3655 3.24582E-03 3.25771E-04-5.94656E-15
 -1      3656 3.16916E-03 2.90660E-04-5.73066E-15
 -1      3657 3.38872E-03 3.23291E-04-6.45286E-15
 -1      3658 2.88262E-03 2.93036E-04-4.79621E-15
 -1      3659 2.81610E-03 3.29569E-04-4.54535E-15
 -1      3660 2.67256E-03 3.29385E-04-4.11952E-15
 -1      3661 3.73908E-03 2.79769E-04-7.83843E-15
 -1      3662 3.67394E-03 3.16926E-04-7.52676E-15
 -1      3663 3.53142E-03 3.20334E-04-6.97967E-15
 -1      3664 1.06164E-02-2.54868E-04-4.49886E-14
 -1      3665 1.09012E-02 8.37828E-05-4.57931E-14
 -1      3666 1.10070E-02 7.03481E-05-4.66914E-14
 -1      3667 1.08670E-02 1.21808E-04-4.61537E-14
 -1      3668 1.38384E-02 2.37718E-04-7.64815E-14
 -1      3669 1.38564E-02 2.66039E-04-7.66860E-14
 -1      3670 1.39241E-02 3.02343E-04-7.73853E-14
 -1      3671 1.38455E-02 1.59330E-04-7.64823E-14
 -1      3672 1.38421E-02 1.98357E-04-7.64829E-14
 -1      3673 1.37234E-02 2.20660E-04-7.53269E-14
 -1      3674 1.09826E-02-8.73298E-05-4.62740E-14
 -1      3675 1.09691E-02-1.23835E-04-4.67560E-14
 -1      3676 1.10808E-02-7.19002E-05-4.70941E-14
 -1      3677 1.06774E-02-2.06122E-04-4.49833E-14
 -1      3678 1.26159E-03 1.09271E-04-1.13717E-15
 -1      3679 1.25936E-03 7.80936E-05-1.14406E-15
 -1      3680 1.38485E-02 1.98976E-06-7.64058E-14
 -1      3681 1.38473E-02 4.00790E-05-7.64130E-14
 -1      3682 1.37280E-02-1.64157E-05-7.51786E-14
 -1      3683 2.24127E-03 3.22984E-04-2.96409E-15
 -1      3684 2.09735E-03 3.18498E-04-2.62022E-15
 -1      3685 2.01911E-03 2.80356E-04-2.48114E-15
 -1      3686 6.36561E-03-1.00722E-04-2.30781E-14
 -1      3687 6.26613E-03-8.57699E-05-2.25328E-14
 -1      3688 6.37448E-03-1.34786E-04-2.26632E-14
 -1      3689 1.45962E-03-2.24716E-04-1.40469E-15
 -1      3690 1.25789E-03 4.72013E-05-1.14858E-15
 -1      3691 1.25714E-03 1.65398E-05-1.15125E-15
 -1      3692 1.38094E-03 6.61818E-05-1.34579E-15
 -1      3693 1.11134E-02 2.97777E-05-4.71133E-14
 -1      3694 1.11023E-02 1.22973E-05-4.65960E-14
 -1      3695 1.11668E-02 2.96158E-06-4.73840E-14
 -1      3696 1.18556E-03-1.55037E-04-1.00268E-15
 -1      3697 1.29762E-03-1.85209E-04-1.15957E-15
 -1      3698 1.18217E-03-1.24257E-04-1.01193E-15
 -1      3699 6.16690E-03-2.99203E-05-2.26424E-14
 -1      3700 6.08846E-03-2.20278E-05-2.20037E-14
 -1      3701 6.16269E-03-4.66755E-05-2.23025E-14
 -1      3702 1.37246E-02-1.67447E-04-7.51093E-14
 -1      3703 1.38469E-02-1.50117E-04-7.63504E-14
 -1      3704 1.38482E-02-1.11995E-04-7.63686E-14
 -1      3705 1.04667E-02 3.12697E-04-4.47048E-14
 -1      3706 1.07860E-02 2.17326E-04-4.67037E-14
 -1      3707 1.08413E-02 1.57607E-04-4.64635E-14
 -1      3708 1.09629E-02 1.35480E-04-4.73673E-14
 -1      3709 1.09310E-02 2.06014E-04-4.79865E-14
 -1      3710 2.57275E-03-2.21156E-04-3.95632E-15
 -1      3711 2.71671E-03-2.21637E-04-4.37091E-15
 -1      3712 2.86043E-03-2.21497E-04-4.80560E-15
 -1      3713 3.00387E-03-2.20768E-04-5.26006E-15
 -1      3714 2.78472E-03-1.85700E-04-4.60561E-15
 -1      3715 3.14697E-03-2.19549E-04-5.73374E-15
 -1      3716 3.28970E-03-2.17856E-04-6.22645E-15
 -1      3717 3.07154E-03-1.84473E-04-5.51557E-15
 -1      3718 3.43202E-03-2.15776E-04-6.73725E-15
 -1      3719 3.57389E-03-2.13311E-04-7.26689E-15
 -1      3720 3.35678E-03-1.81577E-04-6.50098E-15
 -1      3721 3.71526E-03-2.10545E-04-7.81601E-15
 -1      3722 3.85612E-03-2.07472E-04-8.38298E-15
 -1      3723 3.64002E-03-1.77342E-04-7.56151E-15
 -1      3724 3.99638E-03-2.04177E-04-8.96883E-15
 -1      3725 4.13605E-03-2.00648E-04-9.57317E-15
 -1      3726 3.92090E-03-1.72046E-04-8.69705E-15
 -1      3727 4.27504E-03-1.96983E-04-1.01948E-14
 -1      3728 4.41336E-03-1.93164E-04-1.08346E-14
 -1      3729 4.19901E-03-1.65948E-04-9.90682E-15
 -1      3730 4.55091E-03-1.89305E-04-1.14917E-14
 -1      3731 4.68772E-03-1.85391E-04-1.21670E-14
 -1      3732 4.47390E-03-1.59311E-04-1.11882E-14
 -1      3733 4.82369E-03-1.81554E-04-1.28594E-14
 -1      3734 4.95887E-03-1.77782E-04-1.35687E-14
 -1      3735 4.74515E-03-1.52436E-04-1.25397E-14
 -1      3736 5.09316E-03-1.74226E-04-1.42955E-14
 -1      3737 5.22669E-03-1.70882E-04-1.50402E-14
 -1      3738 5.01232E-03-1.45667E-04-1.39611E-14
 -1      3739 5.35933E-03-1.67915E-04-1.58018E-14
 -1      3740 5.49135E-03-1.65345E-04-1.65805E-14
 -1      3741 5.27505E-03-1.39377E-04-1.54514E-14
 -1      3742 5.62260E-03-1.63337E-04-1.73748E-14
 -1      3743 5.75363E-03-1.61988E-04-1.81865E-14
 -1      3744 5.53314E-03-1.33951E-04-1.70093E-14
 -1      3745 5.88421E-03-1.61417E-04-1.90165E-14
 -1      3746 6.01538E-03-1.61994E-04-1.98620E-14
 -1      3747 5.78680E-03-1.29766E-04-1.86355E-14
 -1      3748 1.36141E-02-2.33226E-04-7.39939E-14
 -1      3749 2.28434E-03-2.17933E-04-3.18502E-15
 -1      3750 2.42861E-03-2.19938E-04-3.56052E-15
 -1      3751 2.49673E-03-1.84836E-04-3.77381E-15
 -1      3752 1.37277E-02-9.17488E-05-7.51497E-14
 -1      3753 1.73107E-03 2.66362E-04-1.87520E-15
 -1      3754 1.66571E-03 2.95572E-04-1.71533E-15
 -1      3755 2.52890E-03 3.28291E-04-3.71365E-15
 -1      3756 2.38513E-03 3.26217E-04-3.32855E-15
 -1      3757 2.59527E-03 2.92639E-04-3.94261E-15
 -1      3758 1.11433E-02-1.74706E-04-4.91777E-14
 -1      3759 1.12756E-02-1.73667E-04-5.04707E-14
 -1      3760 1.14070E-02-1.73813E-04-5.17730E-14
 -1      3761 1.15385E-02-1.74932E-04-5.30815E-14
 -1      3762 1.13756E-02-1.40945E-04-5.11599E-14
 -1      3763 1.16700E-02-1.76850E-04-5.43965E-14
 -1      3764 1.18021E-02-1.79402E-04-5.57219E-14
 -1      3765 1.16295E-02-1.45186E-04-5.37772E-14
 -1      3766 1.19346E-02-1.82432E-04-5.70550E-14
 -1      3767 1.20679E-02-1.85878E-04-5.83940E-14
 -1      3768 1.18871E-02-1.50951E-04-5.64243E-14
 -1      3769 1.22018E-02-1.89580E-04-5.97446E-14
 -1      3770 1.23366E-02-1.93527E-04-6.11015E-14
 -1      3771 1.21489E-02-1.57710E-04-5.91061E-14
 -1      3772 1.24720E-02-1.97568E-04-6.24670E-14
 -1      3773 1.26083E-02-2.01707E-04-6.38430E-14
 -1      3774 1.24148E-02-1.65029E-04-6.18212E-14
 -1      3775 1.27451E-02-2.05816E-04-6.52225E-14
 -1      3776 1.28827E-02-2.09904E-04-6.66108E-14
 -1      3777 1.26845E-02-1.72513E-04-6.45648E-14
 -1      3778 1.30209E-02-2.13870E-04-6.80095E-14
 -1      3779 1.31596E-02-2.17730E-04-6.94106E-14
 -1      3780 1.29575E-02-1.79825E-04-6.73435E-14
 -1      3781 1.32988E-02-2.21406E-04-7.08151E-14
 -1      3782 1.34386E-02-2.24918E-04-7.22236E-14
 -1      3783 1.32334E-02-1.86699E-04-7.01418E-14
 -1      3784 1.12107E-02 1.93853E-04-5.05779E-14
 -1      3785 1.10719E-02 1.98776E-04-4.92773E-14
 -1      3786 1.10806E-02 1.64917E-04-4.89667E-14
 -1      3787 6.45268E-03-1.88120E-04-2.26063E-14
 -1      3788 5.18937E-03 2.03971E-04-1.48425E-14
 -1      3789 5.05336E-03 2.07480E-04-1.40935E-14
 -1      3790 4.91688E-03 2.11284E-04-1.33618E-14
 -1      3791 4.77977E-03 2.15334E-04-1.26477E-14
 -1      3792 4.97078E-03 1.77920E-04-1.37429E-14
 -1      3793 5.73011E-03 1.95930E-04-1.80094E-14
 -1      3794 5.59497E-03 1.96695E-04-1.71920E-14
 -1      3795 6.00190E-03 1.98089E-04-1.96952E-14
 -1      3796 5.86539E-03 1.96161E-04-1.88441E-14
 -1      3797 5.76562E-03 1.62143E-04-1.84348E-14
 -1      3798 6.27990E-03 2.07847E-04-2.14466E-14
 -1      3799 6.13947E-03 2.01552E-04-2.05638E-14
 -1      3800 6.02786E-03 1.62025E-04-2.01355E-14
 -1      3801 6.46174E-03 2.21296E-04-2.25706E-14
 -1      3802 6.04635E-03-2.52165E-07-2.17289E-14
 -1      3803 6.05405E-03 1.79183E-05-2.17278E-14
 -1      3804 6.08628E-03 4.77014E-05-2.16980E-14
 -1      3805 6.16891E-03 8.14350E-05-2.19247E-14
 -1      3806 1.14834E-02 1.89743E-04-5.32002E-14
 -1      3807 1.13474E-02 1.91070E-04-5.18853E-14
 -1      3808 1.13466E-02 1.60673E-04-5.15720E-14
 -1      3809 1.17540E-02 1.90492E-04-5.58473E-14
 -1      3810 1.16187E-02 1.89648E-04-5.45216E-14
 -1      3811 1.16106E-02 1.61028E-04-5.42023E-14
 -1      3812 1.20250E-02 1.94249E-04-5.85139E-14
 -1      3813 1.18893E-02 1.92069E-04-5.71779E-14
 -1      3814 1.18754E-02 1.64139E-04-5.68566E-14
 -1      3815 1.22975E-02 1.99777E-04-6.12048E-14
 -1      3816 1.21610E-02 1.96838E-04-5.98567E-14
 -1      3817 1.21426E-02 1.68935E-04-5.95308E-14
 -1      3818 1.25719E-02 2.06165E-04-6.39203E-14
 -1      3819 1.24344E-02 2.02894E-04-6.25584E-14
 -1      3820 1.24125E-02 1.74653E-04-6.22303E-14
 -1      3821 1.28485E-02 2.12727E-04-6.66607E-14
 -1      3822 1.27099E-02 2.09445E-04-6.52876E-14
 -1      3823 1.26853E-02 1.80695E-04-6.49552E-14
 -1      3824 1.31270E-02 2.18957E-04-6.94228E-14
 -1      3825 1.29875E-02 2.15895E-04-6.80391E-14
 -1      3826 1.29606E-02 1.86592E-04-6.77054E-14
 -1      3827 1.34071E-02 2.24540E-04-7.22028E-14
 -1      3828 1.32669E-02 2.21849E-04-7.08117E-14
 -1      3829 1.32383E-02 1.92023E-04-7.04740E-14
 -1      3830 1.35825E-02 2.18558E-04-7.39296E-14
 -1      3831 1.54028E-03 2.89509E-04-1.48407E-15
 -1      3832 1.26468E-03 1.40974E-04-1.12773E-15
 -1      3833 1.38580E-03 1.32127E-04-1.33042E-15
 -1      3834 1.26864E-03 1.73316E-04-1.11596E-15
 -1      3835 1.07946E-02-1.91280E-04-4.59444E-14
 -1      3836 1.99572E-03-2.11086E-04-2.49555E-15
 -1      3837 2.14002E-03-2.15005E-04-2.83020E-15
 -1      3838 2.20810E-03-1.81348E-04-3.02141E-15
 -1      3839 1.49818E-03 2.61029E-04-1.43555E-15
 -1      3840 6.33889E-03-1.63311E-04-2.20680E-14
 -1      3841 1.20251E-03-9.83025E-05-1.05207E-15
 -1      3842 1.33646E-03-1.25710E-04-1.25402E-15
 -1      3843 1.22345E-03-7.20786E-05-1.09167E-15
 -1      3844 1.47775E-03-1.90708E-04-1.46126E-15
 -1      3845 1.70761E-03-1.99726E-04-1.88928E-15
 -1      3846 1.85156E-03-2.06021E-04-2.18204E-15
 -1      3847 1.91948E-03-1.74585E-04-2.35067E-15
 -1      3848 1.09335E-02-1.83056E-04-4.72136E-14
 -1      3849 4.08549E-03 2.35890E-04-9.34249E-15
 -1      3850 3.94497E-03 2.39648E-04-8.73698E-15
 -1      3851 1.11880E-02-2.17028E-05-4.76674E-14
 -1      3852 1.11627E-02-3.90660E-05-4.75384E-14
 -1      3853 5.46006E-03 1.98454E-04-1.63918E-14
 -1      3854 5.32484E-03 2.00923E-04-1.56082E-14
 -1      3855 5.50313E-03 1.65511E-04-1.68019E-14
 -1      3856 1.39827E-03 2.14067E-04-1.30079E-15
 -1      3857 1.38454E-02 7.82598E-05-7.64187E-14
 -1      3858 1.38430E-02 1.16629E-04-7.64235E-14
 -1      3859 1.37254E-02 5.89985E-05-7.51968E-14
 -1      3860 1.44053E-03-1.44476E-04-1.42218E-15
 -1      3861 1.60194E-03-1.80038E-04-1.69644E-15
 -1      3862 1.67002E-03-1.51163E-04-1.84461E-15
 -1      3863 1.46067E-03-1.14941E-04-1.47038E-15
 -1      3864 1.35468E-02-1.97858E-04-7.33121E-14
 -1      3865 1.10527E-02-1.41938E-04-4.78884E-14
 -1      3866 6.15235E-03-9.69486E-05-2.14971E-14
 -1      3867 6.15744E-03-6.99518E-05-2.19000E-14
 -1      3868 6.05825E-03-5.80020E-05-2.12733E-14
 -1      3869 6.14694E-03-1.64012E-04-2.07241E-14
 -1      3870 6.28063E-03-1.68342E-04-2.16026E-14
 -1      3871 1.48752E-03 2.10216E-04-1.45969E-15
 -1      3872 1.77471E-03 2.27344E-04-1.99955E-15
 -1      3873 1.63091E-03 2.19587E-04-1.71884E-15
 -1      3874 1.53232E-03 1.74492E-04-1.56570E-15
 -1      3875 2.30733E-03 2.88726E-04-3.17052E-15
 -1      3876 3.45470E-03 2.86085E-04-6.74451E-15
 -1      3877 2.94952E-03 2.56517E-04-5.04891E-15
 -1      3878 2.80598E-03 2.57014E-04-4.60102E-15
 -1      3879 5.23846E-03 1.71054E-04-1.52386E-14
 -1      3880 3.80399E-03 2.43138E-04-8.15048E-15
 -1      3881 3.66253E-03 2.46363E-04-7.58386E-15
 -1      3882 3.86872E-03 2.07117E-04-8.46377E-15
 -1      3883 4.69981E-03 1.85438E-04-1.23156E-14
 -1      3884 4.64210E-03 2.19477E-04-1.19506E-14
 -1      3885 4.50379E-03 2.23696E-04-1.12712E-14
 -1      3886 6.32971E-03 1.69747E-04-2.21232E-14
 -1      3887 6.00278E-03 3.76388E-05-2.10978E-14
 -1      3888 6.01699E-03-1.34210E-05-2.14006E-14
 -1      3889 5.94823E-03-4.32207E-06-2.08023E-14
 -1      3890 5.99374E-03-2.78399E-05-2.10713E-14
 -1      3891 1.36065E-02-1.09104E-04-7.39148E-14
 -1      3892 1.36076E-02-7.17693E-05-7.39363E-14
 -1      3893 1.35525E-02 1.88306E-04-7.35943E-14
 -1      3894 1.37255E-02 1.39095E-04-7.52655E-14
 -1      3895 1.11717E-02-6.40777E-05-4.80277E-14
 -1      3896 1.36078E-02-3.45067E-05-7.39510E-14
 -1      3897 1.36073E-02 2.73758E-06-7.39640E-14
 -1      3898 1.34879E-02-5.21395E-05-7.27256E-14
 -1      3899 4.36493E-03 2.27859E-04-1.06093E-14
 -1      3900 4.22547E-03 2.31961E-04-9.96665E-15
 -1      3901 4.42563E-03 1.93085E-04-1.09585E-14
 -1      3902 1.35497E-02-1.60211E-04-7.33372E-14
 -1      3903 1.50503E-03 8.64982E-05-1.55770E-15
 -1      3904 1.50334E-03 5.23041E-05-1.56323E-15
 -1      3905 1.11037E-02 5.40350E-05-4.74826E-14
 -1      3906 1.11909E-02 4.10278E-05-4.82778E-14
 -1      3907 1.10886E-02 8.29367E-05-4.78503E-14
 -1      3908 1.25068E-03-1.45301E-05-1.14171E-15
 -1      3909 1.22854E-03-4.14114E-05-1.10524E-15
 -1      3910 1.36143E-03-6.47288E-05-1.31489E-15
 -1      3911 1.37284E-03 7.30629E-07-1.34049E-15
 -1      3912 4.14850E-03 2.00431E-04-9.67293E-15
 -1      3913 6.23920E-03 1.29151E-04-2.19012E-14
 -1      3914 1.12289E-02-6.60830E-06-4.81925E-14
 -1      3915 1.12889E-02-1.71251E-05-4.90035E-14
 -1      3916 1.12606E-02 9.17287E-06-4.87177E-14
 -1      3917 6.09708E-03 1.13754E-04-2.10400E-14
 -1      3918 6.03706E-03-1.27573E-04-2.03276E-14
 -1      3919 3.23576E-03 2.53825E-04-6.00400E-15
 -1      3920 3.09279E-03 2.55446E-04-5.51687E-15
 -1      3921 3.01678E-03 2.20102E-04-5.30380E-15
 -1      3922 1.52838E-03 1.39205E-04-1.57848E-15
 -1      3923 2.06298E-03 2.38696E-04-2.62260E-15
 -1      3924 1.91876E-03 2.33686E-04-2.30084E-15
 -1      3925 1.81955E-03 1.87997E-04-2.12283E-15
 -1      3926 1.65068E-03 1.26343E-04-1.81611E-15
 -1      3927 2.70953E-03-1.49893E-04-4.40617E-15
 -1      3928 2.85327E-03-1.49776E-04-4.84214E-15
 -1      3929 2.99666E-03-1.49272E-04-5.29775E-15
 -1      3930 3.13965E-03-1.48383E-04-5.77239E-15
 -1      3931 2.92235E-03-1.13940E-04-5.08080E-15
 -1      3932 3.28217E-03-1.47190E-04-6.26550E-15
 -1      3933 3.42417E-03-1.45682E-04-6.77744E-15
 -1      3934 3.20819E-03-1.12573E-04-6.03071E-15
 -1      3935 3.56558E-03-1.43935E-04-7.30846E-15
 -1      3936 3.70638E-03-1.41928E-04-7.85757E-15
 -1      3937 3.49191E-03-1.10241E-04-7.05580E-15
 -1      3938 3.84647E-03-1.39739E-04-8.42624E-15
 -1      3939 3.98582E-03-1.37340E-04-9.01324E-15
 -1      3940 3.77301E-03-1.07129E-04-8.15517E-15
 -1      3941 4.12436E-03-1.34816E-04-9.61839E-15
 -1      3942 4.26203E-03-1.32126E-04-1.02425E-14
 -1      3943 4.05098E-03-1.03406E-04-9.33033E-15
 -1      3944 4.39874E-03-1.29368E-04-1.08839E-14
 -1      3945 4.53446E-03-1.26491E-04-1.15431E-14
 -1      3946 4.32527E-03-9.92250E-05-1.05794E-14
 -1      3947 4.66907E-03-1.23611E-04-1.22197E-14
 -1      3948 4.80255E-03-1.20662E-04-1.29138E-14
 -1      3949 4.59524E-03-9.47355E-05-1.18998E-14
 -1      3950 4.93474E-03-1.17783E-04-1.36266E-14
 -1      3951 5.06566E-03-1.14882E-04-1.43550E-14
 -1      3952 4.86019E-03-9.00965E-05-1.32904E-14
 -1      3953 5.19510E-03-1.12120E-04-1.51009E-14
 -1      3954 5.32314E-03-1.09365E-04-1.58643E-14
 -1      3955 5.11924E-03-8.54597E-05-1.47502E-14
 -1      3956 5.44948E-03-1.06812E-04-1.66440E-14
 -1      3957 5.57429E-03-1.04269E-04-1.74404E-14
 -1      3958 5.37139E-03-8.08959E-05-1.62784E-14
 -1      3959 5.69719E-03-1.01939E-04-1.82540E-14
 -1      3960 5.81854E-03-9.95846E-05-1.90849E-14
 -1      3961 5.61530E-03-7.63373E-05-1.78733E-14
 -1      3962 1.13464E-02-1.10126E-04-5.05441E-14
 -1      3963 1.14675E-02-1.12726E-04-5.18486E-14
 -1      3964 2.35149E-03 2.45337E-04-3.32934E-15
 -1      3965 2.20725E-03 2.42555E-04-2.96577E-15
 -1      3966 2.10797E-03 1.96853E-04-2.76358E-15
 -1      3967 1.79432E-03 1.30860E-04-2.10376E-15
 -1      3968 1.77127E-03 7.48515E-05-2.07718E-15
 -1      3969 1.93837E-03 1.34548E-04-2.41213E-15
 -1      3970 2.66221E-03 2.56826E-04-4.17387E-15
 -1      3971 2.51825E-03 2.55909E-04-3.76680E-15
 -1      3972 2.72968E-03 2.20932E-04-4.40721E-15
 -1      3973 1.15900E-02-1.15224E-04-5.31601E-14
 -1      3974 1.17144E-02-1.18086E-04-5.44730E-14
 -1      3975 1.15511E-02-8.71023E-05-5.25375E-14
 -1      3976 1.18402E-02-1.20986E-04-5.57977E-14
 -1      3977 1.19676E-02-1.24079E-04-5.71290E-14
 -1      3978 1.17933E-02-9.25594E-05-5.51712E-14
 -1      3979 1.20963E-02-1.27189E-04-5.84680E-14
 -1      3980 1.22265E-02-1.30449E-04-5.98178E-14
 -1      3981 1.20436E-02-9.80405E-05-5.78334E-14
 -1      3982 1.23579E-02-1.33695E-04-6.11747E-14
 -1      3983 1.24905E-02-1.37016E-04-6.25388E-14
 -1      3984 1.23008E-02-1.03582E-04-6.05279E-14
 -1      3985 1.26241E-02-1.40276E-04-6.39117E-14
 -1      3986 1.27588E-02-1.43541E-04-6.52898E-14
 -1      3987 1.25636E-02-1.09119E-04-6.32549E-14
 -1      3988 1.28944E-02-1.46704E-04-6.66757E-14
 -1      3989 1.30309E-02-1.49807E-04-6.80697E-14
 -1      3990 1.28313E-02-1.14519E-04-6.60129E-14
 -1      3991 1.31682E-02-1.52771E-04-6.94694E-14
 -1      3992 1.33062E-02-1.55635E-04-7.08719E-14
 -1      3993 1.31029E-02-1.19647E-04-6.87938E-14
 -1      3994 1.17008E-02 1.31169E-04-5.48593E-14
 -1      3995 1.15724E-02 1.29573E-04-5.35382E-14
 -1      3996 5.28668E-03 1.39513E-04-1.56338E-14
 -1      3997 5.15594E-03 1.42631E-04-1.48698E-14
 -1      3998 5.02414E-03 1.45820E-04-1.41229E-14
 -1      3999 4.89115E-03 1.49173E-04-1.33929E-14
 -1      4000 5.07724E-03 1.15015E-04-1.45027E-14
 -1      4001 5.97519E-03 1.14801E-04-2.01672E-14
 -1      4002 5.85194E-03 1.16606E-04-1.93096E-14
 -1      4003 5.92927E-03 7.40737E-05-2.01915E-14
 -1      4004 5.72810E-03 1.18547E-04-1.84691E-14
 -1      4005 5.60267E-03 1.20920E-04-1.76459E-14
 -1      4006 5.69698E-03 7.94981E-05-1.84969E-14
 -1      4007 1.34306E-02-1.39432E-04-7.21309E-14
 -1      4008 1.35514E-02 1.46157E-04-7.35314E-14
 -1      4009 1.33778E-02 1.52726E-04-7.18036E-14
 -1      4010 1.35497E-02 1.04463E-04-7.34679E-14
 -1      4011 1.14449E-02 1.28440E-04-5.22213E-14
 -1      4012 1.13178E-02 1.27805E-04-5.09131E-14
 -1      4013 1.15357E-02 9.95955E-05-5.28711E-14
 -1      4014 1.22238E-02 1.40124E-04-6.01979E-14
 -1      4015 1.20915E-02 1.37586E-04-5.88533E-14
 -1      4016 1.24911E-02 1.45392E-04-6.29021E-14
 -1      4017 1.23570E-02 1.42714E-04-6.15475E-14
 -1      4018 1.23018E-02 1.11966E-04-6.08614E-14
 -1      4019 1.27621E-02 1.50674E-04-6.56353E-14
 -1      4020 1.26262E-02 1.48035E-04-6.42660E-14
 -1      4021 1.25674E-02 1.16443E-04-6.35741E-14
 -1      4022 1.30361E-02 1.55661E-04-6.83896E-14
 -1      4023 1.28987E-02 1.53210E-04-6.70098E-14
 -1      4024 1.28371E-02 1.20757E-04-6.63131E-14
 -1      4025 1.32390E-02 1.50741E-04-7.04116E-14
 -1      4026 6.21603E-03-1.21924E-04-2.16585E-14
 -1      4027 1.10764E-02 1.37746E-04-4.85667E-14
 -1      4028 1.10893E-02 1.06939E-04-4.82525E-14
 -1      4029 1.11916E-02 8.81906E-05-4.90546E-14
 -1      4030 1.12053E-02 1.36333E-04-4.98635E-14
 -1      4031 5.91810E-03 1.66086E-05-2.05161E-14
 -1      4032 5.93777E-03 4.66110E-05-2.04864E-14
 -1      4033 5.82913E-03 4.95870E-05-1.96264E-14
 -1      4034 5.87814E-03 2.61721E-06-2.01986E-14
 -1      4035 3.52066E-03 2.49234E-04-7.03784E-15
 -1      4036 3.37839E-03 2.51751E-04-6.51116E-15
 -1      4037 3.30254E-03 2.17266E-04-6.27927E-15
 -1      4038 3.58663E-03 2.12828E-04-7.33185E-15
 -1      4039 2.13252E-03-1.45193E-04-2.85920E-15
 -1      4040 2.27692E-03-1.47250E-04-3.21566E-15
 -1      4041 5.51028E-03 1.28643E-04-1.70252E-14
 -1      4042 5.38211E-03 1.31430E-04-1.62316E-14
 -1      4043 5.30166E-03 1.04424E-04-1.58469E-14
 -1      4044 5.48705E-03 8.93608E-05-1.70562E-14
 -1      4045 1.84405E-03-1.38878E-04-2.20752E-15
 -1      4046 1.98820E-03-1.42412E-04-2.52297E-15
 -1      4047 2.05766E-03-1.09571E-04-2.69821E-15
 -1      4048 4.21139E-03 1.65807E-04-1.00051E-14
 -1      4049 4.07279E-03 1.68886E-04-9.38221E-15
 -1      4050 1.61991E-03 3.60476E-05-1.78349E-15
 -1      4051 1.49596E-03 1.76962E-05-1.55446E-15
 -1      4052 1.48943E-03-1.66963E-05-1.54324E-15
 -1      4053 2.42128E-03-1.48686E-04-3.59250E-15
 -1      4054 2.56551E-03-1.49536E-04-3.98963E-15
 -1      4055 2.34643E-03-1.12771E-04-3.41273E-15
 -1      4056 1.35802E-02 3.49428E-05-7.37115E-14
 -1      4057 1.35781E-02 7.22478E-05-7.37204E-14
 -1      4058 1.34057E-02 7.98590E-05-7.19911E-14
 -1      4059 1.34612E-02 1.64680E-05-7.24920E-14
 -1      4060 6.10040E-03-1.03435E-04-2.10388E-14
 -1      4061 1.19603E-02 1.35239E-04-5.75163E-14
 -1      4062 1.18300E-02 1.33050E-04-5.61848E-14
 -1      4063 1.20409E-02 1.07533E-04-5.81744E-14
 -1      4064 1.33635E-02-1.05784E-04-7.14515E-14
 -1      4065 3.08444E-03 1.83839E-04-5.56049E-15
 -1      4066 2.94123E-03 1.84660E-04-5.09181E-15
 -1      4067 2.79768E-03 1.85005E-04-4.64341E-15
 -1      4068 2.65382E-03 1.84857E-04-4.21461E-15
 -1      4069 2.86619E-03 1.49122E-04-4.88157E-15
 -1      4070 5.97039E-03-4.75938E-05-2.06818E-14
 -1      4071 2.63490E-03-1.14106E-04-4.20726E-15
 -1      4072 1.17854E-02 1.03349E-04-5.55130E-14
 -1      4073 4.81436E-03 1.20802E-04-1.30452E-14
 -1      4074 4.75715E-03 1.52533E-04-1.26807E-14
 -1      4075 4.62209E-03 1.55952E-04-1.19857E-14
 -1      4076 3.93345E-03 1.71766E-04-8.77735E-15
 -1      4077 3.79340E-03 1.74474E-04-8.19188E-15
 -1      4078 3.99826E-03 1.37150E-04-9.09160E-15
 -1      4079 1.11602E-02-1.21348E-04-4.87176E-14
 -1      4080 5.98122E-03-1.04624E-04-2.01717E-14
 -1      4081 1.31746E-02 1.17458E-04-6.97114E-14
 -1      4082 1.13065E-02 1.04209E-04-5.05060E-14
 -1      4083 1.33651E-02-6.93210E-05-7.14707E-14
 -1      4084 1.33656E-02-3.29935E-05-7.14897E-14
 -1      4085 1.32424E-02-8.59885E-05-7.02187E-14
 -1      4086 4.48610E-03 1.59301E-04-1.13069E-14
 -1      4087 4.34916E-03 1.62623E-04-1.06460E-14
 -1      4088 4.54650E-03 1.26554E-04-1.16559E-14
 -1      4089 1.13342E-02-5.75052E-05-4.98500E-14
 -1      4090 1.12578E-02-9.24045E-05-4.93965E-14
 -1      4091 1.73884E-03-1.21277E-04-1.99650E-15
 -1      4092 4.27428E-03 1.32072E-04-1.03365E-14
 -1      4093 1.12750E-02 5.34453E-05-4.94692E-14
 -1      4094 1.12716E-02 2.99694E-05-4.90945E-14
 -1      4095 1.13476E-02 1.94588E-05-4.99129E-14
 -1      4096 5.88949E-03-7.75446E-05-1.97733E-14
 -1      4097 1.76329E-03 3.74385E-05-2.06894E-15
 -1      4098 1.75623E-03 2.35548E-07-2.05712E-15
 -1      4099 1.90716E-03 3.85660E-05-2.37489E-15
 -1      4100 2.41911E-03 2.10566E-04-3.53922E-15
 -1      4101 1.49724E-03-8.39102E-05-1.54587E-15
 -1      4102 1.60137E-03-1.00643E-04-1.73365E-15
 -1      4103 1.77563E-03-8.72166E-05-2.08419E-15
 -1      4104 1.50212E-03-4.93759E-05-1.56257E-15
 -1      4105 1.13671E-02-3.72585E-05-5.00769E-14
 -1      4106 1.14702E-02-6.20986E-05-5.14599E-14
 -1      4107 1.15852E-02-6.45749E-05-5.27701E-14
 -1      4108 1.14160E-02-2.01863E-05-5.06112E-14
 -1      4109 3.13487E-03-7.77478E-05-5.79640E-15
 -1      4110 3.27723E-03-7.70711E-05-6.29022E-15
 -1      4111 3.41899E-03-7.62552E-05-6.80315E-15
 -1      4112 3.56011E-03-7.52778E-05-7.33468E-15
 -1      4113 3.34679E-03-4.19331E-05-6.55131E-15
 -1      4114 3.70050E-03-7.41862E-05-7.88494E-15
 -1      4115 3.84010E-03-7.29536E-05-8.45443E-15
 -1      4116 3.62883E-03-4.08248E-05-7.61503E-15
 -1      4117 3.97882E-03-7.16594E-05-9.04282E-15
 -1      4118 4.11662E-03-7.02457E-05-9.64906E-15
 -1      4119 3.90773E-03-3.94560E-05-8.75438E-15
 -1      4120 4.25338E-03-6.87867E-05-1.02745E-14
 -1      4121 4.38905E-03-6.72300E-05-1.09187E-14
 -1      4122 4.18286E-03-3.78806E-05-9.96993E-15
 -1      4123 4.52351E-03-6.56655E-05-1.15795E-14
 -1      4124 4.65669E-03-6.40179E-05-1.22581E-14
 -1      4125 4.45358E-03-3.61566E-05-1.12595E-14
 -1      4126 4.78842E-03-6.24014E-05-1.29542E-14
 -1      4127 4.91865E-03-6.07072E-05-1.36684E-14
 -1      4128 4.71907E-03-3.43469E-05-1.26187E-14
 -1      4129 5.04714E-03-5.90959E-05-1.43988E-14
 -1      4130 5.17385E-03-5.73878E-05-1.51468E-14
 -1      4131 4.97829E-03-3.25087E-05-1.40472E-14
 -1      4132 5.29846E-03-5.57750E-05-1.59118E-14
 -1      4133 5.42089E-03-5.40199E-05-1.66932E-14
 -1      4134 5.23001E-03-3.06381E-05-1.55444E-14
 -1      4135 5.54066E-03-5.23946E-05-1.74920E-14
 -1      4136 5.65774E-03-5.04787E-05-1.83067E-14
 -1      4137 5.47239E-03-2.87560E-05-1.71101E-14
 -1      4138 2.22703E-03 1.39707E-04-3.09083E-15
 -1      4139 2.08264E-03 1.37482E-04-2.74117E-15
 -1      4140 2.05935E-03 7.88653E-05-2.71110E-15
 -1      4141 1.17453E-02-6.58230E-05-5.45431E-14
 -1      4142 1.18666E-02-6.81378E-05-5.58660E-14
 -1      4143 1.19900E-02-7.02714E-05-5.71979E-14
 -1      4144 1.21156E-02-7.25228E-05-5.85354E-14
 -1      4145 1.19350E-02-4.38753E-05-5.65622E-14
 -1      4146 1.22430E-02-7.46679E-05-5.98815E-14
 -1      4147 1.23721E-02-7.68861E-05-6.12366E-14
 -1      4148 1.21841E-02-4.69253E-05-5.92385E-14
 -1      4149 1.25026E-02-7.90149E-05-6.26006E-14
 -1      4150 1.26346E-02-8.11827E-05-6.39703E-14
 -1      4151 1.24408E-02-4.99438E-05-6.19461E-14
 -1      4152 1.27678E-02-8.32605E-05-6.53483E-14
 -1      4153 1.29021E-02-8.53365E-05-6.67298E-14
 -1      4154 1.27036E-02-5.29132E-05-6.46833E-14
 -1      4155 1.30036E-02-8.47816E-05-6.77735E-14
 -1      4156 1.31397E-02-8.67154E-05-6.91707E-14
 -1      4157 1.31412E-02-5.12959E-05-6.91922E-14
 -1      4158 1.29378E-02-5.34215E-05-6.71031E-14
 -1      4159 3.22723E-03 1.82631E-04-6.04772E-15
 -1      4160 3.15249E-03 1.47806E-04-5.81802E-15
 -1      4161 3.36958E-03 1.81037E-04-6.55450E-15
 -1      4162 5.82643E-03-4.47978E-05-1.95804E-14
 -1      4163 5.71682E-03 5.16110E-05-1.87826E-14
 -1      4164 5.60098E-03 5.39370E-05-1.79557E-14
 -1      4165 5.74134E-03 2.61805E-05-1.90655E-14
 -1      4166 1.29104E-02 9.08362E-05-6.69920E-14
 -1      4167 1.27754E-02 8.92615E-05-6.56168E-14
 -1      4168 2.56090E-03-7.84193E-05-4.00945E-15
 -1      4169 2.70493E-03-7.85850E-05-4.42707E-15
 -1      4170 1.16191E-02 7.35930E-05-5.35176E-14
 -1      4171 1.14994E-02 7.16311E-05-5.22011E-14
 -1      4172 1.26414E-02 8.76564E-05-6.42450E-14
 -1      4173 1.25085E-02 8.59468E-05-6.28814E-14
 -1      4174 1.27134E-02 5.87287E-05-6.49152E-14
 -1      4175 1.23768E-02 8.42496E-05-6.15234E-14
 -1      4176 1.22464E-02 8.24608E-05-6.01729E-14
 -1      4177 1.24491E-02 5.65476E-05-6.21845E-14
 -1      4178 1.18646E-02 7.71603E-05-5.61624E-14
 -1      4179 1.17408E-02 7.52914E-05-5.48381E-14
 -1      4180 1.16955E-02 4.89263E-05-5.41599E-14
 -1      4181 1.12962E-02 8.85163E-05-5.01928E-14
 -1      4182 1.12855E-02 6.73204E-05-4.97844E-14
 -1      4183 1.13734E-02 5.47411E-05-5.06081E-14
 -1      4184 1.14000E-02 8.29056E-05-5.12415E-14
 -1      4185 5.13073E-03 8.55554E-05-1.48819E-14
 -1      4186 5.00211E-03 8.79635E-05-1.41367E-14
 -1      4187 4.33747E-03 9.92417E-05-1.06681E-14
 -1      4188 4.20091E-03 1.01336E-04-1.00289E-14
 -1      4189 1.98357E-03-7.46274E-05-2.53909E-15
 -1      4190 2.12788E-03-7.60794E-05-2.87627E-15
 -1      4191 1.32575E-02 8.25559E-05-7.04982E-14
 -1      4192 1.30568E-02 8.87419E-05-6.84720E-14
 -1      4193 1.29925E-02 5.71706E-05-6.77692E-14
 -1      4194 1.32859E-02 5.13991E-05-7.07474E-14
 -1      4195 1.62529E-03-3.36629E-05-1.79469E-15
 -1      4196 2.27228E-03-7.71968E-05-3.23401E-15
 -1      4197 2.41665E-03-7.79600E-05-3.61197E-15
 -1      4198 2.19883E-03-4.20360E-05-3.05706E-15
 -1      4199 5.75849E-03-2.31985E-05-1.91794E-14
 -1      4200 2.52374E-03 1.67501E-04-3.85754E-15
 -1      4201 2.35718E-03 1.57739E-04-3.41380E-15
 -1      4202 2.33335E-03 9.75989E-05-3.38217E-15
 -1      4203 2.59280E-03 1.32172E-04-4.07424E-15
 -1      4204 1.21176E-02 8.07226E-05-5.88306E-14
 -1      4205 1.19902E-02 7.88923E-05-5.74932E-14
 -1      4206 1.21905E-02 5.41969E-05-5.94830E-14
 -1      4207 2.84865E-03-7.85266E-05-4.86418E-15
 -1      4208 2.99199E-03-7.82295E-05-5.32072E-15
 -1      4209 2.77558E-03-4.30433E-05-4.64869E-15
 -1      4210 1.19388E-02 5.16768E-05-5.68098E-14
 -1      4211 1.76869E-03-3.49181E-05-2.08081E-15
 -1      4212 1.16545E-02-4.18511E-05-5.34556E-14
 -1      4213 3.22101E-03 1.12043E-04-6.07680E-15
 -1      4214 3.07837E-03 1.12816E-04-5.58952E-15
 -1      4215 3.06220E-03-4.26988E-05-5.56228E-15
 -1      4216 4.87194E-03 9.02650E-05-1.34086E-14
 -1      4217 4.74025E-03 9.26047E-05-1.26981E-14
 -1      4218 4.93023E-03 6.09520E-05-1.37722E-14
 -1      4219 2.48754E-03-4.28760E-05-3.81296E-15
 -1      4220 4.06338E-03 1.03295E-04-9.40713E-15
 -1      4221 3.92490E-03 1.05166E-04-8.80326E-15
 -1      4222 4.12891E-03 7.02398E-05-9.72149E-15
 -1      4223 3.65271E-03 1.76925E-04-7.62629E-15
 -1      4224 3.51142E-03 1.79139E-04-7.08109E-15
 -1      4225 3.71898E-03 1.41597E-04-7.92228E-15
 -1      4226 1.32405E-02-2.67414E-05-7.02159E-14
 -1      4227 1.33620E-02-9.30458E-06-7.14653E-14
 -1      4228 1.33353E-02 2.20743E-05-7.12194E-14
 -1      4229 1.31382E-02-2.82219E-05-6.91709E-14
 -1      4230 4.60723E-03 9.48538E-05-1.20038E-14
 -1      4231 4.47292E-03 9.71024E-05-1.13265E-14
 -1      4232 4.66853E-03 6.42318E-05-1.23511E-14
 -1      4233 1.14578E-02 5.73682E-07-5.11417E-14
 -1      4234 1.15506E-02-1.95422E-05-5.22248E-14
 -1      4235 1.17044E-02-1.92912E-05-5.39957E-14
 -1      4236 1.14797E-02 2.21025E-05-5.15245E-14
 -1      4237 5.51296E-03 6.04241E-05-1.73340E-14
 -1      4238 5.42285E-03 6.72647E-05-1.67220E-14
 -1      4239 5.54233E-03 3.33505E-05-1.76090E-14
 -1      4240 5.71651E-03-3.09935E-07-1.89055E-14
 -1      4241 5.22582E-03 7.83417E-05-1.54638E-14
 -1      4242 5.15417E-03 5.25392E-05-1.50822E-14
 -1      4243 5.31947E-03 7.12095E-05-1.60559E-14
 -1      4244 1.84601E-03-5.56322E-05-2.23995E-15
 -1      4245 2.05133E-03 3.94913E-05-2.70183E-15
 -1      4246 4.40114E-03 6.73521E-05-1.10007E-14
 -1      4247 3.00486E-03 7.76405E-05-5.36271E-15
 -1      4248 2.93526E-03 1.13304E-04-5.12139E-15
 -1      4249 2.79173E-03 1.13542E-04-4.67241E-15
 -1      4250 3.55797E-03-7.04937E-06-7.34585E-15
 -1      4251 3.69819E-03-6.89457E-06-7.89673E-15
 -1      4252 3.87862E-03 1.64014E-05-8.64060E-15
 -1      4253 4.01684E-03 1.61725E-05-9.23670E-15
 -1      4254 4.15405E-03 1.58597E-05-9.85071E-15
 -1      4255 4.29015E-03 1.55910E-05-1.04842E-14
 -1      4256 4.42506E-03 1.52283E-05-1.11350E-14
 -1      4257 4.55867E-03 1.49294E-05-1.18040E-14
 -1      4258 4.69085E-03 1.45176E-05-1.24907E-14
 -1      4259 4.82151E-03 1.41972E-05-1.31949E-14
 -1      4260 4.95046E-03 1.37320E-05-1.39154E-14
 -1      4261 5.07757E-03 1.34220E-05-1.46530E-14
 -1      4262 5.39854E-03 5.16823E-06-1.66587E-14
 -1      4263 5.51670E-03 5.03091E-06-1.74573E-14
 -1      4264 1.22602E-02 2.77042E-05-6.01351E-14
 -1      4265 1.21333E-02 2.71113E-05-5.87925E-14
 -1      4266 3.36310E-03 1.11057E-04-6.58361E-15
 -1      4267 3.28999E-03 7.66132E-05-6.33727E-15
 -1      4268 3.03246E-03 1.73701E-05-5.46724E-15
 -1      4269 3.17515E-03 1.73118E-05-5.94888E-15
 -1      4270 1.21302E-02-2.25200E-05-5.86688E-14
 -1      4271 1.22566E-02-2.34183E-05-6.00132E-14
 -1      4272 1.23847E-02-2.42354E-05-6.13655E-14
 -1      4273 1.25146E-02-2.51302E-05-6.27273E-14
 -1      4274 1.23272E-02 7.85294E-07-6.07876E-14
 -1      4275 1.26458E-02-2.59640E-05-6.40961E-14
 -1      4276 1.27785E-02-2.68497E-05-6.54687E-14
 -1      4277 1.25870E-02 3.55648E-07-6.35067E-14
 -1      4278 1.14834E-02 5.78296E-05-5.18831E-14
 -1      4279 1.25190E-02 2.86890E-05-6.28460E-14
 -1      4280 1.23888E-02 2.81748E-05-6.14863E-14
 -1      4281 2.41490E-03-7.56147E-06-3.61865E-15
 -1      4282 2.55914E-03-7.57429E-06-4.01675E-15
 -1      4283 3.43690E-03 1.45216E-04-6.83141E-15
 -1      4284 3.31726E-03 1.71798E-05-6.44940E-15
 -1      4285 3.45875E-03 1.70581E-05-6.96845E-15
 -1      4286 1.27836E-02 2.95357E-05-6.55853E-14
 -1      4287 1.26507E-02 2.91034E-05-6.42124E-14
 -1      4288 2.74567E-03 1.73940E-05-4.56137E-15
 -1      4289 2.88928E-03 1.74210E-05-5.00496E-15
 -1      4290 1.18530E-02-2.04001E-05-5.56582E-14
 -1      4291 1.19743E-02-2.13083E-05-5.69890E-14
 -1      4292 1.20424E-02 1.41176E-06-5.77553E-14
 -1      4293 1.17387E-02 2.07408E-06-5.44154E-14
 -1      4294 5.17313E-03 7.78875E-06-1.52277E-14
 -1      4295 3.50461E-03 1.09838E-04-7.10925E-15
 -1      4296 2.47462E-03 7.13204E-05-3.76977E-15
 -1      4297 2.34532E-03 5.43560E-05-3.42699E-15
 -1      4298 1.29188E-02 2.94605E-05-6.69757E-14
 -1      4299 1.28534E-02-5.64851E-07-6.62663E-14
 -1      4300 1.29134E-02-2.81101E-05-6.68627E-14
 -1      4301 1.30641E-02 2.62316E-05-6.84597E-14
 -1      4302 5.29630E-03 7.58674E-06-1.59955E-14
 -1      4303 1.19766E-02 2.66863E-05-5.71131E-14
 -1      4304 1.31882E-02 2.56215E-05-6.97246E-14
 -1      4305 2.66247E-03 9.67551E-05-4.29344E-15
 -1      4306 1.14667E-02 4.46709E-05-5.15638E-14
 -1      4307 2.27236E-03 1.91990E-05-3.24376E-15
 -1      4308 1.30145E-02-2.67301E-05-6.79055E-14
 -1      4309 1.15886E-02 2.43136E-05-5.28024E-14
 -1      4310 1.17045E-02 2.53498E-05-5.41181E-14
 -1      4311 2.12796E-03 1.88874E-05-2.88578E-15
 -1      4312 3.78557E-03 1.06870E-04-8.21921E-15
 -1      4313 3.64545E-03 1.08453E-04-7.65500E-15
 -1      4314 3.57274E-03 7.49550E-05-7.38869E-15
 -1      4315 3.85257E-03 7.27939E-05-8.51660E-15
 -1      4316 5.60474E-03-1.51236E-07-1.80780E-14
 -1      4317 1.18544E-02 2.59542E-05-5.57833E-14
 -1      4318 1.97711E-03-2.03059E-05-2.53355E-15
 -1      4319 5.35191E-03 4.26652E-05-1.63241E-14
 -1      4320 1.31125E-02-2.32347E-06-6.89266E-14
 -1      4321 2.67447E-03 5.28778E-05-4.34330E-15
 -1      4322 3.81021E-03 4.97264E-05-8.34798E-15
 -1      4323 3.53007E-03 5.11508E-05-7.23259E-15
 -1      4324 3.67055E-03 5.04758E-05-7.78102E-15
 -3
    1PSTEP                         2           1           1          
  100CL  101 1.000000000        4324                     0    1           1
 -4  STRESS      6    1
 -5  SXX         1    4    1    1
 -5  SYY         1    4    2    2
 -5  SZZ         1    4    3    3
 -5  SXY         1    4    1    2
 -5  SYZ         1    4    2    3
 -5  SZX         1    4    3    1
 -1         1 4.04137E+01 8.85144E+00 2.16052E+00 1.82507E+01-7.10765E-13-1.37840E-12
 -1         2-6.91402E-01-2.42511E+01-3.34701E+00 5.40342E-02-7.19449E-13-1.02654E-13
 -1         3 1.99986E+01-1.34628E-03 8.35839E-03-1.40653E-03-3.04069E-13-3.26798E-13
 -1         4 1.99985E+01-1.33830E-03 8.43419E-03 1.42048E-03 3.53575E-13-9.60066E-14
 -1         5 3.27120E+01 6.13193E+00 2.73713E+00 6.21658E+00-2.86438E-14 1.98074E-12
 -1         6 3.56925E+01 1.22427E+01 5.11649E+00-8.63519E+00-1.14520E-13 2.05391E-12
 -1         7 2.07912E+01 6.09178E+00-1.28648E-01-4.72170E+00-1.65562E-14 4.63657E-13
 -1         8 1.96581E+01 5.93079E+00 5.11195E-02-3.27291E+00-2.48274E-14-5.42457E-14
 -1         9 1.91349E+01 5.77105E+00 4.94451E-02-2.52462E+00-2.43989E-14-3.39992E-13
 -1        10 1.89008E+01 5.69371E+00 5.12144E-02-1.94879E+00-1.61650E-14-4.93924E-13
 -1        11 1.87858E+01 5.65470E+00 5.04699E-02-1.45354E+00-1.40452E-14-5.69833E-13
 -1        12 1.87265E+01 5.63434E+00 4.89218E-02-1.01271E+00-7.78197E-15-6.06338E-13
 -1        13 1.86955E+01 5.62364E+00 4.74250E-02-5.93601E-01-5.17750E-15-6.19705E-13
 -1        14 1.86825E+01 5.61915E+00 4.66449E-02-1.90576E-01 7.55960E-17-6.26460E-13
 -1        15 1.86830E+01 5.61930E+00 4.66857E-02 2.07560E-01 3.23206E-15-6.27171E-13
 -1        16 1.86969E+01 5.62410E+00 4.75552E-02 6.11417E-01 4.63041E-15-6.22601E-13
 -1        17 1.87291E+01 5.63504E+00 4.91556E-02 1.03246E+00 6.38508E-15-6.06366E-13
 -1        18 1.87898E+01 5.65584E+00 5.10025E-02 1.47636E+00 1.00536E-14-5.53858E-13
 -1        19 1.89068E+01 5.69535E+00 5.17884E-02 1.97778E+00 1.80923E-14-4.72836E-13
 -1        20 1.91397E+01 5.77351E+00 4.90578E-02 2.56187E+00 2.21594E-14-3.23872E-13
 -1        21 1.96534E+01 5.94530E+00 4.60805E-02 3.30692E+00 2.94417E-14-2.81511E-14
 -1        22 2.11735E+01 6.37320E+00 1.39387E-01 4.51951E+00 4.08007E-15 5.76778E-13
 -1        23 2.29843E+01-1.37705E+00-9.37456E-01-7.10662E-01-7.20569E-14 1.65482E-12
 -1        24 1.93254E+01-9.94654E-02-3.09594E-01 6.29603E-02-1.72631E-14 1.33059E-12
 -1        25 1.86385E+01-5.64281E-02-6.88063E-02 6.04324E-02-1.38502E-14 9.75922E-13
 -1        26 1.84386E+01-2.23082E-02-6.62033E-03 3.26607E-02-6.03066E-15 6.93530E-13
 -1        27 1.84550E+01-1.21515E-02 1.34400E-03 2.22336E-02-1.15771E-15 5.19357E-13
 -1        28 1.85783E+01-6.76303E-03 1.37156E-03 1.58885E-02 7.32406E-15 4.68219E-13
 -1        29 1.87538E+01-3.83289E-03 1.07839E-03 1.17327E-02-1.25780E-14 3.47572E-13
 -1        30 1.89536E+01-2.26444E-03 9.53575E-04 8.81832E-03-7.79921E-15 2.33748E-13
 -1        31 1.91639E+01-1.52787E-03 7.12282E-04 6.71045E-03-1.19017E-14 5.32252E-14
 -1        32 1.93804E+01-1.34261E-03 2.24477E-04 5.21388E-03-1.06142E-14-6.21027E-14
 -1        33 1.96048E+01-1.54415E-03-5.22959E-04 4.24847E-03 5.62159E-14-6.50155E-14
 -1        34 1.98437E+01-2.02249E-03-1.50803E-03 3.79814E-03-2.85645E-14-1.70353E-13
 -1        35 2.01072E+01-2.68733E-03-2.69844E-03 3.89067E-03 1.81415E-14-2.01413E-13
 -1        36 2.04081E+01-3.44161E-03-4.04286E-03 4.58834E-03-2.15157E-15-1.31831E-13
 -1        37 2.07609E+01-4.15447E-03-5.44100E-03 5.97793E-03-3.42472E-14-1.35236E-13
 -1        38 2.11798E+01-4.62869E-03-6.68993E-03 8.14824E-03 2.34206E-14-1.79481E-13
 -1        39 2.16764E+01-4.56262E-03-7.39781E-03 1.11366E-02-1.01332E-14-2.29122E-14
 -1        40 2.22544E+01-3.51600E-03-6.86338E-03 1.48141E-02-1.75244E-14-5.30929E-14
 -1        41 2.29022E+01-9.09899E-04-3.95268E-03 1.86678E-02 1.57878E-14-6.97116E-14
 -1        42 2.35808E+01 3.87231E-03 2.90035E-03 2.14453E-02-2.81958E-14-3.39442E-14
 -1        43 2.42097E+01 1.11597E-02 1.52767E-02 2.07053E-02-2.77822E-14-9.52320E-14
 -1        44 2.46541E+01 2.03658E-02 3.35026E-02 1.25728E-02 7.07277E-14 3.92707E-14
 -1        45 2.47269E+01 2.90269E-02 5.39560E-02-7.43258E-03-5.66127E-15 5.59006E-14
 -1        46 2.42286E+01 3.23747E-02 6.68507E-02-4.13331E-02 1.65623E-15-2.50302E-13
 -1        47 2.30467E+01 2.45769E-02 5.66790E-02-8.28468E-02 3.21609E-14-9.74290E-14
 -1        48 2.13028E+01 3.01063E-03 1.25920E-02-1.12841E-01 9.60700E-14 1.13624E-13
 -1        49 1.94509E+01-2.64703E-02-5.56555E-02-1.05587E-01 9.33932E-16 2.58508E-13
 -1        50 1.81729E+01-4.94753E-02-1.12223E-01-4.99532E-02-4.40858E-14-5.41719E-14
 -1        51 1.80277E+01-5.22009E-02-1.19030E-01 3.20703E-02-7.52566E-15-1.29898E-13
 -1        52 1.90827E+01-3.28945E-02-7.11315E-02 9.68661E-02 1.50244E-14 1.36429E-13
 -1        53 2.08654E+01-3.48503E-03-1.85499E-03 1.15167E-01-4.51578E-14 2.02699E-13
 -1        54 2.26854E+01 2.07399E-02 4.95317E-02 9.15506E-02-9.60625E-15-3.12906E-13
 -1        55 2.40186E+01 3.16769E-02 6.70000E-02 5.05735E-02-3.12829E-14-6.18765E-13
 -1        56 2.46712E+01 3.03607E-02 5.79539E-02 1.39363E-02-6.88317E-15-8.42536E-13
 -1        57 2.47156E+01 2.23695E-02 3.80293E-02-9.26364E-03-3.84089E-15-9.38412E-13
 -1        58 2.43436E+01 1.29411E-02 1.87587E-02-1.97047E-02 5.04707E-14-8.60210E-13
 -1        59 2.37511E+01 5.04690E-03 4.92083E-03-2.17086E-02 5.46009E-14-4.52853E-13
 -1        60 2.30871E+01-3.75295E-04-3.16645E-03-1.94134E-02 2.13858E-14-2.19081E-13
 -1        61 2.24448E+01-3.51753E-03-6.94294E-03-1.55739E-02 6.37695E-15-2.09036E-13
 -1        62 2.18726E+01-4.97115E-03-8.04520E-03-1.16645E-02-3.72309E-14-3.40543E-13
 -1        63 2.13890E+01-5.33789E-03-7.72007E-03-8.31573E-03-1.15540E-14-5.18152E-13
 -1        64 2.09952E+01-5.09057E-03-6.76513E-03-5.69995E-03 1.71594E-14-4.73588E-13
 -1        65 2.06832E+01-4.55643E-03-5.64266E-03-3.77590E-03 3.77324E-14-3.16507E-13
 -1        66 2.04420E+01-3.94581E-03-4.61403E-03-2.41669E-03 3.14348E-14-3.94791E-13
 -1        67 2.02603E+01-3.38531E-03-3.84290E-03-1.45811E-03 4.20181E-14-1.49773E-13
 -1        68 2.01288E+01-2.93626E-03-3.44166E-03-6.95442E-04 8.92786E-15-2.33729E-13
 -1        69 2.00411E+01-2.57332E-03-3.38864E-03 1.58842E-04 1.13402E-13-2.23575E-13
 -1        70 1.99947E+01-1.92924E-03-2.97514E-03 1.68212E-03-4.29579E-14-1.83124E-13
 -1        71 1.99888E+01 3.42193E-04 8.23449E-04 3.51052E-03-1.37568E-13-4.49878E-13
 -1        72 2.09993E+01-4.04277E-01-9.79554E-01-3.10711E-01 3.65367E-14 1.76240E-12
 -1        73 1.92897E+01-6.58951E-02-2.90935E-01-5.35905E-02 1.61138E-14 1.28717E-12
 -1        74 1.86478E+01-2.06154E-02-6.42822E-02-2.00560E-02-3.78712E-16 9.66822E-13
 -1        75 1.84475E+01-1.00703E-02-9.44357E-03-1.50441E-02 4.26850E-16 7.32327E-13
 -1        76 1.84636E+01-5.46038E-03 4.13068E-04-1.18453E-02 1.23386E-14 4.94693E-13
 -1        77 1.85860E+01-3.04377E-03 1.29942E-03-9.42759E-03-2.58059E-15 3.66532E-13
 -1        78 1.87605E+01-1.74622E-03 1.19460E-03-7.52746E-03-1.64359E-14 4.19663E-13
 -1        79 1.89591E+01-1.10069E-03 1.06770E-03-5.92896E-03 5.70530E-15 3.06742E-13
 -1        80 1.91684E+01-8.72449E-04 7.90611E-04-4.53829E-03-1.04428E-14 1.73174E-13
 -1        81 1.93839E+01-9.31073E-04 2.65156E-04-3.33525E-03 3.34185E-14 6.06746E-14
 -1        82 1.96074E+01-1.19461E-03-5.17819E-04-2.33670E-03-1.08568E-14 2.90636E-14
 -1        83 1.98455E+01-1.60166E-03-1.53480E-03-1.58599E-03 1.60603E-14-1.84527E-14
 -1        84 2.01082E+01-2.09223E-03-2.74996E-03-1.15513E-03 1.64009E-14-1.55883E-13
 -1        85 2.04082E+01-2.59007E-03-4.10523E-03-1.15366E-03-3.89014E-15-2.58334E-13
 -1        86 2.07598E+01-2.98222E-03-5.48923E-03-1.73981E-03 1.38450E-14-5.65332E-13
 -1        87 2.11771E+01-3.09407E-03-6.68256E-03-3.12744E-03-6.46297E-14-4.80064E-13
 -1        88 2.16711E+01-2.66326E-03-7.27158E-03-5.57472E-03-9.53144E-15-4.61004E-13
 -1        89 2.22448E+01-1.32525E-03-6.52998E-03-9.32369E-03 4.06255E-14-6.13776E-13
 -1        90 2.28855E+01 1.35354E-03-3.30319E-03-1.44316E-02-3.09535E-14-6.95381E-13
 -1        91 2.35531E+01 5.72422E-03 3.96902E-03-2.04038E-02-1.37232E-14-3.58938E-13
 -1        92 2.41657E+01 1.16913E-02 1.67808E-02-2.55610E-02-3.30850E-15-3.65374E-13
 -1        93 2.45880E+01 1.80983E-02 3.51594E-02-2.62881E-02 3.56880E-14-4.00409E-13
 -1        94 2.46341E+01 2.21265E-02 5.51271E-02-1.69058E-02-2.28183E-14-6.34413E-13
 -1        95 2.41092E+01 1.96128E-02 6.63075E-02 8.22041E-03-1.67683E-15-2.95149E-13
 -1        96 2.29100E+01 7.47654E-03 5.36657E-02 4.88061E-02 1.55117E-15 1.31877E-13
 -1        97 2.11681E+01-1.21027E-02 7.85633E-03 9.11774E-02-1.50999E-14 2.78003E-13
 -1        98 1.93415E+01-3.01067E-02-5.94810E-02 1.08917E-01-3.06621E-14 2.18530E-13
 -1        99 1.81039E+01-3.60651E-02-1.12650E-01 8.06151E-02-1.05690E-13 2.83702E-13
 -1       100 1.79957E+01-2.67781E-02-1.16341E-01 1.33795E-02 2.53764E-14 3.13362E-13
 -1       101 1.90680E+01-8.72933E-03-6.78530E-02-5.65077E-02 2.12788E-14-1.97488E-13
 -1       102 2.08445E+01 8.49173E-03-3.31788E-05-9.38896E-02 2.59929E-14-7.66685E-13
 -1       103 2.26455E+01 1.84617E-02 5.00455E-02-9.09680E-02-5.51675E-15-7.06209E-13
 -1       104 2.39596E+01 2.02948E-02 6.68358E-02-6.32865E-02 6.85114E-14-8.75175E-13
 -1       105 2.46016E+01 1.66465E-02 5.78124E-02-3.11048E-02-1.24776E-14-7.11188E-13
 -1       106 2.46460E+01 1.08690E-02 3.81247E-02-6.29786E-03-1.06763E-13-6.61521E-14
 -1       107 2.42814E+01 5.36069E-03 1.89232E-02 8.38482E-03-3.50207E-14-9.16368E-14
 -1       108 2.36998E+01 1.21701E-03 5.02522E-03 1.48668E-02 1.18135E-13-6.83448E-13
 -1       109 2.30471E+01-1.40614E-03-3.15944E-03 1.61791E-02-1.10078E-13-6.62141E-13
 -1       110 2.24148E+01-2.78648E-03-7.01724E-03 1.48258E-02-7.08648E-14-4.27831E-13
 -1       111 2.18507E+01-3.30885E-03-8.16496E-03 1.24230E-02 7.43512E-14-5.88537E-13
 -1       112 2.13734E+01-3.31183E-03-7.85398E-03 9.86020E-03-1.01184E-13-5.08714E-13
 -1       113 2.09841E+01-3.04493E-03-6.89353E-03 7.55823E-03 1.06153E-13-9.41300E-14
 -1       114 2.06754E+01-2.67521E-03-5.75749E-03 5.67330E-03-4.63553E-14-3.77510E-13
 -1       115 2.04365E+01-2.30770E-03-4.71515E-03 4.22371E-03 1.18645E-13-6.61519E-13
 -1       116 2.02565E+01-1.99935E-03-3.93388E-03 3.15023E-03-1.09216E-13-1.13560E-13
 -1       117 2.01261E+01-1.77202E-03-3.53431E-03 2.33077E-03 1.03477E-13-3.11292E-13
 -1       118 2.00395E+01-1.58564E-03-3.49869E-03 1.54258E-03-3.69568E-14-6.66516E-13
 -1       119 1.99942E+01-1.07697E-03-3.01024E-03 8.84825E-05-4.78571E-14-3.08491E-13
 -1       120 1.99894E+01 1.31366E-03 1.03594E-03-2.84117E-03 1.19501E-13-2.12262E-13
 -1       121 2.00000E+01-9.53751E-03 5.59840E-04-3.92181E-03-1.36876E-13 1.40647E-13
 -1       122 1.99983E+01-2.42157E-03-3.22146E-03-7.03696E-04 3.58659E-13-7.83976E-14
 -1       123 1.99985E+01 4.44516E-02-2.78439E-03 1.49351E-03 1.09047E-12 1.61561E-13
 -1       124 1.99993E+01 1.18667E-01-1.26770E-03 2.60848E-03 6.77540E-13-1.13970E-14
 -1       125 2.00002E+01 2.04221E-01 3.08821E-04 2.84766E-03-3.88642E-14-1.22918E-13
 -1       126 2.00010E+01 2.83822E-01 1.59818E-03 2.49504E-03-8.95097E-13-1.00364E-13
 -1       127 2.00016E+01 3.46281E-01 2.51059E-03 1.67605E-03-1.10525E-12 2.90214E-13
 -1       128 2.00019E+01 3.80049E-01 2.98572E-03 5.82979E-04-1.17564E-12-2.61516E-14
 -1       129 2.00019E+01 3.79790E-01 2.98366E-03-6.01369E-04-1.49626E-13 1.96832E-13
 -1       130 2.00016E+01 3.45527E-01 2.50337E-03-1.69178E-03-4.69635E-13-2.10878E-13
 -1       131 2.00010E+01 2.82673E-01 1.56798E-03-2.52783E-03-1.52910E-12-1.11550E-13
 -1       132 2.00002E+01 2.02865E-01 2.85277E-04-2.85368E-03-1.55606E-12 3.00895E-13
 -1       133 1.99993E+01 1.17347E-01-1.27601E-03-2.58375E-03-9.70858E-13-1.44243E-13
 -1       134 1.99983E+01 4.31147E-02-2.94372E-03-1.68619E-03-9.91843E-14-9.56894E-15
 -1       135 1.99986E+01-2.33223E-03-2.87597E-03 9.76845E-04 3.45376E-13 9.78620E-14
 -1       136 1.99987E+01-9.17349E-03 6.43034E-04 6.23804E-03 1.87854E-13 3.61945E-14
 -1       137-1.42678E+00-1.98224E+01-3.08915E+00-3.79953E+00-2.92710E-13 1.79821E-14
 -1       138-1.48477E+00-8.10290E+00-2.27111E+00-2.81007E+00 3.64875E-13 2.47913E-13
 -1       139 3.69837E+00 4.20949E+00-9.69509E-01 4.14523E+00 2.97817E-13 3.32956E-13
 -1       140 1.63455E+01 1.04337E+01 4.27640E-01 1.29703E+01 8.40716E-13 9.80105E-13
 -1       141 3.55485E+01 9.84989E+00 1.85864E+00 1.82056E+01 5.05262E-13 1.08263E-12
 -1       142 5.45625E+01 4.89707E+00 2.98123E+00 1.50430E+01 2.60972E-13 6.66023E-13
 -1       143 6.51897E+01 1.18039E+00 3.53808E+00 4.64041E+00 8.94215E-14-1.79953E-13
 -1       144 6.28090E+01 2.21048E+00 3.41853E+00-8.74862E+00 1.98557E-13-1.34934E-12
 -1       145 4.62923E+01 7.26291E+00 2.50053E+00-1.73501E+01 7.81875E-13-2.05597E-12
 -1       146 2.67801E+01 1.09282E+01 1.24771E+00-1.67573E+01 1.31989E-12-1.92979E-12
 -1       147 9.47358E+00 8.44423E+00-2.26749E-01-8.99094E+00 1.80028E-12-1.65928E-12
 -1       148 4.21126E-01-6.64917E-01-1.57835E+00-4.46486E-01 1.63874E-12-1.16795E-12
 -1       149-1.77963E+00-1.29649E+01-2.62740E+00 3.96611E+00 6.42320E-13-3.09502E-13
 -1       150-1.01782E+00-2.24010E+01-3.23316E+00 2.76739E+00-3.03008E-13 7.85040E-14
 -1       151-7.24126E-01-2.38110E+01-3.30908E+00-1.50550E+00-1.57695E-12-6.63324E-14
 -1       152-1.71595E+00-1.70098E+01-2.90280E+00-4.21840E+00-1.78996E-12-4.64420E-13
 -1       153-7.42815E-01-4.53849E+00-1.95817E+00-1.43530E+00-1.75326E-12-1.02113E-12
 -1       154 5.90793E+00 5.99154E+00-6.70605E-01 6.11147E+00-1.78768E-12-1.51140E-12
 -1       155 2.10323E+01 1.07642E+01 8.08213E-01 1.47798E+01-1.48603E-12-1.78324E-12
 -1       156 5.75196E+01 3.92051E+00 3.13693E+00 1.35473E+01-1.65340E-13-6.05627E-13
 -1       157 6.58503E+01 8.87758E-01 3.56585E+00 2.82107E+00 4.81629E-14 2.09971E-14
 -1       158 6.23809E+01 2.26263E+00 3.39652E+00-9.38831E+00-7.93948E-14 7.69995E-13
 -1       159 4.79102E+01 6.88279E+00 2.61323E+00-1.71594E+01-5.63299E-13 1.62531E-12
 -1       160 2.92134E+01 1.07304E+01 1.43407E+00-1.73303E+01-1.05976E-12 1.61743E-12
 -1       161 1.24435E+01 9.67204E+00 7.77590E-02-1.09571E+01-1.55370E-12 1.65923E-12
 -1       162 2.16952E+00 2.14043E+00-1.24987E+00-2.55712E+00-1.86984E-12 1.37274E-12
 -1       163-1.70336E+00-9.79142E+00-2.38666E+00 3.38935E+00-1.39766E-12 6.16174E-13
 -1       164-1.30854E+00-2.00117E+01-3.09151E+00 3.63761E+00-7.86010E-13 2.70995E-13
 -1       165 2.09922E+01 3.69062E+00-5.72437E-02-3.60614E+00-2.78250E-13 1.79440E-13
 -1       166 1.99832E+01 4.20591E+00-4.56154E-02-2.80528E+00-2.69782E-13-1.53332E-13
 -1       167 1.95111E+01 4.47761E+00-3.14991E-02-2.18985E+00-2.29654E-13-3.39602E-13
 -1       168 1.92767E+01 4.61832E+00-2.36535E-02-1.67098E+00-1.83774E-13-4.49658E-13
 -1       169 1.91513E+01 4.70243E+00-1.93983E-02-1.21489E+00-1.31334E-13-4.92118E-13
 -1       170 1.90803E+01 4.75557E+00-1.73239E-02-7.88785E-01-8.86522E-14-5.17160E-13
 -1       171 1.90445E+01 4.78474E+00-1.63276E-02-3.85114E-01-3.12675E-14-5.26574E-13
 -1       172 1.90341E+01 4.79371E+00-1.60392E-02 8.25262E-03 1.34674E-14-5.33257E-13
 -1       173 1.90462E+01 4.78344E+00-1.63749E-02 4.01964E-01 5.54671E-14-5.38545E-13
 -1       174 1.90838E+01 4.75257E+00-1.74335E-02 8.06738E-01 9.33757E-14-5.21986E-13
 -1       175 1.91556E+01 4.69815E+00-1.96071E-02 1.22729E+00 1.35245E-13-4.84932E-13
 -1       176 1.92864E+01 4.60850E+00-2.39278E-02 1.69365E+00 1.92857E-13-4.28980E-13
 -1       177 1.95260E+01 4.46005E+00-3.27638E-02 2.22216E+00 2.48673E-13-3.20572E-13
 -1       178 2.00054E+01 4.18197E+00-4.71036E-02 2.84272E+00 2.91550E-13-1.25584E-13
 -1       179 2.11134E+01 3.46062E+00-5.96949E-02 3.53273E+00 2.92934E-13 2.30004E-13
 -1       180 2.23855E+01 1.14277E+00-3.36061E-01 3.01179E+00 2.32855E-13 7.23130E-13
 -1       181 2.19412E+01 8.57635E-01 6.62615E-04-1.95653E+00-2.29004E-13 5.62227E-13
 -1       182 2.04202E+01 1.90300E-01-9.94739E-03-7.62152E-01-2.01859E-13 4.31436E-13
 -1       183 1.96488E+01 1.02281E-01 1.36098E-02-2.82665E-01-1.75897E-13 3.24535E-13
 -1       184 1.93153E+01 4.81773E-02 1.00954E-02-6.26801E-02-1.15599E-13 2.21155E-13
 -1       185 1.91953E+01 2.41859E-02 5.29071E-03 4.82619E-02-5.89912E-14 1.63382E-13
 -1       186 1.91969E+01 1.20124E-02 2.61757E-03 1.06558E-01-7.29160E-14 9.69572E-14
 -1       187 1.92683E+01 5.72558E-03 1.38332E-03 1.37236E-01-5.90039E-14 5.94335E-14
 -1       188 1.93809E+01 2.91269E-03 8.34016E-04 1.53797E-01-8.48006E-14 5.16678E-14
 -1       189 1.95198E+01 2.41047E-03 6.00590E-04 1.64546E-01-8.18862E-14 5.88221E-14
 -1       190 1.96784E+01 3.57391E-03 5.32901E-04 1.75119E-01-5.28861E-14 2.06610E-14
 -1       191 1.98559E+01 5.99951E-03 5.64824E-04 1.89600E-01-8.24615E-14-1.32516E-13
 -1       192 2.00557E+01 9.38855E-03 6.56872E-04 2.11031E-01-2.49851E-14-1.27881E-13
 -1       193 2.02838E+01 1.34479E-02 7.74172E-04 2.41589E-01 6.44921E-15-1.65016E-13
 -1       194 2.05479E+01 1.77838E-02 8.75834E-04 2.82481E-01-1.06455E-14-1.50994E-13
 -1       195 2.08561E+01 2.17595E-02 9.07395E-04 3.33527E-01-1.41765E-15-8.07143E-14
 -1       196 2.12151E+01 2.42923E-02 7.95843E-04 3.92309E-01 5.42822E-14-1.14063E-13
 -1       197 2.16276E+01 2.35846E-02 4.51728E-04 4.52776E-01 4.53825E-14-7.18301E-14
 -1       198 2.20884E+01 1.68415E-02-2.12223E-04 5.03217E-01 5.72272E-15-4.59059E-14
 -1       199 2.25791E+01 1.77821E-04-1.23221E-03 5.23861E-01-6.01051E-14-1.22896E-13
 -1       200 2.30621E+01-3.07697E-02-2.50872E-03 4.85208E-01-3.72506E-14-1.32030E-13
 -1       201 2.34748E+01-7.85740E-02-3.71410E-03 3.49848E-01 6.10699E-14-9.03052E-14
 -1       202 2.37291E+01-1.38761E-01-4.18628E-03 8.30191E-02-3.74067E-14-1.35105E-13
 -1       203 2.37215E+01-1.92300E-01-3.47099E-03-3.21731E-01-6.40629E-14 5.74839E-15
 -1       204 2.33673E+01-2.00970E-01-1.32864E-03-8.02860E-01 7.71453E-14 1.38960E-13
 -1       205 2.26595E+01-1.20089E-01 1.01987E-03-1.19906E+00 6.75146E-14 1.61053E-13
 -1       206 2.17383E+01 5.99329E-02 1.99796E-03-1.28031E+00 2.63851E-14 8.76296E-15
 -1       207 2.09083E+01 2.68727E-01 1.35944E-03-8.86527E-01-1.44724E-13-1.08660E-13
 -1       208 2.05235E+01 3.77535E-01 4.49503E-04-1.00789E-01-5.86831E-14-5.85646E-14
 -1       209 2.07702E+01 3.06882E-01 1.04432E-03 7.32259E-01 1.52543E-13 8.10168E-14
 -1       210 2.15275E+01 1.09277E-01 1.98374E-03 1.23375E+00-9.00499E-14-1.72492E-14
 -1       211 2.24594E+01-8.63147E-02 1.34138E-03 1.25358E+00-3.37491E-13-1.06273E-13
 -1       212 2.32358E+01-1.91313E-01-8.36787E-04 9.09620E-01-2.29523E-13-2.47623E-13
 -1       213 2.36765E+01-1.99638E-01-3.14703E-03 4.30925E-01-1.81428E-13-4.35363E-13
 -1       214 2.37604E+01-1.52164E-01-4.19701E-03 1.10506E-03 4.34939E-14-3.76316E-13
 -1       215 2.35613E+01-9.08666E-02-3.86902E-03-2.96676E-01 5.57178E-14-3.95222E-13
 -1       216 2.31829E+01-3.91974E-02-2.73946E-03-4.57135E-01 1.35134E-13-4.60273E-13
 -1       217 2.27189E+01-4.16625E-03-1.42601E-03-5.11334E-01 1.16882E-13-5.64862E-13
 -1       218 2.22390E+01 1.57789E-02-3.10884E-04-4.97273E-01 1.84346E-13-2.82612E-13
 -1       219 2.17868E+01 2.48816E-02 4.58448E-04-4.46447E-01-1.18448E-13-1.18787E-13
 -1       220 2.13857E+01 2.72430E-02 8.95704E-04-3.80559E-01-1.39453E-13-5.96358E-14
 -1       221 2.10447E+01 2.59222E-02 1.08145E-03-3.12725E-01-8.49743E-15-2.48327E-13
 -1       222 2.07638E+01 2.29298E-02 1.10542E-03-2.49859E-01 1.15192E-13-3.09682E-13
 -1       223 2.05385E+01 1.94953E-02 1.04073E-03-1.94831E-01 7.14112E-14-1.45358E-13
 -1       224 2.03623E+01 1.63535E-02 9.33210E-04-1.48026E-01 1.36264E-13 1.05168E-13
 -1       225 2.02283E+01 1.39483E-02 7.98982E-04-1.08336E-01 9.31096E-14 1.22478E-13
 -1       226 2.01305E+01 1.25219E-02 6.32083E-04-7.38218E-02-1.27892E-13 1.08531E-13
 -1       227 2.00636E+01 1.20099E-02 4.97772E-04-4.24772E-02 2.23732E-14-2.77512E-13
 -1       228 2.00217E+01 1.12903E-02 3.76798E-04-1.38136E-02 8.44752E-15-9.56441E-14
 -1       229 2.09323E+01 2.76936E-01-5.12611E-02 1.16320E+00 2.25899E-13 6.10660E-13
 -1       230 1.98408E+01 1.27001E-01 8.34893E-03 4.41390E-01 1.65272E-13 4.57404E-13
 -1       231 1.93389E+01 5.85207E-02 1.27856E-02 1.47204E-01 1.42530E-13 2.91213E-13
 -1       232 1.91363E+01 2.85570E-02 7.70276E-03 5.68681E-03 1.21091E-13 2.10134E-13
 -1       233 1.90978E+01 1.44039E-02 3.92693E-03-6.70955E-02 4.31005E-14 1.53093E-13
 -1       234 1.91512E+01 7.11802E-03 2.04566E-03-1.05023E-01-6.82847E-15 7.10968E-14
 -1       235 1.92569E+01 3.43705E-03 1.18545E-03-1.24700E-01 8.51706E-14 6.71292E-14
 -1       236 1.93936E+01 1.95576E-03 7.74490E-04-1.35525E-01 4.37844E-14 2.36728E-14
 -1       237 1.95510E+01 1.97349E-03 5.66067E-04-1.43507E-01 7.33356E-14-1.23957E-14
 -1       238 1.97258E+01 3.09179E-03 4.62944E-04-1.52840E-01 3.32189E-15-1.38529E-14
 -1       239 1.99199E+01 5.05148E-03 4.19193E-04-1.66609E-01 6.54927E-14-2.21239E-14
 -1       240 2.01385E+01 7.64527E-03 4.03242E-04-1.87104E-01 1.00403E-13-9.12289E-14
 -1       241 2.03891E+01 1.06467E-02 3.85080E-04-2.15881E-01 1.17205E-13-2.46437E-13
 -1       242 2.06806E+01 1.37270E-02 3.31118E-04-2.53569E-01 1.09942E-13-3.45188E-13
 -1       243 2.10214E+01 1.63392E-02 2.03309E-04-2.99393E-01-4.64117E-14-3.86569E-13
 -1       244 2.14173E+01 1.75570E-02-3.49756E-05-3.50287E-01 3.44424E-15-4.12082E-13
 -1       245 2.18679E+01 1.58701E-02-3.99894E-04-3.99501E-01 6.12389E-14-3.09492E-13
 -1       246 2.23621E+01 8.99568E-03-8.47535E-04-4.34699E-01-9.73616E-15-3.09453E-13
 -1       247 2.28710E+01-6.08628E-03-1.21505E-03-4.35951E-01-1.55702E-13-3.02016E-13
 -1       248 2.33414E+01-3.23757E-02-1.17822E-03-3.75003E-01 3.89120E-14-1.56478E-13
 -1       249 2.36906E+01-7.05357E-02-3.10108E-04-2.19022E-01 6.71425E-15-1.64943E-13
 -1       250 2.38112E+01-1.14362E-01 1.58374E-03 5.60173E-02 4.45004E-14-8.51927E-14
 -1       251 2.35942E+01-1.45307E-01 3.82511E-03 4.37994E-01-1.75990E-13-1.19042E-13
 -1       252 2.29814E+01-1.32355E-01 4.59402E-03 8.43429E-01-2.10282E-13 5.45935E-14
 -1       253 2.20387E+01-4.83501E-02 1.80373E-03 1.10445E+00-9.28423E-14 2.29543E-13
 -1       254 2.10103E+01 9.55889E-02-4.45931E-03 1.02856E+00 3.01113E-14 2.82567E-13
 -1       255 2.02732E+01 2.29490E-01-1.01035E-02 5.42742E-01 6.74200E-15 3.22459E-13
 -1       256 2.01524E+01 2.65307E-01-1.01080E-02-1.89337E-01 8.12015E-14 5.55042E-14
 -1       257 2.07076E+01 1.76851E-01-3.95659E-03-8.32589E-01 2.66457E-13-1.10605E-13
 -1       258 2.16857E+01 2.89142E-02 3.20838E-03-1.11681E+00 2.26215E-13-2.57698E-13
 -1       259 2.27002E+01-9.17333E-02 6.40554E-03-1.00460E+00 3.79371E-14-4.00113E-13
 -1       260 2.34465E+01-1.42118E-01 4.93254E-03-6.47940E-01 1.53475E-13-5.20579E-13
 -1       261 2.38004E+01-1.32358E-01 1.62918E-03-2.40165E-01-1.38025E-13-3.35662E-13
 -1       262 2.37886E+01-9.39620E-02-9.72581E-04 9.16961E-02-3.30438E-13-2.04812E-13
 -1       263 2.35111E+01-5.23034E-02-2.10832E-03 3.04163E-01 7.76859E-14-2.32436E-13
 -1       264 2.30801E+01-1.95610E-02-2.06050E-03 4.07086E-01 1.87709E-13-2.24910E-13
 -1       265 2.25883E+01 1.64738E-03-1.44242E-03 4.30848E-01-2.25486E-13-2.80172E-13
 -1       266 2.20995E+01 1.31881E-02-7.24193E-04 4.06520E-01-4.47249E-14-2.97564E-13
 -1       267 2.16514E+01 1.80563E-02-1.38237E-04 3.58035E-01 1.87598E-14-7.33940E-14
 -1       268 2.12617E+01 1.88924E-02 2.53318E-04 3.01138E-01-9.14335E-14 3.37507E-14
 -1       269 2.09356E+01 1.75959E-02 4.72673E-04 2.44965E-01-8.67102E-15-1.03561E-13
 -1       270 2.06706E+01 1.53968E-02 5.67500E-04 1.94060E-01 6.41153E-14-9.27311E-14
 -1       271 2.04607E+01 1.30493E-02 5.80438E-04 1.50029E-01 2.56330E-13 7.87713E-14
 -1       272 2.02988E+01 1.10141E-02 5.34555E-04 1.12686E-01-1.80359E-13-5.61897E-14
 -1       273 2.01781E+01 9.55950E-03 4.21108E-04 8.07627E-02 2.48002E-13-1.96446E-13
 -1       274 2.00929E+01 8.84970E-03 2.29496E-04 5.24998E-02 8.07920E-14-4.42724E-14
 -1       275 2.00387E+01 8.95113E-03 2.44939E-04 2.61535E-02-1.70896E-13-6.60631E-14
 -1       276 2.00099E+01 6.37427E-03 6.90024E-04 3.16505E-03 2.00564E-14-4.04901E-14
 -1       277 2.00112E+01 2.21870E-02 3.34012E-04 1.56500E-02 1.13107E-13 2.93241E-13
 -1       278 2.00102E+01 5.95620E-02 9.87865E-05 4.07889E-02 9.10627E-14 2.56613E-13
 -1       279 2.00057E+01 1.12890E-01 3.50811E-05 5.98911E-02 6.30281E-14-3.90178E-14
 -1       280 2.00006E+01 1.75238E-01-2.64794E-05 6.75683E-02 1.12982E-13-3.29240E-13
 -1       281 1.99960E+01 2.36403E-01-1.55439E-04 6.34494E-02-1.59372E-13-5.90208E-13
 -1       282 1.99922E+01 2.89129E-01-2.77887E-04 4.87905E-02-1.62984E-13-3.60446E-13
 -1       283 1.99898E+01 3.24209E-01-3.67662E-04 2.63455E-02-2.36836E-13 1.68605E-14
 -1       284 1.99889E+01 3.36399E-01-3.99319E-04-1.97547E-04 3.02315E-14 5.01954E-13
 -1       285 1.99898E+01 3.23868E-01-3.67811E-04-2.67192E-02-2.43383E-13-1.45479E-13
 -1       286 1.99922E+01 2.88475E-01-2.79078E-04-4.91037E-02-2.30976E-13-4.39642E-13
 -1       287 1.99960E+01 2.36568E-01-1.50611E-04-6.34854E-02-3.45658E-13-9.03602E-14
 -1       288 2.00007E+01 1.74262E-01-2.86820E-05-6.75626E-02-2.34450E-13 5.40623E-13
 -1       289 2.00057E+01 1.11906E-01 3.56487E-05-5.96285E-02 1.01424E-13 4.44989E-13
 -1       290 2.00102E+01 5.96837E-02 2.92079E-04-4.05595E-02 1.24538E-13 1.41230E-13
 -1       291 2.00189E+01 3.37660E-02 3.00063E-04-2.97782E-02-4.97075E-14-5.32175E-14
 -1       292-8.73042E-01-1.06120E+01-9.57822E-01 1.06453E+00-3.27641E-13 1.17906E-13
 -1       293 2.95787E+00-8.01768E+00-6.97182E-01 3.80352E+00-3.75505E-13 3.33400E-13
 -1       294 9.49672E+00-4.69068E+00-4.99664E-01 5.53366E+00-1.45994E-14 2.49245E-14
 -1       295 1.97691E+01-1.44224E+00-7.36468E-02 7.01235E+00-1.51018E-13 3.92436E-13
 -1       296 2.94273E+01 2.26138E+00 3.04416E-01 7.14733E+00 2.21809E-13 2.19491E-13
 -1       297 3.88528E+01 5.01512E+00 7.42276E-01 6.21101E+00 3.21487E-13-1.13465E-13
 -1       298 4.43734E+01 6.40221E+00 9.08821E-01 2.88498E+00 3.78711E-13-1.98147E-13
 -1       299 4.59125E+01 6.83345E+00 9.56444E-01-5.31914E-01 5.59691E-13-3.38951E-13
 -1       300 4.06752E+01 5.98200E+00 5.88273E-01-2.88884E+00 5.88654E-13-5.88973E-13
 -1       301 3.47502E+01 3.97085E+00 5.35386E-01-6.91268E+00 6.06931E-13-1.06837E-12
 -1       302 2.52428E+01 4.83445E-01 1.27129E-01-7.04618E+00 6.55531E-13-7.32053E-13
 -1       303 1.44422E+01-2.45415E+00-2.80571E-01-6.59135E+00 6.36685E-13-8.76632E-13
 -1       304 6.27273E+00-6.36230E+00-6.56047E-01-4.60709E+00 3.17996E-13-8.26492E-13
 -1       305 1.03345E+00-9.19374E+00-8.31734E-01-2.65051E+00 3.21410E-14-4.65364E-13
 -1       306-1.23071E+00-1.09914E+01-1.00236E+00-3.28618E-01-2.73920E-13-5.04291E-13
 -1       307-1.97097E-01-1.02191E+01-9.40463E-01 1.70953E+00-5.66963E-13-3.62210E-13
 -1       308 4.68813E+00-7.26551E+00-6.29595E-01 4.44225E+00-6.36963E-13-4.01526E-13
 -1       309 1.17177E+01-3.71473E+00-3.91196E-01 6.07591E+00-7.43905E-13-6.44054E-13
 -1       310 2.27662E+01-1.29794E+00 1.01971E-02 6.75314E+00-6.05765E-13-5.66575E-13
 -1       311 3.18640E+01 2.66074E+00 3.50951E-01 6.40815E+00-7.28639E-13-4.88914E-13
 -1       312 4.04832E+01 5.34597E+00 7.92741E-01 5.63552E+00-6.58345E-13-5.25080E-13
 -1       313 4.57484E+01 6.44966E+00 1.03448E+00 2.59179E+00-4.25548E-13-2.64927E-13
 -1       314 4.66648E+01 6.59194E+00 1.04486E+00-9.68866E-01-4.16472E-13 1.99632E-14
 -1       315 4.19781E+01 5.99398E+00 7.60035E-01-3.66106E+00-4.69957E-13 1.25816E-13
 -1       316 3.57940E+01 4.27770E+00 6.07259E-01-6.84180E+00-3.84172E-13 4.11837E-13
 -1       317 2.64576E+01 1.76067E+00 2.22139E-01-7.59129E+00-6.64829E-13 5.58581E-13
 -1       318 1.68084E+01-1.56399E+00-1.82483E-01-6.90087E+00-8.45823E-13 6.89226E-13
 -1       319 8.99695E+00-5.52478E+00-4.70991E-01-5.62518E+00-5.88085E-13 6.62373E-13
 -1       320 2.21731E+00-8.63642E+00-8.05325E-01-3.16189E+00-4.42008E-13 6.19296E-13
 -1       321-8.34008E-01-1.01071E+01-8.92499E-01-1.16784E+00-3.70856E-13 7.71050E-14
 -1       322 2.01436E+01 3.01649E+00-1.78902E-02-2.10355E+00-2.82391E-13-1.61101E-13
 -1       323 2.07427E+01 2.20772E+00-1.77991E-02-2.35841E+00-3.05314E-13 4.73944E-14
 -1       324 1.95960E+01 3.69934E+00-1.50547E-02-1.30966E+00-1.91140E-13-3.56516E-13
 -1       325 1.94749E+01 3.85978E+00-1.35320E-02-9.17470E-01-1.37222E-13-3.89613E-13
 -1       326 1.94074E+01 3.95298E+00-1.26362E-02-5.39878E-01-6.27061E-14-3.90122E-13
 -1       327 1.93775E+01 3.99559E+00-1.22375E-02-1.71887E-01-1.14024E-14-4.21138E-13
 -1       328 1.93788E+01 3.99395E+00-1.22625E-02 1.92926E-01 3.82469E-14-4.27178E-13
 -1       329 1.94116E+01 3.94768E+00-1.27144E-02 5.61282E-01 8.77113E-14-4.20527E-13
 -1       330 1.94808E+01 3.85192E+00-1.37321E-02 9.33263E-01 1.42687E-13-3.93983E-13
 -1       331 1.96047E+01 3.68639E+00-1.56270E-02 1.32621E+00 2.01113E-13-3.42785E-13
 -1       332 1.98150E+01 3.41422E+00-1.88066E-02 1.73145E+00 2.58002E-13-2.61772E-13
 -1       333 2.01773E+01 2.95648E+00-2.28930E-02 2.12078E+00 3.12388E-13-1.36253E-13
 -1       334 2.07353E+01 2.12903E+00-3.04069E-02 2.31731E+00 3.26142E-13 7.15539E-14
 -1       335 2.10733E+01 1.18730E+00-2.48585E-02 1.91856E+00 2.97939E-13 2.78890E-13
 -1       336 2.03730E+01 4.90009E-01 8.37498E-03 9.23300E-01 2.36935E-13 2.10412E-13
 -1       337 2.04460E+01 6.76995E-01 1.23713E-02-1.01928E+00-2.50072E-13 6.13946E-14
 -1       338 2.00300E+01 3.40604E-01 7.22672E-03-4.47931E-01-2.01364E-13 4.67049E-14
 -1       339 1.97840E+01 1.82396E-01 4.20346E-03-1.33393E-01-1.34715E-13 3.56023E-14
 -1       340 1.96604E+01 9.95981E-02 2.00015E-03 4.67014E-02-1.00018E-13-1.67700E-14
 -1       341 1.96223E+01 5.45748E-02 9.47159E-04 1.50881E-01-7.88503E-14-1.61337E-14
 -1       342 1.96415E+01 3.08295E-02 4.94192E-04 2.12251E-01-5.48478E-14-1.25025E-14
 -1       343 1.96998E+01 2.04451E-02 3.14963E-04 2.51072E-01-8.04515E-14-4.60174E-14
 -1       344 1.97860E+01 1.91755E-02 2.75176E-04 2.80678E-01-1.00818E-13-4.91757E-14
 -1       345 1.98946E+01 2.44945E-02 3.20245E-04 3.10378E-01-1.32438E-13-5.93631E-14
 -1       346 2.00239E+01 3.46961E-02 4.22346E-04 3.46911E-01-5.29035E-14-5.91621E-14
 -1       347 2.01752E+01 4.83710E-02 5.60048E-04 3.95110E-01-5.21981E-14-1.27504E-13
 -1       348 2.03515E+01 6.39832E-02 7.09376E-04 4.58060E-01 9.25906E-15-1.57122E-13
 -1       349 2.05568E+01 7.93968E-02 8.36952E-04 5.36784E-01 3.69675E-14-1.21789E-13
 -1       350 2.07956E+01 9.12580E-02 8.92699E-04 6.29393E-01 3.28470E-15-1.17828E-13
 -1       351 2.10714E+01 9.41896E-02 8.02708E-04 7.29581E-01 3.14272E-14-1.02737E-13
 -1       352 2.13865E+01 7.98805E-02 4.66053E-04 8.24345E-01 5.01589E-14-1.03448E-13
 -1       353 2.17401E+01 3.64811E-02-2.35727E-04 8.91017E-01-2.34477E-14-1.14157E-13
 -1       354 2.21269E+01-5.05573E-02-1.39559E-03 8.94331E-01-2.70864E-14-9.24594E-14
 -1       355 2.25345E+01-1.93845E-01-2.99430E-03 7.85622E-01 3.11080E-14-8.69010E-14
 -1       356 2.29384E+01-3.92068E-01-4.75661E-03 5.08813E-01 2.04771E-14-2.08481E-13
 -1       357 2.32929E+01-6.07380E-01-5.61813E-03 2.11683E-02 8.33806E-14-1.97435E-13
 -1       358 2.35199E+01-7.41123E-01-5.43272E-03-6.60565E-01 7.68799E-14-6.86791E-14
 -1       359 2.35188E+01-6.37436E-01-3.14453E-03-1.39535E+00 1.00818E-13-6.98464E-14
 -1       360 2.32146E+01-1.67249E-01-1.15962E-03-1.87806E+00 1.18239E-13-4.30916E-14
 -1       361 2.26887E+01 5.82259E-01-2.45050E-04-1.73190E+00-5.71882E-14 3.74512E-14
 -1       362 2.22318E+01 1.22316E+00-9.27250E-04-8.13293E-01-4.06472E-14 6.75989E-14
 -1       363 2.21757E+01 1.30151E+00-1.33957E-03 5.22203E-01 4.79131E-14 1.46838E-13
 -1       364 2.25651E+01 7.56622E-01-5.88802E-04 1.58602E+00-1.90416E-14-2.19644E-14
 -1       365 2.31075E+01-1.10731E-02-8.63997E-04 1.91100E+00-3.42487E-13-1.86558E-13
 -1       366 2.34776E+01-5.62296E-01-2.83750E-03 1.54382E+00-2.83028E-13-9.68264E-14
 -1       367 2.35475E+01-7.43465E-01-5.37055E-03 8.35510E-01-2.49389E-13 2.81358E-14
 -1       368 2.33653E+01-6.48443E-01-6.08694E-03 1.24777E-01-5.27055E-14 3.27462E-14
 -1       369 2.30351E+01-4.39400E-01-5.06243E-03-4.09265E-01 4.41053E-16 6.28809E-14
 -1       370 2.26422E+01-2.31160E-01-3.33365E-03-7.27974E-01 7.38218E-14-3.66206E-15
 -1       371 2.22393E+01-7.31833E-02-1.66701E-03-8.65346E-01 7.93245E-14 1.19440E-13
 -1       372 2.18552E+01 2.72589E-02-3.82769E-04-8.76682E-01 2.67706E-13 1.53599E-13
 -1       373 2.15052E+01 8.09990E-02 4.37177E-04-8.12991E-01 1.97435E-13-2.09557E-13
 -1       374 2.11963E+01 1.02785E-01 8.70199E-04-7.12395E-01 4.45168E-15 1.25261E-13
 -1       375 2.09309E+01 1.05258E-01 1.03427E-03-5.99921E-01-9.72671E-14 1.65266E-13
 -1       376 2.07080E+01 9.75060E-02 1.03561E-03-4.90247E-01-7.73944E-14 2.87104E-13
 -1       377 2.05247E+01 8.54615E-02 9.53662E-04-3.90798E-01 1.75508E-13 2.59491E-13
 -1       378 2.03769E+01 7.27850E-02 8.41162E-04-3.04286E-01 2.98349E-13 4.25772E-13
 -1       379 2.02601E+01 6.16917E-02 7.24175E-04-2.30502E-01 8.37126E-14 3.70894E-13
 -1       380 2.01696E+01 5.33281E-02 6.19676E-04-1.67599E-01-1.38525E-13 3.63701E-13
 -1       381 2.01013E+01 4.80102E-02 6.27361E-04-1.13098E-01-2.81811E-13 3.86921E-13
 -1       382 2.00549E+01 4.16503E-02 3.93366E-04-6.82685E-02-1.44003E-14 9.12520E-14
 -1       383 1.98764E+01 2.30279E-01 1.08421E-02 3.92442E-01 2.21483E-13 1.54210E-13
 -1       384 1.95952E+01 1.18507E-01 6.24847E-03 1.09705E-01 1.50838E-13 7.07266E-14
 -1       385 1.94720E+01 6.25612E-02 2.91830E-03-4.55441E-02 8.47820E-14 4.65005E-14
 -1       386 1.94490E+01 3.29926E-02 1.33998E-03-1.31910E-01 4.63629E-14-3.00058E-14
 -1       387 1.94893E+01 1.75394E-02 6.76771E-04-1.80619E-01 4.55299E-14-7.95603E-14
 -1       388 1.95702E+01 1.06529E-02 4.09613E-04-2.09693E-01 6.21146E-14-2.30249E-14
 -1       389 1.96792E+01 9.50693E-03 3.24795E-04-2.30620E-01 8.05486E-14-1.70738E-14
 -1       390 1.98102E+01 1.24831E-02 3.43620E-04-2.51283E-01 6.59410E-15-8.69569E-15
 -1       391 1.99620E+01 1.85259E-02 4.29999E-04-2.77361E-01 6.76005E-14-4.10397E-14
 -1       392 2.01367E+01 2.67995E-02 5.58211E-04-3.12969E-01 1.55211E-13-7.84510E-14
 -1       393 2.03384E+01 3.64271E-02 7.01133E-04-3.60826E-01 2.09796E-13-2.08509E-13
 -1       394 2.05727E+01 4.62085E-02 8.22803E-04-4.22037E-01 1.49244E-13-1.95805E-13
 -1       395 2.08452E+01 5.42541E-02 8.71620E-04-4.95419E-01-8.11650E-15-2.72042E-13
 -1       396 2.11600E+01 5.74971E-02 7.75055E-04-5.76257E-01 2.70042E-14-2.08657E-13
 -1       397 2.15181E+01 5.11160E-02 4.40006E-04-6.54396E-01-1.33904E-14-2.51305E-13
 -1       398 2.19145E+01 2.80642E-02-2.31570E-04-7.11687E-01 5.15325E-14-5.16242E-14
 -1       399 2.23354E+01-2.06783E-02-1.29932E-03-7.19357E-01-1.05134E-13-1.18962E-13
 -1       400 2.27539E+01-1.03720E-01-2.69891E-03-6.37043E-01-1.87172E-14-1.65425E-13
 -1       401 2.31261E+01-2.22479E-01-4.13257E-03-4.17535E-01-4.28735E-14-9.40010E-14
 -1       402 2.33883E+01-3.58204E-01-4.97422E-03-2.39254E-02 5.50532E-14-1.58302E-14
 -1       403 2.34600E+01-4.56126E-01-4.62593E-03 5.34130E-01-1.53445E-13 9.18437E-14
 -1       404 2.32635E+01-4.23870E-01-3.06919E-03 1.14929E+00-3.30709E-13 6.47772E-14
 -1       405 2.27764E+01-1.74899E-01-6.95803E-04 1.58671E+00-1.64907E-13 1.64499E-13
 -1       406 2.21099E+01 2.69217E-01 1.11488E-03 1.54997E+00-4.88210E-14 1.62454E-13
 -1       407 2.15418E+01 7.02254E-01 2.18524E-03 8.88507E-01 1.31431E-13 3.01310E-13
 -1       408 2.13817E+01 8.42727E-01 2.96125E-03-1.89947E-01 1.74203E-13 3.33277E-14
 -1       409 2.17321E+01 5.82855E-01 3.40383E-03-1.17761E+00 3.59058E-13 5.14931E-14
 -1       410 2.23846E+01 1.15385E-01 2.70984E-03-1.63333E+00 3.48646E-13 1.49289E-13
 -1       411 2.30136E+01-2.80007E-01-2.39744E-05-1.48218E+00 1.46537E-13-1.73016E-13
 -1       412 2.33964E+01-4.54784E-01-3.76884E-03-9.50342E-01 7.29998E-14-1.62088E-13
 -1       413 2.34815E+01-4.33028E-01-5.84801E-03-3.33914E-01-1.73404E-13 4.94597E-14
 -1       414 2.33253E+01-3.13428E-01-5.70565E-03 1.73134E-01-1.91891E-13 3.19715E-14
 -1       415 2.30129E+01-1.78561E-01-4.31147E-03 5.02811E-01 2.69533E-14-1.47734E-14
 -1       416 2.26206E+01-6.98895E-02-2.52572E-03 6.66811E-01 7.28067E-14 2.05489E-13
 -1       417 2.22050E+01 2.18887E-03-9.73653E-04 7.08519E-01-8.74797E-14 2.52420E-13
 -1       418 2.18032E+01 4.25582E-02 1.15310E-04 6.73787E-01-9.37707E-14-1.72840E-14
 -1       419 2.14369E+01 6.04646E-02 7.53089E-04 5.98942E-01-1.65491E-13-6.92163E-15
 -1       420 2.11168E+01 6.44416E-02 1.04772E-03 5.08646E-01 3.85561E-14 1.43873E-13
 -1       421 2.08460E+01 6.08147E-02 1.12001E-03 4.17753E-01-9.47140E-14-1.02189E-14
 -1       422 2.06230E+01 5.37792E-02 1.06836E-03 3.34067E-01 1.24747E-14 1.49343E-13
 -1       423 2.04434E+01 4.59475E-02 9.60376E-04 2.60741E-01 1.19886E-13 3.10206E-13
 -1       424 2.03023E+01 3.89026E-02 8.35614E-04 1.98026E-01 1.42667E-13 2.25249E-13
 -1       425 2.01941E+01 3.35416E-02 7.08922E-04 1.44444E-01 1.32980E-13-1.91644E-13
 -1       426 2.01139E+01 3.01066E-02 5.53819E-04 9.78389E-02 5.54730E-14 1.51283E-13
 -1       427 2.00570E+01 2.78570E-02 4.14785E-04 5.64839E-02-1.69688E-13 3.91422E-13
 -1       428 2.00310E+01 2.71107E-02 2.59072E-04 3.50647E-02-3.55154E-14 4.21638E-13
 -1       429 2.00111E+01 1.59943E-01 1.17789E-04 1.17907E-01-1.28631E-13-9.15664E-14
 -1       430 2.00289E+01 1.02823E-01 3.02461E-04 9.88941E-02-1.55016E-13 1.12147E-13
 -1       431 2.00343E+01 6.09847E-02 3.76127E-04 6.81367E-02-9.62769E-14 2.04881E-13
 -1       432 1.99925E+01 2.16376E-01-6.01037E-05 1.18232E-01-9.20154E-14-8.43515E-13
 -1       433 1.99759E+01 2.67312E-01-2.10195E-04 1.00088E-01-6.64041E-14-3.24152E-13
 -1       434 1.99636E+01 3.05332E-01-3.27288E-04 6.66076E-02 5.83504E-14-6.68049E-14
 -1       435 1.99571E+01 3.25594E-01-3.90754E-04 2.31386E-02-7.10805E-14 2.16680E-13
 -1       436 1.99572E+01 3.25478E-01-3.91793E-04-2.37739E-02-3.55407E-13 8.07760E-15
 -1       437 1.99637E+01 3.04981E-01-3.28655E-04-6.71809E-02-1.21986E-13-2.22870E-13
 -1       438 1.99758E+01 2.67544E-01-2.09941E-04-1.00088E-01 2.37404E-14-4.01509E-13
 -1       439 1.99925E+01 2.16586E-01-7.23658E-05-1.18339E-01 1.50246E-13 6.82899E-13
 -1       440 2.00111E+01 1.59235E-01 7.89628E-05-1.17827E-01 1.88259E-13 4.34692E-13
 -1       441 2.00295E+01 1.01500E-01 2.89525E-04-9.87329E-02-1.89081E-13 2.21958E-13
 -1       442 1.12987E+01-5.37170E+00 7.72015E-03 7.00588E+00-5.16545E-13 7.04992E-14
 -1       443 1.78392E+00-3.41471E+00 4.91437E-02 1.74568E-01-1.48932E-13 1.06248E-13
 -1       444 3.71258E+00-4.04532E+00 1.44536E-02 4.07979E+00-4.27498E-13 2.00409E-13
 -1       445 1.85476E+01-5.47955E+00-3.46529E-02 6.66826E+00-3.05714E-13 6.67660E-14
 -1       446 2.74477E+01-3.40695E+00 1.81073E-03 3.67923E+00-1.89862E-13 1.13215E-13
 -1       447 1.97928E+01 3.44422E+00-2.08561E-02-1.71924E+00-2.37927E-13-3.03558E-13
 -1       448 3.51019E+01 5.19676E+00 7.02975E-02 1.33589E-01 2.59154E-13-1.74805E-13
 -1       449 3.51512E+01 7.82667E+00 2.41515E-02-2.47546E-01 4.69846E-13-2.49245E-13
 -1       450 3.47657E+01 7.43300E+00-1.24822E-02 3.02930E-01 6.30745E-13-2.92176E-13
 -1       451 3.28158E+01 2.67545E+00-6.02591E-02-3.38918E-02 2.49814E-13-1.18863E-13
 -1       452 3.04541E+01-1.14396E+00 6.73389E-03-1.95830E+00 8.25173E-14-1.57360E-13
 -1       453 2.34398E+01-4.61553E+00-2.02351E-02-5.45264E+00 1.11952E-13-1.75499E-13
 -1       454 1.52212E+01-5.53551E+00-4.34744E-02-6.99139E+00 4.22995E-14-6.08695E-13
 -1       455 7.70912E+00-5.18422E+00-4.23497E-02-6.25652E+00 2.09555E-15-6.86562E-13
 -1       456 2.01007E+00-4.60414E+00-8.00153E-02-2.74547E+00-2.74780E-14-5.98285E-13
 -1       457 1.32084E+00-4.55248E+00-7.95704E-02 1.46297E+00 4.37324E-14-5.16615E-13
 -1       458 5.21935E+00-4.58923E+00-1.92959E-02 5.21143E+00 1.05888E-13-1.02571E-13
 -1       459 1.36070E+01-5.51006E+00 1.54067E-02 7.13121E+00 1.26288E-15-2.47439E-13
 -1       460 2.11096E+01-5.33476E+00-2.26785E-02 6.08169E+00-5.07927E-14-3.14158E-13
 -1       461 2.88542E+01-2.31215E+00 4.89466E-03 2.99469E+00-3.13437E-13-3.01981E-14
 -1       462 3.33252E+01 2.31591E+00 6.02699E-02 9.40988E-01-5.65124E-13-2.50244E-13
 -1       463 3.58078E+01 5.74818E+00 1.06805E-01 2.63943E-01-5.51018E-13-5.19473E-13
 -1       464 3.55043E+01 7.92414E+00 3.20342E-02-1.18052E-01-6.01880E-13-2.37015E-13
 -1       465 3.55923E+01 7.36455E+00 6.27274E-02 2.93067E-01-3.75838E-13-2.81275E-13
 -1       466 3.41556E+01 3.54712E+00 4.24275E-02-4.95383E-01-2.97866E-13-2.23876E-13
 -1       467 3.09154E+01-3.02947E-01 2.97813E-02-2.48801E+00-2.27950E-13-2.00701E-13
 -1       468 2.55110E+01-4.10123E+00-6.23969E-03-4.65012E+00-2.82344E-13-3.19494E-13
 -1       469 1.78042E+01-5.31638E+00-3.12958E-02-6.75035E+00-2.61985E-13 2.33057E-13
 -1       470 9.70031E+00-5.07421E+00 3.82114E-03-6.72659E+00-6.26443E-14 7.25184E-13
 -1       471 4.45778E+00-4.12458E+00 4.04925E-02-4.58836E+00-1.97828E-13 3.80557E-13
 -1       472 3.24102E+01 1.16544E+00 4.23889E-02 1.59682E+00 2.00255E-13-2.22627E-13
 -1       473 3.09003E+01 4.63730E+00-1.31136E-01 1.77874E+00 1.81813E-13-2.64747E-13
 -1       474 2.03681E+01 8.35815E-01 4.03746E-03 9.62658E-01 2.47830E-13-3.19430E-14
 -1       475 1.97460E+01 3.12354E+00-5.35097E-03-6.26304E-01-8.58663E-14-3.34988E-13
 -1       476 1.98405E+01 2.94654E+00-5.81421E-03-9.40569E-01-1.55196E-13-3.19870E-13
 -1       477 1.96789E+01 3.24979E+00-5.01252E-03 8.76661E-03 1.09964E-14-3.87618E-13
 -1       478 1.96973E+01 3.21578E+00-5.09054E-03 3.26173E-01 6.12960E-14-3.91235E-13
 -1       479 1.97508E+01 3.11627E+00-5.40174E-03 6.38090E-01 9.68922E-14-3.66006E-13
 -1       480 1.98480E+01 2.93438E+00-5.95698E-03 9.51325E-01 1.60502E-13-3.21397E-13
 -1       481 2.00007E+01 2.64449E+00-6.52450E-03 1.24587E+00 2.08660E-13-2.65516E-13
 -1       482 2.02371E+01 2.19393E+00-5.69128E-03 1.49146E+00 2.68218E-13-1.84418E-13
 -1       483 2.01120E+01 4.60671E-01 5.10680E-03 4.49713E-01 2.24007E-13-2.16476E-14
 -1       484 2.03432E+01 9.82053E-01 2.94657E-03-9.31480E-01-2.32952E-13-8.44938E-14
 -1       485 2.01764E+01 5.54613E-01 1.96389E-03-4.49425E-01-1.80300E-13-9.01850E-14
 -1       486 2.00374E+01 3.20329E-01 1.10339E-03-1.37775E-01-1.47740E-13-1.08995E-13
 -1       487 1.99476E+01 1.86021E-01 4.94947E-04 5.85069E-02-9.08946E-14-9.91863E-14
 -1       488 1.99041E+01 1.09496E-01 2.34742E-04 1.81807E-01-7.82795E-14-1.28771E-13
 -1       489 1.98973E+01 6.91623E-02 1.30540E-04 2.61278E-01-9.37260E-14-1.63513E-13
 -1       490 1.99187E+01 5.30757E-02 9.95221E-05 3.17338E-01-5.02357E-14-1.93502E-13
 -1       491 1.99619E+01 5.41523E-02 1.09478E-04 3.64533E-01-1.29916E-13-1.55168E-13
 -1       492 2.00233E+01 6.77885E-02 1.47251E-04 4.13477E-01-8.43562E-14-8.69342E-14
 -1       493 2.01010E+01 9.05498E-02 2.04537E-04 4.71930E-01-8.67604E-14-6.85097E-14
 -1       494 2.01950E+01 1.19268E-01 2.73045E-04 5.45309E-01-4.40502E-14-4.44935E-14
 -1       495 2.03064E+01 1.50196E-01 3.41727E-04 6.36726E-01 2.61760E-14-7.28933E-14
 -1       496 2.04376E+01 1.78011E-01 3.93930E-04 7.46532E-01-9.18195E-15-1.09724E-13
 -1       497 2.05924E+01 1.94541E-01 4.03819E-04 8.71321E-01-1.79629E-14-1.08628E-13
 -1       498 2.07764E+01 1.87217E-01 3.32368E-04 1.00226E+00 2.79081E-14-7.93931E-14
 -1       499 2.09990E+01 1.37579E-01 1.23167E-04 1.12262E+00 1.85808E-14-9.76404E-14
 -1       500 2.12744E+01 2.09074E-02-2.98149E-04 1.20464E+00-8.65349E-14-1.09336E-13
 -1       501 2.16238E+01-1.90366E-01-9.88164E-04 1.20585E+00-2.46768E-14-5.29972E-14
 -1       502 2.20720E+01-5.14352E-01-1.95052E-03 1.06700E+00-2.59509E-14-2.56729E-13
 -1       503 2.26357E+01-9.31550E-01-3.13911E-03 7.15922E-01 1.91640E-14-1.18760E-13
 -1       504 2.32940E+01-1.33465E+00-2.10118E-03 8.90804E-02 1.29476E-13-1.29149E-13
 -1       505 2.39251E+01-1.47582E+00-3.13055E-03-8.02887E-01 1.35525E-13-1.21972E-13
 -1       506 2.43274E+01-1.03310E+00-7.02966E-03-1.75534E+00 1.08994E-13-8.82762E-14
 -1       507 2.42572E+01 2.22960E-01-1.37387E-02-2.26343E+00-3.07523E-15-1.47314E-13
 -1       508 2.38188E+01 1.83321E+00-2.45704E-02-1.75672E+00-4.40542E-14-1.75658E-13
 -1       509 2.35123E+01 2.72229E+00-2.94053E-02-2.08444E-01 2.29244E-14-1.22271E-13
 -1       510 2.37163E+01 2.14069E+00-2.75043E-02 1.47570E+00 8.10810E-15-1.22510E-13
 -1       511 2.41759E+01 5.91615E-01-1.70931E-02 2.25417E+00-2.97898E-13-2.37198E-13
 -1       512 2.43517E+01-7.98535E-01-6.24548E-03 1.93426E+00-2.30657E-13-5.84084E-14
 -1       513 2.40528E+01-1.43833E+00-4.02720E-03 1.03159E+00-2.50546E-13-1.02095E-13
 -1       514 2.34506E+01-1.39909E+00-3.82073E-03 9.98733E-02-2.40068E-14-6.39207E-14
 -1       515 2.27865E+01-1.02592E+00-3.04633E-03-5.89996E-01 8.70423E-14 2.12151E-13
 -1       516 2.21999E+01-5.96516E-01-2.04370E-03-9.95457E-01 9.98024E-14 4.54024E-13
 -1       517 2.17297E+01-2.45222E-01-1.15118E-03-1.17074E+00 1.36465E-13 5.55575E-13
 -1       518 2.13650E+01-6.36896E-03-4.02091E-04-1.18861E+00 1.23773E-13 3.71563E-13
 -1       519 2.10813E+01 1.32698E-01 7.95013E-05-1.11177E+00 1.79170E-14 1.20638E-13
 -1       520 2.08563E+01 1.98989E-01 3.39347E-04-9.86131E-01 1.19217E-13 4.97029E-14
 -1       521 2.06746E+01 2.18392E-01 4.49951E-04-8.42243E-01 1.46036E-13 1.84468E-13
 -1       522 2.05259E+01 2.10790E-01 4.69281E-04-6.98826E-01 1.03649E-13 4.94735E-13
 -1       523 2.04038E+01 1.89848E-01 4.40795E-04-5.66203E-01-6.43892E-14 4.99577E-13
 -1       524 2.03039E+01 1.64336E-01 3.91469E-04-4.49024E-01 1.40318E-13 3.61929E-13
 -1       525 2.02226E+01 1.39601E-01 3.31990E-04-3.48374E-01 1.99292E-13 3.87387E-13
 -1       526 2.01566E+01 1.18936E-01 2.79672E-04-2.62904E-01 4.81177E-14 3.66447E-13
 -1       527 2.01040E+01 1.03189E-01 2.86021E-04-1.90368E-01-2.16597E-13 5.41689E-13
 -1       528 1.98301E+01 1.45396E-01 1.07408E-03-5.44757E-02 1.10892E-13-9.92992E-14
 -1       529 1.97890E+01 8.29027E-02 4.78484E-04-1.70297E-01 7.23795E-14-1.27151E-13
 -1       530 1.97935E+01 4.99490E-02 2.45163E-04-2.42261E-01 4.27952E-14-1.32380E-13
 -1       531 1.98312E+01 3.61976E-02 1.63894E-04-2.90892E-01 3.04321E-14-9.90580E-14
 -1       532 1.98939E+01 3.58048E-02 1.59606E-04-3.30350E-01 6.48666E-14-5.06342E-14
 -1       533 1.99772E+01 4.51104E-02 2.03798E-04-3.70772E-01 7.66046E-14-9.88855E-14
 -1       534 2.00794E+01 6.14809E-02 2.80275E-04-4.19512E-01 1.54795E-13-1.67645E-13
 -1       535 2.02010E+01 8.25755E-02 3.74949E-04-4.81717E-01 1.82534E-13-6.85050E-14
 -1       536 2.03437E+01 1.05693E-01 4.70316E-04-5.60387E-01 1.49220E-13 2.03867E-14
 -1       537 2.05106E+01 1.27026E-01 5.41370E-04-6.55944E-01 6.52418E-14 7.42347E-14
 -1       538 2.07053E+01 1.40715E-01 5.51089E-04-7.65233E-01-3.62313E-15 1.27099E-13
 -1       539 2.09319E+01 1.37692E-01 4.47181E-04-8.79848E-01 2.62904E-14 1.14259E-13
 -1       540 2.11956E+01 1.04532E-01 1.60208E-04-9.83726E-01-1.55904E-14 1.45031E-13
 -1       541 2.15024E+01 2.30567E-02-3.89023E-04-1.05016E+00-6.98700E-14 3.26805E-14
 -1       542 2.18595E+01-1.27422E-01-1.26396E-03-1.03888E+00-6.93769E-14 2.17637E-14
 -1       543 2.22728E+01-3.61266E-01-2.42501E-03-8.95322E-01 1.08125E-14 3.73470E-14
 -1       544 2.27376E+01-6.65852E-01-3.58097E-03-5.57533E-01-1.82625E-14-8.61540E-15
 -1       545 2.32192E+01-9.67321E-01-3.96989E-03 1.97973E-02-1.52148E-13 1.47851E-13
 -1       546 2.36255E+01-1.09728E+00-3.50634E-03 8.09958E-01-2.42777E-13 2.69412E-13
 -1       547 2.38022E+01-8.15982E-01-3.69740E-03 1.62964E+00-2.04716E-13 1.30892E-13
 -1       548 2.36228E+01 1.93809E-02-4.58436E-03 2.08688E+00 3.68943E-15-3.21966E-14
 -1       549 2.31693E+01 1.17165E+00-7.35018E-03 1.73047E+00 1.15154E-13-1.44567E-13
 -1       550 2.28131E+01 1.95301E+00-9.41106E-03 4.98681E-01 2.31833E-13-1.44574E-13
 -1       551 2.29023E+01 1.76240E+00-1.07017E-02-1.02287E+00 1.61293E-13 7.20691E-15
 -1       552 2.33458E+01 7.53253E-01-9.02378E-03-1.96964E+00 3.76452E-13 3.85325E-16
 -1       553 2.37323E+01-3.40979E-01-4.03549E-03-1.99710E+00 4.63206E-13-8.86038E-14
 -1       554 2.37792E+01-9.80984E-01-3.92150E-03-1.35323E+00 3.18132E-14-1.35887E-13
 -1       555 2.35000E+01-1.08419E+00-4.63175E-03-5.10487E-01-1.64342E-13 1.48444E-13
 -1       556 2.30540E+01-8.64640E-01-4.20671E-03 2.10512E-01-1.48079E-13 3.68152E-13
 -1       557 2.25748E+01-5.46584E-01-3.32083E-03 6.95273E-01-9.78580E-14 1.85004E-13
 -1       558 2.21310E+01-2.61153E-01-2.04129E-03 9.51333E-01-2.33236E-14 1.43600E-13
 -1       559 2.17442E+01-5.56605E-02-8.86036E-04 1.03396E+00-7.54617E-14 2.85232E-13
 -1       560 2.14138E+01 7.02427E-02-5.93878E-05 1.00373E+00 7.93782E-14 2.55533E-13
 -1       561 2.11335E+01 1.34798E-01 4.37011E-04 9.10005E-01-1.46467E-13 2.31096E-13
 -1       562 2.08967E+01 1.58397E-01 6.77355E-04 7.87655E-01-2.20061E-13 4.47104E-14
 -1       563 2.06981E+01 1.57634E-01 7.49265E-04 6.58940E-01 1.36204E-13 1.83285E-13
 -1       564 2.05331E+01 1.44251E-01 7.24046E-04 5.36643E-01-3.25556E-14 4.80363E-14
 -1       565 2.03978E+01 1.25915E-01 6.52091E-04 4.27003E-01-4.76892E-14 2.98676E-14
 -1       566 2.02883E+01 1.07384E-01 5.63326E-04 3.31997E-01 1.04840E-13 1.81726E-13
 -1       567 2.02010E+01 9.14591E-02 5.04019E-04 2.51040E-01 1.14530E-13 4.92694E-13
 -1       568 2.01323E+01 7.96588E-02 5.30814E-04 1.82273E-01 1.22108E-13 6.78344E-13
 -1       569 2.00782E+01 7.10533E-02 4.56963E-04 1.22856E-01-1.22172E-13 4.97026E-13
 -1       570 1.99637E+01 2.62602E-01-6.96057E-05 1.56391E-01 2.29773E-13-5.62428E-13
 -1       571 1.99334E+01 3.08166E-01-1.21776E-04 1.18282E-01 7.31590E-14-1.36149E-13
 -1       572 2.00385E+01 1.44963E-01 1.11638E-05 1.63189E-01-8.38468E-14-6.31708E-14
 -1       573 2.00006E+01 2.06304E-01-1.97724E-05 1.72049E-01-2.13338E-13-4.67341E-13
 -1       574 1.76597E+01-5.12732E+00 8.67467E-02 6.52880E+00-4.07722E-13 2.52055E-13
 -1       575 1.99136E+01 3.37626E-01-1.63646E-04 6.34030E-02-1.12724E-13-3.62676E-14
 -1       576 1.99068E+01 3.47776E-01-1.80621E-04-4.00324E-04-2.65884E-13-1.63615E-13
 -1       577 1.99138E+01 3.37462E-01-1.66588E-04-6.41831E-02-1.41029E-13 3.23459E-13
 -1       578 1.99332E+01 3.08481E-01-1.28859E-04-1.18148E-01 1.16038E-13-2.85843E-13
 -1       579 1.99635E+01 2.63071E-01-6.30919E-05-1.56336E-01 3.47818E-13 6.11626E-17
 -1       580 2.00009E+01 2.06222E-01 4.62113E-05-1.72127E-01 1.74672E-13 5.60763E-13
 -1       581 2.00385E+01 1.44696E-01 1.61005E-04-1.63117E-01-2.95597E-13-1.77859E-14
 -1       582 2.42719E+01-5.19244E+00 9.43580E-03 4.24172E+00-3.49040E-13 3.71037E-13
 -1       583 1.99331E+01 2.57436E-01 2.49413E-03 1.36044E-01 1.66284E-13-6.98154E-14
 -1       584 5.48094E+00-1.31365E+00 1.74018E-01 2.34751E+00-2.27054E-13-1.01821E-13
 -1       585 5.35190E+00-1.48231E+00 1.70619E-01-2.48022E+00-2.12552E-13 2.22572E-13
 -1       586 2.90977E+01-1.88181E+00-7.44951E-02 1.00377E-01 1.60974E-13-1.44371E-13
 -1       587 1.68049E+01-5.13954E+00 9.05727E-02-6.73992E+00 2.44152E-13-6.82648E-14
 -1       588 2.60913E+01-4.96807E+00-6.06226E-03 2.91196E+00 3.73347E-14 1.01901E-13
 -1       589 1.24678E+01-3.61319E+00 1.46482E-01 6.48113E+00 1.96253E-13-1.65569E-13
 -1       590 3.05458E+01 5.80358E+00-1.55017E-01-1.52274E+00 4.23300E-13-6.25125E-13
 -1       591 1.96944E+01 3.22024E+00-5.09031E-03-3.08790E-01-2.45657E-14-3.64873E-13
 -1       592 2.96187E+01 7.01697E+00-1.90260E-01 2.97479E-01 5.59885E-13-6.24120E-13
 -1       593 2.09877E+01-5.60597E+00 3.39963E-02-5.77284E+00-6.05418E-14-1.70908E-13
 -1       594 3.04691E+01 1.71330E+00-1.19790E-01-1.49009E+00 2.53915E-13-3.24261E-13
 -1       595 2.92517E+01-6.28287E-01-1.19130E-01 1.31438E+00-8.87831E-15 5.58512E-14
 -1       596 2.97440E+01-1.04868E+00-7.80821E-02-5.80178E-01-2.00867E-13-6.10761E-14
 -1       597 2.75648E+01-4.05628E+00-2.21156E-02-1.85506E+00-6.08749E-14-6.95277E-15
 -1       598 1.46319E+01-4.64689E+00 1.15038E-01-6.86844E+00-4.71914E-14-5.04936E-13
 -1       599 7.33835E+00-2.58821E+00 1.44235E-01-4.97475E+00-8.04010E-14-6.48454E-13
 -1       600 4.14460E+00-1.61786E+00 1.60485E-01-6.83834E-01 1.23493E-13-3.91048E-13
 -1       601 5.81193E+00-1.75710E+00 1.62523E-01 3.33292E+00 3.53485E-13-1.98772E-13
 -1       602 1.93137E+01-5.37479E+00 6.17538E-02 6.17251E+00 1.92020E-13-1.73686E-13
 -1       603 3.05278E+01 2.79088E-01-9.51523E-02 7.74164E-01-2.15539E-13-3.95808E-13
 -1       604 3.06043E+01 3.18326E+00-1.41141E-01-1.77702E+00-3.47132E-13-1.65493E-14
 -1       605 3.01640E+01 6.31901E+00-1.78783E-01-1.29634E+00-5.41442E-13 1.24033E-14
 -1       606 3.02723E+01 7.09178E+00-1.77240E-01 4.28294E-01-3.74742E-13-2.81211E-13
 -1       607 3.04125E+01 4.71448E+00-1.46954E-01 1.82136E+00-2.54879E-13-4.09082E-13
 -1       608 2.83052E+01-3.08199E+00-4.86889E-02-1.44986E+00-9.34279E-14-3.59539E-13
 -1       609 2.25627E+01-5.41967E+00 2.48723E-02-5.09747E+00 1.31860E-13-3.69366E-13
 -1       610 1.00670E+01-2.58557E+00 1.53330E-01-5.63518E+00 1.31631E-14 3.96072E-13
 -1       611 2.03904E+01 1.77515E+00-5.66543E-03-1.53756E+00-2.77692E-13-1.18191E-13
 -1       612 2.05752E+01 1.30671E+00-9.84349E-04 1.54148E+00 2.85292E-13-4.22080E-15
 -1       613 1.09343E+01-2.82410E+00 1.61534E-01 5.96954E+00-3.74922E-13 6.54407E-14
 -1       614 1.99880E+01 2.67347E+00-6.59698E-03-1.24369E+00-2.07895E-13-3.20587E-13
 -1       615 2.59519E+01-4.91937E+00-9.83324E-03-2.51580E+00-9.47194E-14-2.98296E-13
 -1       616 2.00740E+01 9.43010E-02 3.04080E-04-1.46172E-01-4.82933E-13 3.93334E-13
 -1       617 2.70645E+01-4.20333E+00-2.72247E-02 1.17754E+00-1.85436E-13 7.95718E-14
 -1       618 1.99700E+01 2.48074E+00-1.58816E-03 3.85181E-01 6.64374E-14-3.36261E-13
 -1       619 1.99377E+01 2.55830E+00-1.50129E-03 1.32727E-01 3.39585E-14-3.54571E-13
 -1       620 2.01307E+01 2.06639E+00-1.57906E-03 8.34445E-01 1.63059E-13-2.55783E-13
 -1       621 2.02464E+01 1.68977E+00-2.25005E-03 9.76766E-01 2.23295E-13-1.86515E-13
 -1       622 2.03238E+01 1.04721E+00 2.90854E-03 8.15744E-01 2.14695E-13-1.53002E-13
 -1       623 2.02149E+01 6.31812E-01 1.13622E-03 3.96381E-01 1.89581E-13-1.36934E-13
 -1       624 2.08033E+01-4.87388E+00 5.00482E-02-5.08308E+00 1.82531E-13-2.56565E-13
 -1       625 2.20566E+01-4.96856E+00 3.00749E-02 4.47605E+00-3.56784E-13 2.61226E-13
 -1       626 2.02509E+01 6.95914E-01 2.78552E-04-3.65116E-01-1.65179E-13-1.82382E-13
 -1       627 2.01836E+01 4.25997E-01 1.68991E-04-9.70051E-02-1.21038E-13-1.76707E-13
 -1       628 2.01250E+01 2.60493E-01 6.49182E-05 8.49807E-02-9.65850E-14-1.82912E-13
 -1       629 2.00833E+01 1.64110E-01 3.12117E-05 2.07305E-01-1.05017E-13-2.20814E-13
 -1       630 2.00592E+01 1.14770E-01 2.24782E-05 2.92585E-01-7.83137E-14-1.99040E-13
 -1       631 2.00501E+01 9.88009E-02 2.49303E-05 3.58366E-01-6.08787E-14-1.71682E-13
 -1       632 2.00535E+01 1.07246E-01 3.51629E-05 4.18141E-01-3.34555E-14-6.33913E-14
 -1       633 2.00669E+01 1.33693E-01 5.19227E-05 4.82150E-01-2.52685E-14-4.59832E-14
 -1       634 2.00886E+01 1.72851E-01 7.39728E-05 5.57986E-01-7.00174E-14 5.90104E-15
 -1       635 2.01178E+01 2.19372E-01 9.92232E-05 6.50917E-01-2.19063E-14 3.11464E-17
 -1       636 2.01547E+01 2.66595E-01 1.24392E-04 7.63900E-01-4.28975E-15 1.47196E-14
 -1       637 2.02015E+01 3.05014E-01 1.44343E-04 8.97255E-01-1.53015E-16-2.43503E-14
 -1       638 2.02634E+01 3.20372E-01 1.50766E-04 1.04795E+00-2.41916E-14-6.96742E-14
 -1       639 2.03514E+01 2.91458E-01 1.28103E-04 1.20838E+00-1.66295E-14-1.01846E-13
 -1       640 2.04862E+01 1.88154E-01 4.17834E-05 1.36438E+00 1.32883E-15-5.61100E-14
 -1       641 2.07028E+01-2.85585E-02-1.77888E-04 1.49177E+00-4.11878E-14-6.49670E-14
 -1       642 2.10553E+01-4.00476E-01-5.38743E-04 1.55015E+00-8.83191E-14-2.65698E-14
 -1       643 2.16156E+01-9.51423E-01-1.09182E-03 1.47314E+00 5.22634E-14 5.68165E-14
 -1       644 2.24530E+01-1.63870E+00-2.38745E-03 1.15346E+00 1.44576E-13 9.51240E-14
 -1       645 2.35736E+01-2.28872E+00-1.58878E-03 4.59545E-01 1.28729E-13 8.42210E-14
 -1       646 2.47340E+01-2.26653E+00-1.46873E-02-6.76344E-01 8.34671E-14 1.54093E-14
 -1       647 2.57300E+01-1.21963E+00-2.47381E-02-1.97675E+00 2.74342E-14 1.81942E-14
 -1       648 2.57491E+01 1.34770E+00-6.27804E-02-2.48281E+00-5.39586E-14 2.97600E-14
 -1       649 2.54062E+01 3.92988E+00-9.00250E-02-1.36810E+00-1.73219E-13-8.30429E-14
 -1       650 2.53421E+01 4.27413E+00-8.95794E-02 8.92470E-01-9.25718E-14-3.32568E-13
 -1       651 2.56693E+01 2.03083E+00-7.44439E-02 2.40311E+00-1.56132E-13-3.89589E-13
 -1       652 2.57508E+01-7.38636E-01-2.60467E-02 2.14286E+00-1.13469E-13-3.21738E-13
 -1       653 2.50424E+01-2.21171E+00-1.07225E-02 9.45867E-01-2.42744E-13-1.38480E-13
 -1       654 2.38466E+01-2.34060E+00-3.47201E-03-2.48348E-01-8.08844E-14 5.89657E-14
 -1       655 2.26851E+01-1.78873E+00-9.01483E-04-1.03135E+00 9.99454E-14-6.41186E-14
 -1       656 2.17828E+01-1.08829E+00-3.65982E-04-1.41469E+00 2.22336E-13 7.67449E-14
 -1       657 2.11671E+01-4.96451E-01-4.65294E-04-1.52955E+00 2.26188E-15 2.17871E-14
 -1       658 2.07764E+01-8.08640E-02-1.50912E-04-1.48789E+00-6.32941E-14 1.18398E-13
 -1       659 2.05369E+01 1.72014E-01 4.31909E-05-1.36311E+00 9.97115E-14 2.62592E-14
 -1       660 2.03899E+01 3.02662E-01 1.26663E-04-1.20022E+00 1.83080E-13 1.33177E-13
 -1       661 2.02963E+01 3.51584E-01 1.56999E-04-1.02613E+00 5.75633E-14 1.61339E-13
 -1       662 2.02326E+01 3.50912E-01 1.57084E-04-8.56724E-01 1.81200E-13 3.69962E-14
 -1       663 2.01856E+01 3.23480E-01 1.45197E-04-7.00900E-01 1.49464E-13-1.35641E-14
 -1       664 2.01485E+01 2.84467E-01 1.32190E-04-5.62916E-01 9.13530E-14 2.76027E-13
 -1       665 2.01176E+01 2.43449E-01 1.11846E-04-4.43774E-01 1.58939E-13 2.71300E-13
 -1       666 2.00911E+01 2.06421E-01 1.41332E-04-3.43337E-01-1.26760E-13-2.68262E-14
 -1       667 2.00674E+01 1.76410E-01 2.53106E-04-2.59442E-01-1.87531E-13-3.53204E-13
 -1       668 2.00106E+01 1.38176E-01 1.03487E-04-1.98723E-01 6.55333E-14-7.93332E-14
 -1       669 7.99951E+00 1.28697E-01 1.50577E-01-1.92587E-01-2.42246E-13 1.12056E-13
 -1       670 2.00521E+01 2.25663E-01 1.96805E-04-7.56164E-02 1.10907E-13-7.63012E-14
 -1       671 2.00000E+01 7.62312E-02 5.77267E-05-3.43708E-01 2.83705E-14-3.92504E-14
 -1       672 2.00220E+01 8.08504E-02 6.66765E-05-3.98313E-01 1.13369E-13-8.51484E-14
 -1       673 2.00580E+01 1.00877E-01 8.80968E-05-4.56078E-01 1.44385E-13-5.97703E-14
 -1       674 2.01063E+01 1.31842E-01 1.19533E-04-5.24650E-01 1.17431E-13-5.56009E-14
 -1       675 2.01665E+01 1.69344E-01 1.56454E-04-6.09280E-01 7.84935E-14 6.92004E-14
 -1       676 2.02393E+01 2.07970E-01 1.92293E-04-7.12785E-01 1.72212E-14 1.21766E-13
 -1       677 2.03269E+01 2.40019E-01 2.17229E-04-8.35111E-01-2.15320E-14 1.38295E-13
 -1       678 2.04340E+01 2.53896E-01 2.16509E-04-9.72385E-01 4.15228E-15 1.23839E-13
 -1       679 2.05692E+01 2.32304E-01 1.70704E-04-1.11539E+00-7.78703E-14 2.86443E-13
 -1       680 2.07479E+01 1.50731E-01 4.53804E-05-1.24732E+00-2.51431E-14 3.31741E-13
 -1       681 2.09952E+01-2.24575E-02-2.18941E-04-1.34069E+00 2.80139E-15 2.96581E-13
 -1       682 2.13488E+01-3.20863E-01-7.14932E-04-1.35267E+00 3.98071E-14 1.66284E-13
 -1       683 2.18559E+01-7.62024E-01-1.43782E-03-1.21942E+00 1.80475E-14 1.16182E-13
 -1       684 2.25534E+01-1.30669E+00-2.04878E-03-8.56260E-01-1.02815E-13 2.14352E-13
 -1       685 2.34240E+01-1.79342E+00-1.32577E-03-1.75756E-01-1.66375E-13 1.30014E-13
 -1       686 2.42996E+01-1.86704E+00-4.70906E-03 8.21226E-01-2.29389E-13 9.39986E-14
 -1       687 2.48790E+01-1.06014E+00-1.37094E-02 1.89149E+00 3.86995E-15 1.10776E-13
 -1       688 2.48801E+01 7.88429E-01-2.55615E-02 2.38016E+00 5.83773E-14 1.21718E-13
 -1       689 2.43589E+01 2.86151E+00-6.70293E-02 1.56504E+00 2.19148E-13 1.82312E-13
 -1       690 2.42468E+01 3.49854E+00-5.74906E-02-3.77321E-01 1.63040E-13 3.16019E-14
 -1       691 2.45294E+01 2.16583E+00-5.21241E-02-2.04137E+00 3.54626E-13-2.17136E-13
 -1       692 2.49284E+01 1.06064E-02-1.35435E-02-2.31351E+00 4.59267E-13-2.14197E-13
 -1       693 2.47481E+01-1.48964E+00-9.85051E-03-1.54072E+00 1.77553E-13-1.67358E-13
 -1       694 2.40023E+01-1.91568E+00-4.74497E-03-4.38314E-01-1.57837E-13-4.95437E-15
 -1       695 2.30983E+01-1.63430E+00-1.09673E-03 4.54165E-01-2.98818E-13-1.02189E-13
 -1       696 2.22850E+01-1.09676E+00-1.16496E-03 1.00855E+00-1.35099E-13-1.80107E-14
 -1       697 2.16603E+01-5.76773E-01-8.68759E-04 1.27340E+00 1.68605E-13-7.23199E-14
 -1       698 2.12169E+01-1.84000E-01-4.46285E-04 1.33920E+00-1.13166E-13-1.23403E-13
 -1       699 2.09104E+01 6.95193E-02-1.10787E-04 1.28366E+00 5.92065E-14-2.77510E-14
 -1       700 2.06961E+01 2.10101E-01 1.03894E-04 1.16210E+00-6.70259E-14 2.22836E-13
 -1       701 2.05410E+01 2.71693E-01 2.14104E-04 1.01110E+00-1.91780E-14 1.58967E-13
 -1       702 2.04237E+01 2.83638E-01 2.54723E-04 8.53677E-01-7.35677E-14 6.61018E-14
 -1       703 2.03317E+01 2.67643E-01 2.55835E-04 7.03462E-01 1.70624E-13 2.09322E-13
 -1       704 2.02575E+01 2.38485E-01 2.33990E-04 5.67618E-01 1.50828E-13 2.92468E-14
 -1       705 2.01968E+01 2.05579E-01 1.98144E-04 4.48977E-01-1.36779E-13-1.48087E-13
 -1       706 2.01467E+01 1.74835E-01 1.77989E-04 3.47650E-01-1.02261E-13-1.61075E-13
 -1       707 2.01051E+01 1.49572E-01 2.34171E-04 2.62093E-01-3.90532E-14-3.26638E-13
 -1       708 2.00674E+01 1.46690E-01 1.73831E-04 2.10477E-01-5.16084E-14-2.41269E-13
 -1       709 1.98439E+01 3.86028E-01-6.66859E-05 4.14759E-02 1.27039E-14-1.35354E-13
 -1       710 2.00529E+01 1.58727E-01 6.35910E-05-2.09593E-01-2.24273E-13-3.67413E-13
 -1       711 1.99080E+01 3.21609E-01-3.25796E-05 1.82154E-01 2.01065E-13-6.00399E-13
 -1       712 2.74549E+01 2.07671E+00-1.07524E-01 2.42335E+00-4.44055E-14-5.91298E-14
 -1       713 1.98440E+01 3.85980E-01-6.36951E-05-4.23618E-02 4.93205E-14-1.45111E-13
 -1       714 1.98662E+01 3.63793E-01-4.31199E-05 1.19774E-01-8.55081E-14-1.35983E-13
 -1       715 1.98659E+01 3.64236E-01-5.09493E-05-1.19404E-01-1.54788E-13 3.49732E-13
 -1       716 1.99077E+01 3.22190E-01-4.54874E-05-1.82181E-01 1.23587E-13-1.89609E-13
 -1       717 1.99630E+01 2.64870E-01-9.98168E-05-2.22022E-01 1.79465E-13 3.37811E-13
 -1       718 2.01213E+01 3.78266E-01 5.73083E-04 1.12472E-01 1.38609E-13-7.64406E-14
 -1       719 2.84067E+01-2.07229E+00-7.78965E-02 7.08341E-01-1.32910E-13-4.63088E-13
 -1       720 9.77120E+00-5.25463E-01 1.22864E-01-3.36608E+00 4.47212E-14 1.30514E-13
 -1       721 1.75745E+01-3.77592E+00 6.86177E-02 5.58041E+00 1.73039E-13-1.05253E-13
 -1       722 7.71145E+00-3.13099E-02 1.52822E-01 8.82571E-01 2.70263E-13-1.72633E-13
 -1       723 1.99948E+01 9.26328E-02 6.64290E-05-2.81835E-01 1.89592E-14-3.61330E-14
 -1       724 1.68357E+01-3.26009E+00 7.74476E-02 5.48547E+00-2.06531E-13 3.59393E-13
 -1       725 1.50376E+01-2.86598E+00 1.07697E-01-5.70530E+00 1.79128E-13 8.97442E-14
 -1       726 2.02972E+01 1.14037E+00 8.86739E-04-7.44280E-01-1.91057E-13-1.74443E-13
 -1       727 2.00346E+01 2.32129E+00-1.64787E-03 6.24732E-01 1.19296E-13-3.07561E-13
 -1       728 2.77325E+01 4.35585E-01-9.38819E-02-2.30087E+00-9.49206E-14 4.09561E-13
 -1       729 2.81886E+01-7.25693E-01-1.05004E-01-1.68443E+00 3.21600E-13-2.15779E-13
 -1       730 1.90577E+01-4.54036E+00 7.09465E-02-5.65972E+00-3.61135E-14-1.05667E-13
 -1       731 1.30550E+01-2.46119E+00 1.16978E-01-5.62440E+00-1.10915E-13-5.66915E-13
 -1       732 2.00271E+01 2.33451E+00-1.85821E-03-6.15405E-01-1.10605E-13-2.73854E-13
 -1       733 2.70343E+01-2.95598E+00-3.63327E-02 3.99959E-01-7.98701E-14 5.08794E-15
 -1       734 8.45297E+00-4.79302E-01 1.49634E-01-2.82096E+00 1.41149E-13-4.50529E-13
 -1       735 2.74940E+01 5.11930E+00-1.45980E-01 1.55959E+00-1.83423E-13-1.92528E-13
 -1       736 2.43966E+01-4.88318E+00 1.75796E-02-3.05739E+00-8.21097E-14 8.90173E-15
 -1       737 2.71079E+01-3.06074E+00-5.53033E-02-2.12780E-01 2.09456E-13 3.68887E-13
 -1       738 2.72283E+01 5.82159E+00-1.54119E-01-4.97425E-01-3.41296E-13 8.44394E-14
 -1       739 2.78602E+01 2.84933E+00-1.14589E-01-2.43146E+00 4.36318E-13-3.64004E-13
 -1       740 2.76237E+01 3.90571E+00-1.44706E-01-2.15000E+00-2.33501E-13 1.93904E-13
 -1       741 2.29413E+01-4.77479E+00 1.30820E-02 3.81271E+00 2.00437E-13 1.58601E-13
 -1       742 9.82416E+00-6.47536E-01 1.38698E-01 3.53115E+00-1.64491E-13-1.80467E-13
 -1       743 2.83412E+01 1.32625E+00-1.09919E-01 2.37143E+00-1.67834E-13-3.79308E-13
 -1       744 1.07672E+01-1.30951E+00 1.41553E-01 4.49815E+00 2.84899E-13-2.66766E-13
 -1       745 2.66563E+01 5.17680E+00-1.43628E-01-1.10992E+00 4.62463E-13-1.42276E-13
 -1       746 2.01186E+01 2.08836E+00-2.26778E-03-8.29611E-01-1.79755E-13-2.71006E-13
 -1       747 1.99360E+01 2.56055E+00-1.62829E-03-1.22500E-01-1.99388E-14-3.42096E-13
 -1       748 1.44411E+01-1.36149E+00 6.81000E-02 4.45669E+00-9.42753E-14 1.63303E-13
 -1       749 1.99643E+01 2.63865E-01-9.81398E-05 2.19896E-01 1.90260E-13-2.69004E-13
 -1       750 2.02631E+01 1.61688E+00-8.00412E-04-9.79100E-01-2.20036E-13-2.30751E-13
 -1       751 2.00176E+01 2.06346E-01-1.01891E-05 2.26123E-01-1.47177E-13-2.13318E-13
 -1       752 2.52248E+01-4.01070E+00 5.31348E-03 1.18468E+00 1.17909E-13 2.96155E-13
 -1       753 2.60772E+01 4.89150E+00-1.25157E-01 7.53465E-01 2.30545E-13 1.52801E-13
 -1       754 1.50824E+01-1.87194E+00 7.37934E-02 4.77902E+00 2.39269E-13-3.05081E-13
 -1       755 2.72423E+01 4.67784E+00-1.45323E-01 1.76044E+00-5.19723E-15 2.25965E-14
 -1       756 1.99653E+01 2.48804E+00-1.84450E-03-3.74043E-01-5.69105E-14-2.93460E-13
 -1       757 2.47622E+01-4.21992E+00-7.16748E-03 1.81002E+00-2.19699E-13 4.67872E-13
 -1       758 2.02741E+01 1.33393E+00 1.99909E-04 6.08953E-01 1.60226E-13-1.89156E-13
 -1       759 2.01425E+01 1.93600E+00-2.75325E-04 1.90588E-01 4.25735E-14-3.26944E-13
 -1       760 2.02897E+01 1.19765E+00 5.79583E-04-5.41648E-01-1.83455E-13-2.10069E-13
 -1       761 2.02725E+01 4.90912E-01 3.50826E-05-3.86263E-02-1.14921E-13-1.92948E-13
 -1       762 2.02310E+01 3.14650E-01-1.66444E-05 1.14292E-01-1.08244E-13-1.54681E-13
 -1       763 2.01874E+01 2.12205E-01-7.44668E-06 2.23500E-01-9.88656E-14-1.48785E-13
 -1       764 2.01458E+01 1.63572E-01-1.47228E-06 3.04979E-01-4.98118E-14-1.56314E-13
 -1       765 2.01069E+01 1.54866E-01 2.92742E-06 3.72877E-01 4.13343E-14-1.44390E-13
 -1       766 2.00700E+01 1.76033E-01 7.40931E-06 4.38602E-01-1.68561E-14-4.05764E-14
 -1       767 2.00335E+01 2.19213E-01 1.31364E-05 5.11092E-01-1.45748E-14-4.14841E-14
 -1       768 1.99953E+01 2.77349E-01 2.07239E-05 5.97137E-01-4.07058E-14 1.65964E-14
 -1       769 1.99541E+01 3.42843E-01 3.03508E-05 7.01671E-01-2.40863E-14-3.94548E-14
 -1       770 1.99093E+01 4.05985E-01 4.20006E-05 8.27986E-01-6.28304E-14-7.10016E-14
 -1       771 1.98632E+01 4.53038E-01 5.71305E-05 9.77835E-01-5.53761E-14-4.96890E-14
 -1       772 1.98226E+01 4.63922E-01 7.57019E-05 1.15152E+00-6.09516E-14-1.00832E-13
 -1       773 1.98032E+01 4.09462E-01 9.16763E-05 1.34777E+00-2.04621E-14-9.22475E-14
 -1       774 1.98356E+01 2.48788E-01 5.82885E-05 1.56283E+00 7.19218E-15-1.62617E-13
 -1       775 1.99740E+01-7.15021E-02-1.15482E-04 1.78698E+00 4.29635E-14 2.52786E-14
 -1       776 2.03083E+01-6.11640E-01 1.27131E-04 1.99366E+00 6.03091E-14 1.49827E-13
 -1       777 2.09667E+01-1.41028E+00 1.44194E-03 2.11814E+00 1.08896E-13 2.08148E-13
 -1       778 2.21041E+01-2.42479E+00 9.27286E-03 2.00608E+00 1.55545E-13 1.38401E-13
 -1       779 2.63929E+01-2.84904E+00-3.61044E-02 7.50223E-01-1.91141E-13-3.62578E-13
 -1       780 2.43808E+01-3.38334E+00 5.93159E-05-9.65612E-01-1.05169E-13-3.73376E-13
 -1       781 2.25601E+01-2.61749E+00 7.70804E-03-1.80537E+00 5.94096E-14-2.96534E-13
 -1       782 2.12888E+01-1.61818E+00 2.16910E-03-2.03964E+00 2.31290E-13-9.25285E-14
 -1       783 2.05178E+01-7.64464E-01-1.50838E-04-1.97623E+00 1.16917E-13-3.81036E-14
 -1       784 2.01090E+01-1.66853E-01 9.68347E-06-1.79560E+00 8.84152E-14 1.03446E-13
 -1       785 1.99206E+01 2.02902E-01 1.12550E-04-1.57603E+00-5.63710E-14 3.97690E-14
 -1       786 1.98556E+01 4.01970E-01 1.15642E-04-1.35442E+00 1.53208E-13 4.31934E-14
 -1       787 1.98531E+01 4.85379E-01 1.05051E-04-1.14480E+00 4.40338E-14-1.26505E-13
 -1       788 1.98775E+01 4.96355E-01 8.56335E-05-9.53160E-01 4.51969E-14 4.95035E-14
 -1       789 1.99100E+01 4.66020E-01 6.92838E-05-7.82118E-01 1.42437E-13 2.66669E-13
 -1       790 1.99411E+01 4.15542E-01 6.13692E-05-6.32544E-01 5.61597E-14 1.07661E-13
 -1       791 1.99671E+01 3.58675E-01 1.14699E-04-5.04263E-01-8.28493E-14-1.77123E-13
 -1       792 1.99846E+01 3.04662E-01-4.12169E-05-3.95179E-01-5.80613E-14-3.41917E-13
 -1       793 1.99974E+01 2.57982E-01 5.94708E-05-3.04068E-01-1.83477E-13-7.64843E-14
 -1       794 2.00707E+01 1.42847E-01 2.08500E-05-4.34812E-01 6.96001E-14-2.07681E-14
 -1       795 2.00886E+01 1.27905E-01 1.92882E-05-3.71046E-01 8.03047E-14-6.67354E-14
 -1       796 2.00479E+01 2.26502E-01 3.76110E-05-5.86717E-01 1.82334E-14 6.35168E-14
 -1       797 2.00404E+01 2.82151E-01 5.12793E-05-6.86935E-01 8.20061E-15-7.13369E-15
 -1       798 2.00352E+01 3.36214E-01 6.65082E-05-8.07885E-01-2.50044E-14 5.72793E-14
 -1       799 2.00350E+01 3.76556E-01 8.10732E-05-9.50258E-01-1.93990E-14 8.38367E-14
 -1       800 2.00466E+01 3.85298E-01 9.24594E-05-1.11212E+00-1.21473E-13 2.12280E-13
 -1       801 2.00847E+01 3.36525E-01 1.08020E-04-1.28805E+00-8.74297E-14 2.02735E-13
 -1       802 2.01761E+01 1.94542E-01 9.65278E-05-1.46767E+00-5.36890E-14 2.35362E-13
 -1       803 2.03671E+01-8.63605E-02-3.81156E-05-1.63247E+00 5.72007E-14 2.81516E-13
 -1       804 2.07312E+01-5.56085E-01-5.20263E-04-1.74662E+00 2.16139E-14 4.05211E-13
 -1       805 2.13691E+01-1.24094E+00-1.10618E-03-1.73717E+00-5.62266E-14 3.33174E-13
 -1       806 2.23790E+01-2.07608E+00-9.99070E-04-1.47776E+00-1.03347E-13 1.95629E-13
 -1       807 2.37928E+01-2.81691E+00-1.59910E-04-7.83959E-01-1.04096E-13 8.36006E-14
 -1       808 2.64826E+01-9.69601E-01-4.51469E-02 1.99766E+00 1.83187E-15-2.37060E-13
 -1       809 2.62542E+01-1.93570E+00-4.87827E-02-1.58361E+00 2.90894E-13-2.83107E-14
 -1       810 2.48151E+01-2.87340E+00-4.66460E-03-4.70384E-03-3.52730E-14-9.59757E-15
 -1       811 2.32553E+01-2.56886E+00 7.88792E-03 1.09730E+00-1.82775E-13 5.29203E-14
 -1       812 2.19698E+01-1.75537E+00 1.97761E-03 1.60292E+00-2.23968E-13 8.72349E-16
 -1       813 2.11031E+01-9.54398E-01 7.89193E-04 1.74763E+00-4.06354E-14-9.40732E-14
 -1       814 2.05771E+01-3.44063E-01 2.72979E-04 1.69479E+00-4.55892E-14-3.44517E-14
 -1       815 2.02859E+01 5.68888E-02 1.60129E-04 1.54924E+00-1.28027E-13 1.20052E-13
 -1       816 2.01378E+01 2.87749E-01 1.55991E-04 1.36650E+00-2.26299E-13 3.17199E-13
 -1       817 2.00699E+01 3.97730E-01 1.50756E-04 1.17488E+00-9.75697E-14 2.29263E-13
 -1       818 2.00432E+01 4.29371E-01 1.36929E-04 9.89348E-01-1.89068E-14 2.78483E-14
 -1       819 2.00355E+01 4.14653E-01 1.18759E-04 8.18031E-01 4.47621E-14-1.30231E-13
 -1       820 2.00349E+01 3.75780E-01 1.02825E-04 6.65107E-01-3.48163E-14 2.37735E-14
 -1       821 2.00357E+01 3.27786E-01 9.06742E-05 5.31942E-01 4.43580E-14 3.83022E-13
 -1       822 2.00355E+01 2.79484E-01 6.44005E-05 4.18507E-01-1.83320E-14 5.16039E-14
 -1       823 2.00330E+01 2.36854E-01 3.61236E-05 3.22946E-01 2.61809E-13-2.20587E-13
 -1       824 2.00241E+01 2.20290E-01-1.00660E-04 2.71718E-01-4.08980E-14-4.39421E-13
 -1       825 1.98934E+01 3.38782E-01-7.90108E-05-2.59036E-01 1.26186E-13 1.35088E-13
 -1       826 1.97576E+01 4.47548E-01-4.52881E-05-4.54767E-04-1.71906E-14-2.22235E-13
 -1       827 1.06688E+01 4.79505E-01 7.71781E-02-1.45488E+00-4.64247E-14-1.71151E-13
 -1       828 2.02875E+01 9.64879E-01 8.60112E-05 5.29088E-01 1.69681E-13-1.47640E-13
 -1       829 1.00403E+01 4.84950E-01 9.17696E-02-9.40760E-01 2.05867E-13-2.44055E-13
 -1       830 1.98214E+01 3.97189E-01-5.21925E-05-1.93239E-01-7.35051E-14 9.53703E-14
 -1       831 2.00577E+01 1.77821E-01 2.68930E-05-5.04332E-01 9.94907E-14 6.05347E-14
 -1       832 2.01878E+01 2.88879E-01-1.22725E-05-1.04942E-01 5.41415E-14-2.71067E-14
 -1       833 2.40115E+01-4.57346E+00 7.09980E-03-2.80615E+00 1.16383E-14-2.78259E-13
 -1       834 2.15892E+01-3.96285E+00 1.83701E-02-3.75097E+00 6.42845E-14 6.58640E-14
 -1       835 2.02991E+01 7.66959E-01-7.35000E-04-2.53930E-01-1.37940E-13-1.85814E-13
 -1       836 2.07640E+01-3.50674E+00 2.52759E-02 3.86979E+00-2.70070E-14 4.35540E-13
 -1       837 2.48998E+01-3.66926E+00-1.06316E-03-9.88054E-01-1.17035E-14-1.72751E-13
 -1       838 1.92576E+01-3.33783E+00 4.20671E-02-4.59069E+00 8.00679E-14-1.18915E-14
 -1       839 1.41337E+01-8.77742E-01 6.16916E-02-4.05158E+00 6.03883E-14 5.25812E-14
 -1       840 1.09053E+01 1.24582E-01 9.29214E-02 2.42230E+00 1.70903E-13-1.99955E-13
 -1       841 1.25774E+01-5.70807E-01 7.62988E-02-3.77271E+00 7.16614E-14-4.48246E-13
 -1       842 1.74989E+01-2.69058E+00 5.69409E-02-4.84644E+00-1.06224E-13-2.59069E-13
 -1       843 1.97742E+01 4.34650E-01-1.11086E-05-1.03265E-01-5.96298E-14 9.03568E-15
 -1       844 1.10059E+01 5.34128E-01 7.73180E-02 1.44255E+00-1.74987E-13-2.35818E-14
 -1       845 2.02329E+01 1.61326E+00-3.35586E-04-6.99658E-01-1.75519E-13-2.65330E-13
 -1       846 2.06652E+01-3.55555E+00 9.20974E-03 3.90662E+00 1.23446E-13 7.64016E-14
 -1       847 2.53984E+01-2.52588E+00-1.61022E-02 7.53887E-01-3.34606E-14-1.84714E-13
 -1       848 2.01304E+01 1.97596E+00-1.37150E-04 3.23318E-03-4.85777E-15-2.84741E-13
 -1       849 2.02300E+01 1.61632E+00 1.13098E-04 5.14256E-01 1.39391E-13-2.49131E-13
 -1       850 1.82801E+01-2.13937E+00 2.61298E-02 4.04038E+00 8.61733E-14 4.02183E-13
 -1       851 1.98955E+01 3.37711E-01 7.82505E-05 2.58928E-01-1.24730E-13-3.78133E-13
 -1       852 2.02351E+01 4.59933E-01-8.71537E-05 6.09593E-02 1.05112E-13-7.76206E-14
 -1       853 2.01463E+01 1.89259E-01-3.39610E-06-2.20068E-01 2.02535E-14-3.70854E-14
 -1       854 1.84100E+01-2.16596E+00 3.57395E-02 3.98806E+00 1.59524E-13-3.12675E-14
 -1       855 2.01133E+01 1.40216E-01 1.69978E-05-3.03563E-01 3.80589E-14-5.76451E-14
 -1       856 1.38477E+01 2.93448E-02 3.59981E-02 2.88866E+00 5.32213E-15 1.53146E-13
 -1       857 1.98217E+01 3.96663E-01-1.70775E-06 1.93299E-01-7.84347E-14-5.20899E-13
 -1       858 2.02616E+01 6.70270E-01 1.13648E-04 2.60262E-01 1.23084E-13-1.07801E-13
 -1       859 2.01606E+01 1.88410E+00-5.67940E-04-5.55399E-01-1.40520E-13-2.09082E-13
 -1       860 1.97741E+01 4.34491E-01-4.28214E-05 1.03053E-01-8.70583E-15-3.61130E-14
 -1       861 1.39542E+01-4.03483E-01 4.68727E-02 3.41693E+00 2.05605E-13-3.18719E-13
 -1       862 2.01056E+01 2.06288E+00-6.54188E-04-3.71297E-01-6.51871E-14-2.53012E-13
 -1       863 2.01770E+01 1.81774E+00-2.44049E-04 3.64879E-01 8.70079E-14-2.77172E-13
 -1       864 1.59719E+01-9.92344E-01 3.06336E-02-3.79175E+00 5.75315E-14-3.80441E-13
 -1       865 2.02873E+01 3.47766E-01-1.40806E-05 1.34092E-01-6.60069E-14-1.45130E-13
 -1       866 2.02348E+01 2.51649E-01-9.14069E-06 2.23006E-01-5.74758E-14-9.91792E-14
 -1       867 2.01724E+01 2.13001E-01-5.94008E-06 2.93676E-01-1.49004E-14-7.59180E-14
 -1       868 2.01022E+01 2.18141E-01-4.48012E-06 3.56780E-01 7.09527E-14-1.23224E-13
 -1       869 2.00239E+01 2.56459E-01-2.75497E-06 4.21256E-01 2.33876E-14-8.45068E-14
 -1       870 1.99360E+01 3.19017E-01-1.42891E-06 4.94340E-01 1.73443E-15-1.60423E-14
 -1       871 1.98357E+01 3.97305E-01 1.61617E-07 5.81781E-01-7.81139E-14-1.86580E-14
 -1       872 1.97203E+01 4.81875E-01 2.27362E-06 6.88348E-01-5.87429E-14-9.82994E-14
 -1       873 1.95882E+01 5.60563E-01 9.33761E-06 8.18370E-01-4.12862E-14-6.14938E-14
 -1       874 1.94399E+01 6.16587E-01 2.29879E-05 9.76525E-01-5.12355E-14 1.27639E-14
 -1       875 1.92808E+01 6.26181E-01 4.79429E-05 1.16923E+00-1.98985E-14 6.07782E-14
 -1       876 1.91257E+01 5.55306E-01 7.27814E-05 1.40631E+00-5.04887E-14 7.39849E-14
 -1       877 1.90055E+01 3.56095E-01-3.32154E-05 1.70198E+00 1.43833E-13 5.74700E-14
 -1       878 1.89797E+01-3.67367E-02-6.26998E-04 2.07393E+00 1.61661E-13 1.61829E-13
 -1       879 1.91659E+01-7.13641E-01 4.79931E-04 2.53295E+00 1.05119E-13 2.25724E-13
 -1       880 1.97726E+01-1.74315E+00 1.37606E-02 3.05053E+00 1.50120E-13 1.09375E-13
 -1       881 1.97903E+01 4.29409E-01 1.69420E-04-2.85165E-01-1.67121E-13 2.33452E-13
 -1       882 2.01334E+01-2.07156E+00-3.58680E-03-3.03939E+00 2.23649E-13-3.16787E-14
 -1       883 1.94086E+01-9.29291E-01 1.54219E-03-2.58186E+00 2.85302E-13-3.13616E-14
 -1       884 1.90937E+01-1.68435E-01-6.75905E-04-2.14788E+00 1.47735E-13-1.36859E-13
 -1       885 1.90585E+01 2.91280E-01 1.43908E-04-1.75977E+00-3.18053E-15 7.88054E-14
 -1       886 1.91398E+01 5.40647E-01 5.42896E-05-1.44609E+00 6.96659E-14 3.06589E-13
 -1       887 1.92703E+01 6.48509E-01 5.79664E-05-1.18945E+00-2.55606E-14 2.76737E-13
 -1       888 1.94111E+01 6.66519E-01 3.65715E-05-9.76382E-01-2.18932E-15 2.26387E-13
 -1       889 1.95433E+01 6.31360E-01 2.37925E-05-7.97107E-01 1.86686E-13 1.46581E-13
 -1       890 1.96584E+01 5.68369E-01 1.85052E-05-6.45420E-01 1.20161E-13 4.10209E-14
 -1       891 1.97539E+01 4.94661E-01 4.64276E-05-5.17272E-01-1.27469E-14 8.24539E-14
 -1       892 1.98299E+01 4.20726E-01-7.36555E-05-4.09028E-01-2.36568E-13 2.23957E-13
 -1       893 2.13138E+01-2.43594E+00 4.97409E-03 2.60864E+00-1.49093E-13 1.68827E-13
 -1       894 1.98361E+01 4.14300E-01 1.65855E-05-7.05253E-01-2.19075E-14 2.70169E-14
 -1       895 1.99160E+01 3.39978E-01 9.05942E-06-5.97986E-01 6.22746E-14 5.47657E-14
 -1       896 1.96500E+01 5.31108E-01 3.79632E-05-9.91140E-01-9.71708E-14 1.12136E-13
 -1       897 1.95536E+01 5.34581E-01 5.96175E-05-1.17614E+00-1.11115E-13 1.44099E-14
 -1       898 1.94752E+01 4.61059E-01 1.94489E-04-1.39370E+00-1.25656E-13-4.46911E-14
 -1       899 1.94478E+01 2.66929E-01 3.99587E-04-1.64768E+00-7.64846E-14-2.36829E-14
 -1       900 1.95324E+01-1.07293E-01 5.78721E-04-1.94142E+00-9.16032E-14 1.16328E-13
 -1       901 1.98326E+01-7.34012E-01-2.66897E-04-2.26078E+00 3.82085E-14 1.79186E-13
 -1       902 2.05380E+01-1.68478E+00-1.12943E-03-2.52696E+00 4.59668E-14 9.50101E-14
 -1       903 2.18582E+01-2.89987E+00 1.10389E-02-2.58774E+00 4.45516E-14 1.22506E-14
 -1       904 2.30806E+01-3.28640E+00 5.66303E-03 1.97773E+00-6.97341E-14 4.29220E-13
 -1       905 2.02049E+01-1.28476E+00 1.57678E-03 2.44385E+00-1.60242E-14-1.03433E-13
 -1       906 1.96816E+01-4.56734E-01 2.44992E-04 2.12807E+00-1.48895E-13 9.89981E-14
 -1       907 1.94729E+01 7.81902E-02-3.35100E-04 1.80796E+00-2.32087E-13 1.78090E-13
 -1       908 1.94370E+01 3.87831E-01-2.94355E-04 1.51985E+00-3.08898E-13 8.48038E-14
 -1       909 1.94857E+01 5.40248E-01-1.94009E-04 1.26926E+00 1.82395E-15-4.70991E-14
 -1       910 1.95689E+01 5.89824E-01-1.27111E-04 1.05252E+00-1.14048E-13-2.50563E-13
 -1       911 1.96594E+01 5.76631E-01-8.49832E-05 8.65213E-01-5.55395E-14-5.48279E-14
 -1       912 1.97435E+01 5.29030E-01-2.80003E-05 7.03822E-01-6.08724E-14 5.47741E-14
 -1       913 1.98159E+01 4.65413E-01-7.31050E-05 5.66492E-01 5.82298E-14-2.38523E-13
 -1       914 1.98738E+01 3.99238E-01-1.15542E-04 4.48795E-01 1.41645E-13-4.36806E-13
 -1       915 1.99207E+01 3.37551E-01 1.09075E-04 3.52013E-01 1.01318E-13-1.85520E-13
 -1       916 1.99624E+01 2.79590E-01 4.69276E-05 2.75179E-01 8.23757E-14 9.28589E-14
 -1       917 1.78061E+01-1.53082E+00 1.62136E-02-3.71795E+00 1.96076E-13-9.86546E-14
 -1       918 1.33943E+01 3.84589E-01 2.32349E-02-2.28106E+00-1.22769E-14-1.19767E-13
 -1       919 1.97468E+01 4.83336E-01 2.71267E-05-8.35247E-01-8.52544E-14 5.54172E-14
 -1       920 2.01097E+01 1.88386E-01 1.41742E-05-3.69734E-01 2.54948E-14-1.11654E-13
 -1       921 2.03069E+01 9.41102E-01-2.99790E-04 3.44289E-01 1.08441E-13-2.00446E-13
 -1       922 2.03240E+01 5.19384E-01-2.14404E-05 1.45757E-02-1.09003E-13-1.37133E-13
 -1       923 2.01080E+01 2.04953E+00-1.29813E-04-1.76157E-01-3.26984E-14-2.89980E-13
 -1       924 2.02888E+01 1.26442E+00 6.60090E-04-4.38381E-01-1.36243E-13-1.87898E-13
 -1       925 2.03380E+01 7.86183E-01 7.32926E-05-1.46061E-01-1.28654E-13-1.49729E-13
 -1       926 1.28975E+01 5.74693E-01 3.13667E-02-1.88395E+00 1.86284E-14-3.27490E-13
 -1       927 1.25179E+01 9.24905E-01 3.85102E-02-2.69273E-01 8.69426E-14-1.91127E-13
 -1       928 1.91694E+01-2.25724E+00 2.86199E-02-3.73569E+00 5.77342E-14-7.43212E-14
 -1       929 1.22696E+01 8.51155E-01 4.38485E-02 5.32059E-01 1.39086E-13-2.31594E-13
 -1       930 2.15413E+01-3.16528E+00 1.93773E-02-3.09326E+00 1.40226E-13-1.91588E-13
 -1       931 1.96592E+01 5.17282E-01-6.71109E-05-6.53023E-02-9.48572E-14-2.25438E-13
 -1       932 2.03041E+01 5.03936E-01-3.30464E-05 4.75677E-03 4.80992E-14-1.79374E-13
 -1       933 2.00508E+01 2.18552E-01 5.03102E-06-4.35721E-01 3.09948E-14 4.94947E-15
 -1       934 2.01652E+01 1.89665E-01 2.98183E-05-3.03869E-01 4.74854E-14-1.50004E-13
 -1       935 1.99869E+01 2.71760E-01 5.40667E-06-5.09721E-01 4.76991E-14 4.76845E-14
 -1       936 1.67431E+01-7.56875E-01 1.51245E-02 3.34525E+00 1.93155E-13 5.13325E-13
 -1       937 1.98037E+01 4.18275E-01-2.65265E-05 2.92787E-01 1.30372E-13-3.98718E-13
 -1       938 1.62811E+01-2.38520E-01 2.01815E-02-2.96765E+00 1.15551E-13-1.31835E-13
 -1       939 2.02836E+01 1.39982E+00 2.01237E-04 1.81280E-01 4.11518E-14-2.60737E-13
 -1       940 1.96595E+01 5.16950E-01-1.16362E-04 6.49075E-02-7.17002E-14-1.14117E-13
 -1       941 2.02660E+01 3.31077E-01-6.61747E-05-1.29615E-01 4.17831E-14-1.55749E-13
 -1       942 1.68417E+01-9.32517E-01 1.30305E-02 3.48408E+00 1.19693E-13-1.52393E-13
 -1       943 2.02687E+01 1.47390E+00-7.64930E-05 6.32517E-02 5.43831E-15-2.73514E-13
 -1       944 1.38581E+01 8.29137E-01 1.94132E-02 1.34873E+00 3.10125E-14 3.46849E-14
 -1       945 2.02771E+01 1.39846E+00 4.01357E-04-3.15149E-01-1.11511E-13-1.95133E-13
 -1       946 1.38684E+01 6.19288E-01 1.14655E-02 1.81274E+00 1.88310E-13-2.01955E-13
 -1       947 1.97033E+01 4.87591E-01 1.35141E-05-1.86705E-01-2.75612E-13 1.55639E-13
 -1       948 1.87748E+01-1.17541E+00 6.60952E-03 3.03298E+00 8.08249E-14 2.61815E-13
 -1       949 2.02384E+01 2.82513E-01-1.15651E-05 1.98805E-01-3.61286E-14-7.19819E-14
 -1       950 2.01522E+01 2.61203E-01-1.22374E-05 2.53721E-01 3.18338E-14-5.41591E-14
 -1       951 2.00498E+01 2.84994E-01-1.26117E-05 3.05920E-01 6.19918E-14-5.83489E-14
 -1       952 1.99304E+01 3.43140E-01-1.01192E-05 3.61827E-01 6.79209E-14-7.58373E-15
 -1       953 1.97917E+01 4.25872E-01-2.14335E-05 4.26815E-01-8.69792E-14-6.17515E-14
 -1       954 1.96294E+01 5.23980E-01-3.69413E-05 5.05480E-01-1.11926E-13-6.24885E-14
 -1       955 1.94390E+01 6.26831E-01-4.75957E-05 6.02587E-01-4.87363E-15-8.65205E-14
 -1       956 1.92156E+01 7.21035E-01-5.59774E-05 7.23616E-01 2.66412E-14-2.81883E-14
 -1       957 1.89548E+01 7.89100E-01-5.75312E-05 8.76509E-01-3.65758E-14 4.01703E-15
 -1       958 1.86541E+01 8.07522E-01-1.87157E-05 1.07469E+00-3.33365E-14-5.33601E-14
 -1       959 1.83158E+01 7.42575E-01 1.34565E-05 1.34063E+00 8.14562E-14 1.10927E-14
 -1       960 1.79523E+01 5.46410E-01-4.54182E-04 1.71098E+00 1.76396E-13-3.34170E-14
 -1       961 1.76001E+01 1.52610E-01-1.69859E-03 2.23106E+00 1.66085E-13-1.63689E-13
 -1       962 2.03062E+01 3.62048E-01-1.99667E-05 1.33649E-01-4.01151E-14-7.77149E-14
 -1       963 2.03203E+01 7.78708E-01-3.01513E-04 1.90181E-01 7.17161E-14-2.37124E-13
 -1       964 2.02180E+01 2.32094E-01-7.30443E-05-2.28081E-01 1.98594E-14-1.42786E-13
 -1       965 1.76375E+01 2.31245E-02 3.05867E-03-2.38096E+00 1.87875E-13-2.43931E-13
 -1       966 1.79445E+01 4.71996E-01-4.51013E-04-1.82456E+00 2.78934E-13-2.38293E-13
 -1       967 1.82765E+01 7.27224E-01-8.21858E-05-1.41688E+00 7.95790E-14-5.27164E-14
 -1       968 1.85974E+01 8.32584E-01 5.21458E-05-1.12231E+00-1.14186E-13-1.55510E-13
 -1       969 1.88841E+01 8.44949E-01 2.76639E-05-9.00509E-01 1.20941E-13-8.22381E-14
 -1       970 1.91313E+01 8.00232E-01 1.44972E-05-7.26466E-01-6.01921E-14 1.63808E-13
 -1       971 1.93385E+01 7.23878E-01 4.61221E-06-5.85874E-01 1.56462E-13 6.81265E-14
 -1       972 1.95091E+01 6.33454E-01 1.27379E-05-4.70282E-01-5.71150E-14-4.46084E-14
 -1       973 1.96443E+01 5.42802E-01 2.02367E-06-3.73630E-01-7.28590E-15 2.09078E-13
 -1       974 1.85158E+01-2.83246E-01 5.64041E-04 2.40419E+00-2.36729E-13 2.37897E-13
 -1       975 1.89635E+01 7.05505E-01-1.70374E-04-1.14559E+00-6.51344E-14-1.52595E-13
 -1       976 1.91902E+01 6.99235E-01-2.56502E-05-9.43843E-01-2.22825E-14-2.70325E-14
 -1       977 1.84958E+01 4.05397E-01-8.94859E-04-1.75682E+00-9.79631E-14-1.69991E-13
 -1       978 1.83315E+01-9.77494E-03-2.97116E-04-2.22658E+00-8.80804E-14-2.41859E-13
 -1       979 1.83825E+01-7.21417E-01 3.69199E-03-2.84572E+00-1.66609E-15-1.99536E-13
 -1       980 1.38231E+01 1.01439E+00 1.18158E-02-5.00731E-01 1.48959E-14-1.03376E-13
 -1       981 1.55892E+01 2.82579E-01 8.24986E-03-2.42267E+00-1.02714E-14-4.83261E-13
 -1       982 1.85612E+01 2.62089E-01-1.83290E-04 1.90083E+00-1.43542E-13 8.11832E-14
 -1       983 1.87223E+01 5.65170E-01-1.78748E-04 1.51846E+00-6.33836E-14-2.30577E-13
 -1       984 1.89251E+01 7.06731E-01-1.67228E-06 1.22507E+00 1.56872E-14-4.63201E-13
 -1       985 1.91292E+01 7.44188E-01 7.17863E-05 9.94026E-01 4.63892E-14-3.89368E-13
 -1       986 1.93162E+01 7.17601E-01 7.68121E-05 8.07045E-01-1.41617E-13-3.46872E-13
 -1       987 1.94785E+01 6.55172E-01 9.61423E-05 6.52943E-01-2.40214E-14-4.09041E-13
 -1       988 1.96121E+01 5.77387E-01-1.91693E-05 5.23695E-01 9.54126E-14-5.13886E-13
 -1       989 1.97240E+01 4.95313E-01 4.09021E-04 4.16987E-01 1.28635E-13-3.26227E-13
 -1       990 2.03030E+01 1.26015E+00 5.61739E-04 2.79292E-01 9.66573E-14-2.08951E-13
 -1       991 2.03508E+01 5.16136E-01 5.38869E-05 5.04472E-02-7.85669E-14-6.12619E-14
 -1       992 2.02718E+01 1.44497E+00-6.25588E-05-1.89970E-01-6.00154E-14-2.03902E-13
 -1       993 2.03613E+01 7.65054E-01-4.05321E-05-6.15934E-02-8.45068E-14-1.08412E-13
 -1       994 1.97276E+01 4.64665E-01-8.50075E-06-5.51492E-01 1.39596E-14-4.67910E-14
 -1       995 1.42256E+01 9.36641E-01 1.52495E-02-1.12264E+00 1.74776E-14-1.29403E-13
 -1       996 1.87242E+01 6.21598E-01-8.38787E-04-1.41010E+00-9.92405E-14-1.74698E-13
 -1       997 1.97055E+01 4.86512E-01 8.43952E-06 1.88033E-01 2.16096E-13-1.50969E-13
 -1       998 2.03378E+01 1.06782E+00-7.14619E-04-1.34534E-01-9.11391E-14-1.26900E-13
 -1       999 1.59396E+01 2.01444E-01 8.17131E-03 2.46209E+00 1.50940E-13-3.58204E-13
 -1      1000 1.73732E+01-5.56082E-01 1.59561E-02 2.98232E+00 1.66306E-13-8.85790E-14
 -1      1001 2.03553E+01 8.51348E-01-2.67783E-04 1.13517E-01 4.05336E-14-1.79359E-13
 -1      1002 2.01644E+01 2.39008E-01 4.48814E-05-2.77352E-01-1.17403E-14-2.05300E-13
 -1      1003 1.98609E+01 3.76517E-01-6.47256E-06-4.66668E-01 5.02532E-14-1.10782E-13
 -1      1004 1.93941E+01 6.41628E-01-1.85862E-05-7.84111E-01-1.45275E-13-7.73529E-14
 -1      1005 1.45972E+01 1.03410E+00 7.10589E-03 6.75595E-01 3.32949E-14-1.63646E-13
 -1      1006 1.95540E+01 5.90373E-01 1.27835E-04-1.57373E-01-1.02996E-14 8.33407E-14
 -1      1007 1.95255E+01 6.06901E-01-4.60261E-05 6.78955E-04-9.76407E-14-2.11600E-13
 -1      1008 1.95729E+01 5.57453E-01-6.89921E-06-6.55589E-01-2.71950E-14 3.48221E-14
 -1      1009 2.03504E+01 1.05913E+00-3.69251E-04 6.01001E-02 4.87181E-14-2.27846E-13
 -1      1010 1.57628E+01 2.85145E-01 1.18618E-02 2.37220E+00-2.37885E-14 3.35660E-13
 -1      1011 2.02624E+01 1.49736E+00-1.54075E-04-6.31163E-02-3.32996E-14-2.50140E-13
 -1      1012 1.46573E+01 1.11033E+00 6.07930E-03 2.63342E-01 1.35415E-13-3.39848E-14
 -1      1013 2.00768E+01 2.54304E-01 8.54461E-06-3.35445E-01-4.47796E-14-1.63344E-13
 -1      1014 2.03539E+01 5.73824E-01 1.74379E-04-1.89485E-02 2.42512E-14-1.82408E-13
 -1      1015 2.02091E+01 3.05297E-01-5.03735E-05 1.46230E-01-5.56762E-15-2.24083E-14
 -1      1016 2.00984E+01 3.06178E-01-7.29864E-05 1.82063E-01 4.93114E-14-5.01107E-15
 -1      1017 1.99655E+01 3.50855E-01-4.34236E-05 2.17945E-01 3.92188E-14-1.16022E-14
 -1      1018 1.98078E+01 4.29498E-01-3.92370E-06 2.58113E-01 5.72775E-16-8.25330E-14
 -1      1019 1.96225E+01 5.30677E-01-8.99223E-05 3.05383E-01-6.80983E-14-1.27814E-14
 -1      1020 1.94022E+01 6.46656E-01-1.43700E-04 3.63962E-01-1.27493E-13-1.02296E-13
 -1      1021 1.91402E+01 7.65254E-01-1.66861E-04 4.37361E-01 2.04958E-15-1.87215E-13
 -1      1022 1.88256E+01 8.73891E-01-2.20279E-04 5.31300E-01 2.79391E-14-2.61734E-13
 -1      1023 1.84460E+01 9.56632E-01-2.10886E-04 6.54740E-01-5.81003E-14-1.20766E-13
 -1      1024 1.79822E+01 9.94768E-01-5.08372E-05 8.25361E-01 9.81239E-14-3.59664E-14
 -1      1025 1.74088E+01 9.62038E-01 3.44523E-04 1.07164E+00 9.02966E-14-4.76594E-14
 -1      1026 1.66898E+01 8.30497E-01-1.15426E-03 1.44475E+00 3.09486E-14-2.02585E-13
 -1      1027 1.65686E+01 7.74020E-01-6.83214E-04-1.60179E+00 2.28056E-13-4.53164E-13
 -1      1028 2.03184E+01 3.92764E-01 2.71148E-04-1.16676E-01 4.21146E-14-2.21260E-13
 -1      1029 2.03809E+01 7.35210E-01 8.92432E-04 3.16166E-03 3.27183E-14-2.21846E-13
 -1      1030 2.02401E+01 2.67746E-01 7.95316E-05-2.15076E-01 4.10066E-14-2.52507E-13
 -1      1031 1.72973E+01 9.60057E-01 1.12895E-03-1.17659E+00 3.25045E-13-4.57298E-13
 -1      1032 1.78705E+01 1.02621E+00 2.74928E-04-8.93634E-01 4.54002E-14-3.35700E-13
 -1      1033 1.83326E+01 1.01828E+00 5.87049E-05-6.97912E-01 8.81238E-14 4.79047E-14
 -1      1034 1.87069E+01 9.58923E-01 6.35225E-06-5.53962E-01 1.61411E-13-6.76913E-15
 -1      1035 1.90100E+01 8.69107E-01-3.14663E-05-4.43216E-01-8.87883E-15 3.87672E-13
 -1      1036 1.92549E+01 7.64258E-01-1.53071E-04-3.55772E-01-9.43959E-14 1.81928E-13
 -1      1037 1.94499E+01 6.57902E-01-3.37660E-04-2.84974E-01 1.23667E-13 1.81704E-13
 -1      1038 1.77492E+01 7.76727E-01-5.56136E-04 1.42438E+00 1.29657E-14 2.98469E-13
 -1      1039 1.83026E+01 8.92599E-01 2.23514E-04-9.82774E-01-3.17359E-14-8.34951E-14
 -1      1040 1.86831E+01 8.72446E-01-4.18826E-04-7.88135E-01 9.75885E-15-6.06673E-14
 -1      1041 1.64971E+01 6.98883E-01 3.21954E-03-1.71757E+00-2.57255E-14-3.93952E-13
 -1      1042 1.72431E+01 8.99279E-01-2.63599E-04-1.24875E+00-3.13771E-14-2.64245E-13
 -1      1043 1.95629E+01 5.88622E-01-1.22766E-04 2.86397E-01-1.32966E-13-3.40466E-13
 -1      1044 1.72445E+01 5.01273E-01 2.54803E-04 1.89358E+00 1.09710E-14 4.50245E-13
 -1      1045 1.85595E+01 9.24425E-01-1.74686E-05 8.66287E-01 1.12951E-13-1.96560E-13
 -1      1046 1.88740E+01 8.85699E-01 4.49940E-05 6.90825E-01-1.29805E-13-1.27518E-13
 -1      1047 1.91348E+01 8.10188E-01 4.44307E-05 5.53739E-01-8.91432E-15-4.86048E-13
 -1      1048 1.93482E+01 7.16218E-01-1.75097E-04 4.43137E-01 1.26018E-13-6.80895E-13
 -1      1049 1.72550E+01-5.65627E-02 2.63888E-03 2.52498E+00-1.13362E-13 4.87672E-13
 -1      1050 1.51754E+01 1.07344E+00 1.36259E-02-7.84131E-01 4.03147E-14-2.33517E-13
 -1      1051 1.99763E+01 3.03230E-01-4.56422E-06-3.96376E-01 1.44050E-16-8.17008E-14
 -1      1052 2.03550E+01 4.88625E-01 6.71684E-06 5.74368E-02-7.09910E-14-1.29625E-13
 -1      1053 1.78389E+01 9.12204E-01 1.58400E-03-1.09939E+00-5.45361E-14-1.78961E-13
 -1      1054 2.03776E+01 7.03847E-01 1.39177E-04-5.05912E-03-6.64316E-14-1.56941E-13
 -1      1055 1.95052E+01 5.91122E-01-4.74984E-05-4.41764E-01-5.07141E-14-3.75588E-14
 -1      1056 2.03448E+01 1.11236E+00 6.50510E-04 9.62715E-04-1.30113E-14-2.22680E-13
 -1      1057 2.02956E+01 3.61781E-01-7.68987E-06 1.06381E-01-4.13375E-14-1.08700E-13
 -1      1058 1.95201E+01 6.11759E-01 9.28878E-05 1.44486E-01-6.46316E-15-3.74291E-13
 -1      1059 1.81858E+01 8.99922E-01-3.35505E-04 1.09965E+00 1.21874E-13 3.44555E-13
 -1      1060 2.01242E+01 2.85904E-01-3.59174E-07-2.20679E-01-8.26192E-14-1.68684E-13
 -1      1061 2.02228E+01 2.95231E-01-1.17878E-04-1.73960E-01-3.26721E-14-1.96493E-13
 -1      1062 1.90051E+01 8.00941E-01-1.57781E-04-6.41997E-01-6.37605E-14-1.01281E-13
 -1      1063 1.96991E+01 4.83875E-01-6.07624E-05-3.71163E-01 5.95740E-15-8.89413E-14
 -1      1064 1.93753E+01 6.99511E-01 3.91327E-04-9.78807E-02 6.84803E-15-3.57108E-14
 -1      1065 1.92764E+01 7.01261E-01-9.26370E-05-5.30036E-01-6.40128E-14-9.89772E-15
 -1      1066 1.56676E+01 8.76048E-01 3.56870E-03 1.39290E+00 1.54790E-14-6.32095E-14
 -1      1067 2.03840E+01 7.60601E-01-1.12161E-03 6.04193E-04-3.58460E-15-1.38680E-13
 -1      1068 2.03552E+01 1.04212E+00 2.05718E-04-5.36416E-02-4.72345E-14-2.15918E-13
 -1      1069 1.60236E+01 1.11448E+00 1.77961E-03-7.59188E-01 1.67436E-13-2.50185E-13
 -1      1070 2.00240E+01 3.47417E-01 4.36230E-05 7.93127E-02 6.39832E-14-8.17080E-14
 -1      1071 1.98662E+01 4.11648E-01 1.56625E-04 9.37110E-02-3.25247E-14-6.84195E-14
 -1      1072 1.96777E+01 5.07759E-01 4.77440E-04 1.12338E-01-8.76869E-14-1.46657E-13
 -1      1073 1.94497E+01 6.26408E-01 1.97355E-04 1.33624E-01-1.25688E-13-2.33028E-13
 -1      1074 1.91804E+01 7.54352E-01 1.43521E-04 1.59233E-01-8.81640E-14-1.84462E-13
 -1      1075 1.88551E+01 8.83350E-01 1.52923E-04 1.92022E-01 4.13236E-14-2.08261E-13
 -1      1076 1.84567E+01 1.00113E+00-6.20139E-05 2.34519E-01 4.90591E-14-1.69155E-13
 -1      1077 1.79658E+01 1.08980E+00-9.32544E-04 2.90849E-01 4.09641E-14-7.78934E-14
 -1      1078 1.73415E+01 1.14386E+00-9.76514E-04 3.68492E-01 5.01962E-14-1.27359E-13
 -1      1079 1.65096E+01 1.15738E+00-6.53578E-03 5.04274E-01-6.67142E-15-1.16866E-13
 -1      1080 2.03619E+01 5.08611E-01-2.48191E-04-4.04326E-02 2.58833E-14-1.77580E-13
 -1      1081 1.71886E+01 1.18415E+00-8.10164E-04-4.48065E-01 3.64560E-13-2.58659E-13
 -1      1082 1.78261E+01 1.15594E+00 3.44654E-04-3.39122E-01 2.73016E-13-6.62453E-14
 -1      1083 1.83226E+01 1.08352E+00-1.34620E-05-2.64479E-01 2.88737E-13-6.74093E-14
 -1      1084 1.87138E+01 9.85480E-01-4.65153E-05-2.10514E-01 1.83137E-13 4.88785E-15
 -1      1085 1.90245E+01 8.73168E-01 1.24551E-04-1.68590E-01-2.71229E-13-4.98760E-14
 -1      1086 1.92133E+01 7.86032E-01 1.47706E-04-1.29540E-01-8.02952E-14-1.46621E-13
 -1      1087 2.00043E+01 3.21543E-01-2.51455E-05-2.64761E-01-7.23531E-14-1.38586E-13
 -1      1088 1.64030E+01 1.13478E+00 1.06177E-02-5.45604E-01 1.95334E-14-2.30236E-13
 -1      1089 1.90889E+01 8.40934E-01-5.94274E-05 2.89318E-01 1.40270E-13-4.41360E-13
 -1      1090 2.02634E+01 3.49638E-01 6.09155E-05 5.03462E-02-7.56711E-15-7.50308E-14
 -1      1091 1.66886E+01 1.02492E+00 5.57017E-03 1.04160E+00 1.53406E-13 4.95415E-14
 -1      1092 1.87984E+01 9.47547E-01-2.23829E-05 3.63665E-01 1.98037E-13-3.77711E-13
 -1      1093 1.84373E+01 1.03590E+00 7.69601E-06 4.59460E-01 1.27687E-13-8.07198E-14
 -1      1094 1.74141E+01 1.09673E+00-7.23453E-04 7.78292E-01 2.76419E-13-2.15772E-13
 -1      1095 1.64557E+01 6.70940E-01-5.27386E-03 1.72124E+00 1.26331E-14 3.24370E-13
 -1      1096 1.81644E+01 1.03879E+00 6.26935E-04-4.94222E-01 6.02971E-14-2.46526E-13
 -1      1097 1.92722E+01 7.09308E-01-1.39565E-04-2.65601E-01-7.32700E-14-1.15554E-13
 -1      1098 2.03806E+01 6.22806E-01 3.36234E-04 1.21263E-02-3.09019E-14-1.48270E-13
 -1      1099 1.93280E+01 7.25985E-01 7.73030E-05 2.05768E-01-2.15963E-13-2.26153E-14
 -1      1100 2.03392E+01 4.46911E-01 1.05639E-04 3.20319E-02-2.68469E-14-6.64073E-14
 -1      1101 2.03035E+01 3.69988E-01-2.00713E-04-1.03083E-01 2.80880E-14-1.64466E-13
 -1      1102 1.79857E+01 1.09334E+00 2.64941E-04 5.90168E-01 2.21157E-13-2.30200E-13
 -1      1103 2.01569E+01 3.23425E-01 1.81142E-04 6.55336E-02 3.90905E-14-1.20426E-13
 -1      1104 2.00565E+01 3.30584E-01-2.59333E-05-1.30306E-01-3.11874E-14-1.53861E-13
 -1      1105 1.86119E+01 9.46394E-01-2.05717E-04-3.95135E-01-1.59727E-14-2.00240E-13
 -1      1106 1.95225E+01 5.85867E-01-1.39109E-05-2.19701E-01-6.36238E-14-1.44378E-13
 -1      1107 1.98637E+01 3.90958E-01-3.52500E-05-3.13322E-01-9.79249E-15-1.00421E-13
 -1      1108 1.93601E+01 7.07114E-01 3.35442E-05 3.27938E-02 9.48940E-14-5.89391E-14
 -1      1109 1.89736E+01 8.33274E-01-1.85558E-04-3.21924E-01-2.31080E-14-1.36099E-13
 -1      1110 1.62581E+01 1.21830E+00-7.25252E-04 2.26941E-01 1.47307E-13-1.11435E-13
 -1      1111 1.70924E+01 1.12384E+00-7.81359E-04-5.80893E-01 3.80396E-14-3.16597E-13
 -1      1112 1.76973E+01 1.10135E+00 8.12405E-04-4.98464E-01-3.08953E-14-3.10876E-13
 -1      1113 2.01823E+01 3.13013E-01 8.84591E-05-1.06053E-01-6.70833E-14-6.06018E-14
 -1      1114 1.97690E+01 4.57293E-01-1.10136E-03-6.33547E-02-5.99264E-14-2.42723E-13
 -1      1115 1.80747E+01 1.13620E+00-7.12762E-04 1.01014E-01 1.08829E-13-1.98232E-13
 -1      1116 1.99074E+01 3.87567E-01 5.02584E-05-1.56756E-01-3.67559E-14-2.77660E-13
 -1      1117 1.85191E+01 1.04522E+00-2.51802E-05 7.80648E-02 2.49219E-13-3.87905E-13
 -1      1118 1.88716E+01 9.34411E-01-1.32813E-05 6.07919E-02 2.75905E-14-2.01560E-13
 -1      1119 2.03055E+01 3.91449E-01-5.34250E-05-2.57860E-02-2.44435E-14-8.12989E-14
 -1      1120 1.73359E+01 1.20487E+00-1.08471E-03 1.50446E-01 3.55315E-13-7.19717E-14
 -1      1121 1.91541E+01 8.14461E-01-8.11616E-05 4.51325E-02-1.62546E-13 6.09691E-14
 -1      1122 1.97358E+01 4.74130E-01 5.53615E-04-1.85388E-01-3.53323E-15-2.33295E-13
 -1      1123 2.79203E+01 9.07252E+00 2.32123E+00-6.69066E+00-3.09197E-14 1.23770E-12
 -1      1124 2.05263E+01 6.22071E+00 2.09382E-01-3.90159E+00-1.86240E-14 2.55074E-13
 -1      1125 1.94265E+01 5.85063E+00 7.55858E-02-2.88631E+00-1.46272E-14-1.86804E-13
 -1      1126 1.90276E+01 5.72649E+00 6.06318E-02-2.23298E+00-9.86017E-15-4.05222E-13
 -1      1127 1.88486E+01 5.67193E+00 5.78112E-02-1.69912E+00-6.66134E-15-5.21061E-13
 -1      1128 1.87603E+01 5.64484E+00 5.57833E-02-1.23172E+00-4.47038E-15-5.78635E-13
 -1      1129 1.87148E+01 5.63061E+00 5.39192E-02-8.02288E-01-2.69750E-15-6.02851E-13
 -1      1130 1.86926E+01 5.62355E+00 5.25786E-02-3.91677E-01-8.68012E-16-6.11075E-13
 -1      1131 1.86863E+01 5.62153E+00 5.21505E-02 8.47205E-03 7.32595E-16-6.16473E-13
 -1      1132 1.86936E+01 5.62388E+00 5.26885E-02 4.09032E-01 1.61221E-15-6.14478E-13
 -1      1133 1.87168E+01 5.63129E+00 5.41472E-02 8.20977E-01 2.73696E-15-6.06347E-13
 -1      1134 1.87641E+01 5.64617E+00 5.64491E-02 1.25297E+00 5.02636E-15-5.67803E-13
 -1      1135 1.88541E+01 5.67386E+00 5.87392E-02 1.72486E+00 7.30145E-15-5.00415E-13
 -1      1136 1.90331E+01 5.72814E+00 6.07171E-02 2.26634E+00 1.01516E-14-3.85057E-13
 -1      1137 1.94227E+01 5.84765E+00 6.94264E-02 2.92683E+00 1.47382E-14-1.62790E-13
 -1      1138 2.04324E+01 6.17565E+00 1.53031E-01 3.87618E+00 1.70697E-14 2.76335E-13
 -1      1139 2.51774E+01 7.98146E+00 1.42732E+00 5.84047E+00 3.78586E-14 1.21886E-12
 -1      1140 2.87611E+01 3.61037E+00 1.26842E+00-4.21175E+00-1.31256E-13 1.86762E-12
 -1      1141 2.01854E+01-1.77611E-01-6.15877E-01-1.10037E-01-3.90660E-14 1.58307E-12
 -1      1142 1.87927E+01-9.64526E-02-2.36291E-01 6.22591E-02-1.43184E-14 1.14940E-12
 -1      1143 1.84604E+01-4.83521E-02-5.98262E-02 4.02191E-02-1.89571E-14 8.32154E-13
 -1      1144 1.84088E+01-2.50676E-02-1.56305E-02 2.64652E-02-1.59052E-15 6.04291E-13
 -1      1145 1.84973E+01-1.37688E-02-5.68328E-03 1.86913E-02-1.22016E-15 5.09173E-13
 -1      1146 1.86561E+01-7.66184E-03-2.57018E-03 1.37290E-02-7.82783E-15 4.25446E-13
 -1      1147 1.88486E+01-4.32360E-03-1.03939E-03 1.03287E-02-9.00874E-15 2.95746E-13
 -1      1148 1.90559E+01-2.63675E-03-3.75363E-04 7.88525E-03-1.86381E-14 1.45332E-13
 -1      1149 1.92699E+01-2.02465E-03-4.65986E-04 6.12136E-03 4.53698E-15-1.42508E-14
 -1      1150 1.94898E+01-2.16042E-03-1.20630E-03 4.91707E-03 2.00070E-14-1.14764E-13
 -1      1151 1.97200E+01-2.83910E-03-2.48426E-03 4.23316E-03 2.79659E-15-6.90654E-14
 -1      1152 1.99691E+01-3.91004E-03-4.19484E-03 4.07959E-03 2.85237E-15-2.34188E-13
 -1      1153 2.02488E+01-5.23196E-03-6.22285E-03 4.50214E-03-4.80616E-15-1.32723E-13
 -1      1154 2.05729E+01-6.63116E-03-8.40028E-03 5.57250E-03-3.71610E-15-1.17606E-13
 -1      1155 2.09564E+01-7.85184E-03-1.04364E-02 7.37111E-03-1.42993E-14-1.87683E-13
 -1      1156 2.14128E+01-8.49246E-03-1.18108E-02 9.94760E-03 1.09341E-14-7.18106E-14
 -1      1157 2.19511E+01-7.93059E-03-1.16249E-02 1.32358E-02-9.16140E-15-2.87548E-14
 -1      1158 2.25688E+01-5.25928E-03-8.43877E-03 1.68890E-02-1.36458E-15-1.03084E-13
 -1      1159 2.32431E+01 6.95739E-04-2.11915E-04 2.00021E-02-1.14542E-14-1.09773E-14
 -1      1160 2.39168E+01 1.11253E-02 1.53510E-02 2.07299E-02 3.79471E-17-6.56142E-14
 -1      1161 2.44830E+01 2.64753E-02 3.95311E-02 1.59635E-02 1.24796E-14-7.80834E-14
 -1      1162 2.47772E+01 4.50105E-02 6.97254E-02 1.64534E-03 3.96228E-14 1.48092E-13
 -1      1163 2.45936E+01 6.05460E-02 9.56618E-02-2.53558E-02-1.58025E-14-1.35059E-13
 -1      1164 2.37538E+01 6.19357E-02 9.80301E-02-6.29002E-02 2.52506E-14-2.45456E-13
 -1      1165 2.22392E+01 3.64091E-02 5.59699E-02-9.84687E-02 3.23253E-14 1.18933E-14
 -1      1166 2.03366E+01-1.81742E-02-3.23997E-02-1.09752E-01 5.63152E-14 2.57031E-13
 -1      1167 1.86556E+01-8.06102E-02-1.31704E-01-7.81913E-02-1.45873E-14 8.31696E-14
 -1      1168 1.78849E+01-1.13109E-01-1.82564E-01-8.99433E-03-4.61107E-14-1.43281E-13
 -1      1169 1.83781E+01-9.20238E-02-1.49576E-01 6.48281E-02 7.47319E-15-6.02990E-14
 -1      1170 1.99060E+01-3.29741E-02-5.61072E-02 1.06545E-01-2.05998E-16 2.23460E-13
 -1      1171 2.18197E+01 2.60168E-02 3.90599E-02 1.03951E-01-1.85086E-14-1.47660E-14
 -1      1172 2.34613E+01 5.86816E-02 9.26551E-02 7.18267E-02-7.52957E-15-5.16295E-13
 -1      1173 2.44640E+01 6.24726E-02 9.89177E-02 3.32091E-02 1.66984E-14-6.84716E-13
 -1      1174 2.47876E+01 4.89166E-02 7.63130E-02 3.29824E-03-3.01703E-14-9.79781E-13
 -1      1175 2.45881E+01 3.02658E-02 4.57537E-02-1.37326E-02 3.28687E-14-8.85125E-13
 -1      1176 2.40742E+01 1.38135E-02 1.96620E-02-2.02757E-02 8.35948E-14-7.52547E-13
 -1      1177 2.34236E+01 2.12873E-03 2.01547E-03-2.04337E-02 4.97849E-15-1.93151E-13
 -1      1178 2.27572E+01-4.89641E-03-7.87663E-03-1.75858E-02 7.46132E-15-2.67172E-13
 -1      1179 2.21436E+01-8.37741E-03-1.22387E-02-1.38367E-02 1.54154E-14-2.95734E-13
 -1      1180 2.16137E+01-9.52813E-03-1.32307E-02-1.02579E-02-9.90928E-15-4.75012E-13
 -1      1181 2.11755E+01-9.32302E-03-1.24390E-02-7.27655E-03-9.08366E-15-3.91377E-13
 -1      1182 2.08244E+01-8.44234E-03-1.08808E-02-4.97986E-03 5.73131E-14-5.17596E-13
 -1      1183 2.05499E+01-7.32395E-03-9.16393E-03-3.29843E-03-4.54825E-14-1.75471E-13
 -1      1184 2.03404E+01-6.23756E-03-7.65081E-03-2.09567E-03 6.57607E-14-2.65168E-13
 -1      1185 2.01853E+01-5.33781E-03-6.56709E-03-1.19299E-03-9.51127E-15-1.29618E-13
 -1      1186 2.00767E+01-4.68367E-03-5.99506E-03-3.53347E-04 6.48119E-14-3.22711E-13
 -1      1187 2.00102E+01-4.13294E-03-5.57624E-03 7.73811E-04 4.95254E-14-1.12043E-13
 -1      1188 1.99858E+01-3.86470E-03-3.31997E-03 2.83954E-03-5.32423E-14-6.13113E-13
 -1      1189 1.99938E+01 2.20295E-03 5.03243E-03 2.07042E-03 4.61134E-14-2.15864E-13
 -1      1190 2.77427E+01 5.24955E-01 3.75906E-01 1.96446E+00-2.05530E-14 2.00440E-12
 -1      1191 2.00430E+01-6.62408E-02-5.73252E-01 1.29525E-01 1.65978E-14 1.53647E-12
 -1      1192 1.88673E+01-4.07089E-02-1.93166E-01 1.96105E-02 9.14026E-15 1.13845E-12
 -1      1193 1.84894E+01-2.16450E-02-5.07076E-02 1.77894E-03-1.93552E-15 8.60985E-13
 -1      1194 1.84216E+01-1.27929E-02-1.37620E-02-3.61280E-03 8.13520E-15 6.28116E-13
 -1      1195 1.85037E+01-8.00267E-03-5.27877E-03-4.89712E-03 6.02242E-15 4.14828E-13
 -1      1196 1.86595E+01-5.21466E-03-2.90496E-03-4.88313E-03-5.01167E-15 3.98636E-13
 -1      1197 1.88504E+01-3.62281E-03-1.79828E-03-4.36776E-03-3.85054E-15 3.93421E-13
 -1      1198 1.90568E+01-2.84147E-03-1.31358E-03-3.60569E-03-2.88455E-15 2.37033E-13
 -1      1199 1.92703E+01-2.65856E-03-1.42627E-03-2.71906E-03 1.44248E-14 1.36174E-13
 -1      1200 1.94899E+01-2.94400E-03-2.10787E-03-1.79284E-03 1.24098E-14 1.79084E-14
 -1      1201 1.97199E+01-3.60700E-03-3.30028E-03-9.02626E-04-4.54796E-15 8.58081E-15
 -1      1202 1.99686E+01-4.56719E-03-4.93597E-03-1.31043E-04 2.60758E-14-1.01113E-13
 -1      1203 2.02477E+01-5.72591E-03-6.92646E-03 4.15469E-04-1.92575E-14-1.79854E-13
 -1      1204 2.05708E+01-6.92943E-03-9.12157E-03 5.87041E-04 2.52934E-14-4.24420E-13
 -1      1205 2.09523E+01-7.91764E-03-1.12373E-02 1.68695E-04-2.77171E-14-5.41874E-13
 -1      1206 2.14054E+01-8.25563E-03-1.27434E-02-1.13724E-03-4.21835E-14-4.84609E-13
 -1      1207 2.19382E+01-7.25679E-03-1.27061E-02-3.70650E-03 2.78150E-14-4.91784E-13
 -1      1208 2.25475E+01-3.93725E-03-9.61649E-03-7.92369E-03 8.16084E-15-7.18479E-13
 -1      1209 2.32096E+01 2.88979E-03-1.33713E-03-1.39668E-02-2.12495E-14-5.14547E-13
 -1      1210 2.38667E+01 1.41658E-02 1.45015E-02-2.13319E-02 1.08220E-14-3.81199E-13
 -1      1211 2.44123E+01 2.95229E-02 3.90841E-02-2.80469E-02-8.67926E-15-3.34052E-13
 -1      1212 2.46843E+01 4.55726E-02 6.94883E-02-2.98604E-02 4.21659E-14-5.49731E-13
 -1      1213 2.44826E+01 5.45107E-02 9.50202E-02-2.04705E-02-1.75754E-14-4.56538E-13
 -1      1214 2.36379E+01 4.57567E-02 9.66509E-02 5.41076E-03-3.29910E-14-1.34073E-13
 -1      1215 2.21402E+01 1.33569E-02 5.57993E-02 4.54224E-02-4.14599E-16 2.69312E-13
 -1      1216 2.02761E+01-3.36155E-02-2.66403E-02 8.37549E-02-2.98680E-14 2.57183E-13
 -1      1217 1.86391E+01-7.04304E-02-1.16400E-01 9.60438E-02-4.61913E-14 1.90778E-13
 -1      1218 1.78914E+01-7.46230E-02-1.61644E-01 6.76004E-02-6.25585E-14 3.93255E-13
 -1      1219 1.83701E+01-4.66118E-02-1.34569E-01 9.73507E-03 1.46844E-14 1.04430E-13
 -1      1220 1.98545E+01-7.97904E-03-5.66013E-02-4.68572E-02 5.88817E-14-6.38350E-13
 -1      1221 2.17219E+01 2.06326E-02 2.36639E-02-7.66660E-02 2.04502E-15-7.25475E-13
 -1      1222 2.33372E+01 3.19147E-02 7.05453E-02-7.53007E-02 5.68556E-15-7.24462E-13
 -1      1223 2.43392E+01 3.00750E-02 7.86503E-02-5.46338E-02 8.49191E-15-8.41570E-13
 -1      1224 2.46806E+01 2.21986E-02 6.25965E-02-2.94911E-02-4.33126E-14-3.94063E-13
 -1      1225 2.45068E+01 1.33952E-02 3.91200E-02-8.98617E-03-5.03096E-14-1.86049E-14
 -1      1226 2.40178E+01 6.15766E-03 1.84356E-02 4.16308E-03 4.29588E-14-3.53124E-13
 -1      1227 2.33876E+01 1.13748E-03 4.10458E-03 1.08412E-02 1.31792E-14-7.65138E-13
 -1      1228 2.27358E+01-1.89683E-03-4.18238E-03 1.30848E-02-4.65387E-14-5.14033E-13
 -1      1229 2.21319E+01-3.45560E-03-8.07439E-03 1.27808E-02 1.10116E-14-5.29979E-13
 -1      1230 2.16081E+01-4.04044E-03-9.23961E-03 1.12672E-02 5.73603E-15-6.75756E-13
 -1      1231 2.11735E+01-4.04876E-03-8.92625E-03 9.35901E-03-5.44828E-14-1.74765E-13
 -1      1232 2.08242E+01-3.76697E-03-7.94845E-03 7.49683E-03 4.92582E-14-3.23446E-13
 -1      1233 2.05506E+01-3.39468E-03-6.80708E-03 5.88835E-03 6.17529E-15-4.77648E-13
 -1      1234 2.03414E+01-3.07043E-03-5.81769E-03 4.60359E-03 1.20452E-14-3.75195E-13
 -1      1235 2.01864E+01-2.87910E-03-5.19490E-03 3.62182E-03-9.17474E-15-1.30113E-13
 -1      1236 2.00777E+01-2.85984E-03-5.04566E-03 2.83035E-03 2.38922E-14-5.16442E-13
 -1      1237 2.00110E+01-2.79715E-03-4.96971E-03 1.85673E-03-6.96757E-15-5.67070E-13
 -1      1238 1.99859E+01-1.44470E-03-2.70854E-03-1.76013E-04 4.17288E-14-2.36925E-13
 -1      1239 1.99946E+01 1.86641E-03 5.09658E-03-1.89601E-03-5.03909E-14-2.77535E-13
 -1      1240 2.00015E+01-5.62328E-03 4.66876E-03-1.94528E-03-2.14352E-13-1.21271E-13
 -1      1241 1.99972E+01-1.28356E-02-3.38877E-03-2.35655E-03 2.70227E-15 8.66465E-14
 -1      1242 1.99968E+01 1.51302E-02-4.80144E-03 4.27606E-04 7.35069E-13 1.45112E-14
 -1      1243 1.99980E+01 7.80273E-02-3.08520E-03 2.03482E-03 1.14526E-12-5.00093E-14
 -1      1244 1.99997E+01 1.60985E-01-5.78509E-04 2.69502E-03 2.87399E-13 1.16719E-15
 -1      1245 2.00013E+01 2.46442E-01 1.76281E-03 2.62147E-03-5.49504E-13-6.17206E-14
 -1      1246 2.00026E+01 3.19807E-01 3.58875E-03 2.06604E-03-9.99773E-13 4.83680E-14
 -1      1247 2.00034E+01 3.69459E-01 4.77100E-03 1.11816E-03-1.19029E-12-5.27199E-15
 -1      1248 2.00037E+01 3.86738E-01 5.17330E-03-9.13290E-06-7.58305E-13 1.35086E-13
 -1      1249 2.00034E+01 3.68942E-01 4.76217E-03-1.13680E-03-1.88340E-13-5.11597E-14
 -1      1250 2.00025E+01 3.18832E-01 3.56328E-03-2.07981E-03-9.54709E-13-2.04884E-13
 -1      1251 2.00013E+01 2.45109E-01 1.71981E-03-2.66283E-03-1.71517E-12 7.29210E-14
 -1      1252 1.99996E+01 1.59589E-01-6.12705E-04-2.69092E-03-1.40665E-12-1.83185E-14
 -1      1253 1.99980E+01 7.67669E-02-3.13138E-03-2.05231E-03-5.02229E-13-6.30007E-14
 -1      1254 1.99970E+01 1.33097E-02-5.02338E-03-5.37172E-04 2.51946E-13 1.90638E-14
 -1      1255 1.99966E+01-1.11319E-02-2.78967E-03 4.02548E-03 3.69700E-13-5.78745E-14
 -1      1256 2.00017E+01-6.47000E-03 4.60821E-03 2.33358E-03 2.82175E-13 1.19118E-13
 -1      1257-1.03732E+00-2.38730E+01-3.71185E+00-2.15441E+00-5.61939E-13-1.36245E-14
 -1      1258-1.78322E+00-1.50637E+01-3.05298E+00-3.95450E+00 1.42997E-13 1.74083E-13
 -1      1259 5.15392E-01-2.08905E+00-1.81252E+00 6.01903E-02 2.99982E-13 2.04392E-13
 -1      1260 9.63569E+00 7.91297E+00-2.04079E-01 8.55001E+00 5.94635E-13 7.30971E-13
 -1      1261 2.61165E+01 1.09278E+01 1.40632E+00 1.61789E+01 7.51732E-13 9.66338E-13
 -1      1262 4.63965E+01 7.88718E+00 2.93340E+00 1.75255E+01 4.48530E-13 1.06448E-12
 -1      1263 6.20183E+01 3.36438E+00 3.95068E+00 1.03598E+01 1.03598E-13 2.52465E-13
 -1      1264 6.68432E+01 1.75252E+00 4.28703E+00-2.15712E+00 7.53633E-14-7.87898E-13
 -1      1265 5.64981E+01 5.20785E+00 3.60589E+00-1.38367E+01 5.04041E-13-1.80977E-12
 -1      1266 3.75116E+01 9.88982E+00 2.38884E+00-1.79898E+01 1.11389E-12-2.06946E-12
 -1      1267 1.80046E+01 1.04736E+01 6.98774E-01-1.32050E+01 1.52545E-12-1.87250E-12
 -1      1268 4.43429E+00 4.20292E+00-9.41428E-01-4.43470E+00 1.80678E-12-1.47393E-12
 -1      1269-1.15686E+00-7.37236E+00-2.38311E+00 2.41174E+00 1.20304E-12-7.25642E-13
 -1      1270-1.59128E+00-1.90250E+01-3.33675E+00 3.90632E+00 1.48104E-13-5.86475E-14
 -1      1271-8.77420E-01-2.48484E+01-3.74741E+00 7.03076E-01-9.64132E-13-4.69277E-14
 -1      1272-1.29905E+00-2.20122E+01-3.56503E+00-3.28150E+00-1.85252E-12-3.02119E-13
 -1      1273-1.66223E+00-1.16061E+01-2.75883E+00-3.49692E+00-1.76037E-12-7.48568E-13
 -1      1274 2.00531E+00 8.16682E-01-1.43893E+00 1.87260E+00-1.78235E-12-1.23079E-12
 -1      1275 1.31682E+01 9.13680E+00 2.09865E-01 1.05846E+01-1.78302E-12-1.78391E-12
 -1      1276 3.11891E+01 1.06130E+01 1.83006E+00 1.72348E+01-1.15641E-12-1.71263E-12
 -1      1277 5.04627E+01 6.83093E+00 3.18593E+00 1.67345E+01-3.77198E-13-9.68114E-13
 -1      1278 6.37975E+01 2.65306E+00 4.01352E+00 8.58210E+00-4.54047E-14-2.81442E-13
 -1      1279 6.65564E+01 1.69172E+00 4.19770E+00-3.46270E+00-4.95159E-14 3.42032E-13
 -1      1280 5.69246E+01 5.05393E+00 3.63010E+00-1.39270E+01-3.51968E-13 1.26010E-12
 -1      1281 3.95497E+01 9.50403E+00 2.50636E+00-1.80616E+01-7.82041E-13 1.66733E-12
 -1      1282 2.08364E+01 1.09251E+01 9.63940E-01-1.45573E+01-1.33649E-12 1.66289E-12
 -1      1283 6.79684E+00 6.27147E+00-6.26709E-01-6.59293E+00-1.83542E-12 1.58096E-12
 -1      1284-3.43993E-01-4.14187E+00-2.05295E+00 9.68819E-01-1.68643E-12 1.07658E-12
 -1      1285-1.78213E+00-1.61296E+01-3.15265E+00 4.16759E+00-9.95204E-13 4.02900E-13
 -1      1286-1.12473E+00-2.37431E+01-3.68987E+00 2.10602E+00-7.36244E-13 7.04020E-14
 -1      1287 2.22302E+01 1.83639E+00-7.25044E-01-2.78834E+00-4.74065E-14 1.04078E-12
 -1      1288 2.03420E+01 4.68664E+00-4.84133E-02-3.30429E+00-1.46230E-13 4.91690E-14
 -1      1289 2.08423E+01 4.80513E+00-1.13363E-01-4.15748E+00-1.83104E-13 2.83155E-13
 -1      1290 1.95266E+01 4.99188E+00-1.94223E-02-2.65184E+00-1.55057E-13-2.88051E-13
 -1      1291 1.98189E+01 5.08711E+00 3.52167E-04-3.04281E+00-1.68587E-13-1.42782E-13
 -1      1292 2.05114E+01 3.95026E+00-2.58344E-02-3.07112E+00-2.53738E-13 3.95378E-14
 -1      1293 1.91880E+01 5.08512E+00-3.52465E-03-2.06719E+00-1.25254E-13-4.59018E-13
 -1      1294 1.93331E+01 5.13912E+00 1.07467E-02-2.36044E+00-1.43219E-13-3.78808E-13
 -1      1295 1.97515E+01 4.36551E+00-2.41546E-02-2.48544E+00-2.42521E-13-2.43548E-13
 -1      1296 1.90195E+01 5.13405E+00 3.35076E-03-1.56146E+00-1.02041E-13-5.49588E-13
 -1      1297 1.90940E+01 5.16305E+00 1.27146E-02-1.81142E+00-1.10413E-13-5.10141E-13
 -1      1298 1.93984E+01 4.55773E+00-1.94129E-02-1.92687E+00-1.94386E-13-3.89039E-13
 -1      1299 1.89307E+01 5.16563E+00 6.62628E-03-1.11391E+00-7.01310E-14-5.91326E-13
 -1      1300 1.89711E+01 5.18135E+00 1.28655E-02-1.33520E+00-8.23733E-14-5.66363E-13
 -1      1301 1.92175E+01 4.66597E+00-1.59152E-02-1.44066E+00-1.53505E-13-4.63012E-13
 -1      1302 1.88819E+01 5.18688E+00 8.19617E-03-6.91435E-01-4.56601E-14-6.10222E-13
 -1      1303 1.89038E+01 5.19541E+00 1.21282E-02-9.01172E-01-5.50883E-14-6.04065E-13
 -1      1304 1.91185E+01 4.73364E+00-1.37915E-02-1.00052E+00-1.05677E-13-5.05505E-13
 -1      1305 1.88594E+01 5.19967E+00 9.28144E-03-2.88051E-01-1.41177E-14-6.21754E-13
 -1      1306 1.88687E+01 5.20334E+00 1.11171E-02-4.89487E-01-2.41504E-14-6.14380E-13
 -1      1307 1.90649E+01 4.77431E+00-1.27483E-02-5.86262E-01-5.72773E-14-5.12142E-13
 -1      1308 1.88559E+01 5.20484E+00 1.02310E-02 1.07829E-01 1.18580E-14-6.21470E-13
 -1      1309 1.88556E+01 5.20471E+00 1.01589E-02-9.10883E-02 6.89444E-16-6.21735E-13
 -1      1310 1.90417E+01 4.79319E+00-1.23088E-02-1.88222E-01-1.23861E-14-5.29830E-13
 -1      1311 1.88704E+01 5.20296E+00 1.12052E-02 5.06819E-01 3.43744E-14-6.22594E-13
 -1      1312 1.88603E+01 5.19901E+00 9.21483E-03 3.04962E-01 2.79428E-14-6.26214E-13
 -1      1313 1.90425E+01 4.79254E+00-1.23288E-02 2.04863E-01 3.51600E-14-5.32359E-13
 -1      1314 1.89069E+01 5.19422E+00 1.21826E-02 9.20001E-01 5.77810E-14-6.06510E-13
 -1      1315 1.88843E+01 5.18554E+00 8.12547E-03 7.09302E-01 5.11444E-14-6.17190E-13
 -1      1316 1.90675E+01 4.77221E+00-1.28210E-02 6.03611E-01 6.94261E-14-5.27585E-13
 -1      1317 1.89753E+01 5.17960E+00 1.30265E-02 1.35267E+00 8.25538E-14-5.61355E-13
 -1      1318 1.89340E+01 5.16343E+00 6.46420E-03 1.12999E+00 7.17824E-14-5.87815E-13
 -1      1319 1.91227E+01 4.73012E+00-1.38517E-02 1.01572E+00 1.07529E-13-4.98906E-13
 -1      1320 1.91024E+01 5.15894E+00 1.29755E-02 1.83733E+00 1.19290E-13-4.90268E-13
 -1      1321 1.90260E+01 5.12948E+00 3.20374E-03 1.58450E+00 1.02928E-13-5.33120E-13
 -1      1322 1.92244E+01 4.65948E+00-1.60119E-02 1.45820E+00 1.55030E-13-4.52166E-13
 -1      1323 1.93431E+01 5.13305E+00 1.03092E-02 2.39476E+00 1.56316E-13-3.58800E-13
 -1      1324 1.91973E+01 5.07721E+00-4.25929E-03 2.09735E+00 1.38153E-13-4.37341E-13
 -1      1325 1.94110E+01 4.54442E+00-1.98652E-02 1.95381E+00 2.09037E-13-3.71019E-13
 -1      1326 1.98440E+01 5.09617E+00 6.12263E-03 3.08109E+00 1.84575E-13-1.14603E-13
 -1      1327 1.95378E+01 4.98286E+00-2.03626E-02 2.69377E+00 1.60490E-13-2.63334E-13
 -1      1328 1.97716E+01 4.34582E+00-2.44619E-02 2.52395E+00 2.57605E-13-2.13315E-13
 -1      1329 2.10780E+01 4.90142E+00 8.21764E-03 4.05034E+00 1.64535E-13 3.59934E-13
 -1      1330 2.03163E+01 4.73014E+00-4.77681E-02 3.41357E+00 1.60885E-13 6.99579E-14
 -1      1331 2.05495E+01 3.91335E+00-2.23571E-02 3.17454E+00 2.80338E-13 5.92998E-14
 -1      1332 2.71579E+01 3.20061E+00 9.27049E-01 4.57705E+00 8.56537E-14 1.28897E-12
 -1      1333 2.19886E+01 3.51847E+00-1.81675E-01 3.88158E+00 8.98726E-14 6.38350E-13
 -1      1334 2.20837E+01 2.55938E+00-3.26542E-02 3.45299E+00 2.79618E-13 4.91468E-13
 -1      1335 2.13885E+01 3.59504E-01-7.62822E-01 1.18315E+00 1.53211E-13 1.22546E-12
 -1      1336 2.19635E+01 1.31390E-01-4.00569E-01-1.28437E+00-1.37376E-13 1.08966E-12
 -1      1337 2.06422E+01 3.06548E-01-1.64662E-01-8.04806E-01-1.29681E-13 9.39623E-13
 -1      1338 2.00460E+01 1.53481E-01-7.34364E-02-4.01281E-01-1.00798E-13 8.55731E-13
 -1      1339 1.95771E+01 9.13298E-02-1.48607E-02-3.29101E-01-1.01030E-13 7.00762E-13
 -1      1340 2.09433E+01 3.69023E-01-1.04192E-01-1.27188E+00-2.31939E-13 5.09433E-13
 -1      1341 1.92216E+01 6.47382E-02 3.08717E-03-1.34062E-01-1.01486E-13 6.37108E-13
 -1      1342 1.90688E+01 4.16423E-02 1.32821E-02-1.16105E-01-9.55555E-14 5.10002E-13
 -1      1343 1.98959E+01 1.34093E-01-3.52362E-02-5.01617E-01-1.88936E-13 3.86108E-13
 -1      1344 1.89114E+01 3.19581E-02 1.33169E-02-2.56567E-02-5.51026E-14 4.45251E-13
 -1      1345 1.88947E+01 1.99751E-02 1.11693E-02-1.60410E-02-5.30448E-14 3.54033E-13
 -1      1346 1.94235E+01 5.60517E-02-8.65171E-03-1.65970E-01-1.48950E-13 2.83579E-13
 -1      1347 1.88433E+01 1.67183E-02 8.88417E-03 2.91014E-02-2.61987E-14 3.37107E-13
 -1      1348 1.88906E+01 1.00036E-02 6.58303E-03 3.41230E-02-2.73839E-14 3.05693E-13
 -1      1349 1.92222E+01 2.53509E-02-3.72561E-03-4.22246E-03-8.34758E-14 1.98222E-13
 -1      1350 1.88979E+01 8.95707E-03 4.80590E-03 5.76170E-02-2.75490E-14 2.67954E-13
 -1      1351 1.89765E+01 4.88061E-03 3.83417E-03 6.01152E-02-3.96454E-14 2.09118E-13
 -1      1352 1.91772E+01 1.17289E-02-2.54586E-03 7.90876E-02-7.24950E-14 1.37200E-13
 -1      1353 1.90171E+01 4.80039E-03 2.60419E-03 7.23280E-02-2.89133E-14 2.01473E-13
 -1      1354 1.91109E+01 2.27709E-03 2.45758E-03 7.34774E-02-3.62553E-14 1.44760E-13
 -1      1355 1.92215E+01 5.07989E-03-1.79026E-03 1.22864E-01-5.90274E-14 8.62439E-14
 -1      1356 1.91710E+01 2.71298E-03 1.51912E-03 7.99638E-02-5.30068E-14 1.44496E-13
 -1      1357 1.92722E+01 1.20395E-03 1.74786E-03 8.05153E-02-5.58358E-14 6.10649E-14
 -1      1358 1.93178E+01 1.98661E-03-1.20431E-03 1.46047E-01-7.84212E-14 5.08009E-14
 -1      1359 1.93445E+01 1.96618E-03 9.53031E-04 8.46892E-02-4.75929E-14 5.79176E-14
 -1      1360 1.94501E+01 1.16305E-03 1.34635E-03 8.51714E-02-4.98360E-14 1.05241E-14
 -1      1361 1.94457E+01 1.04723E-03-8.71516E-04 1.59406E-01-7.94787E-14 4.95705E-14
 -1      1362 1.95318E+01 2.16617E-03 6.22883E-04 8.93505E-02-3.88180E-14-2.42250E-14
 -1      1363 1.96424E+01 1.86616E-03 1.10288E-03 9.01585E-02 2.86468E-15-5.02059E-14
 -1      1364 1.95951E+01 1.58276E-03-7.99355E-04 1.69852E-01-7.51691E-14 3.19378E-14
 -1      1365 1.97331E+01 3.07536E-03 4.03128E-04 9.60230E-02-3.39529E-15-1.03878E-13
 -1      1366 1.98516E+01 3.12336E-03 9.47758E-04 9.74642E-02-4.64204E-14-1.61267E-13
 -1      1367 1.97629E+01 3.20983E-03-9.48416E-04 1.82221E-01-5.87569E-14-8.05745E-14
 -1      1368 1.99532E+01 4.52907E-03 2.27254E-04 1.06269E-01-4.38196E-14-1.39413E-13
 -1      1369 2.00844E+01 4.78302E-03 8.35985E-04 1.08584E-01-1.54024E-14-1.82709E-13
 -1      1370 1.99506E+01 5.67645E-03-1.27175E-03 2.00062E-01-6.46199E-14-1.26319E-13
 -1      1371 2.02002E+01 6.38154E-03 4.79880E-05 1.21228E-01 2.17844E-14-1.69286E-13
 -1      1372 2.03500E+01 6.68416E-03 7.26730E-04 1.24591E-01-3.13714E-15-1.59359E-13
 -1      1373 2.01631E+01 8.76879E-03-1.72478E-03 2.25987E-01 9.72204E-15-1.53328E-13
 -1      1374 2.04842E+01 8.45509E-03-1.76137E-04 1.41576E-01 1.53302E-14-1.52473E-13
 -1      1375 2.06594E+01 8.60311E-03 5.76131E-04 1.46073E-01-1.66935E-14-1.35674E-13
 -1      1376 2.04075E+01 1.22291E-02-2.25994E-03 2.61700E-01-3.77953E-16-1.75444E-13
 -1      1377 2.08162E+01 1.04759E-02-4.82104E-04 1.67319E-01-2.73592E-14-1.48318E-13
 -1      1378 2.10235E+01 1.01820E-02 3.37695E-04 1.72889E-01-2.39717E-16-1.58528E-13
 -1      1379 2.06921E+01 1.56533E-02-2.81411E-03 3.07742E-01-1.80450E-14-1.23188E-13
 -1      1380 2.12065E+01 1.19842E-02-8.92926E-04 1.97381E-01 4.71784E-14-1.55734E-13
 -1      1381 2.14509E+01 1.08317E-02-2.66378E-05 2.03706E-01 2.12918E-14-8.91101E-14
 -1      1382 2.10247E+01 1.83453E-02-3.28942E-03 3.62861E-01 2.28114E-14-8.99542E-14
 -1      1383 2.16618E+01 1.22122E-02-1.39157E-03 2.28899E-01 2.97803E-14-3.85629E-14
 -1      1384 2.19441E+01 9.61375E-03-5.16624E-04 2.35222E-01 1.24513E-14-4.30272E-14
 -1      1385 2.14107E+01 1.91153E-02-3.52514E-03 4.22902E-01 5.85940E-14-1.00473E-13
 -1      1386 2.21804E+01 9.94541E-03-1.86996E-03 2.56182E-01-2.32735E-14-4.39891E-14
 -1      1387 2.24938E+01 5.14298E-03-1.03624E-03 2.61041E-01-5.20016E-15-7.53529E-14
 -1      1388 2.18497E+01 1.60409E-02-3.25971E-03 4.79086E-01 1.64690E-16-4.24621E-14
 -1      1389 2.27462E+01 3.44087E-03-2.05191E-03 2.69427E-01 4.08798E-15-8.88768E-14
 -1      1390 2.30705E+01-4.36448E-03-1.31425E-03 2.70337E-01-4.21530E-14-1.14535E-13
 -1      1391 2.23311E+01 6.30245E-03-2.09105E-03 5.15784E-01-9.05870E-15-7.98953E-14
 -1      1392 2.33194E+01-9.39855E-03-1.42437E-03 2.53696E-01-2.86117E-14-1.09768E-13
 -1      1393 2.36145E+01-2.06208E-02-8.53143E-04 2.46928E-01-3.22448E-14-1.24505E-13
 -1      1394 2.28283E+01-1.35900E-02 5.30606E-04 5.08397E-01-6.67355E-14-1.45838E-13
 -1      1395 2.38272E+01-3.02020E-02 7.15983E-04 1.89495E-01 9.49327E-15-5.40887E-14
 -1      1396 2.40286E+01-4.39225E-02 9.88770E-04 1.70382E-01 5.90123E-14-1.66152E-14
 -1      1397 2.32918E+01-4.65296E-02 5.18901E-03 4.23251E-01 1.39177E-14-1.03850E-13
 -1      1398 2.41582E+01-5.80116E-02 4.92755E-03 5.76287E-02 2.93723E-14-3.20048E-14
 -1      1399 2.41796E+01-7.04984E-02 4.45197E-03 2.22626E-02-2.18627E-14-3.99602E-14
 -1      1400 2.36451E+01-9.15792E-02 1.21254E-02 2.23449E-01 2.28741E-14-1.16530E-13
 -1      1401 2.41705E+01-8.59260E-02 1.05450E-02-1.48175E-01-4.62165E-14-1.86587E-14
 -1      1402 2.39247E+01-8.94299E-02 8.55232E-03-1.99059E-01-4.53578E-14-1.06706E-13
 -1      1403 2.37880E+01-1.38248E-01 2.03782E-02-1.13341E-01-5.93310E-14-5.50161E-14
 -1      1404 2.37307E+01-9.80739E-02 1.49665E-02-4.00649E-01 3.56026E-14-6.80810E-14
 -1      1405 2.31758E+01-8.22453E-02 1.02559E-02-4.55888E-01 7.01852E-14 8.54872E-15
 -1      1406 2.36166E+01-1.62307E-01 2.64392E-02-5.61884E-01 2.79117E-15 5.32855E-14
 -1      1407 2.27919E+01-7.30376E-02 1.33483E-02-6.20327E-01 5.73638E-14 2.83731E-14
 -1      1408 2.19938E+01-3.19904E-02 5.49919E-03-6.55441E-01 7.08609E-14 1.28175E-13
 -1      1409 2.30718E+01-1.28853E-01 2.44755E-02-1.01175E+00 8.81187E-14 1.10844E-13
 -1      1410 2.14946E+01-1.68708E-04 2.55367E-03-6.86922E-01 9.65907E-14 4.71706E-14
 -1      1411 2.06619E+01 5.65626E-02-6.91348E-03-6.73079E-01 1.36592E-14 9.40983E-14
 -1      1412 2.22116E+01-1.87769E-02 8.21129E-03-1.26313E+00 5.24650E-14 1.39088E-13
 -1      1413 2.02118E+01 9.77298E-02-1.38409E-02-5.06518E-01-6.46740E-14 3.73312E-14
 -1      1414 1.96436E+01 1.42823E-01-2.09403E-02-4.33893E-01-8.25381E-14-8.13793E-14
 -1      1415 2.12686E+01 1.40139E-01-1.97925E-02-1.11069E+00-8.51255E-14-9.02681E-14
 -1      1416 1.94349E+01 1.65153E-01-2.53145E-02-1.05292E-01-3.59764E-14-7.40658E-14
 -1      1417 1.93706E+01 1.70536E-01-2.61379E-02-1.56898E-03-2.60243E-14-8.33188E-14
 -1      1418 2.06058E+01 2.66627E-01-4.47537E-02-5.07964E-01-8.64794E-14-1.20672E-13
 -1      1419 1.95045E+01 1.55975E-01-2.32587E-02 3.46531E-01 5.08846E-14-2.14308E-14
 -1      1420 1.99727E+01 1.18016E-01-1.73096E-02 4.30029E-01 6.35984E-14 7.73409E-14
 -1      1421 2.05300E+01 2.81629E-01-4.78987E-02 3.25026E-01 1.60705E-14 1.71512E-14
 -1      1422 2.03834E+01 7.85314E-02-1.02987E-02 6.41230E-01-1.50878E-14 1.03834E-13
 -1      1423 2.11825E+01 2.16502E-02-9.98136E-04 6.68827E-01-6.59134E-14 9.27175E-14
 -1      1424 2.10789E+01 1.75223E-01-2.65498E-02 1.00887E+00 6.42143E-14 2.79672E-14
 -1      1425 2.16875E+01-1.41629E-02 3.20810E-03 6.79663E-01-1.61992E-13 6.02296E-14
 -1      1426 2.25168E+01-6.02831E-02 1.16379E-02 6.53519E-01-1.65737E-13-1.20189E-13
 -1      1427 2.19918E+01 1.56282E-02 2.47936E-03 1.26913E+00-2.15060E-13-7.87773E-14
 -1      1428 2.29376E+01-7.47227E-02 9.79899E-03 5.11282E-01-1.25233E-13-2.86896E-13
 -1      1429 2.35593E+01-9.61715E-02 1.52413E-02 4.58168E-01-1.19578E-13-4.51795E-13
 -1      1430 2.28982E+01-1.10232E-01 2.19484E-02 1.09545E+00-3.20867E-13-1.32505E-13
 -1      1431 2.37995E+01-9.06780E-02 9.25462E-03 2.57933E-01-8.83252E-14-5.19567E-13
 -1      1432 2.41161E+01-9.06603E-02 1.17871E-02 2.04659E-01-6.45040E-14-6.45376E-13
 -1      1433 2.35275E+01-1.60590E-01 2.68379E-02 6.71982E-01-2.00151E-13-3.47973E-13
 -1      1434 2.41657E+01-7.58474E-02 5.37810E-03 2.38310E-02-1.14639E-14-6.69748E-13
 -1      1435 2.42001E+01-6.45232E-02 6.12189E-03-1.53050E-02 1.51615E-14-6.44889E-13
 -1      1436 2.37843E+01-1.46668E-01 2.19608E-02 2.10768E-01-9.32674E-14-5.32425E-13
 -1      1437 2.40996E+01-4.96234E-02 1.64300E-03-1.41064E-01 9.18102E-15-6.00004E-13
 -1      1438 2.39340E+01-3.56602E-02 1.52630E-03-1.63442E-01 3.64999E-14-6.09311E-13
 -1      1439 2.37084E+01-1.02246E-01 1.38314E-02-1.54882E-01 5.97751E-14-3.15289E-13
 -1      1440 2.37390E+01-2.49101E-02-5.45644E-04-2.31467E-01 1.23890E-13-6.40252E-13
 -1      1441 2.34629E+01-1.28968E-02-1.03829E-03-2.40382E-01 1.46839E-13-5.02258E-13
 -1      1442 2.33992E+01-5.52482E-02 6.45073E-03-3.83047E-01 8.80884E-14-4.56820E-13
 -1      1443 2.32236E+01-6.82911E-03-1.26387E-03-2.63605E-01 1.33625E-13-4.71382E-13
 -1      1444 2.29077E+01 1.82255E-03-1.93739E-03-2.63750E-01 8.49797E-14-3.74730E-13
 -1      1445 2.29611E+01-1.90043E-02 1.23056E-03-4.88552E-01 1.51029E-13-5.35636E-13
 -1      1446 2.26606E+01 4.27446E-03-1.10476E-03-2.58170E-01 7.58844E-14-2.09967E-13
 -1      1447 2.23509E+01 9.77708E-03-1.87412E-03-2.53526E-01 4.74370E-14-2.46143E-13
 -1      1448 2.24774E+01 3.96498E-03-1.85724E-03-5.06919E-01 1.28897E-13-3.80993E-13
 -1      1449 2.21188E+01 9.95189E-03-6.12623E-04-2.32436E-01-3.26616E-14-1.97764E-13
 -1      1450 2.18402E+01 1.30656E-02-1.41949E-03-2.25745E-01-7.32951E-14-2.87348E-13
 -1      1451 2.20045E+01 1.60514E-02-3.36113E-03-4.73219E-01 4.97020E-14-2.30779E-13
 -1      1452 2.16348E+01 1.20406E-02-1.12329E-04-1.98302E-01-1.30179E-13-1.79652E-13
 -1      1453 2.13976E+01 1.35469E-02-9.01189E-04-1.91208E-01-9.25386E-14-3.97299E-13
 -1      1454 2.15746E+01 2.07851E-02-3.85684E-03-4.14049E-01-1.24614E-13-1.70332E-14
 -1      1455 2.12235E+01 1.20354E-02 2.64090E-04-1.62941E-01-4.26848E-14-3.65552E-13
 -1      1456 2.10290E+01 1.25552E-02-4.61184E-04-1.56309E-01-6.62469E-15-4.19437E-13
 -1      1457 2.12027E+01 2.11939E-02-3.78161E-03-3.46716E-01-8.06336E-14-1.19094E-13
 -1      1458 2.08861E+01 1.09744E-02 4.95220E-04-1.30123E-01 4.30209E-14-3.87434E-13
 -1      1459 2.07313E+01 1.09483E-02-1.37723E-04-1.24326E-01 1.03594E-13-4.03972E-13
 -1      1460 2.08922E+01 1.94094E-02-3.42460E-03-2.81124E-01 3.10735E-14-3.37285E-13
 -1      1461 2.06169E+01 9.51952E-03 6.03643E-04-1.01422E-01 2.57246E-14-2.14001E-13
 -1      1462 2.04967E+01 9.24324E-03 7.24157E-05-9.65377E-02-6.49686E-15-2.39425E-13
 -1      1463 2.06404E+01 1.67811E-02-2.96368E-03-2.22081E-01 1.81360E-13-2.52696E-13
 -1      1464 2.04075E+01 8.07812E-03 6.12942E-04-7.70702E-02 1.30311E-13-2.47751E-13
 -1      1465 2.03167E+01 7.74365E-03 1.73800E-04-7.30024E-02 1.28013E-13-1.02776E-13
 -1      1466 2.04410E+01 1.41223E-02-2.50602E-03-1.71161E-01 4.12975E-14 1.14707E-14
 -1      1467 2.02490E+01 6.90035E-03 5.24140E-04-5.64967E-02 5.20682E-14-7.32480E-14
 -1      1468 2.01831E+01 6.62372E-03 1.56080E-04-5.30434E-02 1.10142E-14-7.05496E-14
 -1      1469 2.02872E+01 1.19149E-02-2.12183E-03-1.27966E-01 1.41768E-13 8.66062E-14
 -1      1470 2.01338E+01 6.13145E-03 3.13039E-04-3.86721E-02-6.31988E-14-9.29913E-14
 -1      1471 2.00897E+01 5.93898E-03 1.89119E-05-3.55611E-02-4.01606E-14-1.13722E-13
 -1      1472 2.01724E+01 1.04650E-02-1.84621E-03-9.09517E-02-3.97935E-14 1.61337E-13
 -1      1473 2.00563E+01 5.74303E-03-7.38013E-06-2.25007E-02 7.94327E-14-2.15511E-13
 -1      1474 2.00323E+01 5.48124E-03-6.85753E-05-1.94405E-02-6.23048E-15-1.71811E-13
 -1      1475 2.00911E+01 9.85534E-03-1.62914E-03-5.81023E-02-6.40490E-14-1.26190E-13
 -1      1476 2.00120E+01 5.99039E-03 1.15277E-05-7.39130E-03-4.76978E-14-8.17462E-14
 -1      1477 2.00063E+01 4.27297E-03 7.25514E-04-4.29835E-03-5.11715E-14-1.86131E-13
 -1      1478 2.00382E+01 9.61134E-03-1.29793E-03-2.82982E-02 5.08953E-14-1.67560E-13
 -1      1479 1.99968E+01-9.91874E-04 1.90270E-03 3.32381E-03 2.67039E-15-2.85733E-14
 -1      1480 2.00069E+01 3.10932E-03 1.21451E-05-2.44585E-03 6.39533E-14-5.94721E-14
 -1      1481 2.02225E+01 7.54870E-02-1.51982E-01 4.83235E-01 1.27690E-13 9.35876E-13
 -1      1482 2.14916E+01 2.15970E-01-2.29200E-01 7.20079E-01 1.15602E-13 1.13980E-12
 -1      1483 2.16957E+01 8.81089E-01-8.53740E-02 2.06259E+00 2.32890E-13 7.26696E-13
 -1      1484 1.92966E+01 3.24747E-02-2.13122E-02 1.85280E-01 9.11892E-14 7.02695E-13
 -1      1485 1.97164E+01 1.13638E-01-6.26326E-02 2.37291E-01 8.72462E-14 8.43897E-13
 -1      1486 2.02733E+01 1.87682E-01-5.51484E-02 7.84606E-01 1.87475E-13 5.48173E-13
 -1      1487 1.89182E+01 1.53095E-02 5.65251E-03 5.21999E-02 7.00230E-14 5.07608E-13
 -1      1488 1.90555E+01 5.18225E-02 1.02314E-03 7.85994E-02 6.78797E-14 6.18523E-13
 -1      1489 1.95318E+01 7.20773E-02-1.21713E-02 2.96790E-01 1.62401E-13 3.91607E-13
 -1      1490 1.88137E+01 7.47059E-03 6.93308E-03-1.14356E-02 6.63285E-14 3.54513E-13
 -1      1491 1.88257E+01 2.62649E-02 1.11411E-02 3.17357E-03 5.84151E-14 4.55677E-13
 -1      1492 1.92019E+01 3.15443E-02-2.52492E-03 7.96357E-02 1.26225E-13 2.53124E-13
 -1      1493 1.88499E+01 3.74931E-03 4.70454E-03-4.35530E-02 1.80624E-14 2.58170E-13
 -1      1494 1.88013E+01 1.44893E-02 8.59088E-03-3.50540E-02 3.34140E-14 3.09378E-13
 -1      1495 1.90941E+01 1.41204E-02-1.73811E-03-2.82429E-02 9.03006E-14 1.89054E-13
 -1      1496 1.89607E+01 1.84533E-03 3.16857E-03-5.98018E-02-1.49461E-14 2.40824E-13
 -1      1497 1.88821E+01 8.33246E-03 5.46268E-03-5.47135E-02-1.13144E-14 2.20761E-13
 -1      1498 1.91092E+01 5.84731E-03-1.83709E-03-8.42304E-02 1.33366E-14 1.18793E-13
 -1      1499 1.91111E+01 9.25776E-04 2.32300E-03-6.78238E-02 4.79581E-14 1.87810E-13
 -1      1500 1.90180E+01 4.99476E-03 3.55686E-03-6.46722E-02 3.10611E-14 2.34514E-13
 -1      1501 1.91934E+01 1.78747E-03-1.69963E-03-1.13469E-01 3.58451E-14 7.86276E-14
 -1      1502 1.92832E+01 6.38277E-04 1.77542E-03-7.20115E-02 2.16188E-14 9.61661E-14
 -1      1503 1.91831E+01 3.31234E-03 2.49196E-03-6.98512E-02 2.87687E-14 1.53130E-13
 -1      1504 1.93174E+01 3.21246E-05-1.48650E-03-1.28983E-01 7.24461E-14 5.27304E-14
 -1      1505 1.94694E+01 8.01383E-04 1.32354E-03-7.52271E-02 5.87996E-14 3.52383E-14
 -1      1506 1.93649E+01 2.73925E-03 1.85776E-03-7.33845E-02 2.48402E-14 8.31999E-14
 -1      1507 1.94660E+01-2.72537E-04-1.36236E-03-1.38511E-01 4.56111E-14 9.81376E-15
 -1      1508 1.96688E+01 1.30585E-03 8.95505E-04-7.94988E-02 2.14298E-15 1.74743E-14
 -1      1509 1.95593E+01 2.98136E-03 1.44676E-03-7.74549E-02 2.37284E-14 1.85837E-14
 -1      1510 1.96326E+01 4.23607E-04-1.38580E-03-1.47182E-01 5.19524E-14-2.37991E-14
 -1      1511 1.98854E+01 2.07425E-03 4.67984E-04-8.63405E-02 3.68444E-14-2.79572E-14
 -1      1512 1.97681E+01 3.85901E-03 1.16643E-03-8.36709E-02 1.40580E-14 8.89046E-16
 -1      1513 1.98169E+01 1.84991E-03-1.56627E-03-1.58653E-01 2.94986E-14-1.72222E-14
 -1      1514 2.01268E+01 3.03674E-03 3.23067E-05-9.68903E-02 6.58190E-14-1.23890E-13
 -1      1515 1.99970E+01 5.24113E-03 9.68748E-04-9.32375E-02 5.38494E-14-6.78190E-14
 -1      1516 2.00224E+01 3.81515E-03-1.89947E-03-1.75627E-01 7.53436E-14-5.87030E-14
 -1      1517 2.04030E+01 4.10722E-03-4.13007E-04-1.11927E-01 3.87847E-14-2.38198E-13
 -1      1518 2.02547E+01 6.99877E-03 8.19730E-04-1.06999E-01 4.57019E-14-1.83109E-13
 -1      1519 2.02557E+01 6.14475E-03-2.37484E-03-2.00046E-01 1.10118E-13-1.50019E-13
 -1      1520 2.07256E+01 5.15255E-03-8.57568E-04-1.31760E-01 6.27725E-14-4.54955E-13
 -1      1521 2.05520E+01 8.95513E-03 6.88311E-04-1.25362E-01 7.71561E-14-3.21577E-13
 -1      1522 2.05250E+01 8.62014E-03-2.96875E-03-2.33030E-01 1.30704E-13-3.07752E-13
 -1      1523 2.11055E+01 5.94908E-03-1.26432E-03-1.55964E-01-6.76179E-14-4.22007E-13
 -1      1524 2.09001E+01 1.08181E-02 5.43953E-04-1.48079E-01-3.07304E-14-4.55685E-13
 -1      1525 2.08394E+01 1.09011E-02-3.62772E-03-2.74561E-01 1.28907E-14-3.52677E-13
 -1      1526 2.15508E+01 6.12334E-03-1.54048E-03-1.82892E-01 1.09721E-15-4.49443E-13
 -1      1527 2.13087E+01 1.20849E-02 3.62127E-04-1.73822E-01-1.00668E-14-4.32434E-13
 -1      1528 2.12063E+01 1.24168E-02-4.23918E-03-3.22808E-01 2.11962E-15-3.99174E-13
 -1      1529 2.20622E+01 5.08241E-03-1.48862E-03-2.08898E-01 6.30640E-14-4.37844E-13
 -1      1530 2.17828E+01 1.19171E-02 1.42532E-04-1.99520E-01 2.56424E-14-4.42563E-13
 -1      1531 2.16290E+01 1.22199E-02-4.58604E-03-3.73012E-01-7.45736E-15-4.11191E-13
 -1      1532 2.26271E+01 1.96467E-03-7.41642E-04-2.27283E-01-3.57287E-14-5.37480E-13
 -1      1533 2.23173E+01 9.01212E-03-5.28068E-05-2.19405E-01 3.77350E-14-4.94129E-13
 -1      1534 2.21030E+01 8.82417E-03-4.28668E-03-4.15849E-01 8.76786E-14-2.55956E-13
 -1      1535 2.32100E+01-4.29633E-03 1.27867E-03-2.27152E-01-8.96436E-14-3.18936E-13
 -1      1536 2.28902E+01 1.57385E-03-4.16347E-05-2.23960E-01-1.01958E-13-4.74905E-13
 -1      1537 2.26096E+01 1.23994E-04-2.74511E-03-4.35471E-01-1.30615E-13-3.49594E-13
 -1      1538 2.37426E+01-1.45956E-02 5.25919E-03-1.92997E-01 2.08605E-14-2.35097E-13
 -1      1539 2.34529E+01-1.23645E-02 5.23945E-04-1.99332E-01 2.33940E-14-2.15055E-13
 -1      1540 2.31095E+01-1.63312E-02 8.09389E-04-4.08034E-01-3.50822E-14-2.07894E-13
 -1      1541 2.41162E+01-2.86796E-02 1.15217E-02-1.06790E-01 3.87459E-14-2.79591E-13
 -1      1542 2.39212E+01-3.38186E-02 2.09272E-03-1.28711E-01-4.33074E-15-2.39770E-13
 -1      1543 2.35359E+01-4.21770E-02 7.02789E-03-3.02972E-01-3.62644E-15-1.60859E-13
 -1      1544 2.41867E+01-4.34367E-02 1.89657E-02 4.44457E-02-8.61290E-15-3.65914E-13
 -1      1545 2.41724E+01-6.05111E-02 4.85474E-03 1.85068E-03 4.64949E-14-2.50399E-13
 -1      1546 2.37927E+01-7.54969E-02 1.57052E-02-9.11282E-02 6.84140E-14-9.77786E-14
 -1      1547 2.38083E+01-5.12440E-02 2.37490E-02 2.53231E-01-8.36501E-14-1.80675E-13
 -1      1548 2.40614E+01-8.37579E-02 7.97088E-03 1.90692E-01-1.01003E-13-3.23215E-13
 -1      1549 2.37666E+01-1.06648E-01 2.45806E-02 2.35279E-01-7.32383E-14-1.05635E-13
 -1      1550 2.29082E+01-4.10197E-02 1.94022E-02 4.72144E-01-1.10040E-13 7.79307E-14
 -1      1551 2.34701E+01-8.74266E-02 8.88940E-03 4.02644E-01-1.27424E-13-1.31749E-13
 -1      1552 2.33634E+01-1.15336E-01 2.86752E-02 6.31054E-01-2.09733E-13-6.18117E-14
 -1      1553 2.15900E+01-5.59754E-03 7.60084E-04 6.07661E-01-4.06270E-14 2.30232E-13
 -1      1554 2.23937E+01-5.44842E-02 4.02629E-03 5.58856E-01-3.45982E-14 1.61302E-13
 -1      1555 2.25747E+01-7.58876E-02 2.21912E-02 9.72018E-01-1.44813E-13 1.79176E-13
 -1      1556 2.01990E+01 4.61283E-02-2.86232E-02 5.55291E-01-1.92034E-14 2.69604E-13
 -1      1557 2.10327E+01 1.64681E-02-8.01792E-03 5.58825E-01-1.82640E-14 2.17923E-13
 -1      1558 2.15507E+01 2.18560E-02 3.58101E-03 1.07513E+00-3.58854E-14 2.11626E-13
 -1      1559 1.92429E+01 8.64459E-02-5.27228E-02 2.79557E-01-6.47919E-14 2.66339E-13
 -1      1560 1.98032E+01 9.70550E-02-2.23359E-02 3.47131E-01-1.13590E-14 2.15369E-13
 -1      1561 2.06148E+01 1.46596E-01-1.93494E-02 8.00436E-01 3.30985E-14 3.37032E-13
 -1      1562 1.91368E+01 8.78415E-02-5.35297E-02-1.24270E-01 4.77760E-14 1.61718E-13
 -1      1563 1.91829E+01 1.40796E-01-2.88940E-02-1.81075E-02-3.73365E-14 1.76777E-13
 -1      1564 2.01439E+01 2.27161E-01-3.34729E-02 1.88203E-01 5.98827E-15 2.16006E-13
 -1      1565 1.99325E+01 4.93315E-02-2.82910E-02-4.70766E-01 1.32700E-13-5.76345E-14
 -1      1566 1.94425E+01 1.20523E-01-2.11503E-02-3.75762E-01 1.38717E-13 1.19044E-13
 -1      1567 2.03502E+01 2.05310E-01-3.13252E-02-5.08803E-01 1.65494E-13-2.05409E-14
 -1      1568 2.12788E+01-2.11480E-03 6.13826E-03-6.15304E-01 1.20263E-13-4.98282E-13
 -1      1569 2.04656E+01 5.38524E-02-3.47048E-03-5.69310E-01 1.69362E-13-2.44881E-13
 -1      1570 2.11352E+01 9.29611E-02-1.78436E-02-9.79195E-01 3.13571E-13-2.10030E-13
 -1      1571 2.26594E+01-3.85250E-02 3.00939E-02-5.43748E-01 2.78536E-14-5.68948E-13
 -1      1572 2.18293E+01-1.63763E-02 1.28911E-02-5.51062E-01 1.83499E-14-5.32949E-13
 -1      1573 2.21631E+01-3.66400E-02-3.09859E-03-1.06602E+00 1.01778E-13-3.54626E-13
 -1      1574 2.36756E+01-4.99302E-02 3.58081E-02-3.43916E-01 1.30084E-13-7.32234E-13
 -1      1575 2.30635E+01-5.86985E-02 2.00024E-02-3.83799E-01 6.10336E-14-5.92811E-13
 -1      1576 2.30722E+01-1.18368E-01 6.07256E-03-8.28981E-01 6.62855E-14-4.23864E-13
 -1      1577 2.41722E+01-4.28577E-02 2.84142E-02-1.22269E-01-8.73294E-14-5.46596E-13
 -1      1578 2.38679E+01-6.79349E-02 1.77674E-02-1.69709E-01-2.41031E-14-6.61384E-13
 -1      1579 2.36404E+01-1.35138E-01 9.00996E-03-4.44360E-01 4.13124E-14-4.83009E-13
 -1      1580 2.41944E+01-2.84671E-02 1.67079E-02 5.40260E-02-2.30635E-13-1.53016E-13
 -1      1581 2.41691E+01-5.59664E-02 1.10375E-02 1.47943E-02-1.66786E-13-4.21517E-13
 -1      1582 2.38184E+01-1.08657E-01 8.16574E-03-7.36375E-02-2.40917E-13-2.25171E-13
 -1      1583 2.38815E+01-1.45346E-02 6.51048E-03 1.64151E-01 2.31698E-14-1.11128E-13
 -1      1584 2.40509E+01-3.66829E-02 4.33383E-03 1.38350E-01 4.02022E-16-8.46406E-14
 -1      1585 2.36727E+01-6.79639E-02 5.90194E-03 1.98445E-01-1.18532E-13-2.12293E-13
 -1      1586 2.33826E+01-4.25514E-03-1.24598E-04 2.15480E-01 1.41591E-13-4.19628E-13
 -1      1587 2.36580E+01-1.87936E-02-2.33243E-04 2.02015E-01 8.84470E-14-1.90396E-13
 -1      1588 2.33133E+01-3.14219E-02 3.63619E-03 3.55793E-01 1.37172E-13-2.45315E-13
 -1      1589 2.28157E+01 2.05579E-03-3.49267E-03 2.25375E-01-1.75597E-13-4.60416E-13
 -1      1590 2.31282E+01-5.67243E-03-2.46836E-03 2.20843E-01-3.49046E-14-4.74017E-13
 -1      1591 2.28459E+01-5.73022E-03 1.91497E-03 4.18883E-01-6.62545E-15-2.37239E-13
 -1      1592 2.22586E+01 5.27036E-03-4.65223E-03 2.10748E-01-6.72732E-14-3.30234E-13
 -1      1593 2.25638E+01 2.49408E-03-3.05941E-03 2.11722E-01-7.15693E-14-4.48384E-13
 -1      1594 2.23502E+01 9.29967E-03 7.77263E-04 4.18521E-01-1.13726E-13-3.33287E-13
 -1      1595 2.17543E+01 6.44799E-03-4.59262E-03 1.84244E-01 5.91991E-14-3.17790E-13
 -1      1596 2.20283E+01 6.78952E-03-2.77494E-03 1.88110E-01-1.56134E-14-2.87133E-13
 -1      1597 2.18777E+01 1.63952E-02 9.15747E-05 3.82154E-01-2.44115E-14-2.27392E-13
 -1      1598 2.13215E+01 6.44798E-03-3.98852E-03 1.53985E-01-8.75065E-14-2.80912E-13
 -1      1599 2.15547E+01 8.49087E-03-2.16010E-03 1.59021E-01 3.07306E-14-2.64238E-13
 -1      1600 2.14561E+01 1.84606E-02-2.88657E-04 3.29552E-01 3.23168E-14 3.19035E-14
 -1      1601 2.09639E+01 5.86096E-03-3.22533E-03 1.24561E-01 3.24461E-14-9.97848E-14
 -1      1602 2.11550E+01 8.64890E-03-1.51403E-03 1.29756E-01-1.42861E-13-2.16587E-13
 -1      1603 2.10966E+01 1.77374E-02-4.77028E-04 2.73111E-01-1.38346E-13-6.22450E-14
 -1      1604 2.06768E+01 5.05798E-03-2.49636E-03 9.81745E-02 5.00858E-15-2.91127E-13
 -1      1605 2.08289E+01 8.00961E-03-9.64914E-04 1.03006E-01 1.05195E-13-1.20541E-13
 -1      1606 2.08003E+01 1.57178E-02-5.53024E-04 2.19649E-01 1.05068E-13-7.14173E-14
 -1      1607 2.04520E+01 4.26223E-03-1.89102E-03 7.55260E-02 1.59353E-13-3.22631E-13
 -1      1608 2.05702E+01 7.06671E-03-5.49297E-04 7.97978E-02 1.19800E-13-1.37117E-13
 -1      1609 2.05625E+01 1.33140E-02-5.74746E-04 1.72243E-01 1.72747E-13-5.84994E-14
 -1      1610 2.02807E+01 3.60833E-03-1.45746E-03 5.64091E-02-1.75701E-13-1.17355E-13
 -1      1611 2.03699E+01 6.14252E-03-2.69025E-04 6.01365E-02-6.61716E-14-3.73808E-13
 -1      1612 2.03765E+01 1.10603E-02-5.92658E-04 1.31615E-01-1.38546E-14 9.57046E-14
 -1      1613 2.01549E+01 3.16758E-03-1.23532E-03 4.00769E-02 1.54299E-13-1.57545E-13
 -1      1614 2.02197E+01 5.44622E-03-1.28213E-04 4.34223E-02 2.34709E-14-2.08155E-13
 -1      1615 2.02352E+01 9.26791E-03-6.58991E-04 9.70519E-02-6.44862E-15-2.64078E-13
 -1      1616 2.00689E+01 2.96976E-03-1.20428E-03 2.55208E-02-1.59009E-15-3.37581E-13
 -1      1617 2.01121E+01 5.10157E-03-1.35515E-04 2.87513E-02 9.17055E-14-2.48338E-13
 -1      1618 2.01322E+01 8.10301E-03-8.16578E-04 6.70466E-02 1.88875E-13-7.03525E-14
 -1      1619 2.00188E+01 2.95286E-03-9.77664E-04 1.16911E-02-1.32077E-13-1.72311E-13
 -1      1620 2.00421E+01 5.11081E-03-1.90165E-04 1.52267E-02-1.14295E-13-3.37816E-13
 -1      1621 2.00623E+01 7.70482E-03-9.57420E-04 3.99171E-02-5.76594E-14-2.41596E-14
 -1      1622 2.00011E+01 2.32183E-03 8.98785E-04-1.53589E-04 3.14341E-14-1.18491E-13
 -1      1623 2.00055E+01 4.36558E-03 1.67062E-04 3.06272E-03 1.77959E-14-8.92788E-14
 -1      1624 2.00207E+01 6.72074E-03-7.49990E-04 1.48221E-02 5.28006E-15-3.82478E-14
 -1      1625 1.99976E+01-1.05459E-03 1.89927E-03-2.72544E-03-1.65091E-15-6.91757E-14
 -1      1626 2.00048E+01 1.27770E-02-6.66035E-04 8.43260E-03 1.91665E-13 8.33608E-14
 -1      1627 2.00046E+01 6.37240E-03 6.13177E-04 5.39709E-03-1.90887E-14 2.24618E-13
 -1      1628 2.00040E+01 5.42454E-02-6.51771E-04 2.18622E-02 4.84911E-13 1.80759E-13
 -1      1629 2.00048E+01 3.14648E-02-4.76361E-04 1.92533E-02 2.98455E-13 7.89966E-14
 -1      1630 2.00096E+01 3.77147E-02-9.39753E-04 2.81549E-02 1.38685E-13 2.39656E-13
 -1      1631 2.00019E+01 1.16374E-01-3.62353E-04 3.14042E-02 4.08904E-13-1.79665E-13
 -1      1632 2.00031E+01 8.12888E-02-4.41060E-04 2.98883E-02 5.68915E-13 1.54824E-13
 -1      1633 2.00065E+01 8.35967E-02-1.02629E-03 5.08453E-02 1.82311E-14 2.21428E-13
 -1      1634 1.99995E+01 1.88765E-01-1.16862E-04 3.48833E-02 2.50344E-14-2.52018E-13
 -1      1635 2.00008E+01 1.48409E-01-2.25508E-04 3.46944E-02 3.39558E-13-8.17501E-14
 -1      1636 2.00027E+01 1.43053E-01-3.94793E-04 6.43448E-02 1.84116E-13-3.57744E-13
 -1      1637 1.99974E+01 2.57857E-01 6.38050E-06 3.22320E-02-4.65340E-13-2.83842E-13
 -1      1638 1.99986E+01 2.20290E-01-7.12392E-05 3.32106E-02-1.07037E-13-3.65130E-13
 -1      1639 1.99988E+01 2.06866E-01 3.09410E-04 6.60666E-02-1.06704E-13-5.49695E-13
 -1      1640 1.99957E+01 3.14629E-01 6.74290E-05 2.42059E-02-5.89987E-13 1.35638E-14
 -1      1641 1.99966E+01 2.85117E-01 2.03124E-05 2.61634E-02-5.06458E-13-2.39809E-13
 -1      1642 1.99954E+01 2.65708E-01 9.16507E-04 5.65998E-02-1.74857E-13-4.69614E-13
 -1      1643 1.99948E+01 3.48729E-01 8.63475E-05 1.23161E-02-6.32225E-13-2.66620E-14
 -1      1644 1.99953E+01 3.32765E-01 6.27638E-05 1.48867E-02-7.26884E-13 1.75963E-13
 -1      1645 1.99929E+01 3.11039E-01 1.36389E-03 3.78746E-02-2.86496E-13-8.85892E-14
 -1      1646 1.99946E+01 3.54910E-01 8.30685E-05-1.49289E-03-5.09537E-14 3.76772E-13
 -1      1647 1.99946E+01 3.55033E-01 8.34711E-05 1.28786E-03-5.42384E-13 3.16397E-13
 -1      1648 1.99916E+01 3.35441E-01 1.59782E-03 1.31790E-02-6.63566E-14 2.85001E-13
 -1      1649 1.99953E+01 3.32228E-01 5.97063E-05-1.50781E-02-4.08370E-13-2.25598E-13
 -1      1650 1.99948E+01 3.48431E-01 8.70866E-05-1.25127E-02-1.76001E-13 5.63586E-14
 -1      1651 1.99916E+01 3.35268E-01 1.59631E-03-1.35667E-02-7.39637E-14 2.83793E-13
 -1      1652 1.99967E+01 2.84230E-01 8.84497E-06-2.63140E-02-7.69576E-13-3.12089E-13
 -1      1653 1.99958E+01 3.13940E-01 7.29634E-05-2.43740E-02-4.00386E-13-3.38308E-13
 -1      1654 1.99929E+01 3.10540E-01 1.35623E-03-3.82221E-02-3.14836E-13-3.90223E-13
 -1      1655 1.99986E+01 2.19765E-01-7.09463E-05-3.32380E-02-8.97479E-13 1.79878E-13
 -1      1656 1.99974E+01 2.57412E-01 7.15029E-06-3.22757E-02-8.54052E-13-1.23249E-13
 -1      1657 1.99955E+01 2.65410E-01 9.20946E-04-5.67588E-02-2.54532E-13-3.34487E-13
 -1      1658 2.00009E+01 1.47278E-01-2.21707E-04-3.46716E-02-6.37552E-13 6.57819E-14
 -1      1659 1.99995E+01 1.87621E-01-1.23245E-04-3.48873E-02-8.65133E-13 4.13569E-13
 -1      1660 1.99988E+01 2.06445E-01 2.99156E-04-6.61129E-02-3.99654E-13 3.57260E-13
 -1      1661 2.00031E+01 8.02163E-02-4.91763E-04-2.97961E-02-9.72821E-14 2.31045E-13
 -1      1662 2.00019E+01 1.15282E-01-3.56592E-04-3.12886E-02-3.75056E-13 2.43270E-13
 -1      1663 2.00028E+01 1.42073E-01-3.96596E-04-6.42318E-02-5.29276E-14 4.33321E-13
 -1      1664 2.00054E+01 3.13591E-02-1.76922E-04-1.93126E-02 1.70422E-13 1.46217E-13
 -1      1665 2.00038E+01 5.36170E-02-6.84579E-04-2.20238E-02 4.37783E-14 1.21542E-13
 -1      1666 2.00063E+01 8.30417E-02-1.02022E-03-5.05342E-02 9.41504E-14 2.27321E-13
 -1      1667 2.00077E+01 1.22463E-02 7.52089E-04-1.01477E-02 4.59108E-14-1.72142E-13
 -1      1668 2.00077E+01 1.95303E-02-6.02527E-04-1.44346E-02 1.35521E-13 9.57858E-14
 -1      1669 2.00143E+01 4.55018E-02-2.99671E-04-3.52651E-02 4.87063E-14 1.59826E-13
 -1      1670 2.00213E+01 2.30489E-02 6.27894E-04-2.21425E-02-2.28332E-14-2.87185E-13
 -1      1671-6.59965E-01-1.47197E+01-1.70751E+00-1.06940E+00-3.03313E-13 5.20695E-14
 -1      1672-6.16097E-01-1.66913E+01-1.87916E+00 2.55318E-01-5.16892E-13-1.66533E-16
 -1      1673 1.49099E+00-7.91957E+00-1.17191E+00 6.56016E-01 1.22125E-14 2.53936E-13
 -1      1674 6.88885E-01-1.30208E+01-1.67496E+00 2.67278E-02-3.01759E-13 1.40651E-13
 -1      1675 6.91089E+00-1.12806E-01-5.58025E-01 4.59105E+00 1.63647E-13 1.61204E-13
 -1      1676 3.68216E+00-5.79649E+00-1.33992E+00 1.57038E+00 1.07914E-13 5.93414E-14
 -1      1677 1.80557E+01 4.44161E+00 2.20630E-01 9.53270E+00 3.03535E-13 6.86562E-13
 -1      1678 1.17227E+01 1.25094E+00-6.23736E-01 6.05172E+00 8.41549E-14 4.17111E-13
 -1      1679 3.18776E+01 6.25117E+00 1.00245E+00 1.22964E+01 3.74256E-13 5.94635E-13
 -1      1680 2.28168E+01 5.80607E+00 1.27143E-01 1.02793E+01 4.99822E-13 5.49782E-13
 -1      1681 4.56189E+01 5.07170E+00 1.59762E+00 1.06126E+01 3.27502E-13 2.73337E-13
 -1      1682 3.69465E+01 6.63609E+00 9.44323E-01 1.21147E+01 3.81584E-13 4.97824E-13
 -1      1683 5.35278E+01 3.62368E+00 1.81158E+00 4.08394E+00 2.74947E-13-1.73528E-13
 -1      1684 4.88772E+01 4.89984E+00 1.51766E+00 8.53524E+00 2.55226E-13 1.36779E-13
 -1      1685 5.33459E+01 3.91341E+00 1.68844E+00-4.14759E+00 3.43947E-13-7.70162E-13
 -1      1686 5.45000E+01 3.62447E+00 1.80956E+00 1.58378E+00 3.27904E-13-2.95333E-13
 -1      1687 4.32188E+01 5.71568E+00 1.12434E+00-9.74117E+00 6.69659E-13-1.25122E-12
 -1      1688 5.03580E+01 4.09219E+00 1.59423E+00-6.02762E+00 4.43534E-13-1.00947E-12
 -1      1689 3.04326E+01 6.79348E+00 5.53879E-01-1.19104E+01 9.43023E-13-1.48859E-12
 -1      1690 3.93856E+01 5.77980E+00 1.26451E+00-1.19876E+01 7.08378E-13-1.53455E-12
 -1      1691 1.74030E+01 4.02407E+00-2.29745E-01-8.40428E+00 1.16052E-12-1.21747E-12
 -1      1692 2.56513E+01 5.73484E+00 6.47252E-01-1.14245E+01 9.86988E-13-1.27698E-12
 -1      1693 7.17251E+00-1.33777E+00-9.81198E-01-3.86714E+00 1.07891E-12-1.07492E-12
 -1      1694 1.20494E+01 3.06460E+00-1.54109E-01-7.43293E+00 1.25322E-12-1.21658E-12
 -1      1695 2.04727E+00-8.95906E+00-1.52430E+00-4.70469E-01 5.17475E-13-6.15286E-13
 -1      1696 3.90490E+00-3.40743E+00-8.77323E-01-2.44289E+00 9.77440E-13-9.56013E-13
 -1      1697-9.53920E-03-1.49319E+01-1.79441E+00 1.56074E-01-1.19016E-13-1.33477E-13
 -1      1698 2.69418E-01-1.07919E+01-1.41760E+00 4.03291E-01 3.18190E-13-3.79488E-13
 -1      1699-7.17611E-01-1.67089E+01-1.86686E+00-6.17876E-01-8.69985E-13-2.43000E-13
 -1      1700-7.49430E-01-1.60713E+01-1.80878E+00 8.91516E-01-3.11862E-13-2.31926E-13
 -1      1701-3.99925E-01-1.31722E+01-1.60008E+00-9.78647E-01-1.19393E-12-3.63348E-13
 -1      1702-4.13890E-01-1.62329E+01-1.88393E+00-9.60136E-02-1.04350E-12-2.29650E-13
 -1      1703 2.68373E+00-5.83763E+00-1.01122E+00 1.57271E+00-1.18516E-12-7.39020E-13
 -1      1704 1.36865E+00-1.13130E+01-1.58573E+00 2.60243E-01-1.16862E-12-4.69701E-13
 -1      1705 8.95724E+00 1.24608E+00-4.08926E-01 5.77098E+00-1.25189E-12-1.03373E-12
 -1      1706 5.14251E+00-3.65910E+00-1.17354E+00 2.56706E+00-1.21658E-12-8.26561E-13
 -1      1707 2.17426E+01 4.53476E+00 3.74127E-01 1.01903E+01-1.06326E-12-1.12943E-12
 -1      1708 1.45018E+01 2.00037E+00-4.52316E-01 6.90373E+00-1.14753E-12-1.05183E-12
 -1      1709 3.54039E+01 5.90900E+00 1.12468E+00 1.19305E+01-7.51510E-13-9.46576E-13
 -1      1710 2.64154E+01 6.03351E+00 3.07782E-01 1.07229E+01-1.02662E-12-1.10889E-12
 -1      1711 4.79680E+01 4.74455E+00 1.70744E+00 9.60659E+00-4.08965E-13-5.88529E-13
 -1      1712 4.01255E+01 6.31738E+00 1.10538E+00 1.17598E+01-6.56974E-13-8.98170E-13
 -1      1713 5.46895E+01 3.44686E+00 1.90916E+00 3.04952E+00-1.62620E-13-9.34253E-14
 -1      1714 5.10062E+01 4.49649E+00 1.67165E+00 7.67131E+00-3.19189E-13-3.71370E-13
 -1      1715 5.36616E+01 3.85918E+00 1.77766E+00-4.75599E+00-2.15078E-13 3.58380E-13
 -1      1716 5.52864E+01 3.43609E+00 1.91836E+00 5.02513E-01-1.75804E-13 8.03801E-14
 -1      1717 4.45302E+01 5.58359E+00 1.27024E+00-1.00024E+01-5.44842E-13 8.41216E-13
 -1      1718 5.09042E+01 4.09402E+00 1.70971E+00-6.63047E+00-3.17135E-13 4.43201E-13
 -1      1719 3.22781E+01 6.77000E+00 6.92835E-01-1.20735E+01-6.94222E-13 1.07714E-12
 -1      1720 4.08067E+01 5.66936E+00 1.35886E+00-1.18330E+01-4.98712E-13 1.07658E-12
 -1      1721 1.93421E+01 5.29603E+00-5.85565E-02-9.54258E+00-1.09490E-12 1.15463E-12
 -1      1722 2.73909E+01 6.37755E+00 7.76974E-01-1.20831E+01-9.07496E-13 1.05382E-12
 -1      1723 9.32135E+00 4.59086E-01-7.58536E-01-5.11584E+00-1.33005E-12 1.00786E-12
 -1      1724 1.47131E+01 4.18848E+00 6.14152E-02-8.58902E+00-1.20826E-12 1.14908E-12
 -1      1725 3.54358E+00-7.06225E+00-1.32710E+00-1.45716E+00-1.05715E-12 6.64691E-13
 -1      1726 6.19674E+00-1.73918E+00-6.38773E-01-3.95349E+00-1.20282E-12 9.59843E-13
 -1      1727 3.26676E-01-1.35357E+01-1.76468E+00 3.25424E-01-6.31495E-13 4.04461E-13
 -1      1728 8.47289E-01-8.93157E+00-1.29912E+00 1.14289E-02-8.63754E-13 5.83283E-13
 -1      1729-5.62417E-01-1.63946E+01-1.82601E+00-2.68942E-01-5.53405E-13-2.08167E-15
 -1      1730-5.47578E-01-1.45336E+01-1.65783E+00 9.07976E-01-5.77427E-13 1.69559E-13
 -1      1731 2.48299E+01 5.73580E-01 2.36360E-01 7.07335E+00 1.07137E-14 2.91878E-13
 -1      1732 1.46386E+01-3.01831E+00-2.78459E-01 6.42669E+00-1.68754E-14 3.03257E-13
 -1      1733 2.00035E+01 5.08430E-05 4.43327E-04-9.46726E-04-9.37046E-14-6.57027E-16
 -1      1734 2.00100E+01 1.41266E-02 1.74317E-04 9.01299E-03 3.77930E-14 1.70553E-13
 -1      1735 5.39294E-01-1.00843E+01-1.17265E+00 2.39583E+00-3.28682E-13 2.64400E-13
 -1      1736 5.85621E+00-7.03582E+00-8.61678E-01 4.48938E+00-2.40474E-13 1.17094E-13
 -1      1737-1.37747E+00-1.13642E+01-1.33822E+00-5.82656E-02-3.94691E-13 1.33227E-13
 -1      1738 3.47755E+01 4.11061E+00 8.33637E-01 6.84588E+00 2.97706E-13 1.05693E-13
 -1      1739 4.28629E+01 6.31203E+00 1.33522E+00 4.71993E+00 3.34843E-13-1.53877E-13
 -1      1740 4.65345E+01 7.36085E+00 1.52709E+00 1.20826E+00 5.07927E-13-2.65732E-13
 -1      1741 4.45334E+01 7.08395E+00 1.28410E+00-1.86839E+00 5.41900E-13-4.83280E-13
 -1      1742 3.91906E+01 5.53864E+00 1.08840E+00-5.22806E+00 6.50341E-13-8.26783E-13
 -1      1743 3.04101E+01 2.65679E+00 5.90833E-01-7.02092E+00 6.49869E-13-9.34031E-13
 -1      1744 2.00961E+01-7.97423E-01 3.92100E-02-7.01915E+00 6.90115E-13-8.35332E-13
 -1      1745 1.01231E+01-4.66451E+00-5.91885E-01-5.53412E+00 4.57634E-13-8.68361E-13
 -1      1746 3.25791E+00-8.47265E+00-1.02869E+00-3.51614E+00 1.78746E-13-7.02022E-13
 -1      1747-5.75156E-01-1.09156E+01-1.26609E+00-1.43257E+00-1.60039E-13-4.88443E-13
 -1      1748-1.18962E+00-1.15274E+01-1.34872E+00 6.50792E-01-4.12337E-13-4.60298E-13
 -1      1749 1.78448E+00-9.35597E+00-1.07817E+00 3.02309E+00-6.65079E-13-3.38229E-13
 -1      1750 7.88323E+00-6.03788E+00-7.19606E-01 5.07286E+00-6.89893E-13-5.62550E-13
 -1      1751 1.74530E+01-2.31162E+00-1.02320E-01 6.70247E+00-7.20646E-13-6.86673E-13
 -1      1752 2.75934E+01 9.06016E-01 3.40779E-01 6.56087E+00-7.14651E-13-5.64770E-13
 -1      1753 3.68030E+01 4.52563E+00 8.96908E-01 6.14079E+00-7.41116E-13-5.08371E-13
 -1      1754 4.43369E+01 6.48167E+00 1.41395E+00 4.31587E+00-5.41650E-13-3.88634E-13
 -1      1755 4.75620E+01 7.22740E+00 1.61646E+00 8.13834E-01-3.93408E-13-7.43711E-14
 -1      1756 4.55162E+01 6.98406E+00 1.43272E+00-2.40398E+00-4.44866E-13 1.08802E-14
 -1      1757 4.00451E+01 5.67915E+00 1.15099E+00-5.44265E+00-4.66904E-13 3.38729E-13
 -1      1758 3.17067E+01 3.46023E+00 7.03657E-01-7.40960E+00-5.15921E-13 4.50417E-13
 -1      1759 2.17907E+01 2.50031E-01 1.08499E-01-7.31086E+00-8.05689E-13 7.40186E-13
 -1      1760 1.26790E+01-3.85880E+00-4.53110E-01-6.10134E+00-7.09766E-13 6.85174E-13
 -1      1761 5.22087E+00-7.51036E+00-8.68986E-01-4.39273E+00-5.11924E-13 6.98318E-13
 -1      1762 1.97957E-01-1.03170E+01-1.23628E+00-2.03521E+00-4.23328E-13 3.12972E-13
 -1      1763 2.28255E+01 1.98290E+00-2.37315E-02-2.71949E+00-1.76786E-13 8.57370E-13
 -1      1764 1.98255E+01 3.71451E+00-3.54187E-02-2.14741E+00-2.52636E-13-2.15866E-13
 -1      1765 2.00533E+01 3.56242E+00-4.01513E-02-2.43974E+00-2.81553E-13-1.26003E-13
 -1      1766 2.03531E+01 3.18036E+00-4.56803E-02-2.58036E+00-2.76446E-13-6.85563E-15
 -1      1767 2.05668E+01 2.80793E+00-1.42378E-01-2.84879E+00-2.89213E-13 1.47216E-13
 -1      1768 2.04169E+01 2.69317E+00-4.19002E-03-2.21865E+00-2.94904E-13-5.36376E-14
 -1      1769 1.93677E+01 4.19535E+00-2.00656E-02-1.26482E+00-1.62256E-13-3.87747E-13
 -1      1770 1.94395E+01 4.15466E+00-1.68111E-02-1.48896E+00-1.91928E-13-3.66714E-13
 -1      1771 1.92737E+01 4.30391E+00-1.67728E-02-8.54971E-01-1.12039E-13-4.12226E-13
 -1      1772 1.93154E+01 4.27905E+00-1.41634E-02-1.06509E+00-1.39269E-13-4.02341E-13
 -1      1773 1.95402E+01 3.79284E+00-8.82547E-03-1.11276E+00-1.66948E-13-3.74827E-13
 -1      1774 1.92237E+01 4.36620E+00-1.48018E-02-4.63955E-01-4.77102E-14-4.18421E-13
 -1      1775 1.92451E+01 4.35277E+00-1.32488E-02-6.63337E-01-7.51678E-14-4.15688E-13
 -1      1776 1.94449E+01 3.91595E+00-9.00496E-03-7.28080E-01-9.04079E-14-3.91166E-13
 -1      1777 1.92049E+01 4.39269E+00-1.36583E-02-8.30273E-02 1.22607E-15-4.35338E-13
 -1      1778 1.92111E+01 4.38858E+00-1.31822E-02-2.77412E-01-2.05763E-14-4.31866E-13
 -1      1779 1.93957E+01 3.98228E+00-8.98521E-03-3.55577E-01-3.71676E-14-4.08147E-13
 -1      1780 1.92128E+01 4.38718E+00-1.31397E-02 2.96401E-01 5.09365E-14-4.36731E-13
 -1      1781 1.92054E+01 4.39185E+00-1.37444E-02 1.01855E-01 3.00798E-14-4.34468E-13
 -1      1782 1.93813E+01 4.00234E+00-8.97652E-03 1.05100E-02 1.28919E-14-4.25724E-13
 -1      1783 1.92491E+01 4.34868E+00-1.32793E-02 6.83077E-01 9.02537E-14-4.27301E-13
 -1      1784 1.92265E+01 4.36296E+00-1.49310E-02 4.83175E-01 7.40946E-14-4.37138E-13
 -1      1785 1.93984E+01 3.97892E+00-9.02890E-03 3.76790E-01 6.51256E-14-4.25169E-13
 -1      1786 1.93205E+01 4.27308E+00-1.43464E-02 1.07927E+00 1.41734E-13-3.95947E-13
 -1      1787 1.92783E+01 4.29844E+00-1.70024E-02 8.71925E-01 1.16823E-13-4.14802E-13
 -1      1788 1.94501E+01 3.90947E+00-9.05597E-03 7.46630E-01 1.11182E-13-4.09811E-13
 -1      1789 1.94483E+01 4.14302E+00-1.73312E-02 1.50855E+00 2.00516E-13-3.45834E-13
 -1      1790 1.93740E+01 4.18674E+00-2.05309E-02 1.27932E+00 1.68565E-13-3.72402E-13
 -1      1791 1.95476E+01 3.78265E+00-9.13667E-03 1.12883E+00 1.71512E-13-3.66786E-13
 -1      1792 1.96714E+01 3.92345E+00-2.51200E-02 1.97367E+00 2.52912E-13-2.57287E-13
 -1      1793 1.95419E+01 4.00145E+00-2.69074E-02 1.71635E+00 2.23584E-13-3.07771E-13
 -1      1794 1.97168E+01 3.57212E+00-8.63732E-03 1.52796E+00 2.24331E-13-3.04205E-13
 -1      1795 2.00710E+01 3.52249E+00-4.50963E-02 2.46669E+00 3.08089E-13-9.79355E-14
 -1      1796 1.98359E+01 3.68409E+00-3.96663E-02 2.17744E+00 2.76372E-13-1.90042E-13
 -1      1797 2.00066E+01 3.22570E+00-5.25094E-03 1.92765E+00 2.79419E-13-1.96643E-13
 -1      1798 2.09038E+01 2.68021E+00-5.75418E-02 2.85330E+00 3.11224E-13 1.73493E-13
 -1      1799 2.04031E+01 3.09590E+00-5.03094E-02 2.61134E+00 3.03897E-13 8.95811E-15
 -1      1800 2.05100E+01 2.61027E+00 3.18539E-03 2.23883E+00 3.15561E-13-3.13950E-14
 -1      1801 2.17040E+01 1.21227E+00-1.21934E-01 2.32674E+00 2.73156E-13 5.33823E-13
 -1      1802 2.12531E+01 2.26140E+00 1.29978E-04 2.73660E+00 2.93415E-13 2.95208E-13
 -1      1803 2.09202E+01 1.68462E+00-2.28821E-02 2.13592E+00 3.15066E-13 1.73046E-13
 -1      1804 2.09266E+01 7.78404E-01-6.23615E-02 1.52154E+00 2.69340E-13 4.48298E-13
 -1      1805 2.17716E+01 2.45607E+00 9.08675E-02-3.04448E+00-2.39140E-13 4.08840E-13
 -1      1806 2.00792E+01 2.98483E-01-8.83520E-03 6.53957E-01 1.94744E-13 3.34847E-13
 -1      1807 2.06296E+01 4.40678E-01-1.23920E-02 1.03114E+00 2.16868E-13 4.05132E-13
 -1      1808 2.07249E+01 8.45203E-01 2.22066E-03 1.41136E+00 2.63498E-13 2.47427E-13
 -1      1809 2.14861E+01 1.74147E+00 7.93701E-02-2.33321E+00-2.62099E-13 3.02328E-13
 -1      1810 2.05022E+01 5.01413E-01 3.24469E-02-9.17507E-01-2.20584E-13 2.43506E-13
 -1      1811 2.00727E+01 3.53520E-01 7.73155E-03-6.24999E-01-2.02165E-13 1.76139E-13
 -1      1812 1.98809E+01 2.59399E-01 2.74954E-02-3.84925E-01-1.85797E-13 1.80126E-13
 -1      1813 1.96934E+01 1.80717E-01 1.06658E-02-2.45689E-01-1.60925E-13 1.45271E-13
 -1      1814 2.01897E+01 4.86009E-01-6.11081E-03-7.14819E-01-2.29273E-13 4.90181E-14
 -1      1815 1.95753E+01 1.36006E-01 1.67895E-02-1.09724E-01-1.27296E-13 1.38491E-13
 -1      1816 1.95023E+01 9.72912E-02 7.32581E-03-3.66660E-02-9.08206E-14 1.02777E-13
 -1      1817 1.98705E+01 2.48296E-01-5.97007E-03-2.83121E-01-1.71296E-13 5.04271E-14
 -1      1818 1.94432E+01 7.35382E-02 8.87804E-03 4.07045E-02-8.37603E-14 7.66327E-14
 -1      1819 1.94365E+01 5.30964E-02 4.62599E-03 8.03396E-02-8.51129E-14 4.93295E-14
 -1      1820 1.96975E+01 1.32267E-01-4.89594E-03-3.92020E-02-1.20985E-13 1.38542E-14
 -1      1821 1.94188E+01 3.99384E-02 4.50957E-03 1.24685E-01-8.73705E-14 4.28232E-14
 -1      1822 1.94504E+01 2.91028E-02 3.14949E-03 1.46461E-01-7.03063E-14 1.03435E-14
 -1      1823 1.96250E+01 7.13909E-02-3.81207E-03 1.01146E-01-9.14152E-14-1.81088E-14
 -1      1824 1.94606E+01 2.19634E-02 2.22132E-03 1.72294E-01-5.63362E-14 2.45845E-14
 -1      1825 1.95148E+01 1.68384E-02 2.42372E-03 1.84697E-01-5.44394E-14 2.81978E-14
 -1      1826 1.96211E+01 3.89306E-02-2.79724E-03 1.82870E-01-6.55214E-14-1.46649E-14
 -1      1827 1.95439E+01 1.35325E-02 1.02824E-03 2.00881E-01-8.43050E-14 1.08644E-14
 -1      1828 1.96126E+01 1.21471E-02 2.13057E-03 2.09141E-01-7.29013E-14 1.91814E-14
 -1      1829 1.96632E+01 2.30236E-02-2.03399E-03 2.32294E-01-7.60121E-14-2.95977E-14
 -1      1830 1.96553E+01 1.14888E-02 4.30259E-04 2.21513E-01-8.85152E-14 1.03627E-14
 -1      1831 1.97349E+01 1.27382E-02 2.12273E-03 2.29163E-01-8.03225E-14 6.46908E-15
 -1      1832 1.97372E+01 1.78229E-02-1.55158E-03 2.66047E-01-8.32193E-14-4.47341E-14
 -1      1833 1.97885E+01 1.40059E-02 1.80535E-04 2.41803E-01-9.08464E-14-7.82478E-15
 -1      1834 1.98782E+01 1.72046E-02 2.32559E-03 2.51384E-01-1.06046E-13-6.21266E-14
 -1      1835 1.98355E+01 2.00900E-02-1.30754E-03 2.95367E-01-1.27940E-13-7.43714E-14
 -1      1836 1.99419E+01 1.98974E-02 1.43755E-04 2.67253E-01-8.16902E-14-7.09513E-14
 -1      1837 2.00433E+01 2.45493E-02 2.68501E-03 2.80634E-01-1.28111E-14-1.00772E-13
 -1      1838 1.99545E+01 2.78147E-02-1.24513E-03 3.28239E-01-9.57557E-14-6.12306E-14
 -1      1839 2.01178E+01 2.82430E-02 2.32881E-04 3.01867E-01-2.40255E-14-1.17758E-13
 -1      1840 2.02336E+01 3.38837E-02 3.14198E-03 3.20362E-01-3.48270E-14-1.38933E-13
 -1      1841 2.00945E+01 3.95221E-02-1.31271E-03 3.70435E-01-4.10779E-14-8.75203E-14
 -1      1842 2.03204E+01 3.81120E-02 3.82371E-04 3.48329E-01 3.30020E-15-1.58443E-13
 -1      1843 2.04544E+01 4.41550E-02 3.61404E-03 3.72649E-01 1.01092E-14-1.41162E-13
 -1      1844 2.02575E+01 5.38135E-02-1.46612E-03 4.25917E-01-2.30911E-14-1.75239E-13
 -1      1845 2.05556E+01 4.82722E-02 5.36150E-04 4.07811E-01-5.58852E-15-1.24928E-13
 -1      1846 2.07116E+01 5.38186E-02 3.97469E-03 4.37825E-01 2.36898E-14-6.18570E-14
 -1      1847 2.04475E+01 6.89286E-02-1.66684E-03 4.96765E-01 2.11087E-14-1.35246E-13
 -1      1848 2.08296E+01 5.68192E-02 6.42688E-04 4.79340E-01 4.79879E-15-5.31808E-14
 -1      1849 2.10105E+01 6.04013E-02 4.02934E-03 5.13611E-01 2.57177E-14-6.04915E-14
 -1      1850 2.06689E+01 8.22104E-02-1.88077E-03 5.82597E-01 1.71857E-14-1.39840E-13
 -1      1851 2.11472E+01 6.06821E-02 6.56213E-04 5.58640E-01 6.12819E-14-9.68177E-14
 -1      1852 2.13538E+01 5.99425E-02 3.49317E-03 5.93650E-01 5.14998E-14-8.67813E-14
 -1      1853 2.09260E+01 8.94020E-02-2.07876E-03 6.79401E-01 2.66497E-14-1.25218E-13
 -1      1854 2.15109E+01 5.50299E-02 5.45440E-04 6.36287E-01 3.33676E-14-1.20720E-13
 -1      1855 2.17397E+01 4.64083E-02 1.98669E-03 6.65350E-01 4.60283E-14-6.37873E-14
 -1      1856 2.12219E+01 8.37927E-02-2.23744E-03 7.77646E-01 1.33118E-14-1.20151E-13
 -1      1857 2.19171E+01 3.27717E-02 3.08982E-04 6.95229E-01 2.17216E-14-9.13547E-14
 -1      1858 2.21580E+01 1.14541E-02-9.14625E-04 7.07227E-01-3.54694E-14-9.57097E-14
 -1      1859 2.15578E+01 5.54583E-02-2.33415E-03 8.59650E-01 2.45629E-14-8.15671E-14
 -1      1860 2.23541E+01-1.52539E-02-1.10594E-05 7.08112E-01-7.25842E-14-7.49476E-14
 -1      1861 2.25870E+01-5.45166E-02-5.51417E-03 6.86672E-01-4.02295E-14-5.69900E-14
 -1      1862 2.19308E+01-8.63600E-03-2.31852E-03 8.96581E-01-3.59111E-14-1.12817E-13
 -1      1863 2.27964E+01-9.80761E-02-3.54128E-04 6.36048E-01-8.53614E-15-7.73708E-14
 -1      1864 2.29895E+01-1.58189E-01-1.16466E-02 5.60644E-01 4.53309E-14-1.00731E-13
 -1      1865 2.23325E+01-1.21911E-01-2.03370E-03 8.46448E-01-4.16832E-15-9.79377E-14
 -1      1866 2.32004E+01-2.18196E-01-7.65992E-04 4.32543E-01 4.07365E-14-1.87228E-13
 -1      1867 2.33103E+01-2.93558E-01-1.80015E-02 2.84159E-01-5.53637E-15-1.99433E-13
 -1      1868 2.27448E+01-2.89840E-01-1.07952E-03 6.56430E-01 2.57160E-14-1.08001E-13
 -1      1869 2.34988E+01-3.58430E-01-1.42124E-03 5.91324E-02 1.99554E-14-1.19230E-13
 -1      1870 2.34782E+01-4.25919E-01-2.16471E-02-1.65995E-01 4.26959E-14-6.72995E-14
 -1      1871 2.31329E+01-4.92884E-01 1.43926E-03 2.75704E-01 4.48942E-14-2.09120E-13
 -1      1872 2.36014E+01-4.65508E-01-3.54936E-03-4.78993E-01 7.69523E-15-7.03203E-15
 -1      1873 2.34174E+01-4.79110E-01-1.85798E-02-7.48113E-01 7.36694E-14 6.63540E-14
 -1      1874 2.34345E+01-6.61728E-01 6.44827E-03-3.11688E-01 8.15884E-14-1.42269E-13
 -1      1875 2.34176E+01-4.44981E-01-7.39096E-03-1.08217E+00 8.24705E-14 9.21355E-14
 -1      1876 2.30785E+01-3.49950E-01-5.86728E-03-1.30775E+00 9.15145E-14 9.80917E-14
 -1      1877 2.35566E+01-6.72033E-01 1.22565E-02-1.03037E+00 1.01461E-13-7.91149E-14
 -1      1878 2.29124E+01-2.02399E-01-1.21927E-02-1.52107E+00 5.72771E-14 1.10160E-13
 -1      1879 2.24931E+01 1.47667E-02 1.19472E-02-1.57426E+00 2.30599E-14 6.85788E-14
 -1      1880 2.34029E+01-3.82137E-01 1.49305E-02-1.65887E+00 1.22288E-13-7.97669E-14
 -1      1881 2.22028E+01 2.49335E-01-1.19474E-02-1.49934E+00-4.71628E-14 1.87784E-14
 -1      1882 2.18394E+01 5.03985E-01 2.34463E-02-1.28553E+00-1.20813E-13-1.91088E-14
 -1      1883 2.29636E+01 2.16458E-01 5.04746E-03-1.84523E+00 2.34582E-14-5.46221E-15
 -1      1884 2.15864E+01 7.04267E-01-1.48481E-03-8.64179E-01-8.45071E-14-1.66386E-14
 -1      1885 2.14216E+01 8.37773E-01 1.83311E-02-4.25488E-01-4.78194E-14-1.78666E-14
 -1      1886 2.24310E+01 8.86619E-01-1.56173E-02-1.31002E+00-6.42958E-14 7.71870E-14
 -1      1887 2.13906E+01 8.62214E-01 1.50111E-02 1.80279E-01-1.71755E-14 8.15645E-14
 -1      1888 2.14961E+01 7.75521E-01 2.05792E-03 6.46310E-01 1.06009E-13 1.14987E-13
 -1      1889 2.21492E+01 1.22979E+00-2.91228E-02-1.50289E-01 2.00777E-14 9.96041E-14
 -1      1890 2.17116E+01 6.05279E-01 2.36910E-02 1.13209E+00 7.75005E-14 5.68608E-14
 -1      1891 2.20411E+01 3.63868E-01-1.05978E-02 1.40737E+00-5.84385E-14-1.91912E-14
 -1      1892 2.23326E+01 1.00732E+00-2.04555E-02 1.08625E+00 2.08340E-15 7.85856E-14
 -1      1893 2.23407E+01 1.23762E-01 1.56296E-02 1.56323E+00-2.54028E-13-8.28764E-14
 -1      1894 2.27606E+01-1.12905E-01-1.28580E-02 1.56629E+00-3.29691E-13-1.22118E-13
 -1      1895 2.28395E+01 3.76623E-01 6.25061E-04 1.79081E+00-1.65645E-13-1.27218E-13
 -1      1896 2.29635E+01-2.85690E-01-2.03059E-03 1.40627E+00-3.68835E-13-2.04902E-13
 -1      1897 2.33307E+01-4.10278E-01-8.70699E-03 1.20891E+00-2.73227E-13-1.33906E-13
 -1      1898 2.33248E+01-2.68079E-01 1.35348E-02 1.75438E+00-3.08210E-13-1.77318E-13
 -1      1899 2.33678E+01-4.68310E-01-1.66300E-02 8.88375E-01-2.46027E-13-9.34010E-14
 -1      1900 2.35912E+01-4.75221E-01-4.38489E-03 6.19891E-01-2.10972E-13-1.37614E-13
 -1      1901 2.35509E+01-6.33958E-01 1.33125E-02 1.19604E+00-2.64864E-13 1.01291E-14
 -1      1902 2.34917E+01-4.47702E-01-2.18795E-02 2.94101E-01-1.57605E-13-1.45703E-13
 -1      1903 2.35492E+01-3.87399E-01-1.84962E-03 5.49318E-02 1.69031E-14-1.10374E-13
 -1      1904 2.34868E+01-6.82552E-01 7.28184E-03 4.73621E-01-1.74723E-13-2.05817E-14
 -1      1905 2.33728E+01-3.24512E-01-1.92385E-02-1.91375E-01 4.53075E-14-9.49870E-14
 -1      1906 2.32910E+01-2.47746E-01-7.45037E-04-3.56821E-01 3.77502E-14-1.93018E-13
 -1      1907 2.32195E+01-5.35959E-01 2.09795E-03-1.52884E-01 3.03264E-14 4.99640E-14
 -1      1908 2.30849E+01-1.84775E-01-1.30735E-02-5.04291E-01 8.87996E-14-2.61367E-13
 -1      1909 2.29101E+01-1.19847E-01-2.36172E-04-5.93536E-01 1.04855E-13-2.02907E-13
 -1      1910 2.28485E+01-3.31532E-01-7.57837E-04-5.78395E-01 1.81695E-14 5.24949E-15
 -1      1911 2.27022E+01-7.19025E-02-6.70930E-03-6.57445E-01 3.52348E-14-2.00975E-13
 -1      1912 2.24800E+01-2.74947E-02 1.58665E-04-6.87466E-01 7.51374E-15-2.40108E-13
 -1      1913 2.24435E+01-1.51510E-01-1.99684E-03-8.03831E-01 1.05954E-13 3.47422E-14
 -1      1914 2.22846E+01 3.20644E-03-1.70216E-03-6.93398E-01 1.99850E-13-1.92385E-13
 -1      1915 2.20501E+01 2.87444E-02 5.56144E-04-6.85008E-01 2.90356E-13-1.22832E-13
 -1      1916 2.20449E+01-2.44281E-02-2.42111E-03-8.75526E-01 1.65923E-13 1.74746E-13
 -1      1917 2.18740E+01 4.54479E-02 1.59043E-03-6.56578E-01 2.34314E-13-2.45421E-13
 -1      1918 2.16502E+01 5.71812E-02 8.97315E-04-6.27207E-01 1.76433E-14-1.57830E-13
 -1      1919 2.16745E+01 5.13239E-02-2.50678E-03-8.47267E-01 2.36074E-13-2.17559E-14
 -1      1920 2.14960E+01 6.42958E-02 3.39829E-03-5.81989E-01-4.18793E-14 9.90212E-14
 -1      1921 2.12957E+01 6.72716E-02 1.13183E-03-5.43804E-01 1.82996E-14 1.08552E-13
 -1      1922 2.13431E+01 8.83849E-02-2.45831E-03-7.63710E-01 1.01652E-13-4.00376E-14
 -1      1923 2.11639E+01 6.85632E-02 4.13685E-03-4.93261E-01-1.30421E-13 1.31578E-13
 -1      1924 2.09924E+01 6.66483E-02 1.25092E-03-4.53733E-01-3.88611E-14 1.15758E-13
 -1      1925 2.10551E+01 1.00288E-01-2.33825E-03-6.56313E-01-7.31582E-14 1.54891E-13
 -1      1926 2.08821E+01 6.48185E-02 4.19912E-03-4.04533E-01-6.55097E-14 1.92573E-14
 -1      1927 2.07402E+01 6.06208E-02 1.27784E-03-3.67678E-01-3.45167E-15 1.03107E-14
 -1      1928 2.08110E+01 9.77420E-02-2.16715E-03-5.44772E-01-6.21760E-14 2.22255E-13
 -1      1929 2.06498E+01 5.74343E-02 3.88545E-03-3.23161E-01 1.98804E-13-3.31285E-14
 -1      1930 2.05355E+01 5.25846E-02 1.24951E-03-2.90710E-01 2.65005E-13 3.70284E-14
 -1      1931 2.06084E+01 8.81274E-02-1.95932E-03-4.40004E-01 3.88238E-14 2.39735E-13
 -1      1932 2.04627E+01 4.91356E-02 3.39697E-03-2.52065E-01 2.30222E-13 1.95218E-13
 -1      1933 2.03730E+01 4.46167E-02 1.20171E-03-2.24325E-01 2.06131E-13 4.93561E-13
 -1      1934 2.04436E+01 7.61386E-02-1.73042E-03-3.46979E-01 2.82719E-13 3.09022E-13
 -1      1935 2.03155E+01 4.15768E-02 2.84866E-03-1.91413E-01 5.98575E-14 3.82027E-13
 -1      1936 2.02472E+01 3.79528E-02 1.14792E-03-1.67828E-01 1.08553E-13 3.70325E-13
 -1      1937 2.03122E+01 6.46555E-02-1.49306E-03-2.66890E-01 1.22405E-13 4.62741E-13
 -1      1938 2.02025E+01 3.56841E-02 2.29274E-03-1.39770E-01-4.72170E-15 2.37820E-13
 -1      1939 2.01526E+01 3.32376E-02 1.09442E-03-1.19355E-01-1.18658E-13 2.60946E-13
 -1      1940 2.02094E+01 5.52974E-02-1.26644E-03-1.98638E-01 2.07596E-14 2.91460E-13
 -1      1941 2.01185E+01 3.17262E-02 1.70827E-03-9.49382E-02-1.70007E-13 1.48138E-13
 -1      1942 2.00843E+01 3.02343E-02 1.00509E-03-7.66948E-02-1.36974E-13 3.83062E-15
 -1      1943 2.01309E+01 4.89409E-02-9.74109E-04-1.40068E-01-2.42312E-13 2.95137E-13
 -1      1944 2.00611E+01 2.85132E-02 1.28021E-03-5.62525E-02 6.24613E-14-1.41886E-13
 -1      1945 2.00395E+01 2.66882E-02 9.74714E-04-4.04492E-02 8.92878E-14-1.54606E-13
 -1      1946 2.00355E+01 3.53547E-02-7.33367E-04-4.86993E-02-1.81526E-14-1.39368E-14
 -1      1947 2.00740E+01 4.30166E-02-1.13719E-03-9.01859E-02-1.17125E-13 2.81803E-13
 -1      1948 1.96013E+01 1.43313E-01 7.98514E-03 2.54602E-01 1.92187E-13 2.13014E-13
 -1      1949 1.98710E+01 2.05076E-01 1.65208E-02 4.28333E-01 1.92650E-13 3.03545E-13
 -1      1950 2.00868E+01 3.51723E-01-1.58823E-03 6.49743E-01 2.30682E-13 1.95053E-13
 -1      1951 1.93664E+01 7.41206E-02 7.09974E-03 4.83954E-02 1.38811E-13 1.29886E-13
 -1      1952 1.94777E+01 1.03637E-01 1.43299E-02 1.38318E-01 1.39094E-13 1.75640E-13
 -1      1953 1.97001E+01 1.67512E-01-2.04490E-03 2.47870E-01 1.83889E-13 1.22299E-13
 -1      1954 1.92874E+01 3.95558E-02 4.65607E-03-6.22163E-02 5.72975E-14 1.04299E-13
 -1      1955 1.93117E+01 5.49070E-02 8.53854E-03-1.27365E-02 1.07784E-13 1.34098E-13
 -1      1956 1.95091E+01 8.44918E-02-2.96863E-03 3.06433E-02 1.28615E-13 6.23781E-14
 -1      1957 1.93031E+01 2.12045E-02 3.18956E-03-1.22366E-01 2.63307E-14 1.68255E-14
 -1      1958 1.92788E+01 2.94733E-02 4.64084E-03-9.43160E-02 3.88938E-14 7.61210E-14
 -1      1959 1.94439E+01 4.32233E-02-3.04385E-03-8.92138E-02 6.13294E-14 1.74357E-14
 -1      1960 1.93762E+01 1.16243E-02 2.44851E-03-1.55372E-01 6.80265E-14-1.29775E-14
 -1      1961 1.93242E+01 1.59136E-02 2.54642E-03-1.39002E-01 2.50331E-14-6.92675E-15
 -1      1962 1.94578E+01 2.19150E-02-2.59059E-03-1.56269E-01 4.32249E-14-5.15048E-14
 -1      1963 1.94851E+01 7.44541E-03 2.07779E-03-1.74650E-01 4.81416E-14 2.56240E-15
 -1      1964 1.94166E+01 9.27164E-03 1.48392E-03-1.64258E-01 7.69059E-14 2.44451E-14
 -1      1965 1.95216E+01 1.15633E-02-2.06902E-03-1.94865E-01 5.93303E-14-4.98181E-14
 -1      1966 1.96183E+01 6.93240E-03 1.91158E-03-1.88789E-01 7.87572E-14-2.76566E-14
 -1      1967 1.95389E+01 7.14067E-03 9.75187E-04-1.80646E-01 4.78764E-14-1.12893E-14
 -1      1968 1.96185E+01 8.02915E-03-1.67184E-03-2.19652E-01 6.16658E-14-2.44516E-14
 -1      1969 1.97714E+01 9.07872E-03 1.88900E-03-2.03737E-01-8.86368E-15-2.87223E-14
 -1      1970 1.96828E+01 8.19109E-03 7.85298E-04-1.95192E-01 4.40914E-14-2.95077E-14
 -1      1971 1.97394E+01 9.14951E-03-1.43456E-03-2.40266E-01 6.37196E-14-6.54797E-15
 -1      1972 1.99446E+01 1.32159E-02 1.98124E-03-2.23819E-01 7.48948E-14-2.76344E-14
 -1      1973 1.98462E+01 1.15961E-02 7.96391E-04-2.12882E-01 3.03241E-14-2.99855E-14
 -1      1974 1.98809E+01 1.36396E-02-1.34103E-03-2.63465E-01 3.61485E-14-6.91776E-15
 -1      1975 2.01416E+01 1.87992E-02 2.16110E-03-2.52195E-01 1.25916E-13-7.26352E-14
 -1      1976 2.00308E+01 1.67489E-02 9.36042E-04-2.37352E-01 1.08028E-13-3.04827E-14
 -1      1977 2.00438E+01 2.05985E-02-1.36709E-03-2.94139E-01 1.04508E-13-6.71863E-14
 -1      1978 2.03683E+01 2.52370E-02 2.38821E-03-2.90958E-01 1.72414E-13-2.33209E-13
 -1      1979 2.02414E+01 2.30746E-02 1.14590E-03-2.71142E-01 1.56357E-13-1.51318E-13
 -1      1980 2.02313E+01 2.92124E-02-1.49080E-03-3.35711E-01 1.91638E-13-1.47690E-13
 -1      1981 2.06318E+01 3.16979E-02 2.59576E-03-3.40916E-01 1.28633E-13-2.74748E-13
 -1      1982 2.04845E+01 2.98456E-02 1.36553E-03-3.15625E-01 1.46744E-13-2.40709E-13
 -1      1983 2.04484E+01 3.84912E-02-1.69223E-03-3.90119E-01 1.68800E-13-2.01256E-13
 -1      1984 2.09389E+01 3.68592E-02 2.67543E-03-4.00997E-01-4.25014E-14-3.48640E-13
 -1      1985 2.07673E+01 3.59533E-02 1.52096E-03-3.70591E-01 3.15741E-14-3.17650E-13
 -1      1986 2.07008E+01 4.69547E-02-1.95031E-03-4.57374E-01 8.32133E-14-2.47015E-13
 -1      1987 2.12942E+01 3.85711E-02 2.46304E-03-4.67159E-01-7.90557E-15-2.93470E-13
 -1      1988 2.10958E+01 3.96008E-02 1.51618E-03-4.33411E-01-1.29675E-14-3.36729E-13
 -1      1989 2.09939E+01 5.22211E-02-2.23724E-03-5.34618E-01-1.42334E-15-2.65889E-13
 -1      1990 2.16978E+01 3.34686E-02 1.73558E-03-5.30712E-01-8.68207E-15-2.60712E-13
 -1      1991 2.14733E+01 3.79214E-02 1.23050E-03-4.97665E-01-4.04574E-14-3.18598E-13
 -1      1992 2.13304E+01 5.04925E-02-2.50799E-03-6.14556E-01 8.92396E-15-1.99885E-13
 -1      1993 2.21407E+01 1.66838E-02 2.43722E-04-5.76059E-01 5.12573E-14-1.37539E-13
 -1      1994 2.18967E+01 2.66052E-02 5.30568E-04-5.51206E-01 9.53727E-14-1.57298E-13
 -1      1995 2.17090E+01 3.60505E-02-2.68133E-03-6.83235E-01 3.57808E-14-1.65084E-13
 -1      1996 2.26012E+01-1.78765E-02-2.17846E-03-5.78388E-01-1.46154E-13-2.73515E-13
 -1      1997 2.23528E+01-1.56769E-04-6.92120E-04-5.73925E-01-1.00573E-13-2.07656E-13
 -1      1998 2.21209E+01 1.16097E-03-2.60501E-03-7.17425E-01-3.66348E-14-4.21074E-14
 -1      1999 2.30386E+01-7.56703E-02-5.38250E-03-5.02912E-01-1.54703E-14-2.23617E-13
 -1      2000 2.28131E+01-4.86465E-02-2.44854E-03-5.36253E-01-8.44394E-14-2.65983E-13
 -1      2001 2.25463E+01-6.26125E-02-2.00323E-03-6.82706E-01-5.70741E-14-1.77909E-13
 -1      2002 2.33908E+01-1.56547E-01-8.57329E-03-3.09413E-01-4.12808E-14-1.77257E-13
 -1      2003 2.32282E+01-1.22127E-01-4.55865E-03-4.01025E-01-1.55258E-14-1.65193E-13
 -1      2004 2.29503E+01-1.59887E-01-4.37507E-04-5.35075E-01-4.37662E-14-9.20236E-14
 -1      2005 2.35749E+01-2.45710E-01-1.01044E-02 3.19167E-02 6.39488E-14-2.84059E-14
 -1      2006 2.35252E+01-2.13376E-01-6.56282E-03-1.33497E-01 2.77209E-14-7.43411E-14
 -1      2007 2.32788E+01-2.81838E-01 2.60889E-03-2.31409E-01 1.83603E-14-6.02565E-14
 -1      2008 2.35013E+01-3.03768E-01-8.09916E-03 5.07863E-01-1.58131E-13-4.57048E-14
 -1      2009 2.36115E+01-2.93957E-01-7.85035E-03 2.74676E-01-4.43621E-14-3.79297E-15
 -1      2010 2.34578E+01-3.92083E-01 7.28978E-03 2.44364E-01-6.09755E-14 4.45854E-14
 -1      2011 2.31064E+01-2.68594E-01-2.20803E-03 1.01881E+00-2.85702E-13 4.51271E-14
 -1      2012 2.33977E+01-3.08394E-01-7.86368E-03 7.67282E-01-2.90041E-13-7.55646E-14
 -1      2013 2.34033E+01-4.19080E-01 1.21912E-02 8.37141E-01-2.38619E-13 5.26953E-14
 -1      2014 2.24100E+01-8.91122E-02 4.33327E-03 1.35928E+00-1.41167E-13 2.48931E-13
 -1      2015 2.28488E+01-1.92112E-01-5.86898E-03 1.19095E+00-1.85768E-13 1.19033E-13
 -1      2016 2.30581E+01-2.78359E-01 1.36423E-02 1.37728E+00-2.40881E-13 1.30626E-13
 -1      2017 2.15775E+01 2.06769E-01 5.08523E-03 1.28569E+00 2.60885E-14 2.29393E-13
 -1      2018 2.20574E+01 7.04231E-02-1.36181E-03 1.31739E+00-4.73280E-14 2.17189E-13
 -1      2019 2.24609E+01 5.71465E-02 7.48916E-03 1.59316E+00-7.53449E-14 1.74425E-13
 -1      2020 2.09238E+01 4.74816E-01-2.21663E-03 6.95703E-01 7.88224E-14 3.69867E-13
 -1      2021 2.12815E+01 3.81286E-01 5.47470E-03 9.69786E-01 7.54397E-14 3.64493E-13
 -1      2022 2.18113E+01 4.73552E-01-5.79249E-03 1.24694E+00 1.03736E-14 2.20379E-13
 -1      2023 2.07688E+01 5.39377E-01-1.09730E-02-2.14963E-01 1.38509E-13 3.19762E-14
 -1      2024 2.08541E+01 5.56552E-01 1.18696E-02 2.01543E-01 8.36622E-14 1.82773E-13
 -1      2025 2.14233E+01 7.43699E-01-1.57400E-02 3.59738E-01 1.66180E-13 1.38769E-13
 -1      2026 2.12106E+01 3.52615E-01-1.13112E-02-1.02400E+00 2.82040E-13-9.91464E-14
 -1      2027 2.09777E+01 4.72854E-01 1.33763E-02-6.61039E-01 2.04760E-13 1.59456E-14
 -1      2028 2.15196E+01 6.88782E-01-1.30563E-02-6.99057E-01 2.34758E-13 6.67869E-14
 -1      2029 2.20290E+01 4.96859E-02-2.60638E-03-1.38366E+00 2.69163E-13-7.36633E-14
 -1      2030 2.15755E+01 1.93266E-01 8.12001E-03-1.22198E+00 3.33781E-13-1.03816E-13
 -1      2031 2.20410E+01 3.45056E-01-1.80454E-03-1.43156E+00 3.73302E-13 8.81881E-14
 -1      2032 2.28628E+01-1.94267E-01 7.04115E-03-1.24316E+00 5.98228E-14-3.15187E-13
 -1      2033 2.23651E+01-1.01309E-01-6.74814E-04-1.29751E+00 1.30245E-13-2.45973E-13
 -1      2034 2.27008E+01-7.13655E-02 5.87040E-03-1.57673E+00 2.66376E-13-2.26555E-14
 -1      2035 2.34368E+01-2.94891E-01 1.09012E-02-7.93684E-01 9.17912E-14-3.37279E-13
 -1      2036 2.30509E+01-2.74088E-01-8.32151E-03-9.78901E-01 5.85157E-14-3.08687E-13
 -1      2037 2.32162E+01-3.54052E-01 5.30233E-03-1.22115E+00 1.05763E-13-1.94440E-13
 -1      2038 2.36581E+01-2.73995E-01 9.16197E-03-2.79427E-01-1.88636E-13-1.33964E-13
 -1      2039 2.34588E+01-3.02841E-01-1.18170E-02-4.92846E-01 3.08434E-15-2.35000E-13
 -1      2040 2.34518E+01-4.35094E-01 9.58786E-04-6.37289E-01-3.48376E-14-5.05642E-14
 -1      2041 2.35699E+01-1.95111E-01 5.15869E-03 1.39834E-01-2.83826E-13-7.92530E-14
 -1      2042 2.35547E+01-2.41457E-01-1.12684E-02-3.57076E-02-1.93566E-13-7.22335E-14
 -1      2043 2.34151E+01-3.68935E-01-1.94599E-03-7.24843E-02-2.14422E-13 6.28720E-14
 -1      2044 2.32688E+01-1.09181E-01 1.47937E-03 4.09343E-01 5.35657E-14-1.81757E-13
 -1      2045 2.33926E+01-1.51805E-01-8.47395E-03 2.94759E-01-1.70924E-13-7.64709E-14
 -1      2046 2.31786E+01-2.44643E-01-2.67764E-03 3.44987E-01-1.29828E-13 2.67525E-14
 -1      2047 2.28521E+01-4.09875E-02-8.04506E-04 5.40780E-01 1.08383E-13 2.76862E-15
 -1      2048 2.30592E+01-7.15847E-02-5.07338E-03 4.82994E-01 6.96014E-14-8.45183E-14
 -1      2049 2.28235E+01-1.24364E-01-2.16350E-03 5.89603E-01 1.06198E-13 7.47822E-14
 -1      2050 2.23950E+01 3.77400E-03-1.78728E-03 5.71639E-01-2.05076E-13-5.22178E-14
 -1      2051 2.26378E+01-1.44357E-02-2.05284E-03 5.55682E-01 2.82619E-14 1.84041E-14
 -1      2052 2.24165E+01-3.47210E-02-1.35670E-03 6.90334E-01-1.23034E-14 2.55141E-13
 -1      2053 2.19481E+01 2.85737E-02-1.93189E-03 5.40662E-01-4.73597E-14-1.47373E-13
 -1      2054 2.21927E+01 1.99100E-02 1.66189E-04 5.50804E-01-1.76426E-13-1.46168E-13
 -1      2055 2.20049E+01 2.11113E-02-7.49103E-04 6.92286E-01-9.65384E-14 3.62557E-14
 -1      2056 2.15404E+01 3.93583E-02-1.66572E-03 4.78027E-01-1.10123E-13-4.44833E-14
 -1      2057 2.17665E+01 3.69490E-02 1.55390E-03 5.01870E-01-1.17265E-13-1.56557E-13
 -1      2058 2.16185E+01 5.00252E-02-4.31617E-04 6.36555E-01-1.41957E-13-2.89932E-14
 -1      2059 2.11857E+01 4.15108E-02-1.26394E-03 4.03868E-01-4.96287E-14 1.19292E-13
 -1      2060 2.13834E+01 4.26896E-02 2.26395E-03 4.33045E-01 1.54481E-14 5.25369E-14
 -1      2061 2.12738E+01 6.08567E-02-3.27005E-04 5.53485E-01-5.37489E-14 6.82282E-14
 -1      2062 2.08878E+01 3.89906E-02-8.65483E-04 3.30073E-01-2.59805E-14-1.20632E-13
 -1      2063 2.10538E+01 4.19108E-02 2.49879E-03 3.59575E-01-1.14420E-13-6.19664E-14
 -1      2064 2.09775E+01 6.10148E-02-3.32309E-04 4.62679E-01-3.50922E-14 7.16306E-14
 -1      2065 2.06443E+01 3.44161E-02-5.22402E-04 2.62707E-01 5.25305E-14 5.39353E-14
 -1      2066 2.07796E+01 3.79118E-02 2.44139E-03 2.89928E-01 7.00147E-14 2.11738E-14
 -1      2067 2.07302E+01 5.57389E-02-3.73187E-04 3.75351E-01-4.12892E-14 3.77907E-14
 -1      2068 2.04503E+01 2.94205E-02-2.42375E-04 2.04064E-01 1.92495E-13 1.27274E-13
 -1      2069 2.05576E+01 3.27988E-02 2.23003E-03 2.27982E-01 8.18258E-14 8.75289E-14
 -1      2070 2.05289E+01 4.84070E-02-4.10505E-04 2.96902E-01 9.10261E-14 2.17576E-13
 -1      2071 2.02994E+01 2.49987E-02-1.86753E-05 1.54108E-01 3.40364E-15 1.20607E-13
 -1      2072 2.03822E+01 2.78651E-02 1.95568E-03 1.74706E-01 1.38564E-13 2.95319E-13
 -1      2073 2.03688E+01 4.10867E-02-4.32379E-04 2.28994E-01 1.02390E-13 3.05639E-13
 -1      2074 2.01855E+01 2.17099E-02 1.38805E-04 1.11412E-01 2.03943E-13-2.48062E-13
 -1      2075 2.02473E+01 2.38848E-02 1.66488E-03 1.29311E-01-1.19030E-14-1.52961E-13
 -1      2076 2.02445E+01 3.50048E-02-4.43069E-04 1.70990E-01 1.16813E-13-3.69462E-14
 -1      2077 2.01033E+01 1.97046E-02 1.98275E-04 7.40307E-02 4.02002E-14 3.27363E-14
 -1      2078 2.01470E+01 2.11697E-02 1.35257E-03 9.01055E-02 2.34251E-13 2.78520E-14
 -1      2079 2.01507E+01 3.06545E-02-4.79872E-04 1.21036E-01 1.46305E-13-4.63164E-14
 -1      2080 2.00485E+01 1.86658E-02 4.53089E-04 4.05419E-02-1.75432E-13 1.04704E-13
 -1      2081 2.00760E+01 1.94641E-02 9.70079E-04 5.53101E-02-3.56493E-14 1.89298E-13
 -1      2082 2.00825E+01 2.80712E-02-4.62714E-04 7.70992E-02-8.69328E-14 2.93158E-13
 -1      2083 2.00205E+01 1.66885E-02 7.20989E-04 1.84138E-02-1.01201E-14 2.08965E-13
 -1      2084 2.00360E+01 1.90419E-02 6.55689E-04 3.09705E-02-8.88650E-14 1.73055E-13
 -1      2085 2.00423E+01 2.71570E-02-3.51608E-04 4.56851E-02-8.77916E-14 3.82466E-13
 -1      2086 2.00210E+01 2.41455E-02 6.77212E-05 2.50656E-02 3.94150E-14 4.50878E-13
 -1      2087 2.00040E+01 1.67015E-01-4.25454E-04 9.25214E-02 1.03816E-13-2.11492E-13
 -1      2088 2.00103E+01 1.37379E-01 6.79092E-04 8.83882E-02-1.02591E-14-1.72834E-14
 -1      2089 2.00160E+01 1.07901E-01-8.58959E-05 7.96962E-02-9.01561E-14 7.22201E-14
 -1      2090 2.00211E+01 8.21094E-02 7.74706E-04 6.88418E-02-6.44752E-14 1.63715E-13
 -1      2091 2.00196E+01 1.30736E-01-1.04741E-04 1.09436E-01-1.99731E-13 1.06401E-13
 -1      2092 2.00218E+01 6.07494E-02 1.75649E-04 5.46249E-02-1.87189E-14 2.53833E-13
 -1      2093 2.00235E+01 4.12609E-02 6.30642E-04 4.07462E-02 2.38442E-15 1.79472E-13
 -1      2094 2.00334E+01 4.35646E-02 3.92886E-04 5.13554E-02-2.83645E-14 1.90260E-13
 -1      2095 2.00300E+01 8.09809E-02-4.01885E-04 8.32549E-02-1.38422E-13 1.66389E-13
 -1      2096 1.99922E+01 2.25089E-01-7.68265E-04 9.01732E-02-1.52314E-13-7.75146E-13
 -1      2097 1.99982E+01 1.96004E-01 2.64124E-04 9.28085E-02-6.74756E-15-4.98942E-13
 -1      2098 2.00020E+01 1.88774E-01 2.34380E-04 1.18972E-01-6.31813E-14-5.13840E-13
 -1      2099 1.99821E+01 2.76301E-01-1.05058E-03 7.34150E-02-1.28596E-13-4.54016E-13
 -1      2100 1.99871E+01 2.51240E-01-2.13991E-04 8.21806E-02-1.16880E-13-4.11789E-13
 -1      2101 1.99851E+01 2.43794E-01 6.09480E-04 1.09985E-01-4.31337E-14-5.93315E-13
 -1      2102 1.99751E+01 3.12505E-01-1.20052E-03 4.52410E-02-1.20188E-13-9.67144E-14
 -1      2103 1.99783E+01 2.95807E-01-6.65419E-04 5.85312E-02-2.49842E-14-1.78160E-13
 -1      2104 1.99711E+01 2.89437E-01 9.40618E-04 8.39536E-02-2.15370E-14-2.37848E-13
 -1      2105 1.99720E+01 3.28701E-01-1.18820E-03 1.01958E-02-2.87452E-14 2.30065E-13
 -1      2106 1.99731E+01 3.22897E-01-1.00499E-03 2.58775E-02-5.42102E-14 1.19718E-13
 -1      2107 1.99621E+01 3.19364E-01 1.15802E-03 4.51934E-02 4.73054E-14 9.80358E-14
 -1      2108 1.99731E+01 3.22672E-01-1.00607E-03-2.63804E-02-2.71818E-13-3.68464E-14
 -1      2109 1.99720E+01 3.28644E-01-1.18792E-03-1.07111E-02-1.45679E-13 1.90226E-13
 -1      2110 1.99590E+01 3.29713E-01 1.23309E-03-3.20152E-04-2.29413E-13 4.73266E-14
 -1      2111 1.99784E+01 2.95302E-01-6.77078E-04-5.89621E-02-2.04155E-13-2.86453E-13
 -1      2112 1.99752E+01 3.12176E-01-1.19243E-03-4.57200E-02-2.08343E-13-2.27223E-13
 -1      2113 1.99622E+01 3.19138E-01 1.15224E-03-4.58043E-02-2.78790E-13-8.43657E-14
 -1      2114 1.99870E+01 2.51408E-01-2.22416E-04-8.21817E-02-1.72838E-13-3.39776E-13
 -1      2115 1.99821E+01 2.76096E-01-1.04706E-03-7.35851E-02-9.81628E-14-3.09062E-13
 -1      2116 1.99712E+01 2.89349E-01 9.51222E-04-8.42256E-02-5.22265E-14-2.35238E-13
 -1      2117 1.99984E+01 1.95629E-01 2.66689E-04-9.28451E-02-5.68472E-14 7.53033E-13
 -1      2118 1.99922E+01 2.25251E-01-7.77616E-04-9.02188E-02-1.20998E-13 2.55367E-13
 -1      2119 1.99850E+01 2.44024E-01 6.08152E-04-1.10034E-01 1.03910E-13-1.02846E-13
 -1      2120 2.00105E+01 1.36479E-01 6.75066E-04-8.82610E-02 1.87845E-13 3.48179E-13
 -1      2121 2.00041E+01 1.66162E-01-4.36396E-04-9.24597E-02 1.38622E-14 5.54165E-13
 -1      2122 2.00020E+01 1.88426E-01 1.55445E-04-1.18958E-01 1.54870E-13 7.05995E-13
 -1      2123 2.00207E+01 7.96851E-02 1.89636E-04-6.85974E-02 4.09604E-14 1.97967E-13
 -1      2124 2.00161E+01 1.06936E-01-8.64579E-05-7.94100E-02-6.14854E-14 3.52974E-13
 -1      2125 2.00197E+01 1.30153E-01-6.79465E-05-1.09078E-01-9.00869E-14 2.68371E-13
 -1      2126 1.07223E+01-5.07947E+00-1.36837E-01 6.41271E+00-2.61680E-13 3.27585E-14
 -1      2127 7.08961E+00-6.39919E+00-3.21089E-01 5.36556E+00-4.58800E-13 1.95954E-13
 -1      2128 6.12787E-01-6.56798E+00-3.07660E-01 8.60041E-01-2.27901E-13 1.27398E-13
 -1      2129 5.63979E-01-6.30044E+00-2.74016E-01-7.00718E-01-2.62387E-13 6.40599E-14
 -1      2130 3.45628E+00-5.77312E+00-2.05188E-01 4.15799E+00-4.28491E-13 3.45446E-13
 -1      2131 1.50160E+00-6.90837E+00-3.73317E-01 2.45754E+00-3.63432E-13 1.50324E-13
 -1      2132 2.58006E+00-4.07169E+00-1.11747E-01 2.11553E+00-2.46192E-13 1.04750E-13
 -1      2133 1.90086E+01-3.45176E+00-3.26437E-02 6.83412E+00-2.18603E-13 2.02172E-13
 -1      2134 1.40924E+01-5.13988E+00-3.19574E-01 6.12858E+00-1.46327E-13 1.01086E-13
 -1      2135 1.49501E+01-5.56491E+00-3.95671E-02 6.82219E+00-3.79974E-13 8.70016E-14
 -1      2136 2.83064E+01-6.00177E-01 1.73904E-01 5.38426E+00 9.76996E-15 1.41109E-13
 -1      2137 2.36464E+01-2.55931E+00-1.29657E-01 5.28368E+00-1.99452E-13 2.18547E-13
 -1      2138 1.95263E+01 4.01925E+00-2.69975E-02-1.69708E+00-2.09464E-13-3.41231E-13
 -1      2139 1.96507E+01 3.94840E+00-2.45583E-02-1.94841E+00-2.40965E-13-2.78208E-13
 -1      2140 1.99739E+01 3.24974E+00-1.38612E-02-1.91165E+00-2.50128E-13-2.32050E-13
 -1      2141 1.97063E+01 3.59116E+00-7.15367E-03-1.51373E+00-2.10432E-13-3.31415E-13
 -1      2142 3.91378E+01 5.72616E+00 3.28948E-01 1.67049E+00 3.24962E-13-1.95344E-13
 -1      2143 3.67771E+01 4.73026E+00 2.20878E-01 2.82989E+00 2.96985E-13-1.79079E-13
 -1      2144 3.99667E+01 7.12615E+00 2.97424E-01-4.89098E-02 5.28300E-13-2.29643E-13
 -1      2145 3.93291E+01 6.92089E+00 2.89429E-01 9.37516E-01 4.18277E-13-1.47993E-13
 -1      2146 3.75401E+01 6.53022E+00 1.77490E-01-1.08109E+00 5.31242E-13-3.63098E-13
 -1      2147 4.01185E+01 7.15328E+00 4.43558E-01-4.49102E-01 5.82201E-13-2.49259E-13
 -1      2148 3.38811E+01 2.95762E+00 1.21573E-01-3.06275E+00 4.58682E-13-6.08735E-13
 -1      2149 3.60541E+01 4.29236E+00 1.08315E-01-1.49385E+00 4.87055E-13-3.91465E-13
 -1      2150 2.78003E+01-6.02223E-01-8.86864E-02-4.34181E+00 3.65957E-13-5.30354E-13
 -1      2151 3.22539E+01 1.29240E+00 2.08242E-01-4.33054E+00 3.54050E-13-6.26610E-13
 -1      2152 3.20907E+01 1.07292E+00 1.84992E-01-9.62586E-01 1.50491E-13-1.20459E-13
 -1      2153 1.90399E+01-3.75498E+00-2.41168E-01-6.01959E+00 3.68261E-13-5.41900E-13
 -1      2154 2.40884E+01-2.10681E+00 3.20838E-02-6.21854E+00 4.04676E-13-4.09506E-13
 -1      2155 1.06839E+01-5.83030E+00-3.86095E-01-5.81378E+00 1.49769E-13-6.81552E-13
 -1      2156 1.49456E+01-4.01859E+00-9.21828E-02-6.81002E+00 3.33844E-13-7.13568E-13
 -1      2157 4.37157E+00-6.87532E+00-3.93930E-01-4.40152E+00 3.28071E-14-5.93109E-13
 -1      2158 7.27818E+00-5.70920E+00-2.26570E-01-5.62871E+00 1.48326E-13-7.50136E-13
 -1      2159 4.44535E-01-7.48790E+00-4.65293E-01-1.35471E+00-1.59234E-13-5.06983E-13
 -1      2160 1.67239E+00-6.65250E+00-3.38099E-01-2.89727E+00 9.27036E-15-5.21916E-13
 -1      2161 7.07637E-01-7.11017E+00-3.92600E-01 1.79732E+00-2.59376E-13-4.50306E-13
 -1      2162 1.14831E-01-7.44813E+00-4.43994E-01 3.76828E-01-1.08375E-13-4.94882E-13
 -1      2163 5.09988E+00-5.75275E+00-2.07802E-01 4.99903E+00-2.51243E-13-2.04836E-13
 -1      2164 2.54001E+00-7.09767E+00-4.30858E-01 3.36998E+00-2.27984E-13-2.80553E-13
 -1      2165 1.29272E+01-4.72397E+00-1.08047E-01 6.69309E+00-3.38618E-13-4.02525E-13
 -1      2166 9.11115E+00-6.16881E+00-3.09265E-01 5.76239E+00-2.80831E-13-2.85195E-13
 -1      2167 2.17050E+01-3.28740E+00-6.10101E-03 6.44353E+00-3.32734E-13-4.16112E-13
 -1      2168 1.66206E+01-4.66353E+00-2.53582E-01 6.15557E+00-3.78475E-13-4.74260E-13
 -1      2169 1.74720E+01-5.47045E+00 1.23511E-02 6.64841E+00-2.66454E-14-3.54286E-13
 -1      2170 3.02485E+01 2.04421E-01 2.10130E-01 4.75290E+00-5.07983E-13-2.64677E-13
 -1      2171 2.57021E+01-1.88366E+00-9.95143E-02 4.75513E+00-4.42618E-13-2.70561E-13
 -1      2172 3.66114E+01 3.89625E+00 4.11089E-01 3.35132E+00-6.37143E-13-3.41338E-13
 -1      2173 3.24508E+01 2.20513E+00 3.26821E-02 3.56134E+00-6.25180E-13-3.31624E-13
 -1      2174 4.02030E+01 6.06083E+00 4.16016E-01 1.63563E+00-5.03930E-13-4.53193E-13
 -1      2175 3.78197E+01 5.16042E+00 2.41459E-01 2.69886E+00-5.88668E-13-5.28244E-13
 -1      2176 3.50440E+01 4.34883E+00 3.17742E-01 6.25223E-01-5.61551E-13-4.19720E-13
 -1      2177 4.04683E+01 7.04183E+00 3.19284E-01-2.31645E-01-4.82669E-13-1.55986E-13
 -1      2178 4.01825E+01 7.01890E+00 3.58618E-01 8.23926E-01-4.78173E-13-3.47750E-13
 -1      2179 3.84516E+01 6.44449E+00 2.23723E-01-1.37010E+00-3.77254E-13-1.33893E-13
 -1      2180 4.05975E+01 6.88020E+00 4.11728E-01-5.61763E-01-4.40814E-13-1.61260E-13
 -1      2181 3.61211E+01 8.03875E+00 3.26841E-01 9.44539E-02-4.90663E-13-1.84124E-13
 -1      2182 3.48771E+01 3.54233E+00 1.75579E-01-3.38157E+00-3.13326E-13 7.21645E-15
 -1      2183 3.75386E+01 4.72447E+00 2.75318E-01-2.25040E+00-3.69316E-13-9.76996E-15
 -1      2184 2.85706E+01 4.22514E-01-3.91005E-02-4.91595E+00-4.09561E-13 1.15796E-13
 -1      2185 3.30115E+01 1.99605E+00 2.73228E-01-4.64184E+00-2.73795E-13 4.21885E-15
 -1      2186 2.12836E+01-3.03536E+00-1.90052E-01-5.80898E+00-5.44287E-13 1.69920E-13
 -1      2187 2.59110E+01-1.24036E+00 1.31369E-01-6.03442E+00-4.63407E-13 1.23401E-13
 -1      2188 1.32486E+01-5.26633E+00-2.92196E-01-6.14850E+00-4.12781E-13 4.86861E-13
 -1      2189 1.74385E+01-3.42275E+00-3.54820E-02-6.84579E+00-5.97855E-13 4.67792E-13
 -1      2190 6.04778E+00-6.56189E+00-3.59854E-01-5.01146E+00-2.11720E-13 6.44207E-13
 -1      2191 9.53148E+00-5.19490E+00-1.07080E-01-6.32197E+00-2.59570E-13 6.83759E-13
 -1      2192 1.79703E+00-6.63387E+00-3.20496E-01-2.81662E+00-3.24962E-13 2.16605E-13
 -1      2193 3.63935E+00-6.11945E+00-2.24909E-01-4.14557E+00-3.30680E-13 4.94521E-13
 -1      2194 7.00603E+00-4.85793E+00-9.07827E-02-5.66268E+00-1.16351E-13 5.42622E-13
 -1      2195 3.52802E+01 3.15573E+00 3.58345E-01 3.94403E+00 3.04964E-13-1.69420E-13
 -1      2196 3.07585E+01 1.43283E+00-2.70151E-03 4.25122E+00 2.06515E-13-7.43849E-15
 -1      2197 2.07160E+01 1.10847E+00-2.06577E-02-1.61213E+00-2.55074E-13 2.31561E-13
 -1      2198 3.51304E+01 5.19777E+00 1.06265E-01-2.29202E-01 3.90882E-13-4.03733E-13
 -1      2199 3.26026E+01 5.93684E+00-1.52002E-01 1.07083E+00 4.45532E-13-3.38396E-13
 -1      2200 3.20769E+01 3.86305E+00 2.23895E-02 8.67516E-01 2.08111E-13-1.41137E-13
 -1      2201 3.42973E+01 3.47164E+00 2.75690E-01 9.08595E-01 2.63872E-13-2.02505E-13
 -1      2202 2.06134E+01 1.33065E+00-1.87407E-02-1.67218E+00-2.82243E-13 7.08374E-14
 -1      2203 7.24776E+00-5.06446E+00-9.30342E-02 5.62378E+00-5.09870E-13 1.86351E-13
 -1      2204 2.00263E+01 6.61328E-02 4.11261E-04-6.43158E-02-3.91011E-14 1.65559E-13
 -1      2205 2.32954E+01-4.40819E+00 7.12122E-02 5.35985E+00-2.66676E-13 1.55542E-13
 -1      2206 2.75051E+00-4.17532E+00-1.09237E-01-2.22259E+00-2.41515E-13 2.34646E-13
 -1      2207 3.00514E+01-1.09633E+00 7.25052E-02 2.58000E+00-1.61537E-14-7.30527E-14
 -1      2208 1.35914E+01-5.50713E+00-7.44134E-02-6.71378E+00-1.34670E-13 5.13339E-13
 -1      2209 2.18681E+01-4.62671E+00 3.67904E-02-5.85563E+00-3.20743E-13-2.18159E-14
 -1      2210 2.83459E+01-2.19085E+00 6.75607E-02-3.54807E+00-2.90268E-13-1.89349E-13
 -1      2211 3.55617E+01 5.75275E+00 2.68119E-01-9.94906E-02-3.89799E-13-2.69951E-13
 -1      2212 3.64529E+01 7.23243E+00 3.51925E-01 6.54600E-02-5.84810E-13-4.23522E-13
 -1      2213 2.52735E+01-3.91409E+00 5.73250E-02 4.60634E+00-2.25708E-13-1.53488E-13
 -1      2214 9.27862E+00-5.34674E+00-7.36725E-02 6.25125E+00 1.82632E-14-1.58762E-13
 -1      2215 3.07063E+00-4.83039E+00-1.63996E-01 3.37563E+00 6.70852E-14-3.28682E-13
 -1      2216 1.40711E+00-4.92536E+00-2.20094E-01-6.42399E-01 7.42462E-16-4.89275E-13
 -1      2217 4.64089E+00-5.18190E+00-1.64513E-01-4.55909E+00-1.97620E-14-6.89671E-13
 -1      2218 1.13817E+01-5.61648E+00-1.12036E-01-6.61713E+00 1.97065E-14-6.50147E-13
 -1      2219 2.74137E+01-2.82794E+00 1.22576E-01-3.79165E+00 1.00864E-13-2.35534E-13
 -1      2220 3.58433E+01 6.86711E+00 3.07096E-01-4.46281E-02 3.51497E-13-1.86018E-13
 -1      2221 3.56072E+01 8.00706E+00 2.73307E-01 6.34851E-02 5.78315E-13-2.51660E-13
 -1      2222 1.94998E+01-5.06536E+00 1.96267E-02-6.34967E+00 8.23230E-14-4.70401E-13
 -1      2223 3.13817E+01 1.03976E-01 1.34827E-01 1.92186E+00-4.17685E-13-1.77414E-13
 -1      2224 3.30247E+01 1.86278E+00 2.37811E-01-1.53907E+00-2.07702E-13-1.69420E-13
 -1      2225 2.01389E+01 5.09619E-01 3.92485E-03 6.69980E-01 2.32054E-13 6.37810E-14
 -1      2226 2.04041E+01 7.02162E-01 2.08234E-02 9.62916E-01 2.46770E-13 9.20362E-14
 -1      2227 1.95744E+01 3.53244E+00-1.11583E-02-5.85859E-01-7.12715E-14-3.60764E-13
 -1      2228 1.96094E+01 3.48553E+00-1.03831E-02-7.68998E-01-1.11808E-13-3.65378E-13
 -1      2229 1.96550E+01 3.39547E+00-1.27436E-02-9.32377E-01-1.45013E-13-3.59199E-13
 -1      2230 1.97151E+01 3.31301E+00-1.25625E-02-1.12100E+00-1.79213E-13-3.41237E-13
 -1      2231 1.97992E+01 3.05109E+00 3.09337E-04-7.83503E-01-1.16180E-13-3.27604E-13
 -1      2232 1.95277E+01 3.61739E+00-9.65012E-03 9.85932E-02 2.79076E-14-4.11240E-13
 -1      2233 1.95271E+01 3.61823E+00-9.64804E-03-7.93080E-02-4.05906E-15-4.03232E-13
 -1      2234 1.95536E+01 3.57685E+00-9.71901E-03 4.41333E-01 7.66139E-14-4.10901E-13
 -1      2235 1.95363E+01 3.60004E+00-1.01978E-02 2.61960E-01 4.54157E-14-4.17789E-13
 -1      2236 1.96926E+01 3.24439E+00-7.38666E-04 1.67429E-01 3.89418E-14-3.90971E-13
 -1      2237 1.96146E+01 3.47779E+00-1.05785E-02 7.82683E-01 1.22791E-13-3.85057E-13
 -1      2238 1.95788E+01 3.52590E+00-1.12899E-02 6.02351E-01 8.99396E-14-3.98158E-13
 -1      2239 1.97292E+01 3.17901E+00-3.46026E-04 4.82080E-01 7.50664E-14-3.80265E-13
 -1      2240 1.97232E+01 3.30045E+00-1.28929E-02 1.13439E+00 1.84438E-13-3.33842E-13
 -1      2241 1.96617E+01 3.38524E+00-1.29694E-02 9.45772E-01 1.51136E-13-3.62853E-13
 -1      2242 1.98054E+01 3.04190E+00 3.74028E-04 7.94891E-01 1.29609E-13-3.47195E-13
 -1      2243 1.98984E+01 3.01081E+00-1.80969E-02 1.48112E+00 2.40675E-13-2.61283E-13
 -1      2244 1.98012E+01 3.15365E+00-1.52609E-02 1.29080E+00 1.99586E-13-3.07774E-13
 -1      2245 1.99326E+01 2.81224E+00 2.00365E-03 1.09962E+00 1.75770E-13-2.99119E-13
 -1      2246 2.01700E+01 2.54751E+00-2.83488E-02 1.78632E+00 2.93992E-13-1.63442E-13
 -1      2247 2.00226E+01 2.78830E+00-1.71259E-02 1.61151E+00 2.58112E-13-2.18525E-13
 -1      2248 2.01231E+01 2.45693E+00 5.88789E-03 1.36556E+00 2.35747E-13-2.17560E-13
 -1      2249 1.98686E+01 2.73800E-01 5.00990E-03 2.72736E-01 1.85211E-13 2.63257E-14
 -1      2250 2.00253E+01 3.72245E-01 2.02225E-02 4.32252E-01 2.19580E-13 7.02320E-14
 -1      2251 2.02078E+01 6.39890E-01-2.38984E-03 6.93062E-01 2.42984E-13-2.10825E-14
 -1      2252 2.03952E+01 8.58937E-01 1.29992E-02-9.91728E-01-2.34711E-13-9.54922E-15
 -1      2253 2.01874E+01 6.33520E-01-3.78836E-03-6.79750E-01-2.13132E-13-2.85314E-14
 -1      2254 2.01240E+01 4.76105E-01 1.61410E-02-4.61302E-01-1.87230E-13-1.92211E-14
 -1      2255 1.99872E+01 3.53329E-01 3.55654E-04-2.86464E-01-1.55394E-13-3.62222E-14
 -1      2256 2.02467E+01 7.53693E-01-1.87121E-03-6.79189E-01-2.12329E-13-8.10433E-14
 -1      2257 1.99275E+01 2.70448E-01 1.08950E-02-1.44213E-01-1.45604E-13-3.50991E-14
 -1      2258 1.98551E+01 2.01589E-01 1.14176E-03-4.21102E-02-1.27256E-13-5.63632E-14
 -1      2259 2.00885E+01 4.29816E-01-3.89475E-03-2.87013E-01-1.63864E-13-1.04636E-13
 -1      2260 1.98158E+01 1.54787E-01 6.41116E-03 4.67759E-02-9.30287E-14-6.00659E-14
 -1      2261 1.97899E+01 1.15842E-01 1.31769E-03 1.07172E-01-6.78757E-14-4.80077E-14
 -1      2262 1.99771E+01 2.47269E-01-3.91103E-03-3.57353E-02-1.23939E-13-1.10624E-13
 -1      2263 1.97711E+01 8.93382E-02 3.61740E-03 1.62454E-01-7.17612E-14-6.42149E-14
 -1      2264 1.97768E+01 6.81227E-02 1.43168E-03 1.98867E-01-6.20589E-14-7.40232E-14
 -1      2265 1.99142E+01 1.43460E-01-3.25654E-03 1.22549E-01-8.55200E-14-1.10953E-13
 -1      2266 1.97747E+01 5.41761E-02 1.90618E-03 2.34159E-01-8.47126E-14-8.92769E-14
 -1      2267 1.98018E+01 4.43809E-02 1.56761E-03 2.57632E-01-8.06703E-14-1.13604E-13
 -1      2268 1.98921E+01 8.61809E-02-2.52902E-03 2.22900E-01-9.19211E-14-1.35435E-13
 -1      2269 1.98127E+01 3.88264E-02 8.53644E-04 2.82425E-01-5.82633E-14-1.20820E-13
 -1      2270 1.98553E+01 3.68856E-02 1.75870E-03 3.00283E-01-5.76916E-14-1.17882E-13
 -1      2271 1.99015E+01 5.87642E-02-1.93637E-03 2.89949E-01-7.36021E-14-1.81139E-13
 -1      2272 1.98763E+01 3.72779E-02 2.09807E-04 3.21328E-01-1.13551E-13-1.02688E-13
 -1      2273 1.99312E+01 4.10122E-02 2.02035E-03 3.38695E-01-1.39534E-13-9.75493E-14
 -1      2274 1.99352E+01 5.17533E-02-1.52223E-03 3.41058E-01-7.73917E-14-1.83215E-13
 -1      2275 1.99606E+01 4.57626E-02-1.70249E-04 3.60920E-01-1.08959E-13-7.66582E-14
 -1      2276 2.00267E+01 5.36836E-02 2.35113E-03 3.81499E-01-6.69172E-14-6.88875E-14
 -1      2277 1.99883E+01 5.93746E-02-1.26587E-03 3.88746E-01-1.11461E-13-1.13603E-13
 -1      2278 2.00639E+01 6.15974E-02-3.75540E-04 4.08518E-01-6.89273E-14-6.01186E-14
 -1      2279 2.01414E+01 7.24895E-02 2.73174E-03 4.34948E-01-6.45456E-14-8.29935E-14
 -1      2280 2.00582E+01 7.76711E-02-1.13161E-03 4.42169E-01-8.37454E-14-7.69357E-14
 -1      2281 2.01864E+01 8.24493E-02-4.60893E-04 4.69295E-01-5.25345E-14-8.89279E-14
 -1      2282 2.02768E+01 9.50327E-02 3.12153E-03 5.03249E-01-1.75025E-14-8.46972E-14
 -1      2283 2.01442E+01 1.03395E-01-1.08669E-03 5.07903E-01-7.28039E-14-5.83763E-14
 -1      2284 2.03303E+01 1.05696E-01-4.54078E-04 5.46384E-01 5.30083E-15-1.15771E-13
 -1      2285 2.04354E+01 1.18264E-01 3.45028E-03 5.88416E-01 4.08989E-14-9.20594E-14
 -1      2286 2.02467E+01 1.33133E-01-1.10880E-03 5.90224E-01-8.05408E-15-5.49478E-14
 -1      2287 2.04988E+01 1.27702E-01-3.54890E-04 6.40492E-01 5.33899E-15-1.26665E-13
 -1      2288 2.06205E+01 1.37659E-01 3.60595E-03 6.89625E-01-4.50779E-15-1.23868E-13
 -1      2289 2.03679E+01 1.62383E-01-1.19333E-03 6.90892E-01-3.58643E-15-1.01505E-13
 -1      2290 2.06959E+01 1.42885E-01-1.28427E-04 7.48976E-01 3.94660E-15-1.37186E-13
 -1      2291 2.08355E+01 1.46165E-01 3.41998E-03 8.01959E-01 3.73941E-16-1.21805E-13
 -1      2292 2.05105E+01 1.84412E-01-1.36466E-03 8.08439E-01 5.88746E-15-9.35238E-14
 -1      2293 2.09265E+01 1.42560E-01 3.05421E-04 8.64239E-01 1.16811E-14-8.70245E-14
 -1      2294 2.10844E+01 1.32966E-01 2.65405E-03 9.14445E-01 3.77123E-14-1.06650E-13
 -1      2295 2.06795E+01 1.88832E-01-1.69324E-03 9.36834E-01-2.51586E-14-1.02217E-13
 -1      2296 2.11964E+01 1.13730E-01 1.07876E-03 9.71360E-01 3.98268E-14-7.91043E-14
 -1      2297 2.13712E+01 8.24628E-02 9.96681E-04 1.00737E+00-8.12718E-15-8.12287E-14
 -1      2298 2.08818E+01 1.60049E-01-2.31336E-03 1.06343E+00 3.92310E-14-9.58103E-14
 -1      2299 2.15126E+01 3.85149E-02 2.35752E-03 1.04500E+00-7.24139E-14-1.19838E-13
 -1      2300 2.17003E+01-2.53515E-02-1.90366E-03 1.04923E+00-4.84415E-14-1.21034E-13
 -1      2301 2.11291E+01 7.63093E-02-3.42214E-03 1.16613E+00-4.25299E-14-9.89454E-14
 -1      2302 2.18831E+01-1.03992E-01 4.26325E-03 1.04619E+00-3.40917E-15-1.15448E-13
 -1      2303 2.20761E+01-2.10507E-01-6.31371E-03 9.94559E-01 2.16533E-14-1.22254E-13
 -1      2304 2.14384E+01-8.87801E-02-5.20206E-03 1.21000E+00-5.73909E-14-8.43395E-14
 -1      2305 2.23138E+01-3.29893E-01 6.63484E-03 9.21064E-01 2.44104E-14-1.50523E-13
 -1      2306 2.24984E+01-4.80101E-01-1.21356E-02 7.85758E-01 8.27897E-15-1.83016E-13
 -1      2307 2.18329E+01-3.58252E-01-7.56873E-03 1.14425E+00-2.53306E-14-1.70523E-13
 -1      2308 2.27992E+01-6.31693E-01 8.52461E-03 6.06246E-01 2.64109E-14-1.75586E-13
 -1      2309 2.29529E+01-8.01444E-01-1.79068E-02 3.65122E-01 6.99566E-14-1.90685E-13
 -1      2310 2.23347E+01-7.31037E-01-9.72785E-03 9.02928E-01-1.28114E-14-2.18229E-13
 -1      2311 2.33017E+01-9.43411E-01 8.57299E-03 5.04405E-02 9.39561E-14-2.04678E-13
 -1      2312 2.33911E+01-1.06211E+00-1.98809E-02-2.91327E-01 1.19816E-13-1.61568E-13
 -1      2313 2.29462E+01-1.14316E+00-9.00205E-03 4.17007E-01 7.61773E-14-7.33252E-14
 -1      2314 2.37182E+01-1.10344E+00 1.11270E-03-7.28110E-01 1.03423E-13-1.03958E-13
 -1      2315 2.37079E+01-1.05075E+00-1.45177E-02-1.10448E+00 1.10238E-13-8.84612E-14
 -1      2316 2.36053E+01-1.40755E+00-5.81364E-04-3.46663E-01 1.54242E-13-1.69925E-13
 -1      2317 2.38974E+01-8.73367E-01-1.45935E-02-1.55632E+00 9.79594E-14-1.07431E-13
 -1      2318 2.37685E+01-5.31532E-01 1.88971E-03-1.82208E+00 1.61776E-13-5.15568E-14
 -1      2319 2.41448E+01-1.25585E+00 3.83583E-03-1.27886E+00 1.12211E-13-1.06363E-13
 -1      2320 2.36916E+01-6.81033E-02-3.51105E-02-2.04097E+00 1.09014E-13-1.05886E-13
 -1      2321 2.34959E+01 5.16059E-01 1.93708E-02-1.99088E+00 1.28040E-14-4.25914E-14
 -1      2322 2.43347E+01-3.76621E-01 1.16559E-02-2.04782E+00 7.10118E-14-7.92205E-14
 -1      2323 2.32186E+01 1.09700E+00-4.11468E-02-1.72421E+00-1.46601E-14-9.22110E-14
 -1      2324 2.30564E+01 1.61636E+00 1.54184E-02-1.26455E+00-4.86972E-14-3.40578E-14
 -1      2325 2.40772E+01 1.04567E+00-6.88154E-03-2.07531E+00-3.62731E-15-2.03663E-13
 -1      2326 2.28703E+01 1.93408E+00-1.98238E-02-5.17850E-01-2.37518E-14-1.73368E-14
 -1      2327 2.28512E+01 1.99862E+00-1.24840E-02 1.69642E-01 1.66187E-14-2.51357E-14
 -1      2328 2.36730E+01 2.28018E+00-3.36692E-02-1.02275E+00-3.91076E-14-1.26755E-13
 -1      2329 2.29739E+01 1.79058E+00 9.86151E-03 9.77896E-01 3.69982E-14-4.54502E-14
 -1      2330 2.31124E+01 1.34719E+00-3.89231E-02 1.51620E+00 2.59098E-14-1.02554E-13
 -1      2331 2.36163E+01 2.43029E+00-3.83520E-02 6.59594E-01 9.04832E-15-1.62412E-13
 -1      2332 2.33984E+01 7.89284E-01 2.03192E-02 1.90878E+00-1.66160E-13-1.84992E-13
 -1      2333 2.35977E+01 1.83745E-01-3.89570E-02 2.05208E+00-3.08440E-13-2.52753E-13
 -1      2334 2.39795E+01 1.37801E+00-1.49970E-02 1.92909E+00-1.52458E-13-1.70631E-13
 -1      2335 2.37347E+01-3.26338E-01 7.12448E-03 1.92447E+00-3.04215E-13-1.75202E-13
 -1      2336 2.38829E+01-7.35977E-01-1.97531E-02 1.71755E+00-2.07345E-13-1.09867E-13
 -1      2337 2.43132E+01-7.81475E-02 1.07085E-02 2.13980E+00-2.67962E-13-1.18548E-13
 -1      2338 2.37536E+01-9.81512E-01-1.13206E-02 1.29501E+00-2.49354E-13-9.08310E-14
 -1      2339 2.37912E+01-1.09395E+00-2.18566E-03 9.27699E-01-2.38114E-13-2.76155E-14
 -1      2340 2.42321E+01-1.10472E+00 1.13906E-02 1.49429E+00-2.27054E-13-1.13548E-13
 -1      2341 2.34832E+01-1.09124E+00-2.03537E-02 4.73348E-01-1.84183E-13-3.87881E-14
 -1      2342 2.34145E+01-9.99010E-01 6.89548E-03 1.15776E-01-5.10776E-14-7.83336E-15
 -1      2343 2.37517E+01-1.42206E+00-9.19543E-04 5.56281E-01-1.72456E-13-9.72432E-14
 -1      2344 2.30634E+01-8.69060E-01-1.91065E-02-2.28918E-01 4.86972E-14 1.08377E-13
 -1      2345 2.29228E+01-7.01901E-01 8.90486E-03-4.93433E-01 6.27332E-14 1.36850E-13
 -1      2346 2.31018E+01-1.22136E+00-8.39361E-03-2.59379E-01 7.42882E-14 7.48010E-14
 -1      2347 2.26098E+01-5.46629E-01-1.34646E-02-7.00002E-01 1.48033E-14 1.97462E-13
 -1      2348 2.24324E+01-3.87751E-01 7.38232E-03-8.56067E-01 5.07662E-14 2.11909E-13
 -1      2349 2.24734E+01-8.19794E-01-9.78686E-03-8.04989E-01 5.02463E-14 2.92685E-13
 -1      2350 2.21822E+01-2.58671E-01-7.50388E-03-9.48016E-01 7.38929E-14 2.67473E-13
 -1      2351 2.19932E+01-1.40729E-01 4.99001E-03-1.01372E+00 1.53742E-13 3.47983E-13
 -1      2352 2.19484E+01-4.27326E-01-8.11738E-03-1.09179E+00 1.44398E-13 5.58054E-13
 -1      2353 2.18014E+01-5.20798E-02-2.76522E-03-1.02660E+00 1.17620E-13 3.52068E-13
 -1      2354 2.16162E+01 2.19671E-02 2.99443E-03-1.02945E+00 1.20118E-13 3.23240E-13
 -1      2355 2.15354E+01-1.30306E-01-5.77915E-03-1.18514E+00 1.15243E-13 4.32008E-13
 -1      2356 2.14696E+01 7.40837E-02 4.58729E-04-9.94703E-01 1.12997E-13 1.21550E-13
 -1      2357 2.12976E+01 1.13189E-01 1.63580E-03-9.59937E-01 1.16645E-13-1.03250E-13
 -1      2358 2.12145E+01 5.98820E-02-3.86895E-03-1.15323E+00 7.05502E-14 2.40581E-13
 -1      2359 2.11836E+01 1.38483E-01 2.36270E-03-9.00707E-01 1.93936E-13-9.88082E-14
 -1      2360 2.10296E+01 1.53793E-01 8.28447E-04-8.47288E-01 8.16822E-14-4.78222E-14
 -1      2361 2.09622E+01 1.63211E-01-2.63501E-03-1.05034E+00 6.46141E-14 9.93759E-14
 -1      2362 2.09391E+01 1.61762E-01 3.29444E-03-7.78900E-01 2.81513E-15 8.51610E-14
 -1      2363 2.08053E+01 1.62657E-01 4.02544E-04-7.19407E-01 1.98047E-14 6.40288E-14
 -1      2364 2.07599E+01 2.06385E-01-1.92617E-03-9.14534E-01 1.11602E-13 1.02441E-13
 -1      2365 2.07324E+01 1.60629E-01 3.57552E-03-6.51168E-01-1.19403E-15 2.19136E-13
 -1      2366 2.06192E+01 1.53852E-01 2.09572E-04-5.93080E-01 2.59072E-14 3.45775E-13
 -1      2367 2.05952E+01 2.12475E-01-1.53699E-03-7.70274E-01 1.57459E-13 3.44026E-13
 -1      2368 2.05599E+01 1.46862E-01 3.45775E-03-5.30055E-01-4.09788E-14 4.31422E-13
 -1      2369 2.04662E+01 1.36851E-01 1.49835E-04-4.77223E-01 1.24170E-14 4.08295E-13
 -1      2370 2.04602E+01 1.98359E-01-1.31047E-03-6.31945E-01 1.57153E-14 5.43006E-13
 -1      2371 2.04181E+01 1.28122E-01 3.11914E-03-4.21652E-01 8.83048E-14 3.46530E-13
 -1      2372 2.03421E+01 1.17626E-01 1.61148E-04-3.75535E-01 2.07954E-13 2.74867E-13
 -1      2373 2.03496E+01 1.75301E-01-1.15095E-03-5.06934E-01 1.97866E-14 4.38367E-13
 -1      2374 2.03031E+01 1.09135E-01 2.67353E-03-3.27890E-01 1.53148E-13 2.35497E-13
 -1      2375 2.02428E+01 9.98395E-02 2.14853E-04-2.88469E-01 9.08862E-14 3.13045E-13
 -1      2376 2.02594E+01 1.50357E-01-1.01345E-03-3.98017E-01 1.89646E-13 3.45994E-13
 -1      2377 2.02112E+01 9.27940E-02 2.19010E-03-2.48045E-01 9.35353E-14 2.91269E-13
 -1      2378 2.01645E+01 8.55302E-02 2.78839E-04-2.14416E-01-3.66745E-14 4.04070E-13
 -1      2379 2.01862E+01 1.27871E-01-8.74184E-04-3.05058E-01 1.12034E-13 3.57071E-13
 -1      2380 2.01388E+01 8.01158E-02 1.67480E-03-1.80027E-01-1.81474E-13 5.33553E-13
 -1      2381 2.01040E+01 7.54039E-02 5.73721E-04-1.51203E-01-2.79454E-13 5.62338E-13
 -1      2382 2.01272E+01 1.09967E-01-7.04510E-04-2.26055E-01-7.34510E-14 4.36077E-13
 -1      2383 1.96458E+01 8.51981E-02 2.62486E-03-9.71967E-02 7.35564E-14-7.87877E-14
 -1      2384 1.96643E+01 1.14695E-01 7.03659E-03-4.56344E-02 1.01533E-13-3.88736E-14
 -1      2385 1.96433E+01 4.85285E-02 2.09728E-03-1.78505E-01 4.13788E-14-1.13084E-13
 -1      2386 1.96274E+01 6.45768E-02 3.86061E-03-1.48345E-01 5.55297E-14-9.54957E-14
 -1      2387 1.97961E+01 1.09278E-01-3.52064E-03-1.14758E-01 8.84712E-14-1.15526E-13
 -1      2388 1.96849E+01 3.00585E-02 1.88526E-03-2.28433E-01 4.63200E-14-8.45611E-14
 -1      2389 1.96466E+01 3.76757E-02 2.05677E-03-2.09705E-01 4.34143E-14-1.02980E-13
 -1      2390 1.97816E+01 6.29910E-02-2.72469E-03-2.07615E-01 6.08537E-14-1.20597E-13
 -1      2391 1.97577E+01 2.36294E-02 1.87389E-03-2.62914E-01 5.49284E-14-4.27287E-14
 -1      2392 1.97041E+01 2.55476E-02 1.02883E-03-2.49195E-01 4.68423E-14-5.47180E-14
 -1      2393 1.98053E+01 4.05580E-02-2.06953E-03-2.67225E-01 2.97884E-14-1.24259E-13
 -1      2394 1.98545E+01 2.57010E-02 2.01702E-03-2.92911E-01 3.85536E-14-2.21290E-14
 -1      2395 1.97889E+01 2.35367E-02 4.55776E-04-2.79768E-01 7.61930E-14-2.16570E-14
 -1      2396 1.98570E+01 3.40233E-02-1.62670E-03-3.10781E-01 6.08296E-14-8.55579E-14
 -1      2397 1.99723E+01 3.39982E-02 2.28561E-03-3.26282E-01 7.03197E-14-6.92675E-14
 -1      2398 1.98957E+01 2.88229E-02 1.68841E-04-3.10518E-01 4.34546E-14-4.53173E-14
 -1      2399 1.99309E+01 3.87304E-02-1.37293E-03-3.50365E-01 6.26105E-14-6.25847E-14
 -1      2400 2.01111E+01 4.68044E-02 2.64589E-03-3.68714E-01 1.57082E-13-1.17183E-13
 -1      2401 2.00226E+01 3.94642E-02 6.78445E-05-3.48020E-01 1.19454E-13-1.10933E-13
 -1      2402 2.00239E+01 5.16088E-02-1.26584E-03-3.94688E-01 1.21612E-13-1.41284E-13
 -1      2403 2.02731E+01 6.24742E-02 3.04792E-03-4.24088E-01 2.09988E-13-1.20596E-13
 -1      2404 2.01709E+01 5.38335E-02 8.70864E-05-3.96943E-01 1.98738E-13-8.65070E-14
 -1      2405 2.01356E+01 7.02360E-02-1.26543E-03-4.49990E-01 1.75413E-13-1.22710E-13
 -1      2406 2.04620E+01 7.89603E-02 3.41315E-03-4.94388E-01 1.49075E-13-9.99631E-14
 -1      2407 2.03435E+01 7.01557E-02 1.81222E-04-4.60179E-01 1.92797E-13-7.76814E-14
 -1      2408 2.02674E+01 9.21484E-02-1.33962E-03-5.20352E-01 1.62703E-13 3.34275E-15
 -1      2409 2.06817E+01 9.32427E-02 3.61880E-03-5.79135E-01 4.98893E-14-7.70832E-14
 -1      2410 2.05445E+01 8.60003E-02 3.19986E-04-5.38510E-01 1.22921E-13-4.45953E-14
 -1      2411 2.04218E+01 1.14145E-01-1.46748E-03-6.07516E-01 1.04197E-13 2.85626E-14
 -1      2412 2.09360E+01 1.00595E-01 3.48027E-03-6.74256E-01 1.24482E-14-4.90910E-14
 -1      2413 2.07783E+01 9.76371E-02 4.88357E-04-6.29773E-01 2.69446E-15-5.28348E-14
 -1      2414 2.06022E+01 1.31443E-01-1.64454E-03-7.10175E-01 4.47070E-14 9.17632E-14
 -1      2415 2.12272E+01 9.37146E-02 2.73827E-03-7.70278E-01 2.30616E-14-6.61663E-14
 -1      2416 2.10492E+01 9.92246E-02 6.91084E-04-7.27391E-01 4.84861E-14-1.89071E-14
 -1      2417 2.08127E+01 1.36620E-01-1.89016E-03-8.22635E-01-7.77855E-15 1.47134E-13
 -1      2418 2.15551E+01 6.19530E-02 1.06309E-03-8.49850E-01-1.71342E-14-1.45491E-14
 -1      2419 2.13598E+01 8.19370E-02 9.58390E-04-8.18204E-01 1.01040E-14-4.68213E-14
 -1      2420 2.10577E+01 1.18454E-01-2.25557E-03-9.32788E-01 2.68837E-14 1.38197E-13
 -1      2421 2.19156E+01-8.60022E-03-1.89594E-03-8.84964E-01-4.69896E-14-3.15227E-14
 -1      2422 2.17109E+01 3.34565E-02 1.34526E-03-8.79683E-01-3.48774E-14 1.35401E-14
 -1      2423 2.13430E+01 6.11292E-02-2.82329E-03-1.01939E+00-6.74302E-14 9.81428E-14
 -1      2424 2.22989E+01-1.32388E-01-6.35034E-03-8.35073E-01-3.57299E-14-5.90313E-14
 -1      2425 2.20988E+01-6.10067E-02 1.89440E-03-8.77181E-01-7.13867E-14-3.61297E-14
 -1      2426 2.16749E+01-5.48471E-02-3.65696E-03-1.04908E+00-5.87885E-14 4.15298E-15
 -1      2427 2.26864E+01-3.15747E-01-1.20059E-02-6.49260E-01-3.61243E-14-1.29838E-14
 -1      2428 2.25131E+01-2.13645E-01 2.52450E-03-7.63209E-01 6.06373E-15-2.04374E-14
 -1      2429 2.20602E+01-2.47021E-01-4.62259E-03-9.74432E-01-4.88204E-14-7.25120E-15
 -1      2430 2.30449E+01-5.38948E-01-1.74351E-02-2.78534E-01-9.27036E-15-4.18544E-14
 -1      2431 2.29287E+01-4.21237E-01 2.80410E-03-4.83547E-01-1.97017E-14-6.83054E-14
 -1      2432 2.25004E+01-5.15973E-01-5.04242E-03-7.36670E-01 1.14509E-14-1.25822E-16
 -1      2433 2.33194E+01-7.30333E-01-1.94976E-02 2.93685E-01-1.54775E-13 1.27330E-13
 -1      2434 2.32958E+01-6.42489E-01 1.74051E-03 1.70050E-03-4.58223E-14 5.50523E-14
 -1      2435 2.29782E+01-8.17736E-01-3.37867E-03-2.80647E-01-8.89972E-14 7.38073E-14
 -1      2436 2.34294E+01-7.51618E-01-1.42205E-02 9.97357E-01-2.62693E-13 1.68526E-13
 -1      2437 2.35270E+01-7.72827E-01-2.63381E-03 6.72216E-01-1.99057E-13 1.83705E-13
 -1      2438 2.34331E+01-1.02831E+00 2.37699E-03 4.06557E-01-2.00697E-13 1.86422E-13
 -1      2439 2.32916E+01-4.41810E-01 9.38628E-05 1.61872E+00-1.75016E-13 1.49436E-13
 -1      2440 2.35095E+01-6.50232E-01-1.15852E-02 1.38140E+00-2.57678E-13 1.41643E-13
 -1      2441 2.37416E+01-9.43528E-01 1.06888E-02 1.22525E+00-2.46672E-13 2.11406E-13
 -1      2442 2.28943E+01 2.34100E-01 1.70463E-02 1.81181E+00-2.20587E-14 6.54104E-14
 -1      2443 2.31766E+01-1.48030E-01-2.06944E-02 1.82051E+00-5.74733E-14 4.62781E-14
 -1      2444 2.37507E+01-3.79051E-01 1.36733E-02 1.88753E+00-6.89830E-14 7.02200E-14
 -1      2445 2.23998E+01 1.01025E+00 2.10946E-02 1.28425E+00 1.08058E-13 2.23328E-14
 -1      2446 2.26324E+01 6.36432E-01-2.12733E-02 1.62686E+00-2.96950E-14 7.32400E-15
 -1      2447 2.34186E+01 6.11167E-01 3.19321E-03 1.95863E+00 3.56937E-14-5.00184E-14
 -1      2448 2.21306E+01 1.39652E+00 5.63902E-03 1.28858E-01 2.00950E-13-3.81377E-14
 -1      2449 2.22009E+01 1.28252E+00-6.22997E-03 6.94622E-01 2.02756E-13 4.23151E-14
 -1      2450 2.29819E+01 1.55317E+00-1.88499E-02 1.15273E+00 1.95208E-13-1.91833E-13
 -1      2451 2.23175E+01 1.09552E+00-1.63005E-02-1.10358E+00 2.90681E-13 7.93558E-14
 -1      2452 2.21847E+01 1.33308E+00 1.38637E-02-5.93547E-01 1.62845E-13 9.35463E-14
 -1      2453 2.28354E+01 1.84160E+00-2.74560E-02-2.71495E-01 1.78236E-13-6.61740E-14
 -1      2454 2.28368E+01 3.41237E-01-2.41481E-02-1.78426E+00 3.05430E-13 1.47890E-13
 -1      2455 2.25737E+01 7.45481E-01 2.05074E-02-1.56416E+00 3.79006E-13 1.05218E-13
 -1      2456 2.31277E+01 1.25410E+00-1.39998E-02-1.54351E+00 2.78770E-13 3.53589E-14
 -1      2457 2.33348E+01-3.68511E-01-1.62912E-02-1.72023E+00 3.55597E-13-1.02635E-13
 -1      2458 2.30617E+01-4.26538E-02 1.03557E-02-1.81376E+00 4.09815E-13 8.53258E-14
 -1      2459 2.35694E+01 2.23413E-01 6.72133E-03-2.02826E+00 4.10990E-13-9.30107E-14
 -1      2460 2.35580E+01-7.29442E-01-5.67687E-03-1.14261E+00 3.77706E-14-1.53032E-13
 -1      2461 2.33743E+01-5.99098E-01-6.63608E-03-1.42292E+00 1.11518E-13-1.62883E-13
 -1      2462 2.37905E+01-6.41084E-01 1.37318E-02-1.69461E+00 2.42972E-13-1.48209E-13
 -1      2463 2.34733E+01-7.40509E-01 1.05080E-03-4.21747E-01-1.44012E-13 1.49429E-13
 -1      2464 2.34163E+01-7.71803E-01-1.75183E-02-7.36307E-01-2.85726E-14 4.68594E-14
 -1      2465 2.36591E+01-1.02498E+00 5.85065E-03-9.29995E-01-5.58323E-14-2.30907E-14
 -1      2466 2.31824E+01-5.61435E-01 3.50127E-03 1.88601E-01-1.50613E-13 1.13612E-13
 -1      2467 2.32395E+01-6.67119E-01-1.88560E-02-6.68043E-02-1.14394E-13 2.00175E-13
 -1      2468 2.32811E+01-9.73412E-01-1.48323E-03-1.39511E-01-1.43583E-13 2.98113E-13
 -1      2469 2.27931E+01-3.37449E-01 3.30616E-03 5.95475E-01-8.55540E-14 1.91856E-14
 -1      2470 2.29307E+01-4.51093E-01-1.48386E-02 4.30398E-01-1.27095E-13 2.98938E-14
 -1      2471 2.28105E+01-7.07865E-01-5.05429E-03 4.64267E-01-1.45143E-13 2.86046E-13
 -1      2472 2.23788E+01-1.47237E-01 2.42925E-03 8.06329E-01 2.70227E-15 2.18928E-13
 -1      2473 2.25615E+01-2.37292E-01-9.24950E-03 7.24744E-01 2.72915E-14 1.07874E-13
 -1      2474 2.23466E+01-4.06771E-01-5.46268E-03 8.32392E-01-4.44642E-14 1.12429E-13
 -1      2475 2.19796E+01-1.53231E-02 1.64515E-03 8.69323E-01-9.60141E-14 4.10592E-13
 -1      2476 2.21791E+01-7.47223E-02-4.20667E-03 8.49436E-01-2.80226E-14 2.50445E-13
 -1      2477 2.19311E+01-1.61267E-01-4.47776E-03 9.98822E-01-7.66773E-14 1.31092E-13
 -1      2478 2.16143E+01 6.25217E-02 1.14645E-03 8.37343E-01-4.33325E-14 1.62417E-13
 -1      2479 2.18110E+01 2.93038E-02-5.17126E-04 8.56304E-01 1.17013E-14 3.11064E-13
 -1      2480 2.15727E+01 4.51473E-03-3.35078E-03 1.02254E+00 4.90805E-14 2.84997E-13
 -1      2481 2.12913E+01 1.00225E-01 8.82980E-04 7.53281E-01-2.02650E-13 1.09182E-13
 -1      2482 2.14729E+01 8.55817E-02 1.80209E-03 7.92871E-01-1.42959E-13 1.35604E-13
 -1      2483 2.12674E+01 9.97639E-02-2.51864E-03 9.58757E-01-2.52964E-14 2.82186E-13
 -1      2484 2.10126E+01 1.11910E-01 7.57647E-04 6.47037E-01-7.84369E-14 1.28717E-13
 -1      2485 2.11728E+01 1.08890E-01 3.02815E-03 6.94746E-01-2.00841E-13 9.24663E-14
 -1      2486 2.10089E+01 1.43857E-01-2.00210E-03 8.49526E-01-2.19621E-13 1.04915E-13
 -1      2487 2.07774E+01 1.08609E-01 6.99513E-04 5.37263E-01-2.13132E-15 1.70694E-13
 -1      2488 2.09139E+01 1.12020E-01 3.49124E-03 5.85447E-01 1.12182E-13 2.00367E-13
 -1      2489 2.07912E+01 1.55344E-01-1.69583E-03 7.23276E-01-3.55383E-14 1.24678E-13
 -1      2490 2.05828E+01 9.79377E-02 6.71431E-04 4.34297E-01-4.96507E-14 6.45009E-14
 -1      2491 2.06959E+01 1.04287E-01 3.47509E-03 4.78870E-01-8.14868E-14 7.85416E-14
 -1      2492 2.06096E+01 1.48416E-01-1.49641E-03 5.97387E-01 3.00933E-14 1.62678E-13
 -1      2493 2.04247E+01 8.47854E-02 6.59963E-04 3.42850E-01 7.86667E-14 2.08194E-13
 -1      2494 2.05161E+01 9.18647E-02 3.19014E-03 3.82103E-01 6.03231E-14 1.41170E-13
 -1      2495 2.04598E+01 1.32760E-01-1.33992E-03 4.81257E-01-3.34360E-14-1.59963E-14
 -1      2496 2.02988E+01 7.21532E-02 6.58761E-04 2.64030E-01 2.08771E-13 2.09721E-13
 -1      2497 2.03709E+01 7.86228E-02 2.77571E-03 2.97763E-01 9.93534E-14 2.97979E-13
 -1      2498 2.03380E+01 1.14576E-01-1.19026E-03 3.78915E-01-1.58346E-14 7.71802E-14
 -1      2499 2.02005E+01 6.18273E-02 6.92672E-04 1.96801E-01 1.40150E-13 2.28880E-13
 -1      2500 2.02559E+01 6.69073E-02 2.32240E-03 2.25702E-01 1.68166E-13 3.68851E-13
 -1      2501 2.02402E+01 9.76077E-02-1.03295E-03 2.90975E-01 1.21639E-13 3.46850E-13
 -1      2502 2.01251E+01 5.43466E-02 6.44934E-04 1.38852E-01 1.49675E-13 3.90452E-13
 -1      2503 2.01664E+01 5.79869E-02 1.86311E-03 1.64062E-01 2.04006E-13 3.31469E-13
 -1      2504 2.01625E+01 8.39725E-02-9.09876E-04 2.16232E-01 1.08980E-13 6.50269E-13
 -1      2505 2.00687E+01 4.92329E-02 6.03220E-04 8.86258E-02-2.27724E-13 3.65055E-13
 -1      2506 2.00986E+01 5.16965E-02 1.45894E-03 1.10828E-01-8.09458E-14 3.79076E-13
 -1      2507 2.01016E+01 7.33387E-02-1.03393E-03 1.51860E-01 3.30268E-14 7.23000E-13
 -1      2508 2.00473E+01 4.51413E-02 9.14415E-04 6.28188E-02-1.04689E-13 2.90637E-13
 -1      2509 1.99670E+01 2.63068E-01-1.24902E-03 1.27282E-01 7.73156E-14-3.63902E-13
 -1      2510 1.99803E+01 2.39555E-01 4.04499E-04 1.37319E-01 8.14432E-14-6.58863E-13
 -1      2511 1.99462E+01 3.04679E-01-1.28218E-03 9.13655E-02 3.12407E-14-7.36548E-14
 -1      2512 1.99561E+01 2.87158E-01-4.51575E-05 1.09549E-01-1.38962E-14-1.96440E-13
 -1      2513 1.99496E+01 2.87805E-01 8.64065E-04 1.38260E-01 1.42106E-13-3.74793E-13
 -1      2514 2.00218E+01 1.51650E-01-7.88218E-04 1.39866E-01-1.66391E-13-6.33498E-14
 -1      2515 2.00358E+01 1.25034E-01 1.02731E-03 1.31043E-01-8.71777E-14 1.42728E-13
 -1      2516 1.99936E+01 2.09909E-01-1.06114E-03 1.44391E-01-1.98466E-13-6.95673E-13
 -1      2517 2.00083E+01 1.83725E-01 7.93253E-04 1.44748E-01-2.12342E-13-3.10269E-13
 -1      2518 2.00202E+01 1.76653E-01 4.56274E-04 1.68521E-01-1.53520E-13-2.84717E-13
 -1      2519 1.99826E+01 2.36051E-01 5.32751E-04 1.65262E-01 4.07287E-14-6.15244E-13
 -1      2520 1.79495E+01-5.36815E+00-1.61611E-02 6.68990E+00-3.14415E-13 1.08458E-13
 -1      2521 1.45705E+01-5.12715E+00 5.43208E-02 6.65765E+00-5.00600E-13 1.40332E-13
 -1      2522 1.99339E+01 3.29603E-01-1.16061E-03 4.21962E-02-9.02899E-14 1.14504E-13
 -1      2523 1.99391E+01 3.20266E-01-5.05873E-04 6.56978E-02-3.21771E-14-1.00452E-14
 -1      2524 1.99249E+01 3.26016E-01 1.11317E-03 9.14408E-02-3.27269E-14-3.88614E-14
 -1      2525 1.99315E+01 3.34916E-01-8.95758E-04-1.30275E-02-3.07130E-13-4.91498E-14
 -1      2526 1.99314E+01 3.34975E-01-8.93793E-04 1.23101E-02-2.67520E-13 3.68115E-14
 -1      2527 1.99118E+01 3.46211E-01 1.24465E-03 3.17072E-02-1.82241E-13-1.98011E-13
 -1      2528 1.99392E+01 3.19998E-01-5.21796E-04-6.63656E-02-9.83012E-14 7.65976E-14
 -1      2529 1.99340E+01 3.29478E-01-1.15481E-03-4.29058E-02-2.37485E-13 1.13041E-13
 -1      2530 1.99118E+01 3.46143E-01 1.23933E-03-3.25045E-02-1.72420E-13 3.37405E-14
 -1      2531 1.99559E+01 2.87423E-01-6.14839E-05-1.09478E-01 8.27416E-14-2.73042E-13
 -1      2532 1.99462E+01 3.04661E-01-1.28024E-03-9.15963E-02 1.89084E-14-2.66069E-13
 -1      2533 1.99249E+01 3.26072E-01 1.12570E-03-9.17503E-02-4.32863E-14 8.67752E-14
 -1      2534 1.99802E+01 2.39957E-01 4.16418E-04-1.37372E-01 2.55206E-13 3.09589E-13
 -1      2535 1.99669E+01 2.63408E-01-1.25041E-03-1.27287E-01 1.69172E-13-2.67969E-13
 -1      2536 1.99494E+01 2.88201E-01 8.64809E-04-1.38179E-01 2.27622E-13-2.21643E-13
 -1      2537 2.00087E+01 1.83207E-01 7.85602E-04-1.44248E-01 1.75317E-13 4.98733E-13
 -1      2538 1.99942E+01 2.09878E-01-9.71456E-04-1.44557E-01 1.08171E-13 7.06537E-13
 -1      2539 1.99829E+01 2.36164E-01 5.75253E-04-1.65599E-01 2.43504E-13 3.40805E-13
 -1      2540 2.00361E+01 1.23672E-01 8.91831E-04-1.30141E-01-3.18270E-13 5.05933E-14
 -1      2541 2.00224E+01 1.51128E-01-6.52384E-04-1.40281E-01-4.51174E-14 1.79529E-13
 -1      2542 2.00178E+01 1.75554E-01-4.27002E-04-1.68185E-01 2.82695E-14 2.33299E-13
 -1      2543 2.00434E+01 7.21338E-02 8.40619E-04-8.48416E-02-1.28395E-13 2.13292E-13
 -1      2544 2.55708E+01-4.38151E+00-5.56848E-02 3.95249E+00-2.55795E-13 2.57433E-13
 -1      2545 2.16396E+01-5.28819E+00 5.98759E-03 5.36476E+00-3.33122E-13 2.49023E-13
 -1      2546 2.11764E+01-5.27956E+00 8.44424E-02 5.42390E+00-3.32095E-13 3.34004E-13
 -1      2547 1.97122E+01 1.51948E-01 3.66082E-03 3.98978E-02 1.16427E-13-1.65157E-14
 -1      2548 1.97847E+01 2.05087E-01 1.24676E-02 1.29797E-01 1.49090E-13-1.92706E-15
 -1      2549 1.98629E+01 1.94398E-01-4.12237E-03 3.68251E-02 1.49477E-13-8.17764E-14
 -1      2550 4.58550E+00-2.66570E+00 6.80005E-02 3.28045E+00-2.66120E-13-5.10703E-15
 -1      2551 3.71984E+00-2.33218E+00 1.17297E-01 1.17614E+00-1.92117E-13-6.16174E-15
 -1      2552 3.55211E+00-2.46021E+00 9.86660E-02-1.10077E+00-1.85029E-13 2.58349E-13
 -1      2553 4.83260E+00-2.85421E+00 7.90715E-02-3.57572E+00-1.82382E-13 2.81331E-13
 -1      2554 3.06530E+01-4.90021E-01-2.71195E-02 9.38712E-01 1.30226E-13-1.69309E-13
 -1      2555 2.83405E+01-2.55031E+00-3.90827E-02 1.87591E+00-1.95399E-14-2.00395E-14
 -1      2556 1.32539E+01-4.98905E+00 5.49992E-02-6.70042E+00 1.01058E-13 3.44197E-13
 -1      2557 1.72446E+01-5.36027E+00-7.23669E-04-6.77493E+00 6.41709E-14 5.54730E-14
 -1      2558 2.71540E+01-3.87037E+00-1.00110E-01 3.06644E+00-1.93429E-13 7.84650E-14
 -1      2559 2.38028E+01-4.97310E+00 3.86989E-02 4.41057E+00-3.58602E-14-6.47815E-14
 -1      2560 1.28251E+01-4.64106E+00 3.48864E-02 6.87731E+00 9.04277E-14-1.92207E-13
 -1      2561 9.01180E+00-3.94890E+00 1.15476E-01 5.82289E+00 1.52350E-13-1.35669E-13
 -1      2562 3.25925E+01 6.71394E+00-1.51409E-01-7.71541E-01 3.89466E-13-4.93813E-13
 -1      2563 3.27848E+01 5.46248E+00-6.54393E-02-8.67055E-01 3.08920E-13-3.74090E-13
 -1      2564 1.95343E+01 3.60310E+00-1.01464E-02-2.42713E-01-1.64432E-14-4.00117E-13
 -1      2565 1.95501E+01 3.58187E+00-9.63754E-03-4.21951E-01-4.52470E-14-3.77629E-13
 -1      2566 1.97250E+01 3.18471E+00-4.77326E-04-4.67523E-01-5.39915E-14-3.48428E-13
 -1      2567 1.96911E+01 3.24649E+00-7.69326E-04-1.49982E-01-1.33406E-14-3.79781E-13
 -1      2568 3.21745E+01 7.14596E+00-1.30339E-01 5.40610E-01 5.76428E-13-5.92304E-13
 -1      2569 3.22276E+01 7.35161E+00-1.26043E-01-1.47484E-01 5.00378E-13-6.16958E-13
 -1      2570 1.82677E+01-5.47740E+00 2.69342E-02-6.28491E+00-2.27318E-14-3.68414E-13
 -1      2571 2.18765E+01-5.26022E+00-9.09678E-02-5.69603E+00 2.87548E-14-1.28814E-13
 -1      2572 3.24625E+01 3.30999E+00-1.10397E-01-5.93956E-01 2.59681E-13-2.13773E-13
 -1      2573 3.13928E+01 1.38580E+00-8.21665E-02-8.79065E-02 2.26347E-13-2.36644E-13
 -1      2574 3.00516E+01-7.53995E-02-1.38930E-02-7.17182E-01 1.98050E-13-2.31787E-13
 -1      2575 2.98841E+01-8.21960E-01-5.41851E-02-1.41608E-01 1.94150E-14 1.01863E-14
 -1      2576 3.08635E+01 8.41313E-01-1.45465E-01 4.83197E-01 3.28765E-14-5.28466E-14
 -1      2577 3.12762E+01 4.69039E-01-8.65778E-02 2.60093E-01-3.91215E-13-1.67533E-13
 -1      2578 2.93299E+01-1.56263E+00-3.63970E-02 1.06273E+00-2.54696E-13-7.89369E-14
 -1      2579 2.57637E+01-4.22312E+00 2.69253E-02-3.51134E+00 2.08167E-16-9.21763E-14
 -1      2580 2.86303E+01-2.75817E+00-1.17067E-01-1.98722E+00 1.99910E-14-5.03209E-14
 -1      2581 2.86951E+01-2.28569E+00-1.60796E-03-2.84020E-01 4.16646E-14 5.93969E-14
 -1      2582 1.13058E+01-4.79504E+00 6.41309E-02-6.50470E+00-2.12885E-14-5.93581E-13
 -1      2583 1.48293E+01-5.17201E+00 3.64777E-03-6.98755E+00 2.00395E-14-5.37202E-13
 -1      2584 1.79108E+01-5.14040E+00 1.09984E-01-6.34157E+00-3.21687E-14-3.48888E-13
 -1      2585 4.77173E+00-3.48200E+00 6.00519E-02-3.79127E+00-6.73905E-14-6.52811E-13
 -1      2586 7.38615E+00-3.90496E+00 1.86698E-02-5.67850E+00-3.26406E-14-6.22613E-13
 -1      2587 2.74487E+00-3.03008E+00 4.46433E-02 4.62941E-01 8.10393E-14-4.49030E-13
 -1      2588 3.05571E+00-3.04149E+00 4.54407E-02-1.78111E+00 5.63716E-14-5.13201E-13
 -1      2589 5.37208E+00-3.14554E+00 3.64874E-02 4.31505E+00 2.68729E-13-1.28508E-13
 -1      2590 3.71800E+00-3.05059E+00 7.60836E-02 2.30375E+00 2.50772E-13-3.59712E-13
 -1      2591 1.99335E+01-5.42696E+00-5.30856E-02 6.20904E+00 8.13793E-14-2.46598E-13
 -1      2592 1.65907E+01-5.33587E+00 6.07039E-02 6.51355E+00 9.29257E-14-2.19283E-13
 -1      2593 3.07487E+01-1.02525E-02-4.52047E-02-7.48934E-01-1.87010E-13-2.54352E-13
 -1      2594 3.20230E+01 1.76213E+00-1.18296E-01 5.17167E-02-1.96287E-13-2.67786E-13
 -1      2595 3.29030E+01 4.31384E+00-1.01749E-01-7.00046E-01-4.40203E-13-2.43278E-13
 -1      2596 3.18139E+01 2.72464E+00-1.10218E-01-5.65076E-01-4.52638E-13-1.96676E-13
 -1      2597 3.25455E+01 7.00348E+00-1.67764E-01-6.11258E-01-6.22447E-13-8.89011E-14
 -1      2598 3.28974E+01 5.99849E+00-8.40136E-02-7.43493E-01-5.44675E-13-2.07390E-13
 -1      2599 3.07041E+01 4.92515E+00-4.81921E-02-1.58343E+00-3.98404E-13-1.99840E-15
 -1      2600 3.27025E+01 7.17952E+00-1.11467E-01 4.97312E-01-3.44280E-13-2.52076E-13
 -1      2601 3.26526E+01 7.41790E+00-1.37829E-01 3.81705E-02-5.33407E-13-1.53620E-13
 -1      2602 3.22840E+01 4.15974E+00-6.31531E-02 8.54087E-01-3.01675E-13-3.76699E-13
 -1      2603 3.26876E+01 5.91582E+00-1.33180E-01 9.46275E-01-2.86104E-13-3.55743E-13
 -1      2604 2.69716E+01-3.49089E+00-1.89091E-02-3.06716E+00-1.84963E-13-3.73562E-13
 -1      2605 2.95147E+01-1.78877E+00-2.00143E-02-2.08649E+00-1.93165E-13-3.22353E-13
 -1      2606 2.03671E+01-5.39761E+00-1.17669E-02-5.80713E+00-1.33504E-14-1.18211E-13
 -1      2607 2.37732E+01-4.82593E+00-4.19450E-02-4.84111E+00-9.74498E-14-3.90757E-13
 -1      2608 1.99108E+01-5.35778E+00 8.94994E-02-5.92180E+00 2.15161E-13-1.89712E-13
 -1      2609 7.47819E+00-3.25614E+00 1.24117E-01-5.02943E+00-3.84692E-14 4.23328E-13
 -1      2610 9.84145E+00-3.81082E+00 6.49115E-02-6.23980E+00-4.17444E-14 5.84838E-13
 -1      2611 2.05404E+01 1.95663E+00-1.35960E-02-1.89163E+00-2.89518E-13-4.25510E-14
 -1      2612 2.04042E+01 1.21712E+00-7.14336E-03-1.27950E+00-2.70931E-13-3.17681E-14
 -1      2613 2.03801E+01 1.38512E+00 7.05552E-03-1.22682E+00-2.57130E-13-9.49744E-14
 -1      2614 2.02878E+01 2.38734E+00-4.87594E-03-1.83478E+00-2.78980E-13-1.33804E-13
 -1      2615 2.04763E+01 8.76228E-01-7.16618E-03 1.22147E+00 2.67453E-13 9.89916E-14
 -1      2616 2.08250E+01 1.25740E+00-5.99558E-03 1.72265E+00 2.83950E-13 1.28914E-13
 -1      2617 2.06348E+01 1.71613E+00-1.57948E-02 1.91601E+00 3.04068E-13 3.05415E-14
 -1      2618 2.04413E+01 1.06059E+00-9.46716E-03 1.23372E+00 2.73285E-13-1.96966E-14
 -1      2619 1.09718E+01-4.13110E+00 6.88649E-02 6.58475E+00-4.93161E-13 1.41914E-13
 -1      2620 7.42878E+00-3.25715E+00 1.30322E-01 5.02396E+00-4.32127E-13 1.33088E-13
 -1      2621 3.03424E+01 6.63670E+00-8.07073E-02-6.28670E-01 4.81171E-13-7.02834E-13
 -1      2622 1.99236E+01 2.82903E+00 2.46097E-03-1.08826E+00-1.82185E-13-3.19399E-13
 -1      2623 1.97927E+01 3.16935E+00-1.46234E-02-1.27571E+00-1.92956E-13-3.38041E-13
 -1      2624 1.98847E+01 3.04449E+00-1.74121E-02-1.47419E+00-2.26929E-13-3.14426E-13
 -1      2625 1.99987E+01 3.49019E-01-3.77133E-03 2.86179E-01 1.95316E-13-4.85970E-14
 -1      2626 2.04166E+01 2.11722E+00-1.27175E-02 1.86809E+00 2.92830E-13-6.99770E-14
 -1      2627 1.42373E+01-4.12311E+00 1.15657E-01 6.32067E+00-4.28962E-13 2.48759E-13
 -1      2628 3.01625E+01 1.98943E+00-1.04678E-01 1.65547E+00 1.49047E-14-6.64468E-14
 -1      2629 3.05854E+01 6.06100E+00-9.14355E-02 9.95186E-01 3.83193E-13-4.58494E-13
 -1      2630 2.57550E+01-4.59476E+00-1.32759E-02-3.51497E+00-1.42941E-13-3.76227E-13
 -1      2631 2.68267E+01-4.20326E+00-1.50526E-01-1.98484E+00-6.90767E-14-3.00093E-13
 -1      2632 2.44223E+01-5.02480E+00 8.90286E-02-3.85852E+00-3.62349E-14-3.66027E-13
 -1      2633 3.08211E+01 2.57882E+00-3.97355E-02 1.33652E+00-2.49328E-13-4.06064E-13
 -1      2634 3.05038E+01 6.86571E+00-7.41695E-02-4.40215E-01-5.11757E-13-1.69566E-13
 -1      2635 2.00545E+01 6.62705E-02 1.46745E-04 9.50076E-02-1.22870E-13 3.34225E-13
 -1      2636 2.04336E+01 1.81172E+00 1.25318E-02 1.55403E+00 2.78685E-13-9.04667E-14
 -1      2637 2.00515E+01 8.70103E-02 3.06098E-05 1.11227E-01-9.83041E-14 2.04451E-13
 -1      2638 2.00665E+01 6.82351E-02 9.44294E-04-1.06804E-01-2.95662E-13 2.86525E-13
 -1      2639 2.00487E+01 9.72500E-02-6.05848E-04-1.22037E-01-3.18195E-13 1.76084E-13
 -1      2640 2.00570E+01 1.20029E-01 5.52436E-04-1.55197E-01-4.35343E-13 1.84976E-13
 -1      2641 2.00903E+01 7.25388E-02 1.53777E-03-1.30233E-01-3.82483E-13 5.39165E-13
 -1      2642 5.25659E+00-1.42465E+00 1.67911E-01-5.67156E-02-2.54512E-13 1.53350E-13
 -1      2643 2.72721E+01-3.90132E+00-2.06055E-02 2.32006E+00-1.60302E-13 8.63476E-14
 -1      2644 2.58879E+01-4.54253E+00 8.59685E-02 2.72720E+00-2.59612E-13 2.07584E-13
 -1      2645 2.77818E+01-3.23967E+00-1.75845E-01 6.35160E-01 2.87929E-14-9.51739E-14
 -1      2646 2.96702E+01-1.39732E+00 3.58205E-03-3.36148E-01-1.82196E-13-3.96766E-13
 -1      2647 8.09725E+00-2.10094E+00 1.62132E-01 4.25882E+00-2.91447E-13-4.79061E-14
 -1      2648 2.29443E+01-5.18713E+00 8.86150E-02 4.65461E+00 1.33116E-13-5.01543E-14
 -1      2649 7.71510E+00-2.06464E+00 1.61002E-01-4.18203E+00-1.04208E-13 3.09724E-13
 -1      2650 9.03682E+00-2.71058E+00 1.63936E-01 5.04956E+00 2.71561E-13-2.23432E-13
 -1      2651 2.01155E+01 2.62528E+00-1.17156E-02-1.67025E+00-2.50531E-13-2.08391E-13
 -1      2652 1.33497E+01-3.99612E+00 1.23661E-01-6.25827E+00 1.54432E-13 1.71529E-13
 -1      2653 4.95796E+00-1.75873E+00 1.53028E-01 1.36106E+00 2.27388E-13-2.53797E-13
 -1      2654 2.45888E+01-4.91459E+00 5.92803E-02-3.91908E+00-6.41154E-14-1.02862E-13
 -1      2655 3.04073E+01 1.16144E+00-2.99151E-02-1.22610E+00-3.09558E-13-6.11178E-14
 -1      2656 3.08487E+01 3.88868E+00-3.30811E-02-1.55158E+00 3.38896E-13-4.38982E-13
 -1      2657 1.58927E+01-4.59862E+00 1.09796E-01 6.40247E+00 1.69559E-13-1.73833E-13
 -1      2658 2.81316E+01-3.15864E+00-1.97902E-02 1.15378E+00-9.60065E-14 3.52496E-15
 -1      2659 1.09453E+01-3.70429E+00 1.32904E-01-6.05114E+00-9.03999E-14-6.10484E-13
 -1      2660 5.63882E+00-2.14473E+00 1.51334E-01-2.86879E+00 2.17326E-14-5.50893E-13
 -1      2661 3.05844E+01 6.06700E+00-7.52422E-02 1.14387E+00-2.85660E-13-3.27058E-13
 -1      2662 2.00600E+01 1.08517E-01 6.48726E-04 1.44688E-01-5.54815E-14 2.53324E-13
 -1      2663 2.00865E+01 9.70456E-02-9.26697E-04-1.67714E-01-3.69354E-13 5.41429E-13
 -1      2664 1.98567E+01 2.79029E+00-6.28506E-03 5.07833E-01 8.27831E-14-3.45581E-13
 -1      2665 1.98317E+01 2.84123E+00-5.83284E-03 3.58931E-01 6.25752E-14-3.61944E-13
 -1      2666 1.98148E+01 2.88011E+00-5.65993E-03 2.26107E-01 4.76785E-14-3.74292E-13
 -1      2667 1.98062E+01 2.89747E+00-5.51676E-03 7.37729E-02 2.05394E-14-3.69973E-13
 -1      2668 1.99594E+01 2.53424E+00 3.82132E-03 2.59197E-01 4.72579E-14-3.56124E-13
 -1      2669 2.00538E+01 2.33940E+00-1.06422E-02 1.03276E+00 1.85760E-13-2.69035E-13
 -1      2670 1.99903E+01 2.49055E+00-6.47997E-03 8.97584E-01 1.54555E-13-2.89531E-13
 -1      2671 2.02226E+01 1.91847E+00-1.18864E-02 1.21483E+00 2.46492E-13-1.89761E-13
 -1      2672 2.01326E+01 2.15834E+00-4.94165E-03 1.12107E+00 2.13816E-13-2.21058E-13
 -1      2673 2.01987E+01 1.90394E+00 6.52292E-03 9.11013E-01 1.92023E-13-2.21328E-13
 -1      2674 2.02157E+01 7.36119E-01-3.22747E-03 6.27596E-01 2.14788E-13-8.77332E-14
 -1      2675 2.03547E+01 9.58715E-01 9.18622E-03 8.94144E-01 2.24382E-13-7.88414E-14
 -1      2676 2.00793E+01 4.30380E-01-1.26815E-03 2.64136E-01 1.92823E-13-9.57282E-14
 -1      2677 2.01762E+01 5.65780E-01 1.04503E-02 4.31543E-01 2.08867E-13-7.17240E-14
 -1      2678 2.02603E+01 8.35448E-01 6.48385E-04 5.97707E-01 2.04012E-13-1.47009E-13
 -1      2679 1.89915E+01-4.89483E+00 1.06033E-01-5.81008E+00 1.60275E-13-2.30153E-13
 -1      2680 2.15372E+01-5.23829E+00-1.48488E-02-5.16693E+00 1.41914E-13-2.93592E-13
 -1      2681 2.03374E+01 1.50555E+00-1.77769E-03 1.25713E+00 2.57375E-13-1.09227E-13
 -1      2682 2.29808E+01-5.24601E+00-5.18436E-02 4.46061E+00-3.82611E-13 2.96611E-13
 -1      2683 1.99778E+01-4.92360E+00 8.54349E-02 5.42328E+00-3.39173E-13 1.74499E-13
 -1      2684 2.02242E+01 6.43691E-01 8.13176E-03-4.13633E-01-1.74851E-13-1.35087E-13
 -1      2685 2.01449E+01 4.95883E-01-3.04630E-03-2.49617E-01-1.51245E-13-1.52041E-13
 -1      2686 2.01209E+01 3.87492E-01 6.46781E-03-1.23032E-01-1.31150E-13-1.36902E-13
 -1      2687 2.00678E+01 2.98030E-01-1.32908E-03-1.75181E-02-1.10236E-13-1.50627E-13
 -1      2688 2.02085E+01 5.57185E-01-1.84805E-03-2.26499E-01-1.43698E-13-1.73230E-13
 -1      2689 2.00446E+01 2.33214E-01 4.33754E-03 6.75014E-02-9.68838E-14-1.38155E-13
 -1      2690 2.00172E+01 1.80342E-01-2.25350E-04 1.34919E-01-8.46252E-14-1.60221E-13
 -1      2691 2.01455E+01 3.39825E-01-2.23726E-03-2.84254E-03-1.08279E-13-1.69312E-13
 -1      2692 1.99998E+01 1.43172E-01 2.65096E-03 1.91482E-01-9.15083E-14-1.68300E-13
 -1      2693 1.99929E+01 1.14383E-01 5.01451E-04 2.35619E-01-9.39615E-14-1.92419E-13
 -1      2694 2.00966E+01 2.09414E-01-2.09850E-03 1.48159E-01-1.05601E-13-2.00315E-13
 -1      2695 1.99824E+01 9.56413E-02 1.41321E-03 2.74772E-01-8.73096E-14-1.81386E-13
 -1      2696 1.99914E+01 8.34132E-02 1.01485E-03 3.06142E-01-7.04368E-14-1.99980E-13
 -1      2697 2.00651E+01 1.37170E-01-1.74577E-03 2.51109E-01-9.27575E-14-2.02769E-13
 -1      2698 1.99872E+01 7.76084E-02 5.12894E-04 3.36361E-01-5.37545E-14-2.01950E-13
 -1      2699 2.00085E+01 7.72741E-02 1.42011E-03 3.62547E-01-8.70695E-14-1.90751E-13
 -1      2700 2.00498E+01 1.05014E-01-1.38903E-03 3.25986E-01-6.61215E-14-1.99740E-13
 -1      2701 2.00094E+01 8.08862E-02-1.40036E-04 3.90320E-01-7.92167E-14-1.24534E-13
 -1      2702 2.00409E+01 8.93119E-02 1.77534E-03 4.16873E-01-5.05013E-14-8.81851E-14
 -1      2703 2.00481E+01 1.01636E-01-1.08784E-03 3.88269E-01-5.00147E-14-9.97046E-14
 -1      2704 2.00461E+01 9.98465E-02-6.14638E-04 4.47119E-01-6.83642E-14-5.17691E-14
 -1      2705 2.00865E+01 1.14666E-01 2.10695E-03 4.78100E-01-6.78109E-14-4.21296E-14
 -1      2706 2.00572E+01 1.19368E-01-8.50297E-04 4.49789E-01-2.12475E-14-6.36609E-14
 -1      2707 2.00953E+01 1.30059E-01-9.56783E-04 5.14474E-01-8.02084E-14-2.40134E-14
 -1      2708 2.01445E+01 1.49120E-01 2.41932E-03 5.52709E-01-4.05566E-14-2.30759E-14
 -1      2709 2.00754E+01 1.52382E-01-6.69786E-04 5.19444E-01-5.69598E-14-1.12880E-14
 -1      2710 2.01566E+01 1.67251E-01-1.18675E-03 5.97750E-01-3.02374E-14-3.41274E-14
 -1      2711 2.02148E+01 1.88094E-01 2.69904E-03 6.44867E-01 3.47335E-15 7.07226E-15
 -1      2712 2.01013E+01 1.95379E-01-5.42444E-04 6.03655E-01-4.31380E-14-3.81628E-14
 -1      2713 2.02306E+01 2.06265E-01-1.29346E-03 6.99986E-01 7.76790E-15-4.15522E-14
 -1      2714 2.02989E+01 2.25517E-01 2.91601E-03 7.56216E-01-6.02402E-15-6.39267E-14
 -1      2715 2.01347E+01 2.42360E-01-4.81841E-04 7.06543E-01-8.65251E-15 2.31616E-14
 -1      2716 2.03198E+01 2.39809E-01-1.22405E-03 8.21494E-01-4.21442E-15-7.55787E-14
 -1      2717 2.03997E+01 2.52418E-01 3.02309E-03 8.85215E-01-4.66689E-15-6.84040E-14
 -1      2718 2.01766E+01 2.85217E-01-5.34419E-04 8.29768E-01-1.61093E-14 1.65124E-14
 -1      2719 2.04287E+01 2.56892E-01-8.68199E-04 9.58979E-01-2.19364E-14-9.67658E-14
 -1      2720 2.05228E+01 2.55200E-01 2.95264E-03 1.02597E+00 5.54678E-15-6.07092E-14
 -1      2721 2.02304E+01 3.11992E-01-8.02377E-04 9.72013E-01-1.42026E-14-8.63084E-14
 -1      2722 2.05662E+01 2.40981E-01-3.80505E-05 1.10408E+00 8.37833E-15-8.17736E-14
 -1      2723 2.06785E+01 2.13762E-01 2.60112E-03 1.16642E+00 6.67207E-15-1.22626E-13
 -1      2724 2.03040E+01 3.04786E-01-1.47744E-03 1.12802E+00-7.02251E-15-5.23236E-14
 -1      2725 2.07476E+01 1.68313E-01 1.54513E-03 1.24109E+00-1.54912E-16-9.52993E-14
 -1      2726 2.08844E+01 1.00307E-01 1.78500E-03 1.28578E+00-4.93690E-14-8.02360E-14
 -1      2727 2.04123E+01 2.37632E-01-2.87525E-03 1.28702E+00 7.13134E-17-6.56006E-14
 -1      2728 2.09984E+01 7.73437E-03 4.23114E-03 1.34364E+00-5.34601E-14-7.38910E-14
 -1      2729 2.11687E+01-1.19002E-01 1.66806E-04 1.35099E+00-3.11209E-14-4.78770E-14
 -1      2730 2.05817E+01 7.54838E-02-5.44650E-03 1.43000E+00-4.09307E-14-3.76156E-14
 -1      2731 2.13564E+01-2.74682E-01 8.37043E-03 1.36991E+00-6.51929E-14 2.73712E-15
 -1      2732 2.15705E+01-4.74735E-01-2.81012E-03 1.31237E+00-6.79191E-14-1.32146E-13
 -1      2733 2.08557E+01-2.22778E-01-9.64802E-03 1.52506E+00-5.90981E-14-7.34694E-14
 -1      2734 2.18695E+01-6.99692E-01 1.38900E-02 1.25699E+00 9.89470E-16-9.77416E-14
 -1      2735 2.21321E+01-9.69158E-01-8.18699E-03 1.10059E+00 2.21635E-14-3.27260E-14
 -1      2736 2.12966E+01-6.90513E-01-1.54844E-02 1.51934E+00-9.82309E-15 1.04250E-14
 -1      2737 2.25763E+01-1.23817E+00 1.91193E-02 9.18262E-01 7.09554E-14 1.09392E-14
 -1      2738 2.28748E+01-1.52125E+00-1.42558E-02 6.29946E-01 1.25130E-13 3.36450E-15
 -1      2739 2.19770E+01-1.31883E+00-2.23680E-02 1.32827E+00 7.77879E-14 6.20688E-14
 -1      2740 2.34615E+01-1.75145E+00 2.06091E-02 2.64277E-01 1.31131E-13-1.72271E-14
 -1      2741 2.37522E+01-1.89750E+00-1.60258E-02-1.63889E-01 1.56231E-13-4.82652E-14
 -1      2742 2.29337E+01-1.99193E+00-3.11256E-02 8.31219E-01 1.55845E-13 1.08345E-13
 -1      2743 2.43559E+01-1.86693E+00 7.03594E-03-7.30953E-01 1.03358E-13-7.56660E-14
 -1      2744 2.45214E+01-1.67033E+00-2.91223E-02-1.18864E+00 6.70870E-14-8.37377E-14
 -1      2745 2.41593E+01-2.27757E+00 3.84102E-03-1.27610E-01 1.05075E-13 5.44946E-14
 -1      2746 2.49877E+01-1.15962E+00-1.82480E-02-1.83005E+00 5.88962E-14-1.00216E-13
 -1      2747 2.49711E+01-3.62252E-01 1.02647E-03-2.09717E+00-2.24872E-14-7.11859E-14
 -1      2748 2.52134E+01-1.83150E+00-4.51925E-02-1.30607E+00 5.16809E-14-6.86040E-15
 -1      2749 2.49409E+01 6.32889E-01-8.06758E-02-2.33664E+00-5.08066E-14-5.93796E-14
 -1      2750 2.47995E+01 1.76131E+00-8.29111E-03-2.11280E+00-6.34354E-14-4.49718E-14
 -1      2751 2.57799E+01 2.02224E-02-2.49025E-02-2.25844E+00-3.92048E-15 5.79571E-14
 -1      2752 2.45434E+01 2.75048E+00-8.78839E-02-1.53975E+00-1.22354E-13-7.89581E-14
 -1      2753 2.44388E+01 3.39961E+00-3.83238E-02-7.74652E-01-5.43385E-14-8.13516E-14
 -1      2754 2.56468E+01 2.66710E+00-6.40073E-02-2.00256E+00-1.39125E-13-2.75092E-14
 -1      2755 2.43849E+01 3.52597E+00-5.27560E-02 3.33137E-01 2.49176E-14-2.01543E-13
 -1      2756 2.44743E+01 3.10547E+00-7.85410E-02 1.17456E+00-2.30094E-14-1.72128E-13
 -1      2757 2.53950E+01 4.19631E+00-9.05957E-02-2.55559E-01-1.26607E-13-2.43037E-13
 -1      2758 2.47045E+01 2.23937E+00-1.69193E-02 1.91971E+00-1.16435E-13-2.47124E-13
 -1      2759 2.48618E+01 1.14461E+00-8.84770E-02 2.28468E+00-2.22319E-13-3.04430E-13
 -1      2760 2.55704E+01 3.16637E+00-7.68800E-02 1.70123E+00-1.35253E-13-3.65923E-13
 -1      2761 2.49838E+01 6.99685E-02-8.44424E-04 2.20475E+00-1.72438E-13-2.43797E-13
 -1      2762 2.49968E+01-8.39700E-01-4.66704E-02 2.00808E+00-1.68729E-13-1.06869E-13
 -1      2763 2.58123E+01 5.92717E-01-2.85274E-02 2.35636E+00-1.26291E-13-4.31707E-13
 -1      2764 2.46963E+01-1.46068E+00-1.22786E-02 1.45622E+00-2.50553E-13-9.86804E-14
 -1      2765 2.45410E+01-1.81876E+00-3.24874E-03 9.89312E-01-2.28119E-13-1.01498E-13
 -1      2766 2.54327E+01-1.43490E+00 4.38375E-03 1.57813E+00-1.99615E-13-2.07235E-13
 -1      2767 2.39464E+01-1.91281E+00-2.07391E-02 3.91408E-01-1.95497E-13-3.96152E-14
 -1      2768 2.36760E+01-1.82550E+00 1.71263E-02-5.73969E-02-6.43921E-14-2.09073E-14
 -1      2769 2.44122E+01-2.29504E+00-1.20811E-02 3.26354E-01-1.25103E-13-1.97793E-14
 -1      2770 2.30724E+01-1.63184E+00-1.59581E-02-4.71256E-01 9.92002E-14-5.05292E-14
 -1      2771 2.27703E+01-1.36093E+00 1.99776E-02-7.91609E-01 1.07180E-13 7.25795E-14
 -1      2772 2.32083E+01-2.09247E+00-2.04508E-02-6.62382E-01 2.88994E-15 2.64409E-14
 -1      2773 2.22929E+01-1.08787E+00-8.82044E-03-1.00818E+00 1.11666E-13 1.71037E-13
 -1      2774 2.20202E+01-8.07324E-01 1.54647E-02-1.19069E+00 1.39808E-13 3.25661E-13
 -1      2775 2.21792E+01-1.46027E+00-1.96256E-02-1.23808E+00 1.72493E-13-5.76607E-14
 -1      2776 2.16914E+01-5.66597E-01-3.62494E-03-1.26676E+00 1.29771E-13 3.17827E-13
 -1      2777 2.14681E+01-3.47961E-01 9.71142E-03-1.34116E+00 1.01070E-13 3.44790E-13
 -1      2778 2.14350E+01-8.07238E-01-1.53000E-02-1.48084E+00 1.08444E-13 9.42395E-14
 -1      2779 2.12589E+01-1.74714E-01-4.63532E-04-1.33207E+00 1.06953E-14 2.49815E-13
 -1      2780 2.10826E+01-3.02654E-02 5.32280E-03-1.33318E+00 5.84661E-14 1.40992E-13
 -1      2781 2.09467E+01-2.97337E-01-1.00772E-02-1.51354E+00-4.52628E-14 7.35883E-14
 -1      2782 2.09551E+01 7.70731E-02 1.33049E-03-1.27762E+00 1.27393E-13 1.51507E-13
 -1      2783 2.08156E+01 1.59222E-01 2.38374E-03-1.23480E+00 4.35101E-14 7.11231E-14
 -1      2784 2.06425E+01 4.08569E-02-5.90445E-03-1.42791E+00 4.36514E-14 1.37044E-13
 -1      2785 2.07387E+01 2.15812E-01 2.24531E-03-1.15731E+00 1.03215E-13 1.71321E-13
 -1      2786 2.06265E+01 2.53588E-01 6.20071E-04-1.09188E+00 8.63607E-14 1.31559E-13
 -1      2787 2.04559E+01 2.34850E-01-3.23979E-03-1.28267E+00 1.41247E-13 5.26791E-14
 -1      2788 2.05789E+01 2.75861E-01 2.65616E-03-1.00732E+00 1.21640E-13 1.61026E-13
 -1      2789 2.04871E+01 2.85312E-01-3.22889E-04-9.33565E-01 1.66348E-13 1.78519E-13
 -1      2790 2.03391E+01 3.25773E-01-1.72274E-03-1.11333E+00 7.95120E-14 1.56382E-13
 -1      2791 2.04560E+01 2.86656E-01 2.75779E-03-8.50673E-01 2.00053E-13 1.83395E-13
 -1      2792 2.03800E+01 2.79844E-01-7.49420E-04-7.77459E-01 2.00226E-13 2.65459E-13
 -1      2793 2.02622E+01 3.50406E-01-9.39052E-04-9.41084E-01 1.50667E-13 1.43948E-13
 -1      2794 2.03582E+01 2.69855E-01 2.66052E-03-7.01068E-01 1.03761E-13 2.51035E-13
 -1      2795 2.02951E+01 2.55043E-01-8.71302E-04-6.33351E-01 7.01186E-15 2.52542E-13
 -1      2796 2.02075E+01 3.36548E-01-5.70657E-04-7.78201E-01 1.49569E-13-8.67750E-14
 -1      2797 2.02785E+01 2.40098E-01 2.43735E-03-5.65742E-01 3.34016E-14 3.42080E-13
 -1      2798 2.02265E+01 2.22622E-01-8.22687E-04-5.05805E-01 1.36423E-13 3.72807E-13
 -1      2799 2.01657E+01 3.03383E-01-4.08430E-04-6.31182E-01 1.31207E-13 1.25898E-13
 -1      2800 2.02129E+01 2.06714E-01 2.13142E-03-4.47554E-01 1.76233E-13 3.46492E-13
 -1      2801 2.01704E+01 1.89753E-01-7.20705E-04-3.95931E-01 2.59082E-13 4.36603E-13
 -1      2802 2.01318E+01 2.63429E-01-3.23645E-04-5.02656E-01 9.55683E-14 3.45534E-13
 -1      2803 2.01587E+01 1.75493E-01 1.79152E-03-3.46836E-01 1.14247E-13 2.76065E-13
 -1      2804 2.01240E+01 1.61245E-01-5.50807E-04-3.02886E-01-3.09416E-14 2.03778E-13
 -1      2805 2.01033E+01 2.24365E-01-2.41366E-04-3.92860E-01 8.51593E-14 7.90975E-14
 -1      2806 2.01133E+01 1.49681E-01 1.40704E-03-2.61387E-01-2.69906E-14 9.46876E-14
 -1      2807 2.00858E+01 1.38949E-01-2.54095E-04-2.24141E-01-1.25486E-13 1.10128E-13
 -1      2808 2.00777E+01 1.90642E-01-3.67948E-04-3.00569E-01-1.94103E-13-2.22093E-13
 -1      2809 1.99052E+01 9.19014E-02 8.63480E-04-2.22026E-01 5.11007E-14-1.11168E-13
 -1      2810 1.99067E+01 1.17341E-01 3.04654E-03-1.81065E-01 7.63117E-14-9.76567E-14
 -1      2811 6.61860E+00-5.96310E-01 1.16957E-01 1.04645E+00-2.73510E-13 4.12725E-14
 -1      2812 6.65186E+00-6.61408E-01 1.39825E-01-1.32203E+00-2.31724E-13 1.42830E-13
 -1      2813 1.99241E+01 1.49713E-01 3.58975E-04-1.24839E-01 9.51621E-14-9.64671E-14
 -1      2814 1.99507E+01 1.96259E-01 5.11028E-03-6.01057E-02 1.06361E-13-8.47126E-14
 -1      2815 2.00221E+01 1.78471E-01-2.60523E-03-1.39348E-01 9.47070E-14-9.30481E-14
 -1      2816 1.99496E+01 5.68379E-02 1.56841E-03-3.38216E-01 4.47136E-14-4.23847E-14
 -1      2817 1.99187E+01 5.81205E-02 6.78994E-04-3.15666E-01 3.28907E-14-6.15646E-14
 -1      2818 2.00023E+01 6.47715E-02 1.88907E-03-3.85703E-01 8.35866E-14-9.88777E-14
 -1      2819 1.99600E+01 5.87624E-02 3.31559E-05-3.63182E-01 7.73991E-14-4.50837E-14
 -1      2820 2.00066E+01 7.69188E-02-1.30288E-03-3.71073E-01 6.95078E-14-6.20375E-14
 -1      2821 2.00715E+01 8.37165E-02 2.21918E-03-4.38985E-01 1.44188E-13-1.24074E-13
 -1      2822 2.00190E+01 7.23854E-02-4.00420E-04-4.12574E-01 1.27510E-13-9.76401E-14
 -1      2823 2.00364E+01 8.95109E-02-1.06664E-03-4.26883E-01 1.31398E-13-9.04657E-14
 -1      2824 2.01566E+01 1.10278E-01 2.55240E-03-5.04427E-01 1.17755E-13-5.97388E-14
 -1      2825 2.00938E+01 9.53546E-02-6.83607E-04-4.71392E-01 1.22324E-13-1.14150E-13
 -1      2826 2.00790E+01 1.15164E-01-9.16216E-04-4.89781E-01 1.30939E-13-6.64573E-14
 -1      2827 2.02582E+01 1.40860E-01 2.86011E-03-5.86122E-01 1.23461E-13 3.94530E-14
 -1      2828 2.01845E+01 1.24277E-01-8.49422E-04-5.44869E-01 1.43526E-13-2.05243E-14
 -1      2829 2.01336E+01 1.49474E-01-8.35505E-04-5.66211E-01 1.05780E-13 4.89686E-15
 -1      2830 2.03781E+01 1.70754E-01 3.08942E-03-6.85656E-01 2.11393E-14 5.87945E-14
 -1      2831 2.02922E+01 1.55138E-01-9.01526E-04-6.35933E-01 7.31368E-14 5.73510E-14
 -1      2832 2.02002E+01 1.87559E-01-8.21642E-04-6.60218E-01 5.32330E-14 1.14484E-13
 -1      2833 2.05193E+01 1.93011E-01 3.15710E-03-8.01397E-01-1.08637E-14 9.85244E-14
 -1      2834 2.04197E+01 1.82303E-01-8.07014E-04-7.44761E-01 2.67670E-14 8.71362E-14
 -1      2835 2.02803E+01 2.22861E-01-8.98695E-04-7.73212E-01 1.01235E-14 1.05634E-13
 -1      2836 2.06860E+01 1.97059E-01 2.94318E-03-9.27199E-01 8.74480E-15 1.08945E-13
 -1      2837 2.05711E+01 1.97260E-01-4.84404E-04-8.67803E-01 1.03999E-15 1.31526E-13
 -1      2838 2.03773E+01 2.45696E-01-1.13390E-03-9.03281E-01-1.95614E-14 1.46919E-13
 -1      2839 2.08852E+01 1.67225E-01 2.28429E-03-1.05045E+00-5.06260E-14 2.40704E-13
 -1      2840 2.07531E+01 1.87151E-01 2.11106E-04-9.96155E-01-2.77816E-14 1.88156E-13
 -1      2841 2.04974E+01 2.41515E-01-1.65801E-03-1.04396E+00-2.90291E-14 1.80225E-13
 -1      2842 2.11276E+01 8.17817E-02 9.54841E-04-1.14948E+00-4.44650E-14 1.94610E-13
 -1      2843 2.09762E+01 1.33446E-01 1.49149E-03-1.11323E+00-1.67306E-14 2.85397E-13
 -1      2844 2.06523E+01 1.89227E-01-2.68456E-03-1.18235E+00-5.89360E-14 3.27663E-13
 -1      2845 2.14294E+01-8.58367E-02-1.37258E-03-1.19058E+00-3.77054E-14 1.61793E-13
 -1      2846 2.12565E+01 1.17518E-02 3.61221E-03-1.19167E+00-5.78194E-14 1.55205E-13
 -1      2847 2.08611E+01 6.04255E-02-4.52730E-03-1.29647E+00-8.44374E-15 2.88942E-13
 -1      2848 2.18122E+01-3.59744E-01-5.09164E-03-1.12514E+00 8.25100E-15 7.06173E-14
 -1      2849 2.16167E+01-2.04716E-01 6.73908E-03-1.18967E+00-5.87749E-15 7.39105E-14
 -1      2850 2.11547E+01-1.77977E-01-7.50376E-03-1.35141E+00 4.05819E-14 2.48680E-13
 -1      2851 2.22962E+01-7.41246E-01-1.03023E-02-8.90072E-01 7.47471E-15 6.24407E-14
 -1      2852 2.20825E+01-5.32528E-01 1.06325E-02-1.04819E+00 4.91038E-14 8.58742E-14
 -1      2853 2.15754E+01-5.51914E-01-1.15117E-02-1.29419E+00 7.58714E-15 1.08287E-13
 -1      2854 2.28815E+01-1.16984E+00-1.60189E-02-4.19654E-01-1.38621E-13 1.93484E-13
 -1      2855 2.26672E+01-9.49003E-01 1.40275E-02-6.95045E-01-3.91961E-14 1.47831E-13
 -1      2856 2.21679E+01-1.04973E+00-1.51248E-02-1.05042E+00-2.43660E-14 1.75808E-13
 -1      2857 2.35147E+01-1.46780E+00-1.79074E-02 3.19156E-01-1.95975E-13 1.57242E-13
 -1      2858 2.33384E+01-1.34520E+00 1.37742E-02-6.72733E-02-1.45774E-13 1.25554E-13
 -1      2859 2.29497E+01-1.56956E+00-1.47926E-02-5.33530E-01-1.20673E-13 1.70817E-13
 -1      2860 2.40462E+01-1.32500E+00-1.27368E-02 1.23417E+00-2.02027E-13 4.73642E-14
 -1      2861 2.39616E+01-1.47623E+00 1.30214E-03 8.16431E-01-2.21097E-13 1.79792E-13
 -1      2862 2.38446E+01-1.83430E+00-3.67608E-03 3.10578E-01-2.14224E-13 1.32394E-13
 -1      2863 2.42536E+01-4.33431E-01 6.51950E-04 1.99501E+00 4.17600E-14 2.88907E-14
 -1      2864 2.43067E+01-9.91378E-01-2.52618E-02 1.73914E+00-5.16056E-14 8.36423E-14
 -1      2865 2.46194E+01-1.45846E+00 7.93353E-03 1.36472E+00-1.15817E-13 6.25272E-14
 -1      2866 2.40388E+01 1.12297E+00 1.40771E-02 2.04972E+00 9.33073E-14-5.89936E-15
 -1      2867 2.41910E+01 2.82411E-01-5.27839E-02 2.19453E+00-6.65917E-15 3.70767E-14
 -1      2868 2.49409E+01-1.22509E-01 1.66081E-03 2.18309E+00 2.51726E-14 1.73904E-13
 -1      2869 2.36402E+01 2.47221E+00-5.19408E-03 1.00166E+00 2.58397E-13 3.02388E-14
 -1      2870 2.37425E+01 1.87905E+00-6.63753E-02 1.60322E+00 2.17222E-13-2.91867E-15
 -1      2871 2.46993E+01 1.89453E+00-1.82502E-02 2.05832E+00 1.51594E-13 1.06300E-13
 -1      2872 2.35641E+01 2.58105E+00-4.05012E-02-6.91883E-01 1.42344E-13-3.03116E-14
 -1      2873 2.35221E+01 2.72067E+00-3.07156E-02 6.93151E-02 2.09263E-13-3.01027E-14
 -1      2874 2.43866E+01 3.24388E+00-4.21883E-02 6.22313E-01 1.77636E-13 1.38398E-13
 -1      2875 2.39143E+01 1.32155E+00-6.72828E-02-1.96197E+00 4.28286E-13-1.18306E-13
 -1      2876 2.37581E+01 2.07801E+00-1.86639E-03-1.50369E+00 2.74496E-13-7.45263E-14
 -1      2877 2.44506E+01 2.86974E+00-4.49209E-02-1.23534E+00 2.47025E-13-8.28469E-14
 -1      2878 2.42770E+01-2.49315E-01-4.68373E-02-2.12124E+00 4.30033E-13-1.82209E-13
 -1      2879 2.41664E+01 5.26040E-01 1.24579E-02-2.13378E+00 4.51699E-13-1.72084E-13
 -1      2880 2.48201E+01 1.03332E+00-1.73475E-02-2.24135E+00 4.13952E-13-2.70596E-13
 -1      2881 2.42393E+01-1.25920E+00-1.31930E-02-1.43269E+00 8.37122E-14-1.17491E-13
 -1      2882 2.42362E+01-8.47541E-01-2.69025E-03-1.77857E+00 3.19866E-13-1.05042E-13
 -1      2883 2.48852E+01-6.82138E-01 8.88961E-03-1.97955E+00 3.38205E-13-2.12726E-13
 -1      2884 2.37582E+01-1.47597E+00 7.59955E-03-4.78563E-01-1.67210E-13-4.65626E-14
 -1      2885 2.38771E+01-1.45075E+00-1.81916E-02-8.98545E-01-2.76933E-14-2.38573E-14
 -1      2886 2.43739E+01-1.71194E+00-3.56310E-03-9.81214E-01 1.69079E-14-9.97240E-14
 -1      2887 2.30963E+01-1.21069E+00 1.50674E-02 3.20644E-01-2.38545E-13 1.67831E-13
 -1      2888 2.32900E+01-1.38811E+00-1.84281E-02-2.80570E-02-2.36432E-13 5.69792E-14
 -1      2889 2.35196E+01-1.79040E+00-1.08226E-02 2.51504E-02-2.39418E-13-3.24077E-14
 -1      2890 2.24506E+01-7.86124E-01 1.34065E-02 8.40782E-01-9.70839E-14 1.77075E-13
 -1      2891 2.26662E+01-1.01169E+00-1.37176E-02 6.10927E-01-1.54637E-13 2.10961E-13
 -1      2892 2.26520E+01-1.38414E+00-1.49758E-02 7.46947E-01-2.29948E-13-1.13634E-13
 -1      2893 2.19118E+01-3.93012E-01 9.42196E-03 1.10421E+00 6.62050E-14 3.39614E-14
 -1      2894 2.21178E+01-5.85628E-01-8.14312E-03 9.85646E-01 4.76251E-14 9.54275E-14
 -1      2895 2.19388E+01-8.50502E-01-1.36225E-02 1.15200E+00 2.52512E-14-2.80132E-14
 -1      2896 2.14913E+01-1.03271E-01 5.67394E-03 1.18125E+00-1.15895E-13-4.47382E-14
 -1      2897 2.16757E+01-2.38200E-01-3.56616E-03 1.14616E+00-6.89726E-14-1.58935E-14
 -1      2898 2.14151E+01-3.89246E-01-9.88893E-03 1.31313E+00 3.14285E-14-7.34602E-14
 -1      2899 2.11688E+01 7.92524E-02 2.94163E-03 1.14035E+00 1.37813E-13 1.18091E-13
 -1      2900 2.13296E+01-1.84205E-03-4.44313E-04 1.15955E+00 9.18823E-14 1.08735E-13
 -1      2901 2.10489E+01-6.25751E-02-6.36107E-03 1.31533E+00-3.00155E-14-1.45699E-13
 -1      2902 2.09188E+01 1.76940E-01 1.21420E-03 1.03391E+00-3.16454E-14 2.80009E-13
 -1      2903 2.10577E+01 1.36336E-01 1.47690E-03 1.08376E+00 6.73173E-15 2.79844E-13
 -1      2904 2.07943E+01 1.36596E-01-3.85422E-03 1.22484E+00-2.16663E-14 1.23418E-13
 -1      2905 2.07213E+01 2.16490E-01 2.38082E-04 8.97912E-01-1.41791E-13 4.52296E-14
 -1      2906 2.08403E+01 2.02682E-01 2.52974E-03 9.61606E-01-6.42499E-14 1.83003E-13
 -1      2907 2.06129E+01 2.38806E-01-2.32664E-03 1.08731E+00 8.19409E-15 2.10889E-13
 -1      2908 2.05625E+01 2.20340E-01-2.43777E-04 7.55214E-01 1.87402E-14 8.22664E-14
 -1      2909 2.06635E+01 2.22443E-01 2.98666E-03 8.21918E-01-1.39574E-13-3.53692E-15
 -1      2910 2.04784E+01 2.76118E-01-1.48797E-03 9.32337E-01-1.06016E-13 6.69953E-14
 -1      2911 2.04336E+01 2.04783E-01-4.25602E-04 6.19168E-01 7.43601E-14 1.46280E-13
 -1      2912 2.05182E+01 2.15124E-01 3.05285E-03 6.82569E-01 1.37403E-13 1.65607E-13
 -1      2913 2.03745E+01 2.74340E-01-1.05946E-03 7.78089E-01 4.32898E-14 2.05014E-13
 -1      2914 2.03286E+01 1.80715E-01-4.41816E-04 4.96551E-01-1.03761E-14-3.77121E-15
 -1      2915 2.03985E+01 1.94267E-01 2.87433E-03 5.53518E-01 8.84779E-14 8.51859E-14
 -1      2916 2.02918E+01 2.51900E-01-8.39694E-04 6.34859E-01 1.53804E-13 1.61313E-13
 -1      2917 2.02434E+01 1.55016E-01-3.74336E-04 3.89832E-01-1.16284E-14-1.15914E-13
 -1      2918 2.03002E+01 1.68641E-01 2.55572E-03 4.39316E-01-1.19117E-13-1.05298E-13
 -1      2919 2.02246E+01 2.20945E-01-7.26876E-04 5.07556E-01 7.60720E-15-9.70465E-14
 -1      2920 2.01747E+01 1.31938E-01-2.03519E-04 2.98765E-01 2.09185E-14 7.50201E-14
 -1      2921 2.02201E+01 1.43727E-01 2.16895E-03 3.41002E-01 1.96490E-14-3.95545E-15
 -1      2922 2.01694E+01 1.89221E-01-6.29975E-04 3.97600E-01-8.44950E-14-1.51085E-13
 -1      2923 2.01204E+01 1.13926E-01 4.03015E-04 2.21661E-01-3.68183E-14 2.29866E-13
 -1      2924 2.01552E+01 1.22496E-01 1.78628E-03 2.57216E-01-9.38789E-15 1.51665E-13
 -1      2925 2.01233E+01 1.61335E-01-5.87913E-04 3.04146E-01-1.36771E-13-2.47005E-13
 -1      2926 2.00756E+01 1.08465E-01 6.34479E-04 1.66392E-01-3.85312E-14 2.13924E-13
 -1      2927 2.01021E+01 1.14902E-01 1.50170E-03 1.97803E-01-1.50339E-14 1.62047E-13
 -1      2928 2.00821E+01 1.46153E-01-1.39731E-03 2.35552E-01-1.18651E-15-3.06834E-13
 -1      2929 2.00499E+01 1.43551E-01-1.35791E-03 1.86276E-01-9.85680E-14-1.48993E-13
 -1      2930 1.98744E+01 3.65131E-01-9.03328E-04 1.96037E-02-8.35496E-14-1.91609E-13
 -1      2931 1.98790E+01 3.60571E-01-4.57325E-04 5.31368E-02-2.80797E-14-1.11331E-13
 -1      2932 2.00809E+01 1.32397E-01 1.24415E-03-1.99881E-01-2.26983E-13 6.50266E-14
 -1      2933 2.00649E+01 1.26123E-01 2.24940E-04-1.77530E-01-3.62918E-13-1.57717E-15
 -1      2934 2.00594E+01 1.67341E-01-1.38736E-04-2.33877E-01-1.86619E-13-3.31988E-13
 -1      2935 1.99176E+01 3.12662E-01-1.43039E-03 1.49108E-01 1.21376E-13-4.24330E-13
 -1      2936 1.99382E+01 2.92086E-01 4.81240E-04 1.69310E-01 2.37809E-13-6.02836E-13
 -1      2937 2.84079E+01 8.81164E-01-9.33476E-02 1.86486E+00-1.10467E-14-4.05509E-14
 -1      2938 2.90461E+01 3.12394E+00-1.74047E-01 1.98744E+00 7.79932E-15-6.71407E-14
 -1      2939 1.98791E+01 3.60447E-01-4.76233E-04-5.39613E-02-5.89851E-14 1.33061E-13
 -1      2940 1.98744E+01 3.65116E-01-8.95566E-04-2.04488E-02-1.09907E-13-3.94494E-14
 -1      2941 1.98455E+01 3.89381E-01 1.36847E-03-4.50321E-04-1.24495E-14-1.26057E-13
 -1      2942 1.98877E+01 3.48598E-01-1.23799E-03 9.05148E-02-9.99063E-14-6.89362E-14
 -1      2943 1.99012E+01 3.35348E-01 3.86041E-05 1.19416E-01 3.97804E-14-6.47707E-14
 -1      2944 1.98883E+01 3.45416E-01 1.11188E-03 1.51898E-01 5.09183E-14-2.81465E-13
 -1      2945 1.98565E+01 3.78108E-01 1.30963E-03 8.11176E-02-8.18810E-14-1.96653E-13
 -1      2946 1.99009E+01 3.35700E-01 1.37918E-05-1.19175E-01-5.62979E-14 3.46836E-16
 -1      2947 1.98877E+01 3.48722E-01-1.23470E-03-9.07481E-02-1.69113E-13 3.56581E-13
 -1      2948 1.98564E+01 3.78265E-01 1.31168E-03-8.13578E-02 1.76776E-14 5.40787E-14
 -1      2949 1.99382E+01 2.92633E-01 5.33026E-04-1.69340E-01 2.54280E-13-8.29478E-14
 -1      2950 1.99174E+01 3.13084E-01-1.45109E-03-1.49014E-01 1.14017E-13-2.53308E-13
 -1      2951 1.98879E+01 3.45991E-01 1.11017E-03-1.51683E-01-9.72811E-14 8.16552E-14
 -1      2952 1.99860E+01 2.36143E-01 1.03223E-03-1.96999E-01 2.30378E-13 4.35404E-13
 -1      2953 1.99597E+01 2.61526E-01-1.63870E-03-1.87122E-01 3.14314E-13 1.34897E-13
 -1      2954 1.99368E+01 2.95215E-01 7.92588E-04-2.02262E-01 2.01484E-13-8.79840E-15
 -1      2955 2.00462E+01 1.52055E-01 4.61683E-04-1.86028E-01-2.61483E-13-2.48816E-13
 -1      2956 1.99802E+01 2.52887E-01-3.58807E-04 2.65314E-02 1.23987E-13-7.91860E-14
 -1      2957 2.00394E+01 3.32854E-01 7.78132E-03 1.30752E-01 1.56433E-13-6.46647E-14
 -1      2958 2.01581E+01 4.98780E-01-2.10482E-03 2.50096E-01 1.62339E-13-1.11789E-13
 -1      2959 2.00762E+01 2.96557E-01-2.94463E-03 1.50636E-02 1.25496E-13-6.57625E-14
 -1      2960 2.85269E+01-2.50253E+00-1.59018E-02-2.22213E-01-9.96685E-14-3.35731E-13
 -1      2961 2.92057E+01-9.89462E-01-1.52011E-01 6.43169E-01-2.00145E-13-4.58217E-13
 -1      2962 7.76997E+00-9.33527E-01 1.79475E-01-2.87939E+00-1.44773E-13 8.80684E-14
 -1      2963 9.66802E+00-1.61448E+00 5.08725E-02-4.48818E+00-8.24341E-15 2.52354E-13
 -1      2964 8.96721E+00-1.73658E-01 1.79214E-01-1.81675E+00-8.18061E-14 3.74700E-14
 -1      2965 2.01840E+01 2.27969E+00 9.39659E-05-1.41318E+00-2.36623E-13-2.19329E-13
 -1      2966 1.81906E+01-4.65935E+00-5.24328E-03 5.95622E+00 1.61371E-13-1.59608E-13
 -1      2967 1.51332E+01-3.62368E+00 1.21982E-01 5.97698E+00 1.75568E-13-1.02349E-13
 -1      2968 6.60923E+00-9.10491E-01 9.53020E-02 2.08318E+00 2.87534E-13-1.52600E-13
 -1      2969 6.03140E+00-7.92286E-01 1.59016E-01 6.73071E-02 2.26225E-13-2.44416E-13
 -1      2970 1.99158E+01 6.39679E-02 1.24137E-03-2.87668E-01 1.41367E-14-8.95148E-14
 -1      2971 1.98988E+01 7.52434E-02 1.63395E-03-2.59678E-01 3.94771E-14-1.01147E-13
 -1      2972 1.99955E+01 1.12754E-01-2.09297E-03-2.41533E-01 4.18536E-14-5.45448E-14
 -1      2973 1.99918E+01 8.23874E-02-1.64501E-03-3.13341E-01 2.48205E-14-4.34600E-14
 -1      2974 1.71049E+01-4.21264E+00 5.54990E-02 6.08022E+00-3.19675E-13 3.37591E-13
 -1      2975 1.39811E+01-3.00764E+00 1.13342E-01 5.73556E+00-2.21517E-13 2.50147E-13
 -1      2976 1.26862E+01-2.67221E+00 1.64112E-01-5.63442E+00 1.01835E-13 2.01394E-13
 -1      2977 1.56956E+01-4.07842E+00 3.81252E-02-6.27196E+00 2.13329E-13 5.12090E-14
 -1      2978 1.80259E+01-3.91061E+00 1.19151E-01-5.42927E+00 2.00659E-13-1.08240E-13
 -1      2979 2.03155E+01 1.07006E+00 2.59043E-03-8.41312E-01-2.09717E-13-1.29815E-13
 -1      2980 2.02333E+01 8.30345E-01-4.94062E-03-5.93922E-01-1.86088E-13-1.33803E-13
 -1      2981 2.02713E+01 9.09931E-01 8.37053E-05-5.47679E-01-1.84603E-13-1.76560E-13
 -1      2982 1.99349E+01 2.61686E+00-7.85294E-03 7.82828E-01 1.48493E-13-3.09041E-13
 -1      2983 1.98914E+01 2.71078E+00-6.27381E-03 6.35146E-01 1.06736E-13-3.35381E-13
 -1      2984 2.00088E+01 2.41787E+00 4.49860E-03 5.05577E-01 9.08376E-14-3.25183E-13
 -1      2985 2.00905E+01 2.21462E+00 5.78978E-03 7.31207E-01 1.42519E-13-2.76522E-13
 -1      2986 2.89729E+01 1.61958E+00-1.84722E-01-1.96252E+00-2.22239E-13 2.37754E-13
 -1      2987 2.87795E+01-9.28272E-02-3.95308E-02-1.57026E+00-1.19876E-13 2.06876E-13
 -1      2988 2.91125E+01 3.89209E-01-1.65693E-01-1.47030E+00 2.89907E-13-2.69493E-13
 -1      2989 2.88047E+01-1.19916E+00-3.66459E-02-9.44803E-01 2.69174E-13-2.34063E-13
 -1      2990 1.70141E+01-4.49304E+00 1.39784E-01-6.13812E+00-4.73788E-14-3.30125E-13
 -1      2991 1.97114E+01-5.18153E+00-5.06504E-02-5.77599E+00-3.60129E-14-1.95580E-13
 -1      2992 1.03581E+01-2.43990E+00 1.62707E-01-5.27841E+00-1.01724E-13-5.93525E-13
 -1      2993 1.35760E+01-3.64572E+00 3.15275E-02-6.27922E+00-7.52176E-14-5.01321E-13
 -1      2994 1.98868E+01 2.71924E+00-6.16946E-03-6.24568E-01-9.80284E-14-3.11958E-13
 -1      2995 1.99293E+01 2.62824E+00-7.53118E-03-7.73802E-01-1.31690E-13-2.96418E-13
 -1      2996 2.74455E+01-3.36411E+00 3.35253E-02-5.58772E-01-9.16897E-14 3.92741E-15
 -1      2997 2.79139E+01-1.87793E+00-1.28116E-01 7.93629E-01 9.97119E-15 6.35325E-14
 -1      2998 6.32203E+00-9.98005E-01 1.50306E-01-1.75763E+00 1.38355E-13-4.18859E-13
 -1      2999 7.76559E+00-1.54746E+00 9.55109E-02-3.90295E+00 4.20913E-14-5.84255E-13
 -1      3000 8.11263E+00-2.33222E-01 1.86730E-01-9.59188E-01 2.13964E-13-2.84300E-13
 -1      3001 2.89604E+01 5.02275E+00-1.15103E-01 1.76098E+00-2.23654E-13-2.81122E-13
 -1      3002 2.87935E+01 6.03303E+00-1.90480E-01 9.17116E-01-2.79166E-13-2.29570E-13
 -1      3003 2.29840E+01-5.08420E+00 1.12425E-01-4.30621E+00-6.88477E-14-6.15896E-14
 -1      3004 2.56081E+01-4.67391E+00-1.18592E-01-2.54015E+00-7.68552E-14-1.27676E-15
 -1      3005 2.82333E+01-2.27886E+00-1.37433E-01-2.71125E-01 1.56663E-14 1.47507E-13
 -1      3006 2.67043E+01-3.86850E+00 2.31788E-03 1.32618E+00 1.16993E-13 1.83270E-13
 -1      3007 2.86706E+01 6.42884E+00-1.78713E-01 1.60361E-02-3.99625E-13-1.28298E-13
 -1      3008 2.86767E+01 6.08496E+00-1.57219E-01-9.21654E-01-4.47836E-13 7.56339E-14
 -1      3009 2.90254E+01 4.22932E+00-2.07984E-01-1.85776E+00 4.73149E-13-4.49363E-13
 -1      3010 2.91953E+01 2.42684E+00-1.12391E-01-2.02946E+00 3.32567E-13-3.70648E-13
 -1      3011 2.81219E+01 1.24350E+00-4.11609E-02-2.09576E+00 3.72591E-13-2.75904E-13
 -1      3012 2.87513E+01 4.98261E+00-2.18471E-01-1.63181E+00-3.42865E-13 1.28460E-13
 -1      3013 2.90993E+01 3.66038E+00-1.20943E-01-2.01972E+00-2.53131E-13 1.46980E-13
 -1      3014 2.77806E+01 2.17228E+00-9.33213E-02-2.27415E+00-1.93789E-13 3.04895E-13
 -1      3015 2.75482E+01 4.92493E+00-1.24894E-01-1.36779E+00-2.77639E-13 1.41942E-13
 -1      3016 2.42203E+01-4.93097E+00-5.79896E-02 3.37780E+00 1.49478E-13 1.46810E-13
 -1      3017 2.13907E+01-4.98557E+00 9.43173E-02 4.87874E+00 2.16258E-13 1.26852E-14
 -1      3018 1.01146E+01-1.77371E+00 8.51283E-02 4.68284E+00-2.63262E-13-1.13881E-13
 -1      3019 7.76686E+00-9.48082E-01 1.85015E-01 2.94057E+00-1.83534E-13-1.89737E-13
 -1      3020 8.84164E+00-2.29097E-01 1.76443E-01 1.72441E+00-2.66460E-13-5.98549E-14
 -1      3021 2.95066E+01 9.34431E-01-7.36733E-02 1.67648E+00-2.20143E-13-4.40176E-13
 -1      3022 2.91873E+01 2.86849E+00-2.19339E-01 1.99547E+00-2.24237E-13-4.37039E-13
 -1      3023 1.13640E+01-2.50515E+00 8.13753E-02 5.44835E+00 2.78291E-13-2.40058E-13
 -1      3024 8.42498E+00-1.49184E+00 1.88316E-01 3.93692E+00 3.04312E-13-2.57044E-13
 -1      3025 2.80153E+01 6.12376E+00-1.81155E-01-3.93023E-01 5.31103E-13-3.55379E-13
 -1      3026 2.85532E+01 5.52541E+00-1.45220E-01-1.39880E+00 4.89803E-13-4.67168E-13
 -1      3027 1.99836E+01 2.50341E+00-6.54681E-03-8.88354E-01-1.68473E-13-2.92646E-13
 -1      3028 2.00377E+01 2.35810E+00-1.31061E-02-1.02839E+00-1.96171E-13-3.06135E-13
 -1      3029 2.00793E+01 2.22464E+00 3.04937E-03-7.22264E-01-1.45246E-13-2.57426E-13
 -1      3030 1.99424E+01 2.57248E+00 3.34750E-03 5.10287E-03 1.14242E-14-3.35704E-13
 -1      3031 1.98057E+01 2.89811E+00-5.60608E-03-6.05282E-02-5.89808E-15-3.68972E-13
 -1      3032 1.98132E+01 2.88356E+00-5.44344E-03-2.13178E-01-2.53029E-14-3.56639E-13
 -1      3033 2.34059E+01-4.97076E+00 4.61310E-02-3.85984E+00 3.13777E-14-2.49051E-13
 -1      3034 2.02939E+01 1.59591E+00-1.33486E-03 1.15317E+00 2.45109E-13-1.64073E-13
 -1      3035 2.46639E+01-4.72659E+00 2.63375E-02 2.92288E+00-3.28085E-13 2.69500E-13
 -1      3036 2.76939E+01-1.37859E+00-3.23548E-02-1.33816E+00 9.56804E-14 3.95434E-13
 -1      3037 2.02856E+01 1.37897E+00 2.15757E-03 9.03922E-01 2.24784E-13-1.75847E-13
 -1      3038 1.55096E+01-2.30365E+00 5.21486E-02 4.90599E+00-1.25375E-13 3.22110E-13
 -1      3039 1.29615E+01-2.03170E+00 1.53940E-01 5.15366E+00-1.67970E-13 7.09988E-14
 -1      3040 1.21568E+01-1.00959E+00 9.29687E-02 4.11866E+00-6.12635E-14-1.69587E-14
 -1      3041 1.99365E+01 2.94902E-01 7.00220E-04 2.02370E-01 2.34085E-13-4.23233E-13
 -1      3042 1.99604E+01 2.61359E-01-1.40254E-03 1.87207E-01 2.04418E-13-4.53221E-13
 -1      3043 1.99850E+01 2.35349E-01 6.29363E-04 1.95572E-01 7.91594E-15-3.58750E-13
 -1      3044 1.94920E+01-4.14046E+00 9.07709E-02 5.04038E+00-2.81476E-13 3.34399E-13
 -1      3045 2.01480E+01 2.14054E+00 7.38201E-04-1.12734E+00-2.10088E-13-2.80173E-13
 -1      3046 2.02955E+01 1.68971E+00-1.05437E-02-1.23640E+00-2.47793E-13-1.73268E-13
 -1      3047 2.02913E+01 1.31286E+00-1.19198E-03-9.62067E-01-2.30714E-13-1.48572E-13
 -1      3048 2.02040E+01 1.87069E+00 5.27144E-03-9.12048E-01-1.93274E-13-2.69538E-13
 -1      3049 2.84642E+01-2.39075E-01-3.69410E-02 1.55275E+00-1.36974E-13-4.32723E-13
 -1      3050 2.02857E+01 1.39174E+00 5.37192E-03-8.66795E-01-2.07751E-13-1.83039E-13
 -1      3051 2.00058E+01 2.04565E-01-1.27209E-03 1.98252E-01-1.75541E-13-3.46225E-13
 -1      3052 2.00307E+01 1.75834E-01 6.69471E-04 1.94080E-01-1.68982E-13-2.80564E-13
 -1      3053 2.00447E+01 1.78555E-01 1.31093E-03 2.19186E-01-1.33652E-13-1.96825E-13
 -1      3054 1.99920E+01 2.36917E-01 8.06016E-04 2.24002E-01 4.55288E-14-2.59325E-13
 -1      3055 2.56874E+01-4.48695E+00 6.38519E-03 1.93480E+00 1.08004E-13 1.86483E-13
 -1      3056 2.42796E+01-4.25774E+00 8.92897E-02 2.48781E+00 1.43618E-13 2.03593E-13
 -1      3057 2.60204E+01-3.64641E+00-9.33823E-02 4.72428E-01 1.62089E-13 3.92658E-13
 -1      3058 1.61254E+01-3.53206E+00 1.32652E-01-5.71249E+00-7.97695E-14-3.65860E-13
 -1      3059 2.00235E+01 1.82016E-01-7.30025E-04-1.91445E-01 6.10632E-15 8.42650E-14
 -1      3060 2.00082E+01 2.11951E-01-2.24196E-04-2.18969E-01-1.78959E-14 1.68898E-13
 -1      3061 2.77649E+01 5.82325E+00-1.61438E-01 5.19347E-01 4.12115E-13-1.69776E-13
 -1      3062 2.64461E+01 5.09699E+00-1.20492E-01-9.84077E-02 3.70523E-13 2.92023E-14
 -1      3063 1.39529E+01-2.71089E+00 1.26996E-01 5.56426E+00 2.27526E-13-2.59029E-13
 -1      3064 1.29533E+01-1.59785E+00 9.45946E-02 4.72111E+00 2.50945E-13-3.46362E-13
 -1      3065 1.62290E+01-2.80686E+00 6.65951E-02 5.11996E+00 2.26083E-13-1.86746E-13
 -1      3066 2.78806E+01-2.35919E+00-9.50785E-03-3.72489E-01 8.46484E-14-1.66936E-13
 -1      3067 2.74221E+01 4.13998E+00-9.92933E-02-1.75784E+00 4.80102E-13-3.04097E-13
 -1      3068 2.74317E+01 5.53498E+00-1.35419E-01 5.12342E-01-2.75974E-13-6.75241E-14
 -1      3069 2.19077E+01-4.75678E+00 7.33784E-02-4.42959E+00-3.06283E-14 1.30677E-14
 -1      3070 1.23875E+01-1.66803E+00 1.51454E-01-4.63937E+00 1.24158E-13 9.09828E-14
 -1      3071 2.59291E+01-4.00695E+00 4.92961E-03-1.32291E+00-1.17632E-13-2.15383E-14
 -1      3072 1.07644E+01-1.43398E+00 1.77408E-01-4.30891E+00 4.21191E-15-5.27620E-13
 -1      3073 9.17011E+00-6.41013E-01 1.81483E-01 2.77285E+00 2.69298E-13-2.12663E-13
 -1      3074 2.04480E+01-4.40005E+00 7.11155E-02 4.80368E+00 1.73861E-13-2.93238E-14
 -1      3075 2.80494E+01 3.34240E+00-1.16345E-01 2.02003E+00-1.82757E-13-3.46709E-13
 -1      3076 2.90483E+01 4.78372E+00-1.23158E-01 1.78679E+00 9.71445E-14-1.39930E-13
 -1      3077 2.83392E+01 5.82619E+00-1.96700E-01 1.05251E+00 3.07754E-13-1.99535E-13
 -1      3078 1.98289E+01 2.84611E+00-5.85097E-03-3.45264E-01-3.90533E-14-3.20879E-13
 -1      3079 1.98532E+01 2.79708E+00-6.06263E-03-4.97501E-01-7.50050E-14-3.14249E-13
 -1      3080 2.00004E+01 2.42354E+00 2.28485E-03-4.94668E-01-8.80474E-14-2.93029E-13
 -1      3081 1.99554E+01 2.53686E+00 2.76064E-03-2.48239E-01-3.75807E-14-3.18604E-13
 -1      3082 2.66930E+01 4.75839E+00-1.26760E-01 1.16423E+00 8.00193E-14 1.04465E-13
 -1      3083 2.74479E+01-3.42771E+00 2.03158E-02-8.17576E-01-1.14853E-13-3.54161E-13
 -1      3084 2.74865E+01 3.48053E+00-7.25330E-02 2.17162E+00-5.82312E-14 1.84575E-14
 -1      3085 2.56419E+01-4.36538E+00-1.12039E-01 1.57689E+00-2.58384E-13 3.50039E-13
 -1      3086 2.34854E+01-4.47566E+00 4.52994E-02 3.07273E+00-3.03015E-13 3.39135E-13
 -1      3087 2.02489E+01 1.50111E+00-6.04480E-03 7.84186E-01 1.86393E-13-1.95942E-13
 -1      3088 2.02109E+01 1.69229E+00-4.62842E-04 7.28013E-01 1.64513E-13-2.18787E-13
 -1      3089 2.00516E+01 2.19983E+00-4.31648E-03 2.83715E-01 5.37620E-14-3.30309E-13
 -1      3090 2.00380E+01 2.23997E+00-3.37199E-03 1.65197E-01 3.48295E-14-3.42432E-13
 -1      3091 2.02911E+01 1.17497E+00 1.21428E-03-6.43964E-01-1.87503E-13-2.05811E-13
 -1      3092 2.02656E+01 9.36597E-01-4.56672E-03-4.52984E-01-1.75229E-13-2.04094E-13
 -1      3093 2.02343E+01 4.68796E-01 3.95277E-03-7.11663E-02-1.21983E-13-1.84887E-13
 -1      3094 2.01989E+01 3.69218E-01-1.87954E-03 2.37840E-02-1.12382E-13-1.87088E-13
 -1      3095 2.01834E+01 2.94889E-01 2.76881E-03 9.67801E-02-1.08618E-13-1.78026E-13
 -1      3096 2.01583E+01 2.35381E-01-7.44970E-04 1.61626E-01-1.15722E-13-1.87974E-13
 -1      3097 2.02472E+01 4.00911E-01-8.77327E-04 3.99914E-02-1.08091E-13-1.70970E-13
 -1      3098 2.01395E+01 1.92980E-01 1.74014E-03 2.13242E-01-1.03386E-13-1.81151E-13
 -1      3099 2.01248E+01 1.61521E-01 7.50350E-05 2.58887E-01-8.04123E-14-1.79017E-13
 -1      3100 2.02049E+01 2.61790E-01-9.89416E-04 1.70438E-01-1.11304E-13-1.34699E-13
 -1      3101 2.01053E+01 1.41844E-01 8.23594E-04 2.97246E-01-6.58419E-14-1.78968E-13
 -1      3102 2.00996E+01 1.30812E-01 6.71009E-04 3.32496E-01-6.05217E-14-1.67788E-13
 -1      3103 2.01629E+01 1.86510E-01-8.92024E-04 2.65101E-01-8.27441E-14-1.55340E-13
 -1      3104 2.00802E+01 1.27774E-01 6.45894E-05 3.64613E-01-1.40615E-14-1.36854E-13
 -1      3105 2.00820E+01 1.31898E-01 1.11755E-03 3.96288E-01-1.25075E-15-9.20451E-14
 -1      3106 2.01235E+01 1.58160E-01-6.98531E-04 3.39244E-01-9.84246E-16-1.61260E-13
 -1      3107 2.00625E+01 1.41217E-01-5.56614E-04 4.27799E-01-4.55809E-14-5.14570E-14
 -1      3108 2.00702E+01 1.56618E-01 1.46800E-03 4.61092E-01-1.91124E-14-5.75734E-14
 -1      3109 2.00865E+01 1.64721E-01-4.65233E-04 4.05629E-01 9.64581E-15-9.01594E-14
 -1      3110 2.00502E+01 1.74980E-01-1.06678E-03 4.96406E-01-2.04772E-14-6.92762E-14
 -1      3111 2.00628E+01 1.98447E-01 1.75737E-03 5.35172E-01-4.75729E-14-1.72148E-14
 -1      3112 2.00506E+01 1.97223E-01-2.18958E-04 4.74409E-01-2.01575E-14-3.60299E-14
 -1      3113 2.00413E+01 2.22851E-01-1.48385E-03 5.77639E-01-6.33618E-14 8.17136E-16
 -1      3114 2.00582E+01 2.51209E-01 2.01030E-03 6.24553E-01-1.90269E-14 5.54090E-15
 -1      3115 2.00141E+01 2.48206E-01 2.49533E-05 5.53435E-01-3.21750E-14-1.63906E-14
 -1      3116 2.00348E+01 2.78352E-01-1.80776E-03 6.76601E-01-3.08989E-14-1.56819E-14
 -1      3117 2.00560E+01 3.07785E-01 2.24840E-03 7.33191E-01-1.26105E-14-3.56111E-15
 -1      3118 1.99753E+01 3.10336E-01 2.44368E-04 6.48558E-01-2.41011E-14-1.41922E-16
 -1      3119 2.00306E+01 3.33334E-01-2.00923E-03 7.96393E-01-2.74757E-14-2.10753E-14
 -1      3120 2.00570E+01 3.58565E-01 2.49982E-03 8.62922E-01-2.57366E-14-2.52698E-14
 -1      3121 1.99329E+01 3.74925E-01 3.91590E-04 7.63884E-01-3.51767E-14-8.56879E-14
 -1      3122 2.00311E+01 3.76268E-01-2.01676E-03 9.37990E-01-1.83649E-14-5.12769E-14
 -1      3123 2.00652E+01 3.89554E-01 2.81233E-03 1.01318E+00-5.11924E-14-1.02569E-13
 -1      3124 1.98877E+01 4.30183E-01 3.77968E-04 9.01933E-01-6.19966E-14-3.27686E-14
 -1      3125 2.00425E+01 3.90165E-01-1.69505E-03 1.09989E+00-4.34511E-14-7.68496E-14
 -1      3126 2.00898E+01 3.80091E-01 3.25491E-03 1.18046E+00-1.52610E-14-1.21024E-13
 -1      3127 1.98438E+01 4.59055E-01 3.62748E-05 1.06372E+00-6.61016E-14-1.09104E-13
 -1      3128 2.00790E+01 3.50176E-01-8.07030E-04 1.27741E+00-6.01515E-15-9.80155E-14
 -1      3129 2.01495E+01 3.00432E-01 3.88947E-03 1.35730E+00 2.44952E-14-7.50556E-14
 -1      3130 1.98116E+01 4.36631E-01-9.32260E-04 1.24878E+00-3.27152E-14-8.30341E-14
 -1      3131 2.01668E+01 2.21474E-01 1.03279E-03 1.46113E+00-1.87124E-15-1.34544E-13
 -1      3132 2.02778E+01 1.10249E-01 4.66170E-03 1.53013E+00-3.36307E-14-1.34182E-13
 -1      3133 1.98130E+01 3.27418E-01-3.02504E-03 1.45463E+00-8.37000E-15-1.32302E-13
 -1      3134 2.03519E+01-4.08469E-02 4.44448E-03 1.63337E+00 9.84781E-16-4.12624E-14
 -1      3135 2.05292E+01-2.39252E-01 5.20576E-03 1.67440E+00-2.09911E-14-2.70682E-15
 -1      3136 1.98879E+01 8.35627E-02-7.02029E-03 1.67473E+00 2.55755E-14-8.45938E-14
 -1      3137 2.07078E+01-4.85544E-01 1.06274E-02 1.75957E+00-2.18443E-14 8.74323E-14
 -1      3138 2.09845E+01-7.92374E-01 4.81728E-03 1.74382E+00 6.65761E-14 1.21593E-13
 -1      3139 2.01055E+01-3.53385E-01-1.37900E-02 1.89174E+00 4.16343E-14 1.22658E-13
 -1      3140 2.13371E+01-1.14146E+00 2.11325E-02 1.77250E+00 6.40222E-14 1.38606E-13
 -1      3141 2.17427E+01-1.55441E+00 7.13667E-04 1.65439E+00 9.72989E-14 1.75210E-13
 -1      3142 2.05731E+01-1.03472E+00-2.32347E-02 2.05967E+00 9.17643E-14 1.25121E-13
 -1      3143 2.23585E+01-1.94825E+00 4.08655E-02 1.54508E+00 1.83738E-13 1.13384E-13
 -1      3144 2.28636E+01-2.41095E+00-4.63313E-04 1.28723E+00 1.76404E-13 8.62361E-14
 -1      3145 2.14256E+01-1.96949E+00-4.10840E-02 2.06983E+00 1.03793E-13 1.96768E-13
 -1      3146 2.42707E+01-3.04919E+00 1.46991E-02 7.96198E-01 8.81899E-14 1.63270E-13
 -1      3147 2.50438E+01-3.02958E+00 5.56620E-03 1.67951E-01 1.06712E-13 1.42112E-13
 -1      3148 2.57243E+01-2.59206E+00-4.50707E-03-5.22222E-01 7.11896E-14 1.62797E-13
 -1      3149 2.65100E+01-5.98412E-01-1.35002E-01-2.03074E+00-1.18447E-14 2.16605E-13
 -1      3150 2.67198E+01 1.05322E+00-3.96461E-02-2.38869E+00-8.32875E-14 1.66832E-13
 -1      3151 2.65867E+01 2.44328E+00-1.52277E-01-2.25804E+00-1.58790E-13 8.03455E-14
 -1      3152 2.65383E+01 4.04579E+00-7.81120E-02-1.77956E+00-2.22961E-13 2.77070E-14
 -1      3153 2.62587E+01 4.78535E+00-1.52162E-01-8.93750E-01-2.37255E-13 2.36443E-14
 -1      3154 2.62517E+01 5.09773E+00-1.15050E-01 1.80733E-01-2.26999E-13-1.56805E-13
 -1      3155 2.64004E+01 4.70849E+00-1.03308E-01 1.25937E+00-1.73403E-13-2.28855E-13
 -1      3156 2.64634E+01 3.46418E+00-1.48322E-01 1.97074E+00-1.45162E-13-2.69174E-13
 -1      3157 2.60743E+01-1.69200E+00-8.91483E-03 1.43687E+00-1.51547E-13-2.99398E-13
 -1      3158 2.57014E+01-2.53888E+00-2.10177E-02 8.09573E-01-2.28815E-13-1.79533E-13
 -1      3159 2.47017E+01-2.81981E+00-2.58750E-02-3.49938E-02-1.84776E-13-2.66726E-13
 -1      3160 2.41587E+01-2.77001E+00 3.50539E-02-5.69928E-01-4.26525E-14-1.40079E-13
 -1      3161 2.32119E+01-2.53866E+00-1.64696E-02-1.04810E+00 1.66429E-14-1.39155E-13
 -1      3162 2.26767E+01-2.13535E+00 3.42724E-02-1.37998E+00 5.19519E-14-1.67749E-13
 -1      3163 2.33377E+01-3.07459E+00-3.98849E-02-1.43600E+00 1.13275E-14-3.67128E-13
 -1      3164 2.20044E+01-1.73393E+00-2.78721E-03-1.55294E+00 1.39163E-13-1.44581E-13
 -1      3165 2.15762E+01-1.30542E+00 2.33703E-02-1.70291E+00 2.89791E-13-9.64138E-14
 -1      3166 2.18221E+01-2.15549E+00-3.04358E-02-1.93562E+00 8.71126E-14-1.69286E-13
 -1      3167 2.11668E+01-9.40366E-01 2.19749E-03-1.70709E+00 1.80255E-13-5.19196E-14
 -1      3168 2.08681E+01-6.04784E-01 1.22533E-02-1.73905E+00 5.08447E-15-6.62592E-14
 -1      3169 2.08329E+01-1.21620E+00-2.46207E-02-2.01579E+00 2.06541E-13-9.71940E-14
 -1      3170 2.06501E+01-3.37016E-01 3.78876E-03-1.66862E+00 3.30036E-14 2.89141E-14
 -1      3171 2.04562E+01-1.11124E-01 5.63961E-03-1.63400E+00 2.06580E-14 1.12645E-13
 -1      3172 2.02749E+01-4.79496E-01-1.49853E-02-1.88843E+00 1.00713E-13 8.78828E-14
 -1      3173 2.03564E+01 5.98441E-02 3.95491E-03-1.53442E+00-5.13193E-14 1.72980E-13
 -1      3174 2.02348E+01 1.92762E-01 1.83593E-03-1.46566E+00 5.37388E-14 6.44594E-14
 -1      3175 1.99955E+01 1.20986E-02-7.74341E-03-1.68615E+00 3.63766E-15 5.07793E-14
 -1      3176 2.02012E+01 2.87638E-01 3.47184E-03-1.35939E+00 1.36804E-13 4.28406E-15
 -1      3177 2.01246E+01 3.53606E-01-2.38136E-04-1.27551E+00 2.42475E-13 5.53918E-14
 -1      3178 1.98801E+01 3.00220E-01-3.52124E-03-1.46492E+00-1.49871E-14-6.39153E-14
 -1      3179 2.01246E+01 3.95598E-01 2.96583E-03-1.17233E+00 1.38415E-13 4.27222E-14
 -1      3180 2.00744E+01 4.17613E-01-1.26680E-03-1.08472E+00-6.03843E-14 7.37376E-14
 -1      3181 1.98522E+01 4.43370E-01-1.20506E-03-1.24904E+00 1.94855E-13 3.54934E-14
 -1      3182 2.00891E+01 4.26098E-01 2.56865E-03-9.89235E-01 4.39854E-14 1.12690E-13
 -1      3183 2.00538E+01 4.21666E-01-1.69323E-03-9.04689E-01 1.20855E-13 7.32231E-14
 -1      3184 1.98659E+01 4.91369E-01-5.95760E-05-1.04827E+00 6.13550E-15-4.40960E-14
 -1      3185 2.00730E+01 4.10910E-01 2.25968E-03-8.19057E-01 9.71073E-14 7.35887E-14
 -1      3186 2.00462E+01 3.92313E-01-1.77399E-03-7.41453E-01 2.19947E-13 1.75387E-13
 -1      3187 1.98953E+01 4.81930E-01 4.23309E-04-8.66859E-01 3.67074E-14 7.64261E-14
 -1      3188 2.00649E+01 3.72077E-01 1.99865E-03-6.66502E-01 1.76224E-13 8.82214E-14
 -1      3189 2.00432E+01 3.47472E-01-1.66853E-03-5.97729E-01 6.25978E-14 1.38644E-13
 -1      3190 1.99272E+01 4.41492E-01 5.61555E-04-7.06531E-01 1.49967E-13 2.31975E-13
 -1      3191 2.00591E+01 3.24107E-01 1.75611E-03-5.33468E-01-2.15473E-14-1.11902E-14
 -1      3192 2.00409E+01 2.98855E-01-1.42042E-03-4.74060E-01-1.30050E-14-5.43304E-14
 -1      3193 1.99554E+01 3.87695E-01 5.54210E-04-5.67544E-01-2.66616E-14-6.24174E-14
 -1      3194 2.00530E+01 2.75544E-01 1.28097E-03-4.19560E-01 3.73234E-14-1.79170E-13
 -1      3195 2.00370E+01 2.52808E-01-1.47852E-03-3.69945E-01-8.29015E-14-2.81686E-13
 -1      3196 1.99778E+01 3.32139E-01 6.36632E-04-4.49011E-01-6.94440E-14-2.55699E-13
 -1      3197 2.00465E+01 2.34259E-01 1.48171E-03-3.22830E-01-2.20315E-13-1.29782E-13
 -1      3198 2.00341E+01 2.15870E-01 3.34460E-05-2.81483E-01-2.76189E-13-2.33744E-13
 -1      3199 1.99927E+01 2.83596E-01 1.20899E-03-3.49020E-01-9.69985E-14-1.65941E-13
 -1      3200 2.00665E+01 1.23655E-01 1.61899E-03-4.46334E-01 8.62666E-14-2.48402E-14
 -1      3201 2.00476E+01 1.11699E-01-3.64873E-04-4.15779E-01 1.06599E-13-6.06018E-14
 -1      3202 2.00574E+01 1.05217E-01 1.26545E-03-3.85614E-01 9.81887E-14-6.57459E-14
 -1      3203 2.00465E+01 1.03328E-01 2.70274E-04-3.56148E-01 4.80238E-14-5.80185E-14
 -1      3204 2.00768E+01 1.34335E-01-7.53834E-04-4.02869E-01 9.11036E-14-5.19726E-14
 -1      3205 2.01094E+01 2.00868E-01 2.19693E-03-5.98786E-01 4.61554E-15 7.33684E-14
 -1      3206 2.00770E+01 1.77221E-01-1.24050E-03-5.55487E-01 8.14717E-14 3.03300E-15
 -1      3207 2.01420E+01 2.48203E-01 2.43843E-03-7.00576E-01 1.01232E-14 9.16480E-14
 -1      3208 2.01030E+01 2.23359E-01-1.51148E-03-6.48083E-01 1.53661E-14 4.62006E-14
 -1      3209 2.00435E+01 2.54086E-01-1.61568E-04-6.36008E-01 3.96545E-16 3.08603E-14
 -1      3210 2.01832E+01 2.91155E-01 2.64848E-03-8.22135E-01-3.62445E-14 1.27224E-13
 -1      3211 2.01366E+01 2.69625E-01-1.64693E-03-7.60391E-01 3.89892E-15 1.19150E-13
 -1      3212 2.00376E+01 3.09124E-01-7.52617E-05-7.46520E-01-5.99833E-15 1.49421E-14
 -1      3213 2.02368E+01 3.17782E-01 2.82461E-03-9.61919E-01-5.90291E-15 1.13158E-13
 -1      3214 2.01805E+01 3.06222E-01-1.57534E-03-8.92677E-01-1.39381E-14 1.39764E-13
 -1      3215 2.00350E+01 3.56400E-01-1.41823E-04-8.78209E-01-2.56585E-14 8.03171E-14
 -1      3216 2.03108E+01 3.10384E-01 2.96493E-03-1.11445E+00-9.85379E-14 2.35949E-13
 -1      3217 2.02407E+01 3.18637E-01-1.16076E-03-1.04193E+00-5.48638E-14 1.84439E-13
 -1      3218 2.00400E+01 3.80783E-01-5.07779E-04-1.03048E+00-7.22990E-14 1.23303E-13
 -1      3219 2.04204E+01 2.43588E-01 3.06273E-03-1.26879E+00-5.63028E-14 2.45197E-13
 -1      3220 2.03293E+01 2.85618E-01-1.74217E-04-1.20061E+00-5.66283E-14 2.38876E-13
 -1      3221 2.00628E+01 3.60123E-01-1.41776E-03-1.19971E+00-1.00749E-13 2.09633E-13
 -1      3222 2.05920E+01 8.33649E-02 3.01119E-03-1.40631E+00-3.11788E-14 2.90294E-13
 -1      3223 2.04680E+01 1.77627E-01 1.71564E-03-1.35481E+00-4.96074E-14 2.70783E-13
 -1      3224 2.01230E+01 2.63286E-01-3.23978E-03-1.37803E+00-6.28891E-14 1.94626E-13
 -1      3225 2.08679E+01-2.10871E-01 2.35119E-03-1.49673E+00 5.31442E-14 2.64493E-13
 -1      3226 2.06935E+01-4.29913E-02 4.97955E-03-1.48094E+00 3.60650E-14 3.23716E-13
 -1      3227 2.02555E+01 4.89165E-02-6.60984E-03-1.55119E+00-1.86791E-14 2.79273E-13
 -1      3228 2.13075E+01-6.74403E-01 2.57181E-05-1.49043E+00 5.19300E-15 2.53583E-13
 -1      3229 2.10622E+01-4.16380E-01 1.01230E-02-1.53898E+00 4.72219E-14 3.02512E-13
 -1      3230 2.05180E+01-3.31782E-01-1.23618E-02-1.69265E+00 5.21900E-14 3.36515E-13
 -1      3231 2.19774E+01-1.30106E+00-4.89037E-03-1.30766E+00-9.10340E-14 2.48855E-13
 -1      3232 2.16474E+01-9.63652E-01 1.74118E-02-1.46045E+00-1.18636E-14 2.44726E-13
 -1      3233 2.09965E+01-9.18966E-01-2.08752E-02-1.74948E+00-1.49695E-14 3.42465E-13
 -1      3234 2.29143E+01-1.97616E+00-1.24063E-02-8.39604E-01-1.45252E-13 1.88579E-13
 -1      3235 2.25126E+01-1.63608E+00 2.54287E-02-1.14104E+00-9.00035E-14 1.86561E-13
 -1      3236 2.17951E+01-1.69050E+00-2.92030E-02-1.62263E+00-6.20699E-14 2.66298E-13
 -1      3237 2.40625E+01-2.36344E+00-1.67681E-02 3.13239E-02-2.01847E-13 1.28991E-13
 -1      3238 2.36531E+01-2.24614E+00 2.41981E-02-4.45701E-01-1.80404E-13 1.83040E-13
 -1      3239 2.29984E+01-2.47563E+00-2.85345E-02-1.16125E+00-9.97665E-14 1.75379E-13
 -1      3240 2.56762E+01 1.98685E-02-2.74721E-02 2.16490E+00 4.78576E-14-8.73260E-15
 -1      3241 2.56305E+01-1.07855E+00-5.21729E-02 1.90892E+00-1.93231E-14-1.86188E-14
 -1      3242 2.58989E+01 2.68309E+00-6.61721E-02 2.02659E+00 7.88536E-14 8.25919E-14
 -1      3243 2.60603E+01 1.28659E+00-1.03655E-01 2.39157E+00 3.74006E-14-3.65576E-14
 -1      3244 2.51058E+01 4.26921E+00-8.79686E-02 2.18626E-01 2.15897E-13 7.64206E-14
 -1      3245 2.51556E+01 3.84390E+00-9.88344E-02 1.16801E+00 1.98910E-13 1.79659E-13
 -1      3246 2.54580E+01 3.58970E+00-1.23781E-01-1.57122E+00 3.52190E-13-1.51990E-13
 -1      3247 2.53973E+01 4.30009E+00-1.01729E-01-7.62106E-01 3.20202E-13 1.77636E-15
 -1      3248 2.62140E+01 1.11383E+00-1.03890E-01-2.35510E+00 4.31100E-13-2.48305E-13
 -1      3249 2.60971E+01 2.61097E+00-6.53706E-02-2.24213E+00 3.81722E-13-2.84973E-13
 -1      3250 2.54778E+01-1.74898E+00-3.45452E-02-1.50458E+00 2.13250E-13-9.72885E-14
 -1      3251 2.55830E+01-8.20074E-01 7.86053E-04-1.94308E+00 4.20147E-13-1.44740E-13
 -1      3252 2.44259E+01-2.34709E+00 1.59707E-02-2.33986E-01-9.33359E-14 5.86978E-14
 -1      3253 2.47689E+01-2.19395E+00-2.68261E-02-7.49074E-01 6.75306E-14-1.88662E-14
 -1      3254 2.54680E+01-2.48514E+00-5.58979E-02-7.17464E-01 9.37098E-14-5.11271E-14
 -1      3255 2.32225E+01-2.04058E+00 3.06929E-02 7.38832E-01-2.40687E-13-6.24674E-14
 -1      3256 2.36372E+01-2.28812E+00-1.73865E-02 3.31573E-01-1.74627E-13 6.36105E-14
 -1      3257 2.39416E+01-2.77635E+00-2.50673E-02 5.83924E-01-1.00968E-13-1.74990E-14
 -1      3258 2.21708E+01-1.37793E+00 2.42228E-02 1.28176E+00-1.82589E-13-7.31282E-14
 -1      3259 2.25504E+01-1.73345E+00-7.81561E-03 1.04050E+00-2.54189E-13-1.23413E-13
 -1      3260 2.25265E+01-2.19736E+00-2.42863E-02 1.37062E+00-2.48639E-13 5.07259E-14
 -1      3261 2.14119E+01-7.34597E-01 1.53574E-02 1.49517E+00 5.59280E-14-1.10814E-13
 -1      3262 2.17105E+01-1.04892E+00-1.58656E-03 1.38789E+00-9.00655E-14-1.05547E-13
 -1      3263 2.14679E+01-1.38128E+00-2.32680E-02 1.68649E+00-9.78666E-14-8.04842E-14
 -1      3264 2.09155E+01-2.46631E-01 8.34803E-03 1.50819E+00-3.58108E-14-4.12187E-16
 -1      3265 2.11316E+01-4.72890E-01 1.50128E-03 1.49014E+00 1.15029E-13-2.56309E-14
 -1      3266 2.07964E+01-6.64485E-01-1.57993E-02 1.72656E+00-4.34485E-14-7.24911E-14
 -1      3267 2.06081E+01 7.19296E-02 3.77019E-03 1.41188E+00-8.99858E-14-5.37111E-15
 -1      3268 2.07600E+01-6.93924E-02 2.66661E-03 1.44751E+00-7.29920E-14 5.63864E-14
 -1      3269 2.04073E+01-1.51609E-01-9.32869E-03 1.62421E+00-5.39067E-14 3.86056E-14
 -1      3270 2.04216E+01 2.52423E-01 1.06367E-03 1.26216E+00-1.14133E-13 2.23038E-13
 -1      3271 2.05295E+01 1.76611E-01 2.93809E-03 1.32676E+00-1.09673E-13 1.83773E-13
 -1      3272 2.02000E+01 1.68628E-01-4.87711E-03 1.45859E+00-2.02918E-13 2.03960E-13
 -1      3273 2.03071E+01 3.35173E-01-4.12974E-04 1.09212E+00 2.56899E-15 1.94537E-13
 -1      3274 2.03865E+01 3.04152E-01 2.89164E-03 1.16938E+00-1.02122E-13 2.83428E-13
 -1      3275 2.00989E+01 3.41346E-01-2.21835E-03 1.27065E+00-1.51283E-13 3.47359E-13
 -1      3276 2.02337E+01 3.55297E-01-1.12288E-03 9.21261E-01-8.01714E-14-1.60675E-14
 -1      3277 2.02946E+01 3.52128E-01 2.74207E-03 1.00083E+00-1.57924E-14 6.27750E-14
 -1      3278 2.00551E+01 4.13243E-01-7.97799E-04 1.08165E+00-4.90881E-14 8.51791E-14
 -1      3279 2.01831E+01 3.39114E-01-1.38050E-03 7.60740E-01 1.17236E-13-2.25721E-14
 -1      3280 2.02317E+01 3.51515E-01 2.54901E-03 8.36407E-01 1.30121E-15 2.28337E-15
 -1      3281 2.00393E+01 4.22126E-01-1.26452E-04 9.03004E-01 1.21742E-14-8.78908E-16
 -1      3282 2.01456E+01 3.04838E-01-1.37323E-03 6.16441E-01 8.81616E-14 3.55606E-14
 -1      3283 2.01852E+01 3.24442E-01 2.32257E-03 6.84867E-01 1.31040E-13 6.89432E-14
 -1      3284 2.00356E+01 3.95394E-01 1.26109E-04 7.40756E-01 2.25574E-14-1.37887E-13
 -1      3285 2.01156E+01 2.64352E-01-1.25708E-03 4.90518E-01-7.18700E-14 1.66766E-13
 -1      3286 2.01484E+01 2.85873E-01 2.05854E-03 5.50421E-01 1.14586E-13 1.38932E-13
 -1      3287 2.00357E+01 3.51940E-01 2.04085E-04 5.97749E-01 4.61305E-15 2.50129E-13
 -1      3288 2.00906E+01 2.25171E-01-1.03954E-03 3.83085E-01-6.97155E-14-6.25912E-14
 -1      3289 2.01178E+01 2.45125E-01 1.76781E-03 4.34327E-01-1.08117E-13 6.45963E-15
 -1      3290 2.00358E+01 3.03676E-01 1.84448E-04 4.74383E-01 2.75217E-14 2.23238E-13
 -1      3291 2.00698E+01 1.92311E-01-2.49769E-04 2.92829E-01 8.31286E-14-4.00675E-13
 -1      3292 2.00913E+01 2.07912E-01 1.41630E-03 3.35637E-01-1.97804E-14-1.48644E-13
 -1      3293 2.00341E+01 2.58276E-01 1.00171E-04 3.69859E-01 6.76575E-14-7.12676E-14
 -1      3294 2.00478E+01 1.83302E-01 3.39281E-04 2.40989E-01-3.16177E-14-3.64990E-13
 -1      3295 2.00666E+01 1.86795E-01 1.16531E-03 2.68199E-01 3.63386E-14-4.88455E-13
 -1      3296 2.00274E+01 2.28431E-01-3.00332E-04 2.96949E-01 1.46803E-13-3.47831E-13
 -1      3297 2.00185E+01 2.11318E-01-1.30635E-03 2.48295E-01-1.04259E-13-2.50247E-13
 -1      3298 1.99339E+01 3.02560E-01 1.44256E-03-2.39461E-01 1.51205E-13 1.40423E-13
 -1      3299 1.98977E+01 3.27895E-01-1.65407E-03-2.19931E-01 1.50441E-13-3.28185E-15
 -1      3300 1.98005E+01 4.15286E-01-6.35821E-04-2.22086E-02 2.53369E-14-2.40051E-13
 -1      3301 1.98004E+01 4.15292E-01-6.37685E-04 2.12994E-02-3.76340E-14-1.37667E-13
 -1      3302 2.63657E+01-3.59175E+00 3.75963E-02-7.31350E-01-1.63270E-13-3.94663E-13
 -1      3303 2.72019E+01-2.66024E+00-1.42230E-01 7.26523E-01-1.64284E-13-5.12701E-13
 -1      3304 9.39671E+00 2.70238E-01 1.05919E-01-7.95149E-01-9.88883E-14-3.86635E-14
 -1      3305 1.00843E+01-1.06970E-01 3.17820E-02-2.40798E+00 1.81452E-14 2.24126E-14
 -1      3306 2.02984E+01 1.00494E+00-4.67811E-04 6.70371E-01 1.90500E-13-1.65059E-13
 -1      3307 2.02754E+01 1.32431E+00 2.74682E-03 7.51712E-01 1.99264E-13-1.65221E-13
 -1      3308 2.02807E+01 1.15161E+00 2.77071E-04 5.70283E-01 1.69161E-13-1.65976E-13
 -1      3309 2.02418E+01 7.95849E-01-3.57827E-03 4.60548E-01 1.71283E-13-1.60983E-13
 -1      3310 8.83510E+00 1.74047E-01 8.72944E-02-2.76535E-02 2.10438E-13-2.49342E-13
 -1      3311 9.18451E+00-5.53900E-02 7.62208E-02-1.87449E+00 1.86188E-13-3.43364E-13
 -1      3312 1.98670E+01 3.59645E-01 4.68905E-04-1.87803E-01 5.46069E-15-6.64121E-14
 -1      3313 1.98406E+01 3.78353E-01-1.50890E-03-1.55142E-01-1.03964E-13 2.94012E-13
 -1      3314 1.98589E+01 3.70255E-01 9.22751E-04-2.27890E-01 3.92458E-14 1.61149E-13
 -1      3315 2.78091E+01-8.58328E-01-8.51536E-02 1.66546E+00-1.04639E-14-1.07178E-13
 -1      3316 2.69835E+01 5.30268E-01-5.87166E-02 2.29270E+00 1.17129E-14-2.19484E-13
 -1      3317 2.00841E+01 1.57322E-01 1.92498E-03-5.15336E-01 1.21693E-13 1.79192E-14
 -1      3318 2.00583E+01 1.38144E-01-8.59819E-04-4.79759E-01 1.21660E-13 2.10109E-14
 -1      3319 2.00622E+01 1.59597E-01-5.24472E-04-4.69166E-01 7.08804E-14 1.46235E-14
 -1      3320 2.00515E+01 2.01689E-01-3.22966E-04-5.44867E-01 7.27072E-14 5.53791E-14
 -1      3321 2.01009E+01 2.09315E-01-5.51431E-04-1.52928E-01 6.54855E-14-5.32046E-14
 -1      3322 2.01265E+01 2.65757E-01 3.41866E-03-8.68542E-02 9.34204E-14-5.66321E-14
 -1      3323 2.24613E+01-4.60150E+00 6.30832E-02-3.87835E+00 1.01863E-13-1.82633E-13
 -1      3324 2.47730E+01-4.85022E+00-8.10085E-02-2.69759E+00-5.39360E-14-2.71960E-13
 -1      3325 2.69934E+01-1.55822E+00-1.78295E-01-1.63523E+00 2.98692E-13-4.84751E-14
 -1      3326 2.67927E+01-2.70392E+00 3.50770E-02-3.72535E-01 7.92838E-14 2.01991E-14
 -1      3327 2.05452E+01-4.12238E+00 1.13760E-01-4.59273E+00-2.59515E-15 5.42517E-14
 -1      3328 2.27167E+01-4.54713E+00-7.43677E-02-3.46881E+00-4.61436E-16 3.79696E-14
 -1      3329 2.02815E+01 7.44820E-01 4.47611E-03-3.13457E-01-1.49262E-13-1.92877E-13
 -1      3330 2.02397E+01 5.89258E-01-3.43987E-03-1.75399E-01-1.27000E-13-2.01997E-13
 -1      3331 2.02819E+01 6.30290E-01-1.24776E-04-1.42875E-01-1.27411E-13-1.85522E-13
 -1      3332 2.12791E+01-4.27988E+00-1.12962E-02 4.22929E+00-2.20962E-13 3.39733E-13
 -1      3333 1.88360E+01-3.38152E+00 3.70942E-02 4.67238E+00-1.60767E-13 3.41026E-13
 -1      3334 2.48366E+01-4.11783E+00 8.14889E-02-1.89600E+00-5.89398E-14-7.84685E-14
 -1      3335 2.58123E+01-3.40446E+00-6.58484E-02-3.23392E-01-6.46054E-14-4.75540E-14
 -1      3336 1.72824E+01-3.03919E+00 9.95751E-02-5.08086E+00 1.27100E-13 7.82013E-15
 -1      3337 1.98772E+01-4.21373E+00-2.53309E-02-4.87727E+00 1.38368E-13-1.20109E-13
 -1      3338 1.20820E+01-6.38103E-01 1.29738E-01-3.70817E+00 9.93441E-14 1.77643E-13
 -1      3339 1.43493E+01-1.93226E+00 3.20614E-03-4.88474E+00 6.28664E-14 6.81608E-14
 -1      3340 2.67823E+01-1.89303E+00-2.98472E-02 1.16856E+00-1.15880E-14-1.35815E-13
 -1      3341 1.06993E+01-6.40190E-01 7.43102E-02 3.43533E+00 2.38067E-13-2.00034E-13
 -1      3342 9.33245E+00 5.78779E-02 1.33195E-01 1.69453E+00 2.18742E-13-1.71640E-13
 -1      3343 1.06297E+01-4.96989E-01 1.31206E-01-3.29266E+00 1.03435E-13-4.29698E-13
 -1      3344 1.25938E+01-1.59081E+00 1.15498E-02-4.69152E+00-2.06085E-14-5.08649E-13
 -1      3345 1.54782E+01-2.50963E+00 1.31321E-01-5.18239E+00-1.10578E-13-4.33570E-13
 -1      3346 1.80348E+01-3.70000E+00-2.01537E-02-5.27933E+00-6.53505E-14-1.33518E-13
 -1      3347 1.96053E+01-3.37453E+00 4.47059E-02-4.32753E+00-4.35485E-14-4.49710E-14
 -1      3348 2.69824E+01 1.85745E+00-5.91821E-02 2.40760E+00-1.62634E-13-2.76071E-13
 -1      3349 1.98212E+01 3.98615E-01-5.25751E-05-1.11778E-01-7.07804E-14 1.89044E-13
 -1      3350 1.98073E+01 4.08255E-01-1.12272E-03-7.17939E-02 5.33844E-14-8.93128E-14
 -1      3351 1.97674E+01 4.44432E-01 1.49455E-03-5.21562E-02-3.21558E-15-5.87416E-14
 -1      3352 1.97992E+01 4.18904E-01 1.33874E-03-1.49115E-01-7.53611E-14 6.56566E-14
 -1      3353 1.02981E+01-9.16051E-02 6.47990E-02 2.44183E+00-2.39007E-13-8.21704E-14
 -1      3354 9.51178E+00 3.47747E-01 1.14087E-01 6.59463E-01-2.71656E-13 3.16414E-14
 -1      3355 2.02346E+01 1.60880E+00-6.66780E-03-8.34164E-01-2.00377E-13-2.64443E-13
 -1      3356 2.02644E+01 1.38584E+00 3.14578E-05-7.25885E-01-1.89574E-13-2.26021E-13
 -1      3357 2.01819E+01 1.85657E+00 2.11829E-03-7.71630E-01-1.71683E-13-2.66536E-13
 -1      3358 2.16103E+01-4.34585E+00-7.50827E-02 3.94933E+00 1.58873E-13 8.52443E-14
 -1      3359 1.92823E+01-3.56054E+00 8.79544E-02 4.70452E+00 1.49811E-13-2.37310E-14
 -1      3360 2.69016E+01 2.65891E-02-1.08684E-01 2.19722E+00-1.55705E-13-3.30160E-13
 -1      3361 2.59414E+01-1.76395E+00-2.44377E-02 1.39281E+00-1.85338E-14-2.35569E-13
 -1      3362 2.51329E+01-1.75903E+00-2.25714E-02 1.31375E+00-4.23273E-14-2.27422E-15
 -1      3363 2.48460E+01-2.19686E+00-7.88924E-03 7.71288E-01-1.53966E-13 2.46261E-14
 -1      3364 2.62123E+01-2.72837E+00-8.82788E-03 5.89902E-01-5.01587E-14-1.20515E-13
 -1      3365 2.73398E+01-9.97576E-01-6.67659E-02 1.59704E+00-1.23040E-13-4.02636E-13
 -1      3366 2.00305E+01 2.26007E+00-3.62647E-03 6.38105E-02 1.97434E-14-3.13194E-13
 -1      3367 2.00309E+01 2.26311E+00-2.73419E-03-5.57683E-02-9.58776E-15-3.07838E-13
 -1      3368 2.01422E+01 1.97101E+00 5.20571E-03 9.68241E-02 1.43602E-14-3.04838E-13
 -1      3369 2.02638E+01 1.49189E+00 7.10221E-03 5.65952E-01 1.52826E-13-2.09124E-13
 -1      3370 2.01675E+01 1.82808E+00-7.27188E-03 6.66204E-01 1.50690E-13-2.53582E-13
 -1      3371 2.01315E+01 1.96087E+00-3.02095E-03 5.73281E-01 1.22919E-13-2.83418E-13
 -1      3372 1.13471E+01 2.07221E-02 1.30528E-01-2.40710E+00 1.63092E-13-3.58276E-13
 -1      3373 2.02921E+01 9.75133E-01-1.23540E-03-3.92400E-01-1.64373E-13-1.87541E-13
 -1      3374 1.76879E+01-2.65994E+00 8.08950E-02 4.72606E+00-9.98680E-14 2.63407E-13
 -1      3375 1.63501E+01-1.81430E+00 2.41265E-02 4.30279E+00-7.61925E-14 3.06165E-13
 -1      3376 1.94562E+01-2.77403E+00 2.58138E-02 3.92687E+00 4.23151E-14 4.42781E-13
 -1      3377 1.98983E+01 3.27203E-01-1.53847E-03 2.19693E-01 4.47563E-14-5.48789E-13
 -1      3378 1.99327E+01 3.00820E-01 5.71201E-04 2.39078E-01 7.11457E-14-2.69645E-13
 -1      3379 2.33275E+01-3.29037E+00-4.47397E-02 1.71982E+00 1.41746E-13 2.22433E-13
 -1      3380 2.66147E+01-1.95421E+00 3.55270E-02-1.23972E+00 1.20445E-13 2.03330E-13
 -1      3381 2.51024E+01-3.10186E+00-3.21250E-02-1.39838E-01-2.65149E-14-2.22924E-13
 -1      3382 2.52664E+01-3.17948E+00-5.39814E-02-1.79743E-01-1.76172E-13-2.87587E-13
 -1      3383 2.45931E+01-2.68706E+00-1.67801E-03-2.51375E-02-7.02089E-14-6.75944E-14
 -1      3384 2.02047E+01 3.71702E-01-1.62540E-03-2.50089E-02 8.88007E-14-5.66360E-14
 -1      3385 2.01444E+01 3.36109E-01-1.58282E-03-8.51592E-03 1.10969E-13-7.37562E-14
 -1      3386 2.01851E+01 4.30330E-01 4.35910E-03 9.12800E-02 1.26042E-13-7.20328E-14
 -1      3387 2.00833E+01 1.69246E-01 2.12994E-03-2.06849E-01 3.18993E-14-2.79267E-14
 -1      3388 2.01612E+01 2.36885E-01-1.51870E-03-1.64264E-01 2.69672E-14-2.98578E-14
 -1      3389 2.00725E+01 1.38897E-01 2.51348E-04-2.51978E-01 1.09713E-14-1.49248E-14
 -1      3390 1.95314E+01-2.80972E+00 4.62071E-02 3.93331E+00 1.33619E-13-1.22367E-14
 -1      3391 1.80213E+01-2.95980E+00 4.66927E-02 4.76705E+00 1.81077E-13-6.30364E-14
 -1      3392 1.67420E+01-2.02886E+00 3.91710E-02 4.42094E+00 1.95708E-13-1.41054E-13
 -1      3393 2.70515E+01 2.16696E-01-7.45166E-02-2.10184E+00 3.47944E-13-2.00596E-13
 -1      3394 2.00972E+01 1.32690E-01-1.00237E-03-3.37693E-01 5.83792E-14-6.08776E-14
 -1      3395 2.00587E+01 1.07810E-01 8.29439E-04-3.24618E-01 2.55947E-14-4.48210E-14
 -1      3396 2.00575E+01 1.19545E-01 1.08660E-03-2.90884E-01 2.72947E-14-3.23293E-14
 -1      3397 1.23465E+01-1.27394E-01 9.80112E-02-2.82558E+00 1.68338E-14 5.39985E-14
 -1      3398 1.66686E+01-2.08940E+00 8.11738E-02-4.44375E+00 4.62061E-14-1.04014E-14
 -1      3399 2.56762E+01 3.61097E+00-1.57526E-01 1.60816E+00 8.29337E-14 9.97934E-14
 -1      3400 2.55028E+01-3.70481E+00 1.92768E-02-9.95222E-01-1.26435E-13-3.65527E-13
 -1      3401 1.20987E+01-2.58029E-01 1.23985E-01 3.18306E+00-7.62567E-14 5.93553E-14
 -1      3402 1.24592E+01 2.69219E-01 5.67004E-02 2.26230E+00-5.41164E-14 7.59670E-14
 -1      3403 1.39807E+01-6.96103E-01 5.78314E-03 3.61407E+00-8.26917E-14 9.60343E-14
 -1      3404 1.99748E+01 2.59733E-01-1.61712E-03-2.62823E-01-4.36066E-14 2.11616E-13
 -1      3405 1.99418E+01 2.98619E-01-8.07714E-04-2.84175E-01 3.12727E-14 2.82487E-14
 -1      3406 1.98411E+01 3.77717E-01-1.50609E-03 1.55381E-01-8.25574E-14-3.64847E-13
 -1      3407 1.98674E+01 3.59116E-01 5.35271E-04 1.87822E-01 4.11145E-14-5.29667E-13
 -1      3408 1.98590E+01 3.69223E-01 7.91073E-04 2.27926E-01-8.50432E-14-4.87745E-13
 -1      3409 2.00126E+01 2.22327E-01 2.06961E-04-2.43910E-01-1.02024E-13 8.72980E-14
 -1      3410 2.01903E+01 5.16267E-01-2.53778E-03 1.84602E-01 1.33978E-13-1.03803E-13
 -1      3411 2.02421E+01 6.59881E-01 3.84767E-03 3.31107E-01 1.45073E-13-1.30253E-13
 -1      3412 2.02708E+01 8.21355E-01 1.02543E-03 3.92420E-01 1.42491E-13-1.26022E-13
 -1      3413 2.02426E+01 5.62410E-01-1.64979E-03 1.57199E-01 1.16516E-13-8.32582E-14
 -1      3414 2.28040E+01-3.90624E+00 4.24864E-02 2.91304E+00-1.63099E-13 4.13341E-13
 -1      3415 2.00941E+01 2.10967E+00-1.17539E-03-5.89209E-01-1.25202E-13-2.26490E-13
 -1      3416 2.01277E+01 1.98171E+00-6.07389E-03-6.85856E-01-1.65430E-13-2.25636E-13
 -1      3417 2.02015E+01 1.76127E+00 4.04329E-03-6.29548E-01-1.52395E-13-2.24929E-13
 -1      3418 1.98072E+01 4.08215E-01-1.13689E-03 7.12300E-02-3.07870E-14-1.48832E-14
 -1      3419 1.98214E+01 3.98339E-01-4.48540E-05 1.11913E-01-7.86406E-14-1.28413E-13
 -1      3420 1.97995E+01 4.18425E-01 1.34590E-03 1.49080E-01-1.69579E-15-3.84278E-13
 -1      3421 1.97673E+01 4.44369E-01 1.46080E-03 5.15576E-02-5.91372E-14-6.74437E-14
 -1      3422 1.08327E+01 5.43359E-01 1.10530E-01 3.15112E-02-8.66347E-14-1.38271E-13
 -1      3423 1.44025E+01-1.15955E+00 3.56189E-02 4.04922E+00 2.20976E-13-3.09017E-13
 -1      3424 1.25693E+01-8.19690E-01 1.25968E-01 3.92551E+00 2.21309E-13-2.93529E-13
 -1      3425 1.24445E+01-1.70228E-01 5.72561E-02 3.00915E+00 1.99691E-13-2.90594E-13
 -1      3426 2.33699E+01-3.94212E+00-6.25672E-03-2.41120E+00 5.87377E-14-5.82776E-14
 -1      3427 2.02623E+01 1.40274E+00-2.17485E-04-6.22631E-01-1.78977E-13-2.32756E-13
 -1      3428 1.04106E+01 3.72070E-01 1.29293E-01 7.81421E-01 1.61379E-13-2.14412E-13
 -1      3429 2.16650E+01-4.00419E+00 5.25318E-02-3.75130E+00 5.20278E-14-9.26646E-14
 -1      3430 2.58077E+01-3.06232E+00 1.26533E-02 8.17406E-02 6.19851E-14 2.30833E-13
 -1      3431 2.00329E+01 2.27288E+00-2.95668E-03-3.74605E-01-5.78953E-14-2.72737E-13
 -1      3432 2.00590E+01 2.19772E+00-3.97272E-03-4.88440E-01-9.05871E-14-2.64617E-13
 -1      3433 2.01379E+01 1.98815E+00 4.38930E-03-4.64834E-01-1.05246E-13-2.33167E-13
 -1      3434 2.00992E+01 2.05899E+00-5.28363E-03 4.89755E-01 1.02081E-13-2.95967E-13
 -1      3435 2.00727E+01 2.14152E+00-3.25644E-03 3.78830E-01 7.64170E-14-3.06958E-13
 -1      3436 2.01661E+01 1.89310E+00 5.65178E-03 2.78612E-01 6.49442E-14-3.03963E-13
 -1      3437 2.02102E+01 1.73542E+00 6.50192E-03 4.41250E-01 1.12468E-13-2.64919E-13
 -1      3438 1.50816E+01-1.61543E+00 1.04505E-01-4.40640E+00-2.44804E-14-3.96447E-13
 -1      3439 2.30297E+01-3.97154E+00 5.62525E-03 2.71301E+00 1.33560E-13 1.79547E-13
 -1      3440 1.44197E+01-7.40970E-01 9.52366E-02-3.78462E+00 5.59223E-14-4.06272E-13
 -1      3441 1.64998E+01-1.91960E+00-3.55772E-02-4.31871E+00-2.57433E-14-3.43482E-13
 -1      3442 2.15395E+01-2.90496E+00 5.63280E-02 2.88138E+00 1.27804E-13 1.57969E-13
 -1      3443 2.02623E+01 3.36224E-01 1.62220E-03 1.22488E-01-9.24159E-14-1.50663E-13
 -1      3444 2.02375E+01 2.76875E-01-8.45547E-04 1.79114E-01-8.12232E-14-1.35533E-13
 -1      3445 2.02135E+01 2.35118E-01 9.10228E-04 2.21924E-01-8.24434E-14-1.26841E-13
 -1      3446 2.01909E+01 2.06135E-01-1.16954E-04 2.64428E-01-5.20765E-14-1.11755E-13
 -1      3447 2.02591E+01 2.99001E-01-1.13887E-04 1.79587E-01-6.21381E-14-1.17711E-13
 -1      3448 2.01605E+01 1.89831E-01 2.27481E-04 2.98431E-01-2.15449E-14-1.04030E-13
 -1      3449 2.01405E+01 1.83759E-01 4.18868E-04 3.33722E-01 1.36713E-14-1.18997E-13
 -1      3450 2.02020E+01 2.31742E-01-1.40526E-04 2.58884E-01-3.12099E-14-7.19042E-14
 -1      3451 2.01051E+01 1.86634E-01-3.99916E-04 3.64364E-01 5.22378E-14-1.34361E-13
 -1      3452 2.00870E+01 1.97911E-01 8.08637E-04 3.98072E-01 4.37694E-14-8.72142E-14
 -1      3453 2.01363E+01 2.15236E-01-1.40597E-05 3.25352E-01 2.42388E-14-1.09880E-13
 -1      3454 2.00467E+01 2.15192E-01-9.67026E-04 4.29880E-01 7.91119E-15-6.17185E-14
 -1      3455 2.00295E+01 2.39399E-01 1.09563E-03 4.66431E-01 4.37411E-15-4.02802E-14
 -1      3456 2.00630E+01 2.37304E-01 2.14732E-04 3.88801E-01 5.32189E-14-1.04733E-13
 -1      3457 1.99836E+01 2.67083E-01-1.48134E-03 5.03062E-01-2.30286E-15-2.23337E-14
 -1      3458 1.99663E+01 3.00274E-01 1.31912E-03 5.45820E-01-2.28787E-14 1.26031E-15
 -1      3459 1.99809E+01 2.88144E-01 5.10518E-04 4.57313E-01 9.88886E-15-5.11316E-14
 -1      3460 1.99136E+01 3.34488E-01-1.95275E-03 5.90185E-01-7.19154E-14-1.58331E-14
 -1      3461 1.98952E+01 3.72548E-01 1.52502E-03 6.41598E-01-4.71145E-14-3.47697E-14
 -1      3462 1.98879E+01 3.59029E-01 8.51838E-04 5.37366E-01-3.84270E-14 1.10041E-15
 -1      3463 1.98346E+01 4.08850E-01-2.38206E-03 6.96085E-01-4.52482E-14-8.49385E-14
 -1      3464 1.98150E+01 4.46711E-01 1.77053E-03 7.57829E-01-5.48088E-14-1.02780E-13
 -1      3465 1.97814E+01 4.40943E-01 1.19651E-03 6.34190E-01-6.38852E-14-6.92976E-14
 -1      3466 1.97456E+01 4.79214E-01-2.75233E-03 8.24542E-01-5.94167E-14-3.81761E-14
 -1      3467 1.97259E+01 5.09929E-01 2.14992E-03 8.97615E-01-7.22776E-14 1.03487E-16
 -1      3468 1.96588E+01 5.23047E-01 1.49462E-03 7.52315E-01-2.34908E-14-8.97994E-14
 -1      3469 1.96482E+01 5.30302E-01-3.02539E-03 9.78707E-01-8.26775E-14-8.82328E-15
 -1      3470 1.96320E+01 5.43960E-01 2.81690E-03 1.06357E+00-7.41796E-14-4.47627E-14
 -1      3471 1.95194E+01 5.90789E-01 1.65092E-03 8.96198E-01-7.49153E-14-4.22595E-14
 -1      3472 1.95489E+01 5.40216E-01-3.11124E-03 1.16179E+00-5.15212E-14-7.99423E-15
 -1      3473 1.95444E+01 5.22557E-01 3.99433E-03 1.25851E+00-4.66673E-14-3.80276E-15
 -1      3474 1.93658E+01 6.23750E-01 1.48967E-03 1.07130E+00-1.67789E-14 2.51283E-14
 -1      3475 1.94636E+01 4.77566E-01-2.80856E-03 1.37776E+00-6.14792E-14-2.24420E-14
 -1      3476 1.94866E+01 4.08410E-01 5.93663E-03 1.48582E+00-2.19265E-14-3.37777E-14
 -1      3477 1.92069E+01 5.92715E-01 6.73787E-04 1.28567E+00-4.75828E-14 8.52441E-14
 -1      3478 1.94242E+01 2.98667E-01-1.72430E-03 1.63129E+00 8.39201E-14-4.33482E-14
 -1      3479 1.95024E+01 1.50723E-01 8.83190E-03 1.74836E+00 1.12155E-13 1.13116E-14
 -1      3480 1.90642E+01 4.56229E-01-1.42021E-03 1.55126E+00 4.05991E-14 5.55487E-14
 -1      3481 1.94905E+01-5.39564E-02 1.12390E-03 1.92541E+00 9.72769E-14 1.15678E-13
 -1      3482 1.96683E+01-3.15337E-01 1.27330E-02 2.04306E+00 9.70707E-14 1.50413E-13
 -1      3483 1.89797E+01 1.56819E-01-6.02710E-03 1.88398E+00 1.74847E-13 1.08742E-13
 -1      3484 1.97705E+01-6.50627E-01 9.14805E-03 2.24900E+00 9.24280E-14 1.42812E-13
 -1      3485 2.01087E+01-1.05935E+00 1.75031E-02 2.33941E+00 1.38747E-13 2.03523E-13
 -1      3486 1.90347E+01-3.86729E-01-1.50611E-02 2.30011E+00 1.12543E-13 1.66814E-13
 -1      3487 2.04402E+01-1.53549E+00 3.23184E-02 2.54287E+00 1.35564E-13 1.81093E-13
 -1      3488 2.10329E+01-2.11708E+00 2.22278E-02 2.52630E+00 9.69416E-14 1.47255E-13
 -1      3489 1.93966E+01-1.25050E+00-1.87533E-02 2.78884E+00 1.35641E-13 1.83856E-13
 -1      3490 1.98430E+01 3.82389E-01-5.18603E-04-2.71372E-01 1.72149E-14 1.83149E-13
 -1      3491 1.98016E+01 4.09995E-01-1.98073E-03-2.39231E-01-8.74920E-14 1.57626E-13
 -1      3492 2.14283E+01-2.37580E+00 1.65999E-02-2.44499E+00 1.47759E-13-1.61673E-13
 -1      3493 2.08016E+01-1.80701E+00 2.81081E-02-2.50772E+00 2.30228E-13-9.09247E-14
 -1      3494 2.03850E+01-1.27084E+00 1.82094E-02-2.33968E+00 2.57217E-13 3.78996E-14
 -1      3495 2.00003E+01-8.21929E-01 1.60837E-02-2.26597E+00 2.23279E-13 3.53755E-14
 -1      3496 1.96837E+01-1.50077E+00-2.87364E-02-2.80001E+00 2.49275E-13-1.90143E-14
 -1      3497 1.98333E+01-4.64708E-01 1.12249E-02-2.07425E+00 1.50541E-13 6.22291E-14
 -1      3498 1.96217E+01-1.64610E-01 3.55411E-03-1.96451E+00 1.07068E-13 8.55787E-14
 -1      3499 1.91984E+01-5.78713E-01-2.10409E-02-2.37090E+00 2.28106E-13-9.23523E-14
 -1      3500 1.95989E+01 6.94110E-02 9.37069E-03-1.78290E+00-6.11132E-15 8.71466E-14
 -1      3501 1.94960E+01 2.44831E-01-4.77287E-04-1.66623E+00-5.46975E-14 6.37328E-14
 -1      3502 1.90583E+01 5.65631E-02-7.87483E-03-1.94866E+00 5.30085E-14-7.02849E-14
 -1      3503 1.95372E+01 3.77402E-01 6.13635E-03-1.51325E+00 2.64373E-14 1.15766E-13
 -1      3504 1.94985E+01 4.67342E-01-2.12717E-03-1.40085E+00 7.40558E-14 1.43952E-13
 -1      3505 1.90949E+01 4.15439E-01-2.46089E-03-1.60019E+00 3.25904E-14 1.91773E-13
 -1      3506 1.95657E+01 5.29467E-01 4.03032E-03-1.27255E+00 1.40724E-13 1.95063E-13
 -1      3507 1.95598E+01 5.62655E-01-2.67150E-03-1.16865E+00 1.34897E-13 3.07846E-14
 -1      3508 1.92075E+01 5.96222E-01 1.93496E-04-1.31570E+00 2.70576E-14 2.86016E-13
 -1      3509 1.96327E+01 5.79210E-01 2.72285E-03-1.06052E+00 6.60911E-15-6.45464E-14
 -1      3510 1.96415E+01 5.77284E-01-2.73816E-03-9.66538E-01 3.75397E-15 9.09384E-14
 -1      3511 1.93458E+01 6.59818E-01 1.35094E-03-1.08139E+00-7.25430E-15 3.36847E-13
 -1      3512 1.97102E+01 5.66583E-01 1.96106E-03-8.74840E-01 8.87071E-14 1.22953E-13
 -1      3513 1.97236E+01 5.44823E-01-2.57397E-03-7.91303E-01 1.75951E-13 2.05960E-13
 -1      3514 1.94829E+01 6.51304E-01 1.73326E-03-8.85541E-01 8.09842E-14 1.55056E-13
 -1      3515 1.97838E+01 5.19624E-01 1.52056E-03-7.13488E-01 8.08096E-14 2.74912E-13
 -1      3516 1.97970E+01 4.88442E-01-2.29990E-03-6.40465E-01 1.57880E-14 1.15873E-13
 -1      3517 1.96061E+01 6.01985E-01 1.72895E-03-7.20252E-01 1.77868E-13 1.13158E-13
 -1      3518 1.98472E+01 4.57309E-01 1.26085E-03-5.74714E-01-1.82916E-14 1.80756E-13
 -1      3519 1.98583E+01 4.23595E-01-1.88193E-03-5.11912E-01-6.23863E-14 6.49718E-14
 -1      3520 1.97106E+01 5.33257E-01 1.56034E-03-5.80460E-01 3.98469E-14 1.75474E-14
 -1      3521 1.98985E+01 3.91929E-01 1.08131E-03-4.56560E-01-1.49314E-13 2.03817E-13
 -1      3522 1.99049E+01 3.60665E-01-1.60463E-03-4.02665E-01-1.47276E-13 2.39600E-14
 -1      3523 1.97950E+01 4.59560E-01 1.21877E-03-4.62725E-01-1.01514E-13 1.94430E-13
 -1      3524 1.99340E+01 3.23376E-01 2.82770E-05-3.26299E-01-2.78030E-14-3.25174E-14
 -1      3525 2.16967E+01-2.03140E+00 3.31112E-02 2.06003E+00-2.82526E-13 1.32368E-13
 -1      3526 2.23119E+01-2.54212E+00 2.82299E-03 1.86411E+00-2.07419E-13 1.47940E-13
 -1      3527 1.99366E+01 3.78173E-01 2.01571E-03-7.56609E-01-5.53580E-14 4.88311E-15
 -1      3528 1.99364E+01 3.45109E-01-2.09054E-03-6.96783E-01-1.52655E-14 4.69506E-15
 -1      3529 1.99792E+01 3.13730E-01 1.76999E-03-6.42658E-01 2.84817E-14 2.15485E-14
 -1      3530 1.99807E+01 2.80681E-01-1.73101E-03-5.92762E-01 3.56351E-14 6.44677E-14
 -1      3531 1.98780E+01 3.77936E-01 7.09175E-04-6.50755E-01 3.56762E-14 6.85139E-14
 -1      3532 1.98499E+01 4.61429E-01 2.84488E-03-1.05163E+00-1.41731E-13 1.38438E-13
 -1      3533 1.98404E+01 4.50338E-01-2.43177E-03-9.71612E-01-8.06076E-14 9.17901E-14
 -1      3534 1.98221E+01 4.38968E-01 3.66556E-03-1.23252E+00-1.11909E-13 1.25409E-13
 -1      3535 1.97989E+01 4.56837E-01-2.21056E-03-1.14474E+00-1.10490E-13 1.29598E-13
 -1      3536 1.96044E+01 5.34154E-01 5.48046E-04-1.08238E+00-1.18645E-13 7.45619E-14
 -1      3537 1.98316E+01 3.31544E-01 5.03661E-03-1.43209E+00-8.81908E-14 9.24475E-14
 -1      3538 1.97810E+01 3.96769E-01-1.41505E-03-1.34053E+00-1.24894E-13 8.79525E-14
 -1      3539 1.95145E+01 4.98351E-01-4.86203E-04-1.28350E+00-1.15609E-13-4.85117E-14
 -1      3540 1.99192E+01 9.39556E-02 7.05456E-03-1.64361E+00-7.71632E-15 1.25373E-13
 -1      3541 1.98178E+01 2.30835E-01 3.12797E-04-1.55521E+00-5.59179E-14 9.36782E-14
 -1      3542 1.94563E+01 3.63157E-01-2.36256E-03-1.51879E+00-9.76830E-14-1.95777E-14
 -1      3543 2.01530E+01-3.30421E-01 9.15662E-03-1.85172E+00-5.01512E-14 2.84443E-13
 -1      3544 1.99644E+01-9.16381E-02 3.74589E-03-1.78002E+00 1.11202E-14 2.10013E-13
 -1      3545 1.94736E+01 7.63918E-02-6.05122E-03-1.79200E+00-7.06409E-14 5.80632E-14
 -1      3546 2.06337E+01-9.97784E-01 8.30553E-03-2.01557E+00-1.34082E-14 2.55394E-13
 -1      3547 2.03140E+01-6.28301E-01 1.04293E-02-1.98887E+00 2.13690E-14 2.93068E-13
 -1      3548 1.96454E+01-4.30694E-01-1.34951E-02-2.09786E+00-5.44200E-14 1.35372E-13
 -1      3549 2.14956E+01-1.90601E+00 3.79512E-03-2.03025E+00-3.39171E-14 1.26864E-13
 -1      3550 2.10110E+01-1.41680E+00 2.45174E-02-2.10561E+00 9.74741E-15 2.03837E-13
 -1      3551 2.01073E+01-1.24481E+00-3.02565E-02-2.40193E+00 5.83762E-14 1.64458E-13
 -1      3552 2.28202E+01-2.92365E+00-1.64140E-02-1.71872E+00-1.60739E-14 2.21407E-14
 -1      3553 2.21989E+01-2.40444E+00 4.04747E-02-1.97217E+00-6.10692E-14 8.32728E-14
 -1      3554 2.10761E+01-2.32557E+00-3.96129E-02-2.56599E+00 3.62207E-14 3.94832E-14
 -1      3555 2.37607E+01-3.80072E+00-4.03041E-02 1.95746E+00-1.56868E-13 4.43685E-13
 -1      3556 2.19733E+01-3.40151E+00 1.65838E-02 2.91445E+00 1.38257E-14 4.27963E-13
 -1      3557 2.49362E+01-3.43856E+00 4.18900E-02 8.20826E-01-8.07887E-14 2.11994E-13
 -1      3558 2.07051E+01-1.09346E+00 1.74220E-02 2.07373E+00-6.25347E-14-1.44758E-14
 -1      3559 2.11363E+01-1.54220E+00 9.63219E-03 2.03720E+00-8.37082E-14-2.38373E-14
 -1      3560 2.06689E+01-1.86424E+00-1.51864E-02 2.54441E+00-9.37510E-14-6.07760E-14
 -1      3561 2.01567E+01-3.91321E-01 7.04638E-03 1.90231E+00-1.03572E-13-3.54619E-14
 -1      3562 2.04256E+01-7.09925E-01 1.06032E-02 1.94611E+00-4.44898E-14 1.82663E-14
 -1      3563 1.98991E+01-8.75480E-01-1.29663E-02 2.28444E+00-1.04277E-13 1.75988E-15
 -1      3564 1.98925E+01 6.86459E-02 1.57727E-03 1.67574E+00-1.94284E-13 7.34253E-14
 -1      3565 2.00445E+01-1.31828E-01 8.01159E-03 1.75549E+00-1.45666E-13 3.15836E-15
 -1      3566 1.95586E+01-1.89145E-01-6.32162E-03 1.96536E+00-1.71488E-13 1.82582E-13
 -1      3567 1.97925E+01 3.35664E-01-9.40939E-04 1.44334E+00-3.05423E-13 1.01555E-13
 -1      3568 1.98720E+01 2.24930E-01 5.73338E-03 1.53623E+00-2.53674E-13 8.63580E-14
 -1      3569 1.94501E+01 2.35806E-01-2.06249E-03 1.66102E+00-3.10365E-13 1.26329E-13
 -1      3570 1.97788E+01 4.65675E-01-2.01126E-03 1.22355E+00-4.79229E-14 1.09771E-13
 -1      3571 1.98171E+01 4.16671E-01 4.02734E-03 1.31835E+00-1.65074E-13 1.56870E-13
 -1      3572 1.94632E+01 4.67650E-01 2.55874E-04 1.39209E+00-1.49096E-13 1.69500E-14
 -1      3573 1.98051E+01 5.05935E-01-2.36691E-03 1.02285E+00-8.38389E-14-7.48000E-14
 -1      3574 1.98219E+01 4.96312E-01 2.89119E-03 1.11367E+00-1.11837E-13-6.06879E-14
 -1      3575 1.95319E+01 5.68618E-01 1.32338E-03 1.15887E+00-8.27521E-15-1.12306E-13
 -1      3576 1.98458E+01 4.92006E-01-2.35716E-03 8.43552E-01 1.58083E-14 3.28512E-14
 -1      3577 1.98524E+01 5.05430E-01 2.17906E-03 9.27133E-01-1.78424E-14 1.50994E-14
 -1      3578 1.96195E+01 5.86416E-01 1.68766E-03 9.57199E-01-1.39387E-13-2.31072E-13
 -1      3579 1.98875E+01 4.48816E-01-2.20308E-03 6.86189E-01-1.64709E-13-3.24677E-15
 -1      3580 1.98901E+01 4.74125E-01 1.73762E-03 7.60871E-01-3.72748E-14-5.57840E-14
 -1      3581 1.97066E+01 5.55445E-01 1.70303E-03 7.83165E-01 2.94578E-15 8.07598E-14
 -1      3582 1.99241E+01 3.93570E-01-1.92392E-03 5.50667E-01 2.22855E-14 1.50026E-13
 -1      3583 1.99259E+01 4.22835E-01 1.43752E-03 6.15696E-01-7.68237E-14-3.56941E-14
 -1      3584 1.97842E+01 4.99328E-01 1.56278E-03 6.33780E-01-8.64608E-14-1.02127E-13
 -1      3585 1.99534E+01 3.36226E-01-1.82895E-03 4.35300E-01 1.02673E-13-1.20624E-13
 -1      3586 1.99556E+01 3.65461E-01 1.17242E-03 4.90661E-01 9.55457E-14-5.33730E-14
 -1      3587 1.98490E+01 4.34522E-01 1.49841E-03 5.06597E-01 1.30472E-13-3.74482E-13
 -1      3588 1.99766E+01 2.85466E-01-9.16301E-04 3.38135E-01 1.71855E-13-2.56718E-13
 -1      3589 1.99784E+01 3.10648E-01 1.06422E-03 3.85139E-01-7.37060E-15-8.78766E-14
 -1      3590 1.98999E+01 3.70266E-01 1.25770E-03 3.99792E-01 1.28447E-13-2.50680E-13
 -1      3591 1.99609E+01 2.69531E-01-1.35084E-03 2.46879E-01 1.48259E-13-5.19684E-14
 -1      3592 1.99918E+01 2.42353E-01 1.07079E-04 2.50337E-01-1.97723E-15 2.45958E-14
 -1      3593 1.99935E+01 2.50693E-01 2.84257E-04 2.73641E-01 1.01471E-16-1.81175E-13
 -1      3594 1.99286E+01 3.09791E-01 2.73191E-04 2.67952E-01 4.14940E-15-1.06858E-13
 -1      3595 1.60575E+01-1.22784E+00 4.04287E-02-3.90779E+00 1.51924E-13-8.35929E-14
 -1      3596 1.83572E+01-2.46536E+00-1.98511E-02-4.19436E+00 1.91909E-13-1.72987E-14
 -1      3597 1.21107E+01 4.56179E-01 6.81425E-02-1.91217E+00-7.37743E-14-1.82514E-13
 -1      3598 1.36137E+01-2.46676E-01 3.63616E-03-3.10499E+00 5.86141E-14 1.15463E-14
 -1      3599 1.98919E+01 4.33022E-01 2.34133E-03-8.92688E-01-5.71810E-14 7.06952E-14
 -1      3600 1.98888E+01 4.06327E-01-2.34639E-03-8.22448E-01-3.77326E-14 4.23754E-14
 -1      3601 1.97942E+01 4.49963E-01 9.01849E-04-7.69253E-01-6.29462E-14 1.48848E-14
 -1      3602 1.97015E+01 5.08589E-01 9.11557E-04-9.12076E-01-8.36637E-14 1.04541E-13
 -1      3603 2.00915E+01 1.66480E-01 9.70452E-04-4.02843E-01 6.63274E-14-5.40340E-14
 -1      3604 2.01002E+01 1.58607E-01-1.93700E-04-3.69680E-01 7.34350E-14-6.79494E-14
 -1      3605 2.43635E+01-3.19285E+00 3.05615E-02-9.00135E-01-4.47160E-14-1.23288E-13
 -1      3606 2.02972E+01 9.57171E-01 8.31441E-04 4.35513E-01 1.33774E-13-1.62069E-13
 -1      3607 2.02852E+01 1.13209E+00-2.06633E-03 4.72344E-01 1.33278E-13-1.90031E-13
 -1      3608 2.02819E+01 8.04377E-01-1.40035E-03 3.01221E-01 1.14360E-13-1.52499E-13
 -1      3609 2.03018E+01 5.11554E-01 2.19226E-03-1.41911E-02-1.06529E-13-1.71035E-13
 -1      3610 2.02769E+01 4.12049E-01-1.77372E-03 6.45333E-02-9.90838E-14-1.60786E-13
 -1      3611 2.03040E+01 4.33005E-01 1.44916E-04 7.60247E-02-9.06889E-14-1.50990E-13
 -1      3612 2.00182E+01 2.29923E+00-3.74316E-03-1.51658E-01-2.40453E-14-3.13967E-13
 -1      3613 2.00323E+01 2.26692E+00-2.77192E-03-2.70275E-01-4.68770E-14-2.90534E-13
 -1      3614 2.01124E+01 2.06901E+00 4.64831E-03-2.73202E-01-5.03679E-14-2.69398E-13
 -1      3615 2.01255E+01 2.02594E+00 5.17342E-03-8.59860E-02-9.98291E-15-2.87555E-13
 -1      3616 2.02542E+01 1.43151E+00-2.75407E-03-5.65426E-01-1.52345E-13-2.19421E-13
 -1      3617 2.02956E+01 1.24512E+00 6.60825E-03-4.91043E-01-1.58260E-13-1.94943E-13
 -1      3618 2.02895E+01 1.00141E+00-4.94673E-03-3.45201E-01-1.35329E-13-1.83260E-13
 -1      3619 2.02259E+01 1.56470E+00-2.81245E-03-5.02708E-01-1.32245E-13-2.04076E-13
 -1      3620 2.03245E+01 7.90544E-01 5.04733E-03-2.01018E-01-1.34682E-13-1.68259E-13
 -1      3621 2.03021E+01 6.33090E-01-2.86893E-03-9.26639E-02-1.16407E-13-1.72921E-13
 -1      3622 2.03282E+01 6.53097E-01 2.05257E-04-6.34475E-02-1.20798E-13-1.19443E-13
 -1      3623 2.43707E+01-3.87096E+00 6.00648E-02-1.79090E+00-6.03723E-14-3.79679E-13
 -1      3624 1.15526E+01 5.35911E-01 6.67487E-02-1.41240E+00 1.25733E-13-2.29677E-13
 -1      3625 1.25539E+01-6.51000E-02-2.02403E-02-2.79404E+00 4.52798E-14-3.87114E-13
 -1      3626 1.16737E+01 6.91923E-01 2.39407E-02 5.32335E-01-1.52916E-14-1.40721E-13
 -1      3627 1.15833E+01 6.95162E-01 4.45175E-02-8.35965E-01 3.27065E-14-2.31967E-13
 -1      3628 1.30245E+01 6.82515E-01 7.20290E-02-1.29067E+00 4.65062E-14-1.43378E-13
 -1      3629 2.18436E+01-3.31479E+00 7.76673E-02-3.13732E+00 8.31002E-14 2.35251E-14
 -1      3630 2.32830E+01-3.38753E+00-2.06234E-02-1.84620E+00 3.07861E-14-6.70681E-14
 -1      3631 1.84903E+01-2.37851E+00 1.06142E-01-4.22359E+00-3.56503E-14-1.51990E-13
 -1      3632 2.01691E+01-3.12944E+00-2.01006E-02-3.76189E+00 4.66016E-14 1.82077E-14
 -1      3633 2.05380E+01-2.63720E+00 5.82910E-03-3.20535E+00 6.67574E-14-3.29741E-14
 -1      3634 1.76307E+01-1.67208E+00 3.56277E-02-3.80859E+00 4.43760E-14-2.59695E-13
 -1      3635 1.15199E+01 4.73904E-01 4.53243E-02 1.42806E+00 1.43699E-13-2.49467E-13
 -1      3636 1.11241E+01 6.64756E-01 5.17203E-02-1.65212E-01 1.62627E-13-1.88842E-13
 -1      3637 1.26016E+01 7.67678E-01 7.61780E-02-6.84529E-01 8.66616E-14-2.39440E-13
 -1      3638 1.98634E+01 3.79719E-01 5.84694E-04-3.31627E-01-1.18038E-13 1.66860E-13
 -1      3639 2.40527E+01-3.14919E+00 9.32912E-03 9.93217E-01-9.64645E-14 2.02134E-13
 -1      3640 2.25286E+01-3.94800E+00-4.85201E-02-3.02730E+00 8.23716E-14-2.70908E-13
 -1      3641 2.30560E+01-3.35167E+00 1.79201E-02-2.06587E+00 3.22242E-14-2.69874E-13
 -1      3642 2.21780E+01-2.80096E+00 6.27440E-02-2.39511E+00 1.39514E-13-2.63257E-13
 -1      3643 2.04865E+01-3.18599E+00 5.85775E-02-3.76185E+00 8.51159E-14-1.18993E-13
 -1      3644 2.02756E+01 1.27228E+00-2.26990E-04 4.37341E-01 1.29845E-13-2.18419E-13
 -1      3645 2.00741E+01-2.61495E+00-1.85928E-02 3.46785E+00 1.18848E-13 1.16702E-13
 -1      3646 2.11289E+01-2.93835E+00 3.35503E-02 3.18279E+00-8.66928E-15 3.47980E-13
 -1      3647 1.98430E+01-2.34979E+00-2.57858E-03 3.34280E+00 2.77729E-14 3.79225E-13
 -1      3648 2.32728E+01-2.86234E+00 5.38060E-02 1.51866E+00-1.39675E-13 2.24314E-13
 -1      3649 1.97174E+01 4.74970E-01-2.67087E-04-8.49482E-02-1.22983E-13-8.74999E-14
 -1      3650 1.97072E+01 4.80527E-01-1.02396E-03-3.19512E-02-4.45655E-14-2.66411E-13
 -1      3651 2.02446E+01 3.91218E-01-1.88896E-03-5.11103E-02 4.95937E-14-1.00095E-13
 -1      3652 2.02749E+01 4.90287E-01 3.31767E-03 3.50486E-02 7.55502E-14-1.32970E-13
 -1      3653 2.01250E+01 1.62999E-01-1.27236E-03-2.62790E-01 3.61428E-14-6.06260E-14
 -1      3654 1.44346E+01-1.41185E-01 7.47155E-02-2.91634E+00 2.46643E-14-4.02230E-13
 -1      3655 2.00609E+01 1.79916E-01-7.83662E-04-4.34979E-01 5.47481E-14-5.26384E-15
 -1      3656 2.00793E+01 2.03139E-01-9.03424E-05-4.02553E-01 4.08523E-14-5.09689E-14
 -1      3657 2.00555E+01 1.99869E-01 1.28479E-03-4.70504E-01 5.64351E-14 1.50370E-14
 -1      3658 2.01356E+01 1.88327E-01-3.10964E-04-3.36979E-01 2.80247E-14-1.30090E-13
 -1      3659 2.01281E+01 1.58564E-01 5.61862E-04-3.38061E-01 5.51466E-14-1.00591E-13
 -1      3660 2.01413E+01 1.66986E-01 5.10342E-04-3.02528E-01 4.10697E-14-8.78165E-14
 -1      3661 1.99524E+01 3.06275E-01 4.42233E-04-5.53155E-01 5.34351E-14 1.98780E-14
 -1      3662 2.00186E+01 2.51403E-01 1.54110E-03-5.48571E-01 5.99373E-14 5.88055E-14
 -1      3663 2.00217E+01 2.23003E-01-1.29489E-03-5.07110E-01 9.03612E-14 4.69118E-14
 -1      3664 2.07222E+01-2.65419E+00-3.15949E-02-3.08966E+00 1.79549E-13-8.00089E-14
 -1      3665 1.57453E+01-1.01638E+00 7.98595E-02 3.85615E+00-3.36554E-14 2.79179E-13
 -1      3666 1.52847E+01-4.14192E-01 1.19756E-02 3.18829E+00 7.04332E-14 2.47634E-13
 -1      3667 1.74262E+01-1.42819E+00 1.25980E-02 3.66570E+00 1.20639E-13 4.69739E-13
 -1      3668 1.99042E+01 3.36046E-01-1.17155E-03 3.04449E-01 2.13467E-15-2.12756E-13
 -1      3669 1.99437E+01 3.08606E-01 6.32424E-04 3.12890E-01 9.30145E-14-8.95421E-14
 -1      3670 1.99969E+01 2.59194E-01 3.52119E-04 2.99063E-01 2.40640E-13-1.04278E-13
 -1      3671 1.98080E+01 4.04808E-01-1.96005E-03 2.41409E-01 2.82500E-14-4.56120E-13
 -1      3672 1.98532E+01 3.79594E-01 1.38210E-03 2.75409E-01-3.65088E-14-3.79372E-13
 -1      3673 1.98585E+01 3.78892E-01-4.80208E-04 3.24111E-01 9.18602E-14-2.35025E-13
 -1      3674 1.53993E+01-5.96376E-01 4.84372E-02-3.45719E+00 1.38497E-13-6.64685E-14
 -1      3675 1.70362E+01-8.64876E-01 2.19425E-02-3.30035E+00 1.08879E-13-7.85231E-14
 -1      3676 1.48103E+01 5.26763E-02 4.49334E-03-2.69311E+00 1.11923E-13-1.21420E-13
 -1      3677 1.96988E+01-2.37847E+00 3.53488E-02-3.49154E+00 1.60519E-13-9.00321E-14
 -1      3678 2.02224E+01 1.59928E+00-4.55810E-03 2.66854E-01 6.46535E-14-2.74391E-13
 -1      3679 2.02102E+01 1.66113E+00-2.50907E-03 1.88811E-01 4.22932E-14-3.02931E-13
 -1      3680 1.97074E+01 4.80695E-01-9.02616E-04 3.14473E-02-7.42597E-14-2.12820E-13
 -1      3681 1.97172E+01 4.74459E-01-4.42299E-04 8.46252E-02-8.07077E-15-1.01090E-13
 -1      3682 1.96605E+01 5.20952E-01 1.60173E-03-1.70189E-04-8.46576E-14-2.16140E-13
 -1      3683 2.02059E+01 2.57064E-01-8.42594E-04-1.75718E-01 4.20049E-14-1.05580E-13
 -1      3684 2.02311E+01 3.16541E-01 2.39036E-03-1.14962E-01 4.33739E-14-9.14452E-14
 -1      3685 2.02804E+01 4.15282E-01-1.12715E-03-6.52258E-02 4.54380E-14-1.66011E-13
 -1      3686 1.60823E+01-1.36626E+00 7.01239E-02 4.09228E+00 1.76109E-13-2.02564E-13
 -1      3687 1.53907E+01-7.01001E-01 1.26323E-02 3.49010E+00 1.56907E-13-2.62287E-13
 -1      3688 1.75492E+01-1.57027E+00 2.99998E-03 3.72906E+00 1.43752E-13-3.01512E-14
 -1      3689 2.03085E+01 1.01298E+00-2.42056E-03-2.84626E-01-1.36489E-13-1.73429E-13
 -1      3690 2.02017E+01 1.69653E+00-3.39292E-03 1.22546E-01 2.68769E-14-3.02397E-13
 -1      3691 2.01976E+01 1.71761E+00-2.52125E-03 3.69546E-02-3.34426E-15-2.76931E-13
 -1      3692 2.02822E+01 1.45269E+00 5.80986E-03 1.22734E-01 2.57141E-14-2.75686E-13
 -1      3693 1.37129E+01 3.87805E-01-1.26350E-02 2.06722E+00 4.81637E-14 1.27110E-13
 -1      3694 1.26109E+01 7.17709E-01 8.48427E-02 1.38945E+00-3.51646E-14 5.44703E-14
 -1      3695 1.31880E+01 8.92956E-01 3.66731E-02 6.03728E-01 2.70539E-14-1.54647E-13
 -1      3696 2.02131E+01 1.63026E+00-4.02396E-03-4.29635E-01-1.26741E-13-2.14826E-13
 -1      3697 2.02923E+01 1.34744E+00 6.88407E-03-3.79218E-01-1.24185E-13-1.94446E-13
 -1      3698 2.01884E+01 1.72002E+00-3.78561E-03-3.47155E-01-9.21721E-14-2.19326E-13
 -1      3699 1.25754E+01 4.02112E-01 8.01251E-02 2.08238E+00 1.82180E-13-2.07778E-13
 -1      3700 1.31034E+01 7.20314E-01 3.12635E-02 1.24873E+00 1.70919E-13-2.19179E-13
 -1      3701 1.38301E+01 1.14220E-01 1.59699E-02 2.54797E+00 2.11759E-13-2.51840E-13
 -1      3702 1.97454E+01 4.60472E-01 4.13726E-04-2.38553E-01-1.82265E-13 2.61349E-13
 -1      3703 1.97653E+01 4.42473E-01 6.07032E-04-1.90298E-01-1.65786E-13 1.87300E-13
 -1      3704 1.97365E+01 4.58279E-01-1.50274E-03-1.44036E-01-1.89613E-13 4.21444E-14
 -1      3705 2.21105E+01-2.86264E+00-1.55337E-02 2.28858E+00-6.06221E-14 2.69351E-13
 -1      3706 2.00322E+01-1.80134E+00 1.51795E-02 2.86583E+00-2.06393E-14 1.97773E-13
 -1      3707 1.85705E+01-1.63802E+00 2.94717E-02 3.50384E+00 1.47213E-13 3.43590E-13
 -1      3708 1.77088E+01-1.00958E+00-1.74616E-02 3.20314E+00 1.69432E-13 4.16230E-13
 -1      3709 1.94887E+01-1.24080E+00-4.94780E-04 2.72522E+00-7.97382E-15 6.73476E-14
 -1      3710 2.02375E+01 2.68815E-01 2.14408E-04 2.10252E-01-3.90287E-14-8.57503E-14
 -1      3711 2.02054E+01 2.46768E-01-2.24241E-04 2.46333E-01-2.78775E-14-7.19454E-14
 -1      3712 2.01626E+01 2.37627E-01-2.90309E-04 2.73383E-01 3.57930E-15-6.26145E-14
 -1      3713 2.01273E+01 2.39629E-01 1.77688E-04 3.05326E-01 5.86081E-14-8.72745E-14
 -1      3714 2.01954E+01 2.71957E-01 4.68875E-04 2.26535E-01-1.19297E-14-6.27547E-14
 -1      3715 2.00755E+01 2.50986E-01-8.02952E-04 3.31416E-01 6.30613E-14-7.91995E-14
 -1      3716 2.00369E+01 2.71407E-01 4.53614E-04 3.63528E-01 3.39666E-14-7.73294E-14
 -1      3717 2.01018E+01 2.73425E-01 5.94604E-04 2.79800E-01 6.31758E-14-5.78323E-14
 -1      3718 1.99758E+01 2.98216E-01-1.31216E-03 3.92028E-01 3.96191E-14-4.60007E-14
 -1      3719 1.99329E+01 3.32259E-01 6.32011E-04 4.27816E-01 3.40900E-14-6.37640E-15
 -1      3720 1.99919E+01 3.14810E-01 8.80595E-04 3.33595E-01 4.71967E-14-5.16217E-14
 -1      3721 1.98615E+01 3.69971E-01-1.83017E-03 4.61517E-01-4.64148E-14-3.47905E-14
 -1      3722 1.98130E+01 4.13157E-01 7.57968E-04 5.03734E-01-8.61228E-14-3.93460E-14
 -1      3723 1.98642E+01 3.85754E-01 1.26159E-03 3.93859E-01-6.76829E-15-3.74841E-15
 -1      3724 1.97293E+01 4.57286E-01-2.37880E-03 5.45060E-01-1.04399E-13-5.46207E-14
 -1      3725 1.96737E+01 5.04843E-01 8.89517E-04 5.96025E-01-9.21141E-14-7.43096E-14
 -1      3726 1.97153E+01 4.76809E-01 1.73074E-03 4.65492E-01-1.04370E-13-8.54651E-14
 -1      3727 1.95754E+01 5.50064E-01-2.96903E-03 6.47410E-01-3.73850E-14-7.23203E-14
 -1      3728 1.95120E+01 5.96048E-01 1.11375E-03 7.09242E-01-7.63276E-15-7.79753E-14
 -1      3729 1.95408E+01 5.77984E-01 2.25501E-03 5.53179E-01-4.45072E-14-6.14128E-14
 -1      3730 1.93965E+01 6.35408E-01-3.63848E-03 7.73478E-01-2.35124E-14-4.25290E-14
 -1      3731 1.93259E+01 6.71933E-01 1.56906E-03 8.48546E-01-1.81608E-14 4.94350E-15
 -1      3732 1.93359E+01 6.77317E-01 2.83615E-03 6.61999E-01 7.73158E-16-6.09190E-14
 -1      3733 1.91910E+01 6.95963E-01-4.44249E-03 9.29552E-01-1.64335E-14 4.22364E-14
 -1      3734 1.91162E+01 7.12291E-01 2.50279E-03 1.02122E+00-2.45943E-14 3.05629E-14
 -1      3735 1.90959E+01 7.59277E-01 3.41051E-03 7.98567E-01 8.30296E-15 5.91709E-15
 -1      3736 1.89603E+01 7.07810E-01-5.41545E-03 1.12546E+00-1.92582E-14 6.09140E-15
 -1      3737 1.88898E+01 6.88768E-01 4.27094E-03 1.23915E+00-2.05497E-14 8.74108E-15
 -1      3738 1.88172E+01 8.03385E-01 3.93920E-03 9.73354E-01-4.94030E-14-1.92270E-14
 -1      3739 1.87137E+01 6.36991E-01-6.54348E-03 1.37716E+00-6.41468E-16 4.34126E-14
 -1      3740 1.86642E+01 5.61175E-01 7.31583E-03 1.52105E+00 6.81894E-14 5.98227E-14
 -1      3741 1.84992E+01 7.80886E-01 4.23235E-03 1.20420E+00 2.71537E-14-4.11720E-14
 -1      3742 1.84742E+01 4.36250E-01-7.69694E-03 1.70935E+00 1.57864E-13 7.73091E-14
 -1      3743 1.84767E+01 2.72602E-01 1.14971E-02 1.89510E+00 1.85023E-13 6.83650E-14
 -1      3744 1.81476E+01 6.50840E-01 3.59544E-03 1.52002E+00 1.27797E-13 1.09510E-14
 -1      3745 1.82922E+01 4.61387E-02-5.89482E-03 2.15544E+00 1.67648E-13 2.29981E-15
 -1      3746 1.83952E+01-2.56177E-01 1.67797E-02 2.40020E+00 1.30530E-13 2.42546E-14
 -1      3747 1.77828E+01 3.49988E-01-4.74912E-04 1.96324E+00 1.65742E-13-1.11572E-13
 -1      3748 1.98104E+01 4.26450E-01 8.27694E-04-3.45198E-01-2.48023E-13 1.30548E-13
 -1      3749 2.02982E+01 3.57863E-01 6.62068E-04 1.33000E-01-5.13717E-14-1.12967E-13
 -1      3750 2.02701E+01 3.04671E-01-7.87848E-04 1.78340E-01-5.21636E-14-9.63757E-14
 -1      3751 2.02721E+01 3.22255E-01 4.92220E-04 1.66846E-01-3.71596E-14-7.40649E-14
 -1      3752 1.96839E+01 5.05434E-01 1.73467E-03-1.26971E-01-2.34133E-13-9.28021E-14
 -1      3753 2.03073E+01 6.38267E-01-1.01849E-03 9.30546E-02 5.98196E-14-2.05180E-13
 -1      3754 2.02765E+01 6.13250E-01-2.28255E-03 1.25559E-01 8.58480E-14-1.61079E-13
 -1      3755 2.01663E+01 1.84938E-01-1.50156E-05-2.66296E-01 2.93129E-14-1.16693E-13
 -1      3756 2.01854E+01 2.15002E-01 1.39901E-03-2.22108E-01 3.02423E-14-9.46756E-14
 -1      3757 2.01886E+01 2.10299E-01-5.40919E-04-2.66697E-01 3.94859E-14-1.66769E-13
 -1      3758 1.85360E+01-4.51041E-01 1.34118E-02-2.51540E+00 1.85920E-13-2.25541E-13
 -1      3759 1.83831E+01-7.80907E-02 2.34002E-03-2.26689E+00 1.59068E-13-2.48715E-13
 -1      3760 1.85316E+01 1.69213E-01 1.20385E-02-1.98903E+00 2.18773E-13-2.61110E-13
 -1      3761 1.84997E+01 3.68010E-01-6.63864E-03-1.79394E+00 1.81106E-13-6.41673E-14
 -1      3762 1.78038E+01 2.27933E-01-2.31603E-03-2.09717E+00 2.21414E-13-2.62593E-13
 -1      3763 1.86730E+01 5.21896E-01 8.32869E-03-1.58892E+00 5.00241E-14 3.84436E-14
 -1      3764 1.87022E+01 6.21939E-01-6.40598E-03-1.43492E+00 2.70200E-14 1.14596E-13
 -1      3765 1.81208E+01 6.04917E-01 2.26868E-03-1.61450E+00 1.84678E-13-6.79414E-14
 -1      3766 1.88693E+01 6.94543E-01 4.79286E-03-1.28307E+00-4.75064E-14 7.20606E-14
 -1      3767 1.89270E+01 7.31386E-01-5.38367E-03-1.15934E+00-1.59446E-13 3.95466E-14
 -1      3768 1.84506E+01 7.85721E-01 3.97562E-03-1.26577E+00-1.24910E-14-1.12772E-13
 -1      3769 1.90758E+01 7.51528E-01 2.72355E-03-1.04334E+00-3.93976E-14 9.89325E-14
 -1      3770 1.91412E+01 7.48694E-01-4.46740E-03-9.41571E-01 5.63075E-14 1.70313E-13
 -1      3771 1.87538E+01 8.43956E-01 4.04579E-03-1.00906E+00 7.20623E-15-1.60377E-13
 -1      3772 1.92691E+01 7.36480E-01 1.60071E-03-8.49751E-01-2.32526E-14 1.63634E-13
 -1      3773 1.93316E+01 7.10222E-01-3.70924E-03-7.64474E-01 8.53480E-14 1.27899E-13
 -1      3774 1.90192E+01 8.27126E-01 3.70943E-03-8.11903E-01-8.86403E-16 5.79299E-14
 -1      3775 1.94388E+01 6.79845E-01 1.02085E-03-6.89995E-01 1.24335E-13 3.45697E-14
 -1      3776 1.94936E+01 6.41582E-01-3.09376E-03-6.17866E-01 1.98529E-13-3.08279E-14
 -1      3777 1.92445E+01 7.65828E-01 3.22719E-03-6.55020E-01 4.08666E-14 1.47537E-13
 -1      3778 1.95818E+01 6.02827E-01 7.37070E-04-5.56597E-01 6.13532E-14-6.15474E-14
 -1      3779 1.96273E+01 5.60409E-01-2.55199E-03-4.95594E-01-5.17273E-14 1.57052E-14
 -1      3780 1.94315E+01 6.81744E-01 2.67517E-03-5.27069E-01 7.75927E-14 8.29323E-15
 -1      3781 1.96987E+01 5.19540E-01 5.40739E-04-4.45079E-01 4.35883E-14 3.72835E-14
 -1      3782 1.97356E+01 4.77883E-01-2.11825E-03-3.93966E-01-1.79286E-14 1.16069E-13
 -1      3783 1.95837E+01 5.89823E-01 2.09062E-03-4.21862E-01-7.77550E-14 2.07603E-15
 -1      3784 1.90945E+01-3.84924E-01-6.70944E-03 2.26337E+00-2.62974E-13 1.44031E-13
 -1      3785 1.93657E+01-7.56019E-01 1.72044E-02 2.43991E+00-1.01504E-13 9.30412E-14
 -1      3786 1.86266E+01-7.21287E-01 1.22443E-04 2.71316E+00-7.82356E-14 2.76214E-13
 -1      3787 1.91250E+01-1.90895E+00 4.66160E-02 3.47299E+00 1.66293E-13 4.43751E-14
 -1      3788 1.92216E+01 5.89478E-01 4.44865E-03-1.26921E+00-1.03008E-13-1.04455E-13
 -1      3789 1.92545E+01 6.12954E-01-4.16531E-03-1.16313E+00-8.48336E-14-7.87997E-14
 -1      3790 1.93719E+01 6.21356E-01 2.86203E-03-1.05910E+00-7.88172E-14-4.81577E-15
 -1      3791 1.94155E+01 6.09467E-01-3.68483E-03-9.69696E-01-5.47314E-14 5.48793E-14
 -1      3792 1.90856E+01 7.05836E-01 2.43077E-03-1.04262E+00-2.61594E-14-1.02081E-13
 -1      3793 1.90402E+01 1.66097E-01 1.36016E-02-1.84099E+00-1.13026E-13-1.82286E-14
 -1      3794 1.89793E+01 3.23573E-01-5.39736E-03-1.69799E+00-1.06896E-13-7.73127E-14
 -1      3795 1.91351E+01-3.59133E-01 1.92167E-02-2.23361E+00-5.75631E-14-4.38803E-14
 -1      3796 1.89497E+01-7.95906E-02-7.41332E-03-2.07732E+00-9.89455E-14-8.91911E-14
 -1      3797 1.84395E+01 2.30981E-01 1.35783E-02-1.97714E+00-6.12997E-14-1.85188E-13
 -1      3798 1.95029E+01-1.21978E+00 1.42412E-02-2.70890E+00 2.13087E-14-1.73581E-14
 -1      3799 1.91368E+01-7.28089E-01 3.73091E-03-2.53912E+00 4.29448E-14-3.92643E-14
 -1      3800 1.83731E+01-3.26398E-01 1.85450E-02-2.51006E+00-5.39473E-14-2.51953E-13
 -1      3801 1.99306E+01-1.91240E+00 3.58611E-02-3.06502E+00 6.72240E-14 7.87868E-15
 -1      3802 1.30728E+01 9.23133E-01 2.73979E-02 7.87531E-04 7.32660E-14-1.66180E-13
 -1      3803 1.32915E+01 7.38870E-01-1.68107E-02-1.18175E+00 1.28213E-14-2.05426E-13
 -1      3804 1.43569E+01 4.51072E-01 4.74610E-02-2.17222E+00-9.99201E-15-4.57762E-13
 -1      3805 1.56570E+01-3.92345E-01-2.86353E-02-3.10480E+00 3.80872E-14-3.99840E-13
 -1      3806 1.90043E+01 1.56159E-01-8.31918E-03 1.85530E+00-1.72496E-13 2.01885E-13
 -1      3807 1.91217E+01-7.43635E-02 1.16009E-02 2.02222E+00-1.89948E-13 1.43714E-13
 -1      3808 1.85355E+01-1.00425E-02-3.09447E-03 2.14514E+00-2.32187E-13 1.33465E-13
 -1      3809 1.90669E+01 4.64548E-01-7.50937E-03 1.52118E+00-1.77922E-13-1.72353E-14
 -1      3810 1.90947E+01 3.37056E-01 6.67494E-03 1.66557E+00-1.62022E-13 6.25566E-14
 -1      3811 1.86486E+01 4.19050E-01 1.63935E-03 1.70359E+00-8.00745E-14-6.08780E-15
 -1      3812 1.91940E+01 6.14290E-01-6.09356E-03 1.24953E+00 2.82809E-14-2.76838E-13
 -1      3813 1.91767E+01 5.56995E-01 3.80725E-03 1.37220E+00-1.08319E-13-1.69849E-13
 -1      3814 1.88349E+01 6.41871E-01 3.41558E-03 1.36723E+00-2.60760E-14-4.26980E-13
 -1      3815 1.93394E+01 6.60108E-01-4.84095E-03 1.02551E+00 1.70027E-15-3.04613E-13
 -1      3816 1.93029E+01 6.48090E-01 2.10471E-03 1.13016E+00 7.03127E-14-2.42484E-13
 -1      3817 1.90388E+01 7.30960E-01 3.87342E-03 1.10636E+00 4.78379E-14-3.58270E-13
 -1      3818 1.94797E+01 6.41964E-01-3.85908E-03 8.38060E-01-6.70815E-14-3.00390E-13
 -1      3819 1.94383E+01 6.57230E-01 1.13104E-03 9.27822E-01-1.04172E-13-3.58249E-13
 -1      3820 1.92334E+01 7.35681E-01 3.72109E-03 8.98238E-01-7.94918E-14-3.37820E-13
 -1      3821 1.96042E+01 5.88285E-01-3.07736E-03 6.80038E-01 5.70566E-14-1.80866E-13
 -1      3822 1.95652E+01 6.18066E-01 6.03294E-04 7.57023E-01-5.79535E-14-2.31047E-13
 -1      3823 1.94065E+01 6.90432E-01 3.32049E-03 7.28233E-01-1.31187E-13-3.57168E-13
 -1      3824 1.97084E+01 5.16904E-01-3.12378E-03 5.47329E-01 8.42059E-14-4.59057E-13
 -1      3825 1.96757E+01 5.53698E-01 2.44395E-04 6.12107E-01 6.08870E-14-2.39162E-13
 -1      3826 1.95543E+01 6.19488E-01 3.11427E-03 5.86956E-01 1.05751E-13-4.32083E-13
 -1      3827 1.97933E+01 4.45215E-01-2.12311E-03 4.32649E-01 1.65114E-13-3.81492E-13
 -1      3828 1.97673E+01 4.82315E-01 5.05224E-04 4.89750E-01 2.00564E-13-3.54675E-13
 -1      3829 1.96742E+01 5.40550E-01 2.96664E-03 4.69462E-01 8.06123E-14-4.55301E-13
 -1      3830 1.98344E+01 4.09385E-01-1.32877E-04 3.69517E-01 1.16894E-13-3.97901E-13
 -1      3831 2.02946E+01 7.34605E-01 2.84032E-03 2.28647E-01 1.02689E-13-1.70710E-13
 -1      3832 2.02406E+01 1.52960E+00-1.59805E-03 3.24419E-01 8.60850E-14-2.48899E-13
 -1      3833 2.03013E+01 1.34267E+00 6.18473E-03 2.31030E-01 6.72190E-14-2.28610E-13
 -1      3834 2.02577E+01 1.42747E+00-4.70234E-03 3.90696E-01 1.19773E-13-2.37593E-13
 -1      3835 1.90846E+01-1.80351E+00 3.78010E-02-3.39603E+00 1.54283E-13-2.27752E-14
 -1      3836 2.03390E+01 5.22155E-01 1.14362E-03 3.17531E-02-9.39957E-14-1.02859E-13
 -1      3837 2.03177E+01 4.28456E-01-1.52339E-03 9.19644E-02-6.22806E-14-1.06518E-13
 -1      3838 2.03286E+01 4.39332E-01 8.05202E-04 9.29120E-02-5.70376E-14-6.82500E-14
 -1      3839 2.03075E+01 8.59405E-01-2.27860E-03 2.63090E-01 9.28670E-14-2.21715E-13
 -1      3840 1.83118E+01-1.40302E+00-1.30744E-03 3.31520E+00 1.53393E-13 1.42360E-14
 -1      3841 2.01879E+01 1.74287E+00-2.51862E-03-2.77978E-01-6.50351E-14-2.37186E-13
 -1      3842 2.02808E+01 1.44022E+00 6.78311E-03-2.52915E-01-8.77424E-14-1.91107E-13
 -1      3843 2.01866E+01 1.73587E+00-4.06858E-03-1.88546E-01-4.76591E-14-2.56897E-13
 -1      3844 2.03098E+01 1.07922E+00-2.08482E-03-2.35052E-01-1.15592E-13-1.79479E-13
 -1      3845 2.03480E+01 7.78324E-01-8.15437E-04-1.04396E-01-1.06933E-13-1.32449E-13
 -1      3846 2.03402E+01 6.37686E-01-2.26375E-03-2.37294E-02-1.05746E-13-1.08435E-13
 -1      3847 2.03568E+01 6.42065E-01 1.50440E-03-3.02269E-03-9.23632E-14-7.65547E-14
 -1      3848 1.86873E+01-1.20610E+00 1.54235E-02-3.07960E+00 1.98533E-13-1.17871E-13
 -1      3849 1.97815E+01 4.41724E-01 1.24224E-03-6.27872E-01 1.89518E-14 1.44796E-14
 -1      3850 1.98192E+01 3.99183E-01-2.17670E-03-5.75832E-01 4.77659E-14 4.22001E-15
 -1      3851 1.33511E+01 9.01217E-01 9.28369E-03-6.97771E-01 3.66624E-14-8.12631E-14
 -1      3852 1.37827E+01 6.53425E-01 1.41834E-02-1.68400E+00 3.61419E-14-1.24095E-13
 -1      3853 1.90956E+01 4.54603E-01 7.57931E-03-1.52566E+00-8.04571E-14-7.86340E-14
 -1      3854 1.90996E+01 5.32702E-01-4.56942E-03-1.40144E+00-9.36365E-14-8.23489E-14
 -1      3855 1.86305E+01 5.27086E-01 6.65707E-03-1.57683E+00-1.02338E-13-1.95050E-13
 -1      3856 2.03110E+01 1.11836E+00 4.46897E-03 3.18380E-01 1.08305E-13-2.06724E-13
 -1      3857 1.97366E+01 4.58414E-01-1.41863E-03 1.44360E-01 1.00823E-13-1.12255E-13
 -1      3858 1.97662E+01 4.41553E-01 6.29684E-04 1.91060E-01 2.11771E-14-2.95778E-13
 -1      3859 1.96838E+01 5.05523E-01 1.66231E-03 1.26856E-01 1.19548E-13-1.44937E-13
 -1      3860 2.03031E+01 1.22493E+00-3.45405E-03-2.22506E-01-1.08030E-13-1.59471E-13
 -1      3861 2.03434E+01 9.41038E-01 3.31589E-03-1.44845E-01-1.10015E-13-1.39071E-13
 -1      3862 2.03482E+01 9.14469E-01-1.27453E-03-1.00368E-01-7.80180E-14-1.24155E-13
 -1      3863 2.03021E+01 1.24501E+00-4.29707E-03-1.64674E-01-7.62713E-14-1.55245E-13
 -1      3864 1.97237E+01 4.86672E-01 1.53654E-03-3.27560E-01-1.13032E-13 2.67689E-13
 -1      3865 1.76241E+01-6.92380E-01-6.72400E-03-3.00048E+00 1.58594E-13-1.83091E-13
 -1      3866 1.63312E+01-3.54234E-01 3.88907E-03 2.93519E+00 1.47832E-13-2.74932E-13
 -1      3867 1.50698E+01-8.58909E-02 4.88872E-02 2.90942E+00 1.74628E-13-3.25530E-13
 -1      3868 1.48718E+01 3.83237E-01-2.65572E-03 2.17593E+00 1.51430E-13-2.71106E-13
 -1      3869 1.82768E+01-6.46062E-01 8.18943E-04 2.74658E+00 1.27157E-13 7.61805E-14
 -1      3870 1.85522E+01-1.15385E+00 1.81611E-02 3.05866E+00 1.63669E-13 3.15577E-14
 -1      3871 2.03144E+01 1.01503E+00-1.34838E-03 2.39614E-01 8.33414E-14-2.16983E-13
 -1      3872 2.03307E+01 6.70891E-01-1.88692E-03 6.08022E-02 3.12644E-14-1.89657E-13
 -1      3873 2.03443E+01 8.23800E-01 3.67787E-03 1.54208E-01 4.51365E-14-2.02138E-13
 -1      3874 2.03243E+01 1.04632E+00-2.32964E-03 1.92829E-01 7.16256E-14-1.81360E-13
 -1      3875 2.02380E+01 2.80081E-01-1.01852E-03-1.80813E-01 3.58536E-14-1.40995E-13
 -1      3876 2.00189E+01 2.45183E-01 1.65940E-04-4.72245E-01 3.45256E-14 2.00184E-14
 -1      3877 2.01375E+01 2.13650E-01 3.37360E-04-3.23802E-01-1.25142E-14-1.63767E-13
 -1      3878 2.01656E+01 2.15188E-01-5.14436E-05-2.90004E-01 3.27993E-14-1.60970E-13
 -1      3879 1.88552E+01 6.68895E-01 2.67182E-03-1.27489E+00-1.00088E-13-1.60146E-13
 -1      3880 1.98884E+01 3.60110E-01 1.05738E-03-5.32087E-01 5.24481E-14-3.17109E-14
 -1      3881 1.99221E+01 3.21819E-01-1.68029E-03-4.88854E-01 3.59116E-14-1.97414E-14
 -1      3882 1.97977E+01 4.21991E-01 1.30920E-03-5.08396E-01 2.67009E-14-1.03664E-13
 -1      3883 1.92999E+01 6.73556E-01 2.40415E-03-8.62547E-01-9.49980E-14-1.76278E-14
 -1      3884 1.95214E+01 5.89642E-01 1.96958E-03-8.86691E-01-1.19231E-13 2.35540E-14
 -1      3885 1.95663E+01 5.57724E-01-3.17707E-03-8.11577E-01-1.36539E-13-2.42956E-14
 -1      3886 1.86603E+01-1.51371E+00-2.83665E-02-3.26491E+00 3.05827E-14-1.19375E-13
 -1      3887 1.46817E+01 6.71997E-01 2.41679E-02-1.51539E+00-1.11994E-14-3.46244E-13
 -1      3888 1.35519E+01 9.39542E-01 3.79552E-02 5.76577E-01 9.20390E-14-2.05967E-13
 -1      3889 1.41636E+01 9.90500E-01-1.47365E-02 1.14623E-01 5.82867E-15-1.53003E-13
 -1      3890 1.41818E+01 8.14605E-01-8.55402E-04 1.22891E+00 1.22327E-13-1.68296E-13
 -1      3891 1.96303E+01 5.37790E-01 6.99723E-06-1.72397E-01-1.46455E-13 9.48150E-14
 -1      3892 1.96043E+01 5.50670E-01-1.71706E-03-1.10696E-01-6.28762E-14-1.32805E-13
 -1      3893 1.97647E+01 4.54523E-01-3.21052E-04 3.53985E-01 1.52850E-13-2.80788E-13
 -1      3894 1.97573E+01 4.55153E-01 1.55037E-03 2.42389E-01 1.90803E-13-3.35771E-13
 -1      3895 1.51438E+01 3.92647E-01 2.74702E-02-2.12774E+00 1.22888E-13-1.88265E-13
 -1      3896 1.95924E+01 5.60558E-01-5.85280E-04-3.30696E-02-1.32185E-13-1.84133E-13
 -1      3897 1.95912E+01 5.59092E-01-1.42427E-03 3.28970E-02-1.52376E-13-1.17402E-13
 -1      3898 1.95408E+01 6.01916E-01 1.54247E-03-7.87385E-02-9.72168E-14-1.51273E-13
 -1      3899 1.96592E+01 5.23046E-01 1.50804E-03-7.44660E-01-6.15990E-14 2.18487E-14
 -1      3900 1.97011E+01 4.81944E-01-2.67315E-03-6.81928E-01 3.52929E-15 2.95467E-14
 -1      3901 1.94899E+01 6.02109E-01 2.12000E-03-7.18738E-01-8.98197E-14-5.79353E-14
 -1      3902 1.96684E+01 5.15391E-01-9.89456E-04-2.76044E-01-1.62470E-13 2.80086E-13
 -1      3903 2.03136E+01 1.22042E+00-3.39981E-03 1.18585E-01 4.20825E-14-2.48368E-13
 -1      3904 2.03087E+01 1.25925E+00-1.96730E-03 6.55190E-02 1.67051E-14-2.53386E-13
 -1      3905 1.49107E+01 2.06702E-01 6.39964E-02 2.62115E+00 1.57287E-14 2.42764E-13
 -1      3906 1.47888E+01 5.34645E-01 8.79139E-03 1.91516E+00 4.58661E-15 1.60223E-13
 -1      3907 1.61802E+01-2.39155E-01 9.83108E-04 2.84220E+00 1.21993E-13 4.32686E-13
 -1      3908 2.01922E+01 1.72717E+00-3.89735E-03-3.26468E-02-2.24228E-14-2.78336E-13
 -1      3909 2.01843E+01 1.76457E+00-2.31772E-03-1.15937E-01-2.88394E-14-2.80631E-13
 -1      3910 2.02739E+01 1.48672E+00 5.60156E-03-1.26996E-01-3.77013E-14-2.21833E-13
 -1      3911 2.02705E+01 1.50136E+00 5.12929E-03 2.01677E-04-2.00369E-14-2.58009E-13
 -1      3912 1.96552E+01 5.13023E-01 1.72386E-03-6.02655E-01-5.36646E-15 3.16376E-14
 -1      3913 1.73485E+01-8.06866E-01 5.17863E-02-3.23321E+00 4.23528E-14-2.55151E-13
 -1      3914 1.36831E+01 1.04168E+00 4.27495E-02 7.92020E-03 1.15057E-13-1.12665E-13
 -1      3915 1.44427E+01 1.04249E+00 2.05285E-02-3.82495E-01 1.54789E-14-8.33838E-14
 -1      3916 1.41670E+01 9.20833E-01-2.46582E-02 7.91615E-01 1.31562E-13 9.71792E-15
 -1      3917 1.69775E+01-2.77341E-01-1.29674E-02-2.70592E+00 1.80585E-14-2.98490E-13
 -1      3918 1.74550E+01-2.27046E-01-1.43444E-02 2.60318E+00 1.73265E-13-1.43467E-13
 -1      3919 2.00642E+01 2.37204E-01 6.42615E-04-3.85732E-01-1.51348E-14-6.61352E-14
 -1      3920 2.00932E+01 2.21060E-01-6.13047E-04-3.52434E-01-2.45542E-14-1.51773E-13
 -1      3921 2.01205E+01 2.46761E-01 3.68366E-04-3.06468E-01-3.42451E-14-1.96658E-13
 -1      3922 2.03201E+01 1.11888E+00-1.44155E-03 1.54695E-01 4.74184E-14-2.10452E-13
 -1      3923 2.03115E+01 4.46136E-01-1.04008E-03-7.27937E-02 2.22251E-14-1.63345E-13
 -1      3924 2.03322E+01 5.45387E-01 2.26214E-03-3.52265E-03 2.87687E-14-1.69180E-13
 -1      3925 2.03524E+01 7.11633E-01 2.88032E-04 4.48141E-02 2.50529E-14-1.72088E-13
 -1      3926 2.03551E+01 9.70062E-01 2.61950E-03 8.91768E-02 5.34777E-14-2.14344E-13
 -1      3927 2.02236E+01 2.94585E-01-3.04922E-04 1.72461E-01-1.57744E-14-5.11491E-14
 -1      3928 2.01801E+01 2.82720E-01-3.28311E-04 1.99805E-01 1.56905E-14-3.33815E-14
 -1      3929 2.01246E+01 2.83482E-01-6.93548E-04 2.18044E-01 3.57136E-14-3.76249E-14
 -1      3930 2.00735E+01 2.95567E-01-1.04484E-04 2.43691E-01 6.79703E-14-4.10850E-14
 -1      3931 2.01550E+01 3.06283E-01 7.99536E-04 1.64154E-01 1.92362E-14 6.47655E-15
 -1      3932 2.00061E+01 3.16922E-01-1.09353E-03 2.62469E-01 5.74632E-14-5.25425E-14
 -1      3933 1.99470E+01 3.47436E-01 3.36672E-05 2.89346E-01 6.58104E-14-3.07345E-14
 -1      3934 2.00340E+01 3.29377E-01 1.01427E-03 1.99915E-01 4.77598E-14-1.31635E-14
 -1      3935 1.98669E+01 3.84331E-01-1.53842E-03 3.10898E-01 3.77356E-14-6.24435E-14
 -1      3936 1.97983E+01 4.28117E-01 4.46150E-05 3.41588E-01-4.33390E-14-5.38363E-14
 -1      3937 1.98903E+01 3.91500E-01 1.45721E-03 2.37599E-01 1.15153E-14-4.75341E-14
 -1      3938 1.97037E+01 4.75593E-01-2.09712E-03 3.67631E-01-7.66960E-14-7.33913E-14
 -1      3939 1.96237E+01 5.28150E-01 3.28005E-06 4.04178E-01-8.29892E-14-3.18747E-14
 -1      3940 1.97206E+01 4.82239E-01 2.04751E-03 2.81511E-01-3.04758E-14-6.38505E-14
 -1      3941 1.95112E+01 5.81553E-01-2.76272E-03 4.36811E-01-1.08024E-13-9.06112E-14
 -1      3942 1.94176E+01 6.37659E-01-2.56620E-05 4.81488E-01-6.42110E-14-1.00290E-13
 -1      3943 1.95198E+01 5.91642E-01 2.58929E-03 3.34033E-01-9.26373E-14-2.62402E-14
 -1      3944 1.92834E+01 6.91048E-01-3.55714E-03 5.22816E-01-6.18600E-15-1.46077E-13
 -1      3945 1.91739E+01 7.44443E-01 3.54899E-05 5.78121E-01 2.86960E-14-1.30209E-13
 -1      3946 1.92815E+01 7.09967E-01 3.46423E-03 3.99905E-01-6.73493E-14-1.44888E-13
 -1      3947 1.90125E+01 7.90710E-01-4.64081E-03 6.31194E-01 6.32587E-14-1.61010E-13
 -1      3948 1.88852E+01 8.33622E-01 2.90144E-04 7.00929E-01 1.02549E-14-1.63597E-13
 -1      3949 1.89967E+01 8.24893E-01 4.52041E-03 4.83256E-01 1.19714E-14-2.32639E-13
 -1      3950 1.86897E+01 8.63556E-01-6.15605E-03 7.70613E-01-4.83296E-14-1.17843E-13
 -1      3951 1.85439E+01 8.86372E-01 1.08327E-03 8.61076E-01-5.12668E-14-1.07678E-13
 -1      3952 1.86539E+01 9.22146E-01 5.83860E-03 5.91621E-01-1.71824E-14-2.10433E-13
 -1      3953 1.83042E+01 8.87548E-01-8.33796E-03 9.56540E-01 3.57942E-14-6.14955E-14
 -1      3954 1.81424E+01 8.76451E-01 2.80041E-03 1.07851E+00 1.30860E-13-3.53771E-14
 -1      3955 1.82381E+01 9.84798E-01 7.74852E-03 7.37481E-01 1.69854E-14-7.77494E-14
 -1      3956 1.78443E+01 8.31931E-01-1.16008E-02 1.21454E+00 1.19784E-13-4.72790E-14
 -1      3957 1.76755E+01 7.68703E-01 6.26779E-03 1.38571E+00 1.25314E-13-8.65937E-14
 -1      3958 1.77284E+01 9.90247E-01 1.06648E-02 9.44282E-01 9.99580E-14-4.35312E-14
 -1      3959 1.72995E+01 6.57826E-01-1.51678E-02 1.59163E+00 1.05232E-13-1.56614E-13
 -1      3960 1.71571E+01 5.12278E-01 1.49804E-02 1.83556E+00 9.04088E-14-2.20228E-13
 -1      3961 1.70910E+01 9.10746E-01 1.45019E-02 1.25100E+00 5.02491E-14-1.07789E-13
 -1      3962 1.71045E+01 4.04233E-01 1.18915E-02-2.00760E+00 2.33659E-13-3.43031E-13
 -1      3963 1.72372E+01 6.03806E-01-1.06949E-02-1.72717E+00 2.55791E-13-3.92589E-13
 -1      3964 2.02692E+01 3.08534E-01-3.90304E-04-1.72125E-01 1.84683E-14-1.55420E-13
 -1      3965 2.02947E+01 3.66872E-01 1.48143E-03-1.20466E-01 2.56857E-14-1.72619E-13
 -1      3966 2.03345E+01 4.80870E-01-5.16038E-05-6.85379E-02 3.61427E-14-1.95720E-13
 -1      3967 2.03667E+01 7.93868E-01-1.47415E-03 5.26872E-02 4.03349E-14-2.08825E-13
 -1      3968 2.03670E+01 8.95063E-01 8.50789E-04 3.36510E-02 4.49642E-14-2.16188E-13
 -1      3969 2.03655E+01 6.58070E-01-6.51544E-04-1.00086E-02 2.48591E-14-2.21372E-13
 -1      3970 2.02030E+01 2.27618E-01-1.85495E-05-2.59717E-01 5.13553E-14-1.87494E-13
 -1      3971 2.02306E+01 2.51790E-01 5.20269E-04-2.20224E-01 3.03905E-14-1.81393E-13
 -1      3972 2.02013E+01 2.52724E-01 1.06113E-04-2.46686E-01 1.77647E-14-2.14177E-13
 -1      3973 1.76136E+01 7.30282E-01 7.22098E-03-1.49753E+00 2.96318E-13-3.32508E-13
 -1      3974 1.77666E+01 8.22135E-01-1.16612E-02-1.30522E+00 2.21737E-13-2.39602E-13
 -1      3975 1.69626E+01 8.62513E-01 5.89989E-03-1.38455E+00 2.85503E-13-4.63255E-13
 -1      3976 1.80673E+01 8.86044E-01 3.60507E-03-1.15070E+00 1.05418E-13-2.19374E-13
 -1      3977 1.82194E+01 9.14980E-01-8.66454E-03-1.01471E+00-3.96802E-14-1.88831E-13
 -1      3978 1.76156E+01 1.00487E+00 1.13868E-02-1.02926E+00 1.96370E-13-4.21558E-13
 -1      3979 1.84588E+01 9.30218E-01 1.51994E-03-9.06290E-01-2.88050E-14-9.57232E-14
 -1      3980 1.85971E+01 9.21707E-01-6.34880E-03-8.04487E-01 1.06371E-13-3.76612E-14
 -1      3981 1.81267E+01 1.03158E+00 8.31708E-03-7.93122E-01 3.33460E-14-1.33494E-13
 -1      3982 1.87900E+01 9.04513E-01 5.14064E-04-7.23990E-01 1.95267E-13-7.71262E-14
 -1      3983 1.89102E+01 8.72502E-01-4.78703E-03-6.44383E-01 6.76323E-14 1.03621E-13
 -1      3984 1.85390E+01 9.95899E-01 6.39346E-03-6.24253E-01 1.17465E-13-4.65965E-14
 -1      3985 1.90660E+01 8.36090E-01 5.47705E-05-5.82203E-01-4.76534E-14 3.04612E-13
 -1      3986 1.91673E+01 7.91042E-01-3.78106E-03-5.17799E-01 1.01894E-13 2.54676E-13
 -1      3987 1.88734E+01 9.19740E-01 5.02689E-03-4.97581E-01 7.96156E-14 2.38897E-13
 -1      3988 1.92933E+01 7.45637E-01 8.05088E-05-4.68606E-01 4.46750E-14 1.25103E-13
 -1      3989 1.93766E+01 6.95181E-01-2.88310E-03-4.15062E-01-4.02971E-14 2.14897E-15
 -1      3990 1.91444E+01 8.20891E-01 3.88106E-03-3.98624E-01-4.22023E-14 2.70929E-13
 -1      3991 1.94778E+01 6.46713E-01 1.17167E-04-3.74943E-01 5.07966E-14 4.97624E-15
 -1      3992 1.95438E+01 5.98005E-01-1.91241E-03-3.30689E-01 2.16171E-14 1.67510E-13
 -1      3993 1.93609E+01 7.13646E-01 2.36917E-03-3.20107E-01 2.04491E-14 1.63961E-13
 -1      3994 1.82268E+01 6.51964E-01-1.00332E-02 1.47943E+00-3.07202E-14-1.77720E-14
 -1      3995 1.81624E+01 5.33880E-01 8.98656E-03 1.66097E+00-4.51055E-14 1.10385E-13
 -1      3996 1.84967E+01 7.61794E-01-1.55878E-03-1.19518E+00-6.59817E-14-1.62914E-13
 -1      3997 1.86219E+01 7.88900E-01-7.17128E-03-1.06606E+00-3.34232E-14-1.48690E-13
 -1      3998 1.88191E+01 7.92981E-01 1.34229E-03-9.64415E-01-1.89220E-14-1.16998E-13
 -1      3999 1.89284E+01 7.77344E-01-5.48529E-03-8.69665E-01 1.78761E-15-6.93016E-14
 -1      4000 1.85151E+01 8.88734E-01 6.24161E-03-8.82531E-01 4.91111E-15-6.05241E-14
 -1      4001 1.73329E+01-5.09261E-03-3.25043E-03-2.32405E+00-2.46531E-14-2.90366E-13
 -1      4002 1.73302E+01 2.86394E-01-3.35714E-02-2.01502E+00-6.10566E-14-2.51473E-13
 -1      4003 1.61560E+01 5.65668E-01 5.35364E-02-2.03979E+00 1.68095E-15-4.27059E-13
 -1      4004 1.77091E+01 4.63589E-01-5.76124E-03-1.75698E+00-6.92490E-14-2.36395E-13
 -1      4005 1.78127E+01 6.21161E-01-2.08349E-02-1.52781E+00-5.95611E-14-2.26444E-13
 -1      4006 1.69706E+01 8.50529E-01 3.86427E-02-1.45407E+00-4.12721E-14-2.94551E-13
 -1      4007 1.95937E+01 5.71268E-01 8.93357E-04-2.66736E-01-5.72493E-14 2.85323E-13
 -1      4008 1.96886E+01 5.02300E-01-1.04961E-05 2.92014E-01 1.42971E-13-3.74280E-13
 -1      4009 1.96408E+01 5.41710E-01-3.16432E-04 3.55015E-01-1.88028E-16-3.65988E-13
 -1      4010 1.96349E+01 5.34252E-01-1.15901E-03 2.36583E-01 1.41401E-13-3.10936E-13
 -1      4011 1.79010E+01 3.59097E-01-1.11136E-02 1.90915E+00-7.78331E-14 1.94948E-13
 -1      4012 1.78886E+01 1.31108E-01 1.39576E-02 2.15856E+00-8.21238E-14 3.42242E-13
 -1      4013 1.75173E+01 6.44865E-01 3.44177E-03 1.65084E+00 3.13401E-14 3.01128E-13
 -1      4014 1.88366E+01 8.24356E-01-5.76525E-03 9.35713E-01 3.50614E-14-3.52343E-13
 -1      4015 1.87407E+01 8.19739E-01 2.37297E-03 1.04313E+00 1.75731E-14-3.41096E-13
 -1      4016 1.90885E+01 7.94325E-01-4.44108E-03 7.53516E-01-1.89492E-13-1.92923E-13
 -1      4017 1.89989E+01 8.17230E-01 1.18762E-03 8.40171E-01-8.11030E-14-2.80227E-13
 -1      4018 1.87323E+01 9.11107E-01 5.09177E-03 7.76682E-01-4.13948E-15-2.08954E-13
 -1      4019 1.93014E+01 7.27059E-01-3.47652E-03 6.06976E-01-3.49455E-15-4.93890E-13
 -1      4020 1.92227E+01 7.65195E-01 5.54730E-04 6.78552E-01-6.36192E-14-3.74506E-13
 -1      4021 1.90170E+01 8.52814E-01 4.26187E-03 6.21084E-01-6.32920E-14-2.62088E-13
 -1      4022 1.94747E+01 6.42927E-01-3.10862E-03 4.85883E-01 1.11980E-13-6.01762E-13
 -1      4023 1.94109E+01 6.87011E-01 3.52424E-04 5.46786E-01 7.60373E-14-5.65244E-13
 -1      4024 1.92514E+01 7.67172E-01 3.40244E-03 4.97946E-01 4.80245E-14-5.91394E-13
 -1      4025 1.95812E+01 5.85303E-01-1.05625E-04 4.01896E-01-3.79135E-14-4.47442E-13
 -1      4026 1.71183E+01-7.09688E-01 3.36972E-02 3.22462E+00 1.46358E-13-1.07912E-13
 -1      4027 1.80063E+01-5.89445E-01 1.68518E-02 2.78372E+00-2.62923E-14 3.62313E-13
 -1      4028 1.70312E+01-3.81602E-01 2.44604E-02 2.91399E+00 8.04031E-14 4.99297E-13
 -1      4029 1.64717E+01 7.78784E-02-1.51933E-02 2.45726E+00-4.75692E-14 4.33809E-13
 -1      4030 1.78699E+01-1.97169E-01-1.27779E-02 2.46209E+00-1.99793E-13 3.62013E-13
 -1      4031 1.45969E+01 1.12001E+00 6.21988E-02-6.63898E-01 2.35207E-14-1.65134E-13
 -1      4032 1.52830E+01 6.70793E-01-7.81843E-03-1.56478E+00 1.07945E-14-3.95591E-13
 -1      4033 1.57608E+01 8.15007E-01-3.51841E-02-1.28785E+00 2.36395E-14-3.57159E-13
 -1      4034 1.48484E+01 1.05115E+00 4.47977E-03-1.02309E-01 7.05252E-15-1.90526E-13
 -1      4035 1.99819E+01 2.88915E-01 8.77037E-04-4.53030E-01 4.41284E-16-6.70168E-15
 -1      4036 2.00127E+01 2.59513E-01-1.16810E-03-4.16297E-01 7.60893E-15-3.76258E-14
 -1      4037 2.00275E+01 2.79163E-01 5.84247E-04-3.65651E-01-1.88797E-14-1.06774E-13
 -1      4038 1.99207E+01 3.40726E-01 9.08163E-04-4.31013E-01 2.88694E-14-9.40989E-14
 -1      4039 2.03534E+01 5.05040E-01 4.51503E-04 5.36813E-02-7.69842E-14-1.04282E-13
 -1      4040 2.03291E+01 4.23187E-01-1.22103E-03 9.50622E-02-4.90691E-14-1.06826E-13
 -1      4041 1.81195E+01 6.61193E-01-7.07718E-03-1.43724E+00-9.00626E-14-2.36105E-13
 -1      4042 1.82524E+01 7.49431E-01-1.20160E-02-1.26454E+00-9.34265E-14-1.99810E-13
 -1      4043 1.81104E+01 9.18066E-01 1.50166E-02-1.03522E+00-3.68052E-14-1.20135E-13
 -1      4044 1.76126E+01 9.34632E-01 2.65485E-02-1.16276E+00-5.13127E-14-2.34053E-13
 -1      4045 2.03733E+01 7.41376E-01 2.80213E-03-3.20746E-02-6.53242E-14-1.33866E-13
 -1      4046 2.03611E+01 6.06805E-01-2.28599E-03 2.07647E-02-7.00132E-14-1.21366E-13
 -1      4047 2.03663E+01 6.00129E-01 1.62325E-03 2.68005E-02-6.65396E-14-1.41256E-13
 -1      4048 1.95370E+01 5.75809E-01 5.09917E-04-5.47342E-01-5.02816E-14 1.10734E-15
 -1      4049 1.96124E+01 5.24237E-01-2.58869E-03-4.98382E-01-2.26293E-14-4.85266E-14
 -1      4050 2.03504E+01 1.09607E+00 3.45545E-03 2.94672E-02 2.13672E-14-2.21505E-13
 -1      4051 2.03042E+01 1.28394E+00-2.88111E-03 2.90589E-02-3.50855E-15-2.46230E-13
 -1      4052 2.03021E+01 1.29607E+00-2.39354E-03-2.89145E-02-2.91605E-14-2.32871E-13
 -1      4053 2.03011E+01 3.63225E-01-3.39521E-05 1.19686E-01-4.30784E-14-8.81516E-14
 -1      4054 2.02663E+01 3.20683E-01-6.98217E-04 1.52386E-01-4.82181E-14-9.19812E-14
 -1      4055 2.03264E+01 4.25697E-01 1.06145E-03 8.20756E-02-5.61199E-14-1.18248E-13
 -1      4056 1.95897E+01 5.62343E-01-7.73944E-04 1.03930E-01-2.53582E-14-2.66202E-13
 -1      4057 1.96124E+01 5.46013E-01-1.31768E-03 1.66508E-01 1.27627E-13-2.78145E-13
 -1      4058 1.95445E+01 6.02912E-01 1.94601E-03 2.15303E-01-1.15484E-13-3.78840E-13
 -1      4059 1.95231E+01 6.12493E-01 1.40701E-03 7.19593E-02 1.18070E-14-2.33597E-13
 -1      4060 1.66355E+01-1.84902E-01 1.07053E-02 2.73277E+00 1.81286E-13-2.34029E-13
 -1      4061 1.85466E+01 7.89555E-01-7.67726E-03 1.16910E+00 7.43119E-14-1.51402E-13
 -1      4062 1.84550E+01 7.40365E-01 4.49792E-03 1.30647E+00 2.60089E-14-2.92317E-15
 -1      4063 1.83915E+01 9.19430E-01 5.79842E-03 9.80133E-01 1.31481E-13 5.01370E-14
 -1      4064 1.95014E+01 6.23835E-01-2.42708E-04-2.19489E-01 3.62339E-14 2.14385E-13
 -1      4065 2.01000E+01 2.70159E-01 4.27791E-05-2.77881E-01-6.15524E-14-1.83331E-13
 -1      4066 2.01441E+01 2.62872E-01-3.53603E-04-2.49104E-01-4.67592E-14-2.12326E-13
 -1      4067 2.01934E+01 2.66353E-01-2.73752E-04-2.25814E-01-2.40028E-14-2.26398E-13
 -1      4068 2.02323E+01 2.80838E-01-5.65374E-04-1.93986E-01 4.35922E-15-2.46017E-13
 -1      4069 2.01741E+01 2.91871E-01 8.54417E-04-1.98374E-01-5.11846E-14-1.88331E-13
 -1      4070 1.51743E+01 6.64959E-01 1.95745E-02 1.61730E+00 8.54772E-14-2.06871E-13
 -1      4071 2.02534E+01 3.34086E-01 9.26237E-04 1.26721E-01-2.07293E-14-7.54195E-14
 -1      4072 1.79892E+01 8.46132E-01 5.98300E-03 1.25759E+00 2.62888E-14 3.85010E-13
 -1      4073 1.88587E+01 8.42633E-01 4.61162E-03-7.13109E-01-3.81191E-14-1.19330E-13
 -1      4074 1.90945E+01 7.53034E-01 1.11911E-03-7.90760E-01-4.37120E-14-8.43539E-14
 -1      4075 1.91929E+01 7.14922E-01-4.21527E-03-7.16155E-01-8.87497E-14-6.17228E-14
 -1      4076 1.97119E+01 4.75528E-01 4.19920E-04-4.60362E-01 4.79338E-15-8.63807E-14
 -1      4077 1.97771E+01 4.27577E-01-1.98482E-03-4.20166E-01 3.16308E-14-1.03595E-13
 -1      4078 1.96083E+01 5.39944E-01 2.20234E-03-4.05782E-01-3.06875E-14-7.00204E-14
 -1      4079 1.69541E+01-1.01768E-01 3.55876E-03-2.60202E+00 1.25556E-13-1.43537E-13
 -1      4080 1.67686E+01 1.67582E-01-8.50889E-03 2.31986E+00 1.71066E-13-2.83179E-13
 -1      4081 1.94626E+01 6.54958E-01 2.04669E-03 3.62017E-01-7.14775E-14-4.89008E-13
 -1      4082 1.72483E+01 2.27471E-01 3.05548E-03 2.20317E+00-6.19194E-14 5.25920E-13
 -1      4083 1.94654E+01 6.43408E-01-3.70593E-04-1.27721E-01-1.59088E-14 2.95831E-14
 -1      4084 1.94480E+01 6.51192E-01-1.35142E-03-4.75510E-02-1.64663E-17-1.91958E-13
 -1      4085 1.94120E+01 6.80663E-01 8.97447E-04-1.92064E-01-2.04914E-14 1.36666E-13
 -1      4086 1.93325E+01 6.73415E-01 6.79711E-04-6.55309E-01-7.04928E-14-6.77357E-14
 -1      4087 1.94194E+01 6.24536E-01-3.29673E-03-5.95192E-01-3.31454E-14 1.67789E-14
 -1      4088 1.91521E+01 7.55508E-01 3.72145E-03-5.84842E-01-6.18572E-14-5.95209E-14
 -1      4089 1.54299E+01 8.46902E-01 1.34334E-03-1.39793E+00 1.19525E-13-3.36465E-13
 -1      4090 1.63323E+01 3.00993E-01-5.48931E-03-2.25711E+00 1.50868E-13-3.24785E-13
 -1      4091 2.03575E+01 8.80165E-01-8.39966E-04-6.51858E-02-7.69787E-14-1.44542E-13
 -1      4092 1.93993E+01 6.49548E-01 2.91635E-03-4.85023E-01-6.04794E-14 3.92687E-15
 -1      4093 1.56706E+01 5.59891E-01-7.31705E-03 1.87486E+00-1.01676E-15 1.96536E-13
 -1      4094 1.48566E+01 8.86049E-01 4.22418E-02 1.37020E+00 4.13617E-14 3.44559E-15
 -1      4095 1.51366E+01 9.89819E-01 2.56473E-03 8.77333E-01 9.54774E-14-7.33944E-14
 -1      4096 1.62966E+01 5.32939E-01-1.72718E-04 1.93693E+00 8.63198E-14-3.04646E-13
 -1      4097 2.03657E+01 9.06058E-01-2.25843E-03 2.18093E-02 3.37310E-14-1.84775E-13
 -1      4098 2.03638E+01 9.34787E-01-2.68192E-04-7.36866E-04-6.05240E-15-1.84624E-13
 -1      4099 2.03848E+01 7.55014E-01 2.62767E-03 2.53879E-03 1.90837E-14-1.79071E-13
 -1      4100 2.02776E+01 3.26143E-01-2.18768E-04-1.66240E-01 4.55076E-14-2.36892E-13
 -1      4101 2.03095E+01 1.24057E+00-1.79402E-03-1.17847E-01-5.32567E-14-2.06838E-13
 -1      4102 2.03522E+01 1.07102E+00 5.47311E-03-9.32635E-02-7.07321E-14-1.74959E-13
 -1      4103 2.03629E+01 8.60491E-01-3.75278E-03-3.26252E-02-6.59166E-14-1.82329E-13
 -1      4104 2.03052E+01 1.26297E+00-2.74184E-03-6.37229E-02-2.44292E-14-2.22674E-13
 -1      4105 1.52009E+01 1.02528E+00 1.38377E-02-9.47169E-01 8.36638E-14-2.11322E-13
 -1      4106 1.63263E+01 9.46321E-01 1.28801E-02-1.16176E+00 2.19787E-13-3.37575E-13
 -1      4107 1.66424E+01 1.01495E+00-1.17374E-02-9.79739E-01 2.74091E-13-3.38952E-13
 -1      4108 1.52848E+01 1.09000E+00-1.82212E-02-2.91522E-01 9.25093E-14-1.10452E-13
 -1      4109 2.00597E+01 3.25246E-01-1.07399E-03 1.30598E-01 5.12007E-14-4.72716E-14
 -1      4110 1.99943E+01 3.48483E-01-1.96585E-04 1.47875E-01 4.75849E-14-3.09670E-14
 -1      4111 1.99133E+01 3.79492E-01-1.39493E-03 1.56745E-01-1.45932E-14-1.83190E-14
 -1      4112 1.98358E+01 4.20322E-01-2.10053E-04 1.75207E-01-3.05305E-14-4.05168E-14
 -1      4113 1.99488E+01 3.80971E-01 1.77359E-03 8.61919E-02 2.26851E-14-7.87380E-14
 -1      4114 1.97407E+01 4.65463E-01-1.57774E-03 1.85357E-01-2.23520E-14-8.56930E-14
 -1      4115 1.96473E+01 5.17656E-01-9.80646E-04 2.05562E-01-6.31112E-14-9.47718E-14
 -1      4116 1.97806E+01 4.60578E-01 2.93559E-03 1.02773E-01-6.40505E-14-4.99476E-14
 -1      4117 1.95336E+01 5.74151E-01-2.43927E-03 2.20447E-01-1.16841E-13-1.01972E-13
 -1      4118 1.94246E+01 6.34633E-01-9.39185E-04 2.45194E-01-1.38810E-13-1.43222E-13
 -1      4119 1.95739E+01 5.72834E-01 4.63281E-03 1.23112E-01-9.99989E-14-2.20287E-13
 -1      4120 1.92882E+01 6.94308E-01-3.38398E-03 2.63490E-01-1.33642E-13-1.55345E-13
 -1      4121 1.91586E+01 7.57191E-01-1.35271E-03 2.93590E-01-6.68277E-14-1.89737E-13
 -1      4122 1.93341E+01 6.97904E-01 7.14273E-03 1.46967E-01-1.01540E-13-2.08771E-13
 -1      4123 1.89937E+01 8.15989E-01-4.48111E-03 3.17519E-01 1.84546E-14-1.86863E-13
 -1      4124 1.88381E+01 8.75294E-01-1.83004E-03 3.55379E-01 1.94890E-14-2.06570E-13
 -1      4125 1.90442E+01 8.29561E-01 9.74396E-03 1.76651E-01-2.74980E-14-2.20839E-13
 -1      4126 1.86358E+01 9.26459E-01-6.08411E-03 3.87337E-01 2.12102E-14-1.96686E-13
 -1      4127 1.84482E+01 9.74933E-01-2.37602E-03 4.37016E-01-1.09031E-14-1.31449E-13
 -1      4128 1.86918E+01 9.56815E-01 1.29370E-02 2.14724E-01 5.03731E-14-1.82507E-13
 -1      4129 1.81962E+01 1.01169E+00-8.09312E-03 4.80896E-01 5.54889E-15-6.29432E-14
 -1      4130 1.79698E+01 1.04218E+00-1.65725E-03 5.51155E-01 6.81920E-14-4.19699E-14
 -1      4131 1.82541E+01 1.06430E+00 1.50863E-02 2.63693E-01 3.75977E-14-1.53537E-13
 -1      4132 1.76460E+01 1.05122E+00-1.15801E-02 6.09298E-01 4.16520E-14-2.81378E-14
 -1      4133 1.73641E+01 1.05497E+00-1.99155E-03 7.10780E-01 5.90413E-14-5.04677E-14
 -1      4134 1.77142E+01 1.13791E+00 1.93473E-02 3.29242E-01 3.77704E-14-8.06339E-14
 -1      4135 1.69361E+01 1.02324E+00-1.84497E-02 8.00974E-01 4.46440E-14-3.08625E-14
 -1      4136 1.66078E+01 9.95891E-01 4.09720E-04 9.48161E-01 3.59825E-15-6.62611E-14
 -1      4137 1.70073E+01 1.17499E+00 2.55688E-02 4.27590E-01 3.43202E-14-1.62549E-13
 -1      4138 2.03405E+01 4.56258E-01 3.13982E-04-8.10979E-02 4.11860E-14-2.32074E-13
 -1      4139 2.03600E+01 5.42186E-01-5.59073E-04-3.38321E-02 3.36018E-14-2.23485E-13
 -1      4140 2.03708E+01 6.16243E-01-1.95069E-04-1.81048E-02 3.01624E-14-2.07445E-13
 -1      4141 1.72323E+01 1.07958E+00 2.11926E-03-7.96056E-01 3.30832E-13-2.96879E-13
 -1      4142 1.75012E+01 1.08668E+00-1.18260E-02-6.80536E-01 1.89436E-13-2.69041E-13
 -1      4143 1.78325E+01 1.09190E+00-1.74767E-03-6.08785E-01 1.16844E-13-1.85006E-13
 -1      4144 1.80614E+01 1.07526E+00-7.81115E-03-5.26109E-01 1.84287E-13-3.52707E-14
 -1      4145 1.75406E+01 1.18415E+00 1.28029E-02-3.94284E-01 2.85753E-13-1.31111E-13
 -1      4146 1.83162E+01 1.05150E+00-1.65838E-03-4.76130E-01 1.68090E-13 6.52247E-14
 -1      4147 1.85020E+01 1.01408E+00-5.44536E-03-4.15100E-01 1.24409E-13-3.84941E-14
 -1      4148 1.81004E+01 1.12891E+00 8.82847E-03-3.00308E-01 2.97819E-13-7.48885E-14
 -1      4149 1.87017E+01 9.71947E-01-1.55248E-03-3.78413E-01 1.80225E-13 1.24072E-13
 -1      4150 1.88524E+01 9.22224E-01-4.03535E-03-3.31332E-01 1.13479E-13 1.76420E-13
 -1      4151 1.85371E+01 1.04152E+00 6.30221E-03-2.36774E-01 2.40206E-13 3.11144E-14
 -1      4152 1.90110E+01 8.70726E-01-1.23164E-03-3.02819E-01-1.69549E-13 2.58464E-13
 -1      4153 1.91321E+01 8.14350E-01-3.34237E-03-2.65349E-01-2.02698E-13 1.26386E-13
 -1      4154 1.88837E+01 9.34430E-01 4.83011E-03-1.89037E-01-6.18271E-14-3.14971E-14
 -1      4155 1.92299E+01 7.75616E-01-4.39322E-04-2.41629E-01-1.16892E-13 1.08702E-13
 -1      4156 1.93288E+01 7.19971E-01-1.77093E-03-2.12018E-01 4.08532E-14 6.24178E-14
 -1      4157 1.92983E+01 7.43202E-01 1.26051E-03-1.13140E-01-2.35006E-15-2.84192E-14
 -1      4158 1.91277E+01 8.33916E-01 3.76240E-03-1.48425E-01-1.98648E-13-1.49781E-13
 -1      4159 2.00394E+01 2.87060E-01-9.80682E-04-3.00413E-01-4.37038E-14-1.46927E-13
 -1      4160 2.00657E+01 3.04348E-01 8.19714E-04-2.42537E-01-8.06592E-14-1.29813E-13
 -1      4161 1.99898E+01 3.12974E-01 2.43328E-04-3.30260E-01-2.48051E-14-1.21239E-13
 -1      4162 1.56341E+01 9.22850E-01-9.71369E-03 1.11872E+00 5.03946E-14-1.59575E-13
 -1      4163 1.64105E+01 9.27325E-01-4.41163E-04-1.10343E+00-1.65582E-14-3.55268E-13
 -1      4164 1.67703E+01 9.87050E-01-1.97664E-02-9.22293E-01 1.68731E-14-2.87892E-13
 -1      4165 1.58688E+01 1.11541E+00 2.94896E-02-6.32241E-01 2.91681E-14-1.99804E-13
 -1      4166 1.92111E+01 7.73104E-01-3.85863E-03 3.69629E-01 1.46642E-13-5.20264E-13
 -1      4167 1.91067E+01 8.26231E-01-5.13732E-04 4.18975E-01 4.24489E-14-4.75130E-13
 -1      4168 2.02787E+01 3.55951E-01-4.41972E-04 7.81960E-02-1.99713E-14-8.82049E-14
 -1      4169 2.02354E+01 3.26501E-01-5.88033E-04 9.76115E-02-8.81731E-15-6.75081E-14
 -1      4170 1.71884E+01 8.79981E-01-1.25400E-02 1.24945E+00 1.02638E-13 2.02156E-13
 -1      4171 1.69361E+01 7.84998E-01 6.33599E-03 1.46434E+00 1.09864E-13 2.49283E-13
 -1      4172 1.89582E+01 8.72845E-01-4.19463E-03 4.62688E-01 7.76824E-14-4.15252E-13
 -1      4173 1.88299E+01 9.17515E-01-5.07832E-04 5.23861E-01 8.63087E-14-2.35719E-13
 -1      4174 1.89576E+01 8.99653E-01 4.75768E-03 3.25981E-01 1.73235E-13-4.69942E-13
 -1      4175 1.86447E+01 9.52493E-01-5.58842E-03 5.80275E-01 3.35778E-14-1.06595E-13
 -1      4176 1.84907E+01 9.82437E-01-1.50732E-04 6.58529E-01 1.51837E-13-5.52551E-14
 -1      4177 1.86363E+01 9.98688E-01 6.20065E-03 4.10558E-01 1.63887E-13-2.60276E-13
 -1      4178 1.77787E+01 9.81565E-01-1.08513E-02 9.45493E-01 1.74587E-13 1.51967E-13
 -1      4179 1.75680E+01 9.44839E-01 1.70581E-03 1.09453E+00 1.05957E-13 2.02549E-13
 -1      4180 1.70754E+01 1.05393E+00 3.98153E-03 9.17791E-01 2.22429E-13-9.71816E-14
 -1      4181 1.68506E+01 3.26513E-01 8.25519E-03 2.11958E+00-2.73401E-14 4.17709E-13
 -1      4182 1.61514E+01 4.94443E-01 1.76268E-02 2.02374E+00-8.83148E-15 3.07174E-13
 -1      4183 1.60442E+01 7.44201E-01-1.52452E-02 1.57352E+00 8.70463E-15 1.86324E-13
 -1      4184 1.68304E+01 5.68471E-01-1.21288E-02 1.80285E+00-1.81530E-14 4.20597E-13
 -1      4185 1.82221E+01 9.57940E-01-4.86508E-03-7.36771E-01-6.42325E-15-1.39301E-13
 -1      4186 1.84165E+01 9.41056E-01-8.00731E-03-6.49640E-01 3.23294E-14-1.36129E-13
 -1      4187 1.92730E+01 7.04165E-01-7.43207E-04-3.95132E-01-8.78478E-14-5.31406E-14
 -1      4188 1.93860E+01 6.44677E-01-3.13229E-03-3.56691E-01-4.86577E-14-6.36214E-14
 -1      4189 2.03819E+01 6.70014E-01 2.85263E-03 4.93603E-03-5.62292E-14-1.52991E-13
 -1      4190 2.03649E+01 5.51666E-01-2.16748E-03 3.29281E-02-4.97671E-14-1.50705E-13
 -1      4191 1.94426E+01 6.53604E-01-2.45610E-03 2.48063E-01-3.28753E-13-1.56529E-13
 -1      4192 1.93366E+01 7.23492E-01 8.81380E-04 3.21457E-01-9.73401E-14-4.25610E-13
 -1      4193 1.92181E+01 7.87858E-01 3.56408E-03 2.46331E-01-6.43183E-14-1.90968E-13
 -1      4194 1.94285E+01 6.68752E-01 8.98082E-04 1.75257E-01-9.93545E-14-2.40961E-13
 -1      4195 2.03520E+01 1.08732E+00 3.03407E-03-2.60497E-02-2.75250E-14-2.21805E-13
 -1      4196 2.03460E+01 4.67890E-01-3.60390E-04 4.45522E-02-5.66172E-14-1.13266E-13
 -1      4197 2.03161E+01 4.02884E-01-6.81570E-04 6.89363E-02-3.22992E-14-9.68794E-14
 -1      4198 2.03596E+01 5.37928E-01 1.20908E-03 2.07228E-02-2.71736E-14-1.16094E-13
 -1      4199 1.56914E+01 1.11219E+00 2.42432E-02 6.12511E-01 6.26170E-15-1.46026E-13
 -1      4200 2.02726E+01 3.21969E-01 4.15846E-04-1.60020E-01 4.44461E-14-2.23600E-13
 -1      4201 2.03119E+01 3.81157E-01-6.38732E-04-1.10122E-01 5.67996E-14-2.21948E-13
 -1      4202 2.03299E+01 4.36397E-01-1.07710E-03-6.88553E-02 1.93397E-14-1.79531E-13
 -1      4203 2.02608E+01 3.28220E-01-1.55627E-03-1.38325E-01-9.95330E-15-1.55565E-13
 -1      4204 1.82574E+01 9.95909E-01-7.86526E-03 7.34533E-01 2.43845E-13-1.46542E-13
 -1      4205 1.80755E+01 9.99834E-01 2.20773E-04 8.39221E-01 2.26174E-13 1.12495E-13
 -1      4206 1.82359E+01 1.07374E+00 8.45343E-03 5.22648E-01 1.58012E-13-1.22352E-13
 -1      4207 2.01816E+01 3.13470E-01-7.33377E-04 1.05246E-01 6.30358E-15-7.12959E-14
 -1      4208 2.01272E+01 3.14013E-01-1.80748E-04 1.23145E-01 4.07685E-14-6.75527E-14
 -1      4209 2.02115E+01 3.37738E-01 1.24068E-03 5.70667E-02 1.55554E-14-1.17722E-13
 -1      4210 1.77301E+01 1.10552E+00 1.02507E-02 6.82443E-01 2.36934E-13-2.97510E-13
 -1      4211 2.03717E+01 9.02623E-01 4.85876E-04-2.14138E-02-3.22724E-14-1.84003E-13
 -1      4212 1.66576E+01 1.16702E+00 1.49275E-02-5.98901E-01 2.69396E-13-2.37660E-13
 -1      4213 2.00293E+01 3.25551E-01-2.82609E-04-1.97496E-01-5.55891E-14-1.50034E-13
 -1      4214 2.00899E+01 3.07408E-01-5.71781E-04-1.75773E-01-6.23700E-14-1.43449E-13
 -1      4215 2.00938E+01 3.36096E-01 1.65664E-03 7.19217E-02 4.83897E-14-1.08553E-13
 -1      4216 1.86456E+01 9.08354E-01-1.13546E-03-5.86679E-01 1.96241E-15-1.10879E-13
 -1      4217 1.88036E+01 8.63242E-01-5.83272E-03-5.24374E-01-2.92434E-14-1.18889E-13
 -1      4218 1.84300E+01 1.00743E+00 1.40474E-02-4.40831E-01 1.41493E-14-2.49313E-13
 -1      4219 2.03034E+01 3.98529E-01 1.64573E-03 4.12652E-02-2.01194E-14-6.04847E-14
 -1      4220 1.95120E+01 5.88172E-01-4.89318E-04-3.29426E-01-4.36731E-14-1.03891E-13
 -1      4221 1.96085E+01 5.31103E-01-2.19667E-03-2.97719E-01-2.63671E-14-1.33288E-13
 -1      4222 1.94121E+01 6.54138E-01 5.46416E-03-2.42829E-01-5.48442E-14-1.20043E-13
 -1      4223 1.98614E+01 3.84699E-01 3.51904E-04-3.89435E-01 4.34309E-14-9.95072E-14
 -1      4224 1.99181E+01 3.45268E-01-1.46474E-03-3.55634E-01 1.16610E-14-9.68572E-14
 -1      4225 1.97856E+01 4.39109E-01 1.59883E-03-3.41837E-01 1.01986E-14-8.44126E-14
 -1      4226 1.93664E+01 7.03839E-01 1.91707E-04-3.30873E-02 7.95901E-14-1.12344E-13
 -1      4227 1.94460E+01 6.56723E-01 5.28799E-04 1.69268E-02 5.62818E-14-1.63680E-13
 -1      4228 1.94361E+01 6.57155E-01-1.80896E-03 8.94145E-02 5.82691E-14-1.81048E-13
 -1      4229 1.92841E+01 7.44674E-01-1.25771E-03-4.52816E-02-2.93914E-16-1.17115E-13
 -1      4230 1.89879E+01 8.15738E-01-9.52702E-04-4.78328E-01-2.95298E-14-1.02811E-13
 -1      4231 1.91214E+01 7.59679E-01-4.26755E-03-4.30232E-01-4.29680E-14-7.18074E-14
 -1      4232 1.88231E+01 9.02170E-01 1.05820E-02-3.56444E-01-2.82470E-14-1.56173E-13
 -1      4233 1.55443E+01 1.19491E+00 2.84885E-02 2.31105E-01 8.36072E-14-9.61550E-14
 -1      4234 1.61117E+01 1.17129E+00-6.39843E-04-2.38929E-01 1.63307E-13-1.33170E-13
 -1      4235 1.67023E+01 1.17974E+00-1.40462E-02-1.30562E-01 3.37458E-13-1.47810E-13
 -1      4236 1.59085E+01 1.04870E+00-1.02803E-02 7.75020E-01 1.16413E-14-2.08542E-13
 -1      4237 1.71492E+01 9.84615E-01-1.54984E-02-9.02943E-01 2.31487E-14-3.05864E-13
 -1      4238 1.74506E+01 9.90568E-01-1.37893E-02-8.56313E-01-2.32594E-15-2.37881E-13
 -1      4239 1.68176E+01 1.14800E+00 2.86097E-02-5.70257E-01 4.25424E-14-2.88622E-13
 -1      4240 1.58206E+01 1.12009E+00-8.14282E-03-7.11626E-02 2.11797E-14-2.05883E-13
 -1      4241 1.79883E+01 9.78378E-01-8.16255E-03-7.55196E-01-5.14360E-14-1.77400E-13
 -1      4242 1.79829E+01 1.09316E+00 2.06930E-02-4.95824E-01 2.06969E-14-2.97202E-13
 -1      4243 1.77531E+01 9.92825E-01-7.54395E-03-7.92086E-01-3.03624E-14-2.18710E-13
 -1      4244 2.03712E+01 8.21143E-01-1.20683E-04-1.76186E-02-4.80135E-14-1.83588E-13
 -1      4245 2.03732E+01 6.33910E-01-2.77143E-04-1.16083E-02 1.06520E-14-1.33868E-13
 -1      4246 1.91452E+01 7.80363E-01 7.82498E-03-2.92401E-01-5.18161E-14-1.44886E-13
 -1      4247 2.01203E+01 3.23548E-01 9.64669E-04-1.18777E-01-5.07778E-14-8.79731E-14
 -1      4248 2.01512E+01 2.98618E-01-8.47762E-04-1.63436E-01-7.93131E-14-1.14210E-13
 -1      4249 2.02045E+01 3.07166E-01 1.31448E-03-1.41784E-01-4.49482E-14-1.25728E-13
 -1      4250 1.98130E+01 4.33311E-01-2.17628E-03 1.55716E-02-4.16828E-14-1.49267E-13
 -1      4251 1.97176E+01 4.82102E-01-1.83974E-03 2.47314E-02-1.02911E-13-1.78616E-13
 -1      4252 1.95883E+01 5.47552E-01-2.06270E-03-5.06262E-02-9.59680E-14-1.76906E-13
 -1      4253 1.94710E+01 6.05951E-01-3.12809E-03-4.60351E-02-7.82616E-14-1.83365E-13
 -1      4254 1.93427E+01 6.65186E-01-4.63630E-03-6.22468E-02-8.06511E-14-1.69262E-13
 -1      4255 1.92043E+01 7.30304E-01-4.86021E-03-5.62027E-02-5.77142E-14-1.25612E-13
 -1      4256 1.90507E+01 7.90370E-01-6.49210E-03-7.67587E-02-4.38605E-14-1.58282E-13
 -1      4257 1.88837E+01 8.55488E-01-6.78402E-03-6.92904E-02-5.37862E-15-1.72289E-13
 -1      4258 1.86976E+01 9.10374E-01-8.65401E-03-9.57751E-02 4.79277E-15-2.10706E-13
 -1      4259 1.84935E+01 9.69504E-01-9.05875E-03-8.67306E-02 2.04639E-14-1.96727E-13
 -1      4260 1.82660E+01 1.01469E+00-1.01629E-02-1.20214E-01 6.77971E-14-1.97609E-13
 -1      4261 1.80154E+01 1.05945E+00-1.02920E-02-1.10187E-01 5.63529E-14-1.76826E-13
 -1      4262 1.71517E+01 1.12502E+00-1.70863E-02-9.23749E-02 5.62057E-14-2.45648E-13
 -1      4263 1.67447E+01 1.14485E+00-1.01720E-02-6.91525E-02 1.01692E-14-2.38108E-13
 -1      4264 1.82398E+01 1.07824E+00-6.34114E-03 2.86718E-01 5.83906E-14-1.10141E-13
 -1      4265 1.80178E+01 1.11503E+00-2.50065E-03 3.37394E-01 6.24051E-14-1.72610E-13
 -1      4266 1.99547E+01 3.52386E-01-1.19669E-03-2.11615E-01-6.53116E-14-2.07753E-13
 -1      4267 1.99856E+01 3.60377E-01 1.61848E-03-1.43614E-01-3.65303E-14-2.14303E-13
 -1      4268 2.01047E+01 3.25648E-01-1.29725E-03-2.99881E-02 9.60427E-15-1.18839E-13
 -1      4269 2.00372E+01 3.41068E-01-7.02276E-04-2.54330E-02 1.67070E-14-1.34804E-13
 -1      4270 1.79390E+01 1.14218E+00-4.24377E-03-1.10593E-01 2.69789E-13-1.87448E-13
 -1      4271 1.81865E+01 1.10409E+00-4.67005E-03-8.78964E-02 3.04250E-13-2.34096E-13
 -1      4272 1.84120E+01 1.06050E+00-3.27827E-03-8.75854E-02 2.88990E-13-3.23996E-13
 -1      4273 1.86084E+01 1.01108E+00-3.23912E-03-7.08739E-02 1.68938E-13-2.66305E-13
 -1      4274 1.83185E+01 1.09955E+00 7.48699E-03 8.95607E-02 1.97885E-13-3.10264E-13
 -1      4275 1.87862E+01 9.56906E-01-2.51164E-03-7.04615E-02 1.06676E-13-2.72348E-13
 -1      4276 1.89428E+01 9.00778E-01-2.17086E-03-5.75701E-02-6.52467E-14-1.45525E-13
 -1      4277 1.87121E+01 9.96102E-01 5.69363E-03 6.94522E-02 1.59725E-13-3.52827E-13
 -1      4278 1.65681E+01 8.65310E-01 3.71332E-03 1.36744E+00 1.04121E-13 2.33248E-13
 -1      4279 1.86477E+01 9.91075E-01-4.32635E-03 2.25622E-01 2.07272E-13-2.98770E-13
 -1      4280 1.84673E+01 1.03915E+00-2.50688E-03 2.63687E-01 1.97408E-13-2.44065E-13
 -1      4281 2.03201E+01 4.17291E-01-1.58309E-03 2.49465E-03-2.65000E-14-4.90311E-14
 -1      4282 2.02822E+01 3.69153E-01-1.12209E-03 1.37159E-02-1.49188E-14-6.18791E-14
 -1      4283 1.99367E+01 3.57329E-01 1.18080E-03-2.88742E-01-4.76174E-14-1.27667E-13
 -1      4284 1.99618E+01 3.67011E-01-1.31187E-03-3.53233E-02 2.08972E-14-1.62303E-13
 -1      4285 1.98822E+01 4.02729E-01-3.81171E-04-3.19329E-02-1.91129E-14-1.96675E-13
 -1      4286 1.89720E+01 8.83459E-01-3.35960E-03 1.78777E-01 2.79109E-14-2.36595E-13
 -1      4287 1.88270E+01 9.39696E-01-1.97526E-03 2.08361E-01 8.22698E-14-2.49993E-13
 -1      4288 2.02225E+01 3.33182E-01-2.01227E-04-2.54965E-02-4.63549E-14-6.14436E-14
 -1      4289 2.01674E+01 3.22691E-01-2.43057E-04-1.95384E-02-1.54320E-14-8.11181E-14
 -1      4290 1.72429E+01 1.19374E+00-4.12528E-03-1.39997E-01 3.96271E-13-2.25226E-13
 -1      4291 1.75634E+01 1.17353E+00-6.72927E-03-1.06543E-01 3.22245E-13-6.99388E-14
 -1      4292 1.77392E+01 1.18025E+00 8.30408E-03 1.24999E-01 1.99852E-13-1.23301E-13
 -1      4293 1.68512E+01 1.21494E+00 9.87332E-03 1.88329E-01 3.36539E-13-3.89699E-14
 -1      4294 1.77747E+01 1.08531E+00-1.53014E-02-9.52069E-02 5.06387E-15-1.99324E-13
 -1      4295 1.98847E+01 3.88262E-01-3.10849E-04-2.34548E-01-4.58281E-14-1.96285E-13
 -1      4296 2.03089E+01 3.86857E-01 2.69406E-03-6.49125E-02-2.40831E-15-1.36317E-13
 -1      4297 2.03336E+01 4.49576E-01 3.05422E-04-3.78732E-02-4.10674E-15-1.29569E-13
 -1      4298 1.91169E+01 8.27989E-01-8.14397E-04 1.63552E-01-3.89779E-14-9.43023E-14
 -1      4299 1.90251E+01 8.79232E-01 4.17116E-03 5.26618E-02-1.22891E-13-2.43924E-15
 -1      4300 1.90845E+01 8.41031E-01-1.96812E-03-5.83502E-02-2.12076E-13-1.14986E-13
 -1      4301 1.92348E+01 7.67070E-01-2.62816E-03 1.27545E-01-1.26950E-13 8.92636E-14
 -1      4302 1.74623E+01 1.11479E+00-1.39340E-02-7.51446E-02 1.81461E-14-2.19672E-13
 -1      4303 1.76421E+01 1.13921E+00-8.42667E-03 3.82169E-01 2.33448E-13-1.65862E-13
 -1      4304 1.93418E+01 7.17071E-01-1.22765E-05 1.17405E-01 3.34042E-14-1.76027E-14
 -1      4305 2.02445E+01 3.34967E-01-4.23696E-04-1.07406E-01-1.88873E-14-1.17793E-13
 -1      4306 1.62249E+01 9.58741E-01 1.52963E-02 1.18988E+00 7.53837E-14-2.08225E-14
 -1      4307 2.03508E+01 4.82470E-01-2.94443E-05-5.71225E-03 8.80022E-15-8.88332E-14
 -1      4308 1.91796E+01 7.98129E-01-1.48931E-03-4.31864E-02-1.12298E-13-1.26989E-13
 -1      4309 1.64391E+01 1.10713E+00-6.19994E-03 6.45113E-01 8.60334E-14-9.40252E-14
 -1      4310 1.68340E+01 1.15306E+00-4.95449E-03 5.28451E-01 2.71910E-13-1.66822E-13
 -1      4311 2.03710E+01 5.74217E-01 8.63270E-04-1.15415E-02 6.99020E-15-1.16300E-13
 -1      4312 1.97141E+01 4.79437E-01-2.86333E-04-2.77646E-01 9.48975E-15-1.50360E-13
 -1      4313 1.97962E+01 4.31040E-01-1.39632E-03-2.50701E-01-2.48899E-14-1.68547E-13
 -1      4314 1.98256E+01 4.30486E-01 1.39549E-03-1.71540E-01-2.87113E-14-2.77606E-13
 -1      4315 1.96347E+01 5.28057E-01 7.29147E-04-2.01256E-01-3.34708E-14-1.69886E-13
 -1      4316 1.63690E+01 1.12249E+00-2.31415E-02-2.50114E-02 1.23610E-14-1.78212E-13
 -1      4317 1.73635E+01 1.15238E+00-1.52657E-03 4.56280E-01 3.12072E-13-1.88145E-13
 -1      4318 2.03791E+01 6.88324E-01-2.26493E-03 8.57843E-03-1.82507E-14-1.29120E-13
 -1      4319 1.74639E+01 1.14228E+00 2.54376E-02-5.36289E-01-8.08023E-15-2.85294E-13
 -1      4320 1.92647E+01 7.63446E-01 2.61460E-03 3.94318E-02 5.31529E-15 5.28850E-14
 -1      4321 2.02446E+01 3.46593E-01-4.75786E-04-6.20807E-02-4.45879E-14-8.60691E-14
 -1      4322 1.96524E+01 5.23595E-01 1.80773E-03-1.37834E-01-6.95967E-14-1.91558E-13
 -1      4323 1.98406E+01 4.23196E-01 2.65693E-04-1.12350E-01-4.06059E-14-2.70185E-13
 -1      4324 1.97565E+01 4.65299E-01 7.46277E-04-1.23533E-01-1.50238E-14-2.59642E-13
 -3
    1PSTEP                         3           1           1          
  100CL  101 1.000000000        4324                     0    1           1
 -4  TOSTRAIN    6    1
 -5  EXX         1    4    1    1
 -5  EYY         1    4    2    2
 -5  EZZ         1    4    3    3
 -5  EXY         1    4    1    2
 -5  EYZ         1    4    2    3
 -5  EZX         1    4    3    1
 -1         1 1.76715E-04-1.86706E-05-6.00906E-05 1.12981E-04-4.39991E-18-8.53216E-18
 -1         2 3.61335E-05-1.09712E-04 1.96940E-05 3.34497E-07-4.45370E-18-6.35539E-19
 -1         3 9.52213E-05-2.85877E-05-2.85277E-05-8.70710E-09-1.88233E-18-2.02303E-18
 -1         4 9.52210E-05-2.85877E-05-2.85273E-05 8.79344E-09 2.18880E-18-5.94326E-19
 -1         5 1.43101E-04-2.14419E-05-4.24573E-05 3.84836E-05-1.77189E-19 1.22612E-17
 -1         6 1.45165E-04 2.57072E-10-4.41146E-05-5.34559E-05-7.08543E-19 1.27131E-17
 -1         7 9.04871E-05-5.09502E-07-3.90169E-05-2.92296E-05-1.02385E-19 2.87020E-18
 -1         8 8.50642E-05 8.58647E-08-3.63121E-05-2.02609E-05-1.53604E-19-3.35822E-19
 -1         9 8.28037E-05 7.49596E-08-3.53445E-05-1.56286E-05-1.51050E-19-2.10470E-18
 -1        10 8.17969E-05 3.85363E-08-3.48912E-05-1.20640E-05-1.00082E-19-3.05762E-18
 -1        11 8.13059E-05 1.81954E-08-3.46747E-05-8.99809E-06-8.69466E-20-3.52752E-18
 -1        12 8.10550E-05 8.12768E-09-3.45683E-05-6.26915E-06-4.81816E-20-3.75352E-18
 -1        13 8.09244E-05 3.68133E-09-3.45157E-05-3.67468E-06-3.20549E-20-3.83627E-18
 -1        14 8.08704E-05 1.89902E-09-3.44945E-05-1.17976E-06 4.66323E-22-3.87808E-18
 -1        15 8.08724E-05 1.88661E-09-3.44953E-05 1.28490E-06 2.00074E-20-3.88249E-18
 -1        16 8.09306E-05 3.61731E-09-3.45179E-05 3.78496E-06 2.86659E-20-3.85420E-18
 -1        17 8.10661E-05 7.39934E-09-3.45719E-05 6.39145E-06 3.95293E-20-3.75369E-18
 -1        18 8.13228E-05 1.70736E-08-3.46795E-05 9.13938E-06 6.22238E-20-3.42864E-18
 -1        19 8.18221E-05 3.70504E-08-3.48993E-05 1.22434E-05 1.11987E-19-2.92709E-18
 -1        20 8.28233E-05 8.04533E-08-3.53566E-05 1.58592E-05 1.37140E-19-2.00493E-18
 -1        21 8.50287E-05 1.68776E-07-3.63502E-05 2.04714E-05 1.82271E-19-1.74237E-19
 -1        22 9.15223E-05-9.83575E-08-3.86886E-05 2.79779E-05 2.55169E-20 3.57050E-18
 -1        23 1.12755E-04-3.80529E-05-3.53316E-05-4.39934E-06-4.46042E-19 1.02438E-17
 -1        24 9.26100E-05-2.76391E-05-2.89398E-05 3.89754E-07-1.06825E-19 8.23702E-18
 -1        25 8.89337E-05-2.67969E-05-2.68735E-05 3.74105E-07-8.57422E-20 6.04145E-18
 -1        26 8.78442E-05-2.64376E-05-2.63405E-05 2.02185E-07-3.73282E-20 4.29332E-18
 -1        27 8.78964E-05-2.64241E-05-2.63405E-05 1.37636E-07-7.16669E-21 3.21510E-18
 -1        28 8.84758E-05-2.65746E-05-2.65242E-05 9.83574E-08 4.53398E-20 2.89852E-18
 -1        29 8.93079E-05-2.68110E-05-2.67806E-05 7.26312E-08-7.78640E-20 2.15163E-18
 -1        30 9.02570E-05-2.70887E-05-2.70688E-05 5.45896E-08-4.82815E-20 1.44702E-18
 -1        31 9.12579E-05-2.73853E-05-2.73715E-05 4.15409E-08-7.36767E-20 3.29479E-19
 -1        32 9.22892E-05-2.76930E-05-2.76833E-05 3.22764E-08-6.57071E-20-3.84442E-19
 -1        33 9.33593E-05-2.80135E-05-2.80072E-05 2.63001E-08 3.48003E-19-4.02475E-19
 -1        34 9.44990E-05-2.83557E-05-2.83525E-05 2.35123E-08-1.76828E-19-1.05457E-18
 -1        35 9.57564E-05-2.87336E-05-2.87336E-05 2.40851E-08 1.12304E-19-1.24684E-18
 -1        36 9.71923E-05-2.91651E-05-2.91688E-05 2.84040E-08-1.33201E-20-8.16101E-19
 -1        37 9.88750E-05-2.96704E-05-2.96783E-05 3.70062E-08-2.12006E-19-8.37185E-19
 -1        38 1.00872E-04-3.02693E-05-3.02821E-05 5.04415E-08 1.44985E-19-1.11108E-18
 -1        39 1.03238E-04-3.09774E-05-3.09950E-05 6.89407E-08-6.27303E-20-1.41852E-19
 -1        40 1.05988E-04-3.17990E-05-3.18197E-05 9.17062E-08-1.08484E-19-3.28679E-19
 -1        41 1.09065E-04-3.27161E-05-3.27349E-05 1.15562E-07 9.77337E-20-4.31550E-19
 -1        42 1.12280E-04-3.36725E-05-3.36785E-05 1.32757E-07-1.74545E-19-2.10150E-19
 -1        43 1.15246E-04-3.45539E-05-3.45284E-05 1.28176E-07-1.71984E-19-5.89535E-19
 -1        44 1.17324E-04-3.51710E-05-3.50897E-05 7.78314E-08 4.37846E-19 2.43107E-19
 -1        45 1.17629E-04-3.52630E-05-3.51087E-05-4.60112E-08-3.50394E-20 3.46059E-19
 -1        46 1.15233E-04-3.45536E-05-3.43402E-05-2.55871E-07 1.02554E-20-1.54944E-18
 -1        47 1.09630E-04-3.28878E-05-3.26890E-05-5.12861E-07 1.99099E-19-6.03114E-19
 -1        48 1.01419E-04-3.04362E-05-3.03769E-05-6.98539E-07 5.94721E-19 7.03461E-19
 -1        49 9.27405E-05-2.78335E-05-2.80142E-05-6.53637E-07 5.78199E-21 1.60034E-18
 -1        50 8.67684E-05-2.60365E-05-2.64249E-05-3.09234E-07-2.72940E-19-3.35319E-19
 -1        51 8.60909E-05-2.58324E-05-2.62461E-05 1.98531E-07-4.65901E-20-8.04145E-19
 -1        52 9.10186E-05-2.73160E-05-2.75527E-05 5.99647E-07 9.30247E-20 8.44518E-19
 -1        53 9.93667E-05-2.98217E-05-2.98116E-05 7.12937E-07-2.79550E-19 1.25485E-18
 -1        54 1.07926E-04-3.23798E-05-3.22015E-05 5.66742E-07-5.94652E-20-1.93703E-18
 -1        55 1.14233E-04-3.42572E-05-3.40385E-05 3.13074E-07-1.93658E-19-3.83044E-18
 -1        56 1.17356E-04-3.51827E-05-3.50119E-05 8.62724E-08-4.26031E-20-5.21570E-18
 -1        57 1.17607E-04-3.52559E-05-3.51589E-05-5.73463E-08-2.37690E-20-5.80921E-18
 -1        58 1.15877E-04-3.47417E-05-3.47057E-05-1.21982E-07 3.12437E-19-5.32512E-18
 -1        59 1.13086E-04-3.39132E-05-3.39140E-05-1.34387E-07 3.38006E-19-2.80339E-18
 -1        60 1.09944E-04-3.29789E-05-3.29961E-05-1.20178E-07 1.32388E-19-1.35623E-18
 -1        61 1.06895E-04-3.20708E-05-3.20920E-05-9.64101E-08 3.94757E-20-1.29404E-18
 -1        62 1.04174E-04-3.12587E-05-3.12777E-05-7.22086E-08-2.30476E-19-2.10812E-18
 -1        63 1.01871E-04-3.05701E-05-3.05849E-05-5.14783E-08-7.15247E-20-3.20761E-18
 -1        64 9.99939E-05-3.00077E-05-3.00180E-05-3.52854E-08 1.06224E-19-2.93173E-18
 -1        65 9.85061E-05-2.95611E-05-2.95678E-05-2.33746E-08 2.33581E-19-1.95933E-18
 -1        66 9.73552E-05-2.92151E-05-2.92192E-05-1.49605E-08 1.94596E-19-2.44395E-18
 -1        67 9.64880E-05-2.89539E-05-2.89568E-05-9.02639E-09 2.60113E-19-9.27167E-19
 -1        68 9.58604E-05-2.87644E-05-2.87676E-05-4.30512E-09 5.52680E-20-1.44689E-18
 -1        69 9.54424E-05-2.86376E-05-2.86426E-05 9.83305E-10 7.02011E-19-1.38403E-18
 -1        70 9.52199E-05-2.85688E-05-2.85753E-05 1.04131E-08-2.65930E-19-1.13363E-18
 -1        71 9.51831E-05-2.85550E-05-2.85520E-05 2.17318E-08-8.51614E-19-2.78496E-18
 -1        72 1.01973E-04-3.05247E-05-3.40860E-05-1.92345E-06 2.26290E-19 1.09103E-17
 -1        73 9.23656E-05-2.74549E-05-2.88480E-05-3.31751E-07 9.97811E-20 7.96816E-18
 -1        74 8.89205E-05-2.66461E-05-2.69164E-05-1.24156E-07-2.34837E-21 5.98511E-18
 -1        75 8.78731E-05-2.63880E-05-2.63841E-05-9.31301E-08 2.64367E-21 4.53352E-18
 -1        76 8.79291E-05-2.64032E-05-2.63668E-05-7.33279E-08 7.63810E-20 3.06238E-18
 -1        77 8.85072E-05-2.65678E-05-2.65409E-05-5.83613E-08-1.59758E-20 2.26901E-18
 -1        78 8.93363E-05-2.68107E-05-2.67925E-05-4.65986E-08-1.01746E-19 2.59792E-18
 -1        79 9.02814E-05-2.70912E-05-2.70777E-05-3.67031E-08 3.53188E-20 1.89888E-18
 -1        80 9.12781E-05-2.73887E-05-2.73784E-05-2.80942E-08-6.46457E-20 1.07203E-18
 -1        81 9.23051E-05-2.76960E-05-2.76886E-05-2.06468E-08 2.06877E-19 3.75608E-19
 -1        82 9.33710E-05-2.80155E-05-2.80113E-05-1.44653E-08-6.72086E-20 1.79915E-19
 -1        83 9.45068E-05-2.83561E-05-2.83557E-05-9.81803E-09 9.94210E-20-1.14229E-19
 -1        84 9.57602E-05-2.87320E-05-2.87361E-05-7.15079E-09 1.01529E-19-9.64992E-19
 -1        85 9.71915E-05-2.91611E-05-2.91704E-05-7.14173E-09-2.40826E-20-1.59921E-18
 -1        86 9.88685E-05-2.96633E-05-2.96788E-05-1.07703E-08 8.57087E-20-3.49968E-18
 -1        87 1.00857E-04-3.02582E-05-3.02805E-05-1.93604E-08-4.00088E-19-2.97182E-18
 -1        88 1.03210E-04-3.09610E-05-3.09896E-05-3.45102E-08-5.90044E-20-2.85382E-18
 -1        89 1.05939E-04-3.17753E-05-3.18075E-05-5.77181E-08 2.51491E-19-3.79957E-18
 -1        90 1.08981E-04-3.26824E-05-3.27113E-05-8.93385E-08-1.91617E-19-4.30475E-18
 -1        91 1.12144E-04-3.36256E-05-3.36365E-05-1.26309E-07-8.49527E-20-2.22201E-18
 -1        92 1.15034E-04-3.44908E-05-3.44593E-05-1.58235E-07-2.04818E-20-2.26184E-18
 -1        93 1.17010E-04-3.50898E-05-3.49842E-05-1.62736E-07 2.20925E-19-2.47871E-18
 -1        94 1.17195E-04-3.51650E-05-3.49607E-05-1.04655E-07-1.41259E-19-3.92735E-18
 -1        95 1.14683E-04-3.44431E-05-3.41540E-05 5.08883E-08-1.03778E-20-1.82712E-18
 -1        96 1.09008E-04-3.27697E-05-3.24837E-05 3.02133E-07 9.60026E-21 8.16328E-19
 -1        97 1.00807E-04-3.03090E-05-3.01855E-05 5.64432E-07-9.34753E-20 1.72109E-18
 -1        98 9.22305E-05-2.76892E-05-2.78710E-05 6.74250E-07-1.89804E-19 1.35276E-18
 -1        99 8.64213E-05-2.58735E-05-2.63476E-05 4.99046E-07-6.54262E-19 1.75626E-18
 -1       100 8.58985E-05-2.56695E-05-2.62240E-05 8.28257E-08 1.57095E-19 1.93992E-18
 -1       101 9.09095E-05-2.71847E-05-2.75507E-05-3.49809E-07 1.31725E-19-1.22253E-18
 -1       102 9.92476E-05-2.97374E-05-2.97902E-05-5.81221E-07 1.60910E-19-4.74619E-18
 -1       103 1.07738E-04-3.23343E-05-3.21387E-05-5.63135E-07-3.41510E-20-4.37167E-18
 -1       104 1.13969E-04-3.42268E-05-3.39387E-05-3.91773E-07 4.24118E-19-5.41779E-18
 -1       105 1.17044E-04-3.51484E-05-3.48936E-05-1.92554E-07-7.72396E-20-4.40258E-18
 -1       106 1.17292E-04-3.52113E-05-3.50425E-05-3.89868E-08-6.60921E-19-4.09510E-19
 -1       107 1.15591E-04-3.46892E-05-3.46052E-05 5.19060E-08-2.16795E-19-5.67271E-19
 -1       108 1.12847E-04-3.38582E-05-3.38347E-05 9.20327E-08 7.31311E-19-4.23087E-18
 -1       109 1.09755E-04-3.29266E-05-3.29374E-05 1.00156E-07-6.81436E-19-4.09897E-18
 -1       110 1.06751E-04-3.20244E-05-3.20505E-05 9.17789E-08-4.38687E-19-2.64847E-18
 -1       111 1.04067E-04-3.12194E-05-3.12494E-05 7.69044E-08 4.60269E-19-3.64331E-18
 -1       112 1.01794E-04-3.05380E-05-3.05661E-05 6.10393E-08-6.26379E-19-3.14921E-18
 -1       113 9.99386E-05-2.99820E-05-3.00058E-05 4.67890E-08 6.57138E-19-5.82712E-19
 -1       114 9.84666E-05-2.95409E-05-2.95600E-05 3.51204E-08-2.86962E-19-2.33697E-18
 -1       115 9.73269E-05-2.91993E-05-2.92142E-05 2.61468E-08 7.34470E-19-4.09512E-18
 -1       116 9.64678E-05-2.89417E-05-2.89537E-05 1.95014E-08-6.76099E-19-7.02988E-19
 -1       117 9.58462E-05-2.87550E-05-2.87659E-05 1.44286E-08 6.40572E-19-1.92705E-18
 -1       118 9.54333E-05-2.86304E-05-2.86422E-05 9.54931E-09-2.28780E-19-4.12605E-18
 -1       119 9.52165E-05-2.85640E-05-2.85760E-05 5.47749E-10-2.96258E-19-1.90971E-18
 -1       120 9.51843E-05-2.85515E-05-2.85532E-05-1.75882E-08 7.39765E-19-1.31401E-18
 -1       121 9.52508E-05-2.86176E-05-2.85551E-05-2.42779E-08-8.47327E-19 8.70669E-19
 -1       122 9.52379E-05-2.85759E-05-2.85808E-05-4.35621E-09 2.22027E-18-4.85318E-19
 -1       123 9.51715E-05-2.83537E-05-2.86461E-05 9.24552E-09 6.75050E-18 1.00014E-18
 -1       124 9.50669E-05-2.80035E-05-2.87459E-05 1.61477E-08 4.19429E-18-7.05531E-20
 -1       125 9.49466E-05-2.75996E-05-2.88619E-05 1.76284E-08-2.40587E-19-7.60920E-19
 -1       126 9.48351E-05-2.72236E-05-2.89707E-05 1.54455E-08-5.54108E-18-6.21299E-19
 -1       127 9.47474E-05-2.69283E-05-2.90564E-05 1.03756E-08-6.84201E-18 1.79656E-18
 -1       128 9.47001E-05-2.67687E-05-2.91029E-05 3.60892E-09-7.27779E-18-1.61890E-19
 -1       129 9.47004E-05-2.67699E-05-2.91025E-05-3.72276E-09-9.26259E-19 1.21849E-18
 -1       130 9.47485E-05-2.69319E-05-2.90554E-05-1.04729E-08-2.90726E-18-1.30543E-18
 -1       131 9.48367E-05-2.72290E-05-2.89692E-05-1.56484E-08-9.46586E-18-6.90546E-19
 -1       132 9.49486E-05-2.76060E-05-2.88601E-05-1.76656E-08-9.63277E-18 1.86268E-18
 -1       133 9.50688E-05-2.80098E-05-2.87441E-05-1.59946E-08-6.01007E-18-8.92935E-19
 -1       134 9.51727E-05-2.83595E-05-2.86446E-05-1.04383E-08-6.13997E-19-5.92360E-20
 -1       135 9.52391E-05-2.85765E-05-2.85798E-05 6.04714E-09 2.13804E-18 6.05812E-19
 -1       136 9.52440E-05-2.86142E-05-2.85534E-05 3.86164E-08 1.16290E-18 2.24062E-19
 -1       137 2.59366E-05-8.79411E-05 1.56458E-05-2.35209E-05-1.81223E-18 1.11332E-19
 -1       138 7.74969E-06-3.32197E-05 2.88187E-06-1.73957E-05 2.25904E-18 1.53504E-18
 -1       139 1.29827E-05 1.61468E-05-1.59137E-05 2.56610E-05 1.84272E-18 2.05914E-18
 -1       140 6.23195E-05 2.57228E-05-3.62197E-05 8.02921E-05 5.20375E-18 6.06772E-18
 -1       141 1.52552E-04-6.53446E-06-5.60041E-05 1.12701E-04 3.12640E-18 6.70300E-18
 -1       142 2.48567E-04-5.88860E-05-7.07460E-05 9.31230E-05 1.61556E-18 4.12378E-18
 -1       143 3.03687E-04-9.25617E-05-7.79665E-05 2.87263E-05 5.53483E-19-1.11406E-18
 -1       144 2.91049E-04-8.40847E-05-7.66063E-05-5.41581E-05 1.22918E-18-8.35323E-18
 -1       145 2.06492E-04-3.51187E-05-6.46001E-05-1.07405E-04 4.84037E-18-1.27284E-17
 -1       146 1.10130E-04 1.19995E-05-4.79275E-05-1.03736E-04 8.17027E-18-1.19504E-17
 -1       147 3.33730E-05 2.70009E-05-2.66766E-05-5.56582E-05 1.11431E-17-1.02724E-17
 -1       148 5.21003E-06-1.51310E-06-7.16767E-06-2.76396E-06 1.01445E-17-7.23048E-18
 -1       149 1.38003E-05-5.54419E-05 8.55220E-06 2.45521E-05 3.97470E-18-1.91578E-18
 -1       150 3.17734E-05-1.00598E-04 1.80594E-05 1.71314E-05-1.87575E-18 4.85926E-19
 -1       151 3.52948E-05-1.07624E-04 1.92926E-05-9.31974E-06-9.76205E-18-4.10626E-19
 -1       152 2.02754E-05-7.44010E-05 1.29282E-05-2.61139E-05-1.10800E-17-2.87509E-18
 -1       153 5.74373E-06-1.77533E-05-1.77988E-06-8.88517E-06-1.08530E-17-6.32141E-18
 -1       154 2.05317E-05 2.10492E-05-2.01926E-05 3.78329E-05-1.10661E-17-9.35675E-18
 -1       155 8.36217E-05 2.00573E-05-4.15748E-05 9.14942E-05-9.19878E-18-1.10381E-17
 -1       156 2.63821E-04-6.79832E-05-7.28339E-05 8.38642E-05-1.02348E-18-3.75045E-18
 -1       157 3.07210E-04-9.49385E-05-7.83598E-05 1.74638E-05 2.97944E-19 1.29967E-19
 -1       158 2.88967E-04-8.31933E-05-7.61739E-05-5.81181E-05-4.91517E-19 4.76625E-18
 -1       159 2.14578E-04-3.94011E-05-6.58317E-05-1.06225E-04-3.48692E-18 1.00628E-17
 -1       160 1.21734E-04 7.31502E-06-5.02337E-05-1.07283E-04-6.56006E-18 1.00124E-17
 -1       161 4.53265E-05 2.81698E-05-3.12234E-05-6.78298E-05-9.61764E-18 1.02707E-17
 -1       162 9.05879E-06 8.87875E-06-1.21088E-05-1.58298E-05-1.15764E-17 8.49743E-18
 -1       163 9.28605E-06-4.07829E-05 5.05605E-06 2.09817E-05-8.65032E-18 3.81493E-18
 -1       164 2.67735E-05-8.90082E-05 1.57361E-05 2.25185E-05-4.86642E-18 1.67768E-18
 -1       165 9.47725E-05-1.23328E-05-3.55338E-05-2.23237E-05-1.72243E-18 1.11083E-18
 -1       166 8.92146E-05-8.45405E-06-3.47730E-05-1.73660E-05-1.67010E-18-9.49180E-19
 -1       167 8.65584E-05-6.50603E-06-3.44196E-05-1.35562E-05-1.42167E-18-2.10232E-18
 -1       168 8.52299E-05-5.51233E-06-3.42484E-05-1.03442E-05-1.13765E-18-2.78360E-18
 -1       169 8.45067E-05-4.93881E-06-3.41692E-05-7.52073E-06-8.13019E-19-3.04643E-18
 -1       170 8.40895E-05-4.58722E-06-3.41337E-05-4.88295E-06-5.48798E-19-3.20147E-18
 -1       171 8.38762E-05-4.39865E-06-3.41196E-05-2.38404E-06-1.93560E-19-3.25975E-18
 -1       172 8.38133E-05-4.34145E-06-3.41161E-05 5.10876E-08 8.33691E-20-3.30111E-18
 -1       173 8.38860E-05-4.40717E-06-3.41203E-05 2.48835E-06 3.43367E-19-3.33384E-18
 -1       174 8.41110E-05-4.60643E-06-3.41350E-05 4.99409E-06 5.78041E-19-3.23134E-18
 -1       175 8.45333E-05-4.96494E-06-3.41701E-05 7.59751E-06 8.37231E-19-3.00197E-18
 -1       176 8.52904E-05-5.57254E-06-3.42494E-05 1.04845E-05 1.19388E-18-2.65559E-18
 -1       177 8.66563E-05-6.60917E-06-3.44218E-05 1.37562E-05 1.53940E-18-1.98448E-18
 -1       178 8.93566E-05-8.59764E-06-3.47776E-05 1.75978E-05 1.80482E-18-7.77391E-19
 -1       179 9.56815E-05-1.35976E-05-3.53900E-05 2.18693E-05 1.81335E-18 1.42381E-18
 -1       180 1.05445E-04-2.60575E-05-3.52122E-05 1.86444E-05 1.44147E-18 4.47620E-18
 -1       181 1.03256E-04-2.72615E-05-3.25666E-05-1.21119E-05-1.41762E-18 3.48059E-18
 -1       182 9.69816E-05-2.82514E-05-2.94910E-05-4.71808E-06-1.24960E-18 2.67080E-18
 -1       183 9.34000E-05-2.76020E-05-2.81510E-05-1.74983E-06-1.08889E-18 2.00902E-18
 -1       184 9.18944E-05-2.73783E-05-2.76141E-05-3.88020E-07-7.15609E-19 1.36907E-18
 -1       185 9.13643E-05-2.73143E-05-2.74313E-05 2.98764E-07-3.65183E-19 1.01141E-18
 -1       186 9.13931E-05-2.73707E-05-2.74289E-05 6.59646E-07-4.51384E-19 6.00214E-19
 -1       187 9.17437E-05-2.75009E-05-2.75278E-05 8.49558E-07-3.65261E-19 3.67920E-19
 -1       188 9.22848E-05-2.76744E-05-2.76872E-05 9.52077E-07-5.24956E-19 3.19848E-19
 -1       189 9.29470E-05-2.78748E-05-2.78860E-05 1.01862E-06-5.06915E-19 3.64138E-19
 -1       190 9.37007E-05-2.80957E-05-2.81145E-05 1.08407E-06-3.27390E-19 1.27902E-19
 -1       191 9.45427E-05-2.83379E-05-2.83715E-05 1.17371E-06-5.10476E-19-8.20334E-19
 -1       192 9.54891E-05-2.86073E-05-2.86613E-05 1.30638E-06-1.54669E-19-7.91642E-19
 -1       193 9.65691E-05-2.89139E-05-2.89924E-05 1.49555E-06 3.99237E-20-1.02153E-18
 -1       194 9.78203E-05-2.92707E-05-2.93753E-05 1.74869E-06-6.59019E-20-9.34724E-19
 -1       195 9.92823E-05-2.96921E-05-2.98212E-05 2.06469E-06-8.77597E-21-4.99659E-19
 -1       196 1.00989E-04-3.01928E-05-3.03382E-05 2.42858E-06 3.36032E-19-7.06106E-19
 -1       197 1.02954E-04-3.07850E-05-3.09282E-05 2.80290E-06 2.80940E-19-4.44660E-19
 -1       198 1.05159E-04-3.14743E-05-3.15799E-05 3.11515E-06 3.54257E-20-2.84178E-19
 -1       199 1.07521E-04-3.22532E-05-3.22619E-05 3.24295E-06-3.72079E-19-7.60784E-19
 -1       200 1.09867E-04-3.30887E-05-3.29138E-05 3.00367E-06-2.30602E-19-8.17329E-19
 -1       201 1.11902E-04-3.39043E-05-3.34409E-05 2.16572E-06 3.78056E-19-5.59035E-19
 -1       202 1.13200E-04-3.45534E-05-3.37204E-05 5.13928E-07-2.31574E-19-8.36364E-19
 -1       203 1.13239E-04-3.47986E-05-3.36297E-05-1.99167E-06-3.96574E-19 3.55888E-20
 -1       204 1.11562E-04-3.43370E-05-3.31011E-05-4.97008E-06 4.77564E-19 8.60241E-19
 -1       205 1.08072E-04-3.29440E-05-3.21943E-05-7.42272E-06 4.17946E-19 9.96981E-19
 -1       206 1.03427E-04-3.07722E-05-3.11308E-05-7.92570E-06 1.63337E-19 5.42432E-20
 -1       207 9.91775E-05-2.85913E-05-3.02464E-05-5.48802E-06-8.95903E-19-6.72640E-19
 -1       208 9.71911E-05-2.75222E-05-2.98565E-05-6.23933E-07-3.63278E-19-3.62536E-19
 -1       209 9.84661E-05-2.82119E-05-3.01052E-05 4.53303E-06 9.44296E-19 5.01536E-19
 -1       210 1.02353E-04-3.02360E-05-3.09002E-05 7.63749E-06-5.57452E-19-1.06766E-19
 -1       211 1.07071E-04-3.24979E-05-3.19552E-05 7.76024E-06-2.08923E-18-6.57867E-19
 -1       212 1.10921E-04-3.41039E-05-3.29247E-05 5.63098E-06-1.42085E-18-1.53291E-18
 -1       213 1.13035E-04-3.47697E-05-3.35533E-05 2.66763E-06-1.12313E-18-2.69510E-18
 -1       214 1.13368E-04-3.46620E-05-3.37460E-05 6.84084E-09 2.69247E-19-2.32958E-18
 -1       215 1.12332E-04-3.40862E-05-3.35477E-05-1.83657E-06 3.44914E-19-2.44661E-18
 -1       216 1.10455E-04-3.33011E-05-3.30754E-05-2.82989E-06 8.36542E-19-2.84931E-18
 -1       217 1.08193E-04-3.24734E-05-3.24565E-05-3.16540E-06 7.23552E-19-3.49676E-18
 -1       218 1.05878E-04-3.16944E-05-3.17940E-05-3.07836E-06 1.14119E-18-1.74951E-18
 -1       219 1.03711E-04-3.10062E-05-3.11574E-05-2.76372E-06-7.33251E-19-7.35349E-19
 -1       220 1.01797E-04-3.04226E-05-3.05857E-05-2.35584E-06-8.63280E-19-3.69173E-19
 -1       221 1.00174E-04-2.99419E-05-3.00957E-05-1.93592E-06-5.26025E-20-1.53726E-18
 -1       222 9.88410E-05-2.95550E-05-2.96901E-05-1.54674E-06 7.13090E-19-1.91708E-18
 -1       223 9.77733E-05-2.92494E-05-2.93637E-05-1.20610E-06 4.42070E-19-8.99838E-19
 -1       224 9.69387E-05-2.90125E-05-2.91079E-05-9.16353E-07 8.43541E-19 6.51039E-19
 -1       225 9.63043E-05-2.88323E-05-2.89137E-05-6.70654E-07 5.76393E-19 7.58197E-19
 -1       226 9.58406E-05-2.86991E-05-2.87727E-05-4.56992E-07-7.91714E-19 6.71857E-19
 -1       227 9.55233E-05-2.86059E-05-2.86771E-05-2.62954E-07 1.38500E-19-1.71793E-18
 -1       228 9.53246E-05-2.85492E-05-2.86167E-05-8.55130E-08 5.22947E-20-5.92083E-19
 -1       229 9.93550E-05-2.85112E-05-3.05429E-05 7.20077E-06 1.39840E-18 3.78026E-18
 -1       230 9.42864E-05-2.77511E-05-2.84856E-05 2.73242E-06 1.02308E-18 2.83156E-18
 -1       231 9.19880E-05-2.73666E-05-2.76497E-05 9.11262E-07 8.82327E-19 1.80274E-18
 -1       232 9.10733E-05-2.72126E-05-2.73417E-05 3.52041E-08 7.49613E-19 1.30083E-18
 -1       233 9.09156E-05-2.72196E-05-2.72844E-05-4.15353E-07 2.66813E-19 9.47713E-19
 -1       234 9.11830E-05-2.73279E-05-2.73593E-05-6.50141E-07-4.22710E-20 4.40120E-19
 -1       235 9.16928E-05-2.74952E-05-2.75091E-05-7.71953E-07 5.27246E-19 4.15563E-19
 -1       236 9.23466E-05-2.76969E-05-2.77042E-05-8.38962E-07 2.71046E-19 1.46545E-19
 -1       237 9.30963E-05-2.79214E-05-2.79301E-05-8.88378E-07 4.53982E-19-7.67365E-20
 -1       238 9.39275E-05-2.81657E-05-2.81820E-05-9.46153E-07 2.05639E-20-8.57565E-20
 -1       239 9.48490E-05-2.84336E-05-2.84623E-05-1.03139E-06 4.05431E-19-1.36957E-19
 -1       240 9.58860E-05-2.87334E-05-2.87783E-05-1.15827E-06 6.21541E-19-5.64751E-19
 -1       241 9.70752E-05-2.90772E-05-2.91407E-05-1.33640E-06 7.25555E-19-1.52556E-18
 -1       242 9.84590E-05-2.94788E-05-2.95618E-05-1.56971E-06 6.80593E-19-2.13688E-18
 -1       243 1.00078E-04-2.99531E-05-3.00530E-05-1.85338E-06-2.87310E-19-2.39305E-18
 -1       244 1.01962E-04-3.05125E-05-3.06214E-05-2.16844E-06 2.13206E-20-2.55099E-18
 -1       245 1.04111E-04-3.11637E-05-3.12645E-05-2.47310E-06 3.79099E-19-1.91591E-18
 -1       246 1.06474E-04-3.19018E-05-3.19627E-05-2.69099E-06-6.02713E-20-1.91565E-18
 -1       247 1.08920E-04-3.27001E-05-3.26699E-05-2.69875E-06-9.63873E-19-1.86963E-18
 -1       248 1.11197E-04-3.34973E-05-3.33042E-05-2.32145E-06 2.40887E-19-9.68675E-19
 -1       249 1.12914E-04-3.41792E-05-3.37444E-05-1.35585E-06 4.15609E-20-1.02108E-18
 -1       250 1.13548E-04-3.45629E-05-3.38451E-05 3.46774E-07 2.75488E-19-5.27385E-19
 -1       251 1.12556E-04-3.44035E-05-3.34803E-05 2.71139E-06-1.08946E-18-7.36922E-19
 -1       252 1.09618E-04-3.34673E-05-3.26196E-05 5.22123E-06-1.30175E-18 3.37966E-19
 -1       253 1.05012E-04-3.17166E-05-3.14061E-05 6.83708E-06-5.74738E-19 1.42101E-18
 -1       254 9.99188E-05-2.95532E-05-3.01725E-05 6.36727E-06 1.86413E-19 1.74922E-18
 -1       255 9.62257E-05-2.78545E-05-2.93377E-05 3.35983E-06 4.17362E-20 1.99617E-18
 -1       256 9.55993E-05-2.75114E-05-2.92163E-05-1.17209E-06 5.02668E-19 3.43601E-19
 -1       257 9.83606E-05-2.87345E-05-2.98538E-05-5.15412E-06 1.64950E-18-6.84714E-19
 -1       258 1.03219E-04-3.08465E-05-3.10056E-05-6.91358E-06 1.40038E-18-1.59530E-18
 -1       259 1.08218E-04-3.28749E-05-3.22674E-05-6.21896E-06 2.34856E-19-2.47689E-18
 -1       260 1.11846E-04-3.41788E-05-3.32684E-05-4.01105E-06 9.50090E-19-3.22263E-18
 -1       261 1.13522E-04-3.46332E-05-3.38038E-05-1.48673E-06-8.54431E-19-2.07791E-18
 -1       262 1.13415E-04-3.44298E-05-3.38541E-05 5.67642E-07-2.04558E-18-1.26789E-18
 -1       263 1.12035E-04-3.38333E-05-3.35226E-05 1.88292E-06 4.80913E-19-1.43890E-18
 -1       264 1.09936E-04-3.30617E-05-3.29534E-05 2.52006E-06 1.16201E-18-1.39230E-18
 -1       265 1.07563E-04-3.22591E-05-3.22782E-05 2.66715E-06-1.39587E-18-1.73440E-18
 -1       266 1.05218E-04-3.15069E-05-3.15931E-05 2.51655E-06-2.76868E-19-1.84206E-18
 -1       267 1.03076E-04-3.08444E-05-3.09570E-05 2.21640E-06 1.16132E-19-4.54343E-19
 -1       268 1.01219E-04-3.02843E-05-3.03997E-05 1.86419E-06-5.66015E-19 2.08933E-19
 -1       269 9.96675E-05-2.98249E-05-2.99309E-05 1.51645E-06-5.36799E-20-6.41091E-19
 -1       270 9.84087E-05-2.94569E-05-2.95487E-05 1.20132E-06 3.96904E-19-5.74050E-19
 -1       271 9.74126E-05-2.91683E-05-2.92455E-05 9.28752E-07 1.58680E-18 4.87632E-19
 -1       272 9.66446E-05-2.89466E-05-2.90115E-05 6.97577E-07-1.11651E-18-3.47841E-19
 -1       273 9.60719E-05-2.87809E-05-2.88375E-05 4.99960E-07 1.53525E-18-1.21609E-18
 -1       274 9.56676E-05-2.86624E-05-2.87157E-05 3.24999E-07 5.00140E-19-2.74067E-19
 -1       275 9.54093E-05-2.85845E-05-2.86384E-05 1.61903E-07-1.05793E-18-4.08962E-19
 -1       276 9.52753E-05-2.85562E-05-2.85914E-05 1.95932E-08 1.24159E-19-2.50653E-19
 -1       277 9.52591E-05-2.84822E-05-2.86175E-05 9.68809E-08 7.00187E-19 1.81530E-18
 -1       278 9.52012E-05-2.83024E-05-2.86705E-05 2.52503E-07 5.63722E-19 1.58856E-18
 -1       279 9.51037E-05-2.80420E-05-2.87406E-05 3.70755E-07 3.90174E-19-2.41539E-19
 -1       280 9.49907E-05-2.77378E-05-2.88228E-05 4.18280E-07 6.99413E-19-2.03815E-18
 -1       281 9.48814E-05-2.74397E-05-2.89041E-05 3.92782E-07-9.86586E-19-3.65367E-18
 -1       282 9.47883E-05-2.71831E-05-2.89746E-05 3.02036E-07-1.00895E-18-2.23133E-18
 -1       283 9.47267E-05-2.70124E-05-2.90217E-05 1.63091E-07-1.46613E-18 1.04375E-19
 -1       284 9.47054E-05-2.69531E-05-2.90381E-05-1.22291E-09 1.87147E-19 3.10733E-18
 -1       285 9.47273E-05-2.70141E-05-2.90212E-05-1.65404E-07-1.50665E-18-9.00585E-19
 -1       286 9.47894E-05-2.71863E-05-2.89738E-05-3.03975E-07-1.42985E-18-2.72159E-18
 -1       287 9.48812E-05-2.74390E-05-2.89044E-05-3.93005E-07-2.13979E-18-5.59373E-19
 -1       288 9.49926E-05-2.77426E-05-2.88215E-05-4.18245E-07-1.45136E-18 3.34672E-18
 -1       289 9.51053E-05-2.80467E-05-2.87393E-05-3.69129E-07 6.27862E-19 2.75470E-18
 -1       290 9.52011E-05-2.83023E-05-2.86699E-05-2.51083E-07 7.70952E-19 8.74282E-19
 -1       291 9.52796E-05-2.84381E-05-2.86453E-05-1.84341E-07-3.07713E-19-3.29442E-19
 -1       292 1.23709E-05-4.79177E-05 1.18461E-05 6.58994E-06-2.02838E-18 7.29825E-19
 -1       293 2.65349E-05-4.14090E-05 3.90838E-06 2.35456E-05-2.32532E-18 2.06385E-18
 -1       294 5.26373E-05-3.51895E-05-9.24512E-06 3.42560E-05-8.99973E-20 1.54266E-19
 -1       295 9.63040E-05-3.50041E-05-2.65319E-05 4.34098E-05-9.34489E-19 2.42950E-18
 -1       296 1.36464E-04-3.17054E-05-4.38199E-05 4.42454E-05 1.37283E-18 1.35949E-18
 -1       297 1.76789E-04-3.26829E-05-5.91338E-05 3.84491E-05 1.99023E-18-7.03037E-19
 -1       298 2.00858E-04-3.42022E-05-6.82089E-05 1.78594E-05 2.34427E-18-1.22619E-18
 -1       299 2.07503E-04-3.44154E-05-7.07969E-05-3.29280E-06 3.46458E-18-2.09831E-18
 -1       300 1.84305E-04-3.04621E-05-6.38519E-05-1.78833E-05 3.64372E-18-3.64584E-18
 -1       301 1.59039E-04-3.14991E-05-5.27663E-05-4.27928E-05 3.75723E-18-6.61321E-18
 -1       302 1.19331E-04-3.39406E-05-3.61464E-05-4.36192E-05 4.05824E-18-4.53099E-18
 -1       303 7.26790E-05-3.19173E-05-1.84618E-05-4.08036E-05 3.94167E-18-5.42620E-18
 -1       304 3.98963E-05-3.83205E-05-2.99608E-06-2.85201E-05 1.96787E-18-5.11650E-18
 -1       305 1.92433E-05-4.40679E-05 7.69692E-06-1.64079E-05 1.99159E-19-2.88065E-18
 -1       306 1.12734E-05-4.91498E-05 1.26870E-05-2.03430E-06-1.69560E-18-3.12195E-18
 -1       307 1.50037E-05-4.70375E-05 1.04020E-05 1.05828E-05-3.51032E-18-2.24210E-18
 -1       308 3.36032E-05-4.03956E-05 6.83894E-07 2.74996E-05-3.94209E-18-2.48567E-18
 -1       309 6.16644E-05-3.38700E-05-1.32957E-05 3.76128E-05-4.60532E-18-3.98677E-18
 -1       310 1.10250E-04-3.87184E-05-3.06204E-05 4.18051E-05-3.74939E-18-3.50735E-18
 -1       311 1.47431E-04-3.33512E-05-4.76499E-05 3.96695E-05-4.51040E-18-3.02645E-18
 -1       312 1.84007E-04-3.35086E-05-6.16952E-05 3.48865E-05-4.07534E-18-3.25112E-18
 -1       313 2.07158E-04-3.61200E-05-6.96425E-05 1.60444E-05-2.63427E-18-1.64007E-18
 -1       314 2.11304E-04-3.67665E-05-7.11056E-05-5.99774E-06-2.57837E-18 1.23561E-19
 -1       315 1.90247E-04-3.25118E-05-6.49123E-05-2.26637E-05-2.90945E-18 7.78847E-19
 -1       316 1.63469E-04-3.16318E-05-5.43536E-05-4.23540E-05-2.37802E-18 2.54978E-18
 -1       317 1.23156E-04-2.97298E-05-3.92540E-05-4.69937E-05-4.11584E-18 3.45822E-18
 -1       318 8.25351E-05-3.11989E-05-2.26467E-05-4.27197E-05-5.23615E-18 4.26650E-18
 -1       319 5.14080E-05-3.84884E-05-7.20307E-06-3.48225E-05-3.64055E-18 4.10025E-18
 -1       320 2.40468E-05-4.31429E-05 5.33528E-06-1.95736E-05-2.73676E-18 3.83372E-18
 -1       321 1.17423E-05-4.56628E-05 1.13802E-05-7.22948E-06-2.29562E-18 4.77197E-19
 -1       322 9.16384E-05-1.43869E-05-3.31711E-05-1.30220E-05-1.74813E-18-9.97315E-19
 -1       323 9.56462E-05-1.90940E-05-3.28710E-05-1.45997E-05-1.89004E-18 2.93378E-19
 -1       324 8.80509E-05-1.03569E-05-3.33507E-05-8.10743E-06-1.18325E-18-2.20700E-18
 -1       325 8.72430E-05-9.42203E-06-3.33997E-05-5.67957E-06-8.49467E-19-2.41191E-18
 -1       326 8.67872E-05-8.88312E-06-3.34322E-05-3.34210E-06-3.88180E-19-2.41504E-18
 -1       327 8.65834E-05-8.63808E-06-3.34484E-05-1.06407E-06-7.05860E-20-2.60704E-18
 -1       328 8.65920E-05-8.64768E-06-3.34481E-05 1.19431E-06 2.36767E-19-2.64443E-18
 -1       329 8.68147E-05-8.91418E-06-3.34309E-05 3.47460E-06 5.42975E-19-2.60327E-18
 -1       330 8.72827E-05-9.46766E-06-3.33979E-05 5.77734E-06 8.83303E-19-2.43894E-18
 -1       331 8.81118E-05-1.04302E-05-3.33474E-05 8.20985E-06 1.24498E-18-2.12200E-18
 -1       332 8.95063E-05-1.20220E-05-3.32741E-05 1.07185E-05 1.59715E-18-1.62049E-18
 -1       333 9.18916E-05-1.47135E-05-3.31573E-05 1.31287E-05 1.93384E-18-8.43466E-19
 -1       334 9.57414E-05-1.94402E-05-3.28081E-05 1.43453E-05 2.01897E-18 4.42959E-19
 -1       335 9.86885E-05-2.44154E-05-3.19193E-05 1.18768E-05 1.84436E-18 1.72645E-18
 -1       336 9.63023E-05-2.67829E-05-2.97644E-05 5.71566E-06 1.46676E-18 1.30256E-18
 -1       337 9.63773E-05-2.60025E-05-3.01169E-05-6.30982E-06-1.54807E-18 3.80061E-19
 -1       338 9.48840E-05-2.70027E-05-2.90664E-05-2.77290E-06-1.24655E-18 2.89120E-19
 -1       339 9.39428E-05-2.74003E-05-2.85034E-05-8.25767E-07-8.33951E-19 2.20396E-19
 -1       340 9.34756E-05-2.76148E-05-2.82190E-05 2.89104E-07-6.19161E-19-1.03814E-19
 -1       341 9.33600E-05-2.77733E-05-2.81052E-05 9.34027E-07-4.88122E-19-9.98760E-20
 -1       342 9.34864E-05-2.79132E-05-2.81010E-05 1.31394E-06-3.39534E-19-7.73969E-20
 -1       343 9.37788E-05-2.80456E-05-2.81702E-05 1.55426E-06-4.98033E-19-2.84870E-19
 -1       344 9.41911E-05-2.81747E-05-2.82917E-05 1.73753E-06-6.24110E-19-3.04421E-19
 -1       345 9.47006E-05-2.83046E-05-2.84543E-05 1.92139E-06-8.19853E-19-3.67486E-19
 -1       346 9.53020E-05-2.84410E-05-2.86532E-05 2.14754E-06-3.27498E-19-3.66242E-19
 -1       347 9.60027E-05-2.85922E-05-2.88882E-05 2.44592E-06-3.23131E-19-7.89313E-19
 -1       348 9.68195E-05-2.87699E-05-2.91616E-05 2.83561E-06 5.73178E-20-9.72659E-19
 -1       349 9.77750E-05-2.89900E-05-2.94763E-05 3.32295E-06 2.28846E-19-7.53929E-19
 -1       350 9.88948E-05-2.92746E-05-2.98341E-05 3.89624E-06 2.03331E-20-7.29413E-19
 -1       351 1.00204E-04-2.96547E-05-3.02328E-05 4.51645E-06 1.94550E-19-6.35994E-19
 -1       352 1.01726E-04-3.01725E-05-3.06641E-05 5.10309E-06 3.10507E-19-6.40395E-19
 -1       353 1.03472E-04-3.08832E-05-3.11105E-05 5.51582E-06-1.45152E-19-7.06686E-19
 -1       354 1.05440E-04-3.18485E-05-3.15442E-05 5.53633E-06-1.67678E-19-5.72368E-19
 -1       355 1.07588E-04-3.31109E-05-3.19294E-05 4.86337E-06 1.92575E-19-5.37958E-19
 -1       356 1.09797E-04-3.46293E-05-3.22317E-05 3.14980E-06 1.26765E-19-1.29059E-18
 -1       357 1.11794E-04-3.61599E-05-3.24347E-05 1.31042E-07 5.16171E-19-1.22222E-18
 -1       358 1.13066E-04-3.71213E-05-3.25670E-05-4.08921E-06 4.75920E-19-4.25157E-19
 -1       359 1.12909E-04-3.66292E-05-3.27026E-05-8.63786E-06 6.24114E-19-4.32382E-19
 -1       360 1.10786E-04-3.39585E-05-3.29304E-05-1.16261E-05 7.31952E-19-2.66762E-19
 -1       361 1.07210E-04-2.96395E-05-3.32454E-05-1.07213E-05-3.54013E-19 2.31837E-19
 -1       362 1.04120E-04-2.59338E-05-3.35115E-05-5.03467E-06-2.51622E-19 4.18471E-19
 -1       363 1.03741E-04-2.54801E-05-3.35453E-05 3.23269E-06 2.96607E-19 9.08993E-19
 -1       364 1.06373E-04-2.86321E-05-3.33196E-05 9.81822E-06-1.17880E-19-1.35969E-19
 -1       365 1.10053E-04-3.30622E-05-3.29990E-05 1.18300E-05-2.12016E-18-1.15488E-18
 -1       366 1.12605E-04-3.62130E-05-3.27497E-05 9.55696E-06-1.75208E-18-5.99404E-19
 -1       367 1.13201E-04-3.71720E-05-3.26028E-05 5.17220E-06-1.54383E-18 1.74174E-19
 -1       368 1.12199E-04-3.64582E-05-3.24817E-05 7.72431E-07-3.26270E-19 2.02714E-19
 -1       369 1.10326E-04-3.49924E-05-3.23037E-05-2.53355E-06 2.72887E-21 3.89264E-19
 -1       370 1.08155E-04-3.34420E-05-3.20317E-05-4.50651E-06 4.56992E-19-2.26714E-20
 -1       371 1.06008E-04-3.21165E-05-3.16738E-05-5.35691E-06 4.91056E-19 7.39391E-19
 -1       372 1.04034E-04-3.10914E-05-3.12625E-05-5.42708E-06 1.65723E-18 9.50853E-19
 -1       373 1.02289E-04-3.03366E-05-3.08353E-05-5.03280E-06 1.22222E-18-1.29726E-18
 -1       374 1.00787E-04-2.97922E-05-3.04231E-05-4.41007E-06 2.75575E-20 7.75425E-19
 -1       375 9.95191E-05-2.94015E-05-3.00467E-05-3.71380E-06-6.02130E-19 1.02307E-18
 -1       376 9.84688E-05-2.91200E-05-2.97172E-05-3.03486E-06-4.79108E-19 1.77731E-18
 -1       377 9.76132E-05-2.89154E-05-2.94385E-05-2.41922E-06 1.08648E-18 1.60637E-18
 -1       378 9.69277E-05-2.87645E-05-2.92098E-05-1.88368E-06 1.84692E-18 2.63573E-18
 -1       379 9.63874E-05-2.86502E-05-2.90276E-05-1.42692E-06 5.18221E-19 2.29601E-18
 -1       380 9.59687E-05-2.85607E-05-2.88870E-05-1.03752E-06-8.57533E-19 2.25148E-18
 -1       381 9.56510E-05-2.84884E-05-2.87817E-05-7.00133E-07-1.74455E-18 2.39523E-18
 -1       382 9.54392E-05-2.84520E-05-2.87074E-05-4.22614E-07-8.91450E-20 5.64893E-19
 -1       383 9.43049E-05-2.73137E-05-2.86721E-05 2.42940E-06 1.37109E-18 9.54643E-19
 -1       384 9.31325E-05-2.74378E-05-2.81328E-05 6.79124E-07 9.33761E-19 4.37830E-19
 -1       385 9.26301E-05-2.75234E-05-2.78926E-05-2.81939E-07 5.24844E-19 2.87862E-19
 -1       386 9.25652E-05-2.76291E-05-2.78250E-05-8.16589E-07 2.87009E-19-1.85750E-19
 -1       387 9.27800E-05-2.77593E-05-2.78637E-05-1.11812E-06 2.81851E-19-4.92516E-19
 -1       388 9.31759E-05-2.79074E-05-2.79708E-05-1.29810E-06 3.84519E-19-1.42535E-19
 -1       389 9.36966E-05-2.80684E-05-2.81252E-05-1.42765E-06 4.98634E-19-1.05696E-19
 -1       390 9.43162E-05-2.82414E-05-2.83165E-05-1.55556E-06 4.08201E-20-5.38304E-20
 -1       391 9.50302E-05-2.84296E-05-2.85416E-05-1.71700E-06 4.18479E-19-2.54056E-19
 -1       392 9.58497E-05-2.86398E-05-2.88023E-05-1.93743E-06 9.60833E-19-4.85649E-19
 -1       393 9.67964E-05-2.88824E-05-2.91035E-05-2.23368E-06 1.29874E-18-1.29077E-18
 -1       394 9.78980E-05-2.91707E-05-2.94516E-05-2.61261E-06 9.23892E-19-1.21213E-18
 -1       395 9.91839E-05-2.95217E-05-2.98521E-05-3.06688E-06-5.02434E-20-1.68407E-18
 -1       396 1.00679E-04-2.99559E-05-3.03070E-05-3.56731E-06 1.67169E-19-1.29169E-18
 -1       397 1.02393E-04-3.04973E-05-3.08110E-05-4.05102E-06-8.28930E-20-1.55570E-18
 -1       398 1.04315E-04-3.11725E-05-3.13477E-05-4.40568E-06 3.19011E-19-3.19578E-19
 -1       399 1.06391E-04-3.20044E-05-3.18844E-05-4.45317E-06-6.50830E-19-7.36432E-19
 -1       400 1.08504E-04-3.29956E-05-3.23703E-05-3.94360E-06-1.15870E-19-1.02406E-18
 -1       401 1.10448E-04-3.40908E-05-3.27391E-05-2.58474E-06-2.65408E-19-5.81912E-19
 -1       402 1.11892E-04-3.51105E-05-3.29239E-05-1.48110E-07 3.40807E-19-9.79982E-20
 -1       403 1.12373E-04-3.56797E-05-3.28847E-05 3.30652E-06-9.49895E-19 5.68556E-19
 -1       404 1.11389E-04-3.52476E-05-3.26427E-05 7.11464E-06-2.04725E-18 4.01002E-19
 -1       405 1.08710E-04-3.33696E-05-3.22912E-05 9.82246E-06-1.02085E-18 1.01834E-18
 -1       406 1.04899E-04-3.03051E-05-3.19648E-05 9.59502E-06-3.02224E-19 1.00567E-18
 -1       407 1.01574E-04-2.74330E-05-3.17668E-05 5.50028E-06 8.13628E-19 1.86525E-18
 -1       408 1.00609E-04-2.65365E-05-3.17350E-05-1.17586E-06 1.07839E-18 2.06317E-19
 -1       409 1.02649E-04-2.82753E-05-3.18623E-05-7.28998E-06 2.22273E-18 3.18769E-19
 -1       410 1.06425E-04-3.14324E-05-3.21299E-05-1.01111E-05 2.15829E-18 9.24166E-19
 -1       411 1.09989E-04-3.42099E-05-3.24767E-05-9.17538E-06 9.07136E-19-1.07105E-18
 -1       412 1.12066E-04-3.55836E-05-3.27916E-05-5.88307E-06 4.51907E-19-1.00340E-18
 -1       413 1.12444E-04-3.55987E-05-3.29543E-05-2.06709E-06-1.07345E-18 3.06180E-19
 -1       414 1.11529E-04-3.48063E-05-3.29013E-05 1.07178E-06-1.18789E-18 1.97920E-19
 -1       415 1.09847E-04-3.37197E-05-3.26410E-05 3.11264E-06 1.66854E-19-9.14531E-20
 -1       416 1.07821E-04-3.26444E-05-3.22274E-05 4.12788E-06 4.50707E-19 1.27207E-18
 -1       417 1.05736E-04-3.17097E-05-3.17292E-05 4.38607E-06-5.41541E-19 1.56260E-18
 -1       418 1.03764E-04-3.09449E-05-3.12077E-05 4.17106E-06-5.80486E-19-1.06997E-19
 -1       419 1.01993E-04-3.03373E-05-3.07069E-05 3.70774E-06-1.02447E-18-4.28486E-20
 -1       420 1.00463E-04-2.98615E-05-3.02540E-05 3.14876E-06 2.38681E-19 8.90640E-19
 -1       421 9.91783E-05-2.94921E-05-2.98616E-05 2.58609E-06-5.86325E-19-6.32596E-20
 -1       422 9.81262E-05-2.92068E-05-2.95331E-05 2.06804E-06 7.72235E-20 9.24505E-19
 -1       423 9.72827E-05-2.89875E-05-2.92660E-05 1.61411E-06 7.42155E-19 1.92032E-18
 -1       424 9.66208E-05-2.88192E-05-2.90549E-05 1.22587E-06 8.83175E-19 1.39440E-18
 -1       425 9.61135E-05-2.86900E-05-2.88933E-05 8.94176E-07 8.23209E-19-1.18637E-18
 -1       426 9.57368E-05-2.85916E-05-2.87746E-05 6.05669E-07 3.43404E-19 9.36514E-19
 -1       427 9.54692E-05-2.85208E-05-2.86907E-05 3.49662E-07-1.05045E-18 2.42309E-18
 -1       428 9.53467E-05-2.84870E-05-2.86532E-05 2.17067E-07-2.19857E-19 2.61014E-18
 -1       429 9.50621E-05-2.78258E-05-2.88152E-05 7.29899E-07-7.96284E-19-5.66840E-19
 -1       430 9.52282E-05-2.81234E-05-2.87581E-05 6.12202E-07-9.59623E-19 6.94244E-19
 -1       431 9.53136E-05-2.83305E-05-2.87057E-05 4.21798E-07-5.96000E-19 1.26831E-18
 -1       432 9.48935E-05-2.75303E-05-2.88702E-05 7.31915E-07-5.69619E-19-5.22176E-18
 -1       433 9.47417E-05-2.72638E-05-2.89199E-05 6.19589E-07-4.11073E-19-2.00665E-18
 -1       434 9.46291E-05-2.70650E-05-2.89572E-05 4.12332E-07 3.61217E-19-4.13554E-19
 -1       435 9.45694E-05-2.69592E-05-2.89772E-05 1.43239E-07-4.40022E-19 1.34135E-18
 -1       436 9.45697E-05-2.69598E-05-2.89771E-05-1.47172E-07-2.20014E-18 5.00041E-20
 -1       437 9.46302E-05-2.70669E-05-2.89569E-05-4.15882E-07-7.55149E-19-1.37967E-18
 -1       438 9.47411E-05-2.72626E-05-2.89201E-05-6.19592E-07 1.46964E-19-2.48553E-18
 -1       439 9.48933E-05-2.75293E-05-2.88705E-05-7.32577E-07 9.30094E-19 4.22747E-18
 -1       440 9.50635E-05-2.78292E-05-2.88144E-05-7.29404E-07 1.16542E-18 2.69095E-18
 -1       441 9.52330E-05-2.81306E-05-2.87571E-05-6.11204E-07-1.17050E-18 1.37403E-18
 -1       442 6.14664E-05-4.17316E-05-8.43044E-06 4.33697E-05-3.19776E-18 4.36593E-19
 -1       443 1.33028E-05-1.88792E-05 2.56372E-06 1.08066E-06-9.21954E-19 6.57721E-19
 -1       444 2.34373E-05-2.45878E-05 5.44180E-07 2.52558E-05-2.64634E-18 1.24016E-18
 -1       445 9.61993E-05-5.25402E-05-1.88336E-05 4.12797E-05-1.89206E-18 4.13167E-19
 -1       446 1.35568E-04-5.54372E-05-3.43353E-05 2.27762E-05-1.17547E-18 7.00708E-19
 -1       447 8.93611E-05-1.18447E-05-3.32951E-05-1.06429E-05-1.47288E-18-1.87917E-18
 -1       448 1.59628E-04-2.54995E-05-5.72348E-05 8.26979E-07 1.60439E-18-1.08219E-18
 -1       449 1.56171E-04-1.29807E-05-6.12820E-05-1.53243E-06 2.90892E-18-1.54292E-18
 -1       450 1.54950E-04-1.42523E-05-6.03434E-05 1.87528E-06 3.90461E-18-1.80873E-18
 -1       451 1.52530E-04-3.40534E-05-5.09887E-05-2.09806E-07 1.54652E-18-7.35860E-19
 -1       452 1.46644E-04-4.89629E-05-4.18396E-05-1.21228E-05 5.10814E-19-9.73982E-19
 -1       453 1.18241E-04-5.54353E-05-2.69882E-05-3.37544E-05 6.92873E-19-1.08653E-18
 -1       454 8.04518E-05-4.80420E-05-1.40437E-05-4.32800E-05 2.61416E-19-3.76813E-18
 -1       455 4.41766E-05-3.56393E-05-3.80865E-06-3.87308E-05 1.28114E-20-4.25009E-18
 -1       456 1.62634E-05-2.46817E-05 3.32480E-06-1.69958E-05-1.70095E-19-3.70344E-18
 -1       457 1.29070E-05-2.34517E-05 4.23772E-06 9.05650E-06 2.70786E-19-3.19797E-18
 -1       458 3.14377E-05-2.92821E-05-9.92065E-07 3.22612E-05 6.55604E-19-6.34639E-19
 -1       459 7.26445E-05-4.56989E-05-1.14936E-05 4.41456E-05 8.04681E-21-1.53173E-18
 -1       460 1.08176E-04-5.55278E-05-2.26435E-05 3.76485E-05-3.14779E-19-1.94473E-18
 -1       461 1.40697E-04-5.22375E-05-3.78939E-05 1.85386E-05-1.94029E-18-1.86771E-19
 -1       462 1.55297E-04-3.66653E-05-5.06288E-05 5.82516E-06-3.49835E-18-1.54891E-18
 -1       463 1.62149E-04-2.39343E-05-5.88571E-05 1.63393E-06-3.41079E-18-3.21587E-18
 -1       464 1.57702E-04-1.30322E-05-6.18881E-05-7.30799E-07-3.72589E-18-1.46723E-18
 -1       465 1.58877E-04-1.58665E-05-6.10682E-05 1.81422E-06-2.32669E-18-1.74113E-18
 -1       466 1.57518E-04-3.19632E-05-5.36589E-05-3.06665E-06-1.84388E-18-1.38628E-18
 -1       467 1.47606E-04-4.56500E-05-4.35902E-05-1.54020E-05-1.41121E-18-1.24313E-18
 -1       468 1.27349E-04-5.59651E-05-3.06152E-05-2.87865E-05-1.74753E-18-1.97803E-18
 -1       469 9.24216E-05-5.07060E-05-1.79888E-05-4.17879E-05-1.62186E-18 1.44271E-18
 -1       470 5.34353E-05-3.80259E-05-6.59051E-06-4.16408E-05-3.87835E-19 4.48927E-18
 -1       471 2.70619E-05-2.60669E-05-2.83176E-07-2.84041E-05-1.22481E-18 2.35602E-18
 -1       472 1.52609E-04-4.08112E-05-4.77634E-05 9.88507E-06 1.23973E-18-1.37802E-18
 -1       473 1.40707E-04-2.18735E-05-5.13924E-05 1.10113E-05 1.12571E-18-1.63885E-18
 -1       474 9.57913E-05-2.51230E-05-3.02721E-05 5.95931E-06 1.53418E-18-1.97742E-19
 -1       475 8.95739E-05-1.33269E-05-3.26962E-05-3.87712E-06-5.31553E-19-2.07374E-18
 -1       476 9.02777E-05-1.43042E-05-3.25806E-05-5.82257E-06-9.60739E-19-1.98015E-18
 -1       477 8.90736E-05-1.26303E-05-3.27791E-05 5.42695E-08 6.80726E-20-2.39954E-18
 -1       478 8.92102E-05-1.28186E-05-3.27573E-05 2.01916E-06 3.79452E-19-2.42193E-18
 -1       479 8.96071E-05-1.33682E-05-3.26929E-05 3.95008E-06 5.99809E-19-2.26575E-18
 -1       480 9.03310E-05-1.43726E-05-3.25747E-05 5.88916E-06 9.93585E-19-1.98960E-18
 -1       481 9.14727E-05-1.59702E-05-3.23813E-05 7.71252E-06 1.29171E-18-1.64367E-18
 -1       482 9.32409E-05-1.84547E-05-3.20714E-05 9.23286E-06 1.66040E-18-1.14163E-18
 -1       483 9.51062E-05-2.65451E-05-2.93653E-05 2.78394E-06 1.38671E-18-1.34006E-19
 -1       484 9.54652E-05-2.43895E-05-3.04506E-05-5.76631E-06-1.44208E-18-5.23059E-19
 -1       485 9.52832E-05-2.61853E-05-2.96064E-05-2.78216E-06-1.11614E-18-5.58289E-19
 -1       486 9.49570E-05-2.71011E-05-2.90772E-05-8.52891E-07-9.14583E-19-6.74731E-19
 -1       487 9.47223E-05-2.76115E-05-2.87600E-05 3.62186E-07-5.62681E-19-6.14010E-19
 -1       488 9.46248E-05-2.79134E-05-2.85898E-05 1.12547E-06-4.84587E-19-7.97154E-19
 -1       489 9.46503E-05-2.80956E-05-2.85230E-05 1.61744E-06-5.80209E-19-1.01222E-18
 -1       490 9.47749E-05-2.82027E-05-2.85306E-05 1.96447E-06-3.10983E-19-1.19787E-18
 -1       491 9.49793E-05-2.82593E-05-2.85939E-05 2.25664E-06-8.04244E-19-9.60561E-19
 -1       492 9.52519E-05-2.82821E-05-2.87008E-05 2.55962E-06-5.22205E-19-5.38164E-19
 -1       493 9.55894E-05-2.82848E-05-2.88441E-05 2.92147E-06-5.37088E-19-4.24107E-19
 -1       494 9.59958E-05-2.82824E-05-2.90191E-05 3.37573E-06-2.72692E-19-2.75436E-19
 -1       495 9.64822E-05-2.82944E-05-2.92221E-05 3.94163E-06 1.62042E-19-4.51244E-19
 -1       496 9.70672E-05-2.83495E-05-2.94490E-05 4.62139E-06-5.68405E-20-6.79245E-19
 -1       497 9.77805E-05-2.84919E-05-2.96937E-05 5.39389E-06-1.11200E-19-6.72459E-19
 -1       498 9.86675E-05-2.87896E-05-2.99465E-05 6.20444E-06 1.72765E-19-4.91481E-19
 -1       499 9.97984E-05-2.93436E-05-3.01945E-05 6.94958E-06 1.15024E-19-6.04440E-19
 -1       500 1.01277E-04-3.02921E-05-3.04233E-05 7.45727E-06-5.35692E-19-6.76841E-19
 -1       501 1.03244E-04-3.17962E-05-3.06239E-05 7.46481E-06-1.52761E-19-3.28077E-19
 -1       502 1.05843E-04-3.39780E-05-3.08060E-05 6.60523E-06-1.60648E-19-1.58927E-18
 -1       503 1.09125E-04-3.67682E-05-3.10209E-05 4.43190E-06 1.18634E-19-7.35181E-19
 -1       504 1.12834E-04-3.96297E-05-3.13805E-05 5.51450E-07 8.01519E-19-7.99496E-19
 -1       505 1.16042E-04-4.12019E-05-3.20853E-05-4.97025E-06 8.38965E-19-7.55060E-19
 -1       506 1.17331E-04-3.96629E-05-3.33110E-05-1.08664E-05 6.74726E-19-5.46473E-19
 -1       507 1.15212E-04-3.35719E-05-3.50371E-05-1.40117E-05-1.90384E-20-9.11942E-19
 -1       508 1.10839E-04-2.52622E-05-3.67628E-05-1.08749E-05-2.72705E-19-1.08741E-18
 -1       509 1.08116E-04-2.05836E-05-3.76180E-05-1.29037E-06 1.41951E-19-7.56913E-19
 -1       510 1.09916E-04-2.36473E-05-3.70695E-05 9.13527E-06 5.01933E-20-7.58395E-19
 -1       511 1.14303E-04-3.16953E-05-3.54635E-05 1.39544E-05-1.84414E-18-1.46837E-18
 -1       512 1.17110E-04-3.85818E-05-3.36771E-05 1.19740E-05-1.42788E-18-3.61577E-19
 -1       513 1.16598E-04-4.12046E-05-3.23256E-05 6.38605E-06-1.55100E-18-6.32017E-19
 -1       514 1.13674E-04-4.01577E-05-3.15203E-05 6.18263E-07-1.48615E-19-3.95701E-19
 -1       515 1.09977E-04-3.74332E-05-3.11011E-05-3.65236E-06 5.38835E-19 1.31331E-18
 -1       516 1.06569E-04-3.45518E-05-3.08717E-05-6.16235E-06 6.17825E-19 2.81063E-18
 -1       517 1.03827E-04-3.22085E-05-3.06975E-05-7.24746E-06 8.44782E-19 3.43928E-18
 -1       518 1.01748E-04-3.05512E-05-3.05142E-05-7.35803E-06 7.66211E-19 2.30015E-18
 -1       519 1.00197E-04-2.94843E-05-3.03053E-05-6.88236E-06 1.10915E-19 7.46808E-19
 -1       520 9.90311E-05-2.88477E-05-3.00774E-05-6.10462E-06 7.38010E-19 3.07684E-19
 -1       521 9.81378E-05-2.84958E-05-2.98450E-05-5.21388E-06 9.04032E-19 1.14195E-18
 -1       522 9.74406E-05-2.83196E-05-2.96216E-05-4.32607E-06 6.41635E-19 3.06265E-18
 -1       523 9.68892E-05-2.82449E-05-2.94174E-05-3.50507E-06-3.98599E-19 3.09262E-18
 -1       524 9.64498E-05-2.82235E-05-2.92384E-05-2.77967E-06 8.68637E-19 2.24051E-18
 -1       525 9.60980E-05-2.82251E-05-2.90872E-05-2.15660E-06 1.23371E-18 2.39811E-18
 -1       526 9.58137E-05-2.82292E-05-2.89638E-05-1.62750E-06 2.97872E-19 2.26848E-18
 -1       527 9.55853E-05-2.82290E-05-2.88660E-05-1.17847E-06-1.34084E-18 3.35332E-18
 -1       528 9.42200E-05-2.76380E-05-2.85314E-05-3.37231E-07 6.86476E-19-6.14709E-19
 -1       529 9.41144E-05-2.78760E-05-2.83862E-05-1.05422E-06 4.48063E-19-7.87123E-19
 -1       530 9.41830E-05-2.80389E-05-2.83466E-05-1.49971E-06 2.64923E-19-8.19496E-19
 -1       531 9.43822E-05-2.81581E-05-2.83812E-05-1.80076E-06 1.88389E-19-6.13216E-19
 -1       532 9.46815E-05-2.82496E-05-2.84703E-05-2.04502E-06 4.01555E-19-3.13450E-19
 -1       533 9.50649E-05-2.83244E-05-2.86024E-05-2.29525E-06 4.74219E-19-6.12148E-19
 -1       534 9.55281E-05-2.83925E-05-2.87714E-05-2.59698E-06 9.58256E-19-1.03780E-18
 -1       535 9.60766E-05-2.84658E-05-2.89747E-05-2.98206E-06 1.12997E-18-4.24079E-19
 -1       536 9.67232E-05-2.85598E-05-2.92112E-05-3.46906E-06 9.23742E-19 1.26203E-19
 -1       537 9.74873E-05-2.86968E-05-2.94798E-05-4.06061E-06 4.03878E-19 4.59548E-19
 -1       538 9.83947E-05-2.89097E-05-2.97774E-05-4.73716E-06-2.24285E-20 7.86804E-19
 -1       539 9.94785E-05-2.92477E-05-3.00973E-05-5.44668E-06 1.62750E-19 7.07320E-19
 -1       540 1.00782E-04-2.97819E-05-3.04280E-05-6.08973E-06-9.65119E-20 8.97809E-19
 -1       541 1.02360E-04-3.06073E-05-3.07525E-05-6.50098E-06-4.32528E-19 2.02308E-19
 -1       542 1.04277E-04-3.18328E-05-3.10518E-05-6.43114E-06-4.29476E-19 1.34728E-19
 -1       543 1.06580E-04-3.35351E-05-3.13137E-05-5.54247E-06 6.69334E-20 2.31197E-19
 -1       544 1.09230E-04-3.56478E-05-3.15481E-05-3.45140E-06-1.13054E-19-5.33350E-20
 -1       545 1.11955E-04-3.77709E-05-3.18073E-05 1.22555E-07-9.41871E-19 9.15272E-19
 -1       546 1.14075E-04-3.89708E-05-3.21998E-05 5.01403E-06-1.50290E-18 1.66779E-18
 -1       547 1.14515E-04-3.78835E-05-3.28551E-05 1.00882E-05-1.26729E-18 8.10280E-19
 -1       548 1.12468E-04-3.36480E-05-3.37964E-05 1.29188E-05 2.28374E-20-1.99313E-19
 -1       549 1.08667E-04-2.75093E-05-3.48078E-05 1.07125E-05 7.12854E-19-8.94938E-19
 -1       550 1.05857E-04-2.32766E-05-3.54249E-05 3.08707E-06 1.43517E-18-8.94983E-19
 -1       551 1.06556E-04-2.43099E-05-3.52862E-05-6.33205E-06 9.98473E-19 4.46132E-20
 -1       552 1.10108E-04-2.97514E-05-3.44703E-05-1.21930E-05 2.33041E-18 2.38311E-21
 -1       553 1.13504E-04-3.55212E-05-3.34353E-05-1.23630E-05 2.86747E-18-5.48496E-19
 -1       554 1.14641E-04-3.86361E-05-3.25876E-05-8.37711E-06 1.96938E-19-8.41207E-19
 -1       555 1.13460E-04-3.87276E-05-3.20447E-05-3.16016E-06-1.01736E-18 9.18936E-19
 -1       556 1.11022E-04-3.70456E-05-3.17191E-05 1.30317E-06-9.16676E-19 2.27903E-18
 -1       557 1.08285E-04-3.48477E-05-3.14847E-05 4.30407E-06-6.05786E-19 1.14526E-18
 -1       558 1.05762E-04-3.28564E-05-3.12524E-05 5.88920E-06-1.44383E-19 8.88949E-19
 -1       559 1.03624E-04-3.13269E-05-3.09878E-05 6.40070E-06-4.67144E-19 1.76572E-18
 -1       560 1.01870E-04-3.02566E-05-3.06918E-05 6.21358E-06 4.91389E-19 1.58187E-18
 -1       561 1.00443E-04-2.95495E-05-3.03812E-05 5.63337E-06-9.06700E-19 1.43059E-18
 -1       562 9.92810E-05-2.90992E-05-3.00755E-05 4.87596E-06-1.36228E-18 2.76779E-19
 -1       563 9.83360E-05-2.88191E-05-2.97903E-05 4.07915E-06 8.43166E-19 1.13462E-18
 -1       564 9.75695E-05-2.86471E-05-2.95356E-05 3.32208E-06-2.01535E-19 2.97368E-19
 -1       565 9.69513E-05-2.85410E-05-2.93164E-05 2.64335E-06-2.95219E-19 1.84895E-19
 -1       566 9.64566E-05-2.84727E-05-2.91340E-05 2.05522E-06 6.49007E-19 1.12497E-18
 -1       567 9.60638E-05-2.84237E-05-2.89868E-05 1.55406E-06 7.08994E-19 3.05001E-18
 -1       568 9.57535E-05-2.83818E-05-2.88717E-05 1.12836E-06 7.55904E-19 4.19927E-18
 -1       569 9.55083E-05-2.83454E-05-2.87825E-05 7.60537E-07-7.56303E-19 3.07683E-18
 -1       570 9.46902E-05-2.72690E-05-2.88950E-05 9.68134E-07 1.42241E-18-3.48170E-18
 -1       571 9.44807E-05-2.70086E-05-2.89170E-05 7.32219E-07 4.52889E-19-8.42825E-19
 -1       572 9.52141E-05-2.79361E-05-2.88334E-05 1.01022E-06-5.19052E-19-3.91057E-19
 -1       573 9.49461E-05-2.75898E-05-2.88671E-05 1.06507E-06-1.32067E-18-2.89306E-18
 -1       574 9.12945E-05-4.97678E-05-1.74903E-05 4.04164E-05-2.52395E-18 1.56034E-18
 -1       575 9.43448E-05-2.68401E-05-2.89312E-05 3.92495E-07-6.97814E-19-2.24514E-19
 -1       576 9.42979E-05-2.67820E-05-2.89360E-05-2.47820E-09-1.64595E-18-1.01285E-18
 -1       577 9.43456E-05-2.68410E-05-2.89311E-05-3.97324E-07-8.73038E-19 2.00237E-18
 -1       578 9.44795E-05-2.70069E-05-2.89173E-05-7.31392E-07 7.18331E-19-1.76951E-18
 -1       579 9.46886E-05-2.72665E-05-2.88954E-05-9.67792E-07 2.15316E-18 3.78564E-22
 -1       580 9.49476E-05-2.75907E-05-2.88671E-05-1.06555E-06 1.08130E-18 3.47139E-18
 -1       581 9.52146E-05-2.79377E-05-2.88324E-05-1.00977E-06-1.82988E-18-1.10103E-19
 -1       582 1.22985E-04-5.94136E-05-2.72114E-05 2.62583E-05-2.16060E-18 2.29692E-18
 -1       583 9.45480E-05-2.72535E-05-2.88317E-05 8.42179E-07 1.02938E-18-4.32190E-19
 -1       584 2.77278E-05-1.43340E-05-5.12461E-06 1.45322E-05-1.40555E-18-6.30193E-19
 -1       585 2.73591E-05-1.49479E-05-4.71552E-06-1.53537E-05-1.31576E-18 1.37812E-18
 -1       586 1.41355E-04-5.04227E-05-3.92346E-05 6.21379E-07 9.96547E-19-8.93567E-19
 -1       587 8.72360E-05-4.86103E-05-1.62335E-05-4.17233E-05 1.51132E-18-4.22617E-19
 -1       588 1.31350E-04-6.09220E-05-3.02049E-05 1.80264E-05 2.31081E-19 6.30775E-19
 -1       589 6.43231E-05-3.52261E-05-1.19520E-05 4.01213E-05 1.21491E-18-1.02486E-18
 -1       590 1.37387E-04-1.57794E-05-5.26659E-05-9.42648E-06 2.62051E-18-3.86988E-18
 -1       591 8.91899E-05-1.27932E-05-3.27595E-05-1.91156E-06-1.52073E-19-2.25874E-18
 -1       592 1.31289E-04-8.62654E-06-5.32427E-05 1.84153E-06 3.46616E-18-3.86361E-18
 -1       593 1.07901E-04-5.67260E-05-2.18120E-05-3.57366E-05-3.74706E-19-1.05804E-18
 -1       594 1.42814E-04-3.51976E-05-4.65453E-05-9.22434E-06 1.57188E-18-2.00731E-18
 -1       595 1.40362E-04-4.46098E-05-4.14579E-05 8.13662E-06-5.49777E-20 3.45695E-19
 -1       596 1.43248E-04-4.73737E-05-4.13652E-05-3.59158E-06-1.24347E-18-3.78041E-19
 -1       597 1.37087E-04-5.86624E-05-3.36890E-05-1.14837E-05-3.76903E-19-4.29340E-20
 -1       598 7.61496E-05-4.31950E-05-1.37164E-05-4.25189E-05-2.92068E-19-3.12579E-18
 -1       599 3.84359E-05-2.30142E-05-6.09907E-06-3.07961E-05-4.97685E-19-4.01435E-18
 -1       600 2.18182E-05-1.38542E-05-2.84541E-06-4.23326E-06 7.64497E-19-2.42061E-18
 -1       601 2.99538E-05-1.69021E-05-5.01870E-06 2.06324E-05 2.18828E-18-1.23063E-18
 -1       602 9.95599E-05-5.32734E-05-1.96186E-05 3.82108E-05 1.18865E-18-1.07518E-18
 -1       603 1.45108E-04-4.21462E-05-4.44630E-05 4.79244E-06-1.33424E-18-2.45025E-18
 -1       604 1.41389E-04-2.83604E-05-4.89400E-05-1.10006E-05-2.14887E-18-1.02438E-19
 -1       605 1.34866E-04-1.27455E-05-5.29699E-05-8.02498E-06-3.35150E-18 7.66830E-20
 -1       606 1.34276E-04-9.22255E-06-5.42213E-05 2.65134E-06-2.31992E-18-1.74082E-18
 -1       607 1.38297E-04-2.07867E-05-5.08812E-05 1.12751E-05-1.57786E-18-2.53247E-18
 -1       608 1.39259E-04-5.50426E-05-3.62650E-05-8.97532E-06-5.78305E-19-2.22574E-18
 -1       609 1.15148E-04-5.80760E-05-2.43717E-05-3.15558E-05 8.16222E-19-2.28663E-18
 -1       610 5.14130E-05-2.69128E-05-9.95768E-06-3.48845E-05 8.13681E-20 2.45184E-18
 -1       611 9.45691E-05-2.06679E-05-3.16920E-05-9.51823E-06-1.71905E-18-7.31658E-19
 -1       612 9.61120E-05-2.31694E-05-3.12646E-05 9.54251E-06 1.76608E-18-2.61240E-20
 -1       613 5.58719E-05-2.92993E-05-1.08168E-05 3.69543E-05-2.32092E-18 4.04935E-19
 -1       614 9.13713E-05-1.58141E-05-3.24050E-05-7.69901E-06-1.28697E-18-1.98459E-18
 -1       615 1.30622E-04-6.04857E-05-3.00933E-05-1.55740E-05-5.86398E-19-1.84661E-18
 -1       616 9.54555E-05-2.82286E-05-2.88105E-05-9.04877E-07-2.98958E-18 2.43493E-18
 -1       617 1.34922E-04-5.86405E-05-3.27885E-05 7.28956E-06-1.14794E-18 4.92735E-19
 -1       618 9.15534E-05-1.67132E-05-3.20800E-05 2.38446E-06 4.11279E-19-2.08162E-18
 -1       619 9.12887E-05-1.62978E-05-3.21442E-05 8.21642E-07 2.10219E-19-2.19496E-18
 -1       620 9.29109E-05-1.89160E-05-3.17177E-05 5.16561E-06 1.00942E-18-1.58342E-18
 -1       621 9.40007E-05-2.08737E-05-3.13481E-05 6.04665E-06 1.38230E-18-1.15462E-18
 -1       622 9.52797E-05-2.40514E-05-3.05161E-05 5.04984E-06 1.32907E-18-9.47159E-19
 -1       623 9.53570E-05-2.58714E-05-2.97756E-05 2.45379E-06 1.17360E-18-8.47688E-19
 -1       624 1.05955E-04-5.29994E-05-2.25180E-05-3.14667E-05 1.12984E-18-1.58826E-18
 -1       625 1.12087E-04-5.52123E-05-2.42683E-05 2.77089E-05-2.20868E-18 1.61710E-18
 -1       626 9.54381E-05-2.56163E-05-2.99226E-05-2.26024E-06-1.02254E-18-1.12903E-18
 -1       627 9.55033E-05-2.68053E-05-2.94414E-05-6.00508E-07-7.49282E-19-1.09390E-18
 -1       628 9.54611E-05-2.75096E-05-2.91218E-05 5.26071E-07-5.97907E-19-1.13231E-18
 -1       629 9.54005E-05-2.79091E-05-2.89248E-05 1.28332E-06-6.50103E-19-1.36694E-18
 -1       630 9.53558E-05-2.81094E-05-2.88198E-05 1.81124E-06-4.84799E-19-1.23215E-18
 -1       631 9.53356E-05-2.81726E-05-2.87841E-05 2.21845E-06-3.76868E-19-1.06280E-18
 -1       632 9.53396E-05-2.81372E-05-2.88009E-05 2.58849E-06-2.07106E-19-3.92422E-19
 -1       633 9.53655E-05-2.80304E-05-2.88577E-05 2.98474E-06-1.56424E-19-2.84658E-19
 -1       634 9.54130E-05-2.78750E-05-2.89446E-05 3.45420E-06-4.33441E-19 3.65303E-20
 -1       635 9.54855E-05-2.76952E-05-2.90526E-05 4.02948E-06-1.35610E-19 1.92805E-22
 -1       636 9.55938E-05-2.75231E-05-2.91727E-05 4.72890E-06-2.65554E-20 9.11214E-20
 -1       637 9.57615E-05-2.74070E-05-2.92943E-05 5.55444E-06-9.47251E-22-1.50740E-19
 -1       638 9.60343E-05-2.74223E-05-2.94046E-05 6.48730E-06-1.49758E-19-4.31317E-19
 -1       639 9.64951E-05-2.76858E-05-2.94892E-05 7.48045E-06-1.02944E-19-6.30474E-19
 -1       640 9.72846E-05-2.83701E-05-2.95346E-05 8.44619E-06 8.22603E-21-3.47348E-19
 -1       641 9.86258E-05-2.97111E-05-2.95355E-05 9.23478E-06-2.54972E-19-4.02176E-19
 -1       642 1.00836E-04-3.19853E-05-2.95095E-05 9.59617E-06-5.46738E-19-1.64480E-19
 -1       643 1.04292E-04-3.54084E-05-2.95254E-05 9.11942E-06 3.23535E-19 3.51722E-19
 -1       644 1.09264E-04-3.98757E-05-2.97461E-05 7.14048E-06 8.94995E-19 5.88858E-19
 -1       645 1.15527E-04-4.45729E-05-3.04145E-05 2.84480E-06 7.96902E-19 5.21370E-19
 -1       646 1.21040E-04-4.61063E-05-3.21664E-05-4.18689E-06 5.16690E-19 9.53890E-20
 -1       647 1.24301E-04-4.25295E-05-3.51326E-05-1.22370E-05 1.69827E-19 1.12616E-19
 -1       648 1.20779E-04-3.02771E-05-3.90087E-05-1.53698E-05-3.34009E-19 1.84190E-19
 -1       649 1.15496E-04-1.74522E-05-4.23373E-05-8.46917E-06-1.07240E-18-5.14063E-19
 -1       650 1.14699E-04-1.57220E-05-4.27354E-05 5.52481E-06-5.73150E-19-2.05876E-18
 -1       651 1.19440E-04-2.68935E-05-3.99262E-05 1.48764E-05-9.66491E-19-2.41175E-18
 -1       652 1.23715E-04-4.02669E-05-3.58556E-05 1.32653E-05-7.02422E-19-1.99172E-18
 -1       653 1.22424E-04-4.62915E-05-3.26663E-05 5.85537E-06-1.50271E-18-8.57259E-19
 -1       654 1.16904E-04-4.52073E-05-3.07394E-05-1.53739E-06-5.00710E-19 3.65029E-19
 -1       655 1.10581E-04-4.09238E-05-2.98563E-05-6.38457E-06 6.18709E-19-3.96923E-19
 -1       656 1.05283E-04-3.63001E-05-2.95654E-05-8.75761E-06 1.37637E-18 4.75087E-19
 -1       657 1.01506E-04-3.26021E-05-2.95317E-05-9.46865E-06 1.40026E-20 1.34873E-19
 -1       658 9.90508E-05-3.00654E-05-2.95657E-05-9.21077E-06-3.91820E-19 7.32941E-19
 -1       659 9.75489E-05-2.85194E-05-2.95840E-05-8.43828E-06 6.17262E-19 1.62557E-19
 -1       660 9.66622E-05-2.76874E-05-2.95602E-05-7.42993E-06 1.13335E-18 8.24427E-19
 -1       661 9.61465E-05-2.73207E-05-2.94962E-05-6.35222E-06 3.56344E-19 9.98767E-19
 -1       662 9.58440E-05-2.72329E-05-2.94042E-05-5.30353E-06 1.12172E-18 2.29024E-19
 -1       663 9.56596E-05-2.72964E-05-2.92980E-05-4.33890E-06 9.25251E-19-8.39682E-20
 -1       664 9.55387E-05-2.74292E-05-2.91893E-05-3.48472E-06 5.65519E-19 1.70874E-18
 -1       665 9.54502E-05-2.75803E-05-2.90867E-05-2.74717E-06 9.83905E-19 1.67947E-18
 -1       666 9.53767E-05-2.77188E-05-2.89957E-05-2.12542E-06-7.84707E-19-1.66067E-19
 -1       667 9.53066E-05-2.78280E-05-2.89185E-05-1.60607E-06-1.16090E-18-2.18650E-18
 -1       668 9.50911E-05-2.79288E-05-2.87835E-05-1.23019E-06 4.05682E-19-4.91111E-19
 -1       669 3.76939E-05-1.10301E-05-1.08947E-05-1.19221E-06-1.49963E-18 6.93720E-19
 -1       670 9.51633E-05-2.75715E-05-2.89672E-05-4.68102E-07 6.86570E-19-4.72341E-19
 -1       671 9.51291E-05-2.82085E-05-2.86800E-05-2.12771E-06 1.75627E-19-2.42978E-19
 -1       672 9.52273E-05-2.82180E-05-2.87180E-05-2.46575E-06 7.01810E-19-5.27109E-19
 -1       673 9.53700E-05-2.81740E-05-2.87980E-05-2.82334E-06 8.93811E-19-3.70007E-19
 -1       674 9.55559E-05-2.80957E-05-2.89111E-05-3.24783E-06 7.26954E-19-3.44196E-19
 -1       675 9.57889E-05-2.80031E-05-2.90505E-05-3.77173E-06 4.85912E-19 4.28384E-19
 -1       676 9.60802E-05-2.79232E-05-2.92095E-05-4.41248E-06 1.06608E-19 7.53787E-19
 -1       677 9.64515E-05-2.78958E-05-2.93803E-05-5.16973E-06-1.33294E-19 8.56112E-19
 -1       678 9.69417E-05-2.79827E-05-2.95531E-05-6.01952E-06 2.57044E-20 7.66623E-19
 -1       679 9.76167E-05-2.82787E-05-2.97157E-05-6.90477E-06-4.82054E-19 1.77322E-18
 -1       680 9.85842E-05-2.89222E-05-2.98550E-05-7.72151E-06-1.55648E-19 2.05364E-18
 -1       681 1.00009E-04-3.00997E-05-2.99621E-05-8.29952E-06 1.73424E-20 1.83598E-18
 -1       682 1.02120E-04-3.20252E-05-3.00433E-05-8.37366E-06 2.46426E-19 1.02938E-18
 -1       683 1.05167E-04-3.48494E-05-3.01410E-05-7.54879E-06 1.11725E-19 7.19225E-19
 -1       684 1.09267E-04-3.84385E-05-3.03622E-05-5.30066E-06-6.36473E-19 1.32694E-18
 -1       685 1.14107E-04-4.20010E-05-3.09071E-05-1.08801E-06-1.02994E-18 8.04847E-19
 -1       686 1.18386E-04-4.35977E-05-3.20689E-05 5.08378E-06-1.42003E-18 5.81898E-19
 -1       687 1.20005E-04-4.05701E-05-3.40922E-05 1.17092E-05 2.39568E-20 6.85749E-19
 -1       688 1.17387E-04-3.17521E-05-3.67911E-05 1.47343E-05 3.61392E-19 7.53509E-19
 -1       689 1.12003E-04-2.10764E-05-3.92055E-05 9.68836E-06 1.35660E-18 1.12859E-18
 -1       690 1.10545E-04-1.78964E-05-3.99100E-05-2.33580E-06 1.00923E-18 1.95628E-19
 -1       691 1.13787E-04-2.46541E-05-3.83843E-05-1.26371E-05 2.19531E-18-1.34416E-18
 -1       692 1.18711E-04-3.55422E-05-3.56917E-05-1.43217E-05 2.84308E-18-1.32599E-18
 -1       693 1.19990E-04-4.24340E-05-3.32733E-05-9.53777E-06 1.09914E-18-1.03603E-18
 -1       694 1.17040E-04-4.34045E-05-3.15750E-05-2.71338E-06-9.77081E-19-3.06702E-20
 -1       695 1.12328E-04-4.07784E-05-3.06680E-05 2.81150E-06-1.84982E-18-6.32599E-19
 -1       696 1.07688E-04-3.70567E-05-3.02745E-05 6.24342E-06-8.36327E-19-1.11499E-19
 -1       697 1.03970E-04-3.36886E-05-3.01235E-05 7.88295E-06 1.04374E-18-4.47693E-19
 -1       698 1.01296E-04-3.11854E-05-3.00492E-05 8.29027E-06-7.00549E-19-7.63925E-19
 -1       699 9.94740E-05-2.95408E-05-2.99718E-05 7.94647E-06 3.66517E-19-1.71792E-19
 -1       700 9.82525E-05-2.85655E-05-2.98655E-05 7.19396E-06-4.14922E-19 1.37946E-18
 -1       701 9.74257E-05-2.80508E-05-2.97314E-05 6.25917E-06-1.18721E-19 9.84081E-19
 -1       702 9.68504E-05-2.78265E-05-2.95808E-05 5.28467E-06-4.55419E-19 4.09201E-19
 -1       703 9.64349E-05-2.77712E-05-2.94264E-05 4.35477E-06 1.05625E-18 1.29580E-18
 -1       704 9.61232E-05-2.78040E-05-2.92788E-05 3.51382E-06 9.33699E-19 1.81052E-19
 -1       705 9.58812E-05-2.78739E-05-2.91453E-05 2.77938E-06-8.46724E-19-9.16731E-19
 -1       706 9.56865E-05-2.79487E-05-2.90299E-05 2.15212E-06-6.33042E-19-9.97129E-19
 -1       707 9.55244E-05-2.80096E-05-2.89341E-05 1.62248E-06-2.41758E-19-2.02204E-18
 -1       708 9.53494E-05-2.79695E-05-2.88765E-05 1.30295E-06-3.19481E-19-1.49357E-18
 -1       709 9.39435E-05-2.65101E-05-2.89003E-05 2.56756E-07 7.86434E-20-8.37903E-19
 -1       710 9.52631E-05-2.78912E-05-2.88734E-05-1.29748E-06-1.38836E-18-2.27446E-18
 -1       711 9.43405E-05-2.69084E-05-2.88996E-05 1.12762E-06 1.24469E-18-3.71676E-18
 -1       712 1.27925E-04-2.91786E-05-4.27000E-05 1.50017E-05-2.74915E-19-3.66024E-19
 -1       713 9.39441E-05-2.65105E-05-2.89003E-05-2.62240E-07 3.05318E-19-8.98308E-19
 -1       714 9.40811E-05-2.66478E-05-2.89001E-05 7.41456E-07-5.29336E-19-8.41799E-19
 -1       715 9.40791E-05-2.66453E-05-2.89004E-05-7.39168E-07-9.58209E-19 2.16501E-18
 -1       716 9.43384E-05-2.69053E-05-2.89001E-05-1.12779E-06 7.65065E-19-1.17377E-18
 -1       717 9.46834E-05-2.72571E-05-2.88974E-05-1.37442E-06 1.11097E-18 2.09121E-18
 -1       718 9.52746E-05-2.69443E-05-2.92824E-05 6.96254E-07 8.58056E-19-4.73204E-19
 -1       719 1.38342E-04-5.03379E-05-3.79916E-05 4.38497E-06-8.22770E-19-2.86689E-18
 -1       720 4.71046E-05-1.66366E-05-1.26231E-05-2.08377E-05 2.76887E-19 8.07884E-19
 -1       721 8.89843E-05-4.31850E-05-1.93855E-05 3.45454E-05 1.07115E-18-6.51540E-19
 -1       722 3.65476E-05-1.13838E-05-1.02439E-05 5.46353E-06 1.67305E-18-1.06848E-18
 -1       723 9.50811E-05-2.81230E-05-2.86961E-05-1.74469E-06 1.17366E-19-2.23680E-19
 -1       724 8.47165E-05-3.96859E-05-1.90249E-05 3.39577E-05-1.27854E-18 2.22484E-18
 -1       725 7.55481E-05-3.52837E-05-1.68752E-05-3.53185E-05 1.10890E-18 5.55548E-19
 -1       726 9.50231E-05-2.35670E-05-3.06209E-05-4.60745E-06-1.18274E-18-1.07988E-18
 -1       727 9.20890E-05-1.75647E-05-3.19448E-05 3.86739E-06 7.38499E-19-1.90395E-18
 -1       728 1.31571E-04-3.74095E-05-4.06872E-05-1.42435E-05-5.87616E-19 2.53528E-18
 -1       729 1.35418E-04-4.35752E-05-3.97328E-05-1.04274E-05 1.99086E-18-1.33582E-18
 -1       730 9.71360E-05-4.89474E-05-2.04013E-05-3.50364E-05-2.23590E-19-6.54121E-19
 -1       731 6.55157E-05-3.05371E-05-1.45770E-05-3.48177E-05-6.86679E-19-3.50944E-18
 -1       732 9.20348E-05-1.74908E-05-3.19540E-05-3.80965E-06-6.84698E-19-1.69529E-18
 -1       733 1.33010E-04-5.26447E-05-3.45706E-05 2.47594E-06-4.94449E-19 3.14593E-20
 -1       734 4.07232E-05-1.45718E-05-1.06784E-05-1.74631E-05 8.73794E-19-2.78901E-18
 -1       735 1.23819E-04-1.46910E-05-4.72856E-05 9.65459E-06-1.13545E-18-1.19193E-18
 -1       736 1.23125E-04-5.81306E-05-2.77925E-05-1.89267E-05-5.08273E-19 5.50968E-20
 -1       737 1.33537E-04-5.32215E-05-3.46164E-05-1.31721E-06 1.29669E-18 2.28360E-18
 -1       738 1.21562E-04-1.09556E-05-4.79480E-05-3.07930E-06-2.11292E-18 5.22738E-19
 -1       739 1.28761E-04-2.60684E-05-4.44164E-05-1.50519E-05 2.70098E-18-2.25332E-18
 -1       740 1.26168E-04-2.06570E-05-4.57310E-05-1.33095E-05-1.44546E-18 1.20040E-18
 -1       741 1.16047E-04-5.55291E-05-2.58899E-05 2.36025E-05 1.24078E-18 9.81824E-19
 -1       742 4.75086E-05-1.73162E-05-1.24490E-05 2.18595E-05-1.01827E-18-1.11710E-18
 -1       743 1.33221E-04-3.40150E-05-4.29056E-05 1.46803E-05-1.03894E-18-2.34805E-18
 -1       744 5.29409E-05-2.18197E-05-1.28369E-05 2.78457E-05 1.76363E-18-1.65140E-18
 -1       745 1.19744E-04-1.32238E-05-4.61598E-05-6.87091E-06 2.86281E-18-8.80749E-19
 -1       746 9.28228E-05-1.87931E-05-3.17351E-05-5.13569E-06-1.11277E-18-1.67766E-18
 -1       747 9.12777E-05-1.62846E-05-3.21457E-05-7.58336E-07-1.23431E-19-2.11774E-18
 -1       748 7.06151E-05-2.72108E-05-1.83609E-05 2.75890E-05-5.83652E-19 1.01088E-18
 -1       749 9.46912E-05-2.72638E-05-2.88978E-05 1.36126E-06 1.17780E-18-1.66527E-18
 -1       750 9.41822E-05-2.12467E-05-3.12609E-05-6.06110E-06-1.36213E-18-1.42846E-18
 -1       751 9.50269E-05-2.76139E-05-2.88913E-05 1.39981E-06-9.11098E-19-1.32054E-18
 -1       752 1.25840E-04-5.51415E-05-3.02805E-05 7.33373E-06 7.29917E-19 1.83334E-18
 -1       753 1.17368E-04-1.37815E-05-4.48370E-05 4.66431E-06 1.42725E-18 9.45917E-19
 -1       754 7.43899E-05-3.05658E-05-1.85207E-05 2.95844E-05 1.48122E-18-1.88863E-18
 -1       755 1.23250E-04-1.64345E-05-4.62922E-05 1.08980E-05-3.20284E-20 1.39880E-19
 -1       756 9.15212E-05-1.66714E-05-3.20850E-05-2.31550E-06-3.52303E-19-1.81666E-18
 -1       757 1.23954E-04-5.54592E-05-2.93802E-05 1.12049E-05-1.36005E-18 2.89636E-18
 -1       758 9.46374E-05-2.26112E-05-3.08677E-05 3.76971E-06 9.91875E-19-1.17097E-18
 -1       759 9.31512E-05-1.95555E-05-3.15420E-05 1.17983E-06 2.63550E-19-2.02394E-18
 -1       760 9.49057E-05-2.32830E-05-3.06934E-05-3.35306E-06-1.13567E-18-1.30042E-18
 -1       761 9.58343E-05-2.66231E-05-2.96618E-05-2.39115E-07-7.11413E-19-1.19444E-18
 -1       762 9.58887E-05-2.74031E-05-2.93510E-05 7.07522E-07-6.70084E-19-9.57552E-19
 -1       763 9.58275E-05-2.78287E-05-2.91424E-05 1.38357E-06-6.12025E-19-9.21051E-19
 -1       764 9.56986E-05-2.80008E-05-2.90134E-05 1.88797E-06-3.08359E-19-9.67657E-19
 -1       765 9.55260E-05-2.79867E-05-2.89454E-05 2.30828E-06 2.55879E-19-8.93843E-19
 -1       766 9.53202E-05-2.78333E-05-2.89229E-05 2.71516E-06-1.04347E-19-2.51187E-19
 -1       767 9.50843E-05-2.75754E-05-2.89324E-05 3.16391E-06-9.02251E-20-2.56806E-19
 -1       768 9.48197E-05-2.72441E-05-2.89609E-05 3.69656E-06-2.51988E-19 1.02739E-19
 -1       769 9.45297E-05-2.68733E-05-2.89955E-05 4.34368E-06-1.49106E-19-2.44244E-19
 -1       770 9.42263E-05-2.65087E-05-2.90217E-05 5.12563E-06-3.88950E-19-4.39533E-19
 -1       771 9.39392E-05-2.62187E-05-2.90229E-05 6.05327E-06-3.42805E-19-3.07599E-19
 -1       772 9.37304E-05-2.61089E-05-2.89803E-05 7.12844E-06-3.77320E-19-6.24200E-19
 -1       773 9.37160E-05-2.63406E-05-2.88748E-05 8.34336E-06-1.26670E-19-5.71056E-19
 -1       774 9.40999E-05-2.71520E-05-2.86918E-05 9.67467E-06 4.45227E-20-1.00668E-18
 -1       775 9.52164E-05-2.88746E-05-2.84326E-05 1.10623E-05 2.65965E-19 1.56486E-19
 -1       776 9.75797E-05-3.19246E-05-2.81374E-05 1.23417E-05 3.73341E-19 9.27499E-19
 -1       777 1.01854E-04-3.66701E-05-2.79308E-05 1.31123E-05 6.74114E-19 1.28853E-18
 -1       778 1.08709E-04-4.31372E-05-2.80692E-05 1.24186E-05 9.62899E-19 8.56762E-19
 -1       779 1.29802E-04-5.12194E-05-3.38060E-05 4.64424E-06-1.18326E-18-2.24450E-18
 -1       780 1.20932E-04-5.09410E-05-2.99961E-05-5.97760E-06-6.51047E-19-2.31138E-18
 -1       781 1.11157E-04-4.47040E-05-2.84528E-05-1.11761E-05 3.67771E-19-1.83568E-18
 -1       782 1.03684E-04-3.81212E-05-2.80905E-05-1.26263E-05 1.43180E-18-5.72796E-19
 -1       783 9.87963E-05-3.29513E-05-2.82198E-05-1.22338E-05 7.23775E-19-2.35882E-19
 -1       784 9.59956E-05-2.95217E-05-2.84888E-05-1.11156E-05 5.47332E-19 6.40383E-19
 -1       785 9.45698E-05-2.74919E-05-2.87473E-05-9.75637E-06-3.48963E-19 2.46189E-19
 -1       786 9.39762E-05-2.64512E-05-2.89389E-05-8.38451E-06 9.48431E-19 2.67388E-19
 -1       787 9.38449E-05-2.60504E-05-2.90544E-05-7.08689E-06 2.72590E-19-7.83129E-19
 -1       788 9.39457E-05-2.60330E-05-2.91052E-05-5.90052E-06 2.79790E-19 3.06451E-19
 -1       789 9.41436E-05-2.62238E-05-2.91082E-05-4.84168E-06 8.81751E-19 1.65081E-18
 -1       790 9.43638E-05-2.65086E-05-2.90806E-05-3.91575E-06 3.47656E-19 6.66474E-19
 -1       791 9.45690E-05-2.68166E-05-2.90363E-05-3.12163E-06-5.12877E-19-1.09648E-18
 -1       792 9.47295E-05-2.70986E-05-2.89848E-05-2.44635E-06-3.59427E-19-2.11663E-18
 -1       793 9.48570E-05-2.73393E-05-2.89360E-05-1.88233E-06-1.13581E-18-4.73474E-19
 -1       794 9.53706E-05-2.79922E-05-2.88764E-05-2.69169E-06 4.30858E-19-1.28564E-19
 -1       795 9.54772E-05-2.80889E-05-2.88806E-05-2.29695E-06 4.97124E-19-4.13124E-19
 -1       796 9.51427E-05-2.75614E-05-2.89633E-05-3.63206E-06 1.12873E-19 3.93199E-19
 -1       797 9.50273E-05-2.72856E-05-2.90320E-05-4.25246E-06 5.07656E-20-4.41609E-20
 -1       798 9.49254E-05-2.70208E-05-2.91017E-05-5.00119E-06-1.54789E-19 3.54586E-19
 -1       799 9.48666E-05-2.68284E-05-2.91590E-05-5.88255E-06-1.20089E-19 5.18989E-19
 -1       800 9.49094E-05-2.68034E-05-2.91880E-05-6.88457E-06-7.51976E-19 1.31411E-18
 -1       801 9.51603E-05-2.70900E-05-2.91726E-05-7.97367E-06-5.41232E-19 1.25503E-18
 -1       802 9.57986E-05-2.78967E-05-2.91005E-05-9.08560E-06-3.32360E-19 1.45700E-18
 -1       803 9.71098E-05-2.95071E-05-2.89727E-05-1.01058E-05 3.54100E-19 1.74272E-18
 -1       804 9.95153E-05-3.22633E-05-2.88241E-05-1.08124E-05 1.33800E-19 2.50845E-18
 -1       805 1.03532E-04-3.64350E-05-2.87598E-05-1.07539E-05-3.48068E-19 2.06251E-18
 -1       806 1.09534E-04-4.18547E-05-2.90090E-05-9.14805E-06-6.39765E-19 1.21104E-18
 -1       807 1.17324E-04-4.74034E-05-2.99664E-05-4.85308E-06-6.44402E-19 5.17526E-19
 -1       808 1.27557E-04-4.23849E-05-3.66621E-05 1.23664E-05 1.13357E-20-1.46750E-18
 -1       809 1.27855E-04-4.66540E-05-3.49731E-05-9.80331E-06 1.80081E-18-1.75273E-19
 -1       810 1.22279E-04-4.91263E-05-3.13675E-05-2.91190E-08-2.18359E-19-5.94098E-20
 -1       811 1.14398E-04-4.54657E-05-2.95145E-05 6.79279E-06-1.13146E-18 3.27604E-19
 -1       812 1.07123E-04-3.97472E-05-2.88683E-05 9.92282E-06-1.38647E-18 5.40273E-21
 -1       813 1.01853E-04-3.46931E-05-2.87800E-05 1.08186E-05-2.51552E-19-5.82360E-19
 -1       814 9.84773E-05-3.10347E-05-2.89030E-05 1.04915E-05-2.82220E-19-2.13272E-19
 -1       815 9.65180E-05-2.87092E-05-2.90604E-05 9.59055E-06-7.92550E-19 7.43181E-19
 -1       816 9.54831E-05-2.73983E-05-2.91787E-05 8.45931E-06-1.40090E-18 1.96361E-18
 -1       817 9.50026E-05-2.67776E-05-2.92388E-05 7.27305E-06-6.04003E-19 1.41925E-18
 -1       818 9.48303E-05-2.65887E-05-2.92459E-05 6.12454E-06-1.17042E-19 1.72394E-19
 -1       819 9.48144E-05-2.66477E-05-2.92139E-05 5.06400E-06 2.77099E-19-8.06192E-19
 -1       820 9.48675E-05-2.68321E-05-2.91577E-05 4.11733E-06-2.15529E-19 1.47169E-19
 -1       821 9.49395E-05-2.70616E-05-2.90902E-05 3.29298E-06 2.74597E-19 2.37109E-18
 -1       822 9.50078E-05-2.72914E-05-2.90211E-05 2.59076E-06-1.13484E-19 3.19453E-19
 -1       823 9.50571E-05-2.74908E-05-2.89568E-05 1.99919E-06 1.62072E-18-1.36554E-18
 -1       824 9.50384E-05-2.75567E-05-2.89211E-05 1.68206E-06-2.53178E-19-2.72022E-18
 -1       825 9.42468E-05-2.68058E-05-2.89035E-05-1.60356E-06 7.81151E-19 8.36261E-19
 -1       826 9.34446E-05-2.60939E-05-2.88647E-05-2.81522E-09-1.06418E-19-1.37574E-18
 -1       827 5.00085E-05-1.30680E-05-1.55586E-05-9.00641E-06-2.87406E-19-1.05948E-18
 -1       828 9.52286E-05-2.43876E-05-3.03601E-05 3.27531E-06 1.05040E-18-9.13962E-19
 -1       829 4.69869E-05-1.21651E-05-1.45990E-05-5.82376E-06 1.27441E-18-1.51082E-18
 -1       830 9.38203E-05-2.64248E-05-2.88840E-05-1.19624E-06-4.55032E-19 5.90387E-19
 -1       831 9.52587E-05-2.78071E-05-2.89077E-05-3.12206E-06 6.15895E-19 3.74738E-19
 -1       832 9.57196E-05-2.74641E-05-2.92524E-05-6.49639E-07 3.35162E-19-1.67804E-19
 -1       833 1.20864E-04-5.60907E-05-2.77348E-05-1.73714E-05 7.20375E-20-1.72256E-18
 -1       834 1.08440E-04-4.97386E-05-2.50930E-05-2.32203E-05 3.97953E-19 4.07747E-19
 -1       835 9.55676E-05-2.53454E-05-3.00978E-05-1.57195E-06-8.53917E-19-1.15028E-18
 -1       836 1.03850E-04-4.63978E-05-2.45329E-05 2.39558E-05-1.67173E-19 2.69621E-18
 -1       837 1.23814E-04-5.30423E-05-3.03344E-05-6.11652E-06-7.24445E-20-1.06943E-18
 -1       838 9.64111E-05-4.34654E-05-2.25422E-05-2.84185E-05 4.95640E-19-7.36125E-20
 -1       839 6.84689E-05-2.44588E-05-1.86432E-05-2.50812E-05 3.73826E-19 3.25512E-19
 -1       840 5.16194E-05-1.51185E-05-1.53145E-05 1.49952E-05 1.05796E-18-1.23781E-18
 -1       841 6.05990E-05-2.07949E-05-1.67890E-05-2.33549E-05 4.43647E-19-2.77483E-18
 -1       842 8.70905E-05-3.78921E-05-2.08836E-05-3.00018E-05-6.57582E-19-1.60379E-18
 -1       843 9.35418E-05-2.61790E-05-2.88698E-05-6.39259E-07-3.69137E-19 5.59351E-20
 -1       844 5.15358E-05-1.32898E-05-1.61176E-05 8.93008E-06-1.08326E-18-1.45928E-19
 -1       845 9.40428E-05-2.12214E-05-3.12103E-05-4.33122E-06-1.08655E-18-1.64252E-18
 -1       846 1.03472E-04-4.64661E-05-2.43985E-05 2.41838E-05 7.64169E-19 4.72972E-19
 -1       847 1.24576E-04-4.82885E-05-3.27518E-05 4.66692E-06-2.07138E-19-1.14347E-18
 -1       848 9.30364E-05-1.93482E-05-3.15811E-05 2.00149E-08-3.00719E-20-1.76269E-18
 -1       849 9.40239E-05-2.12033E-05-3.12084E-05 3.18349E-06 8.62899E-19-1.54224E-18
 -1       850 9.00668E-05-3.63392E-05-2.29337E-05 2.50119E-05 5.33449E-19 2.48971E-18
 -1       851 9.42581E-05-2.68142E-05-2.89043E-05 1.60289E-06-7.72137E-19-2.34083E-18
 -1       852 9.57006E-05-2.67170E-05-2.95647E-05 3.77367E-07 6.50692E-19-4.80508E-19
 -1       853 9.56642E-05-2.78791E-05-2.90508E-05-1.36232E-06 1.25379E-19-2.29576E-19
 -1       854 9.07098E-05-3.66651E-05-2.30356E-05 2.46880E-05 9.87539E-19-1.93570E-19
 -1       855 9.55771E-05-2.80656E-05-2.89335E-05-1.87920E-06 2.35603E-19-3.56851E-19
 -1       856 6.58479E-05-1.96941E-05-1.96529E-05 1.78822E-05 3.29449E-20 9.48042E-19
 -1       857 9.38226E-05-2.64279E-05-2.88834E-05 1.19661E-06-4.85548E-19-3.22461E-18
 -1       858 9.55261E-05-2.57535E-05-2.99021E-05 1.61115E-06 7.61947E-19-6.67339E-19
 -1       859 9.33122E-05-1.98282E-05-3.14952E-05-3.43818E-06-8.69887E-19-1.29431E-18
 -1       860 9.35417E-05-2.61797E-05-2.88696E-05 6.37947E-07-5.38933E-20-2.23557E-19
 -1       861 6.69579E-05-2.19228E-05-1.91349E-05 2.11524E-05 1.27278E-18-1.97303E-18
 -1       862 9.27948E-05-1.88981E-05-3.16723E-05-2.29851E-06-4.03540E-19-1.56626E-18
 -1       863 9.34845E-05-2.01680E-05-3.14222E-05 2.25877E-06 5.38620E-19-1.71583E-18
 -1       864 7.74307E-05-2.75862E-05-2.12535E-05-2.34727E-05 3.56139E-19-2.35509E-18
 -1       865 9.61093E-05-2.73258E-05-2.94787E-05 8.30094E-07-4.08614E-19-8.98427E-19
 -1       866 9.59966E-05-2.77085E-05-2.92664E-05 1.38051E-06-3.55802E-19-6.13967E-19
 -1       867 9.57546E-05-2.78034E-05-2.91220E-05 1.81800E-06-9.22407E-20-4.69969E-19
 -1       868 9.54130E-05-2.76786E-05-2.90290E-05 2.20864E-06 4.39231E-19-7.62815E-19
 -1       869 9.49858E-05-2.73844E-05-2.89720E-05 2.60777E-06 1.44780E-19-5.23137E-19
 -1       870 9.44774E-05-2.69608E-05-2.89357E-05 3.06020E-06 1.07370E-20-9.93093E-20
 -1       871 9.38880E-05-2.64447E-05-2.89042E-05 3.60150E-06-4.83562E-19-1.15502E-19
 -1       872 9.32180E-05-2.58773E-05-2.88603E-05 4.26120E-06-3.63646E-19-6.08520E-19
 -1       873 9.24764E-05-2.53138E-05-2.87839E-05 5.06610E-06-2.55581E-19-3.80676E-19
 -1       874 9.16902E-05-2.48352E-05-2.86520E-05 6.04516E-06-3.17172E-19 7.90148E-20
 -1       875 9.09189E-05-2.45623E-05-2.84384E-05 7.23809E-06-1.23181E-19 3.76246E-19
 -1       876 9.02812E-05-2.46782E-05-2.81153E-05 8.70574E-06-3.12549E-19 4.58002E-19
 -1       877 8.99938E-05-2.54550E-05-2.76596E-05 1.05360E-05 8.90395E-19 3.55766E-19
 -1       878 9.04329E-05-2.72879E-05-2.70643E-05 1.28386E-05 1.00076E-18 1.00180E-18
 -1       879 9.22849E-05-3.07788E-05-2.63581E-05 1.56801E-05 6.50733E-19 1.39734E-18
 -1       880 9.66258E-05-3.65670E-05-2.56908E-05 1.88842E-05 9.29318E-19 6.77084E-19
 -1       881 9.36260E-05-2.62273E-05-2.88845E-05-1.76531E-06-1.03456E-18 1.44518E-18
 -1       882 9.88378E-05-3.86214E-05-2.58197E-05-1.88153E-05 1.38447E-18-1.96101E-19
 -1       883 9.37471E-05-3.21539E-05-2.63916E-05-1.59829E-05 1.76616E-18-1.94143E-19
 -1       884 9.11638E-05-2.80778E-05-2.70393E-05-1.32964E-05 9.14554E-19-8.47220E-19
 -1       885 9.03384E-05-2.58396E-05-2.76418E-05-1.08938E-05-1.96889E-20 4.87843E-19
 -1       886 9.03695E-05-2.47681E-05-2.81147E-05-8.95198E-06 4.31265E-19 1.89793E-18
 -1       887 9.08367E-05-2.44409E-05-2.84551E-05-7.36325E-06-1.58233E-19 1.71313E-18
 -1       888 9.14818E-05-2.45564E-05-2.86822E-05-6.04427E-06-1.35531E-20 1.40144E-18
 -1       889 9.21613E-05-2.49126E-05-2.88208E-05-4.93447E-06 1.15568E-18 9.07407E-19
 -1       890 9.27994E-05-2.53769E-05-2.88953E-05-3.99546E-06 7.43855E-19 2.53939E-19
 -1       891 9.33594E-05-2.58644E-05-2.89263E-05-3.20216E-06-7.89095E-20 5.10429E-19
 -1       892 9.38274E-05-2.63249E-05-2.89299E-05-2.53208E-06-1.46447E-18 1.38640E-18
 -1       893 1.04967E-04-4.20551E-05-2.69447E-05 1.61488E-05-9.22956E-19 1.04512E-18
 -1       894 9.38659E-05-2.63645E-05-2.89291E-05-4.36585E-06-1.35618E-19 1.67248E-19
 -1       895 9.43523E-05-2.68325E-05-2.89370E-05-3.70182E-06 3.85509E-19 3.39026E-19
 -1       896 9.28128E-05-2.55424E-05-2.88300E-05-6.13563E-06-6.01533E-19 6.94178E-19
 -1       897 9.23487E-05-2.53882E-05-2.86971E-05-7.28089E-06-6.87853E-19 8.92042E-20
 -1       898 9.20803E-05-2.56265E-05-2.84795E-05-8.62769E-06-7.77870E-19-2.76659E-19
 -1       899 9.22267E-05-2.65121E-05-2.81620E-05-1.01999E-05-4.73476E-19-1.46609E-19
 -1       900 9.31640E-05-2.84152E-05-2.77474E-05-1.20183E-05-5.67068E-19 7.20125E-19
 -1       901 9.54901E-05-3.18272E-05-2.72850E-05-1.39953E-05 2.36526E-19 1.10925E-18
 -1       902 1.00208E-04-3.73611E-05-2.69385E-05-1.56431E-05 2.84554E-19 5.88160E-19
 -1       903 1.08214E-04-4.50507E-05-2.70308E-05-1.60193E-05 2.75802E-19 7.58355E-20
 -1       904 1.14594E-04-4.86299E-05-2.82505E-05 1.22431E-05-4.31679E-19 2.65708E-18
 -1       905 9.80470E-05-3.49843E-05-2.70213E-05 1.51286E-05-9.91992E-20-6.40297E-19
 -1       906 9.43740E-05-3.02918E-05-2.74629E-05 1.31738E-05-9.21730E-19 6.12847E-19
 -1       907 9.26170E-05-2.74457E-05-2.79318E-05 1.11921E-05-1.43673E-18 1.10246E-18
 -1       908 9.20036E-05-2.59199E-05-2.83226E-05 9.40858E-06-1.91223E-18 5.24976E-19
 -1       909 9.20177E-05-2.52639E-05-2.86095E-05 7.85735E-06 1.12909E-20-2.91566E-19
 -1       910 9.23427E-05-2.51467E-05-2.87988E-05 6.51561E-06-7.06009E-19-1.55111E-18
 -1       911 9.27923E-05-2.53388E-05-2.89090E-05 5.35608E-06-3.43816E-19-3.39411E-19
 -1       912 9.32609E-05-2.56858E-05-2.89609E-05 4.35699E-06-3.76829E-19 3.39078E-19
 -1       913 9.36966E-05-2.60921E-05-2.89736E-05 3.50686E-06 3.60470E-19-1.47657E-18
 -1       914 9.40667E-05-2.64898E-05-2.89620E-05 2.77825E-06 8.76848E-19-2.70403E-18
 -1       915 9.43782E-05-2.68509E-05-2.89399E-05 2.17913E-06 6.27206E-19-1.14846E-18
 -1       916 9.46597E-05-2.71864E-05-2.89169E-05 1.70349E-06 5.09945E-19 5.74841E-19
 -1       917 8.69546E-05-3.27501E-05-2.31732E-05-2.30159E-05 1.21381E-18-6.10731E-19
 -1       918 6.32000E-05-1.73366E-05-1.95735E-05-1.41208E-05-7.59997E-20-7.41419E-19
 -1       919 9.33417E-05-2.59081E-05-2.89000E-05-5.17058E-06-5.27766E-19 3.43059E-19
 -1       920 9.54914E-05-2.78311E-05-2.89972E-05-2.28883E-06 1.57825E-19-6.91192E-19
 -1       921 9.53555E-05-2.45280E-05-3.03557E-05 2.13132E-06 6.71305E-19-1.24085E-18
 -1       922 9.60388E-05-2.65609E-05-2.97763E-05 9.02302E-08-6.74778E-19-8.48920E-19
 -1       923 9.28244E-05-1.89658E-05-3.16542E-05-1.09050E-06-2.02419E-19-1.79512E-18
 -1       924 9.48060E-05-2.29639E-05-3.07871E-05-2.71379E-06-8.43407E-19-1.16318E-18
 -1       925 9.57246E-05-2.53107E-05-3.01771E-05-9.04188E-07-7.96429E-19-9.26891E-19
 -1       926 6.05507E-05-1.57331E-05-1.90966E-05-1.16626E-05 1.15320E-19-2.02733E-18
 -1       927 5.82328E-05-1.35334E-05-1.90206E-05-1.66693E-06 5.38218E-19-1.18318E-18
 -1       928 9.44664E-05-3.81745E-05-2.40239E-05-2.31257E-05 3.57398E-19-4.60081E-19
 -1       929 5.71479E-05-1.35375E-05-1.85351E-05 3.29370E-06 8.61009E-19-1.43367E-18
 -1       930 1.07072E-04-4.58738E-05-2.61592E-05-1.91488E-05 8.68066E-19-1.18602E-18
 -1       931 9.28763E-05-2.56212E-05-2.88239E-05-4.04252E-07-5.87211E-19-1.39557E-18
 -1       932 9.59664E-05-2.66061E-05-2.97259E-05 2.94467E-08 2.97757E-19-1.11041E-18
 -1       933 9.51680E-05-2.76033E-05-2.89562E-05-2.69732E-06 1.91873E-19 3.06396E-20
 -1       934 9.57538E-05-2.79043E-05-2.90782E-05-1.88109E-06 2.93957E-19-9.28596E-19
 -1       935 9.47876E-05-2.72587E-05-2.89410E-05-3.15541E-06 2.95280E-19 2.95190E-19
 -1       936 8.07887E-05-2.75445E-05-2.27654E-05 2.07087E-05 1.19573E-18 3.17774E-18
 -1       937 9.37058E-05-2.62992E-05-2.88887E-05 1.81249E-06 8.07063E-19-2.46825E-18
 -1       938 7.78409E-05-2.44233E-05-2.28219E-05-1.83711E-05 7.15322E-19-8.16126E-19
 -1       939 9.45887E-05-2.23111E-05-3.09754E-05 1.12221E-06 2.54749E-19-1.61409E-18
 -1       940 9.28783E-05-2.56232E-05-2.88241E-05 4.01808E-07-4.43858E-19-7.06437E-19
 -1       941 9.60320E-05-2.73748E-05-2.94247E-05-8.02378E-07 2.58657E-19-9.64163E-19
 -1       942 8.15122E-05-2.85188E-05-2.26654E-05 2.15681E-05 7.40962E-19-9.43383E-19
 -1       943 9.44124E-05-2.19367E-05-3.10613E-05 3.91558E-07 3.36653E-20-1.69318E-18
 -1       944 6.47787E-05-1.58768E-05-2.08893E-05 8.34928E-06 1.91980E-19 2.14720E-19
 -1       945 9.45591E-05-2.23085E-05-3.09631E-05-1.95092E-06-6.90308E-19-1.20796E-18
 -1       946 6.51390E-05-1.68794E-05-2.06421E-05 1.12217E-05 1.16574E-18-1.25017E-18
 -1       947 9.31286E-05-2.58257E-05-2.88440E-05-1.15579E-06-1.70617E-18 9.63482E-19
 -1       948 9.10735E-05-3.24277E-05-2.51105E-05 1.87756E-05 5.00346E-19 1.62076E-18
 -1       949 9.59697E-05-2.75667E-05-2.93156E-05 1.23070E-06-2.23653E-19-4.45602E-19
 -1       950 9.55899E-05-2.75451E-05-2.91621E-05 1.57066E-06 1.97066E-19-3.35271E-19
 -1       951 9.50681E-05-2.72854E-05-2.90498E-05 1.89379E-06 3.83758E-19-3.61207E-19
 -1       952 9.44167E-05-2.68380E-05-2.89623E-05 2.23988E-06 4.20463E-19-4.69467E-20
 -1       953 9.36378E-05-2.62458E-05-2.88823E-05 2.64219E-06-5.38443E-19-3.82271E-19
 -1       954 9.27251E-05-2.55469E-05-2.87908E-05 3.12916E-06-6.92872E-19-3.86834E-19
 -1       955 9.16714E-05-2.47851E-05-2.86657E-05 3.73030E-06-3.01700E-20-5.35603E-19
 -1       956 9.04727E-05-2.40172E-05-2.84811E-05 4.47953E-06 1.64921E-19-1.74499E-19
 -1       957 8.91336E-05-2.33205E-05-2.82058E-05 5.42601E-06-2.26422E-19 2.48673E-20
 -1       958 8.76753E-05-2.28033E-05-2.78024E-05 6.65287E-06-2.06369E-19-3.30324E-19
 -1       959 8.61570E-05-2.26293E-05-2.72261E-05 8.29917E-06 5.04253E-19 6.86686E-20
 -1       960 8.47074E-05-2.30436E-05-2.64290E-05 1.05918E-05 1.09198E-18-2.06866E-19
 -1       961 8.35945E-05-2.44139E-05-2.53691E-05 1.38113E-05 1.02815E-18-1.01331E-18
 -1       962 9.61792E-05-2.72848E-05-2.95262E-05 8.27349E-07-2.48332E-19-4.81092E-19
 -1       963 9.56512E-05-2.53204E-05-3.01428E-05 1.17731E-06 4.43957E-19-1.46791E-18
 -1       964 9.59446E-05-2.77775E-05-2.92147E-05-1.41193E-06 1.22939E-19-8.83913E-19
 -1       965 8.39506E-05-2.50907E-05-2.52149E-05-1.47393E-05 1.16304E-18-1.51005E-18
 -1       966 8.47764E-05-2.33868E-05-2.63114E-05-1.12949E-05 1.72673E-18-1.47515E-18
 -1       967 8.59922E-05-2.26462E-05-2.71486E-05-8.77117E-06 4.92632E-19-3.26340E-19
 -1       968 8.73694E-05-2.26031E-05-2.77568E-05-6.94763E-06-7.06863E-19-9.62679E-19
 -1       969 8.87174E-05-2.29538E-05-2.81843E-05-5.57458E-06 7.48685E-19-5.09093E-19
 -1       970 8.99580E-05-2.35198E-05-2.84735E-05-4.49717E-06-3.72618E-19 1.01405E-18
 -1       971 9.10541E-05-2.41794E-05-2.86605E-05-3.62684E-06 9.68574E-19 4.21736E-19
 -1       972 9.19953E-05-2.48537E-05-2.87750E-05-2.91127E-06-3.53569E-19-2.76147E-19
 -1       973 9.27690E-05-2.54786E-05-2.88387E-05-2.31295E-06-4.51031E-20 1.29429E-18
 -1       974 8.85741E-05-2.78007E-05-2.60438E-05 1.48831E-05-1.46546E-18 1.47269E-18
 -1       975 8.92945E-05-2.37309E-05-2.80993E-05-7.09174E-06-4.03213E-19-9.44635E-19
 -1       976 9.03831E-05-2.40849E-05-2.84136E-05-5.84283E-06-1.37940E-19-1.67344E-19
 -1       977 8.74974E-05-2.44908E-05-2.70060E-05-1.08755E-05-6.06438E-19-1.05233E-18
 -1       978 8.73070E-05-2.62339E-05-2.61752E-05-1.37836E-05-5.45257E-19-1.49722E-18
 -1       979 8.85608E-05-2.97013E-05-2.52125E-05-1.76164E-05-1.03094E-20-1.23522E-18
 -1       980 6.43585E-05-1.49338E-05-2.11402E-05-3.09976E-06 9.22166E-20-6.39940E-19
 -1       981 7.38190E-05-2.09365E-05-2.26347E-05-1.49975E-05-6.35879E-20-2.99162E-18
 -1       982 8.80126E-05-2.52677E-05-2.68913E-05 1.17670E-05-8.88592E-19 5.02562E-19
 -1       983 8.83467E-05-2.40546E-05-2.75544E-05 9.40001E-06-3.92374E-19-1.42738E-18
 -1       984 8.91098E-05-2.36704E-05-2.80454E-05 7.58380E-06 9.71115E-20-2.86743E-18
 -1       985 9.00282E-05-2.37838E-05-2.83902E-05 6.15350E-06 2.87171E-19-2.41037E-18
 -1       986 9.09565E-05-2.41775E-05-2.86193E-05 4.99599E-06-8.76675E-19-2.14730E-18
 -1       987 9.18185E-05-2.47066E-05-2.87619E-05 4.04203E-06-1.48704E-19-2.53216E-18
 -1       988 9.25661E-05-2.52678E-05-2.88422E-05 3.24192E-06 5.90649E-19-3.18120E-18
 -1       989 9.32157E-05-2.58191E-05-2.88828E-05 2.58135E-06 7.96310E-19-2.01950E-18
 -1       990 9.48800E-05-2.30044E-05-3.08018E-05 1.72895E-06 5.98355E-19-1.29351E-18
 -1       991 9.61712E-05-2.66149E-05-2.98097E-05 3.12292E-07-4.86366E-19-3.79240E-19
 -1       992 9.44680E-05-2.20788E-05-3.10242E-05-1.17601E-06-3.71524E-19-1.26225E-18
 -1       993 9.58655E-05-2.54443E-05-3.01806E-05-3.81293E-07-5.23138E-19-6.71120E-19
 -1       994 9.32771E-05-2.59696E-05-2.88461E-05-3.41400E-06 8.64166E-20-2.89658E-19
 -1       995 6.63812E-05-1.58839E-05-2.15878E-05-6.94971E-06 1.08191E-19-8.01065E-19
 -1       996 8.82762E-05-2.37877E-05-2.76409E-05-8.72917E-06-6.14347E-19-1.08147E-18
 -1       997 9.31408E-05-2.58340E-05-2.88457E-05 1.16402E-06 1.33774E-18-9.34568E-19
 -1       998 9.53223E-05-2.39681E-05-3.05829E-05-8.32830E-07-5.64194E-19-7.85572E-19
 -1       999 7.56034E-05-2.18233E-05-2.30197E-05 1.52415E-05 9.34390E-19-2.21745E-18
 -1      1000 8.35011E-05-2.74897E-05-2.39485E-05 1.84620E-05 1.02952E-18-5.48346E-19
 -1      1001 9.57141E-05-2.50246E-05-3.02965E-05 7.02723E-07 2.50922E-19-1.11032E-18
 -1      1002 9.56793E-05-2.76682E-05-2.91475E-05-1.71694E-06-7.26781E-20-1.27091E-18
 -1      1003 9.40377E-05-2.65797E-05-2.89106E-05-2.88889E-06 3.11091E-19-6.85791E-19
 -1      1004 9.14363E-05-2.46505E-05-2.86226E-05-4.85402E-06-8.99324E-19-4.78852E-19
 -1      1005 6.80230E-05-1.59390E-05-2.22966E-05 4.18225E-06 2.06111E-19-1.01304E-18
 -1      1006 9.22707E-05-2.51232E-05-2.87771E-05-9.74215E-07-6.37595E-20 5.15918E-19
 -1      1007 9.21118E-05-2.50036E-05-2.87608E-05 4.20306E-09-6.04442E-19-1.30990E-18
 -1      1008 9.24081E-05-2.53068E-05-2.87577E-05-4.05841E-06-1.68350E-19 2.15565E-19
 -1      1009 9.53942E-05-2.40280E-05-3.05868E-05 3.72048E-07 3.01588E-19-1.41047E-18
 -1      1010 7.46368E-05-2.11774E-05-2.28692E-05 1.46850E-05-1.47258E-19 2.07790E-18
 -1      1011 9.43489E-05-2.18158E-05-3.10862E-05-3.90720E-07-2.06140E-19-1.54849E-18
 -1      1012 6.82016E-05-1.56604E-05-2.24962E-05 1.63021E-06 8.38286E-19-2.10380E-19
 -1      1013 9.52403E-05-2.74701E-05-2.90443E-05-2.07656E-06-2.77207E-19-1.01118E-18
 -1      1014 9.61035E-05-2.63448E-05-2.98960E-05-1.17300E-07 1.50127E-19-1.12919E-18
 -1      1015 9.57979E-05-2.74163E-05-2.93066E-05 9.05233E-07-3.44663E-20-1.38718E-19
 -1      1016 9.52692E-05-2.72539E-05-2.91497E-05 1.12706E-06 3.05261E-19-3.10208E-20
 -1      1017 9.45725E-05-2.68513E-05-2.90235E-05 1.34918E-06 2.42783E-19-7.18228E-20
 -1      1018 9.37095E-05-2.62517E-05-2.89105E-05 1.59784E-06 3.54580E-21-5.10919E-19
 -1      1019 9.26825E-05-2.55050E-05-2.87907E-05 1.89047E-06-4.21561E-19-7.91233E-20
 -1      1020 9.14679E-05-2.46379E-05-2.86419E-05 2.25310E-06-7.89242E-19-6.33264E-19
 -1      1021 9.00507E-05-2.36988E-05-2.84371E-05 2.70747E-06 1.26879E-20-1.15895E-18
 -1      1022 8.83977E-05-2.27320E-05-2.81432E-05 3.28900E-06 1.72957E-19-1.62026E-18
 -1      1023 8.64717E-05-2.17957E-05-2.77190E-05 4.05315E-06-3.59669E-19-7.47599E-19
 -1      1024 8.42083E-05-2.09517E-05-2.71101E-05 5.10938E-06 6.07434E-19-2.22649E-19
 -1      1025 8.15241E-05-2.02890E-05-2.62424E-05 6.63396E-06 5.58979E-19-2.95035E-19
 -1      1026 7.82906E-05-1.98862E-05-2.50345E-05 8.94367E-06 1.91587E-19-1.25410E-18
 -1      1027 7.77933E-05-1.99826E-05-2.47784E-05-9.91584E-06 1.41178E-18-2.80530E-18
 -1      1028 9.61930E-05-2.71564E-05-2.95861E-05-7.22277E-07 2.60710E-19-1.36970E-18
 -1      1029 9.60004E-05-2.56159E-05-3.01616E-05 1.95722E-08 2.02542E-19-1.37333E-18
 -1      1030 9.59987E-05-2.76395E-05-2.92965E-05-1.33142E-06 2.53850E-19-1.56314E-18
 -1      1031 8.09952E-05-2.01404E-05-2.60766E-05-7.28364E-06 2.01218E-18-2.83089E-18
 -1      1032 8.36312E-05-2.06430E-05-2.69940E-05-5.53202E-06 2.81049E-19-2.07814E-18
 -1      1033 8.58432E-05-2.13405E-05-2.76438E-05-4.32041E-06 5.45529E-19 2.96552E-19
 -1      1034 8.77104E-05-2.21578E-05-2.80939E-05-3.42929E-06 9.99211E-19-4.19047E-20
 -1      1035 8.92824E-05-2.30185E-05-2.83989E-05-2.74372E-06-5.49642E-20 2.39987E-18
 -1      1036 9.05986E-05-2.38675E-05-2.85996E-05-2.20240E-06-5.84356E-19 1.12622E-18
 -1      1037 9.16794E-05-2.46523E-05-2.87271E-05-1.76413E-06 7.65560E-19 1.12483E-18
 -1      1038 8.34114E-05-2.16566E-05-2.64683E-05 8.81756E-06 8.02644E-20 1.84767E-18
 -1      1039 8.58797E-05-2.18964E-05-2.74206E-05-6.08384E-06-1.96460E-19-5.16873E-19
 -1      1040 8.77215E-05-2.25351E-05-2.79385E-05-4.87893E-06 6.04122E-20-3.75559E-19
 -1      1041 7.75545E-05-2.02438E-05-2.45503E-05-1.06326E-05-1.59255E-19-2.43875E-18
 -1      1042 8.08258E-05-2.03504E-05-2.59190E-05-7.73034E-06-1.94241E-19-1.63580E-18
 -1      1043 9.23161E-05-2.51439E-05-2.87885E-05 1.77293E-06-8.23123E-19-2.10765E-18
 -1      1044 8.14001E-05-2.22483E-05-2.53499E-05 1.17222E-05 6.79157E-20 2.78723E-18
 -1      1045 8.70581E-05-2.21116E-05-2.78343E-05 5.36273E-06 6.99222E-19-1.21680E-18
 -1      1046 8.86106E-05-2.27452E-05-2.82279E-05 4.27654E-06-8.03553E-19-7.89397E-19
 -1      1047 8.99604E-05-2.34774E-05-2.84926E-05 3.42791E-06-5.51837E-20-3.00887E-18
 -1      1048 9.11112E-05-2.42294E-05-2.86642E-05 2.74323E-06 7.80111E-19-4.21506E-18
 -1      1049 8.22436E-05-2.49231E-05-2.45566E-05 1.56309E-05-7.01768E-19 3.01892E-18
 -1      1050 7.07108E-05-1.65870E-05-2.31477E-05-4.85414E-06 2.49566E-19-1.44558E-18
 -1      1051 9.46919E-05-2.70936E-05-2.89707E-05-2.45375E-06 8.91655E-22-5.05767E-19
 -1      1052 9.62304E-05-2.67518E-05-2.97765E-05 3.55561E-07-4.39468E-19-8.02441E-19
 -1      1053 8.36416E-05-2.11425E-05-2.67797E-05-6.80578E-06-3.37604E-19-1.10785E-18
 -1      1054 9.60304E-05-2.57594E-05-3.01157E-05-3.13184E-08-4.11243E-19-9.71542E-19
 -1      1055 9.20377E-05-2.50497E-05-2.87093E-05-2.73473E-06-3.13944E-19-2.32507E-19
 -1      1056 9.52898E-05-2.37679E-05-3.06499E-05 5.95966E-09-8.05464E-20-1.37849E-18
 -1      1057 9.61288E-05-2.72709E-05-2.95105E-05 6.58549E-07-2.55899E-19-6.72904E-19
 -1      1058 9.20790E-05-2.49729E-05-2.87594E-05 8.94436E-07-4.00100E-20-2.31704E-18
 -1      1059 8.53141E-05-2.16939E-05-2.72670E-05 6.80737E-06 7.54461E-19 2.13296E-18
 -1      1060 9.54211E-05-2.73874E-05-2.91573E-05-1.36611E-06-5.11452E-19-1.04424E-18
 -1      1061 9.58773E-05-2.74836E-05-2.93120E-05-1.07690E-06-2.02256E-19-1.21639E-18
 -1      1062 8.93567E-05-2.33360E-05-2.82952E-05-3.97427E-06-3.94708E-19-6.26975E-19
 -1      1063 9.31141E-05-2.58373E-05-2.88331E-05-2.29767E-06 3.68792E-20-5.50589E-19
 -1      1064 9.12634E-05-2.43485E-05-2.86764E-05-6.05928E-07 4.23925E-20-2.21067E-19
 -1      1065 9.07905E-05-2.41982E-05-2.85399E-05-3.28118E-06-3.96270E-19-6.12716E-20
 -1      1066 7.33510E-05-1.82157E-05-2.36168E-05 8.62273E-06 9.58231E-20-3.91304E-19
 -1      1067 9.59816E-05-2.54964E-05-3.02119E-05 3.74024E-09-2.21904E-20-8.58496E-19
 -1      1068 9.54404E-05-2.41166E-05-3.05666E-05-3.32067E-07-2.92404E-19-1.33663E-18
 -1      1069 7.47080E-05-1.75863E-05-2.44744E-05-4.69973E-06 1.03651E-18-1.54877E-18
 -1      1070 9.48560E-05-2.69514E-05-2.91018E-05 4.90983E-07 3.96087E-19-5.05812E-19
 -1      1071 9.40128E-05-2.64203E-05-2.89677E-05 5.80115E-07-2.01343E-19-4.23549E-19
 -1      1072 9.29773E-05-2.56938E-05-2.88341E-05 6.95428E-07-5.42824E-19-9.07880E-19
 -1      1073 9.17224E-05-2.48026E-05-2.86792E-05 8.27194E-07-7.78068E-19-1.44255E-18
 -1      1074 9.02575E-05-2.38087E-05-2.84776E-05 9.85730E-07-5.45777E-19-1.14191E-18
 -1      1075 8.85242E-05-2.27297E-05-2.81971E-05 1.18871E-06 2.55813E-19-1.28923E-18
 -1      1076 8.64589E-05-2.15993E-05-2.77972E-05 1.45178E-06 3.03698E-19-1.04715E-18
 -1      1077 8.39958E-05-2.04746E-05-2.72267E-05 1.80049E-06 2.53588E-19-4.82197E-19
 -1      1078 8.09459E-05-1.93252E-05-2.64123E-05 2.28114E-06 3.10739E-19-7.88414E-19
 -1      1079 7.69732E-05-1.80645E-05-2.52697E-05 3.12169E-06-4.13020E-20-7.23458E-19
 -1      1080 9.62350E-05-2.66661E-05-2.98161E-05-2.50297E-07 1.60230E-19-1.09930E-18
 -1      1081 8.01602E-05-1.89152E-05-2.62507E-05-2.77373E-06 2.25680E-18-1.60122E-18
 -1      1082 8.32342E-05-1.99618E-05-2.71155E-05-2.09933E-06 1.69010E-18-4.10090E-19
 -1      1083 8.57027E-05-2.10155E-05-2.77231E-05-1.63725E-06 1.78742E-18-4.17296E-19
 -1      1084 8.77055E-05-2.20411E-05-2.81420E-05-1.30318E-06 1.13371E-18 3.02585E-20
 -1      1085 8.93453E-05-2.30201E-05-2.84246E-05-1.04365E-06-1.67904E-18-3.08756E-19
 -1      1086 9.03689E-05-2.37048E-05-2.85698E-05-8.01912E-07-4.97066E-19-9.07652E-19
 -1      1087 9.47993E-05-2.70464E-05-2.90370E-05-1.63900E-06-4.47900E-19-8.57916E-19
 -1      1088 7.64733E-05-1.80443E-05-2.50034E-05-3.37755E-06 1.20919E-19-1.42527E-18
 -1      1089 8.96981E-05-2.32653E-05-2.84714E-05 1.79102E-06 8.68339E-19-2.73223E-18
 -1      1090 9.59928E-05-2.72828E-05-2.94469E-05 3.11667E-07-4.68441E-20-4.64476E-19
 -1      1091 7.79975E-05-1.89683E-05-2.52785E-05 6.44797E-06 9.49656E-19 3.06687E-19
 -1      1092 8.81628E-05-2.23428E-05-2.82087E-05 2.25126E-06 1.22594E-18-2.33821E-18
 -1      1093 8.63169E-05-2.14062E-05-2.78189E-05 2.84428E-06 7.90443E-19-4.99694E-19
 -1      1094 8.13585E-05-1.96537E-05-2.64475E-05 4.81800E-06 1.71117E-18-1.33573E-18
 -1      1095 7.74096E-05-2.03057E-05-2.44918E-05 1.06553E-05 7.82070E-20 2.00801E-18
 -1      1096 8.50121E-05-2.10034E-05-2.74301E-05-3.05947E-06 3.73267E-19-1.52611E-18
 -1      1097 9.07594E-05-2.41539E-05-2.85457E-05-1.64420E-06-4.53577E-19-7.15336E-19
 -1      1098 9.61605E-05-2.61499E-05-3.00033E-05 7.50679E-08-1.91298E-19-9.17861E-19
 -1      1099 9.10010E-05-2.41545E-05-2.86482E-05 1.27380E-06-1.33691E-18-1.39999E-19
 -1      1100 9.62146E-05-2.69280E-05-2.96939E-05 1.98293E-07-1.66195E-19-4.11093E-19
 -1      1101 9.61552E-05-2.72429E-05-2.95346E-05-6.38135E-07 1.73878E-19-1.01812E-18
 -1      1102 8.40839E-05-2.04879E-05-2.72545E-05 3.65342E-06 1.36907E-18-1.42505E-18
 -1      1103 9.55231E-05-2.72557E-05-2.92568E-05 4.05684E-07 2.41989E-19-7.45492E-19
 -1      1104 9.50347E-05-2.70778E-05-2.91245E-05-8.06659E-07-1.93065E-19-9.52472E-19
 -1      1105 8.72766E-05-2.20816E-05-2.79415E-05-2.44608E-06-9.88797E-20-1.23958E-18
 -1      1106 9.21275E-05-2.50995E-05-2.87264E-05-1.36005E-06-3.93862E-19-8.93767E-19
 -1      1107 9.40306E-05-2.65150E-05-2.89354E-05-1.93961E-06-6.06202E-20-6.21657E-19
 -1      1108 9.11806E-05-2.42901E-05-2.86672E-05 2.03010E-07 5.87439E-19-3.64861E-19
 -1      1109 8.91604E-05-2.31369E-05-2.82964E-05-1.99286E-06-1.43050E-19-8.42515E-19
 -1      1110 7.56800E-05-1.74233E-05-2.49697E-05 1.40488E-06 9.11900E-19-6.89836E-19
 -1      1111 7.97882E-05-1.90650E-05-2.60270E-05-3.59600E-06 2.35482E-19-1.95988E-18
 -1      1112 8.26982E-05-2.00385E-05-2.68513E-05-3.08573E-06-1.91256E-19-1.92447E-18
 -1      1113 9.56590E-05-2.73415E-05-2.92786E-05-6.56517E-07-4.15278E-19-3.75154E-19
 -1      1114 9.34864E-05-2.60623E-05-2.89000E-05-3.92196E-07-3.70973E-19-1.50257E-18
 -1      1115 8.44480E-05-2.04096E-05-2.74476E-05 6.25325E-07 6.73701E-19-1.22715E-18
 -1      1116 9.42434E-05-2.65937E-05-2.89926E-05-9.70397E-07-2.27537E-19-1.71885E-18
 -1      1117 8.66928E-05-2.14785E-05-2.79491E-05 4.83258E-07 1.54278E-18-2.40131E-18
 -1      1118 8.85301E-05-2.25099E-05-2.82944E-05 3.76331E-07 1.70799E-19-1.24775E-18
 -1      1119 9.61336E-05-2.71437E-05-2.95673E-05-1.59627E-07-1.51317E-19-5.03279E-19
 -1      1120 8.08324E-05-1.90266E-05-2.64920E-05 9.31333E-07 2.19957E-18-4.45539E-19
 -1      1121 9.00466E-05-2.34845E-05-2.85269E-05 2.79391E-07-1.00623E-18 3.77428E-19
 -1      1122 9.33020E-05-2.59371E-05-2.88687E-05-1.14764E-06-2.18723E-20-1.44421E-18
 -1      1123 1.16677E-04 2.57072E-10-4.17934E-05-4.14184E-05-1.91006E-19 7.66099E-18
 -1      1124 8.85583E-05 7.18295E-11-3.72129E-05-2.41527E-05-1.15302E-19 1.57908E-18
 -1      1125 8.40410E-05 4.14478E-11-3.57502E-05-1.78676E-05-9.03678E-20-1.15641E-18
 -1      1126 8.23405E-05 3.20363E-11-3.50743E-05-1.38232E-05-6.10658E-20-2.50851E-18
 -1      1127 8.15699E-05 2.73301E-11-3.47540E-05-1.05183E-05-4.12532E-20-3.22561E-18
 -1      1128 8.11912E-05 2.45852E-11-3.45989E-05-7.62496E-06-2.76609E-20-3.58202E-18
 -1      1129 8.09971E-05 2.28989E-11-3.45223E-05-4.96655E-06-1.67057E-20-3.73195E-18
 -1      1130 8.09035E-05 2.19826E-11-3.44869E-05-2.42467E-06-5.37337E-21-3.78284E-18
 -1      1131 8.08770E-05 2.17047E-11-3.44771E-05 5.24460E-08 4.53295E-21-3.81626E-18
 -1      1132 8.09076E-05 2.20270E-11-3.44883E-05 2.53210E-06 9.97911E-21-3.80391E-18
 -1      1133 8.10056E-05 2.29981E-11-3.45252E-05 5.08224E-06 1.69473E-20-3.75359E-18
 -1      1134 8.12063E-05 2.47422E-11-3.46030E-05 7.75650E-06 3.11218E-20-3.51498E-18
 -1      1135 8.15920E-05 2.76412E-11-3.47602E-05 1.06777E-05 4.51839E-20-3.09781E-18
 -1      1136 8.23639E-05 3.25116E-11-3.50840E-05 1.40297E-05 6.27863E-20-2.38369E-18
 -1      1137 8.40362E-05 4.19179E-11-3.57699E-05 1.81185E-05 9.11619E-20-1.00773E-18
 -1      1138 8.82563E-05 6.66580E-11-3.72828E-05 2.39954E-05 1.05985E-19 1.71064E-18
 -1      1139 1.06451E-04 1.63619E-10-4.05731E-05 3.61553E-05 2.35052E-19 7.54516E-18
 -1      1140 1.29988E-04-2.57071E-05-4.02048E-05-2.60728E-05-8.12410E-19 1.15603E-17
 -1      1141 9.72544E-05-2.88022E-05-3.15153E-05-6.81178E-07-2.41828E-19 9.79985E-18
 -1      1142 8.99644E-05-2.69685E-05-2.78341E-05 3.85413E-07-8.86076E-20 7.11533E-18
 -1      1143 8.80613E-05-2.65168E-05-2.65878E-05 2.48975E-07-1.17344E-19 5.15139E-18
 -1      1144 8.77191E-05-2.63953E-05-2.63369E-05 1.63832E-07-9.84676E-21 3.74089E-18
 -1      1145 8.81100E-05-2.64821E-05-2.64321E-05 1.15708E-07-7.55216E-21 3.15207E-18
 -1      1146 8.88530E-05-2.66843E-05-2.66528E-05 8.49890E-08-4.84587E-20 2.63372E-18
 -1      1147 8.97627E-05-2.69456E-05-2.69253E-05 6.39393E-08-5.57698E-20 1.83081E-18
 -1      1148 9.07465E-05-2.72347E-05-2.72207E-05 4.88134E-08-1.15378E-19 8.99668E-19
 -1      1149 9.17649E-05-2.75374E-05-2.75277E-05 3.78941E-08 2.80865E-20-8.82172E-20
 -1      1150 9.28132E-05-2.78511E-05-2.78452E-05 3.04390E-08 1.23853E-19-7.10436E-19
 -1      1151 9.39123E-05-2.81814E-05-2.81792E-05 2.62053E-08 1.73123E-20-4.27546E-19
 -1      1152 9.51026E-05-2.85399E-05-2.85417E-05 2.52546E-08 1.76578E-20-1.44974E-18
 -1      1153 9.64392E-05-2.89429E-05-2.89490E-05 2.78704E-08-2.97529E-20-8.21615E-19
 -1      1154 9.79879E-05-2.94095E-05-2.94205E-05 3.44964E-08-2.30051E-20-7.28045E-19
 -1      1155 9.98186E-05-2.99602E-05-2.99762E-05 4.56307E-08-8.85203E-20-1.16185E-18
 -1      1156 1.01995E-04-3.06133E-05-3.06339E-05 6.15804E-08 6.76882E-20-4.44553E-19
 -1      1157 1.04557E-04-3.13798E-05-3.14027E-05 8.19356E-08-5.67148E-20-1.78009E-19
 -1      1158 1.07490E-04-3.22541E-05-3.22738E-05 1.04551E-07-8.44675E-21-6.38160E-19
 -1      1159 1.10681E-04-3.32009E-05-3.32065E-05 1.23823E-07-7.09072E-20-6.79612E-20
 -1      1160 1.13852E-04-3.41358E-05-3.41096E-05 1.28328E-07 2.34919E-22-4.06179E-19
 -1      1161 1.16492E-04-3.49062E-05-3.48253E-05 9.88217E-08 7.72554E-20-4.83391E-19
 -1      1162 1.17823E-04-3.52813E-05-3.51283E-05 1.01854E-08 2.45292E-19 9.16764E-19
 -1      1163 1.16889E-04-3.49820E-05-3.47646E-05-1.56964E-07-9.78191E-20-8.36101E-19
 -1      1164 1.12885E-04-3.37791E-05-3.35556E-05-3.89382E-07 1.56327E-19-1.51942E-18
 -1      1165 1.05769E-04-3.16769E-05-3.15558E-05-6.09568E-07 2.00112E-19 7.35860E-20
 -1      1166 9.69134E-05-2.90926E-05-2.91807E-05-6.79416E-07 3.48619E-19 1.59126E-18
 -1      1167 8.91394E-05-2.68466E-05-2.71628E-05-4.84042E-07-9.03083E-20 5.14837E-19
 -1      1168 8.55884E-05-2.58276E-05-2.62576E-05-5.56792E-08-2.85463E-19-8.86949E-19
 -1      1169 8.78598E-05-2.64789E-05-2.68352E-05 4.01317E-07 4.62692E-20-3.73383E-19
 -1      1170 9.49179E-05-2.85140E-05-2.86573E-05 6.59562E-07-1.27055E-21 1.38331E-18
 -1      1171 1.03811E-04-3.11030E-05-3.10222E-05 6.43505E-07-1.14579E-19-9.12678E-20
 -1      1172 1.11504E-04-3.33691E-05-3.31588E-05 4.44642E-07-4.66133E-20-3.19612E-18
 -1      1173 1.16265E-04-3.47924E-05-3.45668E-05 2.05580E-07 1.03368E-19-4.23871E-18
 -1      1174 1.17857E-04-3.52870E-05-3.51174E-05 2.04177E-08-1.86754E-19-6.06531E-18
 -1      1175 1.16978E-04-3.50471E-05-3.49513E-05-8.50116E-08 2.03470E-19-5.47936E-18
 -1      1176 1.14591E-04-3.43540E-05-3.43178E-05-1.25516E-07 5.17492E-19-4.65865E-18
 -1      1177 1.11535E-04-3.34551E-05-3.34558E-05-1.26494E-07 3.08199E-20-1.19568E-18
 -1      1178 1.08386E-04-3.25224E-05-3.25408E-05-1.08865E-07 4.61894E-20-1.65392E-18
 -1      1179 1.05475E-04-3.16561E-05-3.16800E-05-8.56555E-08 9.54293E-20-1.83073E-18
 -1      1180 1.02955E-04-3.09032E-05-3.09261E-05-6.35010E-08-6.13421E-20-2.94055E-18
 -1      1181 1.00867E-04-3.02774E-05-3.02967E-05-4.50453E-08-5.62317E-20-2.42283E-18
 -1      1182 9.91912E-05-2.97737E-05-2.97888E-05-3.08277E-08 3.54795E-19-3.20416E-18
 -1      1183 9.78800E-05-2.93787E-05-2.93901E-05-2.04189E-08-2.81559E-19-1.08625E-18
 -1      1184 9.68787E-05-2.90764E-05-2.90852E-05-1.29732E-08 4.07091E-19-1.64152E-18
 -1      1185 9.61374E-05-2.88522E-05-2.88598E-05-7.38520E-09-5.88783E-20-8.02397E-19
 -1      1186 9.56186E-05-2.86947E-05-2.87029E-05-2.18738E-09 4.01217E-19-1.99773E-18
 -1      1187 9.53007E-05-2.85978E-05-2.86067E-05 4.79026E-09 3.06585E-19-6.93602E-19
 -1      1188 9.51808E-05-2.85648E-05-2.85615E-05 1.75781E-08-3.29595E-19-3.79546E-18
 -1      1189 9.51984E-05-2.85593E-05-2.85418E-05 1.28169E-08 2.85464E-19-1.33630E-18
 -1      1190 1.30821E-04-3.76697E-05-3.85924E-05 1.21609E-05-1.27240E-19 1.24082E-17
 -1      1191 9.63563E-05-2.81293E-05-3.12680E-05 8.01820E-07 1.02756E-19 9.51144E-18
 -1      1192 9.01783E-05-2.68712E-05-2.78150E-05 1.21398E-07 5.66189E-20 7.04757E-18
 -1      1193 8.81484E-05-2.64441E-05-2.66240E-05 1.10125E-08-1.19809E-20 5.32990E-18
 -1      1194 8.77599E-05-2.63578E-05-2.63638E-05-2.23649E-08 5.03637E-20 3.88836E-18
 -1      1195 8.81320E-05-2.64645E-05-2.64476E-05-3.03155E-08 3.72802E-20 2.56799E-18
 -1      1196 8.88663E-05-2.66771E-05-2.66628E-05-3.02289E-08-3.10246E-20 2.46770E-18
 -1      1197 8.97715E-05-2.69438E-05-2.69325E-05-2.70385E-08-2.38360E-20 2.43548E-18
 -1      1198 9.07526E-05-2.72356E-05-2.72262E-05-2.23209E-08-1.78563E-20 1.46734E-18
 -1      1199 9.17692E-05-2.75396E-05-2.75320E-05-1.68323E-08 8.92964E-20 8.42970E-19
 -1      1200 9.28162E-05-2.78537E-05-2.78485E-05-1.10986E-08 7.68221E-20 1.10862E-19
 -1      1201 9.39140E-05-2.81837E-05-2.81818E-05-5.58768E-09-2.81537E-20 5.31182E-20
 -1      1202 9.51024E-05-2.85413E-05-2.85436E-05-8.11220E-10 1.61421E-19-6.25934E-19
 -1      1203 9.64359E-05-2.89427E-05-2.89502E-05 2.57195E-09-1.19213E-19-1.11339E-18
 -1      1204 9.79791E-05-2.94068E-05-2.94204E-05 3.63406E-09 1.56579E-19-2.62736E-18
 -1      1205 9.98003E-05-2.99535E-05-2.99741E-05 1.04430E-09-1.71580E-19-3.35445E-18
 -1      1206 1.01960E-04-3.06002E-05-3.06280E-05-7.04005E-09-2.61136E-19-2.99995E-18
 -1      1207 1.04496E-04-3.13566E-05-3.13904E-05-2.29450E-08 1.72188E-19-3.04440E-18
 -1      1208 1.07389E-04-3.22158E-05-3.22509E-05-4.90514E-08 5.05196E-20-4.44776E-18
 -1      1209 1.10520E-04-3.31410E-05-3.31671E-05-8.64610E-08-1.31544E-19-3.18527E-18
 -1      1210 1.13610E-04-3.40485E-05-3.40464E-05-1.32055E-07 6.69950E-20-2.35979E-18
 -1      1211 1.16151E-04-3.47900E-05-3.47308E-05-1.73624E-07-5.37303E-20-2.06793E-18
 -1      1212 1.17380E-04-3.51456E-05-3.49975E-05-1.84850E-07 2.61025E-19-3.40310E-18
 -1      1213 1.16370E-04-3.48513E-05-3.46006E-05-1.26722E-07-1.08797E-19-2.82618E-18
 -1      1214 1.12358E-04-3.36886E-05-3.33736E-05 3.34952E-08-2.04228E-19-8.29933E-19
 -1      1215 1.05331E-04-3.16449E-05-3.13822E-05 2.81186E-07-2.57088E-21 1.66717E-18
 -1      1216 9.66391E-05-2.90879E-05-2.90447E-05 5.18483E-07-1.84900E-19 1.59200E-18
 -1      1217 8.90244E-05-2.67963E-05-2.70809E-05 5.94557E-07-2.85940E-19 1.18087E-18
 -1      1218 8.55345E-05-2.56835E-05-2.62222E-05 4.18479E-07-3.87266E-19 2.43447E-18
 -1      1219 8.77354E-05-2.62727E-05-2.68172E-05 6.02647E-08 9.09171E-20 6.46498E-19
 -1      1220 9.46373E-05-2.83207E-05-2.86217E-05-2.90068E-07 3.64509E-19-3.95162E-18
 -1      1221 1.03374E-04-3.09669E-05-3.09481E-05-4.74599E-07 1.26625E-20-4.49086E-18
 -1      1222 1.10983E-04-3.32877E-05-3.30486E-05-4.66147E-07 3.51949E-20-4.48467E-18
 -1      1223 1.15745E-04-3.47394E-05-3.44387E-05-3.38209E-07 5.25690E-20-5.20973E-18
 -1      1224 1.17406E-04-3.52417E-05-3.49917E-05-1.82564E-07-2.68126E-19-2.43943E-18
 -1      1225 1.16624E-04-3.50018E-05-3.48425E-05-5.56287E-08-3.11443E-19-1.15183E-19
 -1      1226 1.14336E-04-3.43082E-05-3.42322E-05 2.57714E-08 2.65934E-19-2.18598E-18
 -1      1227 1.11362E-04-3.34112E-05-3.33929E-05 6.71119E-08 8.15854E-20-4.73658E-18
 -1      1228 1.08275E-04-3.24828E-05-3.24970E-05 8.10010E-08-2.88097E-19-3.18212E-18
 -1      1229 1.05407E-04-3.16220E-05-3.16506E-05 7.91193E-08 6.81667E-20-3.28081E-18
 -1      1230 1.02915E-04-3.08748E-05-3.09070E-05 6.97495E-08 3.55084E-20-4.18324E-18
 -1      1231 1.00845E-04-3.02544E-05-3.02846E-05 5.79367E-08-3.37275E-19-1.08190E-18
 -1      1232 9.91795E-05-2.97554E-05-2.97813E-05 4.64090E-08 3.04931E-19-2.00229E-18
 -1      1233 9.78745E-05-2.93644E-05-2.93855E-05 3.64517E-08 3.82277E-20-2.95687E-18
 -1      1234 9.68765E-05-2.90655E-05-2.90825E-05 2.84984E-08 7.45650E-20-2.32264E-18
 -1      1235 9.61371E-05-2.88440E-05-2.88583E-05 2.24208E-08-5.67959E-20-8.05462E-19
 -1      1236 9.56192E-05-2.86888E-05-2.87023E-05 1.75212E-08 1.47904E-19-3.19703E-18
 -1      1237 9.53016E-05-2.85934E-05-2.86068E-05 1.14940E-08-4.31321E-20-3.51043E-18
 -1      1238 9.51771E-05-2.85544E-05-2.85622E-05-1.08960E-09 2.58321E-19-1.46668E-18
 -1      1239 9.52026E-05-2.85621E-05-2.85421E-05-1.17372E-08-3.11944E-19-1.71807E-18
 -1      1240 9.52467E-05-2.86070E-05-2.85433E-05-1.20422E-08-1.32694E-18-7.50723E-19
 -1      1241 9.52477E-05-2.86236E-05-2.85652E-05-1.45882E-08 1.67272E-20 5.36383E-19
 -1      1242 9.52082E-05-2.84880E-05-2.86114E-05 2.64708E-09 4.55043E-18 8.98314E-20
 -1      1243 9.51215E-05-2.81926E-05-2.86947E-05 1.25965E-08 7.08971E-18-3.09581E-19
 -1      1244 9.50073E-05-2.78035E-05-2.88037E-05 1.66835E-08 1.77913E-18 7.22542E-21
 -1      1245 9.48895E-05-2.74022E-05-2.89169E-05 1.62281E-08-3.40169E-18-3.82080E-19
 -1      1246 9.47884E-05-2.70573E-05-2.90149E-05 1.27898E-08-6.18907E-18 2.99421E-19
 -1      1247 9.47199E-05-2.68238E-05-2.90814E-05 6.92197E-09-7.36844E-18-3.26360E-20
 -1      1248 9.46960E-05-2.67426E-05-2.91046E-05-5.65370E-11-4.69427E-18 8.36248E-19
 -1      1249 9.47206E-05-2.68263E-05-2.90807E-05-7.03735E-09-1.16592E-18-3.16703E-19
 -1      1250 9.47897E-05-2.70619E-05-2.90136E-05-1.28750E-08-5.91010E-18-1.26833E-18
 -1      1251 9.48916E-05-2.74085E-05-2.89152E-05-1.64842E-08-1.06177E-17 4.51416E-19
 -1      1252 9.50092E-05-2.78101E-05-2.88018E-05-1.66581E-08-8.70781E-18-1.13400E-19
 -1      1253 9.51233E-05-2.81985E-05-2.86931E-05-1.27048E-08-3.10904E-18-3.90005E-19
 -1      1254 9.52120E-05-2.84966E-05-2.86101E-05-3.32535E-09 1.55966E-18 1.18014E-19
 -1      1255 9.52416E-05-2.86155E-05-2.85639E-05 2.49196E-08 2.28862E-18-3.58271E-19
 -1      1256 9.52488E-05-2.86112E-05-2.85427E-05 1.44460E-08 1.74679E-18 7.37397E-19
 -1      1257 3.44673E-05-1.06896E-04 1.79107E-05-1.33368E-05-3.47834E-18-8.43327E-20
 -1      1258 1.73894E-05-6.48229E-05 9.52898E-06-2.44802E-05 8.87691E-19 1.07785E-18
 -1      1259 8.02791E-06-8.09481E-06-6.38296E-06 3.72606E-07 1.85670E-18 1.26547E-18
 -1      1260 3.48715E-05 2.42071E-05-2.60413E-05 5.29286E-05 3.67782E-18 4.52316E-18
 -1      1261 1.06744E-04 1.27188E-05-4.62236E-05 1.00155E-04 4.65275E-18 5.98683E-18
 -1      1262 2.05478E-04-3.29132E-05-6.35795E-05 1.08491E-04 2.77615E-18 6.58992E-18
 -1      1263 2.84875E-04-7.82205E-05-7.45910E-05 6.41321E-05 6.41416E-19 1.56362E-18
 -1      1264 3.09673E-04-9.32693E-05-7.75795E-05-1.33536E-05 4.66398E-19-4.87743E-18
 -1      1265 2.56447E-04-6.10635E-05-7.09804E-05-8.56555E-05 3.12047E-18-1.12037E-17
 -1      1266 1.61086E-04-9.90627E-06-5.63409E-05-1.11366E-04 6.89570E-18-1.28139E-17
 -1      1267 6.97756E-05 2.31551E-05-3.73556E-05-8.17450E-05 9.44357E-18-1.15942E-17
 -1      1268 1.64564E-05 1.50241E-05-1.68219E-05-2.74529E-05 1.11842E-17-9.12424E-18
 -1      1269 8.42753E-06-3.00494E-05 8.36448E-07 1.49298E-05 7.44711E-18-4.49182E-18
 -1      1270 2.43678E-05-8.35552E-05 1.35626E-05 2.41820E-05 9.17337E-19-3.62954E-19
 -1      1271 3.66730E-05-1.11719E-04 1.89064E-05 4.35238E-06-5.96851E-18-2.90506E-19
 -1      1272 3.03529E-05-9.78713E-05 1.63255E-05-2.03141E-05-1.14688E-17-1.87009E-18
 -1      1273 1.26060E-05-4.89514E-05 5.81749E-06-2.16476E-05-1.08971E-17-4.63454E-18
 -1      1274 1.04380E-05 3.07986E-06-1.08835E-05 1.15923E-05-1.10318E-17-7.62160E-18
 -1      1275 4.93532E-05 2.43971E-05-3.08649E-05 6.55236E-05-1.10402E-17-1.10402E-17
 -1      1276 1.30744E-04 3.36768E-06-5.10027E-05 1.06691E-04-7.15658E-18-1.05998E-17
 -1      1277 2.25989E-04-4.41126E-05-6.66769E-05 1.03595E-04-2.33527E-18-5.99530E-18
 -1      1278 2.94274E-04-8.42393E-05-7.58174E-05 5.31273E-05-2.81162E-19-1.74192E-18
 -1      1279 3.08522E-04-9.30214E-05-7.75082E-05-2.14357E-05-3.06679E-19 2.11737E-18
 -1      1280 2.58664E-04-6.24405E-05-7.12546E-05-8.62145E-05-2.17878E-18 7.80117E-18
 -1      1281 1.71174E-04-1.48228E-05-5.81417E-05-1.11810E-04-4.84164E-18 1.03219E-17
 -1      1282 8.22369E-05 2.08807E-05-4.07834E-05-9.01168E-05-8.27212E-18 1.02915E-17
 -1      1283 2.43019E-05 2.10497E-05-2.16533E-05-4.08134E-05-1.13638E-17 9.78831E-18
 -1      1284 7.21169E-06-1.62990E-05-3.36758E-06 5.99745E-06-1.04422E-17 6.66446E-18
 -1      1285 1.90597E-05-6.97577E-05 1.05755E-05 2.57994E-05-6.15878E-18 2.49430E-18
 -1      1286 3.38341E-05-1.06184E-04 1.79546E-05 1.30372E-05-4.55788E-18 4.35798E-19
 -1      1287 1.04271E-04-2.19770E-05-3.78335E-05-1.72612E-05-2.93497E-19 6.44296E-18
 -1      1288 9.02404E-05-6.67347E-06-3.59857E-05-2.04552E-05-9.05108E-19 3.04508E-19
 -1      1289 9.25465E-05-6.73118E-06-3.71790E-05-2.57368E-05-1.13375E-18 1.75293E-18
 -1      1290 8.58805E-05-4.09660E-06-3.51189E-05-1.64161E-05-9.59847E-19-1.78316E-18
 -1      1291 8.71078E-05-4.08884E-06-3.55783E-05-1.88364E-05-1.04354E-18-8.83985E-19
 -1      1292 9.20671E-05-1.04544E-05-3.50683E-05-1.90117E-05-1.57074E-18 2.44634E-19
 -1      1293 8.41122E-05-3.19158E-06-3.46927E-05-1.27969E-05-7.75379E-19-2.84156E-18
 -1      1294 8.47055E-05-3.16209E-06-3.49092E-05-1.46123E-05-8.86605E-19-2.34498E-18
 -1      1295 8.78528E-05-7.39377E-06-3.45679E-05-1.53861E-05-1.50133E-18-1.50767E-18
 -1      1296 8.32301E-05-2.72772E-06-3.44892E-05-9.66616E-06-6.31681E-19-3.40220E-18
 -1      1297 8.35299E-05-2.70935E-06-3.45924E-05-1.12136E-05-6.83516E-19-3.15799E-18
 -1      1298 8.58899E-05-5.98078E-06-3.43154E-05-1.19282E-05-1.20334E-18-2.40838E-18
 -1      1299 8.27573E-05-2.45507E-06-3.43918E-05-6.89564E-06-4.34144E-19-3.66059E-18
 -1      1300 8.29181E-05-2.44678E-06-3.44422E-05-8.26551E-06-5.09927E-19-3.50603E-18
 -1      1301 8.48692E-05-5.21199E-06-3.41951E-05-8.91837E-06-9.50265E-19-2.86625E-18
 -1      1302 8.24925E-05-2.28647E-06-3.43450E-05-4.28031E-06-2.82659E-19-3.77757E-18
 -1      1303 8.25786E-05-2.28266E-06-3.43697E-05-5.57868E-06-3.41023E-19-3.73947E-18
 -1      1304 8.42981E-05-4.75138E-06-3.41402E-05-6.19372E-06-6.54196E-19-3.12934E-18
 -1      1305 8.23652E-05-2.19490E-06-3.43259E-05-1.78317E-06-8.73947E-20-3.84894E-18
 -1      1306 8.24018E-05-2.19339E-06-3.43357E-05-3.03015E-06-1.49505E-19-3.80331E-18
 -1      1307 8.39830E-05-4.48255E-06-3.41167E-05-3.62924E-06-3.54575E-19-3.17039E-18
 -1      1308 8.23399E-05-2.16666E-06-3.43238E-05 6.67511E-07 7.34065E-20-3.84720E-18
 -1      1309 8.23386E-05-2.16670E-06-3.43234E-05-5.63880E-07 4.26660E-21-3.84885E-18
 -1      1310 8.38449E-05-4.36013E-06-3.41084E-05-1.16518E-06-7.66761E-20-3.27988E-18
 -1      1311 8.24103E-05-2.19773E-06-3.43372E-05 3.13745E-06 2.12794E-19-3.85413E-18
 -1      1312 8.23708E-05-2.19931E-06-3.43266E-05 1.88786E-06 1.72979E-19-3.87657E-18
 -1      1313 8.38498E-05-4.36438E-06-3.41088E-05 1.26820E-06 2.17657E-19-3.29555E-18
 -1      1314 8.25953E-05-2.29291E-06-3.43722E-05 5.69524E-06 3.57689E-19-3.75461E-18
 -1      1315 8.25059E-05-2.29618E-06-3.43469E-05 4.39092E-06 3.16608E-19-3.82071E-18
 -1      1316 8.39983E-05-4.49612E-06-3.41177E-05 3.73664E-06 4.29780E-19-3.26595E-18
 -1      1317 8.29406E-05-2.46143E-06-3.44450E-05 8.37369E-06 5.11039E-19-3.47509E-18
 -1      1318 8.27763E-05-2.47003E-06-3.43941E-05 6.99520E-06 4.44368E-19-3.63883E-18
 -1      1319 8.43230E-05-4.77399E-06-3.41414E-05 6.28777E-06 6.65655E-19-3.08849E-18
 -1      1320 8.35755E-05-2.74136E-06-3.45973E-05 1.13739E-05 7.38454E-19-3.03500E-18
 -1      1321 8.32674E-05-2.75841E-06-3.44925E-05 9.80879E-06 6.37167E-19-3.30027E-18
 -1      1322 8.49110E-05-5.25250E-06-3.41960E-05 9.02695E-06 9.59702E-19-2.79915E-18
 -1      1323 8.47626E-05-3.20469E-06-3.49169E-05 1.48247E-05 9.67682E-19-2.22113E-18
 -1      1324 8.41688E-05-3.24148E-06-3.46982E-05 1.29836E-05 8.55212E-19-2.70732E-18
 -1      1325 8.59696E-05-6.06149E-06-3.43166E-05 1.20950E-05 1.29403E-18-2.29673E-18
 -1      1326 8.72063E-05-4.08984E-06-3.55997E-05 1.90734E-05 1.14259E-18-7.09443E-19
 -1      1327 8.59476E-05-4.15406E-06-3.51264E-05 1.66757E-05 9.93517E-19-1.63017E-18
 -1      1328 8.79771E-05-7.51583E-06-3.45699E-05 1.56244E-05 1.59466E-18-1.32052E-18
 -1      1329 9.33577E-05-6.78309E-06-3.70743E-05 2.50736E-05 1.01856E-18 2.22801E-18
 -1      1330 9.00552E-05-6.43058E-06-3.60081E-05 2.11316E-05 9.95846E-19 4.33099E-19
 -1      1331 9.22961E-05-1.06895E-05-3.50534E-05 1.96519E-05 1.73541E-18 3.67083E-19
 -1      1332 1.23427E-04-2.48804E-05-3.89548E-05 2.83341E-05 5.30349E-19 7.97905E-18
 -1      1333 9.99408E-05-1.43981E-05-3.73038E-05 2.40288E-05 5.56501E-19 3.95151E-18
 -1      1334 1.01551E-04-1.93140E-05-3.53599E-05 2.13756E-05 1.73093E-18 3.04212E-18
 -1      1335 1.02426E-04-2.77533E-05-3.47010E-05 7.32427E-06 9.48465E-19 7.58603E-18
 -1      1336 1.04973E-04-3.01785E-05-3.34716E-05-7.95085E-06-8.50527E-19 6.74535E-18
 -1      1337 9.80933E-05-2.77938E-05-3.07108E-05-4.98213E-06-8.02775E-19 5.81673E-18
 -1      1338 9.53426E-05-2.78013E-05-2.92060E-05-2.48412E-06-6.23999E-19 5.29740E-18
 -1      1339 9.31150E-05-2.75111E-05-2.81685E-05-2.03729E-06-6.25428E-19 4.33808E-18
 -1      1340 9.93517E-05-2.80129E-05-3.09423E-05-7.87353E-06-1.43583E-18 3.15366E-18
 -1      1341 9.14346E-05-2.71556E-05-2.75372E-05-8.29909E-07-6.28247E-19 3.94402E-18
 -1      1342 9.07251E-05-2.70618E-05-2.72373E-05-7.18744E-07-5.91520E-19 3.15716E-18
 -1      1343 9.46012E-05-2.77339E-05-2.87821E-05-3.10525E-06-1.16959E-18 2.39022E-18
 -1      1344 8.99895E-05-2.68831E-05-2.69985E-05-1.58827E-07-3.41106E-19 2.75635E-18
 -1      1345 8.99303E-05-2.69133E-05-2.69678E-05-9.93013E-08-3.28371E-19 2.19162E-18
 -1      1346 9.24252E-05-2.74686E-05-2.78691E-05-1.02743E-06-9.22081E-19 1.75549E-18
 -1      1347 8.96934E-05-2.68521E-05-2.69006E-05 1.80152E-07-1.62182E-19 2.08686E-18
 -1      1348 8.99314E-05-2.69483E-05-2.69695E-05 2.11238E-07-1.69519E-19 1.89242E-18
 -1      1349 9.15032E-05-2.73342E-05-2.75142E-05-2.61391E-08-5.16750E-19 1.22709E-18
 -1      1350 8.99703E-05-2.69612E-05-2.69869E-05 3.56677E-07-1.70541E-19 1.65878E-18
 -1      1351 9.03519E-05-2.70915E-05-2.70980E-05 3.72142E-07-2.45421E-19 1.29454E-18
 -1      1352 9.13067E-05-2.73365E-05-2.74248E-05 4.89590E-07-4.48777E-19 8.49333E-19
 -1      1353 9.05472E-05-2.71482E-05-2.71618E-05 4.47745E-07-1.78987E-19 1.24721E-18
 -1      1354 9.09977E-05-2.72940E-05-2.72929E-05 4.54860E-07-2.24437E-19 8.96134E-19
 -1      1355 9.15264E-05-2.74326E-05-2.74751E-05 7.60584E-07-3.65408E-19 5.33894E-19
 -1      1356 9.12845E-05-2.73764E-05-2.73838E-05 4.95014E-07-3.28137E-19 8.94493E-19
 -1      1357 9.17680E-05-2.75284E-05-2.75251E-05 4.98428E-07-3.45650E-19 3.78015E-19
 -1      1358 9.19885E-05-2.75857E-05-2.76055E-05 9.04103E-07-4.85465E-19 3.14481E-19
 -1      1359 9.21126E-05-2.76270E-05-2.76333E-05 5.24267E-07-2.94623E-19 3.58536E-19
 -1      1360 9.26162E-05-2.77823E-05-2.77812E-05 5.27252E-07-3.08509E-19 6.51487E-20
 -1      1361 9.25982E-05-2.77733E-05-2.77852E-05 9.86798E-07-4.92011E-19 3.06865E-19
 -1      1362 9.30044E-05-2.78931E-05-2.79026E-05 5.53122E-07-2.40302E-19-1.49958E-19
 -1      1363 9.35309E-05-2.80532E-05-2.80579E-05 5.58124E-07 1.77335E-20-3.10798E-19
 -1      1364 9.33090E-05-2.79844E-05-2.79991E-05 1.05147E-06-4.65333E-19 1.97711E-19
 -1      1365 9.39621E-05-2.81761E-05-2.81926E-05 5.94428E-07-2.10182E-20-6.43057E-19
 -1      1366 9.45255E-05-2.83459E-05-2.83594E-05 6.03350E-07-2.87364E-19-9.98321E-19
 -1      1367 9.41059E-05-2.82161E-05-2.82418E-05 1.12803E-06-3.63734E-19-4.98794E-19
 -1      1368 9.50087E-05-2.84834E-05-2.85100E-05 6.57854E-07-2.71264E-19-8.63036E-19
 -1      1369 9.56318E-05-2.86704E-05-2.86948E-05 6.72184E-07-9.53483E-20-1.13106E-18
 -1      1370 9.49967E-05-2.84720E-05-2.85151E-05 1.23848E-06-4.00028E-19-7.81976E-19
 -1      1371 9.61823E-05-2.88271E-05-2.88663E-05 7.50458E-07 1.34855E-19-1.04796E-18
 -1      1372 9.68942E-05-2.90406E-05-2.90775E-05 7.71280E-07-1.94205E-20-9.86506E-19
 -1      1373 9.60047E-05-2.87602E-05-2.88252E-05 1.39897E-06 6.01848E-20-9.49172E-19
 -1      1374 9.75318E-05-2.92226E-05-2.92760E-05 8.76420E-07 9.49000E-20-9.43879E-19
 -1      1375 9.83649E-05-2.94733E-05-2.95230E-05 9.04264E-07-1.03341E-19-8.39893E-19
 -1      1376 9.71645E-05-2.90921E-05-2.91818E-05 1.62005E-06-2.33844E-21-1.08609E-18
 -1      1377 9.91104E-05-2.96868E-05-2.97547E-05 1.03578E-06-1.69365E-19-9.18170E-19
 -1      1378 1.00097E-04-2.99855E-05-3.00465E-05 1.07027E-06-1.48231E-21-9.81364E-19
 -1      1379 9.85155E-05-2.94816E-05-2.95959E-05 1.90507E-06-1.11707E-19-7.62593E-19
 -1      1380 1.00968E-04-3.02367E-05-3.03164E-05 1.22188E-06 2.92056E-19-9.64076E-19
 -1      1381 1.02132E-04-3.05925E-05-3.06597E-05 1.26104E-06 1.31805E-19-5.51643E-19
 -1      1382 1.00096E-04-2.99433E-05-3.00772E-05 2.24628E-06 1.41211E-19-5.56860E-19
 -1      1383 1.03136E-04-3.08852E-05-3.09695E-05 1.41699E-06 1.84353E-19-2.38724E-19
 -1      1384 1.04483E-04-3.13022E-05-3.13649E-05 1.45613E-06 7.70808E-20-2.66359E-19
 -1      1385 1.01933E-04-3.04907E-05-3.06308E-05 2.61796E-06 3.62725E-19-6.21979E-19
 -1      1386 1.05609E-04-3.16362E-05-3.17094E-05 1.58589E-06-1.44074E-19-2.72308E-19
 -1      1387 1.07108E-04-3.21081E-05-3.21463E-05 1.61597E-06-3.21914E-20-4.66470E-19
 -1      1388 1.04028E-04-3.11328E-05-3.12523E-05 2.96577E-06 1.01909E-21-2.62858E-19
 -1      1389 1.08313E-04-3.24752E-05-3.25092E-05 1.66788E-06 2.53072E-20-5.50174E-19
 -1      1390 1.09867E-04-3.29767E-05-3.29578E-05 1.67352E-06-2.60947E-19-7.09046E-19
 -1      1391 1.06333E-04-3.18686E-05-3.19206E-05 3.19295E-06-5.60776E-20-4.94591E-19
 -1      1392 1.11060E-04-3.33561E-05-3.33068E-05 1.57050E-06-1.77119E-19-6.79532E-19
 -1      1393 1.12481E-04-3.38320E-05-3.37097E-05 1.52860E-06-1.99609E-19-7.70747E-19
 -1      1394 1.08725E-04-3.26773E-05-3.25899E-05 3.14722E-06-4.13125E-19-9.02798E-19
 -1      1395 1.13505E-04-3.41837E-05-3.39923E-05 1.17307E-06 5.87695E-20-3.34816E-19
 -1      1396 1.14483E-04-3.45372E-05-3.42592E-05 1.05474E-06 3.65316E-19-1.02862E-19
 -1      1397 1.10972E-04-3.35029E-05-3.31828E-05 2.62013E-06 8.61624E-20-6.42891E-19
 -1      1398 1.15115E-04-3.47950E-05-3.44053E-05 3.56749E-07 1.81821E-19-1.98120E-19
 -1      1399 1.15235E-04-3.48843E-05-3.44203E-05 1.37816E-07-1.35353E-19-2.47367E-19
 -1      1400 1.12709E-04-3.42322E-05-3.35902E-05 1.38325E-06 1.41613E-19-7.21374E-19
 -1      1401 1.15205E-04-3.49535E-05-3.43563E-05-9.17275E-07-2.86092E-19-1.15501E-19
 -1      1402 1.14043E-04-3.46163E-05-3.40097E-05-1.23227E-06-2.80791E-19-6.60553E-19
 -1      1403 1.13444E-04-3.46702E-05-3.36883E-05-7.01635E-07-3.67281E-19-3.40573E-19
 -1      1404 1.13122E-04-3.43894E-05-3.36896E-05-2.48021E-06 2.20394E-19-4.21425E-19
 -1      1405 1.10464E-04-3.35146E-05-3.29420E-05-2.82216E-06 4.34488E-19 5.29396E-20
 -1      1406 1.12654E-04-3.45486E-05-3.33802E-05-3.47833E-06 1.72848E-20 3.29883E-19
 -1      1407 1.08618E-04-3.29267E-05-3.23919E-05-3.84012E-06 3.55109E-19 1.75653E-19
 -1      1408 1.04770E-04-3.15799E-05-3.13478E-05-4.05749E-06 4.38667E-19 7.93458E-19
 -1      1409 1.10015E-04-3.36082E-05-3.26591E-05-6.26322E-06 5.45496E-19 6.86176E-19
 -1      1410 1.02352E-04-3.07110E-05-3.06942E-05-4.25238E-06 5.97942E-19 2.92015E-19
 -1      1411 9.83190E-05-2.92378E-05-2.96307E-05-4.16668E-06 8.45610E-20 5.82547E-19
 -1      1412 1.05785E-04-3.18321E-05-3.16650E-05-7.81940E-06 3.24787E-19 8.61022E-19
 -1      1413 9.61268E-05-2.83888E-05-2.90795E-05-3.13559E-06-4.00362E-19 2.31134E-19
 -1      1414 9.33669E-05-2.73523E-05-2.83661E-05-2.68601E-06-5.10959E-19-5.03746E-19
 -1      1415 1.01107E-04-2.96882E-05-3.06782E-05-6.87573E-06-5.26967E-19-5.58817E-19
 -1      1416 9.23471E-05-2.69415E-05-2.81206E-05-6.51810E-07-2.22717E-19-4.58496E-19
 -1      1417 9.20347E-05-2.68229E-05-2.80404E-05-9.71271E-09-1.61122E-19-5.15770E-19
 -1      1418 9.78058E-05-2.81032E-05-3.00308E-05-3.14454E-06-5.35338E-19-7.46997E-19
 -1      1419 9.26888E-05-2.70876E-05-2.81971E-05 2.14519E-06 3.14990E-19-1.32667E-19
 -1      1420 9.49642E-05-2.79457E-05-2.87834E-05 2.66209E-06 3.93685E-19 4.78785E-19
 -1      1421 9.74282E-05-2.79191E-05-2.99590E-05 2.01207E-06 9.94734E-20 1.06164E-19
 -1      1422 9.69662E-05-2.87304E-05-2.92803E-05 3.96952E-06-9.33854E-20 6.42792E-19
 -1      1423 1.00839E-04-3.01562E-05-3.02964E-05 4.14036E-06-4.08035E-19 5.73918E-19
 -1      1424 1.00163E-04-2.92404E-05-3.04895E-05 6.24536E-06 3.97523E-19 1.73152E-19
 -1      1425 1.03290E-04-3.10542E-05-3.09467E-05 4.20744E-06-1.00281E-18 3.72853E-19
 -1      1426 1.07292E-04-3.24705E-05-3.20253E-05 4.04560E-06-1.02599E-18-7.44013E-19
 -1      1427 1.04697E-04-3.13459E-05-3.14273E-05 7.85651E-06-1.33132E-18-4.87692E-19
 -1      1428 1.09319E-04-3.31378E-05-3.26146E-05 3.16508E-06-7.75260E-19-1.77602E-18
 -1      1429 1.12303E-04-3.41358E-05-3.34461E-05 2.83628E-06-7.40247E-19-2.79685E-18
 -1      1430 1.09165E-04-3.32681E-05-3.24498E-05 6.78137E-06-1.98631E-18-8.20285E-19
 -1      1431 1.13447E-04-3.44444E-05-3.38257E-05 1.59673E-06-5.46773E-19-3.21634E-18
 -1      1432 1.14951E-04-3.49002E-05-3.42660E-05 1.26694E-06-3.99303E-19-3.99519E-18
 -1      1433 1.12227E-04-3.44137E-05-3.32535E-05 4.15989E-06-1.23904E-18-2.15412E-18
 -1      1434 1.15175E-04-3.48913E-05-3.43885E-05 1.47525E-07-7.09655E-20-4.14605E-18
 -1      1435 1.15322E-04-3.48876E-05-3.44503E-05-9.47451E-08 9.38618E-20-3.99217E-18
 -1      1436 1.13437E-04-3.47074E-05-3.36635E-05 1.30475E-06-5.77365E-19-3.29596E-18
 -1      1437 1.14828E-04-3.46666E-05-3.43493E-05-8.73255E-07 5.68405E-20-3.71431E-18
 -1      1438 1.14020E-04-3.43634E-05-3.41332E-05-1.01178E-06 2.25949E-19-3.77192E-18
 -1      1439 1.13024E-04-3.43758E-05-3.36572E-05-9.58791E-07 3.70041E-19-1.95178E-18
 -1      1440 1.13079E-04-3.40307E-05-3.38799E-05-1.43289E-06 7.66935E-19-3.96348E-18
 -1      1441 1.11748E-04-3.35784E-05-3.35050E-05-1.48808E-06 9.09000E-19-3.10922E-18
 -1      1442 1.11494E-04-3.36997E-05-3.33178E-05-2.37124E-06 5.45304E-19-2.82794E-18
 -1      1443 1.10600E-04-3.32073E-05-3.31728E-05-1.63184E-06 8.27205E-19-2.91808E-18
 -1      1444 1.09085E-04-3.27139E-05-3.27372E-05-1.63274E-06 5.26065E-19-2.31977E-18
 -1      1445 1.09364E-04-3.28938E-05-3.27685E-05-3.02437E-06 9.34941E-19-3.31584E-18
 -1      1446 1.07903E-04-3.23504E-05-3.23837E-05-1.59819E-06 4.69760E-19-1.29980E-18
 -1      1447 1.06422E-04-3.18807E-05-3.19528E-05-1.56945E-06 2.93657E-19-1.52375E-18
 -1      1448 1.07032E-04-3.20891E-05-3.21251E-05-3.13807E-06 7.97936E-19-2.35853E-18
 -1      1449 1.05314E-04-3.15500E-05-3.16154E-05-1.43889E-06-2.02192E-19-1.22425E-18
 -1      1450 1.03984E-04-3.11360E-05-3.12257E-05-1.39747E-06-4.53731E-19-1.77882E-18
 -1      1451 1.04765E-04-3.13537E-05-3.14739E-05-2.92945E-06 3.07680E-19-1.42863E-18
 -1      1452 1.03006E-04-3.08494E-05-3.09247E-05-1.22759E-06-8.05868E-19-1.11213E-18
 -1      1453 1.01875E-04-3.05022E-05-3.05916E-05-1.18367E-06-5.72859E-19-2.45947E-18
 -1      1454 1.02712E-04-3.07164E-05-3.08689E-05-2.56316E-06-7.71422E-19-1.05442E-19
 -1      1455 1.01047E-04-3.02624E-05-3.03352E-05-1.00868E-06-2.64239E-19-2.26295E-18
 -1      1456 1.00121E-04-2.99810E-05-3.00616E-05-9.67628E-07-4.10116E-20-2.59651E-18
 -1      1457 1.00940E-04-3.01832E-05-3.03378E-05-2.14634E-06-4.99160E-19-7.37249E-19
 -1      1458 9.94412E-05-2.97857E-05-2.98506E-05-8.05525E-07 2.66320E-19-2.39840E-18
 -1      1459 9.87049E-05-2.95638E-05-2.96324E-05-7.69636E-07 6.41294E-19-2.50078E-18
 -1      1460 9.94640E-05-2.97487E-05-2.98901E-05-1.74029E-06 1.92361E-19-2.08795E-18
 -1      1461 9.81613E-05-2.94083E-05-2.94635E-05-6.27853E-07 1.59246E-19-1.32477E-18
 -1      1462 9.75901E-05-2.92371E-05-2.92939E-05-5.97614E-07-4.02192E-20-1.48215E-18
 -1      1463 9.82677E-05-2.94021E-05-2.95243E-05-1.37479E-06 1.12270E-18-1.56431E-18
 -1      1464 9.71660E-05-2.91159E-05-2.91622E-05-4.77101E-07 8.06689E-19-1.53370E-18
 -1      1465 9.67346E-05-2.89872E-05-2.90340E-05-4.51920E-07 7.92460E-19-6.36230E-19
 -1      1466 9.73215E-05-2.91306E-05-2.92335E-05-1.05957E-06 2.55650E-19 7.10088E-20
 -1      1467 9.64131E-05-2.88950E-05-2.89345E-05-3.49742E-07 3.22327E-19-4.53441E-19
 -1      1468 9.61001E-05-2.88016E-05-2.88417E-05-3.28364E-07 6.81845E-20-4.36736E-19
 -1      1469 9.65918E-05-2.89220E-05-2.90089E-05-7.92172E-07 8.77609E-19 5.36133E-19
 -1      1470 9.58661E-05-2.87339E-05-2.87699E-05-2.39399E-07-3.91230E-19-5.75660E-19
 -1      1471 9.56568E-05-2.86713E-05-2.87080E-05-2.20140E-07-2.48613E-19-7.03993E-19
 -1      1472 9.60469E-05-2.87653E-05-2.88415E-05-5.63034E-07-2.46339E-19 9.98754E-19
 -1      1473 9.54982E-05-2.86246E-05-2.86602E-05-1.39290E-07 4.91725E-19-1.33412E-18
 -1      1474 9.53840E-05-2.85913E-05-2.86257E-05-1.20346E-07-3.85706E-20-1.06359E-18
 -1      1475 9.56604E-05-2.86524E-05-2.87235E-05-3.59681E-07-3.96494E-19-7.81175E-19
 -1      1476 9.52865E-05-2.85600E-05-2.85970E-05-4.57557E-08-2.95272E-19-5.06049E-19
 -1      1477 9.52610E-05-2.85611E-05-2.85831E-05-2.66088E-08-3.16775E-19-1.15224E-18
 -1      1478 9.54079E-05-2.85783E-05-2.86459E-05-1.75179E-07 3.15067E-19-1.03728E-18
 -1      1479 9.52218E-05-2.85744E-05-2.85565E-05 2.05760E-08 1.65296E-20-1.76883E-19
 -1      1480 9.52667E-05-2.85666E-05-2.85857E-05-1.51410E-08 3.95899E-19-3.68161E-19
 -1      1481 9.64071E-05-2.83128E-05-2.97209E-05 2.99146E-06 7.90493E-19 5.79349E-18
 -1      1482 1.02360E-04-2.93464E-05-3.21022E-05 4.45763E-06 7.15690E-19 7.05578E-18
 -1      1483 1.02176E-04-2.66763E-05-3.26591E-05 1.27684E-05 1.44165E-18 4.49838E-18
 -1      1484 9.18725E-05-2.73815E-05-2.77144E-05 1.14697E-06 5.64495E-19 4.35007E-18
 -1      1485 9.38147E-05-2.75357E-05-2.86269E-05 1.46894E-06 5.40116E-19 5.22414E-18
 -1      1486 9.63501E-05-2.79893E-05-2.94926E-05 4.85708E-06 1.16054E-18 3.39345E-18
 -1      1487 9.00568E-05-2.69612E-05-2.70210E-05 3.23142E-07 4.33482E-19 3.14233E-18
 -1      1488 9.06648E-05-2.69768E-05-2.72912E-05 4.86568E-07 4.20201E-19 3.82896E-18
 -1      1489 9.29229E-05-2.75419E-05-2.80635E-05 1.83727E-06 1.00534E-18 2.42422E-18
 -1      1490 8.95683E-05-2.68510E-05-2.68543E-05-7.07919E-08 4.10606E-19 2.19462E-18
 -1      1491 8.95927E-05-2.67847E-05-2.68783E-05 1.96459E-08 3.61619E-19 2.82088E-18
 -1      1492 9.13961E-05-2.72774E-05-2.74883E-05 4.92983E-07 7.81401E-19 1.56696E-18
 -1      1493 8.97492E-05-2.69173E-05-2.69113E-05-2.69614E-07 1.11813E-19 1.59819E-18
 -1      1494 8.94973E-05-2.68023E-05-2.68389E-05-2.17001E-07 2.06846E-19 1.91518E-18
 -1      1495 9.09066E-05-2.72076E-05-2.73057E-05-1.74837E-07 5.59005E-19 1.17033E-18
 -1      1496 9.02817E-05-2.70824E-05-2.70742E-05-3.70202E-07-9.25243E-20 1.49082E-18
 -1      1497 8.98951E-05-2.69426E-05-2.69603E-05-3.38703E-07-7.00415E-20 1.36661E-18
 -1      1498 9.09907E-05-2.72685E-05-2.73160E-05-5.21426E-07 8.25559E-20 7.35387E-19
 -1      1499 9.10006E-05-2.73005E-05-2.72918E-05-4.19862E-07 2.96883E-19 1.16263E-18
 -1      1500 9.05495E-05-2.71498E-05-2.71587E-05-4.00352E-07 1.92284E-19 1.45176E-18
 -1      1501 9.13972E-05-2.74083E-05-2.74299E-05-7.02430E-07 2.21899E-19 4.86741E-19
 -1      1502 9.18215E-05-2.75470E-05-2.75399E-05-4.45785E-07 1.33832E-19 5.95319E-19
 -1      1503 9.13396E-05-2.73921E-05-2.73972E-05-4.32412E-07 1.78092E-19 9.47949E-19
 -1      1504 9.19898E-05-2.75940E-05-2.76034E-05-7.98464E-07 4.48476E-19 3.26425E-19
 -1      1505 9.27085E-05-2.78115E-05-2.78083E-05-4.65692E-07 3.63998E-19 2.18144E-19
 -1      1506 9.22071E-05-2.76537E-05-2.76592E-05-4.54285E-07 1.53773E-19 5.15049E-19
 -1      1507 9.26973E-05-2.78079E-05-2.78146E-05-8.57450E-07 2.82354E-19 6.07515E-20
 -1      1508 9.36577E-05-2.80933E-05-2.80959E-05-4.92135E-07 1.32659E-20 1.08175E-19
 -1      1509 9.31334E-05-2.79298E-05-2.79393E-05-4.79483E-07 1.46890E-19 1.15044E-19
 -1      1510 9.34901E-05-2.80426E-05-2.80538E-05-9.11128E-07 3.21610E-19-1.47327E-19
 -1      1511 9.46886E-05-2.83985E-05-2.84084E-05-5.34489E-07 2.28085E-19-1.73066E-19
 -1      1512 9.41267E-05-2.82235E-05-2.82401E-05-5.17963E-07 8.70256E-20 5.50571E-21
 -1      1513 9.43657E-05-2.82988E-05-2.83199E-05-9.82138E-07 1.82610E-19-1.06614E-19
 -1      1514 9.58374E-05-2.87381E-05-2.87567E-05-5.99797E-07 4.07451E-19-7.66945E-19
 -1      1515 9.52148E-05-2.85435E-05-2.85700E-05-5.77184E-07 3.33354E-19-4.19834E-19
 -1      1516 9.53420E-05-2.85825E-05-2.86179E-05-1.08722E-06 4.66413E-19-3.63399E-19
 -1      1517 9.71521E-05-2.91271E-05-2.91550E-05-6.92878E-07 2.40096E-19-1.47456E-18
 -1      1518 9.64398E-05-2.89031E-05-2.89414E-05-6.62373E-07 2.82917E-19-1.13353E-18
 -1      1519 9.64501E-05-2.89040E-05-2.89567E-05-1.23838E-06 6.81685E-19-9.28692E-19
 -1      1520 9.86873E-05-2.95823E-05-2.96195E-05-8.15655E-07 3.88592E-19-2.81639E-18
 -1      1521 9.78529E-05-2.93183E-05-2.93695E-05-7.76053E-07 4.77634E-19-1.99071E-18
 -1      1522 9.77303E-05-2.92762E-05-2.93480E-05-1.44257E-06 8.09117E-19-1.90513E-18
 -1      1523 1.00496E-04-3.01206E-05-3.01652E-05-9.65494E-07-4.18586E-19-2.61242E-18
 -1      1524 9.95081E-05-2.98066E-05-2.98702E-05-9.16678E-07-1.90235E-19-2.82091E-18
 -1      1525 9.92249E-05-2.97135E-05-2.98035E-05-1.69966E-06 7.97981E-20-2.18324E-18
 -1      1526 1.02616E-04-3.07555E-05-3.08029E-05-1.13219E-06 6.79281E-21-2.78225E-18
 -1      1527 1.01452E-04-3.03840E-05-3.04566E-05-1.07604E-06-6.23165E-20-2.67698E-18
 -1      1528 1.00971E-04-3.02295E-05-3.03326E-05-1.99834E-06 1.31191E-20-2.47107E-18
 -1      1529 1.05053E-04-3.14911E-05-3.15318E-05-1.29318E-06 3.90396E-19-2.71046E-18
 -1      1530 1.03710E-04-3.10617E-05-3.11346E-05-1.23512E-06 1.58738E-19-2.73966E-18
 -1      1531 1.02985E-04-3.08339E-05-3.09379E-05-2.30912E-06-4.61658E-20-2.54548E-18
 -1      1532 1.07746E-04-3.23140E-05-3.23308E-05-1.40699E-06-2.21178E-19-3.32726E-18
 -1      1533 1.06260E-04-3.18388E-05-3.18950E-05-1.35822E-06 2.33598E-19-3.05888E-18
 -1      1534 1.05246E-04-3.15276E-05-3.16087E-05-2.57431E-06 5.42772E-19-1.58448E-18
 -1      1535 1.10528E-04-3.31794E-05-3.31449E-05-1.40618E-06-5.54936E-19-1.97438E-18
 -1      1536 1.08999E-04-3.26927E-05-3.27027E-05-1.38642E-06-6.31166E-19-2.93989E-18
 -1      1537 1.07669E-04-3.22949E-05-3.23127E-05-2.69577E-06-8.08571E-19-2.16416E-18
 -1      1538 1.13073E-04-3.39950E-05-3.38721E-05-1.19474E-06 1.29139E-19-1.45535E-18
 -1      1539 1.11698E-04-3.35638E-05-3.34840E-05-1.23396E-06 1.44823E-19-1.33131E-18
 -1      1540 1.10067E-04-3.30925E-05-3.29864E-05-2.52593E-06-2.17171E-19-1.28697E-18
 -1      1541 1.14864E-04-3.46047E-05-3.43559E-05-6.61078E-07 2.39849E-19-1.73078E-18
 -1      1542 1.13956E-04-3.43372E-05-3.41148E-05-7.96785E-07-2.68073E-20-1.48430E-18
 -1      1543 1.12126E-04-3.38336E-05-3.35290E-05-1.87554E-06-2.24464E-20-9.95793E-19
 -1      1544 1.15210E-04-3.47864E-05-3.44001E-05 2.75140E-07-5.33234E-20-2.26519E-18
 -1      1545 1.15186E-04-3.48270E-05-3.44224E-05 1.14566E-08 2.87832E-19-1.55009E-18
 -1      1546 1.13384E-04-3.43715E-05-3.38069E-05-5.64127E-07 4.23516E-19-6.05296E-19
 -1      1547 1.13412E-04-3.42898E-05-3.38256E-05 1.56762E-06-5.17842E-19-1.11845E-18
 -1      1548 1.14686E-04-3.47837E-05-3.42159E-05 1.18047E-06-6.25269E-19-2.00086E-18
 -1      1549 1.13291E-04-3.44952E-05-3.36828E-05 1.45649E-06-4.53374E-19-6.53929E-19
 -1      1550 1.09118E-04-3.29491E-05-3.25750E-05 2.92280E-06-6.81196E-19 4.82385E-19
 -1      1551 1.11874E-04-3.39577E-05-3.33615E-05 2.49256E-06-7.88799E-19-8.15640E-19
 -1      1552 1.11378E-04-3.39665E-05-3.30750E-05 3.90653E-06-1.29836E-18-3.82647E-19
 -1      1553 1.02817E-04-3.08706E-05-3.08313E-05 3.76171E-06-2.51499E-19 1.42545E-18
 -1      1554 1.06709E-04-3.22562E-05-3.18940E-05 3.45958E-06-2.14180E-19 9.98546E-19
 -1      1555 1.07575E-04-3.26426E-05-3.20355E-05 6.01726E-06-8.96459E-19 1.10916E-18
 -1      1556 9.61605E-05-2.85951E-05-2.90579E-05 3.43751E-06-1.18869E-19 1.66892E-18
 -1      1557 1.00144E-04-2.99569E-05-3.01084E-05 3.45939E-06-1.13066E-19 1.34911E-18
 -1      1558 1.02586E-04-3.06878E-05-3.08009E-05 6.65557E-06-2.22141E-19 1.31007E-18
 -1      1559 9.15845E-05-2.70029E-05-2.78644E-05 1.73059E-06-4.01097E-19 1.64878E-18
 -1      1560 9.41941E-05-2.77962E-05-2.85353E-05 2.14891E-06-7.03302E-20 1.33323E-18
 -1      1561 9.79841E-05-2.87240E-05-2.97513E-05 4.95508E-06 2.04903E-19 2.08636E-18
 -1      1562 9.10785E-05-2.68435E-05-2.77186E-05-7.69289E-07 2.95767E-19 1.00113E-18
 -1      1563 9.11874E-05-2.66924E-05-2.77429E-05-1.12094E-07-2.31094E-19 1.09437E-18
 -1      1564 9.56466E-05-2.76475E-05-2.92609E-05 1.16507E-06 3.71106E-20 1.33718E-18
 -1      1565 9.48867E-05-2.81997E-05-2.86802E-05-2.91426E-06 8.21476E-19-3.56760E-19
 -1      1566 9.24415E-05-2.71709E-05-2.80479E-05-2.32614E-06 8.58746E-19 7.36998E-19
 -1      1567 9.66571E-05-2.80493E-05-2.95142E-05-3.14973E-06 1.02449E-18-1.27148E-19
 -1      1568 1.01322E-04-3.04171E-05-3.03660E-05-3.80903E-06 7.44488E-19-3.08458E-18
 -1      1569 9.73833E-05-2.89752E-05-2.93300E-05-3.52430E-06 1.04843E-18-1.51592E-18
 -1      1570 1.00537E-04-2.97250E-05-3.04110E-05-6.06168E-06 1.94115E-18-1.30020E-18
 -1      1571 1.07914E-04-3.25970E-05-3.21722E-05-3.36606E-06 1.72434E-19-3.52207E-18
 -1      1572 1.03954E-04-3.12812E-05-3.11000E-05-3.41134E-06 1.13602E-19-3.29919E-18
 -1      1573 1.05595E-04-3.18316E-05-3.16240E-05-6.59918E-06 6.30054E-19-2.19535E-18
 -1      1574 1.12761E-04-3.41112E-05-3.35805E-05-2.12900E-06 8.05283E-19-4.53287E-18
 -1      1575 1.09881E-04-3.32559E-05-3.27687E-05-2.37590E-06 3.77830E-19-3.66972E-18
 -1      1576 1.10028E-04-3.35326E-05-3.27623E-05-5.13179E-06 4.10361E-19-2.62392E-18
 -1      1577 1.15126E-04-3.47764E-05-3.43352E-05-7.56902E-07-5.40606E-19-3.38368E-18
 -1      1578 1.13729E-04-3.44459E-05-3.39154E-05-1.05058E-06-1.49217E-19-4.09427E-18
 -1      1579 1.12753E-04-3.44284E-05-3.35360E-05-2.75080E-06 2.55751E-19-2.99007E-18
 -1      1580 1.15228E-04-3.47229E-05-3.44432E-05 3.34447E-07-1.42774E-18-9.47241E-19
 -1      1581 1.15155E-04-3.48095E-05-3.43947E-05 9.15837E-08-1.03248E-18-2.60939E-18
 -1      1582 1.13564E-04-3.45553E-05-3.38321E-05-4.55851E-07-1.49138E-18-1.39392E-18
 -1      1583 1.13733E-04-3.41949E-05-3.40647E-05 1.01617E-06 1.43430E-19-6.87936E-19
 -1      1584 1.14574E-04-3.45393E-05-3.42854E-05 8.56454E-07 2.48485E-21-5.23969E-19
 -1      1585 1.12816E-04-3.41502E-05-3.36929E-05 1.22847E-06-7.33769E-19-1.31419E-18
 -1      1586 1.11352E-04-3.34237E-05-3.33982E-05 1.33392E-06 8.76513E-19-2.59769E-18
 -1      1587 1.12684E-04-3.38863E-05-3.37714E-05 1.25057E-06 5.47529E-19-1.17863E-18
 -1      1588 1.11056E-04-3.34596E-05-3.32426E-05 2.20253E-06 8.49160E-19-1.51862E-18
 -1      1589 1.08648E-04-3.25791E-05-3.26134E-05 1.39518E-06-1.08703E-18-2.85021E-18
 -1      1590 1.10146E-04-3.30638E-05-3.30439E-05 1.36712E-06-2.16076E-19-2.93440E-18
 -1      1591 1.08795E-04-3.26670E-05-3.26197E-05 2.59309E-06-4.10158E-20-1.46862E-18
 -1      1592 1.05992E-04-3.17662E-05-3.18276E-05 1.30463E-06-4.16454E-19-2.04431E-18
 -1      1593 1.07447E-04-3.22177E-05-3.22521E-05 1.31066E-06-4.43047E-19-2.77570E-18
 -1      1594 1.06415E-04-3.18857E-05-3.19385E-05 2.59085E-06-7.04019E-19-2.06320E-18
 -1      1595 1.03589E-04-3.10403E-05-3.11086E-05 1.14056E-06 3.66470E-19-1.96727E-18
 -1      1596 1.04891E-04-3.14327E-05-3.14919E-05 1.16449E-06-9.66527E-20-1.77750E-18
 -1      1597 1.04156E-04-3.11760E-05-3.12769E-05 2.36572E-06-1.51119E-19-1.40766E-18
 -1      1598 1.01527E-04-3.04229E-05-3.04875E-05 9.53239E-07-5.41706E-19-1.73899E-18
 -1      1599 1.02632E-04-3.07489E-05-3.08148E-05 9.84417E-07 1.90237E-19-1.63575E-18
 -1      1600 1.02146E-04-3.05633E-05-3.06794E-05 2.04009E-06 2.00057E-19 1.97498E-19
 -1      1601 9.98243E-05-2.99159E-05-2.99721E-05 7.71094E-07 2.00858E-19-6.17719E-19
 -1      1602 1.00728E-04-3.01780E-05-3.02409E-05 8.03248E-07-8.84377E-19-1.34079E-18
 -1      1603 1.00435E-04-3.00529E-05-3.01656E-05 1.69068E-06-8.56426E-19-3.85328E-19
 -1      1604 9.84573E-05-2.95106E-05-2.95574E-05 6.07747E-07 3.10044E-20-1.80222E-18
 -1      1605 9.91753E-05-2.97161E-05-2.97716E-05 6.37659E-07 6.51210E-19-7.46203E-19
 -1      1606 9.90272E-05-2.96390E-05-2.97397E-05 1.35973E-06 6.50422E-19-4.42107E-19
 -1      1607 9.73872E-05-2.91942E-05-2.92323E-05 4.67542E-07 9.86474E-19-1.99724E-18
 -1      1608 9.79438E-05-2.93515E-05-2.93986E-05 4.93986E-07 7.41618E-19-8.48820E-19
 -1      1609 9.78985E-05-2.93108E-05-2.93968E-05 1.06627E-06 1.06939E-18-3.62139E-19
 -1      1610 9.65715E-05-2.89531E-05-2.89845E-05 3.49199E-07-1.08767E-18-7.26485E-19
 -1      1611 9.69914E-05-2.90703E-05-2.91100E-05 3.72274E-07-4.09633E-19-2.31405E-18
 -1      1612 9.70162E-05-2.90558E-05-2.91280E-05 8.14759E-07-8.57654E-20 5.92458E-19
 -1      1613 9.59729E-05-2.87758E-05-2.88031E-05 2.48095E-07 9.55183E-19-9.75278E-19
 -1      1614 9.62765E-05-2.88591E-05-2.88936E-05 2.68805E-07 1.45297E-19-1.28858E-18
 -1      1615 9.63459E-05-2.88624E-05-2.89238E-05 6.00798E-07-3.99197E-20-1.63477E-18
 -1      1616 9.55636E-05-2.86540E-05-2.86798E-05 1.57986E-07-9.84345E-21-2.08979E-18
 -1      1617 9.57649E-05-2.87071E-05-2.87395E-05 1.77984E-07 5.67701E-19-1.53733E-18
 -1      1618 9.58572E-05-2.87205E-05-2.87757E-05 4.15050E-07 1.16923E-18-4.35515E-19
 -1      1619 9.53249E-05-2.85829E-05-2.86072E-05 7.23736E-08-8.17621E-19-1.06669E-18
 -1      1620 9.54314E-05-2.86069E-05-2.86397E-05 9.42603E-08-7.07540E-19-2.09124E-18
 -1      1621 9.55251E-05-2.86224E-05-2.86760E-05 2.47106E-07-3.56939E-19-1.49560E-19
 -1      1622 9.52385E-05-2.85632E-05-2.85720E-05-9.50792E-10 1.94592E-19-7.33516E-19
 -1      1623 9.52576E-05-2.85587E-05-2.85847E-05 1.89597E-08 1.10165E-19-5.52677E-19
 -1      1624 9.53282E-05-2.85680E-05-2.86142E-05 9.17562E-08 3.26858E-20-2.36774E-19
 -1      1625 9.52256E-05-2.85758E-05-2.85575E-05-1.68718E-08-1.02215E-20-4.28233E-19
 -1      1626 9.52438E-05-2.85165E-05-2.85998E-05 5.22018E-08 1.18650E-18 5.16043E-19
 -1      1627 9.52499E-05-2.85485E-05-2.85841E-05 3.34106E-08-1.18169E-19 1.39050E-18
 -1      1628 9.51805E-05-2.83179E-05-2.86577E-05 1.35337E-07 3.00183E-18 1.11898E-18
 -1      1629 9.52165E-05-2.84277E-05-2.86255E-05 1.19187E-07 1.84758E-18 4.89027E-19
 -1      1630 9.52313E-05-2.84042E-05-2.86435E-05 1.74292E-07 8.58523E-19 1.48359E-18
 -1      1631 9.50812E-05-2.80194E-05-2.87421E-05 1.94407E-07 2.53131E-18-1.11221E-18
 -1      1632 9.51375E-05-2.81882E-05-2.86941E-05 1.85023E-07 3.52185E-18 9.58434E-19
 -1      1633 9.51511E-05-2.81812E-05-2.87050E-05 3.14757E-07 1.12859E-19 1.37075E-18
 -1      1634 9.49661E-05-2.76716E-05-2.88409E-05 2.15944E-07 1.54974E-19-1.56011E-18
 -1      1635 9.50304E-05-2.78656E-05-2.87857E-05 2.14775E-07 2.10202E-18-5.06072E-19
 -1      1636 9.50471E-05-2.78935E-05-2.87815E-05 3.98325E-07 1.13977E-18-2.21461E-18
 -1      1637 9.48572E-05-2.73398E-05-2.89360E-05 1.99532E-07-2.88068E-18-1.75712E-18
 -1      1638 9.49166E-05-2.75203E-05-2.88844E-05 2.05589E-07-6.62608E-19-2.26033E-18
 -1      1639 9.49362E-05-2.75850E-05-2.88637E-05 4.08984E-07-6.60551E-19-3.40288E-18
 -1      1640 9.47682E-05-2.70672E-05-2.90145E-05 1.49846E-07-3.65230E-18 8.39667E-20
 -1      1641 9.48148E-05-2.72090E-05-2.89739E-05 1.61964E-07-3.13522E-18-1.48453E-18
 -1      1642 9.48353E-05-2.73009E-05-2.89401E-05 3.50380E-07-1.08245E-18-2.90714E-18
 -1      1643 9.47150E-05-2.69035E-05-2.90618E-05 7.62428E-08-3.91377E-18-1.65050E-19
 -1      1644 9.47402E-05-2.69802E-05-2.90398E-05 9.21557E-08-4.49976E-18 1.08929E-18
 -1      1645 9.47581E-05-2.70821E-05-2.89992E-05 2.34462E-07-1.77355E-18-5.48409E-19
 -1      1646 9.47055E-05-2.68739E-05-2.90704E-05-9.24170E-09-3.15428E-19 2.33240E-18
 -1      1647 9.47053E-05-2.68733E-05-2.90706E-05 7.97247E-09-3.35761E-18 1.95865E-18
 -1      1648 9.47167E-05-2.69644E-05-2.90311E-05 8.15845E-08-4.10779E-19 1.76429E-18
 -1      1649 9.47410E-05-2.69827E-05-2.90390E-05-9.33407E-08-2.52800E-18-1.39656E-18
 -1      1650 9.47154E-05-2.69049E-05-2.90613E-05-7.74593E-08-1.08953E-18 3.48887E-19
 -1      1651 9.47170E-05-2.69652E-05-2.90308E-05-8.39842E-08-4.57871E-19 1.75681E-18
 -1      1652 9.48161E-05-2.72132E-05-2.89726E-05-1.62896E-07-4.76404E-18-1.93198E-18
 -1      1653 9.47693E-05-2.70705E-05-2.90135E-05-1.50887E-07-2.47858E-18-2.09429E-18
 -1      1654 9.47589E-05-2.70845E-05-2.89985E-05-2.36613E-07-1.94898E-18-2.41567E-18
 -1      1655 9.49175E-05-2.75228E-05-2.88837E-05-2.05759E-07-5.55582E-18 1.11353E-18
 -1      1656 9.48578E-05-2.73419E-05-2.89354E-05-1.99802E-07-5.28699E-18-7.62971E-19
 -1      1657 9.48360E-05-2.73024E-05-2.89397E-05-3.51364E-07-1.57568E-18-2.07063E-18
 -1      1658 9.50322E-05-2.78711E-05-2.87841E-05-2.14634E-07-3.94675E-18 4.07221E-19
 -1      1659 9.49679E-05-2.76771E-05-2.88394E-05-2.15969E-07-5.35559E-18 2.56019E-18
 -1      1660 9.49370E-05-2.75871E-05-2.88632E-05-4.09270E-07-2.47405E-18 2.21161E-18
 -1      1661 9.51388E-05-2.81931E-05-2.86927E-05-1.84452E-07-6.02222E-19 1.43028E-18
 -1      1662 9.50829E-05-2.80246E-05-2.87405E-05-1.93691E-07-2.32178E-18 1.50596E-18
 -1      1663 9.50489E-05-2.78983E-05-2.87802E-05-3.97625E-07-3.27646E-19 2.68246E-18
 -1      1664 9.52193E-05-2.84296E-05-2.86248E-05-1.19554E-07 1.05500E-18 9.05156E-19
 -1      1665 9.51804E-05-2.83205E-05-2.86567E-05-1.36338E-07 2.71009E-19 7.52403E-19
 -1      1666 9.51508E-05-2.81835E-05-2.87039E-05-3.12831E-07 5.82836E-19 1.40723E-18
 -1      1667 9.52564E-05-2.85252E-05-2.85964E-05-6.28191E-08 2.84208E-19-1.06564E-18
 -1      1668 9.52476E-05-2.84885E-05-2.86131E-05-8.93571E-08 8.38941E-19 5.92960E-19
 -1      1669 9.52416E-05-2.83747E-05-2.86583E-05-2.18308E-07 3.01515E-19 9.89402E-19
 -1      1670 9.53057E-05-2.84930E-05-2.86318E-05-1.37073E-07-1.41348E-19-1.77781E-18
 -1      1671 2.03247E-05-6.67116E-05 1.38399E-05-6.62013E-06-1.87830E-18 3.22296E-19
 -1      1672 2.35954E-05-7.59176E-05 1.57764E-05 1.58054E-06-3.19988E-18-8.47033E-22
 -1      1673 2.00878E-05-3.81681E-05 3.60317E-06 4.06105E-06 7.53859E-20 1.57199E-18
 -1      1674 2.42744E-05-6.05952E-05 9.64105E-06 1.65458E-07-1.86771E-18 8.70644E-19
 -1      1675 3.38673E-05-9.61270E-06-1.23688E-05 2.84208E-05 1.01220E-18 9.98228E-19
 -1      1676 2.77290E-05-3.09484E-05-3.36010E-06 9.72139E-06 6.67462E-19 3.67612E-19
 -1      1677 7.93194E-05-4.95856E-06-3.10885E-05 5.90120E-05 1.87872E-18 4.25041E-18
 -1      1678 5.49265E-05-9.89883E-06-2.15040E-05 3.74630E-05 5.20078E-19 2.58260E-18
 -1      1679 1.41436E-04-1.72041E-05-4.96961E-05 7.61205E-05 2.31579E-18 3.68290E-18
 -1      1680 1.00176E-04-5.12920E-06-4.02844E-05 6.36340E-05 3.09506E-18 3.40423E-18
 -1      1681 2.07705E-04-4.33012E-05-6.48074E-05 6.56972E-05 2.02748E-18 1.69152E-18
 -1      1682 1.65106E-04-2.25293E-05-5.77640E-05 7.49960E-05 2.36153E-18 3.08235E-18
 -1      1683 2.47129E-04-6.18006E-05-7.30183E-05 2.52815E-05 1.70190E-18-1.07404E-18
 -1      1684 2.23581E-04-4.86601E-05-6.95974E-05 5.28372E-05 1.58003E-18 8.48727E-19
 -1      1685 2.46025E-04-5.99852E-05-7.37588E-05-2.56755E-05 2.12902E-18-4.76795E-18
 -1      1686 2.51761E-04-6.31829E-05-7.44181E-05 9.80435E-06 2.02949E-18-1.82832E-18
 -1      1687 1.96032E-04-3.61298E-05-6.45524E-05-6.03025E-05 4.14554E-18-7.74442E-18
 -1      1688 2.31677E-04-5.47308E-05-7.01944E-05-3.73139E-05 2.74555E-18-6.24856E-18
 -1      1689 1.34421E-04-1.19165E-05-5.05426E-05-7.37309E-05 5.83690E-18-9.21741E-18
 -1      1690 1.77487E-04-3.05487E-05-5.85005E-05-7.42090E-05 4.38530E-18-9.49947E-18
 -1      1691 7.74510E-05-5.37099E-06-3.17041E-05-5.20265E-05 7.18453E-18-7.53605E-18
 -1      1692 1.13032E-04-1.02606E-05-4.17552E-05-7.07229E-05 6.11050E-18-7.90705E-18
 -1      1693 3.74676E-05-1.52151E-05-1.30077E-05-2.39394E-05 6.68055E-18-6.65344E-18
 -1      1694 5.32203E-05-2.39997E-06-2.23253E-05-4.60133E-05 7.75713E-18-7.53182E-18
 -1      1695 2.47252E-05-4.34093E-05 2.61541E-06-2.91243E-06 3.20263E-18-3.80890E-18
 -1      1696 2.47158E-05-2.05510E-05-4.88840E-06-1.51227E-05 6.05120E-18-5.91864E-18
 -1      1697 2.38493E-05-6.85272E-05 1.28001E-05 9.66172E-07-7.36495E-19-8.26281E-19
 -1      1698 1.87250E-05-4.97496E-05 8.28161E-06 2.49657E-06 1.96850E-18-2.34893E-18
 -1      1699 2.31197E-05-7.58743E-05 1.60053E-05-3.82494E-06-5.38565E-18-1.50391E-18
 -1      1700 2.19742E-05-7.28753E-05 1.54164E-05 5.51891E-06-1.93060E-18-1.43572E-18
 -1      1701 1.91988E-05-5.98674E-05 1.17692E-05-6.05829E-06-7.39036E-18-2.24930E-18
 -1      1702 2.39102E-05-7.40168E-05 1.48100E-05-5.94370E-07-6.46011E-18-1.42217E-18
 -1      1703 2.25638E-05-3.01875E-05-3.09747E-07 9.73585E-06-7.33615E-18-4.57482E-18
 -1      1704 2.49441E-05-5.35612E-05 6.65510E-06 1.61103E-06-7.23281E-18-2.90797E-18
 -1      1705 4.14576E-05-6.27817E-06-1.65234E-05 3.57251E-05-7.75035E-18-6.40188E-18
 -1      1706 3.13919E-05-2.30942E-05-7.70743E-06 1.58913E-05-7.53182E-18-5.11608E-18
 -1      1707 9.65233E-05-1.00012E-05-3.57575E-05 6.30826E-05-6.58229E-18-6.99141E-18
 -1      1708 6.68447E-05-1.05451E-05-2.57284E-05 4.27374E-05-7.10237E-18-6.51030E-18
 -1      1709 1.58542E-04-2.40457E-05-5.36629E-05 7.38556E-05-4.65233E-18-5.85893E-18
 -1      1710 1.16729E-04-9.44506E-06-4.48900E-05 6.63798E-05-6.35317E-18-6.86520E-18
 -1      1711 2.19202E-04-4.83718E-05-6.71730E-05 5.94693E-05-2.53170E-18-3.64478E-18
 -1      1712 1.80470E-04-2.88184E-05-6.10832E-05 7.27985E-05-4.06703E-18-5.55992E-18
 -1      1713 2.52775E-04-6.44417E-05-7.39608E-05 1.88780E-05-1.00649E-18-5.78524E-19
 -1      1714 2.34075E-04-5.38422E-05-7.13293E-05 4.74890E-05-1.97581E-18-2.30012E-18
 -1      1715 2.47479E-04-6.08219E-05-7.37075E-05-2.94419E-05-1.33154E-18 2.21838E-18
 -1      1716 2.55619E-04-6.53587E-05-7.47541E-05 3.11080E-06-1.08823E-18 4.97579E-19
 -1      1717 2.02258E-04-3.88407E-05-6.55424E-05-6.19199E-05-3.37299E-18 5.20756E-18
 -1      1718 2.34110E-04-5.56673E-05-7.04274E-05-4.10457E-05-1.96353E-18 2.74354E-18
 -1      1719 1.43044E-04-1.48632E-05-5.24837E-05-7.47410E-05-4.29785E-18 6.66954E-18
 -1      1720 1.84277E-04-3.32395E-05-5.99236E-05-7.32519E-05-3.08722E-18 6.66530E-18
 -1      1721 8.46231E-05-2.32873E-06-3.54761E-05-5.90731E-05-6.77711E-18 7.14557E-18
 -1      1722 1.20212E-04-9.87049E-06-4.45407E-05-7.47999E-05-5.61583E-18 6.52469E-18
 -1      1723 4.48152E-05-1.00465E-05-1.75841E-05-3.16695E-05-8.23401E-18 6.23924E-18
 -1      1724 6.39911E-05-1.16132E-06-2.67098E-05-5.31701E-05-7.48015E-18 7.11338E-18
 -1      1725 2.88590E-05-3.67962E-05-1.29286E-06-9.02051E-06-6.54502E-18 4.11489E-18
 -1      1726 3.29054E-05-1.62218E-05-9.40972E-06-2.44740E-05-7.44627E-18 5.94151E-18
 -1      1727 2.34133E-05-6.24014E-05 1.04668E-05 2.01453E-06-3.90990E-18 2.50399E-18
 -1      1728 1.86500E-05-4.18858E-05 5.36266E-06 7.07501E-08-5.34562E-18 3.61090E-18
 -1      1729 2.33512E-05-7.46573E-05 1.55290E-05-1.66488E-06-3.42593E-18-1.29173E-20
 -1      1730 2.05231E-05-6.60569E-05 1.36501E-05 5.62080E-06-3.57490E-18 1.04990E-18
 -1      1731 1.17080E-04-3.30776E-05-3.51651E-05 4.37874E-05 6.64921E-20 1.80672E-18
 -1      1732 7.44175E-05-3.48874E-05-1.79265E-05 3.97843E-05-1.05879E-19 1.87745E-18
 -1      1733 9.52541E-05-2.85768E-05-2.85744E-05-5.86069E-09-5.80078E-19-4.06725E-21
 -1      1734 9.52652E-05-2.85187E-05-2.86050E-05 5.57947E-08 2.33956E-19 1.05580E-18
 -1      1735 1.86494E-05-4.71156E-05 8.05163E-06 1.48314E-05-2.03457E-18 1.63668E-18
 -1      1736 3.91688E-05-4.06389E-05-2.41807E-06 2.77914E-05-1.48824E-18 7.24848E-19
 -1      1737 1.15869E-05-5.02356E-05 1.18299E-05-3.60692E-07-2.44321E-18 8.24587E-19
 -1      1738 1.58534E-04-3.12958E-05-5.15819E-05 4.23792E-05 1.84272E-18 6.54756E-19
 -1      1739 1.93184E-04-3.30828E-05-6.38917E-05 2.92186E-05 2.07269E-18-9.52489E-19
 -1      1740 2.08896E-04-3.36078E-05-6.97215E-05 7.47972E-06 3.14419E-18-1.64494E-18
 -1      1741 2.00109E-04-3.17205E-05-6.76243E-05-1.15662E-05 3.35425E-18-2.99087E-18
 -1      1742 1.77155E-04-3.11669E-05-5.87160E-05-3.23642E-05 4.02584E-18-5.11862E-18
 -1      1743 1.40171E-04-3.16357E-05-4.44250E-05-4.34628E-05 4.02298E-18-5.78185E-18
 -1      1744 9.67786E-05-3.25619E-05-2.73828E-05-4.34519E-05 4.27159E-18-5.17029E-18
 -1      1745 5.57144E-05-3.58280E-05-1.06165E-05-3.42589E-05 2.83333E-18-5.37569E-18
 -1      1746 2.90872E-05-4.35305E-05 2.55112E-06-2.17666E-05 1.10495E-18-4.34591E-18
 -1      1747 1.46636E-05-4.93487E-05 1.03864E-05-8.86829E-06-9.90605E-19-3.02306E-18
 -1      1748 1.27296E-05-5.12663E-05 1.17447E-05 4.02871E-06-2.55275E-18-2.85027E-18
 -1      1749 2.34034E-05-4.55613E-05 5.68228E-06 1.87143E-05-4.11700E-18-2.09365E-18
 -1      1750 4.71928E-05-3.89856E-05-6.06291E-06 3.14034E-05-4.26905E-18-3.48215E-18
 -1      1751 8.65582E-05-3.57945E-05-2.21178E-05 4.14915E-05-4.46048E-18-4.25126E-18
 -1      1752 1.29616E-04-3.55916E-05-3.90906E-05 4.06149E-05-4.42321E-18-3.49486E-18
 -1      1753 1.67506E-04-3.23064E-05-5.47699E-05 3.80144E-05-4.58764E-18-3.14673E-18
 -1      1754 1.99849E-04-3.44933E-05-6.58648E-05 2.67173E-05-3.35298E-18-2.40557E-18
 -1      1755 2.13852E-04-3.58387E-05-7.05731E-05 5.03802E-06-2.43564E-18-4.60680E-19
 -1      1756 2.04720E-04-3.38124E-05-6.81778E-05-1.48818E-05-2.75455E-18 6.77626E-20
 -1      1757 1.80934E-04-3.18080E-05-5.98395E-05-3.36926E-05-2.89034E-18 2.09641E-18
 -1      1758 1.45036E-04-2.98232E-05-4.68877E-05-4.58690E-05-3.19331E-18 2.78843E-18
 -1      1759 1.03253E-04-3.00940E-05-3.09702E-05-4.52577E-05-4.98733E-18 4.58160E-18
 -1      1760 6.65360E-05-3.58408E-05-1.47579E-05-3.77702E-05-4.39441E-18 4.24152E-18
 -1      1761 3.68318E-05-4.19806E-05-8.67332E-07-2.71931E-05-3.16960E-18 4.32271E-18
 -1      1762 1.74474E-05-4.76454E-05 8.56878E-06-1.25989E-05-2.62072E-18 1.93759E-18
 -1      1763 1.05894E-04-2.31316E-05-3.55536E-05-1.68350E-05-1.09434E-18 5.30708E-18
 -1      1764 8.91511E-05-1.05833E-05-3.37972E-05-1.32935E-05-1.56393E-18-1.33635E-18
 -1      1765 9.04603E-05-1.16264E-05-3.39280E-05-1.51032E-05-1.74295E-18-7.79985E-19
 -1      1766 9.24414E-05-1.38660E-05-3.38367E-05-1.59737E-05-1.71135E-18-4.24046E-20
 -1      1767 9.41291E-05-1.58066E-05-3.40704E-05-1.76354E-05-1.79034E-18 9.11302E-19
 -1      1768 9.33820E-05-1.63364E-05-3.30343E-05-1.37345E-05-1.82559E-18-3.32037E-19
 -1      1769 8.62624E-05-7.66160E-06-3.37570E-05-7.82986E-06-1.00444E-18-2.40032E-18
 -1      1770 8.66580E-05-7.96266E-06-3.37860E-05-9.21739E-06-1.18813E-18-2.27014E-18
 -1      1771 8.56553E-05-7.01517E-06-3.37622E-05-5.29268E-06-6.93573E-19-2.55190E-18
 -1      1772 8.58853E-05-7.19673E-06-3.37738E-05-6.59343E-06-8.62138E-19-2.49073E-18
 -1      1773 8.76429E-05-9.84082E-06-3.33750E-05-6.88848E-06-1.03349E-18-2.32038E-18
 -1      1774 8.53253E-05-6.64989E-06-3.37704E-05-2.87210E-06-2.95349E-19-2.59021E-18
 -1      1775 8.54439E-05-6.74655E-06-3.37743E-05-4.10637E-06-4.65325E-19-2.57331E-18
 -1      1776 8.70136E-05-9.11821E-06-3.34156E-05-4.50716E-06-5.59668E-19-2.42151E-18
 -1      1777 8.51961E-05-6.49847E-06-3.37759E-05-5.13979E-07 7.58980E-21-2.69494E-18
 -1      1778 8.52311E-05-6.52767E-06-3.37767E-05-1.71731E-06-1.27378E-19-2.67345E-18
 -1      1779 8.66844E-05-8.73209E-06-3.34399E-05-2.20119E-06-2.30085E-19-2.52663E-18
 -1      1780 8.52408E-05-6.53673E-06-3.37768E-05 1.83487E-06 3.15321E-19-2.70357E-18
 -1      1781 8.51998E-05-6.50305E-06-3.37758E-05 6.30529E-07 1.86209E-19-2.68959E-18
 -1      1782 8.65870E-05-8.61595E-06-3.34479E-05 6.50618E-08 7.98073E-20-2.63545E-18
 -1      1783 8.54688E-05-6.77172E-06-3.37743E-05 4.22857E-06 5.58714E-19-2.64518E-18
 -1      1784 8.53431E-05-6.66904E-06-3.37703E-05 2.99108E-06 4.58681E-19-2.70611E-18
 -1      1785 8.67020E-05-8.75186E-06-3.34392E-05 2.33251E-06 4.03159E-19-2.63200E-18
 -1      1786 8.59185E-05-7.23224E-06-3.37734E-05 6.68121E-06 8.77399E-19-2.45110E-18
 -1      1787 8.56852E-05-7.04743E-06-3.37620E-05 5.39763E-06 7.23192E-19-2.56783E-18
 -1      1788 8.70477E-05-9.15644E-06-3.34140E-05 4.62200E-06 6.88273E-19-2.53693E-18
 -1      1789 8.67173E-05-8.02993E-06-3.37845E-05 9.33867E-06 1.24129E-18-2.14093E-18
 -1      1790 8.63053E-05-7.71095E-06-3.37559E-05 7.91960E-06 1.04350E-18-2.30535E-18
 -1      1791 8.76929E-05-9.89943E-06-3.33724E-05 6.98800E-06 1.06174E-18-2.27056E-18
 -1      1792 8.81043E-05-9.38302E-06-3.38265E-05 1.22180E-05 1.56563E-18-1.59274E-18
 -1      1793 8.73790E-05-8.82412E-06-3.37615E-05 1.06250E-05 1.38409E-18-1.90527E-18
 -1      1794 8.87990E-05-1.11445E-05-3.33111E-05 9.45879E-06 1.38871E-18-1.88318E-18
 -1      1795 9.06086E-05-1.18347E-05-3.39198E-05 1.52700E-05 1.90723E-18-6.06290E-19
 -1      1796 8.92503E-05-1.07370E-05-3.37888E-05 1.34794E-05 1.71088E-18-1.17648E-18
 -1      1797 9.06689E-05-1.32129E-05-3.32140E-05 1.19331E-05 1.72974E-18-1.21729E-18
 -1      1798 9.57954E-05-1.70175E-05-3.39655E-05 1.76633E-05 1.92662E-18 1.07398E-18
 -1      1799 9.28070E-05-1.43331E-05-3.38096E-05 1.61654E-05 1.88126E-18 5.54807E-20
 -1      1800 9.39329E-05-1.68746E-05-3.30137E-05 1.38594E-05 1.95348E-18-1.94315E-19
 -1      1801 1.01795E-04-2.50588E-05-3.33182E-05 1.44036E-05 1.69100E-18 3.30459E-18
 -1      1802 9.79746E-05-1.95932E-05-3.35916E-05 1.69409E-05 1.81636E-18 1.82753E-18
 -1      1803 9.72461E-05-2.18313E-05-3.24016E-05 1.32224E-05 1.95039E-18 1.07121E-18
 -1      1804 9.86278E-05-2.60994E-05-3.13042E-05 9.41903E-06 1.66733E-18 2.77518E-18
 -1      1805 1.00036E-04-1.95365E-05-3.41783E-05-1.88468E-05-1.48043E-18 2.53093E-18
 -1      1806 9.52014E-05-2.72506E-05-2.91530E-05 4.04831E-06 1.20555E-18 2.07285E-18
 -1      1807 9.76241E-05-2.73546E-05-3.01593E-05 6.38327E-06 1.34252E-18 2.50796E-18
 -1      1808 9.74796E-05-2.55855E-05-3.08039E-05 8.73701E-06 1.63117E-18 1.53169E-18
 -1      1809 9.97137E-05-2.25151E-05-3.28043E-05-1.44437E-05-1.62249E-18 1.87147E-18
 -1      1810 9.68669E-05-2.69475E-05-2.98507E-05-5.67981E-06-1.36547E-18 1.50742E-18
 -1      1811 9.50684E-05-2.70030E-05-2.91435E-05-3.86904E-06-1.25149E-18 1.09040E-18
 -1      1812 9.42611E-05-2.72053E-05-2.86409E-05-2.38287E-06-1.15017E-18 1.11507E-18
 -1      1813 9.35046E-05-2.72881E-05-2.83408E-05-1.52093E-06-9.96217E-19 8.99291E-19
 -1      1814 9.54559E-05-2.65194E-05-2.95658E-05-4.42507E-06-1.41931E-18 3.03438E-19
 -1      1815 9.29974E-05-2.73410E-05-2.80790E-05-6.79246E-07-7.88019E-19 8.57333E-19
 -1      1816 9.27187E-05-2.74076E-05-2.79645E-05-2.26980E-07-5.62221E-19 6.36239E-19
 -1      1817 9.42752E-05-2.71955E-05-2.87695E-05-1.75265E-06-1.06041E-18 3.12171E-19
 -1      1818 9.24689E-05-2.74385E-05-2.78388E-05 2.51980E-07-5.18521E-19 4.74396E-19
 -1      1819 9.24725E-05-2.75203E-05-2.78203E-05 4.97341E-07-5.26889E-19 3.05375E-19
 -1      1820 9.36155E-05-2.75024E-05-2.83515E-05-2.42679E-07-7.48954E-19 8.57654E-20
 -1      1821 9.24072E-05-2.75575E-05-2.77768E-05 7.71863E-07-5.40864E-19 2.65096E-19
 -1      1822 9.25749E-05-2.76522E-05-2.78129E-05 9.06665E-07-4.35229E-19 6.40321E-20
 -1      1823 9.33560E-05-2.76904E-05-2.81559E-05 6.26143E-07-5.65904E-19-1.12102E-19
 -1      1824 9.26348E-05-2.76994E-05-2.78216E-05 1.06658E-06-3.48748E-19 1.52189E-19
 -1      1825 9.29002E-05-2.78016E-05-2.78908E-05 1.14336E-06-3.37005E-19 1.74557E-19
 -1      1826 9.33821E-05-2.78407E-05-2.80990E-05 1.13205E-06-4.05609E-19-9.07831E-20
 -1      1827 9.30454E-05-2.78569E-05-2.79343E-05 1.24355E-06-5.21888E-19 6.72556E-20
 -1      1828 9.33732E-05-2.79633E-05-2.80253E-05 1.29468E-06-4.51294E-19 1.18742E-19
 -1      1829 9.36042E-05-2.79777E-05-2.81328E-05 1.43801E-06-4.70551E-19-1.83224E-19
 -1      1830 9.35798E-05-2.80250E-05-2.80934E-05 1.37127E-06-5.47952E-19 6.41497E-20
 -1      1831 9.39544E-05-2.81351E-05-2.82008E-05 1.41863E-06-4.97235E-19 4.00467E-20
 -1      1832 9.39636E-05-2.81090E-05-2.82289E-05 1.64696E-06-5.15167E-19-2.76926E-19
 -1      1833 9.42106E-05-2.82028E-05-2.82884E-05 1.49688E-06-5.62383E-19-4.84393E-20
 -1      1834 9.46302E-05-2.83188E-05-2.84109E-05 1.55619E-06-6.56475E-19-3.84593E-19
 -1      1835 9.44278E-05-2.82388E-05-2.83713E-05 1.82846E-06-7.92008E-19-4.60395E-19
 -1      1836 9.49330E-05-2.83939E-05-2.85162E-05 1.65443E-06-5.05701E-19-4.39222E-19
 -1      1837 9.54052E-05-2.85202E-05-2.86555E-05 1.73726E-06-7.93076E-20-6.23826E-19
 -1      1838 9.49837E-05-2.83723E-05-2.85522E-05 2.03196E-06-5.92773E-19-3.79046E-19
 -1      1839 9.57582E-05-2.86055E-05-2.87789E-05 1.86870E-06-1.48729E-19-7.28975E-19
 -1      1840 9.62974E-05-2.87482E-05-2.89385E-05 1.98319E-06-2.15595E-19-8.60059E-19
 -1      1841 9.56333E-05-2.85163E-05-2.87691E-05 2.29317E-06-2.54292E-19-5.41792E-19
 -1      1842 9.67088E-05-2.88482E-05-2.90818E-05 2.15632E-06 2.04297E-20-9.80835E-19
 -1      1843 9.73335E-05-2.90154E-05-2.92664E-05 2.30687E-06 6.25820E-20-8.73862E-19
 -1      1844 9.63896E-05-2.86810E-05-2.90232E-05 2.63663E-06-1.42945E-19-1.08481E-18
 -1      1845 9.78142E-05-2.91361E-05-2.94316E-05 2.52454E-06-3.45968E-20-7.73361E-19
 -1      1846 9.85440E-05-2.93374E-05-2.96459E-05 2.71034E-06 1.46650E-19-3.82924E-19
 -1      1847 9.72730E-05-2.88801E-05-2.93171E-05 3.07521E-06 1.30672E-19-8.37235E-19
 -1      1848 9.91063E-05-2.94869E-05-2.98346E-05 2.96734E-06 2.97049E-20-3.29214E-19
 -1      1849 9.99577E-05-2.97331E-05-3.00820E-05 3.17950E-06 1.59202E-19-3.74471E-19
 -1      1850 9.83085E-05-2.91328E-05-2.96534E-05 3.60655E-06 1.06388E-19-8.65674E-19
 -1      1851 1.00614E-04-2.99223E-05-3.02939E-05 3.45825E-06 3.79364E-19-5.99347E-19
 -1      1852 1.01594E-04-3.02250E-05-3.05745E-05 3.67498E-06 3.18809E-19-5.37217E-19
 -1      1853 9.95227E-05-2.94655E-05-3.00318E-05 4.20582E-06 1.64975E-19-7.75161E-19
 -1      1854 1.02353E-04-3.04685E-05-3.08058E-05 3.93892E-06 2.06560E-19-7.47315E-19
 -1      1855 1.03453E-04-3.08385E-05-3.11135E-05 4.11884E-06 2.84936E-19-3.94872E-19
 -1      1856 1.00940E-04-2.99148E-05-3.04474E-05 4.81400E-06 8.24070E-20-7.43794E-19
 -1      1857 1.04320E-04-3.11546E-05-3.13555E-05 4.30380E-06 1.34466E-19-5.65529E-19
 -1      1858 1.05499E-04-3.15984E-05-3.16750E-05 4.37807E-06-2.19573E-19-5.92490E-19
 -1      1859 1.02580E-04-3.05294E-05-3.08871E-05 5.32164E-06 1.52056E-19-5.04938E-19
 -1      1860 1.06470E-04-3.20070E-05-3.19127E-05 4.38355E-06-4.49330E-19-4.63964E-19
 -1      1861 1.07643E-04-3.25189E-05-3.22155E-05 4.25083E-06-2.49043E-19-3.52796E-19
 -1      1862 1.04448E-04-3.13675E-05-3.13284E-05 5.55026E-06-2.22306E-19-6.98395E-19
 -1      1863 1.08695E-04-3.30328E-05-3.24279E-05 3.93744E-06-5.28386E-20-4.78964E-19
 -1      1864 1.09716E-04-3.35787E-05-3.26716E-05 3.47065E-06 2.80619E-19-6.23578E-19
 -1      1865 1.06522E-04-3.24812E-05-3.17391E-05 5.23992E-06-2.58014E-20-6.06281E-19
 -1      1866 1.10791E-04-3.41813E-05-3.28353E-05 2.67765E-06 2.52181E-19-1.15904E-18
 -1      1867 1.11447E-04-3.46726E-05-3.29668E-05 1.75908E-06-3.42717E-20-1.23458E-18
 -1      1868 1.08724E-04-3.38712E-05-3.20837E-05 4.06361E-06 1.59194E-19-6.68579E-19
 -1      1869 1.12413E-04-3.52745E-05-3.30644E-05 3.66058E-07 1.23528E-19-7.38090E-19
 -1      1870 1.12440E-04-3.55376E-05-3.30349E-05-1.02759E-06 2.64321E-19-4.16614E-19
 -1      1871 1.10859E-04-3.53961E-05-3.23360E-05 1.70674E-06 2.77919E-19-1.29455E-18
 -1      1872 1.13058E-04-3.59279E-05-3.30682E-05-2.96519E-06 4.76456E-20-4.35324E-20
 -1      1873 1.12222E-04-3.57083E-05-3.28574E-05-4.63118E-06 4.56041E-19 4.10775E-19
 -1      1874 1.12529E-04-3.66382E-05-3.25019E-05-1.92950E-06 5.05076E-19-8.80711E-19
 -1      1875 1.12159E-04-3.55622E-05-3.28533E-05-6.69916E-06 5.10529E-19 5.70364E-19
 -1      1876 1.10406E-04-3.46273E-05-3.24973E-05-8.09557E-06 5.66519E-19 6.07237E-19
 -1      1877 1.13117E-04-3.68699E-05-3.26338E-05-6.37850E-06 6.28095E-19-4.89760E-19
 -1      1878 1.09413E-04-3.36784E-05-3.25009E-05-9.41615E-06 3.54578E-19 6.81954E-19
 -1      1879 1.07072E-04-3.20797E-05-3.20972E-05-9.74544E-06 1.42752E-19 4.24562E-19
 -1      1880 1.11967E-04-3.52738E-05-3.28158E-05-1.02692E-05 7.57019E-19-4.93800E-19
 -1      1881 1.05389E-04-3.05140E-05-3.21314E-05-9.28163E-06-2.91955E-19 1.16242E-19
 -1      1882 1.03244E-04-2.88327E-05-3.18075E-05-7.95802E-06-7.47877E-19-1.18287E-19
 -1      1883 1.09034E-04-3.17816E-05-3.30904E-05-1.14229E-05 1.45220E-19-3.38151E-20
 -1      1884 1.01789E-04-2.74820E-05-3.18509E-05-5.34968E-06-5.23135E-19-1.03007E-19
 -1      1885 1.00785E-04-2.66391E-05-3.17119E-05-2.63397E-06-2.96012E-19-1.10599E-19
 -1      1886 1.05570E-04-2.78000E-05-3.33852E-05-8.10962E-06-3.98013E-19 4.77823E-19
 -1      1887 1.00607E-04-2.64736E-05-3.17182E-05 1.11601E-06-1.06329E-19 5.04924E-19
 -1      1888 1.01251E-04-2.70186E-05-3.18067E-05 4.00097E-06 6.56239E-19 7.11825E-19
 -1      1889 1.03757E-04-2.57439E-05-3.35372E-05-9.30360E-07 1.24302E-19 6.16592E-19
 -1      1890 1.02490E-04-2.81682E-05-3.17685E-05 7.00821E-06 4.79765E-19 3.51995E-19
 -1      1891 1.04453E-04-2.97394E-05-3.20575E-05 8.71231E-06-3.61769E-19-1.18796E-19
 -1      1892 1.04936E-04-2.70777E-05-3.34401E-05 6.72441E-06 1.28775E-20 4.86483E-19
 -1      1893 1.06185E-04-3.13482E-05-3.20176E-05 9.67717E-06-1.57255E-18-5.13037E-19
 -1      1894 1.08563E-04-3.30344E-05-3.24151E-05 9.69606E-06-2.04095E-18-7.55984E-19
 -1      1895 1.08220E-04-3.08353E-05-3.31629E-05 1.10860E-05-1.02543E-18-7.87542E-19
 -1      1896 1.09761E-04-3.41625E-05-3.24065E-05 8.70549E-06-2.28326E-18-1.26845E-18
 -1      1897 1.11697E-04-3.52708E-05-3.27849E-05 7.48373E-06-1.69140E-18-8.28947E-19
 -1      1898 1.11434E-04-3.46171E-05-3.28737E-05 1.08604E-05-1.90797E-18-1.09769E-18
 -1      1899 1.11968E-04-3.55889E-05-3.27927E-05 5.49947E-06-1.52302E-18-5.78199E-19
 -1      1900 1.13024E-04-3.59583E-05-3.30436E-05 3.83742E-06-1.30602E-18-8.51898E-19
 -1      1901 1.13034E-04-3.66821E-05-3.26751E-05 7.40406E-06-1.63964E-18 6.27036E-20
 -1      1902 1.12536E-04-3.56603E-05-3.30242E-05 1.82062E-06-9.75650E-19-9.01966E-19
 -1      1903 1.12695E-04-3.54839E-05-3.30972E-05 3.40054E-07 1.04642E-19-6.83268E-19
 -1      1904 1.12807E-04-3.68132E-05-3.25428E-05 2.93194E-06-1.08162E-18-1.27411E-19
 -1      1905 1.11790E-04-3.49075E-05-3.30177E-05-1.18470E-06 2.80474E-19-5.88011E-19
 -1      1906 1.11265E-04-3.44515E-05-3.29225E-05-2.20889E-06 2.33685E-19-1.19487E-18
 -1      1907 1.11332E-04-3.57259E-05-3.23951E-05-9.46425E-07 1.87730E-19 3.09303E-19
 -1      1908 1.10211E-04-3.38396E-05-3.27767E-05-3.12180E-06 5.49711E-19-1.61799E-18
 -1      1909 1.09267E-04-3.32991E-05-3.25587E-05-3.67427E-06 6.49102E-19-1.25609E-18
 -1      1910 1.09277E-04-3.42184E-05-3.21707E-05-3.58054E-06 1.12477E-19 3.24950E-20
 -1      1911 1.08218E-04-3.27646E-05-3.23610E-05-4.06990E-06 2.18118E-19-1.24413E-18
 -1      1912 1.07087E-04-3.22455E-05-3.20743E-05-4.25574E-06 4.65140E-20-1.48639E-18
 -1      1913 1.07093E-04-3.27807E-05-3.18552E-05-4.97610E-06 6.55901E-19 2.15071E-19
 -1      1914 1.06115E-04-3.18175E-05-3.18479E-05-4.29246E-06 1.23717E-18-1.19095E-18
 -1      1915 1.04959E-04-3.13641E-05-3.15386E-05-4.24053E-06 1.79744E-18-7.60391E-19
 -1      1916 1.05014E-04-3.16055E-05-3.14693E-05-5.41993E-06 1.02714E-18 1.08176E-18
 -1      1917 1.04094E-04-3.10344E-05-3.13059E-05-4.06453E-06 1.45051E-18-1.51928E-18
 -1      1918 1.03013E-04-3.06579E-05-3.10063E-05-3.88271E-06 1.09220E-19-9.77043E-19
 -1      1919 1.03142E-04-3.07155E-05-3.10488E-05-5.24498E-06 1.46141E-18-1.34680E-19
 -1      1920 1.02265E-04-3.04072E-05-3.07842E-05-3.60279E-06-2.59253E-19 6.12988E-19
 -1      1921 1.01310E-04-3.01037E-05-3.05131E-05-3.36641E-06 1.13282E-19 6.71987E-19
 -1      1922 1.01511E-04-3.00657E-05-3.06281E-05-4.72773E-06 6.29273E-19-2.47853E-19
 -1      1923 1.00676E-04-2.99135E-05-3.03123E-05-3.05352E-06-8.07369E-19 8.14528E-19
 -1      1924 9.98669E-05-2.96736E-05-3.00784E-05-2.80882E-06-2.40568E-19 7.16595E-19
 -1      1925 1.00123E-04-2.95979E-05-3.02332E-05-4.06289E-06-4.52883E-19 9.58846E-19
 -1      1926 9.93401E-05-2.95289E-05-2.99042E-05-2.50425E-06-4.05537E-19 1.19212E-19
 -1      1927 9.86746E-05-2.93421E-05-2.97094E-05-2.27610E-06-2.13669E-20 6.38278E-20
 -1      1928 9.89633E-05-2.92614E-05-2.98799E-05-3.37240E-06-3.84898E-19 1.37587E-18
 -1      1929 9.82446E-05-2.92317E-05-2.95632E-05-2.00052E-06 1.23069E-18-2.05081E-19
 -1      1930 9.77112E-05-2.90878E-05-2.94056E-05-1.79964E-06 1.64051E-18 2.29224E-19
 -1      1931 9.80119E-05-2.90181E-05-2.95757E-05-2.72383E-06 2.40338E-19 1.48408E-18
 -1      1932 9.73662E-05-2.90033E-05-2.92864E-05-1.56040E-06 1.42518E-18 1.20849E-18
 -1      1933 9.69490E-05-2.88936E-05-2.91624E-05-1.38868E-06 1.27605E-18 3.05538E-18
 -1      1934 9.72441E-05-2.88401E-05-2.93221E-05-2.14797E-06 1.75017E-18 1.91299E-18
 -1      1935 9.66769E-05-2.88282E-05-2.90679E-05-1.18494E-06 3.70546E-19 2.36493E-18
 -1      1936 9.63593E-05-2.87454E-05-2.89733E-05-1.03893E-06 6.71994E-19 2.29249E-18
 -1      1937 9.66344E-05-2.87074E-05-2.91169E-05-1.65218E-06 7.57744E-19 2.86459E-18
 -1      1938 9.61483E-05-2.86941E-05-2.89008E-05-8.65244E-07-2.92301E-20 1.47222E-18
 -1      1939 9.59156E-05-2.86327E-05-2.88317E-05-7.38865E-07-7.34551E-19 1.61538E-18
 -1      1940 9.61583E-05-2.86055E-05-2.89557E-05-1.22966E-06 1.28511E-19 1.80428E-18
 -1      1941 9.57545E-05-2.85920E-05-2.87779E-05-5.87713E-07-1.05243E-18 9.17046E-19
 -1      1942 9.55948E-05-2.85493E-05-2.87302E-05-4.74777E-07-8.47933E-19 2.37132E-20
 -1      1943 9.57927E-05-2.85239E-05-2.88329E-05-8.67090E-07-1.50002E-18 1.82704E-18
 -1      1944 9.54865E-05-2.85248E-05-2.86933E-05-3.48230E-07 3.86666E-19-8.78342E-19
 -1      1945 9.53868E-05-2.85022E-05-2.86614E-05-2.50400E-07 5.52734E-19-9.57087E-19
 -1      1946 9.53578E-05-2.84528E-05-2.86762E-05-3.01472E-07-1.12373E-19-8.62754E-20
 -1      1947 9.55307E-05-2.84707E-05-2.87440E-05-5.58294E-07-7.25058E-19 1.74450E-18
 -1      1948 9.31233E-05-2.73308E-05-2.81686E-05 1.57611E-06 1.18974E-18 1.31866E-18
 -1      1949 9.43072E-05-2.74342E-05-2.86014E-05 2.65159E-06 1.19260E-18 1.87908E-18
 -1      1950 9.51511E-05-2.70182E-05-2.92054E-05 4.02222E-06 1.42802E-18 1.20749E-18
 -1      1951 9.21048E-05-2.73234E-05-2.77383E-05 2.99590E-07 8.59308E-19 8.04059E-19
 -1      1952 9.25822E-05-2.73522E-05-2.79050E-05 8.56254E-07 8.61055E-19 1.08729E-18
 -1      1953 9.35738E-05-2.73425E-05-2.83921E-05 1.53444E-06 1.13835E-18 7.57082E-19
 -1      1954 9.17816E-05-2.73717E-05-2.75878E-05-3.85149E-07 3.54700E-19 6.45656E-19
 -1      1955 9.18697E-05-2.73388E-05-2.76259E-05-7.88450E-08 6.67232E-19 8.30132E-19
 -1      1956 9.27842E-05-2.74636E-05-2.80050E-05 1.89697E-07 7.96186E-19 3.86154E-19
 -1      1957 9.18849E-05-2.74795E-05-2.75910E-05-7.57504E-07 1.63002E-19 1.04157E-19
 -1      1958 9.17553E-05-2.74075E-05-2.75612E-05-5.83861E-07 2.40772E-19 4.71225E-19
 -1      1959 9.25327E-05-2.75669E-05-2.78533E-05-5.52276E-07 3.79659E-19 1.07935E-19
 -1      1960 9.22476E-05-2.76285E-05-2.76853E-05-9.61829E-07 4.21117E-19-8.03366E-20
 -1      1961 9.19937E-05-2.75339E-05-2.76166E-05-8.60488E-07 1.54968E-19-4.28794E-20
 -1      1962 9.26284E-05-2.76887E-05-2.78404E-05-9.67379E-07 2.67582E-19-3.18839E-19
 -1      1963 9.27724E-05-2.78033E-05-2.78365E-05-1.08117E-06 2.98019E-19 1.58628E-20
 -1      1964 9.24446E-05-2.76960E-05-2.77442E-05-1.01683E-06 4.76084E-19 1.51327E-19
 -1      1965 9.29465E-05-2.78300E-05-2.79144E-05-1.20631E-06 3.67283E-19-3.08398E-19
 -1      1966 9.34078E-05-2.79958E-05-2.80269E-05-1.16869E-06 4.87544E-19-1.71207E-19
 -1      1967 9.30306E-05-2.78801E-05-2.79182E-05-1.11829E-06 2.96378E-19-6.98860E-20
 -1      1968 9.34122E-05-2.79858E-05-2.80458E-05-1.35975E-06 3.81741E-19-1.51367E-19
 -1      1969 9.41337E-05-2.82043E-05-2.82488E-05-1.26123E-06-5.48710E-20-1.77805E-19
 -1      1970 9.37149E-05-2.80804E-05-2.81263E-05-1.20833E-06 2.72947E-19-1.82667E-19
 -1      1971 9.39859E-05-2.81535E-05-2.82190E-05-1.48736E-06 3.94454E-19-4.05350E-20
 -1      1972 9.49526E-05-2.84322E-05-2.85017E-05-1.38555E-06 4.63635E-19-1.71070E-19
 -1      1973 9.44878E-05-2.82976E-05-2.83644E-05-1.31784E-06 1.87720E-19-1.85624E-19
 -1      1974 9.46536E-05-2.83345E-05-2.84272E-05-1.63097E-06 2.23776E-19-4.28242E-20
 -1      1975 9.58825E-05-2.86873E-05-2.87903E-05-1.56121E-06 7.79480E-19-4.49647E-19
 -1      1976 9.53594E-05-2.85370E-05-2.86349E-05-1.46932E-06 6.68742E-19-1.88702E-19
 -1      1977 9.54192E-05-2.85340E-05-2.86699E-05-1.82086E-06 6.46955E-19-4.15915E-19
 -1      1978 9.69526E-05-2.89808E-05-2.91223E-05-1.80117E-06 1.06733E-18-1.44367E-18
 -1      1979 9.63530E-05-2.88080E-05-2.89438E-05-1.67850E-06 9.67924E-19-9.36732E-19
 -1      1980 9.62997E-05-2.87606E-05-2.89506E-05-2.07821E-06 1.18633E-18-9.14271E-19
 -1      1981 9.81977E-05-2.93268E-05-2.95069E-05-2.11043E-06 7.96300E-19-1.70082E-18
 -1      1982 9.75008E-05-2.91234E-05-2.92997E-05-1.95387E-06 9.08415E-19-1.49010E-18
 -1      1983 9.73205E-05-2.90262E-05-2.92750E-05-2.41502E-06 1.04495E-18-1.24587E-18
 -1      1984 9.96525E-05-2.97410E-05-2.99526E-05-2.48236E-06-2.63104E-19-2.15825E-18
 -1      1985 9.88383E-05-2.94985E-05-2.97117E-05-2.29413E-06 1.95460E-19-1.96641E-18
 -1      1986 9.85111E-05-2.93462E-05-2.96490E-05-2.83136E-06 5.15130E-19-1.52914E-18
 -1      1987 1.01343E-04-3.02402E-05-3.04637E-05-2.89194E-06-4.89385E-20-1.81672E-18
 -1      1988 1.00398E-04-2.99505E-05-3.01863E-05-2.68302E-06-8.02779E-20-2.08451E-18
 -1      1989 9.98994E-05-2.97394E-05-3.00765E-05-3.30954E-06-8.81113E-21-1.64598E-18
 -1      1990 1.03272E-04-3.08399E-05-3.10363E-05-3.28536E-06-5.37469E-20-1.61393E-18
 -1      1991 1.02198E-04-3.04973E-05-3.07245E-05-3.08078E-06-2.50452E-19-1.97227E-18
 -1      1992 1.01505E-04-3.02280E-05-3.05561E-05-3.80439E-06 5.52433E-20-1.23738E-18
 -1      1993 1.05408E-04-3.15505E-05-3.16523E-05-3.56608E-06 3.17308E-19-8.51434E-19
 -1      1994 1.04231E-04-3.11550E-05-3.13165E-05-3.41222E-06 5.90402E-19-9.73749E-19
 -1      1995 1.03329E-04-3.08374E-05-3.10772E-05-4.22955E-06 2.21500E-19-1.02195E-18
 -1      1996 1.07653E-04-3.23694E-05-3.22722E-05-3.58050E-06-9.04765E-19-1.69319E-18
 -1      1997 1.06443E-04-3.19323E-05-3.19356E-05-3.55287E-06-6.22593E-19-1.28549E-18
 -1      1998 1.05340E-04-3.15920E-05-3.16153E-05-4.44120E-06-2.26786E-19-2.60663E-19
 -1      1999 1.09824E-04-3.32650E-05-3.28299E-05-3.11326E-06-9.57644E-20-1.38430E-18
 -1      2000 1.08707E-04-3.28182E-05-3.25322E-05-3.31966E-06-5.22719E-19-1.64656E-18
 -1      2001 1.07456E-04-3.25043E-05-3.21291E-05-4.22628E-06-3.53314E-19-1.10134E-18
 -1      2002 1.11621E-04-3.41486E-05-3.32326E-05-1.91541E-06-2.55549E-19-1.09730E-18
 -1      2003 1.10792E-04-3.37582E-05-3.30304E-05-2.48253E-06-9.61184E-20-1.02263E-18
 -1      2004 1.09516E-04-3.35469E-05-3.25598E-05-3.31237E-06-2.70938E-19-5.69663E-19
 -1      2005 1.12627E-04-3.48340E-05-3.33755E-05 1.97580E-07 3.95875E-19-1.75847E-19
 -1      2006 1.12339E-04-3.46141E-05-3.33338E-05-8.26413E-07 1.71597E-19-4.60209E-19
 -1      2007 1.11250E-04-3.46013E-05-3.28404E-05-1.43253E-06 1.13661E-19-3.73019E-19
 -1      2008 1.12356E-04-3.50082E-05-3.31779E-05 3.14391E-06-9.78905E-19-2.82922E-19
 -1      2009 1.12867E-04-3.51192E-05-3.33481E-05 1.70037E-06-2.74611E-19-2.34803E-20
 -1      2010 1.12253E-04-3.53886E-05-3.29163E-05 1.51273E-06-3.77459E-19 2.76004E-19
 -1      2011 1.10418E-04-3.42851E-05-3.26360E-05 6.30693E-06-1.76864E-18 2.79389E-19
 -1      2012 1.11869E-04-3.48825E-05-3.30221E-05 4.74984E-06-1.79549E-18-4.67781E-19
 -1      2013 1.12026E-04-3.54464E-05-3.27766E-05 5.18230E-06-1.47717E-18 3.26204E-19
 -1      2014 1.06835E-04-3.24448E-05-3.18663E-05 8.41456E-06-8.73887E-19 1.54099E-18
 -1      2015 1.09087E-04-3.35476E-05-3.23947E-05 7.37258E-06-1.15000E-18 7.36892E-19
 -1      2016 1.10179E-04-3.42852E-05-3.24776E-05 8.52605E-06-1.49117E-18 8.08645E-19
 -1      2017 1.02447E-04-2.98476E-05-3.10961E-05 7.95904E-06 1.61502E-19 1.42008E-18
 -1      2018 1.04937E-04-3.11733E-05-3.16177E-05 8.15530E-06-2.92987E-19 1.34453E-18
 -1      2019 1.06864E-04-3.18255E-05-3.21329E-05 9.86244E-06-4.66424E-19 1.07977E-18
 -1      2020 9.89619E-05-2.76269E-05-3.05800E-05 4.30673E-06 4.87944E-19 2.28965E-18
 -1      2021 1.00788E-04-2.85943E-05-3.09208E-05 6.00344E-06 4.66980E-19 2.25640E-18
 -1      2022 1.03195E-04-2.88957E-05-3.18631E-05 7.71912E-06 6.42157E-20 1.36424E-18
 -1      2023 9.81442E-05-2.70856E-05-3.04925E-05-1.33072E-06 8.57449E-19 1.97961E-19
 -1      2024 9.84932E-05-2.71583E-05-3.05301E-05 1.24764E-06 5.17908E-19 1.13145E-18
 -1      2025 1.00976E-04-2.70408E-05-3.17421E-05 2.22695E-06 1.02872E-18 8.59049E-19
 -1      2026 1.00515E-04-2.86055E-05-3.08584E-05-6.33904E-06 1.74596E-18-6.13781E-19
 -1      2027 9.91992E-05-2.77356E-05-3.05799E-05-4.09214E-06 1.26753E-18 9.87058E-20
 -1      2028 1.01509E-04-2.74437E-05-3.17884E-05-4.32749E-06 1.45328E-18 4.13441E-19
 -1      2029 1.04833E-04-3.12297E-05-3.15534E-05-8.56551E-06 1.66625E-18-4.56021E-19
 -1      2030 1.02453E-04-2.99135E-05-3.10596E-05-7.56465E-06 2.06626E-18-6.42660E-19
 -1      2031 1.04467E-04-2.98415E-05-3.19887E-05-8.86204E-06 2.31092E-18 5.45919E-19
 -1      2032 1.09138E-04-3.35963E-05-3.23501E-05-7.69575E-06 3.70325E-19-1.95118E-18
 -1      2033 1.06646E-04-3.24316E-05-3.18087E-05-8.03218E-06 8.06276E-19-1.52270E-18
 -1      2034 1.08193E-04-3.27779E-05-3.22998E-05-9.76070E-06 1.64900E-18-1.40250E-19
 -1      2035 1.12010E-04-3.49010E-05-3.30080E-05-4.91328E-06 5.68220E-19-2.08791E-18
 -1      2036 1.10170E-04-3.42231E-05-3.25779E-05-6.05986E-06 3.62239E-19-1.91091E-18
 -1      2037 1.11051E-04-3.48595E-05-3.26349E-05-7.55952E-06 6.54723E-19-1.20367E-18
 -1      2038 1.13036E-04-3.51151E-05-3.33622E-05-1.72979E-06-1.16773E-18-8.29299E-19
 -1      2039 1.12158E-04-3.49378E-05-3.31362E-05-3.05095E-06 1.90847E-20-1.45476E-18
 -1      2040 1.12295E-04-3.55758E-05-3.28764E-05-3.94513E-06-2.15663E-19-3.13017E-19
 -1      2041 1.12509E-04-3.46077E-05-3.33679E-05 8.65639E-07-1.75701E-18-4.90617E-19
 -1      2042 1.12526E-04-3.47832E-05-3.33583E-05-2.21047E-07-1.19827E-18-4.47161E-19
 -1      2043 1.12030E-04-3.52042E-05-3.29324E-05-4.48712E-07-1.32737E-18 3.89209E-19
 -1      2044 1.10958E-04-3.37632E-05-3.30782E-05 2.53403E-06 3.31597E-19-1.12515E-18
 -1      2045 1.11623E-04-3.41288E-05-3.32416E-05 1.82470E-06-1.05811E-18-4.73392E-19
 -1      2046 1.10728E-04-3.42735E-05-3.27756E-05 2.13563E-06-8.03699E-19 1.65610E-19
 -1      2047 1.08879E-04-3.28398E-05-3.25911E-05 3.34769E-06 6.70946E-19 1.71326E-20
 -1      2048 1.09915E-04-3.32754E-05-3.28636E-05 2.98997E-06 4.30862E-19-5.23208E-19
 -1      2049 1.08864E-04-3.31941E-05-3.24376E-05 3.64993E-06 6.57420E-19 4.62940E-19
 -1      2050 1.06640E-04-3.19724E-05-3.20068E-05 3.53872E-06-1.26952E-18-3.23256E-19
 -1      2051 1.07822E-04-3.24055E-05-3.23288E-05 3.43993E-06 1.74954E-19 1.13929E-19
 -1      2052 1.06797E-04-3.21869E-05-3.19804E-05 4.27349E-06-7.61635E-20 1.57945E-18
 -1      2053 1.04477E-04-3.12156E-05-3.14044E-05 3.34696E-06-2.93180E-19-9.12311E-19
 -1      2054 1.05651E-04-3.16092E-05-3.17315E-05 3.40974E-06-1.09216E-18-9.04851E-19
 -1      2055 1.04756E-04-3.13340E-05-3.14693E-05 4.28558E-06-5.97619E-19 2.24439E-19
 -1      2056 1.02519E-04-3.05822E-05-3.08361E-05 2.95921E-06-6.81713E-19-2.75373E-19
 -1      2057 1.03595E-04-3.09213E-05-3.11404E-05 3.10681E-06-7.25926E-19-9.69163E-19
 -1      2058 1.02875E-04-3.06448E-05-3.09572E-05 3.94058E-06-8.78782E-19-1.79485E-19
 -1      2059 1.00827E-04-3.00658E-05-3.03306E-05 2.50014E-06-3.07226E-19 7.38472E-19
 -1      2060 1.01762E-04-3.03477E-05-3.05979E-05 2.68076E-06 9.56320E-20 3.25228E-19
 -1      2061 1.01217E-04-3.01009E-05-3.04796E-05 3.42633E-06-3.32731E-19 4.22365E-19
 -1      2062 9.94110E-05-2.96527E-05-2.98995E-05 2.04331E-06-1.60832E-19-7.46769E-19
 -1      2063 1.00193E-04-2.98809E-05-3.01249E-05 2.22594E-06-7.08316E-19-3.83602E-19
 -1      2064 9.98061E-05-2.96768E-05-3.00566E-05 2.86421E-06-2.17237E-19 4.43428E-19
 -1      2065 9.82580E-05-2.93273E-05-2.95436E-05 1.62628E-06 3.25186E-19 3.33885E-19
 -1      2066 9.88930E-05-2.95082E-05-2.97277E-05 1.79479E-06 4.33423E-19 1.31076E-19
 -1      2067 9.86362E-05-2.93486E-05-2.96960E-05 2.32360E-06-2.55600E-19 2.33942E-19
 -1      2068 9.73406E-05-2.90742E-05-2.92579E-05 1.26325E-06 1.19164E-18 7.87887E-19
 -1      2069 9.78434E-05-2.92150E-05-2.94043E-05 1.41131E-06 5.06540E-19 5.41845E-19
 -1      2070 9.76882E-05-2.90959E-05-2.93981E-05 1.83797E-06 5.63495E-19 1.34690E-18
 -1      2071 9.66279E-05-2.88800E-05-2.90349E-05 9.54001E-07 2.10708E-20 7.46616E-19
 -1      2072 9.70157E-05-2.89876E-05-2.91480E-05 1.08151E-06 8.57777E-19 1.82817E-18
 -1      2073 9.69363E-05-2.89020E-05-2.91591E-05 1.41758E-06 6.33841E-19 1.89205E-18
 -1      2074 9.60901E-05-2.87332E-05-2.88667E-05 6.89695E-07 1.26250E-18-1.53562E-18
 -1      2075 9.63793E-05-2.88134E-05-2.89509E-05 8.00495E-07-7.36844E-20-9.46904E-19
 -1      2076 9.63529E-05-2.87534E-05-2.89728E-05 1.05851E-06 7.23130E-19-2.28715E-19
 -1      2077 9.57014E-05-2.86254E-05-2.87462E-05 4.58286E-07 2.48858E-19 2.02653E-19
 -1      2078 9.59059E-05-2.86825E-05-2.88052E-05 5.57796E-07 1.45013E-18 1.72417E-19
 -1      2079 9.59125E-05-2.86400E-05-2.88327E-05 7.49270E-07 9.05698E-19-2.86721E-19
 -1      2080 9.54416E-05-2.85524E-05-2.86652E-05 2.50974E-07-1.08601E-18 6.48168E-19
 -1      2081 9.55707E-05-2.85887E-05-2.87032E-05 3.42396E-07-2.20687E-19 1.17185E-18
 -1      2082 9.55917E-05-2.85550E-05-2.87317E-05 4.77281E-07-5.38156E-19 1.81479E-18
 -1      2083 9.53111E-05-2.85223E-05-2.86212E-05 1.13990E-07-6.26483E-20 1.29359E-18
 -1      2084 9.53815E-05-2.85332E-05-2.86470E-05 1.91722E-07-5.50117E-19 1.07130E-18
 -1      2085 9.54012E-05-2.85020E-05-2.86723E-05 2.82813E-07-5.43472E-19 2.36764E-18
 -1      2086 9.53034E-05-2.84865E-05-2.86356E-05 1.55168E-07 2.43998E-19 2.79115E-18
 -1      2087 9.50191E-05-2.77812E-05-2.88177E-05 5.72752E-07 6.42669E-19-1.30923E-18
 -1      2088 9.50901E-05-2.79330E-05-2.87792E-05 5.47165E-07-6.35084E-20-1.06993E-19
 -1      2089 9.51603E-05-2.80803E-05-2.87488E-05 4.93358E-07-5.58109E-19 4.47077E-19
 -1      2090 9.52201E-05-2.82116E-05-2.87151E-05 4.26164E-07-3.99133E-19 1.01348E-18
 -1      2091 9.51449E-05-2.79767E-05-2.87867E-05 6.77462E-07-1.23643E-18 6.58670E-19
 -1      2092 9.52549E-05-2.83135E-05-2.86885E-05 3.38154E-07-1.15879E-19 1.57135E-18
 -1      2093 9.52903E-05-2.84095E-05-2.86610E-05 2.52239E-07 1.47606E-20 1.11102E-18
 -1      2094 9.53345E-05-2.84123E-05-2.86796E-05 3.17914E-07-1.75590E-19 1.17780E-18
 -1      2095 9.52659E-05-2.82281E-05-2.87319E-05 5.15387E-07-8.56899E-19 1.03003E-18
 -1      2096 9.48806E-05-2.74874E-05-2.88855E-05 5.58215E-07-9.42899E-19-4.79852E-18
 -1      2097 9.49494E-05-2.76359E-05-2.88477E-05 5.74529E-07-4.17706E-20-3.08869E-18
 -1      2098 9.49776E-05-2.76757E-05-2.88428E-05 7.36491E-07-3.91122E-19-3.18091E-18
 -1      2099 9.47596E-05-2.72286E-05-2.89456E-05 4.54474E-07-7.96072E-19-2.81058E-18
 -1      2100 9.48179E-05-2.73563E-05-2.89129E-05 5.08737E-07-7.23545E-19-2.54917E-18
 -1      2101 9.48178E-05-2.73900E-05-2.88955E-05 6.80862E-07-2.67018E-19-3.67290E-18
 -1      2102 9.46748E-05-2.70460E-05-2.89880E-05 2.80063E-07-7.44022E-19-5.98708E-19
 -1      2103 9.47132E-05-2.71309E-05-2.89662E-05 3.62336E-07-1.54664E-19-1.10290E-18
 -1      2104 9.46858E-05-2.71533E-05-2.89392E-05 5.19712E-07-1.33324E-19-1.47239E-18
 -1      2105 9.46369E-05-2.69645E-05-2.90067E-05 6.31168E-08-1.77946E-19 1.42421E-18
 -1      2106 9.46502E-05-2.69940E-05-2.89991E-05 1.60194E-07-3.35587E-19 7.41113E-19
 -1      2107 9.45999E-05-2.69982E-05-2.89680E-05 2.79769E-07 2.92843E-19 6.06888E-19
 -1      2108 9.46506E-05-2.69951E-05-2.89988E-05-1.63307E-07-1.68268E-18-2.28098E-19
 -1      2109 9.46370E-05-2.69648E-05-2.90066E-05-6.63069E-08-9.01824E-19 1.17759E-18
 -1      2110 9.45702E-05-2.69446E-05-2.89780E-05-1.98189E-09-1.42018E-18 2.92974E-19
 -1      2111 9.47142E-05-2.71334E-05-2.89656E-05-3.65004E-07-1.26381E-18-1.77328E-18
 -1      2112 9.46756E-05-2.70477E-05-2.89876E-05-2.83029E-07-1.28974E-18-1.40662E-18
 -1      2113 9.46004E-05-2.69993E-05-2.89678E-05-2.83550E-07-1.72584E-18-5.22264E-19
 -1      2114 9.48175E-05-2.73554E-05-2.89131E-05-5.08744E-07-1.06995E-18-2.10337E-18
 -1      2115 9.47600E-05-2.72296E-05-2.89453E-05-4.55527E-07-6.07675E-19-1.91324E-18
 -1      2116 9.46863E-05-2.71538E-05-2.89391E-05-5.21396E-07-3.23307E-19-1.45623E-18
 -1      2117 9.49505E-05-2.76379E-05-2.88473E-05-5.74756E-07-3.51911E-19 4.66163E-18
 -1      2118 9.48804E-05-2.74866E-05-2.88858E-05-5.58497E-07-7.49037E-19 1.58084E-18
 -1      2119 9.48173E-05-2.73889E-05-2.88957E-05-6.81164E-07 6.43252E-19-6.36664E-19
 -1      2120 9.50921E-05-2.79375E-05-2.87782E-05-5.46377E-07 1.16285E-18 2.15540E-18
 -1      2121 9.50210E-05-2.77854E-05-2.88168E-05-5.72370E-07 8.58136E-20 3.43054E-18
 -1      2122 9.49781E-05-2.76772E-05-2.88427E-05-7.36406E-07 9.58719E-19 4.37045E-18
 -1      2123 9.52227E-05-2.82219E-05-2.87140E-05-4.24651E-07 2.53565E-19 1.22551E-18
 -1      2124 9.51621E-05-2.80851E-05-2.87476E-05-4.91586E-07-3.80624E-19 2.18508E-18
 -1      2125 9.51462E-05-2.79797E-05-2.87859E-05-6.75247E-07-5.57681E-19 1.66135E-18
 -1      2126 5.85102E-05-3.93100E-05-8.71272E-06 3.96977E-05-1.61995E-18 2.02838E-19
 -1      2127 4.33604E-05-4.01417E-05-2.51530E-06 3.32154E-05-2.84137E-18 1.21327E-18
 -1      2128 1.27404E-05-3.17120E-05 7.04237E-06 5.32407E-06-1.41063E-18 7.88588E-19
 -1      2129 1.20777E-05-3.04163E-05 6.89010E-06-4.33778E-06-1.62419E-18 3.96411E-19
 -1      2130 2.49989E-05-3.21355E-05 2.33269E-06 2.57399E-05-2.65291E-18 2.13791E-18
 -1      2131 1.75529E-05-3.45088E-05 5.94625E-06 1.52133E-05-2.24972E-18 9.30466E-19
 -1      2132 1.82624E-05-2.29152E-05 1.59878E-06 1.30961E-05-1.52413E-18 6.47980E-19
 -1      2133 9.54951E-05-4.35455E-05-2.23796E-05 4.23065E-05-1.35356E-18 1.25191E-18
 -1      2134 7.49058E-05-4.41511E-05-1.43111E-05 3.79388E-05-9.06325E-19 6.25534E-19
 -1      2135 7.91973E-05-4.78003E-05-1.35958E-05 4.22326E-05-2.35221E-18 5.38448E-19
 -1      2136 1.35401E-04-4.35441E-05-3.87522E-05 3.33311E-05 6.05629E-20 8.72867E-19
 -1      2137 1.16443E-04-4.57825E-05-3.07418E-05 3.27085E-05-1.23540E-18 1.35271E-18
 -1      2138 8.72790E-05-8.71681E-06-3.37650E-05-1.05057E-05-1.29668E-18-2.11235E-18
 -1      2139 8.79694E-05-9.23547E-06-3.38300E-05-1.20616E-05-1.49168E-18-1.72226E-18
 -1      2140 9.04909E-05-1.30393E-05-3.32426E-05-1.18340E-05-1.54840E-18-1.43651E-18
 -1      2141 8.87195E-05-1.10409E-05-3.33162E-05-9.37074E-06-1.30267E-18-2.05161E-18
 -1      2142 1.77720E-04-2.91137E-05-6.25250E-05 1.03411E-05 2.01128E-18-1.20872E-18
 -1      2143 1.68056E-04-3.03292E-05-5.82445E-05 1.75184E-05 1.83870E-18-1.10919E-18
 -1      2144 1.79713E-04-2.35862E-05-6.58592E-05-3.02775E-07 3.27039E-18-1.42153E-18
 -1      2145 1.76981E-04-2.36413E-05-6.46932E-05 5.80367E-06 2.58980E-18-9.16066E-19
 -1      2146 1.69180E-04-2.27861E-05-6.21125E-05-6.69247E-06 3.28861E-18-2.24803E-18
 -1      2147 1.80188E-04-2.38826E-05-6.54189E-05-2.78016E-06 3.60413E-18-1.54308E-18
 -1      2148 1.56940E-04-3.44914E-05-5.20479E-05-1.89599E-05 2.83939E-18-3.76845E-18
 -1      2149 1.65400E-04-3.12209E-05-5.71221E-05-9.24765E-06 3.01501E-18-2.42336E-18
 -1      2150 1.33370E-04-4.24558E-05-3.92768E-05-2.68779E-05 2.26539E-18-3.28268E-18
 -1      2151 1.51446E-04-4.02202E-05-4.69317E-05-2.68081E-05 2.19170E-18-3.87772E-18
 -1      2152 1.51016E-04-4.09990E-05-4.64957E-05-5.95887E-06 9.31577E-19-7.45813E-19
 -1      2153 9.63749E-05-4.47362E-05-2.29840E-05-3.72641E-05 2.27937E-18-3.35467E-18
 -1      2154 1.17670E-04-4.44902E-05-3.12494E-05-3.84957E-05 2.50510E-18-2.53475E-18
 -1      2155 5.97562E-05-4.24745E-05-8.77223E-06-3.59901E-05 9.25807E-19-4.21923E-18
 -1      2156 7.70418E-05-4.03552E-05-1.60489E-05-4.21572E-05 2.06761E-18-4.41707E-18
 -1      2157 3.12016E-05-3.84219E-05 1.70092E-06-2.72475E-05 2.02864E-19-3.67146E-18
 -1      2158 4.31377E-05-3.72604E-05-3.32031E-06-3.48444E-05 9.17337E-19-4.64375E-18
 -1      2159 1.34785E-05-3.56270E-05 7.84627E-06-8.38629E-06-9.85629E-19-3.13826E-18
 -1      2160 1.79504E-05-3.35847E-05 5.50445E-06-1.79355E-05 5.75982E-20-3.23016E-18
 -1      2161 1.40879E-05-3.43080E-05 7.27695E-06 1.11262E-05-1.60576E-18-2.78759E-18
 -1      2162 1.18213E-05-3.49970E-05 8.36188E-06 2.33274E-06-6.70903E-19-3.06372E-18
 -1      2163 3.28002E-05-3.43827E-05-5.68548E-08 3.09464E-05-1.55558E-18-1.26801E-18
 -1      2164 2.28503E-05-3.68115E-05 4.45924E-06 2.08618E-05-1.41116E-18-1.73684E-18
 -1      2165 6.84612E-05-4.08083E-05-1.22335E-05 4.14334E-05-2.09683E-18-2.49165E-18
 -1      2166 5.26408E-05-4.19494E-05-5.67604E-06 3.56720E-05-1.73854E-18-1.76543E-18
 -1      2167 1.08062E-04-4.66528E-05-2.63399E-05 3.98885E-05-2.05956E-18-2.57562E-18
 -1      2168 8.61700E-05-4.55887E-05-1.82890E-05 3.81059E-05-2.34289E-18-2.93582E-18
 -1      2169 9.09972E-05-5.10274E-05-1.70862E-05 4.11568E-05-1.65171E-19-2.19323E-18
 -1      2170 1.43448E-04-4.25389E-05-4.25035E-05 2.94227E-05-3.14461E-18-1.63816E-18
 -1      2171 1.25224E-04-4.55449E-05-3.45002E-05 2.94365E-05-2.74015E-18-1.67501E-18
 -1      2172 1.68187E-04-3.43357E-05-5.59105E-05 2.07463E-05-3.94410E-18-2.11335E-18
 -1      2173 1.51331E-04-3.59043E-05-4.93528E-05 2.20464E-05-3.87009E-18-2.05236E-18
 -1      2174 1.82190E-04-2.91660E-05-6.41101E-05 1.01253E-05-3.11920E-18-2.80558E-18
 -1      2175 1.72377E-04-2.97996E-05-6.02503E-05 1.67072E-05-3.64351E-18-3.27039E-18
 -1      2176 1.60210E-04-2.98081E-05-5.47625E-05 3.87043E-06-3.47622E-18-2.59827E-18
 -1      2177 1.82190E-04-2.47355E-05-6.63512E-05-1.43399E-06-2.98749E-18-9.65723E-19
 -1      2178 1.80806E-04-2.44925E-05-6.57228E-05 5.10050E-06-2.95953E-18-2.15273E-18
 -1      2179 1.73577E-04-2.45625E-05-6.30720E-05-8.48159E-06-2.33527E-18-8.28822E-19
 -1      2180 1.82904E-04-2.58218E-05-6.58647E-05-3.47758E-06-2.72829E-18-9.98440E-19
 -1      2181 1.60054E-04-1.37887E-05-6.15291E-05 5.84715E-07-3.03746E-18-1.13989E-18
 -1      2182 1.60770E-04-3.32071E-05-5.40488E-05-2.09335E-05-1.93949E-18 4.44692E-20
 -1      2183 1.71613E-04-3.15224E-05-5.90648E-05-1.39310E-05-2.28635E-18-6.09864E-20
 -1      2184 1.35503E-04-3.87474E-05-4.16050E-05-3.04321E-05-2.53538E-18 7.16590E-19
 -1      2185 1.53956E-04-3.80446E-05-4.87097E-05-2.87352E-05-1.69481E-18 2.62580E-20
 -1      2186 1.05958E-04-4.45877E-05-2.69739E-05-3.59603E-05-3.36823E-18 1.05201E-18
 -1      2187 1.24970E-04-4.31098E-05-3.46182E-05-3.73559E-05-2.86805E-18 7.64447E-19
 -1      2188 7.10291E-05-4.35869E-05-1.27946E-05-3.80621E-05-2.55550E-18 3.01385E-18
 -1      2189 8.79806E-05-4.11602E-05-2.01914E-05-4.23787E-05-3.70111E-18 2.89601E-18
 -1      2190 3.86872E-05-3.93727E-05-9.79137E-07-3.10233E-05-1.31121E-18 3.98783E-18
 -1      2191 5.29623E-05-3.82010E-05-6.70503E-06-3.91360E-05-1.60725E-18 4.23284E-18
 -1      2192 1.84921E-05-3.36992E-05 5.38360E-06-1.74362E-05-2.01170E-18 1.34128E-18
 -1      2193 2.63936E-05-3.40180E-05 2.47201E-06-2.56631E-05-2.04813E-18 3.06139E-18
 -1      2194 4.04316E-05-3.30119E-05-3.50101E-06-3.50547E-05-7.19978E-19 3.35891E-18
 -1      2195 1.62981E-04-3.58850E-05-5.32021E-05 2.44154E-05 1.88794E-18-1.04863E-18
 -1      2196 1.44426E-04-3.71138E-05-4.60005E-05 2.63171E-05 1.27838E-18-4.61633E-20
 -1      2197 9.70936E-05-2.42863E-05-3.12762E-05-9.97983E-06-1.57905E-18 1.43346E-18
 -1      2198 1.59710E-04-2.55868E-05-5.71056E-05-1.41887E-06 2.41997E-18-2.49917E-18
 -1      2199 1.46986E-04-1.80873E-05-5.57801E-05 6.62895E-06 2.75857E-18-2.09471E-18
 -1      2200 1.47197E-04-2.74607E-05-5.12362E-05 5.37034E-06 1.28813E-18-8.73926E-19
 -1      2201 1.57967E-04-3.28584E-05-5.26428E-05 5.62464E-06 1.63371E-18-1.25403E-18
 -1      2202 9.62849E-05-2.30845E-05-3.14379E-05-1.03516E-05-1.74722E-18 4.38498E-19
 -1      2203 4.18810E-05-3.43375E-05-3.56202E-06 3.48139E-05-3.15668E-18 1.15345E-18
 -1      2204 9.52681E-05-2.82946E-05-2.87015E-05-3.98146E-07-2.42054E-19 1.02489E-18
 -1      2205 1.17126E-04-5.43722E-05-2.66426E-05 3.31800E-05-1.65044E-18 9.63076E-19
 -1      2206 1.92184E-05-2.36557E-05 1.51527E-06-1.37589E-05-1.49512E-18 1.45266E-18
 -1      2207 1.44565E-04-4.82548E-05-4.10191E-05 1.59715E-05-1.00056E-19-4.52316E-19
 -1      2208 7.26946E-05-4.55344E-05-1.19033E-05-4.15615E-05-8.33904E-19 3.17764E-18
 -1      2209 1.10691E-04-5.33247E-05-2.44554E-05-3.62492E-05-1.98545E-18-1.34890E-19
 -1      2210 1.38014E-04-5.10232E-05-3.70426E-05-2.19642E-05-1.79677E-18-1.17229E-18
 -1      2211 1.60740E-04-2.37914E-05-5.77439E-05-6.15894E-07-2.41299E-18-1.67141E-18
 -1      2212 1.62750E-04-1.81381E-05-6.07317E-05 4.05229E-07-3.62022E-18-2.62199E-18
 -1      2213 1.25860E-04-5.48254E-05-3.02404E-05 2.85154E-05-1.39739E-18-9.49947E-19
 -1      2214 5.19273E-05-3.86106E-05-5.96779E-06 3.86982E-05 1.12655E-19-9.82558E-19
 -1      2215 2.17569E-05-2.71542E-05 1.73300E-06 2.08967E-05 4.15258E-19-2.03457E-18
 -1      2216 1.40512E-05-2.51498E-05 3.97801E-06-3.97676E-06 4.63221E-21-3.02899E-18
 -1      2217 2.97372E-05-3.10705E-05-1.05275E-08-2.82229E-05-1.22820E-19-4.26883E-18
 -1      2218 6.23821E-05-4.28447E-05-8.76951E-06-4.09632E-05 1.21126E-19-4.02468E-18
 -1      2219 1.34406E-04-5.28039E-05-3.45388E-05-2.34721E-05 6.24475E-19-1.45817E-18
 -1      2220 1.60433E-04-1.89429E-05-5.95524E-05-2.76269E-07 2.17560E-18-1.15133E-18
 -1      2221 1.57729E-04-1.31290E-05-6.10046E-05 3.93003E-07 3.57998E-18-1.55791E-18
 -1      2222 1.00064E-04-5.20056E-05-2.05271E-05-3.93075E-05 5.09914E-19-2.91199E-18
 -1      2223 1.49096E-04-4.45285E-05-4.43376E-05 1.18972E-05-2.58577E-18-1.09775E-18
 -1      2224 1.54260E-04-3.86475E-05-4.87068E-05-9.52759E-06-1.28580E-18-1.04947E-18
 -1      2225 9.51660E-05-2.63488E-05-2.94792E-05 4.14750E-06 1.43653E-18 3.94836E-19
 -1      2226 9.61296E-05-2.58349E-05-3.00527E-05 5.96091E-06 1.52762E-18 5.69745E-19
 -1      2227 8.81809E-05-1.11263E-05-3.30628E-05-3.62675E-06-4.41204E-19-2.23330E-18
 -1      2228 8.84134E-05-1.14008E-05-3.30422E-05-4.76047E-06-6.92145E-19-2.26187E-18
 -1      2229 8.87629E-05-1.18915E-05-3.29900E-05-5.77186E-06-8.97702E-19-2.22362E-18
 -1      2230 8.91664E-05-1.23702E-05-3.29571E-05-6.93952E-06-1.10941E-18-2.11243E-18
 -1      2231 8.99228E-05-1.37560E-05-3.26418E-05-4.85025E-06-7.19210E-19-2.02803E-18
 -1      2232 8.78352E-05-1.06573E-05-3.31104E-05 6.10339E-07 1.72761E-19-2.54577E-18
 -1      2233 8.78309E-05-1.06523E-05-3.31106E-05-4.90954E-07-2.51275E-20-2.49619E-18
 -1      2234 8.80162E-05-1.08871E-05-3.30897E-05 2.73206E-06 4.74277E-19-2.54367E-18
 -1      2235 8.79016E-05-1.07514E-05-3.31005E-05 1.62165E-06 2.81145E-19-2.58632E-18
 -1      2236 8.91403E-05-1.26817E-05-3.27706E-05 1.03646E-06 2.41068E-19-2.42030E-18
 -1      2237 8.84495E-05-1.14448E-05-3.30395E-05 4.84518E-06 7.60135E-19-2.38369E-18
 -1      2238 8.82113E-05-1.11635E-05-3.30604E-05 3.72884E-06 5.56769E-19-2.46479E-18
 -1      2239 8.94075E-05-1.30459E-05-3.27276E-05 2.98430E-06 4.64697E-19-2.35402E-18
 -1      2240 8.92236E-05-1.24412E-05-3.29524E-05 7.02238E-06 1.14176E-18-2.06664E-18
 -1      2241 8.88097E-05-1.19494E-05-3.29860E-05 5.85478E-06 9.35604E-19-2.24623E-18
 -1      2242 8.99654E-05-1.38087E-05-3.26372E-05 4.92076E-06 8.02342E-19-2.14930E-18
 -1      2243 9.04792E-05-1.40633E-05-3.28137E-05 9.16883E-06 1.48989E-18-1.61747E-18
 -1      2244 8.98080E-05-1.32482E-05-3.28653E-05 7.99064E-06 1.23553E-18-1.90527E-18
 -1      2245 9.08968E-05-1.50864E-05-3.24831E-05 6.80715E-06 1.08810E-18-1.85169E-18
 -1      2246 9.24487E-05-1.66428E-05-3.25885E-05 1.10582E-05 1.81995E-18-1.01179E-18
 -1      2247 9.13868E-05-1.53016E-05-3.26685E-05 9.97600E-06 1.59784E-18-1.35276E-18
 -1      2248 9.23061E-05-1.70561E-05-3.22292E-05 8.45348E-06 1.45939E-18-1.34681E-18
 -1      2249 9.42140E-05-2.70870E-05-2.87510E-05 1.68836E-06 1.14655E-18 1.62968E-19
 -1      2250 9.47978E-05-2.68638E-05-2.90430E-05 2.67585E-06 1.35930E-18 4.34773E-19
 -1      2251 9.53170E-05-2.58178E-05-2.97938E-05 4.29038E-06 1.50419E-18-1.30503E-19
 -1      2252 9.58744E-05-2.50644E-05-3.03012E-05-6.13927E-06-1.45297E-18-5.91136E-20
 -1      2253 9.52308E-05-2.58169E-05-2.97622E-05-4.20798E-06-1.31939E-18-1.76628E-19
 -1      2254 9.51252E-05-2.65044E-05-2.93518E-05-2.85568E-06-1.15904E-18-1.18987E-19
 -1      2255 9.46719E-05-2.68711E-05-2.90562E-05-1.77335E-06-9.61965E-19-2.24230E-19
 -1      2256 9.53387E-05-2.53321E-05-3.00094E-05-4.20450E-06-1.31442E-18-5.01697E-19
 -1      2257 9.44911E-05-2.71956E-05-2.88024E-05-8.92746E-07-9.01356E-19-2.17280E-19
 -1      2258 9.42584E-05-2.74061E-05-2.86470E-05-2.60682E-07-7.87779E-19-3.48914E-19
 -1      2259 9.50513E-05-2.66456E-05-2.93305E-05-1.77675E-06-1.01440E-18-6.47748E-19
 -1      2260 9.41307E-05-2.75804E-05-2.84989E-05 2.89565E-07-5.75892E-19-3.71836E-19
 -1      2261 9.40704E-05-2.77216E-05-2.84305E-05 6.63448E-07-4.20184E-19-2.97191E-19
 -1      2262 9.47816E-05-2.73557E-05-2.89106E-05-2.21218E-07-7.67240E-19-6.84815E-19
 -1      2263 9.40155E-05-2.78242E-05-2.83549E-05 1.00567E-06-4.44236E-19-3.97520E-19
 -1      2264 9.40758E-05-2.79302E-05-2.83430E-05 1.23108E-06-3.84174E-19-4.58239E-19
 -1      2265 9.46293E-05-2.77611E-05-2.86693E-05 7.58637E-07-5.29409E-19-6.86850E-19
 -1      2266 9.40851E-05-2.79943E-05-2.83179E-05 1.44955E-06-5.24411E-19-5.52667E-19
 -1      2267 9.42288E-05-2.80792E-05-2.83443E-05 1.59487E-06-4.99387E-19-7.03265E-19
 -1      2268 9.46047E-05-2.80033E-05-2.85524E-05 1.37986E-06-5.69036E-19-8.38410E-19
 -1      2269 9.42895E-05-2.81202E-05-2.83553E-05 1.74834E-06-3.60678E-19-7.47935E-19
 -1      2270 9.44937E-05-2.81916E-05-2.84090E-05 1.85889E-06-3.57138E-19-7.29743E-19
 -1      2271 9.46879E-05-2.81481E-05-2.85239E-05 1.79492E-06-4.55632E-19-1.12134E-18
 -1      2272 9.45955E-05-2.82175E-05-2.84470E-05 1.98917E-06-7.02937E-19-6.35687E-19
 -1      2273 9.48488E-05-2.82807E-05-2.85220E-05 2.09668E-06-8.63784E-19-6.03877E-19
 -1      2274 9.48578E-05-2.82303E-05-2.85601E-05 2.11131E-06-4.79091E-19-1.13419E-18
 -1      2275 9.49855E-05-2.82970E-05-2.85814E-05 2.23427E-06-6.74506E-19-4.74551E-19
 -1      2276 9.52850E-05-2.83572E-05-2.86750E-05 2.36166E-06-4.14249E-19-4.26447E-19
 -1      2277 9.50994E-05-2.82702E-05-2.86456E-05 2.40653E-06-6.89998E-19-7.03255E-19
 -1      2278 9.54547E-05-2.83688E-05-2.87524E-05 2.52892E-06-4.26693E-19-3.72162E-19
 -1      2279 9.58041E-05-2.84322E-05-2.88640E-05 2.69254E-06-3.99568E-19-5.13769E-19
 -1      2280 9.54060E-05-2.82831E-05-2.87710E-05 2.73723E-06-5.18424E-19-4.76269E-19
 -1      2281 9.60086E-05-2.84445E-05-2.89577E-05 2.90516E-06-3.25213E-19-5.50506E-19
 -1      2282 9.64162E-05-2.85188E-05-2.90878E-05 3.11535E-06-1.08349E-19-5.24316E-19
 -1      2283 9.57784E-05-2.82835E-05-2.89302E-05 3.14416E-06-4.50691E-19-3.61377E-19
 -1      2284 9.66607E-05-2.85394E-05-2.91965E-05 3.38238E-06 3.28143E-20-7.16678E-19
 -1      2285 9.71377E-05-2.86352E-05-2.93460E-05 3.64257E-06 2.53183E-19-5.69891E-19
 -1      2286 9.62245E-05-2.82884E-05-2.91194E-05 3.65376E-06-4.98585E-20-3.40153E-19
 -1      2287 9.74315E-05-2.86754E-05-2.94681E-05 3.96495E-06 3.30517E-20-7.84118E-19
 -1      2288 9.79909E-05-2.88074E-05-2.96373E-05 4.26911E-06-2.79049E-20-7.66803E-19
 -1      2289 9.67595E-05-2.83220E-05-2.93346E-05 4.27695E-06-2.22017E-20-6.28362E-19
 -1      2290 9.83481E-05-2.88850E-05-2.97704E-05 4.63652E-06 2.44312E-20-8.49245E-19
 -1      2291 9.90031E-05-2.90739E-05-2.99575E-05 4.96451E-06 2.31528E-21-7.54028E-19
 -1      2292 9.74077E-05-2.84207E-05-2.95707E-05 5.00462E-06 3.64456E-20-5.78957E-19
 -1      2293 9.94460E-05-2.92166E-05-3.00972E-05 5.35005E-06 7.23109E-20-5.38723E-19
 -1      2294 1.00208E-04-2.94912E-05-3.02979E-05 5.66085E-06 2.33458E-19-6.60212E-19
 -1      2295 9.82062E-05-2.86405E-05-2.98199E-05 5.79945E-06-1.55744E-19-6.32771E-19
 -1      2296 1.00771E-04-2.97405E-05-3.04379E-05 6.01318E-06 2.46547E-19-4.89693E-19
 -1      2297 1.01648E-04-3.01390E-05-3.06433E-05 6.23610E-06-5.03110E-20-5.02843E-19
 -1      2298 9.92120E-05-2.90658E-05-3.00709E-05 6.58312E-06 2.42859E-19-5.93112E-19
 -1      2299 1.02382E-04-3.05522E-05-3.07760E-05 6.46903E-06-4.48276E-19-7.41857E-19
 -1      2300 1.03374E-04-3.11185E-05-3.09733E-05 6.49525E-06-2.99876E-19-7.49259E-19
 -1      2301 1.00511E-04-2.98161E-05-3.03097E-05 7.21889E-06-2.63281E-19-6.12519E-19
 -1      2302 1.04348E-04-3.17628E-05-3.10927E-05 6.47644E-06-2.11043E-20-7.14678E-19
 -1      2303 1.05434E-04-3.25306E-05-3.12666E-05 6.15679E-06 1.34045E-19-7.56812E-19
 -1      2304 1.02222E-04-3.10416E-05-3.05243E-05 7.49046E-06-3.55277E-19-5.22102E-19
 -1      2305 1.06718E-04-3.34573E-05-3.13741E-05 5.70183E-06 1.51111E-19-9.31809E-19
 -1      2306 1.07838E-04-3.44094E-05-3.15125E-05 4.86422E-06 5.12521E-20-1.13296E-18
 -1      2307 1.04489E-04-3.28849E-05-3.07141E-05 7.08347E-06-1.56808E-19-1.05562E-18
 -1      2308 1.09458E-04-3.55905E-05-3.16273E-05 3.75295E-06 1.63497E-19-1.08696E-18
 -1      2309 1.10470E-04-3.65807E-05-3.17302E-05 2.26028E-06 4.33062E-19-1.18043E-18
 -1      2310 1.07414E-04-3.53740E-05-3.09088E-05 5.58955E-06-7.93076E-20-1.35094E-18
 -1      2311 1.12296E-04-3.77928E-05-3.18996E-05 3.12251E-07 5.81630E-19-1.26705E-18
 -1      2312 1.12932E-04-3.84451E-05-3.19932E-05-1.80345E-06 7.41716E-19-1.00018E-18
 -1      2313 1.10914E-04-3.82111E-05-3.11901E-05 2.58147E-06 4.71576E-19-4.53917E-19
 -1      2314 1.14518E-04-3.91392E-05-3.23015E-05-4.50735E-06 6.40244E-19-6.43548E-19
 -1      2315 1.14417E-04-3.88513E-05-3.24366E-05-6.83727E-06 6.82431E-19-5.47615E-19
 -1      2316 1.14418E-04-4.04236E-05-3.17139E-05-2.14601E-06 9.54831E-19-1.05192E-18
 -1      2317 1.15065E-04-3.82771E-05-3.29609E-05-9.63436E-06 6.06414E-19-6.65048E-19
 -1      2318 1.13940E-04-3.64888E-05-3.31866E-05-1.12795E-05 1.00147E-18-3.19169E-19
 -1      2319 1.16764E-04-4.04783E-05-3.26802E-05-7.91675E-06 6.94640E-19-6.58439E-19
 -1      2320 1.12965E-04-3.41193E-05-3.39151E-05-1.26346E-05 6.74847E-19-6.55488E-19
 -1      2321 1.11120E-04-3.11359E-05-3.42106E-05-1.23245E-05 7.92505E-20-2.63664E-19
 -1      2322 1.16401E-04-3.65739E-05-3.41703E-05-1.26770E-05 4.39594E-19-4.90416E-19
 -1      2323 1.09056E-04-2.78869E-05-3.49325E-05-1.06737E-05-9.07384E-20-5.70834E-19
 -1      2324 1.07461E-04-2.52627E-05-3.51733E-05-7.82819E-06-3.01451E-19-2.10832E-19
 -1      2325 1.13169E-04-2.94068E-05-3.59226E-05-1.28472E-05-2.24199E-20-1.26078E-18
 -1      2326 1.06172E-04-2.34337E-05-3.55293E-05-3.20574E-06-1.46987E-19-1.07320E-19
 -1      2327 1.05978E-04-2.31094E-05-3.55591E-05 1.05017E-06 1.02888E-19-1.55603E-19
 -1      2328 1.09519E-04-2.29125E-05-3.72363E-05-6.33130E-06-2.42079E-19-7.84667E-19
 -1      2329 1.06827E-04-2.43074E-05-3.53309E-05 6.05364E-06 2.29043E-19-2.81357E-19
 -1      2330 1.08190E-04-2.65470E-05-3.51277E-05 9.38598E-06 1.60407E-19-6.34858E-19
 -1      2331 1.09041E-04-2.21099E-05-3.73920E-05 4.08320E-06 5.60233E-20-1.00540E-18
 -1      2332 1.10264E-04-2.96969E-05-3.44571E-05 1.18163E-05-1.02860E-18-1.14519E-18
 -1      2333 1.12163E-04-3.27804E-05-3.41590E-05 1.27034E-05-1.90938E-18-1.56466E-18
 -1      2334 1.12241E-04-2.76731E-05-3.62964E-05 1.19420E-05-9.43820E-19-1.05627E-18
 -1      2335 1.13478E-04-3.54708E-05-3.34065E-05 1.19134E-05-1.88323E-18-1.08458E-18
 -1      2336 1.14808E-04-3.75948E-05-3.31611E-05 1.06324E-05-1.28357E-18-6.80126E-19
 -1      2337 1.15873E-04-3.51206E-05-3.45705E-05 1.32464E-05-1.65882E-18-7.33868E-19
 -1      2338 1.14531E-04-3.85915E-05-3.25855E-05 8.01673E-06-1.54362E-18-5.62283E-19
 -1      2339 1.14857E-04-3.91936E-05-3.24351E-05 5.74290E-06-1.47404E-18-1.70954E-19
 -1      2340 1.16953E-04-3.98941E-05-3.29849E-05 9.25036E-06-1.40557E-18-7.02915E-19
 -1      2341 1.13413E-04-3.87147E-05-3.20854E-05 2.93025E-06-1.14017E-18-2.40118E-19
 -1      2342 1.12915E-04-3.82164E-05-3.19893E-05 7.16708E-07-3.16195E-19-4.84926E-20
 -1      2343 1.15136E-04-4.07014E-05-3.19038E-05 3.44364E-06-1.06758E-18-6.01982E-19
 -1      2344 1.11095E-04-3.70588E-05-3.17972E-05-1.41711E-06 3.01458E-19 6.70903E-19
 -1      2345 1.10146E-04-3.61020E-05-3.17018E-05-3.05459E-06 3.88348E-19 8.47169E-19
 -1      2346 1.11765E-04-3.88066E-05-3.12977E-05-1.60568E-06 4.59882E-19 4.63054E-19
 -1      2347 1.08466E-04-3.48834E-05-3.15829E-05-4.33334E-06 9.16400E-20 1.22238E-18
 -1      2348 1.07364E-04-3.39033E-05-3.14572E-05-5.29946E-06 3.14269E-19 1.31182E-18
 -1      2349 1.08201E-04-3.59946E-05-3.09803E-05-4.98327E-06 3.11051E-19 1.81186E-18
 -1      2350 1.06010E-04-3.29100E-05-3.13551E-05-5.86867E-06 4.57431E-19 1.65579E-18
 -1      2351 1.04923E-04-3.20961E-05-3.11940E-05-6.27540E-06 9.51733E-19 2.15418E-18
 -1      2352 1.05138E-04-3.33781E-05-3.07830E-05-6.75867E-06 8.93893E-19 3.45462E-18
 -1      2353 1.03894E-04-3.13889E-05-3.10836E-05-6.35515E-06 7.28121E-19 2.17947E-18
 -1      2354 1.02899E-04-3.07800E-05-3.08975E-05-6.37277E-06 7.43587E-19 2.00101E-18
 -1      2355 1.02744E-04-3.13771E-05-3.06062E-05-7.33660E-06 7.13411E-19 2.67434E-18
 -1      2356 1.02130E-04-3.03188E-05-3.07745E-05-6.15768E-06 6.99505E-19 7.52451E-19
 -1      2357 1.01253E-04-2.98884E-05-3.05790E-05-5.94246E-06 7.22085E-19-6.39167E-19
 -1      2358 1.00942E-04-3.00158E-05-3.04104E-05-7.13904E-06 4.36739E-19 1.48931E-18
 -1      2359 1.00673E-04-2.96062E-05-3.04488E-05-5.57580E-06 1.20055E-18-6.11670E-19
 -1      2360 9.99200E-05-2.93111E-05-3.02580E-05-5.24511E-06 5.05651E-19-2.96042E-19
 -1      2361 9.95905E-05-2.91650E-05-3.01917E-05-6.50211E-06 3.99992E-19 6.15184E-19
 -1      2362 9.94743E-05-2.91474E-05-3.01284E-05-4.82176E-06 1.74262E-20 5.27187E-19
 -1      2363 9.88401E-05-2.89479E-05-2.99524E-05-4.45347E-06 1.22601E-19 3.96368E-19
 -1      2364 9.85645E-05-2.86714E-05-2.99610E-05-5.66140E-06 6.90868E-19 6.34158E-19
 -1      2365 9.84913E-05-2.88580E-05-2.98302E-05-4.03104E-06-7.39210E-21 1.35656E-18
 -1      2366 9.79664E-05-2.87236E-05-2.96747E-05-3.67145E-06 1.60378E-19 2.14051E-18
 -1      2367 9.77711E-05-2.84077E-05-2.97326E-05-4.76836E-06 9.74748E-19 2.12968E-18
 -1      2368 9.76897E-05-2.86769E-05-2.95647E-05-3.28129E-06-2.53678E-19 2.67071E-18
 -1      2369 9.72624E-05-2.85860E-05-2.94322E-05-2.95424E-06 7.68674E-20 2.52754E-18
 -1      2370 9.71481E-05-2.82824E-05-2.95185E-05-3.91204E-06 9.72855E-20 3.36147E-18
 -1      2371 9.70414E-05-2.85630E-05-2.93368E-05-2.61023E-06 5.46649E-19 2.14519E-18
 -1      2372 9.66990E-05-2.85003E-05-2.92274E-05-2.32474E-06 1.28734E-18 1.70156E-18
 -1      2373 9.66539E-05-2.82344E-05-2.93267E-05-3.13816E-06 1.22488E-19 2.71370E-18
 -1      2374 9.65217E-05-2.84886E-05-2.91476E-05-2.02979E-06 9.48061E-19 1.45784E-18
 -1      2375 9.62516E-05-2.84432E-05-2.90600E-05-1.78576E-06 5.62628E-19 1.93789E-18
 -1      2376 9.62598E-05-2.82245E-05-2.91616E-05-2.46391E-06 1.17400E-18 2.14187E-18
 -1      2377 9.61081E-05-2.84344E-05-2.89953E-05-1.53552E-06 5.79028E-19 1.80309E-18
 -1      2378 9.58986E-05-2.83995E-05-2.89272E-05-1.32734E-06-2.27033E-19 2.50139E-18
 -1      2379 9.59435E-05-2.82273E-05-2.90243E-05-1.88845E-06 6.93545E-19 2.21044E-18
 -1      2380 9.57821E-05-2.83906E-05-2.88762E-05-1.11445E-06-1.12341E-18 3.30295E-18
 -1      2381 9.56246E-05-2.83617E-05-2.88249E-05-9.36018E-07-1.72995E-18 3.48114E-18
 -1      2382 9.56878E-05-2.82285E-05-2.89136E-05-1.39939E-06-4.54697E-19 2.69952E-18
 -1      2383 9.34262E-05-2.76635E-05-2.81747E-05-6.01694E-07 4.55351E-19-4.87733E-19
 -1      2384 9.34658E-05-2.75558E-05-2.82223E-05-2.82499E-07 6.28542E-19-2.40644E-19
 -1      2385 9.34672E-05-2.78338E-05-2.81212E-05-1.10503E-06 2.56154E-19-7.00042E-19
 -1      2386 9.33659E-05-2.77371E-05-2.81130E-05-9.18327E-07 3.43756E-19-5.91164E-19
 -1      2387 9.41160E-05-2.77547E-05-2.84530E-05-7.10406E-07 5.47680E-19-7.15159E-19
 -1      2388 9.36918E-05-2.79808E-05-2.81552E-05-1.41411E-06 2.86743E-19-5.23474E-19
 -1      2389 9.34986E-05-2.78901E-05-2.81106E-05-1.29817E-06 2.68755E-19-6.37494E-19
 -1      2390 9.41121E-05-2.79556E-05-2.83624E-05-1.28524E-06 3.76713E-19-7.46556E-19
 -1      2391 9.40477E-05-2.81154E-05-2.82501E-05-1.62756E-06 3.40033E-19-2.64511E-19
 -1      2392 9.37910E-05-2.80285E-05-2.81803E-05-1.54264E-06 2.89976E-19-3.38731E-19
 -1      2393 9.42558E-05-2.80971E-05-2.83610E-05-1.65425E-06 1.84404E-19-7.69220E-19
 -1      2394 9.45055E-05-2.82440E-05-2.83906E-05-1.81326E-06 2.38665E-19-1.36989E-19
 -1      2395 9.41987E-05-2.81585E-05-2.83014E-05-1.73190E-06 4.71671E-19-1.34067E-19
 -1      2396 9.45110E-05-2.82029E-05-2.84235E-05-1.92389E-06 3.76565E-19-5.29644E-19
 -1      2397 9.50541E-05-2.83732E-05-2.85695E-05-2.01984E-06 4.35313E-19-4.28799E-19
 -1      2398 9.46999E-05-2.82854E-05-2.84628E-05-1.92226E-06 2.69005E-19-2.80535E-19
 -1      2399 9.48555E-05-2.82863E-05-2.85345E-05-2.16893E-06 3.87589E-19-3.87429E-19
 -1      2400 9.56964E-05-2.85110E-05-2.87844E-05-2.28252E-06 9.72415E-19-7.25420E-19
 -1      2401 9.52894E-05-2.84159E-05-2.86598E-05-2.15441E-06 7.39475E-19-6.86731E-19
 -1      2402 9.52799E-05-2.83580E-05-2.86853E-05-2.44331E-06 7.52839E-19-8.74614E-19
 -1      2403 9.64451E-05-2.86685E-05-2.90364E-05-2.62531E-06 1.29993E-18-7.46547E-19
 -1      2404 9.59750E-05-2.85594E-05-2.88921E-05-2.45727E-06 1.23028E-18-5.35519E-19
 -1      2405 9.57854E-05-2.84289E-05-2.88715E-05-2.78565E-06 1.08589E-18-7.59632E-19
 -1      2406 9.73204E-05-2.88603E-05-2.93280E-05-3.06049E-06 9.22847E-19-6.18819E-19
 -1      2407 9.67734E-05-2.87284E-05-2.91615E-05-2.84873E-06 1.19351E-18-4.80885E-19
 -1      2408 9.63818E-05-2.85128E-05-2.90915E-05-3.22122E-06 1.00721E-18 2.06933E-20
 -1      2409 9.83460E-05-2.91065E-05-2.96613E-05-3.58512E-06 3.08839E-19-4.77182E-19
 -1      2410 9.77076E-05-2.89402E-05-2.94706E-05-3.33363E-06 7.60939E-19-2.76066E-19
 -1      2411 9.70858E-05-2.86284E-05-2.93441E-05-3.76082E-06 6.45032E-19 1.76816E-19
 -1      2412 9.95466E-05-2.94345E-05-3.00357E-05-4.17397E-06 7.70593E-20-3.03897E-19
 -1      2413 9.88043E-05-2.92191E-05-2.98205E-05-3.89859E-06 1.66801E-20-3.27072E-19
 -1      2414 9.79205E-05-2.88035E-05-2.96274E-05-4.39632E-06 2.76757E-19 5.68058E-19
 -1      2415 1.00944E-04-2.98822E-05-3.04454E-05-4.76839E-06 1.42763E-19-4.09601E-19
 -1      2416 1.00091E-04-2.95987E-05-3.02087E-05-4.50290E-06 3.00152E-19-1.17044E-19
 -1      2417 9.89154E-05-2.90791E-05-2.99365E-05-5.09250E-06-4.81531E-20 9.10827E-19
 -1      2418 1.02553E-04-3.04995E-05-3.08764E-05-5.26098E-06-1.06069E-19-9.00659E-20
 -1      2419 1.01595E-04-3.01252E-05-3.06265E-05-5.06507E-06 6.25481E-20-2.89846E-19
 -1      2420 1.00109E-04-2.95152E-05-3.02624E-05-5.77440E-06 1.66423E-19 8.55507E-19
 -1      2421 1.04375E-04-3.13462E-05-3.13047E-05-5.47835E-06-2.90889E-19-1.95140E-19
 -1      2422 1.03335E-04-3.08581E-05-3.10569E-05-5.44566E-06-2.15907E-19 8.38199E-20
 -1      2423 1.01550E-04-3.01948E-05-3.05907E-05-6.31052E-06-4.17425E-19 6.07551E-19
 -1      2424 1.06384E-04-3.24770E-05-3.16967E-05-5.16950E-06-2.21184E-19-3.65434E-19
 -1      2425 1.05317E-04-3.18630E-05-3.14736E-05-5.43017E-06-4.41918E-19-2.23662E-19
 -1      2426 1.03297E-04-3.12201E-05-3.09032E-05-6.49433E-06-3.63929E-19 2.57088E-20
 -1      2427 1.08499E-04-3.38956E-05-3.20153E-05-4.01923E-06-2.23627E-19-8.03755E-20
 -1      2428 1.07507E-04-3.31825E-05-3.18443E-05-4.72462E-06 3.75375E-20-1.26516E-19
 -1      2429 1.05408E-04-3.26843E-05-3.11837E-05-6.03220E-06-3.02224E-19-4.48870E-20
 -1      2430 1.10533E-04-3.54628E-05-3.22344E-05-1.72426E-06-5.73898E-20-2.59101E-19
 -1      2431 1.09782E-04-3.47652E-05-3.21402E-05-2.99339E-06-1.21960E-19-4.22846E-19
 -1      2432 1.07889E-04-3.45933E-05-3.14304E-05-4.56034E-06 7.08861E-20-7.79204E-22
 -1      2433 1.12116E-04-3.67633E-05-3.23629E-05 1.81805E-06-9.58140E-19 7.88231E-19
 -1      2434 1.11848E-04-3.63416E-05-3.23535E-05 1.05269E-08-2.83660E-19 3.40797E-19
 -1      2435 1.10593E-04-3.67151E-05-3.16739E-05-1.73734E-06-5.50935E-19 4.56902E-19
 -1      2436 1.12663E-04-3.70294E-05-3.24645E-05 6.17411E-06-1.62619E-18 1.04326E-18
 -1      2437 1.13141E-04-3.72864E-05-3.25185E-05 4.16134E-06-1.23225E-18 1.13722E-18
 -1      2438 1.13052E-04-3.83760E-05-3.19956E-05 2.51678E-06-1.24241E-18 1.15404E-18
 -1      2439 1.11543E-04-3.53777E-05-3.26421E-05 1.00206E-05-1.08344E-18 9.25076E-19
 -1      2440 1.12895E-04-3.66647E-05-3.27112E-05 8.55151E-06-1.59515E-18 8.76838E-19
 -1      2441 1.14388E-04-3.84249E-05-3.25178E-05 7.58491E-06-1.52702E-18 1.30871E-18
 -1      2442 1.08662E-04-3.16157E-05-3.29593E-05 1.12160E-05-1.36558E-19 4.04921E-19
 -1      2443 1.10606E-04-3.37847E-05-3.29964E-05 1.12698E-05-3.55785E-19 2.86489E-19
 -1      2444 1.13620E-04-3.57541E-05-3.33229E-05 1.16847E-05-4.27038E-19 4.34694E-19
 -1      2445 1.05192E-04-2.72191E-05-3.33424E-05 7.95011E-06 6.68918E-19 1.38248E-19
 -1      2446 1.06895E-04-2.92710E-05-3.33425E-05 1.00710E-05-1.83826E-19 4.53295E-20
 -1      2447 1.10640E-04-3.05494E-05-3.43131E-05 1.21248E-05 2.20956E-19-3.09640E-19
 -1      2448 1.03381E-04-2.49732E-05-3.35834E-05 7.97694E-07 1.24397E-18-2.36087E-19
 -1      2449 1.03895E-04-2.55995E-05-3.35774E-05 4.30004E-06 1.25518E-18 2.61952E-19
 -1      2450 1.07246E-04-2.54084E-05-3.51399E-05 7.13598E-06 1.20844E-18-1.18754E-18
 -1      2451 1.04732E-04-2.66420E-05-3.35247E-05-6.83168E-06 1.79944E-18 4.91266E-19
 -1      2452 1.03717E-04-2.53643E-05-3.35309E-05-3.67434E-06 1.00810E-18 5.79091E-19
 -1      2453 1.06149E-04-2.38133E-05-3.53837E-05-1.68068E-06 1.10339E-18-4.09649E-19
 -1      2454 1.08293E-04-3.09645E-05-3.32264E-05-1.10454E-05 1.89075E-18 9.15510E-19
 -1      2455 1.06399E-04-2.87275E-05-3.32154E-05-9.68290E-06 2.34622E-18 6.51352E-19
 -1      2456 1.08360E-04-2.70477E-05-3.48978E-05-9.55506E-06 1.72571E-18 2.18887E-19
 -1      2457 1.11668E-04-3.50670E-05-3.28866E-05-1.06490E-05 2.20132E-18-6.35364E-19
 -1      2458 1.09864E-04-3.31633E-05-3.28351E-05-1.12280E-05 2.53695E-18 5.28211E-19
 -1      2459 1.11907E-04-3.26163E-05-3.39578E-05-1.25559E-05 2.54421E-18-5.75782E-19
 -1      2460 1.13231E-04-3.71197E-05-3.26393E-05-7.07329E-06 2.33814E-19-9.47339E-19
 -1      2461 1.12171E-04-3.62352E-05-3.25676E-05-8.80855E-06 6.90345E-19-1.00833E-18
 -1      2462 1.14184E-04-3.70589E-05-3.30052E-05-1.04905E-05 1.50411E-18-9.17484E-19
 -1      2463 1.12834E-04-3.70610E-05-3.24704E-05-2.61081E-06-8.91505E-19 9.25039E-19
 -1      2464 1.12634E-04-3.71021E-05-3.24327E-05-4.55809E-06-1.76881E-19 2.90084E-19
 -1      2465 1.14118E-04-3.86879E-05-3.23066E-05-5.75712E-06-3.45626E-19-1.42941E-19
 -1      2466 1.11189E-04-3.57962E-05-3.22989E-05 1.16753E-06-9.32362E-19 7.03314E-19
 -1      2467 1.11644E-04-3.63491E-05-3.23360E-05-4.13550E-07-7.08153E-19 1.23918E-18
 -1      2468 1.12255E-04-3.78919E-05-3.18752E-05-8.63639E-07-8.88845E-19 1.84546E-18
 -1      2469 1.09016E-04-3.41731E-05-3.20637E-05 3.68628E-06-5.29617E-19 1.18768E-19
 -1      2470 1.09859E-04-3.48850E-05-3.21843E-05 2.66437E-06-7.86774E-19 1.85056E-19
 -1      2471 1.09640E-04-3.59501E-05-3.15993E-05 2.87403E-06-8.98500E-19 1.77076E-18
 -1      2472 1.06773E-04-3.26743E-05-3.17478E-05 4.99156E-06 1.67306E-20 1.35527E-18
 -1      2473 1.07788E-04-3.33475E-05-3.19358E-05 4.48651E-06 1.68948E-19 6.67788E-19
 -1      2474 1.07001E-04-3.38529E-05-3.13686E-05 5.15291E-06-2.75253E-19 6.95991E-19
 -1      2475 1.04684E-04-3.14747E-05-3.13696E-05 5.38152E-06-5.94373E-19 2.54176E-18
 -1      2476 1.05727E-04-3.20342E-05-3.15977E-05 5.25841E-06-1.73473E-19 1.55038E-18
 -1      2477 1.04670E-04-3.20917E-05-3.11211E-05 6.18318E-06-4.74668E-19 8.11522E-19
 -1      2478 1.02835E-04-3.05816E-05-3.09615E-05 5.18355E-06-2.68249E-19 1.00544E-18
 -1      2479 1.03821E-04-3.10182E-05-3.12028E-05 5.30093E-06 7.24362E-20 1.92564E-18
 -1      2480 1.02725E-04-3.07918E-05-3.08405E-05 6.33002E-06 3.03832E-19 1.76426E-18
 -1      2481 1.01243E-04-2.99401E-05-3.05551E-05 4.66317E-06-1.25450E-18 6.75888E-19
 -1      2482 1.02127E-04-3.02705E-05-3.07892E-05 4.90825E-06-8.84984E-19 8.39455E-19
 -1      2483 1.01135E-04-2.99034E-05-3.05365E-05 5.93516E-06-1.56597E-19 1.74687E-18
 -1      2484 9.98991E-05-2.94862E-05-3.01743E-05 4.00547E-06-4.85562E-19 7.96818E-19
 -1      2485 1.00663E-04-2.97327E-05-3.03880E-05 4.30081E-06-1.24330E-18 5.72410E-19
 -1      2486 9.98396E-05-2.93248E-05-3.02277E-05 5.25897E-06-1.35956E-18 6.49475E-19
 -1      2487 9.87839E-05-2.91658E-05-2.98338E-05 3.32591E-06-1.31952E-20 1.05668E-18
 -1      2488 9.94251E-05-2.93486E-05-3.00204E-05 3.62420E-06 6.94459E-19 1.24037E-18
 -1      2489 9.87863E-05-2.89596E-05-2.99317E-05 4.47742E-06-2.19999E-19 7.71816E-19
 -1      2490 9.78723E-05-2.89385E-05-2.95407E-05 2.68851E-06-3.07362E-19 3.99292E-19
 -1      2491 9.83978E-05-2.90739E-05-2.96979E-05 2.96443E-06-5.04441E-19 4.86210E-19
 -1      2492 9.79311E-05-2.87334E-05-2.96614E-05 3.69811E-06 1.86291E-19 1.00705E-18
 -1      2493 9.71385E-05-2.87754E-05-2.92962E-05 2.12240E-06 4.86984E-19 1.28882E-18
 -1      2494 9.75600E-05-2.88759E-05-2.94248E-05 2.36540E-06 3.73429E-19 8.73907E-19
 -1      2495 9.72401E-05-2.85942E-05-2.94244E-05 2.97921E-06-2.06985E-19-9.90246E-20
 -1      2496 9.65569E-05-2.86556E-05-2.90982E-05 1.63447E-06 1.29239E-18 1.29827E-18
 -1      2497 9.68881E-05-2.87309E-05-2.92004E-05 1.84330E-06 6.15046E-19 1.84463E-18
 -1      2498 9.66855E-05-2.85069E-05-2.92236E-05 2.34567E-06-9.80230E-20 4.77782E-19
 -1      2499 9.61034E-05-2.85644E-05-2.89428E-05 1.21829E-06 8.67597E-19 1.41687E-18
 -1      2500 9.63577E-05-2.86217E-05-2.90215E-05 1.39720E-06 1.04103E-18 2.28336E-18
 -1      2501 9.62438E-05-2.84483E-05-2.90589E-05 1.80127E-06 7.53003E-19 2.14717E-18
 -1      2502 9.57555E-05-2.84923E-05-2.88248E-05 8.59559E-07 9.26559E-19 2.41709E-18
 -1      2503 9.59449E-05-2.85357E-05-2.88831E-05 1.01562E-06 1.26289E-18 2.05195E-18
 -1      2504 9.58930E-05-2.84023E-05-2.89278E-05 1.33858E-06 6.74637E-19 4.02548E-18
 -1      2505 9.54941E-05-2.84360E-05-2.87371E-05 5.48636E-07-1.40972E-18 2.25986E-18
 -1      2506 9.56316E-05-2.84682E-05-2.87792E-05 6.86081E-07-5.01093E-19 2.34666E-18
 -1      2507 9.56185E-05-2.83658E-05-2.88262E-05 9.40084E-07 2.04452E-19 4.47571E-18
 -1      2508 9.53975E-05-2.84253E-05-2.86991E-05 3.88878E-07-6.48073E-19 1.79918E-18
 -1      2509 9.47071E-05-2.72699E-05-2.89061E-05 7.87933E-07 4.78620E-19-2.25273E-18
 -1      2510 9.48014E-05-2.74031E-05-2.88836E-05 8.50069E-07 5.04172E-19-4.07868E-18
 -1      2511 9.45486E-05-2.70419E-05-2.89360E-05 5.65596E-07 1.93395E-19-4.55958E-19
 -1      2512 9.46187E-05-2.71412E-05-2.89191E-05 6.78163E-07-8.60241E-20-1.21606E-18
 -1      2513 9.45855E-05-2.71301E-05-2.89064E-05 8.55897E-07 8.79705E-19-2.32015E-18
 -1      2514 9.51262E-05-2.78792E-05-2.88229E-05 8.65838E-07-1.03004E-18-3.92166E-19
 -1      2515 9.52286E-05-2.80287E-05-2.87963E-05 8.11219E-07-5.39672E-19 8.83557E-19
 -1      2516 9.49093E-05-2.75612E-05-2.88672E-05 8.93849E-07-1.22860E-18-4.30655E-18
 -1      2517 9.50142E-05-2.77096E-05-2.88420E-05 8.96059E-07-1.31450E-18-1.92071E-18
 -1      2518 9.50811E-05-2.77597E-05-2.88504E-05 1.04323E-06-9.50360E-19-1.76253E-18
 -1      2519 9.48173E-05-2.74233E-05-2.88813E-05 1.02305E-06 2.52130E-19-3.80865E-18
 -1      2520 9.31655E-05-5.11816E-05-1.80503E-05 4.14136E-05-1.94648E-18 6.71379E-19
 -1      2521 7.66304E-05-4.53077E-05-1.32319E-05 4.12140E-05-3.09908E-18 8.68791E-19
 -1      2522 9.44541E-05-2.69058E-05-2.89534E-05 2.61214E-07-5.58938E-19 7.08832E-19
 -1      2523 9.44913E-05-2.69586E-05-2.89444E-05 4.06701E-07-1.99191E-19-6.21845E-20
 -1      2524 9.44131E-05-2.69132E-05-2.89246E-05 5.66062E-07-2.02595E-19-2.40570E-19
 -1      2525 9.44346E-05-2.68774E-05-2.89562E-05-8.06464E-08-1.90128E-18-3.04261E-19
 -1      2526 9.44344E-05-2.68771E-05-2.89563E-05 7.62056E-08-1.65608E-18 2.27881E-19
 -1      2527 9.43217E-05-2.67986E-05-2.89341E-05 1.96283E-07-1.12816E-18-1.22578E-18
 -1      2528 9.44922E-05-2.69600E-05-2.89442E-05-4.10835E-07-6.08531E-19 4.74175E-19
 -1      2529 9.44547E-05-2.69065E-05-2.89533E-05-2.65607E-07-1.47014E-18 6.99779E-19
 -1      2530 9.43220E-05-2.67990E-05-2.89341E-05-2.01218E-07-1.06736E-18 2.08870E-19
 -1      2531 9.46177E-05-2.71397E-05-2.89194E-05-6.77723E-07 5.12210E-19-1.69026E-18
 -1      2532 9.45487E-05-2.70420E-05-2.89360E-05-5.67025E-07 1.17052E-19-1.64709E-18
 -1      2533 9.44133E-05-2.69131E-05-2.89247E-05-5.67978E-07-2.67963E-19 5.37180E-19
 -1      2534 9.48004E-05-2.74011E-05-2.88840E-05-8.50400E-07 1.57985E-18 1.91650E-18
 -1      2535 9.47061E-05-2.72681E-05-2.89064E-05-7.87970E-07 1.04725E-18-1.65886E-18
 -1      2536 9.45842E-05-2.71280E-05-2.89067E-05-8.55397E-07 1.40909E-18-1.37208E-18
 -1      2537 9.50165E-05-2.77125E-05-2.88418E-05-8.92961E-07 1.08530E-18 3.08740E-18
 -1      2538 9.49119E-05-2.75623E-05-2.88675E-05-8.94875E-07 6.69633E-19 4.37380E-18
 -1      2539 9.48184E-05-2.74232E-05-2.88816E-05-1.02514E-06 1.50741E-18 2.10974E-18
 -1      2540 9.52322E-05-2.80354E-05-2.87955E-05-8.05634E-07-1.97024E-18 3.13197E-19
 -1      2541 9.51296E-05-2.78828E-05-2.88224E-05-8.68406E-07-2.79298E-19 1.11137E-18
 -1      2542 9.50725E-05-2.77602E-05-2.88496E-05-1.04115E-06 1.75002E-19 1.44423E-18
 -1      2543 9.53405E-05-2.82911E-05-2.87325E-05-5.25210E-07-7.94825E-19 1.32038E-18
 -1      2544 1.28105E-04-5.73146E-05-3.05356E-05 2.44678E-05-1.58374E-18 1.59390E-18
 -1      2545 1.10592E-04-5.61041E-05-2.33306E-05 3.32104E-05-2.06231E-18 1.54171E-18
 -1      2546 1.08261E-04-5.55133E-05-2.23076E-05 3.35765E-05-2.05596E-18 2.06766E-18
 -1      2547 9.36453E-05-2.74420E-05-2.83599E-05 2.46986E-07 7.20742E-19-1.02236E-19
 -1      2548 9.39022E-05-2.73051E-05-2.84975E-05 8.03502E-07 9.22940E-19-1.19329E-20
 -1      2549 9.43136E-05-2.74440E-05-2.86730E-05 2.27965E-07 9.25336E-19-5.06235E-19
 -1      2550 2.55467E-05-1.93417E-05-2.41875E-06 2.03076E-05-1.64737E-18-3.15520E-20
 -1      2551 2.08777E-05-1.65873E-05-1.42381E-06 7.28086E-06-1.18926E-18-3.81165E-20
 -1      2552 2.02884E-05-1.69307E-05-1.09001E-06-6.81432E-06-1.14543E-18 1.59962E-18
 -1      2553 2.69769E-05-2.06082E-05-2.44973E-06-2.21354E-05-1.12909E-18 1.74192E-18
 -1      2554 1.46705E-04-4.60847E-05-4.32191E-05 5.81107E-06 8.06170E-19-1.04820E-18
 -1      2555 1.38654E-04-5.25749E-05-3.70292E-05 1.16128E-05-1.21179E-19-1.24302E-19
 -1      2556 7.01623E-05-4.27700E-05-1.15450E-05-4.14788E-05 6.25534E-19 2.13071E-18
 -1      2557 8.97755E-05-5.01591E-05-1.69810E-05-4.19400E-05 3.97258E-19 3.43287E-19
 -1      2558 1.34977E-04-5.70787E-05-3.37390E-05 1.89827E-05-1.19718E-18 4.86197E-19
 -1      2559 1.20396E-04-5.77407E-05-2.67153E-05 2.73035E-05-2.22240E-19-4.01070E-19
 -1      2560 6.76520E-05-4.04716E-05-1.15253E-05 4.25738E-05 5.59677E-19-1.18987E-18
 -1      2561 4.83896E-05-3.18433E-05-6.68281E-06 3.60464E-05 9.43171E-19-8.39833E-19
 -1      2562 1.45827E-04-1.43733E-05-5.68730E-05-4.77621E-06 2.41108E-18-3.05705E-18
 -1      2563 1.48408E-04-2.07301E-05-5.49506E-05-5.36748E-06 1.91260E-18-2.31579E-18
 -1      2564 8.78875E-05-1.07340E-05-3.31017E-05-1.50251E-06-1.01791E-19-2.47691E-18
 -1      2565 8.79926E-05-1.08585E-05-3.30916E-05-2.61208E-06-2.80101E-19-2.33769E-18
 -1      2566 8.93798E-05-1.30126E-05-3.27305E-05-2.89419E-06-3.34233E-19-2.15694E-18
 -1      2567 8.91305E-05-1.26696E-05-3.27717E-05-9.28457E-07-8.25845E-20-2.35103E-18
 -1      2568 1.43190E-04-1.17490E-05-5.67928E-05 3.34663E-06 3.56813E-18-3.66659E-18
 -1      2569 1.43143E-04-1.08517E-05-5.71420E-05-9.12994E-07 3.09760E-18-3.81927E-18
 -1      2570 9.47752E-05-5.22180E-05-1.81435E-05-3.89066E-05-1.41031E-19-2.28080E-18
 -1      2571 1.11818E-04-5.61709E-05-2.41707E-05-3.52611E-05 1.77453E-19-7.97482E-19
 -1      2572 1.50012E-04-3.04554E-05-5.16292E-05-3.67687E-06 1.60746E-18-1.32349E-18
 -1      2573 1.47627E-04-3.81305E-05-4.72179E-05-5.44183E-07 1.40131E-18-1.46494E-18
 -1      2574 1.43231E-04-4.32701E-05-4.28894E-05-4.43970E-06 1.22619E-18-1.43487E-18
 -1      2575 1.43557E-04-4.65283E-05-4.17754E-05-8.76618E-07 1.20173E-19 6.31040E-20
 -1      2576 1.45975E-04-3.98767E-05-4.59853E-05 2.99122E-06 2.03500E-19-3.27166E-19
 -1      2577 1.48388E-04-4.23231E-05-4.57627E-05 1.61010E-06-2.42183E-18-1.03762E-18
 -1      2578 1.41950E-04-4.92889E-05-3.98408E-05 6.57883E-06-1.57678E-18-4.88950E-19
 -1      2579 1.28679E-04-5.69539E-05-3.06441E-05-2.17369E-05 1.27055E-21-5.70265E-19
 -1      2580 1.40442E-04-5.38674E-05-3.75177E-05-1.23018E-05 1.23614E-19-3.11285E-19
 -1      2581 1.39911E-04-5.18750E-05-3.77355E-05-1.75822E-06 2.57915E-19 3.67718E-19
 -1      2582 6.05958E-05-3.90763E-05-8.99575E-06-4.02672E-05-1.31290E-19-3.67464E-18
 -1      2583 7.79988E-05-4.58185E-05-1.37787E-05-4.32563E-05 1.23455E-19-3.32556E-18
 -1      2584 9.24759E-05-5.02221E-05-1.77197E-05-3.92573E-05-1.99053E-19-2.15985E-18
 -1      2585 2.76110E-05-2.34835E-05-1.55651E-06-2.34698E-05-4.17164E-19-4.04141E-18
 -1      2586 4.07240E-05-2.91734E-05-4.88423E-06-3.51526E-05-2.02017E-19-3.85400E-18
 -1      2587 1.73357E-05-1.84140E-05 6.20027E-07 2.86582E-06 5.01655E-19-2.77912E-18
 -1      2588 1.88311E-05-1.89135E-05 1.96071E-07-1.10259E-05 3.48978E-19-3.17722E-18
 -1      2589 3.00228E-05-2.27053E-05-3.00703E-06 2.67122E-05 1.66357E-18-7.95364E-19
 -1      2590 2.19541E-05-1.99467E-05-5.91147E-07 1.42613E-05 1.55251E-18-2.22685E-18
 -1      2591 1.02750E-04-5.42432E-05-2.09764E-05 3.84369E-05 5.03561E-19-1.52659E-18
 -1      2592 8.65395E-05-4.91967E-05-1.57893E-05 4.03220E-05 5.74924E-19-1.35744E-18
 -1      2593 1.46502E-04-4.39110E-05-4.41273E-05-4.63626E-06-1.15776E-18-1.57463E-18
 -1      2594 1.50142E-04-3.71870E-05-4.88278E-05 3.20151E-07-1.21475E-18-1.65764E-18
 -1      2595 1.50664E-04-2.63168E-05-5.36514E-05-4.33362E-06-2.72490E-18-1.50581E-18
 -1      2596 1.47760E-04-3.23166E-05-4.98657E-05-3.49809E-06-2.80198E-18-1.21782E-18
 -1      2597 1.45213E-04-1.29041E-05-5.72975E-05-3.78398E-06-3.85400E-18-5.50466E-19
 -1      2598 1.48205E-04-1.83121E-05-5.59657E-05-4.60257E-06-3.37204E-18-1.28389E-18
 -1      2599 1.39243E-04-2.03411E-05-5.11285E-05-9.80220E-06-2.46592E-18-1.22820E-20
 -1      2600 1.45629E-04-1.23705E-05-5.75051E-05 3.07860E-06-2.13071E-18-1.56034E-18
 -1      2601 1.45088E-04-1.11263E-05-5.78999E-05 2.36294E-07-3.30216E-18-9.50980E-19
 -1      2602 1.47881E-04-2.62215E-05-5.23633E-05 5.28720E-06-1.86728E-18-2.33188E-18
 -1      2603 1.47394E-04-1.83357E-05-5.57819E-05 5.85789E-06-1.77136E-18-2.20229E-18
 -1      2604 1.33450E-04-5.51271E-05-3.36339E-05-1.89872E-05-1.14498E-18-2.31261E-18
 -1      2605 1.43130E-04-5.06533E-05-3.97038E-05-1.29164E-05-1.19569E-18-1.99561E-18
 -1      2606 1.04714E-04-5.47819E-05-2.14409E-05-3.59489E-05-8.25857E-20-7.31836E-19
 -1      2607 1.20160E-04-5.68824E-05-2.72672E-05-2.99688E-05-6.03087E-19-2.41891E-18
 -1      2608 1.02339E-04-5.40850E-05-2.03638E-05-3.66588E-05 1.33196E-18-1.17453E-18
 -1      2609 4.00847E-05-2.63658E-05-5.44046E-06-3.11346E-05-2.38440E-19 2.62030E-18
 -1      2610 5.22154E-05-3.22987E-05-8.30608E-06-3.86273E-05-2.58345E-19 3.62043E-18
 -1      2611 9.50357E-05-2.00067E-05-3.22034E-05-1.17101E-05-1.79227E-18-2.63427E-19
 -1      2612 9.54341E-05-2.33428E-05-3.09216E-05-7.92072E-06-1.67718E-18-1.96662E-19
 -1      2613 9.50593E-05-2.25287E-05-3.10596E-05-7.59461E-06-1.59175E-18-5.87937E-19
 -1      2614 9.32048E-05-1.76073E-05-3.24162E-05-1.13582E-05-1.72702E-18-8.28306E-19
 -1      2615 9.62648E-05-2.50691E-05-3.05378E-05 7.56148E-06 1.65567E-18 6.12802E-19
 -1      2616 9.73787E-05-2.37538E-05-3.15748E-05 1.06640E-05 1.75783E-18 7.98064E-19
 -1      2617 9.58321E-05-2.12837E-05-3.20052E-05 1.18610E-05 1.88233E-18 1.89074E-19
 -1      2618 9.58379E-05-2.41379E-05-3.07621E-05 7.63732E-06 1.69176E-18-1.21932E-19
 -1      2619 5.80499E-05-3.54443E-05-9.44451E-06 4.07628E-05-3.05228E-18 8.78373E-19
 -1      2620 3.98420E-05-2.63089E-05-5.33889E-06 3.11007E-05-2.67514E-18 8.23740E-19
 -1      2621 1.35122E-04-1.16276E-05-5.32116E-05-3.89177E-06 2.97944E-18-4.35084E-18
 -1      2622 9.08291E-05-1.49942E-05-3.24920E-05-6.73683E-06-1.12781E-18-1.97723E-18
 -1      2623 8.97441E-05-1.31622E-05-3.28725E-05-7.89724E-06-1.19449E-18-2.09264E-18
 -1      2624 9.03648E-05-1.38843E-05-3.28389E-05-9.12595E-06-1.40480E-18-1.94646E-18
 -1      2625 9.47385E-05-2.69021E-05-2.90861E-05 1.77158E-06 1.20910E-18-3.00836E-19
 -1      2626 9.42155E-05-1.90664E-05-3.22517E-05 1.15644E-05 1.81275E-18-4.33191E-19
 -1      2627 7.35214E-05-4.01380E-05-1.38980E-05 3.91279E-05-2.65545E-18 1.53991E-18
 -1      2628 1.40938E-04-3.34663E-05-4.64298E-05 1.02481E-05 9.22207E-20-4.11234E-19
 -1      2629 1.37117E-04-1.47009E-05-5.27874E-05 6.16068E-06 2.37190E-18-2.83841E-18
 -1      2630 1.29226E-04-5.86536E-05-3.02921E-05-2.17593E-05-8.84726E-19-2.32902E-18
 -1      2631 1.33966E-04-5.81243E-05-3.30359E-05-1.22871E-05-4.27593E-19-1.85765E-18
 -1      2632 1.23348E-04-5.89438E-05-2.72867E-05-2.38861E-05-2.24358E-19-2.26587E-18
 -1      2633 1.43140E-04-3.16933E-05-4.79034E-05 8.27372E-06-1.54361E-18-2.51336E-18
 -1      2634 1.35554E-04-1.07770E-05-5.37382E-05-2.72514E-06-3.16790E-18-1.04979E-18
 -1      2635 9.54027E-05-2.83339E-05-2.87432E-05 5.88142E-07-7.60623E-19 2.06901E-18
 -1      2636 9.46969E-05-2.05816E-05-3.17194E-05 9.62017E-06 1.72519E-18-5.60048E-19
 -1      2637 9.53589E-05-2.82307E-05-2.87691E-05 6.88549E-07-6.08550E-19 1.26565E-18
 -1      2638 9.54558E-05-2.83428E-05-2.87594E-05-6.61170E-07-1.83029E-18 1.77372E-18
 -1      2639 9.53318E-05-2.81770E-05-2.87828E-05-7.55466E-07-1.96978E-18 1.09004E-18
 -1      2640 9.53374E-05-2.80821E-05-2.88217E-05-9.60745E-07-2.69498E-18 1.14509E-18
 -1      2641 9.55624E-05-2.83572E-05-2.87968E-05-8.06205E-07-2.36775E-18 3.33769E-18
 -1      2642 2.68267E-05-1.45333E-05-4.67463E-06-3.51097E-07-1.57551E-18 9.49100E-19
 -1      2643 1.35470E-04-5.75084E-05-3.34849E-05 1.43623E-05-9.92405E-19 5.34690E-19
 -1      2644 1.29642E-04-5.87366E-05-3.00839E-05 1.68827E-05-1.60709E-18 1.28500E-18
 -1      2645 1.37173E-04-5.48640E-05-3.58975E-05 3.93194E-06 1.78208E-19-5.89111E-19
 -1      2646 1.43278E-04-4.90450E-05-4.03727E-05-2.08092E-06-1.12780E-18-2.45661E-18
 -1      2647 4.13281E-05-2.18036E-05-7.79411E-06 2.63641E-05-1.80407E-18-2.96462E-19
 -1      2648 1.16542E-04-5.76048E-05-2.49454E-05 2.88143E-05 8.24057E-19-3.10543E-19
 -1      2649 3.94581E-05-2.10832E-05-7.30541E-06-2.58888E-05-6.45227E-19 1.91726E-18
 -1      2650 4.66705E-05-2.60514E-05-8.25683E-06 3.12592E-05 1.68136E-18-1.38320E-18
 -1      2651 9.20544E-05-1.62183E-05-3.25426E-05-1.03397E-05-1.55091E-18-1.29003E-18
 -1      2652 6.91022E-05-3.82768E-05-1.27734E-05-3.87417E-05 9.56088E-19 1.06176E-18
 -1      2653 2.59032E-05-1.56763E-05-3.84162E-06 8.42560E-06 1.40761E-18-1.57146E-18
 -1      2654 1.24026E-04-5.86144E-05-2.78238E-05-2.42609E-05-3.97153E-19-6.36651E-19
 -1      2655 1.43180E-04-3.78656E-05-4.52406E-05-7.59013E-06-1.91631E-18-3.78624E-19
 -1      2656 1.41391E-04-2.55048E-05-4.97824E-05-9.60503E-06 2.09810E-18-2.71771E-18
 -1      2657 8.20922E-05-4.47589E-05-1.56116E-05 3.96344E-05 1.04969E-18-1.07616E-18
 -1      2658 1.38500E-04-5.52008E-05-3.57698E-05 7.14242E-06-5.94326E-19 2.20229E-20
 -1      2659 5.72225E-05-3.34655E-05-9.71145E-06-3.74594E-05-5.59465E-19-3.77925E-18
 -1      2660 2.96992E-05-1.84847E-05-4.27091E-06-1.77592E-05 1.34572E-19-3.41058E-18
 -1      2661 1.37080E-04-1.46940E-05-5.27174E-05 7.08112E-06-1.76818E-18-2.02473E-18
 -1      2662 9.53677E-05-2.81413E-05-2.88090E-05 8.95690E-07-3.43457E-19 1.56820E-18
 -1      2663 9.55127E-05-2.82315E-05-2.88380E-05-1.03823E-06-2.28648E-18 3.35171E-18
 -1      2664 9.05786E-05-1.50706E-05-3.23828E-05 3.14373E-06 5.12466E-19-2.13931E-18
 -1      2665 9.03862E-05-1.47930E-05-3.24177E-05 2.22196E-06 3.87370E-19-2.24060E-18
 -1      2666 9.02499E-05-1.45840E-05-3.24483E-05 1.39971E-06 2.95153E-19-2.31705E-18
 -1      2667 9.01838E-05-1.44892E-05-3.24601E-05 4.56689E-07 1.27149E-19-2.29031E-18
 -1      2668 9.14191E-05-1.64511E-05-3.21156E-05 1.60455E-06 2.92549E-19-2.20458E-18
 -1      2669 9.21674E-05-1.74930E-05-3.20409E-05 6.39326E-06 1.14994E-18-1.66545E-18
 -1      2670 9.16434E-05-1.66886E-05-3.21464E-05 5.55647E-06 9.56770E-19-1.79234E-18
 -1      2671 9.35743E-05-1.97368E-05-3.16867E-05 7.52035E-06 1.52591E-18-1.17471E-18
 -1      2672 9.27934E-05-1.84761E-05-3.18678E-05 6.93996E-06 1.32363E-18-1.36845E-18
 -1      2673 9.34552E-05-1.97983E-05-3.15442E-05 5.63960E-06 1.18871E-18-1.37013E-18
 -1      2674 9.52182E-05-2.53696E-05-2.99465E-05 3.88512E-06 1.32964E-18-5.43109E-19
 -1      2675 9.55442E-05-2.45259E-05-3.04039E-05 5.53517E-06 1.38904E-18-4.88065E-19
 -1      2676 9.50028E-05-2.66335E-05-2.93056E-05 1.63513E-06 1.19367E-18-5.92603E-19
 -1      2677 9.52539E-05-2.61439E-05-2.95816E-05 2.67146E-06 1.29298E-18-4.44005E-19
 -1      2678 9.52832E-05-2.49659E-05-3.01337E-05 3.70009E-06 1.26293E-18-9.10055E-19
 -1      2679 9.72769E-05-5.05909E-05-1.96332E-05-3.59672E-05 9.92193E-19-1.42476E-18
 -1      2680 1.10063E-04-5.56905E-05-2.33549E-05-3.19857E-05 8.78373E-19-1.81746E-18
 -1      2681 9.46967E-05-2.18817E-05-3.12127E-05 7.78226E-06 1.59327E-18-6.76171E-19
 -1      2682 1.17001E-04-5.77366E-05-2.55822E-05 2.76133E-05-2.36852E-18 1.83615E-18
 -1      2683 1.02044E-04-5.21075E-05-2.10992E-05 3.35727E-05-2.09958E-18 1.08023E-18
 -1      2684 9.53745E-05-2.58381E-05-2.97725E-05-2.56058E-06-1.08241E-18-8.36253E-19
 -1      2685 9.52240E-05-2.64127E-05-2.95013E-05-1.54525E-06-9.36279E-19-9.41206E-19
 -1      2686 9.52512E-05-2.69082E-05-2.92670E-05-7.61627E-07-8.11883E-19-8.47488E-19
 -1      2687 9.51372E-05-2.72472E-05-2.91004E-05-1.08445E-07-6.82415E-19-9.32455E-19
 -1      2688 9.54374E-05-2.62133E-05-2.96740E-05-1.40214E-06-8.89560E-19-1.07237E-18
 -1      2689 9.51112E-05-2.75308E-05-2.89477E-05 4.17866E-07-5.99757E-19-8.55243E-19
 -1      2690 9.50626E-05-2.77369E-05-2.88547E-05 8.35210E-07-5.23870E-19-9.91845E-19
 -1      2691 9.54487E-05-2.71579E-05-2.92754E-05-1.75967E-08-6.70296E-19-1.04812E-18
 -1      2692 9.50287E-05-2.78931E-05-2.87630E-05 1.18536E-06-5.66480E-19-1.04186E-18
 -1      2693 9.50404E-05-2.80174E-05-2.87224E-05 1.45860E-06-5.81667E-19-1.19117E-18
 -1      2694 9.54020E-05-2.77093E-05-2.90186E-05 9.17173E-07-6.53719E-19-1.24004E-18
 -1      2695 9.50157E-05-2.80929E-05-2.86762E-05 1.70097E-06-5.40488E-19-1.12286E-18
 -1      2696 9.50767E-05-2.81634E-05-2.86735E-05 1.89517E-06-4.36038E-19-1.23797E-18
 -1      2697 9.53549E-05-2.80088E-05-2.88688E-05 1.55449E-06-5.74214E-19-1.25523E-18
 -1      2698 9.50654E-05-2.81843E-05-2.86615E-05 2.08224E-06-3.32766E-19-1.25017E-18
 -1      2699 9.51662E-05-2.82176E-05-2.86872E-05 2.24434E-06-5.39002E-19-1.18084E-18
 -1      2700 9.53274E-05-2.81406E-05-2.87993E-05 2.01801E-06-4.09324E-19-1.23648E-18
 -1      2701 9.51676E-05-2.81995E-05-2.87011E-05 2.41626E-06-4.90389E-19-7.70924E-19
 -1      2702 9.53027E-05-2.82071E-05-2.87490E-05 2.58065E-06-3.12627E-19-5.45908E-19
 -1      2703 9.53233E-05-2.81545E-05-2.87905E-05 2.40357E-06-3.09615E-19-6.17219E-19
 -1      2704 9.53157E-05-2.81609E-05-2.87828E-05 2.76788E-06-4.23207E-19-3.20475E-19
 -1      2705 9.54832E-05-2.81520E-05-2.88488E-05 2.95967E-06-4.19782E-19-2.60802E-19
 -1      2706 9.53414E-05-2.80836E-05-2.88278E-05 2.78441E-06-1.31532E-19-3.94091E-19
 -1      2707 9.55074E-05-2.80869E-05-2.88979E-05 3.18484E-06-4.96528E-19-1.48654E-19
 -1      2708 9.57095E-05-2.80712E-05-2.89793E-05 3.42153E-06-2.51065E-19-1.42850E-19
 -1      2709 9.53805E-05-2.79526E-05-2.89000E-05 3.21560E-06-3.52608E-19-6.98779E-20
 -1      2710 9.57464E-05-2.79970E-05-2.90397E-05 3.70036E-06-1.87184E-19-2.11265E-19
 -1      2711 9.59885E-05-2.79865E-05-2.91342E-05 3.99204E-06 2.15015E-20 4.37806E-20
 -1      2712 9.54423E-05-2.77850E-05-2.89979E-05 3.73691E-06-2.67045E-19-2.36246E-19
 -1      2713 9.60435E-05-2.79168E-05-2.92017E-05 4.33325E-06 4.80868E-20-2.57228E-19
 -1      2714 9.63353E-05-2.79288E-05-2.93068E-05 4.68134E-06-3.72920E-20-3.95737E-19
 -1      2715 9.55339E-05-2.76090E-05-2.91123E-05 4.37384E-06-5.35629E-20 1.43381E-19
 -1      2716 9.64200E-05-2.78846E-05-2.93767E-05 5.08544E-06-2.60894E-20-4.67868E-19
 -1      2717 9.67766E-05-2.79448E-05-2.94887E-05 5.47990E-06-2.88903E-20-4.23453E-19
 -1      2718 9.56722E-05-2.74647E-05-2.92337E-05 5.13666E-06-9.97240E-20 1.02220E-19
 -1      2719 9.69139E-05-2.79594E-05-2.95550E-05 5.93654E-06-1.35797E-19-5.99026E-19
 -1      2720 9.73589E-05-2.81073E-05-2.96688E-05 6.35122E-06 3.43373E-20-3.75818E-19
 -1      2721 9.58909E-05-2.74138E-05-2.93502E-05 6.01722E-06-8.79209E-20-5.34290E-19
 -1      2722 9.75902E-05-2.82327E-05-2.97248E-05 6.83476E-06 5.18659E-20-5.06218E-19
 -1      2723 9.81598E-05-2.85265E-05-2.98336E-05 7.22070E-06 4.13034E-20-7.59115E-19
 -1      2724 9.62526E-05-2.75523E-05-2.94482E-05 6.98300E-06-4.34727E-20-3.23908E-19
 -1      2725 9.85556E-05-2.88402E-05-2.98726E-05 7.68293E-06-9.59245E-22-5.89948E-19
 -1      2726 9.93035E-05-2.93597E-05-2.99696E-05 7.95959E-06-3.05618E-19-4.96699E-19
 -1      2727 9.68659E-05-2.80247E-05-2.95135E-05 7.96724E-06 4.41301E-22-4.06099E-19
 -1      2728 9.99751E-05-2.99669E-05-2.99886E-05 8.31779E-06-3.30943E-19-4.57421E-19
 -1      2729 1.00973E-04-3.08078E-05-3.00701E-05 8.36327E-06-1.92653E-19-2.96381E-19
 -1      2730 9.79081E-05-2.90352E-05-2.95362E-05 8.85240E-06-2.53380E-19-2.32858E-19
 -1      2731 1.02078E-04-3.18291E-05-3.00769E-05 8.48041E-06-4.03575E-19 1.69444E-20
 -1      2732 1.03399E-04-3.30717E-05-3.01502E-05 8.12417E-06-4.20451E-19-8.18044E-19
 -1      2733 9.96448E-05-3.08409E-05-2.95215E-05 9.44084E-06-3.65846E-19-4.54811E-19
 -1      2734 1.05120E-04-3.45939E-05-3.01765E-05 7.78134E-06 6.12610E-21-6.05066E-19
 -1      2735 1.06787E-04-3.62207E-05-3.02718E-05 6.81317E-06 1.37199E-19-2.02590E-19
 -1      2736 1.02421E-04-3.36898E-05-2.95110E-05 9.40543E-06-6.08106E-20 6.45350E-20
 -1      2737 1.09248E-04-3.81752E-05-3.03920E-05 5.68448E-06 4.39248E-19 6.77196E-20
 -1      2738 1.11121E-04-3.99019E-05-3.05729E-05 3.89967E-06 7.74617E-19 2.08284E-20
 -1      2739 1.06568E-04-3.76439E-05-2.96182E-05 8.22265E-06 4.81545E-19 3.84234E-19
 -1      2740 1.14194E-04-4.18861E-05-3.09162E-05 1.63600E-06 8.11775E-19-1.06650E-19
 -1      2741 1.15839E-04-4.29445E-05-3.12973E-05-1.01455E-06 9.67153E-19-2.98784E-19
 -1      2742 1.12098E-04-4.22033E-05-3.00650E-05 5.14564E-06 9.64757E-19 6.70707E-19
 -1      2743 1.18637E-04-4.36943E-05-3.20935E-05-4.52495E-06 6.39847E-19-4.68409E-19
 -1      2744 1.19197E-04-4.29429E-05-3.27831E-05-7.35825E-06 4.15317E-19-5.18374E-19
 -1      2745 1.18292E-04-4.53643E-05-3.12413E-05-7.89969E-07 6.50468E-19 3.37337E-19
 -1      2746 1.20672E-04-4.11927E-05-3.41270E-05-1.13289E-05 3.64592E-19-6.20385E-19
 -1      2747 1.19426E-04-3.73995E-05-3.51507E-05-1.29825E-05-1.39231E-19-4.40665E-19
 -1      2748 1.22745E-04-4.46760E-05-3.36179E-05-8.08520E-06 3.19940E-19-4.24774E-20
 -1      2749 1.17978E-04-3.25009E-05-3.69182E-05-1.44649E-05-3.14487E-19-3.67586E-19
 -1      2750 1.15589E-04-2.70288E-05-3.79835E-05-1.30793E-05-3.92626E-19-2.78409E-19
 -1      2751 1.22768E-04-3.66966E-05-3.69759E-05-1.39808E-05-2.43125E-20 3.58771E-19
 -1      2752 1.13070E-04-2.18389E-05-3.94097E-05-9.53179E-06-7.57486E-19-4.88774E-19
 -1      2753 1.11574E-04-1.86693E-05-3.99517E-05-4.79547E-06-3.36378E-19-5.03601E-19
 -1      2754 1.18409E-04-2.38463E-05-4.07532E-05-1.23968E-05-8.61221E-19-1.70280E-19
 -1      2755 1.11157E-04-1.79699E-05-4.01239E-05 2.06228E-06 1.54266E-19-1.24765E-18
 -1      2756 1.12220E-04-2.00632E-05-3.97737E-05 7.27112E-06-1.42460E-19-1.06556E-18
 -1      2757 1.15063E-04-1.61667E-05-4.27047E-05-1.58203E-06-7.83929E-19-1.50453E-18
 -1      2758 1.14466E-04-2.46043E-05-3.85719E-05 1.18839E-05-7.20825E-19-1.52981E-18
 -1      2759 1.16881E-04-2.99399E-05-3.75733E-05 1.41433E-05-1.37627E-18-1.88456E-18
 -1      2760 1.17350E-04-2.13414E-05-4.14186E-05 1.05314E-05-8.37239E-19-2.26526E-18
 -1      2761 1.18872E-04-3.53567E-05-3.57951E-05 1.36485E-05-1.06747E-18-1.50921E-18
 -1      2762 1.20299E-04-3.96417E-05-3.47324E-05 1.24309E-05-1.04452E-18-6.61569E-19
 -1      2763 1.22110E-04-3.40116E-05-3.78574E-05 1.45870E-05-7.81732E-19-2.67247E-18
 -1      2764 1.19706E-04-4.22185E-05-3.32522E-05 9.01472E-06-1.55104E-18-6.10883E-19
 -1      2765 1.19465E-04-4.37147E-05-3.24758E-05 6.12431E-06-1.41216E-18-6.28316E-19
 -1      2766 1.23152E-04-4.31715E-05-3.42617E-05 9.76936E-06-1.23573E-18-1.28288E-18
 -1      2767 1.16793E-04-4.32881E-05-3.15753E-05 2.42300E-06-1.21021E-18-2.45239E-19
 -1      2768 1.15326E-04-4.25401E-05-3.11334E-05-3.55314E-07-3.98620E-19-1.29424E-19
 -1      2769 1.19544E-04-4.57860E-05-3.16534E-05 2.02029E-06-7.74446E-19-1.22443E-19
 -1      2770 1.12222E-04-4.07084E-05-3.07053E-05-2.91730E-06 6.14099E-19-3.12802E-19
 -1      2771 1.10346E-04-3.90382E-05-3.04897E-05-4.90044E-06 6.63494E-19 4.49301E-19
 -1      2772 1.13534E-04-4.30896E-05-3.02628E-05-4.10046E-06 1.78903E-20 1.63681E-19
 -1      2773 1.07723E-04-3.70147E-05-3.03348E-05-6.24110E-06 6.91263E-19 1.05880E-18
 -1      2774 1.05989E-04-3.53239E-05-3.02304E-05-7.37096E-06 8.65480E-19 2.01600E-18
 -1      2775 1.07729E-04-3.86102E-05-2.96919E-05-7.66429E-06 1.06781E-18-3.56950E-19
 -1      2776 1.04107E-04-3.36806E-05-3.01955E-05-7.84183E-06 8.03344E-19 1.96750E-18
 -1      2777 1.02712E-04-3.23395E-05-3.01253E-05-8.30241E-06 6.25670E-19 2.13441E-18
 -1      2778 1.03246E-04-3.44435E-05-2.95410E-05-9.16708E-06 6.71319E-19 5.83388E-19
 -1      2779 1.01483E-04-3.12012E-05-3.01225E-05-8.24612E-06 6.62096E-20 1.54648E-18
 -1      2780 1.00429E-04-3.02697E-05-3.00494E-05-8.25299E-06 3.61933E-19 8.72807E-19
 -1      2781 1.00185E-04-3.13253E-05-2.95471E-05-9.36956E-06-2.80197E-19 4.55546E-19
 -1      2782 9.96741E-05-2.95707E-05-3.00396E-05-7.90906E-06 7.88621E-19 9.37900E-19
 -1      2783 9.88911E-05-2.89818E-05-2.99527E-05-7.64397E-06 2.69348E-19 4.40285E-19
 -1      2784 9.82475E-05-2.92862E-05-2.95757E-05-8.83945E-06 2.70223E-19 8.48367E-19
 -1      2785 9.84441E-05-2.86022E-05-2.99243E-05-7.16430E-06 6.38953E-19 1.06056E-18
 -1      2786 9.78581E-05-2.82597E-05-2.98257E-05-6.75926E-06 5.34614E-19 8.14414E-19
 -1      2787 9.70781E-05-2.80997E-05-2.95736E-05-7.94033E-06 8.74386E-19 3.26109E-19
 -1      2788 9.75971E-05-2.80887E-05-2.97799E-05-6.23578E-06 7.53008E-19 9.96825E-19
 -1      2789 9.71503E-05-2.79081E-05-2.96764E-05-5.77921E-06 1.02977E-18 1.10512E-18
 -1      2790 9.63901E-05-2.75022E-05-2.95295E-05-6.89205E-06 4.92217E-19 9.68077E-19
 -1      2791 9.69963E-05-2.78618E-05-2.96193E-05-5.26607E-06 1.23843E-18 1.13530E-18
 -1      2792 9.66490E-05-2.77806E-05-2.95176E-05-4.81284E-06 1.23949E-18 1.64332E-18
 -1      2793 9.59873E-05-2.72760E-05-2.94510E-05-5.82576E-06 9.32699E-19 8.91104E-19
 -1      2794 9.65544E-05-2.78019E-05-2.94559E-05-4.33995E-06 6.42328E-19 1.55402E-18
 -1      2795 9.62804E-05-2.77773E-05-2.93616E-05-3.92074E-06 4.34071E-20 1.56335E-18
 -1      2796 9.57464E-05-2.72645E-05-2.93514E-05-4.81743E-06 9.25905E-19-5.37178E-19
 -1      2797 9.62178E-05-2.78294E-05-2.93007E-05-3.50221E-06 2.06772E-19 2.11764E-18
 -1      2798 9.59998E-05-2.78337E-05-2.92170E-05-3.13118E-06 8.44520E-19 2.30785E-18
 -1      2799 9.55945E-05-2.73629E-05-2.92436E-05-3.90732E-06 8.12234E-19 7.79368E-19
 -1      2800 9.59537E-05-2.78943E-05-2.91608E-05-2.77057E-06 1.09096E-18 2.14495E-18
 -1      2801 9.57795E-05-2.79102E-05-2.90894E-05-2.45100E-06 1.60384E-18 2.70278E-18
 -1      2802 9.54900E-05-2.75049E-05-2.91376E-05-3.11168E-06 5.91613E-19 2.13902E-18
 -1      2803 9.57405E-05-2.79650E-05-2.90403E-05-2.14708E-06 7.07243E-19 1.70897E-18
 -1      2804 9.55992E-05-2.79800E-05-2.89816E-05-1.87501E-06-1.91543E-19 1.26149E-18
 -1      2805 9.54097E-05-2.76502E-05-2.90406E-05-2.43199E-06 5.27177E-19 4.89651E-19
 -1      2806 9.55618E-05-2.80225E-05-2.89404E-05-1.61811E-06-1.67085E-19 5.86161E-19
 -1      2807 9.54485E-05-2.80320E-05-2.88937E-05-1.38754E-06-7.76818E-19 6.81745E-19
 -1      2808 9.53365E-05-2.77741E-05-2.89566E-05-1.86066E-06-1.20159E-18-1.37486E-18
 -1      2809 9.46542E-05-2.79996E-05-2.85632E-05-1.37445E-06 3.16338E-19-6.88180E-19
 -1      2810 9.46216E-05-2.78837E-05-2.85912E-05-1.12088E-06 4.72406E-19-6.04541E-19
 -1      2811 3.22019E-05-1.24618E-05-8.04634E-06 6.47804E-06-1.69314E-18 2.55592E-19
 -1      2812 3.24206E-05-1.28520E-05-7.89196E-06-8.18400E-06-1.43445E-18 8.84302E-19
 -1      2813 9.46623E-05-2.77506E-05-2.86752E-05-7.72810E-07 5.89098E-19-5.97177E-19
 -1      2814 9.47156E-05-2.75737E-05-2.87570E-05-3.72083E-07 6.58424E-19-5.24412E-19
 -1      2815 9.50920E-05-2.77494E-05-2.88703E-05-8.62628E-07 5.86281E-19-5.76012E-19
 -1      2816 9.49149E-05-2.82311E-05-2.85732E-05-2.09372E-06 2.76798E-19-2.62382E-19
 -1      2817 9.47669E-05-2.81795E-05-2.85351E-05-1.95412E-06 2.03609E-19-3.81114E-19
 -1      2818 9.51538E-05-2.82690E-05-2.86583E-05-2.38768E-06 5.17441E-19-6.12100E-19
 -1      2819 9.49636E-05-2.82345E-05-2.85981E-05-2.24827E-06 4.79138E-19-2.79090E-19
 -1      2820 9.51615E-05-2.82127E-05-2.86969E-05-2.29712E-06 4.30286E-19-3.84042E-19
 -1      2821 9.54559E-05-2.82781E-05-2.87826E-05-2.71752E-06 8.92591E-19-7.68077E-19
 -1      2822 9.52255E-05-2.82532E-05-2.87038E-05-2.55403E-06 7.89350E-19-6.04438E-19
 -1      2823 9.52850E-05-2.81956E-05-2.87563E-05-2.64261E-06 8.13416E-19-5.60025E-19
 -1      2824 9.58226E-05-2.82736E-05-2.89405E-05-3.12264E-06 7.28962E-19-3.69812E-19
 -1      2825 9.55496E-05-2.82504E-05-2.88449E-05-2.91814E-06 7.57245E-19-7.06644E-19
 -1      2826 9.54512E-05-2.81346E-05-2.88532E-05-3.03198E-06 8.10577E-19-4.11402E-19
 -1      2827 9.62624E-05-2.82736E-05-2.91279E-05-3.62837E-06 7.64284E-19 2.44233E-19
 -1      2828 9.59402E-05-2.82419E-05-2.90165E-05-3.37300E-06 8.88492E-19-1.27055E-19
 -1      2829 9.56618E-05-2.80493E-05-2.89798E-05-3.50512E-06 6.54828E-19 3.03139E-20
 -1      2830 9.67904E-05-2.83029E-05-2.93409E-05-4.24454E-06 1.30863E-19 3.63966E-19
 -1      2831 9.64092E-05-2.82488E-05-2.92148E-05-3.93673E-06 4.52751E-19 3.55030E-19
 -1      2832 9.59245E-05-2.79631E-05-2.91292E-05-4.08707E-06 3.29538E-19 7.08708E-19
 -1      2833 9.74305E-05-2.83986E-05-2.95739E-05-4.96103E-06-6.72512E-20 6.09913E-19
 -1      2834 9.69772E-05-2.83017E-05-2.94352E-05-4.61043E-06 1.65701E-19 5.39415E-19
 -1      2835 9.62557E-05-2.79093E-05-2.92945E-05-4.78655E-06 6.26694E-20 6.53924E-19
 -1      2836 9.82190E-05-2.86172E-05-2.98189E-05-5.73980E-06 5.41342E-20 6.74424E-19
 -1      2837 9.76763E-05-2.84472E-05-2.96713E-05-5.37211E-06 6.43815E-21 8.14208E-19
 -1      2838 9.66852E-05-2.79388E-05-2.94668E-05-5.59174E-06-1.21094E-19 9.09499E-19
 -1      2839 9.92111E-05-2.90429E-05-3.00640E-05-6.50277E-06-3.13399E-19 1.49007E-18
 -1      2840 9.85566E-05-2.87564E-05-2.99136E-05-6.16667E-06-1.71981E-19 1.16477E-18
 -1      2841 9.72642E-05-2.81296E-05-2.96350E-05-6.46262E-06-1.79704E-19 1.11568E-18
 -1      2842 1.00489E-04-2.97942E-05-3.02946E-05-7.11584E-06-2.75260E-19 1.20473E-18
 -1      2843 9.96939E-05-2.93327E-05-3.01495E-05-6.89141E-06-1.03570E-19 1.76674E-18
 -1      2844 9.80777E-05-2.85983E-05-2.97864E-05-7.31933E-06-3.64842E-19 2.02839E-18
 -1      2845 1.02170E-04-3.10203E-05-3.04974E-05-7.37025E-06-2.33414E-19 1.00158E-18
 -1      2846 1.01199E-04-3.03156E-05-3.03660E-05-7.37698E-06-3.57929E-19 9.60791E-19
 -1      2847 9.92589E-05-2.95074E-05-2.99095E-05-8.02575E-06-5.22708E-20 1.78869E-18
 -1      2848 1.04389E-04-3.28661E-05-3.06706E-05-6.96516E-06 5.10784E-20 4.37155E-19
 -1      2849 1.03219E-04-3.18654E-05-3.05564E-05-7.36465E-06-3.63840E-20 4.57541E-19
 -1      2850 1.01001E-04-3.10577E-05-3.00024E-05-8.36587E-06 2.51222E-19 1.53945E-18
 -1      2851 1.07246E-04-3.53668E-05-3.08419E-05-5.50997E-06 4.62692E-20 3.86536E-19
 -1      2852 1.05900E-04-3.40974E-05-3.07350E-05-6.48882E-06 3.03976E-19 5.31605E-19
 -1      2853 1.03545E-04-3.34337E-05-3.00883E-05-8.01163E-06 4.69700E-20 6.70346E-19
 -1      2854 1.10654E-04-3.82357E-05-3.10929E-05-2.59786E-06-8.58130E-19 1.19776E-18
 -1      2855 1.09275E-04-3.69208E-05-3.09592E-05-4.30266E-06-2.42643E-19 9.15144E-19
 -1      2856 1.07083E-04-3.66455E-05-3.02408E-05-6.50259E-06-1.50835E-19 1.08834E-18
 -1      2857 1.14097E-04-4.05564E-05-3.15809E-05 1.97573E-06-1.21318E-18 9.73405E-19
 -1      2858 1.13037E-04-3.97660E-05-3.13533E-05-4.16454E-07-9.02408E-19 7.77241E-19
 -1      2859 1.11548E-04-4.02382E-05-3.06135E-05-3.30280E-06-7.47026E-19 1.05744E-18
 -1      2860 1.16417E-04-4.06431E-05-3.25195E-05 7.64007E-06-1.25064E-18 2.93206E-19
 -1      2861 1.16210E-04-4.12623E-05-3.21157E-05 5.05410E-06-1.36869E-18 1.11300E-18
 -1      2862 1.16171E-04-4.27932E-05-3.14607E-05 1.92263E-06-1.32615E-18 8.19579E-19
 -1      2863 1.16112E-04-3.67130E-05-3.40258E-05 1.23501E-05 2.58517E-19 1.78856E-19
 -1      2864 1.17199E-04-3.94086E-05-3.34279E-05 1.07661E-05-3.19462E-19 5.17785E-19
 -1      2865 1.19308E-04-4.21270E-05-3.30493E-05 8.44829E-06-7.16960E-19 3.87068E-19
 -1      2866 1.12846E-04-2.90137E-05-3.58783E-05 1.26888E-05 5.77610E-19-3.65118E-20
 -1      2867 1.14867E-04-3.31384E-05-3.52134E-05 1.35852E-05-4.12300E-20 2.29519E-19
 -1      2868 1.18939E-04-3.62157E-05-3.54470E-05 1.35144E-05 1.55828E-19 1.07655E-18
 -1      2869 1.09048E-04-2.19918E-05-3.73282E-05 6.20077E-06 1.59962E-18 1.87188E-19
 -1      2870 1.10470E-04-2.48752E-05-3.69183E-05 9.92470E-06 1.34470E-18-1.80714E-20
 -1      2871 1.14935E-04-2.62370E-05-3.80780E-05 1.27420E-05 9.38407E-19 6.58065E-19
 -1      2872 1.08581E-04-2.13145E-05-3.75431E-05-4.28308E-06 8.81179E-19-1.87637E-19
 -1      2873 1.08167E-04-2.06036E-05-3.76360E-05 4.29094E-07 1.29546E-18-1.86354E-19
 -1      2874 1.11553E-04-1.93307E-05-3.96730E-05 3.85241E-06 1.09961E-18 8.56744E-19
 -1      2875 1.12086E-04-2.77741E-05-3.63717E-05-1.21456E-05 2.65129E-18-7.32372E-19
 -1      2876 1.10168E-04-2.40422E-05-3.69176E-05-9.30858E-06 1.69925E-18-4.61348E-19
 -1      2877 1.12396E-04-2.11999E-05-3.92430E-05-7.64734E-06 1.52927E-18-5.12878E-19
 -1      2878 1.16028E-04-3.58017E-05-3.45482E-05-1.31315E-05 2.66212E-18-1.12796E-18
 -1      2879 1.14309E-04-3.20363E-05-3.52156E-05-1.32091E-05 2.79621E-18-1.06528E-18
 -1      2880 1.16740E-04-3.05120E-05-3.70161E-05-1.38750E-05 2.56255E-18-1.67510E-18
 -1      2881 1.17243E-04-4.06049E-05-3.28916E-05-8.86902E-06 5.18215E-19-7.27330E-19
 -1      2882 1.16625E-04-3.86551E-05-3.34251E-05-1.10102E-05 1.98012E-18-6.50253E-19
 -1      2883 1.19463E-04-3.88113E-05-3.45335E-05-1.22544E-05 2.09367E-18-1.31686E-18
 -1      2884 1.15232E-04-4.09796E-05-3.17956E-05-2.96253E-06-1.03511E-18-2.88249E-19
 -1      2885 1.15799E-04-4.09925E-05-3.21243E-05-5.56242E-06-1.71434E-19-1.47691E-19
 -1      2886 1.18517E-04-4.29668E-05-3.23912E-05-6.07418E-06 1.04671E-19-6.17345E-19
 -1      2887 1.11690E-04-3.87814E-05-3.11934E-05 1.98494E-06-1.47671E-18 1.03895E-18
 -1      2888 1.12914E-04-3.98552E-05-3.13762E-05-1.73686E-07-1.46362E-18 3.52726E-19
 -1      2889 1.14571E-04-4.21097E-05-3.10932E-05 1.55693E-07-1.48211E-18-2.00619E-19
 -1      2890 1.08012E-04-3.58349E-05-3.08855E-05 5.20484E-06-6.00995E-19 1.09618E-18
 -1      2891 1.09399E-04-3.71783E-05-3.10004E-05 3.78193E-06-9.57278E-19 1.30594E-18
 -1      2892 1.09865E-04-3.89298E-05-3.04540E-05 4.62395E-06-1.42349E-18-7.03453E-19
 -1      2893 1.04890E-04-3.31875E-05-3.06963E-05 6.83556E-06 4.09841E-19 2.10237E-19
 -1      2894 1.06171E-04-3.43739E-05-3.07990E-05 6.10162E-06 2.94822E-19 5.90741E-19
 -1      2895 1.05705E-04-3.53717E-05-3.01910E-05 7.13141E-06 1.56315E-19-1.73414E-19
 -1      2896 1.02479E-04-3.12018E-05-3.05274E-05 7.31251E-06-7.17448E-19-2.76951E-19
 -1      2897 1.03563E-04-3.20945E-05-3.06420E-05 7.09528E-06-4.26972E-19-9.83886E-20
 -1      2898 1.02547E-04-3.24324E-05-3.00840E-05 8.12892E-06 1.94556E-19-4.54754E-19
 -1      2899 1.00686E-04-2.98679E-05-3.03403E-05 7.05934E-06 8.53129E-19 7.31040E-19
 -1      2900 1.01573E-04-3.04790E-05-3.04704E-05 7.17817E-06 5.68795E-19 6.73120E-19
 -1      2901 1.00331E-04-3.03587E-05-3.00107E-05 8.14249E-06-1.85810E-19-9.01947E-19
 -1      2902 9.93588E-05-2.90432E-05-3.01310E-05 6.40042E-06-1.95900E-19 1.73339E-18
 -1      2903 1.00078E-04-2.94353E-05-3.02701E-05 6.70899E-06 4.16726E-20 1.73237E-18
 -1      2904 9.88308E-05-2.90502E-05-2.99196E-05 7.58231E-06-1.34125E-19 7.64015E-19
 -1      2905 9.83633E-05-2.85713E-05-2.99100E-05 5.55850E-06-8.77756E-19 2.79993E-19
 -1      2906 9.89463E-05-2.88103E-05-3.00493E-05 5.95280E-06-3.97738E-19 1.13288E-18
 -1      2907 9.78188E-05-2.83065E-05-2.97992E-05 6.73096E-06 5.07253E-20 1.30550E-18
 -1      2908 9.76024E-05-2.83255E-05-2.96910E-05 4.67513E-06 1.16011E-19 5.09269E-19
 -1      2909 9.80755E-05-2.84643E-05-2.98228E-05 5.08806E-06-8.64029E-19-2.18952E-20
 -1      2910 9.71238E-05-2.79379E-05-2.96564E-05 5.77161E-06-6.56292E-19 4.14733E-19
 -1      2911 9.70109E-05-2.82151E-05-2.94854E-05 3.83295E-06 4.60324E-19 9.05545E-19
 -1      2912 9.73940E-05-2.82917E-05-2.96045E-05 4.22543E-06 8.50591E-19 1.02518E-18
 -1      2913 9.66312E-05-2.77986E-05-2.95034E-05 4.81674E-06 2.67985E-19 1.26914E-18
 -1      2914 9.65454E-05-2.81797E-05-2.93012E-05 3.07389E-06-6.42328E-20-2.33458E-20
 -1      2915 9.68540E-05-2.82197E-05-2.94045E-05 3.42654E-06 5.47720E-19 5.27341E-19
 -1      2916 9.62689E-05-2.77875E-05-2.93521E-05 3.93008E-06 9.52118E-19 9.98603E-19
 -1      2917 9.61762E-05-2.81804E-05-2.91424E-05 2.41324E-06-7.19854E-20-7.17564E-19
 -1      2918 9.64232E-05-2.82009E-05-2.92291E-05 2.71957E-06-7.37391E-19-6.51846E-19
 -1      2919 9.59928E-05-2.78391E-05-2.92113E-05 3.14201E-06 4.70922E-20-6.00764E-19
 -1      2920 9.58817E-05-2.81924E-05-2.90104E-05 1.84950E-06 1.29495E-19 4.64410E-19
 -1      2921 9.60777E-05-2.82045E-05-2.90808E-05 2.11097E-06 1.21636E-19-2.44860E-20
 -1      2922 9.57752E-05-2.79115E-05-2.90867E-05 2.46133E-06-5.23064E-19-9.35289E-19
 -1      2923 9.56480E-05-2.82015E-05-2.89042E-05 1.37219E-06-2.27923E-19 1.42298E-18
 -1      2924 9.57995E-05-2.82123E-05-2.89596E-05 1.59229E-06-5.81160E-20 9.38878E-19
 -1      2925 9.55958E-05-2.79785E-05-2.89809E-05 1.88281E-06-8.46677E-19-1.52908E-18
 -1      2926 9.54423E-05-2.81638E-05-2.88314E-05 1.03005E-06-2.38527E-19 1.32429E-18
 -1      2927 9.55582E-05-2.81723E-05-2.88744E-05 1.22450E-06-9.30666E-20 1.00315E-18
 -1      2928 9.54223E-05-2.79908E-05-2.89042E-05 1.45818E-06-7.34521E-21-1.89945E-18
 -1      2929 9.52728E-05-2.79573E-05-2.88543E-05 1.15314E-06-6.10182E-19-9.22338E-19
 -1      2930 9.41195E-05-2.66519E-05-2.89179E-05 1.21356E-07-5.17212E-19-1.18615E-18
 -1      2931 9.41475E-05-2.66809E-05-2.89159E-05 3.28942E-07-1.73827E-19-6.89191E-19
 -1      2932 9.54324E-05-2.80583E-05-2.88702E-05-1.23736E-06-1.40513E-18 4.02545E-19
 -1      2933 9.53669E-05-2.80639E-05-2.88433E-05-1.09899E-06-2.24663E-18-9.76352E-21
 -1      2934 9.52819E-05-2.78592E-05-2.88960E-05-1.44781E-06-1.15526E-18-2.05516E-18
 -1      2935 9.44013E-05-2.69629E-05-2.89073E-05 9.23047E-07 7.51372E-19-2.62680E-18
 -1      2936 9.45261E-05-2.70930E-05-2.88982E-05 1.04811E-06 1.47215E-18-3.73184E-18
 -1      2937 1.34150E-04-3.62533E-05-4.22860E-05 1.15443E-05-6.85038E-20-2.51039E-19
 -1      2938 1.34101E-04-2.63699E-05-4.67861E-05 1.23032E-05 4.83868E-20-4.15576E-19
 -1      2939 9.41481E-05-2.66816E-05-2.89159E-05-3.34046E-07-3.65146E-19 8.23714E-19
 -1      2940 9.41198E-05-2.66521E-05-2.89179E-05-1.26588E-07-6.80378E-19-2.44211E-19
 -1      2941 9.39440E-05-2.64984E-05-2.89004E-05-2.78770E-09-7.70683E-20-7.80351E-19
 -1      2942 9.42073E-05-2.67493E-05-2.89150E-05 5.60330E-07-6.18468E-19-4.26748E-19
 -1      2943 9.42885E-05-2.68335E-05-2.89092E-05 7.39242E-07 2.46259E-19-4.00961E-19
 -1      2944 9.42110E-05-2.67686E-05-2.89000E-05 9.40319E-07 3.15209E-19-1.74240E-18
 -1      2945 9.40126E-05-2.65678E-05-2.89003E-05 5.02156E-07-5.06882E-19-1.21737E-18
 -1      2946 9.42868E-05-2.68314E-05-2.89094E-05-7.37753E-07-3.48511E-19 2.14695E-21
 -1      2947 9.42070E-05-2.67487E-05-2.89151E-05-5.61774E-07-1.04689E-18 2.20741E-18
 -1      2948 9.40122E-05-2.65669E-05-2.89005E-05-5.03644E-07 1.09433E-19 3.34773E-19
 -1      2949 9.45249E-05-2.70904E-05-2.88986E-05-1.04830E-06 1.57411E-18-5.13486E-19
 -1      2950 9.43996E-05-2.69605E-05-2.89076E-05-9.22469E-07 7.05822E-19-1.56809E-18
 -1      2951 9.42087E-05-2.67654E-05-2.89003E-05-9.38993E-07-6.02216E-19 5.05485E-19
 -1      2952 9.48326E-05-2.74284E-05-2.88839E-05-1.21951E-06 1.42615E-18 2.69536E-18
 -1      2953 9.46752E-05-2.72662E-05-2.88953E-05-1.15837E-06 1.94576E-18 8.35079E-19
 -1      2954 9.45144E-05-2.70765E-05-2.88991E-05-1.25210E-06 1.24728E-18-5.44663E-20
 -1      2955 9.52405E-05-2.79141E-05-2.88525E-05-1.15160E-06-1.61871E-18-1.54029E-18
 -1      2956 9.47831E-05-2.73384E-05-2.89061E-05 1.64242E-07 7.67538E-19-4.90200E-19
 -1      2957 9.49393E-05-2.70539E-05-2.90662E-05 8.09416E-07 9.68394E-19-4.00306E-19
 -1      2958 9.52816E-05-2.64192E-05-2.95199E-05 1.54822E-06 1.00496E-18-6.92026E-19
 -1      2959 9.51813E-05-2.72638E-05-2.91179E-05 9.32508E-08 7.76878E-19-4.07101E-19
 -1      2960 1.39440E-04-5.26468E-05-3.72533E-05-1.37561E-06-6.16984E-19-2.07820E-18
 -1      2961 1.40706E-04-4.62171E-05-4.10328E-05 3.98152E-06-1.23894E-18-2.83682E-18
 -1      2962 3.80771E-05-1.58017E-05-8.91170E-06-1.78248E-05-8.96161E-19 5.45277E-19
 -1      2963 4.82719E-05-2.15721E-05-1.12628E-05-2.77840E-05-5.09808E-20 1.56214E-18
 -1      2964 4.26931E-05-1.38933E-05-1.17088E-05-1.12465E-05-5.06446E-19 2.31875E-19
 -1      2965 9.28575E-05-1.79788E-05-3.20906E-05-8.74823E-06-1.46481E-18-1.35775E-18
 -1      2966 9.32858E-05-4.81665E-05-1.93554E-05 3.68718E-05 9.98758E-19-9.88011E-19
 -1      2967 7.70653E-05-3.90487E-05-1.58613E-05 3.70003E-05 1.08664E-18-6.33475E-19
 -1      2968 3.26371E-05-1.39136E-05-7.68724E-06 1.28959E-05 1.77999E-18-9.44865E-19
 -1      2969 2.96256E-05-1.26162E-05-6.72722E-06 4.16663E-07 1.40046E-18-1.51280E-18
 -1      2970 9.47442E-05-2.81484E-05-2.85367E-05-1.78080E-06 8.75131E-20-5.54139E-19
 -1      2971 9.46465E-05-2.80709E-05-2.85266E-05-1.60753E-06 2.44382E-19-6.26147E-19
 -1      2972 9.50588E-05-2.80251E-05-2.87361E-05-1.49521E-06 2.59094E-19-3.37658E-19
 -1      2973 9.50839E-05-2.81651E-05-2.86853E-05-1.93973E-06 1.53651E-19-2.69038E-19
 -1      2974 8.73905E-05-4.45750E-05-1.81532E-05 3.76394E-05-1.97888E-18 2.08979E-18
 -1      2975 7.07113E-05-3.44570E-05-1.51366E-05 3.55058E-05-1.37124E-18 1.54848E-18
 -1      2976 6.39934E-05-3.10824E-05-1.35242E-05-3.48798E-05 6.30404E-19 1.24683E-18
 -1      2977 8.05127E-05-4.18978E-05-1.64144E-05-3.88264E-05 1.32074E-18 3.17002E-19
 -1      2978 9.12539E-05-4.45434E-05-1.95973E-05-3.36097E-05 1.24207E-18-6.70056E-19
 -1      2979 9.52079E-05-2.39302E-05-3.05384E-05-5.20812E-06-1.29825E-18-8.03615E-19
 -1      2980 9.51700E-05-2.49437E-05-3.01145E-05-3.67666E-06-1.15197E-18-8.28303E-19
 -1      2981 9.52302E-05-2.46262E-05-3.02586E-05-3.39039E-06-1.14278E-18-1.09299E-18
 -1      2982 9.12011E-05-1.60060E-05-3.22542E-05 4.84608E-06 9.19241E-19-1.91311E-18
 -1      2983 9.08573E-05-1.54988E-05-3.23187E-05 3.93185E-06 6.60748E-19-2.07617E-18
 -1      2984 9.18192E-05-1.70767E-05-3.20166E-05 3.12976E-06 5.62328E-19-2.01303E-18
 -1      2985 9.24969E-05-1.81632E-05-3.18369E-05 4.52652E-06 8.82258E-19-1.71180E-18
 -1      2986 1.35916E-04-3.34137E-05-4.45832E-05-1.21489E-05-1.37579E-18 1.47172E-18
 -1      2987 1.37234E-04-4.14992E-05-4.11692E-05-9.72068E-06-7.42107E-19 1.28071E-18
 -1      2988 1.38312E-04-3.94992E-05-4.29343E-05-9.10185E-06 1.79470E-18-1.66834E-18
 -1      2989 1.38931E-04-4.68075E-05-3.96110E-05-5.84878E-06 1.66633E-18-1.44906E-18
 -1      2990 8.72384E-05-4.59010E-05-1.72216E-05-3.79979E-05-2.93391E-19-2.04357E-18
 -1      2991 1.01338E-04-5.27607E-05-2.09981E-05-3.57562E-05-2.22981E-19-1.21070E-18
 -1      2992 5.25773E-05-2.66483E-05-1.05369E-05-3.26759E-05-6.29769E-19-3.67422E-18
 -1      2993 6.98106E-05-3.67999E-05-1.40359E-05-3.88714E-05-4.65868E-19-3.10321E-18
 -1      2994 9.08235E-05-1.54522E-05-3.23238E-05-3.86638E-06-6.06843E-19-1.93117E-18
 -1      2995 9.11573E-05-1.59442E-05-3.22608E-05-4.79020E-06-8.15224E-19-1.83497E-18
 -1      2996 1.35451E-04-5.52753E-05-3.42424E-05-3.45906E-06-5.67611E-19 2.43522E-20
 -1      2997 1.35789E-04-4.86364E-05-3.78042E-05 4.91294E-06 6.17540E-20 3.93129E-19
 -1      2998 3.13159E-05-1.39986E-05-6.89001E-06-1.08806E-05 8.56483E-19-2.59277E-18
 -1      2999 3.90532E-05-1.85990E-05-8.42823E-06-2.41611E-05 2.60569E-19-3.61725E-18
 -1      3000 3.86980E-05-1.29668E-05-1.03671E-05-5.93783E-06 1.32453E-18-1.75992E-18
 -1      3001 1.30896E-04-1.72898E-05-4.90955E-05 1.09013E-05-1.38426E-18-1.74034E-18
 -1      3002 1.28765E-04-1.21327E-05-5.06592E-05 5.67739E-06-1.72795E-18-1.42116E-18
 -1      3003 1.16550E-04-5.72054E-05-2.50358E-05-2.66575E-05-4.26111E-19-3.81271E-19
 -1      3004 1.28790E-04-5.86703E-05-3.04707E-05-1.57247E-05-4.75821E-19-8.04681E-21
 -1      3005 1.37896E-04-5.09887E-05-3.77322E-05-1.67839E-06 9.69853E-20 9.13102E-19
 -1      3006 1.32687E-04-5.65738E-05-3.26116E-05 8.20968E-06 7.24253E-19 1.13444E-18
 -1      3007 1.27598E-04-1.00892E-05-5.09930E-05 9.92712E-08-2.47376E-18-7.94252E-19
 -1      3008 1.28087E-04-1.17661E-05-5.04082E-05-5.70548E-06-2.77255E-18 4.68092E-19
 -1      3009 1.32471E-04-2.10280E-05-4.84971E-05-1.15004E-05 2.92904E-18-2.78187E-18
 -1      3010 1.35719E-04-2.99907E-05-4.57097E-05-1.25633E-05 2.05882E-18-2.29461E-18
 -1      3011 1.32196E-04-3.41939E-05-4.21466E-05-1.29738E-05 2.30652E-18-1.70794E-18
 -1      3012 1.30105E-04-1.70345E-05-4.92317E-05-1.01017E-05-2.12245E-18 7.95205E-19
 -1      3013 1.33512E-04-2.39673E-05-4.73755E-05-1.25030E-05-1.56701E-18 9.10137E-19
 -1      3014 1.29319E-04-2.92091E-05-4.32342E-05-1.40781E-05-1.19972E-18 1.88745E-18
 -1      3015 1.24325E-04-1.57241E-05-4.69850E-05-8.46728E-06-1.71905E-18 8.78691E-19
 -1      3016 1.22462E-04-5.79984E-05-2.78324E-05 2.09102E-05 9.25225E-19 9.08787E-19
 -1      3017 1.08848E-04-5.44336E-05-2.29867E-05 3.02017E-05 1.33874E-18 7.85491E-20
 -1      3018 5.05769E-05-2.30172E-05-1.15101E-05 2.89890E-05-1.62974E-18-7.04943E-19
 -1      3019 3.80752E-05-1.58745E-05-8.86010E-06 1.82035E-05-1.13619E-18-1.17441E-18
 -1      3020 4.21782E-05-1.39739E-05-1.14634E-05 1.06749E-05-1.64953E-18-3.70365E-19
 -1      3021 1.39278E-04-3.75974E-05-4.38380E-05 1.03782E-05-1.36277E-18-2.72480E-18
 -1      3022 1.35203E-04-2.77233E-05-4.68384E-05 1.23529E-05-1.38829E-18-2.70553E-18
 -1      3023 5.75767E-05-2.82798E-05-1.22680E-05 3.37279E-05 1.72276E-18-1.48612E-18
 -1      3024 4.19811E-05-1.94087E-05-9.00775E-06 2.43714E-05 1.88380E-18-1.59157E-18
 -1      3025 1.24917E-04-1.06023E-05-4.96327E-05-2.43300E-06 3.28818E-18-2.19997E-18
 -1      3026 1.28282E-04-1.42713E-05-4.93752E-05-8.65921E-06 3.03217E-18-2.89188E-18
 -1      3027 9.15932E-05-1.66177E-05-3.21555E-05-5.49933E-06-1.04293E-18-1.81161E-18
 -1      3028 9.20677E-05-1.73775E-05-3.20564E-05-6.36621E-06-1.21439E-18-1.89512E-18
 -1      3029 9.24331E-05-1.80955E-05-3.18482E-05-4.47116E-06-8.99140E-19-1.59359E-18
 -1      3030 9.12840E-05-1.62440E-05-3.21482E-05 3.15892E-08 7.07213E-20-2.07817E-18
 -1      3031 9.01805E-05-1.44853E-05-3.24606E-05-3.74698E-07-3.65121E-20-2.28412E-18
 -1      3032 9.02372E-05-1.45656E-05-3.24499E-05-1.31967E-06-1.56637E-19-2.20777E-18
 -1      3033 1.18492E-04-5.71732E-05-2.61162E-05-2.38943E-05 1.94076E-19-1.54176E-18
 -1      3034 9.43596E-05-2.13898E-05-3.12775E-05 7.13868E-06 1.51734E-18-1.01569E-18
 -1      3035 1.24162E-04-5.77793E-05-2.83564E-05 1.80940E-05-2.03103E-18 1.66834E-18
 -1      3036 1.33891E-04-4.60812E-05-3.77474E-05-8.28387E-06 5.92288E-19 2.44787E-18
 -1      3037 9.46249E-05-2.24159E-05-3.09391E-05 5.59571E-06 1.39152E-18-1.08858E-18
 -1      3038 7.70717E-05-3.32008E-05-1.86173E-05 3.03704E-05-7.76147E-19 1.99402E-18
 -1      3039 6.44042E-05-2.84112E-05-1.48810E-05 3.19036E-05-1.04000E-18 4.39398E-19
 -1      3040 5.91987E-05-2.23072E-05-1.54818E-05 2.54965E-05-3.79312E-19-1.05085E-19
 -1      3041 9.45133E-05-2.70774E-05-2.88986E-05 1.25277E-06 1.44910E-18-2.62001E-18
 -1      3042 9.46784E-05-2.72684E-05-2.88950E-05 1.15890E-06 1.26544E-18-2.80566E-18
 -1      3043 9.48297E-05-2.74302E-05-2.88832E-05 1.21068E-06 4.90033E-20-2.22083E-18
 -1      3044 9.86045E-05-4.76919E-05-2.14986E-05 3.12024E-05-1.74251E-18 2.07015E-18
 -1      3045 9.28840E-05-1.85909E-05-3.18373E-05-6.97875E-06-1.30055E-18-1.73441E-18
 -1      3046 9.42466E-05-2.09323E-05-3.14577E-05-7.65388E-06-1.53396E-18-1.07261E-18
 -1      3047 9.47516E-05-2.27342E-05-3.08688E-05-5.95565E-06-1.42823E-18-9.19733E-19
 -1      3048 9.35294E-05-1.99623E-05-3.15101E-05-5.64601E-06-1.19646E-18-1.66857E-18
 -1      3049 1.35938E-04-4.17489E-05-4.04976E-05 9.61225E-06-8.47880E-19-2.67895E-18
 -1      3050 9.46026E-05-2.23599E-05-3.09422E-05-5.36588E-06-1.28608E-18-1.13310E-18
 -1      3051 9.49753E-05-2.76038E-05-2.88780E-05 1.22727E-06-1.08669E-18-2.14329E-18
 -1      3052 9.51320E-05-2.77789E-05-2.88633E-05 1.20145E-06-1.04608E-18-1.73683E-18
 -1      3053 9.51941E-05-2.77869E-05-2.88842E-05 1.35686E-06-8.27367E-19-1.21844E-18
 -1      3054 9.48605E-05-2.74330E-05-2.88947E-05 1.38668E-06 2.81845E-19-1.60535E-18
 -1      3055 1.28722E-04-5.80718E-05-3.02559E-05 1.19774E-05 6.68521E-19 1.15440E-18
 -1      3056 1.21572E-04-5.50876E-05-2.81774E-05 1.54007E-05 8.89093E-19 1.26035E-18
 -1      3057 1.29249E-04-5.44025E-05-3.24075E-05 2.92455E-06 1.00343E-18 2.43077E-18
 -1      3058 8.16441E-05-4.00452E-05-1.73589E-05-3.53630E-05-4.93820E-19-2.26481E-18
 -1      3059 9.50909E-05-2.77372E-05-2.88684E-05-1.18514E-06 3.78012E-20 5.21640E-19
 -1      3060 9.49745E-05-2.75735E-05-2.88870E-05-1.35552E-06-1.10784E-19 1.04556E-18
 -1      3061 1.24125E-04-1.17037E-05-4.87518E-05 3.21500E-06 2.55137E-18-1.05098E-18
 -1      3062 1.18824E-04-1.33366E-05-4.56353E-05-6.09190E-07 2.29377E-18 1.80789E-19
 -1      3063 7.01337E-05-3.30231E-05-1.54553E-05 3.44454E-05 1.40846E-18-1.60349E-18
 -1      3064 6.38297E-05-2.62486E-05-1.57716E-05 2.92259E-05 1.55343E-18-2.14395E-18
 -1      3065 8.11954E-05-3.66453E-05-1.88573E-05 3.16950E-05 1.39959E-18-1.15609E-18
 -1      3066 1.36149E-04-5.10501E-05-3.65045E-05-2.30588E-06 5.24016E-19-1.03338E-18
 -1      3067 1.24809E-04-1.93184E-05-4.55615E-05-1.08818E-05 2.97203E-18-1.88248E-18
 -1      3068 1.22913E-04-1.26376E-05-4.77401E-05 3.17164E-06-1.70836E-18-4.18011E-19
 -1      3069 1.11013E-04-5.40529E-05-2.41519E-05-2.74213E-05-1.89735E-19 8.08983E-20
 -1      3070 6.11548E-05-2.58558E-05-1.45924E-05-2.87199E-05 7.68682E-19 5.63277E-19
 -1      3071 1.29189E-04-5.61294E-05-3.12939E-05-8.18945E-06-7.28184E-19-1.33408E-19
 -1      3072 5.30540E-05-2.24596E-05-1.24843E-05-2.66742E-05 2.60992E-20-3.26616E-18
 -1      3073 4.43237E-05-1.64119E-05-1.13202E-05 1.71653E-05 1.66712E-18-1.31629E-18
 -1      3074 1.03556E-04-5.02656E-05-2.25870E-05 2.97371E-05 1.07616E-18-1.81530E-19
 -1      3075 1.28960E-04-2.39882E-05-4.53995E-05 1.25049E-05-1.13121E-18-2.14633E-18
 -1      3076 1.31667E-04-1.85421E-05-4.89179E-05 1.10611E-05 6.01393E-19-8.66091E-19
 -1      3077 1.26906E-04-1.24598E-05-4.97443E-05 6.51553E-06 1.90519E-18-1.23524E-18
 -1      3078 9.03659E-05-1.47658E-05-3.24208E-05-2.13735E-06-2.41759E-19-1.98639E-18
 -1      3079 9.05517E-05-1.50336E-05-3.23863E-05-3.07977E-06-4.64316E-19-1.94535E-18
 -1      3080 9.17745E-05-1.70346E-05-3.20233E-05-3.06223E-06-5.45055E-19-1.81399E-18
 -1      3081 9.13979E-05-1.64314E-05-3.21187E-05-1.53672E-06-2.32642E-19-1.97231E-18
 -1      3082 1.20493E-04-1.52928E-05-4.55342E-05 7.20713E-06 4.95514E-19 6.46710E-19
 -1      3083 1.35572E-04-5.55627E-05-3.42178E-05-5.06119E-06-7.10978E-19-2.19254E-18
 -1      3084 1.26019E-04-2.25889E-05-4.45840E-05 1.34434E-05-3.60413E-19 1.14244E-19
 -1      3085 1.28501E-04-5.72588E-05-3.09286E-05 9.76167E-06-1.59954E-18 2.16692E-18
 -1      3086 1.18164E-04-5.49279E-05-2.69411E-05 1.90216E-05-1.87583E-18 2.09940E-18
 -1      3087 9.42876E-05-2.17702E-05-3.11003E-05 4.85449E-06 1.15386E-18-1.21297E-18
 -1      3088 9.38256E-05-2.08136E-05-3.12925E-05 4.50675E-06 1.01841E-18-1.35439E-18
 -1      3089 9.23472E-05-1.81635E-05-3.18083E-05 1.75633E-06 3.32813E-19-2.04477E-18
 -1      3090 9.22241E-05-1.79544E-05-3.18418E-05 1.02265E-06 2.15611E-19-2.11982E-18
 -1      3091 9.49441E-05-2.33939E-05-3.06601E-05-3.98644E-06-1.16073E-18-1.27407E-18
 -1      3092 9.51712E-05-2.44843E-05-3.03105E-05-2.80419E-06-1.08475E-18-1.26344E-18
 -1      3093 9.56786E-05-2.66795E-05-2.95571E-05-4.40553E-07-7.55133E-19-1.14454E-18
 -1      3094 9.56603E-05-2.70947E-05-2.93919E-05 1.47234E-07-6.95700E-19-1.15816E-18
 -1      3095 9.56860E-05-2.74331E-05-2.92415E-05 5.99115E-07-6.72400E-19-1.10206E-18
 -1      3096 9.56566E-05-2.76756E-05-2.91373E-05 1.00054E-06-7.16373E-19-1.16365E-18
 -1      3097 9.58438E-05-2.70142E-05-2.95015E-05 2.47566E-07-6.69134E-19-1.05839E-18
 -1      3098 9.56241E-05-2.78542E-05-2.90381E-05 1.32007E-06-6.40010E-19-1.12141E-18
 -1      3099 9.56015E-05-2.79807E-05-2.89801E-05 1.60264E-06-4.97791E-19-1.10820E-18
 -1      3100 9.58412E-05-2.76161E-05-2.92428E-05 1.05509E-06-6.89022E-19-8.33852E-19
 -1      3101 9.55356E-05-2.80476E-05-2.89205E-05 1.84009E-06-4.07593E-19-1.10789E-18
 -1      3102 9.55247E-05-2.80918E-05-2.88974E-05 2.05831E-06-3.74658E-19-1.03869E-18
 -1      3103 9.57487E-05-2.79147E-05-2.90749E-05 1.64110E-06-5.12225E-19-9.61630E-19
 -1      3104 9.54375E-05-2.80777E-05-2.88683E-05 2.25713E-06-8.70478E-20-8.47189E-19
 -1      3105 9.54384E-05-2.80620E-05-2.88716E-05 2.45321E-06-7.74288E-21-5.69803E-19
 -1      3106 9.56011E-05-2.79937E-05-2.89771E-05 2.10008E-06-6.09304E-21-9.98274E-19
 -1      3107 9.53349E-05-2.79875E-05-2.88652E-05 2.64828E-06-2.82168E-19-3.18543E-19
 -1      3108 9.53467E-05-2.79281E-05-2.88885E-05 2.85438E-06-1.18315E-19-3.56407E-19
 -1      3109 9.54153E-05-2.79099E-05-2.89325E-05 2.51103E-06 5.97122E-20-5.58129E-19
 -1      3110 9.52285E-05-2.78083E-05-2.88982E-05 3.07299E-06-1.26763E-19-4.28853E-19
 -1      3111 9.52510E-05-2.77186E-05-2.89362E-05 3.31297E-06-2.94499E-19-1.06568E-19
 -1      3112 9.51978E-05-2.77043E-05-2.89266E-05 2.93682E-06-1.24785E-19-2.23042E-19
 -1      3113 9.51187E-05-2.75672E-05-2.89559E-05 3.57586E-06-3.92240E-19 5.05862E-21
 -1      3114 9.51536E-05-2.74612E-05-2.90039E-05 3.86628E-06-1.17786E-19 3.43008E-20
 -1      3115 9.49508E-05-2.74097E-05-2.89461E-05 3.42603E-06-1.99179E-19-1.01466E-19
 -1      3116 9.50088E-05-2.72931E-05-2.90274E-05 4.18848E-06-1.91279E-19-9.70783E-20
 -1      3117 9.50618E-05-2.71890E-05-2.90804E-05 4.53880E-06-7.80644E-20-2.20448E-20
 -1      3118 9.46766E-05-2.70586E-05-2.89782E-05 4.01488E-06-1.49197E-19-8.78569E-22
 -1      3119 9.49107E-05-2.70250E-05-2.91010E-05 4.93005E-06-1.70088E-19-1.30466E-19
 -1      3120 9.49937E-05-2.69490E-05-2.91532E-05 5.34190E-06-1.59322E-19-1.56432E-19
 -1      3121 9.43824E-05-2.66908E-05-2.90093E-05 4.72881E-06-2.17761E-19-5.30449E-19
 -1      3122 9.48514E-05-2.68212E-05-2.91629E-05 5.80660E-06-1.13687E-19-3.17428E-19
 -1      3123 9.49880E-05-2.68135E-05-2.92077E-05 6.27205E-06-3.16905E-19-6.34950E-19
 -1      3124 9.40882E-05-2.63630E-05-2.90237E-05 5.58340E-06-3.83788E-19-2.02853E-19
 -1      3125 9.48857E-05-2.67719E-05-2.91977E-05 6.80884E-06-2.68983E-19-4.75735E-19
 -1      3126 9.51182E-05-2.68944E-05-2.92272E-05 7.30758E-06-9.44730E-20-7.49198E-19
 -1      3127 9.38383E-05-2.61623E-05-2.90039E-05 6.58496E-06-4.09201E-19-6.75403E-19
 -1      3128 9.51151E-05-2.70156E-05-2.91884E-05 7.90776E-06-3.72367E-20-6.06763E-19
 -1      3129 9.55155E-05-2.73600E-05-2.91957E-05 8.40234E-06 1.51637E-19-4.64630E-19
 -1      3130 9.37186E-05-2.62218E-05-2.89305E-05 7.73054E-06-2.02523E-19-5.14020E-19
 -1      3131 9.57145E-05-2.77566E-05-2.91212E-05 9.04510E-06-1.15838E-20-8.32893E-19
 -1      3132 9.63966E-05-2.84499E-05-2.91035E-05 9.47222E-06-2.08190E-19-8.30653E-19
 -1      3133 9.38840E-05-2.67408E-05-2.87864E-05 9.00487E-06-5.18145E-20-8.19012E-19
 -1      3134 9.69659E-05-2.92750E-05-2.89947E-05 1.01113E-05 6.09591E-21-2.55434E-19
 -1      3135 9.80924E-05-3.04741E-05-2.89608E-05 1.03654E-05-1.29945E-19-1.67574E-20
 -1      3136 9.45950E-05-2.80034E-05-2.85641E-05 1.03674E-05 1.58324E-19-5.23676E-19
 -1      3137 9.92871E-05-3.19099E-05-2.88384E-05 1.08926E-05-1.35228E-19 5.41247E-19
 -1      3138 1.01051E-04-3.37580E-05-2.88230E-05 1.07951E-05 4.12137E-19 7.52720E-19
 -1      3139 9.62648E-05-3.03852E-05-2.82829E-05 1.17108E-05 2.57737E-19 7.59312E-19
 -1      3140 1.03206E-04-3.59473E-05-2.87503E-05 1.09726E-05 3.96329E-19 8.58038E-19
 -1      3141 1.05756E-04-3.84640E-05-2.88370E-05 1.02414E-05 6.02331E-19 1.08462E-18
 -1      3142 9.94784E-05-3.42842E-05-2.80226E-05 1.27503E-05 5.68061E-19 7.74555E-19
 -1      3143 1.09194E-04-4.12765E-05-2.89629E-05 9.56477E-06 1.13742E-18 7.01896E-19
 -1      3144 1.12319E-04-4.41423E-05-2.92202E-05 7.96854E-06 1.09202E-18 5.33844E-19
 -1      3145 1.04899E-04-3.99277E-05-2.79900E-05 1.28133E-05 6.42531E-19 1.21808E-18
 -1      3146 1.19910E-04-4.92134E-05-3.02465E-05 4.92885E-06 5.45939E-19 1.01074E-18
 -1      3147 1.23576E-04-5.02114E-05-3.14224E-05 1.03969E-06 6.60600E-19 8.79750E-19
 -1      3148 1.26206E-04-4.90857E-05-3.30675E-05-3.23280E-06 4.40695E-19 1.00778E-18
 -1      3149 1.27286E-04-4.05282E-05-3.76594E-05-1.25712E-05-7.33345E-20 1.34084E-18
 -1      3150 1.25789E-04-3.30992E-05-3.98645E-05-1.47871E-05-5.15578E-19 1.03277E-18
 -1      3151 1.23330E-04-2.61288E-05-4.21965E-05-1.39783E-05-9.82982E-19 4.97367E-19
 -1      3152 1.20705E-04-1.85347E-05-4.40636E-05-1.10163E-05-1.38003E-18 1.71551E-19
 -1      3153 1.18423E-04-1.45077E-05-4.50732E-05-5.53274E-06-1.46876E-18 1.46378E-19
 -1      3154 1.17890E-04-1.30631E-05-4.53327E-05 1.11883E-06-1.40533E-18-9.70687E-19
 -1      3155 1.19137E-04-1.51459E-05-4.49332E-05 7.79609E-06-1.07340E-18-1.41672E-18
 -1      3156 1.21279E-04-2.10968E-05-4.34599E-05 1.21998E-05-8.98702E-19-1.66638E-18
 -1      3157 1.26593E-04-4.52935E-05-3.48744E-05 8.89490E-06-9.38142E-19-1.85343E-18
 -1      3158 1.26045E-04-4.87763E-05-3.31895E-05 5.01165E-06-1.41647E-18-1.11139E-18
 -1      3159 1.21692E-04-4.86788E-05-3.13830E-05-2.16629E-07-1.14386E-18-1.65116E-18
 -1      3160 1.18948E-04-4.77530E-05-3.03883E-05-3.52812E-06-2.64036E-19-8.67143E-19
 -1      3161 1.14183E-04-4.52252E-05-2.96116E-05-6.48823E-06 1.03030E-19-8.61437E-19
 -1      3162 1.10986E-04-4.26126E-05-2.91816E-05-8.54270E-06 3.21611E-19-1.03845E-18
 -1      3163 1.15581E-04-4.79235E-05-2.91373E-05-8.88953E-06 7.01218E-20-2.27269E-18
 -1      3164 1.07264E-04-3.96876E-05-2.89710E-05-9.61346E-06 8.61485E-19-8.95023E-19
 -1      3165 1.04576E-04-3.70729E-05-2.88470E-05-1.05419E-05 1.79394E-18-5.96848E-19
 -1      3166 1.07037E-04-4.13952E-05-2.82401E-05-1.19824E-05 5.39269E-19-1.04797E-18
 -1      3167 1.02134E-04-3.47193E-05-2.88844E-05-1.05677E-05 1.11586E-18-3.21406E-19
 -1      3168 1.00218E-04-3.27090E-05-2.88893E-05-1.07656E-05 3.14767E-20-4.10175E-19
 -1      3169 1.00977E-04-3.55175E-05-2.81411E-05-1.24787E-05 1.27859E-18-6.01678E-19
 -1      3170 9.88101E-05-3.11105E-05-2.90007E-05-1.03295E-05 2.04308E-19 1.78990E-19
 -1      3171 9.75610E-05-2.97603E-05-2.90375E-05-1.01152E-05 1.27883E-19 6.97324E-19
 -1      3172 9.72534E-05-3.12260E-05-2.83504E-05-1.16903E-05 6.23460E-19 5.44036E-19
 -1      3173 9.68442E-05-2.88013E-05-2.91472E-05-9.49879E-06-3.17691E-19 1.07083E-18
 -1      3174 9.60782E-05-2.79916E-05-2.91735E-05-9.07316E-06 3.32669E-19 3.99035E-19
 -1      3175 9.52104E-05-2.84963E-05-2.86191E-05-1.04381E-05 2.25196E-20 3.14348E-19
 -1      3176 9.57802E-05-2.74941E-05-2.92532E-05-8.41527E-06 8.46884E-19 2.65204E-20
 -1      3177 9.53268E-05-2.70653E-05-2.92558E-05-7.89602E-06 1.50104E-18 3.42902E-19
 -1      3178 9.42433E-05-2.69655E-05-2.88458E-05-9.06858E-06-9.27774E-20-3.95666E-19
 -1      3179 9.52621E-05-2.68699E-05-2.93005E-05-7.25730E-06 8.56855E-19 2.64470E-19
 -1      3180 9.49975E-05-2.66872E-05-2.92803E-05-6.71493E-06-3.73808E-19 4.56471E-19
 -1      3181 9.39027E-05-2.62473E-05-2.89994E-05-7.73216E-06 1.20624E-18 2.19721E-19
 -1      3182 9.50501E-05-2.66734E-05-2.92952E-05-6.12384E-06 2.72291E-19 6.97602E-19
 -1      3183 9.48942E-05-2.66379E-05-2.92587E-05-5.60045E-06 7.48147E-19 4.53286E-19
 -1      3184 9.38975E-05-2.60399E-05-2.90821E-05-6.48932E-06 3.79816E-20-2.72975E-19
 -1      3185 9.49956E-05-2.67223E-05-2.92520E-05-5.07035E-06 6.01140E-19 4.55549E-19
 -1      3186 9.49002E-05-2.67667E-05-2.92063E-05-4.58995E-06 1.36158E-18 1.08573E-18
 -1      3187 9.40504E-05-2.61275E-05-2.91083E-05-5.36627E-06 2.27236E-19 4.73114E-19
 -1      3188 9.50127E-05-2.68952E-05-2.91862E-05-4.12597E-06 1.09091E-18 5.46133E-19
 -1      3189 9.49499E-05-2.69761E-05-2.91375E-05-3.70023E-06 3.87510E-19 8.58274E-19
 -1      3190 9.42597E-05-2.63658E-05-2.90954E-05-4.37376E-06 9.28368E-19 1.43603E-18
 -1      3191 9.50541E-05-2.71150E-05-2.91105E-05-3.30242E-06-1.33388E-19-6.92728E-20
 -1      3192 9.50078E-05-2.72047E-05-2.90635E-05-2.93466E-06-8.05072E-20-3.36331E-19
 -1      3193 9.44710E-05-2.66623E-05-2.90589E-05-3.51337E-06-1.65048E-19-3.86394E-19
 -1      3194 9.50951E-05-2.73369E-05-2.90347E-05-2.59728E-06 2.31049E-19-1.10915E-18
 -1      3195 9.50555E-05-2.74184E-05-2.89925E-05-2.29013E-06-5.13200E-19-1.74377E-18
 -1      3196 9.46572E-05-2.69591E-05-2.90112E-05-2.77959E-06-4.29891E-19-1.58290E-18
 -1      3197 9.51230E-05-2.75245E-05-2.89655E-05-1.99847E-06-1.36385E-18-8.03411E-19
 -1      3198 9.50921E-05-2.75923E-05-2.89284E-05-1.74251E-06-1.70974E-18-1.44699E-18
 -1      3199 9.47967E-05-2.72123E-05-2.89604E-05-2.16060E-06-6.00467E-19-1.02725E-18
 -1      3200 9.53756E-05-2.80798E-05-2.88353E-05-2.76302E-06 5.34031E-19-1.53773E-19
 -1      3201 9.53055E-05-2.81069E-05-2.88007E-05-2.57387E-06 6.59898E-19-3.75154E-19
 -1      3202 9.53593E-05-2.81542E-05-2.87977E-05-2.38714E-06 6.07835E-19-4.06998E-19
 -1      3203 9.53114E-05-2.81462E-05-2.87841E-05-2.20473E-06 2.97290E-19-3.59162E-19
 -1      3204 9.54131E-05-2.80404E-05-2.88767E-05-2.49395E-06 5.63975E-19-3.21735E-19
 -1      3205 9.54688E-05-2.77743E-05-2.90042E-05-3.70677E-06 2.85724E-20 4.54185E-19
 -1      3206 9.53535E-05-2.78358E-05-2.89405E-05-3.43873E-06 5.04349E-19 1.87757E-20
 -1      3207 9.55561E-05-2.75958E-05-2.91172E-05-4.33690E-06 6.26676E-20 5.67345E-19
 -1      3208 9.54115E-05-2.76528E-05-2.90448E-05-4.01194E-06 9.51232E-20 2.86003E-19
 -1      3209 9.50825E-05-2.74234E-05-2.89973E-05-3.93719E-06 2.45466E-21 1.91040E-19
 -1      3210 9.56909E-05-2.74505E-05-2.92365E-05-5.08941E-06-2.24371E-19 7.87574E-19
 -1      3211 9.55059E-05-2.74803E-05-2.91596E-05-4.70718E-06 2.41361E-20 7.37595E-19
 -1      3212 9.49756E-05-2.71530E-05-2.90671E-05-4.62131E-06-3.71325E-20 9.24988E-20
 -1      3213 9.59079E-05-2.74006E-05-2.93503E-05-5.95474E-06-3.65418E-20 7.00501E-19
 -1      3214 9.56625E-05-2.73689E-05-2.92743E-05-5.52609E-06-8.62836E-20 8.65209E-19
 -1      3215 9.48957E-05-2.69240E-05-2.91312E-05-5.43653E-06-1.58838E-19 4.97201E-19
 -1      3216 9.62705E-05-2.75416E-05-2.94447E-05-6.89899E-06-6.09996E-19 1.46064E-18
 -1      3217 9.59308E-05-2.73963E-05-2.93760E-05-6.45002E-06-3.39633E-19 1.14176E-18
 -1      3218 9.48853E-05-2.68146E-05-2.91750E-05-6.37917E-06-4.47565E-19 7.63302E-19
 -1      3219 9.68874E-05-2.80164E-05-2.95053E-05-7.85443E-06-3.48541E-19 1.51789E-18
 -1      3220 9.63983E-05-2.76815E-05-2.94507E-05-7.43236E-06-3.50556E-19 1.47876E-18
 -1      3221 9.50246E-05-2.69442E-05-2.91823E-05-7.42675E-06-6.23687E-19 1.29773E-18
 -1      3222 9.79337E-05-2.90244E-05-2.95219E-05-8.70572E-06-1.93011E-19 1.79706E-18
 -1      3223 9.72105E-05-2.83966E-05-2.94856E-05-8.38692E-06-3.07093E-19 1.67628E-18
 -1      3224 9.54524E-05-2.74888E-05-2.91387E-05-8.53066E-06-3.89314E-19 1.20483E-18
 -1      3225 9.96688E-05-3.08188E-05-2.94988E-05-9.26549E-06 3.28988E-19 1.63734E-18
 -1      3226 9.85949E-05-2.97740E-05-2.94771E-05-9.16771E-06 2.23260E-19 2.00396E-18
 -1      3227 9.63944E-05-2.86941E-05-2.90378E-05-9.60258E-06-1.15632E-19 1.72884E-18
 -1      3228 1.02428E-04-3.36508E-05-2.94758E-05-9.22649E-06 3.21475E-20 1.56980E-18
 -1      3229 1.00877E-04-3.20861E-05-2.94458E-05-9.52703E-06 2.92327E-19 1.87269E-18
 -1      3230 9.81962E-05-3.08736E-05-2.88962E-05-1.04783E-05 3.23080E-19 2.08319E-18
 -1      3231 1.06520E-04-3.75848E-05-2.95609E-05-8.09503E-06-5.63544E-19 1.54053E-18
 -1      3232 1.04435E-04-3.55386E-05-2.94653E-05-9.04086E-06-7.34387E-20 1.51497E-18
 -1      3233 1.01326E-04-3.43412E-05-2.87816E-05-1.08301E-05-9.26686E-20 2.12003E-18
 -1      3234 1.11957E-04-4.21273E-05-2.99708E-05-5.19755E-06-8.99178E-19 1.16739E-18
 -1      3235 1.09504E-04-3.99880E-05-2.97025E-05-7.06361E-06-5.57162E-19 1.15490E-18
 -1      3236 1.06243E-04-3.91441E-05-2.88598E-05-1.00448E-05-3.84240E-19 1.64851E-18
 -1      3237 1.17983E-04-4.56055E-05-3.10785E-05 1.93910E-07-1.24953E-18 7.98514E-19
 -1      3238 1.15808E-04-4.45206E-05-3.04661E-05-2.75910E-06-1.11679E-18 1.13310E-18
 -1      3239 1.13094E-04-4.46028E-05-2.94541E-05-7.18866E-06-6.17593E-19 1.08568E-18
 -1      3240 1.22279E-04-3.65465E-05-3.68395E-05 1.34018E-05 2.96250E-19-5.40182E-20
 -1      3241 1.23665E-04-4.16764E-05-3.53227E-05 1.18171E-05-1.19630E-19-1.15276E-19
 -1      3242 1.19590E-04-2.41272E-05-4.11465E-05 1.25455E-05 4.87997E-19 5.11303E-19
 -1      3243 1.22407E-04-3.09543E-05-3.95606E-05 1.48050E-05 2.31505E-19-2.26264E-19
 -1      3244 1.13578E-04-1.54102E-05-4.23832E-05 1.35340E-06 1.33662E-18 4.73084E-19
 -1      3245 1.14438E-04-1.74911E-05-4.18985E-05 7.23055E-06 1.23132E-18 1.11216E-18
 -1      3246 1.16277E-04-1.90980E-05-4.20862E-05-9.72659E-06 2.18016E-18-9.40868E-19
 -1      3247 1.14942E-04-1.56599E-05-4.29092E-05-4.71780E-06 1.98216E-18 1.09850E-20
 -1      3248 1.23386E-04-3.19962E-05-3.95345E-05-1.45792E-05 2.66876E-18-1.53721E-18
 -1      3249 1.20635E-04-2.47550E-05-4.13228E-05-1.38799E-05 2.36312E-18-1.76405E-18
 -1      3250 1.23871E-04-4.46760E-05-3.40628E-05-9.31404E-06 1.32013E-18-6.02267E-19
 -1      3251 1.22994E-04-4.04534E-05-3.53719E-05-1.20286E-05 2.60089E-18-8.96012E-19
 -1      3252 1.19644E-04-4.60936E-05-3.14652E-05-1.44849E-06-5.77796E-19 3.63371E-19
 -1      3253 1.21120E-04-4.57932E-05-3.23776E-05-4.63713E-06 4.18044E-19-1.16790E-19
 -1      3254 1.24906E-04-4.81370E-05-3.30988E-05-4.44145E-06 5.80112E-19-3.16499E-19
 -1      3255 1.13455E-04-4.29359E-05-3.01138E-05 4.57372E-06-1.48997E-18-3.86701E-19
 -1      3256 1.15851E-04-4.46383E-05-3.05814E-05 2.05260E-06-1.08103E-18 3.93781E-19
 -1      3257 1.18010E-04-4.73872E-05-3.03554E-05 3.61477E-06-6.25042E-19-1.08331E-19
 -1      3258 1.07509E-04-3.82687E-05-2.95888E-05 7.93471E-06-1.13031E-18-4.52706E-19
 -1      3259 1.09870E-04-4.04583E-05-2.97757E-05 6.44116E-06-1.57355E-18-7.63984E-19
 -1      3260 1.10443E-04-4.26097E-05-2.91573E-05 8.48479E-06-1.53919E-18 3.14011E-19
 -1      3261 1.02989E-04-3.41085E-05-2.94659E-05 9.25579E-06 3.46221E-19-6.85990E-19
 -1      3262 1.04884E-04-3.60076E-05-2.95241E-05 8.59171E-06-5.57550E-19-6.53392E-19
 -1      3263 1.04235E-04-3.72128E-05-2.88060E-05 1.04402E-05-6.05841E-19-4.98237E-19
 -1      3264 9.99382E-05-3.10657E-05-2.94872E-05 9.33639E-06-2.21686E-19-2.55185E-21
 -1      3265 1.01300E-04-3.24420E-05-2.95053E-05 9.22469E-06 7.12086E-19-1.58666E-19
 -1      3266 1.00002E-04-3.28508E-05-2.88351E-05 1.06882E-05-2.68969E-19-4.48754E-19
 -1      3267 9.80257E-05-2.91030E-05-2.95250E-05 8.74020E-06-5.57055E-19-3.32497E-20
 -1      3268 9.89526E-05-2.99914E-05-2.95454E-05 8.96078E-06-4.51855E-19 3.49059E-19
 -1      3269 9.74077E-05-2.98620E-05-2.89812E-05 1.00546E-05-3.33709E-19 2.38987E-19
 -1      3270 9.68837E-05-2.79732E-05-2.95293E-05 7.81337E-06-7.06540E-19 1.38071E-18
 -1      3271 9.75032E-05-2.84911E-05-2.95662E-05 8.21325E-06-6.78925E-19 1.13764E-18
 -1      3272 9.59565E-05-2.80472E-05-2.91213E-05 9.02936E-06-1.25616E-18 1.26261E-18
 -1      3273 9.62224E-05-2.74135E-05-2.94910E-05 6.76077E-06 1.59032E-20 1.20428E-18
 -1      3274 9.66400E-05-2.76794E-05-2.95443E-05 7.23903E-06-6.32184E-19 1.75455E-18
 -1      3275 9.52246E-05-2.70841E-05-2.92109E-05 7.86593E-06-9.36512E-19 2.15032E-18
 -1      3276 9.58449E-05-2.72118E-05-2.94182E-05 5.70305E-06-4.96299E-19-9.94653E-20
 -1      3277 9.61341E-05-2.73194E-05-2.94823E-05 6.19558E-06-9.77627E-20 3.88607E-19
 -1      3278 9.49111E-05-2.66811E-05-2.92442E-05 6.69596E-06-3.03879E-19 5.27299E-19
 -1      3279 9.56277E-05-2.72163E-05-2.93241E-05 4.70935E-06 7.25745E-19-1.39732E-19
 -1      3280 9.58356E-05-2.72322E-05-2.93925E-05 5.17776E-06 8.05488E-21 1.41352E-20
 -1      3281 9.48224E-05-2.66173E-05-2.92312E-05 5.59003E-06 7.53640E-20-5.44083E-21
 -1      3282 9.54979E-05-2.73259E-05-2.92214E-05 3.81606E-06 5.45762E-19 2.20137E-19
 -1      3283 9.56532E-05-2.72944E-05-2.92884E-05 4.23965E-06 8.11199E-19 4.26792E-19
 -1      3284 9.48425E-05-2.67396E-05-2.91865E-05 4.58563E-06 1.39641E-19-8.53589E-19
 -1      3285 9.54130E-05-2.74760E-05-2.91203E-05 3.03654E-06-4.44910E-19 1.03236E-18
 -1      3286 9.55332E-05-2.74250E-05-2.91820E-05 3.40737E-06 7.09339E-19 8.60055E-19
 -1      3287 9.49050E-05-2.69468E-05-2.91242E-05 3.70035E-06 2.85571E-20 1.54841E-18
 -1      3288 9.53493E-05-2.76271E-05-2.90275E-05 2.37148E-06-4.31572E-19-3.87469E-19
 -1      3289 9.54461E-05-2.75749E-05-2.90814E-05 2.68869E-06-6.69293E-19 3.99882E-20
 -1      3290 9.49747E-05-2.71768E-05-2.90556E-05 2.93665E-06 1.70373E-19 1.38195E-18
 -1      3291 9.52963E-05-2.77551E-05-2.89471E-05 1.81275E-06 5.14606E-19-2.48037E-18
 -1      3292 9.53738E-05-2.77138E-05-2.89921E-05 2.07775E-06-1.22450E-19-9.20174E-19
 -1      3293 9.50315E-05-2.73904E-05-2.89887E-05 2.28961E-06 4.18832E-19-4.41180E-19
 -1      3294 9.52034E-05-2.77673E-05-2.89000E-05 1.49184E-06-1.95729E-19-2.25946E-18
 -1      3295 9.52868E-05-2.77788E-05-2.89279E-05 1.66028E-06 2.24953E-19-3.02377E-18
 -1      3296 9.50428E-05-2.75224E-05-2.89384E-05 1.83825E-06 9.08779E-19-2.15324E-18
 -1      3297 9.50261E-05-2.75897E-05-2.89059E-05 1.53706E-06-6.45414E-19-1.54915E-18
 -1      3298 9.44889E-05-2.70383E-05-2.89023E-05-1.48238E-06 9.36028E-19 8.69288E-19
 -1      3299 9.42849E-05-2.68615E-05-2.89016E-05-1.36147E-06 9.31299E-19-2.03163E-20
 -1      3300 9.36956E-05-2.63079E-05-2.88827E-05-1.37482E-07 1.56848E-19-1.48603E-18
 -1      3301 9.36954E-05-2.63078E-05-2.88826E-05 1.31853E-07-2.32973E-19-8.52223E-19
 -1      3302 1.30629E-04-5.48226E-05-3.23552E-05-4.52741E-06-1.01072E-18-2.44316E-18
 -1      3303 1.33537E-04-5.13246E-05-3.57369E-05 4.49752E-06-1.01700E-18-3.17394E-18
 -1      3304 4.42089E-05-1.22883E-05-1.33056E-05-4.92235E-06-6.12168E-19-2.39287E-19
 -1      3305 4.81280E-05-1.49610E-05-1.41020E-05-1.49066E-05 1.12311E-19 1.38808E-19
 -1      3306 9.52240E-05-2.42116E-05-3.04355E-05 4.14991E-06 1.17928E-18-1.02179E-18
 -1      3307 9.46539E-05-2.26626E-05-3.08437E-05 4.65346E-06 1.23354E-18-1.02280E-18
 -1      3308 9.49293E-05-2.34890E-05-3.06163E-05 3.53033E-06 1.04719E-18-1.02747E-18
 -1      3309 9.52578E-05-2.51220E-05-3.00709E-05 2.85101E-06 1.06033E-18-9.96563E-19
 -1      3310 4.16986E-05-1.19175E-05-1.24545E-05-1.71188E-07 1.30271E-18-1.54340E-18
 -1      3311 4.37060E-05-1.34934E-05-1.26786E-05-1.16040E-05 1.15257E-18-2.12552E-18
 -1      3312 9.40904E-05-2.66695E-05-2.88930E-05-1.16259E-06 3.38043E-20-4.11123E-19
 -1      3313 9.39408E-05-2.65399E-05-2.88914E-05-9.60404E-07-6.43589E-19 1.82007E-18
 -1      3314 9.40362E-05-2.66081E-05-2.88945E-05-1.41074E-06 2.42950E-19 9.97589E-19
 -1      3315 1.33772E-04-4.36929E-05-3.89066E-05 1.03100E-05-6.48245E-20-6.63544E-19
 -1      3316 1.27819E-04-3.59389E-05-3.95850E-05 1.41929E-05 7.24743E-20-1.35859E-18
 -1      3317 9.54113E-05-2.79452E-05-2.89072E-05-3.19017E-06 7.53337E-19 1.10928E-19
 -1      3318 9.53196E-05-2.79957E-05-2.88562E-05-2.96994E-06 7.53133E-19 1.30067E-19
 -1      3319 9.53070E-05-2.78995E-05-2.88908E-05-2.90436E-06 4.38783E-19 9.05262E-20
 -1      3320 9.51958E-05-2.76842E-05-2.89347E-05-3.37299E-06 4.50092E-19 3.42823E-19
 -1      3321 9.54202E-05-2.77180E-05-2.90172E-05-9.46698E-07 4.05386E-19-3.29362E-19
 -1      3322 9.54560E-05-2.74915E-05-2.91155E-05-5.37669E-07 5.78317E-19-3.50580E-19
 -1      3323 1.13442E-04-5.40895E-05-2.52135E-05-2.40088E-05 6.30563E-19-1.13060E-18
 -1      3324 1.25011E-04-5.83706E-05-2.88469E-05-1.66994E-05-3.33890E-19-1.68361E-18
 -1      3325 1.31021E-04-4.57273E-05-3.71849E-05-1.01229E-05 1.84907E-18-3.00114E-19
 -1      3326 1.31397E-04-5.12012E-05-3.42455E-05-2.30617E-06 4.90829E-19 1.25096E-19
 -1      3327 1.03561E-04-4.91432E-05-2.29195E-05-2.84312E-05-1.61201E-20 3.35875E-19
 -1      3328 1.14777E-04-5.39992E-05-2.63107E-05-2.14736E-05-2.85874E-21 2.35078E-19
 -1      3329 9.55083E-05-2.54332E-05-3.00163E-05-1.94045E-06-9.24003E-19-1.19400E-18
 -1      3330 9.55426E-05-2.61029E-05-2.97720E-05-1.08580E-06-7.86193E-19-1.25046E-18
 -1      3331 9.56802E-05-2.59726E-05-2.98751E-05-8.84463E-07-7.88737E-19-1.14847E-18
 -1      3332 1.07459E-04-5.07629E-05-2.43383E-05 2.61813E-05-1.36791E-18 2.10313E-18
 -1      3333 9.44732E-05-4.30641E-05-2.19013E-05 2.89243E-05-9.95211E-19 2.11110E-18
 -1      3334 1.24036E-04-5.52060E-05-2.92103E-05-1.17371E-05-3.64869E-19-4.85800E-19
 -1      3335 1.27873E-04-5.29923E-05-3.23247E-05-2.00195E-06-3.99939E-19-2.94397E-19
 -1      3336 8.64966E-05-3.93037E-05-1.98733E-05-3.14529E-05 7.86814E-19 4.84132E-20
 -1      3337 1.00709E-04-4.84252E-05-2.24971E-05-3.01927E-05 8.56509E-19-7.43536E-19
 -1      3338 5.82596E-05-2.04839E-05-1.57306E-05-2.29553E-05 6.14986E-19 1.09982E-18
 -1      3339 7.10857E-05-2.97048E-05-1.77233E-05-3.02389E-05 3.89212E-19 4.21875E-19
 -1      3340 1.30282E-04-4.72322E-05-3.56982E-05 7.23395E-06-7.17463E-20-8.40733E-19
 -1      3341 5.17574E-05-1.84394E-05-1.40163E-05 2.12663E-05 1.47376E-18-1.23847E-18
 -1      3342 4.41673E-05-1.32467E-05-1.27805E-05 1.04900E-05 1.35411E-18-1.06229E-18
 -1      3343 5.11402E-05-1.77393E-05-1.38505E-05-2.03831E-05 6.40330E-19-2.66011E-18
 -1      3344 6.22268E-05-2.55830E-05-1.56636E-05-2.90427E-05-1.27637E-19-3.14884E-18
 -1      3345 7.71031E-05-3.42499E-05-1.79011E-05-3.20815E-05-6.84588E-19-2.68393E-18
 -1      3346 9.11944E-05-4.33542E-05-2.05742E-05-3.26816E-05-4.04564E-19-8.26545E-19
 -1      3347 9.81153E-05-4.41406E-05-2.29739E-05-2.67895E-05-2.69568E-19-2.78396E-19
 -1      3348 1.25919E-04-2.96167E-05-4.14816E-05 1.49042E-05-1.00659E-18-1.70905E-18
 -1      3349 9.38172E-05-2.64177E-05-2.88857E-05-6.91956E-07-4.38164E-19 1.17027E-18
 -1      3350 9.37390E-05-2.63505E-05-2.88848E-05-4.44438E-07 3.30475E-19-5.52888E-19
 -1      3351 9.34936E-05-2.61250E-05-2.88670E-05-3.22872E-07-1.99060E-20-3.63638E-19
 -1      3352 9.36816E-05-2.62917E-05-2.88766E-05-9.23096E-07-4.66521E-19 4.06446E-19
 -1      3353 4.90769E-05-1.52404E-05-1.42721E-05 1.51161E-05-1.47958E-18-5.08537E-19
 -1      3354 4.46344E-05-1.20953E-05-1.35418E-05 4.08239E-06-1.68168E-18 1.95982E-19
 -1      3355 9.40666E-05-2.12361E-05-3.12366E-05-5.16387E-06-1.24043E-18-1.63703E-18
 -1      3356 9.45175E-05-2.23500E-05-3.09288E-05-4.49358E-06-1.17356E-18-1.39917E-18
 -1      3357 9.34492E-05-1.99936E-05-3.14735E-05-4.77676E-06-1.06280E-18-1.64998E-18
 -1      3358 1.09222E-04-5.14591E-05-2.50210E-05 2.44482E-05 9.83458E-19 5.27675E-19
 -1      3359 9.67812E-05-4.46267E-05-2.20408E-05 2.91232E-05 9.27369E-19-1.46907E-19
 -1      3360 1.28220E-04-3.81490E-05-3.89864E-05 1.36018E-05-9.63871E-19-2.04381E-18
 -1      3361 1.26085E-04-4.54239E-05-3.46555E-05 8.62215E-06-1.14746E-19-1.45827E-18
 -1      3362 1.22226E-04-4.42482E-05-3.34987E-05 8.13275E-06-2.62024E-19-1.40687E-20
 -1      3363 1.21464E-04-4.59443E-05-3.23935E-05 4.77464E-06-9.53122E-19 1.52453E-19
 -1      3364 1.28731E-04-5.04258E-05-3.35905E-05 3.65177E-06-3.10524E-19-7.46024E-19
 -1      3365 1.31710E-04-4.37118E-05-3.79496E-05 9.88646E-06-7.61615E-19-2.49250E-18
 -1      3366 9.21601E-05-1.78477E-05-3.18610E-05 3.95017E-07 1.22221E-19-1.93882E-18
 -1      3367 9.21560E-05-1.78349E-05-3.18616E-05-3.45233E-07-5.93528E-20-1.90566E-18
 -1      3368 9.30923E-05-1.93963E-05-3.15656E-05 5.99387E-07 8.88968E-20-1.88709E-18
 -1      3369 9.43527E-05-2.18542E-05-3.10457E-05 3.50352E-06 9.46064E-19-1.29458E-18
 -1      3370 9.34344E-05-2.00951E-05-3.14568E-05 4.12412E-06 9.32844E-19-1.56979E-18
 -1      3371 9.30675E-05-1.94175E-05-3.15749E-05 3.54888E-06 7.60925E-19-1.75449E-18
 -1      3372 5.38179E-05-1.62980E-05-1.56182E-05-1.49011E-05 1.00961E-18-2.21785E-18
 -1      3373 9.52379E-05-2.43435E-05-3.03877E-05-2.42915E-06-1.01755E-18-1.16097E-18
 -1      3374 8.79124E-05-3.80504E-05-2.10833E-05 2.92566E-05-6.18202E-19 1.63059E-18
 -1      3375 8.04150E-05-3.20313E-05-2.06505E-05 2.66363E-05-4.71691E-19 1.89529E-18
 -1      3376 9.65745E-05-4.10411E-05-2.37087E-05 2.43092E-05 2.61965E-19 2.74105E-18
 -1      3377 9.42884E-05-2.68658E-05-2.89008E-05 1.36000E-06 2.77063E-19-3.39726E-18
 -1      3378 9.44872E-05-2.70437E-05-2.89023E-05 1.48001E-06 4.40426E-19-1.66923E-18
 -1      3379 1.15848E-04-4.89295E-05-2.88375E-05 1.06465E-05 8.77473E-19 1.37693E-18
 -1      3380 1.29478E-04-4.73775E-05-3.50601E-05-7.67447E-06 7.45548E-19 1.25877E-18
 -1      3381 1.24012E-04-5.05854E-05-3.15823E-05-8.65667E-07-1.64140E-19-1.38001E-18
 -1      3382 1.24935E-04-5.11581E-05-3.18098E-05-1.11269E-06-1.09058E-18-1.78030E-18
 -1      3383 1.20951E-04-4.79262E-05-3.13024E-05-1.55613E-07-4.34630E-19-4.18448E-19
 -1      3384 9.56844E-05-2.70916E-05-2.94027E-05-1.54817E-07 5.49718E-19-3.50604E-19
 -1      3385 9.54478E-05-2.71749E-05-2.92654E-05-5.27176E-08 6.86949E-19-4.56586E-19
 -1      3386 9.54986E-05-2.67929E-05-2.94299E-05 5.65067E-07 7.80259E-19-4.45917E-19
 -1      3387 9.53901E-05-2.78876E-05-2.89221E-05-1.28049E-06 1.97472E-19-1.72879E-19
 -1      3388 9.56697E-05-2.76716E-05-2.91474E-05-1.01687E-06 1.66939E-19-1.84834E-19
 -1      3389 9.53845E-05-2.80139E-05-2.88722E-05-1.55986E-06 6.79171E-20-9.23912E-20
 -1      3390 9.69546E-05-4.13476E-05-2.36681E-05 2.43491E-05 8.27157E-19-7.57433E-20
 -1      3391 8.99771E-05-3.99056E-05-2.12940E-05 2.95103E-05 1.12094E-18-3.90165E-19
 -1      3392 8.25663E-05-3.36343E-05-2.08323E-05 2.73677E-05 1.21155E-18-8.73185E-19
 -1      3393 1.28613E-04-3.75066E-05-3.93094E-05-1.30114E-05 2.15395E-18-1.24180E-18
 -1      3394 9.55128E-05-2.80770E-05-2.89046E-05-2.09048E-06 3.61395E-19-3.76861E-19
 -1      3395 9.53623E-05-2.81431E-05-2.88053E-05-2.00954E-06 1.58444E-19-2.77463E-19
 -1      3396 9.53393E-05-2.80858E-05-2.88191E-05-1.80071E-06 1.68967E-19-2.00134E-19
 -1      3397 5.88347E-05-1.83845E-05-1.69891E-05-1.74917E-05 1.04185E-19 3.34313E-19
 -1      3398 8.22434E-05-3.38778E-05-2.04409E-05-2.75089E-05 2.85979E-19-6.44010E-20
 -1      3399 1.17334E-04-1.92601E-05-4.25889E-05 9.95530E-06 5.13514E-19 6.17725E-19
 -1      3400 1.26707E-04-5.41021E-05-3.10482E-05-6.16090E-06-7.82685E-19-2.26274E-18
 -1      3401 5.78042E-05-1.86896E-05-1.63248E-05 1.97047E-05-4.72062E-19 3.67453E-19
 -1      3402 5.88638E-05-1.65978E-05-1.79134E-05 1.40047E-05-3.35028E-19 4.70368E-19
 -1      3403 6.75611E-05-2.32955E-05-1.89505E-05 2.23728E-05-5.11909E-19 5.94458E-19
 -1      3404 9.47496E-05-2.72964E-05-2.89142E-05-1.62700E-06-2.69946E-19 1.31000E-18
 -1      3405 9.45357E-05-2.70652E-05-2.89188E-05-1.75918E-06 1.93593E-19 1.74873E-19
 -1      3406 9.39438E-05-2.65436E-05-2.88911E-05 9.61882E-07-5.11070E-19-2.25858E-18
 -1      3407 9.40930E-05-2.66727E-05-2.88925E-05 1.16271E-06 2.54519E-19-3.27889E-18
 -1      3408 9.40379E-05-2.66129E-05-2.88937E-05 1.41097E-06-5.26458E-19-3.01937E-18
 -1      3409 9.49801E-05-2.75310E-05-2.89060E-05-1.50992E-06-6.31580E-19 5.40416E-19
 -1      3410 9.54102E-05-2.63812E-05-2.95929E-05 1.14278E-06 8.29389E-19-6.42587E-19
 -1      3411 9.54430E-05-2.57806E-05-2.98417E-05 2.04971E-06 8.98071E-19-8.06326E-19
 -1      3412 9.53529E-05-2.50486E-05-3.01268E-05 2.42927E-06 8.82085E-19-7.80134E-19
 -1      3413 9.55922E-05-2.62375E-05-2.97293E-05 9.73136E-07 7.21288E-19-5.15408E-19
 -1      3414 1.14110E-04-5.12389E-05-2.67944E-05 1.80331E-05-1.00964E-18 2.55879E-18
 -1      3415 9.26741E-05-1.86582E-05-3.17253E-05-3.64749E-06-7.75059E-19-1.40208E-18
 -1      3416 9.30241E-05-1.93085E-05-3.16139E-05-4.24577E-06-1.02409E-18-1.39680E-18
 -1      3417 9.36757E-05-2.04781E-05-3.13561E-05-3.89720E-06-9.43399E-19-1.39242E-18
 -1      3418 9.37386E-05-2.63505E-05-2.88846E-05 4.40948E-07-1.90586E-19-9.21341E-20
 -1      3419 9.38184E-05-2.64193E-05-2.88855E-05 6.92797E-07-4.86823E-19-7.94938E-19
 -1      3420 9.36839E-05-2.62945E-05-2.88764E-05 9.22874E-07-1.04979E-20-2.37887E-18
 -1      3421 9.34932E-05-2.61251E-05-2.88669E-05 3.19166E-07-3.66087E-19-4.17509E-19
 -1      3422 5.06503E-05-1.30458E-05-1.57252E-05 1.95070E-07-5.36311E-19-8.55980E-19
 -1      3423 7.01889E-05-2.61475E-05-1.87489E-05 2.50666E-05 1.36794E-18-1.91297E-18
 -1      3424 6.08450E-05-2.20394E-05-1.61854E-05 2.43008E-05 1.37000E-18-1.81704E-18
 -1      3425 5.94207E-05-1.86702E-05-1.72620E-05 1.86281E-05 1.23617E-18-1.79889E-18
 -1      3426 1.16926E-04-5.21487E-05-2.77838E-05-1.49264E-05 3.63642E-19-3.60786E-19
 -1      3427 9.44837E-05-2.22662E-05-3.09512E-05-3.85438E-06-1.10796E-18-1.44087E-18
 -1      3428 4.88583E-05-1.32853E-05-1.47882E-05 4.83737E-06 9.99009E-19-1.32735E-18
 -1      3429 1.08812E-04-5.00927E-05-2.49796E-05-2.32223E-05 3.22111E-19-5.73656E-19
 -1      3430 1.27251E-04-5.14687E-05-3.24332E-05 5.06013E-07 3.83729E-19 1.42897E-18
 -1      3431 9.21522E-05-1.77910E-05-3.18796E-05-2.31898E-06-3.58399E-19-1.68837E-18
 -1      3432 9.23850E-05-1.81847E-05-3.18142E-05-3.02368E-06-5.60778E-19-1.63810E-18
 -1      3433 9.30484E-05-1.93074E-05-3.15878E-05-2.87754E-06-6.51520E-19-1.44341E-18
 -1      3434 9.27766E-05-1.89009E-05-3.16797E-05 3.03182E-06 6.31930E-19-1.83218E-18
 -1      3435 9.25295E-05-1.84729E-05-3.17500E-05 2.34514E-06 4.73058E-19-1.90021E-18
 -1      3436 9.33167E-05-1.98021E-05-3.14863E-05 1.72474E-06 4.02036E-19-1.88168E-18
 -1      3437 9.37505E-05-2.06171E-05-3.13199E-05 2.73155E-06 6.96233E-19-1.63997E-18
 -1      3438 7.39757E-05-2.93870E-05-1.87398E-05-2.72777E-05-1.51513E-19-2.45423E-18
 -1      3439 1.15331E-04-5.18197E-05-2.71991E-05 1.67948E-05 8.26757E-19 1.11148E-18
 -1      3440 6.95879E-05-2.42641E-05-1.90876E-05-2.34286E-05 3.46198E-19-2.51489E-18
 -1      3441 8.13637E-05-3.26613E-05-2.09983E-05-2.67349E-05-1.59361E-19-2.12634E-18
 -1      3442 1.06639E-04-4.46843E-05-2.63525E-05 1.78371E-05 7.91182E-19 9.77900E-19
 -1      3443 9.60045E-05-2.73474E-05-2.94187E-05 7.58257E-07-5.72098E-19-9.32674E-19
 -1      3444 9.59747E-05-2.75911E-05-2.93103E-05 1.10880E-06-5.02810E-19-8.39016E-19
 -1      3445 9.59174E-05-2.77581E-05-2.92079E-05 1.37381E-06-5.10364E-19-7.85207E-19
 -1      3446 9.58529E-05-2.78624E-05-2.91392E-05 1.63693E-06-3.22378E-19-6.91814E-19
 -1      3447 9.60451E-05-2.75176E-05-2.93693E-05 1.11173E-06-3.84664E-19-7.28688E-19
 -1      3448 9.57311E-05-2.78971E-05-2.90709E-05 1.84743E-06-1.33373E-19-6.43997E-19
 -1      3449 9.56441E-05-2.78977E-05-2.90327E-05 2.06590E-06 8.46315E-20-7.36646E-19
 -1      3450 9.58689E-05-2.77562E-05-2.91917E-05 1.60261E-06-1.93204E-19-4.45121E-19
 -1      3451 9.54726E-05-2.78323E-05-2.89901E-05 2.25559E-06 3.23377E-19-8.31759E-19
 -1      3452 9.53686E-05-2.77545E-05-2.89746E-05 2.46426E-06 2.70954E-19-5.39897E-19
 -1      3453 9.55797E-05-2.77412E-05-2.90737E-05 2.01409E-06 1.50050E-19-6.80212E-19
 -1      3454 9.51544E-05-2.76120E-05-2.89501E-05 2.66116E-06 4.89741E-20-3.82067E-19
 -1      3455 9.50351E-05-2.74752E-05-2.89504E-05 2.88743E-06 2.70778E-20-2.49354E-19
 -1      3456 9.51986E-05-2.75317E-05-2.89994E-05 2.40686E-06 3.29451E-19-6.48349E-19
 -1      3457 9.47805E-05-2.72740E-05-2.89366E-05 3.11420E-06-1.42557E-20-1.38256E-19
 -1      3458 9.46466E-05-2.70953E-05-2.89459E-05 3.37888E-06-1.41630E-19 7.80179E-21
 -1      3459 9.47348E-05-2.71728E-05-2.89534E-05 2.83099E-06 6.12167E-20-3.16529E-19
 -1      3460 9.43516E-05-2.68524E-05-2.89351E-05 3.65352E-06-4.45190E-19-9.80149E-20
 -1      3461 9.42049E-05-2.66499E-05-2.89467E-05 3.97180E-06-2.91661E-19-2.15241E-19
 -1      3462 9.41904E-05-2.67029E-05-2.89202E-05 3.32655E-06-2.37881E-19 6.81204E-21
 -1      3463 9.38699E-05-2.63848E-05-2.89306E-05 4.30909E-06-2.80108E-19-5.25810E-19
 -1      3464 9.37165E-05-2.61825E-05-2.89369E-05 4.69132E-06-3.39293E-19-6.36256E-19
 -1      3465 9.35653E-05-2.61611E-05-2.88833E-05 3.92594E-06-3.95480E-19-4.28985E-19
 -1      3466 9.33462E-05-2.59222E-05-2.89058E-05 5.10431E-06-3.67818E-19-2.36328E-19
 -1      3467 9.32013E-05-2.57547E-05-2.88981E-05 5.55666E-06-4.47433E-19 6.40341E-22
 -1      3468 9.28639E-05-2.55954E-05-2.88241E-05 4.65719E-06-1.45419E-19-5.55901E-19
 -1      3469 9.28098E-05-2.55393E-05-2.88409E-05 6.05866E-06-5.11813E-19-5.46207E-20
 -1      3470 9.27047E-05-2.54595E-05-2.88094E-05 6.58400E-06-4.59207E-19-2.77103E-19
 -1      3471 9.21032E-05-2.50739E-05-2.87210E-05 5.54789E-06-4.63762E-19-2.61607E-19
 -1      3472 9.23228E-05-2.53501E-05-2.87136E-05 7.19202E-06-3.18941E-19-4.94880E-20
 -1      3473 9.23165E-05-2.54380E-05-2.86481E-05 7.79076E-06-2.88893E-19-2.35409E-20
 -1      3474 9.13247E-05-2.46973E-05-2.85493E-05 6.63187E-06-1.03869E-19 1.55556E-19
 -1      3475 9.20054E-05-2.55270E-05-2.85007E-05 8.52900E-06-3.80586E-19-1.38927E-19
 -1      3476 9.22012E-05-2.59016E-05-2.83931E-05 9.19790E-06-1.35736E-19-2.09100E-19
 -1      3477 9.06139E-05-2.46170E-05-2.82820E-05 7.95889E-06-2.94560E-19 5.27702E-19
 -1      3478 9.20722E-05-2.63242E-05-2.81838E-05 1.00985E-05 5.19505E-19-2.68346E-19
 -1      3479 9.26405E-05-2.71554E-05-2.80338E-05 1.08232E-05 6.94293E-19 7.00235E-20
 -1      3480 9.01322E-05-2.50600E-05-2.78931E-05 9.60302E-06 2.51328E-19 3.43873E-19
 -1      3481 9.28873E-05-2.81021E-05-2.77611E-05 1.19192E-05 6.02191E-19 7.16099E-19
 -1      3482 9.40910E-05-2.96174E-05-2.75865E-05 1.26475E-05 6.00915E-19 9.31128E-19
 -1      3483 9.01642E-05-2.63585E-05-2.73666E-05 1.16627E-05 1.08239E-18 6.73167E-19
 -1      3484 9.50617E-05-3.13549E-05-2.72705E-05 1.39224E-05 5.72172E-19 8.84075E-19
 -1      3485 9.72439E-05-3.37962E-05-2.71300E-05 1.44820E-05 8.58908E-19 1.25991E-18
 -1      3486 9.12154E-05-2.90125E-05-2.67117E-05 1.42388E-05 6.96695E-19 1.03266E-18
 -1      3487 9.94818E-05-3.65583E-05-2.68529E-05 1.57416E-05 8.39208E-19 1.12105E-18
 -1      3488 1.03149E-04-4.01601E-05-2.69168E-05 1.56390E-05 6.00123E-19 9.11576E-19
 -1      3489 9.41781E-05-3.36374E-05-2.60123E-05 1.72643E-05 8.39674E-19 1.13816E-18
 -1      3490 9.39450E-05-2.65255E-05-2.88959E-05-1.67992E-06 1.06568E-19 1.13378E-18
 -1      3491 9.37104E-05-2.63328E-05-2.88831E-05-1.48095E-06-5.41617E-19 9.75779E-19
 -1      3492 1.05410E-04-4.19489E-05-2.71388E-05-1.51357E-05 9.14690E-19-1.00083E-18
 -1      3493 1.01597E-04-3.83615E-05-2.70013E-05-1.55240E-05 1.42523E-18-5.62860E-19
 -1      3494 9.88607E-05-3.51990E-05-2.72192E-05-1.44837E-05 1.59230E-18 2.34618E-19
 -1      3495 9.63909E-05-3.25088E-05-2.73211E-05-1.40274E-05 1.38220E-18 2.18987E-19
 -1      3496 9.59168E-05-3.52250E-05-2.61124E-05-1.73334E-05 1.54314E-18-1.17704E-19
 -1      3497 9.50920E-05-3.05622E-05-2.76159E-05-1.28406E-05 9.31920E-19 3.85228E-19
 -1      3498 9.36667E-05-2.88199E-05-2.77789E-05-1.21613E-05 6.62801E-19 5.29774E-19
 -1      3499 9.22776E-05-3.01520E-05-2.66997E-05-1.46770E-05 1.41209E-18-5.71704E-19
 -1      3500 9.32155E-05-2.76813E-05-2.80530E-05-1.10370E-05-3.78321E-20 5.39479E-19
 -1      3501 9.24892E-05-2.66850E-05-2.82035E-05-1.03148E-05-3.38604E-19 3.94536E-19
 -1      3502 9.06844E-05-2.69456E-05-2.73445E-05-1.20632E-05 3.28148E-19-4.35097E-19
 -1      3503 9.24864E-05-2.61219E-05-2.84202E-05-9.36773E-06 1.63660E-19 7.16644E-19
 -1      3504 9.21853E-05-2.56265E-05-2.85327E-05-8.67190E-06 4.58440E-19 8.91134E-19
 -1      3505 9.03379E-05-2.52966E-05-2.78836E-05-9.90591E-06 2.01750E-19 1.18717E-18
 -1      3506 9.24076E-05-2.54354E-05-2.86881E-05-7.87768E-06 8.71150E-19 1.20753E-18
 -1      3507 9.23420E-05-2.52595E-05-2.87591E-05-7.23449E-06 8.35075E-19 1.90571E-19
 -1      3508 9.06122E-05-2.46004E-05-2.82901E-05-8.14482E-06 1.67499E-19 1.77058E-18
 -1      3509 9.26578E-05-2.52925E-05-2.88612E-05-6.56510E-06 4.09136E-20-3.99573E-19
 -1      3510 9.27101E-05-2.53064E-05-2.88970E-05-5.98333E-06 2.32388E-20 5.62952E-19
 -1      3511 9.11783E-05-2.44968E-05-2.85730E-05-6.69433E-06-4.49077E-20 2.08524E-18
 -1      3512 9.30459E-05-2.54622E-05-2.89575E-05-5.41567E-06 5.49139E-19 7.61139E-19
 -1      3513 9.31475E-05-2.55786E-05-2.89672E-05-4.89855E-06 1.08922E-18 1.27499E-18
 -1      3514 9.18426E-05-2.47337E-05-2.87548E-05-5.48192E-06 5.01331E-19 9.59874E-19
 -1      3515 9.34640E-05-2.57903E-05-2.89976E-05-4.41683E-06 5.00250E-19 1.70184E-18
 -1      3516 9.35769E-05-2.59522E-05-2.89901E-05-3.96478E-06 9.77356E-20 7.17310E-19
 -1      3517 9.24998E-05-2.51446E-05-2.88604E-05-4.45870E-06 1.10109E-18 7.00500E-19
 -1      3518 9.38553E-05-2.61773E-05-2.90004E-05-3.55775E-06-1.13234E-19 1.11896E-18
 -1      3519 9.39609E-05-2.63492E-05-2.89831E-05-3.16898E-06-3.86201E-19 4.02207E-19
 -1      3520 9.30960E-05-2.56209E-05-2.89124E-05-3.59332E-06 2.46672E-19 1.08627E-19
 -1      3521 9.41932E-05-2.65616E-05-2.89811E-05-2.82633E-06-9.24326E-19 1.26172E-18
 -1      3522 9.42721E-05-2.67158E-05-2.89584E-05-2.49269E-06-9.11709E-19 1.48324E-19
 -1      3523 9.36036E-05-2.60919E-05-2.89293E-05-2.86449E-06-6.28417E-19 1.20361E-18
 -1      3524 9.44619E-05-2.69373E-05-2.89390E-05-2.01994E-06-1.72114E-19-2.01298E-19
 -1      3525 1.06172E-04-4.07159E-05-2.79357E-05 1.27526E-05-1.74898E-18 8.19422E-19
 -1      3526 1.09875E-04-4.39835E-05-2.82291E-05 1.15397E-05-1.28402E-18 9.15817E-19
 -1      3527 9.43931E-05-2.66829E-05-2.90115E-05-4.68377E-06-3.42693E-19 3.02288E-20
 -1      3528 9.44453E-05-2.68342E-05-2.89836E-05-4.31342E-06-9.45005E-20 2.90647E-20
 -1      3529 9.46883E-05-2.70503E-05-2.89815E-05-3.97836E-06 1.76315E-19 1.33396E-19
 -1      3530 9.47475E-05-2.72047E-05-2.89530E-05-3.66948E-06 2.20598E-19 3.99086E-19
 -1      3531 9.41161E-05-2.65984E-05-2.89337E-05-4.02848E-06 2.20853E-19 4.24134E-19
 -1      3532 9.38599E-05-2.61637E-05-2.90026E-05-6.51007E-06-8.77382E-19 8.56995E-19
 -1      3533 9.38384E-05-2.61955E-05-2.89984E-05-6.01474E-06-4.99000E-19 5.68224E-19
 -1      3534 9.37586E-05-2.62322E-05-2.89269E-05-7.62987E-06-6.92773E-19 7.76343E-19
 -1      3535 9.36310E-05-2.61056E-05-2.89473E-05-7.08651E-06-6.83987E-19 8.02276E-19
 -1      3536 9.25904E-05-2.54635E-05-2.87667E-05-6.70046E-06-7.34470E-19 4.61574E-19
 -1      3537 9.39554E-05-2.67593E-05-2.87805E-05-8.86531E-06-5.45943E-19 5.72294E-19
 -1      3538 9.36303E-05-2.63671E-05-2.88321E-05-8.29850E-06-7.73151E-19 5.44468E-19
 -1      3539 9.22152E-05-2.55041E-05-2.85922E-05-7.94550E-06-7.15674E-19-3.00310E-19
 -1      3540 9.47089E-05-2.80186E-05-2.85566E-05-1.01747E-05-4.77672E-20 7.76117E-19
 -1      3541 9.40400E-05-2.72123E-05-2.86393E-05-9.62748E-06-3.46158E-19 5.79913E-19
 -1      3542 9.21336E-05-2.60620E-05-2.83248E-05-9.40203E-06-6.04704E-19-1.21195E-19
 -1      3543 9.64257E-05-3.03765E-05-2.82744E-05-1.14630E-05-3.10461E-19 1.76084E-18
 -1      3544 9.51943E-05-2.89623E-05-2.83719E-05-1.10192E-05 6.88394E-20 1.30008E-18
 -1      3545 9.26311E-05-2.74471E-05-2.79574E-05-1.10933E-05-4.37301E-19 3.59439E-19
 -1      3546 9.96691E-05-3.42399E-05-2.80117E-05-1.24773E-05-8.30026E-20 1.58101E-18
 -1      3547 9.76160E-05-3.20268E-05-2.80728E-05-1.23120E-05 1.32283E-19 1.81423E-18
 -1      3548 9.41839E-05-3.00965E-05-2.75138E-05-1.29867E-05-3.36886E-19 8.38017E-19
 -1      3549 1.05077E-04-3.97897E-05-2.79671E-05-1.25682E-05-2.09962E-19 7.85345E-19
 -1      3550 1.02041E-04-3.67974E-05-2.78750E-05-1.30347E-05 6.03412E-20 1.26185E-18
 -1      3551 9.75703E-05-3.46091E-05-2.70904E-05-1.48691E-05 3.61372E-19 1.01807E-18
 -1      3552 1.12868E-04-4.64991E-05-2.85019E-05-1.06397E-05-9.94999E-20 1.37063E-19
 -1      3553 1.09086E-04-4.32202E-05-2.80851E-05-1.22087E-05-3.78041E-19 5.15496E-19
 -1      3554 1.03741E-04-4.11263E-05-2.69752E-05-1.58847E-05 2.24221E-19 2.44419E-19
 -1      3555 1.18633E-04-5.19849E-05-2.87062E-05 1.21176E-05-9.71044E-19 2.74661E-18
 -1      3556 1.09470E-04-4.76117E-05-2.64521E-05 1.80418E-05 8.55966E-20 2.64931E-18
 -1      3557 1.23596E-04-5.20571E-05-3.05115E-05 5.08130E-06-5.00120E-19 1.31236E-18
 -1      3558 1.00133E-04-3.48106E-05-2.79337E-05 1.28374E-05-3.87121E-19-8.96134E-20
 -1      3559 1.02838E-04-3.75522E-05-2.79456E-05 1.26112E-05-5.18199E-19-1.47561E-19
 -1      3560 1.01108E-04-3.83827E-05-2.69361E-05 1.57511E-05-5.80370E-19-3.76228E-19
 -1      3561 9.65333E-05-3.06688E-05-2.82027E-05 1.17762E-05-6.41160E-19-2.19523E-19
 -1      3562 9.82636E-05-3.25751E-05-2.81147E-05 1.20474E-05-2.75411E-19 1.13080E-19
 -1      3563 9.60270E-05-3.25778E-05-2.72384E-05 1.41418E-05-6.45521E-19 1.08989E-20
 -1      3564 9.46260E-05-2.80933E-05-2.85085E-05 1.03736E-05-1.20271E-18 4.54538E-19
 -1      3565 9.56267E-05-2.92741E-05-2.84085E-05 1.08673E-05-9.01743E-19 1.95525E-20
 -1      3566 9.34152E-05-2.88325E-05-2.77007E-05 1.21665E-05-1.06159E-18 1.13027E-18
 -1      3567 9.37720E-05-2.66753E-05-2.87591E-05 8.93496E-06-1.89071E-18 6.28674E-19
 -1      3568 9.42991E-05-2.73257E-05-2.86826E-05 9.51000E-06-1.57036E-18 5.34597E-19
 -1      3569 9.22857E-05-2.66600E-05-2.81326E-05 1.02825E-05-1.92131E-18 7.82037E-19
 -1      3570 9.35224E-05-2.60351E-05-2.89303E-05 7.57435E-06-2.96666E-19 6.79533E-19
 -1      3571 9.37661E-05-2.63317E-05-2.88862E-05 8.16122E-06-1.02189E-18 9.71098E-19
 -1      3572 9.20136E-05-2.55781E-05-2.84715E-05 8.61772E-06-9.22978E-19 1.04929E-19
 -1      3573 9.35907E-05-2.58804E-05-2.90271E-05 6.33194E-06-5.19003E-19-4.63048E-19
 -1      3574 9.36769E-05-2.59578E-05-2.90123E-05 6.89414E-06-6.92321E-19-3.75687E-19
 -1      3575 9.21949E-05-2.51969E-05-2.87088E-05 7.17398E-06-5.12275E-20-6.95228E-19
 -1      3576 9.38042E-05-2.60049E-05-2.90652E-05 5.22199E-06 9.78608E-20 2.03365E-19
 -1      3577 9.38103E-05-2.59569E-05-2.90723E-05 5.73940E-06-1.10453E-19 9.34728E-20
 -1      3578 9.25858E-05-2.52378E-05-2.88575E-05 5.92551E-06-8.62872E-19-1.43045E-18
 -1      3579 9.40642E-05-2.62703E-05-2.90623E-05 4.24784E-06-1.01963E-18-2.00990E-20
 -1      3580 9.40351E-05-2.61592E-05-2.90835E-05 4.71015E-06-2.30749E-19-3.45330E-19
 -1      3581 9.30448E-05-2.55097E-05-2.89376E-05 4.84816E-06 1.82358E-20 4.99942E-19
 -1      3582 9.43174E-05-2.65862E-05-2.90345E-05 3.40889E-06 1.37958E-19 9.28732E-19
 -1      3583 9.42792E-05-2.64541E-05-2.90628E-05 3.81145E-06-4.75575E-19-2.20963E-19
 -1      3584 9.34950E-05-2.58876E-05-2.89690E-05 3.92340E-06-5.35234E-19-6.32218E-19
 -1      3585 9.45386E-05-2.69012E-05-2.89939E-05 2.69472E-06 6.35592E-19-7.46717E-19
 -1      3586 9.45027E-05-2.67693E-05-2.90244E-05 3.03743E-06 5.91473E-19-3.30404E-19
 -1      3587 9.38963E-05-2.62888E-05-2.89694E-05 3.13608E-06 8.07686E-19-2.31822E-18
 -1      3588 9.47203E-05-2.71774E-05-2.89502E-05 2.09322E-06 1.06387E-18-1.58921E-18
 -1      3589 9.46898E-05-2.70628E-05-2.89792E-05 2.38420E-06-4.56274E-20-5.43998E-19
 -1      3590 9.42307E-05-2.66671E-05-2.89514E-05 2.47490E-06 7.95147E-19-1.55183E-18
 -1      3591 9.46690E-05-2.72302E-05-2.89071E-05 1.52830E-06 9.17793E-19-3.21709E-19
 -1      3592 9.48528E-05-2.74059E-05-2.89055E-05 1.54971E-06-1.22399E-20 1.52260E-19
 -1      3593 9.48487E-05-2.73688E-05-2.89190E-05 1.69397E-06 6.28192E-22-1.12156E-18
 -1      3594 9.44554E-05-2.69947E-05-2.89108E-05 1.65875E-06 2.56867E-20-6.61500E-19
 -1      3595 7.81604E-05-2.88438E-05-2.09926E-05-2.41911E-05 9.40498E-19-5.17484E-19
 -1      3596 9.09653E-05-3.79360E-05-2.27971E-05-2.59651E-05 1.18802E-18-1.07044E-19
 -1      3597 5.69207E-05-1.52260E-05-1.76281E-05-1.18372E-05-4.56706E-19-1.12992E-18
 -1      3598 6.51744E-05-2.06280E-05-1.90785E-05-1.92214E-05 3.62841E-19 7.14155E-20
 -1      3599 9.41013E-05-2.63583E-05-2.90244E-05-5.52617E-06-3.53977E-19 4.37637E-19
 -1      3600 9.41316E-05-2.64744E-05-2.90043E-05-5.09135E-06-2.33583E-19 2.62324E-19
 -1      3601 9.36140E-05-2.61360E-05-2.89159E-05-4.76204E-06-3.89667E-19 9.21438E-20
 -1      3602 9.30890E-05-2.57245E-05-2.88673E-05-5.64619E-06-5.17918E-19 6.47156E-19
 -1      3603 9.54347E-05-2.79108E-05-2.89354E-05-2.49379E-06 4.10599E-19-3.34496E-19
 -1      3604 9.54890E-05-2.79590E-05-2.89421E-05-2.28849E-06 4.54598E-19-4.20639E-19
 -1      3605 1.20534E-04-5.00527E-05-3.00982E-05-5.57226E-06-2.76808E-19-7.63213E-19
 -1      3606 9.52847E-05-2.44392E-05-3.03594E-05 2.69603E-06 8.28127E-19-1.00328E-18
 -1      3607 9.49817E-05-2.35849E-05-3.06059E-05 2.92404E-06 8.25057E-19-1.17638E-18
 -1      3608 9.54332E-05-2.51417E-05-3.01299E-05 1.86470E-06 7.07940E-19-9.44040E-19
 -1      3609 9.59416E-05-2.65698E-05-2.97230E-05-8.78499E-08-6.59463E-19-1.05879E-18
 -1      3610 9.59703E-05-2.70023E-05-2.95640E-05 3.99492E-07-6.13376E-19-9.95342E-19
 -1      3611 9.60670E-05-2.69440E-05-2.96236E-05 4.70629E-07-5.61408E-19-9.34697E-19
 -1      3612 9.20453E-05-1.76433E-05-3.18998E-05-9.38832E-07-1.48852E-19-1.94360E-18
 -1      3613 9.21576E-05-1.78188E-05-3.18693E-05-1.67313E-06-2.90191E-19-1.79854E-18
 -1      3614 9.28109E-05-1.88862E-05-3.16656E-05-1.69125E-06-3.11801E-19-1.66770E-18
 -1      3615 9.29343E-05-1.91108E-05-3.16203E-05-5.32294E-07-6.17989E-20-1.78010E-18
 -1      3616 9.44075E-05-2.21139E-05-3.09927E-05-3.50026E-06-9.43088E-19-1.35832E-18
 -1      3617 9.48576E-05-2.30740E-05-3.07410E-05-3.03979E-06-9.79703E-19-1.20679E-18
 -1      3618 9.51930E-05-2.42092E-05-3.04391E-05-2.13696E-06-8.37754E-19-1.13447E-18
 -1      3619 9.40823E-05-2.14391E-05-3.11427E-05-3.11200E-06-8.18662E-19-1.26333E-18
 -1      3620 9.56469E-05-2.52778E-05-3.01404E-05-1.24440E-06-8.33748E-19-1.04160E-18
 -1      3621 9.57765E-05-2.59842E-05-2.99211E-05-5.73634E-07-7.20617E-19-1.07047E-18
 -1      3622 9.58677E-05-2.59306E-05-2.99723E-05-3.92770E-07-7.47795E-19-7.39411E-19
 -1      3623 1.21495E-04-5.33343E-05-2.89994E-05-1.10865E-05-3.73727E-19-2.35040E-18
 -1      3624 5.41513E-05-1.40471E-05-1.69514E-05-8.74343E-06 7.78350E-19-1.42185E-18
 -1      3625 5.99023E-05-1.82152E-05-1.79375E-05-1.72965E-05 2.80328E-19-2.39636E-18
 -1      3626 5.45665E-05-1.34161E-05-1.75512E-05 3.29541E-06-9.46692E-20-8.71120E-19
 -1      3627 5.41021E-05-1.33009E-05-1.73287E-05-5.17502E-06 2.02461E-19-1.43599E-18
 -1      3628 6.09437E-05-1.54593E-05-1.92385E-05-7.98984E-06 2.87895E-19-8.87585E-19
 -1      3629 1.08642E-04-4.71008E-05-2.60999E-05-1.94215E-05 5.14453E-19 1.45631E-19
 -1      3630 1.15740E-04-4.93630E-05-2.85203E-05-1.14289E-05 1.90592E-19-4.15183E-19
 -1      3631 9.12953E-05-3.78926E-05-2.25114E-05-2.61461E-05-2.20718E-19-9.40895E-19
 -1      3632 1.00543E-04-4.36864E-05-2.44381E-05-2.32879E-05 2.88481E-19 1.12708E-19
 -1      3633 1.01559E-04-4.19064E-05-2.55448E-05-1.98426E-05 4.13266E-19-2.04120E-19
 -1      3634 8.62936E-05-3.31999E-05-2.26284E-05-2.35770E-05 2.74690E-19-1.60762E-18
 -1      3635 5.41149E-05-1.42651E-05-1.69182E-05 8.84039E-06 8.89567E-19-1.54425E-18
 -1      3636 5.19484E-05-1.28000E-05-1.65949E-05-1.02274E-06 1.00674E-18-1.16906E-18
 -1      3637 5.88023E-05-1.44556E-05-1.87363E-05-4.23756E-06 5.36470E-19-1.48220E-18
 -1      3638 9.40443E-05-2.65689E-05-2.89160E-05-2.05293E-06-7.30710E-19 1.03294E-18
 -1      3639 1.19022E-04-4.93704E-05-2.98177E-05 6.14849E-06-5.97152E-19 1.25131E-18
 -1      3640 1.12988E-04-5.09144E-05-2.67747E-05-1.87404E-05 5.09887E-19-1.67707E-18
 -1      3641 1.14553E-04-4.89231E-05-2.80637E-05-1.27887E-05 1.99463E-19-1.67066E-18
 -1      3642 1.09521E-04-4.51104E-05-2.73827E-05-1.48269E-05 8.63649E-19-1.62968E-18
 -1      3643 1.02022E-04-4.45215E-05-2.44360E-05-2.32876E-05 5.26911E-19-7.36614E-19
 -1      3644 9.47334E-05-2.29064E-05-3.07838E-05 2.70735E-06 8.03803E-19-1.35212E-18
 -1      3645 9.93534E-05-4.11029E-05-2.50302E-05 2.14676E-05 7.35721E-19 7.22440E-19
 -1      3646 1.04764E-04-4.42242E-05-2.58267E-05 1.97030E-05-5.36708E-20 2.15416E-18
 -1      3647 9.78511E-05-3.95330E-05-2.50026E-05 2.06936E-05 1.71948E-19 2.34759E-18
 -1      3648 1.14835E-04-4.69539E-05-2.89016E-05 9.40121E-06-8.64649E-19 1.38860E-18
 -1      3649 9.32142E-05-2.59056E-05-2.88475E-05-5.25870E-07-7.61325E-19-5.41666E-19
 -1      3650 9.31587E-05-2.58634E-05-2.88444E-05-1.97793E-07-2.75882E-19-1.64921E-18
 -1      3651 9.58465E-05-2.70552E-05-2.94887E-05-3.16397E-07 3.07009E-19-6.19639E-19
 -1      3652 9.58420E-05-2.66342E-05-2.96488E-05 2.16968E-07 4.67692E-19-8.23144E-19
 -1      3653 9.56023E-05-2.79720E-05-2.89889E-05-1.62679E-06 2.23741E-19-3.75304E-19
 -1      3654 6.88311E-05-2.13999E-05-2.00634E-05-1.80535E-05 1.52671E-19-2.49001E-18
 -1      3655 9.52724E-05-2.78006E-05-2.89192E-05-2.69273E-06 3.38917E-19-3.25856E-20
 -1      3656 9.53257E-05-2.77173E-05-2.89754E-05-2.49200E-06 2.52895E-19-3.15522E-19
 -1      3657 9.52152E-05-2.77008E-05-2.89302E-05-2.91264E-06 3.49360E-19 9.30860E-20
 -1      3658 9.56154E-05-2.78680E-05-2.90357E-05-2.08606E-06 1.73486E-19-8.05317E-19
 -1      3659 9.56209E-05-2.80002E-05-2.89783E-05-2.09276E-06 3.41383E-19-6.22703E-19
 -1      3660 9.56716E-05-2.79788E-05-2.90094E-05-1.87279E-06 2.54241E-19-5.43626E-19
 -1      3661 9.45733E-05-2.70456E-05-2.89389E-05-3.42430E-06 3.30788E-19 1.23055E-19
 -1      3662 9.49653E-05-2.74030E-05-2.89498E-05-3.39592E-06 3.71041E-19 3.64034E-19
 -1      3663 9.50247E-05-2.75386E-05-2.89272E-05-3.13925E-06 5.59379E-19 2.90406E-19
 -1      3664 1.02514E-04-4.21969E-05-2.59618E-05-1.91265E-05 1.11149E-18-4.95309E-19
 -1      3665 7.63154E-05-2.74472E-05-2.06610E-05 2.38714E-05-2.08357E-19 1.72824E-18
 -1      3666 7.33591E-05-2.38248E-05-2.11866E-05 1.97370E-05 4.36010E-19 1.53298E-18
 -1      3667 8.50040E-05-3.17134E-05-2.27943E-05 2.26924E-05 7.46815E-19 2.90794E-18
 -1      3668 9.43037E-05-2.68327E-05-2.89203E-05 1.88468E-06 1.32145E-20-1.31706E-18
 -1      3669 9.45280E-05-2.70223E-05-2.89288E-05 1.93694E-06 5.75804E-19-5.54308E-19
 -1      3670 9.48525E-05-2.73332E-05-2.89356E-05 1.85134E-06 1.48967E-18-6.45528E-19
 -1      3671 9.37484E-05-2.63667E-05-2.88848E-05 1.49444E-06 1.74881E-19-2.82360E-18
 -1      3672 9.39949E-05-2.65561E-05-2.88974E-05 1.70491E-06-2.26007E-19-2.34849E-18
 -1      3673 9.40238E-05-2.65644E-05-2.89129E-05 2.00640E-06 5.68659E-19-1.45491E-18
 -1      3674 7.41126E-05-2.49080E-05-2.09163E-05-2.14016E-05 8.57369E-19-4.11486E-19
 -1      3675 8.23290E-05-2.84872E-05-2.29974E-05-2.04308E-05 6.74008E-19-4.86098E-19
 -1      3676 7.04434E-05-2.09131E-05-2.12114E-05-1.66716E-05 6.92853E-19-7.51662E-19
 -1      3677 9.71510E-05-3.95176E-05-2.45750E-05-2.16143E-05 9.93702E-19-5.57348E-19
 -1      3678 9.40190E-05-2.12670E-05-3.11955E-05 1.65195E-06 4.00236E-19-1.69861E-18
 -1      3679 9.38695E-05-2.09580E-05-3.12567E-05 1.16883E-06 2.61815E-19-1.87529E-18
 -1      3680 9.31593E-05-2.58631E-05-2.88444E-05 1.94674E-07-4.59703E-19-1.31746E-18
 -1      3681 9.32143E-05-2.59075E-05-2.88473E-05 5.23870E-07-4.99619E-20-6.25795E-19
 -1      3682 9.28749E-05-2.56080E-05-2.88230E-05-1.05355E-09-5.24071E-19-1.33801E-18
 -1      3683 9.58527E-05-2.76403E-05-2.92369E-05-1.08778E-06 2.60030E-19-6.53588E-19
 -1      3684 9.58832E-05-2.73977E-05-2.93425E-05-7.11669E-07 2.68505E-19-5.66089E-19
 -1      3685 9.59816E-05-2.69928E-05-2.95706E-05-4.03779E-07 2.81283E-19-1.02769E-18
 -1      3686 7.84339E-05-2.95808E-05-2.06890E-05 2.53332E-05 1.09021E-18-1.25403E-18
 -1      3687 7.42725E-05-2.53429E-05-2.09252E-05 2.16054E-05 9.71348E-19-1.62367E-18
 -1      3688 8.58063E-05-3.25520E-05-2.28127E-05 2.30846E-05 8.89892E-19-1.86665E-19
 -1      3689 9.52635E-05-2.41850E-05-3.04708E-05-1.76197E-06-8.44931E-19-1.07361E-18
 -1      3690 9.37796E-05-2.07759E-05-3.12993E-05 7.58617E-07 1.66381E-19-1.87198E-18
 -1      3691 9.37290E-05-2.06711E-05-3.13195E-05 2.28766E-07-2.07028E-20-1.71434E-18
 -1      3692 9.44982E-05-2.20652E-05-3.10221E-05 7.59782E-07 1.59182E-19-1.70663E-18
 -1      3693 6.47636E-05-1.77251E-05-2.02040E-05 1.27971E-05 2.98156E-19 7.86867E-19
 -1      3694 5.89054E-05-1.47191E-05-1.86368E-05 8.60135E-06-2.17704E-19 3.37172E-19
 -1      3695 6.14720E-05-1.46402E-05-1.99410E-05 3.73736E-06 1.67461E-19-9.57333E-19
 -1      3696 9.39297E-05-2.11070E-05-3.12240E-05-2.65965E-06-7.84587E-19-1.32987E-18
 -1      3697 9.46951E-05-2.25824E-05-3.08811E-05-2.34754E-06-7.68766E-19-1.20371E-18
 -1      3698 9.36835E-05-2.06446E-05-3.13158E-05-2.14905E-06-5.70590E-19-1.35773E-18
 -1      3699 5.91938E-05-1.61645E-05-1.81577E-05 1.28909E-05 1.12778E-18-1.28627E-18
 -1      3700 6.13235E-05-1.53338E-05-1.95993E-05 7.73025E-06 1.05807E-18-1.35679E-18
 -1      3701 6.56714E-05-1.92361E-05-1.98444E-05 1.57731E-05 1.31089E-18-1.55902E-18
 -1      3702 9.33671E-05-2.60155E-05-2.88635E-05-1.47676E-06-1.12831E-18 1.61787E-18
 -1      3703 9.34875E-05-2.61300E-05-2.88653E-05-1.17804E-06-1.02630E-18 1.15947E-18
 -1      3704 9.33310E-05-2.60106E-05-2.88569E-05-8.91654E-07-1.17379E-18 2.60894E-19
 -1      3705 1.09400E-04-4.51958E-05-2.75709E-05 1.41674E-05-3.75282E-19 1.66740E-18
 -1      3706 9.79429E-05-3.72169E-05-2.59718E-05 1.77409E-05-1.27770E-19 1.22431E-18
 -1      3707 9.07289E-05-3.43715E-05-2.40489E-05 2.16905E-05 9.11321E-19 2.12699E-18
 -1      3708 8.57948E-05-3.00808E-05-2.39392E-05 1.98289E-05 1.04888E-18 2.57666E-18
 -1      3709 9.45765E-05-3.37488E-05-2.60708E-05 1.68704E-05-4.93616E-20 4.16914E-19
 -1      3710 9.59849E-05-2.76310E-05-2.92938E-05 1.30156E-06-2.41606E-19-5.30835E-19
 -1      3711 9.58638E-05-2.76894E-05-2.92184E-05 1.52492E-06-1.72575E-19-4.45376E-19
 -1      3712 9.56732E-05-2.76717E-05-2.91445E-05 1.69237E-06 2.21577E-20-3.87614E-19
 -1      3713 9.55017E-05-2.76125E-05-2.90948E-05 1.89011E-06 3.62812E-19-5.40271E-19
 -1      3714 9.57794E-05-2.75562E-05-2.92368E-05 1.40236E-06-7.38506E-20-3.88482E-19
 -1      3715 9.52401E-05-2.74829E-05-2.90416E-05 2.05162E-06 3.90380E-19-4.90282E-19
 -1      3716 9.50253E-05-2.73323E-05-2.90097E-05 2.25041E-06 2.10270E-19-4.78706E-19
 -1      3717 9.53313E-05-2.74156E-05-2.91046E-05 1.73210E-06 3.91088E-19-3.58010E-19
 -1      3718 9.46988E-05-2.71149E-05-2.89692E-05 2.42684E-06 2.45261E-19-2.84766E-19
 -1      3719 9.44431E-05-2.68943E-05-2.89472E-05 2.64838E-06 2.11033E-19-3.94729E-20
 -1      3720 9.47487E-05-2.70621E-05-2.90054E-05 2.06511E-06 2.92170E-19-3.19563E-19
 -1      3721 9.40528E-05-2.66092E-05-2.89109E-05 2.85701E-06-2.87329E-19-2.15370E-19
 -1      3722 9.37561E-05-2.63379E-05-2.88909E-05 3.11836E-06-5.33141E-19-2.43571E-19
 -1      3723 9.40385E-05-2.65423E-05-2.89225E-05 2.43818E-06-4.18989E-20-2.32044E-20
 -1      3724 9.32990E-05-2.60037E-05-2.88493E-05 3.37418E-06-6.46281E-19-3.38129E-19
 -1      3725 9.29618E-05-2.57025E-05-2.88223E-05 3.68968E-06-5.70230E-19-4.60012E-19
 -1      3726 9.31988E-05-2.58967E-05-2.88376E-05 2.88162E-06-6.46101E-19-5.29070E-19
 -1      3727 9.24345E-05-2.53412E-05-2.87648E-05 4.00777E-06-2.31431E-19-4.47697E-19
 -1      3728 9.20611E-05-2.50375E-05-2.87205E-05 4.39055E-06-4.72498E-20-4.82704E-19
 -1      3729 9.22225E-05-2.51663E-05-2.87304E-05 3.42444E-06-2.75521E-19-3.80175E-19
 -1      3730 9.14619E-05-2.46784E-05-2.86344E-05 4.78820E-06-1.45553E-19-2.63275E-19
 -1      3731 9.10658E-05-2.44109E-05-2.85608E-05 5.25290E-06-1.12424E-19 3.06026E-20
 -1      3732 9.11040E-05-2.44014E-05-2.85768E-05 4.09809E-06 4.78638E-21-3.77118E-19
 -1      3733 9.03976E-05-2.40952E-05-2.84310E-05 5.75437E-06-1.01731E-19 2.61463E-19
 -1      3734 9.00086E-05-2.39206E-05-2.83146E-05 6.32186E-06-1.52251E-19 1.89199E-19
 -1      3735 8.98433E-05-2.36691E-05-2.83483E-05 4.94351E-06 5.13993E-20 3.66296E-20
 -1      3736 8.92838E-05-2.37079E-05-2.81231E-05 6.96712E-06-1.19217E-19 3.77083E-20
 -1      3737 8.89613E-05-2.37117E-05-2.79490E-05 7.67092E-06-1.27213E-19 5.41117E-20
 -1      3738 8.84525E-05-2.30617E-05-2.80107E-05 6.02553E-06-3.05828E-19-1.19024E-19
 -1      3739 8.82122E-05-2.36912E-05-2.76750E-05 8.52529E-06-3.97088E-21 2.68746E-19
 -1      3740 8.80652E-05-2.40014E-05-2.74300E-05 9.41604E-06 4.22125E-19 3.70331E-19
 -1      3741 8.69698E-05-2.27150E-05-2.75228E-05 7.45459E-06 1.68094E-19-2.54875E-19
 -1      3742 8.73603E-05-2.43034E-05-2.70516E-05 1.05817E-05 9.77254E-19 4.78581E-19
 -1      3743 8.75782E-05-2.51135E-05-2.67299E-05 1.17316E-05 1.14538E-18 4.23212E-19
 -1      3744 8.54823E-05-2.28311E-05-2.68378E-05 9.40966E-06 7.91125E-19 6.77912E-20
 -1      3745 8.70482E-05-2.59036E-05-2.62257E-05 1.33432E-05 1.03782E-18 1.42362E-20
 -1      3746 8.79382E-05-2.75227E-05-2.58330E-05 1.48584E-05 8.08044E-19 1.50149E-19
 -1      3747 8.41809E-05-2.37368E-05-2.59063E-05 1.21534E-05 1.02602E-18-6.90686E-19
 -1      3748 9.37247E-05-2.62710E-05-2.89058E-05-2.13694E-06-1.53538E-18 8.08153E-19
 -1      3749 9.61458E-05-2.72942E-05-2.95055E-05 8.23335E-07-3.18015E-19-6.99320E-19
 -1      3750 9.60902E-05-2.75053E-05-2.93963E-05 1.10401E-06-3.22917E-19-5.96612E-19
 -1      3751 9.60730E-05-2.74264E-05-2.94182E-05 1.03285E-06-2.30036E-19-4.58497E-19
 -1      3752 9.30084E-05-2.57155E-05-2.88337E-05-7.86010E-07-1.44940E-18-5.74489E-19
 -1      3753 9.57912E-05-2.59697E-05-2.99271E-05 5.76052E-07 3.70312E-19-1.27016E-18
 -1      3754 9.56819E-05-2.60429E-05-2.98533E-05 7.77273E-07 5.31440E-19-9.97156E-19
 -1      3755 9.57660E-05-2.79284E-05-2.90733E-05-1.64850E-06 1.81461E-19-7.22382E-19
 -1      3756 9.58116E-05-2.78144E-05-2.91367E-05-1.37495E-06 1.87215E-19-5.86087E-19
 -1      3757 9.58363E-05-2.78386E-05-2.91438E-05-1.65098E-06 2.44437E-19-1.03238E-18
 -1      3758 8.88917E-05-2.86469E-05-2.57718E-05-1.55715E-05 1.15093E-18-1.39621E-18
 -1      3759 8.76465E-05-2.66367E-05-2.61388E-05-1.40331E-05 9.84706E-19-1.53967E-18
 -1      3760 8.79869E-05-2.56852E-05-2.66581E-05-1.23131E-05 1.35431E-18-1.61640E-18
 -1      3761 8.75778E-05-2.46663E-05-2.69856E-05-1.11053E-05 1.12113E-18-3.97225E-19
 -1      3762 8.44578E-05-2.43453E-05-2.57707E-05-1.29825E-05 1.37066E-18-1.62557E-18
 -1      3763 8.81615E-05-2.42024E-05-2.73816E-05-9.83619E-06 3.09673E-19 2.37984E-19
 -1      3764 8.81789E-05-2.37467E-05-2.76364E-05-8.88284E-06 1.67267E-19 7.09401E-19
 -1      3765 8.54223E-05-2.30096E-05-2.67403E-05-9.99452E-06 1.14324E-18-4.20590E-19
 -1      3766 8.88545E-05-2.36556E-05-2.79255E-05-7.94281E-06-2.94088E-19 4.46090E-19
 -1      3767 8.90913E-05-2.35481E-05-2.81090E-05-7.17684E-06-9.87044E-19 2.44813E-19
 -1      3768 8.67319E-05-2.26221E-05-2.74615E-05-7.83572E-06-7.73240E-20-6.98115E-19
 -1      3769 8.97596E-05-2.36763E-05-2.83118E-05-6.45877E-06-2.43890E-19 6.12440E-19
 -1      3770 9.00852E-05-2.37729E-05-2.84354E-05-5.82877E-06 3.48570E-19 1.05432E-18
 -1      3771 8.80923E-05-2.27781E-05-2.79775E-05-6.24659E-06 4.46092E-20-9.92809E-19
 -1      3772 9.07032E-05-2.40225E-05-2.85718E-05-5.26036E-06-1.43944E-19 1.01297E-18
 -1      3773 9.10458E-05-2.42292E-05-2.86488E-05-4.73246E-06 5.28344E-19 7.91759E-19
 -1      3774 8.93805E-05-2.32368E-05-2.83342E-05-5.02606E-06-5.48710E-21 3.58614E-19
 -1      3775 9.15932E-05-2.45339E-05-2.87361E-05-4.27140E-06 7.69692E-19 2.14003E-19
 -1      3776 9.19145E-05-2.47884E-05-2.87793E-05-3.82488E-06 1.22899E-18-1.90840E-19
 -1      3777 9.05421E-05-2.38500E-05-2.85709E-05-4.05489E-06 2.52984E-19 9.13323E-19
 -1      3778 9.23846E-05-2.51045E-05-2.88317E-05-3.44560E-06 3.79806E-19-3.81008E-19
 -1      3779 9.26665E-05-2.53668E-05-2.88518E-05-3.06796E-06-3.20216E-19 9.72228E-20
 -1      3780 9.15532E-05-2.45167E-05-2.87205E-05-3.26281E-06 4.80336E-19 5.13393E-20
 -1      3781 9.30603E-05-2.56678E-05-2.88806E-05-2.75525E-06 2.69832E-19 2.30802E-19
 -1      3782 9.32994E-05-2.59151E-05-2.88865E-05-2.43884E-06-1.10987E-19 7.18522E-19
 -1      3783 9.24100E-05-2.51710E-05-2.88093E-05-2.61153E-06-4.81341E-19 1.28516E-20
 -1      3784 9.14857E-05-2.91013E-05-2.67599E-05 1.40113E-05-1.62794E-18 8.91623E-19
 -1      3785 9.32730E-05-3.12899E-05-2.65033E-05 1.51042E-05-6.28357E-19 5.75970E-19
 -1      3786 8.97286E-05-3.00444E-05-2.55785E-05 1.67958E-05-4.84314E-19 1.70989E-18
 -1      3787 9.37317E-05-3.64782E-05-2.43723E-05 2.14994E-05 1.02943E-18 2.74690E-19
 -1      3788 9.06827E-05-2.46587E-05-2.82803E-05-7.85701E-06-6.37669E-19-6.46626E-19
 -1      3789 9.08182E-05-2.45816E-05-2.84019E-05-7.20034E-06-5.25161E-19-4.87807E-19
 -1      3790 9.13556E-05-2.47195E-05-2.85482E-05-6.55633E-06-4.87916E-19-2.98122E-20
 -1      3791 9.15893E-05-2.48289E-05-2.86246E-05-6.00288E-06-3.38813E-19 3.39729E-19
 -1      3792 8.98718E-05-2.39074E-05-2.82619E-05-6.45430E-06-1.61939E-19-6.31931E-19
 -1      3793 9.04107E-05-2.64287E-05-2.73727E-05-1.13966E-05-6.99684E-19-1.12841E-19
 -1      3794 8.99230E-05-2.55647E-05-2.76012E-05-1.05113E-05-6.61736E-19-4.78603E-19
 -1      3795 9.16050E-05-2.90734E-05-2.67313E-05-1.38271E-05-3.56343E-19-2.71643E-19
 -1      3796 9.03610E-05-2.74394E-05-2.69926E-05-1.28596E-05-6.12518E-19-5.52136E-19
 -1      3797 8.74578E-05-2.52616E-05-2.66075E-05-1.22394E-05-3.79472E-19-1.14640E-18
 -1      3798 9.45930E-05-3.36901E-05-2.60509E-05-1.67694E-05 1.31912E-19-1.07451E-19
 -1      3799 9.21625E-05-3.08107E-05-2.62804E-05-1.57184E-05 2.65846E-19-2.43065E-19
 -1      3800 8.79309E-05-2.78281E-05-2.56927E-05-1.55385E-05-3.33958E-19-1.55971E-18
 -1      3801 9.75882E-05-3.76301E-05-2.55695E-05-1.89739E-05 4.16145E-19 4.87755E-20
 -1      3802 6.08937E-05-1.43187E-05-1.98638E-05 4.87519E-09 4.53556E-19-1.02875E-18
 -1      3803 6.22615E-05-1.54455E-05-2.01235E-05-7.31560E-06 7.93680E-20-1.27166E-18
 -1      3804 6.76542E-05-1.84298E-05-2.09283E-05-1.34471E-05-6.18566E-20-2.83378E-18
 -1      3805 7.51585E-05-2.41945E-05-2.19430E-05-1.92202E-05 2.35773E-19-2.47519E-18
 -1      3806 9.02855E-05-2.63935E-05-2.74117E-05 1.14852E-05-1.06783E-18 1.24976E-18
 -1      3807 9.11451E-05-2.76873E-05-2.71552E-05 1.25185E-05-1.17587E-18 8.89655E-19
 -1      3808 8.82830E-05-2.65227E-05-2.64797E-05 1.32794E-05-1.43735E-18 8.26210E-19
 -1      3809 9.01417E-05-2.50155E-05-2.79378E-05 9.41682E-06-1.10142E-18-1.06696E-19
 -1      3810 9.04360E-05-2.56826E-05-2.77278E-05 1.03107E-05-1.00299E-18 3.87255E-19
 -1      3811 8.82021E-05-2.46478E-05-2.72318E-05 1.05460E-05-4.95699E-19-3.76859E-20
 -1      3812 9.05311E-05-2.44861E-05-2.83266E-05 7.73518E-06 1.75072E-19-1.71376E-18
 -1      3813 9.05166E-05-2.47484E-05-2.81729E-05 8.49459E-06-6.70544E-19-1.05144E-18
 -1      3814 8.87680E-05-2.38553E-05-2.78077E-05 8.46380E-06-1.61422E-19-2.64321E-18
 -1      3815 9.11561E-05-2.44774E-05-2.85937E-05 6.34841E-06 1.05259E-20-1.88570E-18
 -1      3816 9.09898E-05-2.44925E-05-2.84914E-05 6.99621E-06 4.35269E-19-1.50109E-18
 -1      3817 8.96111E-05-2.37230E-05-2.82240E-05 6.84891E-06 2.96139E-19-2.21786E-18
 -1      3818 9.18489E-05-2.47657E-05-2.87636E-05 5.18799E-06-4.15266E-19-1.85955E-18
 -1      3819 9.16229E-05-2.46410E-05-2.87025E-05 5.74366E-06-6.44877E-19-2.21773E-18
 -1      3820 9.05313E-05-2.39783E-05-2.85095E-05 5.56052E-06-4.92092E-19-2.09127E-18
 -1      3821 9.25174E-05-2.52003E-05-2.88611E-05 4.20976E-06 3.53208E-19-1.11965E-18
 -1      3822 9.22837E-05-2.50080E-05-2.88303E-05 4.68633E-06-3.58760E-19-1.43029E-18
 -1      3823 9.14209E-05-2.44406E-05-2.86941E-05 4.50811E-06-8.12113E-19-2.21104E-18
 -1      3824 9.31156E-05-2.56890E-05-2.89082E-05 3.38823E-06 5.21275E-19-2.84178E-18
 -1      3825 9.29024E-05-2.54718E-05-2.88979E-05 3.78924E-06 3.76919E-19-1.48053E-18
 -1      3826 9.22263E-05-2.49892E-05-2.88049E-05 3.63354E-06 6.54652E-19-2.67480E-18
 -1      3827 9.36206E-05-2.61530E-05-2.89222E-05 2.67830E-06 1.02213E-18-2.36161E-18
 -1      3828 9.34403E-05-2.59430E-05-2.89256E-05 3.03179E-06 1.24159E-18-2.19560E-18
 -1      3829 9.29102E-05-2.55362E-05-2.88641E-05 2.90619E-06 4.99029E-19-2.81853E-18
 -1      3830 9.38646E-05-2.63851E-05-2.89203E-05 2.28748E-06 7.23627E-19-2.46320E-18
 -1      3831 9.55874E-05-2.54982E-05-3.00282E-05 1.41543E-06 6.35692E-19-1.05678E-18
 -1      3832 9.42012E-05-2.16291E-05-3.11080E-05 2.00831E-06 5.32907E-19-1.54080E-18
 -1      3833 9.47458E-05-2.26170E-05-3.08904E-05 1.43019E-06 4.16118E-19-1.41521E-18
 -1      3834 9.44329E-05-2.21354E-05-3.10013E-05 2.41860E-06 7.41452E-19-1.47082E-18
 -1      3835 9.34015E-05-3.59059E-05-2.45073E-05-2.10230E-05 9.55083E-19-1.40991E-19
 -1      3836 9.61047E-05-2.65709E-05-2.97962E-05 1.96567E-07-5.81878E-19-6.36744E-19
 -1      3837 9.61409E-05-2.69828E-05-2.96446E-05 5.69303E-07-3.85547E-19-6.59395E-19
 -1      3838 9.61740E-05-2.69499E-05-2.96646E-05 5.75170E-07-3.53090E-19-4.22500E-19
 -1      3839 9.54778E-05-2.49150E-05-3.02493E-05 1.62865E-06 5.74891E-19-1.37252E-18
 -1      3840 8.92054E-05-3.28389E-05-2.41617E-05 2.05227E-05 9.49577E-19 8.81444E-20
 -1      3841 9.36467E-05-2.05369E-05-3.13417E-05-1.72082E-06-4.02599E-19-1.46830E-18
 -1      3842 9.45080E-05-2.21240E-05-3.09977E-05-1.56567E-06-5.43167E-19-1.18304E-18
 -1      3843 9.36527E-05-2.05662E-05-3.13372E-05-1.16719E-06-2.95033E-19-1.59031E-18
 -1      3844 9.51744E-05-2.38718E-05-3.05656E-05-1.45509E-06-7.15571E-19-1.11106E-18
 -1      3845 9.57847E-05-2.53612E-05-3.01844E-05-6.46264E-07-6.61965E-19-8.19923E-19
 -1      3846 9.59502E-05-2.60175E-05-2.99791E-05-1.46896E-07-6.54621E-19-6.71265E-19
 -1      3847 9.60177E-05-2.60258E-05-2.99912E-05-1.87119E-08-5.71772E-19-4.73910E-19
 -1      3848 9.06883E-05-3.24616E-05-2.48998E-05-1.90642E-05 1.22902E-18-7.29682E-19
 -1      3849 9.35647E-05-2.61576E-05-2.88844E-05-3.88683E-06 1.17321E-19 8.96358E-20
 -1      3850 9.38098E-05-2.64091E-05-2.88937E-05-3.56468E-06 2.95694E-19 2.61240E-20
 -1      3851 6.22762E-05-1.47948E-05-2.03163E-05-4.31954E-06 2.26957E-19-5.03058E-19
 -1      3852 6.46780E-05-1.65982E-05-2.05554E-05-1.04248E-05 2.23737E-19-7.68179E-19
 -1      3853 9.02714E-05-2.51256E-05-2.78928E-05-9.44454E-06-4.98067E-19-4.86782E-19
 -1      3854 9.01958E-05-2.47419E-05-2.80679E-05-8.67559E-06-5.79654E-19-5.09779E-19
 -1      3855 8.79542E-05-2.41146E-05-2.73363E-05-9.76133E-06-6.33524E-19-1.20745E-18
 -1      3856 9.51150E-05-2.36966E-05-3.05921E-05 1.97093E-06 6.70463E-19-1.27972E-18
 -1      3857 9.33311E-05-2.60102E-05-2.88568E-05 8.93657E-07 6.24143E-19-6.94915E-19
 -1      3858 9.34931E-05-2.61357E-05-2.88652E-05 1.18275E-06 1.31096E-19-1.83101E-18
 -1      3859 9.30076E-05-2.57148E-05-2.88339E-05 7.85296E-07 7.40059E-19-8.97227E-19
 -1      3860 9.49365E-05-2.31665E-05-3.07708E-05-1.37742E-06-6.68759E-19-9.87203E-19
 -1      3861 9.55244E-05-2.45857E-05-3.03906E-05-8.96658E-07-6.81046E-19-8.60917E-19
 -1      3862 9.55918E-05-2.47125E-05-3.03814E-05-6.21324E-07-4.82969E-19-7.68578E-19
 -1      3863 9.49040E-05-2.30682E-05-3.08020E-05-1.01941E-06-4.72156E-19-9.61041E-19
 -1      3864 9.32248E-05-2.58614E-05-2.88646E-05-2.02775E-06-6.99723E-19 1.65712E-18
 -1      3865 8.49230E-05-2.84647E-05-2.42202E-05-1.85744E-05 9.81771E-19-1.13341E-18
 -1      3866 7.82683E-05-2.50227E-05-2.28058E-05 1.81702E-05 9.15153E-19-1.70196E-18
 -1      3867 7.18139E-05-2.20072E-05-2.11728E-05 1.80107E-05 1.08103E-18-2.01519E-18
 -1      3868 7.02746E-05-1.94167E-05-2.18056E-05 1.34700E-05 9.37434E-19-1.67824E-18
 -1      3869 8.79543E-05-2.91874E-05-2.51829E-05 1.70026E-05 7.87161E-19 4.71591E-19
 -1      3870 8.99661E-05-3.20236E-05-2.47683E-05 1.89345E-05 1.01318E-18 1.95359E-19
 -1      3871 9.52872E-05-2.41852E-05-3.04771E-05 1.48333E-06 5.15923E-19-1.34323E-18
 -1      3872 9.58572E-05-2.58465E-05-3.00113E-05 3.76394E-07 1.93541E-19-1.17407E-18
 -1      3873 9.56955E-05-2.51457E-05-3.02226E-05 9.54619E-07 2.79416E-19-1.25133E-18
 -1      3874 9.52910E-05-2.40489E-05-3.05406E-05 1.19370E-06 4.43397E-19-1.12270E-18
 -1      3875 9.59725E-05-2.75762E-05-2.93163E-05-1.11932E-06 2.21951E-19-8.72826E-19
 -1      3876 9.49774E-05-2.74311E-05-2.89478E-05-2.92342E-06 2.13730E-19 1.23924E-19
 -1      3877 9.55872E-05-2.77510E-05-2.90715E-05-2.00449E-06-7.74688E-20-1.01380E-18
 -1      3878 9.57193E-05-2.77832E-05-2.91156E-05-1.79526E-06 2.03043E-19-9.96480E-19
 -1      3879 8.88273E-05-2.37546E-05-2.78788E-05-7.89215E-06-6.19595E-19-9.91382E-19
 -1      3880 9.41906E-05-2.66987E-05-2.89214E-05-3.29387E-06 3.24679E-19-1.96306E-19
 -1      3881 9.44100E-05-2.69253E-05-2.89279E-05-3.02624E-06 2.22310E-19-1.22209E-19
 -1      3882 9.36700E-05-2.62748E-05-2.88790E-05-3.14721E-06 1.65292E-19-6.41731E-19
 -1      3883 9.09385E-05-2.43673E-05-2.85220E-05-5.33957E-06-5.88083E-19-1.09124E-19
 -1      3884 9.21141E-05-2.50828E-05-2.87207E-05-5.48904E-06-7.38095E-19 1.45810E-19
 -1      3885 9.23805E-05-2.52915E-05-2.87637E-05-5.02405E-06-8.45242E-19-1.50402E-19
 -1      3886 9.10616E-05-3.38252E-05-2.46302E-05-2.02113E-05 1.89323E-19-7.38983E-19
 -1      3887 6.89184E-05-1.78084E-05-2.18188E-05-9.38097E-06-6.93244E-20-2.14342E-18
 -1      3888 6.31365E-05-1.49401E-05-2.05213E-05 3.56929E-06 5.69772E-19-1.27502E-18
 -1      3889 6.60519E-05-1.54960E-05-2.17189E-05 7.09570E-07 3.60800E-20-9.47142E-19
 -1      3890 6.63699E-05-1.63794E-05-2.14275E-05 7.60753E-06 7.57266E-19-1.04181E-18
 -1      3891 9.27093E-05-2.54824E-05-2.88115E-05-1.06722E-06-9.06628E-19 5.86950E-19
 -1      3892 9.25697E-05-2.53815E-05-2.88010E-05-6.85264E-07-3.89234E-19-8.22128E-19
 -1      3893 9.34690E-05-2.60705E-05-2.88862E-05 2.19133E-06 9.46213E-19-1.73821E-18
 -1      3894 9.34299E-05-2.60595E-05-2.88675E-05 1.50050E-06 1.18116E-18-2.07858E-18
 -1      3895 7.15133E-05-1.98035E-05-2.20642E-05-1.31717E-05 7.60735E-19-1.16546E-18
 -1      3896 9.24971E-05-2.53190E-05-2.87927E-05-2.04717E-07-8.18289E-19-1.13987E-18
 -1      3897 9.24947E-05-2.53230E-05-2.87929E-05 2.03648E-07-9.43282E-19-7.26776E-19
 -1      3898 9.21892E-05-2.50513E-05-2.87679E-05-4.87429E-07-6.01818E-19-9.36453E-19
 -1      3899 9.28659E-05-2.55961E-05-2.88246E-05-4.60980E-06-3.81327E-19 1.35254E-19
 -1      3900 9.31300E-05-2.58456E-05-2.88456E-05-4.22146E-06 2.18481E-20 1.82909E-19
 -1      3901 9.19460E-05-2.49786E-05-2.86928E-05-4.44933E-06-5.56027E-19-3.58647E-19
 -1      3902 9.29241E-05-2.56420E-05-2.88387E-05-1.70885E-06-1.00577E-18 1.73387E-18
 -1      3903 9.49929E-05-2.32031E-05-3.07791E-05 7.34095E-07 2.60510E-19-1.53752E-18
 -1      3904 9.49121E-05-2.30132E-05-3.08208E-05 4.05594E-07 1.03412E-19-1.56858E-18
 -1      3905 7.06166E-05-2.04081E-05-2.12915E-05 1.62262E-05 9.73625E-20 1.50282E-18
 -1      3906 6.96464E-05-1.85935E-05-2.18487E-05 1.18558E-05 2.84021E-20 9.91862E-19
 -1      3907 7.73886E-05-2.42547E-05-2.27682E-05 1.75945E-05 7.55195E-19 2.67854E-18
 -1      3908 9.36917E-05-2.06159E-05-3.13320E-05-2.02099E-07-1.38808E-19-1.72303E-18
 -1      3909 9.35982E-05-2.04287E-05-3.13666E-05-7.17703E-07-1.78530E-19-1.73724E-18
 -1      3910 9.44107E-05-2.18912E-05-3.10600E-05-7.86167E-07-2.33389E-19-1.37325E-18
 -1      3911 9.43742E-05-2.18159E-05-3.10783E-05 1.24848E-09-1.24038E-19-1.59720E-18
 -1      3912 9.28608E-05-2.56383E-05-2.88035E-05-3.73072E-06-3.32208E-20 1.95852E-19
 -1      3913 8.36906E-05-2.86998E-05-2.33843E-05-2.00151E-05 2.62193E-19-1.57951E-18
 -1      3914 6.36084E-05-1.46480E-05-2.08318E-05 4.90298E-08 7.12260E-19-6.97452E-19
 -1      3915 6.72564E-05-1.56976E-05-2.20240E-05-2.36783E-06 9.58206E-20-5.16194E-19
 -1      3916 6.61817E-05-1.58185E-05-2.16715E-05 4.90047E-06 8.14435E-19 6.01790E-20
 -1      3917 8.12600E-05-2.55557E-05-2.39191E-05-1.67509E-05 1.11788E-19-1.84780E-18
 -1      3918 8.34641E-05-2.59965E-05-2.46797E-05 1.61149E-05 1.07260E-18-8.88130E-19
 -1      3919 9.52042E-05-2.75346E-05-2.89990E-05-2.38786E-06-9.36919E-20-4.09408E-19
 -1      3920 9.53671E-05-2.76511E-05-2.90233E-05-2.18174E-06-1.52003E-19-9.39546E-19
 -1      3921 9.54590E-05-2.75691E-05-2.90944E-05-1.89719E-06-2.11993E-19-1.21741E-18
 -1      3922 9.51659E-05-2.36986E-05-3.06340E-05 9.57633E-07 2.93542E-19-1.30280E-18
 -1      3923 9.60855E-05-2.68905E-05-2.96587E-05-4.50628E-07 1.37584E-19-1.01119E-18
 -1      3924 9.60378E-05-2.64522E-05-2.98144E-05-2.18069E-08 1.78092E-19-1.04730E-18
 -1      3925 9.58992E-05-2.56866E-05-3.00901E-05 2.77421E-07 1.55090E-19-1.06531E-18
 -1      3926 9.55396E-05-2.44631E-05-3.04521E-05 5.52047E-07 3.31053E-19-1.32689E-18
 -1      3927 9.58825E-05-2.74877E-05-2.93132E-05 1.06761E-06-9.76512E-20-3.16637E-19
 -1      3928 9.56923E-05-2.74820E-05-2.92342E-05 1.23689E-06 9.71315E-20-2.06647E-19
 -1      3929 9.54274E-05-2.73985E-05-2.91577E-05 1.34979E-06 2.21084E-19-2.32916E-19
 -1      3930 9.51659E-05-2.72688E-05-2.90991E-05 1.50856E-06 4.20768E-19-2.54335E-19
 -1      3931 9.55374E-05-2.73355E-05-2.92266E-05 1.01619E-06 1.19081E-19 4.00931E-20
 -1      3932 9.48162E-05-2.70695E-05-2.90382E-05 1.62481E-06 3.55724E-19-3.25263E-19
 -1      3933 9.44892E-05-2.68413E-05-2.89919E-05 1.79119E-06 4.07398E-19-1.90261E-19
 -1      3934 9.49282E-05-2.70530E-05-2.90858E-05 1.23757E-06 2.95656E-19-8.14883E-20
 -1      3935 9.40573E-05-2.65489E-05-2.89376E-05 1.92460E-06 2.33601E-19-3.86555E-19
 -1      3936 9.36661E-05-2.62448E-05-2.88947E-05 2.11459E-06-2.68289E-19-3.33272E-19
 -1      3937 9.41541E-05-2.65524E-05-2.89670E-05 1.47085E-06 7.12852E-20-2.94258E-19
 -1      3938 9.31505E-05-2.58804E-05-2.88375E-05 2.27581E-06-4.74785E-19-4.54327E-19
 -1      3939 9.26917E-05-2.55189E-05-2.87883E-05 2.50205E-06-5.13743E-19-1.97320E-19
 -1      3940 9.32159E-05-2.58789E-05-2.88515E-05 1.74269E-06-1.88660E-19-3.95265E-19
 -1      3941 9.20835E-05-2.50999E-05-2.87171E-05 2.70407E-06-6.68722E-19-5.60927E-19
 -1      3942 9.15538E-05-2.47029E-05-2.86505E-05 2.98064E-06-3.97497E-19-6.20841E-19
 -1      3943 9.21024E-05-2.50717E-05-2.87183E-05 2.06782E-06-5.73469E-19-1.62440E-19
 -1      3944 9.08436E-05-2.42519E-05-2.85519E-05 3.23648E-06-3.82943E-20-9.04285E-19
 -1      3945 9.02406E-05-2.38463E-05-2.84546E-05 3.57884E-06 1.77642E-19-8.06056E-19
 -1      3946 9.07977E-05-2.41692E-05-2.85428E-05 2.47560E-06-4.16924E-19-8.96929E-19
 -1      3947 8.94128E-05-2.33888E-05-2.83124E-05 3.90739E-06 3.91601E-19-9.96731E-19
 -1      3948 8.87381E-05-2.30096E-05-2.81683E-05 4.33908E-06 6.34828E-20-1.01274E-18
 -1      3949 8.92757E-05-2.32166E-05-2.82951E-05 2.99158E-06 7.41086E-20-1.44015E-18
 -1      3950 8.77737E-05-2.25786E-05-2.79625E-05 4.77046E-06-2.99183E-19-7.29507E-19
 -1      3951 8.70365E-05-2.22720E-05-2.77524E-05 5.33047E-06-3.17366E-19-6.66577E-19
 -1      3952 8.75026E-05-2.22657E-05-2.79380E-05 3.66241E-06-1.06368E-19-1.30268E-18
 -1      3953 8.59069E-05-2.19106E-05-2.74565E-05 5.92144E-06 2.21582E-19-3.80686E-19
 -1      3954 8.51364E-05-2.17482E-05-2.71565E-05 6.67649E-06 8.10089E-19-2.19001E-19
 -1      3955 8.54304E-05-2.13761E-05-2.74245E-05 4.56536E-06 1.05148E-19-4.81306E-19
 -1      3956 8.38008E-05-2.15137E-05-2.67355E-05 7.51856E-06 7.41518E-19-2.92681E-19
 -1      3957 8.30620E-05-2.15992E-05-2.63190E-05 8.57818E-06 7.75751E-19-5.36056E-19
 -1      3958 8.29909E-05-2.06260E-05-2.66901E-05 5.84555E-06 6.18787E-19-2.69480E-19
 -1      3959 8.14605E-05-2.15594E-05-2.57256E-05 9.85295E-06 6.51435E-19-9.69517E-19
 -1      3960 8.09473E-05-2.20921E-05-2.51706E-05 1.13630E-05 5.59675E-19-1.36332E-18
 -1      3961 8.00638E-05-2.00995E-05-2.56477E-05 7.74427E-06 3.11068E-19-6.67263E-19
 -1      3962 8.08553E-05-2.25270E-05-2.49558E-05-1.24280E-05 1.44646E-18-2.12352E-18
 -1      3963 8.12346E-05-2.17340E-05-2.55381E-05-1.06920E-05 1.58348E-18-2.43031E-18
 -1      3964 9.60798E-05-2.74862E-05-2.93986E-05-1.06554E-06 1.14328E-19-9.62124E-19
 -1      3965 9.61154E-05-2.72476E-05-2.95095E-05-7.45745E-07 1.59007E-19-1.06859E-18
 -1      3966 9.61441E-05-2.67594E-05-2.97365E-05-4.24282E-07 2.23740E-19-1.21160E-18
 -1      3967 9.58523E-05-2.53129E-05-3.02364E-05 3.26159E-07 2.49692E-19-1.29272E-18
 -1      3968 9.57058E-05-2.48347E-05-3.03703E-05 2.08315E-07 2.78350E-19-1.33830E-18
 -1      3969 9.60394E-05-2.59590E-05-3.00368E-05-6.19581E-08 1.53890E-19-1.37040E-18
 -1      3970 9.58795E-05-2.77775E-05-2.91866E-05-1.60777E-06 3.17914E-19-1.16068E-18
 -1      3971 9.59756E-05-2.77026E-05-2.92580E-05-1.36329E-06 1.88132E-19-1.12291E-18
 -1      3972 9.58353E-05-2.76557E-05-2.92195E-05-1.52710E-06 1.09972E-19-1.32586E-18
 -1      3973 8.28205E-05-2.16950E-05-2.61711E-05-9.27040E-06 1.83435E-18-2.05838E-18
 -1      3974 8.34449E-05-2.14492E-05-2.66108E-05-8.07993E-06 1.37266E-18-1.48325E-18
 -1      3975 7.95336E-05-2.01335E-05-2.54363E-05-8.57104E-06 1.76740E-18-2.86777E-18
 -1      3976 8.47636E-05-2.15963E-05-2.70590E-05-7.12340E-06 6.52587E-19-1.35803E-18
 -1      3977 8.54642E-05-2.16583E-05-2.73760E-05-6.28151E-06-2.45639E-19-1.16895E-18
 -1      3978 8.24322E-05-2.03963E-05-2.65465E-05-6.37158E-06 1.21562E-18-2.60964E-18
 -1      3979 8.65679E-05-2.19422E-05-2.76913E-05-5.61036E-06-1.78317E-19-5.92572E-19
 -1      3980 8.72500E-05-2.21692E-05-2.79143E-05-4.98015E-06 6.58485E-19-2.33140E-19
 -1      3981 8.48319E-05-2.09948E-05-2.73293E-05-4.90980E-06 2.06429E-19-8.26390E-19
 -1      3982 8.81832E-05-2.25364E-05-2.81325E-05-4.48184E-06 1.20879E-18-4.77449E-19
 -1      3983 8.88092E-05-2.28530E-05-2.82839E-05-3.98904E-06 4.18676E-19 6.41465E-19
 -1      3984 8.68490E-05-2.17510E-05-2.78765E-05-3.86442E-06 7.27164E-19-2.88455E-19
 -1      3985 8.95960E-05-2.32559E-05-2.84313E-05-3.60412E-06-2.94997E-19 1.88569E-18
 -1      3986 9.01482E-05-2.36096E-05-2.85299E-05-3.20542E-06 6.30771E-19 1.57656E-18
 -1      3987 8.85523E-05-2.25895E-05-2.82520E-05-3.08026E-06 4.92858E-19 1.47888E-18
 -1      3988 9.08073E-05-2.40113E-05-2.86266E-05-2.90089E-06 2.76559E-19 7.74450E-19
 -1      3989 9.12804E-05-2.43663E-05-2.86877E-05-2.56943E-06-2.49458E-19 1.33030E-20
 -1      3990 8.99855E-05-2.34457E-05-2.85033E-05-2.46768E-06-2.61253E-19 1.67718E-18
 -1      3991 9.18272E-05-2.47459E-05-2.87487E-05-2.32107E-06 3.14455E-19 3.08052E-20
 -1      3992 9.22140E-05-2.50693E-05-2.87831E-05-2.04712E-06 1.33820E-19 1.03697E-18
 -1      3993 9.11717E-05-2.42634E-05-2.86666E-05-1.98162E-06 1.26590E-19 1.01500E-18
 -1      3994 8.58772E-05-2.29194E-05-2.70174E-05 9.15839E-06-1.90172E-19-1.10016E-19
 -1      3995 8.57121E-05-2.34168E-05-2.66662E-05 1.02822E-05-2.79225E-19 6.83334E-19
 -1      3996 8.69936E-05-2.27941E-05-2.75196E-05-7.39875E-06-4.08458E-19-1.00852E-18
 -1      3997 8.75588E-05-2.28357E-05-2.77638E-05-6.59942E-06-2.06906E-19-9.20463E-19
 -1      3998 8.84801E-05-2.31103E-05-2.80109E-05-5.97019E-06-1.17136E-19-7.24271E-19
 -1      3999 8.90328E-05-2.33311E-05-2.81772E-05-5.38364E-06 1.10658E-20-4.29011E-19
 -1      4000 8.68886E-05-2.22270E-05-2.76900E-05-5.46329E-06 3.04018E-20-3.74672E-19
 -1      4001 8.25495E-05-2.47809E-05-2.47695E-05-1.43870E-05-1.52614E-19-1.79750E-18
 -1      4002 8.21634E-05-2.33456E-05-2.53264E-05-1.24739E-05-3.77969E-19-1.55674E-18
 -1      4003 7.60487E-05-2.04628E-05-2.36331E-05-1.26272E-05 1.04026E-20-2.64370E-18
 -1      4004 8.36748E-05-2.30829E-05-2.59884E-05-1.08765E-05-4.28686E-19-1.46340E-18
 -1      4005 8.39650E-05-2.24591E-05-2.64334E-05-9.45787E-06-3.68712E-19-1.40180E-18
 -1      4006 7.95423E-05-2.02488E-05-2.52748E-05-9.00138E-06-2.55496E-19-1.82342E-18
 -1      4007 9.24861E-05-2.52720E-05-2.88029E-05-1.65122E-06-3.54400E-19 1.76629E-18
 -1      4008 9.30377E-05-2.57347E-05-2.88442E-05 1.80771E-06 8.85061E-19-2.31697E-18
 -1      4009 9.27543E-05-2.54783E-05-2.88337E-05 2.19771E-06-1.16384E-21-2.26564E-18
 -1      4010 9.27382E-05-2.55042E-05-2.88187E-05 1.46456E-06 8.75338E-19-1.92484E-18
 -1      4011 8.47456E-05-2.38469E-05-2.61387E-05 1.18185E-05-4.81824E-19 1.20682E-18
 -1      4012 8.49767E-05-2.49508E-05-2.56760E-05 1.33625E-05-5.08384E-19 2.11864E-18
 -1      4013 8.24898E-05-2.19589E-05-2.59296E-05 1.02195E-05 1.94011E-19 1.86413E-18
 -1      4014 8.85285E-05-2.29756E-05-2.81145E-05 5.79251E-06 2.17047E-19-2.18117E-18
 -1      4015 8.80668E-05-2.28722E-05-2.79321E-05 6.45749E-06 1.08786E-19-2.11155E-18
 -1      4016 8.97694E-05-2.34805E-05-2.84252E-05 4.66462E-06-1.17305E-18-1.19428E-18
 -1      4017 8.93020E-05-2.32515E-05-2.83032E-05 5.20106E-06-5.02067E-19-1.73474E-18
 -1      4018 8.78925E-05-2.24291E-05-2.80377E-05 4.80803E-06-2.56257E-20-1.29352E-18
 -1      4019 9.08775E-05-2.41062E-05-2.86286E-05 3.75747E-06-2.16329E-20-3.05741E-18
 -1      4020 9.04429E-05-2.38181E-05-2.85515E-05 4.20056E-06-3.93833E-19-2.31837E-18
 -1      4021 8.93327E-05-2.31122E-05-2.83651E-05 3.84481E-06-3.91807E-19-1.62245E-18
 -1      4022 9.18226E-05-2.47550E-05-2.87543E-05 3.00785E-06 6.93210E-19-3.72519E-18
 -1      4023 9.14510E-05-2.44589E-05-2.87097E-05 3.38486E-06 4.70707E-19-3.49913E-18
 -1      4024 9.05728E-05-2.38537E-05-2.85818E-05 3.08252E-06 2.97294E-19-3.66101E-18
 -1      4025 9.24080E-05-2.51859E-05-2.88098E-05 2.48793E-06-2.34703E-19-2.76988E-18
 -1      4026 8.24814E-05-2.78823E-05-2.32804E-05 1.99620E-05 9.06021E-19-6.68018E-19
 -1      4027 8.65623E-05-2.85542E-05-2.48010E-05 1.72326E-05-1.62763E-19 2.24289E-18
 -1      4028 8.16114E-05-2.61824E-05-2.36687E-05 1.80390E-05 4.97738E-19 3.09089E-18
 -1      4029 7.83469E-05-2.31384E-05-2.37145E-05 1.52116E-05-2.94476E-19 2.68548E-18
 -1      4030 8.53947E-05-2.64491E-05-2.53076E-05 1.52415E-05-1.23681E-18 2.24103E-18
 -1      4031 6.78200E-05-1.56081E-05-2.21565E-05-4.10985E-06 1.45610E-19-1.02225E-18
 -1      4032 7.18289E-05-1.86274E-05-2.28283E-05-9.68676E-06 6.68230E-20-2.44890E-18
 -1      4033 7.39373E-05-1.85842E-05-2.38472E-05-7.97240E-06 1.46338E-19-2.21098E-18
 -1      4034 6.91984E-05-1.62129E-05-2.26923E-05-6.33339E-07 4.36487E-20-1.17944E-18
 -1      4035 9.47377E-05-2.71710E-05-2.89541E-05-2.80447E-06 2.73156E-21-4.14864E-20
 -1      4036 9.49293E-05-2.73521E-05-2.89658E-05-2.57708E-06 4.71028E-20-2.32922E-19
 -1      4037 9.49692E-05-2.72821E-05-2.90067E-05-2.26355E-06-1.16874E-19-6.60982E-19
 -1      4038 9.43723E-05-2.68369E-05-2.89405E-05-2.66818E-06 1.78715E-19-5.82517E-19
 -1      4039 9.61988E-05-2.66720E-05-2.97956E-05 3.32313E-07-4.76569E-19-6.45553E-19
 -1      4040 9.62026E-05-2.70247E-05-2.96520E-05 5.88481E-07-3.03761E-19-6.61306E-19
 -1      4041 8.53491E-05-2.27264E-05-2.68633E-05-8.89718E-06-5.57531E-19-1.46160E-18
 -1      4042 8.58628E-05-2.24890E-05-2.72027E-05-7.82811E-06-5.78353E-19-1.23692E-18
 -1      4043 8.49072E-05-2.15218E-05-2.71121E-05-6.40852E-06-2.27841E-19-7.43690E-19
 -1      4044 8.24965E-05-2.07482E-05-2.63697E-05-7.19806E-06-3.17651E-19-1.44890E-18
 -1      4045 9.59525E-05-2.55783E-05-3.01505E-05-1.98557E-07-4.04388E-19-8.28697E-19
 -1      4046 9.60940E-05-2.61945E-05-2.99650E-05 1.28543E-07-4.33415E-19-7.51311E-19
 -1      4047 9.61226E-05-2.62392E-05-2.99443E-05 1.65908E-07-4.11912E-19-8.74441E-19
 -1      4048 9.22101E-05-2.51688E-05-2.87302E-05-3.38831E-06-3.11267E-19 6.85469E-21
 -1      4049 9.26471E-05-2.55176E-05-2.87789E-05-3.08522E-06-1.40086E-19-3.00403E-19
 -1      4050 9.53359E-05-2.38575E-05-3.06214E-05 1.82416E-07 1.32273E-19-1.37122E-18
 -1      4051 9.48566E-05-2.28879E-05-3.08539E-05 1.79889E-07-2.17198E-20-1.52428E-18
 -1      4052 9.48288E-05-2.28279E-05-3.08660E-05-1.78994E-07-1.80517E-19-1.44158E-18
 -1      4053 9.61532E-05-2.72719E-05-2.95207E-05 7.40910E-07-2.66676E-19-5.45700E-19
 -1      4054 9.60489E-05-2.74238E-05-2.94133E-05 9.43341E-07-2.98493E-19-5.69408E-19
 -1      4055 9.61825E-05-2.70120E-05-2.96407E-05 5.08087E-07-3.47409E-19-7.32012E-19
 -1      4056 9.24820E-05-2.53063E-05-2.87923E-05 6.43379E-07-1.56979E-19-1.64792E-18
 -1      4057 9.26144E-05-2.54158E-05-2.88041E-05 1.03077E-06 7.90072E-19-1.72185E-18
 -1      4058 9.22049E-05-2.50525E-05-2.87727E-05 1.33283E-06-7.14904E-19-2.34520E-18
 -1      4059 9.20901E-05-2.49755E-05-2.87584E-05 4.45462E-07 7.30905E-20-1.44607E-18
 -1      4060 7.94656E-05-2.46608E-05-2.34499E-05 1.69172E-05 1.12226E-18-1.44875E-18
 -1      4061 8.72001E-05-2.27244E-05-2.76596E-05 7.23728E-06 4.60026E-19-9.37249E-19
 -1      4062 8.68166E-05-2.28451E-05-2.74005E-05 8.08767E-06 1.61007E-19-1.80949E-20
 -1      4063 8.62567E-05-2.19036E-05-2.75594E-05 6.06749E-06 8.13929E-19 3.10373E-19
 -1      4064 9.19732E-05-2.48882E-05-2.87516E-05-1.35874E-06 2.24305E-19 1.32714E-18
 -1      4065 9.53285E-05-2.74279E-05-2.91001E-05-1.72022E-06-3.81038E-19-1.13491E-18
 -1      4066 9.55494E-05-2.75250E-05-2.91545E-05-1.54207E-06-2.89461E-19-1.31440E-18
 -1      4067 9.57787E-05-2.75789E-05-2.92295E-05-1.39790E-06-1.48588E-19-1.40151E-18
 -1      4068 9.59441E-05-2.75652E-05-2.93072E-05-1.20087E-06 2.69857E-20-1.52297E-18
 -1      4069 9.56491E-05-2.74315E-05-2.92331E-05-1.22803E-06-3.16857E-19-1.16586E-18
 -1      4070 7.12806E-05-1.85390E-05-2.25343E-05 1.00119E-05 5.29144E-19-1.28062E-18
 -1      4071 9.59664E-05-2.73439E-05-2.94063E-05 7.84462E-07-1.28324E-19-4.66882E-19
 -1      4072 8.44454E-05-2.16782E-05-2.68791E-05 7.78510E-06 1.62741E-19 2.38340E-18
 -1      4073 8.85931E-05-2.29351E-05-2.81228E-05-4.41448E-06-2.35975E-19-7.38708E-19
 -1      4074 8.98491E-05-2.36937E-05-2.83484E-05-4.89518E-06-2.70598E-19-5.22191E-19
 -1      4075 9.03796E-05-2.40081E-05-2.84599E-05-4.43334E-06-5.49403E-19-3.82094E-19
 -1      4076 9.31862E-05-2.58960E-05-2.88372E-05-2.84986E-06 2.96735E-20-5.34738E-19
 -1      4077 9.35686E-05-2.62141E-05-2.88732E-05-2.60103E-06 1.95810E-19-6.41304E-19
 -1      4078 9.25985E-05-2.54439E-05-2.87728E-05-2.51198E-06-1.89970E-19-4.33459E-19
 -1      4079 8.08741E-05-2.47098E-05-2.40578E-05-1.61077E-05 7.77272E-19-8.88559E-19
 -1      4080 7.96234E-05-2.31450E-05-2.42351E-05 1.43611E-05 1.05898E-18-1.75302E-18
 -1      4081 9.17406E-05-2.46878E-05-2.87297E-05 2.24106E-06-4.42480E-19-3.02719E-18
 -1      4082 8.18054E-05-2.35616E-05-2.49508E-05 1.36387E-05-3.83310E-19 3.25569E-18
 -1      4083 9.17736E-05-2.47433E-05-2.87286E-05-7.90655E-07-9.84830E-20 1.83133E-19
 -1      4084 9.16814E-05-2.46801E-05-2.87196E-05-2.94363E-07-1.01950E-22-1.18831E-18
 -1      4085 9.14643E-05-2.44914E-05-2.86995E-05-1.18897E-06-1.26851E-19 8.46026E-19
 -1      4086 9.10968E-05-2.44122E-05-2.85767E-05-4.05668E-06-4.36385E-19-4.19317E-19
 -1      4087 9.15858E-05-2.47633E-05-2.86499E-05-3.68452E-06-2.05186E-19 1.03869E-19
 -1      4088 9.01158E-05-2.37678E-05-2.84217E-05-3.62045E-06-3.82926E-19-3.68463E-19
 -1      4089 7.22639E-05-1.80117E-05-2.32462E-05-8.65383E-06 7.39916E-19-2.08288E-18
 -1      4090 7.73505E-05-2.18907E-05-2.37879E-05-1.39726E-05 9.33960E-19-2.01058E-18
 -1      4091 9.56842E-05-2.48896E-05-3.03435E-05-4.03531E-07-4.76534E-19-8.94784E-19
 -1      4092 9.14456E-05-2.46244E-05-2.86273E-05-3.00252E-06-3.74397E-19 2.43092E-20
 -1      4093 7.38326E-05-1.97100E-05-2.32213E-05 1.16063E-05-6.29402E-21 1.21665E-18
 -1      4094 6.94194E-05-1.70647E-05-2.22883E-05 8.48219E-06 2.56054E-19 2.13346E-20
 -1      4095 7.06615E-05-1.69140E-05-2.30256E-05 5.43111E-06 5.91054E-19-4.54354E-19
 -1      4096 7.68419E-05-2.07429E-05-2.40431E-05 1.19905E-05 5.34360E-19-1.88591E-18
 -1      4097 9.56885E-05-2.47761E-05-3.03990E-05 1.35010E-07 2.08811E-19-1.14384E-18
 -1      4098 9.56353E-05-2.46394E-05-3.04278E-05-4.56155E-09-3.74672E-20-1.14291E-18
 -1      4099 9.59881E-05-2.55296E-05-3.01872E-05 1.57163E-08 1.18137E-19-1.10854E-18
 -1      4100 9.60943E-05-2.74146E-05-2.94349E-05-1.02911E-06 2.81714E-19-1.46648E-18
 -1      4101 9.49422E-05-2.31035E-05-3.07944E-05-7.29529E-07-3.29684E-19-1.28043E-18
 -1      4102 9.53773E-05-2.39823E-05-3.05785E-05-5.77345E-07-4.37865E-19-1.08308E-18
 -1      4103 9.57425E-05-2.49870E-05-3.03371E-05-2.01965E-07-4.08055E-19-1.12870E-18
 -1      4104 9.48913E-05-2.29894E-05-3.08248E-05-3.94475E-07-1.51228E-19-1.37846E-18
 -1      4105 7.09006E-05-1.68530E-05-2.31143E-05-5.86343E-06 5.17916E-19-1.30818E-18
 -1      4106 7.63740E-05-1.88354E-05-2.46139E-05-7.19183E-06 1.36058E-18-2.08975E-18
 -1      4107 7.78162E-05-1.89249E-05-2.52806E-05-6.06505E-06 1.69676E-18-2.09827E-18
 -1      4108 7.12538E-05-1.66190E-05-2.34794E-05-1.80466E-06 5.72677E-19-6.83751E-19
 -1      4109 9.50594E-05-2.71064E-05-2.91265E-05 8.08465E-07 3.16957E-19-2.92633E-19
 -1      4110 9.47133E-05-2.69035E-05-2.90620E-05 9.15418E-07 2.94573E-19-1.91701E-19
 -1      4111 9.42850E-05-2.66385E-05-2.89963E-05 9.70326E-07-9.03389E-20-1.13403E-19
 -1      4112 9.38559E-05-2.63350E-05-2.89383E-05 1.08462E-06-1.88998E-19-2.50819E-19
 -1      4113 9.44474E-05-2.66866E-05-2.90341E-05 5.33569E-07 1.40431E-19-4.87426E-19
 -1      4114 9.33405E-05-2.59822E-05-2.88734E-05 1.14745E-06-1.38369E-19-5.30480E-19
 -1      4115 9.28205E-05-2.56011E-05-2.88118E-05 1.27253E-06-3.90689E-19-5.86683E-19
 -1      4116 9.35310E-05-2.60689E-05-2.89019E-05 6.36213E-07-3.96504E-19-3.09200E-19
 -1      4117 9.22002E-05-2.51676E-05-2.87369E-05 1.36467E-06-7.23302E-19-6.31256E-19
 -1      4118 9.15929E-05-2.47260E-05-2.86605E-05 1.51787E-06-8.59302E-19-8.86614E-19
 -1      4119 9.23840E-05-2.52415E-05-2.87590E-05 7.62119E-07-6.19042E-19-1.36368E-18
 -1      4120 9.08616E-05-2.42435E-05-2.85626E-05 1.63113E-06-8.27306E-19-9.61662E-19
 -1      4121 9.01518E-05-2.37619E-05-2.84576E-05 1.81746E-06-4.13695E-19-1.17456E-18
 -1      4122 9.10600E-05-2.43070E-05-2.85832E-05 9.09797E-07-6.28579E-19-1.29239E-18
 -1      4123 8.92867E-05-2.32417E-05-2.83209E-05 1.96559E-06 1.14243E-19-1.15677E-18
 -1      4124 8.84573E-05-2.27409E-05-2.81707E-05 2.19997E-06 1.20646E-19-1.27877E-18
 -1      4125 8.94876E-05-2.32696E-05-2.83447E-05 1.09356E-06-1.70226E-19-1.36710E-18
 -1      4126 8.74272E-05-2.22022E-05-2.79751E-05 2.39780E-06 1.31300E-19-1.21758E-18
 -1      4127 8.64590E-05-2.17086E-05-2.77586E-05 2.70534E-06-6.74950E-20-8.13731E-19
 -1      4128 8.76231E-05-2.21647E-05-2.80078E-05 1.32925E-06 3.11832E-19-1.12980E-18
 -1      4129 8.52148E-05-2.11654E-05-2.74784E-05 2.97698E-06 3.43505E-20-3.89648E-19
 -1      4130 8.40840E-05-2.07060E-05-2.71679E-05 3.41191E-06 4.22141E-19-2.59813E-19
 -1      4131 8.53821E-05-2.10307E-05-2.75258E-05 1.63239E-06 2.32746E-19-9.50466E-19
 -1      4132 8.25433E-05-2.01862E-05-2.67654E-05 3.77184E-06 2.57846E-19-1.74186E-19
 -1      4133 8.11821E-05-1.97794E-05-2.63225E-05 4.40007E-06 3.65494E-19-3.12417E-19
 -1      4134 8.26999E-05-1.99149E-05-2.68394E-05 2.03816E-06 2.33816E-19-4.99161E-19
 -1      4135 7.92128E-05-1.92955E-05-2.57441E-05 4.95841E-06 2.76369E-19-1.91054E-19
 -1      4136 7.76615E-05-1.89837E-05-2.51462E-05 5.86957E-06 2.22776E-20-4.10188E-19
 -1      4137 7.92718E-05-1.87374E-05-2.58529E-05 2.64698E-06 2.12457E-19-1.00625E-18
 -1      4138 9.62071E-05-2.68856E-05-2.97081E-05-5.02035E-07 2.54961E-19-1.43665E-18
 -1      4139 9.61786E-05-2.65031E-05-2.98629E-05-2.09437E-07 2.08011E-19-1.38348E-18
 -1      4140 9.61237E-05-2.61664E-05-2.99824E-05-1.12077E-07 1.86720E-19-1.28418E-18
 -1      4141 8.05132E-05-1.94797E-05-2.61497E-05-4.92796E-06 2.04801E-18-1.83782E-18
 -1      4142 8.18035E-05-1.98101E-05-2.66104E-05-4.21284E-06 1.17270E-18-1.66549E-18
 -1      4143 8.33594E-05-2.02730E-05-2.70432E-05-3.76867E-06 7.23321E-19-1.14528E-18
 -1      4144 8.44817E-05-2.06706E-05-2.73753E-05-3.25686E-06 1.14083E-18-2.18343E-19
 -1      4145 8.18169E-05-1.94375E-05-2.66887E-05-2.44081E-06 1.76895E-18-8.11639E-19
 -1      4146 8.57204E-05-2.11565E-05-2.76761E-05-2.94747E-06 1.04055E-18 4.03772E-19
 -1      4147 8.66638E-05-2.15947E-05-2.79060E-05-2.56967E-06 7.70149E-19-2.38298E-19
 -1      4148 8.45669E-05-2.04945E-05-2.74284E-05-1.85905E-06 1.84364E-18-4.63595E-19
 -1      4149 8.76696E-05-2.20862E-05-2.81126E-05-2.34256E-06 1.11568E-18 7.68064E-19
 -1      4150 8.84618E-05-2.25348E-05-2.82687E-05-2.05110E-06 7.02490E-19 1.09212E-18
 -1      4151 8.67752E-05-2.15310E-05-2.79395E-05-1.46574E-06 1.48699E-18 1.92614E-19
 -1      4152 8.92862E-05-2.30104E-05-2.84083E-05-1.87459E-06-1.04959E-18 1.60001E-18
 -1      4153 8.99465E-05-2.34489E-05-2.85108E-05-1.64264E-06-1.25480E-18 7.82391E-19
 -1      4154 8.85808E-05-2.25340E-05-2.82887E-05-1.17023E-06-3.82740E-19-1.94982E-19
 -1      4155 9.04637E-05-2.37773E-05-2.85814E-05-1.49580E-06-7.23617E-19 6.72916E-19
 -1      4156 9.10159E-05-2.41816E-05-2.86495E-05-1.31249E-06 2.52901E-19 3.86396E-19
 -1      4157 9.08332E-05-2.40318E-05-2.86247E-05-7.00393E-07-1.45480E-20-1.75928E-19
 -1      4158 8.98877E-05-2.33597E-05-2.84987E-05-9.18821E-07-1.22973E-18-9.27215E-19
 -1      4159 9.50173E-05-2.72594E-05-2.90425E-05-1.85970E-06-2.70547E-19-9.09547E-19
 -1      4160 9.51148E-05-2.72171E-05-2.90961E-05-1.50142E-06-4.99319E-19-8.03603E-19
 -1      4161 9.47419E-05-2.70668E-05-2.90027E-05-2.04447E-06-1.53555E-19-7.50524E-19
 -1      4162 7.31436E-05-1.79260E-05-2.36990E-05 6.92541E-06 3.11966E-19-9.87847E-19
 -1      4163 7.68210E-05-1.90271E-05-2.47704E-05-6.83078E-06-1.02501E-19-2.19928E-18
 -1      4164 7.84769E-05-1.92291E-05-2.54618E-05-5.70943E-06 1.04449E-19-1.78219E-18
 -1      4165 7.39299E-05-1.74003E-05-2.41227E-05-3.91387E-06 1.80567E-19-1.23688E-18
 -1      4166 9.03826E-05-2.37575E-05-2.85673E-05 2.28818E-06 9.07781E-19-3.22068E-18
 -1      4167 8.98047E-05-2.33601E-05-2.84781E-05 2.59366E-06 2.62779E-19-2.94128E-18
 -1      4168 9.60573E-05-2.72739E-05-2.94801E-05 4.84071E-07-1.23632E-19-5.46030E-19
 -1      4169 9.58933E-05-2.73521E-05-2.93769E-05 6.04262E-07-5.45833E-20-4.17907E-19
 -1      4170 8.06103E-05-2.03465E-05-2.58717E-05 7.73471E-06 6.35376E-19 1.25144E-18
 -1      4171 7.95175E-05-2.04654E-05-2.52857E-05 9.06494E-06 6.80109E-19 1.54318E-18
 -1      4172 8.90364E-05-2.29208E-05-2.83501E-05 2.86426E-06 4.80891E-19-2.57060E-18
 -1      4173 8.83562E-05-2.25300E-05-2.82130E-05 3.24295E-06 5.34292E-19-1.45921E-18
 -1      4174 8.89823E-05-2.28050E-05-2.83449E-05 2.01798E-06 1.07241E-18-2.90917E-18
 -1      4175 8.74315E-05-2.20916E-05-2.80226E-05 3.59218E-06 2.07863E-19-6.59872E-19
 -1      4176 8.66476E-05-2.17368E-05-2.78194E-05 4.07661E-06 9.39942E-19-3.42054E-19
 -1      4177 8.73090E-05-2.18766E-05-2.80205E-05 2.54155E-06 1.01454E-18-1.61123E-18
 -1      4178 8.32735E-05-2.07085E-05-2.68520E-05 5.85305E-06 1.08078E-18 9.40747E-19
 -1      4179 8.23051E-05-2.06004E-05-2.64388E-05 6.77564E-06 6.55924E-19 1.25387E-18
 -1      4180 7.98001E-05-1.93804E-05-2.58801E-05 5.68156E-06 1.37694E-18-6.01599E-19
 -1      4181 7.97626E-05-2.25292E-05-2.44994E-05 1.31212E-05-1.69248E-19 2.58582E-18
 -1      4182 7.61797E-05-2.07441E-05-2.36958E-05 1.25279E-05-5.46684E-20 1.90155E-18
 -1      4183 7.53594E-05-1.93546E-05-2.40560E-05 9.74084E-06 5.38892E-20 1.15343E-18
 -1      4184 7.93500E-05-2.13191E-05-2.49133E-05 1.11605E-05-1.12376E-19 2.60370E-18
 -1      4185 8.54103E-05-2.14630E-05-2.74232E-05-4.56096E-06-3.97642E-20-8.62338E-19
 -1      4186 8.63645E-05-2.18166E-05-2.76917E-05-4.02158E-06 2.00135E-19-8.42704E-19
 -1      4187 9.07711E-05-2.41786E-05-2.85423E-05-2.44605E-06-5.43820E-19-3.28966E-19
 -1      4188 9.13980E-05-2.46200E-05-2.86302E-05-2.20809E-06-3.01214E-19-3.93847E-19
 -1      4189 9.60955E-05-2.59305E-05-3.00606E-05 3.05564E-08-3.48086E-19-9.47087E-19
 -1      4190 9.61908E-05-2.64627E-05-2.98912E-05 2.03841E-07-3.08082E-19-9.32935E-19
 -1      4191 9.16537E-05-2.46593E-05-2.87206E-05 1.53563E-06-2.03514E-18-9.68990E-19
 -1      4192 9.10442E-05-2.41798E-05-2.86531E-05 1.98997E-06-6.02582E-19-2.63473E-18
 -1      4193 9.03843E-05-2.37079E-05-2.85630E-05 1.52491E-06-3.98161E-19-1.18218E-18
 -1      4194 9.15598E-05-2.45717E-05-2.87060E-05 1.08492E-06-6.15052E-19-1.49166E-18
 -1      4195 9.53568E-05-2.39010E-05-3.06132E-05-1.61260E-07-1.70393E-19-1.37308E-18
 -1      4196 9.62177E-05-2.68371E-05-2.97358E-05 2.75799E-07-3.50488E-19-7.01173E-19
 -1      4197 9.61689E-05-2.71036E-05-2.96018E-05 4.26749E-07-1.99948E-19-5.99730E-19
 -1      4198 9.61805E-05-2.65254E-05-2.98479E-05 1.28284E-07-1.68218E-19-7.18675E-19
 -1      4199 7.30974E-05-1.71547E-05-2.38897E-05 3.79174E-06 3.87551E-20-9.03969E-19
 -1      4200 9.60756E-05-2.74283E-05-2.94188E-05-9.90603E-07 2.75143E-19-1.38419E-18
 -1      4201 9.61800E-05-2.72011E-05-2.95646E-05-6.81706E-07 3.51617E-19-1.37397E-18
 -1      4202 9.61874E-05-2.69632E-05-2.96713E-05-4.26247E-07 1.19722E-19-1.11138E-18
 -1      4203 9.60132E-05-2.73788E-05-2.94203E-05-8.56298E-07-6.16159E-20-9.63024E-19
 -1      4204 8.55287E-05-2.13284E-05-2.75422E-05 4.54711E-06 1.50952E-18-9.07162E-19
 -1      4205 8.46452E-05-2.10613E-05-2.72494E-05 5.19518E-06 1.40012E-18 6.96395E-19
 -1      4206 8.52917E-05-2.09504E-05-2.75450E-05 3.23544E-06 9.78168E-19-7.57416E-19
 -1      4207 9.56563E-05-2.73371E-05-2.92822E-05 6.51524E-07 3.90222E-20-4.41356E-19
 -1      4208 9.53953E-05-2.72575E-05-2.92025E-05 7.62328E-07 2.52376E-19-4.18184E-19
 -1      4209 9.57612E-05-2.72671E-05-2.93502E-05 3.53270E-07 9.62955E-20-7.28755E-19
 -1      4210 8.28351E-05-2.00790E-05-2.68592E-05 4.22464E-06 1.46674E-18-1.84173E-18
 -1      4211 9.57178E-05-2.48049E-05-3.03895E-05-1.32562E-07-1.99782E-19-1.13907E-18
 -1      4212 7.76332E-05-1.82606E-05-2.53926E-05-3.70748E-06 1.66769E-18-1.47123E-18
 -1      4213 9.49130E-05-2.70626E-05-2.90797E-05-1.22260E-06-3.44124E-19-9.28783E-19
 -1      4214 9.52276E-05-2.72351E-05-2.91417E-05-1.08812E-06-3.86100E-19-8.88017E-19
 -1      4215 9.52024E-05-2.71074E-05-2.91777E-05 4.45230E-07 2.99555E-19-6.71996E-19
 -1      4216 8.74923E-05-2.23094E-05-2.79396E-05-3.63182E-06 1.21476E-20-6.86396E-19
 -1      4217 8.83159E-05-2.27432E-05-2.81232E-05-3.24612E-06-1.81031E-19-7.35981E-19
 -1      4218 8.63026E-05-2.15513E-05-2.77009E-05-2.72895E-06 8.75914E-20-1.54336E-18
 -1      4219 9.61114E-05-2.71095E-05-2.95664E-05 2.55451E-07-1.24548E-19-3.74429E-19
 -1      4220 9.20749E-05-2.50728E-05-2.87169E-05-2.03931E-06-2.70358E-19-6.43136E-19
 -1      4221 9.26183E-05-2.54800E-05-2.87813E-05-1.84302E-06-1.63224E-19-8.25118E-19
 -1      4222 9.14964E-05-2.46245E-05-2.86401E-05-1.50323E-06-3.39512E-19-7.43120E-19
 -1      4223 9.40279E-05-2.65420E-05-2.89213E-05-2.41079E-06 2.68858E-19-6.15997E-19
 -1      4224 9.43569E-05-2.68082E-05-2.89546E-05-2.20155E-06 7.21870E-20-5.99593E-19
 -1      4225 9.35878E-05-2.61765E-05-2.88849E-05-2.11614E-06 6.31345E-20-5.22554E-19
 -1      4226 9.12151E-05-2.43149E-05-2.86708E-05-2.04826E-07 4.92701E-19-6.95466E-19
 -1      4227 9.16609E-05-2.46534E-05-2.87156E-05 1.04785E-07 3.48411E-19-1.01326E-18
 -1      4228 9.16166E-05-2.46339E-05-2.87132E-05 5.53518E-07 3.60714E-19-1.12077E-18
 -1      4229 9.07668E-05-2.40008E-05-2.86185E-05-2.80315E-07-1.81944E-21-7.24997E-19
 -1      4230 8.92544E-05-2.32397E-05-2.82954E-05-2.96108E-06-1.82803E-19-6.36449E-19
 -1      4231 8.99751E-05-2.36927E-05-2.84219E-05-2.66334E-06-2.65993E-19-4.44522E-19
 -1      4232 8.83301E-05-2.26093E-05-2.81286E-05-2.20656E-06-1.74863E-19-9.66784E-19
 -1      4233 7.22727E-05-1.65568E-05-2.37775E-05 1.43065E-06 5.17570E-19-5.95243E-19
 -1      4234 7.50501E-05-1.74382E-05-2.46931E-05-1.47909E-06 1.01095E-18-8.24382E-19
 -1      4235 7.78695E-05-1.82226E-05-2.56127E-05-8.08239E-07 2.08903E-18-9.15018E-19
 -1      4236 7.42711E-05-1.77179E-05-2.42735E-05 4.79774E-06 7.20640E-20-1.29098E-18
 -1      4237 8.02786E-05-1.97881E-05-2.59793E-05-5.58965E-06 1.43301E-19-1.89344E-18
 -1      4238 8.17025E-05-2.01927E-05-2.64101E-05-5.30098E-06-1.43991E-20-1.47260E-18
 -1      4239 7.84027E-05-1.85993E-05-2.55288E-05-3.53016E-06 2.63354E-19-1.78670E-18
 -1      4240 7.37476E-05-1.72554E-05-2.42398E-05-4.40530E-07 1.31111E-19-1.27451E-18
 -1      4241 8.42727E-05-2.10270E-05-2.71342E-05-4.67502E-06-3.18413E-19-1.09819E-18
 -1      4242 8.40419E-05-2.05140E-05-2.71530E-05-3.06939E-06 1.28122E-19-1.83982E-18
 -1      4243 8.31312E-05-2.06231E-05-2.68159E-05-4.90339E-06-1.87959E-19-1.35392E-18
 -1      4244 9.58329E-05-2.51914E-05-3.02754E-05-1.09067E-07-2.97227E-19-1.13649E-18
 -1      4245 9.61100E-05-2.60856E-05-3.00115E-05-7.18611E-08 6.59412E-20-8.28708E-19
 -1      4246 9.00414E-05-2.36454E-05-2.84278E-05-1.81010E-06-3.20767E-19-8.96914E-19
 -1      4247 9.53473E-05-2.72039E-05-2.92009E-05-7.35284E-07-3.14339E-19-5.44595E-19
 -1      4248 9.55325E-05-2.73642E-05-2.92180E-05-1.01175E-06-4.90986E-19-7.07016E-19
 -1      4249 9.57711E-05-2.74027E-05-2.92961E-05-8.77709E-07-2.78250E-19-7.78315E-19
 -1      4250 9.37315E-05-2.62377E-05-2.89336E-05 9.63954E-08-2.58037E-19-9.24036E-19
 -1      4251 9.32073E-05-2.58697E-05-2.88655E-05 1.53099E-07-6.37071E-19-1.10572E-18
 -1      4252 9.24984E-05-2.53730E-05-2.87753E-05-3.13400E-07-5.94089E-19-1.09513E-18
 -1      4253 9.18579E-05-2.49258E-05-2.86963E-05-2.84979E-07-4.84477E-19-1.13512E-18
 -1      4254 9.11645E-05-2.44583E-05-2.86048E-05-3.85338E-07-4.99268E-19-1.04781E-18
 -1      4255 9.04129E-05-2.39502E-05-2.85012E-05-3.47922E-07-3.57278E-19-7.77598E-19
 -1      4256 8.95979E-05-2.34424E-05-2.83753E-05-4.75173E-07-2.71517E-19-9.79840E-19
 -1      4257 8.87101E-05-2.28933E-05-2.82312E-05-4.28940E-07-3.32961E-20-1.06655E-18
 -1      4258 8.77480E-05-2.23634E-05-2.80526E-05-5.92894E-07 2.96693E-20-1.30437E-18
 -1      4259 8.66924E-05-2.17897E-05-2.78475E-05-5.36904E-07 1.26681E-19-1.21783E-18
 -1      4260 8.55459E-05-2.12479E-05-2.75922E-05-7.44184E-07 4.19696E-19-1.22330E-18
 -1      4261 8.42890E-05-2.06766E-05-2.72989E-05-6.82111E-07 3.48851E-19-1.09464E-18
 -1      4262 8.00922E-05-1.91209E-05-2.61910E-05-5.71844E-07 3.47939E-19-1.52068E-18
 -1      4263 7.81158E-05-1.84548E-05-2.56050E-05-4.28087E-07 6.29518E-20-1.47400E-18
 -1      4264 8.53249E-05-2.09133E-05-2.76274E-05 1.77492E-06 3.61465E-19-6.81824E-19
 -1      4265 8.42095E-05-2.04264E-05-2.73445E-05 2.08863E-06 3.86318E-19-1.06854E-18
 -1      4266 9.45205E-05-2.68269E-05-2.90158E-05-1.31000E-06-4.04310E-19-1.28609E-18
 -1      4267 9.46522E-05-2.68370E-05-2.90579E-05-8.89040E-07-2.26140E-19-1.32663E-18
 -1      4268 9.52733E-05-2.71684E-05-2.91924E-05-1.85640E-07 5.94551E-20-7.35672E-19
 -1      4269 9.49292E-05-2.69995E-05-2.91152E-05-1.57442E-07 1.03424E-19-8.34500E-19
 -1      4270 8.37980E-05-2.01821E-05-2.72790E-05-6.84623E-07 1.67012E-18-1.16039E-18
 -1      4271 8.50320E-05-2.07166E-05-2.75803E-05-5.44121E-07 1.88345E-18-1.44917E-18
 -1      4272 8.61659E-05-2.12482E-05-2.78335E-05-5.42195E-07 1.78899E-18-2.00569E-18
 -1      4273 8.71718E-05-2.17642E-05-2.80433E-05-4.38743E-07 1.04581E-18-1.64856E-18
 -1      4274 8.56496E-05-2.09441E-05-2.77045E-05 5.54424E-07 1.22500E-18-1.92068E-18
 -1      4275 8.80946E-05-2.22771E-05-2.82164E-05-4.36190E-07 6.60374E-19-1.68596E-18
 -1      4276 8.89202E-05-2.27687E-05-2.83584E-05-3.56386E-07-4.03908E-19-9.00872E-19
 -1      4277 8.76743E-05-2.19964E-05-2.81275E-05 4.29942E-07 9.88775E-19-2.18416E-18
 -1      4278 7.76543E-05-1.95535E-05-2.48872E-05 8.46508E-06 6.44562E-19 1.44391E-18
 -1      4279 8.73892E-05-2.19141E-05-2.80761E-05 1.39671E-06 1.28311E-18-1.84953E-18
 -1      4280 8.64587E-05-2.14300E-05-2.78783E-05 1.63235E-06 1.22205E-18-1.51088E-18
 -1      4281 9.61687E-05-2.70394E-05-2.96324E-05 1.54431E-08-1.64048E-19-3.03526E-19
 -1      4282 9.60559E-05-2.72150E-05-2.95072E-05 8.49082E-08-9.23547E-20-3.83061E-19
 -1      4283 9.44247E-05-2.67812E-05-2.89859E-05-1.78745E-06-2.94774E-19-7.90320E-19
 -1      4284 9.45339E-05-2.67674E-05-2.90474E-05-2.18668E-07 1.29363E-19-1.00473E-18
 -1      4285 9.41023E-05-2.64848E-05-2.89803E-05-1.97680E-07-1.18318E-19-1.21751E-18
 -1      4286 8.90854E-05-2.28911E-05-2.83809E-05 1.10671E-06 1.72782E-19-1.46464E-18
 -1      4287 8.83127E-05-2.24181E-05-2.82475E-05 1.28985E-06 5.09290E-19-1.54758E-18
 -1      4288 9.58218E-05-2.73024E-05-2.93662E-05-1.57835E-07-2.86959E-19-3.80365E-19
 -1      4289 9.55747E-05-2.72736E-05-2.92727E-05-1.20952E-07-9.55313E-20-5.02160E-19
 -1      4290 8.04096E-05-1.89423E-05-2.63577E-05-8.66650E-07 2.45311E-18-1.39426E-18
 -1      4291 8.19686E-05-1.94928E-05-2.67992E-05-6.59551E-07 1.99485E-18-4.32954E-19
 -1      4292 8.27744E-05-1.97333E-05-2.69882E-05 7.73801E-07 1.23718E-18-7.63290E-19
 -1      4293 7.84940E-05-1.83018E-05-2.57617E-05 1.16584E-06 2.08334E-18-2.41242E-19
 -1      4294 8.31127E-05-2.02024E-05-2.70157E-05-5.89376E-07 3.13485E-20-1.23391E-18
 -1      4295 9.41346E-05-2.65573E-05-2.89628E-05-1.45197E-06-2.83698E-19-1.21510E-18
 -1      4296 9.61526E-05-2.71744E-05-2.95525E-05-4.01839E-07-1.49085E-20-8.43870E-19
 -1      4297 9.61842E-05-2.69077E-05-2.96889E-05-2.34453E-07-2.54227E-20-8.02095E-19
 -1      4298 8.98512E-05-2.33659E-05-2.84966E-05 1.01247E-06-2.41291E-19-5.83776E-19
 -1      4299 8.93338E-05-2.29979E-05-2.84149E-05 3.26002E-07-7.60756E-19-1.51000E-20
 -1      4300 8.96799E-05-2.32559E-05-2.84744E-05-3.61216E-07-1.31285E-18-7.11817E-19
 -1      4301 9.05021E-05-2.38218E-05-2.85866E-05 7.89565E-07-7.85879E-19 5.52584E-19
 -1      4302 8.15812E-05-1.96177E-05-2.66051E-05-4.65181E-07 1.12335E-19-1.35988E-18
 -1      4303 8.23946E-05-1.97661E-05-2.68706E-05 2.36581E-06 1.44515E-18-1.02676E-18
 -1      4304 9.10792E-05-2.42164E-05-2.86555E-05 7.26791E-07 2.06788E-19-1.08969E-19
 -1      4305 9.59243E-05-2.73250E-05-2.94012E-05-6.64894E-07-1.16922E-19-7.29193E-19
 -1      4306 7.58698E-05-1.86348E-05-2.44752E-05 7.36590E-06 4.66662E-19-1.28902E-19
 -1      4307 9.62195E-05-2.67751E-05-2.97620E-05-3.53616E-08 5.44776E-20-5.49920E-19
 -1      4308 9.01932E-05-2.35966E-05-2.85466E-05-2.67344E-07-6.95178E-19-7.86121E-19
 -1      4309 7.67089E-05-1.82036E-05-2.50956E-05 3.99356E-06 5.32588E-19-5.82063E-19
 -1      4310 7.85219E-05-1.85508E-05-2.57194E-05 3.27136E-06 1.68326E-18-1.03271E-18
 -1      4311 9.61834E-05-2.63683E-05-2.99177E-05-7.14472E-08 4.32727E-20-7.19950E-19
 -1      4312 9.31922E-05-2.58796E-05-2.88493E-05-1.71876E-06 5.87464E-20-9.30800E-19
 -1      4313 9.36539E-05-2.62257E-05-2.89027E-05-1.55196E-06-1.54080E-19-1.04339E-18
 -1      4314 9.37909E-05-2.62744E-05-2.89307E-05-1.06192E-06-1.77737E-19-1.71851E-18
 -1      4315 9.27430E-05-2.55360E-05-2.88004E-05-1.24587E-06-2.07200E-19-1.05167E-18
 -1      4316 7.63771E-05-1.80060E-05-2.50980E-05-1.54833E-07 7.65192E-20-1.10322E-18
 -1      4317 8.10394E-05-1.93153E-05-2.64586E-05 2.82459E-06 1.93188E-18-1.16471E-18
 -1      4318 9.60630E-05-2.58320E-05-3.01070E-05 5.31046E-08-1.12980E-19-7.99317E-19
 -1      4319 8.14934E-05-1.95454E-05-2.64592E-05-3.31989E-06-5.00196E-20-1.76611E-18
 -1      4320 9.06424E-05-2.38893E-05-2.85992E-05 2.44102E-07 3.29041E-20 3.27384E-19
 -1      4321 9.59083E-05-2.72697E-05-2.94182E-05-3.84309E-07-2.76020E-19-5.32809E-19
 -1      4322 9.28323E-05-2.55841E-05-2.88142E-05-8.53258E-07-4.30837E-19-1.18584E-18
 -1      4323 9.38741E-05-2.63289E-05-2.89470E-05-6.95502E-07-2.51370E-19-1.67257E-18
 -1      4324 9.34126E-05-2.60089E-05-2.88847E-05-7.64730E-07-9.30046E-20-1.60731E-18
 -3
    1PSTEP                         4           1           1          
  100CL  101 1.000000000        4324                     0    1           1
 -4  ERROR       1    1
 -5  STR(%)      1    1    0    0
 -1         1 1.18910E+01
 -1         2 2.46254E+01
 -1         3 1.60828E-02
 -1         4 1.83390E-02
 -1         5 1.40458E+01
 -1         6 1.31498E+01
 -1         7 1.31498E+01
 -1         8 3.64877E+00
 -1         9 1.80906E+00
 -1        10 1.28377E+00
 -1        11 1.03918E+00
 -1        12 8.93150E-01
 -1        13 8.03132E-01
 -1        14 7.49722E-01
 -1        15 7.51654E-01
 -1        16 8.07387E-01
 -1        17 8.94756E-01
 -1        18 1.04582E+00
 -1        19 1.29997E+00
 -1        20 1.82088E+00
 -1        21 3.49051E+00
 -1        22 8.63659E+00
 -1        23 1.31498E+01
 -1        24 4.33578E+00
 -1        25 3.36207E+00
 -1        26 2.13501E+00
 -1        27 1.38896E+00
 -1        28 1.05453E+00
 -1        29 8.25761E-01
 -1        30 6.58346E-01
 -1        31 5.32512E-01
 -1        32 4.38141E-01
 -1        33 3.68557E-01
 -1        34 3.18035E-01
 -1        35 3.53254E-01
 -1        36 4.08735E-01
 -1        37 4.74799E-01
 -1        38 5.45239E-01
 -1        39 6.21200E-01
 -1        40 7.92815E-01
 -1        41 9.92765E-01
 -1        42 1.20543E+00
 -1        43 1.34909E+00
 -1        44 1.34909E+00
 -1        45 1.39014E+00
 -1        46 1.39014E+00
 -1        47 1.71794E+00
 -1        48 2.70566E+00
 -1        49 3.84776E+00
 -1        50 3.91520E+00
 -1        51 3.97391E+00
 -1        52 3.97391E+00
 -1        53 3.03155E+00
 -1        54 1.79178E+00
 -1        55 1.38476E+00
 -1        56 1.38476E+00
 -1        57 1.35423E+00
 -1        58 1.35423E+00
 -1        59 1.23635E+00
 -1        60 1.03035E+00
 -1        61 8.21755E-01
 -1        62 6.47591E-01
 -1        63 5.30535E-01
 -1        64 4.49647E-01
 -1        65 3.68391E-01
 -1        66 2.93529E-01
 -1        67 2.27741E-01
 -1        68 1.70720E-01
 -1        69 1.49764E-01
 -1        70 1.20604E-01
 -1        71 6.68033E-02
 -1        72 1.40458E+01
 -1        73 3.41074E+00
 -1        74 2.43196E+00
 -1        75 1.68766E+00
 -1        76 1.17021E+00
 -1        77 9.47314E-01
 -1        78 7.85458E-01
 -1        79 6.58394E-01
 -1        80 5.59203E-01
 -1        81 4.84309E-01
 -1        82 4.31234E-01
 -1        83 3.97369E-01
 -1        84 3.79359E-01
 -1        85 4.06365E-01
 -1        86 4.70930E-01
 -1        87 5.39294E-01
 -1        88 6.00038E-01
 -1        89 6.35075E-01
 -1        90 6.48043E-01
 -1        91 8.50152E-01
 -1        92 1.03494E+00
 -1        93 1.11756E+00
 -1        94 1.39932E+00
 -1        95 1.49848E+00
 -1        96 1.68896E+00
 -1        97 1.96932E+00
 -1        98 2.98794E+00
 -1        99 3.34839E+00
 -1       100 3.83687E+00
 -1       101 3.83687E+00
 -1       102 3.24581E+00
 -1       103 1.97362E+00
 -1       104 1.29751E+00
 -1       105 1.08785E+00
 -1       106 1.28178E+00
 -1       107 1.28178E+00
 -1       108 1.27448E+00
 -1       109 1.14033E+00
 -1       110 9.62897E-01
 -1       111 8.00466E-01
 -1       112 6.36012E-01
 -1       113 4.85462E-01
 -1       114 3.64548E-01
 -1       115 2.91187E-01
 -1       116 2.26380E-01
 -1       117 1.69965E-01
 -1       118 1.19473E-01
 -1       119 8.74731E-02
 -1       120 5.29559E-02
 -1       121 2.16387E-02
 -1       122 2.18604E-02
 -1       123 2.18604E-02
 -1       124 1.36933E-02
 -1       125 8.77575E-03
 -1       126 1.66219E-02
 -1       127 2.16985E-02
 -1       128 2.32407E-02
 -1       129 2.32407E-02
 -1       130 2.16630E-02
 -1       131 1.64080E-02
 -1       132 8.86390E-03
 -1       133 1.39585E-02
 -1       134 2.16995E-02
 -1       135 2.88518E-02
 -1       136 3.07612E-02
 -1       137 2.50932E+01
 -1       138 4.79812E+01
 -1       139 4.79812E+01
 -1       140 1.91903E+01
 -1       141 1.18999E+01
 -1       142 1.23869E+01
 -1       143 1.23869E+01
 -1       144 1.34672E+01
 -1       145 1.34672E+01
 -1       146 1.34044E+01
 -1       147 3.10232E+01
 -1       148 3.18159E+01
 -1       149 2.80289E+01
 -1       150 2.50623E+01
 -1       151 2.43042E+01
 -1       152 2.43042E+01
 -1       153 4.27773E+01
 -1       154 4.27773E+01
 -1       155 1.61358E+01
 -1       156 1.18910E+01
 -1       157 1.18612E+01
 -1       158 1.26737E+01
 -1       159 1.26737E+01
 -1       160 1.16932E+01
 -1       161 2.32903E+01
 -1       162 4.83770E+01
 -1       163 4.83770E+01
 -1       164 2.46939E+01
 -1       165 6.05990E+00
 -1       166 2.28381E+00
 -1       167 1.50072E+00
 -1       168 1.15113E+00
 -1       169 9.67722E-01
 -1       170 8.59119E-01
 -1       171 7.91420E-01
 -1       172 7.51654E-01
 -1       173 7.94785E-01
 -1       174 8.62283E-01
 -1       175 9.75493E-01
 -1       176 1.16614E+00
 -1       177 1.51997E+00
 -1       178 2.25195E+00
 -1       179 3.92020E+00
 -1       180 1.40458E+01
 -1       181 4.33578E+00
 -1       182 3.36207E+00
 -1       183 2.13501E+00
 -1       184 1.46716E+00
 -1       185 1.05453E+00
 -1       186 8.25761E-01
 -1       187 6.58346E-01
 -1       188 5.32512E-01
 -1       189 4.38141E-01
 -1       190 3.68557E-01
 -1       191 3.18035E-01
 -1       192 3.10956E-01
 -1       193 3.53254E-01
 -1       194 4.08735E-01
 -1       195 4.74799E-01
 -1       196 5.81241E-01
 -1       197 7.17617E-01
 -1       198 8.36818E-01
 -1       199 9.92765E-01
 -1       200 1.20543E+00
 -1       201 1.34909E+00
 -1       202 1.32411E+00
 -1       203 1.39014E+00
 -1       204 1.22239E+00
 -1       205 1.71794E+00
 -1       206 2.70566E+00
 -1       207 3.84776E+00
 -1       208 3.91520E+00
 -1       209 3.97391E+00
 -1       210 3.03155E+00
 -1       211 1.85310E+00
 -1       212 1.33649E+00
 -1       213 1.38476E+00
 -1       214 1.28460E+00
 -1       215 1.35423E+00
 -1       216 1.23635E+00
 -1       217 1.03035E+00
 -1       218 8.62862E-01
 -1       219 7.45877E-01
 -1       220 6.13916E-01
 -1       221 4.81928E-01
 -1       222 3.68391E-01
 -1       223 2.93529E-01
 -1       224 2.27741E-01
 -1       225 1.76854E-01
 -1       226 1.49764E-01
 -1       227 1.20604E-01
 -1       228 6.74921E-02
 -1       229 3.41074E+00
 -1       230 2.43196E+00
 -1       231 1.68766E+00
 -1       232 1.17021E+00
 -1       233 9.47314E-01
 -1       234 7.85458E-01
 -1       235 6.58394E-01
 -1       236 5.59203E-01
 -1       237 4.84309E-01
 -1       238 4.31234E-01
 -1       239 3.97369E-01
 -1       240 3.79359E-01
 -1       241 3.72610E-01
 -1       242 4.06481E-01
 -1       243 4.70930E-01
 -1       244 5.39294E-01
 -1       245 6.00038E-01
 -1       246 6.35075E-01
 -1       247 7.26829E-01
 -1       248 8.50152E-01
 -1       249 1.03494E+00
 -1       250 1.11756E+00
 -1       251 1.39932E+00
 -1       252 1.49848E+00
 -1       253 1.68896E+00
 -1       254 2.08523E+00
 -1       255 2.98794E+00
 -1       256 3.34839E+00
 -1       257 3.83687E+00
 -1       258 3.24581E+00
 -1       259 1.97362E+00
 -1       260 1.29751E+00
 -1       261 1.02701E+00
 -1       262 1.08785E+00
 -1       263 1.28178E+00
 -1       264 1.27448E+00
 -1       265 1.14033E+00
 -1       266 9.62897E-01
 -1       267 8.01850E-01
 -1       268 6.55753E-01
 -1       269 5.14692E-01
 -1       270 3.88760E-01
 -1       271 2.91187E-01
 -1       272 2.26380E-01
 -1       273 1.69965E-01
 -1       274 1.20690E-01
 -1       275 8.74731E-02
 -1       276 5.29559E-02
 -1       277 3.32511E-02
 -1       278 3.60915E-02
 -1       279 3.60915E-02
 -1       280 1.90017E-02
 -1       281 3.10178E-02
 -1       282 4.14382E-02
 -1       283 4.57675E-02
 -1       284 4.57675E-02
 -1       285 4.57559E-02
 -1       286 4.12257E-02
 -1       287 3.12160E-02
 -1       288 1.89417E-02
 -1       289 3.67302E-02
 -1       290 3.67302E-02
 -1       291 4.33212E-02
 -1       292 3.30978E+01
 -1       293 2.90604E+01
 -1       294 4.79812E+01
 -1       295 2.19397E+01
 -1       296 1.11569E+01
 -1       297 1.18999E+01
 -1       298 1.23869E+01
 -1       299 1.21249E+01
 -1       300 1.34672E+01
 -1       301 1.16998E+01
 -1       302 1.34044E+01
 -1       303 3.18159E+01
 -1       304 3.18159E+01
 -1       305 2.57128E+01
 -1       306 2.83450E+01
 -1       307 2.83450E+01
 -1       308 3.62201E+01
 -1       309 4.27773E+01
 -1       310 1.79212E+01
 -1       311 1.10866E+01
 -1       312 1.18910E+01
 -1       313 1.18612E+01
 -1       314 1.16564E+01
 -1       315 1.26737E+01
 -1       316 1.15520E+01
 -1       317 1.16932E+01
 -1       318 2.45666E+01
 -1       319 4.83770E+01
 -1       320 3.02474E+01
 -1       321 3.30978E+01
 -1       322 1.03389E+00
 -1       323 2.46427E+00
 -1       324 7.85996E-01
 -1       325 6.88939E-01
 -1       326 6.26887E-01
 -1       327 5.83060E-01
 -1       328 5.86269E-01
 -1       329 6.29679E-01
 -1       330 6.96056E-01
 -1       331 7.90866E-01
 -1       332 9.25787E-01
 -1       333 1.14705E+00
 -1       334 1.31484E+00
 -1       335 2.20171E+00
 -1       336 1.91374E+00
 -1       337 1.74431E+00
 -1       338 1.28329E+00
 -1       339 9.23110E-01
 -1       340 6.78908E-01
 -1       341 5.77609E-01
 -1       342 4.87189E-01
 -1       343 4.08188E-01
 -1       344 3.40432E-01
 -1       345 2.82518E-01
 -1       346 2.46638E-01
 -1       347 2.81443E-01
 -1       348 3.24608E-01
 -1       349 3.91711E-01
 -1       350 5.15302E-01
 -1       351 6.41238E-01
 -1       352 7.55939E-01
 -1       353 8.54850E-01
 -1       354 9.65095E-01
 -1       355 1.03740E+00
 -1       356 9.85619E-01
 -1       357 7.87556E-01
 -1       358 8.39663E-01
 -1       359 1.12772E+00
 -1       360 1.69566E+00
 -1       361 2.24049E+00
 -1       362 2.42468E+00
 -1       363 2.38721E+00
 -1       364 2.33537E+00
 -1       365 1.77357E+00
 -1       366 1.26279E+00
 -1       367 8.52936E-01
 -1       368 8.07282E-01
 -1       369 9.43495E-01
 -1       370 1.03349E+00
 -1       371 9.82737E-01
 -1       372 8.76508E-01
 -1       373 7.83854E-01
 -1       374 6.78335E-01
 -1       375 5.59175E-01
 -1       376 4.42449E-01
 -1       377 3.37198E-01
 -1       378 2.47532E-01
 -1       379 1.76854E-01
 -1       380 1.32461E-01
 -1       381 9.29776E-02
 -1       382 6.41448E-02
 -1       383 1.14435E+00
 -1       384 9.02952E-01
 -1       385 7.13857E-01
 -1       386 5.51823E-01
 -1       387 4.67861E-01
 -1       388 4.14839E-01
 -1       389 3.71854E-01
 -1       390 3.36736E-01
 -1       391 3.10371E-01
 -1       392 2.92100E-01
 -1       393 3.06062E-01
 -1       394 3.60322E-01
 -1       395 4.82830E-01
 -1       396 6.10232E-01
 -1       397 7.30187E-01
 -1       398 8.30988E-01
 -1       399 9.15245E-01
 -1       400 9.16073E-01
 -1       401 9.16073E-01
 -1       402 7.78667E-01
 -1       403 6.55836E-01
 -1       404 8.47527E-01
 -1       405 1.54804E+00
 -1       406 1.92706E+00
 -1       407 1.93920E+00
 -1       408 1.88995E+00
 -1       409 2.17658E+00
 -1       410 2.10160E+00
 -1       411 1.46824E+00
 -1       412 8.62948E-01
 -1       413 5.76917E-01
 -1       414 8.39504E-01
 -1       415 9.24604E-01
 -1       416 9.59020E-01
 -1       417 9.17564E-01
 -1       418 8.23149E-01
 -1       419 7.26689E-01
 -1       420 6.08784E-01
 -1       421 4.88805E-01
 -1       422 3.78017E-01
 -1       423 2.81799E-01
 -1       424 2.15234E-01
 -1       425 1.64981E-01
 -1       426 1.20690E-01
 -1       427 8.01718E-02
 -1       428 4.30512E-02
 -1       429 3.97611E-02
 -1       430 6.52745E-02
 -1       431 6.52745E-02
 -1       432 4.24122E-02
 -1       433 5.83034E-02
 -1       434 6.60549E-02
 -1       435 6.60549E-02
 -1       436 6.58849E-02
 -1       437 6.58849E-02
 -1       438 5.84909E-02
 -1       439 4.27788E-02
 -1       440 4.21592E-02
 -1       441 5.92684E-02
 -1       442 2.90604E+01
 -1       443 3.30978E+01
 -1       444 3.17524E+01
 -1       445 1.66058E+01
 -1       446 9.95784E+00
 -1       447 9.12275E-01
 -1       448 9.52500E+00
 -1       449 1.07754E+01
 -1       450 1.04924E+01
 -1       451 8.39293E+00
 -1       452 7.25309E+00
 -1       453 1.21009E+01
 -1       454 2.14023E+01
 -1       455 2.54441E+01
 -1       456 3.54094E+01
 -1       457 3.54094E+01
 -1       458 2.57362E+01
 -1       459 2.49437E+01
 -1       460 1.41520E+01
 -1       461 8.17936E+00
 -1       462 7.67314E+00
 -1       463 9.88288E+00
 -1       464 1.09047E+01
 -1       465 1.06064E+01
 -1       466 8.47890E+00
 -1       467 6.91184E+00
 -1       468 1.04379E+01
 -1       469 1.76091E+01
 -1       470 3.02474E+01
 -1       471 3.05109E+01
 -1       472 7.32049E+00
 -1       473 8.73943E+00
 -1       474 1.06007E+00
 -1       475 4.81328E-01
 -1       476 5.06196E-01
 -1       477 4.26850E-01
 -1       478 4.52699E-01
 -1       479 4.82340E-01
 -1       480 5.06618E-01
 -1       481 5.06618E-01
 -1       482 5.93800E-01
 -1       483 9.02952E-01
 -1       484 7.97974E-01
 -1       485 7.10828E-01
 -1       486 5.93955E-01
 -1       487 4.76584E-01
 -1       488 3.93452E-01
 -1       489 3.44636E-01
 -1       490 2.91496E-01
 -1       491 2.37337E-01
 -1       492 1.82830E-01
 -1       493 1.93847E-01
 -1       494 2.24615E-01
 -1       495 3.22593E-01
 -1       496 4.38248E-01
 -1       497 5.62436E-01
 -1       498 6.88573E-01
 -1       499 8.04376E-01
 -1       500 8.92181E-01
 -1       501 1.01821E+00
 -1       502 1.14950E+00
 -1       503 1.21446E+00
 -1       504 1.34098E+00
 -1       505 1.60290E+00
 -1       506 1.80678E+00
 -1       507 1.82536E+00
 -1       508 2.65549E+00
 -1       509 3.01198E+00
 -1       510 2.84268E+00
 -1       511 1.95618E+00
 -1       512 1.75410E+00
 -1       513 1.60881E+00
 -1       514 1.41595E+00
 -1       515 1.22668E+00
 -1       516 1.18071E+00
 -1       517 1.05944E+00
 -1       518 9.19365E-01
 -1       519 8.36834E-01
 -1       520 7.30146E-01
 -1       521 6.11059E-01
 -1       522 4.93861E-01
 -1       523 3.86870E-01
 -1       524 2.94120E-01
 -1       525 2.16833E-01
 -1       526 1.54711E-01
 -1       527 1.06347E-01
 -1       528 5.51823E-01
 -1       529 4.67861E-01
 -1       530 4.03927E-01
 -1       531 3.41269E-01
 -1       532 2.82201E-01
 -1       533 2.26744E-01
 -1       534 2.16375E-01
 -1       535 2.49044E-01
 -1       536 3.04357E-01
 -1       537 4.18185E-01
 -1       538 5.39278E-01
 -1       539 6.60105E-01
 -1       540 7.66916E-01
 -1       541 8.55277E-01
 -1       542 9.32011E-01
 -1       543 1.01190E+00
 -1       544 1.01752E+00
 -1       545 1.05979E+00
 -1       546 1.18096E+00
 -1       547 1.39080E+00
 -1       548 1.66087E+00
 -1       549 2.16853E+00
 -1       550 2.42313E+00
 -1       551 2.43319E+00
 -1       552 1.94929E+00
 -1       553 1.56741E+00
 -1       554 1.28815E+00
 -1       555 1.16144E+00
 -1       556 9.65404E-01
 -1       557 1.03062E+00
 -1       558 9.94803E-01
 -1       559 9.00861E-01
 -1       560 8.27482E-01
 -1       561 7.41139E-01
 -1       562 6.32307E-01
 -1       563 5.17338E-01
 -1       564 4.08208E-01
 -1       565 3.11391E-01
 -1       566 2.29604E-01
 -1       567 1.63331E-01
 -1       568 1.10417E-01
 -1       569 7.77763E-02
 -1       570 7.38683E-02
 -1       571 8.71364E-02
 -1       572 6.48987E-02
 -1       573 5.99104E-02
 -1       574 1.19556E+01
 -1       575 8.86844E-02
 -1       576 8.86844E-02
 -1       577 8.85493E-02
 -1       578 8.74097E-02
 -1       579 7.40287E-02
 -1       580 8.33204E-02
 -1       581 7.64753E-02
 -1       582 8.39331E+00
 -1       583 7.13857E-01
 -1       584 3.17524E+01
 -1       585 3.05109E+01
 -1       586 4.14542E+00
 -1       587 1.40306E+01
 -1       588 8.16169E+00
 -1       589 1.83911E+01
 -1       590 6.94756E+00
 -1       591 4.52433E-01
 -1       592 7.91254E+00
 -1       593 9.55255E+00
 -1       594 5.34694E+00
 -1       595 3.57574E+00
 -1       596 4.57329E+00
 -1       597 7.92579E+00
 -1       598 1.54301E+01
 -1       599 2.54441E+01
 -1       600 3.54094E+01
 -1       601 2.57362E+01
 -1       602 1.06822E+01
 -1       603 4.09390E+00
 -1       604 6.13860E+00
 -1       605 7.96363E+00
 -1       606 7.81577E+00
 -1       607 6.69044E+00
 -1       608 4.98002E+00
 -1       609 8.10798E+00
 -1       610 1.78896E+01
 -1       611 8.74045E-01
 -1       612 1.32619E+00
 -1       613 2.11318E+01
 -1       614 7.09564E-01
 -1       615 5.68347E+00
 -1       616 6.41448E-02
 -1       617 5.49472E+00
 -1       618 3.55542E-01
 -1       619 3.39079E-01
 -1       620 3.59726E-01
 -1       621 3.36721E-01
 -1       622 5.38275E-01
 -1       623 5.19338E-01
 -1       624 7.94222E+00
 -1       625 7.02384E+00
 -1       626 3.98524E-01
 -1       627 3.79247E-01
 -1       628 3.30164E-01
 -1       629 2.68499E-01
 -1       630 2.28362E-01
 -1       631 1.86178E-01
 -1       632 1.36583E-01
 -1       633 1.09555E-01
 -1       634 1.52017E-01
 -1       635 2.42599E-01
 -1       636 3.46565E-01
 -1       637 4.65318E-01
 -1       638 5.99430E-01
 -1       639 7.47630E-01
 -1       640 9.04880E-01
 -1       641 1.05856E+00
 -1       642 1.25642E+00
 -1       643 1.56060E+00
 -1       644 1.87160E+00
 -1       645 3.11871E+00
 -1       646 1.80678E+00
 -1       647 2.59611E+00
 -1       648 2.65549E+00
 -1       649 3.71983E+00
 -1       650 3.84395E+00
 -1       651 3.51379E+00
 -1       652 2.57882E+00
 -1       653 2.62563E+00
 -1       654 2.22222E+00
 -1       655 1.77834E+00
 -1       656 1.52277E+00
 -1       657 1.23107E+00
 -1       658 1.05944E+00
 -1       659 9.19365E-01
 -1       660 7.80378E-01
 -1       661 6.39176E-01
 -1       662 5.08167E-01
 -1       663 3.93102E-01
 -1       664 2.95803E-01
 -1       665 2.20293E-01
 -1       666 1.62118E-01
 -1       667 1.42634E-01
 -1       668 3.14857E-01
 -1       669 1.29893E+01
 -1       670 3.88888E-01
 -1       671 2.31409E-01
 -1       672 1.80580E-01
 -1       673 1.36666E-01
 -1       674 1.60443E-01
 -1       675 2.34833E-01
 -1       676 3.38459E-01
 -1       677 4.54110E-01
 -1       678 5.80074E-01
 -1       679 7.11529E-01
 -1       680 8.38992E-01
 -1       681 9.46136E-01
 -1       682 1.11896E+00
 -1       683 1.31850E+00
 -1       684 1.47518E+00
 -1       685 1.73209E+00
 -1       686 2.00113E+00
 -1       687 1.98194E+00
 -1       688 2.62597E+00
 -1       689 4.13716E+00
 -1       690 3.92494E+00
 -1       691 4.48463E+00
 -1       692 2.76428E+00
 -1       693 2.07058E+00
 -1       694 1.92244E+00
 -1       695 1.55654E+00
 -1       696 1.44013E+00
 -1       697 1.25733E+00
 -1       698 1.05701E+00
 -1       699 9.20272E-01
 -1       700 8.07158E-01
 -1       701 6.81860E-01
 -1       702 5.58493E-01
 -1       703 4.45105E-01
 -1       704 3.45650E-01
 -1       705 2.61458E-01
 -1       706 1.92232E-01
 -1       707 1.35766E-01
 -1       708 9.46839E-02
 -1       709 1.19499E-01
 -1       710 1.28682E-01
 -1       711 1.12279E-01
 -1       712 4.13716E+00
 -1       713 1.18838E-01
 -1       714 1.19499E-01
 -1       715 1.18838E-01
 -1       716 1.12828E-01
 -1       717 1.42634E-01
 -1       718 4.63540E-01
 -1       719 4.08288E+00
 -1       720 1.35962E+01
 -1       721 9.22272E+00
 -1       722 1.51268E+01
 -1       723 2.77285E-01
 -1       724 1.04849E+01
 -1       725 1.11401E+01
 -1       726 4.01996E-01
 -1       727 3.59726E-01
 -1       728 3.00312E+00
 -1       729 2.98072E+00
 -1       730 9.06230E+00
 -1       731 1.34464E+01
 -1       732 3.59347E-01
 -1       733 4.31423E+00
 -1       734 1.70497E+01
 -1       735 4.90932E+00
 -1       736 6.89644E+00
 -1       737 3.20023E+00
 -1       738 5.30036E+00
 -1       739 4.48463E+00
 -1       740 4.59941E+00
 -1       741 6.96696E+00
 -1       742 1.40850E+01
 -1       743 3.51379E+00
 -1       744 1.45356E+01
 -1       745 5.91857E+00
 -1       746 4.12406E-01
 -1       747 3.38370E-01
 -1       748 1.01626E+01
 -1       749 8.63299E-02
 -1       750 4.36370E-01
 -1       751 7.22009E-02
 -1       752 5.18440E+00
 -1       753 4.03803E+00
 -1       754 8.79200E+00
 -1       755 5.49775E+00
 -1       756 3.54416E-01
 -1       757 4.48256E+00
 -1       758 2.42375E-01
 -1       759 2.84354E-01
 -1       760 1.92130E-01
 -1       761 2.42744E-01
 -1       762 2.25632E-01
 -1       763 1.89250E-01
 -1       764 1.48633E-01
 -1       765 1.11392E-01
 -1       766 9.64876E-02
 -1       767 1.17736E-01
 -1       768 1.89153E-01
 -1       769 2.82432E-01
 -1       770 3.90254E-01
 -1       771 5.09510E-01
 -1       772 6.51141E-01
 -1       773 8.37007E-01
 -1       774 1.07907E+00
 -1       775 1.38946E+00
 -1       776 1.73207E+00
 -1       777 2.16975E+00
 -1       778 3.47201E+00
 -1       779 3.61243E+00
 -1       780 3.62315E+00
 -1       781 2.97190E+00
 -1       782 2.37041E+00
 -1       783 1.76922E+00
 -1       784 1.44596E+00
 -1       785 1.14585E+00
 -1       786 8.98464E-01
 -1       787 7.07395E-01
 -1       788 5.53684E-01
 -1       789 4.34888E-01
 -1       790 3.34572E-01
 -1       791 2.51250E-01
 -1       792 1.85823E-01
 -1       793 1.45095E-01
 -1       794 8.34845E-02
 -1       795 1.33095E-01
 -1       796 1.59183E-01
 -1       797 2.47066E-01
 -1       798 3.50180E-01
 -1       799 4.75620E-01
 -1       800 6.22259E-01
 -1       801 7.87890E-01
 -1       802 9.80941E-01
 -1       803 1.19818E+00
 -1       804 1.41490E+00
 -1       805 1.84986E+00
 -1       806 2.30244E+00
 -1       807 3.56491E+00
 -1       808 2.64334E+00
 -1       809 2.89325E+00
 -1       810 2.36062E+00
 -1       811 2.63856E+00
 -1       812 2.12903E+00
 -1       813 1.68669E+00
 -1       814 1.34967E+00
 -1       815 1.13128E+00
 -1       816 9.22355E-01
 -1       817 7.45277E-01
 -1       818 5.92201E-01
 -1       819 4.61317E-01
 -1       820 3.53832E-01
 -1       821 2.68742E-01
 -1       822 2.00140E-01
 -1       823 1.44262E-01
 -1       824 1.04830E-01
 -1       825 1.69403E-01
 -1       826 1.50205E-01
 -1       827 8.69709E+00
 -1       828 2.77434E-01
 -1       829 9.64304E+00
 -1       830 1.53528E-01
 -1       831 9.04797E-02
 -1       832 2.67347E-01
 -1       833 5.24138E+00
 -1       834 5.42694E+00
 -1       835 2.28200E-01
 -1       836 6.07929E+00
 -1       837 4.45396E+00
 -1       838 7.28126E+00
 -1       839 9.22604E+00
 -1       840 9.64304E+00
 -1       841 9.90038E+00
 -1       842 8.14506E+00
 -1       843 1.53528E-01
 -1       844 8.52093E+00
 -1       845 2.02152E-01
 -1       846 5.18440E+00
 -1       847 2.77606E+00
 -1       848 2.76361E-01
 -1       849 2.77193E-01
 -1       850 6.12319E+00
 -1       851 1.18862E-01
 -1       852 2.96161E-01
 -1       853 2.21074E-01
 -1       854 5.21961E+00
 -1       855 1.73479E-01
 -1       856 7.01584E+00
 -1       857 1.54675E-01
 -1       858 2.68483E-01
 -1       859 1.99704E-01
 -1       860 1.54675E-01
 -1       861 6.68228E+00
 -1       862 2.43681E-01
 -1       863 2.84354E-01
 -1       864 6.47519E+00
 -1       865 1.54502E-01
 -1       866 1.32194E-01
 -1       867 1.09853E-01
 -1       868 1.25177E-01
 -1       869 1.40657E-01
 -1       870 1.83395E-01
 -1       871 2.72213E-01
 -1       872 3.78059E-01
 -1       873 5.03531E-01
 -1       874 6.51141E-01
 -1       875 8.21697E-01
 -1       876 1.02930E+00
 -1       877 1.35638E+00
 -1       878 1.89420E+00
 -1       879 2.80618E+00
 -1       880 4.00625E+00
 -1       881 2.04276E-01
 -1       882 3.81304E+00
 -1       883 2.46470E+00
 -1       884 2.04912E+00
 -1       885 1.42672E+00
 -1       886 1.09657E+00
 -1       887 8.65712E-01
 -1       888 6.98798E-01
 -1       889 5.53684E-01
 -1       890 4.31020E-01
 -1       891 3.29150E-01
 -1       892 2.47071E-01
 -1       893 3.86531E+00
 -1       894 3.36323E-01
 -1       895 2.36347E-01
 -1       896 5.82451E-01
 -1       897 7.24686E-01
 -1       898 9.25041E-01
 -1       899 1.20283E+00
 -1       900 1.63407E+00
 -1       901 2.15261E+00
 -1       902 2.74571E+00
 -1       903 3.68433E+00
 -1       904 3.92919E+00
 -1       905 2.74610E+00
 -1       906 1.94291E+00
 -1       907 1.37408E+00
 -1       908 1.02358E+00
 -1       909 8.26419E-01
 -1       910 6.86659E-01
 -1       911 5.54153E-01
 -1       912 4.36312E-01
 -1       913 3.35591E-01
 -1       914 2.51042E-01
 -1       915 1.83990E-01
 -1       916 1.23041E-01
 -1       917 6.34170E+00
 -1       918 6.63344E+00
 -1       919 4.51833E-01
 -1       920 1.09121E-01
 -1       921 1.61307E-01
 -1       922 1.57524E-01
 -1       923 2.61972E-01
 -1       924 1.99704E-01
 -1       925 1.36391E-01
 -1       926 7.22907E+00
 -1       927 6.63344E+00
 -1       928 4.72888E+00
 -1       929 7.22907E+00
 -1       930 4.50524E+00
 -1       931 2.03161E-01
 -1       932 1.92568E-01
 -1       933 1.20272E-01
 -1       934 1.22742E-01
 -1       935 1.54012E-01
 -1       936 5.10708E+00
 -1       937 3.05481E-01
 -1       938 5.03127E+00
 -1       939 2.10161E-01
 -1       940 2.36859E-01
 -1       941 1.83146E-01
 -1       942 4.90332E+00
 -1       943 2.10161E-01
 -1       944 5.77937E+00
 -1       945 2.43681E-01
 -1       946 5.42061E+00
 -1       947 2.03161E-01
 -1       948 2.95170E+00
 -1       949 1.12415E-01
 -1       950 1.36622E-01
 -1       951 1.58119E-01
 -1       952 1.81624E-01
 -1       953 2.39194E-01
 -1       954 3.32753E-01
 -1       955 4.48841E-01
 -1       956 5.95123E-01
 -1       957 7.83252E-01
 -1       958 1.02930E+00
 -1       959 1.35638E+00
 -1       960 1.77839E+00
 -1       961 2.45885E+00
 -1       962 1.09409E-01
 -1       963 1.73057E-01
 -1       964 1.54810E-01
 -1       965 2.46470E+00
 -1       966 1.88806E+00
 -1       967 1.42672E+00
 -1       968 1.09657E+00
 -1       969 8.40481E-01
 -1       970 6.46341E-01
 -1       971 4.96069E-01
 -1       972 3.78485E-01
 -1       973 2.84334E-01
 -1       974 2.12978E+00
 -1       975 9.25041E-01
 -1       976 7.24686E-01
 -1       977 1.96781E+00
 -1       978 3.02693E+00
 -1       979 4.21985E+00
 -1       980 5.35729E+00
 -1       981 5.35729E+00
 -1       982 1.75031E+00
 -1       983 1.27253E+00
 -1       984 9.86533E-01
 -1       985 7.70808E-01
 -1       986 5.99512E-01
 -1       987 4.63217E-01
 -1       988 3.55922E-01
 -1       989 2.68812E-01
 -1       990 2.03655E-01
 -1       991 1.06862E-01
 -1       992 2.43681E-01
 -1       993 1.06299E-01
 -1       994 3.09616E-01
 -1       995 4.72216E+00
 -1       996 1.32319E+00
 -1       997 3.05481E-01
 -1       998 1.42990E-01
 -1       999 3.85876E+00
 -1      1000 3.15311E+00
 -1      1001 1.31038E-01
 -1      1002 1.20638E-01
 -1      1003 2.17909E-01
 -1      1004 5.56994E-01
 -1      1005 4.54993E+00
 -1      1006 2.38045E-01
 -1      1007 2.38045E-01
 -1      1008 4.20943E-01
 -1      1009 1.42167E-01
 -1      1010 4.12407E+00
 -1      1011 2.31274E-01
 -1      1012 4.27594E+00
 -1      1013 1.43791E-01
 -1      1014 1.48312E-01
 -1      1015 1.36825E-01
 -1      1016 1.63387E-01
 -1      1017 1.89412E-01
 -1      1018 2.20698E-01
 -1      1019 2.72614E-01
 -1      1020 3.56883E-01
 -1      1021 4.77273E-01
 -1      1022 6.39252E-01
 -1      1023 8.66976E-01
 -1      1024 1.20141E+00
 -1      1025 1.73113E+00
 -1      1026 3.32763E+00
 -1      1027 3.73256E+00
 -1      1028 1.50913E-01
 -1      1029 7.77912E-02
 -1      1030 1.22088E-01
 -1      1031 1.95686E+00
 -1      1032 1.30682E+00
 -1      1033 9.40001E-01
 -1      1034 6.94631E-01
 -1      1035 5.20622E-01
 -1      1036 3.93537E-01
 -1      1037 3.28748E-01
 -1      1038 1.75031E+00
 -1      1039 1.06940E+00
 -1      1040 8.28385E-01
 -1      1041 3.33072E+00
 -1      1042 2.15227E+00
 -1      1043 3.05931E-01
 -1      1044 1.84434E+00
 -1      1045 9.47978E-01
 -1      1046 7.14139E-01
 -1      1047 5.41957E-01
 -1      1048 4.13185E-01
 -1      1049 2.30761E+00
 -1      1050 3.07610E+00
 -1      1051 1.63097E-01
 -1      1052 8.97657E-02
 -1      1053 1.44544E+00
 -1      1054 1.06299E-01
 -1      1055 3.53499E-01
 -1      1056 1.51789E-01
 -1      1057 1.15813E-01
 -1      1058 2.92342E-01
 -1      1059 1.27253E+00
 -1      1060 1.44790E-01
 -1      1061 1.36411E-01
 -1      1062 6.32536E-01
 -1      1063 2.59431E-01
 -1      1064 2.91759E-01
 -1      1065 4.73839E-01
 -1      1066 3.41839E+00
 -1      1067 7.77912E-02
 -1      1068 1.51789E-01
 -1      1069 3.73256E+00
 -1      1070 1.89412E-01
 -1      1071 2.19253E-01
 -1      1072 2.83401E-01
 -1      1073 3.40181E-01
 -1      1074 4.22782E-01
 -1      1075 5.33465E-01
 -1      1076 6.86828E-01
 -1      1077 9.09671E-01
 -1      1078 1.23840E+00
 -1      1079 3.07610E+00
 -1      1080 8.93961E-02
 -1      1081 1.84212E+00
 -1      1082 1.03506E+00
 -1      1083 6.95697E-01
 -1      1084 5.31951E-01
 -1      1085 4.12793E-01
 -1      1086 3.28748E-01
 -1      1087 1.73592E-01
 -1      1088 1.88018E+00
 -1      1089 4.05629E-01
 -1      1090 1.49080E-01
 -1      1091 1.80688E+00
 -1      1092 5.41189E-01
 -1      1093 7.34389E-01
 -1      1094 1.80688E+00
 -1      1095 2.09655E+00
 -1      1096 7.86142E-01
 -1      1097 3.82825E-01
 -1      1098 8.10588E-02
 -1      1099 3.12442E-01
 -1      1100 1.05206E-01
 -1      1101 1.62398E-01
 -1      1102 1.07801E+00
 -1      1103 1.63387E-01
 -1      1104 1.73592E-01
 -1      1105 6.33276E-01
 -1      1106 3.07996E-01
 -1      1107 2.02084E-01
 -1      1108 2.66023E-01
 -1      1109 4.78617E-01
 -1      1110 2.69102E+00
 -1      1111 1.47370E+00
 -1      1112 1.04931E+00
 -1      1113 1.62398E-01
 -1      1114 2.95203E-01
 -1      1115 1.04695E+00
 -1      1116 2.02084E-01
 -1      1117 6.16088E-01
 -1      1118 4.72707E-01
 -1      1119 1.62398E-01
 -1      1120 1.59297E+00
 -1      1121 3.70131E-01
 -1      1122 2.95203E-01
 -1      1123 1.31498E+01
 -1      1124 8.39928E+00
 -1      1125 2.72891E+00
 -1      1126 1.54642E+00
 -1      1127 1.16148E+00
 -1      1128 9.66166E-01
 -1      1129 8.48141E-01
 -1      1130 7.76427E-01
 -1      1131 7.50688E-01
 -1      1132 7.79520E-01
 -1      1133 8.51071E-01
 -1      1134 9.70289E-01
 -1      1135 1.17290E+00
 -1      1136 1.56043E+00
 -1      1137 2.65569E+00
 -1      1138 6.06355E+00
 -1      1139 1.13412E+01
 -1      1140 1.31498E+01
 -1      1141 8.74278E+00
 -1      1142 3.84892E+00
 -1      1143 2.74854E+00
 -1      1144 1.76198E+00
 -1      1145 1.22174E+00
 -1      1146 9.40143E-01
 -1      1147 7.42053E-01
 -1      1148 5.95429E-01
 -1      1149 4.85326E-01
 -1      1150 4.03349E-01
 -1      1151 3.43296E-01
 -1      1152 3.35644E-01
 -1      1153 3.80995E-01
 -1      1154 4.41767E-01
 -1      1155 5.10019E-01
 -1      1156 5.83219E-01
 -1      1157 7.07007E-01
 -1      1158 8.92790E-01
 -1      1159 1.09910E+00
 -1      1160 1.27726E+00
 -1      1161 1.34909E+00
 -1      1162 1.36962E+00
 -1      1163 1.39014E+00
 -1      1164 1.55404E+00
 -1      1165 2.21180E+00
 -1      1166 3.27671E+00
 -1      1167 3.88148E+00
 -1      1168 3.94456E+00
 -1      1169 3.97391E+00
 -1      1170 3.50273E+00
 -1      1171 2.41167E+00
 -1      1172 1.58827E+00
 -1      1173 1.38476E+00
 -1      1174 1.36950E+00
 -1      1175 1.35423E+00
 -1      1176 1.29529E+00
 -1      1177 1.13335E+00
 -1      1178 9.26051E-01
 -1      1179 7.34673E-01
 -1      1180 5.89063E-01
 -1      1181 4.90091E-01
 -1      1182 4.09019E-01
 -1      1183 3.30960E-01
 -1      1184 2.60635E-01
 -1      1185 1.99231E-01
 -1      1186 1.60242E-01
 -1      1187 1.35184E-01
 -1      1188 9.37038E-02
 -1      1189 4.25711E-02
 -1      1190 1.40458E+01
 -1      1191 8.72828E+00
 -1      1192 2.92135E+00
 -1      1193 2.05981E+00
 -1      1194 1.42893E+00
 -1      1195 1.05876E+00
 -1      1196 8.66386E-01
 -1      1197 7.21926E-01
 -1      1198 6.08798E-01
 -1      1199 5.21756E-01
 -1      1200 4.57772E-01
 -1      1201 4.14302E-01
 -1      1202 3.88364E-01
 -1      1203 3.92862E-01
 -1      1204 4.38647E-01
 -1      1205 5.05112E-01
 -1      1206 5.69666E-01
 -1      1207 6.17556E-01
 -1      1208 6.41559E-01
 -1      1209 7.49097E-01
 -1      1210 9.42549E-01
 -1      1211 1.07625E+00
 -1      1212 1.25844E+00
 -1      1213 1.44890E+00
 -1      1214 1.59372E+00
 -1      1215 1.82914E+00
 -1      1216 2.47863E+00
 -1      1217 3.16816E+00
 -1      1218 3.59263E+00
 -1      1219 3.83687E+00
 -1      1220 3.54134E+00
 -1      1221 2.60972E+00
 -1      1222 1.63556E+00
 -1      1223 1.19268E+00
 -1      1224 1.18482E+00
 -1      1225 1.28178E+00
 -1      1226 1.27813E+00
 -1      1227 1.20741E+00
 -1      1228 1.05161E+00
 -1      1229 8.81681E-01
 -1      1230 7.18239E-01
 -1      1231 5.60737E-01
 -1      1232 4.25005E-01
 -1      1233 3.27867E-01
 -1      1234 2.58783E-01
 -1      1235 1.98172E-01
 -1      1236 1.44719E-01
 -1      1237 1.03473E-01
 -1      1238 7.02145E-02
 -1      1239 3.45194E-02
 -1      1240 1.88608E-02
 -1      1241 2.17496E-02
 -1      1242 2.18604E-02
 -1      1243 1.77768E-02
 -1      1244 1.12345E-02
 -1      1245 1.26988E-02
 -1      1246 1.91602E-02
 -1      1247 2.24696E-02
 -1      1248 2.32407E-02
 -1      1249 2.24518E-02
 -1      1250 1.90355E-02
 -1      1251 1.26360E-02
 -1      1252 1.14112E-02
 -1      1253 1.78290E-02
 -1      1254 2.52757E-02
 -1      1255 2.98065E-02
 -1      1256 2.45501E-02
 -1      1257 2.48593E+01
 -1      1258 3.65372E+01
 -1      1259 4.79812E+01
 -1      1260 3.35858E+01
 -1      1261 1.55451E+01
 -1      1262 1.21434E+01
 -1      1263 1.23869E+01
 -1      1264 1.29271E+01
 -1      1265 1.34672E+01
 -1      1266 1.34358E+01
 -1      1267 2.22138E+01
 -1      1268 3.14195E+01
 -1      1269 2.99224E+01
 -1      1270 2.65456E+01
 -1      1271 2.46832E+01
 -1      1272 2.43042E+01
 -1      1273 3.35407E+01
 -1      1274 4.27773E+01
 -1      1275 2.94566E+01
 -1      1276 1.40134E+01
 -1      1277 1.18910E+01
 -1      1278 1.18761E+01
 -1      1279 1.22675E+01
 -1      1280 1.26737E+01
 -1      1281 1.21835E+01
 -1      1282 1.74917E+01
 -1      1283 3.58336E+01
 -1      1284 4.83770E+01
 -1      1285 3.65355E+01
 -1      1286 2.46597E+01
 -1      1287 1.31498E+01
 -1      1288 4.85433E+00
 -1      1289 9.60484E+00
 -1      1290 2.04644E+00
 -1      1291 2.96629E+00
 -1      1292 4.17185E+00
 -1      1293 1.39225E+00
 -1      1294 1.65489E+00
 -1      1295 1.89227E+00
 -1      1296 1.09515E+00
 -1      1297 1.21745E+00
 -1      1298 1.32593E+00
 -1      1299 9.30436E-01
 -1      1300 1.00345E+00
 -1      1301 1.05942E+00
 -1      1302 8.31126E-01
 -1      1303 8.76135E-01
 -1      1304 9.13420E-01
 -1      1305 7.70571E-01
 -1      1306 7.97276E-01
 -1      1307 8.25270E-01
 -1      1308 7.51654E-01
 -1      1309 7.50688E-01
 -1      1310 7.71537E-01
 -1      1311 8.01086E-01
 -1      1312 7.73219E-01
 -1      1313 7.73219E-01
 -1      1314 8.78519E-01
 -1      1315 8.34835E-01
 -1      1316 8.28534E-01
 -1      1317 1.01066E+00
 -1      1318 9.35124E-01
 -1      1319 9.18888E-01
 -1      1320 1.23306E+00
 -1      1321 1.10598E+00
 -1      1322 1.07082E+00
 -1      1323 1.67043E+00
 -1      1324 1.40997E+00
 -1      1325 1.34306E+00
 -1      1326 2.87123E+00
 -1      1327 2.03642E+00
 -1      1328 1.88596E+00
 -1      1329 6.27839E+00
 -1      1330 3.70535E+00
 -1      1331 3.08608E+00
 -1      1332 1.40458E+01
 -1      1333 1.13412E+01
 -1      1334 8.98301E+00
 -1      1335 1.40458E+01
 -1      1336 8.74278E+00
 -1      1337 4.33578E+00
 -1      1338 3.84892E+00
 -1      1339 3.36207E+00
 -1      1340 3.84892E+00
 -1      1341 2.74854E+00
 -1      1342 2.13501E+00
 -1      1343 2.74854E+00
 -1      1344 1.80108E+00
 -1      1345 1.42806E+00
 -1      1346 1.80108E+00
 -1      1347 1.22174E+00
 -1      1348 1.05453E+00
 -1      1349 1.26084E+00
 -1      1350 9.40143E-01
 -1      1351 8.25761E-01
 -1      1352 9.40143E-01
 -1      1353 7.42053E-01
 -1      1354 6.58346E-01
 -1      1355 7.42053E-01
 -1      1356 5.95429E-01
 -1      1357 5.32512E-01
 -1      1358 5.95429E-01
 -1      1359 4.85326E-01
 -1      1360 4.38141E-01
 -1      1361 4.85326E-01
 -1      1362 4.03349E-01
 -1      1363 3.68557E-01
 -1      1364 4.03349E-01
 -1      1365 3.43296E-01
 -1      1366 3.18035E-01
 -1      1367 3.43296E-01
 -1      1368 3.14495E-01
 -1      1369 3.32105E-01
 -1      1370 3.14495E-01
 -1      1371 3.53254E-01
 -1      1372 3.80995E-01
 -1      1373 3.32105E-01
 -1      1374 4.08735E-01
 -1      1375 4.41767E-01
 -1      1376 3.80995E-01
 -1      1377 4.74799E-01
 -1      1378 5.10019E-01
 -1      1379 4.41767E-01
 -1      1380 5.63240E-01
 -1      1381 6.01220E-01
 -1      1382 5.28020E-01
 -1      1383 6.69409E-01
 -1      1384 7.55216E-01
 -1      1385 6.49429E-01
 -1      1386 8.14817E-01
 -1      1387 9.14792E-01
 -1      1388 7.77218E-01
 -1      1389 9.92765E-01
 -1      1390 1.09910E+00
 -1      1391 9.14792E-01
 -1      1392 1.20543E+00
 -1      1393 1.27726E+00
 -1      1394 1.09910E+00
 -1      1395 1.34909E+00
 -1      1396 1.34909E+00
 -1      1397 1.27726E+00
 -1      1398 1.33660E+00
 -1      1399 1.35713E+00
 -1      1400 1.33660E+00
 -1      1401 1.39014E+00
 -1      1402 1.39014E+00
 -1      1403 1.35713E+00
 -1      1404 1.30627E+00
 -1      1405 1.47017E+00
 -1      1406 1.30627E+00
 -1      1407 1.71794E+00
 -1      1408 2.21180E+00
 -1      1409 1.47017E+00
 -1      1410 2.70566E+00
 -1      1411 3.27671E+00
 -1      1412 2.21180E+00
 -1      1413 3.84776E+00
 -1      1414 3.88148E+00
 -1      1415 3.27671E+00
 -1      1416 3.91520E+00
 -1      1417 3.94456E+00
 -1      1418 3.88148E+00
 -1      1419 3.97391E+00
 -1      1420 3.97391E+00
 -1      1421 3.94456E+00
 -1      1422 3.50273E+00
 -1      1423 3.03155E+00
 -1      1424 3.50273E+00
 -1      1425 2.44232E+00
 -1      1426 1.82244E+00
 -1      1427 2.44232E+00
 -1      1428 1.56414E+00
 -1      1429 1.36063E+00
 -1      1430 1.59479E+00
 -1      1431 1.38476E+00
 -1      1432 1.38476E+00
 -1      1433 1.36063E+00
 -1      1434 1.33468E+00
 -1      1435 1.31941E+00
 -1      1436 1.33468E+00
 -1      1437 1.35423E+00
 -1      1438 1.35423E+00
 -1      1439 1.31941E+00
 -1      1440 1.29529E+00
 -1      1441 1.23635E+00
 -1      1442 1.29529E+00
 -1      1443 1.13335E+00
 -1      1444 1.03035E+00
 -1      1445 1.13335E+00
 -1      1446 9.46604E-01
 -1      1447 8.42309E-01
 -1      1448 9.46604E-01
 -1      1449 7.83816E-01
 -1      1450 6.96734E-01
 -1      1451 8.04369E-01
 -1      1452 6.30754E-01
 -1      1453 5.72225E-01
 -1      1454 6.79897E-01
 -1      1455 5.06231E-01
 -1      1456 4.65788E-01
 -1      1457 5.47922E-01
 -1      1458 4.09019E-01
 -1      1459 3.68391E-01
 -1      1460 4.25160E-01
 -1      1461 3.30960E-01
 -1      1462 2.93529E-01
 -1      1463 3.30960E-01
 -1      1464 2.60635E-01
 -1      1465 2.27741E-01
 -1      1466 2.60635E-01
 -1      1467 2.02298E-01
 -1      1468 1.73787E-01
 -1      1469 2.02298E-01
 -1      1470 1.60242E-01
 -1      1471 1.49764E-01
 -1      1472 1.63309E-01
 -1      1473 1.35184E-01
 -1      1474 1.20604E-01
 -1      1475 1.35184E-01
 -1      1476 9.40482E-02
 -1      1477 6.71477E-02
 -1      1478 9.40482E-02
 -1      1479 4.87822E-02
 -1      1480 4.91267E-02
 -1      1481 3.41074E+00
 -1      1482 8.72828E+00
 -1      1483 8.72828E+00
 -1      1484 2.43196E+00
 -1      1485 2.92135E+00
 -1      1486 2.92135E+00
 -1      1487 1.68766E+00
 -1      1488 2.05981E+00
 -1      1489 2.05981E+00
 -1      1490 1.17021E+00
 -1      1491 1.42893E+00
 -1      1492 1.42893E+00
 -1      1493 9.47314E-01
 -1      1494 1.05876E+00
 -1      1495 1.05876E+00
 -1      1496 7.85458E-01
 -1      1497 8.66386E-01
 -1      1498 8.66386E-01
 -1      1499 6.58394E-01
 -1      1500 7.21926E-01
 -1      1501 7.21926E-01
 -1      1502 5.59203E-01
 -1      1503 6.08798E-01
 -1      1504 6.08798E-01
 -1      1505 4.84309E-01
 -1      1506 5.21756E-01
 -1      1507 5.21756E-01
 -1      1508 4.31234E-01
 -1      1509 4.57772E-01
 -1      1510 4.57772E-01
 -1      1511 3.97369E-01
 -1      1512 4.14302E-01
 -1      1513 4.14302E-01
 -1      1514 3.79359E-01
 -1      1515 3.88364E-01
 -1      1516 3.88364E-01
 -1      1517 3.89487E-01
 -1      1518 3.75984E-01
 -1      1519 3.75984E-01
 -1      1520 4.38705E-01
 -1      1521 4.06423E-01
 -1      1522 3.89545E-01
 -1      1523 5.05112E-01
 -1      1524 4.70930E-01
 -1      1525 4.38705E-01
 -1      1526 5.69666E-01
 -1      1527 5.39294E-01
 -1      1528 5.05112E-01
 -1      1529 6.17556E-01
 -1      1530 6.00038E-01
 -1      1531 5.69666E-01
 -1      1532 6.41559E-01
 -1      1533 6.35075E-01
 -1      1534 6.17556E-01
 -1      1535 7.88491E-01
 -1      1536 6.87436E-01
 -1      1537 6.80952E-01
 -1      1538 9.42549E-01
 -1      1539 8.50152E-01
 -1      1540 7.88491E-01
 -1      1541 1.07625E+00
 -1      1542 1.03494E+00
 -1      1543 9.42549E-01
 -1      1544 1.25844E+00
 -1      1545 1.11756E+00
 -1      1546 1.07625E+00
 -1      1547 1.44890E+00
 -1      1548 1.39932E+00
 -1      1549 1.25844E+00
 -1      1550 1.59372E+00
 -1      1551 1.49848E+00
 -1      1552 1.44890E+00
 -1      1553 1.82914E+00
 -1      1554 1.68896E+00
 -1      1555 1.59372E+00
 -1      1556 2.53658E+00
 -1      1557 2.02728E+00
 -1      1558 1.88710E+00
 -1      1559 3.16816E+00
 -1      1560 2.98794E+00
 -1      1561 2.53658E+00
 -1      1562 3.59263E+00
 -1      1563 3.34839E+00
 -1      1564 3.16816E+00
 -1      1565 3.83687E+00
 -1      1566 3.83687E+00
 -1      1567 3.59263E+00
 -1      1568 3.24581E+00
 -1      1569 3.54134E+00
 -1      1570 3.54134E+00
 -1      1571 1.97362E+00
 -1      1572 2.60972E+00
 -1      1573 2.60972E+00
 -1      1574 1.29751E+00
 -1      1575 1.63556E+00
 -1      1576 1.63556E+00
 -1      1577 1.05743E+00
 -1      1578 1.16226E+00
 -1      1579 1.16226E+00
 -1      1580 1.18482E+00
 -1      1581 1.08785E+00
 -1      1582 1.05743E+00
 -1      1583 1.28178E+00
 -1      1584 1.28178E+00
 -1      1585 1.18482E+00
 -1      1586 1.27448E+00
 -1      1587 1.27813E+00
 -1      1588 1.27813E+00
 -1      1589 1.14033E+00
 -1      1590 1.20741E+00
 -1      1591 1.20741E+00
 -1      1592 9.62897E-01
 -1      1593 1.05161E+00
 -1      1594 1.05161E+00
 -1      1595 8.01158E-01
 -1      1596 8.82373E-01
 -1      1597 8.82373E-01
 -1      1598 6.45883E-01
 -1      1599 7.28109E-01
 -1      1600 7.28801E-01
 -1      1601 5.00077E-01
 -1      1602 5.75352E-01
 -1      1603 5.85222E-01
 -1      1604 3.76654E-01
 -1      1605 4.37111E-01
 -1      1606 4.51726E-01
 -1      1607 2.91187E-01
 -1      1608 3.27867E-01
 -1      1609 3.39973E-01
 -1      1610 2.26380E-01
 -1      1611 2.58783E-01
 -1      1612 2.58783E-01
 -1      1613 1.69965E-01
 -1      1614 1.98172E-01
 -1      1615 1.98172E-01
 -1      1616 1.20081E-01
 -1      1617 1.45327E-01
 -1      1618 1.45327E-01
 -1      1619 8.74731E-02
 -1      1620 1.03473E-01
 -1      1621 1.04081E-01
 -1      1622 5.29559E-02
 -1      1623 7.02145E-02
 -1      1624 7.02145E-02
 -1      1625 3.72973E-02
 -1      1626 2.75558E-02
 -1      1627 2.74449E-02
 -1      1628 2.89760E-02
 -1      1629 2.89760E-02
 -1      1630 3.46713E-02
 -1      1631 2.48924E-02
 -1      1632 2.89760E-02
 -1      1633 3.60915E-02
 -1      1634 1.38887E-02
 -1      1635 1.63475E-02
 -1      1636 2.75466E-02
 -1      1637 2.38198E-02
 -1      1638 1.98968E-02
 -1      1639 2.50097E-02
 -1      1640 3.15684E-02
 -1      1641 2.90301E-02
 -1      1642 3.62280E-02
 -1      1643 3.45041E-02
 -1      1644 3.37330E-02
 -1      1645 4.36029E-02
 -1      1646 3.45041E-02
 -1      1647 3.45041E-02
 -1      1648 4.57675E-02
 -1      1649 3.37094E-02
 -1      1650 3.44983E-02
 -1      1651 4.57617E-02
 -1      1652 2.88169E-02
 -1      1653 3.14444E-02
 -1      1654 4.34908E-02
 -1      1655 2.00400E-02
 -1      1656 2.38120E-02
 -1      1657 3.62209E-02
 -1      1658 1.64501E-02
 -1      1659 1.39028E-02
 -1      1660 2.50789E-02
 -1      1661 2.92149E-02
 -1      1662 2.53443E-02
 -1      1663 2.78360E-02
 -1      1664 3.27910E-02
 -1      1665 2.92149E-02
 -1      1666 3.67302E-02
 -1      1667 3.70412E-02
 -1      1668 3.60865E-02
 -1      1669 4.00257E-02
 -1      1670 5.54067E-02
 -1      1671 2.90955E+01
 -1      1672 2.88616E+01
 -1      1673 3.85208E+01
 -1      1674 2.70768E+01
 -1      1675 4.79812E+01
 -1      1676 4.79812E+01
 -1      1677 2.05650E+01
 -1      1678 3.49605E+01
 -1      1679 1.15284E+01
 -1      1680 1.51736E+01
 -1      1681 1.21434E+01
 -1      1682 1.18999E+01
 -1      1683 1.23869E+01
 -1      1684 1.23869E+01
 -1      1685 1.27961E+01
 -1      1686 1.22559E+01
 -1      1687 1.34672E+01
 -1      1688 1.34672E+01
 -1      1689 1.25521E+01
 -1      1690 1.25835E+01
 -1      1691 2.22138E+01
 -1      1692 1.34044E+01
 -1      1693 3.18159E+01
 -1      1694 3.14195E+01
 -1      1695 2.99224E+01
 -1      1696 3.18159E+01
 -1      1697 2.53876E+01
 -1      1698 2.68709E+01
 -1      1699 2.63246E+01
 -1      1700 2.67036E+01
 -1      1701 2.63246E+01
 -1      1702 2.63246E+01
 -1      1703 3.94987E+01
 -1      1704 3.02621E+01
 -1      1705 4.27773E+01
 -1      1706 4.27773E+01
 -1      1707 1.70285E+01
 -1      1708 3.03493E+01
 -1      1709 1.14888E+01
 -1      1710 1.36112E+01
 -1      1711 1.18910E+01
 -1      1712 1.18910E+01
 -1      1713 1.18612E+01
 -1      1714 1.18761E+01
 -1      1715 1.21651E+01
 -1      1716 1.17588E+01
 -1      1717 1.26737E+01
 -1      1718 1.26737E+01
 -1      1719 1.16226E+01
 -1      1720 1.21129E+01
 -1      1721 1.74917E+01
 -1      1722 1.16932E+01
 -1      1723 3.64718E+01
 -1      1724 2.39284E+01
 -1      1725 4.83770E+01
 -1      1726 4.83770E+01
 -1      1727 2.74707E+01
 -1      1728 3.93122E+01
 -1      1729 2.88616E+01
 -1      1730 2.88959E+01
 -1      1731 1.65483E+01
 -1      1732 3.49605E+01
 -1      1733 3.72973E-02
 -1      1734 4.31035E-02
 -1      1735 3.10791E+01
 -1      1736 3.85208E+01
 -1      1737 3.30978E+01
 -1      1738 1.15284E+01
 -1      1739 1.21434E+01
 -1      1740 1.22559E+01
 -1      1741 1.27961E+01
 -1      1742 1.25835E+01
 -1      1743 1.25521E+01
 -1      1744 2.26101E+01
 -1      1745 3.18159E+01
 -1      1746 2.87643E+01
 -1      1747 2.70289E+01
 -1      1748 2.83450E+01
 -1      1749 3.22825E+01
 -1      1750 3.94987E+01
 -1      1751 3.03493E+01
 -1      1752 1.45039E+01
 -1      1753 1.14888E+01
 -1      1754 1.18761E+01
 -1      1755 1.17588E+01
 -1      1756 1.21651E+01
 -1      1757 1.21129E+01
 -1      1758 1.16226E+01
 -1      1759 1.81299E+01
 -1      1760 3.64718E+01
 -1      1761 3.93122E+01
 -1      1762 3.16726E+01
 -1      1763 9.60484E+00
 -1      1764 1.26730E+00
 -1      1765 1.65885E+00
 -1      1766 2.37404E+00
 -1      1767 4.26208E+00
 -1      1768 1.74908E+00
 -1      1769 8.76859E-01
 -1      1770 9.68561E-01
 -1      1771 7.74029E-01
 -1      1772 8.28331E-01
 -1      1773 7.37468E-01
 -1      1774 7.09154E-01
 -1      1775 7.43003E-01
 -1      1776 6.57913E-01
 -1      1777 6.67357E-01
 -1      1778 6.87240E-01
 -1      1779 6.04973E-01
 -1      1780 6.90527E-01
 -1      1781 6.68962E-01
 -1      1782 5.84664E-01
 -1      1783 7.45981E-01
 -1      1784 7.12232E-01
 -1      1785 6.07974E-01
 -1      1786 8.35775E-01
 -1      1787 7.79170E-01
 -1      1788 6.62868E-01
 -1      1789 9.78505E-01
 -1      1790 8.83179E-01
 -1      1791 7.43461E-01
 -1      1792 1.22288E+00
 -1      1793 1.04596E+00
 -1      1794 8.58326E-01
 -1      1795 1.69950E+00
 -1      1796 1.33351E+00
 -1      1797 1.03642E+00
 -1      1798 2.61752E+00
 -1      1799 1.78340E+00
 -1      1800 1.23094E+00
 -1      1801 8.12376E+00
 -1      1802 3.06096E+00
 -1      1803 1.75827E+00
 -1      1804 2.80622E+00
 -1      1805 5.19784E+00
 -1      1806 2.17285E+00
 -1      1807 2.66224E+00
 -1      1808 2.05773E+00
 -1      1809 3.40002E+00
 -1      1810 2.55319E+00
 -1      1811 1.93966E+00
 -1      1812 1.70915E+00
 -1      1813 1.37523E+00
 -1      1814 1.51380E+00
 -1      1815 1.19514E+00
 -1      1816 9.88818E-01
 -1      1817 1.10320E+00
 -1      1818 8.66717E-01
 -1      1819 7.52334E-01
 -1      1820 8.01009E-01
 -1      1821 7.01685E-01
 -1      1822 6.17977E-01
 -1      1823 6.28258E-01
 -1      1824 5.72767E-01
 -1      1825 5.09850E-01
 -1      1826 5.32399E-01
 -1      1827 4.70350E-01
 -1      1828 4.23164E-01
 -1      1829 4.47688E-01
 -1      1830 3.89286E-01
 -1      1831 3.54494E-01
 -1      1832 3.74310E-01
 -1      1833 3.25537E-01
 -1      1834 3.00276E-01
 -1      1835 3.11475E-01
 -1      1836 2.82336E-01
 -1      1837 2.78797E-01
 -1      1838 2.64578E-01
 -1      1839 2.96199E-01
 -1      1840 3.17348E-01
 -1      1841 2.64040E-01
 -1      1842 3.38931E-01
 -1      1843 3.66671E-01
 -1      1844 3.03025E-01
 -1      1845 4.00223E-01
 -1      1846 4.33255E-01
 -1      1847 3.58159E-01
 -1      1848 4.95050E-01
 -1      1849 5.48271E-01
 -1      1850 4.53507E-01
 -1      1851 6.11240E-01
 -1      1852 6.79428E-01
 -1      1853 5.78270E-01
 -1      1854 7.36778E-01
 -1      1855 7.96378E-01
 -1      1856 6.98588E-01
 -1      1857 8.45834E-01
 -1      1858 9.23808E-01
 -1      1859 8.05394E-01
 -1      1860 9.78930E-01
 -1      1861 1.08526E+00
 -1      1862 9.09972E-01
 -1      1863 1.12142E+00
 -1      1864 1.19324E+00
 -1      1865 1.00125E+00
 -1      1866 1.16736E+00
 -1      1867 1.15487E+00
 -1      1868 1.01151E+00
 -1      1869 1.05583E+00
 -1      1870 1.08885E+00
 -1      1871 8.86587E-01
 -1      1872 1.11490E+00
 -1      1873 1.03103E+00
 -1      1874 8.13609E-01
 -1      1875 1.17506E+00
 -1      1876 1.42283E+00
 -1      1877 9.83691E-01
 -1      1878 1.70680E+00
 -1      1879 2.20066E+00
 -1      1880 1.41169E+00
 -1      1881 2.47307E+00
 -1      1882 3.04412E+00
 -1      1883 1.96807E+00
 -1      1884 3.13622E+00
 -1      1885 3.16994E+00
 -1      1886 2.33259E+00
 -1      1887 3.15121E+00
 -1      1888 3.18056E+00
 -1      1889 2.40595E+00
 -1      1890 3.15464E+00
 -1      1891 2.68346E+00
 -1      1892 2.36129E+00
 -1      1893 2.40256E+00
 -1      1894 1.81333E+00
 -1      1895 2.05447E+00
 -1      1896 1.55794E+00
 -1      1897 1.29964E+00
 -1      1898 1.51818E+00
 -1      1899 1.09472E+00
 -1      1900 1.11885E+00
 -1      1901 1.05786E+00
 -1      1902 1.09602E+00
 -1      1903 1.04594E+00
 -1      1904 8.30109E-01
 -1      1905 1.11405E+00
 -1      1906 1.14886E+00
 -1      1907 8.75389E-01
 -1      1908 1.19386E+00
 -1      1909 1.13492E+00
 -1      1910 9.88494E-01
 -1      1911 1.10954E+00
 -1      1912 1.00654E+00
 -1      1913 1.00811E+00
 -1      1914 9.53427E-01
 -1      1915 8.69685E-01
 -1      1916 9.29622E-01
 -1      1917 8.23358E-01
 -1      1918 7.64866E-01
 -1      1919 8.30181E-01
 -1      1920 7.12106E-01
 -1      1921 6.46125E-01
 -1      1922 7.31094E-01
 -1      1923 5.86546E-01
 -1      1924 5.20552E-01
 -1      1925 6.18755E-01
 -1      1926 4.62189E-01
 -1      1927 4.05420E-01
 -1      1928 5.00812E-01
 -1      1929 3.52794E-01
 -1      1930 3.15363E-01
 -1      1931 3.89823E-01
 -1      1932 2.70530E-01
 -1      1933 2.37637E-01
 -1      1934 2.92365E-01
 -1      1935 2.02298E-01
 -1      1936 1.76854E-01
 -1      1937 2.12193E-01
 -1      1938 1.54657E-01
 -1      1939 1.41113E-01
 -1      1940 1.54657E-01
 -1      1941 1.21371E-01
 -1      1942 1.06791E-01
 -1      1943 1.12719E-01
 -1      1944 9.23745E-02
 -1      1945 6.58185E-02
 -1      1946 5.37330E-02
 -1      1947 7.85612E-02
 -1      1948 1.41600E+00
 -1      1949 1.78815E+00
 -1      1950 1.52905E+00
 -1      1951 1.03658E+00
 -1      1952 1.29530E+00
 -1      1953 1.02365E+00
 -1      1954 8.30586E-01
 -1      1955 9.42033E-01
 -1      1956 8.08405E-01
 -1      1957 6.68640E-01
 -1      1958 7.49568E-01
 -1      1959 6.32840E-01
 -1      1960 5.63127E-01
 -1      1961 6.26660E-01
 -1      1962 5.09842E-01
 -1      1963 4.87021E-01
 -1      1964 5.36616E-01
 -1      1965 4.41350E-01
 -1      1966 4.28082E-01
 -1      1967 4.65529E-01
 -1      1968 3.93347E-01
 -1      1969 3.83985E-01
 -1      1970 4.10523E-01
 -1      1971 3.54295E-01
 -1      1972 3.53870E-01
 -1      1973 3.70803E-01
 -1      1974 3.23554E-01
 -1      1975 3.35730E-01
 -1      1976 3.44735E-01
 -1      1977 3.01236E-01
 -1      1978 3.39336E-01
 -1      1979 3.42711E-01
 -1      1980 2.99081E-01
 -1      1981 3.83402E-01
 -1      1982 3.66466E-01
 -1      1983 3.33192E-01
 -1      1984 4.76880E-01
 -1      1985 4.44656E-01
 -1      1986 4.21576E-01
 -1      1987 5.74763E-01
 -1      1988 5.40581E-01
 -1      1989 5.46531E-01
 -1      1990 6.65113E-01
 -1      1991 6.34741E-01
 -1      1992 6.70210E-01
 -1      1993 7.33031E-01
 -1      1994 7.15513E-01
 -1      1995 7.80588E-01
 -1      1996 8.21037E-01
 -1      1997 7.75160E-01
 -1      1998 8.73116E-01
 -1      1999 8.83113E-01
 -1      2000 8.21451E-01
 -1      2001 9.15659E-01
 -1      2002 9.75509E-01
 -1      2003 8.83113E-01
 -1      2004 9.16073E-01
 -1      2005 9.48112E-01
 -1      2006 9.06806E-01
 -1      2007 8.47370E-01
 -1      2008 1.02758E+00
 -1      2009 8.86697E-01
 -1      2010 7.17251E-01
 -1      2011 1.17300E+00
 -1      2012 1.12342E+00
 -1      2013 7.51681E-01
 -1      2014 1.61850E+00
 -1      2015 1.52326E+00
 -1      2016 1.19778E+00
 -1      2017 2.00615E+00
 -1      2018 1.80801E+00
 -1      2019 1.73755E+00
 -1      2020 2.46357E+00
 -1      2021 2.01222E+00
 -1      2022 1.93313E+00
 -1      2023 2.61917E+00
 -1      2024 2.43894E+00
 -1      2025 1.91457E+00
 -1      2026 3.00672E+00
 -1      2027 2.76248E+00
 -1      2028 2.03326E+00
 -1      2029 2.67370E+00
 -1      2030 2.96923E+00
 -1      2031 2.13909E+00
 -1      2032 1.72093E+00
 -1      2033 2.35703E+00
 -1      2034 1.78492E+00
 -1      2035 1.08023E+00
 -1      2036 1.41828E+00
 -1      2037 1.16559E+00
 -1      2038 8.01966E-01
 -1      2039 9.37212E-01
 -1      2040 7.19932E-01
 -1      2041 9.63677E-01
 -1      2042 9.33260E-01
 -1      2043 7.08211E-01
 -1      2044 1.10319E+00
 -1      2045 1.00623E+00
 -1      2046 8.82054E-01
 -1      2047 1.11675E+00
 -1      2048 1.12040E+00
 -1      2049 9.41812E-01
 -1      2050 1.02895E+00
 -1      2051 1.09602E+00
 -1      2052 9.38292E-01
 -1      2053 8.93023E-01
 -1      2054 9.81741E-01
 -1      2055 8.70357E-01
 -1      2056 7.64269E-01
 -1      2057 8.44793E-01
 -1      2058 7.74919E-01
 -1      2059 6.32269E-01
 -1      2060 7.05317E-01
 -1      2061 6.67736E-01
 -1      2062 5.01748E-01
 -1      2063 5.72279E-01
 -1      2064 5.48794E-01
 -1      2065 3.83388E-01
 -1      2066 4.46354E-01
 -1      2067 4.33411E-01
 -1      2068 2.86493E-01
 -1      2069 3.35279E-01
 -1      2070 3.29908E-01
 -1      2071 2.20807E-01
 -1      2072 2.53210E-01
 -1      2073 2.48516E-01
 -1      2074 1.67473E-01
 -1      2075 1.95680E-01
 -1      2076 1.90108E-01
 -1      2077 1.20690E-01
 -1      2078 1.45327E-01
 -1      2079 1.42835E-01
 -1      2080 8.38225E-02
 -1      2081 1.00431E-01
 -1      2082 1.00431E-01
 -1      2083 4.80036E-02
 -1      2084 6.52622E-02
 -1      2085 6.16115E-02
 -1      2086 3.81512E-02
 -1      2087 2.93814E-02
 -1      2088 3.79263E-02
 -1      2089 5.06830E-02
 -1      2090 5.06830E-02
 -1      2091 5.25178E-02
 -1      2092 5.06830E-02
 -1      2093 4.92628E-02
 -1      2094 5.41629E-02
 -1      2095 6.52745E-02
 -1      2096 3.67150E-02
 -1      2097 3.07070E-02
 -1      2098 4.10867E-02
 -1      2099 4.98708E-02
 -1      2100 4.46606E-02
 -1      2101 5.03578E-02
 -1      2102 5.59112E-02
 -1      2103 5.37466E-02
 -1      2104 6.21792E-02
 -1      2105 5.59112E-02
 -1      2106 5.59112E-02
 -1      2107 6.60549E-02
 -1      2108 5.58204E-02
 -1      2109 5.58262E-02
 -1      2110 6.59699E-02
 -1      2111 5.35553E-02
 -1      2112 5.58204E-02
 -1      2113 6.58849E-02
 -1      2114 4.48535E-02
 -1      2115 4.98583E-02
 -1      2116 6.21879E-02
 -1      2117 3.08602E-02
 -1      2118 3.69974E-02
 -1      2119 5.06348E-02
 -1      2120 3.94447E-02
 -1      2121 3.05505E-02
 -1      2122 4.24690E-02
 -1      2123 4.79993E-02
 -1      2124 4.79993E-02
 -1      2125 5.07138E-02
 -1      2126 3.85208E+01
 -1      2127 2.90604E+01
 -1      2128 3.30978E+01
 -1      2129 3.30978E+01
 -1      2130 3.04064E+01
 -1      2131 3.24251E+01
 -1      2132 3.24251E+01
 -1      2133 1.92728E+01
 -1      2134 3.22935E+01
 -1      2135 2.28331E+01
 -1      2136 1.05573E+01
 -1      2137 1.59488E+01
 -1      2138 1.03170E+00
 -1      2139 1.20650E+00
 -1      2140 9.73080E-01
 -1      2141 8.49135E-01
 -1      2142 1.09559E+01
 -1      2143 1.07125E+01
 -1      2144 1.14502E+01
 -1      2145 1.15811E+01
 -1      2146 1.19798E+01
 -1      2147 1.13087E+01
 -1      2148 1.00464E+01
 -1      2149 1.09301E+01
 -1      2150 1.03287E+01
 -1      2151 9.47645E+00
 -1      2152 7.82301E+00
 -1      2153 2.19584E+01
 -1      2154 1.27526E+01
 -1      2155 2.66091E+01
 -1      2156 2.66091E+01
 -1      2157 2.55785E+01
 -1      2158 2.86300E+01
 -1      2159 3.18772E+01
 -1      2160 3.05611E+01
 -1      2161 3.18772E+01
 -1      2162 3.18772E+01
 -1      2163 3.09781E+01
 -1      2164 2.70406E+01
 -1      2165 3.38605E+01
 -1      2166 3.05819E+01
 -1      2167 1.60366E+01
 -1      2168 2.84647E+01
 -1      2169 1.95479E+01
 -1      2170 9.63300E+00
 -1      2171 1.30503E+01
 -1      2172 9.78209E+00
 -1      2173 9.37989E+00
 -1      2174 1.08720E+01
 -1      2175 1.08870E+01
 -1      2176 8.77801E+00
 -1      2177 1.12806E+01
 -1      2178 1.13829E+01
 -1      2179 1.16401E+01
 -1      2180 1.11314E+01
 -1      2181 1.07556E+01
 -1      2182 1.00155E+01
 -1      2183 1.05763E+01
 -1      2184 9.30250E+00
 -1      2185 9.23192E+00
 -1      2186 1.75022E+01
 -1      2187 1.10655E+01
 -1      2188 3.29931E+01
 -1      2189 2.10878E+01
 -1      2190 3.02474E+01
 -1      2191 3.93122E+01
 -1      2192 3.18043E+01
 -1      2193 3.03791E+01
 -1      2194 3.03791E+01
 -1      2195 9.61020E+00
 -1      2196 9.23867E+00
 -1      2197 2.91317E+00
 -1      2198 1.11033E+01
 -1      2199 9.61590E+00
 -1      2200 8.56618E+00
 -1      2201 8.42275E+00
 -1      2202 2.10429E+00
 -1      2203 3.04064E+01
 -1      2204 5.12948E-02
 -1      2205 1.32818E+01
 -1      2206 3.18043E+01
 -1      2207 8.63916E+00
 -1      2208 2.39283E+01
 -1      2209 1.40235E+01
 -1      2210 8.67485E+00
 -1      2211 9.54267E+00
 -1      2212 1.03938E+01
 -1      2213 1.11657E+01
 -1      2214 2.53399E+01
 -1      2215 3.05728E+01
 -1      2216 3.54094E+01
 -1      2217 3.04267E+01
 -1      2218 2.34232E+01
 -1      2219 9.67697E+00
 -1      2220 1.01502E+01
 -1      2221 1.06339E+01
 -1      2222 1.67516E+01
 -1      2223 7.92625E+00
 -1      2224 7.69537E+00
 -1      2225 1.10221E+00
 -1      2226 1.48691E+00
 -1      2227 5.54107E-01
 -1      2228 5.85133E-01
 -1      2229 5.97568E-01
 -1      2230 6.46096E-01
 -1      2231 4.93762E-01
 -1      2232 5.06560E-01
 -1      2233 5.04955E-01
 -1      2234 5.41189E-01
 -1      2235 5.19484E-01
 -1      2236 4.39775E-01
 -1      2237 5.89198E-01
 -1      2238 5.56010E-01
 -1      2239 4.67520E-01
 -1      2240 6.48742E-01
 -1      2241 6.01337E-01
 -1      2242 4.94479E-01
 -1      2243 7.16202E-01
 -1      2244 6.48742E-01
 -1      2245 5.06618E-01
 -1      2246 8.70422E-01
 -1      2247 7.59793E-01
 -1      2248 5.50209E-01
 -1      2249 9.02952E-01
 -1      2250 1.02365E+00
 -1      2251 9.81510E-01
 -1      2252 1.27114E+00
 -1      2253 1.04063E+00
 -1      2254 9.97059E-01
 -1      2255 8.16969E-01
 -1      2256 7.54401E-01
 -1      2257 7.58532E-01
 -1      2258 6.36431E-01
 -1      2259 6.52392E-01
 -1      2260 5.77746E-01
 -1      2261 5.27097E-01
 -1      2262 5.35269E-01
 -1      2263 4.85531E-01
 -1      2264 4.40321E-01
 -1      2265 4.35018E-01
 -1      2266 4.15913E-01
 -1      2267 3.76412E-01
 -1      2268 3.69044E-01
 -1      2269 3.49842E-01
 -1      2270 3.15964E-01
 -1      2271 3.18066E-01
 -1      2272 2.88884E-01
 -1      2273 2.59927E-01
 -1      2274 2.64416E-01
 -1      2275 2.32674E-01
 -1      2276 2.14734E-01
 -1      2277 2.10083E-01
 -1      2278 2.20242E-01
 -1      2279 2.37645E-01
 -1      2280 1.88338E-01
 -1      2281 2.53029E-01
 -1      2282 2.74611E-01
 -1      2283 2.09231E-01
 -1      2284 3.23600E-01
 -1      2285 3.57152E-01
 -1      2286 2.73604E-01
 -1      2287 4.14980E-01
 -1      2288 4.76775E-01
 -1      2289 3.80420E-01
 -1      2290 5.38869E-01
 -1      2291 6.01837E-01
 -1      2292 5.00342E-01
 -1      2293 6.64906E-01
 -1      2294 7.22256E-01
 -1      2295 6.25505E-01
 -1      2296 7.80158E-01
 -1      2297 8.29613E-01
 -1      2298 7.46475E-01
 -1      2299 8.73516E-01
 -1      2300 9.28638E-01
 -1      2301 8.48279E-01
 -1      2302 9.91652E-01
 -1      2303 1.02780E+00
 -1      2304 9.55195E-01
 -1      2305 1.09345E+00
 -1      2306 1.06756E+00
 -1      2307 1.08386E+00
 -1      2308 1.10004E+00
 -1      2309 1.00101E+00
 -1      2310 1.18198E+00
 -1      2311 1.06427E+00
 -1      2312 1.09032E+00
 -1      2313 1.27772E+00
 -1      2314 1.22128E+00
 -1      2315 1.36531E+00
 -1      2316 1.47194E+00
 -1      2317 1.46725E+00
 -1      2318 1.75122E+00
 -1      2319 1.70484E+00
 -1      2320 1.76051E+00
 -1      2321 2.03292E+00
 -1      2322 1.81607E+00
 -1      2323 2.44799E+00
 -1      2324 2.54009E+00
 -1      2325 2.24042E+00
 -1      2326 2.71833E+00
 -1      2327 2.69960E+00
 -1      2328 2.83374E+00
 -1      2329 2.61494E+00
 -1      2330 2.58903E+00
 -1      2331 2.92733E+00
 -1      2332 2.14578E+00
 -1      2333 1.86488E+00
 -1      2334 2.39943E+00
 -1      2335 1.76384E+00
 -1      2336 1.50844E+00
 -1      2337 1.85514E+00
 -1      2338 1.43580E+00
 -1      2339 1.23087E+00
 -1      2340 1.68145E+00
 -1      2341 1.13444E+00
 -1      2342 1.11162E+00
 -1      2343 1.51238E+00
 -1      2344 1.01698E+00
 -1      2345 1.08509E+00
 -1      2346 1.32132E+00
 -1      2347 1.06210E+00
 -1      2348 1.10710E+00
 -1      2349 1.20370E+00
 -1      2350 1.04647E+00
 -1      2351 1.02109E+00
 -1      2352 1.12008E+00
 -1      2353 9.51051E-01
 -1      2354 8.97937E-01
 -1      2355 9.89402E-01
 -1      2356 8.56671E-01
 -1      2357 8.10344E-01
 -1      2358 8.78100E-01
 -1      2359 7.57000E-01
 -1      2360 7.04240E-01
 -1      2361 7.83490E-01
 -1      2362 6.44697E-01
 -1      2363 5.85117E-01
 -1      2364 6.70602E-01
 -1      2365 5.26518E-01
 -1      2366 4.68155E-01
 -1      2367 5.52460E-01
 -1      2368 4.14660E-01
 -1      2369 3.62034E-01
 -1      2370 4.40365E-01
 -1      2371 3.15659E-01
 -1      2372 2.70826E-01
 -1      2373 3.40495E-01
 -1      2374 2.32183E-01
 -1      2375 1.96844E-01
 -1      2376 2.55476E-01
 -1      2377 1.65782E-01
 -1      2378 1.43586E-01
 -1      2379 1.85772E-01
 -1      2380 1.19404E-01
 -1      2381 9.96621E-02
 -1      2382 1.30529E-01
 -1      2383 5.51823E-01
 -1      2384 6.32840E-01
 -1      2385 4.67861E-01
 -1      2386 5.09842E-01
 -1      2387 5.09842E-01
 -1      2388 4.09383E-01
 -1      2389 4.35894E-01
 -1      2390 4.35894E-01
 -1      2391 3.56562E-01
 -1      2392 3.78054E-01
 -1      2393 3.72598E-01
 -1      2394 3.09469E-01
 -1      2395 3.27027E-01
 -1      2396 3.11735E-01
 -1      2397 2.68558E-01
 -1      2398 2.81740E-01
 -1      2399 2.54472E-01
 -1      2400 2.54238E-01
 -1      2401 2.63373E-01
 -1      2402 2.21560E-01
 -1      2403 2.77553E-01
 -1      2404 2.70572E-01
 -1      2405 2.32710E-01
 -1      2406 3.32340E-01
 -1      2407 3.05209E-01
 -1      2408 2.76700E-01
 -1      2409 4.50507E-01
 -1      2410 3.89253E-01
 -1      2411 3.61271E-01
 -1      2412 5.74755E-01
 -1      2413 5.11054E-01
 -1      2414 4.78731E-01
 -1      2415 6.95146E-01
 -1      2416 6.35169E-01
 -1      2417 5.99692E-01
 -1      2418 7.98952E-01
 -1      2419 7.48552E-01
 -1      2420 7.13511E-01
 -1      2421 8.85261E-01
 -1      2422 8.43133E-01
 -1      2423 8.11097E-01
 -1      2424 9.24042E-01
 -1      2425 9.23628E-01
 -1      2426 8.93644E-01
 -1      2427 9.63989E-01
 -1      2428 9.63989E-01
 -1      2429 9.71958E-01
 -1      2430 8.98092E-01
 -1      2431 9.66795E-01
 -1      2432 1.01471E+00
 -1      2433 8.57811E-01
 -1      2434 9.19226E-01
 -1      2435 1.03865E+00
 -1      2436 1.01424E+00
 -1      2437 9.18396E-01
 -1      2438 1.12037E+00
 -1      2439 1.46942E+00
 -1      2440 1.11916E+00
 -1      2441 1.28588E+00
 -1      2442 1.79397E+00
 -1      2443 1.60446E+00
 -1      2444 1.52584E+00
 -1      2445 2.05386E+00
 -1      2446 2.04779E+00
 -1      2447 1.91470E+00
 -1      2448 2.15654E+00
 -1      2449 2.18116E+00
 -1      2450 2.29583E+00
 -1      2451 2.30488E+00
 -1      2452 2.16157E+00
 -1      2453 2.42816E+00
 -1      2454 2.02544E+00
 -1      2455 2.06293E+00
 -1      2456 2.19124E+00
 -1      2457 1.51782E+00
 -1      2458 1.83450E+00
 -1      2459 1.75835E+00
 -1      2460 1.07555E+00
 -1      2461 1.37820E+00
 -1      2462 1.42778E+00
 -1      2463 8.69177E-01
 -1      2464 1.01219E+00
 -1      2465 1.22479E+00
 -1      2466 9.02454E-01
 -1      2467 7.71161E-01
 -1      2468 1.06342E+00
 -1      2469 9.77611E-01
 -1      2470 9.35061E-01
 -1      2471 9.98011E-01
 -1      2472 9.76911E-01
 -1      2473 9.59704E-01
 -1      2474 1.01271E+00
 -1      2475 9.09212E-01
 -1      2476 9.29940E-01
 -1      2477 9.47832E-01
 -1      2478 8.25316E-01
 -1      2479 8.72523E-01
 -1      2480 8.64172E-01
 -1      2481 7.33914E-01
 -1      2482 7.82144E-01
 -1      2483 7.84311E-01
 -1      2484 6.20545E-01
 -1      2485 6.79498E-01
 -1      2486 6.86723E-01
 -1      2487 5.03071E-01
 -1      2488 5.63061E-01
 -1      2489 5.74822E-01
 -1      2490 3.93112E-01
 -1      2491 4.48506E-01
 -1      2492 4.62773E-01
 -1      2493 2.96595E-01
 -1      2494 3.44704E-01
 -1      2495 3.59799E-01
 -1      2496 2.22419E-01
 -1      2497 2.55701E-01
 -1      2498 2.70497E-01
 -1      2499 1.64156E-01
 -1      2500 1.89283E-01
 -1      2501 1.96468E-01
 -1      2502 1.15554E-01
 -1      2503 1.37699E-01
 -1      2504 1.36874E-01
 -1      2505 7.89741E-02
 -1      2506 9.92331E-02
 -1      2507 9.40968E-02
 -1      2508 7.27232E-02
 -1      2509 6.60859E-02
 -1      2510 5.81403E-02
 -1      2511 7.65957E-02
 -1      2512 7.27199E-02
 -1      2513 8.05023E-02
 -1      2514 5.23299E-02
 -1      2515 6.50866E-02
 -1      2516 5.11613E-02
 -1      2517 4.98358E-02
 -1      2518 6.24045E-02
 -1      2519 6.68893E-02
 -1      2520 1.42807E+01
 -1      2521 2.05080E+01
 -1      2522 7.73697E-02
 -1      2523 7.73697E-02
 -1      2524 8.79104E-02
 -1      2525 7.72847E-02
 -1      2526 7.73697E-02
 -1      2527 8.86844E-02
 -1      2528 7.72171E-02
 -1      2529 7.72171E-02
 -1      2530 8.86169E-02
 -1      2531 7.29503E-02
 -1      2532 7.66473E-02
 -1      2533 8.79795E-02
 -1      2534 5.84037E-02
 -1      2535 6.62598E-02
 -1      2536 8.07192E-02
 -1      2537 6.27398E-02
 -1      2538 6.30496E-02
 -1      2539 7.86745E-02
 -1      2540 6.78719E-02
 -1      2541 5.93172E-02
 -1      2542 7.98978E-02
 -1      2543 6.17066E-02
 -1      2544 9.17557E+00
 -1      2545 1.24996E+01
 -1      2546 1.01744E+01
 -1      2547 7.13857E-01
 -1      2548 8.08405E-01
 -1      2549 6.32840E-01
 -1      2550 3.17524E+01
 -1      2551 3.24251E+01
 -1      2552 3.18043E+01
 -1      2553 3.05109E+01
 -1      2554 5.73296E+00
 -1      2555 7.05163E+00
 -1      2556 2.21390E+01
 -1      2557 1.58199E+01
 -1      2558 8.17053E+00
 -1      2559 1.11569E+01
 -1      2560 2.16674E+01
 -1      2561 2.20636E+01
 -1      2562 8.86148E+00
 -1      2563 8.23628E+00
 -1      2564 5.17746E-01
 -1      2565 5.39660E-01
 -1      2566 4.66880E-01
 -1      2567 4.39641E-01
 -1      2568 9.20245E+00
 -1      2569 9.34397E+00
 -1      2570 1.54774E+01
 -1      2571 1.08267E+01
 -1      2572 7.43597E+00
 -1      2573 6.33372E+00
 -1      2574 4.74618E+00
 -1      2575 5.41442E+00
 -1      2576 5.98433E+00
 -1      2577 6.12321E+00
 -1      2578 6.37633E+00
 -1      2579 1.00133E+01
 -1      2580 7.58944E+00
 -1      2581 5.75077E+00
 -1      2582 2.04371E+01
 -1      2583 1.84162E+01
 -1      2584 1.24913E+01
 -1      2585 3.04267E+01
 -1      2586 2.54441E+01
 -1      2587 3.54094E+01
 -1      2588 3.54094E+01
 -1      2589 2.57362E+01
 -1      2590 3.05728E+01
 -1      2591 1.24171E+01
 -1      2592 1.78129E+01
 -1      2593 5.50287E+00
 -1      2594 6.28640E+00
 -1      2595 8.01074E+00
 -1      2596 6.90587E+00
 -1      2597 9.43417E+00
 -1      2598 8.92326E+00
 -1      2599 7.05112E+00
 -1      2600 9.21111E+00
 -1      2601 9.36024E+00
 -1      2602 7.58467E+00
 -1      2603 8.64844E+00
 -1      2604 7.70894E+00
 -1      2605 5.94593E+00
 -1      2606 1.28586E+01
 -1      2607 9.27292E+00
 -1      2608 1.10693E+01
 -1      2609 2.42003E+01
 -1      2610 2.40685E+01
 -1      2611 1.66916E+00
 -1      2612 1.30918E+00
 -1      2613 8.36009E-01
 -1      2614 9.53965E-01
 -1      2615 1.61997E+00
 -1      2616 1.76395E+00
 -1      2617 1.32051E+00
 -1      2618 1.19313E+00
 -1      2619 2.50961E+01
 -1      2620 2.64421E+01
 -1      2621 7.43005E+00
 -1      2622 6.07880E-01
 -1      2623 7.47780E-01
 -1      2624 8.10919E-01
 -1      2625 8.08405E-01
 -1      2626 1.23662E+00
 -1      2627 1.65437E+01
 -1      2628 6.15759E+00
 -1      2629 8.32599E+00
 -1      2630 8.06066E+00
 -1      2631 5.33174E+00
 -1      2632 6.89572E+00
 -1      2633 5.39217E+00
 -1      2634 7.88970E+00
 -1      2635 7.15254E-02
 -1      2636 9.59994E-01
 -1      2637 7.15254E-02
 -1      2638 6.41448E-02
 -1      2639 6.17066E-02
 -1      2640 7.03100E-02
 -1      2641 7.85612E-02
 -1      2642 3.11316E+01
 -1      2643 7.72628E+00
 -1      2644 6.94401E+00
 -1      2645 4.82007E+00
 -1      2646 4.53696E+00
 -1      2647 2.64421E+01
 -1      2648 9.42194E+00
 -1      2649 2.42003E+01
 -1      2650 2.20636E+01
 -1      2651 8.93160E-01
 -1      2652 1.59601E+01
 -1      2653 3.05728E+01
 -1      2654 8.73917E+00
 -1      2655 5.35595E+00
 -1      2656 6.14725E+00
 -1      2657 1.45366E+01
 -1      2658 6.36749E+00
 -1      2659 2.04371E+01
 -1      2660 3.04267E+01
 -1      2661 7.25311E+00
 -1      2662 7.13375E-02
 -1      2663 8.52457E-02
 -1      2664 4.18941E-01
 -1      2665 4.04121E-01
 -1      2666 3.95889E-01
 -1      2667 3.82964E-01
 -1      2668 3.47310E-01
 -1      2669 4.33172E-01
 -1      2670 4.33172E-01
 -1      2671 4.65260E-01
 -1      2672 4.21669E-01
 -1      2673 3.48223E-01
 -1      2674 7.20613E-01
 -1      2675 7.99172E-01
 -1      2676 6.16598E-01
 -1      2677 7.11145E-01
 -1      2678 5.28806E-01
 -1      2679 1.09864E+01
 -1      2680 8.02510E+00
 -1      2681 8.26934E-01
 -1      2682 7.70858E+00
 -1      2683 9.48972E+00
 -1      2684 5.54676E-01
 -1      2685 4.96239E-01
 -1      2686 4.86601E-01
 -1      2687 4.27916E-01
 -1      2688 3.88886E-01
 -1      2689 4.03374E-01
 -1      2690 3.61808E-01
 -1      2691 3.54706E-01
 -1      2692 3.30976E-01
 -1      2693 3.06568E-01
 -1      2694 2.99332E-01
 -1      2695 2.86499E-01
 -1      2696 2.59929E-01
 -1      2697 2.48431E-01
 -1      2698 2.38837E-01
 -1      2699 2.11757E-01
 -1      2700 2.07270E-01
 -1      2701 1.86960E-01
 -1      2702 1.59706E-01
 -1      2703 1.61380E-01
 -1      2704 1.46192E-01
 -1      2705 1.51701E-01
 -1      2706 1.23069E-01
 -1      2707 1.72932E-01
 -1      2708 1.88316E-01
 -1      2709 1.30786E-01
 -1      2710 2.33607E-01
 -1      2711 2.82596E-01
 -1      2712 1.97308E-01
 -1      2713 3.34579E-01
 -1      2714 3.92406E-01
 -1      2715 2.94582E-01
 -1      2716 4.51783E-01
 -1      2717 5.13877E-01
 -1      2718 4.05942E-01
 -1      2719 5.80933E-01
 -1      2720 6.44002E-01
 -1      2721 5.32374E-01
 -1      2722 7.18102E-01
 -1      2723 7.76003E-01
 -1      2724 6.73530E-01
 -1      2725 8.54628E-01
 -1      2726 8.98531E-01
 -1      2727 8.26255E-01
 -1      2728 9.75369E-01
 -1      2729 1.03838E+00
 -1      2730 9.81719E-01
 -1      2731 1.13731E+00
 -1      2732 1.20296E+00
 -1      2733 1.15749E+00
 -1      2734 1.35505E+00
 -1      2735 1.38753E+00
 -1      2736 1.40851E+00
 -1      2737 1.54303E+00
 -1      2738 1.60629E+00
 -1      2739 1.71610E+00
 -1      2740 2.22984E+00
 -1      2741 2.36080E+00
 -1      2742 2.49515E+00
 -1      2743 1.70484E+00
 -1      2744 1.80678E+00
 -1      2745 2.46274E+00
 -1      2746 2.20144E+00
 -1      2747 2.21074E+00
 -1      2748 2.20144E+00
 -1      2749 2.24042E+00
 -1      2750 2.65549E+00
 -1      2751 2.62580E+00
 -1      2752 3.18766E+00
 -1      2753 3.36591E+00
 -1      2754 3.18766E+00
 -1      2755 3.42797E+00
 -1      2756 3.34331E+00
 -1      2757 3.78189E+00
 -1      2758 3.17823E+00
 -1      2759 2.73498E+00
 -1      2760 3.67887E+00
 -1      2761 2.26750E+00
 -1      2762 2.16646E+00
 -1      2763 3.04631E+00
 -1      2764 2.18987E+00
 -1      2765 2.11722E+00
 -1      2766 2.60223E+00
 -1      2767 1.91551E+00
 -1      2768 1.81908E+00
 -1      2769 2.42393E+00
 -1      2770 1.59714E+00
 -1      2771 1.50251E+00
 -1      2772 2.00028E+00
 -1      2773 1.37473E+00
 -1      2774 1.35174E+00
 -1      2775 1.65056E+00
 -1      2776 1.20589E+00
 -1      2777 1.14525E+00
 -1      2778 1.37692E+00
 -1      2779 1.05944E+00
 -1      2780 9.89402E-01
 -1      2781 1.14525E+00
 -1      2782 9.19365E-01
 -1      2783 8.78100E-01
 -1      2784 9.89402E-01
 -1      2785 8.08606E-01
 -1      2786 7.55262E-01
 -1      2787 8.49872E-01
 -1      2788 6.84661E-01
 -1      2789 6.25117E-01
 -1      2790 7.09777E-01
 -1      2791 5.59613E-01
 -1      2792 5.01014E-01
 -1      2793 5.73672E-01
 -1      2794 4.43481E-01
 -1      2795 3.89986E-01
 -1      2796 4.50634E-01
 -1      2797 3.41337E-01
 -1      2798 2.94961E-01
 -1      2799 3.44453E-01
 -1      2800 2.57206E-01
 -1      2801 2.18563E-01
 -1      2802 2.58048E-01
 -1      2803 1.89476E-01
 -1      2804 1.58415E-01
 -1      2805 1.91206E-01
 -1      2806 1.48672E-01
 -1      2807 1.24490E-01
 -1      2808 1.52376E-01
 -1      2809 3.59392E-01
 -1      2810 3.91359E-01
 -1      2811 2.23708E+01
 -1      2812 2.17501E+01
 -1      2813 4.28375E-01
 -1      2814 4.70355E-01
 -1      2815 3.51873E-01
 -1      2816 2.56805E-01
 -1      2817 2.86339E-01
 -1      2818 2.03662E-01
 -1      2819 2.31390E-01
 -1      2820 2.05994E-01
 -1      2821 1.76520E-01
 -1      2822 1.81705E-01
 -1      2823 1.58623E-01
 -1      2824 2.04744E-01
 -1      2825 1.88409E-01
 -1      2826 1.48554E-01
 -1      2827 2.69595E-01
 -1      2828 2.41939E-01
 -1      2829 1.97638E-01
 -1      2830 3.78322E-01
 -1      2831 3.21408E-01
 -1      2832 2.86646E-01
 -1      2833 4.96694E-01
 -1      2834 4.36147E-01
 -1      2835 3.96284E-01
 -1      2836 6.20089E-01
 -1      2837 5.59676E-01
 -1      2838 5.17092E-01
 -1      2839 7.39222E-01
 -1      2840 6.85817E-01
 -1      2841 6.45801E-01
 -1      2842 8.47134E-01
 -1      2843 8.02954E-01
 -1      2844 7.75260E-01
 -1      2845 9.39073E-01
 -1      2846 9.00707E-01
 -1      2847 8.92564E-01
 -1      2848 1.06543E+00
 -1      2849 1.02548E+00
 -1      2850 1.03255E+00
 -1      2851 1.16801E+00
 -1      2852 1.16520E+00
 -1      2853 1.21873E+00
 -1      2854 1.26748E+00
 -1      2855 1.24635E+00
 -1      2856 1.39684E+00
 -1      2857 1.45652E+00
 -1      2858 1.39594E+00
 -1      2859 1.60363E+00
 -1      2860 1.69597E+00
 -1      2861 1.59105E+00
 -1      2862 1.86661E+00
 -1      2863 1.82141E+00
 -1      2864 1.68637E+00
 -1      2865 1.99154E+00
 -1      2866 2.39725E+00
 -1      2867 2.14342E+00
 -1      2868 2.30396E+00
 -1      2869 3.28015E+00
 -1      2870 3.15285E+00
 -1      2871 3.38157E+00
 -1      2872 3.17906E+00
 -1      2873 3.17403E+00
 -1      2874 4.03105E+00
 -1      2875 3.21696E+00
 -1      2876 3.45891E+00
 -1      2877 4.20478E+00
 -1      2878 2.16584E+00
 -1      2879 2.35678E+00
 -1      2880 3.62446E+00
 -1      2881 1.67937E+00
 -1      2882 1.81899E+00
 -1      2883 2.41743E+00
 -1      2884 1.54194E+00
 -1      2885 1.60530E+00
 -1      2886 1.99651E+00
 -1      2887 1.26097E+00
 -1      2888 1.35899E+00
 -1      2889 1.73949E+00
 -1      2890 1.23538E+00
 -1      2891 1.20277E+00
 -1      2892 1.49834E+00
 -1      2893 1.12606E+00
 -1      2894 1.14397E+00
 -1      2895 1.34873E+00
 -1      2896 9.78934E-01
 -1      2897 1.02591E+00
 -1      2898 1.15717E+00
 -1      2899 8.73877E-01
 -1      2900 9.10566E-01
 -1      2901 9.88640E-01
 -1      2902 7.74148E-01
 -1      2903 8.17320E-01
 -1      2904 8.63715E-01
 -1      2905 6.57083E-01
 -1      2906 7.11499E-01
 -1      2907 7.44509E-01
 -1      2908 5.37915E-01
 -1      2909 5.95400E-01
 -1      2910 6.20176E-01
 -1      2911 4.26656E-01
 -1      2912 4.81221E-01
 -1      2913 5.01799E-01
 -1      2914 3.28521E-01
 -1      2915 3.76929E-01
 -1      2916 3.95377E-01
 -1      2917 2.45531E-01
 -1      2918 2.86424E-01
 -1      2919 3.03554E-01
 -1      2920 1.77782E-01
 -1      2921 2.10918E-01
 -1      2922 2.26845E-01
 -1      2923 1.23092E-01
 -1      2924 1.49549E-01
 -1      2925 1.63999E-01
 -1      2926 8.62301E-02
 -1      2927 1.02551E-01
 -1      2928 1.15225E-01
 -1      2929 7.97913E-02
 -1      2930 1.04092E-01
 -1      2931 1.04092E-01
 -1      2932 1.17514E-01
 -1      2933 9.64136E-02
 -1      2934 1.35658E-01
 -1      2935 9.97076E-02
 -1      2936 9.30736E-02
 -1      2937 3.85645E+00
 -1      2938 6.43830E+00
 -1      2939 1.03693E-01
 -1      2940 1.03761E-01
 -1      2941 1.19168E-01
 -1      2942 1.04092E-01
 -1      2943 1.03318E-01
 -1      2944 1.15889E-01
 -1      2945 1.19499E-01
 -1      2946 1.03124E-01
 -1      2947 1.03693E-01
 -1      2948 1.18838E-01
 -1      2949 9.34281E-02
 -1      2950 1.00119E-01
 -1      2951 1.15833E-01
 -1      2952 1.12977E-01
 -1      2953 1.08332E-01
 -1      2954 1.27731E-01
 -1      2955 1.02579E-01
 -1      2956 5.07681E-01
 -1      2957 5.88699E-01
 -1      2958 4.91439E-01
 -1      2959 4.26214E-01
 -1      2960 4.53145E+00
 -1      2961 4.08839E+00
 -1      2962 2.20535E+01
 -1      2963 1.57429E+01
 -1      2964 1.32927E+01
 -1      2965 7.91804E-01
 -1      2966 9.95245E+00
 -1      2967 1.38069E+01
 -1      2968 2.04315E+01
 -1      2969 2.52681E+01
 -1      2970 3.09277E-01
 -1      2971 3.40606E-01
 -1      2972 2.96071E-01
 -1      2973 2.54347E-01
 -1      2974 1.12203E+01
 -1      2975 1.58084E+01
 -1      2976 1.45148E+01
 -1      2977 1.25853E+01
 -1      2978 9.54114E+00
 -1      2979 5.99985E-01
 -1      2980 5.56412E-01
 -1      2981 4.00260E-01
 -1      2982 4.33172E-01
 -1      2983 4.21033E-01
 -1      2984 3.57634E-01
 -1      2985 3.59726E-01
 -1      2986 4.57086E+00
 -1      2987 3.78821E+00
 -1      2988 4.16383E+00
 -1      2989 3.56307E+00
 -1      2990 1.22462E+01
 -1      2991 9.30743E+00
 -1      2992 1.94453E+01
 -1      2993 1.44382E+01
 -1      2994 4.20338E-01
 -1      2995 4.32772E-01
 -1      2996 6.12001E+00
 -1      2997 3.94498E+00
 -1      2998 2.62295E+01
 -1      2999 2.12469E+01
 -1      3000 1.60883E+01
 -1      3001 5.79988E+00
 -1      3002 6.36254E+00
 -1      3003 8.22450E+00
 -1      3004 7.41112E+00
 -1      3005 3.88676E+00
 -1      3006 5.68096E+00
 -1      3007 6.55807E+00
 -1      3008 6.63200E+00
 -1      3009 5.71609E+00
 -1      3010 4.91578E+00
 -1      3011 3.73267E+00
 -1      3012 6.28152E+00
 -1      3013 5.36901E+00
 -1      3014 3.80127E+00
 -1      3015 4.94989E+00
 -1      3016 7.56433E+00
 -1      3017 8.82457E+00
 -1      3018 1.76084E+01
 -1      3019 2.29187E+01
 -1      3020 1.35371E+01
 -1      3021 3.80384E+00
 -1      3022 5.10211E+00
 -1      3023 1.64634E+01
 -1      3024 2.01359E+01
 -1      3025 6.91556E+00
 -1      3026 6.43306E+00
 -1      3027 4.59301E-01
 -1      3028 5.60985E-01
 -1      3029 3.85877E-01
 -1      3030 3.38724E-01
 -1      3031 3.82610E-01
 -1      3032 3.95401E-01
 -1      3033 6.81284E+00
 -1      3034 5.66037E-01
 -1      3035 6.25928E+00
 -1      3036 3.10168E+00
 -1      3037 4.37498E-01
 -1      3038 1.03238E+01
 -1      3039 1.56472E+01
 -1      3040 1.21238E+01
 -1      3041 9.93044E-02
 -1      3042 8.00991E-02
 -1      3043 7.31202E-02
 -1      3044 8.75439E+00
 -1      3045 5.72967E-01
 -1      3046 6.55207E-01
 -1      3047 6.17172E-01
 -1      3048 4.24388E-01
 -1      3049 3.79833E+00
 -1      3050 4.19183E-01
 -1      3051 6.60556E-02
 -1      3052 6.85498E-02
 -1      3053 8.34424E-02
 -1      3054 7.92654E-02
 -1      3055 6.67304E+00
 -1      3056 6.07568E+00
 -1      3057 4.19231E+00
 -1      3058 1.12543E+01
 -1      3059 1.06001E-01
 -1      3060 1.35658E-01
 -1      3061 5.97528E+00
 -1      3062 4.97830E+00
 -1      3063 1.35916E+01
 -1      3064 1.16638E+01
 -1      3065 9.00736E+00
 -1      3066 4.23772E+00
 -1      3067 5.20160E+00
 -1      3068 5.10484E+00
 -1      3069 7.97937E+00
 -1      3070 1.23681E+01
 -1      3071 5.60534E+00
 -1      3072 1.52481E+01
 -1      3073 1.48312E+01
 -1      3074 8.09484E+00
 -1      3075 4.21155E+00
 -1      3076 7.11859E+00
 -1      3077 6.70515E+00
 -1      3078 4.03424E-01
 -1      3079 4.17872E-01
 -1      3080 3.56881E-01
 -1      3081 3.46393E-01
 -1      3082 4.76789E+00
 -1      3083 4.88317E+00
 -1      3084 4.81746E+00
 -1      3085 4.98864E+00
 -1      3086 5.75320E+00
 -1      3087 2.89548E-01
 -1      3088 3.01050E-01
 -1      3089 3.19948E-01
 -1      3090 3.11716E-01
 -1      3091 2.97063E-01
 -1      3092 2.95327E-01
 -1      3093 3.10996E-01
 -1      3094 2.86454E-01
 -1      3095 2.77898E-01
 -1      3096 2.47066E-01
 -1      3097 2.34188E-01
 -1      3098 2.28875E-01
 -1      3099 2.08806E-01
 -1      3100 2.07441E-01
 -1      3101 1.88498E-01
 -1      3102 1.67406E-01
 -1      3103 1.68942E-01
 -1      3104 1.48785E-01
 -1      3105 1.23987E-01
 -1      3106 1.30013E-01
 -1      3107 1.16535E-01
 -1      3108 1.03021E-01
 -1      3109 1.03940E-01
 -1      3110 1.13645E-01
 -1      3111 1.34877E-01
 -1      3112 1.07112E-01
 -1      3113 1.70585E-01
 -1      3114 2.15876E-01
 -1      3115 1.53444E-01
 -1      3116 2.62515E-01
 -1      3117 3.14498E-01
 -1      3118 2.35792E-01
 -1      3119 3.68410E-01
 -1      3120 4.27786E-01
 -1      3121 3.36343E-01
 -1      3122 4.87414E-01
 -1      3123 5.54470E-01
 -1      3124 4.49882E-01
 -1      3125 6.25286E-01
 -1      3126 6.99385E-01
 -1      3127 5.80325E-01
 -1      3128 7.92318E-01
 -1      3129 8.70943E-01
 -1      3130 7.44074E-01
 -1      3131 9.91977E-01
 -1      3132 1.06882E+00
 -1      3133 9.58041E-01
 -1      3134 1.22401E+00
 -1      3135 1.32294E+00
 -1      3136 1.23427E+00
 -1      3137 1.49424E+00
 -1      3138 1.64633E+00
 -1      3139 1.56076E+00
 -1      3140 1.86517E+00
 -1      3141 2.02067E+00
 -1      3142 1.95091E+00
 -1      3143 2.67180E+00
 -1      3144 3.29536E+00
 -1      3145 2.82088E+00
 -1      3146 4.15155E+00
 -1      3147 3.49559E+00
 -1      3148 3.89026E+00
 -1      3149 2.79962E+00
 -1      3150 2.82930E+00
 -1      3151 3.62745E+00
 -1      3152 4.15962E+00
 -1      3153 4.51010E+00
 -1      3154 4.57216E+00
 -1      3155 4.37663E+00
 -1      3156 4.21155E+00
 -1      3157 3.09562E+00
 -1      3158 3.11903E+00
 -1      3159 3.12439E+00
 -1      3160 2.92269E+00
 -1      3161 2.59706E+00
 -1      3162 2.37512E+00
 -1      3163 3.29752E+00
 -1      3164 2.07438E+00
 -1      3165 1.94659E+00
 -1      3166 2.67115E+00
 -1      3167 1.64599E+00
 -1      3168 1.50014E+00
 -1      3169 2.06981E+00
 -1      3170 1.33851E+00
 -1      3171 1.25270E+00
 -1      3172 1.60759E+00
 -1      3173 1.10265E+00
 -1      3174 1.03261E+00
 -1      3175 1.29591E+00
 -1      3176 9.08915E-01
 -1      3177 8.39421E-01
 -1      3178 1.02216E+00
 -1      3179 7.43887E-01
 -1      3180 6.73286E-01
 -1      3181 8.02930E-01
 -1      3182 5.96430E-01
 -1      3183 5.30926E-01
 -1      3184 6.30540E-01
 -1      3185 4.71527E-01
 -1      3186 4.13995E-01
 -1      3187 4.94286E-01
 -1      3188 3.63837E-01
 -1      3189 3.15187E-01
 -1      3190 3.84730E-01
 -1      3191 2.73526E-01
 -1      3192 2.35772E-01
 -1      3193 2.92911E-01
 -1      3194 2.03058E-01
 -1      3195 1.73971E-01
 -1      3196 2.18537E-01
 -1      3197 1.53607E-01
 -1      3198 1.43865E-01
 -1      3199 1.65459E-01
 -1      3200 1.10075E-01
 -1      3201 1.32032E-01
 -1      3202 1.56837E-01
 -1      3203 1.82252E-01
 -1      3204 1.08290E-01
 -1      3205 1.97008E-01
 -1      3206 1.59813E-01
 -1      3207 2.92762E-01
 -1      3208 2.40950E-01
 -1      3209 2.03124E-01
 -1      3210 4.02145E-01
 -1      3211 3.44319E-01
 -1      3212 2.98623E-01
 -1      3213 5.27847E-01
 -1      3214 4.64865E-01
 -1      3215 4.12900E-01
 -1      3216 6.66894E-01
 -1      3217 6.01167E-01
 -1      3218 5.48940E-01
 -1      3219 8.13441E-01
 -1      3220 7.49709E-01
 -1      3221 7.05075E-01
 -1      3222 9.63538E-01
 -1      3223 9.09966E-01
 -1      3224 8.84415E-01
 -1      3225 1.15857E+00
 -1      3226 1.07216E+00
 -1      3227 1.08956E+00
 -1      3228 1.36670E+00
 -1      3229 1.26693E+00
 -1      3230 1.30654E+00
 -1      3231 1.66252E+00
 -1      3232 1.58418E+00
 -1      3233 1.63238E+00
 -1      3234 2.01726E+00
 -1      3235 1.88881E+00
 -1      3236 2.07615E+00
 -1      3237 2.78302E+00
 -1      3238 2.64850E+00
 -1      3239 2.93367E+00
 -1      3240 2.63466E+00
 -1      3241 2.31264E+00
 -1      3242 4.13716E+00
 -1      3243 3.38157E+00
 -1      3244 3.98148E+00
 -1      3245 4.08760E+00
 -1      3246 5.20160E+00
 -1      3247 4.92175E+00
 -1      3248 3.62446E+00
 -1      3249 4.48463E+00
 -1      3250 2.48192E+00
 -1      3251 2.82877E+00
 -1      3252 2.14153E+00
 -1      3253 2.21560E+00
 -1      3254 2.62694E+00
 -1      3255 2.09755E+00
 -1      3256 2.28050E+00
 -1      3257 2.49959E+00
 -1      3258 1.78458E+00
 -1      3259 1.84279E+00
 -1      3260 2.38380E+00
 -1      3261 1.47201E+00
 -1      3262 1.56341E+00
 -1      3263 1.90786E+00
 -1      3264 1.20334E+00
 -1      3265 1.30350E+00
 -1      3266 1.51818E+00
 -1      3267 1.02577E+00
 -1      3268 1.09414E+00
 -1      3269 1.24047E+00
 -1      3270 8.64756E-01
 -1      3271 9.21314E-01
 -1      3272 1.02682E+00
 -1      3273 7.13569E-01
 -1      3274 7.76218E-01
 -1      3275 8.33816E-01
 -1      3276 5.75347E-01
 -1      3277 6.37031E-01
 -1      3278 6.68739E-01
 -1      3279 4.53211E-01
 -1      3280 5.09905E-01
 -1      3281 5.26759E-01
 -1      3282 3.49741E-01
 -1      3283 3.99468E-01
 -1      3284 4.07575E-01
 -1      3285 2.65100E-01
 -1      3286 3.07196E-01
 -1      3287 3.11287E-01
 -1      3288 1.96186E-01
 -1      3289 2.30799E-01
 -1      3290 2.34441E-01
 -1      3291 1.40014E-01
 -1      3292 1.68247E-01
 -1      3293 1.72201E-01
 -1      3294 9.97572E-02
 -1      3295 1.20298E-01
 -1      3296 1.24546E-01
 -1      3297 8.85157E-02
 -1      3298 1.56019E-01
 -1      3299 1.41115E-01
 -1      3300 1.34521E-01
 -1      3301 1.34852E-01
 -1      3302 4.64795E+00
 -1      3303 3.84765E+00
 -1      3304 1.08432E+01
 -1      3305 1.11467E+01
 -1      3306 4.07854E-01
 -1      3307 3.07077E-01
 -1      3308 2.59904E-01
 -1      3309 3.98386E-01
 -1      3310 1.23849E+01
 -1      3311 1.33464E+01
 -1      3312 1.33178E-01
 -1      3313 1.36183E-01
 -1      3314 1.61465E-01
 -1      3315 3.10954E+00
 -1      3316 3.39025E+00
 -1      3317 1.25461E-01
 -1      3318 1.13573E-01
 -1      3319 8.69821E-02
 -1      3320 1.24831E-01
 -1      3321 2.91102E-01
 -1      3322 3.28117E-01
 -1      3323 6.59180E+00
 -1      3324 5.46242E+00
 -1      3325 2.93699E+00
 -1      3326 4.19399E+00
 -1      3327 7.24462E+00
 -1      3328 6.16169E+00
 -1      3329 3.13362E-01
 -1      3330 3.03724E-01
 -1      3331 2.35472E-01
 -1      3332 6.55157E+00
 -1      3333 8.28212E+00
 -1      3334 5.67520E+00
 -1      3335 4.38410E+00
 -1      3336 9.21066E+00
 -1      3337 7.61174E+00
 -1      3338 1.14111E+01
 -1      3339 1.01831E+01
 -1      3340 3.47879E+00
 -1      3341 1.20893E+01
 -1      3342 1.23849E+01
 -1      3343 1.34751E+01
 -1      3344 1.16734E+01
 -1      3345 1.07957E+01
 -1      3346 8.60368E+00
 -1      3347 6.78600E+00
 -1      3348 3.51379E+00
 -1      3349 1.36183E-01
 -1      3350 1.36183E-01
 -1      3351 1.51866E-01
 -1      3352 1.53528E-01
 -1      3353 1.13029E+01
 -1      3354 1.07551E+01
 -1      3355 3.19261E-01
 -1      3356 3.02074E-01
 -1      3357 3.07279E-01
 -1      3358 6.07568E+00
 -1      3359 7.20356E+00
 -1      3360 3.04631E+00
 -1      3361 2.70970E+00
 -1      3362 2.37900E+00
 -1      3363 2.38860E+00
 -1      3364 3.54515E+00
 -1      3365 3.56311E+00
 -1      3366 3.07720E-01
 -1      3367 3.07366E-01
 -1      3368 2.80358E-01
 -1      3369 2.59784E-01
 -1      3370 3.18459E-01
 -1      3371 3.18459E-01
 -1      3372 9.77171E+00
 -1      3373 2.10165E-01
 -1      3374 8.30407E+00
 -1      3375 8.14290E+00
 -1      3376 6.10124E+00
 -1      3377 1.15570E-01
 -1      3378 1.02596E-01
 -1      3379 4.32821E+00
 -1      3380 2.89817E+00
 -1      3381 3.61501E+00
 -1      3382 3.61779E+00
 -1      3383 3.17048E+00
 -1      3384 2.81754E-01
 -1      3385 3.42524E-01
 -1      3386 3.79850E-01
 -1      3387 2.67966E-01
 -1      3388 2.44211E-01
 -1      3389 2.49180E-01
 -1      3390 5.20200E+00
 -1      3391 7.22117E+00
 -1      3392 7.00581E+00
 -1      3393 3.68894E+00
 -1      3394 1.53287E-01
 -1      3395 2.02444E-01
 -1      3396 2.25382E-01
 -1      3397 8.96157E+00
 -1      3398 8.25365E+00
 -1      3399 4.81746E+00
 -1      3400 4.42690E+00
 -1      3401 1.05504E+01
 -1      3402 7.76838E+00
 -1      3403 8.58923E+00
 -1      3404 1.43865E-01
 -1      3405 1.57249E-01
 -1      3406 1.37087E-01
 -1      3407 1.33477E-01
 -1      3408 1.36768E-01
 -1      3409 1.42634E-01
 -1      3410 3.66012E-01
 -1      3411 3.93911E-01
 -1      3412 2.72959E-01
 -1      3413 2.82322E-01
 -1      3414 5.28093E+00
 -1      3415 2.79526E-01
 -1      3416 3.06055E-01
 -1      3417 2.00928E-01
 -1      3418 1.37087E-01
 -1      3419 1.37087E-01
 -1      3420 1.54675E-01
 -1      3421 1.52440E-01
 -1      3422 8.60901E+00
 -1      3423 7.73714E+00
 -1      3424 1.06089E+01
 -1      3425 8.16266E+00
 -1      3426 4.94045E+00
 -1      3427 1.97141E-01
 -1      3428 9.64304E+00
 -1      3429 6.26132E+00
 -1      3430 3.68791E+00
 -1      3431 2.99048E-01
 -1      3432 3.01514E-01
 -1      3433 2.21693E-01
 -1      3434 3.22040E-01
 -1      3435 3.19948E-01
 -1      3436 2.84354E-01
 -1      3437 2.80774E-01
 -1      3438 9.02272E+00
 -1      3439 5.18440E+00
 -1      3440 8.18778E+00
 -1      3441 7.31012E+00
 -1      3442 4.32821E+00
 -1      3443 1.90067E-01
 -1      3444 1.71876E-01
 -1      3445 1.60722E-01
 -1      3446 1.40414E-01
 -1      3447 1.43348E-01
 -1      3448 1.29243E-01
 -1      3449 1.10622E-01
 -1      3450 1.21023E-01
 -1      3451 1.18284E-01
 -1      3452 1.10832E-01
 -1      3453 1.17515E-01
 -1      3454 1.18572E-01
 -1      3455 1.29196E-01
 -1      3456 1.32917E-01
 -1      3457 1.50565E-01
 -1      3458 1.86274E-01
 -1      3459 1.62026E-01
 -1      3460 2.30683E-01
 -1      3461 2.77323E-01
 -1      3462 2.27804E-01
 -1      3463 3.30246E-01
 -1      3464 3.84157E-01
 -1      3465 3.25136E-01
 -1      3466 4.46893E-01
 -1      3467 5.06520E-01
 -1      3468 4.40795E-01
 -1      3469 5.80325E-01
 -1      3470 6.51141E-01
 -1      3471 5.77336E-01
 -1      3472 7.36419E-01
 -1      3473 8.29352E-01
 -1      3474 7.36419E-01
 -1      3475 9.33154E-01
 -1      3476 1.05419E+00
 -1      3477 9.25499E-01
 -1      3478 1.21773E+00
 -1      3479 1.37292E+00
 -1      3480 1.19284E+00
 -1      3481 1.64183E+00
 -1      3482 1.81314E+00
 -1      3483 1.62529E+00
 -1      3484 2.26912E+00
 -1      3485 2.48797E+00
 -1      3486 2.35019E+00
 -1      3487 3.08800E+00
 -1      3488 3.73913E+00
 -1      3489 3.40621E+00
 -1      3490 1.86839E-01
 -1      3491 1.78902E-01
 -1      3492 3.39247E+00
 -1      3493 3.09173E+00
 -1      3494 2.41756E+00
 -1      3495 2.11696E+00
 -1      3496 3.13887E+00
 -1      3497 1.90917E+00
 -1      3498 1.74754E+00
 -1      3499 2.25691E+00
 -1      3500 1.43634E+00
 -1      3501 1.28629E+00
 -1      3502 1.73792E+00
 -1      3503 1.12121E+00
 -1      3504 9.97518E-01
 -1      3505 1.26165E+00
 -1      3506 8.82088E-01
 -1      3507 7.86554E-01
 -1      3508 9.81141E-01
 -1      3509 7.03097E-01
 -1      3510 6.26241E-01
 -1      3511 7.82255E-01
 -1      3512 5.53684E-01
 -1      3513 4.94286E-01
 -1      3514 6.26241E-01
 -1      3515 4.32954E-01
 -1      3516 3.82796E-01
 -1      3517 4.92352E-01
 -1      3518 3.31861E-01
 -1      3519 2.90200E-01
 -1      3520 3.80085E-01
 -1      3521 2.49161E-01
 -1      3522 2.16447E-01
 -1      3523 2.88111E-01
 -1      3524 1.77613E-01
 -1      3525 2.99717E+00
 -1      3526 3.25193E+00
 -1      3527 3.43251E-01
 -1      3528 2.91694E-01
 -1      3529 2.41706E-01
 -1      3530 1.97765E-01
 -1      3531 2.86335E-01
 -1      3532 6.02355E-01
 -1      3533 5.29036E-01
 -1      3534 7.56288E-01
 -1      3535 6.73473E-01
 -1      3536 6.53569E-01
 -1      3537 9.52991E-01
 -1      3538 8.56465E-01
 -1      3539 8.24863E-01
 -1      3540 1.20050E+00
 -1      3541 1.09188E+00
 -1      3542 1.06393E+00
 -1      3543 1.52448E+00
 -1      3544 1.41612E+00
 -1      3545 1.41845E+00
 -1      3546 2.00123E+00
 -1      3547 1.78376E+00
 -1      3548 1.89334E+00
 -1      3549 2.52407E+00
 -1      3550 2.29778E+00
 -1      3551 2.44916E+00
 -1      3552 3.62462E+00
 -1      3553 2.99338E+00
 -1      3554 3.21502E+00
 -1      3555 4.20587E+00
 -1      3556 5.00424E+00
 -1      3557 3.42159E+00
 -1      3558 2.21639E+00
 -1      3559 2.43756E+00
 -1      3560 3.30570E+00
 -1      3561 1.64629E+00
 -1      3562 1.81480E+00
 -1      3563 2.34450E+00
 -1      3564 1.25268E+00
 -1      3565 1.36188E+00
 -1      3566 1.65849E+00
 -1      3567 9.72969E-01
 -1      3568 1.07743E+00
 -1      3569 1.19883E+00
 -1      3570 7.85848E-01
 -1      3571 8.74387E-01
 -1      3572 9.25001E-01
 -1      3573 6.39430E-01
 -1      3574 7.15968E-01
 -1      3575 7.56539E-01
 -1      3576 5.07735E-01
 -1      3577 5.73177E-01
 -1      3578 6.20406E-01
 -1      3579 3.95072E-01
 -1      3580 4.48815E-01
 -1      3581 4.95233E-01
 -1      3582 3.02167E-01
 -1      3583 3.44712E-01
 -1      3584 3.85951E-01
 -1      3585 2.25591E-01
 -1      3586 2.59892E-01
 -1      3587 2.93316E-01
 -1      3588 1.64126E-01
 -1      3589 1.92065E-01
 -1      3590 2.17516E-01
 -1      3591 1.04686E-01
 -1      3592 9.76211E-02
 -1      3593 1.13936E-01
 -1      3594 1.20951E-01
 -1      3595 7.78387E+00
 -1      3596 6.81148E+00
 -1      3597 7.66527E+00
 -1      3598 7.92974E+00
 -1      3599 4.63726E-01
 -1      3600 4.01006E-01
 -1      3601 3.94078E-01
 -1      3602 5.17142E-01
 -1      3603 9.63029E-02
 -1      3604 1.21108E-01
 -1      3605 4.00943E+00
 -1      3606 2.19371E-01
 -1      3607 2.01841E-01
 -1      3608 2.14895E-01
 -1      3609 2.00134E-01
 -1      3610 1.91578E-01
 -1      3611 1.56013E-01
 -1      3612 3.00171E-01
 -1      3613 3.08194E-01
 -1      3614 2.52827E-01
 -1      3615 2.69167E-01
 -1      3616 2.00928E-01
 -1      3617 1.95917E-01
 -1      3618 2.13952E-01
 -1      3619 1.99704E-01
 -1      3620 1.82295E-01
 -1      3621 1.89568E-01
 -1      3622 1.46958E-01
 -1      3623 4.43227E+00
 -1      3624 8.43605E+00
 -1      3625 8.56472E+00
 -1      3626 7.57718E+00
 -1      3627 7.66527E+00
 -1      3628 6.63344E+00
 -1      3629 4.55563E+00
 -1      3630 4.06914E+00
 -1      3631 6.43697E+00
 -1      3632 5.07791E+00
 -1      3633 4.20660E+00
 -1      3634 5.60203E+00
 -1      3635 8.43605E+00
 -1      3636 8.43605E+00
 -1      3637 7.22907E+00
 -1      3638 2.08237E-01
 -1      3639 3.14490E+00
 -1      3640 4.87331E+00
 -1      3641 4.06420E+00
 -1      3642 3.73857E+00
 -1      3643 5.89325E+00
 -1      3644 2.19250E-01
 -1      3645 4.59532E+00
 -1      3646 4.97230E+00
 -1      3647 4.99425E+00
 -1      3648 3.28387E+00
 -1      3649 1.78344E-01
 -1      3650 1.76683E-01
 -1      3651 2.29958E-01
 -1      3652 2.44364E-01
 -1      3653 1.97277E-01
 -1      3654 6.85213E+00
 -1      3655 1.01878E-01
 -1      3656 1.14697E-01
 -1      3657 1.05376E-01
 -1      3658 1.15932E-01
 -1      3659 1.27918E-01
 -1      3660 1.48110E-01
 -1      3661 1.95180E-01
 -1      3662 1.56598E-01
 -1      3663 1.22246E-01
 -1      3664 4.15914E+00
 -1      3665 7.63485E+00
 -1      3666 6.06146E+00
 -1      3667 5.61514E+00
 -1      3668 1.51426E-01
 -1      3669 1.53516E-01
 -1      3670 1.33652E-01
 -1      3671 2.30078E-01
 -1      3672 2.12171E-01
 -1      3673 2.44736E-01
 -1      3674 7.12866E+00
 -1      3675 5.68648E+00
 -1      3676 5.83236E+00
 -1      3677 5.42347E+00
 -1      3678 2.47258E-01
 -1      3679 2.47258E-01
 -1      3680 1.93532E-01
 -1      3681 1.95767E-01
 -1      3682 2.20010E-01
 -1      3683 2.02110E-01
 -1      3684 2.25246E-01
 -1      3685 1.87857E-01
 -1      3686 6.84766E+00
 -1      3687 5.79280E+00
 -1      3688 5.06146E+00
 -1      3689 1.68048E-01
 -1      3690 2.47258E-01
 -1      3691 2.43261E-01
 -1      3692 2.10161E-01
 -1      3693 6.39760E+00
 -1      3694 7.15015E+00
 -1      3695 6.20640E+00
 -1      3696 2.21693E-01
 -1      3697 2.21693E-01
 -1      3698 2.43681E-01
 -1      3699 7.53183E+00
 -1      3700 6.32484E+00
 -1      3701 6.05145E+00
 -1      3702 2.03718E-01
 -1      3703 1.78344E-01
 -1      3704 1.78344E-01
 -1      3705 3.89725E+00
 -1      3706 3.40850E+00
 -1      3707 4.53745E+00
 -1      3708 4.02939E+00
 -1      3709 2.84890E+00
 -1      3710 1.22304E-01
 -1      3711 1.11134E-01
 -1      3712 1.23237E-01
 -1      3713 1.30899E-01
 -1      3714 1.24518E-01
 -1      3715 1.41648E-01
 -1      3716 1.49388E-01
 -1      3717 1.47371E-01
 -1      3718 1.61140E-01
 -1      3719 1.82510E-01
 -1      3720 1.69872E-01
 -1      3721 2.11294E-01
 -1      3722 2.55704E-01
 -1      3723 2.10409E-01
 -1      3724 3.02483E-01
 -1      3725 3.55406E-01
 -1      3726 2.85973E-01
 -1      3727 4.13450E-01
 -1      3728 4.76186E-01
 -1      3729 3.90797E-01
 -1      3730 5.49327E-01
 -1      3731 6.23132E-01
 -1      3732 5.21982E-01
 -1      3733 7.17196E-01
 -1      3734 8.02474E-01
 -1      3735 6.89187E-01
 -1      3736 9.25499E-01
 -1      3737 1.02930E+00
 -1      3738 9.06276E-01
 -1      3739 1.19284E+00
 -1      3740 1.35638E+00
 -1      3741 1.19284E+00
 -1      3742 1.56738E+00
 -1      3743 1.83630E+00
 -1      3744 1.56738E+00
 -1      3745 2.17653E+00
 -1      3746 2.63251E+00
 -1      3747 2.11862E+00
 -1      3748 2.25674E-01
 -1      3749 1.31955E-01
 -1      3750 1.20801E-01
 -1      3751 1.10912E-01
 -1      3752 2.03161E-01
 -1      3753 1.82813E-01
 -1      3754 2.34609E-01
 -1      3755 1.64145E-01
 -1      3756 1.87942E-01
 -1      3757 1.38776E-01
 -1      3758 2.46470E+00
 -1      3759 2.25691E+00
 -1      3760 1.96859E+00
 -1      3761 1.65739E+00
 -1      3762 2.17638E+00
 -1      3763 1.42672E+00
 -1      3764 1.26165E+00
 -1      3765 1.65739E+00
 -1      3766 1.09657E+00
 -1      3767 9.81141E-01
 -1      3768 1.26165E+00
 -1      3769 8.53096E-01
 -1      3770 7.69640E-01
 -1      3771 9.68526E-01
 -1      3772 6.72570E-01
 -1      3773 6.00013E-01
 -1      3774 7.43411E-01
 -1      3775 5.24877E-01
 -1      3776 4.63544E-01
 -1      3777 5.71205E-01
 -1      3778 4.04752E-01
 -1      3779 3.53817E-01
 -1      3780 4.37277E-01
 -1      3781 3.06742E-01
 -1      3782 2.65703E-01
 -1      3783 3.31409E-01
 -1      3784 2.03634E+00
 -1      3785 2.43794E+00
 -1      3786 2.54074E+00
 -1      3787 4.61293E+00
 -1      3788 9.25041E-01
 -1      3789 8.24863E-01
 -1      3790 7.24686E-01
 -1      3791 6.53569E-01
 -1      3792 8.24863E-01
 -1      3793 1.80094E+00
 -1      3794 1.58532E+00
 -1      3795 2.58977E+00
 -1      3796 2.33050E+00
 -1      3797 2.49737E+00
 -1      3798 3.48278E+00
 -1      3799 3.18623E+00
 -1      3800 3.62339E+00
 -1      3801 3.73729E+00
 -1      3802 6.29318E+00
 -1      3803 6.29318E+00
 -1      3804 6.29318E+00
 -1      3805 5.91624E+00
 -1      3806 1.56220E+00
 -1      3807 1.84661E+00
 -1      3808 1.94004E+00
 -1      3809 1.14805E+00
 -1      3810 1.32330E+00
 -1      3811 1.51142E+00
 -1      3812 9.06476E-01
 -1      3813 1.00506E+00
 -1      3814 1.12953E+00
 -1      3815 7.28733E-01
 -1      3816 7.98613E-01
 -1      3817 8.78671E-01
 -1      3818 5.76832E-01
 -1      3819 6.43085E-01
 -1      3820 6.85160E-01
 -1      3821 4.49764E-01
 -1      3822 5.08685E-01
 -1      3823 5.31364E-01
 -1      3824 3.45756E-01
 -1      3825 3.96117E-01
 -1      3826 4.09569E-01
 -1      3827 2.59927E-01
 -1      3828 3.02201E-01
 -1      3829 3.12367E-01
 -1      3830 2.78262E-01
 -1      3831 2.20770E-01
 -1      3832 2.44004E-01
 -1      3833 2.06908E-01
 -1      3834 2.40424E-01
 -1      3835 5.07737E+00
 -1      3836 1.32193E-01
 -1      3837 1.30682E-01
 -1      3838 1.08135E-01
 -1      3839 1.67182E-01
 -1      3840 4.45478E+00
 -1      3841 2.43681E-01
 -1      3842 2.43681E-01
 -1      3843 2.52827E-01
 -1      3844 1.90036E-01
 -1      3845 1.21345E-01
 -1      3846 1.31912E-01
 -1      3847 1.06581E-01
 -1      3848 4.40320E+00
 -1      3849 3.22970E-01
 -1      3850 2.72982E-01
 -1      3851 5.67780E+00
 -1      3852 5.67780E+00
 -1      3853 1.26301E+00
 -1      3854 1.12412E+00
 -1      3855 1.64550E+00
 -1      3856 1.82481E-01
 -1      3857 2.30078E-01
 -1      3858 2.30078E-01
 -1      3859 2.71170E-01
 -1      3860 1.93336E-01
 -1      3861 1.39691E-01
 -1      3862 1.24645E-01
 -1      3863 1.93336E-01
 -1      3864 2.44305E-01
 -1      3865 4.40320E+00
 -1      3866 4.38104E+00
 -1      3867 5.27052E+00
 -1      3868 4.63969E+00
 -1      3869 2.97965E+00
 -1      3870 3.57968E+00
 -1      3871 1.88356E-01
 -1      3872 1.61803E-01
 -1      3873 1.52048E-01
 -1      3874 1.67347E-01
 -1      3875 1.68978E-01
 -1      3876 1.37142E-01
 -1      3877 1.14879E-01
 -1      3878 1.21690E-01
 -1      3879 1.12412E+00
 -1      3880 2.27128E-01
 -1      3881 1.85961E-01
 -1      3882 2.63763E-01
 -1      3883 6.40840E-01
 -1      3884 5.69723E-01
 -1      3885 5.04413E-01
 -1      3886 4.47436E+00
 -1      3887 5.35729E+00
 -1      3888 5.88950E+00
 -1      3889 4.95361E+00
 -1      3890 4.98527E+00
 -1      3891 2.20603E-01
 -1      3892 2.20603E-01
 -1      3893 2.87147E-01
 -1      3894 3.05481E-01
 -1      3895 4.87671E+00
 -1      3896 2.20603E-01
 -1      3897 2.37452E-01
 -1      3898 2.38045E-01
 -1      3899 4.36388E-01
 -1      3900 3.78633E-01
 -1      3901 4.88968E-01
 -1      3902 2.43748E-01
 -1      3903 1.76164E-01
 -1      3904 1.76164E-01
 -1      3905 5.56996E+00
 -1      3906 4.95172E+00
 -1      3907 4.61558E+00
 -1      3908 2.53817E-01
 -1      3909 2.46623E-01
 -1      3910 2.37477E-01
 -1      3911 2.20718E-01
 -1      3912 3.65280E-01
 -1      3913 5.34752E+00
 -1      3914 5.45469E+00
 -1      3915 4.49905E+00
 -1      3916 5.02765E+00
 -1      3917 4.78857E+00
 -1      3918 2.80598E+00
 -1      3919 1.32032E-01
 -1      3920 1.26456E-01
 -1      3921 1.32215E-01
 -1      3922 1.70600E-01
 -1      3923 1.65729E-01
 -1      3924 1.70440E-01
 -1      3925 1.39675E-01
 -1      3926 1.36603E-01
 -1      3927 1.24620E-01
 -1      3928 1.36724E-01
 -1      3929 1.50004E-01
 -1      3930 1.60753E-01
 -1      3931 1.50106E-01
 -1      3932 1.73766E-01
 -1      3933 1.85518E-01
 -1      3934 1.76400E-01
 -1      3935 2.01161E-01
 -1      3936 2.29946E-01
 -1      3937 2.05055E-01
 -1      3938 2.55904E-01
 -1      3939 3.02683E-01
 -1      3940 2.46656E-01
 -1      3941 3.44818E-01
 -1      3942 4.02862E-01
 -1      3943 3.14748E-01
 -1      3944 4.63057E-01
 -1      3945 5.36198E-01
 -1      3946 4.17078E-01
 -1      3947 6.17187E-01
 -1      3948 7.11252E-01
 -1      3949 5.58262E-01
 -1      3950 8.25114E-01
 -1      3951 9.48138E-01
 -1      3952 7.53114E-01
 -1      3953 1.11536E+00
 -1      3954 1.27890E+00
 -1      3955 1.03420E+00
 -1      3956 1.54376E+00
 -1      3957 1.75476E+00
 -1      3958 1.46627E+00
 -1      3959 2.55301E+00
 -1      3960 2.89324E+00
 -1      3961 2.52938E+00
 -1      3962 3.09863E+00
 -1      3963 2.81031E+00
 -1      3964 1.52862E-01
 -1      3965 1.67030E-01
 -1      3966 1.49613E-01
 -1      3967 1.04415E-01
 -1      3968 1.09979E-01
 -1      3969 1.13052E-01
 -1      3970 1.22415E-01
 -1      3971 1.38449E-01
 -1      3972 1.21363E-01
 -1      3973 1.92246E+00
 -1      3974 1.69179E+00
 -1      3975 2.84471E+00
 -1      3976 1.36677E+00
 -1      3977 1.20170E+00
 -1      3978 1.63184E+00
 -1      3979 1.01829E+00
 -1      3980 8.90241E-01
 -1      3981 1.12341E+00
 -1      3982 7.67556E-01
 -1      3983 6.70486E-01
 -1      3984 8.17316E-01
 -1      3985 5.83481E-01
 -1      3986 5.08345E-01
 -1      3987 6.07626E-01
 -1      3988 4.44803E-01
 -1      3989 3.86011E-01
 -1      3990 4.57079E-01
 -1      3991 3.53616E-01
 -1      3992 3.06541E-01
 -1      3993 3.61142E-01
 -1      3994 1.51142E+00
 -1      3995 1.75031E+00
 -1      3996 1.19629E+00
 -1      3997 9.97219E-01
 -1      3998 8.76713E-01
 -1      3999 7.76535E-01
 -1      4000 9.48891E-01
 -1      4001 3.77528E+00
 -1      4002 3.17882E+00
 -1      4003 4.34400E+00
 -1      4004 2.58960E+00
 -1      4005 2.06004E+00
 -1      4006 2.74149E+00
 -1      4007 2.61190E-01
 -1      4008 3.05706E-01
 -1      4009 2.87371E-01
 -1      4010 3.05706E-01
 -1      4011 1.79732E+00
 -1      4012 1.98706E+00
 -1      4013 1.79732E+00
 -1      4014 8.59393E-01
 -1      4015 9.67256E-01
 -1      4016 6.56825E-01
 -1      4017 7.42473E-01
 -1      4018 8.31058E-01
 -1      4019 5.02587E-01
 -1      4020 5.70734E-01
 -1      4021 6.28048E-01
 -1      4022 3.84554E-01
 -1      4023 4.38201E-01
 -1      4024 4.77571E-01
 -1      4025 3.30927E-01
 -1      4026 4.02822E+00
 -1      4027 2.62965E+00
 -1      4028 3.70734E+00
 -1      4029 3.21584E+00
 -1      4030 2.21869E+00
 -1      4031 4.21670E+00
 -1      4032 4.21670E+00
 -1      4033 3.20341E+00
 -1      4034 3.81302E+00
 -1      4035 1.58555E-01
 -1      4036 1.41684E-01
 -1      4037 1.53444E-01
 -1      4038 1.90503E-01
 -1      4039 9.83140E-02
 -1      4040 9.95871E-02
 -1      4041 1.70663E+00
 -1      4042 1.38432E+00
 -1      4043 1.25742E+00
 -1      4044 1.79886E+00
 -1      4045 1.06299E-01
 -1      4046 1.06581E-01
 -1      4047 9.80323E-02
 -1      4048 3.87221E-01
 -1      4049 3.31558E-01
 -1      4050 1.46978E-01
 -1      4051 1.80975E-01
 -1      4052 1.91531E-01
 -1      4053 1.12611E-01
 -1      4054 1.14114E-01
 -1      4055 1.02790E-01
 -1      4056 2.64601E-01
 -1      4057 2.98912E-01
 -1      4058 2.99137E-01
 -1      4059 2.65194E-01
 -1      4060 3.50594E+00
 -1      4061 1.12953E+00
 -1      4062 1.27253E+00
 -1      4063 1.11025E+00
 -1      4064 2.83396E-01
 -1      4065 1.44291E-01
 -1      4066 1.32714E-01
 -1      4067 1.28524E-01
 -1      4068 1.29249E-01
 -1      4069 1.40600E-01
 -1      4070 4.20435E+00
 -1      4071 1.26319E-01
 -1      4072 1.51142E+00
 -1      4073 7.30460E-01
 -1      4074 6.78611E-01
 -1      4075 5.94765E-01
 -1      4076 2.84524E-01
 -1      4077 2.38670E-01
 -1      4078 3.06465E-01
 -1      4079 3.74798E+00
 -1      4080 3.15880E+00
 -1      4081 3.59558E-01
 -1      4082 2.07597E+00
 -1      4083 2.64902E-01
 -1      4084 2.64902E-01
 -1      4085 3.10253E-01
 -1      4086 5.15417E-01
 -1      4087 4.47391E-01
 -1      4088 5.53187E-01
 -1      4089 4.22736E+00
 -1      4090 4.38191E+00
 -1      4091 1.24645E-01
 -1      4092 4.13669E-01
 -1      4093 3.77123E+00
 -1      4094 4.59888E+00
 -1      4095 3.84716E+00
 -1      4096 3.59319E+00
 -1      4097 1.09979E-01
 -1      4098 1.14790E-01
 -1      4099 7.77912E-02
 -1      4100 1.36500E-01
 -1      4101 1.97735E-01
 -1      4102 1.47390E-01
 -1      4103 1.29044E-01
 -1      4104 1.91531E-01
 -1      4105 4.22736E+00
 -1      4106 3.73256E+00
 -1      4107 2.84471E+00
 -1      4108 4.00425E+00
 -1      4109 1.76400E-01
 -1      4110 1.89412E-01
 -1      4111 2.04333E-01
 -1      4112 2.19976E-01
 -1      4113 2.04333E-01
 -1      4114 2.52050E-01
 -1      4115 2.78007E-01
 -1      4116 2.51327E-01
 -1      4117 3.06397E-01
 -1      4118 3.48532E-01
 -1      4119 3.11791E-01
 -1      4120 3.89832E-01
 -1      4121 4.50028E-01
 -1      4122 3.81482E-01
 -1      4123 5.05369E-01
 -1      4124 5.86358E-01
 -1      4125 4.78124E-01
 -1      4126 6.63040E-01
 -1      4127 7.76902E-01
 -1      4128 6.10147E-01
 -1      4129 8.88324E-01
 -1      4130 1.05554E+00
 -1      4131 7.98250E-01
 -1      4132 1.21991E+00
 -1      4133 1.48477E+00
 -1      4134 1.07404E+00
 -1      4135 2.40362E+00
 -1      4136 3.20187E+00
 -1      4137 2.15725E+00
 -1      4138 1.20155E-01
 -1      4139 1.18854E-01
 -1      4140 8.35936E-02
 -1      4141 1.89949E+00
 -1      4142 1.57447E+00
 -1      4143 1.17094E+00
 -1      4144 9.87530E-01
 -1      4145 1.43859E+00
 -1      4146 8.17849E-01
 -1      4147 6.95164E-01
 -1      4148 8.65378E-01
 -1      4149 6.13291E-01
 -1      4150 5.26286E-01
 -1      4151 6.13824E-01
 -1      4152 4.66707E-01
 -1      4153 4.03165E-01
 -1      4154 4.72372E-01
 -1      4155 3.61142E-01
 -1      4156 3.28748E-01
 -1      4157 3.10253E-01
 -1      4158 3.70770E-01
 -1      4159 1.58692E-01
 -1      4160 1.59191E-01
 -1      4161 1.68344E-01
 -1      4162 3.93878E+00
 -1      4163 2.60545E+00
 -1      4164 2.01623E+00
 -1      4165 2.47814E+00
 -1      4166 4.09407E-01
 -1      4167 4.73793E-01
 -1      4168 1.32446E-01
 -1      4169 1.42952E-01
 -1      4170 1.77859E+00
 -1      4171 1.82561E+00
 -1      4172 5.41573E-01
 -1      4173 6.27664E-01
 -1      4174 4.73409E-01
 -1      4175 7.24264E-01
 -1      4176 8.41184E-01
 -1      4177 6.37789E-01
 -1      4178 1.53970E+00
 -1      4179 1.77859E+00
 -1      4180 1.80688E+00
 -1      4181 2.20208E+00
 -1      4182 3.11031E+00
 -1      4183 2.75747E+00
 -1      4184 1.97044E+00
 -1      4185 9.27769E-01
 -1      4186 8.07263E-01
 -1      4187 4.28332E-01
 -1      4188 3.68162E-01
 -1      4189 9.36788E-02
 -1      4190 8.54123E-02
 -1      4191 3.09187E-01
 -1      4192 3.62814E-01
 -1      4193 3.59036E-01
 -1      4194 3.02392E-01
 -1      4195 1.51789E-01
 -1      4196 9.74857E-02
 -1      4197 1.10510E-01
 -1      4198 9.31323E-02
 -1      4199 3.81302E+00
 -1      4200 1.42243E-01
 -1      4201 1.56656E-01
 -1      4202 1.25897E-01
 -1      4203 1.49404E-01
 -1      4204 1.01299E+00
 -1      4205 1.17527E+00
 -1      4206 9.06201E-01
 -1      4207 1.50106E-01
 -1      4208 1.63387E-01
 -1      4209 1.56233E-01
 -1      4210 1.44245E+00
 -1      4211 1.14790E-01
 -1      4212 2.78734E+00
 -1      4213 1.73592E-01
 -1      4214 1.59191E-01
 -1      4215 1.76400E-01
 -1      4216 7.30830E-01
 -1      4217 6.32906E-01
 -1      4218 7.09709E-01
 -1      4219 1.27143E-01
 -1      4220 3.30748E-01
 -1      4221 2.83714E-01
 -1      4222 3.45411E-01
 -1      4223 2.09996E-01
 -1      4224 1.82590E-01
 -1      4225 2.30757E-01
 -1      4226 2.78891E-01
 -1      4227 2.52034E-01
 -1      4228 2.79183E-01
 -1      4229 2.97385E-01
 -1      4230 5.55577E-01
 -1      4231 4.76228E-01
 -1      4232 5.55947E-01
 -1      4233 3.48348E+00
 -1      4234 3.21179E+00
 -1      4235 2.26657E+00
 -1      4236 3.05470E+00
 -1      4237 1.81298E+00
 -1      4238 1.45957E+00
 -1      4239 1.67694E+00
 -1      4240 3.07610E+00
 -1      4241 1.05935E+00
 -1      4242 9.17727E-01
 -1      4243 1.24738E+00
 -1      4244 1.16424E-01
 -1      4245 8.35936E-02
 -1      4246 4.30721E-01
 -1      4247 1.67995E-01
 -1      4248 1.53594E-01
 -1      4249 1.49404E-01
 -1      4250 2.57228E-01
 -1      4251 2.89302E-01
 -1      4252 2.95699E-01
 -1      4253 3.24089E-01
 -1      4254 3.61503E-01
 -1      4255 4.02804E-01
 -1      4256 4.50700E-01
 -1      4257 5.06041E-01
 -1      4258 5.83370E-01
 -1      4259 6.60052E-01
 -1      4260 7.36485E-01
 -1      4261 8.47906E-01
 -1      4262 1.35605E+00
 -1      4263 2.27490E+00
 -1      4264 8.90670E-01
 -1      4265 1.06248E+00
 -1      4266 1.87838E-01
 -1      4267 1.87838E-01
 -1      4268 1.68489E-01
 -1      4269 1.81502E-01
 -1      4270 1.04100E+00
 -1      4271 8.71324E-01
 -1      4272 6.55893E-01
 -1      4273 5.74020E-01
 -1      4274 8.31519E-01
 -1      4275 5.02329E-01
 -1      4276 4.42750E-01
 -1      4277 5.44398E-01
 -1      4278 1.95172E+00
 -1      4279 5.78638E-01
 -1      4280 6.75239E-01
 -1      4281 1.33802E-01
 -1      4282 1.55739E-01
 -1      4283 1.87838E-01
 -1      4284 1.95748E-01
 -1      4285 2.10668E-01
 -1      4286 4.39168E-01
 -1      4287 5.06948E-01
 -1      4288 1.55739E-01
 -1      4289 1.62892E-01
 -1      4290 1.71754E+00
 -1      4291 1.31401E+00
 -1      4292 1.31996E+00
 -1      4293 2.14199E+00
 -1      4294 9.79492E-01
 -1      4295 2.02084E-01
 -1      4296 1.62398E-01
 -1      4297 1.25897E-01
 -1      4298 3.87880E-01
 -1      4299 4.21419E-01
 -1      4300 3.91462E-01
 -1      4301 3.41286E-01
 -1      4302 1.14386E+00
 -1      4303 1.33549E+00
 -1      4304 2.89233E-01
 -1      4305 1.62398E-01
 -1      4306 2.61263E+00
 -1      4307 9.73009E-02
 -1      4308 3.49439E-01
 -1      4309 2.24895E+00
 -1      4310 2.24895E+00
 -1      4311 8.52274E-02
 -1      4312 2.77317E-01
 -1      4313 2.48643E-01
 -1      4314 2.48643E-01
 -1      4315 3.01600E-01
 -1      4316 2.47814E+00
 -1      4317 1.69992E+00
 -1      4318 7.94250E-02
 -1      4319 1.26150E+00
 -1      4320 3.18077E-01
 -1      4321 1.62398E-01
 -1      4322 3.01600E-01
 -1      4323 2.48643E-01
 -1      4324 2.95203E-01
 -3
 9999
