    1C
    1UUSER                                                              
    1UDATE              27.october.2022                                 
    1UTIME              00:09:48                                        
    1UHOST                                                              
    1UPGM               CalculiX                                        
    1UVERSION           Version 2.17                             
    1UCOMPILETIME       Thu Jul 23 21:43:50 CEST 2020                    
    1UDIR                                                               
    1UDBN                                                               
    1UMAT    1SOLIDMATERIAL                                             
    2C                          4374                                     1
 -1         1 1.56260E+01 4.09091E+01 0.00000E+00
 -1         2 2.94183E+01 3.92168E+01 0.00000E+00
 -1         3 1.50000E+02 0.00000E+00 0.00000E+00
 -1         4 1.50000E+02 5.00000E+01 0.00000E+00
 -1         5 0.00000E+00 0.00000E+00 0.00000E+00
 -1         6 0.00000E+00 5.00000E+01 0.00000E+00
 -1         7 0.00000E+00 4.70500E+01 0.00000E+00
 -1         8 0.00000E+00 4.41000E+01 0.00000E+00
 -1         9 0.00000E+00 4.11500E+01 0.00000E+00
 -1        10 0.00000E+00 3.82000E+01 0.00000E+00
 -1        11 0.00000E+00 3.52500E+01 0.00000E+00
 -1        12 0.00000E+00 3.23500E+01 0.00000E+00
 -1        13 0.00000E+00 2.94000E+01 0.00000E+00
 -1        14 0.00000E+00 2.64500E+01 0.00000E+00
 -1        15 0.00000E+00 2.35000E+01 0.00000E+00
 -1        16 0.00000E+00 2.05500E+01 0.00000E+00
 -1        17 0.00000E+00 1.76000E+01 0.00000E+00
 -1        18 0.00000E+00 1.47000E+01 0.00000E+00
 -1        19 0.00000E+00 1.17500E+01 0.00000E+00
 -1        20 0.00000E+00 8.80000E+00 0.00000E+00
 -1        21 0.00000E+00 5.85000E+00 0.00000E+00
 -1        22 0.00000E+00 2.90000E+00 0.00000E+00
 -1        23 3.15000E+00 5.00000E+01 0.00000E+00
 -1        24 6.15000E+00 5.00000E+01 0.00000E+00
 -1        25 9.15000E+00 5.00000E+01 0.00000E+00
 -1        26 1.21500E+01 5.00000E+01 0.00000E+00
 -1        27 1.48500E+01 5.00000E+01 0.00000E+00
 -1        28 1.71000E+01 5.00000E+01 0.00000E+00
 -1        29 1.90500E+01 5.00000E+01 0.00000E+00
 -1        30 2.11500E+01 5.00000E+01 0.00000E+00
 -1        31 2.32500E+01 5.00000E+01 0.00000E+00
 -1        32 2.55000E+01 5.00000E+01 0.00000E+00
 -1        33 2.77500E+01 5.00000E+01 0.00000E+00
 -1        34 3.01500E+01 5.00000E+01 0.00000E+00
 -1        35 3.28500E+01 5.00000E+01 0.00000E+00
 -1        36 3.57000E+01 5.00000E+01 0.00000E+00
 -1        37 3.87000E+01 5.00000E+01 0.00000E+00
 -1        38 4.17000E+01 5.00000E+01 0.00000E+00
 -1        39 4.47000E+01 5.00000E+01 0.00000E+00
 -1        40 4.77000E+01 5.00000E+01 0.00000E+00
 -1        41 5.07000E+01 5.00000E+01 0.00000E+00
 -1        42 5.37000E+01 5.00000E+01 0.00000E+00
 -1        43 5.67000E+01 5.00000E+01 0.00000E+00
 -1        44 5.97000E+01 5.00000E+01 0.00000E+00
 -1        45 6.27000E+01 5.00000E+01 0.00000E+00
 -1        46 6.57000E+01 5.00000E+01 0.00000E+00
 -1        47 6.88500E+01 5.00000E+01 0.00000E+00
 -1        48 7.18500E+01 5.00000E+01 0.00000E+00
 -1        49 7.48500E+01 5.00000E+01 0.00000E+00
 -1        50 7.78500E+01 5.00000E+01 0.00000E+00
 -1        51 8.08500E+01 5.00000E+01 0.00000E+00
 -1        52 8.38500E+01 5.00000E+01 0.00000E+00
 -1        53 8.68500E+01 5.00000E+01 0.00000E+00
 -1        54 8.98500E+01 5.00000E+01 0.00000E+00
 -1        55 9.28500E+01 5.00000E+01 0.00000E+00
 -1        56 9.58500E+01 5.00000E+01 0.00000E+00
 -1        57 9.88500E+01 5.00000E+01 0.00000E+00
 -1        58 1.01850E+02 5.00000E+01 0.00000E+00
 -1        59 1.04850E+02 5.00000E+01 0.00000E+00
 -1        60 1.07850E+02 5.00000E+01 0.00000E+00
 -1        61 1.11000E+02 5.00000E+01 0.00000E+00
 -1        62 1.14000E+02 5.00000E+01 0.00000E+00
 -1        63 1.17000E+02 5.00000E+01 0.00000E+00
 -1        64 1.20000E+02 5.00000E+01 0.00000E+00
 -1        65 1.23000E+02 5.00000E+01 0.00000E+00
 -1        66 1.26000E+02 5.00000E+01 0.00000E+00
 -1        67 1.29000E+02 5.00000E+01 0.00000E+00
 -1        68 1.32000E+02 5.00000E+01 0.00000E+00
 -1        69 1.35000E+02 5.00000E+01 0.00000E+00
 -1        70 1.38000E+02 5.00000E+01 0.00000E+00
 -1        71 1.41000E+02 5.00000E+01 0.00000E+00
 -1        72 1.44000E+02 5.00000E+01 0.00000E+00
 -1        73 1.47000E+02 5.00000E+01 0.00000E+00
 -1        74 3.15000E+00 0.00000E+00 0.00000E+00
 -1        75 6.15000E+00 0.00000E+00 0.00000E+00
 -1        76 9.15000E+00 0.00000E+00 0.00000E+00
 -1        77 1.21500E+01 0.00000E+00 0.00000E+00
 -1        78 1.51500E+01 0.00000E+00 0.00000E+00
 -1        79 1.81500E+01 0.00000E+00 0.00000E+00
 -1        80 2.11500E+01 0.00000E+00 0.00000E+00
 -1        81 2.41500E+01 0.00000E+00 0.00000E+00
 -1        82 2.71500E+01 0.00000E+00 0.00000E+00
 -1        83 3.01500E+01 0.00000E+00 0.00000E+00
 -1        84 3.31500E+01 0.00000E+00 0.00000E+00
 -1        85 3.61500E+01 0.00000E+00 0.00000E+00
 -1        86 3.91500E+01 0.00000E+00 0.00000E+00
 -1        87 4.21500E+01 0.00000E+00 0.00000E+00
 -1        88 4.51500E+01 0.00000E+00 0.00000E+00
 -1        89 4.81500E+01 0.00000E+00 0.00000E+00
 -1        90 5.11500E+01 0.00000E+00 0.00000E+00
 -1        91 5.41500E+01 0.00000E+00 0.00000E+00
 -1        92 5.71500E+01 0.00000E+00 0.00000E+00
 -1        93 6.01500E+01 0.00000E+00 0.00000E+00
 -1        94 6.31500E+01 0.00000E+00 0.00000E+00
 -1        95 6.61500E+01 0.00000E+00 0.00000E+00
 -1        96 6.91500E+01 0.00000E+00 0.00000E+00
 -1        97 7.21500E+01 0.00000E+00 0.00000E+00
 -1        98 7.51500E+01 0.00000E+00 0.00000E+00
 -1        99 7.81500E+01 0.00000E+00 0.00000E+00
 -1       100 8.11500E+01 0.00000E+00 0.00000E+00
 -1       101 8.41500E+01 0.00000E+00 0.00000E+00
 -1       102 8.71500E+01 0.00000E+00 0.00000E+00
 -1       103 9.01500E+01 0.00000E+00 0.00000E+00
 -1       104 9.31500E+01 0.00000E+00 0.00000E+00
 -1       105 9.61500E+01 0.00000E+00 0.00000E+00
 -1       106 9.91500E+01 0.00000E+00 0.00000E+00
 -1       107 1.02150E+02 0.00000E+00 0.00000E+00
 -1       108 1.05150E+02 0.00000E+00 0.00000E+00
 -1       109 1.08150E+02 0.00000E+00 0.00000E+00
 -1       110 1.11150E+02 0.00000E+00 0.00000E+00
 -1       111 1.14150E+02 0.00000E+00 0.00000E+00
 -1       112 1.17150E+02 0.00000E+00 0.00000E+00
 -1       113 1.20150E+02 0.00000E+00 0.00000E+00
 -1       114 1.23150E+02 0.00000E+00 0.00000E+00
 -1       115 1.26150E+02 0.00000E+00 0.00000E+00
 -1       116 1.29150E+02 0.00000E+00 0.00000E+00
 -1       117 1.32150E+02 0.00000E+00 0.00000E+00
 -1       118 1.35150E+02 0.00000E+00 0.00000E+00
 -1       119 1.38150E+02 0.00000E+00 0.00000E+00
 -1       120 1.41150E+02 0.00000E+00 0.00000E+00
 -1       121 1.44150E+02 0.00000E+00 0.00000E+00
 -1       122 1.47150E+02 0.00000E+00 0.00000E+00
 -1       123 1.50000E+02 2.95000E+00 0.00000E+00
 -1       124 1.50000E+02 5.90000E+00 0.00000E+00
 -1       125 1.50000E+02 8.85000E+00 0.00000E+00
 -1       126 1.50000E+02 1.18000E+01 0.00000E+00
 -1       127 1.50000E+02 1.47500E+01 0.00000E+00
 -1       128 1.50000E+02 1.76500E+01 0.00000E+00
 -1       129 1.50000E+02 2.06000E+01 0.00000E+00
 -1       130 1.50000E+02 2.35500E+01 0.00000E+00
 -1       131 1.50000E+02 2.65000E+01 0.00000E+00
 -1       132 1.50000E+02 2.94500E+01 0.00000E+00
 -1       133 1.50000E+02 3.24000E+01 0.00000E+00
 -1       134 1.50000E+02 3.53000E+01 0.00000E+00
 -1       135 1.50000E+02 3.82500E+01 0.00000E+00
 -1       136 1.50000E+02 4.12000E+01 0.00000E+00
 -1       137 1.50000E+02 4.41500E+01 0.00000E+00
 -1       138 1.50000E+02 4.71000E+01 0.00000E+00
 -1       139 2.92599E+01 3.77361E+01 0.00000E+00
 -1       140 2.88134E+01 3.63701E+01 0.00000E+00
 -1       141 2.80475E+01 3.50559E+01 0.00000E+00
 -1       142 2.70861E+01 3.40003E+01 0.00000E+00
 -1       143 2.58619E+01 3.31224E+01 0.00000E+00
 -1       144 2.45006E+01 3.25337E+01 0.00000E+00
 -1       145 2.31075E+01 3.22508E+01 0.00000E+00
 -1       146 2.15443E+01 3.22716E+01 0.00000E+00
 -1       147 2.01663E+01 3.25889E+01 0.00000E+00
 -1       148 1.88079E+01 3.32197E+01 0.00000E+00
 -1       149 1.76185E+01 3.41216E+01 0.00000E+00
 -1       150 1.66269E+01 3.52850E+01 0.00000E+00
 -1       151 1.59437E+01 3.65562E+01 0.00000E+00
 -1       152 1.55267E+01 3.79898E+01 0.00000E+00
 -1       153 1.54230E+01 3.94726E+01 0.00000E+00
 -1       154 1.61383E+01 4.23089E+01 0.00000E+00
 -1       155 1.69089E+01 4.35350E+01 0.00000E+00
 -1       156 1.79093E+01 4.45711E+01 0.00000E+00
 -1       157 1.90799E+01 4.53694E+01 0.00000E+00
 -1       158 2.03949E+01 4.59180E+01 0.00000E+00
 -1       159 2.17475E+01 4.61846E+01 0.00000E+00
 -1       160 2.32711E+01 4.61647E+01 0.00000E+00
 -1       161 2.46542E+01 4.58501E+01 0.00000E+00
 -1       162 2.59768E+01 4.52448E+01 0.00000E+00
 -1       163 2.70750E+01 4.44432E+01 0.00000E+00
 -1       164 2.80948E+01 4.33129E+01 0.00000E+00
 -1       165 2.88032E+01 4.20861E+01 0.00000E+00
 -1       166 2.92607E+01 4.06940E+01 0.00000E+00
 -1       167 2.59800E+00 4.55750E+01 0.00000E+00
 -1       168 2.59800E+00 4.26250E+01 0.00000E+00
 -1       169 2.59800E+00 3.96750E+01 0.00000E+00
 -1       170 2.59800E+00 3.67250E+01 0.00000E+00
 -1       171 2.59800E+00 3.38250E+01 0.00000E+00
 -1       172 2.59800E+00 3.08750E+01 0.00000E+00
 -1       173 2.59800E+00 2.79250E+01 0.00000E+00
 -1       174 2.59800E+00 2.49750E+01 0.00000E+00
 -1       175 2.59800E+00 2.20250E+01 0.00000E+00
 -1       176 2.59800E+00 1.90750E+01 0.00000E+00
 -1       177 2.59800E+00 1.61750E+01 0.00000E+00
 -1       178 2.59800E+00 1.32250E+01 0.00000E+00
 -1       179 2.59800E+00 1.02750E+01 0.00000E+00
 -1       180 2.59800E+00 7.32500E+00 0.00000E+00
 -1       181 2.59800E+00 4.37500E+00 0.00000E+00
 -1       182 2.87400E+00 2.18750E+00 0.00000E+00
 -1       183 4.65000E+00 4.74020E+01 0.00000E+00
 -1       184 7.65000E+00 4.74020E+01 0.00000E+00
 -1       185 1.06500E+01 4.74020E+01 0.00000E+00
 -1       186 1.33500E+01 4.74020E+01 0.00000E+00
 -1       187 1.80750E+01 4.83687E+01 0.00000E+00
 -1       188 2.01750E+01 4.83687E+01 0.00000E+00
 -1       189 2.22750E+01 4.83687E+01 0.00000E+00
 -1       190 2.45250E+01 4.83687E+01 0.00000E+00
 -1       191 2.67750E+01 4.83687E+01 0.00000E+00
 -1       192 2.91750E+01 4.83687E+01 0.00000E+00
 -1       193 3.18750E+01 4.83687E+01 0.00000E+00
 -1       194 3.47250E+01 4.83687E+01 0.00000E+00
 -1       195 3.77250E+01 4.83687E+01 0.00000E+00
 -1       196 4.07250E+01 4.83687E+01 0.00000E+00
 -1       197 4.37250E+01 4.83687E+01 0.00000E+00
 -1       198 4.67250E+01 4.83687E+01 0.00000E+00
 -1       199 4.97250E+01 4.83687E+01 0.00000E+00
 -1       200 5.27250E+01 4.83687E+01 0.00000E+00
 -1       201 5.57250E+01 4.83687E+01 0.00000E+00
 -1       202 5.87250E+01 4.83687E+01 0.00000E+00
 -1       203 6.17250E+01 4.83687E+01 0.00000E+00
 -1       204 6.47250E+01 4.83687E+01 0.00000E+00
 -1       205 6.78750E+01 4.83687E+01 0.00000E+00
 -1       206 7.08750E+01 4.83687E+01 0.00000E+00
 -1       207 7.38750E+01 4.83687E+01 0.00000E+00
 -1       208 7.68750E+01 4.83687E+01 0.00000E+00
 -1       209 7.98750E+01 4.83687E+01 0.00000E+00
 -1       210 8.28750E+01 4.83687E+01 0.00000E+00
 -1       211 8.58750E+01 4.83687E+01 0.00000E+00
 -1       212 8.88750E+01 4.83687E+01 0.00000E+00
 -1       213 9.18750E+01 4.83687E+01 0.00000E+00
 -1       214 9.48750E+01 4.83687E+01 0.00000E+00
 -1       215 9.78750E+01 4.83687E+01 0.00000E+00
 -1       216 1.00875E+02 4.83687E+01 0.00000E+00
 -1       217 1.03875E+02 4.83687E+01 0.00000E+00
 -1       218 1.06875E+02 4.83687E+01 0.00000E+00
 -1       219 1.10025E+02 4.83687E+01 0.00000E+00
 -1       220 1.13025E+02 4.83687E+01 0.00000E+00
 -1       221 1.16025E+02 4.83687E+01 0.00000E+00
 -1       222 1.19025E+02 4.83687E+01 0.00000E+00
 -1       223 1.22025E+02 4.83687E+01 0.00000E+00
 -1       224 1.25025E+02 4.83687E+01 0.00000E+00
 -1       225 1.28025E+02 4.83687E+01 0.00000E+00
 -1       226 1.31025E+02 4.83687E+01 0.00000E+00
 -1       227 1.34025E+02 4.83687E+01 0.00000E+00
 -1       228 1.37025E+02 4.83687E+01 0.00000E+00
 -1       229 1.40025E+02 4.83687E+01 0.00000E+00
 -1       230 1.43025E+02 4.83687E+01 0.00000E+00
 -1       231 1.46025E+02 4.83687E+01 0.00000E+00
 -1       232 1.48012E+02 4.77343E+01 0.00000E+00
 -1       233 5.87400E+00 2.18750E+00 0.00000E+00
 -1       234 8.87400E+00 2.18750E+00 0.00000E+00
 -1       235 1.18740E+01 2.18750E+00 0.00000E+00
 -1       236 1.48740E+01 2.18750E+00 0.00000E+00
 -1       237 1.78740E+01 2.18750E+00 0.00000E+00
 -1       238 2.08740E+01 2.18750E+00 0.00000E+00
 -1       239 2.38740E+01 2.18750E+00 0.00000E+00
 -1       240 2.68740E+01 2.18750E+00 0.00000E+00
 -1       241 2.98740E+01 2.18750E+00 0.00000E+00
 -1       242 3.28740E+01 2.18750E+00 0.00000E+00
 -1       243 3.58740E+01 2.18750E+00 0.00000E+00
 -1       244 3.88740E+01 2.18750E+00 0.00000E+00
 -1       245 4.18740E+01 2.18750E+00 0.00000E+00
 -1       246 4.48740E+01 2.18750E+00 0.00000E+00
 -1       247 4.78740E+01 2.18750E+00 0.00000E+00
 -1       248 5.08740E+01 2.18750E+00 0.00000E+00
 -1       249 5.38740E+01 2.18750E+00 0.00000E+00
 -1       250 5.68740E+01 2.18750E+00 0.00000E+00
 -1       251 5.98740E+01 2.18750E+00 0.00000E+00
 -1       252 6.28740E+01 2.18750E+00 0.00000E+00
 -1       253 6.58740E+01 2.18750E+00 0.00000E+00
 -1       254 6.88740E+01 2.18750E+00 0.00000E+00
 -1       255 7.18740E+01 2.18750E+00 0.00000E+00
 -1       256 7.48740E+01 2.18750E+00 0.00000E+00
 -1       257 7.78740E+01 2.18750E+00 0.00000E+00
 -1       258 8.08740E+01 2.18750E+00 0.00000E+00
 -1       259 8.38740E+01 2.18750E+00 0.00000E+00
 -1       260 8.68740E+01 2.18750E+00 0.00000E+00
 -1       261 8.98740E+01 2.18750E+00 0.00000E+00
 -1       262 9.28740E+01 2.18750E+00 0.00000E+00
 -1       263 9.58740E+01 2.18750E+00 0.00000E+00
 -1       264 9.88740E+01 2.18750E+00 0.00000E+00
 -1       265 1.01874E+02 2.18750E+00 0.00000E+00
 -1       266 1.04874E+02 2.18750E+00 0.00000E+00
 -1       267 1.07874E+02 2.18750E+00 0.00000E+00
 -1       268 1.10874E+02 2.18750E+00 0.00000E+00
 -1       269 1.13874E+02 2.18750E+00 0.00000E+00
 -1       270 1.16874E+02 2.18750E+00 0.00000E+00
 -1       271 1.19874E+02 2.18750E+00 0.00000E+00
 -1       272 1.22874E+02 2.18750E+00 0.00000E+00
 -1       273 1.25874E+02 2.18750E+00 0.00000E+00
 -1       274 1.28874E+02 2.18750E+00 0.00000E+00
 -1       275 1.31874E+02 2.18750E+00 0.00000E+00
 -1       276 1.34874E+02 2.18750E+00 0.00000E+00
 -1       277 1.37874E+02 2.18750E+00 0.00000E+00
 -1       278 1.40874E+02 2.18750E+00 0.00000E+00
 -1       279 1.43874E+02 2.18750E+00 0.00000E+00
 -1       280 1.46874E+02 2.18750E+00 0.00000E+00
 -1       281 1.47402E+02 4.42500E+00 0.00000E+00
 -1       282 1.47402E+02 7.37500E+00 0.00000E+00
 -1       283 1.47402E+02 1.03250E+01 0.00000E+00
 -1       284 1.47402E+02 1.32750E+01 0.00000E+00
 -1       285 1.47402E+02 1.61750E+01 0.00000E+00
 -1       286 1.47402E+02 1.91250E+01 0.00000E+00
 -1       287 1.47402E+02 2.20750E+01 0.00000E+00
 -1       288 1.47402E+02 2.50250E+01 0.00000E+00
 -1       289 1.47402E+02 2.79750E+01 0.00000E+00
 -1       290 1.47402E+02 3.09250E+01 0.00000E+00
 -1       291 1.47402E+02 3.38250E+01 0.00000E+00
 -1       292 1.47402E+02 3.67750E+01 0.00000E+00
 -1       293 1.47402E+02 3.97250E+01 0.00000E+00
 -1       294 1.47402E+02 4.26750E+01 0.00000E+00
 -1       295 1.47707E+02 4.52047E+01 0.00000E+00
 -1       296 3.05447E+01 3.83475E+01 0.00000E+00
 -1       297 3.01890E+01 3.66764E+01 0.00000E+00
 -1       298 2.96227E+01 3.50182E+01 0.00000E+00
 -1       299 2.84632E+01 3.37118E+01 0.00000E+00
 -1       300 2.72782E+01 3.24399E+01 0.00000E+00
 -1       301 2.56957E+01 3.16383E+01 0.00000E+00
 -1       302 2.40453E+01 3.12041E+01 0.00000E+00
 -1       303 2.23075E+01 3.08814E+01 0.00000E+00
 -1       304 2.05832E+01 3.12488E+01 0.00000E+00
 -1       305 1.89059E+01 3.16527E+01 0.00000E+00
 -1       306 1.74301E+01 3.26378E+01 0.00000E+00
 -1       307 1.61362E+01 3.38625E+01 0.00000E+00
 -1       308 1.52173E+01 3.53467E+01 0.00000E+00
 -1       309 1.45710E+01 3.69344E+01 0.00000E+00
 -1       310 1.42654E+01 3.86466E+01 0.00000E+00
 -1       311 1.42411E+01 4.03722E+01 0.00000E+00
 -1       312 1.47436E+01 4.20257E+01 0.00000E+00
 -1       313 1.54971E+01 4.35671E+01 0.00000E+00
 -1       314 1.65369E+01 4.48951E+01 0.00000E+00
 -1       315 1.78115E+01 4.59719E+01 0.00000E+00
 -1       316 1.92706E+01 4.67626E+01 0.00000E+00
 -1       317 2.08367E+01 4.72408E+01 0.00000E+00
 -1       318 2.23604E+01 4.72208E+01 0.00000E+00
 -1       319 2.42315E+01 4.71896E+01 0.00000E+00
 -1       320 2.58898E+01 4.68023E+01 0.00000E+00
 -1       321 2.72407E+01 4.58233E+01 0.00000E+00
 -1       322 2.86095E+01 4.48024E+01 0.00000E+00
 -1       323 2.95715E+01 4.33477E+01 0.00000E+00
 -1       324 3.04226E+01 4.18470E+01 0.00000E+00
 -1       325 3.06284E+01 4.00929E+01 0.00000E+00
 -1       326 1.57304E+01 4.77596E+01 0.00000E+00
 -1       327 5.19600E+00 4.11500E+01 0.00000E+00
 -1       328 5.19600E+00 4.41000E+01 0.00000E+00
 -1       329 5.19600E+00 3.52750E+01 0.00000E+00
 -1       330 5.19600E+00 3.23250E+01 0.00000E+00
 -1       331 5.19600E+00 2.93750E+01 0.00000E+00
 -1       332 5.19600E+00 2.64250E+01 0.00000E+00
 -1       333 5.19600E+00 2.34750E+01 0.00000E+00
 -1       334 5.19600E+00 2.05250E+01 0.00000E+00
 -1       335 5.19600E+00 1.76250E+01 0.00000E+00
 -1       336 5.19600E+00 1.46750E+01 0.00000E+00
 -1       337 5.19600E+00 1.17250E+01 0.00000E+00
 -1       338 5.19600E+00 8.77500E+00 0.00000E+00
 -1       339 5.19600E+00 5.82500E+00 0.00000E+00
 -1       340 5.53500E+00 4.00625E+00 0.00000E+00
 -1       341 8.53500E+00 4.00625E+00 0.00000E+00
 -1       342 9.15000E+00 4.48040E+01 0.00000E+00
 -1       343 1.18500E+01 4.48040E+01 0.00000E+00
 -1       344 3.05250E+01 4.63184E+01 0.00000E+00
 -1       345 3.33750E+01 4.63184E+01 0.00000E+00
 -1       346 3.63750E+01 4.63184E+01 0.00000E+00
 -1       347 3.93750E+01 4.63184E+01 0.00000E+00
 -1       348 4.23750E+01 4.63184E+01 0.00000E+00
 -1       349 4.53750E+01 4.63184E+01 0.00000E+00
 -1       350 4.83750E+01 4.63184E+01 0.00000E+00
 -1       351 5.13750E+01 4.63184E+01 0.00000E+00
 -1       352 5.43750E+01 4.63184E+01 0.00000E+00
 -1       353 5.73750E+01 4.63184E+01 0.00000E+00
 -1       354 6.03750E+01 4.63184E+01 0.00000E+00
 -1       355 6.33750E+01 4.63184E+01 0.00000E+00
 -1       356 6.65250E+01 4.63184E+01 0.00000E+00
 -1       357 6.95250E+01 4.63184E+01 0.00000E+00
 -1       358 7.25250E+01 4.63184E+01 0.00000E+00
 -1       359 7.55250E+01 4.63184E+01 0.00000E+00
 -1       360 7.85250E+01 4.63184E+01 0.00000E+00
 -1       361 8.15250E+01 4.63184E+01 0.00000E+00
 -1       362 8.45250E+01 4.63184E+01 0.00000E+00
 -1       363 8.75250E+01 4.63184E+01 0.00000E+00
 -1       364 9.05250E+01 4.63184E+01 0.00000E+00
 -1       365 9.35250E+01 4.63184E+01 0.00000E+00
 -1       366 9.65250E+01 4.63184E+01 0.00000E+00
 -1       367 9.95250E+01 4.63184E+01 0.00000E+00
 -1       368 1.02525E+02 4.63184E+01 0.00000E+00
 -1       369 1.05525E+02 4.63184E+01 0.00000E+00
 -1       370 1.08675E+02 4.63184E+01 0.00000E+00
 -1       371 1.11675E+02 4.63184E+01 0.00000E+00
 -1       372 1.14675E+02 4.63184E+01 0.00000E+00
 -1       373 1.17675E+02 4.63184E+01 0.00000E+00
 -1       374 1.20675E+02 4.63184E+01 0.00000E+00
 -1       375 1.23675E+02 4.63184E+01 0.00000E+00
 -1       376 1.26675E+02 4.63184E+01 0.00000E+00
 -1       377 1.29675E+02 4.63184E+01 0.00000E+00
 -1       378 1.32675E+02 4.63184E+01 0.00000E+00
 -1       379 1.35675E+02 4.63184E+01 0.00000E+00
 -1       380 1.38675E+02 4.63184E+01 0.00000E+00
 -1       381 1.41675E+02 4.63184E+01 0.00000E+00
 -1       382 1.44675E+02 4.63184E+01 0.00000E+00
 -1       383 1.46191E+02 4.57615E+01 0.00000E+00
 -1       384 1.33740E+01 4.78550E+00 0.00000E+00
 -1       385 1.63740E+01 4.78550E+00 0.00000E+00
 -1       386 1.93740E+01 4.78550E+00 0.00000E+00
 -1       387 2.23740E+01 4.78550E+00 0.00000E+00
 -1       388 2.53740E+01 4.78550E+00 0.00000E+00
 -1       389 2.83740E+01 4.78550E+00 0.00000E+00
 -1       390 3.13740E+01 4.78550E+00 0.00000E+00
 -1       391 3.43740E+01 4.78550E+00 0.00000E+00
 -1       392 3.73740E+01 4.78550E+00 0.00000E+00
 -1       393 4.03740E+01 4.78550E+00 0.00000E+00
 -1       394 4.33740E+01 4.78550E+00 0.00000E+00
 -1       395 4.63740E+01 4.78550E+00 0.00000E+00
 -1       396 4.93740E+01 4.78550E+00 0.00000E+00
 -1       397 5.23740E+01 4.78550E+00 0.00000E+00
 -1       398 5.53740E+01 4.78550E+00 0.00000E+00
 -1       399 5.83740E+01 4.78550E+00 0.00000E+00
 -1       400 6.13740E+01 4.78550E+00 0.00000E+00
 -1       401 6.43740E+01 4.78550E+00 0.00000E+00
 -1       402 6.73740E+01 4.78550E+00 0.00000E+00
 -1       403 7.03740E+01 4.78550E+00 0.00000E+00
 -1       404 7.33740E+01 4.78550E+00 0.00000E+00
 -1       405 7.63740E+01 4.78550E+00 0.00000E+00
 -1       406 7.93740E+01 4.78550E+00 0.00000E+00
 -1       407 8.23740E+01 4.78550E+00 0.00000E+00
 -1       408 8.53740E+01 4.78550E+00 0.00000E+00
 -1       409 8.83740E+01 4.78550E+00 0.00000E+00
 -1       410 9.13740E+01 4.78550E+00 0.00000E+00
 -1       411 9.43740E+01 4.78550E+00 0.00000E+00
 -1       412 9.73740E+01 4.78550E+00 0.00000E+00
 -1       413 1.00374E+02 4.78550E+00 0.00000E+00
 -1       414 1.03374E+02 4.78550E+00 0.00000E+00
 -1       415 1.06374E+02 4.78550E+00 0.00000E+00
 -1       416 1.09374E+02 4.78550E+00 0.00000E+00
 -1       417 1.12374E+02 4.78550E+00 0.00000E+00
 -1       418 1.15374E+02 4.78550E+00 0.00000E+00
 -1       419 1.18374E+02 4.78550E+00 0.00000E+00
 -1       420 1.21374E+02 4.78550E+00 0.00000E+00
 -1       421 1.24374E+02 4.78550E+00 0.00000E+00
 -1       422 1.27374E+02 4.78550E+00 0.00000E+00
 -1       423 1.30374E+02 4.78550E+00 0.00000E+00
 -1       424 1.33374E+02 4.78550E+00 0.00000E+00
 -1       425 1.36374E+02 4.78550E+00 0.00000E+00
 -1       426 1.39374E+02 4.78550E+00 0.00000E+00
 -1       427 1.42374E+02 4.78550E+00 0.00000E+00
 -1       428 1.44888E+02 4.60525E+00 0.00000E+00
 -1       429 1.44804E+02 1.18000E+01 0.00000E+00
 -1       430 1.44804E+02 8.85000E+00 0.00000E+00
 -1       431 1.44804E+02 1.47000E+01 0.00000E+00
 -1       432 1.44804E+02 1.76500E+01 0.00000E+00
 -1       433 1.44804E+02 2.06000E+01 0.00000E+00
 -1       434 1.44804E+02 2.35500E+01 0.00000E+00
 -1       435 1.44804E+02 2.65000E+01 0.00000E+00
 -1       436 1.44804E+02 2.94500E+01 0.00000E+00
 -1       437 1.44804E+02 3.23500E+01 0.00000E+00
 -1       438 1.44804E+02 3.53000E+01 0.00000E+00
 -1       439 1.44804E+02 3.82500E+01 0.00000E+00
 -1       440 1.44804E+02 4.12000E+01 0.00000E+00
 -1       441 1.09545E+01 4.39587E+00 0.00000E+00
 -1       442 3.12118E+01 3.54013E+01 0.00000E+00
 -1       443 2.88190E+01 3.21923E+01 0.00000E+00
 -1       444 3.18805E+01 3.71898E+01 0.00000E+00
 -1       445 2.74242E+01 4.74980E+01 0.00000E+00
 -1       446 5.19600E+00 3.82125E+01 0.00000E+00
 -1       447 2.71484E+01 3.07333E+01 0.00000E+00
 -1       448 2.52217E+01 3.00867E+01 0.00000E+00
 -1       449 2.34590E+01 2.95212E+01 0.00000E+00
 -1       450 2.11054E+01 2.94696E+01 0.00000E+00
 -1       451 1.94281E+01 2.98735E+01 0.00000E+00
 -1       452 1.74019E+01 3.09975E+01 0.00000E+00
 -1       453 1.58345E+01 3.22480E+01 0.00000E+00
 -1       454 1.45034E+01 3.38782E+01 0.00000E+00
 -1       455 1.36937E+01 3.56518E+01 0.00000E+00
 -1       456 1.29772E+01 3.75333E+01 0.00000E+00
 -1       457 1.27059E+01 3.94875E+01 0.00000E+00
 -1       458 1.32521E+01 4.15758E+01 0.00000E+00
 -1       459 1.37301E+01 4.34761E+01 0.00000E+00
 -1       460 1.47985E+01 4.51851E+01 0.00000E+00
 -1       461 3.02416E+01 4.48363E+01 0.00000E+00
 -1       462 3.11974E+01 4.32781E+01 0.00000E+00
 -1       463 3.18128E+01 4.11210E+01 0.00000E+00
 -1       464 3.00124E+01 3.35046E+01 0.00000E+00
 -1       465 3.22160E+01 3.91421E+01 0.00000E+00
 -1       466 2.88728E+01 4.58571E+01 0.00000E+00
 -1       467 1.45498E+02 4.34808E+01 0.00000E+00
 -1       468 7.74895E+00 3.08500E+01 0.00000E+00
 -1       469 7.74895E+00 3.38000E+01 0.00000E+00
 -1       470 7.79400E+00 2.49500E+01 0.00000E+00
 -1       471 7.79400E+00 2.20000E+01 0.00000E+00
 -1       472 7.79400E+00 1.91000E+01 0.00000E+00
 -1       473 7.79400E+00 1.61500E+01 0.00000E+00
 -1       474 7.79400E+00 1.32000E+01 0.00000E+00
 -1       475 7.79400E+00 1.02500E+01 0.00000E+00
 -1       476 7.79400E+00 7.30000E+00 0.00000E+00
 -1       477 8.16450E+00 5.65312E+00 0.00000E+00
 -1       478 1.05000E+01 4.27537E+01 0.00000E+00
 -1       479 2.91119E+01 3.01709E+01 0.00000E+00
 -1       480 3.48750E+01 4.41006E+01 0.00000E+00
 -1       481 3.78750E+01 4.39330E+01 0.00000E+00
 -1       482 4.08750E+01 4.39330E+01 0.00000E+00
 -1       483 4.38750E+01 4.39330E+01 0.00000E+00
 -1       484 4.68750E+01 4.39330E+01 0.00000E+00
 -1       485 4.98750E+01 4.39330E+01 0.00000E+00
 -1       486 5.28750E+01 4.39330E+01 0.00000E+00
 -1       487 5.58750E+01 4.39330E+01 0.00000E+00
 -1       488 5.88750E+01 4.39330E+01 0.00000E+00
 -1       489 6.18750E+01 4.39330E+01 0.00000E+00
 -1       490 6.50250E+01 4.39330E+01 0.00000E+00
 -1       491 6.80250E+01 4.39330E+01 0.00000E+00
 -1       492 7.10250E+01 4.39330E+01 0.00000E+00
 -1       493 7.40250E+01 4.39330E+01 0.00000E+00
 -1       494 7.70250E+01 4.39330E+01 0.00000E+00
 -1       495 8.00250E+01 4.39330E+01 0.00000E+00
 -1       496 8.30250E+01 4.39330E+01 0.00000E+00
 -1       497 8.60250E+01 4.39330E+01 0.00000E+00
 -1       498 8.90250E+01 4.39330E+01 0.00000E+00
 -1       499 9.20250E+01 4.39330E+01 0.00000E+00
 -1       500 9.50250E+01 4.39330E+01 0.00000E+00
 -1       501 9.80250E+01 4.39330E+01 0.00000E+00
 -1       502 1.01025E+02 4.39330E+01 0.00000E+00
 -1       503 1.04025E+02 4.39330E+01 0.00000E+00
 -1       504 1.07175E+02 4.39330E+01 0.00000E+00
 -1       505 1.10175E+02 4.39330E+01 0.00000E+00
 -1       506 1.13175E+02 4.39330E+01 0.00000E+00
 -1       507 1.16175E+02 4.39330E+01 0.00000E+00
 -1       508 1.19175E+02 4.39330E+01 0.00000E+00
 -1       509 1.22175E+02 4.39330E+01 0.00000E+00
 -1       510 1.25175E+02 4.39330E+01 0.00000E+00
 -1       511 1.28175E+02 4.39330E+01 0.00000E+00
 -1       512 1.31175E+02 4.39330E+01 0.00000E+00
 -1       513 1.34175E+02 4.39330E+01 0.00000E+00
 -1       514 1.37175E+02 4.39330E+01 0.00000E+00
 -1       515 1.40175E+02 4.39330E+01 0.00000E+00
 -1       516 1.78740E+01 7.38350E+00 0.00000E+00
 -1       517 1.48740E+01 7.38350E+00 0.00000E+00
 -1       518 2.38740E+01 7.38350E+00 0.00000E+00
 -1       519 2.68740E+01 7.38350E+00 0.00000E+00
 -1       520 2.98740E+01 7.38350E+00 0.00000E+00
 -1       521 3.28740E+01 7.38350E+00 0.00000E+00
 -1       522 3.58740E+01 7.38350E+00 0.00000E+00
 -1       523 3.88740E+01 7.38350E+00 0.00000E+00
 -1       524 4.18740E+01 7.38350E+00 0.00000E+00
 -1       525 4.48740E+01 7.38350E+00 0.00000E+00
 -1       526 4.78740E+01 7.38350E+00 0.00000E+00
 -1       527 5.08740E+01 7.38350E+00 0.00000E+00
 -1       528 5.38740E+01 7.38350E+00 0.00000E+00
 -1       529 5.68740E+01 7.38350E+00 0.00000E+00
 -1       530 5.98740E+01 7.38350E+00 0.00000E+00
 -1       531 6.28740E+01 7.38350E+00 0.00000E+00
 -1       532 6.58740E+01 7.38350E+00 0.00000E+00
 -1       533 6.88740E+01 7.38350E+00 0.00000E+00
 -1       534 7.18740E+01 7.38350E+00 0.00000E+00
 -1       535 7.48740E+01 7.38350E+00 0.00000E+00
 -1       536 7.78740E+01 7.38350E+00 0.00000E+00
 -1       537 8.08740E+01 7.38350E+00 0.00000E+00
 -1       538 8.38740E+01 7.38350E+00 0.00000E+00
 -1       539 8.68740E+01 7.38350E+00 0.00000E+00
 -1       540 8.98740E+01 7.38350E+00 0.00000E+00
 -1       541 9.28740E+01 7.38350E+00 0.00000E+00
 -1       542 9.58740E+01 7.38350E+00 0.00000E+00
 -1       543 9.88740E+01 7.38350E+00 0.00000E+00
 -1       544 1.01874E+02 7.38350E+00 0.00000E+00
 -1       545 1.04874E+02 7.38350E+00 0.00000E+00
 -1       546 1.07874E+02 7.38350E+00 0.00000E+00
 -1       547 1.10874E+02 7.38350E+00 0.00000E+00
 -1       548 1.13874E+02 7.38350E+00 0.00000E+00
 -1       549 1.16874E+02 7.38350E+00 0.00000E+00
 -1       550 1.19874E+02 7.38350E+00 0.00000E+00
 -1       551 1.22874E+02 7.38350E+00 0.00000E+00
 -1       552 1.25874E+02 7.38350E+00 0.00000E+00
 -1       553 1.28874E+02 7.38350E+00 0.00000E+00
 -1       554 1.31874E+02 7.38350E+00 0.00000E+00
 -1       555 1.34874E+02 7.38350E+00 0.00000E+00
 -1       556 1.37874E+02 7.38350E+00 0.00000E+00
 -1       557 1.40874E+02 7.38350E+00 0.00000E+00
 -1       558 1.42206E+02 1.61750E+01 0.00000E+00
 -1       559 1.42206E+02 1.32750E+01 0.00000E+00
 -1       560 1.42206E+02 1.03250E+01 0.00000E+00
 -1       561 3.19908E+01 3.35810E+01 0.00000E+00
 -1       562 1.42206E+02 1.91250E+01 0.00000E+00
 -1       563 1.42206E+02 2.20750E+01 0.00000E+00
 -1       564 1.42206E+02 2.50250E+01 0.00000E+00
 -1       565 1.42206E+02 2.79750E+01 0.00000E+00
 -1       566 1.42206E+02 3.08750E+01 0.00000E+00
 -1       567 1.42206E+02 3.38250E+01 0.00000E+00
 -1       568 1.42206E+02 3.67750E+01 0.00000E+00
 -1       569 1.42206E+02 3.97250E+01 0.00000E+00
 -1       570 2.08740E+01 7.38350E+00 0.00000E+00
 -1       571 7.84800E+00 4.19519E+01 0.00000E+00
 -1       572 3.22862E+01 4.47983E+01 0.00000E+00
 -1       573 3.29957E+01 3.57536E+01 0.00000E+00
 -1       574 2.23161E+01 2.79482E+01 0.00000E+00
 -1       575 7.77148E+00 2.79000E+01 0.00000E+00
 -1       576 2.67308E+01 2.87840E+01 0.00000E+00
 -1       577 2.49681E+01 2.82186E+01 0.00000E+00
 -1       578 1.99044E+01 2.81670E+01 0.00000E+00
 -1       579 3.34487E+01 4.04237E+01 0.00000E+00
 -1       580 1.76237E+01 2.90090E+01 0.00000E+00
 -1       581 1.38404E+01 3.19784E+01 0.00000E+00
 -1       582 1.26908E+01 3.41223E+01 0.00000E+00
 -1       583 1.19744E+01 3.60038E+01 0.00000E+00
 -1       584 1.13087E+01 3.82976E+01 0.00000E+00
 -1       585 1.13197E+01 4.09657E+01 0.00000E+00
 -1       586 3.34083E+01 3.79322E+01 0.00000E+00
 -1       587 1.56008E+01 3.03475E+01 0.00000E+00
 -1       588 3.05606E+01 3.18073E+01 0.00000E+00
 -1       589 3.30738E+01 4.26472E+01 0.00000E+00
 -1       590 7.74895E+00 3.67375E+01 0.00000E+00
 -1       591 1.05840E+01 6.04275E+00 0.00000E+00
 -1       592 1.18005E+01 4.27391E+01 0.00000E+00
 -1       593 1.43175E+02 4.37204E+01 0.00000E+00
 -1       594 1.27290E+01 6.71313E+00 0.00000E+00
 -1       595 7.79848E+00 3.93447E+01 0.00000E+00
 -1       596 3.46410E+01 3.92139E+01 0.00000E+00
 -1       597 1.03920E+01 2.05500E+01 0.00000E+00
 -1       598 1.03920E+01 2.35000E+01 0.00000E+00
 -1       599 1.03920E+01 1.46750E+01 0.00000E+00
 -1       600 1.03920E+01 1.17250E+01 0.00000E+00
 -1       601 1.02135E+01 7.68962E+00 0.00000E+00
 -1       602 4.23750E+01 4.13350E+01 0.00000E+00
 -1       603 4.53750E+01 4.13350E+01 0.00000E+00
 -1       604 4.83750E+01 4.13350E+01 0.00000E+00
 -1       605 5.13750E+01 4.13350E+01 0.00000E+00
 -1       606 5.43750E+01 4.13350E+01 0.00000E+00
 -1       607 5.73750E+01 4.13350E+01 0.00000E+00
 -1       608 6.03750E+01 4.13350E+01 0.00000E+00
 -1       609 6.35250E+01 4.13350E+01 0.00000E+00
 -1       610 6.65250E+01 4.13350E+01 0.00000E+00
 -1       611 6.95250E+01 4.13350E+01 0.00000E+00
 -1       612 7.25250E+01 4.13350E+01 0.00000E+00
 -1       613 7.55250E+01 4.13350E+01 0.00000E+00
 -1       614 7.85250E+01 4.13350E+01 0.00000E+00
 -1       615 8.15250E+01 4.13350E+01 0.00000E+00
 -1       616 8.45250E+01 4.13350E+01 0.00000E+00
 -1       617 8.75250E+01 4.13350E+01 0.00000E+00
 -1       618 9.05250E+01 4.13350E+01 0.00000E+00
 -1       619 9.35250E+01 4.13350E+01 0.00000E+00
 -1       620 9.65250E+01 4.13350E+01 0.00000E+00
 -1       621 9.95250E+01 4.13350E+01 0.00000E+00
 -1       622 1.02525E+02 4.13350E+01 0.00000E+00
 -1       623 1.05675E+02 4.13350E+01 0.00000E+00
 -1       624 1.08675E+02 4.13350E+01 0.00000E+00
 -1       625 1.11675E+02 4.13350E+01 0.00000E+00
 -1       626 1.14675E+02 4.13350E+01 0.00000E+00
 -1       627 1.17675E+02 4.13350E+01 0.00000E+00
 -1       628 1.20675E+02 4.13350E+01 0.00000E+00
 -1       629 1.23675E+02 4.13350E+01 0.00000E+00
 -1       630 1.26675E+02 4.13350E+01 0.00000E+00
 -1       631 1.29675E+02 4.13350E+01 0.00000E+00
 -1       632 1.32675E+02 4.13350E+01 0.00000E+00
 -1       633 1.35675E+02 4.13350E+01 0.00000E+00
 -1       634 1.38941E+02 4.05300E+01 0.00000E+00
 -1       635 1.63740E+01 9.98150E+00 0.00000E+00
 -1       636 1.39206E+02 1.03250E+01 0.00000E+00
 -1       637 1.16064E+01 3.21606E+01 0.00000E+00
 -1       638 2.83740E+01 9.98150E+00 0.00000E+00
 -1       639 2.53740E+01 9.98150E+00 0.00000E+00
 -1       640 3.43740E+01 9.98150E+00 0.00000E+00
 -1       641 3.73740E+01 9.98150E+00 0.00000E+00
 -1       642 4.03740E+01 9.98150E+00 0.00000E+00
 -1       643 4.33740E+01 9.98150E+00 0.00000E+00
 -1       644 4.63740E+01 9.98150E+00 0.00000E+00
 -1       645 4.93740E+01 9.98150E+00 0.00000E+00
 -1       646 5.23740E+01 9.98150E+00 0.00000E+00
 -1       647 5.53740E+01 9.98150E+00 0.00000E+00
 -1       648 5.83740E+01 9.98150E+00 0.00000E+00
 -1       649 6.13740E+01 9.98150E+00 0.00000E+00
 -1       650 6.43740E+01 9.98150E+00 0.00000E+00
 -1       651 6.73740E+01 9.98150E+00 0.00000E+00
 -1       652 7.03740E+01 9.98150E+00 0.00000E+00
 -1       653 7.33740E+01 9.98150E+00 0.00000E+00
 -1       654 7.63740E+01 9.98150E+00 0.00000E+00
 -1       655 7.93740E+01 9.98150E+00 0.00000E+00
 -1       656 8.23740E+01 9.98150E+00 0.00000E+00
 -1       657 8.53740E+01 9.98150E+00 0.00000E+00
 -1       658 8.83740E+01 9.98150E+00 0.00000E+00
 -1       659 9.13740E+01 9.98150E+00 0.00000E+00
 -1       660 9.43740E+01 9.98150E+00 0.00000E+00
 -1       661 9.73740E+01 9.98150E+00 0.00000E+00
 -1       662 1.00374E+02 9.98150E+00 0.00000E+00
 -1       663 1.03374E+02 9.98150E+00 0.00000E+00
 -1       664 1.06374E+02 9.98150E+00 0.00000E+00
 -1       665 1.09374E+02 9.98150E+00 0.00000E+00
 -1       666 1.12374E+02 9.98150E+00 0.00000E+00
 -1       667 1.15374E+02 9.98150E+00 0.00000E+00
 -1       668 1.18374E+02 9.98150E+00 0.00000E+00
 -1       669 1.21374E+02 9.98150E+00 0.00000E+00
 -1       670 1.24374E+02 9.98150E+00 0.00000E+00
 -1       671 1.27374E+02 9.98150E+00 0.00000E+00
 -1       672 1.30374E+02 9.98150E+00 0.00000E+00
 -1       673 1.33374E+02 9.98150E+00 0.00000E+00
 -1       674 1.36290E+02 1.01532E+01 0.00000E+00
 -1       675 1.39608E+02 2.06000E+01 0.00000E+00
 -1       676 3.52499E+01 4.18772E+01 0.00000E+00
 -1       677 1.39608E+02 1.76500E+01 0.00000E+00
 -1       678 1.39608E+02 2.65000E+01 0.00000E+00
 -1       679 1.39608E+02 2.94000E+01 0.00000E+00
 -1       680 1.39608E+02 3.23500E+01 0.00000E+00
 -1       681 1.39608E+02 3.53000E+01 0.00000E+00
 -1       682 1.39274E+02 3.79150E+01 0.00000E+00
 -1       683 1.93740E+01 9.98150E+00 0.00000E+00
 -1       684 3.28718E+01 3.14072E+01 0.00000E+00
 -1       685 2.88689E+01 2.78507E+01 0.00000E+00
 -1       686 1.56658E+01 2.82479E+01 0.00000E+00
 -1       687 2.23740E+01 9.98150E+00 0.00000E+00
 -1       688 9.99440E+00 3.66727E+01 0.00000E+00
 -1       689 1.39608E+02 2.35500E+01 0.00000E+00
 -1       690 1.39608E+02 1.47500E+01 0.00000E+00
 -1       691 2.64757E+01 2.65490E+01 0.00000E+00
 -1       692 3.10576E+01 2.99077E+01 0.00000E+00
 -1       693 3.13740E+01 9.98150E+00 0.00000E+00
 -1       694 2.38237E+01 2.62787E+01 0.00000E+00
 -1       695 1.07297E+01 3.44527E+01 0.00000E+00
 -1       696 1.80541E+01 2.66646E+01 0.00000E+00
 -1       697 3.93750E+01 4.13350E+01 0.00000E+00
 -1       698 3.40499E+01 3.39473E+01 0.00000E+00
 -1       699 1.03920E+01 1.76125E+01 0.00000E+00
 -1       700 1.35550E+01 2.99048E+01 0.00000E+00
 -1       701 3.48048E+01 3.65394E+01 0.00000E+00
 -1       702 2.09705E+01 2.65164E+01 0.00000E+00
 -1       703 9.57836E+00 4.01247E+01 0.00000E+00
 -1       704 1.03695E+01 2.64500E+01 0.00000E+00
 -1       705 1.33741E+01 9.98153E+00 0.00000E+00
 -1       706 3.60375E+01 3.78210E+01 0.00000E+00
 -1       707 1.06633E+01 2.89024E+01 0.00000E+00
 -1       708 1.29900E+01 1.32000E+01 0.00000E+00
 -1       709 2.68740E+01 1.25795E+01 0.00000E+00
 -1       710 4.38750E+01 3.87370E+01 0.00000E+00
 -1       711 1.78740E+01 1.25795E+01 0.00000E+00
 -1       712 1.37010E+02 2.20750E+01 0.00000E+00
 -1       713 4.68750E+01 3.87370E+01 0.00000E+00
 -1       714 4.98750E+01 3.87370E+01 0.00000E+00
 -1       715 5.28750E+01 3.87370E+01 0.00000E+00
 -1       716 5.58750E+01 3.87370E+01 0.00000E+00
 -1       717 5.88750E+01 3.87370E+01 0.00000E+00
 -1       718 6.20250E+01 3.87370E+01 0.00000E+00
 -1       719 6.50250E+01 3.87370E+01 0.00000E+00
 -1       720 6.80250E+01 3.87370E+01 0.00000E+00
 -1       721 7.10250E+01 3.87370E+01 0.00000E+00
 -1       722 7.40250E+01 3.87370E+01 0.00000E+00
 -1       723 7.70250E+01 3.87370E+01 0.00000E+00
 -1       724 8.00250E+01 3.87370E+01 0.00000E+00
 -1       725 8.30250E+01 3.87370E+01 0.00000E+00
 -1       726 8.60250E+01 3.87370E+01 0.00000E+00
 -1       727 8.90250E+01 3.87370E+01 0.00000E+00
 -1       728 9.20250E+01 3.87370E+01 0.00000E+00
 -1       729 9.50250E+01 3.87370E+01 0.00000E+00
 -1       730 9.80250E+01 3.87370E+01 0.00000E+00
 -1       731 1.01025E+02 3.87370E+01 0.00000E+00
 -1       732 1.04175E+02 3.87370E+01 0.00000E+00
 -1       733 1.07175E+02 3.87370E+01 0.00000E+00
 -1       734 1.10175E+02 3.87370E+01 0.00000E+00
 -1       735 1.13175E+02 3.87370E+01 0.00000E+00
 -1       736 1.16175E+02 3.87370E+01 0.00000E+00
 -1       737 1.19175E+02 3.87370E+01 0.00000E+00
 -1       738 1.22175E+02 3.87370E+01 0.00000E+00
 -1       739 1.25175E+02 3.87370E+01 0.00000E+00
 -1       740 1.28175E+02 3.87370E+01 0.00000E+00
 -1       741 1.31175E+02 3.87370E+01 0.00000E+00
 -1       742 1.34175E+02 3.87370E+01 0.00000E+00
 -1       743 1.36725E+02 3.83260E+01 0.00000E+00
 -1       744 3.88740E+01 1.25795E+01 0.00000E+00
 -1       745 3.58740E+01 1.25795E+01 0.00000E+00
 -1       746 4.48740E+01 1.25795E+01 0.00000E+00
 -1       747 4.78740E+01 1.25795E+01 0.00000E+00
 -1       748 5.08740E+01 1.25795E+01 0.00000E+00
 -1       749 5.38740E+01 1.25795E+01 0.00000E+00
 -1       750 5.68740E+01 1.25795E+01 0.00000E+00
 -1       751 5.98740E+01 1.25795E+01 0.00000E+00
 -1       752 6.28740E+01 1.25795E+01 0.00000E+00
 -1       753 6.58740E+01 1.25795E+01 0.00000E+00
 -1       754 6.88740E+01 1.25795E+01 0.00000E+00
 -1       755 7.18740E+01 1.25795E+01 0.00000E+00
 -1       756 7.48740E+01 1.25795E+01 0.00000E+00
 -1       757 7.78740E+01 1.25795E+01 0.00000E+00
 -1       758 8.08740E+01 1.25795E+01 0.00000E+00
 -1       759 8.38740E+01 1.25795E+01 0.00000E+00
 -1       760 8.68740E+01 1.25795E+01 0.00000E+00
 -1       761 8.98740E+01 1.25795E+01 0.00000E+00
 -1       762 9.28740E+01 1.25795E+01 0.00000E+00
 -1       763 9.58740E+01 1.25795E+01 0.00000E+00
 -1       764 9.88740E+01 1.25795E+01 0.00000E+00
 -1       765 1.01874E+02 1.25795E+01 0.00000E+00
 -1       766 1.04874E+02 1.25795E+01 0.00000E+00
 -1       767 1.07874E+02 1.25795E+01 0.00000E+00
 -1       768 1.10874E+02 1.25795E+01 0.00000E+00
 -1       769 1.13874E+02 1.25795E+01 0.00000E+00
 -1       770 1.16874E+02 1.25795E+01 0.00000E+00
 -1       771 1.19874E+02 1.25795E+01 0.00000E+00
 -1       772 1.22874E+02 1.25795E+01 0.00000E+00
 -1       773 1.25874E+02 1.25795E+01 0.00000E+00
 -1       774 1.28874E+02 1.25795E+01 0.00000E+00
 -1       775 1.31874E+02 1.25795E+01 0.00000E+00
 -1       776 1.37010E+02 3.38250E+01 0.00000E+00
 -1       777 1.56345E+01 2.56078E+01 0.00000E+00
 -1       778 1.37010E+02 1.91250E+01 0.00000E+00
 -1       779 1.37010E+02 3.08750E+01 0.00000E+00
 -1       780 1.37010E+02 2.79750E+01 0.00000E+00
 -1       781 9.05749E+00 3.87745E+01 0.00000E+00
 -1       782 2.86519E+01 2.53988E+01 0.00000E+00
 -1       783 3.51688E+01 3.18851E+01 0.00000E+00
 -1       784 1.37010E+02 2.50250E+01 0.00000E+00
 -1       785 3.30574E+01 2.93355E+01 0.00000E+00
 -1       786 1.37010E+02 1.62250E+01 0.00000E+00
 -1       787 3.14821E+01 2.72631E+01 0.00000E+00
 -1       788 1.36650E+02 1.31891E+01 0.00000E+00
 -1       789 4.08750E+01 3.87370E+01 0.00000E+00
 -1       790 3.62349E+01 3.47169E+01 0.00000E+00
 -1       791 1.33445E+01 2.74636E+01 0.00000E+00
 -1       792 4.18740E+01 1.25795E+01 0.00000E+00
 -1       793 2.53746E+01 2.42075E+01 0.00000E+00
 -1       794 2.22408E+01 2.45214E+01 0.00000E+00
 -1       795 1.93244E+01 2.46696E+01 0.00000E+00
 -1       796 1.29900E+01 2.20250E+01 0.00000E+00
 -1       797 2.38740E+01 1.25795E+01 0.00000E+00
 -1       798 1.48741E+01 1.25795E+01 0.00000E+00
 -1       799 3.28740E+01 1.25795E+01 0.00000E+00
 -1       800 3.53544E+01 2.98134E+01 0.00000E+00
 -1       801 1.34262E+02 1.28843E+01 0.00000E+00
 -1       802 3.79141E+01 3.87595E+01 0.00000E+00
 -1       803 1.69048E+01 2.36127E+01 0.00000E+00
 -1       804 3.66174E+01 4.01633E+01 0.00000E+00
 -1       805 1.36867E+02 3.60755E+01 0.00000E+00
 -1       806 2.08740E+01 1.25795E+01 0.00000E+00
 -1       807 1.29900E+01 1.61375E+01 0.00000E+00
 -1       808 3.74677E+01 3.59986E+01 0.00000E+00
 -1       809 2.98740E+01 1.25795E+01 0.00000E+00
 -1       810 1.29900E+01 1.90812E+01 0.00000E+00
 -1       811 3.13792E+01 2.43389E+01 0.00000E+00
 -1       812 4.83750E+01 3.61390E+01 0.00000E+00
 -1       813 5.13750E+01 3.61390E+01 0.00000E+00
 -1       814 5.43750E+01 3.61390E+01 0.00000E+00
 -1       815 5.73750E+01 3.61390E+01 0.00000E+00
 -1       816 6.05250E+01 3.61390E+01 0.00000E+00
 -1       817 6.35250E+01 3.61390E+01 0.00000E+00
 -1       818 6.65250E+01 3.61390E+01 0.00000E+00
 -1       819 6.95250E+01 3.61390E+01 0.00000E+00
 -1       820 7.25250E+01 3.61390E+01 0.00000E+00
 -1       821 7.55250E+01 3.61390E+01 0.00000E+00
 -1       822 7.85250E+01 3.61390E+01 0.00000E+00
 -1       823 8.15250E+01 3.61390E+01 0.00000E+00
 -1       824 8.45250E+01 3.61390E+01 0.00000E+00
 -1       825 8.75250E+01 3.61390E+01 0.00000E+00
 -1       826 9.05250E+01 3.61390E+01 0.00000E+00
 -1       827 9.35250E+01 3.61390E+01 0.00000E+00
 -1       828 9.65250E+01 3.61390E+01 0.00000E+00
 -1       829 9.95250E+01 3.61390E+01 0.00000E+00
 -1       830 1.02675E+02 3.61390E+01 0.00000E+00
 -1       831 1.05675E+02 3.61390E+01 0.00000E+00
 -1       832 1.08675E+02 3.61390E+01 0.00000E+00
 -1       833 1.11675E+02 3.61390E+01 0.00000E+00
 -1       834 1.14675E+02 3.61390E+01 0.00000E+00
 -1       835 1.17675E+02 3.61390E+01 0.00000E+00
 -1       836 1.20675E+02 3.61390E+01 0.00000E+00
 -1       837 1.23675E+02 3.61390E+01 0.00000E+00
 -1       838 1.26675E+02 3.61390E+01 0.00000E+00
 -1       839 1.29675E+02 3.61390E+01 0.00000E+00
 -1       840 1.32675E+02 3.61390E+01 0.00000E+00
 -1       841 3.73740E+01 1.51775E+01 0.00000E+00
 -1       842 4.93740E+01 1.51775E+01 0.00000E+00
 -1       843 4.63740E+01 1.51775E+01 0.00000E+00
 -1       844 5.53740E+01 1.51775E+01 0.00000E+00
 -1       845 5.83740E+01 1.51775E+01 0.00000E+00
 -1       846 6.13740E+01 1.51775E+01 0.00000E+00
 -1       847 6.43740E+01 1.51775E+01 0.00000E+00
 -1       848 6.73740E+01 1.51775E+01 0.00000E+00
 -1       849 7.03740E+01 1.51775E+01 0.00000E+00
 -1       850 7.33740E+01 1.51775E+01 0.00000E+00
 -1       851 7.63740E+01 1.51775E+01 0.00000E+00
 -1       852 7.93740E+01 1.51775E+01 0.00000E+00
 -1       853 8.23740E+01 1.51775E+01 0.00000E+00
 -1       854 8.53740E+01 1.51775E+01 0.00000E+00
 -1       855 8.83740E+01 1.51775E+01 0.00000E+00
 -1       856 9.13740E+01 1.51775E+01 0.00000E+00
 -1       857 9.43740E+01 1.51775E+01 0.00000E+00
 -1       858 9.73740E+01 1.51775E+01 0.00000E+00
 -1       859 1.00374E+02 1.51775E+01 0.00000E+00
 -1       860 1.03374E+02 1.51775E+01 0.00000E+00
 -1       861 1.06374E+02 1.51775E+01 0.00000E+00
 -1       862 1.09374E+02 1.51775E+01 0.00000E+00
 -1       863 1.12374E+02 1.51775E+01 0.00000E+00
 -1       864 1.15374E+02 1.51775E+01 0.00000E+00
 -1       865 1.18374E+02 1.51775E+01 0.00000E+00
 -1       866 1.21374E+02 1.51775E+01 0.00000E+00
 -1       867 1.24374E+02 1.51775E+01 0.00000E+00
 -1       868 1.27374E+02 1.51775E+01 0.00000E+00
 -1       869 1.30374E+02 1.51775E+01 0.00000E+00
 -1       870 2.77709E+01 2.27187E+01 0.00000E+00
 -1       871 1.34412E+02 2.06000E+01 0.00000E+00
 -1       872 1.34412E+02 3.23500E+01 0.00000E+00
 -1       873 1.34412E+02 2.94500E+01 0.00000E+00
 -1       874 5.23740E+01 1.51775E+01 0.00000E+00
 -1       875 2.06700E+01 2.23805E+01 0.00000E+00
 -1       876 4.53750E+01 3.61390E+01 0.00000E+00
 -1       877 3.39020E+01 2.70586E+01 0.00000E+00
 -1       878 1.48741E+01 1.55170E+01 0.00000E+00
 -1       879 1.34412E+02 1.77000E+01 0.00000E+00
 -1       880 4.23750E+01 3.61390E+01 0.00000E+00
 -1       881 2.38039E+01 2.20666E+01 0.00000E+00
 -1       882 1.93740E+01 1.51775E+01 0.00000E+00
 -1       883 2.83740E+01 1.51775E+01 0.00000E+00
 -1       884 3.76206E+01 3.25786E+01 0.00000E+00
 -1       885 1.71240E+01 1.53473E+01 0.00000E+00
 -1       886 1.82505E+01 2.13237E+01 0.00000E+00
 -1       887 3.43740E+01 1.51775E+01 0.00000E+00
 -1       888 4.03740E+01 1.51775E+01 0.00000E+00
 -1       889 1.34771E+02 3.61073E+01 0.00000E+00
 -1       890 1.34337E+02 1.52922E+01 0.00000E+00
 -1       891 4.33740E+01 1.51775E+01 0.00000E+00
 -1       892 2.53740E+01 1.51775E+01 0.00000E+00
 -1       893 1.34412E+02 2.35500E+01 0.00000E+00
 -1       894 2.62002E+01 2.05779E+01 0.00000E+00
 -1       895 1.43989E+01 2.34191E+01 0.00000E+00
 -1       896 3.78063E+01 3.05069E+01 0.00000E+00
 -1       897 1.34412E+02 2.65000E+01 0.00000E+00
 -1       898 2.23740E+01 1.51775E+01 0.00000E+00
 -1       899 1.32355E+02 1.52348E+01 0.00000E+00
 -1       900 3.88533E+01 3.38603E+01 0.00000E+00
 -1       901 3.13740E+01 1.51775E+01 0.00000E+00
 -1       902 4.78740E+01 1.77755E+01 0.00000E+00
 -1       903 2.08740E+01 1.77755E+01 0.00000E+00
 -1       904 5.28750E+01 3.35410E+01 0.00000E+00
 -1       905 5.58750E+01 3.35410E+01 0.00000E+00
 -1       906 5.90250E+01 3.35410E+01 0.00000E+00
 -1       907 6.20250E+01 3.35410E+01 0.00000E+00
 -1       908 6.50250E+01 3.35410E+01 0.00000E+00
 -1       909 6.80250E+01 3.35410E+01 0.00000E+00
 -1       910 7.10250E+01 3.35410E+01 0.00000E+00
 -1       911 7.40250E+01 3.35410E+01 0.00000E+00
 -1       912 7.70250E+01 3.35410E+01 0.00000E+00
 -1       913 8.00250E+01 3.35410E+01 0.00000E+00
 -1       914 8.30250E+01 3.35410E+01 0.00000E+00
 -1       915 8.60250E+01 3.35410E+01 0.00000E+00
 -1       916 8.90250E+01 3.35410E+01 0.00000E+00
 -1       917 9.20250E+01 3.35410E+01 0.00000E+00
 -1       918 9.50250E+01 3.35410E+01 0.00000E+00
 -1       919 9.80250E+01 3.35410E+01 0.00000E+00
 -1       920 1.01175E+02 3.35410E+01 0.00000E+00
 -1       921 1.04175E+02 3.35410E+01 0.00000E+00
 -1       922 1.07175E+02 3.35410E+01 0.00000E+00
 -1       923 1.10175E+02 3.35410E+01 0.00000E+00
 -1       924 1.13175E+02 3.35410E+01 0.00000E+00
 -1       925 1.16175E+02 3.35410E+01 0.00000E+00
 -1       926 1.19175E+02 3.35410E+01 0.00000E+00
 -1       927 1.22175E+02 3.35410E+01 0.00000E+00
 -1       928 1.25175E+02 3.35410E+01 0.00000E+00
 -1       929 1.28175E+02 3.35410E+01 0.00000E+00
 -1       930 1.31175E+02 3.35410E+01 0.00000E+00
 -1       931 1.31814E+02 2.79750E+01 0.00000E+00
 -1       932 2.98740E+01 1.77755E+01 0.00000E+00
 -1       933 5.98740E+01 1.77755E+01 0.00000E+00
 -1       934 5.68740E+01 1.77755E+01 0.00000E+00
 -1       935 6.58740E+01 1.77755E+01 0.00000E+00
 -1       936 6.88740E+01 1.77755E+01 0.00000E+00
 -1       937 7.18740E+01 1.77755E+01 0.00000E+00
 -1       938 7.48740E+01 1.77755E+01 0.00000E+00
 -1       939 7.78740E+01 1.77755E+01 0.00000E+00
 -1       940 8.08740E+01 1.77755E+01 0.00000E+00
 -1       941 8.38740E+01 1.77755E+01 0.00000E+00
 -1       942 8.68740E+01 1.77755E+01 0.00000E+00
 -1       943 8.98740E+01 1.77755E+01 0.00000E+00
 -1       944 9.28740E+01 1.77755E+01 0.00000E+00
 -1       945 9.58740E+01 1.77755E+01 0.00000E+00
 -1       946 9.88740E+01 1.77755E+01 0.00000E+00
 -1       947 1.01874E+02 1.77755E+01 0.00000E+00
 -1       948 1.04874E+02 1.77755E+01 0.00000E+00
 -1       949 1.07874E+02 1.77755E+01 0.00000E+00
 -1       950 1.10874E+02 1.77755E+01 0.00000E+00
 -1       951 1.13874E+02 1.77755E+01 0.00000E+00
 -1       952 1.16874E+02 1.77755E+01 0.00000E+00
 -1       953 1.19874E+02 1.77755E+01 0.00000E+00
 -1       954 1.22874E+02 1.77755E+01 0.00000E+00
 -1       955 1.25874E+02 1.77755E+01 0.00000E+00
 -1       956 1.28874E+02 1.77755E+01 0.00000E+00
 -1       957 3.45453E+01 2.39319E+01 0.00000E+00
 -1       958 4.38750E+01 3.35410E+01 0.00000E+00
 -1       959 3.67383E+01 2.73235E+01 0.00000E+00
 -1       960 1.57445E+01 2.11300E+01 0.00000E+00
 -1       961 4.68750E+01 3.35410E+01 0.00000E+00
 -1       962 1.48741E+01 1.84608E+01 0.00000E+00
 -1       963 1.31814E+02 1.91500E+01 0.00000E+00
 -1       964 2.19825E+01 1.96833E+01 0.00000E+00
 -1       965 1.31814E+02 3.08750E+01 0.00000E+00
 -1       966 4.98750E+01 3.35410E+01 0.00000E+00
 -1       967 3.06392E+01 2.11588E+01 0.00000E+00
 -1       968 6.28740E+01 1.77755E+01 0.00000E+00
 -1       969 1.86240E+01 1.79453E+01 0.00000E+00
 -1       970 3.58740E+01 1.77755E+01 0.00000E+00
 -1       971 1.31814E+02 2.50250E+01 0.00000E+00
 -1       972 2.68740E+01 1.77755E+01 0.00000E+00
 -1       973 3.88740E+01 1.77755E+01 0.00000E+00
 -1       974 5.38740E+01 1.77755E+01 0.00000E+00
 -1       975 3.90390E+01 3.17885E+01 0.00000E+00
 -1       976 4.48740E+01 1.77755E+01 0.00000E+00
 -1       977 5.08740E+01 1.77755E+01 0.00000E+00
 -1       978 2.38740E+01 1.77755E+01 0.00000E+00
 -1       979 3.28740E+01 1.77755E+01 0.00000E+00
 -1       980 1.31814E+02 2.20875E+01 0.00000E+00
 -1       981 3.97354E+01 2.80889E+01 0.00000E+00
 -1       982 4.18740E+01 1.77755E+01 0.00000E+00
 -1       983 5.74500E+01 3.09430E+01 0.00000E+00
 -1       984 6.04500E+01 3.09430E+01 0.00000E+00
 -1       985 6.34500E+01 3.09430E+01 0.00000E+00
 -1       986 6.64500E+01 3.09430E+01 0.00000E+00
 -1       987 6.94500E+01 3.09430E+01 0.00000E+00
 -1       988 7.24500E+01 3.09430E+01 0.00000E+00
 -1       989 7.54500E+01 3.09430E+01 0.00000E+00
 -1       990 7.84500E+01 3.09430E+01 0.00000E+00
 -1       991 8.14500E+01 3.09430E+01 0.00000E+00
 -1       992 8.44500E+01 3.09430E+01 0.00000E+00
 -1       993 8.74500E+01 3.09430E+01 0.00000E+00
 -1       994 9.04500E+01 3.09430E+01 0.00000E+00
 -1       995 9.34500E+01 3.09430E+01 0.00000E+00
 -1       996 9.64500E+01 3.09430E+01 0.00000E+00
 -1       997 9.96000E+01 3.09430E+01 0.00000E+00
 -1       998 1.02600E+02 3.09430E+01 0.00000E+00
 -1       999 1.05600E+02 3.09430E+01 0.00000E+00
 -1      1000 1.08600E+02 3.09430E+01 0.00000E+00
 -1      1001 1.11600E+02 3.09430E+01 0.00000E+00
 -1      1002 1.14600E+02 3.09430E+01 0.00000E+00
 -1      1003 1.17600E+02 3.09430E+01 0.00000E+00
 -1      1004 1.20600E+02 3.09430E+01 0.00000E+00
 -1      1005 1.23600E+02 3.09430E+01 0.00000E+00
 -1      1006 1.26600E+02 3.09430E+01 0.00000E+00
 -1      1007 1.29207E+02 3.09090E+01 0.00000E+00
 -1      1008 5.13750E+01 3.09430E+01 0.00000E+00
 -1      1009 7.03740E+01 2.03735E+01 0.00000E+00
 -1      1010 6.73740E+01 2.03735E+01 0.00000E+00
 -1      1011 7.63740E+01 2.03735E+01 0.00000E+00
 -1      1012 7.93740E+01 2.03735E+01 0.00000E+00
 -1      1013 8.23740E+01 2.03735E+01 0.00000E+00
 -1      1014 8.53740E+01 2.03735E+01 0.00000E+00
 -1      1015 8.83740E+01 2.03735E+01 0.00000E+00
 -1      1016 9.13740E+01 2.03735E+01 0.00000E+00
 -1      1017 9.43740E+01 2.03735E+01 0.00000E+00
 -1      1018 9.73740E+01 2.03735E+01 0.00000E+00
 -1      1019 1.00374E+02 2.03735E+01 0.00000E+00
 -1      1020 1.03374E+02 2.03735E+01 0.00000E+00
 -1      1021 1.06374E+02 2.03735E+01 0.00000E+00
 -1      1022 1.09374E+02 2.03735E+01 0.00000E+00
 -1      1023 1.12374E+02 2.03735E+01 0.00000E+00
 -1      1024 1.15374E+02 2.03735E+01 0.00000E+00
 -1      1025 1.18374E+02 2.03735E+01 0.00000E+00
 -1      1026 1.21374E+02 2.03735E+01 0.00000E+00
 -1      1027 1.24374E+02 2.03735E+01 0.00000E+00
 -1      1028 1.27374E+02 2.03735E+01 0.00000E+00
 -1      1029 3.40702E+01 2.04637E+01 0.00000E+00
 -1      1030 1.29594E+02 2.12305E+01 0.00000E+00
 -1      1031 7.33740E+01 2.03735E+01 0.00000E+00
 -1      1032 3.78235E+01 2.42171E+01 0.00000E+00
 -1      1033 5.83740E+01 2.03735E+01 0.00000E+00
 -1      1034 4.53750E+01 3.09430E+01 0.00000E+00
 -1      1035 4.83750E+01 3.09430E+01 0.00000E+00
 -1      1036 5.43750E+01 3.09430E+01 0.00000E+00
 -1      1037 1.29207E+02 2.80090E+01 0.00000E+00
 -1      1038 6.43740E+01 2.03735E+01 0.00000E+00
 -1      1039 6.13740E+01 2.03735E+01 0.00000E+00
 -1      1040 1.29207E+02 2.50590E+01 0.00000E+00
 -1      1041 5.53740E+01 2.03735E+01 0.00000E+00
 -1      1042 3.70702E+01 2.04637E+01 0.00000E+00
 -1      1043 4.09681E+01 2.93705E+01 0.00000E+00
 -1      1044 4.63740E+01 2.03735E+01 0.00000E+00
 -1      1045 4.93740E+01 2.03735E+01 0.00000E+00
 -1      1046 5.59125E+01 2.83450E+01 0.00000E+00
 -1      1047 4.33740E+01 2.03735E+01 0.00000E+00
 -1      1048 7.18740E+01 2.29715E+01 0.00000E+00
 -1      1049 6.19500E+01 2.83450E+01 0.00000E+00
 -1      1050 6.49500E+01 2.83450E+01 0.00000E+00
 -1      1051 6.79500E+01 2.83450E+01 0.00000E+00
 -1      1052 7.09500E+01 2.83450E+01 0.00000E+00
 -1      1053 7.39500E+01 2.83450E+01 0.00000E+00
 -1      1054 7.69500E+01 2.83450E+01 0.00000E+00
 -1      1055 7.99500E+01 2.83450E+01 0.00000E+00
 -1      1056 8.29500E+01 2.83450E+01 0.00000E+00
 -1      1057 8.59500E+01 2.83450E+01 0.00000E+00
 -1      1058 8.89500E+01 2.83450E+01 0.00000E+00
 -1      1059 9.19500E+01 2.83450E+01 0.00000E+00
 -1      1060 9.49500E+01 2.83450E+01 0.00000E+00
 -1      1061 9.81000E+01 2.83450E+01 0.00000E+00
 -1      1062 1.01100E+02 2.83450E+01 0.00000E+00
 -1      1063 1.04100E+02 2.83450E+01 0.00000E+00
 -1      1064 1.07100E+02 2.83450E+01 0.00000E+00
 -1      1065 1.10100E+02 2.83450E+01 0.00000E+00
 -1      1066 1.13100E+02 2.83450E+01 0.00000E+00
 -1      1067 1.16100E+02 2.83450E+01 0.00000E+00
 -1      1068 1.19100E+02 2.83450E+01 0.00000E+00
 -1      1069 1.22100E+02 2.83450E+01 0.00000E+00
 -1      1070 1.25100E+02 2.83450E+01 0.00000E+00
 -1      1071 4.01294E+01 2.05672E+01 0.00000E+00
 -1      1072 8.08740E+01 2.29715E+01 0.00000E+00
 -1      1073 7.78740E+01 2.29715E+01 0.00000E+00
 -1      1074 8.68740E+01 2.29715E+01 0.00000E+00
 -1      1075 8.98740E+01 2.29715E+01 0.00000E+00
 -1      1076 9.28740E+01 2.29715E+01 0.00000E+00
 -1      1077 9.58740E+01 2.29715E+01 0.00000E+00
 -1      1078 9.88740E+01 2.29715E+01 0.00000E+00
 -1      1079 1.01874E+02 2.29715E+01 0.00000E+00
 -1      1080 1.04874E+02 2.29715E+01 0.00000E+00
 -1      1081 1.07874E+02 2.29715E+01 0.00000E+00
 -1      1082 1.10874E+02 2.29715E+01 0.00000E+00
 -1      1083 1.13874E+02 2.29715E+01 0.00000E+00
 -1      1084 1.16874E+02 2.29715E+01 0.00000E+00
 -1      1085 1.19874E+02 2.29715E+01 0.00000E+00
 -1      1086 1.22874E+02 2.29715E+01 0.00000E+00
 -1      1087 1.25874E+02 2.29715E+01 0.00000E+00
 -1      1088 7.48740E+01 2.29715E+01 0.00000E+00
 -1      1089 6.28740E+01 2.29715E+01 0.00000E+00
 -1      1090 4.68750E+01 2.83450E+01 0.00000E+00
 -1      1091 5.23740E+01 2.03735E+01 0.00000E+00
 -1      1092 5.98740E+01 2.29715E+01 0.00000E+00
 -1      1093 4.20413E+01 2.44390E+01 0.00000E+00
 -1      1094 4.98750E+01 2.83450E+01 0.00000E+00
 -1      1095 8.38740E+01 2.29715E+01 0.00000E+00
 -1      1096 6.88740E+01 2.29715E+01 0.00000E+00
 -1      1097 5.28750E+01 2.83450E+01 0.00000E+00
 -1      1098 6.58740E+01 2.29715E+01 0.00000E+00
 -1      1099 1.29400E+02 2.31448E+01 0.00000E+00
 -1      1100 5.89500E+01 2.83450E+01 0.00000E+00
 -1      1101 5.68740E+01 2.29715E+01 0.00000E+00
 -1      1102 4.40447E+01 2.77099E+01 0.00000E+00
 -1      1103 4.30430E+01 2.60744E+01 0.00000E+00
 -1      1104 4.78740E+01 2.29715E+01 0.00000E+00
 -1      1105 4.48740E+01 2.29715E+01 0.00000E+00
 -1      1106 1.26609E+02 2.65340E+01 0.00000E+00
 -1      1107 6.64500E+01 2.57470E+01 0.00000E+00
 -1      1108 6.94500E+01 2.57470E+01 0.00000E+00
 -1      1109 7.24500E+01 2.57470E+01 0.00000E+00
 -1      1110 7.54500E+01 2.57470E+01 0.00000E+00
 -1      1111 7.84500E+01 2.57470E+01 0.00000E+00
 -1      1112 8.14500E+01 2.57470E+01 0.00000E+00
 -1      1113 8.44500E+01 2.57470E+01 0.00000E+00
 -1      1114 8.74500E+01 2.57470E+01 0.00000E+00
 -1      1115 9.04500E+01 2.57470E+01 0.00000E+00
 -1      1116 9.34500E+01 2.57470E+01 0.00000E+00
 -1      1117 9.66000E+01 2.57470E+01 0.00000E+00
 -1      1118 9.96000E+01 2.57470E+01 0.00000E+00
 -1      1119 1.02600E+02 2.57470E+01 0.00000E+00
 -1      1120 1.05600E+02 2.57470E+01 0.00000E+00
 -1      1121 1.08600E+02 2.57470E+01 0.00000E+00
 -1      1122 1.11600E+02 2.57470E+01 0.00000E+00
 -1      1123 1.14600E+02 2.57470E+01 0.00000E+00
 -1      1124 1.17600E+02 2.57470E+01 0.00000E+00
 -1      1125 1.20600E+02 2.57470E+01 0.00000E+00
 -1      1126 1.23600E+02 2.57470E+01 0.00000E+00
 -1      1127 6.04500E+01 2.57470E+01 0.00000E+00
 -1      1128 5.74125E+01 2.57470E+01 0.00000E+00
 -1      1129 4.83750E+01 2.57470E+01 0.00000E+00
 -1      1130 6.34500E+01 2.57470E+01 0.00000E+00
 -1      1131 5.43750E+01 2.57470E+01 0.00000E+00
 -1      1132 5.13750E+01 2.57470E+01 0.00000E+00
 -1      1133 5.08740E+01 2.29715E+01 0.00000E+00
 -1      1134 4.57090E+01 2.59107E+01 0.00000E+00
 -1      1135 5.38740E+01 2.29715E+01 0.00000E+00
 -1      1136 0.00000E+00 4.85250E+01 0.00000E+00
 -1      1137 0.00000E+00 4.55750E+01 0.00000E+00
 -1      1138 0.00000E+00 4.26250E+01 0.00000E+00
 -1      1139 0.00000E+00 3.96750E+01 0.00000E+00
 -1      1140 0.00000E+00 3.67250E+01 0.00000E+00
 -1      1141 0.00000E+00 3.38000E+01 0.00000E+00
 -1      1142 0.00000E+00 3.08750E+01 0.00000E+00
 -1      1143 0.00000E+00 2.79250E+01 0.00000E+00
 -1      1144 0.00000E+00 2.49750E+01 0.00000E+00
 -1      1145 0.00000E+00 2.20250E+01 0.00000E+00
 -1      1146 0.00000E+00 1.90750E+01 0.00000E+00
 -1      1147 0.00000E+00 1.61500E+01 0.00000E+00
 -1      1148 0.00000E+00 1.32250E+01 0.00000E+00
 -1      1149 0.00000E+00 1.02750E+01 0.00000E+00
 -1      1150 0.00000E+00 7.32500E+00 0.00000E+00
 -1      1151 0.00000E+00 4.37500E+00 0.00000E+00
 -1      1152 0.00000E+00 1.45000E+00 0.00000E+00
 -1      1153 1.57500E+00 5.00000E+01 0.00000E+00
 -1      1154 4.65000E+00 5.00000E+01 0.00000E+00
 -1      1155 7.65000E+00 5.00000E+01 0.00000E+00
 -1      1156 1.06500E+01 5.00000E+01 0.00000E+00
 -1      1157 1.35000E+01 5.00000E+01 0.00000E+00
 -1      1158 1.59750E+01 5.00000E+01 0.00000E+00
 -1      1159 1.80750E+01 5.00000E+01 0.00000E+00
 -1      1160 2.01000E+01 5.00000E+01 0.00000E+00
 -1      1161 2.22000E+01 5.00000E+01 0.00000E+00
 -1      1162 2.43750E+01 5.00000E+01 0.00000E+00
 -1      1163 2.66250E+01 5.00000E+01 0.00000E+00
 -1      1164 2.89500E+01 5.00000E+01 0.00000E+00
 -1      1165 3.15000E+01 5.00000E+01 0.00000E+00
 -1      1166 3.42750E+01 5.00000E+01 0.00000E+00
 -1      1167 3.72000E+01 5.00000E+01 0.00000E+00
 -1      1168 4.02000E+01 5.00000E+01 0.00000E+00
 -1      1169 4.32000E+01 5.00000E+01 0.00000E+00
 -1      1170 4.62000E+01 5.00000E+01 0.00000E+00
 -1      1171 4.92000E+01 5.00000E+01 0.00000E+00
 -1      1172 5.22000E+01 5.00000E+01 0.00000E+00
 -1      1173 5.52000E+01 5.00000E+01 0.00000E+00
 -1      1174 5.82000E+01 5.00000E+01 0.00000E+00
 -1      1175 6.12000E+01 5.00000E+01 0.00000E+00
 -1      1176 6.42000E+01 5.00000E+01 0.00000E+00
 -1      1177 6.72750E+01 5.00000E+01 0.00000E+00
 -1      1178 7.03500E+01 5.00000E+01 0.00000E+00
 -1      1179 7.33500E+01 5.00000E+01 0.00000E+00
 -1      1180 7.63500E+01 5.00000E+01 0.00000E+00
 -1      1181 7.93500E+01 5.00000E+01 0.00000E+00
 -1      1182 8.23500E+01 5.00000E+01 0.00000E+00
 -1      1183 8.53500E+01 5.00000E+01 0.00000E+00
 -1      1184 8.83500E+01 5.00000E+01 0.00000E+00
 -1      1185 9.13500E+01 5.00000E+01 0.00000E+00
 -1      1186 9.43500E+01 5.00000E+01 0.00000E+00
 -1      1187 9.73500E+01 5.00000E+01 0.00000E+00
 -1      1188 1.00350E+02 5.00000E+01 0.00000E+00
 -1      1189 1.03350E+02 5.00000E+01 0.00000E+00
 -1      1190 1.06350E+02 5.00000E+01 0.00000E+00
 -1      1191 1.09425E+02 5.00000E+01 0.00000E+00
 -1      1192 1.12500E+02 5.00000E+01 0.00000E+00
 -1      1193 1.15500E+02 5.00000E+01 0.00000E+00
 -1      1194 1.18500E+02 5.00000E+01 0.00000E+00
 -1      1195 1.21500E+02 5.00000E+01 0.00000E+00
 -1      1196 1.24500E+02 5.00000E+01 0.00000E+00
 -1      1197 1.27500E+02 5.00000E+01 0.00000E+00
 -1      1198 1.30500E+02 5.00000E+01 0.00000E+00
 -1      1199 1.33500E+02 5.00000E+01 0.00000E+00
 -1      1200 1.36500E+02 5.00000E+01 0.00000E+00
 -1      1201 1.39500E+02 5.00000E+01 0.00000E+00
 -1      1202 1.42500E+02 5.00000E+01 0.00000E+00
 -1      1203 1.45500E+02 5.00000E+01 0.00000E+00
 -1      1204 1.48500E+02 5.00000E+01 0.00000E+00
 -1      1205 1.57500E+00 0.00000E+00 0.00000E+00
 -1      1206 4.65000E+00 0.00000E+00 0.00000E+00
 -1      1207 7.65000E+00 0.00000E+00 0.00000E+00
 -1      1208 1.06500E+01 0.00000E+00 0.00000E+00
 -1      1209 1.36500E+01 0.00000E+00 0.00000E+00
 -1      1210 1.66500E+01 0.00000E+00 0.00000E+00
 -1      1211 1.96500E+01 0.00000E+00 0.00000E+00
 -1      1212 2.26500E+01 0.00000E+00 0.00000E+00
 -1      1213 2.56500E+01 0.00000E+00 0.00000E+00
 -1      1214 2.86500E+01 0.00000E+00 0.00000E+00
 -1      1215 3.16500E+01 0.00000E+00 0.00000E+00
 -1      1216 3.46500E+01 0.00000E+00 0.00000E+00
 -1      1217 3.76500E+01 0.00000E+00 0.00000E+00
 -1      1218 4.06500E+01 0.00000E+00 0.00000E+00
 -1      1219 4.36500E+01 0.00000E+00 0.00000E+00
 -1      1220 4.66500E+01 0.00000E+00 0.00000E+00
 -1      1221 4.96500E+01 0.00000E+00 0.00000E+00
 -1      1222 5.26500E+01 0.00000E+00 0.00000E+00
 -1      1223 5.56500E+01 0.00000E+00 0.00000E+00
 -1      1224 5.86500E+01 0.00000E+00 0.00000E+00
 -1      1225 6.16500E+01 0.00000E+00 0.00000E+00
 -1      1226 6.46500E+01 0.00000E+00 0.00000E+00
 -1      1227 6.76500E+01 0.00000E+00 0.00000E+00
 -1      1228 7.06500E+01 0.00000E+00 0.00000E+00
 -1      1229 7.36500E+01 0.00000E+00 0.00000E+00
 -1      1230 7.66500E+01 0.00000E+00 0.00000E+00
 -1      1231 7.96500E+01 0.00000E+00 0.00000E+00
 -1      1232 8.26500E+01 0.00000E+00 0.00000E+00
 -1      1233 8.56500E+01 0.00000E+00 0.00000E+00
 -1      1234 8.86500E+01 0.00000E+00 0.00000E+00
 -1      1235 9.16500E+01 0.00000E+00 0.00000E+00
 -1      1236 9.46500E+01 0.00000E+00 0.00000E+00
 -1      1237 9.76500E+01 0.00000E+00 0.00000E+00
 -1      1238 1.00650E+02 0.00000E+00 0.00000E+00
 -1      1239 1.03650E+02 0.00000E+00 0.00000E+00
 -1      1240 1.06650E+02 0.00000E+00 0.00000E+00
 -1      1241 1.09650E+02 0.00000E+00 0.00000E+00
 -1      1242 1.12650E+02 0.00000E+00 0.00000E+00
 -1      1243 1.15650E+02 0.00000E+00 0.00000E+00
 -1      1244 1.18650E+02 0.00000E+00 0.00000E+00
 -1      1245 1.21650E+02 0.00000E+00 0.00000E+00
 -1      1246 1.24650E+02 0.00000E+00 0.00000E+00
 -1      1247 1.27650E+02 0.00000E+00 0.00000E+00
 -1      1248 1.30650E+02 0.00000E+00 0.00000E+00
 -1      1249 1.33650E+02 0.00000E+00 0.00000E+00
 -1      1250 1.36650E+02 0.00000E+00 0.00000E+00
 -1      1251 1.39650E+02 0.00000E+00 0.00000E+00
 -1      1252 1.42650E+02 0.00000E+00 0.00000E+00
 -1      1253 1.45650E+02 0.00000E+00 0.00000E+00
 -1      1254 1.48575E+02 0.00000E+00 0.00000E+00
 -1      1255 1.50000E+02 1.47500E+00 0.00000E+00
 -1      1256 1.50000E+02 4.42500E+00 0.00000E+00
 -1      1257 1.50000E+02 7.37500E+00 0.00000E+00
 -1      1258 1.50000E+02 1.03250E+01 0.00000E+00
 -1      1259 1.50000E+02 1.32750E+01 0.00000E+00
 -1      1260 1.50000E+02 1.62000E+01 0.00000E+00
 -1      1261 1.50000E+02 1.91250E+01 0.00000E+00
 -1      1262 1.50000E+02 2.20750E+01 0.00000E+00
 -1      1263 1.50000E+02 2.50250E+01 0.00000E+00
 -1      1264 1.50000E+02 2.79750E+01 0.00000E+00
 -1      1265 1.50000E+02 3.09250E+01 0.00000E+00
 -1      1266 1.50000E+02 3.38500E+01 0.00000E+00
 -1      1267 1.50000E+02 3.67750E+01 0.00000E+00
 -1      1268 1.50000E+02 3.97250E+01 0.00000E+00
 -1      1269 1.50000E+02 4.26750E+01 0.00000E+00
 -1      1270 1.50000E+02 4.56250E+01 0.00000E+00
 -1      1271 1.50000E+02 4.85500E+01 0.00000E+00
 -1      1272 2.93786E+01 3.84722E+01 0.00000E+00
 -1      1273 2.90718E+01 3.70416E+01 0.00000E+00
 -1      1274 2.84662E+01 3.56922E+01 0.00000E+00
 -1      1275 2.75938E+01 3.45035E+01 0.00000E+00
 -1      1276 2.64977E+01 3.35283E+01 0.00000E+00
 -1      1277 2.51969E+01 3.27919E+01 0.00000E+00
 -1      1278 2.38113E+01 3.23568E+01 0.00000E+00
 -1      1279 2.23253E+01 3.22174E+01 0.00000E+00
 -1      1280 2.08473E+01 3.23954E+01 0.00000E+00
 -1      1281 1.94702E+01 3.28679E+01 0.00000E+00
 -1      1282 1.81891E+01 3.36389E+01 0.00000E+00
 -1      1283 1.70908E+01 3.46762E+01 0.00000E+00
 -1      1284 1.62524E+01 3.59030E+01 0.00000E+00
 -1      1285 1.56969E+01 3.72618E+01 0.00000E+00
 -1      1286 1.54354E+01 3.87284E+01 0.00000E+00
 -1      1287 1.54872E+01 4.01961E+01 0.00000E+00
 -1      1288 1.58448E+01 4.16226E+01 0.00000E+00
 -1      1289 1.64918E+01 4.29419E+01 0.00000E+00
 -1      1290 1.73824E+01 4.40788E+01 0.00000E+00
 -1      1291 1.84743E+01 4.50000E+01 0.00000E+00
 -1      1292 1.97234E+01 4.56772E+01 0.00000E+00
 -1      1293 2.10646E+01 4.60847E+01 0.00000E+00
 -1      1294 2.25099E+01 4.62162E+01 0.00000E+00
 -1      1295 2.39707E+01 4.60425E+01 0.00000E+00
 -1      1296 2.53313E+01 4.55819E+01 0.00000E+00
 -1      1297 2.65454E+01 4.48707E+01 0.00000E+00
 -1      1298 2.76157E+01 4.39058E+01 0.00000E+00
 -1      1299 2.84801E+01 4.27175E+01 0.00000E+00
 -1      1300 2.90685E+01 4.14021E+01 0.00000E+00
 -1      1301 2.93788E+01 3.99596E+01 0.00000E+00
 -1      1302 1.57500E+00 4.85250E+01 0.00000E+00
 -1      1303 1.29900E+00 4.48375E+01 0.00000E+00
 -1      1304 1.29900E+00 4.63125E+01 0.00000E+00
 -1      1305 1.29900E+00 4.18875E+01 0.00000E+00
 -1      1306 1.29900E+00 4.33625E+01 0.00000E+00
 -1      1307 2.59800E+00 4.41000E+01 0.00000E+00
 -1      1308 1.29900E+00 3.89375E+01 0.00000E+00
 -1      1309 1.29900E+00 4.04125E+01 0.00000E+00
 -1      1310 2.59800E+00 4.11500E+01 0.00000E+00
 -1      1311 1.29900E+00 3.59875E+01 0.00000E+00
 -1      1312 1.29900E+00 3.74625E+01 0.00000E+00
 -1      1313 2.59800E+00 3.82000E+01 0.00000E+00
 -1      1314 1.29900E+00 3.30875E+01 0.00000E+00
 -1      1315 1.29900E+00 3.45375E+01 0.00000E+00
 -1      1316 2.59800E+00 3.52750E+01 0.00000E+00
 -1      1317 1.29900E+00 3.01375E+01 0.00000E+00
 -1      1318 1.29900E+00 3.16125E+01 0.00000E+00
 -1      1319 2.59800E+00 3.23500E+01 0.00000E+00
 -1      1320 1.29900E+00 2.71875E+01 0.00000E+00
 -1      1321 1.29900E+00 2.86625E+01 0.00000E+00
 -1      1322 2.59800E+00 2.94000E+01 0.00000E+00
 -1      1323 1.29900E+00 2.42375E+01 0.00000E+00
 -1      1324 1.29900E+00 2.57125E+01 0.00000E+00
 -1      1325 2.59800E+00 2.64500E+01 0.00000E+00
 -1      1326 1.29900E+00 2.12875E+01 0.00000E+00
 -1      1327 1.29900E+00 2.27625E+01 0.00000E+00
 -1      1328 2.59800E+00 2.35000E+01 0.00000E+00
 -1      1329 1.29900E+00 1.83375E+01 0.00000E+00
 -1      1330 1.29900E+00 1.98125E+01 0.00000E+00
 -1      1331 2.59800E+00 2.05500E+01 0.00000E+00
 -1      1332 1.29900E+00 1.54375E+01 0.00000E+00
 -1      1333 1.29900E+00 1.68875E+01 0.00000E+00
 -1      1334 2.59800E+00 1.76250E+01 0.00000E+00
 -1      1335 1.29900E+00 1.24875E+01 0.00000E+00
 -1      1336 1.29900E+00 1.39625E+01 0.00000E+00
 -1      1337 2.59800E+00 1.47000E+01 0.00000E+00
 -1      1338 1.29900E+00 9.53750E+00 0.00000E+00
 -1      1339 1.29900E+00 1.10125E+01 0.00000E+00
 -1      1340 2.59800E+00 1.17500E+01 0.00000E+00
 -1      1341 1.29900E+00 6.58750E+00 0.00000E+00
 -1      1342 1.29900E+00 8.06250E+00 0.00000E+00
 -1      1343 2.59800E+00 8.80000E+00 0.00000E+00
 -1      1344 1.29900E+00 3.63750E+00 0.00000E+00
 -1      1345 1.29900E+00 5.11250E+00 0.00000E+00
 -1      1346 2.59800E+00 5.85000E+00 0.00000E+00
 -1      1347 1.43700E+00 1.09375E+00 0.00000E+00
 -1      1348 1.43700E+00 2.54375E+00 0.00000E+00
 -1      1349 2.73600E+00 3.28125E+00 0.00000E+00
 -1      1350 3.01200E+00 1.09375E+00 0.00000E+00
 -1      1351 3.90000E+00 4.87010E+01 0.00000E+00
 -1      1352 5.40000E+00 4.87010E+01 0.00000E+00
 -1      1353 6.90000E+00 4.87010E+01 0.00000E+00
 -1      1354 8.40000E+00 4.87010E+01 0.00000E+00
 -1      1355 6.15000E+00 4.74020E+01 0.00000E+00
 -1      1356 9.90000E+00 4.87010E+01 0.00000E+00
 -1      1357 1.14000E+01 4.87010E+01 0.00000E+00
 -1      1358 9.15000E+00 4.74020E+01 0.00000E+00
 -1      1359 1.27500E+01 4.87010E+01 0.00000E+00
 -1      1360 1.41000E+01 4.87010E+01 0.00000E+00
 -1      1361 1.20000E+01 4.74020E+01 0.00000E+00
 -1      1362 1.75875E+01 4.91843E+01 0.00000E+00
 -1      1363 1.85625E+01 4.91843E+01 0.00000E+00
 -1      1364 1.96125E+01 4.91843E+01 0.00000E+00
 -1      1365 2.06625E+01 4.91843E+01 0.00000E+00
 -1      1366 1.91250E+01 4.83687E+01 0.00000E+00
 -1      1367 2.17125E+01 4.91843E+01 0.00000E+00
 -1      1368 2.27625E+01 4.91843E+01 0.00000E+00
 -1      1369 2.12250E+01 4.83687E+01 0.00000E+00
 -1      1370 2.38875E+01 4.91843E+01 0.00000E+00
 -1      1371 2.50125E+01 4.91843E+01 0.00000E+00
 -1      1372 2.34000E+01 4.83687E+01 0.00000E+00
 -1      1373 2.61375E+01 4.91843E+01 0.00000E+00
 -1      1374 2.72625E+01 4.91843E+01 0.00000E+00
 -1      1375 2.56500E+01 4.83687E+01 0.00000E+00
 -1      1376 2.84625E+01 4.91843E+01 0.00000E+00
 -1      1377 2.96625E+01 4.91843E+01 0.00000E+00
 -1      1378 2.79750E+01 4.83687E+01 0.00000E+00
 -1      1379 3.10125E+01 4.91843E+01 0.00000E+00
 -1      1380 3.23625E+01 4.91843E+01 0.00000E+00
 -1      1381 3.05250E+01 4.83687E+01 0.00000E+00
 -1      1382 3.37875E+01 4.91843E+01 0.00000E+00
 -1      1383 3.52125E+01 4.91843E+01 0.00000E+00
 -1      1384 3.33000E+01 4.83687E+01 0.00000E+00
 -1      1385 3.67125E+01 4.91843E+01 0.00000E+00
 -1      1386 3.82125E+01 4.91843E+01 0.00000E+00
 -1      1387 3.62250E+01 4.83687E+01 0.00000E+00
 -1      1388 3.97125E+01 4.91843E+01 0.00000E+00
 -1      1389 4.12125E+01 4.91843E+01 0.00000E+00
 -1      1390 3.92250E+01 4.83687E+01 0.00000E+00
 -1      1391 4.27125E+01 4.91843E+01 0.00000E+00
 -1      1392 4.42125E+01 4.91843E+01 0.00000E+00
 -1      1393 4.22250E+01 4.83687E+01 0.00000E+00
 -1      1394 4.57125E+01 4.91843E+01 0.00000E+00
 -1      1395 4.72125E+01 4.91843E+01 0.00000E+00
 -1      1396 4.52250E+01 4.83687E+01 0.00000E+00
 -1      1397 4.87125E+01 4.91843E+01 0.00000E+00
 -1      1398 5.02125E+01 4.91843E+01 0.00000E+00
 -1      1399 4.82250E+01 4.83687E+01 0.00000E+00
 -1      1400 5.17125E+01 4.91843E+01 0.00000E+00
 -1      1401 5.32125E+01 4.91843E+01 0.00000E+00
 -1      1402 5.12250E+01 4.83687E+01 0.00000E+00
 -1      1403 5.47125E+01 4.91843E+01 0.00000E+00
 -1      1404 5.62125E+01 4.91843E+01 0.00000E+00
 -1      1405 5.42250E+01 4.83687E+01 0.00000E+00
 -1      1406 5.77125E+01 4.91843E+01 0.00000E+00
 -1      1407 5.92125E+01 4.91843E+01 0.00000E+00
 -1      1408 5.72250E+01 4.83687E+01 0.00000E+00
 -1      1409 6.07125E+01 4.91843E+01 0.00000E+00
 -1      1410 6.22125E+01 4.91843E+01 0.00000E+00
 -1      1411 6.02250E+01 4.83687E+01 0.00000E+00
 -1      1412 6.37125E+01 4.91843E+01 0.00000E+00
 -1      1413 6.52125E+01 4.91843E+01 0.00000E+00
 -1      1414 6.32250E+01 4.83687E+01 0.00000E+00
 -1      1415 6.67875E+01 4.91843E+01 0.00000E+00
 -1      1416 6.83625E+01 4.91843E+01 0.00000E+00
 -1      1417 6.63000E+01 4.83687E+01 0.00000E+00
 -1      1418 6.98625E+01 4.91843E+01 0.00000E+00
 -1      1419 7.13625E+01 4.91843E+01 0.00000E+00
 -1      1420 6.93750E+01 4.83687E+01 0.00000E+00
 -1      1421 7.28625E+01 4.91843E+01 0.00000E+00
 -1      1422 7.43625E+01 4.91843E+01 0.00000E+00
 -1      1423 7.23750E+01 4.83687E+01 0.00000E+00
 -1      1424 7.58625E+01 4.91843E+01 0.00000E+00
 -1      1425 7.73625E+01 4.91843E+01 0.00000E+00
 -1      1426 7.53750E+01 4.83687E+01 0.00000E+00
 -1      1427 7.88625E+01 4.91843E+01 0.00000E+00
 -1      1428 8.03625E+01 4.91843E+01 0.00000E+00
 -1      1429 7.83750E+01 4.83687E+01 0.00000E+00
 -1      1430 8.18625E+01 4.91843E+01 0.00000E+00
 -1      1431 8.33625E+01 4.91843E+01 0.00000E+00
 -1      1432 8.13750E+01 4.83687E+01 0.00000E+00
 -1      1433 8.48625E+01 4.91843E+01 0.00000E+00
 -1      1434 8.63625E+01 4.91843E+01 0.00000E+00
 -1      1435 8.43750E+01 4.83687E+01 0.00000E+00
 -1      1436 8.78625E+01 4.91843E+01 0.00000E+00
 -1      1437 8.93625E+01 4.91843E+01 0.00000E+00
 -1      1438 8.73750E+01 4.83687E+01 0.00000E+00
 -1      1439 9.08625E+01 4.91843E+01 0.00000E+00
 -1      1440 9.23625E+01 4.91843E+01 0.00000E+00
 -1      1441 9.03750E+01 4.83687E+01 0.00000E+00
 -1      1442 9.38625E+01 4.91843E+01 0.00000E+00
 -1      1443 9.53625E+01 4.91843E+01 0.00000E+00
 -1      1444 9.33750E+01 4.83687E+01 0.00000E+00
 -1      1445 9.68625E+01 4.91843E+01 0.00000E+00
 -1      1446 9.83625E+01 4.91843E+01 0.00000E+00
 -1      1447 9.63750E+01 4.83687E+01 0.00000E+00
 -1      1448 9.98625E+01 4.91843E+01 0.00000E+00
 -1      1449 1.01363E+02 4.91843E+01 0.00000E+00
 -1      1450 9.93750E+01 4.83687E+01 0.00000E+00
 -1      1451 1.02863E+02 4.91843E+01 0.00000E+00
 -1      1452 1.04363E+02 4.91843E+01 0.00000E+00
 -1      1453 1.02375E+02 4.83687E+01 0.00000E+00
 -1      1454 1.05863E+02 4.91843E+01 0.00000E+00
 -1      1455 1.07363E+02 4.91843E+01 0.00000E+00
 -1      1456 1.05375E+02 4.83687E+01 0.00000E+00
 -1      1457 1.08938E+02 4.91843E+01 0.00000E+00
 -1      1458 1.10512E+02 4.91843E+01 0.00000E+00
 -1      1459 1.08450E+02 4.83687E+01 0.00000E+00
 -1      1460 1.12012E+02 4.91843E+01 0.00000E+00
 -1      1461 1.13512E+02 4.91843E+01 0.00000E+00
 -1      1462 1.11525E+02 4.83687E+01 0.00000E+00
 -1      1463 1.15012E+02 4.91843E+01 0.00000E+00
 -1      1464 1.16512E+02 4.91843E+01 0.00000E+00
 -1      1465 1.14525E+02 4.83687E+01 0.00000E+00
 -1      1466 1.18012E+02 4.91843E+01 0.00000E+00
 -1      1467 1.19512E+02 4.91843E+01 0.00000E+00
 -1      1468 1.17525E+02 4.83687E+01 0.00000E+00
 -1      1469 1.21012E+02 4.91843E+01 0.00000E+00
 -1      1470 1.22512E+02 4.91843E+01 0.00000E+00
 -1      1471 1.20525E+02 4.83687E+01 0.00000E+00
 -1      1472 1.24012E+02 4.91843E+01 0.00000E+00
 -1      1473 1.25512E+02 4.91843E+01 0.00000E+00
 -1      1474 1.23525E+02 4.83687E+01 0.00000E+00
 -1      1475 1.27012E+02 4.91843E+01 0.00000E+00
 -1      1476 1.28512E+02 4.91843E+01 0.00000E+00
 -1      1477 1.26525E+02 4.83687E+01 0.00000E+00
 -1      1478 1.30012E+02 4.91843E+01 0.00000E+00
 -1      1479 1.31512E+02 4.91843E+01 0.00000E+00
 -1      1480 1.29525E+02 4.83687E+01 0.00000E+00
 -1      1481 1.33012E+02 4.91843E+01 0.00000E+00
 -1      1482 1.34512E+02 4.91843E+01 0.00000E+00
 -1      1483 1.32525E+02 4.83687E+01 0.00000E+00
 -1      1484 1.36012E+02 4.91843E+01 0.00000E+00
 -1      1485 1.37512E+02 4.91843E+01 0.00000E+00
 -1      1486 1.35525E+02 4.83687E+01 0.00000E+00
 -1      1487 1.39012E+02 4.91843E+01 0.00000E+00
 -1      1488 1.40512E+02 4.91843E+01 0.00000E+00
 -1      1489 1.38525E+02 4.83687E+01 0.00000E+00
 -1      1490 1.42012E+02 4.91843E+01 0.00000E+00
 -1      1491 1.43512E+02 4.91843E+01 0.00000E+00
 -1      1492 1.41525E+02 4.83687E+01 0.00000E+00
 -1      1493 1.45012E+02 4.91843E+01 0.00000E+00
 -1      1494 1.46512E+02 4.91843E+01 0.00000E+00
 -1      1495 1.44525E+02 4.83687E+01 0.00000E+00
 -1      1496 1.47506E+02 4.88672E+01 0.00000E+00
 -1      1497 1.49006E+02 4.88672E+01 0.00000E+00
 -1      1498 1.49006E+02 4.74172E+01 0.00000E+00
 -1      1499 1.47019E+02 4.80515E+01 0.00000E+00
 -1      1500 6.01200E+00 1.09375E+00 0.00000E+00
 -1      1501 4.51200E+00 1.09375E+00 0.00000E+00
 -1      1502 4.37400E+00 2.18750E+00 0.00000E+00
 -1      1503 9.01200E+00 1.09375E+00 0.00000E+00
 -1      1504 7.51200E+00 1.09375E+00 0.00000E+00
 -1      1505 7.37400E+00 2.18750E+00 0.00000E+00
 -1      1506 1.20120E+01 1.09375E+00 0.00000E+00
 -1      1507 1.05120E+01 1.09375E+00 0.00000E+00
 -1      1508 1.03740E+01 2.18750E+00 0.00000E+00
 -1      1509 1.50120E+01 1.09375E+00 0.00000E+00
 -1      1510 1.35120E+01 1.09375E+00 0.00000E+00
 -1      1511 1.33740E+01 2.18750E+00 0.00000E+00
 -1      1512 1.80120E+01 1.09375E+00 0.00000E+00
 -1      1513 1.65120E+01 1.09375E+00 0.00000E+00
 -1      1514 1.63740E+01 2.18750E+00 0.00000E+00
 -1      1515 2.10120E+01 1.09375E+00 0.00000E+00
 -1      1516 1.95120E+01 1.09375E+00 0.00000E+00
 -1      1517 1.93740E+01 2.18750E+00 0.00000E+00
 -1      1518 2.40120E+01 1.09375E+00 0.00000E+00
 -1      1519 2.25120E+01 1.09375E+00 0.00000E+00
 -1      1520 2.23740E+01 2.18750E+00 0.00000E+00
 -1      1521 2.70120E+01 1.09375E+00 0.00000E+00
 -1      1522 2.55120E+01 1.09375E+00 0.00000E+00
 -1      1523 2.53740E+01 2.18750E+00 0.00000E+00
 -1      1524 3.00120E+01 1.09375E+00 0.00000E+00
 -1      1525 2.85120E+01 1.09375E+00 0.00000E+00
 -1      1526 2.83740E+01 2.18750E+00 0.00000E+00
 -1      1527 3.30120E+01 1.09375E+00 0.00000E+00
 -1      1528 3.15120E+01 1.09375E+00 0.00000E+00
 -1      1529 3.13740E+01 2.18750E+00 0.00000E+00
 -1      1530 3.60120E+01 1.09375E+00 0.00000E+00
 -1      1531 3.45120E+01 1.09375E+00 0.00000E+00
 -1      1532 3.43740E+01 2.18750E+00 0.00000E+00
 -1      1533 3.90120E+01 1.09375E+00 0.00000E+00
 -1      1534 3.75120E+01 1.09375E+00 0.00000E+00
 -1      1535 3.73740E+01 2.18750E+00 0.00000E+00
 -1      1536 4.20120E+01 1.09375E+00 0.00000E+00
 -1      1537 4.05120E+01 1.09375E+00 0.00000E+00
 -1      1538 4.03740E+01 2.18750E+00 0.00000E+00
 -1      1539 4.50120E+01 1.09375E+00 0.00000E+00
 -1      1540 4.35120E+01 1.09375E+00 0.00000E+00
 -1      1541 4.33740E+01 2.18750E+00 0.00000E+00
 -1      1542 4.80120E+01 1.09375E+00 0.00000E+00
 -1      1543 4.65120E+01 1.09375E+00 0.00000E+00
 -1      1544 4.63740E+01 2.18750E+00 0.00000E+00
 -1      1545 5.10120E+01 1.09375E+00 0.00000E+00
 -1      1546 4.95120E+01 1.09375E+00 0.00000E+00
 -1      1547 4.93740E+01 2.18750E+00 0.00000E+00
 -1      1548 5.40120E+01 1.09375E+00 0.00000E+00
 -1      1549 5.25120E+01 1.09375E+00 0.00000E+00
 -1      1550 5.23740E+01 2.18750E+00 0.00000E+00
 -1      1551 5.70120E+01 1.09375E+00 0.00000E+00
 -1      1552 5.55120E+01 1.09375E+00 0.00000E+00
 -1      1553 5.53740E+01 2.18750E+00 0.00000E+00
 -1      1554 6.00120E+01 1.09375E+00 0.00000E+00
 -1      1555 5.85120E+01 1.09375E+00 0.00000E+00
 -1      1556 5.83740E+01 2.18750E+00 0.00000E+00
 -1      1557 6.30120E+01 1.09375E+00 0.00000E+00
 -1      1558 6.15120E+01 1.09375E+00 0.00000E+00
 -1      1559 6.13740E+01 2.18750E+00 0.00000E+00
 -1      1560 6.60120E+01 1.09375E+00 0.00000E+00
 -1      1561 6.45120E+01 1.09375E+00 0.00000E+00
 -1      1562 6.43740E+01 2.18750E+00 0.00000E+00
 -1      1563 6.90120E+01 1.09375E+00 0.00000E+00
 -1      1564 6.75120E+01 1.09375E+00 0.00000E+00
 -1      1565 6.73740E+01 2.18750E+00 0.00000E+00
 -1      1566 7.20120E+01 1.09375E+00 0.00000E+00
 -1      1567 7.05120E+01 1.09375E+00 0.00000E+00
 -1      1568 7.03740E+01 2.18750E+00 0.00000E+00
 -1      1569 7.50120E+01 1.09375E+00 0.00000E+00
 -1      1570 7.35120E+01 1.09375E+00 0.00000E+00
 -1      1571 7.33740E+01 2.18750E+00 0.00000E+00
 -1      1572 7.80120E+01 1.09375E+00 0.00000E+00
 -1      1573 7.65120E+01 1.09375E+00 0.00000E+00
 -1      1574 7.63740E+01 2.18750E+00 0.00000E+00
 -1      1575 8.10120E+01 1.09375E+00 0.00000E+00
 -1      1576 7.95120E+01 1.09375E+00 0.00000E+00
 -1      1577 7.93740E+01 2.18750E+00 0.00000E+00
 -1      1578 8.40120E+01 1.09375E+00 0.00000E+00
 -1      1579 8.25120E+01 1.09375E+00 0.00000E+00
 -1      1580 8.23740E+01 2.18750E+00 0.00000E+00
 -1      1581 8.70120E+01 1.09375E+00 0.00000E+00
 -1      1582 8.55120E+01 1.09375E+00 0.00000E+00
 -1      1583 8.53740E+01 2.18750E+00 0.00000E+00
 -1      1584 9.00120E+01 1.09375E+00 0.00000E+00
 -1      1585 8.85120E+01 1.09375E+00 0.00000E+00
 -1      1586 8.83740E+01 2.18750E+00 0.00000E+00
 -1      1587 9.30120E+01 1.09375E+00 0.00000E+00
 -1      1588 9.15120E+01 1.09375E+00 0.00000E+00
 -1      1589 9.13740E+01 2.18750E+00 0.00000E+00
 -1      1590 9.60120E+01 1.09375E+00 0.00000E+00
 -1      1591 9.45120E+01 1.09375E+00 0.00000E+00
 -1      1592 9.43740E+01 2.18750E+00 0.00000E+00
 -1      1593 9.90120E+01 1.09375E+00 0.00000E+00
 -1      1594 9.75120E+01 1.09375E+00 0.00000E+00
 -1      1595 9.73740E+01 2.18750E+00 0.00000E+00
 -1      1596 1.02012E+02 1.09375E+00 0.00000E+00
 -1      1597 1.00512E+02 1.09375E+00 0.00000E+00
 -1      1598 1.00374E+02 2.18750E+00 0.00000E+00
 -1      1599 1.05012E+02 1.09375E+00 0.00000E+00
 -1      1600 1.03512E+02 1.09375E+00 0.00000E+00
 -1      1601 1.03374E+02 2.18750E+00 0.00000E+00
 -1      1602 1.08012E+02 1.09375E+00 0.00000E+00
 -1      1603 1.06512E+02 1.09375E+00 0.00000E+00
 -1      1604 1.06374E+02 2.18750E+00 0.00000E+00
 -1      1605 1.11012E+02 1.09375E+00 0.00000E+00
 -1      1606 1.09512E+02 1.09375E+00 0.00000E+00
 -1      1607 1.09374E+02 2.18750E+00 0.00000E+00
 -1      1608 1.14012E+02 1.09375E+00 0.00000E+00
 -1      1609 1.12512E+02 1.09375E+00 0.00000E+00
 -1      1610 1.12374E+02 2.18750E+00 0.00000E+00
 -1      1611 1.17012E+02 1.09375E+00 0.00000E+00
 -1      1612 1.15512E+02 1.09375E+00 0.00000E+00
 -1      1613 1.15374E+02 2.18750E+00 0.00000E+00
 -1      1614 1.20012E+02 1.09375E+00 0.00000E+00
 -1      1615 1.18512E+02 1.09375E+00 0.00000E+00
 -1      1616 1.18374E+02 2.18750E+00 0.00000E+00
 -1      1617 1.23012E+02 1.09375E+00 0.00000E+00
 -1      1618 1.21512E+02 1.09375E+00 0.00000E+00
 -1      1619 1.21374E+02 2.18750E+00 0.00000E+00
 -1      1620 1.26012E+02 1.09375E+00 0.00000E+00
 -1      1621 1.24512E+02 1.09375E+00 0.00000E+00
 -1      1622 1.24374E+02 2.18750E+00 0.00000E+00
 -1      1623 1.29012E+02 1.09375E+00 0.00000E+00
 -1      1624 1.27512E+02 1.09375E+00 0.00000E+00
 -1      1625 1.27374E+02 2.18750E+00 0.00000E+00
 -1      1626 1.32012E+02 1.09375E+00 0.00000E+00
 -1      1627 1.30512E+02 1.09375E+00 0.00000E+00
 -1      1628 1.30374E+02 2.18750E+00 0.00000E+00
 -1      1629 1.35012E+02 1.09375E+00 0.00000E+00
 -1      1630 1.33512E+02 1.09375E+00 0.00000E+00
 -1      1631 1.33374E+02 2.18750E+00 0.00000E+00
 -1      1632 1.38012E+02 1.09375E+00 0.00000E+00
 -1      1633 1.36512E+02 1.09375E+00 0.00000E+00
 -1      1634 1.36374E+02 2.18750E+00 0.00000E+00
 -1      1635 1.41012E+02 1.09375E+00 0.00000E+00
 -1      1636 1.39512E+02 1.09375E+00 0.00000E+00
 -1      1637 1.39374E+02 2.18750E+00 0.00000E+00
 -1      1638 1.44012E+02 1.09375E+00 0.00000E+00
 -1      1639 1.42512E+02 1.09375E+00 0.00000E+00
 -1      1640 1.42374E+02 2.18750E+00 0.00000E+00
 -1      1641 1.47012E+02 1.09375E+00 0.00000E+00
 -1      1642 1.45512E+02 1.09375E+00 0.00000E+00
 -1      1643 1.45374E+02 2.18750E+00 0.00000E+00
 -1      1644 1.48575E+02 1.47500E+00 0.00000E+00
 -1      1645 1.48701E+02 5.16250E+00 0.00000E+00
 -1      1646 1.48701E+02 3.68750E+00 0.00000E+00
 -1      1647 1.48701E+02 8.11250E+00 0.00000E+00
 -1      1648 1.48701E+02 6.63750E+00 0.00000E+00
 -1      1649 1.47402E+02 5.90000E+00 0.00000E+00
 -1      1650 1.48701E+02 1.10625E+01 0.00000E+00
 -1      1651 1.48701E+02 9.58750E+00 0.00000E+00
 -1      1652 1.47402E+02 8.85000E+00 0.00000E+00
 -1      1653 1.48701E+02 1.40125E+01 0.00000E+00
 -1      1654 1.48701E+02 1.25375E+01 0.00000E+00
 -1      1655 1.47402E+02 1.18000E+01 0.00000E+00
 -1      1656 1.48701E+02 1.69125E+01 0.00000E+00
 -1      1657 1.48701E+02 1.54625E+01 0.00000E+00
 -1      1658 1.47402E+02 1.47250E+01 0.00000E+00
 -1      1659 1.48701E+02 1.98625E+01 0.00000E+00
 -1      1660 1.48701E+02 1.83875E+01 0.00000E+00
 -1      1661 1.47402E+02 1.76500E+01 0.00000E+00
 -1      1662 1.48701E+02 2.28125E+01 0.00000E+00
 -1      1663 1.48701E+02 2.13375E+01 0.00000E+00
 -1      1664 1.47402E+02 2.06000E+01 0.00000E+00
 -1      1665 1.48701E+02 2.57625E+01 0.00000E+00
 -1      1666 1.48701E+02 2.42875E+01 0.00000E+00
 -1      1667 1.47402E+02 2.35500E+01 0.00000E+00
 -1      1668 1.48701E+02 2.87125E+01 0.00000E+00
 -1      1669 1.48701E+02 2.72375E+01 0.00000E+00
 -1      1670 1.47402E+02 2.65000E+01 0.00000E+00
 -1      1671 1.48701E+02 3.16625E+01 0.00000E+00
 -1      1672 1.48701E+02 3.01875E+01 0.00000E+00
 -1      1673 1.47402E+02 2.94500E+01 0.00000E+00
 -1      1674 1.48701E+02 3.45625E+01 0.00000E+00
 -1      1675 1.48701E+02 3.31125E+01 0.00000E+00
 -1      1676 1.47402E+02 3.23750E+01 0.00000E+00
 -1      1677 1.48701E+02 3.75125E+01 0.00000E+00
 -1      1678 1.48701E+02 3.60375E+01 0.00000E+00
 -1      1679 1.47402E+02 3.53000E+01 0.00000E+00
 -1      1680 1.48701E+02 4.04625E+01 0.00000E+00
 -1      1681 1.48701E+02 3.89875E+01 0.00000E+00
 -1      1682 1.47402E+02 3.82500E+01 0.00000E+00
 -1      1683 1.48701E+02 4.34125E+01 0.00000E+00
 -1      1684 1.48701E+02 4.19375E+01 0.00000E+00
 -1      1685 1.47402E+02 4.12000E+01 0.00000E+00
 -1      1686 1.48854E+02 4.61523E+01 0.00000E+00
 -1      1687 1.48854E+02 4.46773E+01 0.00000E+00
 -1      1688 1.47555E+02 4.39398E+01 0.00000E+00
 -1      1689 1.47860E+02 4.64695E+01 0.00000E+00
 -1      1690 2.99023E+01 3.80418E+01 0.00000E+00
 -1      1691 2.99815E+01 3.87822E+01 0.00000E+00
 -1      1692 2.95012E+01 3.65233E+01 0.00000E+00
 -1      1693 2.97245E+01 3.72063E+01 0.00000E+00
 -1      1694 2.88351E+01 3.50371E+01 0.00000E+00
 -1      1695 2.92180E+01 3.56942E+01 0.00000E+00
 -1      1696 2.77746E+01 3.38560E+01 0.00000E+00
 -1      1697 2.82553E+01 3.43838E+01 0.00000E+00
 -1      1698 2.65700E+01 3.27811E+01 0.00000E+00
 -1      1699 2.71821E+01 3.32201E+01 0.00000E+00
 -1      1700 2.50982E+01 3.20860E+01 0.00000E+00
 -1      1701 2.57788E+01 3.23803E+01 0.00000E+00
 -1      1702 2.35764E+01 3.17275E+01 0.00000E+00
 -1      1703 2.42730E+01 3.18689E+01 0.00000E+00
 -1      1704 2.19259E+01 3.15765E+01 0.00000E+00
 -1      1705 2.27075E+01 3.15661E+01 0.00000E+00
 -1      1706 2.03748E+01 3.19189E+01 0.00000E+00
 -1      1707 2.10637E+01 3.17602E+01 0.00000E+00
 -1      1708 1.88569E+01 3.24362E+01 0.00000E+00
 -1      1709 1.95361E+01 3.21208E+01 0.00000E+00
 -1      1710 1.75243E+01 3.33797E+01 0.00000E+00
 -1      1711 1.81190E+01 3.29288E+01 0.00000E+00
 -1      1712 1.63815E+01 3.45738E+01 0.00000E+00
 -1      1713 1.68773E+01 3.39921E+01 0.00000E+00
 -1      1714 1.55805E+01 3.59514E+01 0.00000E+00
 -1      1715 1.59221E+01 3.53159E+01 0.00000E+00
 -1      1716 1.50489E+01 3.74621E+01 0.00000E+00
 -1      1717 1.52574E+01 3.67453E+01 0.00000E+00
 -1      1718 1.48442E+01 3.90596E+01 0.00000E+00
 -1      1719 1.48961E+01 3.83182E+01 0.00000E+00
 -1      1720 1.49335E+01 4.06406E+01 0.00000E+00
 -1      1721 1.48320E+01 3.99224E+01 0.00000E+00
 -1      1722 1.54409E+01 4.21673E+01 0.00000E+00
 -1      1723 1.51848E+01 4.14674E+01 0.00000E+00
 -1      1724 1.62030E+01 4.35510E+01 0.00000E+00
 -1      1725 1.58177E+01 4.29380E+01 0.00000E+00
 -1      1726 1.72231E+01 4.47331E+01 0.00000E+00
 -1      1727 1.67229E+01 4.42151E+01 0.00000E+00
 -1      1728 1.84457E+01 4.56707E+01 0.00000E+00
 -1      1729 1.78604E+01 4.52715E+01 0.00000E+00
 -1      1730 1.98327E+01 4.63403E+01 0.00000E+00
 -1      1731 1.91752E+01 4.60660E+01 0.00000E+00
 -1      1732 2.12921E+01 4.67127E+01 0.00000E+00
 -1      1733 2.06158E+01 4.65794E+01 0.00000E+00
 -1      1734 2.28158E+01 4.66928E+01 0.00000E+00
 -1      1735 2.20539E+01 4.67027E+01 0.00000E+00
 -1      1736 2.15985E+01 4.72308E+01 0.00000E+00
 -1      1737 2.44429E+01 4.65199E+01 0.00000E+00
 -1      1738 2.37513E+01 4.66771E+01 0.00000E+00
 -1      1739 2.59333E+01 4.60236E+01 0.00000E+00
 -1      1740 2.52720E+01 4.63262E+01 0.00000E+00
 -1      1741 2.71579E+01 4.51332E+01 0.00000E+00
 -1      1742 2.66088E+01 4.55341E+01 0.00000E+00
 -1      1743 2.83521E+01 4.40577E+01 0.00000E+00
 -1      1744 2.78423E+01 4.46228E+01 0.00000E+00
 -1      1745 2.91873E+01 4.27169E+01 0.00000E+00
 -1      1746 2.88331E+01 4.33303E+01 0.00000E+00
 -1      1747 2.98416E+01 4.12705E+01 0.00000E+00
 -1      1748 2.96129E+01 4.19666E+01 0.00000E+00
 -1      1749 3.00234E+01 3.96549E+01 0.00000E+00
 -1      1750 2.99445E+01 4.03935E+01 0.00000E+00
 -1      1751 1.45402E+01 4.75808E+01 0.00000E+00
 -1      1752 1.52902E+01 4.88798E+01 0.00000E+00
 -1      1753 1.64152E+01 4.88798E+01 0.00000E+00
 -1      1754 1.69027E+01 4.80642E+01 0.00000E+00
 -1      1755 3.05865E+01 3.92202E+01 0.00000E+00
 -1      1756 2.90429E+01 3.43650E+01 0.00000E+00
 -1      1757 1.48437E+02 2.56875E+00 0.00000E+00
 -1      1758 1.47138E+02 3.30625E+00 0.00000E+00
 -1      1759 3.03669E+01 3.75120E+01 0.00000E+00
 -1      1760 2.99059E+01 3.58473E+01 0.00000E+00
 -1      1761 2.78707E+01 3.30758E+01 0.00000E+00
 -1      1762 2.64870E+01 3.20391E+01 0.00000E+00
 -1      1763 2.48705E+01 3.14212E+01 0.00000E+00
 -1      1764 2.31764E+01 3.10427E+01 0.00000E+00
 -1      1765 2.14454E+01 3.10651E+01 0.00000E+00
 -1      1766 1.97446E+01 3.14508E+01 0.00000E+00
 -1      1767 1.81680E+01 3.21453E+01 0.00000E+00
 -1      1768 1.67831E+01 3.32502E+01 0.00000E+00
 -1      1769 1.56767E+01 3.46046E+01 0.00000E+00
 -1      1770 1.48942E+01 3.61405E+01 0.00000E+00
 -1      1771 1.44182E+01 3.77905E+01 0.00000E+00
 -1      1772 1.42532E+01 3.95094E+01 0.00000E+00
 -1      1773 1.44923E+01 4.11989E+01 0.00000E+00
 -1      1774 1.51204E+01 4.27964E+01 0.00000E+00
 -1      1775 1.60170E+01 4.42311E+01 0.00000E+00
 -1      1776 1.71742E+01 4.54335E+01 0.00000E+00
 -1      1777 1.85410E+01 4.63673E+01 0.00000E+00
 -1      1778 2.00537E+01 4.70017E+01 0.00000E+00
 -1      1779 2.50607E+01 4.69959E+01 0.00000E+00
 -1      1780 2.65653E+01 4.63128E+01 0.00000E+00
 -1      1781 2.79251E+01 4.53129E+01 0.00000E+00
 -1      1782 2.90905E+01 4.40751E+01 0.00000E+00
 -1      1783 2.99970E+01 4.25974E+01 0.00000E+00
 -1      1784 3.05255E+01 4.09700E+01 0.00000E+00
 -1      1785 2.87400E+00 4.77875E+01 0.00000E+00
 -1      1786 2.32959E+01 4.72052E+01 0.00000E+00
 -1      1787 3.89700E+00 4.04125E+01 0.00000E+00
 -1      1788 3.89700E+00 4.18875E+01 0.00000E+00
 -1      1789 3.89700E+00 4.33625E+01 0.00000E+00
 -1      1790 3.89700E+00 4.48375E+01 0.00000E+00
 -1      1791 5.19600E+00 4.26250E+01 0.00000E+00
 -1      1792 3.89700E+00 3.45500E+01 0.00000E+00
 -1      1793 3.89700E+00 3.60000E+01 0.00000E+00
 -1      1794 3.89700E+00 3.16000E+01 0.00000E+00
 -1      1795 3.89700E+00 3.30750E+01 0.00000E+00
 -1      1796 5.19600E+00 3.38000E+01 0.00000E+00
 -1      1797 3.89700E+00 2.86500E+01 0.00000E+00
 -1      1798 3.89700E+00 3.01250E+01 0.00000E+00
 -1      1799 5.19600E+00 3.08500E+01 0.00000E+00
 -1      1800 3.89700E+00 2.57000E+01 0.00000E+00
 -1      1801 3.89700E+00 2.71750E+01 0.00000E+00
 -1      1802 5.19600E+00 2.79000E+01 0.00000E+00
 -1      1803 3.89700E+00 2.27500E+01 0.00000E+00
 -1      1804 3.89700E+00 2.42250E+01 0.00000E+00
 -1      1805 5.19600E+00 2.49500E+01 0.00000E+00
 -1      1806 3.89700E+00 1.98000E+01 0.00000E+00
 -1      1807 3.89700E+00 2.12750E+01 0.00000E+00
 -1      1808 5.19600E+00 2.20000E+01 0.00000E+00
 -1      1809 3.89700E+00 1.69000E+01 0.00000E+00
 -1      1810 3.89700E+00 1.83500E+01 0.00000E+00
 -1      1811 5.19600E+00 1.90750E+01 0.00000E+00
 -1      1812 3.89700E+00 1.39500E+01 0.00000E+00
 -1      1813 3.89700E+00 1.54250E+01 0.00000E+00
 -1      1814 5.19600E+00 1.61500E+01 0.00000E+00
 -1      1815 3.89700E+00 1.10000E+01 0.00000E+00
 -1      1816 3.89700E+00 1.24750E+01 0.00000E+00
 -1      1817 5.19600E+00 1.32000E+01 0.00000E+00
 -1      1818 3.89700E+00 8.05000E+00 0.00000E+00
 -1      1819 3.89700E+00 9.52500E+00 0.00000E+00
 -1      1820 5.19600E+00 1.02500E+01 0.00000E+00
 -1      1821 3.89700E+00 5.10000E+00 0.00000E+00
 -1      1822 3.89700E+00 6.57500E+00 0.00000E+00
 -1      1823 5.19600E+00 7.30000E+00 0.00000E+00
 -1      1824 4.20450E+00 3.09687E+00 0.00000E+00
 -1      1825 4.06650E+00 4.19063E+00 0.00000E+00
 -1      1826 5.36550E+00 4.91563E+00 0.00000E+00
 -1      1827 5.70450E+00 3.09687E+00 0.00000E+00
 -1      1828 3.62400E+00 4.64885E+01 0.00000E+00
 -1      1829 8.70450E+00 3.09687E+00 0.00000E+00
 -1      1830 7.20450E+00 3.09687E+00 0.00000E+00
 -1      1831 7.03500E+00 4.00625E+00 0.00000E+00
 -1      1832 1.67710E+01 4.68658E+01 0.00000E+00
 -1      1833 1.79432E+01 4.71703E+01 0.00000E+00
 -1      1834 8.40000E+00 4.61030E+01 0.00000E+00
 -1      1835 9.90000E+00 4.61030E+01 0.00000E+00
 -1      1836 1.12500E+01 4.61030E+01 0.00000E+00
 -1      1837 1.26000E+01 4.61030E+01 0.00000E+00
 -1      1838 1.05000E+01 4.48040E+01 0.00000E+00
 -1      1839 2.05059E+01 4.78047E+01 0.00000E+00
 -1      1840 2.15559E+01 4.78047E+01 0.00000E+00
 -1      1841 2.32533E+01 4.77791E+01 0.00000E+00
 -1      1842 2.43783E+01 4.77791E+01 0.00000E+00
 -1      1843 2.98500E+01 4.73436E+01 0.00000E+00
 -1      1844 3.12000E+01 4.73436E+01 0.00000E+00
 -1      1845 3.26250E+01 4.73436E+01 0.00000E+00
 -1      1846 3.40500E+01 4.73436E+01 0.00000E+00
 -1      1847 3.19500E+01 4.63184E+01 0.00000E+00
 -1      1848 3.55500E+01 4.73436E+01 0.00000E+00
 -1      1849 3.70500E+01 4.73436E+01 0.00000E+00
 -1      1850 3.48750E+01 4.63184E+01 0.00000E+00
 -1      1851 3.85500E+01 4.73436E+01 0.00000E+00
 -1      1852 4.00500E+01 4.73436E+01 0.00000E+00
 -1      1853 3.78750E+01 4.63184E+01 0.00000E+00
 -1      1854 4.15500E+01 4.73436E+01 0.00000E+00
 -1      1855 4.30500E+01 4.73436E+01 0.00000E+00
 -1      1856 4.08750E+01 4.63184E+01 0.00000E+00
 -1      1857 4.45500E+01 4.73436E+01 0.00000E+00
 -1      1858 4.60500E+01 4.73436E+01 0.00000E+00
 -1      1859 4.38750E+01 4.63184E+01 0.00000E+00
 -1      1860 4.75500E+01 4.73436E+01 0.00000E+00
 -1      1861 4.90500E+01 4.73436E+01 0.00000E+00
 -1      1862 4.68750E+01 4.63184E+01 0.00000E+00
 -1      1863 5.05500E+01 4.73436E+01 0.00000E+00
 -1      1864 5.20500E+01 4.73436E+01 0.00000E+00
 -1      1865 4.98750E+01 4.63184E+01 0.00000E+00
 -1      1866 5.35500E+01 4.73436E+01 0.00000E+00
 -1      1867 5.50500E+01 4.73436E+01 0.00000E+00
 -1      1868 5.28750E+01 4.63184E+01 0.00000E+00
 -1      1869 5.65500E+01 4.73436E+01 0.00000E+00
 -1      1870 5.80500E+01 4.73436E+01 0.00000E+00
 -1      1871 5.58750E+01 4.63184E+01 0.00000E+00
 -1      1872 5.95500E+01 4.73436E+01 0.00000E+00
 -1      1873 6.10500E+01 4.73436E+01 0.00000E+00
 -1      1874 5.88750E+01 4.63184E+01 0.00000E+00
 -1      1875 6.25500E+01 4.73436E+01 0.00000E+00
 -1      1876 6.40500E+01 4.73436E+01 0.00000E+00
 -1      1877 6.18750E+01 4.63184E+01 0.00000E+00
 -1      1878 6.56250E+01 4.73436E+01 0.00000E+00
 -1      1879 6.72000E+01 4.73436E+01 0.00000E+00
 -1      1880 6.49500E+01 4.63184E+01 0.00000E+00
 -1      1881 6.87000E+01 4.73436E+01 0.00000E+00
 -1      1882 7.02000E+01 4.73436E+01 0.00000E+00
 -1      1883 6.80250E+01 4.63184E+01 0.00000E+00
 -1      1884 7.17000E+01 4.73436E+01 0.00000E+00
 -1      1885 7.32000E+01 4.73436E+01 0.00000E+00
 -1      1886 7.10250E+01 4.63184E+01 0.00000E+00
 -1      1887 7.47000E+01 4.73436E+01 0.00000E+00
 -1      1888 7.62000E+01 4.73436E+01 0.00000E+00
 -1      1889 7.40250E+01 4.63184E+01 0.00000E+00
 -1      1890 7.77000E+01 4.73436E+01 0.00000E+00
 -1      1891 7.92000E+01 4.73436E+01 0.00000E+00
 -1      1892 7.70250E+01 4.63184E+01 0.00000E+00
 -1      1893 8.07000E+01 4.73436E+01 0.00000E+00
 -1      1894 8.22000E+01 4.73436E+01 0.00000E+00
 -1      1895 8.00250E+01 4.63184E+01 0.00000E+00
 -1      1896 8.37000E+01 4.73436E+01 0.00000E+00
 -1      1897 8.52000E+01 4.73436E+01 0.00000E+00
 -1      1898 8.30250E+01 4.63184E+01 0.00000E+00
 -1      1899 8.67000E+01 4.73436E+01 0.00000E+00
 -1      1900 8.82000E+01 4.73436E+01 0.00000E+00
 -1      1901 8.60250E+01 4.63184E+01 0.00000E+00
 -1      1902 8.97000E+01 4.73436E+01 0.00000E+00
 -1      1903 9.12000E+01 4.73436E+01 0.00000E+00
 -1      1904 8.90250E+01 4.63184E+01 0.00000E+00
 -1      1905 9.27000E+01 4.73436E+01 0.00000E+00
 -1      1906 9.42000E+01 4.73436E+01 0.00000E+00
 -1      1907 9.20250E+01 4.63184E+01 0.00000E+00
 -1      1908 9.57000E+01 4.73436E+01 0.00000E+00
 -1      1909 9.72000E+01 4.73436E+01 0.00000E+00
 -1      1910 9.50250E+01 4.63184E+01 0.00000E+00
 -1      1911 9.87000E+01 4.73436E+01 0.00000E+00
 -1      1912 1.00200E+02 4.73436E+01 0.00000E+00
 -1      1913 9.80250E+01 4.63184E+01 0.00000E+00
 -1      1914 1.01700E+02 4.73436E+01 0.00000E+00
 -1      1915 1.03200E+02 4.73436E+01 0.00000E+00
 -1      1916 1.01025E+02 4.63184E+01 0.00000E+00
 -1      1917 1.04700E+02 4.73436E+01 0.00000E+00
 -1      1918 1.06200E+02 4.73436E+01 0.00000E+00
 -1      1919 1.04025E+02 4.63184E+01 0.00000E+00
 -1      1920 1.07775E+02 4.73436E+01 0.00000E+00
 -1      1921 1.09350E+02 4.73436E+01 0.00000E+00
 -1      1922 1.07100E+02 4.63184E+01 0.00000E+00
 -1      1923 1.10850E+02 4.73436E+01 0.00000E+00
 -1      1924 1.12350E+02 4.73436E+01 0.00000E+00
 -1      1925 1.10175E+02 4.63184E+01 0.00000E+00
 -1      1926 1.13850E+02 4.73436E+01 0.00000E+00
 -1      1927 1.15350E+02 4.73436E+01 0.00000E+00
 -1      1928 1.13175E+02 4.63184E+01 0.00000E+00
 -1      1929 1.16850E+02 4.73436E+01 0.00000E+00
 -1      1930 1.18350E+02 4.73436E+01 0.00000E+00
 -1      1931 1.16175E+02 4.63184E+01 0.00000E+00
 -1      1932 1.19850E+02 4.73436E+01 0.00000E+00
 -1      1933 1.21350E+02 4.73436E+01 0.00000E+00
 -1      1934 1.19175E+02 4.63184E+01 0.00000E+00
 -1      1935 1.22850E+02 4.73436E+01 0.00000E+00
 -1      1936 1.24350E+02 4.73436E+01 0.00000E+00
 -1      1937 1.22175E+02 4.63184E+01 0.00000E+00
 -1      1938 1.25850E+02 4.73436E+01 0.00000E+00
 -1      1939 1.27350E+02 4.73436E+01 0.00000E+00
 -1      1940 1.25175E+02 4.63184E+01 0.00000E+00
 -1      1941 1.28850E+02 4.73436E+01 0.00000E+00
 -1      1942 1.30350E+02 4.73436E+01 0.00000E+00
 -1      1943 1.28175E+02 4.63184E+01 0.00000E+00
 -1      1944 1.31850E+02 4.73436E+01 0.00000E+00
 -1      1945 1.33350E+02 4.73436E+01 0.00000E+00
 -1      1946 1.31175E+02 4.63184E+01 0.00000E+00
 -1      1947 1.34850E+02 4.73436E+01 0.00000E+00
 -1      1948 1.36350E+02 4.73436E+01 0.00000E+00
 -1      1949 1.34175E+02 4.63184E+01 0.00000E+00
 -1      1950 1.37850E+02 4.73436E+01 0.00000E+00
 -1      1951 1.39350E+02 4.73436E+01 0.00000E+00
 -1      1952 1.37175E+02 4.63184E+01 0.00000E+00
 -1      1953 1.40850E+02 4.73436E+01 0.00000E+00
 -1      1954 1.42350E+02 4.73436E+01 0.00000E+00
 -1      1955 1.40175E+02 4.63184E+01 0.00000E+00
 -1      1956 1.43850E+02 4.73436E+01 0.00000E+00
 -1      1957 1.45350E+02 4.73436E+01 0.00000E+00
 -1      1958 1.43175E+02 4.63184E+01 0.00000E+00
 -1      1959 1.46108E+02 4.70651E+01 0.00000E+00
 -1      1960 1.47102E+02 4.67479E+01 0.00000E+00
 -1      1961 1.46949E+02 4.54831E+01 0.00000E+00
 -1      1962 1.45433E+02 4.60400E+01 0.00000E+00
 -1      1963 4.92300E+00 4.57510E+01 0.00000E+00
 -1      1964 1.41240E+01 3.48650E+00 0.00000E+00
 -1      1965 1.26240E+01 3.48650E+00 0.00000E+00
 -1      1966 1.71240E+01 3.48650E+00 0.00000E+00
 -1      1967 1.56240E+01 3.48650E+00 0.00000E+00
 -1      1968 1.48740E+01 4.78550E+00 0.00000E+00
 -1      1969 2.01240E+01 3.48650E+00 0.00000E+00
 -1      1970 1.86240E+01 3.48650E+00 0.00000E+00
 -1      1971 1.78740E+01 4.78550E+00 0.00000E+00
 -1      1972 2.31240E+01 3.48650E+00 0.00000E+00
 -1      1973 2.16240E+01 3.48650E+00 0.00000E+00
 -1      1974 2.08740E+01 4.78550E+00 0.00000E+00
 -1      1975 2.61240E+01 3.48650E+00 0.00000E+00
 -1      1976 2.46240E+01 3.48650E+00 0.00000E+00
 -1      1977 2.38740E+01 4.78550E+00 0.00000E+00
 -1      1978 2.91240E+01 3.48650E+00 0.00000E+00
 -1      1979 2.76240E+01 3.48650E+00 0.00000E+00
 -1      1980 2.68740E+01 4.78550E+00 0.00000E+00
 -1      1981 3.21240E+01 3.48650E+00 0.00000E+00
 -1      1982 3.06240E+01 3.48650E+00 0.00000E+00
 -1      1983 2.98740E+01 4.78550E+00 0.00000E+00
 -1      1984 3.51240E+01 3.48650E+00 0.00000E+00
 -1      1985 3.36240E+01 3.48650E+00 0.00000E+00
 -1      1986 3.28740E+01 4.78550E+00 0.00000E+00
 -1      1987 3.81240E+01 3.48650E+00 0.00000E+00
 -1      1988 3.66240E+01 3.48650E+00 0.00000E+00
 -1      1989 3.58740E+01 4.78550E+00 0.00000E+00
 -1      1990 4.11240E+01 3.48650E+00 0.00000E+00
 -1      1991 3.96240E+01 3.48650E+00 0.00000E+00
 -1      1992 3.88740E+01 4.78550E+00 0.00000E+00
 -1      1993 4.41240E+01 3.48650E+00 0.00000E+00
 -1      1994 4.26240E+01 3.48650E+00 0.00000E+00
 -1      1995 4.18740E+01 4.78550E+00 0.00000E+00
 -1      1996 4.71240E+01 3.48650E+00 0.00000E+00
 -1      1997 4.56240E+01 3.48650E+00 0.00000E+00
 -1      1998 4.48740E+01 4.78550E+00 0.00000E+00
 -1      1999 5.01240E+01 3.48650E+00 0.00000E+00
 -1      2000 4.86240E+01 3.48650E+00 0.00000E+00
 -1      2001 4.78740E+01 4.78550E+00 0.00000E+00
 -1      2002 5.31240E+01 3.48650E+00 0.00000E+00
 -1      2003 5.16240E+01 3.48650E+00 0.00000E+00
 -1      2004 5.08740E+01 4.78550E+00 0.00000E+00
 -1      2005 5.61240E+01 3.48650E+00 0.00000E+00
 -1      2006 5.46240E+01 3.48650E+00 0.00000E+00
 -1      2007 5.38740E+01 4.78550E+00 0.00000E+00
 -1      2008 5.91240E+01 3.48650E+00 0.00000E+00
 -1      2009 5.76240E+01 3.48650E+00 0.00000E+00
 -1      2010 5.68740E+01 4.78550E+00 0.00000E+00
 -1      2011 6.21240E+01 3.48650E+00 0.00000E+00
 -1      2012 6.06240E+01 3.48650E+00 0.00000E+00
 -1      2013 5.98740E+01 4.78550E+00 0.00000E+00
 -1      2014 6.51240E+01 3.48650E+00 0.00000E+00
 -1      2015 6.36240E+01 3.48650E+00 0.00000E+00
 -1      2016 6.28740E+01 4.78550E+00 0.00000E+00
 -1      2017 6.81240E+01 3.48650E+00 0.00000E+00
 -1      2018 6.66240E+01 3.48650E+00 0.00000E+00
 -1      2019 6.58740E+01 4.78550E+00 0.00000E+00
 -1      2020 7.11240E+01 3.48650E+00 0.00000E+00
 -1      2021 6.96240E+01 3.48650E+00 0.00000E+00
 -1      2022 6.88740E+01 4.78550E+00 0.00000E+00
 -1      2023 7.41240E+01 3.48650E+00 0.00000E+00
 -1      2024 7.26240E+01 3.48650E+00 0.00000E+00
 -1      2025 7.18740E+01 4.78550E+00 0.00000E+00
 -1      2026 7.71240E+01 3.48650E+00 0.00000E+00
 -1      2027 7.56240E+01 3.48650E+00 0.00000E+00
 -1      2028 7.48740E+01 4.78550E+00 0.00000E+00
 -1      2029 8.01240E+01 3.48650E+00 0.00000E+00
 -1      2030 7.86240E+01 3.48650E+00 0.00000E+00
 -1      2031 7.78740E+01 4.78550E+00 0.00000E+00
 -1      2032 8.31240E+01 3.48650E+00 0.00000E+00
 -1      2033 8.16240E+01 3.48650E+00 0.00000E+00
 -1      2034 8.08740E+01 4.78550E+00 0.00000E+00
 -1      2035 8.61240E+01 3.48650E+00 0.00000E+00
 -1      2036 8.46240E+01 3.48650E+00 0.00000E+00
 -1      2037 8.38740E+01 4.78550E+00 0.00000E+00
 -1      2038 8.91240E+01 3.48650E+00 0.00000E+00
 -1      2039 8.76240E+01 3.48650E+00 0.00000E+00
 -1      2040 8.68740E+01 4.78550E+00 0.00000E+00
 -1      2041 9.21240E+01 3.48650E+00 0.00000E+00
 -1      2042 9.06240E+01 3.48650E+00 0.00000E+00
 -1      2043 8.98740E+01 4.78550E+00 0.00000E+00
 -1      2044 9.51240E+01 3.48650E+00 0.00000E+00
 -1      2045 9.36240E+01 3.48650E+00 0.00000E+00
 -1      2046 9.28740E+01 4.78550E+00 0.00000E+00
 -1      2047 9.81240E+01 3.48650E+00 0.00000E+00
 -1      2048 9.66240E+01 3.48650E+00 0.00000E+00
 -1      2049 9.58740E+01 4.78550E+00 0.00000E+00
 -1      2050 1.01124E+02 3.48650E+00 0.00000E+00
 -1      2051 9.96240E+01 3.48650E+00 0.00000E+00
 -1      2052 9.88740E+01 4.78550E+00 0.00000E+00
 -1      2053 1.04124E+02 3.48650E+00 0.00000E+00
 -1      2054 1.02624E+02 3.48650E+00 0.00000E+00
 -1      2055 1.01874E+02 4.78550E+00 0.00000E+00
 -1      2056 1.07124E+02 3.48650E+00 0.00000E+00
 -1      2057 1.05624E+02 3.48650E+00 0.00000E+00
 -1      2058 1.04874E+02 4.78550E+00 0.00000E+00
 -1      2059 1.10124E+02 3.48650E+00 0.00000E+00
 -1      2060 1.08624E+02 3.48650E+00 0.00000E+00
 -1      2061 1.07874E+02 4.78550E+00 0.00000E+00
 -1      2062 1.13124E+02 3.48650E+00 0.00000E+00
 -1      2063 1.11624E+02 3.48650E+00 0.00000E+00
 -1      2064 1.10874E+02 4.78550E+00 0.00000E+00
 -1      2065 1.16124E+02 3.48650E+00 0.00000E+00
 -1      2066 1.14624E+02 3.48650E+00 0.00000E+00
 -1      2067 1.13874E+02 4.78550E+00 0.00000E+00
 -1      2068 1.19124E+02 3.48650E+00 0.00000E+00
 -1      2069 1.17624E+02 3.48650E+00 0.00000E+00
 -1      2070 1.16874E+02 4.78550E+00 0.00000E+00
 -1      2071 1.22124E+02 3.48650E+00 0.00000E+00
 -1      2072 1.20624E+02 3.48650E+00 0.00000E+00
 -1      2073 1.19874E+02 4.78550E+00 0.00000E+00
 -1      2074 1.25124E+02 3.48650E+00 0.00000E+00
 -1      2075 1.23624E+02 3.48650E+00 0.00000E+00
 -1      2076 1.22874E+02 4.78550E+00 0.00000E+00
 -1      2077 1.28124E+02 3.48650E+00 0.00000E+00
 -1      2078 1.26624E+02 3.48650E+00 0.00000E+00
 -1      2079 1.25874E+02 4.78550E+00 0.00000E+00
 -1      2080 1.31124E+02 3.48650E+00 0.00000E+00
 -1      2081 1.29624E+02 3.48650E+00 0.00000E+00
 -1      2082 1.28874E+02 4.78550E+00 0.00000E+00
 -1      2083 1.34124E+02 3.48650E+00 0.00000E+00
 -1      2084 1.32624E+02 3.48650E+00 0.00000E+00
 -1      2085 1.31874E+02 4.78550E+00 0.00000E+00
 -1      2086 1.37124E+02 3.48650E+00 0.00000E+00
 -1      2087 1.35624E+02 3.48650E+00 0.00000E+00
 -1      2088 1.34874E+02 4.78550E+00 0.00000E+00
 -1      2089 1.40124E+02 3.48650E+00 0.00000E+00
 -1      2090 1.38624E+02 3.48650E+00 0.00000E+00
 -1      2091 1.37874E+02 4.78550E+00 0.00000E+00
 -1      2092 1.43124E+02 3.48650E+00 0.00000E+00
 -1      2093 1.41624E+02 3.48650E+00 0.00000E+00
 -1      2094 1.40874E+02 4.78550E+00 0.00000E+00
 -1      2095 1.45881E+02 3.39637E+00 0.00000E+00
 -1      2096 1.44381E+02 3.39637E+00 0.00000E+00
 -1      2097 1.43631E+02 4.69537E+00 0.00000E+00
 -1      2098 1.46145E+02 4.51512E+00 0.00000E+00
 -1      2099 1.46103E+02 1.25375E+01 0.00000E+00
 -1      2100 1.46103E+02 1.10625E+01 0.00000E+00
 -1      2101 1.46103E+02 9.58750E+00 0.00000E+00
 -1      2102 1.46103E+02 8.11250E+00 0.00000E+00
 -1      2103 1.44804E+02 1.03250E+01 0.00000E+00
 -1      2104 1.46145E+02 5.99013E+00 0.00000E+00
 -1      2105 1.46103E+02 1.54375E+01 0.00000E+00
 -1      2106 1.46103E+02 1.39875E+01 0.00000E+00
 -1      2107 1.44804E+02 1.32500E+01 0.00000E+00
 -1      2108 1.46103E+02 1.83875E+01 0.00000E+00
 -1      2109 1.46103E+02 1.69125E+01 0.00000E+00
 -1      2110 1.44804E+02 1.61750E+01 0.00000E+00
 -1      2111 1.46103E+02 2.13375E+01 0.00000E+00
 -1      2112 1.46103E+02 1.98625E+01 0.00000E+00
 -1      2113 1.44804E+02 1.91250E+01 0.00000E+00
 -1      2114 1.46103E+02 2.42875E+01 0.00000E+00
 -1      2115 1.46103E+02 2.28125E+01 0.00000E+00
 -1      2116 1.44804E+02 2.20750E+01 0.00000E+00
 -1      2117 1.46103E+02 2.72375E+01 0.00000E+00
 -1      2118 1.46103E+02 2.57625E+01 0.00000E+00
 -1      2119 1.44804E+02 2.50250E+01 0.00000E+00
 -1      2120 1.46103E+02 3.01875E+01 0.00000E+00
 -1      2121 1.46103E+02 2.87125E+01 0.00000E+00
 -1      2122 1.44804E+02 2.79750E+01 0.00000E+00
 -1      2123 1.46103E+02 3.30875E+01 0.00000E+00
 -1      2124 1.46103E+02 3.16375E+01 0.00000E+00
 -1      2125 1.44804E+02 3.09000E+01 0.00000E+00
 -1      2126 1.46103E+02 3.60375E+01 0.00000E+00
 -1      2127 1.46103E+02 3.45625E+01 0.00000E+00
 -1      2128 1.44804E+02 3.38250E+01 0.00000E+00
 -1      2129 1.46103E+02 3.89875E+01 0.00000E+00
 -1      2130 1.46103E+02 3.75125E+01 0.00000E+00
 -1      2131 1.44804E+02 3.67750E+01 0.00000E+00
 -1      2132 1.46103E+02 4.19375E+01 0.00000E+00
 -1      2133 1.46103E+02 4.04625E+01 0.00000E+00
 -1      2134 1.44804E+02 3.97250E+01 0.00000E+00
 -1      2135 1.14143E+01 3.29169E+00 0.00000E+00
 -1      2136 9.91425E+00 3.29169E+00 0.00000E+00
 -1      2137 9.74475E+00 4.20106E+00 0.00000E+00
 -1      2138 1.21643E+01 4.59069E+00 0.00000E+00
 -1      2139 3.04172E+01 3.52097E+01 0.00000E+00
 -1      2140 3.07004E+01 3.60388E+01 0.00000E+00
 -1      2141 2.80486E+01 3.23161E+01 0.00000E+00
 -1      2142 2.86411E+01 3.29520E+01 0.00000E+00
 -1      2143 3.10348E+01 3.69331E+01 0.00000E+00
 -1      2144 3.12126E+01 3.77687E+01 0.00000E+00
 -1      2145 2.73325E+01 4.66607E+01 0.00000E+00
 -1      2146 2.66570E+01 4.71502E+01 0.00000E+00
 -1      2147 3.89700E+00 3.74688E+01 0.00000E+00
 -1      2148 3.89700E+00 3.89437E+01 0.00000E+00
 -1      2149 5.19600E+00 3.96813E+01 0.00000E+00
 -1      2150 5.19600E+00 3.67438E+01 0.00000E+00
 -1      2151 2.64221E+01 3.11858E+01 0.00000E+00
 -1      2152 2.72133E+01 3.15866E+01 0.00000E+00
 -1      2153 2.46335E+01 3.06454E+01 0.00000E+00
 -1      2154 2.54587E+01 3.08625E+01 0.00000E+00
 -1      2155 2.28833E+01 3.02013E+01 0.00000E+00
 -1      2156 2.37522E+01 3.03627E+01 0.00000E+00
 -1      2157 2.08443E+01 3.03592E+01 0.00000E+00
 -1      2158 2.17065E+01 3.01755E+01 0.00000E+00
 -1      2159 1.91670E+01 3.07631E+01 0.00000E+00
 -1      2160 2.00057E+01 3.05612E+01 0.00000E+00
 -1      2161 2.02667E+01 2.96715E+01 0.00000E+00
 -1      2162 1.74160E+01 3.18176E+01 0.00000E+00
 -1      2163 1.81539E+01 3.13251E+01 0.00000E+00
 -1      2164 1.59853E+01 3.30552E+01 0.00000E+00
 -1      2165 1.66323E+01 3.24429E+01 0.00000E+00
 -1      2166 1.48604E+01 3.46124E+01 0.00000E+00
 -1      2167 1.53198E+01 3.38704E+01 0.00000E+00
 -1      2168 1.41323E+01 3.62931E+01 0.00000E+00
 -1      2169 1.44555E+01 3.54993E+01 0.00000E+00
 -1      2170 1.36213E+01 3.80900E+01 0.00000E+00
 -1      2171 1.37741E+01 3.72339E+01 0.00000E+00
 -1      2172 1.34735E+01 3.99299E+01 0.00000E+00
 -1      2173 1.34856E+01 3.90671E+01 0.00000E+00
 -1      2174 1.39978E+01 4.18008E+01 0.00000E+00
 -1      2175 1.37466E+01 4.09740E+01 0.00000E+00
 -1      2176 1.46136E+01 4.35216E+01 0.00000E+00
 -1      2177 1.42368E+01 4.27509E+01 0.00000E+00
 -1      2178 1.56677E+01 4.50401E+01 0.00000E+00
 -1      2179 1.51478E+01 4.43761E+01 0.00000E+00
 -1      2180 1.61337E+01 4.63274E+01 0.00000E+00
 -1      2181 1.86728E+01 4.75657E+01 0.00000E+00
 -1      2182 1.97228E+01 4.75657E+01 0.00000E+00
 -1      2183 2.52074E+01 4.75855E+01 0.00000E+00
 -1      2184 2.99065E+01 4.40920E+01 0.00000E+00
 -1      2185 2.94255E+01 4.48193E+01 0.00000E+00
 -1      2186 3.08100E+01 4.25626E+01 0.00000E+00
 -1      2187 3.03844E+01 4.33129E+01 0.00000E+00
 -1      2188 3.12206E+01 4.06070E+01 0.00000E+00
 -1      2189 3.11177E+01 4.14840E+01 0.00000E+00
 -1      2190 2.92378E+01 3.36082E+01 0.00000E+00
 -1      2191 2.98175E+01 3.42614E+01 0.00000E+00
 -1      2192 3.13803E+01 3.87448E+01 0.00000E+00
 -1      2193 3.14222E+01 3.96175E+01 0.00000E+00
 -1      2194 1.52645E+01 4.64724E+01 0.00000E+00
 -1      2195 3.15461E+01 3.62956E+01 0.00000E+00
 -1      2196 3.06121E+01 3.44529E+01 0.00000E+00
 -1      2197 1.40743E+01 4.62936E+01 0.00000E+00
 -1      2198 6.42300E+00 4.57510E+01 0.00000E+00
 -1      2199 2.23177E+01 4.77948E+01 0.00000E+00
 -1      2200 1.33243E+01 4.49946E+01 0.00000E+00
 -1      2201 2.63324E+01 4.75855E+01 0.00000E+00
 -1      2202 2.95572E+01 4.53467E+01 0.00000E+00
 -1      2203 2.87411E+01 4.53298E+01 0.00000E+00
 -1      2204 2.80568E+01 4.58402E+01 0.00000E+00
 -1      2205 2.81485E+01 4.66776E+01 0.00000E+00
 -1      2206 1.44846E+02 6.72762E+00 0.00000E+00
 -1      2207 1.46602E+02 4.43427E+01 0.00000E+00
 -1      2208 1.46450E+02 4.30779E+01 0.00000E+00
 -1      2209 1.45151E+02 4.23404E+01 0.00000E+00
 -1      2210 1.45844E+02 4.46212E+01 0.00000E+00
 -1      2211 2.79837E+01 3.14628E+01 0.00000E+00
 -1      2212 2.94157E+01 3.28484E+01 0.00000E+00
 -1      2213 3.20482E+01 3.81660E+01 0.00000E+00
 -1      2214 1.42643E+01 4.43306E+01 0.00000E+00
 -1      2215 1.34911E+01 4.25259E+01 0.00000E+00
 -1      2216 1.29790E+01 4.05317E+01 0.00000E+00
 -1      2217 1.28416E+01 3.85104E+01 0.00000E+00
 -1      2218 1.33355E+01 3.65926E+01 0.00000E+00
 -1      2219 1.40985E+01 3.47650E+01 0.00000E+00
 -1      2220 1.51690E+01 3.30631E+01 0.00000E+00
 -1      2221 1.84150E+01 3.04355E+01 0.00000E+00
 -1      2222 2.22822E+01 2.94954E+01 0.00000E+00
 -1      2223 2.43403E+01 2.98039E+01 0.00000E+00
 -1      2224 2.61850E+01 3.04100E+01 0.00000E+00
 -1      2225 1.66182E+01 3.16227E+01 0.00000E+00
 -1      2226 3.20144E+01 4.01315E+01 0.00000E+00
 -1      2227 3.15051E+01 4.21996E+01 0.00000E+00
 -1      2228 3.07195E+01 4.40572E+01 0.00000E+00
 -1      2229 2.70996E+01 4.79334E+01 0.00000E+00
 -1      2230 7.17300E+00 4.44520E+01 0.00000E+00
 -1      2231 6.47248E+00 3.01125E+01 0.00000E+00
 -1      2232 6.47248E+00 3.15875E+01 0.00000E+00
 -1      2233 6.47248E+00 3.30625E+01 0.00000E+00
 -1      2234 6.47248E+00 3.45375E+01 0.00000E+00
 -1      2235 7.74895E+00 3.23250E+01 0.00000E+00
 -1      2236 6.49500E+00 2.42125E+01 0.00000E+00
 -1      2237 6.49500E+00 2.56875E+01 0.00000E+00
 -1      2238 6.49500E+00 2.12625E+01 0.00000E+00
 -1      2239 6.49500E+00 2.27375E+01 0.00000E+00
 -1      2240 7.79400E+00 2.34750E+01 0.00000E+00
 -1      2241 6.49500E+00 1.83625E+01 0.00000E+00
 -1      2242 6.49500E+00 1.98125E+01 0.00000E+00
 -1      2243 7.79400E+00 2.05500E+01 0.00000E+00
 -1      2244 6.49500E+00 1.54125E+01 0.00000E+00
 -1      2245 6.49500E+00 1.68875E+01 0.00000E+00
 -1      2246 7.79400E+00 1.76250E+01 0.00000E+00
 -1      2247 6.49500E+00 1.24625E+01 0.00000E+00
 -1      2248 6.49500E+00 1.39375E+01 0.00000E+00
 -1      2249 7.79400E+00 1.46750E+01 0.00000E+00
 -1      2250 6.49500E+00 9.51250E+00 0.00000E+00
 -1      2251 6.49500E+00 1.09875E+01 0.00000E+00
 -1      2252 7.79400E+00 1.17250E+01 0.00000E+00
 -1      2253 6.49500E+00 6.56250E+00 0.00000E+00
 -1      2254 6.49500E+00 8.03750E+00 0.00000E+00
 -1      2255 7.79400E+00 8.77500E+00 0.00000E+00
 -1      2256 6.84975E+00 4.82969E+00 0.00000E+00
 -1      2257 6.68025E+00 5.73906E+00 0.00000E+00
 -1      2258 7.97925E+00 6.47656E+00 0.00000E+00
 -1      2259 8.34975E+00 4.82969E+00 0.00000E+00
 -1      2260 9.82500E+00 4.37789E+01 0.00000E+00
 -1      2261 1.11750E+01 4.37789E+01 0.00000E+00
 -1      2262 3.03833E+01 4.55773E+01 0.00000E+00
 -1      2263 2.96989E+01 4.60878E+01 0.00000E+00
 -1      2264 1.27900E+01 4.41400E+01 0.00000E+00
 -1      2265 2.82996E+01 4.79334E+01 0.00000E+00
 -1      2266 2.81301E+01 3.04521E+01 0.00000E+00
 -1      2267 2.89654E+01 3.11816E+01 0.00000E+00
 -1      2268 3.41250E+01 4.52095E+01 0.00000E+00
 -1      2269 3.56250E+01 4.52095E+01 0.00000E+00
 -1      2270 3.71250E+01 4.51257E+01 0.00000E+00
 -1      2271 3.86250E+01 4.51257E+01 0.00000E+00
 -1      2272 4.01250E+01 4.51257E+01 0.00000E+00
 -1      2273 4.16250E+01 4.51257E+01 0.00000E+00
 -1      2274 3.93750E+01 4.39330E+01 0.00000E+00
 -1      2275 4.31250E+01 4.51257E+01 0.00000E+00
 -1      2276 4.46250E+01 4.51257E+01 0.00000E+00
 -1      2277 4.23750E+01 4.39330E+01 0.00000E+00
 -1      2278 4.61250E+01 4.51257E+01 0.00000E+00
 -1      2279 4.76250E+01 4.51257E+01 0.00000E+00
 -1      2280 4.53750E+01 4.39330E+01 0.00000E+00
 -1      2281 4.91250E+01 4.51257E+01 0.00000E+00
 -1      2282 5.06250E+01 4.51257E+01 0.00000E+00
 -1      2283 4.83750E+01 4.39330E+01 0.00000E+00
 -1      2284 5.21250E+01 4.51257E+01 0.00000E+00
 -1      2285 5.36250E+01 4.51257E+01 0.00000E+00
 -1      2286 5.13750E+01 4.39330E+01 0.00000E+00
 -1      2287 5.51250E+01 4.51257E+01 0.00000E+00
 -1      2288 5.66250E+01 4.51257E+01 0.00000E+00
 -1      2289 5.43750E+01 4.39330E+01 0.00000E+00
 -1      2290 5.81250E+01 4.51257E+01 0.00000E+00
 -1      2291 5.96250E+01 4.51257E+01 0.00000E+00
 -1      2292 5.73750E+01 4.39330E+01 0.00000E+00
 -1      2293 6.11250E+01 4.51257E+01 0.00000E+00
 -1      2294 6.26250E+01 4.51257E+01 0.00000E+00
 -1      2295 6.03750E+01 4.39330E+01 0.00000E+00
 -1      2296 6.42000E+01 4.51257E+01 0.00000E+00
 -1      2297 6.57750E+01 4.51257E+01 0.00000E+00
 -1      2298 6.34500E+01 4.39330E+01 0.00000E+00
 -1      2299 6.72750E+01 4.51257E+01 0.00000E+00
 -1      2300 6.87750E+01 4.51257E+01 0.00000E+00
 -1      2301 6.65250E+01 4.39330E+01 0.00000E+00
 -1      2302 7.02750E+01 4.51257E+01 0.00000E+00
 -1      2303 7.17750E+01 4.51257E+01 0.00000E+00
 -1      2304 6.95250E+01 4.39330E+01 0.00000E+00
 -1      2305 7.32750E+01 4.51257E+01 0.00000E+00
 -1      2306 7.47750E+01 4.51257E+01 0.00000E+00
 -1      2307 7.25250E+01 4.39330E+01 0.00000E+00
 -1      2308 7.62750E+01 4.51257E+01 0.00000E+00
 -1      2309 7.77750E+01 4.51257E+01 0.00000E+00
 -1      2310 7.55250E+01 4.39330E+01 0.00000E+00
 -1      2311 7.92750E+01 4.51257E+01 0.00000E+00
 -1      2312 8.07750E+01 4.51257E+01 0.00000E+00
 -1      2313 7.85250E+01 4.39330E+01 0.00000E+00
 -1      2314 8.22750E+01 4.51257E+01 0.00000E+00
 -1      2315 8.37750E+01 4.51257E+01 0.00000E+00
 -1      2316 8.15250E+01 4.39330E+01 0.00000E+00
 -1      2317 8.52750E+01 4.51257E+01 0.00000E+00
 -1      2318 8.67750E+01 4.51257E+01 0.00000E+00
 -1      2319 8.45250E+01 4.39330E+01 0.00000E+00
 -1      2320 8.82750E+01 4.51257E+01 0.00000E+00
 -1      2321 8.97750E+01 4.51257E+01 0.00000E+00
 -1      2322 8.75250E+01 4.39330E+01 0.00000E+00
 -1      2323 9.12750E+01 4.51257E+01 0.00000E+00
 -1      2324 9.27750E+01 4.51257E+01 0.00000E+00
 -1      2325 9.05250E+01 4.39330E+01 0.00000E+00
 -1      2326 9.42750E+01 4.51257E+01 0.00000E+00
 -1      2327 9.57750E+01 4.51257E+01 0.00000E+00
 -1      2328 9.35250E+01 4.39330E+01 0.00000E+00
 -1      2329 9.72750E+01 4.51257E+01 0.00000E+00
 -1      2330 9.87750E+01 4.51257E+01 0.00000E+00
 -1      2331 9.65250E+01 4.39330E+01 0.00000E+00
 -1      2332 1.00275E+02 4.51257E+01 0.00000E+00
 -1      2333 1.01775E+02 4.51257E+01 0.00000E+00
 -1      2334 9.95250E+01 4.39330E+01 0.00000E+00
 -1      2335 1.03275E+02 4.51257E+01 0.00000E+00
 -1      2336 1.04775E+02 4.51257E+01 0.00000E+00
 -1      2337 1.02525E+02 4.39330E+01 0.00000E+00
 -1      2338 1.06350E+02 4.51257E+01 0.00000E+00
 -1      2339 1.07925E+02 4.51257E+01 0.00000E+00
 -1      2340 1.05600E+02 4.39330E+01 0.00000E+00
 -1      2341 1.09425E+02 4.51257E+01 0.00000E+00
 -1      2342 1.10925E+02 4.51257E+01 0.00000E+00
 -1      2343 1.08675E+02 4.39330E+01 0.00000E+00
 -1      2344 1.12425E+02 4.51257E+01 0.00000E+00
 -1      2345 1.13925E+02 4.51257E+01 0.00000E+00
 -1      2346 1.11675E+02 4.39330E+01 0.00000E+00
 -1      2347 1.15425E+02 4.51257E+01 0.00000E+00
 -1      2348 1.16925E+02 4.51257E+01 0.00000E+00
 -1      2349 1.14675E+02 4.39330E+01 0.00000E+00
 -1      2350 1.18425E+02 4.51257E+01 0.00000E+00
 -1      2351 1.19925E+02 4.51257E+01 0.00000E+00
 -1      2352 1.17675E+02 4.39330E+01 0.00000E+00
 -1      2353 1.21425E+02 4.51257E+01 0.00000E+00
 -1      2354 1.22925E+02 4.51257E+01 0.00000E+00
 -1      2355 1.20675E+02 4.39330E+01 0.00000E+00
 -1      2356 1.24425E+02 4.51257E+01 0.00000E+00
 -1      2357 1.25925E+02 4.51257E+01 0.00000E+00
 -1      2358 1.23675E+02 4.39330E+01 0.00000E+00
 -1      2359 1.27425E+02 4.51257E+01 0.00000E+00
 -1      2360 1.28925E+02 4.51257E+01 0.00000E+00
 -1      2361 1.26675E+02 4.39330E+01 0.00000E+00
 -1      2362 1.30425E+02 4.51257E+01 0.00000E+00
 -1      2363 1.31925E+02 4.51257E+01 0.00000E+00
 -1      2364 1.29675E+02 4.39330E+01 0.00000E+00
 -1      2365 1.33425E+02 4.51257E+01 0.00000E+00
 -1      2366 1.34925E+02 4.51257E+01 0.00000E+00
 -1      2367 1.32675E+02 4.39330E+01 0.00000E+00
 -1      2368 1.36425E+02 4.51257E+01 0.00000E+00
 -1      2369 1.37925E+02 4.51257E+01 0.00000E+00
 -1      2370 1.35675E+02 4.39330E+01 0.00000E+00
 -1      2371 1.39425E+02 4.51257E+01 0.00000E+00
 -1      2372 1.40925E+02 4.51257E+01 0.00000E+00
 -1      2373 1.38675E+02 4.39330E+01 0.00000E+00
 -1      2374 1.43589E+02 6.81775E+00 0.00000E+00
 -1      2375 1.86240E+01 6.08450E+00 0.00000E+00
 -1      2376 1.71240E+01 6.08450E+00 0.00000E+00
 -1      2377 1.56240E+01 6.08450E+00 0.00000E+00
 -1      2378 1.41240E+01 6.08450E+00 0.00000E+00
 -1      2379 1.63740E+01 7.38350E+00 0.00000E+00
 -1      2380 2.46240E+01 6.08450E+00 0.00000E+00
 -1      2381 2.31240E+01 6.08450E+00 0.00000E+00
 -1      2382 2.76240E+01 6.08450E+00 0.00000E+00
 -1      2383 2.61240E+01 6.08450E+00 0.00000E+00
 -1      2384 2.53740E+01 7.38350E+00 0.00000E+00
 -1      2385 3.06240E+01 6.08450E+00 0.00000E+00
 -1      2386 2.91240E+01 6.08450E+00 0.00000E+00
 -1      2387 2.83740E+01 7.38350E+00 0.00000E+00
 -1      2388 3.36240E+01 6.08450E+00 0.00000E+00
 -1      2389 3.21240E+01 6.08450E+00 0.00000E+00
 -1      2390 3.13740E+01 7.38350E+00 0.00000E+00
 -1      2391 3.66240E+01 6.08450E+00 0.00000E+00
 -1      2392 3.51240E+01 6.08450E+00 0.00000E+00
 -1      2393 3.43740E+01 7.38350E+00 0.00000E+00
 -1      2394 3.96240E+01 6.08450E+00 0.00000E+00
 -1      2395 3.81240E+01 6.08450E+00 0.00000E+00
 -1      2396 3.73740E+01 7.38350E+00 0.00000E+00
 -1      2397 4.26240E+01 6.08450E+00 0.00000E+00
 -1      2398 4.11240E+01 6.08450E+00 0.00000E+00
 -1      2399 4.03740E+01 7.38350E+00 0.00000E+00
 -1      2400 4.56240E+01 6.08450E+00 0.00000E+00
 -1      2401 4.41240E+01 6.08450E+00 0.00000E+00
 -1      2402 4.33740E+01 7.38350E+00 0.00000E+00
 -1      2403 4.86240E+01 6.08450E+00 0.00000E+00
 -1      2404 4.71240E+01 6.08450E+00 0.00000E+00
 -1      2405 4.63740E+01 7.38350E+00 0.00000E+00
 -1      2406 5.16240E+01 6.08450E+00 0.00000E+00
 -1      2407 5.01240E+01 6.08450E+00 0.00000E+00
 -1      2408 4.93740E+01 7.38350E+00 0.00000E+00
 -1      2409 5.46240E+01 6.08450E+00 0.00000E+00
 -1      2410 5.31240E+01 6.08450E+00 0.00000E+00
 -1      2411 5.23740E+01 7.38350E+00 0.00000E+00
 -1      2412 5.76240E+01 6.08450E+00 0.00000E+00
 -1      2413 5.61240E+01 6.08450E+00 0.00000E+00
 -1      2414 5.53740E+01 7.38350E+00 0.00000E+00
 -1      2415 6.06240E+01 6.08450E+00 0.00000E+00
 -1      2416 5.91240E+01 6.08450E+00 0.00000E+00
 -1      2417 5.83740E+01 7.38350E+00 0.00000E+00
 -1      2418 6.36240E+01 6.08450E+00 0.00000E+00
 -1      2419 6.21240E+01 6.08450E+00 0.00000E+00
 -1      2420 6.13740E+01 7.38350E+00 0.00000E+00
 -1      2421 6.66240E+01 6.08450E+00 0.00000E+00
 -1      2422 6.51240E+01 6.08450E+00 0.00000E+00
 -1      2423 6.43740E+01 7.38350E+00 0.00000E+00
 -1      2424 6.96240E+01 6.08450E+00 0.00000E+00
 -1      2425 6.81240E+01 6.08450E+00 0.00000E+00
 -1      2426 6.73740E+01 7.38350E+00 0.00000E+00
 -1      2427 7.26240E+01 6.08450E+00 0.00000E+00
 -1      2428 7.11240E+01 6.08450E+00 0.00000E+00
 -1      2429 7.03740E+01 7.38350E+00 0.00000E+00
 -1      2430 7.56240E+01 6.08450E+00 0.00000E+00
 -1      2431 7.41240E+01 6.08450E+00 0.00000E+00
 -1      2432 7.33740E+01 7.38350E+00 0.00000E+00
 -1      2433 7.86240E+01 6.08450E+00 0.00000E+00
 -1      2434 7.71240E+01 6.08450E+00 0.00000E+00
 -1      2435 7.63740E+01 7.38350E+00 0.00000E+00
 -1      2436 8.16240E+01 6.08450E+00 0.00000E+00
 -1      2437 8.01240E+01 6.08450E+00 0.00000E+00
 -1      2438 7.93740E+01 7.38350E+00 0.00000E+00
 -1      2439 8.46240E+01 6.08450E+00 0.00000E+00
 -1      2440 8.31240E+01 6.08450E+00 0.00000E+00
 -1      2441 8.23740E+01 7.38350E+00 0.00000E+00
 -1      2442 8.76240E+01 6.08450E+00 0.00000E+00
 -1      2443 8.61240E+01 6.08450E+00 0.00000E+00
 -1      2444 8.53740E+01 7.38350E+00 0.00000E+00
 -1      2445 9.06240E+01 6.08450E+00 0.00000E+00
 -1      2446 8.91240E+01 6.08450E+00 0.00000E+00
 -1      2447 8.83740E+01 7.38350E+00 0.00000E+00
 -1      2448 9.36240E+01 6.08450E+00 0.00000E+00
 -1      2449 9.21240E+01 6.08450E+00 0.00000E+00
 -1      2450 9.13740E+01 7.38350E+00 0.00000E+00
 -1      2451 9.66240E+01 6.08450E+00 0.00000E+00
 -1      2452 9.51240E+01 6.08450E+00 0.00000E+00
 -1      2453 9.43740E+01 7.38350E+00 0.00000E+00
 -1      2454 9.96240E+01 6.08450E+00 0.00000E+00
 -1      2455 9.81240E+01 6.08450E+00 0.00000E+00
 -1      2456 9.73740E+01 7.38350E+00 0.00000E+00
 -1      2457 1.02624E+02 6.08450E+00 0.00000E+00
 -1      2458 1.01124E+02 6.08450E+00 0.00000E+00
 -1      2459 1.00374E+02 7.38350E+00 0.00000E+00
 -1      2460 1.05624E+02 6.08450E+00 0.00000E+00
 -1      2461 1.04124E+02 6.08450E+00 0.00000E+00
 -1      2462 1.03374E+02 7.38350E+00 0.00000E+00
 -1      2463 1.08624E+02 6.08450E+00 0.00000E+00
 -1      2464 1.07124E+02 6.08450E+00 0.00000E+00
 -1      2465 1.06374E+02 7.38350E+00 0.00000E+00
 -1      2466 1.11624E+02 6.08450E+00 0.00000E+00
 -1      2467 1.10124E+02 6.08450E+00 0.00000E+00
 -1      2468 1.09374E+02 7.38350E+00 0.00000E+00
 -1      2469 1.14624E+02 6.08450E+00 0.00000E+00
 -1      2470 1.13124E+02 6.08450E+00 0.00000E+00
 -1      2471 1.12374E+02 7.38350E+00 0.00000E+00
 -1      2472 1.17624E+02 6.08450E+00 0.00000E+00
 -1      2473 1.16124E+02 6.08450E+00 0.00000E+00
 -1      2474 1.15374E+02 7.38350E+00 0.00000E+00
 -1      2475 1.20624E+02 6.08450E+00 0.00000E+00
 -1      2476 1.19124E+02 6.08450E+00 0.00000E+00
 -1      2477 1.18374E+02 7.38350E+00 0.00000E+00
 -1      2478 1.23624E+02 6.08450E+00 0.00000E+00
 -1      2479 1.22124E+02 6.08450E+00 0.00000E+00
 -1      2480 1.21374E+02 7.38350E+00 0.00000E+00
 -1      2481 1.26624E+02 6.08450E+00 0.00000E+00
 -1      2482 1.25124E+02 6.08450E+00 0.00000E+00
 -1      2483 1.24374E+02 7.38350E+00 0.00000E+00
 -1      2484 1.29624E+02 6.08450E+00 0.00000E+00
 -1      2485 1.28124E+02 6.08450E+00 0.00000E+00
 -1      2486 1.27374E+02 7.38350E+00 0.00000E+00
 -1      2487 1.32624E+02 6.08450E+00 0.00000E+00
 -1      2488 1.31124E+02 6.08450E+00 0.00000E+00
 -1      2489 1.30374E+02 7.38350E+00 0.00000E+00
 -1      2490 1.35624E+02 6.08450E+00 0.00000E+00
 -1      2491 1.34124E+02 6.08450E+00 0.00000E+00
 -1      2492 1.33374E+02 7.38350E+00 0.00000E+00
 -1      2493 1.38624E+02 6.08450E+00 0.00000E+00
 -1      2494 1.37124E+02 6.08450E+00 0.00000E+00
 -1      2495 1.36374E+02 7.38350E+00 0.00000E+00
 -1      2496 1.41624E+02 6.08450E+00 0.00000E+00
 -1      2497 1.40124E+02 6.08450E+00 0.00000E+00
 -1      2498 1.39374E+02 7.38350E+00 0.00000E+00
 -1      2499 1.43505E+02 1.69125E+01 0.00000E+00
 -1      2500 1.43505E+02 1.54375E+01 0.00000E+00
 -1      2501 1.43505E+02 1.39875E+01 0.00000E+00
 -1      2502 1.43505E+02 1.25375E+01 0.00000E+00
 -1      2503 1.42206E+02 1.47250E+01 0.00000E+00
 -1      2504 1.43505E+02 1.10625E+01 0.00000E+00
 -1      2505 1.43505E+02 9.58750E+00 0.00000E+00
 -1      2506 1.42206E+02 1.18000E+01 0.00000E+00
 -1      2507 3.10016E+01 3.35428E+01 0.00000E+00
 -1      2508 3.16013E+01 3.44911E+01 0.00000E+00
 -1      2509 1.43505E+02 1.98625E+01 0.00000E+00
 -1      2510 1.43505E+02 1.83875E+01 0.00000E+00
 -1      2511 1.42206E+02 1.76500E+01 0.00000E+00
 -1      2512 1.43505E+02 2.28125E+01 0.00000E+00
 -1      2513 1.43505E+02 2.13375E+01 0.00000E+00
 -1      2514 1.42206E+02 2.06000E+01 0.00000E+00
 -1      2515 1.43505E+02 2.57625E+01 0.00000E+00
 -1      2516 1.43505E+02 2.42875E+01 0.00000E+00
 -1      2517 1.42206E+02 2.35500E+01 0.00000E+00
 -1      2518 1.43505E+02 2.87125E+01 0.00000E+00
 -1      2519 1.43505E+02 2.72375E+01 0.00000E+00
 -1      2520 1.42206E+02 2.65000E+01 0.00000E+00
 -1      2521 1.43505E+02 3.16125E+01 0.00000E+00
 -1      2522 1.43505E+02 3.01625E+01 0.00000E+00
 -1      2523 1.42206E+02 2.94250E+01 0.00000E+00
 -1      2524 1.43505E+02 3.45625E+01 0.00000E+00
 -1      2525 1.43505E+02 3.30875E+01 0.00000E+00
 -1      2526 1.42206E+02 3.23500E+01 0.00000E+00
 -1      2527 1.43505E+02 3.75125E+01 0.00000E+00
 -1      2528 1.43505E+02 3.60375E+01 0.00000E+00
 -1      2529 1.42206E+02 3.53000E+01 0.00000E+00
 -1      2530 1.43505E+02 4.04625E+01 0.00000E+00
 -1      2531 1.43505E+02 3.89875E+01 0.00000E+00
 -1      2532 1.42206E+02 3.82500E+01 0.00000E+00
 -1      2533 2.16240E+01 6.08450E+00 0.00000E+00
 -1      2534 2.01240E+01 6.08450E+00 0.00000E+00
 -1      2535 1.93740E+01 7.38350E+00 0.00000E+00
 -1      2536 6.52200E+00 4.30259E+01 0.00000E+00
 -1      2537 8.49900E+00 4.33779E+01 0.00000E+00
 -1      2538 9.17400E+00 4.23528E+01 0.00000E+00
 -1      2539 6.52200E+00 4.15509E+01 0.00000E+00
 -1      2540 2.90239E+01 4.71129E+01 0.00000E+00
 -1      2541 3.12639E+01 4.48173E+01 0.00000E+00
 -1      2542 3.14056E+01 4.55584E+01 0.00000E+00
 -1      2543 3.28306E+01 4.55584E+01 0.00000E+00
 -1      2544 3.17418E+01 4.40382E+01 0.00000E+00
 -1      2545 1.42839E+02 8.11675E+00 0.00000E+00
 -1      2546 3.21037E+01 3.55774E+01 0.00000E+00
 -1      2547 3.24381E+01 3.64717E+01 0.00000E+00
 -1      2548 2.17108E+01 2.87089E+01 0.00000E+00
 -1      2549 2.28876E+01 2.87347E+01 0.00000E+00
 -1      2550 6.48374E+00 2.71625E+01 0.00000E+00
 -1      2551 6.48374E+00 2.86375E+01 0.00000E+00
 -1      2552 7.76021E+00 2.93750E+01 0.00000E+00
 -1      2553 7.78274E+00 2.64250E+01 0.00000E+00
 -1      2554 2.59762E+01 2.94353E+01 0.00000E+00
 -1      2555 2.69396E+01 2.97587E+01 0.00000E+00
 -1      2556 2.42136E+01 2.88699E+01 0.00000E+00
 -1      2557 2.50949E+01 2.91526E+01 0.00000E+00
 -1      2558 2.58494E+01 2.85013E+01 0.00000E+00
 -1      2559 1.96663E+01 2.90203E+01 0.00000E+00
 -1      2560 2.05049E+01 2.88183E+01 0.00000E+00
 -1      2561 3.28323E+01 3.97829E+01 0.00000E+00
 -1      2562 3.26308E+01 4.07724E+01 0.00000E+00
 -1      2563 1.75128E+01 3.00032E+01 0.00000E+00
 -1      2564 1.85259E+01 2.94412E+01 0.00000E+00
 -1      2565 1.41719E+01 3.29283E+01 0.00000E+00
 -1      2566 1.48374E+01 3.21132E+01 0.00000E+00
 -1      2567 1.31922E+01 3.48871E+01 0.00000E+00
 -1      2568 1.35971E+01 3.40002E+01 0.00000E+00
 -1      2569 1.24758E+01 3.67685E+01 0.00000E+00
 -1      2570 1.28340E+01 3.58278E+01 0.00000E+00
 -1      2571 1.23326E+01 3.50630E+01 0.00000E+00
 -1      2572 1.20073E+01 3.88926E+01 0.00000E+00
 -1      2573 1.21430E+01 3.79154E+01 0.00000E+00
 -1      2574 1.22859E+01 4.12708E+01 0.00000E+00
 -1      2575 1.20128E+01 4.02266E+01 0.00000E+00
 -1      2576 3.26444E+01 3.75610E+01 0.00000E+00
 -1      2577 3.28121E+01 3.85371E+01 0.00000E+00
 -1      2578 1.57176E+01 3.12977E+01 0.00000E+00
 -1      2579 1.65014E+01 3.06725E+01 0.00000E+00
 -1      2580 2.96898E+01 3.19998E+01 0.00000E+00
 -1      2581 3.02865E+01 3.26559E+01 0.00000E+00
 -1      2582 3.24433E+01 4.18841E+01 0.00000E+00
 -1      2583 3.21356E+01 4.29626E+01 0.00000E+00
 -1      2584 7.74895E+00 3.52687E+01 0.00000E+00
 -1      2585 6.47248E+00 3.60062E+01 0.00000E+00
 -1      2586 6.47248E+00 3.74750E+01 0.00000E+00
 -1      2587 1.16415E+01 3.71507E+01 0.00000E+00
 -1      2588 9.55950E+00 5.02450E+00 0.00000E+00
 -1      2589 9.37425E+00 5.84794E+00 0.00000E+00
 -1      2590 1.07692E+01 5.21931E+00 0.00000E+00
 -1      2591 2.79213E+01 2.94775E+01 0.00000E+00
 -1      2592 3.26800E+01 4.37227E+01 0.00000E+00
 -1      2593 1.18253E+01 4.37716E+01 0.00000E+00
 -1      2594 1.27653E+01 4.31076E+01 0.00000E+00
 -1      2595 3.35806E+01 4.44494E+01 0.00000E+00
 -1      2596 3.63750E+01 4.40168E+01 0.00000E+00
 -1      2597 3.24932E+01 3.46673E+01 0.00000E+00
 -1      2598 1.42425E+02 4.50194E+01 0.00000E+00
 -1      2599 1.43925E+02 4.50194E+01 0.00000E+00
 -1      2600 1.41540E+02 8.85425E+00 0.00000E+00
 -1      2601 3.32020E+01 3.68429E+01 0.00000E+00
 -1      2602 2.23740E+01 7.38350E+00 0.00000E+00
 -1      2603 3.12757E+01 3.26941E+01 0.00000E+00
 -1      2604 1.44336E+02 4.36006E+01 0.00000E+00
 -1      2605 1.43990E+02 4.24602E+01 0.00000E+00
 -1      2606 1.42691E+02 4.17227E+01 0.00000E+00
 -1      2607 1.30515E+01 5.74931E+00 0.00000E+00
 -1      2608 1.18418E+01 5.55450E+00 0.00000E+00
 -1      2609 1.16565E+01 6.37794E+00 0.00000E+00
 -1      2610 1.38015E+01 7.04831E+00 0.00000E+00
 -1      2611 1.32656E+01 3.30503E+01 0.00000E+00
 -1      2612 2.36421E+01 2.80834E+01 0.00000E+00
 -1      2613 3.32613E+01 4.15354E+01 0.00000E+00
 -1      2614 2.98363E+01 3.09891E+01 0.00000E+00
 -1      2615 1.47206E+01 3.11629E+01 0.00000E+00
 -1      2616 1.25263E+01 4.21575E+01 0.00000E+00
 -1      2617 1.15601E+01 4.18524E+01 0.00000E+00
 -1      2618 6.49724E+00 3.87786E+01 0.00000E+00
 -1      2619 6.49724E+00 4.02473E+01 0.00000E+00
 -1      2620 7.82324E+00 4.06483E+01 0.00000E+00
 -1      2621 7.77371E+00 3.80411E+01 0.00000E+00
 -1      2622 2.11103E+01 2.80576E+01 0.00000E+00
 -1      2623 3.34285E+01 3.91780E+01 0.00000E+00
 -1      2624 3.40448E+01 3.98188E+01 0.00000E+00
 -1      2625 3.40246E+01 3.85731E+01 0.00000E+00
 -1      2626 1.87641E+01 2.85880E+01 0.00000E+00
 -1      2627 1.13142E+01 3.96316E+01 0.00000E+00
 -1      2628 1.66123E+01 2.96782E+01 0.00000E+00
 -1      2629 1.11503E+01 4.27464E+01 0.00000E+00
 -1      2630 1.41675E+02 4.38267E+01 0.00000E+00
 -1      2631 9.09300E+00 1.98250E+01 0.00000E+00
 -1      2632 9.09300E+00 2.12750E+01 0.00000E+00
 -1      2633 9.09300E+00 2.27500E+01 0.00000E+00
 -1      2634 9.09300E+00 2.42250E+01 0.00000E+00
 -1      2635 1.03920E+01 2.20250E+01 0.00000E+00
 -1      2636 9.09300E+00 1.39375E+01 0.00000E+00
 -1      2637 9.09300E+00 1.54125E+01 0.00000E+00
 -1      2638 9.09300E+00 1.09875E+01 0.00000E+00
 -1      2639 9.09300E+00 1.24625E+01 0.00000E+00
 -1      2640 1.03920E+01 1.32000E+01 0.00000E+00
 -1      2641 9.18900E+00 6.67137E+00 0.00000E+00
 -1      2642 9.00375E+00 7.49481E+00 0.00000E+00
 -1      2643 1.03988E+01 6.86619E+00 0.00000E+00
 -1      2644 1.41191E+02 4.18290E+01 0.00000E+00
 -1      2645 3.39744E+01 4.33739E+01 0.00000E+00
 -1      2646 4.16250E+01 4.26340E+01 0.00000E+00
 -1      2647 4.31250E+01 4.26340E+01 0.00000E+00
 -1      2648 4.46250E+01 4.26340E+01 0.00000E+00
 -1      2649 4.61250E+01 4.26340E+01 0.00000E+00
 -1      2650 4.38750E+01 4.13350E+01 0.00000E+00
 -1      2651 4.76250E+01 4.26340E+01 0.00000E+00
 -1      2652 4.91250E+01 4.26340E+01 0.00000E+00
 -1      2653 4.68750E+01 4.13350E+01 0.00000E+00
 -1      2654 5.06250E+01 4.26340E+01 0.00000E+00
 -1      2655 5.21250E+01 4.26340E+01 0.00000E+00
 -1      2656 4.98750E+01 4.13350E+01 0.00000E+00
 -1      2657 5.36250E+01 4.26340E+01 0.00000E+00
 -1      2658 5.51250E+01 4.26340E+01 0.00000E+00
 -1      2659 5.28750E+01 4.13350E+01 0.00000E+00
 -1      2660 5.66250E+01 4.26340E+01 0.00000E+00
 -1      2661 5.81250E+01 4.26340E+01 0.00000E+00
 -1      2662 5.58750E+01 4.13350E+01 0.00000E+00
 -1      2663 5.96250E+01 4.26340E+01 0.00000E+00
 -1      2664 6.11250E+01 4.26340E+01 0.00000E+00
 -1      2665 5.88750E+01 4.13350E+01 0.00000E+00
 -1      2666 6.27000E+01 4.26340E+01 0.00000E+00
 -1      2667 6.42750E+01 4.26340E+01 0.00000E+00
 -1      2668 6.19500E+01 4.13350E+01 0.00000E+00
 -1      2669 6.57750E+01 4.26340E+01 0.00000E+00
 -1      2670 6.72750E+01 4.26340E+01 0.00000E+00
 -1      2671 6.50250E+01 4.13350E+01 0.00000E+00
 -1      2672 6.87750E+01 4.26340E+01 0.00000E+00
 -1      2673 7.02750E+01 4.26340E+01 0.00000E+00
 -1      2674 6.80250E+01 4.13350E+01 0.00000E+00
 -1      2675 7.17750E+01 4.26340E+01 0.00000E+00
 -1      2676 7.32750E+01 4.26340E+01 0.00000E+00
 -1      2677 7.10250E+01 4.13350E+01 0.00000E+00
 -1      2678 7.47750E+01 4.26340E+01 0.00000E+00
 -1      2679 7.62750E+01 4.26340E+01 0.00000E+00
 -1      2680 7.40250E+01 4.13350E+01 0.00000E+00
 -1      2681 7.77750E+01 4.26340E+01 0.00000E+00
 -1      2682 7.92750E+01 4.26340E+01 0.00000E+00
 -1      2683 7.70250E+01 4.13350E+01 0.00000E+00
 -1      2684 8.07750E+01 4.26340E+01 0.00000E+00
 -1      2685 8.22750E+01 4.26340E+01 0.00000E+00
 -1      2686 8.00250E+01 4.13350E+01 0.00000E+00
 -1      2687 8.37750E+01 4.26340E+01 0.00000E+00
 -1      2688 8.52750E+01 4.26340E+01 0.00000E+00
 -1      2689 8.30250E+01 4.13350E+01 0.00000E+00
 -1      2690 8.67750E+01 4.26340E+01 0.00000E+00
 -1      2691 8.82750E+01 4.26340E+01 0.00000E+00
 -1      2692 8.60250E+01 4.13350E+01 0.00000E+00
 -1      2693 8.97750E+01 4.26340E+01 0.00000E+00
 -1      2694 9.12750E+01 4.26340E+01 0.00000E+00
 -1      2695 8.90250E+01 4.13350E+01 0.00000E+00
 -1      2696 9.27750E+01 4.26340E+01 0.00000E+00
 -1      2697 9.42750E+01 4.26340E+01 0.00000E+00
 -1      2698 9.20250E+01 4.13350E+01 0.00000E+00
 -1      2699 9.57750E+01 4.26340E+01 0.00000E+00
 -1      2700 9.72750E+01 4.26340E+01 0.00000E+00
 -1      2701 9.50250E+01 4.13350E+01 0.00000E+00
 -1      2702 9.87750E+01 4.26340E+01 0.00000E+00
 -1      2703 1.00275E+02 4.26340E+01 0.00000E+00
 -1      2704 9.80250E+01 4.13350E+01 0.00000E+00
 -1      2705 1.01775E+02 4.26340E+01 0.00000E+00
 -1      2706 1.03275E+02 4.26340E+01 0.00000E+00
 -1      2707 1.01025E+02 4.13350E+01 0.00000E+00
 -1      2708 1.04850E+02 4.26340E+01 0.00000E+00
 -1      2709 1.06425E+02 4.26340E+01 0.00000E+00
 -1      2710 1.04100E+02 4.13350E+01 0.00000E+00
 -1      2711 1.07925E+02 4.26340E+01 0.00000E+00
 -1      2712 1.09425E+02 4.26340E+01 0.00000E+00
 -1      2713 1.07175E+02 4.13350E+01 0.00000E+00
 -1      2714 1.10925E+02 4.26340E+01 0.00000E+00
 -1      2715 1.12425E+02 4.26340E+01 0.00000E+00
 -1      2716 1.10175E+02 4.13350E+01 0.00000E+00
 -1      2717 1.13925E+02 4.26340E+01 0.00000E+00
 -1      2718 1.15425E+02 4.26340E+01 0.00000E+00
 -1      2719 1.13175E+02 4.13350E+01 0.00000E+00
 -1      2720 1.16925E+02 4.26340E+01 0.00000E+00
 -1      2721 1.18425E+02 4.26340E+01 0.00000E+00
 -1      2722 1.16175E+02 4.13350E+01 0.00000E+00
 -1      2723 1.19925E+02 4.26340E+01 0.00000E+00
 -1      2724 1.21425E+02 4.26340E+01 0.00000E+00
 -1      2725 1.19175E+02 4.13350E+01 0.00000E+00
 -1      2726 1.22925E+02 4.26340E+01 0.00000E+00
 -1      2727 1.24425E+02 4.26340E+01 0.00000E+00
 -1      2728 1.22175E+02 4.13350E+01 0.00000E+00
 -1      2729 1.25925E+02 4.26340E+01 0.00000E+00
 -1      2730 1.27425E+02 4.26340E+01 0.00000E+00
 -1      2731 1.25175E+02 4.13350E+01 0.00000E+00
 -1      2732 1.28925E+02 4.26340E+01 0.00000E+00
 -1      2733 1.30425E+02 4.26340E+01 0.00000E+00
 -1      2734 1.28175E+02 4.13350E+01 0.00000E+00
 -1      2735 1.31925E+02 4.26340E+01 0.00000E+00
 -1      2736 1.33425E+02 4.26340E+01 0.00000E+00
 -1      2737 1.31175E+02 4.13350E+01 0.00000E+00
 -1      2738 1.34925E+02 4.26340E+01 0.00000E+00
 -1      2739 1.36425E+02 4.26340E+01 0.00000E+00
 -1      2740 1.34175E+02 4.13350E+01 0.00000E+00
 -1      2741 1.38058E+02 4.22315E+01 0.00000E+00
 -1      2742 1.39558E+02 4.22315E+01 0.00000E+00
 -1      2743 1.40573E+02 4.01275E+01 0.00000E+00
 -1      2744 1.37308E+02 4.09325E+01 0.00000E+00
 -1      2745 1.71240E+01 8.68250E+00 0.00000E+00
 -1      2746 1.56240E+01 8.68250E+00 0.00000E+00
 -1      2747 1.40706E+02 1.03250E+01 0.00000E+00
 -1      2748 1.40040E+02 8.85425E+00 0.00000E+00
 -1      2749 1.38540E+02 8.85425E+00 0.00000E+00
 -1      2750 1.45086E+02 4.48996E+01 0.00000E+00
 -1      2751 1.21486E+01 3.31415E+01 0.00000E+00
 -1      2752 1.27234E+01 3.20695E+01 0.00000E+00
 -1      2753 2.91240E+01 8.68250E+00 0.00000E+00
 -1      2754 2.76240E+01 8.68250E+00 0.00000E+00
 -1      2755 2.61240E+01 8.68250E+00 0.00000E+00
 -1      2756 2.46240E+01 8.68250E+00 0.00000E+00
 -1      2757 2.68740E+01 9.98150E+00 0.00000E+00
 -1      2758 3.51240E+01 8.68250E+00 0.00000E+00
 -1      2759 3.36240E+01 8.68250E+00 0.00000E+00
 -1      2760 3.81240E+01 8.68250E+00 0.00000E+00
 -1      2761 3.66240E+01 8.68250E+00 0.00000E+00
 -1      2762 3.58740E+01 9.98150E+00 0.00000E+00
 -1      2763 4.11240E+01 8.68250E+00 0.00000E+00
 -1      2764 3.96240E+01 8.68250E+00 0.00000E+00
 -1      2765 3.88740E+01 9.98150E+00 0.00000E+00
 -1      2766 4.41240E+01 8.68250E+00 0.00000E+00
 -1      2767 4.26240E+01 8.68250E+00 0.00000E+00
 -1      2768 4.18740E+01 9.98150E+00 0.00000E+00
 -1      2769 4.71240E+01 8.68250E+00 0.00000E+00
 -1      2770 4.56240E+01 8.68250E+00 0.00000E+00
 -1      2771 4.48740E+01 9.98150E+00 0.00000E+00
 -1      2772 5.01240E+01 8.68250E+00 0.00000E+00
 -1      2773 4.86240E+01 8.68250E+00 0.00000E+00
 -1      2774 4.78740E+01 9.98150E+00 0.00000E+00
 -1      2775 5.31240E+01 8.68250E+00 0.00000E+00
 -1      2776 5.16240E+01 8.68250E+00 0.00000E+00
 -1      2777 5.08740E+01 9.98150E+00 0.00000E+00
 -1      2778 5.61240E+01 8.68250E+00 0.00000E+00
 -1      2779 5.46240E+01 8.68250E+00 0.00000E+00
 -1      2780 5.38740E+01 9.98150E+00 0.00000E+00
 -1      2781 5.91240E+01 8.68250E+00 0.00000E+00
 -1      2782 5.76240E+01 8.68250E+00 0.00000E+00
 -1      2783 5.68740E+01 9.98150E+00 0.00000E+00
 -1      2784 6.21240E+01 8.68250E+00 0.00000E+00
 -1      2785 6.06240E+01 8.68250E+00 0.00000E+00
 -1      2786 5.98740E+01 9.98150E+00 0.00000E+00
 -1      2787 6.51240E+01 8.68250E+00 0.00000E+00
 -1      2788 6.36240E+01 8.68250E+00 0.00000E+00
 -1      2789 6.28740E+01 9.98150E+00 0.00000E+00
 -1      2790 6.81240E+01 8.68250E+00 0.00000E+00
 -1      2791 6.66240E+01 8.68250E+00 0.00000E+00
 -1      2792 6.58740E+01 9.98150E+00 0.00000E+00
 -1      2793 7.11240E+01 8.68250E+00 0.00000E+00
 -1      2794 6.96240E+01 8.68250E+00 0.00000E+00
 -1      2795 6.88740E+01 9.98150E+00 0.00000E+00
 -1      2796 7.41240E+01 8.68250E+00 0.00000E+00
 -1      2797 7.26240E+01 8.68250E+00 0.00000E+00
 -1      2798 7.18740E+01 9.98150E+00 0.00000E+00
 -1      2799 7.71240E+01 8.68250E+00 0.00000E+00
 -1      2800 7.56240E+01 8.68250E+00 0.00000E+00
 -1      2801 7.48740E+01 9.98150E+00 0.00000E+00
 -1      2802 8.01240E+01 8.68250E+00 0.00000E+00
 -1      2803 7.86240E+01 8.68250E+00 0.00000E+00
 -1      2804 7.78740E+01 9.98150E+00 0.00000E+00
 -1      2805 8.31240E+01 8.68250E+00 0.00000E+00
 -1      2806 8.16240E+01 8.68250E+00 0.00000E+00
 -1      2807 8.08740E+01 9.98150E+00 0.00000E+00
 -1      2808 8.61240E+01 8.68250E+00 0.00000E+00
 -1      2809 8.46240E+01 8.68250E+00 0.00000E+00
 -1      2810 8.38740E+01 9.98150E+00 0.00000E+00
 -1      2811 8.91240E+01 8.68250E+00 0.00000E+00
 -1      2812 8.76240E+01 8.68250E+00 0.00000E+00
 -1      2813 8.68740E+01 9.98150E+00 0.00000E+00
 -1      2814 9.21240E+01 8.68250E+00 0.00000E+00
 -1      2815 9.06240E+01 8.68250E+00 0.00000E+00
 -1      2816 8.98740E+01 9.98150E+00 0.00000E+00
 -1      2817 9.51240E+01 8.68250E+00 0.00000E+00
 -1      2818 9.36240E+01 8.68250E+00 0.00000E+00
 -1      2819 9.28740E+01 9.98150E+00 0.00000E+00
 -1      2820 9.81240E+01 8.68250E+00 0.00000E+00
 -1      2821 9.66240E+01 8.68250E+00 0.00000E+00
 -1      2822 9.58740E+01 9.98150E+00 0.00000E+00
 -1      2823 1.01124E+02 8.68250E+00 0.00000E+00
 -1      2824 9.96240E+01 8.68250E+00 0.00000E+00
 -1      2825 9.88740E+01 9.98150E+00 0.00000E+00
 -1      2826 1.04124E+02 8.68250E+00 0.00000E+00
 -1      2827 1.02624E+02 8.68250E+00 0.00000E+00
 -1      2828 1.01874E+02 9.98150E+00 0.00000E+00
 -1      2829 1.07124E+02 8.68250E+00 0.00000E+00
 -1      2830 1.05624E+02 8.68250E+00 0.00000E+00
 -1      2831 1.04874E+02 9.98150E+00 0.00000E+00
 -1      2832 1.10124E+02 8.68250E+00 0.00000E+00
 -1      2833 1.08624E+02 8.68250E+00 0.00000E+00
 -1      2834 1.07874E+02 9.98150E+00 0.00000E+00
 -1      2835 1.13124E+02 8.68250E+00 0.00000E+00
 -1      2836 1.11624E+02 8.68250E+00 0.00000E+00
 -1      2837 1.10874E+02 9.98150E+00 0.00000E+00
 -1      2838 1.16124E+02 8.68250E+00 0.00000E+00
 -1      2839 1.14624E+02 8.68250E+00 0.00000E+00
 -1      2840 1.13874E+02 9.98150E+00 0.00000E+00
 -1      2841 1.19124E+02 8.68250E+00 0.00000E+00
 -1      2842 1.17624E+02 8.68250E+00 0.00000E+00
 -1      2843 1.16874E+02 9.98150E+00 0.00000E+00
 -1      2844 1.22124E+02 8.68250E+00 0.00000E+00
 -1      2845 1.20624E+02 8.68250E+00 0.00000E+00
 -1      2846 1.19874E+02 9.98150E+00 0.00000E+00
 -1      2847 1.25124E+02 8.68250E+00 0.00000E+00
 -1      2848 1.23624E+02 8.68250E+00 0.00000E+00
 -1      2849 1.22874E+02 9.98150E+00 0.00000E+00
 -1      2850 1.28124E+02 8.68250E+00 0.00000E+00
 -1      2851 1.26624E+02 8.68250E+00 0.00000E+00
 -1      2852 1.25874E+02 9.98150E+00 0.00000E+00
 -1      2853 1.31124E+02 8.68250E+00 0.00000E+00
 -1      2854 1.29624E+02 8.68250E+00 0.00000E+00
 -1      2855 1.28874E+02 9.98150E+00 0.00000E+00
 -1      2856 1.34124E+02 8.68250E+00 0.00000E+00
 -1      2857 1.32624E+02 8.68250E+00 0.00000E+00
 -1      2858 1.31874E+02 9.98150E+00 0.00000E+00
 -1      2859 1.37082E+02 8.76838E+00 0.00000E+00
 -1      2860 1.35582E+02 8.76838E+00 0.00000E+00
 -1      2861 1.34832E+02 1.00674E+01 0.00000E+00
 -1      2862 1.37748E+02 1.02391E+01 0.00000E+00
 -1      2863 1.40907E+02 2.13375E+01 0.00000E+00
 -1      2864 1.40907E+02 1.98625E+01 0.00000E+00
 -1      2865 1.40706E+02 1.18000E+01 0.00000E+00
 -1      2866 3.41618E+01 4.22622E+01 0.00000E+00
 -1      2867 3.50624E+01 4.29889E+01 0.00000E+00
 -1      2868 3.43493E+01 4.11505E+01 0.00000E+00
 -1      2869 1.40907E+02 1.83875E+01 0.00000E+00
 -1      2870 1.40907E+02 1.69125E+01 0.00000E+00
 -1      2871 1.39608E+02 1.91250E+01 0.00000E+00
 -1      2872 1.40907E+02 2.72375E+01 0.00000E+00
 -1      2873 1.40907E+02 2.57625E+01 0.00000E+00
 -1      2874 1.40907E+02 3.01375E+01 0.00000E+00
 -1      2875 1.40907E+02 2.86875E+01 0.00000E+00
 -1      2876 1.39608E+02 2.79500E+01 0.00000E+00
 -1      2877 1.40907E+02 3.30875E+01 0.00000E+00
 -1      2878 1.40907E+02 3.16125E+01 0.00000E+00
 -1      2879 1.39608E+02 3.08750E+01 0.00000E+00
 -1      2880 1.40907E+02 3.60375E+01 0.00000E+00
 -1      2881 1.40907E+02 3.45625E+01 0.00000E+00
 -1      2882 1.39608E+02 3.38250E+01 0.00000E+00
 -1      2883 1.40740E+02 3.88200E+01 0.00000E+00
 -1      2884 1.40740E+02 3.73450E+01 0.00000E+00
 -1      2885 1.39441E+02 3.66075E+01 0.00000E+00
 -1      2886 1.39107E+02 3.92225E+01 0.00000E+00
 -1      2887 2.01240E+01 8.68250E+00 0.00000E+00
 -1      2888 1.86240E+01 8.68250E+00 0.00000E+00
 -1      2889 1.78740E+01 9.98150E+00 0.00000E+00
 -1      2890 3.17162E+01 3.16073E+01 0.00000E+00
 -1      2891 3.24313E+01 3.24941E+01 0.00000E+00
 -1      2892 2.77998E+01 2.83173E+01 0.00000E+00
 -1      2893 2.89904E+01 2.90108E+01 0.00000E+00
 -1      2894 1.56333E+01 2.92977E+01 0.00000E+00
 -1      2895 1.66447E+01 2.86284E+01 0.00000E+00
 -1      2896 2.31240E+01 8.68250E+00 0.00000E+00
 -1      2897 2.16240E+01 8.68250E+00 0.00000E+00
 -1      2898 2.08740E+01 9.98150E+00 0.00000E+00
 -1      2899 2.38740E+01 9.98150E+00 0.00000E+00
 -1      2900 1.06516E+01 3.74851E+01 0.00000E+00
 -1      2901 1.09844E+01 3.63382E+01 0.00000E+00
 -1      2902 3.65624E+01 4.29051E+01 0.00000E+00
 -1      2903 1.40907E+02 2.42875E+01 0.00000E+00
 -1      2904 1.40907E+02 2.28125E+01 0.00000E+00
 -1      2905 1.39608E+02 2.50250E+01 0.00000E+00
 -1      2906 1.40907E+02 1.54625E+01 0.00000E+00
 -1      2907 1.40907E+02 1.40125E+01 0.00000E+00
 -1      2908 1.39608E+02 1.62000E+01 0.00000E+00
 -1      2909 2.57219E+01 2.73838E+01 0.00000E+00
 -1      2910 2.66032E+01 2.76665E+01 0.00000E+00
 -1      2911 3.00848E+01 3.00393E+01 0.00000E+00
 -1      2912 3.08091E+01 3.08575E+01 0.00000E+00
 -1      2913 3.21240E+01 8.68250E+00 0.00000E+00
 -1      2914 3.06240E+01 8.68250E+00 0.00000E+00
 -1      2915 2.98740E+01 9.98150E+00 0.00000E+00
 -1      2916 3.28740E+01 9.98150E+00 0.00000E+00
 -1      2917 1.09098E+01 4.18597E+01 0.00000E+00
 -1      2918 2.30699E+01 2.71135E+01 0.00000E+00
 -1      2919 2.43959E+01 2.72486E+01 0.00000E+00
 -1      2920 2.51497E+01 2.64139E+01 0.00000E+00
 -1      2921 1.13521E+01 3.52282E+01 0.00000E+00
 -1      2922 1.17103E+01 3.42875E+01 0.00000E+00
 -1      2923 1.78389E+01 2.78368E+01 0.00000E+00
 -1      2924 1.89792E+01 2.74158E+01 0.00000E+00
 -1      2925 3.86250E+01 4.26340E+01 0.00000E+00
 -1      2926 4.01250E+01 4.26340E+01 0.00000E+00
 -1      2927 4.08750E+01 4.13350E+01 0.00000E+00
 -1      2928 3.30204E+01 3.37642E+01 0.00000E+00
 -1      2929 3.35228E+01 3.48505E+01 0.00000E+00
 -1      2930 9.09300E+00 1.68813E+01 0.00000E+00
 -1      2931 9.09300E+00 1.83563E+01 0.00000E+00
 -1      2932 1.03920E+01 1.90812E+01 0.00000E+00
 -1      2933 1.03920E+01 1.61437E+01 0.00000E+00
 -1      2934 1.36977E+01 3.09416E+01 0.00000E+00
 -1      2935 1.45779E+01 3.01261E+01 0.00000E+00
 -1      2936 3.39002E+01 3.61465E+01 0.00000E+00
 -1      2937 3.41065E+01 3.72358E+01 0.00000E+00
 -1      2938 9.67768E+00 3.15053E+01 0.00000E+00
 -1      2939 9.67768E+00 3.29803E+01 0.00000E+00
 -1      2940 2.04374E+01 2.73417E+01 0.00000E+00
 -1      2941 2.16433E+01 2.72323E+01 0.00000E+00
 -1      2942 1.00392E+01 4.14392E+01 0.00000E+00
 -1      2943 1.04490E+01 4.05452E+01 0.00000E+00
 -1      2944 1.04435E+01 3.92111E+01 0.00000E+00
 -1      2945 8.71318E+00 4.10383E+01 0.00000E+00
 -1      2946 1.03807E+01 2.49750E+01 0.00000E+00
 -1      2947 9.08174E+00 2.57000E+01 0.00000E+00
 -1      2948 9.07048E+00 2.71750E+01 0.00000E+00
 -1      2949 9.00375E+00 8.96981E+00 0.00000E+00
 -1      2950 1.03027E+01 9.70731E+00 0.00000E+00
 -1      2951 3.44274E+01 3.52433E+01 0.00000E+00
 -1      2952 1.46104E+01 2.90763E+01 0.00000E+00
 -1      2953 1.25807E+01 3.10327E+01 0.00000E+00
 -1      2954 1.48740E+01 9.98151E+00 0.00000E+00
 -1      2955 1.41240E+01 8.68251E+00 0.00000E+00
 -1      2956 1.39608E+02 2.20750E+01 0.00000E+00
 -1      2957 1.68599E+01 2.74563E+01 0.00000E+00
 -1      2958 1.11681E+01 3.33067E+01 0.00000E+00
 -1      2959 1.03621E+01 3.55627E+01 0.00000E+00
 -1      2960 1.39407E+02 1.25375E+01 0.00000E+00
 -1      2961 3.49454E+01 4.05455E+01 0.00000E+00
 -1      2962 1.30515E+01 8.34733E+00 0.00000E+00
 -1      2963 2.76723E+01 2.71999E+01 0.00000E+00
 -1      2964 3.19647E+01 3.06575E+01 0.00000E+00
 -1      2965 2.99633E+01 2.88792E+01 0.00000E+00
 -1      2966 3.34609E+01 3.26773E+01 0.00000E+00
 -1      2967 8.87167E+00 3.52363E+01 0.00000E+00
 -1      2968 8.87167E+00 3.67051E+01 0.00000E+00
 -1      2969 8.68842E+00 3.97347E+01 0.00000E+00
 -1      2970 3.73124E+01 4.16061E+01 0.00000E+00
 -1      2971 3.47229E+01 3.78766E+01 0.00000E+00
 -1      2972 3.53393E+01 3.85175E+01 0.00000E+00
 -1      2973 3.54212E+01 3.71802E+01 0.00000E+00
 -1      2974 2.23971E+01 2.63976E+01 0.00000E+00
 -1      2975 1.95123E+01 2.65905E+01 0.00000E+00
 -1      2976 9.20610E+00 2.98762E+01 0.00000E+00
 -1      2977 1.11348E+01 3.05315E+01 0.00000E+00
 -1      2978 1.21091E+01 2.94036E+01 0.00000E+00
 -1      2979 9.21737E+00 2.84012E+01 0.00000E+00
 -1      2980 1.16910E+01 1.24625E+01 0.00000E+00
 -1      2981 1.16910E+01 1.39375E+01 0.00000E+00
 -1      2982 1.14712E+01 7.20138E+00 0.00000E+00
 -1      2983 1.17938E+01 8.83558E+00 0.00000E+00
 -1      2984 1.18830E+01 1.08533E+01 0.00000E+00
 -1      2985 2.76240E+01 1.12805E+01 0.00000E+00
 -1      2986 2.61240E+01 1.12805E+01 0.00000E+00
 -1      2987 4.31250E+01 4.00360E+01 0.00000E+00
 -1      2988 4.46250E+01 4.00360E+01 0.00000E+00
 -1      2989 1.86240E+01 1.12805E+01 0.00000E+00
 -1      2990 1.71240E+01 1.12805E+01 0.00000E+00
 -1      2991 1.38309E+02 2.28125E+01 0.00000E+00
 -1      2992 1.38309E+02 2.13375E+01 0.00000E+00
 -1      2993 4.61250E+01 4.00360E+01 0.00000E+00
 -1      2994 4.76250E+01 4.00360E+01 0.00000E+00
 -1      2995 4.53750E+01 3.87370E+01 0.00000E+00
 -1      2996 4.91250E+01 4.00360E+01 0.00000E+00
 -1      2997 5.06250E+01 4.00360E+01 0.00000E+00
 -1      2998 4.83750E+01 3.87370E+01 0.00000E+00
 -1      2999 5.21250E+01 4.00360E+01 0.00000E+00
 -1      3000 5.36250E+01 4.00360E+01 0.00000E+00
 -1      3001 5.13750E+01 3.87370E+01 0.00000E+00
 -1      3002 5.51250E+01 4.00360E+01 0.00000E+00
 -1      3003 5.66250E+01 4.00360E+01 0.00000E+00
 -1      3004 5.43750E+01 3.87370E+01 0.00000E+00
 -1      3005 5.81250E+01 4.00360E+01 0.00000E+00
 -1      3006 5.96250E+01 4.00360E+01 0.00000E+00
 -1      3007 5.73750E+01 3.87370E+01 0.00000E+00
 -1      3008 6.12000E+01 4.00360E+01 0.00000E+00
 -1      3009 6.27750E+01 4.00360E+01 0.00000E+00
 -1      3010 6.04500E+01 3.87370E+01 0.00000E+00
 -1      3011 6.42750E+01 4.00360E+01 0.00000E+00
 -1      3012 6.57750E+01 4.00360E+01 0.00000E+00
 -1      3013 6.35250E+01 3.87370E+01 0.00000E+00
 -1      3014 6.72750E+01 4.00360E+01 0.00000E+00
 -1      3015 6.87750E+01 4.00360E+01 0.00000E+00
 -1      3016 6.65250E+01 3.87370E+01 0.00000E+00
 -1      3017 7.02750E+01 4.00360E+01 0.00000E+00
 -1      3018 7.17750E+01 4.00360E+01 0.00000E+00
 -1      3019 6.95250E+01 3.87370E+01 0.00000E+00
 -1      3020 7.32750E+01 4.00360E+01 0.00000E+00
 -1      3021 7.47750E+01 4.00360E+01 0.00000E+00
 -1      3022 7.25250E+01 3.87370E+01 0.00000E+00
 -1      3023 7.62750E+01 4.00360E+01 0.00000E+00
 -1      3024 7.77750E+01 4.00360E+01 0.00000E+00
 -1      3025 7.55250E+01 3.87370E+01 0.00000E+00
 -1      3026 7.92750E+01 4.00360E+01 0.00000E+00
 -1      3027 8.07750E+01 4.00360E+01 0.00000E+00
 -1      3028 7.85250E+01 3.87370E+01 0.00000E+00
 -1      3029 8.22750E+01 4.00360E+01 0.00000E+00
 -1      3030 8.37750E+01 4.00360E+01 0.00000E+00
 -1      3031 8.15250E+01 3.87370E+01 0.00000E+00
 -1      3032 8.52750E+01 4.00360E+01 0.00000E+00
 -1      3033 8.67750E+01 4.00360E+01 0.00000E+00
 -1      3034 8.45250E+01 3.87370E+01 0.00000E+00
 -1      3035 8.82750E+01 4.00360E+01 0.00000E+00
 -1      3036 8.97750E+01 4.00360E+01 0.00000E+00
 -1      3037 8.75250E+01 3.87370E+01 0.00000E+00
 -1      3038 9.12750E+01 4.00360E+01 0.00000E+00
 -1      3039 9.27750E+01 4.00360E+01 0.00000E+00
 -1      3040 9.05250E+01 3.87370E+01 0.00000E+00
 -1      3041 9.42750E+01 4.00360E+01 0.00000E+00
 -1      3042 9.57750E+01 4.00360E+01 0.00000E+00
 -1      3043 9.35250E+01 3.87370E+01 0.00000E+00
 -1      3044 9.72750E+01 4.00360E+01 0.00000E+00
 -1      3045 9.87750E+01 4.00360E+01 0.00000E+00
 -1      3046 9.65250E+01 3.87370E+01 0.00000E+00
 -1      3047 1.00275E+02 4.00360E+01 0.00000E+00
 -1      3048 1.01775E+02 4.00360E+01 0.00000E+00
 -1      3049 9.95250E+01 3.87370E+01 0.00000E+00
 -1      3050 1.03350E+02 4.00360E+01 0.00000E+00
 -1      3051 1.04925E+02 4.00360E+01 0.00000E+00
 -1      3052 1.02600E+02 3.87370E+01 0.00000E+00
 -1      3053 1.06425E+02 4.00360E+01 0.00000E+00
 -1      3054 1.07925E+02 4.00360E+01 0.00000E+00
 -1      3055 1.05675E+02 3.87370E+01 0.00000E+00
 -1      3056 1.09425E+02 4.00360E+01 0.00000E+00
 -1      3057 1.10925E+02 4.00360E+01 0.00000E+00
 -1      3058 1.08675E+02 3.87370E+01 0.00000E+00
 -1      3059 1.12425E+02 4.00360E+01 0.00000E+00
 -1      3060 1.13925E+02 4.00360E+01 0.00000E+00
 -1      3061 1.11675E+02 3.87370E+01 0.00000E+00
 -1      3062 1.15425E+02 4.00360E+01 0.00000E+00
 -1      3063 1.16925E+02 4.00360E+01 0.00000E+00
 -1      3064 1.14675E+02 3.87370E+01 0.00000E+00
 -1      3065 1.18425E+02 4.00360E+01 0.00000E+00
 -1      3066 1.19925E+02 4.00360E+01 0.00000E+00
 -1      3067 1.17675E+02 3.87370E+01 0.00000E+00
 -1      3068 1.21425E+02 4.00360E+01 0.00000E+00
 -1      3069 1.22925E+02 4.00360E+01 0.00000E+00
 -1      3070 1.20675E+02 3.87370E+01 0.00000E+00
 -1      3071 1.24425E+02 4.00360E+01 0.00000E+00
 -1      3072 1.25925E+02 4.00360E+01 0.00000E+00
 -1      3073 1.23675E+02 3.87370E+01 0.00000E+00
 -1      3074 1.27425E+02 4.00360E+01 0.00000E+00
 -1      3075 1.28925E+02 4.00360E+01 0.00000E+00
 -1      3076 1.26675E+02 3.87370E+01 0.00000E+00
 -1      3077 1.30425E+02 4.00360E+01 0.00000E+00
 -1      3078 1.31925E+02 4.00360E+01 0.00000E+00
 -1      3079 1.29675E+02 3.87370E+01 0.00000E+00
 -1      3080 1.33425E+02 4.00360E+01 0.00000E+00
 -1      3081 1.34925E+02 4.00360E+01 0.00000E+00
 -1      3082 1.32675E+02 3.87370E+01 0.00000E+00
 -1      3083 1.36200E+02 3.98305E+01 0.00000E+00
 -1      3084 1.37833E+02 3.94280E+01 0.00000E+00
 -1      3085 1.37999E+02 3.81205E+01 0.00000E+00
 -1      3086 1.35450E+02 3.85315E+01 0.00000E+00
 -1      3087 3.96240E+01 1.12805E+01 0.00000E+00
 -1      3088 3.81240E+01 1.12805E+01 0.00000E+00
 -1      3089 3.66240E+01 1.12805E+01 0.00000E+00
 -1      3090 3.51240E+01 1.12805E+01 0.00000E+00
 -1      3091 3.73740E+01 1.25795E+01 0.00000E+00
 -1      3092 4.56240E+01 1.12805E+01 0.00000E+00
 -1      3093 4.41240E+01 1.12805E+01 0.00000E+00
 -1      3094 4.86240E+01 1.12805E+01 0.00000E+00
 -1      3095 4.71240E+01 1.12805E+01 0.00000E+00
 -1      3096 4.63740E+01 1.25795E+01 0.00000E+00
 -1      3097 5.16240E+01 1.12805E+01 0.00000E+00
 -1      3098 5.01240E+01 1.12805E+01 0.00000E+00
 -1      3099 4.93740E+01 1.25795E+01 0.00000E+00
 -1      3100 5.46240E+01 1.12805E+01 0.00000E+00
 -1      3101 5.31240E+01 1.12805E+01 0.00000E+00
 -1      3102 5.23740E+01 1.25795E+01 0.00000E+00
 -1      3103 5.76240E+01 1.12805E+01 0.00000E+00
 -1      3104 5.61240E+01 1.12805E+01 0.00000E+00
 -1      3105 5.53740E+01 1.25795E+01 0.00000E+00
 -1      3106 6.06240E+01 1.12805E+01 0.00000E+00
 -1      3107 5.91240E+01 1.12805E+01 0.00000E+00
 -1      3108 5.83740E+01 1.25795E+01 0.00000E+00
 -1      3109 6.36240E+01 1.12805E+01 0.00000E+00
 -1      3110 6.21240E+01 1.12805E+01 0.00000E+00
 -1      3111 6.13740E+01 1.25795E+01 0.00000E+00
 -1      3112 6.66240E+01 1.12805E+01 0.00000E+00
 -1      3113 6.51240E+01 1.12805E+01 0.00000E+00
 -1      3114 6.43740E+01 1.25795E+01 0.00000E+00
 -1      3115 6.96240E+01 1.12805E+01 0.00000E+00
 -1      3116 6.81240E+01 1.12805E+01 0.00000E+00
 -1      3117 6.73740E+01 1.25795E+01 0.00000E+00
 -1      3118 7.26240E+01 1.12805E+01 0.00000E+00
 -1      3119 7.11240E+01 1.12805E+01 0.00000E+00
 -1      3120 7.03740E+01 1.25795E+01 0.00000E+00
 -1      3121 7.56240E+01 1.12805E+01 0.00000E+00
 -1      3122 7.41240E+01 1.12805E+01 0.00000E+00
 -1      3123 7.33740E+01 1.25795E+01 0.00000E+00
 -1      3124 7.86240E+01 1.12805E+01 0.00000E+00
 -1      3125 7.71240E+01 1.12805E+01 0.00000E+00
 -1      3126 7.63740E+01 1.25795E+01 0.00000E+00
 -1      3127 8.16240E+01 1.12805E+01 0.00000E+00
 -1      3128 8.01240E+01 1.12805E+01 0.00000E+00
 -1      3129 7.93740E+01 1.25795E+01 0.00000E+00
 -1      3130 8.46240E+01 1.12805E+01 0.00000E+00
 -1      3131 8.31240E+01 1.12805E+01 0.00000E+00
 -1      3132 8.23740E+01 1.25795E+01 0.00000E+00
 -1      3133 8.76240E+01 1.12805E+01 0.00000E+00
 -1      3134 8.61240E+01 1.12805E+01 0.00000E+00
 -1      3135 8.53740E+01 1.25795E+01 0.00000E+00
 -1      3136 9.06240E+01 1.12805E+01 0.00000E+00
 -1      3137 8.91240E+01 1.12805E+01 0.00000E+00
 -1      3138 8.83740E+01 1.25795E+01 0.00000E+00
 -1      3139 9.36240E+01 1.12805E+01 0.00000E+00
 -1      3140 9.21240E+01 1.12805E+01 0.00000E+00
 -1      3141 9.13740E+01 1.25795E+01 0.00000E+00
 -1      3142 9.66240E+01 1.12805E+01 0.00000E+00
 -1      3143 9.51240E+01 1.12805E+01 0.00000E+00
 -1      3144 9.43740E+01 1.25795E+01 0.00000E+00
 -1      3145 9.96240E+01 1.12805E+01 0.00000E+00
 -1      3146 9.81240E+01 1.12805E+01 0.00000E+00
 -1      3147 9.73740E+01 1.25795E+01 0.00000E+00
 -1      3148 1.02624E+02 1.12805E+01 0.00000E+00
 -1      3149 1.01124E+02 1.12805E+01 0.00000E+00
 -1      3150 1.00374E+02 1.25795E+01 0.00000E+00
 -1      3151 1.05624E+02 1.12805E+01 0.00000E+00
 -1      3152 1.04124E+02 1.12805E+01 0.00000E+00
 -1      3153 1.03374E+02 1.25795E+01 0.00000E+00
 -1      3154 1.08624E+02 1.12805E+01 0.00000E+00
 -1      3155 1.07124E+02 1.12805E+01 0.00000E+00
 -1      3156 1.06374E+02 1.25795E+01 0.00000E+00
 -1      3157 1.11624E+02 1.12805E+01 0.00000E+00
 -1      3158 1.10124E+02 1.12805E+01 0.00000E+00
 -1      3159 1.09374E+02 1.25795E+01 0.00000E+00
 -1      3160 1.14624E+02 1.12805E+01 0.00000E+00
 -1      3161 1.13124E+02 1.12805E+01 0.00000E+00
 -1      3162 1.12374E+02 1.25795E+01 0.00000E+00
 -1      3163 1.17624E+02 1.12805E+01 0.00000E+00
 -1      3164 1.16124E+02 1.12805E+01 0.00000E+00
 -1      3165 1.15374E+02 1.25795E+01 0.00000E+00
 -1      3166 1.20624E+02 1.12805E+01 0.00000E+00
 -1      3167 1.19124E+02 1.12805E+01 0.00000E+00
 -1      3168 1.18374E+02 1.25795E+01 0.00000E+00
 -1      3169 1.23624E+02 1.12805E+01 0.00000E+00
 -1      3170 1.22124E+02 1.12805E+01 0.00000E+00
 -1      3171 1.21374E+02 1.25795E+01 0.00000E+00
 -1      3172 1.26624E+02 1.12805E+01 0.00000E+00
 -1      3173 1.25124E+02 1.12805E+01 0.00000E+00
 -1      3174 1.24374E+02 1.25795E+01 0.00000E+00
 -1      3175 1.29624E+02 1.12805E+01 0.00000E+00
 -1      3176 1.28124E+02 1.12805E+01 0.00000E+00
 -1      3177 1.27374E+02 1.25795E+01 0.00000E+00
 -1      3178 1.32624E+02 1.12805E+01 0.00000E+00
 -1      3179 1.31124E+02 1.12805E+01 0.00000E+00
 -1      3180 1.30374E+02 1.25795E+01 0.00000E+00
 -1      3181 1.38309E+02 3.45625E+01 0.00000E+00
 -1      3182 1.38309E+02 3.30875E+01 0.00000E+00
 -1      3183 1.56501E+01 2.69278E+01 0.00000E+00
 -1      3184 1.68443E+01 2.61362E+01 0.00000E+00
 -1      3185 1.38309E+02 1.98625E+01 0.00000E+00
 -1      3186 1.38309E+02 1.83875E+01 0.00000E+00
 -1      3187 1.37010E+02 2.06000E+01 0.00000E+00
 -1      3188 1.38309E+02 3.16125E+01 0.00000E+00
 -1      3189 1.38309E+02 3.01375E+01 0.00000E+00
 -1      3190 1.37010E+02 3.23500E+01 0.00000E+00
 -1      3191 1.38309E+02 2.86875E+01 0.00000E+00
 -1      3192 1.38309E+02 2.72375E+01 0.00000E+00
 -1      3193 1.37010E+02 2.94250E+01 0.00000E+00
 -1      3194 1.01831E+01 3.85360E+01 0.00000E+00
 -1      3195 9.52594E+00 3.77236E+01 0.00000E+00
 -1      3196 2.75638E+01 2.59739E+01 0.00000E+00
 -1      3197 2.87604E+01 2.66247E+01 0.00000E+00
 -1      3198 9.23934E+00 3.41264E+01 0.00000E+00
 -1      3199 3.40203E+01 3.16462E+01 0.00000E+00
 -1      3200 3.46093E+01 3.29162E+01 0.00000E+00
 -1      3201 1.38309E+02 2.57625E+01 0.00000E+00
 -1      3202 1.38309E+02 2.42875E+01 0.00000E+00
 -1      3203 1.37010E+02 2.35500E+01 0.00000E+00
 -1      3204 1.37010E+02 2.65000E+01 0.00000E+00
 -1      3205 3.20575E+01 2.96216E+01 0.00000E+00
 -1      3206 3.29646E+01 3.03714E+01 0.00000E+00
 -1      3207 1.38309E+02 1.69375E+01 0.00000E+00
 -1      3208 1.38309E+02 1.54875E+01 0.00000E+00
 -1      3209 1.37010E+02 1.76750E+01 0.00000E+00
 -1      3210 3.01755E+01 2.75569E+01 0.00000E+00
 -1      3211 3.12699E+01 2.85854E+01 0.00000E+00
 -1      3212 1.38129E+02 1.39696E+01 0.00000E+00
 -1      3213 1.37928E+02 1.17571E+01 0.00000E+00
 -1      3214 1.36470E+02 1.16712E+01 0.00000E+00
 -1      3215 1.36830E+02 1.47071E+01 0.00000E+00
 -1      3216 4.01250E+01 4.00360E+01 0.00000E+00
 -1      3217 4.16250E+01 4.00360E+01 0.00000E+00
 -1      3218 4.23750E+01 3.87370E+01 0.00000E+00
 -1      3219 3.51424E+01 3.43321E+01 0.00000E+00
 -1      3220 3.55199E+01 3.56281E+01 0.00000E+00
 -1      3221 1.34498E+01 2.86842E+01 0.00000E+00
 -1      3222 1.45051E+01 2.78558E+01 0.00000E+00
 -1      3223 1.31820E+01 1.15908E+01 0.00000E+00
 -1      3224 4.26240E+01 1.12805E+01 0.00000E+00
 -1      3225 4.11240E+01 1.12805E+01 0.00000E+00
 -1      3226 4.03740E+01 1.25795E+01 0.00000E+00
 -1      3227 4.33740E+01 1.25795E+01 0.00000E+00
 -1      3228 2.45992E+01 2.52431E+01 0.00000E+00
 -1      3229 2.59252E+01 2.53783E+01 0.00000E+00
 -1      3230 2.16056E+01 2.55189E+01 0.00000E+00
 -1      3231 2.30323E+01 2.54001E+01 0.00000E+00
 -1      3232 1.86892E+01 2.56671E+01 0.00000E+00
 -1      3233 2.01474E+01 2.55930E+01 0.00000E+00
 -1      3234 2.07826E+01 2.45955E+01 0.00000E+00
 -1      3235 1.16910E+01 2.12875E+01 0.00000E+00
 -1      3236 1.16910E+01 2.27625E+01 0.00000E+00
 -1      3237 9.31792E+00 3.94496E+01 0.00000E+00
 -1      3238 8.42798E+00 3.90596E+01 0.00000E+00
 -1      3239 8.40322E+00 3.77560E+01 0.00000E+00
 -1      3240 2.53740E+01 1.25795E+01 0.00000E+00
 -1      3241 2.46240E+01 1.12805E+01 0.00000E+00
 -1      3242 2.31240E+01 1.12805E+01 0.00000E+00
 -1      3243 2.70133E+01 2.48031E+01 0.00000E+00
 -1      3244 1.56240E+01 1.12805E+01 0.00000E+00
 -1      3245 1.41241E+01 1.12805E+01 0.00000E+00
 -1      3246 1.05164E+01 2.76762E+01 0.00000E+00
 -1      3247 3.43740E+01 1.25795E+01 0.00000E+00
 -1      3248 3.36240E+01 1.12805E+01 0.00000E+00
 -1      3249 3.21240E+01 1.12805E+01 0.00000E+00
 -1      3250 3.42059E+01 2.95744E+01 0.00000E+00
 -1      3251 3.41131E+01 3.06103E+01 0.00000E+00
 -1      3252 3.52616E+01 3.08493E+01 0.00000E+00
 -1      3253 1.35276E+02 1.15188E+01 0.00000E+00
 -1      3254 1.33818E+02 1.14329E+01 0.00000E+00
 -1      3255 1.33068E+02 1.27319E+01 0.00000E+00
 -1      3256 1.35456E+02 1.30367E+01 0.00000E+00
 -1      3257 3.86445E+01 4.00473E+01 0.00000E+00
 -1      3258 3.93945E+01 3.87483E+01 0.00000E+00
 -1      3259 1.62696E+01 2.46103E+01 0.00000E+00
 -1      3260 1.74794E+01 2.51387E+01 0.00000E+00
 -1      3261 1.81146E+01 2.41412E+01 0.00000E+00
 -1      3262 3.22698E+01 2.82993E+01 0.00000E+00
 -1      3263 1.39320E+01 1.28898E+01 0.00000E+00
 -1      3264 3.56292E+01 3.96886E+01 0.00000E+00
 -1      3265 3.59336E+01 4.10202E+01 0.00000E+00
 -1      3266 1.38071E+02 3.69953E+01 0.00000E+00
 -1      3267 1.38238E+02 3.56878E+01 0.00000E+00
 -1      3268 1.36939E+02 3.49503E+01 0.00000E+00
 -1      3269 1.36796E+02 3.72008E+01 0.00000E+00
 -1      3270 3.00670E+01 2.63309E+01 0.00000E+00
 -1      3271 2.38077E+01 2.43644E+01 0.00000E+00
 -1      3272 1.44895E+01 2.65357E+01 0.00000E+00
 -1      3273 2.16240E+01 1.12805E+01 0.00000E+00
 -1      3274 2.01240E+01 1.12805E+01 0.00000E+00
 -1      3275 2.23740E+01 1.25795E+01 0.00000E+00
 -1      3276 1.29900E+01 1.46687E+01 0.00000E+00
 -1      3277 1.16910E+01 1.54063E+01 0.00000E+00
 -1      3278 1.16910E+01 1.68750E+01 0.00000E+00
 -1      3279 3.61362E+01 3.62690E+01 0.00000E+00
 -1      3280 3.67526E+01 3.69098E+01 0.00000E+00
 -1      3281 3.68513E+01 3.53578E+01 0.00000E+00
 -1      3282 1.93740E+01 1.25795E+01 0.00000E+00
 -1      3283 3.57019E+01 3.33010E+01 0.00000E+00
 -1      3284 3.79962E+01 4.07492E+01 0.00000E+00
 -1      3285 3.06240E+01 1.12805E+01 0.00000E+00
 -1      3286 2.91240E+01 1.12805E+01 0.00000E+00
 -1      3287 3.13740E+01 1.25795E+01 0.00000E+00
 -1      3288 3.63275E+01 3.89922E+01 0.00000E+00
 -1      3289 1.20039E+01 2.81830E+01 0.00000E+00
 -1      3290 2.83740E+01 1.25795E+01 0.00000E+00
 -1      3291 1.16910E+01 1.83469E+01 0.00000E+00
 -1      3292 1.16910E+01 1.98156E+01 0.00000E+00
 -1      3293 1.29900E+01 2.05531E+01 0.00000E+00
 -1      3294 1.29900E+01 1.76094E+01 0.00000E+00
 -1      3295 1.31672E+01 2.47443E+01 0.00000E+00
 -1      3296 1.18682E+01 2.54818E+01 0.00000E+00
 -1      3297 1.63740E+01 1.25795E+01 0.00000E+00
 -1      3298 1.18570E+01 2.69568E+01 0.00000E+00
 -1      3299 3.00155E+01 2.48688E+01 0.00000E+00
 -1      3300 3.14307E+01 2.58010E+01 0.00000E+00
 -1      3301 4.76250E+01 3.74380E+01 0.00000E+00
 -1      3302 4.91250E+01 3.74380E+01 0.00000E+00
 -1      3303 5.06250E+01 3.74380E+01 0.00000E+00
 -1      3304 5.21250E+01 3.74380E+01 0.00000E+00
 -1      3305 4.98750E+01 3.61390E+01 0.00000E+00
 -1      3306 5.36250E+01 3.74380E+01 0.00000E+00
 -1      3307 5.51250E+01 3.74380E+01 0.00000E+00
 -1      3308 5.28750E+01 3.61390E+01 0.00000E+00
 -1      3309 5.66250E+01 3.74380E+01 0.00000E+00
 -1      3310 5.81250E+01 3.74380E+01 0.00000E+00
 -1      3311 5.58750E+01 3.61390E+01 0.00000E+00
 -1      3312 5.97000E+01 3.74380E+01 0.00000E+00
 -1      3313 6.12750E+01 3.74380E+01 0.00000E+00
 -1      3314 5.89500E+01 3.61390E+01 0.00000E+00
 -1      3315 6.27750E+01 3.74380E+01 0.00000E+00
 -1      3316 6.42750E+01 3.74380E+01 0.00000E+00
 -1      3317 6.20250E+01 3.61390E+01 0.00000E+00
 -1      3318 6.57750E+01 3.74380E+01 0.00000E+00
 -1      3319 6.72750E+01 3.74380E+01 0.00000E+00
 -1      3320 6.50250E+01 3.61390E+01 0.00000E+00
 -1      3321 6.87750E+01 3.74380E+01 0.00000E+00
 -1      3322 7.02750E+01 3.74380E+01 0.00000E+00
 -1      3323 6.80250E+01 3.61390E+01 0.00000E+00
 -1      3324 7.17750E+01 3.74380E+01 0.00000E+00
 -1      3325 7.32750E+01 3.74380E+01 0.00000E+00
 -1      3326 7.10250E+01 3.61390E+01 0.00000E+00
 -1      3327 7.47750E+01 3.74380E+01 0.00000E+00
 -1      3328 7.62750E+01 3.74380E+01 0.00000E+00
 -1      3329 7.40250E+01 3.61390E+01 0.00000E+00
 -1      3330 7.77750E+01 3.74380E+01 0.00000E+00
 -1      3331 7.92750E+01 3.74380E+01 0.00000E+00
 -1      3332 7.70250E+01 3.61390E+01 0.00000E+00
 -1      3333 8.07750E+01 3.74380E+01 0.00000E+00
 -1      3334 8.22750E+01 3.74380E+01 0.00000E+00
 -1      3335 8.00250E+01 3.61390E+01 0.00000E+00
 -1      3336 8.37750E+01 3.74380E+01 0.00000E+00
 -1      3337 8.52750E+01 3.74380E+01 0.00000E+00
 -1      3338 8.30250E+01 3.61390E+01 0.00000E+00
 -1      3339 8.67750E+01 3.74380E+01 0.00000E+00
 -1      3340 8.82750E+01 3.74380E+01 0.00000E+00
 -1      3341 8.60250E+01 3.61390E+01 0.00000E+00
 -1      3342 8.97750E+01 3.74380E+01 0.00000E+00
 -1      3343 9.12750E+01 3.74380E+01 0.00000E+00
 -1      3344 8.90250E+01 3.61390E+01 0.00000E+00
 -1      3345 9.27750E+01 3.74380E+01 0.00000E+00
 -1      3346 9.42750E+01 3.74380E+01 0.00000E+00
 -1      3347 9.20250E+01 3.61390E+01 0.00000E+00
 -1      3348 9.57750E+01 3.74380E+01 0.00000E+00
 -1      3349 9.72750E+01 3.74380E+01 0.00000E+00
 -1      3350 9.50250E+01 3.61390E+01 0.00000E+00
 -1      3351 9.87750E+01 3.74380E+01 0.00000E+00
 -1      3352 1.00275E+02 3.74380E+01 0.00000E+00
 -1      3353 9.80250E+01 3.61390E+01 0.00000E+00
 -1      3354 1.01850E+02 3.74380E+01 0.00000E+00
 -1      3355 1.03425E+02 3.74380E+01 0.00000E+00
 -1      3356 1.01100E+02 3.61390E+01 0.00000E+00
 -1      3357 1.04925E+02 3.74380E+01 0.00000E+00
 -1      3358 1.06425E+02 3.74380E+01 0.00000E+00
 -1      3359 1.04175E+02 3.61390E+01 0.00000E+00
 -1      3360 1.07925E+02 3.74380E+01 0.00000E+00
 -1      3361 1.09425E+02 3.74380E+01 0.00000E+00
 -1      3362 1.07175E+02 3.61390E+01 0.00000E+00
 -1      3363 1.10925E+02 3.74380E+01 0.00000E+00
 -1      3364 1.12425E+02 3.74380E+01 0.00000E+00
 -1      3365 1.10175E+02 3.61390E+01 0.00000E+00
 -1      3366 1.13925E+02 3.74380E+01 0.00000E+00
 -1      3367 1.15425E+02 3.74380E+01 0.00000E+00
 -1      3368 1.13175E+02 3.61390E+01 0.00000E+00
 -1      3369 1.16925E+02 3.74380E+01 0.00000E+00
 -1      3370 1.18425E+02 3.74380E+01 0.00000E+00
 -1      3371 1.16175E+02 3.61390E+01 0.00000E+00
 -1      3372 1.19925E+02 3.74380E+01 0.00000E+00
 -1      3373 1.21425E+02 3.74380E+01 0.00000E+00
 -1      3374 1.19175E+02 3.61390E+01 0.00000E+00
 -1      3375 1.22925E+02 3.74380E+01 0.00000E+00
 -1      3376 1.24425E+02 3.74380E+01 0.00000E+00
 -1      3377 1.22175E+02 3.61390E+01 0.00000E+00
 -1      3378 1.25925E+02 3.74380E+01 0.00000E+00
 -1      3379 1.27425E+02 3.74380E+01 0.00000E+00
 -1      3380 1.25175E+02 3.61390E+01 0.00000E+00
 -1      3381 1.28925E+02 3.74380E+01 0.00000E+00
 -1      3382 1.30425E+02 3.74380E+01 0.00000E+00
 -1      3383 1.28175E+02 3.61390E+01 0.00000E+00
 -1      3384 1.31925E+02 3.74380E+01 0.00000E+00
 -1      3385 1.33425E+02 3.74380E+01 0.00000E+00
 -1      3386 1.31175E+02 3.61390E+01 0.00000E+00
 -1      3387 3.81240E+01 1.38785E+01 0.00000E+00
 -1      3388 3.66240E+01 1.38785E+01 0.00000E+00
 -1      3389 5.01240E+01 1.38785E+01 0.00000E+00
 -1      3390 4.86240E+01 1.38785E+01 0.00000E+00
 -1      3391 4.71240E+01 1.38785E+01 0.00000E+00
 -1      3392 4.56240E+01 1.38785E+01 0.00000E+00
 -1      3393 4.78740E+01 1.51775E+01 0.00000E+00
 -1      3394 5.61240E+01 1.38785E+01 0.00000E+00
 -1      3395 5.46240E+01 1.38785E+01 0.00000E+00
 -1      3396 5.91240E+01 1.38785E+01 0.00000E+00
 -1      3397 5.76240E+01 1.38785E+01 0.00000E+00
 -1      3398 5.68740E+01 1.51775E+01 0.00000E+00
 -1      3399 6.21240E+01 1.38785E+01 0.00000E+00
 -1      3400 6.06240E+01 1.38785E+01 0.00000E+00
 -1      3401 5.98740E+01 1.51775E+01 0.00000E+00
 -1      3402 6.51240E+01 1.38785E+01 0.00000E+00
 -1      3403 6.36240E+01 1.38785E+01 0.00000E+00
 -1      3404 6.28740E+01 1.51775E+01 0.00000E+00
 -1      3405 6.81240E+01 1.38785E+01 0.00000E+00
 -1      3406 6.66240E+01 1.38785E+01 0.00000E+00
 -1      3407 6.58740E+01 1.51775E+01 0.00000E+00
 -1      3408 7.11240E+01 1.38785E+01 0.00000E+00
 -1      3409 6.96240E+01 1.38785E+01 0.00000E+00
 -1      3410 6.88740E+01 1.51775E+01 0.00000E+00
 -1      3411 7.41240E+01 1.38785E+01 0.00000E+00
 -1      3412 7.26240E+01 1.38785E+01 0.00000E+00
 -1      3413 7.18740E+01 1.51775E+01 0.00000E+00
 -1      3414 7.71240E+01 1.38785E+01 0.00000E+00
 -1      3415 7.56240E+01 1.38785E+01 0.00000E+00
 -1      3416 7.48740E+01 1.51775E+01 0.00000E+00
 -1      3417 8.01240E+01 1.38785E+01 0.00000E+00
 -1      3418 7.86240E+01 1.38785E+01 0.00000E+00
 -1      3419 7.78740E+01 1.51775E+01 0.00000E+00
 -1      3420 8.31240E+01 1.38785E+01 0.00000E+00
 -1      3421 8.16240E+01 1.38785E+01 0.00000E+00
 -1      3422 8.08740E+01 1.51775E+01 0.00000E+00
 -1      3423 8.61240E+01 1.38785E+01 0.00000E+00
 -1      3424 8.46240E+01 1.38785E+01 0.00000E+00
 -1      3425 8.38740E+01 1.51775E+01 0.00000E+00
 -1      3426 8.91240E+01 1.38785E+01 0.00000E+00
 -1      3427 8.76240E+01 1.38785E+01 0.00000E+00
 -1      3428 8.68740E+01 1.51775E+01 0.00000E+00
 -1      3429 9.21240E+01 1.38785E+01 0.00000E+00
 -1      3430 9.06240E+01 1.38785E+01 0.00000E+00
 -1      3431 8.98740E+01 1.51775E+01 0.00000E+00
 -1      3432 9.51240E+01 1.38785E+01 0.00000E+00
 -1      3433 9.36240E+01 1.38785E+01 0.00000E+00
 -1      3434 9.28740E+01 1.51775E+01 0.00000E+00
 -1      3435 9.81240E+01 1.38785E+01 0.00000E+00
 -1      3436 9.66240E+01 1.38785E+01 0.00000E+00
 -1      3437 9.58740E+01 1.51775E+01 0.00000E+00
 -1      3438 1.01124E+02 1.38785E+01 0.00000E+00
 -1      3439 9.96240E+01 1.38785E+01 0.00000E+00
 -1      3440 9.88740E+01 1.51775E+01 0.00000E+00
 -1      3441 1.04124E+02 1.38785E+01 0.00000E+00
 -1      3442 1.02624E+02 1.38785E+01 0.00000E+00
 -1      3443 1.01874E+02 1.51775E+01 0.00000E+00
 -1      3444 1.07124E+02 1.38785E+01 0.00000E+00
 -1      3445 1.05624E+02 1.38785E+01 0.00000E+00
 -1      3446 1.04874E+02 1.51775E+01 0.00000E+00
 -1      3447 1.10124E+02 1.38785E+01 0.00000E+00
 -1      3448 1.08624E+02 1.38785E+01 0.00000E+00
 -1      3449 1.07874E+02 1.51775E+01 0.00000E+00
 -1      3450 1.13124E+02 1.38785E+01 0.00000E+00
 -1      3451 1.11624E+02 1.38785E+01 0.00000E+00
 -1      3452 1.10874E+02 1.51775E+01 0.00000E+00
 -1      3453 1.16124E+02 1.38785E+01 0.00000E+00
 -1      3454 1.14624E+02 1.38785E+01 0.00000E+00
 -1      3455 1.13874E+02 1.51775E+01 0.00000E+00
 -1      3456 1.19124E+02 1.38785E+01 0.00000E+00
 -1      3457 1.17624E+02 1.38785E+01 0.00000E+00
 -1      3458 1.16874E+02 1.51775E+01 0.00000E+00
 -1      3459 1.22124E+02 1.38785E+01 0.00000E+00
 -1      3460 1.20624E+02 1.38785E+01 0.00000E+00
 -1      3461 1.19874E+02 1.51775E+01 0.00000E+00
 -1      3462 1.25124E+02 1.38785E+01 0.00000E+00
 -1      3463 1.23624E+02 1.38785E+01 0.00000E+00
 -1      3464 1.22874E+02 1.51775E+01 0.00000E+00
 -1      3465 1.28124E+02 1.38785E+01 0.00000E+00
 -1      3466 1.26624E+02 1.38785E+01 0.00000E+00
 -1      3467 1.25874E+02 1.51775E+01 0.00000E+00
 -1      3468 1.31124E+02 1.38785E+01 0.00000E+00
 -1      3469 1.29624E+02 1.38785E+01 0.00000E+00
 -1      3470 1.28874E+02 1.51775E+01 0.00000E+00
 -1      3471 3.72657E+01 3.94614E+01 0.00000E+00
 -1      3472 2.65728E+01 2.34631E+01 0.00000E+00
 -1      3473 2.82114E+01 2.40587E+01 0.00000E+00
 -1      3474 1.35711E+02 2.13375E+01 0.00000E+00
 -1      3475 1.35711E+02 1.98625E+01 0.00000E+00
 -1      3476 1.35711E+02 3.30875E+01 0.00000E+00
 -1      3477 1.35711E+02 3.16125E+01 0.00000E+00
 -1      3478 1.35711E+02 3.01625E+01 0.00000E+00
 -1      3479 1.35711E+02 2.87125E+01 0.00000E+00
 -1      3480 1.34412E+02 3.09000E+01 0.00000E+00
 -1      3481 5.31240E+01 1.38785E+01 0.00000E+00
 -1      3482 5.16240E+01 1.38785E+01 0.00000E+00
 -1      3483 5.08740E+01 1.51775E+01 0.00000E+00
 -1      3484 5.38740E+01 1.51775E+01 0.00000E+00
 -1      3485 1.99972E+01 2.35251E+01 0.00000E+00
 -1      3486 2.14554E+01 2.34510E+01 0.00000E+00
 -1      3487 4.46250E+01 3.74380E+01 0.00000E+00
 -1      3488 4.61250E+01 3.74380E+01 0.00000E+00
 -1      3489 4.68750E+01 3.61390E+01 0.00000E+00
 -1      3490 3.26921E+01 2.71608E+01 0.00000E+00
 -1      3491 3.34797E+01 2.81971E+01 0.00000E+00
 -1      3492 1.48741E+01 1.40483E+01 0.00000E+00
 -1      3493 1.39320E+01 1.43585E+01 0.00000E+00
 -1      3494 1.39320E+01 1.58273E+01 0.00000E+00
 -1      3495 1.35711E+02 1.84125E+01 0.00000E+00
 -1      3496 1.35711E+02 1.69625E+01 0.00000E+00
 -1      3497 1.34412E+02 1.91500E+01 0.00000E+00
 -1      3498 4.16250E+01 3.74380E+01 0.00000E+00
 -1      3499 4.31250E+01 3.74380E+01 0.00000E+00
 -1      3500 4.38750E+01 3.61390E+01 0.00000E+00
 -1      3501 2.30223E+01 2.32940E+01 0.00000E+00
 -1      3502 2.45893E+01 2.31371E+01 0.00000E+00
 -1      3503 2.22370E+01 2.22236E+01 0.00000E+00
 -1      3504 2.01240E+01 1.38785E+01 0.00000E+00
 -1      3505 1.86240E+01 1.38785E+01 0.00000E+00
 -1      3506 3.69758E+01 3.82903E+01 0.00000E+00
 -1      3507 2.91240E+01 1.38785E+01 0.00000E+00
 -1      3508 2.76240E+01 1.38785E+01 0.00000E+00
 -1      3509 3.63947E+01 3.22319E+01 0.00000E+00
 -1      3510 3.69278E+01 3.36478E+01 0.00000E+00
 -1      3511 1.74990E+01 1.39634E+01 0.00000E+00
 -1      3512 1.59990E+01 1.39634E+01 0.00000E+00
 -1      3513 1.59990E+01 1.54321E+01 0.00000E+00
 -1      3514 1.82490E+01 1.52624E+01 0.00000E+00
 -1      3515 3.76909E+01 3.73791E+01 0.00000E+00
 -1      3516 2.95751E+01 2.35288E+01 0.00000E+00
 -1      3517 1.87874E+01 2.29966E+01 0.00000E+00
 -1      3518 1.94603E+01 2.18521E+01 0.00000E+00
 -1      3519 1.75776E+01 2.24682E+01 0.00000E+00
 -1      3520 3.46282E+01 2.84360E+01 0.00000E+00
 -1      3521 3.58740E+01 1.51775E+01 0.00000E+00
 -1      3522 3.51240E+01 1.38785E+01 0.00000E+00
 -1      3523 3.36240E+01 1.38785E+01 0.00000E+00
 -1      3524 3.96240E+01 1.38785E+01 0.00000E+00
 -1      3525 3.88740E+01 1.51775E+01 0.00000E+00
 -1      3526 4.11240E+01 1.38785E+01 0.00000E+00
 -1      3527 1.34473E+02 3.74222E+01 0.00000E+00
 -1      3528 1.35748E+02 3.72167E+01 0.00000E+00
 -1      3529 1.35819E+02 3.60914E+01 0.00000E+00
 -1      3530 1.33723E+02 3.61232E+01 0.00000E+00
 -1      3531 3.91713E+01 3.73678E+01 0.00000E+00
 -1      3532 1.35673E+02 1.57586E+01 0.00000E+00
 -1      3533 1.35493E+02 1.42406E+01 0.00000E+00
 -1      3534 1.34299E+02 1.40882E+01 0.00000E+00
 -1      3535 1.34374E+02 1.64961E+01 0.00000E+00
 -1      3536 4.48740E+01 1.51775E+01 0.00000E+00
 -1      3537 4.41240E+01 1.38785E+01 0.00000E+00
 -1      3538 4.26240E+01 1.38785E+01 0.00000E+00
 -1      3539 2.68740E+01 1.51775E+01 0.00000E+00
 -1      3540 2.61240E+01 1.38785E+01 0.00000E+00
 -1      3541 2.46240E+01 1.38785E+01 0.00000E+00
 -1      3542 1.35711E+02 2.28125E+01 0.00000E+00
 -1      3543 1.34412E+02 2.20750E+01 0.00000E+00
 -1      3544 1.35711E+02 2.42875E+01 0.00000E+00
 -1      3545 2.57874E+01 2.23927E+01 0.00000E+00
 -1      3546 2.69856E+01 2.16483E+01 0.00000E+00
 -1      3547 2.50020E+01 2.13222E+01 0.00000E+00
 -1      3548 1.50167E+01 2.45134E+01 0.00000E+00
 -1      3549 1.56518E+01 2.35159E+01 0.00000E+00
 -1      3550 3.65803E+01 3.01601E+01 0.00000E+00
 -1      3551 3.64875E+01 3.11960E+01 0.00000E+00
 -1      3552 3.77134E+01 3.15427E+01 0.00000E+00
 -1      3553 1.35711E+02 2.72375E+01 0.00000E+00
 -1      3554 1.35711E+02 2.57625E+01 0.00000E+00
 -1      3555 1.34412E+02 2.50250E+01 0.00000E+00
 -1      3556 3.26406E+01 2.56987E+01 0.00000E+00
 -1      3557 1.35891E+02 3.49661E+01 0.00000E+00
 -1      3558 1.34412E+02 2.79750E+01 0.00000E+00
 -1      3559 2.31240E+01 1.38785E+01 0.00000E+00
 -1      3560 2.16240E+01 1.38785E+01 0.00000E+00
 -1      3561 2.38740E+01 1.51775E+01 0.00000E+00
 -1      3562 1.34592E+02 3.42286E+01 0.00000E+00
 -1      3563 1.33309E+02 1.40596E+01 0.00000E+00
 -1      3564 1.32115E+02 1.39072E+01 0.00000E+00
 -1      3565 1.31365E+02 1.52062E+01 0.00000E+00
 -1      3566 1.33346E+02 1.52635E+01 0.00000E+00
 -1      3567 3.75441E+01 3.42886E+01 0.00000E+00
 -1      3568 3.81605E+01 3.49294E+01 0.00000E+00
 -1      3569 3.82370E+01 3.32194E+01 0.00000E+00
 -1      3570 3.99213E+01 3.60688E+01 0.00000E+00
 -1      3571 2.08740E+01 1.51775E+01 0.00000E+00
 -1      3572 3.21240E+01 1.38785E+01 0.00000E+00
 -1      3573 3.06240E+01 1.38785E+01 0.00000E+00
 -1      3574 3.28740E+01 1.51775E+01 0.00000E+00
 -1      3575 2.98740E+01 1.51775E+01 0.00000E+00
 -1      3576 1.38717E+01 2.54413E+01 0.00000E+00
 -1      3577 4.86240E+01 1.64765E+01 0.00000E+00
 -1      3578 4.71240E+01 1.64765E+01 0.00000E+00
 -1      3579 2.16240E+01 1.64765E+01 0.00000E+00
 -1      3580 2.01240E+01 1.64765E+01 0.00000E+00
 -1      3581 5.21250E+01 3.48400E+01 0.00000E+00
 -1      3582 5.36250E+01 3.48400E+01 0.00000E+00
 -1      3583 5.51250E+01 3.48400E+01 0.00000E+00
 -1      3584 5.66250E+01 3.48400E+01 0.00000E+00
 -1      3585 5.43750E+01 3.35410E+01 0.00000E+00
 -1      3586 5.82000E+01 3.48400E+01 0.00000E+00
 -1      3587 5.97750E+01 3.48400E+01 0.00000E+00
 -1      3588 5.74500E+01 3.35410E+01 0.00000E+00
 -1      3589 6.12750E+01 3.48400E+01 0.00000E+00
 -1      3590 6.27750E+01 3.48400E+01 0.00000E+00
 -1      3591 6.05250E+01 3.35410E+01 0.00000E+00
 -1      3592 6.42750E+01 3.48400E+01 0.00000E+00
 -1      3593 6.57750E+01 3.48400E+01 0.00000E+00
 -1      3594 6.35250E+01 3.35410E+01 0.00000E+00
 -1      3595 6.72750E+01 3.48400E+01 0.00000E+00
 -1      3596 6.87750E+01 3.48400E+01 0.00000E+00
 -1      3597 6.65250E+01 3.35410E+01 0.00000E+00
 -1      3598 7.02750E+01 3.48400E+01 0.00000E+00
 -1      3599 7.17750E+01 3.48400E+01 0.00000E+00
 -1      3600 6.95250E+01 3.35410E+01 0.00000E+00
 -1      3601 7.32750E+01 3.48400E+01 0.00000E+00
 -1      3602 7.47750E+01 3.48400E+01 0.00000E+00
 -1      3603 7.25250E+01 3.35410E+01 0.00000E+00
 -1      3604 7.62750E+01 3.48400E+01 0.00000E+00
 -1      3605 7.77750E+01 3.48400E+01 0.00000E+00
 -1      3606 7.55250E+01 3.35410E+01 0.00000E+00
 -1      3607 7.92750E+01 3.48400E+01 0.00000E+00
 -1      3608 8.07750E+01 3.48400E+01 0.00000E+00
 -1      3609 7.85250E+01 3.35410E+01 0.00000E+00
 -1      3610 8.22750E+01 3.48400E+01 0.00000E+00
 -1      3611 8.37750E+01 3.48400E+01 0.00000E+00
 -1      3612 8.15250E+01 3.35410E+01 0.00000E+00
 -1      3613 8.52750E+01 3.48400E+01 0.00000E+00
 -1      3614 8.67750E+01 3.48400E+01 0.00000E+00
 -1      3615 8.45250E+01 3.35410E+01 0.00000E+00
 -1      3616 8.82750E+01 3.48400E+01 0.00000E+00
 -1      3617 8.97750E+01 3.48400E+01 0.00000E+00
 -1      3618 8.75250E+01 3.35410E+01 0.00000E+00
 -1      3619 9.12750E+01 3.48400E+01 0.00000E+00
 -1      3620 9.27750E+01 3.48400E+01 0.00000E+00
 -1      3621 9.05250E+01 3.35410E+01 0.00000E+00
 -1      3622 9.42750E+01 3.48400E+01 0.00000E+00
 -1      3623 9.57750E+01 3.48400E+01 0.00000E+00
 -1      3624 9.35250E+01 3.35410E+01 0.00000E+00
 -1      3625 9.72750E+01 3.48400E+01 0.00000E+00
 -1      3626 9.87750E+01 3.48400E+01 0.00000E+00
 -1      3627 9.65250E+01 3.35410E+01 0.00000E+00
 -1      3628 1.00350E+02 3.48400E+01 0.00000E+00
 -1      3629 1.01925E+02 3.48400E+01 0.00000E+00
 -1      3630 9.96000E+01 3.35410E+01 0.00000E+00
 -1      3631 1.03425E+02 3.48400E+01 0.00000E+00
 -1      3632 1.04925E+02 3.48400E+01 0.00000E+00
 -1      3633 1.02675E+02 3.35410E+01 0.00000E+00
 -1      3634 1.06425E+02 3.48400E+01 0.00000E+00
 -1      3635 1.07925E+02 3.48400E+01 0.00000E+00
 -1      3636 1.05675E+02 3.35410E+01 0.00000E+00
 -1      3637 1.09425E+02 3.48400E+01 0.00000E+00
 -1      3638 1.10925E+02 3.48400E+01 0.00000E+00
 -1      3639 1.08675E+02 3.35410E+01 0.00000E+00
 -1      3640 1.12425E+02 3.48400E+01 0.00000E+00
 -1      3641 1.13925E+02 3.48400E+01 0.00000E+00
 -1      3642 1.11675E+02 3.35410E+01 0.00000E+00
 -1      3643 1.15425E+02 3.48400E+01 0.00000E+00
 -1      3644 1.16925E+02 3.48400E+01 0.00000E+00
 -1      3645 1.14675E+02 3.35410E+01 0.00000E+00
 -1      3646 1.18425E+02 3.48400E+01 0.00000E+00
 -1      3647 1.19925E+02 3.48400E+01 0.00000E+00
 -1      3648 1.17675E+02 3.35410E+01 0.00000E+00
 -1      3649 1.21425E+02 3.48400E+01 0.00000E+00
 -1      3650 1.22925E+02 3.48400E+01 0.00000E+00
 -1      3651 1.20675E+02 3.35410E+01 0.00000E+00
 -1      3652 1.24425E+02 3.48400E+01 0.00000E+00
 -1      3653 1.25925E+02 3.48400E+01 0.00000E+00
 -1      3654 1.23675E+02 3.35410E+01 0.00000E+00
 -1      3655 1.27425E+02 3.48400E+01 0.00000E+00
 -1      3656 1.28925E+02 3.48400E+01 0.00000E+00
 -1      3657 1.26675E+02 3.35410E+01 0.00000E+00
 -1      3658 1.30425E+02 3.48400E+01 0.00000E+00
 -1      3659 1.31925E+02 3.48400E+01 0.00000E+00
 -1      3660 1.29675E+02 3.35410E+01 0.00000E+00
 -1      3661 1.33113E+02 2.87125E+01 0.00000E+00
 -1      3662 1.33113E+02 2.72375E+01 0.00000E+00
 -1      3663 3.06240E+01 1.64765E+01 0.00000E+00
 -1      3664 2.91240E+01 1.64765E+01 0.00000E+00
 -1      3665 6.06240E+01 1.64765E+01 0.00000E+00
 -1      3666 5.91240E+01 1.64765E+01 0.00000E+00
 -1      3667 5.76240E+01 1.64765E+01 0.00000E+00
 -1      3668 5.61240E+01 1.64765E+01 0.00000E+00
 -1      3669 5.83740E+01 1.77755E+01 0.00000E+00
 -1      3670 6.66240E+01 1.64765E+01 0.00000E+00
 -1      3671 6.51240E+01 1.64765E+01 0.00000E+00
 -1      3672 6.96240E+01 1.64765E+01 0.00000E+00
 -1      3673 6.81240E+01 1.64765E+01 0.00000E+00
 -1      3674 6.73740E+01 1.77755E+01 0.00000E+00
 -1      3675 7.26240E+01 1.64765E+01 0.00000E+00
 -1      3676 7.11240E+01 1.64765E+01 0.00000E+00
 -1      3677 7.03740E+01 1.77755E+01 0.00000E+00
 -1      3678 7.56240E+01 1.64765E+01 0.00000E+00
 -1      3679 7.41240E+01 1.64765E+01 0.00000E+00
 -1      3680 7.33740E+01 1.77755E+01 0.00000E+00
 -1      3681 7.86240E+01 1.64765E+01 0.00000E+00
 -1      3682 7.71240E+01 1.64765E+01 0.00000E+00
 -1      3683 7.63740E+01 1.77755E+01 0.00000E+00
 -1      3684 8.16240E+01 1.64765E+01 0.00000E+00
 -1      3685 8.01240E+01 1.64765E+01 0.00000E+00
 -1      3686 7.93740E+01 1.77755E+01 0.00000E+00
 -1      3687 8.46240E+01 1.64765E+01 0.00000E+00
 -1      3688 8.31240E+01 1.64765E+01 0.00000E+00
 -1      3689 8.23740E+01 1.77755E+01 0.00000E+00
 -1      3690 8.76240E+01 1.64765E+01 0.00000E+00
 -1      3691 8.61240E+01 1.64765E+01 0.00000E+00
 -1      3692 8.53740E+01 1.77755E+01 0.00000E+00
 -1      3693 9.06240E+01 1.64765E+01 0.00000E+00
 -1      3694 8.91240E+01 1.64765E+01 0.00000E+00
 -1      3695 8.83740E+01 1.77755E+01 0.00000E+00
 -1      3696 9.36240E+01 1.64765E+01 0.00000E+00
 -1      3697 9.21240E+01 1.64765E+01 0.00000E+00
 -1      3698 9.13740E+01 1.77755E+01 0.00000E+00
 -1      3699 9.66240E+01 1.64765E+01 0.00000E+00
 -1      3700 9.51240E+01 1.64765E+01 0.00000E+00
 -1      3701 9.43740E+01 1.77755E+01 0.00000E+00
 -1      3702 9.96240E+01 1.64765E+01 0.00000E+00
 -1      3703 9.81240E+01 1.64765E+01 0.00000E+00
 -1      3704 9.73740E+01 1.77755E+01 0.00000E+00
 -1      3705 1.02624E+02 1.64765E+01 0.00000E+00
 -1      3706 1.01124E+02 1.64765E+01 0.00000E+00
 -1      3707 1.00374E+02 1.77755E+01 0.00000E+00
 -1      3708 1.05624E+02 1.64765E+01 0.00000E+00
 -1      3709 1.04124E+02 1.64765E+01 0.00000E+00
 -1      3710 1.03374E+02 1.77755E+01 0.00000E+00
 -1      3711 1.08624E+02 1.64765E+01 0.00000E+00
 -1      3712 1.07124E+02 1.64765E+01 0.00000E+00
 -1      3713 1.06374E+02 1.77755E+01 0.00000E+00
 -1      3714 1.11624E+02 1.64765E+01 0.00000E+00
 -1      3715 1.10124E+02 1.64765E+01 0.00000E+00
 -1      3716 1.09374E+02 1.77755E+01 0.00000E+00
 -1      3717 1.14624E+02 1.64765E+01 0.00000E+00
 -1      3718 1.13124E+02 1.64765E+01 0.00000E+00
 -1      3719 1.12374E+02 1.77755E+01 0.00000E+00
 -1      3720 1.17624E+02 1.64765E+01 0.00000E+00
 -1      3721 1.16124E+02 1.64765E+01 0.00000E+00
 -1      3722 1.15374E+02 1.77755E+01 0.00000E+00
 -1      3723 1.20624E+02 1.64765E+01 0.00000E+00
 -1      3724 1.19124E+02 1.64765E+01 0.00000E+00
 -1      3725 1.18374E+02 1.77755E+01 0.00000E+00
 -1      3726 1.23624E+02 1.64765E+01 0.00000E+00
 -1      3727 1.22124E+02 1.64765E+01 0.00000E+00
 -1      3728 1.21374E+02 1.77755E+01 0.00000E+00
 -1      3729 1.26624E+02 1.64765E+01 0.00000E+00
 -1      3730 1.25124E+02 1.64765E+01 0.00000E+00
 -1      3731 1.24374E+02 1.77755E+01 0.00000E+00
 -1      3732 1.29624E+02 1.64765E+01 0.00000E+00
 -1      3733 1.28124E+02 1.64765E+01 0.00000E+00
 -1      3734 1.27374E+02 1.77755E+01 0.00000E+00
 -1      3735 3.29623E+01 2.41354E+01 0.00000E+00
 -1      3736 3.42237E+01 2.54953E+01 0.00000E+00
 -1      3737 4.31250E+01 3.48400E+01 0.00000E+00
 -1      3738 4.46250E+01 3.48400E+01 0.00000E+00
 -1      3739 3.53201E+01 2.71911E+01 0.00000E+00
 -1      3740 3.60463E+01 2.85685E+01 0.00000E+00
 -1      3741 1.50717E+01 2.22745E+01 0.00000E+00
 -1      3742 1.63247E+01 2.23714E+01 0.00000E+00
 -1      3743 1.69975E+01 2.12269E+01 0.00000E+00
 -1      3744 4.61250E+01 3.48400E+01 0.00000E+00
 -1      3745 4.76250E+01 3.48400E+01 0.00000E+00
 -1      3746 4.53750E+01 3.35410E+01 0.00000E+00
 -1      3747 1.48741E+01 1.69889E+01 0.00000E+00
 -1      3748 1.39320E+01 1.72991E+01 0.00000E+00
 -1      3749 1.39320E+01 1.87710E+01 0.00000E+00
 -1      3750 1.33113E+02 1.98750E+01 0.00000E+00
 -1      3751 1.33113E+02 1.84250E+01 0.00000E+00
 -1      3752 2.13263E+01 2.10319E+01 0.00000E+00
 -1      3753 2.28932E+01 2.08750E+01 0.00000E+00
 -1      3754 1.33113E+02 3.16125E+01 0.00000E+00
 -1      3755 1.33113E+02 3.01625E+01 0.00000E+00
 -1      3756 1.31814E+02 2.94250E+01 0.00000E+00
 -1      3757 4.91250E+01 3.48400E+01 0.00000E+00
 -1      3758 5.06250E+01 3.48400E+01 0.00000E+00
 -1      3759 5.13750E+01 3.35410E+01 0.00000E+00
 -1      3760 2.92051E+01 2.19387E+01 0.00000E+00
 -1      3761 3.10092E+01 2.27488E+01 0.00000E+00
 -1      3762 6.36240E+01 1.64765E+01 0.00000E+00
 -1      3763 6.21240E+01 1.64765E+01 0.00000E+00
 -1      3764 6.43740E+01 1.77755E+01 0.00000E+00
 -1      3765 1.43673E+01 2.01056E+01 0.00000E+00
 -1      3766 1.43673E+01 2.15775E+01 0.00000E+00
 -1      3767 1.36944E+01 2.27220E+01 0.00000E+00
 -1      3768 1.53093E+01 1.97954E+01 0.00000E+00
 -1      3769 1.97490E+01 1.78604E+01 0.00000E+00
 -1      3770 1.89990E+01 1.65614E+01 0.00000E+00
 -1      3771 1.78740E+01 1.66463E+01 0.00000E+00
 -1      3772 4.83750E+01 3.35410E+01 0.00000E+00
 -1      3773 1.32794E+02 3.29455E+01 0.00000E+00
 -1      3774 1.31495E+02 3.22080E+01 0.00000E+00
 -1      3775 3.66240E+01 1.64765E+01 0.00000E+00
 -1      3776 3.51240E+01 1.64765E+01 0.00000E+00
 -1      3777 4.18740E+01 1.51775E+01 0.00000E+00
 -1      3778 1.31814E+02 2.65000E+01 0.00000E+00
 -1      3779 1.33113E+02 2.57625E+01 0.00000E+00
 -1      3780 1.33113E+02 2.42875E+01 0.00000E+00
 -1      3781 1.33544E+02 3.42445E+01 0.00000E+00
 -1      3782 2.01165E+01 2.05035E+01 0.00000E+00
 -1      3783 1.33384E+02 1.64674E+01 0.00000E+00
 -1      3784 2.83740E+01 1.77755E+01 0.00000E+00
 -1      3785 2.76240E+01 1.64765E+01 0.00000E+00
 -1      3786 2.61240E+01 1.64765E+01 0.00000E+00
 -1      3787 3.96240E+01 1.64765E+01 0.00000E+00
 -1      3788 3.81240E+01 1.64765E+01 0.00000E+00
 -1      3789 3.73740E+01 1.77755E+01 0.00000E+00
 -1      3790 3.72723E+01 2.89152E+01 0.00000E+00
 -1      3791 5.53740E+01 1.77755E+01 0.00000E+00
 -1      3792 5.46240E+01 1.64765E+01 0.00000E+00
 -1      3793 5.31240E+01 1.64765E+01 0.00000E+00
 -1      3794 3.56418E+01 2.56277E+01 0.00000E+00
 -1      3795 1.31094E+02 1.71637E+01 0.00000E+00
 -1      3796 1.30344E+02 1.84627E+01 0.00000E+00
 -1      3797 3.25923E+01 2.25453E+01 0.00000E+00
 -1      3798 3.83298E+01 3.21836E+01 0.00000E+00
 -1      3799 3.89462E+01 3.28244E+01 0.00000E+00
 -1      3800 3.84226E+01 3.11477E+01 0.00000E+00
 -1      3801 2.40914E+01 2.01306E+01 0.00000E+00
 -1      3802 4.56240E+01 1.64765E+01 0.00000E+00
 -1      3803 4.41240E+01 1.64765E+01 0.00000E+00
 -1      3804 4.63740E+01 1.77755E+01 0.00000E+00
 -1      3805 1.71843E+01 1.95376E+01 0.00000E+00
 -1      3806 1.84372E+01 1.96345E+01 0.00000E+00
 -1      3807 1.67491E+01 1.82030E+01 0.00000E+00
 -1      3808 4.06142E+01 3.49997E+01 0.00000E+00
 -1      3809 4.13642E+01 3.37007E+01 0.00000E+00
 -1      3810 5.16240E+01 1.64765E+01 0.00000E+00
 -1      3811 5.01240E+01 1.64765E+01 0.00000E+00
 -1      3812 4.93740E+01 1.77755E+01 0.00000E+00
 -1      3813 5.23740E+01 1.77755E+01 0.00000E+00
 -1      3814 2.46240E+01 1.64765E+01 0.00000E+00
 -1      3815 2.31240E+01 1.64765E+01 0.00000E+00
 -1      3816 2.23740E+01 1.77755E+01 0.00000E+00
 -1      3817 2.53740E+01 1.77755E+01 0.00000E+00
 -1      3818 1.59990E+01 1.69040E+01 0.00000E+00
 -1      3819 6.13740E+01 1.77755E+01 0.00000E+00
 -1      3820 2.84197E+01 2.08683E+01 0.00000E+00
 -1      3821 3.21240E+01 1.64765E+01 0.00000E+00
 -1      3822 3.13740E+01 1.77755E+01 0.00000E+00
 -1      3823 3.36240E+01 1.64765E+01 0.00000E+00
 -1      3824 1.33113E+02 2.28188E+01 0.00000E+00
 -1      3825 1.33113E+02 2.13438E+01 0.00000E+00
 -1      3826 1.31814E+02 2.06187E+01 0.00000E+00
 -1      3827 1.31814E+02 2.35562E+01 0.00000E+00
 -1      3828 3.82368E+01 2.77062E+01 0.00000E+00
 -1      3829 3.87708E+01 2.92979E+01 0.00000E+00
 -1      3830 3.43740E+01 1.77755E+01 0.00000E+00
 -1      3831 4.26240E+01 1.64765E+01 0.00000E+00
 -1      3832 4.11240E+01 1.64765E+01 0.00000E+00
 -1      3833 4.33740E+01 1.77755E+01 0.00000E+00
 -1      3834 5.66625E+01 3.22420E+01 0.00000E+00
 -1      3835 5.82375E+01 3.22420E+01 0.00000E+00
 -1      3836 5.97375E+01 3.22420E+01 0.00000E+00
 -1      3837 6.12375E+01 3.22420E+01 0.00000E+00
 -1      3838 5.89500E+01 3.09430E+01 0.00000E+00
 -1      3839 6.27375E+01 3.22420E+01 0.00000E+00
 -1      3840 6.42375E+01 3.22420E+01 0.00000E+00
 -1      3841 6.19500E+01 3.09430E+01 0.00000E+00
 -1      3842 6.57375E+01 3.22420E+01 0.00000E+00
 -1      3843 6.72375E+01 3.22420E+01 0.00000E+00
 -1      3844 6.49500E+01 3.09430E+01 0.00000E+00
 -1      3845 6.87375E+01 3.22420E+01 0.00000E+00
 -1      3846 7.02375E+01 3.22420E+01 0.00000E+00
 -1      3847 6.79500E+01 3.09430E+01 0.00000E+00
 -1      3848 7.17375E+01 3.22420E+01 0.00000E+00
 -1      3849 7.32375E+01 3.22420E+01 0.00000E+00
 -1      3850 7.09500E+01 3.09430E+01 0.00000E+00
 -1      3851 7.47375E+01 3.22420E+01 0.00000E+00
 -1      3852 7.62375E+01 3.22420E+01 0.00000E+00
 -1      3853 7.39500E+01 3.09430E+01 0.00000E+00
 -1      3854 7.77375E+01 3.22420E+01 0.00000E+00
 -1      3855 7.92375E+01 3.22420E+01 0.00000E+00
 -1      3856 7.69500E+01 3.09430E+01 0.00000E+00
 -1      3857 8.07375E+01 3.22420E+01 0.00000E+00
 -1      3858 8.22375E+01 3.22420E+01 0.00000E+00
 -1      3859 7.99500E+01 3.09430E+01 0.00000E+00
 -1      3860 8.37375E+01 3.22420E+01 0.00000E+00
 -1      3861 8.52375E+01 3.22420E+01 0.00000E+00
 -1      3862 8.29500E+01 3.09430E+01 0.00000E+00
 -1      3863 8.67375E+01 3.22420E+01 0.00000E+00
 -1      3864 8.82375E+01 3.22420E+01 0.00000E+00
 -1      3865 8.59500E+01 3.09430E+01 0.00000E+00
 -1      3866 8.97375E+01 3.22420E+01 0.00000E+00
 -1      3867 9.12375E+01 3.22420E+01 0.00000E+00
 -1      3868 8.89500E+01 3.09430E+01 0.00000E+00
 -1      3869 9.27375E+01 3.22420E+01 0.00000E+00
 -1      3870 9.42375E+01 3.22420E+01 0.00000E+00
 -1      3871 9.19500E+01 3.09430E+01 0.00000E+00
 -1      3872 9.57375E+01 3.22420E+01 0.00000E+00
 -1      3873 9.72375E+01 3.22420E+01 0.00000E+00
 -1      3874 9.49500E+01 3.09430E+01 0.00000E+00
 -1      3875 9.88125E+01 3.22420E+01 0.00000E+00
 -1      3876 1.00387E+02 3.22420E+01 0.00000E+00
 -1      3877 9.80250E+01 3.09430E+01 0.00000E+00
 -1      3878 1.01887E+02 3.22420E+01 0.00000E+00
 -1      3879 1.03387E+02 3.22420E+01 0.00000E+00
 -1      3880 1.01100E+02 3.09430E+01 0.00000E+00
 -1      3881 1.04887E+02 3.22420E+01 0.00000E+00
 -1      3882 1.06387E+02 3.22420E+01 0.00000E+00
 -1      3883 1.04100E+02 3.09430E+01 0.00000E+00
 -1      3884 1.07887E+02 3.22420E+01 0.00000E+00
 -1      3885 1.09387E+02 3.22420E+01 0.00000E+00
 -1      3886 1.07100E+02 3.09430E+01 0.00000E+00
 -1      3887 1.10887E+02 3.22420E+01 0.00000E+00
 -1      3888 1.12387E+02 3.22420E+01 0.00000E+00
 -1      3889 1.10100E+02 3.09430E+01 0.00000E+00
 -1      3890 1.13887E+02 3.22420E+01 0.00000E+00
 -1      3891 1.15387E+02 3.22420E+01 0.00000E+00
 -1      3892 1.13100E+02 3.09430E+01 0.00000E+00
 -1      3893 1.16887E+02 3.22420E+01 0.00000E+00
 -1      3894 1.18387E+02 3.22420E+01 0.00000E+00
 -1      3895 1.16100E+02 3.09430E+01 0.00000E+00
 -1      3896 1.19887E+02 3.22420E+01 0.00000E+00
 -1      3897 1.21387E+02 3.22420E+01 0.00000E+00
 -1      3898 1.19100E+02 3.09430E+01 0.00000E+00
 -1      3899 1.22887E+02 3.22420E+01 0.00000E+00
 -1      3900 1.24387E+02 3.22420E+01 0.00000E+00
 -1      3901 1.22100E+02 3.09430E+01 0.00000E+00
 -1      3902 1.25887E+02 3.22420E+01 0.00000E+00
 -1      3903 1.27387E+02 3.22420E+01 0.00000E+00
 -1      3904 1.25100E+02 3.09430E+01 0.00000E+00
 -1      3905 1.28691E+02 3.22250E+01 0.00000E+00
 -1      3906 1.30191E+02 3.22250E+01 0.00000E+00
 -1      3907 1.30510E+02 3.08920E+01 0.00000E+00
 -1      3908 1.27904E+02 3.09260E+01 0.00000E+00
 -1      3909 5.06250E+01 3.22420E+01 0.00000E+00
 -1      3910 5.21250E+01 3.22420E+01 0.00000E+00
 -1      3911 7.11240E+01 1.90745E+01 0.00000E+00
 -1      3912 6.96240E+01 1.90745E+01 0.00000E+00
 -1      3913 6.81240E+01 1.90745E+01 0.00000E+00
 -1      3914 6.66240E+01 1.90745E+01 0.00000E+00
 -1      3915 6.88740E+01 2.03735E+01 0.00000E+00
 -1      3916 7.71240E+01 1.90745E+01 0.00000E+00
 -1      3917 7.56240E+01 1.90745E+01 0.00000E+00
 -1      3918 8.01240E+01 1.90745E+01 0.00000E+00
 -1      3919 7.86240E+01 1.90745E+01 0.00000E+00
 -1      3920 7.78740E+01 2.03735E+01 0.00000E+00
 -1      3921 8.31240E+01 1.90745E+01 0.00000E+00
 -1      3922 8.16240E+01 1.90745E+01 0.00000E+00
 -1      3923 8.08740E+01 2.03735E+01 0.00000E+00
 -1      3924 8.61240E+01 1.90745E+01 0.00000E+00
 -1      3925 8.46240E+01 1.90745E+01 0.00000E+00
 -1      3926 8.38740E+01 2.03735E+01 0.00000E+00
 -1      3927 8.91240E+01 1.90745E+01 0.00000E+00
 -1      3928 8.76240E+01 1.90745E+01 0.00000E+00
 -1      3929 8.68740E+01 2.03735E+01 0.00000E+00
 -1      3930 9.21240E+01 1.90745E+01 0.00000E+00
 -1      3931 9.06240E+01 1.90745E+01 0.00000E+00
 -1      3932 8.98740E+01 2.03735E+01 0.00000E+00
 -1      3933 9.51240E+01 1.90745E+01 0.00000E+00
 -1      3934 9.36240E+01 1.90745E+01 0.00000E+00
 -1      3935 9.28740E+01 2.03735E+01 0.00000E+00
 -1      3936 9.81240E+01 1.90745E+01 0.00000E+00
 -1      3937 9.66240E+01 1.90745E+01 0.00000E+00
 -1      3938 9.58740E+01 2.03735E+01 0.00000E+00
 -1      3939 1.01124E+02 1.90745E+01 0.00000E+00
 -1      3940 9.96240E+01 1.90745E+01 0.00000E+00
 -1      3941 9.88740E+01 2.03735E+01 0.00000E+00
 -1      3942 1.04124E+02 1.90745E+01 0.00000E+00
 -1      3943 1.02624E+02 1.90745E+01 0.00000E+00
 -1      3944 1.01874E+02 2.03735E+01 0.00000E+00
 -1      3945 1.07124E+02 1.90745E+01 0.00000E+00
 -1      3946 1.05624E+02 1.90745E+01 0.00000E+00
 -1      3947 1.04874E+02 2.03735E+01 0.00000E+00
 -1      3948 1.10124E+02 1.90745E+01 0.00000E+00
 -1      3949 1.08624E+02 1.90745E+01 0.00000E+00
 -1      3950 1.07874E+02 2.03735E+01 0.00000E+00
 -1      3951 1.13124E+02 1.90745E+01 0.00000E+00
 -1      3952 1.11624E+02 1.90745E+01 0.00000E+00
 -1      3953 1.10874E+02 2.03735E+01 0.00000E+00
 -1      3954 1.16124E+02 1.90745E+01 0.00000E+00
 -1      3955 1.14624E+02 1.90745E+01 0.00000E+00
 -1      3956 1.13874E+02 2.03735E+01 0.00000E+00
 -1      3957 1.19124E+02 1.90745E+01 0.00000E+00
 -1      3958 1.17624E+02 1.90745E+01 0.00000E+00
 -1      3959 1.16874E+02 2.03735E+01 0.00000E+00
 -1      3960 1.22124E+02 1.90745E+01 0.00000E+00
 -1      3961 1.20624E+02 1.90745E+01 0.00000E+00
 -1      3962 1.19874E+02 2.03735E+01 0.00000E+00
 -1      3963 1.25124E+02 1.90745E+01 0.00000E+00
 -1      3964 1.23624E+02 1.90745E+01 0.00000E+00
 -1      3965 1.22874E+02 2.03735E+01 0.00000E+00
 -1      3966 1.28124E+02 1.90745E+01 0.00000E+00
 -1      3967 1.26624E+02 1.90745E+01 0.00000E+00
 -1      3968 1.25874E+02 2.03735E+01 0.00000E+00
 -1      3969 1.32393E+02 1.64387E+01 0.00000E+00
 -1      3970 3.23547E+01 2.08112E+01 0.00000E+00
 -1      3971 3.43078E+01 2.21978E+01 0.00000E+00
 -1      3972 1.30704E+02 2.01903E+01 0.00000E+00
 -1      3973 1.29234E+02 1.95030E+01 0.00000E+00
 -1      3974 1.28484E+02 2.08020E+01 0.00000E+00
 -1      3975 1.30704E+02 2.16590E+01 0.00000E+00
 -1      3976 7.41240E+01 1.90745E+01 0.00000E+00
 -1      3977 7.26240E+01 1.90745E+01 0.00000E+00
 -1      3978 7.48740E+01 2.03735E+01 0.00000E+00
 -1      3979 3.61844E+01 2.40745E+01 0.00000E+00
 -1      3980 3.72809E+01 2.57703E+01 0.00000E+00
 -1      3981 5.91240E+01 1.90745E+01 0.00000E+00
 -1      3982 5.76240E+01 1.90745E+01 0.00000E+00
 -1      3983 4.46250E+01 3.22420E+01 0.00000E+00
 -1      3984 4.61250E+01 3.22420E+01 0.00000E+00
 -1      3985 4.76250E+01 3.22420E+01 0.00000E+00
 -1      3986 4.91250E+01 3.22420E+01 0.00000E+00
 -1      3987 4.68750E+01 3.09430E+01 0.00000E+00
 -1      3988 5.36250E+01 3.22420E+01 0.00000E+00
 -1      3989 5.51250E+01 3.22420E+01 0.00000E+00
 -1      3990 5.28750E+01 3.09430E+01 0.00000E+00
 -1      3991 1.30510E+02 2.94420E+01 0.00000E+00
 -1      3992 1.30510E+02 2.79920E+01 0.00000E+00
 -1      3993 1.29207E+02 2.94590E+01 0.00000E+00
 -1      3994 6.51240E+01 1.90745E+01 0.00000E+00
 -1      3995 6.36240E+01 1.90745E+01 0.00000E+00
 -1      3996 6.58740E+01 2.03735E+01 0.00000E+00
 -1      3997 2.80371E+01 1.91767E+01 0.00000E+00
 -1      3998 3.02566E+01 1.94671E+01 0.00000E+00
 -1      3999 6.21240E+01 1.90745E+01 0.00000E+00
 -1      4000 6.06240E+01 1.90745E+01 0.00000E+00
 -1      4001 6.28740E+01 2.03735E+01 0.00000E+00
 -1      4002 3.17566E+01 1.94671E+01 0.00000E+00
 -1      4003 3.49721E+01 1.91196E+01 0.00000E+00
 -1      4004 3.34721E+01 1.91196E+01 0.00000E+00
 -1      4005 5.59125E+01 3.09430E+01 0.00000E+00
 -1      4006 1.30510E+02 2.65170E+01 0.00000E+00
 -1      4007 1.30510E+02 2.50420E+01 0.00000E+00
 -1      4008 1.29207E+02 2.65340E+01 0.00000E+00
 -1      4009 7.18740E+01 2.03735E+01 0.00000E+00
 -1      4010 3.87794E+01 2.61530E+01 0.00000E+00
 -1      4011 4.03740E+01 1.77755E+01 0.00000E+00
 -1      4012 5.61240E+01 1.90745E+01 0.00000E+00
 -1      4013 5.46240E+01 1.90745E+01 0.00000E+00
 -1      4014 5.68740E+01 2.03735E+01 0.00000E+00
 -1      4015 3.79721E+01 1.91196E+01 0.00000E+00
 -1      4016 3.64721E+01 1.91196E+01 0.00000E+00
 -1      4017 3.55702E+01 2.04637E+01 0.00000E+00
 -1      4018 3.93872E+01 2.99387E+01 0.00000E+00
 -1      4019 4.00035E+01 3.05795E+01 0.00000E+00
 -1      4020 4.03517E+01 2.87297E+01 0.00000E+00
 -1      4021 4.24215E+01 3.14558E+01 0.00000E+00
 -1      4022 4.31715E+01 3.01568E+01 0.00000E+00
 -1      4023 4.71240E+01 1.90745E+01 0.00000E+00
 -1      4024 4.56240E+01 1.90745E+01 0.00000E+00
 -1      4025 2.03033E+01 1.88143E+01 0.00000E+00
 -1      4026 2.29283E+01 1.87294E+01 0.00000E+00
 -1      4027 2.50371E+01 1.91767E+01 0.00000E+00
 -1      4028 5.98740E+01 2.03735E+01 0.00000E+00
 -1      4029 5.01240E+01 1.90745E+01 0.00000E+00
 -1      4030 4.86240E+01 1.90745E+01 0.00000E+00
 -1      4031 4.78740E+01 2.03735E+01 0.00000E+00
 -1      4032 3.58078E+01 2.21978E+01 0.00000E+00
 -1      4033 3.74468E+01 2.23404E+01 0.00000E+00
 -1      4034 4.98750E+01 3.09430E+01 0.00000E+00
 -1      4035 2.65371E+01 1.91767E+01 0.00000E+00
 -1      4036 5.51437E+01 2.96440E+01 0.00000E+00
 -1      4037 5.66813E+01 2.96440E+01 0.00000E+00
 -1      4038 4.41240E+01 1.90745E+01 0.00000E+00
 -1      4039 4.26240E+01 1.90745E+01 0.00000E+00
 -1      4040 4.48740E+01 2.03735E+01 0.00000E+00
 -1      4041 7.26240E+01 2.16725E+01 0.00000E+00
 -1      4042 7.11240E+01 2.16725E+01 0.00000E+00
 -1      4043 6.12000E+01 2.96440E+01 0.00000E+00
 -1      4044 6.27000E+01 2.96440E+01 0.00000E+00
 -1      4045 6.42000E+01 2.96440E+01 0.00000E+00
 -1      4046 6.57000E+01 2.96440E+01 0.00000E+00
 -1      4047 6.34500E+01 2.83450E+01 0.00000E+00
 -1      4048 6.72000E+01 2.96440E+01 0.00000E+00
 -1      4049 6.87000E+01 2.96440E+01 0.00000E+00
 -1      4050 6.64500E+01 2.83450E+01 0.00000E+00
 -1      4051 7.02000E+01 2.96440E+01 0.00000E+00
 -1      4052 7.17000E+01 2.96440E+01 0.00000E+00
 -1      4053 6.94500E+01 2.83450E+01 0.00000E+00
 -1      4054 7.32000E+01 2.96440E+01 0.00000E+00
 -1      4055 7.47000E+01 2.96440E+01 0.00000E+00
 -1      4056 7.24500E+01 2.83450E+01 0.00000E+00
 -1      4057 7.62000E+01 2.96440E+01 0.00000E+00
 -1      4058 7.77000E+01 2.96440E+01 0.00000E+00
 -1      4059 7.54500E+01 2.83450E+01 0.00000E+00
 -1      4060 7.92000E+01 2.96440E+01 0.00000E+00
 -1      4061 8.07000E+01 2.96440E+01 0.00000E+00
 -1      4062 7.84500E+01 2.83450E+01 0.00000E+00
 -1      4063 8.22000E+01 2.96440E+01 0.00000E+00
 -1      4064 8.37000E+01 2.96440E+01 0.00000E+00
 -1      4065 8.14500E+01 2.83450E+01 0.00000E+00
 -1      4066 8.52000E+01 2.96440E+01 0.00000E+00
 -1      4067 8.67000E+01 2.96440E+01 0.00000E+00
 -1      4068 8.44500E+01 2.83450E+01 0.00000E+00
 -1      4069 8.82000E+01 2.96440E+01 0.00000E+00
 -1      4070 8.97000E+01 2.96440E+01 0.00000E+00
 -1      4071 8.74500E+01 2.83450E+01 0.00000E+00
 -1      4072 9.12000E+01 2.96440E+01 0.00000E+00
 -1      4073 9.27000E+01 2.96440E+01 0.00000E+00
 -1      4074 9.04500E+01 2.83450E+01 0.00000E+00
 -1      4075 9.42000E+01 2.96440E+01 0.00000E+00
 -1      4076 9.57000E+01 2.96440E+01 0.00000E+00
 -1      4077 9.34500E+01 2.83450E+01 0.00000E+00
 -1      4078 9.72750E+01 2.96440E+01 0.00000E+00
 -1      4079 9.88500E+01 2.96440E+01 0.00000E+00
 -1      4080 9.65250E+01 2.83450E+01 0.00000E+00
 -1      4081 1.00350E+02 2.96440E+01 0.00000E+00
 -1      4082 1.01850E+02 2.96440E+01 0.00000E+00
 -1      4083 9.96000E+01 2.83450E+01 0.00000E+00
 -1      4084 1.03350E+02 2.96440E+01 0.00000E+00
 -1      4085 1.04850E+02 2.96440E+01 0.00000E+00
 -1      4086 1.02600E+02 2.83450E+01 0.00000E+00
 -1      4087 1.06350E+02 2.96440E+01 0.00000E+00
 -1      4088 1.07850E+02 2.96440E+01 0.00000E+00
 -1      4089 1.05600E+02 2.83450E+01 0.00000E+00
 -1      4090 1.09350E+02 2.96440E+01 0.00000E+00
 -1      4091 1.10850E+02 2.96440E+01 0.00000E+00
 -1      4092 1.08600E+02 2.83450E+01 0.00000E+00
 -1      4093 1.12350E+02 2.96440E+01 0.00000E+00
 -1      4094 1.13850E+02 2.96440E+01 0.00000E+00
 -1      4095 1.11600E+02 2.83450E+01 0.00000E+00
 -1      4096 1.15350E+02 2.96440E+01 0.00000E+00
 -1      4097 1.16850E+02 2.96440E+01 0.00000E+00
 -1      4098 1.14600E+02 2.83450E+01 0.00000E+00
 -1      4099 1.18350E+02 2.96440E+01 0.00000E+00
 -1      4100 1.19850E+02 2.96440E+01 0.00000E+00
 -1      4101 1.17600E+02 2.83450E+01 0.00000E+00
 -1      4102 1.21350E+02 2.96440E+01 0.00000E+00
 -1      4103 1.22850E+02 2.96440E+01 0.00000E+00
 -1      4104 1.20600E+02 2.83450E+01 0.00000E+00
 -1      4105 1.24350E+02 2.96440E+01 0.00000E+00
 -1      4106 1.25850E+02 2.96440E+01 0.00000E+00
 -1      4107 1.23600E+02 2.83450E+01 0.00000E+00
 -1      4108 1.27904E+02 2.94760E+01 0.00000E+00
 -1      4109 3.95017E+01 1.91713E+01 0.00000E+00
 -1      4110 3.85998E+01 2.05154E+01 0.00000E+00
 -1      4111 8.16240E+01 2.16725E+01 0.00000E+00
 -1      4112 8.01240E+01 2.16725E+01 0.00000E+00
 -1      4113 7.86240E+01 2.16725E+01 0.00000E+00
 -1      4114 7.71240E+01 2.16725E+01 0.00000E+00
 -1      4115 7.93740E+01 2.29715E+01 0.00000E+00
 -1      4116 8.76240E+01 2.16725E+01 0.00000E+00
 -1      4117 8.61240E+01 2.16725E+01 0.00000E+00
 -1      4118 9.06240E+01 2.16725E+01 0.00000E+00
 -1      4119 8.91240E+01 2.16725E+01 0.00000E+00
 -1      4120 8.83740E+01 2.29715E+01 0.00000E+00
 -1      4121 9.36240E+01 2.16725E+01 0.00000E+00
 -1      4122 9.21240E+01 2.16725E+01 0.00000E+00
 -1      4123 9.13740E+01 2.29715E+01 0.00000E+00
 -1      4124 9.66240E+01 2.16725E+01 0.00000E+00
 -1      4125 9.51240E+01 2.16725E+01 0.00000E+00
 -1      4126 9.43740E+01 2.29715E+01 0.00000E+00
 -1      4127 9.96240E+01 2.16725E+01 0.00000E+00
 -1      4128 9.81240E+01 2.16725E+01 0.00000E+00
 -1      4129 9.73740E+01 2.29715E+01 0.00000E+00
 -1      4130 1.02624E+02 2.16725E+01 0.00000E+00
 -1      4131 1.01124E+02 2.16725E+01 0.00000E+00
 -1      4132 1.00374E+02 2.29715E+01 0.00000E+00
 -1      4133 1.05624E+02 2.16725E+01 0.00000E+00
 -1      4134 1.04124E+02 2.16725E+01 0.00000E+00
 -1      4135 1.03374E+02 2.29715E+01 0.00000E+00
 -1      4136 1.08624E+02 2.16725E+01 0.00000E+00
 -1      4137 1.07124E+02 2.16725E+01 0.00000E+00
 -1      4138 1.06374E+02 2.29715E+01 0.00000E+00
 -1      4139 1.11624E+02 2.16725E+01 0.00000E+00
 -1      4140 1.10124E+02 2.16725E+01 0.00000E+00
 -1      4141 1.09374E+02 2.29715E+01 0.00000E+00
 -1      4142 1.14624E+02 2.16725E+01 0.00000E+00
 -1      4143 1.13124E+02 2.16725E+01 0.00000E+00
 -1      4144 1.12374E+02 2.29715E+01 0.00000E+00
 -1      4145 1.17624E+02 2.16725E+01 0.00000E+00
 -1      4146 1.16124E+02 2.16725E+01 0.00000E+00
 -1      4147 1.15374E+02 2.29715E+01 0.00000E+00
 -1      4148 1.20624E+02 2.16725E+01 0.00000E+00
 -1      4149 1.19124E+02 2.16725E+01 0.00000E+00
 -1      4150 1.18374E+02 2.29715E+01 0.00000E+00
 -1      4151 1.23624E+02 2.16725E+01 0.00000E+00
 -1      4152 1.22124E+02 2.16725E+01 0.00000E+00
 -1      4153 1.21374E+02 2.29715E+01 0.00000E+00
 -1      4154 1.26624E+02 2.16725E+01 0.00000E+00
 -1      4155 1.25124E+02 2.16725E+01 0.00000E+00
 -1      4156 1.24374E+02 2.29715E+01 0.00000E+00
 -1      4157 7.56240E+01 2.16725E+01 0.00000E+00
 -1      4158 7.41240E+01 2.16725E+01 0.00000E+00
 -1      4159 7.33740E+01 2.29715E+01 0.00000E+00
 -1      4160 7.63740E+01 2.29715E+01 0.00000E+00
 -1      4161 6.36240E+01 2.16725E+01 0.00000E+00
 -1      4162 6.21240E+01 2.16725E+01 0.00000E+00
 -1      4163 3.89764E+01 2.23921E+01 0.00000E+00
 -1      4164 4.61250E+01 2.96440E+01 0.00000E+00
 -1      4165 4.76250E+01 2.96440E+01 0.00000E+00
 -1      4166 4.14570E+01 3.26648E+01 0.00000E+00
 -1      4167 5.31240E+01 1.90745E+01 0.00000E+00
 -1      4168 5.16240E+01 1.90745E+01 0.00000E+00
 -1      4169 5.08740E+01 2.03735E+01 0.00000E+00
 -1      4170 5.38740E+01 2.03735E+01 0.00000E+00
 -1      4171 2.14283E+01 1.87294E+01 0.00000E+00
 -1      4172 6.06240E+01 2.16725E+01 0.00000E+00
 -1      4173 5.91240E+01 2.16725E+01 0.00000E+00
 -1      4174 6.13740E+01 2.29715E+01 0.00000E+00
 -1      4175 3.99324E+01 2.43280E+01 0.00000E+00
 -1      4176 4.08883E+01 2.62639E+01 0.00000E+00
 -1      4177 4.10854E+01 2.25031E+01 0.00000E+00
 -1      4178 4.91250E+01 2.96440E+01 0.00000E+00
 -1      4179 5.06250E+01 2.96440E+01 0.00000E+00
 -1      4180 4.83750E+01 2.83450E+01 0.00000E+00
 -1      4181 8.46240E+01 2.16725E+01 0.00000E+00
 -1      4182 8.31240E+01 2.16725E+01 0.00000E+00
 -1      4183 8.53740E+01 2.29715E+01 0.00000E+00
 -1      4184 6.96240E+01 2.16725E+01 0.00000E+00
 -1      4185 6.81240E+01 2.16725E+01 0.00000E+00
 -1      4186 7.03740E+01 2.29715E+01 0.00000E+00
 -1      4187 5.21250E+01 2.96440E+01 0.00000E+00
 -1      4188 5.36250E+01 2.96440E+01 0.00000E+00
 -1      4189 5.13750E+01 2.83450E+01 0.00000E+00
 -1      4190 6.66240E+01 2.16725E+01 0.00000E+00
 -1      4191 6.51240E+01 2.16725E+01 0.00000E+00
 -1      4192 6.73740E+01 2.29715E+01 0.00000E+00
 -1      4193 1.30607E+02 2.40849E+01 0.00000E+00
 -1      4194 1.30607E+02 2.26161E+01 0.00000E+00
 -1      4195 1.29497E+02 2.21876E+01 0.00000E+00
 -1      4196 1.29304E+02 2.41019E+01 0.00000E+00
 -1      4197 4.10017E+01 1.91713E+01 0.00000E+00
 -1      4198 5.82000E+01 2.96440E+01 0.00000E+00
 -1      4199 5.97000E+01 2.96440E+01 0.00000E+00
 -1      4200 6.04500E+01 2.83450E+01 0.00000E+00
 -1      4201 1.27154E+02 2.81770E+01 0.00000E+00
 -1      4202 4.17517E+01 2.04703E+01 0.00000E+00
 -1      4203 6.43740E+01 2.29715E+01 0.00000E+00
 -1      4204 8.23740E+01 2.29715E+01 0.00000E+00
 -1      4205 5.76240E+01 2.16725E+01 0.00000E+00
 -1      4206 5.61240E+01 2.16725E+01 0.00000E+00
 -1      4207 5.83740E+01 2.29715E+01 0.00000E+00
 -1      4208 1.27734E+02 2.21010E+01 0.00000E+00
 -1      4209 5.43937E+01 2.83450E+01 0.00000E+00
 -1      4210 4.25064E+01 2.85402E+01 0.00000E+00
 -1      4211 4.47098E+01 2.93265E+01 0.00000E+00
 -1      4212 4.13892E+01 2.70817E+01 0.00000E+00
 -1      4213 4.20055E+01 2.77225E+01 0.00000E+00
 -1      4214 4.35438E+01 2.68922E+01 0.00000E+00
 -1      4215 4.25421E+01 2.52567E+01 0.00000E+00
 -1      4216 5.74313E+01 2.83450E+01 0.00000E+00
 -1      4217 4.86240E+01 2.16725E+01 0.00000E+00
 -1      4218 4.71240E+01 2.16725E+01 0.00000E+00
 -1      4219 4.63740E+01 2.29715E+01 0.00000E+00
 -1      4220 4.56240E+01 2.16725E+01 0.00000E+00
 -1      4221 4.41240E+01 2.16725E+01 0.00000E+00
 -1      4222 4.54598E+01 2.80275E+01 0.00000E+00
 -1      4223 1.27908E+02 2.72715E+01 0.00000E+00
 -1      4224 1.27908E+02 2.57965E+01 0.00000E+00
 -1      4225 4.27076E+01 2.24062E+01 0.00000E+00
 -1      4226 6.57000E+01 2.70460E+01 0.00000E+00
 -1      4227 6.72000E+01 2.70460E+01 0.00000E+00
 -1      4228 6.87000E+01 2.70460E+01 0.00000E+00
 -1      4229 7.02000E+01 2.70460E+01 0.00000E+00
 -1      4230 6.79500E+01 2.57470E+01 0.00000E+00
 -1      4231 7.17000E+01 2.70460E+01 0.00000E+00
 -1      4232 7.32000E+01 2.70460E+01 0.00000E+00
 -1      4233 7.09500E+01 2.57470E+01 0.00000E+00
 -1      4234 7.47000E+01 2.70460E+01 0.00000E+00
 -1      4235 7.62000E+01 2.70460E+01 0.00000E+00
 -1      4236 7.39500E+01 2.57470E+01 0.00000E+00
 -1      4237 7.77000E+01 2.70460E+01 0.00000E+00
 -1      4238 7.92000E+01 2.70460E+01 0.00000E+00
 -1      4239 7.69500E+01 2.57470E+01 0.00000E+00
 -1      4240 8.07000E+01 2.70460E+01 0.00000E+00
 -1      4241 8.22000E+01 2.70460E+01 0.00000E+00
 -1      4242 7.99500E+01 2.57470E+01 0.00000E+00
 -1      4243 8.37000E+01 2.70460E+01 0.00000E+00
 -1      4244 8.52000E+01 2.70460E+01 0.00000E+00
 -1      4245 8.29500E+01 2.57470E+01 0.00000E+00
 -1      4246 8.67000E+01 2.70460E+01 0.00000E+00
 -1      4247 8.82000E+01 2.70460E+01 0.00000E+00
 -1      4248 8.59500E+01 2.57470E+01 0.00000E+00
 -1      4249 8.97000E+01 2.70460E+01 0.00000E+00
 -1      4250 9.12000E+01 2.70460E+01 0.00000E+00
 -1      4251 8.89500E+01 2.57470E+01 0.00000E+00
 -1      4252 9.27000E+01 2.70460E+01 0.00000E+00
 -1      4253 9.42000E+01 2.70460E+01 0.00000E+00
 -1      4254 9.19500E+01 2.57470E+01 0.00000E+00
 -1      4255 9.57750E+01 2.70460E+01 0.00000E+00
 -1      4256 9.73500E+01 2.70460E+01 0.00000E+00
 -1      4257 9.50250E+01 2.57470E+01 0.00000E+00
 -1      4258 9.88500E+01 2.70460E+01 0.00000E+00
 -1      4259 1.00350E+02 2.70460E+01 0.00000E+00
 -1      4260 9.81000E+01 2.57470E+01 0.00000E+00
 -1      4261 1.01850E+02 2.70460E+01 0.00000E+00
 -1      4262 1.03350E+02 2.70460E+01 0.00000E+00
 -1      4263 1.01100E+02 2.57470E+01 0.00000E+00
 -1      4264 1.04850E+02 2.70460E+01 0.00000E+00
 -1      4265 1.06350E+02 2.70460E+01 0.00000E+00
 -1      4266 1.04100E+02 2.57470E+01 0.00000E+00
 -1      4267 1.07850E+02 2.70460E+01 0.00000E+00
 -1      4268 1.09350E+02 2.70460E+01 0.00000E+00
 -1      4269 1.07100E+02 2.57470E+01 0.00000E+00
 -1      4270 1.10850E+02 2.70460E+01 0.00000E+00
 -1      4271 1.12350E+02 2.70460E+01 0.00000E+00
 -1      4272 1.10100E+02 2.57470E+01 0.00000E+00
 -1      4273 1.13850E+02 2.70460E+01 0.00000E+00
 -1      4274 1.15350E+02 2.70460E+01 0.00000E+00
 -1      4275 1.13100E+02 2.57470E+01 0.00000E+00
 -1      4276 1.16850E+02 2.70460E+01 0.00000E+00
 -1      4277 1.18350E+02 2.70460E+01 0.00000E+00
 -1      4278 1.16100E+02 2.57470E+01 0.00000E+00
 -1      4279 1.19850E+02 2.70460E+01 0.00000E+00
 -1      4280 1.21350E+02 2.70460E+01 0.00000E+00
 -1      4281 1.19100E+02 2.57470E+01 0.00000E+00
 -1      4282 1.22850E+02 2.70460E+01 0.00000E+00
 -1      4283 1.24350E+02 2.70460E+01 0.00000E+00
 -1      4284 1.22100E+02 2.57470E+01 0.00000E+00
 -1      4285 5.97000E+01 2.70460E+01 0.00000E+00
 -1      4286 6.12000E+01 2.70460E+01 0.00000E+00
 -1      4287 9.46620E+01 2.43593E+01 0.00000E+00
 -1      4288 9.31620E+01 2.43593E+01 0.00000E+00
 -1      4289 5.66625E+01 2.70460E+01 0.00000E+00
 -1      4290 5.81813E+01 2.70460E+01 0.00000E+00
 -1      4291 5.89313E+01 2.57470E+01 0.00000E+00
 -1      4292 9.16620E+01 2.43593E+01 0.00000E+00
 -1      4293 9.01620E+01 2.43593E+01 0.00000E+00
 -1      4294 8.86620E+01 2.43593E+01 0.00000E+00
 -1      4295 8.71620E+01 2.43593E+01 0.00000E+00
 -1      4296 9.77370E+01 2.43593E+01 0.00000E+00
 -1      4297 9.62370E+01 2.43593E+01 0.00000E+00
 -1      4298 1.00737E+02 2.43593E+01 0.00000E+00
 -1      4299 9.92370E+01 2.43593E+01 0.00000E+00
 -1      4300 1.03737E+02 2.43593E+01 0.00000E+00
 -1      4301 1.02237E+02 2.43593E+01 0.00000E+00
 -1      4302 1.06737E+02 2.43593E+01 0.00000E+00
 -1      4303 1.05237E+02 2.43593E+01 0.00000E+00
 -1      4304 1.09737E+02 2.43593E+01 0.00000E+00
 -1      4305 1.08237E+02 2.43593E+01 0.00000E+00
 -1      4306 1.12737E+02 2.43593E+01 0.00000E+00
 -1      4307 1.11237E+02 2.43593E+01 0.00000E+00
 -1      4308 1.15737E+02 2.43593E+01 0.00000E+00
 -1      4309 1.14237E+02 2.43593E+01 0.00000E+00
 -1      4310 1.18737E+02 2.43593E+01 0.00000E+00
 -1      4311 1.17237E+02 2.43593E+01 0.00000E+00
 -1      4312 1.21737E+02 2.43593E+01 0.00000E+00
 -1      4313 1.20237E+02 2.43593E+01 0.00000E+00
 -1      4314 1.24737E+02 2.43593E+01 0.00000E+00
 -1      4315 1.23237E+02 2.43593E+01 0.00000E+00
 -1      4316 8.26620E+01 2.43593E+01 0.00000E+00
 -1      4317 8.11620E+01 2.43593E+01 0.00000E+00
 -1      4318 4.76250E+01 2.70460E+01 0.00000E+00
 -1      4319 4.91250E+01 2.70460E+01 0.00000E+00
 -1      4320 1.25854E+02 2.74395E+01 0.00000E+00
 -1      4321 8.56620E+01 2.43593E+01 0.00000E+00
 -1      4322 8.41620E+01 2.43593E+01 0.00000E+00
 -1      4323 6.27000E+01 2.70460E+01 0.00000E+00
 -1      4324 6.42000E+01 2.70460E+01 0.00000E+00
 -1      4325 6.49500E+01 2.57470E+01 0.00000E+00
 -1      4326 6.19500E+01 2.57470E+01 0.00000E+00
 -1      4327 6.46620E+01 2.43593E+01 0.00000E+00
 -1      4328 6.31620E+01 2.43593E+01 0.00000E+00
 -1      4329 5.36250E+01 2.70460E+01 0.00000E+00
 -1      4330 5.51437E+01 2.70460E+01 0.00000E+00
 -1      4331 5.58937E+01 2.57470E+01 0.00000E+00
 -1      4332 7.06620E+01 2.43593E+01 0.00000E+00
 -1      4333 6.91620E+01 2.43593E+01 0.00000E+00
 -1      4334 5.06250E+01 2.70460E+01 0.00000E+00
 -1      4335 5.21250E+01 2.70460E+01 0.00000E+00
 -1      4336 4.98750E+01 2.57470E+01 0.00000E+00
 -1      4337 6.16620E+01 2.43593E+01 0.00000E+00
 -1      4338 6.01620E+01 2.43593E+01 0.00000E+00
 -1      4339 6.76620E+01 2.43593E+01 0.00000E+00
 -1      4340 6.61620E+01 2.43593E+01 0.00000E+00
 -1      4341 5.01240E+01 2.16725E+01 0.00000E+00
 -1      4342 4.93740E+01 2.29715E+01 0.00000E+00
 -1      4343 5.16240E+01 2.16725E+01 0.00000E+00
 -1      4344 7.96620E+01 2.43593E+01 0.00000E+00
 -1      4345 7.81620E+01 2.43593E+01 0.00000E+00
 -1      4346 4.48768E+01 2.68103E+01 0.00000E+00
 -1      4347 4.62920E+01 2.71279E+01 0.00000E+00
 -1      4348 4.70420E+01 2.58289E+01 0.00000E+00
 -1      4349 4.43760E+01 2.59926E+01 0.00000E+00
 -1      4350 4.34576E+01 2.37052E+01 0.00000E+00
 -1      4351 1.25104E+02 2.61405E+01 0.00000E+00
 -1      4352 5.86432E+01 2.43593E+01 0.00000E+00
 -1      4353 5.71432E+01 2.43593E+01 0.00000E+00
 -1      4354 4.39585E+01 2.45230E+01 0.00000E+00
 -1      4355 1.26242E+02 2.47528E+01 0.00000E+00
 -1      4356 1.27540E+02 2.40153E+01 0.00000E+00
 -1      4357 5.46240E+01 2.16725E+01 0.00000E+00
 -1      4358 5.31240E+01 2.16725E+01 0.00000E+00
 -1      4359 5.23740E+01 2.29715E+01 0.00000E+00
 -1      4360 5.53740E+01 2.29715E+01 0.00000E+00
 -1      4361 4.67915E+01 2.44411E+01 0.00000E+00
 -1      4362 4.52915E+01 2.44411E+01 0.00000E+00
 -1      4363 1.27637E+02 2.30581E+01 0.00000E+00
 -1      4364 5.28750E+01 2.57470E+01 0.00000E+00
 -1      4365 7.21620E+01 2.43593E+01 0.00000E+00
 -1      4366 7.36620E+01 2.43593E+01 0.00000E+00
 -1      4367 4.81245E+01 2.43593E+01 0.00000E+00
 -1      4368 4.96245E+01 2.43593E+01 0.00000E+00
 -1      4369 7.66620E+01 2.43593E+01 0.00000E+00
 -1      4370 7.51620E+01 2.43593E+01 0.00000E+00
 -1      4371 5.26245E+01 2.43593E+01 0.00000E+00
 -1      4372 5.41245E+01 2.43593E+01 0.00000E+00
 -1      4373 5.11245E+01 2.43593E+01 0.00000E+00
 -1      4374 5.56245E+01 2.43593E+01 0.00000E+00
 -3
    3C                          2104                                     1
 -1       167    8    0    1
 -2         6         7        23      1136      1302      1153
 -1       168    8    0    1
 -2         7         8       167      1137      1303      1304
 -1       169    8    0    1
 -2         8         9       168      1138      1305      1306
 -1       170    8    0    1
 -2         8       168       167      1306      1307      1303
 -1       171    8    0    1
 -2         9        10       169      1139      1308      1309
 -1       172    8    0    1
 -2         9       169       168      1309      1310      1305
 -1       173    8    0    1
 -2        10        11       170      1140      1311      1312
 -1       174    8    0    1
 -2        10       170       169      1312      1313      1308
 -1       175    8    0    1
 -2        11        12       171      1141      1314      1315
 -1       176    8    0    1
 -2        11       171       170      1315      1316      1311
 -1       177    8    0    1
 -2        12        13       172      1142      1317      1318
 -1       178    8    0    1
 -2        12       172       171      1318      1319      1314
 -1       179    8    0    1
 -2        13        14       173      1143      1320      1321
 -1       180    8    0    1
 -2        13       173       172      1321      1322      1317
 -1       181    8    0    1
 -2        14        15       174      1144      1323      1324
 -1       182    8    0    1
 -2        14       174       173      1324      1325      1320
 -1       183    8    0    1
 -2        15        16       175      1145      1326      1327
 -1       184    8    0    1
 -2        15       175       174      1327      1328      1323
 -1       185    8    0    1
 -2        16        17       176      1146      1329      1330
 -1       186    8    0    1
 -2        16       176       175      1330      1331      1326
 -1       187    8    0    1
 -2        17        18       177      1147      1332      1333
 -1       188    8    0    1
 -2        17       177       176      1333      1334      1329
 -1       189    8    0    1
 -2        18        19       178      1148      1335      1336
 -1       190    8    0    1
 -2        18       178       177      1336      1337      1332
 -1       191    8    0    1
 -2        19        20       179      1149      1338      1339
 -1       192    8    0    1
 -2        19       179       178      1339      1340      1335
 -1       193    8    0    1
 -2        20        21       180      1150      1341      1342
 -1       194    8    0    1
 -2        20       180       179      1342      1343      1338
 -1       195    8    0    1
 -2        21        22       181      1151      1344      1345
 -1       196    8    0    1
 -2        21       181       180      1345      1346      1341
 -1       197    8    0    1
 -2        22         5       182      1152      1347      1348
 -1       198    8    0    1
 -2       181        22       182      1344      1348      1349
 -1       199    8    0    1
 -2         5        74       182      1205      1350      1347
 -1       200    8    0    1
 -2        24        23       183      1154      1351      1352
 -1       201    8    0    1
 -2        25        24       184      1155      1353      1354
 -1       202    8    0    1
 -2        24       183       184      1352      1355      1353
 -1       203    8    0    1
 -2        26        25       185      1156      1356      1357
 -1       204    8    0    1
 -2        25       184       185      1354      1358      1356
 -1       205    8    0    1
 -2        27        26       186      1157      1359      1360
 -1       206    8    0    1
 -2        26       185       186      1357      1361      1359
 -1       207    8    0    1
 -2        29        28       187      1159      1362      1363
 -1       208    8    0    1
 -2        30        29       188      1160      1364      1365
 -1       209    8    0    1
 -2        29       187       188      1363      1366      1364
 -1       210    8    0    1
 -2        31        30       189      1161      1367      1368
 -1       211    8    0    1
 -2        30       188       189      1365      1369      1367
 -1       212    8    0    1
 -2        32        31       190      1162      1370      1371
 -1       213    8    0    1
 -2        31       189       190      1368      1372      1370
 -1       214    8    0    1
 -2        33        32       191      1163      1373      1374
 -1       215    8    0    1
 -2        32       190       191      1371      1375      1373
 -1       216    8    0    1
 -2        34        33       192      1164      1376      1377
 -1       217    8    0    1
 -2        33       191       192      1374      1378      1376
 -1       218    8    0    1
 -2        35        34       193      1165      1379      1380
 -1       219    8    0    1
 -2        34       192       193      1377      1381      1379
 -1       220    8    0    1
 -2        36        35       194      1166      1382      1383
 -1       221    8    0    1
 -2        35       193       194      1380      1384      1382
 -1       222    8    0    1
 -2        37        36       195      1167      1385      1386
 -1       223    8    0    1
 -2        36       194       195      1383      1387      1385
 -1       224    8    0    1
 -2        38        37       196      1168      1388      1389
 -1       225    8    0    1
 -2        37       195       196      1386      1390      1388
 -1       226    8    0    1
 -2        39        38       197      1169      1391      1392
 -1       227    8    0    1
 -2        38       196       197      1389      1393      1391
 -1       228    8    0    1
 -2        40        39       198      1170      1394      1395
 -1       229    8    0    1
 -2        39       197       198      1392      1396      1394
 -1       230    8    0    1
 -2        41        40       199      1171      1397      1398
 -1       231    8    0    1
 -2        40       198       199      1395      1399      1397
 -1       232    8    0    1
 -2        42        41       200      1172      1400      1401
 -1       233    8    0    1
 -2        41       199       200      1398      1402      1400
 -1       234    8    0    1
 -2        43        42       201      1173      1403      1404
 -1       235    8    0    1
 -2        42       200       201      1401      1405      1403
 -1       236    8    0    1
 -2        44        43       202      1174      1406      1407
 -1       237    8    0    1
 -2        43       201       202      1404      1408      1406
 -1       238    8    0    1
 -2        45        44       203      1175      1409      1410
 -1       239    8    0    1
 -2        44       202       203      1407      1411      1409
 -1       240    8    0    1
 -2        46        45       204      1176      1412      1413
 -1       241    8    0    1
 -2        45       203       204      1410      1414      1412
 -1       242    8    0    1
 -2        47        46       205      1177      1415      1416
 -1       243    8    0    1
 -2        46       204       205      1413      1417      1415
 -1       244    8    0    1
 -2        48        47       206      1178      1418      1419
 -1       245    8    0    1
 -2        47       205       206      1416      1420      1418
 -1       246    8    0    1
 -2        49        48       207      1179      1421      1422
 -1       247    8    0    1
 -2        48       206       207      1419      1423      1421
 -1       248    8    0    1
 -2        50        49       208      1180      1424      1425
 -1       249    8    0    1
 -2        49       207       208      1422      1426      1424
 -1       250    8    0    1
 -2        51        50       209      1181      1427      1428
 -1       251    8    0    1
 -2        50       208       209      1425      1429      1427
 -1       252    8    0    1
 -2        52        51       210      1182      1430      1431
 -1       253    8    0    1
 -2        51       209       210      1428      1432      1430
 -1       254    8    0    1
 -2        53        52       211      1183      1433      1434
 -1       255    8    0    1
 -2        52       210       211      1431      1435      1433
 -1       256    8    0    1
 -2        54        53       212      1184      1436      1437
 -1       257    8    0    1
 -2        53       211       212      1434      1438      1436
 -1       258    8    0    1
 -2        55        54       213      1185      1439      1440
 -1       259    8    0    1
 -2        54       212       213      1437      1441      1439
 -1       260    8    0    1
 -2        56        55       214      1186      1442      1443
 -1       261    8    0    1
 -2        55       213       214      1440      1444      1442
 -1       262    8    0    1
 -2        57        56       215      1187      1445      1446
 -1       263    8    0    1
 -2        56       214       215      1443      1447      1445
 -1       264    8    0    1
 -2        58        57       216      1188      1448      1449
 -1       265    8    0    1
 -2        57       215       216      1446      1450      1448
 -1       266    8    0    1
 -2        59        58       217      1189      1451      1452
 -1       267    8    0    1
 -2        58       216       217      1449      1453      1451
 -1       268    8    0    1
 -2        60        59       218      1190      1454      1455
 -1       269    8    0    1
 -2        59       217       218      1452      1456      1454
 -1       270    8    0    1
 -2        61        60       219      1191      1457      1458
 -1       271    8    0    1
 -2        60       218       219      1455      1459      1457
 -1       272    8    0    1
 -2        62        61       220      1192      1460      1461
 -1       273    8    0    1
 -2        61       219       220      1458      1462      1460
 -1       274    8    0    1
 -2        63        62       221      1193      1463      1464
 -1       275    8    0    1
 -2        62       220       221      1461      1465      1463
 -1       276    8    0    1
 -2        64        63       222      1194      1466      1467
 -1       277    8    0    1
 -2        63       221       222      1464      1468      1466
 -1       278    8    0    1
 -2        65        64       223      1195      1469      1470
 -1       279    8    0    1
 -2        64       222       223      1467      1471      1469
 -1       280    8    0    1
 -2        66        65       224      1196      1472      1473
 -1       281    8    0    1
 -2        65       223       224      1470      1474      1472
 -1       282    8    0    1
 -2        67        66       225      1197      1475      1476
 -1       283    8    0    1
 -2        66       224       225      1473      1477      1475
 -1       284    8    0    1
 -2        68        67       226      1198      1478      1479
 -1       285    8    0    1
 -2        67       225       226      1476      1480      1478
 -1       286    8    0    1
 -2        69        68       227      1199      1481      1482
 -1       287    8    0    1
 -2        68       226       227      1479      1483      1481
 -1       288    8    0    1
 -2        70        69       228      1200      1484      1485
 -1       289    8    0    1
 -2        69       227       228      1482      1486      1484
 -1       290    8    0    1
 -2        71        70       229      1201      1487      1488
 -1       291    8    0    1
 -2        70       228       229      1485      1489      1487
 -1       292    8    0    1
 -2        72        71       230      1202      1490      1491
 -1       293    8    0    1
 -2        71       229       230      1488      1492      1490
 -1       294    8    0    1
 -2        73        72       231      1203      1493      1494
 -1       295    8    0    1
 -2        72       230       231      1491      1495      1493
 -1       296    8    0    1
 -2         4        73       232      1204      1496      1497
 -1       297    8    0    1
 -2       138         4       232      1271      1497      1498
 -1       298    8    0    1
 -2        73       231       232      1494      1499      1496
 -1       299    8    0    1
 -2        74        75       233      1206      1500      1501
 -1       300    8    0    1
 -2        74       233       182      1501      1502      1350
 -1       301    8    0    1
 -2        75        76       234      1207      1503      1504
 -1       302    8    0    1
 -2        75       234       233      1504      1505      1500
 -1       303    8    0    1
 -2        76        77       235      1208      1506      1507
 -1       304    8    0    1
 -2        76       235       234      1507      1508      1503
 -1       305    8    0    1
 -2        77        78       236      1209      1509      1510
 -1       306    8    0    1
 -2        77       236       235      1510      1511      1506
 -1       307    8    0    1
 -2        78        79       237      1210      1512      1513
 -1       308    8    0    1
 -2        78       237       236      1513      1514      1509
 -1       309    8    0    1
 -2        79        80       238      1211      1515      1516
 -1       310    8    0    1
 -2        79       238       237      1516      1517      1512
 -1       311    8    0    1
 -2        80        81       239      1212      1518      1519
 -1       312    8    0    1
 -2        80       239       238      1519      1520      1515
 -1       313    8    0    1
 -2        81        82       240      1213      1521      1522
 -1       314    8    0    1
 -2        81       240       239      1522      1523      1518
 -1       315    8    0    1
 -2        82        83       241      1214      1524      1525
 -1       316    8    0    1
 -2        82       241       240      1525      1526      1521
 -1       317    8    0    1
 -2        83        84       242      1215      1527      1528
 -1       318    8    0    1
 -2        83       242       241      1528      1529      1524
 -1       319    8    0    1
 -2        84        85       243      1216      1530      1531
 -1       320    8    0    1
 -2        84       243       242      1531      1532      1527
 -1       321    8    0    1
 -2        85        86       244      1217      1533      1534
 -1       322    8    0    1
 -2        85       244       243      1534      1535      1530
 -1       323    8    0    1
 -2        86        87       245      1218      1536      1537
 -1       324    8    0    1
 -2        86       245       244      1537      1538      1533
 -1       325    8    0    1
 -2        87        88       246      1219      1539      1540
 -1       326    8    0    1
 -2        87       246       245      1540      1541      1536
 -1       327    8    0    1
 -2        88        89       247      1220      1542      1543
 -1       328    8    0    1
 -2        88       247       246      1543      1544      1539
 -1       329    8    0    1
 -2        89        90       248      1221      1545      1546
 -1       330    8    0    1
 -2        89       248       247      1546      1547      1542
 -1       331    8    0    1
 -2        90        91       249      1222      1548      1549
 -1       332    8    0    1
 -2        90       249       248      1549      1550      1545
 -1       333    8    0    1
 -2        91        92       250      1223      1551      1552
 -1       334    8    0    1
 -2        91       250       249      1552      1553      1548
 -1       335    8    0    1
 -2        92        93       251      1224      1554      1555
 -1       336    8    0    1
 -2        92       251       250      1555      1556      1551
 -1       337    8    0    1
 -2        93        94       252      1225      1557      1558
 -1       338    8    0    1
 -2        93       252       251      1558      1559      1554
 -1       339    8    0    1
 -2        94        95       253      1226      1560      1561
 -1       340    8    0    1
 -2        94       253       252      1561      1562      1557
 -1       341    8    0    1
 -2        95        96       254      1227      1563      1564
 -1       342    8    0    1
 -2        95       254       253      1564      1565      1560
 -1       343    8    0    1
 -2        96        97       255      1228      1566      1567
 -1       344    8    0    1
 -2        96       255       254      1567      1568      1563
 -1       345    8    0    1
 -2        97        98       256      1229      1569      1570
 -1       346    8    0    1
 -2        97       256       255      1570      1571      1566
 -1       347    8    0    1
 -2        98        99       257      1230      1572      1573
 -1       348    8    0    1
 -2        98       257       256      1573      1574      1569
 -1       349    8    0    1
 -2        99       100       258      1231      1575      1576
 -1       350    8    0    1
 -2        99       258       257      1576      1577      1572
 -1       351    8    0    1
 -2       100       101       259      1232      1578      1579
 -1       352    8    0    1
 -2       100       259       258      1579      1580      1575
 -1       353    8    0    1
 -2       101       102       260      1233      1581      1582
 -1       354    8    0    1
 -2       101       260       259      1582      1583      1578
 -1       355    8    0    1
 -2       102       103       261      1234      1584      1585
 -1       356    8    0    1
 -2       102       261       260      1585      1586      1581
 -1       357    8    0    1
 -2       103       104       262      1235      1587      1588
 -1       358    8    0    1
 -2       103       262       261      1588      1589      1584
 -1       359    8    0    1
 -2       104       105       263      1236      1590      1591
 -1       360    8    0    1
 -2       104       263       262      1591      1592      1587
 -1       361    8    0    1
 -2       105       106       264      1237      1593      1594
 -1       362    8    0    1
 -2       105       264       263      1594      1595      1590
 -1       363    8    0    1
 -2       106       107       265      1238      1596      1597
 -1       364    8    0    1
 -2       106       265       264      1597      1598      1593
 -1       365    8    0    1
 -2       107       108       266      1239      1599      1600
 -1       366    8    0    1
 -2       107       266       265      1600      1601      1596
 -1       367    8    0    1
 -2       108       109       267      1240      1602      1603
 -1       368    8    0    1
 -2       108       267       266      1603      1604      1599
 -1       369    8    0    1
 -2       109       110       268      1241      1605      1606
 -1       370    8    0    1
 -2       109       268       267      1606      1607      1602
 -1       371    8    0    1
 -2       110       111       269      1242      1608      1609
 -1       372    8    0    1
 -2       110       269       268      1609      1610      1605
 -1       373    8    0    1
 -2       111       112       270      1243      1611      1612
 -1       374    8    0    1
 -2       111       270       269      1612      1613      1608
 -1       375    8    0    1
 -2       112       113       271      1244      1614      1615
 -1       376    8    0    1
 -2       112       271       270      1615      1616      1611
 -1       377    8    0    1
 -2       113       114       272      1245      1617      1618
 -1       378    8    0    1
 -2       113       272       271      1618      1619      1614
 -1       379    8    0    1
 -2       114       115       273      1246      1620      1621
 -1       380    8    0    1
 -2       114       273       272      1621      1622      1617
 -1       381    8    0    1
 -2       115       116       274      1247      1623      1624
 -1       382    8    0    1
 -2       115       274       273      1624      1625      1620
 -1       383    8    0    1
 -2       116       117       275      1248      1626      1627
 -1       384    8    0    1
 -2       116       275       274      1627      1628      1623
 -1       385    8    0    1
 -2       117       118       276      1249      1629      1630
 -1       386    8    0    1
 -2       117       276       275      1630      1631      1626
 -1       387    8    0    1
 -2       118       119       277      1250      1632      1633
 -1       388    8    0    1
 -2       118       277       276      1633      1634      1629
 -1       389    8    0    1
 -2       119       120       278      1251      1635      1636
 -1       390    8    0    1
 -2       119       278       277      1636      1637      1632
 -1       391    8    0    1
 -2       120       121       279      1252      1638      1639
 -1       392    8    0    1
 -2       120       279       278      1639      1640      1635
 -1       393    8    0    1
 -2       121       122       280      1253      1641      1642
 -1       394    8    0    1
 -2       121       280       279      1642      1643      1638
 -1       395    8    0    1
 -2       122         3       123      1254      1255      1644
 -1       396    8    0    1
 -2       123       124       281      1256      1645      1646
 -1       397    8    0    1
 -2       124       125       282      1257      1647      1648
 -1       398    8    0    1
 -2       124       282       281      1648      1649      1645
 -1       399    8    0    1
 -2       125       126       283      1258      1650      1651
 -1       400    8    0    1
 -2       125       283       282      1651      1652      1647
 -1       401    8    0    1
 -2       126       127       284      1259      1653      1654
 -1       402    8    0    1
 -2       126       284       283      1654      1655      1650
 -1       403    8    0    1
 -2       127       128       285      1260      1656      1657
 -1       404    8    0    1
 -2       127       285       284      1657      1658      1653
 -1       405    8    0    1
 -2       128       129       286      1261      1659      1660
 -1       406    8    0    1
 -2       128       286       285      1660      1661      1656
 -1       407    8    0    1
 -2       129       130       287      1262      1662      1663
 -1       408    8    0    1
 -2       129       287       286      1663      1664      1659
 -1       409    8    0    1
 -2       130       131       288      1263      1665      1666
 -1       410    8    0    1
 -2       130       288       287      1666      1667      1662
 -1       411    8    0    1
 -2       131       132       289      1264      1668      1669
 -1       412    8    0    1
 -2       131       289       288      1669      1670      1665
 -1       413    8    0    1
 -2       132       133       290      1265      1671      1672
 -1       414    8    0    1
 -2       132       290       289      1672      1673      1668
 -1       415    8    0    1
 -2       133       134       291      1266      1674      1675
 -1       416    8    0    1
 -2       133       291       290      1675      1676      1671
 -1       417    8    0    1
 -2       134       135       292      1267      1677      1678
 -1       418    8    0    1
 -2       134       292       291      1678      1679      1674
 -1       419    8    0    1
 -2       135       136       293      1268      1680      1681
 -1       420    8    0    1
 -2       135       293       292      1681      1682      1677
 -1       421    8    0    1
 -2       136       137       294      1269      1683      1684
 -1       422    8    0    1
 -2       136       294       293      1684      1685      1680
 -1       423    8    0    1
 -2       137       138       295      1270      1686      1687
 -1       424    8    0    1
 -2       294       137       295      1683      1687      1688
 -1       425    8    0    1
 -2       138       232       295      1498      1689      1686
 -1       426    8    0    1
 -2         2       139       296      1272      1690      1691
 -1       427    8    0    1
 -2       139       140       297      1273      1692      1693
 -1       428    8    0    1
 -2       140       141       298      1274      1694      1695
 -1       429    8    0    1
 -2       141       142       299      1275      1696      1697
 -1       430    8    0    1
 -2       142       143       300      1276      1698      1699
 -1       431    8    0    1
 -2       143       144       301      1277      1700      1701
 -1       432    8    0    1
 -2       144       145       302      1278      1702      1703
 -1       433    8    0    1
 -2       145       146       303      1279      1704      1705
 -1       434    8    0    1
 -2       146       147       304      1280      1706      1707
 -1       435    8    0    1
 -2       147       148       305      1281      1708      1709
 -1       436    8    0    1
 -2       148       149       306      1282      1710      1711
 -1       437    8    0    1
 -2       149       150       307      1283      1712      1713
 -1       438    8    0    1
 -2       150       151       308      1284      1714      1715
 -1       439    8    0    1
 -2       151       152       309      1285      1716      1717
 -1       440    8    0    1
 -2       152       153       310      1286      1718      1719
 -1       441    8    0    1
 -2       153         1       311      1287      1720      1721
 -1       442    8    0    1
 -2         1       154       312      1288      1722      1723
 -1       443    8    0    1
 -2       154       155       313      1289      1724      1725
 -1       444    8    0    1
 -2       155       156       314      1290      1726      1727
 -1       445    8    0    1
 -2       156       157       315      1291      1728      1729
 -1       446    8    0    1
 -2       157       158       316      1292      1730      1731
 -1       447    8    0    1
 -2       158       159       317      1293      1732      1733
 -1       448    8    0    1
 -2       159       160       318      1294      1734      1735
 -1       449    8    0    1
 -2       159       318       317      1735      1736      1732
 -1       450    8    0    1
 -2       160       161       319      1295      1737      1738
 -1       451    8    0    1
 -2       161       162       320      1296      1739      1740
 -1       452    8    0    1
 -2       162       163       321      1297      1741      1742
 -1       453    8    0    1
 -2       163       164       322      1298      1743      1744
 -1       454    8    0    1
 -2       164       165       323      1299      1745      1746
 -1       455    8    0    1
 -2       165       166       324      1300      1747      1748
 -1       456    8    0    1
 -2       166         2       325      1301      1749      1750
 -1       457    8    0    1
 -2        27       186       326      1360      1751      1752
 -1       458    8    0    1
 -2       187        28       326      1362      1753      1754
 -1       459    8    0    1
 -2        28        27       326      1158      1752      1753
 -1       460    8    0    1
 -2         2       296       325      1691      1755      1749
 -1       461    8    0    1
 -2       298       141       299      1694      1697      1756
 -1       462    8    0    1
 -2       122       123       280      1644      1757      1641
 -1       463    8    0    1
 -2       123       281       280      1646      1758      1757
 -1       464    8    0    1
 -2       296       139       297      1690      1693      1759
 -1       465    8    0    1
 -2       297       140       298      1692      1695      1760
 -1       466    8    0    1
 -2       142       300       299      1699      1761      1696
 -1       467    8    0    1
 -2       143       301       300      1701      1762      1698
 -1       468    8    0    1
 -2       144       302       301      1703      1763      1700
 -1       469    8    0    1
 -2       145       303       302      1705      1764      1702
 -1       470    8    0    1
 -2       146       304       303      1707      1765      1704
 -1       471    8    0    1
 -2       147       305       304      1709      1766      1706
 -1       472    8    0    1
 -2       148       306       305      1711      1767      1708
 -1       473    8    0    1
 -2       149       307       306      1713      1768      1710
 -1       474    8    0    1
 -2       150       308       307      1715      1769      1712
 -1       475    8    0    1
 -2       151       309       308      1717      1770      1714
 -1       476    8    0    1
 -2       152       310       309      1719      1771      1716
 -1       477    8    0    1
 -2       153       311       310      1721      1772      1718
 -1       478    8    0    1
 -2         1       312       311      1723      1773      1720
 -1       479    8    0    1
 -2       154       313       312      1725      1774      1722
 -1       480    8    0    1
 -2       155       314       313      1727      1775      1724
 -1       481    8    0    1
 -2       156       315       314      1729      1776      1726
 -1       482    8    0    1
 -2       157       316       315      1731      1777      1728
 -1       483    8    0    1
 -2       158       317       316      1733      1778      1730
 -1       484    8    0    1
 -2       319       161       320      1737      1740      1779
 -1       485    8    0    1
 -2       162       321       320      1742      1780      1739
 -1       486    8    0    1
 -2       163       322       321      1744      1781      1741
 -1       487    8    0    1
 -2       164       323       322      1746      1782      1743
 -1       488    8    0    1
 -2       165       324       323      1748      1783      1745
 -1       489    8    0    1
 -2       166       325       324      1750      1784      1747
 -1       490    8    0    1
 -2        23         7       167      1302      1304      1785
 -1       491    8    0    1
 -2       160       319       318      1738      1786      1734
 -1       492    8    0    1
 -2       168       169       327      1310      1787      1788
 -1       493    8    0    1
 -2       167       168       328      1307      1789      1790
 -1       494    8    0    1
 -2       168       327       328      1788      1791      1789
 -1       495    8    0    1
 -2       170       171       329      1316      1792      1793
 -1       496    8    0    1
 -2       171       172       330      1319      1794      1795
 -1       497    8    0    1
 -2       171       330       329      1795      1796      1792
 -1       498    8    0    1
 -2       172       173       331      1322      1797      1798
 -1       499    8    0    1
 -2       172       331       330      1798      1799      1794
 -1       500    8    0    1
 -2       173       174       332      1325      1800      1801
 -1       501    8    0    1
 -2       173       332       331      1801      1802      1797
 -1       502    8    0    1
 -2       174       175       333      1328      1803      1804
 -1       503    8    0    1
 -2       174       333       332      1804      1805      1800
 -1       504    8    0    1
 -2       175       176       334      1331      1806      1807
 -1       505    8    0    1
 -2       175       334       333      1807      1808      1803
 -1       506    8    0    1
 -2       176       177       335      1334      1809      1810
 -1       507    8    0    1
 -2       176       335       334      1810      1811      1806
 -1       508    8    0    1
 -2       177       178       336      1337      1812      1813
 -1       509    8    0    1
 -2       177       336       335      1813      1814      1809
 -1       510    8    0    1
 -2       178       179       337      1340      1815      1816
 -1       511    8    0    1
 -2       178       337       336      1816      1817      1812
 -1       512    8    0    1
 -2       179       180       338      1343      1818      1819
 -1       513    8    0    1
 -2       179       338       337      1819      1820      1815
 -1       514    8    0    1
 -2       180       181       339      1346      1821      1822
 -1       515    8    0    1
 -2       180       339       338      1822      1823      1818
 -1       516    8    0    1
 -2       181       182       340      1349      1824      1825
 -1       517    8    0    1
 -2       339       181       340      1821      1825      1826
 -1       518    8    0    1
 -2       182       233       340      1502      1827      1824
 -1       519    8    0    1
 -2       183        23       167      1351      1785      1828
 -1       520    8    0    1
 -2       233       234       341      1505      1829      1830
 -1       521    8    0    1
 -2       233       341       340      1830      1831      1827
 -1       522    8    0    1
 -2       187       326       315      1754      1832      1833
 -1       523    8    0    1
 -2       185       184       342      1358      1834      1835
 -1       524    8    0    1
 -2       186       185       343      1361      1836      1837
 -1       525    8    0    1
 -2       185       342       343      1835      1838      1836
 -1       526    8    0    1
 -2       189       188       317      1369      1839      1840
 -1       527    8    0    1
 -2       190       189       319      1372      1841      1842
 -1       528    8    0    1
 -2       193       192       344      1381      1843      1844
 -1       529    8    0    1
 -2       194       193       345      1384      1845      1846
 -1       530    8    0    1
 -2       193       344       345      1844      1847      1845
 -1       531    8    0    1
 -2       195       194       346      1387      1848      1849
 -1       532    8    0    1
 -2       194       345       346      1846      1850      1848
 -1       533    8    0    1
 -2       196       195       347      1390      1851      1852
 -1       534    8    0    1
 -2       195       346       347      1849      1853      1851
 -1       535    8    0    1
 -2       197       196       348      1393      1854      1855
 -1       536    8    0    1
 -2       196       347       348      1852      1856      1854
 -1       537    8    0    1
 -2       198       197       349      1396      1857      1858
 -1       538    8    0    1
 -2       197       348       349      1855      1859      1857
 -1       539    8    0    1
 -2       199       198       350      1399      1860      1861
 -1       540    8    0    1
 -2       198       349       350      1858      1862      1860
 -1       541    8    0    1
 -2       200       199       351      1402      1863      1864
 -1       542    8    0    1
 -2       199       350       351      1861      1865      1863
 -1       543    8    0    1
 -2       201       200       352      1405      1866      1867
 -1       544    8    0    1
 -2       200       351       352      1864      1868      1866
 -1       545    8    0    1
 -2       202       201       353      1408      1869      1870
 -1       546    8    0    1
 -2       201       352       353      1867      1871      1869
 -1       547    8    0    1
 -2       203       202       354      1411      1872      1873
 -1       548    8    0    1
 -2       202       353       354      1870      1874      1872
 -1       549    8    0    1
 -2       204       203       355      1414      1875      1876
 -1       550    8    0    1
 -2       203       354       355      1873      1877      1875
 -1       551    8    0    1
 -2       205       204       356      1417      1878      1879
 -1       552    8    0    1
 -2       204       355       356      1876      1880      1878
 -1       553    8    0    1
 -2       206       205       357      1420      1881      1882
 -1       554    8    0    1
 -2       205       356       357      1879      1883      1881
 -1       555    8    0    1
 -2       207       206       358      1423      1884      1885
 -1       556    8    0    1
 -2       206       357       358      1882      1886      1884
 -1       557    8    0    1
 -2       208       207       359      1426      1887      1888
 -1       558    8    0    1
 -2       207       358       359      1885      1889      1887
 -1       559    8    0    1
 -2       209       208       360      1429      1890      1891
 -1       560    8    0    1
 -2       208       359       360      1888      1892      1890
 -1       561    8    0    1
 -2       210       209       361      1432      1893      1894
 -1       562    8    0    1
 -2       209       360       361      1891      1895      1893
 -1       563    8    0    1
 -2       211       210       362      1435      1896      1897
 -1       564    8    0    1
 -2       210       361       362      1894      1898      1896
 -1       565    8    0    1
 -2       212       211       363      1438      1899      1900
 -1       566    8    0    1
 -2       211       362       363      1897      1901      1899
 -1       567    8    0    1
 -2       213       212       364      1441      1902      1903
 -1       568    8    0    1
 -2       212       363       364      1900      1904      1902
 -1       569    8    0    1
 -2       214       213       365      1444      1905      1906
 -1       570    8    0    1
 -2       213       364       365      1903      1907      1905
 -1       571    8    0    1
 -2       215       214       366      1447      1908      1909
 -1       572    8    0    1
 -2       214       365       366      1906      1910      1908
 -1       573    8    0    1
 -2       216       215       367      1450      1911      1912
 -1       574    8    0    1
 -2       215       366       367      1909      1913      1911
 -1       575    8    0    1
 -2       217       216       368      1453      1914      1915
 -1       576    8    0    1
 -2       216       367       368      1912      1916      1914
 -1       577    8    0    1
 -2       218       217       369      1456      1917      1918
 -1       578    8    0    1
 -2       217       368       369      1915      1919      1917
 -1       579    8    0    1
 -2       219       218       370      1459      1920      1921
 -1       580    8    0    1
 -2       218       369       370      1918      1922      1920
 -1       581    8    0    1
 -2       220       219       371      1462      1923      1924
 -1       582    8    0    1
 -2       219       370       371      1921      1925      1923
 -1       583    8    0    1
 -2       221       220       372      1465      1926      1927
 -1       584    8    0    1
 -2       220       371       372      1924      1928      1926
 -1       585    8    0    1
 -2       222       221       373      1468      1929      1930
 -1       586    8    0    1
 -2       221       372       373      1927      1931      1929
 -1       587    8    0    1
 -2       223       222       374      1471      1932      1933
 -1       588    8    0    1
 -2       222       373       374      1930      1934      1932
 -1       589    8    0    1
 -2       224       223       375      1474      1935      1936
 -1       590    8    0    1
 -2       223       374       375      1933      1937      1935
 -1       591    8    0    1
 -2       225       224       376      1477      1938      1939
 -1       592    8    0    1
 -2       224       375       376      1936      1940      1938
 -1       593    8    0    1
 -2       226       225       377      1480      1941      1942
 -1       594    8    0    1
 -2       225       376       377      1939      1943      1941
 -1       595    8    0    1
 -2       227       226       378      1483      1944      1945
 -1       596    8    0    1
 -2       226       377       378      1942      1946      1944
 -1       597    8    0    1
 -2       228       227       379      1486      1947      1948
 -1       598    8    0    1
 -2       227       378       379      1945      1949      1947
 -1       599    8    0    1
 -2       229       228       380      1489      1950      1951
 -1       600    8    0    1
 -2       228       379       380      1948      1952      1950
 -1       601    8    0    1
 -2       230       229       381      1492      1953      1954
 -1       602    8    0    1
 -2       229       380       381      1951      1955      1953
 -1       603    8    0    1
 -2       231       230       382      1495      1956      1957
 -1       604    8    0    1
 -2       230       381       382      1954      1958      1956
 -1       605    8    0    1
 -2       232       231       383      1499      1959      1960
 -1       606    8    0    1
 -2       295       232       383      1689      1960      1961
 -1       607    8    0    1
 -2       231       382       383      1957      1962      1959
 -1       608    8    0    1
 -2       183       167       328      1828      1790      1963
 -1       609    8    0    1
 -2       235       236       384      1511      1964      1965
 -1       610    8    0    1
 -2       236       237       385      1514      1966      1967
 -1       611    8    0    1
 -2       236       385       384      1967      1968      1964
 -1       612    8    0    1
 -2       237       238       386      1517      1969      1970
 -1       613    8    0    1
 -2       237       386       385      1970      1971      1966
 -1       614    8    0    1
 -2       238       239       387      1520      1972      1973
 -1       615    8    0    1
 -2       238       387       386      1973      1974      1969
 -1       616    8    0    1
 -2       239       240       388      1523      1975      1976
 -1       617    8    0    1
 -2       239       388       387      1976      1977      1972
 -1       618    8    0    1
 -2       240       241       389      1526      1978      1979
 -1       619    8    0    1
 -2       240       389       388      1979      1980      1975
 -1       620    8    0    1
 -2       241       242       390      1529      1981      1982
 -1       621    8    0    1
 -2       241       390       389      1982      1983      1978
 -1       622    8    0    1
 -2       242       243       391      1532      1984      1985
 -1       623    8    0    1
 -2       242       391       390      1985      1986      1981
 -1       624    8    0    1
 -2       243       244       392      1535      1987      1988
 -1       625    8    0    1
 -2       243       392       391      1988      1989      1984
 -1       626    8    0    1
 -2       244       245       393      1538      1990      1991
 -1       627    8    0    1
 -2       244       393       392      1991      1992      1987
 -1       628    8    0    1
 -2       245       246       394      1541      1993      1994
 -1       629    8    0    1
 -2       245       394       393      1994      1995      1990
 -1       630    8    0    1
 -2       246       247       395      1544      1996      1997
 -1       631    8    0    1
 -2       246       395       394      1997      1998      1993
 -1       632    8    0    1
 -2       247       248       396      1547      1999      2000
 -1       633    8    0    1
 -2       247       396       395      2000      2001      1996
 -1       634    8    0    1
 -2       248       249       397      1550      2002      2003
 -1       635    8    0    1
 -2       248       397       396      2003      2004      1999
 -1       636    8    0    1
 -2       249       250       398      1553      2005      2006
 -1       637    8    0    1
 -2       249       398       397      2006      2007      2002
 -1       638    8    0    1
 -2       250       251       399      1556      2008      2009
 -1       639    8    0    1
 -2       250       399       398      2009      2010      2005
 -1       640    8    0    1
 -2       251       252       400      1559      2011      2012
 -1       641    8    0    1
 -2       251       400       399      2012      2013      2008
 -1       642    8    0    1
 -2       252       253       401      1562      2014      2015
 -1       643    8    0    1
 -2       252       401       400      2015      2016      2011
 -1       644    8    0    1
 -2       253       254       402      1565      2017      2018
 -1       645    8    0    1
 -2       253       402       401      2018      2019      2014
 -1       646    8    0    1
 -2       254       255       403      1568      2020      2021
 -1       647    8    0    1
 -2       254       403       402      2021      2022      2017
 -1       648    8    0    1
 -2       255       256       404      1571      2023      2024
 -1       649    8    0    1
 -2       255       404       403      2024      2025      2020
 -1       650    8    0    1
 -2       256       257       405      1574      2026      2027
 -1       651    8    0    1
 -2       256       405       404      2027      2028      2023
 -1       652    8    0    1
 -2       257       258       406      1577      2029      2030
 -1       653    8    0    1
 -2       257       406       405      2030      2031      2026
 -1       654    8    0    1
 -2       258       259       407      1580      2032      2033
 -1       655    8    0    1
 -2       258       407       406      2033      2034      2029
 -1       656    8    0    1
 -2       259       260       408      1583      2035      2036
 -1       657    8    0    1
 -2       259       408       407      2036      2037      2032
 -1       658    8    0    1
 -2       260       261       409      1586      2038      2039
 -1       659    8    0    1
 -2       260       409       408      2039      2040      2035
 -1       660    8    0    1
 -2       261       262       410      1589      2041      2042
 -1       661    8    0    1
 -2       261       410       409      2042      2043      2038
 -1       662    8    0    1
 -2       262       263       411      1592      2044      2045
 -1       663    8    0    1
 -2       262       411       410      2045      2046      2041
 -1       664    8    0    1
 -2       263       264       412      1595      2047      2048
 -1       665    8    0    1
 -2       263       412       411      2048      2049      2044
 -1       666    8    0    1
 -2       264       265       413      1598      2050      2051
 -1       667    8    0    1
 -2       264       413       412      2051      2052      2047
 -1       668    8    0    1
 -2       265       266       414      1601      2053      2054
 -1       669    8    0    1
 -2       265       414       413      2054      2055      2050
 -1       670    8    0    1
 -2       266       267       415      1604      2056      2057
 -1       671    8    0    1
 -2       266       415       414      2057      2058      2053
 -1       672    8    0    1
 -2       267       268       416      1607      2059      2060
 -1       673    8    0    1
 -2       267       416       415      2060      2061      2056
 -1       674    8    0    1
 -2       268       269       417      1610      2062      2063
 -1       675    8    0    1
 -2       268       417       416      2063      2064      2059
 -1       676    8    0    1
 -2       269       270       418      1613      2065      2066
 -1       677    8    0    1
 -2       269       418       417      2066      2067      2062
 -1       678    8    0    1
 -2       270       271       419      1616      2068      2069
 -1       679    8    0    1
 -2       270       419       418      2069      2070      2065
 -1       680    8    0    1
 -2       271       272       420      1619      2071      2072
 -1       681    8    0    1
 -2       271       420       419      2072      2073      2068
 -1       682    8    0    1
 -2       272       273       421      1622      2074      2075
 -1       683    8    0    1
 -2       272       421       420      2075      2076      2071
 -1       684    8    0    1
 -2       273       274       422      1625      2077      2078
 -1       685    8    0    1
 -2       273       422       421      2078      2079      2074
 -1       686    8    0    1
 -2       274       275       423      1628      2080      2081
 -1       687    8    0    1
 -2       274       423       422      2081      2082      2077
 -1       688    8    0    1
 -2       275       276       424      1631      2083      2084
 -1       689    8    0    1
 -2       275       424       423      2084      2085      2080
 -1       690    8    0    1
 -2       276       277       425      1634      2086      2087
 -1       691    8    0    1
 -2       276       425       424      2087      2088      2083
 -1       692    8    0    1
 -2       277       278       426      1637      2089      2090
 -1       693    8    0    1
 -2       277       426       425      2090      2091      2086
 -1       694    8    0    1
 -2       278       279       427      1640      2092      2093
 -1       695    8    0    1
 -2       278       427       426      2093      2094      2089
 -1       696    8    0    1
 -2       279       280       428      1643      2095      2096
 -1       697    8    0    1
 -2       427       279       428      2092      2096      2097
 -1       698    8    0    1
 -2       280       281       428      1758      2098      2095
 -1       699    8    0    1
 -2       283       284       429      1655      2099      2100
 -1       700    8    0    1
 -2       282       283       430      1652      2101      2102
 -1       701    8    0    1
 -2       283       429       430      2100      2103      2101
 -1       702    8    0    1
 -2       281       282       428      1649      2104      2098
 -1       703    8    0    1
 -2       284       285       431      1658      2105      2106
 -1       704    8    0    1
 -2       284       431       429      2106      2107      2099
 -1       705    8    0    1
 -2       285       286       432      1661      2108      2109
 -1       706    8    0    1
 -2       285       432       431      2109      2110      2105
 -1       707    8    0    1
 -2       286       287       433      1664      2111      2112
 -1       708    8    0    1
 -2       286       433       432      2112      2113      2108
 -1       709    8    0    1
 -2       287       288       434      1667      2114      2115
 -1       710    8    0    1
 -2       287       434       433      2115      2116      2111
 -1       711    8    0    1
 -2       288       289       435      1670      2117      2118
 -1       712    8    0    1
 -2       288       435       434      2118      2119      2114
 -1       713    8    0    1
 -2       289       290       436      1673      2120      2121
 -1       714    8    0    1
 -2       289       436       435      2121      2122      2117
 -1       715    8    0    1
 -2       290       291       437      1676      2123      2124
 -1       716    8    0    1
 -2       290       437       436      2124      2125      2120
 -1       717    8    0    1
 -2       291       292       438      1679      2126      2127
 -1       718    8    0    1
 -2       291       438       437      2127      2128      2123
 -1       719    8    0    1
 -2       292       293       439      1682      2129      2130
 -1       720    8    0    1
 -2       292       439       438      2130      2131      2126
 -1       721    8    0    1
 -2       293       294       440      1685      2132      2133
 -1       722    8    0    1
 -2       293       440       439      2133      2134      2129
 -1       723    8    0    1
 -2       234       235       441      1508      2135      2136
 -1       724    8    0    1
 -2       341       234       441      1829      2136      2137
 -1       725    8    0    1
 -2       235       384       441      1965      2138      2135
 -1       726    8    0    1
 -2       297       298       442      1760      2139      2140
 -1       727    8    0    1
 -2       299       300       443      1761      2141      2142
 -1       728    8    0    1
 -2       296       297       444      1759      2143      2144
 -1       729    8    0    1
 -2       320       321       445      1780      2145      2146
 -1       730    8    0    1
 -2       169       170       446      1313      2147      2148
 -1       731    8    0    1
 -2       327       169       446      1787      2148      2149
 -1       732    8    0    1
 -2       170       329       446      1793      2150      2147
 -1       733    8    0    1
 -2       300       301       447      1762      2151      2152
 -1       734    8    0    1
 -2       301       302       448      1763      2153      2154
 -1       735    8    0    1
 -2       302       303       449      1764      2155      2156
 -1       736    8    0    1
 -2       303       304       450      1765      2157      2158
 -1       737    8    0    1
 -2       304       305       451      1766      2159      2160
 -1       738    8    0    1
 -2       304       451       450      2160      2161      2157
 -1       739    8    0    1
 -2       305       306       452      1767      2162      2163
 -1       740    8    0    1
 -2       306       307       453      1768      2164      2165
 -1       741    8    0    1
 -2       307       308       454      1769      2166      2167
 -1       742    8    0    1
 -2       308       309       455      1770      2168      2169
 -1       743    8    0    1
 -2       309       310       456      1771      2170      2171
 -1       744    8    0    1
 -2       310       311       457      1772      2172      2173
 -1       745    8    0    1
 -2       311       312       458      1773      2174      2175
 -1       746    8    0    1
 -2       312       313       459      1774      2176      2177
 -1       747    8    0    1
 -2       313       314       460      1775      2178      2179
 -1       748    8    0    1
 -2       314       315       326      1776      1832      2180
 -1       749    8    0    1
 -2       315       316       187      1777      2181      1833
 -1       750    8    0    1
 -2       316       317       188      1778      1839      2182
 -1       751    8    0    1
 -2       319       320       190      1779      2183      1842
 -1       752    8    0    1
 -2       322       323       461      1782      2184      2185
 -1       753    8    0    1
 -2       323       324       462      1783      2186      2187
 -1       754    8    0    1
 -2       324       325       463      1784      2188      2189
 -1       755    8    0    1
 -2       298       299       464      1756      2190      2191
 -1       756    8    0    1
 -2       325       296       465      1755      2192      2193
 -1       757    8    0    1
 -2       316       188       187      2182      1366      2181
 -1       758    8    0    1
 -2       314       326       460      2180      2194      2178
 -1       759    8    0    1
 -2       297       442       444      2140      2195      2143
 -1       760    8    0    1
 -2       442       298       464      2139      2191      2196
 -1       761    8    0    1
 -2       460       326       186      2194      1751      2197
 -1       762    8    0    1
 -2       184       183       328      1355      1963      2198
 -1       763    8    0    1
 -2       318       319       189      1786      1841      2199
 -1       764    8    0    1
 -2       189       317       318      1840      1736      2199
 -1       765    8    0    1
 -2       186       343       460      1837      2200      2197
 -1       766    8    0    1
 -2       190       320       191      2183      2201      1375
 -1       767    8    0    1
 -2       322       461       466      2185      2202      2203
 -1       768    8    0    1
 -2       322       466       321      2203      2204      1781
 -1       769    8    0    1
 -2       321       466       445      2204      2205      2145
 -1       770    8    0    1
 -2       428       282       430      2104      2102      2206
 -1       771    8    0    1
 -2       294       295       467      1688      2207      2208
 -1       772    8    0    1
 -2       440       294       467      2132      2208      2209
 -1       773    8    0    1
 -2       295       383       467      1961      2210      2207
 -1       774    8    0    1
 -2       443       300       447      2141      2152      2211
 -1       775    8    0    1
 -2       299       443       464      2142      2212      2190
 -1       776    8    0    1
 -2       296       444       465      2144      2213      2192
 -1       777    8    0    1
 -2       459       313       460      2176      2179      2214
 -1       778    8    0    1
 -2       458       312       459      2174      2177      2215
 -1       779    8    0    1
 -2       457       311       458      2172      2175      2216
 -1       780    8    0    1
 -2       456       310       457      2170      2173      2217
 -1       781    8    0    1
 -2       455       309       456      2168      2171      2218
 -1       782    8    0    1
 -2       454       308       455      2166      2169      2219
 -1       783    8    0    1
 -2       453       307       454      2164      2167      2220
 -1       784    8    0    1
 -2       451       305       452      2159      2163      2221
 -1       785    8    0    1
 -2       449       303       450      2155      2158      2222
 -1       786    8    0    1
 -2       448       302       449      2153      2156      2223
 -1       787    8    0    1
 -2       301       448       447      2154      2224      2151
 -1       788    8    0    1
 -2       452       306       453      2162      2165      2225
 -1       789    8    0    1
 -2       463       325       465      2188      2193      2226
 -1       790    8    0    1
 -2       462       324       463      2186      2189      2227
 -1       791    8    0    1
 -2       461       323       462      2184      2187      2228
 -1       792    8    0    1
 -2       191       320       445      2201      2146      2229
 -1       793    8    0    1
 -2       184       328       342      2198      2230      1834
 -1       794    8    0    1
 -2       330       331       468      1799      2231      2232
 -1       795    8    0    1
 -2       329       330       469      1796      2233      2234
 -1       796    8    0    1
 -2       330       468       469      2232      2235      2233
 -1       797    8    0    1
 -2       332       333       470      1805      2236      2237
 -1       798    8    0    1
 -2       333       334       471      1808      2238      2239
 -1       799    8    0    1
 -2       333       471       470      2239      2240      2236
 -1       800    8    0    1
 -2       334       335       472      1811      2241      2242
 -1       801    8    0    1
 -2       334       472       471      2242      2243      2238
 -1       802    8    0    1
 -2       335       336       473      1814      2244      2245
 -1       803    8    0    1
 -2       335       473       472      2245      2246      2241
 -1       804    8    0    1
 -2       336       337       474      1817      2247      2248
 -1       805    8    0    1
 -2       336       474       473      2248      2249      2244
 -1       806    8    0    1
 -2       337       338       475      1820      2250      2251
 -1       807    8    0    1
 -2       337       475       474      2251      2252      2247
 -1       808    8    0    1
 -2       338       339       476      1823      2253      2254
 -1       809    8    0    1
 -2       338       476       475      2254      2255      2250
 -1       810    8    0    1
 -2       339       340       477      1826      2256      2257
 -1       811    8    0    1
 -2       476       339       477      2253      2257      2258
 -1       812    8    0    1
 -2       340       341       477      1831      2259      2256
 -1       813    8    0    1
 -2       343       342       478      1838      2260      2261
 -1       814    8    0    1
 -2       466       461       344      2202      2262      2263
 -1       815    8    0    1
 -2       460       343       459      2200      2264      2214
 -1       816    8    0    1
 -2       192       191       445      1378      2229      2265
 -1       817    8    0    1
 -2       443       447       479      2211      2266      2267
 -1       818    8    0    1
 -2       346       345       480      1850      2268      2269
 -1       819    8    0    1
 -2       347       346       481      1853      2270      2271
 -1       820    8    0    1
 -2       348       347       482      1856      2272      2273
 -1       821    8    0    1
 -2       347       481       482      2271      2274      2272
 -1       822    8    0    1
 -2       349       348       483      1859      2275      2276
 -1       823    8    0    1
 -2       348       482       483      2273      2277      2275
 -1       824    8    0    1
 -2       350       349       484      1862      2278      2279
 -1       825    8    0    1
 -2       349       483       484      2276      2280      2278
 -1       826    8    0    1
 -2       351       350       485      1865      2281      2282
 -1       827    8    0    1
 -2       350       484       485      2279      2283      2281
 -1       828    8    0    1
 -2       352       351       486      1868      2284      2285
 -1       829    8    0    1
 -2       351       485       486      2282      2286      2284
 -1       830    8    0    1
 -2       353       352       487      1871      2287      2288
 -1       831    8    0    1
 -2       352       486       487      2285      2289      2287
 -1       832    8    0    1
 -2       354       353       488      1874      2290      2291
 -1       833    8    0    1
 -2       353       487       488      2288      2292      2290
 -1       834    8    0    1
 -2       355       354       489      1877      2293      2294
 -1       835    8    0    1
 -2       354       488       489      2291      2295      2293
 -1       836    8    0    1
 -2       356       355       490      1880      2296      2297
 -1       837    8    0    1
 -2       355       489       490      2294      2298      2296
 -1       838    8    0    1
 -2       357       356       491      1883      2299      2300
 -1       839    8    0    1
 -2       356       490       491      2297      2301      2299
 -1       840    8    0    1
 -2       358       357       492      1886      2302      2303
 -1       841    8    0    1
 -2       357       491       492      2300      2304      2302
 -1       842    8    0    1
 -2       359       358       493      1889      2305      2306
 -1       843    8    0    1
 -2       358       492       493      2303      2307      2305
 -1       844    8    0    1
 -2       360       359       494      1892      2308      2309
 -1       845    8    0    1
 -2       359       493       494      2306      2310      2308
 -1       846    8    0    1
 -2       361       360       495      1895      2311      2312
 -1       847    8    0    1
 -2       360       494       495      2309      2313      2311
 -1       848    8    0    1
 -2       362       361       496      1898      2314      2315
 -1       849    8    0    1
 -2       361       495       496      2312      2316      2314
 -1       850    8    0    1
 -2       363       362       497      1901      2317      2318
 -1       851    8    0    1
 -2       362       496       497      2315      2319      2317
 -1       852    8    0    1
 -2       364       363       498      1904      2320      2321
 -1       853    8    0    1
 -2       363       497       498      2318      2322      2320
 -1       854    8    0    1
 -2       365       364       499      1907      2323      2324
 -1       855    8    0    1
 -2       364       498       499      2321      2325      2323
 -1       856    8    0    1
 -2       366       365       500      1910      2326      2327
 -1       857    8    0    1
 -2       365       499       500      2324      2328      2326
 -1       858    8    0    1
 -2       367       366       501      1913      2329      2330
 -1       859    8    0    1
 -2       366       500       501      2327      2331      2329
 -1       860    8    0    1
 -2       368       367       502      1916      2332      2333
 -1       861    8    0    1
 -2       367       501       502      2330      2334      2332
 -1       862    8    0    1
 -2       369       368       503      1919      2335      2336
 -1       863    8    0    1
 -2       368       502       503      2333      2337      2335
 -1       864    8    0    1
 -2       370       369       504      1922      2338      2339
 -1       865    8    0    1
 -2       369       503       504      2336      2340      2338
 -1       866    8    0    1
 -2       371       370       505      1925      2341      2342
 -1       867    8    0    1
 -2       370       504       505      2339      2343      2341
 -1       868    8    0    1
 -2       372       371       506      1928      2344      2345
 -1       869    8    0    1
 -2       371       505       506      2342      2346      2344
 -1       870    8    0    1
 -2       373       372       507      1931      2347      2348
 -1       871    8    0    1
 -2       372       506       507      2345      2349      2347
 -1       872    8    0    1
 -2       374       373       508      1934      2350      2351
 -1       873    8    0    1
 -2       373       507       508      2348      2352      2350
 -1       874    8    0    1
 -2       375       374       509      1937      2353      2354
 -1       875    8    0    1
 -2       374       508       509      2351      2355      2353
 -1       876    8    0    1
 -2       376       375       510      1940      2356      2357
 -1       877    8    0    1
 -2       375       509       510      2354      2358      2356
 -1       878    8    0    1
 -2       377       376       511      1943      2359      2360
 -1       879    8    0    1
 -2       376       510       511      2357      2361      2359
 -1       880    8    0    1
 -2       378       377       512      1946      2362      2363
 -1       881    8    0    1
 -2       377       511       512      2360      2364      2362
 -1       882    8    0    1
 -2       379       378       513      1949      2365      2366
 -1       883    8    0    1
 -2       378       512       513      2363      2367      2365
 -1       884    8    0    1
 -2       380       379       514      1952      2368      2369
 -1       885    8    0    1
 -2       379       513       514      2366      2370      2368
 -1       886    8    0    1
 -2       381       380       515      1955      2371      2372
 -1       887    8    0    1
 -2       380       514       515      2369      2373      2371
 -1       888    8    0    1
 -2       428       430       427      2206      2374      2097
 -1       889    8    0    1
 -2       385       386       516      1971      2375      2376
 -1       890    8    0    1
 -2       384       385       517      1968      2377      2378
 -1       891    8    0    1
 -2       385       516       517      2376      2379      2377
 -1       892    8    0    1
 -2       387       388       518      1977      2380      2381
 -1       893    8    0    1
 -2       388       389       519      1980      2382      2383
 -1       894    8    0    1
 -2       388       519       518      2383      2384      2380
 -1       895    8    0    1
 -2       389       390       520      1983      2385      2386
 -1       896    8    0    1
 -2       389       520       519      2386      2387      2382
 -1       897    8    0    1
 -2       390       391       521      1986      2388      2389
 -1       898    8    0    1
 -2       390       521       520      2389      2390      2385
 -1       899    8    0    1
 -2       391       392       522      1989      2391      2392
 -1       900    8    0    1
 -2       391       522       521      2392      2393      2388
 -1       901    8    0    1
 -2       392       393       523      1992      2394      2395
 -1       902    8    0    1
 -2       392       523       522      2395      2396      2391
 -1       903    8    0    1
 -2       393       394       524      1995      2397      2398
 -1       904    8    0    1
 -2       393       524       523      2398      2399      2394
 -1       905    8    0    1
 -2       394       395       525      1998      2400      2401
 -1       906    8    0    1
 -2       394       525       524      2401      2402      2397
 -1       907    8    0    1
 -2       395       396       526      2001      2403      2404
 -1       908    8    0    1
 -2       395       526       525      2404      2405      2400
 -1       909    8    0    1
 -2       396       397       527      2004      2406      2407
 -1       910    8    0    1
 -2       396       527       526      2407      2408      2403
 -1       911    8    0    1
 -2       397       398       528      2007      2409      2410
 -1       912    8    0    1
 -2       397       528       527      2410      2411      2406
 -1       913    8    0    1
 -2       398       399       529      2010      2412      2413
 -1       914    8    0    1
 -2       398       529       528      2413      2414      2409
 -1       915    8    0    1
 -2       399       400       530      2013      2415      2416
 -1       916    8    0    1
 -2       399       530       529      2416      2417      2412
 -1       917    8    0    1
 -2       400       401       531      2016      2418      2419
 -1       918    8    0    1
 -2       400       531       530      2419      2420      2415
 -1       919    8    0    1
 -2       401       402       532      2019      2421      2422
 -1       920    8    0    1
 -2       401       532       531      2422      2423      2418
 -1       921    8    0    1
 -2       402       403       533      2022      2424      2425
 -1       922    8    0    1
 -2       402       533       532      2425      2426      2421
 -1       923    8    0    1
 -2       403       404       534      2025      2427      2428
 -1       924    8    0    1
 -2       403       534       533      2428      2429      2424
 -1       925    8    0    1
 -2       404       405       535      2028      2430      2431
 -1       926    8    0    1
 -2       404       535       534      2431      2432      2427
 -1       927    8    0    1
 -2       405       406       536      2031      2433      2434
 -1       928    8    0    1
 -2       405       536       535      2434      2435      2430
 -1       929    8    0    1
 -2       406       407       537      2034      2436      2437
 -1       930    8    0    1
 -2       406       537       536      2437      2438      2433
 -1       931    8    0    1
 -2       407       408       538      2037      2439      2440
 -1       932    8    0    1
 -2       407       538       537      2440      2441      2436
 -1       933    8    0    1
 -2       408       409       539      2040      2442      2443
 -1       934    8    0    1
 -2       408       539       538      2443      2444      2439
 -1       935    8    0    1
 -2       409       410       540      2043      2445      2446
 -1       936    8    0    1
 -2       409       540       539      2446      2447      2442
 -1       937    8    0    1
 -2       410       411       541      2046      2448      2449
 -1       938    8    0    1
 -2       410       541       540      2449      2450      2445
 -1       939    8    0    1
 -2       411       412       542      2049      2451      2452
 -1       940    8    0    1
 -2       411       542       541      2452      2453      2448
 -1       941    8    0    1
 -2       412       413       543      2052      2454      2455
 -1       942    8    0    1
 -2       412       543       542      2455      2456      2451
 -1       943    8    0    1
 -2       413       414       544      2055      2457      2458
 -1       944    8    0    1
 -2       413       544       543      2458      2459      2454
 -1       945    8    0    1
 -2       414       415       545      2058      2460      2461
 -1       946    8    0    1
 -2       414       545       544      2461      2462      2457
 -1       947    8    0    1
 -2       415       416       546      2061      2463      2464
 -1       948    8    0    1
 -2       415       546       545      2464      2465      2460
 -1       949    8    0    1
 -2       416       417       547      2064      2466      2467
 -1       950    8    0    1
 -2       416       547       546      2467      2468      2463
 -1       951    8    0    1
 -2       417       418       548      2067      2469      2470
 -1       952    8    0    1
 -2       417       548       547      2470      2471      2466
 -1       953    8    0    1
 -2       418       419       549      2070      2472      2473
 -1       954    8    0    1
 -2       418       549       548      2473      2474      2469
 -1       955    8    0    1
 -2       419       420       550      2073      2475      2476
 -1       956    8    0    1
 -2       419       550       549      2476      2477      2472
 -1       957    8    0    1
 -2       420       421       551      2076      2478      2479
 -1       958    8    0    1
 -2       420       551       550      2479      2480      2475
 -1       959    8    0    1
 -2       421       422       552      2079      2481      2482
 -1       960    8    0    1
 -2       421       552       551      2482      2483      2478
 -1       961    8    0    1
 -2       422       423       553      2082      2484      2485
 -1       962    8    0    1
 -2       422       553       552      2485      2486      2481
 -1       963    8    0    1
 -2       423       424       554      2085      2487      2488
 -1       964    8    0    1
 -2       423       554       553      2488      2489      2484
 -1       965    8    0    1
 -2       424       425       555      2088      2490      2491
 -1       966    8    0    1
 -2       424       555       554      2491      2492      2487
 -1       967    8    0    1
 -2       425       426       556      2091      2493      2494
 -1       968    8    0    1
 -2       425       556       555      2494      2495      2490
 -1       969    8    0    1
 -2       426       427       557      2094      2496      2497
 -1       970    8    0    1
 -2       426       557       556      2497      2498      2493
 -1       971    8    0    1
 -2       431       432       558      2110      2499      2500
 -1       972    8    0    1
 -2       429       431       559      2107      2501      2502
 -1       973    8    0    1
 -2       431       558       559      2500      2503      2501
 -1       974    8    0    1
 -2       430       429       560      2103      2504      2505
 -1       975    8    0    1
 -2       429       559       560      2502      2506      2504
 -1       976    8    0    1
 -2       442       464       561      2196      2507      2508
 -1       977    8    0    1
 -2       432       433       562      2113      2509      2510
 -1       978    8    0    1
 -2       432       562       558      2510      2511      2499
 -1       979    8    0    1
 -2       433       434       563      2116      2512      2513
 -1       980    8    0    1
 -2       433       563       562      2513      2514      2509
 -1       981    8    0    1
 -2       434       435       564      2119      2515      2516
 -1       982    8    0    1
 -2       434       564       563      2516      2517      2512
 -1       983    8    0    1
 -2       435       436       565      2122      2518      2519
 -1       984    8    0    1
 -2       435       565       564      2519      2520      2515
 -1       985    8    0    1
 -2       436       437       566      2125      2521      2522
 -1       986    8    0    1
 -2       436       566       565      2522      2523      2518
 -1       987    8    0    1
 -2       437       438       567      2128      2524      2525
 -1       988    8    0    1
 -2       437       567       566      2525      2526      2521
 -1       989    8    0    1
 -2       438       439       568      2131      2527      2528
 -1       990    8    0    1
 -2       438       568       567      2528      2529      2524
 -1       991    8    0    1
 -2       439       440       569      2134      2530      2531
 -1       992    8    0    1
 -2       439       569       568      2531      2532      2527
 -1       993    8    0    1
 -2       386       387       570      1974      2533      2534
 -1       994    8    0    1
 -2       386       570       516      2534      2535      2375
 -1       995    8    0    1
 -2       342       328       571      2230      2536      2537
 -1       996    8    0    1
 -2       478       342       571      2260      2537      2538
 -1       997    8    0    1
 -2       328       327       571      1791      2539      2536
 -1       998    8    0    1
 -2       192       445       466      2265      2205      2540
 -1       999    8    0    1
 -2       192       466       344      2540      2263      1843
 -1      1000    8    0    1
 -2       344       461       572      2262      2541      2542
 -1      1001    8    0    1
 -2       345       344       572      1847      2542      2543
 -1      1002    8    0    1
 -2       461       462       572      2228      2544      2541
 -1      1003    8    0    1
 -2       427       430       557      2374      2545      2496
 -1      1004    8    0    1
 -2       444       442       573      2195      2546      2547
 -1      1005    8    0    1
 -2       449       450       574      2222      2548      2549
 -1      1006    8    0    1
 -2       331       332       575      1802      2550      2551
 -1      1007    8    0    1
 -2       468       331       575      2231      2551      2552
 -1      1008    8    0    1
 -2       332       470       575      2237      2553      2550
 -1      1009    8    0    1
 -2       447       448       576      2224      2554      2555
 -1      1010    8    0    1
 -2       448       449       577      2223      2556      2557
 -1      1011    8    0    1
 -2       448       577       576      2557      2558      2554
 -1      1012    8    0    1
 -2       450       451       578      2161      2559      2560
 -1      1013    8    0    1
 -2       463       465       579      2226      2561      2562
 -1      1014    8    0    1
 -2       451       452       580      2221      2563      2564
 -1      1015    8    0    1
 -2       453       454       581      2220      2565      2566
 -1      1016    8    0    1
 -2       454       455       582      2219      2567      2568
 -1      1017    8    0    1
 -2       455       456       583      2218      2569      2570
 -1      1018    8    0    1
 -2       455       583       582      2570      2571      2567
 -1      1019    8    0    1
 -2       456       457       584      2217      2572      2573
 -1      1020    8    0    1
 -2       457       458       585      2216      2574      2575
 -1      1021    8    0    1
 -2       465       444       586      2213      2576      2577
 -1      1022    8    0    1
 -2       452       453       587      2225      2578      2579
 -1      1023    8    0    1
 -2       464       443       588      2212      2580      2581
 -1      1024    8    0    1
 -2       462       463       589      2227      2582      2583
 -1      1025    8    0    1
 -2       329       469       590      2234      2584      2585
 -1      1026    8    0    1
 -2       329       590       446      2585      2586      2150
 -1      1027    8    0    1
 -2       456       584       583      2573      2587      2569
 -1      1028    8    0    1
 -2       477       341       591      2259      2588      2589
 -1      1029    8    0    1
 -2       341       441       591      2137      2590      2588
 -1      1030    8    0    1
 -2       447       576       479      2555      2591      2266
 -1      1031    8    0    1
 -2       572       462       589      2544      2583      2592
 -1      1032    8    0    1
 -2       459       343       592      2264      2593      2594
 -1      1033    8    0    1
 -2       480       345       572      2268      2543      2595
 -1      1034    8    0    1
 -2       346       480       481      2269      2596      2270
 -1      1035    8    0    1
 -2       573       442       561      2546      2508      2597
 -1      1036    8    0    1
 -2       382       381       593      1958      2598      2599
 -1      1037    8    0    1
 -2       430       560       557      2505      2600      2545
 -1      1038    8    0    1
 -2       444       573       586      2547      2601      2576
 -1      1039    8    0    1
 -2       387       518       570      2381      2602      2533
 -1      1040    8    0    1
 -2       561       464       588      2507      2581      2603
 -1      1041    8    0    1
 -2       440       467       593      2209      2604      2605
 -1      1042    8    0    1
 -2       569       440       593      2530      2605      2606
 -1      1043    8    0    1
 -2       441       384       594      2138      2607      2608
 -1      1044    8    0    1
 -2       591       441       594      2590      2608      2609
 -1      1045    8    0    1
 -2       384       517       594      2378      2610      2607
 -1      1046    8    0    1
 -2       581       454       582      2565      2568      2611
 -1      1047    8    0    1
 -2       449       574       577      2549      2612      2556
 -1      1048    8    0    1
 -2       589       463       579      2582      2562      2613
 -1      1049    8    0    1
 -2       588       443       479      2580      2267      2614
 -1      1050    8    0    1
 -2       587       453       581      2578      2566      2615
 -1      1051    8    0    1
 -2       585       458       592      2574      2616      2617
 -1      1052    8    0    1
 -2       327       446       595      2149      2618      2619
 -1      1053    8    0    1
 -2       571       327       595      2539      2619      2620
 -1      1054    8    0    1
 -2       446       590       595      2586      2621      2618
 -1      1055    8    0    1
 -2       574       450       578      2548      2560      2622
 -1      1056    8    0    1
 -2       579       465       596      2561      2623      2624
 -1      1057    8    0    1
 -2       465       586       596      2577      2625      2623
 -1      1058    8    0    1
 -2       578       451       580      2559      2564      2626
 -1      1059    8    0    1
 -2       584       457       585      2572      2575      2627
 -1      1060    8    0    1
 -2       458       459       592      2215      2594      2616
 -1      1061    8    0    1
 -2       452       587       580      2579      2628      2563
 -1      1062    8    0    1
 -2       343       478       592      2261      2629      2593
 -1      1063    8    0    1
 -2       593       381       515      2598      2372      2630
 -1      1064    8    0    1
 -2       471       472       597      2243      2631      2632
 -1      1065    8    0    1
 -2       470       471       598      2240      2633      2634
 -1      1066    8    0    1
 -2       471       597       598      2632      2635      2633
 -1      1067    8    0    1
 -2       473       474       599      2249      2636      2637
 -1      1068    8    0    1
 -2       474       475       600      2252      2638      2639
 -1      1069    8    0    1
 -2       474       600       599      2639      2640      2636
 -1      1070    8    0    1
 -2       476       477       601      2258      2641      2642
 -1      1071    8    0    1
 -2       477       591       601      2589      2643      2641
 -1      1072    8    0    1
 -2       593       515       569      2630      2644      2606
 -1      1073    8    0    1
 -2       480       572       589      2595      2592      2645
 -1      1074    8    0    1
 -2       483       482       602      2277      2646      2647
 -1      1075    8    0    1
 -2       484       483       603      2280      2648      2649
 -1      1076    8    0    1
 -2       483       602       603      2647      2650      2648
 -1      1077    8    0    1
 -2       485       484       604      2283      2651      2652
 -1      1078    8    0    1
 -2       484       603       604      2649      2653      2651
 -1      1079    8    0    1
 -2       486       485       605      2286      2654      2655
 -1      1080    8    0    1
 -2       485       604       605      2652      2656      2654
 -1      1081    8    0    1
 -2       487       486       606      2289      2657      2658
 -1      1082    8    0    1
 -2       486       605       606      2655      2659      2657
 -1      1083    8    0    1
 -2       488       487       607      2292      2660      2661
 -1      1084    8    0    1
 -2       487       606       607      2658      2662      2660
 -1      1085    8    0    1
 -2       489       488       608      2295      2663      2664
 -1      1086    8    0    1
 -2       488       607       608      2661      2665      2663
 -1      1087    8    0    1
 -2       490       489       609      2298      2666      2667
 -1      1088    8    0    1
 -2       489       608       609      2664      2668      2666
 -1      1089    8    0    1
 -2       491       490       610      2301      2669      2670
 -1      1090    8    0    1
 -2       490       609       610      2667      2671      2669
 -1      1091    8    0    1
 -2       492       491       611      2304      2672      2673
 -1      1092    8    0    1
 -2       491       610       611      2670      2674      2672
 -1      1093    8    0    1
 -2       493       492       612      2307      2675      2676
 -1      1094    8    0    1
 -2       492       611       612      2673      2677      2675
 -1      1095    8    0    1
 -2       494       493       613      2310      2678      2679
 -1      1096    8    0    1
 -2       493       612       613      2676      2680      2678
 -1      1097    8    0    1
 -2       495       494       614      2313      2681      2682
 -1      1098    8    0    1
 -2       494       613       614      2679      2683      2681
 -1      1099    8    0    1
 -2       496       495       615      2316      2684      2685
 -1      1100    8    0    1
 -2       495       614       615      2682      2686      2684
 -1      1101    8    0    1
 -2       497       496       616      2319      2687      2688
 -1      1102    8    0    1
 -2       496       615       616      2685      2689      2687
 -1      1103    8    0    1
 -2       498       497       617      2322      2690      2691
 -1      1104    8    0    1
 -2       497       616       617      2688      2692      2690
 -1      1105    8    0    1
 -2       499       498       618      2325      2693      2694
 -1      1106    8    0    1
 -2       498       617       618      2691      2695      2693
 -1      1107    8    0    1
 -2       500       499       619      2328      2696      2697
 -1      1108    8    0    1
 -2       499       618       619      2694      2698      2696
 -1      1109    8    0    1
 -2       501       500       620      2331      2699      2700
 -1      1110    8    0    1
 -2       500       619       620      2697      2701      2699
 -1      1111    8    0    1
 -2       502       501       621      2334      2702      2703
 -1      1112    8    0    1
 -2       501       620       621      2700      2704      2702
 -1      1113    8    0    1
 -2       503       502       622      2337      2705      2706
 -1      1114    8    0    1
 -2       502       621       622      2703      2707      2705
 -1      1115    8    0    1
 -2       504       503       623      2340      2708      2709
 -1      1116    8    0    1
 -2       503       622       623      2706      2710      2708
 -1      1117    8    0    1
 -2       505       504       624      2343      2711      2712
 -1      1118    8    0    1
 -2       504       623       624      2709      2713      2711
 -1      1119    8    0    1
 -2       506       505       625      2346      2714      2715
 -1      1120    8    0    1
 -2       505       624       625      2712      2716      2714
 -1      1121    8    0    1
 -2       507       506       626      2349      2717      2718
 -1      1122    8    0    1
 -2       506       625       626      2715      2719      2717
 -1      1123    8    0    1
 -2       508       507       627      2352      2720      2721
 -1      1124    8    0    1
 -2       507       626       627      2718      2722      2720
 -1      1125    8    0    1
 -2       509       508       628      2355      2723      2724
 -1      1126    8    0    1
 -2       508       627       628      2721      2725      2723
 -1      1127    8    0    1
 -2       510       509       629      2358      2726      2727
 -1      1128    8    0    1
 -2       509       628       629      2724      2728      2726
 -1      1129    8    0    1
 -2       511       510       630      2361      2729      2730
 -1      1130    8    0    1
 -2       510       629       630      2727      2731      2729
 -1      1131    8    0    1
 -2       512       511       631      2364      2732      2733
 -1      1132    8    0    1
 -2       511       630       631      2730      2734      2732
 -1      1133    8    0    1
 -2       513       512       632      2367      2735      2736
 -1      1134    8    0    1
 -2       512       631       632      2733      2737      2735
 -1      1135    8    0    1
 -2       514       513       633      2370      2738      2739
 -1      1136    8    0    1
 -2       513       632       633      2736      2740      2738
 -1      1137    8    0    1
 -2       515       514       634      2373      2741      2742
 -1      1138    8    0    1
 -2       569       515       634      2644      2742      2743
 -1      1139    8    0    1
 -2       514       633       634      2739      2744      2741
 -1      1140    8    0    1
 -2       517       516       635      2379      2745      2746
 -1      1141    8    0    1
 -2       557       560       636      2600      2747      2748
 -1      1142    8    0    1
 -2       557       636       556      2748      2749      2498
 -1      1143    8    0    1
 -2       383       382       467      1962      2750      2210
 -1      1144    8    0    1
 -2       581       582       637      2611      2751      2752
 -1      1145    8    0    1
 -2       519       520       638      2387      2753      2754
 -1      1146    8    0    1
 -2       518       519       639      2384      2755      2756
 -1      1147    8    0    1
 -2       519       638       639      2754      2757      2755
 -1      1148    8    0    1
 -2       521       522       640      2393      2758      2759
 -1      1149    8    0    1
 -2       522       523       641      2396      2760      2761
 -1      1150    8    0    1
 -2       522       641       640      2761      2762      2758
 -1      1151    8    0    1
 -2       523       524       642      2399      2763      2764
 -1      1152    8    0    1
 -2       523       642       641      2764      2765      2760
 -1      1153    8    0    1
 -2       524       525       643      2402      2766      2767
 -1      1154    8    0    1
 -2       524       643       642      2767      2768      2763
 -1      1155    8    0    1
 -2       525       526       644      2405      2769      2770
 -1      1156    8    0    1
 -2       525       644       643      2770      2771      2766
 -1      1157    8    0    1
 -2       526       527       645      2408      2772      2773
 -1      1158    8    0    1
 -2       526       645       644      2773      2774      2769
 -1      1159    8    0    1
 -2       527       528       646      2411      2775      2776
 -1      1160    8    0    1
 -2       527       646       645      2776      2777      2772
 -1      1161    8    0    1
 -2       528       529       647      2414      2778      2779
 -1      1162    8    0    1
 -2       528       647       646      2779      2780      2775
 -1      1163    8    0    1
 -2       529       530       648      2417      2781      2782
 -1      1164    8    0    1
 -2       529       648       647      2782      2783      2778
 -1      1165    8    0    1
 -2       530       531       649      2420      2784      2785
 -1      1166    8    0    1
 -2       530       649       648      2785      2786      2781
 -1      1167    8    0    1
 -2       531       532       650      2423      2787      2788
 -1      1168    8    0    1
 -2       531       650       649      2788      2789      2784
 -1      1169    8    0    1
 -2       532       533       651      2426      2790      2791
 -1      1170    8    0    1
 -2       532       651       650      2791      2792      2787
 -1      1171    8    0    1
 -2       533       534       652      2429      2793      2794
 -1      1172    8    0    1
 -2       533       652       651      2794      2795      2790
 -1      1173    8    0    1
 -2       534       535       653      2432      2796      2797
 -1      1174    8    0    1
 -2       534       653       652      2797      2798      2793
 -1      1175    8    0    1
 -2       535       536       654      2435      2799      2800
 -1      1176    8    0    1
 -2       535       654       653      2800      2801      2796
 -1      1177    8    0    1
 -2       536       537       655      2438      2802      2803
 -1      1178    8    0    1
 -2       536       655       654      2803      2804      2799
 -1      1179    8    0    1
 -2       537       538       656      2441      2805      2806
 -1      1180    8    0    1
 -2       537       656       655      2806      2807      2802
 -1      1181    8    0    1
 -2       538       539       657      2444      2808      2809
 -1      1182    8    0    1
 -2       538       657       656      2809      2810      2805
 -1      1183    8    0    1
 -2       539       540       658      2447      2811      2812
 -1      1184    8    0    1
 -2       539       658       657      2812      2813      2808
 -1      1185    8    0    1
 -2       540       541       659      2450      2814      2815
 -1      1186    8    0    1
 -2       540       659       658      2815      2816      2811
 -1      1187    8    0    1
 -2       541       542       660      2453      2817      2818
 -1      1188    8    0    1
 -2       541       660       659      2818      2819      2814
 -1      1189    8    0    1
 -2       542       543       661      2456      2820      2821
 -1      1190    8    0    1
 -2       542       661       660      2821      2822      2817
 -1      1191    8    0    1
 -2       543       544       662      2459      2823      2824
 -1      1192    8    0    1
 -2       543       662       661      2824      2825      2820
 -1      1193    8    0    1
 -2       544       545       663      2462      2826      2827
 -1      1194    8    0    1
 -2       544       663       662      2827      2828      2823
 -1      1195    8    0    1
 -2       545       546       664      2465      2829      2830
 -1      1196    8    0    1
 -2       545       664       663      2830      2831      2826
 -1      1197    8    0    1
 -2       546       547       665      2468      2832      2833
 -1      1198    8    0    1
 -2       546       665       664      2833      2834      2829
 -1      1199    8    0    1
 -2       547       548       666      2471      2835      2836
 -1      1200    8    0    1
 -2       547       666       665      2836      2837      2832
 -1      1201    8    0    1
 -2       548       549       667      2474      2838      2839
 -1      1202    8    0    1
 -2       548       667       666      2839      2840      2835
 -1      1203    8    0    1
 -2       549       550       668      2477      2841      2842
 -1      1204    8    0    1
 -2       549       668       667      2842      2843      2838
 -1      1205    8    0    1
 -2       550       551       669      2480      2844      2845
 -1      1206    8    0    1
 -2       550       669       668      2845      2846      2841
 -1      1207    8    0    1
 -2       551       552       670      2483      2847      2848
 -1      1208    8    0    1
 -2       551       670       669      2848      2849      2844
 -1      1209    8    0    1
 -2       552       553       671      2486      2850      2851
 -1      1210    8    0    1
 -2       552       671       670      2851      2852      2847
 -1      1211    8    0    1
 -2       553       554       672      2489      2853      2854
 -1      1212    8    0    1
 -2       553       672       671      2854      2855      2850
 -1      1213    8    0    1
 -2       554       555       673      2492      2856      2857
 -1      1214    8    0    1
 -2       554       673       672      2857      2858      2853
 -1      1215    8    0    1
 -2       555       556       674      2495      2859      2860
 -1      1216    8    0    1
 -2       673       555       674      2856      2860      2861
 -1      1217    8    0    1
 -2       556       636       674      2749      2862      2859
 -1      1218    8    0    1
 -2       467       382       593      2750      2599      2604
 -1      1219    8    0    1
 -2       562       563       675      2514      2863      2864
 -1      1220    8    0    1
 -2       560       559       636      2506      2865      2747
 -1      1221    8    0    1
 -2       480       589       676      2645      2866      2867
 -1      1222    8    0    1
 -2       589       579       676      2613      2868      2866
 -1      1223    8    0    1
 -2       558       562       677      2511      2869      2870
 -1      1224    8    0    1
 -2       562       675       677      2864      2871      2869
 -1      1225    8    0    1
 -2       564       565       678      2520      2872      2873
 -1      1226    8    0    1
 -2       565       566       679      2523      2874      2875
 -1      1227    8    0    1
 -2       565       679       678      2875      2876      2872
 -1      1228    8    0    1
 -2       566       567       680      2526      2877      2878
 -1      1229    8    0    1
 -2       566       680       679      2878      2879      2874
 -1      1230    8    0    1
 -2       567       568       681      2529      2880      2881
 -1      1231    8    0    1
 -2       567       681       680      2881      2882      2877
 -1      1232    8    0    1
 -2       568       569       682      2532      2883      2884
 -1      1233    8    0    1
 -2       681       568       682      2880      2884      2885
 -1      1234    8    0    1
 -2       569       634       682      2743      2886      2883
 -1      1235    8    0    1
 -2       516       570       683      2535      2887      2888
 -1      1236    8    0    1
 -2       516       683       635      2888      2889      2745
 -1      1237    8    0    1
 -2       561       588       684      2603      2890      2891
 -1      1238    8    0    1
 -2       479       576       685      2591      2892      2893
 -1      1239    8    0    1
 -2       580       587       686      2628      2894      2895
 -1      1240    8    0    1
 -2       570       518       687      2602      2896      2897
 -1      1241    8    0    1
 -2       683       570       687      2887      2897      2898
 -1      1242    8    0    1
 -2       518       639       687      2756      2899      2896
 -1      1243    8    0    1
 -2       583       584       688      2587      2900      2901
 -1      1244    8    0    1
 -2       481       480       676      2596      2867      2902
 -1      1245    8    0    1
 -2       563       564       689      2517      2903      2904
 -1      1246    8    0    1
 -2       564       678       689      2873      2905      2903
 -1      1247    8    0    1
 -2       559       558       690      2503      2906      2907
 -1      1248    8    0    1
 -2       558       677       690      2870      2908      2906
 -1      1249    8    0    1
 -2       576       577       691      2558      2909      2910
 -1      1250    8    0    1
 -2       588       479       692      2614      2911      2912
 -1      1251    8    0    1
 -2       520       521       693      2390      2913      2914
 -1      1252    8    0    1
 -2       638       520       693      2753      2914      2915
 -1      1253    8    0    1
 -2       521       640       693      2759      2916      2913
 -1      1254    8    0    1
 -2       585       592       478      2617      2629      2917
 -1      1255    8    0    1
 -2       577       574       694      2612      2918      2919
 -1      1256    8    0    1
 -2       577       694       691      2919      2920      2909
 -1      1257    8    0    1
 -2       582       583       695      2571      2921      2922
 -1      1258    8    0    1
 -2       578       580       696      2626      2923      2924
 -1      1259    8    0    1
 -2       482       481       697      2274      2925      2926
 -1      1260    8    0    1
 -2       482       697       602      2926      2927      2646
 -1      1261    8    0    1
 -2       573       561       698      2597      2928      2929
 -1      1262    8    0    1
 -2       472       473       699      2246      2930      2931
 -1      1263    8    0    1
 -2       597       472       699      2631      2931      2932
 -1      1264    8    0    1
 -2       473       599       699      2637      2933      2930
 -1      1265    8    0    1
 -2       587       581       700      2615      2934      2935
 -1      1266    8    0    1
 -2       586       573       701      2601      2936      2937
 -1      1267    8    0    1
 -2       469       468       637      2235      2938      2939
 -1      1268    8    0    1
 -2       574       578       702      2622      2940      2941
 -1      1269    8    0    1
 -2       585       478       703      2917      2942      2943
 -1      1270    8    0    1
 -2       584       585       703      2627      2943      2944
 -1      1271    8    0    1
 -2       478       571       703      2538      2945      2942
 -1      1272    8    0    1
 -2       470       598       704      2634      2946      2947
 -1      1273    8    0    1
 -2       470       704       575      2947      2948      2553
 -1      1274    8    0    1
 -2       476       601       475      2642      2949      2255
 -1      1275    8    0    1
 -2       475       601       600      2949      2950      2638
 -1      1276    8    0    1
 -2       573       698       701      2929      2951      2936
 -1      1277    8    0    1
 -2       587       700       686      2935      2952      2894
 -1      1278    8    0    1
 -2       700       581       637      2934      2752      2953
 -1      1279    8    0    1
 -2       517       635       705      2746      2954      2955
 -1      1280    8    0    1
 -2       563       689       675      2904      2956      2863
 -1      1281    8    0    1
 -2       696       580       686      2923      2895      2957
 -1      1282    8    0    1
 -2       637       582       695      2751      2922      2958
 -1      1283    8    0    1
 -2       583       688       695      2901      2959      2921
 -1      1284    8    0    1
 -2       636       559       690      2865      2907      2960
 -1      1285    8    0    1
 -2       676       579       596      2868      2624      2961
 -1      1286    8    0    1
 -2       517       705       594      2955      2962      2610
 -1      1287    8    0    1
 -2       685       576       691      2892      2910      2963
 -1      1288    8    0    1
 -2       684       588       692      2890      2912      2964
 -1      1289    8    0    1
 -2       479       685       692      2893      2965      2911
 -1      1290    8    0    1
 -2       561       684       698      2891      2966      2928
 -1      1291    8    0    1
 -2       590       469       688      2584      2967      2968
 -1      1292    8    0    1
 -2       571       595       703      2620      2969      2945
 -1      1293    8    0    1
 -2       481       676       697      2902      2970      2925
 -1      1294    8    0    1
 -2       596       586       706      2625      2971      2972
 -1      1295    8    0    1
 -2       586       701       706      2937      2973      2971
 -1      1296    8    0    1
 -2       694       574       702      2918      2941      2974
 -1      1297    8    0    1
 -2       578       696       702      2924      2975      2940
 -1      1298    8    0    1
 -2       637       468       707      2938      2976      2977
 -1      1299    8    0    1
 -2       700       637       707      2953      2977      2978
 -1      1300    8    0    1
 -2       468       575       707      2552      2979      2976
 -1      1301    8    0    1
 -2       599       600       708      2640      2980      2981
 -1      1302    8    0    1
 -2       601       591       594      2643      2609      2982
 -1      1303    8    0    1
 -2       600       601       705      2950      2983      2984
 -1      1304    8    0    1
 -2       639       638       709      2757      2985      2986
 -1      1305    8    0    1
 -2       603       602       710      2650      2987      2988
 -1      1306    8    0    1
 -2       635       683       711      2889      2989      2990
 -1      1307    8    0    1
 -2       675       689       712      2956      2991      2992
 -1      1308    8    0    1
 -2       604       603       713      2653      2993      2994
 -1      1309    8    0    1
 -2       603       710       713      2988      2995      2993
 -1      1310    8    0    1
 -2       605       604       714      2656      2996      2997
 -1      1311    8    0    1
 -2       604       713       714      2994      2998      2996
 -1      1312    8    0    1
 -2       606       605       715      2659      2999      3000
 -1      1313    8    0    1
 -2       605       714       715      2997      3001      2999
 -1      1314    8    0    1
 -2       607       606       716      2662      3002      3003
 -1      1315    8    0    1
 -2       606       715       716      3000      3004      3002
 -1      1316    8    0    1
 -2       608       607       717      2665      3005      3006
 -1      1317    8    0    1
 -2       607       716       717      3003      3007      3005
 -1      1318    8    0    1
 -2       609       608       718      2668      3008      3009
 -1      1319    8    0    1
 -2       608       717       718      3006      3010      3008
 -1      1320    8    0    1
 -2       610       609       719      2671      3011      3012
 -1      1321    8    0    1
 -2       609       718       719      3009      3013      3011
 -1      1322    8    0    1
 -2       611       610       720      2674      3014      3015
 -1      1323    8    0    1
 -2       610       719       720      3012      3016      3014
 -1      1324    8    0    1
 -2       612       611       721      2677      3017      3018
 -1      1325    8    0    1
 -2       611       720       721      3015      3019      3017
 -1      1326    8    0    1
 -2       613       612       722      2680      3020      3021
 -1      1327    8    0    1
 -2       612       721       722      3018      3022      3020
 -1      1328    8    0    1
 -2       614       613       723      2683      3023      3024
 -1      1329    8    0    1
 -2       613       722       723      3021      3025      3023
 -1      1330    8    0    1
 -2       615       614       724      2686      3026      3027
 -1      1331    8    0    1
 -2       614       723       724      3024      3028      3026
 -1      1332    8    0    1
 -2       616       615       725      2689      3029      3030
 -1      1333    8    0    1
 -2       615       724       725      3027      3031      3029
 -1      1334    8    0    1
 -2       617       616       726      2692      3032      3033
 -1      1335    8    0    1
 -2       616       725       726      3030      3034      3032
 -1      1336    8    0    1
 -2       618       617       727      2695      3035      3036
 -1      1337    8    0    1
 -2       617       726       727      3033      3037      3035
 -1      1338    8    0    1
 -2       619       618       728      2698      3038      3039
 -1      1339    8    0    1
 -2       618       727       728      3036      3040      3038
 -1      1340    8    0    1
 -2       620       619       729      2701      3041      3042
 -1      1341    8    0    1
 -2       619       728       729      3039      3043      3041
 -1      1342    8    0    1
 -2       621       620       730      2704      3044      3045
 -1      1343    8    0    1
 -2       620       729       730      3042      3046      3044
 -1      1344    8    0    1
 -2       622       621       731      2707      3047      3048
 -1      1345    8    0    1
 -2       621       730       731      3045      3049      3047
 -1      1346    8    0    1
 -2       623       622       732      2710      3050      3051
 -1      1347    8    0    1
 -2       622       731       732      3048      3052      3050
 -1      1348    8    0    1
 -2       624       623       733      2713      3053      3054
 -1      1349    8    0    1
 -2       623       732       733      3051      3055      3053
 -1      1350    8    0    1
 -2       625       624       734      2716      3056      3057
 -1      1351    8    0    1
 -2       624       733       734      3054      3058      3056
 -1      1352    8    0    1
 -2       626       625       735      2719      3059      3060
 -1      1353    8    0    1
 -2       625       734       735      3057      3061      3059
 -1      1354    8    0    1
 -2       627       626       736      2722      3062      3063
 -1      1355    8    0    1
 -2       626       735       736      3060      3064      3062
 -1      1356    8    0    1
 -2       628       627       737      2725      3065      3066
 -1      1357    8    0    1
 -2       627       736       737      3063      3067      3065
 -1      1358    8    0    1
 -2       629       628       738      2728      3068      3069
 -1      1359    8    0    1
 -2       628       737       738      3066      3070      3068
 -1      1360    8    0    1
 -2       630       629       739      2731      3071      3072
 -1      1361    8    0    1
 -2       629       738       739      3069      3073      3071
 -1      1362    8    0    1
 -2       631       630       740      2734      3074      3075
 -1      1363    8    0    1
 -2       630       739       740      3072      3076      3074
 -1      1364    8    0    1
 -2       632       631       741      2737      3077      3078
 -1      1365    8    0    1
 -2       631       740       741      3075      3079      3077
 -1      1366    8    0    1
 -2       633       632       742      2740      3080      3081
 -1      1367    8    0    1
 -2       632       741       742      3078      3082      3080
 -1      1368    8    0    1
 -2       634       633       743      2744      3083      3084
 -1      1369    8    0    1
 -2       682       634       743      2886      3084      3085
 -1      1370    8    0    1
 -2       633       742       743      3081      3086      3083
 -1      1371    8    0    1
 -2       641       642       744      2765      3087      3088
 -1      1372    8    0    1
 -2       640       641       745      2762      3089      3090
 -1      1373    8    0    1
 -2       641       744       745      3088      3091      3089
 -1      1374    8    0    1
 -2       643       644       746      2771      3092      3093
 -1      1375    8    0    1
 -2       644       645       747      2774      3094      3095
 -1      1376    8    0    1
 -2       644       747       746      3095      3096      3092
 -1      1377    8    0    1
 -2       645       646       748      2777      3097      3098
 -1      1378    8    0    1
 -2       645       748       747      3098      3099      3094
 -1      1379    8    0    1
 -2       646       647       749      2780      3100      3101
 -1      1380    8    0    1
 -2       646       749       748      3101      3102      3097
 -1      1381    8    0    1
 -2       647       648       750      2783      3103      3104
 -1      1382    8    0    1
 -2       647       750       749      3104      3105      3100
 -1      1383    8    0    1
 -2       648       649       751      2786      3106      3107
 -1      1384    8    0    1
 -2       648       751       750      3107      3108      3103
 -1      1385    8    0    1
 -2       649       650       752      2789      3109      3110
 -1      1386    8    0    1
 -2       649       752       751      3110      3111      3106
 -1      1387    8    0    1
 -2       650       651       753      2792      3112      3113
 -1      1388    8    0    1
 -2       650       753       752      3113      3114      3109
 -1      1389    8    0    1
 -2       651       652       754      2795      3115      3116
 -1      1390    8    0    1
 -2       651       754       753      3116      3117      3112
 -1      1391    8    0    1
 -2       652       653       755      2798      3118      3119
 -1      1392    8    0    1
 -2       652       755       754      3119      3120      3115
 -1      1393    8    0    1
 -2       653       654       756      2801      3121      3122
 -1      1394    8    0    1
 -2       653       756       755      3122      3123      3118
 -1      1395    8    0    1
 -2       654       655       757      2804      3124      3125
 -1      1396    8    0    1
 -2       654       757       756      3125      3126      3121
 -1      1397    8    0    1
 -2       655       656       758      2807      3127      3128
 -1      1398    8    0    1
 -2       655       758       757      3128      3129      3124
 -1      1399    8    0    1
 -2       656       657       759      2810      3130      3131
 -1      1400    8    0    1
 -2       656       759       758      3131      3132      3127
 -1      1401    8    0    1
 -2       657       658       760      2813      3133      3134
 -1      1402    8    0    1
 -2       657       760       759      3134      3135      3130
 -1      1403    8    0    1
 -2       658       659       761      2816      3136      3137
 -1      1404    8    0    1
 -2       658       761       760      3137      3138      3133
 -1      1405    8    0    1
 -2       659       660       762      2819      3139      3140
 -1      1406    8    0    1
 -2       659       762       761      3140      3141      3136
 -1      1407    8    0    1
 -2       660       661       763      2822      3142      3143
 -1      1408    8    0    1
 -2       660       763       762      3143      3144      3139
 -1      1409    8    0    1
 -2       661       662       764      2825      3145      3146
 -1      1410    8    0    1
 -2       661       764       763      3146      3147      3142
 -1      1411    8    0    1
 -2       662       663       765      2828      3148      3149
 -1      1412    8    0    1
 -2       662       765       764      3149      3150      3145
 -1      1413    8    0    1
 -2       663       664       766      2831      3151      3152
 -1      1414    8    0    1
 -2       663       766       765      3152      3153      3148
 -1      1415    8    0    1
 -2       664       665       767      2834      3154      3155
 -1      1416    8    0    1
 -2       664       767       766      3155      3156      3151
 -1      1417    8    0    1
 -2       665       666       768      2837      3157      3158
 -1      1418    8    0    1
 -2       665       768       767      3158      3159      3154
 -1      1419    8    0    1
 -2       666       667       769      2840      3160      3161
 -1      1420    8    0    1
 -2       666       769       768      3161      3162      3157
 -1      1421    8    0    1
 -2       667       668       770      2843      3163      3164
 -1      1422    8    0    1
 -2       667       770       769      3164      3165      3160
 -1      1423    8    0    1
 -2       668       669       771      2846      3166      3167
 -1      1424    8    0    1
 -2       668       771       770      3167      3168      3163
 -1      1425    8    0    1
 -2       669       670       772      2849      3169      3170
 -1      1426    8    0    1
 -2       669       772       771      3170      3171      3166
 -1      1427    8    0    1
 -2       670       671       773      2852      3172      3173
 -1      1428    8    0    1
 -2       670       773       772      3173      3174      3169
 -1      1429    8    0    1
 -2       671       672       774      2855      3175      3176
 -1      1430    8    0    1
 -2       671       774       773      3176      3177      3172
 -1      1431    8    0    1
 -2       672       673       775      2858      3178      3179
 -1      1432    8    0    1
 -2       672       775       774      3179      3180      3175
 -1      1433    8    0    1
 -2       680       681       776      2882      3181      3182
 -1      1434    8    0    1
 -2       696       686       777      2957      3183      3184
 -1      1435    8    0    1
 -2       677       675       778      2871      3185      3186
 -1      1436    8    0    1
 -2       675       712       778      2992      3187      3185
 -1      1437    8    0    1
 -2       679       680       779      2879      3188      3189
 -1      1438    8    0    1
 -2       680       776       779      3182      3190      3188
 -1      1439    8    0    1
 -2       678       679       780      2876      3191      3192
 -1      1440    8    0    1
 -2       679       779       780      3189      3193      3191
 -1      1441    8    0    1
 -2       688       584       781      2900      3194      3195
 -1      1442    8    0    1
 -2       685       691       782      2963      3196      3197
 -1      1443    8    0    1
 -2       688       469       695      2967      3198      2959
 -1      1444    8    0    1
 -2       698       684       783      2966      3199      3200
 -1      1445    8    0    1
 -2       689       678       784      2905      3201      3202
 -1      1446    8    0    1
 -2       712       689       784      2991      3202      3203
 -1      1447    8    0    1
 -2       678       780       784      3192      3204      3201
 -1      1448    8    0    1
 -2       684       692       785      2964      3205      3206
 -1      1449    8    0    1
 -2       690       677       786      2908      3207      3208
 -1      1450    8    0    1
 -2       677       778       786      3186      3209      3207
 -1      1451    8    0    1
 -2       692       685       787      2965      3210      3211
 -1      1452    8    0    1
 -2       636       690       788      2960      3212      3213
 -1      1453    8    0    1
 -2       674       636       788      2862      3213      3214
 -1      1454    8    0    1
 -2       690       786       788      3208      3215      3212
 -1      1455    8    0    1
 -2       602       697       789      2927      3216      3217
 -1      1456    8    0    1
 -2       602       789       710      3217      3218      2987
 -1      1457    8    0    1
 -2       701       698       790      2951      3219      3220
 -1      1458    8    0    1
 -2       686       700       791      2952      3221      3222
 -1      1459    8    0    1
 -2       600       705       708      2984      3223      2980
 -1      1460    8    0    1
 -2       642       643       792      2768      3224      3225
 -1      1461    8    0    1
 -2       744       642       792      3087      3225      3226
 -1      1462    8    0    1
 -2       643       746       792      3093      3227      3224
 -1      1463    8    0    1
 -2       691       694       793      2920      3228      3229
 -1      1464    8    0    1
 -2       694       702       794      2974      3230      3231
 -1      1465    8    0    1
 -2       469       637       695      2939      2958      3198
 -1      1466    8    0    1
 -2       702       696       795      2975      3232      3233
 -1      1467    8    0    1
 -2       702       795       794      3233      3234      3230
 -1      1468    8    0    1
 -2       598       597       796      2635      3235      3236
 -1      1469    8    0    1
 -2       584       703       781      2944      3237      3194
 -1      1470    8    0    1
 -2       594       705       601      2962      2983      2982
 -1      1471    8    0    1
 -2       781       703       595      3237      2969      3238
 -1      1472    8    0    1
 -2       781       595       590      3238      2621      3239
 -1      1473    8    0    1
 -2       781       590       688      3239      2968      3195
 -1      1474    8    0    1
 -2       639       709       797      2986      3240      3241
 -1      1475    8    0    1
 -2       639       797       687      3241      3242      2899
 -1      1476    8    0    1
 -2       691       793       782      3229      3243      3196
 -1      1477    8    0    1
 -2       705       635       798      2954      3244      3245
 -1      1478    8    0    1
 -2       575       704       707      2948      3246      2979
 -1      1479    8    0    1
 -2       640       745       799      3090      3247      3248
 -1      1480    8    0    1
 -2       640       799       693      3248      3249      2916
 -1      1481    8    0    1
 -2       684       785       800      3206      3250      3251
 -1      1482    8    0    1
 -2       684       800       783      3251      3252      3199
 -1      1483    8    0    1
 -2       673       674       801      2861      3253      3254
 -1      1484    8    0    1
 -2       775       673       801      3178      3254      3255
 -1      1485    8    0    1
 -2       674       788       801      3214      3256      3253
 -1      1486    8    0    1
 -2       789       697       802      3216      3257      3258
 -1      1487    8    0    1
 -2       696       777       803      3184      3259      3260
 -1      1488    8    0    1
 -2       696       803       795      3260      3261      3232
 -1      1489    8    0    1
 -2       692       787       785      3211      3262      3205
 -1      1490    8    0    1
 -2       705       798       708      3245      3263      3223
 -1      1491    8    0    1
 -2       676       596       804      2961      3264      3265
 -1      1492    8    0    1
 -2       681       682       805      2885      3266      3267
 -1      1493    8    0    1
 -2       776       681       805      3181      3267      3268
 -1      1494    8    0    1
 -2       682       743       805      3085      3269      3266
 -1      1495    8    0    1
 -2       685       782       787      3197      3270      3210
 -1      1496    8    0    1
 -2       793       694       794      3228      3231      3271
 -1      1497    8    0    1
 -2       777       686       791      3183      3222      3272
 -1      1498    8    0    1
 -2       683       687       806      2898      3273      3274
 -1      1499    8    0    1
 -2       687       797       806      3242      3275      3273
 -1      1500    8    0    1
 -2       599       708       807      2981      3276      3277
 -1      1501    8    0    1
 -2       599       807       699      3277      3278      2933
 -1      1502    8    0    1
 -2       706       701       808      2973      3279      3280
 -1      1503    8    0    1
 -2       701       790       808      3220      3281      3279
 -1      1504    8    0    1
 -2       711       683       806      2989      3274      3282
 -1      1505    8    0    1
 -2       698       783       790      3200      3283      3219
 -1      1506    8    0    1
 -2       697       676       804      2970      3265      3284
 -1      1507    8    0    1
 -2       638       693       809      2915      3285      3286
 -1      1508    8    0    1
 -2       693       799       809      3249      3287      3285
 -1      1509    8    0    1
 -2       596       706       804      2972      3288      3264
 -1      1510    8    0    1
 -2       791       700       707      3221      2978      3289
 -1      1511    8    0    1
 -2       709       638       809      2985      3286      3290
 -1      1512    8    0    1
 -2       597       699       810      2932      3291      3292
 -1      1513    8    0    1
 -2       796       597       810      3235      3292      3293
 -1      1514    8    0    1
 -2       699       807       810      3278      3294      3291
 -1      1515    8    0    1
 -2       598       796       791      3236      3295      3296
 -1      1516    8    0    1
 -2       798       635       711      3244      2990      3297
 -1      1517    8    0    1
 -2       598       791       704      3296      3298      2946
 -1      1518    8    0    1
 -2       707       704       791      3246      3298      3289
 -1      1519    8    0    1
 -2       787       782       811      3270      3299      3300
 -1      1520    8    0    1
 -2       714       713       812      2998      3301      3302
 -1      1521    8    0    1
 -2       715       714       813      3001      3303      3304
 -1      1522    8    0    1
 -2       714       812       813      3302      3305      3303
 -1      1523    8    0    1
 -2       716       715       814      3004      3306      3307
 -1      1524    8    0    1
 -2       715       813       814      3304      3308      3306
 -1      1525    8    0    1
 -2       717       716       815      3007      3309      3310
 -1      1526    8    0    1
 -2       716       814       815      3307      3311      3309
 -1      1527    8    0    1
 -2       718       717       816      3010      3312      3313
 -1      1528    8    0    1
 -2       717       815       816      3310      3314      3312
 -1      1529    8    0    1
 -2       719       718       817      3013      3315      3316
 -1      1530    8    0    1
 -2       718       816       817      3313      3317      3315
 -1      1531    8    0    1
 -2       720       719       818      3016      3318      3319
 -1      1532    8    0    1
 -2       719       817       818      3316      3320      3318
 -1      1533    8    0    1
 -2       721       720       819      3019      3321      3322
 -1      1534    8    0    1
 -2       720       818       819      3319      3323      3321
 -1      1535    8    0    1
 -2       722       721       820      3022      3324      3325
 -1      1536    8    0    1
 -2       721       819       820      3322      3326      3324
 -1      1537    8    0    1
 -2       723       722       821      3025      3327      3328
 -1      1538    8    0    1
 -2       722       820       821      3325      3329      3327
 -1      1539    8    0    1
 -2       724       723       822      3028      3330      3331
 -1      1540    8    0    1
 -2       723       821       822      3328      3332      3330
 -1      1541    8    0    1
 -2       725       724       823      3031      3333      3334
 -1      1542    8    0    1
 -2       724       822       823      3331      3335      3333
 -1      1543    8    0    1
 -2       726       725       824      3034      3336      3337
 -1      1544    8    0    1
 -2       725       823       824      3334      3338      3336
 -1      1545    8    0    1
 -2       727       726       825      3037      3339      3340
 -1      1546    8    0    1
 -2       726       824       825      3337      3341      3339
 -1      1547    8    0    1
 -2       728       727       826      3040      3342      3343
 -1      1548    8    0    1
 -2       727       825       826      3340      3344      3342
 -1      1549    8    0    1
 -2       729       728       827      3043      3345      3346
 -1      1550    8    0    1
 -2       728       826       827      3343      3347      3345
 -1      1551    8    0    1
 -2       730       729       828      3046      3348      3349
 -1      1552    8    0    1
 -2       729       827       828      3346      3350      3348
 -1      1553    8    0    1
 -2       731       730       829      3049      3351      3352
 -1      1554    8    0    1
 -2       730       828       829      3349      3353      3351
 -1      1555    8    0    1
 -2       732       731       830      3052      3354      3355
 -1      1556    8    0    1
 -2       731       829       830      3352      3356      3354
 -1      1557    8    0    1
 -2       733       732       831      3055      3357      3358
 -1      1558    8    0    1
 -2       732       830       831      3355      3359      3357
 -1      1559    8    0    1
 -2       734       733       832      3058      3360      3361
 -1      1560    8    0    1
 -2       733       831       832      3358      3362      3360
 -1      1561    8    0    1
 -2       735       734       833      3061      3363      3364
 -1      1562    8    0    1
 -2       734       832       833      3361      3365      3363
 -1      1563    8    0    1
 -2       736       735       834      3064      3366      3367
 -1      1564    8    0    1
 -2       735       833       834      3364      3368      3366
 -1      1565    8    0    1
 -2       737       736       835      3067      3369      3370
 -1      1566    8    0    1
 -2       736       834       835      3367      3371      3369
 -1      1567    8    0    1
 -2       738       737       836      3070      3372      3373
 -1      1568    8    0    1
 -2       737       835       836      3370      3374      3372
 -1      1569    8    0    1
 -2       739       738       837      3073      3375      3376
 -1      1570    8    0    1
 -2       738       836       837      3373      3377      3375
 -1      1571    8    0    1
 -2       740       739       838      3076      3378      3379
 -1      1572    8    0    1
 -2       739       837       838      3376      3380      3378
 -1      1573    8    0    1
 -2       741       740       839      3079      3381      3382
 -1      1574    8    0    1
 -2       740       838       839      3379      3383      3381
 -1      1575    8    0    1
 -2       742       741       840      3082      3384      3385
 -1      1576    8    0    1
 -2       741       839       840      3382      3386      3384
 -1      1577    8    0    1
 -2       745       744       841      3091      3387      3388
 -1      1578    8    0    1
 -2       747       748       842      3099      3389      3390
 -1      1579    8    0    1
 -2       746       747       843      3096      3391      3392
 -1      1580    8    0    1
 -2       747       842       843      3390      3393      3391
 -1      1581    8    0    1
 -2       749       750       844      3105      3394      3395
 -1      1582    8    0    1
 -2       750       751       845      3108      3396      3397
 -1      1583    8    0    1
 -2       750       845       844      3397      3398      3394
 -1      1584    8    0    1
 -2       751       752       846      3111      3399      3400
 -1      1585    8    0    1
 -2       751       846       845      3400      3401      3396
 -1      1586    8    0    1
 -2       752       753       847      3114      3402      3403
 -1      1587    8    0    1
 -2       752       847       846      3403      3404      3399
 -1      1588    8    0    1
 -2       753       754       848      3117      3405      3406
 -1      1589    8    0    1
 -2       753       848       847      3406      3407      3402
 -1      1590    8    0    1
 -2       754       755       849      3120      3408      3409
 -1      1591    8    0    1
 -2       754       849       848      3409      3410      3405
 -1      1592    8    0    1
 -2       755       756       850      3123      3411      3412
 -1      1593    8    0    1
 -2       755       850       849      3412      3413      3408
 -1      1594    8    0    1
 -2       756       757       851      3126      3414      3415
 -1      1595    8    0    1
 -2       756       851       850      3415      3416      3411
 -1      1596    8    0    1
 -2       757       758       852      3129      3417      3418
 -1      1597    8    0    1
 -2       757       852       851      3418      3419      3414
 -1      1598    8    0    1
 -2       758       759       853      3132      3420      3421
 -1      1599    8    0    1
 -2       758       853       852      3421      3422      3417
 -1      1600    8    0    1
 -2       759       760       854      3135      3423      3424
 -1      1601    8    0    1
 -2       759       854       853      3424      3425      3420
 -1      1602    8    0    1
 -2       760       761       855      3138      3426      3427
 -1      1603    8    0    1
 -2       760       855       854      3427      3428      3423
 -1      1604    8    0    1
 -2       761       762       856      3141      3429      3430
 -1      1605    8    0    1
 -2       761       856       855      3430      3431      3426
 -1      1606    8    0    1
 -2       762       763       857      3144      3432      3433
 -1      1607    8    0    1
 -2       762       857       856      3433      3434      3429
 -1      1608    8    0    1
 -2       763       764       858      3147      3435      3436
 -1      1609    8    0    1
 -2       763       858       857      3436      3437      3432
 -1      1610    8    0    1
 -2       764       765       859      3150      3438      3439
 -1      1611    8    0    1
 -2       764       859       858      3439      3440      3435
 -1      1612    8    0    1
 -2       765       766       860      3153      3441      3442
 -1      1613    8    0    1
 -2       765       860       859      3442      3443      3438
 -1      1614    8    0    1
 -2       766       767       861      3156      3444      3445
 -1      1615    8    0    1
 -2       766       861       860      3445      3446      3441
 -1      1616    8    0    1
 -2       767       768       862      3159      3447      3448
 -1      1617    8    0    1
 -2       767       862       861      3448      3449      3444
 -1      1618    8    0    1
 -2       768       769       863      3162      3450      3451
 -1      1619    8    0    1
 -2       768       863       862      3451      3452      3447
 -1      1620    8    0    1
 -2       769       770       864      3165      3453      3454
 -1      1621    8    0    1
 -2       769       864       863      3454      3455      3450
 -1      1622    8    0    1
 -2       770       771       865      3168      3456      3457
 -1      1623    8    0    1
 -2       770       865       864      3457      3458      3453
 -1      1624    8    0    1
 -2       771       772       866      3171      3459      3460
 -1      1625    8    0    1
 -2       771       866       865      3460      3461      3456
 -1      1626    8    0    1
 -2       772       773       867      3174      3462      3463
 -1      1627    8    0    1
 -2       772       867       866      3463      3464      3459
 -1      1628    8    0    1
 -2       773       774       868      3177      3465      3466
 -1      1629    8    0    1
 -2       773       868       867      3466      3467      3462
 -1      1630    8    0    1
 -2       774       775       869      3180      3468      3469
 -1      1631    8    0    1
 -2       774       869       868      3469      3470      3465
 -1      1632    8    0    1
 -2       802       697       804      3257      3284      3471
 -1      1633    8    0    1
 -2       782       793       870      3243      3472      3473
 -1      1634    8    0    1
 -2       778       712       871      3187      3474      3475
 -1      1635    8    0    1
 -2       779       776       872      3190      3476      3477
 -1      1636    8    0    1
 -2       780       779       873      3193      3478      3479
 -1      1637    8    0    1
 -2       779       872       873      3477      3480      3478
 -1      1638    8    0    1
 -2       748       749       874      3102      3481      3482
 -1      1639    8    0    1
 -2       842       748       874      3389      3482      3483
 -1      1640    8    0    1
 -2       749       844       874      3395      3484      3481
 -1      1641    8    0    1
 -2       794       795       875      3234      3485      3486
 -1      1642    8    0    1
 -2       713       710       876      2995      3487      3488
 -1      1643    8    0    1
 -2       713       876       812      3488      3489      3301
 -1      1644    8    0    1
 -2       785       787       877      3262      3490      3491
 -1      1645    8    0    1
 -2       708       798       878      3263      3492      3493
 -1      1646    8    0    1
 -2       708       878       807      3493      3494      3276
 -1      1647    8    0    1
 -2       786       778       879      3209      3495      3496
 -1      1648    8    0    1
 -2       778       871       879      3475      3497      3495
 -1      1649    8    0    1
 -2       710       789       880      3218      3498      3499
 -1      1650    8    0    1
 -2       710       880       876      3499      3500      3487
 -1      1651    8    0    1
 -2       793       794       881      3271      3501      3502
 -1      1652    8    0    1
 -2       794       875       881      3486      3503      3501
 -1      1653    8    0    1
 -2       711       806       882      3282      3504      3505
 -1      1654    8    0    1
 -2       804       706       802      3288      3506      3471
 -1      1655    8    0    1
 -2       709       809       883      3290      3507      3508
 -1      1656    8    0    1
 -2       790       783       884      3283      3509      3510
 -1      1657    8    0    1
 -2       798       711       885      3297      3511      3512
 -1      1658    8    0    1
 -2       878       798       885      3492      3512      3513
 -1      1659    8    0    1
 -2       711       882       885      3505      3514      3511
 -1      1660    8    0    1
 -2       802       706       808      3506      3280      3515
 -1      1661    8    0    1
 -2       811       782       870      3299      3473      3516
 -1      1662    8    0    1
 -2       875       795       886      3485      3517      3518
 -1      1663    8    0    1
 -2       795       803       886      3261      3519      3517
 -1      1664    8    0    1
 -2       785       877       800      3491      3520      3250
 -1      1665    8    0    1
 -2       745       841       887      3388      3521      3522
 -1      1666    8    0    1
 -2       745       887       799      3522      3523      3247
 -1      1667    8    0    1
 -2       841       744       888      3387      3524      3525
 -1      1668    8    0    1
 -2       744       792       888      3226      3526      3524
 -1      1669    8    0    1
 -2       743       742       889      3086      3527      3528
 -1      1670    8    0    1
 -2       805       743       889      3269      3528      3529
 -1      1671    8    0    1
 -2       742       840       889      3385      3530      3527
 -1      1672    8    0    1
 -2       802       808       789      3515      3531      3258
 -1      1673    8    0    1
 -2       788       786       890      3215      3532      3533
 -1      1674    8    0    1
 -2       801       788       890      3256      3533      3534
 -1      1675    8    0    1
 -2       786       879       890      3496      3535      3532
 -1      1676    8    0    1
 -2       746       843       891      3392      3536      3537
 -1      1677    8    0    1
 -2       746       891       792      3537      3538      3227
 -1      1678    8    0    1
 -2       709       883       892      3508      3539      3540
 -1      1679    8    0    1
 -2       709       892       797      3540      3541      3240
 -1      1680    8    0    1
 -2       871       712       893      3474      3542      3543
 -1      1681    8    0    1
 -2       712       784       893      3203      3544      3542
 -1      1682    8    0    1
 -2       870       793       894      3472      3545      3546
 -1      1683    8    0    1
 -2       793       881       894      3502      3547      3545
 -1      1684    8    0    1
 -2       803       777       895      3259      3548      3549
 -1      1685    8    0    1
 -2       783       800       896      3252      3550      3551
 -1      1686    8    0    1
 -2       783       896       884      3551      3552      3509
 -1      1687    8    0    1
 -2       784       780       897      3204      3553      3554
 -1      1688    8    0    1
 -2       784       897       893      3554      3555      3544
 -1      1689    8    0    1
 -2       787       811       877      3300      3556      3490
 -1      1690    8    0    1
 -2       776       805       889      3268      3529      3557
 -1      1691    8    0    1
 -2       780       873       897      3479      3558      3553
 -1      1692    8    0    1
 -2       806       797       898      3275      3559      3560
 -1      1693    8    0    1
 -2       797       892       898      3541      3561      3559
 -1      1694    8    0    1
 -2       776       889       872      3557      3562      3476
 -1      1695    8    0    1
 -2       775       801       899      3255      3563      3564
 -1      1696    8    0    1
 -2       869       775       899      3468      3564      3565
 -1      1697    8    0    1
 -2       801       890       899      3534      3566      3563
 -1      1698    8    0    1
 -2       808       790       900      3281      3567      3568
 -1      1699    8    0    1
 -2       790       884       900      3510      3569      3567
 -1      1700    8    0    1
 -2       880       789       808      3498      3531      3570
 -1      1701    8    0    1
 -2       882       806       898      3504      3560      3571
 -1      1702    8    0    1
 -2       809       799       901      3287      3572      3573
 -1      1703    8    0    1
 -2       799       887       901      3523      3574      3572
 -1      1704    8    0    1
 -2       883       809       901      3507      3573      3575
 -1      1705    8    0    1
 -2       777       791       895      3272      3576      3548
 -1      1706    8    0    1
 -2       843       842       902      3393      3577      3578
 -1      1707    8    0    1
 -2       882       898       903      3571      3579      3580
 -1      1708    8    0    1
 -2       814       813       904      3308      3581      3582
 -1      1709    8    0    1
 -2       815       814       905      3311      3583      3584
 -1      1710    8    0    1
 -2       814       904       905      3582      3585      3583
 -1      1711    8    0    1
 -2       816       815       906      3314      3586      3587
 -1      1712    8    0    1
 -2       815       905       906      3584      3588      3586
 -1      1713    8    0    1
 -2       817       816       907      3317      3589      3590
 -1      1714    8    0    1
 -2       816       906       907      3587      3591      3589
 -1      1715    8    0    1
 -2       818       817       908      3320      3592      3593
 -1      1716    8    0    1
 -2       817       907       908      3590      3594      3592
 -1      1717    8    0    1
 -2       819       818       909      3323      3595      3596
 -1      1718    8    0    1
 -2       818       908       909      3593      3597      3595
 -1      1719    8    0    1
 -2       820       819       910      3326      3598      3599
 -1      1720    8    0    1
 -2       819       909       910      3596      3600      3598
 -1      1721    8    0    1
 -2       821       820       911      3329      3601      3602
 -1      1722    8    0    1
 -2       820       910       911      3599      3603      3601
 -1      1723    8    0    1
 -2       822       821       912      3332      3604      3605
 -1      1724    8    0    1
 -2       821       911       912      3602      3606      3604
 -1      1725    8    0    1
 -2       823       822       913      3335      3607      3608
 -1      1726    8    0    1
 -2       822       912       913      3605      3609      3607
 -1      1727    8    0    1
 -2       824       823       914      3338      3610      3611
 -1      1728    8    0    1
 -2       823       913       914      3608      3612      3610
 -1      1729    8    0    1
 -2       825       824       915      3341      3613      3614
 -1      1730    8    0    1
 -2       824       914       915      3611      3615      3613
 -1      1731    8    0    1
 -2       826       825       916      3344      3616      3617
 -1      1732    8    0    1
 -2       825       915       916      3614      3618      3616
 -1      1733    8    0    1
 -2       827       826       917      3347      3619      3620
 -1      1734    8    0    1
 -2       826       916       917      3617      3621      3619
 -1      1735    8    0    1
 -2       828       827       918      3350      3622      3623
 -1      1736    8    0    1
 -2       827       917       918      3620      3624      3622
 -1      1737    8    0    1
 -2       829       828       919      3353      3625      3626
 -1      1738    8    0    1
 -2       828       918       919      3623      3627      3625
 -1      1739    8    0    1
 -2       830       829       920      3356      3628      3629
 -1      1740    8    0    1
 -2       829       919       920      3626      3630      3628
 -1      1741    8    0    1
 -2       831       830       921      3359      3631      3632
 -1      1742    8    0    1
 -2       830       920       921      3629      3633      3631
 -1      1743    8    0    1
 -2       832       831       922      3362      3634      3635
 -1      1744    8    0    1
 -2       831       921       922      3632      3636      3634
 -1      1745    8    0    1
 -2       833       832       923      3365      3637      3638
 -1      1746    8    0    1
 -2       832       922       923      3635      3639      3637
 -1      1747    8    0    1
 -2       834       833       924      3368      3640      3641
 -1      1748    8    0    1
 -2       833       923       924      3638      3642      3640
 -1      1749    8    0    1
 -2       835       834       925      3371      3643      3644
 -1      1750    8    0    1
 -2       834       924       925      3641      3645      3643
 -1      1751    8    0    1
 -2       836       835       926      3374      3646      3647
 -1      1752    8    0    1
 -2       835       925       926      3644      3648      3646
 -1      1753    8    0    1
 -2       837       836       927      3377      3649      3650
 -1      1754    8    0    1
 -2       836       926       927      3647      3651      3649
 -1      1755    8    0    1
 -2       838       837       928      3380      3652      3653
 -1      1756    8    0    1
 -2       837       927       928      3650      3654      3652
 -1      1757    8    0    1
 -2       839       838       929      3383      3655      3656
 -1      1758    8    0    1
 -2       838       928       929      3653      3657      3655
 -1      1759    8    0    1
 -2       840       839       930      3386      3658      3659
 -1      1760    8    0    1
 -2       839       929       930      3656      3660      3658
 -1      1761    8    0    1
 -2       897       873       931      3558      3661      3662
 -1      1762    8    0    1
 -2       883       901       932      3575      3663      3664
 -1      1763    8    0    1
 -2       845       846       933      3401      3665      3666
 -1      1764    8    0    1
 -2       844       845       934      3398      3667      3668
 -1      1765    8    0    1
 -2       845       933       934      3666      3669      3667
 -1      1766    8    0    1
 -2       847       848       935      3407      3670      3671
 -1      1767    8    0    1
 -2       848       849       936      3410      3672      3673
 -1      1768    8    0    1
 -2       848       936       935      3673      3674      3670
 -1      1769    8    0    1
 -2       849       850       937      3413      3675      3676
 -1      1770    8    0    1
 -2       849       937       936      3676      3677      3672
 -1      1771    8    0    1
 -2       850       851       938      3416      3678      3679
 -1      1772    8    0    1
 -2       850       938       937      3679      3680      3675
 -1      1773    8    0    1
 -2       851       852       939      3419      3681      3682
 -1      1774    8    0    1
 -2       851       939       938      3682      3683      3678
 -1      1775    8    0    1
 -2       852       853       940      3422      3684      3685
 -1      1776    8    0    1
 -2       852       940       939      3685      3686      3681
 -1      1777    8    0    1
 -2       853       854       941      3425      3687      3688
 -1      1778    8    0    1
 -2       853       941       940      3688      3689      3684
 -1      1779    8    0    1
 -2       854       855       942      3428      3690      3691
 -1      1780    8    0    1
 -2       854       942       941      3691      3692      3687
 -1      1781    8    0    1
 -2       855       856       943      3431      3693      3694
 -1      1782    8    0    1
 -2       855       943       942      3694      3695      3690
 -1      1783    8    0    1
 -2       856       857       944      3434      3696      3697
 -1      1784    8    0    1
 -2       856       944       943      3697      3698      3693
 -1      1785    8    0    1
 -2       857       858       945      3437      3699      3700
 -1      1786    8    0    1
 -2       857       945       944      3700      3701      3696
 -1      1787    8    0    1
 -2       858       859       946      3440      3702      3703
 -1      1788    8    0    1
 -2       858       946       945      3703      3704      3699
 -1      1789    8    0    1
 -2       859       860       947      3443      3705      3706
 -1      1790    8    0    1
 -2       859       947       946      3706      3707      3702
 -1      1791    8    0    1
 -2       860       861       948      3446      3708      3709
 -1      1792    8    0    1
 -2       860       948       947      3709      3710      3705
 -1      1793    8    0    1
 -2       861       862       949      3449      3711      3712
 -1      1794    8    0    1
 -2       861       949       948      3712      3713      3708
 -1      1795    8    0    1
 -2       862       863       950      3452      3714      3715
 -1      1796    8    0    1
 -2       862       950       949      3715      3716      3711
 -1      1797    8    0    1
 -2       863       864       951      3455      3717      3718
 -1      1798    8    0    1
 -2       863       951       950      3718      3719      3714
 -1      1799    8    0    1
 -2       864       865       952      3458      3720      3721
 -1      1800    8    0    1
 -2       864       952       951      3721      3722      3717
 -1      1801    8    0    1
 -2       865       866       953      3461      3723      3724
 -1      1802    8    0    1
 -2       865       953       952      3724      3725      3720
 -1      1803    8    0    1
 -2       866       867       954      3464      3726      3727
 -1      1804    8    0    1
 -2       866       954       953      3727      3728      3723
 -1      1805    8    0    1
 -2       867       868       955      3467      3729      3730
 -1      1806    8    0    1
 -2       867       955       954      3730      3731      3726
 -1      1807    8    0    1
 -2       868       869       956      3470      3732      3733
 -1      1808    8    0    1
 -2       868       956       955      3733      3734      3729
 -1      1809    8    0    1
 -2       877       811       957      3556      3735      3736
 -1      1810    8    0    1
 -2       876       880       958      3500      3737      3738
 -1      1811    8    0    1
 -2       800       877       959      3520      3739      3740
 -1      1812    8    0    1
 -2       803       895       960      3549      3741      3742
 -1      1813    8    0    1
 -2       803       960       886      3742      3743      3519
 -1      1814    8    0    1
 -2       812       876       961      3489      3744      3745
 -1      1815    8    0    1
 -2       876       958       961      3738      3746      3744
 -1      1816    8    0    1
 -2       807       878       962      3494      3747      3748
 -1      1817    8    0    1
 -2       807       962       810      3748      3749      3294
 -1      1818    8    0    1
 -2       879       871       963      3497      3750      3751
 -1      1819    8    0    1
 -2       881       875       964      3503      3752      3753
 -1      1820    8    0    1
 -2       873       872       965      3480      3754      3755
 -1      1821    8    0    1
 -2       873       965       931      3755      3756      3661
 -1      1822    8    0    1
 -2       813       812       966      3305      3757      3758
 -1      1823    8    0    1
 -2       813       966       904      3758      3759      3581
 -1      1824    8    0    1
 -2       811       870       967      3516      3760      3761
 -1      1825    8    0    1
 -2       846       847       968      3404      3762      3763
 -1      1826    8    0    1
 -2       847       935       968      3671      3764      3762
 -1      1827    8    0    1
 -2       796       810       960      3293      3765      3766
 -1      1828    8    0    1
 -2       796       960       895      3766      3741      3767
 -1      1829    8    0    1
 -2       960       810       962      3765      3749      3768
 -1      1830    8    0    1
 -2       882       903       969      3580      3769      3770
 -1      1831    8    0    1
 -2       882       969       885      3770      3771      3514
 -1      1832    8    0    1
 -2       812       961       966      3745      3772      3757
 -1      1833    8    0    1
 -2       965       872       930      3754      3773      3774
 -1      1834    8    0    1
 -2       887       841       970      3521      3775      3776
 -1      1835    8    0    1
 -2       888       792       891      3526      3538      3777
 -1      1836    8    0    1
 -2       897       931       971      3662      3778      3779
 -1      1837    8    0    1
 -2       897       971       893      3779      3780      3555
 -1      1838    8    0    1
 -2       889       840       872      3530      3781      3562
 -1      1839    8    0    1
 -2       964       875       886      3752      3518      3782
 -1      1840    8    0    1
 -2       890       879       899      3535      3783      3566
 -1      1841    8    0    1
 -2       883       932       972      3664      3784      3785
 -1      1842    8    0    1
 -2       883       972       892      3785      3786      3539
 -1      1843    8    0    1
 -2       841       888       973      3525      3787      3788
 -1      1844    8    0    1
 -2       841       973       970      3788      3789      3775
 -1      1845    8    0    1
 -2       896       800       959      3550      3740      3790
 -1      1846    8    0    1
 -2       844       934       974      3668      3791      3792
 -1      1847    8    0    1
 -2       844       974       874      3792      3793      3484
 -1      1848    8    0    1
 -2       877       957       959      3736      3794      3739
 -1      1849    8    0    1
 -2       956       869       963      3732      3795      3796
 -1      1850    8    0    1
 -2       957       811       967      3735      3761      3797
 -1      1851    8    0    1
 -2       900       884       975      3569      3798      3799
 -1      1852    8    0    1
 -2       884       896       975      3552      3800      3798
 -1      1853    8    0    1
 -2       894       881       964      3547      3753      3801
 -1      1854    8    0    1
 -2       891       843       976      3536      3802      3803
 -1      1855    8    0    1
 -2       843       902       976      3578      3804      3802
 -1      1856    8    0    1
 -2       886       960       969      3743      3805      3806
 -1      1857    8    0    1
 -2       960       962       969      3768      3807      3805
 -1      1858    8    0    1
 -2       958       880       900      3737      3808      3809
 -1      1859    8    0    1
 -2       842       874       977      3483      3810      3811
 -1      1860    8    0    1
 -2       902       842       977      3577      3811      3812
 -1      1861    8    0    1
 -2       874       974       977      3793      3813      3810
 -1      1862    8    0    1
 -2       898       892       978      3561      3814      3815
 -1      1863    8    0    1
 -2       903       898       978      3579      3815      3816
 -1      1864    8    0    1
 -2       892       972       978      3786      3817      3814
 -1      1865    8    0    1
 -2       962       878       885      3747      3513      3818
 -1      1866    8    0    1
 -2       933       846       968      3665      3763      3819
 -1      1867    8    0    1
 -2       870       894       967      3546      3820      3760
 -1      1868    8    0    1
 -2       932       901       979      3663      3821      3822
 -1      1869    8    0    1
 -2       901       887       979      3574      3823      3821
 -1      1870    8    0    1
 -2       872       840       930      3781      3659      3773
 -1      1871    8    0    1
 -2       880       808       900      3570      3568      3808
 -1      1872    8    0    1
 -2       871       893       980      3543      3824      3825
 -1      1873    8    0    1
 -2       963       871       980      3750      3825      3826
 -1      1874    8    0    1
 -2       893       971       980      3780      3827      3824
 -1      1875    8    0    1
 -2       791       796       895      3295      3767      3576
 -1      1876    8    0    1
 -2       896       959       981      3790      3828      3829
 -1      1877    8    0    1
 -2       887       970       979      3776      3830      3823
 -1      1878    8    0    1
 -2       888       891       982      3777      3831      3832
 -1      1879    8    0    1
 -2       891       976       982      3803      3833      3831
 -1      1880    8    0    1
 -2       906       905       983      3588      3834      3835
 -1      1881    8    0    1
 -2       907       906       984      3591      3836      3837
 -1      1882    8    0    1
 -2       906       983       984      3835      3838      3836
 -1      1883    8    0    1
 -2       908       907       985      3594      3839      3840
 -1      1884    8    0    1
 -2       907       984       985      3837      3841      3839
 -1      1885    8    0    1
 -2       909       908       986      3597      3842      3843
 -1      1886    8    0    1
 -2       908       985       986      3840      3844      3842
 -1      1887    8    0    1
 -2       910       909       987      3600      3845      3846
 -1      1888    8    0    1
 -2       909       986       987      3843      3847      3845
 -1      1889    8    0    1
 -2       911       910       988      3603      3848      3849
 -1      1890    8    0    1
 -2       910       987       988      3846      3850      3848
 -1      1891    8    0    1
 -2       912       911       989      3606      3851      3852
 -1      1892    8    0    1
 -2       911       988       989      3849      3853      3851
 -1      1893    8    0    1
 -2       913       912       990      3609      3854      3855
 -1      1894    8    0    1
 -2       912       989       990      3852      3856      3854
 -1      1895    8    0    1
 -2       914       913       991      3612      3857      3858
 -1      1896    8    0    1
 -2       913       990       991      3855      3859      3857
 -1      1897    8    0    1
 -2       915       914       992      3615      3860      3861
 -1      1898    8    0    1
 -2       914       991       992      3858      3862      3860
 -1      1899    8    0    1
 -2       916       915       993      3618      3863      3864
 -1      1900    8    0    1
 -2       915       992       993      3861      3865      3863
 -1      1901    8    0    1
 -2       917       916       994      3621      3866      3867
 -1      1902    8    0    1
 -2       916       993       994      3864      3868      3866
 -1      1903    8    0    1
 -2       918       917       995      3624      3869      3870
 -1      1904    8    0    1
 -2       917       994       995      3867      3871      3869
 -1      1905    8    0    1
 -2       919       918       996      3627      3872      3873
 -1      1906    8    0    1
 -2       918       995       996      3870      3874      3872
 -1      1907    8    0    1
 -2       920       919       997      3630      3875      3876
 -1      1908    8    0    1
 -2       919       996       997      3873      3877      3875
 -1      1909    8    0    1
 -2       921       920       998      3633      3878      3879
 -1      1910    8    0    1
 -2       920       997       998      3876      3880      3878
 -1      1911    8    0    1
 -2       922       921       999      3636      3881      3882
 -1      1912    8    0    1
 -2       921       998       999      3879      3883      3881
 -1      1913    8    0    1
 -2       923       922      1000      3639      3884      3885
 -1      1914    8    0    1
 -2       922       999      1000      3882      3886      3884
 -1      1915    8    0    1
 -2       924       923      1001      3642      3887      3888
 -1      1916    8    0    1
 -2       923      1000      1001      3885      3889      3887
 -1      1917    8    0    1
 -2       925       924      1002      3645      3890      3891
 -1      1918    8    0    1
 -2       924      1001      1002      3888      3892      3890
 -1      1919    8    0    1
 -2       926       925      1003      3648      3893      3894
 -1      1920    8    0    1
 -2       925      1002      1003      3891      3895      3893
 -1      1921    8    0    1
 -2       927       926      1004      3651      3896      3897
 -1      1922    8    0    1
 -2       926      1003      1004      3894      3898      3896
 -1      1923    8    0    1
 -2       928       927      1005      3654      3899      3900
 -1      1924    8    0    1
 -2       927      1004      1005      3897      3901      3899
 -1      1925    8    0    1
 -2       929       928      1006      3657      3902      3903
 -1      1926    8    0    1
 -2       928      1005      1006      3900      3904      3902
 -1      1927    8    0    1
 -2       930       929      1007      3660      3905      3906
 -1      1928    8    0    1
 -2       965       930      1007      3774      3906      3907
 -1      1929    8    0    1
 -2       929      1006      1007      3903      3908      3905
 -1      1930    8    0    1
 -2       904       966      1008      3759      3909      3910
 -1      1931    8    0    1
 -2       936       937      1009      3677      3911      3912
 -1      1932    8    0    1
 -2       935       936      1010      3674      3913      3914
 -1      1933    8    0    1
 -2       936      1009      1010      3912      3915      3913
 -1      1934    8    0    1
 -2       938       939      1011      3683      3916      3917
 -1      1935    8    0    1
 -2       939       940      1012      3686      3918      3919
 -1      1936    8    0    1
 -2       939      1012      1011      3919      3920      3916
 -1      1937    8    0    1
 -2       940       941      1013      3689      3921      3922
 -1      1938    8    0    1
 -2       940      1013      1012      3922      3923      3918
 -1      1939    8    0    1
 -2       941       942      1014      3692      3924      3925
 -1      1940    8    0    1
 -2       941      1014      1013      3925      3926      3921
 -1      1941    8    0    1
 -2       942       943      1015      3695      3927      3928
 -1      1942    8    0    1
 -2       942      1015      1014      3928      3929      3924
 -1      1943    8    0    1
 -2       943       944      1016      3698      3930      3931
 -1      1944    8    0    1
 -2       943      1016      1015      3931      3932      3927
 -1      1945    8    0    1
 -2       944       945      1017      3701      3933      3934
 -1      1946    8    0    1
 -2       944      1017      1016      3934      3935      3930
 -1      1947    8    0    1
 -2       945       946      1018      3704      3936      3937
 -1      1948    8    0    1
 -2       945      1018      1017      3937      3938      3933
 -1      1949    8    0    1
 -2       946       947      1019      3707      3939      3940
 -1      1950    8    0    1
 -2       946      1019      1018      3940      3941      3936
 -1      1951    8    0    1
 -2       947       948      1020      3710      3942      3943
 -1      1952    8    0    1
 -2       947      1020      1019      3943      3944      3939
 -1      1953    8    0    1
 -2       948       949      1021      3713      3945      3946
 -1      1954    8    0    1
 -2       948      1021      1020      3946      3947      3942
 -1      1955    8    0    1
 -2       949       950      1022      3716      3948      3949
 -1      1956    8    0    1
 -2       949      1022      1021      3949      3950      3945
 -1      1957    8    0    1
 -2       950       951      1023      3719      3951      3952
 -1      1958    8    0    1
 -2       950      1023      1022      3952      3953      3948
 -1      1959    8    0    1
 -2       951       952      1024      3722      3954      3955
 -1      1960    8    0    1
 -2       951      1024      1023      3955      3956      3951
 -1      1961    8    0    1
 -2       952       953      1025      3725      3957      3958
 -1      1962    8    0    1
 -2       952      1025      1024      3958      3959      3954
 -1      1963    8    0    1
 -2       953       954      1026      3728      3960      3961
 -1      1964    8    0    1
 -2       953      1026      1025      3961      3962      3957
 -1      1965    8    0    1
 -2       954       955      1027      3731      3963      3964
 -1      1966    8    0    1
 -2       954      1027      1026      3964      3965      3960
 -1      1967    8    0    1
 -2       955       956      1028      3734      3966      3967
 -1      1968    8    0    1
 -2       955      1028      1027      3967      3968      3963
 -1      1969    8    0    1
 -2       963       869       879      3795      3969      3751
 -1      1970    8    0    1
 -2       957       967      1029      3797      3970      3971
 -1      1971    8    0    1
 -2       885       969       962      3771      3807      3818
 -1      1972    8    0    1
 -2       956       963      1030      3796      3972      3973
 -1      1973    8    0    1
 -2      1028       956      1030      3966      3973      3974
 -1      1974    8    0    1
 -2       963       980      1030      3826      3975      3972
 -1      1975    8    0    1
 -2       937       938      1031      3680      3976      3977
 -1      1976    8    0    1
 -2       938      1011      1031      3917      3978      3976
 -1      1977    8    0    1
 -2       959       957      1032      3794      3979      3980
 -1      1978    8    0    1
 -2       934       933      1033      3669      3981      3982
 -1      1979    8    0    1
 -2       961       958      1034      3746      3983      3984
 -1      1980    8    0    1
 -2       966       961      1035      3772      3985      3986
 -1      1981    8    0    1
 -2       961      1034      1035      3984      3987      3985
 -1      1982    8    0    1
 -2       905       904      1036      3585      3988      3989
 -1      1983    8    0    1
 -2       904      1008      1036      3910      3990      3988
 -1      1984    8    0    1
 -2       931       965      1037      3756      3991      3992
 -1      1985    8    0    1
 -2       965      1007      1037      3907      3993      3991
 -1      1986    8    0    1
 -2       968       935      1038      3764      3994      3995
 -1      1987    8    0    1
 -2       935      1010      1038      3914      3996      3994
 -1      1988    8    0    1
 -2       967       894       932      3820      3997      3998
 -1      1989    8    0    1
 -2       933       968      1039      3819      3999      4000
 -1      1990    8    0    1
 -2       968      1038      1039      3995      4001      3999
 -1      1991    8    0    1
 -2       967       932       979      3998      3822      4002
 -1      1992    8    0    1
 -2       979       970      1029      3830      4003      4004
 -1      1993    8    0    1
 -2       983       905      1036      3834      3989      4005
 -1      1994    8    0    1
 -2       971       931      1040      3778      4006      4007
 -1      1995    8    0    1
 -2       931      1037      1040      3992      4008      4006
 -1      1996    8    0    1
 -2      1009       937      1031      3911      3977      4009
 -1      1997    8    0    1
 -2       959      1032       981      3980      4010      3828
 -1      1998    8    0    1
 -2       973       888       982      3787      3832      4011
 -1      1999    8    0    1
 -2       974       934      1041      3791      4012      4013
 -1      2000    8    0    1
 -2       934      1033      1041      3982      4014      4012
 -1      2001    8    0    1
 -2       970       973      1042      3789      4015      4016
 -1      2002    8    0    1
 -2       970      1042      1029      4016      4017      4003
 -1      2003    8    0    1
 -2      1029       967       979      3970      4002      4004
 -1      2004    8    0    1
 -2       975       896      1043      3800      4018      4019
 -1      2005    8    0    1
 -2       896       981      1043      3829      4020      4018
 -1      2006    8    0    1
 -2      1034       958      1043      3983      4021      4022
 -1      2007    8    0    1
 -2       976       902      1044      3804      4023      4024
 -1      2008    8    0    1
 -2       886       969       964      3806      4025      3782
 -1      2009    8    0    1
 -2       894       964       978      3801      4026      4027
 -1      2010    8    0    1
 -2      1033       933      1039      3981      4000      4028
 -1      2011    8    0    1
 -2       902       977      1045      3812      4029      4030
 -1      2012    8    0    1
 -2       902      1045      1044      4030      4031      4023
 -1      2013    8    0    1
 -2      1032       957      1042      3979      4032      4033
 -1      2014    8    0    1
 -2       966      1035      1008      3986      4034      3909
 -1      2015    8    0    1
 -2       932       894       972      3997      4035      3784
 -1      2016    8    0    1
 -2       957      1029      1042      3971      4017      4032
 -1      2017    8    0    1
 -2       894       978       972      4027      3817      4035
 -1      2018    8    0    1
 -2       983      1036      1046      4005      4036      4037
 -1      2019    8    0    1
 -2       982       976      1047      3833      4038      4039
 -1      2020    8    0    1
 -2       976      1044      1047      4024      4040      4038
 -1      2021    8    0    1
 -2      1009      1031      1048      4009      4041      4042
 -1      2022    8    0    1
 -2       985       984      1049      3841      4043      4044
 -1      2023    8    0    1
 -2       986       985      1050      3844      4045      4046
 -1      2024    8    0    1
 -2       985      1049      1050      4044      4047      4045
 -1      2025    8    0    1
 -2       987       986      1051      3847      4048      4049
 -1      2026    8    0    1
 -2       986      1050      1051      4046      4050      4048
 -1      2027    8    0    1
 -2       988       987      1052      3850      4051      4052
 -1      2028    8    0    1
 -2       987      1051      1052      4049      4053      4051
 -1      2029    8    0    1
 -2       989       988      1053      3853      4054      4055
 -1      2030    8    0    1
 -2       988      1052      1053      4052      4056      4054
 -1      2031    8    0    1
 -2       990       989      1054      3856      4057      4058
 -1      2032    8    0    1
 -2       989      1053      1054      4055      4059      4057
 -1      2033    8    0    1
 -2       991       990      1055      3859      4060      4061
 -1      2034    8    0    1
 -2       990      1054      1055      4058      4062      4060
 -1      2035    8    0    1
 -2       992       991      1056      3862      4063      4064
 -1      2036    8    0    1
 -2       991      1055      1056      4061      4065      4063
 -1      2037    8    0    1
 -2       993       992      1057      3865      4066      4067
 -1      2038    8    0    1
 -2       992      1056      1057      4064      4068      4066
 -1      2039    8    0    1
 -2       994       993      1058      3868      4069      4070
 -1      2040    8    0    1
 -2       993      1057      1058      4067      4071      4069
 -1      2041    8    0    1
 -2       995       994      1059      3871      4072      4073
 -1      2042    8    0    1
 -2       994      1058      1059      4070      4074      4072
 -1      2043    8    0    1
 -2       996       995      1060      3874      4075      4076
 -1      2044    8    0    1
 -2       995      1059      1060      4073      4077      4075
 -1      2045    8    0    1
 -2       997       996      1061      3877      4078      4079
 -1      2046    8    0    1
 -2       996      1060      1061      4076      4080      4078
 -1      2047    8    0    1
 -2       998       997      1062      3880      4081      4082
 -1      2048    8    0    1
 -2       997      1061      1062      4079      4083      4081
 -1      2049    8    0    1
 -2       999       998      1063      3883      4084      4085
 -1      2050    8    0    1
 -2       998      1062      1063      4082      4086      4084
 -1      2051    8    0    1
 -2      1000       999      1064      3886      4087      4088
 -1      2052    8    0    1
 -2       999      1063      1064      4085      4089      4087
 -1      2053    8    0    1
 -2      1001      1000      1065      3889      4090      4091
 -1      2054    8    0    1
 -2      1000      1064      1065      4088      4092      4090
 -1      2055    8    0    1
 -2      1002      1001      1066      3892      4093      4094
 -1      2056    8    0    1
 -2      1001      1065      1066      4091      4095      4093
 -1      2057    8    0    1
 -2      1003      1002      1067      3895      4096      4097
 -1      2058    8    0    1
 -2      1002      1066      1067      4094      4098      4096
 -1      2059    8    0    1
 -2      1004      1003      1068      3898      4099      4100
 -1      2060    8    0    1
 -2      1003      1067      1068      4097      4101      4099
 -1      2061    8    0    1
 -2      1005      1004      1069      3901      4102      4103
 -1      2062    8    0    1
 -2      1004      1068      1069      4100      4104      4102
 -1      2063    8    0    1
 -2      1006      1005      1070      3904      4105      4106
 -1      2064    8    0    1
 -2      1005      1069      1070      4103      4107      4105
 -1      2065    8    0    1
 -2      1007      1006      1037      3908      4108      3993
 -1      2066    8    0    1
 -2      1042       973      1071      4015      4109      4110
 -1      2067    8    0    1
 -2      1012      1013      1072      3923      4111      4112
 -1      2068    8    0    1
 -2      1011      1012      1073      3920      4113      4114
 -1      2069    8    0    1
 -2      1012      1072      1073      4112      4115      4113
 -1      2070    8    0    1
 -2      1014      1015      1074      3929      4116      4117
 -1      2071    8    0    1
 -2      1015      1016      1075      3932      4118      4119
 -1      2072    8    0    1
 -2      1015      1075      1074      4119      4120      4116
 -1      2073    8    0    1
 -2      1016      1017      1076      3935      4121      4122
 -1      2074    8    0    1
 -2      1016      1076      1075      4122      4123      4118
 -1      2075    8    0    1
 -2      1017      1018      1077      3938      4124      4125
 -1      2076    8    0    1
 -2      1017      1077      1076      4125      4126      4121
 -1      2077    8    0    1
 -2      1018      1019      1078      3941      4127      4128
 -1      2078    8    0    1
 -2      1018      1078      1077      4128      4129      4124
 -1      2079    8    0    1
 -2      1019      1020      1079      3944      4130      4131
 -1      2080    8    0    1
 -2      1019      1079      1078      4131      4132      4127
 -1      2081    8    0    1
 -2      1020      1021      1080      3947      4133      4134
 -1      2082    8    0    1
 -2      1020      1080      1079      4134      4135      4130
 -1      2083    8    0    1
 -2      1021      1022      1081      3950      4136      4137
 -1      2084    8    0    1
 -2      1021      1081      1080      4137      4138      4133
 -1      2085    8    0    1
 -2      1022      1023      1082      3953      4139      4140
 -1      2086    8    0    1
 -2      1022      1082      1081      4140      4141      4136
 -1      2087    8    0    1
 -2      1023      1024      1083      3956      4142      4143
 -1      2088    8    0    1
 -2      1023      1083      1082      4143      4144      4139
 -1      2089    8    0    1
 -2      1024      1025      1084      3959      4145      4146
 -1      2090    8    0    1
 -2      1024      1084      1083      4146      4147      4142
 -1      2091    8    0    1
 -2      1025      1026      1085      3962      4148      4149
 -1      2092    8    0    1
 -2      1025      1085      1084      4149      4150      4145
 -1      2093    8    0    1
 -2      1026      1027      1086      3965      4151      4152
 -1      2094    8    0    1
 -2      1026      1086      1085      4152      4153      4148
 -1      2095    8    0    1
 -2      1027      1028      1087      3968      4154      4155
 -1      2096    8    0    1
 -2      1027      1087      1086      4155      4156      4151
 -1      2097    8    0    1
 -2       879       869       899      3969      3565      3783
 -1      2098    8    0    1
 -2      1031      1011      1088      3978      4157      4158
 -1      2099    8    0    1
 -2      1048      1031      1088      4041      4158      4159
 -1      2100    8    0    1
 -2      1011      1073      1088      4114      4160      4157
 -1      2101    8    0    1
 -2      1039      1038      1089      4001      4161      4162
 -1      2102    8    0    1
 -2      1032      1042      1071      4033      4110      4163
 -1      2103    8    0    1
 -2      1035      1034      1090      3987      4164      4165
 -1      2104    8    0    1
 -2      1043       958       975      4021      4166      4019
 -1      2105    8    0    1
 -2       977       974      1091      3813      4167      4168
 -1      2106    8    0    1
 -2      1045       977      1091      4029      4168      4169
 -1      2107    8    0    1
 -2       974      1041      1091      4013      4170      4167
 -1      2108    8    0    1
 -2       964       969       903      4025      3769      4171
 -1      2109    8    0    1
 -2       958       900       975      3809      3799      4166
 -1      2110    8    0    1
 -2       978       964       903      4026      4171      3816
 -1      2111    8    0    1
 -2      1033      1039      1092      4028      4172      4173
 -1      2112    8    0    1
 -2      1039      1089      1092      4162      4174      4172
 -1      2113    8    0    1
 -2       981      1032      1093      4010      4175      4176
 -1      2114    8    0    1
 -2      1032      1071      1093      4163      4177      4175
 -1      2115    8    0    1
 -2      1008      1035      1094      4034      4178      4179
 -1      2116    8    0    1
 -2      1035      1090      1094      4165      4180      4178
 -1      2117    8    0    1
 -2      1013      1014      1095      3926      4181      4182
 -1      2118    8    0    1
 -2      1014      1074      1095      4117      4183      4181
 -1      2119    8    0    1
 -2      1010      1009      1096      3915      4184      4185
 -1      2120    8    0    1
 -2      1009      1048      1096      4042      4186      4184
 -1      2121    8    0    1
 -2      1036      1008      1097      3990      4187      4188
 -1      2122    8    0    1
 -2      1008      1094      1097      4179      4189      4187
 -1      2123    8    0    1
 -2      1038      1010      1098      3996      4190      4191
 -1      2124    8    0    1
 -2      1010      1096      1098      4185      4192      4190
 -1      2125    8    0    1
 -2       980       971      1099      3827      4193      4194
 -1      2126    8    0    1
 -2      1030       980      1099      3975      4194      4195
 -1      2127    8    0    1
 -2       971      1040      1099      4007      4196      4193
 -1      2128    8    0    1
 -2       973       982      1071      4011      4197      4109
 -1      2129    8    0    1
 -2       984       983      1100      3838      4198      4199
 -1      2130    8    0    1
 -2       984      1100      1049      4199      4200      4043
 -1      2131    8    0    1
 -2      1037      1006      1070      4108      4106      4201
 -1      2132    8    0    1
 -2       982      1047      1071      4039      4202      4197
 -1      2133    8    0    1
 -2      1089      1038      1098      4161      4191      4203
 -1      2134    8    0    1
 -2      1072      1013      1095      4111      4182      4204
 -1      2135    8    0    1
 -2      1041      1033      1101      4014      4205      4206
 -1      2136    8    0    1
 -2      1033      1092      1101      4173      4207      4205
 -1      2137    8    0    1
 -2      1087      1028      1030      4154      3974      4208
 -1      2138    8    0    1
 -2      1036      1097      1046      4188      4209      4036
 -1      2139    8    0    1
 -2      1034      1043      1102      4022      4210      4211
 -1      2140    8    0    1
 -2      1043       981      1103      4020      4212      4213
 -1      2141    8    0    1
 -2      1102      1043      1103      4210      4213      4214
 -1      2142    8    0    1
 -2       981      1093      1103      4176      4215      4212
 -1      2143    8    0    1
 -2       983      1046      1100      4037      4216      4198
 -1      2144    8    0    1
 -2      1044      1045      1104      4031      4217      4218
 -1      2145    8    0    1
 -2      1044      1104      1105      4218      4219      4220
 -1      2146    8    0    1
 -2      1044      1105      1047      4220      4221      4040
 -1      2147    8    0    1
 -2      1034      1102      1090      4211      4222      4164
 -1      2148    8    0    1
 -2      1040      1037      1106      4008      4223      4224
 -1      2149    8    0    1
 -2      1071      1047      1093      4202      4225      4177
 -1      2150    8    0    1
 -2      1051      1050      1107      4050      4226      4227
 -1      2151    8    0    1
 -2      1052      1051      1108      4053      4228      4229
 -1      2152    8    0    1
 -2      1051      1107      1108      4227      4230      4228
 -1      2153    8    0    1
 -2      1053      1052      1109      4056      4231      4232
 -1      2154    8    0    1
 -2      1052      1108      1109      4229      4233      4231
 -1      2155    8    0    1
 -2      1054      1053      1110      4059      4234      4235
 -1      2156    8    0    1
 -2      1053      1109      1110      4232      4236      4234
 -1      2157    8    0    1
 -2      1055      1054      1111      4062      4237      4238
 -1      2158    8    0    1
 -2      1054      1110      1111      4235      4239      4237
 -1      2159    8    0    1
 -2      1056      1055      1112      4065      4240      4241
 -1      2160    8    0    1
 -2      1055      1111      1112      4238      4242      4240
 -1      2161    8    0    1
 -2      1057      1056      1113      4068      4243      4244
 -1      2162    8    0    1
 -2      1056      1112      1113      4241      4245      4243
 -1      2163    8    0    1
 -2      1058      1057      1114      4071      4246      4247
 -1      2164    8    0    1
 -2      1057      1113      1114      4244      4248      4246
 -1      2165    8    0    1
 -2      1059      1058      1115      4074      4249      4250
 -1      2166    8    0    1
 -2      1058      1114      1115      4247      4251      4249
 -1      2167    8    0    1
 -2      1060      1059      1116      4077      4252      4253
 -1      2168    8    0    1
 -2      1059      1115      1116      4250      4254      4252
 -1      2169    8    0    1
 -2      1061      1060      1117      4080      4255      4256
 -1      2170    8    0    1
 -2      1060      1116      1117      4253      4257      4255
 -1      2171    8    0    1
 -2      1062      1061      1118      4083      4258      4259
 -1      2172    8    0    1
 -2      1061      1117      1118      4256      4260      4258
 -1      2173    8    0    1
 -2      1063      1062      1119      4086      4261      4262
 -1      2174    8    0    1
 -2      1062      1118      1119      4259      4263      4261
 -1      2175    8    0    1
 -2      1064      1063      1120      4089      4264      4265
 -1      2176    8    0    1
 -2      1063      1119      1120      4262      4266      4264
 -1      2177    8    0    1
 -2      1065      1064      1121      4092      4267      4268
 -1      2178    8    0    1
 -2      1064      1120      1121      4265      4269      4267
 -1      2179    8    0    1
 -2      1066      1065      1122      4095      4270      4271
 -1      2180    8    0    1
 -2      1065      1121      1122      4268      4272      4270
 -1      2181    8    0    1
 -2      1067      1066      1123      4098      4273      4274
 -1      2182    8    0    1
 -2      1066      1122      1123      4271      4275      4273
 -1      2183    8    0    1
 -2      1068      1067      1124      4101      4276      4277
 -1      2184    8    0    1
 -2      1067      1123      1124      4274      4278      4276
 -1      2185    8    0    1
 -2      1069      1068      1125      4104      4279      4280
 -1      2186    8    0    1
 -2      1068      1124      1125      4277      4281      4279
 -1      2187    8    0    1
 -2      1070      1069      1126      4107      4282      4283
 -1      2188    8    0    1
 -2      1069      1125      1126      4280      4284      4282
 -1      2189    8    0    1
 -2      1049      1100      1127      4200      4285      4286
 -1      2190    8    0    1
 -2      1076      1077      1116      4126      4287      4288
 -1      2191    8    0    1
 -2      1100      1046      1128      4216      4289      4290
 -1      2192    8    0    1
 -2      1100      1128      1127      4290      4291      4285
 -1      2193    8    0    1
 -2      1075      1076      1115      4123      4292      4293
 -1      2194    8    0    1
 -2      1074      1075      1114      4120      4294      4295
 -1      2195    8    0    1
 -2      1077      1078      1117      4129      4296      4297
 -1      2196    8    0    1
 -2      1078      1079      1118      4132      4298      4299
 -1      2197    8    0    1
 -2      1079      1080      1119      4135      4300      4301
 -1      2198    8    0    1
 -2      1080      1081      1120      4138      4302      4303
 -1      2199    8    0    1
 -2      1081      1082      1121      4141      4304      4305
 -1      2200    8    0    1
 -2      1082      1083      1122      4144      4306      4307
 -1      2201    8    0    1
 -2      1083      1084      1123      4147      4308      4309
 -1      2202    8    0    1
 -2      1084      1085      1124      4150      4310      4311
 -1      2203    8    0    1
 -2      1085      1086      1125      4153      4312      4313
 -1      2204    8    0    1
 -2      1086      1087      1126      4156      4314      4315
 -1      2205    8    0    1
 -2      1072      1095      1112      4204      4316      4317
 -1      2206    8    0    1
 -2      1094      1090      1129      4180      4318      4319
 -1      2207    8    0    1
 -2      1037      1070      1106      4201      4320      4223
 -1      2208    8    0    1
 -2      1095      1074      1113      4183      4321      4322
 -1      2209    8    0    1
 -2      1050      1049      1130      4047      4323      4324
 -1      2210    8    0    1
 -2      1107      1050      1130      4226      4324      4325
 -1      2211    8    0    1
 -2      1049      1127      1130      4286      4326      4323
 -1      2212    8    0    1
 -2      1089      1098      1130      4203      4327      4328
 -1      2213    8    0    1
 -2      1046      1097      1131      4209      4329      4330
 -1      2214    8    0    1
 -2      1046      1131      1128      4330      4331      4289
 -1      2215    8    0    1
 -2      1096      1048      1108      4186      4332      4333
 -1      2216    8    0    1
 -2      1097      1094      1132      4189      4334      4335
 -1      2217    8    0    1
 -2      1094      1129      1132      4319      4336      4334
 -1      2218    8    0    1
 -2      1092      1089      1127      4174      4337      4338
 -1      2219    8    0    1
 -2      1098      1096      1107      4192      4339      4340
 -1      2220    8    0    1
 -2      1104      1045      1133      4217      4341      4342
 -1      2221    8    0    1
 -2      1045      1091      1133      4169      4343      4341
 -1      2222    8    0    1
 -2      1073      1072      1111      4115      4344      4345
 -1      2223    8    0    1
 -2      1090      1102      1134      4222      4346      4347
 -1      2224    8    0    1
 -2      1129      1090      1134      4318      4347      4348
 -1      2225    8    0    1
 -2      1102      1103      1134      4214      4349      4346
 -1      2226    8    0    1
 -2      1093      1047      1105      4225      4221      4350
 -1      2227    8    0    1
 -2      1106      1070      1126      4320      4283      4351
 -1      2228    8    0    1
 -2      1117      1078      1118      4296      4299      4260
 -1      2229    8    0    1
 -2      1114      1075      1115      4294      4293      4251
 -1      2230    8    0    1
 -2      1118      1079      1119      4298      4301      4263
 -1      2231    8    0    1
 -2      1130      1098      1107      4327      4340      4325
 -1      2232    8    0    1
 -2      1101      1092      1128      4207      4352      4353
 -1      2233    8    0    1
 -2      1076      1116      1115      4288      4254      4292
 -1      2234    8    0    1
 -2      1096      1108      1107      4333      4230      4339
 -1      2235    8    0    1
 -2      1074      1114      1113      4295      4248      4321
 -1      2236    8    0    1
 -2      1077      1117      1116      4297      4257      4287
 -1      2237    8    0    1
 -2      1080      1120      1119      4303      4266      4300
 -1      2238    8    0    1
 -2      1081      1121      1120      4305      4269      4302
 -1      2239    8    0    1
 -2      1082      1122      1121      4307      4272      4304
 -1      2240    8    0    1
 -2      1083      1123      1122      4309      4275      4306
 -1      2241    8    0    1
 -2      1084      1124      1123      4311      4278      4308
 -1      2242    8    0    1
 -2      1085      1125      1124      4313      4281      4310
 -1      2243    8    0    1
 -2      1086      1126      1125      4315      4284      4312
 -1      2244    8    0    1
 -2      1072      1112      1111      4317      4242      4344
 -1      2245    8    0    1
 -2      1103      1093      1105      4215      4350      4354
 -1      2246    8    0    1
 -2      1092      1127      1128      4338      4291      4352
 -1      2247    8    0    1
 -2      1040      1106      1087      4224      4355      4356
 -1      2248    8    0    1
 -2      1091      1041      1135      4170      4357      4358
 -1      2249    8    0    1
 -2      1133      1091      1135      4343      4358      4359
 -1      2250    8    0    1
 -2      1041      1101      1135      4206      4360      4357
 -1      2251    8    0    1
 -2      1105      1104      1134      4219      4361      4362
 -1      2252    8    0    1
 -2      1112      1095      1113      4316      4322      4245
 -1      2253    8    0    1
 -2      1089      1130      1127      4328      4326      4337
 -1      2254    8    0    1
 -2      1087      1030      1099      4208      4195      4363
 -1      2255    8    0    1
 -2      1131      1097      1132      4329      4335      4364
 -1      2256    8    0    1
 -2      1108      1048      1109      4332      4365      4233
 -1      2257    8    0    1
 -2      1109      1048      1088      4365      4159      4366
 -1      2258    8    0    1
 -2      1087      1106      1126      4355      4351      4314
 -1      2259    8    0    1
 -2      1134      1104      1129      4361      4367      4348
 -1      2260    8    0    1
 -2      1040      1087      1099      4356      4363      4196
 -1      2261    8    0    1
 -2      1104      1133      1129      4342      4368      4367
 -1      2262    8    0    1
 -2      1073      1111      1110      4345      4239      4369
 -1      2263    8    0    1
 -2      1088      1073      1110      4160      4369      4370
 -1      2264    8    0    1
 -2      1109      1088      1110      4366      4370      4236
 -1      2265    8    0    1
 -2      1131      1132      1135      4364      4371      4372
 -1      2266    8    0    1
 -2      1134      1103      1105      4349      4354      4362
 -1      2267    8    0    1
 -2      1132      1129      1133      4336      4368      4373
 -1      2268    8    0    1
 -2      1101      1128      1131      4353      4331      4374
 -1      2269    8    0    1
 -2      1132      1133      1135      4373      4359      4371
 -1      2270    8    0    1
 -2      1101      1131      1135      4374      4372      4360
 -3
    1PSTEP                         1           1           1          
  100CL  101 1.000000000        4374                     0    1           1
 -4  DISP        4    1
 -5  D1          1    2    1    0
 -5  D2          1    2    2    0
 -5  D3          1    2    3    0
 -5  ALL         1    2    0    0    1ALL
 -1         1 6.52031E-04-8.52919E-04-2.42065E-16
 -1         2 6.01656E-03-1.30325E-03-1.68492E-15
 -1         3 1.33133E-02-1.01266E-02-5.74180E-14
 -1         4 1.75722E-02-1.15552E-02-5.71504E-14
 -1         5 0.00000E+00 0.00000E+00 0.00000E+00
 -1         6 0.00000E+00 0.00000E+00 0.00000E+00
 -1         7 0.00000E+00 0.00000E+00 0.00000E+00
 -1         8 0.00000E+00 0.00000E+00 0.00000E+00
 -1         9 0.00000E+00 0.00000E+00 0.00000E+00
 -1        10 0.00000E+00 0.00000E+00 0.00000E+00
 -1        11 0.00000E+00 0.00000E+00 0.00000E+00
 -1        12 0.00000E+00 0.00000E+00 0.00000E+00
 -1        13 0.00000E+00 0.00000E+00 0.00000E+00
 -1        14 0.00000E+00 0.00000E+00 0.00000E+00
 -1        15 0.00000E+00 0.00000E+00 0.00000E+00
 -1        16 0.00000E+00 0.00000E+00 0.00000E+00
 -1        17 0.00000E+00 0.00000E+00 0.00000E+00
 -1        18 0.00000E+00 0.00000E+00 0.00000E+00
 -1        19 0.00000E+00 0.00000E+00 0.00000E+00
 -1        20 0.00000E+00 0.00000E+00 0.00000E+00
 -1        21 0.00000E+00 0.00000E+00 0.00000E+00
 -1        22 0.00000E+00 0.00000E+00 0.00000E+00
 -1        23 4.87838E-04-2.29630E-04 3.38474E-17
 -1        24 9.13317E-04-3.65506E-04 4.90127E-17
 -1        25 1.39808E-03-5.33228E-04 4.44184E-17
 -1        26 1.98543E-03-8.20618E-04 1.82688E-17
 -1        27 2.60186E-03-1.28625E-03-2.62445E-17
 -1        28 3.12006E-03-1.87078E-03-8.69191E-17
 -1        29 3.49132E-03-2.46870E-03-1.67035E-16
 -1        30 3.73932E-03-3.00006E-03-2.97112E-16
 -1        31 3.88865E-03-3.15468E-03-4.79665E-16
 -1        32 4.12636E-03-2.86825E-03-7.35502E-16
 -1        33 4.54186E-03-2.40847E-03-1.04552E-15
 -1        34 5.09828E-03-2.03380E-03-1.42275E-15
 -1        35 5.71417E-03-1.86235E-03-1.88534E-15
 -1        36 6.26892E-03-1.90036E-03-2.41143E-15
 -1        37 6.74408E-03-2.07308E-03-3.01218E-15
 -1        38 7.13889E-03-2.30628E-03-3.66630E-15
 -1        39 7.48423E-03-2.56199E-03-4.38409E-15
 -1        40 7.80126E-03-2.82406E-03-5.16942E-15
 -1        41 8.10274E-03-3.08644E-03-6.02330E-15
 -1        42 8.39595E-03-3.34730E-03-6.94602E-15
 -1        43 8.68491E-03-3.60642E-03-7.93074E-15
 -1        44 8.97180E-03-3.86410E-03-8.99488E-15
 -1        45 9.25776E-03-4.12074E-03-1.01158E-14
 -1        46 9.54336E-03-4.37670E-03-1.13045E-14
 -1        47 9.84315E-03-4.64503E-03-1.26241E-14
 -1        48 1.01287E-02-4.90036E-03-1.39295E-14
 -1        49 1.04143E-02-5.15560E-03-1.52868E-14
 -1        50 1.07000E-02-5.41082E-03-1.66806E-14
 -1        51 1.09857E-02-5.66606E-03-1.81254E-14
 -1        52 1.12715E-02-5.92134E-03-1.96249E-14
 -1        53 1.15573E-02-6.17667E-03-2.11897E-14
 -1        54 1.18431E-02-6.43205E-03-2.27827E-14
 -1        55 1.21289E-02-6.68746E-03-2.43880E-14
 -1        56 1.24147E-02-6.94291E-03-2.60065E-14
 -1        57 1.27005E-02-7.19838E-03-2.76172E-14
 -1        58 1.29863E-02-7.45388E-03-2.92150E-14
 -1        59 1.32720E-02-7.70938E-03-3.07940E-14
 -1        60 1.35578E-02-7.96491E-03-3.23773E-14
 -1        61 1.38578E-02-8.23321E-03-3.40495E-14
 -1        62 1.41435E-02-8.48874E-03-3.56407E-14
 -1        63 1.44293E-02-8.74428E-03-3.72535E-14
 -1        64 1.47150E-02-8.99982E-03-3.88926E-14
 -1        65 1.50007E-02-9.25535E-03-4.05487E-14
 -1        66 1.52864E-02-9.51089E-03-4.22409E-14
 -1        67 1.55722E-02-9.76643E-03-4.39753E-14
 -1        68 1.58579E-02-1.00220E-02-4.57373E-14
 -1        69 1.61436E-02-1.02775E-02-4.75092E-14
 -1        70 1.64293E-02-1.05330E-02-4.93393E-14
 -1        71 1.67150E-02-1.07886E-02-5.12771E-14
 -1        72 1.70007E-02-1.10441E-02-5.32502E-14
 -1        73 1.72865E-02-1.12996E-02-5.52009E-14
 -1        74 3.88374E-04 2.72101E-04 1.99527E-17
 -1        75 6.36679E-04 4.24247E-04-7.82658E-18
 -1        76 8.54342E-04 5.16539E-04-8.37478E-17
 -1        77 1.05581E-03 5.62487E-04-2.10183E-16
 -1        78 1.24722E-03 5.66715E-04-3.90045E-16
 -1        79 1.43256E-03 5.30957E-04-6.24151E-16
 -1        80 1.61566E-03 4.56077E-04-9.14389E-16
 -1        81 1.80059E-03 3.43385E-04-1.26333E-15
 -1        82 1.99143E-03 1.95441E-04-1.67224E-15
 -1        83 2.19172E-03 1.62745E-05-2.14267E-15
 -1        84 2.40389E-03-1.88918E-04-2.67366E-15
 -1        85 2.62904E-03-4.14403E-04-3.26360E-15
 -1        86 2.86698E-03-6.54606E-04-3.91160E-15
 -1        87 3.11654E-03-9.04654E-04-4.61399E-15
 -1        88 3.37595E-03-1.16068E-03-5.37302E-15
 -1        89 3.64322E-03-1.41986E-03-6.19099E-15
 -1        90 3.91648E-03-1.68032E-03-7.06723E-15
 -1        91 4.19409E-03-1.94095E-03-7.99661E-15
 -1        92 4.47474E-03-2.20113E-03-8.97639E-15
 -1        93 4.75744E-03-2.46062E-03-1.00096E-14
 -1        94 5.04148E-03-2.71937E-03-1.10978E-14
 -1        95 5.32635E-03-2.97742E-03-1.22417E-14
 -1        96 5.61172E-03-3.23489E-03-1.34409E-14
 -1        97 5.89739E-03-3.49188E-03-1.46948E-14
 -1        98 6.18321E-03-3.74849E-03-1.59968E-14
 -1        99 6.46909E-03-4.00482E-03-1.73459E-14
 -1       100 6.75501E-03-4.26092E-03-1.87381E-14
 -1       101 7.04091E-03-4.51687E-03-2.01699E-14
 -1       102 7.32681E-03-4.77269E-03-2.16559E-14
 -1       103 7.61268E-03-5.02842E-03-2.31855E-14
 -1       104 7.89852E-03-5.28409E-03-2.47532E-14
 -1       105 8.18434E-03-5.53972E-03-2.63663E-14
 -1       106 8.47015E-03-5.79531E-03-2.80083E-14
 -1       107 8.75593E-03-6.05088E-03-2.96683E-14
 -1       108 9.04170E-03-6.30643E-03-3.13317E-14
 -1       109 9.32746E-03-6.56197E-03-3.30226E-14
 -1       110 9.61321E-03-6.81751E-03-3.47110E-14
 -1       111 9.89895E-03-7.07304E-03-3.64048E-14
 -1       112 1.01847E-02-7.32857E-03-3.81061E-14
 -1       113 1.04704E-02-7.58410E-03-3.98338E-14
 -1       114 1.07561E-02-7.83962E-03-4.15694E-14
 -1       115 1.10419E-02-8.09515E-03-4.33155E-14
 -1       116 1.13276E-02-8.35068E-03-4.50827E-14
 -1       117 1.16133E-02-8.60621E-03-4.69091E-14
 -1       118 1.18990E-02-8.86174E-03-4.87289E-14
 -1       119 1.21847E-02-9.11727E-03-5.05144E-14
 -1       120 1.24704E-02-9.37280E-03-5.22810E-14
 -1       121 1.27561E-02-9.62833E-03-5.40223E-14
 -1       122 1.30419E-02-9.88386E-03-5.57693E-14
 -1       123 1.35646E-02-1.02109E-02-5.74333E-14
 -1       124 1.38158E-02-1.02952E-02-5.74554E-14
 -1       125 1.40671E-02-1.03795E-02-5.74722E-14
 -1       126 1.43184E-02-1.04638E-02-5.74982E-14
 -1       127 1.45697E-02-1.05480E-02-5.75353E-14
 -1       128 1.48167E-02-1.06309E-02-5.75813E-14
 -1       129 1.50679E-02-1.07152E-02-5.76249E-14
 -1       130 1.53192E-02-1.07995E-02-5.76406E-14
 -1       131 1.55705E-02-1.08838E-02-5.76665E-14
 -1       132 1.58218E-02-1.09680E-02-5.76401E-14
 -1       133 1.60730E-02-1.10523E-02-5.76159E-14
 -1       134 1.63201E-02-1.11352E-02-5.76004E-14
 -1       135 1.65713E-02-1.12195E-02-5.75596E-14
 -1       136 1.68226E-02-1.13037E-02-5.74629E-14
 -1       137 1.70739E-02-1.13880E-02-5.73448E-14
 -1       138 1.73252E-02-1.14723E-02-5.72468E-14
 -1       139 5.82063E-03-1.10815E-03-1.71060E-15
 -1       140 5.54051E-03-9.24640E-04-1.69009E-15
 -1       141 5.15948E-03-7.38270E-04-1.61770E-15
 -1       142 4.73607E-03-5.74746E-04-1.51462E-15
 -1       143 4.23886E-03-4.21148E-04-1.37498E-15
 -1       144 3.71617E-03-2.95690E-04-1.21893E-15
 -1       145 3.20179E-03-2.04680E-04-1.06073E-15
 -1       146 2.64709E-03-1.41171E-04-8.91350E-16
 -1       147 2.16882E-03-1.17655E-04-7.50105E-16
 -1       148 1.71026E-03-1.27367E-04-6.19161E-16
 -1       149 1.31491E-03-1.69289E-04-5.07047E-16
 -1       150 9.89406E-04-2.43758E-04-4.13410E-16
 -1       151 7.65269E-04-3.42711E-04-3.44604E-16
 -1       152 6.25950E-04-4.76368E-04-2.92204E-16
 -1       153 5.87335E-04-6.46195E-04-2.58677E-16
 -1       154 8.29670E-04-1.11826E-03-2.41159E-16
 -1       155 1.11586E-03-1.43427E-03-2.56913E-16
 -1       156 1.51621E-03-1.80843E-03-2.93538E-16
 -1       157 2.02327E-03-2.21581E-03-3.54832E-16
 -1       158 2.63839E-03-2.60529E-03-4.39414E-16
 -1       159 3.30320E-03-2.86643E-03-5.44269E-16
 -1       160 4.05902E-03-2.93000E-03-6.84782E-16
 -1       161 4.70441E-03-2.77789E-03-8.40975E-16
 -1       162 5.25477E-03-2.50498E-03-1.01857E-15
 -1       163 5.64537E-03-2.22821E-03-1.18677E-15
 -1       164 5.93742E-03-1.94606E-03-1.36524E-15
 -1       165 6.07887E-03-1.71577E-03-1.50551E-15
 -1       166 6.10548E-03-1.50480E-03-1.61440E-15
 -1       167 2.60343E-04-7.36894E-05 9.12085E-18
 -1       168 1.98426E-04-5.90141E-05 4.33681E-19
 -1       169 1.64216E-04-7.43397E-05-5.19401E-18
 -1       170 1.60745E-04-9.58580E-05-8.77526E-18
 -1       171 1.79353E-04-1.05178E-04-1.07844E-17
 -1       172 2.06457E-04-9.56161E-05-1.22955E-17
 -1       173 2.29843E-04-7.01242E-05-1.33323E-17
 -1       174 2.43949E-04-3.65504E-05-1.44741E-17
 -1       175 2.48560E-04-1.92415E-06-1.53889E-17
 -1       176 2.45995E-04 2.97095E-05-1.60191E-17
 -1       177 2.39190E-04 5.66242E-05-1.61953E-17
 -1       178 2.30334E-04 8.01808E-05-1.55481E-17
 -1       179 2.21735E-04 1.01294E-04-1.38066E-17
 -1       180 2.16259E-04 1.22364E-04-1.01813E-17
 -1       181 2.20601E-04 1.48796E-04-3.47284E-18
 -1       182 2.71997E-04 2.02195E-04 4.15724E-18
 -1       183 5.64118E-04-1.95786E-04 2.21516E-17
 -1       184 9.50600E-04-3.29345E-04 1.49078E-17
 -1       185 1.35904E-03-5.22881E-04-1.36948E-17
 -1       186 1.76503E-03-8.39209E-04-6.13184E-17
 -1       187 2.87337E-03-2.07006E-03-1.91856E-16
 -1       188 3.29601E-03-2.71662E-03-3.14181E-16
 -1       189 3.71910E-03-3.09077E-03-4.80674E-16
 -1       190 4.17196E-03-2.96794E-03-7.09285E-16
 -1       191 4.62485E-03-2.50932E-03-9.91998E-16
 -1       192 5.10191E-03-2.05074E-03-1.34560E-15
 -1       193 5.60853E-03-1.79439E-03-1.79048E-15
 -1       194 6.08711E-03-1.78420E-03-2.30404E-15
 -1       195 6.52349E-03-1.93785E-03-2.89428E-15
 -1       196 6.90397E-03-2.16693E-03-3.53773E-15
 -1       197 7.24590E-03-2.42376E-03-4.23910E-15
 -1       198 7.56348E-03-2.68816E-03-5.00688E-15
 -1       199 7.86654E-03-2.95268E-03-5.83914E-15
 -1       200 8.16128E-03-3.21514E-03-6.73711E-15
 -1       201 8.45143E-03-3.47534E-03-7.69948E-15
 -1       202 8.73912E-03-3.73371E-03-8.73360E-15
 -1       203 9.02559E-03-3.99077E-03-9.83752E-15
 -1       204 9.31148E-03-4.24697E-03-1.10023E-14
 -1       205 9.61144E-03-4.51542E-03-1.22909E-14
 -1       206 9.89705E-03-4.77080E-03-1.35786E-14
 -1       207 1.01827E-02-5.02605E-03-1.49127E-14
 -1       208 1.04684E-02-5.28126E-03-1.62907E-14
 -1       209 1.07541E-02-5.53649E-03-1.77164E-14
 -1       210 1.10398E-02-5.79175E-03-1.91976E-14
 -1       211 1.13256E-02-6.04706E-03-2.07275E-14
 -1       212 1.16114E-02-6.30242E-03-2.22967E-14
 -1       213 1.18971E-02-6.55782E-03-2.38881E-14
 -1       214 1.21829E-02-6.81326E-03-2.54956E-14
 -1       215 1.24687E-02-7.06873E-03-2.71015E-14
 -1       216 1.27545E-02-7.32422E-03-2.87011E-14
 -1       217 1.30402E-02-7.57973E-03-3.02899E-14
 -1       218 1.33260E-02-7.83524E-03-3.18769E-14
 -1       219 1.36260E-02-8.10355E-03-3.35458E-14
 -1       220 1.39117E-02-8.35908E-03-3.51507E-14
 -1       221 1.41975E-02-8.61462E-03-3.67742E-14
 -1       222 1.44832E-02-8.87015E-03-3.84159E-14
 -1       223 1.47689E-02-9.12569E-03-4.00784E-14
 -1       224 1.50546E-02-9.38123E-03-4.17690E-14
 -1       225 1.53404E-02-9.63677E-03-4.34912E-14
 -1       226 1.56261E-02-9.89231E-03-4.52430E-14
 -1       227 1.59118E-02-1.01478E-02-4.70301E-14
 -1       228 1.61975E-02-1.04034E-02-4.88598E-14
 -1       229 1.64832E-02-1.06589E-02-5.07614E-14
 -1       230 1.67689E-02-1.09145E-02-5.27047E-14
 -1       231 1.70546E-02-1.11700E-02-5.46381E-14
 -1       232 1.71899E-02-1.13212E-02-5.59459E-14
 -1       233 5.45086E-04 3.60572E-04-2.94666E-17
 -1       234 7.93135E-04 4.61471E-04-1.08166E-16
 -1       235 1.02363E-03 5.14171E-04-2.34967E-16
 -1       236 1.24290E-03 5.24006E-04-4.13725E-16
 -1       237 1.45521E-03 4.92960E-04-6.45558E-16
 -1       238 1.66422E-03 4.21885E-04-9.33132E-16
 -1       239 1.87346E-03 3.11970E-04-1.27808E-15
 -1       240 2.08626E-03 1.65698E-04-1.68247E-15
 -1       241 2.30545E-03-1.28578E-05-2.14666E-15
 -1       242 2.53305E-03-2.18329E-04-2.67153E-15
 -1       243 2.77009E-03-4.44727E-04-3.25472E-15
 -1       244 3.01666E-03-6.86199E-04-3.89481E-15
 -1       245 3.27205E-03-9.37633E-04-4.59004E-15
 -1       246 3.53509E-03-1.19498E-03-5.34260E-15
 -1       247 3.80441E-03-1.45533E-03-6.15388E-15
 -1       248 4.07863E-03-1.71675E-03-7.02154E-15
 -1       249 4.35654E-03-1.97812E-03-7.94455E-15
 -1       250 4.63710E-03-2.23887E-03-8.91934E-15
 -1       251 4.91953E-03-2.49877E-03-9.94792E-15
 -1       252 5.20323E-03-2.75781E-03-1.10334E-14
 -1       253 5.48777E-03-3.01606E-03-1.21753E-14
 -1       254 5.77284E-03-3.27366E-03-1.33727E-14
 -1       255 6.05825E-03-3.53074E-03-1.46217E-14
 -1       256 6.34387E-03-3.78741E-03-1.59216E-14
 -1       257 6.62960E-03-4.04377E-03-1.72702E-14
 -1       258 6.91539E-03-4.29990E-03-1.86596E-14
 -1       259 7.20120E-03-4.55586E-03-2.00900E-14
 -1       260 7.48702E-03-4.81169E-03-2.15658E-14
 -1       261 7.77284E-03-5.06743E-03-2.30865E-14
 -1       262 8.05865E-03-5.32310E-03-2.46467E-14
 -1       263 8.34444E-03-5.57872E-03-2.62394E-14
 -1       264 8.63023E-03-5.83431E-03-2.78677E-14
 -1       265 8.91600E-03-6.08988E-03-2.95147E-14
 -1       266 9.20176E-03-6.34543E-03-3.11765E-14
 -1       267 9.48751E-03-6.60097E-03-3.28548E-14
 -1       268 9.77325E-03-6.85651E-03-3.45444E-14
 -1       269 1.00590E-02-7.11204E-03-3.62412E-14
 -1       270 1.03447E-02-7.36756E-03-3.79508E-14
 -1       271 1.06304E-02-7.62309E-03-3.96775E-14
 -1       272 1.09162E-02-7.87862E-03-4.14166E-14
 -1       273 1.12019E-02-8.13415E-03-4.31709E-14
 -1       274 1.14876E-02-8.38967E-03-4.49512E-14
 -1       275 1.17733E-02-8.64520E-03-4.67518E-14
 -1       276 1.20590E-02-8.90073E-03-4.85532E-14
 -1       277 1.23448E-02-9.15626E-03-5.03371E-14
 -1       278 1.26305E-02-9.41179E-03-5.21086E-14
 -1       279 1.29162E-02-9.66732E-03-5.38677E-14
 -1       280 1.32019E-02-9.92285E-03-5.56164E-14
 -1       281 1.34428E-02-1.00318E-02-5.59325E-14
 -1       282 1.36940E-02-1.01160E-02-5.59421E-14
 -1       283 1.39453E-02-1.02003E-02-5.59515E-14
 -1       284 1.41966E-02-1.02846E-02-5.59773E-14
 -1       285 1.44436E-02-1.03675E-02-5.60032E-14
 -1       286 1.46949E-02-1.04518E-02-5.60352E-14
 -1       287 1.49462E-02-1.05360E-02-5.60519E-14
 -1       288 1.51974E-02-1.06203E-02-5.60593E-14
 -1       289 1.54487E-02-1.07046E-02-5.60585E-14
 -1       290 1.57000E-02-1.07889E-02-5.60305E-14
 -1       291 1.59470E-02-1.08717E-02-5.59896E-14
 -1       292 1.61983E-02-1.09560E-02-5.59335E-14
 -1       293 1.64495E-02-1.10403E-02-5.58439E-14
 -1       294 1.67008E-02-1.11246E-02-5.57420E-14
 -1       295 1.69454E-02-1.12229E-02-5.58462E-14
 -1       296 5.94254E-03-1.34251E-03-1.92459E-15
 -1       297 5.63977E-03-1.21537E-03-1.92057E-15
 -1       298 5.21583E-03-1.06576E-03-1.88275E-15
 -1       299 4.75571E-03-8.32539E-04-1.73716E-15
 -1       300 4.24042E-03-6.10038E-04-1.59730E-15
 -1       301 3.76042E-03-3.72226E-04-1.39742E-15
 -1       302 3.31719E-03-1.93147E-04-1.19753E-15
 -1       303 2.87056E-03-7.61291E-05-1.00491E-15
 -1       304 2.45481E-03-5.69697E-05-8.20334E-16
 -1       305 2.05740E-03-9.84157E-05-6.62881E-16
 -1       306 1.64789E-03-1.93847E-04-5.29633E-16
 -1       307 1.26172E-03-3.04737E-04-4.20884E-16
 -1       308 9.31625E-04-4.01551E-04-3.41065E-16
 -1       309 6.93888E-04-4.86254E-04-2.81499E-16
 -1       310 5.70039E-04-5.66065E-04-2.39883E-16
 -1       311 5.88250E-04-6.54267E-04-2.11995E-16
 -1       312 7.61213E-04-8.03014E-04-2.02942E-16
 -1       313 1.08934E-03-1.02779E-03-2.04726E-16
 -1       314 1.54807E-03-1.36165E-03-2.22370E-16
 -1       315 2.09565E-03-1.81321E-03-2.58948E-16
 -1       316 2.67658E-03-2.34227E-03-3.22130E-16
 -1       317 3.22165E-03-2.81314E-03-4.15710E-16
 -1       318 3.67163E-03-3.03027E-03-5.46397E-16
 -1       319 4.22987E-03-2.93926E-03-7.34764E-16
 -1       320 4.71948E-03-2.59461E-03-9.47532E-16
 -1       321 5.22998E-03-2.22503E-03-1.16687E-15
 -1       322 5.64725E-03-1.89874E-03-1.40286E-15
 -1       323 5.96563E-03-1.68814E-03-1.60207E-15
 -1       324 6.12018E-03-1.54734E-03-1.79163E-15
 -1       325 6.11210E-03-1.44911E-03-1.88223E-15
 -1       326 2.25669E-03-1.34209E-03-1.17128E-16
 -1       327 3.40657E-04-1.55375E-04-1.91667E-17
 -1       328 4.53492E-04-1.53232E-04-2.77827E-18
 -1       329 3.30454E-04-2.02422E-04-3.90618E-17
 -1       330 3.93678E-04-1.90914E-04-4.49944E-17
 -1       331 4.55895E-04-1.49504E-04-5.00359E-17
 -1       332 4.97475E-04-9.07000E-05-5.41457E-17
 -1       333 5.15099E-04-2.76622E-05-5.77676E-17
 -1       334 5.13842E-04 3.14659E-05-6.03765E-17
 -1       335 5.01107E-04 8.28346E-05-6.16640E-17
 -1       336 4.82515E-04 1.28578E-04-6.15522E-17
 -1       337 4.63104E-04 1.69951E-04-5.90314E-17
 -1       338 4.47815E-04 2.10481E-04-5.32547E-17
 -1       339 4.44517E-04 2.55878E-04-4.24397E-17
 -1       340 4.85549E-04 3.05007E-04-3.84146E-17
 -1       341 7.46354E-04 4.10554E-04-1.17507E-16
 -1       342 8.52391E-04-3.41947E-04-3.34036E-17
 -1       343 1.08852E-03-5.41585E-04-8.12440E-17
 -1       344 5.61714E-03-1.76006E-03-1.65316E-15
 -1       345 5.98431E-03-1.67068E-03-2.14765E-15
 -1       346 6.33065E-03-1.78195E-03-2.71802E-15
 -1       347 6.65585E-03-1.99331E-03-3.34424E-15
 -1       348 6.96807E-03-2.24463E-03-4.02481E-15
 -1       349 7.27104E-03-2.50862E-03-4.76736E-15
 -1       350 7.56743E-03-2.77439E-03-5.57403E-15
 -1       351 7.85936E-03-3.03834E-03-6.44131E-15
 -1       352 8.14846E-03-3.29978E-03-7.37353E-15
 -1       353 8.43588E-03-3.55904E-03-8.37328E-15
 -1       354 8.72234E-03-3.81668E-03-9.44545E-15
 -1       355 9.00831E-03-4.07323E-03-1.05773E-14
 -1       356 9.30834E-03-4.34189E-03-1.18299E-14
 -1       357 9.59400E-03-4.59735E-03-1.30874E-14
 -1       358 9.87964E-03-4.85264E-03-1.43959E-14
 -1       359 1.01653E-02-5.10785E-03-1.57480E-14
 -1       360 1.04510E-02-5.36305E-03-1.71458E-14
 -1       361 1.07367E-02-5.61829E-03-1.85975E-14
 -1       362 1.10225E-02-5.87358E-03-2.00990E-14
 -1       363 1.13082E-02-6.12891E-03-2.16381E-14
 -1       364 1.15940E-02-6.38430E-03-2.32057E-14
 -1       365 1.18797E-02-6.63972E-03-2.47927E-14
 -1       366 1.21655E-02-6.89518E-03-2.63939E-14
 -1       367 1.24513E-02-7.15066E-03-2.79902E-14
 -1       368 1.27370E-02-7.40616E-03-2.95854E-14
 -1       369 1.30228E-02-7.66168E-03-3.11765E-14
 -1       370 1.33228E-02-7.92998E-03-3.28506E-14
 -1       371 1.36085E-02-8.18551E-03-3.44568E-14
 -1       372 1.38943E-02-8.44104E-03-3.60893E-14
 -1       373 1.41800E-02-8.69658E-03-3.77390E-14
 -1       374 1.44657E-02-8.95212E-03-3.94071E-14
 -1       375 1.47514E-02-9.20766E-03-4.10947E-14
 -1       376 1.50371E-02-9.46320E-03-4.28085E-14
 -1       377 1.53229E-02-9.71874E-03-4.45545E-14
 -1       378 1.56086E-02-9.97427E-03-4.63363E-14
 -1       379 1.58943E-02-1.02298E-02-4.81605E-14
 -1       380 1.61800E-02-1.04853E-02-5.00337E-14
 -1       381 1.64657E-02-1.07409E-02-5.19457E-14
 -1       382 1.67514E-02-1.09964E-02-5.38639E-14
 -1       383 1.68484E-02-1.11096E-02-5.48577E-14
 -1       384 1.14800E-03 4.66122E-04-3.54914E-16
 -1       385 1.38902E-03 4.56930E-04-5.63331E-16
 -1       386 1.62483E-03 4.06767E-04-8.24980E-16
 -1       387 1.85826E-03 3.16129E-04-1.14287E-15
 -1       388 2.09225E-03 1.86656E-04-1.51877E-15
 -1       389 2.32947E-03 2.17559E-05-1.95411E-15
 -1       390 2.57198E-03-1.73471E-04-2.44811E-15
 -1       391 2.82100E-03-3.92866E-04-3.00076E-15
 -1       392 3.07686E-03-6.30076E-04-3.61099E-15
 -1       393 3.33920E-03-8.79333E-04-4.27735E-15
 -1       394 3.60720E-03-1.13594E-03-4.99904E-15
 -1       395 3.87988E-03-1.39642E-03-5.77969E-15
 -1       396 4.15624E-03-1.65844E-03-6.61764E-15
 -1       397 4.43538E-03-1.92060E-03-7.51097E-15
 -1       398 4.71657E-03-2.18214E-03-8.45848E-15
 -1       399 4.99923E-03-2.44275E-03-9.46088E-15
 -1       400 5.28294E-03-2.70239E-03-1.05195E-14
 -1       401 5.56736E-03-2.96113E-03-1.16352E-14
 -1       402 5.85227E-03-3.21911E-03-1.28066E-14
 -1       403 6.13750E-03-3.47647E-03-1.40322E-14
 -1       404 6.42295E-03-3.73336E-03-1.53098E-14
 -1       405 6.70853E-03-3.98987E-03-1.66348E-14
 -1       406 6.99420E-03-4.24611E-03-1.80062E-14
 -1       407 7.27992E-03-4.50215E-03-1.94192E-14
 -1       408 7.56567E-03-4.75804E-03-2.08694E-14
 -1       409 7.85143E-03-5.01382E-03-2.23652E-14
 -1       410 8.13719E-03-5.26952E-03-2.38998E-14
 -1       411 8.42295E-03-5.52516E-03-2.54693E-14
 -1       412 8.70871E-03-5.78076E-03-2.70697E-14
 -1       413 8.99446E-03-6.03634E-03-2.86945E-14
 -1       414 9.28021E-03-6.29190E-03-3.03400E-14
 -1       415 9.56596E-03-6.54744E-03-3.20043E-14
 -1       416 9.85169E-03-6.80297E-03-3.36839E-14
 -1       417 1.01374E-02-7.05851E-03-3.53773E-14
 -1       418 1.04232E-02-7.31403E-03-3.70826E-14
 -1       419 1.07089E-02-7.56956E-03-3.88068E-14
 -1       420 1.09946E-02-7.82508E-03-4.05437E-14
 -1       421 1.12803E-02-8.08061E-03-4.22997E-14
 -1       422 1.15660E-02-8.33614E-03-4.40718E-14
 -1       423 1.18518E-02-8.59167E-03-4.58629E-14
 -1       424 1.21375E-02-8.84719E-03-4.76556E-14
 -1       425 1.24232E-02-9.10272E-03-4.94404E-14
 -1       426 1.27089E-02-9.35825E-03-5.12147E-14
 -1       427 1.29946E-02-9.61378E-03-5.29840E-14
 -1       428 1.32187E-02-9.82277E-03-5.44634E-14
 -1       429 1.38235E-02-1.00212E-02-5.44252E-14
 -1       430 1.35723E-02-9.93689E-03-5.44156E-14
 -1       431 1.40705E-02-1.01040E-02-5.44405E-14
 -1       432 1.43218E-02-1.01883E-02-5.44544E-14
 -1       433 1.45731E-02-1.02726E-02-5.44678E-14
 -1       434 1.48244E-02-1.03569E-02-5.44687E-14
 -1       435 1.50756E-02-1.04412E-02-5.44640E-14
 -1       436 1.53269E-02-1.05255E-02-5.44414E-14
 -1       437 1.55739E-02-1.06083E-02-5.43966E-14
 -1       438 1.58252E-02-1.06926E-02-5.43304E-14
 -1       439 1.60765E-02-1.07769E-02-5.42442E-14
 -1       440 1.63277E-02-1.08612E-02-5.41446E-14
 -1       441 9.47712E-04 4.52346E-04-2.19724E-16
 -1       442 5.41084E-03-1.29627E-03-2.14831E-15
 -1       443 4.40426E-03-8.33818E-04-1.84252E-15
 -1       444 5.79066E-03-1.42031E-03-2.20988E-15
 -1       445 4.89941E-03-2.30592E-03-1.12388E-15
 -1       446 3.01948E-04-1.83779E-04-3.08252E-17
 -1       447 3.84143E-03-5.32596E-04-1.62649E-15
 -1       448 3.40246E-03-2.73415E-04-1.37469E-15
 -1       449 3.02461E-03-1.06344E-04-1.16729E-15
 -1       450 2.59757E-03-1.41432E-05-9.10845E-16
 -1       451 2.29542E-03-3.33983E-05-7.44386E-16
 -1       452 1.87083E-03-1.43721E-04-5.60797E-16
 -1       453 1.48775E-03-2.71080E-04-4.34941E-16
 -1       454 1.10415E-03-3.92535E-04-3.34439E-16
 -1       455 8.06628E-04-4.70601E-04-2.69919E-16
 -1       456 6.03922E-04-5.12928E-04-2.15889E-16
 -1       457 5.48541E-04-5.33111E-04-1.80793E-16
 -1       458 6.77678E-04-6.07240E-04-1.67188E-16
 -1       459 9.81068E-04-7.14410E-04-1.51538E-16
 -1       460 1.45145E-03-9.64579E-04-1.51829E-16
 -1       461 5.79568E-03-1.70020E-03-1.66335E-15
 -1       462 6.04782E-03-1.57987E-03-1.88166E-15
 -1       463 6.15408E-03-1.51453E-03-2.06470E-15
 -1       464 4.86508E-03-1.06486E-03-2.00025E-15
 -1       465 6.05593E-03-1.48847E-03-2.20631E-15
 -1       466 5.46137E-03-1.92056E-03-1.40672E-15
 -1       467 1.65881E-02-1.09854E-02-5.45000E-14
 -1       468 6.61548E-04-2.37661E-04-1.05601E-16
 -1       469 5.43474E-04-2.92036E-04-9.37293E-17
 -1       470 7.95044E-04-6.77333E-05-1.25767E-16
 -1       471 8.01017E-04 1.47514E-05-1.32252E-16
 -1       472 7.84422E-04 8.61317E-05-1.36613E-16
 -1       473 7.56035E-04 1.49666E-04-1.38398E-16
 -1       474 7.24230E-04 2.06961E-04-1.36769E-16
 -1       475 6.95479E-04 2.61770E-04-1.30297E-16
 -1       476 6.77270E-04 3.18585E-04-1.17727E-16
 -1       477 7.08092E-04 3.63387E-04-1.19466E-16
 -1       478 7.19222E-04-4.04586E-04-8.38834E-17
 -1       479 4.06120E-03-7.71705E-04-1.94210E-15
 -1       480 6.22914E-03-1.65422E-03-2.52130E-15
 -1       481 6.45668E-03-1.83188E-03-3.13170E-15
 -1       482 6.70464E-03-2.06436E-03-3.79094E-15
 -1       483 6.96965E-03-2.31868E-03-4.50754E-15
 -1       484 7.24478E-03-2.58011E-03-5.28580E-15
 -1       485 7.52524E-03-2.84244E-03-6.12170E-15
 -1       486 7.80834E-03-3.10348E-03-7.02121E-15
 -1       487 8.09272E-03-3.36279E-03-7.98518E-15
 -1       488 8.37769E-03-3.62061E-03-9.01872E-15
 -1       489 8.66296E-03-3.87732E-03-1.01183E-14
 -1       490 8.96266E-03-4.14609E-03-1.13356E-14
 -1       491 9.24819E-03-4.40161E-03-1.25571E-14
 -1       492 9.53379E-03-4.65690E-03-1.38349E-14
 -1       493 9.81944E-03-4.91210E-03-1.51592E-14
 -1       494 1.01051E-02-5.16729E-03-1.65285E-14
 -1       495 1.03908E-02-5.42250E-03-1.79460E-14
 -1       496 1.06766E-02-5.67776E-03-1.94139E-14
 -1       497 1.09623E-02-5.93307E-03-2.09211E-14
 -1       498 1.12480E-02-6.18843E-03-2.24629E-14
 -1       499 1.15338E-02-6.44384E-03-2.40295E-14
 -1       500 1.18195E-02-6.69928E-03-2.56160E-14
 -1       501 1.21053E-02-6.95475E-03-2.72080E-14
 -1       502 1.23910E-02-7.21025E-03-2.88031E-14
 -1       503 1.26767E-02-7.46576E-03-3.04001E-14
 -1       504 1.29768E-02-7.73405E-03-3.20778E-14
 -1       505 1.32625E-02-7.98958E-03-3.36836E-14
 -1       506 1.35482E-02-8.24512E-03-3.53140E-14
 -1       507 1.38339E-02-8.50066E-03-3.69771E-14
 -1       508 1.41197E-02-8.75620E-03-3.86491E-14
 -1       509 1.44054E-02-9.01174E-03-4.03376E-14
 -1       510 1.46911E-02-9.26727E-03-4.20463E-14
 -1       511 1.49768E-02-9.52281E-03-4.37884E-14
 -1       512 1.52625E-02-9.77835E-03-4.55655E-14
 -1       513 1.55483E-02-1.00339E-02-4.73727E-14
 -1       514 1.58340E-02-1.02894E-02-4.92244E-14
 -1       515 1.61197E-02-1.05450E-02-5.11113E-14
 -1       516 1.56606E-03 3.78751E-04-7.16925E-16
 -1       517 1.30749E-03 4.07294E-04-4.80200E-16
 -1       518 2.07386E-03 1.98078E-04-1.35608E-15
 -1       519 2.32807E-03 4.85015E-05-1.76218E-15
 -1       520 2.58567E-03-1.35143E-04-2.22760E-15
 -1       521 2.84807E-03-3.46515E-04-2.75023E-15
 -1       522 3.11567E-03-5.78650E-04-3.33030E-15
 -1       523 3.38808E-03-8.25008E-04-3.96818E-15
 -1       524 3.66442E-03-1.08017E-03-4.66180E-15
 -1       525 3.94371E-03-1.34012E-03-5.41151E-15
 -1       526 4.22510E-03-1.60211E-03-6.21914E-15
 -1       527 4.50789E-03-1.86450E-03-7.08327E-15
 -1       528 4.79160E-03-2.12639E-03-8.00206E-15
 -1       529 5.07593E-03-2.38738E-03-8.97834E-15
 -1       530 5.36068E-03-2.64737E-03-1.00111E-14
 -1       531 5.64570E-03-2.90642E-03-1.10998E-14
 -1       532 5.93093E-03-3.16467E-03-1.22453E-14
 -1       533 6.21631E-03-3.42225E-03-1.34457E-14
 -1       534 6.50179E-03-3.67931E-03-1.46983E-14
 -1       535 6.78736E-03-3.93596E-03-1.60017E-14
 -1       536 7.07298E-03-4.19230E-03-1.73502E-14
 -1       537 7.35865E-03-4.44842E-03-1.87436E-14
 -1       538 7.64434E-03-4.70436E-03-2.01771E-14
 -1       539 7.93005E-03-4.96018E-03-2.16470E-14
 -1       540 8.21577E-03-5.21592E-03-2.31553E-14
 -1       541 8.50150E-03-5.47158E-03-2.47008E-14
 -1       542 8.78723E-03-5.72720E-03-2.62811E-14
 -1       543 9.07296E-03-5.98279E-03-2.78902E-14
 -1       544 9.35869E-03-6.23835E-03-2.95179E-14
 -1       545 9.64442E-03-6.49390E-03-3.11645E-14
 -1       546 9.93015E-03-6.74944E-03-3.28291E-14
 -1       547 1.02159E-02-7.00497E-03-3.45091E-14
 -1       548 1.05016E-02-7.26050E-03-3.62112E-14
 -1       549 1.07873E-02-7.51603E-03-3.79285E-14
 -1       550 1.10730E-02-7.77155E-03-3.96644E-14
 -1       551 1.13588E-02-8.02708E-03-4.14178E-14
 -1       552 1.16445E-02-8.28260E-03-4.31877E-14
 -1       553 1.19302E-02-8.53813E-03-4.49708E-14
 -1       554 1.22159E-02-8.79366E-03-4.67608E-14
 -1       555 1.25016E-02-9.04919E-03-4.85453E-14
 -1       556 1.27873E-02-9.30472E-03-5.03192E-14
 -1       557 1.30731E-02-9.56025E-03-5.20912E-14
 -1       558 1.39487E-02-9.92489E-03-5.28880E-14
 -1       559 1.37017E-02-9.84203E-03-5.28809E-14
 -1       560 1.34505E-02-9.75775E-03-5.28767E-14
 -1       561 5.09034E-03-1.29583E-03-2.34380E-15
 -1       562 1.42000E-02-1.00092E-02-5.28944E-14
 -1       563 1.44513E-02-1.00935E-02-5.28898E-14
 -1       564 1.47026E-02-1.01777E-02-5.28765E-14
 -1       565 1.49538E-02-1.02620E-02-5.28490E-14
 -1       566 1.52009E-02-1.03449E-02-5.28046E-14
 -1       567 1.54521E-02-1.04292E-02-5.27323E-14
 -1       568 1.57034E-02-1.05134E-02-5.26495E-14
 -1       569 1.59547E-02-1.05977E-02-5.25570E-14
 -1       570 1.82074E-03 3.08941E-04-1.00802E-15
 -1       571 5.21872E-04-2.62631E-04-4.57262E-17
 -1       572 5.98654E-03-1.61337E-03-2.01530E-15
 -1       573 5.58948E-03-1.46738E-03-2.46313E-15
 -1       574 2.74967E-03-3.31013E-05-1.06938E-15
 -1       575 7.50212E-04-1.55995E-04-1.16403E-16
 -1       576 3.49727E-03-4.13100E-04-1.61264E-15
 -1       577 3.16901E-03-2.13470E-04-1.38379E-15
 -1       578 2.39044E-03 3.37863E-06-8.19494E-16
 -1       579 6.16080E-03-1.56079E-03-2.39169E-15
 -1       580 2.02736E-03-6.56466E-05-6.12019E-16
 -1       581 1.25800E-03-3.25630E-04-3.29950E-16
 -1       582 9.09951E-04-4.24798E-04-2.50698E-16
 -1       583 6.81760E-04-4.63625E-04-2.01839E-16
 -1       584 5.35920E-04-4.59937E-04-1.55619E-16
 -1       585 5.91223E-04-4.56432E-04-1.25047E-16
 -1       586 5.94370E-03-1.53910E-03-2.47031E-15
 -1       587 1.64492E-03-1.94838E-04-4.51597E-16
 -1       588 4.56488E-03-1.04423E-03-2.14096E-15
 -1       589 6.16634E-03-1.56830E-03-2.24040E-15
 -1       590 4.42818E-04-3.03887E-04-7.97431E-17
 -1       591 9.20379E-04 4.08625E-04-2.18762E-16
 -1       592 7.76052E-04-4.97968E-04-1.12915E-16
 -1       593 1.63873E-02-1.07944E-02-5.30183E-14
 -1       594 1.11179E-03 4.18321E-04-3.36740E-16
 -1       595 4.28643E-04-2.84349E-04-6.50149E-17
 -1       596 6.11014E-03-1.61592E-03-2.66297E-15
 -1       597 1.08702E-03 7.60590E-05-2.39975E-16
 -1       598 1.10621E-03-1.10792E-05-2.30576E-16
 -1       599 1.00392E-03 2.17609E-04-2.46260E-16
 -1       600 9.59859E-04 2.81092E-04-2.41204E-16
 -1       601 8.97653E-04 3.65351E-04-2.14337E-16
 -1       602 6.68021E-03-2.14953E-03-4.25574E-15
 -1       603 6.92394E-03-2.39658E-03-5.00734E-15
 -1       604 7.18552E-03-2.65050E-03-5.81549E-15
 -1       605 7.45761E-03-2.90689E-03-6.68303E-15
 -1       606 7.73575E-03-3.16373E-03-7.61318E-15
 -1       607 8.01729E-03-3.42025E-03-8.61047E-15
 -1       608 8.30072E-03-3.67629E-03-9.67402E-15
 -1       609 8.59945E-03-3.94469E-03-1.08559E-14
 -1       610 8.88453E-03-4.20002E-03-1.20450E-14
 -1       611 9.16992E-03-4.45521E-03-1.32930E-14
 -1       612 9.45547E-03-4.71034E-03-1.45880E-14
 -1       613 9.74112E-03-4.96547E-03-1.59282E-14
 -1       614 1.00268E-02-5.22064E-03-1.73161E-14
 -1       615 1.03125E-02-5.47587E-03-1.87478E-14
 -1       616 1.05982E-02-5.73115E-03-2.02241E-14
 -1       617 1.08840E-02-5.98649E-03-2.17388E-14
 -1       618 1.11697E-02-6.24188E-03-2.32812E-14
 -1       619 1.14554E-02-6.49731E-03-2.48482E-14
 -1       620 1.17412E-02-6.75277E-03-2.64328E-14
 -1       621 1.20269E-02-7.00826E-03-2.80251E-14
 -1       622 1.23126E-02-7.26377E-03-2.96225E-14
 -1       623 1.26126E-02-7.53206E-03-3.13077E-14
 -1       624 1.28984E-02-7.78759E-03-3.29171E-14
 -1       625 1.31841E-02-8.04312E-03-3.45452E-14
 -1       626 1.34698E-02-8.29866E-03-3.62039E-14
 -1       627 1.37555E-02-8.55420E-03-3.78817E-14
 -1       628 1.40412E-02-8.80974E-03-3.95700E-14
 -1       629 1.43270E-02-9.06528E-03-4.12819E-14
 -1       630 1.46127E-02-9.32082E-03-4.30171E-14
 -1       631 1.48984E-02-9.57635E-03-4.47829E-14
 -1       632 1.51841E-02-9.83189E-03-4.65845E-14
 -1       633 1.54698E-02-1.00874E-02-4.84154E-14
 -1       634 1.57123E-02-1.03426E-02-5.04803E-14
 -1       635 1.49416E-03 3.39594E-04-6.10626E-16
 -1       636 1.31647E-02-9.50221E-03-5.10935E-14
 -1       637 9.82759E-04-3.44526E-04-2.27510E-16
 -1       638 2.57946E-03-1.02013E-04-2.00804E-15
 -1       639 2.30753E-03 6.89347E-05-1.57205E-15
 -1       640 3.13599E-03-5.31936E-04-3.05465E-15
 -1       641 3.42048E-03-7.75394E-04-3.66305E-15
 -1       642 3.70767E-03-1.02894E-03-4.32924E-15
 -1       643 3.99623E-03-1.28793E-03-5.04890E-15
 -1       644 4.28514E-03-1.54930E-03-5.82599E-15
 -1       645 4.57376E-03-1.81124E-03-6.66039E-15
 -1       646 4.86179E-03-2.07281E-03-7.55181E-15
 -1       647 5.14919E-03-2.33359E-03-8.50106E-15
 -1       648 5.43603E-03-2.59346E-03-9.50730E-15
 -1       649 5.72243E-03-2.85247E-03-1.05694E-14
 -1       650 6.00853E-03-3.11071E-03-1.16884E-14
 -1       651 6.29443E-03-3.36832E-03-1.28633E-14
 -1       652 6.58021E-03-3.62543E-03-1.40902E-14
 -1       653 6.86593E-03-3.88214E-03-1.53691E-14
 -1       654 7.15162E-03-4.13854E-03-1.66972E-14
 -1       655 7.43730E-03-4.39470E-03-1.80678E-14
 -1       656 7.72298E-03-4.65069E-03-1.94830E-14
 -1       657 8.00867E-03-4.90655E-03-2.09328E-14
 -1       658 8.29436E-03-5.16230E-03-2.24201E-14
 -1       659 8.58006E-03-5.41799E-03-2.39407E-14
 -1       660 8.86577E-03-5.67363E-03-2.54990E-14
 -1       661 9.15148E-03-5.92923E-03-2.70922E-14
 -1       662 9.43719E-03-6.18480E-03-2.87046E-14
 -1       663 9.72290E-03-6.44035E-03-3.03348E-14
 -1       664 1.00086E-02-6.69590E-03-3.19853E-14
 -1       665 1.02943E-02-6.95143E-03-3.36524E-14
 -1       666 1.05801E-02-7.20696E-03-3.53393E-14
 -1       667 1.08658E-02-7.46249E-03-3.70492E-14
 -1       668 1.11515E-02-7.71801E-03-3.87806E-14
 -1       669 1.14372E-02-7.97354E-03-4.05326E-14
 -1       670 1.17229E-02-8.22907E-03-4.22978E-14
 -1       671 1.20086E-02-8.48459E-03-4.40761E-14
 -1       672 1.22943E-02-8.74012E-03-4.58613E-14
 -1       673 1.25801E-02-8.99565E-03-4.76457E-14
 -1       674 1.28724E-02-9.24893E-03-4.93713E-14
 -1       675 1.40782E-02-9.83002E-03-5.13217E-14
 -1       676 6.25989E-03-1.65186E-03-2.68340E-15
 -1       677 1.38270E-02-9.74574E-03-5.13321E-14
 -1       678 1.45808E-02-9.99859E-03-5.12704E-14
 -1       679 1.48278E-02-1.00814E-02-5.12232E-14
 -1       680 1.50791E-02-1.01657E-02-5.11509E-14
 -1       681 1.53303E-02-1.02500E-02-5.10672E-14
 -1       682 1.55213E-02-1.02963E-02-5.07782E-14
 -1       683 1.76751E-03 2.91770E-04-8.75168E-16
 -1       684 4.79051E-03-1.26471E-03-2.55940E-15
 -1       685 3.71748E-03-6.32991E-04-1.95448E-15
 -1       686 1.75452E-03-1.02233E-04-4.84455E-16
 -1       687 2.03778E-03 2.01427E-04-1.19516E-15
 -1       688 5.49032E-04-4.00802E-04-1.34575E-16
 -1       689 1.43295E-02-9.91430E-03-5.13003E-14
 -1       690 1.35799E-02-9.66288E-03-5.13301E-14
 -1       691 3.25387E-03-3.30247E-04-1.62158E-15
 -1       692 4.30822E-03-9.92351E-04-2.27155E-15
 -1       693 2.85544E-03-3.04923E-04-2.50276E-15
 -1       694 2.87677E-03-1.06185E-04-1.27623E-15
 -1       695 7.25683E-04-3.99293E-04-1.75204E-16
 -1       696 2.11053E-03 5.07016E-06-6.81380E-16
 -1       697 6.46565E-03-1.91808E-03-3.56468E-15
 -1       698 5.35068E-03-1.48365E-03-2.71389E-15
 -1       699 1.04897E-03 1.50710E-04-2.45606E-16
 -1       700 1.38126E-03-2.30132E-04-3.40107E-16
 -1       701 5.81204E-03-1.60341E-03-2.78441E-15
 -1       702 2.50645E-03 1.09043E-05-9.51828E-16
 -1       703 5.08131E-04-3.62641E-04-9.39783E-17
 -1       704 1.08275E-03-1.13205E-04-2.16176E-16
 -1       705 1.21652E-03 3.47221E-04-3.98061E-16
 -1       706 6.02715E-03-1.68877E-03-2.98715E-15
 -1       707 1.05543E-03-2.07703E-04-2.14120E-16
 -1       708 1.24000E-03 2.73627E-04-3.85309E-16
 -1       709 2.55805E-03-7.20369E-05-1.79234E-15
 -1       710 6.60435E-03-2.23300E-03-4.72781E-15
 -1       711 1.70274E-03 2.65139E-04-7.46138E-16
 -1       712 1.39564E-02-9.65087E-03-4.97413E-14
 -1       713 6.84905E-03-2.47193E-03-5.50999E-15
 -1       714 7.11002E-03-2.71881E-03-6.34687E-15
 -1       715 7.38116E-03-2.96986E-03-7.24553E-15
 -1       716 7.65847E-03-3.22296E-03-8.20672E-15
 -1       717 7.93945E-03-3.47702E-03-9.23454E-15
 -1       718 8.23675E-03-3.74425E-03-1.03829E-14
 -1       719 8.52112E-03-3.99895E-03-1.15393E-14
 -1       720 8.80615E-03-4.25377E-03-1.27544E-14
 -1       721 9.09154E-03-4.50869E-03-1.40216E-14
 -1       722 9.37711E-03-4.76370E-03-1.53354E-14
 -1       723 9.66277E-03-5.01880E-03-1.66933E-14
 -1       724 9.94848E-03-5.27398E-03-1.80943E-14
 -1       725 1.02342E-02-5.52923E-03-1.95375E-14
 -1       726 1.05199E-02-5.78455E-03-2.10241E-14
 -1       727 1.08057E-02-6.03993E-03-2.25425E-14
 -1       728 1.10914E-02-6.29535E-03-2.40917E-14
 -1       729 1.13771E-02-6.55080E-03-2.56643E-14
 -1       730 1.16628E-02-6.80628E-03-2.72511E-14
 -1       731 1.19485E-02-7.06178E-03-2.88474E-14
 -1       732 1.22485E-02-7.33007E-03-3.05356E-14
 -1       733 1.25342E-02-7.58560E-03-3.21497E-14
 -1       734 1.28200E-02-7.84113E-03-3.37804E-14
 -1       735 1.31057E-02-8.09666E-03-3.54262E-14
 -1       736 1.33914E-02-8.35220E-03-3.70978E-14
 -1       737 1.36771E-02-8.60774E-03-3.87885E-14
 -1       738 1.39628E-02-8.86328E-03-4.04979E-14
 -1       739 1.42485E-02-9.11882E-03-4.22319E-14
 -1       740 1.45342E-02-9.37436E-03-4.39893E-14
 -1       741 1.48200E-02-9.62990E-03-4.57801E-14
 -1       742 1.51057E-02-9.88543E-03-4.75983E-14
 -1       743 1.53135E-02-1.00909E-02-4.91818E-14
 -1       744 3.73894E-03-9.82791E-04-4.00066E-15
 -1       745 3.43899E-03-7.30269E-04-3.36271E-15
 -1       746 4.33741E-03-1.50127E-03-5.44019E-15
 -1       747 4.63368E-03-1.76210E-03-6.24491E-15
 -1       748 4.92754E-03-2.02256E-03-7.10740E-15
 -1       749 5.21920E-03-2.28236E-03-8.02737E-15
 -1       750 5.50905E-03-2.54143E-03-9.00715E-15
 -1       751 5.79752E-03-2.79984E-03-1.00431E-14
 -1       752 6.08499E-03-3.05766E-03-1.11339E-14
 -1       753 6.37178E-03-3.31500E-03-1.22832E-14
 -1       754 6.65811E-03-3.57194E-03-1.34853E-14
 -1       755 6.94416E-03-3.82856E-03-1.47383E-14
 -1       756 7.23004E-03-4.08492E-03-1.60416E-14
 -1       757 7.51582E-03-4.34107E-03-1.73942E-14
 -1       758 7.80155E-03-4.59706E-03-1.87882E-14
 -1       759 8.08725E-03-4.85293E-03-2.02195E-14
 -1       760 8.37294E-03-5.10870E-03-2.16863E-14
 -1       761 8.65862E-03-5.36440E-03-2.31886E-14
 -1       762 8.94431E-03-5.62005E-03-2.47245E-14
 -1       763 9.23000E-03-5.87566E-03-2.62966E-14
 -1       764 9.51570E-03-6.13124E-03-2.78954E-14
 -1       765 9.80140E-03-6.38680E-03-2.95153E-14
 -1       766 1.00871E-02-6.64235E-03-3.11523E-14
 -1       767 1.03728E-02-6.89789E-03-3.28047E-14
 -1       768 1.06585E-02-7.15342E-03-3.44765E-14
 -1       769 1.09442E-02-7.40895E-03-3.61718E-14
 -1       770 1.12299E-02-7.66448E-03-3.78964E-14
 -1       771 1.15156E-02-7.92000E-03-3.96406E-14
 -1       772 1.18014E-02-8.17553E-03-4.14023E-14
 -1       773 1.20871E-02-8.43106E-03-4.31760E-14
 -1       774 1.23728E-02-8.68658E-03-4.49584E-14
 -1       775 1.26585E-02-8.94211E-03-4.67436E-14
 -1       776 1.49573E-02-9.98657E-03-4.95041E-14
 -1       777 1.77482E-03-1.09009E-05-5.11940E-16
 -1       778 1.37052E-02-9.56659E-03-4.97650E-14
 -1       779 1.47060E-02-9.90229E-03-4.95859E-14
 -1       780 1.44590E-02-9.81944E-03-4.96525E-14
 -1       781 4.70312E-04-3.49594E-04-9.45119E-17
 -1       782 3.45896E-03-5.18668E-04-1.96487E-15
 -1       783 5.12812E-03-1.48017E-03-2.98398E-15
 -1       784 1.42077E-02-9.73515E-03-4.97047E-14
 -1       785 4.50002E-03-1.16761E-03-2.64000E-15
 -1       786 1.34582E-02-9.48373E-03-4.97757E-14
 -1       787 4.02568E-03-8.96052E-04-2.39963E-15
 -1       788 1.31653E-02-9.36633E-03-4.95718E-14
 -1       789 6.38477E-03-2.00750E-03-4.00451E-15
 -1       790 5.64529E-03-1.65372E-03-3.12404E-15
 -1       791 1.44853E-03-1.23469E-04-3.52982E-16
 -1       792 4.03890E-03-1.24091E-03-4.69261E-15
 -1       793 2.95783E-03-1.95440E-04-1.50796E-15
 -1       794 2.59189E-03-1.59744E-05-1.11811E-15
 -1       795 2.23849E-03 4.38594E-05-8.18668E-16
 -1       796 1.40747E-03 6.00466E-05-3.70492E-16
 -1       797 2.27289E-03 8.46865E-05-1.38583E-15
 -1       798 1.41229E-03 2.90463E-04-5.07989E-16
 -1       799 3.14107E-03-4.88816E-04-2.78150E-15
 -1       800 4.85308E-03-1.39688E-03-3.06814E-15
 -1       801 1.29119E-02-9.15422E-03-4.81590E-14
 -1       802 6.20820E-03-1.80722E-03-3.34499E-15
 -1       803 1.91209E-03 5.63423E-05-6.24182E-16
 -1       804 6.24849E-03-1.72890E-03-3.02271E-15
 -1       805 1.51354E-02-1.00387E-02-4.93456E-14
 -1       806 1.98889E-03 1.97605E-04-1.03797E-15
 -1       807 1.30013E-03 2.07719E-04-3.86962E-16
 -1       808 5.89734E-03-1.75505E-03-3.34107E-15
 -1       809 2.84713E-03-2.66251E-04-2.25786E-15
 -1       810 1.35956E-03 1.38177E-04-3.81666E-16
 -1       811 3.73102E-03-7.52458E-04-2.43134E-15
 -1       812 6.75743E-03-2.53885E-03-6.01526E-15
 -1       813 7.02454E-03-2.78157E-03-6.88472E-15
 -1       814 7.29893E-03-3.02930E-03-7.81408E-15
 -1       815 7.57796E-03-3.27999E-03-8.80700E-15
 -1       816 7.87401E-03-3.54509E-03-9.91596E-15
 -1       817 8.15771E-03-3.79860E-03-1.10393E-14
 -1       818 8.44237E-03-4.05273E-03-1.22218E-14
 -1       819 8.72757E-03-4.30724E-03-1.34627E-14
 -1       820 9.01307E-03-4.56202E-03-1.47469E-14
 -1       821 9.29870E-03-4.81699E-03-1.60776E-14
 -1       822 9.58440E-03-5.07209E-03-1.74538E-14
 -1       823 9.87013E-03-5.32731E-03-1.88684E-14
 -1       824 1.01559E-02-5.58260E-03-2.03250E-14
 -1       825 1.04416E-02-5.83796E-03-2.18176E-14
 -1       826 1.07273E-02-6.09337E-03-2.33465E-14
 -1       827 1.10130E-02-6.34882E-03-2.49060E-14
 -1       828 1.12987E-02-6.60430E-03-2.64839E-14
 -1       829 1.15844E-02-6.85980E-03-2.80765E-14
 -1       830 1.18844E-02-7.12809E-03-2.97606E-14
 -1       831 1.21701E-02-7.38361E-03-3.13776E-14
 -1       832 1.24558E-02-7.63914E-03-3.30058E-14
 -1       833 1.27415E-02-7.89467E-03-3.46492E-14
 -1       834 1.30273E-02-8.15021E-03-3.63094E-14
 -1       835 1.33130E-02-8.40575E-03-3.79941E-14
 -1       836 1.35987E-02-8.66129E-03-3.97017E-14
 -1       837 1.38844E-02-8.91683E-03-4.14321E-14
 -1       838 1.41701E-02-9.17236E-03-4.31881E-14
 -1       839 1.44558E-02-9.42790E-03-4.49713E-14
 -1       840 1.47415E-02-9.68344E-03-4.67768E-14
 -1       841 3.76091E-03-9.41607E-04-3.67602E-15
 -1       842 4.99014E-03-1.97665E-03-6.66940E-15
 -1       843 4.68935E-03-1.71814E-03-5.83633E-15
 -1       844 5.58038E-03-2.49199E-03-8.51073E-15
 -1       845 5.87136E-03-2.74909E-03-9.51940E-15
 -1       846 6.16054E-03-3.00595E-03-1.05843E-14
 -1       847 6.44846E-03-3.26260E-03-1.17065E-14
 -1       848 6.73553E-03-3.51907E-03-1.28819E-14
 -1       849 7.02206E-03-3.77538E-03-1.41098E-14
 -1       850 7.30823E-03-4.03155E-03-1.53898E-14
 -1       851 7.59418E-03-4.28760E-03-1.67181E-14
 -1       852 7.88001E-03-4.54353E-03-1.80927E-14
 -1       853 8.16576E-03-4.79937E-03-1.95064E-14
 -1       854 8.45147E-03-5.05513E-03-2.09553E-14
 -1       855 8.73716E-03-5.31083E-03-2.24389E-14
 -1       856 9.02284E-03-5.56648E-03-2.39586E-14
 -1       857 9.30852E-03-5.82209E-03-2.55105E-14
 -1       858 9.59421E-03-6.07768E-03-2.70916E-14
 -1       859 9.87990E-03-6.33324E-03-2.86996E-14
 -1       860 1.01656E-02-6.58879E-03-3.03247E-14
 -1       861 1.04513E-02-6.84434E-03-3.19659E-14
 -1       862 1.07370E-02-7.09987E-03-3.36231E-14
 -1       863 1.10227E-02-7.35540E-03-3.53011E-14
 -1       864 1.13084E-02-7.61093E-03-3.70067E-14
 -1       865 1.15941E-02-7.86646E-03-3.87464E-14
 -1       866 1.18798E-02-8.12199E-03-4.04981E-14
 -1       867 1.21655E-02-8.37752E-03-4.22657E-14
 -1       868 1.24512E-02-8.63305E-03-4.40445E-14
 -1       869 1.27369E-02-8.88857E-03-4.58298E-14
 -1       870 3.16159E-03-3.61588E-04-1.86858E-15
 -1       871 1.35834E-02-9.38744E-03-4.81871E-14
 -1       872 1.45842E-02-9.72314E-03-4.79526E-14
 -1       873 1.43372E-02-9.64028E-03-4.80360E-14
 -1       874 5.28690E-03-2.23455E-03-7.56082E-15
 -1       875 2.32245E-03 4.85928E-05-9.75870E-16
 -1       876 6.50122E-03-2.30432E-03-5.20288E-15
 -1       877 4.32808E-03-1.12638E-03-2.84317E-15
 -1       878 1.48257E-03 2.26539E-04-5.10588E-16
 -1       879 1.33364E-02-9.30459E-03-4.82124E-14
 -1       880 6.26080E-03-2.08230E-03-4.45036E-15
 -1       881 2.66481E-03-6.97714E-05-1.33326E-15
 -1       882 1.92970E-03 1.85958E-04-8.86383E-16
 -1       883 2.82673E-03-2.27822E-04-2.01605E-15
 -1       884 5.46840E-03-1.68107E-03-3.47077E-15
 -1       885 1.70832E-03 2.18029E-04-6.83728E-16
 -1       886 2.01084E-03 9.82237E-05-7.55547E-16
 -1       887 3.44651E-03-6.88504E-04-3.06508E-15
 -1       888 4.07415E-03-1.19965E-03-4.34137E-15
 -1       889 1.49385E-02-9.86108E-03-4.80549E-14
 -1       890 1.31241E-02-9.22940E-03-4.81856E-14
 -1       891 4.38399E-03-1.45901E-03-5.06055E-15
 -1       892 2.52526E-03-4.29583E-05-1.58155E-15
 -1       893 1.38347E-02-9.47172E-03-4.81516E-14
 -1       894 2.86162E-03-1.96062E-04-1.66399E-15
 -1       895 1.59841E-03 3.53966E-05-4.48175E-16
 -1       896 5.21753E-03-1.61719E-03-3.56130E-15
 -1       897 1.40859E-02-9.55600E-03-4.81004E-14
 -1       898 2.22767E-03 9.65961E-05-1.20559E-15
 -1       899 1.29305E-02-9.05899E-03-4.70070E-14
 -1       900 5.73880E-03-1.79976E-03-3.70468E-15
 -1       901 3.13414E-03-4.47111E-04-2.51102E-15
 -1       902 5.05182E-03-1.93587E-03-6.23765E-15
 -1       903 2.17298E-03 1.03311E-04-1.03163E-15
 -1       904 6.93528E-03-2.83832E-03-7.42800E-15
 -1       905 7.21431E-03-3.08486E-03-8.38676E-15
 -1       906 7.51018E-03-3.34715E-03-9.46189E-15
 -1       907 7.79371E-03-3.59899E-03-1.05499E-14
 -1       908 8.07827E-03-3.85210E-03-1.16993E-14
 -1       909 8.36343E-03-4.10601E-03-1.29056E-14
 -1       910 8.64892E-03-4.36044E-03-1.41638E-14
 -1       911 8.93457E-03-4.61521E-03-1.54682E-14
 -1       912 9.22029E-03-4.87021E-03-1.68173E-14
 -1       913 9.50603E-03-5.12537E-03-1.82113E-14
 -1       914 9.79177E-03-5.38064E-03-1.96417E-14
 -1       915 1.00775E-02-5.63599E-03-2.11118E-14
 -1       916 1.03632E-02-5.89139E-03-2.26167E-14
 -1       917 1.06489E-02-6.14684E-03-2.41597E-14
 -1       918 1.09346E-02-6.40232E-03-2.57238E-14
 -1       919 1.12203E-02-6.65781E-03-2.73075E-14
 -1       920 1.15203E-02-6.92610E-03-2.89850E-14
 -1       921 1.18060E-02-7.18162E-03-3.05992E-14
 -1       922 1.20917E-02-7.43715E-03-3.22238E-14
 -1       923 1.23774E-02-7.69268E-03-3.38660E-14
 -1       924 1.26631E-02-7.94822E-03-3.55218E-14
 -1       925 1.29488E-02-8.20376E-03-3.72002E-14
 -1       926 1.32345E-02-8.45929E-03-3.88982E-14
 -1       927 1.35203E-02-8.71483E-03-4.06218E-14
 -1       928 1.38060E-02-8.97037E-03-4.23740E-14
 -1       929 1.40917E-02-9.22591E-03-4.41513E-14
 -1       930 1.43774E-02-9.48144E-03-4.59547E-14
 -1       931 1.39641E-02-9.37685E-03-4.64983E-14
 -1       932 3.11818E-03-4.03391E-04-2.24513E-15
 -1       933 6.23572E-03-2.95588E-03-1.00371E-14
 -1       934 5.94478E-03-2.70065E-03-8.99837E-15
 -1       935 6.81267E-03-3.46700E-03-1.22814E-14
 -1       936 7.09971E-03-3.72275E-03-1.34836E-14
 -1       937 7.38622E-03-3.97856E-03-1.47399E-14
 -1       938 7.67239E-03-4.23436E-03-1.60447E-14
 -1       939 7.95835E-03-4.49015E-03-1.73973E-14
 -1       940 8.24419E-03-4.74590E-03-1.87946E-14
 -1       941 8.52994E-03-5.00161E-03-2.02240E-14
 -1       942 8.81566E-03-5.25728E-03-2.16896E-14
 -1       943 9.10135E-03-5.51292E-03-2.31908E-14
 -1       944 9.38703E-03-5.76853E-03-2.47283E-14
 -1       945 9.67271E-03-6.02412E-03-2.62962E-14
 -1       946 9.95839E-03-6.27968E-03-2.78875E-14
 -1       947 1.02441E-02-6.53524E-03-2.95019E-14
 -1       948 1.05298E-02-6.79078E-03-3.11279E-14
 -1       949 1.08154E-02-7.04632E-03-3.27747E-14
 -1       950 1.11011E-02-7.30186E-03-3.44404E-14
 -1       951 1.13868E-02-7.55739E-03-3.61283E-14
 -1       952 1.16725E-02-7.81292E-03-3.78470E-14
 -1       953 1.19582E-02-8.06845E-03-3.95898E-14
 -1       954 1.22440E-02-8.32398E-03-4.13484E-14
 -1       955 1.25297E-02-8.57950E-03-4.31232E-14
 -1       956 1.28154E-02-8.83503E-03-4.49063E-14
 -1       957 4.09773E-03-1.03525E-03-3.01930E-15
 -1       958 6.12747E-03-2.13842E-03-4.89868E-15
 -1       959 4.71211E-03-1.39037E-03-3.40270E-15
 -1       960 1.71755E-03 1.04839E-04-5.55444E-16
 -1       961 6.39046E-03-2.36238E-03-5.68385E-15
 -1       962 1.55497E-03 1.61866E-04-5.05211E-16
 -1       963 1.32124E-02-9.12472E-03-4.66430E-14
 -1       964 2.36288E-03 3.97817E-05-1.14072E-15
 -1       965 1.42112E-02-9.45970E-03-4.64197E-14
 -1       966 6.66018E-03-2.59668E-03-6.52760E-15
 -1       967 3.40592E-03-5.67035E-04-2.34518E-15
 -1       968 6.52481E-03-3.21135E-03-1.11318E-14
 -1       969 1.94374E-03 1.50182E-04-8.08896E-16
 -1       970 3.77688E-03-9.04708E-04-3.35240E-15
 -1       971 1.37129E-02-9.29257E-03-4.65620E-14
 -1       972 2.79704E-03-1.86465E-04-1.78106E-15
 -1       973 4.10532E-03-1.16444E-03-3.99139E-15
 -1       974 5.65121E-03-2.44567E-03-8.01930E-15
 -1       975 5.50070E-03-1.75252E-03-3.80098E-15
 -1       976 4.74351E-03-1.68024E-03-5.43433E-15
 -1       977 5.35397E-03-2.19083E-03-7.09929E-15
 -1       978 2.48362E-03-1.31946E-05-1.37709E-15
 -1       979 3.44617E-03-6.48106E-04-2.76959E-15
 -1       980 1.34627E-02-9.20865E-03-4.66044E-14
 -1       981 5.13940E-03-1.66312E-03-4.04125E-15
 -1       982 4.42804E-03-1.42325E-03-4.68503E-15
 -1       983 7.13695E-03-3.14349E-03-8.98869E-15
 -1       984 7.42130E-03-3.39347E-03-1.00414E-14
 -1       985 7.70632E-03-3.64538E-03-1.11554E-14
 -1       986 7.99175E-03-3.89854E-03-1.23279E-14
 -1       987 8.27740E-03-4.15253E-03-1.35530E-14
 -1       988 8.56316E-03-4.40705E-03-1.48308E-14
 -1       989 8.84895E-03-4.66192E-03-1.61530E-14
 -1       990 9.13474E-03-4.91702E-03-1.75221E-14
 -1       991 9.42052E-03-5.17226E-03-1.89316E-14
 -1       992 9.70627E-03-5.42760E-03-2.03781E-14
 -1       993 9.99200E-03-5.68300E-03-2.18592E-14
 -1       994 1.02777E-02-5.93845E-03-2.33823E-14
 -1       995 1.05634E-02-6.19393E-03-2.49314E-14
 -1       996 1.08491E-02-6.44943E-03-2.65006E-14
 -1       997 1.11491E-02-6.71772E-03-2.81693E-14
 -1       998 1.14348E-02-6.97325E-03-2.97761E-14
 -1       999 1.17205E-02-7.22878E-03-3.14002E-14
 -1      1000 1.20062E-02-7.48431E-03-3.30366E-14
 -1      1001 1.22919E-02-7.73984E-03-3.46919E-14
 -1      1002 1.25776E-02-7.99538E-03-3.63613E-14
 -1      1003 1.28633E-02-8.25092E-03-3.80488E-14
 -1      1004 1.31490E-02-8.50645E-03-3.97629E-14
 -1      1005 1.34347E-02-8.76199E-03-4.15064E-14
 -1      1006 1.37204E-02-9.01753E-03-4.32801E-14
 -1      1007 1.39658E-02-9.23862E-03-4.48422E-14
 -1      1008 6.56439E-03-2.64743E-03-7.04472E-15
 -1      1009 7.46415E-03-3.92598E-03-1.40910E-14
 -1      1010 7.17735E-03-3.67074E-03-1.28588E-14
 -1      1011 8.03662E-03-4.43697E-03-1.67054E-14
 -1      1012 8.32254E-03-4.69256E-03-1.80801E-14
 -1      1013 8.60836E-03-4.94818E-03-1.94945E-14
 -1      1014 8.89411E-03-5.20380E-03-2.09417E-14
 -1      1015 9.17982E-03-5.45940E-03-2.24288E-14
 -1      1016 9.46551E-03-5.71499E-03-2.39462E-14
 -1      1017 9.75119E-03-5.97057E-03-2.54998E-14
 -1      1018 1.00369E-02-6.22613E-03-2.70803E-14
 -1      1019 1.03225E-02-6.48168E-03-2.86805E-14
 -1      1020 1.06082E-02-6.73723E-03-3.02958E-14
 -1      1021 1.08939E-02-6.99277E-03-3.19318E-14
 -1      1022 1.11796E-02-7.24830E-03-3.35849E-14
 -1      1023 1.14653E-02-7.50384E-03-3.52597E-14
 -1      1024 1.17510E-02-7.75937E-03-3.69586E-14
 -1      1025 1.20367E-02-8.01490E-03-3.86830E-14
 -1      1026 1.23224E-02-8.27043E-03-4.04284E-14
 -1      1027 1.26081E-02-8.52596E-03-4.21905E-14
 -1      1028 1.28938E-02-8.78149E-03-4.39750E-14
 -1      1029 3.76212E-03-8.47208E-04-2.97224E-15
 -1      1030 1.31782E-02-8.99507E-03-4.52864E-14
 -1      1031 7.75052E-03-4.18142E-03-1.53729E-14
 -1      1032 4.52080E-03-1.33839E-03-3.68834E-15
 -1      1033 6.31139E-03-2.90760E-03-9.49115E-15
 -1      1034 6.00334E-03-2.18108E-03-5.35547E-15
 -1      1035 6.28354E-03-2.41050E-03-6.17211E-15
 -1      1036 6.84650E-03-2.89024E-03-7.97309E-15
 -1      1037 1.37188E-02-9.15576E-03-4.49251E-14
 -1      1038 6.88989E-03-3.41581E-03-1.16829E-14
 -1      1039 6.60141E-03-3.16137E-03-1.05591E-14
 -1      1040 1.34675E-02-9.07148E-03-4.49889E-14
 -1      1041 6.01908E-03-2.65469E-03-8.48178E-15
 -1      1042 4.10924E-03-1.11243E-03-3.57637E-15
 -1      1043 5.41045E-03-1.80515E-03-4.29901E-15
 -1      1044 5.11582E-03-1.90076E-03-5.81141E-15
 -1      1045 5.42292E-03-2.15161E-03-6.64248E-15
 -1      1046 6.76399E-03-2.94218E-03-8.53641E-15
 -1      1047 4.80025E-03-1.64904E-03-5.03338E-15
 -1      1048 7.82868E-03-4.12877E-03-1.47020E-14
 -1      1049 7.34038E-03-3.44478E-03-1.06494E-14
 -1      1050 7.62656E-03-3.69729E-03-1.17888E-14
 -1      1051 7.91266E-03-3.95088E-03-1.29857E-14
 -1      1052 8.19869E-03-4.20518E-03-1.42342E-14
 -1      1053 8.48464E-03-4.45993E-03-1.55305E-14
 -1      1054 8.77053E-03-4.71498E-03-1.68756E-14
 -1      1055 9.05636E-03-4.97021E-03-1.82634E-14
 -1      1056 9.34215E-03-5.22555E-03-1.96898E-14
 -1      1057 9.62789E-03-5.48097E-03-2.11529E-14
 -1      1058 9.91362E-03-5.73644E-03-2.26516E-14
 -1      1059 1.01993E-02-5.99193E-03-2.41838E-14
 -1      1060 1.04850E-02-6.24744E-03-2.57408E-14
 -1      1061 1.07850E-02-6.51573E-03-2.73974E-14
 -1      1062 1.10707E-02-6.77126E-03-2.89966E-14
 -1      1063 1.13564E-02-7.02679E-03-3.06133E-14
 -1      1064 1.16420E-02-7.28233E-03-3.22467E-14
 -1      1065 1.19277E-02-7.53786E-03-3.38988E-14
 -1      1066 1.22134E-02-7.79340E-03-3.55657E-14
 -1      1067 1.24991E-02-8.04893E-03-3.72470E-14
 -1      1068 1.27848E-02-8.30447E-03-3.89553E-14
 -1      1069 1.30705E-02-8.56000E-03-4.06899E-14
 -1      1070 1.33562E-02-8.81554E-03-4.24520E-14
 -1      1071 4.46280E-03-1.38136E-03-4.25195E-15
 -1      1072 8.68673E-03-4.89485E-03-1.87626E-14
 -1      1073 8.40086E-03-4.63937E-03-1.73667E-14
 -1      1074 9.25826E-03-5.40592E-03-2.16660E-14
 -1      1075 9.54396E-03-5.66148E-03-2.31703E-14
 -1      1076 9.82965E-03-5.91703E-03-2.47061E-14
 -1      1077 1.01153E-02-6.17258E-03-2.62714E-14
 -1      1078 1.04010E-02-6.42813E-03-2.78590E-14
 -1      1079 1.06867E-02-6.68367E-03-2.94674E-14
 -1      1080 1.09724E-02-6.93921E-03-3.10911E-14
 -1      1081 1.12581E-02-7.19475E-03-3.27301E-14
 -1      1082 1.15437E-02-7.45029E-03-3.43904E-14
 -1      1083 1.18294E-02-7.70582E-03-3.60732E-14
 -1      1084 1.21151E-02-7.96135E-03-3.77799E-14
 -1      1085 1.24008E-02-8.21688E-03-3.95099E-14
 -1      1086 1.26865E-02-8.47242E-03-4.12617E-14
 -1      1087 1.29723E-02-8.72795E-03-4.30332E-14
 -1      1088 8.11487E-03-4.38399E-03-1.60090E-14
 -1      1089 6.96766E-03-3.36544E-03-1.10838E-14
 -1      1090 5.89393E-03-2.21735E-03-5.81904E-15
 -1      1091 5.72341E-03-2.40274E-03-7.53330E-15
 -1      1092 6.67900E-03-3.11254E-03-9.98918E-15
 -1      1093 5.01928E-03-1.69732E-03-4.65190E-15
 -1      1094 6.18502E-03-2.45297E-03-6.66410E-15
 -1      1095 8.97252E-03-5.15038E-03-2.01962E-14
 -1      1096 7.54220E-03-3.87382E-03-1.34434E-14
 -1      1097 6.47334E-03-2.69386E-03-7.56386E-15
 -1      1098 7.25527E-03-3.61930E-03-1.22349E-14
 -1      1099 1.33229E-02-9.03328E-03-4.51400E-14
 -1      1100 7.05408E-03-3.19386E-03-9.57061E-15
 -1      1101 6.38871E-03-2.86095E-03-8.95060E-15
 -1      1102 5.55006E-03-1.97818E-03-5.08790E-15
 -1      1103 5.28429E-03-1.84097E-03-4.86895E-15
 -1      1104 5.49714E-03-2.11688E-03-6.19080E-15
 -1      1105 5.18661E-03-1.87165E-03-5.38690E-15
 -1      1106 1.33457E-02-8.89233E-03-4.33946E-14
 -1      1107 7.54748E-03-3.74889E-03-1.24255E-14
 -1      1108 7.83397E-03-4.00307E-03-1.36455E-14
 -1      1109 8.12019E-03-4.25778E-03-1.49150E-14
 -1      1110 8.40624E-03-4.51282E-03-1.62333E-14
 -1      1111 8.69216E-03-4.76807E-03-1.75993E-14
 -1      1112 8.97799E-03-5.02345E-03-1.90063E-14
 -1      1113 9.26377E-03-5.27890E-03-2.04492E-14
 -1      1114 9.54950E-03-5.53439E-03-2.19276E-14
 -1      1115 9.83521E-03-5.78990E-03-2.34426E-14
 -1      1116 1.01209E-02-6.04543E-03-2.49848E-14
 -1      1117 1.04209E-02-6.31374E-03-2.66319E-14
 -1      1118 1.07066E-02-6.56927E-03-2.82201E-14
 -1      1119 1.09922E-02-6.82481E-03-2.98316E-14
 -1      1120 1.12779E-02-7.08034E-03-3.14556E-14
 -1      1121 1.15636E-02-7.33588E-03-3.31025E-14
 -1      1122 1.18493E-02-7.59141E-03-3.47640E-14
 -1      1123 1.21350E-02-7.84695E-03-3.64436E-14
 -1      1124 1.24207E-02-8.10248E-03-3.81475E-14
 -1      1125 1.27064E-02-8.35801E-03-3.98756E-14
 -1      1126 1.29921E-02-8.61355E-03-4.16280E-14
 -1      1127 6.97319E-03-3.24331E-03-1.01523E-14
 -1      1128 6.68124E-03-2.98969E-03-9.09148E-15
 -1      1129 5.79889E-03-2.25155E-03-6.28769E-15
 -1      1130 7.26063E-03-3.49550E-03-1.12588E-14
 -1      1131 6.38775E-03-2.73845E-03-8.08903E-15
 -1      1132 6.09540E-03-2.49329E-03-7.15845E-15
 -1      1133 5.79938E-03-2.36306E-03-7.05184E-15
 -1      1134 5.54518E-03-2.04510E-03-5.55623E-15
 -1      1135 6.09594E-03-2.61104E-03-7.97094E-15
 -1      1136 0.00000E+00 0.00000E+00 0.00000E+00
 -1      1137 0.00000E+00 0.00000E+00 0.00000E+00
 -1      1138 0.00000E+00 0.00000E+00 0.00000E+00
 -1      1139 0.00000E+00 0.00000E+00 0.00000E+00
 -1      1140 0.00000E+00 0.00000E+00 0.00000E+00
 -1      1141 0.00000E+00 0.00000E+00 0.00000E+00
 -1      1142 0.00000E+00 0.00000E+00 0.00000E+00
 -1      1143 0.00000E+00 0.00000E+00 0.00000E+00
 -1      1144 0.00000E+00 0.00000E+00 0.00000E+00
 -1      1145 0.00000E+00 0.00000E+00 0.00000E+00
 -1      1146 0.00000E+00 0.00000E+00 0.00000E+00
 -1      1147 0.00000E+00 0.00000E+00 0.00000E+00
 -1      1148 0.00000E+00 0.00000E+00 0.00000E+00
 -1      1149 0.00000E+00 0.00000E+00 0.00000E+00
 -1      1150 0.00000E+00 0.00000E+00 0.00000E+00
 -1      1151 0.00000E+00 0.00000E+00 0.00000E+00
 -1      1152 0.00000E+00 0.00000E+00 0.00000E+00
 -1      1153 2.44602E-04-1.28208E-04 1.63308E-17
 -1      1154 6.95299E-04-2.77821E-04 3.90448E-17
 -1      1155 1.15030E-03-4.10805E-04 4.29615E-17
 -1      1156 1.68535E-03-6.08628E-04 2.49366E-17
 -1      1157 2.29580E-03-9.68461E-04-1.38507E-17
 -1      1158 2.88160E-03-1.51626E-03-6.89824E-17
 -1      1159 3.34298E-03-2.16191E-03-1.41326E-16
 -1      1160 3.65426E-03-2.80370E-03-2.45328E-16
 -1      1161 3.81834E-03-3.19552E-03-4.01778E-16
 -1      1162 3.96981E-03-3.09887E-03-6.19893E-16
 -1      1163 4.29226E-03-2.63514E-03-9.03601E-16
 -1      1164 4.79859E-03-2.15276E-03-1.24819E-15
 -1      1165 5.40417E-03-1.85983E-03-1.66569E-15
 -1      1166 5.99552E-03-1.81138E-03-2.16000E-15
 -1      1167 6.50874E-03-1.94385E-03-2.72136E-15
 -1      1168 6.94054E-03-2.16819E-03-3.34739E-15
 -1      1169 7.30951E-03-2.42457E-03-4.03296E-15
 -1      1170 7.64083E-03-2.68928E-03-4.78610E-15
 -1      1171 7.95059E-03-2.95408E-03-5.60318E-15
 -1      1172 8.24842E-03-3.21673E-03-6.49304E-15
 -1      1173 8.53986E-03-3.47706E-03-7.44684E-15
 -1      1174 8.82803E-03-3.73552E-03-8.47494E-15
 -1      1175 9.11460E-03-3.99264E-03-9.56709E-15
 -1      1176 9.40046E-03-4.24887E-03-1.07169E-14
 -1      1177 9.69321E-03-4.51096E-03-1.19705E-14
 -1      1178 9.98591E-03-4.77274E-03-1.32849E-14
 -1      1179 1.02715E-02-5.02800E-03-1.46195E-14
 -1      1180 1.05572E-02-5.28321E-03-1.59945E-14
 -1      1181 1.08429E-02-5.53843E-03-1.74093E-14
 -1      1182 1.11286E-02-5.79369E-03-1.88764E-14
 -1      1183 1.14144E-02-6.04899E-03-2.04078E-14
 -1      1184 1.17002E-02-6.30434E-03-2.19933E-14
 -1      1185 1.19860E-02-6.55974E-03-2.35888E-14
 -1      1186 1.22718E-02-6.81517E-03-2.51986E-14
 -1      1187 1.25576E-02-7.07063E-03-2.68086E-14
 -1      1188 1.28434E-02-7.32612E-03-2.84151E-14
 -1      1189 1.31291E-02-7.58162E-03-3.00039E-14
 -1      1190 1.34149E-02-7.83714E-03-3.15857E-14
 -1      1191 1.37078E-02-8.09905E-03-3.32195E-14
 -1      1192 1.40007E-02-8.36097E-03-3.48528E-14
 -1      1193 1.42864E-02-8.61651E-03-3.64538E-14
 -1      1194 1.45721E-02-8.87205E-03-3.80758E-14
 -1      1195 1.48579E-02-9.12758E-03-3.97222E-14
 -1      1196 1.51436E-02-9.38312E-03-4.13975E-14
 -1      1197 1.54293E-02-9.63866E-03-4.31159E-14
 -1      1198 1.57150E-02-9.89420E-03-4.48694E-14
 -1      1199 1.60007E-02-1.01497E-02-4.66372E-14
 -1      1200 1.62865E-02-1.04053E-02-4.84223E-14
 -1      1201 1.65722E-02-1.06608E-02-5.02954E-14
 -1      1202 1.68579E-02-1.09163E-02-5.22560E-14
 -1      1203 1.71436E-02-1.11719E-02-5.42250E-14
 -1      1204 1.74293E-02-1.14274E-02-5.61752E-14
 -1      1205 2.16974E-04 1.65290E-04 1.01508E-17
 -1      1206 5.07784E-04 3.62060E-04 6.77626E-19
 -1      1207 7.40696E-04 4.86049E-04-5.14047E-17
 -1      1208 9.51973E-04 5.55405E-04-1.53625E-16
 -1      1209 1.14975E-03 5.80097E-04-3.07588E-16
 -1      1210 1.33898E-03 5.63958E-04-5.14928E-16
 -1      1211 1.52376E-03 5.08190E-04-7.77441E-16
 -1      1212 1.70818E-03 4.13635E-04-1.09687E-15
 -1      1213 1.89637E-03 2.82088E-04-1.47668E-15
 -1      1214 2.09216E-03 1.16862E-04-1.91635E-15
 -1      1215 2.29855E-03-7.72807E-05-2.41676E-15
 -1      1216 2.51731E-03-2.94661E-04-2.97676E-15
 -1      1217 2.74889E-03-5.29418E-04-3.59549E-15
 -1      1218 2.99262E-03-7.76180E-04-4.27174E-15
 -1      1219 3.24703E-03-1.03050E-03-5.00297E-15
 -1      1220 3.51026E-03-1.28905E-03-5.79193E-15
 -1      1221 3.78041E-03-1.54951E-03-6.63799E-15
 -1      1222 4.05573E-03-1.81045E-03-7.54166E-15
 -1      1223 4.33476E-03-2.07108E-03-8.49493E-15
 -1      1224 4.61634E-03-2.33103E-03-9.50226E-15
 -1      1225 4.89964E-03-2.59019E-03-1.05628E-14
 -1      1226 5.18404E-03-2.84859E-03-1.16783E-14
 -1      1227 5.46912E-03-3.10633E-03-1.28494E-14
 -1      1228 5.75461E-03-3.36353E-03-1.40750E-14
 -1      1229 6.04033E-03-3.62030E-03-1.53548E-14
 -1      1230 6.32617E-03-3.87675E-03-1.66772E-14
 -1      1231 6.61206E-03-4.13294E-03-1.80462E-14
 -1      1232 6.89797E-03-4.38895E-03-1.94572E-14
 -1      1233 7.18386E-03-4.64482E-03-2.09189E-14
 -1      1234 7.46974E-03-4.90059E-03-2.24273E-14
 -1      1235 7.75560E-03-5.15628E-03-2.39727E-14
 -1      1236 8.04143E-03-5.41192E-03-2.55639E-14
 -1      1237 8.32725E-03-5.66753E-03-2.71912E-14
 -1      1238 8.61304E-03-5.92310E-03-2.88428E-14
 -1      1239 8.89882E-03-6.17866E-03-3.05021E-14
 -1      1240 9.18458E-03-6.43421E-03-3.21788E-14
 -1      1241 9.47033E-03-6.68975E-03-3.38723E-14
 -1      1242 9.75608E-03-6.94528E-03-3.55603E-14
 -1      1243 1.00418E-02-7.20081E-03-3.72556E-14
 -1      1244 1.03275E-02-7.45633E-03-3.89678E-14
 -1      1245 1.06133E-02-7.71186E-03-4.07043E-14
 -1      1246 1.08990E-02-7.96739E-03-4.24504E-14
 -1      1247 1.11847E-02-8.22292E-03-4.41948E-14
 -1      1248 1.14704E-02-8.47844E-03-4.59867E-14
 -1      1249 1.17561E-02-8.73397E-03-4.78214E-14
 -1      1250 1.20419E-02-8.98950E-03-4.96225E-14
 -1      1251 1.23276E-02-9.24503E-03-5.13973E-14
 -1      1252 1.26133E-02-9.50056E-03-5.31473E-14
 -1      1253 1.28990E-02-9.75610E-03-5.48879E-14
 -1      1254 1.31776E-02-1.00052E-02-5.65986E-14
 -1      1255 1.34389E-02-1.01688E-02-5.74213E-14
 -1      1256 1.36902E-02-1.02530E-02-5.74464E-14
 -1      1257 1.39415E-02-1.03373E-02-5.74660E-14
 -1      1258 1.41927E-02-1.04216E-02-5.74893E-14
 -1      1259 1.44440E-02-1.05059E-02-5.75194E-14
 -1      1260 1.46932E-02-1.05895E-02-5.75555E-14
 -1      1261 1.49423E-02-1.06730E-02-5.76021E-14
 -1      1262 1.51936E-02-1.07573E-02-5.76305E-14
 -1      1263 1.54449E-02-1.08416E-02-5.76552E-14
 -1      1264 1.56961E-02-1.09259E-02-5.76515E-14
 -1      1265 1.59474E-02-1.10102E-02-5.76177E-14
 -1      1266 1.61965E-02-1.10937E-02-5.76041E-14
 -1      1267 1.64457E-02-1.11773E-02-5.75785E-14
 -1      1268 1.66970E-02-1.12616E-02-5.75139E-14
 -1      1269 1.69482E-02-1.13459E-02-5.74058E-14
 -1      1270 1.71995E-02-1.14302E-02-5.72919E-14
 -1      1271 1.74487E-02-1.15137E-02-5.72006E-14
 -1      1272 5.97915E-03-1.22453E-03-1.70632E-15
 -1      1273 5.71532E-03-1.05713E-03-1.71141E-15
 -1      1274 5.35342E-03-8.77086E-04-1.66787E-15
 -1      1275 4.92178E-03-6.89375E-04-1.58207E-15
 -1      1276 4.44550E-03-5.05619E-04-1.46454E-15
 -1      1277 3.93546E-03-3.36253E-04-1.31999E-15
 -1      1278 3.43283E-03-2.05966E-04-1.16441E-15
 -1      1279 2.92344E-03-1.21612E-04-1.00023E-15
 -1      1280 2.43195E-03-8.81813E-05-8.42913E-16
 -1      1281 1.97651E-03-1.04683E-04-7.04433E-16
 -1      1282 1.54727E-03-1.58911E-04-5.79967E-16
 -1      1283 1.16799E-03-2.40129E-04-4.72129E-16
 -1      1284 8.65896E-04-3.36315E-04-3.86535E-16
 -1      1285 6.54084E-04-4.44062E-04-3.21435E-16
 -1      1286 5.42975E-04-5.71489E-04-2.75259E-16
 -1      1287 5.48787E-04-7.26883E-04-2.48594E-16
 -1      1288 6.77971E-04-9.29886E-04-2.39019E-16
 -1      1289 9.34476E-04-1.20064E-03-2.47730E-16
 -1      1290 1.30788E-03-1.55048E-03-2.77630E-16
 -1      1291 1.78640E-03-1.97671E-03-3.34300E-16
 -1      1292 2.35599E-03-2.43440E-03-4.17120E-16
 -1      1293 2.98944E-03-2.81880E-03-5.18384E-16
 -1      1294 3.68142E-03-3.01040E-03-6.42498E-16
 -1      1295 4.36388E-03-2.93012E-03-7.87727E-16
 -1      1296 4.95710E-03-2.65630E-03-9.48270E-16
 -1      1297 5.43762E-03-2.32530E-03-1.11770E-15
 -1      1298 5.80707E-03-2.01515E-03-1.28798E-15
 -1      1299 6.05035E-03-1.76011E-03-1.44653E-15
 -1      1300 6.15565E-03-1.56242E-03-1.56771E-15
 -1      1301 6.13195E-03-1.38973E-03-1.65646E-15
 -1      1302 2.01808E-04-7.96833E-05 1.16416E-17
 -1      1303 1.18323E-04-1.96404E-05 2.15485E-18
 -1      1304 1.34176E-04-3.07117E-05 4.63496E-18
 -1      1305 9.30332E-05-1.94509E-05-2.31748E-18
 -1      1306 1.04020E-04-1.75288E-05-7.18284E-19
 -1      1307 2.23012E-04-4.74982E-05-1.04354E-18
 -1      1308 8.08020E-05-3.49392E-05-5.40746E-18
 -1      1309 8.52099E-05-2.78823E-05-4.43168E-18
 -1      1310 1.73986E-04-5.53464E-05-9.86624E-18
 -1      1311 8.18807E-05-5.10818E-05-7.60297E-18
 -1      1312 8.00722E-05-4.53315E-05-7.07442E-18
 -1      1313 1.55804E-04-8.32250E-05-1.62766E-17
 -1      1314 9.15383E-05-5.74695E-05-8.98533E-18
 -1      1315 8.62367E-05-5.67066E-05-8.74138E-18
 -1      1316 1.65572E-04-1.05873E-04-2.08031E-17
 -1      1317 1.03826E-04-5.16431E-05-1.03812E-17
 -1      1318 9.78824E-05-5.62251E-05-1.01779E-17
 -1      1319 1.90687E-04-1.08894E-04-2.43539E-17
 -1      1320 1.13801E-04-3.64467E-05-1.12622E-17
 -1      1321 1.09355E-04-4.45404E-05-1.10860E-17
 -1      1322 2.17440E-04-9.07017E-05-2.71728E-17
 -1      1323 1.19445E-04-1.70760E-05-1.22515E-17
 -1      1324 1.17183E-04-2.63954E-05-1.20617E-17
 -1      1325 2.36654E-04-5.84832E-05-2.94767E-17
 -1      1326 1.20901E-04 2.32623E-06-1.27123E-17
 -1      1327 1.20605E-04-6.60522E-06-1.26310E-17
 -1      1328 2.45811E-04-2.13290E-05-3.13741E-17
 -1      1329 1.19261E-04 1.95639E-05-1.33086E-17
 -1      1330 1.20357E-04 1.17589E-05-1.32137E-17
 -1      1331 2.46403E-04 1.43551E-05-3.27836E-17
 -1      1332 1.15808E-04 3.38114E-05-1.32679E-17
 -1      1333 1.17659E-04 2.73314E-05-1.33086E-17
 -1      1334 2.41277E-04 4.53679E-05-3.35561E-17
 -1      1335 1.11466E-04 4.58669E-05-1.27258E-17
 -1      1336 1.13613E-04 4.02637E-05-1.29833E-17
 -1      1337 2.33030E-04 7.15885E-05-3.32037E-17
 -1      1338 1.07291E-04 5.62319E-05-1.14383E-17
 -1      1339 1.09142E-04 5.11976E-05-1.20211E-17
 -1      1340 2.23695E-04 9.41505E-05-3.16858E-17
 -1      1341 1.04657E-04 6.61963E-05-8.89046E-18
 -1      1342 1.05312E-04 6.10029E-05-1.00289E-17
 -1      1343 2.15434E-04 1.14685E-04-2.81079E-17
 -1      1344 1.07199E-04 7.91667E-05-4.49944E-18
 -1      1345 1.04184E-04 7.16463E-05-6.77626E-18
 -1      1346 2.11752E-04 1.36770E-04-2.20500E-17
 -1      1347 1.45583E-04 1.16454E-04 3.19840E-18
 -1      1348 1.23572E-04 9.61163E-05-1.62630E-18
 -1      1349 2.32772E-04 1.73786E-04-1.39456E-17
 -1      1350 3.06861E-04 2.36462E-04-1.35525E-18
 -1      1351 5.26359E-04-1.94183E-04 2.49502E-17
 -1      1352 7.36478E-04-2.56922E-04 2.89618E-17
 -1      1353 9.50761E-04-3.18866E-04 2.78640E-17
 -1      1354 1.17536E-03-3.88975E-04 2.12910E-17
 -1      1355 7.55818E-04-2.37151E-04 1.53144E-17
 -1      1356 1.41270E-03-4.79520E-04 1.01373E-17
 -1      1357 1.66721E-03-6.05699E-04-8.26704E-18
 -1      1358 1.15262E-03-3.75723E-04-3.52366E-18
 -1      1359 1.91178E-03-7.64402E-04-2.98698E-17
 -1      1360 2.17188E-03-9.86469E-04-5.82759E-17
 -1      1361 1.55941E-03-6.03335E-04-4.32868E-17
 -1      1362 3.01424E-03-1.94606E-03-1.55447E-16
 -1      1363 3.20535E-03-2.27610E-03-2.00659E-16
 -1      1364 3.39121E-03-2.63005E-03-2.59504E-16
 -1      1365 3.55432E-03-2.92959E-03-3.28486E-16
 -1      1366 3.10737E-03-2.42166E-03-2.68150E-16
 -1      1367 3.69886E-03-3.13763E-03-4.09449E-16
 -1      1368 3.83244E-03-3.21486E-03-5.01931E-16
 -1      1369 3.51914E-03-3.02087E-03-4.14084E-16
 -1      1370 3.98395E-03-3.14610E-03-6.15014E-16
 -1      1371 4.15232E-03-2.96145E-03-7.42814E-16
 -1      1372 3.93594E-03-3.15927E-03-6.10135E-16
 -1      1373 4.34960E-03-2.70176E-03-8.83137E-16
 -1      1374 4.56851E-03-2.43267E-03-1.03742E-15
 -1      1375 4.37744E-03-2.77129E-03-8.64190E-16
 -1      1376 4.81830E-03-2.17802E-03-1.21292E-15
 -1      1377 5.07698E-03-1.97945E-03-1.39979E-15
 -1      1378 4.84676E-03-2.22124E-03-1.17996E-15
 -1      1379 5.36250E-03-1.83646E-03-1.62164E-15
 -1      1380 5.63673E-03-1.76501E-03-1.85320E-15
 -1      1381 5.35038E-03-1.82784E-03-1.57784E-15
 -1      1382 5.90569E-03-1.75645E-03-2.10883E-15
 -1      1383 6.15470E-03-1.79674E-03-2.37427E-15
 -1      1384 5.84733E-03-1.70966E-03-2.05787E-15
 -1      1385 6.39470E-03-1.87570E-03-2.66589E-15
 -1      1386 6.61480E-03-1.97932E-03-2.96891E-15
 -1      1387 6.30309E-03-1.81031E-03-2.60845E-15
 -1      1388 6.81847E-03-2.09694E-03-3.28616E-15
 -1      1389 7.00792E-03-2.22346E-03-3.61847E-15
 -1      1390 6.70954E-03-2.02591E-03-3.22478E-15
 -1      1391 7.18664E-03-2.35402E-03-3.96624E-15
 -1      1392 7.35633E-03-2.48692E-03-4.33048E-15
 -1      1393 7.07081E-03-2.28293E-03-3.89757E-15
 -1      1394 7.51940E-03-2.62030E-03-4.70908E-15
 -1      1395 7.67711E-03-2.75367E-03-5.10451E-15
 -1      1396 7.40156E-03-2.55071E-03-4.63205E-15
 -1      1397 7.83089E-03-2.88652E-03-5.51748E-15
 -1      1398 7.98162E-03-3.01872E-03-5.94711E-15
 -1      1399 7.71296E-03-2.81850E-03-5.43104E-15
 -1      1400 8.13013E-03-3.15023E-03-6.39407E-15
 -1      1401 8.27696E-03-3.28105E-03-6.85823E-15
 -1      1402 8.01266E-03-3.08342E-03-6.29619E-15
 -1      1403 8.42256E-03-3.41127E-03-7.33879E-15
 -1      1404 8.56729E-03-3.54095E-03-7.83562E-15
 -1      1405 8.30563E-03-3.34529E-03-7.22974E-15
 -1      1406 8.71138E-03-3.67019E-03-8.35076E-15
 -1      1407 8.85503E-03-3.79903E-03-8.88565E-15
 -1      1408 8.59487E-03-3.60473E-03-8.22896E-15
 -1      1409 8.99835E-03-3.92758E-03-9.43229E-15
 -1      1410 9.14147E-03-4.05587E-03-9.99388E-15
 -1      1411 8.88214E-03-3.86245E-03-9.29747E-15
 -1      1412 9.28445E-03-4.18397E-03-1.05724E-14
 -1      1413 9.42734E-03-4.31192E-03-1.11671E-14
 -1      1414 9.16843E-03-4.11903E-03-1.04275E-14
 -1      1415 9.57732E-03-4.44614E-03-1.18113E-14
 -1      1416 9.72727E-03-4.58027E-03-1.24727E-14
 -1      1417 9.46141E-03-4.38131E-03-1.16537E-14
 -1      1418 9.87008E-03-4.70796E-03-1.31134E-14
 -1      1419 1.00129E-02-4.83560E-03-1.37672E-14
 -1      1420 9.75423E-03-4.64317E-03-1.29429E-14
 -1      1421 1.01557E-02-4.96323E-03-1.44356E-14
 -1      1422 1.02985E-02-5.09083E-03-1.51159E-14
 -1      1423 1.00399E-02-4.89845E-03-1.42550E-14
 -1      1424 1.04413E-02-5.21843E-03-1.58034E-14
 -1      1425 1.05842E-02-5.34604E-03-1.65008E-14
 -1      1426 1.03255E-02-5.15366E-03-1.56117E-14
 -1      1427 1.07270E-02-5.47365E-03-1.72111E-14
 -1      1428 1.08699E-02-5.60127E-03-1.79348E-14
 -1      1429 1.06112E-02-5.40887E-03-1.70127E-14
 -1      1430 1.10128E-02-5.72889E-03-1.86706E-14
 -1      1431 1.11557E-02-5.85654E-03-1.94178E-14
 -1      1432 1.08969E-02-5.66411E-03-1.84623E-14
 -1      1433 1.12986E-02-5.98419E-03-2.01840E-14
 -1      1434 1.14414E-02-6.11186E-03-2.09676E-14
 -1      1435 1.11827E-02-5.91939E-03-1.99657E-14
 -1      1436 1.15843E-02-6.23953E-03-2.17546E-14
 -1      1437 1.17272E-02-6.36722E-03-2.25456E-14
 -1      1438 1.14685E-02-6.17473E-03-2.15177E-14
 -1      1439 1.18701E-02-6.49492E-03-2.33429E-14
 -1      1440 1.20130E-02-6.62263E-03-2.41420E-14
 -1      1441 1.17542E-02-6.43011E-03-2.30976E-14
 -1      1442 1.21559E-02-6.75035E-03-2.49444E-14
 -1      1443 1.22988E-02-6.87808E-03-2.57511E-14
 -1      1444 1.20400E-02-6.68553E-03-2.46936E-14
 -1      1445 1.24417E-02-7.00581E-03-2.65536E-14
 -1      1446 1.25846E-02-7.13355E-03-2.73541E-14
 -1      1447 1.23258E-02-6.94099E-03-2.62972E-14
 -1      1448 1.27275E-02-7.26129E-03-2.81586E-14
 -1      1449 1.28703E-02-7.38904E-03-2.89575E-14
 -1      1450 1.26116E-02-7.19647E-03-2.79015E-14
 -1      1451 1.30132E-02-7.51680E-03-2.97514E-14
 -1      1452 1.31561E-02-7.64455E-03-3.05426E-14
 -1      1453 1.28973E-02-7.45197E-03-2.94978E-14
 -1      1454 1.32990E-02-7.77231E-03-3.13344E-14
 -1      1455 1.34419E-02-7.90007E-03-3.21307E-14
 -1      1456 1.31831E-02-7.70748E-03-3.10852E-14
 -1      1457 1.35919E-02-8.03422E-03-3.29691E-14
 -1      1458 1.37419E-02-8.16838E-03-3.38089E-14
 -1      1459 1.34760E-02-7.96939E-03-3.27176E-14
 -1      1460 1.38848E-02-8.29614E-03-3.46068E-14
 -1      1461 1.40276E-02-8.42391E-03-3.54067E-14
 -1      1462 1.37689E-02-8.23131E-03-3.43581E-14
 -1      1463 1.41705E-02-8.55168E-03-3.62121E-14
 -1      1464 1.43134E-02-8.67945E-03-3.70236E-14
 -1      1465 1.40546E-02-8.48685E-03-3.59701E-14
 -1      1466 1.44562E-02-8.80722E-03-3.78381E-14
 -1      1467 1.45991E-02-8.93498E-03-3.86581E-14
 -1      1468 1.43403E-02-8.74238E-03-3.75985E-14
 -1      1469 1.47420E-02-9.06275E-03-3.94873E-14
 -1      1470 1.48848E-02-9.19052E-03-4.03209E-14
 -1      1471 1.46260E-02-8.99792E-03-3.92507E-14
 -1      1472 1.50277E-02-9.31829E-03-4.11629E-14
 -1      1473 1.51705E-02-9.44606E-03-4.20142E-14
 -1      1474 1.49118E-02-9.25346E-03-4.09263E-14
 -1      1475 1.53134E-02-9.57383E-03-4.28730E-14
 -1      1476 1.54563E-02-9.70160E-03-4.37433E-14
 -1      1477 1.51975E-02-9.50900E-03-4.26330E-14
 -1      1478 1.55991E-02-9.82937E-03-4.46226E-14
 -1      1479 1.57420E-02-9.95714E-03-4.55079E-14
 -1      1480 1.54832E-02-9.76454E-03-4.43749E-14
 -1      1481 1.58848E-02-1.00849E-02-4.63951E-14
 -1      1482 1.60277E-02-1.02127E-02-4.72859E-14
 -1      1483 1.57689E-02-1.00201E-02-4.61479E-14
 -1      1484 1.61706E-02-1.03404E-02-4.81895E-14
 -1      1485 1.63134E-02-1.04682E-02-4.91113E-14
 -1      1486 1.60546E-02-1.02756E-02-4.79500E-14
 -1      1487 1.64563E-02-1.05960E-02-5.00507E-14
 -1      1488 1.65991E-02-1.07237E-02-5.10102E-14
 -1      1489 1.63404E-02-1.05311E-02-4.98032E-14
 -1      1490 1.67420E-02-1.08515E-02-5.19857E-14
 -1      1491 1.68848E-02-1.09793E-02-5.29632E-14
 -1      1492 1.66261E-02-1.07867E-02-5.17208E-14
 -1      1493 1.70277E-02-1.11070E-02-5.39434E-14
 -1      1494 1.71706E-02-1.12348E-02-5.49228E-14
 -1      1495 1.69118E-02-1.10422E-02-5.36663E-14
 -1      1496 1.72382E-02-1.13104E-02-5.55760E-14
 -1      1497 1.73810E-02-1.14382E-02-5.65433E-14
 -1      1498 1.72575E-02-1.13967E-02-5.65940E-14
 -1      1499 1.71223E-02-1.12456E-02-5.52924E-14
 -1      1500 5.76932E-04 4.00923E-04-3.14690E-17
 -1      1501 4.46937E-04 3.27379E-04-1.04897E-17
 -1      1502 4.01694E-04 2.93144E-04-1.97731E-17
 -1      1503 8.15611E-04 4.99810E-04-1.09762E-16
 -1      1504 6.99345E-04 4.56932E-04-6.46184E-17
 -1      1505 6.63791E-04 4.26080E-04-7.53249E-17
 -1      1506 1.03508E-03 5.49379E-04-2.37901E-16
 -1      1507 9.27164E-04 5.30167E-04-1.67353E-16
 -1      1508 9.05139E-04 5.03181E-04-1.78859E-16
 -1      1509 1.24265E-03 5.56249E-04-4.17486E-16
 -1      1510 1.13997E-03 5.57963E-04-3.21039E-16
 -1      1511 1.13151E-03 5.34195E-04-3.32091E-16
 -1      1512 1.44317E-03 5.22602E-04-6.51226E-16
 -1      1513 1.34350E-03 5.44417E-04-5.27356E-16
 -1      1514 1.34820E-03 5.23359E-04-5.37656E-16
 -1      1515 1.64073E-03 4.49215E-04-9.40667E-16
 -1      1516 1.54207E-03 4.90785E-04-7.88913E-16
 -1      1517 1.55946E-03 4.71966E-04-7.97654E-16
 -1      1518 1.83917E-03 3.37229E-04-1.28767E-15
 -1      1519 1.73960E-03 3.97874E-04-1.10675E-15
 -1      1520 1.76903E-03 3.80809E-04-1.11414E-15
 -1      1521 2.04210E-03 1.89133E-04-1.69532E-15
 -1      1522 1.93985E-03 2.67423E-04-1.48383E-15
 -1      1523 1.98040E-03 2.51586E-04-1.48898E-15
 -1      1524 2.25260E-03 9.03219E-06-2.16254E-15
 -1      1525 2.14623E-03 1.02732E-04-1.92148E-15
 -1      1526 2.19668E-03 8.75859E-05-1.92352E-15
 -1      1527 2.47285E-03-1.97676E-04-2.68938E-15
 -1      1528 2.36140E-03-9.13844E-05-2.41849E-15
 -1      1529 2.42027E-03-1.06329E-04-2.41815E-15
 -1      1530 2.70391E-03-4.24994E-04-3.27601E-15
 -1      1531 2.58699E-03-3.09136E-04-2.97532E-15
 -1      1532 2.65270E-03-3.24272E-04-2.97147E-15
 -1      1533 2.94583E-03-6.67087E-04-3.91885E-15
 -1      1534 2.82354E-03-5.44522E-04-3.59034E-15
 -1      1535 2.89452E-03-5.60115E-04-3.58298E-15
 -1      1536 3.19776E-03-9.18885E-04-4.61969E-15
 -1      1537 3.07061E-03-7.92031E-04-4.26242E-15
 -1      1538 3.14544E-03-8.08221E-04-4.25132E-15
 -1      1539 3.45836E-03-1.17639E-03-5.37683E-15
 -1      1540 3.32708E-03-1.04711E-03-4.99096E-15
 -1      1541 3.40454E-03-1.06393E-03-4.97642E-15
 -1      1542 3.72604E-03-1.43676E-03-6.18948E-15
 -1      1543 3.59142E-03-1.30634E-03-5.77579E-15
 -1      1544 3.67057E-03-1.32376E-03-5.75821E-15
 -1      1545 3.99923E-03-1.69811E-03-7.06131E-15
 -1      1546 3.86204E-03-1.56738E-03-6.61866E-15
 -1      1547 3.94218E-03-1.58532E-03-6.59700E-15
 -1      1548 4.27652E-03-1.95937E-03-7.98698E-15
 -1      1549 4.13744E-03-1.82879E-03-7.51746E-15
 -1      1550 4.21810E-03-1.84715E-03-7.49235E-15
 -1      1551 4.55677E-03-2.21999E-03-8.96477E-15
 -1      1552 4.41634E-03-2.08978E-03-8.46945E-15
 -1      1553 4.49720E-03-2.10847E-03-8.44158E-15
 -1      1554 4.83906E-03-2.47976E-03-9.99674E-15
 -1      1555 4.69771E-03-2.34998E-03-9.47392E-15
 -1      1556 4.77859E-03-2.36892E-03-9.44438E-15
 -1      1557 5.12273E-03-2.73869E-03-1.10829E-14
 -1      1558 4.98076E-03-2.60933E-03-1.05326E-14
 -1      1559 5.06157E-03-2.62844E-03-1.05009E-14
 -1      1560 5.40730E-03-2.99685E-03-1.22258E-14
 -1      1561 5.26493E-03-2.86785E-03-1.16469E-14
 -1      1562 5.34563E-03-2.88710E-03-1.16133E-14
 -1      1563 5.69243E-03-3.25438E-03-1.34217E-14
 -1      1564 5.54981E-03-3.12568E-03-1.28171E-14
 -1      1565 5.63039E-03-3.14502E-03-1.27824E-14
 -1      1566 5.97791E-03-3.51140E-03-1.46725E-14
 -1      1567 5.83514E-03-3.38294E-03-1.40408E-14
 -1      1568 5.91560E-03-3.40234E-03-1.40046E-14
 -1      1569 6.26359E-03-3.76802E-03-1.59751E-14
 -1      1570 6.12073E-03-3.63975E-03-1.53175E-14
 -1      1571 6.20109E-03-3.65919E-03-1.52793E-14
 -1      1572 6.54937E-03-4.02435E-03-1.73177E-14
 -1      1573 6.40647E-03-3.89622E-03-1.66405E-14
 -1      1574 6.48675E-03-3.91568E-03-1.66010E-14
 -1      1575 6.83521E-03-4.28046E-03-1.87090E-14
 -1      1576 6.69228E-03-4.15243E-03-1.80088E-14
 -1      1577 6.77250E-03-4.17191E-03-1.79688E-14
 -1      1578 7.12106E-03-4.53640E-03-2.01421E-14
 -1      1579 6.97813E-03-4.40844E-03-1.94199E-14
 -1      1580 7.05830E-03-4.42793E-03-1.93798E-14
 -1      1581 7.40691E-03-4.79221E-03-2.16238E-14
 -1      1582 7.26399E-03-4.66432E-03-2.08756E-14
 -1      1583 7.34411E-03-4.68381E-03-2.08321E-14
 -1      1584 7.69275E-03-5.04794E-03-2.31463E-14
 -1      1585 7.54983E-03-4.92009E-03-2.23810E-14
 -1      1586 7.62993E-03-4.93959E-03-2.23311E-14
 -1      1587 7.97858E-03-5.30361E-03-2.47080E-14
 -1      1588 7.83567E-03-5.17578E-03-2.39214E-14
 -1      1589 7.91574E-03-5.19528E-03-2.38695E-14
 -1      1590 8.26439E-03-5.55923E-03-2.63126E-14
 -1      1591 8.12148E-03-5.43142E-03-2.55069E-14
 -1      1592 8.20154E-03-5.45093E-03-2.54473E-14
 -1      1593 8.55018E-03-5.81482E-03-2.79436E-14
 -1      1594 8.40729E-03-5.68703E-03-2.71246E-14
 -1      1595 8.48733E-03-5.70653E-03-2.70587E-14
 -1      1596 8.83596E-03-6.07039E-03-2.95970E-14
 -1      1597 8.69307E-03-5.94260E-03-2.87683E-14
 -1      1598 8.77311E-03-5.96211E-03-2.86949E-14
 -1      1599 9.12173E-03-6.32594E-03-3.12600E-14
 -1      1600 8.97884E-03-6.19816E-03-3.04267E-14
 -1      1601 9.05888E-03-6.21766E-03-3.03492E-14
 -1      1602 9.40748E-03-6.58148E-03-3.29416E-14
 -1      1603 9.26460E-03-6.45371E-03-3.20980E-14
 -1      1604 9.34463E-03-6.47321E-03-3.20185E-14
 -1      1605 9.69323E-03-6.83701E-03-3.46318E-14
 -1      1606 9.55035E-03-6.70924E-03-3.37863E-14
 -1      1607 9.63038E-03-6.72874E-03-3.37023E-14
 -1      1608 9.97896E-03-7.09254E-03-3.63259E-14
 -1      1609 9.83610E-03-6.96478E-03-3.54783E-14
 -1      1610 9.91612E-03-6.98427E-03-3.53948E-14
 -1      1611 1.02647E-02-7.34807E-03-3.80305E-14
 -1      1612 1.01218E-02-7.22030E-03-3.71756E-14
 -1      1613 1.02019E-02-7.23980E-03-3.70955E-14
 -1      1614 1.05504E-02-7.60360E-03-3.97556E-14
 -1      1615 1.04076E-02-7.47583E-03-3.88913E-14
 -1      1616 1.04876E-02-7.49533E-03-3.88123E-14
 -1      1617 1.08361E-02-7.85912E-03-4.15005E-14
 -1      1618 1.06933E-02-7.73136E-03-4.06263E-14
 -1      1619 1.07733E-02-7.75086E-03-4.05483E-14
 -1      1620 1.11219E-02-8.11465E-03-4.32507E-14
 -1      1621 1.09790E-02-7.98689E-03-4.23744E-14
 -1      1622 1.10590E-02-8.00638E-03-4.22973E-14
 -1      1623 1.14076E-02-8.37018E-03-4.50154E-14
 -1      1624 1.12647E-02-8.24241E-03-4.41288E-14
 -1      1625 1.13447E-02-8.26191E-03-4.40581E-14
 -1      1626 1.16933E-02-8.62570E-03-4.68250E-14
 -1      1627 1.15504E-02-8.49794E-03-4.59176E-14
 -1      1628 1.16305E-02-8.51744E-03-4.58467E-14
 -1      1629 1.19790E-02-8.88123E-03-4.86394E-14
 -1      1630 1.18362E-02-8.75347E-03-4.77350E-14
 -1      1631 1.19162E-02-8.77296E-03-4.76526E-14
 -1      1632 1.22647E-02-9.13676E-03-5.04244E-14
 -1      1633 1.21219E-02-9.00900E-03-4.95331E-14
 -1      1634 1.22019E-02-9.02849E-03-4.94469E-14
 -1      1635 1.25505E-02-9.39229E-03-5.21911E-14
 -1      1636 1.24076E-02-9.26453E-03-5.13108E-14
 -1      1637 1.24876E-02-9.28402E-03-5.12233E-14
 -1      1638 1.28362E-02-9.64783E-03-5.39364E-14
 -1      1639 1.26933E-02-9.52006E-03-5.30650E-14
 -1      1640 1.27733E-02-9.53955E-03-5.29843E-14
 -1      1641 1.31219E-02-9.90336E-03-5.56866E-14
 -1      1642 1.29790E-02-9.77559E-03-5.48111E-14
 -1      1643 1.30590E-02-9.79509E-03-5.47344E-14
 -1      1644 1.33032E-02-1.00474E-02-5.65986E-14
 -1      1645 1.36293E-02-1.01635E-02-5.66918E-14
 -1      1646 1.35037E-02-1.01213E-02-5.66838E-14
 -1      1647 1.38806E-02-1.02478E-02-5.67048E-14
 -1      1648 1.37549E-02-1.02056E-02-5.66968E-14
 -1      1649 1.35684E-02-1.00739E-02-5.59322E-14
 -1      1650 1.41318E-02-1.03320E-02-5.67299E-14
 -1      1651 1.40062E-02-1.02899E-02-5.67162E-14
 -1      1652 1.38197E-02-1.01582E-02-5.59445E-14
 -1      1653 1.43831E-02-1.04163E-02-5.67533E-14
 -1      1654 1.42575E-02-1.03742E-02-5.67412E-14
 -1      1655 1.40710E-02-1.02425E-02-5.59641E-14
 -1      1656 1.46301E-02-1.04992E-02-5.67886E-14
 -1      1657 1.45066E-02-1.04578E-02-5.67700E-14
 -1      1658 1.43201E-02-1.03260E-02-5.59883E-14
 -1      1659 1.48814E-02-1.05835E-02-5.68210E-14
 -1      1660 1.47558E-02-1.05413E-02-5.68065E-14
 -1      1661 1.45692E-02-1.04096E-02-5.60163E-14
 -1      1662 1.51327E-02-1.06678E-02-5.68437E-14
 -1      1663 1.50071E-02-1.06256E-02-5.68331E-14
 -1      1664 1.48205E-02-1.04939E-02-5.60401E-14
 -1      1665 1.53840E-02-1.07520E-02-5.68548E-14
 -1      1666 1.52583E-02-1.07099E-02-5.68500E-14
 -1      1667 1.50718E-02-1.05782E-02-5.60495E-14
 -1      1668 1.56352E-02-1.08363E-02-5.68394E-14
 -1      1669 1.55096E-02-1.07942E-02-5.68522E-14
 -1      1670 1.53231E-02-1.06625E-02-5.60508E-14
 -1      1671 1.58865E-02-1.09206E-02-5.68150E-14
 -1      1672 1.57609E-02-1.08785E-02-5.68253E-14
 -1      1673 1.55743E-02-1.07467E-02-5.60323E-14
 -1      1674 1.61335E-02-1.10035E-02-5.67800E-14
 -1      1675 1.60100E-02-1.09620E-02-5.68000E-14
 -1      1676 1.58235E-02-1.08303E-02-5.59977E-14
 -1      1677 1.63848E-02-1.10877E-02-5.67362E-14
 -1      1678 1.62592E-02-1.10456E-02-5.67633E-14
 -1      1679 1.60726E-02-1.09139E-02-5.59558E-14
 -1      1680 1.66361E-02-1.11720E-02-5.66549E-14
 -1      1681 1.65104E-02-1.11299E-02-5.67009E-14
 -1      1682 1.63239E-02-1.09982E-02-5.58913E-14
 -1      1683 1.68873E-02-1.12563E-02-5.65458E-14
 -1      1684 1.67617E-02-1.12142E-02-5.66011E-14
 -1      1685 1.65752E-02-1.10825E-02-5.57981E-14
 -1      1686 1.71353E-02-1.13476E-02-5.65399E-14
 -1      1687 1.70096E-02-1.13055E-02-5.65951E-14
 -1      1688 1.68231E-02-1.11737E-02-5.57932E-14
 -1      1689 1.70676E-02-1.12720E-02-5.58933E-14
 -1      1690 5.92701E-03-1.27396E-03-1.82143E-15
 -1      1691 6.03861E-03-1.32812E-03-1.80793E-15
 -1      1692 5.60251E-03-1.13603E-03-1.81040E-15
 -1      1693 5.76525E-03-1.20336E-03-1.82216E-15
 -1      1694 5.16097E-03-9.66827E-04-1.75743E-15
 -1      1695 5.37431E-03-1.05757E-03-1.79510E-15
 -1      1696 4.69664E-03-7.39917E-04-1.63742E-15
 -1      1697 4.91618E-03-8.40007E-04-1.69018E-15
 -1      1698 4.18176E-03-5.15762E-04-1.50154E-15
 -1      1699 4.41453E-03-6.25710E-04-1.57285E-15
 -1      1700 3.69850E-03-2.97208E-04-1.32883E-15
 -1      1701 3.91996E-03-3.91567E-04-1.40694E-15
 -1      1702 3.25288E-03-1.42242E-04-1.15234E-15
 -1      1703 3.45559E-03-2.05047E-04-1.23220E-15
 -1      1704 2.79581E-03-5.23663E-05-9.72258E-16
 -1      1705 3.00414E-03-8.22401E-05-1.05699E-15
 -1      1706 2.37435E-03-5.29315E-05-8.08164E-16
 -1      1707 2.56217E-03-4.51112E-05-8.79722E-16
 -1      1708 1.96259E-03-1.14728E-04-6.62637E-16
 -1      1709 2.15541E-03-7.72964E-05-7.26930E-16
 -1      1710 1.54593E-03-2.17178E-04-5.37453E-16
 -1      1711 1.73293E-03-1.66375E-04-5.93113E-16
 -1      1712 1.15867E-03-3.31809E-04-4.31662E-16
 -1      1713 1.33248E-03-2.78634E-04-4.77943E-16
 -1      1714 8.42580E-04-4.29360E-04-3.53172E-16
 -1      1715 9.75837E-04-3.85131E-04-3.87047E-16
 -1      1716 6.19571E-04-5.18010E-04-2.92606E-16
 -1      1717 7.10668E-04-4.78026E-04-3.18697E-16
 -1      1718 5.17677E-04-6.06055E-04-2.51826E-16
 -1      1719 5.48332E-04-5.64928E-04-2.68354E-16
 -1      1720 5.58483E-04-7.11063E-04-2.27560E-16
 -1      1721 5.21539E-04-6.58995E-04-2.36302E-16
 -1      1722 7.53741E-04-8.80682E-04-2.21672E-16
 -1      1723 6.43269E-04-7.94764E-04-2.22939E-16
 -1      1724 1.09633E-03-1.13403E-03-2.31921E-16
 -1      1725 9.21611E-04-1.00440E-03-2.24681E-16
 -1      1726 1.56374E-03-1.50200E-03-2.63217E-16
 -1      1727 1.33409E-03-1.31549E-03-2.45741E-16
 -1      1728 2.11216E-03-1.98176E-03-3.19596E-16
 -1      1729 1.85231E-03-1.74784E-03-2.89455E-16
 -1      1730 2.69945E-03-2.51301E-03-4.02564E-16
 -1      1731 2.42688E-03-2.26793E-03-3.60497E-16
 -1      1732 3.26537E-03-2.93681E-03-5.06865E-16
 -1      1733 3.00994E-03-2.76577E-03-4.54877E-16
 -1      1734 3.80973E-03-3.08392E-03-6.44911E-16
 -1      1735 3.52922E-03-3.05041E-03-5.74600E-16
 -1      1736 3.45512E-03-3.02904E-03-5.05807E-16
 -1      1737 4.38356E-03-2.90679E-03-8.13992E-16
 -1      1738 4.13535E-03-3.02564E-03-7.37149E-16
 -1      1739 4.90534E-03-2.52506E-03-1.00435E-15
 -1      1740 4.66009E-03-2.71430E-03-9.14253E-16
 -1      1741 5.39777E-03-2.15767E-03-1.19241E-15
 -1      1742 5.19099E-03-2.32150E-03-1.10696E-15
 -1      1743 5.79484E-03-1.83707E-03-1.39500E-15
 -1      1744 5.61610E-03-1.97165E-03-1.30352E-15
 -1      1745 6.06352E-03-1.63614E-03-1.56318E-15
 -1      1746 5.96226E-03-1.71834E-03-1.49019E-15
 -1      1747 6.17610E-03-1.49663E-03-1.70869E-15
 -1      1748 6.14197E-03-1.55058E-03-1.65306E-15
 -1      1749 6.12943E-03-1.39056E-03-1.78640E-15
 -1      1750 6.17098E-03-1.43781E-03-1.74965E-15
 -1      1751 2.00908E-03-1.00148E-03-9.80661E-17
 -1      1752 2.45497E-03-1.25367E-03-8.42967E-17
 -1      1753 2.69012E-03-1.55705E-03-1.20157E-16
 -1      1754 2.57769E-03-1.64814E-03-1.66669E-16
 -1      1755 6.09400E-03-1.40238E-03-1.90626E-15
 -1      1756 4.97087E-03-9.94516E-04-1.81912E-15
 -1      1757 1.33832E-02-1.00669E-02-5.65239E-14
 -1      1758 1.33223E-02-9.97730E-03-5.57692E-14
 -1      1759 5.83840E-03-1.31318E-03-1.92715E-15
 -1      1760 5.44460E-03-1.18860E-03-1.90852E-15
 -1      1761 4.45697E-03-7.46603E-04-1.68077E-15
 -1      1762 3.95446E-03-4.85436E-04-1.51349E-15
 -1      1763 3.50339E-03-2.48400E-04-1.31736E-15
 -1      1764 3.07668E-03-8.54359E-05-1.12231E-15
 -1      1765 2.68254E-03-1.93892E-05-9.33335E-16
 -1      1766 2.29024E-03-4.85621E-05-7.60839E-16
 -1      1767 1.89806E-03-1.47420E-04-6.13902E-16
 -1      1768 1.48768E-03-2.78576E-04-4.90086E-16
 -1      1769 1.10450E-03-4.00098E-04-3.92007E-16
 -1      1770 7.89312E-04-4.91278E-04-3.18439E-16
 -1      1771 5.80361E-04-5.56439E-04-2.64345E-16
 -1      1772 5.11299E-04-6.11625E-04-2.27547E-16
 -1      1773 6.06484E-04-6.90712E-04-2.08126E-16
 -1      1774 8.72995E-04-8.47729E-04-2.04804E-16
 -1      1775 1.29572E-03-1.11271E-03-2.17311E-16
 -1      1776 1.83211E-03-1.51943E-03-2.49692E-16
 -1      1777 2.41805E-03-2.05995E-03-3.06531E-16
 -1      1778 2.98441E-03-2.63164E-03-3.91045E-16
 -1      1779 4.44144E-03-2.81187E-03-8.62049E-16
 -1      1780 4.94269E-03-2.38015E-03-1.07409E-15
 -1      1781 5.43527E-03-1.98822E-03-1.29564E-15
 -1      1782 5.83430E-03-1.71227E-03-1.51156E-15
 -1      1783 6.09471E-03-1.55104E-03-1.70344E-15
 -1      1784 6.18459E-03-1.46996E-03-1.84108E-15
 -1      1785 3.48781E-04-1.14768E-04 1.48129E-17
 -1      1786 3.94268E-03-3.10562E-03-6.63749E-16
 -1      1787 2.42198E-04-1.04814E-04-1.86618E-17
 -1      1788 2.69563E-04-9.20039E-05-1.30646E-17
 -1      1789 3.11084E-04-8.67835E-05-6.78982E-18
 -1      1790 3.61618E-04-9.50556E-05 1.00289E-18
 -1      1791 3.79986E-04-1.34807E-04-1.78487E-17
 -1      1792 2.54528E-04-1.59416E-04-3.36374E-17
 -1      1793 2.37515E-04-1.52826E-04-3.07642E-17
 -1      1794 3.00642E-04-1.50505E-04-3.87738E-17
 -1      1795 2.77436E-04-1.58650E-04-3.62530E-17
 -1      1796 3.55112E-04-2.08211E-04-5.26922E-17
 -1      1797 3.42774E-04-1.15470E-04-4.27989E-17
 -1      1798 3.23689E-04-1.35404E-04-4.09964E-17
 -1      1799 4.24152E-04-1.81518E-04-5.96582E-17
 -1      1800 3.69130E-04-6.62070E-05-4.62412E-17
 -1      1801 3.58276E-04-9.16473E-05-4.45336E-17
 -1      1802 4.79001E-04-1.27771E-04-6.55807E-17
 -1      1803 3.78867E-04-1.41097E-05-4.88975E-17
 -1      1804 3.75847E-04-3.98951E-05-4.76642E-17
 -1      1805 5.08645E-04-6.26711E-05-7.04054E-17
 -1      1806 3.76023E-04 3.41046E-05-5.08355E-17
 -1      1807 3.78605E-04 1.07701E-05-4.98326E-17
 -1      1808 5.15622E-04 1.79586E-06-7.39697E-17
 -1      1809 3.65722E-04 7.53516E-05-5.14454E-17
 -1      1810 3.71423E-04 5.55521E-05-5.12557E-17
 -1      1811 5.07201E-04 5.93259E-05-7.62059E-17
 -1      1812 3.51651E-04 1.11429E-04-5.08626E-17
 -1      1813 3.58813E-04 9.40900E-05-5.14589E-17
 -1      1814 4.90330E-04 1.09290E-04-7.70597E-17
 -1      1815 3.37280E-04 1.43523E-04-4.79353E-17
 -1      1816 3.44196E-04 1.27905E-04-4.96429E-17
 -1      1817 4.70093E-04 1.53504E-04-7.56502E-17
 -1      1818 3.26223E-04 1.74958E-04-4.19993E-17
 -1      1819 3.30950E-04 1.59230E-04-4.54687E-17
 -1      1820 4.51054E-04 1.94529E-04-7.09339E-17
 -1      1821 3.25495E-04 2.11853E-04-3.21059E-17
 -1      1822 3.23737E-04 1.92498E-04-3.78116E-17
 -1      1823 4.38624E-04 2.37073E-04-6.22332E-17
 -1      1824 3.69191E-04 2.63332E-04-2.46520E-17
 -1      1825 3.45471E-04 2.35318E-04-2.97885E-17
 -1      1826 4.55862E-04 2.84966E-04-5.38713E-17
 -1      1827 5.03620E-04 3.38596E-04-4.68240E-17
 -1      1828 3.96392E-04-1.11657E-04 1.01915E-17
 -1      1829 7.62229E-04 4.44987E-04-1.26675E-16
 -1      1830 6.34761E-04 3.98268E-04-8.10170E-17
 -1      1831 6.10415E-04 3.70927E-04-8.53403E-17
 -1      1832 2.23160E-03-1.50670E-03-1.97081E-16
 -1      1833 2.54867E-03-1.91163E-03-2.45084E-16
 -1      1834 9.11842E-04-2.97711E-04-1.40133E-17
 -1      1835 1.08126E-03-3.80071E-04-3.20382E-17
 -1      1836 1.23481E-03-4.78280E-04-5.33292E-17
 -1      1837 1.39610E-03-6.14430E-04-8.11525E-17
 -1      1838 9.58264E-04-3.88421E-04-6.09593E-17
 -1      1839 3.28103E-03-2.82432E-03-3.88443E-16
 -1      1840 3.52172E-03-3.05505E-03-4.71330E-16
 -1      1841 3.91026E-03-3.14041E-03-6.28214E-16
 -1      1842 4.17016E-03-3.00903E-03-7.46609E-16
 -1      1843 5.36088E-03-1.83082E-03-1.51241E-15
 -1      1844 5.58620E-03-1.70819E-03-1.73471E-15
 -1      1845 5.80839E-03-1.66125E-03-1.98315E-15
 -1      1846 6.01295E-03-1.67304E-03-2.24166E-15
 -1      1847 5.80566E-03-1.62444E-03-1.90748E-15
 -1      1848 6.21500E-03-1.73307E-03-2.52660E-15
 -1      1849 6.40681E-03-1.82534E-03-2.82343E-15
 -1      1850 6.16075E-03-1.66556E-03-2.44325E-15
 -1      1851 6.58858E-03-1.93688E-03-3.13322E-15
 -1      1852 6.76421E-03-2.06085E-03-3.45714E-15
 -1      1853 6.49216E-03-1.85390E-03-3.04196E-15
 -1      1854 6.93221E-03-2.19089E-03-3.79575E-15
 -1      1855 7.09612E-03-2.32441E-03-4.15016E-15
 -1      1856 6.80908E-03-2.10192E-03-3.69384E-15
 -1      1857 7.25468E-03-2.45899E-03-4.51928E-15
 -1      1858 7.41039E-03-2.59373E-03-4.90382E-15
 -1      1859 7.11671E-03-2.36867E-03-4.40555E-15
 -1      1860 7.56258E-03-2.72802E-03-5.30472E-15
 -1      1861 7.71288E-03-2.86148E-03-5.72185E-15
 -1      1862 7.41709E-03-2.63809E-03-5.17945E-15
 -1      1863 7.86102E-03-2.99416E-03-6.15615E-15
 -1      1864 8.00798E-03-3.12593E-03-6.60554E-15
 -1      1865 7.71197E-03-2.90509E-03-6.01608E-15
 -1      1866 8.15367E-03-3.25699E-03-7.07436E-15
 -1      1867 8.29866E-03-3.38731E-03-7.55792E-15
 -1      1868 8.00303E-03-3.16872E-03-6.91943E-15
 -1      1869 8.44294E-03-3.51709E-03-8.05627E-15
 -1      1870 8.58683E-03-3.64635E-03-8.57397E-15
 -1      1871 8.29165E-03-3.42943E-03-7.88635E-15
 -1      1872 8.73034E-03-3.77523E-03-9.10715E-15
 -1      1873 8.87363E-03-3.90377E-03-9.65669E-15
 -1      1874 8.57882E-03-3.68799E-03-8.91930E-15
 -1      1875 9.01674E-03-4.03207E-03-1.02245E-14
 -1      1876 9.15975E-03-4.16015E-03-1.08048E-14
 -1      1877 8.86517E-03-3.94509E-03-1.00204E-14
 -1      1878 9.30981E-03-4.29449E-03-1.14325E-14
 -1      1879 9.45983E-03-4.42869E-03-1.20768E-14
 -1      1880 9.15825E-03-4.20766E-03-1.12142E-14
 -1      1881 9.60268E-03-4.55643E-03-1.27042E-14
 -1      1882 9.74551E-03-4.68410E-03-1.33460E-14
 -1      1883 9.45113E-03-4.46968E-03-1.24687E-14
 -1      1884 9.88834E-03-4.81174E-03-1.39994E-14
 -1      1885 1.00312E-02-4.93935E-03-1.46675E-14
 -1      1886 9.73681E-03-4.72503E-03-1.37495E-14
 -1      1887 1.01740E-02-5.06696E-03-1.53448E-14
 -1      1888 1.03168E-02-5.19455E-03-1.60325E-14
 -1      1889 1.00225E-02-4.98025E-03-1.50792E-14
 -1      1890 1.04597E-02-5.32216E-03-1.67337E-14
 -1      1891 1.06025E-02-5.44976E-03-1.74455E-14
 -1      1892 1.03082E-02-5.23544E-03-1.64549E-14
 -1      1893 1.07454E-02-5.57738E-03-1.81720E-14
 -1      1894 1.08883E-02-5.70501E-03-1.89085E-14
 -1      1895 1.05939E-02-5.49066E-03-1.78804E-14
 -1      1896 1.10311E-02-5.83265E-03-1.96582E-14
 -1      1897 1.11740E-02-5.96031E-03-2.04215E-14
 -1      1898 1.08796E-02-5.74592E-03-1.93550E-14
 -1      1899 1.13169E-02-6.08798E-03-2.11938E-14
 -1      1900 1.14598E-02-6.21566E-03-2.19731E-14
 -1      1901 1.11654E-02-6.00123E-03-2.08730E-14
 -1      1902 1.16027E-02-6.34335E-03-2.27590E-14
 -1      1903 1.17456E-02-6.47105E-03-2.35512E-14
 -1      1904 1.14511E-02-6.25659E-03-2.24257E-14
 -1      1905 1.18884E-02-6.59876E-03-2.43484E-14
 -1      1906 1.20313E-02-6.72648E-03-2.51466E-14
 -1      1907 1.17369E-02-6.51200E-03-2.40029E-14
 -1      1908 1.21742E-02-6.85421E-03-2.59459E-14
 -1      1909 1.23171E-02-6.98195E-03-2.67448E-14
 -1      1910 1.20226E-02-6.76744E-03-2.55966E-14
 -1      1911 1.24600E-02-7.10969E-03-2.75468E-14
 -1      1912 1.26029E-02-7.23743E-03-2.83474E-14
 -1      1913 1.23084E-02-7.02291E-03-2.71946E-14
 -1      1914 1.27457E-02-7.36518E-03-2.91440E-14
 -1      1915 1.28886E-02-7.49294E-03-2.99399E-14
 -1      1916 1.25941E-02-7.27840E-03-2.87912E-14
 -1      1917 1.30315E-02-7.62070E-03-3.07368E-14
 -1      1918 1.31744E-02-7.74846E-03-3.15319E-14
 -1      1919 1.28799E-02-7.53391E-03-3.03860E-14
 -1      1920 1.33244E-02-7.88261E-03-3.23672E-14
 -1      1921 1.34744E-02-8.01676E-03-3.32074E-14
 -1      1922 1.31728E-02-7.79582E-03-3.20211E-14
 -1      1923 1.36173E-02-8.14453E-03-3.40128E-14
 -1      1924 1.37601E-02-8.27229E-03-3.48190E-14
 -1      1925 1.34657E-02-8.05774E-03-3.36617E-14
 -1      1926 1.39030E-02-8.40006E-03-3.56277E-14
 -1      1927 1.40459E-02-8.52783E-03-3.64428E-14
 -1      1928 1.37514E-02-8.31327E-03-3.52832E-14
 -1      1929 1.41887E-02-8.65560E-03-3.72604E-14
 -1      1930 1.43316E-02-8.78337E-03-3.80834E-14
 -1      1931 1.40371E-02-8.56881E-03-3.69199E-14
 -1      1932 1.44744E-02-8.91114E-03-3.89138E-14
 -1      1933 1.46173E-02-9.03891E-03-3.97499E-14
 -1      1934 1.43228E-02-8.82435E-03-3.85748E-14
 -1      1935 1.47602E-02-9.16668E-03-4.05896E-14
 -1      1936 1.49030E-02-9.29445E-03-4.14383E-14
 -1      1937 1.46086E-02-9.07989E-03-4.02513E-14
 -1      1938 1.50459E-02-9.42221E-03-4.22944E-14
 -1      1939 1.51887E-02-9.54998E-03-4.31568E-14
 -1      1940 1.48943E-02-9.33543E-03-4.19529E-14
 -1      1941 1.53316E-02-9.67775E-03-4.40306E-14
 -1      1942 1.54745E-02-9.80552E-03-4.49131E-14
 -1      1943 1.51800E-02-9.59097E-03-4.36866E-14
 -1      1944 1.56173E-02-9.93329E-03-4.57987E-14
 -1      1945 1.57602E-02-1.00611E-02-4.66961E-14
 -1      1946 1.54657E-02-9.84651E-03-4.54508E-14
 -1      1947 1.59030E-02-1.01888E-02-4.76056E-14
 -1      1948 1.60459E-02-1.03166E-02-4.85231E-14
 -1      1949 1.57514E-02-1.01020E-02-4.72537E-14
 -1      1950 1.61888E-02-1.04444E-02-4.94518E-14
 -1      1951 1.63316E-02-1.05721E-02-5.03928E-14
 -1      1952 1.60372E-02-1.03576E-02-4.90949E-14
 -1      1953 1.64745E-02-1.06999E-02-5.13512E-14
 -1      1954 1.66173E-02-1.08277E-02-5.23122E-14
 -1      1955 1.63229E-02-1.06131E-02-5.09813E-14
 -1      1956 1.67602E-02-1.09554E-02-5.32793E-14
 -1      1957 1.69030E-02-1.10832E-02-5.42492E-14
 -1      1958 1.66086E-02-1.08686E-02-5.28981E-14
 -1      1959 1.69515E-02-1.11398E-02-5.47470E-14
 -1      1960 1.70191E-02-1.12154E-02-5.53944E-14
 -1      1961 1.68969E-02-1.11663E-02-5.53471E-14
 -1      1962 1.67999E-02-1.10530E-02-5.43543E-14
 -1      1963 5.06040E-04-1.46911E-04 4.39102E-18
 -1      1964 1.19482E-03 5.06533E-04-3.99061E-16
 -1      1965 1.07768E-03 5.01191E-04-3.08483E-16
 -1      1966 1.42331E-03 4.86357E-04-6.19872E-16
 -1      1967 1.30982E-03 5.01629E-04-5.02955E-16
 -1      1968 1.26726E-03 4.75879E-04-4.67386E-16
 -1      1969 1.64711E-03 4.25371E-04-8.95083E-16
 -1      1970 1.53554E-03 4.60959E-04-7.50410E-16
 -1      1971 1.50633E-03 4.46173E-04-7.02868E-16
 -1      1972 1.86957E-03 3.24404E-04-1.22668E-15
 -1      1973 1.75826E-03 3.79814E-04-1.05369E-15
 -1      1974 1.74134E-03 3.75426E-04-9.92858E-16
 -1      1975 2.09382E-03 1.85530E-04-1.61692E-15
 -1      1976 1.98124E-03 2.59533E-04-1.41424E-15
 -1      1977 1.97530E-03 2.64550E-04-1.33978E-15
 -1      1978 2.32256E-03 1.25546E-05-2.06656E-15
 -1      1979 2.20744E-03 1.03030E-04-1.83425E-15
 -1      1980 2.21107E-03 1.16034E-04-1.74530E-15
 -1      1981 2.55780E-03-1.89181E-04-2.57552E-15
 -1      1982 2.43925E-03-8.50641E-05-2.31394E-15
 -1      1983 2.45109E-03-6.57706E-05-2.20982E-15
 -1      1984 2.80067E-03-4.13478E-04-3.14348E-15
 -1      1985 2.67824E-03-2.98877E-04-2.85229E-15
 -1      1986 2.69699E-03-2.75035E-04-2.73368E-15
 -1      1987 3.05144E-03-6.54125E-04-3.76783E-15
 -1      1988 2.92510E-03-5.32101E-04-3.44874E-15
 -1      1989 2.94953E-03-5.05280E-04-3.31469E-15
 -1      1990 3.30968E-03-9.05602E-04-4.44957E-15
 -1      1991 3.17970E-03-7.78797E-04-4.10147E-15
 -1      1992 3.20870E-03-7.50265E-04-3.95320E-15
 -1      1993 3.57449E-03-1.16350E-03-5.18796E-15
 -1      1994 3.44136E-03-1.03397E-03-4.81136E-15
 -1      1995 3.47388E-03-1.00465E-03-4.64807E-15
 -1      1996 3.84478E-03-1.42462E-03-5.98245E-15
 -1      1997 3.70906E-03-1.29381E-03-5.57832E-15
 -1      1998 3.74419E-03-1.26430E-03-5.39922E-15
 -1      1999 4.11944E-03-1.68685E-03-6.83538E-15
 -1      2000 3.98166E-03-1.55569E-03-6.40170E-15
 -1      2001 4.01863E-03-1.52635E-03-6.20841E-15
 -1      2002 4.39742E-03-1.94896E-03-7.74287E-15
 -1      2003 4.25809E-03-1.81798E-03-7.28294E-15
 -1      2004 4.29629E-03-1.78898E-03-7.07381E-15
 -1      2005 4.67787E-03-2.21033E-03-8.70544E-15
 -1      2006 4.53740E-03-2.07976E-03-8.21714E-15
 -1      2007 4.57636E-03-2.05116E-03-7.99464E-15
 -1      2008 4.96009E-03-2.47072E-03-9.72224E-15
 -1      2009 4.81881E-03-2.34065E-03-9.20726E-15
 -1      2010 4.85820E-03-2.31243E-03-8.97086E-15
 -1      2011 5.24356E-03-2.73013E-03-1.07944E-14
 -1      2012 5.10170E-03-2.60055E-03-1.02519E-14
 -1      2013 5.14131E-03-2.57265E-03-1.00027E-14
 -1      2014 5.52787E-03-2.98866E-03-1.19219E-14
 -1      2015 5.38563E-03-2.85950E-03-1.13503E-14
 -1      2016 5.42531E-03-2.83189E-03-1.10894E-14
 -1      2017 5.81275E-03-3.24646E-03-1.31046E-14
 -1      2018 5.67025E-03-3.11765E-03-1.25067E-14
 -1      2019 5.70993E-03-3.09025E-03-1.22318E-14
 -1      2020 6.09799E-03-3.50368E-03-1.43410E-14
 -1      2021 5.95533E-03-3.37514E-03-1.37160E-14
 -1      2022 5.99496E-03-3.34792E-03-1.34281E-14
 -1      2023 6.38347E-03-3.76045E-03-1.56291E-14
 -1      2024 6.24071E-03-3.63212E-03-1.49778E-14
 -1      2025 6.28028E-03-3.60502E-03-1.46778E-14
 -1      2026 6.66910E-03-4.01688E-03-1.69632E-14
 -1      2027 6.52627E-03-3.88870E-03-1.62921E-14
 -1      2028 6.56578E-03-3.86170E-03-1.59794E-14
 -1      2029 6.95481E-03-4.27305E-03-1.83425E-14
 -1      2030 6.81195E-03-4.14499E-03-1.76462E-14
 -1      2031 6.85139E-03-4.11806E-03-1.73255E-14
 -1      2032 7.24056E-03-4.52904E-03-1.97651E-14
 -1      2033 7.09768E-03-4.40107E-03-1.90488E-14
 -1      2034 7.13707E-03-4.37419E-03-1.87165E-14
 -1      2035 7.52634E-03-4.78489E-03-2.12280E-14
 -1      2036 7.38345E-03-4.65698E-03-2.04910E-14
 -1      2037 7.42280E-03-4.63014E-03-2.01491E-14
 -1      2038 7.81213E-03-5.04064E-03-2.27345E-14
 -1      2039 7.66923E-03-4.91278E-03-2.19751E-14
 -1      2040 7.70855E-03-4.88596E-03-2.16214E-14
 -1      2041 8.09791E-03-5.29632E-03-2.42797E-14
 -1      2042 7.95502E-03-5.16849E-03-2.35031E-14
 -1      2043 7.99431E-03-5.14169E-03-2.31350E-14
 -1      2044 8.38369E-03-5.55195E-03-2.58612E-14
 -1      2045 8.24080E-03-5.42414E-03-2.50649E-14
 -1      2046 8.28007E-03-5.39736E-03-2.46868E-14
 -1      2047 8.66946E-03-5.80755E-03-2.74726E-14
 -1      2048 8.52658E-03-5.67975E-03-2.66647E-14
 -1      2049 8.56583E-03-5.65297E-03-2.62717E-14
 -1      2050 8.95522E-03-6.06312E-03-2.91103E-14
 -1      2051 8.81234E-03-5.93533E-03-2.82892E-14
 -1      2052 8.85159E-03-5.90856E-03-2.78874E-14
 -1      2053 9.24098E-03-6.31867E-03-3.07634E-14
 -1      2054 9.09810E-03-6.19089E-03-2.99342E-14
 -1      2055 9.13734E-03-6.16412E-03-2.95232E-14
 -1      2056 9.52673E-03-6.57421E-03-3.24328E-14
 -1      2057 9.38385E-03-6.44644E-03-3.15970E-14
 -1      2058 9.42308E-03-6.41967E-03-3.11765E-14
 -1      2059 9.81247E-03-6.82974E-03-3.41182E-14
 -1      2060 9.66960E-03-6.70198E-03-3.32737E-14
 -1      2061 9.70882E-03-6.67521E-03-3.28481E-14
 -1      2062 1.00982E-02-7.08527E-03-3.58114E-14
 -1      2063 9.95534E-03-6.95751E-03-3.49625E-14
 -1      2064 9.99456E-03-6.93074E-03-3.45310E-14
 -1      2065 1.03839E-02-7.34080E-03-3.75204E-14
 -1      2066 1.02411E-02-7.21304E-03-3.66659E-14
 -1      2067 1.02803E-02-7.18627E-03-3.62300E-14
 -1      2068 1.06697E-02-7.59633E-03-3.92443E-14
 -1      2069 1.05268E-02-7.46856E-03-3.83803E-14
 -1      2070 1.05660E-02-7.44180E-03-3.79453E-14
 -1      2071 1.09554E-02-7.85185E-03-4.09852E-14
 -1      2072 1.08125E-02-7.72409E-03-4.01116E-14
 -1      2073 1.08517E-02-7.69732E-03-3.96753E-14
 -1      2074 1.12411E-02-8.10738E-03-4.27402E-14
 -1      2075 1.10982E-02-7.97962E-03-4.18609E-14
 -1      2076 1.11375E-02-7.95285E-03-4.14217E-14
 -1      2077 1.15268E-02-8.36291E-03-4.45111E-14
 -1      2078 1.13840E-02-8.23514E-03-4.36241E-14
 -1      2079 1.14232E-02-8.20837E-03-4.31838E-14
 -1      2080 1.18125E-02-8.61843E-03-4.63003E-14
 -1      2081 1.16697E-02-8.49067E-03-4.54031E-14
 -1      2082 1.17089E-02-8.46390E-03-4.49605E-14
 -1      2083 1.20983E-02-8.87396E-03-4.81011E-14
 -1      2084 1.19554E-02-8.74620E-03-4.72014E-14
 -1      2085 1.19946E-02-8.71943E-03-4.67506E-14
 -1      2086 1.23840E-02-9.12949E-03-4.98841E-14
 -1      2087 1.22411E-02-9.00173E-03-4.89945E-14
 -1      2088 1.22803E-02-8.97496E-03-4.85421E-14
 -1      2089 1.26697E-02-9.38502E-03-5.16611E-14
 -1      2090 1.25268E-02-9.25726E-03-5.07762E-14
 -1      2091 1.25660E-02-9.23049E-03-5.03251E-14
 -1      2092 1.29554E-02-9.64055E-03-5.34230E-14
 -1      2093 1.28125E-02-9.51279E-03-5.25448E-14
 -1      2094 1.28518E-02-9.48602E-03-5.20990E-14
 -1      2095 1.32103E-02-9.87281E-03-5.50344E-14
 -1      2096 1.30674E-02-9.74504E-03-5.41564E-14
 -1      2097 1.31067E-02-9.71828E-03-5.37197E-14
 -1      2098 1.33307E-02-9.92726E-03-5.51928E-14
 -1      2099 1.40101E-02-1.01529E-02-5.52015E-14
 -1      2100 1.38844E-02-1.01108E-02-5.51934E-14
 -1      2101 1.37588E-02-1.00686E-02-5.51868E-14
 -1      2102 1.36331E-02-1.00265E-02-5.51797E-14
 -1      2103 1.36979E-02-9.97903E-03-5.44213E-14
 -1      2104 1.34564E-02-9.96940E-03-5.51950E-14
 -1      2105 1.42571E-02-1.02358E-02-5.52186E-14
 -1      2106 1.41336E-02-1.01943E-02-5.52080E-14
 -1      2107 1.39470E-02-1.00626E-02-5.44338E-14
 -1      2108 1.45083E-02-1.03200E-02-5.52431E-14
 -1      2109 1.43827E-02-1.02779E-02-5.52328E-14
 -1      2110 1.41962E-02-1.01462E-02-5.44464E-14
 -1      2111 1.47596E-02-1.04043E-02-5.52557E-14
 -1      2112 1.46340E-02-1.03622E-02-5.52495E-14
 -1      2113 1.44475E-02-1.02305E-02-5.44616E-14
 -1      2114 1.50109E-02-1.04886E-02-5.52577E-14
 -1      2115 1.48853E-02-1.04465E-02-5.52585E-14
 -1      2116 1.46987E-02-1.03147E-02-5.44668E-14
 -1      2117 1.52622E-02-1.05729E-02-5.52503E-14
 -1      2118 1.51365E-02-1.05307E-02-5.52569E-14
 -1      2119 1.49500E-02-1.03990E-02-5.44626E-14
 -1      2120 1.55134E-02-1.06572E-02-5.52246E-14
 -1      2121 1.53878E-02-1.06150E-02-5.52393E-14
 -1      2122 1.52013E-02-1.04833E-02-5.44457E-14
 -1      2123 1.57605E-02-1.07400E-02-5.51810E-14
 -1      2124 1.56370E-02-1.06986E-02-5.52045E-14
 -1      2125 1.54504E-02-1.05669E-02-5.44110E-14
 -1      2126 1.60117E-02-1.08243E-02-5.51265E-14
 -1      2127 1.58861E-02-1.07822E-02-5.51559E-14
 -1      2128 1.56996E-02-1.06505E-02-5.43574E-14
 -1      2129 1.62630E-02-1.09086E-02-5.50447E-14
 -1      2130 1.61374E-02-1.08665E-02-5.50870E-14
 -1      2131 1.59508E-02-1.07347E-02-5.42864E-14
 -1      2132 1.65143E-02-1.09929E-02-5.49428E-14
 -1      2133 1.63886E-02-1.09507E-02-5.49956E-14
 -1      2134 1.62021E-02-1.08190E-02-5.41934E-14
 -1      2135 9.81739E-04 4.93558E-04-2.42292E-16
 -1      2136 8.60379E-04 4.68756E-04-1.74557E-16
 -1      2137 8.42351E-04 4.43681E-04-1.78460E-16
 -1      2138 1.04457E-03 4.71671E-04-2.97397E-16
 -1      2139 5.31110E-03-1.24001E-03-2.02190E-15
 -1      2140 5.53387E-03-1.30549E-03-2.04237E-15
 -1      2141 4.27595E-03-7.44574E-04-1.73369E-15
 -1      2142 4.52576E-03-8.72350E-04-1.80539E-15
 -1      2143 5.74125E-03-1.37104E-03-2.07081E-15
 -1      2144 5.90350E-03-1.40742E-03-2.07329E-15
 -1      2145 5.01414E-03-2.21906E-03-1.16347E-15
 -1      2146 4.77366E-03-2.42924E-03-1.05225E-15
 -1      2147 2.26857E-04-1.39427E-04-2.73626E-17
 -1      2148 2.28061E-04-1.22700E-04-2.32155E-17
 -1      2149 3.01406E-04-1.63010E-04-3.28513E-17
 -1      2150 3.01259E-04-1.98495E-04-4.40593E-17
 -1      2151 3.75392E-03-4.42535E-04-1.52984E-15
 -1      2152 3.97298E-03-5.81344E-04-1.63061E-15
 -1      2153 3.33400E-03-1.95544E-04-1.30714E-15
 -1      2154 3.52044E-03-3.01249E-04-1.40762E-15
 -1      2155 2.95547E-03-4.41153E-05-1.10724E-15
 -1      2156 3.13112E-03-1.06653E-04-1.20504E-15
 -1      2157 2.56985E-03 5.33927E-06-8.88368E-16
 -1      2158 2.72967E-03 1.57626E-06-9.79983E-16
 -1      2159 2.23915E-03-4.89130E-05-7.24328E-16
 -1      2160 2.40434E-03-1.08592E-05-8.04017E-16
 -1      2161 2.47242E-03 1.13778E-05-8.45976E-16
 -1      2162 1.82351E-03-1.83949E-04-5.64544E-16
 -1      2163 2.00793E-03-1.16916E-04-6.29732E-16
 -1      2164 1.42224E-03-3.29222E-04-4.43669E-16
 -1      2165 1.61196E-03-2.59417E-04-4.97771E-16
 -1      2166 1.03569E-03-4.51031E-04-3.50177E-16
 -1      2167 1.20780E-03-3.99974E-04-3.89283E-16
 -1      2168 7.34283E-04-5.24361E-04-2.84119E-16
 -1      2169 8.66062E-04-4.95037E-04-3.13778E-16
 -1      2170 5.45458E-04-5.60180E-04-2.33039E-16
 -1      2171 6.17443E-04-5.48851E-04-2.53443E-16
 -1      2172 5.15947E-04-5.77789E-04-1.99287E-16
 -1      2173 5.09351E-04-5.71355E-04-2.12981E-16
 -1      2174 6.73640E-04-6.50828E-04-1.86407E-16
 -1      2175 5.78022E-04-6.13426E-04-1.91504E-16
 -1      2176 1.01438E-03-7.85813E-04-1.79612E-16
 -1      2177 8.33373E-04-7.05303E-04-1.79659E-16
 -1      2178 1.51020E-03-1.07268E-03-1.91362E-16
 -1      2179 1.26471E-03-9.21026E-04-1.83488E-16
 -1      2180 1.95468E-03-1.27639E-03-1.82607E-16
 -1      2181 2.81918E-03-2.20463E-03-2.74493E-16
 -1      2182 3.05045E-03-2.56572E-03-3.41930E-16
 -1      2183 4.38160E-03-2.81906E-03-8.49418E-16
 -1      2184 5.89179E-03-1.62035E-03-1.64360E-15
 -1      2185 5.71806E-03-1.70834E-03-1.54107E-15
 -1      2186 6.12335E-03-1.51390E-03-1.84572E-15
 -1      2187 6.02964E-03-1.55318E-03-1.74943E-15
 -1      2188 6.18570E-03-1.46943E-03-1.97856E-15
 -1      2189 6.18429E-03-1.48266E-03-1.93323E-15
 -1      2190 4.77580E-03-9.97406E-04-1.87789E-15
 -1      2191 5.01585E-03-1.11690E-03-1.95119E-15
 -1      2192 6.04692E-03-1.44217E-03-2.07087E-15
 -1      2193 6.13556E-03-1.45720E-03-2.04823E-15
 -1      2194 1.85368E-03-1.07898E-03-1.47370E-16
 -1      2195 5.63013E-03-1.40010E-03-2.18666E-15
 -1      2196 5.14013E-03-1.22903E-03-2.08192E-15
 -1      2197 1.63307E-03-8.30518E-04-1.13706E-16
 -1      2198 6.68228E-04-2.03177E-04-2.29038E-18
 -1      2199 3.69463E-03-3.14933E-03-5.39255E-16
 -1      2200 1.25059E-03-6.57131E-04-1.19255E-16
 -1      2201 4.62827E-03-2.54307E-03-9.90039E-16
 -1      2202 5.63643E-03-1.72672E-03-1.54454E-15
 -1      2203 5.53754E-03-1.83453E-03-1.41661E-15
 -1      2204 5.32337E-03-1.99859E-03-1.29737E-15
 -1      2205 5.16617E-03-2.04910E-03-1.27901E-15
 -1      2206 1.33955E-02-9.87983E-03-5.44372E-14
 -1      2207 1.67667E-02-1.11041E-02-5.51718E-14
 -1      2208 1.66444E-02-1.10550E-02-5.51221E-14
 -1      2209 1.64579E-02-1.09233E-02-5.43218E-14
 -1      2210 1.67182E-02-1.10475E-02-5.46753E-14
 -1      2211 4.07628E-03-6.92492E-04-1.74960E-15
 -1      2212 4.60495E-03-9.84223E-04-1.93263E-15
 -1      2213 5.97618E-03-1.47526E-03-2.21511E-15
 -1      2214 1.18190E-03-7.64600E-04-1.57108E-16
 -1      2215 7.73275E-04-6.11347E-04-1.63053E-16
 -1      2216 5.45233E-04-5.49601E-04-1.77692E-16
 -1      2217 5.20327E-04-5.39896E-04-2.03017E-16
 -1      2218 6.69173E-04-5.32536E-04-2.49409E-16
 -1      2219 9.49957E-04-4.78755E-04-3.11844E-16
 -1      2220 1.31708E-03-3.70515E-04-3.96533E-16
 -1      2221 2.12653E-03-7.22928E-05-6.67787E-16
 -1      2222 2.81087E-03-8.99499E-06-1.05496E-15
 -1      2223 3.18489E-03-1.50312E-04-1.28895E-15
 -1      2224 3.58177E-03-3.82828E-04-1.51718E-15
 -1      2225 1.71915E-03-2.22684E-04-5.12272E-16
 -1      2226 6.16795E-03-1.48757E-03-2.14172E-15
 -1      2227 6.16297E-03-1.49900E-03-1.98074E-15
 -1      2228 5.95465E-03-1.56697E-03-1.78154E-15
 -1      2229 4.73532E-03-2.38189E-03-1.07612E-15
 -1      2230 6.37311E-04-2.13343E-04-2.03288E-17
 -1      2231 5.60489E-04-2.01629E-04-8.80914E-17
 -1      2232 5.17431E-04-2.30084E-04-8.35242E-17
 -1      2233 4.68753E-04-2.51360E-04-7.84827E-17
 -1      2234 4.22318E-04-2.60783E-04-7.30888E-17
 -1      2235 6.00834E-04-2.81650E-04-1.11171E-16
 -1      2236 6.54374E-04-4.91168E-05-1.03324E-16
 -1      2237 6.44246E-04-8.83881E-05-1.00221E-16
 -1      2238 6.55190E-04 2.49291E-05-1.07905E-16
 -1      2239 6.57418E-04-1.10187E-05-1.05818E-16
 -1      2240 8.03371E-04-2.69686E-05-1.44077E-16
 -1      2241 6.39394E-04 8.89673E-05-1.10765E-16
 -1      2242 6.48625E-04 5.80860E-05-1.09613E-16
 -1      2243 7.95273E-04 5.26841E-05-1.49918E-16
 -1      2244 6.15044E-04 1.45688E-04-1.11348E-16
 -1      2245 6.27704E-04 1.18255E-04-1.11212E-16
 -1      2246 7.70508E-04 1.21779E-04-1.53035E-16
 -1      2247 5.88717E-04 1.96612E-04-1.08529E-16
 -1      2248 6.01714E-04 1.71689E-04-1.10467E-16
 -1      2249 7.38484E-04 1.83065E-04-1.52967E-16
 -1      2250 5.65890E-04 2.45610E-04-1.01779E-16
 -1      2251 5.76461E-04 2.21148E-04-1.05927E-16
 -1      2252 7.06374E-04 2.39558E-04-1.48766E-16
 -1      2253 5.53865E-04 2.97918E-04-8.92434E-17
 -1      2254 5.57999E-04 2.71112E-04-9.63449E-17
 -1      2255 6.80601E-04 2.95632E-04-1.39103E-16
 -1      2256 5.88397E-04 3.45845E-04-8.70614E-17
 -1      2257 5.70814E-04 3.20698E-04-8.91485E-17
 -1      2258 6.86853E-04 3.47422E-04-1.32611E-16
 -1      2259 7.20554E-04 3.94490E-04-1.32449E-16
 -1      2260 7.73242E-04-3.37995E-04-6.32632E-17
 -1      2261 8.61756E-04-4.22318E-04-8.91960E-17
 -1      2262 5.70303E-03-1.66086E-03-1.66968E-15
 -1      2263 5.52677E-03-1.75928E-03-1.53915E-15
 -1      2264 1.02732E-03-5.66475E-04-1.19709E-16
 -1      2265 4.97579E-03-2.12038E-03-1.24803E-15
 -1      2266 3.91404E-03-6.59455E-04-1.79929E-15
 -1      2267 4.17761E-03-8.22069E-04-1.90997E-15
 -1      2268 6.13431E-03-1.60613E-03-2.34774E-15
 -1      2269 6.27338E-03-1.67803E-03-2.63582E-15
 -1      2270 6.40977E-03-1.77270E-03-2.94102E-15
 -1      2271 6.54823E-03-1.88707E-03-3.25404E-15
 -1      2272 6.68669E-03-2.01017E-03-3.58276E-15
 -1      2273 6.82872E-03-2.13993E-03-3.92529E-15
 -1      2274 6.58219E-03-1.92774E-03-3.47067E-15
 -1      2275 6.97056E-03-2.27185E-03-4.28286E-15
 -1      2276 7.11444E-03-2.40566E-03-4.65548E-15
 -1      2277 6.83620E-03-2.18110E-03-4.15918E-15
 -1      2278 7.25777E-03-2.53943E-03-5.04257E-15
 -1      2279 7.40203E-03-2.67309E-03-5.44539E-15
 -1      2280 7.10575E-03-2.44426E-03-4.90635E-15
 -1      2281 7.54569E-03-2.80606E-03-5.86385E-15
 -1      2282 7.68969E-03-2.93833E-03-6.29877E-15
 -1      2283 7.38372E-03-2.70893E-03-5.71274E-15
 -1      2284 7.83322E-03-3.06985E-03-6.74905E-15
 -1      2285 7.97682E-03-3.20066E-03-7.21714E-15
 -1      2286 7.66585E-03-2.97200E-03-6.58169E-15
 -1      2287 8.12011E-03-3.33086E-03-7.69967E-15
 -1      2288 8.26338E-03-3.46049E-03-8.19937E-15
 -1      2289 7.94991E-03-3.23281E-03-7.51349E-15
 -1      2290 8.40646E-03-3.58969E-03-8.71526E-15
 -1      2291 8.54951E-03-3.71847E-03-9.24738E-15
 -1      2292 8.23481E-03-3.49165E-03-8.51188E-15
 -1      2293 8.69245E-03-3.84698E-03-9.79837E-15
 -1      2294 8.83537E-03-3.97522E-03-1.03641E-14
 -1      2295 8.52009E-03-3.74900E-03-9.57763E-15
 -1      2296 8.98538E-03-4.10968E-03-1.09743E-14
 -1      2297 9.13538E-03-4.24398E-03-1.16005E-14
 -1      2298 8.81268E-03-4.01177E-03-1.07356E-14
 -1      2299 9.27821E-03-4.37177E-03-1.22113E-14
 -1      2300 9.42105E-03-4.49948E-03-1.28366E-14
 -1      2301 9.10536E-03-4.27389E-03-1.19563E-14
 -1      2302 9.56387E-03-4.62715E-03-1.34766E-14
 -1      2303 9.70670E-03-4.75477E-03-1.41272E-14
 -1      2304 9.39096E-03-4.52928E-03-1.32059E-14
 -1      2305 9.84954E-03-4.88238E-03-1.47894E-14
 -1      2306 9.99238E-03-5.00997E-03-1.54655E-14
 -1      2307 9.67660E-03-4.78451E-03-1.45047E-14
 -1      2308 1.01352E-02-5.13757E-03-1.61513E-14
 -1      2309 1.02781E-02-5.26516E-03-1.68502E-14
 -1      2310 9.96227E-03-5.03969E-03-1.58498E-14
 -1      2311 1.04209E-02-5.39277E-03-1.75605E-14
 -1      2312 1.05638E-02-5.52039E-03-1.82841E-14
 -1      2313 1.02480E-02-5.29488E-03-1.72445E-14
 -1      2314 1.07066E-02-5.64802E-03-1.90198E-14
 -1      2315 1.08495E-02-5.77566E-03-1.97649E-14
 -1      2316 1.05337E-02-5.55011E-03-1.86854E-14
 -1      2317 1.09924E-02-5.90331E-03-2.05206E-14
 -1      2318 1.11353E-02-6.03098E-03-2.12858E-14
 -1      2319 1.08194E-02-5.80540E-03-2.01724E-14
 -1      2320 1.12781E-02-6.15866E-03-2.20603E-14
 -1      2321 1.14210E-02-6.28635E-03-2.28396E-14
 -1      2322 1.11052E-02-6.06074E-03-2.16961E-14
 -1      2323 1.15639E-02-6.41406E-03-2.36249E-14
 -1      2324 1.17068E-02-6.54177E-03-2.44162E-14
 -1      2325 1.13909E-02-6.31612E-03-2.32509E-14
 -1      2326 1.18496E-02-6.66949E-03-2.52106E-14
 -1      2327 1.19925E-02-6.79722E-03-2.60056E-14
 -1      2328 1.16766E-02-6.57155E-03-2.48254E-14
 -1      2329 1.21354E-02-6.92496E-03-2.68045E-14
 -1      2330 1.22783E-02-7.05270E-03-2.76030E-14
 -1      2331 1.19624E-02-6.82701E-03-2.64166E-14
 -1      2332 1.24211E-02-7.18045E-03-2.83995E-14
 -1      2333 1.25640E-02-7.30820E-03-2.91973E-14
 -1      2334 1.22481E-02-7.08249E-03-2.80100E-14
 -1      2335 1.27069E-02-7.43595E-03-2.99951E-14
 -1      2336 1.28497E-02-7.56371E-03-3.07939E-14
 -1      2337 1.25339E-02-7.33800E-03-2.96060E-14
 -1      2338 1.29998E-02-7.69786E-03-3.16320E-14
 -1      2339 1.31498E-02-7.83201E-03-3.24703E-14
 -1      2340 1.28268E-02-7.59990E-03-3.12427E-14
 -1      2341 1.32926E-02-7.95978E-03-3.32754E-14
 -1      2342 1.34355E-02-8.08754E-03-3.40843E-14
 -1      2343 1.31196E-02-7.86182E-03-3.28887E-14
 -1      2344 1.35784E-02-8.21531E-03-3.48969E-14
 -1      2345 1.37212E-02-8.34308E-03-3.57149E-14
 -1      2346 1.34054E-02-8.11735E-03-3.45079E-14
 -1      2347 1.38641E-02-8.47085E-03-3.65365E-14
 -1      2348 1.40070E-02-8.59862E-03-3.73635E-14
 -1      2349 1.36911E-02-8.37289E-03-3.61513E-14
 -1      2350 1.41498E-02-8.72639E-03-3.81968E-14
 -1      2351 1.42927E-02-8.85416E-03-3.90330E-14
 -1      2352 1.39768E-02-8.62843E-03-3.78145E-14
 -1      2353 1.44355E-02-8.98193E-03-3.98754E-14
 -1      2354 1.45784E-02-9.10970E-03-4.07216E-14
 -1      2355 1.42625E-02-8.88397E-03-3.94945E-14
 -1      2356 1.47213E-02-9.23747E-03-4.15763E-14
 -1      2357 1.48641E-02-9.36524E-03-4.24371E-14
 -1      2358 1.45482E-02-9.13950E-03-4.11950E-14
 -1      2359 1.50070E-02-9.49301E-03-4.33014E-14
 -1      2360 1.51498E-02-9.62077E-03-4.41809E-14
 -1      2361 1.48340E-02-9.39504E-03-4.29199E-14
 -1      2362 1.52927E-02-9.74854E-03-4.50662E-14
 -1      2363 1.54356E-02-9.87631E-03-4.59573E-14
 -1      2364 1.51197E-02-9.65058E-03-4.46751E-14
 -1      2365 1.55784E-02-1.00041E-02-4.68618E-14
 -1      2366 1.57213E-02-1.01318E-02-4.77772E-14
 -1      2367 1.54054E-02-9.90612E-03-4.64689E-14
 -1      2368 1.58641E-02-1.02596E-02-4.86988E-14
 -1      2369 1.60070E-02-1.03874E-02-4.96304E-14
 -1      2370 1.56911E-02-1.01617E-02-4.82959E-14
 -1      2371 1.61498E-02-1.05152E-02-5.05708E-14
 -1      2372 1.62927E-02-1.06429E-02-5.15172E-14
 -1      2373 1.59768E-02-1.04172E-02-5.01609E-14
 -1      2374 1.32834E-02-9.77534E-03-5.36985E-14
 -1      2375 1.59657E-03 4.03189E-04-7.86846E-16
 -1      2376 1.47286E-03 4.28058E-04-6.55210E-16
 -1      2377 1.34809E-03 4.42488E-04-5.36924E-16
 -1      2378 1.22172E-03 4.46737E-04-4.31689E-16
 -1      2379 1.43596E-03 4.06727E-04-6.07628E-16
 -1      2380 2.08580E-03 2.01641E-04-1.45417E-15
 -1      2381 1.96353E-03 2.67033E-04-1.26585E-15
 -1      2382 2.33202E-03 4.33779E-05-1.87480E-15
 -1      2383 2.20845E-03 1.26929E-04-1.65677E-15
 -1      2384 2.20056E-03 1.35743E-04-1.56887E-15
 -1      2385 2.58237E-03-1.47242E-04-2.35367E-15
 -1      2386 2.45654E-03-4.82446E-05-2.10662E-15
 -1      2387 2.45645E-03-3.24236E-05-2.00409E-15
 -1      2388 2.83816E-03-3.63861E-04-2.89121E-15
 -1      2389 2.70953E-03-2.52708E-04-2.61516E-15
 -1      2390 2.71651E-03-2.31833E-04-2.49755E-15
 -1      2391 3.09976E-03-5.99729E-04-3.48682E-15
 -1      2392 2.96825E-03-4.79782E-04-3.18230E-15
 -1      2393 2.98167E-03-4.55575E-04-3.04963E-15
 -1      2394 3.36682E-03-8.48623E-04-4.13848E-15
 -1      2395 3.23268E-03-7.22882E-04-3.80541E-15
 -1      2396 3.25187E-03-6.96671E-04-3.65922E-15
 -1      2397 3.63858E-03-1.10544E-03-4.84676E-15
 -1      2398 3.50221E-03-9.76298E-04-4.48514E-15
 -1      2399 3.52642E-03-9.49001E-04-4.32422E-15
 -1      2400 3.91411E-03-1.36642E-03-5.61184E-15
 -1      2401 3.77597E-03-1.23559E-03-5.22233E-15
 -1      2402 3.80437E-03-1.20778E-03-5.04601E-15
 -1      2403 4.19251E-03-1.62903E-03-6.43490E-15
 -1      2404 4.05304E-03-1.49763E-03-6.01662E-15
 -1      2405 4.08478E-03-1.46966E-03-5.82508E-15
 -1      2406 4.47306E-03-1.89174E-03-7.31331E-15
 -1      2407 4.33259E-03-1.76043E-03-6.86681E-15
 -1      2408 4.36688E-03-1.73248E-03-6.66158E-15
 -1      2409 4.75515E-03-2.15377E-03-8.24679E-15
 -1      2410 4.61397E-03-2.02287E-03-7.77315E-15
 -1      2411 4.65011E-03-1.99502E-03-7.55337E-15
 -1      2412 5.03836E-03-2.41479E-03-9.23774E-15
 -1      2413 4.89666E-03-2.28442E-03-8.73516E-15
 -1      2414 4.93408E-03-2.25671E-03-8.50119E-15
 -1      2415 5.32235E-03-2.67474E-03-1.02841E-14
 -1      2416 5.18029E-03-2.54490E-03-9.75356E-15
 -1      2417 5.21855E-03-2.51735E-03-9.50650E-15
 -1      2418 5.60691E-03-2.93372E-03-1.13849E-14
 -1      2419 5.46458E-03-2.80435E-03-1.08277E-14
 -1      2420 5.50338E-03-2.77695E-03-1.05665E-14
 -1      2421 5.89185E-03-3.19189E-03-1.25424E-14
 -1      2422 5.74935E-03-3.06290E-03-1.19569E-14
 -1      2423 5.78846E-03-3.03563E-03-1.16834E-14
 -1      2424 6.17707E-03-3.44938E-03-1.37535E-14
 -1      2425 6.03444E-03-3.32071E-03-1.31417E-14
 -1      2426 6.07372E-03-3.29355E-03-1.28554E-14
 -1      2427 6.46248E-03-3.70636E-03-1.50175E-14
 -1      2428 6.31976E-03-3.57793E-03-1.43795E-14
 -1      2429 6.35912E-03-3.55086E-03-1.40817E-14
 -1      2430 6.74801E-03-3.96295E-03-1.63315E-14
 -1      2431 6.60523E-03-3.83470E-03-1.56683E-14
 -1      2432 6.64463E-03-3.80771E-03-1.53589E-14
 -1      2433 7.03363E-03-4.21924E-03-1.76884E-14
 -1      2434 6.89081E-03-4.09113E-03-1.70050E-14
 -1      2435 6.93020E-03-4.06419E-03-1.66840E-14
 -1      2436 7.31931E-03-4.47531E-03-1.90921E-14
 -1      2437 7.17646E-03-4.34730E-03-1.83851E-14
 -1      2438 7.21584E-03-4.32041E-03-1.80543E-14
 -1      2439 7.60501E-03-4.73123E-03-2.05332E-14
 -1      2440 7.46216E-03-4.60329E-03-1.98067E-14
 -1      2441 7.50151E-03-4.57643E-03-1.94659E-14
 -1      2442 7.89074E-03-4.98702E-03-2.20142E-14
 -1      2443 7.74788E-03-4.85914E-03-2.12697E-14
 -1      2444 7.78720E-03-4.83231E-03-2.09162E-14
 -1      2445 8.17648E-03-5.24273E-03-2.35350E-14
 -1      2446 8.03361E-03-5.11489E-03-2.27700E-14
 -1      2447 8.07292E-03-5.08808E-03-2.24061E-14
 -1      2448 8.46222E-03-5.49838E-03-2.50922E-14
 -1      2449 8.31935E-03-5.37056E-03-2.43097E-14
 -1      2450 8.35864E-03-5.34377E-03-2.39328E-14
 -1      2451 8.74797E-03-5.75399E-03-2.66816E-14
 -1      2452 8.60510E-03-5.62619E-03-2.58818E-14
 -1      2453 8.64437E-03-5.59941E-03-2.54952E-14
 -1      2454 9.03371E-03-6.00957E-03-2.82976E-14
 -1      2455 8.89084E-03-5.88178E-03-2.74864E-14
 -1      2456 8.93010E-03-5.85500E-03-2.70890E-14
 -1      2457 9.31945E-03-6.26513E-03-2.99337E-14
 -1      2458 9.17658E-03-6.13735E-03-2.91143E-14
 -1      2459 9.21583E-03-6.11058E-03-2.87070E-14
 -1      2460 9.60518E-03-6.52067E-03-3.15906E-14
 -1      2461 9.46232E-03-6.39290E-03-3.07598E-14
 -1      2462 9.50156E-03-6.36613E-03-3.03461E-14
 -1      2463 9.89092E-03-6.77621E-03-3.32600E-14
 -1      2464 9.74805E-03-6.64844E-03-3.24233E-14
 -1      2465 9.78728E-03-6.62167E-03-3.20014E-14
 -1      2466 1.01766E-02-7.03174E-03-3.49473E-14
 -1      2467 1.00338E-02-6.90398E-03-3.41034E-14
 -1      2468 1.00730E-02-6.87721E-03-3.36743E-14
 -1      2469 1.04624E-02-7.28727E-03-3.66523E-14
 -1      2470 1.03195E-02-7.15950E-03-3.57964E-14
 -1      2471 1.03587E-02-7.13274E-03-3.53652E-14
 -1      2472 1.07481E-02-7.54279E-03-3.83715E-14
 -1      2473 1.06052E-02-7.41503E-03-3.75103E-14
 -1      2474 1.06445E-02-7.38826E-03-3.70737E-14
 -1      2475 1.10338E-02-7.79832E-03-4.01078E-14
 -1      2476 1.08910E-02-7.67056E-03-3.92381E-14
 -1      2477 1.09302E-02-7.64379E-03-3.87996E-14
 -1      2478 1.13195E-02-8.05384E-03-4.18626E-14
 -1      2479 1.11767E-02-7.92608E-03-4.09823E-14
 -1      2480 1.12159E-02-7.89931E-03-4.05433E-14
 -1      2481 1.16053E-02-8.30937E-03-4.36299E-14
 -1      2482 1.14624E-02-8.18161E-03-4.27449E-14
 -1      2483 1.15016E-02-8.15484E-03-4.23028E-14
 -1      2484 1.18910E-02-8.56490E-03-4.54103E-14
 -1      2485 1.17481E-02-8.43713E-03-4.45209E-14
 -1      2486 1.17873E-02-8.41037E-03-4.40765E-14
 -1      2487 1.21767E-02-8.82043E-03-4.72027E-14
 -1      2488 1.20338E-02-8.69266E-03-4.63060E-14
 -1      2489 1.20730E-02-8.66589E-03-4.58630E-14
 -1      2490 1.24624E-02-9.07595E-03-4.89860E-14
 -1      2491 1.23195E-02-8.94819E-03-4.80952E-14
 -1      2492 1.23588E-02-8.92142E-03-4.76486E-14
 -1      2493 1.27481E-02-9.33148E-03-5.07668E-14
 -1      2494 1.26053E-02-9.20372E-03-4.98771E-14
 -1      2495 1.26445E-02-9.17695E-03-4.94293E-14
 -1      2496 1.30338E-02-9.58702E-03-5.25376E-14
 -1      2497 1.28910E-02-9.45925E-03-5.16537E-14
 -1      2498 1.29302E-02-9.43248E-03-5.12044E-14
 -1      2499 1.41353E-02-1.00566E-02-5.36704E-14
 -1      2500 1.40096E-02-1.00145E-02-5.36631E-14
 -1      2501 1.38861E-02-9.97303E-03-5.36592E-14
 -1      2502 1.37626E-02-9.93160E-03-5.36565E-14
 -1      2503 1.38252E-02-9.88346E-03-5.28850E-14
 -1      2504 1.36370E-02-9.88946E-03-5.36529E-14
 -1      2505 1.35114E-02-9.84732E-03-5.36507E-14
 -1      2506 1.35761E-02-9.79989E-03-5.28790E-14
 -1      2507 4.96423E-03-1.22744E-03-2.17952E-15
 -1      2508 5.24146E-03-1.33841E-03-2.25664E-15
 -1      2509 1.43866E-02-1.01409E-02-5.36755E-14
 -1      2510 1.42609E-02-1.00987E-02-5.36745E-14
 -1      2511 1.40744E-02-9.96703E-03-5.28895E-14
 -1      2512 1.46378E-02-1.02252E-02-5.36757E-14
 -1      2513 1.45122E-02-1.01830E-02-5.36770E-14
 -1      2514 1.43257E-02-1.00513E-02-5.28916E-14
 -1      2515 1.48891E-02-1.03095E-02-5.36632E-14
 -1      2516 1.47635E-02-1.02673E-02-5.36701E-14
 -1      2517 1.45769E-02-1.01356E-02-5.28807E-14
 -1      2518 1.51404E-02-1.03937E-02-5.36343E-14
 -1      2519 1.50147E-02-1.03516E-02-5.36503E-14
 -1      2520 1.48282E-02-1.02199E-02-5.28584E-14
 -1      2521 1.53874E-02-1.04766E-02-5.35905E-14
 -1      2522 1.52639E-02-1.04352E-02-5.36175E-14
 -1      2523 1.50774E-02-1.03034E-02-5.28213E-14
 -1      2524 1.56387E-02-1.05609E-02-5.35282E-14
 -1      2525 1.55130E-02-1.05187E-02-5.35606E-14
 -1      2526 1.53265E-02-1.03870E-02-5.27666E-14
 -1      2527 1.58899E-02-1.06452E-02-5.34485E-14
 -1      2528 1.57643E-02-1.06030E-02-5.34908E-14
 -1      2529 1.55778E-02-1.04713E-02-5.26938E-14
 -1      2530 1.61412E-02-1.07294E-02-5.33456E-14
 -1      2531 1.60156E-02-1.06873E-02-5.33956E-14
 -1      2532 1.58290E-02-1.05556E-02-5.26045E-14
 -1      2533 1.84156E-03 3.22567E-04-1.09172E-15
 -1      2534 1.71927E-03 3.68053E-04-9.32346E-16
 -1      2535 1.69296E-03 3.57701E-04-8.71875E-16
 -1      2536 4.88514E-04-1.84280E-04-2.65223E-17
 -1      2537 6.47696E-04-2.68605E-04-4.76100E-17
 -1      2538 5.96382E-04-3.03712E-04-6.91247E-17
 -1      2539 4.16150E-04-1.92617E-04-3.75269E-17
 -1      2540 5.24839E-03-1.92327E-03-1.39252E-15
 -1      2541 5.90169E-03-1.57550E-03-1.84797E-15
 -1      2542 5.82656E-03-1.60603E-03-1.84373E-15
 -1      2543 5.98363E-03-1.58532E-03-2.09555E-15
 -1      2544 6.03107E-03-1.53812E-03-1.96011E-15
 -1      2545 1.33227E-02-9.74857E-03-5.32551E-14
 -1      2546 5.51171E-03-1.42626E-03-2.31291E-15
 -1      2547 5.70793E-03-1.47495E-03-2.34505E-15
 -1      2548 2.69175E-03 1.48453E-05-1.01031E-15
 -1      2549 2.87022E-03-3.10090E-05-1.13887E-15
 -1      2550 6.25008E-04-1.28339E-04-9.64669E-17
 -1      2551 5.98125E-04-1.66434E-04-9.26044E-17
 -1      2552 7.12315E-04-2.07669E-04-1.24087E-16
 -1      2553 7.80181E-04-1.16823E-04-1.35417E-16
 -1      2554 3.41864E-03-3.23858E-04-1.51225E-15
 -1      2555 3.61542E-03-4.63539E-04-1.63991E-15
 -1      2556 3.08550E-03-1.25376E-04-1.29400E-15
 -1      2557 3.24587E-03-2.16005E-04-1.40057E-15
 -1      2558 3.30400E-03-2.87761E-04-1.51544E-15
 -1      2559 2.37934E-03 1.07120E-05-8.02472E-16
 -1      2560 2.50739E-03 2.63976E-05-8.85468E-16
 -1      2561 6.15234E-03-1.52410E-03-2.30755E-15
 -1      2562 6.19724E-03-1.51178E-03-2.23509E-15
 -1      2563 2.00243E-03-1.01302E-04-6.05093E-16
 -1      2564 2.18918E-03-3.36506E-05-6.95245E-16
 -1      2565 1.21131E-03-3.97632E-04-3.45996E-16
 -1      2566 1.39938E-03-3.33238E-04-3.94622E-16
 -1      2567 8.60966E-04-4.89851E-04-2.70935E-16
 -1      2568 1.01216E-03-4.55733E-04-3.02276E-16
 -1      2569 6.19083E-04-5.16828E-04-2.16752E-16
 -1      2570 7.28954E-04-5.11676E-04-2.43217E-16
 -1      2571 7.79372E-04-4.81688E-04-2.35102E-16
 -1      2572 5.02388E-04-4.99580E-04-1.73581E-16
 -1      2573 5.34517E-04-5.12023E-04-1.90608E-16
 -1      2574 5.93963E-04-4.98949E-04-1.49481E-16
 -1      2575 5.24266E-04-4.91289E-04-1.56566E-16
 -1      2576 5.89902E-03-1.50751E-03-2.34804E-15
 -1      2577 6.03677E-03-1.52121E-03-2.34618E-15
 -1      2578 1.61457E-03-2.54148E-04-4.59688E-16
 -1      2579 1.79411E-03-1.80615E-04-5.21339E-16
 -1      2580 4.45101E-03-9.70787E-04-2.00451E-15
 -1      2581 4.67857E-03-1.09128E-03-2.08317E-15
 -1      2582 6.19728E-03-1.51047E-03-2.16234E-15
 -1      2583 6.13985E-03-1.51377E-03-2.06952E-15
 -1      2584 4.76295E-04-3.13285E-04-9.65753E-17
 -1      2585 3.81083E-04-2.58259E-04-6.70986E-17
 -1      2586 3.56773E-04-2.46449E-04-6.04510E-17
 -1      2587 5.65373E-04-4.88336E-04-1.85392E-16
 -1      2588 8.25143E-04 4.20400E-04-1.79341E-16
 -1      2589 8.09723E-04 3.97172E-04-1.79083E-16
 -1      2590 9.29554E-04 4.38968E-04-2.33971E-16
 -1      2591 3.73956E-03-5.83694E-04-1.79126E-15
 -1      2592 6.11629E-03-1.53642E-03-2.14051E-15
 -1      2593 9.00271E-04-4.72466E-04-1.03182E-16
 -1      2594 8.42996E-04-5.44481E-04-1.35373E-16
 -1      2595 6.13084E-03-1.57019E-03-2.27672E-15
 -1      2596 6.35190E-03-1.70540E-03-2.83474E-15
 -1      2597 5.35462E-03-1.42105E-03-2.41337E-15
 -1      2598 1.64265E-02-1.07677E-02-5.24793E-14
 -1      2599 1.65694E-02-1.08954E-02-5.34360E-14
 -1      2600 1.32618E-02-9.65900E-03-5.24833E-14
 -1      2601 5.80302E-03-1.52998E-03-2.47712E-15
 -1      2602 1.94694E-03 2.66972E-04-1.19188E-15
 -1      2603 4.81548E-03-1.20586E-03-2.25361E-15
 -1      2604 1.64877E-02-1.08899E-02-5.37575E-14
 -1      2605 1.63575E-02-1.08278E-02-5.35805E-14
 -1      2606 1.61710E-02-1.06961E-02-5.27847E-14
 -1      2607 1.12711E-03 4.51237E-04-3.60917E-16
 -1      2608 1.02262E-03 4.45772E-04-2.90878E-16
 -1      2609 1.01234E-03 4.24298E-04-2.89062E-16
 -1      2610 1.20687E-03 4.23758E-04-4.20210E-16
 -1      2611 1.09038E-03-4.12989E-04-3.00581E-16
 -1      2612 2.94647E-03-7.74993E-05-1.24109E-15
 -1      2613 6.21613E-03-1.53677E-03-2.32799E-15
 -1      2614 4.27911E-03-9.25947E-04-2.05573E-15
 -1      2615 1.47681E-03-2.83351E-04-4.02320E-16
 -1      2616 6.93442E-04-5.17822E-04-1.43060E-16
 -1      2617 6.37136E-04-4.47058E-04-1.24294E-16
 -1      2618 3.52419E-04-2.29799E-04-5.41085E-17
 -1      2619 3.72898E-04-2.09320E-04-4.56314E-17
 -1      2620 4.42543E-04-2.60946E-04-6.27143E-17
 -1      2621 4.07085E-04-2.97226E-04-8.06511E-17
 -1      2622 2.58135E-03 2.70164E-05-9.60061E-16
 -1      2623 6.11215E-03-1.55407E-03-2.44135E-15
 -1      2624 6.17068E-03-1.58007E-03-2.53805E-15
 -1      2625 6.06198E-03-1.58646E-03-2.57699E-15
 -1      2626 2.23890E-03-5.12888E-06-7.29804E-16
 -1      2627 5.01353E-04-4.55734E-04-1.46422E-16
 -1      2628 1.87210E-03-1.28863E-04-5.44866E-16
 -1      2629 7.22056E-04-4.15625E-04-1.02789E-16
 -1      2630 1.62535E-02-1.06697E-02-5.20560E-14
 -1      2631 9.34530E-04 8.45920E-05-1.99995E-16
 -1      2632 9.46679E-04 4.53383E-05-1.96932E-16
 -1      2633 9.54005E-04 2.21943E-06-1.92934E-16
 -1      2634 9.53280E-04-4.43346E-05-1.88339E-16
 -1      2635 1.10324E-03 3.55364E-05-2.50491E-16
 -1      2636 8.60336E-04 2.20174E-04-2.02353E-16
 -1      2637 8.80187E-04 1.88752E-04-2.03478E-16
 -1      2638 8.22988E-04 2.80924E-04-1.96159E-16
 -1      2639 8.40975E-04 2.50703E-04-1.99968E-16
 -1      2640 9.79856E-04 2.55215E-04-2.59341E-16
 -1      2641 7.95707E-04 3.74377E-04-1.78080E-16
 -1      2642 7.83129E-04 3.51965E-04-1.76454E-16
 -1      2643 9.04867E-04 3.94556E-04-2.31355E-16
 -1      2644 1.60372E-02-1.05713E-02-5.18324E-14
 -1      2645 6.20978E-03-1.57055E-03-2.39304E-15
 -1      2646 6.70327E-03-2.09732E-03-4.03934E-15
 -1      2647 6.82525E-03-2.22429E-03-4.39910E-15
 -1      2648 6.95181E-03-2.35241E-03-4.77464E-15
 -1      2649 7.08328E-03-2.48249E-03-5.16282E-15
 -1      2650 6.80218E-03-2.26713E-03-4.64071E-15
 -1      2651 7.21729E-03-2.61258E-03-5.56651E-15
 -1      2652 7.35410E-03-2.74313E-03-5.98587E-15
 -1      2653 7.05406E-03-2.52032E-03-5.42125E-15
 -1      2654 7.49225E-03-2.87331E-03-6.41896E-15
 -1      2655 7.63192E-03-3.00335E-03-6.86956E-15
 -1      2656 7.32080E-03-2.77706E-03-6.25875E-15
 -1      2657 7.77230E-03-3.13297E-03-7.33577E-15
 -1      2658 7.91349E-03-3.26229E-03-7.81871E-15
 -1      2659 7.59605E-03-3.03454E-03-7.15808E-15
 -1      2660 8.05503E-03-3.39125E-03-8.31673E-15
 -1      2661 8.19701E-03-3.51993E-03-8.83091E-15
 -1      2662 7.87606E-03-3.29165E-03-8.12199E-15
 -1      2663 8.33917E-03-3.64835E-03-9.36402E-15
 -1      2664 8.48155E-03-3.77656E-03-9.91254E-15
 -1      2665 8.15870E-03-3.54814E-03-9.15185E-15
 -1      2666 8.63116E-03-3.91099E-03-1.05050E-14
 -1      2667 8.78090E-03-4.04527E-03-1.11144E-14
 -1      2668 8.44989E-03-3.81045E-03-1.02758E-14
 -1      2669 8.92356E-03-4.17306E-03-1.17065E-14
 -1      2670 9.06629E-03-4.30076E-03-1.23167E-14
 -1      2671 8.74188E-03-4.07235E-03-1.14606E-14
 -1      2672 9.20904E-03-4.42842E-03-1.29408E-14
 -1      2673 9.35182E-03-4.55603E-03-1.35774E-14
 -1      2674 9.02717E-03-4.32761E-03-1.26773E-14
 -1      2675 9.49463E-03-4.68363E-03-1.42255E-14
 -1      2676 9.63745E-03-4.81121E-03-1.48838E-14
 -1      2677 9.31267E-03-4.58277E-03-1.39472E-14
 -1      2678 9.78028E-03-4.93879E-03-1.55563E-14
 -1      2679 9.92312E-03-5.06637E-03-1.62405E-14
 -1      2680 9.59828E-03-4.83789E-03-1.52646E-14
 -1      2681 1.00660E-02-5.19396E-03-1.69345E-14
 -1      2682 1.02088E-02-5.32156E-03-1.76416E-14
 -1      2683 9.88396E-03-5.09304E-03-1.66284E-14
 -1      2684 1.03517E-02-5.44918E-03-1.83614E-14
 -1      2685 1.04945E-02-5.57680E-03-1.90907E-14
 -1      2686 1.01697E-02-5.34824E-03-1.80377E-14
 -1      2687 1.06374E-02-5.70445E-03-1.98315E-14
 -1      2688 1.07803E-02-5.83210E-03-2.05818E-14
 -1      2689 1.04554E-02-5.60349E-03-1.94929E-14
 -1      2690 1.09231E-02-5.95977E-03-2.13399E-14
 -1      2691 1.10660E-02-6.08745E-03-2.21073E-14
 -1      2692 1.07411E-02-5.85881E-03-2.09883E-14
 -1      2693 1.12089E-02-6.21515E-03-2.28813E-14
 -1      2694 1.13517E-02-6.34285E-03-2.36618E-14
 -1      2695 1.10268E-02-6.11417E-03-2.25145E-14
 -1      2696 1.14946E-02-6.47057E-03-2.44459E-14
 -1      2697 1.16375E-02-6.59829E-03-2.52363E-14
 -1      2698 1.13126E-02-6.36959E-03-2.40698E-14
 -1      2699 1.17804E-02-6.72602E-03-2.60274E-14
 -1      2700 1.19232E-02-6.85376E-03-2.68234E-14
 -1      2701 1.15983E-02-6.62503E-03-2.56439E-14
 -1      2702 1.20661E-02-6.98150E-03-2.76209E-14
 -1      2703 1.22090E-02-7.10925E-03-2.84178E-14
 -1      2704 1.18840E-02-6.88051E-03-2.72314E-14
 -1      2705 1.23518E-02-7.23700E-03-2.92173E-14
 -1      2706 1.24947E-02-7.36476E-03-3.00167E-14
 -1      2707 1.21698E-02-7.13601E-03-2.88292E-14
 -1      2708 1.26447E-02-7.49891E-03-3.08566E-14
 -1      2709 1.27947E-02-7.63306E-03-3.16981E-14
 -1      2710 1.24626E-02-7.39791E-03-3.04708E-14
 -1      2711 1.29376E-02-7.76082E-03-3.25025E-14
 -1      2712 1.30804E-02-7.88858E-03-3.33123E-14
 -1      2713 1.27555E-02-7.65982E-03-3.21204E-14
 -1      2714 1.32233E-02-8.01635E-03-3.41244E-14
 -1      2715 1.33661E-02-8.14412E-03-3.49440E-14
 -1      2716 1.30412E-02-7.91535E-03-3.37402E-14
 -1      2717 1.35090E-02-8.27189E-03-3.57664E-14
 -1      2718 1.36519E-02-8.39966E-03-3.65958E-14
 -1      2719 1.33269E-02-8.17089E-03-3.53798E-14
 -1      2720 1.37947E-02-8.52743E-03-3.74295E-14
 -1      2721 1.39376E-02-8.65520E-03-3.82697E-14
 -1      2722 1.36127E-02-8.42643E-03-3.70446E-14
 -1      2723 1.40805E-02-8.78297E-03-3.91123E-14
 -1      2724 1.42233E-02-8.91074E-03-3.99596E-14
 -1      2725 1.38984E-02-8.68197E-03-3.87252E-14
 -1      2726 1.43662E-02-9.03851E-03-4.08145E-14
 -1      2727 1.45090E-02-9.16628E-03-4.16753E-14
 -1      2728 1.41841E-02-8.93751E-03-4.04281E-14
 -1      2729 1.46519E-02-9.29405E-03-4.25394E-14
 -1      2730 1.47947E-02-9.42181E-03-4.34095E-14
 -1      2731 1.44698E-02-9.19305E-03-4.21526E-14
 -1      2732 1.49376E-02-9.54958E-03-4.42907E-14
 -1      2733 1.50805E-02-9.67735E-03-4.51816E-14
 -1      2734 1.47555E-02-9.44859E-03-4.39032E-14
 -1      2735 1.52233E-02-9.80512E-03-4.60773E-14
 -1      2736 1.53662E-02-9.93289E-03-4.69846E-14
 -1      2737 1.50412E-02-9.70412E-03-4.56845E-14
 -1      2738 1.55090E-02-1.00607E-02-4.79019E-14
 -1      2739 1.56519E-02-1.01884E-02-4.88253E-14
 -1      2740 1.53270E-02-9.95966E-03-4.74999E-14
 -1      2741 1.57731E-02-1.03160E-02-4.98594E-14
 -1      2742 1.59160E-02-1.04438E-02-5.07936E-14
 -1      2743 1.58335E-02-1.04702E-02-5.15135E-14
 -1      2744 1.55910E-02-1.02150E-02-4.94499E-14
 -1      2745 1.53042E-03 3.68895E-04-6.79361E-16
 -1      2746 1.39637E-03 3.82721E-04-5.60167E-16
 -1      2747 1.33076E-02-9.62998E-03-5.19887E-14
 -1      2748 1.31189E-02-9.53123E-03-5.15946E-14
 -1      2749 1.29760E-02-9.40347E-03-5.07073E-14
 -1      2750 1.66698E-02-1.09909E-02-5.41828E-14
 -1      2751 9.59838E-04-4.14893E-04-2.51562E-16
 -1      2752 1.12756E-03-3.67547E-04-2.88831E-16
 -1      2753 2.58447E-03-1.11310E-04-2.13418E-15
 -1      2754 2.45146E-03-1.79394E-05-1.90223E-15
 -1      2755 2.31949E-03 6.70511E-05-1.68368E-15
 -1      2756 2.18809E-03 1.42908E-04-1.48088E-15
 -1      2757 2.44234E-03-4.69982E-06-1.80003E-15
 -1      2758 3.12792E-03-5.50260E-04-3.20897E-15
 -1      2759 2.99027E-03-4.32589E-04-2.91848E-15
 -1      2760 3.40631E-03-7.96189E-04-3.83232E-15
 -1      2761 3.26666E-03-6.71720E-04-3.51394E-15
 -1      2762 3.27737E-03-6.47882E-04-3.36887E-15
 -1      2763 3.68793E-03-1.05145E-03-4.51097E-15
 -1      2764 3.54682E-03-9.22957E-04-4.16442E-15
 -1      2765 3.56358E-03-8.98107E-04-4.00630E-15
 -1      2766 3.97164E-03-1.31169E-03-5.24678E-15
 -1      2767 3.82962E-03-1.18115E-03-4.87194E-15
 -1      2768 3.85179E-03-1.15572E-03-4.69930E-15
 -1      2769 4.25653E-03-1.57401E-03-6.03975E-15
 -1      2770 4.11402E-03-1.44271E-03-5.63594E-15
 -1      2771 4.14077E-03-1.41688E-03-5.44797E-15
 -1      2772 4.54198E-03-1.83668E-03-6.88836E-15
 -1      2773 4.39925E-03-1.70537E-03-6.45665E-15
 -1      2774 4.42968E-03-1.67921E-03-6.25427E-15
 -1      2775 4.82762E-03-2.09880E-03-7.79482E-15
 -1      2776 4.68481E-03-1.96784E-03-7.33520E-15
 -1      2777 4.71807E-03-1.94143E-03-7.11714E-15
 -1      2778 5.11327E-03-2.35996E-03-8.75760E-15
 -1      2779 4.97046E-03-2.22951E-03-8.26864E-15
 -1      2780 5.00579E-03-2.20289E-03-8.03788E-15
 -1      2781 5.39888E-03-2.62009E-03-9.77687E-15
 -1      2782 5.25609E-03-2.49015E-03-9.25995E-15
 -1      2783 5.29287E-03-2.46339E-03-9.01547E-15
 -1      2784 5.68445E-03-2.87925E-03-1.08517E-14
 -1      2785 5.54168E-03-2.74979E-03-1.03070E-14
 -1      2786 5.57945E-03-2.72293E-03-1.00484E-14
 -1      2787 5.97001E-03-3.13759E-03-1.19840E-14
 -1      2788 5.82724E-03-3.00852E-03-1.14114E-14
 -1      2789 5.86566E-03-2.98161E-03-1.11390E-14
 -1      2790 6.25556E-03-3.39524E-03-1.31692E-14
 -1      2791 6.11279E-03-3.26649E-03-1.25692E-14
 -1      2792 6.15161E-03-3.23956E-03-1.22858E-14
 -1      2793 6.54114E-03-3.65235E-03-1.44101E-14
 -1      2794 6.39835E-03-3.52386E-03-1.37833E-14
 -1      2795 6.43742E-03-3.49693E-03-1.34854E-14
 -1      2796 6.82674E-03-3.90905E-03-1.56996E-14
 -1      2797 6.68393E-03-3.78075E-03-1.50485E-14
 -1      2798 6.72314E-03-3.75384E-03-1.47383E-14
 -1      2799 7.11236E-03-4.16543E-03-1.70358E-14
 -1      2800 6.96955E-03-4.03728E-03-1.63620E-14
 -1      2801 7.00883E-03-4.01039E-03-1.60407E-14
 -1      2802 7.39801E-03-4.42158E-03-1.84169E-14
 -1      2803 7.25518E-03-4.29353E-03-1.77207E-14
 -1      2804 7.29450E-03-4.26666E-03-1.73887E-14
 -1      2805 7.68368E-03-4.67754E-03-1.98375E-14
 -1      2806 7.54085E-03-4.54958E-03-1.91229E-14
 -1      2807 7.58016E-03-4.52273E-03-1.87799E-14
 -1      2808 7.96937E-03-4.93338E-03-2.12995E-14
 -1      2809 7.82653E-03-4.80548E-03-2.05646E-14
 -1      2810 7.86584E-03-4.77865E-03-2.02120E-14
 -1      2811 8.25507E-03-5.18912E-03-2.27960E-14
 -1      2812 8.11222E-03-5.06126E-03-2.20436E-14
 -1      2813 8.15153E-03-5.03445E-03-2.16824E-14
 -1      2814 8.54078E-03-5.44480E-03-2.43294E-14
 -1      2815 8.39793E-03-5.31697E-03-2.35583E-14
 -1      2816 8.43722E-03-5.29017E-03-2.31857E-14
 -1      2817 8.82650E-03-5.70042E-03-2.58972E-14
 -1      2818 8.68364E-03-5.57262E-03-2.51097E-14
 -1      2819 8.72292E-03-5.54582E-03-2.47247E-14
 -1      2820 9.11222E-03-5.95601E-03-2.74963E-14
 -1      2821 8.96936E-03-5.82822E-03-2.66933E-14
 -1      2822 9.00863E-03-5.80144E-03-2.63000E-14
 -1      2823 9.39794E-03-6.21158E-03-2.91150E-14
 -1      2824 9.25508E-03-6.08380E-03-2.83025E-14
 -1      2825 9.29434E-03-6.05702E-03-2.79008E-14
 -1      2826 9.68366E-03-6.46713E-03-3.07560E-14
 -1      2827 9.54080E-03-6.33936E-03-2.99338E-14
 -1      2828 9.58005E-03-6.31258E-03-2.95232E-14
 -1      2829 9.96938E-03-6.72267E-03-3.24115E-14
 -1      2830 9.82652E-03-6.59490E-03-3.15818E-14
 -1      2831 9.86576E-03-6.56813E-03-3.11650E-14
 -1      2832 1.02551E-02-6.97820E-03-3.40875E-14
 -1      2833 1.01122E-02-6.85044E-03-3.32475E-14
 -1      2834 1.01515E-02-6.82367E-03-3.28241E-14
 -1      2835 1.05408E-02-7.23373E-03-3.57805E-14
 -1      2836 1.03980E-02-7.10597E-03-3.49325E-14
 -1      2837 1.04372E-02-7.07920E-03-3.45013E-14
 -1      2838 1.08265E-02-7.48926E-03-3.74959E-14
 -1      2839 1.06837E-02-7.36150E-03-3.66361E-14
 -1      2840 1.07229E-02-7.33473E-03-3.61992E-14
 -1      2841 1.11123E-02-7.74478E-03-3.92293E-14
 -1      2842 1.09694E-02-7.61702E-03-3.83596E-14
 -1      2843 1.10086E-02-7.59025E-03-3.79190E-14
 -1      2844 1.13980E-02-8.00031E-03-4.09777E-14
 -1      2845 1.12551E-02-7.87255E-03-4.01000E-14
 -1      2846 1.12943E-02-7.84578E-03-3.96576E-14
 -1      2847 1.16837E-02-8.25584E-03-4.27440E-14
 -1      2848 1.15408E-02-8.12807E-03-4.18607E-14
 -1      2849 1.15801E-02-8.10130E-03-4.14151E-14
 -1      2850 1.19694E-02-8.51136E-03-4.45229E-14
 -1      2851 1.18266E-02-8.38360E-03-4.36320E-14
 -1      2852 1.18658E-02-8.35683E-03-4.31860E-14
 -1      2853 1.22551E-02-8.76689E-03-4.63074E-14
 -1      2854 1.21123E-02-8.63913E-03-4.54140E-14
 -1      2855 1.21515E-02-8.61236E-03-4.49661E-14
 -1      2856 1.25408E-02-9.02242E-03-4.80894E-14
 -1      2857 1.23980E-02-8.89465E-03-4.71996E-14
 -1      2858 1.24372E-02-8.86789E-03-4.67501E-14
 -1      2859 1.28299E-02-9.27682E-03-4.98439E-14
 -1      2860 1.26870E-02-9.14906E-03-4.89552E-14
 -1      2861 1.27262E-02-9.12229E-03-4.85064E-14
 -1      2862 1.30186E-02-9.37557E-03-5.02327E-14
 -1      2863 1.42648E-02-9.96174E-03-5.21005E-14
 -1      2864 1.41391E-02-9.91959E-03-5.21056E-14
 -1      2865 1.34332E-02-9.67212E-03-5.19860E-14
 -1      2866 6.24159E-03-1.57327E-03-2.47236E-15
 -1      2867 6.27527E-03-1.62135E-03-2.61740E-15
 -1      2868 6.23792E-03-1.58844E-03-2.54907E-15
 -1      2869 1.40135E-02-9.87745E-03-5.21087E-14
 -1      2870 1.38879E-02-9.83531E-03-5.21076E-14
 -1      2871 1.39526E-02-9.78788E-03-5.13238E-14
 -1      2872 1.47673E-02-1.01303E-02-5.20526E-14
 -1      2873 1.46417E-02-1.00882E-02-5.20704E-14
 -1      2874 1.50143E-02-1.02132E-02-5.20068E-14
 -1      2875 1.48908E-02-1.01717E-02-5.20322E-14
 -1      2876 1.47043E-02-1.00400E-02-5.12460E-14
 -1      2877 1.52656E-02-1.02974E-02-5.19384E-14
 -1      2878 1.51400E-02-1.02553E-02-5.19746E-14
 -1      2879 1.49534E-02-1.01236E-02-5.11869E-14
 -1      2880 1.55169E-02-1.03817E-02-5.18612E-14
 -1      2881 1.53912E-02-1.03396E-02-5.19023E-14
 -1      2882 1.52047E-02-1.02079E-02-5.11136E-14
 -1      2883 1.57380E-02-1.04470E-02-5.16631E-14
 -1      2884 1.56124E-02-1.04049E-02-5.17162E-14
 -1      2885 1.54258E-02-1.02732E-02-5.09287E-14
 -1      2886 1.56168E-02-1.03194E-02-5.06318E-14
 -1      2887 1.79511E-03 3.10069E-04-9.57906E-16
 -1      2888 1.66316E-03 3.44803E-04-8.11851E-16
 -1      2889 1.63043E-03 3.29183E-04-7.52382E-16
 -1      2890 4.66091E-03-1.18510E-03-2.36153E-15
 -1      2891 4.91906E-03-1.30925E-03-2.46558E-15
 -1      2892 3.58141E-03-5.17319E-04-1.79877E-15
 -1      2893 3.84523E-03-7.02531E-04-1.96691E-15
 -1      2894 1.73874E-03-1.52690E-04-4.84191E-16
 -1      2895 1.91562E-03-8.20665E-05-5.62972E-16
 -1      2896 2.05723E-03 2.08953E-04-1.29241E-15
 -1      2897 1.92625E-03 2.64801E-04-1.11787E-15
 -1      2898 1.90218E-03 2.60340E-04-1.04495E-15
 -1      2899 2.17185E-03 1.48365E-04-1.39331E-15
 -1      2900 5.16799E-04-4.43331E-04-1.52751E-16
 -1      2901 5.93382E-04-4.59743E-04-1.74597E-16
 -1      2902 6.36080E-03-1.71276E-03-2.91942E-15
 -1      2903 1.45160E-02-1.00460E-02-5.20835E-14
 -1      2904 1.43904E-02-1.00039E-02-5.20940E-14
 -1      2905 1.44551E-02-9.95645E-03-5.12844E-14
 -1      2906 1.37643E-02-9.79388E-03-5.21103E-14
 -1      2907 1.36408E-02-9.75246E-03-5.21091E-14
 -1      2908 1.37035E-02-9.70431E-03-5.13315E-14
 -1      2909 3.19295E-03-2.51722E-04-1.52078E-15
 -1      2910 3.34040E-03-3.54468E-04-1.63747E-15
 -1      2911 4.15863E-03-8.97285E-04-2.12069E-15
 -1      2912 4.40136E-03-1.03822E-03-2.22195E-15
 -1      2913 2.85379E-03-3.19581E-04-2.64231E-15
 -1      2914 2.71850E-03-2.12171E-04-2.38042E-15
 -1      2915 2.71616E-03-1.93533E-04-2.26509E-15
 -1      2916 2.99454E-03-4.10620E-04-2.78826E-15
 -1      2917 6.19845E-04-4.06498E-04-1.09430E-16
 -1      2918 2.81457E-03-3.81302E-05-1.19219E-15
 -1      2919 2.99878E-03-1.29633E-04-1.35032E-15
 -1      2920 3.04919E-03-1.86280E-04-1.46224E-15
 -1      2921 6.97177E-04-4.58568E-04-1.98233E-16
 -1      2922 8.10415E-04-4.46666E-04-2.21503E-16
 -1      2923 2.10511E-03-1.53329E-05-6.65483E-16
 -1      2924 2.26604E-03 2.43784E-05-7.68103E-16
 -1      2925 6.48324E-03-1.85700E-03-3.36372E-15
 -1      2926 6.58941E-03-1.97572E-03-3.69550E-15
 -1      2927 6.57535E-03-2.02357E-03-3.92034E-15
 -1      2928 5.22305E-03-1.42453E-03-2.53935E-15
 -1      2929 5.47292E-03-1.50374E-03-2.60136E-15
 -1      2930 8.99865E-04 1.56163E-04-2.03329E-16
 -1      2931 9.18233E-04 1.21446E-04-2.02149E-16
 -1      2932 1.07094E-03 1.17940E-04-2.58433E-16
 -1      2933 1.02656E-03 1.89526E-04-2.61564E-16
 -1      2934 1.34942E-03-2.98568E-04-3.49493E-16
 -1      2935 1.53565E-03-2.30077E-04-4.08676E-16
 -1      2936 5.72150E-03-1.56187E-03-2.63311E-15
 -1      2937 5.89878E-03-1.58635E-03-2.63802E-15
 -1      2938 8.26105E-04-3.11374E-04-1.73716E-16
 -1      2939 7.39231E-04-3.54916E-04-1.63579E-16
 -1      2940 2.46877E-03 3.60992E-05-9.05065E-16
 -1      2941 2.62722E-03 1.99144E-05-1.03059E-15
 -1      2942 5.61812E-04-3.58902E-04-9.59383E-17
 -1      2943 5.17356E-04-3.93945E-04-1.14837E-16
 -1      2944 4.82205E-04-4.16135E-04-1.29352E-16
 -1      2945 4.92414E-04-2.97868E-04-7.44644E-17
 -1      2946 1.10628E-03-6.31800E-05-2.38159E-16
 -1      2947 9.42287E-04-9.47653E-05-1.82634E-16
 -1      2948 9.18168E-04-1.46669E-04-1.75817E-16
 -1      2949 7.94112E-04 3.20752E-04-1.84653E-16
 -1      2950 9.22703E-04 3.29583E-04-2.44176E-16
 -1      2951 5.60480E-03-1.57123E-03-2.76472E-15
 -1      2952 1.59310E-03-1.74164E-04-4.23449E-16
 -1      2953 1.19207E-03-3.14515E-04-2.93873E-16
 -1      2954 1.35449E-03 3.56045E-04-5.13587E-16
 -1      2955 1.26119E-03 3.86343E-04-4.54091E-16
 -1      2956 1.42039E-02-9.87216E-03-5.13084E-14
 -1      2957 1.96217E-03-3.39344E-05-5.95091E-16
 -1      2958 8.49266E-04-4.01484E-04-2.11907E-16
 -1      2959 6.13549E-04-4.25906E-04-1.63457E-16
 -1      2960 1.33723E-02-9.58255E-03-5.12148E-14
 -1      2961 6.23037E-03-1.62331E-03-2.68796E-15
 -1      2962 1.15873E-03 3.90742E-04-3.83618E-16
 -1      2963 3.45571E-03-4.63324E-04-1.80185E-15
 -1      2964 4.53376E-03-1.15001E-03-2.42928E-15
 -1      2965 3.97895E-03-8.14703E-04-2.12678E-15
 -1      2966 5.07035E-03-1.40413E-03-2.65269E-15
 -1      2967 5.43393E-04-3.62320E-04-1.23992E-16
 -1      2968 4.80758E-04-3.63398E-04-1.13672E-16
 -1      2969 4.45511E-04-3.15824E-04-8.56181E-17
 -1      2970 6.37042E-03-1.76039E-03-3.12741E-15
 -1      2971 6.00335E-03-1.62357E-03-2.73764E-15
 -1      2972 6.09362E-03-1.65455E-03-2.83837E-15
 -1      2973 5.94417E-03-1.65827E-03-2.89985E-15
 -1      2974 2.69241E-03-6.77458E-06-1.12703E-15
 -1      2975 2.32284E-03 4.00559E-05-8.28737E-16
 -1      2976 8.52846E-04-2.45274E-04-1.67347E-16
 -1      2977 1.04361E-03-2.92458E-04-2.35340E-16
 -1      2978 1.22905E-03-2.37393E-04-2.87693E-16
 -1      2979 9.05798E-04-1.92793E-04-1.75532E-16
 -1      2980 1.09661E-03 2.86815E-04-3.24068E-16
 -1      2981 1.12280E-03 2.53787E-04-3.26860E-16
 -1      2982 1.00310E-03 4.02857E-04-2.86324E-16
 -1      2983 1.05053E-03 3.69164E-04-3.14703E-16
 -1      2984 1.08838E-03 3.24506E-04-3.29530E-16
 -1      2985 2.56924E-03-7.95142E-05-1.91730E-15
 -1      2986 2.42953E-03 7.75324E-06-1.69892E-15
 -1      2987 6.65136E-03-2.18835E-03-4.50815E-15
 -1      2988 6.76831E-03-2.30966E-03-4.88498E-15
 -1      2989 1.73581E-03 2.87979E-04-8.26731E-16
 -1      2990 1.59520E-03 3.11245E-04-6.93998E-16
 -1      2991 1.41430E-02-9.78259E-03-5.05160E-14
 -1      2992 1.40173E-02-9.74045E-03-5.05273E-14
 -1      2993 6.89113E-03-2.43256E-03-5.27464E-15
 -1      2994 7.01885E-03-2.55780E-03-5.67890E-15
 -1      2995 6.72704E-03-2.34929E-03-5.12851E-15
 -1      2996 7.15006E-03-2.68373E-03-6.09915E-15
 -1      2997 7.28425E-03-2.81071E-03-6.53207E-15
 -1      2998 6.97921E-03-2.59340E-03-5.93822E-15
 -1      2999 7.42047E-03-2.93791E-03-6.98145E-15
 -1      3000 7.55845E-03-3.06551E-03-7.44806E-15
 -1      3001 7.24512E-03-2.84319E-03-6.80689E-15
 -1      3002 7.69760E-03-3.19313E-03-7.93055E-15
 -1      3003 7.83776E-03-3.32087E-03-8.42731E-15
 -1      3004 7.51939E-03-3.09578E-03-7.73866E-15
 -1      3005 7.97857E-03-3.44855E-03-8.94182E-15
 -1      3006 8.11996E-03-3.57624E-03-9.47335E-15
 -1      3007 7.79864E-03-3.34966E-03-8.73371E-15
 -1      3008 8.26881E-03-3.71026E-03-1.00459E-14
 -1      3009 8.41801E-03-3.84425E-03-1.06378E-14
 -1      3010 8.08786E-03-3.61046E-03-9.81940E-15
 -1      3011 8.56030E-03-3.97182E-03-1.12168E-14
 -1      3012 8.70277E-03-4.09937E-03-1.18082E-14
 -1      3013 8.37880E-03-3.87151E-03-1.09716E-14
 -1      3014 8.84534E-03-4.22691E-03-1.24153E-14
 -1      3015 8.98801E-03-4.35443E-03-1.30368E-14
 -1      3016 8.66356E-03-4.12631E-03-1.21556E-14
 -1      3017 9.13073E-03-4.48196E-03-1.36708E-14
 -1      3018 9.27349E-03-4.60948E-03-1.43151E-14
 -1      3019 8.94880E-03-4.38120E-03-1.33949E-14
 -1      3020 9.41629E-03-4.73702E-03-1.49728E-14
 -1      3021 9.55911E-03-4.86457E-03-1.56439E-14
 -1      3022 9.23430E-03-4.63617E-03-1.46834E-14
 -1      3023 9.70195E-03-4.99213E-03-1.63238E-14
 -1      3024 9.84479E-03-5.11971E-03-1.70137E-14
 -1      3025 9.51993E-03-4.89123E-03-1.60199E-14
 -1      3026 9.98765E-03-5.24730E-03-1.77197E-14
 -1      3027 1.01305E-02-5.37491E-03-1.84343E-14
 -1      3028 9.80562E-03-5.14637E-03-1.74021E-14
 -1      3029 1.02734E-02-5.50254E-03-1.91578E-14
 -1      3030 1.04162E-02-5.63019E-03-1.98923E-14
 -1      3031 1.00913E-02-5.40159E-03-1.88267E-14
 -1      3032 1.05591E-02-5.75784E-03-2.06373E-14
 -1      3033 1.07020E-02-5.88552E-03-2.13894E-14
 -1      3034 1.03771E-02-5.65688E-03-2.02893E-14
 -1      3035 1.08448E-02-6.01320E-03-2.21508E-14
 -1      3036 1.09877E-02-6.14090E-03-2.29202E-14
 -1      3037 1.06628E-02-5.91223E-03-2.17897E-14
 -1      3038 1.11305E-02-6.26861E-03-2.36969E-14
 -1      3039 1.12734E-02-6.39632E-03-2.44783E-14
 -1      3040 1.09485E-02-6.16763E-03-2.33249E-14
 -1      3041 1.14163E-02-6.52405E-03-2.52647E-14
 -1      3042 1.15591E-02-6.65178E-03-2.60527E-14
 -1      3043 1.12342E-02-6.42306E-03-2.48853E-14
 -1      3044 1.17020E-02-6.77952E-03-2.68451E-14
 -1      3045 1.18449E-02-6.90727E-03-2.76420E-14
 -1      3046 1.15200E-02-6.67853E-03-2.64637E-14
 -1      3047 1.19877E-02-7.03502E-03-2.84399E-14
 -1      3048 1.21306E-02-7.16277E-03-2.92412E-14
 -1      3049 1.18057E-02-6.93402E-03-2.80530E-14
 -1      3050 1.22806E-02-7.29692E-03-3.00833E-14
 -1      3051 1.24306E-02-7.43106E-03-3.09277E-14
 -1      3052 1.20985E-02-7.19592E-03-2.96952E-14
 -1      3053 1.25734E-02-7.55883E-03-3.17334E-14
 -1      3054 1.27163E-02-7.68659E-03-3.25430E-14
 -1      3055 1.23914E-02-7.45783E-03-3.13471E-14
 -1      3056 1.28592E-02-7.81436E-03-3.33547E-14
 -1      3057 1.30020E-02-7.94212E-03-3.41723E-14
 -1      3058 1.26771E-02-7.71336E-03-3.29683E-14
 -1      3059 1.31449E-02-8.06989E-03-3.49959E-14
 -1      3060 1.32877E-02-8.19766E-03-3.58215E-14
 -1      3061 1.29628E-02-7.96889E-03-3.46076E-14
 -1      3062 1.34306E-02-8.32543E-03-3.66544E-14
 -1      3063 1.35735E-02-8.45320E-03-3.74923E-14
 -1      3064 1.32485E-02-8.22443E-03-3.62644E-14
 -1      3065 1.37163E-02-8.58097E-03-3.83373E-14
 -1      3066 1.38592E-02-8.70874E-03-3.91847E-14
 -1      3067 1.35342E-02-8.47997E-03-3.79447E-14
 -1      3068 1.40020E-02-8.83651E-03-4.00362E-14
 -1      3069 1.41449E-02-8.96428E-03-4.08979E-14
 -1      3070 1.38200E-02-8.73551E-03-3.96462E-14
 -1      3071 1.42877E-02-9.09205E-03-4.17610E-14
 -1      3072 1.44306E-02-9.21982E-03-4.26303E-14
 -1      3073 1.41057E-02-8.99105E-03-4.13655E-14
 -1      3074 1.45735E-02-9.34759E-03-4.35120E-14
 -1      3075 1.47163E-02-9.47536E-03-4.43962E-14
 -1      3076 1.43914E-02-9.24659E-03-4.31142E-14
 -1      3077 1.48592E-02-9.60313E-03-4.52893E-14
 -1      3078 1.50020E-02-9.73089E-03-4.61892E-14
 -1      3079 1.46771E-02-9.50213E-03-4.48902E-14
 -1      3080 1.51449E-02-9.85866E-03-4.70934E-14
 -1      3081 1.52877E-02-9.98643E-03-4.80130E-14
 -1      3082 1.49628E-02-9.75766E-03-4.66912E-14
 -1      3083 1.53917E-02-1.00891E-02-4.88074E-14
 -1      3084 1.55129E-02-1.02167E-02-4.98309E-14
 -1      3085 1.54174E-02-1.01936E-02-4.99818E-14
 -1      3086 1.52096E-02-9.98815E-03-4.83908E-14
 -1      3087 3.72405E-03-1.00247E-03-4.18024E-15
 -1      3088 3.57709E-03-8.74571E-04-3.84820E-15
 -1      3089 3.43042E-03-7.48552E-04-3.53003E-15
 -1      3090 3.28438E-03-6.25138E-04-3.22518E-15
 -1      3091 3.58760E-03-8.52143E-04-3.69133E-15
 -1      3092 4.31201E-03-1.52328E-03-5.65036E-15
 -1      3093 4.16534E-03-1.39238E-03-5.26190E-15
 -1      3094 4.60439E-03-1.78520E-03-6.46994E-15
 -1      3095 4.45842E-03-1.65425E-03-6.05360E-15
 -1      3096 4.48556E-03-1.63054E-03-5.85388E-15
 -1      3097 4.89526E-03-2.04663E-03-7.34750E-15
 -1      3098 4.75004E-03-1.91599E-03-6.90093E-15
 -1      3099 4.78080E-03-1.89163E-03-6.68766E-15
 -1      3100 5.18469E-03-2.30724E-03-8.28271E-15
 -1      3101 5.04016E-03-2.17704E-03-7.80800E-15
 -1      3102 5.07363E-03-2.15205E-03-7.57916E-15
 -1      3103 5.47295E-03-2.56695E-03-9.27482E-15
 -1      3104 5.32896E-03-2.43720E-03-8.77143E-15
 -1      3105 5.36440E-03-2.41167E-03-8.52843E-15
 -1      3106 5.76030E-03-2.82583E-03-1.03224E-14
 -1      3107 5.61673E-03-2.69649E-03-9.79159E-15
 -1      3108 5.65353E-03-2.67052E-03-9.53550E-15
 -1      3109 6.04701E-03-3.08398E-03-1.14293E-14
 -1      3110 5.90373E-03-2.95499E-03-1.08685E-14
 -1      3111 5.94146E-03-2.92871E-03-1.05990E-14
 -1      3112 6.33329E-03-3.34154E-03-1.25889E-14
 -1      3113 6.19020E-03-3.21283E-03-1.20029E-14
 -1      3114 6.22855E-03-3.18633E-03-1.17195E-14
 -1      3115 6.61930E-03-3.59862E-03-1.38031E-14
 -1      3116 6.47633E-03-3.47013E-03-1.31889E-14
 -1      3117 6.51507E-03-3.44349E-03-1.28938E-14
 -1      3118 6.90515E-03-3.85531E-03-1.50684E-14
 -1      3119 6.76224E-03-3.72701E-03-1.44299E-14
 -1      3120 6.80123E-03-3.70028E-03-1.41212E-14
 -1      3121 7.19090E-03-4.11171E-03-1.63825E-14
 -1      3122 7.04804E-03-3.98355E-03-1.57192E-14
 -1      3123 7.08717E-03-3.95677E-03-1.53986E-14
 -1      3124 7.47661E-03-4.36788E-03-1.77418E-14
 -1      3125 7.33376E-03-4.23982E-03-1.70563E-14
 -1      3126 7.37298E-03-4.21302E-03-1.67240E-14
 -1      3127 7.76230E-03-4.62388E-03-1.91430E-14
 -1      3128 7.61946E-03-4.49590E-03-1.84375E-14
 -1      3129 7.65872E-03-4.46909E-03-1.80949E-14
 -1      3130 8.04798E-03-4.87975E-03-2.05849E-14
 -1      3131 7.90514E-03-4.75183E-03-1.98593E-14
 -1      3132 7.94442E-03-4.72502E-03-1.95079E-14
 -1      3133 8.33366E-03-5.13551E-03-2.20623E-14
 -1      3134 8.19082E-03-5.00764E-03-2.13189E-14
 -1      3135 8.23011E-03-4.98083E-03-2.09569E-14
 -1      3136 8.61935E-03-5.39121E-03-2.35740E-14
 -1      3137 8.47651E-03-5.26337E-03-2.28148E-14
 -1      3138 8.51579E-03-5.23657E-03-2.24430E-14
 -1      3139 8.90505E-03-5.64685E-03-2.51205E-14
 -1      3140 8.76220E-03-5.51903E-03-2.43428E-14
 -1      3141 8.80148E-03-5.49224E-03-2.39625E-14
 -1      3142 9.19074E-03-5.90245E-03-2.67003E-14
 -1      3143 9.04789E-03-5.77465E-03-2.59072E-14
 -1      3144 9.08716E-03-5.74786E-03-2.55160E-14
 -1      3145 9.47645E-03-6.15803E-03-2.83046E-14
 -1      3146 9.33359E-03-6.03024E-03-2.74999E-14
 -1      3147 9.37285E-03-6.00346E-03-2.71002E-14
 -1      3148 9.76215E-03-6.41358E-03-2.99310E-14
 -1      3149 9.61930E-03-6.28581E-03-2.91142E-14
 -1      3150 9.65855E-03-6.25903E-03-2.87095E-14
 -1      3151 1.00479E-02-6.66913E-03-3.15728E-14
 -1      3152 9.90500E-03-6.54136E-03-3.07493E-14
 -1      3153 9.94425E-03-6.51458E-03-3.03366E-14
 -1      3154 1.03336E-02-6.92466E-03-3.32346E-14
 -1      3155 1.01907E-02-6.79689E-03-3.24014E-14
 -1      3156 1.02300E-02-6.77012E-03-3.19824E-14
 -1      3157 1.06193E-02-7.18019E-03-3.49148E-14
 -1      3158 1.04764E-02-7.05243E-03-3.40725E-14
 -1      3159 1.05157E-02-7.02566E-03-3.36448E-14
 -1      3160 1.09050E-02-7.43572E-03-3.66202E-14
 -1      3161 1.07621E-02-7.30796E-03-3.57647E-14
 -1      3162 1.08014E-02-7.28119E-03-3.53305E-14
 -1      3163 1.11907E-02-7.69125E-03-3.83449E-14
 -1      3164 1.10478E-02-7.56348E-03-3.74798E-14
 -1      3165 1.10871E-02-7.53671E-03-3.70395E-14
 -1      3166 1.14764E-02-7.94677E-03-4.00883E-14
 -1      3167 1.13336E-02-7.81901E-03-3.92146E-14
 -1      3168 1.13728E-02-7.79224E-03-3.87700E-14
 -1      3169 1.17621E-02-8.20230E-03-4.18517E-14
 -1      3170 1.16193E-02-8.07454E-03-4.09676E-14
 -1      3171 1.16585E-02-8.04777E-03-4.05206E-14
 -1      3172 1.20478E-02-8.45783E-03-4.36258E-14
 -1      3173 1.19050E-02-8.33006E-03-4.27376E-14
 -1      3174 1.19442E-02-8.30329E-03-4.22864E-14
 -1      3175 1.23336E-02-8.71335E-03-4.54054E-14
 -1      3176 1.21907E-02-8.58559E-03-4.45148E-14
 -1      3177 1.22299E-02-8.55882E-03-4.40630E-14
 -1      3178 1.26193E-02-8.96888E-03-4.71885E-14
 -1      3179 1.24764E-02-8.84112E-03-4.62976E-14
 -1      3180 1.25156E-02-8.81435E-03-4.58442E-14
 -1      3181 1.51438E-02-1.01183E-02-5.02884E-14
 -1      3182 1.50182E-02-1.00761E-02-5.03271E-14
 -1      3183 1.79335E-03-5.11770E-05-5.15077E-16
 -1      3184 1.95644E-03 5.92472E-06-6.10826E-16
 -1      3185 1.38917E-02-9.69830E-03-5.05382E-14
 -1      3186 1.37661E-02-9.65616E-03-5.05474E-14
 -1      3187 1.38308E-02-9.60873E-03-4.97514E-14
 -1      3188 1.48925E-02-1.00340E-02-5.03669E-14
 -1      3189 1.47669E-02-9.99187E-03-5.04023E-14
 -1      3190 1.48316E-02-9.94443E-03-4.95478E-14
 -1      3191 1.46434E-02-9.95044E-03-5.04334E-14
 -1      3192 1.45199E-02-9.90901E-03-5.04596E-14
 -1      3193 1.45825E-02-9.86086E-03-4.96217E-14
 -1      3194 4.77685E-04-4.11396E-04-1.29772E-16
 -1      3195 4.75758E-04-3.86951E-04-1.21465E-16
 -1      3196 3.34024E-03-4.12934E-04-1.80789E-15
 -1      3197 3.55814E-03-5.67066E-04-1.97866E-15
 -1      3198 6.30326E-04-3.66251E-04-1.41739E-16
 -1      3199 4.95821E-03-1.39622E-03-2.78519E-15
 -1      3200 5.23195E-03-1.50275E-03-2.86618E-15
 -1      3201 1.43943E-02-9.86687E-03-5.04818E-14
 -1      3202 1.42686E-02-9.82473E-03-5.05009E-14
 -1      3203 1.40821E-02-9.69301E-03-4.97200E-14
 -1      3204 1.43334E-02-9.77729E-03-4.96784E-14
 -1      3205 4.38731E-03-1.09597E-03-2.47026E-15
 -1      3206 4.62475E-03-1.23178E-03-2.61774E-15
 -1      3207 1.36426E-02-9.61474E-03-5.05482E-14
 -1      3208 1.35190E-02-9.57331E-03-5.05539E-14
 -1      3209 1.35817E-02-9.52516E-03-4.97680E-14
 -1      3210 3.85307E-03-7.68672E-04-2.18963E-15
 -1      3211 4.13373E-03-9.50239E-04-2.35361E-15
 -1      3212 1.33726E-02-9.51461E-03-5.04516E-14
 -1      3213 1.31650E-02-9.43427E-03-5.03358E-14
 -1      3214 1.30188E-02-9.30763E-03-4.94716E-14
 -1      3215 1.33117E-02-9.42503E-03-4.96713E-14
 -1      3216 6.44228E-03-1.95830E-03-3.80089E-15
 -1      3217 6.54214E-03-2.07167E-03-4.14618E-15
 -1      3218 6.49663E-03-2.11592E-03-4.37568E-15
 -1      3219 5.50976E-03-1.59077E-03-2.93140E-15
 -1      3220 5.73711E-03-1.64445E-03-2.96808E-15
 -1      3221 1.44210E-03-1.83894E-04-3.61852E-16
 -1      3222 1.61780E-03-1.18749E-04-4.31119E-16
 -1      3223 1.22623E-03 3.17367E-04-4.08324E-16
 -1      3224 4.01833E-03-1.26178E-03-4.88677E-15
 -1      3225 3.87124E-03-1.13168E-03-4.52648E-15
 -1      3226 3.88815E-03-1.10896E-03-4.35559E-15
 -1      3227 4.18786E-03-1.36925E-03-5.07638E-15
 -1      3228 2.91050E-03-1.30215E-04-1.41041E-15
 -1      3229 3.08368E-03-2.40992E-04-1.58372E-15
 -1      3230 2.55705E-03 2.28947E-05-1.05393E-15
 -1      3231 2.72497E-03-3.40341E-05-1.21601E-15
 -1      3232 2.19480E-03 4.54660E-05-7.67398E-16
 -1      3233 2.37764E-03 4.89034E-05-9.03303E-16
 -1      3234 2.42089E-03 4.48759E-05-9.80363E-16
 -1      3235 1.24892E-03 7.14030E-05-3.17129E-16
 -1      3236 1.26421E-03 2.66312E-05-3.10881E-16
 -1      3237 4.59022E-04-3.51919E-04-1.01115E-16
 -1      3238 4.28321E-04-3.14840E-04-8.60585E-17
 -1      3239 4.34050E-04-3.30582E-04-9.53353E-17
 -1      3240 2.41378E-03 1.94488E-05-1.59973E-15
 -1      3241 2.29078E-03 8.53849E-05-1.49605E-15
 -1      3242 2.15229E-03 1.52587E-04-1.30756E-15
 -1      3243 3.18734E-03-3.30761E-04-1.74603E-15
 -1      3244 1.45356E-03 3.24020E-04-5.74465E-16
 -1      3245 1.31059E-03 3.27192E-04-4.67969E-16
 -1      3246 1.08322E-03-1.67442E-04-2.29620E-16
 -1      3247 3.28809E-03-6.03167E-04-3.08217E-15
 -1      3248 3.13911E-03-5.05103E-04-2.93479E-15
 -1      3249 2.99486E-03-3.89476E-04-2.65812E-15
 -1      3250 4.67011E-03-1.29742E-03-2.86963E-15
 -1      3251 4.80793E-03-1.34830E-03-2.82767E-15
 -1      3252 4.98165E-03-1.45287E-03-3.04664E-15
 -1      3253 1.28921E-02-9.20158E-03-4.87620E-14
 -1      3254 1.27460E-02-9.07494E-03-4.78969E-14
 -1      3255 1.27852E-02-9.04817E-03-4.74449E-14
 -1      3256 1.30386E-02-9.26028E-03-4.88637E-14
 -1      3257 6.35603E-03-1.85459E-03-3.47323E-15
 -1      3258 6.30249E-03-1.90281E-03-3.68511E-15
 -1      3259 1.86117E-03 3.46017E-05-5.83409E-16
 -1      3260 2.02721E-03 4.13828E-05-6.72029E-16
 -1      3261 2.08295E-03 6.57261E-05-7.35347E-16
 -1      3262 4.24111E-03-1.03923E-03-2.53661E-15
 -1      3263 1.32607E-03 2.90750E-04-4.59864E-16
 -1      3264 6.20156E-03-1.66594E-03-2.85490E-15
 -1      3265 6.28405E-03-1.67418E-03-2.86769E-15
 -1      3266 1.53283E-02-1.01675E-02-5.00615E-14
 -1      3267 1.52329E-02-1.01444E-02-5.02087E-14
 -1      3268 1.50463E-02-1.00126E-02-4.94265E-14
 -1      3269 1.52244E-02-1.00648E-02-4.92664E-14
 -1      3270 3.71640E-03-6.99259E-04-2.19403E-15
 -1      3271 2.76980E-03-7.33258E-05-1.32403E-15
 -1      3272 1.63222E-03-6.45530E-05-4.43872E-16
 -1      3273 2.01404E-03 2.08831E-04-1.13321E-15
 -1      3274 1.87520E-03 2.54000E-04-9.73180E-16
 -1      3275 2.13006E-03 1.55266E-04-1.22256E-15
 -1      3276 1.26954E-03 2.47229E-04-4.02361E-16
 -1      3277 1.14989E-03 2.20576E-04-3.27795E-16
 -1      3278 1.17707E-03 1.86176E-04-3.27280E-16
 -1      3279 5.86317E-03-1.68980E-03-3.07233E-15
 -1      3280 5.97707E-03-1.72934E-03-3.17912E-15
 -1      3281 5.78589E-03-1.71622E-03-3.24816E-15
 -1      3282 1.84568E-03 2.45315E-04-9.02287E-16
 -1      3283 5.39707E-03-1.59038E-03-3.07223E-15
 -1      3284 6.36554E-03-1.80913E-03-3.30560E-15
 -1      3285 2.85178E-03-2.79212E-04-2.39653E-15
 -1      3286 2.70987E-03-1.75555E-04-2.14996E-15
 -1      3287 2.99179E-03-3.68783E-04-2.52952E-15
 -1      3288 6.17071E-03-1.70823E-03-3.02226E-15
 -1      3289 1.26091E-03-1.79699E-04-2.92843E-16
 -1      3290 2.70034E-03-1.57978E-04-2.03486E-15
 -1      3291 1.20370E-03 1.50408E-04-3.25464E-16
 -1      3292 1.22801E-03 1.12208E-04-3.22062E-16
 -1      3293 1.38981E-03 1.05287E-04-3.92278E-16
 -1      3294 1.33189E-03 1.79322E-04-4.00437E-16
 -1      3295 1.46078E-03-2.28663E-05-3.79633E-16
 -1      3296 1.29121E-03-6.78113E-05-3.05203E-16
 -1      3297 1.55751E-03 2.90544E-04-6.36887E-16
 -1      3298 1.27227E-03-1.27064E-04-2.94781E-16
 -1      3299 3.58256E-03-6.32127E-04-2.20977E-15
 -1      3300 3.85365E-03-8.20791E-04-2.43425E-15
 -1      3301 6.80615E-03-2.50559E-03-5.77881E-15
 -1      3302 6.93602E-03-2.62732E-03-6.19913E-15
 -1      3303 7.06882E-03-2.75029E-03-6.63220E-15
 -1      3304 7.20392E-03-2.87462E-03-7.08216E-15
 -1      3305 6.89087E-03-2.65902E-03-6.45965E-15
 -1      3306 7.34082E-03-2.99964E-03-7.54774E-15
 -1      3307 7.47917E-03-3.12540E-03-8.02924E-15
 -1      3308 7.16147E-03-2.90464E-03-7.35936E-15
 -1      3309 7.61859E-03-3.25153E-03-8.52791E-15
 -1      3310 7.75889E-03-3.37805E-03-9.04019E-15
 -1      3311 7.43818E-03-3.15414E-03-8.32185E-15
 -1      3312 7.90689E-03-3.51111E-03-9.59505E-15
 -1      3313 8.05545E-03-3.64440E-03-1.01682E-14
 -1      3314 7.72576E-03-3.41222E-03-9.37401E-15
 -1      3315 8.19730E-03-3.77145E-03-1.07289E-14
 -1      3316 8.33943E-03-3.89862E-03-1.13066E-14
 -1      3317 8.01572E-03-3.67166E-03-1.04903E-14
 -1      3318 8.48177E-03-4.02586E-03-1.18985E-14
 -1      3319 8.62427E-03-4.15316E-03-1.25036E-14
 -1      3320 8.29995E-03-3.92555E-03-1.16413E-14
 -1      3321 8.76687E-03-4.28052E-03-1.31212E-14
 -1      3322 8.90956E-03-4.40792E-03-1.37529E-14
 -1      3323 8.58492E-03-4.17991E-03-1.28505E-14
 -1      3324 9.05230E-03-4.53536E-03-1.43970E-14
 -1      3325 9.19509E-03-4.66283E-03-1.50520E-14
 -1      3326 8.87029E-03-4.43458E-03-1.41107E-14
 -1      3327 9.33791E-03-4.79034E-03-1.57191E-14
 -1      3328 9.48074E-03-4.91788E-03-1.63964E-14
 -1      3329 9.15587E-03-4.68947E-03-1.54185E-14
 -1      3330 9.62359E-03-5.04544E-03-1.70853E-14
 -1      3331 9.76645E-03-5.17303E-03-1.77877E-14
 -1      3332 9.44155E-03-4.94451E-03-1.67731E-14
 -1      3333 9.90931E-03-5.30064E-03-1.84955E-14
 -1      3334 1.00522E-02-5.42826E-03-1.92145E-14
 -1      3335 9.72727E-03-5.19968E-03-1.81683E-14
 -1      3336 1.01950E-02-5.55591E-03-1.99461E-14
 -1      3337 1.03379E-02-5.68357E-03-2.06843E-14
 -1      3338 1.00130E-02-5.45494E-03-1.96046E-14
 -1      3339 1.04808E-02-5.81125E-03-2.14327E-14
 -1      3340 1.06236E-02-5.93894E-03-2.21901E-14
 -1      3341 1.02987E-02-5.71027E-03-2.10804E-14
 -1      3342 1.07665E-02-6.06664E-03-2.29568E-14
 -1      3343 1.09093E-02-6.19436E-03-2.37306E-14
 -1      3344 1.05845E-02-5.96566E-03-2.25917E-14
 -1      3345 1.10522E-02-6.32208E-03-2.45089E-14
 -1      3346 1.11951E-02-6.44981E-03-2.52918E-14
 -1      3347 1.08702E-02-6.22109E-03-2.41361E-14
 -1      3348 1.13379E-02-6.57754E-03-2.60800E-14
 -1      3349 1.14808E-02-6.70529E-03-2.68730E-14
 -1      3350 1.11559E-02-6.47655E-03-2.57007E-14
 -1      3351 1.16236E-02-6.83303E-03-2.76672E-14
 -1      3352 1.17665E-02-6.96079E-03-2.84643E-14
 -1      3353 1.14416E-02-6.73204E-03-2.72832E-14
 -1      3354 1.19165E-02-7.09493E-03-2.93072E-14
 -1      3355 1.20665E-02-7.22908E-03-3.01522E-14
 -1      3356 1.17344E-02-6.99394E-03-2.89192E-14
 -1      3357 1.22093E-02-7.35684E-03-3.09605E-14
 -1      3358 1.23522E-02-7.48460E-03-3.17695E-14
 -1      3359 1.20273E-02-7.25584E-03-3.05717E-14
 -1      3360 1.24950E-02-7.61236E-03-3.25811E-14
 -1      3361 1.26379E-02-7.74013E-03-3.33982E-14
 -1      3362 1.23130E-02-7.51137E-03-3.21927E-14
 -1      3363 1.27808E-02-7.86790E-03-3.42194E-14
 -1      3364 1.29236E-02-7.99567E-03-3.50450E-14
 -1      3365 1.25987E-02-7.76690E-03-3.38288E-14
 -1      3366 1.30665E-02-8.12344E-03-3.58770E-14
 -1      3367 1.32093E-02-8.25120E-03-3.67087E-14
 -1      3368 1.28844E-02-8.02244E-03-3.54832E-14
 -1      3369 1.33522E-02-8.37897E-03-3.75492E-14
 -1      3370 1.34950E-02-8.50674E-03-3.83997E-14
 -1      3371 1.31701E-02-8.27798E-03-3.71583E-14
 -1      3372 1.36379E-02-8.63451E-03-3.92495E-14
 -1      3373 1.37807E-02-8.76228E-03-4.01044E-14
 -1      3374 1.34558E-02-8.53352E-03-3.88513E-14
 -1      3375 1.39236E-02-8.89005E-03-4.09695E-14
 -1      3376 1.40665E-02-9.01782E-03-4.18373E-14
 -1      3377 1.37415E-02-8.78906E-03-4.05686E-14
 -1      3378 1.42093E-02-9.14559E-03-4.27131E-14
 -1      3379 1.43522E-02-9.27336E-03-4.35989E-14
 -1      3380 1.40272E-02-9.04459E-03-4.23125E-14
 -1      3381 1.44950E-02-9.40113E-03-4.44854E-14
 -1      3382 1.46379E-02-9.52890E-03-4.53801E-14
 -1      3383 1.43130E-02-9.30013E-03-4.40802E-14
 -1      3384 1.47807E-02-9.65667E-03-4.62863E-14
 -1      3385 1.49236E-02-9.78443E-03-4.71927E-14
 -1      3386 1.45987E-02-9.55567E-03-4.58736E-14
 -1      3387 3.74929E-03-9.58691E-04-3.85357E-15
 -1      3388 3.59554E-03-8.30908E-04-3.53516E-15
 -1      3389 4.95893E-03-1.99841E-03-6.90637E-15
 -1      3390 4.81067E-03-1.86852E-03-6.47518E-15
 -1      3391 4.66150E-03-1.73850E-03-6.05765E-15
 -1      3392 4.51150E-03-1.60829E-03-5.65570E-15
 -1      3393 4.83981E-03-1.84674E-03-6.26390E-15
 -1      3394 5.54489E-03-2.51610E-03-8.77545E-15
 -1      3395 5.39934E-03-2.38691E-03-8.28672E-15
 -1      3396 5.83462E-03-2.77404E-03-9.79691E-15
 -1      3397 5.68997E-03-2.64513E-03-9.27881E-15
 -1      3398 5.72613E-03-2.62037E-03-9.02375E-15
 -1      3399 6.12293E-03-3.03152E-03-1.08761E-14
 -1      3400 5.97893E-03-2.90283E-03-1.03295E-14
 -1      3401 6.01618E-03-2.87741E-03-1.00608E-14
 -1      3402 6.41026E-03-3.28862E-03-1.20099E-14
 -1      3403 6.26670E-03-3.16011E-03-1.14356E-14
 -1      3404 6.30468E-03-3.13421E-03-1.11536E-14
 -1      3405 6.69694E-03-3.54539E-03-1.31982E-14
 -1      3406 6.55367E-03-3.41704E-03-1.25982E-14
 -1      3407 6.59214E-03-3.39081E-03-1.23025E-14
 -1      3408 6.98320E-03-3.80190E-03-1.44408E-14
 -1      3409 6.84011E-03-3.67368E-03-1.38132E-14
 -1      3410 6.87890E-03-3.64722E-03-1.35055E-14
 -1      3411 7.26921E-03-4.05820E-03-1.57293E-14
 -1      3412 7.12623E-03-3.93007E-03-1.50787E-14
 -1      3413 7.16522E-03-3.90348E-03-1.47592E-14
 -1      3414 7.55506E-03-4.31431E-03-1.70681E-14
 -1      3415 7.41215E-03-4.18627E-03-1.63936E-14
 -1      3416 7.45126E-03-4.15959E-03-1.60624E-14
 -1      3417 7.84082E-03-4.57029E-03-1.84489E-14
 -1      3418 7.69794E-03-4.44232E-03-1.77530E-14
 -1      3419 7.73714E-03-4.41558E-03-1.74119E-14
 -1      3420 8.12653E-03-4.82615E-03-1.98711E-14
 -1      3421 7.98368E-03-4.69823E-03-1.91547E-14
 -1      3422 8.02291E-03-4.67146E-03-1.88028E-14
 -1      3423 8.41222E-03-5.08192E-03-2.13299E-14
 -1      3424 8.26938E-03-4.95404E-03-2.05972E-14
 -1      3425 8.30863E-03-4.92726E-03-2.02351E-14
 -1      3426 8.69791E-03-5.33762E-03-2.28240E-14
 -1      3427 8.55506E-03-5.20977E-03-2.20716E-14
 -1      3428 8.59433E-03-5.18299E-03-2.17023E-14
 -1      3429 8.98359E-03-5.59327E-03-2.43501E-14
 -1      3430 8.84075E-03-5.46545E-03-2.35831E-14
 -1      3431 8.88001E-03-5.43866E-03-2.32030E-14
 -1      3432 9.26927E-03-5.84888E-03-2.59111E-14
 -1      3433 9.12643E-03-5.72108E-03-2.51266E-14
 -1      3434 9.16569E-03-5.69429E-03-2.47383E-14
 -1      3435 9.55496E-03-6.10446E-03-2.74996E-14
 -1      3436 9.41211E-03-5.97667E-03-2.67022E-14
 -1      3437 9.45137E-03-5.94989E-03-2.63061E-14
 -1      3438 9.84065E-03-6.36003E-03-2.91120E-14
 -1      3439 9.69780E-03-6.23225E-03-2.83025E-14
 -1      3440 9.73705E-03-6.20547E-03-2.78982E-14
 -1      3441 1.01263E-02-6.61557E-03-3.07398E-14
 -1      3442 9.98350E-03-6.48780E-03-2.99234E-14
 -1      3443 1.00227E-02-6.46102E-03-2.95119E-14
 -1      3444 1.04120E-02-6.87111E-03-3.23902E-14
 -1      3445 1.02692E-02-6.74335E-03-3.15642E-14
 -1      3446 1.03084E-02-6.71657E-03-3.11442E-14
 -1      3447 1.06977E-02-7.12665E-03-3.40562E-14
 -1      3448 1.05549E-02-6.99888E-03-3.32206E-14
 -1      3449 1.05941E-02-6.97211E-03-3.27972E-14
 -1      3450 1.09835E-02-7.38218E-03-3.57449E-14
 -1      3451 1.08406E-02-7.25441E-03-3.48968E-14
 -1      3452 1.08798E-02-7.22764E-03-3.44664E-14
 -1      3453 1.12692E-02-7.63771E-03-3.74595E-14
 -1      3454 1.11263E-02-7.50994E-03-3.66002E-14
 -1      3455 1.11655E-02-7.48317E-03-3.61592E-14
 -1      3456 1.15549E-02-7.89323E-03-3.91968E-14
 -1      3457 1.14120E-02-7.76547E-03-3.83256E-14
 -1      3458 1.14512E-02-7.73870E-03-3.78794E-14
 -1      3459 1.18406E-02-8.14876E-03-4.09506E-14
 -1      3460 1.16977E-02-8.02100E-03-4.00710E-14
 -1      3461 1.17369E-02-7.99423E-03-3.96210E-14
 -1      3462 1.21263E-02-8.40429E-03-4.27201E-14
 -1      3463 1.19834E-02-8.27652E-03-4.18342E-14
 -1      3464 1.20227E-02-8.24975E-03-4.13794E-14
 -1      3465 1.24120E-02-8.65982E-03-4.44976E-14
 -1      3466 1.22691E-02-8.53205E-03-4.36091E-14
 -1      3467 1.23084E-02-8.50528E-03-4.31517E-14
 -1      3468 1.26977E-02-8.91534E-03-4.62812E-14
 -1      3469 1.25549E-02-8.78758E-03-4.53894E-14
 -1      3470 1.25941E-02-8.76081E-03-4.49313E-14
 -1      3471 6.24781E-03-1.76286E-03-3.20006E-15
 -1      3472 3.05146E-03-2.64260E-04-1.70279E-15
 -1      3473 3.28941E-03-4.26304E-04-1.93586E-15
 -1      3474 1.37699E-02-9.51916E-03-4.89628E-14
 -1      3475 1.36443E-02-9.47701E-03-4.89768E-14
 -1      3476 1.47707E-02-9.85486E-03-4.87286E-14
 -1      3477 1.46451E-02-9.81271E-03-4.87713E-14
 -1      3478 1.45216E-02-9.77129E-03-4.88095E-14
 -1      3479 1.43981E-02-9.72986E-03-4.88435E-14
 -1      3480 1.44607E-02-9.68171E-03-4.79964E-14
 -1      3481 5.25320E-03-2.25759E-03-7.81164E-15
 -1      3482 5.10645E-03-2.12807E-03-7.35127E-15
 -1      3483 5.13873E-03-2.10518E-03-7.12574E-15
 -1      3484 5.43390E-03-2.36299E-03-8.04527E-15
 -1      3485 2.29039E-03 6.55809E-05-9.14768E-16
 -1      3486 2.45527E-03 3.54301E-05-1.06540E-15
 -1      3487 6.55812E-03-2.26916E-03-4.98251E-15
 -1      3488 6.67982E-03-2.38630E-03-5.37293E-15
 -1      3489 6.62970E-03-2.41996E-03-5.61941E-15
 -1      3490 4.16516E-03-1.01805E-03-2.63458E-15
 -1      3491 4.39438E-03-1.15412E-03-2.76032E-15
 -1      3492 1.44668E-03 2.65647E-04-5.26190E-16
 -1      3493 1.35879E-03 2.58179E-04-4.62060E-16
 -1      3494 1.39255E-03 2.25280E-04-4.62060E-16
 -1      3495 1.35208E-02-9.43559E-03-4.89886E-14
 -1      3496 1.33973E-02-9.39416E-03-4.89953E-14
 -1      3497 1.34599E-02-9.34601E-03-4.82029E-14
 -1      3498 6.33210E-03-2.04659E-03-4.24209E-15
 -1      3499 6.44157E-03-2.15612E-03-4.60480E-15
 -1      3500 6.38247E-03-2.19159E-03-4.83480E-15
 -1      3501 2.62881E-03-2.43897E-05-1.24397E-15
 -1      3502 2.79999E-03-1.11865E-04-1.43871E-15
 -1      3503 2.49376E-03 1.60974E-05-1.16526E-15
 -1      3504 1.96018E-03 2.01588E-04-9.79116E-16
 -1      3505 1.81380E-03 2.34582E-04-8.33074E-16
 -1      3506 6.13519E-03-1.74811E-03-3.18070E-15
 -1      3507 2.83593E-03-2.40301E-04-2.15442E-15
 -1      3508 2.68771E-03-1.40339E-04-1.92210E-15
 -1      3509 5.30382E-03-1.59728E-03-3.24141E-15
 -1      3510 5.55607E-03-1.68051E-03-3.31338E-15
 -1      3511 1.70587E-03 2.49937E-04-7.32473E-16
 -1      3512 1.55700E-03 2.63692E-04-6.09945E-16
 -1      3513 1.59643E-03 2.32701E-04-6.10067E-16
 -1      3514 1.81974E-03 2.13717E-04-7.98759E-16
 -1      3515 6.07795E-03-1.78660E-03-3.36153E-15
 -1      3516 3.42670E-03-5.41077E-04-2.15812E-15
 -1      3517 2.13081E-03 8.28801E-05-8.06524E-16
 -1      3518 2.16900E-03 9.05952E-05-8.79735E-16
 -1      3519 1.97261E-03 9.19416E-05-7.05938E-16
 -1      3520 4.57601E-03-1.27177E-03-2.97473E-15
 -1      3521 3.60123E-03-8.10479E-04-3.37977E-15
 -1      3522 3.44187E-03-7.04977E-04-3.23115E-15
 -1      3523 3.28881E-03-5.81884E-04-2.93967E-15
 -1      3524 3.90298E-03-1.08773E-03-4.18601E-15
 -1      3525 3.91597E-03-1.06781E-03-4.01712E-15
 -1      3526 4.05614E-03-1.21752E-03-4.53184E-15
 -1      3527 1.50221E-02-9.87326E-03-4.78308E-14
 -1      3528 1.51260E-02-9.97597E-03-4.86215E-14
 -1      3529 1.50369E-02-9.94990E-03-4.87002E-14
 -1      3530 1.48400E-02-9.77226E-03-4.74186E-14
 -1      3531 6.16265E-03-1.88137E-03-3.68240E-15
 -1      3532 1.32911E-02-9.35657E-03-4.89771E-14
 -1      3533 1.31447E-02-9.29787E-03-4.88825E-14
 -1      3534 1.30180E-02-9.19181E-03-4.81702E-14
 -1      3535 1.32302E-02-9.26699E-03-4.82022E-14
 -1      3536 4.53642E-03-1.58754E-03-5.45896E-15
 -1      3537 4.36052E-03-1.47801E-03-5.26765E-15
 -1      3538 4.20877E-03-1.34768E-03-4.89272E-15
 -1      3539 2.67284E-03-1.22355E-04-1.81008E-15
 -1      3540 2.54107E-03-4.94365E-05-1.70404E-15
 -1      3541 2.39528E-03 3.09076E-05-1.50134E-15
 -1      3542 1.38956E-02-9.56130E-03-4.89432E-14
 -1      3543 1.37090E-02-9.42958E-03-4.81705E-14
 -1      3544 1.40212E-02-9.60344E-03-4.89241E-14
 -1      3545 2.90055E-03-1.84546E-04-1.60679E-15
 -1      3546 2.99935E-03-2.63655E-04-1.78404E-15
 -1      3547 2.75964E-03-1.16690E-04-1.51322E-15
 -1      3548 1.69905E-03 1.70663E-05-4.96470E-16
 -1      3549 1.76414E-03 5.48076E-05-5.48498E-16
 -1      3550 5.03592E-03-1.51950E-03-3.32911E-15
 -1      3551 5.16694E-03-1.56066E-03-3.28532E-15
 -1      3552 5.34133E-03-1.66002E-03-3.53485E-15
 -1      3553 1.42725E-02-9.68772E-03-4.88751E-14
 -1      3554 1.41468E-02-9.64558E-03-4.89013E-14
 -1      3555 1.39603E-02-9.51386E-03-4.81264E-14
 -1      3556 4.00763E-03-9.37641E-04-2.65158E-15
 -1      3557 1.49479E-02-9.92383E-03-4.87817E-14
 -1      3558 1.42116E-02-9.59814E-03-4.80705E-14
 -1      3559 2.25037E-03 9.98672E-05-1.31290E-15
 -1      3560 2.10533E-03 1.56843E-04-1.13881E-15
 -1      3561 2.37467E-03 4.18213E-05-1.40430E-15
 -1      3562 1.47613E-02-9.79211E-03-4.80078E-14
 -1      3563 1.29212E-02-9.10661E-03-4.75808E-14
 -1      3564 1.27945E-02-9.00055E-03-4.68720E-14
 -1      3565 1.28337E-02-8.97378E-03-4.64144E-14
 -1      3566 1.30273E-02-9.14420E-03-4.75956E-14
 -1      3567 5.69421E-03-1.73605E-03-3.42445E-15
 -1      3568 5.82386E-03-1.78619E-03-3.53819E-15
 -1      3569 5.61039E-03-1.75070E-03-3.60412E-15
 -1      3570 6.07979E-03-1.91612E-03-3.89320E-15
 -1      3571 2.07845E-03 1.56570E-04-1.05677E-15
 -1      3572 3.13658E-03-4.62507E-04-2.66307E-15
 -1      3573 2.98554E-03-3.48273E-04-2.40129E-15
 -1      3574 3.28701E-03-5.60758E-04-2.79854E-15
 -1      3575 2.97677E-03-3.27370E-04-2.27451E-15
 -1      3576 1.55258E-03-3.60307E-05-4.15927E-16
 -1      3577 5.02041E-03-1.95507E-03-6.47072E-15
 -1      3578 4.86870E-03-1.82643E-03-6.05389E-15
 -1      3579 2.20102E-03 1.10618E-04-1.13557E-15
 -1      3580 2.04927E-03 1.54812E-04-9.76270E-16
 -1      3581 6.98060E-03-2.81044E-03-7.17192E-15
 -1      3582 7.11818E-03-2.93344E-03-7.63690E-15
 -1      3583 7.25698E-03-3.05736E-03-8.11893E-15
 -1      3584 7.39670E-03-3.18213E-03-8.61725E-15
 -1      3585 7.07469E-03-2.96103E-03-7.91740E-15
 -1      3586 7.54422E-03-3.31373E-03-9.15342E-15
 -1      3587 7.69237E-03-3.44590E-03-9.70763E-15
 -1      3588 7.36210E-03-3.21558E-03-8.93507E-15
 -1      3589 7.83394E-03-3.57213E-03-1.02524E-14
 -1      3590 7.97585E-03-3.69865E-03-1.08113E-14
 -1      3591 7.65184E-03-3.47280E-03-1.00159E-14
 -1      3592 8.11802E-03-3.82539E-03-1.13865E-14
 -1      3593 8.26039E-03-3.95232E-03-1.19769E-14
 -1      3594 7.93592E-03-3.72536E-03-1.11343E-14
 -1      3595 8.40291E-03-4.07939E-03-1.25811E-14
 -1      3596 8.54554E-03-4.20657E-03-1.31961E-14
 -1      3597 8.22081E-03-3.97893E-03-1.23113E-14
 -1      3598 8.68825E-03-4.33384E-03-1.38260E-14
 -1      3599 8.83101E-03-4.46120E-03-1.44680E-14
 -1      3600 8.50615E-03-4.23314E-03-1.35431E-14
 -1      3601 8.97382E-03-4.58861E-03-1.51207E-14
 -1      3602 9.11665E-03-4.71608E-03-1.57846E-14
 -1      3603 8.79173E-03-4.48776E-03-1.48247E-14
 -1      3604 9.25950E-03-4.84359E-03-1.64601E-14
 -1      3605 9.40236E-03-4.97114E-03-1.71484E-14
 -1      3606 9.07743E-03-4.74267E-03-1.61503E-14
 -1      3607 9.54522E-03-5.09872E-03-1.78446E-14
 -1      3608 9.68809E-03-5.22633E-03-1.85507E-14
 -1      3609 9.36317E-03-4.99776E-03-1.75219E-14
 -1      3610 9.83096E-03-5.35396E-03-1.92679E-14
 -1      3611 9.97382E-03-5.48162E-03-1.99952E-14
 -1      3612 9.64891E-03-5.25298E-03-1.89343E-14
 -1      3613 1.01167E-02-5.60929E-03-2.07327E-14
 -1      3614 1.02596E-02-5.73697E-03-2.14776E-14
 -1      3615 9.93465E-03-5.50830E-03-2.03860E-14
 -1      3616 1.04024E-02-5.86467E-03-2.22304E-14
 -1      3617 1.05453E-02-5.99238E-03-2.29948E-14
 -1      3618 1.02204E-02-5.76368E-03-2.18734E-14
 -1      3619 1.06881E-02-6.12010E-03-2.37639E-14
 -1      3620 1.08310E-02-6.24783E-03-2.45404E-14
 -1      3621 1.05061E-02-6.01911E-03-2.33953E-14
 -1      3622 1.09738E-02-6.37556E-03-2.53237E-14
 -1      3623 1.11167E-02-6.50330E-03-2.61101E-14
 -1      3624 1.07918E-02-6.27457E-03-2.49468E-14
 -1      3625 1.12595E-02-6.63105E-03-2.68995E-14
 -1      3626 1.14024E-02-6.75880E-03-2.76938E-14
 -1      3627 1.10775E-02-6.53006E-03-2.65189E-14
 -1      3628 1.15524E-02-6.89294E-03-2.85342E-14
 -1      3629 1.17024E-02-7.02709E-03-2.93776E-14
 -1      3630 1.13703E-02-6.79195E-03-2.81482E-14
 -1      3631 1.18452E-02-7.15485E-03-3.01827E-14
 -1      3632 1.19881E-02-7.28261E-03-3.09929E-14
 -1      3633 1.16632E-02-7.05386E-03-2.97949E-14
 -1      3634 1.21309E-02-7.41038E-03-3.18048E-14
 -1      3635 1.22738E-02-7.53814E-03-3.26184E-14
 -1      3636 1.19489E-02-7.30938E-03-3.14144E-14
 -1      3637 1.24166E-02-7.66591E-03-3.34395E-14
 -1      3638 1.25595E-02-7.79368E-03-3.42630E-14
 -1      3639 1.22346E-02-7.56492E-03-3.30481E-14
 -1      3640 1.27023E-02-7.92144E-03-3.50914E-14
 -1      3641 1.28452E-02-8.04921E-03-3.59259E-14
 -1      3642 1.25203E-02-7.82045E-03-3.47008E-14
 -1      3643 1.29880E-02-8.17698E-03-3.67630E-14
 -1      3644 1.31309E-02-8.30475E-03-3.76059E-14
 -1      3645 1.28060E-02-8.07599E-03-3.63685E-14
 -1      3646 1.32738E-02-8.43252E-03-3.84560E-14
 -1      3647 1.34166E-02-8.56029E-03-3.93079E-14
 -1      3648 1.30917E-02-8.33153E-03-3.80563E-14
 -1      3649 1.35595E-02-8.68806E-03-4.01681E-14
 -1      3650 1.37023E-02-8.81583E-03-4.10364E-14
 -1      3651 1.33774E-02-8.58706E-03-3.97687E-14
 -1      3652 1.38452E-02-8.94360E-03-4.19079E-14
 -1      3653 1.39880E-02-9.07137E-03-4.27880E-14
 -1      3654 1.36631E-02-8.84260E-03-4.15017E-14
 -1      3655 1.41309E-02-9.19914E-03-4.36761E-14
 -1      3656 1.42737E-02-9.32690E-03-4.45674E-14
 -1      3657 1.39488E-02-9.09814E-03-4.32662E-14
 -1      3658 1.44166E-02-9.45467E-03-4.54645E-14
 -1      3659 1.45595E-02-9.58244E-03-4.63727E-14
 -1      3660 1.42345E-02-9.35367E-03-4.50554E-14
 -1      3661 1.41507E-02-9.50857E-03-4.72605E-14
 -1      3662 1.40250E-02-9.46643E-03-4.72958E-14
 -1      3663 3.12328E-03-4.19615E-04-2.39599E-15
 -1      3664 2.96543E-03-3.05811E-04-2.14920E-15
 -1      3665 6.19815E-03-2.98059E-03-1.03269E-14
 -1      3666 6.05333E-03-2.85250E-03-9.79363E-15
 -1      3667 5.90803E-03-2.72441E-03-9.27536E-15
 -1      3668 5.76218E-03-2.59629E-03-8.77147E-15
 -1      3669 6.09049E-03-2.82811E-03-9.52771E-15
 -1      3670 6.77417E-03-3.49289E-03-1.25963E-14
 -1      3671 6.63054E-03-3.36482E-03-1.20081E-14
 -1      3672 7.06095E-03-3.74897E-03-1.38127E-14
 -1      3673 6.91763E-03-3.62093E-03-1.31981E-14
 -1      3674 6.95631E-03-3.59483E-03-1.28909E-14
 -1      3675 7.34728E-03-4.00499E-03-1.50793E-14
 -1      3676 7.20416E-03-3.87699E-03-1.44400E-14
 -1      3677 7.24306E-03-3.85063E-03-1.41206E-14
 -1      3678 7.63334E-03-4.26094E-03-1.63947E-14
 -1      3679 7.49034E-03-4.13298E-03-1.57302E-14
 -1      3680 7.52938E-03-4.10645E-03-1.54001E-14
 -1      3681 7.91922E-03-4.51682E-03-1.77558E-14
 -1      3682 7.77629E-03-4.38889E-03-1.70704E-14
 -1      3683 7.81542E-03-4.36225E-03-1.67275E-14
 -1      3684 8.20500E-03-4.77262E-03-1.91572E-14
 -1      3685 8.06212E-03-4.64473E-03-1.84514E-14
 -1      3686 8.10131E-03-4.61803E-03-1.81002E-14
 -1      3687 8.49073E-03-5.02836E-03-2.05994E-14
 -1      3688 8.34787E-03-4.90050E-03-1.98739E-14
 -1      3689 8.38709E-03-4.87376E-03-1.95131E-14
 -1      3690 8.77643E-03-5.28405E-03-2.20737E-14
 -1      3691 8.63358E-03-5.15621E-03-2.13324E-14
 -1      3692 8.67282E-03-5.12945E-03-2.09615E-14
 -1      3693 9.06211E-03-5.53970E-03-2.35840E-14
 -1      3694 8.91927E-03-5.41188E-03-2.28252E-14
 -1      3695 8.95852E-03-5.38511E-03-2.24463E-14
 -1      3696 9.34779E-03-5.79531E-03-2.51277E-14
 -1      3697 9.20495E-03-5.66751E-03-2.43509E-14
 -1      3698 9.24420E-03-5.64073E-03-2.39648E-14
 -1      3699 9.63347E-03-6.05090E-03-2.67003E-14
 -1      3700 9.49063E-03-5.92311E-03-2.59103E-14
 -1      3701 9.52988E-03-5.89633E-03-2.55160E-14
 -1      3702 9.91915E-03-6.30647E-03-2.82969E-14
 -1      3703 9.77631E-03-6.17868E-03-2.74954E-14
 -1      3704 9.81555E-03-6.15190E-03-2.70931E-14
 -1      3705 1.02048E-02-6.56202E-03-2.99126E-14
 -1      3706 1.00620E-02-6.43424E-03-2.91049E-14
 -1      3707 1.01012E-02-6.40746E-03-2.86952E-14
 -1      3708 1.04905E-02-6.81756E-03-3.15511E-14
 -1      3709 1.03477E-02-6.68979E-03-3.07282E-14
 -1      3710 1.03869E-02-6.66301E-03-3.03151E-14
 -1      3711 1.07762E-02-7.07310E-03-3.32043E-14
 -1      3712 1.06334E-02-6.94533E-03-3.23756E-14
 -1      3713 1.06726E-02-6.91855E-03-3.19543E-14
 -1      3714 1.10619E-02-7.32863E-03-3.48774E-14
 -1      3715 1.09191E-02-7.20087E-03-3.40385E-14
 -1      3716 1.09583E-02-7.17409E-03-3.36112E-14
 -1      3717 1.13476E-02-7.58416E-03-3.65761E-14
 -1      3718 1.12048E-02-7.45640E-03-3.57233E-14
 -1      3719 1.12440E-02-7.42962E-03-3.52898E-14
 -1      3720 1.16333E-02-7.83969E-03-3.83016E-14
 -1      3721 1.14905E-02-7.71193E-03-3.74360E-14
 -1      3722 1.15297E-02-7.68515E-03-3.69932E-14
 -1      3723 1.19190E-02-8.09522E-03-4.00454E-14
 -1      3724 1.17762E-02-7.96745E-03-3.91718E-14
 -1      3725 1.18154E-02-7.94068E-03-3.87228E-14
 -1      3726 1.22047E-02-8.35075E-03-4.18083E-14
 -1      3727 1.20619E-02-8.22298E-03-4.09239E-14
 -1      3728 1.21011E-02-8.19621E-03-4.04687E-14
 -1      3729 1.24904E-02-8.60628E-03-4.35829E-14
 -1      3730 1.23476E-02-8.47851E-03-4.26947E-14
 -1      3731 1.23868E-02-8.45174E-03-4.22340E-14
 -1      3732 1.27762E-02-8.86180E-03-4.53632E-14
 -1      3733 1.26333E-02-8.73404E-03-4.44722E-14
 -1      3734 1.26725E-02-8.70727E-03-4.40119E-14
 -1      3735 3.90638E-03-8.94575E-04-2.73479E-15
 -1      3736 4.19500E-03-1.08089E-03-2.95072E-15
 -1      3737 6.19740E-03-2.11350E-03-4.68955E-15
 -1      3738 6.32086E-03-2.22253E-03-5.06749E-15
 -1      3739 4.51524E-03-1.26681E-03-3.13519E-15
 -1      3740 4.76947E-03-1.40058E-03-3.25472E-15
 -1      3741 1.66922E-03 7.95382E-05-5.17151E-16
 -1      3742 1.82166E-03 8.88051E-05-6.06977E-16
 -1      3743 1.86942E-03 1.14396E-04-6.68072E-16
 -1      3744 6.44799E-03-2.33498E-03-5.46057E-15
 -1      3745 6.57766E-03-2.45071E-03-5.86765E-15
 -1      3746 6.26009E-03-2.24984E-03-5.30171E-15
 -1      3747 1.52014E-03 2.01504E-04-5.24984E-16
 -1      3748 1.42684E-03 1.92114E-04-4.60339E-16
 -1      3749 1.46052E-03 1.57629E-04-4.57032E-16
 -1      3750 1.33979E-02-9.25608E-03-4.74156E-14
 -1      3751 1.32744E-02-9.21465E-03-4.74316E-14
 -1      3752 2.34572E-03 5.89121E-05-1.07611E-15
 -1      3753 2.50844E-03 1.83775E-06-1.25422E-15
 -1      3754 1.43977E-02-9.59142E-03-4.71867E-14
 -1      3755 1.42742E-02-9.54999E-03-4.72263E-14
 -1      3756 1.40876E-02-9.41828E-03-4.64566E-14
 -1      3757 6.71005E-03-2.56866E-03-6.28736E-15
 -1      3758 6.84439E-03-2.68882E-03-6.72222E-15
 -1      3759 6.79775E-03-2.71677E-03-6.98638E-15
 -1      3760 3.27650E-03-4.56714E-04-2.11920E-15
 -1      3761 3.55037E-03-6.50965E-04-2.40792E-15
 -1      3762 6.48669E-03-3.23675E-03-1.14334E-14
 -1      3763 6.34258E-03-3.10867E-03-1.08729E-14
 -1      3764 6.66890E-03-3.33910E-03-1.17145E-14
 -1      3765 1.53960E-03 1.28564E-04-4.80884E-16
 -1      3766 1.57017E-03 9.13164E-05-4.73566E-16
 -1      3767 1.50963E-03 5.17629E-05-4.24519E-16
 -1      3768 1.63917E-03 1.40623E-04-5.47563E-16
 -1      3769 2.05943E-03 1.40830E-04-9.34040E-16
 -1      3770 1.93789E-03 1.77350E-04-8.65939E-16
 -1      3771 1.82493E-03 1.92918E-04-7.63238E-16
 -1      3772 6.52570E-03-2.47874E-03-6.11560E-15
 -1      3773 1.44808E-02-9.60229E-03-4.69556E-14
 -1      3774 1.42943E-02-9.47057E-03-4.61894E-14
 -1      3775 3.76654E-03-9.19721E-04-3.52963E-15
 -1      3776 3.60510E-03-7.90981E-04-3.22514E-15
 -1      3777 4.22828E-03-1.32763E-03-4.71024E-15
 -1      3778 1.38385E-02-9.33471E-03-4.65266E-14
 -1      3779 1.38994E-02-9.42429E-03-4.73282E-14
 -1      3780 1.37738E-02-9.38215E-03-4.73525E-14
 -1      3781 1.46629E-02-9.70329E-03-4.73701E-14
 -1      3782 2.19385E-03 9.51046E-05-9.54532E-16
 -1      3783 1.31334E-02-9.18179E-03-4.76095E-14
 -1      3784 2.95248E-03-2.82686E-04-2.02467E-15
 -1      3785 2.80962E-03-1.99446E-04-1.91672E-15
 -1      3786 2.65549E-03-1.03360E-04-1.69916E-15
 -1      3787 4.08789E-03-1.17936E-03-4.18091E-15
 -1      3788 3.92772E-03-1.04938E-03-3.84832E-15
 -1      3789 3.93851E-03-1.03213E-03-3.68058E-15
 -1      3790 4.95724E-03-1.51426E-03-3.50115E-15
 -1      3791 5.79827E-03-2.57296E-03-8.51953E-15
 -1      3792 5.61564E-03-2.46818E-03-8.28202E-15
 -1      3793 5.46834E-03-2.34001E-03-7.80685E-15
 -1      3794 4.38921E-03-1.21650E-03-3.22779E-15
 -1      3795 1.29747E-02-9.00665E-03-4.62339E-14
 -1      3796 1.30139E-02-8.97988E-03-4.57733E-14
 -1      3797 3.73225E-03-7.91959E-04-2.69011E-15
 -1      3798 5.48490E-03-1.72501E-03-3.65163E-15
 -1      3799 5.62294E-03-1.78501E-03-3.76947E-15
 -1      3800 5.36139E-03-1.69399E-03-3.69731E-15
 -1      3801 2.60563E-03-4.87499E-05-1.40648E-15
 -1      3802 4.71551E-03-1.69762E-03-5.65205E-15
 -1      3803 4.56090E-03-1.56847E-03-5.26365E-15
 -1      3804 4.89760E-03-1.80764E-03-5.84572E-15
 -1      3805 1.84105E-03 1.44974E-04-6.93551E-16
 -1      3806 1.98124E-03 1.34534E-04-8.01225E-16
 -1      3807 1.75362E-03 1.72871E-04-6.63749E-16
 -1      3808 6.01451E-03-1.94439E-03-4.08522E-15
 -1      3809 5.93338E-03-1.96836E-03-4.29985E-15
 -1      3810 5.32011E-03-2.21181E-03-7.34730E-15
 -1      3811 5.17087E-03-2.08348E-03-6.90287E-15
 -1      3812 5.20306E-03-2.06304E-03-6.67897E-15
 -1      3813 5.50285E-03-2.31800E-03-7.57022E-15
 -1      3814 2.50338E-03-1.88544E-05-1.49681E-15
 -1      3815 2.35186E-03 5.26545E-05-1.30908E-15
 -1      3816 2.32731E-03 6.26144E-05-1.21538E-15
 -1      3817 2.63666E-03-8.35485E-05-1.59033E-15
 -1      3818 1.63711E-03 2.02079E-04-6.08183E-16
 -1      3819 6.38046E-03-3.08350E-03-1.05924E-14
 -1      3820 3.12215E-03-3.61358E-04-2.00702E-15
 -1      3821 3.28284E-03-5.39684E-04-2.65757E-15
 -1      3822 3.27694E-03-5.17860E-04-2.51856E-15
 -1      3823 3.44356E-03-6.63837E-04-2.93441E-15
 -1      3824 1.36487E-02-9.34018E-03-4.73765E-14
 -1      3825 1.35230E-02-9.29804E-03-4.73980E-14
 -1      3826 1.33376E-02-9.16668E-03-4.66268E-14
 -1      3827 1.35878E-02-9.25061E-03-4.65831E-14
 -1      3828 4.92591E-03-1.53436E-03-3.73413E-15
 -1      3829 5.17065E-03-1.64557E-03-3.81745E-15
 -1      3830 3.60751E-03-7.71769E-04-3.07066E-15
 -1      3831 4.40466E-03-1.43907E-03-4.88924E-15
 -1      3832 4.24703E-03-1.30931E-03-4.52805E-15
 -1      3833 4.58523E-03-1.55110E-03-5.06881E-15
 -1      3834 7.17564E-03-3.11445E-03-8.70650E-15
 -1      3835 7.32403E-03-3.24526E-03-9.24239E-15
 -1      3836 7.46575E-03-3.37046E-03-9.77065E-15
 -1      3837 7.60776E-03-3.49617E-03-1.03131E-14
 -1      3838 7.27910E-03-3.26816E-03-9.52655E-15
 -1      3839 7.75001E-03-3.62226E-03-1.08702E-14
 -1      3840 7.89244E-03-3.74868E-03-1.14434E-14
 -1      3841 7.56379E-03-3.51919E-03-1.06096E-14
 -1      3842 8.03500E-03-3.87535E-03-1.20316E-14
 -1      3843 8.17767E-03-4.00223E-03-1.26317E-14
 -1      3844 7.84902E-03-3.77179E-03-1.17524E-14
 -1      3845 8.32041E-03-4.12928E-03-1.32456E-14
 -1      3846 8.46321E-03-4.25646E-03-1.38724E-14
 -1      3847 8.13457E-03-4.02542E-03-1.29513E-14
 -1      3848 8.60604E-03-4.38374E-03-1.45116E-14
 -1      3849 8.74889E-03-4.51111E-03-1.51634E-14
 -1      3850 8.42028E-03-4.27971E-03-1.42012E-14
 -1      3851 8.89176E-03-4.63855E-03-1.58256E-14
 -1      3852 9.03464E-03-4.76605E-03-1.64987E-14
 -1      3853 8.70606E-03-4.53443E-03-1.55015E-14
 -1      3854 9.17752E-03-4.89360E-03-1.71832E-14
 -1      3855 9.32040E-03-5.02118E-03-1.78781E-14
 -1      3856 8.99186E-03-4.78943E-03-1.68468E-14
 -1      3857 9.46328E-03-5.14880E-03-1.85830E-14
 -1      3858 9.60616E-03-5.27644E-03-1.92973E-14
 -1      3859 9.27764E-03-5.04461E-03-1.82348E-14
 -1      3860 9.74903E-03-5.40411E-03-2.00228E-14
 -1      3861 9.89190E-03-5.53179E-03-2.07569E-14
 -1      3862 9.56340E-03-5.29991E-03-1.96625E-14
 -1      3863 1.00348E-02-5.65949E-03-2.14994E-14
 -1      3864 1.01776E-02-5.78720E-03-2.22504E-14
 -1      3865 9.84914E-03-5.55529E-03-2.11273E-14
 -1      3866 1.03205E-02-5.91492E-03-2.30119E-14
 -1      3867 1.04633E-02-6.04264E-03-2.37794E-14
 -1      3868 1.01349E-02-5.81072E-03-2.26290E-14
 -1      3869 1.06062E-02-6.17038E-03-2.45527E-14
 -1      3870 1.07490E-02-6.29812E-03-2.53343E-14
 -1      3871 1.04206E-02-6.06619E-03-2.41626E-14
 -1      3872 1.08919E-02-6.42587E-03-2.61194E-14
 -1      3873 1.10347E-02-6.55362E-03-2.69078E-14
 -1      3874 1.07063E-02-6.32168E-03-2.57200E-14
 -1      3875 1.11847E-02-6.68776E-03-2.77426E-14
 -1      3876 1.13347E-02-6.82191E-03-2.85828E-14
 -1      3877 1.09991E-02-6.58358E-03-2.73389E-14
 -1      3878 1.14776E-02-6.94967E-03-2.93862E-14
 -1      3879 1.16204E-02-7.07743E-03-3.01926E-14
 -1      3880 1.12919E-02-6.84548E-03-2.89762E-14
 -1      3881 1.17633E-02-7.20520E-03-3.10024E-14
 -1      3882 1.19061E-02-7.33296E-03-3.18166E-14
 -1      3883 1.15776E-02-7.10101E-03-3.05908E-14
 -1      3884 1.20490E-02-7.46073E-03-3.26342E-14
 -1      3885 1.21918E-02-7.58850E-03-3.34575E-14
 -1      3886 1.18633E-02-7.35654E-03-3.22210E-14
 -1      3887 1.23346E-02-7.71626E-03-3.42827E-14
 -1      3888 1.24775E-02-7.84403E-03-3.51148E-14
 -1      3889 1.21490E-02-7.61208E-03-3.38665E-14
 -1      3890 1.26203E-02-7.97180E-03-3.59501E-14
 -1      3891 1.27632E-02-8.09957E-03-3.67881E-14
 -1      3892 1.24347E-02-7.86761E-03-3.55297E-14
 -1      3893 1.29061E-02-8.22734E-03-3.76334E-14
 -1      3894 1.30489E-02-8.35511E-03-3.84836E-14
 -1      3895 1.27204E-02-8.12315E-03-3.72106E-14
 -1      3896 1.31918E-02-8.48287E-03-3.93421E-14
 -1      3897 1.33346E-02-8.61064E-03-4.02052E-14
 -1      3898 1.30061E-02-8.37869E-03-3.89149E-14
 -1      3899 1.34775E-02-8.73841E-03-4.10735E-14
 -1      3900 1.36203E-02-8.86618E-03-4.19499E-14
 -1      3901 1.32918E-02-8.63422E-03-4.06445E-14
 -1      3902 1.37632E-02-8.99395E-03-4.28338E-14
 -1      3903 1.39060E-02-9.12172E-03-4.37238E-14
 -1      3904 1.35775E-02-8.88976E-03-4.24018E-14
 -1      3905 1.40287E-02-9.23226E-03-4.45033E-14
 -1      3906 1.41716E-02-9.36003E-03-4.54050E-14
 -1      3907 1.40885E-02-9.34916E-03-4.56341E-14
 -1      3908 1.38431E-02-9.12807E-03-4.40690E-14
 -1      3909 6.61240E-03-2.62296E-03-6.80265E-15
 -1      3910 6.75125E-03-2.74318E-03-7.25197E-15
 -1      3911 7.42522E-03-3.95219E-03-1.44302E-14
 -1      3912 7.28195E-03-3.82440E-03-1.38016E-14
 -1      3913 7.13855E-03-3.69664E-03-1.31867E-14
 -1      3914 6.99501E-03-3.56891E-03-1.25843E-14
 -1      3915 7.32085E-03-3.79830E-03-1.34829E-14
 -1      3916 7.99752E-03-4.46353E-03-1.70634E-14
 -1      3917 7.85453E-03-4.33568E-03-1.63866E-14
 -1      3918 8.28339E-03-4.71921E-03-1.84452E-14
 -1      3919 8.14047E-03-4.59137E-03-1.77496E-14
 -1      3920 8.17962E-03-4.56475E-03-1.73986E-14
 -1      3921 8.56917E-03-4.97488E-03-1.98688E-14
 -1      3922 8.42629E-03-4.84705E-03-1.91528E-14
 -1      3923 8.46548E-03-4.82037E-03-1.87926E-14
 -1      3924 8.85490E-03-5.23053E-03-2.13277E-14
 -1      3925 8.71204E-03-5.10271E-03-2.05927E-14
 -1      3926 8.75126E-03-5.07599E-03-2.02248E-14
 -1      3927 9.14060E-03-5.48616E-03-2.28203E-14
 -1      3928 8.99775E-03-5.35835E-03-2.20691E-14
 -1      3929 9.03698E-03-5.33160E-03-2.16934E-14
 -1      3930 9.42628E-03-5.74176E-03-2.43465E-14
 -1      3931 9.28344E-03-5.61396E-03-2.35800E-14
 -1      3932 9.32268E-03-5.58720E-03-2.31947E-14
 -1      3933 9.71196E-03-5.99734E-03-2.59048E-14
 -1      3934 9.56912E-03-5.86955E-03-2.51218E-14
 -1      3935 9.60836E-03-5.84278E-03-2.47288E-14
 -1      3936 9.99764E-03-6.25291E-03-2.74877E-14
 -1      3937 9.85480E-03-6.12513E-03-2.66937E-14
 -1      3938 9.89404E-03-6.09835E-03-2.62928E-14
 -1      3939 1.02833E-02-6.50846E-03-2.90938E-14
 -1      3940 1.01405E-02-6.38069E-03-2.82889E-14
 -1      3941 1.01797E-02-6.35391E-03-2.78816E-14
 -1      3942 1.05690E-02-6.76401E-03-3.07162E-14
 -1      3943 1.04262E-02-6.63624E-03-2.99019E-14
 -1      3944 1.04654E-02-6.60946E-03-2.94913E-14
 -1      3945 1.08547E-02-7.01955E-03-3.23571E-14
 -1      3946 1.07118E-02-6.89178E-03-3.15348E-14
 -1      3947 1.07511E-02-6.86500E-03-3.11168E-14
 -1      3948 1.11404E-02-7.27508E-03-3.40194E-14
 -1      3949 1.09975E-02-7.14731E-03-3.31856E-14
 -1      3950 1.10368E-02-7.12054E-03-3.27599E-14
 -1      3951 1.14261E-02-7.53061E-03-3.56998E-14
 -1      3952 1.12832E-02-7.40285E-03-3.48561E-14
 -1      3953 1.13225E-02-7.37607E-03-3.44240E-14
 -1      3954 1.17118E-02-7.78614E-03-3.74103E-14
 -1      3955 1.15689E-02-7.65838E-03-3.65528E-14
 -1      3956 1.16081E-02-7.63160E-03-3.61109E-14
 -1      3957 1.19975E-02-8.04167E-03-3.91387E-14
 -1      3958 1.18546E-02-7.91391E-03-3.82726E-14
 -1      3959 1.18938E-02-7.88714E-03-3.78226E-14
 -1      3960 1.22832E-02-8.29720E-03-4.08911E-14
 -1      3961 1.21403E-02-8.16944E-03-4.00141E-14
 -1      3962 1.21795E-02-8.14267E-03-3.95573E-14
 -1      3963 1.25689E-02-8.55273E-03-4.26597E-14
 -1      3964 1.24260E-02-8.42497E-03-4.17735E-14
 -1      3965 1.24653E-02-8.39820E-03-4.13121E-14
 -1      3966 1.28546E-02-8.80826E-03-4.44407E-14
 -1      3967 1.27117E-02-8.68050E-03-4.35485E-14
 -1      3968 1.27510E-02-8.65373E-03-4.30835E-14
 -1      3969 1.30366E-02-9.09658E-03-4.70162E-14
 -1      3970 3.57871E-03-7.03568E-04-2.66719E-15
 -1      3971 3.91473E-03-9.36413E-04-3.01525E-15
 -1      3972 1.31953E-02-9.05990E-03-4.59689E-14
 -1      3973 1.29968E-02-8.91505E-03-4.50977E-14
 -1      3974 1.30360E-02-8.88828E-03-4.46314E-14
 -1      3975 1.33204E-02-9.10186E-03-4.59467E-14
 -1      3976 7.71149E-03-4.20784E-03-1.57230E-14
 -1      3977 7.56839E-03-4.08001E-03-1.50708E-14
 -1      3978 7.89362E-03-4.30917E-03-1.60467E-14
 -1      3979 4.30544E-03-1.19043E-03-3.36303E-15
 -1      3980 4.60456E-03-1.36625E-03-3.56491E-15
 -1      3981 6.27340E-03-2.93144E-03-9.78019E-15
 -1      3982 6.12783E-03-2.80426E-03-9.26150E-15
 -1      3983 6.06500E-03-2.16239E-03-5.14317E-15
 -1      3984 6.20052E-03-2.27388E-03-5.53705E-15
 -1      3985 6.33712E-03-2.38802E-03-5.94463E-15
 -1      3986 6.47421E-03-2.50451E-03-6.36536E-15
 -1      3987 6.14408E-03-2.29585E-03-5.77320E-15
 -1      3988 6.89095E-03-2.86478E-03-7.71669E-15
 -1      3989 7.03123E-03-2.98761E-03-8.19872E-15
 -1      3990 6.70555E-03-2.76837E-03-7.51889E-15
 -1      3991 1.39650E-02-9.30773E-03-4.56684E-14
 -1      3992 1.38414E-02-9.26631E-03-4.57048E-14
 -1      3993 1.38423E-02-9.19719E-03-4.48859E-14
 -1      3994 6.85127E-03-3.44125E-03-1.19971E-14
 -1      3995 6.70730E-03-3.31365E-03-1.14218E-14
 -1      3996 7.03374E-03-3.54318E-03-1.22797E-14
 -1      3997 2.98787E-03-2.90409E-04-1.96338E-15
 -1      3998 3.25058E-03-4.75833E-04-2.31605E-15
 -1      3999 6.56305E-03-3.18614E-03-1.08599E-14
 -1      4000 6.41844E-03-3.05872E-03-1.03134E-14
 -1      4001 6.74581E-03-3.28847E-03-1.11298E-14
 -1      4002 3.42102E-03-6.03627E-04-2.57310E-15
 -1      4003 3.76506E-03-8.73027E-04-3.17755E-15
 -1      4004 3.59460E-03-7.41524E-04-2.88854E-15
 -1      4005 6.99172E-03-3.01643E-03-8.49105E-15
 -1      4006 1.37158E-02-9.22417E-03-4.57402E-14
 -1      4007 1.35902E-02-9.18203E-03-4.57719E-14
 -1      4008 1.35931E-02-9.11362E-03-4.49544E-14
 -1      4009 7.60741E-03-4.05366E-03-1.47407E-14
 -1      4010 4.82111E-03-1.50752E-03-3.88325E-15
 -1      4011 4.26530E-03-1.29261E-03-4.34673E-15
 -1      4012 5.98162E-03-2.67726E-03-8.75722E-15
 -1      4013 5.83465E-03-2.55036E-03-8.26830E-15
 -1      4014 6.16549E-03-2.78096E-03-8.99682E-15
 -1      4015 4.10374E-03-1.13606E-03-3.79967E-15
 -1      4016 3.93522E-03-1.00482E-03-3.48223E-15
 -1      4017 3.93133E-03-9.78271E-04-3.28475E-15
 -1      4018 5.31214E-03-1.71655E-03-3.94083E-15
 -1      4019 5.45128E-03-1.78427E-03-4.06520E-15
 -1      4020 5.27466E-03-1.73960E-03-4.18810E-15
 -1      4021 5.78128E-03-1.98199E-03-4.61415E-15
 -1      4022 5.71399E-03-1.99697E-03-4.83092E-15
 -1      4023 5.08243E-03-1.91733E-03-6.04013E-15
 -1      4024 4.92718E-03-1.79048E-03-5.63830E-15
 -1      4025 2.15142E-03 1.13730E-04-9.84916E-16
 -1      4026 2.42325E-03 2.63505E-05-1.27470E-15
 -1      4027 2.66366E-03-8.76289E-05-1.53638E-15
 -1      4028 6.45661E-03-3.03433E-03-1.00345E-14
 -1      4029 5.38754E-03-2.17048E-03-6.88859E-15
 -1      4030 5.23584E-03-2.04391E-03-6.45667E-15
 -1      4031 5.26952E-03-2.02615E-03-6.23641E-15
 -1      4032 4.09556E-03-1.07232E-03-3.31245E-15
 -1      4033 4.30273E-03-1.22379E-03-3.65265E-15
 -1      4034 6.42428E-03-2.52858E-03-6.61790E-15
 -1      4035 2.82442E-03-1.82228E-04-1.74227E-15
 -1      4036 6.80495E-03-2.91655E-03-8.27180E-15
 -1      4037 6.95098E-03-3.04306E-03-8.77964E-15
 -1      4038 4.76979E-03-1.66338E-03-5.24950E-15
 -1      4039 4.61023E-03-1.53561E-03-4.87413E-15
 -1      4040 4.95783E-03-1.77501E-03-5.43109E-15
 -1      4041 7.78962E-03-4.15504E-03-1.50512E-14
 -1      4042 7.64644E-03-4.02740E-03-1.44098E-14
 -1      4043 7.38074E-03-3.41921E-03-1.03653E-14
 -1      4044 7.52353E-03-3.54511E-03-1.09196E-14
 -1      4045 7.66638E-03-3.67137E-03-1.14895E-14
 -1      4046 7.80926E-03-3.79793E-03-1.20752E-14
 -1      4047 7.48350E-03-3.57084E-03-1.12304E-14
 -1      4048 7.95217E-03-3.92472E-03-1.26735E-14
 -1      4049 8.09509E-03-4.05171E-03-1.32849E-14
 -1      4050 7.76963E-03-3.82395E-03-1.23977E-14
 -1      4051 8.23803E-03-4.17885E-03-1.39091E-14
 -1      4052 8.38096E-03-4.30611E-03-1.45456E-14
 -1      4053 8.05570E-03-4.07793E-03-1.36191E-14
 -1      4054 8.52390E-03-4.43348E-03-1.51963E-14
 -1      4055 8.66682E-03-4.56092E-03-1.58575E-14
 -1      4056 8.34169E-03-4.33249E-03-1.48921E-14
 -1      4057 8.80974E-03-4.68843E-03-1.65295E-14
 -1      4058 8.95266E-03-4.81599E-03-1.72122E-14
 -1      4059 8.62761E-03-4.58741E-03-1.62133E-14
 -1      4060 9.09556E-03-4.94360E-03-1.79055E-14
 -1      4061 9.23845E-03-5.07123E-03-1.86079E-14
 -1      4062 8.91346E-03-4.84256E-03-1.75784E-14
 -1      4063 9.38134E-03-5.19889E-03-1.93211E-14
 -1      4064 9.52422E-03-5.32657E-03-2.00458E-14
 -1      4065 9.19927E-03-5.09786E-03-1.89828E-14
 -1      4066 9.66709E-03-5.45427E-03-2.07778E-14
 -1      4067 9.80996E-03-5.58199E-03-2.15186E-14
 -1      4068 9.48503E-03-5.35325E-03-2.04285E-14
 -1      4069 9.95282E-03-5.70971E-03-2.22683E-14
 -1      4070 1.00957E-02-5.83744E-03-2.30266E-14
 -1      4071 9.77077E-03-5.60869E-03-2.19097E-14
 -1      4072 1.02385E-02-5.96518E-03-2.37938E-14
 -1      4073 1.03814E-02-6.09293E-03-2.45650E-14
 -1      4074 1.00565E-02-5.86418E-03-2.34240E-14
 -1      4075 1.05242E-02-6.22068E-03-2.53423E-14
 -1      4076 1.06671E-02-6.34843E-03-2.61255E-14
 -1      4077 1.03422E-02-6.11968E-03-2.49670E-14
 -1      4078 1.08171E-02-6.48258E-03-2.69566E-14
 -1      4079 1.09670E-02-6.61673E-03-2.77906E-14
 -1      4080 1.06350E-02-6.38158E-03-2.65729E-14
 -1      4081 1.11099E-02-6.74449E-03-2.85884E-14
 -1      4082 1.12527E-02-6.87225E-03-2.93918E-14
 -1      4083 1.09278E-02-6.64350E-03-2.82028E-14
 -1      4084 1.13956E-02-7.00002E-03-3.02016E-14
 -1      4085 1.15384E-02-7.12778E-03-3.10131E-14
 -1      4086 1.12135E-02-6.89902E-03-2.98111E-14
 -1      4087 1.16813E-02-7.25555E-03-3.18281E-14
 -1      4088 1.18241E-02-7.38332E-03-3.26486E-14
 -1      4089 1.14992E-02-7.15456E-03-3.14368E-14
 -1      4090 1.19670E-02-7.51108E-03-3.34718E-14
 -1      4091 1.21098E-02-7.63885E-03-3.42996E-14
 -1      4092 1.17849E-02-7.41009E-03-3.30767E-14
 -1      4093 1.22527E-02-7.76662E-03-3.51310E-14
 -1      4094 1.23955E-02-7.89439E-03-3.59686E-14
 -1      4095 1.20706E-02-7.66563E-03-3.47338E-14
 -1      4096 1.25383E-02-8.02215E-03-3.68109E-14
 -1      4097 1.26812E-02-8.14992E-03-3.76568E-14
 -1      4098 1.23563E-02-7.92116E-03-3.64095E-14
 -1      4099 1.28241E-02-8.27769E-03-3.85120E-14
 -1      4100 1.29669E-02-8.40546E-03-3.93718E-14
 -1      4101 1.26420E-02-8.17670E-03-3.81077E-14
 -1      4102 1.31098E-02-8.53323E-03-4.02367E-14
 -1      4103 1.32526E-02-8.66100E-03-4.11087E-14
 -1      4104 1.29277E-02-8.43223E-03-3.98296E-14
 -1      4105 1.33955E-02-8.78876E-03-4.19927E-14
 -1      4106 1.35383E-02-8.91653E-03-4.28803E-14
 -1      4107 1.32134E-02-8.68777E-03-4.15798E-14
 -1      4108 1.37196E-02-9.08665E-03-4.41014E-14
 -1      4109 4.27804E-03-1.27104E-03-4.13687E-15
 -1      4110 4.28379E-03-1.24675E-03-3.92380E-15
 -1      4111 8.64756E-03-4.92150E-03-1.91394E-14
 -1      4112 8.50466E-03-4.79372E-03-1.84313E-14
 -1      4113 8.36172E-03-4.66594E-03-1.77339E-14
 -1      4114 8.21876E-03-4.53818E-03-1.70474E-14
 -1      4115 8.54383E-03-4.76710E-03-1.80709E-14
 -1      4116 9.21905E-03-5.43265E-03-2.20573E-14
 -1      4117 9.07620E-03-5.30487E-03-2.13147E-14
 -1      4118 9.50475E-03-5.68823E-03-2.35684E-14
 -1      4119 9.36190E-03-5.56044E-03-2.28088E-14
 -1      4120 9.40112E-03-5.53370E-03-2.24224E-14
 -1      4121 9.79043E-03-5.94380E-03-2.51106E-14
 -1      4122 9.64759E-03-5.81601E-03-2.43372E-14
 -1      4123 9.68682E-03-5.78926E-03-2.39434E-14
 -1      4124 1.00761E-02-6.19936E-03-2.66806E-14
 -1      4125 9.93327E-03-6.07158E-03-2.58918E-14
 -1      4126 9.97250E-03-6.04481E-03-2.54930E-14
 -1      4127 1.03618E-02-6.45491E-03-2.82732E-14
 -1      4128 1.02189E-02-6.32713E-03-2.74742E-14
 -1      4129 1.02582E-02-6.30036E-03-2.70679E-14
 -1      4130 1.06475E-02-6.71045E-03-2.98858E-14
 -1      4131 1.05046E-02-6.58268E-03-2.90777E-14
 -1      4132 1.05439E-02-6.55590E-03-2.86643E-14
 -1      4133 1.09331E-02-6.96599E-03-3.15148E-14
 -1      4134 1.07903E-02-6.83822E-03-3.06979E-14
 -1      4135 1.08295E-02-6.81145E-03-3.02798E-14
 -1      4136 1.12188E-02-7.22153E-03-3.31624E-14
 -1      4137 1.10760E-02-7.09376E-03-3.23366E-14
 -1      4138 1.11152E-02-7.06698E-03-3.19119E-14
 -1      4139 1.15045E-02-7.47706E-03-3.48299E-14
 -1      4140 1.13617E-02-7.34930E-03-3.39941E-14
 -1      4141 1.14009E-02-7.32252E-03-3.35644E-14
 -1      4142 1.17902E-02-7.73260E-03-3.65245E-14
 -1      4143 1.16474E-02-7.60483E-03-3.56733E-14
 -1      4144 1.16866E-02-7.57805E-03-3.52384E-14
 -1      4145 1.20759E-02-7.98813E-03-3.82346E-14
 -1      4146 1.19331E-02-7.86036E-03-3.73769E-14
 -1      4147 1.19723E-02-7.83359E-03-3.69309E-14
 -1      4148 1.23616E-02-8.24366E-03-3.99719E-14
 -1      4149 1.22188E-02-8.11589E-03-3.90986E-14
 -1      4150 1.22580E-02-8.08912E-03-3.86453E-14
 -1      4151 1.26473E-02-8.49919E-03-4.17316E-14
 -1      4152 1.25045E-02-8.37142E-03-4.08512E-14
 -1      4153 1.25437E-02-8.34465E-03-4.03868E-14
 -1      4154 1.29330E-02-8.75472E-03-4.35073E-14
 -1      4155 1.27902E-02-8.62696E-03-4.26165E-14
 -1      4156 1.28294E-02-8.60018E-03-4.21488E-14
 -1      4157 8.07576E-03-4.41044E-03-1.63708E-14
 -1      4158 7.93272E-03-4.28272E-03-1.57057E-14
 -1      4159 7.97183E-03-4.25633E-03-1.53633E-14
 -1      4160 8.25790E-03-4.51165E-03-1.66957E-14
 -1      4161 6.92868E-03-3.39050E-03-1.13984E-14
 -1      4162 6.78451E-03-3.26353E-03-1.08367E-14
 -1      4163 4.48470E-03-1.35832E-03-3.98538E-15
 -1      4164 5.94695E-03-2.20107E-03-5.60379E-15
 -1      4165 6.09044E-03-2.31601E-03-6.01121E-15
 -1      4166 5.82594E-03-1.94874E-03-4.35016E-15
 -1      4167 5.68676E-03-2.42364E-03-7.79379E-15
 -1      4168 5.53779E-03-2.29699E-03-7.33428E-15
 -1      4169 5.57343E-03-2.27703E-03-7.09849E-15
 -1      4170 5.87152E-03-2.52853E-03-8.01830E-15
 -1      4171 2.26653E-03 8.31670E-05-1.10395E-15
 -1      4172 6.64001E-03-3.13679E-03-1.02893E-14
 -1      4173 6.49511E-03-3.01028E-03-9.75676E-15
 -1      4174 6.82348E-03-3.23882E-03-1.05454E-14
 -1      4175 4.77123E-03-1.52206E-03-4.17418E-15
 -1      4176 5.06971E-03-1.68140E-03-4.36245E-15
 -1      4177 4.73333E-03-1.54116E-03-4.46820E-15
 -1      4178 6.23344E-03-2.43281E-03-6.43379E-15
 -1      4179 6.37593E-03-2.55127E-03-6.87041E-15
 -1      4180 6.03999E-03-2.33527E-03-6.25089E-15
 -1      4181 8.93333E-03-5.17707E-03-2.05810E-14
 -1      4182 8.79046E-03-5.04929E-03-1.98550E-14
 -1      4183 9.11540E-03-5.27815E-03-2.09365E-14
 -1      4184 7.50317E-03-3.89982E-03-1.37820E-14
 -1      4185 7.35980E-03-3.77232E-03-1.31662E-14
 -1      4186 7.68551E-03-4.00122E-03-1.40821E-14
 -1      4187 6.51839E-03-2.67126E-03-7.32048E-15
 -1      4188 6.66073E-03-2.79257E-03-7.78575E-15
 -1      4189 6.32948E-03-2.57318E-03-7.12319E-15
 -1      4190 7.21628E-03-3.64492E-03-1.25640E-14
 -1      4191 7.07259E-03-3.51763E-03-1.19750E-14
 -1      4192 7.39883E-03-3.74646E-03-1.28494E-14
 -1      4193 1.35179E-02-9.16292E-03-4.58495E-14
 -1      4194 1.33928E-02-9.12096E-03-4.58744E-14
 -1      4195 1.32505E-02-9.01417E-03-4.52157E-14
 -1      4196 1.33952E-02-9.05238E-03-4.50643E-14
 -1      4197 4.44260E-03-1.40044E-03-4.48373E-15
 -1      4198 7.09535E-03-3.16885E-03-9.29679E-15
 -1      4199 7.23800E-03-3.29376E-03-9.82355E-15
 -1      4200 7.19728E-03-3.31907E-03-1.01211E-14
 -1      4201 1.35375E-02-8.98565E-03-4.36883E-14
 -1      4202 4.63102E-03-1.51550E-03-4.65005E-15
 -1      4203 7.11159E-03-3.49224E-03-1.16696E-14
 -1      4204 8.82965E-03-5.02260E-03-1.94859E-14
 -1      4205 6.34970E-03-2.88406E-03-9.23803E-15
 -1      4206 6.20368E-03-2.75815E-03-8.73374E-15
 -1      4207 6.53406E-03-2.98655E-03-9.48040E-15
 -1      4208 1.30752E-02-8.86151E-03-4.41635E-14
 -1      4209 6.61883E-03-2.81768E-03-8.05935E-15
 -1      4210 5.47814E-03-1.89307E-03-4.70391E-15
 -1      4211 5.77862E-03-2.08442E-03-5.23977E-15
 -1      4212 5.20832E-03-1.75343E-03-4.46540E-15
 -1      4213 5.34081E-03-1.82530E-03-4.60030E-15
 -1      4214 5.41651E-03-1.91221E-03-4.99599E-15
 -1      4215 5.14972E-03-1.77144E-03-4.77816E-15
 -1      4216 6.90912E-03-3.06770E-03-9.06267E-15
 -1      4217 5.45848E-03-2.13385E-03-6.43296E-15
 -1      4218 5.30479E-03-2.00971E-03-6.01641E-15
 -1      4219 5.34210E-03-1.99466E-03-5.79738E-15
 -1      4220 5.14884E-03-1.88568E-03-5.61365E-15
 -1      4221 4.99032E-03-1.76124E-03-5.22463E-15
 -1      4222 5.72349E-03-2.09930E-03-5.46434E-15
 -1      4223 1.35322E-02-9.02405E-03-4.41592E-14
 -1      4224 1.34066E-02-8.98191E-03-4.41933E-14
 -1      4225 4.90275E-03-1.67239E-03-4.86164E-15
 -1      4226 7.58695E-03-3.72307E-03-1.21244E-14
 -1      4227 7.73014E-03-3.84992E-03-1.27208E-14
 -1      4228 7.87328E-03-3.97695E-03-1.33316E-14
 -1      4229 8.01637E-03-4.10414E-03-1.39543E-14
 -1      4230 7.69078E-03-3.87587E-03-1.30446E-14
 -1      4231 8.15943E-03-4.23145E-03-1.45901E-14
 -1      4232 8.30245E-03-4.35886E-03-1.52384E-14
 -1      4233 7.97712E-03-4.13035E-03-1.42912E-14
 -1      4234 8.44544E-03-4.48635E-03-1.58979E-14
 -1      4235 8.58841E-03-4.61390E-03-1.65689E-14
 -1      4236 8.26325E-03-4.38525E-03-1.55841E-14
 -1      4237 8.73135E-03-4.74150E-03-1.72505E-14
 -1      4238 8.87428E-03-4.86914E-03-1.79433E-14
 -1      4239 8.54923E-03-4.64041E-03-1.69250E-14
 -1      4240 9.01719E-03-4.99681E-03-1.86461E-14
 -1      4241 9.16009E-03-5.12450E-03-1.93583E-14
 -1      4242 8.83510E-03-4.89574E-03-1.83102E-14
 -1      4243 9.30297E-03-5.25221E-03-2.00795E-14
 -1      4244 9.44584E-03-5.37993E-03-2.08110E-14
 -1      4245 9.12090E-03-5.15116E-03-1.97332E-14
 -1      4246 9.58871E-03-5.50767E-03-2.15511E-14
 -1      4247 9.73157E-03-5.63541E-03-2.22991E-14
 -1      4248 9.40665E-03-5.40663E-03-2.11929E-14
 -1      4249 9.87442E-03-5.76316E-03-2.30553E-14
 -1      4250 1.00173E-02-5.89091E-03-2.38200E-14
 -1      4251 9.69237E-03-5.66214E-03-2.26886E-14
 -1      4252 1.01601E-02-6.01867E-03-2.45927E-14
 -1      4253 1.03030E-02-6.14643E-03-2.53687E-14
 -1      4254 9.97807E-03-5.91766E-03-2.42166E-14
 -1      4255 1.04530E-02-6.28058E-03-2.61915E-14
 -1      4256 1.06029E-02-6.41473E-03-2.70224E-14
 -1      4257 1.02709E-02-6.17958E-03-2.58119E-14
 -1      4258 1.07458E-02-6.54250E-03-2.78183E-14
 -1      4259 1.08886E-02-6.67026E-03-2.86161E-14
 -1      4260 1.05637E-02-6.44150E-03-2.74323E-14
 -1      4261 1.10315E-02-6.79803E-03-2.94203E-14
 -1      4262 1.11743E-02-6.92580E-03-3.02299E-14
 -1      4263 1.08494E-02-6.69704E-03-2.90320E-14
 -1      4264 1.13171E-02-7.05357E-03-3.10421E-14
 -1      4265 1.14600E-02-7.18133E-03-3.18589E-14
 -1      4266 1.11351E-02-6.95257E-03-3.06482E-14
 -1      4267 1.16028E-02-7.30910E-03-3.26814E-14
 -1      4268 1.17457E-02-7.43687E-03-3.35058E-14
 -1      4269 1.14208E-02-7.20811E-03-3.22834E-14
 -1      4270 1.18885E-02-7.56464E-03-3.43366E-14
 -1      4271 1.20314E-02-7.69240E-03-3.51692E-14
 -1      4272 1.17065E-02-7.46364E-03-3.39371E-14
 -1      4273 1.21742E-02-7.82017E-03-3.60094E-14
 -1      4274 1.23171E-02-7.94794E-03-3.68543E-14
 -1      4275 1.19921E-02-7.71918E-03-3.56096E-14
 -1      4276 1.24599E-02-8.07571E-03-3.77030E-14
 -1      4277 1.26028E-02-8.20347E-03-3.85622E-14
 -1      4278 1.22778E-02-7.97471E-03-3.73013E-14
 -1      4279 1.27456E-02-8.33124E-03-3.94249E-14
 -1      4280 1.28885E-02-8.45901E-03-4.02915E-14
 -1      4281 1.25635E-02-8.23025E-03-3.90179E-14
 -1      4282 1.30313E-02-8.58677E-03-4.11671E-14
 -1      4283 1.31742E-02-8.71454E-03-4.20512E-14
 -1      4284 1.28492E-02-8.48578E-03-4.07573E-14
 -1      4285 7.01341E-03-3.21863E-03-9.87846E-15
 -1      4286 7.15694E-03-3.34418E-03-1.04187E-14
 -1      4287 1.01181E-02-6.10900E-03-2.56325E-14
 -1      4288 9.97529E-03-5.98123E-03-2.48551E-14
 -1      4289 6.72222E-03-2.96607E-03-8.83037E-15
 -1      4290 6.86791E-03-3.09204E-03-9.34714E-15
 -1      4291 6.82735E-03-3.11624E-03-9.63156E-15
 -1      4292 9.83244E-03-5.85346E-03-2.40814E-14
 -1      4293 9.68960E-03-5.72569E-03-2.33142E-14
 -1      4294 9.54675E-03-5.59792E-03-2.25557E-14
 -1      4295 9.40389E-03-5.47015E-03-2.18058E-14
 -1      4296 1.04110E-02-6.37093E-03-2.72504E-14
 -1      4297 1.02681E-02-6.24316E-03-2.64590E-14
 -1      4298 1.06966E-02-6.62647E-03-2.88494E-14
 -1      4299 1.05538E-02-6.49870E-03-2.80471E-14
 -1      4300 1.09823E-02-6.88201E-03-3.04643E-14
 -1      4301 1.08395E-02-6.75424E-03-2.96557E-14
 -1      4302 1.12680E-02-7.13755E-03-3.20983E-14
 -1      4303 1.11252E-02-7.00978E-03-3.12779E-14
 -1      4304 1.15537E-02-7.39308E-03-3.37513E-14
 -1      4305 1.14108E-02-7.26531E-03-3.29222E-14
 -1      4306 1.18394E-02-7.64862E-03-3.54246E-14
 -1      4307 1.16965E-02-7.52085E-03-3.45850E-14
 -1      4308 1.21251E-02-7.90415E-03-3.71161E-14
 -1      4309 1.19822E-02-7.77638E-03-3.62692E-14
 -1      4310 1.24108E-02-8.15968E-03-3.88318E-14
 -1      4311 1.22679E-02-8.03192E-03-3.79713E-14
 -1      4312 1.26965E-02-8.41522E-03-4.05747E-14
 -1      4313 1.25536E-02-8.28745E-03-3.96991E-14
 -1      4314 1.29822E-02-8.67075E-03-4.23362E-14
 -1      4315 1.28393E-02-8.54298E-03-4.14530E-14
 -1      4316 8.97527E-03-5.08689E-03-1.96108E-14
 -1      4317 8.83238E-03-4.95915E-03-1.88962E-14
 -1      4318 5.84457E-03-2.23535E-03-6.06920E-15
 -1      4319 5.99241E-03-2.35387E-03-6.49078E-15
 -1      4320 1.33510E-02-8.85393E-03-4.29333E-14
 -1      4321 9.26103E-03-5.34239E-03-2.10647E-14
 -1      4322 9.11816E-03-5.21464E-03-2.03331E-14
 -1      4323 7.30037E-03-3.47015E-03-1.09727E-14
 -1      4324 7.44370E-03-3.59646E-03-1.15412E-14
 -1      4325 7.40412E-03-3.62204E-03-1.18525E-14
 -1      4326 7.11700E-03-3.36920E-03-1.07160E-14
 -1      4327 7.25783E-03-3.55725E-03-1.17630E-14
 -1      4328 7.11411E-03-3.43057E-03-1.11896E-14
 -1      4329 6.42989E-03-2.71643E-03-7.84313E-15
 -1      4330 6.57622E-03-2.84082E-03-8.32979E-15
 -1      4331 6.53469E-03-2.86379E-03-8.60001E-15
 -1      4332 7.83131E-03-4.06583E-03-1.41868E-14
 -1      4333 7.68809E-03-3.93847E-03-1.35610E-14
 -1      4334 6.13911E-03-2.47365E-03-6.92817E-15
 -1      4335 6.28480E-03-2.59450E-03-7.37827E-15
 -1      4336 5.94752E-03-2.37245E-03-6.73280E-15
 -1      4337 6.97019E-03-3.30418E-03-1.06313E-14
 -1      4338 6.82601E-03-3.17811E-03-1.00888E-14
 -1      4339 7.54479E-03-3.81123E-03-1.29475E-14
 -1      4340 7.40137E-03-3.68415E-03-1.23485E-14
 -1      4341 5.61025E-03-2.25803E-03-6.86388E-15
 -1      4342 5.64859E-03-2.24002E-03-6.63070E-15
 -1      4343 5.76041E-03-2.38257E-03-7.30949E-15
 -1      4344 8.68946E-03-4.83143E-03-1.81914E-14
 -1      4345 8.54653E-03-4.70372E-03-1.74950E-14
 -1      4346 5.54585E-03-2.01266E-03-5.33655E-15
 -1      4347 5.71953E-03-2.13363E-03-5.70385E-15
 -1      4348 5.67221E-03-2.14885E-03-5.93190E-15
 -1      4349 5.41481E-03-1.94422E-03-5.22428E-15
 -1      4350 5.10167E-03-1.78470E-03-5.02951E-15
 -1      4351 1.31689E-02-8.75294E-03-4.25137E-14
 -1      4352 6.67970E-03-3.05087E-03-9.55370E-15
 -1      4353 6.53478E-03-2.92563E-03-9.04000E-15
 -1      4354 5.23126E-03-1.85642E-03-5.14356E-15
 -1      4355 1.31590E-02-8.81014E-03-4.32212E-14
 -1      4356 1.32199E-02-8.89972E-03-4.40093E-14
 -1      4357 6.05691E-03-2.63260E-03-8.24426E-15
 -1      4358 5.90922E-03-2.50738E-03-7.76977E-15
 -1      4359 5.94797E-03-2.48692E-03-7.52171E-15
 -1      4360 6.24259E-03-2.73580E-03-8.47144E-15
 -1      4361 5.51843E-03-2.08086E-03-5.88859E-15
 -1      4362 5.36357E-03-1.96025E-03-5.48768E-15
 -1      4363 1.31476E-02-8.88061E-03-4.40878E-14
 -1      4364 6.24185E-03-2.61567E-03-7.63436E-15
 -1      4365 7.97445E-03-4.19329E-03-1.48246E-14
 -1      4366 8.11753E-03-4.32082E-03-1.54749E-14
 -1      4367 5.64661E-03-2.18540E-03-6.25673E-15
 -1      4368 5.79744E-03-2.30693E-03-6.68259E-15
 -1      4369 8.40356E-03-4.57605E-03-1.68106E-14
 -1      4370 8.26057E-03-4.44841E-03-1.61373E-14
 -1      4371 6.09457E-03-2.55181E-03-7.57997E-15
 -1      4372 6.24146E-03-2.67526E-03-8.04977E-15
 -1      4373 5.94664E-03-2.42898E-03-7.12459E-15
 -1      4374 6.38755E-03-2.79939E-03-8.53445E-15
 -3
    1PSTEP                         2           1           1          
  100CL  101 1.000000000        4374                     0    1           1
 -4  STRESS      6    1
 -5  SXX         1    4    1    1
 -5  SYY         1    4    2    2
 -5  SZZ         1    4    3    3
 -5  SXY         1    4    1    2
 -5  SYZ         1    4    2    3
 -5  SZX         1    4    3    1
 -1         1-2.36421E+00-2.66794E+01-3.78812E+00-6.44772E+00-1.58359E-13-6.32550E-14
 -1         2-7.02324E-01-2.77693E+01-3.39975E+00 3.08569E-01-1.66811E-14 8.96679E-14
 -1         3 1.99998E+01-1.08734E-07 3.31835E-06-1.48906E-07-8.38475E-13-8.58576E-13
 -1         4 1.99998E+01-3.25534E-07 3.02899E-06 1.22764E-07-4.87800E-13 3.44939E-13
 -1         5 3.13628E+01 5.83455E+00 2.82268E+00 6.27973E+00-7.77850E-15 1.00639E-12
 -1         6 3.87501E+01 1.30632E+01 4.79376E+00-8.00893E+00-9.49241E-15 1.02858E-12
 -1         7 2.46449E+01 7.11719E+00 2.53863E-01-2.77235E+00-3.24740E-15 5.13735E-13
 -1         8 1.97116E+01 5.92960E+00-2.72295E-02-1.11557E+00-1.45439E-14 2.48900E-13
 -1         9 1.61425E+01 4.91443E+00-2.55416E-01-1.43559E+00-1.59595E-14 7.11273E-14
 -1        10 1.46537E+01 4.47665E+00-2.84225E-01-2.48782E+00-1.48111E-14-3.14635E-14
 -1        11 1.51775E+01 4.61739E+00-1.65120E-01-3.36738E+00-1.48631E-14-7.60221E-14
 -1        12 1.68633E+01 5.10051E+00 1.45680E-03-3.56042E+00-1.10606E-14-9.18729E-14
 -1        13 1.88034E+01 5.65967E+00 1.34337E-01-3.01313E+00-9.89486E-15-1.02141E-13
 -1        14 2.02936E+01 6.09233E+00 1.97057E-01-1.96771E+00-5.14866E-15-1.15267E-13
 -1        15 2.10827E+01 6.32362E+00 2.00553E-01-7.40246E-01-6.67175E-15-1.29797E-13
 -1        16 2.12183E+01 6.36549E+00 1.72575E-01 4.41265E-01-1.82254E-15-1.35272E-13
 -1        17 2.08738E+01 6.26745E+00 1.35702E-01 1.46860E+00-2.90046E-15-1.46515E-13
 -1        18 2.02558E+01 6.08876E+00 1.01223E-01 2.31054E+00 3.53884E-16-1.36060E-13
 -1        19 1.95154E+01 5.87598E+00 6.89676E-02 3.02156E+00 6.27623E-15-1.09465E-13
 -1        20 1.88457E+01 5.68938E+00 3.41679E-02 3.63505E+00 8.46198E-15-4.70279E-14
 -1        21 1.85278E+01 5.62480E+00-7.57636E-03 4.23032E+00 1.04612E-14 7.95850E-14
 -1        22 1.95100E+01 5.93088E+00 5.95260E-02 5.08660E+00 5.32907E-15 3.58657E-13
 -1        23 3.04578E+01-1.74447E+00-1.06632E+00-7.00539E-02 1.15394E-14 9.86870E-13
 -1        24 3.13486E+01-1.66767E-01-4.73291E-01 3.41579E-01-1.85876E-14 9.69183E-13
 -1        25 3.72181E+01-6.23838E-02-8.05030E-02 5.60293E-01 1.55917E-14 1.04936E-12
 -1        26 4.51734E+01 9.27844E-02 6.96783E-01 6.43790E-01 1.98630E-14 1.33177E-12
 -1        27 4.98374E+01 1.30120E-01 1.43399E+00-2.33655E-01 4.17236E-14 1.82805E-12
 -1        28 4.56891E+01 2.67970E-01 8.59294E-01-1.35739E+00-1.26097E-14 2.15800E-12
 -1        29 3.21984E+01-1.13990E-01-1.92984E+00-1.77375E+00-5.06435E-14 1.96798E-12
 -1        30 1.58468E+01-1.30722E-01-5.64298E+00-1.30205E+00 6.49480E-15 1.30063E-12
 -1        31 1.39220E+01-1.05423E-01-6.11734E+00 8.25486E-01-6.44484E-14 5.48256E-13
 -1        32 3.00886E+01-1.28797E-01-2.40261E+00 1.85631E+00 3.73625E-14-2.51521E-13
 -1        33 4.58798E+01 4.20741E-02 8.32973E-01 9.70517E-01-1.08247E-13-5.65104E-13
 -1        34 5.03366E+01 8.71009E-02 1.50878E+00 3.33430E-02 4.70596E-14-3.38965E-13
 -1        35 4.49856E+01 4.63621E-02 6.72704E-01-3.12306E-01 4.55966E-14 7.04714E-14
 -1        36 3.67549E+01-1.07637E-02-4.16938E-02-2.66499E-01 3.31202E-14 3.74395E-13
 -1        37 2.98991E+01-3.15010E-02-2.44970E-01-1.48673E-01-1.16658E-14 5.48964E-13
 -1        38 2.55105E+01-3.15114E-02-2.01199E-01-7.04522E-02-2.62420E-14 5.00697E-13
 -1        39 2.29464E+01-2.34770E-02-1.20736E-01-3.06397E-02-8.75005E-15 4.55819E-13
 -1        40 2.15160E+01-1.54439E-02-6.46400E-02-1.23606E-02 1.46928E-14 4.80123E-13
 -1        41 2.07433E+01-9.49656E-03-3.30098E-02-4.39002E-03-2.60772E-15 7.77369E-14
 -1        42 2.03389E+01-5.60764E-03-1.65125E-02-1.08680E-03 2.11089E-15-4.48957E-15
 -1        43 2.01358E+01-3.20582E-03-8.10491E-03 1.60322E-04-1.30444E-13-1.56031E-13
 -1        44 2.00402E+01-1.77326E-03-3.83431E-03 5.32667E-04 7.45892E-14 4.47135E-14
 -1        45 2.00000E+01-9.41741E-04-1.68195E-03 5.53054E-04-4.32185E-14 2.14196E-13
 -1        46 1.99871E+01-4.67654E-04-6.25011E-04 4.28002E-04 9.21483E-15-5.59936E-13
 -1        47 1.99867E+01-2.05395E-04-9.76227E-05 3.45286E-04-3.53693E-14-3.57765E-13
 -1        48 1.99908E+01-7.50204E-05 9.56142E-05 2.23139E-04-1.21661E-16-3.22165E-13
 -1        49 1.99957E+01-1.06838E-05 1.55380E-04 1.38838E-04 8.00814E-14 2.20677E-13
 -1        50 1.99999E+01 1.62894E-05 1.52959E-04 7.88170E-05-6.59999E-14 6.74854E-13
 -1        51 2.00029E+01 2.43501E-05 1.25923E-04 3.83137E-05 1.64529E-14 5.59795E-13
 -1        52 2.00047E+01 2.34464E-05 9.30865E-05 1.25838E-05-1.03781E-13-1.58970E-13
 -1        53 2.00056E+01 1.89559E-05 6.29426E-05-2.60065E-06 1.52299E-13-6.69652E-13
 -1        54 2.00058E+01 1.36384E-05 3.85874E-05-1.06290E-05-3.84965E-14-1.44807E-13
 -1        55 2.00055E+01 8.78060E-06 2.04728E-05-1.40400E-05 1.47995E-16-1.45656E-13
 -1        56 2.00050E+01 4.86989E-06 7.89261E-06-1.46429E-05 4.75541E-14 1.78667E-13
 -1        57 2.00043E+01 1.98498E-06-2.49483E-07-1.36734E-05-7.95243E-14 1.21984E-13
 -1        58 2.00036E+01 1.74816E-08-5.06607E-06-1.19392E-05 1.03214E-13-1.20958E-13
 -1        59 2.00029E+01-1.23521E-06-7.53406E-06-9.93789E-06-1.25893E-13 4.66191E-14
 -1        60 2.00022E+01-1.93830E-06-8.53659E-06-8.14783E-06 5.87141E-14-5.36712E-13
 -1        61 2.00017E+01-2.08937E-06-8.25013E-06-6.10078E-06-5.72626E-14 2.79920E-13
 -1        62 2.00012E+01-2.18264E-06-7.60815E-06-4.63968E-06 2.78359E-14 9.17964E-13
 -1        63 2.00009E+01-2.04804E-06-6.65914E-06-3.40675E-06 1.43177E-13 1.14636E-12
 -1        64 2.00006E+01-1.82517E-06-5.61546E-06-2.43386E-06 5.49026E-14 1.51123E-12
 -1        65 2.00003E+01-1.56924E-06-4.60046E-06-1.68614E-06 5.43565E-14 1.09797E-12
 -1        66 2.00002E+01-1.31308E-06-3.68190E-06-1.12775E-06-1.43716E-14 7.57754E-14
 -1        67 2.00000E+01-1.07699E-06-2.89547E-06-7.23217E-07-6.02876E-15 2.23862E-13
 -1        68 1.99999E+01-8.72331E-07-2.26030E-06-4.38542E-07 2.44080E-13 1.05839E-12
 -1        69 1.99999E+01-7.03868E-07-1.79176E-06-2.40707E-07-2.94617E-14 2.56277E-12
 -1        70 1.99998E+01-5.69710E-07-1.50477E-06-9.61521E-08-3.22687E-13 8.29131E-13
 -1        71 1.99998E+01-4.56877E-07-1.35817E-06 5.03382E-08-1.34371E-13-1.57730E-12
 -1        72 1.99998E+01-2.96288E-07-1.04025E-06 3.21965E-07-2.69402E-14-1.42269E-12
 -1        73 1.99998E+01 2.67014E-08 3.82517E-07 1.04482E-06 1.70101E-13-5.19711E-13
 -1        74 1.86648E+01-3.84743E-01-9.47936E-01-2.19402E-01 8.86791E-15 9.24871E-13
 -1        75 1.59789E+01-6.96802E-02-3.08344E-01-2.94939E-02 1.98630E-14 6.89282E-13
 -1        76 1.45834E+01-2.54239E-02-7.52258E-02-2.54667E-03 4.42376E-15 4.82725E-13
 -1        77 1.37129E+01-1.66947E-02-1.86148E-02 3.68284E-03 2.48250E-15 3.86845E-13
 -1        78 1.31532E+01-1.41506E-02-1.34711E-02 8.13128E-03 5.62701E-17 3.20709E-13
 -1        79 1.28580E+01-1.33644E-02-1.86873E-02 8.54020E-03-2.50635E-15 2.75422E-13
 -1        80 1.28424E+01-1.22837E-02-2.26266E-02 4.29899E-03-6.05039E-15 2.05033E-13
 -1        81 1.31197E+01-1.00424E-02-2.22051E-02-3.23227E-03 1.89015E-14 1.26517E-13
 -1        82 1.36702E+01-6.69191E-03-1.73150E-02-1.17235E-02-1.15831E-15 4.90536E-14
 -1        83 1.44332E+01-2.84026E-03-9.50169E-03-1.88242E-02 1.35896E-14 2.73063E-14
 -1        84 1.53197E+01 7.53098E-04-1.02743E-03-2.29855E-02 4.21798E-15-2.58994E-14
 -1        85 1.62340E+01 3.50512E-03 6.08861E-03-2.38193E-02 5.59567E-15-7.54743E-14
 -1        86 1.70947E+01 5.16104E-03 1.06966E-02-2.19125E-02 1.62933E-14-1.57816E-13
 -1        87 1.78468E+01 5.77510E-03 1.26323E-02-1.83376E-02-9.27074E-16-2.62403E-14
 -1        88 1.84639E+01 5.59297E-03 1.24219E-02-1.41720E-02 3.09437E-15 2.20457E-14
 -1        89 1.89439E+01 4.92146E-03 1.08715E-02-1.02122E-02-9.54740E-15 1.29371E-13
 -1        90 1.93000E+01 4.03419E-03 8.73900E-03-6.89768E-03-2.71656E-14-6.17258E-15
 -1        91 1.95535E+01 3.12786E-03 6.57099E-03-4.37026E-03-3.75042E-15 6.36672E-14
 -1        92 1.97274E+01 2.31751E-03 4.67600E-03-2.58267E-03-2.49280E-14 1.34567E-13
 -1        93 1.98424E+01 1.65287E-03 3.17335E-03-1.39874E-03 1.02894E-14 3.14645E-13
 -1        94 1.99158E+01 1.14068E-03 2.06341E-03-6.62190E-04 3.05647E-14 2.61137E-13
 -1        95 1.99611E+01 7.64459E-04 1.28792E-03-2.33389E-04 1.01259E-14 3.98871E-13
 -1        96 1.99877E+01 4.98540E-04 7.70527E-04-3.21318E-06 2.10276E-14 4.14558E-13
 -1        97 2.00025E+01 3.16472E-04 4.38952E-04 1.06236E-04-1.20478E-14 1.84485E-13
 -1        98 2.00099E+01 1.95147E-04 2.34212E-04 1.46806E-04 1.46734E-14 3.27289E-13
 -1        99 2.00130E+01 1.16211E-04 1.12374E-04 1.50988E-04 5.40063E-14 2.71513E-13
 -1       100 2.00135E+01 6.59834E-05 4.27498E-05 1.38010E-04-6.31309E-14 1.68984E-13
 -1       101 2.00128E+01 3.47281E-05 4.93116E-06 1.18576E-04 2.77746E-14-2.43105E-13
 -1       102 2.00114E+01 1.57573E-05-1.41194E-05 9.82145E-05-7.91531E-15-3.40851E-13
 -1       103 2.00098E+01 4.60213E-06-2.24539E-05 7.94811E-05-2.26116E-14-3.04743E-13
 -1       104 2.00081E+01-1.65964E-06-2.48985E-05 6.33224E-05 3.87314E-14-7.48507E-13
 -1       105 2.00066E+01-4.90673E-06-2.42684E-05 4.98795E-05 3.14237E-15-9.41252E-13
 -1       106 2.00053E+01-6.33142E-06-2.21636E-05 3.89343E-05-3.76649E-15-9.96561E-13
 -1       107 2.00042E+01-6.68292E-06-1.94692E-05 3.01421E-05-8.68644E-15-3.78546E-13
 -1       108 2.00032E+01-6.42819E-06-1.66599E-05 2.31436E-05-6.96923E-15-2.93912E-13
 -1       109 2.00024E+01-5.85605E-06-1.39793E-05 1.76125E-05-9.64707E-14-4.16321E-13
 -1       110 2.00018E+01-5.14326E-06-1.15427E-05 1.32698E-05-4.03933E-14 4.03590E-13
 -1       111 2.00013E+01-4.39615E-06-9.39564E-06 9.88387E-06-1.99399E-14 6.41409E-13
 -1       112 2.00009E+01-3.67685E-06-7.54581E-06 7.26538E-06-2.29585E-14 5.67554E-13
 -1       113 2.00006E+01-3.01960E-06-5.98125E-06 5.26025E-06 9.23390E-14 2.08374E-13
 -1       114 2.00003E+01-2.44134E-06-4.68046E-06 3.74345E-06-6.76971E-14 1.91192E-13
 -1       115 2.00002E+01-1.94840E-06-3.61869E-06 2.61362E-06 1.06874E-14 7.67851E-13
 -1       116 2.00000E+01-1.54067E-06-2.77254E-06 1.78782E-06 1.85896E-13-3.72687E-13
 -1       117 1.99999E+01-1.21376E-06-2.12389E-06 1.19632E-06-1.23222E-13-1.49160E-12
 -1       118 1.99999E+01-9.60997E-07-1.66530E-06 7.77996E-07 7.62836E-15-6.23664E-13
 -1       119 1.99998E+01-7.67044E-07-1.39552E-06 4.62170E-07-4.94181E-14-7.08123E-13
 -1       120 1.99998E+01-5.91340E-07-1.26853E-06 1.50601E-07-1.60447E-13-3.12540E-13
 -1       121 1.99998E+01-3.17018E-07-9.22225E-07-3.95088E-07 1.87678E-13-7.18830E-13
 -1       122 1.99998E+01 4.60527E-07 6.50048E-07-1.36320E-06 4.30478E-13-1.75502E-12
 -1       123 1.99998E+01-4.74642E-06 4.38449E-07-1.75769E-06-1.60602E-12 1.29001E-13
 -1       124 1.99998E+01-6.74239E-06-1.13346E-06-6.71317E-07-1.11627E-12 8.31691E-15
 -1       125 1.99998E+01 5.10446E-06-1.15865E-06 2.72753E-07-5.71301E-13-3.48872E-14
 -1       126 1.99998E+01 2.80761E-05-6.22159E-07 7.55627E-07-6.77562E-13-2.89552E-13
 -1       127 1.99998E+01 5.67547E-05-3.04063E-08 9.47887E-07-4.36307E-13-1.41211E-13
 -1       128 1.99998E+01 8.46653E-05 4.92045E-07 8.81873E-07-5.11609E-13 2.96971E-13
 -1       129 1.99998E+01 1.07166E-04 8.76847E-07 6.13038E-07-9.29492E-13-8.35764E-15
 -1       130 1.99998E+01 1.19571E-04 1.07903E-06 2.22006E-07-1.01387E-12-1.77326E-13
 -1       131 1.99998E+01 1.19648E-04 1.07874E-06-2.09831E-07-7.48241E-13 3.04329E-13
 -1       132 1.99998E+01 1.07399E-04 8.77281E-07-5.99814E-07-1.49360E-13-2.70987E-13
 -1       133 1.99998E+01 8.50653E-05 4.92951E-07-8.75113E-07-1.96612E-12-2.92686E-13
 -1       134 1.99998E+01 5.72914E-05-2.22728E-08-9.41273E-07-1.83647E-12 2.30829E-13
 -1       135 1.99998E+01 2.86394E-05-6.22690E-07-7.61571E-07-1.01766E-12 7.95460E-14
 -1       136 1.99998E+01 5.61856E-06-1.12461E-06-2.57709E-07 5.80238E-14 1.45464E-13
 -1       137 1.99998E+01-6.47183E-06-1.04653E-06 7.37087E-07 1.52938E-13-2.67079E-13
 -1       138 1.99998E+01-5.67924E-06 3.11421E-07 1.39625E-06-9.00073E-13-8.43753E-15
 -1       139-1.16412E+00-1.85558E+01-2.80108E+00-3.41026E+00 9.10605E-13 2.57044E-13
 -1       140-5.99570E-01-4.70483E+00-1.87919E+00-1.20746E+00 1.25966E-12 5.18335E-13
 -1       141 5.83748E+00 8.25853E+00-6.19736E-01 7.11537E+00 1.27298E-12 9.35307E-13
 -1       142 2.00118E+01 1.42491E+01 7.76560E-01 1.66751E+01 1.09607E-12 1.15924E-12
 -1       143 4.09685E+01 1.25935E+01 2.10924E+00 2.20653E+01 6.57169E-13 1.27487E-12
 -1       144 6.15479E+01 6.39149E+00 3.11132E+00 1.85749E+01 2.72296E-13 8.19955E-13
 -1       145 7.35775E+01 1.52296E+00 3.60970E+00 6.79850E+00 3.54682E-14 3.59796E-13
 -1       146 7.21946E+01 1.86503E+00 3.48399E+00-8.47381E+00 3.71907E-14-1.47993E-13
 -1       147 5.82931E+01 7.05502E+00 2.79811E+00-1.91603E+01 1.42095E-13-3.70204E-13
 -1       148 3.73921E+01 1.27855E+01 1.71161E+00-2.13152E+01 4.44644E-13-6.49147E-13
 -1       149 1.74126E+01 1.38544E+01 4.22544E-01-1.54010E+01 8.29226E-13-8.64919E-13
 -1       150 4.24143E+00 7.16314E+00-8.18835E-01-5.71545E+00 1.06759E-12-7.24087E-13
 -1       151-6.10458E-01-4.94726E+00-1.83457E+00 1.29867E+00 1.08608E-12-4.53998E-13
 -1       152-9.22913E-01-1.82394E+01-2.68734E+00 2.72453E+00 8.27838E-13-1.59213E-13
 -1       153-7.34338E-01-2.65947E+01-3.34146E+00-1.25748E+00 3.33344E-13-8.57647E-15
 -1       154-4.83114E+00-1.85483E+01-3.99112E+00-8.52858E+00-6.66966E-13-3.27793E-13
 -1       155-3.31703E+00-6.45207E+00-3.70249E+00-3.93047E+00-1.03484E-12-8.68083E-13
 -1       156 8.66965E+00 4.10261E+00-2.31987E+00 6.59947E+00-1.26144E-12-1.57063E-12
 -1       157 3.56435E+01 8.50487E+00 1.05112E+00 1.73688E+01-9.30589E-13-1.70475E-12
 -1       158 7.34111E+01 6.44443E+00 6.29721E+00 1.96962E+01-3.95461E-13-1.04305E-12
 -1       159 1.01740E+02 2.21212E+00 1.03535E+01 9.20749E+00 2.28637E-15 2.27707E-13
 -1       160 9.99362E+01 2.61715E+00 1.01707E+01-1.10627E+01-2.03827E-13 1.27953E-12
 -1       161 6.75489E+01 6.94388E+00 5.40674E+00-2.02695E+01-6.92169E-13 1.98463E-12
 -1       162 3.03607E+01 8.17353E+00 3.89896E-01-1.57198E+01-1.14930E-12 1.87861E-12
 -1       163 6.57499E+00 2.76185E+00-2.51357E+00-4.95809E+00-1.48570E-12 1.66434E-12
 -1       164-4.06846E+00-8.62571E+00-3.67335E+00 5.06917E+00-1.42863E-12 1.05016E-12
 -1       165-4.41644E+00-2.04292E+01-3.83405E+00 8.36273E+00-1.67999E-12 6.60097E-13
 -1       166-2.18030E+00-2.79673E+01-3.70407E+00 5.96301E+00-8.85882E-13 2.54928E-13
 -1       167 2.29344E+01 4.26351E+00-1.44245E-02-1.02113E+00-7.17412E-14 3.33050E-13
 -1       168 1.73274E+01 5.66081E+00-2.98751E-02-1.11020E+00-1.32717E-13 1.36507E-13
 -1       169 1.41986E+01 6.06140E+00-3.15547E-02-2.15994E+00-1.66872E-13 1.80919E-14
 -1       170 1.39853E+01 5.63027E+00-2.46713E-02-3.28362E+00-1.80728E-13-3.99661E-14
 -1       171 1.58293E+01 4.84116E+00-1.98560E-02-3.74817E+00-1.78500E-13-5.94347E-14
 -1       172 1.84069E+01 4.17774E+00-1.77697E-02-3.37277E+00-1.60949E-13-6.19322E-14
 -1       173 2.05753E+01 3.90505E+00-1.71337E-02-2.38961E+00-1.19156E-13-5.99954E-14
 -1       174 2.18436E+01 3.97557E+00-1.91041E-02-1.17483E+00-8.70818E-14-6.91652E-14
 -1       175 2.22271E+01 4.20494E+00-2.19949E-02 3.88312E-03-5.64880E-14-8.26787E-14
 -1       176 2.19607E+01 4.42863E+00-2.39189E-02 1.02638E+00-2.35519E-14-9.33333E-14
 -1       177 2.13208E+01 4.55540E+00-2.52076E-02 1.86314E+00 2.80895E-15-9.31252E-14
 -1       178 2.05033E+01 4.56178E+00-2.79143E-02 2.57504E+00 4.47181E-14-7.37951E-14
 -1       179 1.97075E+01 4.44387E+00-3.53858E-02 3.19547E+00 7.73856E-14-3.86271E-14
 -1       180 1.91722E+01 4.17454E+00-5.15209E-02 3.78107E+00 1.15372E-13 4.33559E-14
 -1       181 1.94196E+01 3.48817E+00-6.87191E-02 4.31615E+00 1.26460E-13 2.10290E-13
 -1       182 2.02136E+01 1.24972E+00-3.40486E-01 3.59011E+00 1.01527E-13 4.18082E-13
 -1       183 2.74190E+01 1.22947E+00 2.62091E-02 9.34370E-01-2.20171E-14 4.87657E-13
 -1       184 2.78914E+01 9.10092E-01 2.32479E-02 3.50025E+00 4.79252E-14 4.82997E-13
 -1       185 2.99862E+01 2.96937E-01 1.26801E-01 5.02975E+00 1.64476E-13 5.00126E-13
 -1       186 3.29380E+01-1.64707E+00 1.96179E-01 4.11545E+00 2.65302E-13 5.26707E-13
 -1       187 4.18585E+01-2.14009E+00-1.56912E-01-6.62877E+00-1.30104E-13 1.10442E-12
 -1       188 4.23645E+01 1.19008E+00-4.52892E-01-7.11792E+00-3.92908E-13 9.26655E-13
 -1       189 4.33631E+01 4.33531E+00-3.07893E-01-5.26428E-01-3.77642E-13 6.21395E-13
 -1       190 4.30065E+01 1.55254E+00-3.13507E-01 6.86452E+00-3.85803E-13 2.69264E-13
 -1       191 4.17382E+01-1.86257E+00-4.08168E-02 6.37426E+00-1.72695E-13 2.41788E-14
 -1       192 4.08061E+01-2.13788E+00 3.79645E-01 9.23301E-01 1.10890E-13-5.37001E-14
 -1       193 3.74752E+01-6.33548E-01 3.60023E-01-3.15885E+00 1.28883E-13 4.84491E-14
 -1       194 3.28344E+01 1.57184E-01 9.04900E-02-3.93218E+00 1.29768E-13 1.65402E-13
 -1       195 2.83997E+01 3.17290E-01-3.93982E-02-3.04131E+00 1.01029E-13 2.91898E-13
 -1       196 2.51369E+01 2.46466E-01-4.64719E-02-1.96107E+00-4.91508E-14 3.99920E-13
 -1       197 2.29880E+01 1.56640E-01-2.45676E-02-1.16283E+00-4.16672E-14 5.25519E-13
 -1       198 2.16667E+01 9.14933E-02-9.16469E-03-6.58242E-01-3.67293E-14 3.84583E-13
 -1       199 2.08913E+01 5.13780E-02-2.16090E-03-3.60408E-01-1.16444E-13 2.62170E-13
 -1       200 2.04531E+01 2.81295E-02 2.34678E-04-1.90977E-01-5.25788E-14 4.54373E-14
 -1       201 2.02145E+01 1.50533E-02 7.74371E-04-9.70565E-02 9.03140E-17 1.20490E-13
 -1       202 2.00904E+01 7.82323E-03 7.23661E-04-4.63061E-02 9.04590E-14 3.94716E-13
 -1       203 2.00299E+01 3.88826E-03 5.43801E-04-1.97758E-02-5.51658E-14 1.57729E-13
 -1       204 2.00034E+01 1.80014E-03 3.66580E-04-6.58626E-03-2.79865E-13 2.82907E-14
 -1       205 1.99941E+01 6.61237E-04 2.52495E-04-3.64026E-04 1.58559E-13 3.98716E-14
 -1       206 1.99933E+01 1.65089E-04 1.54533E-04 1.82272E-03 7.06295E-14 2.94987E-13
 -1       207 1.99955E+01-6.09535E-05 9.44526E-05 2.27501E-03 2.10873E-13 4.88357E-13
 -1       208 1.99983E+01-1.38126E-04 5.56491E-05 1.97577E-03 6.04611E-14 5.52117E-13
 -1       209 2.00009E+01-1.45270E-04 3.10869E-05 1.42991E-03-5.37691E-14 3.22111E-13
 -1       210 2.00027E+01-1.23117E-04 1.59468E-05 8.78529E-04-3.67345E-13 1.21867E-13
 -1       211 2.00038E+01-9.23734E-05 6.95976E-06 4.20588E-04-5.48786E-14 8.75511E-14
 -1       212 2.00043E+01-6.27890E-05 1.89582E-06 8.26482E-05 9.86525E-14-2.21876E-14
 -1       213 2.00044E+01-3.82637E-05-7.38061E-07-1.42602E-04 2.86000E-14 1.14625E-13
 -1       214 2.00041E+01-1.97234E-05-1.91926E-06-2.75682E-04 4.03516E-14 1.03286E-13
 -1       215 2.00037E+01-6.71171E-06-2.27250E-06-3.39822E-04-5.18878E-14-7.84343E-14
 -1       216 2.00032E+01 1.75735E-06-2.18664E-06-3.56131E-04-1.22884E-13 1.15490E-13
 -1       217 2.00026E+01 6.75949E-06-1.89079E-06-3.41800E-04 1.92073E-14 7.11785E-14
 -1       218 2.00021E+01 9.20918E-06-1.58029E-06-3.09842E-04-1.67813E-13 2.23426E-15
 -1       219 2.00016E+01 1.02883E-05-1.14922E-06-2.67407E-04 2.12629E-13-8.18792E-14
 -1       220 2.00012E+01 9.85386E-06-8.70463E-07-2.24672E-04 3.10407E-13-1.69040E-13
 -1       221 2.00009E+01 9.03273E-06-6.15906E-07-1.83894E-04 3.00570E-13 3.76878E-13
 -1       222 2.00006E+01 7.89009E-06-4.15488E-07-1.47055E-04 7.54253E-14 6.89966E-13
 -1       223 2.00004E+01 6.66151E-06-2.63259E-07-1.15114E-04-2.19941E-13 6.63888E-13
 -1       224 2.00002E+01 5.47540E-06-1.51930E-07-8.82791E-05-4.58217E-13 3.99700E-13
 -1       225 2.00001E+01 4.40740E-06-7.42172E-08-6.62826E-05 1.04983E-13 1.60808E-13
 -1       226 2.00000E+01 3.50009E-06-2.48276E-08-4.85748E-05 3.06729E-13 6.99052E-13
 -1       227 1.99999E+01 2.77471E-06-3.28272E-09-3.44518E-05 3.68959E-13 9.81518E-13
 -1       228 1.99999E+01 2.24049E-06-1.74478E-08-2.31415E-05-7.65412E-13 4.97927E-13
 -1       229 1.99998E+01 1.90335E-06-6.79352E-08-1.38542E-05-8.23192E-13 3.02529E-13
 -1       230 1.99998E+01 1.69531E-06-9.68417E-08-5.96024E-06 9.97038E-14-1.67378E-13
 -1       231 1.99998E+01 1.11873E-06 1.70670E-07 4.36183E-07 4.42404E-13-8.58494E-14
 -1       232 1.99998E+01 4.77330E-08 3.19429E-07 2.37915E-06 7.32705E-13 2.58308E-13
 -1       233 1.83383E+01 3.07492E-01-5.68699E-02 1.68360E+00 1.10273E-13 3.77418E-13
 -1       234 1.67363E+01 1.44688E-01 8.54338E-03 9.14282E-01 9.66154E-14 3.14377E-13
 -1       235 1.57421E+01 7.41753E-02 1.43769E-02 5.68755E-01 4.61215E-14 2.35343E-13
 -1       236 1.51051E+01 5.38409E-02 8.35665E-03 3.48080E-01 2.94708E-14 2.07780E-13
 -1       237 1.47443E+01 5.67695E-02 4.43503E-03 1.54784E-01 3.96961E-14 1.62526E-13
 -1       238 1.46369E+01 6.08264E-02 2.51433E-03-4.28436E-02 5.55441E-14 9.77474E-14
 -1       239 1.47712E+01 5.80902E-02 1.74911E-03-2.38303E-01 5.04484E-14 2.92823E-14
 -1       240 1.51224E+01 4.64752E-02 1.48801E-03-4.08778E-01 2.30744E-14 3.43779E-15
 -1       241 1.56436E+01 2.82696E-02 1.34811E-03-5.31056E-01 2.11860E-14-1.40578E-15
 -1       242 1.62708E+01 8.07594E-03 1.12375E-03-5.92116E-01 1.15841E-14 5.16995E-14
 -1       243 1.69353E+01-9.54191E-03 7.55723E-04-5.92917E-01 3.41936E-14 3.83736E-14
 -1       244 1.75768E+01-2.17288E-02 2.91403E-04-5.45897E-01 3.43747E-14 1.30085E-14
 -1       245 1.81523E+01-2.77914E-02-1.69216E-04-4.69090E-01-2.14081E-14-1.19834E-14
 -1       246 1.86382E+01-2.86771E-02-5.37003E-04-3.80277E-01-6.87727E-14 6.90181E-14
 -1       247 1.90278E+01-2.60888E-02-7.64244E-04-2.93234E-01-3.30163E-14 9.35054E-14
 -1       248 1.93269E+01-2.17427E-02-8.49862E-04-2.16469E-01 2.70861E-14 9.48886E-14
 -1       249 1.95478E+01-1.69560E-02-8.23585E-04-1.53744E-01-5.76738E-14 9.36542E-14
 -1       250 1.97055E+01-1.25401E-02-7.26986E-04-1.05433E-01-7.40744E-14 2.03207E-13
 -1       251 1.98147E+01-8.87526E-03-5.98636E-04-6.99603E-02-3.13171E-14 2.58453E-13
 -1       252 1.98882E+01-6.04868E-03-4.66784E-04-4.49337E-02 6.57341E-14 2.09981E-13
 -1       253 1.99363E+01-3.98575E-03-3.48224E-04-2.78749E-02-1.38509E-13 2.58317E-13
 -1       254 1.99669E+01-2.54474E-03-2.50394E-04-1.66000E-02 1.17049E-13 2.73101E-13
 -1       255 1.99857E+01-1.57399E-03-1.74494E-04-9.36041E-03 8.78292E-14 2.31388E-13
 -1       256 1.99967E+01-9.40048E-04-1.18308E-04-4.84510E-03 5.87570E-15 1.49776E-13
 -1       257 2.00028E+01-5.37421E-04-7.82310E-05-2.11793E-03 1.21358E-13 1.85364E-13
 -1       258 2.00059E+01-2.88365E-04-5.04950E-05-5.35345E-04 1.44777E-15 1.66018E-13
 -1       259 2.00070E+01-1.38443E-04-3.17774E-05 3.31762E-04 2.01026E-13 1.81581E-13
 -1       260 2.00071E+01-5.09980E-05-1.94166E-05 7.62396E-04 4.17571E-15 9.80689E-14
 -1       261 2.00067E+01-2.09931E-06-1.14121E-05 9.34153E-04 7.05154E-14 1.13263E-13
 -1       262 2.00059E+01 2.34881E-05-6.32642E-06 9.58010E-04 2.18206E-13 3.61805E-15
 -1       263 2.00050E+01 3.52692E-05-3.16128E-06 9.02126E-04 1.21676E-13-2.10319E-13
 -1       264 2.00042E+01 3.90783E-05-1.24103E-06 8.07626E-04-1.19876E-13-3.50324E-13
 -1       265 2.00034E+01 3.84497E-05-1.17153E-07 6.98786E-04-1.59699E-13-2.63419E-13
 -1       266 2.00027E+01 3.55009E-05 5.03780E-07 5.89493E-04-2.98972E-14-1.21988E-13
 -1       267 2.00021E+01 3.14868E-05 8.11753E-07 4.87279E-04-1.04175E-13 1.17365E-13
 -1       268 2.00016E+01 2.71404E-05 9.28884E-07 3.95827E-04-2.60196E-13 1.61623E-13
 -1       269 2.00012E+01 2.28798E-05 9.33258E-07 3.16508E-04-6.21075E-14 5.43159E-14
 -1       270 2.00008E+01 1.89327E-05 8.74573E-07 2.49340E-04-1.61602E-14-4.70304E-14
 -1       271 2.00005E+01 1.54116E-05 7.84253E-07 1.93574E-04 1.12241E-13 2.35756E-13
 -1       272 2.00003E+01 1.23602E-05 6.81934E-07 1.48058E-04-5.53577E-15 3.78323E-13
 -1       273 2.00002E+01 9.78237E-06 5.79523E-07 1.11462E-04 3.65679E-14 1.01644E-13
 -1       274 2.00001E+01 7.66181E-06 4.83713E-07 8.24089E-05 5.58572E-13-9.31245E-15
 -1       275 2.00000E+01 5.97318E-06 3.96442E-07 5.95431E-05 1.78918E-13-7.13096E-14
 -1       276 1.99999E+01 4.68936E-06 3.13811E-07 4.15739E-05-1.13451E-13-5.35155E-13
 -1       277 1.99999E+01 3.79537E-06 2.25817E-07 2.72854E-05-1.92227E-13-4.12344E-13
 -1       278 1.99998E+01 3.21213E-06 1.28744E-07 1.56058E-05-7.11467E-15-2.95955E-13
 -1       279 1.99998E+01 2.86406E-06 1.03090E-07 5.75761E-06 2.99572E-13-7.32707E-13
 -1       280 1.99998E+01 1.47560E-06 3.25231E-07-1.37866E-06 3.11622E-14-6.98251E-13
 -1       281 1.99998E+01 5.65848E-06 1.33448E-07 2.59086E-06-3.47424E-13 9.44671E-14
 -1       282 1.99998E+01 1.69598E-05 2.01152E-08 1.15499E-05-5.93291E-13 3.14083E-13
 -1       283 1.99998E+01 3.44692E-05 2.02559E-08 1.90823E-05-5.64714E-13-6.05597E-14
 -1       284 1.99998E+01 5.60337E-05-3.80212E-09 2.30093E-05-3.16246E-13 3.53387E-13
 -1       285 1.99998E+01 7.78662E-05-5.15850E-08 2.24522E-05-2.79073E-13-2.29353E-14
 -1       286 1.99998E+01 9.70887E-05-9.59692E-08 1.76833E-05-2.39234E-13-3.44800E-13
 -1       287 1.99998E+01 1.10060E-04-1.30104E-07 9.71449E-06-4.63626E-13 9.07104E-14
 -1       288 1.99998E+01 1.14636E-04-1.42454E-07 4.17687E-08-2.42718E-13 1.14017E-13
 -1       289 1.99998E+01 1.10067E-04-1.30427E-07-9.62497E-06-8.27601E-13-2.28645E-14
 -1       290 1.99998E+01 9.71158E-05-9.67782E-08-1.75855E-05-6.40697E-13-8.21863E-13
 -1       291 1.99998E+01 7.83153E-05-4.88320E-08-2.23208E-05-3.05625E-13 3.71705E-13
 -1       292 1.99998E+01 5.61570E-05-8.93857E-09-2.29812E-05-1.15468E-14 2.73698E-13
 -1       293 1.99998E+01 3.46134E-05 3.79004E-09-1.91493E-05-1.17530E-13 3.73771E-13
 -1       294 1.99998E+01 1.70126E-05 3.41631E-08-1.14398E-05-4.82463E-13 9.23848E-14
 -1       295 1.99998E+01 5.37715E-06 1.63329E-08-2.76267E-06 4.98726E-14-3.37311E-13
 -1       296-5.99229E-01-1.12191E+01-9.09322E-01 3.53287E+00 2.14329E-13 4.20164E-13
 -1       297 4.08991E+00-7.41886E+00-6.78298E-01 5.54621E+00 4.14724E-13 3.57114E-13
 -1       298 1.26793E+01-3.02320E+00-3.01375E-01 8.20169E+00 5.03819E-13 4.05009E-13
 -1       299 2.20827E+01 1.78776E+00 2.50287E-02 9.75453E+00 5.69128E-13 4.85667E-13
 -1       300 3.37138E+01 4.26633E+00 3.61099E-01 9.39668E+00 4.14932E-13 3.22742E-13
 -1       301 4.37394E+01 6.78064E+00 7.11384E-01 8.03418E+00 4.03740E-13 2.66565E-13
 -1       302 5.13252E+01 7.66595E+00 9.97283E-01 4.94012E+00 3.06893E-13 2.27401E-13
 -1       303 5.18563E+01 8.32214E+00 8.90127E-01-6.96881E-02 2.53353E-13 6.72136E-14
 -1       304 5.03427E+01 7.46582E+00 9.05232E-01-5.07780E+00 2.11067E-13-1.30174E-13
 -1       305 4.19866E+01 6.37469E+00 5.48843E-01-7.65093E+00 2.68809E-13-1.47549E-13
 -1       306 3.17511E+01 4.69790E+00 2.83668E-01-9.93242E+00 3.37397E-13-1.10384E-13
 -1       307 2.03837E+01 1.84629E+00-5.23242E-02-9.58226E+00 3.47139E-13-2.49439E-13
 -1       308 1.02133E+01-1.85658E+00-3.84347E-01-7.62378E+00 3.56104E-13-2.82302E-13
 -1       309 3.25682E+00-6.40439E+00-6.65709E-01-5.39872E+00 2.94570E-13-2.31155E-13
 -1       310-9.06002E-01-1.00418E+01-8.87402E-01-3.62694E+00 1.59456E-13-2.53242E-13
 -1       311-2.12458E+00-1.08718E+01-9.69804E-01-1.94861E+00-4.86070E-15-2.52576E-13
 -1       312-2.01832E-01-1.09247E+01-1.21997E+00-1.31964E-01-1.31367E-13-3.08240E-13
 -1       313 6.38853E+00-8.67165E+00-1.26165E+00 2.39253E+00-2.16327E-13-4.69073E-13
 -1       314 1.88628E+01-6.29546E+00-9.41087E-01 4.31151E+00-1.89293E-13-5.94497E-13
 -1       315 3.52370E+01-3.98743E+00-1.51424E-01 3.10254E+00-3.26683E-13-2.78166E-13
 -1       316 5.07762E+01-1.17742E-01 1.23170E+00 1.12673E-01-4.12146E-13 1.20071E-13
 -1       317 6.01832E+01 4.56624E+00 2.52964E+00-1.65682E+00-5.22915E-13 4.65405E-13
 -1       318 6.75956E+01 6.78995E+00 3.87665E+00 1.94406E-01-3.46556E-13 6.03750E-13
 -1       319 5.95470E+01 4.11532E+00 2.42468E+00 1.75832E+00-5.34961E-13 7.77212E-13
 -1       320 4.77352E+01-1.49029E+00 7.05892E-01 8.02489E-01-4.43971E-13 7.55451E-13
 -1       321 3.19462E+01-3.99501E+00-3.54355E-01-3.84418E+00-6.04239E-13 8.75355E-13
 -1       322 1.74201E+01-6.74345E+00-8.92243E-01-4.15763E+00-5.22138E-13 7.84123E-13
 -1       323 5.48377E+00-9.04762E+00-1.08312E+00-2.45177E+00-6.00492E-13 3.56933E-13
 -1       324 3.87935E-02-1.01331E+01-8.47228E-01-8.13150E-01-2.63192E-13 5.49977E-13
 -1       325-2.18085E+00-1.21088E+01-9.47223E-01 1.77996E+00-4.19144E-14 5.04319E-13
 -1       326 3.88947E+01-3.61380E+00 2.56566E-01-4.22179E-01 2.67203E-13 7.99007E-13
 -1       327 1.39572E+01 5.99565E+00 2.89605E-02-9.52357E-01-1.57391E-13 3.76600E-14
 -1       328 1.92668E+01 4.30456E+00 3.33369E-02 9.60975E-01-6.96225E-14 1.67978E-13
 -1       329 1.42520E+01 4.80147E+00 2.28880E-02-4.65728E+00-2.52209E-13-4.04772E-14
 -1       330 1.76616E+01 3.30990E+00-1.37327E-03-4.52538E+00-2.43962E-13-1.18052E-14
 -1       331 2.07122E+01 2.40392E+00-1.18226E-02-3.29533E+00-1.86570E-13 1.85954E-14
 -1       332 2.25642E+01 2.21112E+00-1.98962E-02-1.71992E+00-1.40394E-13-8.49147E-15
 -1       333 2.32284E+01 2.47081E+00-2.46277E-02-2.95621E-01-9.64366E-14-1.52317E-14
 -1       334 2.30414E+01 2.86974E+00-2.51864E-02 8.17684E-01-5.02241E-14-2.70712E-14
 -1       335 2.23795E+01 3.19076E+00-2.36736E-02 1.63561E+00-7.39545E-15-3.40838E-14
 -1       336 2.14875E+01 3.34504E+00-2.23577E-02 2.26847E+00 3.82036E-14-9.40567E-15
 -1       337 2.05669E+01 3.28294E+00-2.23971E-02 2.76588E+00 8.33350E-14 4.37584E-15
 -1       338 1.97894E+01 2.94765E+00-2.42893E-02 3.13570E+00 1.18568E-13 3.91926E-14
 -1       339 1.93110E+01 2.16731E+00-3.05796E-02 3.20704E+00 1.30069E-13 1.51814E-13
 -1       340 1.90375E+01 1.25497E+00-2.65521E-02 2.67626E+00 1.16487E-13 2.44657E-13
 -1       341 1.79955E+01 5.37200E-01 7.55292E-03 1.65762E+00 1.13652E-13 2.33611E-13
 -1       342 1.92163E+01 2.56655E+00 1.18151E-01 4.66317E+00 5.73742E-14 1.35166E-13
 -1       343 1.81682E+01-1.18960E-01 1.87639E-01 6.30391E+00 1.56847E-13 4.14668E-14
 -1       344 2.80970E+01-4.02748E+00 7.42633E-02-4.73592E+00 1.32325E-13 1.45092E-13
 -1       345 2.51939E+01-3.54730E-01 1.62224E-01-6.35004E+00 1.21292E-13 7.21957E-14
 -1       346 2.36130E+01 1.16896E+00 6.10390E-02-5.48112E+00 2.03692E-13 1.38469E-13
 -1       347 2.25815E+01 1.21374E+00 1.88492E-02-3.88087E+00 1.32038E-13 2.99465E-13
 -1       348 2.17664E+01 8.76527E-01 1.36801E-02-2.48439E+00 8.29822E-14 3.78967E-13
 -1       349 2.11345E+01 5.55799E-01 1.15869E-02-1.49943E+00-1.55484E-13 4.36759E-13
 -1       350 2.06861E+01 3.31354E-01 9.00430E-03-8.68746E-01-2.21098E-13 2.62861E-13
 -1       351 2.03909E+01 1.90636E-01 6.19379E-03-4.86080E-01-1.72043E-13 1.98074E-13
 -1       352 2.02085E+01 1.06818E-01 3.89467E-03-2.62002E-01-4.50562E-15 3.89417E-13
 -1       353 2.01021E+01 5.82815E-02 2.30773E-03-1.34576E-01 1.49626E-13 5.87541E-13
 -1       354 2.00437E+01 3.07336E-02 1.31121E-03-6.43036E-02-1.62390E-13 3.57666E-13
 -1       355 2.00140E+01 1.54217E-02 7.06275E-04-2.70256E-02-2.11803E-13 2.86261E-13
 -1       356 2.00005E+01 6.80283E-03 3.74164E-04-7.76615E-03 4.10890E-14 5.36653E-13
 -1       357 1.99963E+01 2.61579E-03 1.78391E-04 3.37440E-04 1.37450E-13 2.71868E-13
 -1       358 1.99961E+01 5.63411E-04 7.84133E-05 3.30041E-03 1.56288E-13 2.12815E-13
 -1       359 1.99975E+01-3.34476E-04 2.72206E-05 3.75876E-03 1.04754E-13 5.43595E-14
 -1       360 1.99993E+01-6.34650E-04 2.81634E-06 3.14564E-03-1.99572E-13 7.46965E-14
 -1       361 2.00009E+01-6.47667E-04-7.21882E-06 2.20405E-03-2.11413E-13 6.63645E-15
 -1       362 2.00020E+01-5.41098E-04-9.93581E-06 1.28827E-03-2.40190E-13 2.66455E-13
 -1       363 2.00027E+01-4.01097E-04-9.25489E-06 5.41505E-04 1.26810E-13 3.69295E-13
 -1       364 2.00030E+01-2.68407E-04-7.27905E-06-1.54393E-06 7.30821E-14 3.22650E-13
 -1       365 2.00030E+01-1.59230E-04-5.07019E-06-3.56999E-04-1.13269E-13 1.61948E-13
 -1       366 2.00028E+01-7.71853E-05-3.10900E-06-5.60499E-04-7.66741E-14 7.42130E-14
 -1       367 2.00025E+01-2.00138E-05-1.56508E-06-6.51153E-04 8.82400E-14 4.17108E-14
 -1       368 2.00022E+01 1.67834E-05-4.42844E-07-6.64145E-04 4.80259E-15 1.71530E-13
 -1       369 2.00018E+01 3.81030E-05 2.81887E-07-6.27982E-04-2.46274E-13 2.51191E-13
 -1       370 2.00014E+01 4.86467E-05 7.35645E-07-5.60465E-04-1.32907E-13 2.11332E-13
 -1       371 2.00011E+01 5.11484E-05 9.56823E-07-4.83709E-04-1.36588E-14-2.50843E-13
 -1       372 2.00008E+01 4.90701E-05 1.01741E-06-4.05105E-04 3.56600E-13-4.28110E-13
 -1       373 2.00006E+01 4.44344E-05 9.90326E-07-3.30794E-04 3.80554E-13-2.95169E-13
 -1       374 2.00004E+01 3.86019E-05 9.06497E-07-2.64121E-04 4.85917E-14-6.22377E-14
 -1       375 2.00002E+01 3.24942E-05 7.95784E-07-2.06541E-04-3.52994E-13 5.65685E-15
 -1       376 2.00001E+01 2.66892E-05 6.77762E-07-1.58244E-04-9.93369E-14 7.67169E-14
 -1       377 2.00000E+01 2.15285E-05 5.64926E-07-1.18631E-04 6.19170E-13 2.57034E-13
 -1       378 1.99999E+01 1.72039E-05 4.63673E-07-8.66344E-05 6.84679E-13 4.72944E-13
 -1       379 1.99999E+01 1.37774E-05 3.72281E-07-6.09485E-05-7.43705E-13 6.02904E-14
 -1       380 1.99999E+01 1.12830E-05 2.86868E-07-4.02230E-05-8.12707E-13 5.79437E-13
 -1       381 1.99998E+01 9.50915E-06 2.08242E-07-2.32993E-05-4.53288E-13 7.76247E-13
 -1       382 1.99998E+01 7.53108E-06 1.98507E-07-9.68773E-06-1.39354E-14 8.25449E-13
 -1       383 1.99998E+01 7.52990E-06 8.28392E-08-6.05444E-06 2.63768E-13 4.88141E-13
 -1       384 1.72469E+01 3.43979E-01 9.46718E-03 9.74751E-01 6.67491E-14 1.71833E-13
 -1       385 1.67768E+01 3.07111E-01 6.09173E-03 5.63752E-01 7.97654E-14 1.36574E-13
 -1       386 1.65048E+01 3.14106E-01 4.71482E-03 1.70406E-01 1.09087E-13 9.80366E-14
 -1       387 1.64356E+01 3.07984E-01 3.97396E-03-2.19095E-01 1.01209E-13 9.13946E-14
 -1       388 1.65572E+01 2.65880E-01 3.26713E-03-5.75165E-01 6.58864E-14 6.35817E-14
 -1       389 1.68381E+01 1.88256E-01 2.37308E-03-8.55253E-01-1.61509E-14 3.67051E-15
 -1       390 1.72291E+01 9.17351E-02 1.31293E-03-1.02763E+00 9.97190E-15 1.89391E-14
 -1       391 1.76739E+01-1.75490E-03 2.38691E-04-1.08418E+00 5.68433E-14-1.89648E-14
 -1       392 1.81214E+01-7.48053E-02-6.86619E-04-1.04041E+00 5.89142E-14-2.95291E-14
 -1       393 1.85339E+01-1.19458E-01-1.34011E-03-9.26426E-01 9.11630E-15-3.74788E-14
 -1       394 1.88898E+01-1.36759E-01-1.68839E-03-7.75762E-01-1.37293E-13 2.13831E-14
 -1       395 1.91815E+01-1.33244E-01-1.76434E-03-6.16920E-01-2.91688E-14-1.09750E-14
 -1       396 1.94109E+01-1.17103E-01-1.64401E-03-4.69467E-01-2.85300E-14-6.18673E-14
 -1       397 1.95853E+01-9.55308E-02-1.41086E-03-3.43895E-01-4.59303E-14-1.24007E-14
 -1       398 1.97142E+01-7.35793E-02-1.13612E-03-2.43590E-01-9.83212E-14-5.67824E-14
 -1       399 1.98073E+01-5.41079E-02-8.69005E-04-1.67387E-01-1.19453E-13 4.53331E-14
 -1       400 1.98731E+01-3.82857E-02-6.36662E-04-1.11805E-01-4.82455E-14 2.64355E-13
 -1       401 1.99187E+01-2.62102E-02-4.49492E-04-7.26205E-02-9.55173E-14 4.00907E-13
 -1       402 1.99497E+01-1.74252E-02-3.07144E-04-4.57923E-02 9.76189E-14 2.62731E-13
 -1       403 1.99703E+01-1.12735E-02-2.03699E-04-2.78957E-02 4.37646E-14 2.88236E-13
 -1       404 1.99838E+01-7.09920E-03-1.31276E-04-1.62430E-02 7.32369E-14 2.46383E-13
 -1       405 1.99923E+01-4.34135E-03-8.21440E-05-8.83692E-03-4.06508E-14 3.01391E-13
 -1       406 1.99976E+01-2.56170E-03-4.97155E-05-4.25253E-03 3.55151E-16 4.19689E-13
 -1       407 2.00006E+01-1.43813E-03-2.88392E-05-1.50502E-03 1.64591E-13 3.36931E-13
 -1       408 2.00023E+01-7.44254E-04-1.57195E-05 6.92130E-05 1.15671E-13 4.30606E-13
 -1       409 2.00030E+01-3.26303E-04-7.68118E-06 9.08327E-04-1.28748E-14 2.16495E-13
 -1       410 2.00032E+01-8.25637E-05-2.90195E-06 1.29686E-03 2.24561E-13 1.87071E-13
 -1       411 2.00031E+01 5.28530E-05-1.74022E-07 1.41701E-03 3.34638E-13 1.62437E-13
 -1       412 2.00028E+01 1.21954E-04 1.28597E-06 1.38398E-03 9.03694E-14 2.42764E-13
 -1       413 2.00024E+01 1.51199E-04 1.97746E-06 1.26967E-03-2.04470E-13 2.39843E-13
 -1       414 2.00020E+01 1.57110E-04 2.21447E-06 1.11825E-03-1.50106E-13 3.25380E-14
 -1       415 2.00016E+01 1.49935E-04 2.19226E-06 9.56232E-04-1.85091E-13 2.06797E-13
 -1       416 2.00013E+01 1.35986E-04 2.03103E-06 7.98947E-04-2.43940E-13-5.02644E-15
 -1       417 2.00010E+01 1.19117E-04 1.80395E-06 6.54677E-04 4.61744E-14-1.15676E-13
 -1       418 2.00007E+01 1.01643E-04 1.55490E-06 5.27301E-04 2.23464E-13-3.52752E-13
 -1       419 2.00005E+01 8.49112E-05 1.30956E-06 4.17983E-04-1.79317E-13-3.87105E-13
 -1       420 2.00003E+01 6.96643E-05 1.08230E-06 3.26256E-04 1.54777E-14-3.41621E-13
 -1       421 2.00002E+01 5.62653E-05 8.80577E-07 2.50729E-04 1.40351E-14-3.20693E-13
 -1       422 2.00001E+01 4.48480E-05 7.07507E-07 1.89521E-04 3.03137E-13-4.36256E-13
 -1       423 2.00000E+01 3.54166E-05 5.64209E-07 1.40544E-04 3.70419E-13-2.59996E-13
 -1       424 1.99999E+01 2.78919E-05 4.48242E-07 1.01670E-04 1.16692E-13 1.09685E-13
 -1       425 1.99999E+01 2.21444E-05 3.52864E-07 7.08788E-05-1.22242E-13 2.43198E-13
 -1       426 1.99999E+01 1.80050E-05 2.79202E-07 4.63342E-05-1.75855E-13 1.27604E-13
 -1       427 1.99998E+01 1.48488E-05 1.98558E-07 2.67857E-05 4.20132E-13 6.90361E-14
 -1       428 1.99998E+01 1.11517E-05 1.39551E-07 1.26656E-05 3.23272E-13 4.76934E-14
 -1       429 1.99998E+01 5.76070E-05 3.84706E-08 4.06455E-05 1.98662E-13-1.96211E-14
 -1       430 1.99998E+01 3.61128E-05 1.08281E-07 3.24140E-05 1.05615E-13 5.27855E-14
 -1       431 1.99998E+01 7.92089E-05-1.34908E-08 4.22992E-05-3.85315E-13-2.77938E-13
 -1       432 1.99998E+01 9.89689E-05-6.69992E-08 3.66269E-05-5.23385E-13 1.62943E-13
 -1       433 1.99998E+01 1.13807E-04-1.13254E-07 2.47354E-05-2.81073E-13-5.19287E-13
 -1       434 1.99998E+01 1.21726E-04-1.38702E-07 8.72752E-06-4.73998E-13-1.07007E-13
 -1       435 1.99998E+01 1.21643E-04-1.39169E-07-8.70593E-06-5.29561E-13 2.26532E-13
 -1       436 1.99998E+01 1.13574E-04-1.13907E-07-2.46809E-05-1.58849E-13-3.47237E-13
 -1       437 1.99998E+01 9.89568E-05-6.75380E-08-3.63710E-05-1.25639E-13-1.25170E-13
 -1       438 1.99998E+01 7.92758E-05-9.90465E-09-4.21435E-05-1.86358E-13 5.17394E-13
 -1       439 1.99998E+01 5.73167E-05 4.16674E-08-4.06118E-05-5.82610E-14 3.13998E-13
 -1       440 1.99998E+01 3.59355E-05 1.23344E-07-3.23576E-05 1.13658E-14 2.41974E-14
 -1       441 1.75296E+01 3.91376E-01 1.18156E-02 1.27419E+00 1.06130E-13 2.22040E-13
 -1       442 1.21504E+01-4.62142E+00-2.44673E-02 9.22462E+00 1.42664E-13 2.96464E-13
 -1       443 2.99598E+01-1.39493E+00 8.20906E-03 6.58186E+00 1.82424E-13-4.37567E-14
 -1       444 4.97757E+00-3.94399E+00 2.82821E-02 7.37200E+00 5.46230E-14 4.16139E-13
 -1       445 4.07472E+01-3.93726E+00 6.63917E-02 2.98512E+00-2.82628E-13 1.94969E-13
 -1       446 1.24021E+01 6.01788E+00 2.92883E-02-3.27223E+00-2.20754E-13-2.47315E-14
 -1       447 3.63659E+01 2.75712E+00 2.69474E-02 2.94023E+00 1.79159E-13-1.46216E-13
 -1       448 3.99535E+01 7.14276E+00 5.21778E-02 1.33040E+00 2.18242E-13-6.57807E-14
 -1       449 4.01119E+01 9.68595E+00-7.22155E-04 3.29618E-01 2.72560E-13-3.00801E-14
 -1       450 3.95694E+01 9.42020E+00-4.56394E-02 1.92364E-01 2.14134E-13 6.91461E-14
 -1       451 3.88031E+01 6.91861E+00-6.92950E-03-5.36967E-01 1.79162E-13 8.09908E-14
 -1       452 3.53689E+01 2.55195E+00 2.94026E-03-3.66585E+00 1.61348E-13 7.23033E-14
 -1       453 2.89010E+01-6.61059E-01 9.12483E-03-6.76176E+00 1.47313E-13 7.47735E-14
 -1       454 1.97611E+01-2.41955E+00-8.24985E-03-9.06827E+00 3.16414E-14-6.48162E-14
 -1       455 1.06662E+01-2.89174E+00-2.64765E-02-9.13010E+00-1.19349E-14-1.51053E-13
 -1       456 3.76514E+00-2.35985E+00 7.89585E-03-7.19134E+00-8.29892E-14-2.22641E-13
 -1       457 5.08717E-01-1.66700E+00 3.61118E-02-3.31286E+00-7.16302E-14-2.90129E-13
 -1       458 1.76330E+00-3.42862E+00-9.53229E-02 1.48236E+00-2.95944E-14-2.87964E-13
 -1       459 9.49812E+00-4.06922E+00-7.97590E-02 5.15289E+00 6.58640E-14-2.41876E-13
 -1       460 2.11426E+01-5.50178E+00-1.27975E-01 5.60020E+00 2.26152E-13-8.86860E-14
 -1       461 1.82179E+01-5.80694E+00-1.69138E-01-5.78412E+00-1.91652E-13 4.56489E-13
 -1       462 8.36182E+00-4.64304E+00-8.61912E-02-5.26467E+00 1.88044E-14 2.74752E-13
 -1       463 1.04308E+00-3.96010E+00-5.62709E-02-1.17206E+00 1.23901E-13 5.97300E-13
 -1       464 2.23514E+01-3.65507E+00 1.17432E-02 8.67726E+00 1.45522E-13 1.35683E-13
 -1       465 1.03051E+00-2.87002E+00 7.79160E-02 3.44945E+00 1.92603E-13 4.92301E-13
 -1       466 2.78260E+01-6.41685E+00-2.77918E-01-3.39087E+00-2.28678E-13 5.23429E-13
 -1       467 1.99998E+01 1.96830E-05 9.03318E-08-1.84436E-05-4.26165E-16 1.39921E-13
 -1       468 2.07521E+01 9.52709E-01 9.91555E-03-4.83773E+00-2.39158E-13 4.46518E-14
 -1       469 1.61834E+01 2.50706E+00 6.66760E-02-6.33917E+00-2.91509E-13-1.78867E-14
 -1       470 2.43925E+01 1.04287E+00-1.08161E-02-6.15674E-01-1.23446E-13 2.80607E-14
 -1       471 2.41903E+01 1.65134E+00-1.31583E-02 7.41318E-01-8.23998E-14 1.31748E-14
 -1       472 2.34274E+01 2.15277E+00-1.09088E-02 1.57666E+00-2.31278E-14 5.20157E-15
 -1       473 2.24210E+01 2.42840E+00-9.86978E-03 2.10982E+00 3.03075E-14 3.77519E-16
 -1       474 2.13630E+01 2.43832E+00-8.90648E-03 2.44934E+00 4.76009E-14 2.21808E-14
 -1       475 2.03616E+01 2.17118E+00-6.59981E-03 2.63239E+00 8.46835E-14 4.12444E-14
 -1       476 1.94248E+01 1.59939E+00-2.68374E-03 2.55926E+00 1.09622E-13 8.74051E-14
 -1       477 1.88148E+01 1.04794E+00 3.25957E-03 2.19810E+00 1.19332E-13 1.73240E-13
 -1       478 1.06872E+01 2.85899E+00 2.01607E-01 3.44708E+00 2.72629E-14-1.07886E-13
 -1       479 3.21312E+01-1.53829E+00-8.64980E-02 2.22936E+00 3.52045E-14-2.55948E-13
 -1       480 1.57187E+01 1.60474E+00 1.66105E-01-5.91915E+00 2.26763E-13 4.59514E-13
 -1       481 1.72190E+01 2.61361E+00 6.70039E-02-4.34736E+00 1.23360E-13 3.91968E-13
 -1       482 1.86066E+01 2.13044E+00 2.55824E-02-3.03283E+00 1.04941E-13 2.09585E-13
 -1       483 1.93935E+01 1.47377E+00 1.31285E-02-1.98057E+00-7.57575E-14 9.64719E-14
 -1       484 1.97659E+01 9.37037E-01 8.15110E-03-1.23399E+00-1.55691E-13 1.38682E-13
 -1       485 1.99219E+01 5.67769E-01 5.30705E-03-7.37209E-01-2.18846E-13 3.37239E-13
 -1       486 1.99781E+01 3.32776E-01 3.31075E-03-4.22607E-01-7.22577E-15 3.56216E-13
 -1       487 1.99937E+01 1.89510E-01 1.95709E-03-2.31192E-01 1.39374E-13 2.73247E-13
 -1       488 1.99955E+01 1.04595E-01 1.11040E-03-1.18957E-01-1.67455E-13 8.00269E-14
 -1       489 1.99942E+01 5.54252E-02 5.95160E-04-5.56512E-02-1.94547E-13 3.64227E-14
 -1       490 1.99935E+01 2.66367E-02 3.11073E-04-2.06540E-02-1.57135E-13 1.66319E-13
 -1       491 1.99940E+01 1.19295E-02 1.47961E-04-4.44867E-03 1.14243E-13 8.45177E-14
 -1       492 1.99952E+01 4.24169E-03 6.51160E-05 2.61647E-03 8.38162E-15-3.81271E-14
 -1       493 1.99967E+01 5.14221E-04 2.27758E-05 4.85754E-03-2.70654E-14-1.10935E-13
 -1       494 1.99983E+01-1.05969E-03 2.73813E-06 4.77658E-03 1.75052E-13-1.29423E-13
 -1       495 1.99996E+01-1.52048E-03-5.51862E-06 3.75368E-03-1.42344E-13-3.80703E-14
 -1       496 2.00006E+01-1.45328E-03-7.79451E-06 2.50548E-03-6.86524E-14 5.61630E-14
 -1       497 2.00012E+01-1.17576E-03-7.30082E-06 1.36875E-03-5.73554E-14 1.02213E-13
 -1       498 2.00016E+01-8.50986E-04-5.75272E-06 4.71465E-04 8.54564E-14 2.28859E-13
 -1       499 2.00018E+01-5.54959E-04-4.01187E-06-1.66063E-04-5.65539E-14 9.45801E-14
 -1       500 2.00018E+01-3.16373E-04-2.46603E-06-5.73230E-04-3.04762E-13-1.20850E-13
 -1       501 2.00017E+01-1.39731E-04-1.25124E-06-7.97330E-04-1.44005E-13-1.85143E-13
 -1       502 2.00015E+01-1.84036E-05-3.68073E-07-8.87221E-04-8.71770E-15-3.54746E-13
 -1       503 2.00013E+01 5.82901E-05 2.05118E-07-8.85829E-04-2.99910E-14-4.31673E-13
 -1       504 2.00010E+01 1.02778E-04 5.48156E-07-8.23463E-04-2.86655E-13-2.34727E-13
 -1       505 2.00008E+01 1.21063E-04 7.30133E-07-7.32570E-04-1.53524E-13-2.19759E-13
 -1       506 2.00006E+01 1.23793E-04 7.75769E-07-6.29399E-04 6.12038E-14-3.28073E-14
 -1       507 2.00005E+01 1.16958E-04 7.53903E-07-5.25644E-04 4.50343E-13-1.36432E-13
 -1       508 2.00003E+01 1.04880E-04 6.89599E-07-4.28490E-04 2.42689E-13-8.92085E-14
 -1       509 2.00002E+01 9.05439E-05 6.04028E-07-3.41806E-04-6.35740E-14-1.28538E-13
 -1       510 2.00001E+01 7.59260E-05 5.12467E-07-2.67163E-04-3.16900E-13 4.01691E-13
 -1       511 2.00000E+01 6.22591E-05 4.24575E-07-2.04614E-04 2.76967E-13 1.65808E-13
 -1       512 2.00000E+01 5.02595E-05 3.46336E-07-1.53277E-04 6.98260E-13-4.41430E-13
 -1       513 1.99999E+01 4.03061E-05 2.92652E-07-1.11771E-04 1.40894E-13-4.80780E-13
 -1       514 1.99999E+01 3.24385E-05 2.20551E-07-7.86275E-05-4.14386E-13 3.14099E-13
 -1       515 1.99998E+01 2.65504E-05 1.97705E-07-5.19072E-05-7.09290E-13 4.39047E-13
 -1       516 1.81729E+01 7.17340E-01 2.43152E-03 6.08159E-01 1.19965E-13 1.36016E-13
 -1       517 1.85169E+01 7.22083E-01 1.90687E-03 1.14270E+00 9.48888E-14 1.61218E-13
 -1       518 1.79333E+01 6.65150E-01 1.64383E-03-4.74421E-01 1.05579E-13 1.26373E-13
 -1       519 1.80537E+01 5.22477E-01 1.31761E-03-9.26936E-01 7.60607E-14 1.16909E-13
 -1       520 1.82899E+01 3.18101E-01 8.99288E-04-1.24163E+00 4.66214E-14 4.07347E-14
 -1       521 1.85848E+01 9.91338E-02 4.23628E-04-1.39222E+00-3.59396E-15-3.01194E-15
 -1       522 1.88849E+01-8.86744E-02-5.75936E-05-1.39017E+00 4.72000E-14 7.12748E-14
 -1       523 1.91535E+01-2.17975E-01-4.39963E-04-1.27395E+00 1.58915E-14 1.38365E-13
 -1       524 1.93734E+01-2.83498E-01-6.89638E-04-1.09143E+00-4.98107E-14 1.69146E-13
 -1       525 1.95430E+01-2.95815E-01-7.92985E-04-8.85496E-01-7.17381E-14 1.34796E-14
 -1       526 1.96688E+01-2.72379E-01-7.81689E-04-6.86872E-01 3.53146E-14 5.52167E-14
 -1       527 1.97605E+01-2.30371E-01-6.95061E-04-5.13137E-01-2.09533E-15 7.59131E-15
 -1       528 1.98270E+01-1.82933E-01-5.73412E-04-3.71253E-01-3.61251E-14-1.01663E-13
 -1       529 1.98753E+01-1.38269E-01-4.46719E-04-2.61200E-01-1.62599E-13-9.92523E-14
 -1       530 1.99107E+01-1.00408E-01-3.32026E-04-1.79217E-01-2.12112E-13-7.62550E-14
 -1       531 1.99367E+01-7.05178E-02-2.37187E-04-1.20111E-01-7.23908E-14 1.73837E-15
 -1       532 1.99558E+01-4.81242E-02-1.63701E-04-7.86411E-02-2.24521E-14 7.61393E-14
 -1       533 1.99698E+01-3.20141E-02-1.09541E-04-5.02139E-02-6.70540E-14 2.06732E-13
 -1       534 1.99799E+01-2.07953E-02-7.12003E-05-3.11259E-02-5.96752E-15 3.20976E-13
 -1       535 1.99872E+01-1.31892E-02-4.49543E-05-1.85545E-02-9.25504E-14 3.62799E-13
 -1       536 1.99922E+01-8.14798E-03-2.74989E-05-1.04353E-02-7.59778E-14 2.86968E-13
 -1       537 1.99957E+01-4.87263E-03-1.61855E-05-5.30458E-03 1.60473E-13 1.98862E-13
 -1       538 1.99980E+01-2.78368E-03-9.02921E-06-2.14893E-03 1.76284E-13 1.89942E-13
 -1       539 1.99994E+01-1.47636E-03-4.61313E-06-2.79859E-04 1.29829E-13 7.79122E-14
 -1       540 2.00003E+01-6.75845E-04-1.96347E-06 7.63615E-04 3.40391E-14 1.00731E-13
 -1       541 2.00008E+01-1.99565E-04-4.30290E-07 1.28658E-03 1.80426E-13 1.49064E-13
 -1       542 2.00010E+01 7.17757E-05 4.10022E-07 1.48902E-03 2.61920E-13 1.82125E-13
 -1       543 2.00010E+01 2.15205E-04 8.28432E-07 1.50085E-03-8.40305E-14 7.03593E-14
 -1       544 2.00010E+01 2.80043E-04 9.95652E-07 1.40566E-03-9.51333E-14-4.01926E-14
 -1       545 2.00009E+01 2.97694E-04 1.01793E-06 1.25655E-03-1.55165E-13-1.04705E-13
 -1       546 2.00007E+01 2.88071E-04 9.60713E-07 1.08662E-03-1.37227E-13-1.37496E-13
 -1       547 2.00006E+01 2.63742E-04 8.63868E-07 9.15852E-04-1.10409E-13-4.51641E-14
 -1       548 2.00004E+01 2.32576E-04 7.51382E-07 7.55710E-04 2.03386E-13-1.52669E-13
 -1       549 2.00003E+01 1.99426E-04 6.37367E-07 6.12116E-04 2.40428E-14-1.13749E-13
 -1       550 2.00002E+01 1.67207E-04 5.29878E-07 4.87466E-04-3.92272E-13-2.07900E-13
 -1       551 2.00001E+01 1.37582E-04 4.33211E-07 3.81955E-04-1.02109E-13-1.06107E-14
 -1       552 2.00000E+01 1.11415E-04 3.49355E-07 2.94461E-04 1.84529E-14-2.22136E-14
 -1       553 2.00000E+01 8.90731E-05 2.78336E-07 2.23131E-04-1.33017E-14 1.64097E-13
 -1       554 1.99999E+01 7.06302E-05 2.24988E-07 1.65760E-04 1.80500E-13 1.29379E-14
 -1       555 1.99999E+01 5.58909E-05 1.76614E-07 1.20073E-04-3.33233E-13 1.16699E-13
 -1       556 1.99999E+01 4.45316E-05 1.41728E-07 8.38057E-05-1.24183E-13 1.20289E-13
 -1       557 1.99998E+01 3.63110E-05 1.32481E-07 5.49252E-05 4.10648E-13 8.17638E-14
 -1       558 1.99998E+01 1.06058E-04-1.86822E-08 5.84817E-05 7.31328E-16-1.96985E-13
 -1       559 1.99998E+01 8.28413E-05 6.01308E-08 6.29682E-05-1.63771E-13-4.07659E-13
 -1       560 1.99998E+01 5.73802E-05 4.99987E-08 5.80366E-05 2.58932E-13-3.29790E-13
 -1       561 2.00931E+01-4.47448E+00 7.88996E-02 8.77895E+00-1.06248E-13-1.34222E-13
 -1       562 1.99998E+01 1.25155E-04-4.27868E-08 4.48295E-05-3.94486E-13-3.20742E-13
 -1       563 1.99998E+01 1.37483E-04-5.78999E-08 2.42140E-05-3.73840E-13-2.48269E-13
 -1       564 1.99998E+01 1.41615E-04-6.39403E-08-1.11006E-07-4.33043E-13 2.00920E-13
 -1       565 1.99998E+01 1.37096E-04-5.85387E-08-2.43939E-05-2.86244E-13 5.16985E-13
 -1       566 1.99998E+01 1.24757E-04-4.18335E-08-4.45923E-05 2.87674E-13-4.07837E-13
 -1       567 1.99998E+01 1.05598E-04-2.16075E-08-5.82591E-05 4.25846E-13 1.06489E-14
 -1       568 1.99998E+01 8.19898E-05 1.63188E-08-6.28252E-05 9.11333E-15 3.93808E-14
 -1       569 1.99998E+01 5.63747E-05 3.78346E-08-5.79907E-05-3.53689E-13 2.72660E-13
 -1       570 1.79697E+01 7.22774E-01 1.96676E-03 5.82577E-02 1.06411E-13 1.21147E-13
 -1       571 1.24636E+01 5.16020E+00 1.23476E-01 9.29398E-01-8.75721E-14-1.87801E-14
 -1       572 1.77491E+01-1.80434E+00 1.63688E-01-6.77500E+00 1.73514E-13 2.20546E-13
 -1       573 1.15358E+01-2.53869E+00 1.48782E-01 8.75384E+00-6.12843E-14 3.16712E-13
 -1       574 3.39596E+01 9.65699E+00-1.96057E-01 2.96598E-01 2.56212E-13 4.79269E-14
 -1       575 2.34463E+01 6.49043E-01-8.57991E-04-2.56974E+00-1.70499E-13 5.35908E-14
 -1       576 3.41119E+01 3.99832E+00-1.36133E-01-8.22363E-01 1.03778E-13-1.39853E-13
 -1       577 3.40019E+01 7.50421E+00-1.88981E-01-1.08821E+00 1.74930E-13-5.47062E-14
 -1       578 3.40035E+01 7.70345E+00-1.80984E-01 1.44646E+00 1.65146E-13 8.71733E-14
 -1       579 3.82928E+00 6.04640E-01 2.13706E-01-3.20245E-02 3.60995E-13 5.98910E-13
 -1       580 3.39098E+01 3.51245E+00-1.36539E-01 6.15670E-01 1.04979E-13 1.65021E-13
 -1       581 2.59335E+01-2.68032E+00 2.16176E-02-6.53585E+00-9.08440E-14 1.47677E-13
 -1       582 1.74823E+01-2.16452E+00 8.41016E-02-9.20213E+00-1.86531E-13-3.19189E-14
 -1       583 1.02002E+01-4.93523E-01 1.44847E-01-8.94895E+00-1.98203E-13-1.29875E-13
 -1       584 4.71166E+00 1.85394E+00 2.13497E-01-5.62756E+00-1.90681E-13-2.09693E-13
 -1       585 4.57240E+00 2.22336E+00 2.13946E-01 3.08380E-01-6.46289E-14-2.31551E-13
 -1       586 5.55438E+00-4.51019E-01 2.02837E-01 5.66727E+00 1.46397E-13 2.91100E-13
 -1       587 3.15547E+01-6.64308E-01-6.57125E-02-2.65756E+00 3.58802E-14 1.80321E-13
 -1       588 2.75725E+01-4.18360E+00 5.84289E-03 6.08549E+00-4.87388E-14-1.51955E-13
 -1       589 8.26877E+00-1.13445E-01 2.02312E-01-4.74492E+00 2.95368E-13 3.79557E-13
 -1       590 1.15247E+01 4.50486E+00 9.65745E-02-5.53871E+00-2.76223E-13-7.15018E-14
 -1       591 1.84932E+01 7.51650E-01 8.00535E-03 1.70627E+00 1.11659E-13 1.60028E-13
 -1       592 8.78775E+00 8.48888E-01 2.27678E-01 4.03598E+00 4.10366E-14-1.65631E-13
 -1       593 1.99998E+01 2.30775E-05 1.14358E-07-3.13579E-05-2.78057E-13 1.09173E-13
 -1       594 1.84699E+01 6.81936E-01 4.18810E-03 1.42716E+00 1.08308E-13 1.69250E-13
 -1       595 9.88069E+00 5.57072E+00 1.12669E-01-2.67088E+00-1.86792E-13-8.34957E-14
 -1       596 6.29476E+00 1.88994E+00 2.06774E-01 2.35318E+00 2.19165E-13 3.02369E-13
 -1       597 2.44920E+01 1.57717E+00-5.45242E-03 1.67758E+00-3.10435E-14 7.70703E-14
 -1       598 2.56084E+01 8.27929E-01 3.26903E-03 7.99922E-01-7.35193E-14 3.45370E-14
 -1       599 2.20823E+01 1.99240E+00-2.74515E-03 2.26827E+00 3.09127E-14 2.08533E-14
 -1       600 2.09052E+01 1.76967E+00-2.68242E-03 2.29654E+00 5.78172E-14 3.82771E-14
 -1       601 1.93155E+01 1.13029E+00 4.06891E-03 2.06235E+00 8.00263E-14 9.10688E-14
 -1       602 1.68328E+01 2.43448E+00 1.31336E-02-1.28525E+00-1.33428E-13 3.48677E-13
 -1       603 1.82473E+01 1.66766E+00 4.18932E-03-9.27588E-01-1.96456E-13 3.30864E-13
 -1       604 1.90487E+01 1.07394E+00 2.07362E-03-6.23926E-01-1.02764E-13 3.23623E-13
 -1       605 1.94902E+01 6.62805E-01 1.32409E-03-3.92620E-01-1.06978E-13 2.41673E-13
 -1       606 1.97287E+01 3.95118E-01 8.32718E-04-2.31306E-01 5.53339E-14 2.39597E-13
 -1       607 1.98559E+01 2.27735E-01 4.97568E-04-1.26370E-01-2.20439E-13 5.31655E-14
 -1       608 1.99232E+01 1.26197E-01 2.75492E-04-6.20551E-02-1.94084E-13-2.26753E-13
 -1       609 1.99601E+01 6.42095E-02 1.41360E-04-2.40039E-02-3.01331E-14-1.66648E-14
 -1       610 1.99784E+01 3.11296E-02 7.13589E-05-5.27432E-03 1.25635E-14 7.25690E-14
 -1       611 1.99883E+01 1.29855E-02 3.23666E-05 3.43523E-03-1.96185E-13-3.68555E-14
 -1       612 1.99937E+01 3.62190E-03 1.25365E-05 6.47704E-03 1.31002E-14-1.17978E-13
 -1       613 1.99967E+01-7.63929E-04 2.79760E-06 6.60563E-03 2.08876E-13-2.47189E-14
 -1       614 1.99985E+01-2.44403E-03-1.48415E-06 5.44315E-03 5.15502E-14-1.60995E-13
 -1       615 1.99995E+01-2.74509E-03-2.92523E-06 3.88839E-03-6.37011E-14-1.67110E-13
 -1       616 2.00001E+01-2.41820E-03-2.98399E-06 2.39678E-03 7.40601E-14 1.01540E-13
 -1       617 2.00005E+01-1.87028E-03-2.46414E-06 1.16432E-03 1.64701E-14 2.07200E-13
 -1       618 2.00007E+01-1.30705E-03-1.78493E-06 2.44085E-04-2.40384E-13-1.37327E-14
 -1       619 2.00007E+01-8.20186E-04-1.14580E-06-3.82805E-04-5.07104E-13-2.54744E-13
 -1       620 2.00007E+01-4.39652E-04-6.26130E-07-7.65758E-04-2.11875E-13-4.28543E-13
 -1       621 2.00007E+01-1.64314E-04-2.35077E-07-9.61939E-04-3.03156E-13-5.80789E-13
 -1       622 2.00006E+01 2.07119E-05 2.37385E-08-1.02485E-03 1.37437E-13-4.53916E-13
 -1       623 2.00005E+01 1.38448E-04 1.77281E-07-9.95997E-04-1.64494E-13-4.07780E-13
 -1       624 2.00004E+01 1.96987E-04 2.80588E-07-9.14262E-04-1.97911E-14-1.40201E-13
 -1       625 2.00003E+01 2.19402E-04 3.05022E-07-8.05706E-04 1.00101E-14-4.80447E-15
 -1       626 2.00002E+01 2.18170E-04 3.04352E-07-6.87738E-04 1.76690E-13-4.02059E-14
 -1       627 2.00001E+01 2.02717E-04 2.82820E-07-5.71753E-04 4.50583E-13-2.59184E-13
 -1       628 2.00001E+01 1.79810E-04 2.50728E-07-4.64578E-04 1.39304E-13-1.10999E-13
 -1       629 2.00000E+01 1.54089E-04 2.14712E-07-3.69742E-04 6.59346E-15 1.68686E-13
 -1       630 2.00000E+01 1.28585E-04 1.78495E-07-2.88504E-04-2.44306E-13 4.34210E-13
 -1       631 1.99999E+01 1.05160E-04 1.43804E-07-2.20643E-04-1.08138E-14 9.67016E-14
 -1       632 1.99999E+01 8.48493E-05 1.20466E-07-1.65085E-04 4.27614E-13-4.50388E-13
 -1       633 1.99999E+01 6.83090E-05 1.30890E-07-1.20245E-04 2.75579E-13-6.54282E-13
 -1       634 1.99998E+01 6.25306E-05 8.01262E-08-8.60374E-05-5.35997E-13-1.97209E-13
 -1       635 1.96584E+01 1.20883E+00 1.20728E-03 1.16309E+00 1.05650E-13 1.13422E-13
 -1       636 1.99998E+01 7.10846E-05 1.04065E-08 8.75478E-05 1.97575E-13-4.53944E-13
 -1       637 2.21793E+01-1.81555E+00 4.08705E-02-6.99481E+00-2.28484E-13 9.06731E-14
 -1       638 1.93813E+01 7.29180E-01 3.69840E-04-1.28365E+00 8.96748E-14 9.33326E-14
 -1       639 1.92430E+01 1.04963E+00 4.93829E-04-8.00068E-01 1.04170E-13 9.96154E-14
 -1       640 1.97899E+01-1.45484E-02 1.10126E-04-1.61729E+00-2.17849E-14 9.13397E-15
 -1       641 1.99459E+01-2.82689E-01-3.21250E-05-1.51330E+00-2.43356E-14 8.10009E-14
 -1       642 2.00391E+01-4.37708E-01-1.77225E-04-1.31062E+00-3.26576E-14 1.39717E-13
 -1       643 2.00776E+01-4.91213E-01-2.56215E-04-1.06981E+00-8.69342E-15 1.37534E-13
 -1       644 2.00791E+01-4.71972E-01-2.82902E-04-8.33792E-01 1.37532E-14 6.70742E-14
 -1       645 2.00619E+01-4.11271E-01-2.62336E-04-6.26515E-01 3.08956E-14-1.57862E-14
 -1       646 2.00392E+01-3.34419E-01-2.18592E-04-4.57111E-01 5.05133E-16 5.26926E-14
 -1       647 2.00187E+01-2.58058E-01-1.71276E-04-3.25504E-01-6.33553E-14-3.17473E-14
 -1       648 2.00035E+01-1.91068E-01-1.27564E-04-2.27029E-01-2.21403E-13-4.75752E-14
 -1       649 1.99940E+01-1.36783E-01-9.12095E-05-1.55435E-01-3.38484E-13 3.69546E-14
 -1       650 1.99892E+01-9.52024E-02-6.30063E-05-1.04554E-01-1.49849E-13 1.70600E-13
 -1       651 1.99878E+01-6.46739E-02-4.22242E-05-6.90568E-02-8.93163E-15 1.43090E-13
 -1       652 1.99883E+01-4.29909E-02-2.75148E-05-4.46796E-02-1.10325E-13 4.53358E-14
 -1       653 1.99899E+01-2.79951E-02-1.74414E-05-2.81755E-02-4.41877E-14 2.71157E-13
 -1       654 1.99918E+01-1.78487E-02-1.07338E-05-1.71563E-02 2.38437E-13 1.28926E-13
 -1       655 1.99938E+01-1.11091E-02-6.37684E-06-9.90874E-03 4.07769E-14-1.44961E-13
 -1       656 1.99955E+01-6.70482E-03-3.61160E-06-5.22664E-03 2.85781E-13-1.32846E-13
 -1       657 1.99968E+01-3.87094E-03-1.89688E-06-2.27221E-03 1.52780E-13-1.23929E-13
 -1       658 1.99979E+01-2.07711E-03-8.60716E-07-4.69536E-04-9.49939E-14 4.36302E-14
 -1       659 1.99987E+01-9.63846E-04-2.54718E-07 5.74190E-04 1.79284E-13 4.22091E-14
 -1       660 1.99992E+01-2.91448E-04 8.32526E-08 1.12527E-03 8.31842E-14 4.04687E-14
 -1       661 1.99996E+01 9.80575E-05 2.57124E-07 1.36323E-03 2.56206E-13 4.38141E-14
 -1       662 1.99998E+01 3.07956E-04 3.32559E-07 1.40836E-03 1.42800E-14-6.41707E-14
 -1       663 1.99999E+01 4.05456E-04 3.50562E-07 1.34058E-03-2.32907E-13 2.58422E-14
 -1       664 2.00000E+01 4.34167E-04 3.36472E-07 1.21237E-03-1.28380E-13 2.27721E-13
 -1       665 2.00000E+01 4.22311E-04 3.05834E-07 1.05753E-03-1.80240E-13 3.12520E-14
 -1       666 2.00000E+01 3.88082E-04 2.68040E-07 8.97238E-04 1.61907E-13-1.87006E-14
 -1       667 2.00000E+01 3.43110E-04 2.28668E-07 7.44112E-04-4.79688E-14 1.42684E-13
 -1       668 2.00000E+01 2.94717E-04 1.90941E-07 6.05076E-04-1.46932E-14 3.96587E-13
 -1       669 2.00000E+01 2.47380E-04 1.56757E-07 4.83298E-04-1.87230E-13 1.06086E-13
 -1       670 1.99999E+01 2.03712E-04 1.27006E-07 3.79537E-04-8.30586E-14-9.92513E-14
 -1       671 1.99999E+01 1.65101E-04 1.01229E-07 2.93061E-04 3.84613E-14 5.55578E-14
 -1       672 1.99999E+01 1.32134E-04 8.06968E-08 2.22335E-04 5.13778E-14 1.04948E-13
 -1       673 1.99999E+01 1.05063E-04 9.77601E-08 1.65457E-04 1.50323E-13 2.83374E-13
 -1       674 1.99998E+01 8.61797E-05 1.05752E-07 1.22066E-04-1.14492E-13-5.99336E-14
 -1       675 1.99998E+01 1.58878E-04-1.91293E-08 4.69615E-05 1.79904E-13-3.40113E-13
 -1       676 9.78014E+00 2.75185E+00 1.90627E-01-3.02462E+00 3.43187E-13 5.51836E-13
 -1       677 1.99998E+01 1.40109E-04-1.62151E-08 7.10859E-05-2.04034E-14-3.79253E-13
 -1       678 1.99997E+01 1.68186E-04-2.10209E-08-1.68567E-05-2.17941E-13 4.14771E-13
 -1       679 1.99998E+01 1.58113E-04-1.97043E-08-4.69707E-05-3.24117E-13 2.78470E-13
 -1       680 1.99998E+01 1.39062E-04-1.79062E-08-7.08645E-05-5.32196E-14-9.68122E-15
 -1       681 1.99998E+01 1.13165E-04-3.15415E-08-8.45409E-05 4.74413E-14-2.38466E-13
 -1       682 1.99998E+01 8.87689E-05 5.73654E-09-8.99786E-05-3.01817E-13-9.27516E-14
 -1       683 1.93839E+01 1.25773E+00 8.90793E-04 5.19038E-01 1.13916E-13 1.37359E-13
 -1       684 2.48050E+01-4.38595E+00 3.74165E-02 6.06278E+00-2.28768E-13-2.80429E-13
 -1       685 3.11047E+01 3.45186E-01-8.42770E-02-8.03677E-01 8.83668E-15-1.09461E-13
 -1       686 3.10282E+01 8.25109E-01-8.09496E-02 4.14846E-01 7.52176E-15 2.00683E-13
 -1       687 1.92353E+01 1.23004E+00 6.62071E-04-1.65856E-01 1.20102E-13 1.32841E-13
 -1       688 9.84203E+00 2.64244E+00 1.59342E-01-7.14137E+00-2.73483E-13-1.26572E-13
 -1       689 1.99997E+01 1.68560E-04-2.28123E-08 1.61754E-05 2.49415E-14-1.80305E-13
 -1       690 1.99998E+01 1.14859E-04-2.50064E-08 8.50350E-05 2.67026E-13-3.04696E-13
 -1       691 3.02752E+01 4.68271E+00-1.36930E-01-1.99256E+00 6.44554E-14-2.00916E-14
 -1       692 2.91833E+01-3.61765E+00-4.57704E-02 3.06294E+00-1.59995E-13-2.71252E-13
 -1       693 1.95864E+01 3.44330E-01 2.87361E-04-1.55641E+00 5.15135E-14 9.98867E-14
 -1       694 2.99655E+01 7.94379E+00-1.66342E-01-8.48439E-01 1.38854E-13 4.00530E-14
 -1       695 1.55220E+01-7.76945E-03 1.03733E-01-8.44483E+00-2.65281E-13-2.17708E-14
 -1       696 3.04757E+01 4.76973E+00-1.28344E-01 2.26897E+00 9.72625E-14 1.25271E-13
 -1       697 1.44645E+01 3.28403E+00 5.02208E-02-1.64721E+00-2.52029E-14 4.54628E-13
 -1       698 1.75327E+01-2.79988E+00 1.02442E-01 8.15430E+00-2.19116E-13-1.46674E-13
 -1       699 2.32922E+01 1.94130E+00-3.55449E-03 2.09445E+00 1.07582E-14 2.89245E-14
 -1       700 2.85089E+01-1.91173E+00-1.18313E-02-3.19537E+00-8.78360E-14 1.90532E-13
 -1       701 1.07115E+01 5.19636E-02 1.51035E-01 6.64240E+00-3.49130E-14 1.73458E-13
 -1       702 3.04609E+01 8.19195E+00-1.63372E-01 1.27953E+00 1.27350E-13 1.16577E-13
 -1       703 7.27235E+00 4.64418E+00 2.21551E-01-1.56729E+00-1.51963E-13-1.53814E-13
 -1       704 2.58478E+01-7.87124E-02-6.32135E-03-9.17525E-01-1.02863E-13 8.43769E-14
 -1       705 1.99815E+01 1.23529E+00 2.45113E-03 1.72902E+00 6.00057E-14 8.70421E-14
 -1       706 9.88084E+00 2.00121E+00 1.27543E-01 4.04761E+00-2.84495E-15 3.29736E-14
 -1       707 2.54387E+01-1.03320E+00-1.19702E-02-3.10273E+00-1.80368E-13 1.44334E-13
 -1       708 2.14143E+01 1.74435E+00-4.96316E-04 2.03525E+00 3.03178E-14 5.83817E-14
 -1       709 2.04739E+01 1.36138E+00 2.49431E-05-1.18310E+00 1.03690E-13 1.58313E-13
 -1       710 1.69079E+01 2.03855E+00 5.10223E-03 2.54933E-01-1.34272E-13 1.26011E-13
 -1       711 2.07156E+01 1.82199E+00 8.06963E-04 1.09014E+00 5.12425E-14 1.02587E-13
 -1       712 1.99997E+01 2.00609E-04-1.11303E-08 4.15072E-05-2.97876E-14-3.56443E-13
 -1       713 1.81729E+01 1.42468E+00 3.11874E-04 3.05584E-02-2.10843E-13 3.50604E-14
 -1       714 1.89438E+01 9.38209E-01 1.52520E-05-3.91668E-02-1.38698E-13 1.26859E-13
 -1       715 1.94008E+01 5.90111E-01 6.87001E-05-4.40113E-02-3.21189E-14 2.21559E-13
 -1       716 1.96661E+01 3.56235E-01 7.71346E-05-2.81239E-02-1.17054E-13-7.53508E-15
 -1       717 1.98175E+01 2.05889E-01 5.57024E-05-1.04506E-02-3.13182E-13 2.52078E-13
 -1       718 1.99051E+01 1.09529E-01 1.63647E-05 2.69762E-03-1.68705E-13 1.38774E-13
 -1       719 1.99502E+01 5.57742E-02 1.55394E-05 9.46690E-03 2.78339E-14 1.98204E-13
 -1       720 1.99746E+01 2.50315E-02 5.51634E-06 1.20156E-02-1.14373E-13 1.45186E-13
 -1       721 1.99874E+01 8.43383E-03 1.89620E-06 1.17883E-02-9.23232E-14 2.46079E-13
 -1       722 1.99939E+01 1.87310E-04 1.06069E-07 1.00934E-02 7.73580E-14 1.71727E-13
 -1       723 1.99972E+01-3.32750E-03-6.86554E-07 7.83465E-03 4.64370E-14-2.42622E-13
 -1       724 1.99987E+01-4.31041E-03-9.24364E-07 5.56326E-03-7.50623E-14-4.34661E-13
 -1       725 1.99994E+01-4.05615E-03-8.78281E-07 3.56829E-03 1.74138E-13-8.80554E-14
 -1       726 1.99997E+01-3.29617E-03-7.09026E-07 1.96572E-03-5.41031E-14-3.48687E-13
 -1       727 1.99998E+01-2.42011E-03-5.08699E-07 7.68350E-04 1.00404E-14-2.73009E-13
 -1       728 1.99998E+01-1.61654E-03-3.24113E-07-6.53212E-05-3.68201E-13-6.56830E-14
 -1       729 1.99999E+01-9.60432E-04-1.75357E-07-5.99571E-04-6.32175E-13 4.40065E-14
 -1       730 1.99999E+01-4.66262E-04-6.14991E-08-9.02899E-04-2.42123E-13-1.90207E-14
 -1       731 1.99999E+01-1.19145E-04 1.21226E-08-1.03831E-03-6.29297E-15-3.71641E-15
 -1       732 1.99999E+01 1.15362E-04 5.02684E-08-1.05684E-03-1.23375E-13-1.81317E-13
 -1       733 1.99999E+01 2.44284E-04 9.16592E-08-9.99951E-04-5.26236E-14-1.66796E-13
 -1       734 1.99999E+01 3.07314E-04 9.31980E-08-9.02229E-04-3.95886E-14-2.42646E-13
 -1       735 1.99999E+01 3.25282E-04 9.31368E-08-7.85451E-04 1.17559E-13-1.31774E-13
 -1       736 1.99999E+01 3.14516E-04 8.65993E-08-6.64459E-04 2.00511E-13-2.61109E-13
 -1       737 1.99999E+01 2.87096E-04 7.68684E-08-5.48670E-04 2.97915E-13-2.70433E-13
 -1       738 1.99999E+01 2.51571E-04 6.60147E-08-4.43488E-04 2.49536E-13-2.75401E-13
 -1       739 1.99999E+01 2.13718E-04 5.59092E-08-3.51487E-04-8.00359E-14-4.22490E-13
 -1       740 1.99998E+01 1.77259E-04 4.51292E-08-2.73334E-04-2.10442E-13-4.88597E-13
 -1       741 1.99998E+01 1.44414E-04 2.89408E-08-2.08446E-04 7.12145E-14 3.63528E-14
 -1       742 1.99998E+01 1.16286E-04 4.71004E-08-1.55808E-04 1.58250E-13 2.02150E-13
 -1       743 1.99998E+01 1.01735E-04 2.47030E-08-1.19733E-04 8.26289E-14-8.78128E-14
 -1       744 2.08554E+01-5.77435E-01 5.15283E-05-1.43378E+00-7.19967E-14 5.96002E-15
 -1       745 2.08751E+01-2.82694E-01 1.38359E-04-1.66265E+00-3.53576E-14 9.03772E-14
 -1       746 2.06186E+01-7.01774E-01-8.20579E-05-8.85810E-01-1.05140E-14 1.40583E-15
 -1       747 2.04707E+01-6.25759E-01-9.25699E-05-6.55863E-01-2.59441E-15 1.56152E-13
 -1       748 2.03369E+01-5.17262E-01-7.15156E-05-4.73708E-01-2.64990E-15 2.23164E-13
 -1       749 2.02279E+01-4.04688E-01-5.33438E-05-3.36143E-01-4.11724E-15 2.61605E-13
 -1       750 2.01457E+01-3.03560E-01-3.74283E-05-2.35447E-01 5.57056E-15 2.14439E-13
 -1       751 2.00875E+01-2.20237E-01-2.52953E-05-1.63224E-01-3.58098E-13 1.67157E-13
 -1       752 2.00487E+01-1.55509E-01-1.66422E-05-1.12093E-01-1.97128E-13-2.13162E-14
 -1       753 2.00241E+01-1.07342E-01-1.07242E-05-7.62042E-02 7.50934E-14-1.05617E-13
 -1       754 2.00095E+01-7.26529E-02-6.78822E-06-5.11690E-02-4.42428E-14-1.05921E-13
 -1       755 2.00014E+01-4.83037E-02-4.22249E-06-3.38018E-02-1.75773E-13 3.83497E-14
 -1       756 1.99974E+01-3.15593E-02-2.57486E-06-2.18286E-02 4.71773E-14 5.39486E-14
 -1       757 1.99958E+01-2.02360E-02-1.53056E-06-1.36406E-02 3.31204E-13 1.91916E-13
 -1       758 1.99955E+01-1.26868E-02-8.76588E-07-8.10298E-03 1.32238E-13 7.91735E-14
 -1       759 1.99958E+01-7.71764E-03-4.72125E-07-4.41587E-03 5.81619E-14 1.68188E-13
 -1       760 1.99964E+01-4.48824E-03-2.25772E-07-2.01479E-03 6.72061E-14 2.36825E-13
 -1       761 1.99971E+01-2.41963E-03-7.89029E-08-5.01132E-04 5.93562E-14 1.05321E-13
 -1       762 1.99977E+01-1.11913E-03 5.70264E-09 4.06547E-04 1.58593E-14 1.23255E-13
 -1       763 1.99982E+01-3.23263E-04 5.15463E-08 9.06675E-04 2.23178E-13 1.92366E-13
 -1       764 1.99986E+01 1.43537E-04 7.34670E-08 1.13861E-03 1.30515E-13 1.27916E-13
 -1       765 1.99990E+01 3.97831E-04 8.08781E-08 1.19959E-03-2.04919E-16 1.09553E-13
 -1       766 1.99992E+01 5.16862E-04 7.96790E-08 1.15676E-03-3.32702E-13-1.72208E-13
 -1       767 1.99994E+01 5.51770E-04 7.37643E-08 1.05582E-03-7.50874E-14-1.34662E-13
 -1       768 1.99995E+01 5.36342E-04 6.55265E-08 9.27194E-04-1.05834E-13-8.41918E-14
 -1       769 1.99996E+01 4.92796E-04 5.64592E-08 7.90538E-04 5.30355E-14 3.55565E-14
 -1       770 1.99997E+01 4.35599E-04 4.74803E-08 6.57955E-04-1.48200E-13 1.76782E-13
 -1       771 1.99997E+01 3.73999E-04 3.92032E-08 5.36348E-04-9.68331E-14 1.25466E-13
 -1       772 1.99998E+01 3.13730E-04 3.26420E-08 4.29104E-04-8.48294E-14-3.49058E-14
 -1       773 1.99998E+01 2.58174E-04 2.80572E-08 3.37308E-04-4.81619E-14 3.93573E-15
 -1       774 1.99998E+01 2.09154E-04 2.19015E-08 2.60554E-04 1.87110E-14 8.72278E-14
 -1       775 1.99998E+01 1.67388E-04 2.20653E-08 1.98008E-04 9.89788E-14 3.67760E-14
 -1       776 1.99998E+01 1.53725E-04-1.37395E-08-1.04192E-04-1.92895E-13 1.30027E-13
 -1       777 2.87629E+01 2.12526E+00-3.33811E-02 1.94627E+00-1.23356E-14 1.14195E-13
 -1       778 1.99997E+01 1.83222E-04-7.94019E-09 7.83307E-05-1.96727E-13-1.84665E-13
 -1       779 1.99997E+01 1.81503E-04-5.95080E-09-7.86327E-05-3.87292E-14 1.67636E-13
 -1       780 1.99997E+01 1.99368E-04-7.60780E-09-4.28598E-05-1.41927E-13 1.89620E-13
 -1       781 8.15565E+00 4.66278E+00 1.52301E-01-3.93164E+00-2.13734E-13-1.42518E-13
 -1       782 2.86160E+01 1.67357E+00-5.79427E-02-1.97327E+00-1.15030E-14-5.00294E-15
 -1       783 2.14336E+01-3.01482E+00 4.79056E-02 6.19494E+00-2.23894E-13-2.15305E-13
 -1       784 1.99997E+01 2.06135E-04-1.06206E-08-7.93791E-07 9.29477E-14 1.06890E-13
 -1       785 2.67985E+01-3.75303E+00-8.19280E-03 3.35664E+00-1.38234E-13-1.16814E-13
 -1       786 1.99998E+01 1.56240E-04-3.63145E-08 1.04386E-04 4.27178E-14-5.46335E-13
 -1       787 2.86520E+01-2.17752E+00-4.20263E-02 3.26135E-01-1.19287E-13-6.08073E-14
 -1       788 1.99998E+01 1.23866E-04-4.83141E-08 1.21662E-04 2.18279E-13-4.29995E-13
 -1       789 1.48234E+01 2.74660E+00 3.12732E-02 7.45160E-01-7.43420E-14 1.36180E-13
 -1       790 1.55309E+01-5.38167E-01 7.82558E-02 6.46220E+00-1.31927E-13-7.66713E-14
 -1       791 2.85263E+01-4.04326E-01-1.62112E-02-2.18933E-01-6.62196E-14 1.74744E-13
 -1       792 2.07580E+01-7.02691E-01-1.34298E-05-1.15510E+00-1.83836E-14-3.21398E-17
 -1       793 2.72589E+01 5.41566E+00-8.10288E-02-1.66104E+00 1.01988E-13 4.46310E-14
 -1       794 2.74531E+01 7.24813E+00-9.52860E-02 3.00885E-01 1.21427E-13 5.91504E-14
 -1       795 2.78197E+01 5.90944E+00-9.04167E-02 1.99732E+00 1.11199E-13 5.74918E-14
 -1       796 2.56620E+01 1.64859E+00-1.75516E-02 2.01957E+00-2.98169E-14 7.65833E-14
 -1       797 2.03987E+01 1.77243E+00 4.14077E-04-4.98311E-01 1.14595E-13 1.54669E-13
 -1       798 2.10032E+01 1.67602E+00 1.64908E-03 1.70657E+00 5.89010E-14 5.86763E-14
 -1       799 2.07964E+01 1.89613E-01 6.14359E-07-1.75390E+00 7.15551E-14 1.23047E-13
 -1       800 2.40435E+01-3.37193E+00 4.79423E-03 4.29072E+00-9.07061E-14-7.67940E-15
 -1       801 1.99998E+01 1.44213E-04 1.19113E-08 1.56206E-04 2.68034E-13-1.60040E-13
 -1       802 1.18417E+01 2.90373E+00 8.58712E-02 1.62294E+00-7.82941E-14 2.73427E-14
 -1       803 2.69653E+01 3.60785E+00-3.62338E-02 2.38126E+00 4.13853E-14 7.37240E-14
 -1       804 1.00110E+01 3.19544E+00 1.33548E-01 7.73874E-02 1.11931E-13 2.47392E-13
 -1       805 1.99998E+01 1.29199E-04 7.84317E-08-1.16569E-04-1.14732E-13-3.72351E-13
 -1       806 2.04831E+01 1.91428E+00 4.98969E-04 3.14484E-01 1.25021E-13 1.18206E-13
 -1       807 2.27091E+01 2.00662E+00-1.32426E-03 2.15713E+00 2.88437E-14 3.13486E-14
 -1       808 1.37906E+01 1.20851E+00 5.98639E-02 4.79294E+00-1.07761E-14-3.10064E-14
 -1       809 2.06389E+01 7.82048E-01 1.29405E-04-1.61209E+00 7.44472E-14 1.09138E-13
 -1       810 2.41054E+01 2.00965E+00 1.37698E-05 2.17806E+00 2.89029E-15 1.05594E-13
 -1       811 2.70872E+01-6.23275E-01-1.52117E-02-1.31379E+00-6.81026E-14 2.56834E-14
 -1       812 1.86299E+01 9.69189E-01-5.14859E-04 6.21784E-01-8.37456E-14 1.45575E-13
 -1       813 1.91724E+01 6.57694E-01-2.46797E-04 3.46174E-01 6.99783E-14 1.09541E-13
 -1       814 1.95141E+01 4.20978E-01-1.00431E-04 1.97894E-01-1.75972E-13-1.20234E-14
 -1       815 1.97229E+01 2.54932E-01-3.10954E-05 1.18589E-01-1.60520E-13-4.19261E-14
 -1       816 1.98511E+01 1.41128E-01-3.84306E-05 7.36113E-02-8.98522E-14 1.66649E-13
 -1       817 1.99204E+01 7.41537E-02-7.28158E-06 4.93186E-02-1.12197E-13 1.85199E-13
 -1       818 1.99591E+01 3.41672E-02-7.05435E-06 3.43544E-02-5.56950E-14 8.34089E-14
 -1       819 1.99800E+01 1.17505E-02-3.88502E-06 2.43384E-02-8.69054E-14 7.14411E-14
 -1       820 1.99907E+01 2.04232E-04-2.05375E-06 1.72033E-02 9.17526E-14 1.05413E-13
 -1       821 1.99959E+01-4.92695E-03-1.04792E-06 1.19243E-02-2.79033E-13 6.36575E-14
 -1       822 1.99982E+01-6.49063E-03-5.19637E-07 7.96794E-03-2.36771E-13-9.61521E-15
 -1       823 1.99990E+01-6.23615E-03-2.44856E-07 5.02049E-03 1.71573E-13-1.25956E-13
 -1       824 1.99992E+01-5.19121E-03-1.01806E-07 2.86675E-03 1.20687E-13-1.25699E-14
 -1       825 1.99992E+01-3.92559E-03-2.69627E-08 1.33932E-03-1.33263E-13-4.15117E-14
 -1       826 1.99992E+01-2.72869E-03 1.14869E-08 2.99578E-04-5.89070E-14-3.93696E-13
 -1       827 1.99991E+01-1.72540E-03 2.92303E-08-3.68939E-04-2.98802E-13-9.68879E-14
 -1       828 1.99991E+01-9.49331E-04 3.62196E-08-7.62857E-04-2.27042E-13 2.93255E-13
 -1       829 1.99992E+01-3.87252E-04 3.77004E-08-9.60788E-04-2.57040E-13-1.83821E-14
 -1       830 1.99992E+01 8.16982E-06 3.13496E-08-1.02418E-03-5.16696E-14-3.84480E-13
 -1       831 1.99993E+01 2.39540E-04 3.88079E-08-9.95941E-04-5.16859E-14-1.32904E-13
 -1       832 1.99994E+01 3.66847E-04 2.86609E-08-9.16959E-04-2.52238E-13-4.36900E-13
 -1       833 1.99995E+01 4.20724E-04 2.49545E-08-8.11525E-04 3.91231E-14-3.86474E-13
 -1       834 1.99996E+01 4.25845E-04 2.08495E-08-6.96480E-04 2.95465E-13 6.15299E-14
 -1       835 1.99996E+01 4.00915E-04 1.70425E-08-5.82803E-04 5.32732E-13 3.26071E-14
 -1       836 1.99997E+01 3.59502E-04 1.41677E-08-4.77131E-04 7.47902E-14 2.60969E-15
 -1       837 1.99997E+01 3.11032E-04 1.24555E-08-3.82997E-04-1.65166E-13-2.51154E-13
 -1       838 1.99997E+01 2.61738E-04 9.84670E-09-3.01835E-04 6.77849E-14-1.07320E-13
 -1       839 1.99998E+01 2.15493E-04 1.50207E-08-2.33643E-04 4.15981E-13 1.80182E-13
 -1       840 1.99998E+01 1.75007E-04 2.59234E-08-1.77927E-04 3.49156E-13 1.35629E-13
 -1       841 2.18092E+01-6.93533E-01 2.03930E-04-1.47016E+00 4.87166E-14 1.19924E-13
 -1       842 2.06964E+01-7.19173E-01-2.86540E-05-3.95871E-01-4.03573E-14 1.60551E-13
 -1       843 2.09618E+01-8.63713E-01-5.92576E-05-5.75944E-01-1.15475E-13 1.66057E-13
 -1       844 2.03215E+01-4.26694E-01-7.71557E-06-1.85937E-01-2.85549E-14 2.22652E-13
 -1       845 2.02059E+01-3.11722E-01-2.98589E-06-1.28885E-01-2.03966E-13 2.55973E-13
 -1       846 2.01265E+01-2.22082E-01-7.40134E-07-9.01908E-02-1.25883E-13 9.39705E-14
 -1       847 2.00741E+01-1.55043E-01 1.56102E-07-6.34981E-02-2.68550E-14-7.89993E-14
 -1       848 2.00408E+01-1.06419E-01 4.02305E-07-4.47207E-02 4.26746E-14-2.68450E-14
 -1       849 2.00203E+01-7.19644E-02 3.78601E-07-3.12882E-02-1.73235E-13-1.53678E-14
 -1       850 2.00083E+01-4.79842E-02 2.78353E-07-2.15784E-02-1.52944E-13 1.25337E-13
 -1       851 2.00016E+01-3.15297E-02 1.77229E-07-1.45400E-02 1.74193E-13 1.30461E-13
 -1       852 1.99982E+01-2.03688E-02 9.92727E-08-9.46226E-03 5.30359E-14 2.51815E-13
 -1       853 1.99967E+01-1.28740E-02 4.72829E-08-5.84221E-03 1.38391E-13 2.64733E-13
 -1       854 1.99962E+01-7.88945E-03 1.64664E-08-3.30912E-03 1.15750E-14 1.68446E-13
 -1       855 1.99963E+01-4.60972E-03 3.81258E-10-1.58251E-03 1.32954E-13 1.88305E-13
 -1       856 1.99967E+01-2.48070E-03-6.21140E-09-4.47508E-04 5.42671E-14 1.10892E-13
 -1       857 1.99972E+01-1.12457E-03-7.26712E-09 2.60727E-04-1.81246E-13 1.98742E-13
 -1       858 1.99976E+01-2.84919E-04-5.80526E-09 6.67760E-04 2.88337E-13 3.17338E-13
 -1       859 1.99981E+01 2.11911E-04-3.48501E-09 8.68077E-04-6.26374E-15 2.89717E-13
 -1       860 1.99984E+01 4.83476E-04-1.76082E-09 9.31613E-04 7.16610E-14 1.80573E-13
 -1       861 1.99987E+01 6.09381E-04-4.16387E-10 9.09132E-04-2.71149E-13 8.79387E-14
 -1       862 1.99990E+01 6.43494E-04 4.97695E-10 8.36625E-04-1.50740E-13 1.41718E-13
 -1       863 1.99992E+01 6.22157E-04 1.00920E-09 7.38897E-04-1.67433E-13 1.33057E-13
 -1       864 1.99993E+01 5.69718E-04 1.20499E-09 6.32440E-04-3.08488E-13 2.95351E-13
 -1       865 1.99995E+01 5.02274E-04 1.21534E-09 5.27688E-04-3.39418E-15 2.62440E-13
 -1       866 1.99996E+01 4.30238E-04 1.47851E-09 4.30771E-04 8.87508E-14 7.53374E-14
 -1       867 1.99996E+01 3.60110E-04 4.49388E-09 3.44835E-04 3.69907E-14-3.97116E-13
 -1       868 1.99997E+01 2.95684E-04 2.57284E-08 2.71140E-04 4.83247E-14-4.13766E-13
 -1       869 1.99997E+01 2.39485E-04-1.68340E-07 2.08918E-04 5.41851E-14-8.01163E-13
 -1       870 2.61465E+01 2.85182E+00-1.65414E-02-2.08492E+00-2.37831E-15-6.57634E-15
 -1       871 1.99997E+01 2.35586E-04-1.77760E-08 7.77543E-05 1.48679E-14-2.93893E-13
 -1       872 1.99997E+01 2.04988E-04-6.51722E-08-1.20709E-04-1.28594E-13 4.11997E-14
 -1       873 1.99997E+01 2.32687E-04-2.14447E-08-7.99856E-05-2.51324E-13 3.10639E-13
 -1       874 2.04828E+01-5.65687E-01-1.64822E-05-2.70727E-01-4.90442E-14 1.96233E-13
 -1       875 2.55452E+01 5.64916E+00-3.72693E-02 1.13626E+00 7.88796E-14-4.49532E-15
 -1       876 1.78014E+01 1.32752E+00 8.97595E-04 1.12502E+00-2.40443E-13-3.45767E-14
 -1       877 2.66620E+01-2.98086E+00-9.08824E-03 1.42029E+00-7.88536E-14-3.22515E-14
 -1       878 2.23339E+01 2.14105E+00 2.78425E-03 1.95384E+00 4.28725E-14 3.46789E-14
 -1       879 1.99997E+01 2.08949E-04-8.26402E-08 1.18748E-04 1.67497E-13-4.84496E-13
 -1       880 1.65769E+01 1.68771E+00 1.13880E-02 1.96906E+00-6.16352E-14-2.75214E-14
 -1       881 2.52054E+01 5.39656E+00-3.11443E-02-6.42247E-01 1.13649E-13-5.27478E-14
 -1       882 2.17381E+01 2.60764E+00 7.09684E-04 9.31917E-01 9.11927E-14 1.06340E-14
 -1       883 2.17335E+01 1.46428E+00-3.41553E-04-1.58282E+00 8.50318E-14 1.48368E-13
 -1       884 1.90588E+01-1.24302E+00 3.44976E-02 5.29682E+00-7.09128E-14-2.16759E-13
 -1       885 2.20345E+01 2.40337E+00-1.67056E-03 1.52783E+00 4.55278E-14 1.59820E-14
 -1       886 2.50956E+01 4.19681E+00-8.31835E-03 1.97396E+00 2.29128E-14 7.50075E-14
 -1       887 2.19314E+01-1.95163E-01 1.27525E-04-1.74967E+00 5.20681E-14 1.59150E-13
 -1       888 2.15654E+01-9.24952E-01 2.77297E-04-1.13286E+00-5.23248E-14 8.09310E-15
 -1       889 1.99998E+01 1.50586E-04 5.32412E-08-1.44943E-04-2.75429E-13-1.51782E-13
 -1       890 1.99998E+01 1.79263E-04 9.70686E-08 1.43900E-04 1.75969E-13-5.73921E-13
 -1       891 2.12639E+01-9.55180E-01 1.38490E-05-8.22653E-01-1.04980E-13 8.88748E-14
 -1       892 2.15712E+01 2.25083E+00 5.10207E-04-9.45912E-01 7.46090E-14 8.17973E-14
 -1       893 1.99997E+01 2.49447E-04-2.28948E-08 2.59559E-05 1.22157E-13 1.16575E-13
 -1       894 2.44219E+01 3.54157E+00-6.21853E-03-1.58673E+00 7.65471E-14 1.93896E-14
 -1       895 2.65669E+01 1.91608E+00-7.58657E-02 2.06085E+00-9.41695E-15 4.45477E-14
 -1       896 2.15602E+01-2.15933E+00 3.73892E-03 4.36432E+00-4.36959E-14 4.20155E-15
 -1       897 1.99997E+01 2.48428E-04-2.37360E-08-2.89512E-05 1.84250E-13-4.15652E-14
 -1       898 2.15579E+01 2.65602E+00-1.03964E-04-2.30119E-02 8.10349E-14 7.02649E-14
 -1       899 1.99997E+01 2.07773E-04 3.49507E-07 1.74006E-04 2.29054E-13-9.59585E-13
 -1       900 1.72469E+01 6.23567E-02 1.56326E-02 4.63626E+00 1.34450E-14-2.25710E-13
 -1       901 2.18923E+01 5.68321E-01-9.83679E-04-1.83767E+00 2.54174E-14 1.58310E-13
 -1       902 2.10836E+01-9.27118E-01-5.96018E-05-1.98821E-01-9.92944E-14 2.08607E-14
 -1       903 2.28316E+01 3.57196E+00-5.48809E-03 6.24656E-01 6.79105E-14 1.03537E-13
 -1       904 1.95083E+01 3.50449E-01-1.05429E-04 5.15802E-01-1.10732E-13-1.50602E-13
 -1       905 1.97039E+01 2.26594E-01-5.14158E-05 3.12907E-01-7.50594E-14-1.19283E-14
 -1       906 1.98341E+01 1.30526E-01-4.68903E-05 1.86737E-01-6.62253E-14 1.60934E-13
 -1       907 1.99089E+01 6.90602E-02-1.22217E-05 1.15579E-01-1.36170E-13 5.97472E-14
 -1       908 1.99527E+01 3.02988E-02-1.16599E-05 7.24042E-02-1.94949E-14 1.38608E-13
 -1       909 1.99770E+01 7.81380E-03-7.17924E-06 4.57913E-02-1.49363E-13 8.62638E-14
 -1       910 1.99897E+01-3.90337E-03-4.20238E-06 2.90879E-02-1.33791E-13 5.51566E-14
 -1       911 1.99958E+01-8.95257E-03-2.30689E-06 1.84033E-02-2.21828E-14-3.31989E-14
 -1       912 1.99984E+01-1.01673E-02-1.19167E-06 1.14571E-02-1.67836E-13 1.06581E-13
 -1       913 1.99992E+01-9.39118E-03-5.67142E-07 6.89234E-03-1.75625E-13 1.70830E-13
 -1       914 1.99992E+01-7.75582E-03-2.31639E-07 3.88349E-03 1.83055E-13-1.16975E-14
 -1       915 1.99989E+01-5.91015E-03-6.01687E-08 1.91320E-03-1.66979E-13-2.29395E-13
 -1       916 1.99987E+01-4.19239E-03 2.11818E-08 6.46897E-04-1.97083E-13-1.73651E-13
 -1       917 1.99985E+01-2.75082E-03 5.27964E-08-1.38604E-04-1.11849E-13-1.98858E-13
 -1       918 1.99985E+01-1.62461E-03 5.65584E-08-5.96135E-04-6.69375E-14-3.07978E-14
 -1       919 1.99985E+01-7.95096E-04 5.34982E-08-8.32705E-04-4.33584E-13 9.61682E-15
 -1       920 1.99986E+01-1.96411E-04 4.78966E-08-9.24278E-04-1.84237E-13 1.16488E-13
 -1       921 1.99988E+01 1.68180E-04 4.12306E-08-9.17082E-04-2.67495E-13-1.77244E-13
 -1       922 1.99989E+01 3.83104E-04 2.97917E-08-8.55944E-04-2.30428E-13-5.27399E-13
 -1       923 1.99991E+01 4.90174E-04 2.34698E-08-7.65749E-04 8.60043E-14 3.52222E-14
 -1       924 1.99992E+01 5.23621E-04 1.77231E-08-6.63519E-04 4.43746E-13 4.49825E-13
 -1       925 1.99993E+01 5.09805E-04 1.30274E-08-5.60320E-04 2.08786E-14 2.42277E-13
 -1       926 1.99994E+01 4.68195E-04 9.43510E-09-4.62929E-04 1.86994E-13-3.82772E-14
 -1       927 1.99995E+01 4.12606E-04 8.93690E-09-3.75112E-04 6.20006E-14 2.97529E-13
 -1       928 1.99996E+01 3.52412E-04 7.45443E-09-2.98489E-04 7.41360E-14 6.37086E-13
 -1       929 1.99997E+01 2.93746E-04 8.06035E-09-2.33779E-04 4.47808E-13 7.22006E-13
 -1       930 1.99997E+01 2.40035E-04-8.33272E-08-1.79937E-04-1.93740E-14 2.20446E-13
 -1       931 1.99996E+01 2.92847E-04 3.69418E-08-7.14559E-05-7.24827E-14-4.59992E-13
 -1       932 2.30855E+01 1.19456E+00 8.93163E-04-1.89752E+00 3.16067E-14 1.42786E-13
 -1       933 2.02087E+01-2.84140E-01 7.03362E-06-2.98543E-02-1.70505E-13 6.71588E-14
 -1       934 2.03295E+01-3.97756E-01 8.52126E-06-4.02822E-02 5.50766E-15 1.73593E-13
 -1       935 2.00758E+01-1.38510E-01 3.45275E-06-2.05202E-02 6.30252E-14-2.87996E-14
 -1       936 2.00427E+01-9.50230E-02 2.19966E-06-1.71401E-02-3.96812E-14-6.67194E-14
 -1       937 2.00223E+01-6.45234E-02 1.33528E-06-1.38836E-02-2.40108E-13-2.02098E-15
 -1       938 2.00101E+01-4.33458E-02 7.71279E-07-1.07998E-02-4.83567E-15-1.27649E-13
 -1       939 2.00030E+01-2.87544E-02 4.16223E-07-8.02103E-03-4.67785E-15 3.58113E-14
 -1       940 1.99992E+01-1.87666E-02 2.00102E-07-5.64913E-03-5.79772E-14 1.64779E-13
 -1       941 1.99973E+01-1.19740E-02 7.37972E-08-3.72613E-03 2.10097E-13 1.53826E-13
 -1       942 1.99965E+01-7.38888E-03 3.96135E-09-2.24117E-03 5.97807E-14 4.72483E-14
 -1       943 1.99964E+01-4.32451E-03-3.17656E-08-1.14839E-03 1.11766E-13 2.25463E-13
 -1       944 1.99966E+01-2.30520E-03-4.62889E-08-3.84637E-04-1.73351E-13 3.50334E-13
 -1       945 1.99970E+01-1.00195E-03-4.52848E-08 1.17391E-04 4.13557E-14 2.52914E-13
 -1       946 1.99974E+01-1.87076E-04-3.92805E-08 4.20818E-04 4.05079E-14 3.91387E-13
 -1       947 1.99978E+01 2.97278E-04-3.46122E-08 5.80174E-04 3.51510E-14 4.07329E-13
 -1       948 1.99982E+01 5.60689E-04-2.92665E-08 6.39931E-04-2.36963E-13 4.73832E-13
 -1       949 1.99985E+01 6.79233E-04-2.39382E-08 6.34650E-04-1.38245E-13 1.43337E-13
 -1       950 1.99988E+01 7.05600E-04-1.91541E-08 5.90086E-04-2.35007E-13 2.71913E-13
 -1       951 1.99990E+01 6.76066E-04-1.51037E-08 5.24657E-04-4.29288E-13 1.50196E-13
 -1       952 1.99992E+01 6.15336E-04-1.18899E-08 4.50968E-04-2.02679E-13 1.00672E-14
 -1       953 1.99993E+01 5.39936E-04-9.61041E-09 3.77192E-04 2.84162E-13 1.04076E-15
 -1       954 1.99995E+01 4.60638E-04-8.72066E-09 3.08255E-04 3.74419E-13-3.03368E-13
 -1       955 1.99996E+01 3.84194E-04 1.14089E-08 2.46771E-04 5.31920E-14-3.63145E-13
 -1       956 1.99996E+01 3.14765E-04-1.34928E-07 1.94199E-04 2.58102E-13-2.73889E-13
 -1       957 2.56742E+01-1.95781E+00-5.29232E-03-2.67395E-01-3.63798E-14 6.94915E-14
 -1       958 1.82857E+01 6.87532E-01 8.31259E-03 2.26307E+00-6.92684E-14-1.97689E-13
 -1       959 2.44382E+01-2.82485E+00 4.32868E-03 2.36407E+00-3.73883E-14-1.82488E-14
 -1       960 2.52460E+01 2.86459E+00-4.98225E-03 2.29676E+00 3.70181E-14 1.47475E-13
 -1       961 1.88263E+01 6.20219E-01 5.11728E-05 1.40039E+00-6.04077E-14-5.92128E-14
 -1       962 2.37605E+01 2.44043E+00-2.45576E-03 2.16423E+00 2.83358E-14 8.04884E-14
 -1       963 1.99997E+01 2.72178E-04 6.82838E-08 1.26663E-04 2.36534E-13-5.12341E-13
 -1       964 2.36942E+01 4.49391E+00-1.98024E-02 2.91172E-01 8.27493E-14 1.23358E-13
 -1       965 1.99997E+01 2.65995E-04-7.67922E-09-1.29688E-04-2.30491E-13 5.25926E-13
 -1       966 1.92201E+01 4.94779E-01-2.60821E-04 8.51609E-01 3.12012E-14 1.61206E-14
 -1       967 2.50941E+01 6.35130E-01-1.42650E-02-1.99374E+00-1.55946E-14 4.89977E-14
 -1       968 2.01282E+01-1.99681E-01 5.06555E-06-2.43403E-02 1.52193E-15 2.19338E-14
 -1       969 2.31079E+01 3.35927E+00-3.16648E-03 1.46295E+00 3.26766E-14 1.15940E-13
 -1       970 2.29088E+01-7.90714E-01-4.71607E-04-1.43215E+00 9.30377E-14 1.54834E-13
 -1       971 1.99996E+01 3.03441E-04 2.84278E-08-3.09999E-06-1.69978E-13 1.08444E-15
 -1       972 2.29056E+01 2.44302E+00-2.02858E-03-1.48655E+00 5.38801E-14 1.16655E-13
 -1       973 2.24945E+01-1.16957E+00 6.29656E-04-9.93263E-01 6.34836E-14 1.23585E-13
 -1       974 2.05054E+01-5.44979E-01 6.99295E-06-6.24166E-02-1.37099E-13 2.82231E-13
 -1       975 1.96004E+01-1.02794E+00 8.06351E-03 4.35294E+00-3.88320E-14-1.45073E-13
 -1       976 2.15042E+01-1.11975E+00-1.28793E-04-3.59804E-01-1.29341E-13 2.84294E-14
 -1       977 2.07524E+01-7.25323E-01-2.10177E-06-1.08701E-01-1.16044E-13 1.73103E-13
 -1       978 2.27296E+01 3.42269E+00-4.34585E-03-5.32890E-01 7.00655E-14 9.20024E-14
 -1       979 2.31354E+01-1.25612E-02-4.18094E-04-1.80406E+00 5.37500E-14 2.06359E-13
 -1       980 1.99996E+01 2.96056E-04-5.12009E-08 6.58270E-05 2.75536E-13-2.14717E-13
 -1       981 2.23268E+01-1.98421E+00-5.07002E-03 2.70561E+00 9.64723E-16 5.84959E-14
 -1       982 2.19924E+01-1.23647E+00-2.35467E-04-6.22467E-01-1.03238E-13 4.79765E-15
 -1       983 1.98888E+01 5.42613E-02 6.56318E-06 3.21789E-01 2.23935E-14-2.91784E-13
 -1       984 1.99375E+01 2.42541E-02-8.71648E-07 1.99010E-01 5.69374E-14-1.65398E-13
 -1       985 1.99683E+01 2.81708E-03-5.44614E-06 1.22311E-01-1.32572E-13-8.99630E-14
 -1       986 1.99861E+01-1.00406E-02-4.05081E-06 7.47363E-02-3.21884E-14-8.88548E-14
 -1       987 1.99953E+01-1.61886E-02-2.59664E-06 4.53460E-02-1.17022E-13 3.28446E-14
 -1       988 1.99993E+01-1.77997E-02-1.43438E-06 2.72262E-02-6.21500E-14 1.52704E-13
 -1       989 2.00005E+01-1.67182E-02-6.97272E-07 1.60687E-02-1.94936E-13-9.97868E-14
 -1       990 2.00004E+01-1.42932E-02-2.88965E-07 9.20994E-03-1.62501E-13-4.21322E-14
 -1       991 1.99997E+01-1.14118E-02-8.62353E-08 5.00929E-03-3.85641E-14 9.37897E-14
 -1       992 1.99990E+01-8.59957E-03 2.11987E-09 2.45675E-03 3.34196E-14-8.81448E-14
 -1       993 1.99985E+01-6.12751E-03 3.27843E-08 9.29271E-04-8.12678E-16 2.11630E-13
 -1       994 1.99981E+01-4.10156E-03 3.83072E-08 4.07904E-05-1.43087E-13 2.12323E-13
 -1       995 1.99979E+01-2.52979E-03 1.83716E-08-4.49430E-04-8.90885E-14 3.30722E-13
 -1       996 1.99979E+01-1.36740E-03 1.29273E-08-6.93125E-04-2.32407E-13-9.37810E-15
 -1       997 1.99980E+01-5.17112E-04 1.58898E-08-7.86680E-04-1.43982E-13 2.96092E-13
 -1       998 1.99982E+01 1.42346E-05 6.06683E-09-7.84356E-04-3.43231E-13 1.51108E-13
 -1       999 1.99984E+01 3.41780E-04 2.34229E-09-7.32746E-04-3.73152E-13 2.36740E-13
 -1      1000 1.99986E+01 5.20742E-04 1.40153E-09-6.55758E-04 1.31064E-13 2.72049E-13
 -1      1001 1.99988E+01 5.96400E-04 5.68359E-10-5.68784E-04 4.36228E-13 1.13509E-13
 -1      1002 1.99990E+01 6.03850E-04 6.47915E-11-4.81323E-04 1.35627E-13 5.40071E-14
 -1      1003 1.99992E+01 5.69284E-04-4.21681E-10-3.98970E-04 2.37413E-13 4.76150E-13
 -1      1004 1.99993E+01 5.11554E-04-2.04730E-09-3.24733E-04 1.98013E-13 6.19280E-13
 -1      1005 1.99995E+01 4.43694E-04 1.96796E-08-2.59991E-04 1.51474E-13 7.77836E-13
 -1      1006 1.99995E+01 3.74621E-04-2.25924E-08-2.04497E-04 2.62335E-13 6.61076E-13
 -1      1007 1.99996E+01 3.17759E-04 2.95286E-07-1.63716E-04 1.35608E-13 4.07150E-13
 -1      1008 1.97283E+01 1.08506E-01 1.52210E-04 8.28600E-01-1.34042E-13-1.67956E-13
 -1      1009 2.00354E+01-7.74101E-02-1.39674E-06 2.66664E-03-1.41532E-13 3.67830E-14
 -1      1010 2.00623E+01-1.11934E-01-2.25303E-06 1.04474E-02 3.21855E-14 1.21401E-13
 -1      1011 2.00086E+01-3.62425E-02-2.08117E-07-2.89490E-03-3.06146E-15-3.65496E-15
 -1      1012 2.00026E+01-2.43936E-02 7.65079E-08-3.14573E-03-7.32051E-14-6.45360E-14
 -1      1013 1.99993E+01-1.61343E-02 2.13411E-07-2.73531E-03 2.51201E-14-8.27134E-14
 -1      1014 1.99975E+01-1.04031E-02 2.54991E-07-2.07760E-03 1.01918E-13 1.51342E-13
 -1      1015 1.99967E+01-6.45552E-03 2.42035E-07-1.40148E-03-4.38584E-14 2.92782E-13
 -1      1016 1.99965E+01-3.76722E-03 2.01498E-07-8.16813E-04-1.34435E-13 1.54331E-13
 -1      1017 1.99967E+01-1.96706E-03 1.46093E-07-3.62537E-04-6.85337E-14 2.22140E-13
 -1      1018 1.99970E+01-7.91305E-04 8.73890E-08-3.92610E-05 1.85386E-14 3.39220E-13
 -1      1019 1.99973E+01-5.10664E-05 6.21198E-08 1.70979E-04 4.27302E-15 1.82585E-13
 -1      1020 1.99977E+01 3.88350E-04 3.87341E-08 2.92099E-04-1.11531E-13 2.28455E-13
 -1      1021 1.99981E+01 6.23474E-04 2.19410E-08 3.47868E-04-1.46000E-13 2.73252E-13
 -1      1022 1.99984E+01 7.23206E-04 9.93577E-09 3.58883E-04-3.59232E-13 4.55803E-13
 -1      1023 1.99987E+01 7.36372E-04 1.80180E-09 3.41545E-04-6.22112E-14 1.81174E-13
 -1      1024 1.99989E+01 6.97199E-04-3.48783E-09 3.08118E-04-1.69501E-13-2.14701E-13
 -1      1025 1.99991E+01 6.29291E-04-7.21808E-09 2.67275E-04 8.62247E-14-1.84982E-13
 -1      1026 1.99993E+01 5.48555E-04-1.19034E-08 2.24798E-04 4.50636E-13-1.25295E-13
 -1      1027 1.99994E+01 4.65389E-04-1.83570E-10 1.84366E-04 4.68319E-13-2.05877E-13
 -1      1028 1.99995E+01 3.85805E-04-1.21517E-07 1.47967E-04 1.24260E-13-5.45267E-13
 -1      1029 2.42650E+01-7.68018E-01-1.10640E-03-1.37159E+00 5.42843E-14 1.24240E-13
 -1      1030 1.99996E+01 3.40272E-04-1.63185E-09 1.02197E-04 2.02173E-13-4.99611E-13
 -1      1031 2.00187E+01-5.31956E-02-6.92498E-07-1.30176E-03-1.11255E-13-5.89083E-14
 -1      1032 2.41504E+01-2.20442E+00 8.08057E-03 7.26604E-01 7.09981E-14 8.79351E-14
 -1      1033 2.02744E+01-3.27307E-01-2.52293E-06 7.39457E-02-5.64840E-14 1.94163E-13
 -1      1034 1.95826E+01-6.89015E-02 1.80808E-03 1.98124E+00-1.08459E-14-1.31734E-13
 -1      1035 1.96439E+01 7.80193E-02 1.13670E-03 1.29341E+00-1.37326E-14-1.90488E-13
 -1      1036 1.98167E+01 8.84919E-02 3.76817E-05 5.22415E-01-8.60944E-14-2.05463E-13
 -1      1037 1.99996E+01 3.50270E-04-1.31785E-07-9.06602E-05-1.68648E-14-2.56755E-13
 -1      1038 2.01050E+01-1.61004E-01-3.04078E-06 2.38258E-02-5.96339E-14 1.25743E-14
 -1      1039 2.01717E+01-2.30343E-01-3.63531E-06 4.46277E-02-2.27994E-14 9.78419E-14
 -1      1040 1.99995E+01 3.63649E-04-1.12126E-07-6.83950E-06 1.10066E-13-2.20790E-13
 -1      1041 2.04299E+01-4.60504E-01 3.07540E-06 1.10479E-01-8.61274E-14-3.04407E-14
 -1      1042 2.36638E+01-1.45344E+00 9.48410E-04-7.57099E-01 1.22066E-13 1.89931E-13
 -1      1043 2.10464E+01-1.29058E+00 4.54808E-04 3.00217E+00-6.66624E-14 6.50986E-14
 -1      1044 2.14521E+01-1.12585E+00 2.40634E-04 1.42773E-01-8.68968E-14 4.23567E-14
 -1      1045 2.09927E+01-8.63893E-01 1.51816E-05 1.69225E-01-1.59978E-13 6.19015E-14
 -1      1046 2.00394E+01-9.87828E-02 2.91690E-05 4.30604E-01-5.60284E-14 1.02271E-13
 -1      1047 2.20548E+01-1.38993E+00-1.88132E-03 2.00401E-02-1.57351E-13-2.99608E-15
 -1      1048 2.00244E+01-5.81005E-02 6.66541E-06 1.36831E-02-2.10195E-13-2.36291E-13
 -1      1049 2.00184E+01-5.71327E-02-2.02342E-06 1.67859E-01 6.75524E-14-5.32786E-14
 -1      1050 2.00150E+01-4.81119E-02-4.56415E-06 1.02201E-01-2.03332E-14 1.03204E-13
 -1      1051 2.00120E+01-4.07630E-02-4.29123E-06 6.10552E-02-7.77631E-14 1.74931E-13
 -1      1052 2.00089E+01-3.39631E-02-2.97298E-06 3.56985E-02-4.38904E-14 1.24407E-13
 -1      1053 2.00060E+01-2.75461E-02-1.70077E-06 2.03185E-02-3.33087E-13 1.21873E-13
 -1      1054 2.00034E+01-2.16577E-02-7.76212E-07 1.11411E-02-1.40026E-13 1.88785E-13
 -1      1055 2.00013E+01-1.64705E-02-2.02385E-07 5.76352E-03-3.22385E-14 6.19306E-15
 -1      1056 1.99996E+01-1.20858E-02 1.06250E-07 2.68114E-03-4.92915E-14 1.35007E-14
 -1      1057 1.99985E+01-8.51977E-03 2.41223E-07 9.65423E-04 1.20500E-15-4.26253E-14
 -1      1058 1.99979E+01-5.72232E-03 2.75801E-07 5.10975E-05-1.23822E-13-2.66152E-13
 -1      1059 1.99975E+01-3.60285E-03 2.54421E-07-4.01483E-04-1.82274E-13-5.37030E-14
 -1      1060 1.99974E+01-2.05172E-03 1.92713E-07-5.94841E-04-2.19307E-13-2.83104E-13
 -1      1061 1.99975E+01-9.17071E-04 1.29836E-07-6.45206E-04 9.32740E-14-1.64090E-13
 -1      1062 1.99977E+01-2.00191E-04 8.88718E-08-6.18713E-04-2.52845E-13-1.81745E-13
 -1      1063 1.99980E+01 2.52702E-04 6.46460E-08-5.59048E-04-2.65852E-13-2.01281E-13
 -1      1064 1.99983E+01 5.13104E-04 4.25727E-08-4.86616E-04 3.80637E-14 1.61257E-13
 -1      1065 1.99985E+01 6.38706E-04 2.55685E-08-4.12751E-04 2.35288E-13 1.09981E-13
 -1      1066 1.99988E+01 6.73920E-04 1.32723E-08-3.43277E-04 2.88071E-13 1.12806E-13
 -1      1067 1.99990E+01 6.51901E-04 4.48002E-09-2.80903E-04 2.91713E-13-2.24842E-13
 -1      1068 1.99992E+01 5.96642E-04-3.37594E-09-2.26594E-04 3.14776E-13-1.11604E-13
 -1      1069 1.99993E+01 5.24970E-04 4.18554E-09-1.80436E-04 4.51465E-13-3.54335E-13
 -1      1070 1.99994E+01 4.47617E-04-2.35027E-08-1.41848E-04 1.95026E-13 6.43792E-15
 -1      1071 2.28905E+01-1.59828E+00-1.02182E-03-2.37022E-01 7.05719E-14 1.71101E-13
 -1      1072 2.00014E+01-1.95534E-02 1.41884E-06-1.24763E-04-2.00281E-13 1.06465E-14
 -1      1073 2.00058E+01-2.84766E-02 2.37881E-06 1.81839E-03-5.57168E-14-1.69469E-13
 -1      1074 1.99975E+01-8.56063E-03 5.78651E-07-1.00458E-03 9.42387E-14 8.86332E-14
 -1      1075 1.99969E+01-5.32538E-03 4.15094E-07-8.64696E-04-1.14567E-14-8.48231E-14
 -1      1076 1.99967E+01-3.07604E-03 3.10706E-07-6.34988E-04-2.01287E-13 6.80226E-14
 -1      1077 1.99968E+01-1.54551E-03 3.88846E-07-4.05951E-04-3.23898E-13 5.98647E-14
 -1      1078 1.99971E+01-5.38424E-04 1.72357E-07-2.16695E-04 1.93821E-13 1.45067E-13
 -1      1079 1.99974E+01 9.75504E-05 1.66034E-07-7.72355E-05-1.66563E-13 1.43547E-13
 -1      1080 1.99978E+01 4.71418E-04 1.43763E-07 1.62562E-05-2.55749E-13 1.31006E-13
 -1      1081 1.99981E+01 6.65155E-04 1.23075E-07 7.23841E-05-1.86736E-13 1.21788E-13
 -1      1082 1.99984E+01 7.38805E-04 1.03451E-07 1.00791E-04-1.95481E-13-2.35690E-13
 -1      1083 1.99987E+01 7.35787E-04 8.51704E-08 1.10139E-04 5.74873E-15-2.40040E-13
 -1      1084 1.99989E+01 6.86955E-04 6.81818E-08 1.07392E-04 4.28362E-14-2.53924E-13
 -1      1085 1.99991E+01 6.13754E-04 5.19471E-08 9.77340E-05 8.63026E-14-5.83927E-13
 -1      1086 1.99993E+01 5.30698E-04 4.45411E-08 8.48126E-05 6.65181E-13-6.42947E-13
 -1      1087 1.99994E+01 4.46825E-04 6.84286E-09 7.03539E-05 3.68454E-13-5.20967E-13
 -1      1088 2.00129E+01-4.08661E-02 4.01236E-06 5.91914E-03-1.50136E-13-3.17296E-13
 -1      1089 2.01162E+01-1.64588E-01 2.26865E-05 8.62500E-02 3.36238E-14-1.41370E-13
 -1      1090 2.03816E+01-5.05613E-01-3.31668E-04 1.47547E+00 5.16829E-14-3.21548E-14
 -1      1091 2.06605E+01-6.38154E-01 8.74784E-06 1.47649E-01-1.21751E-13-9.07523E-14
 -1      1092 2.01869E+01-2.34048E-01 2.18469E-05 1.40661E-01-1.40092E-13-2.61373E-14
 -1      1093 2.24124E+01-1.68154E+00 9.73698E-04 1.09745E+00 5.57382E-14 1.42166E-13
 -1      1094 2.01739E+01-2.74736E-01 3.67566E-04 1.00993E+00 1.17354E-14 7.00121E-14
 -1      1095 1.99989E+01-1.31403E-02 8.76388E-07-8.70772E-04-3.19213E-14 1.17004E-13
 -1      1096 2.00426E+01-8.22061E-02 1.07293E-05 2.73616E-02-7.18017E-14-2.44965E-13
 -1      1097 2.00789E+01-1.56841E-01 1.11718E-04 6.70113E-01-1.49721E-13 1.05997E-13
 -1      1098 2.00712E+01-1.16200E-01 1.64314E-05 5.01443E-02 4.21994E-14-1.97047E-13
 -1      1099 1.99996E+01 3.56075E-04 3.24656E-07 4.98039E-05 1.97472E-13-2.58691E-13
 -1      1100 2.00243E+01-7.11806E-02 8.63440E-06 2.70687E-01 8.58414E-14 6.11865E-14
 -1      1101 2.02978E+01-3.34139E-01 1.30405E-05 2.18291E-01-2.16249E-13-1.16389E-13
 -1      1102 2.10398E+01-1.01006E+00 4.48525E-03 1.87096E+00-6.75358E-14 1.53891E-13
 -1      1103 2.17912E+01-1.40874E+00 1.21031E-03 1.56329E+00-1.00232E-13 2.71410E-13
 -1      1104 2.11420E+01-9.54314E-01-4.24142E-05 5.76643E-01-1.61639E-13 2.26712E-14
 -1      1105 2.17329E+01-1.29534E+00 2.35275E-04 6.68532E-01-1.25768E-13 6.57771E-14
 -1      1106 1.99995E+01 4.24772E-04 1.32554E-08-6.20165E-05-5.08945E-14-3.78561E-13
 -1      1107 2.00418E+01-7.88884E-02-5.23209E-06 6.93157E-02-1.26455E-14-1.60549E-13
 -1      1108 2.00261E+01-5.86187E-02-5.07947E-06 3.98686E-02-5.65740E-14-1.58394E-13
 -1      1109 2.00157E+01-4.35383E-02-4.33900E-06 2.19836E-02-1.15418E-13-1.29100E-13
 -1      1110 2.00086E+01-3.20781E-02-3.52520E-06 1.14537E-02-1.94927E-13-6.08305E-14
 -1      1111 2.00039E+01-2.32935E-02-2.81001E-06 5.46976E-03-2.72201E-13-1.16279E-14
 -1      1112 2.00009E+01-1.65698E-02-2.22481E-06 2.21544E-03-3.93368E-14-1.07955E-13
 -1      1113 1.99989E+01-1.14690E-02-1.75618E-06 5.49381E-04-3.94913E-14-2.98821E-13
 -1      1114 1.99978E+01-7.65460E-03-1.38184E-06-2.25792E-04-5.67613E-14-6.65384E-14
 -1      1115 1.99972E+01-4.85522E-03-1.07767E-06-5.24039E-04 3.34593E-14-1.30278E-13
 -1      1116 1.99971E+01-2.84704E-03-9.10465E-07-5.83387E-04-1.93450E-13-1.50329E-13
 -1      1117 1.99971E+01-1.39023E-03-5.42898E-07-5.31251E-04-2.02709E-13-1.74691E-13
 -1      1118 1.99973E+01-4.70230E-04-4.08890E-07-4.43481E-04 9.00611E-14-1.92457E-13
 -1      1119 1.99976E+01 1.17987E-04-3.09965E-07-3.52593E-04-2.83800E-13 1.42822E-13
 -1      1120 1.99979E+01 4.66556E-04-2.32151E-07-2.71858E-04-1.37553E-13 3.31192E-14
 -1      1121 1.99982E+01 6.47542E-04-1.71368E-07-2.05604E-04-1.07775E-14-2.23488E-13
 -1      1122 1.99985E+01 7.15461E-04-1.24599E-07-1.53635E-04 2.02533E-13-3.36167E-13
 -1      1123 1.99988E+01 7.10638E-04-8.91567E-08-1.13974E-04 7.12601E-14-4.43586E-13
 -1      1124 1.99990E+01 6.62197E-04-6.35239E-08-8.41986E-05 3.82586E-13-5.17667E-13
 -1      1125 1.99992E+01 5.90599E-04-4.92855E-08-6.20592E-05 4.36023E-13-7.15806E-13
 -1      1126 1.99993E+01 5.09603E-04-1.16722E-08-4.58825E-05 5.62533E-13-4.67671E-13
 -1      1127 2.01041E+01-1.47940E-01 9.26972E-06 1.89396E-01-2.20585E-14-1.07496E-13
 -1      1128 2.01673E+01-2.10738E-01 2.35835E-05 3.00506E-01-8.91711E-14-2.94244E-15
 -1      1129 2.07551E+01-7.07807E-01-3.94077E-04 9.56037E-01 3.95814E-14 9.73462E-14
 -1      1130 2.00659E+01-1.07075E-01-3.63100E-06 1.16389E-01-3.19910E-15-1.45796E-13
 -1      1131 2.02739E+01-3.09484E-01 4.05096E-05 4.61326E-01-1.26742E-13 1.20690E-13
 -1      1132 2.04525E+01-4.64013E-01 9.16651E-05 6.79191E-01 1.17664E-14 6.31186E-14
 -1      1133 2.07378E+01-6.80030E-01-5.88183E-05 4.47163E-01-8.18245E-14-5.96684E-14
 -1      1134 2.11568E+01-1.00916E+00-6.83853E-04 1.25680E+00-8.06534E-14 2.74629E-13
 -1      1135 2.04708E+01-4.77695E-01-1.14915E-05 3.21873E-01-9.39917E-14-1.30431E-13
 -1      1136 3.14691E+01 1.01713E+01 2.43506E+00-5.52046E+00 1.38778E-15 7.63278E-13
 -1      1137 2.23967E+01 6.81621E+00 3.23975E-01-1.73181E+00-4.38538E-15 3.98341E-13
 -1      1138 1.79844E+01 5.35835E+00-1.23194E-01-1.19474E+00-9.43690E-15 1.62929E-13
 -1      1139 1.54128E+01 4.53646E+00-2.91271E-01-1.94735E+00-6.16174E-15 2.31586E-14
 -1      1140 1.48976E+01 4.39169E+00-2.58564E-01-2.96092E+00-6.19643E-15-5.15972E-14
 -1      1141 1.59879E+01 4.76341E+00-1.09905E-01-3.51232E+00-4.77396E-15-8.00367E-14
 -1      1142 1.78013E+01 5.35720E+00 5.60333E-02-3.32868E+00-4.10783E-15-9.24946E-14
 -1      1143 1.95376E+01 5.91372E+00 1.74699E-01-2.51214E+00-3.71925E-15-1.02682E-13
 -1      1144 2.06991E+01 6.27659E+00 2.22830E-01-1.35752E+00-2.08167E-15-1.18516E-13
 -1      1145 2.11739E+01 6.41710E+00 2.16384E-01-1.42322E-01-1.67921E-15-1.25821E-13
 -1      1146 2.10724E+01 6.37649E+00 1.82485E-01 9.66160E-01-6.86950E-16-1.36962E-13
 -1      1147 2.05866E+01 6.21838E+00 1.41313E-01 1.89997E+00 5.55112E-16-1.34755E-13
 -1      1148 1.99020E+01 6.00113E+00 1.01701E-01 2.67535E+00 2.28983E-15-1.15751E-13
 -1      1149 1.91922E+01 5.77661E+00 6.31233E-02 3.33590E+00 3.88578E-15-6.95988E-14
 -1      1150 1.87042E+01 5.61936E+00 2.69972E-02 3.93852E+00 6.23113E-15 2.23207E-14
 -1      1151 1.90020E+01 5.71862E+00 6.00303E-02 4.63900E+00 6.71685E-15 2.23429E-13
 -1      1152 2.35442E+01 7.46991E+00 1.35544E+00 6.19324E+00 1.90403E-14 6.56919E-13
 -1      1153 3.38373E+01 3.53382E+00 9.70707E-01-3.50527E+00-1.08802E-14 1.02279E-12
 -1      1154 2.94660E+01-3.43719E-01-8.80269E-01 2.66708E-01-2.53964E-15 1.00001E-12
 -1      1155 3.37532E+01-2.62413E-01-4.38517E-01 4.46689E-01 4.58661E-15 1.00236E-12
 -1      1156 4.11787E+01-7.40367E-02 2.60784E-01 6.10536E-01 7.18089E-15 1.17911E-12
 -1      1157 4.84476E+01 2.47881E-01 1.30957E+00 2.55930E-01 4.77292E-14 1.59922E-12
 -1      1158 4.91392E+01 6.60291E-01 1.61915E+00-8.36988E-01 5.18162E-15 2.04803E-12
 -1      1159 4.01808E+01 5.16637E-01-6.68263E-02-1.54531E+00-8.85403E-15 2.12785E-12
 -1      1160 2.33993E+01-2.81492E-01-3.99586E+00-1.70075E+00-2.25098E-14 1.67022E-12
 -1      1161 1.23824E+01-8.53498E-01-6.74496E+00-2.60191E-01-1.86240E-14 9.54542E-13
 -1      1162 2.05118E+01-3.57570E-01-4.72450E+00 1.49191E+00-8.27116E-15 1.05138E-13
 -1      1163 3.87508E+01 2.44932E-01-5.14552E-01 1.47589E+00-1.53905E-14-4.28102E-13
 -1      1164 4.93551E+01 3.96109E-01 1.55506E+00 5.36397E-01-2.57259E-14-5.44786E-13
 -1      1165 4.83294E+01 1.05664E-01 1.23517E+00-1.02058E-01 1.51268E-14-1.17559E-13
 -1      1166 4.09410E+01-6.07880E-02 2.91278E-01-2.69590E-01 2.37310E-14 2.15994E-13
 -1      1167 3.31780E+01-8.49056E-02-1.94913E-01-2.23229E-01 3.74353E-15 5.19362E-13
 -1      1168 2.75519E+01-6.18513E-02-2.59069E-01-1.35970E-01-2.97028E-15 5.13561E-13
 -1      1169 2.41232E+01-3.92268E-02-1.82019E-01-7.35799E-02 6.99267E-15 4.90857E-13
 -1      1170 2.21664E+01-2.39233E-02-1.05066E-01-3.72823E-02 4.61220E-15 5.48027E-13
 -1      1171 2.10917E+01-1.41406E-02-5.61496E-02-1.81118E-02-1.67351E-14 3.17774E-13
 -1      1172 2.05194E+01-8.18465E-03-2.90373E-02-8.41444E-03 1.75991E-14-8.02266E-14
 -1      1173 2.02252E+01-4.62386E-03-1.47514E-02-3.66366E-03-2.34631E-14 4.70331E-14
 -1      1174 2.00814E+01-2.53260E-03-7.32215E-03-1.41010E-03-1.12698E-14-1.51574E-13
 -1      1175 2.00166E+01-1.32990E-03-3.47553E-03-3.92705E-04-2.38047E-15 1.83991E-13
 -1      1176 1.99919E+01-6.81460E-04-1.52337E-03 2.85773E-05-4.94287E-14-1.22476E-13
 -1      1177 1.99861E+01-2.28424E-04-4.96621E-04 1.29876E-04 3.43461E-14-5.36392E-13
 -1      1178 1.99885E+01-8.61065E-05-4.89868E-05 1.77331E-04-2.51108E-14-2.51320E-13
 -1      1179 1.99932E+01 3.96463E-07 1.23227E-04 1.47708E-04-2.29348E-14-1.96689E-13
 -1      1180 1.99978E+01 3.54998E-05 1.72105E-04 1.05646E-04 4.46341E-14 5.90342E-13
 -1      1181 2.00015E+01 4.39792E-05 1.63029E-04 6.71532E-05-3.87981E-15 4.98119E-13
 -1      1182 2.00039E+01 4.01615E-05 1.31755E-04 3.69558E-05 3.23607E-15 4.45286E-13
 -1      1183 2.00052E+01 3.17442E-05 9.61438E-05 1.54672E-05-1.54423E-14-7.28654E-13
 -1      1184 2.00058E+01 2.26220E-05 6.41645E-05 1.41831E-06 6.56727E-14-3.41197E-13
 -1      1185 2.00057E+01 1.45589E-05 3.86123E-05-6.91777E-06 3.42612E-14-1.02533E-13
 -1      1186 2.00053E+01 8.17157E-06 1.97514E-05-1.11823E-05 2.56287E-14-2.24214E-14
 -1      1187 2.00046E+01 3.49869E-06 6.74588E-06-1.27302E-05 3.75828E-15 1.54581E-13
 -1      1188 2.00039E+01 3.21104E-07-1.59556E-06-1.25913E-05 3.41442E-14 2.08617E-14
 -1      1189 2.00032E+01-1.65473E-06-6.45502E-06-1.14979E-05 1.69733E-14 2.94905E-14
 -1      1190 2.00026E+01-2.62888E-06-8.86362E-06-1.00719E-05-2.37863E-14-2.47390E-13
 -1      1191 2.00020E+01-3.26038E-06-9.53940E-06-8.46246E-06-1.21724E-14-2.55860E-13
 -1      1192 2.00015E+01-3.32420E-06-9.41209E-06-6.57031E-06 5.36996E-14 7.96959E-13
 -1      1193 2.00010E+01-3.10761E-06-8.54443E-06-5.17962E-06 1.04502E-13 9.77489E-13
 -1      1194 2.00007E+01-2.77624E-06-7.43775E-06-3.95825E-06 3.48159E-14 1.33213E-12
 -1      1195 2.00005E+01-2.39020E-06-6.25519E-06-2.95288E-06 3.15004E-14 1.42830E-12
 -1      1196 2.00003E+01-2.00018E-06-5.12018E-06-2.15136E-06 4.11281E-15 6.23228E-13
 -1      1197 2.00001E+01-1.63813E-06-4.10388E-06-1.53011E-06 8.96158E-16 1.27652E-13
 -1      1198 2.00000E+01-1.32299E-06-3.24636E-06-1.06083E-06 4.37776E-15 3.95583E-13
 -1      1199 1.99999E+01-1.06422E-06-2.57243E-06-7.12837E-07 1.39024E-13 2.05521E-12
 -1      1200 1.99999E+01-8.65570E-07-2.10189E-06-4.52960E-07-3.85659E-14 1.89464E-12
 -1      1201 1.99998E+01-7.24209E-07-1.82732E-06-2.37186E-07-1.52758E-13-5.78667E-13
 -1      1202 1.99998E+01-5.97981E-07-1.57294E-06 5.33418E-09-7.13468E-14-1.54052E-12
 -1      1203 1.99998E+01-1.08794E-07-5.84971E-07 3.71024E-07 8.64634E-14-1.19729E-12
 -1      1204 1.99998E+01-1.51389E-07 1.88434E-06 6.72555E-07-1.77826E-13 1.91477E-13
 -1      1205 2.61302E+01 5.22242E-01 5.28251E-01 2.00665E+00-9.75608E-15 1.02174E-12
 -1      1206 1.72088E+01-6.06757E-02-5.70776E-01 1.66020E-01 5.57540E-15 8.21954E-13
 -1      1207 1.51846E+01-4.17337E-02-2.05308E-01 3.90707E-02 1.33782E-14 5.91638E-13
 -1      1208 1.40927E+01-2.72102E-02-6.04030E-02 1.90846E-02 3.91787E-15 4.37948E-13
 -1      1209 1.33929E+01-2.45785E-02-2.84936E-02 1.56276E-02 1.66924E-15 3.46750E-13
 -1      1210 1.29655E+01-2.49163E-02-2.92503E-02 1.59149E-02-6.06026E-15 3.07066E-13
 -1      1211 1.28051E+01-2.55825E-02-3.51740E-02 1.42703E-02-2.10899E-15 2.47337E-13
 -1      1212 1.29325E+01-2.41255E-02-3.74530E-02 9.31927E-03 2.03830E-15 1.80128E-13
 -1      1213 1.33479E+01-1.98720E-02-3.37178E-02 1.74532E-03 7.06184E-15 7.94503E-14
 -1      1214 1.40117E+01-1.35339E-02-2.47249E-02-6.63527E-03 8.53397E-15 4.58383E-14
 -1      1215 1.48475E+01-6.55040E-03-1.30101E-02-1.38477E-02 1.26142E-14 8.88178E-16
 -1      1216 1.57601E+01-3.43396E-04-1.54426E-03-1.85273E-02 4.89376E-15-7.15678E-14
 -1      1217 1.66585E+01 4.18706E-03 7.41450E-03-2.02573E-02 8.61344E-15-1.15786E-13
 -1      1218 1.74730E+01 6.79255E-03 1.28656E-02-1.94452E-02-1.58384E-14-9.76753E-14
 -1      1219 1.81625E+01 7.71992E-03 1.49632E-02-1.69451E-02 5.11635E-16-2.29382E-14
 -1      1220 1.87132E+01 7.45630E-03 1.45477E-02-1.36682E-02-1.79347E-14 8.66442E-14
 -1      1221 1.91314E+01 6.51231E-03 1.26495E-02-1.03347E-02 8.77011E-15 7.52905E-14
 -1      1222 1.94353E+01 5.29821E-03 1.01541E-02-7.38736E-03-1.60814E-14 4.64646E-15
 -1      1223 1.96475E+01 4.08507E-03 7.66416E-03-5.01907E-03 5.95406E-15 8.05734E-14
 -1      1224 1.97904E+01 3.01881E-03 5.50449E-03-3.24905E-03-2.00696E-14 2.30613E-13
 -1      1225 1.98832E+01 2.15504E-03 3.79254E-03-2.00185E-03 1.49153E-14 2.81257E-13
 -1      1226 1.99414E+01 1.49461E-03 2.52070E-03-1.16656E-03 3.71596E-14 3.20158E-13
 -1      1227 1.99764E+01 1.01116E-03 1.62181E-03-6.32622E-04-2.57632E-14 4.79970E-13
 -1      1228 1.99965E+01 6.69111E-04 1.01151E-03-3.06661E-04 4.15230E-14 2.81036E-13
 -1      1229 2.00071E+01 4.33620E-04 6.10784E-04-1.17376E-04-1.54458E-16 2.04457E-13
 -1      1230 2.00121E+01 2.75068E-04 3.55173E-04-1.40454E-05 1.29367E-14 3.29221E-13
 -1      1231 2.00137E+01 1.70292E-04 1.96343E-04 3.74801E-05-1.77953E-15 1.86251E-13
 -1      1232 2.00134E+01 1.02174E-04 1.00126E-04 5.91530E-05 4.16146E-15 1.96739E-14
 -1      1233 2.00122E+01 5.85604E-05 4.34099E-05 6.45176E-05-6.87431E-15-3.37861E-13
 -1      1234 2.00107E+01 3.10828E-05 1.10860E-05 6.16095E-05-3.19765E-14-3.43858E-13
 -1      1235 2.00090E+01 1.41057E-05-6.45531E-06 5.50063E-05 5.04223E-14-4.68006E-13
 -1      1236 2.00074E+01 3.89739E-06-1.51964E-05 4.71976E-05-3.20394E-14-9.14947E-13
 -1      1237 2.00060E+01-1.98538E-06-1.87995E-05 3.94575E-05 9.93806E-14-9.49659E-13
 -1      1238 2.00047E+01-5.13057E-06-1.94787E-05 3.23779E-05-3.76406E-14-7.98772E-13
 -1      1239 2.00037E+01-6.56646E-06-1.85608E-05 2.61838E-05-2.01411E-15-1.68934E-13
 -1      1240 2.00028E+01-6.95783E-06-1.68359E-05 2.09120E-05-1.08169E-14-4.85083E-13
 -1      1241 2.00021E+01-6.73413E-06-1.47713E-05 1.65098E-05-1.06432E-13 5.63187E-16
 -1      1242 2.00015E+01-6.17219E-06-1.26402E-05 1.28872E-05 1.29263E-14 4.75829E-13
 -1      1243 2.00011E+01-5.44936E-06-1.05989E-05 9.94341E-06-1.80993E-14 6.77087E-13
 -1      1244 2.00007E+01-4.67793E-06-8.73221E-06 7.57969E-06 5.36951E-14 3.38916E-13
 -1      1245 2.00005E+01-3.92754E-06-7.08168E-06 5.70519E-06 2.89247E-14 1.88502E-13
 -1      1246 2.00002E+01-3.24019E-06-5.66327E-06 4.23914E-06-9.03000E-14 5.79617E-13
 -1      1247 2.00001E+01-2.64039E-06-4.47927E-06 3.11115E-06 3.62931E-14 3.95650E-13
 -1      1248 2.00000E+01-2.14167E-06-3.52715E-06 2.25974E-06 1.08667E-13-1.20165E-12
 -1      1249 1.99999E+01-1.75086E-06-2.80709E-06 1.63028E-06-1.41914E-13-1.05218E-12
 -1      1250 1.99998E+01-1.46827E-06-2.32476E-06 1.16675E-06 7.22123E-14-7.27747E-13
 -1      1251 1.99998E+01-1.26907E-06-2.05754E-06 7.95332E-07-1.10039E-13-5.25815E-13
 -1      1252 1.99998E+01-1.03181E-06-1.78481E-06 3.53071E-07-9.07139E-15-2.34534E-13
 -1      1253 1.99998E+01-3.18360E-07-6.42206E-07-4.36993E-07 2.74979E-13-1.36548E-12
 -1      1254 1.99998E+01 7.29470E-07 2.13090E-06-7.32787E-07 1.78305E-14-1.40982E-12
 -1      1255 1.99998E+01-2.20913E-06 1.94783E-06-7.84434E-07-1.46304E-12-1.06933E-13
 -1      1256 1.99998E+01-7.90503E-06-9.64005E-07-1.16597E-06-1.43731E-12 1.08544E-13
 -1      1257 1.99998E+01-3.09770E-06-1.87473E-06-1.93262E-07-8.47808E-13-1.14256E-13
 -1      1258 1.99998E+01 1.50545E-05-1.35124E-06 4.94876E-07-6.07084E-13-2.43209E-13
 -1      1259 1.99998E+01 4.19672E-05-4.47493E-07 8.35588E-07-5.42981E-13-1.16153E-13
 -1      1260 1.99998E+01 7.13889E-05 4.64981E-07 8.93975E-07-4.55853E-13 3.43630E-15
 -1      1261 1.99998E+01 9.75446E-05 1.21606E-06 7.36986E-07-8.44650E-13 2.87466E-14
 -1      1262 1.99998E+01 1.15634E-04 1.71093E-06 4.11678E-07-7.40681E-13-2.84595E-14
 -1      1263 1.99998E+01 1.22093E-04 1.88087E-06 6.37434E-09-1.27378E-12 1.29798E-15
 -1      1264 1.99998E+01 1.15787E-04 1.70976E-06-3.99065E-07-4.16523E-14 1.44676E-13
 -1      1265 1.99998E+01 9.78623E-05 1.21622E-06-7.23219E-07-1.12615E-12-3.72333E-13
 -1      1266 1.99998E+01 7.18556E-05 4.72832E-07-8.93219E-07-1.99418E-12 5.13878E-14
 -1      1267 1.99998E+01 4.25373E-05-4.37166E-07-8.35400E-07-1.64127E-12 1.18212E-13
 -1      1268 1.99998E+01 1.56037E-05-1.33268E-06-4.96830E-07-3.85985E-13 7.11411E-14
 -1      1269 1.99998E+01-2.52949E-06-1.75193E-06 2.23509E-07 3.63716E-13-1.55675E-14
 -1      1270 1.99998E+01-7.83714E-06-9.86824E-07 1.10796E-06-2.78222E-13-1.87705E-13
 -1      1271 1.99998E+01-2.16674E-06 1.74627E-06 7.06230E-07-8.10821E-13 9.66246E-14
 -1      1272-9.70672E-01-2.47743E+01-3.54697E+00-1.94852E+00 5.06706E-13 1.86226E-13
 -1      1273-1.18964E+00-1.24869E+01-2.65332E+00-2.97770E+00 1.12665E-12 4.15390E-13
 -1      1274 2.06611E+00 1.82577E+00-1.37909E+00 2.48988E+00 1.20970E-12 7.43183E-13
 -1      1275 1.25774E+01 1.20003E+01 1.96093E-01 1.20057E+01 1.28364E-12 1.15485E-12
 -1      1276 3.08695E+01 1.44187E+01 1.83406E+00 2.00161E+01 8.91509E-13 1.28120E-12
 -1      1277 5.26741E+01 1.01642E+01 3.18703E+00 2.12709E+01 5.17586E-13 1.10267E-12
 -1      1278 6.99708E+01 4.21265E+00 4.11320E+00 1.33548E+01 1.10564E-13 6.07181E-13
 -1      1279 7.54043E+01 1.91649E+00 4.29672E+00-8.96717E-01 1.12549E-14 1.01696E-13
 -1      1280 6.75184E+01 4.75079E+00 3.86812E+00-1.45793E+01 9.70335E-14-2.79998E-13
 -1      1281 4.89971E+01 1.06902E+01 2.78943E+00-2.10639E+01 2.67231E-13-4.52971E-13
 -1      1282 2.76515E+01 1.42421E+01 1.40148E+00-1.89843E+01 6.63913E-13-8.09575E-13
 -1      1283 1.04267E+01 1.11366E+01-1.23254E-01-1.05305E+01 9.78329E-13-8.35998E-13
 -1      1284 1.38084E+00 1.06099E+00-1.45036E+00-1.72907E+00 1.10068E-12-6.15952E-13
 -1      1285-1.00971E+00-1.23981E+01-2.54120E+00 2.59433E+00 1.00631E-12-3.28182E-13
 -1      1286-8.24227E-01-2.39770E+01-3.43654E+00 1.03518E+00 5.88751E-13-8.08104E-14
 -1      1287-1.64217E+00-2.83559E+01-4.06017E+00-4.04836E+00 1.01641E-13-3.26267E-14
 -1      1288-3.86233E+00-2.42586E+01-4.39930E+00-8.26478E+00-4.12781E-13-2.02116E-13
 -1      1289-4.89667E+00-1.34655E+01-4.32444E+00-7.21969E+00-8.44436E-13-6.20393E-13
 -1      1290 1.39403E+00-1.35456E+00-3.39854E+00 5.00988E-01-1.17550E-12-1.21569E-12
 -1      1291 2.08871E+01 6.76716E+00-8.50470E-01 1.20138E+01-1.19860E-12-1.73461E-12
 -1      1292 5.52555E+01 8.19917E+00 4.07921E+00 1.97189E+01-6.63247E-13-1.50546E-12
 -1      1293 9.13054E+01 5.07015E+00 9.57046E+00 1.55840E+01-2.03448E-13-4.59632E-13
 -1      1294 1.06726E+02 2.07901E+00 1.17666E+01-6.65034E-01-6.79179E-14 7.60947E-13
 -1      1295 8.67977E+01 5.46889E+00 8.82497E+00-1.70986E+01-4.88387E-13 1.79234E-12
 -1      1296 4.92317E+01 8.40783E+00 3.21494E+00-1.88542E+01-9.14380E-13 1.93445E-12
 -1      1297 1.72051E+01 5.88158E+00-1.28501E+00-1.02295E+01-1.36691E-12 1.87228E-12
 -1      1298-1.44631E-01-3.30181E+00-3.56204E+00 9.03753E-01-1.46883E-12 1.38201E-12
 -1      1299-5.07978E+00-1.58739E+01-4.35477E+00 7.82712E+00-1.54610E-12 8.64420E-13
 -1      1300-3.74075E+00-2.58449E+01-4.33942E+00 7.81626E+00-1.41737E-12 5.62203E-13
 -1      1301-1.46521E+00-2.99079E+01-4.11568E+00 3.34181E+00-4.55636E-13 9.41608E-14
 -1      1302 2.76307E+01 1.90029E+00-6.89168E-01-1.47854E+00 3.08087E-15 7.43738E-13
 -1      1303 2.11262E+01 4.90414E+00-1.42674E-01-1.04549E+00-4.79616E-14 2.90164E-13
 -1      1304 2.38485E+01 5.52093E+00 9.77215E-02-1.83182E+00-4.84057E-14 4.16694E-13
 -1      1305 1.66493E+01 5.32266E+00-1.66750E-01-1.26568E+00-8.16569E-14 9.20236E-14
 -1      1306 1.86721E+01 5.87496E+00 3.29910E-02-1.13432E+00-8.21565E-14 1.83209E-13
 -1      1307 2.01458E+01 5.02419E+00 1.87357E-02-9.40699E-01-9.34391E-14 2.46914E-13
 -1      1308 1.44655E+01 5.37143E+00-1.22381E-01-2.28703E+00-9.68670E-14-1.82744E-14
 -1      1309 1.52509E+01 5.60003E+00-9.07466E-02-1.82259E+00-9.84490E-14 3.60103E-14
 -1      1310 1.57444E+01 5.85539E+00-1.47547E-02-1.60900E+00-1.44489E-13 7.79446E-14
 -1      1311 1.46886E+01 5.22725E+00-3.76966E-02-3.27527E+00-1.05520E-13-6.99454E-14
 -1      1312 1.43023E+01 5.13101E+00-1.39885E-01-2.90098E+00-1.05624E-13-4.50679E-14
 -1      1313 1.40579E+01 5.78867E+00-3.14066E-02-2.74292E+00-1.63737E-13-9.67737E-15
 -1      1314 1.64540E+01 5.03525E+00 3.70049E-02-3.61297E+00-9.87266E-14-8.88126E-14
 -1      1315 1.54293E+01 4.75195E+00-1.11839E-01-3.56312E+00-1.05860E-13-7.48490E-14
 -1      1316 1.48741E+01 5.15753E+00-3.95855E-02-3.55791E+00-1.75783E-13-4.52078E-14
 -1      1317 1.86686E+01 4.93157E+00 7.60286E-02-3.17603E+00-9.01640E-14-9.85843E-14
 -1      1318 1.75524E+01 4.62062E+00-4.29053E-02-3.46762E+00-9.24816E-14-9.27591E-14
 -1      1319 1.70849E+01 4.44304E+00-4.15099E-02-3.59812E+00-1.59574E-13-6.17718E-14
 -1      1320 2.04458E+01 4.97230E+00 8.00286E-02-2.18518E+00-6.23945E-14-1.04972E-13
 -1      1321 1.96324E+01 4.74280E+00 2.39813E-02-2.69728E+00-7.13873E-14-9.29638E-14
 -1      1322 1.94825E+01 4.01392E+00-2.88827E-02-2.89844E+00-1.39784E-13-5.34330E-14
 -1      1323 2.14398E+01 5.10574E+00 6.48086E-02-9.76381E-01-4.85167E-14-1.15977E-13
 -1      1324 2.10417E+01 4.99159E+00 6.19902E-02-1.56282E+00-5.16670E-14-1.08042E-13
 -1      1325 2.12222E+01 3.95641E+00-1.37066E-02-1.78334E+00-9.64853E-14-6.54338E-14
 -1      1326 2.16855E+01 5.24129E+00 4.50199E-02 2.01892E-01-2.87890E-14-1.28127E-13
 -1      1327 2.16488E+01 5.22900E+00 7.05891E-02-3.57833E-01-3.88578E-14-1.21885E-13
 -1      1328 2.20586E+01 4.13369E+00-5.03277E-03-5.78741E-01-7.04428E-14-7.12486E-14
 -1      1329 2.13812E+01 5.31368E+00 2.87718E-02 1.23138E+00-1.19349E-14-1.40422E-13
 -1      1330 2.15933E+01 5.37208E+00 6.18256E-02 7.43788E-01-1.52829E-14-1.32967E-13
 -1      1331 2.21187E+01 4.36812E+00-3.20130E-03 5.23739E-01-3.45531E-14-8.66876E-14
 -1      1332 2.07592E+01 5.30046E+00 1.69204E-02 2.07683E+00 3.80251E-15-1.33820E-13
 -1      1333 2.11027E+01 5.39648E+00 4.64474E-02 1.67309E+00-1.29063E-15-1.38084E-13
 -1      1334 2.16606E+01 4.53722E+00-5.79982E-03 1.45151E+00-8.00054E-15-9.00738E-14
 -1      1335 1.99901E+01 5.21193E+00 6.75852E-03 2.79480E+00 3.10932E-14-1.11799E-13
 -1      1336 2.03838E+01 5.31955E+00 2.96760E-02 2.44676E+00 2.01644E-14-1.23259E-13
 -1      1337 2.09274E+01 4.59255E+00-1.07670E-02 2.22417E+00 2.16077E-14-8.13516E-14
 -1      1338 1.92683E+01 5.07957E+00-5.66178E-03 3.41849E+00 5.17295E-14-6.15619E-14
 -1      1339 1.96105E+01 5.16508E+00 9.92012E-03 3.10676E+00 4.18693E-14-9.38624E-14
 -1      1340 2.01156E+01 4.52532E+00-1.83060E-02 2.88721E+00 5.94750E-14-5.43593E-14
 -1      1341 1.88515E+01 4.94466E+00-2.32431E-02 4.01837E+00 7.31741E-14 4.31877E-14
 -1      1342 1.89955E+01 4.95410E+00-1.87080E-02 3.69439E+00 6.11108E-14-1.88738E-14
 -1      1343 1.94447E+01 4.32832E+00-2.89025E-02 3.48470E+00 9.11363E-14 9.92956E-15
 -1      1344 1.93842E+01 4.73926E+00-2.67833E-02 4.73771E+00 7.19980E-14 2.60070E-13
 -1      1345 1.89277E+01 4.62425E+00-6.11816E-02 4.25405E+00 6.80844E-14 1.25781E-13
 -1      1346 1.92745E+01 3.89625E+00-3.65792E-02 4.04003E+00 1.21392E-13 1.29355E-13
 -1      1347 2.53396E+01 3.14381E+00 9.60443E-01 4.89780E+00 3.79280E-14 6.82621E-13
 -1      1348 2.01138E+01 3.43159E+00-1.92846E-01 4.42503E+00 4.10227E-14 3.82139E-13
 -1      1349 2.01358E+01 2.57263E+00-5.80434E-02 4.15022E+00 1.21129E-13 3.22520E-13
 -1      1350 1.91079E+01 4.05318E-01-7.65388E-01 1.54904E+00 6.34909E-14 6.63136E-13
 -1      1351 2.89390E+01 3.28571E-01-3.05720E-01 3.76958E-01-4.96825E-15 7.32265E-13
 -1      1352 2.96092E+01 4.68590E-01-1.35848E-01 7.67444E-01-2.52992E-14 7.24976E-13
 -1      1353 3.00292E+01 4.77987E-01-1.17895E-01 1.81690E+00 2.08722E-14 7.16510E-13
 -1      1354 3.26378E+01 3.49483E-01 2.52728E-02 2.06232E+00 3.69635E-14 7.62168E-13
 -1      1355 2.73353E+01 9.39880E-01-8.44373E-02 2.26970E+00 3.31679E-15 4.92918E-13
 -1      1356 3.38440E+01 2.57256E-01 6.40429E-02 2.71985E+00 8.60804E-14 7.82069E-13
 -1      1357 3.73154E+01-6.13253E-02 2.98270E-01 2.79063E+00 8.48904E-14 9.04915E-13
 -1      1358 2.87656E+01 5.60031E-01 5.89231E-03 4.34825E+00 1.02911E-13 5.06227E-13
 -1      1359 3.88868E+01-4.85810E-01 4.12458E-01 2.34198E+00 1.48576E-13 9.34253E-13
 -1      1360 4.08600E+01-1.02461E+00 5.42344E-01 1.79490E+00 1.41664E-13 1.13477E-12
 -1      1361 3.14428E+01-6.51495E-01 1.78385E-01 4.77481E+00 2.15217E-13 5.30433E-13
 -1      1362 4.30779E+01-1.01554E+00 2.25402E-01-3.47852E+00-5.43593E-14 1.57518E-12
 -1      1363 3.71125E+01-5.23649E-01-9.25917E-01-3.96241E+00-1.07386E-13 1.49025E-12
 -1      1364 3.68087E+01-3.94811E-02-1.28448E+00-4.41722E+00-2.01505E-13 1.40954E-12
 -1      1365 2.99875E+01 9.89788E-01-2.65368E+00-4.06354E+00-1.94067E-13 1.10012E-12
 -1      1366 4.20316E+01-4.68127E-01-2.67123E-01-7.31064E+00-2.83995E-13 1.03098E-12
 -1      1367 2.98392E+01 1.63572E+00-2.81628E+00-1.18327E+00-1.90736E-13 9.37805E-13
 -1      1368 2.91073E+01 1.60649E+00-3.02074E+00 3.71967E-01-2.26819E-13 6.17562E-13
 -1      1369 4.28010E+01 2.76059E+00-4.26159E-01-4.39060E+00-3.73923E-13 7.42573E-13
 -1      1370 2.92750E+01 1.30921E+00-2.79233E+00 3.63440E+00-2.60347E-13 4.13281E-13
 -1      1371 3.61012E+01 1.24121E-02-1.46137E+00 4.46765E+00-1.89904E-13 3.51941E-14
 -1      1372 4.27848E+01 2.94672E+00-5.04989E-01 3.64181E+00-4.05898E-13 4.65683E-13
 -1      1373 3.65613E+01-2.54314E-01-9.56698E-01 3.99047E+00-6.42264E-14-1.13243E-13
 -1      1374 4.31579E+01-1.05900E+00 2.35227E-01 3.45277E+00-1.26163E-13-2.40252E-13
 -1      1375 4.19745E+01-5.87997E-01-4.09579E-01 7.12861E+00-2.35811E-13 1.32949E-13
 -1      1376 4.32807E+01-8.26014E-01 5.61152E-01 1.05778E+00-2.02477E-14-2.82441E-13
 -1      1377 4.51651E+01-7.49335E-01 9.07643E-01 2.51562E-01 1.35281E-13-1.78413E-13
 -1      1378 4.12924E+01-1.98612E+00 2.51722E-01 3.63141E+00-7.83262E-14-2.38698E-14
 -1      1379 4.35313E+01-4.97805E-01 7.37951E-01-1.40205E+00 5.43454E-14-1.18378E-13
 -1      1380 4.11911E+01-4.48949E-02 5.46832E-01-1.78268E+00 8.32390E-14 4.91274E-14
 -1      1381 3.92167E+01-1.20579E+00 4.44978E-01-1.31679E+00 1.42636E-13-1.48770E-14
 -1      1382 3.86456E+01-1.45792E-01 2.63352E-01-2.02930E+00 6.78589E-14 1.25261E-13
 -1      1383 3.48680E+01 2.06303E-01 5.76829E-02-2.05447E+00 6.13572E-14 2.64178E-13
 -1      1384 3.52538E+01-2.32690E-01 2.47968E-01-3.69279E+00 1.27620E-13 1.08497E-13
 -1      1385 3.24873E+01 3.62968E-02-5.64127E-02-1.63307E+00 7.71536E-14 3.20299E-13
 -1      1386 2.92181E+01 1.92092E-01-1.26088E-01-1.53444E+00 1.83898E-14 4.13142E-13
 -1      1387 3.05996E+01 1.92252E-01 1.06834E-02-3.53376E+00 1.38889E-13 2.26347E-13
 -1      1388 2.75283E+01 8.11195E-02-1.18469E-01-1.06680E+00-9.81507E-15 4.33126E-13
 -1      1389 2.53711E+01 1.18583E-01-1.18572E-01-9.67368E-01-4.41071E-14 3.81167E-13
 -1      1390 2.66959E+01 2.40514E-01-6.95701E-02-2.50586E+00 3.58741E-15 3.69538E-13
 -1      1391 2.42841E+01 7.23121E-02-8.22545E-02-6.36944E-01-2.82638E-14 4.57301E-13
 -1      1392 2.29961E+01 6.60075E-02-7.13722E-02-5.65081E-01-3.10307E-14 4.33112E-13
 -1      1393 2.39855E+01 1.71953E-01-6.15893E-02-1.55800E+00-3.06491E-14 4.36172E-13
 -1      1394 2.23377E+01 5.05545E-02-4.24873E-02-3.61920E-01-1.80411E-14 4.36082E-13
 -1      1395 2.16080E+01 3.50736E-02-3.66600E-02-3.16286E-01-2.23693E-14 4.13978E-13
 -1      1396 2.22671E+01 1.03907E-01-3.72347E-02-9.06617E-01-2.47458E-14 4.87289E-13
 -1      1397 2.12256E+01 3.21076E-02-1.90449E-02-1.98848E-01-4.16438E-14 3.14443E-13
 -1      1398 2.08267E+01 1.81949E-02-1.75676E-02-1.71484E-01-5.35995E-14 1.46196E-13
 -1      1399 2.12377E+01 5.86246E-02-1.95810E-02-5.06673E-01-1.08455E-13 3.37425E-13
 -1      1400 2.06122E+01 1.93807E-02-7.73899E-03-1.05814E-01-2.89005E-14 4.11147E-14
 -1      1401 2.04011E+01 9.21779E-03-8.15765E-03-8.99474E-02-1.45136E-14-8.98281E-14
 -1      1402 2.06459E+01 3.18861E-02-9.79070E-03-2.74058E-01-1.23180E-13 1.96901E-13
 -1      1403 2.02853E+01 1.13298E-02-2.82499E-03-5.41175E-02-9.58435E-15 8.94421E-14
 -1      1404 2.01779E+01 4.51957E-03-3.69098E-03-4.51446E-02-6.77399E-14-4.21746E-14
 -1      1405 2.03178E+01 1.69177E-02-4.82638E-03-1.43041E-01 2.22244E-14 4.40234E-14
 -1      1406 2.01182E+01 6.44434E-03-8.20036E-04-2.60936E-02-4.26484E-14 1.39871E-13
 -1      1407 2.00667E+01 2.09704E-03-1.58463E-03-2.11500E-02 6.32171E-14 1.87638E-13
 -1      1408 2.01431E+01 8.74878E-03-2.35303E-03-7.11027E-02 5.02701E-14 2.46973E-13
 -1      1409 2.00380E+01 3.55641E-03-5.32567E-05-1.13714E-02 2.18814E-15 1.60523E-13
 -1      1410 2.00156E+01 8.73845E-04-6.00443E-04-8.73864E-03-5.60277E-14 2.17658E-13
 -1      1411 2.00549E+01 4.36324E-03-1.10877E-03-3.26990E-02 3.64851E-14 2.47456E-13
 -1      1412 2.00034E+01 1.90455E-03 2.06006E-04-3.99760E-03-1.55269E-13 1.11677E-13
 -1      1413 1.99955E+01 2.66189E-04-1.71351E-04-2.64615E-03-1.05004E-13-2.29199E-13
 -1      1414 2.00138E+01 2.02991E-03-4.87462E-04-1.29802E-02-1.98420E-13 9.03488E-14
 -1      1415 1.99915E+01 9.34744E-04 2.58827E-04-4.98736E-04 7.14308E-14-2.92087E-13
 -1      1416 1.99905E+01-3.58333E-05 3.67131E-05 1.54980E-04 6.81515E-14-1.92832E-13
 -1      1417 1.99972E+01 9.37907E-04-1.28010E-04-3.36636E-03-4.72451E-14 3.06277E-14
 -1      1418 1.99904E+01 4.19884E-04 2.29879E-04 8.28482E-04 9.07353E-15 7.14885E-15
 -1      1419 1.99920E+01-8.24343E-05 1.05150E-04 1.05713E-03 8.80174E-14 3.17377E-14
 -1      1420 1.99930E+01 2.45148E-04-1.50238E-05 7.93902E-04 9.99044E-14 1.54365E-13
 -1      1421 1.99933E+01 1.34399E-04 1.69971E-04 1.14753E-03 7.34390E-14 1.25402E-14
 -1      1422 1.99955E+01-1.02880E-04 1.10056E-04 1.19129E-03 1.39554E-13 3.00369E-13
 -1      1423 1.99941E+01 7.04565E-06 4.70299E-05 2.08293E-03 7.88979E-14 3.57055E-13
 -1      1424 1.99971E+01 6.07363E-06 1.20813E-04 1.03063E-03 1.34682E-13 3.94011E-13
 -1      1425 1.99991E+01-9.18611E-05 9.36314E-05 9.94181E-04-1.33912E-14 5.86736E-13
 -1      1426 1.99969E+01-9.13744E-05 6.31337E-05 2.14277E-03 2.13850E-13 5.50502E-13
 -1      1427 2.00004E+01-4.77033E-05 8.08690E-05 7.63249E-04-6.24647E-14 4.93733E-13
 -1      1428 2.00019E+01-7.02020E-05 7.12929E-05 6.99629E-04 4.91486E-15 4.12003E-13
 -1      1429 1.99997E+01-1.13272E-04 5.99708E-05 1.71002E-03-8.64529E-14 4.92677E-13
 -1      1430 2.00028E+01-6.28524E-05 5.06823E-05 4.81333E-04-9.36576E-14 4.04787E-13
 -1      1431 2.00037E+01-4.78961E-05 4.99956E-05 4.16473E-04-1.83793E-13 9.66732E-14
 -1      1432 2.00019E+01-1.01880E-04 4.91657E-05 1.15576E-03-9.24369E-14 1.60505E-13
 -1      1433 2.00042E+01-5.95393E-05 2.92008E-05 2.42303E-04-1.51381E-13-1.45520E-13
 -1      1434 2.00047E+01-2.90142E-05 3.24144E-05 1.87289E-04 8.74213E-14-3.74137E-13
 -1      1435 2.00034E+01-7.90447E-05 3.66747E-05 6.48205E-04-3.38484E-13 1.37159E-13
 -1      1436 2.00049E+01-4.87988E-05 1.47011E-05 6.32495E-05 8.59870E-14-2.56673E-13
 -1      1437 2.00050E+01-1.46819E-05 1.90952E-05 2.13818E-05-3.26731E-14-1.02185E-13
 -1      1438 2.00041E+01-5.51900E-05 2.52722E-05 2.48984E-04 1.19128E-13 1.90830E-14
 -1      1439 2.00051E+01-3.63601E-05 5.42900E-06-5.78946E-05-2.56491E-14-9.59799E-15
 -1      1440 2.00049E+01-4.67067E-06 9.64237E-06-8.70889E-05-9.48506E-15-3.79662E-14
 -1      1441 2.00044E+01-3.46981E-05 1.59954E-05-3.29789E-05 5.70275E-14 6.20847E-14
 -1      1442 2.00048E+01-2.49359E-05-1.24140E-07-1.30944E-04 5.93083E-14-2.45003E-14
 -1      1443 2.00045E+01 1.77048E-06 3.33037E-06-1.49506E-04 2.54739E-14 1.29613E-13
 -1      1444 2.00043E+01-1.88816E-05 9.00231E-06-2.12025E-04 9.38842E-14 6.56456E-14
 -1      1445 2.00043E+01-1.55820E-05-3.14611E-06-1.67615E-04-3.22182E-14 4.20080E-14
 -1      1446 2.00040E+01 5.50256E-06-6.02165E-07-1.77996E-04-5.80835E-14-1.13649E-15
 -1      1447 2.00039E+01-7.60473E-06 4.05252E-06-3.10288E-04-8.88473E-14 6.02924E-14
 -1      1448 2.00037E+01-8.49336E-06-4.52054E-06-1.78776E-04-7.18711E-14 1.15794E-13
 -1      1449 2.00034E+01 7.31044E-06-2.82687E-06-1.83280E-04-6.86679E-15 2.33836E-14
 -1      1450 2.00034E+01-1.45428E-07 7.63307E-07-3.50085E-04-5.60143E-14-3.50947E-14
 -1      1451 2.00031E+01-3.46370E-06-4.88069E-06-1.73390E-04 1.39411E-13-5.80616E-14
 -1      1452 2.00027E+01 7.85621E-06-3.87346E-06-1.73953E-04-2.79277E-14 4.73178E-14
 -1      1453 2.00029E+01 4.37196E-06-1.25921E-06-3.50640E-04-3.25215E-14 1.30567E-13
 -1      1454 2.00025E+01-2.52834E-07-4.70661E-06-1.58218E-04-1.44985E-13-2.21611E-14
 -1      1455 2.00022E+01 7.69440E-06-4.24515E-06-1.56484E-04-5.18371E-14-2.42307E-13
 -1      1456 2.00024E+01 6.81875E-06-2.37415E-06-3.27127E-04-1.42494E-13 2.31992E-14
 -1      1457 2.00019E+01 1.77171E-06-4.24188E-06-1.37511E-04 1.40522E-13-3.46225E-13
 -1      1458 2.00017E+01 7.03538E-06-3.99898E-06-1.34181E-04 6.49854E-14 7.30837E-14
 -1      1459 2.00019E+01 7.60219E-06-2.75926E-06-2.89700E-04-2.12220E-14-6.29086E-14
 -1      1460 2.00015E+01 2.95642E-06-3.49159E-06-1.15846E-04 1.49371E-13 6.00532E-14
 -1      1461 2.00012E+01 5.87131E-06-3.63003E-06-1.12074E-04 1.92273E-13 3.79457E-13
 -1      1462 2.00014E+01 7.65752E-06-2.95145E-06-2.46741E-04 2.73997E-13-1.16651E-13
 -1      1463 2.00011E+01 3.52051E-06-2.81536E-06-9.52312E-05 1.38044E-13 5.55415E-13
 -1      1464 2.00009E+01 4.90206E-06-3.13196E-06-9.13116E-05 2.77391E-13 7.46653E-13
 -1      1465 2.00010E+01 7.03846E-06-2.77741E-06-2.04768E-04 2.38703E-13 9.82960E-14
 -1      1466 2.00007E+01 3.53775E-06-2.22144E-06-7.63966E-05 4.86681E-14 9.07680E-13
 -1      1467 2.00006E+01 3.97908E-06-2.60284E-06-7.27076E-05 7.66993E-14 1.03077E-12
 -1      1468 2.00007E+01 6.19418E-06-2.47879E-06-1.65811E-04 1.62519E-13 6.04972E-13
 -1      1469 2.00005E+01 3.30500E-06-1.70475E-06-5.99795E-05-1.11250E-13 1.11983E-12
 -1      1470 2.00004E+01 3.15363E-06-2.10182E-06-5.66826E-05-1.18370E-13 8.54617E-13
 -1      1471 2.00005E+01 5.25007E-06-2.12726E-06-1.31305E-04-4.85879E-14 6.74475E-13
 -1      1472 2.00003E+01 2.94194E-06-1.27479E-06-4.61310E-05-1.50996E-13 6.76839E-13
 -1      1473 2.00002E+01 2.44821E-06-1.65690E-06-4.32914E-05-2.01573E-13 2.73289E-13
 -1      1474 2.00003E+01 4.32299E-06-1.77087E-06-1.01834E-04-2.99824E-13 4.68939E-13
 -1      1475 2.00001E+01 2.53101E-06-9.30473E-07-3.47436E-05 6.23208E-14 3.76335E-14
 -1      1476 2.00001E+01 1.86759E-06-1.28149E-06-3.23636E-05 1.07671E-13 1.78877E-13
 -1      1477 2.00002E+01 3.47857E-06-1.43925E-06-7.73616E-05-1.60290E-13 2.94100E-13
 -1      1478 2.00000E+01 2.12883E-06-6.66255E-07-2.55575E-05 2.51728E-14 3.93112E-13
 -1      1479 2.00000E+01 1.40649E-06-9.82689E-07-2.35974E-05 2.47536E-13 7.61130E-13
 -1      1480 2.00000E+01 2.75323E-06-1.14987E-06-5.74737E-05 1.37843E-13 3.76399E-13
 -1      1481 1.99999E+01 1.77440E-06-4.77854E-07-1.82273E-05 3.76361E-13 1.07576E-12
 -1      1482 1.99999E+01 1.05321E-06-7.68646E-07-1.66200E-05-7.11491E-15 1.74379E-12
 -1      1483 2.00000E+01 2.16509E-06-9.14454E-07-4.15390E-05 5.56563E-13 7.71032E-13
 -1      1484 1.99999E+01 1.49500E-06-3.67449E-07-1.23684E-05-2.84321E-13 1.42417E-12
 -1      1485 1.99998E+01 7.90162E-07-6.51629E-07-1.10290E-05-5.83197E-13 6.80887E-13
 -1      1486 1.99999E+01 1.72271E-06-7.43543E-07-2.88165E-05-2.30798E-13 8.33687E-13
 -1      1487 1.99998E+01 1.31623E-06-3.35516E-07-7.58499E-06-6.56497E-13 4.44691E-13
 -1      1488 1.99998E+01 5.93135E-07-6.18073E-07-6.41019E-06-3.39015E-13-7.00718E-13
 -1      1489 1.99998E+01 1.43120E-06-6.43238E-07-1.85226E-05-1.03127E-12 4.66197E-13
 -1      1490 1.99998E+01 1.22165E-06-3.31220E-07-3.53909E-06-4.47696E-14-7.53028E-13
 -1      1491 1.99998E+01 4.18251E-07-5.11484E-07-2.45009E-06 1.38965E-13-6.90686E-13
 -1      1492 1.99998E+01 1.26848E-06-5.76590E-07-9.93062E-06-2.47640E-13 5.23685E-14
 -1      1493 1.99998E+01 9.03547E-07-1.68392E-07-1.83880E-07 8.21362E-14-7.67532E-13
 -1      1494 1.99998E+01 2.67831E-07 2.40962E-07 5.48433E-07 2.87800E-13-4.46341E-13
 -1      1495 1.99998E+01 1.23174E-06-3.07216E-07-2.69036E-06 1.78122E-13-2.13385E-13
 -1      1496 1.99998E+01 4.17217E-07 4.56325E-07 1.66012E-06 4.82983E-13 3.10580E-14
 -1      1497 1.99998E+01-2.16774E-07 1.60195E-06 1.07070E-06 1.11492E-13 2.37933E-13
 -1      1498 1.99998E+01-2.35592E-06 4.74037E-07 1.68147E-06-1.41371E-13 8.92432E-15
 -1      1499 1.99998E+01 7.41984E-07 3.00300E-07 1.45595E-06 7.10752E-13 2.28458E-13
 -1      1500 1.72634E+01 8.65489E-02-1.67643E-01 7.58580E-01 6.74703E-14 5.29590E-13
 -1      1501 1.89621E+01 2.14900E-01-2.36604E-01 1.01691E+00 4.95437E-14 6.29219E-13
 -1      1502 1.93835E+01 9.52078E-01-7.08844E-02 2.60575E+00 1.05527E-13 4.24188E-13
 -1      1503 1.57073E+01 3.97787E-02-2.87754E-02 4.28578E-01 5.33844E-14 3.95042E-13
 -1      1504 1.64934E+01 1.17741E-01-7.11076E-02 4.86092E-01 5.76206E-14 4.80345E-13
 -1      1505 1.74366E+01 2.13689E-01-5.37461E-02 1.27678E+00 1.03098E-13 3.50803E-13
 -1      1506 1.47497E+01 2.47303E-02 1.67497E-03 2.69865E-01 2.81901E-14 3.08411E-13
 -1      1507 1.52125E+01 5.70923E-02-2.71568E-03 2.99957E-01 2.71371E-14 3.49441E-13
 -1      1508 1.61731E+01 8.37573E-02-1.53033E-02 7.40970E-01 7.28046E-14 2.82189E-13
 -1      1509 1.41462E+01 2.22455E-02 2.19477E-03 1.67140E-01 1.98296E-14 2.64738E-13
 -1      1510 1.44353E+01 3.79227E-02 9.26825E-03 1.89912E-01 1.56004E-14 2.88242E-13
 -1      1511 1.53708E+01 4.36459E-02-8.89142E-03 4.59180E-01 3.48489E-14 2.14843E-13
 -1      1512 1.38188E+01 2.32452E-02-2.15833E-03 7.08570E-02 2.50312E-14 2.13755E-13
 -1      1513 1.39685E+01 3.56585E-02 6.28587E-03 9.44585E-02 1.23295E-14 2.38299E-13
 -1      1514 1.48780E+01 3.96570E-02-1.00408E-02 2.54059E-01 2.57641E-14 1.93885E-13
 -1      1515 1.37583E+01 2.40896E-02-4.97226E-03-3.02195E-02 2.92544E-14 1.41873E-13
 -1      1516 1.37688E+01 3.77414E-02 2.70243E-03-3.58608E-03 2.70747E-14 1.73635E-13
 -1      1517 1.46467E+01 4.28099E-02-1.20114E-02 5.88884E-02 5.36012E-14 1.37131E-13
 -1      1518 1.39638E+01 2.21345E-02-5.36269E-03-1.30973E-01 4.10960E-14 8.11660E-14
 -1      1519 1.38325E+01 3.80238E-02 9.67304E-04-1.03197E-01 2.25362E-14 1.11830E-13
 -1      1520 1.46616E+01 4.32115E-02-1.30430E-02-1.38391E-01 5.05238E-14 7.02017E-14
 -1      1521 1.44124E+01 1.68226E-02-3.65865E-03-2.18539E-01 8.00271E-15 1.94567E-14
 -1      1522 1.41503E+01 3.38717E-02 8.41285E-04-1.93326E-01 2.29669E-14 5.78843E-14
 -1      1523 1.49079E+01 3.71908E-02-1.23697E-02-3.22549E-01 4.68341E-14 1.51528E-14
 -1      1524 1.50508E+01 9.22326E-03-7.20070E-04-2.80457E-01 2.32436E-14 2.37380E-14
 -1      1525 1.46869E+01 2.54263E-02 1.68505E-03-2.61343E-01 1.28209E-14 3.00992E-14
 -1      1526 1.53511E+01 2.51421E-02-1.00362E-02-4.70056E-01 1.08099E-14-5.36030E-15
 -1      1527 1.58032E+01 1.19345E-03 2.40079E-03-3.10062E-01 1.26972E-14 1.90195E-14
 -1      1528 1.53793E+01 1.46138E-02 2.82024E-03-2.99019E-01 9.99775E-15 3.25989E-14
 -1      1529 1.59349E+01 9.94858E-03-6.66619E-03-5.62433E-01 1.72466E-14 1.39732E-14
 -1      1530 1.65885E+01-5.53763E-03 4.83457E-03-3.08235E-01 2.07549E-14-2.24213E-14
 -1      1531 1.61495E+01 3.92384E-03 3.70055E-03-3.05233E-01 1.44272E-14 1.06165E-15
 -1      1532 1.65912E+01-4.73315E-03-3.11499E-03-5.93553E-01 2.70319E-14 5.71062E-14
 -1      1533 1.73363E+01-9.97240E-03 6.13974E-03-2.81859E-01 3.53353E-14-5.91523E-14
 -1      1534 1.69210E+01-4.66238E-03 4.03203E-03-2.85294E-01 3.10578E-14-2.24282E-14
 -1      1535 1.72535E+01-1.60162E-02-1.06968E-04-5.70241E-01 3.73826E-14 1.96544E-14
 -1      1536 1.79979E+01-1.19614E-02 6.32565E-03-2.40585E-01-6.01732E-16-1.65180E-14
 -1      1537 1.76329E+01-1.02000E-02 3.79037E-03-2.48119E-01-1.39745E-14-6.85597E-14
 -1      1538 1.78691E+01-2.25739E-02 1.97607E-03-5.07947E-01-1.85902E-14 1.66048E-14
 -1      1539 1.85482E+01-1.19608E-02 5.69055E-03-1.93734E-01-3.18916E-14 4.64368E-14
 -1      1540 1.82468E+01-1.27335E-02 3.14035E-03-2.03085E-01-3.72697E-14 2.84148E-14
 -1      1541 1.84042E+01-2.46003E-02 3.09376E-03-4.24764E-01-4.81282E-14 1.64964E-14
 -1      1542 1.89826E+01-1.06772E-02 4.62300E-03-1.48381E-01-4.13452E-14 1.20028E-13
 -1      1543 1.87466E+01-1.29244E-02 2.31151E-03-1.57800E-01-3.01434E-14 8.29848E-14
 -1      1544 1.88438E+01-2.32328E-02 3.42807E-03-3.36570E-01-4.58735E-14 8.80240E-14
 -1      1545 1.93103E+01-8.78738E-03 3.45497E-03-1.08780E-01 1.73841E-15 5.82793E-14
 -1      1546 1.91339E+01-1.16383E-02 1.50226E-03-1.17188E-01 3.94103E-14 1.15626E-13
 -1      1547 1.91883E+01-1.98920E-02 3.24310E-03-2.54529E-01 1.61754E-14 8.32768E-14
 -1      1548 1.95480E+01-6.79332E-03 2.40052E-03-7.67061E-02-2.80338E-14 8.50724E-14
 -1      1549 1.94214E+01-9.65368E-03 8.33926E-04-8.36165E-02-3.78209E-14 1.59170E-14
 -1      1550 1.94472E+01-1.58137E-02 2.78540E-03-1.84751E-01-3.59344E-14 5.21718E-14
 -1      1551 1.97142E+01-4.99335E-03 1.55788E-03-5.22035E-02-5.58735E-14 1.58764E-13
 -1      1552 1.96268E+01-7.53018E-03 3.50845E-04-5.75434E-02-2.78423E-14 1.26071E-13
 -1      1553 1.96349E+01-1.18457E-02 2.23717E-03-1.29265E-01-4.88711E-14 1.48738E-13
 -1      1554 1.98269E+01-3.51882E-03 9.42791E-04-3.43530E-02 1.66512E-15 2.61429E-13
 -1      1555 1.97685E+01-5.59637E-03 4.32972E-05-3.82840E-02-4.26867E-14 2.11820E-13
 -1      1556 1.97667E+01-8.44307E-03 1.70969E-03-8.74350E-02-7.45905E-14 2.45651E-13
 -1      1557 1.99008E+01-2.39105E-03 5.26057E-04-2.18567E-02 3.46233E-14 1.93682E-13
 -1      1558 1.98631E+01-3.99833E-03-1.25280E-04-2.46385E-02 2.84174E-14 2.56752E-13
 -1      1559 1.98565E+01-5.76362E-03 1.25740E-03-5.72522E-02 4.51591E-14 2.06437E-13
 -1      1560 1.99478E+01-1.57245E-03 2.62105E-04-1.34061E-02-5.26323E-14 3.02627E-13
 -1      1561 1.99243E+01-2.76362E-03-1.97613E-04-1.53104E-02-4.74728E-14 2.41810E-13
 -1      1562 1.99159E+01-3.78353E-03 8.97077E-04-3.62688E-02-4.92496E-14 2.00333E-13
 -1      1563 1.99767E+01-1.00262E-03 1.05843E-04-7.86691E-03 6.20644E-14 3.50148E-13
 -1      1564 1.99626E+01-1.85633E-03-2.11066E-04-9.13357E-03 3.65418E-14 3.69673E-13
 -1      1565 1.99542E+01-2.39234E-03 6.24426E-04-2.21487E-02-1.37010E-14 3.09201E-13
 -1      1566 1.99936E+01-6.19526E-04 2.02317E-05-4.34233E-03 5.58087E-14 2.12426E-13
 -1      1567 1.99857E+01-1.21527E-03-1.93371E-04-5.16322E-03 8.33241E-14 3.02417E-13
 -1      1568 1.99781E+01-1.45529E-03 4.25819E-04-1.29253E-02 1.16490E-13 2.48352E-13
 -1      1569 2.00030E+01-3.69585E-04-2.19255E-05-2.16682E-03 3.71718E-14 2.25247E-13
 -1      1570 1.99989E+01-7.76419E-04-1.62698E-04-2.68569E-03-1.32071E-14 1.57640E-13
 -1      1571 1.99924E+01-8.46983E-04 2.85277E-04-7.07080E-03 2.66781E-14 1.61369E-13
 -1      1572 2.00077E+01-2.10866E-04-3.90383E-05-8.69498E-04 7.45388E-14 2.19061E-13
 -1      1573 2.00059E+01-4.83748E-04-1.29623E-04-1.18898E-03 5.24154E-14 2.70276E-13
 -1      1574 2.00006E+01-4.65278E-04 1.88031E-04-3.46432E-03 5.07274E-14 2.12381E-13
 -1      1575 2.00096E+01-1.12651E-04-4.27615E-05-1.29399E-04-3.24924E-14 1.69251E-13
 -1      1576 2.00091E+01-2.92857E-04-9.94688E-05-3.20141E-04 3.58041E-14 2.38697E-13
 -1      1577 2.00049E+01-2.33650E-04 1.21921E-04-1.31841E-03 6.41098E-14 1.70736E-13
 -1      1578 2.00098E+01-5.34975E-05-4.00351E-05 2.65718E-04 1.27831E-13-2.23118E-14
 -1      1579 2.00100E+01-1.70776E-04-7.43169E-05 1.56467E-04 7.17391E-14 1.40650E-13
 -1      1580 2.00068E+01-9.80892E-05 7.76076E-05-9.87010E-05 8.59384E-14 1.37454E-13
 -1      1581 2.00092E+01-1.89880E-05-3.47379E-05 4.52719E-04 1.77978E-14-1.39844E-13
 -1      1582 2.00098E+01-9.41468E-05-5.44602E-05 3.94075E-04-6.79162E-15-1.10886E-13
 -1      1583 2.00073E+01-2.21826E-05 4.82553E-05 5.47436E-04 6.92717E-14 1.65171E-13
 -1      1584 2.00082E+01 2.90454E-07-2.88812E-05 5.17991E-04 2.91499E-14-1.17788E-13
 -1      1585 2.00089E+01-4.69841E-05-3.93466E-05 4.90132E-04 5.14174E-14-1.27047E-13
 -1      1586 2.00070E+01 1.77219E-05 2.90224E-05 8.47329E-04 6.03949E-14 7.90284E-14
 -1      1587 2.00070E+01 1.03384E-05-2.34019E-05 5.15035E-04 1.19003E-13-3.91954E-13
 -1      1588 2.00078E+01-1.86409E-05-2.81264E-05 5.05425E-04 6.88484E-14-1.88993E-13
 -1      1589 2.00063E+01 3.65176E-05 1.65627E-05 9.44640E-04 1.17395E-13 4.08574E-14
 -1      1590 2.00058E+01 1.49079E-05-1.86570E-05 4.76388E-04 5.21543E-14-6.20284E-13
 -1      1591 2.00065E+01-2.16749E-06-1.99369E-05 4.77198E-04 8.27887E-14-4.95086E-13
 -1      1592 2.00055E+01 4.33338E-05 8.60275E-06 9.28552E-04 2.05185E-13-1.09336E-13
 -1      1593 2.00047E+01 1.63093E-05-1.47140E-05 4.21459E-04-9.98828E-14-6.74166E-13
 -1      1594 2.00054E+01 6.90467E-06-1.40269E-05 4.27853E-04-2.44969E-14-6.42527E-13
 -1      1595 2.00046E+01 4.36342E-05 3.61586E-06 8.53484E-04 6.04040E-14-3.58244E-13
 -1      1596 2.00038E+01 1.59473E-05-1.15124E-05 3.61540E-04-9.97520E-14-3.47641E-13
 -1      1597 2.00043E+01 1.14191E-05-9.79317E-06 3.70573E-04-1.22494E-13-5.79945E-13
 -1      1598 2.00038E+01 4.06171E-05 5.83571E-07 7.52014E-04-2.07439E-13-2.66761E-13
 -1      1599 2.00029E+01 1.46668E-05-8.94680E-06 3.02968E-04-3.09871E-14-1.08867E-13
 -1      1600 2.00034E+01 1.31734E-05-6.77488E-06 3.12875E-04-2.62867E-14-2.24175E-13
 -1      1601 2.00030E+01 3.61138E-05-1.17139E-06 6.43158E-04-1.01873E-13-2.60700E-13
 -1      1602 2.00023E+01 1.29703E-05-6.90677E-06 2.49072E-04-1.25923E-13-1.42438E-13
 -1      1603 2.00026E+01 1.33002E-05-4.63080E-06 2.58829E-04-5.16968E-14-1.56344E-13
 -1      1604 2.00024E+01 3.11468E-05-2.09932E-06 5.37599E-04-3.04192E-14 3.43880E-14
 -1      1605 2.00017E+01 1.11521E-05-5.29296E-06 2.01379E-04-1.59366E-13 2.50567E-13
 -1      1606 2.00020E+01 1.25111E-05-3.11314E-06 2.10423E-04-2.10514E-13-1.07981E-13
 -1      1607 2.00018E+01 2.62676E-05-2.49993E-06 4.40932E-04-2.53874E-13 1.56947E-13
 -1      1608 2.00012E+01 9.37992E-06-4.02179E-06 1.60348E-04-4.74724E-14 3.51859E-13
 -1      1609 2.00015E+01 1.12521E-05-2.04387E-06 1.68403E-04-2.61524E-14 2.16333E-13
 -1      1610 2.00013E+01 2.17572E-05-2.57301E-06 3.55683E-04-9.41028E-14 7.86458E-14
 -1      1611 2.00009E+01 7.74488E-06-3.02515E-06 1.25825E-04 6.55662E-15 3.17282E-13
 -1      1612 2.00011E+01 9.80068E-06-1.29569E-06 1.32791E-04-3.84319E-14 3.44988E-13
 -1      1613 2.00010E+01 1.77423E-05-2.45157E-06 2.82550E-04-1.20751E-13 1.09747E-15
 -1      1614 2.00006E+01 6.29131E-06-2.24823E-06 9.73139E-05 1.22181E-13 2.24342E-13
 -1      1615 2.00007E+01 8.32674E-06-7.77469E-07 1.03200E-04 4.80543E-14 3.49054E-13
 -1      1616 2.00007E+01 1.42633E-05-2.22385E-06 2.21171E-04 6.63390E-14 5.00642E-14
 -1      1617 2.00003E+01 5.03556E-06-1.64717E-06 7.41513E-05-2.04250E-14 2.53086E-13
 -1      1618 2.00005E+01 6.93154E-06-4.23800E-07 7.90284E-05 3.58758E-14 2.53776E-13
 -1      1619 2.00004E+01 1.13132E-05-1.94781E-06 1.70599E-04 2.53623E-14 3.35417E-13
 -1      1620 2.00002E+01 3.97771E-06-1.18709E-06 5.56061E-05 3.79069E-14 4.04192E-13
 -1      1621 2.00003E+01 5.67271E-06-1.87587E-07 5.95803E-05-8.25012E-14 1.93393E-13
 -1      1622 2.00003E+01 8.86041E-06-1.66099E-06 1.29599E-04-1.33299E-14 3.14095E-13
 -1      1623 2.00000E+01 3.10941E-06-8.41061E-07 4.09396E-05 4.02929E-13-1.91670E-13
 -1      1624 2.00001E+01 4.58131E-06-3.50506E-08 4.41350E-05 2.74577E-13 2.86395E-13
 -1      1625 2.00001E+01 6.86384E-06-1.38736E-06 9.68197E-05 2.42563E-13 1.18075E-14
 -1      1626 2.00000E+01 2.41815E-06-5.90364E-07 2.94354E-05-4.11593E-14-8.05622E-13
 -1      1627 2.00000E+01 3.67278E-06 5.69751E-08 3.19850E-05 2.51569E-13-2.27710E-13
 -1      1628 2.00000E+01 5.28068E-06-1.14273E-06 7.09000E-05 4.76283E-13 6.70608E-14
 -1      1629 1.99999E+01 1.88990E-06-4.25824E-07 2.04159E-05-9.03036E-14-5.52040E-13
 -1      1630 1.99999E+01 2.95426E-06 1.01840E-07 2.24560E-05-2.16463E-13-8.75253E-13
 -1      1631 1.99999E+01 4.07133E-06-9.39202E-07 5.05203E-05-1.94336E-13-4.47351E-13
 -1      1632 1.99998E+01 1.51253E-06-3.47610E-07 1.32373E-05-1.11277E-13-5.65529E-13
 -1      1633 1.99999E+01 2.43292E-06 1.02362E-07 1.49135E-05 3.02492E-15-4.83809E-13
 -1      1634 1.99999E+01 3.20892E-06-7.87512E-07 3.44334E-05-2.84595E-14-4.42704E-13
 -1      1635 1.99998E+01 1.25780E-06-3.33753E-07 7.33098E-06-1.46424E-13-3.08070E-13
 -1      1636 1.99998E+01 2.09380E-06 5.89166E-08 8.78268E-06-5.94397E-14-4.41849E-13
 -1      1637 1.99998E+01 2.64125E-06-6.96751E-07 2.14837E-05-9.03754E-14-3.45997E-13
 -1      1638 1.99998E+01 1.02578E-06-2.29594E-07 2.27975E-06 1.84508E-13-7.11669E-13
 -1      1639 1.99998E+01 1.86915E-06 9.58117E-09 3.64208E-06 1.36248E-14-5.27417E-13
 -1      1640 1.99998E+01 2.31930E-06-6.06093E-07 1.07805E-05 1.23925E-13-5.43835E-13
 -1      1641 1.99998E+01 5.43946E-07 4.81135E-07-1.36728E-06 8.31424E-14-1.14760E-12
 -1      1642 1.99998E+01 1.31829E-06 1.62842E-07-3.01069E-07 1.97899E-13-8.40243E-13
 -1      1643 1.99998E+01 1.70384E-06-3.35341E-07 2.16315E-06 2.82293E-13-7.43884E-13
 -1      1644 1.99998E+01-9.70310E-07 9.04464E-07-1.44484E-06-5.97464E-13-7.17131E-13
 -1      1645 1.99998E+01 5.04551E-07-2.13037E-07 1.28098E-06-7.51316E-13 8.95192E-14
 -1      1646 1.99998E+01 2.25414E-07 3.26398E-07 3.95588E-07-8.87867E-13 6.64779E-14
 -1      1647 1.99998E+01 1.19954E-05-2.55647E-07 6.17904E-06-5.87516E-13 8.41463E-14
 -1      1648 1.99998E+01 5.99453E-06-1.76202E-07 5.04469E-06-8.19200E-13 1.11384E-13
 -1      1649 1.99998E+01 1.00967E-05-3.57173E-07 6.93555E-06-4.90606E-13 1.71918E-13
 -1      1650 1.99998E+01 3.16738E-05-1.72922E-07 1.00360E-05-6.38649E-13-2.66114E-13
 -1      1651 1.99998E+01 2.07793E-05-1.97892E-07 9.34943E-06-5.82580E-13 6.03724E-14
 -1      1652 1.99998E+01 2.46360E-05-4.48958E-07 1.54361E-05-5.33218E-13 1.57431E-13
 -1      1653 1.99998E+01 5.61853E-05-8.25335E-08 1.19013E-05-3.38339E-13 1.52239E-13
 -1      1654 1.99998E+01 4.26845E-05-1.02558E-07 1.17054E-05-4.92961E-13 7.35048E-14
 -1      1655 1.99998E+01 4.47445E-05-1.98131E-07 2.12782E-05-5.35055E-13-1.72506E-14
 -1      1656 1.99998E+01 8.05323E-05-2.49760E-08 1.14181E-05-3.29714E-13 1.43767E-13
 -1      1657 1.99998E+01 6.74068E-05-4.17871E-08 1.16911E-05-2.89607E-13-1.60354E-13
 -1      1658 1.99998E+01 6.72040E-05 6.60038E-08 2.29499E-05-1.88011E-13 5.16432E-14
 -1      1659 1.99998E+01 1.01043E-04 1.09893E-08 8.77874E-06-6.44555E-13-2.18744E-13
 -1      1660 1.99998E+01 9.04519E-05-3.99219E-10 9.45388E-06-3.78030E-13 3.24272E-14
 -1      1661 1.99998E+01 8.84813E-05 3.14086E-07 2.02613E-05-2.97869E-13-9.67825E-14
 -1      1662 1.99998E+01 1.13584E-04 2.67674E-08 4.54582E-06-6.87508E-13-6.13647E-14
 -1      1663 1.99998E+01 1.07741E-04 2.05901E-08 5.47803E-06-6.83200E-13 1.54767E-13
 -1      1664 1.99998E+01 1.05157E-04 4.99915E-07 1.38247E-05-4.21808E-13-7.46805E-14
 -1      1665 1.99998E+01 1.15986E-04 2.96939E-08-4.86553E-07-5.01493E-13 1.29991E-13
 -1      1666 1.99998E+01 1.15950E-04 2.86132E-08 5.34267E-07-6.09358E-13-1.39814E-13
 -1      1667 1.99998E+01 1.14245E-04 5.97965E-07 4.92175E-06-3.63489E-13-4.09544E-14
 -1      1668 1.99998E+01 1.07859E-04 2.09393E-08-5.42640E-06-5.32297E-13-7.10924E-14
 -1      1669 1.99998E+01 1.13629E-04 2.59800E-08-4.49598E-06-6.83553E-13 3.13516E-13
 -1      1670 1.99998E+01 1.14247E-04 5.97022E-07-4.83576E-06-5.20316E-13 2.49997E-13
 -1      1671 1.99998E+01 9.06588E-05-1.83472E-09-9.39631E-06-1.23481E-12-6.01285E-13
 -1      1672 1.99998E+01 1.01179E-04 1.29654E-08-8.72538E-06-5.64565E-13-5.88325E-13
 -1      1673 1.99998E+01 1.05174E-04 4.96657E-07-1.37311E-05-8.21905E-13-5.38110E-13
 -1      1674 1.99998E+01 6.79057E-05-3.86196E-08-1.16294E-05-9.93826E-13 3.14327E-13
 -1      1675 1.99998E+01 8.09661E-05-2.16048E-08-1.13510E-05-1.03290E-12-7.78607E-14
 -1      1676 1.99998E+01 8.87075E-05 3.17654E-07-2.01370E-05-4.00630E-13-2.85842E-13
 -1      1677 1.99998E+01 4.30179E-05-1.06544E-07-1.16914E-05-5.33360E-13 2.37826E-13
 -1      1678 1.99998E+01 5.65079E-05-8.33874E-08-1.18799E-05-8.50158E-13 2.39762E-13
 -1      1679 1.99998E+01 6.74983E-05 6.88162E-08-2.28772E-05-2.87637E-13 3.90278E-13
 -1      1680 1.99998E+01 2.11036E-05-1.82402E-07-9.38885E-06-1.78584E-13 1.92946E-13
 -1      1681 1.99998E+01 3.20131E-05-1.82869E-07-1.00614E-05-5.15019E-13 2.22039E-13
 -1      1682 1.99998E+01 4.48801E-05-2.06958E-07-2.12835E-05-2.32195E-14 4.32786E-13
 -1      1683 1.99998E+01 6.16645E-06-1.55943E-07-5.10083E-06-1.97981E-13-5.56236E-15
 -1      1684 1.99998E+01 1.22484E-05-2.77397E-07-6.17539E-06-1.82075E-13 2.34921E-13
 -1      1685 1.99998E+01 2.47705E-05-4.19762E-07-1.54431E-05-3.44470E-13 1.99353E-13
 -1      1686 1.99998E+01-1.00732E-07 2.23158E-07-5.41566E-07-2.31486E-13-1.22167E-13
 -1      1687 1.99998E+01 4.79786E-07-2.37968E-07-1.33285E-06 1.21766E-13-3.82886E-13
 -1      1688 1.99998E+01 1.01276E-05-4.24974E-07-7.03411E-06-3.22484E-13-1.26776E-13
 -1      1689 1.99998E+01 1.98509E-06-8.68274E-08 6.42845E-08 4.35533E-13-5.81780E-14
 -1      1690-2.76791E-01-1.45018E+01-1.52393E+00 3.06115E-01 5.61107E-13 3.07143E-13
 -1      1691-5.68922E-01-1.86604E+01-1.89813E+00 1.60193E+00 1.20681E-13 2.88991E-13
 -1      1692 2.36125E+00-5.92711E+00-1.00917E+00 2.15364E+00 8.34888E-13 3.99902E-13
 -1      1693 1.19537E+00-1.22440E+01-1.63251E+00 1.04902E+00 6.46816E-13 3.26461E-13
 -1      1694 9.79474E+00 2.44048E+00-2.88244E-01 7.38297E+00 8.64420E-13 6.02185E-13
 -1      1695 5.90366E+00-3.44633E+00-1.06678E+00 3.95855E+00 8.57980E-13 4.36096E-13
 -1      1696 2.08198E+01 8.09508E+00 4.06026E-01 1.27446E+01 8.33889E-13 7.83373E-13
 -1      1697 1.37036E+01 4.96800E+00-4.41431E-01 8.80618E+00 8.97726E-13 7.15428E-13
 -1      1698 3.65423E+01 8.46614E+00 1.06595E+00 1.52315E+01 5.32463E-13 7.61613E-13
 -1      1699 2.68671E+01 8.47119E+00 2.73937E-01 1.32468E+01 7.23532E-13 7.38076E-13
 -1      1700 5.14970E+01 6.72325E+00 1.63955E+00 1.31975E+01 3.57214E-13 5.62772E-13
 -1      1701 4.20776E+01 8.71453E+00 9.87554E-01 1.48778E+01 4.92717E-13 7.49401E-13
 -1      1702 6.11491E+01 4.43189E+00 1.87654E+00 6.20944E+00 1.86129E-13 3.08864E-13
 -1      1703 5.57848E+01 6.22529E+00 1.59398E+00 1.13696E+01 2.70048E-13 4.96936E-13
 -1      1704 6.10610E+01 4.53519E+00 1.71456E+00-3.69653E+00 1.41609E-13-2.72005E-14
 -1      1705 6.16743E+01 4.43373E+00 1.78122E+00 2.81947E+00 1.48326E-13 1.84117E-13
 -1      1706 5.37088E+01 6.44667E+00 1.39599E+00-1.18027E+01 1.64924E-13-2.49800E-13
 -1      1707 6.00110E+01 4.57687E+00 1.80523E+00-7.08025E+00 1.20681E-13-1.54321E-13
 -1      1708 3.95567E+01 8.60126E+00 7.45558E-01-1.43650E+01 3.32956E-13-3.56382E-13
 -1      1709 4.90031E+01 6.82229E+00 1.40822E+00-1.32067E+01 2.12719E-13-2.69784E-13
 -1      1710 2.44506E+01 8.67283E+00 7.80398E-02-1.29189E+01 5.49893E-13-4.69402E-13
 -1      1711 3.38614E+01 8.82330E+00 8.60449E-01-1.51950E+01 4.02900E-13-4.02789E-13
 -1      1712 1.21463E+01 4.40858E+00-5.69901E-01-8.07306E+00 6.78346E-13-4.74065E-13
 -1      1713 1.88735E+01 7.82446E+00 2.29957E-01-1.20285E+01 5.90084E-13-5.37459E-13
 -1      1714 4.50311E+00-2.99473E+00-1.12075E+00-3.42831E+00 7.00551E-13-3.59490E-13
 -1      1715 7.64759E+00 2.66177E+00-4.22578E-01-6.43113E+00 7.14984E-13-4.77174E-13
 -1      1716 9.63329E-01-1.15957E+01-1.55554E+00-1.30762E+00 5.59774E-13-2.09412E-13
 -1      1717 1.94575E+00-5.55858E+00-9.87255E-01-2.08763E+00 6.87894E-13-3.23130E-13
 -1      1718-6.95369E-01-1.75145E+01-1.85308E+00-2.12632E+00 2.47469E-13-1.26871E-13
 -1      1719-3.73327E-01-1.37572E+01-1.47923E+00-7.06900E-01 4.77396E-13-1.86989E-13
 -1      1720-1.72417E+00-1.80331E+01-2.00408E+00-3.79059E+00-7.68934E-14-1.49047E-13
 -1      1721-1.17046E+00-1.79449E+01-1.83004E+00-1.92576E+00 1.53155E-13-1.27121E-13
 -1      1722-1.61274E+00-1.42801E+01-2.17410E+00-4.00227E+00-3.79363E-13-3.04451E-13
 -1      1723-1.28900E+00-1.79009E+01-2.23831E+00-3.37408E+00-1.57430E-13-1.90875E-13
 -1      1724 2.57648E+00-7.18644E+00-2.00924E+00-7.60051E-01-6.19504E-13-6.31717E-13
 -1      1725 5.50279E-01-1.27464E+01-2.46144E+00-2.81307E+00-4.52194E-13-3.96544E-13
 -1      1726 1.43162E+01-5.97724E-01-1.22696E+00 5.20726E+00-7.42295E-13-1.02940E-12
 -1      1727 7.36539E+00-5.82100E+00-2.31062E+00 8.25418E-01-6.40155E-13-7.16538E-13
 -1      1728 3.49772E+01 2.65534E+00 5.41608E-01 9.88583E+00-6.67244E-13-9.64118E-13
 -1      1729 2.15078E+01-1.86891E-02-1.45109E+00 5.60925E+00-7.61169E-13-9.45688E-13
 -1      1730 6.01099E+01 3.18936E+00 3.27888E+00 9.68707E+00-4.07951E-13-4.52971E-13
 -1      1731 4.30206E+01 3.40161E+00 7.61795E-01 9.00370E+00-6.07625E-13-7.73159E-13
 -1      1732 7.81865E+01 3.16345E+00 5.59321E+00 4.07190E+00-2.75946E-13 2.87548E-13
 -1      1733 6.61382E+01 4.49602E+00 3.82076E+00 8.32528E+00-4.70207E-13-2.47358E-13
 -1      1734 8.24057E+01 4.15147E+00 6.37976E+00-4.51760E+00-2.38920E-13 8.63642E-13
 -1      1735 8.29979E+01 4.23401E+00 6.51315E+00 3.86598E+00-1.41664E-13 4.49862E-13
 -1      1736 6.52216E+01 6.81069E+00 3.94129E+00-8.80750E-01-4.11227E-13 4.97824E-13
 -1      1737 6.27425E+01 4.59449E+00 3.33585E+00-8.87237E+00-5.78815E-13 1.36691E-12
 -1      1738 7.70620E+01 3.53150E+00 5.62473E+00-5.14440E+00-4.24660E-13 1.07359E-12
 -1      1739 3.96420E+01 2.55288E+00 3.73049E-01-7.76476E+00-7.58171E-13 1.30473E-12
 -1      1740 5.58796E+01 2.60189E+00 2.60723E+00-9.14679E+00-5.60052E-13 1.34071E-12
 -1      1741 1.93324E+01-5.63346E-01-1.46523E+00-5.22199E+00-1.02807E-12 1.24634E-12
 -1      1742 3.07715E+01 2.26820E+00 4.20161E-02-9.37141E+00-8.92175E-13 1.34159E-12
 -1      1743 6.75633E+00-7.08962E+00-2.13823E+00-3.19639E-01-9.47908E-13 9.22595E-13
 -1      1744 1.28861E+01-1.88227E+00-1.32509E+00-4.27562E+00-9.65006E-13 1.17084E-12
 -1      1745 4.36474E-01-1.37159E+01-2.20275E+00 2.67255E+00-1.08191E-12 4.58383E-13
 -1      1746 1.76216E+00-8.39494E+00-1.88570E+00 1.19832E+00-1.00786E-12 6.72074E-13
 -1      1747-1.01283E+00-1.78929E+01-1.92064E+00 2.58287E+00-5.55750E-13 4.81060E-13
 -1      1748-1.26986E+00-1.46352E+01-1.85197E+00 3.34342E+00-9.26259E-13 5.82562E-13
 -1      1749-1.14843E+00-1.91355E+01-1.82717E+00 1.39975E+00-3.39173E-14 2.78888E-13
 -1      1750-1.66815E+00-1.92205E+01-1.92719E+00 3.47991E+00-4.41158E-13 3.33400E-13
 -1      1751 3.56258E+01-2.42471E+00 2.37953E-01 2.06604E+00 2.70117E-13 6.61203E-13
 -1      1752 4.34788E+01-1.34255E+00 7.07639E-01-3.56897E-01 1.36030E-13 1.26399E-12
 -1      1753 4.17691E+01-1.42885E+00 3.37293E-01-1.23591E+00 7.49401E-14 1.40221E-12
 -1      1754 4.10682E+01-2.79554E+00 2.78497E-01-3.71424E+00 8.59937E-14 9.78884E-13
 -1      1755-1.94751E+00-1.27674E+01-1.37022E+00 2.66478E+00 1.17961E-13 4.89664E-13
 -1      1756 1.72899E+01-7.69772E-01-1.76685E-01 8.84023E+00 5.20473E-13 4.94660E-13
 -1      1757 1.99998E+01-1.18044E-06 3.05190E-07-1.79402E-06-7.02604E-13-3.49671E-13
 -1      1758 1.99998E+01 3.65201E-06 2.52906E-07 3.77585E-07-1.75036E-13-2.76822E-13
 -1      1759 1.29507E+00-1.01491E+01-1.13523E+00 4.44168E+00 3.37064E-13 4.07674E-13
 -1      1760 8.12477E+00-5.45047E+00-6.33403E-01 6.91340E+00 4.67404E-13 3.66485E-13
 -1      1761 2.84255E+01 3.42306E+00 4.36893E-01 9.86679E+00 5.45120E-13 4.39093E-13
 -1      1762 3.94713E+01 6.09760E+00 9.14727E-01 8.83568E+00 3.78864E-13 2.92433E-13
 -1      1763 4.87666E+01 7.92470E+00 1.39715E+00 6.71149E+00 3.77531E-13 2.70006E-13
 -1      1764 5.31458E+01 8.74291E+00 1.58020E+00 2.44226E+00 2.69396E-13 1.48437E-13
 -1      1765 5.27017E+01 8.62964E+00 1.54196E+00-2.61660E+00 2.33424E-13-2.34812E-14
 -1      1766 4.72020E+01 7.64358E+00 1.23273E+00-6.51471E+00 2.41918E-13-1.50990E-13
 -1      1767 3.77401E+01 6.04235E+00 7.96090E-01-9.04056E+00 3.13971E-13-1.28231E-13
 -1      1768 2.63809E+01 3.55995E+00 2.92564E-01-9.87418E+00 3.45390E-13-1.95621E-13
 -1      1769 1.52700E+01 2.32345E-02-2.15610E-01-8.66601E+00 3.72702E-13-2.89713E-13
 -1      1770 6.46726E+00-4.52401E+00-6.96105E-01-6.41680E+00 3.44613E-13-2.61458E-13
 -1      1771 7.72742E-01-9.00826E+00-1.09258E+00-4.44895E+00 2.41029E-13-2.55823E-13
 -1      1772-2.02267E+00-1.14634E+01-1.33485E+00-2.82749E+00 8.80407E-14-2.55351E-13
 -1      1773-1.73459E+00-1.19547E+01-1.52770E+00-1.22974E+00-7.23310E-14-2.81997E-13
 -1      1774 2.38129E+00-1.06637E+01-1.65905E+00 8.98210E-01-1.78635E-13-3.97737E-13
 -1      1775 1.19381E+01-7.96253E+00-1.39380E+00 3.19240E+00-2.37477E-13-5.70877E-13
 -1      1776 2.67388E+01-5.24613E+00-6.38385E-01 3.71491E+00-2.55684E-13-4.94604E-13
 -1      1777 4.36826E+01-1.95817E+00 7.49447E-01 1.75157E+00-4.11726E-13-1.35669E-13
 -1      1778 5.71324E+01 2.81562E+00 2.49433E+00-9.10832E-01-4.98490E-13 2.97540E-13
 -1      1779 5.42885E+01 1.80150E+00 1.88971E+00 1.44548E+00-4.58744E-13 8.13349E-13
 -1      1780 4.10265E+01-2.45469E+00 5.57640E-01-1.89380E+00-5.71154E-13 8.48432E-13
 -1      1781 2.41636E+01-5.68015E+00-8.24492E-01-3.99379E+00-5.85754E-13 8.79297E-13
 -1      1782 1.07532E+01-8.42930E+00-1.33405E+00-3.27165E+00-5.75762E-13 6.43596E-13
 -1      1783 2.07559E+00-1.05718E+01-1.41070E+00-1.37667E+00-4.73510E-13 3.94351E-13
 -1      1784-1.65516E+00-1.21776E+01-1.33956E+00 6.21230E-01-1.90514E-13 5.85421E-13
 -1      1785 2.77273E+01 2.14726E+00-1.19766E-02-9.49987E-01-2.47545E-14 6.32910E-13
 -1      1786 6.51658E+01 6.28576E+00 3.79480E+00 1.07312E+00-4.88942E-13 7.24754E-13
 -1      1787 1.40601E+01 6.00525E+00-2.60120E-02-1.58165E+00-1.65140E-13 3.20820E-14
 -1      1788 1.57236E+01 5.79788E+00 7.45965E-03-1.04610E+00-1.48274E-13 9.28597E-14
 -1      1789 1.81636E+01 4.87723E+00-7.89544E-02-1.74058E-01-1.01790E-13 1.62037E-13
 -1      1790 2.11604E+01 4.21832E+00 6.29372E-03-7.67586E-03-7.08530E-14 2.60542E-13
 -1      1791 1.66474E+01 5.21780E+00 6.86342E-02 9.91384E-03-1.15297E-13 1.12077E-13
 -1      1792 1.51953E+01 4.90865E+00 6.06240E-02-4.14741E+00-2.19186E-13-3.97659E-14
 -1      1793 1.39987E+01 5.18326E+00-5.16674E-02-3.96156E+00-2.17925E-13-2.83957E-14
 -1      1794 1.81379E+01 3.82716E+00 4.41216E-02-3.89938E+00-1.99788E-13-2.31421E-14
 -1      1795 1.66233E+01 4.06600E+00-4.79414E-02-4.14018E+00-2.13725E-13-2.56479E-14
 -1      1796 1.59163E+01 3.97077E+00-1.59789E-02-4.66559E+00-2.47215E-13-2.59862E-14
 -1      1797 2.06779E+01 3.19153E+00 1.18986E-02-2.82066E+00-1.58797E-13-1.08386E-14
 -1      1798 1.95010E+01 3.29704E+00-2.63392E-02-3.34096E+00-1.76744E-13-5.50254E-15
 -1      1799 1.91438E+01 2.77616E+00-4.40724E-02-3.93890E+00-2.06130E-13 6.51909E-15
 -1      1800 2.21890E+01 3.08946E+00-1.69633E-02-1.45142E+00-1.11053E-13-2.50841E-14
 -1      1801 2.15646E+01 3.06689E+00-1.16185E-02-2.05420E+00-1.32928E-13-1.93769E-14
 -1      1802 2.16287E+01 2.27262E+00-3.56955E-02-2.50303E+00-1.62693E-13 2.41820E-15
 -1      1803 2.26928E+01 3.30976E+00-3.38339E-02-1.63305E-01-7.35380E-14-3.29146E-14
 -1      1804 2.25546E+01 3.22365E+00-9.63784E-03-7.28044E-01-8.97147E-14-2.73843E-14
 -1      1805 2.29077E+01 2.35720E+00-2.26862E-02-9.92280E-01-1.10468E-13-1.12792E-14
 -1      1806 2.24659E+01 3.61432E+00-3.85820E-02 9.01657E-01-3.69765E-14-4.50542E-14
 -1      1807 2.26564E+01 3.52901E+00-1.33850E-02 4.20988E-01-5.13190E-14-3.88266E-14
 -1      1808 2.31578E+01 2.71653E+00-1.19605E-02 2.76531E-01-7.13602E-14-1.64729E-14
 -1      1809 2.18221E+01 3.84112E+00-3.70092E-02 1.73140E+00 3.42608E-16-4.38954E-14
 -1      1810 2.21855E+01 3.79674E+00-1.76830E-02 1.33968E+00-1.91327E-14-4.27887E-14
 -1      1811 2.27337E+01 3.08481E+00-6.52494E-03 1.23662E+00-3.09553E-14-3.01321E-14
 -1      1812 2.09745E+01 3.92691E+00-3.48754E-02 2.40759E+00 4.15145E-14-2.48759E-14
 -1      1813 2.14144E+01 3.93741E+00-2.09099E-02 2.07245E+00 1.66828E-14-3.23422E-14
 -1      1814 2.19546E+01 3.31962E+00-4.95511E-03 1.95866E+00 1.77644E-14-1.97967E-14
 -1      1815 2.01199E+01 3.83699E+00-3.73629E-02 2.96962E+00 8.23812E-14 1.23165E-15
 -1      1816 2.05400E+01 3.91057E+00-2.54643E-02 2.67381E+00 5.96910E-14-1.31770E-14
 -1      1817 2.10444E+01 3.36128E+00-5.03148E-03 2.52082E+00 5.71745E-14-8.36137E-16
 -1      1818 1.94528E+01 3.51035E+00-5.33136E-02 3.44545E+00 1.18073E-13 5.21944E-14
 -1      1819 1.97525E+01 3.67894E+00-3.44897E-02 3.16769E+00 9.35658E-14 1.66603E-14
 -1      1820 2.01936E+01 3.16865E+00-3.82834E-03 2.95428E+00 1.00998E-13 2.16285E-14
 -1      1821 1.93312E+01 2.70871E+00-6.97608E-02 3.69309E+00 1.35379E-13 1.95947E-13
 -1      1822 1.92810E+01 3.13938E+00-4.66769E-02 3.52412E+00 1.23057E-13 1.14159E-13
 -1      1823 1.95798E+01 2.63876E+00-8.64949E-04 3.19988E+00 1.23896E-13 9.66623E-14
 -1      1824 1.96071E+01 1.27252E+00-1.27085E-01 2.98906E+00 1.11758E-13 3.41532E-13
 -1      1825 1.94215E+01 2.32958E+00 5.28881E-03 3.50344E+00 1.18456E-13 2.47385E-13
 -1      1826 1.92016E+01 1.74958E+00-1.90621E-02 2.98432E+00 1.33553E-13 2.00669E-13
 -1      1827 1.86072E+01 8.24987E-01-7.04764E-02 2.17544E+00 1.18842E-13 3.13184E-13
 -1      1828 2.51504E+01 2.79728E+00-4.20828E-03-2.36019E-01-4.23836E-14 4.17277E-13
 -1      1829 1.73512E+01 3.29080E-01-9.32151E-03 1.26512E+00 1.08906E-13 2.81069E-13
 -1      1830 1.81380E+01 4.73070E-01-1.67771E-02 1.65152E+00 1.12126E-13 3.11629E-13
 -1      1831 1.85468E+01 9.04772E-01 9.45045E-03 2.15259E+00 1.15144E-13 2.46745E-13
 -1      1832 3.74263E+01-4.43782E+00 1.47905E-01 9.76422E-01 9.65894E-15 3.67817E-13
 -1      1833 3.92832E+01-3.42316E+00-2.50924E-01-2.22783E+00-1.93179E-13 4.82614E-13
 -1      1834 2.35902E+01 1.85953E+00 6.31802E-02 4.05215E+00 4.96131E-14 3.07988E-13
 -1      1835 2.46615E+01 1.29101E+00 1.66322E-01 4.84830E+00 1.03563E-13 2.97198E-13
 -1      1836 2.42568E+01 3.09682E-01 2.02172E-01 5.65557E+00 1.68823E-13 2.58259E-13
 -1      1837 2.56914E+01-1.27091E+00 2.08953E-01 5.36805E+00 1.99785E-13 2.57058E-13
 -1      1838 1.87568E+01 1.25713E+00 1.34577E-01 5.50992E+00 1.02765E-13 9.73249E-14
 -1      1839 5.12512E+01 2.41956E+00 9.31206E-01-4.03794E+00-4.51972E-13 7.37854E-13
 -1      1840 5.16567E+01 4.85649E+00 1.10057E+00-1.43376E+00-3.71037E-13 5.68268E-13
 -1      1841 5.20701E+01 4.87100E+00 1.21056E+00 1.10042E+00-4.61853E-13 6.49369E-13
 -1      1842 5.18140E+01 2.47604E+00 1.11757E+00 4.24837E+00-4.39093E-13 4.73177E-13
 -1      1843 3.48944E+01-3.25848E+00 2.28698E-01-1.87489E+00 9.18154E-14 7.15469E-14
 -1      1844 3.30400E+01-2.03130E+00 3.31354E-01-3.90270E+00 1.58928E-13 7.31568E-14
 -1      1845 3.12789E+01-8.35700E-01 1.89195E-01-4.77229E+00 1.34059E-13 8.55878E-14
 -1      1846 2.91211E+01 1.72498E-01 1.72453E-01-5.13779E+00 1.23290E-13 1.30583E-13
 -1      1847 2.64875E+01-2.14009E+00 1.16521E-01-5.70102E+00 1.63064E-13 6.11178E-14
 -1      1848 2.81958E+01 4.96556E-01 7.19714E-02-4.71719E+00 1.72563E-13 1.54994E-13
 -1      1849 2.60748E+01 8.17525E-01 1.21511E-02-4.24639E+00 1.38445E-13 2.24577E-13
 -1      1850 2.43799E+01 4.40096E-01 9.07574E-02-5.99853E+00 1.45078E-13 1.24810E-13
 -1      1851 2.55414E+01 7.39783E-01 2.72855E-02-3.47481E+00 1.54245E-13 3.04159E-13
 -1      1852 2.39036E+01 7.18298E-01-2.94045E-02-2.89655E+00 1.42143E-14 4.00523E-13
 -1      1853 2.31142E+01 1.18656E+00 3.49860E-02-4.68994E+00 2.00774E-13 1.83497E-13
 -1      1854 2.35156E+01 5.88032E-01 2.33350E-02-2.24205E+00 2.38941E-14 4.22527E-13
 -1      1855 2.24060E+01 4.88878E-01-2.01282E-02-1.80069E+00 2.73601E-14 4.97330E-13
 -1      1856 2.21692E+01 1.03814E+00 1.22507E-02-3.16840E+00 6.47520E-14 3.68164E-13
 -1      1857 2.21147E+01 3.89279E-01 2.36227E-02-1.34861E+00-1.03601E-13 5.85784E-13
 -1      1858 2.14193E+01 3.00402E-01-8.39319E-03-1.06162E+00-1.01981E-13 4.37148E-13
 -1      1859 2.14277E+01 7.06091E-01 4.50969E-03-1.97732E+00-1.15498E-14 4.31731E-13
 -1      1860 2.12139E+01 2.37776E-01 1.99287E-02-7.76518E-01-1.01745E-13 3.14311E-13
 -1      1861 2.08004E+01 1.75673E-01-2.10556E-03-6.02981E-01-1.57856E-13 2.91847E-13
 -1      1862 2.08848E+01 4.34561E-01 1.97571E-03-1.17335E+00-1.98338E-13 3.13979E-13
 -1      1863 2.06654E+01 1.39138E-01 1.45150E-02-4.31976E-01-1.30743E-13 2.41215E-13
 -1      1864 2.04290E+01 9.96335E-02 2.14972E-04-3.31215E-01-1.11818E-13 1.73346E-13
 -1      1865 2.05174E+01 2.54188E-01 8.95061E-04-6.70401E-01-1.90354E-13 1.96706E-13
 -1      1866 2.03457E+01 7.91028E-02 9.57302E-03-2.31996E-01-1.14561E-14 2.30447E-13
 -1      1867 2.02155E+01 5.51124E-02 7.54214E-04-1.75120E-01 1.23707E-14 3.14408E-13
 -1      1868 2.02845E+01 1.44064E-01 2.84381E-04-3.69727E-01-8.34142E-14 2.61899E-13
 -1      1869 2.01672E+01 4.38210E-02 5.91815E-03-1.19139E-01 8.87203E-14 3.69085E-13
 -1      1870 2.00985E+01 2.96472E-02 6.94708E-04-8.78829E-02 1.48385E-13 4.86649E-13
 -1      1871 2.01452E+01 7.95601E-02-1.86136E-05-1.95719E-01 7.35688E-14 4.73408E-13
 -1      1872 2.00721E+01 2.35453E-02 3.49704E-03-5.72356E-02-7.07854E-15 3.40686E-13
 -1      1873 2.00380E+01 1.53436E-02 5.01609E-04-4.06141E-02-7.29028E-14 2.12357E-13
 -1      1874 2.00666E+01 4.26943E-02-1.16972E-04-9.79441E-02-2.60961E-14 4.54765E-13
 -1      1875 2.00248E+01 1.21425E-02 1.99699E-03-2.44942E-02-1.27571E-13 1.38632E-13
 -1      1876 2.00093E+01 7.43070E-03 2.87654E-04-1.60415E-02-2.27071E-13 1.33408E-13
 -1      1877 2.00252E+01 2.20163E-02-1.15613E-04-4.48270E-02-1.73455E-13 2.58441E-13
 -1      1878 2.00034E+01 5.70882E-03 1.08527E-03-7.73793E-03-1.41693E-13 3.31878E-13
 -1      1879 1.99975E+01 3.06585E-03 1.68374E-04-3.69180E-03 1.40467E-13 3.37417E-13
 -1      1880 2.00052E+01 1.06907E-02-8.95863E-06-1.69018E-02-9.38580E-14 4.13478E-13
 -1      1881 1.99959E+01 2.37883E-03 5.56502E-04-2.83202E-04 1.69058E-13 2.03355E-13
 -1      1882 1.99948E+01 1.06478E-03 1.06453E-04 1.23241E-03 1.34611E-13 2.48836E-13
 -1      1883 1.99974E+01 4.43294E-03-3.61504E-05-3.47870E-03 1.02880E-13 3.91617E-13
 -1      1884 1.99950E+01 7.19806E-04 2.63011E-04 2.45134E-03 7.56693E-14 2.65810E-13
 -1      1885 1.99958E+01 8.74754E-05 5.46264E-05 2.83374E-03 1.63369E-13 3.72749E-13
 -1      1886 1.99957E+01 1.48498E-03-6.25354E-06 1.94326E-03 1.51352E-13 2.53735E-13
 -1      1887 1.99966E+01-4.27333E-05 1.09085E-04 2.98720E-03 1.98751E-13 3.95694E-13
 -1      1888 1.99979E+01-3.11813E-04 2.35731E-05 2.86275E-03 6.29337E-14 3.56443E-13
 -1      1889 1.99966E+01 9.38430E-05 1.07019E-05 3.58731E-03 1.77336E-13 1.13821E-13
 -1      1890 1.99988E+01-3.37593E-04 3.11662E-05 2.56862E-03-1.47643E-13 3.36493E-13
 -1      1891 2.00001E+01-4.17781E-04 6.54184E-06 2.26322E-03-2.06925E-13 1.66983E-13
 -1      1892 1.99984E+01-4.66540E-04 1.81780E-05 3.47351E-03-7.69907E-14 7.49906E-14
 -1      1893 2.00008E+01-3.99553E-04-4.72483E-06 1.83918E-03-1.09855E-13 1.31066E-13
 -1      1894 2.00018E+01-3.88858E-04-1.94789E-06 1.51243E-03-2.81685E-13 2.15842E-14
 -1      1895 2.00002E+01-6.09171E-04 1.97001E-05 2.67778E-03-1.93725E-13 4.47086E-14
 -1      1896 2.00023E+01-3.56872E-04-1.81858E-05 1.10799E-03-3.77276E-13 1.52492E-13
 -1      1897 2.00029E+01-3.08969E-04-5.43690E-06 8.28539E-04-1.57127E-13 2.11675E-13
 -1      1898 2.00015E+01-5.61245E-04 1.79047E-05 1.74082E-03-2.08508E-13 1.04766E-13
 -1      1899 2.00032E+01-2.77250E-04-2.04270E-05 5.02604E-04 6.33811E-14 2.61633E-13
 -1      1900 2.00035E+01-2.20083E-04-6.18709E-06 2.91835E-04 2.08801E-13 1.92203E-13
 -1      1901 2.00024E+01-4.42646E-04 1.46319E-05 9.06701E-04-8.89994E-14 2.85205E-13
 -1      1902 2.00036E+01-1.94162E-04-1.76863E-05 5.71861E-05 1.06371E-13 1.64058E-13
 -1      1903 2.00037E+01-1.41055E-04-5.58708E-06-8.63391E-05 5.43765E-14 2.39390E-13
 -1      1904 2.00029E+01-3.12941E-04 1.10144E-05 2.61672E-04 1.45804E-13 3.79845E-13
 -1      1905 2.00037E+01-1.22241E-04-1.32820E-05-2.38197E-04-2.99023E-14 1.83033E-13
 -1      1906 2.00036E+01-7.84835E-05-4.44797E-06-3.25371E-04-1.91891E-14 1.05288E-13
 -1      1907 2.00030E+01-1.98601E-04 7.66780E-06-1.86490E-04-2.90153E-14 2.59542E-13
 -1      1908 2.00035E+01-6.61798E-05-8.85397E-06-4.10826E-04-6.11835E-14 9.45248E-14
 -1      1909 2.00032E+01-3.28690E-05-3.21285E-06-4.55063E-04-6.41995E-14 8.07600E-14
 -1      1910 2.00029E+01-1.08637E-04 4.86987E-06-4.64482E-04-6.77963E-14 3.60582E-15
 -1      1911 2.00031E+01-2.57838E-05-5.10631E-06-4.91615E-04 2.73041E-14-5.28436E-14
 -1      1912 2.00028E+01-2.02892E-06-2.10029E-06-5.05537E-04-3.06479E-15 9.71733E-14
 -1      1913 2.00027E+01-4.34414E-05 2.69541E-06-6.10089E-04-4.60539E-14 1.08167E-13
 -1      1914 2.00027E+01 1.22437E-06-2.24910E-06-5.08714E-04-7.47172E-14 1.74175E-13
 -1      1915 2.00024E+01 1.71231E-05-1.17727E-06-5.02834E-04 1.50232E-14 2.01413E-13
 -1      1916 2.00024E+01 3.42391E-07 1.11157E-06-6.60627E-04 3.98697E-14 8.02135E-14
 -1      1917 2.00022E+01 1.76097E-05-2.86498E-07-4.85025E-04-1.73301E-13 1.94033E-13
 -1      1918 2.00020E+01 2.77892E-05-4.95717E-07-4.67577E-04-2.42494E-13 1.45550E-13
 -1      1919 2.00020E+01 2.73227E-05 3.27837E-08-6.48009E-04-3.48908E-14 2.29018E-13
 -1      1920 2.00018E+01 2.62930E-05 9.01441E-07-4.36424E-04-1.36471E-13 9.40930E-14
 -1      1921 2.00015E+01 3.23519E-05 8.63449E-09-4.11804E-04 3.46265E-14 6.21608E-14
 -1      1922 2.00016E+01 4.16835E-05-5.68477E-07-5.95639E-04-3.13834E-13 2.75386E-13
 -1      1923 2.00014E+01 3.00887E-05 1.79564E-06-3.77270E-04 1.67022E-13-1.26485E-13
 -1      1924 2.00012E+01 3.22464E-05 2.83933E-07-3.51825E-04 1.60874E-13-1.34390E-13
 -1      1925 2.00013E+01 4.76110E-05-1.08571E-06-5.22670E-04-3.73459E-15-2.93644E-14
 -1      1926 2.00010E+01 2.99541E-05 2.11149E-06-3.16885E-04 3.45562E-13-3.05081E-13
 -1      1927 2.00009E+01 3.01359E-05 4.43427E-07-2.92135E-04 3.72770E-13-5.65528E-14
 -1      1928 2.00010E+01 4.75088E-05-1.23290E-06-4.44647E-04 1.04146E-13-3.37938E-13
 -1      1929 2.00007E+01 2.78095E-05 2.16642E-06-2.59327E-04 3.32878E-13 6.42694E-14
 -1      1930 2.00006E+01 2.67933E-05 5.26008E-07-2.36720E-04 1.72603E-13 1.90139E-13
 -1      1931 2.00007E+01 4.41505E-05-1.25628E-06-3.67958E-04 3.74883E-13-2.71607E-13
 -1      1932 2.00005E+01 2.46010E-05 2.05226E-06-2.07431E-04 1.46937E-13 3.33777E-13
 -1      1933 2.00004E+01 2.29538E-05 5.44907E-07-1.87656E-04-1.34172E-13 3.81627E-13
 -1      1934 2.00005E+01 3.90855E-05-1.18878E-06-2.97324E-04 2.88727E-13-1.90626E-13
 -1      1935 2.00003E+01 2.10058E-05 1.84638E-06-1.62463E-04-1.93841E-13 3.88978E-13
 -1      1936 2.00002E+01 1.91083E-05 5.25388E-07-1.45724E-04-4.41698E-13 2.68980E-13
 -1      1937 2.00003E+01 3.33771E-05-1.07204E-06-2.35123E-04-1.92138E-13-4.24191E-15
 -1      1938 2.00002E+01 1.74527E-05 1.59974E-06-1.24666E-04-3.11831E-13 3.35002E-13
 -1      1939 2.00001E+01 1.55554E-05 4.85497E-07-1.10851E-04-3.99978E-15 2.71151E-13
 -1      1940 2.00002E+01 2.77192E-05-9.32824E-07-1.82158E-04-2.75759E-13 3.46920E-14
 -1      1941 2.00001E+01 1.42048E-05 1.34583E-06-9.36315E-05 3.17053E-13 3.51115E-13
 -1      1942 2.00000E+01 1.24655E-05 4.38176E-07-8.24408E-05 4.22426E-13 6.18748E-13
 -1      1943 2.00001E+01 2.25349E-05-7.89458E-07-1.38206E-04 3.15062E-13 1.34989E-13
 -1      1944 2.00000E+01 1.14165E-05 1.10415E-06-6.85702E-05 5.01073E-13 7.32658E-13
 -1      1945 1.99999E+01 9.92601E-06 3.89738E-07-5.95967E-05 5.64207E-13 7.32450E-13
 -1      1946 2.00000E+01 1.80683E-05-6.53537E-07-1.02425E-04 6.33225E-13 4.08171E-13
 -1      1947 1.99999E+01 9.16465E-06 8.81283E-07-4.84846E-05-1.52402E-13 6.06828E-13
 -1      1948 1.99999E+01 7.95895E-06 3.35591E-07-4.12734E-05-7.65300E-13 3.80726E-13
 -1      1949 1.99999E+01 1.44393E-05-5.35162E-07-7.36154E-05 2.78315E-14 1.54785E-13
 -1      1950 1.99999E+01 7.47532E-06 6.72390E-07-3.23204E-05-8.30531E-13 5.23509E-13
 -1      1951 1.99998E+01 6.54490E-06 2.69070E-07-2.64152E-05-9.20579E-13 5.47295E-13
 -1      1952 1.99999E+01 1.16619E-05-4.46042E-07-5.04545E-05-7.89393E-13 3.09796E-13
 -1      1953 1.99998E+01 6.29724E-06 4.76949E-07-1.90684E-05-6.03486E-13 5.78607E-13
 -1      1954 1.99998E+01 5.49358E-06 1.93939E-07-1.41118E-05-1.51467E-13 3.09269E-13
 -1      1955 1.99998E+01 9.72326E-06-3.64113E-07-3.16580E-05-7.88020E-13 6.80515E-13
 -1      1956 1.99998E+01 5.11166E-06 2.84931E-07-8.18780E-06 3.17359E-15 2.61273E-13
 -1      1957 1.99998E+01 4.24430E-06 2.56141E-07-4.28097E-06 2.32429E-13 4.33514E-13
 -1      1958 1.99998E+01 8.12346E-06-2.51526E-07-1.62753E-05-1.99448E-13 7.68141E-13
 -1      1959 1.99998E+01 4.23666E-06 7.20156E-08-2.56396E-06 4.79046E-13 3.98436E-13
 -1      1960 1.99998E+01 3.85123E-06 2.85983E-07-1.64851E-06 5.71357E-13 4.90707E-13
 -1      1961 1.99998E+01 6.75278E-06 2.08395E-07-4.52604E-06 2.04639E-13 1.88294E-15
 -1      1962 1.99998E+01 7.28747E-06-1.93375E-08-7.94167E-06 7.23275E-14 6.59110E-13
 -1      1963 2.33131E+01 2.91659E+00 5.84321E-02 9.07079E-01-3.39381E-14 3.20639E-13
 -1      1964 1.62058E+01 1.96909E-01 1.45003E-02 6.43179E-01 4.30662E-14 1.87983E-13
 -1      1965 1.65270E+01 2.23387E-01 2.06580E-02 7.82358E-01 4.59329E-14 2.15058E-13
 -1      1966 1.57872E+01 1.88544E-01 1.33075E-02 3.43750E-01 5.55233E-14 1.52096E-13
 -1      1967 1.59721E+01 1.90465E-01 1.65525E-02 4.64285E-01 4.99349E-14 1.71951E-13
 -1      1968 1.69687E+01 3.05466E-01-7.66217E-03 7.66856E-01 7.35939E-14 1.48413E-13
 -1      1969 1.55948E+01 1.93714E-01 1.17760E-02 4.84973E-02 8.27827E-14 1.00580E-13
 -1      1970 1.56522E+01 1.92351E-01 1.22870E-02 1.69978E-01 7.85804E-14 1.28625E-13
 -1      1971 1.65976E+01 2.93491E-01-9.94072E-03 3.67591E-01 9.51439E-14 1.19427E-13
 -1      1972 1.56227E+01 1.85577E-01 9.91810E-03-2.42810E-01 7.76809E-14 6.03001E-14
 -1      1973 1.55616E+01 1.92701E-01 1.03660E-02-1.24000E-01 8.36839E-14 9.67810E-14
 -1      1974 1.64300E+01 2.94102E-01-1.05417E-02-2.47322E-02 1.02872E-13 1.02639E-13
 -1      1975 1.58527E+01 1.54024E-01 7.62227E-03-5.03521E-01 5.00060E-14 3.14276E-14
 -1      1976 1.56861E+01 1.73126E-01 9.05117E-03-4.00468E-01 5.60866E-14 4.57900E-14
 -1      1977 1.64612E+01 2.71654E-01-9.69919E-03-3.99618E-01 8.37143E-14 7.94633E-14
 -1      1978 1.62466E+01 1.02407E-01 5.16741E-03-7.01127E-01-1.03945E-14-2.44336E-15
 -1      1979 1.59965E+01 1.30433E-01 7.21751E-03-6.27115E-01 3.13985E-16 8.44160E-15
 -1      1980 1.66704E+01 2.15274E-01-7.49066E-03-7.19714E-01 3.32941E-14 2.39927E-14
 -1      1981 1.67489E+01 4.24025E-02 2.93414E-03-8.14027E-01 1.19290E-14 3.91211E-14
 -1      1982 1.64454E+01 7.27982E-02 4.56931E-03-7.76343E-01 1.35066E-14 2.76424E-14
 -1      1983 1.70165E+01 1.32866E-01-4.49448E-03-9.46969E-01-1.96553E-14 1.07516E-14
 -1      1984 1.72984E+01-1.27311E-02 1.17682E-03-8.39385E-01 4.54148E-14 5.34468E-15
 -1      1985 1.69738E+01 1.34839E-02 1.43822E-03-8.37194E-01 2.59234E-14 1.44919E-14
 -1      1986 1.74447E+01 4.26130E-02-1.49470E-03-1.06120E+00 4.09180E-14-5.60012E-15
 -1      1987 1.78397E+01-5.35816E-02-4.44304E-05-7.91580E-01 4.03161E-14-2.39210E-14
 -1      1988 1.75232E+01-3.56333E-02-1.57047E-03-8.17475E-01 5.94664E-14-1.40014E-14
 -1      1989 1.78995E+01-3.67825E-02 8.71209E-04-1.06641E+00 6.35454E-14-2.29612E-14
 -1      1990 1.83325E+01-7.67279E-02-7.91732E-04-6.94771E-01-8.86444E-15-4.37309E-14
 -1      1991 1.80457E+01-6.79996E-02-3.91678E-03-7.38211E-01 1.08899E-14-3.33687E-14
 -1      1992 1.83356E+01-9.30887E-02 2.34245E-03-9.85938E-01 3.40374E-14-3.34313E-14
 -1      1993 1.87537E+01-8.38555E-02-1.17919E-03-5.74455E-01-1.04343E-13 2.94520E-14
 -1      1994 1.85092E+01-8.29179E-02-5.32857E-03-6.25132E-01-6.95813E-14-4.30558E-15
 -1      1995 1.87231E+01-1.22830E-01 2.98419E-03-8.52120E-01-6.21270E-14-2.81730E-16
 -1      1996 1.90955E+01-7.94172E-02-1.31567E-03-4.51525E-01-2.52649E-14 4.31947E-14
 -1      1997 1.88976E+01-8.37329E-02-5.81898E-03-5.01468E-01-4.75546E-14 4.98888E-14
 -1      1998 1.90480E+01-1.29499E-01 3.02939E-03-6.96250E-01-9.87814E-14 1.50420E-14
 -1      1999 1.93613E+01-6.84035E-02-1.29051E-03-3.39776E-01-1.96700E-14 4.03606E-14
 -1      2000 1.92081E+01-7.54062E-02-5.59034E-03-3.84041E-01-1.17872E-14-9.31232E-15
 -1      2001 1.93080E+01-1.20091E-01 2.73167E-03-5.42430E-01-1.48204E-14-6.07607E-14
 -1      2002 1.95606E+01-5.49427E-02-1.17005E-03-2.46143E-01-7.21357E-14 6.58309E-14
 -1      2003 1.94465E+01-6.26421E-02-4.91367E-03-2.82505E-01-2.38683E-14 5.92052E-14
 -1      2004 1.95085E+01-1.01976E-01 2.28999E-03-4.05626E-01-3.93771E-14-4.42412E-14
 -1      2005 1.97054E+01-4.17895E-02-1.00260E-03-1.72380E-01-8.42653E-14 6.24891E-14
 -1      2006 1.96233E+01-4.89385E-02-4.03789E-03-2.00555E-01-6.94280E-14 3.56661E-14
 -1      2007 1.96583E+01-8.10501E-02 1.82901E-03-2.92657E-01-7.44060E-14-1.90334E-14
 -1      2008 1.98077E+01-3.04093E-02-8.21956E-04-1.17041E-01-8.71121E-14 1.89438E-13
 -1      2009 1.97505E+01-3.64047E-02-3.14538E-03-1.37873E-01-9.60197E-14 1.37901E-13
 -1      2010 1.97676E+01-6.11317E-02 1.41202E-03-2.04520E-01-1.07791E-13-4.27812E-14
 -1      2011 1.98783E+01-2.13231E-02-6.49798E-04-7.71592E-02 3.78617E-14 2.76711E-13
 -1      2012 1.98396E+01-2.60077E-02-2.34465E-03-9.19733E-02-4.47176E-14 2.52737E-13
 -1      2013 1.98454E+01-4.41684E-02 1.06319E-03-1.38805E-01-1.07713E-13 1.47406E-13
 -1      2014 1.99259E+01-1.44810E-02-4.98241E-04-4.93739E-02-1.28518E-13 3.36142E-13
 -1      2015 1.99004E+01-1.79518E-02-1.68389E-03-5.95649E-02-1.50090E-14 3.64873E-13
 -1      2016 1.98997E+01-3.07721E-02 7.85241E-04-9.16055E-02-6.12427E-14 3.95156E-13
 -1      2017 1.99572E+01-9.55652E-03-3.72228E-04-3.05793E-02 1.13492E-13 2.47789E-13
 -1      2018 1.99409E+01-1.20224E-02-1.17088E-03-3.73874E-02-3.43437E-15 2.97384E-13
 -1      2019 1.99369E+01-2.07685E-02 5.70865E-04-5.87614E-02-4.01307E-15 3.35145E-13
 -1      2020 1.99773E+01-6.13880E-03-2.71935E-04-1.82009E-02 7.13355E-14 2.97533E-13
 -1      2021 1.99672E+01-7.83147E-03-7.90939E-04-2.26280E-02 9.75710E-14 2.88367E-13
 -1      2022 1.99619E+01-1.36182E-02 4.09351E-04-3.65296E-02 6.06961E-14 2.74150E-13
 -1      2023 1.99898E+01-3.83722E-03-1.94824E-04-1.02535E-02 5.74942E-14 1.98390E-13
 -1      2024 1.99838E+01-4.96583E-03-5.20047E-04-1.30571E-02 7.55754E-14 2.54285E-13
 -1      2025 1.99784E+01-8.68583E-03 2.89823E-04-2.18537E-02 4.62173E-14 2.51810E-13
 -1      2026 1.99973E+01-2.32673E-03-1.37158E-04-5.28307E-03 6.36986E-14 2.28278E-13
 -1      2027 1.99939E+01-3.06029E-03-3.32918E-04-7.00913E-03-1.83950E-14 2.20025E-13
 -1      2028 1.99890E+01-5.38334E-03 2.02645E-04-1.23956E-02 2.57315E-14 2.67822E-13
 -1      2029 2.00016E+01-1.35789E-03-9.49964E-05-2.26617E-03-1.52490E-15 2.30578E-13
 -1      2030 1.99998E+01-1.82362E-03-2.07105E-04-3.29357E-03 1.07976E-13 2.56173E-13
 -1      2031 1.99956E+01-3.22850E-03 1.39848E-04-6.45008E-03-6.04611E-15 3.80756E-13
 -1      2032 2.00037E+01-7.49807E-04-6.47361E-05-5.04273E-04 1.76180E-13 2.79121E-13
 -1      2033 2.00030E+01-1.03868E-03-1.24524E-04-1.08834E-03 6.91159E-14 2.48477E-13
 -1      2034 1.99995E+01-1.85501E-03 9.51191E-05-2.81786E-03 5.42853E-14 3.54632E-13
 -1      2035 2.00047E+01-3.76599E-04-4.33527E-05 4.67591E-04 7.26703E-14 2.87677E-13
 -1      2036 2.00045E+01-5.51257E-04-7.15226E-05 1.58874E-04 1.95798E-13 4.00343E-13
 -1      2037 2.00017E+01-9.99154E-04 6.35960E-05-6.79383E-04 1.48797E-13 3.94403E-13
 -1      2038 2.00048E+01-1.53459E-04-2.84451E-05 9.52707E-04 2.68590E-14 1.84456E-13
 -1      2039 2.00050E+01-2.55744E-04-3.82628E-05 8.11012E-04-8.14158E-15 2.28223E-13
 -1      2040 2.00028E+01-4.78564E-04 4.16140E-05 5.12674E-04 2.57022E-14 3.01664E-13
 -1      2041 2.00045E+01-2.46533E-05-1.81817E-05 1.14557E-03 2.09989E-13 1.89758E-13
 -1      2042 2.00049E+01-8.18624E-05-1.79069E-05 1.10219E-03 1.17158E-13 2.21675E-13
 -1      2043 2.00032E+01-1.71014E-04 2.64572E-05 1.11709E-03 1.00587E-13 1.64127E-13
 -1      2044 2.00040E+01 4.57387E-05-1.12048E-05 1.16910E-03 1.79892E-13 6.77528E-14
 -1      2045 2.00045E+01 1.61271E-05-5.83356E-06 1.18111E-03 3.16995E-13 1.72593E-13
 -1      2046 2.00032E+01 3.43048E-06 1.61397E-05 1.36545E-03 2.95152E-13 1.54202E-13
 -1      2047 2.00035E+01 8.05264E-05-6.52955E-06 1.09990E-03-1.13545E-15-2.88804E-14
 -1      2048 2.00039E+01 6.74841E-05 1.01211E-06 1.14088E-03 1.31837E-13 5.23484E-14
 -1      2049 2.00029E+01 9.60490E-05 9.22485E-06 1.40524E-03 2.51040E-13 1.03508E-13
 -1      2050 2.00029E+01 9.40353E-05-3.45174E-06 9.85006E-04-2.11391E-13-7.81358E-14
 -1      2051 2.00033E+01 9.06827E-05 4.61401E-06 1.03894E-03-1.81033E-13-1.94784E-14
 -1      2052 2.00026E+01 1.39249E-04 4.68289E-06 1.32923E-03-1.23358E-13 3.09527E-13
 -1      2053 2.00023E+01 9.51909E-05-1.47351E-06 8.52715E-04-8.46425E-14-1.24326E-13
 -1      2054 2.00027E+01 9.72759E-05 6.24270E-06 9.10167E-04-9.61476E-14-1.51988E-13
 -1      2055 2.00022E+01 1.53282E-04 1.78062E-06 1.19494E-03-1.40438E-13 8.38648E-14
 -1      2056 2.00018E+01 8.95188E-05-2.45276E-07 7.19571E-04-1.48179E-13 1.80488E-13
 -1      2057 2.00022E+01 9.44364E-05 6.70281E-06 7.75160E-04-1.20577E-13 5.25492E-14
 -1      2058 2.00018E+01 1.50693E-04-7.66855E-10 1.03737E-03-2.06442E-13 1.17090E-13
 -1      2059 2.00014E+01 8.04175E-05 4.77146E-07 5.94754E-04-2.55296E-13 1.29264E-13
 -1      2060 2.00017E+01 8.65887E-05 6.49896E-06 6.45625E-04-2.04630E-13 1.35741E-13
 -1      2061 2.00014E+01 1.39196E-04-1.02642E-06 8.77232E-04-1.87935E-13 1.32694E-13
 -1      2062 2.00011E+01 6.99558E-05 8.63747E-07 4.82871E-04 5.09575E-14 6.29429E-15
 -1      2063 2.00013E+01 7.64396E-05 5.94456E-06 5.27720E-04-8.03405E-14 6.47489E-14
 -1      2064 2.00011E+01 1.23494E-04-1.55192E-06 7.26201E-04-1.21285E-13-1.01179E-13
 -1      2065 2.00008E+01 5.93699E-05 1.03247E-06 3.85724E-04 1.29572E-13-2.38696E-13
 -1      2066 2.00009E+01 6.56222E-05 5.23183E-06 4.24186E-04 1.04609E-13-1.07555E-13
 -1      2067 2.00008E+01 1.06417E-04-1.75497E-06 5.90271E-04 1.38466E-13-1.78480E-13
 -1      2068 2.00005E+01 4.93730E-05 1.06487E-06 3.03422E-04-6.15535E-14-1.00321E-13
 -1      2069 2.00007E+01 5.50966E-05 4.47642E-06 3.35686E-04-8.84750E-14-2.31657E-13
 -1      2070 2.00006E+01 8.96260E-05-1.75810E-06 4.71906E-04 3.30417E-14-3.94985E-13
 -1      2071 2.00003E+01 4.03499E-05 1.01714E-06 2.35092E-04 3.94177E-14 9.42891E-14
 -1      2072 2.00004E+01 4.54005E-05 3.74562E-06 2.61658E-04 5.52665E-14 8.61727E-14
 -1      2073 2.00004E+01 7.40557E-05-1.64476E-06 3.71419E-04-1.40635E-13-2.84251E-13
 -1      2074 2.00002E+01 3.24817E-05 9.27752E-07 1.79333E-04 9.70835E-14-1.01898E-13
 -1      2075 2.00003E+01 3.68073E-05 3.07616E-06 2.00859E-04 2.69544E-14 1.78991E-14
 -1      2076 2.00002E+01 6.01869E-05-1.47083E-06 2.87858E-04 1.97882E-14-3.79817E-13
 -1      2077 2.00001E+01 2.58277E-05 8.23088E-07 1.34487E-04 4.24845E-13-2.59591E-13
 -1      2078 2.00001E+01 2.94288E-05 2.48544E-06 1.51700E-04 2.39366E-13-2.08319E-13
 -1      2079 2.00001E+01 4.82233E-05-1.27274E-06 2.19571E-04 1.83128E-13-2.86760E-13
 -1      2080 2.00000E+01 2.03784E-05 7.19994E-07 9.88188E-05 4.05080E-13-1.58419E-13
 -1      2081 2.00000E+01 2.32843E-05 1.97881E-06 1.12455E-04 5.21455E-13-7.19102E-14
 -1      2082 2.00000E+01 3.82086E-05-1.07282E-06 1.64565E-04 3.26993E-13-4.30123E-13
 -1      2083 1.99999E+01 1.60791E-05 6.24891E-07 7.06094E-05-3.41096E-14-2.67416E-13
 -1      2084 2.00000E+01 1.83374E-05 1.55264E-06 8.13874E-05 1.50546E-13-5.49569E-14
 -1      2085 2.00000E+01 3.00906E-05-8.85309E-07 1.20727E-04 2.37548E-13-4.15810E-14
 -1      2086 1.99999E+01 1.28580E-05 5.36102E-07 4.82434E-05-1.40721E-13-6.98260E-14
 -1      2087 1.99999E+01 1.45177E-05 1.19451E-06 5.68374E-05 3.86121E-14-1.49376E-13
 -1      2088 1.99999E+01 2.37552E-05-7.19192E-07 8.59745E-05-6.67803E-14 1.43256E-13
 -1      2089 1.99998E+01 1.05634E-05 4.47594E-07 3.02523E-05-2.87732E-14-3.67219E-14
 -1      2090 1.99999E+01 1.17487E-05 8.88096E-07 3.72681E-05-2.27591E-13-1.95273E-13
 -1      2091 1.99999E+01 1.90689E-05-5.72757E-07 5.83799E-05-1.22593E-13 1.81447E-13
 -1      2092 1.99998E+01 8.83936E-06 3.58057E-07 1.55989E-05 3.44938E-13-2.75796E-13
 -1      2093 1.99998E+01 9.69725E-06 5.94499E-07 2.14016E-05 2.52069E-13-1.84187E-13
 -1      2094 1.99998E+01 1.55754E-05-5.15712E-07 3.63457E-05 2.35048E-13 7.51996E-14
 -1      2095 1.99998E+01 6.01891E-06 2.94910E-07 5.16889E-06 9.78012E-14-3.22678E-13
 -1      2096 1.99998E+01 7.42703E-06 4.00645E-07 9.19020E-06 3.06388E-13-3.02473E-13
 -1      2097 1.99998E+01 1.25626E-05-1.95979E-07 1.94388E-05 3.39419E-13 8.85405E-14
 -1      2098 1.99998E+01 8.44820E-06 6.47187E-08 7.32483E-06-4.30157E-14 2.76375E-14
 -1      2099 1.99998E+01 5.66411E-05-1.67205E-07 3.17595E-05-3.42366E-14 1.82496E-13
 -1      2100 1.99998E+01 4.64425E-05 2.98639E-07 2.96798E-05-2.38272E-13-1.99016E-14
 -1      2101 1.99998E+01 3.54195E-05 9.27144E-10 2.57497E-05-1.91240E-13-2.70163E-14
 -1      2102 1.99998E+01 2.67333E-05 2.05386E-07 2.15757E-05-3.02680E-13 2.35347E-13
 -1      2103 1.99998E+01 4.66585E-05-4.31356E-08 3.67049E-05 5.18612E-14 3.54163E-14
 -1      2104 1.99998E+01 1.45798E-05 1.95281E-07 1.26168E-05-1.10415E-13 1.95347E-13
 -1      2105 1.99998E+01 7.80599E-05-3.04129E-07 3.21257E-05-4.38343E-13-1.69734E-13
 -1      2106 1.99998E+01 6.77453E-05 1.55215E-07 3.25792E-05-3.96562E-13 1.93941E-13
 -1      2107 1.99998E+01 6.85713E-05 5.56478E-08 4.18092E-05 2.54109E-14-9.75001E-14
 -1      2108 1.99998E+01 9.73069E-05-4.09349E-07 2.67708E-05-2.93269E-13-1.89530E-13
 -1      2109 1.99998E+01 8.82332E-05-2.99891E-08 2.96699E-05-5.57488E-13 1.71237E-13
 -1      2110 1.99998E+01 8.98128E-05 2.36504E-07 3.97915E-05-5.49250E-13-1.19431E-13
 -1      2111 1.99998E+01 1.11075E-04-4.59830E-07 1.67553E-05-2.60270E-13-2.18064E-13
 -1      2112 1.99998E+01 1.04942E-04-2.15699E-07 2.15096E-05-2.07171E-13-4.39413E-13
 -1      2113 1.99998E+01 1.07586E-04 3.74993E-07 3.09298E-05-3.78942E-13-3.05682E-13
 -1      2114 1.99998E+01 1.17316E-04-4.43651E-07 3.90064E-06-4.45585E-13 3.22233E-14
 -1      2115 1.99998E+01 1.15148E-04-3.62075E-07 9.64684E-06-4.34750E-13-9.24921E-14
 -1      2116 1.99998E+01 1.19285E-04 4.66092E-07 1.68646E-05-3.17310E-13-3.48141E-13
 -1      2117 1.99998E+01 1.15114E-04-3.58919E-07-9.58944E-06-5.80424E-13-3.66931E-14
 -1      2118 1.99998E+01 1.17273E-04-4.47021E-07-3.84770E-06-4.92045E-13 3.01387E-13
 -1      2119 1.99998E+01 1.23313E-04 4.96385E-07 9.64309E-09-6.01216E-13 2.21761E-13
 -1      2120 1.99998E+01 1.04839E-04-2.17987E-07-2.14277E-05-3.72663E-13-5.00762E-13
 -1      2121 1.99998E+01 1.10970E-04-4.58834E-07-1.66861E-05-5.44229E-13-2.39282E-13
 -1      2122 1.99998E+01 1.19124E-04 4.60898E-07-1.68289E-05-3.71417E-13-9.76636E-14
 -1      2123 1.99998E+01 8.84393E-05-3.46118E-08-2.94704E-05-2.54458E-13 1.89396E-13
 -1      2124 1.99998E+01 9.73179E-05-4.07769E-07-2.65998E-05-3.59403E-13-3.67605E-13
 -1      2125 1.99998E+01 1.07444E-04 3.75525E-07-3.07679E-05-6.39921E-14-2.85406E-13
 -1      2126 1.99998E+01 6.78553E-05 1.56183E-07-3.25041E-05-1.26018E-13 3.08350E-13
 -1      2127 1.99998E+01 7.83130E-05-3.04215E-07-3.19908E-05-3.32220E-13 5.56072E-13
 -1      2128 1.99998E+01 8.98384E-05 2.32864E-07-3.95834E-05-2.43864E-13 2.60624E-13
 -1      2129 1.99998E+01 4.63507E-05 2.72549E-07-2.96504E-05-2.38756E-14 3.15737E-13
 -1      2130 1.99998E+01 5.65584E-05-1.75803E-07-3.17428E-05-3.51939E-14 2.46998E-13
 -1      2131 1.99998E+01 6.84877E-05 7.65424E-08-4.17489E-05-5.94793E-14 4.35685E-13
 -1      2132 1.99998E+01 2.66932E-05 2.65611E-07-2.15107E-05-1.73637E-13-1.07623E-13
 -1      2133 1.99998E+01 3.53900E-05-2.31393E-08-2.58832E-05-3.90902E-14 1.77199E-13
 -1      2134 1.99998E+01 4.64085E-05-9.62905E-08-3.67765E-05-8.45588E-14 1.76302E-13
 -1      2135 1.66634E+01 2.23392E-01 1.39275E-02 9.04393E-01 7.63400E-14 2.36621E-13
 -1      2136 1.71567E+01 2.93406E-01 1.85208E-02 1.10622E+00 9.62026E-14 2.76118E-13
 -1      2137 1.77304E+01 4.67965E-01 5.68698E-04 1.46727E+00 1.09749E-13 2.26032E-13
 -1      2138 1.73463E+01 3.48702E-01-5.83633E-03 1.12379E+00 8.62999E-14 2.03419E-13
 -1      2139 1.24740E+01-3.68795E+00-6.11459E-02 8.77875E+00 3.11196E-13 3.43968E-13
 -1      2140 8.12535E+00-5.85278E+00-3.64639E-01 7.38723E+00 2.58682E-13 3.17843E-13
 -1      2141 3.14563E+01 1.50240E+00 1.48354E-01 8.00173E+00 3.06144E-13 1.23457E-13
 -1      2142 2.60528E+01-1.07502E-01-1.11471E-01 8.12227E+00 3.75644E-13 2.01394E-13
 -1      2143 4.79376E+00-5.47750E+00-1.61044E-01 6.72441E+00 2.34701E-13 3.98598E-13
 -1      2144 2.21166E+00-7.08935E+00-3.50947E-01 5.38902E+00 1.00975E-13 4.09339E-13
 -1      2145 3.68169E+01-4.43074E+00-2.38805E-01 1.91371E-01-4.27547E-13 5.57998E-13
 -1      2146 4.30166E+01-3.00971E+00 1.37660E-01 2.01518E+00-3.97155E-13 4.34319E-13
 -1      2147 1.33013E+01 5.87289E+00 3.18228E-02-3.25479E+00-2.00742E-13-2.51717E-14
 -1      2148 1.32535E+01 6.00632E+00-3.40714E-02-2.71593E+00-1.97070E-13 7.34135E-15
 -1      2149 1.31343E+01 6.05571E+00 6.06395E-02-2.14168E+00-1.86413E-13 7.27196E-15
 -1      2150 1.33030E+01 5.38507E+00 3.44005E-02-4.03003E+00-2.29414E-13-3.51039E-14
 -1      2151 3.96266E+01 4.80163E+00 3.20739E-01 5.53195E+00 2.94008E-13 3.19744E-14
 -1      2152 3.49868E+01 3.12850E+00 2.12179E-02 5.95756E+00 2.86354E-13 6.95000E-14
 -1      2153 4.50201E+01 7.39202E+00 3.80174E-01 3.28376E+00 2.40974E-13 8.08797E-14
 -1      2154 4.15310E+01 6.56663E+00 1.44503E-01 4.39310E+00 3.16080E-13 9.64229E-14
 -1      2155 4.52550E+01 8.83245E+00 2.02930E-01 4.38689E-01 2.62568E-13 2.61284E-14
 -1      2156 4.52928E+01 8.39544E+00 3.09662E-01 2.16393E+00 2.67175E-13 9.30089E-14
 -1      2157 4.44733E+01 8.13572E+00 2.11736E-01-1.96963E+00 2.33036E-13-3.46945E-14
 -1      2158 4.49514E+01 8.74390E+00 1.90485E-01-2.37709E-01 2.46525E-13 6.88338E-14
 -1      2159 4.01499E+01 6.28573E+00 5.15259E-02-3.74948E+00 2.22156E-13-3.98570E-14
 -1      2160 4.38986E+01 7.14155E+00 3.00866E-01-2.86000E+00 2.17576E-13-3.02536E-14
 -1      2161 3.97602E+01 8.60895E+00 2.76284E-01-1.50515E-01 1.92624E-13 7.04159E-14
 -1      2162 3.35056E+01 3.23761E+00-2.16650E-02-6.60380E+00 2.46470E-13-2.66454E-14
 -1      2163 3.81740E+01 4.47987E+00 1.85243E-01-5.72627E+00 2.10708E-13-4.25215E-14
 -1      2164 2.46052E+01 3.38709E-01-1.63969E-01-8.11312E+00 2.30371E-13-9.28702E-14
 -1      2165 3.00999E+01 2.02214E+00 1.41869E-01-8.30563E+00 2.46581E-13-1.77636E-15
 -1      2166 1.49625E+01-2.21660E+00-2.87166E-01-8.37995E+00 1.75637E-13-1.88793E-13
 -1      2167 2.00613E+01-2.71074E-01 2.68739E-02-9.30498E+00 2.00506E-13-1.50158E-13
 -1      2168 6.87983E+00-4.45075E+00-3.63718E-01-7.22779E+00 1.31672E-13-1.88502E-13
 -1      2169 1.06287E+01-2.29149E+00-8.94913E-02-8.45577E+00 1.74305E-13-2.13968E-13
 -1      2170 1.48817E+00-5.76678E+00-3.52656E-01-5.29715E+00 2.92544E-14-2.51910E-13
 -1      2171 3.74371E+00-4.16259E+00-1.74373E-01-6.54221E+00 9.86988E-14-2.17104E-13
 -1      2172-5.72968E-01-5.86445E+00-3.21774E-01-2.37363E+00-4.19387E-14-2.72171E-13
 -1      2173-7.86595E-02-5.45230E+00-2.86623E-01-3.75931E+00 4.13003E-14-2.64788E-13
 -1      2174 1.19053E+00-6.94487E+00-4.86001E-01 9.53833E-01-8.95395E-14-2.87104E-13
 -1      2175-2.79063E-01-6.74884E+00-4.53235E-01-3.69679E-01-1.93387E-14-2.66898E-13
 -1      2176 8.50727E+00-6.28926E+00-4.69477E-01 4.02390E+00-6.98330E-14-3.35093E-13
 -1      2177 4.52316E+00-7.01968E+00-5.93531E-01 2.54291E+00-3.79696E-14-2.85938E-13
 -1      2178 2.02811E+01-6.12863E+00-4.85054E-01 4.78599E+00 2.99760E-14-3.11390E-13
 -1      2179 1.35507E+01-6.84202E+00-7.31496E-01 3.99747E+00 2.60902E-14-2.82335E-13
 -1      2180 2.99044E+01-5.49567E+00-3.27139E-01 1.98772E+00 1.22347E-13 1.67477E-13
 -1      2181 4.62203E+01-1.64980E+00 5.04691E-01-3.50847E+00-3.01689E-13 6.38600E-13
 -1      2182 4.68257E+01 8.50094E-01 3.58236E-01-3.69511E+00-4.07840E-13 5.84421E-13
 -1      2183 4.62647E+01 8.47895E-01 4.18609E-01 3.85865E+00-3.58047E-13 4.83169E-13
 -1      2184 1.17460E+01-7.26169E+00-6.76522E-01-4.18154E+00-3.51719E-13 4.56780E-13
 -1      2185 1.81494E+01-6.08715E+00-3.44692E-01-4.97993E+00-3.78808E-13 5.89168E-13
 -1      2186 4.06325E+00-7.09425E+00-4.55377E-01-2.96305E+00-1.38112E-13 3.50830E-13
 -1      2187 7.49558E+00-6.78813E+00-4.11500E-01-4.01733E+00-2.92322E-13 2.59320E-13
 -1      2188-5.73023E-01-7.67858E+00-4.32301E-01 5.00856E-01 3.33136E-14 5.66991E-13
 -1      2189 8.32976E-01-6.84021E+00-3.15639E-01-1.18585E+00-8.72913E-14 5.44231E-13
 -1      2190 2.23093E+01-9.65285E-01 8.47524E-02 9.20438E+00 3.56826E-13 3.33067E-13
 -1      2191 1.73971E+01-3.30937E+00-2.28472E-01 8.38337E+00 3.22631E-13 3.12250E-13
 -1      2192 3.34311E-01-6.61450E+00-2.46627E-01 3.81694E+00 1.92124E-13 4.43146E-13
 -1      2193-4.14628E-01-7.02626E+00-2.83686E-01 2.36051E+00 9.63257E-14 4.89664E-13
 -1      2194 3.08115E+01-4.80344E+00 1.18664E-01 2.95864E+00 2.32980E-13 3.11515E-13
 -1      2195 8.44121E+00-4.59001E+00-9.23709E-02 8.31636E+00 1.17739E-13 3.74201E-13
 -1      2196 1.72561E+01-4.33688E+00-2.55607E-02 9.02672E+00 1.66700E-13 2.21406E-13
 -1      2197 2.77185E+01-3.40622E+00 2.14090E-01 4.77141E+00 2.66009E-13 2.34548E-13
 -1      2198 2.34656E+01 2.50738E+00 3.82359E-02 2.28415E+00-1.32463E-14 3.13813E-13
 -1      2199 5.56179E+01 5.24417E+00 1.70683E+00-1.71150E-01-3.87246E-13 6.34832E-13
 -1      2200 1.93006E+01-2.83479E+00-1.19643E-04 6.12482E+00 1.94456E-13 1.11022E-16
 -1      2201 4.44935E+01-2.39529E+00 1.56910E-01 4.07525E+00-3.03910E-13 3.20299E-13
 -1      2202 2.29290E+01-6.21236E+00-2.16544E-01-4.51930E+00-2.55795E-13 5.34545E-13
 -1      2203 2.21357E+01-6.49115E+00-7.16770E-01-3.61001E+00-3.96128E-13 6.45761E-13
 -1      2204 2.93040E+01-5.35828E+00-4.30916E-01-3.56430E+00-4.15112E-13 6.91891E-13
 -1      2205 3.53273E+01-5.04120E+00 1.35873E-01-3.76992E-01-2.47580E-13 3.90465E-13
 -1      2206 1.99998E+01 2.28391E-05-7.52304E-09 2.27859E-05 2.64142E-13 1.23424E-13
 -1      2207 1.99998E+01 1.27129E-05 2.02229E-07-1.04136E-05-1.79910E-13-3.76569E-14
 -1      2208 1.99998E+01 1.87051E-05 1.69743E-07-1.49888E-05-2.49657E-13 8.62228E-14
 -1      2209 1.99998E+01 2.72585E-05-1.02806E-07-2.52146E-05 4.81298E-14 6.50944E-14
 -1      2210 1.99998E+01 1.32881E-05 5.94313E-08-1.22790E-05-1.11114E-15 1.97639E-13
 -1      2211 3.37271E+01 8.20667E-01 1.82061E-01 4.90968E+00 2.04350E-13-8.85958E-14
 -1      2212 2.63743E+01-2.45540E+00 9.67682E-02 7.64949E+00 1.55431E-13 4.49640E-14
 -1      2213 2.67584E+00-3.90717E+00-1.31840E-01 5.44151E+00 8.60700E-14 4.56857E-13
 -1      2214 1.49700E+01-5.21063E+00-2.64249E-01 5.45321E+00 1.36224E-13-1.74111E-13
 -1      2215 5.20443E+00-4.20383E+00-2.96046E-01 3.33138E+00 5.21805E-15-2.83273E-13
 -1      2216 7.23578E-01-3.00219E+00-2.16250E-01-1.01239E+00-4.38122E-14-3.00260E-13
 -1      2217 1.95237E+00-2.46134E+00-1.29820E-01-5.28439E+00-7.22200E-14-2.64899E-13
 -1      2218 7.03404E+00-2.98806E+00-1.19584E-01-8.15519E+00-4.20775E-14-1.80578E-13
 -1      2219 1.52285E+01-2.72711E+00-2.37452E-02-9.18988E+00 1.72085E-14-1.27409E-13
 -1      2220 2.45748E+01-1.53569E+00 7.76636E-02-7.99673E+00 1.02751E-13-3.38618E-15
 -1      2221 3.78073E+01 4.97077E+00 2.12651E-01-2.17414E+00 1.65257E-13 7.41629E-14
 -1      2222 4.07087E+01 9.93283E+00 2.65116E-01 2.64503E-01 2.48079E-13 3.22867E-14
 -1      2223 4.07498E+01 8.87319E+00 3.46589E-01 8.50608E-01 2.46470E-13-3.76088E-14
 -1      2224 3.86994E+01 5.28231E+00 2.71682E-01 2.12442E+00 1.93817E-13-8.90399E-14
 -1      2225 3.25564E+01 1.12663E+00 1.75074E-01-5.26604E+00 1.67283E-13 6.52256E-14
 -1      2226 6.98789E-01-3.85216E+00-1.61638E-01 1.18148E+00 1.69337E-13 5.86975E-13
 -1      2227 4.31600E+00-4.71346E+00-2.17407E-01-3.23190E+00 8.26839E-14 4.27214E-13
 -1      2228 1.31222E+01-5.53375E+00-2.53781E-01-5.51601E+00-9.67559E-14 3.83027E-13
 -1      2229 4.13729E+01-2.38387E+00 2.20019E-01 4.51683E+00-2.40141E-13 9.59788E-14
 -1      2230 1.91972E+01 3.43127E+00 5.22823E-02 2.84549E+00-7.35002E-15 1.62953E-13
 -1      2231 2.07889E+01 1.75022E+00 2.93094E-02-4.01997E+00-2.10651E-13 3.35764E-14
 -1      2232 1.90853E+01 2.15735E+00-1.80144E-02-4.68422E+00-2.41801E-13 1.79093E-14
 -1      2233 1.71270E+01 2.99630E+00 9.79268E-02-5.32752E+00-2.62953E-13-1.94731E-14
 -1      2234 1.50015E+01 3.60837E+00-2.30411E-02-5.45022E+00-2.70344E-13-3.26961E-14
 -1      2235 1.83723E+01 1.62177E+00-1.21603E-02-5.65292E+00-2.51375E-13 1.70662E-14
 -1      2236 2.37513E+01 1.72755E+00-3.58910E-02-4.75570E-01-1.09371E-13 6.55725E-16
 -1      2237 2.35266E+01 1.64562E+00 9.62997E-03-1.16824E+00-1.32862E-13 8.17402E-15
 -1      2238 2.35610E+01 2.21851E+00-4.03281E-02 7.53395E-01-6.58614E-14-6.58328E-15
 -1      2239 2.37559E+01 2.06159E+00-1.88747E-03 2.28798E-01-9.54701E-14-3.70710E-15
 -1      2240 2.43102E+01 1.39888E+00-1.84718E-03 9.01124E-02-1.00859E-13 1.51025E-14
 -1      2241 2.28633E+01 2.63093E+00-3.54352E-02 1.58408E+00-1.64895E-14-2.37085E-14
 -1      2242 2.32624E+01 2.49843E+00-1.11529E-02 1.20747E+00-4.10749E-14-1.51545E-14
 -1      2243 2.38381E+01 1.96916E+00 9.39644E-03 1.17638E+00-5.10859E-14 1.59595E-14
 -1      2244 2.19252E+01 2.85024E+00-3.08215E-02 2.17094E+00 3.69075E-14-4.83467E-15
 -1      2245 2.24156E+01 2.79140E+00-1.63239E-02 1.88393E+00 1.03510E-14-1.57513E-14
 -1      2246 2.29497E+01 2.35446E+00 1.08951E-02 1.85309E+00 2.52055E-15 1.01655E-15
 -1      2247 2.09392E+01 2.82411E+00-2.96022E-02 2.59091E+00 6.66410E-14 1.20407E-14
 -1      2248 2.14336E+01 2.87148E+00-1.86697E-02 2.36905E+00 4.22438E-14 4.95090E-15
 -1      2249 2.19136E+01 2.49117E+00 1.05823E-02 2.28534E+00 4.04399E-14 9.41955E-15
 -1      2250 2.00311E+01 2.51113E+00-3.59484E-02 2.85823E+00 1.03426E-13 3.86011E-14
 -1      2251 2.04706E+01 2.70294E+00-1.95460E-02 2.70867E+00 8.45205E-14 1.73229E-14
 -1      2252 2.08808E+01 2.36040E+00 1.21493E-02 2.54849E+00 6.44373E-14 3.73547E-14
 -1      2253 1.93267E+01 1.84162E+00-3.03850E-02 2.84511E+00 1.13059E-13 1.19620E-13
 -1      2254 1.96544E+01 2.24843E+00-9.75637E-03 2.86837E+00 1.12242E-13 6.85389E-14
 -1      2255 1.99360E+01 1.93510E+00 1.68265E-02 2.61599E+00 9.58175E-14 6.44710E-14
 -1      2256 1.89007E+01 1.12260E+00-2.01354E-02 2.41595E+00 1.10911E-13 2.09107E-13
 -1      2257 1.91095E+01 1.59443E+00 3.17046E-03 2.68936E+00 1.15651E-13 1.64483E-13
 -1      2258 1.91154E+01 1.33875E+00 7.01517E-04 2.38024E+00 1.20853E-13 1.29761E-13
 -1      2259 1.83944E+01 7.96876E-01-3.08126E-03 1.93184E+00 1.19084E-13 2.02743E-13
 -1      2260 1.48592E+01 2.77500E+00 1.07704E-01 4.08034E+00 4.97796E-14 1.86517E-14
 -1      2261 1.42628E+01 1.24374E+00 1.65180E-01 4.80627E+00 8.30863E-14-2.71450E-14
 -1      2262 2.31623E+01-4.78450E+00-2.46681E-02-5.18444E+00-4.21885E-14 3.06741E-13
 -1      2263 2.79418E+01-5.45116E+00-1.49897E-01-4.01639E+00-7.74381E-14 3.65624E-13
 -1      2264 1.41741E+01-1.76284E+00 1.68417E-01 5.54215E+00 1.23623E-13-9.60898E-14
 -1      2265 4.03280E+01-3.42312E+00 6.69043E-02 1.79842E+00-9.40359E-14 4.20289E-14
 -1      2266 3.38212E+01 4.00220E-01-1.56571E-01 2.65172E+00 1.12525E-13-2.14828E-13
 -1      2267 3.12524E+01-1.46678E+00-1.92028E-02 4.26144E+00 1.00780E-13-1.73084E-13
 -1      2268 2.03077E+01 4.25537E-01 1.39102E-01-6.17251E+00 1.41373E-13 2.73656E-13
 -1      2269 1.96850E+01 1.52190E+00 1.13428E-01-5.72629E+00 2.11102E-13 2.89782E-13
 -1      2270 2.03338E+01 1.81112E+00 7.15574E-02-4.90454E+00 1.94421E-13 3.10398E-13
 -1      2271 1.98616E+01 1.87663E+00 2.54683E-03-4.16625E+00 1.11901E-13 3.14776E-13
 -1      2272 2.05789E+01 1.68170E+00 4.33886E-02-3.43980E+00 1.05957E-13 2.57203E-13
 -1      2273 2.01656E+01 1.45017E+00-1.92907E-02-2.78010E+00 8.99437E-14 2.89609E-13
 -1      2274 1.80685E+01 2.39547E+00 9.05764E-02-3.69018E+00 1.05209E-13 2.40972E-13
 -1      2275 2.05859E+01 1.20687E+00 3.52118E-02-2.22952E+00 1.03598E-14 2.24140E-13
 -1      2276 2.02527E+01 9.68565E-01-1.46510E-02-1.74888E+00-1.02762E-13 2.49229E-13
 -1      2277 1.91027E+01 1.83413E+00 5.18914E-02-2.49209E+00 2.03049E-14 1.78180E-13
 -1      2278 2.04640E+01 7.77015E-01 2.73211E-02-1.37029E+00-1.28087E-13 2.34339E-13
 -1      2279 2.02222E+01 6.01499E-01-7.94863E-03-1.05384E+00-2.14915E-13 2.78780E-13
 -1      2280 1.96288E+01 1.21946E+00 2.71819E-02-1.59557E+00-1.24654E-13 7.72965E-14
 -1      2281 2.03182E+01 4.73177E-01 1.98736E-02-8.07822E-01-2.47833E-13 2.96700E-13
 -1      2282 2.01560E+01 3.57950E-01-3.83344E-03-6.11610E-01-2.09606E-13 2.41589E-13
 -1      2283 1.98638E+01 7.57718E-01 1.40389E-02-9.76672E-01-2.11452E-13 2.79530E-13
 -1      2284 2.01960E+01 2.78115E-01 1.33799E-02-4.58504E-01-7.96945E-14 2.98470E-13
 -1      2285 2.00940E+01 2.06642E-01-1.77912E-03-3.41560E-01 1.69465E-14 3.62280E-13
 -1      2286 1.99562E+01 4.51762E-01 7.03933E-03-5.73746E-01-1.33861E-13 3.33026E-13
 -1      2287 2.01093E+01 1.58877E-01 8.47503E-03-2.49627E-01 5.95919E-14 4.01699E-13
 -1      2288 2.00487E+01 1.16003E-01-8.27020E-04-1.82120E-01 1.35004E-13 4.67919E-13
 -1      2289 1.99865E+01 2.61183E-01 3.37009E-03-3.22895E-01 7.81237E-14 3.04646E-13
 -1      2290 2.00542E+01 8.81356E-02 5.12542E-03-1.28783E-01-6.18340E-14 4.09544E-13
 -1      2291 2.00202E+01 6.30386E-02-3.89460E-04-9.10560E-02-2.41596E-13 2.62543E-13
 -1      2292 1.99935E+01 1.46682E-01 1.52916E-03-1.72577E-01-6.50272E-15 2.03498E-13
 -1      2293 2.00224E+01 4.71226E-02 2.97874E-03-6.12729E-02-2.02917E-13 2.60444E-13
 -1      2294 2.00045E+01 3.26611E-02-2.50381E-04-4.09806E-02-1.96941E-13 2.51070E-13
 -1      2295 1.99936E+01 7.96554E-02 6.67442E-04-8.58405E-02-2.30077E-13 2.33859E-14
 -1      2296 2.00057E+01 2.33960E-02 1.64598E-03-2.45140E-02-2.08635E-13 3.30035E-13
 -1      2297 1.99972E+01 1.51892E-02-1.42989E-04-1.39734E-02-3.75503E-14 3.55525E-13
 -1      2298 1.99929E+01 4.08600E-02 3.51048E-04-3.72284E-02-1.56735E-13 1.10741E-13
 -1      2299 1.99983E+01 1.06668E-02 8.67228E-04-6.51784E-03 8.19842E-14 2.96439E-13
 -1      2300 1.99952E+01 6.48366E-03-5.94892E-05-1.94464E-03 1.08011E-13 1.70358E-13
 -1      2301 1.99931E+01 1.91142E-02 9.52100E-05-1.20910E-02-1.35417E-14 9.82943E-14
 -1      2302 1.99963E+01 4.09987E-03 4.23728E-04 1.27808E-03 4.15908E-14 1.03484E-13
 -1      2303 1.99957E+01 1.99711E-03-3.71568E-05 3.00463E-03 8.75402E-14 1.02872E-13
 -1      2304 1.99942E+01 8.00301E-03 3.75623E-05-6.58439E-04 7.89584E-14-6.01109E-15
 -1      2305 1.99967E+01 8.60807E-04 1.84244E-04 3.99436E-03 4.53420E-14-2.12382E-14
 -1      2306 1.99971E+01-1.04151E-04-2.63695E-05 4.31798E-03 4.42506E-14-1.03546E-13
 -1      2307 1.99958E+01 2.35323E-03 2.04625E-05 3.86569E-03-1.60951E-14-5.47130E-14
 -1      2308 1.99980E+01-5.67600E-04 5.99316E-05 4.24401E-03 7.90341E-14-1.68255E-13
 -1      2309 1.99988E+01-9.27096E-04-1.97404E-05 3.95309E-03 4.54855E-15-8.18264E-14
 -1      2310 1.99975E+01-2.64803E-04 1.68558E-05 4.87295E-03 7.55336E-14-1.04276E-13
 -1      2311 1.99995E+01-1.04808E-03 5.85018E-07 3.45571E-03-1.34108E-13-1.84894E-14
 -1      2312 2.00002E+01-1.10546E-03-1.50730E-05 2.96397E-03-2.30660E-13-7.18418E-14
 -1      2313 1.99989E+01-1.26686E-03 1.64910E-05 4.28232E-03 3.15662E-14-7.35087E-14
 -1      2314 2.00007E+01-1.06781E-03-2.33155E-05 2.37273E-03-1.57681E-13-2.68935E-14
 -1      2315 2.00013E+01-9.91111E-04-1.14219E-05 1.88113E-03-1.05221E-13 1.71199E-13
 -1      2316 2.00001E+01-1.45909E-03 1.59122E-05 3.12780E-03-1.49134E-13 9.63487E-17
 -1      2317 2.00016E+01-8.93296E-04-2.89975E-05 1.34888E-03-2.26982E-13 2.38157E-13
 -1      2318 2.00019E+01-7.71632E-04-8.43481E-06 9.41446E-04-8.02221E-14 1.84974E-13
 -1      2319 2.00010E+01-1.28817E-03 1.44018E-05 1.92740E-03-7.10567E-14 8.85767E-14
 -1      2320 2.00021E+01-6.63345E-04-2.62324E-05 5.24716E-04 7.12876E-14 2.71288E-13
 -1      2321 2.00023E+01-5.40730E-04-5.98841E-06 2.24406E-04 4.89885E-14 2.22809E-13
 -1      2322 2.00015E+01-9.91286E-04 1.21713E-05 9.08308E-04 4.43774E-14 1.28315E-13
 -1      2323 2.00024E+01-4.44478E-04-2.03321E-05-6.94392E-05 3.83135E-14 1.98297E-13
 -1      2324 2.00024E+01-3.39901E-04-4.02681E-06-2.68887E-04-9.86538E-14 2.05753E-13
 -1      2325 2.00017E+01-6.86030E-04 9.63443E-06 1.41663E-04 3.63360E-14 1.29224E-13
 -1      2326 2.00024E+01-2.63634E-04-1.39989E-05-4.54857E-04-2.04304E-13 3.32084E-14
 -1      2327 2.00023E+01-1.82823E-04-2.50238E-06-5.71429E-04-1.04594E-13-3.59271E-14
 -1      2328 2.00018E+01-4.23668E-04 7.14374E-06-3.78765E-04-2.93491E-13 1.73934E-14
 -1      2329 2.00022E+01-1.27184E-04-8.45545E-06-6.72298E-04-1.07957E-13-1.01179E-13
 -1      2330 2.00021E+01-6.93597E-05-1.36164E-06-7.26597E-04-3.09212E-14-7.27012E-14
 -1      2331 2.00018E+01-2.20287E-04 4.92514E-06-6.92218E-04-1.65417E-13-2.11336E-13
 -1      2332 2.00020E+01-3.17340E-05-4.12293E-06-7.65474E-04 5.46902E-14-1.97677E-13
 -1      2333 2.00018E+01 6.66957E-06-5.20112E-07-7.76413E-04-4.95947E-15-1.19444E-13
 -1      2334 2.00016E+01-7.46526E-05 3.08998E-06-8.47189E-04-1.29609E-13-2.31790E-13
 -1      2335 2.00017E+01 2.97850E-05-1.06062E-06-7.73329E-04 2.27263E-14-1.14819E-13
 -1      2336 2.00015E+01 5.34644E-05 6.93105E-08-7.56601E-04-5.31210E-14-7.31088E-14
 -1      2337 2.00014E+01 2.19530E-05 1.66226E-06-8.89731E-04 1.73170E-14-4.45999E-13
 -1      2338 2.00014E+01 6.61043E-05 8.96257E-07-7.25664E-04-2.90758E-13-9.32184E-15
 -1      2339 2.00012E+01 7.90491E-05 4.51390E-07-6.90904E-04-2.31233E-13-8.44016E-15
 -1      2340 2.00012E+01 8.05201E-05 6.26883E-07-8.56872E-04-1.80712E-13-2.83714E-13
 -1      2341 2.00011E+01 8.35096E-05 2.26761E-06-6.47336E-04-1.00075E-13-8.65312E-14
 -1      2342 2.00010E+01 8.77597E-05 5.94039E-07-6.06707E-04-1.33093E-13-2.76315E-13
 -1      2343 2.00009E+01 1.11029E-04-1.51916E-07-7.78940E-04-2.13641E-13-2.68362E-13
 -1      2344 2.00009E+01 8.78634E-05 2.86917E-06-5.57975E-04-8.86182E-14-2.03094E-13
 -1      2345 2.00007E+01 8.71342E-05 6.64465E-07-5.15699E-04 8.79413E-14-2.37198E-13
 -1      2346 2.00007E+01 1.20853E-04-5.96925E-07-6.81334E-04-7.11088E-14-2.67874E-15
 -1      2347 2.00007E+01 8.43838E-05 3.03058E-06-4.67030E-04 3.94495E-13-2.93104E-13
 -1      2348 2.00005E+01 8.08014E-05 6.81242E-07-4.26682E-04 4.19680E-13-1.97109E-13
 -1      2349 2.00006E+01 1.18506E-04-8.51530E-07-5.77471E-04 2.52956E-13-1.41401E-13
 -1      2350 2.00005E+01 7.65250E-05 2.92667E-06-3.81328E-04 4.14044E-13-2.13857E-13
 -1      2351 2.00004E+01 7.14892E-05 6.51926E-07-3.44876E-04 1.40490E-13-1.27657E-13
 -1      2352 2.00004E+01 1.08985E-04-9.60593E-07-4.76773E-04 4.03026E-13-8.39578E-14
 -1      2353 2.00003E+01 6.66130E-05 2.66687E-06-3.04559E-04-2.41970E-14-2.19049E-13
 -1      2354 2.00002E+01 6.10813E-05 5.96682E-07-2.72899E-04-1.57626E-13-1.60894E-13
 -1      2355 2.00003E+01 9.58593E-05-9.71459E-07-3.84729E-04-2.20183E-14-1.45047E-13
 -1      2356 2.00002E+01 5.62108E-05 2.33127E-06-2.38289E-04-3.76590E-13 1.50519E-13
 -1      2357 2.00001E+01 5.08010E-05 5.31328E-07-2.11602E-04-2.59358E-13 2.01695E-13
 -1      2358 2.00001E+01 8.15485E-05-9.19699E-07-3.04021E-04-1.44990E-13 1.74396E-13
 -1      2359 2.00001E+01 4.63080E-05 1.97295E-06-1.82678E-04 5.09651E-14 7.03490E-14
 -1      2360 2.00000E+01 4.13960E-05 4.66605E-07-1.60692E-04 4.95188E-13 5.47048E-14
 -1      2361 2.00001E+01 6.76127E-05-8.31495E-07-2.35434E-04-7.81017E-14 3.41316E-13
 -1      2362 2.00000E+01 3.74931E-05 1.62529E-06-1.37008E-04 6.57970E-13-2.04738E-13
 -1      2363 2.00000E+01 3.32903E-05 4.08369E-07-1.19184E-04 7.26039E-13 1.93363E-14
 -1      2364 2.00000E+01 5.49962E-05-7.25197E-07-1.78532E-04 5.03264E-13-2.04222E-13
 -1      2365 1.99999E+01 3.01019E-05 1.30940E-06-1.00064E-04 3.95815E-13-1.74953E-13
 -1      2366 1.99999E+01 2.67007E-05 3.68161E-07-8.57139E-05-3.84901E-13-2.93940E-13
 -1      2367 1.99999E+01 4.42243E-05-6.11527E-07-1.32162E-04 4.90643E-13-4.65456E-13
 -1      2368 1.99999E+01 2.42434E-05 1.01647E-06-7.03281E-05-5.99411E-13 1.38109E-13
 -1      2369 1.99999E+01 2.16416E-05 3.14944E-07-5.87196E-05-5.31624E-13 3.90739E-13
 -1      2370 1.99999E+01 3.54485E-05-5.70942E-07-9.48892E-05-1.69963E-13-3.83019E-14
 -1      2371 1.99999E+01 1.97832E-05 7.93166E-07-4.63729E-05-7.65678E-13 5.19567E-13
 -1      2372 1.99998E+01 1.78506E-05 2.83105E-07-3.70242E-05-5.67330E-13 5.57169E-13
 -1      2373 1.99999E+01 2.86191E-05-5.02619E-07-6.49889E-05-6.17920E-13 4.85476E-13
 -1      2374 1.99998E+01 2.61737E-05 4.08661E-07 3.05017E-05 2.24059E-13 7.66932E-14
 -1      2375 1.73575E+01 5.22925E-01 1.01628E-02 3.79148E-01 1.15132E-13 1.14389E-13
 -1      2376 1.74933E+01 5.18738E-01 1.03441E-02 5.95906E-01 1.00061E-13 1.42553E-13
 -1      2377 1.76648E+01 5.20298E-01 9.31526E-03 8.43431E-01 8.71317E-14 1.47831E-13
 -1      2378 1.78965E+01 5.43162E-01 1.21694E-02 1.06983E+00 7.88818E-14 1.60566E-13
 -1      2379 1.83150E+01 7.07821E-01-7.51751E-03 8.76191E-01 1.10544E-13 1.52406E-13
 -1      2380 1.72565E+01 4.61629E-01 5.78281E-03-5.31131E-01 8.30109E-14 1.04487E-13
 -1      2381 1.72025E+01 4.99021E-01 9.48685E-03-3.36765E-01 9.32657E-14 1.09478E-13
 -1      2382 1.74515E+01 3.44829E-01 2.47822E-03-8.94190E-01 3.57093E-14 6.08021E-14
 -1      2383 1.73223E+01 4.11607E-01 9.39026E-03-7.41914E-01 6.85344E-14 8.98312E-14
 -1      2384 1.79692E+01 5.83148E-01-8.06776E-03-7.05883E-01 9.00907E-14 1.33543E-13
 -1      2385 1.77600E+01 1.90804E-01-1.54653E-04-1.13470E+00 2.39348E-15 5.83149E-15
 -1      2386 1.75776E+01 2.72615E-01 7.92305E-03-1.04131E+00 6.19903E-15 2.28083E-14
 -1      2387 1.81558E+01 4.13588E-01-4.99586E-03-1.09165E+00 6.48415E-14 8.15285E-14
 -1      2388 1.81265E+01 3.47641E-02-1.59474E-03-1.23616E+00 4.41879E-14 3.05116E-15
 -1      2389 1.79158E+01 1.12999E-01 5.09172E-03-1.20550E+00 1.87806E-14-6.82614E-15
 -1      2390 1.84302E+01 2.06130E-01-1.69052E-03-1.32460E+00 1.16418E-14-8.31084E-15
 -1      2391 1.84986E+01-9.26816E-02-1.93466E-03-1.21222E+00 4.57418E-14 3.67002E-14
 -1      2392 1.82831E+01-3.24508E-02 1.61688E-03-1.23546E+00 6.12963E-14 3.84345E-14
 -1      2393 1.87350E+01 6.02259E-03 8.43163E-04-1.39751E+00 2.62565E-14 5.90504E-14
 -1      2394 1.88389E+01-1.75511E-01-1.57812E-03-1.09696E+00 1.38988E-14 6.22146E-14
 -1      2395 1.86367E+01-1.39505E-01-1.59418E-03-1.15764E+00 4.44570E-14 4.11256E-14
 -1      2396 1.90240E+01-1.50638E-01 2.21305E-03-1.33619E+00 4.34076E-14 6.98569E-14
 -1      2397 1.91274E+01-2.13011E-01-9.76172E-04-9.30716E-01-9.01394E-14 8.72376E-14
 -1      2398 1.89498E+01-1.99896E-01-3.91685E-03-1.01081E+00-1.97661E-14 7.75113E-14
 -1      2399 1.92704E+01-2.47365E-01 2.57848E-03-1.18464E+00-2.32687E-14 1.79786E-13
 -1      2400 1.93588E+01-2.14497E-01-4.21752E-04-7.48861E-01-5.56813E-14-2.15425E-14
 -1      2401 1.92109E+01-2.18529E-01-5.15520E-03-8.33236E-01-1.22700E-13 2.57965E-14
 -1      2402 1.94654E+01-2.86351E-01 2.34373E-03-9.88719E-01-7.66458E-14 9.26749E-14
 -1      2403 1.95372E+01-1.92968E-01-4.42905E-05-5.76354E-01 8.53224E-15 7.53197E-15
 -1      2404 1.94191E+01-2.07223E-01-5.44279E-03-6.54691E-01 3.50066E-14-2.09198E-15
 -1      2405 1.96125E+01-2.81217E-01 1.87541E-03-7.85377E-01-1.11147E-15 1.76314E-14
 -1      2406 1.96709E+01-1.60427E-01 1.50471E-04-4.27149E-01-3.78177E-14-5.36005E-14
 -1      2407 1.95799E+01-1.78943E-01-5.06984E-03-4.93940E-01-3.08041E-14-2.24209E-14
 -1      2408 1.97203E+01-2.49013E-01 1.40548E-03-5.98694E-01 8.48594E-15 5.93868E-14
 -1      2409 1.97691E+01-1.25651E-01 2.10855E-04-3.06404E-01-5.51384E-14-1.02568E-13
 -1      2410 1.97011E+01-1.44305E-01-4.33967E-03-3.59874E-01-1.02647E-14-7.55888E-14
 -1      2411 1.97983E+01-2.04773E-01 1.03048E-03-4.40772E-01-1.42080E-14-6.24270E-14
 -1      2412 1.98402E+01-9.38714E-02 1.94165E-04-2.13538E-01-1.40894E-13-4.04035E-14
 -1      2413 1.97906E+01-1.10359E-01-3.49093E-03-2.54291E-01-1.10622E-13-8.96956E-14
 -1      2414 1.98548E+01-1.59131E-01 7.61019E-04-3.14916E-01-9.05899E-14-1.27987E-13
 -1      2415 1.98910E+01-6.74666E-02 1.45532E-04-1.44952E-01-1.55036E-13 5.03871E-14
 -1      2416 1.98557E+01-8.08652E-02-2.67595E-03-1.74800E-01-1.84476E-13-1.03509E-14
 -1      2417 1.98959E+01-1.18200E-01 5.74910E-04-2.19111E-01-1.97328E-13-7.01784E-14
 -1      2418 1.99270E+01-4.69330E-02 9.24700E-05-9.59524E-02-8.16109E-14 1.67172E-13
 -1      2419 1.99024E+01-5.71849E-02-1.97295E-03-1.17102E-01-4.61481E-14 1.51617E-13
 -1      2420 1.99259E+01-8.45894E-02 4.45091E-04-1.48803E-01-1.56706E-13-1.70134E-14
 -1      2421 1.99522E+01-3.17372E-02 4.81875E-05-6.19129E-02 3.97494E-14 1.52056E-13
 -1      2422 1.99354E+01-3.92293E-02-1.40838E-03-7.64802E-02-3.85707E-14 1.79265E-13
 -1      2423 1.99480E+01-5.86569E-02 3.50319E-04-9.87312E-02-7.06342E-14 8.76371E-15
 -1      2424 1.99697E+01-2.09200E-02 1.66824E-05-3.88334E-02-3.13016E-14 2.34044E-13
 -1      2425 1.99584E+01-2.61992E-02-9.77984E-04-4.86193E-02 7.17368E-15 2.32868E-13
 -1      2426 1.99641E+01-3.95696E-02 2.77152E-04-6.39615E-02-3.70515E-14 1.37969E-13
 -1      2427 1.99816E+01-1.34581E-02-2.86580E-06-2.35249E-02-9.45370E-16 2.68718E-13
 -1      2428 1.99742E+01-1.70685E-02-6.62783E-04-2.99488E-02 2.06729E-14 2.72527E-13
 -1      2429 1.99758E+01-2.60334E-02 2.18212E-04-4.03424E-02-7.47272E-15 2.89007E-13
 -1      2430 1.99895E+01-8.44352E-03-1.31590E-05-1.35822E-02-9.89965E-14 3.52173E-13
 -1      2431 1.99848E+01-1.08512E-02-4.39211E-04-1.77046E-02-1.77877E-14 2.96290E-13
 -1      2432 1.99843E+01-1.67198E-02 1.69800E-04-2.46152E-02-3.01869E-14 3.22276E-13
 -1      2433 1.99948E+01-5.14814E-03-1.71528E-05-7.26447E-03-3.66013E-14 4.04460E-13
 -1      2434 1.99918E+01-6.71904E-03-2.84743E-04-9.84626E-03-6.54416E-14 3.41603E-13
 -1      2435 1.99902E+01-1.04715E-02 1.30046E-04-1.43432E-02-9.65520E-14 3.38157E-13
 -1      2436 1.99981E+01-3.02544E-03-1.73319E-05-3.35020E-03 1.59707E-13 2.26802E-13
 -1      2437 1.99963E+01-4.02997E-03-1.80355E-04-4.92060E-03 6.60051E-14 3.00866E-13
 -1      2438 1.99943E+01-6.36980E-03 9.78044E-05-7.76933E-03 8.09595E-14 2.16145E-13
 -1      2439 2.00001E+01-1.68400E-03-1.55080E-05-1.00317E-03 9.77907E-14 2.91205E-13
 -1      2440 1.99991E+01-2.31371E-03-1.11160E-04-1.92138E-03 1.77343E-13 2.90434E-13
 -1      2441 1.99971E+01-3.72961E-03 7.21332E-05-3.66094E-03 1.37946E-13 2.37521E-13
 -1      2442 2.00012E+01-8.53240E-04-1.28683E-05 3.38199E-04 5.04198E-14 1.66733E-13
 -1      2443 2.00007E+01-1.23939E-03-6.60978E-05-1.66860E-04 1.17891E-13 2.70437E-13
 -1      2444 1.99989E+01-2.06215E-03 5.21107E-05-1.17194E-03 1.67426E-13 8.42191E-14
 -1      2445 2.00017E+01-3.51091E-04-1.01155E-05 1.04531E-03 1.38295E-13 1.01636E-13
 -1      2446 2.00016E+01-5.81404E-04-3.72609E-05 7.96827E-04 2.71297E-14 1.34451E-13
 -1      2447 2.00000E+01-1.03037E-03 3.68172E-05 2.68841E-04 7.33180E-14 7.48035E-14
 -1      2448 2.00019E+01-5.75739E-05-7.61530E-06 1.36076E-03 2.76100E-13 1.78492E-13
 -1      2449 2.00019E+01-1.89534E-04-1.91588E-05 1.26764E-03 2.87449E-13 1.62281E-13
 -1      2450 2.00006E+01-4.07713E-04 2.53734E-05 1.04189E-03 1.28602E-13 8.62169E-14
 -1      2451 2.00019E+01 1.05148E-04-5.51995E-06 1.44136E-03 1.81965E-13 1.73308E-13
 -1      2452 2.00020E+01 3.44218E-05-8.06337E-06 1.43893E-03 3.37177E-13 1.51449E-13
 -1      2453 2.00009E+01-4.49311E-05 1.69815E-05 1.39796E-03 2.38547E-13 1.77485E-13
 -1      2454 2.00017E+01 1.86998E-04-3.85790E-06 1.38744E-03-1.32465E-13 2.02077E-13
 -1      2455 2.00019E+01 1.53796E-04-1.48584E-06 1.43486E-03-5.00303E-14 2.24890E-13
 -1      2456 2.00010E+01 1.54860E-04 1.09517E-05 1.50081E-03 3.51850E-14 1.34532E-13
 -1      2457 2.00015E+01 2.19746E-04-2.59393E-06 1.26245E-03-1.65390E-13 3.84161E-14
 -1      2458 2.00017E+01 2.09039E-04 2.21367E-06 1.33428E-03-7.41951E-14 1.16455E-13
 -1      2459 2.00010E+01 2.53871E-04 6.71100E-06 1.45639E-03-3.15314E-14-2.17331E-14
 -1      2460 2.00012E+01 2.23497E-04-1.66610E-06 1.10588E-03-2.05349E-13 4.30814E-14
 -1      2461 2.00014E+01 2.25814E-04 4.10562E-06 1.18659E-03-1.90654E-13 3.91800E-15
 -1      2462 2.00009E+01 2.91748E-04 3.79855E-06 1.33252E-03-1.71858E-13-8.40974E-14
 -1      2463 2.00010E+01 2.10920E-04-1.00674E-06 9.41722E-04-1.50274E-13-7.79772E-14
 -1      2464 2.00012E+01 2.20324E-04 4.88389E-06 1.02214E-03-7.26791E-14 2.22708E-14
 -1      2465 2.00008E+01 2.93626E-04 1.85392E-06 1.17194E-03-1.38406E-13-1.09013E-13
 -1      2466 2.00008E+01 1.89950E-04-5.53083E-07 7.83960E-04-8.97026E-15-1.39618E-13
 -1      2467 2.00009E+01 2.02751E-04 4.99577E-06 8.58938E-04-1.85160E-13-5.80118E-14
 -1      2468 2.00006E+01 2.75364E-04 6.01334E-07 1.00097E-03-1.45367E-13-3.51103E-14
 -1      2469 2.00006E+01 1.65513E-04-2.51724E-07 6.40145E-04 1.37786E-13-3.25947E-13
 -1      2470 2.00007E+01 1.79445E-04 4.72792E-06 7.07106E-04 1.36233E-13-2.25312E-13
 -1      2471 2.00005E+01 2.46905E-04-1.66088E-07 8.35169E-04 9.55004E-14-1.13986E-13
 -1      2472 2.00004E+01 1.40605E-04-5.95547E-08 5.13746E-04-2.01050E-14-2.96521E-13
 -1      2473 2.00005E+01 1.54315E-04 4.26251E-06 5.71713E-04 1.01040E-13-3.01525E-13
 -1      2474 2.00004E+01 2.14415E-04-6.00867E-07 6.83140E-04 9.83308E-14-1.22721E-13
 -1      2475 2.00003E+01 1.16990E-04 5.70065E-08 4.05678E-04-1.85731E-13-3.34987E-13
 -1      2476 2.00004E+01 1.29702E-04 3.71374E-06 4.54652E-04-2.55607E-13-3.36191E-13
 -1      2477 2.00002E+01 1.81642E-04-8.13561E-07 5.48972E-04-1.88314E-13-2.04406E-13
 -1      2478 2.00001E+01 9.56409E-05 1.23443E-07 3.15306E-04-2.54341E-14-2.01319E-13
 -1      2479 2.00002E+01 1.06951E-04 3.15140E-06 3.55863E-04-2.19001E-14-2.63522E-13
 -1      2480 2.00001E+01 1.50777E-04-8.82876E-07 4.33918E-04-2.48125E-13-4.32427E-14
 -1      2481 2.00001E+01 7.70333E-05 1.58387E-07 2.41107E-04 1.38254E-13-2.00899E-13
 -1      2482 2.00001E+01 8.67643E-05 2.61621E-06 2.74138E-04 1.70902E-15-1.80034E-13
 -1      2483 2.00001E+01 1.23021E-04-8.63760E-07 3.37482E-04-2.22402E-14-4.79470E-14
 -1      2484 2.00000E+01 6.13385E-05 1.76387E-07 1.81099E-04 7.08099E-14-2.97062E-14
 -1      2485 2.00000E+01 6.94497E-05 2.12944E-06 2.07642E-04 1.51706E-13-9.37846E-14
 -1      2486 2.00000E+01 9.89449E-05-7.93808E-07 2.58157E-04 6.49213E-14 3.86806E-14
 -1      2487 1.99999E+01 4.85451E-05 1.86972E-07 1.33103E-04 1.39916E-13 8.88553E-14
 -1      2488 2.00000E+01 5.50859E-05 1.70275E-06 1.54243E-04 1.14970E-13-2.61396E-14
 -1      2489 1.99999E+01 7.87442E-05-6.95590E-07 1.93903E-04-7.22886E-15 1.11392E-13
 -1      2490 1.99999E+01 3.84714E-05 1.78726E-07 9.49329E-05-3.22697E-13 1.81055E-13
 -1      2491 1.99999E+01 4.35772E-05 1.33727E-06 1.11723E-04-9.48820E-14 8.08539E-14
 -1      2492 1.99999E+01 6.23112E-05-6.08424E-07 1.42462E-04-2.13672E-14-6.31323E-15
 -1      2493 1.99999E+01 3.09078E-05 1.87228E-07 6.46411E-05-1.59010E-13 2.01987E-13
 -1      2494 1.99999E+01 3.47130E-05 1.03931E-06 7.80064E-05-1.19149E-13 1.87112E-13
 -1      2495 1.99999E+01 4.93364E-05-5.57727E-07 1.01546E-04-2.43840E-13 1.16365E-13
 -1      2496 1.99998E+01 2.53785E-05 3.01383E-07 4.06398E-05 4.18890E-13 2.43919E-14
 -1      2497 1.99998E+01 2.81708E-05 8.40939E-07 5.10913E-05 7.72329E-14 1.01663E-13
 -1      2498 1.99998E+01 3.96548E-05-4.47942E-07 6.90454E-05 1.44210E-13 1.82400E-13
 -1      2499 1.99998E+01 1.01741E-04-5.18185E-07 4.71862E-05-2.66726E-13 4.62496E-14
 -1      2500 1.99998E+01 9.27059E-05 2.06089E-07 5.04091E-05-1.38007E-13-3.87421E-13
 -1      2501 1.99998E+01 8.03270E-05-4.05074E-07 5.23708E-05-1.87282E-13-3.28001E-13
 -1      2502 1.99998E+01 7.04371E-05 3.71088E-07 5.15302E-05 5.11914E-14-2.36759E-13
 -1      2503 1.99998E+01 9.50219E-05 2.75006E-07 6.12818E-05-9.63869E-14-3.52584E-13
 -1      2504 1.99998E+01 5.70732E-05-2.99982E-07 4.92796E-05 1.67342E-13-1.06522E-13
 -1      2505 1.99998E+01 4.67881E-05 3.35946E-07 4.48378E-05 2.06528E-13-1.10436E-13
 -1      2506 1.99998E+01 7.01462E-05-2.00823E-07 6.06722E-05 7.28533E-14-3.73822E-13
 -1      2507 2.10027E+01-4.22116E+00-1.40722E-02 8.80083E+00 2.92544E-14-1.75693E-14
 -1      2508 1.63077E+01-4.37690E+00 7.08239E-02 8.97184E+00 3.31402E-14 5.95149E-14
 -1      2509 1.99998E+01 1.18632E-04-5.26571E-07 3.43419E-05-3.92022E-13-3.38710E-13
 -1      2510 1.99998E+01 1.11840E-04 1.60674E-08 4.08750E-05-4.93279E-13 2.09639E-14
 -1      2511 1.99998E+01 1.16651E-04 3.77634E-07 5.20433E-05-2.71953E-13-1.74540E-13
 -1      2512 1.99998E+01 1.28784E-04-4.65646E-07 1.60318E-05-3.84019E-13-1.63619E-13
 -1      2513 1.99998E+01 1.25159E-04-1.79472E-07 2.47563E-05-4.44578E-13-2.81400E-13
 -1      2514 1.99998E+01 1.32655E-04 4.85020E-07 3.47729E-05-3.33563E-13-2.88716E-13
 -1      2515 1.99998E+01 1.30939E-04-3.43997E-07-4.78954E-06-4.94166E-13 2.46726E-13
 -1      2516 1.99998E+01 1.30975E-04-3.49669E-07 4.69158E-06-4.27983E-13 1.07893E-13
 -1      2517 1.99998E+01 1.41042E-04 5.40173E-07 1.21363E-05-3.40506E-13-8.01271E-14
 -1      2518 1.99998E+01 1.24852E-04-1.79377E-07-2.48107E-05-2.63076E-13-6.88911E-14
 -1      2519 1.99998E+01 1.28555E-04-4.66773E-07-1.61131E-05-3.75100E-13 2.51087E-13
 -1      2520 1.99998E+01 1.40846E-04 5.34524E-07-1.23427E-05-3.13076E-13 3.72078E-13
 -1      2521 1.99998E+01 1.11635E-04 1.53055E-08-4.06221E-05 1.72616E-13-2.38146E-13
 -1      2522 1.99998E+01 1.18316E-04-5.24054E-07-3.42034E-05 7.36801E-14-4.19996E-13
 -1      2523 1.99998E+01 1.32228E-04 4.81900E-07-3.47376E-05-5.46050E-14 2.88867E-14
 -1      2524 1.99998E+01 9.24905E-05 2.06319E-07-5.02031E-05 8.59646E-14 2.74616E-13
 -1      2525 1.99998E+01 1.01518E-04-5.12367E-07-4.69333E-05 1.63998E-13-1.46736E-13
 -1      2526 1.99998E+01 1.16196E-04 3.64348E-07-5.18053E-05 4.20389E-13-2.36745E-13
 -1      2527 1.99998E+01 6.99412E-05 3.64373E-07-5.16838E-05-1.46720E-14 2.65759E-13
 -1      2528 1.99998E+01 8.00469E-05-4.34990E-07-5.22319E-05-8.79925E-14 2.59378E-13
 -1      2529 1.99998E+01 9.44593E-05 2.34974E-07-6.09762E-05 1.87088E-13 8.32198E-14
 -1      2530 1.99998E+01 4.60878E-05 1.69626E-07-4.49379E-05-1.53785E-13 2.76206E-13
 -1      2531 1.99998E+01 5.65484E-05-2.96660E-07-4.89615E-05-2.11812E-13 3.67702E-13
 -1      2532 1.99998E+01 6.96744E-05 2.17772E-07-6.06725E-05-1.06892E-13 1.60997E-13
 -1      2533 1.72187E+01 5.18649E-01 8.72976E-03-8.93142E-02 9.38802E-14 1.12047E-13
 -1      2534 1.72554E+01 5.25935E-01 9.22094E-03 1.24250E-01 1.03759E-13 1.14150E-13
 -1      2535 1.80399E+01 7.06576E-01-9.46208E-03 3.33945E-01 1.16439E-13 1.21927E-13
 -1      2536 1.58810E+01 4.78460E+00 5.20114E-02 9.87259E-01-8.09691E-14 8.24341E-14
 -1      2537 1.57577E+01 3.84500E+00 1.48691E-01 2.77573E+00-1.49325E-14 6.01463E-14
 -1      2538 1.16984E+01 4.09927E+00 1.95183E-01 2.22157E+00-3.01009E-14-5.88141E-14
 -1      2539 1.32785E+01 5.54952E+00 5.61249E-02 1.45050E-03-1.18742E-13 1.08732E-14
 -1      2540 3.49682E+01-4.29280E+00 1.35073E-01-9.89984E-01-4.76286E-14 2.17687E-13
 -1      2541 1.80629E+01-3.85652E+00 4.10807E-03-6.34381E+00 1.65978E-14 2.93182E-13
 -1      2542 2.27959E+01-3.17329E+00 7.45498E-02-5.79415E+00 1.40166E-13 1.42650E-13
 -1      2543 2.15855E+01-8.60536E-01 2.31716E-01-6.47735E+00 1.27481E-13 9.96148E-14
 -1      2544 1.31988E+01-2.99819E+00 7.99584E-02-5.94765E+00 1.10467E-13 3.20965E-13
 -1      2545 1.99998E+01 3.62500E-05-2.77314E-07 4.34279E-05 3.12967E-13-3.71939E-14
 -1      2546 1.17304E+01-3.60123E+00 3.44789E-02 9.09961E+00 5.88973E-14 3.17413E-13
 -1      2547 8.40359E+00-3.09106E+00 1.23534E-01 7.96619E+00-8.43769E-15 3.91076E-13
 -1      2548 3.66624E+01 9.48166E+00-1.65542E-01 3.80751E-01 2.30760E-13 7.49817E-14
 -1      2549 3.69070E+01 9.60225E+00-1.44566E-01 1.35287E-01 2.67675E-13-6.31439E-16
 -1      2550 2.29749E+01 1.43740E+00-1.38510E-02-2.14195E+00-1.57143E-13 1.75623E-14
 -1      2551 2.20883E+01 1.56774E+00 1.39481E-02-2.93662E+00-1.83125E-13 3.65194E-14
 -1      2552 2.21182E+01 7.65003E-01-1.43958E-02-3.68264E+00-2.03934E-13 5.65208E-14
 -1      2553 2.39497E+01 8.63308E-01-6.34342E-03-1.56177E+00-1.41102E-13 4.17843E-14
 -1      2554 3.66593E+01 5.42168E+00-1.38008E-01 3.54142E-01 1.69170E-13-1.20820E-13
 -1      2555 3.52208E+01 3.41030E+00-8.02653E-02 8.36922E-01 1.22541E-13-1.39777E-13
 -1      2556 3.67066E+01 8.49231E+00-1.94728E-01-2.64929E-01 2.41474E-13-5.78565E-14
 -1      2557 3.68191E+01 7.18877E+00-1.30798E-01-7.85623E-02 1.96898E-13-7.60503E-14
 -1      2558 3.43123E+01 5.90646E+00-3.93850E-02-9.48301E-01 1.25872E-13-7.68274E-14
 -1      2559 3.62902E+01 7.30074E+00-1.14248E-01 6.33915E-01 1.64535E-13 7.94642E-14
 -1      2560 3.65141E+01 8.38935E+00-1.98394E-01 6.70167E-01 1.89238E-13 6.12010E-14
 -1      2561 2.39790E+00-1.07739E+00 1.44061E-01 1.68348E+00 2.77556E-13 5.27967E-13
 -1      2562 2.55854E+00-1.63499E+00 9.58890E-02-7.16231E-01 2.19075E-13 5.99132E-13
 -1      2563 3.47505E+01 3.05220E+00-5.81197E-02-1.32878E+00 1.33782E-13 1.38334E-13
 -1      2564 3.59831E+01 5.04573E+00-1.88275E-01-9.81601E-02 1.36280E-13 1.17156E-13
 -1      2565 2.30755E+01-2.48698E+00 3.37854E-02-7.71150E+00-3.46945E-14 4.82531E-14
 -1      2566 2.71024E+01-1.85679E+00-7.55398E-02-6.69683E+00 3.09475E-14 1.04750E-13
 -1      2567 1.42230E+01-2.41610E+00 5.05634E-02-9.10439E+00-1.03917E-13-9.26273E-14
 -1      2568 1.83890E+01-2.38196E+00-1.69358E-02-9.19139E+00-7.81042E-14-4.91343E-14
 -1      2569 7.05090E+00-1.27739E+00 1.00160E-01-8.00222E+00-1.44607E-13-1.65090E-13
 -1      2570 1.03986E+01-1.71389E+00 5.53195E-02-9.13434E+00-1.05749E-13-1.31645E-13
 -1      2571 1.38736E+01-1.40506E+00 1.15438E-01-9.12486E+00-1.82965E-13-7.95197E-14
 -1      2572 2.79166E+00 2.46787E-01 1.86927E-01-4.38024E+00-1.29383E-13-2.42251E-13
 -1      2573 4.22161E+00-2.25344E-01 1.05604E-01-6.53476E+00-1.30562E-13-2.10110E-13
 -1      2574 3.42753E+00-3.82108E-01 1.45572E-01 1.01737E+00-3.72341E-14-2.49800E-13
 -1      2575 2.37895E+00 3.69736E-01 1.02069E-01-1.54371E+00-6.51285E-14-2.54963E-13
 -1      2576 5.16018E+00-2.21791E+00 1.02208E-01 6.60266E+00 1.04056E-13 3.57048E-13
 -1      2577 3.34749E+00-1.55272E+00 1.60995E-01 4.49247E+00 1.64271E-13 3.68761E-13
 -1      2578 3.03492E+01-6.40019E-01-2.45624E-02-4.54970E+00 8.40439E-14 1.39777E-13
 -1      2579 3.30655E+01 7.58688E-01-1.43158E-01-3.23198E+00 1.11400E-13 1.40221E-13
 -1      2580 2.84737E+01-2.93889E+00-7.64526E-02 6.37283E+00 8.23508E-14-9.59788E-14
 -1      2581 2.50859E+01-3.87257E+00 9.55024E-03 7.24366E+00 3.34732E-14-6.03129E-14
 -1      2582 4.63962E+00-1.86375E+00 9.24288E-02-2.91775E+00 2.21184E-13 4.31266E-13
 -1      2583 8.30744E+00-2.35992E+00 6.86447E-02-5.12122E+00 1.77358E-13 3.34399E-13
 -1      2584 1.39252E+01 3.39851E+00 6.78343E-02-6.01593E+00-2.80866E-13-4.27991E-14
 -1      2585 1.31105E+01 4.72031E+00 1.15222E-01-5.04332E+00-2.62190E-13-5.52856E-14
 -1      2586 1.17612E+01 5.25066E+00-3.99583E-03-4.34987E+00-2.47288E-13-5.14727E-14
 -1      2587 7.32747E+00 5.03601E-01 1.43723E-01-7.36675E+00-1.99674E-13-1.77025E-13
 -1      2588 1.82513E+01 6.53903E-01 9.82634E-03 1.69169E+00 1.08066E-13 1.90652E-13
 -1      2589 1.86510E+01 9.10058E-01 8.48149E-03 1.95415E+00 1.15945E-13 1.63407E-13
 -1      2590 1.80207E+01 5.72352E-01 9.98668E-03 1.48447E+00 1.11067E-13 1.91883E-13
 -1      2591 3.35248E+01 1.27394E+00-2.42391E-02 6.62809E-01 5.97578E-14-1.57929E-13
 -1      2592 1.29257E+01-1.18370E+00 1.38412E-01-5.87456E+00 2.19852E-13 3.84859E-13
 -1      2593 1.33464E+01 1.67757E-01 1.27099E-01 5.27246E+00 9.59788E-14-5.83700E-14
 -1      2594 9.01982E+00-1.42454E+00 9.41497E-02 4.65931E+00 5.96190E-14-1.85019E-13
 -1      2595 1.64952E+01-6.28486E-02 1.21360E-01-6.44430E+00 1.81910E-13 3.43475E-13
 -1      2596 1.65237E+01 2.17967E+00 1.12522E-01-5.17477E+00 2.01367E-13 4.09610E-13
 -1      2597 1.58806E+01-3.61401E+00 1.29106E-01 8.87132E+00-4.62685E-14 5.89390E-14
 -1      2598 1.99998E+01 1.69290E-05 5.68172E-07-2.76759E-05-2.81983E-13 4.14513E-13
 -1      2599 1.99998E+01 1.51073E-05 2.46162E-07-2.01612E-05-1.56569E-13 4.42787E-13
 -1      2600 1.99998E+01 4.73922E-05 3.33682E-07 5.68135E-05 3.61171E-13-1.72553E-13
 -1      2601 8.39082E+00-1.62511E+00 1.47260E-01 7.30566E+00 2.46470E-14 3.76033E-13
 -1      2602 1.79217E+01 6.80878E-01-9.76293E-03-2.10024E-01 1.07456E-13 1.14091E-13
 -1      2603 2.40040E+01-4.42264E+00 8.32025E-02 7.46669E+00-1.06165E-13-1.21431E-13
 -1      2604 1.99998E+01 2.12703E-05-9.86220E-08-2.47889E-05-5.26322E-14 1.83009E-13
 -1      2605 1.99998E+01 2.99036E-05 2.49349E-07-3.20611E-05-2.12279E-13 9.94896E-14
 -1      2606 1.99998E+01 3.93054E-05 1.02091E-07-4.50483E-05-2.99832E-13 1.76405E-13
 -1      2607 1.78767E+01 5.25327E-01 1.39618E-02 1.19280E+00 8.69287E-14 1.57385E-13
 -1      2608 1.80086E+01 5.49488E-01 1.34704E-02 1.35781E+00 9.95783E-14 1.85151E-13
 -1      2609 1.84604E+01 6.99133E-01-4.28205E-03 1.56205E+00 1.08276E-13 1.63550E-13
 -1      2610 1.84658E+01 6.95135E-01-6.78752E-03 1.28498E+00 9.98509E-14 1.71212E-13
 -1      2611 2.18881E+01-2.48155E+00 8.88003E-02-8.01089E+00-1.41331E-13 5.52822E-14
 -1      2612 3.43250E+01 8.81678E+00-8.81267E-02-4.29672E-01 2.39475E-13-2.06085E-15
 -1      2613 5.91971E+00 7.46849E-02 1.79693E-01-2.35307E+00 3.23838E-13 4.77063E-13
 -1      2614 3.01348E+01-2.83189E+00 3.26664E-02 4.22937E+00 1.02279E-14-2.13274E-13
 -1      2615 2.90019E+01-1.70242E+00 4.73394E-02-4.61254E+00-2.67009E-14 1.50102E-13
 -1      2616 5.30663E+00-1.08019E+00 7.93597E-02 2.67795E+00 1.32117E-14-2.30538E-13
 -1      2617 6.59560E+00 1.36643E+00 1.54464E-01 2.09954E+00-1.09079E-14-2.14939E-13
 -1      2618 1.12741E+01 5.81665E+00 8.38527E-02-2.94704E+00-2.03080E-13-5.08829E-14
 -1      2619 1.17870E+01 5.78534E+00 1.59442E-02-1.75002E+00-1.71400E-13-2.05946E-14
 -1      2620 1.10866E+01 5.40599E+00 1.43825E-01-8.99109E-01-1.35646E-13-5.38042E-14
 -1      2621 1.05983E+01 5.05375E+00 1.16791E-01-4.17618E+00-2.31981E-13-8.30169E-14
 -1      2622 3.42505E+01 8.85336E+00-1.00224E-01 9.25854E-01 2.08555E-13 6.78763E-14
 -1      2623 3.98990E+00-3.34425E-01 1.81378E-01 2.93933E+00 2.08833E-13 4.15445E-13
 -1      2624 4.95784E+00 1.25932E+00 1.69494E-01 1.21460E+00 3.05394E-13 4.58245E-13
 -1      2625 5.90658E+00 6.87684E-01 1.82904E-01 3.91608E+00 1.64119E-13 2.58238E-13
 -1      2626 3.42579E+01 5.72786E+00-6.51312E-02 1.05780E+00 1.20542E-13 1.25899E-13
 -1      2627 4.37264E+00 1.90107E+00 1.84712E-01-2.75987E+00-1.26725E-13-2.27651E-13
 -1      2628 3.30836E+01 1.48607E+00-5.79244E-03-1.01025E+00 8.24896E-14 1.70891E-13
 -1      2629 1.00309E+01 1.86681E+00 2.96725E-01 3.71655E+00 2.71033E-14-1.39971E-13
 -1      2630 1.99998E+01 2.44294E-05-2.81943E-07-4.13668E-05-5.09686E-13 1.23512E-13
 -1      2631 2.39013E+01 1.80964E+00-3.44610E-02 1.60119E+00-2.49634E-14 4.57186E-14
 -1      2632 2.43886E+01 1.60071E+00-1.72749E-06 1.22539E+00-5.84289E-14 4.49619E-14
 -1      2633 2.48008E+01 1.17989E+00-4.30342E-02 7.40424E-01-8.21812E-14 1.80869E-14
 -1      2634 2.50647E+01 9.17903E-01 1.02278E-02 8.96481E-02-1.02552E-13 3.94259E-14
 -1      2635 2.50788E+01 1.31058E+00 2.81338E-02 1.28112E+00-5.52492E-14 4.50126E-14
 -1      2636 2.16940E+01 2.17812E+00-2.07643E-02 2.34110E+00 4.43863E-14 1.47261E-14
 -1      2637 2.22619E+01 2.18728E+00-1.09794E-02 2.20056E+00 3.00566E-14 9.47896E-15
 -1      2638 2.05977E+01 1.93508E+00-2.14681E-02 2.44666E+00 7.14643E-14 4.06216E-14
 -1      2639 2.11460E+01 2.08236E+00-8.95022E-03 2.37924E+00 5.26113E-14 3.25599E-14
 -1      2640 2.15140E+01 1.93385E+00 1.65767E-02 2.28447E+00 4.86097E-14 3.62930E-14
 -1      2641 1.90566E+01 1.08530E+00 1.48658E-03 2.12552E+00 9.54618E-14 1.26777E-13
 -1      2642 1.93479E+01 1.35013E+00-7.96421E-03 2.30065E+00 9.65460E-14 7.95794E-14
 -1      2643 1.89048E+01 9.53832E-01 8.74943E-03 1.87910E+00 9.65339E-14 1.28678E-13
 -1      2644 1.99998E+01 4.24471E-05 5.16279E-07-5.61640E-05-5.31505E-13 2.82730E-13
 -1      2645 1.21829E+01 9.23346E-01 2.28142E-01-5.22235E+00 2.60139E-13 4.58605E-13
 -1      2646 1.76179E+01 2.27208E+00 5.79186E-03-2.11314E+00-3.08694E-14 3.26243E-13
 -1      2647 1.80292E+01 1.90783E+00-3.02020E-02-1.67288E+00-1.23405E-13 2.42153E-13
 -1      2648 1.87656E+01 1.57670E+00 4.20914E-03-1.43398E+00-1.46497E-13 1.92691E-13
 -1      2649 1.89587E+01 1.26780E+00-2.19061E-02-1.10325E+00-1.68901E-13 1.95090E-13
 -1      2650 1.76897E+01 2.09859E+00 5.78558E-02-1.10348E+00-1.91057E-13 3.11604E-13
 -1      2651 1.93819E+01 1.01640E+00 5.65476E-03-9.20918E-01-1.24296E-13 2.22425E-13
 -1      2652 1.94594E+01 7.96230E-01-1.37858E-02-6.92258E-01-1.41762E-13 3.34775E-13
 -1      2653 1.87305E+01 1.39671E+00 3.14299E-02-7.72529E-01-1.25443E-13 3.25889E-13
 -1      2654 1.96958E+01 6.26149E-01 5.73020E-03-5.62437E-01-1.36367E-13 2.99795E-13
 -1      2655 1.97206E+01 4.81135E-01-8.21988E-03-4.13573E-01-8.77618E-14 3.16248E-13
 -1      2656 1.93133E+01 8.82028E-01 1.73026E-02-5.04792E-01-1.33698E-13 2.65977E-13
 -1      2657 1.98502E+01 3.72728E-01 4.67829E-03-3.26722E-01 1.82129E-14 2.75318E-13
 -1      2658 1.98543E+01 2.81539E-01-4.79513E-03-2.34236E-01 9.32947E-14 2.08902E-13
 -1      2659 1.96319E+01 5.35948E-01 9.41411E-03-3.09043E-01-2.40922E-14 2.06776E-13
 -1      2660 1.99244E+01 2.14959E-01 3.35380E-03-1.79268E-01-4.17121E-14 1.04821E-13
 -1      2661 1.99223E+01 1.59457E-01-2.74741E-03-1.24143E-01-1.26697E-13 1.82126E-14
 -1      2662 1.98035E+01 3.14923E-01 5.01611E-03-1.76685E-01-7.40465E-14 1.95390E-13
 -1      2663 1.99599E+01 1.19619E-01 2.18697E-03-9.11458E-02-1.56841E-13-1.44149E-13
 -1      2664 1.99570E+01 8.66502E-02-1.61429E-03-5.96298E-02-2.25482E-13-1.41467E-13
 -1      2665 1.98950E+01 1.78805E-01 2.64981E-03-9.28125E-02-2.07686E-13-1.39495E-13
 -1      2666 1.99777E+01 6.24716E-02 1.33101E-03-4.01412E-02-8.96251E-14-5.56248E-14
 -1      2667 1.99759E+01 4.30444E-02-8.99117E-04-2.26409E-02-8.59654E-14 6.22586E-14
 -1      2668 1.99445E+01 9.59823E-02 1.40455E-03-4.20423E-02-1.42259E-13-7.42171E-14
 -1      2669 1.99865E+01 3.04619E-02 7.70592E-04-1.33121E-02-9.95517E-14 1.22431E-13
 -1      2670 1.99858E+01 2.02185E-02-4.61642E-04-5.01341E-03 6.65355E-14 9.32688E-14
 -1      2671 1.99704E+01 4.80977E-02 6.65004E-04-1.41126E-02-1.24576E-14 3.72791E-14
 -1      2672 1.99915E+01 1.33402E-02 4.14282E-04-6.94404E-04-2.99666E-14 9.09921E-14
 -1      2673 1.99916E+01 7.90938E-03-2.43330E-04 2.95274E-03-7.90872E-14 6.21582E-16
 -1      2674 1.99839E+01 2.22415E-02 3.29908E-04-6.03669E-04-5.56135E-14 3.18635E-14
 -1      2675 1.99946E+01 4.38958E-03 2.00046E-04 4.44930E-03-3.75238E-16-7.32190E-14
 -1      2676 1.99951E+01 1.71409E-03-1.23764E-04 5.63157E-03 2.20655E-14-5.87362E-14
 -1      2677 1.99912E+01 8.39891E-03 1.67113E-04 5.12273E-03-1.09891E-13-1.04279E-13
 -1      2678 1.99968E+01 8.23909E-05 7.86832E-05 5.69145E-03 5.54164E-14-6.62245E-14
 -1      2679 1.99975E+01-1.06963E-03-5.94626E-05 5.67226E-03 1.98774E-13 2.39926E-14
 -1      2680 1.99953E+01 1.48419E-03 8.71542E-05 6.61959E-03 9.15551E-14-1.12920E-13
 -1      2681 1.99984E+01-1.68385E-03 1.49474E-05 5.10280E-03 1.64704E-13-8.34366E-14
 -1      2682 1.99990E+01-2.03554E-03-2.60888E-05 4.58716E-03 2.27481E-14-8.49694E-14
 -1      2683 1.99977E+01-1.56705E-03 4.80208E-05 6.05278E-03 1.35183E-13-3.65640E-14
 -1      2684 1.99995E+01-2.13586E-03-1.46510E-05 3.83073E-03-5.24814E-14-1.66612E-14
 -1      2685 2.00000E+01-2.10090E-03-9.60558E-06 3.18928E-03-7.52029E-14 2.51466E-14
 -1      2686 1.99991E+01-2.56685E-03 2.86866E-05 4.66807E-03 4.84398E-14-1.73304E-13
 -1      2687 2.00003E+01-1.97001E-03-2.51010E-05 2.46748E-03-3.52226E-14 1.07527E-13
 -1      2688 2.00007E+01-1.77666E-03-2.07997E-06 1.87707E-03 4.86775E-14 1.48163E-13
 -1      2689 1.99999E+01-2.55960E-03 1.87600E-05 3.13286E-03-1.54538E-14-5.30218E-14
 -1      2690 2.00008E+01-1.56643E-03-2.56400E-05 1.28380E-03 1.29683E-13 2.13194E-13
 -1      2691 2.00010E+01-1.33392E-03 8.85620E-07 8.13533E-04 1.16986E-13 3.05720E-13
 -1      2692 2.00004E+01-2.12652E-03 1.32228E-05 1.76673E-03 5.39873E-14 1.53197E-13
 -1      2693 2.00011E+01-1.12041E-03-2.17116E-05 3.73071E-04-5.11384E-14 1.36605E-13
 -1      2694 2.00012E+01-9.05500E-04 1.67391E-06 3.57215E-05-1.19736E-13-1.16463E-14
 -1      2695 2.00006E+01-1.57467E-03 9.73130E-06 6.90398E-04-1.10804E-13 1.20651E-13
 -1      2696 2.00012E+01-7.22115E-04-1.63475E-05-2.62247E-04-3.18074E-13-1.40622E-13
 -1      2697 2.00013E+01-5.47116E-04 1.53381E-06-4.80389E-04-4.39379E-13-2.10706E-13
 -1      2698 2.00007E+01-1.05293E-03 7.23985E-06-8.12654E-05-4.12489E-13-1.29406E-13
 -1      2699 2.00012E+01-4.04396E-04-1.11029E-05-6.60574E-04-2.77277E-13-3.18072E-13
 -1      2700 2.00012E+01-2.73645E-04 1.08641E-06-7.83132E-04-1.57544E-13-2.76763E-13
 -1      2701 2.00007E+01-6.22116E-04 5.30640E-06-5.83666E-04-3.31053E-13-3.19826E-13
 -1      2702 2.00012E+01-1.70708E-04-6.66681E-06-8.73634E-04-2.58333E-13-3.39997E-13
 -1      2703 2.00011E+01-8.00335E-05 6.40429E-07-9.25511E-04-1.43004E-13-3.83093E-13
 -1      2704 2.00007E+01-2.96600E-04 3.75374E-06-8.70732E-04-2.91260E-13-5.21184E-13
 -1      2705 2.00010E+01-1.12446E-05-3.28987E-06-9.52285E-04 4.38840E-14-3.76517E-13
 -1      2706 2.00009E+01 4.72362E-05 3.40486E-07-9.55838E-04 1.89161E-16-3.77742E-13
 -1      2707 2.00006E+01-6.83346E-05 2.49716E-06-9.98044E-04-1.62826E-14-5.20102E-13
 -1      2708 2.00009E+01 9.08366E-05-9.08507E-07-9.39171E-04-1.35754E-13-4.22844E-13
 -1      2709 2.00008E+01 1.25261E-04 9.03225E-08-9.09834E-04-1.92233E-13-2.95822E-13
 -1      2710 2.00006E+01 8.12122E-05 1.42842E-06-1.01370E-03-5.33020E-14-4.08807E-13
 -1      2711 2.00007E+01 1.46409E-04 8.38961E-07-8.68293E-04-1.46020E-13-2.69458E-13
 -1      2712 2.00006E+01 1.61115E-04-1.65215E-07-8.23186E-04-1.01624E-13-1.78115E-13
 -1      2713 2.00005E+01 1.68559E-04 7.56766E-07-9.56692E-04-5.08317E-14-3.19537E-13
 -1      2714 2.00006E+01 1.69400E-04 1.81169E-06-7.69522E-04-2.30905E-14-1.31208E-13
 -1      2715 2.00005E+01 1.72203E-04-2.62036E-07-7.17168E-04 9.82814E-14 1.23465E-14
 -1      2716 2.00004E+01 2.08230E-04 2.27504E-07-8.60727E-04 2.59598E-15-6.99658E-15
 -1      2717 2.00004E+01 1.71749E-04 2.27667E-06-6.59465E-04 1.75431E-13-1.28615E-13
 -1      2718 2.00003E+01 1.67246E-04-2.82248E-07-6.06219E-04 2.75864E-13-6.30139E-14
 -1      2719 2.00003E+01 2.18332E-04-1.37673E-07-7.46868E-04 1.22593E-13-1.25537E-14
 -1      2720 2.00003E+01 1.61537E-04 2.41486E-06-5.49855E-04 5.07855E-13-2.04317E-13
 -1      2721 2.00002E+01 1.52951E-04-2.68420E-07-4.99615E-04 3.39212E-13-2.19376E-13
 -1      2722 2.00002E+01 2.09701E-04-3.68609E-07-6.29509E-04 3.43964E-13-7.72351E-14
 -1      2723 2.00002E+01 1.44497E-04 2.34156E-06-4.47779E-04 1.56050E-13-6.94192E-14
 -1      2724 2.00001E+01 1.34077E-04-2.35112E-07-4.02691E-04 1.14461E-14-1.07490E-14
 -1      2725 2.00001E+01 1.90381E-04-4.98083E-07-5.17713E-04 2.26083E-13-2.24761E-13
 -1      2726 2.00001E+01 1.24595E-04 2.14259E-06-3.56994E-04 4.06763E-14 8.43310E-14
 -1      2727 2.00001E+01 1.13840E-04-1.92492E-07-3.17981E-04-4.92644E-14 3.70976E-13
 -1      2728 2.00000E+01 1.66030E-04-5.53100E-07-4.16610E-04 4.53340E-14-7.53577E-14
 -1      2729 2.00000E+01 1.04452E-04 1.87921E-06-2.78960E-04-2.65204E-13 4.06886E-13
 -1      2730 2.00000E+01 9.43063E-05-1.46728E-07-2.46132E-04 5.67060E-14 3.46812E-13
 -1      2731 2.00000E+01 1.40450E-04-5.55734E-07-3.28553E-04-1.56573E-13 3.52201E-13
 -1      2732 2.00000E+01 8.56999E-05 1.59296E-06-2.13625E-04 1.38316E-13 1.22983E-13
 -1      2733 1.99999E+01 7.67106E-05-1.03204E-07-1.86583E-04 3.36662E-13-2.66593E-13
 -1      2734 1.99999E+01 1.16060E-04-5.24324E-07-2.54035E-04-1.31630E-13 3.86407E-13
 -1      2735 1.99999E+01 6.92824E-05 1.31481E-06-1.60019E-04 6.07824E-13-4.12441E-13
 -1      2736 1.99999E+01 6.17612E-05-3.13758E-08-1.38099E-04 3.96970E-13-4.94847E-13
 -1      2737 1.99999E+01 9.42765E-05-4.73809E-07-1.92370E-04 2.84173E-13-1.83789E-13
 -1      2738 1.99999E+01 5.57001E-05 1.10992E-06-1.16529E-04 2.31635E-13-3.84316E-13
 -1      2739 1.99999E+01 4.97796E-05 1.68314E-07-9.90868E-05-3.18634E-14-1.32397E-13
 -1      2740 1.99999E+01 7.58597E-05-4.65128E-07-1.42235E-04 3.34463E-13-5.99003E-13
 -1      2741 1.99999E+01 4.87488E-05 8.26022E-07-8.33183E-05-4.37552E-13 9.59250E-14
 -1      2742 1.99998E+01 4.41147E-05 1.76084E-07-6.91104E-05-5.65154E-13 2.64273E-13
 -1      2743 1.99998E+01 5.87440E-05-5.80798E-07-7.15759E-05-5.56950E-13 5.14718E-14
 -1      2744 1.99998E+01 6.46748E-05-6.57441E-07-1.02725E-04-1.39103E-13-5.07488E-13
 -1      2745 1.89294E+01 9.72719E-01 7.09164E-03 8.77846E-01 1.14630E-13 1.23463E-13
 -1      2746 1.90977E+01 9.64603E-01 4.60783E-03 1.15684E+00 1.03234E-13 1.39291E-13
 -1      2747 1.99998E+01 6.42675E-05 1.04264E-07 7.22611E-05 3.16493E-13-4.81114E-13
 -1      2748 1.99998E+01 5.31919E-05 5.01113E-09 7.10402E-05 2.93113E-13-1.14760E-13
 -1      2749 1.99998E+01 5.90747E-05 7.64439E-07 8.61074E-05-6.91043E-15-1.55745E-13
 -1      2750 1.99998E+01 1.38663E-05 2.94500E-07-1.42490E-05 3.91129E-15 4.16210E-13
 -1      2751 2.01290E+01-1.79951E+00 1.51653E-01-7.98140E+00-2.20768E-13 3.70563E-14
 -1      2752 2.37193E+01-2.43666E+00-8.85204E-02-6.84503E+00-1.63924E-13 1.29226E-13
 -1      2753 1.88329E+01 5.03084E-01-3.54141E-03-1.26137E+00 7.35186E-14 7.49655E-14
 -1      2754 1.87326E+01 6.49665E-01 9.55199E-03-1.09758E+00 8.85506E-14 1.01824E-13
 -1      2755 1.86514E+01 7.71892E-01-3.84286E-04-8.65673E-01 9.66971E-14 1.01135E-13
 -1      2756 1.86041E+01 8.75079E-01 9.02428E-03-6.28481E-01 1.09928E-13 1.17637E-13
 -1      2757 1.92982E+01 8.83201E-01-5.55847E-03-1.05077E+00 1.03335E-13 8.35933E-14
 -1      2758 1.93309E+01-6.83824E-02-3.99476E-03-1.49979E+00-9.65211E-16 4.60665E-14
 -1      2759 1.91940E+01 6.15920E-02 4.51768E-03-1.50191E+00-2.36621E-14 2.02949E-14
 -1      2760 1.95446E+01-2.60670E-01-2.26584E-03-1.39037E+00 3.10895E-16 1.34711E-13
 -1      2761 1.94174E+01-1.73746E-01 9.22164E-04-1.45094E+00 3.53945E-14 6.81877E-14
 -1      2762 1.98730E+01-1.45657E-01 2.97374E-03-1.57126E+00-1.25479E-14 1.37921E-14
 -1      2763 1.97032E+01-3.64799E-01-4.43505E-04-1.19891E+00-5.02258E-14 1.56863E-13
 -1      2764 1.95950E+01-3.23029E-01-1.92970E-03-1.29278E+00-2.99589E-14 1.55500E-13
 -1      2765 1.99978E+01-3.57505E-01 2.83588E-03-1.41485E+00-3.91392E-14 1.15688E-13
 -1      2766 1.98091E+01-3.93163E-01 9.44783E-04-9.76590E-01-3.32531E-14 8.85855E-14
 -1      2767 1.97224E+01-3.87878E-01-3.63080E-03-1.08175E+00-3.04391E-14 1.47549E-13
 -1      2768 2.00621E+01-4.62681E-01 1.92899E-03-1.19075E+00-1.66992E-14 1.33503E-13
 -1      2769 1.98742E+01-3.69165E-01 1.71810E-03-7.60007E-01 9.86461E-16 5.97002E-14
 -1      2770 1.98073E+01-3.87596E-01-4.26768E-03-8.60977E-01-2.46302E-14 4.47147E-14
 -1      2771 2.00803E+01-4.80763E-01 9.09963E-04-9.50894E-01-1.12246E-14 1.19554E-13
 -1      2772 1.99121E+01-3.16714E-01 1.96068E-03-5.69899E-01 2.43378E-14 2.33135E-14
 -1      2773 1.98617E+01-3.46892E-01-4.15658E-03-6.57998E-01 3.06326E-14 3.69959E-14
 -1      2774 2.00710E+01-4.41445E-01 1.46983E-04-7.28596E-01 4.36873E-14 2.71218E-14
 -1      2775 1.99341E+01-2.54502E-01 1.84977E-03-4.14403E-01-2.31034E-14 1.70096E-14
 -1      2776 1.98967E+01-2.87607E-01-3.63779E-03-4.86302E-01 2.53971E-14 5.64445E-14
 -1      2777 2.00503E+01-3.72986E-01-2.68048E-04-5.40127E-01 6.63221E-15-1.62162E-14
 -1      2778 1.99480E+01-1.94473E-01 1.55825E-03-2.93579E-01-1.19876E-13-9.02634E-14
 -1      2779 1.99202E+01-2.25184E-01-2.97139E-03-3.49396E-01-6.87509E-14-4.92496E-14
 -1      2780 2.00285E+01-2.96464E-01-4.10147E-04-3.89770E-01-1.98367E-14 1.54821E-14
 -1      2781 1.99579E+01-1.42742E-01 1.21372E-03-2.03295E-01-2.03094E-13-6.25527E-14
 -1      2782 1.99373E+01-1.68561E-01-2.31231E-03-2.44968E-01-2.09050E-13-7.77798E-14
 -1      2783 2.00107E+01-2.24748E-01-3.88799E-04-2.74989E-01-1.57412E-13-6.30038E-14
 -1      2784 1.99659E+01-1.01359E-01 8.90493E-04-1.37877E-01-1.85674E-13 2.18694E-14
 -1      2785 1.99507E+01-1.21657E-01-1.73582E-03-1.68026E-01-2.54128E-13-1.74713E-14
 -1      2786 1.99986E+01-1.64026E-01-2.94586E-04-1.90232E-01-2.73797E-13-1.66495E-14
 -1      2787 1.99728E+01-6.99853E-02 6.22218E-04-9.16432E-02-1.11284E-13 1.22649E-13
 -1      2788 1.99616E+01-8.51749E-02-1.26742E-03-1.12893E-01-6.56320E-14 9.05190E-14
 -1      2789 1.99916E+01-1.16011E-01-1.86281E-04-1.29244E-01-2.18260E-13 1.17572E-13
 -1      2790 1.99789E+01-4.71566E-02 4.16755E-04-5.96406E-02-6.20539E-14 1.63431E-13
 -1      2791 1.99708E+01-5.80981E-02-9.05150E-04-7.42897E-02-1.80441E-14 1.53942E-13
 -1      2792 1.99886E+01-7.98958E-02-9.37325E-05-8.62583E-02-8.34348E-14 1.27254E-13
 -1      2793 1.99842E+01-3.10756E-02 2.68459E-04-3.78842E-02-5.49287E-14 2.22937E-13
 -1      2794 1.99783E+01-3.87210E-02-6.34686E-04-4.77867E-02-9.09757E-14 1.52654E-13
 -1      2795 1.99882E+01-5.37549E-02-2.70499E-05-5.64785E-02-6.98315E-14 6.70823E-14
 -1      2796 1.99885E+01-2.00419E-02 1.66381E-04-2.33354E-02-5.56665E-14 3.54015E-13
 -1      2797 1.99843E+01-2.52530E-02-4.38031E-04-2.99081E-02-4.50151E-14 3.02006E-13
 -1      2798 1.99893E+01-3.54013E-02 1.45045E-05-3.61548E-02-7.85285E-14 1.52952E-13
 -1      2799 1.99920E+01-1.26350E-02 9.89017E-05-1.37636E-02 3.19741E-14 1.82223E-13
 -1      2800 1.99891E+01-1.61136E-02-2.97948E-04-1.80470E-02 5.60358E-14 2.58705E-13
 -1      2801 1.99911E+01-2.28304E-02 3.62039E-05-2.24776E-02 1.22145E-13 2.58253E-13
 -1      2802 1.99947E+01-7.75494E-03 5.59074E-05-7.57667E-03 1.46705E-13 5.94332E-14
 -1      2803 1.99927E+01-1.00354E-02-1.99789E-04-1.03123E-02 5.31768E-15 6.70060E-14
 -1      2804 1.99930E+01-1.43962E-02 4.42060E-05-1.34040E-02 1.04255E-13-7.09750E-15
 -1      2805 1.99967E+01-4.59349E-03 2.94796E-05-3.66224E-03 2.45287E-13 6.32417E-14
 -1      2806 1.99954E+01-6.06369E-03-1.31933E-04-5.36676E-03 1.87415E-13 9.90832E-14
 -1      2807 1.99948E+01-8.83693E-03 4.38418E-05-7.48086E-03 1.35663E-13-1.30706E-13
 -1      2808 1.99981E+01-2.57887E-03 1.38411E-05-1.25557E-03 1.06454E-13-2.68058E-14
 -1      2809 1.99973E+01-3.51087E-03-8.55717E-05-2.28233E-03 1.59940E-13-1.54945E-14
 -1      2810 1.99963E+01-5.23138E-03 3.90700E-05-3.69131E-03 2.33421E-13-1.56038E-13
 -1      2811 1.99991E+01-1.31802E-03 4.99054E-06 1.62672E-04-9.51562E-14 1.15230E-13
 -1      2812 1.99986E+01-1.89760E-03-5.42354E-05-4.24772E-04-8.77768E-15 5.51047E-14
 -1      2813 1.99975E+01-2.93014E-03 3.25201E-05-1.33237E-03 8.19537E-14-4.68690E-14
 -1      2814 1.99997E+01-5.46562E-04 2.70304E-07 9.41867E-04 1.51495E-13 6.43145E-14
 -1      2815 1.99994E+01-8.98067E-04-3.32841E-05 6.34603E-04 1.07293E-13 8.28846E-14
 -1      2816 1.99984E+01-1.48748E-03 2.57648E-05 7.75006E-05 1.87160E-14 3.15020E-14
 -1      2817 2.00001E+01-8.95100E-05-2.02266E-06 1.31527E-03 1.52230E-13 1.17674E-13
 -1      2818 2.00000E+01-2.94954E-04-1.94468E-05 1.18294E-03 1.24686E-13 8.09313E-14
 -1      2819 1.99990E+01-6.03549E-04 1.96303E-05 8.65903E-04 1.40329E-13 2.19839E-14
 -1      2820 2.00003E+01 1.67639E-04-2.94472E-06 1.43759E-03 4.76418E-14 1.18192E-13
 -1      2821 2.00003E+01 5.47218E-05-1.04464E-05 1.41114E-03 1.49272E-13 1.14986E-13
 -1      2822 1.99994E+01-7.95844E-05 1.44636E-05 1.25438E-03 1.44022E-13 6.91665E-15
 -1      2823 2.00004E+01 2.99226E-04-3.13095E-06 1.41065E-03-5.55038E-14-1.34807E-13
 -1      2824 2.00004E+01 2.44134E-04-4.71263E-06 1.44520E-03 2.28721E-14-5.84091E-14
 -1      2825 1.99997E+01 2.14804E-04 1.03305E-05 1.39189E-03 2.06836E-13 2.59525E-14
 -1      2826 2.00004E+01 3.53288E-04-2.95109E-06 1.30083E-03-1.76197E-13-8.02879E-14
 -1      2827 2.00004E+01 3.33625E-04-1.16900E-06 1.36754E-03-1.32439E-13-5.55209E-14
 -1      2828 1.99999E+01 3.64573E-04 7.15056E-06 1.37789E-03-1.38644E-13-5.25315E-14
 -1      2829 2.00004E+01 3.60766E-04-2.61283E-06 1.15080E-03-1.40194E-13 6.96505E-14
 -1      2830 2.00004E+01 3.62125E-04 9.19290E-07 1.23144E-03-1.10102E-13 9.09233E-14
 -1      2831 2.00000E+01 4.24844E-04 4.78089E-06 1.27816E-03-2.31826E-13 1.17261E-13
 -1      2832 2.00003E+01 3.41531E-04-2.22775E-06 9.87362E-04-2.02287E-13 4.37223E-14
 -1      2833 2.00004E+01 3.54678E-04 2.05244E-06 1.07074E-03-2.14151E-13-1.10992E-14
 -1      2834 2.00000E+01 4.31278E-04 3.06427E-06 1.13553E-03-8.95830E-14 1.48765E-13
 -1      2835 2.00002E+01 3.08275E-04-1.85217E-06 8.26729E-04 1.64482E-13-6.61455E-15
 -1      2836 2.00003E+01 3.27332E-04 2.57003E-06 9.06268E-04 2.05784E-14-4.60583E-14
 -1      2837 2.00000E+01 4.06871E-04 1.85397E-06 9.77287E-04-3.21626E-14-5.15416E-14
 -1      2838 2.00002E+01 2.69021E-04-1.51160E-06 6.78113E-04 3.74125E-14 5.20807E-14
 -1      2839 2.00002E+01 2.90296E-04 2.70179E-06 7.50267E-04 1.31300E-13 1.56416E-14
 -1      2840 2.00000E+01 3.66365E-04 1.02447E-06 8.20187E-04 2.02637E-14 7.06244E-14
 -1      2841 2.00001E+01 2.28744E-04-1.21498E-06 5.46123E-04-2.07501E-13 1.51861E-13
 -1      2842 2.00001E+01 2.49970E-04 2.60213E-06 6.09297E-04 1.59127E-14 1.42849E-13
 -1      2843 2.00000E+01 3.19104E-04 4.74078E-07 6.73909E-04-3.54872E-14 2.49803E-13
 -1      2844 2.00000E+01 1.90422E-04-9.62719E-07 4.32405E-04-1.96839E-13 8.92688E-14
 -1      2845 2.00001E+01 2.10267E-04 2.37383E-06 4.86239E-04-3.45772E-13 4.79881E-14
 -1      2846 2.00000E+01 2.70891E-04 1.23682E-07 5.43429E-04-2.02658E-13 3.61760E-13
 -1      2847 2.00000E+01 1.55732E-04-7.51214E-07 3.36749E-04-3.68304E-14 2.46051E-14
 -1      2848 2.00000E+01 1.73470E-04 2.08398E-06 3.81637E-04-1.13000E-13-2.37350E-14
 -1      2849 1.99999E+01 2.25197E-04-8.62597E-08 4.30666E-04-8.30122E-14-4.44398E-14
 -1      2850 1.99999E+01 1.25508E-04-5.78864E-07 2.57845E-04-9.91323E-15 6.57072E-14
 -1      2851 2.00000E+01 1.40805E-04 1.77522E-06 2.94613E-04 4.01552E-14 3.80350E-14
 -1      2852 1.99999E+01 1.83972E-04-1.99873E-07 3.35601E-04 6.66967E-15-2.07940E-14
 -1      2853 1.99999E+01 1.00084E-04-4.26124E-07 1.93811E-04 1.94796E-13 2.08894E-14
 -1      2854 1.99999E+01 1.12824E-04 1.47359E-06 2.23494E-04-3.24667E-15 1.52592E-13
 -1      2855 1.99999E+01 1.48154E-04-2.53920E-07 2.57066E-04-7.48114E-14 1.28589E-13
 -1      2856 1.99999E+01 7.94440E-05-2.71203E-07 1.42390E-04-1.30205E-13 1.15225E-13
 -1      2857 1.99999E+01 8.97490E-05 1.22192E-06 1.66142E-04 2.08037E-13 1.26089E-13
 -1      2858 1.99999E+01 1.18088E-04-3.07425E-07 1.93343E-04 1.74141E-13 2.02071E-13
 -1      2859 1.99998E+01 6.46229E-05-1.34401E-07 1.02613E-04-1.05072E-13-3.30692E-14
 -1      2860 1.99999E+01 7.27408E-05 1.01990E-06 1.21670E-04-2.08313E-13 8.27286E-14
 -1      2861 1.99998E+01 9.46699E-05-6.04809E-07 1.43205E-04-5.06634E-14 9.04108E-14
 -1      2862 1.99998E+01 7.73366E-05-8.13651E-07 1.04106E-04 3.93731E-14-2.38241E-13
 -1      2863 1.99998E+01 1.47245E-04-5.38373E-07 3.51133E-05-1.07231E-13-3.55997E-13
 -1      2864 1.99998E+01 1.41705E-04 1.61559E-08 4.60876E-05-5.61426E-14-4.37421E-13
 -1      2865 1.99998E+01 7.68452E-05-3.87554E-07 7.51634E-05 1.13026E-13-4.64209E-13
 -1      2866 8.92799E+00 1.38492E+00 1.74951E-01-3.90427E+00 3.24421E-13 4.65905E-13
 -1      2867 1.28010E+01 2.00630E+00 1.70310E-01-4.46356E+00 2.92932E-13 5.28105E-13
 -1      2868 6.85018E+00 1.77927E+00 2.43455E-01-1.47465E+00 3.89161E-13 5.69211E-13
 -1      2869 1.99998E+01 1.31644E-04-6.32236E-07 5.74647E-05-2.23837E-13-3.71669E-13
 -1      2870 1.99998E+01 1.23024E-04 2.17289E-07 6.48492E-05-2.24936E-14-2.17127E-13
 -1      2871 1.99998E+01 1.50811E-04 5.20382E-07 5.94051E-05 1.19958E-13-3.15798E-13
 -1      2872 1.99998E+01 1.52077E-04-1.91894E-07-2.09326E-05-3.25888E-13 5.57626E-13
 -1      2873 1.99998E+01 1.54113E-04-3.90180E-07-8.07028E-06-3.79321E-13 3.55414E-13
 -1      2874 1.99998E+01 1.41146E-04 2.65952E-08-4.59648E-05-3.98802E-14-8.93104E-14
 -1      2875 1.99998E+01 1.46670E-04-5.37686E-07-3.52262E-05-3.95695E-13 5.79900E-13
 -1      2876 1.99997E+01 1.64601E-04 5.95939E-07-3.21179E-05-3.32200E-13 3.82206E-13
 -1      2877 1.99998E+01 1.22300E-04 2.13794E-07-6.45955E-05 2.60123E-13-1.00928E-14
 -1      2878 1.99998E+01 1.30953E-04-6.22182E-07-5.72569E-05 1.45694E-13-2.87291E-13
 -1      2879 1.99998E+01 1.49849E-04 4.99946E-07-5.93216E-05-1.25863E-13 7.32562E-14
 -1      2880 1.99998E+01 9.75778E-05 2.70340E-07-7.35669E-05 1.00783E-13-8.48637E-14
 -1      2881 1.99998E+01 1.08543E-04-6.11787E-07-7.10594E-05 3.33580E-13-2.73294E-14
 -1      2882 1.99998E+01 1.27163E-04 3.42090E-07-7.82442E-05-5.45212E-14-3.24591E-14
 -1      2883 1.99998E+01 7.25991E-05 2.91317E-07-7.34904E-05-3.25234E-13 6.96010E-14
 -1      2884 1.99998E+01 8.46371E-05-5.37577E-07-7.59896E-05-1.23064E-13-5.62098E-14
 -1      2885 1.99998E+01 1.01985E-04 4.29349E-07-8.77549E-05-1.58133E-13-2.25678E-13
 -1      2886 1.99998E+01 7.65770E-05 6.13775E-07-8.84312E-05-4.35938E-13-9.75776E-14
 -1      2887 1.86903E+01 9.96070E-01 6.74604E-03 2.80838E-01 1.11989E-13 1.33128E-13
 -1      2888 1.87892E+01 9.88249E-01 4.69951E-03 5.69942E-01 1.17659E-13 1.35138E-13
 -1      2889 1.95025E+01 1.22490E+00-5.84222E-03 8.44678E-01 1.16694E-13 1.22926E-13
 -1      2890 2.58808E+01-4.43430E+00-6.80856E-02 6.16967E+00-1.59275E-13-2.05835E-13
 -1      2891 2.27325E+01-4.27292E+00 1.29052E-01 7.30651E+00-1.70280E-13-1.99649E-13
 -1      2892 3.23113E+01 1.95673E+00-2.17920E-01-7.29911E-01 6.30052E-14-1.31839E-13
 -1      2893 3.18253E+01-3.71255E-01 8.04711E-03 5.61940E-01 1.85546E-14-1.56097E-13
 -1      2894 3.14461E+01 2.83866E-01 5.84530E-03-9.86983E-01 2.74225E-14 1.96843E-13
 -1      2895 3.21577E+01 1.96116E+00-2.22509E-01 4.08661E-01 6.40460E-14 1.75485E-13
 -1      2896 1.85935E+01 9.43798E-01 3.69274E-03-3.25843E-01 1.10490E-13 1.20316E-13
 -1      2897 1.86165E+01 9.84753E-01 6.84360E-03-4.56971E-02 1.12146E-13 1.26233E-13
 -1      2898 1.92870E+01 1.23342E+00-8.62894E-03 1.76984E-01 1.14378E-13 1.32861E-13
 -1      2899 1.92183E+01 1.13012E+00-8.42472E-03-4.87689E-01 1.11461E-13 1.23454E-13
 -1      2900 7.29507E+00 2.25706E+00 1.62243E-01-6.37359E+00-2.32772E-13-1.63092E-13
 -1      2901 9.88002E+00 1.05429E+00 1.24659E-01-8.08346E+00-2.31870E-13-1.36308E-13
 -1      2902 1.36052E+01 2.78947E+00 1.08116E-01-3.72159E+00 2.09201E-13 4.88817E-13
 -1      2903 1.99998E+01 1.54304E-04-3.82739E-07 7.61855E-06-2.94890E-13-3.40938E-14
 -1      2904 1.99998E+01 1.52447E-04-1.98202E-07 2.05130E-05-1.76240E-13-2.52597E-13
 -1      2905 1.99997E+01 1.69934E-04 6.33003E-07-3.49113E-07-9.67322E-14 7.74124E-14
 -1      2906 1.99998E+01 1.09449E-04-7.48920E-07 7.11772E-05 1.55442E-13-2.74524E-13
 -1      2907 1.99998E+01 9.93652E-05 5.04501E-07 7.42944E-05 2.15087E-14-3.83342E-13
 -1      2908 1.99998E+01 1.28500E-04 4.29581E-07 7.83293E-05 1.31369E-13-3.38651E-13
 -1      2909 3.19221E+01 5.92898E+00-2.23404E-01-1.45137E+00 1.13659E-13-4.14113E-14
 -1      2910 3.21578E+01 4.44281E+00-1.03938E-01-1.51116E+00 1.11411E-13-8.65696E-14
 -1      2911 3.03036E+01-2.78734E+00-1.94519E-01 2.77536E+00-4.67022E-14-2.60889E-13
 -1      2912 2.85072E+01-3.72437E+00 4.58125E-02 4.45241E+00-1.07213E-13-2.22988E-13
 -1      2913 1.90796E+01 2.00660E-01-4.68749E-03-1.47088E+00 1.13452E-14 3.27440E-14
 -1      2914 1.89496E+01 3.55369E-01 7.82373E-03-1.39357E+00 5.85101E-14 9.44875E-14
 -1      2915 1.94785E+01 5.35033E-01-1.58147E-03-1.43034E+00 5.77586E-14 1.14550E-13
 -1      2916 1.96899E+01 1.66506E-01 1.56855E-03-1.59579E+00 1.57912E-14 3.96815E-14
 -1      2917 7.40711E+00 2.44713E+00 1.06844E-01 1.91859E+00-1.58762E-14-1.71529E-13
 -1      2918 3.18285E+01 8.75900E+00-2.12234E-01-2.05323E-01 1.99118E-13 4.82479E-14
 -1      2919 3.19506E+01 7.79521E+00-1.70960E-01-1.04823E+00 1.53988E-13 8.43769E-15
 -1      2920 3.02650E+01 6.37614E+00-1.10982E-01-1.49445E+00 8.43908E-14 1.38431E-14
 -1      2921 1.29975E+01-1.80429E-01 1.38997E-01-8.58896E+00-2.36033E-13-7.67580E-14
 -1      2922 1.62478E+01-1.13908E+00 2.20559E-02-8.88930E+00-2.19019E-13-2.78527E-14
 -1      2923 3.22522E+01 4.31528E+00-7.90466E-02 1.57925E+00 1.02057E-13 1.44898E-13
 -1      2924 3.20115E+01 6.06105E+00-2.34907E-01 1.77458E+00 1.38584E-13 1.13132E-13
 -1      2925 1.57266E+01 2.87807E+00 3.87747E-02-2.92904E+00 6.75900E-14 4.33507E-13
 -1      2926 1.63827E+01 2.64054E+00-1.63607E-02-2.40910E+00 7.42462E-14 3.24761E-13
 -1      2927 1.58844E+01 2.90082E+00 1.08382E-01-1.44881E+00-1.43956E-14 3.87843E-13
 -1      2928 1.84862E+01-3.77099E+00-2.31614E-02 8.52385E+00-1.48825E-13-1.46813E-13
 -1      2929 1.47725E+01-2.53434E+00 1.95433E-01 8.36642E+00-1.47465E-13 2.99344E-14
 -1      2930 2.28194E+01 2.14171E+00-2.49292E-02 2.08067E+00 2.30914E-14 4.48166E-15
 -1      2931 2.33826E+01 2.02470E+00-8.06217E-03 1.84873E+00 9.29161E-16 2.00222E-14
 -1      2932 2.39229E+01 1.83521E+00 2.16779E-02 1.89979E+00-5.52683E-15 6.24830E-14
 -1      2933 2.27102E+01 2.02833E+00 1.81557E-02 2.18774E+00 1.64882E-14 2.45418E-14
 -1      2934 2.74410E+01-2.10804E+00 9.06685E-02-4.72002E+00-9.37445E-14 1.70086E-13
 -1      2935 2.96806E+01-1.50919E+00-1.67735E-01-3.05339E+00-3.36467E-14 1.74680E-13
 -1      2936 1.08467E+01-1.29411E+00 7.99203E-02 7.74536E+00-3.61378E-14 2.23987E-13
 -1      2937 8.23347E+00-1.03699E-01 2.08909E-01 6.12001E+00 9.44106E-14 2.52354E-13
 -1      2938 2.14287E+01-3.75060E-01 3.69768E-02-5.91231E+00-2.35215E-13 5.51104E-14
 -1      2939 1.88325E+01 2.94986E-01 4.26944E-02-6.74615E+00-2.60739E-13 2.79707E-14
 -1      2940 3.22019E+01 8.06371E+00-1.47534E-01 1.43835E+00 1.47660E-13 1.18086E-13
 -1      2941 3.20886E+01 8.83792E+00-2.17112E-01 7.07958E-01 1.83548E-13 8.55149E-14
 -1      2942 8.79820E+00 3.71561E+00 2.11661E-01 8.64342E-01-6.28074E-14-1.39055E-13
 -1      2943 6.11285E+00 3.55763E+00 3.00999E-01-6.59503E-01-1.11591E-13-1.95455E-13
 -1      2944 5.79201E+00 3.26661E+00 1.82856E-01-3.50547E+00-1.69864E-13-1.87406E-13
 -1      2945 9.71537E+00 4.86393E+00 1.07654E-01-2.87417E-01-1.17726E-13-8.40161E-14
 -1      2946 2.57026E+01 4.11973E-01-5.57470E-03-7.63073E-02-8.10576E-14 6.10779E-14
 -1      2947 2.50541E+01 4.19400E-01-3.95388E-02-7.97364E-01-1.17243E-13 5.56707E-14
 -1      2948 2.47742E+01 2.65980E-01 3.34204E-02-1.74205E+00-1.37798E-13 6.41136E-14
 -1      2949 1.98754E+01 1.64834E+00 5.12613E-04 2.37443E+00 8.58610E-14 6.63692E-14
 -1      2950 2.01269E+01 1.50282E+00 1.32320E-02 2.20261E+00 7.09207E-14 6.60243E-14
 -1      2951 1.40455E+01-1.40597E+00 1.43022E-01 7.55305E+00-1.61662E-13 2.11497E-14
 -1      2952 2.99732E+01-5.77107E-01-7.74403E-03-1.38782E+00-3.57075E-14 2.02408E-13
 -1      2953 2.56325E+01-1.98594E+00 6.40031E-02-5.14505E+00-1.57083E-13 1.36148E-13
 -1      2954 1.98033E+01 1.21655E+00-2.63126E-03 1.44822E+00 8.20643E-14 1.05899E-13
 -1      2955 1.92667E+01 9.92696E-01 7.76638E-03 1.43280E+00 8.91071E-14 1.25182E-13
 -1      2956 1.99997E+01 1.65219E-04 6.08276E-07 3.17750E-05 1.47666E-13-2.68035E-13
 -1      2957 3.09925E+01 2.86438E+00-6.27964E-02 1.40240E+00 3.96627E-14 1.48853E-13
 -1      2958 1.87446E+01-9.53649E-01 4.32123E-02-7.89263E+00-2.36255E-13 4.36248E-14
 -1      2959 1.27248E+01 1.29644E+00 1.57285E-01-7.79642E+00-2.73587E-13-8.26145E-14
 -1      2960 1.99998E+01 9.40581E-05 2.91161E-07 8.76383E-05 1.80385E-13-4.50141E-13
 -1      2961 7.77561E+00 2.27210E+00 2.05268E-01-3.97774E-01 2.97082E-13 4.09395E-13
 -1      2962 1.92303E+01 9.75609E-01 7.54017E-03 1.58565E+00 1.01909E-13 1.40113E-13
 -1      2963 3.08287E+01 2.50668E+00-9.77117E-02-1.41851E+00 4.63241E-14-5.39291E-14
 -1      2964 2.70548E+01-4.05030E+00 2.69068E-02 4.60044E+00-2.31579E-13-3.10169E-13
 -1      2965 3.04276E+01-1.69489E+00-3.72519E-02 1.12800E+00-6.11230E-14-1.60968E-13
 -1      2966 2.13594E+01-3.66682E+00 1.02704E-01 7.20666E+00-1.76942E-13-1.89499E-13
 -1      2967 1.32221E+01 2.63475E+00 1.10321E-01-6.85473E+00-2.90951E-13-6.20892E-14
 -1      2968 1.07811E+01 3.54794E+00 1.23961E-01-6.34545E+00-2.76182E-13-9.29673E-14
 -1      2969 8.75822E+00 5.10814E+00 1.86969E-01-2.07865E+00-1.69044E-13-1.14270E-13
 -1      2970 1.23968E+01 3.13573E+00 1.28759E-01-2.32082E+00 1.11411E-13 5.10043E-13
 -1      2971 7.93262E+00 8.29114E-01 1.74517E-01 4.85830E+00 8.12544E-14 1.87961E-13
 -1      2972 8.03066E+00 1.95355E+00 1.37458E-01 3.28263E+00 1.13805E-13 1.38362E-13
 -1      2973 1.02751E+01 1.01976E+00 1.28584E-01 5.20948E+00 3.27516E-15 1.34309E-13
 -1      2974 3.03274E+01 8.19775E+00-1.40231E-01 2.07460E-01 1.34226E-13 6.16417E-14
 -1      2975 3.05858E+01 6.54963E+00-1.20191E-01 1.84227E+00 1.16629E-13 1.27898E-13
 -1      2976 2.31988E+01-3.24090E-02 4.68236E-02-3.99093E+00-2.17921E-13 8.57014E-14
 -1      2977 2.40259E+01-1.36137E+00 2.00785E-02-4.95163E+00-1.98626E-13 1.21766E-13
 -1      2978 2.67111E+01-1.65834E+00-1.11266E-01-3.23262E+00-1.28224E-13 1.69358E-13
 -1      2979 2.43211E+01-2.11941E-01-2.93408E-02-2.88523E+00-1.75900E-13 9.22196E-14
 -1      2980 2.11355E+01 1.72320E+00-1.44869E-02 2.15256E+00 4.82890E-14 4.58243E-14
 -1      2981 2.17577E+01 1.84681E+00-6.88529E-03 2.16253E+00 2.40824E-14 4.61732E-14
 -1      2982 1.89056E+01 8.95474E-01 7.31977E-03 1.73514E+00 9.76129E-14 1.36240E-13
 -1      2983 1.96107E+01 1.15538E+00-9.26952E-03 1.87941E+00 7.38441E-14 9.17194E-14
 -1      2984 2.04648E+01 1.49077E+00 1.41123E-03 2.02639E+00 5.06237E-14 5.63759E-14
 -1      2985 1.99214E+01 1.01817E+00-6.67799E-03-1.23053E+00 1.00493E-13 1.30055E-13
 -1      2986 1.98739E+01 1.23199E+00 1.05905E-02-9.83452E-01 9.01693E-14 1.34170E-13
 -1      2987 1.67585E+01 2.19186E+00-2.63256E-02-4.61624E-01-1.01046E-13 2.47947E-13
 -1      2988 1.74989E+01 1.84190E+00-2.10571E-02-3.70797E-01-1.55328E-13 2.70199E-13
 -1      2989 2.00606E+01 1.55459E+00 6.91559E-03 7.98248E-01 8.94786E-14 1.27859E-13
 -1      2990 2.01875E+01 1.50333E+00-1.58979E-03 1.12756E+00 7.97546E-14 1.05862E-13
 -1      2991 1.99997E+01 1.83617E-04-5.14182E-07 2.83514E-05 1.50774E-14-3.14852E-13
 -1      2992 1.99997E+01 1.79297E-04-5.24231E-08 4.44979E-05 4.92401E-15-3.81568E-13
 -1      2993 1.81475E+01 1.52081E+00-1.76971E-02-4.20592E-01-1.98586E-13 2.55810E-13
 -1      2994 1.85658E+01 1.23794E+00-1.58946E-02-3.15635E-01-1.45671E-13 2.35677E-13
 -1      2995 1.76591E+01 1.77282E+00 4.32146E-02 1.31421E-01-1.87191E-13 8.31865E-14
 -1      2996 1.89622E+01 9.95296E-01-8.93605E-03-3.16754E-01-1.83887E-13 2.14915E-13
 -1      2997 1.91907E+01 7.90467E-01-1.07228E-02-2.26600E-01-1.55253E-13 1.93328E-13
 -1      2998 1.86300E+01 1.20566E+00 2.52203E-02-8.27385E-03-1.95186E-13 5.54895E-14
 -1      2999 1.94275E+01 6.23107E-01-3.86504E-03-2.10760E-01-6.33355E-14 2.29224E-13
 -1      3000 1.95496E+01 4.84752E-01-6.90362E-03-1.43633E-01-7.17648E-15 2.07648E-13
 -1      3001 1.92141E+01 7.78225E-01 1.50588E-02-4.28814E-02-7.39442E-14 2.27135E-13
 -1      3002 1.96883E+01 3.75508E-01-1.41876E-03-1.26002E-01-1.31791E-14 1.71600E-13
 -1      3003 1.97525E+01 2.86378E-01-4.29462E-03-8.05389E-02-1.85024E-13 4.68663E-14
 -1      3004 1.95573E+01 4.81183E-01 8.85768E-03-3.62077E-02-7.12988E-14 1.10290E-13
 -1      3005 1.98321E+01 2.17639E-01-4.27757E-04-6.67082E-02-2.95278E-13 1.27473E-13
 -1      3006 1.98656E+01 1.62267E-01-2.62233E-03-3.81253E-02-2.20642E-13 9.85135E-15
 -1      3007 1.97550E+01 2.85759E-01 5.14324E-03-1.90881E-02-2.40309E-13 5.22304E-14
 -1      3008 1.99120E+01 1.18748E-01-3.93119E-05-2.86624E-02-1.71466E-13-4.31587E-14
 -1      3009 1.99300E+01 8.45599E-02-1.52969E-03-1.15869E-02-1.23689E-13 5.60678E-14
 -1      3010 1.98688E+01 1.59833E-01 2.84569E-03-3.54073E-03-2.43014E-13 2.21823E-13
 -1      3011 1.99542E+01 6.07435E-02 7.31447E-05-6.99189E-03-1.16763E-14 3.43686E-14
 -1      3012 1.99630E+01 4.20515E-02-8.51873E-04 1.62399E-03 4.07801E-14 8.60746E-14
 -1      3013 1.99314E+01 8.40622E-02 1.56738E-03 6.31521E-03-8.18981E-14 1.28293E-13
 -1      3014 1.99761E+01 2.85928E-02 7.85754E-05 3.50553E-03-7.39023E-14 6.81329E-14
 -1      3015 1.99807E+01 1.82150E-02-4.66083E-04 7.48408E-03-1.51111E-13-3.64564E-14
 -1      3016 1.99644E+01 4.10864E-02 8.42255E-04 1.09104E-02-4.76060E-14 2.15085E-13
 -1      3017 1.99876E+01 1.10001E-02 4.11539E-05 7.66679E-03-2.32912E-13 6.74452E-14
 -1      3018 1.99902E+01 5.61276E-03-2.40379E-04 9.01561E-03-7.77235E-14 6.93433E-14
 -1      3019 1.99820E+01 1.70903E-02 4.49735E-04 1.19948E-02-1.19548E-13 1.78985E-13
 -1      3020 1.99937E+01 2.03778E-03 7.84446E-06 8.31157E-03 7.85921E-15-1.02881E-15
 -1      3021 1.99952E+01-4.79578E-04-1.13836E-04 8.29602E-03 1.53133E-13-3.06461E-14
 -1      3022 1.99912E+01 4.49504E-03 2.36262E-04 1.09830E-02 1.00329E-14 2.53371E-13
 -1      3023 1.99969E+01-2.01103E-03-1.39598E-05 7.23798E-03 1.43911E-13-1.11844E-13
 -1      3024 1.99978E+01-2.95218E-03-4.61155E-05 6.61670E-03 1.52280E-14-2.68154E-13
 -1      3025 1.99958E+01-1.47556E-03 1.21887E-04 8.97429E-03 1.50143E-14-6.29815E-15
 -1      3026 1.99986E+01-3.39708E-03-2.49001E-05 5.51930E-03-2.94041E-14-2.97748E-13
 -1      3027 1.99991E+01-3.52999E-03-1.22172E-05 4.71815E-03-6.45264E-14-3.55505E-13
 -1      3028 1.99981E+01-3.77011E-03 6.18848E-05 6.69156E-03 1.92898E-15-3.82934E-13
 -1      3029 1.99994E+01-3.44557E-03-2.79810E-05 3.74408E-03 2.37076E-14-1.47627E-13
 -1      3030 1.99998E+01-3.21078E-03 2.94702E-06 2.98098E-03 1.46778E-13-2.35049E-14
 -1      3031 1.99991E+01-4.15712E-03 3.11864E-05 4.55025E-03 4.20577E-14-2.46756E-13
 -1      3032 1.99999E+01-2.90922E-03-2.62717E-05 2.19623E-03 1.36079E-14-1.22069E-13
 -1      3033 2.00001E+01-2.54785E-03 8.24992E-06 1.56561E-03-6.14859E-14-9.88982E-14
 -1      3034 1.99996E+01-3.66106E-03 1.59239E-05 2.74923E-03 3.70436E-14-2.70073E-13
 -1      3035 2.00001E+01-2.19440E-03-2.21623E-05 9.79824E-04-6.09604E-14-7.34170E-14
 -1      3036 2.00002E+01-1.82922E-03 8.75501E-06 5.07217E-04-1.44294E-13-1.21392E-13
 -1      3037 1.99998E+01-2.84844E-03 8.55872E-06 1.35024E-03 1.11923E-14-3.58233E-13
 -1      3038 2.00002E+01-1.50354E-03-1.72560E-05 1.00867E-04-3.31593E-13-5.17450E-14
 -1      3039 2.00003E+01-1.18939E-03 7.24247E-06-2.23285E-04-4.41653E-13-1.04351E-13
 -1      3040 1.99998E+01-2.01138E-03 5.08468E-06 3.37223E-04-2.23340E-13-1.37689E-13
 -1      3041 2.00003E+01-9.23147E-04-1.25026E-05-4.81912E-04-5.47117E-13-4.72004E-14
 -1      3042 2.00003E+01-6.77729E-04 5.15414E-06-6.82247E-04-3.79790E-13-1.50775E-13
 -1      3043 1.99999E+01-1.28313E-03 3.43585E-06-3.43764E-04-5.15217E-13 5.39600E-14
 -1      3044 2.00003E+01-4.77197E-04-8.38283E-06-8.27196E-04-2.66168E-13-2.32623E-13
 -1      3045 2.00003E+01-2.99302E-04 3.19277E-06-9.32293E-04-3.30482E-13-3.41563E-13
 -1      3046 1.99999E+01-7.09080E-04 2.58890E-06-7.59670E-04-4.12056E-13-1.51452E-14
 -1      3047 2.00003E+01-1.58741E-04-5.10591E-06-9.94745E-04-1.79530E-13-3.03428E-13
 -1      3048 2.00002E+01-3.81726E-05 1.72835E-06-1.03172E-03 1.10738E-13-2.95471E-13
 -1      3049 1.99999E+01-2.89377E-04 2.03991E-06-9.76429E-04-1.33085E-13 1.98209E-14
 -1      3050 2.00002E+01 5.69875E-05-2.64347E-06-1.03745E-03-2.38145E-15-3.95535E-13
 -1      3051 2.00002E+01 1.33623E-04 5.51713E-07-1.02672E-03-1.61853E-13-3.05279E-13
 -1      3052 1.99999E+01 4.57254E-07 1.46338E-06-1.05177E-03-3.20082E-14-8.74819E-14
 -1      3053 2.00002E+01 1.85096E-04-7.72415E-07-9.95601E-04-1.28628E-13-3.14051E-13
 -1      3054 2.00001E+01 2.23843E-04-3.62131E-07-9.57309E-04-2.39890E-15-2.37496E-13
 -1      3055 1.99999E+01 1.81792E-04 1.31789E-06-1.03060E-03-1.20419E-13-1.30288E-13
 -1      3056 2.00001E+01 2.49306E-04 4.27242E-07-9.06996E-04-1.45661E-14-1.58610E-13
 -1      3057 2.00001E+01 2.64430E-04-8.28319E-07-8.54156E-04-3.34034E-14-8.69456E-14
 -1      3058 1.99999E+01 2.77220E-04 1.01779E-06-9.52297E-04 5.97648E-15-2.44610E-13
 -1      3059 2.00001E+01 2.71703E-04 1.12974E-06-7.95043E-04 8.55911E-14-4.55477E-14
 -1      3060 2.00000E+01 2.71438E-04-1.03950E-06-7.36740E-04 2.11190E-13-1.17898E-13
 -1      3061 1.99999E+01 3.17260E-04 7.43360E-07-8.44291E-04 1.27392E-14-1.09334E-13
 -1      3062 2.00000E+01 2.67113E-04 1.49782E-06-6.76047E-04 2.06325E-13-1.88413E-13
 -1      3063 2.00000E+01 2.57521E-04-1.09461E-06-6.18202E-04 3.27040E-13-2.21013E-13
 -1      3064 1.99999E+01 3.20495E-04 5.10439E-07-7.24903E-04 1.69028E-13-2.09229E-13
 -1      3065 2.00000E+01 2.46492E-04 1.63128E-06-5.60470E-04 3.74137E-13-3.18780E-13
 -1      3066 2.00000E+01 2.31947E-04-1.04976E-06-5.06673E-04 2.46308E-13-2.17948E-13
 -1      3067 1.99999E+01 3.01123E-04 3.20041E-07-6.06209E-04 2.84442E-13-3.07922E-13
 -1      3068 2.00000E+01 2.17670E-04 1.60957E-06-4.54471E-04 2.28787E-13-2.35547E-13
 -1      3069 1.99999E+01 2.01183E-04-9.47716E-07-4.06624E-04 1.20042E-13-9.30862E-14
 -1      3070 1.99999E+01 2.69447E-04 1.71966E-07-4.95562E-04 2.44676E-13-2.12584E-13
 -1      3071 1.99999E+01 1.85990E-04 1.49256E-06-3.61137E-04-2.50538E-14-7.24374E-14
 -1      3072 1.99999E+01 1.69538E-04-8.18737E-07-3.19976E-04-1.25958E-13-5.01762E-14
 -1      3073 1.99999E+01 2.32618E-04 6.32213E-08-3.96908E-04 4.80601E-14-2.77059E-13
 -1      3074 1.99999E+01 1.54928E-04 1.32147E-06-2.81460E-04-2.91070E-13 3.84787E-15
 -1      3075 1.99999E+01 1.39734E-04-6.83250E-07-2.46950E-04-2.28508E-13-6.30917E-14
 -1      3076 1.99998E+01 1.95372E-04-1.03976E-08-3.11833E-04-1.71059E-13-5.04924E-13
 -1      3077 1.99999E+01 1.26599E-04 1.12536E-06-2.15059E-04 8.57692E-14-1.46282E-14
 -1      3078 1.99999E+01 1.13335E-04-5.45872E-07-1.86709E-04 2.12893E-13-1.35573E-13
 -1      3079 1.99998E+01 1.60672E-04-5.65099E-08-2.40360E-04-2.46072E-14-2.75347E-13
 -1      3080 1.99999E+01 1.02135E-04 9.48509E-07-1.60753E-04 2.28592E-13-2.16991E-13
 -1      3081 1.99998E+01 9.14783E-05-2.21538E-07-1.37987E-04 2.21172E-13-4.01503E-13
 -1      3082 1.99998E+01 1.30126E-04-1.31298E-07-1.81560E-04 1.54191E-13 2.13491E-13
 -1      3083 1.99998E+01 8.63470E-05 7.11466E-07-1.20877E-04 1.47506E-13-4.26521E-13
 -1      3084 1.99998E+01 8.16879E-05 9.31665E-08-1.02688E-04-1.50549E-13-2.32005E-13
 -1      3085 1.99998E+01 9.40630E-05-7.14989E-07-1.04392E-04-5.38747E-14-1.25266E-13
 -1      3086 1.99998E+01 1.08291E-04-5.22274E-07-1.37382E-04 3.98795E-14 4.04549E-14
 -1      3087 2.04441E+01-5.13016E-01-5.84403E-04-1.37015E+00-4.87880E-14 8.23767E-14
 -1      3088 2.04003E+01-4.22291E-01-9.08193E-04-1.47367E+00-6.20942E-14 6.35727E-14
 -1      3089 2.04031E+01-2.97380E-01-3.91961E-03-1.58356E+00-4.71241E-14 7.48062E-14
 -1      3090 2.03357E+01-1.31141E-01 2.68835E-03-1.63901E+00-2.17985E-14 4.73743E-14
 -1      3091 2.08721E+01-4.26671E-01 4.12876E-03-1.55206E+00-3.73503E-14 4.82751E-14
 -1      3092 2.03516E+01-5.82065E-01 3.18854E-03-8.60949E-01-9.18922E-15 4.99347E-14
 -1      3093 2.03460E+01-5.99940E-01-3.72995E-03-9.78071E-01-1.97915E-14 8.16879E-14
 -1      3094 2.02700E+01-5.12450E-01 3.54545E-03-6.42826E-01 1.70721E-14 1.17043E-13
 -1      3095 2.02732E+01-5.53909E-01-3.55998E-03-7.44888E-01 2.91309E-14 1.05380E-13
 -1      3096 2.05401E+01-6.65875E-01-1.35890E-03-7.68763E-01-2.09338E-14 3.39029E-14
 -1      3097 2.01918E+01-4.19955E-01 3.30108E-03-4.67044E-01-2.04440E-14 1.15533E-13
 -1      3098 2.01982E+01-4.69388E-01-2.97631E-03-5.50062E-01 5.31801E-15 1.03008E-13
 -1      3099 2.03983E+01-5.73931E-01-1.96100E-03-5.62729E-01-2.66795E-15 2.14218E-13
 -1      3100 2.01265E+01-3.26340E-01 2.76425E-03-3.32209E-01 1.94092E-15 1.26100E-13
 -1      3101 2.01328E+01-3.74043E-01-2.31599E-03-3.96562E-01 9.75813E-15 1.37005E-13
 -1      3102 2.02772E+01-4.63208E-01-2.00370E-03-4.03178E-01-1.32854E-14 2.29485E-13
 -1      3103 2.00772E+01-2.43327E-01 2.15514E-03-2.32296E-01-1.25515E-13 9.07614E-14
 -1      3104 2.00817E+01-2.84447E-01-1.73058E-03-2.80448E-01-4.16910E-14 1.16319E-13
 -1      3105 2.01824E+01-3.55936E-01-1.74157E-03-2.84425E-01 7.88374E-15 2.47318E-13
 -1      3106 2.00426E+01-1.75511E-01 1.59380E-03-1.60077E-01-3.78717E-13 9.56423E-14
 -1      3107 2.00451E+01-2.08464E-01-1.26424E-03-1.95154E-01-2.66688E-13 8.77802E-14
 -1      3108 2.01133E+01-2.63239E-01-1.36297E-03-1.98312E-01-1.69927E-13 1.89388E-13
 -1      3109 2.00202E+01-1.23182E-01 1.13103E-03-1.08819E-01-1.69460E-13 1.02384E-13
 -1      3110 2.00210E+01-1.48257E-01-9.13705E-04-1.33840E-01-2.80317E-13 4.74800E-14
 -1      3111 2.00658E+01-1.88792E-01-9.85604E-04-1.36915E-01-3.22325E-13 5.00752E-14
 -1      3112 2.00068E+01-8.44742E-02 7.75998E-04-7.29390E-02 3.20989E-15 4.03861E-14
 -1      3113 2.00063E+01-1.02827E-01-6.57745E-04-9.04867E-02-3.89886E-14 4.58456E-14
 -1      3114 2.00349E+01-1.32013E-01-6.66636E-04-9.36177E-02-1.36005E-14-7.79588E-14
 -1      3115 1.99994E+01-5.67622E-02 5.17250E-04-4.81041E-02-8.91428E-14-4.69494E-14
 -1      3116 1.99983E+01-6.97948E-02-4.72984E-04-6.02341E-02-1.26489E-14 2.64596E-14
 -1      3117 2.00159E+01-9.03451E-02-4.23223E-04-6.33106E-02 1.30237E-14-1.29606E-13
 -1      3118 1.99959E+01-3.74289E-02 3.35935E-04-3.10851E-02-1.06330E-13 9.91931E-14
 -1      3119 1.99946E+01-4.64631E-02-3.39844E-04-3.93611E-02-1.34674E-13 8.95670E-17
 -1      3120 2.00049E+01-6.06651E-02-2.50946E-04-4.22204E-02-1.29325E-13-4.96699E-14
 -1      3121 1.99948E+01-2.42204E-02 2.12827E-04-1.95379E-02 2.13075E-13 9.82267E-14
 -1      3122 1.99934E+01-3.03613E-02-2.43647E-04-2.51123E-02 3.42005E-14 1.10369E-13
 -1      3123 1.99991E+01-4.00170E-02-1.36494E-04-2.76289E-02-7.52058E-14 3.21346E-14
 -1      3124 1.99948E+01-1.53515E-02 1.31423E-04-1.17909E-02 1.44918E-13-2.28621E-14
 -1      3125 1.99936E+01-1.94578E-02-1.73906E-04-1.54935E-02 3.24067E-13 1.18462E-13
 -1      3126 1.99965E+01-2.59238E-02-6.48849E-05-1.76039E-02 2.20604E-13 1.46335E-13
 -1      3127 1.99955E+01-9.48484E-03 7.88294E-05-6.66566E-03 2.01597E-13-1.21279E-13
 -1      3128 1.99944E+01-1.21915E-02-1.23244E-04-9.08439E-03 5.76207E-14-1.03755E-13
 -1      3129 1.99956E+01-1.64558E-02-2.28977E-05-1.07803E-02 1.86171E-13 1.67966E-13
 -1      3130 1.99963E+01-5.65712E-03 4.55665E-05-3.33769E-03 1.01975E-13 3.36704E-14
 -1      3131 1.99955E+01-7.41713E-03-8.64587E-05-4.88381E-03 2.14004E-13 1.26189E-14
 -1      3132 1.99957E+01-1.01820E-02-2.18841E-07-6.19563E-03 1.45662E-13 7.94060E-14
 -1      3133 1.99971E+01-3.19461E-03 2.49653E-05-1.23326E-03 3.74981E-14 1.32053E-13
 -1      3134 1.99965E+01-4.32266E-03-5.98321E-05-2.19187E-03 1.33108E-13 6.26115E-14
 -1      3135 1.99962E+01-6.07794E-03 1.05657E-05-3.17111E-03 3.47972E-14 1.80995E-13
 -1      3136 1.99979E+01-1.63616E-03 1.24889E-05 4.55693E-05 7.54981E-14 6.79340E-14
 -1      3137 1.99974E+01-2.34663E-03-4.06697E-05-5.21804E-04-3.63157E-14 8.37830E-14
 -1      3138 1.99968E+01-3.42944E-03 1.44619E-05-1.22759E-03 5.31754E-14 2.04272E-13
 -1      3139 1.99984E+01-6.71099E-04 5.13266E-06 7.73977E-04 4.16045E-14 9.83036E-14
 -1      3140 1.99981E+01-1.10795E-03-2.69935E-05 4.63508E-04 1.46408E-13 8.64415E-14
 -1      3141 1.99974E+01-1.74783E-03 1.46708E-05-2.66982E-05 5.05580E-14 7.67985E-14
 -1      3142 1.99989E+01-9.24039E-05 9.49927E-07 1.14167E-03 2.78806E-13 7.15669E-14
 -1      3143 1.99987E+01-3.51390E-04-1.73400E-05 9.96628E-04 1.43306E-13 9.82122E-14
 -1      3144 1.99980E+01-7.03394E-04 1.31330E-05 6.70318E-04 6.42402E-14 1.53338E-13
 -1      3145 1.99992E+01 2.36874E-04-1.29776E-06 1.27883E-03 8.01179E-14 1.10691E-13
 -1      3146 1.99991E+01 9.24523E-05-1.06214E-05 1.23731E-03 2.94015E-13 6.19970E-14
 -1      3147 1.99985E+01-7.57782E-05 1.09576E-05 1.03153E-03 2.37851E-13 1.15687E-13
 -1      3148 1.99994E+01 4.06970E-04-2.38651E-06 1.27422E-03-1.44823E-13 9.11086E-14
 -1      3149 1.99994E+01 3.35407E-04-6.02930E-06 1.29463E-03-5.20470E-14 1.33718E-13
 -1      3150 1.99988E+01 2.81479E-04 8.73152E-06 1.17463E-03 2.44771E-14 1.41652E-13
 -1      3151 1.99996E+01 4.77213E-04-2.79668E-06 1.18769E-03-2.88933E-13-3.73813E-14
 -1      3152 1.99996E+01 4.51081E-04-2.96396E-06 1.24244E-03-2.80478E-13-2.53153E-14
 -1      3153 1.99991E+01 4.65413E-04 6.73078E-06 1.18141E-03-1.64363E-13-5.49640E-14
 -1      3154 1.99997E+01 4.86554E-04-2.82224E-06 1.05900E-03-5.84280E-14-1.00551E-13
 -1      3155 1.99997E+01 4.87845E-04-9.82500E-07 1.13010E-03-5.59842E-14 2.28963E-14
 -1      3156 1.99993E+01 5.40212E-04 5.05609E-06 1.10797E-03-1.97588E-13-2.01747E-13
 -1      3157 1.99998E+01 4.60491E-04-2.64142E-06 9.13917E-04 5.99707E-14-1.64118E-13
 -1      3158 1.99998E+01 4.77425E-04 2.40154E-07 9.89936E-04-5.97434E-14-8.54555E-14
 -1      3159 1.99995E+01 5.48277E-04 3.71657E-06 9.92175E-04-7.87217E-14-8.05052E-14
 -1      3160 1.99998E+01 4.15622E-04-2.36104E-06 7.68555E-04-1.27680E-14 8.33711E-15
 -1      3161 1.99998E+01 4.40549E-04 9.40835E-07 8.42534E-04 1.81828E-13-3.24185E-14
 -1      3162 1.99996E+01 5.17529E-04 2.67871E-06 8.58893E-04-2.32955E-14-6.93856E-15
 -1      3163 1.99998E+01 3.62614E-04-2.04419E-06 6.32394E-04-1.07996E-13 2.05698E-13
 -1      3164 1.99998E+01 3.90640E-04 1.29051E-06 7.00395E-04-1.45784E-13 1.50157E-13
 -1      3165 1.99997E+01 4.66226E-04 1.89374E-06 7.23893E-04-6.17430E-14 8.82690E-14
 -1      3166 1.99998E+01 3.08182E-04-1.72716E-06 5.10442E-04-1.05011E-13 8.79703E-14
 -1      3167 1.99999E+01 3.36253E-04 1.41124E-06 5.70533E-04-4.56483E-14 2.82442E-13
 -1      3168 1.99997E+01 4.06151E-04 1.31170E-06 5.96594E-04-1.49063E-13 1.75132E-13
 -1      3169 1.99998E+01 2.56395E-04-1.42987E-06 4.04749E-04-7.88374E-14-2.87193E-14
 -1      3170 1.99999E+01 2.82687E-04 1.38919E-06 4.56302E-04-6.83925E-14 1.60585E-14
 -1      3171 1.99997E+01 3.44735E-04 8.88122E-07 4.82084E-04-8.64690E-14 1.67656E-14
 -1      3172 1.99998E+01 2.09573E-04-1.16112E-06 3.15477E-04-1.40902E-14 6.97157E-14
 -1      3173 1.99999E+01 2.33072E-04 1.28357E-06 3.58677E-04-6.93802E-14-5.85927E-14
 -1      3174 1.99998E+01 2.86483E-04 5.86288E-07 3.82555E-04-5.92618E-14-3.94495E-14
 -1      3175 1.99998E+01 1.68850E-04-9.24320E-07 2.41624E-04-1.17136E-14 9.84816E-14
 -1      3176 1.99998E+01 1.89112E-04 1.13542E-06 2.77135E-04 4.26353E-14 5.83648E-14
 -1      3177 1.99998E+01 2.33964E-04 3.75565E-07 2.98326E-04-2.32454E-14 1.05242E-13
 -1      3178 1.99998E+01 1.35008E-04-5.06513E-07 1.81736E-04 2.10667E-13 1.95503E-13
 -1      3179 1.99998E+01 1.51567E-04 9.95277E-07 2.10291E-04 9.39017E-14 1.01680E-16
 -1      3180 1.99998E+01 1.88324E-04 1.47363E-07 2.28609E-04 2.17689E-14 5.00072E-14
 -1      3181 1.99998E+01 1.33334E-04 2.05535E-07-9.41121E-05-1.33243E-13-5.60800E-14
 -1      3182 1.99998E+01 1.45205E-04-7.20238E-07-8.71130E-05-1.34959E-13 1.54958E-13
 -1      3183 3.00025E+01 1.62921E+00 8.08888E-03 1.31701E+00-7.26502E-15 1.64008E-13
 -1      3184 2.94688E+01 3.31814E+00-1.26424E-01 2.06122E+00 4.02040E-14 1.13541E-13
 -1      3185 1.99997E+01 1.69941E-04-6.83965E-07 6.20995E-05-1.89957E-14-2.07912E-13
 -1      3186 1.99998E+01 1.61505E-04 1.72160E-07 7.47914E-05-8.43398E-14-3.29453E-13
 -1      3187 1.99997E+01 1.93502E-04 6.73783E-07 6.03001E-05-1.18098E-13-2.40759E-13
 -1      3188 1.99998E+01 1.60203E-04 2.20697E-07-7.48685E-05-1.14463E-13-7.52557E-15
 -1      3189 1.99997E+01 1.68707E-04-6.84759E-07-6.22713E-05-1.63802E-13 1.78189E-13
 -1      3190 1.99998E+01 1.68796E-04 5.21808E-07-9.21942E-05-8.35983E-14 1.41783E-13
 -1      3191 1.99997E+01 1.78317E-04-3.18436E-08-4.51314E-05-2.34120E-13 1.85406E-13
 -1      3192 1.99997E+01 1.82815E-04-5.21671E-07-2.93699E-05-9.62216E-14 2.94055E-13
 -1      3193 1.99997E+01 1.91909E-04 6.36782E-07-6.11033E-05-6.71925E-14 2.26465E-13
 -1      3194 6.65838E+00 3.35154E+00 2.15867E-01-4.71521E+00-2.04260E-13-1.73500E-13
 -1      3195 8.94432E+00 3.68352E+00 1.87725E-01-5.43788E+00-2.41800E-13-1.38778E-13
 -1      3196 2.92884E+01 3.02417E+00-1.68230E-01-1.91258E+00 2.07404E-14 1.22125E-15
 -1      3197 2.99632E+01 1.21853E+00 2.07110E-02-1.47452E+00 1.71391E-15-6.16729E-14
 -1      3198 1.59759E+01 1.37066E+00 1.44022E-01-7.37082E+00-2.88658E-13-1.77636E-14
 -1      3199 2.28435E+01-3.77767E+00-3.31425E-02 6.16019E+00-2.13642E-13-2.35702E-13
 -1      3200 1.97700E+01-2.81515E+00 1.51076E-01 7.10358E+00-2.03310E-13-1.72050E-13
 -1      3201 1.99997E+01 1.86449E-04-2.81553E-07-9.21167E-06 2.04379E-14 2.07086E-13
 -1      3202 1.99997E+01 1.86606E-04-3.05632E-07 8.08254E-06 5.05289E-14-3.18010E-14
 -1      3203 1.99997E+01 2.05064E-04 7.30876E-07 2.04757E-05 3.81270E-15-1.31805E-13
 -1      3204 1.99997E+01 2.04423E-04 7.20987E-07-2.19699E-05 5.94989E-14 1.35850E-13
 -1      3205 2.77765E+01-3.80166E+00-9.52547E-02 3.30648E+00-1.59584E-13-1.96503E-13
 -1      3206 2.58180E+01-3.94787E+00 3.33277E-02 4.64870E+00-1.79631E-13-2.00850E-13
 -1      3207 1.99998E+01 1.47056E-04-7.92707E-07 8.72194E-05-2.71015E-14-5.50604E-13
 -1      3208 1.99998E+01 1.35477E-04 3.92125E-07 9.44306E-05 2.16049E-13-4.23464E-13
 -1      3209 1.99997E+01 1.71163E-04 5.49023E-07 9.18752E-05-1.34971E-13-4.46734E-13
 -1      3210 2.96170E+01-1.15396E+00-1.67584E-01-1.50037E-01-4.37289E-14-8.70068E-14
 -1      3211 2.91147E+01-2.68123E+00 4.75367E-02 1.58494E+00-1.25178E-13-1.43122E-13
 -1      3212 1.99998E+01 1.18168E-04-8.90381E-07 1.02935E-04 2.59850E-13-4.23373E-13
 -1      3213 1.99998E+01 9.72318E-05 3.08008E-07 1.04725E-04 2.01660E-13-4.76270E-13
 -1      3214 1.99998E+01 1.06584E-04 1.03485E-06 1.22536E-04 3.46809E-14-2.54495E-13
 -1      3215 1.99998E+01 1.41559E-04 5.33194E-07 1.13810E-04 2.40897E-13-4.37197E-13
 -1      3216 1.44627E+01 2.83956E+00-3.22227E-02-2.99029E-01-7.05460E-14 3.02348E-13
 -1      3217 1.57239E+01 2.51746E+00-2.59361E-02-3.20971E-01-7.70538E-14 2.03263E-13
 -1      3218 1.60984E+01 2.43441E+00 8.50725E-02 4.81513E-01-7.99319E-14 8.78997E-14
 -1      3219 1.61982E+01-1.75195E+00-4.78973E-03 7.35751E+00-1.91028E-13-1.37293E-13
 -1      3220 1.32637E+01-1.83701E-01 1.48952E-01 6.54532E+00-1.08719E-13 3.24463E-14
 -1      3221 2.85647E+01-1.01868E+00 2.32141E-02-1.67311E+00-7.74346E-14 2.04968E-13
 -1      3222 2.94228E+01-2.24381E-02-1.76514E-01-6.43162E-02-2.82517E-14 1.92374E-13
 -1      3223 2.07153E+01 1.52490E+00 1.22366E-02 1.88875E+00 4.37196E-14 6.82227E-14
 -1      3224 2.04183E+01-5.95770E-01 1.88414E-03-1.11238E+00-8.03590E-15 6.97891E-14
 -1      3225 2.03966E+01-5.69577E-01-3.00421E-03-1.23324E+00-1.11947E-15 9.89309E-14
 -1      3226 2.08090E+01-6.39008E-01 2.08109E-03-1.29492E+00-4.95907E-14 1.21446E-14
 -1      3227 2.06864E+01-7.03183E-01 3.83558E-05-1.01907E+00-1.87202E-14-1.58003E-14
 -1      3228 2.85059E+01 6.53013E+00-1.65906E-01-1.19383E+00 1.23054E-13 3.81379E-14
 -1      3229 2.88084E+01 5.24746E+00-5.09817E-02-1.88043E+00 7.18453E-14 1.40235E-14
 -1      3230 2.89187E+01 7.75595E+00-1.19431E-01 8.22998E-01 1.27370E-13 7.52315E-14
 -1      3231 2.86727E+01 7.65632E+00-1.20483E-01-2.88473E-01 1.30132E-13 3.98752E-14
 -1      3232 2.91345E+01 5.49074E+00-8.55066E-02 2.12684E+00 1.07025E-13 1.03396E-13
 -1      3233 2.90672E+01 6.94673E+00-1.54619E-01 1.61267E+00 1.22985E-13 8.09873E-14
 -1      3234 2.77189E+01 6.61607E+00-9.00939E-02 1.20726E+00 1.15782E-13 4.77604E-14
 -1      3235 2.49399E+01 1.51164E+00-6.12944E-02 1.76916E+00-2.78553E-14 7.84045E-14
 -1      3236 2.57172E+01 1.25084E+00 1.44916E-02 1.47492E+00-5.38621E-14 4.74794E-14
 -1      3237 7.75034E+00 4.59370E+00 1.69737E-01-2.79683E+00-1.81997E-13-1.43247E-13
 -1      3238 8.99689E+00 5.04411E+00 9.80586E-02-3.32919E+00-1.99608E-13-1.12993E-13
 -1      3239 9.75134E+00 4.59440E+00 1.08317E-01-4.76880E+00-2.44554E-13-1.11827E-13
 -1      3240 2.04246E+01 1.56074E+00-6.13160E-03-8.50544E-01 1.11448E-13 1.52186E-13
 -1      3241 1.98222E+01 1.39593E+00-1.60086E-03-6.51309E-01 1.10616E-13 1.47842E-13
 -1      3242 1.98297E+01 1.51430E+00 7.37525E-03-3.24515E-01 1.24256E-13 1.59131E-13
 -1      3243 2.80163E+01 3.64010E+00-6.12418E-02-1.90308E+00 4.26326E-14 4.86729E-14
 -1      3244 2.03389E+01 1.46007E+00 5.73682E-03 1.43111E+00 8.35368E-14 9.03530E-14
 -1      3245 2.04815E+01 1.44419E+00-4.47493E-03 1.71076E+00 5.32187E-14 7.20244E-14
 -1      3246 2.57029E+01-4.69159E-01 1.93158E-02-1.94677E+00-1.38702E-13 1.16837E-13
 -1      3247 2.08448E+01-4.14674E-02 4.94762E-03-1.71670E+00 2.12165E-14 1.03927E-13
 -1      3248 2.02825E+01 6.32138E-02-7.22474E-03-1.67943E+00 4.33858E-14 5.88383E-14
 -1      3249 2.01999E+01 2.93974E-01 7.04643E-03-1.65198E+00 7.68913E-14 9.49812E-14
 -1      3250 2.52904E+01-3.63476E+00-4.14208E-02 3.84807E+00-9.36109E-14-6.17852E-14
 -1      3251 2.44500E+01-3.81585E+00 4.47978E-02 5.10128E+00-1.52996E-13-1.32808E-13
 -1      3252 2.26840E+01-3.15298E+00 9.81904E-03 5.25613E+00-1.51972E-13-1.21611E-13
 -1      3253 1.99998E+01 1.14376E-04-7.90245E-08 1.39304E-04-4.65970E-14-1.27313E-13
 -1      3254 1.99998E+01 1.26356E-04 9.67221E-07 1.61581E-04 2.01435E-13-6.59152E-15
 -1      3255 1.99998E+01 1.55058E-04-5.39158E-07 1.76559E-04 2.95896E-13-9.19240E-14
 -1      3256 1.99998E+01 1.32453E-04-9.75390E-07 1.38224E-04 1.20472E-13-2.75769E-13
 -1      3257 1.30210E+01 3.13464E+00 5.63217E-02-1.29014E-01-5.24910E-14 2.44374E-13
 -1      3258 1.35580E+01 3.02038E+00 1.60787E-01 1.13392E+00-8.50249E-14 1.43847E-13
 -1      3259 2.78136E+01 2.92258E+00-3.87242E-02 2.09991E+00 9.18363E-15 9.04528E-14
 -1      3260 2.86227E+01 4.07850E+00-8.96330E-02 2.30487E+00 4.67265E-14 1.08982E-13
 -1      3261 2.74017E+01 4.75316E+00-4.60666E-02 2.24166E+00 6.76334E-14 6.79803E-14
 -1      3262 2.79025E+01-3.03555E+00-8.02894E-03 1.87739E+00-1.43538E-13-1.00905E-13
 -1      3263 2.12099E+01 1.71049E+00-8.62925E-05 1.87745E+00 4.82312E-14 5.93367E-14
 -1      3264 8.23155E+00 2.57900E+00 2.05427E-01 1.18168E+00 2.01145E-13 2.67675E-13
 -1      3265 9.80049E+00 2.89949E+00 1.28953E-01-1.37807E+00 2.52362E-13 3.91576E-13
 -1      3266 1.99998E+01 1.08537E-04 8.95827E-08-1.03129E-04-1.84022E-13-2.47903E-13
 -1      3267 1.99998E+01 1.20085E-04-6.31948E-07-1.00190E-04-4.95058E-14-3.97965E-13
 -1      3268 1.99998E+01 1.42096E-04 6.22556E-08-1.10626E-04-1.94652E-13-1.91103E-13
 -1      3269 1.99998E+01 1.16460E-04 6.29513E-07-1.18367E-04-6.09081E-14-1.79427E-13
 -1      3270 2.87759E+01-3.56839E-01-5.19564E-02-8.51728E-01-6.05661E-14-6.51146E-14
 -1      3271 2.73898E+01 6.39398E+00-8.84712E-02-7.18749E-01 1.04215E-13 6.15116E-14
 -1      3272 2.88647E+01 8.63192E-01 1.50962E-02 9.47019E-01-4.11962E-14 1.42740E-13
 -1      3273 1.98676E+01 1.57349E+00 3.99916E-03 6.84966E-02 1.27624E-13 1.36519E-13
 -1      3274 1.99400E+01 1.58350E+00 2.29491E-03 4.21230E-01 1.18592E-13 1.34277E-13
 -1      3275 2.04249E+01 1.83522E+00-7.78358E-03-9.37541E-02 1.11937E-13 1.32077E-13
 -1      3276 2.20782E+01 1.91138E+00 1.25451E-02 2.09715E+00 2.53868E-14 4.53129E-14
 -1      3277 2.23750E+01 1.96223E+00-1.48433E-02 2.20049E+00 2.34110E-14 2.03726E-14
 -1      3278 2.30146E+01 1.95013E+00-8.45711E-03 2.14059E+00 7.64525E-15 3.29500E-14
 -1      3279 1.24719E+01 6.19089E-01 1.21036E-01 5.73490E+00-8.35096E-14 8.48627E-14
 -1      3280 1.18446E+01 1.60853E+00 9.31117E-02 4.48932E+00-1.86101E-14-1.72085E-15
 -1      3281 1.47058E+01 3.35700E-01 8.74238E-02 5.55360E+00-5.85088E-14-1.10051E-14
 -1      3282 2.05870E+01 1.86419E+00-5.04184E-03 7.07594E-01 9.15146E-14 1.20386E-13
 -1      3283 1.85345E+01-1.85351E+00 8.37045E-02 6.49146E+00-1.94803E-13-1.54245E-13
 -1      3284 1.23713E+01 3.37206E+00 1.10357E-01-8.31542E-01-2.04437E-14 3.59657E-13
 -1      3285 2.01020E+01 5.33186E-01-8.53409E-03-1.57853E+00 4.03722E-14 1.02872E-13
 -1      3286 2.00235E+01 7.86766E-01 1.03398E-02-1.44174E+00 7.23923E-14 9.98912E-14
 -1      3287 2.07239E+01 4.89497E-01 3.04980E-03-1.69576E+00 6.32871E-14 1.32685E-13
 -1      3288 9.87485E+00 2.59712E+00 1.60112E-01 2.01616E+00 3.34836E-14 1.16504E-13
 -1      3289 2.71594E+01-8.45425E-01 2.96772E-02-1.76268E+00-1.30323E-13 1.73851E-13
 -1      3290 2.05546E+01 1.07145E+00-1.16445E-03-1.41113E+00 9.53160E-14 1.34174E-13
 -1      3291 2.36628E+01 1.92262E+00-2.30395E-02 2.11784E+00 1.86038E-15 6.44350E-14
 -1      3292 2.43430E+01 1.76414E+00-3.37538E-03 1.94890E+00-1.63216E-14 9.96347E-14
 -1      3293 2.49112E+01 1.89952E+00 2.63030E-02 2.06087E+00-9.45858E-15 1.13796E-13
 -1      3294 2.34214E+01 2.06506E+00 1.63300E-02 2.16917E+00 1.69739E-14 6.54533E-14
 -1      3295 2.71151E+01 8.22816E-01-8.57227E-03 1.08120E+00-3.52149E-14 9.50282E-14
 -1      3296 2.68409E+01 1.84819E-01-4.87865E-02 2.87894E-01-6.19071E-14 9.67924E-14
 -1      3297 2.08548E+01 1.74159E+00-1.59804E-03 1.40769E+00 4.91520E-14 8.50140E-14
 -1      3298 2.70599E+01-3.65288E-01-3.30180E-02-6.39847E-01-8.99055E-14 1.36520E-13
 -1      3299 2.76677E+01 3.02164E-01-1.25166E-01-1.56486E+00-3.46962E-14-1.59959E-14
 -1      3300 2.80245E+01-1.16487E+00 7.29931E-02-5.69925E-01-8.88387E-14-3.40283E-14
 -1      3301 1.83523E+01 1.15887E+00-2.30551E-02 3.48597E-01-1.65403E-13 5.96810E-15
 -1      3302 1.87607E+01 9.60804E-01-5.05833E-03 2.79251E-01-5.11104E-14 1.23844E-13
 -1      3303 1.90285E+01 7.76875E-01-1.33757E-02 1.66799E-01-5.26586E-15 1.34364E-13
 -1      3304 1.92700E+01 6.26030E-01-4.20709E-03 1.43703E-01 1.61679E-14 1.57520E-13
 -1      3305 1.89467E+01 8.29834E-01 1.56886E-02 4.77049E-01 3.83179E-14 1.64971E-13
 -1      3306 1.94401E+01 4.94377E-01-7.44738E-03 8.45527E-02-8.88547E-14 8.70807E-14
 -1      3307 1.95799E+01 3.88591E-01-3.10410E-03 8.04812E-02-1.64471E-13 1.28219E-14
 -1      3308 1.93721E+01 5.49648E-01 1.02730E-02 2.68315E-01-6.48442E-14 6.73687E-14
 -1      3309 1.96844E+01 2.99806E-01-4.11700E-03 4.94627E-02-9.05914E-14-6.78648E-14
 -1      3310 1.97641E+01 2.29832E-01-2.07464E-03 5.14264E-02-1.62379E-13 1.10596E-13
 -1      3311 1.96361E+01 3.44519E-01 6.53591E-03 1.56314E-01-1.92476E-13-1.04497E-13
 -1      3312 1.98288E+01 1.70467E-01-2.20099E-03 3.40989E-02-2.16111E-13 2.41448E-13
 -1      3313 1.98746E+01 1.24722E-01-1.32237E-03 3.66846E-02-1.83521E-13 2.23394E-13
 -1      3314 1.97978E+01 2.01123E-01 3.81093E-03 9.50922E-02-9.16032E-14 8.51801E-14
 -1      3315 1.99097E+01 9.04320E-02-1.16647E-03 2.71676E-02-1.26564E-13 2.26072E-13
 -1      3316 1.99333E+01 6.43834E-02-8.25761E-04 2.86219E-02-6.18826E-14 1.98462E-13
 -1      3317 1.98917E+01 1.09945E-01 2.33564E-03 6.10136E-02-1.33929E-13 2.21919E-13
 -1      3318 1.99531E+01 4.43073E-02-6.02098E-04 2.25466E-02-2.07698E-14 1.85401E-13
 -1      3319 1.99657E+01 2.92270E-02-4.79858E-04 2.27730E-02-7.94783E-14 1.22225E-13
 -1      3320 1.99432E+01 5.53511E-02 1.33416E-03 4.16071E-02-7.13944E-14 1.03695E-13
 -1      3321 1.99764E+01 1.80394E-02-3.31183E-04 1.85061E-02-8.40129E-14 1.44917E-13
 -1      3322 1.99831E+01 9.89848E-03-2.55650E-04 1.78565E-02-5.90018E-14 2.00578E-13
 -1      3323 1.99714E+01 2.36115E-02 7.48984E-04 2.92137E-02-7.36885E-14 3.90582E-14
 -1      3324 1.99886E+01 4.10697E-03-1.90363E-04 1.46667E-02 4.35454E-14 1.96565E-13
 -1      3325 1.99920E+01 1.23869E-04-1.21908E-04 1.35526E-02 9.03986E-14 2.65451E-13
 -1      3326 1.99863E+01 6.32376E-03 4.08570E-04 2.06883E-02-5.07832E-15 9.57396E-14
 -1      3327 1.99946E+01-2.51780E-03-1.16041E-04 1.10988E-02-8.92104E-14 1.38120E-13
 -1      3328 1.99964E+01-4.12632E-03-4.68691E-05 9.84123E-03-1.38006E-13-1.95820E-14
 -1      3329 1.99938E+01-2.18436E-03 2.14929E-04 1.45058E-02-8.47160E-14 1.18566E-13
 -1      3330 1.99975E+01-5.02422E-03-7.53949E-05 7.95059E-03-5.93063E-14-1.62171E-13
 -1      3331 1.99984E+01-5.36239E-03-8.08999E-06 6.75510E-03-1.38109E-13-2.34640E-13
 -1      3332 1.99973E+01-5.62250E-03 1.07971E-04 9.90157E-03-2.44361E-13 3.24504E-14
 -1      3333 1.99988E+01-5.36754E-03-5.17451E-05 5.32102E-03 8.48374E-15-2.43251E-13
 -1      3334 1.99992E+01-5.09388E-03 9.43208E-06 4.29581E-03 1.55284E-13-9.63531E-14
 -1      3335 1.99987E+01-6.32367E-03 5.10128E-05 6.45857E-03-5.14520E-14-2.68386E-14
 -1      3336 1.99993E+01-4.70141E-03-3.68228E-05 3.23658E-03 1.08899E-13-6.17013E-14
 -1      3337 1.99995E+01-4.19074E-03 1.52421E-05 2.42157E-03-4.97537E-15-1.37710E-13
 -1      3338 1.99992E+01-5.69653E-03 2.21123E-05 3.91492E-03 1.48266E-13-1.37382E-13
 -1      3339 1.99994E+01-3.67395E-03-2.66098E-05 1.66628E-03-1.04061E-13-1.16994E-13
 -1      3340 1.99995E+01-3.12609E-03 1.51447E-05 1.05940E-03-3.20341E-14-1.69735E-13
 -1      3341 1.99993E+01-4.55131E-03 8.42963E-06 2.08024E-03-1.08319E-14 1.84809E-14
 -1      3342 1.99995E+01-2.62423E-03-1.91724E-05 5.44607E-04-5.55253E-14-3.03913E-13
 -1      3343 1.99995E+01-2.13474E-03 1.25005E-05 1.21487E-04-2.35440E-13-2.31300E-13
 -1      3344 1.99992E+01-3.32393E-03 2.63565E-06 8.01764E-04-7.88748E-14-2.98289E-13
 -1      3345 1.99995E+01-1.70910E-03-1.35639E-05-2.08626E-04-2.85438E-13-1.09137E-13
 -1      3346 1.99995E+01-1.31422E-03 9.13670E-06-4.81418E-04-4.75625E-13-2.27365E-14
 -1      3347 1.99991E+01-2.22493E-03 6.71591E-07-4.80155E-05-1.64243E-13-2.63049E-13
 -1      3348 1.99995E+01-9.83028E-04-9.28773E-06-6.74382E-04-4.71907E-13 4.05135E-14
 -1      3349 1.99995E+01-6.87335E-04 5.97036E-06-8.31378E-04-2.71706E-13 1.26900E-13
 -1      3350 1.99991E+01-1.33530E-03 3.73364E-07-5.75616E-04-2.52217E-13 1.04629E-13
 -1      3351 1.99995E+01-4.46919E-04-6.05261E-06-9.26207E-04-1.89906E-13 5.64852E-14
 -1      3352 1.99995E+01-2.39081E-04 3.53012E-06-9.99122E-04-1.04801E-13-6.32298E-15
 -1      3353 1.99991E+01-6.66236E-04 6.05242E-07-8.68477E-04-2.64971E-13 2.21158E-13
 -1      3354 1.99995E+01-6.89855E-05-3.66026E-06-1.02742E-03-1.08807E-14-2.29084E-13
 -1      3355 1.99996E+01 7.04218E-05 1.54518E-06-1.04089E-03-1.20501E-13-2.38875E-13
 -1      3356 1.99992E+01-1.87272E-04 7.45657E-07-9.97282E-04-1.16029E-13-2.81620E-13
 -1      3357 1.99996E+01 1.68950E-04-1.85960E-06-1.02311E-03-1.02893E-13-1.52127E-13
 -1      3358 1.99996E+01 2.46256E-04 1.18980E-08-9.98589E-04-7.01347E-14-9.18057E-14
 -1      3359 1.99993E+01 1.26188E-04 1.30579E-06-1.01270E-03-1.15015E-13-3.12063E-13
 -1      3360 1.99996E+01 3.00880E-04-6.35393E-07-9.56230E-04-1.45768E-13-1.99534E-13
 -1      3361 1.99996E+01 3.38722E-04-8.46666E-07-9.10424E-04-9.16035E-14-3.49712E-13
 -1      3362 1.99994E+01 3.05487E-04 1.43827E-06-9.58005E-04-1.74590E-13-1.60442E-13
 -1      3363 1.99997E+01 3.61878E-04 1.55003E-07-8.55357E-04 6.74164E-16-3.25197E-13
 -1      3364 1.99997E+01 3.72892E-04-1.30634E-06-7.99359E-04 5.98380E-14-2.65699E-13
 -1      3365 1.99994E+01 3.95825E-04 1.41596E-06-8.64951E-04-5.93869E-14-4.45004E-13
 -1      3366 1.99997E+01 3.75141E-04 6.42374E-07-7.39988E-04 2.13529E-13-8.08292E-14
 -1      3367 1.99997E+01 3.69004E-04-1.50115E-06-6.81295E-04 2.01985E-13-1.80319E-14
 -1      3368 1.99995E+01 4.25020E-04 1.30260E-06-7.54139E-04 1.44092E-13-1.89635E-13
 -1      3369 1.99997E+01 3.58382E-04 9.08469E-07-6.23063E-04 3.55450E-13-1.01391E-13
 -1      3370 1.99997E+01 3.42259E-04-1.51818E-06-5.66469E-04 3.38336E-13-7.45800E-14
 -1      3371 1.99996E+01 4.14800E-04 1.13697E-06-6.39418E-04 4.24840E-13 1.01254E-13
 -1      3372 1.99998E+01 3.24594E-04 1.01914E-06-5.12629E-04 1.17118E-13-6.74717E-15
 -1      3373 1.99998E+01 3.03563E-04-1.42529E-06-4.60929E-04 1.61501E-13-1.48847E-13
 -1      3374 1.99996E+01 3.81330E-04 9.51304E-07-5.29538E-04 2.78725E-13 5.99114E-14
 -1      3375 1.99998E+01 2.82898E-04 1.02546E-06-4.13177E-04 4.66965E-14-3.13126E-13
 -1      3376 1.99998E+01 2.60394E-04-1.27234E-06-3.67746E-04-9.32443E-14-3.23685E-13
 -1      3377 1.99997E+01 3.36125E-04 7.68498E-07-4.29538E-04-2.58455E-14-1.52750E-13
 -1      3378 1.99998E+01 2.39409E-04 9.66938E-07-3.26721E-04-9.68745E-14-3.32364E-13
 -1      3379 1.99998E+01 2.17651E-04-1.09730E-06-2.87976E-04-2.44312E-14-3.33629E-13
 -1      3380 1.99997E+01 2.87016E-04 6.00544E-07-3.41860E-04-6.77835E-14-2.29620E-13
 -1      3381 1.99998E+01 1.98029E-04 8.70887E-07-2.53617E-04 1.59256E-13-1.79305E-13
 -1      3382 1.99998E+01 1.78349E-04-9.19510E-07-2.21356E-04 2.10020E-13 7.64638E-15
 -1      3383 1.99997E+01 2.39048E-04 4.39009E-07-2.67178E-04 2.80338E-13 1.06524E-13
 -1      3384 1.99998E+01 1.60977E-04 7.34997E-07-1.93181E-04 1.75222E-13 1.20308E-13
 -1      3385 1.99998E+01 1.44394E-04-6.25444E-07-1.67159E-04 3.20942E-13 2.71422E-13
 -1      3386 1.99998E+01 1.95293E-04 3.03693E-07-2.05153E-04 3.67085E-13 8.10112E-14
 -1      3387 2.13281E+01-6.42110E-01-1.05757E-03-1.44936E+00-1.72782E-14 4.87502E-14
 -1      3388 2.13412E+01-4.77710E-01-7.79635E-04-1.56700E+00 8.01144E-16 8.93912E-14
 -1      3389 2.05235E+01-6.10238E-01 4.72747E-03-4.38088E-01-2.19631E-14 2.01440E-13
 -1      3390 2.05847E+01-6.77847E-01-2.47658E-03-5.24442E-01-3.79481E-14 1.47448E-13
 -1      3391 2.07234E+01-7.35848E-01 5.21932E-03-6.19414E-01-6.20805E-14 1.44345E-13
 -1      3392 2.07902E+01-7.88720E-01-3.47815E-03-7.29696E-01-4.16539E-14 9.47739E-14
 -1      3393 2.08173E+01-7.96583E-01-4.12231E-03-4.83208E-01-9.72554E-14 1.29636E-13
 -1      3394 2.02381E+01-3.60336E-01 2.94116E-03-2.12751E-01 2.15160E-14 2.21247E-13
 -1      3395 2.02763E+01-4.18693E-01-9.54859E-04-2.59906E-01-3.02409E-14 2.29715E-13
 -1      3396 2.01500E+01-2.62546E-01 2.13900E-03-1.47519E-01-2.73240E-13 2.21773E-13
 -1      3397 2.01771E+01-3.09725E-01-5.59254E-04-1.81314E-01-6.75546E-14 2.32035E-13
 -1      3398 2.02568E+01-3.71989E-01-2.67231E-03-1.56492E-01-9.41396E-14 2.38152E-13
 -1      3399 2.00899E+01-1.86401E-01 1.50231E-03-1.02134E-01-1.86420E-13 1.67358E-14
 -1      3400 2.01080E+01-2.22596E-01-3.35790E-04-1.26121E-01-2.41024E-13 1.31118E-13
 -1      3401 2.01612E+01-2.68865E-01-1.95814E-03-1.08941E-01-1.85104E-13 1.75140E-13
 -1      3402 2.00506E+01-1.29550E-01 1.02761E-03-7.04946E-02 4.41362E-14-1.11381E-13
 -1      3403 2.00621E+01-1.56279E-01-2.18643E-04-8.74273E-02-9.06742E-14-7.69470E-14
 -1      3404 2.00969E+01-1.89883E-01-1.36350E-03-7.64543E-02-9.83009E-14 3.78500E-15
 -1      3405 2.00261E+01-8.84199E-02 6.88409E-04-4.83463E-02-7.01173E-15-4.04926E-14
 -1      3406 2.00328E+01-1.07599E-01-1.59007E-04-6.02540E-02 6.16617E-14-6.53634E-14
 -1      3407 2.00552E+01-1.31582E-01-9.08947E-04-5.38484E-02 2.68599E-14-5.41341E-14
 -1      3408 2.00115E+01-5.93784E-02 4.53305E-04-3.27856E-02-1.94857E-13 8.25964E-14
 -1      3409 2.00151E+01-7.28374E-02-1.26822E-04-4.11285E-02-1.30541E-13-1.92371E-14
 -1      3410 2.00292E+01-8.97160E-02-5.81936E-04-3.78242E-02-6.96586E-14-4.40044E-14
 -1      3411 2.00032E+01-3.92610E-02 2.94003E-04-2.18413E-02-6.36194E-14 1.43158E-13
 -1      3412 2.00049E+01-4.85410E-02-1.06100E-04-2.76577E-02-1.44615E-13 1.62764E-13
 -1      3413 2.00135E+01-6.02817E-02-3.57655E-04-2.63046E-02-1.69715E-13 1.33240E-14
 -1      3414 1.99989E+01-2.55377E-02 1.87920E-04-1.41646E-02 2.37930E-13 1.85038E-13
 -1      3415 1.99995E+01-3.18461E-02-8.95540E-05-1.81903E-02 6.77021E-14 1.20307E-13
 -1      3416 2.00045E+01-3.99264E-02-2.09987E-04-1.79648E-02 3.19362E-14 1.17439E-13
 -1      3417 1.99969E+01-1.62947E-02 1.18242E-04-8.81922E-03 7.40786E-14 2.46517E-13
 -1      3418 1.99969E+01-2.05322E-02-7.45565E-05-1.15764E-02 2.14097E-13 2.46461E-13
 -1      3419 1.99997E+01-2.60342E-02-1.16369E-04-1.19308E-02 1.33559E-13 1.88518E-13
 -1      3420 1.99963E+01-1.01388E-02 7.29919E-05-5.14415E-03 1.34042E-13 2.08586E-13
 -1      3421 1.99960E+01-1.29547E-02-6.05971E-05-7.00455E-03 2.03432E-13 2.15985E-13
 -1      3422 1.99973E+01-1.66571E-02-5.92379E-05-7.59963E-03 7.22438E-14 2.54140E-13
 -1      3423 1.99963E+01-6.08377E-03 4.39035E-05-2.66544E-03 4.47251E-14 2.14244E-13
 -1      3424 1.99960E+01-7.93454E-03-4.79006E-05-3.89462E-03-6.63784E-15 2.15483E-13
 -1      3425 1.99964E+01-1.03902E-02-2.58184E-05-4.53640E-03 7.46887E-14 1.83393E-13
 -1      3426 1.99967E+01-3.44508E-03 2.53937E-05-1.03950E-03 1.24069E-13 1.77402E-13
 -1      3427 1.99963E+01-4.64606E-03-3.67855E-05-1.82754E-03 8.26155E-14 2.42639E-13
 -1      3428 1.99963E+01-6.24432E-03-7.27264E-06-2.41681E-03 6.09987E-14 1.51816E-13
 -1      3429 1.99972E+01-1.75464E-03 1.37534E-05-1.56448E-05-3.56444E-14 1.29223E-13
 -1      3430 1.99968E+01-2.52091E-03-2.74306E-05-4.98622E-04 1.13830E-13 1.09773E-13
 -1      3431 1.99966E+01-3.53394E-03 2.27019E-06-9.93906E-04 1.51237E-13 1.23341E-13
 -1      3432 1.99977E+01-6.95278E-04 6.54690E-06 5.89272E-04 1.99437E-15 2.37509E-13
 -1      3433 1.99974E+01-1.17238E-03-1.98396E-05 3.14102E-04-9.07408E-14 1.57912E-13
 -1      3434 1.99970E+01-1.78964E-03 6.57433E-06-7.83403E-05-1.30751E-13 1.52939E-13
 -1      3435 1.99981E+01-5.33725E-05 2.18743E-06 9.08597E-04 1.98870E-13 2.36299E-13
 -1      3436 1.99979E+01-3.39335E-04-1.38809E-05 7.72041E-04 3.08580E-13 3.18171E-13
 -1      3437 1.99974E+01-6.92216E-04 7.97379E-06 4.74708E-04 7.98754E-14 2.58128E-13
 -1      3438 1.99985E+01 3.14565E-04-3.53555E-07 1.03868E-03 7.00787E-14 1.99639E-13
 -1      3439 1.99983E+01 1.53856E-04-9.34483E-06 9.91874E-04 5.24756E-14 2.14303E-13
 -1      3440 1.99979E+01-2.54190E-05 7.86913E-06 7.74964E-04 9.47803E-14 2.80248E-13
 -1      3441 1.99988E+01 5.04818E-04-1.74168E-06 1.04834E-03-1.51139E-13 3.68646E-14
 -1      3442 1.99987E+01 4.25097E-04-5.99158E-06 1.05714E-03 8.61534E-14 1.63675E-13
 -1      3443 1.99983E+01 3.57016E-04 7.06763E-06 9.04387E-04 6.69726E-14 3.11452E-13
 -1      3444 1.99991E+01 5.81977E-04-2.40682E-06 9.85926E-04-2.16481E-13 1.55898E-14
 -1      3445 1.99990E+01 5.53515E-04-3.58477E-06 1.02684E-03-2.52473E-13-9.10609E-14
 -1      3446 1.99986E+01 5.54014E-04 6.01699E-06 9.23121E-04-1.24300E-13-4.98766E-14
 -1      3447 1.99992E+01 5.89317E-04-2.62724E-06 8.84721E-04-1.51396E-13 9.52542E-14
 -1      3448 1.99992E+01 5.92183E-04-1.91123E-06 9.41916E-04-1.14844E-13 1.78649E-14
 -1      3449 1.99989E+01 6.32465E-04 4.94980E-06 8.74375E-04-2.18868E-13 1.40795E-13
 -1      3450 1.99994E+01 5.55728E-04-2.58305E-06 7.66974E-04 1.21167E-14 1.00352E-13
 -1      3451 1.99993E+01 5.76623E-04-7.89786E-07 8.30084E-04-7.63041E-14 6.54409E-14
 -1      3452 1.99991E+01 6.37529E-04 3.97530E-06 7.88411E-04-1.44201E-13 1.75358E-13
 -1      3453 1.99995E+01 5.00338E-04-2.39057E-06 6.46986E-04-1.32901E-13 1.93702E-13
 -1      3454 1.99995E+01 5.30477E-04-7.29058E-08 7.09512E-04-1.00160E-13 1.71495E-13
 -1      3455 1.99993E+01 5.99553E-04 3.13524E-06 6.85771E-04-2.08586E-13 2.14394E-13
 -1      3456 1.99996E+01 4.35623E-04-2.12439E-06 5.33419E-04-1.28914E-13 1.42466E-13
 -1      3457 1.99996E+01 4.69303E-04 3.55471E-07 5.91551E-04-1.32840E-13 2.06781E-13
 -1      3458 1.99994E+01 5.38737E-04 2.43639E-06 5.79832E-04-2.18277E-13 2.16144E-13
 -1      3459 1.99997E+01 3.69515E-04-1.83105E-06 4.31022E-04 2.72580E-14-4.08195E-14
 -1      3460 1.99996E+01 4.03140E-04 5.84262E-07 4.82786E-04 1.50625E-14 5.94826E-14
 -1      3461 1.99995E+01 4.68308E-04 1.86907E-06 4.78813E-04 8.12417E-14 1.95012E-13
 -1      3462 1.99997E+01 3.06849E-04-1.54260E-06 3.41900E-04-2.51557E-14-2.46101E-13
 -1      3463 1.99997E+01 3.38265E-04 6.81595E-07 3.86538E-04-3.64276E-14-2.20479E-13
 -1      3464 1.99996E+01 3.96689E-04 1.41754E-06 3.87305E-04 1.02804E-13-1.49075E-13
 -1      3465 1.99997E+01 2.50436E-04-1.25845E-06 2.66469E-04 1.66894E-14-1.95110E-13
 -1      3466 1.99997E+01 2.78404E-04 7.00744E-07 3.03995E-04 1.71229E-14-1.78040E-13
 -1      3467 1.99997E+01 3.28986E-04 1.06016E-06 3.07440E-04 2.75856E-14-4.26501E-13
 -1      3468 1.99998E+01 2.01787E-04-8.32770E-07 2.04302E-04-2.46075E-14-3.32604E-13
 -1      3469 1.99998E+01 2.25543E-04 6.72276E-07 2.34856E-04 2.61972E-14-3.46705E-13
 -1      3470 1.99997E+01 2.68027E-04 7.21238E-07 2.39847E-04 9.78470E-14-5.85774E-13
 -1      3471 1.07903E+01 2.99372E+00 5.33210E-02 8.23993E-01-1.30104E-15 1.14880E-13
 -1      3472 2.66236E+01 4.04082E+00-8.14927E-02-1.86553E+00 5.70100E-14 6.96318E-15
 -1      3473 2.74583E+01 2.46679E+00 3.49037E-02-2.08984E+00-9.00668E-15 1.62544E-14
 -1      3474 1.99997E+01 2.16913E-04-7.13277E-07 5.90616E-05-1.07085E-14-2.19781E-13
 -1      3475 1.99997E+01 2.09137E-04 9.67265E-08 7.82822E-05-1.24508E-13-2.62910E-13
 -1      3476 1.99997E+01 1.79527E-04 5.06169E-07-1.12596E-04-1.29511E-13 8.54483E-14
 -1      3477 1.99997E+01 1.91851E-04-8.71821E-07-9.88690E-05-4.93693E-14 7.63303E-14
 -1      3478 1.99997E+01 2.06831E-04 1.29784E-07-7.94422E-05-1.29988E-13 2.73236E-13
 -1      3479 1.99997E+01 2.14860E-04-7.08081E-07-6.08438E-05-2.31420E-13 2.47614E-13
 -1      3480 1.99997E+01 2.20148E-04 6.17840E-07-1.00678E-04-1.62672E-13 2.26464E-13
 -1      3481 2.03611E+01-4.78790E-01 3.85621E-03-3.06153E-01-5.57854E-14 2.25711E-13
 -1      3482 2.04114E+01-5.45645E-01-1.58593E-03-3.70858E-01-9.62070E-15 1.92210E-13
 -1      3483 2.05786E+01-6.47032E-01-4.00831E-03-3.31291E-01-2.36682E-14 1.95343E-13
 -1      3484 2.03931E+01-4.99907E-01-3.41985E-03-2.26941E-01-5.95692E-14 2.07087E-13
 -1      3485 2.66639E+01 5.83354E+00-5.60726E-02 1.56524E+00 9.24122E-14 2.78037E-14
 -1      3486 2.64695E+01 6.41713E+00-6.77279E-02 7.18866E-01 9.67421E-14 8.75645E-15
 -1      3487 1.72775E+01 1.62182E+00-3.35153E-02 7.24098E-01-2.24393E-13 3.96302E-14
 -1      3488 1.79456E+01 1.39270E+00-4.27944E-03 5.57731E-01-2.48236E-13-1.45253E-14
 -1      3489 1.82838E+01 1.17324E+00 2.35684E-02 8.59854E-01-1.90819E-13 2.91650E-14
 -1      3490 2.74175E+01-2.73266E+00-1.19969E-01 9.55069E-01-1.10882E-13-3.01720E-14
 -1      3491 2.69296E+01-3.22431E+00 8.23035E-02 2.32782E+00-1.23701E-13-7.20830E-14
 -1      3492 2.16690E+01 1.93177E+00 9.12115E-03 1.82720E+00 5.12702E-14 4.66766E-14
 -1      3493 2.18564E+01 1.92695E+00-4.62514E-03 1.97769E+00 3.21820E-14 4.63809E-14
 -1      3494 2.25275E+01 2.06061E+00-1.43843E-03 2.05701E+00 3.93522E-14 3.43959E-14
 -1      3495 1.99997E+01 1.94590E-04-8.05213E-07 9.81455E-05-5.69117E-14-3.43470E-13
 -1      3496 1.99997E+01 1.82228E-04 1.83004E-07 1.11508E-04-6.34402E-14-5.09693E-13
 -1      3497 1.99997E+01 2.23924E-04 8.69785E-07 9.90309E-05 7.20579E-14-4.48388E-13
 -1      3498 1.55650E+01 2.10446E+00-4.93962E-02 1.43972E+00-4.62425E-14 4.62061E-14
 -1      3499 1.66740E+01 1.85516E+00-1.40957E-03 1.09478E+00-1.26863E-13 4.70951E-14
 -1      3500 1.72829E+01 1.52477E+00 3.84689E-02 1.54143E+00-1.74871E-13-4.94459E-14
 -1      3501 2.62937E+01 6.26937E+00-7.00485E-02-1.77693E-01 1.21431E-13 1.74966E-14
 -1      3502 2.62074E+01 5.47059E+00-4.11828E-02-1.10586E+00 9.83380E-14-3.87104E-15
 -1      3503 2.54083E+01 5.49058E+00-5.24484E-02 2.29128E-01 9.89313E-14-3.24981E-14
 -1      3504 2.11189E+01 2.27459E+00 5.92604E-03 6.18370E-01 1.12084E-13 5.34000E-14
 -1      3505 2.12262E+01 2.19828E+00-2.59852E-03 1.00706E+00 6.92207E-14 4.42367E-14
 -1      3506 1.08492E+01 2.40044E+00 9.85693E-02 2.87709E+00-6.34631E-14-5.66214E-15
 -1      3507 2.11693E+01 1.08204E+00-1.31704E-02-1.58895E+00 9.35406E-14 1.25531E-13
 -1      3508 2.11186E+01 1.45209E+00 1.30291E-02-1.37719E+00 9.77084E-14 1.45972E-13
 -1      3509 2.00871E+01-2.17756E+00 1.86661E-03 5.77650E+00-1.51157E-13-2.05301E-13
 -1      3510 1.74442E+01-8.78429E-01 8.29946E-02 5.89549E+00-8.51506E-14-1.62648E-13
 -1      3511 2.13876E+01 2.12261E+00 6.88209E-03 1.30500E+00 4.37018E-14 5.01702E-14
 -1      3512 2.15073E+01 2.01174E+00-5.13398E-03 1.60784E+00 4.62976E-14 3.95107E-14
 -1      3513 2.21864E+01 2.29177E+00 3.88027E-03 1.75261E+00 4.35084E-14 3.17567E-14
 -1      3514 2.18960E+01 2.48820E+00-2.33422E-03 1.24077E+00 6.46822E-14 2.28533E-14
 -1      3515 1.25591E+01 1.97489E+00 1.53130E-02 3.35116E+00-6.50209E-14 5.76622E-15
 -1      3516 2.66809E+01 1.04953E+00-3.40194E-02-1.78344E+00-4.43274E-14 2.18558E-14
 -1      3517 2.64070E+01 4.90716E+00-6.13859E-02 1.96664E+00 5.96502E-14 6.96752E-14
 -1      3518 2.53527E+01 4.95250E+00 5.53397E-04 1.58342E+00 4.56926E-14 4.20584E-14
 -1      3519 2.60130E+01 3.95315E+00-1.95654E-02 2.15328E+00 4.86920E-14 7.22369E-14
 -1      3520 2.54483E+01-3.24285E+00-9.64140E-04 2.90796E+00-7.78388E-14-2.91486E-14
 -1      3521 2.18816E+01-4.39000E-01 6.57443E-03-1.61486E+00 4.49274E-14 1.36723E-13
 -1      3522 2.13914E+01-2.59674E-01-6.59950E-03-1.69934E+00 6.55953E-15 1.19644E-13
 -1      3523 2.13671E+01 2.19904E-02 4.13660E-03-1.75155E+00 4.98467E-14 1.29237E-13
 -1      3524 2.12084E+01-7.50867E-01-3.39716E-03-1.28358E+00-6.81250E-14-1.39919E-15
 -1      3525 2.16898E+01-8.08024E-01 3.10097E-03-1.30136E+00 5.21789E-15 7.07738E-14
 -1      3526 2.11637E+01-8.10854E-01 2.94374E-03-1.14491E+00-4.83568E-14 4.35397E-15
 -1      3527 1.99998E+01 1.34476E-04 6.58525E-07-1.50634E-04-1.41008E-13 1.13469E-13
 -1      3528 1.99998E+01 1.25612E-04 2.07273E-08-1.32255E-04-2.01581E-13-1.55222E-14
 -1      3529 1.99998E+01 1.39631E-04 8.24956E-08-1.30437E-04-2.13754E-13-2.13684E-13
 -1      3530 1.99998E+01 1.63489E-04 2.38713E-07-1.61096E-04 2.93251E-14-2.41782E-14
 -1      3531 1.41085E+01 2.13678E+00 5.30476E-02 2.61881E+00-1.77722E-14 3.91562E-14
 -1      3532 1.99998E+01 1.66342E-04-7.90763E-07 1.23781E-04 1.43531E-13-4.93128E-13
 -1      3533 1.99998E+01 1.51017E-04 9.66470E-09 1.32798E-04 1.93890E-13-4.11176E-13
 -1      3534 1.99998E+01 1.63094E-04 8.44418E-07 1.50397E-04 2.19313E-13-2.86281E-13
 -1      3535 1.99997E+01 1.94798E-04 1.30402E-07 1.31915E-04 1.57777E-13-6.64364E-13
 -1      3536 2.11024E+01-9.14307E-01-3.24928E-03-6.96148E-01-8.70413E-14 1.47388E-13
 -1      3537 2.09470E+01-8.20638E-01 4.83966E-03-8.57119E-01-3.41665E-14 6.89382E-14
 -1      3538 2.10097E+01-8.33535E-01-4.03660E-03-9.88397E-01-6.78978E-14 4.54007E-14
 -1      3539 2.16557E+01 1.86100E+00 2.50673E-04-1.28307E+00 8.30033E-14 1.22869E-13
 -1      3540 2.10127E+01 1.77207E+00-9.00544E-03-1.06088E+00 9.00960E-14 1.12843E-13
 -1      3541 2.09986E+01 2.03606E+00 1.07005E-02-7.13210E-01 8.59566E-14 1.06251E-13
 -1      3542 1.99997E+01 2.24378E-04-1.98028E-07 3.40978E-05 2.10331E-15-7.37348E-14
 -1      3543 1.99997E+01 2.44368E-04 8.02627E-07 5.21706E-05-4.95306E-15-6.67016E-14
 -1      3544 1.99997E+01 2.26833E-04-4.60460E-07 1.21022E-05 1.42631E-14 1.32235E-13
 -1      3545 2.57942E+01 4.32526E+00-4.92911E-02-1.58544E+00 8.85125E-14-2.49475E-15
 -1      3546 2.53088E+01 3.30361E+00 3.22957E-02-1.82273E+00 4.00548E-14-2.60616E-14
 -1      3547 2.47957E+01 4.46365E+00-1.96726E-02-1.11888E+00 9.95645E-14-1.55631E-14
 -1      3548 2.76031E+01 1.92604E+00-9.47216E-02 1.94443E+00-1.77913E-14 7.75209E-14
 -1      3549 2.68366E+01 2.78790E+00-2.18972E-02 2.25358E+00 2.10595E-14 7.30640E-14
 -1      3550 2.26405E+01-2.78768E+00-3.49703E-02 4.36027E+00-8.14383E-14-2.60209E-17
 -1      3551 2.15851E+01-2.52398E+00 5.88974E-02 5.19924E+00-1.29782E-13-8.08017E-14
 -1      3552 2.02937E+01-1.72052E+00 7.44033E-03 4.87137E+00-7.05547E-14-7.44561E-14
 -1      3553 1.99997E+01 2.23275E-04-1.57620E-07-3.62529E-05-7.39540E-14 7.30509E-14
 -1      3554 1.99997E+01 2.26315E-04-4.81291E-07-1.43691E-05 1.12160E-13 6.33466E-14
 -1      3555 1.99997E+01 2.50763E-04 8.02487E-07-1.48223E-06 2.16161E-13 1.09131E-13
 -1      3556 2.69848E+01-1.88168E+00-2.23115E-02 4.19303E-02-7.31713E-14-1.00874E-14
 -1      3557 1.99998E+01 1.51732E-04-5.61155E-07-1.24504E-04-1.98261E-13-8.34315E-14
 -1      3558 1.99997E+01 2.42264E-04 7.44030E-07-5.47823E-05-5.35422E-14 5.57388E-14
 -1      3559 2.09800E+01 2.20460E+00-2.55813E-04-2.63486E-01 8.26855E-14 1.06228E-13
 -1      3560 2.10262E+01 2.28624E+00 3.18339E-03 1.49476E-01 9.71113E-14 7.73362E-14
 -1      3561 2.15557E+01 2.44582E+00-7.72611E-03-4.91300E-01 7.47039E-14 6.75392E-14
 -1      3562 1.99998E+01 1.78086E-04-2.17103E-07-1.34224E-04-1.99417E-13-1.32371E-13
 -1      3563 1.99998E+01 1.75373E-04-1.12104E-07 1.65529E-04 4.17779E-13-4.04635E-13
 -1      3564 1.99998E+01 1.88909E-04 7.18135E-07 1.86818E-04 1.66967E-13-4.16221E-13
 -1      3565 1.99997E+01 2.22793E-04-1.20301E-07 1.90151E-04 1.05251E-13-1.00038E-12
 -1      3566 1.99998E+01 1.93073E-04 8.01073E-09 1.58644E-04 2.13083E-13-7.21558E-13
 -1      3567 1.65044E+01-2.33674E-01 5.93652E-02 5.53948E+00-4.62408E-14-1.18940E-13
 -1      3568 1.54790E+01 5.08654E-01-2.44353E-02 4.77604E+00 6.16868E-15-8.62366E-14
 -1      3569 1.81728E+01-6.16979E-01 3.04252E-02 4.94690E+00-8.13108E-15-2.46567E-13
 -1      3570 1.53932E+01 1.59335E+00 9.39898E-02 3.24591E+00-2.22088E-15-5.30392E-14
 -1      3571 2.16401E+01 2.63611E+00-4.19017E-03 4.60075E-01 9.43600E-14 3.63216E-14
 -1      3572 2.13269E+01 3.43648E-01-1.22097E-02-1.78510E+00 2.89972E-14 1.37602E-13
 -1      3573 2.12754E+01 7.13213E-01 9.76494E-03-1.72109E+00 7.22243E-14 1.37307E-13
 -1      3574 2.19289E+01 1.96262E-01 8.12319E-03-1.80598E+00 2.97265E-14 1.55531E-13
 -1      3575 2.18244E+01 1.02031E+00 3.01921E-03-1.72842E+00 6.56484E-14 1.59153E-13
 -1      3576 2.78298E+01 9.31587E-01 1.77788E-02 1.06622E+00-3.67345E-14 8.86097E-14
 -1      3577 2.09008E+01-8.12331E-01 6.39599E-03-3.02726E-01-6.17425E-14 8.22674E-14
 -1      3578 2.10265E+01-9.01755E-01-2.08483E-03-3.84287E-01-1.13561E-13 8.57126E-14
 -1      3579 2.21930E+01 3.12409E+00 1.65074E-03 2.99935E-01 7.59723E-14 8.65282E-14
 -1      3580 2.22797E+01 3.09079E+00 1.06419E-03 7.73869E-01 7.01674E-14 4.27262E-14
 -1      3581 1.93201E+01 4.82413E-01-1.19120E-02 4.40287E-01-2.39421E-14 7.57695E-16
 -1      3582 1.95044E+01 3.94451E-01 8.72126E-04 3.53281E-01-1.28644E-13-3.94676E-14
 -1      3583 1.95959E+01 3.10694E-01-7.36957E-03 2.61258E-01-1.27180E-13-6.91221E-14
 -1      3584 1.97089E+01 2.45780E-01 2.36136E-04 2.13399E-01-1.77324E-13-1.10100E-14
 -1      3585 1.96210E+01 2.94427E-01 5.40317E-03 4.10187E-01-1.11196E-13-1.21681E-13
 -1      3586 1.97709E+01 1.84769E-01-4.39078E-03 1.56309E-01-1.67956E-13 1.20217E-13
 -1      3587 1.98399E+01 1.38455E-01-6.62740E-05 1.28721E-01-3.11862E-14 1.68883E-13
 -1      3588 1.97793E+01 1.81759E-01 3.54893E-03 2.47145E-01-6.59539E-14 1.28832E-13
 -1      3589 1.98753E+01 1.00683E-01-2.57364E-03 9.66461E-02-7.12761E-14 7.70404E-14
 -1      3590 1.99129E+01 7.28381E-02-2.00393E-04 8.16524E-02-1.50652E-13 1.54184E-13
 -1      3591 1.98779E+01 1.02465E-01 2.48296E-03 1.49759E-01-5.77223E-14 8.80689E-14
 -1      3592 1.99338E+01 4.97538E-02-1.46049E-03 6.20455E-02-5.14407E-14 1.51158E-13
 -1      3593 1.99549E+01 3.29036E-02-1.50671E-04 5.29372E-02-3.50824E-14 1.71927E-13
 -1      3594 1.99347E+01 5.11615E-02 1.52183E-03 9.31514E-02-8.16335E-14 7.46308E-14
 -1      3595 1.99665E+01 1.95632E-02-8.45319E-04 4.07352E-02-8.56084E-14 8.13422E-14
 -1      3596 1.99779E+01 1.01875E-02-7.95341E-05 3.48377E-02-9.65616E-14 6.38416E-14
 -1      3597 1.99672E+01 1.99145E-02 9.03007E-04 5.85952E-02-9.93951E-14 9.99699E-14
 -1      3598 1.99840E+01 3.08591E-03-4.89269E-04 2.70784E-02-1.15286E-13 2.94674E-14
 -1      3599 1.99899E+01-1.57964E-03-2.60964E-05 2.30406E-02 4.50616E-15-8.91656E-15
 -1      3600 1.99847E+01 2.43256E-03 5.14785E-04 3.71385E-02-1.22526E-13 8.96204E-14
 -1      3601 1.99928E+01-4.87799E-03-2.84386E-04 1.80013E-02 6.30214E-14-4.76789E-14
 -1      3602 1.99957E+01-6.74449E-03 6.99456E-06 1.51244E-02-1.43646E-13 9.68373E-15
 -1      3603 1.99935E+01-6.17491E-03 2.79803E-04 2.35608E-02-6.29572E-14-3.36227E-14
 -1      3604 1.99968E+01-7.85999E-03-1.66904E-04 1.17967E-02-2.36711E-13 7.34217E-14
 -1      3605 1.99982E+01-8.18045E-03 2.36075E-05 9.70537E-03-2.23201E-13 1.05464E-13
 -1      3606 1.99975E+01-9.43381E-03 1.43128E-04 1.48136E-02-1.03298E-13 8.81894E-14
 -1      3607 1.99985E+01-8.14225E-03-9.94343E-05 7.48691E-03-2.33829E-13 7.99205E-14
 -1      3608 1.99991E+01-7.69863E-03 2.90837E-05 5.96310E-03 5.94769E-14 6.76573E-15
 -1      3609 1.99989E+01-9.72160E-03 6.71559E-05 9.09889E-03-2.32583E-13 1.75640E-13
 -1      3610 1.99990E+01-7.13009E-03-6.03933E-05 4.48303E-03 2.05832E-13-7.48680E-14
 -1      3611 1.99992E+01-6.38476E-03 2.80308E-05 3.38589E-03 2.15856E-13 1.33456E-14
 -1      3612 1.99992E+01-8.55054E-03 2.72912E-05 5.33733E-03 1.60940E-14 1.28048E-13
 -1      3613 1.99990E+01-5.64257E-03-3.74775E-05 2.40789E-03 3.15969E-14-1.12879E-13
 -1      3614 1.99991E+01-4.85056E-03 2.37687E-05 1.63653E-03-1.29682E-13-4.66720E-14
 -1      3615 1.99991E+01-6.82599E-03 8.03684E-06 2.86390E-03 2.25958E-14-2.17756E-13
 -1      3616 1.99989E+01-4.12315E-03-2.37367E-05 1.00444E-03-1.99217E-13-1.87392E-13
 -1      3617 1.99989E+01-3.41079E-03 1.84200E-05 4.81216E-04-8.28521E-14-3.09443E-13
 -1      3618 1.99988E+01-5.05046E-03-3.36369E-08 1.25631E-03-2.03941E-13-1.62015E-13
 -1      3619 1.99988E+01-2.78493E-03-1.52692E-05 8.84716E-05-3.93524E-14-3.23650E-13
 -1      3620 1.99988E+01-2.20251E-03 1.31956E-05-2.48434E-04-1.92749E-13-2.05331E-13
 -1      3621 1.99986E+01-3.47228E-03-2.44685E-06 2.37731E-04-1.18880E-13-1.93307E-13
 -1      3622 1.99988E+01-1.70673E-03-9.88587E-06-4.76357E-04-2.38342E-13-1.48645E-13
 -1      3623 1.99988E+01-1.26248E-03 8.69033E-06-6.76473E-04-1.15228E-13 1.50695E-13
 -1      3624 1.99985E+01-2.18794E-03-2.31040E-06-3.78652E-04-9.98575E-14-1.80540E-13
 -1      3625 1.99988E+01-8.94422E-04-6.32562E-06-7.92468E-04-2.88031E-13 1.27830E-13
 -1      3626 1.99988E+01-5.74758E-04 5.29025E-06-8.95545E-04-4.06905E-13-4.26291E-14
 -1      3627 1.99985E+01-1.20947E-03-1.34961E-06-7.21862E-04-2.04587E-13 4.05888E-14
 -1      3628 1.99989E+01-3.06511E-04-3.95745E-06-9.38868E-04-2.76166E-13-1.36181E-13
 -1      3629 1.99989E+01-8.42077E-05 2.59557E-06-9.74446E-04-9.89175E-14-1.75038E-13
 -1      3630 1.99986E+01-4.93958E-04-4.47565E-07-8.83690E-04-3.42156E-13 2.22193E-14
 -1      3631 1.99990E+01 7.84562E-05-2.32443E-06-9.66924E-04-9.72973E-14-2.99295E-13
 -1      3632 1.99990E+01 2.08895E-04 5.43725E-07-9.57380E-04-8.59511E-14-2.71908E-13
 -1      3633 1.99987E+01-1.19624E-05 8.52426E-07-9.23587E-04-2.01199E-13 3.30322E-14
 -1      3634 1.99991E+01 3.05502E-04-1.23577E-06-9.23113E-04-1.35332E-13-3.21774E-13
 -1      3635 1.99991E+01 3.76938E-04-6.53115E-07-8.87729E-04-3.26779E-13-5.36591E-13
 -1      3636 1.99988E+01 2.78365E-04 1.50450E-06-8.88301E-04-2.45677E-13-4.13225E-13
 -1      3637 1.99992E+01 4.25302E-04-5.02409E-07-8.39103E-04-1.06821E-13-2.65683E-13
 -1      3638 1.99993E+01 4.55425E-04-1.33983E-06-7.90069E-04 8.53995E-14-1.19626E-13
 -1      3639 1.99990E+01 4.39391E-04 1.81886E-06-8.11750E-04-8.94921E-14-3.15492E-13
 -1      3640 1.99993E+01 4.70770E-04-1.86710E-08-7.35776E-04 2.43129E-13 3.99901E-14
 -1      3641 1.99994E+01 4.73499E-04-1.67565E-06-6.81422E-04 3.50179E-13 2.40818E-13
 -1      3642 1.99991E+01 5.09487E-04 1.90219E-06-7.14941E-04 3.52835E-13 2.76192E-13
 -1      3643 1.99994E+01 4.67622E-04 2.84873E-07-6.27086E-04 2.40731E-13 1.56766E-13
 -1      3644 1.99995E+01 4.53470E-04-1.77123E-06-5.72874E-04 3.29289E-13 1.61994E-13
 -1      3645 1.99993E+01 5.19028E-04 1.82650E-06-6.11845E-04 2.20583E-13 3.65654E-13
 -1      3646 1.99995E+01 4.35104E-04 4.59357E-07-5.21910E-04 4.31708E-13-9.34342E-14
 -1      3647 1.99995E+01 4.11684E-04-1.71264E-06-4.71183E-04 1.72139E-13-3.05914E-14
 -1      3648 1.99994E+01 4.90986E-04 1.65464E-06-5.11321E-04 1.05393E-13 5.54317E-16
 -1      3649 1.99996E+01 3.87031E-04 5.43811E-07-4.25453E-04 1.60193E-13 3.67298E-14
 -1      3650 1.99996E+01 3.59632E-04-1.56174E-06-3.80030E-04-1.19394E-13 1.24032E-13
 -1      3651 1.99995E+01 4.42047E-04 1.43625E-06-4.18596E-04 1.65237E-13 1.41549E-13
 -1      3652 1.99997E+01 3.32896E-04 5.65618E-07-3.40322E-04-1.34389E-13 5.53365E-14
 -1      3653 1.99997E+01 3.04967E-04-1.37724E-06-3.00969E-04 1.47846E-13 2.28217E-13
 -1      3654 1.99996E+01 3.83851E-04 1.21048E-06-3.36351E-04-1.06752E-13 4.92278E-13
 -1      3655 1.99997E+01 2.79078E-04 5.89256E-07-2.67495E-04 2.89030E-13 3.06053E-13
 -1      3656 1.99997E+01 2.52817E-04-1.14132E-06-2.34143E-04 4.08012E-13 5.24450E-13
 -1      3657 1.99996E+01 3.24081E-04 9.86804E-07-2.65671E-04 3.24217E-13 7.13329E-13
 -1      3658 1.99997E+01 2.29181E-04 6.15072E-07-2.06403E-04 2.50510E-13 2.51103E-13
 -1      3659 1.99997E+01 2.06231E-04-7.97536E-07-1.78901E-04 2.02077E-13 1.34857E-13
 -1      3660 1.99997E+01 2.67177E-04 4.37935E-07-2.06393E-04 1.37384E-13 4.82202E-13
 -1      3661 1.99997E+01 2.61942E-04-9.33207E-08-7.55251E-05-1.25755E-13-1.69848E-13
 -1      3662 1.99996E+01 2.69769E-04-5.14286E-07-4.95018E-05 1.82247E-13-2.93409E-13
 -1      3663 2.24648E+01 8.35496E-01-1.84436E-02-1.85479E+00 3.08815E-14 1.50560E-13
 -1      3664 2.24222E+01 1.38694E+00 1.32800E-02-1.72857E+00 6.54130E-14 1.40991E-13
 -1      3665 2.01709E+01-2.50896E-01 1.67990E-03-6.14907E-02-1.41808E-13 1.18878E-13
 -1      3666 2.02100E+01-2.98179E-01 5.06928E-04-7.79855E-02-1.89631E-13 1.73026E-13
 -1      3667 2.02724E+01-3.51250E-01 2.49043E-03-8.67782E-02-1.22179E-13 2.29369E-13
 -1      3668 2.03290E+01-4.13075E-01 4.41207E-04-1.11199E-01-3.75743E-14 2.03210E-13
 -1      3669 2.02613E+01-3.43997E-01-3.00022E-03-3.47901E-02-8.70999E-14 8.88279E-14
 -1      3670 2.00597E+01-1.21572E-01 7.31213E-04-3.32197E-02 4.74669E-14-6.18125E-14
 -1      3671 2.00763E+01-1.46719E-01 3.22784E-04-4.13920E-02 2.49055E-14-6.47417E-14
 -1      3672 2.00324E+01-8.29122E-02 4.77754E-04-2.45821E-02-9.31826E-14-5.77029E-14
 -1      3673 2.00426E+01-1.00686E-01 2.11417E-04-3.05496E-02 2.64315E-14-5.53527E-14
 -1      3674 2.00570E+01-1.17624E-01-9.11721E-04-1.88279E-02 5.00623E-14-6.75826E-14
 -1      3675 2.00158E+01-5.58643E-02 3.11540E-04-1.79511E-02-2.33457E-13 1.83776E-14
 -1      3676 2.00218E+01-6.82505E-02 1.22366E-04-2.23652E-02-1.58372E-13-4.06194E-14
 -1      3677 2.00311E+01-8.03028E-02-5.78930E-04-1.55083E-02-1.63032E-13-4.88602E-14
 -1      3678 2.00062E+01-3.71697E-02 2.02919E-04-1.27976E-02 1.19350E-13-1.08158E-14
 -1      3679 2.00094E+01-4.57083E-02 5.94260E-05-1.60717E-02-7.35422E-14-8.76517E-15
 -1      3680 2.00153E+01-5.42515E-02-3.57867E-04-1.23312E-02-1.35356E-13-7.11226E-14
 -1      3681 2.00008E+01-2.43731E-02 1.31858E-04-8.81283E-03 6.14854E-14 1.70749E-13
 -1      3682 2.00024E+01-3.02079E-02 1.92741E-05-1.12264E-02 1.51162E-13 1.17076E-13
 -1      3683 2.00061E+01-3.62324E-02-2.14759E-04-9.39393E-03 7.95191E-15-4.30254E-14
 -1      3684 1.99980E+01-1.56861E-02 8.52019E-05-5.78306E-03 1.06735E-14 2.11923E-13
 -1      3685 1.99987E+01-1.96425E-02-3.67588E-06-7.53824E-03 1.45170E-14 2.06823E-13
 -1      3686 2.00008E+01-2.38598E-02-1.24291E-04-6.81548E-03-1.80736E-14 7.48857E-14
 -1      3687 1.99968E+01-9.83590E-03 5.44381E-05-3.53528E-03 1.25090E-13 1.66516E-13
 -1      3688 1.99970E+01-1.24976E-02-1.48884E-05-4.78639E-03 1.55835E-13 1.74826E-13
 -1      3689 1.99981E+01-1.54199E-02-6.84307E-05-4.66768E-03 8.96928E-14 1.45279E-13
 -1      3690 1.99965E+01-5.93138E-03 3.40902E-05-1.91830E-03 8.82558E-14 1.02353E-13
 -1      3691 1.99964E+01-7.70548E-03-1.87760E-05-2.78666E-03 7.85684E-14 1.13048E-13
 -1      3692 1.99969E+01-9.70215E-03-3.48020E-05-2.96529E-03 1.57389E-13 5.18260E-14
 -1      3693 1.99966E+01-3.35522E-03 2.06282E-05-7.98326E-04 1.35264E-13 1.65546E-13
 -1      3694 1.99963E+01-4.52314E-03-1.85237E-05-1.38028E-03 1.78260E-13 2.19561E-13
 -1      3695 1.99964E+01-5.86141E-03-1.51548E-05-1.67905E-03 5.69596E-14 1.16049E-13
 -1      3696 1.99969E+01-1.68266E-03 1.17604E-05-5.92480E-05-1.99492E-13 2.82902E-13
 -1      3697 1.99966E+01-2.43801E-03-1.62419E-05-4.30981E-04-4.45311E-14 2.60058E-13
 -1      3698 1.99965E+01-3.31127E-03-4.12107E-06-7.53789E-04-2.46964E-14 2.87335E-13
 -1      3699 1.99973E+01-6.22325E-04 5.98116E-06 3.96645E-04 1.49157E-13 2.79430E-13
 -1      3700 1.99970E+01-1.09803E-03-1.32226E-05 1.75629E-04-5.95249E-14 2.10847E-13
 -1      3701 1.99968E+01-1.64619E-03 1.71979E-06-1.23808E-04-7.23976E-14 2.91546E-13
 -1      3702 1.99977E+01 2.54910E-05 2.28967E-06 6.48911E-04 4.86063E-15 3.16456E-13
 -1      3703 1.99975E+01-2.61834E-04-1.01916E-05 5.32922E-04 1.89873E-13 3.51198E-13
 -1      3704 1.99972E+01-5.85837E-04 4.51493E-06 2.76338E-04 5.60463E-14 3.79407E-13
 -1      3705 1.99981E+01 3.97764E-04 8.11650E-09 7.60240E-04 6.44487E-14 4.11601E-13
 -1      3706 1.99979E+01 2.36091E-04-7.50552E-06 7.14898E-04 3.05023E-15 4.01862E-13
 -1      3707 1.99976E+01 6.36943E-05 5.55481E-06 5.05593E-04-2.65868E-14 3.86309E-13
 -1      3708 1.99984E+01 5.88509E-04-1.32289E-06 7.78502E-04-2.55359E-13 3.49292E-13
 -1      3709 1.99983E+01 5.09345E-04-5.29568E-06 7.78503E-04-6.37671E-14 3.81170E-13
 -1      3710 1.99980E+01 4.36834E-04 5.64052E-06 6.13465E-04-7.63325E-14 4.48079E-13
 -1      3711 1.99987E+01 6.62245E-04-2.02047E-06 7.39125E-04-1.97190E-13 1.39497E-13
 -1      3712 1.99986E+01 6.35940E-04-3.57145E-06 7.66297E-04-1.49286E-13 2.27765E-13
 -1      3713 1.99983E+01 6.26798E-04 5.24130E-06 6.39429E-04-1.54217E-13 2.80973E-13
 -1      3714 1.99990E+01 6.63134E-04-2.30439E-06 6.67472E-04-2.30465E-13 1.59526E-13
 -1      3715 1.99989E+01 6.69384E-04-2.28222E-06 7.09134E-04-1.26549E-13 1.60420E-13
 -1      3716 1.99986E+01 6.98184E-04 4.62702E-06 6.13581E-04-2.15343E-13 2.17202E-13
 -1      3717 1.99992E+01 6.21210E-04-2.32697E-06 5.81042E-04-3.99724E-13 2.51161E-13
 -1      3718 1.99991E+01 6.46219E-04-1.35413E-06 6.28649E-04-3.48950E-13 1.73694E-13
 -1      3719 1.99989E+01 6.95586E-04 3.94911E-06 5.57941E-04-3.40770E-13 2.47074E-13
 -1      3720 1.99993E+01 5.56663E-04-2.19321E-06 4.91377E-04-4.47836E-14 1.56094E-13
 -1      3721 1.99993E+01 5.91185E-04-7.10759E-07 5.39426E-04-3.35245E-13 2.02062E-13
 -1      3722 1.99991E+01 6.49546E-04 3.28869E-06 4.87955E-04-3.12047E-13 6.69293E-14
 -1      3723 1.99994E+01 4.82805E-04-1.97452E-06 4.05639E-04 9.67369E-14 9.64700E-14
 -1      3724 1.99994E+01 5.20777E-04-2.83042E-07 4.50812E-04 2.17860E-13 1.73760E-13
 -1      3725 1.99993E+01 5.80696E-04 2.68588E-06 4.13956E-04 8.13080E-14-6.29189E-14
 -1      3726 1.99995E+01 4.08154E-04-1.71573E-06 3.27868E-04 2.57613E-13-3.23734E-13
 -1      3727 1.99995E+01 4.45731E-04-1.26661E-08 3.68372E-04 1.94067E-13-1.37057E-13
 -1      3728 1.99994E+01 5.02686E-04 2.15720E-06 3.42449E-04 2.46289E-13-1.37828E-13
 -1      3729 1.99996E+01 3.37900E-04-1.41272E-06 2.59931E-04 1.86031E-14-3.63914E-13
 -1      3730 1.99996E+01 3.72817E-04 1.62646E-07 2.95013E-04 8.08083E-14-4.39321E-13
 -1      3731 1.99995E+01 4.24257E-04 1.70415E-06 2.77167E-04 2.68662E-13-3.52803E-13
 -1      3732 1.99997E+01 2.75731E-04-1.01856E-06 2.02338E-04 1.81367E-13-4.86464E-13
 -1      3733 1.99997E+01 3.06154E-04 3.77106E-07 2.31759E-04 1.62414E-13-3.64483E-13
 -1      3734 1.99996E+01 3.50441E-04 1.09199E-06 2.20111E-04 9.41602E-14-3.27708E-13
 -1      3735 2.62156E+01-1.45834E+00-9.04539E-02-7.06705E-01-6.52351E-14 7.10478E-14
 -1      3736 2.63363E+01-2.28750E+00 8.43323E-02 4.87968E-01-6.05488E-14 1.67175E-14
 -1      3737 1.73543E+01 1.05400E+00-5.23935E-02 2.15749E+00-7.81901E-14-1.13536E-13
 -1      3738 1.80545E+01 1.02303E+00 1.53122E-02 1.68554E+00-1.62351E-13-9.58441E-14
 -1      3739 2.53388E+01-3.00302E+00-7.48678E-02 1.96191E+00-5.69805E-14-2.90471E-14
 -1      3740 2.44092E+01-2.94566E+00 8.57073E-02 3.26176E+00-5.89622E-14-2.21143E-14
 -1      3741 2.59397E+01 2.43950E+00-1.82544E-02 2.20467E+00 2.27596E-14 1.03938E-13
 -1      3742 2.60711E+01 3.15512E+00-4.82183E-02 2.29163E+00 5.42379E-14 1.05861E-13
 -1      3743 2.52047E+01 3.60239E+00 1.90983E-02 2.16467E+00 3.67935E-14 1.04688E-13
 -1      3744 1.82703E+01 9.20285E-01-2.74131E-02 1.28131E+00-1.27312E-13-7.17177E-14
 -1      3745 1.87156E+01 8.23282E-01 6.92392E-03 1.00329E+00-9.14609E-14 7.24230E-14
 -1      3746 1.85917E+01 6.30861E-01 2.27280E-03 1.82563E+00-1.04786E-13-1.38420E-13
 -1      3747 2.30301E+01 2.29324E+00-5.19249E-03 2.05281E+00 3.77953E-14 4.85916E-14
 -1      3748 2.32049E+01 2.19472E+00-1.06565E-02 2.13031E+00 3.57171E-14 4.60101E-14
 -1      3749 2.39388E+01 2.19658E+00-3.44960E-03 2.14661E+00 1.54850E-14 9.00143E-14
 -1      3750 1.99997E+01 2.52132E-04-1.01955E-06 1.01629E-04 2.11386E-13-4.49692E-13
 -1      3751 1.99997E+01 2.39732E-04 2.81146E-08 1.22795E-04 2.51209E-13-4.94367E-13
 -1      3752 2.46024E+01 5.03021E+00-4.03129E-02 7.16054E-01 7.49956E-14 6.87991E-14
 -1      3753 2.44575E+01 4.96200E+00-1.76517E-02-1.85548E-01 8.81517E-14 1.88215E-14
 -1      3754 1.99997E+01 2.34604E-04-1.05143E-07-1.24393E-04-1.31369E-13 3.60765E-13
 -1      3755 1.99997E+01 2.48304E-04-7.40103E-07-1.04092E-04-1.77755E-13 5.03418E-13
 -1      3756 1.99996E+01 2.81077E-04 6.69612E-07-1.00847E-04-1.73753E-13-2.51236E-14
 -1      3757 1.88946E+01 6.96796E-01-1.89649E-02 7.50974E-01-4.09923E-14 1.05143E-13
 -1      3758 1.91870E+01 5.92105E-01 2.74658E-03 5.93639E-01 6.17601E-14 7.09988E-14
 -1      3759 1.93851E+01 4.30905E-01 7.23442E-03 6.76735E-01-3.73600E-14-6.23837E-14
 -1      3760 2.55107E+01 1.56709E+00-8.75830E-02-1.99902E+00-7.25635E-15 9.52168E-15
 -1      3761 2.62066E+01 2.38758E-01 7.50168E-02-1.72621E+00-4.21399E-14 6.13736E-14
 -1      3762 2.01033E+01-1.75963E-01 1.11374E-03-4.48702E-02-3.17927E-14-1.06501E-14
 -1      3763 2.01293E+01-2.10883E-01 4.37168E-04-5.63172E-02-4.78267E-14 6.66776E-14
 -1      3764 2.00985E+01-1.70444E-01-1.39797E-03-2.24076E-02 4.92745E-14 6.23008E-15
 -1      3765 2.46299E+01 2.37281E+00-1.63205E-02 2.21633E+00 2.24859E-14 1.29599E-13
 -1      3766 2.55948E+01 2.22827E+00 2.49868E-02 2.15631E+00 1.70697E-15 1.20903E-13
 -1      3767 2.60422E+01 1.73103E+00-8.80470E-02 2.04848E+00-2.24248E-14 4.99878E-14
 -1      3768 2.44606E+01 2.63868E+00-1.23779E-02 2.21360E+00 2.57173E-14 1.35263E-13
 -1      3769 2.29855E+01 3.48971E+00 6.71006E-03 1.03681E+00 4.70406E-14 1.13287E-13
 -1      3770 2.24211E+01 2.97899E+00 2.66914E-03 1.18262E+00 5.57910E-14 6.24813E-14
 -1      3771 2.25516E+01 2.82133E+00-1.83046E-02 1.47827E+00 4.20889E-14 4.93455E-14
 -1      3772 1.90483E+01 5.68050E-01 8.47712E-03 1.11437E+00-5.21420E-15 1.17684E-14
 -1      3773 1.99997E+01 2.22496E-04-1.82512E-07-1.49316E-04-6.08711E-14 1.03042E-13
 -1      3774 1.99997E+01 2.54193E-04 7.20102E-07-1.54853E-04-1.59004E-13 3.68767E-13
 -1      3775 2.23526E+01-7.49150E-01-2.19646E-03-1.44655E+00 6.37645E-14 1.42631E-13
 -1      3776 2.24191E+01-4.78373E-01-1.30381E-03-1.59228E+00 7.74603E-14 1.67075E-13
 -1      3777 2.14091E+01-9.42893E-01-7.02121E-04-9.75281E-01-8.78150E-14 4.57440E-14
 -1      3778 1.99996E+01 2.99814E-04 5.67926E-07-3.72898E-05-7.34067E-14-1.00297E-13
 -1      3779 1.99996E+01 2.74801E-04-4.28109E-07-1.60961E-05 5.21470E-14 4.54675E-14
 -1      3780 1.99996E+01 2.75714E-04-2.78345E-07 1.19308E-05 3.52562E-14 5.99845E-14
 -1      3781 1.99997E+01 1.91406E-04 1.93417E-07-1.50129E-04 6.01207E-14 8.37500E-14
 -1      3782 2.43958E+01 4.40736E+00-2.13042E-02 1.13227E+00 4.49484E-14 9.80526E-14
 -1      3783 1.99997E+01 2.08947E-04-3.26622E-08 1.46133E-04 1.99195E-13-7.43437E-13
 -1      3784 2.30087E+01 1.78687E+00-4.12405E-03-1.69355E+00 5.20963E-14 1.14153E-13
 -1      3785 2.22974E+01 1.90275E+00-1.75938E-02-1.52193E+00 6.85242E-14 1.32413E-13
 -1      3786 2.22472E+01 2.40561E+00 1.53227E-02-1.21257E+00 6.21183E-14 1.17782E-13
 -1      3787 2.20342E+01-1.04022E+00 4.76574E-03-1.06476E+00 1.32133E-14 7.94914E-14
 -1      3788 2.21489E+01-9.33003E-01-4.86295E-03-1.23302E+00 7.17983E-14 1.38338E-13
 -1      3789 2.27065E+01-9.74205E-01 5.80313E-03-1.21274E+00 6.02993E-14 1.37726E-13
 -1      3790 2.30340E+01-2.55126E+00-4.37741E-03 3.43426E+00-4.70145E-14-2.32609E-14
 -1      3791 2.04065E+01-4.75716E-01-4.14672E-03-5.06946E-02-3.96209E-14 2.09053E-13
 -1      3792 2.04201E+01-4.80467E-01 3.58934E-03-1.27326E-01-8.72137E-14 2.48328E-13
 -1      3793 2.04983E+01-5.57342E-01 9.76377E-05-1.64105E-01-9.73521E-14 2.37602E-13
 -1      3794 2.51495E+01-2.45398E+00-3.64970E-03 1.04766E+00-4.76624E-14 2.93142E-14
 -1      3795 1.99997E+01 2.58485E-04 6.27062E-07 1.68684E-04 9.39996E-14-6.34857E-13
 -1      3796 1.99996E+01 2.93342E-04-1.42185E-07 1.59547E-04 3.00037E-13-2.71066E-13
 -1      3797 2.54820E+01-6.76968E-01-7.81116E-03-1.19022E+00-2.36061E-14 1.00029E-13
 -1      3798 1.94408E+01-1.09856E+00 6.27870E-02 4.80194E+00-7.02598E-14-1.53818E-13
 -1      3799 1.83448E+01-5.40457E-01-2.32173E-02 4.56505E+00-4.95610E-15-2.45469E-13
 -1      3800 2.06057E+01-1.61482E+00 1.16533E-02 4.31866E+00-5.61929E-14-1.17029E-14
 -1      3801 2.40495E+01 4.13269E+00-1.51736E-02-6.53027E-01 8.69747E-14 8.90277E-14
 -1      3802 2.12442E+01-9.77950E-01 7.44341E-03-4.73822E-01-1.19740E-13 1.13215E-13
 -1      3803 2.13855E+01-1.04563E+00-3.94680E-03-5.88444E-01-1.28940E-13 3.54090E-14
 -1      3804 2.12732E+01-1.03177E+00-7.15346E-03-2.75316E-01-1.12731E-13 5.90758E-14
 -1      3805 2.41694E+01 3.20546E+00-8.60238E-04 1.89992E+00 2.54293E-14 1.30773E-13
 -1      3806 2.40585E+01 3.73644E+00-3.30635E-02 1.70665E+00 3.36962E-14 9.90471E-14
 -1      3807 2.34813E+01 2.93923E+00 1.23573E-02 1.86167E+00 3.12534E-14 1.03957E-13
 -1      3808 1.68601E+01 1.02280E+00 4.92337E-02 3.21259E+00-4.25007E-16-1.17881E-13
 -1      3809 1.78794E+01 5.02400E-01 6.24286E-02 3.31887E+00-3.32746E-14-2.37931E-13
 -1      3810 2.06263E+01-6.37603E-01 4.95151E-03-1.93989E-01-7.26954E-14 1.82317E-13
 -1      3811 2.07288E+01-7.26095E-01-6.83956E-04-2.49372E-01-5.42967E-14 1.49329E-13
 -1      3812 2.09001E+01-8.33734E-01-6.56282E-03-1.51427E-01-9.41756E-14 5.91089E-14
 -1      3813 2.06143E+01-6.41068E-01-5.42416E-03-8.42248E-02-1.42080E-13 2.52381E-13
 -1      3814 2.21365E+01 2.79785E+00-1.04106E-02-7.33169E-01 7.53794E-14 7.50296E-14
 -1      3815 2.21491E+01 3.04189E+00 4.11616E-03-2.67122E-01 8.70033E-14 7.37723E-14
 -1      3816 2.27725E+01 3.48735E+00-1.51036E-02 5.89428E-02 8.53319E-14 8.97574E-14
 -1      3817 2.28183E+01 2.96958E+00 1.18092E-03-1.03551E+00 4.21629E-14 1.19507E-13
 -1      3818 2.29085E+01 2.49589E+00 9.19641E-03 1.87427E+00 3.91293E-14 4.36617E-14
 -1      3819 2.01631E+01-2.43971E-01-2.08259E-03-2.70015E-02-8.95013E-14 6.97476E-14
 -1      3820 2.47749E+01 2.07070E+00-2.53123E-02-1.85267E+00 2.64853E-14 1.84887E-14
 -1      3821 2.25210E+01 3.19927E-01 6.23299E-03-1.82300E+00 3.83993E-14 1.80806E-13
 -1      3822 2.31401E+01 5.91523E-01 7.67280E-03-1.88158E+00 2.66378E-14 1.89675E-13
 -1      3823 2.25141E+01-1.27897E-01-1.14783E-02-1.76655E+00 6.63723E-14 1.73416E-13
 -1      3824 1.99996E+01 2.71498E-04-7.07960E-07 4.53854E-05 2.15408E-13 2.80142E-14
 -1      3825 1.99997E+01 2.65152E-04-9.59046E-08 7.20457E-05 2.09506E-13-2.86768E-13
 -1      3826 1.99996E+01 2.86004E-04 8.74018E-07 9.67406E-05 2.91243E-13-5.13794E-13
 -1      3827 1.99996E+01 3.01621E-04 6.13344E-07 3.14894E-05 9.55255E-15-6.52119E-14
 -1      3828 2.32092E+01-2.49218E+00-5.93681E-02 2.60163E+00-1.43830E-14 2.28203E-14
 -1      3829 2.20387E+01-1.99895E+00 3.85978E-02 3.49159E+00-2.29285E-14-1.28008E-14
 -1      3830 2.30394E+01-3.92626E-01 7.43308E-03-1.62650E+00 1.01002E-13 1.75906E-13
 -1      3831 2.16385E+01-1.08267E+00 7.28912E-03-7.27314E-01-1.38372E-13 3.35621E-14
 -1      3832 2.17781E+01-1.08832E+00-5.28473E-03-8.76535E-01-8.04013E-14 1.95762E-14
 -1      3833 2.17293E+01-1.18794E+00-6.63220E-03-4.86045E-01-1.40064E-13 1.05652E-14
 -1      3834 1.97886E+01 1.28974E-01-5.60030E-03 3.20831E-01-1.96532E-14-1.35282E-13
 -1      3835 1.98610E+01 9.89521E-02 1.93385E-03 2.53546E-01-3.91763E-14-1.05399E-13
 -1      3836 1.98802E+01 7.03965E-02-3.62562E-03 1.95148E-01 7.15468E-15 2.25354E-15
 -1      3837 1.99225E+01 5.04223E-02 9.50680E-04 1.56897E-01-4.71475E-14-3.28992E-14
 -1      3838 1.99170E+01 4.10565E-02 1.49865E-03 2.58054E-01 6.26695E-14-2.23395E-13
 -1      3839 1.99352E+01 3.16866E-02-2.21735E-03 1.20315E-01-1.35615E-13 4.82314E-14
 -1      3840 1.99600E+01 1.88062E-02 5.22023E-04 9.71260E-02-4.76992E-14-3.19057E-15
 -1      3841 1.99556E+01 1.46449E-02 1.04871E-03 1.59192E-01-3.90357E-14-1.23219E-13
 -1      3842 1.99673E+01 7.53936E-03-1.35261E-03 7.43850E-02-1.22817E-14 2.38562E-14
 -1      3843 1.99813E+01 2.57229E-04 3.10344E-04 6.01494E-02-6.02722E-14 3.56561E-14
 -1      3844 1.99789E+01-2.92940E-03 6.80541E-04 9.76083E-02-7.10846E-14-1.78877E-13
 -1      3845 1.99849E+01-5.75524E-03-8.12483E-04 4.60410E-02-1.65953E-13 7.20722E-14
 -1      3846 1.99924E+01-9.19536E-03 1.98089E-04 3.71760E-02-1.39654E-13 9.69503E-14
 -1      3847 1.99917E+01-1.27212E-02 4.10853E-04 5.94769E-02-8.58771E-14 5.26709E-15
 -1      3848 1.99938E+01-1.17990E-02-4.81482E-04 2.84229E-02-1.12799E-13 1.41586E-13
 -1      3849 1.99975E+01-1.28365E-02 1.35382E-04 2.28145E-02-5.38335E-14 1.19007E-13
 -1      3850 1.99979E+01-1.67839E-02 2.29663E-04 3.59392E-02-7.16083E-14 8.31035E-14
 -1      3851 1.99978E+01-1.34094E-02-2.82131E-04 1.73816E-02-1.41805E-13 1.20056E-14
 -1      3852 1.99995E+01-1.30927E-02 9.70457E-05 1.37817E-02-1.44253E-13-2.00180E-14
 -1      3853 2.00002E+01-1.71576E-02 1.16503E-04 2.14341E-02-1.55777E-13 9.65652E-14
 -1      3854 1.99992E+01-1.25803E-02-1.63848E-04 1.04113E-02-1.97289E-13-2.94331E-14
 -1      3855 1.99998E+01-1.16107E-02 7.11522E-05 8.07590E-03-2.25220E-13 1.11061E-14
 -1      3856 2.00006E+01-1.54646E-02 5.06951E-05 1.25078E-02-1.60962E-13-1.15562E-13
 -1      3857 1.99993E+01-1.06173E-02-9.45591E-05 5.99169E-03-1.00647E-13 1.25556E-13
 -1      3858 1.99995E+01-9.42862E-03 5.22234E-05 4.47008E-03 4.57128E-14 3.66241E-14
 -1      3859 2.00001E+01-1.28417E-02 1.55305E-05 7.02818E-03-1.04754E-13 4.65988E-14
 -1      3860 1.99990E+01-8.31259E-03-5.44142E-05 3.19173E-03 5.40971E-14-1.26582E-13
 -1      3861 1.99990E+01-7.15019E-03 3.77623E-05 2.20448E-03-7.91760E-14-2.16998E-13
 -1      3862 1.99994E+01-1.00079E-02-1.06543E-06 3.68232E-03-9.55547E-14-4.57815E-14
 -1      3863 1.99987E+01-6.10447E-03-3.13593E-05 1.43324E-03-1.43417E-13 1.97779E-14
 -1      3864 1.99986E+01-5.08949E-03 2.65681E-05 8.02525E-04-1.63115E-13 4.85453E-14
 -1      3865 1.99987E+01-7.36970E-03-7.18411E-06 1.66129E-03 9.45344E-14 8.71355E-14
 -1      3866 1.99984E+01-4.20220E-03-1.81936E-05 3.51310E-04-1.34681E-13 6.44939E-14
 -1      3867 1.99983E+01-3.37931E-03 1.79638E-05-3.92187E-05-9.86590E-14 8.42798E-14
 -1      3868 1.99983E+01-5.12021E-03-7.92034E-06 4.65104E-04-1.18730E-13 1.55608E-13
 -1      3869 1.99982E+01-2.67637E-03-1.06820E-05-2.88602E-04-1.59294E-13 1.75263E-13
 -1      3870 1.99982E+01-2.04671E-03 1.14649E-05-5.17013E-04-7.57333E-14 1.89423E-13
 -1      3871 1.99980E+01-3.31925E-03-6.30357E-06-2.16839E-04-9.78270E-14 2.89719E-13
 -1      3872 1.99982E+01-1.51998E-03-6.28582E-06-6.39865E-04-1.20219E-13 1.07452E-13
 -1      3873 1.99982E+01-1.06179E-03 6.87769E-06-7.60130E-04-3.18161E-13 5.74925E-14
 -1      3874 1.99979E+01-1.95050E-03-4.10230E-06-5.78876E-04-1.71103E-13 1.50405E-13
 -1      3875 1.99983E+01-6.71202E-04-3.75860E-06-8.06433E-04-3.28525E-13 2.58731E-13
 -1      3876 1.99983E+01-3.45398E-04 3.47606E-06-8.55002E-04-2.05632E-13 3.21615E-13
 -1      3877 1.99980E+01-9.40929E-04-2.09878E-06-7.44779E-04-1.93694E-13 9.04571E-14
 -1      3878 1.99984E+01-1.01278E-04-2.28649E-06-8.50470E-04-2.41106E-13 2.63178E-13
 -1      3879 1.99985E+01 9.69385E-05 9.82968E-07-8.51468E-04-3.55104E-13 3.50135E-14
 -1      3880 1.99981E+01-2.49614E-04 2.01894E-08-7.88123E-04-2.65313E-13 2.13951E-13
 -1      3881 1.99986E+01 2.48652E-04-1.41456E-06-8.21738E-04-4.30759E-13 4.27110E-14
 -1      3882 1.99987E+01 3.64687E-04-4.72102E-07-7.95863E-04-2.79101E-13-1.27445E-13
 -1      3883 1.99983E+01 1.81085E-04 1.28672E-06-7.60093E-04-3.59366E-13 1.43498E-13
 -1      3884 1.99988E+01 4.48096E-04-8.36226E-07-7.53088E-04-5.19511E-14-8.19514E-14
 -1      3885 1.99988E+01 5.05495E-04-1.32188E-06-7.12637E-04 7.59579E-14 7.73113E-14
 -1      3886 1.99985E+01 4.34683E-04 2.00587E-06-6.94998E-04-1.20573E-13 2.84709E-13
 -1      3887 1.99989E+01 5.41181E-04-4.53083E-07-6.64921E-04 2.61528E-13 1.56407E-13
 -1      3888 1.99990E+01 5.58724E-04-1.75552E-06-6.18128E-04 4.64091E-13 2.52424E-13
 -1      3889 1.99987E+01 5.61995E-04 2.34135E-06-6.12509E-04 3.21237E-13 2.10077E-13
 -1      3890 1.99991E+01 5.62794E-04-1.95663E-07-5.70486E-04 2.54902E-13 2.50122E-13
 -1      3891 1.99992E+01 5.54830E-04-1.90621E-06-5.22717E-04-4.13951E-14 2.43295E-13
 -1      3892 1.99989E+01 6.03330E-04 2.40215E-06-5.24979E-04 2.78804E-13-4.53390E-14
 -1      3893 1.99993E+01 5.39372E-04-2.31264E-08-4.78089E-04 1.56011E-14 3.67015E-13
 -1      3894 1.99993E+01 5.16441E-04-1.87487E-06-4.32666E-04 1.80325E-13 2.39881E-13
 -1      3895 1.99991E+01 5.89425E-04 2.28269E-06-4.39889E-04 1.17292E-13 2.84019E-13
 -1      3896 1.99994E+01 4.90185E-04 8.92441E-08-3.92614E-04 1.09559E-13 4.07672E-13
 -1      3897 1.99994E+01 4.59745E-04-1.73517E-06-3.51413E-04 9.70172E-14 4.47082E-13
 -1      3898 1.99993E+01 5.42875E-04 2.05788E-06-3.61500E-04 2.67506E-13 5.35356E-13
 -1      3899 1.99995E+01 4.28752E-04 1.60708E-07-3.16604E-04 5.06927E-14 6.10443E-13
 -1      3900 1.99995E+01 3.95940E-04-1.50971E-06-2.80527E-04 5.51457E-14 7.83041E-13
 -1      3901 1.99994E+01 4.79683E-04 1.79023E-06-2.91936E-04 2.15563E-13 7.58402E-13
 -1      3902 1.99996E+01 3.63882E-04 1.22041E-07-2.50871E-04 1.76019E-13 7.36779E-13
 -1      3903 1.99996E+01 3.31861E-04-1.39128E-06-2.20583E-04 4.45553E-13 6.63738E-13
 -1      3904 1.99995E+01 4.10940E-04 1.62360E-06-2.31864E-04 1.55546E-13 7.04960E-13
 -1      3905 1.99996E+01 3.07112E-04 5.03954E-07-1.98404E-04 3.43497E-13 5.74744E-13
 -1      3906 1.99997E+01 2.77262E-04-9.04457E-07-1.72811E-04 2.64708E-14 3.95235E-13
 -1      3907 1.99996E+01 2.90627E-04-9.97603E-08-1.46819E-04-1.14160E-13 4.47385E-13
 -1      3908 1.99996E+01 3.47460E-04 1.10734E-06-1.83594E-04 2.31334E-13 4.14535E-13
 -1      3909 1.94601E+01 2.76228E-01-1.18654E-02 8.47301E-01-5.15834E-14-9.42320E-14
 -1      3910 1.96199E+01 2.46391E-01 6.30531E-03 6.71664E-01-1.27812E-13-1.78104E-13
 -1      3911 2.00295E+01-7.08814E-02 2.35803E-04-5.86497E-03-2.19894E-13 2.73384E-14
 -1      3912 2.00400E+01-8.56192E-02 4.30041E-04-6.81082E-03-1.45388E-13-9.09427E-15
 -1      3913 2.00535E+01-1.03327E-01 3.68743E-04-3.77317E-03 1.53257E-14 4.04638E-14
 -1      3914 2.00706E+01-1.24323E-01 6.62276E-04-4.35467E-03 6.96067E-14 8.39653E-14
 -1      3915 2.00470E+01-9.53817E-02-7.58146E-04 6.37394E-03-7.13803E-14 8.93585E-14
 -1      3916 2.00060E+01-3.24404E-02 1.04769E-04-5.54693E-03-7.95457E-14 7.80451E-15
 -1      3917 2.00097E+01-3.95925E-02 1.52397E-04-6.70100E-03-4.37618E-14-5.66797E-14
 -1      3918 2.00010E+01-2.15257E-02 7.18342E-05-4.44810E-03-9.88245E-14 1.24159E-14
 -1      3919 2.00030E+01-2.64786E-02 8.09498E-05-5.50526E-03-8.04352E-14-5.51296E-14
 -1      3920 2.00052E+01-3.04739E-02-1.78844E-04-3.05350E-03-2.12609E-14-1.00660E-14
 -1      3921 1.99984E+01-1.40048E-02 4.94407E-05-3.25832E-03 9.34137E-14 6.20535E-14
 -1      3922 1.99993E+01-1.74189E-02 3.76245E-05-4.15516E-03-5.69610E-14-2.10298E-14
 -1      3923 2.00007E+01-2.03523E-02-1.05804E-04-2.95327E-03-4.01991E-14-1.30810E-13
 -1      3924 1.99971E+01-8.85363E-03 3.37177E-05-2.17316E-03 1.00119E-13 1.43644E-13
 -1      3925 1.99974E+01-1.11920E-02 1.29052E-05-2.88846E-03 1.78499E-13 1.90153E-13
 -1      3926 1.99983E+01-1.33158E-02-6.03352E-05-2.40775E-03 7.18372E-14 1.94413E-14
 -1      3927 1.99966E+01-5.35560E-03 2.24676E-05-1.28050E-03-4.29185E-14 2.16178E-13
 -1      3928 1.99966E+01-6.94226E-03-9.09723E-08-1.82075E-03-4.32259E-14 2.15453E-13
 -1      3929 1.99971E+01-8.45172E-03-3.24135E-05-1.73523E-03 4.15833E-14 2.42329E-13
 -1      3930 1.99966E+01-3.00973E-03 1.43774E-05-6.01534E-04-1.25626E-13 1.89188E-13
 -1      3931 1.99965E+01-4.07149E-03-6.06502E-06-9.88362E-04-5.45484E-16 2.06479E-13
 -1      3932 1.99966E+01-5.11936E-03-1.55654E-05-1.10277E-03-1.01592E-13 2.21186E-13
 -1      3933 1.99968E+01-1.46522E-03 8.59914E-06-1.20753E-04-3.27444E-15 2.49155E-13
 -1      3934 1.99966E+01-2.16134E-03-8.07109E-06-3.81929E-04-1.46829E-13 3.22869E-13
 -1      3935 1.99966E+01-2.86704E-03-5.65515E-06-5.83184E-04-1.58661E-13 1.49224E-13
 -1      3936 1.99972E+01-4.75964E-04 4.55363E-06 1.94000E-04-5.15747E-15 3.12416E-13
 -1      3937 1.99969E+01-9.18538E-04-8.00331E-06 3.02443E-05 1.41098E-14 2.50674E-13
 -1      3938 1.99968E+01-1.37494E-03-1.10778E-07-1.95269E-04 4.04552E-14 2.58338E-13
 -1      3939 1.99975E+01 1.31460E-04 1.80260E-06 3.79366E-04-4.67127E-14 2.71320E-13
 -1      3940 1.99973E+01-1.36795E-04-7.00819E-06 2.87659E-04-2.28552E-14 2.90905E-13
 -1      3941 1.99972E+01-4.14954E-04 2.87877E-06 7.03811E-05 2.48112E-14 2.92446E-13
 -1      3942 1.99979E+01 4.79176E-04 6.13011E-09 4.69886E-04-1.85635E-13 2.80155E-13
 -1      3943 1.99977E+01 3.29233E-04-5.70690E-06 4.28929E-04 5.58137E-15 2.76079E-13
 -1      3944 1.99975E+01 1.75470E-04 4.28896E-06 2.34913E-04-5.39954E-14 2.43265E-13
 -1      3945 1.99983E+01 6.53356E-04-1.09284E-06 4.94936E-04-1.49024E-13 2.10443E-13
 -1      3946 1.99981E+01 5.82147E-04-4.41908E-06 4.87854E-04-2.34747E-13 2.71659E-13
 -1      3947 1.99979E+01 5.12570E-04 4.75227E-06 3.22337E-04-1.60093E-13 1.34575E-13
 -1      3948 1.99986E+01 7.14605E-04-1.69580E-06 4.77819E-04-3.40200E-13 4.06803E-13
 -1      3949 1.99984E+01 6.94265E-04-3.29138E-06 4.91843E-04-2.41649E-13 2.10225E-13
 -1      3950 1.99982E+01 6.79430E-04 4.67389E-06 3.54907E-04-2.25859E-13 3.69172E-13
 -1      3951 1.99988E+01 7.05287E-04-1.95718E-06 4.36026E-04-2.28496E-13 1.28535E-13
 -1      3952 1.99987E+01 7.16343E-04-2.37094E-06 4.61894E-04-2.20000E-13 2.57908E-13
 -1      3953 1.99986E+01 7.35137E-04 4.30579E-06 3.51122E-04-2.25122E-13 3.86831E-13
 -1      3954 1.99991E+01 6.54694E-04-1.99334E-06 3.82043E-04-1.77707E-13-1.29092E-13
 -1      3955 1.99990E+01 6.83708E-04-1.65470E-06 4.13322E-04-3.32915E-13-7.00336E-14
 -1      3956 1.99988E+01 7.21344E-04 3.80251E-06 3.25293E-04-1.27403E-13-3.34375E-14
 -1      3957 1.99992E+01 5.82748E-04-1.89022E-06 3.24324E-04 2.81274E-13-8.31844E-14
 -1      3958 1.99992E+01 6.20617E-04-1.11740E-06 3.56763E-04-4.19809E-14-7.61153E-14
 -1      3959 1.99990E+01 6.67040E-04 3.25678E-06 2.87855E-04-9.35060E-14-2.37978E-13
 -1      3960 1.99994E+01 5.02668E-04-1.71414E-06 2.68240E-04 3.41260E-13-2.05513E-13
 -1      3961 1.99993E+01 5.43398E-04-7.26837E-07 2.99211E-04 3.26508E-13-6.54415E-14
 -1      3962 1.99992E+01 5.92021E-04 2.72171E-06 2.46003E-04 3.53428E-13-1.70639E-13
 -1      3963 1.99995E+01 4.23020E-04-1.43719E-06 2.16966E-04 2.73864E-13-3.09620E-13
 -1      3964 1.99994E+01 4.62733E-04-4.46573E-07 2.44959E-04 4.26700E-13-2.21129E-13
 -1      3965 1.99994E+01 5.09427E-04 2.22231E-06 2.04409E-04 4.20393E-13-1.91024E-13
 -1      3966 1.99996E+01 3.48703E-04-1.19479E-06 1.72014E-04 1.20530E-13-5.61906E-13
 -1      3967 1.99995E+01 3.85484E-04-1.39677E-07 1.96045E-04 9.24712E-14-5.35899E-13
 -1      3968 1.99995E+01 4.27784E-04 1.66297E-06 1.66007E-04 3.42876E-13-3.78293E-13
 -1      3969 1.99997E+01 2.24824E-04-3.18440E-07 1.61855E-04 2.09792E-13-5.90194E-13
 -1      3970 2.46658E+01-1.72498E-01-3.09216E-02-1.66193E+00 8.82280E-15 8.25629E-14
 -1      3971 2.50068E+01-1.27876E+00 1.71209E-02-8.71250E-01 1.21006E-14 1.11619E-13
 -1      3972 1.99996E+01 3.05586E-04-3.19233E-07 1.14716E-04 2.01837E-13-5.07002E-13
 -1      3973 1.99996E+01 3.29792E-04 7.07209E-07 1.48792E-04 2.68461E-13-4.71515E-13
 -1      3974 1.99996E+01 3.62290E-04-3.90984E-07 1.24846E-04 2.01201E-13-5.11180E-13
 -1      3975 1.99996E+01 3.16555E-04-7.92217E-07 8.35675E-05 1.85238E-13-3.77842E-13
 -1      3976 2.00148E+01-4.82065E-02 1.55228E-04-6.20307E-03-8.66959E-14-5.83242E-14
 -1      3977 2.00211E+01-5.84945E-02 2.64152E-04-7.33686E-03-1.77588E-13-2.03190E-14
 -1      3978 2.00130E+01-4.49837E-02-2.94776E-04-2.16467E-03-6.96353E-14-3.47015E-14
 -1      3979 2.47891E+01-2.14036E+00-3.61768E-02 2.79343E-01 1.88207E-14 6.93304E-14
 -1      3980 2.44578E+01-2.40457E+00 7.52320E-02 1.49607E+00 2.69173E-14 4.16681E-14
 -1      3981 2.02455E+01-3.04203E-01 1.58770E-03 2.02244E-02-1.19685E-13 1.19699E-13
 -1      3982 2.03066E+01-3.60950E-01 1.65234E-03 1.90943E-02-1.05968E-14 1.82387E-13
 -1      3983 1.89723E+01 2.69223E-01 5.03271E-03 2.14936E+00-2.89348E-14-1.52838E-13
 -1      3984 1.92497E+01 3.06289E-01 2.30723E-02 1.67457E+00-6.10323E-14-9.43832E-14
 -1      3985 1.92248E+01 3.16233E-01-1.29798E-02 1.35553E+00-2.54722E-15-9.24750E-14
 -1      3986 1.94378E+01 3.12411E-01 1.14572E-02 1.07212E+00 3.44204E-14-9.44884E-14
 -1      3987 1.96103E+01-1.26763E-03-5.07988E-03 1.61585E+00-1.57194E-14-1.69927E-13
 -1      3988 1.96514E+01 2.02087E-01-8.39534E-03 5.24414E-01-9.27392E-14-2.03737E-13
 -1      3989 1.97604E+01 1.68419E-01 3.61637E-03 4.17032E-01-8.51237E-14-1.55709E-13
 -1      3990 1.97768E+01 1.00829E-01 1.52362E-03 6.69970E-01-1.15262E-13-1.45428E-13
 -1      3991 1.99996E+01 3.07817E-04-4.37992E-07-1.12123E-04-5.58421E-14 6.61137E-14
 -1      3992 1.99996E+01 3.20655E-04 6.52004E-08-8.13242E-05-7.14588E-14-3.75527E-13
 -1      3993 1.99996E+01 3.34578E-04-2.54126E-07-1.27783E-04 1.04584E-13 2.85081E-14
 -1      3994 2.00920E+01-1.49434E-01 5.92009E-04 9.50443E-04-1.09255E-14 2.86911E-14
 -1      3995 2.01189E+01-1.79105E-01 9.64043E-04 7.96609E-04-3.67227E-14-2.44798E-14
 -1      3996 2.00807E+01-1.37600E-01-1.18723E-03 1.68733E-02-4.69981E-16 7.03774E-14
 -1      3997 2.37292E+01 2.24276E+00-2.52076E-02-1.76546E+00 4.87608E-14 7.68131E-14
 -1      3998 2.40759E+01 1.03127E+00 2.02171E-02-1.94462E+00 1.22237E-14 1.01797E-13
 -1      3999 2.01524E+01-2.14297E-01 9.67148E-04 9.00389E-03-3.93192E-14 2.50420E-14
 -1      4000 2.01935E+01-2.55713E-01 1.31598E-03 8.96075E-03-1.21826E-13 7.78452E-14
 -1      4001 2.01337E+01-1.97447E-01-1.82861E-03 3.38895E-02-2.94287E-14 2.23654E-14
 -1      4002 2.40740E+01 2.68803E-01-8.59603E-03-1.85539E+00-2.35836E-15 1.30201E-13
 -1      4003 2.35805E+01-8.03907E-01-4.91329E-03-1.39059E+00 8.96605E-14 1.34644E-13
 -1      4004 2.36862E+01-3.87725E-01-6.33568E-03-1.56675E+00 6.01498E-14 1.57046E-13
 -1      4005 1.98574E+01 7.31880E-02 1.59459E-03 4.18253E-01-4.20089E-14-2.38560E-13
 -1      4006 1.99996E+01 3.27828E-04-5.49834E-07-4.09693E-05-4.36251E-14-1.98878E-13
 -1      4007 1.99996E+01 3.33152E-04 1.74488E-07-5.12729E-06 6.63798E-15-9.92395E-14
 -1      4008 1.99995E+01 3.58596E-04 6.76030E-07-4.91319E-05-6.51920E-14-1.53883E-13
 -1      4009 2.00259E+01-6.57406E-02-4.76622E-04 5.66620E-04-1.00172E-13-3.64687E-14
 -1      4010 2.33127E+01-2.18999E+00-7.10608E-03 1.77912E+00 3.64778E-14 6.36769E-14
 -1      4011 2.22340E+01-1.20625E+00-1.24315E-03-8.03041E-01-8.16529E-15 5.21328E-14
 -1      4012 2.03857E+01-4.26102E-01 2.57862E-03 3.22523E-02 7.72329E-15 1.05782E-13
 -1      4013 2.04738E+01-5.01680E-01 1.82731E-03 2.71461E-02-7.74939E-14 1.39786E-13
 -1      4014 2.03416E+01-3.98015E-01-4.06501E-03 9.19656E-02-7.74216E-14 7.77762E-14
 -1      4015 2.30819E+01-1.29963E+00 7.19761E-03-8.72247E-01 1.04618E-13 1.52737E-13
 -1      4016 2.32747E+01-1.11869E+00-6.94321E-03-1.09331E+00 1.25495E-13 1.75811E-13
 -1      4017 2.39823E+01-1.10197E+00 1.23616E-02-1.08461E+00 9.22110E-14 1.83277E-13
 -1      4018 2.12505E+01-1.71255E+00-1.79645E-02 3.67012E+00-6.27354E-14 1.65957E-14
 -1      4019 2.03934E+01-1.16212E+00 1.30287E-02 3.68108E+00-5.89494E-14-2.79455E-14
 -1      4020 2.17210E+01-1.60675E+00 1.51390E-02 2.82485E+00-5.15525E-14 5.69035E-14
 -1      4021 1.95580E+01-2.81341E-01 1.00476E-02 2.76918E+00-3.51195E-15-1.02440E-13
 -1      4022 2.01825E+01-6.76622E-01-1.64196E-02 2.51816E+00 5.78454E-15-3.57518E-14
 -1      4023 2.12833E+01-1.01167E+00 8.59717E-03-3.58584E-02-9.78933E-14 5.79463E-14
 -1      4024 2.14861E+01-1.12982E+00-9.33231E-04-1.02712E-01-1.10768E-13 7.10120E-14
 -1      4025 2.34145E+01 3.94048E+00-5.95284E-04 9.11135E-01 6.55830E-14 1.27457E-13
 -1      4026 2.32176E+01 3.95641E+00-9.45816E-03-1.41027E-01 9.01119E-14 1.21802E-13
 -1      4027 2.35591E+01 3.58181E+00 3.40575E-03-1.02361E+00 6.66958E-14 8.90566E-14
 -1      4028 2.02159E+01-2.81557E-01-2.76253E-03 5.89260E-02-4.51443E-14 1.54214E-13
 -1      4029 2.08848E+01-7.84999E-01 6.12602E-03 2.40490E-02-1.59280E-13 1.05069E-13
 -1      4030 2.10461E+01-8.99094E-01 4.82818E-04-9.96304E-03-1.33094E-13 2.06839E-14
 -1      4031 2.11952E+01-1.00670E+00-9.93750E-03 1.59049E-01-9.82865E-14 6.63902E-14
 -1      4032 2.46318E+01-1.68716E+00 4.35446E-03-4.99618E-01 3.57457E-14 1.15597E-13
 -1      4033 2.38900E+01-1.84530E+00-1.56508E-02-2.88161E-02 7.26594E-14 1.32032E-13
 -1      4034 1.96866E+01 9.42718E-02 3.30486E-04 1.05236E+00-7.11947E-14-2.12247E-13
 -1      4035 2.36556E+01 2.96964E+00-3.40985E-04-1.51633E+00 7.37682E-14 6.74751E-14
 -1      4036 1.99236E+01-1.69735E-02-4.96503E-03 4.78551E-01-4.68451E-14-8.80763E-14
 -1      4037 1.99676E+01-1.25268E-02 4.19970E-03 3.77142E-01-1.99049E-14-8.30088E-14
 -1      4038 2.17931E+01-1.23286E+00 1.00840E-02-1.72692E-01-1.48398E-13 1.47810E-14
 -1      4039 2.20263E+01-1.32751E+00-5.09605E-03-2.85789E-01-1.25908E-13 3.84090E-14
 -1      4040 2.17091E+01-1.27051E+00-1.45951E-02 8.64053E-02-1.41810E-13 6.53763E-15
 -1      4041 2.00219E+01-5.58000E-02 6.44395E-05 6.10567E-03-1.58027E-13-1.33492E-13
 -1      4042 2.00307E+01-6.68039E-02 4.81519E-04 8.68543E-03-1.31191E-13-1.19323E-13
 -1      4043 1.99753E+01-2.19604E-02-2.42675E-03 1.84680E-01 3.83905E-14-1.59265E-13
 -1      4044 1.99944E+01-2.31374E-02 1.53923E-03 1.45395E-01-7.04300E-14-4.51398E-14
 -1      4045 1.99898E+01-2.62330E-02-1.58533E-03 1.13077E-01-1.04033E-13-7.16902E-15
 -1      4046 2.00012E+01-2.65188E-02 9.45066E-04 8.86702E-02-4.07473E-14-4.28898E-14
 -1      4047 2.00166E+01-5.26012E-02-5.01959E-05 1.33797E-01 2.29398E-14 4.07897E-14
 -1      4048 1.99978E+01-2.76781E-02-1.00295E-03 6.84085E-02-8.18793E-14 3.14765E-14
 -1      4049 2.00040E+01-2.68627E-02 5.85259E-04 5.33436E-02-8.79181E-14 1.06976E-13
 -1      4050 2.00135E+01-4.44148E-02-7.20741E-06 8.08310E-02-3.24377E-14 1.14903E-13
 -1      4051 2.00014E+01-2.64943E-02-6.16223E-04 4.08277E-02-4.70697E-14 7.94124E-14
 -1      4052 2.00044E+01-2.48691E-02 3.66753E-04 3.15687E-02-2.76924E-14 1.04244E-13
 -1      4053 2.00105E+01-3.73610E-02-8.73001E-06 4.78729E-02-6.76007E-14 1.64987E-13
 -1      4054 2.00022E+01-2.35433E-02-3.68501E-04 2.39464E-02-1.90143E-13 9.85775E-15
 -1      4055 2.00035E+01-2.14991E-02 2.32577E-04 1.82738E-02-2.31789E-13-2.07843E-14
 -1      4056 2.00074E+01-3.07710E-02-1.96674E-05 2.76952E-02-2.03224E-13 1.08422E-13
 -1      4057 2.00017E+01-1.97151E-02-2.14590E-04 1.36997E-02-1.66897E-13-6.49859E-14
 -1      4058 2.00020E+01-1.75807E-02 1.48893E-04 1.02354E-02-6.58958E-14 7.68828E-14
 -1      4059 2.00046E+01-2.46282E-02-2.75716E-05 1.55380E-02-2.33724E-13 1.79606E-13
 -1      4060 2.00007E+01-1.56977E-02-1.21604E-04 7.53606E-03-7.04082E-14 6.79602E-14
 -1      4061 2.00006E+01-1.36959E-02 9.57704E-05 5.42998E-03-2.49233E-15 1.02872E-13
 -1      4062 2.00023E+01-1.90924E-02-2.98876E-05 8.33668E-03-9.54189E-14 8.75959E-14
 -1      4063 1.99996E+01-1.19365E-02-6.69560E-05 3.86982E-03-7.03190E-14-2.75109E-14
 -1      4064 1.99994E+01-1.01912E-02 6.14680E-05 2.59945E-03-5.16019E-14-3.26230E-14
 -1      4065 2.00004E+01-1.43034E-02-2.77042E-05 4.15370E-03-6.47585E-14-4.02283E-14
 -1      4066 1.99988E+01-8.67059E-03-3.57570E-05 1.72313E-03 1.08137E-13-1.07644E-15
 -1      4067 1.99986E+01-7.23095E-03 3.90054E-05 9.67634E-04 1.05146E-13 8.01961E-14
 -1      4068 1.99991E+01-1.03226E-02-2.29366E-05 1.78321E-03-9.79980E-15 6.84648E-14
 -1      4069 1.99981E+01-5.99030E-03-1.85055E-05 4.96400E-04-6.01451E-14-1.64896E-14
 -1      4070 1.99980E+01-4.85613E-03 2.41665E-05 5.84994E-05-1.85215E-13-4.29959E-14
 -1      4071 1.99982E+01-7.13480E-03-1.72395E-05 4.85315E-04-8.73673E-14-2.34896E-13
 -1      4072 1.99978E+01-3.89079E-03-9.30012E-06-1.76484E-04-1.87430E-13 3.46901E-14
 -1      4073 1.99978E+01-3.03370E-03 1.42947E-05-4.18505E-04-8.61555E-14 6.71691E-14
 -1      4074 1.99977E+01-4.67077E-03-1.17285E-05-1.88054E-04-1.50584E-13-1.77237E-13
 -1      4075 1.99977E+01-2.31388E-03-4.45446E-06-5.18631E-04-1.75913E-13-5.72618E-14
 -1      4076 1.99977E+01-1.69119E-03 7.89265E-06-6.40925E-04-2.54708E-13-1.70279E-13
 -1      4077 1.99975E+01-2.83204E-03-7.18306E-06-5.04867E-04-1.86024E-13-1.93283E-13
 -1      4078 1.99977E+01-1.15480E-03-2.14589E-06-6.66930E-04-1.18226E-13-1.46684E-13
 -1      4079 1.99978E+01-7.07835E-04 3.66098E-06-7.15791E-04 2.42301E-14 6.89607E-14
 -1      4080 1.99975E+01-1.48341E-03-3.62631E-06-6.23446E-04-1.01971E-13-2.58233E-13
 -1      4081 1.99979E+01-3.66931E-04-1.22345E-06-6.99235E-04-1.59250E-13-9.57984E-15
 -1      4082 1.99980E+01-8.92067E-05 8.75856E-07-7.02844E-04-3.06808E-13-3.73707E-15
 -1      4083 1.99976E+01-5.57322E-04-6.56248E-07-6.33452E-04-7.30090E-14-1.32436E-13
 -1      4084 1.99981E+01 1.28497E-04-8.83509E-07-6.68564E-04-2.56695E-13-6.24371E-14
 -1      4085 1.99982E+01 2.97840E-04-7.01162E-07-6.48057E-04-2.72936E-13 4.23051E-15
 -1      4086 1.99979E+01 2.96272E-05 1.24082E-06-5.89518E-04-3.02009E-13-1.74061E-13
 -1      4087 1.99983E+01 4.24379E-04-7.10093E-07-6.06669E-04-1.96196E-13 2.35438E-13
 -1      4088 1.99984E+01 5.15729E-04-1.57465E-06-5.73716E-04 3.09057E-14 3.45687E-13
 -1      4089 1.99981E+01 3.86942E-04 2.32527E-06-5.22919E-04-7.66073E-14-3.55802E-14
 -1      4090 1.99986E+01 5.77868E-04-6.22751E-07-5.31476E-04 2.13628E-13 1.49339E-13
 -1      4091 1.99987E+01 6.15432E-04-1.98771E-06-4.93348E-04 3.82539E-13 1.53608E-13
 -1      4092 1.99984E+01 5.80112E-04 2.86336E-06-4.49496E-04 6.28352E-14 1.27520E-13
 -1      4093 1.99988E+01 6.34085E-04-5.56716E-07-4.53560E-04 3.37258E-13 4.67503E-14
 -1      4094 1.99989E+01 6.36377E-04-2.10393E-06-4.14737E-04 2.52458E-13 1.26363E-13
 -1      4095 1.99986E+01 6.60360E-04 3.01894E-06-3.77701E-04 3.01596E-13 1.02555E-13
 -1      4096 1.99990E+01 6.27316E-04-4.88424E-07-3.78986E-04 2.68882E-13-1.26030E-14
 -1      4097 1.99991E+01 6.08026E-04-2.03786E-06-3.42122E-04 2.92019E-13 1.39906E-13
 -1      4098 1.99989E+01 6.66600E-04 2.92279E-06-3.11733E-04 2.43625E-13 6.42535E-14
 -1      4099 1.99992E+01 5.82749E-04-4.14722E-07-3.11005E-04 3.13830E-13 1.56708E-13
 -1      4100 1.99992E+01 5.51659E-04-1.87261E-06-2.77551E-04 3.07383E-13 2.12194E-13
 -1      4101 1.99991E+01 6.27505E-04 2.67469E-06-2.53393E-04 2.86881E-13-2.47160E-13
 -1      4102 1.99993E+01 5.18281E-04-3.38405E-07-2.51124E-04 3.48186E-13 6.61725E-14
 -1      4103 1.99994E+01 4.82175E-04-1.61163E-06-2.21741E-04 3.37931E-13 1.79694E-13
 -1      4104 1.99992E+01 5.63528E-04 2.34537E-06-2.03165E-04 3.92210E-13-1.76196E-13
 -1      4105 1.99994E+01 4.46025E-04-3.28495E-07-1.99661E-04 1.72151E-13 3.01166E-13
 -1      4106 1.99995E+01 4.09802E-04-1.24177E-06-1.74137E-04 1.60935E-13 4.45360E-13
 -1      4107 1.99994E+01 4.88866E-04 1.88538E-06-1.60988E-04 3.79317E-13-1.96255E-13
 -1      4108 1.99995E+01 3.63318E-04-2.26948E-07-1.45443E-04 1.48731E-13 1.53045E-13
 -1      4109 2.26779E+01-1.38896E+00-8.80678E-03-6.12460E-01 6.64729E-14 1.16543E-13
 -1      4110 2.32502E+01-1.52122E+00-4.10595E-03-4.88568E-01 8.91835E-14 1.53380E-13
 -1      4111 2.00004E+01-1.78541E-02 3.25445E-05-1.43614E-03-4.38905E-14 3.70965E-14
 -1      4112 2.00022E+01-2.17910E-02 9.30890E-05-1.52894E-03-9.90434E-14-1.70577E-14
 -1      4113 2.00043E+01-2.64743E-02 3.97395E-05-6.82831E-04-9.08246E-14-5.38207E-14
 -1      4114 2.00075E+01-3.20210E-02 1.70007E-04-3.52113E-04-7.41278E-15-4.62895E-14
 -1      4115 2.00033E+01-2.41879E-02-1.61819E-04 7.92719E-04-1.31931E-13-9.60990E-14
 -1      4116 1.99972E+01-7.49666E-03 1.99070E-05-1.19867E-03 3.53887E-14 2.18038E-13
 -1      4117 1.99976E+01-9.44849E-03 1.99122E-05-1.51357E-03 5.38287E-14 1.16058E-13
 -1      4118 1.99967E+01-4.53379E-03 1.44786E-05-8.34870E-04-1.29782E-13 9.14050E-14
 -1      4119 1.99968E+01-5.88612E-03 5.30842E-06-1.12276E-03-1.34435E-14 1.53131E-13
 -1      4120 1.99972E+01-6.96345E-03-2.65709E-05-9.30552E-04 3.68297E-14 3.95459E-15
 -1      4121 1.99967E+01-2.51073E-03 9.85085E-06-4.92487E-04-1.31402E-13 1.20100E-13
 -1      4122 1.99966E+01-3.43106E-03-2.00512E-06-7.25084E-04-1.90978E-13 1.69693E-13
 -1      4123 1.99968E+01-4.20560E-03-1.13204E-05-7.42015E-04-1.67433E-13-4.11743E-14
 -1      4124 1.99969E+01-1.16044E-03 6.12854E-06-2.17156E-04-1.58519E-13 2.86914E-13
 -1      4125 1.99967E+01-1.77073E-03-4.98447E-06-3.88389E-04-1.11353E-13 9.21449E-14
 -1      4126 1.99968E+01-2.30820E-03-2.68469E-06-5.11673E-04-1.59261E-13 1.47758E-15
 -1      4127 1.99972E+01-2.88772E-04 3.36529E-06-1.76958E-05 1.33803E-13 1.79517E-13
 -1      4128 1.99970E+01-6.79287E-04-5.74801E-06-1.33999E-04 1.11089E-13 3.28791E-13
 -1      4129 1.99970E+01-1.03722E-03 1.39381E-06-3.04105E-04-1.19430E-13 1.69054E-13
 -1      4130 1.99976E+01 2.46379E-04 1.34703E-06 1.12169E-04-1.45617E-13 2.48824E-13
 -1      4131 1.99974E+01 1.02463E-05-5.54965E-06 4.02779E-05-4.69464E-14 1.12683E-13
 -1      4132 1.99973E+01-2.12939E-04 4.01834E-06-1.41110E-04-4.76234E-15 1.66831E-13
 -1      4133 1.99979E+01 5.48884E-04-3.18939E-08 1.86260E-04-2.17593E-13 2.37795E-13
 -1      4134 1.99977E+01 4.19131E-04-4.86126E-06 1.47816E-04-2.14118E-13 1.73268E-13
 -1      4135 1.99976E+01 2.92306E-04 5.16784E-06-2.58091E-05-1.63072E-13 1.35373E-13
 -1      4136 1.99983E+01 6.94187E-04-9.03065E-07 2.19256E-04-3.08680E-13 2.81120E-13
 -1      4137 1.99981E+01 6.35913E-04-4.01153E-06 2.04396E-04-1.07632E-13 2.53458E-13
 -1      4138 1.99980E+01 5.75701E-04 5.43791E-06 4.78718E-05-2.41049E-13 2.01038E-13
 -1      4139 1.99986E+01 7.36657E-04-1.39234E-06 2.24226E-04-8.08211E-14 2.02980E-14
 -1      4140 1.99984E+01 7.24719E-04-3.18298E-06 2.24894E-04-2.56833E-13 1.87640E-13
 -1      4141 1.99983E+01 7.08615E-04 5.20976E-06 8.91691E-05-2.03434E-13-6.18863E-14
 -1      4142 1.99988E+01 7.15020E-04-1.60841E-06 2.11661E-04-8.70681E-14-1.21149E-13
 -1      4143 1.99987E+01 7.31546E-04-2.45448E-06 2.21706E-04-4.21375E-14 8.59292E-15
 -1      4144 1.99986E+01 7.43011E-04 4.72100E-06 1.07266E-04-7.61020E-14-3.20102E-13
 -1      4145 1.99990E+01 6.56404E-04-1.64008E-06 1.89394E-04-6.74956E-15-2.56277E-13
 -1      4146 1.99989E+01 6.88921E-04-1.85070E-06 2.04375E-04-2.07719E-14-2.09674E-13
 -1      4147 1.99988E+01 7.16158E-04 4.11864E-06 1.09968E-04 5.04413E-14-2.09834E-13
 -1      4148 1.99992E+01 5.79394E-04-1.55648E-06 1.62917E-04 3.56695E-13-2.24855E-13
 -1      4149 1.99991E+01 6.19407E-04-1.36940E-06 1.79796E-04 9.04921E-14-3.76509E-13
 -1      4150 1.99991E+01 6.54275E-04 3.49096E-06 1.03323E-04 4.33260E-14-4.64213E-13
 -1      4151 1.99994E+01 4.96379E-04-1.38124E-06 1.35856E-04 4.82823E-13-2.58952E-13
 -1      4152 1.99993E+01 5.38275E-04-9.89985E-07 1.52657E-04 5.33382E-13-3.26633E-13
 -1      4153 1.99992E+01 5.75355E-04 2.88641E-06 9.17111E-05 4.35745E-13-6.60144E-13
 -1      4154 1.99995E+01 4.16134E-04-1.81349E-07 1.11032E-04 2.74343E-13-3.82120E-13
 -1      4155 1.99994E+01 4.55241E-04-6.80936E-07 1.25887E-04 4.24681E-13-3.40706E-13
 -1      4156 1.99994E+01 4.91202E-04 2.23920E-06 7.80574E-05 4.59481E-13-5.48903E-13
 -1      4157 2.00110E+01-3.86402E-02 4.89201E-05 1.46928E-03-5.57074E-14-1.30611E-13
 -1      4158 2.00163E+01-4.64470E-02 2.92744E-04 2.62166E-03-1.08611E-13-1.13343E-13
 -1      4159 2.00177E+01-4.99847E-02-4.42023E-04 9.61161E-03-2.08755E-13-2.40078E-13
 -1      4160 2.00088E+01-3.49709E-02-2.70227E-04 3.76203E-03-6.83433E-14-2.33707E-13
 -1      4161 2.01119E+01-1.63057E-01 3.32932E-04 5.45306E-02-4.72126E-15-1.64802E-14
 -1      4162 2.01467E+01-1.94447E-01 1.67943E-03 6.73664E-02 3.91222E-14 3.46379E-14
 -1      4163 2.35548E+01-1.84448E+00 2.80699E-02 2.07473E-01 7.69653E-14 1.52998E-13
 -1      4164 2.00196E+01-2.83249E-01 7.99221E-03 1.72555E+00-5.00294E-15-7.47024E-14
 -1      4165 2.00391E+01-1.90159E-01 1.66472E-02 1.38862E+00-3.77306E-14-9.41866E-14
 -1      4166 1.87643E+01-8.51294E-02-8.32246E-03 3.30665E+00-3.62124E-14-2.25018E-13
 -1      4167 2.05918E+01-5.85964E-01 4.07299E-03 3.83143E-02-1.41227E-13 1.25138E-13
 -1      4168 2.07139E+01-6.82247E-01 1.57475E-03 2.35363E-02-1.58805E-13 8.47002E-14
 -1      4169 2.08054E+01-7.59420E-01-7.84182E-03 1.59545E-01-1.62033E-13-2.81017E-14
 -1      4170 2.05299E+01-5.55334E-01-5.78029E-03 1.29225E-01-8.57189E-14-6.57085E-14
 -1      4171 2.32788E+01 3.98437E+00-1.20543E-02 4.67572E-01 9.07609E-14 1.24704E-13
 -1      4172 2.01816E+01-2.32164E-01 6.75466E-04 9.17821E-02-8.29287E-14 7.03103E-14
 -1      4173 2.02347E+01-2.76750E-01 2.32389E-03 1.10199E-01-9.04935E-14 7.63463E-14
 -1      4174 2.01450E+01-2.02462E-01-2.75515E-03 1.12495E-01-4.73326E-14-6.46208E-14
 -1      4175 2.31730E+01-2.01153E+00-3.13096E-02 9.56180E-01 5.54927E-14 1.15179E-13
 -1      4176 2.24503E+01-1.77944E+00 2.57915E-02 1.86568E+00 3.59062E-14 1.11484E-13
 -1      4177 2.26878E+01-1.68895E+00-6.59140E-03 4.64176E-01 6.63532E-14 1.40690E-13
 -1      4178 1.99091E+01-1.16705E-01-5.77388E-03 1.15223E+00-2.01652E-14-7.76078E-14
 -1      4179 1.99629E+01-6.32132E-02 1.06175E-02 9.22902E-01-3.46159E-14-3.99141E-14
 -1      4180 2.02549E+01-3.96563E-01-8.55802E-03 1.23404E+00 1.24993E-14 8.04803E-15
 -1      4181 1.99983E+01-1.17667E-02 2.59875E-05-1.47333E-03 1.05765E-14 7.83392E-14
 -1      4182 1.99992E+01-1.45496E-02 4.66928E-05-1.74594E-03 3.11476E-14 4.22757E-14
 -1      4183 1.99981E+01-1.08985E-02-5.21240E-05-9.42511E-04 7.41835E-14 1.09009E-13
 -1      4184 2.00395E+01-8.00374E-02 9.71936E-05 1.48551E-02-9.73860E-14-1.09879E-13
 -1      4185 2.00536E+01-9.55952E-02 7.60777E-04 1.97170E-02-3.49956E-14-5.94826E-14
 -1      4186 2.00319E+01-7.09713E-02-7.11782E-04 2.02097E-02-1.32454E-13-2.62177E-13
 -1      4187 1.98996E+01-3.97785E-02-6.16233E-03 7.51566E-01-1.23163E-13-3.14245E-14
 -1      4188 1.99543E+01-1.97691E-02 6.78384E-03 5.98215E-01-1.23313E-13-4.17271E-14
 -1      4189 2.01152E+01-2.19201E-01-4.10975E-03 8.35043E-01-6.66686E-14 9.53470E-14
 -1      4190 2.00676E+01-1.14356E-01 1.70952E-04 3.00084E-02 4.14916E-14-7.18079E-14
 -1      4191 2.00899E+01-1.36428E-01 1.15562E-03 3.82496E-02 2.77074E-14-6.73431E-14
 -1      4192 2.00543E+01-1.00508E-01-1.13099E-03 3.82680E-02-8.30365E-15-2.13434E-13
 -1      4193 1.99996E+01 3.28654E-04-6.05148E-07 2.26588E-05 1.83346E-14-2.40313E-13
 -1      4194 1.99996E+01 3.25446E-04 6.26941E-09 5.78609E-05 1.21481E-13-1.90670E-13
 -1      4195 1.99996E+01 3.48902E-04 8.14422E-07 7.61340E-05 1.50157E-13-3.29446E-13
 -1      4196 1.99995E+01 3.60590E-04 3.86581E-07 2.23307E-05 2.54960E-13-3.19798E-13
 -1      4197 2.24546E+01-1.38777E+00 1.34713E-02-4.40690E-01-1.08138E-14 7.75116E-14
 -1      4198 1.99527E+01-1.67343E-02-3.61429E-03 2.98046E-01 9.76475E-14-1.53427E-13
 -1      4199 1.99828E+01-1.71969E-02 2.53453E-03 2.35384E-01 1.06921E-13-4.84734E-14
 -1      4200 2.00208E+01-6.42471E-02-2.20694E-04 2.17425E-01 6.70289E-14-2.64565E-14
 -1      4201 1.99995E+01 3.98887E-04 8.42338E-07-1.15154E-04 7.40818E-15-1.16392E-13
 -1      4202 2.24317E+01-1.53157E+00-1.99606E-02-9.47347E-02-4.68956E-14 1.19041E-13
 -1      4203 2.00895E+01-1.42436E-01-1.77446E-03 6.74879E-02 2.24859E-14-1.37219E-13
 -1      4204 2.00000E+01-1.64418E-02-9.40409E-05-5.20271E-04-1.17345E-13 7.28327E-14
 -1      4205 2.02900E+01-3.29900E-01 1.33447E-03 1.44694E-01-1.37793E-13 4.71868E-14
 -1      4206 2.03695E+01-3.92731E-01 3.00587E-03 1.68594E-01-1.73546E-13-7.67293E-14
 -1      4207 2.02321E+01-2.88844E-01-4.21698E-03 1.78295E-01-1.56464E-13-7.08584E-14
 -1      4208 1.99995E+01 3.92723E-04 1.29634E-08 8.77858E-05 3.91609E-13-3.89743E-13
 -1      4209 2.00543E+01-1.29125E-01-1.84223E-03 5.46480E-01-1.04705E-13 7.34450E-14
 -1      4210 2.10625E+01-1.13128E+00 8.20636E-03 2.37462E+00-7.18839E-14 1.59992E-13
 -1      4211 2.02872E+01-5.55322E-01-2.89495E-03 1.98077E+00-3.46684E-14-2.28029E-15
 -1      4212 2.19816E+01-1.68740E+00-2.56406E-02 2.11922E+00-3.62340E-14 1.79319E-13
 -1      4213 2.14615E+01-1.35960E+00-3.74619E-03 2.24064E+00-1.04323E-13 1.90974E-13
 -1      4214 2.14343E+01-1.18999E+00 1.35025E-02 1.72048E+00-7.53674E-14 2.36358E-13
 -1      4215 2.21494E+01-1.52633E+00 2.03729E-02 1.31640E+00-1.70150E-14 2.13825E-13
 -1      4216 2.00301E+01-8.52331E-02-6.40943E-04 3.47871E-01-8.70580E-16 8.50354E-14
 -1      4217 2.10832E+01-8.98109E-01 7.45473E-03 3.67107E-01-1.38652E-13 1.72749E-14
 -1      4218 2.13100E+01-1.04292E+00 2.89546E-03 3.68878E-01-9.95290E-14-1.29667E-14
 -1      4219 2.13943E+01-1.14179E+00-1.50040E-02 6.26914E-01-1.51919E-13 5.50689E-14
 -1      4220 2.16213E+01-1.19505E+00 1.27433E-02 3.96173E-01-1.39213E-13 9.28836E-15
 -1      4221 2.19352E+01-1.34274E+00 9.27835E-03 3.42483E-01-1.52384E-13-3.56210E-14
 -1      4222 2.06598E+01-7.93471E-01-1.97835E-02 1.68644E+00-1.14687E-14 2.90483E-14
 -1      4223 1.99995E+01 3.85690E-04-8.11284E-07-7.63060E-05-1.39217E-13-2.47054E-13
 -1      4224 1.99995E+01 3.92867E-04-7.00811E-07-3.40979E-05 5.14775E-14-3.52071E-13
 -1      4225 2.22845E+01-1.50592E+00 1.58519E-02 5.35296E-01-4.10162E-14 5.96208E-14
 -1      4226 2.00277E+01-6.57105E-02-8.48353E-04 8.60205E-02-1.24938E-14-3.45545E-14
 -1      4227 2.00278E+01-5.73559E-02 9.84973E-04 6.57913E-02-3.10388E-14-6.95987E-15
 -1      4228 2.00186E+01-5.11333E-02-5.50620E-04 5.06379E-02-9.75296E-14 2.18331E-14
 -1      4229 2.00181E+01-4.47079E-02 6.16833E-04 3.81711E-02-3.76797E-14-2.33017E-14
 -1      4230 2.00325E+01-6.93284E-02-5.97245E-04 5.39915E-02-5.13218E-14-1.48156E-13
 -1      4231 2.00120E+01-3.96631E-02-3.40118E-04 2.89528E-02-7.98637E-14 2.79676E-14
 -1      4232 2.00112E+01-3.45492E-02 3.82025E-04 2.13995E-02-2.19119E-13 9.00984E-14
 -1      4233 2.00200E+01-5.14336E-02-3.74640E-04 3.05524E-02-6.36572E-14-1.51842E-13
 -1      4234 2.00072E+01-3.03733E-02-2.00091E-04 1.59545E-02-2.93512E-13 1.11726E-13
 -1      4235 2.00063E+01-2.62580E-02 2.33763E-04 1.14561E-02-1.64529E-13 1.70266E-13
 -1      4236 2.00116E+01-3.80228E-02-2.35411E-04 1.64945E-02-1.62891E-13-7.95730E-14
 -1      4237 2.00036E+01-2.28115E-02-1.11585E-04 8.34657E-03-2.42539E-13 1.64524E-13
 -1      4238 2.00028E+01-1.95158E-02 1.40933E-04 5.71689E-03-1.86157E-13-1.39168E-14
 -1      4239 2.00060E+01-2.78110E-02-1.47494E-04 8.33268E-03-2.09688E-13 1.41028E-14
 -1      4240 2.00010E+01-1.67159E-02-5.82878E-05 4.01439E-03-3.78990E-14-5.58596E-14
 -1      4241 2.00004E+01-1.41135E-02 8.32733E-05 2.51020E-03 1.47302E-16-1.73583E-14
 -1      4242 2.00022E+01-2.00004E-02-9.14366E-05 3.77219E-03-1.78503E-13-7.50041E-14
 -1      4243 1.99993E+01-1.18884E-02-2.78133E-05 1.63098E-03-1.79145E-14-7.90802E-14
 -1      4244 1.99988E+01-9.87317E-03 4.77684E-05 7.94180E-04-7.13038E-14-1.64368E-13
 -1      4245 1.99998E+01-1.40532E-02-5.54229E-05 1.34687E-03-2.97991E-14-1.82206E-13
 -1      4246 1.99982E+01-8.14832E-03-1.14444E-05 3.80538E-04-1.21930E-13-9.54383E-14
 -1      4247 1.99979E+01-6.62301E-03 2.61386E-05-6.69448E-05-7.22947E-14-1.51369E-13
 -1      4248 1.99983E+01-9.57449E-03-3.22137E-05 1.46171E-04-7.48073E-14-2.00958E-13
 -1      4249 1.99976E+01-5.32148E-03-3.37604E-06-2.28407E-04 7.54015E-14-1.55026E-13
 -1      4250 1.99974E+01-4.19619E-03 1.31656E-05-4.52907E-04-2.89564E-14-9.80392E-15
 -1      4251 1.99975E+01-6.25535E-03-1.73065E-05-3.79764E-04 4.20737E-14-1.11583E-13
 -1      4252 1.99973E+01-3.24182E-03 2.54620E-07-4.85585E-04-2.72392E-13-5.57834E-14
 -1      4253 1.99973E+01-2.43521E-03 5.50059E-06-5.85839E-04-2.00569E-13-1.13818E-13
 -1      4254 1.99971E+01-3.84525E-03-7.88758E-06-5.53168E-04-1.68876E-13-1.96424E-13
 -1      4255 1.99973E+01-1.72738E-03 1.45260E-06-5.58759E-04-1.59416E-13-1.56659E-13
 -1      4256 1.99973E+01-1.14953E-03 1.30687E-06-5.88932E-04 8.31928E-15-1.38561E-13
 -1      4257 1.99971E+01-2.10798E-03-2.73831E-06-5.55353E-04-2.10722E-13-1.41260E-13
 -1      4258 1.99974E+01-6.97949E-04 1.10971E-06-5.39406E-04 1.13807E-13-1.83869E-13
 -1      4259 1.99975E+01-3.35849E-04-1.06143E-06-5.33787E-04-9.87772E-14-1.57800E-13
 -1      4260 1.99972E+01-9.22745E-04 6.84420E-07-4.84404E-04-4.44027E-15-1.30183E-13
 -1      4261 1.99977E+01-4.33342E-05 5.18994E-07-4.81417E-04-2.51875E-13-5.76154E-14
 -1      4262 1.99978E+01 1.82320E-04-2.22705E-06-4.59540E-04-3.40113E-13 1.91244E-14
 -1      4263 1.99975E+01-1.67337E-04 2.86769E-06-3.95131E-04-1.35961E-13-3.87518E-14
 -1      4264 1.99980E+01 3.58248E-04 1.77157E-08-4.11640E-04-1.92012E-13-1.35260E-14
 -1      4265 1.99981E+01 4.85906E-04-2.69174E-06-3.83303E-04-1.98854E-14-2.95697E-15
 -1      4266 1.99978E+01 3.00654E-04 3.89725E-06-3.09660E-04-2.04882E-13 1.99237E-13
 -1      4267 1.99982E+01 5.79309E-04-3.86565E-07-3.42755E-04 7.74120E-14-1.60118E-13
 -1      4268 1.99984E+01 6.39104E-04-2.74853E-06-3.13166E-04 1.12669E-13-3.78810E-14
 -1      4269 1.99981E+01 5.64604E-04 4.24615E-06-2.36641E-04-1.09486E-13-2.26304E-13
 -1      4270 1.99985E+01 6.76233E-04-6.55682E-07-2.80310E-04 2.42552E-13-1.01353E-13
 -1      4271 1.99986E+01 6.90967E-04-2.58348E-06-2.52128E-04 2.80934E-13-1.10640E-13
 -1      4272 1.99984E+01 6.88057E-04 4.17590E-06-1.77997E-04 1.01800E-13-2.13448E-13
 -1      4273 1.99988E+01 6.91526E-04-7.96841E-07-2.26203E-04 2.15514E-13-1.85914E-13
 -1      4274 1.99989E+01 6.78006E-04-2.30994E-06-2.00675E-04 1.42671E-13-2.91648E-13
 -1      4275 1.99987E+01 7.18576E-04 3.86263E-06-1.32589E-04 1.59383E-13-4.50484E-13
 -1      4276 1.99990E+01 6.56381E-04-8.37165E-07-1.80560E-04 3.52426E-13-4.34540E-13
 -1      4277 1.99991E+01 6.26659E-04-1.99612E-06-1.58161E-04 3.62115E-13-3.53992E-13
 -1      4278 1.99989E+01 6.90967E-04 3.42460E-06-9.82016E-05 1.94970E-13-3.82601E-13
 -1      4279 1.99992E+01 5.93050E-04-8.05977E-07-1.42712E-04 3.92213E-13-3.02563E-13
 -1      4280 1.99992E+01 5.55521E-04-1.65459E-06-1.23535E-04 4.11314E-13-3.69800E-13
 -1      4281 1.99991E+01 6.30063E-04 2.93646E-06-7.24960E-05 4.34750E-13-6.00461E-13
 -1      4282 1.99993E+01 5.16726E-04-7.09224E-07-1.11646E-04 5.52875E-13-3.44470E-13
 -1      4283 1.99994E+01 4.77267E-04-8.30298E-07-9.59141E-05 4.70813E-13-1.96396E-13
 -1      4284 1.99993E+01 5.53000E-04 2.38643E-06-5.33607E-05 4.72681E-13-5.50986E-13
 -1      4285 2.00633E+01-1.14227E-01-1.70925E-03 2.30466E-01-1.69252E-14 3.86957E-14
 -1      4286 2.00636E+01-9.69440E-02 2.42693E-03 1.80140E-01 3.98835E-14-3.53696E-14
 -1      4287 1.99969E+01-2.17635E-03 6.87010E-06-5.06748E-04-1.96756E-13-1.02654E-13
 -1      4288 1.99969E+01-2.98500E-03-4.04795E-06-6.17325E-04-1.27532E-13-9.52441E-14
 -1      4289 2.01029E+01-1.60930E-01-2.10979E-03 3.65974E-01-5.78332E-14 7.03542E-14
 -1      4290 2.00997E+01-1.32856E-01 3.72000E-03 2.87992E-01 9.35219E-15 2.06174E-14
 -1      4291 2.01293E+01-1.81511E-01-2.43107E-03 2.42905E-01-5.80002E-14-5.30943E-14
 -1      4292 1.99970E+01-3.94299E-03 1.07560E-05-5.99436E-04-2.32594E-13-9.38253E-14
 -1      4293 1.99971E+01-5.11027E-03 2.08715E-06-7.00264E-04-3.57836E-14-1.57507E-13
 -1      4294 1.99974E+01-6.46747E-03 1.62001E-05-5.74646E-04 3.40766E-14-8.56667E-14
 -1      4295 1.99977E+01-8.11582E-03 1.50777E-05-6.15974E-04 4.61173E-14 1.23521E-14
 -1      4296 1.99971E+01-9.50827E-04 3.82855E-06-3.79265E-04-3.24062E-14-1.16413E-13
 -1      4297 1.99970E+01-1.48770E-03-5.74525E-06-4.75878E-04-3.57713E-13-1.07083E-13
 -1      4298 1.99974E+01-1.76398E-04 1.53799E-06-2.62559E-04-5.38484E-14-1.01060E-13
 -1      4299 1.99972E+01-5.21307E-04-6.10872E-06-3.37326E-04 1.66455E-13-4.36129E-14
 -1      4300 1.99977E+01 3.01307E-04 3.76828E-08-1.68173E-04-2.25220E-13 9.43529E-14
 -1      4301 1.99975E+01 9.37051E-05-5.83767E-06-2.21487E-04-1.99290E-13 1.10255E-13
 -1      4302 1.99980E+01 5.69757E-04-9.19090E-07-9.83631E-05-1.65343E-13 5.59873E-14
 -1      4303 1.99978E+01 4.57933E-04-5.11942E-06-1.33470E-04-1.87561E-13 7.91007E-14
 -1      4304 1.99983E+01 6.95052E-04-1.46533E-06-5.02536E-05-1.78431E-13-1.59086E-13
 -1      4305 1.99982E+01 6.48016E-04-4.25656E-06-7.13430E-05-1.32504E-13-1.18342E-13
 -1      4306 1.99986E+01 7.26089E-04-1.71493E-06-1.92445E-05 8.36637E-14-3.31350E-13
 -1      4307 1.99985E+01 7.21076E-04-3.41558E-06-3.02783E-05-6.72490E-14-3.53885E-13
 -1      4308 1.99989E+01 6.98348E-04-1.76185E-06-7.27400E-07 1.38532E-14-3.24864E-13
 -1      4309 1.99987E+01 7.18962E-04-2.67031E-06-4.99514E-06 1.35106E-14-4.33948E-13
 -1      4310 1.99991E+01 6.36992E-04-1.67982E-06 9.20681E-06 1.92597E-13-6.44937E-13
 -1      4311 1.99990E+01 6.71706E-04-2.04537E-06 9.18396E-06 1.59362E-13-4.27804E-13
 -1      4312 1.99992E+01 5.59383E-04-1.51817E-06 1.35810E-05 6.20490E-13-8.95731E-13
 -1      4313 1.99992E+01 6.00330E-04-1.53876E-06 1.59800E-05 2.60934E-13-8.48256E-13
 -1      4314 1.99994E+01 4.77438E-04-1.39087E-06 1.44555E-05 3.87961E-13-6.40628E-13
 -1      4315 1.99993E+01 5.19253E-04-1.06987E-06 1.81263E-05 5.93271E-13-6.62930E-13
 -1      4316 1.99999E+01-1.48578E-02 3.19057E-05 6.15607E-04-6.73021E-14-3.40466E-14
 -1      4317 2.00014E+01-1.79921E-02 8.28024E-05 1.07387E-03-1.49255E-13-7.59273E-14
 -1      4318 2.05832E+01-6.06132E-01 2.23668E-03 1.21012E+00 6.56670E-14 2.08610E-14
 -1      4319 2.04804E+01-4.75567E-01 1.05561E-02 9.93349E-01 2.24518E-14 8.44330E-14
 -1      4320 1.99994E+01 4.35866E-04-3.08897E-07-1.00552E-04 6.16175E-14-1.79080E-13
 -1      4321 1.99983E+01-9.99898E-03 2.31535E-05-2.69046E-04 9.73500E-14-1.08038E-13
 -1      4322 1.99990E+01-1.22863E-02 3.95294E-05-1.51166E-04-2.29090E-14-5.69922E-14
 -1      4323 2.00413E+01-8.53690E-02-1.23661E-03 1.42486E-01 2.52458E-14-1.16616E-14
 -1      4324 2.00419E+01-7.38290E-02 1.55458E-03 1.10248E-01-3.41808E-14-8.97455E-16
 -1      4325 2.00515E+01-9.38994E-02-9.55674E-04 9.19207E-02-1.11691E-14-1.45797E-13
 -1      4326 2.00811E+01-1.28974E-01-1.53350E-03 1.51510E-01 3.79841E-15-8.76181E-14
 -1      4327 2.00705E+01-1.12361E-01 3.50130E-04 8.26715E-02 1.49867E-14-2.40280E-13
 -1      4328 2.00953E+01-1.33896E-01 1.79348E-03 1.02257E-01 3.63096E-14-2.46807E-13
 -1      4329 2.01778E+01-2.40349E-01-2.03397E-03 5.65699E-01-1.06704E-13 1.64029E-13
 -1      4330 2.01629E+01-1.93068E-01 5.54595E-03 4.49930E-01-7.88822E-14 1.57138E-13
 -1      4331 2.02100E+01-2.63562E-01-3.92461E-03 3.78145E-01-1.35543E-13 7.69320E-14
 -1      4332 2.00260E+01-5.87199E-02 1.23159E-04 2.65597E-02-1.33458E-13-2.12607E-13
 -1      4333 2.00361E+01-6.95411E-02 7.54882E-04 3.39699E-02-7.27226E-14-2.11887E-13
 -1      4334 2.03188E+01-3.76056E-01-9.18991E-04 8.43318E-01 1.96273E-14 7.15838E-14
 -1      4335 2.02762E+01-2.96594E-01 7.95267E-03 6.80890E-01-5.56757E-14 1.38131E-13
 -1      4336 2.05757E+01-5.93733E-01-9.71423E-03 8.14356E-01 2.79296E-14 3.12569E-14
 -1      4337 2.01134E+01-1.57055E-01 6.47914E-04 1.36762E-01 9.72956E-15-2.08694E-13
 -1      4338 2.01520E+01-1.88418E-01 2.60858E-03 1.66496E-01-7.01981E-14-1.20538E-13
 -1      4339 2.00434E+01-8.10919E-02 2.00101E-04 4.79924E-02-5.47615E-14-2.14317E-13
 -1      4340 2.00593E+01-9.62064E-02 1.18385E-03 6.03148E-02-1.32382E-14-1.90920E-13
 -1      4341 2.08750E+01-7.69436E-01 3.56419E-03 3.15891E-01-1.19402E-13-6.68703E-15
 -1      4342 2.09068E+01-8.28483E-01-1.19041E-02 5.11432E-01-1.25202E-13-2.59937E-14
 -1      4343 2.07097E+01-6.53270E-01 4.51988E-03 2.93663E-01-9.41485E-14-1.03160E-13
 -1      4344 2.00028E+01-2.14641E-02 4.31513E-05 2.59596E-03-2.38715E-13-4.62905E-14
 -1      4345 2.00052E+01-2.57261E-02 1.56067E-04 3.70574E-03-1.34624E-13-1.54256E-13
 -1      4346 2.11184E+01-9.94093E-01 1.16191E-02 1.54649E+00-9.04168E-14 1.90846E-13
 -1      4347 2.07811E+01-7.53518E-01 5.77158E-03 1.38497E+00-5.32473E-15 8.56818E-14
 -1      4348 2.09202E+01-8.78436E-01-1.60509E-02 1.10608E+00-2.67485E-14 1.64202E-13
 -1      4349 2.14242E+01-1.22701E+00-1.50365E-02 1.41320E+00-9.83326E-14 2.85045E-13
 -1      4350 2.19969E+01-1.50580E+00-2.52595E-02 8.76059E-01-1.96232E-14 1.22308E-13
 -1      4351 1.99994E+01 4.68867E-04 1.46994E-06-5.44010E-05 2.84696E-13-4.11714E-13
 -1      4352 2.01825E+01-2.22843E-01 1.23223E-03 2.18539E-01-1.32548E-13 3.00326E-15
 -1      4353 2.02423E+01-2.69432E-01 3.59878E-03 2.61680E-01-1.58814E-13-6.54747E-14
 -1      4354 2.17776E+01-1.33625E+00 9.44522E-03 1.09635E+00-9.12961E-14 1.96028E-13
 -1      4355 1.99994E+01 4.37879E-04 3.21182E-07 2.76888E-06 1.76301E-13-5.72317E-13
 -1      4356 1.99995E+01 4.04812E-04-5.60245E-08 2.99650E-05 2.60263E-13-4.24229E-13
 -1      4357 2.04569E+01-4.66577E-01 2.51937E-03 2.13838E-01-1.06977E-13-8.22399E-14
 -1      4358 2.05732E+01-5.53563E-01 3.50812E-03 2.40603E-01-7.44555E-14-9.17820E-14
 -1      4359 2.05813E+01-5.88211E-01-8.88782E-03 3.83564E-01-7.80519E-14-9.09637E-14
 -1      4360 2.03687E+01-4.12730E-01-6.24301E-03 2.68802E-01-1.91871E-13-1.27523E-13
 -1      4361 2.11790E+01-9.68356E-01 9.45897E-03 9.01930E-01-1.09428E-13 1.83537E-13
 -1      4362 2.14688E+01-1.15315E+00 5.45268E-03 9.71783E-01-6.85907E-14 2.32199E-13
 -1      4363 1.99995E+01 3.99785E-04-1.15568E-07 5.91170E-05 3.68235E-13-3.11313E-13
 -1      4364 2.03459E+01-3.92464E-01-6.29795E-03 5.66895E-01-5.27340E-14 8.07638E-14
 -1      4365 2.00211E+01-5.02848E-02 4.64983E-04 1.80420E-02-1.91941E-13-2.06493E-13
 -1      4366 2.00147E+01-4.24139E-02 8.22572E-05 1.38059E-02-1.79568E-13-3.21193E-13
 -1      4367 2.09732E+01-8.29675E-01 6.34205E-03 7.72356E-01-7.43809E-14 1.14523E-13
 -1      4368 2.07660E+01-6.85134E-01 6.60593E-03 6.90122E-01-3.41697E-14 3.57177E-14
 -1      4369 2.00074E+01-3.03844E-02 5.85893E-05 6.53217E-03-8.98537E-14-1.83551E-13
 -1      4370 2.00114E+01-3.61661E-02 2.75733E-04 8.80380E-03-1.65289E-13-2.75787E-13
 -1      4371 2.04751E+01-4.67360E-01 4.07146E-03 4.93726E-01-5.41283E-14-4.99308E-14
 -1      4372 2.03861E+01-3.90582E-01 4.65177E-03 3.95018E-01-1.35451E-13-6.23687E-14
 -1      4373 2.06135E+01-5.70018E-01 5.45252E-03 5.68217E-01-5.01479E-14-1.20953E-14
 -1      4374 2.02945E+01-3.21019E-01 2.29960E-03 3.35942E-01-2.05672E-13-2.45314E-14
 -3
    1PSTEP                         3           1           1          
  100CL  101 1.000000000        4374                     0    1           1
 -4  TOSTRAIN    6    1
 -5  EXX         1    4    1    1
 -5  EYY         1    4    2    2
 -5  EZZ         1    4    3    3
 -5  EXY         1    4    1    2
 -5  EYZ         1    4    2    3
 -5  EZX         1    4    3    1
 -1         1 3.22669E-05-1.18256E-04 2.34522E-05-3.99144E-05-9.80441E-19-3.91567E-19
 -1         2 4.11828E-05-1.26375E-04 2.44845E-05 1.91019E-06-1.03338E-19 5.55151E-19
 -1         3 9.52371E-05-2.85711E-05-2.85711E-05-9.21797E-13-5.19056E-18-5.31499E-18
 -1         4 9.52371E-05-2.85711E-05-2.85711E-05 7.59967E-13-3.01972E-18 2.13534E-18
 -1         5 1.36979E-04-2.10528E-05-3.96977E-05 3.88745E-05-4.81221E-20 6.22993E-18
 -1         6 1.59014E-04 3.28982E-10-5.11916E-05-4.95791E-05-5.89747E-20 6.36683E-18
 -1         7 1.06827E-04-1.67829E-06-4.41655E-05-1.71622E-05-1.90582E-20 3.17992E-18
 -1         8 8.54329E-05 1.15626E-07-3.67600E-05-6.90590E-06-9.05266E-20 1.54083E-18
 -1         9 7.02132E-05 7.06234E-07-3.12976E-05-8.88700E-06-9.87852E-20 4.40317E-19
 -1        10 6.37904E-05 7.89549E-07-2.86825E-05-1.54008E-05-9.16913E-20-1.94784E-19
 -1        11 6.59132E-05 5.41353E-07-2.90646E-05-2.08457E-05-9.20619E-20-4.70619E-19
 -1        12 7.30129E-05 1.95641E-07-3.13699E-05-2.20407E-05-6.83979E-20-5.68726E-19
 -1        13 8.12630E-05-1.03172E-07-3.43076E-05-1.86527E-05-6.12511E-20-6.32294E-19
 -1        14 8.76513E-05-2.61278E-07-3.67558E-05-1.21811E-05-3.21343E-20-7.13549E-19
 -1        15 9.10735E-05-2.92183E-07-3.81969E-05-4.58248E-06-4.12399E-20-8.03507E-19
 -1        16 9.16994E-05-2.46537E-07-3.85836E-05 2.73164E-06-1.12827E-20-8.37421E-19
 -1        17 9.02516E-05-1.68560E-07-3.81270E-05 9.09134E-06-1.79465E-20-9.06994E-19
 -1        18 8.76136E-05-8.74474E-08-3.71531E-05 1.43033E-05 2.30287E-21-8.42265E-19
 -1        19 8.44376E-05 3.21873E-09-3.59450E-05 1.87049E-05 3.89635E-20-6.77646E-19
 -1        20 8.15648E-05 1.21110E-07-3.48874E-05 2.25027E-05 5.23572E-20-2.91136E-19
 -1        21 8.02032E-05 3.27257E-07-3.45399E-05 2.61877E-05 6.47385E-20 4.92661E-19
 -1        22 8.43469E-05 2.85880E-07-3.60606E-05 3.14885E-05 3.33519E-20 2.22029E-18
 -1        23 1.49052E-04-5.02948E-05-4.60967E-05-4.33667E-07 7.13096E-20 6.10912E-18
 -1        24 1.50193E-04-4.49017E-05-4.67992E-05 2.11454E-06-1.15018E-19 5.99975E-18
 -1        25 1.77433E-04-5.33508E-05-5.34630E-05 3.46848E-06 9.65221E-20 6.49621E-18
 -1        26 2.13983E-04-6.50870E-05-6.13479E-05 3.98537E-06 1.22899E-19 8.24332E-18
 -1        27 2.35087E-04-7.26252E-05-6.45536E-05-1.44643E-06 2.58292E-19 1.13161E-17
 -1        28 2.15957E-04-6.52216E-05-6.15610E-05-8.40292E-06-7.80329E-20 1.33598E-17
 -1        29 1.56246E-04-4.37837E-05-5.50246E-05-1.09803E-05-3.13323E-19 1.21837E-17
 -1        30 8.37090E-05-1.51993E-05-4.93228E-05-8.06033E-06 3.99164E-20 8.05105E-18
 -1        31 7.51851E-05-1.16516E-05-4.88682E-05 5.11015E-06-3.99164E-19 3.39406E-18
 -1        32 1.46895E-04-4.01647E-05-5.42407E-05 1.14914E-05 2.31478E-19-1.55769E-18
 -1        33 2.17225E-04-6.65322E-05-6.16361E-05 6.00796E-06-6.70116E-19-3.49952E-18
 -1        34 2.37418E-04-7.36500E-05-6.48492E-05 2.06409E-07 2.91406E-19-2.09821E-18
 -1        35 2.13190E-04-6.50053E-05-6.11280E-05-1.93332E-06 2.82229E-19 4.36434E-19
 -1        36 1.75098E-04-5.24987E-05-5.26902E-05-1.64975E-06 2.05035E-19 2.31748E-18
 -1        37 1.42772E-04-4.25130E-05-4.38345E-05-9.20354E-07-7.22013E-20 3.39808E-18
 -1        38 1.21811E-04-3.63062E-05-3.73567E-05-4.36132E-07-1.62453E-19 3.09956E-18
 -1        39 1.09474E-04-3.27198E-05-3.33219E-05-1.89674E-07-5.41745E-20 2.82170E-18
 -1        40 1.02572E-04-3.07183E-05-3.10229E-05-7.65179E-08 9.09531E-20 2.97215E-18
 -1        41 9.88382E-05-2.96313E-05-2.97769E-05-2.71763E-08-1.61457E-20 4.81234E-19
 -1        42 9.68833E-05-2.90586E-05-2.91261E-05-6.72784E-09 1.30668E-20-2.77953E-20
 -1        43 9.59008E-05-2.87691E-05-2.87994E-05 9.92470E-10-8.07512E-19-9.65908E-19
 -1        44 9.54373E-05-2.86318E-05-2.86445E-05 3.29746E-09 4.61743E-19 2.76797E-19
 -1        45 9.52420E-05-2.85735E-05-2.85781E-05 3.42367E-09-2.67543E-19 1.32598E-18
 -1        46 9.51784E-05-2.85544E-05-2.85553E-05 2.64954E-09 5.70442E-20-3.46627E-18
 -1        47 9.51750E-05-2.85532E-05-2.85525E-05 2.13748E-09-2.18952E-19-2.21473E-18
 -1        48 9.51942E-05-2.85588E-05-2.85577E-05 1.38134E-09-7.53112E-22-1.99435E-18
 -1        49 9.52174E-05-2.85655E-05-2.85645E-05 8.59474E-10 4.95742E-19 1.36610E-18
 -1        50 9.52373E-05-2.85714E-05-2.85705E-05 4.87915E-10-4.08571E-19 4.17767E-18
 -1        51 9.52516E-05-2.85756E-05-2.85750E-05 2.37180E-10 1.01851E-19 3.46540E-18
 -1        52 9.52604E-05-2.85782E-05-2.85778E-05 7.78995E-11-6.42452E-19-9.84100E-19
 -1        53 9.52647E-05-2.85794E-05-2.85792E-05-1.60993E-11 9.42805E-19-4.14547E-18
 -1        54 9.52656E-05-2.85797E-05-2.85795E-05-6.57985E-11-2.38312E-19-8.96425E-19
 -1        55 9.52643E-05-2.85793E-05-2.85792E-05-8.69141E-11 9.16159E-22-9.01681E-19
 -1        56 9.52617E-05-2.85785E-05-2.85785E-05-9.06467E-11 2.94383E-19 1.10603E-18
 -1        57 9.52584E-05-2.85775E-05-2.85775E-05-8.46449E-11-4.92293E-19 7.55139E-19
 -1        58 9.52550E-05-2.85765E-05-2.85765E-05-7.39093E-11 6.38942E-19-7.48789E-19
 -1        59 9.52518E-05-2.85755E-05-2.85756E-05-6.15203E-11-7.79338E-19 2.88595E-19
 -1        60 9.52488E-05-2.85746E-05-2.85747E-05-5.04389E-11 3.63468E-19-3.32250E-18
 -1        61 9.52461E-05-2.85738E-05-2.85739E-05-3.77667E-11-3.54483E-19 1.73284E-18
 -1        62 9.52440E-05-2.85732E-05-2.85732E-05-2.87218E-11 1.72317E-19 5.68263E-18
 -1        63 9.52422E-05-2.85727E-05-2.85727E-05-2.10894E-11 8.86335E-19 7.09651E-18
 -1        64 9.52408E-05-2.85723E-05-2.85723E-05-1.50668E-11 3.39874E-19 9.35525E-18
 -1        65 9.52398E-05-2.85719E-05-2.85719E-05-1.04380E-11 3.36492E-19 6.79695E-18
 -1        66 9.52389E-05-2.85717E-05-2.85717E-05-6.98131E-12-8.89672E-20 4.69086E-19
 -1        67 9.52383E-05-2.85715E-05-2.85715E-05-4.47706E-12-3.73209E-20 1.38581E-18
 -1        68 9.52378E-05-2.85714E-05-2.85714E-05-2.71478E-12 1.51097E-18 6.55192E-18
 -1        69 9.52375E-05-2.85713E-05-2.85713E-05-1.49009E-12-1.82382E-19 1.58647E-17
 -1        70 9.52373E-05-2.85712E-05-2.85712E-05-5.95227E-13-1.99758E-18 5.13272E-18
 -1        71 9.52372E-05-2.85711E-05-2.85712E-05 3.11617E-13-8.31818E-19-9.76423E-18
 -1        72 9.52371E-05-2.85711E-05-2.85711E-05 1.99312E-12-1.66773E-19-8.80715E-18
 -1        73 9.52371E-05-2.85711E-05-2.85711E-05 6.46794E-12 1.05301E-18-3.21726E-18
 -1        74 9.07839E-05-2.71419E-05-3.06284E-05-1.35820E-06 5.49513E-20 5.72552E-18
 -1        75 7.66299E-05-2.27183E-05-2.41957E-05-1.82581E-07 1.22962E-19 4.26690E-18
 -1        76 6.95884E-05-2.08470E-05-2.11553E-05-1.57651E-08 2.73805E-20 2.98830E-18
 -1        77 6.53501E-05-1.96428E-05-1.96547E-05 2.27986E-08 1.53674E-20 2.39475E-18
 -1        78 6.26738E-05-1.88384E-05-1.88342E-05 5.03365E-08 3.49070E-22 1.98534E-18
 -1        79 6.12745E-05-1.84056E-05-1.84385E-05 5.28679E-08-1.55179E-20 1.70499E-18
 -1        80 6.12040E-05-1.83724E-05-1.84364E-05 2.66128E-08-3.74547E-20 1.26926E-18
 -1        81 6.25210E-05-1.87586E-05-1.88339E-05-2.00093E-08 1.17005E-19 7.83201E-19
 -1        82 6.51305E-05-1.95360E-05-1.96018E-05-7.25742E-08-7.17248E-21 3.03701E-19
 -1        83 6.87471E-05-2.06188E-05-2.06600E-05-1.16530E-07 8.41259E-20 1.69056E-19
 -1        84 7.29511E-05-2.18802E-05-2.18912E-05-1.42291E-07 2.61110E-20-1.60275E-19
 -1        85 7.72911E-05-2.31834E-05-2.31674E-05-1.47453E-07 3.46395E-20-4.67192E-19
 -1        86 8.13809E-05-2.44118E-05-2.43775E-05-1.35649E-07 1.00863E-19-9.76947E-19
 -1        87 8.49584E-05-2.54860E-05-2.54435E-05-1.13518E-07-5.73939E-21-1.62458E-19
 -1        88 8.78978E-05-2.63682E-05-2.63259E-05-8.77314E-08 1.91552E-20 1.36485E-19
 -1        89 9.01864E-05-2.70548E-05-2.70179E-05-6.32184E-08-5.91033E-20 8.00866E-19
 -1        90 9.18866E-05-2.75647E-05-2.75356E-05-4.26999E-08-1.68169E-19-3.82141E-20
 -1        91 9.30982E-05-2.79281E-05-2.79068E-05-2.70540E-08-2.32167E-20 3.94133E-19
 -1        92 9.39298E-05-2.81776E-05-2.81630E-05-1.59879E-08-1.54317E-19 8.33035E-19
 -1        93 9.44806E-05-2.83429E-05-2.83335E-05-8.65885E-09 6.36963E-20 1.94780E-18
 -1        94 9.48328E-05-2.84487E-05-2.84430E-05-4.09927E-09 1.89210E-19 1.61657E-18
 -1        95 9.50498E-05-2.85140E-05-2.85108E-05-1.44479E-09 6.26844E-20 2.46920E-18
 -1        96 9.51777E-05-2.85526E-05-2.85509E-05-1.98911E-11 1.30171E-19 2.56631E-18
 -1        97 9.52487E-05-2.85741E-05-2.85733E-05 6.57651E-10-7.45814E-20 1.14205E-18
 -1        98 9.52846E-05-2.85850E-05-2.85847E-05 9.08798E-10 9.08356E-20 2.02608E-18
 -1        99 9.52995E-05-2.85896E-05-2.85896E-05 9.34687E-10 3.34325E-19 1.68080E-18
 -1       100 9.53024E-05-2.85905E-05-2.85907E-05 8.54346E-10-3.90810E-19 1.04609E-18
 -1       101 9.52989E-05-2.85895E-05-2.85897E-05 7.34040E-10 1.71938E-19-1.50494E-18
 -1       102 9.52923E-05-2.85876E-05-2.85878E-05 6.07994E-10-4.89996E-20-2.11003E-18
 -1       103 9.52846E-05-2.85853E-05-2.85855E-05 4.92026E-10-1.39977E-19-1.88650E-18
 -1       104 9.52769E-05-2.85830E-05-2.85832E-05 3.91996E-10 2.39766E-19-4.63362E-18
 -1       105 9.52698E-05-2.85809E-05-2.85810E-05 3.08778E-10 1.94528E-20-5.82680E-18
 -1       106 9.52634E-05-2.85790E-05-2.85791E-05 2.41022E-10-2.33163E-20-6.16919E-18
 -1       107 9.52580E-05-2.85774E-05-2.85775E-05 1.86594E-10-5.37732E-20-2.34338E-18
 -1       108 9.52534E-05-2.85760E-05-2.85761E-05 1.43270E-10-4.31429E-20-1.81946E-18
 -1       109 9.52497E-05-2.85749E-05-2.85750E-05 1.09030E-10-5.97200E-19-2.57722E-18
 -1       110 9.52467E-05-2.85740E-05-2.85740E-05 8.21463E-11-2.50054E-19 2.49841E-18
 -1       111 9.52442E-05-2.85733E-05-2.85733E-05 6.11859E-11-1.23438E-19 3.97063E-18
 -1       112 9.52423E-05-2.85727E-05-2.85727E-05 4.49762E-11-1.42124E-19 3.51343E-18
 -1       113 9.52409E-05-2.85723E-05-2.85723E-05 3.25634E-11 5.71623E-19 1.28994E-18
 -1       114 9.52397E-05-2.85719E-05-2.85719E-05 2.31737E-11-4.19078E-19 1.18357E-18
 -1       115 9.52389E-05-2.85717E-05-2.85717E-05 1.61796E-11 6.61601E-20 4.75336E-18
 -1       116 9.52383E-05-2.85715E-05-2.85715E-05 1.10675E-11 1.15079E-18-2.30711E-18
 -1       117 9.52378E-05-2.85713E-05-2.85713E-05 7.40579E-12-7.62805E-19-9.23372E-18
 -1       118 9.52375E-05-2.85712E-05-2.85713E-05 4.81616E-12 4.72232E-20-3.86078E-18
 -1       119 9.52373E-05-2.85712E-05-2.85712E-05 2.86105E-12-3.05921E-19-4.38362E-18
 -1       120 9.52372E-05-2.85711E-05-2.85712E-05 9.32292E-13-9.93243E-19-1.93477E-18
 -1       121 9.52371E-05-2.85711E-05-2.85711E-05-2.44578E-12 1.16182E-18-4.44990E-18
 -1       122 9.52371E-05-2.85711E-05-2.85711E-05-8.43888E-12 2.66486E-18-1.08644E-17
 -1       123 9.52371E-05-2.85712E-05-2.85711E-05-1.08809E-11-9.94203E-18 7.98578E-19
 -1       124 9.52371E-05-2.85712E-05-2.85711E-05-4.15577E-12-6.91026E-18 5.14856E-20
 -1       125 9.52371E-05-2.85711E-05-2.85712E-05 1.68847E-12-3.53663E-18-2.15968E-19
 -1       126 9.52371E-05-2.85710E-05-2.85712E-05 4.67769E-12-4.19443E-18-1.79246E-18
 -1       127 9.52371E-05-2.85709E-05-2.85712E-05 5.86787E-12-2.70095E-18-8.74165E-19
 -1       128 9.52370E-05-2.85707E-05-2.85713E-05 5.45921E-12-3.16710E-18 1.83840E-18
 -1       129 9.52370E-05-2.85706E-05-2.85713E-05 3.79500E-12-5.75400E-18-5.17378E-20
 -1       130 9.52370E-05-2.85706E-05-2.85713E-05 1.37432E-12-6.27633E-18-1.09773E-18
 -1       131 9.52370E-05-2.85706E-05-2.85713E-05-1.29895E-12-4.63197E-18 1.88394E-18
 -1       132 9.52370E-05-2.85706E-05-2.85713E-05-3.71313E-12-9.24607E-19-1.67754E-18
 -1       133 9.52370E-05-2.85707E-05-2.85713E-05-5.41736E-12-1.21712E-17-1.81187E-18
 -1       134 9.52371E-05-2.85709E-05-2.85712E-05-5.82693E-12-1.13686E-17 1.42894E-18
 -1       135 9.52371E-05-2.85710E-05-2.85712E-05-4.71449E-12-6.29982E-18 4.92428E-19
 -1       136 9.52371E-05-2.85711E-05-2.85712E-05-1.59534E-12 3.59195E-19 9.00489E-19
 -1       137 9.52371E-05-2.85712E-05-2.85711E-05 4.56292E-12 9.46758E-19-1.65334E-18
 -1       138 9.52371E-05-2.85712E-05-2.85711E-05 8.64348E-12-5.57188E-18-5.22323E-20
 -1       139 2.49663E-05-8.26962E-05 1.48328E-05-2.11111E-05 5.63743E-18 1.59126E-18
 -1       140 6.55066E-06-1.88629E-05-1.37081E-06-7.47476E-06 7.79948E-18 3.20814E-18
 -1       141 1.68850E-05 3.18724E-05-2.30883E-05 4.40475E-05 7.88249E-18 5.79032E-18
 -1       142 7.38293E-05 3.81549E-05-4.52462E-05 1.03227E-04 6.78431E-18 7.17606E-18
 -1       143 1.74084E-04-1.57037E-06-6.64732E-05 1.36595E-04 4.06893E-18 7.89435E-18
 -1       144 2.79510E-04-6.19347E-05-8.22405E-05 1.14987E-04 1.68538E-18 5.07627E-18
 -1       145 3.43037E-04-1.03015E-04-9.00974E-05 4.20860E-05 2.19699E-19 2.22727E-18
 -1       146 3.36142E-04-9.92312E-05-8.92090E-05-5.24569E-05 2.30194E-19-9.15643E-19
 -1       147 2.63510E-04-5.36778E-05-8.00301E-05-1.18611E-04 8.79538E-19-2.29207E-18
 -1       148 1.57348E-04 5.02105E-06-6.35319E-05-1.31951E-04 2.75222E-18-4.01875E-18
 -1       149 6.25216E-05 4.04945E-05-4.26550E-05-9.53396E-05 5.13387E-18-5.35494E-18
 -1       150 1.11340E-05 2.92207E-05-2.01915E-05-3.53813E-05 6.60940E-18-4.48250E-18
 -1       151 6.78139E-06-2.00655E-05-7.96458E-07 8.03940E-06 6.72417E-18-2.81024E-18
 -1       152 2.55006E-05-8.16970E-05 1.45779E-05 1.68661E-05 5.12328E-18-9.85576E-19
 -1       153 3.92691E-05-1.20819E-04 2.31298E-05-7.78439E-06 2.06337E-18-5.28601E-20
 -1       154 9.19374E-06-7.57220E-05 1.43939E-05-5.27960E-05-4.13013E-18-2.02917E-18
 -1       155-1.28887E-06-2.06963E-05-3.67504E-06-2.43315E-05-6.40696E-18-5.37400E-18
 -1       156 3.87373E-05 1.04651E-05-2.92931E-05 4.08539E-05-7.81049E-18-9.72309E-18
 -1       157 1.56079E-04-1.19215E-05-5.80637E-05 1.07521E-04-5.75898E-18-1.05498E-17
 -1       158 3.31374E-04-8.31812E-05-8.40926E-05 1.21929E-04-2.44793E-18-6.45693E-18
 -1       159 4.66526E-04-1.49600E-04-9.92008E-05 5.69988E-05 1.42937E-20 1.41073E-18
 -1       160 4.57618E-04-1.44833E-04-9.80728E-05-6.84832E-05-1.26160E-18 7.92188E-18
 -1       161 3.04018E-04-7.11563E-05-8.06719E-05-1.25478E-04-4.28535E-18 1.22871E-17
 -1       162 1.32341E-04-5.00792E-06-5.31923E-05-9.73133E-05-7.11423E-18 1.16315E-17
 -1       163 3.09548E-05 7.34964E-06-2.53077E-05-3.06929E-05-9.19878E-18 1.03033E-17
 -1       164-1.80353E-06-3.00151E-05 6.42380E-07 3.13806E-05-8.84302E-18 6.50013E-18
 -1       165 1.36311E-05-8.54954E-05 1.72364E-05 5.17693E-05-1.03994E-17 4.08609E-18
 -1       166 3.48625E-05-1.24772E-04 2.54296E-05 3.69139E-05-5.48409E-18 1.57792E-18
 -1       167 1.03142E-04-1.24405E-05-3.89229E-05-6.32131E-06-4.44163E-19 2.06178E-18
 -1       168 7.44670E-05 2.24557E-06-3.29825E-05-6.87266E-06-8.21662E-19 8.45068E-19
 -1       169 5.89983E-05 8.62518E-06-2.90931E-05-1.33711E-05-1.03296E-18 1.11995E-19
 -1       170 5.85886E-05 6.86706E-06-2.81397E-05-2.03271E-05-1.11880E-18-2.47414E-19
 -1       171 6.84901E-05 4.68200E-07-2.96238E-05-2.32030E-05-1.10501E-18-3.67933E-19
 -1       172 8.17090E-05-6.37614E-06-3.23484E-05-2.08790E-05-9.96309E-19-3.83402E-19
 -1       173 9.24234E-05-1.07733E-05-3.50535E-05-1.47928E-05-7.37627E-19-3.71411E-19
 -1       174 9.83649E-05-1.22465E-05-3.69754E-05-7.27278E-06-5.39060E-19-4.28175E-19
 -1       175 9.98679E-05-1.16981E-05-3.78649E-05 2.40383E-08-3.49686E-19-5.11820E-19
 -1       176 9.82822E-05-1.02495E-05-3.78129E-05 6.35379E-06-1.45801E-19-5.77782E-19
 -1       177 9.50561E-05-8.72996E-06-3.70861E-05 1.15337E-05 1.73973E-20-5.76485E-19
 -1       178 9.11578E-05-7.52778E-06-3.59402E-05 1.59407E-05 2.76828E-19-4.56802E-19
 -1       179 8.75475E-05-6.94178E-06-3.46705E-05 1.97815E-05 4.79043E-19-2.39102E-19
 -1       180 8.54060E-05-7.43647E-06-3.35978E-05 2.34066E-05 7.14204E-19 2.68417E-19
 -1       181 8.75893E-05-1.10337E-05-3.30526E-05 2.67190E-05 7.82857E-19 1.30176E-18
 -1       182 9.49566E-05-2.24392E-05-3.22833E-05 2.22245E-05 6.28489E-19 2.58816E-18
 -1       183 1.28773E-04-3.33529E-05-4.08016E-05 5.78420E-06-1.36240E-19 3.01881E-18
 -1       184 1.31483E-04-3.55443E-05-4.10343E-05 2.16682E-05 2.96647E-19 2.98993E-18
 -1       185 1.42186E-04-4.16045E-05-4.26578E-05 3.11365E-05 1.01827E-18 3.09595E-18
 -1       186 1.58921E-04-5.51778E-05-4.37672E-05 2.54766E-05 1.64203E-18 3.26053E-18
 -1       187 2.02607E-04-6.97646E-05-5.74877E-05-4.10352E-05-8.05317E-19 6.83700E-18
 -1       188 2.00682E-04-5.42066E-05-6.43774E-05-4.40633E-05-2.43247E-18 5.73664E-18
 -1       189 2.00738E-04-4.08631E-05-6.96067E-05-3.25884E-06-2.33739E-18 3.84671E-18
 -1       190 2.03023E-04-5.35970E-05-6.51487E-05 4.24946E-05-2.38884E-18 1.66664E-18
 -1       191 2.01473E-04-6.84371E-05-5.71596E-05 3.94597E-05-1.06911E-18 1.49768E-19
 -1       192 1.96827E-04-6.90171E-05-5.34325E-05 5.71567E-06 6.86467E-19-3.32302E-19
 -1       193 1.78844E-04-5.70673E-05-5.09166E-05-1.95548E-05 7.97852E-19 2.99969E-19
 -1       194 1.56000E-04-4.62871E-05-4.66999E-05-2.43421E-05 8.03345E-19 1.02390E-18
 -1       195 1.34840E-04-3.90038E-05-4.12119E-05-1.88272E-05 6.25438E-19 1.80691E-18
 -1       196 1.19414E-04-3.46698E-05-3.64832E-05-1.21399E-05-3.04244E-19 2.47576E-18
 -1       197 1.09278E-04-3.20590E-05-3.31807E-05-7.19850E-06-2.57961E-19 3.25320E-18
 -1       198 1.03057E-04-3.05036E-05-3.11268E-05-4.07483E-06-2.27372E-19 2.38075E-18
 -1       199 9.94120E-05-2.95970E-05-2.99284E-05-2.23110E-06-7.20842E-19 1.62296E-18
 -1       200 9.73551E-05-2.90851E-05-2.92577E-05-1.18224E-06-3.25484E-19 2.81280E-19
 -1       201 9.62369E-05-2.88073E-05-2.88957E-05-6.00826E-07 5.59174E-22 7.45895E-19
 -1       202 9.56563E-05-2.86643E-05-2.87083E-05-2.86657E-07 5.59984E-19 2.44348E-18
 -1       203 9.53741E-05-2.85964E-05-2.86171E-05-1.22422E-07-3.41503E-19 9.76419E-19
 -1       204 9.52511E-05-2.85682E-05-2.85771E-05-4.07721E-08-1.73250E-18 1.75132E-19
 -1       205 9.52086E-05-2.85602E-05-2.85627E-05-2.25349E-09 9.81559E-19 2.46825E-19
 -1       206 9.52055E-05-2.85612E-05-2.85613E-05 1.12835E-08 4.37230E-19 1.82611E-18
 -1       207 9.52164E-05-2.85654E-05-2.85644E-05 1.40834E-08 1.30541E-18 3.02316E-18
 -1       208 9.52304E-05-2.85698E-05-2.85686E-05 1.22310E-08 3.74283E-19 3.41787E-18
 -1       209 9.52425E-05-2.85734E-05-2.85723E-05 8.85185E-09-3.32857E-19 1.99402E-18
 -1       210 9.52512E-05-2.85759E-05-2.85751E-05 5.43851E-09-2.27404E-18 7.54415E-19
 -1       211 9.52565E-05-2.85774E-05-2.85767E-05 2.60364E-09-3.39725E-19 5.41983E-19
 -1       212 9.52588E-05-2.85779E-05-2.85775E-05 5.11632E-10 6.10706E-19-1.37352E-19
 -1       213 9.52590E-05-2.85779E-05-2.85776E-05-8.82777E-10 1.77048E-19 7.09583E-19
 -1       214 9.52577E-05-2.85774E-05-2.85773E-05-1.70660E-09 2.49796E-19 6.39390E-19
 -1       215 9.52556E-05-2.85767E-05-2.85767E-05-2.10366E-09-3.21210E-19-4.85545E-19
 -1       216 9.52531E-05-2.85759E-05-2.85759E-05-2.20462E-09-7.60708E-19 7.14936E-19
 -1       217 9.52506E-05-2.85751E-05-2.85752E-05-2.11590E-09 1.18902E-19 4.40629E-19
 -1       218 9.52481E-05-2.85744E-05-2.85745E-05-1.91807E-09-1.03884E-18 1.38311E-20
 -1       219 9.52458E-05-2.85737E-05-2.85738E-05-1.65538E-09 1.31627E-18-5.06871E-19
 -1       220 9.52439E-05-2.85731E-05-2.85732E-05-1.39082E-09 1.92157E-18-1.04644E-18
 -1       221 9.52423E-05-2.85727E-05-2.85727E-05-1.13839E-09 1.86067E-18 2.33305E-18
 -1       222 9.52410E-05-2.85723E-05-2.85723E-05-9.10341E-10 4.66919E-19 4.27122E-18
 -1       223 9.52400E-05-2.85720E-05-2.85720E-05-7.12610E-10-1.36154E-18 4.10978E-18
 -1       224 9.52391E-05-2.85717E-05-2.85718E-05-5.46490E-10-2.83658E-18 2.47433E-18
 -1       225 9.52385E-05-2.85715E-05-2.85716E-05-4.10321E-10 6.49897E-19 9.95481E-19
 -1       226 9.52380E-05-2.85714E-05-2.85714E-05-3.00701E-10 1.89880E-18 4.32746E-18
 -1       227 9.52377E-05-2.85713E-05-2.85713E-05-2.13273E-10 2.28403E-18 6.07606E-18
 -1       228 9.52374E-05-2.85712E-05-2.85712E-05-1.43257E-10-4.73826E-18 3.08240E-18
 -1       229 9.52373E-05-2.85712E-05-2.85712E-05-8.57639E-11-5.09595E-18 1.87280E-18
 -1       230 9.52372E-05-2.85711E-05-2.85712E-05-3.68967E-11 6.17214E-19-1.03615E-18
 -1       231 9.52371E-05-2.85711E-05-2.85711E-05 2.70018E-12 2.73869E-18-5.31448E-19
 -1       232 9.52371E-05-2.85711E-05-2.85711E-05 1.47281E-11 4.53579E-18 1.59905E-18
 -1       233 8.69672E-05-2.46521E-05-2.69076E-05 1.04223E-05 6.82642E-19 2.33638E-18
 -1       234 7.94778E-05-2.32322E-05-2.40750E-05 5.65984E-06 5.98118E-19 1.94614E-18
 -1       235 7.48360E-05-2.21561E-05-2.25262E-05 3.52086E-06 2.85500E-19 1.45689E-18
 -1       236 7.18403E-05-2.13343E-05-2.16159E-05 2.15478E-06 1.82433E-19 1.28626E-18
 -1       237 7.01236E-05-2.07993E-05-2.11233E-05 9.58189E-07 2.45736E-19 1.00611E-18
 -1       238 6.96092E-05-2.06239E-05-2.09848E-05-2.65222E-07 3.43841E-19 6.05105E-19
 -1       239 7.02536E-05-2.08276E-05-2.11764E-05-1.47521E-06 3.12299E-19 1.81270E-19
 -1       240 7.19428E-05-2.13842E-05-2.16627E-05-2.53053E-06 1.42839E-19 2.12751E-20
 -1       241 7.44510E-05-2.22153E-05-2.23820E-05-3.28749E-06 1.31154E-19-8.70856E-21
 -1       242 7.74669E-05-2.32072E-05-2.32502E-05-3.66548E-06 7.17110E-20 3.20041E-19
 -1       243 8.06568E-05-2.42398E-05-2.41760E-05-3.67044E-06 2.11674E-19 2.37555E-19
 -1       244 8.37298E-05-2.52136E-05-2.50773E-05-3.37936E-06 2.12796E-19 8.05293E-20
 -1       245 8.64796E-05-2.60640E-05-2.58930E-05-2.90389E-06-1.32526E-19-7.41816E-20
 -1       246 8.87950E-05-2.67618E-05-2.65876E-05-2.35410E-06-4.25738E-19 4.27254E-19
 -1       247 9.06472E-05-2.73058E-05-2.71490E-05-1.81526E-06-2.04384E-19 5.78844E-19
 -1       248 9.20652E-05-2.77122E-05-2.75829E-05-1.34005E-06 1.67675E-19 5.87406E-19
 -1       249 9.31102E-05-2.80050E-05-2.79051E-05-9.51750E-07-3.57027E-19 5.79764E-19
 -1       250 9.38548E-05-2.82094E-05-2.81363E-05-6.52682E-07-4.58557E-19 1.25795E-18
 -1       251 9.43695E-05-2.83482E-05-2.82969E-05-4.33088E-07-1.93868E-19 1.59995E-18
 -1       252 9.47152E-05-2.84399E-05-2.84053E-05-2.78161E-07 4.06925E-19 1.29988E-18
 -1       253 9.49411E-05-2.84990E-05-2.84764E-05-1.72559E-07-8.57436E-19 1.59910E-18
 -1       254 9.50844E-05-2.85359E-05-2.85217E-05-1.02762E-07 7.24589E-19 1.69063E-18
 -1       255 9.51723E-05-2.85582E-05-2.85495E-05-5.79454E-08 5.43705E-19 1.43240E-18
 -1       256 9.52240E-05-2.85710E-05-2.85660E-05-2.99935E-08 3.63734E-20 9.27182E-19
 -1       257 9.52524E-05-2.85779E-05-2.85751E-05-1.31110E-08 7.51261E-19 1.14749E-18
 -1       258 9.52665E-05-2.85811E-05-2.85796E-05-3.31404E-09 8.96236E-21 1.02773E-18
 -1       259 9.52719E-05-2.85821E-05-2.85814E-05 2.05376E-09 1.24445E-18 1.12407E-18
 -1       260 9.52722E-05-2.85818E-05-2.85816E-05 4.71959E-09 2.58496E-20 6.07093E-19
 -1       261 9.52698E-05-2.85809E-05-2.85810E-05 5.78285E-09 4.36524E-19 7.01150E-19
 -1       262 9.52661E-05-2.85797E-05-2.85799E-05 5.93053E-09 1.35080E-18 2.23974E-20
 -1       263 9.52620E-05-2.85784E-05-2.85787E-05 5.58459E-09 7.53235E-19-1.30197E-18
 -1       264 9.52579E-05-2.85772E-05-2.85774E-05 4.99959E-09-7.42087E-19-2.16867E-18
 -1       265 9.52541E-05-2.85761E-05-2.85763E-05 4.32582E-09-9.88614E-19-1.63069E-18
 -1       266 9.52508E-05-2.85751E-05-2.85753E-05 3.64924E-09-1.85078E-19-7.55164E-19
 -1       267 9.52479E-05-2.85742E-05-2.85744E-05 3.01649E-09-6.44894E-19 7.26548E-19
 -1       268 9.52455E-05-2.85735E-05-2.85737E-05 2.45036E-09-1.61074E-18 1.00052E-18
 -1       269 9.52435E-05-2.85730E-05-2.85731E-05 1.95934E-09-3.84475E-19 3.36241E-19
 -1       270 9.52420E-05-2.85725E-05-2.85726E-05 1.54354E-09-1.00040E-19-2.91140E-19
 -1       271 9.52407E-05-2.85721E-05-2.85722E-05 1.19832E-09 6.94825E-19 1.45944E-18
 -1       272 9.52397E-05-2.85719E-05-2.85719E-05 9.16550E-10-3.42690E-20 2.34200E-18
 -1       273 9.52389E-05-2.85716E-05-2.85717E-05 6.90006E-10 2.26373E-19 6.29223E-19
 -1       274 9.52384E-05-2.85715E-05-2.85715E-05 5.10150E-10 3.45783E-18-5.76485E-20
 -1       275 9.52379E-05-2.85714E-05-2.85714E-05 3.68600E-10 1.10759E-18-4.41440E-19
 -1       276 9.52376E-05-2.85713E-05-2.85713E-05 2.57362E-10-7.02315E-19-3.31286E-18
 -1       277 9.52374E-05-2.85712E-05-2.85712E-05 1.68909E-10-1.18998E-18-2.55260E-18
 -1       278 9.52373E-05-2.85712E-05-2.85712E-05 9.66070E-11-4.40432E-20-1.83210E-18
 -1       279 9.52372E-05-2.85711E-05-2.85712E-05 3.56423E-11 1.85449E-18-4.53581E-18
 -1       280 9.52371E-05-2.85711E-05-2.85711E-05-8.53456E-12 1.92909E-19-4.32251E-18
 -1       281 9.52371E-05-2.85711E-05-2.85712E-05 1.60386E-11-2.15072E-18 5.84796E-19
 -1       282 9.52371E-05-2.85711E-05-2.85712E-05 7.14992E-11-3.67275E-18 1.94433E-18
 -1       283 9.52371E-05-2.85710E-05-2.85712E-05 1.18128E-10-3.49585E-18-3.74893E-19
 -1       284 9.52371E-05-2.85709E-05-2.85712E-05 1.42439E-10-1.95771E-18 2.18763E-18
 -1       285 9.52370E-05-2.85708E-05-2.85713E-05 1.38990E-10-1.72759E-18-1.41981E-19
 -1       286 9.52370E-05-2.85707E-05-2.85713E-05 1.09468E-10-1.48097E-18-2.13448E-18
 -1       287 9.52370E-05-2.85706E-05-2.85713E-05 6.01373E-11-2.87007E-18 5.61540E-19
 -1       288 9.52370E-05-2.85706E-05-2.85713E-05 2.58568E-13-1.50254E-18 7.05819E-19
 -1       289 9.52370E-05-2.85706E-05-2.85713E-05-5.95832E-11-5.12325E-18-1.41542E-19
 -1       290 9.52370E-05-2.85707E-05-2.85713E-05-1.08863E-10-3.96622E-18-5.08772E-18
 -1       291 9.52370E-05-2.85708E-05-2.85713E-05-1.38176E-10-1.89197E-18 2.30103E-18
 -1       292 9.52371E-05-2.85709E-05-2.85712E-05-1.42264E-10-7.14801E-20 1.69432E-18
 -1       293 9.52371E-05-2.85710E-05-2.85712E-05-1.18543E-10-7.27569E-19 2.31382E-18
 -1       294 9.52371E-05-2.85711E-05-2.85712E-05-7.08177E-11-2.98668E-18 5.71906E-19
 -1       295 9.52371E-05-2.85711E-05-2.85712E-05-1.71023E-11 3.08735E-19-2.08812E-18
 -1       296 1.44728E-05-5.12692E-05 1.25532E-05 2.18702E-05 1.32709E-18 2.60113E-18
 -1       297 3.10431E-05-4.02017E-05 1.52565E-06 3.43337E-05 2.56609E-18 2.21076E-18
 -1       298 6.51269E-05-3.20789E-05-1.52295E-05 5.07723E-05 3.11899E-18 2.50743E-18
 -1       299 1.02566E-04-2.30694E-05-3.39815E-05 6.03852E-05 3.52408E-18 3.00676E-18
 -1       300 1.53931E-04-2.83626E-05-5.25379E-05 5.81699E-05 2.56863E-18 1.99836E-18
 -1       301 1.97580E-04-3.12123E-05-6.87839E-05 4.97354E-05 2.49942E-18 1.65108E-18
 -1       302 2.32030E-04-3.82419E-05-7.95242E-05 3.05817E-05 1.89968E-18 1.40703E-18
 -1       303 2.33774E-04-3.57228E-05-8.17305E-05-4.31402E-07 1.56807E-18 4.16158E-19
 -1       304 2.27769E-04-3.76599E-05-7.82730E-05-3.14340E-05 1.30665E-18-8.05317E-19
 -1       305 1.90045E-04-3.04092E-05-6.64740E-05-4.73629E-05 1.66414E-18-9.12466E-19
 -1       306 1.44079E-04-2.33930E-05-5.07192E-05-6.14864E-05 2.08857E-18-6.84614E-19
 -1       307 9.45024E-05-2.02530E-05-3.20063E-05-5.93187E-05 2.14935E-18-1.54393E-18
 -1       308 5.18360E-05-2.28822E-05-1.37684E-05-4.71948E-05 2.20398E-18-1.74743E-18
 -1       309 2.56088E-05-3.41987E-05 1.32648E-06-3.34207E-05 1.82387E-18-1.43106E-18
 -1       310 1.12988E-05-4.52561E-05 1.14140E-05-2.24525E-05 9.87323E-19-1.56765E-18
 -1       311 6.79960E-06-4.73501E-05 1.39482E-05-1.20628E-05-3.01094E-20-1.56341E-18
 -1       312 1.63884E-05-4.99913E-05 1.00857E-05-8.16921E-07-8.13363E-19-1.90826E-18
 -1       313 4.46120E-05-4.86177E-05-2.74628E-06 1.48109E-05-1.33937E-18-2.90390E-18
 -1       314 1.00161E-04-5.55808E-05-2.24347E-05 2.66903E-05-1.17272E-18-3.68057E-18
 -1       315 1.73708E-04-6.91100E-05-4.53633E-05 1.92062E-05-2.02271E-18-1.72159E-18
 -1       316 2.40200E-04-7.48577E-05-6.65040E-05 6.97502E-07-2.55130E-18 7.44118E-19
 -1       317 2.76450E-04-6.78458E-05-8.04533E-05-1.02565E-05-3.23672E-18 2.88118E-18
 -1       318 3.06646E-04-6.97702E-05-8.78049E-05 1.20347E-06-2.14511E-18 3.73733E-18
 -1       319 2.74214E-04-6.89342E-05-7.94001E-05 1.08848E-05-3.31020E-18 4.81072E-18
 -1       320 2.28431E-04-7.62982E-05-6.27028E-05 4.96779E-06-2.74849E-18 4.67647E-18
 -1       321 1.58338E-04-6.41551E-05-4.16177E-05-2.37973E-05-3.74092E-18 5.41889E-18
 -1       322 9.38608E-05-5.57228E-05-1.95011E-05-2.57377E-05-3.23355E-18 4.85435E-18
 -1       323 4.05857E-05-4.93706E-05-6.64908E-08-1.51776E-05-3.71699E-18 2.20951E-18
 -1       324 1.58709E-05-4.70980E-05 1.03860E-05-5.03379E-06-1.62895E-18 3.40465E-18
 -1       325 8.26655E-06-5.31925E-05 1.59033E-05 1.10188E-05-2.59483E-19 3.12195E-18
 -1       326 1.90009E-04-7.31390E-05-4.91796E-05-2.61349E-06 1.65399E-18 4.94635E-18
 -1       327 5.78565E-05 8.57045E-06-2.83662E-05-5.89554E-06-9.74319E-19 2.33126E-19
 -1       328 8.55497E-05-7.07376E-06-3.35146E-05 5.94889E-06-4.30993E-19 1.03987E-18
 -1       329 6.09746E-05 2.47150E-06-2.71102E-05-2.88308E-05-1.56129E-18-2.50563E-19
 -1       330 7.93763E-05-9.46743E-06-2.99658E-05-2.80142E-05-1.51025E-18-7.30773E-20
 -1       331 9.52120E-05-1.81247E-05-3.30793E-05-2.03996E-05-1.15497E-18 1.15114E-19
 -1       332 1.04318E-04-2.16770E-05-3.54880E-05-1.06471E-05-8.69114E-19-5.25425E-20
 -1       333 1.07117E-04-2.13826E-05-3.68305E-05-1.83003E-06-5.96989E-19-9.42986E-20
 -1       334 1.05657E-04-1.92149E-05-3.71359E-05 5.06185E-06-3.10914E-19-1.67593E-19
 -1       335 1.02045E-04-1.67428E-05-3.66417E-05 1.01252E-05-4.57811E-20-2.10977E-19
 -1       336 9.75747E-05-1.47357E-05-3.55815E-05 1.40429E-05 2.36497E-19-5.82534E-20
 -1       337 9.32795E-05-1.37162E-05-3.41778E-05 1.71221E-05 5.15883E-19 2.70720E-20
 -1       338 9.00589E-05-1.41994E-05-3.25971E-05 1.94114E-05 7.33994E-19 2.42615E-19
 -1       339 8.89045E-05-1.72229E-05-3.08289E-05 1.98531E-05 8.05191E-19 9.39823E-19
 -1       340 8.89000E-05-2.11825E-05-2.91157E-05 1.65673E-05 7.21116E-19 1.51455E-18
 -1       341 8.49149E-05-2.31606E-05-2.64394E-05 1.02614E-05 7.03554E-19 1.44616E-18
 -1       342 8.76711E-05-1.53990E-05-3.05558E-05 2.88673E-05 3.55172E-19 8.36657E-19
 -1       343 8.64172E-05-2.67891E-05-2.48911E-05 3.90242E-05 9.70859E-19 2.56916E-19
 -1       344 1.39443E-04-5.94232E-05-3.40315E-05-2.93176E-05 8.19398E-19 8.98219E-19
 -1       345 1.20246E-04-3.79122E-05-3.47120E-05-3.93098E-05 7.50842E-19 4.46903E-19
 -1       346 1.10686E-04-2.82535E-05-3.51121E-05-3.39308E-05 1.26096E-18 8.57179E-19
 -1       347 1.05770E-04-2.65064E-05-3.39034E-05-2.40245E-05 8.17367E-19 1.85382E-18
 -1       348 1.02378E-04-2.69404E-05-3.22818E-05-1.53795E-05 5.13712E-19 2.34599E-18
 -1       349 9.98301E-05-2.75621E-05-3.09310E-05-9.28217E-06-9.62511E-19 2.70375E-18
 -1       350 9.80191E-05-2.79866E-05-2.99821E-05-5.37795E-06-1.36869E-18 1.62724E-18
 -1       351 9.68185E-05-2.82310E-05-2.93728E-05-3.00907E-06-1.06503E-18 1.22617E-18
 -1       352 9.60729E-05-2.83662E-05-2.90034E-05-1.62192E-06-2.78909E-20 2.41068E-18
 -1       353 9.56377E-05-2.84430E-05-2.87895E-05-8.33090E-07 9.26256E-19 3.63716E-18
 -1       354 9.54004E-05-2.84894E-05-2.86715E-05-3.98070E-07-1.00527E-18 2.21412E-18
 -1       355 9.52819E-05-2.85191E-05-2.86102E-05-1.67302E-07-1.31116E-18 1.77209E-18
 -1       356 9.52302E-05-2.85403E-05-2.85801E-05-4.80762E-08 2.54360E-19 3.32214E-18
 -1       357 9.52164E-05-2.85539E-05-2.85690E-05 2.08891E-09 8.50884E-19 1.68299E-18
 -1       358 9.52186E-05-2.85633E-05-2.85663E-05 2.04311E-08 9.67500E-19 1.31743E-18
 -1       359 9.52268E-05-2.85695E-05-2.85673E-05 2.32685E-08 6.48478E-19 3.36511E-19
 -1       360 9.52358E-05-2.85735E-05-2.85695E-05 1.94730E-08-1.23545E-18 4.62407E-19
 -1       361 9.52433E-05-2.85758E-05-2.85718E-05 1.36441E-08-1.30874E-18 4.10828E-20
 -1       362 9.52485E-05-2.85769E-05-2.85736E-05 7.97501E-09-1.48689E-18 1.64948E-18
 -1       363 9.52515E-05-2.85772E-05-2.85748E-05 3.35217E-09 7.85012E-19 2.28611E-18
 -1       364 9.52528E-05-2.85770E-05-2.85754E-05-9.55767E-12 4.52413E-19 1.99736E-18
 -1       365 9.52527E-05-2.85765E-05-2.85755E-05-2.21000E-09-7.01189E-19 1.00254E-18
 -1       366 9.52517E-05-2.85758E-05-2.85754E-05-3.46976E-09-4.74649E-19 4.59414E-19
 -1       367 9.52502E-05-2.85751E-05-2.85750E-05-4.03095E-09 5.46247E-19 2.58210E-19
 -1       368 9.52484E-05-2.85744E-05-2.85746E-05-4.11138E-09 2.97303E-20 1.06185E-18
 -1       369 9.52466E-05-2.85738E-05-2.85741E-05-3.88751E-09-1.52455E-18 1.55499E-18
 -1       370 9.52448E-05-2.85732E-05-2.85735E-05-3.46955E-09-8.22755E-19 1.30825E-18
 -1       371 9.52433E-05-2.85728E-05-2.85731E-05-2.99439E-09-8.45548E-20-1.55284E-18
 -1       372 9.52420E-05-2.85724E-05-2.85727E-05-2.50779E-09 2.20753E-18-2.65020E-18
 -1       373 9.52409E-05-2.85721E-05-2.85723E-05-2.04777E-09 2.35581E-18-1.82723E-18
 -1       374 9.52399E-05-2.85718E-05-2.85721E-05-1.63503E-09 3.00806E-19-3.85281E-19
 -1       375 9.52392E-05-2.85716E-05-2.85718E-05-1.27859E-09-2.18520E-18 3.50186E-20
 -1       376 9.52386E-05-2.85715E-05-2.85716E-05-9.79608E-10-6.14943E-19 4.74914E-19
 -1       377 9.52382E-05-2.85714E-05-2.85715E-05-7.34380E-10 3.83296E-18 1.59116E-18
 -1       378 9.52378E-05-2.85713E-05-2.85714E-05-5.36308E-10 4.23849E-18 2.92775E-18
 -1       379 9.52376E-05-2.85712E-05-2.85713E-05-3.77300E-10-4.60389E-18 3.73226E-19
 -1       380 9.52374E-05-2.85712E-05-2.85712E-05-2.48999E-10-5.03104E-18 3.58699E-18
 -1       381 9.52373E-05-2.85711E-05-2.85712E-05-1.44234E-10-2.80607E-18 4.80534E-18
 -1       382 9.52372E-05-2.85711E-05-2.85712E-05-5.99716E-11-8.62667E-20 5.10992E-18
 -1       383 9.52372E-05-2.85711E-05-2.85712E-05-3.74799E-11 1.63285E-18 3.02183E-18
 -1       384 8.16229E-05-2.30139E-05-2.50847E-05 6.03417E-06 4.13210E-19 1.06373E-18
 -1       385 7.94419E-05-2.25131E-05-2.43765E-05 3.48989E-06 4.93785E-19 8.45457E-19
 -1       386 7.81387E-05-2.20892E-05-2.40045E-05 1.05489E-06 6.75302E-19 6.06892E-19
 -1       387 7.78190E-05-2.20185E-05-2.39004E-05-1.35630E-06 6.26534E-19 5.65775E-19
 -1       388 7.84593E-05-2.23917E-05-2.40174E-05-3.56054E-06 4.07865E-19 3.93600E-19
 -1       389 7.99091E-05-2.31614E-05-2.43121E-05-5.29442E-06-9.99805E-20 2.27206E-20
 -1       390 8.19105E-05-2.41781E-05-2.47378E-05-6.36149E-06 6.17308E-20 1.17242E-19
 -1       391 8.41638E-05-2.52572E-05-2.52448E-05-6.71162E-06 3.51887E-19-1.17401E-19
 -1       392 8.64001E-05-2.62429E-05-2.57841E-05-6.44063E-06 3.64707E-19-1.82798E-19
 -1       393 8.84291E-05-2.70439E-05-2.63127E-05-5.73502E-06 5.64340E-20-2.32011E-19
 -1       394 9.01493E-05-2.76343E-05-2.67981E-05-4.80233E-06-8.49911E-19 1.32371E-19
 -1       395 9.15335E-05-2.80342E-05-2.72202E-05-3.81903E-06-1.80568E-19-6.79405E-20
 -1       396 9.26025E-05-2.82851E-05-2.75704E-05-2.90622E-06-1.76614E-19-3.82988E-19
 -1       397 9.34018E-05-2.84319E-05-2.78492E-05-2.12887E-06-2.84331E-19-7.67661E-20
 -1       398 9.39841E-05-2.85120E-05-2.80635E-05-1.50794E-06-6.08655E-19-3.51510E-19
 -1       399 9.43991E-05-2.85526E-05-2.82230E-05-1.03621E-06-7.39470E-19 2.80633E-19
 -1       400 9.46894E-05-2.85715E-05-2.83385E-05-6.92127E-07-2.98662E-19 1.63648E-18
 -1       401 9.48889E-05-2.85794E-05-2.84199E-05-4.49556E-07-5.91297E-19 2.48181E-18
 -1       402 9.50237E-05-2.85820E-05-2.84761E-05-2.83476E-07 6.04308E-19 1.62643E-18
 -1       403 9.51131E-05-2.85824E-05-2.85139E-05-1.72687E-07 2.70924E-19 1.78432E-18
 -1       404 9.51712E-05-2.85819E-05-2.85387E-05-1.00552E-07 4.53371E-19 1.52523E-18
 -1       405 9.52079E-05-2.85810E-05-2.85547E-05-5.47047E-08-2.51648E-19 1.86575E-18
 -1       406 9.52303E-05-2.85801E-05-2.85645E-05-2.63252E-08 2.19856E-21 2.59808E-18
 -1       407 9.52432E-05-2.85791E-05-2.85704E-05-9.31678E-09 1.01890E-18 2.08577E-18
 -1       408 9.52500E-05-2.85782E-05-2.85737E-05 4.28462E-10 7.16056E-19 2.66566E-18
 -1       409 9.52529E-05-2.85773E-05-2.85753E-05 5.62298E-09-7.97013E-20 1.34021E-18
 -1       410 9.52534E-05-2.85764E-05-2.85759E-05 8.02817E-09 1.39014E-18 1.15806E-18
 -1       411 9.52526E-05-2.85755E-05-2.85759E-05 8.77195E-09 2.07157E-18 1.00556E-18
 -1       412 9.52510E-05-2.85748E-05-2.85755E-05 8.56748E-09 5.59430E-19 1.50283E-18
 -1       413 9.52492E-05-2.85741E-05-2.85750E-05 7.85986E-09-1.26577E-18 1.48474E-18
 -1       414 9.52473E-05-2.85735E-05-2.85745E-05 6.92250E-09-9.29228E-19 2.01426E-19
 -1       415 9.52455E-05-2.85730E-05-2.85739E-05 5.91953E-09-1.14580E-18 1.28017E-18
 -1       416 9.52439E-05-2.85726E-05-2.85734E-05 4.94586E-09-1.51011E-18-3.11161E-20
 -1       417 9.52425E-05-2.85722E-05-2.85730E-05 4.05276E-09 2.85841E-19-7.16090E-19
 -1       418 9.52413E-05-2.85720E-05-2.85726E-05 3.26425E-09 1.38335E-18-2.18370E-18
 -1       419 9.52403E-05-2.85717E-05-2.85722E-05 2.58751E-09-1.11006E-18-2.39636E-18
 -1       420 9.52395E-05-2.85716E-05-2.85720E-05 2.01968E-09 9.58146E-20-2.11480E-18
 -1       421 9.52389E-05-2.85714E-05-2.85718E-05 1.55213E-09 8.68842E-20-1.98524E-18
 -1       422 9.52384E-05-2.85713E-05-2.85716E-05 1.17322E-09 1.87656E-18-2.70063E-18
 -1       423 9.52380E-05-2.85713E-05-2.85715E-05 8.70032E-10 2.29307E-18-1.60950E-18
 -1       424 9.52377E-05-2.85712E-05-2.85714E-05 6.29384E-10 7.22380E-19 6.79001E-19
 -1       425 9.52375E-05-2.85712E-05-2.85713E-05 4.38774E-10-7.56737E-19 1.50551E-18
 -1       426 9.52374E-05-2.85711E-05-2.85712E-05 2.86831E-10-1.08862E-18 7.89929E-19
 -1       427 9.52373E-05-2.85711E-05-2.85712E-05 1.65816E-10 2.60082E-18 4.27366E-19
 -1       428 9.52372E-05-2.85711E-05-2.85712E-05 7.84058E-11 2.00121E-18 2.95245E-19
 -1       429 9.52371E-05-2.85709E-05-2.85712E-05 2.51615E-10 1.22981E-18-1.21464E-19
 -1       430 9.52371E-05-2.85710E-05-2.85712E-05 2.00658E-10 6.53807E-19 3.26767E-19
 -1       431 9.52370E-05-2.85708E-05-2.85713E-05 2.61852E-10-2.38528E-18-1.72057E-18
 -1       432 9.52370E-05-2.85707E-05-2.85713E-05 2.26738E-10-3.24000E-18 1.00870E-18
 -1       433 9.52369E-05-2.85706E-05-2.85713E-05 1.53124E-10-1.73998E-18-3.21463E-18
 -1       434 9.52369E-05-2.85705E-05-2.85713E-05 5.40275E-11-2.93427E-18-6.62427E-19
 -1       435 9.52369E-05-2.85705E-05-2.85713E-05-5.38939E-11-3.27823E-18 1.40234E-18
 -1       436 9.52369E-05-2.85706E-05-2.85713E-05-1.52787E-10-9.83348E-19-2.14956E-18
 -1       437 9.52370E-05-2.85707E-05-2.85713E-05-2.25154E-10-7.77766E-19-7.74859E-19
 -1       438 9.52370E-05-2.85708E-05-2.85713E-05-2.60889E-10-1.15365E-18 3.20291E-18
 -1       439 9.52371E-05-2.85709E-05-2.85712E-05-2.51406E-10-3.60663E-19 1.94380E-18
 -1       440 9.52371E-05-2.85710E-05-2.85712E-05-2.00309E-10 7.03595E-20 1.49794E-19
 -1       441 8.28982E-05-2.31954E-05-2.55451E-05 7.88787E-06 6.56996E-19 1.37453E-18
 -1       442 6.44959E-05-3.93295E-05-1.08721E-05 5.71048E-05 8.83879E-19 1.83523E-18
 -1       443 1.44647E-04-4.94540E-05-4.07679E-05 4.07449E-05 1.12936E-18-2.70839E-19
 -1       444 2.92966E-05-2.59321E-05-1.34186E-06 4.56362E-05 3.38072E-19 2.57593E-18
 -1       445 1.99564E-04-7.70540E-05-5.22695E-05 1.84793E-05-1.74960E-18 1.20692E-18
 -1       446 5.04189E-05 1.08974E-05-2.61748E-05-2.02567E-05-1.36656E-18-1.53098E-19
 -1       447 1.69194E-04-3.88607E-05-5.57617E-05 1.82014E-05 1.10914E-18-9.05372E-19
 -1       448 1.79976E-04-2.31379E-05-6.70320E-05 8.23579E-06 1.35102E-18-4.06999E-19
 -1       449 1.77173E-04-1.11781E-05-7.11432E-05 2.04049E-06 1.68687E-18-1.86135E-19
 -1       450 1.75033E-04-1.16044E-05-7.02024E-05 1.19082E-06 1.32571E-18 4.28016E-19
 -1       451 1.74903E-04-2.24773E-05-6.53497E-05-3.32408E-06 1.10877E-18 5.01867E-19
 -1       452 1.64774E-04-3.83791E-05-5.41587E-05-2.26934E-05 9.98874E-19 4.47869E-19
 -1       453 1.38555E-04-4.44481E-05-4.02993E-05-4.18585E-05 9.11566E-19 4.63115E-19
 -1       454 9.75690E-05-3.97401E-05-2.48130E-05-5.61369E-05 1.96300E-19-4.01335E-19
 -1       455 5.49601E-05-2.89697E-05-1.12324E-05-5.65197E-05-7.34801E-20-9.35177E-19
 -1       456 2.12892E-05-1.66274E-05-1.96996E-06-4.45178E-05-5.14149E-19-1.37833E-18
 -1       457 4.75231E-06-8.71645E-06 1.82666E-06-2.05082E-05-4.43501E-19-1.79507E-18
 -1       458 1.34309E-05-1.87096E-05 1.92511E-06 9.17649E-06-1.83277E-19-1.78205E-18
 -1       459 5.11563E-05-3.28320E-05-8.13538E-06 3.18989E-05 4.07423E-19-1.49734E-18
 -1       460 1.08721E-04-5.62198E-05-2.29534E-05 3.46679E-05 1.40015E-18-5.48930E-19
 -1       461 9.52892E-05-5.34360E-05-1.85354E-05-3.58065E-05-1.18690E-18 2.82570E-18
 -1       462 4.65742E-05-3.39321E-05-5.72296E-06-3.25908E-05 1.16996E-19 1.70095E-18
 -1       463 1.07047E-05-2.02673E-05 3.89920E-06-7.25563E-06 7.66988E-19 3.69709E-18
 -1       464 1.11640E-04-4.93524E-05-2.66531E-05 5.37164E-05 9.00820E-19 8.39939E-19
 -1       465 8.89593E-06-1.52503E-05 2.99890E-06 2.13537E-05 1.19241E-18 3.04710E-18
 -1       466 1.42069E-04-6.99108E-05-3.19079E-05-2.09911E-05-1.41603E-18 3.24043E-18
 -1       467 9.52372E-05-2.85711E-05-2.85712E-05-1.14174E-10-2.63816E-21 8.66180E-19
 -1       468 9.74444E-05-2.51233E-05-3.09597E-05-2.99479E-05-1.48048E-18 2.76424E-19
 -1       469 7.33869E-05-1.12760E-05-2.63831E-05-3.92425E-05-1.80456E-18-1.10736E-19
 -1       470 1.14681E-04-2.98650E-05-3.63878E-05-3.81131E-06-7.64184E-19 1.73713E-19
 -1       471 1.12852E-04-2.66753E-05-3.69793E-05 4.58911E-06-5.10095E-19 8.15584E-20
 -1       472 1.08499E-04-2.32009E-05-3.65951E-05 9.76028E-06-1.43173E-19 3.22038E-20
 -1       473 1.03312E-04-2.04521E-05-3.55462E-05 1.30608E-05 1.87616E-19 2.32934E-21
 -1       474 9.82580E-05-1.88948E-05-3.40443E-05 1.51626E-05 2.94671E-19 1.37312E-19
 -1       475 9.38678E-05-1.87396E-05-3.22211E-05 1.62957E-05 5.24233E-19 2.55323E-19
 -1       476 9.02180E-05-2.01297E-05-3.00473E-05 1.58430E-05 6.78616E-19 5.41074E-19
 -1       477 8.80925E-05-2.18928E-05-2.83598E-05 1.36073E-05 7.38719E-19 1.07244E-18
 -1       478 4.65189E-05-1.94113E-06-1.83916E-05 2.13391E-05 1.68824E-19-6.67780E-19
 -1       479 1.55327E-04-5.31033E-05-4.41160E-05 1.38008E-05 2.17909E-19-1.58443E-18
 -1       480 7.23213E-05-1.50510E-05-2.39568E-05-3.66424E-05 1.40377E-18 2.84450E-18
 -1       481 7.81658E-05-1.22485E-05-2.80132E-05-2.69123E-05 7.63650E-19 2.42647E-18
 -1       482 8.55230E-05-1.64725E-05-2.95026E-05-1.87747E-05 6.49645E-19 1.29744E-18
 -1       483 9.02257E-05-2.07057E-05-2.97478E-05-1.22607E-05-4.68968E-19 5.97204E-19
 -1       484 9.27733E-05-2.37866E-05-2.95369E-05-7.63899E-06-9.63799E-19 8.58505E-19
 -1       485 9.40477E-05-2.57638E-05-2.92457E-05-4.56367E-06-1.35476E-18 2.08767E-18
 -1       486 9.46536E-05-2.69602E-05-2.89997E-05-2.61614E-06-4.47298E-20 2.20515E-18
 -1       487 9.49344E-05-2.76627E-05-2.88238E-05-1.43119E-06 8.62791E-19 1.69153E-18
 -1       488 9.50657E-05-2.80685E-05-2.87091E-05-7.36402E-07-1.03663E-18 4.95405E-19
 -1       489 9.51305E-05-2.83001E-05-2.86395E-05-3.44508E-07-1.20434E-18 2.25474E-19
 -1       490 9.51688E-05-2.84358E-05-2.85988E-05-1.27858E-07-9.72740E-19 1.02960E-18
 -1       491 9.51921E-05-2.85062E-05-2.85792E-05-2.75394E-08 7.07217E-19 5.23204E-19
 -1       492 9.52090E-05-2.85445E-05-2.85703E-05 1.61972E-08 5.18862E-20-2.36025E-19
 -1       493 9.52218E-05-2.85644E-05-2.85674E-05 3.00705E-08-1.67548E-19-6.86737E-19
 -1       494 9.52314E-05-2.85740E-05-2.85674E-05 2.95693E-08 1.08365E-18-8.01189E-19
 -1       495 9.52382E-05-2.85781E-05-2.85687E-05 2.32371E-08-8.81177E-19-2.35673E-19
 -1       496 9.52429E-05-2.85791E-05-2.85702E-05 1.55101E-08-4.24991E-19 3.47676E-19
 -1       497 9.52457E-05-2.85788E-05-2.85715E-05 8.47323E-09-3.55057E-19 6.32747E-19
 -1       498 9.52471E-05-2.85778E-05-2.85726E-05 2.91859E-09 5.29016E-19 1.41675E-18
 -1       499 9.52474E-05-2.85766E-05-2.85732E-05-1.02801E-09-3.50095E-19 5.85496E-19
 -1       500 9.52471E-05-2.85755E-05-2.85735E-05-3.54857E-09-1.88662E-18-7.48117E-19
 -1       501 9.52463E-05-2.85745E-05-2.85736E-05-4.93585E-09-8.91458E-19-1.14612E-18
 -1       502 9.52452E-05-2.85737E-05-2.85735E-05-5.49232E-09-5.39667E-20-2.19605E-18
 -1       503 9.52441E-05-2.85730E-05-2.85733E-05-5.48370E-09-1.85659E-19-2.67226E-18
 -1       504 9.52429E-05-2.85724E-05-2.85731E-05-5.09763E-09-1.77453E-18-1.45307E-18
 -1       505 9.52419E-05-2.85720E-05-2.85728E-05-4.53496E-09-9.50386E-19-1.36042E-18
 -1       506 9.52410E-05-2.85718E-05-2.85725E-05-3.89628E-09 3.78881E-19-2.03093E-19
 -1       507 9.52402E-05-2.85715E-05-2.85723E-05-3.25399E-09 2.78784E-18-8.44577E-19
 -1       508 9.52395E-05-2.85714E-05-2.85720E-05-2.65256E-09 1.50236E-18-5.52243E-19
 -1       509 9.52389E-05-2.85713E-05-2.85718E-05-2.11594E-09-3.93553E-19-7.95714E-19
 -1       510 9.52385E-05-2.85712E-05-2.85717E-05-1.65386E-09-1.96176E-18 2.48666E-18
 -1       511 9.52381E-05-2.85712E-05-2.85715E-05-1.26666E-09 1.71456E-18 1.02643E-18
 -1       512 9.52378E-05-2.85711E-05-2.85714E-05-9.48859E-10 4.32256E-18-2.73266E-18
 -1       513 9.52376E-05-2.85711E-05-2.85714E-05-6.91919E-10 8.72204E-19-2.97626E-18
 -1       514 9.52374E-05-2.85711E-05-2.85713E-05-4.86741E-10-2.56525E-18 1.94442E-18
 -1       515 9.52373E-05-2.85711E-05-2.85712E-05-3.21330E-10-4.39084E-18 2.71791E-18
 -1       516 8.55093E-05-2.25488E-05-2.69745E-05 3.76479E-06 7.42642E-19 8.42003E-19
 -1       517 8.71413E-05-2.30169E-05-2.74751E-05 7.07385E-06 5.87408E-19 9.98019E-19
 -1       518 8.44441E-05-2.24540E-05-2.65614E-05-2.93689E-06 6.53583E-19 7.82307E-19
 -1       519 8.52219E-05-2.33049E-05-2.65312E-05-5.73817E-06 4.70851E-19 7.23719E-19
 -1       520 8.66388E-05-2.46149E-05-2.65785E-05-7.68627E-06 2.88608E-19 2.52168E-19
 -1       521 8.83567E-05-2.60782E-05-2.66893E-05-8.61851E-06-2.22484E-20-1.86451E-20
 -1       522 9.00550E-05-2.74006E-05-2.68521E-05-8.60579E-06 2.92190E-19 4.41225E-19
 -1       523 9.15191E-05-2.83995E-05-2.70528E-05-7.88636E-06 9.83757E-20 8.56545E-19
 -1       524 9.26603E-05-2.90253E-05-2.72746E-05-6.75648E-06-3.08351E-19 1.04710E-18
 -1       525 9.34854E-05-2.93260E-05-2.74997E-05-5.48164E-06-4.44092E-19 8.34452E-20
 -1       526 9.40512E-05-2.93942E-05-2.77129E-05-4.25206E-06 2.18614E-19 3.41818E-19
 -1       527 9.44277E-05-2.93253E-05-2.79035E-05-3.17657E-06-1.29712E-20 4.69937E-20
 -1       528 9.46762E-05-2.91945E-05-2.80656E-05-2.29823E-06-2.23632E-19-6.29340E-19
 -1       529 9.48424E-05-2.90511E-05-2.81979E-05-1.61695E-06-1.00657E-18-6.14419E-19
 -1       530 9.49566E-05-2.89215E-05-2.83020E-05-1.10944E-06-1.31307E-18-4.72055E-19
 -1       531 9.50376E-05-2.88164E-05-2.83814E-05-7.43546E-07-4.48134E-19 1.07613E-20
 -1       532 9.50966E-05-2.87372E-05-2.84403E-05-4.86826E-07-1.38989E-19 4.71339E-19
 -1       533 9.51401E-05-2.86806E-05-2.84831E-05-3.10848E-07-4.15096E-19 1.27977E-18
 -1       534 9.51723E-05-2.86417E-05-2.85134E-05-1.92684E-07-3.69418E-20 1.98699E-18
 -1       535 9.51959E-05-2.86158E-05-2.85345E-05-1.14861E-07-5.72931E-19 2.24590E-18
 -1       536 9.52128E-05-2.85991E-05-2.85488E-05-6.45995E-08-4.70338E-19 1.77647E-18
 -1       537 9.52246E-05-2.85885E-05-2.85584E-05-3.28379E-08 9.93402E-19 1.23105E-18
 -1       538 9.52325E-05-2.85818E-05-2.85646E-05-1.33029E-08 1.09128E-18 1.17583E-18
 -1       539 9.52376E-05-2.85777E-05-2.85686E-05-1.73246E-09 8.03703E-19 4.82314E-19
 -1       540 9.52406E-05-2.85751E-05-2.85709E-05 4.72714E-09 2.10718E-19 6.23572E-19
 -1       541 9.52421E-05-2.85735E-05-2.85723E-05 7.96456E-09 1.11693E-18 9.22776E-19
 -1       542 9.52427E-05-2.85725E-05-2.85730E-05 9.21773E-09 1.62141E-18 1.12744E-18
 -1       543 9.52427E-05-2.85719E-05-2.85732E-05 9.29095E-09-5.20189E-19 4.35558E-19
 -1       544 9.52423E-05-2.85715E-05-2.85732E-05 8.70168E-09-5.88920E-19-2.48812E-19
 -1       545 9.52417E-05-2.85712E-05-2.85731E-05 7.77864E-09-9.60546E-19-6.48173E-19
 -1       546 9.52411E-05-2.85711E-05-2.85729E-05 6.72667E-09-8.49501E-19-8.51165E-19
 -1       547 9.52404E-05-2.85710E-05-2.85726E-05 5.66956E-09-6.83486E-19-2.79587E-19
 -1       548 9.52398E-05-2.85709E-05-2.85724E-05 4.67820E-09 1.25905E-18-9.45093E-19
 -1       549 9.52393E-05-2.85709E-05-2.85721E-05 3.78929E-09 1.48836E-19-7.04163E-19
 -1       550 9.52388E-05-2.85709E-05-2.85719E-05 3.01765E-09-2.42835E-18-1.28700E-18
 -1       551 9.52384E-05-2.85709E-05-2.85718E-05 2.36449E-09-6.32102E-19-6.56853E-20
 -1       552 9.52381E-05-2.85709E-05-2.85716E-05 1.82285E-09 1.14232E-19-1.37513E-19
 -1       553 9.52378E-05-2.85710E-05-2.85715E-05 1.38129E-09-8.23437E-20 1.01584E-18
 -1       554 9.52376E-05-2.85710E-05-2.85714E-05 1.02614E-09 1.11738E-18 8.00916E-20
 -1       555 9.52375E-05-2.85710E-05-2.85713E-05 7.43310E-10-2.06287E-18 7.22424E-19
 -1       556 9.52374E-05-2.85710E-05-2.85713E-05 5.18797E-10-7.68754E-19 7.44648E-19
 -1       557 9.52373E-05-2.85710E-05-2.85712E-05 3.40013E-10 2.54211E-18 5.06157E-19
 -1       558 9.52369E-05-2.85706E-05-2.85713E-05 3.62030E-10 4.52727E-21-1.21943E-18
 -1       559 9.52370E-05-2.85708E-05-2.85713E-05 3.89803E-10-1.01382E-18-2.52361E-18
 -1       560 9.52371E-05-2.85709E-05-2.85712E-05 3.59274E-10 1.60291E-18-2.04156E-18
 -1       561 1.01961E-04-5.01242E-05-2.19366E-05 5.43459E-05-6.57774E-19-8.30946E-19
 -1       562 9.52369E-05-2.85705E-05-2.85713E-05 2.77516E-10-2.44206E-18-1.98554E-18
 -1       563 9.52368E-05-2.85704E-05-2.85713E-05 1.49896E-10-2.31425E-18-1.53690E-18
 -1       564 9.52368E-05-2.85704E-05-2.85713E-05-6.87181E-13-2.68074E-18 1.24379E-18
 -1       565 9.52368E-05-2.85704E-05-2.85713E-05-1.51010E-10-1.77199E-18 3.20039E-18
 -1       566 9.52369E-05-2.85705E-05-2.85713E-05-2.76048E-10 1.78084E-18-2.52471E-18
 -1       567 9.52369E-05-2.85706E-05-2.85713E-05-3.60652E-10 2.63619E-18 6.59219E-20
 -1       568 9.52370E-05-2.85708E-05-2.85713E-05-3.88918E-10 5.64159E-20 2.43786E-19
 -1       569 9.52371E-05-2.85709E-05-2.85712E-05-3.58990E-10-2.18950E-18 1.68790E-18
 -1       570 8.45346E-05-2.22320E-05-2.66942E-05 3.60643E-07 6.58734E-19 7.49957E-19
 -1       571 5.18026E-05 6.59078E-06-2.45889E-05 5.75341E-06-5.42109E-19-1.16229E-19
 -1       572 8.68633E-05-3.41818E-05-2.19988E-05-4.19405E-05 1.07361E-18 1.36526E-18
 -1       573 5.83466E-05-2.87813E-05-1.21445E-05 5.41905E-05-3.79418E-19 1.96056E-18
 -1       574 1.48197E-04-2.24789E-06-6.32430E-05 1.83608E-06 1.58586E-18 2.96680E-19
 -1       575 1.10723E-04-3.04028E-05-3.44260E-05-1.59079E-05-1.05547E-18 3.31746E-19
 -1       576 1.56920E-04-2.94971E-05-5.50914E-05-5.09082E-06 6.42263E-19-8.65774E-19
 -1       577 1.51464E-04-1.25699E-05-6.01944E-05-6.73654E-06 1.08304E-18-3.38575E-19
 -1       578 1.51175E-04-1.16348E-05-6.04432E-05 8.95426E-06 1.02205E-18 5.39560E-19
 -1       579 1.70656E-05-2.89645E-06-5.31652E-06-1.98247E-07 2.23474E-18 3.70672E-18
 -1       580 1.56652E-04-3.15216E-05-5.41105E-05 3.81129E-06 6.49886E-19 1.02152E-18
 -1       581 1.27291E-04-4.98422E-05-3.31159E-05-4.04601E-05-5.62377E-19 9.14240E-19
 -1       582 8.62209E-05-3.54021E-05-2.14820E-05-5.69655E-05-1.15504E-18-1.97557E-19
 -1       583 4.90707E-05-1.71288E-05-1.31770E-05-5.53983E-05-1.22682E-18-8.04099E-19
 -1       584 1.94830E-05 1.79233E-06-8.36277E-06-3.48373E-05-1.18029E-18-1.29797E-18
 -1       585 1.82915E-05 3.74980E-06-8.68945E-06 1.90902E-06-4.00064E-19-1.43329E-18
 -1       586 2.68040E-05-1.03723E-05-6.32462E-06 3.50831E-05 9.06325E-19 1.80217E-18
 -1       587 1.51303E-04-4.81477E-05-4.44421E-05-1.64516E-05 2.22141E-19 1.11607E-18
 -1       588 1.37266E-04-5.93195E-05-3.33849E-05 3.76721E-05-3.01597E-19-9.40683E-19
 -1       589 3.92481E-05-1.26418E-05-1.06871E-05-2.93733E-05 1.82843E-18 2.34978E-18
 -1       590 4.83063E-05 4.84983E-06-2.24396E-05-3.42872E-05-1.70991E-18-4.42681E-19
 -1       591 8.69775E-05-2.28510E-05-2.74545E-05 1.05626E-05 6.91215E-19 9.90653E-19
 -1       592 4.03085E-05-8.83686E-06-1.26824E-05 2.49846E-05 2.54004E-19-1.02533E-18
 -1       593 9.52372E-05-2.85711E-05-2.85712E-05-1.94120E-10-1.72130E-18 6.75832E-19
 -1       594 8.69718E-05-2.31443E-05-2.73399E-05 8.83480E-06 6.70477E-19 1.04774E-18
 -1       595 3.89318E-05 1.22510E-05-2.15369E-05-1.65340E-05-1.15633E-18-5.16849E-19
 -1       596 2.69797E-05-2.88166E-07-1.07078E-05 1.45673E-05 1.35673E-18 1.87200E-18
 -1       597 1.14383E-04-2.74704E-05-3.72676E-05 1.03850E-05-1.92178E-19 4.77100E-19
 -1       598 1.20758E-04-3.26456E-05-3.77507E-05 4.95190E-06-4.55115E-19 2.13803E-19
 -1       599 1.02311E-04-2.20546E-05-3.44055E-05 1.40417E-05 1.91364E-19 1.29094E-19
 -1       600 9.70244E-05-2.14338E-05-3.24055E-05 1.42167E-05 3.57917E-19 2.36954E-19
 -1       601 9.03582E-05-2.22171E-05-2.91889E-05 1.27670E-05 4.95400E-19 5.63759E-19
 -1       602 7.66596E-05-1.24729E-05-2.74621E-05-7.95634E-06-8.25976E-19 2.15847E-18
 -1       603 8.45036E-05-1.81323E-05-2.84300E-05-5.74221E-06-1.21616E-18 2.04821E-18
 -1       604 8.91710E-05-2.21014E-05-2.87368E-05-3.86240E-06-6.36156E-19 2.00338E-18
 -1       605 9.18616E-05-2.46888E-05-2.87837E-05-2.43051E-06-6.62247E-19 1.49607E-18
 -1       606 9.33804E-05-2.63035E-05-2.87443E-05-1.43189E-06 3.42544E-19 1.48322E-18
 -1       607 9.42258E-05-2.72818E-05-2.86885E-05-7.82293E-07-1.36462E-18 3.29119E-19
 -1       608 9.46919E-05-2.78612E-05-2.86408E-05-3.84151E-07-1.20147E-18-1.40371E-18
 -1       609 9.49561E-05-2.82089E-05-2.86055E-05-1.48596E-07-1.86538E-19-1.03163E-19
 -1       610 9.50907E-05-2.83925E-05-2.85847E-05-3.26506E-08 7.77737E-20 4.49236E-19
 -1       611 9.51637E-05-2.84929E-05-2.85731E-05 2.12657E-08-1.21448E-18-2.28153E-19
 -1       612 9.52028E-05-2.85452E-05-2.85675E-05 4.00960E-08 8.10963E-20-7.30339E-19
 -1       613 9.52236E-05-2.85704E-05-2.85657E-05 4.08920E-08 1.29304E-18-1.53022E-19
 -1       614 9.52344E-05-2.85809E-05-2.85658E-05 3.36957E-08 3.19121E-19-9.96636E-19
 -1       615 9.52398E-05-2.85838E-05-2.85669E-05 2.40710E-08-3.94340E-19-1.03449E-18
 -1       616 9.52422E-05-2.85831E-05-2.85682E-05 1.48372E-08 4.58467E-19 6.28580E-19
 -1       617 9.52431E-05-2.85810E-05-2.85695E-05 7.20768E-09 1.01958E-19 1.28267E-18
 -1       618 9.52431E-05-2.85786E-05-2.85705E-05 1.51100E-09-1.48809E-18-8.50118E-20
 -1       619 9.52428E-05-2.85764E-05-2.85713E-05-2.36974E-09-3.13922E-18-1.57699E-18
 -1       620 9.52422E-05-2.85746E-05-2.85718E-05-4.74041E-09-1.31161E-18-2.65289E-18
 -1       621 9.52415E-05-2.85732E-05-2.85722E-05-5.95486E-09-1.87668E-18-3.59536E-18
 -1       622 9.52409E-05-2.85722E-05-2.85723E-05-6.34428E-09 8.50798E-19-2.80995E-18
 -1       623 9.52403E-05-2.85715E-05-2.85723E-05-6.16569E-09-1.01830E-18-2.52435E-18
 -1       624 9.52397E-05-2.85711E-05-2.85723E-05-5.65972E-09-1.22516E-19-8.67909E-19
 -1       625 9.52392E-05-2.85708E-05-2.85722E-05-4.98770E-09 6.19672E-20-2.97420E-20
 -1       626 9.52388E-05-2.85707E-05-2.85720E-05-4.25743E-09 1.09379E-18-2.48893E-19
 -1       627 9.52385E-05-2.85707E-05-2.85719E-05-3.53942E-09 2.78932E-18-1.60447E-18
 -1       628 9.52382E-05-2.85707E-05-2.85718E-05-2.87596E-09 8.62356E-19-6.87135E-19
 -1       629 9.52379E-05-2.85707E-05-2.85717E-05-2.28888E-09 4.08167E-20 1.04424E-18
 -1       630 9.52377E-05-2.85708E-05-2.85716E-05-1.78598E-09-1.51237E-18 2.68797E-18
 -1       631 9.52376E-05-2.85708E-05-2.85715E-05-1.36588E-09-6.69424E-20 5.98629E-19
 -1       632 9.52374E-05-2.85709E-05-2.85714E-05-1.02195E-09 2.64713E-18-2.78812E-18
 -1       633 9.52373E-05-2.85709E-05-2.85713E-05-7.44372E-10 1.70596E-18-4.05032E-18
 -1       634 9.52372E-05-2.85709E-05-2.85713E-05-5.32613E-10-3.31808E-18-1.22082E-18
 -1       635 9.18828E-05-2.23288E-05-2.98046E-05 7.20006E-06 6.54028E-19 7.02136E-19
 -1       636 9.52372E-05-2.85708E-05-2.85713E-05 5.41963E-10 1.22309E-18-2.81013E-18
 -1       637 1.08151E-04-4.03886E-05-2.88964E-05-4.33012E-05-1.41449E-18 5.61315E-19
 -1       638 9.12497E-05-2.42158E-05-2.87275E-05-7.94640E-06 5.55129E-19 5.77774E-19
 -1       639 9.01332E-05-2.24925E-05-2.89871E-05-4.95280E-06 6.44864E-19 6.16666E-19
 -1       640 9.42584E-05-2.83408E-05-2.82500E-05-1.00118E-05-1.34859E-19 5.65436E-20
 -1       641 9.53842E-05-2.98402E-05-2.80904E-05-9.36803E-06-1.50649E-19 5.01434E-19
 -1       642 9.60499E-05-3.07114E-05-2.80029E-05-8.11338E-06-2.02166E-19 8.64915E-19
 -1       643 9.63095E-05-3.10210E-05-2.79817E-05-6.62264E-06-5.38164E-20 8.51400E-19
 -1       644 9.62894E-05-3.09315E-05-2.80115E-05-5.16157E-06 8.51387E-20 4.15221E-19
 -1       645 9.61206E-05-3.06179E-05-2.80735E-05-3.87842E-06 1.91259E-19-9.77242E-20
 -1       646 9.59028E-05-3.02196E-05-2.81507E-05-2.82973E-06 3.12695E-21 3.26192E-19
 -1       647 9.56961E-05-2.98268E-05-2.82303E-05-2.01503E-06-3.92200E-19-1.96531E-19
 -1       648 9.55281E-05-2.94862E-05-2.83042E-05-1.40542E-06-1.37059E-18-2.94513E-19
 -1       649 9.54053E-05-2.92141E-05-2.83680E-05-9.62217E-07-2.09537E-18 2.28767E-19
 -1       650 9.53230E-05-2.90093E-05-2.84204E-05-6.47238E-07-9.27637E-19 1.05609E-18
 -1       651 9.52722E-05-2.88618E-05-2.84617E-05-4.27494E-07-5.52910E-20 8.85792E-19
 -1       652 9.52438E-05-2.87594E-05-2.84934E-05-2.76588E-07-6.82965E-19 2.80650E-19
 -1       653 9.52299E-05-2.86903E-05-2.85171E-05-1.74420E-07-2.73543E-19 1.67859E-18
 -1       654 9.52248E-05-2.86448E-05-2.85343E-05-1.06205E-07 1.47604E-18 7.98111E-19
 -1       655 9.52243E-05-2.86154E-05-2.85467E-05-6.13398E-08 2.52428E-19-8.97377E-19
 -1       656 9.52261E-05-2.85969E-05-2.85554E-05-3.23554E-08 1.76912E-18-8.22380E-19
 -1       657 9.52285E-05-2.85853E-05-2.85614E-05-1.40660E-08 9.45778E-19-7.67179E-19
 -1       658 9.52310E-05-2.85783E-05-2.85654E-05-2.90665E-09-5.88058E-19 2.70092E-19
 -1       659 9.52331E-05-2.85741E-05-2.85681E-05 3.55451E-09 1.10985E-18 2.61295E-19
 -1       660 9.52347E-05-2.85717E-05-2.85699E-05 6.96596E-09 5.14950E-19 2.50520E-19
 -1       661 9.52359E-05-2.85703E-05-2.85710E-05 8.43907E-09 1.58603E-18 2.71230E-19
 -1       662 9.52367E-05-2.85697E-05-2.85716E-05 8.71844E-09 8.83999E-20-3.97247E-19
 -1       663 9.52372E-05-2.85694E-05-2.85719E-05 8.29885E-09-1.44181E-18 1.59975E-19
 -1       664 9.52375E-05-2.85694E-05-2.85720E-05 7.50514E-09-7.94732E-19 1.40970E-18
 -1       665 9.52376E-05-2.85694E-05-2.85721E-05 6.54663E-09-1.11577E-18 1.93465E-19
 -1       666 9.52376E-05-2.85696E-05-2.85720E-05 5.55433E-09 1.00228E-18-1.15765E-19
 -1       667 9.52376E-05-2.85698E-05-2.85719E-05 4.60641E-09-2.96950E-19 8.83282E-19
 -1       668 9.52376E-05-2.85700E-05-2.85718E-05 3.74571E-09-9.09582E-20 2.45506E-18
 -1       669 9.52375E-05-2.85702E-05-2.85717E-05 2.99185E-09-1.15904E-18 6.56722E-19
 -1       670 9.52374E-05-2.85703E-05-2.85716E-05 2.34952E-09-5.14172E-19-6.14413E-19
 -1       671 9.52374E-05-2.85705E-05-2.85715E-05 1.81419E-09 2.38094E-19 3.43930E-19
 -1       672 9.52373E-05-2.85706E-05-2.85714E-05 1.37636E-09 3.18053E-19 6.49679E-19
 -1       673 9.52373E-05-2.85707E-05-2.85714E-05 1.02426E-09 9.30571E-19 1.75422E-18
 -1       674 9.52372E-05-2.85708E-05-2.85713E-05 7.55645E-10-7.08759E-19-3.71018E-19
 -1       675 9.52367E-05-2.85703E-05-2.85713E-05 2.90714E-10 1.11369E-18-2.10546E-18
 -1       676 4.23686E-05-1.13992E-06-1.69951E-05-1.87238E-05 2.12446E-18 3.41593E-18
 -1       677 9.52368E-05-2.85704E-05-2.85713E-05 4.40056E-10-1.26307E-19-2.34776E-18
 -1       678 9.52366E-05-2.85703E-05-2.85713E-05-1.04351E-10-1.34916E-18 2.56763E-18
 -1       679 9.52367E-05-2.85703E-05-2.85713E-05-2.90771E-10-2.00644E-18 1.72386E-18
 -1       680 9.52368E-05-2.85704E-05-2.85713E-05-4.38685E-10-3.29454E-19-5.99313E-20
 -1       681 9.52369E-05-2.85706E-05-2.85713E-05-5.23348E-10 2.93684E-19-1.47622E-18
 -1       682 9.52371E-05-2.85707E-05-2.85713E-05-5.57011E-10-1.86839E-18-5.74176E-19
 -1       683 9.05065E-05-2.17034E-05-2.94839E-05 3.21309E-06 7.05193E-19 8.50318E-19
 -1       684 1.24331E-04-5.63746E-05-2.89919E-05 3.75315E-05-1.41616E-18-1.73596E-18
 -1       685 1.47745E-04-4.26712E-05-4.53298E-05-4.97514E-06 5.47130E-20-6.77679E-19
 -1       686 1.46690E-04-4.02812E-05-4.58902E-05 2.56810E-06 4.65736E-20 1.24223E-18
 -1       687 8.98384E-05-2.16226E-05-2.92330E-05-1.02673E-06 7.43490E-19 8.22348E-19
 -1       688 4.28643E-05-1.70463E-06-1.70762E-05-4.42085E-05-1.69299E-18-7.83453E-19
 -1       689 9.52366E-05-2.85703E-05-2.85713E-05 1.00133E-10 1.54400E-19-1.11617E-18
 -1       690 9.52369E-05-2.85706E-05-2.85713E-05 5.26407E-10 1.65302E-18-1.88621E-18
 -1       691 1.37674E-04-2.07561E-05-5.05920E-05-1.23349E-05 3.98953E-19-1.24381E-19
 -1       692 1.44202E-04-5.88519E-05-3.67403E-05 1.89611E-05-9.90453E-19-1.67922E-18
 -1       693 9.27763E-05-2.63413E-05-2.84711E-05-9.63494E-06 3.18893E-19 6.18346E-19
 -1       694 1.31582E-04-4.74267E-06-5.49483E-05-5.25224E-06 8.59633E-19 2.47929E-19
 -1       695 7.37773E-05-2.23595E-05-2.16692E-05-5.22775E-05-1.64234E-18-1.34652E-19
 -1       696 1.38492E-04-2.06403E-05-5.09617E-05 1.40460E-05 6.02135E-19 7.75485E-19
 -1       697 6.41155E-05-5.09711E-06-2.51160E-05-1.01970E-05-1.56023E-19 2.81436E-18
 -1       698 8.73426E-05-3.85258E-05-2.05591E-05 5.04790E-05-1.35647E-18-9.07861E-19
 -1       699 1.08147E-04-2.40253E-05-3.60649E-05 1.29656E-05 6.65976E-20 1.79056E-19
 -1       700 1.38504E-04-4.98135E-05-3.80523E-05-1.97808E-05-5.43769E-19 1.17947E-18
 -1       701 5.07173E-05-1.52705E-05-1.46572E-05 4.11196E-05-2.16205E-19 1.07367E-18
 -1       702 1.33582E-04-4.27285E-06-5.59963E-05 7.92091E-06 7.88323E-19 7.21646E-19
 -1       703 2.76792E-05 1.14096E-05-1.59686E-05-9.70227E-06-9.40703E-19-9.52224E-19
 -1       704 1.23206E-04-3.72912E-05-3.68431E-05-5.67992E-06-6.36783E-19 5.22322E-19
 -1       705 9.33819E-05-2.26662E-05-3.02981E-05 1.07034E-05 3.71463E-19 5.38832E-19
 -1       706 4.40105E-05-4.76811E-06-1.63670E-05 2.50566E-05-1.76024E-20 2.04135E-19
 -1       707 1.22630E-04-4.12439E-05-3.49220E-05-1.92074E-05-1.11657E-18 8.93476E-19
 -1       708 9.94815E-05-2.22847E-05-3.30861E-05 1.25991E-05 1.87682E-19 3.61410E-19
 -1       709 9.55500E-05-2.27657E-05-3.11932E-05-7.32396E-06 6.41890E-19 9.80038E-19
 -1       710 7.75943E-05-1.44540E-05-2.70421E-05 1.57816E-06-8.31198E-19 7.80065E-19
 -1       711 9.60417E-05-2.09187E-05-3.21927E-05 6.74847E-06 3.17216E-19 6.35065E-19
 -1       712 9.52364E-05-2.85701E-05-2.85713E-05 2.56949E-10-1.84399E-19-2.20655E-18
 -1       713 8.45019E-05-1.91775E-05-2.79951E-05 1.89171E-07-1.30521E-18 2.17038E-19
 -1       714 8.88682E-05-2.25949E-05-2.84028E-05-2.42461E-07-8.58603E-19 7.85315E-19
 -1       715 9.15417E-05-2.49055E-05-2.85581E-05-2.72451E-07-1.98830E-19 1.37156E-18
 -1       716 9.31392E-05-2.63982E-05-2.86030E-05-1.74100E-07-7.24619E-19-4.66456E-20
 -1       717 9.40747E-05-2.73303E-05-2.86045E-05-6.46941E-08-1.93875E-18 1.56048E-18
 -1       718 9.46296E-05-2.79143E-05-2.85922E-05 1.66996E-08-1.04436E-18 8.59079E-19
 -1       719 9.49213E-05-2.82347E-05-2.85799E-05 5.86046E-08 1.72305E-19 1.22698E-18
 -1       720 9.50812E-05-2.84159E-05-2.85708E-05 7.43822E-08-7.08023E-19 8.98768E-19
 -1       721 9.51659E-05-2.85132E-05-2.85654E-05 7.29752E-08-5.71524E-19 1.52335E-18
 -1       722 9.52090E-05-2.85619E-05-2.85630E-05 6.24827E-08 4.78883E-19 1.06307E-18
 -1       723 9.52295E-05-2.85833E-05-2.85627E-05 4.85002E-08 2.87467E-19-1.50194E-18
 -1       724 9.52382E-05-2.85901E-05-2.85635E-05 3.44392E-08-4.64671E-19-2.69076E-18
 -1       725 9.52411E-05-2.85899E-05-2.85648E-05 2.20894E-08 1.07800E-18-5.45105E-19
 -1       726 9.52414E-05-2.85867E-05-2.85663E-05 1.21688E-08-3.34924E-19-2.15854E-18
 -1       727 9.52406E-05-2.85827E-05-2.85677E-05 4.75645E-09 6.21551E-20-1.69005E-18
 -1       728 9.52397E-05-2.85789E-05-2.85689E-05-4.04369E-10-2.27934E-18-4.06609E-19
 -1       729 9.52388E-05-2.85758E-05-2.85699E-05-3.71163E-09-3.91347E-18 2.72421E-19
 -1       730 9.52381E-05-2.85735E-05-2.85706E-05-5.58937E-09-1.49886E-18-1.17747E-19
 -1       731 9.52376E-05-2.85718E-05-2.85711E-05-6.42766E-09-3.89565E-20-2.30063E-20
 -1       732 9.52373E-05-2.85707E-05-2.85714E-05-6.54236E-09-7.63747E-19-1.12244E-18
 -1       733 9.52372E-05-2.85701E-05-2.85716E-05-6.19018E-09-3.25765E-19-1.03255E-18
 -1       734 9.52371E-05-2.85698E-05-2.85717E-05-5.58523E-09-2.45072E-19-1.50210E-18
 -1       735 9.52370E-05-2.85697E-05-2.85717E-05-4.86231E-09 7.27748E-19-8.15742E-19
 -1       736 9.52370E-05-2.85697E-05-2.85717E-05-4.11332E-09 1.24126E-18-1.61639E-18
 -1       737 9.52370E-05-2.85699E-05-2.85716E-05-3.39653E-09 1.84424E-18-1.67411E-18
 -1       738 9.52371E-05-2.85700E-05-2.85716E-05-2.74540E-09 1.54475E-18-1.70487E-18
 -1       739 9.52371E-05-2.85702E-05-2.85715E-05-2.17587E-09-4.95460E-19-2.61542E-18
 -1       740 9.52371E-05-2.85704E-05-2.85715E-05-1.69207E-09-1.30274E-18-3.02465E-18
 -1       741 9.52371E-05-2.85705E-05-2.85714E-05-1.29038E-09 4.40852E-19 2.25041E-19
 -1       742 9.52371E-05-2.85706E-05-2.85714E-05-9.64529E-10 9.79643E-19 1.25141E-18
 -1       743 9.52371E-05-2.85707E-05-2.85713E-05-7.41203E-10 5.11513E-19-5.43603E-19
 -1       744 1.00136E-04-3.25432E-05-2.89683E-05-8.87577E-06-4.45694E-19 3.68954E-20
 -1       745 9.98089E-05-3.11679E-05-2.94171E-05-1.02926E-05-2.18880E-19 5.59478E-19
 -1       746 9.91862E-05-3.27967E-05-2.84529E-05-5.48359E-06-6.50869E-20 8.70300E-21
 -1       747 9.83736E-05-3.22235E-05-2.83504E-05-4.06010E-06-1.60605E-20 9.66655E-19
 -1       748 9.75816E-05-3.15158E-05-2.83142E-05-2.93248E-06-1.64038E-20 1.38149E-18
 -1       749 9.69015E-05-3.08240E-05-2.83191E-05-2.08088E-06-2.54877E-20 1.61946E-18
 -1       750 9.63655E-05-3.02250E-05-2.83461E-05-1.45753E-06 3.44845E-20 1.32748E-18
 -1       751 9.59696E-05-2.97452E-05-2.83820E-05-1.01043E-06-2.21680E-18 1.03478E-18
 -1       752 9.56920E-05-2.93815E-05-2.84189E-05-6.93911E-07-1.22032E-18-1.31958E-19
 -1       753 9.55062E-05-2.91170E-05-2.84526E-05-4.71740E-07 4.64864E-19-6.53822E-19
 -1       754 9.53870E-05-2.89309E-05-2.84812E-05-3.16761E-07-2.73884E-19-6.55703E-19
 -1       755 9.53137E-05-2.88034E-05-2.85044E-05-2.09249E-07-1.08812E-18 2.37403E-19
 -1       756 9.52707E-05-2.87179E-05-2.85226E-05-1.35129E-07 2.92050E-19 3.33967E-19
 -1       757 9.52468E-05-2.86617E-05-2.85365E-05-8.44416E-08 2.05031E-18 1.18805E-18
 -1       758 9.52346E-05-2.86254E-05-2.85468E-05-5.01613E-08 8.18619E-19 4.90122E-19
 -1       759 9.52292E-05-2.86022E-05-2.85544E-05-2.73364E-08 3.60050E-19 1.04116E-18
 -1       760 9.52275E-05-2.85877E-05-2.85599E-05-1.24725E-08 4.16038E-19 1.46606E-18
 -1       761 9.52277E-05-2.85788E-05-2.85638E-05-3.10224E-09 3.67443E-19 6.51984E-19
 -1       762 9.52287E-05-2.85735E-05-2.85665E-05 2.51672E-09 9.81766E-20 7.63007E-19
 -1       763 9.52300E-05-2.85704E-05-2.85684E-05 5.61275E-09 1.38158E-18 1.19084E-18
 -1       764 9.52314E-05-2.85688E-05-2.85697E-05 7.04855E-09 8.07949E-19 7.91862E-19
 -1       765 9.52325E-05-2.85680E-05-2.85705E-05 7.42604E-09-1.26855E-21 6.78183E-19
 -1       766 9.52336E-05-2.85678E-05-2.85710E-05 7.16091E-09-2.05958E-18-1.06605E-18
 -1       767 9.52344E-05-2.85679E-05-2.85713E-05 6.53602E-09-4.64827E-19-8.33621E-19
 -1       768 9.52350E-05-2.85682E-05-2.85715E-05 5.73977E-09-6.55162E-19-5.21188E-19
 -1       769 9.52356E-05-2.85685E-05-2.85716E-05 4.89380E-09 3.28315E-19 2.20112E-19
 -1       770 9.52360E-05-2.85689E-05-2.85716E-05 4.07305E-09-9.17429E-19 1.09436E-18
 -1       771 9.52363E-05-2.85693E-05-2.85716E-05 3.32025E-09-5.99443E-19 7.76697E-19
 -1       772 9.52365E-05-2.85696E-05-2.85715E-05 2.65636E-09-5.25134E-19-2.16083E-19
 -1       773 9.52367E-05-2.85699E-05-2.85715E-05 2.08810E-09-2.98145E-19 2.43641E-20
 -1       774 9.52368E-05-2.85701E-05-2.85714E-05 1.61295E-09 1.15830E-19 5.39981E-19
 -1       775 9.52369E-05-2.85704E-05-2.85714E-05 1.22576E-09 6.12726E-19 2.27661E-19
 -1       776 9.52367E-05-2.85704E-05-2.85713E-05-6.44997E-10-1.19411E-18 8.04926E-19
 -1       777 1.33978E-04-3.09219E-05-4.42849E-05 1.20483E-05-7.63388E-20 7.06948E-19
 -1       778 9.52366E-05-2.85702E-05-2.85713E-05 4.84904E-10-1.21784E-18-1.14316E-18
 -1       779 9.52366E-05-2.85702E-05-2.85713E-05-4.86774E-10-2.39752E-19 1.03775E-18
 -1       780 9.52364E-05-2.85701E-05-2.85713E-05-2.65322E-10-8.78597E-19 1.17384E-18
 -1       781 3.19577E-05 1.03352E-05-1.75868E-05-2.43387E-05-1.32308E-18-8.82291E-19
 -1       782 1.33958E-04-3.28278E-05-4.35467E-05-1.22155E-05-7.12037E-20-3.09763E-20
 -1       783 1.06303E-04-4.50442E-05-2.60845E-05 3.83496E-05-1.38601E-18-1.33283E-18
 -1       784 9.52364E-05-2.85700E-05-2.85713E-05-4.91395E-12 5.75391E-19 6.61699E-19
 -1       785 1.32985E-04-5.61434E-05-3.29611E-05 2.07792E-05-8.55738E-19-7.23143E-19
 -1       786 9.52367E-05-2.85703E-05-2.85713E-05 6.46200E-10 2.64443E-19-3.38208E-18
 -1       787 1.39609E-04-5.12405E-05-3.80208E-05 2.01893E-06-7.38447E-19-3.76447E-19
 -1       788 9.52370E-05-2.85706E-05-2.85713E-05 7.53145E-10 1.35125E-18-2.66188E-18
 -1       789 6.66192E-05-8.14189E-06-2.49511E-05 4.61290E-06-4.60233E-19 8.43033E-19
 -1       790 7.46138E-05-2.48615E-05-2.10456E-05 4.00041E-05-8.16685E-19-4.74616E-19
 -1       791 1.36440E-04-4.26540E-05-4.02514E-05-1.35530E-06-4.09931E-19 1.08173E-18
 -1       792 9.98513E-05-3.30003E-05-2.86504E-05-7.15064E-06-1.13804E-19-1.98911E-22
 -1       793 1.22183E-04-1.30366E-05-4.70637E-05-1.02827E-05 6.31331E-19 2.76282E-19
 -1       794 1.20511E-04-4.56771E-06-5.00269E-05 1.86262E-06 7.51662E-19 3.66170E-19
 -1       795 1.24162E-04-1.14730E-05-4.86150E-05 1.23644E-05 6.88360E-19 3.55916E-19
 -1       796 1.19870E-04-2.87844E-05-3.90986E-05 1.25021E-05-1.84590E-19 4.74090E-19
 -1       797 9.46039E-05-2.07014E-05-3.16710E-05-3.08478E-06 7.09396E-19 9.57473E-19
 -1       798 9.76184E-05-2.20258E-05-3.23910E-05 1.05645E-05 3.64626E-19 3.63234E-19
 -1       799 9.87597E-05-2.88063E-05-2.99800E-05-1.08575E-05 4.42960E-19 7.61720E-19
 -1       800 1.19303E-04-5.04115E-05-2.95080E-05 2.65616E-05-5.61530E-19-4.75348E-20
 -1       801 9.52369E-05-2.85705E-05-2.85714E-05 9.66988E-10 1.65926E-18-9.90724E-19
 -1       802 5.21184E-05-3.21216E-06-2.06560E-05 1.00468E-05-4.84665E-19 1.69235E-19
 -1       803 1.23304E-04-2.12899E-05-4.38485E-05 1.47411E-05 2.56211E-19 4.56399E-19
 -1       804 4.29156E-05 7.24199E-07-1.82304E-05 4.79065E-07 6.92886E-19 1.53159E-18
 -1       805 9.52369E-05-2.85705E-05-2.85713E-05-7.21615E-10-7.10244E-19-2.30503E-18
 -1       806 9.48034E-05-2.01467E-05-3.19939E-05 1.94680E-06 7.73943E-19 7.31751E-19
 -1       807 1.05274E-04-2.28844E-05-3.53145E-05 1.33537E-05 1.78555E-19 1.94063E-19
 -1       808 6.38578E-05-1.40316E-05-2.11423E-05 2.96706E-05-6.67038E-20-1.91959E-19
 -1       809 9.71631E-05-2.57603E-05-3.06008E-05-9.97963E-06 4.60864E-19 6.75614E-19
 -1       810 1.11917E-04-2.48665E-05-3.73071E-05 1.34832E-05 1.78912E-20 6.53679E-19
 -1       811 1.29899E-04-4.16422E-05-3.78780E-05-8.13296E-06-4.21591E-19 1.58999E-19
 -1       812 8.73301E-05-2.19982E-05-2.80012E-05 3.84914E-06-5.18426E-19 9.01182E-19
 -1       813 9.03581E-05-2.42570E-05-2.83299E-05 2.14298E-06 4.33199E-19 6.78111E-19
 -1       814 9.23230E-05-2.58725E-05-2.84791E-05 1.22506E-06-1.08935E-18-7.44310E-20
 -1       815 9.35546E-05-2.69616E-05-2.85400E-05 7.34120E-07-9.93695E-19-2.59542E-19
 -1       816 9.43277E-05-2.76867E-05-2.85606E-05 4.55689E-07-5.56228E-19 1.03164E-18
 -1       817 9.47531E-05-2.81046E-05-2.85637E-05 3.05306E-07-6.94553E-19 1.14647E-18
 -1       818 9.49946E-05-2.83503E-05-2.85619E-05 2.12670E-07-3.44778E-19 5.16341E-19
 -1       819 9.51259E-05-2.84868E-05-2.85596E-05 1.50666E-07-5.37986E-19 4.42254E-19
 -1       820 9.51934E-05-2.85571E-05-2.85584E-05 1.06497E-07 5.67993E-19 6.52557E-19
 -1       821 9.52254E-05-2.85890E-05-2.85585E-05 7.38173E-08-1.72735E-18 3.94070E-19
 -1       822 9.52386E-05-2.85997E-05-2.85595E-05 4.93254E-08-1.46573E-18-5.95227E-20
 -1       823 9.52423E-05-2.85997E-05-2.85611E-05 3.10792E-08 1.06212E-18-7.79730E-19
 -1       824 9.52419E-05-2.85951E-05-2.85629E-05 1.77465E-08 7.47108E-19-7.78137E-20
 -1       825 9.52400E-05-2.85890E-05-2.85647E-05 8.29105E-09-8.24961E-19-2.56977E-19
 -1       826 9.52380E-05-2.85832E-05-2.85663E-05 1.85453E-09-3.64662E-19-2.43717E-18
 -1       827 9.52363E-05-2.85784E-05-2.85677E-05-2.28391E-09-1.84973E-18-5.99782E-19
 -1       828 9.52352E-05-2.85747E-05-2.85688E-05-4.72245E-09-1.40550E-18 1.81539E-18
 -1       829 9.52346E-05-2.85721E-05-2.85697E-05-5.94773E-09-1.59120E-18-1.13794E-19
 -1       830 9.52344E-05-2.85703E-05-2.85703E-05-6.34019E-09-3.19860E-19-2.38011E-18
 -1       831 9.52345E-05-2.85693E-05-2.85708E-05-6.16535E-09-3.19961E-19-8.22737E-19
 -1       832 9.52347E-05-2.85688E-05-2.85711E-05-5.67641E-09-1.56147E-18-2.70462E-18
 -1       833 9.52350E-05-2.85687E-05-2.85713E-05-5.02373E-09 2.42190E-19-2.39246E-18
 -1       834 9.52354E-05-2.85688E-05-2.85714E-05-4.31154E-09 1.82907E-18 3.80899E-19
 -1       835 9.52357E-05-2.85690E-05-2.85714E-05-3.60783E-09 3.29786E-18 2.01854E-19
 -1       836 9.52360E-05-2.85692E-05-2.85715E-05-2.95367E-09 4.62987E-19 1.61552E-20
 -1       837 9.52362E-05-2.85695E-05-2.85715E-05-2.37093E-09-1.02246E-18-1.55476E-18
 -1       838 9.52365E-05-2.85698E-05-2.85714E-05-1.86850E-09 4.19621E-19-6.64359E-19
 -1       839 9.52366E-05-2.85701E-05-2.85714E-05-1.44636E-09 2.57512E-18 1.11541E-18
 -1       840 9.52368E-05-2.85703E-05-2.85714E-05-1.10146E-09 2.16144E-18 8.39609E-19
 -1       841 1.04844E-04-3.44588E-05-3.01643E-05-9.10097E-06 3.01579E-19 7.42387E-19
 -1       842 9.95819E-05-3.29909E-05-2.85391E-05-2.45063E-06-2.49832E-19 9.93884E-19
 -1       843 1.01052E-04-3.40583E-05-2.87119E-05-3.56537E-06-7.14848E-19 1.02797E-18
 -1       844 9.73786E-05-3.10626E-05-2.84212E-05-1.15104E-06-1.76768E-19 1.37832E-18
 -1       845 9.66639E-05-3.03500E-05-2.84203E-05-7.97861E-07-1.26265E-18 1.58460E-18
 -1       846 9.61579E-05-2.98097E-05-2.84349E-05-5.58324E-07-7.79273E-19 5.81722E-19
 -1       847 9.58126E-05-2.94156E-05-2.84558E-05-3.93084E-07-1.66245E-19-4.89043E-19
 -1       848 9.55842E-05-2.91364E-05-2.84776E-05-2.76842E-07 2.64176E-19-1.66184E-19
 -1       849 9.54376E-05-2.89431E-05-2.84976E-05-1.93689E-07-1.07241E-18-9.51343E-20
 -1       850 9.53461E-05-2.88118E-05-2.85147E-05-1.33581E-07-9.46797E-19 7.75893E-19
 -1       851 9.52908E-05-2.87239E-05-2.85287E-05-9.00093E-08 1.07834E-18 8.07617E-19
 -1       852 9.52585E-05-2.86658E-05-2.85397E-05-5.85759E-08 3.28318E-19 1.55885E-18
 -1       853 9.52406E-05-2.86280E-05-2.85483E-05-3.61661E-08 8.56707E-19 1.63882E-18
 -1       854 9.52314E-05-2.86036E-05-2.85548E-05-2.04850E-08 7.16547E-20 1.04276E-18
 -1       855 9.52272E-05-2.85881E-05-2.85596E-05-9.79650E-09 8.23046E-19 1.16570E-18
 -1       856 9.52260E-05-2.85785E-05-2.85632E-05-2.77029E-09 3.35939E-19 6.86477E-19
 -1       857 9.52262E-05-2.85727E-05-2.85658E-05 1.61402E-09-1.12200E-18 1.23031E-18
 -1       858 9.52273E-05-2.85694E-05-2.85676E-05 4.13375E-09 1.78494E-18 1.96447E-18
 -1       859 9.52286E-05-2.85677E-05-2.85690E-05 5.37381E-09-3.87756E-20 1.79349E-18
 -1       860 9.52299E-05-2.85669E-05-2.85699E-05 5.76713E-09 4.43616E-19 1.11783E-18
 -1       861 9.52312E-05-2.85667E-05-2.85705E-05 5.62796E-09-1.67854E-18 5.44382E-19
 -1       862 9.52323E-05-2.85669E-05-2.85709E-05 5.17910E-09-9.33154E-19 8.77304E-19
 -1       863 9.52333E-05-2.85673E-05-2.85712E-05 4.57413E-09-1.03649E-18 8.23683E-19
 -1       864 9.52342E-05-2.85678E-05-2.85713E-05 3.91510E-09-1.90969E-18 1.82836E-18
 -1       865 9.52348E-05-2.85683E-05-2.85714E-05 3.26664E-09-2.10116E-20 1.62463E-18
 -1       866 9.52354E-05-2.85688E-05-2.85714E-05 2.66668E-09 5.49410E-19 4.66375E-19
 -1       867 9.52358E-05-2.85692E-05-2.85714E-05 2.13470E-09 2.28990E-19-2.45833E-18
 -1       868 9.52362E-05-2.85696E-05-2.85714E-05 1.67849E-09 2.99153E-19-2.56141E-18
 -1       869 9.52364E-05-2.85699E-05-2.85714E-05 1.29330E-09 3.35431E-19-4.95958E-18
 -1       870 1.20457E-04-2.37485E-05-4.15050E-05-1.29066E-05-1.47304E-20-4.07171E-20
 -1       871 9.52363E-05-2.85699E-05-2.85713E-05 4.81336E-10 9.20396E-20-1.81934E-18
 -1       872 9.52365E-05-2.85701E-05-2.85713E-05-7.47247E-10-7.96057E-19 2.55046E-19
 -1       873 9.52363E-05-2.85699E-05-2.85713E-05-4.95149E-10-1.55582E-18 1.92300E-18
 -1       874 9.83451E-05-3.19548E-05-2.84531E-05-1.67593E-06-3.03607E-19 1.21477E-18
 -1       875 1.13627E-04-9.53921E-06-4.47409E-05 7.03396E-06 4.88262E-19-2.78355E-20
 -1       876 8.28710E-05-1.91104E-05-2.73228E-05 6.96442E-06-1.48846E-18-2.14048E-19
 -1       877 1.31233E-04-5.22702E-05-3.38735E-05 8.79229E-06-4.88147E-19-1.99635E-19
 -1       878 1.03289E-04-2.17141E-05-3.49510E-05 1.20952E-05 2.65403E-19 2.14679E-19
 -1       879 9.52365E-05-2.85700E-05-2.85713E-05 7.35104E-10 1.03689E-18-2.99926E-18
 -1       880 7.65102E-05-1.56608E-05-2.60380E-05 1.21894E-05-3.81549E-19-1.70367E-19
 -1       881 1.12361E-04-1.02653E-05-4.38653E-05-3.97582E-06 7.03567E-19-3.26535E-19
 -1       882 9.97886E-05-1.86381E-05-3.47763E-05 5.76901E-06 5.64528E-19 6.58299E-20
 -1       883 1.01401E-04-2.40746E-05-3.31412E-05-9.79841E-06 5.26388E-19 9.18467E-19
 -1       884 9.24825E-05-3.31952E-05-2.52868E-05 3.27898E-05-4.38990E-19-1.34185E-18
 -1       885 1.01495E-04-2.00309E-05-3.49192E-05 9.45799E-06 2.81837E-19 9.89316E-20
 -1       886 1.13519E-04-1.58541E-05-4.18858E-05 1.22198E-05 1.41846E-19 4.64343E-19
 -1       887 1.04714E-04-3.22600E-05-3.10511E-05-1.08313E-05 3.22326E-19 9.85215E-19
 -1       888 1.04013E-04-3.52127E-05-2.94851E-05-7.01296E-06-3.23915E-19 5.01002E-20
 -1       889 9.52369E-05-2.85704E-05-2.85713E-05-8.97265E-10-1.70503E-18-9.39605E-19
 -1       890 9.52367E-05-2.85702E-05-2.85713E-05 8.90807E-10 1.08933E-18-3.55284E-18
 -1       891 1.02621E-04-3.49255E-05-2.90124E-05-5.09261E-06-6.49873E-19 5.50177E-19
 -1       892 9.95037E-05-2.00985E-05-3.40290E-05-5.85565E-06 4.61865E-19 5.06366E-19
 -1       893 9.52361E-05-2.85698E-05-2.85713E-05 1.60680E-10 7.56211E-19 7.21657E-19
 -1       894 1.11244E-04-1.80150E-05-3.99775E-05-9.82258E-06 4.73866E-19 1.20022E-19
 -1       895 1.23880E-04-2.87201E-05-4.10512E-05 1.27576E-05-5.83063E-20 2.75789E-19
 -1       896 1.05747E-04-4.10881E-05-2.76977E-05 2.70172E-05-2.70495E-19 2.60061E-20
 -1       897 9.52362E-05-2.85698E-05-2.85713E-05-1.79222E-10 1.14060E-18-2.57308E-19
 -1       898 9.88624E-05-1.81491E-05-3.45918E-05-1.42455E-07 5.01645E-19 4.34973E-19
 -1       899 9.52366E-05-2.85701E-05-2.85714E-05 1.07718E-09 1.41796E-18-5.94029E-18
 -1       900 8.20166E-05-2.43638E-05-2.46530E-05 2.87007E-05 8.32425E-20-1.39724E-18
 -1       901 1.03439E-04-2.85670E-05-3.20913E-05-1.13761E-05 1.57346E-19 9.80012E-19
 -1       902 1.01723E-04-3.45342E-05-2.87953E-05-1.23080E-06-6.14680E-19 1.29138E-19
 -1       903 1.03627E-04-1.55994E-05-3.77455E-05 3.86692E-06 4.20396E-19 6.40945E-19
 -1       904 9.23962E-05-2.62000E-05-2.83701E-05 3.19306E-06-6.85482E-19-9.32299E-19
 -1       905 9.35045E-05-2.70694E-05-2.84724E-05 1.93705E-06-4.64653E-19-7.38417E-20
 -1       906 9.42617E-05-2.77128E-05-2.85211E-05 1.15599E-06-4.09966E-19 9.96259E-19
 -1       907 9.47057E-05-2.81124E-05-2.85400E-05 7.15489E-07-8.42959E-19 3.69863E-19
 -1       908 9.49696E-05-2.83596E-05-2.85472E-05 4.48216E-07-1.20683E-19 8.58052E-19
 -1       909 9.51175E-05-2.85014E-05-2.85498E-05 2.83470E-07-9.24626E-19 5.34014E-19
 -1       910 9.51948E-05-2.85753E-05-2.85512E-05 1.80068E-07-8.28231E-19 3.41446E-19
 -1       911 9.52310E-05-2.86081E-05-2.85527E-05 1.13925E-07-1.37322E-19-2.05517E-19
 -1       912 9.52449E-05-2.86175E-05-2.85546E-05 7.09247E-08-1.03899E-18 6.59787E-19
 -1       913 9.52475E-05-2.86149E-05-2.85568E-05 4.26669E-08-1.08720E-18 1.05752E-18
 -1       914 9.52452E-05-2.86072E-05-2.85592E-05 2.40406E-08 1.13320E-18-7.24134E-20
 -1       915 9.52414E-05-2.85980E-05-2.85615E-05 1.18436E-08-1.03368E-18-1.42007E-18
 -1       916 9.52378E-05-2.85895E-05-2.85636E-05 4.00460E-09-1.22004E-18-1.07498E-18
 -1       917 9.52350E-05-2.85824E-05-2.85654E-05-8.58027E-10-6.92396E-19-1.23102E-18
 -1       918 9.52331E-05-2.85770E-05-2.85669E-05-3.69036E-09-4.14375E-19-1.90653E-19
 -1       919 9.52321E-05-2.85731E-05-2.85682E-05-5.15484E-09-2.68409E-18 5.95327E-20
 -1       920 9.52318E-05-2.85704E-05-2.85692E-05-5.72172E-09-1.14051E-18 7.21117E-19
 -1       921 9.52319E-05-2.85688E-05-2.85699E-05-5.67718E-09-1.65592E-18-1.09723E-18
 -1       922 9.52323E-05-2.85680E-05-2.85704E-05-5.29870E-09-1.42646E-18-3.26485E-18
 -1       923 9.52329E-05-2.85677E-05-2.85708E-05-4.74035E-09 5.32408E-19 2.18042E-19
 -1       924 9.52335E-05-2.85678E-05-2.85710E-05-4.10750E-09 2.74700E-18 2.78463E-18
 -1       925 9.52342E-05-2.85680E-05-2.85712E-05-3.46865E-09 1.29248E-19 1.49981E-18
 -1       926 9.52347E-05-2.85684E-05-2.85713E-05-2.86575E-09 1.15758E-18-2.36954E-19
 -1       927 9.52353E-05-2.85688E-05-2.85713E-05-2.32212E-09 3.83813E-19 1.84184E-18
 -1       928 9.52357E-05-2.85692E-05-2.85714E-05-1.84779E-09 4.58937E-19 3.94387E-18
 -1       929 9.52360E-05-2.85695E-05-2.85714E-05-1.44721E-09 2.77214E-18 4.46956E-18
 -1       930 9.52363E-05-2.85699E-05-2.85713E-05-1.11389E-09-1.19934E-19 1.36467E-18
 -1       931 9.52359E-05-2.85695E-05-2.85713E-05-4.42346E-10-4.48702E-19-2.84757E-18
 -1       932 1.08223E-04-2.72922E-05-3.46816E-05-1.17466E-05 1.95653E-19 8.83914E-19
 -1       933 9.66379E-05-3.02226E-05-2.84636E-05-1.84812E-07-1.05551E-18 4.15745E-19
 -1       934 9.73755E-05-3.09363E-05-2.84739E-05-2.49366E-07 3.40949E-20 1.07462E-18
 -1       935 9.57971E-05-2.93393E-05-2.84819E-05-1.27030E-07 3.90156E-19-1.78283E-19
 -1       936 9.55773E-05-2.90849E-05-2.84967E-05-1.06105E-07-2.45645E-19-4.13025E-19
 -1       937 9.54364E-05-2.89105E-05-2.85111E-05-8.59464E-08-1.48638E-18-1.25108E-20
 -1       938 9.53479E-05-2.87922E-05-2.85239E-05-6.68561E-08-2.99352E-20-7.90210E-19
 -1       939 9.52936E-05-2.87127E-05-2.85347E-05-4.96540E-08-2.89581E-20 2.21689E-19
 -1       940 9.52610E-05-2.86596E-05-2.85435E-05-3.49708E-08-3.58906E-19 1.02006E-18
 -1       941 9.52423E-05-2.86246E-05-2.85505E-05-2.30665E-08 1.30060E-18 9.52258E-19
 -1       942 9.52321E-05-2.86016E-05-2.85559E-05-1.38739E-08 3.70071E-19 2.92489E-19
 -1       943 9.52271E-05-2.85869E-05-2.85601E-05-7.10909E-09 6.91882E-19 1.39572E-18
 -1       944 9.52252E-05-2.85775E-05-2.85633E-05-2.38109E-09-1.07313E-18 2.16874E-18
 -1       945 9.52250E-05-2.85719E-05-2.85656E-05 7.26708E-10 2.56011E-19 1.56566E-18
 -1       946 9.52258E-05-2.85686E-05-2.85674E-05 2.60506E-09 2.50763E-19 2.42287E-18
 -1       947 9.52271E-05-2.85668E-05-2.85687E-05 3.59156E-09 2.17602E-19 2.52156E-18
 -1       948 9.52285E-05-2.85661E-05-2.85696E-05 3.96148E-09-1.46692E-18 2.93325E-18
 -1       949 9.52299E-05-2.85660E-05-2.85702E-05 3.92879E-09-8.55801E-19 8.87322E-19
 -1       950 9.52312E-05-2.85663E-05-2.85707E-05 3.65291E-09-1.45481E-18 1.68327E-18
 -1       951 9.52323E-05-2.85668E-05-2.85710E-05 3.24788E-09-2.65750E-18 9.29782E-19
 -1       952 9.52333E-05-2.85673E-05-2.85711E-05 2.79171E-09-1.25468E-18 6.23205E-20
 -1       953 9.52342E-05-2.85679E-05-2.85713E-05 2.33500E-09 1.75910E-18 6.44279E-21
 -1       954 9.52349E-05-2.85685E-05-2.85713E-05 1.90824E-09 2.31783E-18-1.87799E-18
 -1       955 9.52354E-05-2.85690E-05-2.85713E-05 1.52763E-09 3.29284E-19-2.24804E-18
 -1       956 9.52359E-05-2.85694E-05-2.85713E-05 1.20219E-09 1.59778E-18-1.69551E-18
 -1       957 1.25062E-04-4.59928E-05-3.39057E-05-1.65531E-06-2.25208E-19 4.30175E-19
 -1       958 8.60809E-05-2.28604E-05-2.70651E-05 1.40095E-05-4.28822E-19-1.22378E-18
 -1       959 1.20402E-04-4.83696E-05-3.08556E-05 1.46347E-05-2.31442E-19-1.12976E-19
 -1       960 1.16134E-04-2.24177E-05-4.01818E-05 1.42181E-05 2.29163E-19 9.12939E-19
 -1       961 8.87629E-05-2.39413E-05-2.77805E-05 8.66909E-06-3.73951E-19-3.66556E-19
 -1       962 1.09663E-04-2.23190E-05-3.74416E-05 1.33976E-05 1.75409E-19 4.98256E-19
 -1       963 9.52361E-05-2.85696E-05-2.85713E-05 7.84102E-10 1.46426E-18-3.17164E-18
 -1       964 1.06438E-04-1.24210E-05-4.03630E-05 1.80250E-06 5.12256E-19 7.63646E-19
 -1       965 9.52361E-05-2.85697E-05-2.85713E-05-8.02832E-10-1.42685E-18 3.25573E-18
 -1       966 9.08176E-05-2.51008E-05-2.81653E-05 5.27187E-06 1.93151E-19 9.97944E-20
 -1       967 1.18609E-04-3.28039E-05-3.68240E-05-1.23422E-05-9.65351E-20 3.03327E-19
 -1       968 9.61336E-05-2.97054E-05-2.84692E-05-1.50678E-07 9.42152E-21 1.35781E-19
 -1       969 1.05243E-04-1.70102E-05-3.78253E-05 9.05639E-06 2.02285E-19 7.17727E-19
 -1       970 1.10220E-04-3.64915E-05-3.15995E-05-8.86571E-06 5.75947E-19 9.58497E-19
 -1       971 9.52358E-05-2.85694E-05-2.85713E-05-1.91904E-11-1.05225E-18 6.71320E-21
 -1       972 1.05587E-04-2.10859E-05-3.62219E-05-9.20244E-06 3.33549E-19 7.22149E-19
 -1       973 1.08786E-04-3.77052E-05-3.04611E-05-6.14877E-06 3.92993E-19 7.65047E-19
 -1       974 9.84234E-05-3.18886E-05-2.85149E-05-3.86388E-07-8.48707E-19 1.74714E-18
 -1       975 9.47923E-05-3.29071E-05-2.64937E-05 2.69468E-05-2.40394E-19-8.98090E-19
 -1       976 1.04001E-04-3.60522E-05-2.91212E-05-2.22736E-06-8.00683E-19 1.75992E-19
 -1       977 9.98572E-05-3.31002E-05-2.86101E-05-6.72910E-07-7.18365E-19 1.07159E-18
 -1       978 1.03353E-04-1.61661E-05-3.73811E-05-3.29885E-06 4.33740E-19 5.69540E-19
 -1       979 1.10187E-04-3.31098E-05-3.30347E-05-1.11680E-05 3.32737E-19 1.27746E-18
 -1       980 9.52359E-05-2.85695E-05-2.85713E-05 4.07501E-10 1.70570E-18-1.32920E-18
 -1       981 1.09160E-04-4.13368E-05-2.90850E-05 1.67490E-05 5.96976E-21 3.62124E-19
 -1       982 1.06492E-04-3.73053E-05-2.96524E-05-3.85337E-06-6.39092E-19 2.96990E-20
 -1       983 9.46310E-05-2.81542E-05-2.84900E-05 1.99202E-06 1.38626E-19-1.80628E-18
 -1       984 9.49059E-05-2.83667E-05-2.85168E-05 1.23197E-06 3.52470E-19-1.02389E-18
 -1       985 9.50831E-05-2.85127E-05-2.85302E-05 7.57166E-07-8.20681E-19-5.56914E-19
 -1       986 9.51860E-05-2.85993E-05-2.85372E-05 4.62653E-07-1.99262E-19-5.50053E-19
 -1       987 9.52386E-05-2.86417E-05-2.85415E-05 2.80714E-07-7.24423E-19 2.03324E-19
 -1       988 9.52602E-05-2.86552E-05-2.85450E-05 1.68543E-07-3.84738E-19 9.45313E-19
 -1       989 9.52645E-05-2.86518E-05-2.85483E-05 9.94728E-08-1.20674E-18-6.17728E-19
 -1       990 9.52604E-05-2.86400E-05-2.85516E-05 5.70139E-08-1.00596E-18-2.60818E-19
 -1       991 9.52532E-05-2.86254E-05-2.85548E-05 3.10099E-08-2.38730E-19 5.80603E-19
 -1       992 9.52458E-05-2.86110E-05-2.85578E-05 1.52085E-08 2.06883E-19-5.45658E-19
 -1       993 9.52395E-05-2.85984E-05-2.85605E-05 5.75263E-09-5.03087E-21 1.31009E-18
 -1       994 9.52349E-05-2.85883E-05-2.85629E-05 2.52512E-10-8.85774E-19 1.31438E-18
 -1       995 9.52319E-05-2.85805E-05-2.85649E-05-2.78219E-09-5.51500E-19 2.04732E-18
 -1       996 9.52302E-05-2.85750E-05-2.85665E-05-4.29078E-09-1.43871E-18-5.80549E-20
 -1       997 9.52295E-05-2.85711E-05-2.85679E-05-4.86992E-09-8.91317E-19 1.83295E-18
 -1       998 9.52296E-05-2.85688E-05-2.85689E-05-4.85554E-09-2.12476E-18 9.35431E-19
 -1       999 9.52301E-05-2.85675E-05-2.85697E-05-4.53605E-09-2.30999E-18 1.46553E-18
 -1      1000 9.52309E-05-2.85670E-05-2.85702E-05-4.05945E-09 8.11347E-19 1.68411E-18
 -1      1001 9.52317E-05-2.85669E-05-2.85706E-05-3.52105E-09 2.70046E-18 7.02673E-19
 -1      1002 9.52326E-05-2.85672E-05-2.85709E-05-2.97962E-09 8.39594E-19 3.34329E-19
 -1      1003 9.52335E-05-2.85676E-05-2.85711E-05-2.46981E-09 1.46970E-18 2.94760E-18
 -1      1004 9.52342E-05-2.85680E-05-2.85712E-05-2.01025E-09 1.22580E-18 3.83364E-18
 -1      1005 9.52348E-05-2.85685E-05-2.85713E-05-1.60947E-09 9.37695E-19 4.81518E-18
 -1      1006 9.52354E-05-2.85690E-05-2.85713E-05-1.26593E-09 1.62398E-18 4.09238E-18
 -1      1007 9.52358E-05-2.85694E-05-2.85713E-05-1.01348E-09 8.39481E-19 2.52045E-18
 -1      1008 9.37892E-05-2.76668E-05-2.83376E-05 5.12943E-06-8.29786E-19-1.03973E-18
 -1      1009 9.55173E-05-2.89906E-05-2.85114E-05 1.65078E-08-8.76150E-19 2.27704E-19
 -1      1010 9.56947E-05-2.91934E-05-2.85005E-05 6.46742E-08 1.99243E-19 7.51527E-19
 -1      1011 9.53308E-05-2.87563E-05-2.85319E-05-1.79208E-08-1.89519E-20-2.26259E-20
 -1      1012 9.52854E-05-2.86913E-05-2.85403E-05-1.94735E-08-4.53175E-19-3.99509E-19
 -1      1013 9.52576E-05-2.86472E-05-2.85473E-05-1.69328E-08 1.55505E-19-5.12035E-19
 -1      1014 9.52411E-05-2.86174E-05-2.85530E-05-1.28614E-08 6.30919E-19 9.36879E-19
 -1      1015 9.52317E-05-2.85975E-05-2.85575E-05-8.67581E-09-2.71505E-19 1.81246E-18
 -1      1016 9.52270E-05-2.85844E-05-2.85611E-05-5.05646E-09-8.32215E-19 9.55380E-19
 -1      1017 9.52250E-05-2.85760E-05-2.85638E-05-2.24428E-09-4.24256E-19 1.37515E-18
 -1      1018 9.52247E-05-2.85708E-05-2.85659E-05-2.43044E-10 1.14763E-19 2.09993E-18
 -1      1019 9.52254E-05-2.85678E-05-2.85675E-05 1.05844E-09 2.64520E-20 1.13029E-18
 -1      1020 9.52266E-05-2.85663E-05-2.85687E-05 1.80823E-09-6.90431E-19 1.41425E-18
 -1      1021 9.52280E-05-2.85657E-05-2.85696E-05 2.15347E-09-9.03811E-19 1.69156E-18
 -1      1022 9.52294E-05-2.85657E-05-2.85702E-05 2.22166E-09-2.22381E-18 2.82164E-18
 -1      1023 9.52308E-05-2.85660E-05-2.85706E-05 2.11432E-09-3.85117E-19 1.12155E-18
 -1      1024 9.52320E-05-2.85666E-05-2.85709E-05 1.90740E-09-1.04929E-18-1.32910E-18
 -1      1025 9.52330E-05-2.85672E-05-2.85711E-05 1.65456E-09 5.33772E-19-1.14513E-18
 -1      1026 9.52339E-05-2.85678E-05-2.85712E-05 1.39161E-09 2.78965E-18-7.75633E-19
 -1      1027 9.52347E-05-2.85684E-05-2.85713E-05 1.14132E-09 2.89912E-18-1.27448E-18
 -1      1028 9.52353E-05-2.85689E-05-2.85713E-05 9.15988E-10 7.69227E-19-3.37546E-18
 -1      1029 1.16646E-04-3.83199E-05-3.35724E-05-8.49083E-06 3.36037E-19 7.69108E-19
 -1      1030 9.52356E-05-2.85692E-05-2.85713E-05 6.32647E-10 1.25155E-18-3.09283E-18
 -1      1031 9.54033E-05-2.88515E-05-2.85222E-05-8.05852E-09-6.88723E-19-3.64670E-19
 -1      1032 1.18140E-04-4.50093E-05-3.13129E-05 4.49803E-06 4.39511E-19 5.44367E-19
 -1      1033 9.70123E-05-3.05220E-05-2.84958E-05 4.57759E-07-3.49663E-19 1.20196E-18
 -1      1034 9.33461E-05-2.83058E-05-2.78680E-05 1.22648E-05-6.71389E-20-8.15493E-19
 -1      1035 9.34295E-05-2.76929E-05-2.81688E-05 8.00679E-06-8.50111E-20-1.17921E-18
 -1      1036 9.42389E-05-2.78883E-05-2.84359E-05 3.23400E-06-5.32965E-19-1.27191E-18
 -1      1037 9.52355E-05-2.85691E-05-2.85713E-05-5.61230E-10-1.04401E-19-1.58944E-18
 -1      1038 9.59679E-05-2.94881E-05-2.84914E-05 1.47493E-07-3.69163E-19 7.78410E-20
 -1      1039 9.63846E-05-2.99135E-05-2.84876E-05 2.76266E-07-1.41139E-19 6.05688E-19
 -1      1040 9.52354E-05-2.85690E-05-2.85713E-05-4.23398E-11 6.81359E-19-1.36679E-18
 -1      1041 9.79433E-05-3.13785E-05-2.85278E-05 6.83918E-07-5.33170E-19-1.88443E-19
 -1      1042 1.14760E-04-4.07280E-05-3.17246E-05-4.68680E-06 7.55646E-19 1.17576E-18
 -1      1043 1.02064E-04-3.62126E-05-2.82205E-05 1.85848E-05-4.12675E-19 4.02994E-19
 -1      1044 1.03761E-04-3.60074E-05-2.90364E-05 8.83831E-07-5.37933E-19 2.62208E-19
 -1      1045 1.01199E-04-3.41033E-05-2.87553E-05 1.04759E-06-9.90343E-19 3.83200E-19
 -1      1046 9.55666E-05-2.90981E-05-2.84864E-05 2.66565E-06-3.46842E-19 6.33106E-19
 -1      1047 1.07011E-04-3.81229E-05-2.95302E-05 1.24058E-07-9.74080E-19-1.85461E-20
 -1      1048 9.54373E-05-2.88830E-05-2.85233E-05 8.47050E-08-1.30121E-18-1.46275E-18
 -1      1049 9.54073E-05-2.88698E-05-2.85161E-05 1.03913E-06 4.18182E-19-3.29820E-19
 -1      1050 9.53782E-05-2.88219E-05-2.85241E-05 6.32670E-07-1.25872E-19 6.38885E-19
 -1      1051 9.53534E-05-2.87827E-05-2.85303E-05 3.77961E-07-4.81390E-19 1.08291E-18
 -1      1052 9.53292E-05-2.87459E-05-2.85357E-05 2.20991E-07-2.71703E-19 7.70139E-19
 -1      1053 9.53061E-05-2.87112E-05-2.85407E-05 1.25781E-07-2.06196E-18 7.54453E-19
 -1      1054 9.52852E-05-2.86794E-05-2.85453E-05 6.89686E-08-8.66826E-19 1.16867E-18
 -1      1055 9.52676E-05-2.86517E-05-2.85497E-05 3.56789E-08-1.99572E-19 3.83380E-20
 -1      1056 9.52537E-05-2.86285E-05-2.85537E-05 1.65975E-08-3.05138E-19 8.35755E-20
 -1      1057 9.52433E-05-2.86099E-05-2.85572E-05 5.97643E-09 7.45951E-21-2.63871E-19
 -1      1058 9.52361E-05-2.85956E-05-2.85602E-05 3.16318E-10-7.66516E-19-1.64761E-18
 -1      1059 9.52315E-05-2.85851E-05-2.85628E-05-2.48537E-09-1.12836E-18-3.32447E-19
 -1      1060 9.52289E-05-2.85776E-05-2.85649E-05-3.68235E-09-1.35761E-18-1.75255E-18
 -1      1061 9.52277E-05-2.85723E-05-2.85666E-05-3.99413E-09 5.77410E-19-1.01580E-18
 -1      1062 9.52276E-05-2.85692E-05-2.85679E-05-3.83013E-09-1.56523E-18-1.12509E-18
 -1      1063 9.52281E-05-2.85673E-05-2.85689E-05-3.46077E-09-1.64575E-18-1.24603E-18
 -1      1064 9.52290E-05-2.85665E-05-2.85697E-05-3.01238E-09 2.35633E-19 9.98260E-19
 -1      1065 9.52301E-05-2.85663E-05-2.85702E-05-2.55513E-09 1.45654E-18 6.80834E-19
 -1      1066 9.52312E-05-2.85664E-05-2.85706E-05-2.12505E-09 1.78329E-18 6.98323E-19
 -1      1067 9.52323E-05-2.85669E-05-2.85709E-05-1.73892E-09 1.80584E-18-1.39188E-18
 -1      1068 9.52332E-05-2.85674E-05-2.85711E-05-1.40273E-09 1.94861E-18-6.90885E-19
 -1      1069 9.52340E-05-2.85679E-05-2.85712E-05-1.11698E-09 2.79478E-18-2.19350E-18
 -1      1070 9.52348E-05-2.85685E-05-2.85713E-05-8.78106E-10 1.20730E-18 3.98538E-20
 -1      1071 1.11287E-04-4.03101E-05-3.04223E-05-1.46728E-06 4.36871E-19 1.05920E-18
 -1      1072 9.52729E-05-2.86666E-05-2.85455E-05-7.72342E-10-1.23984E-18 6.59067E-20
 -1      1073 9.53063E-05-2.87153E-05-2.85390E-05 1.12567E-08-3.44913E-19-1.04909E-18
 -1      1074 9.52386E-05-2.86087E-05-2.85557E-05-6.21883E-09 5.83382E-19 5.48682E-19
 -1      1075 9.52310E-05-2.85924E-05-2.85594E-05-5.35288E-09-7.09227E-20-5.25095E-19
 -1      1076 9.52270E-05-2.85814E-05-2.85624E-05-3.93088E-09-1.24606E-18 4.21092E-19
 -1      1077 9.52253E-05-2.85743E-05-2.85647E-05-2.51303E-09-2.00508E-18 3.70591E-19
 -1      1078 9.52251E-05-2.85699E-05-2.85665E-05-1.34144E-09 1.19985E-18 8.98033E-19
 -1      1079 9.52258E-05-2.85673E-05-2.85679E-05-4.78125E-10-1.03110E-18 8.88625E-19
 -1      1080 9.52269E-05-2.85660E-05-2.85689E-05 1.00634E-10-1.58321E-18 8.10991E-19
 -1      1081 9.52282E-05-2.85656E-05-2.85697E-05 4.48092E-10-1.15599E-18 7.53924E-19
 -1      1082 9.52296E-05-2.85657E-05-2.85703E-05 6.23941E-10-1.21012E-18-1.45903E-18
 -1      1083 9.52309E-05-2.85661E-05-2.85706E-05 6.81814E-10 3.55874E-20-1.48596E-18
 -1      1084 9.52321E-05-2.85667E-05-2.85709E-05 6.64806E-10 2.65176E-19-1.57191E-18
 -1      1085 9.52332E-05-2.85673E-05-2.85711E-05 6.05020E-10 5.34254E-19-3.61479E-18
 -1      1086 9.52340E-05-2.85679E-05-2.85712E-05 5.25031E-10 4.11778E-18-3.98015E-18
 -1      1087 9.52348E-05-2.85685E-05-2.85713E-05 4.35524E-10 2.28090E-18-3.22503E-18
 -1      1088 9.53581E-05-2.87845E-05-2.85315E-05 3.66423E-08-9.29410E-19-1.96422E-18
 -1      1089 9.60266E-05-2.95212E-05-2.85022E-05 5.33928E-07 2.08147E-19-8.75147E-19
 -1      1090 9.77780E-05-3.15238E-05-2.83959E-05 9.13384E-06 3.19941E-19-1.99054E-19
 -1      1091 9.92948E-05-3.25538E-05-2.86032E-05 9.14016E-07-7.53697E-19-5.61799E-19
 -1      1092 9.64625E-05-2.99530E-05-2.85040E-05 8.70756E-07-8.67238E-19-1.61803E-19
 -1      1093 1.09127E-04-4.00264E-05-2.96109E-05 6.79374E-06 3.45047E-19 8.80077E-19
 -1      1094 9.64583E-05-3.01287E-05-2.84257E-05 6.25193E-06 7.26482E-20 4.33407E-19
 -1      1095 9.52516E-05-2.86324E-05-2.85511E-05-5.39050E-09-1.97608E-19 7.24309E-19
 -1      1096 9.55583E-05-2.90237E-05-2.85148E-05 1.69381E-07-4.44487E-19-1.51645E-18
 -1      1097 9.58379E-05-2.94312E-05-2.84596E-05 4.14832E-06-9.26843E-19 6.56175E-19
 -1      1098 9.57432E-05-2.92265E-05-2.85071E-05 3.10417E-07 2.61234E-19-1.21982E-18
 -1      1099 9.52355E-05-2.85691E-05-2.85713E-05 3.08310E-10 1.22245E-18-1.60142E-18
 -1      1100 9.54556E-05-2.89452E-05-2.85045E-05 1.67568E-06 5.31399E-19 3.78774E-19
 -1      1101 9.71336E-05-3.05880E-05-2.85195E-05 1.35133E-06-1.33868E-18-7.20501E-19
 -1      1102 1.01626E-04-3.48730E-05-2.85925E-05 1.15822E-05-4.18077E-19 9.52656E-19
 -1      1103 1.05778E-04-3.78404E-05-2.91121E-05 9.67750E-06-6.20486E-19 1.68016E-18
 -1      1104 1.02040E-04-3.47472E-05-2.88398E-05 3.56970E-06-1.00063E-18 1.40345E-19
 -1      1105 1.05340E-04-3.72155E-05-2.91953E-05 4.13853E-06-7.78566E-19 4.07192E-19
 -1      1106 9.52349E-05-2.85686E-05-2.85713E-05-3.83912E-10-3.15061E-19-2.34348E-18
 -1      1107 9.55498E-05-2.90068E-05-2.85185E-05 4.29097E-07-7.82815E-20-9.93877E-19
 -1      1108 9.54462E-05-2.88879E-05-2.85250E-05 2.46805E-07-3.50220E-19-9.80532E-19
 -1      1109 9.53749E-05-2.88011E-05-2.85316E-05 1.36089E-07-7.14491E-19-7.99191E-19
 -1      1110 9.53251E-05-2.87365E-05-2.85380E-05 7.09037E-08-1.20669E-18-3.76570E-19
 -1      1111 9.52902E-05-2.86880E-05-2.85438E-05 3.38604E-08-1.68506E-18-7.19824E-20
 -1      1112 9.52659E-05-2.86516E-05-2.85490E-05 1.37146E-08-2.43513E-19-6.68295E-19
 -1      1113 9.52494E-05-2.86245E-05-2.85535E-05 3.40093E-09-2.44470E-19-1.84984E-18
 -1      1114 9.52386E-05-2.86047E-05-2.85574E-05-1.39776E-09-3.51379E-19-4.11904E-19
 -1      1115 9.52319E-05-2.85906E-05-2.85606E-05-3.24405E-09 2.07129E-19-8.06481E-19
 -1      1116 9.52282E-05-2.85808E-05-2.85632E-05-3.61144E-09-1.19755E-18-9.30605E-19
 -1      1117 9.52264E-05-2.85739E-05-2.85653E-05-3.28870E-09-1.25487E-18-1.08142E-18
 -1      1118 9.52261E-05-2.85699E-05-2.85670E-05-2.74536E-09 5.57521E-19-1.19140E-18
 -1      1119 9.52266E-05-2.85675E-05-2.85682E-05-2.18272E-09-1.75685E-18 8.84134E-19
 -1      1120 9.52276E-05-2.85662E-05-2.85691E-05-1.68293E-09-8.51519E-19 2.05023E-19
 -1      1121 9.52288E-05-2.85658E-05-2.85698E-05-1.27278E-09-6.67177E-20-1.38350E-18
 -1      1122 9.52300E-05-2.85659E-05-2.85703E-05-9.51075E-10 1.25378E-18-2.08104E-18
 -1      1123 9.52313E-05-2.85663E-05-2.85707E-05-7.05551E-10 4.41134E-19-2.74601E-18
 -1      1124 9.52324E-05-2.85668E-05-2.85709E-05-5.21230E-10 2.36839E-18-3.20460E-18
 -1      1125 9.52334E-05-2.85674E-05-2.85711E-05-3.84176E-10 2.69919E-18-4.43118E-18
 -1      1126 9.52342E-05-2.85680E-05-2.85712E-05-2.84035E-10 3.48235E-18-2.89511E-18
 -1      1127 9.59450E-05-2.94246E-05-2.85087E-05 1.17245E-06-1.36553E-19-6.65454E-19
 -1      1128 9.63360E-05-2.98140E-05-2.85093E-05 1.86027E-06-5.52012E-19-1.82149E-20
 -1      1129 9.98457E-05-3.30201E-05-2.86409E-05 5.91832E-06 2.45028E-19 6.02620E-19
 -1      1130 9.57049E-05-2.91755E-05-2.85126E-05 7.20502E-07-1.98038E-20-9.02544E-19
 -1      1131 9.69846E-05-3.04365E-05-2.85204E-05 2.85583E-06-7.84594E-19 7.47131E-19
 -1      1132 9.80557E-05-3.14276E-05-2.85546E-05 4.20451E-06 7.28407E-20 3.90733E-19
 -1      1133 9.97228E-05-3.28635E-05-2.86542E-05 2.76815E-06-5.06533E-19-3.69376E-19
 -1      1134 1.02189E-04-3.50286E-05-2.87856E-05 7.78018E-06-4.99284E-19 1.70008E-18
 -1      1135 9.81625E-05-3.15187E-05-2.85617E-05 1.99255E-06-5.81853E-19-8.07433E-19
 -1      1136 1.31844E-04 3.28982E-10-4.78908E-05-3.41743E-05 9.31736E-21 4.72433E-18
 -1      1137 9.64505E-05 7.50598E-11-4.01899E-05-1.07207E-05-2.66815E-20 2.46587E-18
 -1      1138 7.81611E-05-1.30313E-11-3.39334E-05-7.39600E-06-5.84453E-20 1.00860E-18
 -1      1139 6.73300E-05-4.78435E-11-2.98860E-05-1.20550E-05-3.81165E-20 1.43354E-19
 -1      1140 6.50363E-05-3.89851E-11-2.87873E-05-1.83295E-05-3.82753E-20-3.19421E-19
 -1      1141 6.94852E-05-5.26153E-12-3.01681E-05-2.17429E-05-2.96462E-20-4.95463E-19
 -1      1142 7.70348E-05 3.10644E-11-3.28167E-05-2.06061E-05-2.58345E-20-5.72555E-19
 -1      1143 8.43387E-05 5.48729E-11-3.55272E-05-1.55513E-05-2.30816E-20-6.35632E-19
 -1      1144 8.92822E-05 6.31825E-11-3.74756E-05-8.40372E-06-1.31290E-20-7.33636E-19
 -1      1145 9.13518E-05 6.05522E-11-3.83854E-05-8.81038E-07-1.03497E-20-7.78913E-19
 -1      1146 9.09750E-05 5.29154E-11-3.83438E-05 5.98099E-06-4.26163E-21-8.47840E-19
 -1      1147 8.89461E-05 4.46897E-11-3.76199E-05 1.17617E-05 3.38813E-21-8.34182E-19
 -1      1148 8.60533E-05 3.79881E-11-3.65203E-05 1.65617E-05 1.42937E-20-7.16563E-19
 -1      1149 8.30491E-05 3.41312E-11-3.53692E-05 2.06508E-05 2.40875E-20-4.30882E-19
 -1      1150 8.10013E-05 3.52089E-11-3.46194E-05 2.43813E-05 3.85135E-20 1.38166E-19
 -1      1151 8.22305E-05 5.09857E-11-3.50293E-05 2.87176E-05 4.16105E-20 1.38314E-18
 -1      1152 9.95075E-05 1.40259E-10-3.78514E-05 3.83391E-05 1.18373E-19 4.06713E-18
 -1      1153 1.54695E-04-3.28981E-05-4.87650E-05-2.16993E-05-6.75509E-20 6.33115E-18
 -1      1154 1.42063E-04-4.24736E-05-4.57951E-05 1.65105E-06-1.57230E-20 6.19054E-18
 -1      1155 1.61731E-04-4.88420E-05-4.99322E-05 2.76522E-06 2.84550E-20 6.20536E-18
 -1      1156 1.95822E-04-5.95518E-05-5.74791E-05 3.77951E-06 4.44428E-20 7.29888E-18
 -1      1157 2.28478E-04-6.99013E-05-6.33290E-05 1.58433E-06 2.95456E-19 9.89938E-18
 -1      1158 2.30740E-04-6.93677E-05-6.34319E-05-5.18135E-06 3.21542E-20 1.26792E-17
 -1      1159 1.90695E-04-5.48455E-05-5.84574E-05-9.56620E-06-5.48454E-20 1.31748E-17
 -1      1160 1.17536E-04-2.90596E-05-5.20533E-05-1.05284E-05-1.39125E-19 1.03389E-17
 -1      1161 6.98190E-05-1.21178E-05-4.85888E-05-1.61071E-06-1.15408E-19 5.90848E-18
 -1      1162 1.04935E-04-2.42560E-05-5.12893E-05 9.23562E-06-5.12455E-20 6.51368E-19
 -1      1163 1.84913E-04-5.34568E-05-5.81584E-05 9.13648E-06-9.52383E-20-2.65291E-18
 -1      1164 2.32237E-04-7.08426E-05-6.36682E-05 3.32055E-06-1.59202E-19-3.37289E-18
 -1      1165 2.28225E-04-7.03034E-05-6.33113E-05-6.31788E-07 9.36501E-20-7.27707E-19
 -1      1166 1.94628E-04-5.91927E-05-5.70132E-05-1.66889E-06 1.46907E-19 1.33704E-18
 -1      1167 1.58390E-04-4.75231E-05-4.82041E-05-1.38189E-06 2.31875E-20 3.21534E-18
 -1      1168 1.31658E-04-3.92843E-05-4.05052E-05-8.41718E-07-1.83833E-20 3.17891E-18
 -1      1169 1.15189E-04-3.43885E-05-3.52725E-05-4.55494E-07 4.32814E-20 3.03852E-18
 -1      1170 1.05739E-04-3.16302E-05-3.21325E-05-2.30795E-07 2.85493E-20 3.39247E-18
 -1      1171 1.00537E-04-3.01181E-05-3.03781E-05-1.12121E-07-1.03601E-19 1.96718E-18
 -1      1172 9.77646E-05-2.93109E-05-2.94400E-05-5.20894E-08 1.08946E-19-4.96639E-19
 -1      1173 9.63383E-05-2.88941E-05-2.89568E-05-2.26798E-08-1.45247E-19 2.91155E-19
 -1      1174 9.56398E-05-2.86893E-05-2.87190E-05-8.72922E-09-6.97646E-20-9.38314E-19
 -1      1175 9.53242E-05-2.85966E-05-2.86099E-05-2.43103E-09-1.47363E-20 1.13899E-18
 -1      1176 9.52025E-05-2.85609E-05-2.85661E-05 1.76907E-10-3.05987E-19-7.58185E-19
 -1      1177 9.51730E-05-2.85520E-05-2.85536E-05 8.03993E-10 2.12619E-19-3.32052E-18
 -1      1178 9.51834E-05-2.85553E-05-2.85551E-05 1.09776E-09-1.55448E-19-1.55579E-18
 -1      1179 9.52056E-05-2.85619E-05-2.85611E-05 9.14382E-10-1.41977E-19-1.21760E-18
 -1      1180 9.52275E-05-2.85684E-05-2.85676E-05 6.53997E-10 2.76307E-19 3.65450E-18
 -1      1181 9.52448E-05-2.85736E-05-2.85728E-05 4.15711E-10-2.40179E-20 3.08359E-18
 -1      1182 9.52564E-05-2.85770E-05-2.85764E-05 2.28774E-10 2.00328E-20 2.75653E-18
 -1      1183 9.52629E-05-2.85789E-05-2.85785E-05 9.57494E-11-9.55952E-20-4.51071E-18
 -1      1184 9.52654E-05-2.85796E-05-2.85794E-05 8.78003E-12 4.06545E-19-2.11217E-18
 -1      1185 9.52651E-05-2.85795E-05-2.85794E-05-4.28243E-11 2.12093E-19-6.34730E-19
 -1      1186 9.52631E-05-2.85789E-05-2.85789E-05-6.92239E-11 1.58654E-19-1.38799E-19
 -1      1187 9.52601E-05-2.85780E-05-2.85780E-05-7.88057E-11 2.32655E-20 9.56933E-19
 -1      1188 9.52568E-05-2.85770E-05-2.85770E-05-7.79464E-11 2.11369E-19 1.29144E-19
 -1      1189 9.52534E-05-2.85760E-05-2.85760E-05-7.11772E-11 1.05073E-19 1.82560E-19
 -1      1190 9.52503E-05-2.85751E-05-2.85751E-05-6.23501E-11-1.47248E-19-1.53146E-18
 -1      1191 9.52475E-05-2.85742E-05-2.85743E-05-5.23867E-11-7.53530E-20-1.58390E-18
 -1      1192 9.52450E-05-2.85735E-05-2.85735E-05-4.06733E-11 3.32426E-19 4.93355E-18
 -1      1193 9.52431E-05-2.85729E-05-2.85730E-05-3.20643E-11 6.46917E-19 6.05112E-18
 -1      1194 9.52415E-05-2.85725E-05-2.85725E-05-2.45035E-11 2.15527E-19 8.24650E-18
 -1      1195 9.52403E-05-2.85721E-05-2.85721E-05-1.82797E-11 1.95002E-19 8.84183E-18
 -1      1196 9.52393E-05-2.85718E-05-2.85718E-05-1.33179E-11 2.54602E-20 3.85808E-18
 -1      1197 9.52386E-05-2.85716E-05-2.85716E-05-9.47213E-12 5.54764E-21 7.90228E-19
 -1      1198 9.52381E-05-2.85714E-05-2.85714E-05-6.56703E-12 2.71004E-20 2.44884E-18
 -1      1199 9.52377E-05-2.85713E-05-2.85713E-05-4.41280E-12 8.60622E-19 1.27227E-17
 -1      1200 9.52374E-05-2.85712E-05-2.85712E-05-2.80404E-12-2.38741E-19 1.17287E-17
 -1      1201 9.52372E-05-2.85712E-05-2.85712E-05-1.46829E-12-9.45642E-19-3.58222E-18
 -1      1202 9.52371E-05-2.85711E-05-2.85711E-05 3.30211E-14-4.41671E-19-9.53652E-18
 -1      1203 9.52371E-05-2.85711E-05-2.85711E-05 2.29681E-12 5.35249E-19-7.41178E-18
 -1      1204 9.52371E-05-2.85711E-05-2.85711E-05 4.16344E-12-1.10083E-18 1.18533E-18
 -1      1205 1.22929E-04-3.55967E-05-3.55595E-05 1.24221E-05-6.03776E-20 6.32480E-18
 -1      1206 8.28485E-05-2.40575E-05-2.72152E-05 1.02775E-06 3.45166E-20 5.08792E-18
 -1      1207 7.26603E-05-2.15977E-05-2.26103E-05 2.41866E-07 8.28438E-20 3.66252E-18
 -1      1208 6.72333E-05-2.01757E-05-2.03812E-05 1.18142E-07 2.42562E-20 2.71112E-18
 -1      1209 6.38515E-05-1.92090E-05-1.92333E-05 9.67426E-08 1.03298E-20 2.14653E-18
 -1      1210 6.18180E-05-1.85990E-05-1.86259E-05 9.85207E-08-3.75159E-20 1.90089E-18
 -1      1211 6.10636E-05-1.83646E-05-1.84240E-05 8.83400E-08-1.30612E-20 1.53114E-18
 -1      1212 6.16711E-05-1.85363E-05-1.86188E-05 5.76907E-08 1.26228E-20 1.11507E-18
 -1      1213 6.36378E-05-1.91148E-05-1.92006E-05 1.08044E-08 4.37082E-20 4.91809E-19
 -1      1214 6.67771E-05-2.00459E-05-2.01151E-05-4.10755E-08 5.28271E-20 2.83783E-19
 -1      1215 7.07301E-05-2.12233E-05-2.12633E-05-8.57237E-08 7.80875E-20 5.55865E-21
 -1      1216 7.50507E-05-2.25138E-05-2.25213E-05-1.14693E-07 3.02949E-20-4.42998E-19
 -1      1217 7.93097E-05-2.37885E-05-2.37686E-05-1.25402E-07 5.33201E-20-7.16775E-19
 -1      1218 8.31767E-05-2.49475E-05-2.49099E-05-1.20375E-07-9.80482E-20-6.04702E-19
 -1      1219 8.64558E-05-2.59311E-05-2.58862E-05-1.04898E-07 3.16727E-21-1.41997E-19
 -1      1220 8.90791E-05-2.67184E-05-2.66745E-05-8.46129E-08-1.11024E-19 5.36384E-19
 -1      1221 9.10747E-05-2.73177E-05-2.72797E-05-6.39767E-08 5.42891E-20 4.66080E-19
 -1      1222 9.25269E-05-2.77540E-05-2.77239E-05-4.57313E-08-9.95516E-20 2.87627E-20
 -1      1223 9.35427E-05-2.80593E-05-2.80372E-05-3.10704E-08 3.68583E-20 4.98790E-19
 -1      1224 9.42276E-05-2.82654E-05-2.82500E-05-2.01132E-08-1.24240E-19 1.42760E-18
 -1      1225 9.46734E-05-2.83997E-05-2.83896E-05-1.23924E-08 9.23324E-20 1.74112E-18
 -1      1226 9.49534E-05-2.84842E-05-2.84779E-05-7.22157E-09 2.30036E-19 1.98193E-18
 -1      1227 9.51222E-05-2.85353E-05-2.85315E-05-3.91623E-09-1.59486E-19 2.97125E-18
 -1      1228 9.52190E-05-2.85647E-05-2.85626E-05-1.89837E-09 2.57047E-19 1.73975E-18
 -1      1229 9.52705E-05-2.85804E-05-2.85793E-05-7.26615E-10-9.56169E-22 1.26568E-18
 -1      1230 9.52946E-05-2.85878E-05-2.85873E-05-8.69475E-11 8.00847E-20 2.03803E-18
 -1      1231 9.53026E-05-2.85904E-05-2.85902E-05 2.32020E-10-1.10162E-20 1.15298E-18
 -1      1232 9.53017E-05-2.85902E-05-2.85903E-05 3.66185E-10 2.57614E-20 1.21791E-19
 -1      1233 9.52962E-05-2.85887E-05-2.85888E-05 3.99395E-10-4.25552E-20-2.09152E-18
 -1      1234 9.52889E-05-2.85865E-05-2.85867E-05 3.81392E-10-1.97950E-19-2.12864E-18
 -1      1235 9.52810E-05-2.85842E-05-2.85844E-05 3.40515E-10 3.12138E-19-2.89718E-18
 -1      1236 9.52735E-05-2.85820E-05-2.85821E-05 2.92176E-10-1.98339E-19-5.66396E-18
 -1      1237 9.52667E-05-2.85800E-05-2.85801E-05 2.44260E-10 6.15213E-19-5.87884E-18
 -1      1238 9.52607E-05-2.85782E-05-2.85783E-05 2.00435E-10-2.33013E-19-4.94478E-18
 -1      1239 9.52557E-05-2.85767E-05-2.85768E-05 1.62090E-10-1.24683E-20-1.04578E-18
 -1      1240 9.52515E-05-2.85755E-05-2.85755E-05 1.29455E-10-6.69617E-20-3.00290E-18
 -1      1241 9.52481E-05-2.85744E-05-2.85745E-05 1.02204E-10-6.58867E-19 3.48640E-21
 -1      1242 9.52454E-05-2.85736E-05-2.85737E-05 7.97780E-11 8.00201E-20 2.94561E-18
 -1      1243 9.52433E-05-2.85730E-05-2.85730E-05 6.15545E-11-1.12043E-19 4.19149E-18
 -1      1244 9.52416E-05-2.85725E-05-2.85725E-05 4.69219E-11 3.32398E-19 2.09805E-18
 -1      1245 9.52403E-05-2.85721E-05-2.85721E-05 3.53178E-11 1.79058E-19 1.16692E-18
 -1      1246 9.52393E-05-2.85718E-05-2.85718E-05 2.62423E-11-5.59000E-19 3.58811E-18
 -1      1247 9.52386E-05-2.85716E-05-2.85716E-05 1.92595E-11 2.24672E-19 2.44926E-18
 -1      1248 9.52380E-05-2.85714E-05-2.85714E-05 1.39889E-11 6.72699E-19-7.43880E-18
 -1      1249 9.52376E-05-2.85713E-05-2.85713E-05 1.00922E-11-8.78515E-19-6.51352E-18
 -1      1250 9.52374E-05-2.85712E-05-2.85712E-05 7.22271E-12 4.47028E-19-4.50510E-18
 -1      1251 9.52372E-05-2.85712E-05-2.85712E-05 4.92348E-12-6.81192E-19-3.25504E-18
 -1      1252 9.52371E-05-2.85711E-05-2.85711E-05 2.18568E-12-5.61562E-20-1.45188E-18
 -1      1253 9.52371E-05-2.85711E-05-2.85711E-05-2.70519E-12 1.70225E-18-8.45299E-18
 -1      1254 9.52371E-05-2.85711E-05-2.85711E-05-4.53630E-12 1.10379E-19-8.72744E-18
 -1      1255 9.52371E-05-2.85712E-05-2.85711E-05-4.85602E-12-9.05693E-18-6.61966E-19
 -1      1256 9.52371E-05-2.85712E-05-2.85711E-05-7.21792E-12-8.89765E-18 6.71939E-19
 -1      1257 9.52371E-05-2.85712E-05-2.85711E-05-1.19639E-12-5.24834E-18-7.07302E-19
 -1      1258 9.52371E-05-2.85711E-05-2.85712E-05 3.06352E-12-3.75814E-18-1.50558E-18
 -1      1259 9.52371E-05-2.85709E-05-2.85712E-05 5.17269E-12-3.36131E-18-7.19039E-19
 -1      1260 9.52370E-05-2.85708E-05-2.85712E-05 5.53413E-12-2.82195E-18 2.12724E-20
 -1      1261 9.52370E-05-2.85707E-05-2.85713E-05 4.56229E-12-5.22878E-18 1.77955E-19
 -1      1262 9.52370E-05-2.85706E-05-2.85713E-05 2.54848E-12-4.58517E-18-1.76178E-19
 -1      1263 9.52370E-05-2.85706E-05-2.85713E-05 3.94602E-14-7.88528E-18 8.03514E-21
 -1      1264 9.52370E-05-2.85706E-05-2.85713E-05-2.47040E-12-2.57847E-19 8.95611E-19
 -1      1265 9.52370E-05-2.85707E-05-2.85713E-05-4.47707E-12-6.97141E-18-2.30492E-18
 -1      1266 9.52370E-05-2.85708E-05-2.85712E-05-5.52945E-12-1.23449E-17 3.18115E-19
 -1      1267 9.52371E-05-2.85709E-05-2.85712E-05-5.17152E-12-1.01603E-17 7.31786E-19
 -1      1268 9.52371E-05-2.85711E-05-2.85712E-05-3.07562E-12-2.38943E-18 4.40397E-19
 -1      1269 9.52371E-05-2.85712E-05-2.85711E-05 1.38363E-12 2.25158E-18-9.63701E-20
 -1      1270 9.52371E-05-2.85712E-05-2.85711E-05 6.85882E-12-1.72232E-18-1.16199E-18
 -1      1271 9.52371E-05-2.85712E-05-2.85711E-05 4.37190E-12-5.01937E-18 5.98152E-19
 -1      1272 3.58367E-05-1.11519E-04 1.98881E-05-1.20623E-05 3.13741E-18 1.15286E-18
 -1      1273 1.59639E-05-5.39714E-05 6.90301E-06-1.84334E-05 6.97616E-18 2.57159E-18
 -1      1274 9.20051E-06 7.71268E-06-1.21269E-05 1.54136E-05 7.49116E-18 4.60108E-18
 -1      1275 4.24690E-05 3.88966E-05-3.41773E-05 7.43212E-05 7.94856E-18 7.14726E-18
 -1      1276 1.23780E-04 2.19409E-05-5.59638E-05 1.23909E-04 5.51927E-18 7.93331E-18
 -1      1277 2.31756E-04-3.14005E-05-7.45928E-05 1.31677E-04 3.20390E-18 6.82709E-18
 -1      1278 3.21300E-04-8.57740E-05-8.63896E-05 8.26728E-05 6.84403E-19 3.75829E-18
 -1      1279 3.50192E-04-1.04732E-04-8.99977E-05-5.55111E-06 6.97214E-20 6.29769E-19
 -1      1280 3.09203E-04-7.93579E-05-8.48221E-05-9.02528E-05 6.00546E-19-1.73388E-18
 -1      1281 2.14063E-04-2.30750E-05-7.19846E-05-1.30395E-04 1.65383E-18-2.80368E-18
 -1      1282 1.09326E-04 2.63150E-05-5.31743E-05-1.17522E-04 4.11065E-18-5.01105E-18
 -1      1283 3.39173E-05 3.83124E-05-3.13916E-05-6.51886E-05 6.05798E-18-5.17622E-18
 -1      1284 7.13165E-06 5.15167E-06-1.03948E-05-1.07037E-05 6.81523E-18-3.81419E-18
 -1      1285 1.65337E-05-5.39658E-05 7.05306E-06 1.60601E-05 6.22908E-18-2.03161E-18
 -1      1286 3.52374E-05-1.08090E-04 1.90659E-05 6.40826E-06 3.64309E-18-5.00146E-19
 -1      1287 3.84889E-05-1.26882E-04 2.35203E-05-2.50612E-05 6.29345E-19-2.02229E-19
 -1      1288 2.25478E-05-1.03715E-04 1.92236E-05-5.11629E-05-2.55465E-18-1.25149E-18
 -1      1289 2.09677E-06-5.09486E-05 5.63916E-06-4.46933E-05-5.22958E-18-3.84045E-18
 -1      1290 1.34284E-05-3.58669E-06-1.62399E-05 3.10135E-06-7.27771E-18-7.52673E-18
 -1      1291 9.10099E-05 3.60083E-06-4.35559E-05 7.43710E-05-7.42001E-18-1.07370E-17
 -1      1292 2.45581E-04-4.57202E-05-7.12247E-05 1.22070E-04-4.10642E-18-9.31736E-18
 -1      1293 4.13872E-04-1.19965E-04-9.21057E-05 9.64726E-05-1.25975E-18-2.84264E-18
 -1      1294 4.88438E-04-1.59375E-04-9.94038E-05-4.11688E-06-4.20552E-19 4.70993E-18
 -1      1295 3.92902E-04-1.10561E-04-8.97857E-05-1.05848E-04-3.02306E-18 1.10995E-17
 -1      1296 2.17833E-04-3.48865E-05-6.70330E-05-1.16716E-04-5.66072E-18 1.19804E-17
 -1      1297 7.53623E-05 5.26457E-06-3.91000E-05-6.33258E-05-8.46186E-18 1.15959E-17
 -1      1298 9.11678E-06-1.04277E-05-1.20386E-05 5.59466E-06-9.09375E-18 8.55503E-18
 -1      1299 4.70871E-06-6.21122E-05 9.19686E-06 4.84536E-05-9.56808E-18 5.35028E-18
 -1      1300 2.53074E-05-1.11528E-04 2.16013E-05 4.83864E-05-8.77357E-18 3.48014E-18
 -1      1301 4.16279E-05-1.34446E-04 2.52202E-05 2.06874E-05-2.82104E-18 5.83076E-19
 -1      1302 1.29845E-04-2.94389E-05-4.54689E-05-9.15286E-06 1.90582E-20 4.60384E-18
 -1      1303 9.37987E-05-6.62339E-06-3.78656E-05-6.47211E-06-2.97520E-19 1.79635E-18
 -1      1304 1.05538E-04-7.91875E-06-4.14910E-05-1.13399E-05-3.00061E-19 2.57948E-18
 -1      1305 7.19167E-05 1.79953E-06-3.21825E-05-7.83518E-06-5.05679E-19 5.69669E-19
 -1      1306 8.04747E-05 1.25449E-06-3.49101E-05-7.02199E-06-5.09067E-19 1.13415E-18
 -1      1307 8.87283E-05-4.88178E-06-3.58679E-05-5.82337E-06-5.78524E-19 1.52863E-18
 -1      1308 6.13848E-05 5.08804E-06-2.89213E-05-1.41578E-05-5.99646E-19-1.13138E-19
 -1      1309 6.47527E-05 5.00949E-06-3.02191E-05-1.12827E-05-6.09440E-19 2.22919E-19
 -1      1310 6.66298E-05 5.41182E-06-3.09272E-05-9.96047E-06-8.94414E-19 4.82504E-19
 -1      1311 6.25321E-05 3.96179E-06-2.86307E-05-2.02755E-05-6.53221E-19-4.32999E-19
 -1      1312 6.09760E-05 4.20139E-06-2.84280E-05-1.79584E-05-6.53883E-19-2.79000E-19
 -1      1313 5.87176E-05 7.52728E-06-2.85017E-05-1.69800E-05-1.01361E-18-5.99061E-20
 -1      1314 7.11065E-05 4.18743E-07-3.05228E-05-2.23660E-05-6.11134E-19-5.49804E-19
 -1      1315 6.68440E-05 7.46301E-07-2.93629E-05-2.20574E-05-6.55339E-19-4.63340E-19
 -1      1316 6.35179E-05 3.36744E-06-2.88052E-05-2.20252E-05-1.08817E-18-2.79868E-19
 -1      1317 8.17446E-05-3.29444E-06-3.33525E-05-1.96611E-05-5.58195E-19-6.10274E-19
 -1      1318 7.70434E-05-3.01063E-06-3.18801E-05-2.14662E-05-5.72383E-19-5.74196E-19
 -1      1319 7.50688E-05-3.19037E-06-3.09519E-05-2.22741E-05-9.87773E-19-3.82396E-19
 -1      1320 9.01433E-05-5.64497E-06-3.59305E-05-1.35273E-05-3.86247E-19-6.49860E-19
 -1      1321 8.66777E-05-5.49573E-06-3.47075E-05-1.66974E-05-4.41728E-19-5.75532E-19
 -1      1322 8.70810E-05-8.67702E-06-3.37039E-05-1.79428E-05-8.65324E-19-3.30740E-19
 -1      1323 9.47080E-05-6.40789E-06-3.76137E-05-6.04426E-06-3.00273E-19-7.17940E-19
 -1      1324 9.29793E-05-6.37871E-06-3.68953E-05-9.67463E-06-3.20020E-19-6.68891E-19
 -1      1325 9.54258E-05-1.14579E-05-3.60347E-05-1.10397E-05-5.97251E-19-4.05146E-19
 -1      1326 9.57126E-05-6.08514E-06-3.82525E-05 1.24981E-06-1.78221E-19-7.93140E-19
 -1      1327 9.55184E-05-6.12763E-06-3.80606E-05-2.21515E-06-2.40531E-19-7.54495E-19
 -1      1328 9.91430E-05-1.18209E-05-3.74416E-05-3.58268E-06-4.36070E-19-4.41092E-19
 -1      1329 9.41830E-05-5.28236E-06-3.79985E-05 7.62283E-06-7.38507E-20-8.69294E-19
 -1      1330 9.50626E-05-5.35459E-06-3.82276E-05 4.60440E-06-9.46030E-20-8.23104E-19
 -1      1331 9.90916E-05-1.07930E-05-3.78536E-05 3.24219E-06-2.13892E-19-5.36648E-19
 -1      1332 9.12573E-05-4.43994E-06-3.71476E-05 1.28565E-05 2.35581E-20-8.28398E-19
 -1      1333 9.27136E-05-4.51559E-06-3.76348E-05 1.03573E-05-7.94093E-21-8.54815E-19
 -1      1334 9.66723E-05-9.32962E-06-3.74531E-05 8.98552E-06-4.95250E-20-5.57612E-19
 -1      1335 8.77356E-05-3.74821E-06-3.59707E-05 1.73012E-05 1.92488E-19-6.92079E-19
 -1      1336 8.94241E-05-3.83095E-06-3.65778E-05 1.51466E-05 1.24937E-19-7.63018E-19
 -1      1337 9.31088E-05-8.01160E-06-3.65083E-05 1.37687E-05 1.33752E-19-5.03588E-19
 -1      1338 8.45052E-05-3.32957E-06-3.48096E-05 2.11621E-05 3.20205E-19-3.81059E-19
 -1      1339 8.59907E-05-3.43360E-06-3.53465E-05 1.92323E-05 2.59298E-19-5.81038E-19
 -1      1340 8.93499E-05-7.16126E-06-3.52885E-05 1.78732E-05 3.68168E-19-3.36510E-19
 -1      1341 8.27385E-05-3.35153E-06-3.41052E-05 2.48756E-05 4.53004E-19 2.67345E-19
 -1      1342 8.34040E-05-3.51870E-06-3.43028E-05 2.28700E-05 3.78280E-19-1.16838E-19
 -1      1343 8.64516E-05-7.12578E-06-3.40990E-05 2.15720E-05 5.64167E-19 6.15158E-20
 -1      1344 8.55734E-05-5.08551E-06-3.45896E-05 2.93287E-05 4.45751E-19 1.60994E-18
 -1      1345 8.36132E-05-4.93195E-06-3.39370E-05 2.63346E-05 4.21452E-19 7.78635E-19
 -1      1346 8.62695E-05-8.92917E-06-3.32752E-05 2.50097E-05 7.51451E-19 8.00711E-19
 -1      1347 1.14802E-04-2.26010E-05-3.61171E-05 3.03197E-05 2.34840E-19 4.22542E-18
 -1      1348 9.11533E-05-1.21176E-05-3.45546E-05 2.73930E-05 2.53898E-19 2.36555E-18
 -1      1349 9.22927E-05-1.64320E-05-3.27171E-05 2.56918E-05 7.49902E-19 1.99624E-18
 -1      1350 9.15043E-05-2.42735E-05-3.15207E-05 9.58930E-06 3.93076E-19 4.10536E-18
 -1      1351 1.37772E-04-3.93401E-05-4.32667E-05 2.33355E-06-3.08108E-20 4.53306E-18
 -1      1352 1.40521E-04-3.98734E-05-4.36152E-05 4.75085E-06-1.56595E-19 4.48790E-18
 -1      1353 1.42482E-04-4.04542E-05-4.41430E-05 1.12475E-05 1.29173E-19 4.43549E-18
 -1      1354 1.54883E-04-4.49974E-05-4.70044E-05 1.27667E-05 2.28831E-19 4.71840E-18
 -1      1355 1.28946E-04-3.44542E-05-4.07952E-05 1.40505E-05 2.04347E-20 3.05138E-18
 -1      1356 1.60703E-04-4.72151E-05-4.84111E-05 1.68372E-05 5.32890E-19 4.84164E-18
 -1      1357 1.77354E-04-5.40259E-05-5.17998E-05 1.72753E-05 5.25584E-19 5.60143E-18
 -1      1358 1.36171E-04-3.84353E-05-4.18657E-05 2.69177E-05 6.37075E-19 3.13381E-18
 -1      1359 1.85280E-04-5.84551E-05-5.28944E-05 1.44980E-05 9.19666E-19 5.78301E-18
 -1      1360 1.95260E-04-6.40252E-05-5.43251E-05 1.11113E-05 8.76891E-19 7.02466E-18
 -1      1361 1.50404E-04-4.82755E-05-4.31382E-05 2.95584E-05 1.33238E-18 3.28366E-18
 -1      1362 2.06262E-04-6.66978E-05-5.90158E-05-2.15337E-05-3.36537E-19 9.75104E-18
 -1      1363 1.78797E-04-5.41887E-05-5.66789E-05-2.45292E-05-6.64921E-19 9.22588E-18
 -1      1364 1.77171E-04-5.09369E-05-5.86440E-05-2.73447E-05-1.24683E-18 8.72613E-18
 -1      1365 1.45175E-04-3.43351E-05-5.68899E-05-2.51553E-05-1.20194E-18 6.81014E-18
 -1      1366 2.01201E-04-6.18927E-05-6.06484E-05-4.52563E-05-1.75759E-18 6.38229E-18
 -1      1367 1.43778E-04-3.08151E-05-5.83751E-05-7.32503E-06-1.17907E-18 5.80535E-18
 -1      1368 1.40627E-04-2.96166E-05-5.82614E-05 2.30266E-06-1.40523E-18 3.82287E-18
 -1      1369 2.00480E-04-4.73899E-05-6.71174E-05-2.71799E-05-2.31409E-18 4.59685E-18
 -1      1370 1.41523E-04-3.15980E-05-5.69885E-05 2.24986E-05-1.61275E-18 2.55846E-18
 -1      1371 1.73980E-04-4.94263E-05-5.85497E-05 2.76569E-05-1.17653E-18 2.18111E-19
 -1      1372 2.00249E-04-4.63677E-05-6.77354E-05 2.25445E-05-2.51230E-18 2.88245E-18
 -1      1373 1.75832E-04-5.20748E-05-5.64229E-05 2.47029E-05-3.97047E-19-7.03037E-19
 -1      1374 2.06691E-04-6.70330E-05-5.90212E-05 2.13743E-05-7.80964E-19-1.48739E-18
 -1      1375 2.01303E-04-6.21784E-05-6.10739E-05 4.41295E-05-1.45986E-18 8.23104E-19
 -1      1376 2.06477E-04-6.65646E-05-5.79774E-05 6.54815E-06-1.25361E-19-1.74828E-18
 -1      1377 2.14846E-04-6.93865E-05-5.91291E-05 1.55729E-06 8.37451E-19-1.10453E-18
 -1      1378 1.99108E-04-6.88065E-05-5.49532E-05 2.24802E-05-4.84662E-19-1.47648E-19
 -1      1379 2.06949E-04-6.56123E-05-5.79624E-05-8.67933E-06 3.36272E-19-7.32789E-19
 -1      1380 1.95431E-04-5.98394E-05-5.61763E-05-1.10356E-05 5.15102E-19 3.04297E-19
 -1      1381 1.87833E-04-6.24014E-05-5.21824E-05-8.15159E-06 8.82926E-19-9.21148E-20
 -1      1382 1.83859E-04-5.62785E-05-5.37457E-05-1.25623E-05 4.20022E-19 7.75459E-19
 -1      1383 1.65661E-04-4.89114E-05-4.98315E-05-1.27181E-05 3.79841E-19 1.63520E-18
 -1      1384 1.67853E-04-5.18249E-05-4.88494E-05-2.28601E-05 7.90176E-19 6.71803E-19
 -1      1385 1.54730E-04-4.61570E-05-4.67309E-05-1.01095E-05 4.77621E-19 1.98248E-18
 -1      1386 1.39039E-04-4.06453E-05-4.26149E-05-9.49894E-06 1.13853E-19 2.55740E-18
 -1      1387 1.45422E-04-4.28135E-05-4.39375E-05-2.18756E-05 8.59805E-19 1.40110E-18
 -1      1388 1.31141E-04-3.87707E-05-4.00062E-05-6.60399E-06-6.07217E-20 2.68128E-18
 -1      1389 1.20815E-04-3.55104E-05-3.69785E-05-5.98847E-06-2.73023E-19 2.35973E-18
 -1      1390 1.26879E-04-3.68924E-05-3.88119E-05-1.55125E-05 2.22214E-20 2.28762E-18
 -1      1391 1.15653E-04-3.42297E-05-3.51866E-05-3.94299E-06-1.74978E-19 2.83089E-18
 -1      1392 1.09513E-04-3.24352E-05-3.32857E-05-3.49812E-06-1.92104E-19 2.68112E-18
 -1      1393 1.14059E-04-3.33581E-05-3.48039E-05-9.64479E-06-1.89762E-19 2.70008E-18
 -1      1394 1.06358E-04-3.16096E-05-3.21855E-05-2.24046E-06-1.11689E-19 2.69960E-18
 -1      1395 1.02898E-04-3.06493E-05-3.10933E-05-1.95796E-06-1.38470E-19 2.56268E-18
 -1      1396 1.05939E-04-3.12622E-05-3.21359E-05-5.61239E-06-1.53167E-19 3.01655E-18
 -1      1397 1.01055E-04-3.01421E-05-3.04588E-05-1.23096E-06-2.57799E-19 1.94657E-18
 -1      1398 9.91737E-05-2.96406E-05-2.98620E-05-1.06157E-06-3.31805E-19 9.05025E-19
 -1      1399 1.01076E-04-3.00324E-05-3.05166E-05-3.13655E-06-6.71379E-19 2.08883E-18
 -1      1400 9.81368E-05-2.93427E-05-2.95106E-05-6.55040E-07-1.78909E-19 2.54523E-19
 -1      1401 9.71466E-05-2.90889E-05-2.91965E-05-5.56817E-07-8.98417E-20-5.56079E-19
 -1      1402 9.82823E-05-2.93283E-05-2.95863E-05-1.69655E-06-7.62541E-19 1.21891E-18
 -1      1403 9.65843E-05-2.89210E-05-2.90086E-05-3.35013E-07-5.93304E-20 5.53689E-19
 -1      1404 9.60840E-05-2.87988E-05-2.88496E-05-2.79466E-07-4.19346E-19-2.61081E-19
 -1      1405 9.67344E-05-2.89380E-05-2.90726E-05-8.85491E-07 1.37583E-19 2.72523E-19
 -1      1406 9.57928E-05-2.87084E-05-2.87534E-05-1.61532E-07-2.64015E-19 8.65871E-19
 -1      1407 9.55549E-05-2.86544E-05-2.86772E-05-1.30928E-07 3.91344E-19 1.16157E-18
 -1      1408 9.59105E-05-2.87309E-05-2.87996E-05-4.40159E-07 3.11194E-19 1.52888E-18
 -1      1409 9.54138E-05-2.86086E-05-2.86310E-05-7.03945E-08 1.35455E-20 9.93714E-19
 -1      1410 9.53122E-05-2.85888E-05-2.85979E-05-5.40964E-08-3.46838E-19 1.34741E-18
 -1      1411 9.54947E-05-2.86274E-05-2.86613E-05-2.02422E-07 2.25860E-19 1.53187E-18
 -1      1412 9.52512E-05-2.85675E-05-2.85780E-05-2.47471E-08-9.61188E-19 6.91336E-19
 -1      1413 9.52167E-05-2.85636E-05-2.85663E-05-1.63809E-08-6.50022E-19-1.41885E-18
 -1      1414 9.53016E-05-2.85808E-05-2.85964E-05-8.03535E-08-1.22831E-18 5.59301E-19
 -1      1415 9.51958E-05-2.85552E-05-2.85594E-05-3.08742E-09 4.42191E-19-1.80816E-18
 -1      1416 9.51927E-05-2.85580E-05-2.85576E-05 9.59398E-10 4.21890E-19-1.19372E-18
 -1      1417 9.52238E-05-2.85628E-05-2.85694E-05-2.08393E-08-2.92470E-19 1.89601E-19
 -1      1418 9.51914E-05-2.85560E-05-2.85572E-05 5.12870E-09 5.61695E-20 4.42550E-20
 -1      1419 9.52001E-05-2.85606E-05-2.85594E-05 6.54415E-09 5.44870E-19 1.96472E-19
 -1      1420 9.52045E-05-2.85603E-05-2.85619E-05 4.91463E-09 6.18456E-19 9.55590E-19
 -1      1421 9.52058E-05-2.85615E-05-2.85613E-05 7.10375E-09 4.54622E-19 7.76305E-20
 -1      1422 9.52169E-05-2.85657E-05-2.85644E-05 7.37467E-09 8.63908E-19 1.85943E-18
 -1      1423 9.52099E-05-2.85630E-05-2.85628E-05 1.28944E-08 4.88416E-19 2.21034E-18
 -1      1424 9.52240E-05-2.85674E-05-2.85667E-05 6.38010E-09 8.33748E-19 2.43911E-18
 -1      1425 9.52337E-05-2.85707E-05-2.85695E-05 6.15445E-09-8.28980E-20 3.63217E-18
 -1      1426 9.52231E-05-2.85675E-05-2.85665E-05 1.32648E-08 1.32384E-18 3.40787E-18
 -1      1427 9.52399E-05-2.85723E-05-2.85715E-05 4.72488E-09-3.86686E-19 3.05644E-18
 -1      1428 9.52469E-05-2.85745E-05-2.85736E-05 4.33104E-09 3.04253E-20 2.55050E-18
 -1      1429 9.52365E-05-2.85716E-05-2.85705E-05 1.05859E-08-5.35185E-19 3.04990E-18
 -1      1430 9.52513E-05-2.85758E-05-2.85751E-05 2.97968E-09-5.79785E-19 2.50582E-18
 -1      1431 9.52557E-05-2.85770E-05-2.85764E-05 2.57817E-09-1.13776E-18 5.98453E-19
 -1      1432 9.52471E-05-2.85747E-05-2.85737E-05 7.15473E-09-5.72229E-19 9.93601E-19
 -1      1433 9.52583E-05-2.85778E-05-2.85773E-05 1.49997E-09-9.37121E-19-9.00836E-19
 -1      1434 9.52605E-05-2.85783E-05-2.85779E-05 1.15941E-09 5.41179E-19-2.31609E-18
 -1      1435 9.52541E-05-2.85766E-05-2.85759E-05 4.01270E-09-2.09538E-18 8.49078E-19
 -1      1436 9.52616E-05-2.85787E-05-2.85783E-05 3.91545E-10 5.32300E-19-1.58893E-18
 -1      1437 9.52621E-05-2.85787E-05-2.85785E-05 1.32364E-10-2.02262E-19-6.32575E-19
 -1      1438 9.52579E-05-2.85776E-05-2.85771E-05 1.54133E-09 7.37456E-19 1.18133E-19
 -1      1439 9.52622E-05-2.85788E-05-2.85786E-05-3.58395E-10-1.58780E-19-5.94161E-20
 -1      1440 9.52616E-05-2.85785E-05-2.85784E-05-5.39122E-10-5.87170E-20-2.35029E-19
 -1      1441 9.52591E-05-2.85779E-05-2.85776E-05-2.04155E-10 3.53028E-19 3.84334E-19
 -1      1442 9.52609E-05-2.85784E-05-2.85782E-05-8.10607E-10 3.67146E-19-1.51669E-19
 -1      1443 9.52597E-05-2.85779E-05-2.85779E-05-9.25516E-10 1.57695E-19 8.02365E-19
 -1      1444 9.52585E-05-2.85776E-05-2.85775E-05-1.31254E-09 5.81188E-19 4.06378E-19
 -1      1445 9.52586E-05-2.85776E-05-2.85776E-05-1.03761E-09-1.99446E-19 2.60050E-19
 -1      1446 9.52570E-05-2.85771E-05-2.85771E-05-1.10188E-09-3.59565E-19-7.03540E-21
 -1      1447 9.52567E-05-2.85771E-05-2.85770E-05-1.92083E-09-5.50007E-19 3.73238E-19
 -1      1448 9.52558E-05-2.85768E-05-2.85767E-05-1.10671E-09-4.44916E-19 7.16820E-19
 -1      1449 9.52541E-05-2.85762E-05-2.85762E-05-1.13459E-09-4.25087E-20 1.44756E-19
 -1      1450 9.52544E-05-2.85763E-05-2.85763E-05-2.16719E-09-3.46755E-19-2.17253E-19
 -1      1451 9.52528E-05-2.85758E-05-2.85758E-05-1.07337E-09 8.63018E-19-3.59429E-19
 -1      1452 9.52512E-05-2.85753E-05-2.85754E-05-1.07685E-09-1.72886E-19 2.92920E-19
 -1      1453 9.52519E-05-2.85755E-05-2.85756E-05-2.17063E-09-2.01324E-19 8.08274E-19
 -1      1454 9.52499E-05-2.85750E-05-2.85750E-05-9.79442E-10-8.97528E-19-1.37188E-19
 -1      1455 9.52485E-05-2.85745E-05-2.85746E-05-9.68708E-10-3.20896E-19-1.50000E-18
 -1      1456 9.52493E-05-2.85748E-05-2.85748E-05-2.02507E-09-8.82106E-19 1.43614E-19
 -1      1457 9.52473E-05-2.85742E-05-2.85742E-05-8.51257E-10 8.69900E-19-2.14330E-18
 -1      1458 9.52460E-05-2.85738E-05-2.85738E-05-8.30643E-10 4.02291E-19 4.52423E-19
 -1      1459 9.52469E-05-2.85740E-05-2.85741E-05-1.79338E-09-1.31374E-19-3.89434E-19
 -1      1460 9.52450E-05-2.85735E-05-2.85735E-05-7.17142E-10 9.24676E-19 3.71758E-19
 -1      1461 9.52440E-05-2.85732E-05-2.85732E-05-6.93791E-10 1.19026E-18 2.34902E-18
 -1      1462 9.52448E-05-2.85734E-05-2.85735E-05-1.52744E-09 1.69617E-18-7.22126E-19
 -1      1463 9.52432E-05-2.85729E-05-2.85730E-05-5.89527E-10 8.54556E-19 3.43828E-18
 -1      1464 9.52423E-05-2.85727E-05-2.85727E-05-5.65263E-10 1.71718E-18 4.62214E-18
 -1      1465 9.52431E-05-2.85729E-05-2.85730E-05-1.26761E-09 1.47768E-18 6.08499E-19
 -1      1466 9.52416E-05-2.85725E-05-2.85725E-05-4.72932E-10 3.01279E-19 5.61897E-18
 -1      1467 9.52409E-05-2.85723E-05-2.85723E-05-4.50095E-10 4.74805E-19 6.38099E-18
 -1      1468 9.52416E-05-2.85725E-05-2.85725E-05-1.02645E-09 1.00607E-18 3.74507E-18
 -1      1469 9.52404E-05-2.85721E-05-2.85721E-05-3.71302E-10-6.88689E-19 6.93225E-18
 -1      1470 9.52399E-05-2.85719E-05-2.85720E-05-3.50892E-10-7.32768E-19 5.29048E-18
 -1      1471 9.52405E-05-2.85721E-05-2.85722E-05-8.12838E-10-3.00782E-19 4.17532E-18
 -1      1472 9.52394E-05-2.85718E-05-2.85718E-05-2.85573E-10-9.34738E-19 4.18996E-18
 -1      1473 9.52390E-05-2.85717E-05-2.85717E-05-2.67994E-10-1.24783E-18 1.69179E-18
 -1      1474 9.52395E-05-2.85718E-05-2.85719E-05-6.30400E-10-1.85605E-18 2.90296E-18
 -1      1475 9.52387E-05-2.85716E-05-2.85716E-05-2.15080E-10 3.85795E-19 2.32969E-19
 -1      1476 9.52384E-05-2.85715E-05-2.85715E-05-2.00346E-10 6.66535E-19 1.10734E-18
 -1      1477 9.52388E-05-2.85716E-05-2.85717E-05-4.78905E-10-9.92270E-19 1.82062E-18
 -1      1478 9.52382E-05-2.85714E-05-2.85715E-05-1.58213E-10 1.55832E-19 2.43355E-18
 -1      1479 9.52379E-05-2.85714E-05-2.85714E-05-1.46079E-10 1.53237E-18 4.71175E-18
 -1      1480 9.52383E-05-2.85715E-05-2.85715E-05-3.55789E-10 8.53316E-19 2.33009E-18
 -1      1481 9.52378E-05-2.85713E-05-2.85713E-05-1.12836E-10 2.32986E-18 6.65949E-18
 -1      1482 9.52376E-05-2.85713E-05-2.85713E-05-1.02886E-10-4.40447E-20 1.07949E-17
 -1      1483 9.52379E-05-2.85713E-05-2.85714E-05-2.57146E-10 3.44539E-18 4.77306E-18
 -1      1484 9.52375E-05-2.85712E-05-2.85712E-05-7.65664E-11-1.76008E-18 8.81632E-18
 -1      1485 9.52374E-05-2.85712E-05-2.85712E-05-6.82745E-11-3.61027E-18 4.21502E-18
 -1      1486 9.52376E-05-2.85713E-05-2.85713E-05-1.78388E-10-1.42875E-18 5.16092E-18
 -1      1487 9.52373E-05-2.85712E-05-2.85712E-05-4.69547E-11-4.06403E-18 2.75285E-18
 -1      1488 9.52372E-05-2.85712E-05-2.85712E-05-3.96821E-11-2.09867E-18-4.33778E-18
 -1      1489 9.52374E-05-2.85712E-05-2.85712E-05-1.14664E-10-6.38402E-18 2.88598E-18
 -1      1490 9.52372E-05-2.85711E-05-2.85712E-05-2.19087E-11-2.77145E-19-4.66160E-18
 -1      1491 9.52371E-05-2.85711E-05-2.85711E-05-1.51672E-11 8.60262E-19-4.27567E-18
 -1      1492 9.52372E-05-2.85712E-05-2.85712E-05-6.14753E-11-1.53301E-18 3.24186E-19
 -1      1493 9.52371E-05-2.85711E-05-2.85711E-05-1.13830E-12 5.08462E-19-4.75139E-18
 -1      1494 9.52371E-05-2.85711E-05-2.85711E-05 3.39506E-12 1.78162E-18-2.76306E-18
 -1      1495 9.52372E-05-2.85711E-05-2.85712E-05-1.66546E-11 1.10266E-18-1.32095E-18
 -1      1496 9.52371E-05-2.85711E-05-2.85711E-05 1.02770E-11 2.98990E-18 1.92264E-19
 -1      1497 9.52371E-05-2.85711E-05-2.85711E-05 6.62816E-12 6.90188E-19 1.47292E-18
 -1      1498 9.52371E-05-2.85712E-05-2.85711E-05 1.04091E-11-8.75152E-19 5.52458E-20
 -1      1499 9.52371E-05-2.85711E-05-2.85711E-05 9.01302E-12 4.39990E-18 1.41427E-18
 -1      1500 8.23223E-05-2.40103E-05-2.55839E-05 4.69597E-06 4.17667E-19 3.27839E-18
 -1      1501 9.03266E-05-2.57273E-05-2.85224E-05 6.29519E-06 3.06944E-19 3.89487E-18
 -1      1502 9.10436E-05-2.30558E-05-2.93884E-05 1.61309E-05 6.53407E-19 2.62580E-18
 -1      1503 7.47809E-05-2.22085E-05-2.26328E-05 2.65310E-06 3.30462E-19 2.44550E-18
 -1      1504 7.84736E-05-2.28998E-05-2.40689E-05 3.00914E-06 3.56733E-19 2.97362E-18
 -1      1505 8.28030E-05-2.38151E-05-2.54706E-05 7.90389E-06 6.38266E-19 2.17165E-18
 -1      1506 7.01988E-05-2.09556E-05-2.10983E-05 1.67060E-06 1.74509E-19 1.90921E-18
 -1      1507 7.23630E-05-2.14565E-05-2.18267E-05 1.85687E-06 1.67984E-19 2.16320E-18
 -1      1508 7.69169E-05-2.26837E-05-2.32969E-05 4.58695E-06 4.50701E-19 1.74689E-18
 -1      1509 6.73278E-05-2.01060E-05-2.02301E-05 1.03468E-06 1.22747E-19 1.63886E-18
 -1      1510 6.86719E-05-2.04544E-05-2.06318E-05 1.17564E-06 9.65684E-20 1.78435E-18
 -1      1511 7.31446E-05-2.17377E-05-2.20630E-05 2.84254E-06 2.15722E-19 1.32999E-18
 -1      1512 6.57735E-05-1.96273E-05-1.97846E-05 4.38639E-07 1.54954E-19 1.32326E-18
 -1      1513 6.64569E-05-1.97942E-05-1.99761E-05 5.84743E-07 7.63256E-20 1.47519E-18
 -1      1514 7.08051E-05-2.10510E-05-2.13587E-05 1.57274E-06 1.59494E-19 1.20024E-18
 -1      1515 6.54884E-05-1.95329E-05-1.97128E-05-1.87073E-07 1.81093E-19 8.78274E-19
 -1      1516 6.55081E-05-1.94939E-05-1.97108E-05-2.21996E-08 1.67597E-19 1.07487E-18
 -1      1517 6.97024E-05-2.07029E-05-2.10423E-05 3.64547E-07 3.31805E-19 8.48912E-19
 -1      1518 6.64703E-05-1.98352E-05-2.00054E-05-8.10784E-07 2.54398E-19 5.02476E-19
 -1      1519 6.58134E-05-1.95810E-05-1.98104E-05-6.38836E-07 1.39509E-19 6.92277E-19
 -1      1520 6.97739E-05-2.07207E-05-2.10690E-05-8.56704E-07 3.12760E-19 4.34574E-19
 -1      1521 6.86117E-05-2.05038E-05-2.06306E-05-1.35286E-06 4.95349E-20 1.20451E-19
 -1      1522 6.73329E-05-2.00547E-05-2.02591E-05-1.19678E-06 1.42169E-19 3.58348E-19
 -1      1523 7.09544E-05-2.11022E-05-2.14090E-05-1.99673E-06 2.89920E-19 9.37990E-20
 -1      1524 7.16582E-05-2.14562E-05-2.15177E-05-1.73616E-06 1.43886E-19 1.46947E-19
 -1      1525 6.98987E-05-2.08626E-05-2.10095E-05-1.61784E-06 7.93663E-20 1.86334E-19
 -1      1526 7.30787E-05-2.17960E-05-2.20138E-05-2.90987E-06 6.69189E-20-3.31865E-20
 -1      1527 7.52483E-05-2.25738E-05-2.25663E-05-1.91943E-06 7.86012E-20 1.17764E-19
 -1      1528 7.32099E-05-2.19049E-05-2.19779E-05-1.85107E-06 6.18913E-20 2.01819E-19
 -1      1529 7.58758E-05-2.27072E-05-2.28101E-05-3.48173E-06 1.06769E-19 8.64966E-20
 -1      1530 7.89938E-05-2.37311E-05-2.36669E-05-1.90812E-06 1.28483E-19-1.38781E-19
 -1      1531 7.68916E-05-2.30574E-05-2.30587E-05-1.88954E-06 8.93109E-20 6.60421E-21
 -1      1532 7.90168E-05-2.37198E-05-2.37097E-05-3.67438E-06 1.67340E-19 3.53504E-19
 -1      1533 8.25593E-05-2.48224E-05-2.47227E-05-1.74484E-06 2.18742E-19-3.66183E-19
 -1      1534 8.05773E-05-2.42009E-05-2.41471E-05-1.76611E-06 1.92262E-19-1.38860E-19
 -1      1535 8.21828E-05-2.47240E-05-2.46255E-05-3.53006E-06 2.31417E-19 1.21678E-19
 -1      1536 8.57122E-05-2.57772E-05-2.56640E-05-1.48934E-06-3.72562E-21-1.02253E-19
 -1      1537 8.39755E-05-2.52439E-05-2.51573E-05-1.53598E-06-8.65082E-20-4.24416E-19
 -1      1538 8.51205E-05-2.56377E-05-2.54857E-05-3.14444E-06-1.15082E-19 1.02799E-19
 -1      1539 8.83336E-05-2.65625E-05-2.64532E-05-1.19930E-06-1.97422E-19 2.87475E-19
 -1      1540 8.69031E-05-2.61319E-05-2.60337E-05-1.25719E-06-2.30716E-19 1.75905E-19
 -1      1541 8.76696E-05-2.64132E-05-2.62418E-05-2.62949E-06-2.97937E-19 1.02122E-19
 -1      1542 9.04019E-05-2.71754E-05-2.70807E-05-9.18549E-07-2.55945E-19 7.43036E-19
 -1      1543 8.92846E-05-2.68457E-05-2.67514E-05-9.76855E-07-1.86602E-19 5.13712E-19
 -1      1544 8.97609E-05-2.70353E-05-2.68703E-05-2.08353E-06-2.83981E-19 5.44909E-19
 -1      1545 9.19616E-05-2.76330E-05-2.75572E-05-6.73402E-07 1.07616E-20 3.60770E-19
 -1      1546 9.11283E-05-2.73917E-05-2.73104E-05-7.25451E-07 2.43965E-19 7.15769E-19
 -1      1547 9.13966E-05-2.75112E-05-2.73680E-05-1.57566E-06 1.00132E-19 5.15524E-19
 -1      1548 9.30918E-05-2.79614E-05-2.79045E-05-4.74848E-07-1.73542E-19 5.26641E-19
 -1      1549 9.24954E-05-2.77920E-05-2.77271E-05-5.17626E-07-2.34130E-19 9.85288E-20
 -1      1550 9.26244E-05-2.78610E-05-2.77459E-05-1.14370E-06-2.22452E-19 3.22968E-19
 -1      1551 9.38822E-05-2.81892E-05-2.81486E-05-3.23165E-07-3.45884E-19 9.82827E-19
 -1      1552 9.34710E-05-2.80746E-05-2.80258E-05-3.56221E-07-1.72356E-19 7.80440E-19
 -1      1553 9.35134E-05-2.81095E-05-2.80223E-05-8.00214E-07-3.02533E-19 9.20760E-19
 -1      1554 9.44173E-05-2.83422E-05-2.83146E-05-2.12662E-07 1.03087E-20 1.61837E-18
 -1      1555 9.41435E-05-2.82674E-05-2.82325E-05-2.36996E-07-2.64250E-19 1.31127E-18
 -1      1556 9.41367E-05-2.82808E-05-2.82179E-05-5.41264E-07-4.61753E-19 1.52069E-18
 -1      1557 9.47683E-05-2.84418E-05-2.84238E-05-1.35304E-07 2.14334E-19 1.19898E-18
 -1      1558 9.45921E-05-2.83947E-05-2.83708E-05-1.52524E-07 1.75917E-19 1.58942E-18
 -1      1559 9.45610E-05-2.83956E-05-2.83522E-05-3.54418E-07 2.79556E-19 1.27794E-18
 -1      1560 9.49914E-05-2.85047E-05-2.84934E-05-8.29901E-08-3.25819E-19 1.87340E-18
 -1      1561 9.48821E-05-2.84762E-05-2.84603E-05-9.47787E-08-2.93879E-19 1.49692E-18
 -1      1562 9.48419E-05-2.84706E-05-2.84417E-05-2.24521E-07-3.04879E-19 1.24016E-18
 -1      1563 9.51282E-05-2.85430E-05-2.85362E-05-4.86999E-08 3.84208E-19 2.16758E-18
 -1      1564 9.50632E-05-2.85266E-05-2.85164E-05-5.65412E-08 2.26211E-19 2.28845E-18
 -1      1565 9.50225E-05-2.85183E-05-2.84996E-05-1.37111E-07-8.48162E-20 1.91410E-18
 -1      1566 9.52086E-05-2.85653E-05-2.85613E-05-2.68811E-08 3.45483E-19 1.31502E-18
 -1      1567 9.51720E-05-2.85565E-05-2.85502E-05-3.19628E-08 5.15816E-19 1.87210E-18
 -1      1568 9.51352E-05-2.85476E-05-2.85360E-05-8.00136E-08 7.21130E-19 1.53742E-18
 -1      1569 9.52530E-05-2.85775E-05-2.85753E-05-1.34137E-08 2.30111E-19 1.39438E-18
 -1      1570 9.52341E-05-2.85733E-05-2.85695E-05-1.66257E-08-8.17580E-20 9.75867E-19
 -1      1571 9.52028E-05-2.85650E-05-2.85580E-05-4.37716E-08 1.65151E-19 9.98950E-19
 -1      1572 9.52751E-05-2.85834E-05-2.85823E-05-5.38261E-09 4.61431E-19 1.35609E-18
 -1      1573 9.52669E-05-2.85819E-05-2.85797E-05-7.36035E-09 3.24477E-19 1.67314E-18
 -1      1574 9.52413E-05-2.85748E-05-2.85707E-05-2.14458E-08 3.14027E-19 1.31474E-18
 -1      1575 9.52839E-05-2.85856E-05-2.85851E-05-8.01042E-10-2.01143E-19 1.04774E-18
 -1      1576 9.52818E-05-2.85856E-05-2.85844E-05-1.98182E-09 2.21644E-19 1.47765E-18
 -1      1577 9.52615E-05-2.85797E-05-2.85775E-05-8.16158E-09 3.96870E-19 1.05694E-18
 -1      1578 9.52850E-05-2.85857E-05-2.85856E-05 1.64492E-09 7.91336E-19-1.38121E-19
 -1      1579 9.52863E-05-2.85865E-05-2.85859E-05 9.68604E-10 4.44099E-19 8.70690E-19
 -1      1580 9.52705E-05-2.85817E-05-2.85806E-05-6.11006E-10 5.32000E-19 8.50908E-19
 -1      1581 9.52820E-05-2.85846E-05-2.85847E-05 2.80254E-09 1.10177E-19-8.65700E-19
 -1      1582 9.52849E-05-2.85858E-05-2.85855E-05 2.43951E-09-4.20434E-20-6.86437E-19
 -1      1583 9.52728E-05-2.85820E-05-2.85816E-05 3.38889E-09 4.28825E-19 1.02249E-18
 -1      1584 9.52771E-05-2.85831E-05-2.85832E-05 3.20661E-09 1.80452E-19-7.29164E-19
 -1      1585 9.52806E-05-2.85843E-05-2.85843E-05 3.03415E-09 3.18298E-19-7.86479E-19
 -1      1586 9.52715E-05-2.85814E-05-2.85814E-05 5.24537E-09 3.73873E-19 4.89224E-19
 -1      1587 9.52714E-05-2.85813E-05-2.85816E-05 3.18831E-09 7.36688E-19-2.42638E-18
 -1      1588 9.52751E-05-2.85826E-05-2.85826E-05 3.12882E-09 4.26204E-19-1.16996E-18
 -1      1589 9.52682E-05-2.85803E-05-2.85805E-05 5.84777E-09 7.26728E-19 2.52927E-19
 -1      1590 9.52658E-05-2.85797E-05-2.85799E-05 2.94907E-09 3.22860E-19-3.83985E-18
 -1      1591 9.52692E-05-2.85807E-05-2.85809E-05 2.95408E-09 5.12502E-19-3.06482E-18
 -1      1592 9.52642E-05-2.85791E-05-2.85793E-05 5.74818E-09 1.27019E-18-6.76844E-19
 -1      1593 9.52606E-05-2.85781E-05-2.85783E-05 2.60903E-09-6.18322E-19-4.17341E-18
 -1      1594 9.52637E-05-2.85791E-05-2.85792E-05 2.64861E-09-1.51647E-19-3.97755E-18
 -1      1595 9.52600E-05-2.85778E-05-2.85781E-05 5.28347E-09 3.73930E-19-2.21770E-18
 -1      1596 9.52561E-05-2.85767E-05-2.85769E-05 2.23811E-09-6.17513E-19-2.15206E-18
 -1      1597 9.52587E-05-2.85775E-05-2.85777E-05 2.29402E-09-7.58294E-19-3.59014E-18
 -1      1598 9.52560E-05-2.85766E-05-2.85769E-05 4.65532E-09-1.28414E-18-1.65137E-18
 -1      1599 9.52521E-05-2.85756E-05-2.85757E-05 1.87552E-09-1.91825E-19-6.73940E-19
 -1      1600 9.52543E-05-2.85762E-05-2.85764E-05 1.93684E-09-1.62727E-19-1.38775E-18
 -1      1601 9.52524E-05-2.85756E-05-2.85758E-05 3.98146E-09-6.30645E-19-1.61386E-18
 -1      1602 9.52488E-05-2.85746E-05-2.85747E-05 1.54187E-09-7.79521E-19-8.81758E-19
 -1      1603 9.52506E-05-2.85751E-05-2.85752E-05 1.60227E-09-3.20028E-19-9.67841E-19
 -1      1604 9.52493E-05-2.85747E-05-2.85749E-05 3.32799E-09-1.88309E-19 2.12878E-19
 -1      1605 9.52461E-05-2.85738E-05-2.85739E-05 1.24663E-09-9.86552E-19 1.55113E-18
 -1      1606 9.52476E-05-2.85742E-05-2.85743E-05 1.30262E-09-1.30318E-18-6.68455E-19
 -1      1607 9.52467E-05-2.85739E-05-2.85741E-05 2.72958E-09-1.57160E-18 9.71578E-19
 -1      1608 9.52439E-05-2.85731E-05-2.85732E-05 9.92632E-10-2.93876E-19 2.17818E-18
 -1      1609 9.52451E-05-2.85735E-05-2.85736E-05 1.04250E-09-1.61896E-19 1.33921E-18
 -1      1610 9.52445E-05-2.85732E-05-2.85734E-05 2.20185E-09-5.82541E-19 4.86855E-19
 -1      1611 9.52421E-05-2.85726E-05-2.85727E-05 7.78916E-10 4.05886E-20 1.96412E-18
 -1      1612 9.52431E-05-2.85729E-05-2.85729E-05 8.22041E-10-2.37912E-19 2.13564E-18
 -1      1613 9.52427E-05-2.85727E-05-2.85729E-05 1.74912E-09-7.47505E-19 6.79387E-21
 -1      1614 9.52408E-05-2.85722E-05-2.85723E-05 6.02420E-10 7.56356E-19 1.38878E-18
 -1      1615 9.52415E-05-2.85724E-05-2.85725E-05 6.38858E-10 2.97479E-19 2.16081E-18
 -1      1616 9.52413E-05-2.85723E-05-2.85724E-05 1.36915E-09 4.10670E-19 3.09921E-19
 -1      1617 9.52397E-05-2.85719E-05-2.85719E-05 4.59032E-10-1.26441E-19 1.56672E-18
 -1      1618 9.52403E-05-2.85721E-05-2.85721E-05 4.89223E-10 2.22089E-19 1.57099E-18
 -1      1619 9.52402E-05-2.85720E-05-2.85721E-05 1.05609E-09 1.57005E-19 2.07639E-18
 -1      1620 9.52389E-05-2.85717E-05-2.85717E-05 3.44228E-10 2.34662E-19 2.50214E-18
 -1      1621 9.52393E-05-2.85718E-05-2.85718E-05 3.68830E-10-5.10722E-19 1.19719E-18
 -1      1622 9.52393E-05-2.85717E-05-2.85718E-05 8.02277E-10-8.25184E-20 1.94440E-18
 -1      1623 9.52383E-05-2.85715E-05-2.85715E-05 2.53435E-10 2.49432E-18-1.18653E-18
 -1      1624 9.52386E-05-2.85716E-05-2.85716E-05 2.73216E-10 1.69976E-18 1.77292E-18
 -1      1625 9.52386E-05-2.85716E-05-2.85716E-05 5.99360E-10 1.50158E-18 7.30940E-20
 -1      1626 9.52379E-05-2.85714E-05-2.85714E-05 1.82219E-10-2.54796E-19-4.98718E-18
 -1      1627 9.52381E-05-2.85714E-05-2.85714E-05 1.98002E-10 1.55733E-18-1.40963E-18
 -1      1628 9.52381E-05-2.85714E-05-2.85715E-05 4.38905E-10 2.94842E-18 4.15138E-19
 -1      1629 9.52376E-05-2.85713E-05-2.85713E-05 1.26384E-10-5.59022E-19-3.41739E-18
 -1      1630 9.52377E-05-2.85713E-05-2.85713E-05 1.39013E-10-1.34001E-18-5.41823E-18
 -1      1631 9.52378E-05-2.85713E-05-2.85713E-05 3.12745E-10-1.20303E-18-2.76931E-18
 -1      1632 9.52374E-05-2.85712E-05-2.85712E-05 8.19449E-11-6.88858E-19-3.50090E-18
 -1      1633 9.52375E-05-2.85712E-05-2.85712E-05 9.23220E-11 1.87257E-20-2.99501E-18
 -1      1634 9.52375E-05-2.85712E-05-2.85713E-05 2.13159E-10-1.76178E-19-2.74055E-18
 -1      1635 9.52372E-05-2.85712E-05-2.85712E-05 4.53822E-11-9.06433E-19-1.90710E-18
 -1      1636 9.52373E-05-2.85712E-05-2.85712E-05 5.43690E-11-3.67960E-19-2.73526E-18
 -1      1637 9.52373E-05-2.85712E-05-2.85712E-05 1.32995E-10-5.59467E-19-2.14189E-18
 -1      1638 9.52371E-05-2.85711E-05-2.85711E-05 1.41127E-11 1.14219E-18-4.40557E-18
 -1      1639 9.52372E-05-2.85711E-05-2.85712E-05 2.25462E-11 8.43443E-20-3.26496E-18
 -1      1640 9.52372E-05-2.85712E-05-2.85712E-05 6.67364E-11 7.67153E-19-3.36660E-18
 -1      1641 9.52371E-05-2.85711E-05-2.85711E-05-8.46414E-12 5.14691E-19-7.10422E-18
 -1      1642 9.52371E-05-2.85711E-05-2.85711E-05-1.86376E-12 1.22509E-18-5.20151E-18
 -1      1643 9.52372E-05-2.85711E-05-2.85712E-05 1.33909E-11 1.74753E-18-4.60500E-18
 -1      1644 9.52371E-05-2.85711E-05-2.85711E-05-8.94424E-12-3.69859E-18-4.43938E-18
 -1      1645 9.52371E-05-2.85711E-05-2.85711E-05 7.92988E-12-4.65100E-18 5.54166E-19
 -1      1646 9.52371E-05-2.85711E-05-2.85711E-05 2.44888E-12-5.49632E-18 4.11530E-19
 -1      1647 9.52371E-05-2.85711E-05-2.85712E-05 3.82512E-11-3.63701E-18 5.20906E-19
 -1      1648 9.52371E-05-2.85711E-05-2.85712E-05 3.12290E-11-5.07124E-18 6.89519E-19
 -1      1649 9.52371E-05-2.85711E-05-2.85712E-05 4.29344E-11-3.03709E-18 1.06425E-18
 -1      1650 9.52371E-05-2.85710E-05-2.85712E-05 6.21277E-11-3.95354E-18-1.64737E-18
 -1      1651 9.52371E-05-2.85710E-05-2.85712E-05 5.78774E-11-3.60645E-18 3.73734E-19
 -1      1652 9.52371E-05-2.85710E-05-2.85712E-05 9.55568E-11-3.30087E-18 9.74574E-19
 -1      1653 9.52371E-05-2.85709E-05-2.85712E-05 7.36747E-11-2.09448E-18 9.42432E-19
 -1      1654 9.52371E-05-2.85709E-05-2.85712E-05 7.24622E-11-3.05167E-18 4.55030E-19
 -1      1655 9.52371E-05-2.85709E-05-2.85712E-05 1.31722E-10-3.31225E-18-1.06789E-19
 -1      1656 9.52370E-05-2.85708E-05-2.85713E-05 7.06837E-11-2.04108E-18 8.89984E-19
 -1      1657 9.52370E-05-2.85708E-05-2.85712E-05 7.23732E-11-1.79281E-18-9.92667E-19
 -1      1658 9.52370E-05-2.85708E-05-2.85712E-05 1.42071E-10-1.16388E-18 3.19696E-19
 -1      1659 9.52370E-05-2.85707E-05-2.85713E-05 5.43446E-11-3.99010E-18-1.35413E-18
 -1      1660 9.52370E-05-2.85707E-05-2.85713E-05 5.85240E-11-2.34019E-18 2.00740E-19
 -1      1661 9.52370E-05-2.85707E-05-2.85713E-05 1.25427E-10-1.84395E-18-5.99130E-19
 -1      1662 9.52370E-05-2.85706E-05-2.85713E-05 2.81408E-11-4.25600E-18-3.79877E-19
 -1      1663 9.52370E-05-2.85706E-05-2.85713E-05 3.39116E-11-4.22934E-18 9.58079E-19
 -1      1664 9.52370E-05-2.85706E-05-2.85713E-05 8.55815E-11-2.61119E-18-4.62308E-19
 -1      1665 9.52370E-05-2.85706E-05-2.85713E-05-3.01199E-12-3.10448E-18 8.04704E-19
 -1      1666 9.52370E-05-2.85706E-05-2.85713E-05 3.30737E-12-3.77222E-18-8.65517E-19
 -1      1667 9.52370E-05-2.85706E-05-2.85713E-05 3.04680E-11-2.25017E-18-2.53527E-19
 -1      1668 9.52370E-05-2.85706E-05-2.85713E-05-3.35920E-11-3.29517E-18-4.40096E-19
 -1      1669 9.52370E-05-2.85706E-05-2.85713E-05-2.78322E-11-4.23152E-18 1.94081E-18
 -1      1670 9.52370E-05-2.85706E-05-2.85713E-05-2.99357E-11-3.22100E-18 1.54760E-18
 -1      1671 9.52370E-05-2.85707E-05-2.85713E-05-5.81676E-11-7.64404E-18-3.72224E-18
 -1      1672 9.52370E-05-2.85707E-05-2.85713E-05-5.40143E-11-3.49492E-18-3.64201E-18
 -1      1673 9.52370E-05-2.85706E-05-2.85713E-05-8.50022E-11-5.08798E-18-3.33115E-18
 -1      1674 9.52370E-05-2.85708E-05-2.85712E-05-7.19915E-11-6.15226E-18 1.94583E-18
 -1      1675 9.52370E-05-2.85708E-05-2.85713E-05-7.02680E-11-6.39415E-18-4.81995E-19
 -1      1676 9.52370E-05-2.85707E-05-2.85713E-05-1.24658E-10-2.48009E-18-1.76950E-18
 -1      1677 9.52371E-05-2.85709E-05-2.85712E-05-7.23753E-11-3.30175E-18 1.47225E-18
 -1      1678 9.52371E-05-2.85709E-05-2.85712E-05-7.35423E-11-5.26289E-18 1.48424E-18
 -1      1679 9.52370E-05-2.85708E-05-2.85712E-05-1.41621E-10-1.78061E-18 2.41601E-18
 -1      1680 9.52371E-05-2.85710E-05-2.85712E-05-5.81215E-11-1.10552E-18 1.19442E-18
 -1      1681 9.52371E-05-2.85710E-05-2.85712E-05-6.22849E-11-3.18821E-18 1.37453E-18
 -1      1682 9.52371E-05-2.85709E-05-2.85712E-05-1.31755E-10-1.43740E-19 2.67915E-18
 -1      1683 9.52371E-05-2.85711E-05-2.85712E-05-3.15766E-11-1.22560E-18-3.44336E-20
 -1      1684 9.52371E-05-2.85711E-05-2.85712E-05-3.82286E-11-1.12713E-18 1.45427E-18
 -1      1685 9.52371E-05-2.85710E-05-2.85712E-05-9.56001E-11-2.13243E-18 1.23409E-18
 -1      1686 9.52371E-05-2.85711E-05-2.85711E-05-3.35255E-12-1.43301E-18-7.56271E-19
 -1      1687 9.52371E-05-2.85711E-05-2.85711E-05-8.25098E-12 7.53793E-19-2.37024E-18
 -1      1688 9.52371E-05-2.85711E-05-2.85712E-05-4.35445E-11-1.99633E-18-7.84805E-19
 -1      1689 9.52371E-05-2.85711E-05-2.85711E-05 3.97952E-13 2.69616E-18-3.60150E-19
 -1      1690 2.15759E-05-6.64839E-05 1.38555E-05 1.89500E-06 3.47284E-18 1.90138E-18
 -1      1691 2.66601E-05-8.53345E-05 1.84317E-05 9.91672E-06 7.46236E-19 1.78936E-18
 -1      1692 2.11530E-05-3.01559E-05 2.88499E-07 1.33321E-05 5.16775E-18 2.47545E-18
 -1      1693 2.55159E-05-5.76805E-05 8.00999E-06 6.49394E-06 4.00308E-18 2.02102E-18
 -1      1694 4.35670E-05-1.95935E-06-1.88515E-05 4.57041E-05 5.35240E-18 3.72779E-18
 -1      1695 3.45600E-05-2.33209E-05-8.59041E-06 2.45053E-05 5.31174E-18 2.69949E-18
 -1      1696 8.69973E-05 8.22547E-06-3.93735E-05 7.88952E-05 5.16097E-18 4.85011E-18
 -1      1697 5.87888E-05 4.71113E-06-2.87758E-05 5.45145E-05 5.55823E-18 4.42744E-18
 -1      1698 1.60394E-04-1.34111E-05-5.92218E-05 9.42901E-05 3.29665E-18 4.71543E-18
 -1      1699 1.15446E-04 1.56602E-06-4.91789E-05 8.20042E-05 4.47826E-18 4.56805E-18
 -1      1700 2.33277E-04-4.38938E-05-7.53644E-05 8.16985E-05 2.21139E-18 3.48469E-18
 -1      1701 1.86509E-04-2.00238E-05-6.78575E-05 9.21004E-05 3.05017E-18 4.64174E-18
 -1      1702 2.82174E-04-6.89324E-05-8.47512E-05 3.84394E-05 1.15218E-18 1.91260E-18
 -1      1703 2.54472E-04-5.23255E-05-8.09955E-05 7.03832E-05 1.67173E-18 3.07558E-18
 -1      1704 2.81839E-04-6.80833E-05-8.55443E-05-2.28833E-05 8.76467E-19-1.67501E-19
 -1      1705 2.84809E-04-6.95377E-05-8.59580E-05 1.74539E-05 9.18184E-19 1.13979E-18
 -1      1706 2.44552E-04-4.80227E-05-7.92888E-05-7.30644E-05 1.02110E-18-1.54753E-18
 -1      1707 2.76649E-04-6.65142E-05-8.36720E-05-4.38301E-05 7.47083E-19-9.55453E-19
 -1      1708 1.75013E-04-1.66163E-05-6.52468E-05-8.89264E-05 2.06041E-18-2.20737E-18
 -1      1709 2.21590E-04-3.95291E-05-7.30448E-05-8.17561E-05 1.31714E-18-1.67035E-18
 -1      1710 1.03930E-04 6.25822E-06-4.69476E-05-7.99741E-05 3.40423E-18-2.90702E-18
 -1      1711 1.47411E-04-7.58690E-06-5.68807E-05-9.40646E-05 2.49366E-18-2.49282E-18
 -1      1712 5.23555E-05 4.45557E-06-2.63636E-05-4.99761E-05 4.19959E-18-2.93412E-18
 -1      1713 7.83673E-05 9.96874E-06-3.70448E-05-7.44622E-05 3.65410E-18-3.32715E-18
 -1      1714 2.73226E-05-1.90926E-05-7.49172E-06-2.12229E-05 4.33766E-18-2.22473E-18
 -1      1715 3.32182E-05 2.35368E-06-1.67399E-05-3.98117E-05 4.42744E-18-2.95318E-18
 -1      1716 2.33748E-05-5.43716E-05 7.78179E-06-8.09476E-06 3.46352E-18-1.29641E-18
 -1      1717 1.86167E-05-2.78387E-05 4.59970E-07-1.29234E-05 4.25888E-18-1.99963E-18
 -1      1718 2.43568E-05-7.97620E-05 1.71900E-05-1.31629E-05 1.53144E-18-7.84988E-19
 -1      1719 1.99886E-05-6.28642E-05 1.31426E-05-4.37605E-06 2.95530E-18-1.15747E-18
 -1      1720 2.04142E-05-8.05458E-05 1.86814E-05-2.34656E-05-4.76006E-19-9.22419E-19
 -1      1721 2.26763E-05-8.11655E-05 1.85932E-05-1.19214E-05 9.48677E-19-7.86894E-19
 -1      1722 1.58263E-05-6.25908E-05 1.23512E-05-2.47760E-05-2.34798E-18-1.88475E-18
 -1      1723 2.26323E-05-8.02036E-05 1.67556E-05-2.08872E-05-9.74723E-19-1.18203E-18
 -1      1724 2.54056E-05-3.50315E-05-2.98213E-06-4.70508E-06-3.83452E-18-3.91117E-18
 -1      1725 2.43459E-05-5.79669E-05 5.70188E-06-1.74143E-05-2.79944E-18-2.45449E-18
 -1      1726 7.07790E-05-2.15452E-05-2.54405E-05 3.22354E-05-4.59431E-18-6.36969E-18
 -1      1727 4.66899E-05-3.49402E-05-1.32092E-05 5.10973E-06-3.96242E-18-4.43591E-18
 -1      1728 1.61991E-04-3.80967E-05-5.11817E-05 6.11980E-05-4.13013E-18-5.96819E-18
 -1      1729 1.04518E-04-2.87414E-05-3.76086E-05 3.47240E-05-4.71628E-18-5.85469E-18
 -1      1730 2.76997E-04-7.53680E-05-7.48138E-05 5.99676E-05-2.52501E-18-2.80537E-18
 -1      1731 1.98912E-04-4.63481E-05-6.26898E-05 5.57372E-05-3.76083E-18-4.78574E-18
 -1      1732 3.59807E-04-1.04621E-04-8.95799E-05 2.52070E-05-1.70889E-18 1.78131E-18
 -1      1733 3.03063E-04-7.85318E-05-8.27120E-05 5.15374E-05-2.91019E-18-1.53313E-18
 -1      1734 3.77363E-04-1.07067E-04-9.32733E-05-2.79661E-05-1.47892E-18 5.34562E-18
 -1      1735 3.79875E-04-1.07711E-04-9.36021E-05 2.39322E-05-8.76256E-19 2.78504E-18
 -1      1736 2.95219E-04-6.63723E-05-8.41352E-05-5.45226E-06-2.54449E-18 3.08193E-18
 -1      1737 2.87445E-04-7.25191E-05-8.03107E-05-5.49242E-05-3.58295E-18 8.46355E-18
 -1      1738 3.53881E-04-1.01307E-04-8.83491E-05-3.18463E-05-2.62834E-18 6.64582E-18
 -1      1739 1.84592E-04-4.50078E-05-5.85020E-05-4.80676E-05-4.69256E-18 8.07900E-18
 -1      1740 2.58652E-04-7.11627E-05-7.11296E-05-5.66230E-05-3.46733E-18 8.30262E-18
 -1      1741 9.49568E-05-2.82071E-05-3.37902E-05-3.23266E-05-6.36461E-18 7.71478E-18
 -1      1742 1.43231E-04-3.32184E-05-4.69995E-05-5.80135E-05-5.52435E-18 8.31109E-18
 -1      1743 4.53557E-05-4.03574E-05-9.70591E-06-1.97872E-06-5.86740E-18 5.71154E-18
 -1      1744 6.59444E-05-2.54789E-05-2.20297E-05-2.64681E-05-5.97497E-18 7.24721E-18
 -1      1745 2.48193E-05-6.27905E-05 8.48132E-06 1.65443E-05-6.69664E-18 2.83735E-18
 -1      1746 2.30779E-05-3.97994E-05 4.95890E-07 7.41814E-06-6.23755E-18 4.16063E-18
 -1      1747 2.34820E-05-8.10135E-05 1.78622E-05 1.59892E-05-3.44022E-18 2.97774E-18
 -1      1748 1.75062E-05-6.52318E-05 1.39027E-05 2.06973E-05-5.73441E-18 3.60624E-18
 -1      1749 2.44779E-05-8.68705E-05 2.02762E-05 8.66512E-06-2.10064E-19 1.72625E-18
 -1      1750 2.22675E-05-8.63902E-05 2.06639E-05 2.15423E-05-2.73110E-18 2.06464E-18
 -1      1751 1.72771E-04-6.27801E-05-4.62970E-05 1.27898E-05 1.67204E-18 4.09313E-18
 -1      1752 2.07949E-04-6.95165E-05-5.68249E-05-2.20936E-06 8.41951E-19 7.82436E-18
 -1      1753 2.00460E-04-6.69560E-05-5.60227E-05-7.65089E-06 4.63856E-19 8.68082E-18
 -1      1754 1.99159E-04-7.23788E-05-5.33490E-05-2.29929E-05 5.32334E-19 6.05983E-18
 -1      1755 1.09227E-05-5.60573E-05 1.44964E-05 1.64963E-05 7.30354E-19 3.03111E-18
 -1      1756 8.36852E-05-2.81131E-05-2.44416E-05 5.47252E-05 3.22211E-18 3.06329E-18
 -1      1757 9.52371E-05-2.85712E-05-2.85711E-05-1.11058E-11-4.34945E-18-2.16463E-18
 -1      1758 9.52371E-05-2.85711E-05-2.85712E-05 2.33743E-12-1.08356E-18-1.71366E-18
 -1      1759 2.22875E-05-4.85576E-05 7.24284E-06 2.74961E-05 2.08624E-18 2.52373E-18
 -1      1760 4.73806E-05-3.66566E-05-6.83663E-06 4.27972E-05 2.89262E-18 2.26878E-18
 -1      1761 1.29845E-04-2.49317E-05-4.34175E-05 6.10801E-05 3.37543E-18 2.71813E-18
 -1      1762 1.77941E-04-2.86581E-05-6.07426E-05 5.46970E-05 2.34607E-18 1.81011E-18
 -1      1763 2.18905E-04-3.39258E-05-7.43345E-05 4.15473E-05 2.33718E-18 1.67035E-18
 -1      1764 2.38328E-04-3.65471E-05-8.08877E-05 1.51188E-05 1.66781E-18 9.18607E-19
 -1      1765 2.36429E-04-3.63974E-05-8.02735E-05-1.61980E-05 1.44504E-18-1.45054E-19
 -1      1766 2.12091E-04-3.27945E-05-7.24807E-05-4.03291E-05 1.49745E-18-9.34277E-19
 -1      1767 1.69946E-04-2.62787E-05-5.87555E-05-5.59654E-05 1.94331E-18-7.93670E-19
 -1      1768 1.20120E-04-2.11527E-05-4.13794E-05-6.11259E-05 2.13749E-18-1.21126E-18
 -1      1769 7.29891E-05-2.13956E-05-2.28742E-05-5.36467E-05 2.30732E-18-1.79317E-18
 -1      1770 3.82538E-05-2.97874E-05-6.09086E-06-3.97231E-05 2.13452E-18-1.61868E-18
 -1      1771 1.81095E-05-4.24396E-05 6.56228E-06-2.75411E-05 1.49205E-18-1.58353E-18
 -1      1772 8.65142E-06-4.97911E-05 1.29093E-05-1.75035E-05 5.45066E-19-1.58056E-18
 -1      1773 1.10006E-05-5.22666E-05 1.22813E-05-7.61268E-06-4.47445E-19-1.74573E-18
 -1      1774 2.89434E-05-5.18115E-05 3.93185E-06 5.56035E-06-1.10538E-18-2.46190E-18
 -1      1775 7.02145E-05-5.29801E-05-1.23166E-05 1.97625E-05-1.46960E-18-3.53382E-18
 -1      1776 1.35734E-04-6.22678E-05-3.37437E-05 2.29970E-05-1.58395E-18-3.06202E-18
 -1      1777 2.09739E-04-7.27989E-05-5.60375E-05 1.08431E-05-2.54872E-18-8.38563E-19
 -1      1778 2.64473E-04-7.17733E-05-7.37623E-05-5.63848E-06-3.08574E-18 1.84145E-18
 -1      1779 2.53244E-04-7.16761E-05-7.11300E-05 8.94818E-06-2.83968E-18 5.03392E-18
 -1      1780 1.98074E-04-7.10949E-05-5.24472E-05-1.17235E-05-3.53594E-18 5.25330E-18
 -1      1781 1.24357E-04-6.03899E-05-3.03311E-05-2.47234E-05-3.62615E-18 5.44388E-18
 -1      1782 6.51535E-05-5.35955E-05-9.67252E-06-2.02530E-05-3.56431E-18 3.98402E-18
 -1      1783 2.70016E-05-5.12917E-05 5.41981E-06-8.52224E-06-2.93158E-18 2.44051E-18
 -1      1784 1.14286E-05-5.37105E-05 1.33823E-05 3.84571E-06-1.17949E-18 3.62403E-18
 -1      1785 1.28984E-04-2.93683E-05-4.27350E-05-5.88087E-06-1.53260E-19 3.91795E-18
 -1      1786 2.95912E-04-6.85829E-05-8.40032E-05 6.64310E-06-3.02560E-18 4.48673E-18
 -1      1787 5.84112E-05 8.54769E-06-2.87887E-05-9.79116E-06-1.02228E-18 1.98590E-19
 -1      1788 6.65809E-05 5.13603E-06-3.07095E-05-6.47585E-06-9.17945E-19 5.74857E-19
 -1      1789 7.96386E-05-2.61027E-06-3.32914E-05-1.07750E-06-6.30140E-19 1.00310E-18
 -1      1790 9.47287E-05-1.01509E-05-3.62254E-05-4.75172E-08-4.38604E-19 1.61286E-18
 -1      1791 7.17214E-05 9.66580E-07-3.09092E-05 6.13714E-08-7.13744E-19 6.93826E-19
 -1      1792 6.52597E-05 1.58029E-06-2.84313E-05-2.56745E-05-1.35684E-18-2.46172E-19
 -1      1793 5.93296E-05 4.75785E-06-2.76488E-05-2.45240E-05-1.34904E-18-1.75799E-19
 -1      1794 8.08404E-05-7.74973E-06-3.11685E-05-2.41390E-05-1.23679E-18-1.43254E-19
 -1      1795 7.34186E-05-4.31720E-06-2.97845E-05-2.56297E-05-1.32305E-18-1.58779E-19
 -1      1796 7.01424E-05-3.80636E-06-2.84863E-05-2.88822E-05-1.53040E-18-1.60857E-19
 -1      1797 9.38899E-05-1.43591E-05-3.40426E-05-1.74613E-05-9.83021E-19-6.70480E-20
 -1      1798 8.81895E-05-1.21208E-05-3.26941E-05-2.06822E-05-1.09414E-18-3.40666E-20
 -1      1799 8.72578E-05-1.40655E-05-3.15241E-05-2.43837E-05-1.27607E-18 4.03664E-20
 -1      1800 1.01273E-04-1.69626E-05-3.61928E-05-8.98498E-06-6.87473E-19-1.55219E-19
 -1      1801 9.83238E-05-1.61857E-05-3.52431E-05-1.27165E-05-8.22866E-19-1.19961E-19
 -1      1802 9.97983E-05-2.00252E-05-3.43147E-05-1.54950E-05-1.00716E-18 1.49554E-20
 -1      1803 1.03381E-04-1.66091E-05-3.73076E-05-1.01094E-06-4.55234E-19-2.03791E-19
 -1      1804 1.02811E-04-1.68563E-05-3.68720E-05-4.50694E-06-5.55376E-19-1.69512E-19
 -1      1805 1.05749E-04-2.14681E-05-3.62007E-05-6.14268E-06-6.83853E-19-6.98008E-20
 -1      1806 1.01872E-04-1.48279E-05-3.74411E-05 5.58169E-06-2.28901E-19-2.78965E-19
 -1      1807 1.02865E-04-1.55424E-05-3.74715E-05 2.60612E-06-3.17688E-19-2.40399E-19
 -1      1808 1.06411E-04-2.01296E-05-3.70203E-05 1.71186E-06-4.41755E-19-1.01962E-19
 -1      1809 9.84801E-05-1.28304E-05-3.68379E-05 1.07182E-05 2.11758E-21-2.71739E-19
 -1      1810 1.00247E-04-1.35886E-05-3.72017E-05 8.29327E-06-1.18446E-19-2.64910E-19
 -1      1811 1.03858E-04-1.77778E-05-3.69146E-05 7.65526E-06-1.91628E-19-1.86519E-19
 -1      1812 9.43187E-05-1.12142E-05-3.57396E-05 1.49041E-05 2.56995E-19-1.54001E-19
 -1      1813 9.63786E-05-1.18126E-05-3.63165E-05 1.28295E-05 1.03275E-19-2.00191E-19
 -1      1814 9.98104E-05-1.55489E-05-3.61296E-05 1.21250E-05 1.09972E-19-1.22568E-19
 -1      1815 9.03809E-05-1.04179E-05-3.44020E-05 1.83833E-05 5.09975E-19 7.67624E-21
 -1      1816 9.22593E-05-1.06847E-05-3.50506E-05 1.65521E-05 3.69512E-19-8.15534E-20
 -1      1817 9.54168E-05-1.40502E-05-3.48892E-05 1.56051E-05 3.53937E-19-5.18808E-21
 -1      1818 8.76936E-05-1.09975E-05-3.30583E-05 2.13290E-05 7.30923E-19 3.23117E-19
 -1      1819 8.88531E-05-1.06498E-05-3.36377E-05 1.96095E-05 5.79217E-19 1.03153E-19
 -1      1820 9.16389E-05-1.37537E-05-3.33929E-05 1.82884E-05 6.25225E-19 1.33858E-19
 -1      1821 8.82832E-05-1.46177E-05-3.18177E-05 2.28620E-05 8.38066E-19 1.21295E-18
 -1      1822 8.73961E-05-1.25282E-05-3.22514E-05 2.18160E-05 7.61772E-19 7.06717E-19
 -1      1823 8.94687E-05-1.54044E-05-3.17449E-05 1.98088E-05 7.66976E-19 5.98429E-19
 -1      1824 9.17307E-05-2.17690E-05-3.04332E-05 1.85037E-05 6.91973E-19 2.11419E-18
 -1      1825 8.91478E-05-1.66593E-05-3.10478E-05 2.16880E-05 7.33319E-19 1.53128E-18
 -1      1826 8.89641E-05-1.90723E-05-3.00210E-05 1.84744E-05 8.26757E-19 1.24225E-18
 -1      1827 8.75279E-05-2.25525E-05-2.80959E-05 1.34670E-05 7.35754E-19 1.93875E-18
 -1      1828 1.15774E-04-2.26028E-05-3.99453E-05-1.46107E-06-2.62322E-19 2.58313E-18
 -1      1829 8.21680E-05-2.32071E-05-2.53019E-05 7.83172E-06 6.74212E-19 1.73992E-18
 -1      1830 8.57194E-05-2.36347E-05-2.66671E-05 1.02237E-05 6.94064E-19 1.92918E-18
 -1      1831 8.70119E-05-2.22004E-05-2.77429E-05 1.33255E-05 7.12778E-19 1.52747E-18
 -1      1832 1.84349E-04-7.48099E-05-4.64221E-05 6.04452E-06 6.01393E-20 2.27682E-18
 -1      1833 1.92311E-04-7.20611E-05-5.24235E-05-1.37913E-05-1.19580E-18 2.98918E-18
 -1      1834 1.09588E-04-2.49357E-05-3.60560E-05 2.50847E-05 3.07155E-19 1.90658E-18
 -1      1835 1.15354E-04-2.93206E-05-3.62830E-05 3.00133E-05 6.41204E-19 1.83976E-18
 -1      1836 1.14777E-04-3.34667E-05-3.41323E-05 3.50107E-05 1.04503E-18 1.59872E-18
 -1      1837 1.23857E-04-4.30525E-05-3.38915E-05 3.32308E-05 1.23646E-18 1.59115E-18
 -1      1838 8.73297E-05-2.10013E-05-2.79504E-05 3.41091E-05 6.36122E-19 6.02346E-19
 -1      1839 2.39267E-04-6.30246E-05-7.22382E-05-2.49968E-05-2.79860E-18 4.56890E-18
 -1      1840 2.37474E-04-5.22413E-05-7.54923E-05-8.87565E-06-2.29631E-18 3.51815E-18
 -1      1841 2.39265E-04-5.29199E-05-7.55798E-05 6.81212E-06-2.85704E-18 4.02002E-18
 -1      1842 2.41599E-04-6.38258E-05-7.22354E-05 2.62995E-05-2.71982E-18 2.92862E-18
 -1      1843 1.70492E-04-6.56924E-05-4.41051E-05-1.16065E-05 5.67936E-19 4.42879E-19
 -1      1844 1.59762E-04-5.73462E-05-4.27202E-05-2.41596E-05 9.83829E-19 4.52898E-19
 -1      1845 1.49871E-04-4.89340E-05-4.25894E-05-2.95427E-05 8.30092E-19 5.29872E-19
 -1      1846 1.38179E-04-4.10265E-05-4.10268E-05-3.18054E-05 7.63177E-19 8.08387E-19
 -1      1847 1.29022E-04-4.81966E-05-3.42271E-05-3.52920E-05 1.00924E-18 3.78412E-19
 -1      1848 1.33454E-04-3.80180E-05-4.06464E-05-2.92017E-05 1.06827E-18 9.59530E-19
 -1      1849 1.22980E-04-3.33741E-05-3.83597E-05-2.62872E-05 8.57045E-19 1.39019E-18
 -1      1850 1.15337E-04-3.28624E-05-3.50250E-05-3.71338E-05 8.98067E-19 7.72679E-19
 -1      1851 1.20530E-04-3.30039E-05-3.74146E-05-2.15107E-05 9.54818E-19 1.88295E-18
 -1      1852 1.12842E-04-3.06855E-05-3.53141E-05-1.79310E-05 8.79591E-20 2.47942E-18
 -1      1853 1.08323E-04-2.74200E-05-3.45488E-05-2.90330E-05 1.24288E-18 1.13592E-18
 -1      1854 1.11106E-04-3.08269E-05-3.43227E-05-1.38794E-05 1.47913E-19 2.61564E-18
 -1      1855 1.06025E-04-2.96518E-05-3.28028E-05-1.11471E-05 1.69354E-19 3.07872E-18
 -1      1856 1.04067E-04-2.67443E-05-3.30950E-05-1.96139E-05 4.00832E-19 2.27911E-18
 -1      1857 1.04718E-04-2.97724E-05-3.20360E-05-8.34852E-06-6.41336E-19 3.62629E-18
 -1      1858 1.01580E-04-2.91565E-05-3.10681E-05-6.57194E-06-6.31304E-19 2.70615E-18
 -1      1859 1.01021E-04-2.72551E-05-3.15982E-05-1.22406E-05-7.14949E-20 2.67262E-18
 -1      1860 1.00650E-04-2.92018E-05-3.05503E-05-4.80701E-06-6.29875E-19 1.94574E-18
 -1      1861 9.88013E-05-2.88752E-05-2.99758E-05-3.73274E-06-9.77191E-19 1.80667E-18
 -1      1862 9.88278E-05-2.77689E-05-3.04468E-05-7.26358E-06-1.22779E-18 1.94368E-18
 -1      1863 9.81870E-05-2.88801E-05-2.96516E-05-2.67414E-06-8.09353E-19 1.49324E-18
 -1      1864 9.71383E-05-2.87101E-05-2.93256E-05-2.05038E-06-6.92198E-19 1.07309E-18
 -1      1865 9.73373E-05-2.81014E-05-2.96694E-05-4.15010E-06-1.17838E-18 1.21770E-18
 -1      1866 9.67577E-05-2.87023E-05-2.91327E-05-1.43616E-06-7.09092E-20 1.42657E-18
 -1      1867 9.61847E-05-2.86180E-05-2.89545E-05-1.08408E-06 7.65771E-20 1.94633E-18
 -1      1868 9.63867E-05-2.82923E-05-2.91823E-05-2.28879E-06-5.16379E-19 1.62128E-18
 -1      1869 9.59630E-05-2.86100E-05-2.88446E-05-7.37527E-07 5.49220E-19 2.28481E-18
 -1      1870 9.56637E-05-2.85719E-05-2.87512E-05-5.44037E-07 9.18572E-19 3.01259E-18
 -1      1871 9.58161E-05-2.84000E-05-2.88927E-05-1.21159E-06 4.55422E-19 2.93062E-18
 -1      1872 9.55430E-05-2.85674E-05-2.86915E-05-3.54316E-07-4.38191E-20 2.10901E-18
 -1      1873 9.53963E-05-2.85533E-05-2.86452E-05-2.51420E-07-4.51304E-19 1.31459E-18
 -1      1874 9.54946E-05-2.84631E-05-2.87282E-05-6.06320E-07-1.61545E-19 2.81521E-18
 -1      1875 9.53362E-05-2.85519E-05-2.86147E-05-1.51631E-07-7.89725E-19 8.58197E-19
 -1      1876 9.52712E-05-2.85497E-05-2.85939E-05-9.93045E-08-1.40568E-18 8.25857E-19
 -1      1877 9.53269E-05-2.85024E-05-2.86395E-05-2.77500E-07-1.07377E-18 1.59987E-18
 -1      1878 9.52445E-05-2.85506E-05-2.85793E-05-4.79014E-08-8.77148E-19 2.05449E-18
 -1      1879 9.52215E-05-2.85535E-05-2.85714E-05-2.28540E-08 8.69560E-19 2.08877E-18
 -1      1880 9.52477E-05-2.85280E-05-2.85942E-05-1.04630E-07-5.81026E-19 2.55962E-18
 -1      1881 9.52144E-05-2.85550E-05-2.85663E-05-1.75316E-09 1.04655E-18 1.25886E-18
 -1      1882 9.52118E-05-2.85591E-05-2.85651E-05 7.62922E-09 8.33309E-19 1.54041E-18
 -1      1883 9.52192E-05-2.85465E-05-2.85742E-05-2.15348E-08 6.36876E-19 2.42429E-18
 -1      1884 9.52128E-05-2.85612E-05-2.85640E-05 1.51749E-08 4.68429E-19 1.64549E-18
 -1      1885 9.52178E-05-2.85650E-05-2.85653E-05 1.75422E-08 1.01133E-18 2.30750E-18
 -1      1886 9.52155E-05-2.85582E-05-2.85674E-05 1.20297E-08 9.36940E-19 1.57074E-18
 -1      1887 9.52218E-05-2.85669E-05-2.85660E-05 1.84922E-08 1.23036E-18 2.44953E-18
 -1      1888 9.52285E-05-2.85700E-05-2.85679E-05 1.77218E-08 3.89590E-19 2.20655E-18
 -1      1889 9.52220E-05-2.85662E-05-2.85667E-05 2.22071E-08 1.09780E-18 7.04605E-19
 -1      1890 9.52330E-05-2.85714E-05-2.85691E-05 1.59010E-08-9.13983E-19 2.08305E-18
 -1      1891 9.52390E-05-2.85735E-05-2.85709E-05 1.40104E-08-1.28096E-18 1.03370E-18
 -1      1892 9.52312E-05-2.85714E-05-2.85684E-05 2.15027E-08-4.76609E-19 4.64228E-19
 -1      1893 9.52427E-05-2.85745E-05-2.85721E-05 1.13854E-08-6.80054E-19 8.11359E-19
 -1      1894 9.52471E-05-2.85758E-05-2.85734E-05 9.36264E-09-1.74377E-18 1.33617E-19
 -1      1895 9.52397E-05-2.85746E-05-2.85707E-05 1.65767E-08-1.19925E-18 2.76768E-19
 -1      1896 9.52497E-05-2.85764E-05-2.85743E-05 6.85897E-09-2.33552E-18 9.43996E-19
 -1      1897 9.52523E-05-2.85770E-05-2.85751E-05 5.12905E-09-9.72691E-19 1.31037E-18
 -1      1898 9.52461E-05-2.85763E-05-2.85727E-05 1.07765E-08-1.29076E-18 6.48551E-19
 -1      1899 9.52539E-05-2.85773E-05-2.85757E-05 3.11136E-09 3.92359E-19 1.61963E-18
 -1      1900 9.52551E-05-2.85775E-05-2.85761E-05 1.80660E-09 1.29258E-18 1.18983E-18
 -1      1901 9.52503E-05-2.85770E-05-2.85742E-05 5.61291E-09-5.50948E-19 1.76556E-18
 -1      1902 9.52557E-05-2.85775E-05-2.85764E-05 3.54009E-10 6.58489E-19 1.01560E-18
 -1      1903 9.52558E-05-2.85773E-05-2.85765E-05-5.34480E-10 3.36617E-19 1.48194E-18
 -1      1904 9.52524E-05-2.85771E-05-2.85751E-05 1.61988E-09 9.02597E-19 2.35142E-18
 -1      1905 9.52557E-05-2.85772E-05-2.85766E-05-1.47455E-09-1.85109E-19 1.13306E-18
 -1      1906 9.52551E-05-2.85769E-05-2.85764E-05-2.01420E-09-1.18790E-19 6.51786E-19
 -1      1907 9.52529E-05-2.85767E-05-2.85755E-05-1.15446E-09-1.79618E-19 1.60669E-18
 -1      1908 9.52546E-05-2.85767E-05-2.85763E-05-2.54321E-09-3.78755E-19 5.85154E-19
 -1      1909 9.52536E-05-2.85762E-05-2.85760E-05-2.81706E-09-3.97425E-19 4.99943E-19
 -1      1910 9.52523E-05-2.85762E-05-2.85755E-05-2.87537E-09-4.19691E-19 2.23217E-20
 -1      1911 9.52529E-05-2.85760E-05-2.85758E-05-3.04333E-09 1.69026E-19-3.27127E-19
 -1      1912 9.52516E-05-2.85755E-05-2.85755E-05-3.12951E-09-1.89725E-20 6.01549E-19
 -1      1913 9.52510E-05-2.85755E-05-2.85752E-05-3.77674E-09-2.85096E-19 6.69607E-19
 -1      1914 9.52508E-05-2.85752E-05-2.85752E-05-3.14918E-09-4.62535E-19 1.07823E-18
 -1      1915 9.52495E-05-2.85748E-05-2.85749E-05-3.11278E-09 9.30006E-20 1.24684E-18
 -1      1916 9.52493E-05-2.85748E-05-2.85748E-05-4.08959E-09 2.46812E-19 4.96560E-19
 -1      1917 9.52486E-05-2.85745E-05-2.85746E-05-3.00254E-09-1.07282E-18 1.20116E-18
 -1      1918 9.52474E-05-2.85741E-05-2.85743E-05-2.89452E-09-1.50116E-18 9.01022E-19
 -1      1919 9.52475E-05-2.85741E-05-2.85743E-05-4.01148E-09-2.15991E-19 1.41773E-18
 -1      1920 9.52465E-05-2.85738E-05-2.85740E-05-2.70167E-09-8.44819E-19 5.82480E-19
 -1      1921 9.52453E-05-2.85735E-05-2.85737E-05-2.54926E-09 2.14355E-19 3.84805E-19
 -1      1922 9.52457E-05-2.85735E-05-2.85738E-05-3.68729E-09-1.94278E-18 1.70477E-18
 -1      1923 9.52446E-05-2.85732E-05-2.85734E-05-2.33548E-09 1.03395E-18-7.83005E-19
 -1      1924 9.52436E-05-2.85729E-05-2.85731E-05-2.17797E-09 9.95885E-19-8.31937E-19
 -1      1925 9.52441E-05-2.85730E-05-2.85733E-05-3.23558E-09-2.31189E-20-1.81780E-19
 -1      1926 9.52430E-05-2.85728E-05-2.85729E-05-1.96167E-09 2.13920E-18-1.88860E-18
 -1      1927 9.52422E-05-2.85725E-05-2.85727E-05-1.80845E-09 2.30762E-18-3.50089E-19
 -1      1928 9.52426E-05-2.85726E-05-2.85729E-05-2.75258E-09 6.44713E-19-2.09200E-18
 -1      1929 9.52416E-05-2.85724E-05-2.85725E-05-1.60536E-09 2.06067E-18 3.97858E-19
 -1      1930 9.52410E-05-2.85722E-05-2.85723E-05-1.46541E-09 1.06849E-18 1.17705E-18
 -1      1931 9.52414E-05-2.85722E-05-2.85725E-05-2.27784E-09 2.32070E-18-1.68138E-18
 -1      1932 9.52405E-05-2.85720E-05-2.85722E-05-1.28410E-09 9.09610E-19 2.06624E-18
 -1      1933 9.52400E-05-2.85719E-05-2.85720E-05-1.16168E-09-8.30587E-19 2.36245E-18
 -1      1934 9.52404E-05-2.85719E-05-2.85722E-05-1.84058E-09 1.78736E-18-1.18007E-18
 -1      1935 9.52396E-05-2.85718E-05-2.85719E-05-1.00572E-09-1.19997E-18 2.40796E-18
 -1      1936 9.52392E-05-2.85717E-05-2.85718E-05-9.02099E-10-2.73432E-18 1.66511E-18
 -1      1937 9.52396E-05-2.85717E-05-2.85719E-05-1.45553E-09-1.18942E-18-2.62594E-20
 -1      1938 9.52389E-05-2.85716E-05-2.85717E-05-7.71739E-10-1.93038E-18 2.07382E-18
 -1      1939 9.52386E-05-2.85715E-05-2.85716E-05-6.86218E-10-2.47605E-20 1.67855E-18
 -1      1940 9.52389E-05-2.85715E-05-2.85717E-05-1.12764E-09-1.70708E-18 2.14760E-19
 -1      1941 9.52383E-05-2.85714E-05-2.85715E-05-5.79624E-10 1.96271E-18 2.17357E-18
 -1      1942 9.52381E-05-2.85714E-05-2.85715E-05-5.10348E-10 2.61502E-18 3.83035E-18
 -1      1943 9.52384E-05-2.85714E-05-2.85716E-05-8.55561E-10 1.95039E-18 8.35644E-19
 -1      1944 9.52379E-05-2.85713E-05-2.85714E-05-4.24482E-10 3.10188E-18 4.53550E-18
 -1      1945 9.52378E-05-2.85713E-05-2.85713E-05-3.68932E-10 3.49271E-18 4.53422E-18
 -1      1946 9.52380E-05-2.85713E-05-2.85714E-05-6.34061E-10 3.91996E-18 2.52677E-18
 -1      1947 9.52376E-05-2.85713E-05-2.85713E-05-3.00143E-10-9.43439E-19 3.75655E-18
 -1      1948 9.52375E-05-2.85712E-05-2.85713E-05-2.55502E-10-4.73757E-18 2.35688E-18
 -1      1949 9.52377E-05-2.85712E-05-2.85713E-05-4.55715E-10 1.72290E-19 9.58194E-19
 -1      1950 9.52374E-05-2.85712E-05-2.85712E-05-2.00079E-10-5.14138E-18 3.24077E-18
 -1      1951 9.52373E-05-2.85712E-05-2.85712E-05-1.63523E-10-5.69882E-18 3.38802E-18
 -1      1952 9.52375E-05-2.85712E-05-2.85713E-05-3.12337E-10-4.88672E-18 1.91779E-18
 -1      1953 9.52373E-05-2.85712E-05-2.85712E-05-1.18042E-10-3.73587E-18 3.58185E-18
 -1      1954 9.52372E-05-2.85711E-05-2.85712E-05-8.73585E-11-9.37652E-19 1.91452E-18
 -1      1955 9.52373E-05-2.85712E-05-2.85712E-05-1.95978E-10-4.87822E-18 4.21271E-18
 -1      1956 9.52372E-05-2.85711E-05-2.85712E-05-5.06864E-11 1.96460E-20 1.61740E-18
 -1      1957 9.52372E-05-2.85711E-05-2.85712E-05-2.65013E-11 1.43884E-18 2.68366E-18
 -1      1958 9.52372E-05-2.85711E-05-2.85712E-05-1.00752E-10-1.23468E-18 4.75516E-18
 -1      1959 9.52372E-05-2.85711E-05-2.85712E-05-1.58721E-11 2.96552E-18 2.46651E-18
 -1      1960 9.52372E-05-2.85711E-05-2.85712E-05-1.02051E-11 3.53697E-18 3.03771E-18
 -1      1961 9.52372E-05-2.85711E-05-2.85712E-05-2.80184E-11 1.26682E-18 1.16563E-20
 -1      1962 9.52372E-05-2.85711E-05-2.85712E-05-4.91627E-11 4.47741E-19 4.08020E-18
 -1      1963 1.06765E-04-1.94993E-05-3.71927E-05 5.61525E-06-2.10077E-19 1.98492E-18
 -1      1964 7.68683E-05-2.22342E-05-2.33634E-05 3.98158E-06 2.66590E-19 1.16370E-18
 -1      1965 7.83512E-05-2.25757E-05-2.38307E-05 4.84317E-06 2.84338E-19 1.33131E-18
 -1      1966 7.48886E-05-2.16743E-05-2.27591E-05 2.12798E-06 3.43710E-19 9.41547E-19
 -1      1967 7.57619E-05-2.19340E-05-2.30106E-05 2.87415E-06 3.09111E-19 1.06446E-18
 -1      1968 8.03778E-05-2.27754E-05-2.47138E-05 4.74720E-06 4.55595E-19 9.18748E-19
 -1      1969 7.39672E-05-2.13726E-05-2.24989E-05 3.00222E-07 5.12458E-19 6.22643E-19
 -1      1970 7.42420E-05-2.14619E-05-2.25766E-05 1.05224E-06 4.86455E-19 7.96248E-19
 -1      1971 7.86313E-05-2.22991E-05-2.41775E-05 2.27557E-06 5.88989E-19 7.39309E-19
 -1      1972 7.41147E-05-2.14487E-05-2.25361E-05-1.50311E-06 4.80880E-19 3.73285E-19
 -1      1973 7.38127E-05-2.13280E-05-2.24568E-05-7.67618E-07 5.18037E-19 5.99121E-19
 -1      1974 7.78331E-05-2.20559E-05-2.39418E-05-1.53104E-07 6.36830E-19 6.35382E-19
 -1      1975 7.52583E-05-2.19242E-05-2.28305E-05-3.11704E-06 3.09564E-19 1.94551E-19
 -1      1976 7.44353E-05-2.15972E-05-2.26129E-05-2.47909E-06 3.47207E-19 2.83463E-19
 -1      1977 7.80123E-05-2.22085E-05-2.39502E-05-2.47383E-06 5.18229E-19 4.91914E-19
 -1      1978 7.72109E-05-2.27291E-05-2.33310E-05-4.34031E-06-6.43480E-20-1.51209E-20
 -1      1979 7.59772E-05-2.22414E-05-2.30041E-05-3.88214E-06 1.94222E-21 5.22547E-20
 -1      1980 7.90860E-05-2.27790E-05-2.41580E-05-4.45537E-06 2.06104E-19 1.48527E-19
 -1      1981 7.96919E-05-2.37293E-05-2.39736E-05-5.03921E-06 7.38474E-20 2.42179E-19
 -1      1982 7.82008E-05-2.31533E-05-2.35756E-05-4.80594E-06 8.36147E-20 1.71114E-19
 -1      1983 8.08473E-05-2.36701E-05-2.45204E-05-5.86219E-06-1.21675E-19 6.65583E-20
 -1      1984 8.23897E-05-2.47743E-05-2.46882E-05-5.19619E-06 2.81139E-19 3.30872E-20
 -1      1985 8.08063E-05-2.41861E-05-2.42607E-05-5.18263E-06 1.60479E-19 8.97061E-20
 -1      1986 8.30112E-05-2.47159E-05-2.49890E-05-6.56936E-06 2.53302E-19-3.46696E-20
 -1      1987 8.50277E-05-2.57404E-05-2.54090E-05-4.90026E-06 2.49577E-19-1.48080E-19
 -1      1988 8.34971E-05-2.52006E-05-2.49898E-05-5.06056E-06 3.68125E-19-8.66720E-20
 -1      1989 8.52872E-05-2.57472E-05-2.55141E-05-6.60157E-06 3.93376E-19-1.42142E-19
 -1      1990 8.74084E-05-2.65535E-05-2.60834E-05-4.30096E-06-5.48752E-20-2.70710E-19
 -1      1991 8.60348E-05-2.60978E-05-2.57011E-05-4.56988E-06 6.74136E-20-2.06567E-19
 -1      1992 8.74420E-05-2.66403E-05-2.60496E-05-6.10343E-06 2.10709E-19-2.06954E-19
 -1      1993 8.94246E-05-2.71886E-05-2.66768E-05-3.55615E-06-6.45932E-19 1.82321E-19
 -1      1994 8.82650E-05-2.68289E-05-2.63486E-05-3.86987E-06-4.30741E-19-2.66534E-20
 -1      1995 8.93290E-05-2.73365E-05-2.65577E-05-5.27503E-06-3.84596E-19-1.74494E-21
 -1      1996 9.10462E-05-2.76556E-05-2.71721E-05-2.79516E-06-1.56402E-19 2.67396E-19
 -1      1997 9.01164E-05-2.73870E-05-2.69046E-05-3.10432E-06-2.94384E-19 3.08834E-19
 -1      1998 9.08855E-05-2.78324E-05-2.70120E-05-4.31012E-06-6.11503E-19 9.31178E-20
 -1      1999 9.22961E-05-2.79829E-05-2.75674E-05-2.10337E-06-1.21768E-19 2.49851E-19
 -1      2000 9.15826E-05-2.77912E-05-2.73590E-05-2.37740E-06-7.29706E-20-5.76479E-20
 -1      2001 9.21105E-05-2.81586E-05-2.73983E-05-3.35790E-06-9.17443E-20-3.76138E-19
 -1      2002 9.32256E-05-2.82036E-05-2.78707E-05-1.52374E-06-4.46553E-19 4.07525E-19
 -1      2003 9.26987E-05-2.80719E-05-2.77146E-05-1.74884E-06-1.47758E-19 3.66509E-19
 -1      2004 9.30398E-05-2.83581E-05-2.77126E-05-2.51102E-06-2.43763E-19-2.73874E-19
 -1      2005 9.38962E-05-2.83481E-05-2.80956E-05-1.06711E-06-5.21643E-19 3.86837E-19
 -1      2006 9.35200E-05-2.82606E-05-2.79826E-05-1.24153E-06-4.29791E-19 2.20790E-19
 -1      2007 9.37243E-05-2.84719E-05-2.79588E-05-1.81169E-06-4.60609E-19-1.17826E-19
 -1      2008 9.43672E-05-2.84404E-05-2.82572E-05-7.24542E-07-5.39266E-19 1.17271E-18
 -1      2009 9.41067E-05-2.83839E-05-2.81780E-05-8.53498E-07-5.94410E-19 8.53673E-19
 -1      2010 9.42165E-05-2.85325E-05-2.81453E-05-1.26608E-06-6.67278E-19-2.64837E-19
 -1      2011 9.46902E-05-2.84982E-05-2.83703E-05-4.77652E-07 2.34383E-19 1.71297E-18
 -1      2012 9.45148E-05-2.84628E-05-2.83163E-05-5.69359E-07-2.76823E-19 1.56457E-18
 -1      2013 9.45634E-05-2.85624E-05-2.82824E-05-8.59270E-07-6.66793E-19 9.12511E-19
 -1      2014 9.49066E-05-2.85338E-05-2.84473E-05-3.05648E-07-7.95586E-19 2.08088E-18
 -1      2015 9.47918E-05-2.85122E-05-2.84115E-05-3.68735E-07-9.29126E-20 2.25873E-18
 -1      2016 9.48033E-05-2.85758E-05-2.83804E-05-5.67082E-07-3.79121E-19 2.44620E-18
 -1      2017 9.50485E-05-2.85553E-05-2.84984E-05-1.89300E-07 7.02568E-19 1.53393E-18
 -1      2018 9.49754E-05-2.85426E-05-2.84754E-05-2.31446E-07-2.12602E-20 1.84095E-18
 -1      2019 9.49666E-05-2.85810E-05-2.84489E-05-3.63761E-07-2.48427E-20 2.07471E-18
 -1      2020 9.51391E-05-2.85678E-05-2.85315E-05-1.12672E-07 4.41601E-19 1.84187E-18
 -1      2021 9.50941E-05-2.85607E-05-2.85171E-05-1.40078E-07 6.04011E-19 1.78513E-18
 -1      2022 9.50757E-05-2.85825E-05-2.84956E-05-2.26135E-07 3.75738E-19 1.69712E-18
 -1      2023 9.51953E-05-2.85748E-05-2.85523E-05-6.34740E-08 3.55916E-19 1.22813E-18
 -1      2024 9.51688E-05-2.85712E-05-2.85437E-05-8.08298E-08 4.67848E-19 1.57415E-18
 -1      2025 9.51472E-05-2.85823E-05-2.85268E-05-1.35285E-07 2.86107E-19 1.55882E-18
 -1      2026 9.52288E-05-2.85785E-05-2.85649E-05-3.27047E-08 3.94325E-19 1.41315E-18
 -1      2027 9.52140E-05-2.85769E-05-2.85600E-05-4.33898E-08-1.13874E-19 1.36206E-18
 -1      2028 9.51930E-05-2.85816E-05-2.85470E-05-7.67346E-08 1.59291E-19 1.65795E-18
 -1      2029 9.52476E-05-2.85800E-05-2.85722E-05-1.40287E-08-9.43989E-21 1.42739E-18
 -1      2030 9.52402E-05-2.85796E-05-2.85696E-05-2.03887E-08 6.68422E-19 1.58584E-18
 -1      2031 9.52214E-05-2.85807E-05-2.85598E-05-3.99290E-08-3.74283E-20 2.35706E-18
 -1      2032 9.52571E-05-2.85802E-05-2.85760E-05-3.12169E-09 1.09064E-18 1.72789E-18
 -1      2033 9.52542E-05-2.85805E-05-2.85749E-05-6.73737E-09 4.27860E-19 1.53819E-18
 -1      2034 9.52383E-05-2.85797E-05-2.85676E-05-1.74439E-08 3.36052E-19 2.19534E-18
 -1      2035 9.52608E-05-2.85798E-05-2.85777E-05 2.89461E-09 4.49864E-19 1.78086E-18
 -1      2036 9.52605E-05-2.85804E-05-2.85774E-05 9.83503E-10 1.21208E-18 2.47832E-18
 -1      2037 9.52476E-05-2.85787E-05-2.85721E-05-4.20570E-09 9.21124E-19 2.44154E-18
 -1      2038 9.52612E-05-2.85790E-05-2.85782E-05 5.89771E-09 1.66270E-19 1.14187E-18
 -1      2039 9.52623E-05-2.85797E-05-2.85784E-05 5.02055E-09-5.04003E-20 1.41281E-18
 -1      2040 9.52520E-05-2.85778E-05-2.85745E-05 3.17370E-09 1.59109E-19 1.86745E-18
 -1      2041 9.52597E-05-2.85780E-05-2.85780E-05 7.09164E-09 1.29993E-18 1.17469E-18
 -1      2042 9.52615E-05-2.85788E-05-2.85784E-05 6.82311E-09 7.25264E-19 1.37228E-18
 -1      2043 9.52535E-05-2.85768E-05-2.85756E-05 6.91532E-09 6.22684E-19 1.01602E-18
 -1      2044 9.52573E-05-2.85770E-05-2.85773E-05 7.23730E-09 1.11362E-18 4.19422E-19
 -1      2045 9.52593E-05-2.85777E-05-2.85779E-05 7.31166E-09 1.96235E-18 1.06843E-18
 -1      2046 9.52532E-05-2.85760E-05-2.85759E-05 8.45277E-09 1.82713E-18 9.54585E-19
 -1      2047 9.52545E-05-2.85760E-05-2.85765E-05 6.80893E-09-7.02900E-21-1.78783E-19
 -1      2048 9.52565E-05-2.85767E-05-2.85771E-05 7.06257E-09 8.16134E-19 3.24062E-19
 -1      2049 9.52519E-05-2.85752E-05-2.85757E-05 8.69912E-09 1.55405E-18 6.40766E-19
 -1      2050 9.52517E-05-2.85751E-05-2.85757E-05 6.09765E-09-1.30861E-18-4.83698E-19
 -1      2051 9.52536E-05-2.85757E-05-2.85762E-05 6.43156E-09-1.12068E-18-1.20581E-19
 -1      2052 9.52502E-05-2.85745E-05-2.85753E-05 8.22859E-09-7.63646E-19 1.91612E-18
 -1      2053 9.52491E-05-2.85743E-05-2.85749E-05 5.27871E-09-5.23977E-19-7.69639E-19
 -1      2054 9.52508E-05-2.85748E-05-2.85754E-05 5.63437E-09-5.95200E-19-9.40877E-19
 -1      2055 9.52483E-05-2.85738E-05-2.85748E-05 7.39724E-09-8.69379E-19 5.19163E-19
 -1      2056 9.52468E-05-2.85736E-05-2.85742E-05 4.45449E-09-9.17299E-19 1.11731E-18
 -1      2057 9.52482E-05-2.85741E-05-2.85746E-05 4.79861E-09-7.46432E-19 3.25304E-19
 -1      2058 9.52464E-05-2.85733E-05-2.85742E-05 6.42180E-09-1.27798E-18 7.24843E-19
 -1      2059 9.52448E-05-2.85731E-05-2.85736E-05 3.68181E-09-1.58040E-18 8.00205E-19
 -1      2060 9.52460E-05-2.85734E-05-2.85739E-05 3.99672E-09-1.26676E-18 8.40303E-19
 -1      2061 9.52447E-05-2.85728E-05-2.85737E-05 5.43048E-09-1.16340E-18 8.21442E-19
 -1      2062 9.52431E-05-2.85726E-05-2.85730E-05 2.98920E-09 3.15451E-19 3.89647E-20
 -1      2063 9.52440E-05-2.85729E-05-2.85733E-05 3.26684E-09-4.97346E-19 4.00827E-19
 -1      2064 9.52432E-05-2.85724E-05-2.85732E-05 4.49553E-09-7.50812E-19-6.26348E-19
 -1      2065 9.52417E-05-2.85722E-05-2.85726E-05 2.38781E-09 8.02110E-19-1.47764E-18
 -1      2066 9.52425E-05-2.85725E-05-2.85728E-05 2.62591E-09 6.47580E-19-6.65819E-19
 -1      2067 9.52419E-05-2.85721E-05-2.85728E-05 3.65406E-09 8.57169E-19-1.10488E-18
 -1      2068 9.52405E-05-2.85719E-05-2.85722E-05 1.87832E-09-3.81046E-19-6.21038E-19
 -1      2069 9.52412E-05-2.85721E-05-2.85724E-05 2.07805E-09-5.47702E-19-1.43407E-18
 -1      2070 9.52408E-05-2.85718E-05-2.85724E-05 2.92132E-09 2.04544E-19-2.44515E-18
 -1      2071 9.52396E-05-2.85717E-05-2.85720E-05 1.45533E-09 2.44014E-19 5.83695E-19
 -1      2072 9.52401E-05-2.85719E-05-2.85721E-05 1.61979E-09 3.42126E-19 5.33450E-19
 -1      2073 9.52399E-05-2.85716E-05-2.85721E-05 2.29926E-09-8.70599E-19-1.75965E-18
 -1      2074 9.52389E-05-2.85715E-05-2.85717E-05 1.11015E-09 6.00993E-19-6.30799E-19
 -1      2075 9.52393E-05-2.85716E-05-2.85719E-05 1.24341E-09 1.66861E-19 1.10804E-19
 -1      2076 9.52392E-05-2.85715E-05-2.85719E-05 1.78198E-09 1.22498E-19-2.35125E-18
 -1      2077 9.52384E-05-2.85714E-05-2.85716E-05 8.32540E-10 2.62999E-18-1.60699E-18
 -1      2078 9.52387E-05-2.85715E-05-2.85717E-05 9.39092E-10 1.48179E-18-1.28959E-18
 -1      2079 9.52386E-05-2.85714E-05-2.85717E-05 1.35925E-09 1.13365E-18-1.77518E-18
 -1      2080 9.52380E-05-2.85713E-05-2.85714E-05 6.11736E-10 2.50764E-18-9.80686E-19
 -1      2081 9.52382E-05-2.85714E-05-2.85715E-05 6.96150E-10 3.22806E-18-4.45158E-19
 -1      2082 9.52382E-05-2.85713E-05-2.85715E-05 1.01874E-09 2.02424E-18-2.66266E-18
 -1      2083 9.52377E-05-2.85712E-05-2.85713E-05 4.37106E-10-2.11154E-19-1.65543E-18
 -1      2084 9.52378E-05-2.85713E-05-2.85714E-05 5.03827E-10 9.31949E-19-3.40210E-19
 -1      2085 9.52379E-05-2.85712E-05-2.85714E-05 7.47358E-10 1.47053E-18-2.57406E-19
 -1      2086 9.52375E-05-2.85712E-05-2.85713E-05 2.98650E-10-8.71130E-19-4.32256E-19
 -1      2087 9.52376E-05-2.85712E-05-2.85713E-05 3.51851E-10 2.39027E-19-9.24709E-19
 -1      2088 9.52376E-05-2.85712E-05-2.85713E-05 5.32223E-10-4.13402E-19 8.86824E-19
 -1      2089 9.52373E-05-2.85712E-05-2.85712E-05 1.87276E-10-1.78120E-19-2.27326E-19
 -1      2090 9.52374E-05-2.85712E-05-2.85712E-05 2.30707E-10-1.40890E-18-1.20883E-18
 -1      2091 9.52374E-05-2.85711E-05-2.85713E-05 3.61399E-10-7.58910E-19 1.12324E-18
 -1      2092 9.52372E-05-2.85711E-05-2.85712E-05 9.65645E-11 2.13533E-18-1.70731E-18
 -1      2093 9.52373E-05-2.85711E-05-2.85712E-05 1.32486E-10 1.56043E-18-1.14020E-18
 -1      2094 9.52373E-05-2.85711E-05-2.85712E-05 2.24997E-10 1.45506E-18 4.65521E-19
 -1      2095 9.52372E-05-2.85711E-05-2.85712E-05 3.19979E-11 6.05436E-19-1.99753E-18
 -1      2096 9.52372E-05-2.85711E-05-2.85712E-05 5.68917E-11 1.89669E-18-1.87245E-18
 -1      2097 9.52372E-05-2.85711E-05-2.85712E-05 1.20336E-10 2.10116E-18 5.48108E-19
 -1      2098 9.52372E-05-2.85711E-05-2.85712E-05 4.53442E-11-2.66288E-19 1.71089E-19
 -1      2099 9.52371E-05-2.85709E-05-2.85712E-05 1.96606E-10-2.11941E-19 1.12974E-18
 -1      2100 9.52371E-05-2.85709E-05-2.85712E-05 1.83732E-10-1.47502E-18-1.23201E-19
 -1      2101 9.52371E-05-2.85710E-05-2.85712E-05 1.59403E-10-1.18387E-18-1.67244E-19
 -1      2102 9.52371E-05-2.85710E-05-2.85712E-05 1.33564E-10-1.87373E-18 1.45691E-18
 -1      2103 9.52371E-05-2.85709E-05-2.85712E-05 2.27221E-10 3.21046E-19 2.19244E-19
 -1      2104 9.52372E-05-2.85711E-05-2.85712E-05 7.81043E-11-6.83522E-19 1.20929E-18
 -1      2105 9.52370E-05-2.85708E-05-2.85713E-05 1.98874E-10-2.71355E-18-1.05073E-18
 -1      2106 9.52370E-05-2.85708E-05-2.85712E-05 2.01681E-10-2.45491E-18 1.20059E-18
 -1      2107 9.52371E-05-2.85708E-05-2.85712E-05 2.58819E-10 1.57306E-19-6.03572E-19
 -1      2108 9.52370E-05-2.85707E-05-2.85713E-05 1.65724E-10-1.81548E-18-1.17328E-18
 -1      2109 9.52370E-05-2.85707E-05-2.85713E-05 1.83671E-10-3.45112E-18 1.06004E-18
 -1      2110 9.52370E-05-2.85707E-05-2.85713E-05 2.46328E-10-3.40012E-18-7.39338E-19
 -1      2111 9.52369E-05-2.85706E-05-2.85713E-05 1.03723E-10-1.61119E-18-1.34992E-18
 -1      2112 9.52370E-05-2.85706E-05-2.85713E-05 1.33155E-10-1.28248E-18-2.72018E-18
 -1      2113 9.52369E-05-2.85706E-05-2.85713E-05 1.91470E-10-2.34583E-18-1.89232E-18
 -1      2114 9.52369E-05-2.85706E-05-2.85713E-05 2.41468E-11-2.75839E-18 1.99478E-19
 -1      2115 9.52369E-05-2.85706E-05-2.85713E-05 5.97185E-11-2.69131E-18-5.72570E-19
 -1      2116 9.52369E-05-2.85706E-05-2.85713E-05 1.04400E-10-1.96430E-18-2.15516E-18
 -1      2117 9.52369E-05-2.85706E-05-2.85713E-05-5.93632E-11-3.59310E-18-2.27148E-19
 -1      2118 9.52369E-05-2.85706E-05-2.85713E-05-2.38191E-11-3.04599E-18 1.86573E-18
 -1      2119 9.52369E-05-2.85705E-05-2.85713E-05 5.96953E-14-3.72181E-18 1.37281E-18
 -1      2120 9.52370E-05-2.85706E-05-2.85713E-05-1.32648E-10-2.30696E-18-3.09996E-18
 -1      2121 9.52369E-05-2.85706E-05-2.85713E-05-1.03295E-10-3.36904E-18-1.48127E-18
 -1      2122 9.52369E-05-2.85706E-05-2.85713E-05-1.04179E-10-2.29925E-18-6.04584E-19
 -1      2123 9.52370E-05-2.85707E-05-2.85713E-05-1.82436E-10-1.57522E-18 1.17245E-18
 -1      2124 9.52370E-05-2.85707E-05-2.85713E-05-1.64665E-10-2.22488E-18-2.27565E-18
 -1      2125 9.52369E-05-2.85706E-05-2.85713E-05-1.90468E-10-3.96142E-19-1.76680E-18
 -1      2126 9.52370E-05-2.85708E-05-2.85712E-05-2.01216E-10-7.80111E-19 1.90883E-18
 -1      2127 9.52370E-05-2.85708E-05-2.85713E-05-1.98038E-10-2.05660E-18 3.44235E-18
 -1      2128 9.52370E-05-2.85707E-05-2.85713E-05-2.45040E-10-1.50963E-18 1.61339E-18
 -1      2129 9.52371E-05-2.85709E-05-2.85712E-05-1.83550E-10-1.47801E-19 1.95456E-18
 -1      2130 9.52371E-05-2.85709E-05-2.85712E-05-1.96503E-10-2.17867E-19 1.52904E-18
 -1      2131 9.52371E-05-2.85708E-05-2.85712E-05-2.58446E-10-3.68205E-19 2.69710E-18
 -1      2132 9.52371E-05-2.85710E-05-2.85712E-05-1.33161E-10-1.07490E-18-6.66236E-19
 -1      2133 9.52371E-05-2.85710E-05-2.85712E-05-1.60230E-10-2.41987E-19 1.09694E-18
 -1      2134 9.52371E-05-2.85709E-05-2.85712E-05-2.27664E-10-5.23459E-19 1.09139E-18
 -1      2135 7.90104E-05-2.27609E-05-2.40576E-05 5.59863E-06 4.72591E-19 1.46480E-18
 -1      2136 8.12528E-05-2.31388E-05-2.48405E-05 6.84801E-06 5.95544E-19 1.70929E-18
 -1      2137 8.37612E-05-2.31016E-05-2.59950E-05 9.08307E-06 6.79400E-19 1.39924E-18
 -1      2138 8.21117E-05-2.31116E-05-2.53064E-05 6.95679E-06 5.34233E-19 1.25927E-18
 -1      2139 6.47560E-05-3.52944E-05-1.28427E-05 5.43446E-05 1.92573E-18 2.12933E-18
 -1      2140 4.75742E-05-3.89571E-05-4.98292E-06 4.57304E-05 1.60132E-18 1.96760E-18
 -1      2141 1.47434E-04-3.79952E-05-4.63774E-05 4.95345E-05 1.89608E-18 7.64447E-19
 -1      2142 1.24374E-04-3.75709E-05-3.75955E-05 5.02807E-05 2.32511E-18 1.24599E-18
 -1      2143 3.08825E-05-3.27015E-05 2.09886E-07 4.16273E-05 1.45266E-18 2.46783E-18
 -1      2144 2.11607E-05-3.64170E-05 5.29695E-06 3.33606E-05 6.25534E-19 2.53432E-18
 -1      2145 1.81989E-04-7.33532E-05-4.74031E-05 1.18468E-06-2.64655E-18 3.45420E-18
 -1      2146 2.08944E-04-7.59808E-05-5.64971E-05 1.24749E-05-2.45862E-18 2.68764E-18
 -1      2147 5.49041E-05 8.91886E-06-2.72401E-05-2.01487E-05-1.24269E-18-1.55826E-19
 -1      2148 5.45803E-05 9.71658E-06-2.76763E-05-1.68129E-05-1.21995E-18 4.54420E-20
 -1      2149 5.38068E-05 9.98676E-06-2.71256E-05-1.32580E-05-1.15398E-18 4.50251E-20
 -1      2150 5.56053E-05 6.58983E-06-2.65334E-05-2.49478E-05-1.42017E-18-2.17277E-19
 -1      2151 1.81381E-04-3.42028E-05-6.19416E-05 3.42454E-05 1.82001E-18 1.98206E-19
 -1      2152 1.62104E-04-3.51138E-05-5.43494E-05 3.68802E-05 1.77300E-18 4.29446E-19
 -1      2153 2.03278E-04-2.96574E-05-7.30641E-05 2.03281E-05 1.49141E-18 5.00596E-19
 -1      2154 1.88179E-04-2.82668E-05-6.80228E-05 2.71954E-05 1.95665E-18 5.97158E-19
 -1      2155 2.02592E-04-2.28806E-05-7.63015E-05 2.71570E-06 1.62503E-18 1.61810E-19
 -1      2156 2.03244E-04-2.51680E-05-7.52229E-05 1.33957E-05 1.65341E-18 5.75135E-19
 -1      2157 1.99853E-04-2.50943E-05-7.41475E-05-1.21930E-05 1.44250E-18-2.14723E-19
 -1      2158 2.01291E-04-2.28507E-05-7.58004E-05-1.47153E-06 1.52593E-18 4.25846E-19
 -1      2159 1.82137E-04-2.74986E-05-6.60912E-05-2.32110E-05 1.37516E-18-2.46487E-19
 -1      2160 1.98409E-04-2.91347E-05-7.14818E-05-1.77048E-05 1.34678E-18-1.87194E-19
 -1      2161 1.76641E-04-1.62000E-05-6.77832E-05-9.31757E-07 1.19220E-18 4.36222E-19
 -1      2162 1.54956E-04-3.24170E-05-5.25934E-05-4.08807E-05 1.52604E-18-1.65171E-19
 -1      2163 1.75116E-04-3.34662E-05-6.00520E-05-3.54483E-05 1.30440E-18-2.63004E-19
 -1      2164 1.16918E-04-3.33032E-05-3.64150E-05-5.02241E-05 1.42556E-18-5.74712E-19
 -1      2165 1.40242E-04-3.35733E-05-4.52131E-05-5.14158E-05 1.52678E-18-1.05879E-20
 -1      2166 7.48266E-05-3.15199E-05-1.95758E-05-5.18759E-05 1.08759E-18-1.16869E-18
 -1      2167 9.58791E-05-2.99883E-05-2.81439E-05-5.76023E-05 1.24260E-18-9.30042E-19
 -1      2168 3.96389E-05-3.05028E-05-5.20210E-06-4.47435E-05 8.16540E-19-1.16700E-18
 -1      2169 5.40143E-05-2.59679E-05-1.23364E-05-5.23453E-05 1.07912E-18-1.32460E-18
 -1      2170 1.58286E-05-2.90830E-05 4.43299E-06-3.27919E-05 1.81689E-19-1.55939E-18
 -1      2171 2.40228E-05-2.49209E-05-2.31946E-07-4.04994E-05 6.09864E-19-1.34424E-18
 -1      2172 6.10904E-06-2.66478E-05 7.66406E-06-1.46939E-05-2.59721E-19-1.68475E-18
 -1      2173 7.82389E-06-2.54415E-05 6.53650E-06-2.32719E-05 2.56227E-19-1.63859E-18
 -1      2174 1.62847E-05-3.40773E-05 5.90620E-06 5.90468E-06-5.54383E-19-1.77623E-18
 -1      2175 8.95981E-06-3.10912E-05 7.88160E-06-2.28849E-06-1.19643E-19-1.65171E-18
 -1      2176 5.01662E-05-4.14314E-05-5.40420E-06 2.49099E-05-4.32834E-19-2.07438E-18
 -1      2177 3.24149E-05-3.90408E-05 7.40116E-07 1.57418E-05-2.35052E-19-1.77030E-18
 -1      2178 1.06025E-04-5.74640E-05-2.25276E-05 2.96276E-05 1.85500E-19-1.92785E-18
 -1      2179 7.53466E-05-5.08942E-05-1.30672E-05 2.47463E-05 1.61783E-19-1.74780E-18
 -1      2180 1.50720E-04-6.84232E-05-3.64275E-05 1.23049E-05 7.57671E-19 1.03592E-18
 -1      2181 2.21733E-04-7.46062E-05-6.12688E-05-2.17191E-05-1.86750E-18 3.95480E-18
 -1      2182 2.21253E-04-6.33575E-05-6.64024E-05-2.28745E-05-2.52501E-18 3.61683E-18
 -1      2183 2.18499E-04-6.26529E-05-6.53104E-05 2.38869E-05-2.21584E-18 2.99003E-18
 -1      2184 6.72738E-05-5.03931E-05-9.62773E-06-2.58857E-05-2.17772E-18 2.82766E-18
 -1      2185 9.56139E-05-5.44217E-05-1.88731E-05-3.08282E-05-2.34713E-18 3.64722E-18
 -1      2186 3.01340E-05-3.89362E-05 2.16154E-06-1.83427E-05-8.54656E-19 2.17179E-18
 -1      2187 4.59784E-05-4.24445E-05-2.97017E-06-2.48692E-05-1.80842E-18 1.60534E-18
 -1      2188 8.85829E-06-3.51285E-05 9.72942E-06 3.10053E-06 2.06253E-19 3.50926E-18
 -1      2189 1.41892E-05-3.33115E-05 7.07872E-06-7.34099E-06-5.40407E-19 3.36823E-18
 -1      2190 1.07492E-04-3.65880E-05-3.00878E-05 5.69795E-05 2.20906E-18 2.06210E-18
 -1      2191 8.78975E-05-4.02856E-05-2.12133E-05 5.18971E-05 1.99815E-18 1.93335E-18
 -1      2192 1.13936E-05-3.16229E-05 7.79729E-06 2.36287E-05 1.18966E-18 2.74354E-18
 -1      2193 8.46835E-06-3.24608E-05 9.27895E-06 1.46127E-05 5.96311E-19 3.03153E-18
 -1      2194 1.53414E-04-6.70594E-05-3.65893E-05 1.83154E-05 1.44165E-18 1.92854E-18
 -1      2195 4.68853E-05-3.37841E-05-5.94158E-06 5.14823E-05 7.29295E-19 2.31664E-18
 -1      2196 8.84041E-05-4.52669E-05-1.85778E-05 5.58797E-05 1.03169E-18 1.37066E-18
 -1      2197 1.36553E-04-5.61238E-05-3.37124E-05 2.95373E-05 1.64663E-18 1.45192E-18
 -1      2198 1.08105E-04-2.16371E-05-3.69223E-05 1.41400E-05-8.20034E-20 1.94260E-18
 -1      2199 2.54917E-04-5.69203E-05-7.88181E-05-1.05950E-06-2.39541E-18 3.93018E-18
 -1      2200 9.59574E-05-4.10711E-05-2.35231E-05 3.79155E-05 1.20363E-18 8.47033E-22
 -1      2201 2.15071E-04-7.51924E-05-5.93931E-05 2.52277E-05-1.88158E-18 1.98248E-18
 -1      2202 1.18370E-04-6.20290E-05-2.49121E-05-2.79766E-05-1.58438E-18 3.30893E-18
 -1      2203 1.15705E-04-6.15086E-05-2.57625E-05-2.23477E-05-2.45301E-18 3.99715E-18
 -1      2204 1.47813E-04-6.67629E-05-3.62602E-05-2.20647E-05-2.57074E-18 4.28260E-18
 -1      2205 1.75233E-04-7.46673E-05-4.26188E-05-2.33376E-06-1.53313E-18 2.41743E-18
 -1      2206 9.52372E-05-2.85711E-05-2.85712E-05 1.41056E-10 1.63517E-18 7.64053E-19
 -1      2207 9.52372E-05-2.85711E-05-2.85712E-05-6.44652E-11-1.11373E-18-2.33114E-19
 -1      2208 9.52372E-05-2.85711E-05-2.85712E-05-9.27880E-11-1.54550E-18 5.33760E-19
 -1      2209 9.52372E-05-2.85710E-05-2.85712E-05-1.56090E-10 2.97947E-19 4.02966E-19
 -1      2210 9.52372E-05-2.85711E-05-2.85712E-05-7.60127E-11-6.87846E-21 1.22348E-18
 -1      2211 1.59173E-04-4.45338E-05-4.84871E-05 3.03932E-05 1.26526E-18-5.48877E-19
 -1      2212 1.28961E-04-4.95081E-05-3.37090E-05 4.73540E-05 9.62229E-19 2.78250E-19
 -1      2213 1.85121E-05-2.22398E-05 1.13123E-06 3.36856E-05 5.33207E-19 2.82867E-18
 -1      2214 7.91068E-05-4.58207E-05-1.52003E-05 3.37580E-05 8.44068E-19-1.07764E-18
 -1      2215 3.12114E-05-2.70302E-05-2.83917E-06 2.06228E-05 3.19755E-20-1.75336E-18
 -1      2216 8.04337E-06-1.50209E-05 2.22539E-06-6.26717E-06-2.71236E-19-1.85754E-18
 -1      2217 1.29987E-05-1.43243E-05 1.08908E-07-3.27129E-05-4.47233E-19-1.64028E-18
 -1      2218 3.79349E-05-2.41067E-05-6.34942E-06-5.04845E-05-2.60886E-19-1.11766E-18
 -1      2219 7.64464E-05-3.47073E-05-1.79722E-05-5.68898E-05 1.06726E-19-7.88799E-19
 -1      2220 1.19106E-04-4.25306E-05-3.25432E-05-4.95036E-05 6.36122E-19-2.07523E-20
 -1      2221 1.72630E-04-3.06438E-05-6.00989E-05-1.34590E-05 1.02300E-18 4.59515E-19
 -1      2222 1.79283E-04-1.12349E-05-7.10826E-05 1.63740E-06 1.53567E-18 1.99873E-19
 -1      2223 1.80876E-04-1.64558E-05-6.92395E-05 5.26567E-06 1.52593E-18-2.32511E-19
 -1      2224 1.76349E-04-3.05192E-05-6.15373E-05 1.31512E-05 1.19982E-18-5.50995E-19
 -1      2225 1.53171E-04-4.13944E-05-4.72850E-05-3.25993E-05 1.03582E-18 4.04035E-19
 -1      2226 9.06157E-06-1.91110E-05 3.73511E-06 7.31390E-06 1.04820E-18 3.63377E-18
 -1      2227 2.75965E-05-2.83002E-05-4.67478E-07-2.00070E-05 5.12031E-19 2.64444E-18
 -1      2228 7.07548E-05-4.47347E-05-1.20492E-05-3.41467E-05-5.98852E-19 2.37085E-18
 -1      2229 2.00105E-04-7.07703E-05-5.46510E-05 2.79613E-05-1.48660E-18 5.94511E-19
 -1      2230 8.64387E-05-1.11599E-05-3.20774E-05 1.76149E-05-4.54685E-20 1.00879E-18
 -1      2231 9.64526E-05-2.14059E-05-3.20592E-05-2.48855E-05-1.30403E-18 2.07867E-19
 -1      2232 8.78264E-05-1.69660E-05-3.04325E-05-2.89976E-05-1.49689E-18 1.10869E-19
 -1      2233 7.71370E-05-1.03390E-05-2.82813E-05-3.29799E-05-1.62781E-18-1.20557E-19
 -1      2234 6.63136E-05-4.21502E-06-2.66952E-05-3.37395E-05-1.67356E-18-2.02441E-19
 -1      2235 8.51878E-05-1.85061E-05-2.86209E-05-3.49943E-05-1.55611E-18 1.05588E-19
 -1      2236 1.10685E-04-2.56526E-05-3.65692E-05-2.94400E-06-6.77057E-19 4.06311E-21
 -1      2237 1.09667E-04-2.57869E-05-3.59144E-05-7.23198E-06-8.22476E-19 5.06102E-20
 -1      2238 1.09084E-04-2.30366E-05-3.70199E-05 4.66387E-06-4.07716E-19-4.07370E-20
 -1      2239 1.10181E-04-2.41172E-05-3.68911E-05 1.41637E-06-5.91004E-19-2.29493E-20
 -1      2240 1.13767E-04-2.80648E-05-3.67360E-05 5.57839E-07-6.24372E-19 9.35012E-20
 -1      2241 1.05165E-04-2.00830E-05-3.65890E-05 9.80619E-06-1.02079E-19-1.46735E-19
 -1      2242 1.07220E-04-2.13188E-05-3.68543E-05 7.47480E-06-2.54275E-19-9.37824E-20
 -1      2243 1.10688E-04-2.46909E-05-3.68228E-05 7.28238E-06-3.16243E-19 9.87918E-20
 -1      2244 1.00378E-04-1.77051E-05-3.55403E-05 1.34392E-05 2.28475E-19-2.99373E-20
 -1      2245 1.02777E-04-1.87066E-05-3.60878E-05 1.16625E-05 6.40788E-20-9.75014E-20
 -1      2246 1.05905E-04-2.15892E-05-3.60969E-05 1.14715E-05 1.56023E-20 6.29319E-21
 -1      2247 9.57183E-05-1.64227E-05-3.40885E-05 1.60389E-05 4.12539E-19 7.45389E-20
 -1      2248 9.79894E-05-1.69190E-05-3.48105E-05 1.46656E-05 2.61509E-19 3.06520E-20
 -1      2249 1.00777E-04-1.94576E-05-3.48136E-05 1.41474E-05 2.50343E-19 5.83063E-20
 -1      2250 9.18503E-05-1.66068E-05-3.23744E-05 1.76938E-05 6.40257E-19 2.38956E-19
 -1      2251 9.36454E-05-1.63446E-05-3.31981E-05 1.67680E-05 5.23222E-19 1.07256E-19
 -1      2252 9.60432E-05-1.86071E-05-3.31439E-05 1.57764E-05 3.98898E-19 2.31240E-19
 -1      2253 8.94445E-05-1.87966E-05-3.03852E-05 1.76126E-05 6.99894E-19 7.40492E-19
 -1      2254 9.03941E-05-1.73569E-05-3.13361E-05 1.77566E-05 6.94822E-19 4.24297E-19
 -1      2255 9.21449E-05-1.92893E-05-3.11643E-05 1.61942E-05 5.93155E-19 3.99098E-19
 -1      2256 8.84285E-05-2.16265E-05-2.87006E-05 1.49559E-05 6.86573E-19 1.29448E-18
 -1      2257 8.87153E-05-1.97113E-05-2.95619E-05 1.66484E-05 7.15941E-19 1.01823E-18
 -1      2258 8.91120E-05-2.09336E-05-2.92168E-05 1.47348E-05 7.48162E-19 8.03283E-19
 -1      2259 8.64585E-05-2.24787E-05-2.74308E-05 1.19590E-05 7.37183E-19 1.25508E-18
 -1      2260 6.66399E-05-8.16700E-06-2.46788E-05 2.52592E-05 3.08320E-19 1.15196E-19
 -1      2261 6.59054E-05-1.46889E-05-2.13656E-05 2.97531E-05 5.14361E-19-1.67713E-19
 -1      2262 1.17167E-04-5.58371E-05-2.63715E-05-3.20941E-05-2.61310E-19 1.89884E-18
 -1      2263 1.41058E-04-6.56606E-05-3.28432E-05-2.48634E-05-4.79844E-19 2.26338E-18
 -1      2264 6.97735E-05-2.88838E-05-1.69284E-05 3.43086E-05 7.65294E-19-5.94617E-19
 -1      2265 1.96833E-04-7.40076E-05-5.24027E-05 1.11331E-05-5.82123E-19 2.60277E-19
 -1      2266 1.60705E-04-4.61865E-05-4.96333E-05 1.64154E-05 6.96605E-19-1.33005E-18
 -1      2267 1.50944E-04-5.16036E-05-4.26424E-05 2.63803E-05 6.23840E-19-1.07107E-18
 -1      2268 9.58969E-05-2.71834E-05-2.89566E-05-3.82108E-05 8.75197E-19 1.69407E-18
 -1      2269 9.14018E-05-2.10363E-05-2.97554E-05-3.54485E-05 1.30692E-18 1.79380E-18
 -1      2270 9.41379E-05-2.05261E-05-3.12948E-05-3.03615E-05 1.20356E-18 1.92149E-18
 -1      2271 9.18945E-05-1.94410E-05-3.10425E-05-2.57911E-05 6.92727E-19 1.94861E-18
 -1      2272 9.55303E-05-2.14523E-05-3.15942E-05-2.12940E-05 6.55921E-19 1.59220E-18
 -1      2273 9.39824E-05-2.18748E-05-3.09715E-05-1.72101E-05 5.56805E-19 1.79281E-18
 -1      2274 8.24890E-05-1.45345E-05-2.88029E-05-2.28440E-05 6.51304E-19 1.49174E-18
 -1      2275 9.62538E-05-2.37118E-05-3.09649E-05-1.38018E-05 6.41363E-20 1.38753E-18
 -1      2276 9.50786E-05-2.42993E-05-3.03858E-05-1.08264E-05-6.36142E-19 1.54284E-18
 -1      2277 8.82711E-05-1.86298E-05-2.96627E-05-1.54273E-05 1.25705E-19 1.10302E-18
 -1      2278 9.62985E-05-2.55732E-05-3.02142E-05-8.48274E-06-7.92915E-19 1.45067E-18
 -1      2279 9.54480E-05-2.60131E-05-2.97859E-05-6.52376E-06-1.33041E-18 1.72578E-18
 -1      2280 9.16897E-05-2.22731E-05-2.96538E-05-9.87733E-06-7.71660E-19 4.78503E-19
 -1      2281 9.60491E-05-2.68012E-05-2.96074E-05-5.00080E-06-1.53421E-18 1.83671E-18
 -1      2282 9.54749E-05-2.70842E-05-2.93238E-05-3.78616E-06-1.29756E-18 1.49555E-18
 -1      2283 9.34871E-05-2.47888E-05-2.93925E-05-6.04606E-06-1.30899E-18 1.73043E-18
 -1      2284 9.57549E-05-2.75462E-05-2.91850E-05-2.83836E-06-4.93344E-19 1.84767E-18
 -1      2285 9.53928E-05-2.77191E-05-2.90093E-05-2.11442E-06 1.04910E-19 2.24269E-18
 -1      2286 9.43740E-05-2.63676E-05-2.91207E-05-3.55176E-06-8.28663E-19 2.06159E-18
 -1      2287 9.55194E-05-2.79831E-05-2.89142E-05-1.54531E-06 3.68904E-19 2.48671E-18
 -1      2288 9.53054E-05-2.80874E-05-2.88106E-05-1.12741E-06 8.35739E-19 2.89664E-18
 -1      2289 9.47959E-05-2.73132E-05-2.89092E-05-1.99887E-06 4.83623E-19 1.88590E-18
 -1      2290 9.53630E-05-2.82365E-05-2.87504E-05-7.97227E-07-3.82779E-19 2.53527E-18
 -1      2291 9.52450E-05-2.82996E-05-2.86923E-05-5.63680E-07-1.49560E-18 1.62526E-18
 -1      2292 9.49952E-05-2.78658E-05-2.87643E-05-1.06834E-06-4.02539E-20 1.25975E-18
 -1      2293 9.52730E-05-2.83832E-05-2.86565E-05-3.79309E-07-1.25615E-18 1.61228E-18
 -1      2294 9.52133E-05-2.84220E-05-2.86257E-05-2.53689E-07-1.21916E-18 1.55424E-18
 -1      2295 9.50927E-05-2.81839E-05-2.86729E-05-5.31394E-07-1.42429E-18 1.44770E-19
 -1      2296 9.52293E-05-2.84705E-05-2.86051E-05-1.51753E-07-1.29155E-18 2.04307E-18
 -1      2297 9.52030E-05-2.84948E-05-2.85897E-05-8.65019E-08-2.32454E-19 2.20087E-18
 -1      2298 9.51456E-05-2.83673E-05-2.86180E-05-2.30461E-07-9.70265E-19 6.85539E-19
 -1      2299 9.52136E-05-2.85195E-05-2.85801E-05-4.03485E-08 5.07521E-19 1.83510E-18
 -1      2300 9.52062E-05-2.85336E-05-2.85742E-05-1.20382E-08 6.68641E-19 1.05460E-18
 -1      2301 9.51777E-05-2.84707E-05-2.85884E-05-7.48491E-08-8.38294E-20 6.08489E-19
 -1      2302 9.52140E-05-2.85472E-05-2.85700E-05 7.91193E-09 2.57467E-19 6.40613E-19
 -1      2303 9.52147E-05-2.85557E-05-2.85683E-05 1.86001E-08 5.41915E-19 6.36826E-19
 -1      2304 9.51990E-05-2.85251E-05-2.85744E-05-4.07605E-09 4.88790E-19-3.72117E-20
 -1      2305 9.52208E-05-2.85628E-05-2.85670E-05 2.47270E-08 2.80689E-19-1.31474E-19
 -1      2306 9.52246E-05-2.85678E-05-2.85673E-05 2.67304E-08 2.73932E-19-6.40997E-19
 -1      2307 9.52146E-05-2.85542E-05-2.85687E-05 2.39305E-08-9.96362E-20-3.38699E-19
 -1      2308 9.52293E-05-2.85713E-05-2.85675E-05 2.62724E-08 4.89258E-19-1.04158E-18
 -1      2309 9.52336E-05-2.85741E-05-2.85684E-05 2.44715E-08 2.81577E-20-5.06544E-19
 -1      2310 9.52263E-05-2.85691E-05-2.85673E-05 3.01659E-08 4.67589E-19-6.45517E-19
 -1      2311 9.52370E-05-2.85756E-05-2.85691E-05 2.13925E-08-8.30190E-19-1.14458E-19
 -1      2312 9.52407E-05-2.85770E-05-2.85702E-05 1.83484E-08-1.42789E-18-4.44735E-19
 -1      2313 9.52348E-05-2.85760E-05-2.85680E-05 2.65096E-08 1.95410E-19-4.55054E-19
 -1      2314 9.52430E-05-2.85775E-05-2.85710E-05 1.46883E-08-9.76119E-19-1.66483E-19
 -1      2315 9.52456E-05-2.85779E-05-2.85719E-05 1.16451E-08-6.51370E-19 1.05980E-18
 -1      2316 9.52407E-05-2.85786E-05-2.85694E-05 1.93625E-08-9.23211E-19 5.96439E-22
 -1      2317 9.52470E-05-2.85779E-05-2.85726E-05 8.35020E-09-1.40513E-18 1.47430E-18
 -1      2318 9.52485E-05-2.85779E-05-2.85731E-05 5.82800E-09-4.96613E-19 1.14508E-18
 -1      2319 9.52445E-05-2.85789E-05-2.85709E-05 1.19315E-08-4.39875E-19 5.48332E-19
 -1      2320 9.52492E-05-2.85776E-05-2.85736E-05 3.24824E-09 4.41304E-19 1.67940E-18
 -1      2321 9.52498E-05-2.85773E-05-2.85740E-05 1.38918E-09 3.03262E-19 1.37929E-18
 -1      2322 9.52465E-05-2.85783E-05-2.85721E-05 5.62286E-09 2.74717E-19 7.94330E-19
 -1      2323 9.52500E-05-2.85769E-05-2.85743E-05-4.29862E-10 2.37179E-19 1.22755E-18
 -1      2324 9.52500E-05-2.85765E-05-2.85744E-05-1.66454E-09-6.10714E-19 1.27371E-18
 -1      2325 9.52474E-05-2.85772E-05-2.85729E-05 8.76961E-10 2.24937E-19 7.99960E-19
 -1      2326 9.52498E-05-2.85761E-05-2.85745E-05-2.81578E-09-1.26474E-18 2.05576E-19
 -1      2327 9.52493E-05-2.85756E-05-2.85745E-05-3.53742E-09-6.47485E-19-2.22406E-19
 -1      2328 9.52473E-05-2.85761E-05-2.85734E-05-2.34474E-09-1.81685E-18 1.07674E-19
 -1      2329 9.52489E-05-2.85752E-05-2.85745E-05-4.16184E-09-6.68306E-19-6.26348E-19
 -1      2330 9.52482E-05-2.85748E-05-2.85743E-05-4.49798E-09-1.91417E-19-4.50055E-19
 -1      2331 9.52467E-05-2.85750E-05-2.85736E-05-4.28516E-09-1.02401E-18-1.30827E-18
 -1      2332 9.52477E-05-2.85744E-05-2.85743E-05-4.73865E-09 3.38558E-19-1.22371E-18
 -1      2333 9.52468E-05-2.85740E-05-2.85741E-05-4.80636E-09-3.07015E-20-7.39418E-19
 -1      2334 9.52458E-05-2.85741E-05-2.85736E-05-5.24450E-09-8.02341E-19-1.43489E-18
 -1      2335 9.52463E-05-2.85737E-05-2.85739E-05-4.78727E-09 1.40687E-19-7.10784E-19
 -1      2336 9.52454E-05-2.85734E-05-2.85737E-05-4.68372E-09-3.28844E-19-4.52578E-19
 -1      2337 9.52447E-05-2.85733E-05-2.85734E-05-5.50786E-09 1.07200E-19-2.76095E-18
 -1      2338 9.52448E-05-2.85731E-05-2.85736E-05-4.49220E-09-1.79993E-18-5.77066E-20
 -1      2339 9.52439E-05-2.85728E-05-2.85733E-05-4.27702E-09-1.43144E-18-5.22486E-20
 -1      2340 9.52435E-05-2.85727E-05-2.85732E-05-5.30445E-09-1.11869E-18-1.75632E-18
 -1      2341 9.52434E-05-2.85727E-05-2.85732E-05-4.00732E-09-6.19514E-19-5.35669E-19
 -1      2342 9.52426E-05-2.85724E-05-2.85729E-05-3.75581E-09-8.23908E-19-1.71052E-18
 -1      2343 9.52424E-05-2.85722E-05-2.85729E-05-4.82201E-09-1.32254E-18-1.66129E-18
 -1      2344 9.52422E-05-2.85723E-05-2.85728E-05-3.45413E-09-5.48589E-19-1.25725E-18
 -1      2345 9.52415E-05-2.85721E-05-2.85726E-05-3.19242E-09 5.44398E-19-1.46837E-18
 -1      2346 9.52414E-05-2.85719E-05-2.85727E-05-4.21778E-09-4.40197E-19-1.65827E-20
 -1      2347 9.52411E-05-2.85720E-05-2.85725E-05-2.89114E-09 2.44211E-18-1.81445E-18
 -1      2348 9.52405E-05-2.85718E-05-2.85723E-05-2.64137E-09 2.59802E-18-1.22020E-18
 -1      2349 9.52406E-05-2.85717E-05-2.85724E-05-3.57482E-09 1.56592E-18-8.75339E-19
 -1      2350 9.52402E-05-2.85717E-05-2.85722E-05-2.36060E-09 2.56313E-18-1.32387E-18
 -1      2351 9.52397E-05-2.85716E-05-2.85720E-05-2.13495E-09 8.69702E-19-7.90260E-19
 -1      2352 9.52398E-05-2.85715E-05-2.85721E-05-2.95145E-09 2.49492E-18-5.19739E-19
 -1      2353 9.52394E-05-2.85715E-05-2.85719E-05-1.88537E-09-1.49791E-19-1.35602E-18
 -1      2354 9.52391E-05-2.85715E-05-2.85718E-05-1.68938E-09-9.75778E-19-9.96012E-19
 -1      2355 9.52392E-05-2.85713E-05-2.85719E-05-2.38165E-09-1.36304E-19-8.97908E-19
 -1      2356 9.52388E-05-2.85714E-05-2.85717E-05-1.47512E-09-2.33127E-18 9.31785E-19
 -1      2357 9.52386E-05-2.85713E-05-2.85717E-05-1.30992E-09-1.60555E-18 1.24859E-18
 -1      2358 9.52387E-05-2.85712E-05-2.85718E-05-1.88204E-09-8.97555E-19 1.07960E-18
 -1      2359 9.52384E-05-2.85713E-05-2.85716E-05-1.13086E-09 3.15498E-19 4.35494E-19
 -1      2360 9.52381E-05-2.85713E-05-2.85715E-05-9.94758E-10 3.06545E-18 3.38648E-19
 -1      2361 9.52383E-05-2.85712E-05-2.85716E-05-1.45745E-09-4.83487E-19 2.11291E-18
 -1      2362 9.52380E-05-2.85712E-05-2.85715E-05-8.48147E-10 4.07315E-18-1.26743E-18
 -1      2363 9.52378E-05-2.85712E-05-2.85714E-05-7.37807E-10 4.49453E-18 1.19701E-19
 -1      2364 9.52379E-05-2.85711E-05-2.85715E-05-1.10520E-09 3.11545E-18-1.26423E-18
 -1      2365 9.52377E-05-2.85712E-05-2.85714E-05-6.19443E-10 2.45028E-18-1.08304E-18
 -1      2366 9.52376E-05-2.85712E-05-2.85713E-05-5.30610E-10-2.38272E-18-1.81963E-18
 -1      2367 9.52377E-05-2.85711E-05-2.85714E-05-8.18145E-10 3.03731E-18-2.88140E-18
 -1      2368 9.52375E-05-2.85712E-05-2.85713E-05-4.35365E-10-3.71064E-18 8.54963E-19
 -1      2369 9.52374E-05-2.85711E-05-2.85713E-05-3.63502E-10-3.29101E-18 2.41886E-18
 -1      2370 9.52375E-05-2.85711E-05-2.85713E-05-5.87410E-10-1.05215E-18-2.37107E-19
 -1      2371 9.52374E-05-2.85711E-05-2.85712E-05-2.87071E-10-4.73991E-18 3.21637E-18
 -1      2372 9.52373E-05-2.85711E-05-2.85712E-05-2.29197E-10-3.51205E-18 3.44914E-18
 -1      2373 9.52374E-05-2.85711E-05-2.85713E-05-4.02313E-10-3.82522E-18 3.00533E-18
 -1      2374 9.52372E-05-2.85710E-05-2.85712E-05 1.88820E-10 1.38703E-18 4.74767E-19
 -1      2375 8.18933E-05-2.23208E-05-2.54951E-05 2.34711E-06 7.12719E-19 7.08125E-19
 -1      2376 8.25454E-05-2.25350E-05-2.56822E-05 3.68894E-06 6.19429E-19 8.82469E-19
 -1      2377 8.33617E-05-2.27712E-05-2.59344E-05 5.22124E-06 5.39388E-19 9.15145E-19
 -1      2378 8.44279E-05-2.29973E-05-2.62844E-05 6.62277E-06 4.88314E-19 9.93979E-19
 -1      2379 8.62136E-05-2.27829E-05-2.72112E-05 5.42404E-06 6.84322E-19 9.43465E-19
 -1      2380 8.15061E-05-2.24622E-05-2.52841E-05-3.28795E-06 5.13876E-19 6.46825E-19
 -1      2381 8.11903E-05-2.22123E-05-2.52427E-05-2.08473E-06 5.77364E-19 6.77721E-19
 -1      2382 8.26062E-05-2.32922E-05-2.54115E-05-5.53546E-06 2.21056E-19 3.76393E-19
 -1      2383 8.18856E-05-2.27995E-05-2.52894E-05-4.59280E-06 4.24261E-19 5.56097E-19
 -1      2384 8.47460E-05-2.28818E-05-2.65417E-05-4.36975E-06 5.57705E-19 8.26692E-19
 -1      2385 8.42992E-05-2.44626E-05-2.56448E-05-7.02436E-06 1.48156E-20 3.60998E-20
 -1      2386 8.33020E-05-2.38240E-05-2.54626E-05-6.44621E-06 3.83754E-20 1.41195E-19
 -1      2387 8.58724E-05-2.39602E-05-2.65515E-05-6.75786E-06 4.01398E-19 5.04701E-19
 -1      2388 8.62691E-05-2.57271E-05-2.59522E-05-7.65242E-06 2.73544E-19 1.88883E-20
 -1      2389 8.51446E-05-2.50632E-05-2.57312E-05-7.46259E-06 1.16260E-19-4.22573E-20
 -1      2390 8.74707E-05-2.53448E-05-2.66313E-05-8.19988E-06 7.20673E-20-5.14486E-20
 -1      2391 8.82238E-05-2.68652E-05-2.63034E-05-7.50421E-06 2.83164E-19 2.27192E-19
 -1      2392 8.71066E-05-2.62756E-05-2.60647E-05-7.64808E-06 3.79453E-19 2.37928E-19
 -1      2393 8.92046E-05-2.67368E-05-2.67689E-05-8.65126E-06 1.62540E-19 3.65551E-19
 -1      2394 8.99620E-05-2.77462E-05-2.66695E-05-6.79073E-06 8.60400E-20 3.85138E-19
 -1      2395 8.89477E-05-2.72859E-05-2.64321E-05-7.16631E-06 2.75210E-19 2.54588E-19
 -1      2396 9.08026E-05-2.78976E-05-2.69514E-05-8.27167E-06 2.68714E-19 4.32448E-19
 -1      2397 9.13884E-05-2.83378E-05-2.70252E-05-5.76158E-06-5.58007E-19 5.40042E-19
 -1      2398 9.05282E-05-2.80174E-05-2.68042E-05-6.25741E-06-1.22360E-19 4.79832E-19
 -1      2399 9.21133E-05-2.87107E-05-2.71634E-05-7.33350E-06-1.44044E-19 1.11296E-18
 -1      2400 9.24918E-05-2.86763E-05-2.73510E-05-4.63581E-06-3.44694E-19-1.33358E-19
 -1      2401 9.17998E-05-2.84773E-05-2.71564E-05-5.15813E-06-7.59574E-19 1.59693E-19
 -1      2402 9.30982E-05-2.91747E-05-2.73875E-05-6.12064E-06-4.74474E-19 5.73702E-19
 -1      2403 9.33101E-05-2.88292E-05-2.76349E-05-3.56791E-06 5.28188E-20 4.66265E-20
 -1      2404 9.27759E-05-2.87206E-05-2.74715E-05-4.05285E-06 2.16708E-19-1.29502E-20
 -1      2405 9.37919E-05-2.93597E-05-2.76072E-05-4.86186E-06-6.88007E-21 1.09146E-19
 -1      2406 9.39000E-05-2.88655E-05-2.78714E-05-2.64426E-06-2.34110E-19-3.31813E-19
 -1      2407 9.35007E-05-2.88162E-05-2.77399E-05-3.05773E-06-1.90692E-19-1.38796E-19
 -1      2408 9.42598E-05-2.93596E-05-2.78094E-05-3.70620E-06 5.25322E-20 3.67633E-19
 -1      2409 9.43179E-05-2.88402E-05-2.80611E-05-1.89678E-06-3.41333E-19-6.34942E-19
 -1      2410 9.40271E-05-2.88254E-05-2.79589E-05-2.22779E-06-6.35440E-20-4.67931E-19
 -1      2411 9.45688E-05-2.92599E-05-2.79859E-05-2.72859E-06-8.79541E-20-3.86453E-19
 -1      2412 9.46110E-05-2.87904E-05-2.82081E-05-1.32190E-06-8.72200E-19-2.50117E-19
 -1      2413 9.44037E-05-2.87929E-05-2.81313E-05-1.57418E-06-6.84805E-19-5.55258E-19
 -1      2414 9.47729E-05-2.91228E-05-2.81330E-05-1.94948E-06-5.60795E-19-7.92301E-19
 -1      2415 9.48154E-05-2.87372E-05-2.83187E-05-8.97319E-07-9.59743E-19 3.11920E-19
 -1      2416 9.46704E-05-2.87466E-05-2.82625E-05-1.08210E-06-1.14200E-18-6.40773E-20
 -1      2417 9.49103E-05-2.89864E-05-2.82511E-05-1.35640E-06-1.22155E-18-4.34438E-19
 -1      2418 9.49575E-05-2.86908E-05-2.83997E-05-5.93991E-07-5.05210E-19 1.03487E-18
 -1      2419 9.48578E-05-2.87015E-05-2.83597E-05-7.24916E-07-2.85679E-19 9.38582E-19
 -1      2420 9.50056E-05-2.88691E-05-2.83426E-05-9.21162E-07-9.70085E-19-1.05321E-19
 -1      2421 9.50559E-05-2.86544E-05-2.84576E-05-3.83271E-07 2.46068E-19 9.41301E-19
 -1      2422 9.49885E-05-2.86639E-05-2.84298E-05-4.73449E-07-2.38770E-19 1.10974E-18
 -1      2423 9.50736E-05-2.87769E-05-2.84116E-05-6.11193E-07-4.37259E-19 5.42515E-20
 -1      2424 9.51235E-05-2.86277E-05-2.84981E-05-2.40397E-07-1.93772E-19 1.44884E-18
 -1      2425 9.50788E-05-2.86353E-05-2.84792E-05-3.00976E-07 4.44085E-20 1.44156E-18
 -1      2426 9.51233E-05-2.87090E-05-2.84623E-05-3.95952E-07-2.29367E-19 8.54091E-19
 -1      2427 9.51696E-05-2.86092E-05-2.85259E-05-1.45630E-07-5.85230E-21 1.66349E-18
 -1      2428 9.51404E-05-2.86149E-05-2.85133E-05-1.85397E-07 1.27975E-19 1.68707E-18
 -1      2429 9.51600E-05-2.86612E-05-2.84987E-05-2.49739E-07-4.62598E-20 1.78909E-18
 -1      2430 9.52004E-05-2.85967E-05-2.85445E-05-8.40804E-08-6.12836E-19 2.18012E-18
 -1      2431 9.51819E-05-2.86008E-05-2.85363E-05-1.09600E-07-1.10115E-19 1.83418E-18
 -1      2432 9.51869E-05-2.86288E-05-2.85243E-05-1.52380E-07-1.86871E-19 1.99504E-18
 -1      2433 9.52205E-05-2.85884E-05-2.85567E-05-4.49706E-08-2.26579E-19 2.50380E-18
 -1      2434 9.52092E-05-2.85913E-05-2.85515E-05-6.09530E-08-4.05115E-19 2.11469E-18
 -1      2435 9.52063E-05-2.86075E-05-2.85419E-05-8.87915E-08-5.97703E-19 2.09335E-18
 -1      2436 9.52332E-05-2.85830E-05-2.85644E-05-2.07393E-08 9.88662E-19 1.40401E-18
 -1      2437 9.52266E-05-2.85851E-05-2.85613E-05-3.04609E-08 4.08603E-19 1.86250E-18
 -1      2438 9.52201E-05-2.85938E-05-2.85538E-05-4.80958E-08 5.01178E-19 1.33804E-18
 -1      2439 9.52408E-05-2.85795E-05-2.85692E-05-6.21010E-09 6.05371E-19 1.80270E-18
 -1      2440 9.52373E-05-2.85810E-05-2.85674E-05-1.18943E-08 1.09784E-18 1.79793E-18
 -1      2441 9.52296E-05-2.85852E-05-2.85616E-05-2.26629E-08 8.53951E-19 1.47037E-18
 -1      2442 9.52449E-05-2.85772E-05-2.85720E-05 2.09362E-09 3.12122E-19 1.03215E-18
 -1      2443 9.52434E-05-2.85783E-05-2.85710E-05-1.03294E-09 7.29801E-19 1.67413E-18
 -1      2444 9.52358E-05-2.85798E-05-2.85667E-05-7.25485E-09 1.03644E-18 5.21357E-19
 -1      2445 9.52468E-05-2.85755E-05-2.85734E-05 6.47095E-09 8.56109E-19 6.29174E-19
 -1      2446 9.52465E-05-2.85764E-05-2.85730E-05 4.93274E-09 1.67946E-19 8.32315E-19
 -1      2447 9.52396E-05-2.85764E-05-2.85698E-05 1.66425E-09 4.53873E-19 4.63069E-19
 -1      2448 9.52473E-05-2.85744E-05-2.85741E-05 8.42374E-09 1.70919E-18 1.10495E-18
 -1      2449 9.52476E-05-2.85751E-05-2.85740E-05 7.84730E-09 1.77945E-18 1.00460E-18
 -1      2450 9.52417E-05-2.85743E-05-2.85716E-05 6.44977E-09 7.96108E-19 5.33724E-19
 -1      2451 9.52468E-05-2.85736E-05-2.85743E-05 8.92270E-09 1.12645E-18 1.07286E-18
 -1      2452 9.52476E-05-2.85741E-05-2.85744E-05 8.90767E-09 2.08728E-18 9.37542E-19
 -1      2453 9.52426E-05-2.85730E-05-2.85726E-05 8.65404E-09 1.47672E-18 1.09872E-18
 -1      2454 9.52459E-05-2.85730E-05-2.85741E-05 8.58890E-09-8.20023E-19 1.25095E-18
 -1      2455 9.52468E-05-2.85734E-05-2.85743E-05 8.88245E-09-3.09711E-19 1.39217E-18
 -1      2456 9.52429E-05-2.85722E-05-2.85731E-05 9.29073E-09 2.17812E-19 8.32816E-19
 -1      2457 9.52448E-05-2.85725E-05-2.85739E-05 7.81514E-09-1.02384E-18 2.37814E-19
 -1      2458 9.52457E-05-2.85728E-05-2.85741E-05 8.25981E-09-4.59303E-19 7.20912E-19
 -1      2459 9.52426E-05-2.85717E-05-2.85732E-05 9.01576E-09-1.95194E-19-1.34538E-19
 -1      2460 9.52436E-05-2.85721E-05-2.85735E-05 6.84591E-09-1.27121E-18 2.66695E-19
 -1      2461 9.52445E-05-2.85724E-05-2.85738E-05 7.34558E-09-1.18024E-18 2.42543E-20
 -1      2462 9.52421E-05-2.85714E-05-2.85731E-05 8.24893E-09-1.06388E-18-5.20603E-19
 -1      2463 9.52425E-05-2.85718E-05-2.85731E-05 5.82971E-09-9.30268E-19-4.82716E-19
 -1      2464 9.52433E-05-2.85720E-05-2.85734E-05 6.32753E-09-4.49918E-19 1.37867E-19
 -1      2465 9.52414E-05-2.85712E-05-2.85730E-05 7.25487E-09-8.56802E-19-6.74841E-19
 -1      2466 9.52415E-05-2.85716E-05-2.85728E-05 4.85308E-09-5.55302E-20-8.64300E-19
 -1      2467 9.52422E-05-2.85718E-05-2.85730E-05 5.31724E-09-1.14623E-18-3.59121E-19
 -1      2468 9.52407E-05-2.85710E-05-2.85727E-05 6.19645E-09-8.99890E-19-2.17350E-19
 -1      2469 9.52406E-05-2.85715E-05-2.85725E-05 3.96280E-09 8.52962E-19-2.01777E-18
 -1      2470 9.52412E-05-2.85716E-05-2.85727E-05 4.37732E-09 8.43347E-19-1.39479E-18
 -1      2471 9.52401E-05-2.85710E-05-2.85725E-05 5.17009E-09 5.91193E-19-7.05625E-19
 -1      2472 9.52398E-05-2.85713E-05-2.85722E-05 3.18033E-09-1.24459E-19-1.83561E-18
 -1      2473 9.52403E-05-2.85714E-05-2.85724E-05 3.53917E-09 6.25484E-19-1.86658E-18
 -1      2474 9.52395E-05-2.85709E-05-2.85723E-05 4.22896E-09 6.08714E-19-7.59698E-19
 -1      2475 9.52392E-05-2.85712E-05-2.85720E-05 2.51134E-09-1.14977E-18-2.07373E-18
 -1      2476 9.52396E-05-2.85713E-05-2.85721E-05 2.81451E-09-1.58233E-18-2.08118E-18
 -1      2477 9.52390E-05-2.85709E-05-2.85720E-05 3.39840E-09-1.16575E-18-1.26537E-18
 -1      2478 9.52387E-05-2.85712E-05-2.85718E-05 1.95189E-09-1.57449E-19-1.24626E-18
 -1      2479 9.52390E-05-2.85712E-05-2.85719E-05 2.20296E-09-1.35572E-19-1.63133E-18
 -1      2480 9.52386E-05-2.85709E-05-2.85719E-05 2.68616E-09-1.53601E-18-2.67693E-19
 -1      2481 9.52383E-05-2.85711E-05-2.85716E-05 1.49257E-09 8.55859E-19-1.24366E-18
 -1      2482 9.52385E-05-2.85712E-05-2.85717E-05 1.69704E-09 1.05797E-20-1.11449E-18
 -1      2483 9.52382E-05-2.85709E-05-2.85717E-05 2.08917E-09-1.37678E-19-2.96815E-19
 -1      2484 9.52379E-05-2.85711E-05-2.85715E-05 1.12109E-09 4.38347E-19-1.83896E-19
 -1      2485 9.52381E-05-2.85711E-05-2.85716E-05 1.28540E-09 9.39133E-19-5.80572E-19
 -1      2486 9.52379E-05-2.85710E-05-2.85716E-05 1.59811E-09 4.01894E-19 2.39451E-19
 -1      2487 9.52377E-05-2.85711E-05-2.85714E-05 8.23969E-10 8.66149E-19 5.50057E-19
 -1      2488 9.52378E-05-2.85711E-05-2.85714E-05 9.54839E-10 7.11722E-19-1.61817E-19
 -1      2489 9.52377E-05-2.85710E-05-2.85715E-05 1.20035E-09-4.47501E-20 6.89568E-19
 -1      2490 9.52375E-05-2.85711E-05-2.85713E-05 5.87680E-10-1.99765E-18 1.12082E-18
 -1      2491 9.52376E-05-2.85711E-05-2.85714E-05 6.91616E-10-5.87365E-19 5.00524E-19
 -1      2492 9.52375E-05-2.85710E-05-2.85714E-05 8.81908E-10-1.32273E-19-3.90819E-20
 -1      2493 9.52374E-05-2.85711E-05-2.85713E-05 4.00160E-10-9.84350E-19 1.25040E-18
 -1      2494 9.52374E-05-2.85711E-05-2.85713E-05 4.82897E-10-7.37588E-19 1.15831E-18
 -1      2495 9.52374E-05-2.85710E-05-2.85713E-05 6.28615E-10-1.50949E-18 7.20355E-19
 -1      2496 9.52373E-05-2.85711E-05-2.85712E-05 2.51580E-10 2.59313E-18 1.50997E-19
 -1      2497 9.52373E-05-2.85711E-05-2.85712E-05 3.16279E-10 4.78108E-19 6.29342E-19
 -1      2498 9.52373E-05-2.85710E-05-2.85713E-05 4.27424E-10 8.92731E-19 1.12915E-18
 -1      2499 9.52369E-05-2.85706E-05-2.85713E-05 2.92105E-10-1.65116E-18 2.86307E-19
 -1      2500 9.52370E-05-2.85707E-05-2.85713E-05 3.12056E-10-8.54329E-19-2.39832E-18
 -1      2501 9.52370E-05-2.85708E-05-2.85713E-05 3.24200E-10-1.15936E-18-2.03048E-18
 -1      2502 9.52371E-05-2.85708E-05-2.85713E-05 3.18996E-10 3.16899E-19-1.46565E-18
 -1      2503 9.52370E-05-2.85707E-05-2.85713E-05 3.79364E-10-5.96681E-19-2.18266E-18
 -1      2504 9.52371E-05-2.85709E-05-2.85712E-05 3.05064E-10 1.03593E-18-6.59423E-19
 -1      2505 9.52371E-05-2.85709E-05-2.85712E-05 2.77568E-10 1.27851E-18-6.83652E-19
 -1      2506 9.52371E-05-2.85708E-05-2.85713E-05 3.75590E-10 4.50997E-19-2.31414E-18
 -1      2507 1.06063E-04-5.00846E-05-2.40407E-05 5.44813E-05 1.80630E-19-1.08738E-19
 -1      2508 8.38075E-05-4.42404E-05-1.67068E-05 5.55399E-05 2.05829E-19 3.68406E-19
 -1      2509 9.52369E-05-2.85706E-05-2.85713E-05 2.12592E-10-2.42680E-18-2.09677E-18
 -1      2510 9.52369E-05-2.85706E-05-2.85713E-05 2.53035E-10-3.05363E-18 1.29776E-19
 -1      2511 9.52369E-05-2.85706E-05-2.85713E-05 3.22173E-10-1.68352E-18-1.08049E-18
 -1      2512 9.52368E-05-2.85705E-05-2.85713E-05 9.92442E-11-2.37726E-18-1.01288E-18
 -1      2513 9.52369E-05-2.85705E-05-2.85713E-05 1.53254E-10-2.75215E-18-1.74200E-18
 -1      2514 9.52368E-05-2.85705E-05-2.85713E-05 2.15261E-10-2.06491E-18-1.78729E-18
 -1      2515 9.52368E-05-2.85705E-05-2.85713E-05-2.96495E-11-3.05912E-18 1.52735E-18
 -1      2516 9.52368E-05-2.85705E-05-2.85713E-05 2.90431E-11-2.64942E-18 6.67908E-19
 -1      2517 9.52368E-05-2.85704E-05-2.85713E-05 7.51294E-11-2.10789E-18-4.96025E-19
 -1      2518 9.52369E-05-2.85705E-05-2.85713E-05-1.53590E-10-1.62857E-18-4.26469E-19
 -1      2519 9.52368E-05-2.85705E-05-2.85713E-05-9.97476E-11-2.32205E-18 1.55435E-18
 -1      2520 9.52368E-05-2.85704E-05-2.85713E-05-7.64073E-11-1.93809E-18 2.30334E-18
 -1      2521 9.52369E-05-2.85706E-05-2.85713E-05-2.51470E-10 1.06857E-18-1.47424E-18
 -1      2522 9.52369E-05-2.85706E-05-2.85713E-05-2.11735E-10 4.56115E-19-2.59998E-18
 -1      2523 9.52368E-05-2.85705E-05-2.85713E-05-2.15042E-10-3.38031E-19 1.78822E-19
 -1      2524 9.52370E-05-2.85707E-05-2.85713E-05-3.10781E-10 5.32162E-19 1.70000E-18
 -1      2525 9.52369E-05-2.85706E-05-2.85713E-05-2.90539E-10 1.01522E-18-9.08367E-19
 -1      2526 9.52369E-05-2.85706E-05-2.85713E-05-3.20700E-10 2.60241E-18-1.46557E-18
 -1      2527 9.52371E-05-2.85708E-05-2.85712E-05-3.19947E-10-9.08267E-20 1.64517E-18
 -1      2528 9.52370E-05-2.85708E-05-2.85713E-05-3.23340E-10-5.44715E-19 1.60567E-18
 -1      2529 9.52370E-05-2.85707E-05-2.85713E-05-3.77472E-10 1.15816E-18 5.15170E-19
 -1      2530 9.52371E-05-2.85709E-05-2.85712E-05-2.78187E-10-9.52000E-19 1.70984E-18
 -1      2531 9.52371E-05-2.85709E-05-2.85712E-05-3.03095E-10-1.31122E-18 2.27625E-18
 -1      2532 9.52371E-05-2.85708E-05-2.85713E-05-3.75592E-10-6.61713E-19 9.96646E-19
 -1      2533 8.12405E-05-2.21409E-05-2.52975E-05-5.52897E-07 5.81167E-19 6.93625E-19
 -1      2534 8.14038E-05-2.21592E-05-2.53579E-05 7.69169E-07 6.42321E-19 7.06643E-19
 -1      2535 8.49083E-05-2.23931E-05-2.68257E-05 2.06728E-06 7.20810E-19 7.54789E-19
 -1      2536 6.87144E-05 2.23326E-08-2.92746E-05 6.11160E-06-5.01235E-19 5.10390E-19
 -1      2537 6.93314E-05-4.41388E-06-2.72958E-05 1.71831E-05-9.23795E-20 3.72324E-19
 -1      2538 4.95716E-05 2.52952E-06-2.16386E-05 1.37526E-05-1.86294E-19-3.64224E-19
 -1      2539 5.52231E-05 7.37677E-06-2.66300E-05 8.97931E-09-7.35072E-19 6.72862E-20
 -1      2540 1.72455E-04-7.05894E-05-4.31788E-05-6.12847E-06-2.94556E-19 1.34763E-18
 -1      2541 9.15172E-05-4.41744E-05-2.02752E-05-3.92712E-05 1.02491E-19 1.81498E-18
 -1      2542 1.12979E-04-4.77829E-05-2.76773E-05-3.58686E-05 8.67785E-19 8.83138E-19
 -1      2543 1.03686E-04-3.52652E-05-2.85037E-05-4.00979E-05 7.89223E-19 6.16640E-19
 -1      2544 6.70201E-05-3.32467E-05-1.41915E-05-3.68188E-05 6.83979E-19 1.98735E-18
 -1      2545 9.52372E-05-2.85710E-05-2.85712E-05 2.68839E-10 1.93741E-18-2.30248E-19
 -1      2546 6.09545E-05-3.39557E-05-1.14489E-05 5.63309E-05 3.64859E-19 1.96469E-18
 -1      2547 4.42564E-05-2.69009E-05-7.00106E-06 4.93145E-05-5.25160E-20 2.42103E-18
 -1      2548 1.61274E-04-6.98764E-06-6.67084E-05 2.35703E-06 1.42894E-18 4.64174E-19
 -1      2549 1.62236E-04-6.79271E-06-6.71301E-05 8.37489E-07 1.65595E-18-3.86459E-21
 -1      2550 1.07370E-04-2.59567E-05-3.49406E-05-1.32597E-05-9.72791E-19 1.08711E-19
 -1      2551 1.02923E-04-2.41093E-05-3.37280E-05-1.81791E-05-1.13363E-18 2.26065E-19
 -1      2552 1.04253E-04-2.79340E-05-3.27589E-05-2.27973E-05-1.26244E-18 3.49871E-19
 -1      2553 1.12822E-04-3.00938E-05-3.54773E-05-9.66813E-06-8.73489E-19 2.58663E-19
 -1      2554 1.67020E-04-2.63557E-05-6.07729E-05 2.19231E-06 1.04736E-18-7.47930E-19
 -1      2555 1.62961E-04-3.39612E-05-5.55695E-05 5.18094E-06 7.58730E-19-8.65668E-19
 -1      2556 1.62940E-04-1.17203E-05-6.54972E-05-1.64004E-06 1.49417E-18-3.58189E-19
 -1      2557 1.65246E-04-1.81797E-05-6.34913E-05-4.86338E-07 1.21888E-18-4.70739E-19
 -1      2558 1.55010E-04-2.08353E-05-5.76429E-05-5.87043E-06 7.78847E-19-4.75715E-19
 -1      2559 1.62544E-04-1.69145E-05-6.28168E-05 3.92424E-06 1.01856E-18 4.91914E-19
 -1      2560 1.62176E-04-1.19303E-05-6.50926E-05 4.14866E-06 1.17102E-18 3.79047E-19
 -1      2561 1.27519E-05-8.76182E-06-1.20043E-06 1.04216E-05 1.71831E-18 3.26828E-18
 -1      2562 1.43822E-05-1.15777E-05-8.62742E-07-4.43381E-06 1.35621E-18 3.70873E-18
 -1      2563 1.61202E-04-3.50263E-05-5.42807E-05-8.22576E-06 8.28081E-19 8.55715E-19
 -1      2564 1.64409E-04-2.71082E-05-5.95092E-05-6.07658E-07 8.43221E-19 7.25272E-19
 -1      2565 1.13388E-04-4.48561E-05-2.92513E-05-4.77379E-05-2.14723E-19 2.98685E-19
 -1      2566 1.31819E-04-4.74517E-05-3.64248E-05-4.14565E-05 1.91218E-19 6.48192E-19
 -1      2567 7.11077E-05-3.18960E-05-1.66262E-05-5.63605E-05-6.43322E-19-5.73441E-19
 -1      2568 9.09936E-05-3.75885E-05-2.29478E-05-5.68991E-05-4.83444E-19-3.04177E-19
 -1      2569 3.52575E-05-1.62986E-05-7.77092E-06-4.95376E-05-8.94890E-19-1.02237E-18
 -1      2570 5.18866E-05-2.30955E-05-1.21433E-05-5.65459E-05-6.54756E-19-8.15269E-19
 -1      2571 6.79070E-05-2.66751E-05-1.72625E-05-5.64872E-05-1.13248E-18-4.92444E-19
 -1      2572 1.26740E-05-3.07995E-06-3.45051E-06-2.71157E-05-8.00870E-19-1.49925E-18
 -1      2573 2.02740E-05-7.25481E-06-5.20608E-06-4.04532E-05-8.08916E-19-1.30104E-18
 -1      2574 1.66595E-05-6.92399E-06-3.65739E-06 6.29798E-06-2.30605E-19-1.54668E-18
 -1      2575 1.06543E-05-1.78367E-06-3.44065E-06-9.55627E-06-4.03201E-19-1.57845E-18
 -1      2576 2.75947E-05-1.80792E-05-3.71654E-06 4.08736E-05 6.44380E-19 2.21033E-18
 -1      2577 1.79286E-05-1.24060E-05-1.79732E-06 2.78105E-05 1.01718E-18 2.28233E-18
 -1      2578 1.45470E-04-4.63687E-05-4.25587E-05-2.81648E-05 5.20184E-19 8.65244E-19
 -1      2579 1.56576E-04-4.34192E-05-4.90020E-05-2.00075E-05 6.89644E-19 8.67997E-19
 -1      2580 1.39897E-04-5.45622E-05-3.68424E-05 3.94509E-05 5.09702E-19-5.93982E-19
 -1      2581 1.24975E-04-5.42914E-05-3.02592E-05 4.48417E-05 2.07311E-19-3.73330E-19
 -1      2582 2.46239E-05-1.56351E-05-3.52539E-06-1.80623E-05 1.36923E-18 2.66985E-18
 -1      2583 4.28325E-05-2.32036E-05-8.16958E-06-3.17028E-05 1.09775E-18 2.07057E-18
 -1      2584 6.13584E-05-3.80659E-06-2.44251E-05-3.72415E-05-1.73867E-18-2.64989E-19
 -1      2585 5.55229E-05 3.58385E-06-2.49239E-05-3.12206E-05-1.62305E-18-3.42254E-19
 -1      2586 4.85104E-05 8.20714E-06-2.43217E-05-2.69278E-05-1.53079E-18-3.18537E-19
 -1      2587 3.39679E-05-8.27502E-06-1.05028E-05-4.56037E-05-1.23582E-18-1.09543E-18
 -1      2588 8.59629E-05-2.29735E-05-2.69607E-05 1.04724E-05 6.68997E-19 1.18023E-18
 -1      2589 8.75019E-05-2.23227E-05-2.79039E-05 1.20971E-05 7.17761E-19 1.01157E-18
 -1      2590 8.49808E-05-2.30326E-05-2.65139E-05 9.18958E-06 6.87579E-19 1.18785E-18
 -1      2591 1.57857E-04-4.17916E-05-4.98279E-05 4.10310E-06 3.69942E-19-9.77900E-19
 -1      2592 6.30442E-05-2.42997E-05-1.61152E-05-3.63663E-05 1.36097E-18 2.38270E-18
 -1      2593 6.31330E-05-1.84490E-05-1.87007E-05 3.26390E-05 5.94194E-19-3.61260E-19
 -1      2594 4.48521E-05-1.98035E-05-1.04021E-05 2.88433E-05 3.68883E-19-1.14604E-18
 -1      2595 7.84652E-05-2.40373E-05-2.28970E-05-3.98933E-05 1.12613E-18 2.12626E-18
 -1      2596 7.54098E-05-1.33867E-05-2.61833E-05-3.20343E-05 1.24657E-18 2.53565E-18
 -1      2597 8.06003E-05-4.00806E-05-1.69089E-05 5.49177E-05-2.86509E-19 3.64965E-19
 -1      2598 9.52373E-05-2.85711E-05-2.85712E-05-1.71327E-10-1.74561E-18 2.56603E-18
 -1      2599 9.52372E-05-2.85711E-05-2.85712E-05-1.24807E-10-9.69236E-19 2.74106E-18
 -1      2600 9.52372E-05-2.85710E-05-2.85712E-05 3.51703E-10 2.23582E-18-1.06819E-18
 -1      2601 4.20675E-05-1.99359E-05-8.96407E-06 4.52255E-05 1.52254E-19 2.32743E-18
 -1      2602 8.43826E-05-2.23462E-05-2.66216E-05-1.30015E-06 6.65203E-19 7.06279E-19
 -1      2603 1.20504E-04-5.54706E-05-2.75772E-05 4.62224E-05-6.57298E-19-7.51742E-19
 -1      2604 9.52372E-05-2.85711E-05-2.85712E-05-1.53455E-10-3.25818E-19 1.13291E-18
 -1      2605 9.52372E-05-2.85710E-05-2.85712E-05-1.98474E-10-1.31411E-18 6.15888E-19
 -1      2606 9.52372E-05-2.85710E-05-2.85712E-05-2.78870E-10-1.85610E-18 1.09203E-18
 -1      2607 8.43570E-05-2.30566E-05-2.62222E-05 7.38401E-06 5.38137E-19 9.74293E-19
 -1      2608 8.49512E-05-2.31293E-05-2.64475E-05 8.40547E-06 6.16428E-19 1.14617E-18
 -1      2609 8.69140E-05-2.30367E-05-2.73911E-05 9.66981E-06 6.70268E-19 1.01246E-18
 -1      2610 8.69488E-05-2.30598E-05-2.74050E-05 7.95462E-06 6.18127E-19 1.05988E-18
 -1      2611 1.07647E-04-4.32124E-05-2.73007E-05-4.95912E-05-8.75197E-19 3.42360E-19
 -1      2612 1.50983E-04-6.92515E-06-6.20508E-05-2.65987E-06 1.48210E-18-1.27584E-20
 -1      2613 2.78257E-05-8.35780E-06-7.70775E-06-1.45666E-05 2.00472E-18 2.95276E-18
 -1      2614 1.47498E-04-5.65815E-05-3.88486E-05 2.61818E-05 6.33157E-20-1.32052E-18
 -1      2615 1.40469E-04-4.96056E-05-3.87738E-05-2.85538E-05-1.65383E-19 9.29089E-19
 -1      2616 2.66994E-05-1.28380E-05-5.65987E-06 1.65778E-05 8.19504E-20-1.42683E-18
 -1      2617 2.92349E-05-3.13615E-06-1.06388E-05 1.29971E-05-6.76568E-20-1.33048E-18
 -1      2618 4.52571E-05 1.14726E-05-2.40161E-05-1.82436E-05-1.25714E-18-3.14990E-19
 -1      2619 4.78408E-05 1.06879E-05-2.50274E-05-1.08334E-05-1.06104E-18-1.27531E-19
 -1      2620 4.48649E-05 9.69936E-06-2.28759E-05-5.56591E-06-8.39714E-19-3.32990E-19
 -1      2621 4.30818E-05 8.75814E-06-2.18040E-05-2.58526E-05-1.43609E-18-5.13937E-19
 -1      2622 1.50593E-04-6.62719E-06-6.20542E-05 5.73148E-06 1.29173E-18 4.20181E-19
 -1      2623 1.92182E-05-7.55147E-06-4.35840E-06 1.81958E-05 1.29289E-18 2.57265E-18
 -1      2624 2.15676E-05-1.32801E-06-8.07454E-06 7.51894E-06 1.89054E-18 2.83671E-18
 -1      2625 2.68829E-05-5.42458E-06-8.54941E-06 2.42424E-05 1.01602E-18 1.59877E-18
 -1      2626 1.55043E-04-2.15713E-05-5.74327E-05 6.54830E-06 7.46236E-19 7.78847E-19
 -1      2627 1.78424E-05 2.54222E-06-8.08286E-06-1.70849E-05-7.84405E-19-1.40925E-18
 -1      2628 1.55426E-04-4.01775E-05-4.94129E-05-6.25392E-06 5.10655E-19 1.05794E-18
 -1      2629 4.46756E-05-5.86421E-06-1.55838E-05 2.30072E-05 1.67607E-19-8.66091E-19
 -1      2630 9.52373E-05-2.85711E-05-2.85712E-05-2.56080E-10-3.15520E-18 7.64601E-19
 -1      2631 1.11280E-04-2.54781E-05-3.68940E-05 9.91212E-06-1.54533E-19 2.83015E-19
 -1      2632 1.13850E-04-2.72184E-05-3.71276E-05 7.58577E-06-3.61705E-19 2.78330E-19
 -1      2633 1.16475E-04-2.97497E-05-3.73202E-05 4.58358E-06-5.08744E-19 1.11970E-19
 -1      2634 1.18030E-04-3.14503E-05-3.70692E-05 5.54965E-07-6.34838E-19 2.44065E-19
 -1      2635 1.17511E-04-2.96262E-05-3.75652E-05 7.93072E-06-3.42023E-19 2.78654E-19
 -1      2636 1.00223E-04-2.05898E-05-3.42019E-05 1.44925E-05 2.74772E-19 9.11652E-20
 -1      2637 1.02900E-04-2.13715E-05-3.49797E-05 1.36225E-05 1.86064E-19 5.86802E-20
 -1      2638 9.53506E-05-2.01800E-05-3.22919E-05 1.51460E-05 4.42399E-19 2.51466E-19
 -1      2639 9.77333E-05-2.02798E-05-3.32260E-05 1.47286E-05 3.25690E-19 2.01561E-19
 -1      2640 9.96611E-05-2.15491E-05-3.34179E-05 1.41420E-05 3.00918E-19 2.24667E-19
 -1      2641 8.91932E-05-2.20577E-05-2.87671E-05 1.31580E-05 5.90951E-19 7.84807E-19
 -1      2642 9.02154E-05-2.11993E-05-2.96065E-05 1.42421E-05 5.97674E-19 4.92631E-19
 -1      2643 8.86478E-05-2.24773E-05-2.83278E-05 1.16325E-05 5.97575E-19 7.96582E-19
 -1      2644 9.52372E-05-2.85710E-05-2.85712E-05-3.47682E-10-3.29027E-18 1.75023E-18
 -1      2645 5.63689E-05-1.33332E-05-1.76368E-05-3.23288E-05 1.61042E-18 2.83883E-18
 -1      2646 8.06405E-05-1.43572E-05-2.83866E-05-1.30814E-05-1.91092E-19 2.01961E-18
 -1      2647 8.31709E-05-1.66279E-05-2.86253E-05-1.03559E-05-7.63936E-19 1.49904E-18
 -1      2648 8.71017E-05-1.93059E-05-2.90404E-05-8.87700E-06-9.06881E-19 1.19285E-18
 -1      2649 8.84997E-05-2.10154E-05-2.89993E-05-6.82962E-06-1.04558E-18 1.20770E-18
 -1      2650 8.11561E-05-1.53604E-05-2.79935E-05-6.83106E-06-1.18274E-18 1.92898E-18
 -1      2651 9.08346E-05-2.28565E-05-2.91135E-05-5.70092E-06-7.69450E-19 1.37692E-18
 -1      2652 9.15462E-05-2.39879E-05-2.90023E-05-4.28541E-06-8.77574E-19 2.07241E-18
 -1      2653 8.71526E-05-2.01517E-05-2.86035E-05-4.78232E-06-7.76554E-19 2.01740E-18
 -1      2654 9.28869E-05-2.51634E-05-2.90041E-05-3.48175E-06-8.44178E-19 1.85587E-18
 -1      2655 9.32321E-05-2.58695E-05-2.88988E-05-2.56021E-06-5.43287E-19 1.95773E-18
 -1      2656 9.06831E-05-2.34149E-05-2.87680E-05-3.12491E-06-8.27656E-19 1.64653E-18
 -1      2657 9.39855E-05-2.65892E-05-2.88676E-05-2.02256E-06 1.12746E-19 1.70435E-18
 -1      2658 9.41489E-05-2.70158E-05-2.87883E-05-1.45003E-06 5.77539E-19 1.29320E-18
 -1      2659 9.27064E-05-2.55070E-05-2.87664E-05-1.91312E-06-1.49142E-19 1.28004E-18
 -1      2660 9.45663E-05-2.74446E-05-2.87546E-05-1.10975E-06-2.58217E-19 6.48891E-19
 -1      2661 9.46441E-05-2.76972E-05-2.87013E-05-7.68503E-07-7.84314E-19 1.12744E-19
 -1      2662 9.38454E-05-2.67983E-05-2.87167E-05-1.09377E-06-4.58383E-19 1.20956E-18
 -1      2663 9.48732E-05-2.79477E-05-2.86746E-05-5.64236E-07-9.70921E-19-8.92353E-19
 -1      2664 9.49119E-05-2.80951E-05-2.86415E-05-3.69137E-07-1.39584E-18-8.75751E-19
 -1      2665 9.44790E-05-2.75738E-05-2.86643E-05-5.74554E-07-1.28567E-18-8.63543E-19
 -1      2666 9.50409E-05-2.82440E-05-2.86225E-05-2.48493E-07-5.54822E-19-3.44344E-19
 -1      2667 9.50631E-05-2.83307E-05-2.86028E-05-1.40158E-07-5.32167E-19 3.85410E-19
 -1      2668 9.48345E-05-2.80370E-05-2.86225E-05-2.60262E-07-8.80649E-19-4.59439E-19
 -1      2669 9.51293E-05-2.84082E-05-2.85920E-05-8.24082E-08-6.16272E-19 7.57905E-19
 -1      2670 9.51423E-05-2.84542E-05-2.85822E-05-3.10354E-08 4.11886E-19 5.77378E-19
 -1      2671 9.50275E-05-2.83011E-05-2.85947E-05-8.73636E-08-7.71184E-20 2.30776E-19
 -1      2672 9.51779E-05-2.84963E-05-2.85763E-05-4.29869E-09-1.85508E-19 5.63285E-19
 -1      2673 9.51869E-05-2.85214E-05-2.85718E-05 1.82789E-08-4.89588E-19 3.84793E-21
 -1      2674 9.51290E-05-2.84429E-05-2.85786E-05-3.73700E-09-3.44274E-19 1.97250E-19
 -1      2675 9.52060E-05-2.85431E-05-2.85691E-05 2.75433E-08-2.32291E-21-4.53260E-19
 -1      2676 9.52126E-05-2.85561E-05-2.85675E-05 3.48621E-08 1.36596E-19-3.63605E-19
 -1      2677 9.51841E-05-2.85191E-05-2.85701E-05 3.17121E-08-6.80276E-19-6.45539E-19
 -1      2678 9.52227E-05-2.85666E-05-2.85666E-05 3.52328E-08 3.43054E-19-4.09961E-19
 -1      2679 9.52276E-05-2.85728E-05-2.85665E-05 3.51140E-08 1.23051E-18 1.48525E-19
 -1      2680 9.52136E-05-2.85578E-05-2.85665E-05 4.09784E-08 5.66770E-19-6.99028E-19
 -1      2681 9.52329E-05-2.85772E-05-2.85667E-05 3.15888E-08 1.01959E-18-5.16512E-19
 -1      2682 9.52363E-05-2.85797E-05-2.85672E-05 2.83967E-08 1.40822E-19-5.26001E-19
 -1      2683 9.52293E-05-2.85757E-05-2.85657E-05 3.74696E-08 8.36849E-19-2.26349E-19
 -1      2684 9.52390E-05-2.85809E-05-2.85678E-05 2.37140E-08-3.24885E-19-1.03141E-19
 -1      2685 9.52413E-05-2.85815E-05-2.85685E-05 1.97431E-08-4.65542E-19 1.55670E-19
 -1      2686 9.52373E-05-2.85824E-05-2.85663E-05 2.88975E-08 2.99866E-19-1.07283E-18
 -1      2687 9.52425E-05-2.85812E-05-2.85692E-05 1.52749E-08-2.18045E-19 6.65644E-19
 -1      2688 9.52438E-05-2.85809E-05-2.85699E-05 1.16200E-08 3.01337E-19 9.17202E-19
 -1      2689 9.52412E-05-2.85835E-05-2.85675E-05 1.93939E-08-9.56666E-20-3.28230E-19
 -1      2690 9.52443E-05-2.85800E-05-2.85705E-05 7.94733E-09 8.02797E-19 1.31977E-18
 -1      2691 9.52450E-05-2.85793E-05-2.85710E-05 5.03615E-09 7.24196E-19 1.89255E-18
 -1      2692 9.52428E-05-2.85821E-05-2.85688E-05 1.09369E-08 3.34207E-19 9.48363E-19
 -1      2693 9.52450E-05-2.85783E-05-2.85715E-05 2.30949E-09-3.16571E-19 8.45648E-19
 -1      2694 9.52452E-05-2.85775E-05-2.85719E-05 2.21133E-10-7.41222E-19-7.20961E-20
 -1      2695 9.52432E-05-2.85798E-05-2.85700E-05 4.27389E-09-6.85932E-19 7.46887E-19
 -1      2696 9.52450E-05-2.85766E-05-2.85722E-05-1.62343E-09-1.96903E-18-8.70514E-19
 -1      2697 9.52449E-05-2.85758E-05-2.85724E-05-2.97384E-09-2.71997E-18-1.30437E-18
 -1      2698 9.52430E-05-2.85775E-05-2.85709E-05-5.03072E-10-2.55350E-18-8.01087E-19
 -1      2699 9.52446E-05-2.85751E-05-2.85727E-05-4.08927E-09-1.71647E-18-1.96902E-18
 -1      2700 9.52442E-05-2.85744E-05-2.85727E-05-4.84796E-09-9.75273E-19-1.71330E-18
 -1      2701 9.52425E-05-2.85755E-05-2.85716E-05-3.61317E-09-2.04938E-18-1.97987E-18
 -1      2702 9.52439E-05-2.85739E-05-2.85729E-05-5.40821E-09-1.59920E-18-2.10474E-18
 -1      2703 9.52434E-05-2.85734E-05-2.85729E-05-5.72935E-09-8.85262E-19-2.37153E-18
 -1      2704 9.52419E-05-2.85739E-05-2.85720E-05-5.39025E-09-1.80304E-18-3.22638E-18
 -1      2705 9.52430E-05-2.85730E-05-2.85729E-05-5.89510E-09 2.71663E-19-2.33082E-18
 -1      2706 9.52425E-05-2.85725E-05-2.85728E-05-5.91709E-09 1.17100E-21-2.33840E-18
 -1      2707 9.52413E-05-2.85727E-05-2.85722E-05-6.17837E-09-1.00797E-19-3.21968E-18
 -1      2708 9.52422E-05-2.85723E-05-2.85728E-05-5.81392E-09-8.40381E-19-2.61760E-18
 -1      2709 9.52416E-05-2.85719E-05-2.85727E-05-5.63231E-09-1.19002E-18-1.83128E-18
 -1      2710 9.52406E-05-2.85718E-05-2.85723E-05-6.27527E-09-3.29965E-19-2.53071E-18
 -1      2711 9.52413E-05-2.85718E-05-2.85727E-05-5.37515E-09-9.03931E-19-1.66807E-18
 -1      2712 9.52408E-05-2.85715E-05-2.85725E-05-5.09591E-09-6.29103E-19-1.10261E-18
 -1      2713 9.52400E-05-2.85713E-05-2.85723E-05-5.92238E-09-3.14672E-19-1.97809E-18
 -1      2714 9.52406E-05-2.85714E-05-2.85725E-05-4.76371E-09-1.42941E-19-8.12239E-19
 -1      2715 9.52401E-05-2.85713E-05-2.85724E-05-4.43961E-09 6.08409E-19 7.64307E-20
 -1      2716 9.52395E-05-2.85709E-05-2.85722E-05-5.32831E-09 1.60704E-20-4.33122E-20
 -1      2717 9.52399E-05-2.85712E-05-2.85723E-05-4.08240E-09 1.08600E-18-7.96188E-19
 -1      2718 9.52395E-05-2.85711E-05-2.85722E-05-3.75278E-09 1.70773E-18-3.90086E-19
 -1      2719 9.52390E-05-2.85708E-05-2.85721E-05-4.62347E-09 7.58911E-19-7.77132E-20
 -1      2720 9.52393E-05-2.85711E-05-2.85721E-05-3.40386E-09 3.14387E-18-1.26482E-18
 -1      2721 9.52390E-05-2.85710E-05-2.85720E-05-3.09286E-09 2.09989E-18-1.35804E-18
 -1      2722 9.52386E-05-2.85707E-05-2.85720E-05-3.89696E-09 2.12930E-18-4.78122E-19
 -1      2723 9.52388E-05-2.85710E-05-2.85719E-05-2.77196E-09 9.66024E-19-4.29738E-19
 -1      2724 9.52385E-05-2.85710E-05-2.85718E-05-2.49285E-09 7.08569E-20-6.65411E-20
 -1      2725 9.52383E-05-2.85707E-05-2.85718E-05-3.20489E-09 1.39956E-18-1.39138E-18
 -1      2726 9.52384E-05-2.85710E-05-2.85717E-05-2.20996E-09 2.51806E-19 5.22049E-19
 -1      2727 9.52382E-05-2.85710E-05-2.85717E-05-1.96845E-09-3.04970E-19 2.29652E-18
 -1      2728 9.52380E-05-2.85707E-05-2.85717E-05-2.57901E-09 2.80639E-19-4.66500E-19
 -1      2729 9.52381E-05-2.85710E-05-2.85716E-05-1.72690E-09-1.64174E-18 2.51882E-18
 -1      2730 9.52379E-05-2.85710E-05-2.85716E-05-1.52367E-09 3.51037E-19 2.14693E-18
 -1      2731 9.52378E-05-2.85707E-05-2.85716E-05-2.03390E-09-9.69261E-19 2.18029E-18
 -1      2732 9.52378E-05-2.85710E-05-2.85715E-05-1.32244E-09 8.56241E-19 7.61322E-19
 -1      2733 9.52377E-05-2.85710E-05-2.85715E-05-1.15504E-09 2.08410E-18-1.65033E-18
 -1      2734 9.52376E-05-2.85708E-05-2.85715E-05-1.57260E-09-8.14853E-19 2.39204E-18
 -1      2735 9.52376E-05-2.85710E-05-2.85714E-05-9.90593E-10 3.76272E-18-2.55320E-18
 -1      2736 9.52375E-05-2.85710E-05-2.85714E-05-8.54896E-10 2.45743E-18-3.06334E-18
 -1      2737 9.52375E-05-2.85708E-05-2.85714E-05-1.19086E-09 1.75917E-18-1.13774E-18
 -1      2738 9.52375E-05-2.85710E-05-2.85713E-05-7.21368E-10 1.43393E-18-2.37910E-18
 -1      2739 9.52374E-05-2.85710E-05-2.85713E-05-6.13394E-10-1.97249E-19-8.19600E-19
 -1      2740 9.52374E-05-2.85709E-05-2.85714E-05-8.80501E-10 2.07048E-18-3.70811E-18
 -1      2741 9.52373E-05-2.85710E-05-2.85713E-05-5.15780E-10-2.70865E-18 5.93822E-19
 -1      2742 9.52373E-05-2.85710E-05-2.85713E-05-4.27826E-10-3.49857E-18 1.63597E-18
 -1      2743 9.52372E-05-2.85709E-05-2.85713E-05-4.43089E-10-3.44778E-18 3.18635E-19
 -1      2744 9.52373E-05-2.85709E-05-2.85713E-05-6.35920E-10-8.61114E-19-3.14159E-18
 -1      2745 8.87403E-05-2.24202E-05-2.83979E-05 5.43428E-06 7.09613E-19 7.64298E-19
 -1      2746 8.95569E-05-2.26957E-05-2.86385E-05 7.16139E-06 6.39069E-19 8.62279E-19
 -1      2747 9.52372E-05-2.85709E-05-2.85713E-05 4.47330E-10 1.95924E-18-2.97832E-18
 -1      2748 9.52372E-05-2.85709E-05-2.85713E-05 4.39773E-10 1.81451E-18-7.10416E-19
 -1      2749 9.52373E-05-2.85709E-05-2.85713E-05 5.33046E-10-4.27789E-20-9.64134E-19
 -1      2750 9.52372E-05-2.85711E-05-2.85712E-05-8.82080E-11 2.42128E-20 2.57654E-18
 -1      2751 9.82065E-05-3.75415E-05-2.54628E-05-4.94087E-05-1.36679E-18 2.29394E-19
 -1      2752 1.16556E-04-4.53614E-05-3.08253E-05-4.23740E-05-1.01475E-18 7.99943E-19
 -1      2753 8.89668E-05-2.45034E-05-2.76397E-05-7.80846E-06 4.55115E-19 4.64073E-19
 -1      2754 8.82612E-05-2.36809E-05-2.76435E-05-6.79455E-06 5.48170E-19 6.30339E-19
 -1      2755 8.77140E-05-2.29686E-05-2.77494E-05-5.35893E-06 5.98602E-19 6.26071E-19
 -1      2756 8.73278E-05-2.24231E-05-2.77844E-05-3.89060E-06 6.80506E-19 7.28227E-19
 -1      2757 9.06423E-05-2.33552E-05-2.88570E-05-6.50475E-06 6.39693E-19 5.17482E-19
 -1      2758 9.21554E-05-2.79355E-05-2.75369E-05-9.28439E-06-5.97493E-21 2.85174E-19
 -1      2759 9.13054E-05-2.71331E-05-2.74864E-05-9.29751E-06-1.46480E-19 1.25636E-19
 -1      2760 9.34449E-05-2.91588E-05-2.75592E-05-8.60703E-06 1.92464E-21 8.33927E-19
 -1      2761 9.27108E-05-2.85678E-05-2.74866E-05-8.98199E-06 2.19109E-19 4.22114E-19
 -1      2762 9.48371E-05-2.90878E-05-2.81677E-05-9.72686E-06-7.76773E-20 8.53796E-20
 -1      2763 9.43467E-05-2.98840E-05-2.76285E-05-7.42180E-06-3.10921E-19 9.71060E-19
 -1      2764 9.37740E-05-2.95284E-05-2.75406E-05-8.00295E-06-1.85461E-19 9.62622E-19
 -1      2765 9.57342E-05-3.02747E-05-2.80440E-05-8.75860E-06-2.42290E-19 7.16163E-19
 -1      2766 9.48896E-05-3.01723E-05-2.77326E-05-6.04556E-06-2.05852E-19 5.48386E-19
 -1      2767 9.44756E-05-3.00167E-05-2.76381E-05-6.69656E-06-1.88433E-19 9.13398E-19
 -1      2768 9.61921E-05-3.08662E-05-2.79900E-05-7.37129E-06-1.03376E-19 8.26446E-19
 -1      2769 9.51638E-05-3.01520E-05-2.78561E-05-4.70480E-06 6.10666E-21 3.69572E-19
 -1      2770 9.48804E-05-3.01358E-05-2.77628E-05-5.32986E-06-1.52472E-19 2.76805E-19
 -1      2771 9.63059E-05-3.09768E-05-2.79950E-05-5.88649E-06-6.94857E-20 7.40094E-19
 -1      2772 9.52689E-05-2.99568E-05-2.79840E-05-3.52794E-06 1.50663E-19 1.44322E-19
 -1      2773 9.50811E-05-3.00198E-05-2.78981E-05-4.07332E-06 1.89631E-19 2.29022E-19
 -1      2774 9.62067E-05-3.07752E-05-2.80416E-05-4.51036E-06 2.70445E-19 1.67897E-19
 -1      2775 9.52854E-05-2.96919E-05-2.81050E-05-2.56535E-06-1.43021E-19 1.05298E-19
 -1      2776 9.51620E-05-2.97881E-05-2.80302E-05-3.01044E-06 1.57220E-19 3.49418E-19
 -1      2777 9.60110E-05-3.04191E-05-2.81118E-05-3.34364E-06 4.10564E-20-1.00386E-19
 -1      2778 9.52659E-05-2.94254E-05-2.82119E-05-1.81740E-06-7.42090E-19-5.58773E-19
 -1      2779 9.51839E-05-2.95254E-05-2.81498E-05-2.16293E-06-4.25601E-19-3.04878E-19
 -1      2780 9.57980E-05-3.00233E-05-2.81906E-05-2.41286E-06-1.22799E-19 9.58414E-20
 -1      2781 9.52396E-05-2.91927E-05-2.83015E-05-1.25849E-06-1.25725E-18-3.87231E-19
 -1      2782 9.51835E-05-2.92812E-05-2.82520E-05-1.51647E-06-1.29412E-18-4.81494E-19
 -1      2783 9.56109E-05-2.96565E-05-2.82676E-05-1.70231E-06-9.74456E-19-3.90024E-19
 -1      2784 9.52191E-05-2.90066E-05-2.83736E-05-8.53523E-07-1.14941E-18 1.35382E-19
 -1      2785 9.51794E-05-2.90778E-05-2.83354E-05-1.04016E-06-1.57317E-18-1.08156E-19
 -1      2786 9.54661E-05-2.93501E-05-2.83365E-05-1.17763E-06-1.69493E-18-1.03068E-19
 -1      2787 9.52078E-05-2.88668E-05-2.84297E-05-5.67315E-07-6.88899E-19 7.59259E-19
 -1      2788 9.51789E-05-2.89204E-05-2.84010E-05-6.98864E-07-4.06293E-19 5.60356E-19
 -1      2789 9.53642E-05-2.91116E-05-2.83946E-05-8.00080E-07-1.35113E-18 7.27829E-19
 -1      2790 9.52046E-05-2.87665E-05-2.84720E-05-3.69203E-07-3.84143E-19 1.01172E-18
 -1      2791 9.51832E-05-2.88050E-05-2.84510E-05-4.59889E-07-1.11701E-19 9.52977E-19
 -1      2792 9.52982E-05-2.89355E-05-2.84415E-05-5.33980E-07-5.16501E-19 7.87765E-19
 -1      2793 9.52068E-05-2.86972E-05-2.85032E-05-2.34521E-07-3.40035E-19 1.38009E-18
 -1      2794 9.51909E-05-2.87239E-05-2.84881E-05-2.95822E-07-5.63183E-19 9.44999E-19
 -1      2795 9.52589E-05-2.88106E-05-2.84780E-05-3.49629E-07-4.32290E-19 4.15272E-19
 -1      2796 9.52119E-05-2.86507E-05-2.85256E-05-1.44457E-07-3.44602E-19 2.19152E-18
 -1      2797 9.52002E-05-2.86687E-05-2.85151E-05-1.85145E-07-2.78665E-19 1.86956E-18
 -1      2798 9.52379E-05-2.87248E-05-2.85056E-05-2.23816E-07-4.86129E-19 9.46847E-19
 -1      2799 9.52180E-05-2.86203E-05-2.85415E-05-8.52033E-08 1.97935E-19 1.12805E-18
 -1      2800 9.52096E-05-2.86321E-05-2.85342E-05-1.11719E-07 3.46888E-19 1.60151E-18
 -1      2801 9.52283E-05-2.86675E-05-2.85259E-05-1.39147E-07 7.56135E-19 1.59871E-18
 -1      2802 9.52238E-05-2.86009E-05-2.85525E-05-4.69032E-08 9.08171E-19 3.67920E-19
 -1      2803 9.52180E-05-2.86085E-05-2.85476E-05-6.38383E-08 3.29190E-20 4.14799E-19
 -1      2804 9.52254E-05-2.86301E-05-2.85407E-05-8.29772E-08 6.45388E-19-4.39369E-20
 -1      2805 9.52288E-05-2.85886E-05-2.85600E-05-2.26710E-08 1.51844E-18 3.91496E-19
 -1      2806 9.52249E-05-2.85935E-05-2.85568E-05-3.32228E-08 1.16019E-18 6.13372E-19
 -1      2807 9.52259E-05-2.86061E-05-2.85512E-05-4.63101E-08 8.39820E-19-8.09131E-19
 -1      2808 9.52327E-05-2.85810E-05-2.85650E-05-7.77260E-09 6.59000E-19-1.65941E-19
 -1      2809 9.52302E-05-2.85841E-05-2.85629E-05-1.41287E-08 9.90106E-19-9.59184E-20
 -1      2810 9.52279E-05-2.85911E-05-2.85585E-05-2.28509E-08 1.44499E-18-9.65947E-19
 -1      2811 9.52356E-05-2.85764E-05-2.85682E-05 1.00702E-09-5.89062E-19 7.13331E-19
 -1      2812 9.52340E-05-2.85783E-05-2.85669E-05-2.62954E-09-5.43380E-20 3.41124E-19
 -1      2813 9.52302E-05-2.85818E-05-2.85635E-05-8.24802E-09 5.07332E-19-2.90141E-19
 -1      2814 9.52375E-05-2.85736E-05-2.85702E-05 5.83060E-09 9.37825E-19 3.98137E-19
 -1      2815 9.52367E-05-2.85748E-05-2.85695E-05 3.92849E-09 6.64196E-19 5.13095E-19
 -1      2816 9.52324E-05-2.85762E-05-2.85668E-05 4.79766E-10 1.15861E-19 1.95012E-19
 -1      2817 9.52386E-05-2.85720E-05-2.85714E-05 8.14218E-09 9.42376E-19 7.28461E-19
 -1      2818 9.52383E-05-2.85727E-05-2.85710E-05 7.32297E-09 7.71865E-19 5.01003E-19
 -1      2819 9.52342E-05-2.85729E-05-2.85690E-05 5.36035E-09 8.68703E-19 1.36091E-19
 -1      2820 9.52392E-05-2.85710E-05-2.85721E-05 8.89937E-09 2.94925E-19 7.31666E-19
 -1      2821 9.52392E-05-2.85715E-05-2.85719E-05 8.73565E-09 9.24064E-19 7.11817E-19
 -1      2822 9.52355E-05-2.85710E-05-2.85704E-05 7.76520E-09 8.91564E-19 4.28173E-20
 -1      2823 9.52395E-05-2.85705E-05-2.85724E-05 8.73258E-09-3.43595E-19-8.34521E-19
 -1      2824 9.52396E-05-2.85708E-05-2.85724E-05 8.94647E-09 1.41589E-19-3.61580E-19
 -1      2825 9.52364E-05-2.85700E-05-2.85713E-05 8.61645E-09 1.28041E-18 1.60658E-19
 -1      2826 9.52394E-05-2.85703E-05-2.85725E-05 8.05277E-09-1.09074E-18-4.97020E-19
 -1      2827 9.52397E-05-2.85705E-05-2.85725E-05 8.46570E-09-8.19859E-19-3.43701E-19
 -1      2828 9.52370E-05-2.85695E-05-2.85718E-05 8.52982E-09-8.58275E-19-3.25195E-19
 -1      2829 9.52393E-05-2.85702E-05-2.85725E-05 7.12403E-09-8.67867E-19 4.31170E-19
 -1      2830 9.52396E-05-2.85703E-05-2.85725E-05 7.62322E-09-6.81581E-19 5.62859E-19
 -1      2831 9.52374E-05-2.85694E-05-2.85720E-05 7.91242E-09-1.43511E-18 7.25899E-19
 -1      2832 9.52390E-05-2.85702E-05-2.85723E-05 6.11224E-09-1.25225E-18 2.70662E-19
 -1      2833 9.52393E-05-2.85703E-05-2.85724E-05 6.62838E-09-1.32570E-18-6.87095E-20
 -1      2834 9.52376E-05-2.85694E-05-2.85721E-05 7.02947E-09-5.54561E-19 9.20926E-19
 -1      2835 9.52387E-05-2.85703E-05-2.85722E-05 5.11784E-09 1.01822E-18-4.09472E-20
 -1      2836 9.52390E-05-2.85703E-05-2.85723E-05 5.61023E-09 1.27390E-19-2.85123E-19
 -1      2837 9.52376E-05-2.85695E-05-2.85720E-05 6.04987E-09-1.99102E-19-3.19067E-19
 -1      2838 9.52384E-05-2.85704E-05-2.85720E-05 4.19784E-09 2.31601E-19 3.22404E-19
 -1      2839 9.52387E-05-2.85704E-05-2.85721E-05 4.64451E-09 8.12809E-19 9.68290E-20
 -1      2840 9.52376E-05-2.85697E-05-2.85720E-05 5.07735E-09 1.25442E-19 4.37199E-19
 -1      2841 9.52382E-05-2.85705E-05-2.85719E-05 3.38076E-09-1.28453E-18 9.40090E-19
 -1      2842 9.52384E-05-2.85704E-05-2.85720E-05 3.77184E-09 9.85070E-20 8.84302E-19
 -1      2843 9.52376E-05-2.85699E-05-2.85719E-05 4.17181E-09-2.19682E-19 1.54640E-18
 -1      2844 9.52380E-05-2.85706E-05-2.85717E-05 2.67679E-09-1.21853E-18 5.52616E-19
 -1      2845 9.52382E-05-2.85705E-05-2.85718E-05 3.01005E-09-2.14049E-18 2.97069E-19
 -1      2846 9.52375E-05-2.85701E-05-2.85718E-05 3.36408E-09-1.25455E-18 2.23946E-18
 -1      2847 9.52378E-05-2.85707E-05-2.85716E-05 2.08464E-09-2.27998E-19 1.52317E-19
 -1      2848 9.52379E-05-2.85706E-05-2.85717E-05 2.36252E-09-6.99523E-19-1.46931E-19
 -1      2849 9.52375E-05-2.85703E-05-2.85717E-05 2.66602E-09-5.13885E-19-2.75103E-19
 -1      2850 9.52376E-05-2.85707E-05-2.85715E-05 1.59618E-09-6.13676E-20 4.06759E-19
 -1      2851 9.52377E-05-2.85707E-05-2.85716E-05 1.82379E-09 2.48580E-19 2.35455E-19
 -1      2852 9.52374E-05-2.85704E-05-2.85716E-05 2.07753E-09 4.12885E-20-1.28724E-19
 -1      2853 9.52375E-05-2.85708E-05-2.85714E-05 1.19978E-09 1.20588E-18 1.29315E-19
 -1      2854 9.52376E-05-2.85708E-05-2.85715E-05 1.38354E-09-2.00984E-20 9.44620E-19
 -1      2855 9.52374E-05-2.85706E-05-2.85715E-05 1.59136E-09-4.63118E-19 7.96027E-19
 -1      2856 9.52374E-05-2.85709E-05-2.85714E-05 8.81459E-10-8.06031E-19 7.13300E-19
 -1      2857 9.52375E-05-2.85709E-05-2.85714E-05 1.02850E-09 1.28785E-18 7.80554E-19
 -1      2858 9.52373E-05-2.85707E-05-2.85714E-05 1.19689E-09 1.07802E-18 1.25092E-18
 -1      2859 9.52373E-05-2.85709E-05-2.85713E-05 6.35225E-10-6.50447E-19-2.04714E-19
 -1      2860 9.52374E-05-2.85709E-05-2.85713E-05 7.53194E-10-1.28955E-18 5.12130E-19
 -1      2861 9.52372E-05-2.85708E-05-2.85714E-05 8.86506E-10-3.13631E-19 5.59686E-19
 -1      2862 9.52372E-05-2.85708E-05-2.85713E-05 6.44464E-10 2.43738E-19-1.47482E-18
 -1      2863 9.52367E-05-2.85704E-05-2.85713E-05 2.17368E-10-6.63810E-19-2.20379E-18
 -1      2864 9.52368E-05-2.85704E-05-2.85713E-05 2.85304E-10-3.47549E-19-2.70785E-18
 -1      2865 9.52371E-05-2.85708E-05-2.85713E-05 4.65297E-10 6.99687E-19-2.87368E-18
 -1      2866 4.02858E-05-6.40932E-06-1.38996E-05-2.41693E-05 2.00832E-18 2.88436E-18
 -1      2867 5.78475E-05-8.97658E-06-2.03422E-05-2.76316E-05 1.81334E-18 3.26934E-18
 -1      2868 2.97303E-05-1.66105E-06-1.11685E-05-9.12877E-06 2.40907E-18 3.52366E-18
 -1      2869 9.52368E-05-2.85705E-05-2.85713E-05 3.55734E-10-1.38566E-18-2.30081E-18
 -1      2870 9.52369E-05-2.85705E-05-2.85713E-05 4.01447E-10-1.39246E-19-1.34412E-18
 -1      2871 9.52367E-05-2.85704E-05-2.85713E-05 3.67746E-10 7.42595E-19-1.95494E-18
 -1      2872 9.52367E-05-2.85704E-05-2.85713E-05-1.29583E-10-2.01740E-18 3.45197E-18
 -1      2873 9.52367E-05-2.85703E-05-2.85713E-05-4.99589E-11-2.34818E-18 2.20018E-18
 -1      2874 9.52368E-05-2.85704E-05-2.85713E-05-2.84544E-10-2.46878E-19-5.52874E-19
 -1      2875 9.52367E-05-2.85704E-05-2.85713E-05-2.18067E-10-2.44954E-18 3.58986E-18
 -1      2876 9.52367E-05-2.85703E-05-2.85713E-05-1.98825E-10-2.05648E-18 2.36603E-18
 -1      2877 9.52369E-05-2.85705E-05-2.85713E-05-3.99877E-10 1.61028E-18-6.24793E-20
 -1      2878 9.52368E-05-2.85705E-05-2.85713E-05-3.54448E-10 9.01914E-19-1.77847E-18
 -1      2879 9.52367E-05-2.85704E-05-2.85713E-05-3.67229E-10-7.79151E-19 4.53491E-19
 -1      2880 9.52370E-05-2.85707E-05-2.85713E-05-4.55414E-10 6.23897E-19-5.25346E-19
 -1      2881 9.52369E-05-2.85706E-05-2.85713E-05-4.39891E-10 2.06502E-18-1.69182E-19
 -1      2882 9.52369E-05-2.85705E-05-2.85713E-05-4.84369E-10-3.37512E-19-2.00937E-19
 -1      2883 9.52371E-05-2.85708E-05-2.85713E-05-4.54941E-10-2.01335E-18 4.30863E-19
 -1      2884 9.52371E-05-2.85707E-05-2.85713E-05-4.70412E-10-7.61825E-19-3.47965E-19
 -1      2885 9.52370E-05-2.85707E-05-2.85713E-05-5.43244E-10-9.78921E-19-1.39706E-18
 -1      2886 9.52371E-05-2.85708E-05-2.85713E-05-5.47431E-10-2.69866E-18-6.04052E-19
 -1      2887 8.75686E-05-2.19668E-05-2.80912E-05 1.73852E-06 6.93263E-19 8.24124E-19
 -1      2888 8.80541E-05-2.21425E-05-2.82312E-05 3.52821E-06 7.28366E-19 8.36569E-19
 -1      2889 9.11276E-05-2.20195E-05-2.96384E-05 5.22896E-06 7.22390E-19 7.60972E-19
 -1      2890 1.29674E-04-5.79910E-05-3.09620E-05 3.81932E-05-9.85946E-19-1.27412E-18
 -1      2891 1.14170E-04-5.30067E-05-2.57564E-05 4.52308E-05-1.05413E-18-1.23595E-18
 -1      2892 1.51379E-04-3.65299E-05-4.99920E-05-4.51849E-06 3.90059E-19-8.16116E-19
 -1      2893 1.52068E-04-4.72440E-05-4.48960E-05 3.47868E-06 1.14879E-19-9.66570E-19
 -1      2894 1.49329E-04-4.35796E-05-4.53007E-05-6.10990E-06 1.69777E-19 1.21856E-18
 -1      2895 1.50648E-04-3.62829E-05-4.98008E-05 2.52981E-06 3.96411E-19 1.08632E-18
 -1      2896 8.71871E-05-2.20732E-05-2.78929E-05-2.01712E-06 6.83985E-19 7.44811E-19
 -1      2897 8.72336E-05-2.19155E-05-2.79692E-05-2.82887E-07 6.94235E-19 7.81439E-19
 -1      2898 9.00931E-05-2.16671E-05-2.93560E-05 1.09561E-06 7.08056E-19 8.22471E-19
 -1      2899 8.99133E-05-2.20612E-05-2.91093E-05-3.01903E-06 6.89998E-19 7.64237E-19
 -1      2900 3.12823E-05 9.46126E-08-1.28733E-05-3.94555E-05-1.44086E-18-1.00945E-18
 -1      2901 4.53635E-05-9.27195E-06-1.50268E-05-5.00404E-05-1.43530E-18-8.43645E-19
 -1      2902 6.06475E-05-6.30733E-06-2.29062E-05-2.30384E-05 1.29506E-18 3.02603E-18
 -1      2903 9.52367E-05-2.85703E-05-2.85713E-05 4.71625E-11-1.82551E-18-2.11057E-19
 -1      2904 9.52367E-05-2.85704E-05-2.85713E-05 1.26985E-10-1.09101E-18-1.56369E-18
 -1      2905 9.52366E-05-2.85703E-05-2.85713E-05-2.16117E-12-5.98819E-19 4.79220E-19
 -1      2906 9.52369E-05-2.85706E-05-2.85713E-05 4.40621E-10 9.62260E-19-1.69943E-18
 -1      2907 9.52370E-05-2.85707E-05-2.85713E-05 4.59918E-10 1.33149E-19-2.37307E-18
 -1      2908 9.52369E-05-2.85705E-05-2.85713E-05 4.84896E-10 8.13236E-19-2.09641E-18
 -1      2909 1.43859E-04-1.70505E-05-5.51367E-05-8.98469E-06 7.03355E-19-2.56333E-19
 -1      2910 1.46934E-04-2.46351E-05-5.27816E-05-9.35478E-06 6.89485E-19-5.35854E-19
 -1      2911 1.48563E-04-5.62860E-05-4.02352E-05 1.71808E-05-2.89116E-19-1.61497E-18
 -1      2912 1.41004E-04-5.85251E-05-3.51859E-05 2.75625E-05-6.63597E-19-1.38045E-18
 -1      2913 9.05753E-05-2.62944E-05-2.75656E-05-9.10544E-06 7.02324E-20 2.02701E-19
 -1      2914 8.97175E-05-2.53899E-05-2.75413E-05-8.62689E-06 3.62206E-19 5.84923E-19
 -1      2915 9.19929E-05-2.52764E-05-2.85984E-05-8.85452E-06 3.57553E-19 7.09121E-19
 -1      2916 9.35212E-05-2.73377E-05-2.83588E-05-9.87872E-06 9.77545E-20 2.45647E-19
 -1      2917 3.16234E-05 9.18791E-07-1.35687E-05 1.18770E-05-9.82029E-20-1.06197E-18
 -1      2918 1.39355E-04-3.45658E-06-5.89928E-05-1.27105E-06 1.23222E-18 2.98659E-19
 -1      2919 1.41254E-04-8.27947E-06-5.75939E-05-6.48905E-06 9.53124E-19 5.21455E-20
 -1      2920 1.35169E-04-1.27146E-05-5.28729E-05-9.25135E-06 5.22408E-19 8.57091E-20
 -1      2921 6.19519E-05-1.96256E-05-1.76482E-05-5.31698E-05-1.46134E-18-4.75185E-19
 -1      2922 7.89664E-05-2.86669E-05-2.14789E-05-5.50290E-05-1.35599E-18-1.72371E-19
 -1      2923 1.47530E-04-2.54127E-05-5.26157E-05 9.77633E-06 6.31675E-19 8.96796E-19
 -1      2924 1.44113E-04-1.65330E-05-5.55080E-05 1.09855E-05 8.57833E-19 7.00284E-19
 -1      2925 7.07218E-05-8.81691E-06-2.63935E-05-1.81321E-05 4.18395E-19 2.68356E-18
 -1      2926 7.42642E-05-1.08066E-05-2.72540E-05-1.49135E-05 4.59634E-19 2.01046E-18
 -1      2927 7.13412E-05-9.03343E-06-2.63199E-05-8.96884E-06-8.91072E-20 2.40092E-18
 -1      2928 9.34498E-05-4.43329E-05-2.11320E-05 5.27667E-05-9.21254E-19-9.08866E-19
 -1      2929 7.36865E-05-3.34510E-05-1.65524E-05 5.17921E-05-9.12890E-19 1.85288E-19
 -1      2930 1.05640E-04-2.23649E-05-3.57775E-05 1.28803E-05 1.42946E-19 2.77469E-20
 -1      2931 1.08465E-04-2.37508E-05-3.63346E-05 1.14445E-05 5.75221E-21 1.23945E-19
 -1      2932 1.11266E-04-2.54675E-05-3.66941E-05 1.17606E-05-3.42122E-20 3.86796E-19
 -1      2933 1.05220E-04-2.28104E-05-3.52543E-05 1.35431E-05 1.02070E-19 1.51930E-19
 -1      2934 1.33553E-04-4.93692E-05-3.57582E-05-2.92192E-05-5.80376E-19 1.05286E-18
 -1      2935 1.43732E-04-4.93478E-05-4.10436E-05-1.89019E-05-2.08317E-19 1.08134E-18
 -1      2936 5.33857E-05-2.17719E-05-1.32660E-05 4.79475E-05-2.23828E-19 1.38659E-18
 -1      2937 3.90567E-05-1.25544E-05-1.06192E-05 3.78858E-05 5.84453E-19 1.56214E-18
 -1      2938 1.02524E-04-3.24513E-05-2.99006E-05-3.66000E-05-1.45602E-18 3.41195E-19
 -1      2939 8.91959E-05-2.55598E-05-2.71216E-05-4.17619E-05-1.61415E-18 1.73112E-19
 -1      2940 1.42034E-04-7.39335E-06-5.82249E-05 8.90406E-06 9.13949E-19 7.31095E-19
 -1      2941 1.40487E-04-3.44536E-06-5.95003E-05 4.38259E-06 1.13629E-18 5.29369E-19
 -1      2942 3.62858E-05 4.82215E-06-1.68690E-05 5.35069E-06-3.88735E-19-8.61009E-19
 -1      2943 2.35965E-05 7.77843E-06-1.23816E-05-4.08264E-06-6.90808E-19-1.20977E-18
 -1      2944 2.26532E-05 7.01978E-06-1.20701E-05-2.17005E-05-1.05143E-18-1.16001E-18
 -1      2945 3.91614E-05 9.12866E-06-2.03149E-05-1.77925E-06-7.28764E-19-5.20184E-19
 -1      2946 1.21813E-04-3.47483E-05-3.73331E-05-4.72379E-07-5.01791E-19 3.78121E-19
 -1      2947 1.18763E-04-3.37380E-05-3.65790E-05-4.93606E-06-7.25786E-19 3.44623E-19
 -1      2948 1.17545E-04-3.41729E-05-3.56125E-05-1.07841E-05-8.53025E-19 3.96894E-19
 -1      2949 9.22891E-05-2.05449E-05-3.07457E-05 1.46989E-05 5.31520E-19 4.10857E-19
 -1      2950 9.36764E-05-2.16153E-05-3.08365E-05 1.36352E-05 4.39036E-19 4.08723E-19
 -1      2951 6.86878E-05-2.69645E-05-1.73755E-05 4.67570E-05-1.00088E-18 1.31078E-19
 -1      2952 1.43565E-04-4.55559E-05-4.20313E-05-8.59127E-06-2.21049E-19 1.25287E-18
 -1      2953 1.24805E-04-4.61661E-05-3.34760E-05-3.18503E-05-9.72394E-19 8.42692E-19
 -1      2954 9.25674E-05-2.24936E-05-3.00409E-05 8.96514E-06 5.08018E-19 6.55565E-19
 -1      2955 9.03171E-05-2.28079E-05-2.89050E-05 8.86973E-06 5.51615E-19 7.74937E-19
 -1      2956 9.52367E-05-2.85703E-05-2.85713E-05 1.96702E-10 9.14124E-19-1.65926E-18
 -1      2957 1.43581E-04-3.05454E-05-4.86660E-05 8.68150E-06 2.45640E-19 9.21572E-19
 -1      2958 9.05608E-05-3.13810E-05-2.52099E-05-4.88592E-05-1.46272E-18 2.70098E-19
 -1      2959 5.85174E-05-1.22294E-05-1.92813E-05-4.82635E-05-1.69385E-18-5.11396E-19
 -1      2960 9.52371E-05-2.85707E-05-2.85713E-05 5.42523E-10 1.11667E-18-2.78659E-18
 -1      2961 3.34876E-05-5.81747E-07-1.33764E-05-2.46241E-06 1.83912E-18 2.53453E-18
 -1      2962 9.01685E-05-2.28369E-05-2.88297E-05 9.81596E-06 6.30863E-19 8.67370E-19
 -1      2963 1.43362E-04-3.19648E-05-4.80872E-05-8.78128E-06 2.86827E-19-3.33784E-19
 -1      2964 1.34580E-04-5.79754E-05-3.27355E-05 2.84789E-05-1.43350E-18-1.92006E-18
 -1      2965 1.47368E-04-5.14857E-05-4.12241E-05 6.98287E-06-3.78399E-19-9.96534E-19
 -1      2966 1.06803E-04-4.81212E-05-2.47861E-05 4.46127E-05-1.09553E-18-1.17303E-18
 -1      2967 5.90407E-05-6.49982E-06-2.21273E-05-4.24340E-05-1.80111E-18-3.84288E-19
 -1      2968 4.60931E-05 1.31626E-06-1.98798E-05-3.92813E-05-1.70963E-18-5.75559E-19
 -1      2969 3.41414E-05 1.15456E-05-1.89188E-05-1.28679E-05-1.04647E-18-7.07378E-19
 -1      2970 5.43689E-05-2.96164E-06-2.15762E-05-1.43670E-05 6.89697E-19 3.15737E-18
 -1      2971 3.63406E-05-7.63347E-06-1.16857E-05 3.00752E-05 5.03138E-19 1.16382E-18
 -1      2972 3.52541E-05-2.36610E-06-1.36086E-05 2.03211E-05 7.04520E-19 8.56350E-19
 -1      2973 4.72887E-05-1.00064E-05-1.55233E-05 3.22492E-05 2.02229E-20 8.31363E-19
 -1      2974 1.32905E-04-4.08754E-06-5.57036E-05 1.28427E-06 8.30939E-19 3.81608E-19
 -1      2975 1.36462E-04-1.23335E-05-5.36229E-05 1.14045E-05 7.21990E-19 7.91764E-19
 -1      2976 1.10450E-04-3.33624E-05-3.28719E-05-2.47057E-05-1.34903E-18 5.30534E-19
 -1      2977 1.16325E-04-4.08342E-05-3.22824E-05-3.06530E-05-1.22959E-18 7.53753E-19
 -1      2978 1.29724E-04-4.58966E-05-3.63195E-05-2.00114E-05-7.93723E-19 1.04839E-18
 -1      2979 1.16160E-04-3.57118E-05-3.45814E-05-1.78609E-05-1.08889E-18 5.70874E-19
 -1      2980 9.82041E-05-2.19671E-05-3.27242E-05 1.33254E-05 2.98932E-19 2.83673E-19
 -1      2981 1.00980E-04-2.22783E-05-3.37536E-05 1.33871E-05 1.49082E-19 2.85833E-19
 -1      2982 8.87368E-05-2.27542E-05-2.82523E-05 1.07414E-05 6.04262E-19 8.43390E-19
 -1      2983 9.17471E-05-2.25003E-05-2.97100E-05 1.16344E-05 4.57133E-19 5.67786E-19
 -1      2984 9.53199E-05-2.21386E-05-3.13584E-05 1.25443E-05 3.13384E-19 3.48995E-19
 -1      2985 9.34188E-05-2.36012E-05-2.99455E-05-7.61755E-06 6.22099E-19 8.05100E-19
 -1      2986 9.28625E-05-2.25398E-05-3.01009E-05-6.08804E-06 5.58191E-19 8.30577E-19
 -1      2987 7.67088E-05-1.34657E-05-2.71973E-05-2.85767E-06-6.25521E-19 1.53490E-18
 -1      2988 8.07270E-05-1.61974E-05-2.77300E-05-2.29541E-06-9.61559E-19 1.67265E-18
 -1      2989 9.32961E-05-2.12651E-05-3.08460E-05 4.94153E-06 5.53914E-19 7.91507E-19
 -1      2990 9.39857E-05-2.16783E-05-3.09945E-05 6.98013E-06 4.93718E-19 6.55336E-19
 -1      2991 9.52365E-05-2.85702E-05-2.85713E-05 1.75509E-10 9.33362E-20-1.94908E-18
 -1      2992 9.52366E-05-2.85702E-05-2.85713E-05 2.75463E-10 3.04819E-20-2.36209E-18
 -1      2993 8.42695E-05-1.86578E-05-2.81819E-05-2.60366E-06-1.22934E-18 1.58358E-18
 -1      2994 8.66629E-05-2.06050E-05-2.83668E-05-1.95393E-06-9.01773E-19 1.45895E-18
 -1      2995 8.14966E-05-1.68470E-05-2.75541E-05 8.13558E-07-1.15879E-18 5.14960E-19
 -1      2996 8.88869E-05-2.23365E-05-2.85532E-05-1.96086E-06-1.13835E-18 1.33043E-18
 -1      2997 9.02705E-05-2.36359E-05-2.85956E-05-1.40276E-06-9.61090E-19 1.19680E-18
 -1      2998 8.69557E-05-2.09090E-05-2.82165E-05-5.12191E-08-1.20829E-18 3.43507E-19
 -1      2999 9.16275E-05-2.47809E-05-2.86622E-05-1.30471E-06-3.92077E-19 1.41901E-18
 -1      3000 9.24108E-05-2.56098E-05-2.86534E-05-8.89159E-07-4.44251E-20 1.28544E-18
 -1      3001 9.03625E-05-2.37644E-05-2.84888E-05-2.65456E-07-4.57750E-19 1.40608E-18
 -1      3002 9.32193E-05-2.63359E-05-2.86693E-05-7.80013E-07-8.15857E-20 1.06228E-18
 -1      3003 9.36564E-05-2.68480E-05-2.86474E-05-4.98574E-07-1.14539E-18 2.90125E-19
 -1      3004 9.24299E-05-2.56603E-05-2.85842E-05-2.24143E-07-4.41373E-19 6.82746E-19
 -1      3005 9.41281E-05-2.72945E-05-2.86445E-05-4.12956E-07-1.82791E-18 7.89121E-19
 -1      3006 9.43700E-05-2.76030E-05-2.86237E-05-2.36013E-07-1.36588E-18 6.09847E-20
 -1      3007 9.36560E-05-2.68681E-05-2.86052E-05-1.18164E-07-1.48763E-18 3.23331E-19
 -1      3008 9.46493E-05-2.78802E-05-2.86155E-05-1.77434E-07-1.06146E-18-2.67173E-19
 -1      3009 9.47860E-05-2.80665E-05-2.85995E-05-7.17286E-08-7.65691E-19 3.47086E-19
 -1      3010 9.43811E-05-2.76270E-05-2.85988E-05-2.19188E-08-1.50437E-18 1.37319E-18
 -1      3011 9.49331E-05-2.82168E-05-2.85924E-05-4.32831E-08-7.22821E-20 2.12758E-19
 -1      3012 9.50030E-05-2.83171E-05-2.85827E-05 1.00532E-08 2.52448E-19 5.32843E-19
 -1      3013 9.47893E-05-2.80754E-05-2.85861E-05 3.90941E-08-5.06988E-19 7.94194E-19
 -1      3014 9.50831E-05-2.84012E-05-2.85777E-05 2.17009E-08-4.57490E-19 4.21775E-19
 -1      3015 9.51210E-05-2.84565E-05-2.85721E-05 4.63300E-08-9.35451E-19-2.25682E-19
 -1      3016 9.50087E-05-2.83261E-05-2.85753E-05 6.75408E-08-2.94704E-19 1.33148E-18
 -1      3017 9.51634E-05-2.85014E-05-2.85693E-05 4.74611E-08-1.44184E-18 4.17518E-19
 -1      3018 9.51837E-05-2.85303E-05-2.85666E-05 5.58109E-08-4.81145E-19 4.29268E-19
 -1      3019 9.51274E-05-2.84650E-05-2.85680E-05 7.42533E-08-7.40057E-19 1.10800E-18
 -1      3020 9.52052E-05-2.85527E-05-2.85653E-05 5.14525E-08 4.86523E-20-6.36887E-21
 -1      3021 9.52160E-05-2.85667E-05-2.85644E-05 5.13563E-08 9.47967E-19-1.89714E-19
 -1      3022 9.51894E-05-2.85378E-05-2.85641E-05 6.79900E-08 6.21086E-20 1.56849E-18
 -1      3023 9.52262E-05-2.85765E-05-2.85642E-05 4.48066E-08 8.90880E-19-6.92370E-19
 -1      3024 9.52318E-05-2.85822E-05-2.85642E-05 4.09605E-08 9.42686E-20-1.66000E-18
 -1      3025 9.52202E-05-2.85727E-05-2.85628E-05 5.55552E-08 9.29456E-20-3.89885E-20
 -1      3026 9.52361E-05-2.85855E-05-2.85646E-05 3.41671E-08-1.82025E-19-1.84320E-18
 -1      3027 9.52389E-05-2.85869E-05-2.85652E-05 2.92076E-08-3.99449E-19-2.20075E-18
 -1      3028 9.52343E-05-2.85867E-05-2.85630E-05 4.14239E-08 1.19413E-20-2.37054E-18
 -1      3029 9.52403E-05-2.85870E-05-2.85658E-05 2.31777E-08 1.46761E-19-9.13884E-19
 -1      3030 9.52416E-05-2.85864E-05-2.85665E-05 1.84537E-08 9.08627E-19-1.45507E-19
 -1      3031 9.52399E-05-2.85900E-05-2.85641E-05 2.81682E-08 2.60357E-19-1.52754E-18
 -1      3032 9.52417E-05-2.85851E-05-2.85672E-05 1.35957E-08 8.42396E-20-7.55668E-19
 -1      3033 9.52422E-05-2.85837E-05-2.85679E-05 9.69186E-09-3.80627E-19-6.12227E-19
 -1      3034 9.52414E-05-2.85883E-05-2.85655E-05 1.70190E-08 2.29318E-19-1.67188E-18
 -1      3035 9.52418E-05-2.85820E-05-2.85686E-05 6.06558E-09-3.77374E-19-4.54486E-19
 -1      3036 9.52418E-05-2.85805E-05-2.85691E-05 3.13991E-09-8.93247E-19-7.51475E-19
 -1      3037 9.52411E-05-2.85847E-05-2.85670E-05 8.35866E-09 6.92859E-20-2.21764E-18
 -1      3038 9.52414E-05-2.85789E-05-2.85697E-05 6.24413E-10-2.05272E-18-3.20326E-19
 -1      3039 9.52412E-05-2.85775E-05-2.85701E-05-1.38224E-09-2.73404E-18-6.45981E-19
 -1      3040 9.52402E-05-2.85808E-05-2.85683E-05 2.08757E-09-1.38258E-18-8.52363E-19
 -1      3041 9.52407E-05-2.85762E-05-2.85706E-05-2.98326E-09-3.38692E-18-2.92193E-19
 -1      3042 9.52405E-05-2.85751E-05-2.85709E-05-4.22343E-09-2.35108E-18-9.33371E-19
 -1      3043 9.52393E-05-2.85774E-05-2.85694E-05-2.12806E-09-3.18944E-18 3.34038E-19
 -1      3044 9.52401E-05-2.85741E-05-2.85712E-05-5.12074E-09-1.64771E-18-1.44005E-18
 -1      3045 9.52398E-05-2.85732E-05-2.85714E-05-5.77134E-09-2.04584E-18-2.11444E-18
 -1      3046 9.52385E-05-2.85746E-05-2.85702E-05-4.70272E-09-2.55082E-18-9.37557E-20
 -1      3047 9.52396E-05-2.85725E-05-2.85716E-05-6.15795E-09-1.11138E-18-1.87836E-18
 -1      3048 9.52392E-05-2.85719E-05-2.85717E-05-6.38686E-09 6.85522E-19-1.82911E-18
 -1      3049 9.52379E-05-2.85726E-05-2.85708E-05-6.04456E-09-8.23859E-19 1.22701E-19
 -1      3050 9.52391E-05-2.85715E-05-2.85718E-05-6.42230E-09-1.47423E-20-2.44855E-18
 -1      3051 9.52388E-05-2.85711E-05-2.85719E-05-6.35588E-09-1.00195E-18-1.88982E-18
 -1      3052 9.52375E-05-2.85713E-05-2.85712E-05-6.51097E-09-1.98146E-19-5.41554E-19
 -1      3053 9.52387E-05-2.85708E-05-2.85720E-05-6.16324E-09-7.96271E-19-1.94413E-18
 -1      3054 9.52384E-05-2.85706E-05-2.85719E-05-5.92620E-09-1.48503E-20-1.47021E-18
 -1      3055 9.52373E-05-2.85704E-05-2.85715E-05-6.37990E-09-7.45452E-19-8.06544E-19
 -1      3056 9.52384E-05-2.85704E-05-2.85720E-05-5.61474E-09-9.01712E-20-9.81873E-19
 -1      3057 9.52381E-05-2.85703E-05-2.85719E-05-5.28763E-09-2.06783E-19-5.38235E-19
 -1      3058 9.52371E-05-2.85699E-05-2.85716E-05-5.89517E-09 3.69972E-20-1.51425E-18
 -1      3059 9.52381E-05-2.85703E-05-2.85719E-05-4.92170E-09 5.29850E-19-2.81962E-19
 -1      3060 9.52379E-05-2.85702E-05-2.85719E-05-4.56077E-09 1.30737E-18-7.29847E-19
 -1      3061 9.52371E-05-2.85697E-05-2.85717E-05-5.22656E-09 7.88620E-20-6.76832E-19
 -1      3062 9.52379E-05-2.85702E-05-2.85719E-05-4.18505E-09 1.27725E-18-1.16637E-18
 -1      3063 9.52377E-05-2.85702E-05-2.85718E-05-3.82696E-09 2.02453E-18-1.36818E-18
 -1      3064 9.52370E-05-2.85697E-05-2.85717E-05-4.48750E-09 1.04636E-18-1.29523E-18
 -1      3065 9.52378E-05-2.85703E-05-2.85718E-05-3.46958E-09 2.31608E-18-1.97340E-18
 -1      3066 9.52376E-05-2.85703E-05-2.85717E-05-3.13655E-09 1.52476E-18-1.34920E-18
 -1      3067 9.52370E-05-2.85698E-05-2.85717E-05-3.75272E-09 1.76083E-18-1.90619E-18
 -1      3068 9.52376E-05-2.85703E-05-2.85717E-05-2.81339E-09 1.41630E-18-1.45815E-18
 -1      3069 9.52375E-05-2.85704E-05-2.85716E-05-2.51720E-09 7.43119E-19-5.76248E-19
 -1      3070 9.52371E-05-2.85700E-05-2.85716E-05-3.06777E-09 1.51466E-18-1.31600E-18
 -1      3071 9.52375E-05-2.85704E-05-2.85716E-05-2.23561E-09-1.55095E-19-4.48422E-19
 -1      3072 9.52374E-05-2.85705E-05-2.85715E-05-1.98080E-09-7.79740E-19-3.10615E-19
 -1      3073 9.52371E-05-2.85701E-05-2.85716E-05-2.45705E-09 2.97515E-19-1.71512E-18
 -1      3074 9.52374E-05-2.85706E-05-2.85715E-05-1.74237E-09-1.80186E-18 2.38201E-20
 -1      3075 9.52373E-05-2.85706E-05-2.85715E-05-1.52874E-09-1.41458E-18-3.90568E-19
 -1      3076 9.52371E-05-2.85703E-05-2.85715E-05-1.93039E-09-1.05894E-18-3.12572E-18
 -1      3077 9.52373E-05-2.85707E-05-2.85714E-05-1.33132E-09 5.30952E-19-9.05553E-20
 -1      3078 9.52373E-05-2.85707E-05-2.85714E-05-1.15582E-09 1.31791E-18-8.39260E-19
 -1      3079 9.52371E-05-2.85704E-05-2.85714E-05-1.48794E-09-1.52330E-19-1.70453E-18
 -1      3080 9.52373E-05-2.85707E-05-2.85714E-05-9.95138E-10 1.41509E-18-1.34328E-18
 -1      3081 9.52372E-05-2.85708E-05-2.85713E-05-8.54208E-10 1.36916E-18-2.48550E-18
 -1      3082 9.52371E-05-2.85706E-05-2.85714E-05-1.12394E-09 9.54517E-19 1.32161E-18
 -1      3083 9.52372E-05-2.85708E-05-2.85713E-05-7.48284E-10 9.13135E-19-2.64037E-18
 -1      3084 9.52372E-05-2.85708E-05-2.85713E-05-6.35690E-10-9.31972E-19-1.43622E-18
 -1      3085 9.52371E-05-2.85707E-05-2.85713E-05-6.46239E-10-3.33510E-19-7.75457E-19
 -1      3086 9.52371E-05-2.85707E-05-2.85713E-05-8.50458E-10 2.46873E-19 2.50435E-19
 -1      3087 9.80867E-05-3.16480E-05-2.84758E-05-8.48185E-06-3.02021E-19 5.09951E-19
 -1      3088 9.77489E-05-3.11529E-05-2.85444E-05-9.12269E-06-3.84393E-19 3.93545E-19
 -1      3089 9.75879E-05-3.05577E-05-2.87411E-05-9.80301E-06-2.91721E-19 4.63086E-19
 -1      3090 9.70201E-05-2.96793E-05-2.88508E-05-1.01463E-05-1.34943E-19 2.93269E-19
 -1      3091 9.99944E-05-3.18549E-05-2.91880E-05-9.60797E-06-2.31216E-19 2.98846E-19
 -1      3092 9.77394E-05-3.18500E-05-2.82270E-05-5.32969E-06-5.68857E-20 3.09120E-19
 -1      3093 9.77479E-05-3.19172E-05-2.82264E-05-6.05472E-06-1.22519E-19 5.05687E-19
 -1      3094 9.72510E-05-3.14025E-05-2.82082E-05-3.97940E-06 1.05684E-19 7.24549E-19
 -1      3095 9.73356E-05-3.15943E-05-2.81874E-05-4.61121E-06 1.80334E-19 6.52349E-19
 -1      3096 9.87630E-05-3.25118E-05-2.83982E-05-4.75901E-06-1.29590E-19 2.09875E-19
 -1      3097 9.67468E-05-3.08500E-05-2.82298E-05-2.89122E-06-1.26558E-19 7.15202E-19
 -1      3098 9.68569E-05-3.10856E-05-2.81983E-05-3.40515E-06 3.29208E-20 6.37667E-19
 -1      3099 9.79575E-05-3.18706E-05-2.83299E-05-3.48356E-06-1.65151E-20 1.32611E-18
 -1      3100 9.63030E-05-3.03102E-05-2.82728E-05-2.05653E-06 1.20151E-20 7.80617E-19
 -1      3101 9.64080E-05-3.05390E-05-2.82378E-05-2.45491E-06 6.04074E-20 8.48125E-19
 -1      3102 9.72225E-05-3.11703E-05-2.83152E-05-2.49587E-06-8.22434E-20 1.42062E-18
 -1      3103 9.59500E-05-2.98434E-05-2.83238E-05-1.43802E-06-7.76997E-19 5.61856E-19
 -1      3104 9.60358E-05-3.00401E-05-2.82900E-05-1.73611E-06-2.58087E-19 7.20071E-19
 -1      3105 9.66177E-05-3.05245E-05-2.83318E-05-1.76073E-06 4.88042E-20 1.53101E-18
 -1      3106 9.56896E-05-2.94704E-05-2.83740E-05-9.90956E-07-2.34444E-18 5.92071E-19
 -1      3107 9.57525E-05-2.96268E-05-2.83441E-05-1.20809E-06-1.65092E-18 5.43401E-19
 -1      3108 9.61556E-05-2.99849E-05-2.83637E-05-1.22765E-06-1.05193E-18 1.17240E-18
 -1      3109 9.55088E-05-2.91885E-05-2.84190E-05-6.73642E-07-1.04904E-18 6.33809E-19
 -1      3110 9.55511E-05-2.93061E-05-2.83940E-05-8.28535E-07-1.73529E-18 2.93924E-19
 -1      3111 9.58225E-05-2.95630E-05-2.84004E-05-8.47570E-07-1.99535E-18 3.09989E-19
 -1      3112 9.53898E-05-2.89844E-05-2.84567E-05-4.51527E-07 1.98707E-20 2.50010E-19
 -1      3113 9.54161E-05-2.90692E-05-2.84367E-05-5.60156E-07-2.41358E-19 2.83806E-19
 -1      3114 9.55938E-05-2.92489E-05-2.84359E-05-5.79538E-07-8.41934E-20-4.82602E-19
 -1      3115 9.53156E-05-2.88416E-05-2.84870E-05-2.97788E-07-5.51837E-19-2.90639E-19
 -1      3116 9.53304E-05-2.89007E-05-2.84715E-05-3.72878E-07-7.83027E-20 1.63798E-19
 -1      3117 9.54434E-05-2.90237E-05-2.84671E-05-3.91923E-07 8.06229E-20-8.02325E-19
 -1      3118 9.52717E-05-2.87443E-05-2.85106E-05-1.92432E-07-6.58233E-19 6.14053E-19
 -1      3119 9.52791E-05-2.87844E-05-2.84989E-05-2.43664E-07-8.33698E-19 5.54450E-22
 -1      3120 9.53486E-05-2.88670E-05-2.84930E-05-2.61364E-07-8.00581E-19-3.07481E-19
 -1      3121 9.52475E-05-2.86796E-05-2.85283E-05-1.20949E-07 1.31904E-18 6.08070E-19
 -1      3122 9.52503E-05-2.87062E-05-2.85198E-05-1.55457E-07 2.11717E-19 6.83234E-19
 -1      3123 9.52914E-05-2.87606E-05-2.85137E-05-1.71036E-07-4.65559E-19 1.98929E-19
 -1      3124 9.52353E-05-2.86374E-05-2.85415E-05-7.29916E-08 8.97114E-19-1.41528E-19
 -1      3125 9.52357E-05-2.86547E-05-2.85353E-05-9.59124E-08 2.00613E-18 7.33337E-19
 -1      3126 9.52585E-05-2.86898E-05-2.85297E-05-1.08976E-07 1.36564E-18 9.05881E-19
 -1      3127 9.52301E-05-2.86103E-05-2.85511E-05-4.12636E-08 1.24798E-18-7.50772E-19
 -1      3128 9.52293E-05-2.86214E-05-2.85467E-05-5.62367E-08 3.56700E-19-6.42292E-19
 -1      3129 9.52408E-05-2.86435E-05-2.85418E-05-6.67350E-08 1.15249E-18 1.03979E-18
 -1      3130 9.52286E-05-2.85932E-05-2.85579E-05-2.06619E-08 6.31275E-19 2.08436E-19
 -1      3131 9.52274E-05-2.86002E-05-2.85548E-05-3.02331E-08 1.32479E-18 7.81169E-20
 -1      3132 9.52321E-05-2.86138E-05-2.85507E-05-3.83539E-08 9.01719E-19 4.91561E-19
 -1      3133 9.52290E-05-2.85826E-05-2.85627E-05-7.63444E-09 2.32131E-19 8.17469E-19
 -1      3134 9.52278E-05-2.85870E-05-2.85606E-05-1.35687E-08 8.24000E-19 3.87595E-19
 -1      3135 9.52286E-05-2.85949E-05-2.85572E-05-1.96307E-08 2.15411E-19 1.12045E-18
 -1      3136 9.52302E-05-2.85762E-05-2.85660E-05 2.82096E-10 4.67369E-19 4.20544E-19
 -1      3137 9.52292E-05-2.85788E-05-2.85646E-05-3.23021E-09-2.24811E-19 5.18657E-19
 -1      3138 9.52278E-05-2.85832E-05-2.85619E-05-7.59934E-09 3.29181E-19 1.26454E-18
 -1      3139 9.52316E-05-2.85724E-05-2.85682E-05 4.79128E-09 2.57552E-19 6.08546E-19
 -1      3140 9.52308E-05-2.85740E-05-2.85673E-05 2.86934E-09 9.06337E-19 5.35114E-19
 -1      3141 9.52284E-05-2.85761E-05-2.85652E-05-1.65275E-10 3.12978E-19 4.75419E-19
 -1      3142 9.52329E-05-2.85703E-05-2.85697E-05 7.06747E-09 1.72594E-18 4.43033E-19
 -1      3143 9.52323E-05-2.85712E-05-2.85691E-05 6.16960E-09 8.87134E-19 6.07980E-19
 -1      3144 9.52296E-05-2.85719E-05-2.85675E-05 4.14959E-09 3.97677E-19 9.49234E-19
 -1      3145 9.52340E-05-2.85692E-05-2.85706E-05 7.91658E-09 4.95968E-19 6.85227E-19
 -1      3146 9.52336E-05-2.85696E-05-2.85703E-05 7.65952E-09 1.82010E-18 3.83791E-19
 -1      3147 9.52308E-05-2.85696E-05-2.85691E-05 6.38564E-09 1.47241E-18 7.16158E-19
 -1      3148 9.52348E-05-2.85687E-05-2.85712E-05 7.88801E-09-8.96524E-19 5.64006E-19
 -1      3149 9.52346E-05-2.85689E-05-2.85710E-05 8.01437E-09-3.22195E-19 8.27776E-19
 -1      3150 9.52321E-05-2.85684E-05-2.85701E-05 7.27153E-09 1.51525E-19 8.76890E-19
 -1      3151 9.52355E-05-2.85686E-05-2.85715E-05 7.35235E-09-1.78863E-18-2.31408E-19
 -1      3152 9.52353E-05-2.85686E-05-2.85714E-05 7.69132E-09-1.73629E-18-1.56714E-19
 -1      3153 9.52331E-05-2.85679E-05-2.85708E-05 7.31348E-09-1.01749E-18-3.40253E-19
 -1      3154 9.52360E-05-2.85687E-05-2.85717E-05 6.55569E-09-3.61697E-19-6.22459E-19
 -1      3155 9.52359E-05-2.85687E-05-2.85717E-05 6.99585E-09-3.46569E-19 1.41739E-19
 -1      3156 9.52340E-05-2.85679E-05-2.85712E-05 6.85889E-09-1.22316E-18-1.24891E-18
 -1      3157 9.52363E-05-2.85689E-05-2.85718E-05 5.65758E-09 3.71247E-19-1.01597E-18
 -1      3158 9.52363E-05-2.85688E-05-2.85718E-05 6.12817E-09-3.69840E-19-5.29010E-19
 -1      3159 9.52348E-05-2.85681E-05-2.85714E-05 6.14204E-09-4.87325E-19-4.98365E-19
 -1      3160 9.52366E-05-2.85692E-05-2.85718E-05 4.75772E-09-7.90400E-20 5.16107E-20
 -1      3161 9.52366E-05-2.85691E-05-2.85718E-05 5.21569E-09 1.12560E-18-2.00686E-19
 -1      3162 9.52353E-05-2.85684E-05-2.85715E-05 5.31696E-09-1.44210E-19-4.29530E-20
 -1      3163 9.52368E-05-2.85695E-05-2.85717E-05 3.91482E-09-6.68549E-19 1.27337E-18
 -1      3164 9.52368E-05-2.85693E-05-2.85718E-05 4.33578E-09-9.02473E-19 9.29544E-19
 -1      3165 9.52358E-05-2.85687E-05-2.85716E-05 4.48124E-09-3.82218E-19 5.46427E-19
 -1      3166 9.52369E-05-2.85697E-05-2.85716E-05 3.15988E-09-6.50068E-19 5.44578E-19
 -1      3167 9.52369E-05-2.85696E-05-2.85717E-05 3.53187E-09-2.82585E-19 1.74845E-18
 -1      3168 9.52361E-05-2.85691E-05-2.85716E-05 3.69320E-09-9.22773E-19 1.08415E-18
 -1      3169 9.52370E-05-2.85700E-05-2.85716E-05 2.50559E-09-4.88041E-19-1.77786E-19
 -1      3170 9.52370E-05-2.85699E-05-2.85716E-05 2.82472E-09-4.23382E-19 9.94099E-20
 -1      3171 9.52364E-05-2.85694E-05-2.85716E-05 2.98433E-09-5.35284E-19 1.03787E-19
 -1      3172 9.52370E-05-2.85702E-05-2.85715E-05 1.95295E-09-8.72253E-20 4.31573E-19
 -1      3173 9.52371E-05-2.85701E-05-2.85715E-05 2.22038E-09-4.29497E-19-3.62717E-19
 -1      3174 9.52366E-05-2.85697E-05-2.85715E-05 2.36820E-09-3.66859E-19-2.44211E-19
 -1      3175 9.52371E-05-2.85704E-05-2.85714E-05 1.49577E-09-7.25128E-20 6.09648E-19
 -1      3176 9.52371E-05-2.85703E-05-2.85715E-05 1.71559E-09 2.63933E-19 3.61306E-19
 -1      3177 9.52368E-05-2.85700E-05-2.85715E-05 1.84678E-09-1.43900E-19 6.51495E-19
 -1      3178 9.52371E-05-2.85705E-05-2.85714E-05 1.12503E-09 1.30413E-18 1.21026E-18
 -1      3179 9.52371E-05-2.85705E-05-2.85714E-05 1.30180E-09 5.81296E-19 6.29447E-22
 -1      3180 9.52369E-05-2.85702E-05-2.85714E-05 1.41520E-09 1.34760E-19 3.09568E-19
 -1      3181 9.52369E-05-2.85705E-05-2.85713E-05-5.82599E-10-8.24841E-19-3.47162E-19
 -1      3182 9.52368E-05-2.85704E-05-2.85713E-05-5.39271E-10-8.35461E-19 9.59263E-19
 -1      3183 1.40530E-04-3.51141E-05-4.51496E-05 8.15293E-06-4.48927E-20 1.01522E-18
 -1      3184 1.35768E-04-2.61170E-05-4.74404E-05 1.27599E-05 2.48975E-19 7.02879E-19
 -1      3185 9.52366E-05-2.85702E-05-2.85713E-05 3.84425E-10-1.17592E-19-1.28708E-18
 -1      3186 9.52367E-05-2.85703E-05-2.85713E-05 4.62994E-10-5.22104E-19-2.03947E-18
 -1      3187 9.52365E-05-2.85701E-05-2.85713E-05 3.73286E-10-7.31082E-19-1.49041E-18
 -1      3188 9.52367E-05-2.85703E-05-2.85713E-05-4.63472E-10-7.08583E-19-4.65869E-20
 -1      3189 9.52366E-05-2.85703E-05-2.85713E-05-3.85489E-10-1.01401E-18 1.10308E-18
 -1      3190 9.52367E-05-2.85703E-05-2.85713E-05-5.70726E-10-5.17513E-19 8.77706E-19
 -1      3191 9.52366E-05-2.85702E-05-2.85713E-05-2.79385E-10-1.44932E-18 1.14775E-18
 -1      3192 9.52365E-05-2.85702E-05-2.85713E-05-1.81814E-10-5.95657E-19 1.82034E-18
 -1      3193 9.52365E-05-2.85701E-05-2.85713E-05-3.78258E-10-4.15954E-19 1.40193E-18
 -1      3194 2.66103E-05 6.13935E-06-1.32719E-05-2.91894E-05-1.26441E-18-1.07383E-18
 -1      3195 3.70616E-05 4.49479E-06-1.71458E-05-3.36631E-05-1.49687E-18-8.59315E-19
 -1      3196 1.35389E-04-2.71994E-05-4.69619E-05-1.18398E-05 1.28378E-19 7.64977E-21
 -1      3197 1.40912E-04-3.70317E-05-4.44467E-05-9.12801E-06 1.05879E-20-3.81800E-19
 -1      3198 7.39119E-05-1.65015E-05-2.40950E-05-4.56289E-05-1.78697E-18-1.09903E-19
 -1      3199 1.14222E-04-5.05750E-05-2.73947E-05 3.81345E-05-1.32254E-18-1.45908E-18
 -1      3200 9.79487E-05-4.18642E-05-2.35018E-05 4.39746E-05-1.25869E-18-1.06499E-18
 -1      3201 9.52365E-05-2.85701E-05-2.85713E-05-5.70246E-11 1.26521E-19 1.28196E-18
 -1      3202 9.52365E-05-2.85701E-05-2.85713E-05 5.00348E-11 3.12798E-19-1.96863E-19
 -1      3203 9.52364E-05-2.85700E-05-2.85713E-05 1.26754E-10 2.36024E-20-8.15933E-19
 -1      3204 9.52364E-05-2.85700E-05-2.85713E-05-1.36004E-10 3.68326E-19 8.40976E-19
 -1      3205 1.37836E-04-5.76478E-05-3.47034E-05 2.04687E-05-9.87879E-19-1.21645E-18
 -1      3206 1.28535E-04-5.57298E-05-3.10843E-05 2.87777E-05-1.11192E-18-1.24333E-18
 -1      3207 9.52368E-05-2.85704E-05-2.85713E-05 5.39930E-10-1.67771E-19-3.40850E-18
 -1      3208 9.52368E-05-2.85705E-05-2.85713E-05 5.84570E-10 1.33744E-18-2.62144E-18
 -1      3209 9.52367E-05-2.85703E-05-2.85713E-05 5.68751E-10-8.35533E-19-2.76549E-18
 -1      3210 1.42921E-04-4.75657E-05-4.14595E-05-9.28803E-07-2.70706E-19-5.38660E-19
 -1      3211 1.42404E-04-5.44281E-05-3.75357E-05 9.81154E-06-7.74929E-19-8.85944E-19
 -1      3212 9.52369E-05-2.85706E-05-2.85713E-05 6.37214E-10 1.60859E-18-2.62088E-18
 -1      3213 9.52371E-05-2.85707E-05-2.85713E-05 6.48297E-10 1.24837E-18-2.94834E-18
 -1      3214 9.52371E-05-2.85707E-05-2.85713E-05 7.58558E-10 2.14691E-19-1.57545E-18
 -1      3215 9.52369E-05-2.85704E-05-2.85713E-05 7.04535E-10 1.49127E-18-2.70646E-18
 -1      3216 6.48596E-05-7.09329E-06-2.48710E-05-1.85113E-06-4.36725E-19 1.87165E-18
 -1      3217 7.13166E-05-1.04378E-05-2.61826E-05-1.98696E-06-4.76992E-19 1.25827E-18
 -1      3218 7.30598E-05-1.15268E-05-2.60703E-05 2.98079E-06-4.94811E-19 5.44143E-19
 -1      3219 7.96438E-05-3.14760E-05-2.06603E-05 4.55465E-05-1.18262E-18-8.49839E-19
 -1      3220 6.32103E-05-2.00357E-05-1.79765E-05 4.05187E-05-6.73074E-19 2.00959E-19
 -1      3221 1.37444E-04-4.56907E-05-3.92409E-05-1.03573E-05-4.79354E-19 1.26886E-18
 -1      3222 1.40393E-04-4.18872E-05-4.28410E-05-3.98148E-07-1.74886E-19 1.19072E-18
 -1      3223 9.64484E-05-2.23494E-05-3.17135E-05 1.16923E-05 2.70645E-19 4.22330E-19
 -1      3224 9.80782E-05-3.20086E-05-2.83089E-05-6.88615E-06-4.97459E-20 4.32027E-19
 -1      3225 9.79448E-05-3.18460E-05-2.83387E-05-7.63436E-06-6.93012E-21 6.12429E-19
 -1      3226 1.00000E-04-3.27730E-05-2.88043E-05-8.01619E-06-3.06990E-19 7.51807E-20
 -1      3227 9.95109E-05-3.29005E-05-2.85472E-05-6.30852E-06-1.15887E-19-9.78114E-20
 -1      3228 1.26651E-04-9.38990E-06-5.08416E-05-7.39039E-06 7.61906E-19 2.36124E-19
 -1      3229 1.29759E-04-1.60942E-05-4.88940E-05-1.16408E-05 4.44798E-19 8.68209E-20
 -1      3230 1.26799E-04-4.20878E-06-5.29611E-05 5.09475E-06 7.88482E-19 4.65709E-19
 -1      3231 1.25771E-04-4.33020E-06-5.24723E-05-1.78578E-06 8.05422E-19 2.46857E-19
 -1      3232 1.31014E-04-1.53522E-05-4.98718E-05 1.31661E-05 6.62380E-19 6.40066E-19
 -1      3233 1.28712E-04-8.22406E-06-5.21848E-05 9.98319E-06 7.61377E-19 5.01364E-19
 -1      3234 1.22672E-04-7.96458E-06-4.94789E-05 7.47354E-06 7.16855E-19 2.95694E-19
 -1      3235 1.16690E-04-2.83427E-05-3.80798E-05 1.09520E-05-1.72442E-19 4.85365E-19
 -1      3236 1.20655E-04-3.08031E-05-3.84567E-05 9.13046E-06-3.33434E-19 2.93920E-19
 -1      3237 3.01015E-05 1.05604E-05-1.68261E-05-1.73137E-05-1.12666E-18-8.86843E-19
 -1      3238 3.54964E-05 1.10268E-05-1.95916E-05-2.06093E-05-1.23564E-18-6.99437E-19
 -1      3239 3.97168E-05 7.79285E-06-1.99781E-05-2.95211E-05-1.51381E-18-6.92238E-19
 -1      3240 9.50393E-05-2.17372E-05-3.14369E-05-5.26527E-06 6.89915E-19 9.42103E-19
 -1      3241 9.23994E-05-2.16678E-05-3.03192E-05-4.03191E-06 6.84767E-19 9.15213E-19
 -1      3242 9.22533E-05-2.11277E-05-3.04563E-05-2.00890E-06 7.69201E-19 9.85096E-19
 -1      3243 1.28298E-04-2.26020E-05-4.55151E-05-1.17810E-05 2.63930E-19 3.01306E-19
 -1      3244 9.47579E-05-2.21111E-05-3.11141E-05 8.85928E-06 5.17133E-19 5.59328E-19
 -1      3245 9.54741E-05-2.23757E-05-3.13437E-05 1.05904E-05 3.29449E-19 4.45866E-19
 -1      3246 1.23038E-04-3.89802E-05-3.59563E-05-1.20514E-05-8.58640E-19 7.23257E-19
 -1      3247 9.93132E-05-2.99828E-05-2.96955E-05-1.06272E-05 1.31340E-19 6.43355E-19
 -1      3248 9.65033E-05-2.86636E-05-2.90997E-05-1.03965E-05 2.68578E-19 3.64237E-19
 -1      3249 9.57598E-05-2.74671E-05-2.92434E-05-1.02265E-05 4.75994E-19 5.87978E-19
 -1      3250 1.25682E-04-5.33783E-05-3.11338E-05 2.38214E-05-5.79510E-19-3.82482E-19
 -1      3251 1.21816E-04-5.31633E-05-2.92640E-05 3.15793E-05-9.47115E-19-8.22145E-19
 -1      3252 1.12509E-04-4.74339E-05-2.78546E-05 3.25379E-05-9.40789E-19-7.52840E-19
 -1      3253 9.52371E-05-2.85706E-05-2.85713E-05 8.62356E-10-2.88458E-19-7.88128E-19
 -1      3254 9.52371E-05-2.85706E-05-2.85714E-05 1.00026E-09 1.24698E-18-4.08047E-20
 -1      3255 9.52369E-05-2.85704E-05-2.85714E-05 1.09299E-09 1.83173E-18-5.69053E-19
 -1      3256 9.52370E-05-2.85705E-05-2.85713E-05 8.55675E-10 7.45781E-19-1.70714E-18
 -1      3257 5.74464E-05-3.75507E-06-2.28114E-05-7.98656E-07-3.24943E-19 1.51275E-18
 -1      3258 6.00174E-05-5.21550E-06-2.29178E-05 7.01949E-06-5.26352E-19 8.90443E-19
 -1      3259 1.28326E-04-2.57614E-05-4.40932E-05 1.29994E-05 5.68306E-20 5.59948E-19
 -1      3260 1.30600E-04-2.13401E-05-4.71428E-05 1.42683E-05 2.89262E-19 6.74609E-19
 -1      3261 1.23760E-04-1.64454E-05-4.61549E-05 1.38769E-05 4.18699E-19 4.20843E-19
 -1      3262 1.37217E-04-5.43042E-05-3.55624E-05 1.16219E-05-8.88574E-19-6.24607E-19
 -1      3263 9.85562E-05-2.21546E-05-3.27439E-05 1.16223E-05 2.98574E-19 3.67323E-19
 -1      3264 3.52201E-05 2.28133E-07-1.44654E-05 7.31518E-06 1.24519E-18 1.65690E-18
 -1      3265 4.23426E-05-3.77794E-07-1.75288E-05-8.53090E-06 1.56221E-18 2.42389E-18
 -1      3266 9.52370E-05-2.85706E-05-2.85713E-05-6.38415E-10-1.13918E-18-1.53464E-18
 -1      3267 9.52369E-05-2.85706E-05-2.85713E-05-6.20224E-10-3.06464E-19-2.46359E-18
 -1      3268 9.52368E-05-2.85704E-05-2.85713E-05-6.84828E-10-1.20499E-18-1.18302E-18
 -1      3269 9.52370E-05-2.85706E-05-2.85713E-05-7.32751E-10-3.77050E-19-1.11074E-18
 -1      3270 1.37612E-04-4.27335E-05-4.08461E-05-5.27260E-06-3.74971E-19-4.03055E-19
 -1      3271 1.21420E-04-8.55433E-06-4.86838E-05-4.44940E-06 6.45069E-19 3.80794E-19
 -1      3272 1.36196E-04-3.71464E-05-4.23965E-05 5.86250E-06-2.54983E-19 8.83614E-19
 -1      3273 9.23543E-05-2.08953E-05-3.06112E-05 4.24026E-07 7.90052E-19 8.45115E-19
 -1      3274 9.26871E-05-2.09486E-05-3.07370E-05 2.60761E-06 7.34139E-19 8.31242E-19
 -1      3275 9.46510E-05-2.04282E-05-3.18373E-05-5.80383E-07 6.92946E-19 8.17618E-19
 -1      3276 1.02386E-04-2.24564E-05-3.42111E-05 1.29824E-05 1.57156E-19 2.80509E-19
 -1      3277 1.03766E-04-2.25992E-05-3.48382E-05 1.36221E-05 1.44925E-19 1.26119E-19
 -1      3278 1.06819E-04-2.35795E-05-3.57041E-05 1.32513E-05 4.73280E-20 2.03976E-19
 -1      3279 5.83325E-05-1.50418E-05-1.81250E-05 3.55018E-05-5.16955E-19 5.25213E-19
 -1      3280 5.39720E-05-9.39423E-06-1.87754E-05 2.77910E-05-1.15223E-19-1.06409E-20
 -1      3281 6.94233E-05-1.95347E-05-2.10716E-05 3.43795E-05-3.62146E-19-6.81862E-20
 -1      3282 9.53773E-05-2.05257E-05-3.20971E-05 4.38034E-06 5.66520E-19 7.45245E-19
 -1      3283 9.07877E-05-3.54236E-05-2.34314E-05 4.01853E-05-1.20586E-18-9.54897E-19
 -1      3284 5.39359E-05-1.77346E-06-2.19650E-05-5.14764E-06-1.26572E-19 2.22653E-18
 -1      3285 9.49741E-05-2.61659E-05-2.95194E-05-9.77184E-06 2.49924E-19 6.36824E-19
 -1      3286 9.42112E-05-2.48733E-05-2.96797E-05-8.92508E-06 4.48143E-19 6.18375E-19
 -1      3287 9.79814E-05-2.72789E-05-3.02903E-05-1.04975E-05 3.91776E-19 8.21382E-19
 -1      3288 4.30842E-05-1.96842E-06-1.70547E-05 1.24810E-05 2.07285E-19 7.21249E-19
 -1      3289 1.30496E-04-4.28674E-05-3.74501E-05-1.09118E-05-8.06746E-19 1.07621E-18
 -1      3290 9.63500E-05-2.42599E-05-3.08999E-05-8.73556E-06 5.90051E-19 8.30601E-19
 -1      3291 1.09966E-04-2.46157E-05-3.66603E-05 1.31105E-05 1.15160E-20 3.98878E-19
 -1      3292 1.13403E-04-2.63702E-05-3.73119E-05 1.20646E-05-1.01040E-19 6.16785E-19
 -1      3293 1.15874E-04-2.65797E-05-3.81758E-05 1.27578E-05-5.85545E-20 7.04460E-19
 -1      3294 1.08557E-04-2.36488E-05-3.63314E-05 1.34282E-05 1.05077E-19 4.05188E-19
 -1      3295 1.27956E-04-3.48054E-05-3.99521E-05 6.69315E-06-2.18005E-19 5.88271E-19
 -1      3296 1.27619E-04-3.73943E-05-3.88405E-05 1.78220E-06-3.83216E-19 5.99188E-19
 -1      3297 9.68229E-05-2.14970E-05-3.22882E-05 8.71427E-06 3.04275E-19 5.26278E-19
 -1      3298 1.29426E-04-4.03494E-05-3.82924E-05-3.96096E-06-5.56560E-19 8.45101E-19
 -1      3299 1.31498E-04-3.79076E-05-4.05530E-05-9.68721E-06-2.14763E-19-9.90234E-20
 -1      3300 1.35010E-04-4.56864E-05-3.80234E-05-3.52811E-06-5.49963E-19-2.10699E-19
 -1      3301 8.57691E-05-2.06662E-05-2.79828E-05 2.15798E-06-1.02393E-18 3.69452E-20
 -1      3302 8.79715E-05-2.22186E-05-2.81977E-05 1.72870E-06-3.16394E-19 7.66650E-19
 -1      3303 8.95210E-05-2.34650E-05-2.83570E-05 1.03257E-06-3.25975E-20 8.31776E-19
 -1      3304 9.08736E-05-2.45415E-05-2.84429E-05 8.89589E-07 1.00087E-19 9.75125E-19
 -1      3305 8.90143E-05-2.31375E-05-2.81774E-05 2.95316E-06 2.37205E-19 1.02125E-18
 -1      3306 9.18761E-05-2.54067E-05-2.85132E-05 5.23422E-07-5.50053E-19 5.39071E-19
 -1      3307 9.26867E-05-2.61164E-05-2.85411E-05 4.98217E-07-1.01815E-18 7.93745E-20
 -1      3308 9.14484E-05-2.50718E-05-2.84108E-05 1.66100E-06-4.01416E-19 4.17044E-19
 -1      3309 9.33128E-05-2.66870E-05-2.85685E-05 3.06198E-07-5.60803E-19-4.20115E-19
 -1      3310 9.37893E-05-2.71370E-05-2.85726E-05 3.18354E-07-1.00520E-18 6.84639E-19
 -1      3311 9.30038E-05-2.64204E-05-2.85126E-05 9.67655E-07-1.19152E-18-6.46883E-19
 -1      3312 9.41827E-05-2.75120E-05-2.85809E-05 2.11089E-07-1.33783E-18 1.49468E-18
 -1      3313 9.44647E-05-2.77965E-05-2.85768E-05 2.27095E-07-1.13608E-18 1.38292E-18
 -1      3314 9.39827E-05-2.73304E-05-2.85518E-05 5.88666E-07-5.67067E-19 5.27305E-19
 -1      3315 9.46807E-05-2.80102E-05-2.85772E-05 1.68180E-07-7.83491E-19 1.39950E-18
 -1      3316 9.48298E-05-2.81684E-05-2.85721E-05 1.77183E-07-3.83083E-19 1.22858E-18
 -1      3317 9.45621E-05-2.78965E-05-2.85627E-05 3.77703E-07-8.29084E-19 1.37379E-18
 -1      3318 9.49521E-05-2.82925E-05-2.85705E-05 1.39574E-07-1.28575E-19 1.14772E-18
 -1      3319 9.50339E-05-2.83826E-05-2.85665E-05 1.40976E-07-4.92009E-19 7.56632E-19
 -1      3320 9.48865E-05-2.82286E-05-2.85630E-05 2.57568E-07-4.41965E-19 6.41921E-19
 -1      3321 9.51004E-05-2.84513E-05-2.85651E-05 1.14562E-07-5.20080E-19 8.97106E-19
 -1      3322 9.51438E-05-2.84998E-05-2.85626E-05 1.10540E-07-3.65249E-19 1.24168E-18
 -1      3323 9.50672E-05-2.84192E-05-2.85608E-05 1.80847E-07-4.56167E-19 2.41789E-19
 -1      3324 9.51780E-05-2.85353E-05-2.85619E-05 9.07939E-08 2.69567E-19 1.21683E-18
 -1      3325 9.52002E-05-2.85593E-05-2.85608E-05 8.38970E-08 5.59611E-19 1.64327E-18
 -1      3326 9.51633E-05-2.85224E-05-2.85590E-05 1.28071E-07-3.14372E-20 5.92674E-19
 -1      3327 9.52164E-05-2.85756E-05-2.85607E-05 6.87066E-08-5.52255E-19 8.55028E-19
 -1      3328 9.52269E-05-2.85859E-05-2.85606E-05 6.09219E-08-8.54325E-19-1.21222E-19
 -1      3329 9.52113E-05-2.85733E-05-2.85584E-05 8.97976E-08-5.24432E-19 7.33980E-19
 -1      3330 9.52336E-05-2.85917E-05-2.85611E-05 4.92179E-08-3.67134E-19-1.00392E-18
 -1      3331 9.52381E-05-2.85947E-05-2.85615E-05 4.18173E-08-8.54962E-19-1.45253E-18
 -1      3332 9.52330E-05-2.85944E-05-2.85590E-05 6.12954E-08-1.51271E-18 2.00884E-19
 -1      3333 9.52400E-05-2.85952E-05-2.85623E-05 3.29396E-08 5.25184E-20-1.50584E-18
 -1      3334 9.52416E-05-2.85946E-05-2.85630E-05 2.65931E-08 9.61280E-19-5.96472E-19
 -1      3335 9.52409E-05-2.85998E-05-2.85603E-05 3.99816E-08-3.18512E-19-1.66143E-19
 -1      3336 9.52414E-05-2.85927E-05-2.85638E-05 2.00360E-08 6.74135E-19-3.81961E-19
 -1      3337 9.52416E-05-2.85907E-05-2.85646E-05 1.49907E-08-3.07999E-20-8.52489E-19
 -1      3338 9.52423E-05-2.85974E-05-2.85620E-05 2.42352E-08 9.17835E-19-8.50459E-19
 -1      3339 9.52406E-05-2.85881E-05-2.85655E-05 1.03151E-08-6.44187E-19-7.24249E-19
 -1      3340 9.52403E-05-2.85857E-05-2.85662E-05 6.55818E-09-1.98307E-19-1.05074E-18
 -1      3341 9.52410E-05-2.85920E-05-2.85638E-05 1.28777E-08-6.70544E-20 1.14406E-19
 -1      3342 9.52393E-05-2.85831E-05-2.85670E-05 3.37138E-09-3.43728E-19-1.88137E-18
 -1      3343 9.52388E-05-2.85809E-05-2.85676E-05 7.52060E-10-1.45749E-18-1.43186E-18
 -1      3344 9.52390E-05-2.85861E-05-2.85655E-05 4.96330E-09-4.88273E-19-1.84655E-18
 -1      3345 9.52380E-05-2.85788E-05-2.85683E-05-1.29149E-09-1.76700E-18-6.75611E-19
 -1      3346 9.52376E-05-2.85770E-05-2.85688E-05-2.98021E-09-2.94434E-18-1.40750E-19
 -1      3347 9.52372E-05-2.85808E-05-2.85670E-05-2.97239E-10-1.01674E-18-1.62840E-18
 -1      3348 9.52370E-05-2.85753E-05-2.85693E-05-4.17474E-09-2.92133E-18 2.50798E-19
 -1      3349 9.52367E-05-2.85740E-05-2.85697E-05-5.14663E-09-1.68199E-18 7.85571E-19
 -1      3350 9.52358E-05-2.85765E-05-2.85683E-05-3.56334E-09-1.56134E-18 6.47701E-19
 -1      3351 9.52364E-05-2.85728E-05-2.85701E-05-5.73366E-09-1.17561E-18 3.49670E-19
 -1      3352 9.52361E-05-2.85719E-05-2.85704E-05-6.18504E-09-6.48770E-19-3.91422E-20
 -1      3353 9.52350E-05-2.85734E-05-2.85693E-05-5.37628E-09-1.64029E-18 1.36907E-18
 -1      3354 9.52360E-05-2.85711E-05-2.85707E-05-6.36021E-09-6.73566E-20-1.41814E-18
 -1      3355 9.52359E-05-2.85705E-05-2.85709E-05-6.44361E-09-7.45957E-19-1.47875E-18
 -1      3356 9.52346E-05-2.85712E-05-2.85700E-05-6.17365E-09-7.18273E-19-1.74336E-18
 -1      3357 9.52359E-05-2.85700E-05-2.85711E-05-6.33352E-09-6.36957E-19-9.41742E-19
 -1      3358 9.52358E-05-2.85697E-05-2.85712E-05-6.18174E-09-4.34167E-19-5.68321E-19
 -1      3359 9.52345E-05-2.85698E-05-2.85706E-05-6.26909E-09-7.11999E-19-1.93182E-18
 -1      3360 9.52359E-05-2.85695E-05-2.85713E-05-5.91952E-09-9.02372E-19-1.23521E-18
 -1      3361 9.52359E-05-2.85693E-05-2.85714E-05-5.63596E-09-5.67069E-19-2.16488E-18
 -1      3362 9.52346E-05-2.85691E-05-2.85709E-05-5.93051E-09-1.08080E-18-9.93211E-19
 -1      3363 9.52360E-05-2.85692E-05-2.85715E-05-5.29506E-09 4.17340E-21-2.01313E-18
 -1      3364 9.52360E-05-2.85692E-05-2.85715E-05-4.94841E-09 3.70426E-19-1.64480E-18
 -1      3365 9.52349E-05-2.85688E-05-2.85712E-05-5.35446E-09-3.67633E-19-2.75478E-18
 -1      3366 9.52362E-05-2.85692E-05-2.85716E-05-4.58088E-09 1.32185E-18-5.00371E-19
 -1      3367 9.52362E-05-2.85693E-05-2.85715E-05-4.21754E-09 1.25039E-18-1.11626E-19
 -1      3368 9.52352E-05-2.85687E-05-2.85713E-05-4.66848E-09 8.91997E-19-1.17393E-18
 -1      3369 9.52364E-05-2.85694E-05-2.85716E-05-3.85706E-09 2.20041E-18-6.27658E-19
 -1      3370 9.52364E-05-2.85694E-05-2.85716E-05-3.50671E-09 2.09446E-18-4.61686E-19
 -1      3371 9.52355E-05-2.85689E-05-2.85714E-05-3.95830E-09 2.62996E-18 6.26808E-19
 -1      3372 9.52365E-05-2.85695E-05-2.85716E-05-3.17342E-09 7.25013E-19-4.17682E-20
 -1      3373 9.52365E-05-2.85696E-05-2.85715E-05-2.85337E-09 9.99770E-19-9.21436E-19
 -1      3374 9.52358E-05-2.85691E-05-2.85715E-05-3.27809E-09 1.72544E-18 3.70880E-19
 -1      3375 9.52367E-05-2.85698E-05-2.85715E-05-2.55776E-09 2.89074E-19-1.93840E-18
 -1      3376 9.52367E-05-2.85699E-05-2.85715E-05-2.27652E-09-5.77227E-19-2.00377E-18
 -1      3377 9.52361E-05-2.85694E-05-2.85715E-05-2.65905E-09-1.59996E-19-9.45595E-19
 -1      3378 9.52368E-05-2.85700E-05-2.85715E-05-2.02256E-09-5.99699E-19-2.05749E-18
 -1      3379 9.52368E-05-2.85701E-05-2.85714E-05-1.78271E-09-1.51240E-19-2.06532E-18
 -1      3380 9.52364E-05-2.85697E-05-2.85714E-05-2.11628E-09-4.19612E-19-1.42146E-18
 -1      3381 9.52369E-05-2.85702E-05-2.85714E-05-1.57001E-09 9.85869E-19-1.10998E-18
 -1      3382 9.52369E-05-2.85703E-05-2.85714E-05-1.37030E-09 1.30013E-18 4.73348E-20
 -1      3383 9.52366E-05-2.85699E-05-2.85714E-05-1.65396E-09 1.73543E-18 6.59431E-19
 -1      3384 9.52370E-05-2.85704E-05-2.85714E-05-1.19589E-09 1.08470E-18 7.44766E-19
 -1      3385 9.52370E-05-2.85705E-05-2.85714E-05-1.03479E-09 1.98679E-18 1.68023E-18
 -1      3386 9.52367E-05-2.85702E-05-2.85714E-05-1.27000E-09 2.27243E-18 5.01498E-19
 -1      3387 1.02481E-04-3.35248E-05-2.95564E-05-8.97224E-06-1.06960E-19 3.01787E-19
 -1      3388 1.02308E-04-3.27612E-05-2.98087E-05-9.70048E-06 4.95957E-21 5.53374E-19
 -1      3389 9.85961E-05-3.22320E-05-2.84250E-05-2.71198E-06-1.35962E-19 1.24701E-18
 -1      3390 9.89941E-05-3.26310E-05-2.84501E-05-3.24654E-06-2.34916E-19 9.12771E-19
 -1      3391 9.97264E-05-3.31163E-05-2.85287E-05-3.83446E-06-3.84308E-19 8.93564E-19
 -1      3392 1.00133E-04-3.34512E-05-2.85902E-05-4.51717E-06-2.57857E-19 5.86695E-19
 -1      3393 1.00274E-04-3.35264E-05-2.86206E-05-2.99129E-06-6.02058E-19 8.02509E-19
 -1      3394 9.68824E-05-3.06316E-05-2.83828E-05-1.31703E-06 1.33194E-19 1.36963E-18
 -1      3395 9.71531E-05-3.09585E-05-2.83725E-05-1.60894E-06-1.87206E-19 1.42205E-18
 -1      3396 9.63244E-05-3.00390E-05-2.84005E-05-9.13214E-07-1.69148E-18 1.37288E-18
 -1      3397 9.65247E-05-3.02985E-05-2.83846E-05-1.12242E-06-4.18195E-19 1.43640E-18
 -1      3398 9.69961E-05-3.07058E-05-2.84196E-05-9.68757E-07-5.82769E-19 1.47427E-18
 -1      3399 9.59303E-05-2.95896E-05-2.84264E-05-6.32256E-07-1.15403E-18 1.03603E-19
 -1      3400 9.60710E-05-2.97852E-05-2.84094E-05-7.80752E-07-1.49205E-18 8.11684E-19
 -1      3401 9.63928E-05-3.00793E-05-2.84270E-05-6.74395E-07-1.14588E-18 1.08420E-18
 -1      3402 9.56629E-05-2.92622E-05-2.84538E-05-4.36395E-07 2.73224E-19-6.89503E-19
 -1      3403 9.57572E-05-2.94040E-05-2.84379E-05-5.41216E-07-5.61316E-19-4.76338E-19
 -1      3404 9.59729E-05-2.96122E-05-2.84452E-05-4.73288E-07-6.08529E-19 2.34309E-20
 -1      3405 9.54877E-05-2.90308E-05-2.84791E-05-2.99287E-07-4.34059E-20-2.50668E-19
 -1      3406 9.55483E-05-2.91305E-05-2.84654E-05-3.73001E-07 3.81715E-19-4.04631E-19
 -1      3407 9.56904E-05-2.92756E-05-2.84667E-05-3.33347E-07 1.66276E-19-3.35116E-19
 -1      3408 9.53768E-05-2.88712E-05-2.85008E-05-2.02958E-07-1.20626E-18 5.11311E-19
 -1      3409 9.54142E-05-2.89396E-05-2.84895E-05-2.54605E-07-8.08109E-19-1.19087E-19
 -1      3410 9.55059E-05-2.90395E-05-2.84877E-05-2.34150E-07-4.31220E-19-2.72408E-19
 -1      3411 9.53090E-05-2.87634E-05-2.85185E-05-1.35208E-07-3.93835E-19 8.86218E-19
 -1      3412 9.53309E-05-2.88094E-05-2.85096E-05-1.71214E-07-8.95236E-19 1.00759E-18
 -1      3413 9.53889E-05-2.88772E-05-2.85063E-05-1.62838E-07-1.05062E-18 8.24821E-20
 -1      3414 9.52690E-05-2.86917E-05-2.85325E-05-8.76854E-08 1.47290E-18 1.14547E-18
 -1      3415 9.52812E-05-2.87222E-05-2.85256E-05-1.12606E-07 4.19108E-19 7.44757E-19
 -1      3416 9.53168E-05-2.87677E-05-2.85218E-05-1.11211E-07 1.97700E-19 7.27001E-19
 -1      3417 9.52466E-05-2.86448E-05-2.85432E-05-5.45952E-08 4.58582E-19 1.52606E-18
 -1      3418 9.52529E-05-2.86647E-05-2.85381E-05-7.16634E-08 1.32536E-18 1.52571E-18
 -1      3419 9.52738E-05-2.86947E-05-2.85343E-05-7.38576E-08 8.26791E-19 1.16701E-18
 -1      3420 9.52348E-05-2.86145E-05-2.85513E-05-3.18447E-08 8.29781E-19 1.29125E-18
 -1      3421 9.52377E-05-2.86273E-05-2.85475E-05-4.33615E-08 1.25934E-18 1.33705E-18
 -1      3422 9.52492E-05-2.86468E-05-2.85441E-05-4.70453E-08 4.47224E-19 1.57325E-18
 -1      3423 9.52293E-05-2.85952E-05-2.85573E-05-1.65003E-08 2.76870E-19 1.32627E-18
 -1      3424 9.52302E-05-2.86034E-05-2.85545E-05-2.41096E-08-4.10914E-20 1.33394E-18
 -1      3425 9.52359E-05-2.86158E-05-2.85516E-05-2.80825E-08 4.62359E-19 1.13529E-18
 -1      3426 9.52273E-05-2.85832E-05-2.85617E-05-6.43500E-09 7.68049E-19 1.09820E-18
 -1      3427 9.52273E-05-2.85882E-05-2.85597E-05-1.13133E-08 5.11429E-19 1.50205E-18
 -1      3428 9.52294E-05-2.85959E-05-2.85572E-05-1.49612E-08 3.77611E-19 9.39811E-19
 -1      3429 9.52272E-05-2.85758E-05-2.85649E-05-9.68485E-11-2.20656E-19 7.99955E-19
 -1      3430 9.52267E-05-2.85789E-05-2.85635E-05-3.08670E-09 7.04663E-19 6.79548E-19
 -1      3431 9.52267E-05-2.85833E-05-2.85614E-05-6.15275E-09 9.36230E-19 7.63538E-19
 -1      3432 9.52281E-05-2.85714E-05-2.85671E-05 3.64788E-09 1.23461E-20 1.47030E-18
 -1      3433 9.52274E-05-2.85733E-05-2.85661E-05 1.94444E-09-5.61729E-19 9.77548E-19
 -1      3434 9.52262E-05-2.85756E-05-2.85645E-05-4.84964E-10-8.09412E-19 9.46767E-19
 -1      3435 9.52292E-05-2.85690E-05-2.85687E-05 5.62465E-09 1.23110E-18 1.46280E-18
 -1      3436 9.52286E-05-2.85700E-05-2.85680E-05 4.77930E-09 1.91026E-18 1.96963E-18
 -1      3437 9.52269E-05-2.85711E-05-2.85667E-05 2.93867E-09 4.94467E-19 1.59793E-18
 -1      3438 9.52305E-05-2.85678E-05-2.85697E-05 6.42993E-09 4.33820E-19 1.23586E-18
 -1      3439 9.52299E-05-2.85683E-05-2.85693E-05 6.14017E-09 3.24849E-19 1.32664E-18
 -1      3440 9.52280E-05-2.85685E-05-2.85683E-05 4.79739E-09 5.86735E-19 1.73487E-18
 -1      3441 9.52317E-05-2.85673E-05-2.85705E-05 6.48971E-09-9.35623E-19 2.28209E-19
 -1      3442 9.52312E-05-2.85675E-05-2.85702E-05 6.54419E-09 5.33331E-19 1.01323E-18
 -1      3443 9.52293E-05-2.85673E-05-2.85694E-05 5.59858E-09 4.14592E-19 1.92804E-18
 -1      3444 9.52328E-05-2.85673E-05-2.85709E-05 6.10335E-09-1.34012E-18 9.65083E-20
 -1      3445 9.52323E-05-2.85673E-05-2.85707E-05 6.35663E-09-1.56293E-18-5.63710E-19
 -1      3446 9.52306E-05-2.85668E-05-2.85702E-05 5.71456E-09-7.69476E-19-3.08760E-19
 -1      3447 9.52337E-05-2.85675E-05-2.85712E-05 5.47684E-09-9.37211E-19 5.89669E-19
 -1      3448 9.52333E-05-2.85674E-05-2.85711E-05 5.83091E-09-7.10937E-19 1.10592E-19
 -1      3449 9.52318E-05-2.85668E-05-2.85707E-05 5.41280E-09-1.35490E-18 8.71588E-19
 -1      3450 9.52344E-05-2.85679E-05-2.85714E-05 4.74793E-09 7.50079E-20 6.21229E-19
 -1      3451 9.52342E-05-2.85677E-05-2.85713E-05 5.13862E-09-4.72359E-19 4.05110E-19
 -1      3452 9.52329E-05-2.85671E-05-2.85710E-05 4.88064E-09-8.92671E-19 1.08555E-18
 -1      3453 9.52350E-05-2.85683E-05-2.85715E-05 4.00515E-09-8.22722E-19 1.19910E-18
 -1      3454 9.52348E-05-2.85682E-05-2.85714E-05 4.39222E-09-6.20041E-19 1.06163E-18
 -1      3455 9.52338E-05-2.85675E-05-2.85712E-05 4.24525E-09-1.29125E-18 1.32720E-18
 -1      3456 9.52355E-05-2.85688E-05-2.85715E-05 3.30212E-09-7.98039E-19 8.81929E-19
 -1      3457 9.52354E-05-2.85686E-05-2.85715E-05 3.66198E-09-8.22345E-19 1.28007E-18
 -1      3458 9.52345E-05-2.85680E-05-2.85713E-05 3.58944E-09-1.35124E-18 1.33804E-18
 -1      3459 9.52359E-05-2.85692E-05-2.85715E-05 2.66823E-09 1.68740E-19-2.52692E-19
 -1      3460 9.52358E-05-2.85690E-05-2.85715E-05 2.98867E-09 9.32442E-20 3.68226E-19
 -1      3461 9.52351E-05-2.85685E-05-2.85714E-05 2.96408E-09 5.02925E-19 1.20722E-18
 -1      3462 9.52363E-05-2.85695E-05-2.85715E-05 2.11652E-09-1.55725E-19-1.52348E-18
 -1      3463 9.52362E-05-2.85694E-05-2.85715E-05 2.39285E-09-2.25504E-19-1.36487E-18
 -1      3464 9.52356E-05-2.85690E-05-2.85714E-05 2.39760E-09 6.36404E-19-9.22845E-19
 -1      3465 9.52365E-05-2.85699E-05-2.85714E-05 1.64957E-09 1.03315E-19-1.20782E-18
 -1      3466 9.52364E-05-2.85697E-05-2.85714E-05 1.88187E-09 1.05999E-19-1.10215E-18
 -1      3467 9.52360E-05-2.85694E-05-2.85714E-05 1.90320E-09 1.70768E-19-2.64024E-18
 -1      3468 9.52367E-05-2.85701E-05-2.85714E-05 1.26473E-09-1.52332E-19-2.05897E-18
 -1      3469 9.52366E-05-2.85700E-05-2.85714E-05 1.45387E-09 1.62173E-19-2.14627E-18
 -1      3470 9.52363E-05-2.85697E-05-2.85714E-05 1.48477E-09 6.05719E-19-3.62622E-18
 -1      3471 4.70295E-05-1.23507E-06-1.94376E-05 5.10091E-06-8.04681E-21 7.11296E-19
 -1      3472 1.21123E-04-1.86753E-05-4.41944E-05-1.15485E-05 3.52895E-19 4.31193E-20
 -1      3473 1.27180E-04-2.75293E-05-4.25839E-05-1.29371E-05-5.57718E-20 1.00612E-19
 -1      3474 9.52363E-05-2.85700E-05-2.85713E-05 3.65619E-10-6.62907E-20-1.36055E-18
 -1      3475 9.52364E-05-2.85700E-05-2.85713E-05 4.84604E-10-7.70766E-19-1.62754E-18
 -1      3476 9.52366E-05-2.85702E-05-2.85713E-05-6.97022E-10-8.01735E-19 5.28966E-19
 -1      3477 9.52365E-05-2.85701E-05-2.85713E-05-6.12046E-10-3.05620E-19 4.72521E-19
 -1      3478 9.52364E-05-2.85700E-05-2.85713E-05-4.91785E-10-8.04687E-19 1.69146E-18
 -1      3479 9.52364E-05-2.85700E-05-2.85713E-05-3.76652E-10-1.43260E-18 1.53285E-18
 -1      3480 9.52364E-05-2.85700E-05-2.85713E-05-6.23243E-10-1.00702E-18 1.40192E-18
 -1      3481 9.76362E-05-3.13728E-05-2.83850E-05-1.89524E-06-3.45338E-19 1.39726E-18
 -1      3482 9.79789E-05-3.17552E-05-2.83872E-05-2.29579E-06-5.95568E-20 1.18987E-18
 -1      3483 9.89236E-05-3.24734E-05-2.84928E-05-2.05085E-06-1.46517E-19 1.20926E-18
 -1      3484 9.78289E-05-3.15086E-05-2.84351E-05-1.40487E-06-3.68761E-19 1.28197E-18
 -1      3485 1.18718E-04-1.02325E-05-4.66919E-05 9.68955E-06 5.72118E-19 1.72126E-19
 -1      3486 1.16975E-04-7.15912E-06-4.73035E-05 4.45012E-06 5.98905E-19 5.42085E-20
 -1      3487 8.00049E-05-1.69113E-05-2.71586E-05 4.48251E-06-1.38910E-18 2.45322E-19
 -1      3488 8.34719E-05-1.89986E-05-2.76465E-05 3.45262E-06-1.53669E-18-8.99236E-20
 -1      3489 8.53562E-05-2.05666E-05-2.76836E-05 5.32291E-06-1.18126E-18 1.80544E-19
 -1      3490 1.34635E-04-5.20092E-05-3.58354E-05 5.91233E-06-6.86421E-19-1.86771E-19
 -1      3491 1.32725E-04-5.39423E-05-3.34728E-05 1.44103E-05-7.65774E-19-4.46214E-19
 -1      3492 1.00413E-04-2.17698E-05-3.36719E-05 1.13112E-05 3.17387E-19 2.88952E-19
 -1      3493 1.01332E-04-2.20408E-05-3.39982E-05 1.22429E-05 1.99223E-19 2.87119E-19
 -1      3494 1.04332E-04-2.23676E-05-3.51327E-05 1.27339E-05 2.43608E-19 2.12925E-19
 -1      3495 9.52365E-05-2.85701E-05-2.85713E-05 6.07567E-10-3.52310E-19-2.12624E-18
 -1      3496 9.52366E-05-2.85702E-05-2.85713E-05 6.90287E-10-3.92725E-19-3.15524E-18
 -1      3497 9.52364E-05-2.85699E-05-2.85713E-05 6.13049E-10 4.46073E-19-2.77574E-18
 -1      3498 7.11833E-05-1.21440E-05-2.54773E-05 8.91253E-06-2.86264E-19 2.86059E-19
 -1      3499 7.67516E-05-1.49838E-05-2.64769E-05 6.77719E-06-7.85339E-19 2.91541E-19
 -1      3500 8.00664E-05-1.74840E-05-2.66849E-05 9.54218E-06-1.08254E-18-3.06097E-19
 -1      3501 1.16352E-04-7.60823E-06-4.68522E-05-1.10001E-06 7.51742E-19 1.08314E-19
 -1      3502 1.17041E-04-1.13300E-05-4.54504E-05-6.84579E-06 6.08752E-19-2.39626E-20
 -1      3503 1.13223E-04-1.00771E-05-4.43911E-05 1.41841E-06 6.12458E-19-2.01180E-19
 -1      3504 9.73085E-05-1.93470E-05-3.33911E-05 3.82800E-06 6.93854E-19 3.30572E-19
 -1      3505 9.79404E-05-1.98514E-05-3.34759E-05 6.23419E-06 4.28509E-19 2.73849E-19
 -1      3506 4.80930E-05-4.20904E-06-1.84587E-05 1.78106E-05-3.92838E-19-3.51519E-20
 -1      3507 9.92795E-05-2.50705E-05-3.18504E-05-9.83634E-06 5.79063E-19 7.77093E-19
 -1      3508 9.84718E-05-2.32734E-05-3.21818E-05-8.52545E-06 6.04860E-19 9.03642E-19
 -1      3509 9.87608E-05-3.90678E-05-2.55761E-05 3.57593E-05-9.35746E-19-1.27092E-18
 -1      3510 8.42041E-05-2.92219E-05-2.32702E-05 3.64959E-05-5.27066E-19-1.00686E-18
 -1      3511 9.88035E-05-2.04558E-05-3.35532E-05 8.07857E-06 2.70535E-19 3.10579E-19
 -1      3512 9.95493E-05-2.11377E-05-3.36231E-05 9.95329E-06 2.86604E-19 2.44590E-19
 -1      3513 1.02370E-04-2.07872E-05-3.49503E-05 1.08495E-05 2.69335E-19 1.96589E-19
 -1      3514 1.00715E-04-1.94281E-05-3.48457E-05 7.68094E-06 4.00413E-19 1.41473E-19
 -1      3515 5.69623E-05-8.55928E-06-2.06900E-05 2.07453E-05-4.02499E-19 3.56813E-20
 -1      3516 1.25601E-04-3.30692E-05-3.97769E-05-1.10403E-05-2.74412E-19 1.35287E-19
 -1      3517 1.18825E-04-1.42691E-05-4.50268E-05 1.21744E-05 3.69267E-19 4.31338E-19
 -1      3518 1.13651E-04-1.26356E-05-4.32904E-05 9.80211E-06 2.82830E-19 2.60357E-19
 -1      3519 1.18252E-04-1.83089E-05-4.29019E-05 1.33298E-05 3.01425E-19 4.47185E-19
 -1      3520 1.25816E-04-5.17955E-05-3.17266E-05 1.80017E-05-4.81869E-19-1.80405E-19
 -1      3521 1.04816E-04-3.33593E-05-3.06009E-05-9.99674E-06 2.78123E-19 8.46381E-19
 -1      3522 1.02244E-04-3.17862E-05-3.02196E-05-1.05197E-05 4.06063E-20 7.40656E-19
 -1      3523 1.01711E-04-3.04257E-05-3.05362E-05-1.08429E-05 3.08575E-19 8.00037E-19
 -1      3524 1.02070E-04-3.38684E-05-2.92412E-05-7.94596E-06-4.21726E-19-8.66161E-21
 -1      3525 1.04435E-04-3.48376E-05-2.98163E-05-8.05602E-06 3.23013E-20 4.38124E-19
 -1      3526 1.01934E-04-3.40993E-05-2.90615E-05-7.08754E-06-2.99352E-19 2.69534E-20
 -1      3527 9.52370E-05-2.85705E-05-2.85713E-05-9.32496E-10-8.72909E-19 7.02430E-19
 -1      3528 9.52370E-05-2.85706E-05-2.85713E-05-8.18720E-10-1.24788E-18-9.60900E-20
 -1      3529 9.52369E-05-2.85705E-05-2.85713E-05-8.07465E-10-1.32324E-18-1.32281E-18
 -1      3530 9.52368E-05-2.85703E-05-2.85713E-05-9.97263E-10 1.81536E-19-1.49675E-19
 -1      3531 6.40552E-05-1.00557E-05-2.29550E-05 1.62117E-05-1.10035E-19 2.42410E-19
 -1      3532 9.52367E-05-2.85703E-05-2.85713E-05 7.66262E-10 8.88525E-19-3.05270E-18
 -1      3533 9.52368E-05-2.85704E-05-2.85713E-05 8.22083E-10 1.20027E-18-2.54537E-18
 -1      3534 9.52368E-05-2.85703E-05-2.85713E-05 9.31031E-10 1.35765E-18-1.77221E-18
 -1      3535 9.52366E-05-2.85701E-05-2.85713E-05 8.16618E-10 9.76715E-19-4.11273E-18
 -1      3536 1.01798E-04-3.44954E-05-2.88556E-05-4.30949E-06-5.38828E-19 9.12402E-19
 -1      3537 1.00913E-04-3.38389E-05-2.87288E-05-5.30597E-06-2.11507E-19 4.26761E-19
 -1      3538 1.01243E-04-3.39772E-05-2.88423E-05-6.11865E-06-4.20320E-19 2.81052E-19
 -1      3539 1.00463E-04-2.20752E-05-3.35941E-05-7.94284E-06 5.13831E-19 7.60621E-19
 -1      3540 9.75417E-05-2.15668E-05-3.25925E-05-6.56737E-06 5.57737E-19 6.98554E-19
 -1      3541 9.70695E-05-2.03178E-05-3.28557E-05-4.41511E-06 5.32113E-19 6.57741E-19
 -1      3542 9.52363E-05-2.85699E-05-2.85713E-05 2.11082E-10 1.30205E-20-4.56453E-19
 -1      3543 9.52362E-05-2.85698E-05-2.85713E-05 3.22961E-10-3.06618E-20-4.12915E-19
 -1      3544 9.52363E-05-2.85699E-05-2.85713E-05 7.49183E-11 8.82956E-20 8.18595E-19
 -1      3545 1.16721E-04-1.61819E-05-4.32625E-05-9.81464E-06 5.47938E-19-1.54501E-20
 -1      3546 1.15753E-04-2.04702E-05-4.07211E-05-1.12836E-05 2.47982E-19-1.61340E-19
 -1      3547 1.11726E-04-1.41388E-05-4.18928E-05-6.92637E-06 6.16349E-19-9.63566E-20
 -1      3548 1.28827E-04-3.01260E-05-4.26355E-05 1.20369E-05-1.10128E-19 4.79920E-19
 -1      3549 1.23842E-04-2.50309E-05-4.24249E-05 1.39507E-05 1.30364E-19 4.52316E-19
 -1      3550 1.11844E-04-4.55683E-05-2.85277E-05 2.69922E-05-5.04150E-19-1.72054E-22
 -1      3551 1.06308E-04-4.29389E-05-2.69497E-05 3.21858E-05-8.03411E-19-5.00213E-19
 -1      3552 9.90837E-05-3.71945E-05-2.64976E-05 3.01561E-05-4.36751E-19-4.60932E-19
 -1      3553 9.52363E-05-2.85699E-05-2.85713E-05-2.24423E-10-4.57810E-19 4.52220E-19
 -1      3554 9.52363E-05-2.85699E-05-2.85713E-05-8.89514E-11 6.94327E-19 3.92146E-19
 -1      3555 9.52361E-05-2.85698E-05-2.85713E-05-9.17574E-12 1.33814E-18 6.75573E-19
 -1      3556 1.31219E-04-4.74783E-05-3.59679E-05 2.59568E-07-4.52957E-19-6.24290E-20
 -1      3557 9.52368E-05-2.85704E-05-2.85713E-05-7.70739E-10-1.22733E-18-5.16481E-19
 -1      3558 9.52362E-05-2.85698E-05-2.85713E-05-3.39129E-10-3.31452E-19 3.45050E-19
 -1      3559 9.67556E-05-1.94729E-05-3.31220E-05-1.63110E-06 5.11863E-19 6.57599E-19
 -1      3560 9.68542E-05-1.91551E-05-3.32883E-05 9.25325E-07 6.01166E-19 4.78748E-19
 -1      3561 9.91630E-05-1.91360E-05-3.43246E-05-3.04138E-06 4.62453E-19 4.18099E-19
 -1      3562 9.52367E-05-2.85702E-05-2.85713E-05-8.30909E-10-1.23448E-18-8.19441E-19
 -1      3563 9.52368E-05-2.85703E-05-2.85714E-05 1.02470E-09 2.58625E-18-2.50488E-18
 -1      3564 9.52367E-05-2.85702E-05-2.85714E-05 1.15650E-09 1.03361E-18-2.57661E-18
 -1      3565 9.52365E-05-2.85700E-05-2.85714E-05 1.17712E-09 6.51553E-19-6.19282E-18
 -1      3566 9.52366E-05-2.85702E-05-2.85713E-05 9.82081E-10 1.31909E-18-4.46679E-18
 -1      3567 7.88413E-05-2.47752E-05-2.29612E-05 3.42920E-05-2.86191E-19-7.36283E-19
 -1      3568 7.30177E-05-1.96558E-05-2.29558E-05 2.95660E-05 3.81959E-20-5.33816E-19
 -1      3569 8.73751E-05-2.89426E-05-2.49349E-05 3.06237E-05-5.03356E-20-1.52635E-18
 -1      3570 7.08905E-05-1.45372E-05-2.38189E-05 2.00937E-05-1.37511E-20-3.28331E-19
 -1      3571 9.92881E-05-1.83555E-05-3.47002E-05 2.84809E-06 5.84133E-19 2.24848E-19
 -1      3572 1.01083E-04-2.88132E-05-3.10161E-05-1.10506E-05 1.79506E-19 8.51825E-19
 -1      3573 1.00279E-04-2.70112E-05-3.13658E-05-1.06544E-05 4.47103E-19 8.49998E-19
 -1      3574 1.04131E-04-3.04040E-05-3.15687E-05-1.11799E-05 1.84020E-19 9.62813E-19
 -1      3575 1.02464E-04-2.63234E-05-3.26210E-05-1.06997E-05 4.06395E-19 9.85235E-19
 -1      3576 1.31167E-04-3.53461E-05-4.10031E-05 6.60042E-06-2.27455E-19 5.48520E-19
 -1      3577 1.00679E-04-3.37357E-05-2.86674E-05-1.87402E-06-3.82216E-19 5.09274E-19
 -1      3578 1.01418E-04-3.43290E-05-2.87596E-05-2.37892E-06-7.02994E-19 5.30602E-19
 -1      3579 1.01216E-04-1.68301E-05-3.61595E-05 1.85674E-06 4.70308E-19 5.35651E-19
 -1      3580 1.01677E-04-1.71116E-05-3.62385E-05 4.79062E-06 4.34372E-19 2.64493E-19
 -1      3581 9.13285E-05-2.52860E-05-2.83461E-05 2.72558E-06-1.48213E-19 4.69053E-21
 -1      3582 9.23131E-05-2.59863E-05-2.84227E-05 2.18698E-06-7.96367E-19-2.44323E-19
 -1      3583 9.28805E-05-2.65041E-05-2.84731E-05 1.61731E-06-7.87305E-19-4.27898E-19
 -1      3584 9.35003E-05-2.69855E-05-2.85055E-05 1.32104E-06-1.09772E-18-6.81570E-20
 -1      3585 9.30051E-05-2.66357E-05-2.84249E-05 2.53925E-06-6.88359E-19-7.53263E-19
 -1      3586 9.38893E-05-2.73580E-05-2.85289E-05 9.67627E-07-1.03973E-18 7.44200E-19
 -1      3587 9.42778E-05-2.76832E-05-2.85408E-05 7.96842E-07-1.93058E-19 1.04547E-18
 -1      3588 9.39224E-05-2.73957E-05-2.84989E-05 1.52995E-06-4.08286E-19 7.97532E-19
 -1      3589 9.45041E-05-2.79101E-05-2.85494E-05 5.98286E-07-4.41233E-19 4.76917E-19
 -1      3590 9.47194E-05-2.80998E-05-2.85519E-05 5.05467E-07-9.32605E-19 9.54474E-19
 -1      3591 9.45065E-05-2.79126E-05-2.85315E-05 9.27081E-07-3.57329E-19 5.45188E-19
 -1      3592 9.48540E-05-2.82379E-05-2.85549E-05 3.84091E-07-3.18443E-19 9.35739E-19
 -1      3593 9.49763E-05-2.83500E-05-2.85547E-05 3.27706E-07-2.17177E-19 1.06431E-18
 -1      3594 9.48521E-05-2.82368E-05-2.85440E-05 5.76652E-07-5.05350E-19 4.62000E-19
 -1      3595 9.50518E-05-2.84292E-05-2.85555E-05 2.52170E-07-5.29957E-19 5.03547E-19
 -1      3596 9.51185E-05-2.84913E-05-2.85548E-05 2.15662E-07-5.97763E-19 3.95210E-19
 -1      3597 9.50520E-05-2.84310E-05-2.85487E-05 3.62732E-07-6.15303E-19 6.18861E-19
 -1      3598 9.51580E-05-2.85331E-05-2.85553E-05 1.67628E-07-7.13674E-19 1.82417E-19
 -1      3599 9.51924E-05-2.85645E-05-2.85549E-05 1.42632E-07 2.78953E-20-5.51978E-20
 -1      3600 9.51609E-05-2.85387E-05-2.85506E-05 2.29905E-07-7.58495E-19 5.54793E-19
 -1      3601 9.52110E-05-2.85839E-05-2.85555E-05 1.11436E-07 3.90133E-19-2.95155E-19
 -1      3602 9.52274E-05-2.85975E-05-2.85557E-05 9.36270E-08-8.89237E-19 5.99469E-20
 -1      3603 9.52155E-05-2.85919E-05-2.85520E-05 1.45853E-07-3.89735E-19-2.08141E-19
 -1      3604 9.52345E-05-2.86041E-05-2.85565E-05 7.30273E-08-1.46536E-18 4.54515E-19
 -1      3605 9.52413E-05-2.86079E-05-2.85571E-05 6.00809E-08-1.38172E-18 6.52874E-19
 -1      3606 9.52393E-05-2.86129E-05-2.85536E-05 9.17029E-08-6.39466E-19 5.45934E-19
 -1      3607 9.52427E-05-2.86079E-05-2.85581E-05 4.63476E-08-1.44752E-18 4.94746E-19
 -1      3608 9.52447E-05-2.86068E-05-2.85590E-05 3.69144E-08 3.68190E-19 4.18831E-20
 -1      3609 9.52468E-05-2.86163E-05-2.85557E-05 5.63264E-08-1.43980E-18 1.08730E-18
 -1      3610 9.52436E-05-2.86039E-05-2.85601E-05 2.77521E-08 1.27420E-18-4.63468E-19
 -1      3611 9.52435E-05-2.86008E-05-2.85611E-05 2.09603E-08 1.33625E-18 8.26159E-20
 -1      3612 9.52466E-05-2.86111E-05-2.85580E-05 3.30406E-08 9.96292E-20 7.92677E-19
 -1      3613 9.52416E-05-2.85969E-05-2.85622E-05 1.49060E-08 1.95600E-19-6.98774E-19
 -1      3614 9.52407E-05-2.85933E-05-2.85631E-05 1.01309E-08-8.02792E-19-2.88922E-19
 -1      3615 9.52434E-05-2.86026E-05-2.85603E-05 1.77289E-08 1.39879E-19-1.34802E-18
 -1      3616 9.52389E-05-2.85895E-05-2.85641E-05 6.21796E-09-1.23325E-18-1.16004E-18
 -1      3617 9.52379E-05-2.85862E-05-2.85650E-05 2.97896E-09-5.12894E-19-1.91560E-18
 -1      3618 9.52397E-05-2.85938E-05-2.85625E-05 7.77713E-09-1.26249E-18-1.00295E-18
 -1      3619 9.52365E-05-2.85830E-05-2.85658E-05 5.47682E-10-2.43610E-19-2.00355E-18
 -1      3620 9.52357E-05-2.85803E-05-2.85666E-05-1.53792E-09-1.19321E-18-1.27110E-18
 -1      3621 9.52364E-05-2.85860E-05-2.85645E-05 1.47167E-09-7.35925E-19-1.19666E-18
 -1      3622 9.52347E-05-2.85778E-05-2.85673E-05-2.94888E-09-1.47545E-18-9.20185E-19
 -1      3623 9.52342E-05-2.85757E-05-2.85679E-05-4.18769E-09-7.13319E-19 9.32871E-19
 -1      3624 9.52341E-05-2.85797E-05-2.85662E-05-2.34403E-09-6.18165E-19-1.11763E-18
 -1      3625 9.52337E-05-2.85740E-05-2.85685E-05-4.90575E-09-1.78305E-18 7.91326E-19
 -1      3626 9.52334E-05-2.85725E-05-2.85689E-05-5.54385E-09-2.51894E-18-2.63895E-19
 -1      3627 9.52326E-05-2.85750E-05-2.85676E-05-4.46867E-09-1.26649E-18 2.51264E-19
 -1      3628 9.52332E-05-2.85713E-05-2.85694E-05-5.81204E-09-1.70960E-18-8.43023E-19
 -1      3629 9.52331E-05-2.85703E-05-2.85698E-05-6.03229E-09-6.12346E-19-1.08357E-18
 -1      3630 9.52320E-05-2.85717E-05-2.85687E-05-5.47046E-09-2.11811E-18 1.37548E-19
 -1      3631 9.52332E-05-2.85696E-05-2.85701E-05-5.98572E-09-6.02316E-19-1.85278E-18
 -1      3632 9.52332E-05-2.85691E-05-2.85703E-05-5.92664E-09-5.32078E-19-1.68324E-18
 -1      3633 9.52319E-05-2.85696E-05-2.85695E-05-5.71745E-09-1.24552E-18 2.04485E-19
 -1      3634 9.52334E-05-2.85687E-05-2.85706E-05-5.71451E-09-8.37772E-19-1.99194E-18
 -1      3635 9.52335E-05-2.85684E-05-2.85708E-05-5.49546E-09-2.02292E-18-3.32175E-18
 -1      3636 9.52321E-05-2.85684E-05-2.85702E-05-5.49900E-09-1.52086E-18-2.55806E-18
 -1      3637 9.52338E-05-2.85683E-05-2.85709E-05-5.19445E-09-6.61270E-19-1.64470E-18
 -1      3638 9.52339E-05-2.85682E-05-2.85710E-05-4.89091E-09 5.28664E-19-7.40543E-19
 -1      3639 9.52327E-05-2.85679E-05-2.85706E-05-5.02512E-09-5.53999E-19-1.95304E-18
 -1      3640 9.52343E-05-2.85682E-05-2.85712E-05-4.55480E-09 1.50509E-18 2.47558E-19
 -1      3641 9.52344E-05-2.85683E-05-2.85712E-05-4.21833E-09 2.16777E-18 1.49078E-18
 -1      3642 9.52333E-05-2.85678E-05-2.85709E-05-4.42583E-09 2.18421E-18 1.70976E-18
 -1      3643 9.52347E-05-2.85684E-05-2.85713E-05-3.88196E-09 1.49024E-18 9.70454E-19
 -1      3644 9.52349E-05-2.85685E-05-2.85713E-05-3.54636E-09 2.03846E-18 1.00282E-18
 -1      3645 9.52339E-05-2.85679E-05-2.85711E-05-3.78761E-09 1.36551E-18 2.26357E-18
 -1      3646 9.52352E-05-2.85687E-05-2.85714E-05-3.23087E-09 2.67248E-18-5.78402E-19
 -1      3647 9.52354E-05-2.85688E-05-2.85714E-05-2.91684E-09 1.06562E-18-1.89375E-19
 -1      3648 9.52345E-05-2.85682E-05-2.85712E-05-3.16532E-09 6.52431E-19 3.43149E-21
 -1      3649 9.52356E-05-2.85690E-05-2.85714E-05-2.63376E-09 9.91671E-19 2.27375E-19
 -1      3650 9.52357E-05-2.85692E-05-2.85714E-05-2.35257E-09-7.39106E-19 7.67816E-19
 -1      3651 9.52350E-05-2.85686E-05-2.85713E-05-2.59131E-09 1.02289E-18 8.76253E-19
 -1      3652 9.52360E-05-2.85693E-05-2.85714E-05-2.10675E-09-8.31931E-19 3.42559E-19
 -1      3653 9.52361E-05-2.85695E-05-2.85714E-05-1.86314E-09 9.15236E-19 1.41277E-18
 -1      3654 9.52355E-05-2.85690E-05-2.85714E-05-2.08217E-09-6.60847E-19 3.04744E-18
 -1      3655 9.52363E-05-2.85697E-05-2.85714E-05-1.65592E-09 1.78923E-18 1.89461E-18
 -1      3656 9.52363E-05-2.85698E-05-2.85714E-05-1.44946E-09 2.52579E-18 3.24660E-18
 -1      3657 9.52359E-05-2.85694E-05-2.85714E-05-1.64463E-09 2.00705E-18 4.41585E-18
 -1      3658 9.52365E-05-2.85700E-05-2.85714E-05-1.27773E-09 1.55078E-18 1.55445E-18
 -1      3659 9.52366E-05-2.85701E-05-2.85714E-05-1.10748E-09 1.25095E-18 8.34827E-19
 -1      3660 9.52362E-05-2.85697E-05-2.85714E-05-1.27767E-09 8.50474E-19 2.98506E-18
 -1      3661 9.52361E-05-2.85697E-05-2.85713E-05-4.67536E-10-7.78483E-19-1.05144E-18
 -1      3662 9.52360E-05-2.85696E-05-2.85713E-05-3.06440E-10 1.12820E-18-1.81634E-18
 -1      3663 1.05808E-04-2.80877E-05-3.33740E-05-1.14820E-05 1.91166E-19 9.32039E-19
 -1      3664 1.04772E-04-2.54462E-05-3.39498E-05-1.07007E-05 4.04935E-19 8.72808E-19
 -1      3665 9.64077E-05-3.00127E-05-2.84491E-05-3.80657E-07-8.77861E-19 7.35911E-19
 -1      3666 9.66633E-05-3.02921E-05-2.84430E-05-4.82768E-07-1.17391E-18 1.07111E-18
 -1      3667 9.70336E-05-3.06368E-05-2.84470E-05-5.37199E-07-7.56347E-19 1.41990E-18
 -1      3668 9.73944E-05-3.10091E-05-2.84493E-05-6.88375E-07-2.32603E-19 1.25796E-18
 -1      3669 9.69782E-05-3.05785E-05-2.84676E-05-2.15367E-07-5.39190E-19 5.49887E-19
 -1      3670 9.56950E-05-2.92367E-05-2.84795E-05-2.05646E-07 2.93843E-19-3.82649E-19
 -1      3671 9.58105E-05-2.93795E-05-2.84693E-05-2.56236E-07 1.54177E-19-4.00782E-19
 -1      3672 9.55101E-05-2.90132E-05-2.84970E-05-1.52175E-07-5.76845E-19-3.57208E-19
 -1      3673 9.55843E-05-2.91120E-05-2.84874E-05-1.89117E-07 1.63623E-19-3.42660E-19
 -1      3674 9.56790E-05-2.92117E-05-2.84892E-05-1.16553E-07 3.09910E-19-4.18368E-19
 -1      3675 9.53928E-05-2.88605E-05-2.85128E-05-1.11126E-07-1.44521E-18 1.13766E-19
 -1      3676 9.54392E-05-2.89277E-05-2.85045E-05-1.38451E-07-9.80397E-19-2.51454E-19
 -1      3677 9.55017E-05-2.89974E-05-2.85039E-05-9.60039E-08-1.00925E-18-3.02468E-19
 -1      3678 9.53202E-05-2.87575E-05-2.85262E-05-7.92231E-08 7.38832E-19-6.69547E-20
 -1      3679 9.53483E-05-2.88027E-05-2.85193E-05-9.94912E-08-4.55261E-19-5.42606E-20
 -1      3680 9.53891E-05-2.88512E-05-2.85175E-05-7.63363E-08-8.37916E-19-4.40283E-19
 -1      3681 9.52765E-05-2.86888E-05-2.85371E-05-5.45556E-08 3.80624E-19 1.05702E-18
 -1      3682 9.52929E-05-2.87188E-05-2.85317E-05-6.94965E-08 9.35764E-19 7.24756E-19
 -1      3683 9.53190E-05-2.87523E-05-2.85293E-05-5.81529E-08 4.92261E-20-2.66347E-19
 -1      3684 9.52510E-05-2.86434E-05-2.85458E-05-3.57999E-08 6.60742E-20 1.31191E-18
 -1      3685 9.52601E-05-2.86632E-05-2.85416E-05-4.66653E-08 8.98670E-20 1.28033E-18
 -1      3686 9.52764E-05-2.86861E-05-2.85391E-05-4.21910E-08-1.11884E-19 4.63578E-19
 -1      3687 9.52369E-05-2.86138E-05-2.85526E-05-2.18850E-08 7.74364E-19 1.03082E-18
 -1      3688 9.52416E-05-2.86266E-05-2.85493E-05-2.96300E-08 9.64691E-19 1.08226E-18
 -1      3689 9.52512E-05-2.86421E-05-2.85470E-05-2.88952E-08 5.55241E-19 8.99343E-19
 -1      3690 9.52297E-05-2.85947E-05-2.85577E-05-1.18752E-08 5.46345E-19 6.33614E-19
 -1      3691 9.52318E-05-2.86029E-05-2.85553E-05-1.72508E-08 4.86376E-19 6.99822E-19
 -1      3692 9.52370E-05-2.86131E-05-2.85532E-05-1.83565E-08 9.74312E-19 3.20828E-19
 -1      3693 9.52265E-05-2.85825E-05-2.85616E-05-4.94202E-09 8.37348E-19 1.02481E-18
 -1      3694 9.52272E-05-2.85877E-05-2.85598E-05-8.54459E-09 1.10351E-18 1.35919E-18
 -1      3695 9.52296E-05-2.85942E-05-2.85580E-05-1.03941E-08 3.52607E-19 7.18400E-19
 -1      3696 9.52257E-05-2.85750E-05-2.85645E-05-3.66774E-10-1.23495E-18 1.75130E-18
 -1      3697 9.52255E-05-2.85782E-05-2.85632E-05-2.66798E-09-2.75669E-19 1.60988E-18
 -1      3698 9.52262E-05-2.85822E-05-2.85617E-05-4.66631E-09-1.52882E-19 1.77874E-18
 -1      3699 9.52261E-05-2.85705E-05-2.85666E-05 2.45542E-09 9.23352E-19 1.72980E-18
 -1      3700 9.52256E-05-2.85724E-05-2.85657E-05 1.08722E-09-3.68487E-19 1.30524E-18
 -1      3701 9.52252E-05-2.85747E-05-2.85645E-05-7.66433E-10-4.48176E-19 1.80481E-18
 -1      3702 9.52271E-05-2.85680E-05-2.85682E-05 4.01707E-09 3.00896E-20 1.95901E-18
 -1      3703 9.52265E-05-2.85691E-05-2.85675E-05 3.29904E-09 1.17541E-18 2.17408E-18
 -1      3704 9.52255E-05-2.85702E-05-2.85665E-05 1.71066E-09 3.46954E-19 2.34871E-18
 -1      3705 9.52285E-05-2.85668E-05-2.85693E-05 4.70624E-09 3.98968E-19 2.54800E-18
 -1      3706 9.52278E-05-2.85673E-05-2.85688E-05 4.42556E-09 1.88824E-20 2.48771E-18
 -1      3707 9.52265E-05-2.85677E-05-2.85681E-05 3.12986E-09-1.64585E-19 2.39144E-18
 -1      3708 9.52298E-05-2.85664E-05-2.85700E-05 4.81930E-09-1.58079E-18 2.16228E-18
 -1      3709 9.52292E-05-2.85665E-05-2.85697E-05 4.81930E-09-3.94749E-19 2.35962E-18
 -1      3710 9.52279E-05-2.85665E-05-2.85691E-05 3.79764E-09-4.72535E-19 2.77382E-18
 -1      3711 9.52311E-05-2.85665E-05-2.85706E-05 4.57554E-09-1.22070E-18 8.63555E-19
 -1      3712 9.52305E-05-2.85664E-05-2.85703E-05 4.74374E-09-9.24152E-19 1.40998E-18
 -1      3713 9.52293E-05-2.85661E-05-2.85699E-05 3.95837E-09-9.54680E-19 1.73936E-18
 -1      3714 9.52322E-05-2.85668E-05-2.85709E-05 4.13197E-09-1.42669E-18 9.87539E-19
 -1      3715 9.52317E-05-2.85666E-05-2.85708E-05 4.38988E-09-7.83398E-19 9.93077E-19
 -1      3716 9.52306E-05-2.85662E-05-2.85705E-05 3.79836E-09-1.33307E-18 1.34459E-18
 -1      3717 9.52332E-05-2.85673E-05-2.85711E-05 3.59693E-09-2.47448E-18 1.55481E-18
 -1      3718 9.52328E-05-2.85670E-05-2.85711E-05 3.89164E-09-2.16017E-18 1.07525E-18
 -1      3719 9.52318E-05-2.85665E-05-2.85708E-05 3.45392E-09-2.10953E-18 1.52951E-18
 -1      3720 9.52341E-05-2.85678E-05-2.85713E-05 3.04186E-09-2.77232E-19 9.66294E-19
 -1      3721 9.52337E-05-2.85676E-05-2.85712E-05 3.33931E-09-2.07532E-18 1.25086E-18
 -1      3722 9.52329E-05-2.85671E-05-2.85711E-05 3.02067E-09-1.93172E-18 4.14324E-19
 -1      3723 9.52348E-05-2.85683E-05-2.85713E-05 2.51110E-09 5.98848E-19 5.97195E-19
 -1      3724 9.52345E-05-2.85681E-05-2.85713E-05 2.79074E-09 1.34866E-18 1.07566E-18
 -1      3725 9.52338E-05-2.85676E-05-2.85712E-05 2.56258E-09 5.03336E-19-3.89498E-19
 -1      3726 9.52353E-05-2.85688E-05-2.85714E-05 2.02966E-09 1.59475E-18-2.00407E-18
 -1      3727 9.52351E-05-2.85686E-05-2.85714E-05 2.28040E-09 1.20136E-18-8.48448E-19
 -1      3728 9.52346E-05-2.85682E-05-2.85713E-05 2.11992E-09 1.52464E-18-8.53219E-19
 -1      3729 9.52358E-05-2.85693E-05-2.85714E-05 1.60909E-09 1.15162E-19-2.25280E-18
 -1      3730 9.52356E-05-2.85691E-05-2.85714E-05 1.82627E-09 5.00242E-19-2.71960E-18
 -1      3731 9.52352E-05-2.85687E-05-2.85713E-05 1.71580E-09 1.66314E-18-2.18402E-18
 -1      3732 9.52362E-05-2.85696E-05-2.85714E-05 1.25257E-09 1.12275E-18-3.01144E-18
 -1      3733 9.52360E-05-2.85695E-05-2.85714E-05 1.43470E-09 1.00542E-18-2.25633E-18
 -1      3734 9.52357E-05-2.85692E-05-2.85713E-05 1.36259E-09 5.82897E-19-2.02867E-18
 -1      3735 1.27049E-04-4.42661E-05-3.57982E-05-4.37484E-06-4.03836E-19 4.39824E-19
 -1      3736 1.28558E-04-4.86365E-05-3.39538E-05 3.02076E-06-3.74812E-19 1.03470E-19
 -1      3737 8.12088E-05-1.96980E-05-2.65471E-05 1.33559E-05-4.84040E-19-7.02831E-19
 -1      3738 8.44906E-05-2.09425E-05-2.71807E-05 1.04343E-05-1.00503E-18-5.93318E-19
 -1      3739 1.25058E-04-5.03914E-05-3.22648E-05 1.21451E-05-3.52736E-19-1.79816E-19
 -1      3740 1.20320E-04-4.90197E-05-3.02541E-05 2.01919E-05-3.65003E-19-1.36902E-19
 -1      3741 1.20063E-04-2.54139E-05-4.06286E-05 1.36480E-05 1.40885E-19 6.43427E-19
 -1      3742 1.19709E-04-2.21511E-05-4.19813E-05 1.41863E-05 3.35769E-19 6.55334E-19
 -1      3743 1.14849E-04-1.88797E-05-4.10620E-05 1.34003E-05 2.27779E-19 6.48079E-19
 -1      3744 8.57261E-05-2.16790E-05-2.75457E-05 7.93192E-06-7.88116E-19-4.43967E-19
 -1      3745 8.79357E-05-2.28260E-05-2.78797E-05 6.21083E-06-5.66186E-19 4.48334E-19
 -1      3746 8.76276E-05-2.35588E-05-2.74500E-05 1.13015E-05-6.48678E-19-8.56886E-19
 -1      3747 1.06398E-04-2.19725E-05-3.62009E-05 1.27079E-05 2.33976E-19 3.00803E-19
 -1      3748 1.07379E-04-2.26836E-05-3.63359E-05 1.31876E-05 2.21107E-19 2.84825E-19
 -1      3749 1.10861E-04-2.37335E-05-3.73528E-05 1.32885E-05 9.58603E-20 5.57231E-19
 -1      3750 9.52362E-05-2.85698E-05-2.85713E-05 6.29131E-10 1.30858E-18-2.78381E-18
 -1      3751 9.52363E-05-2.85698E-05-2.85713E-05 7.60161E-10 1.55510E-18-3.06037E-18
 -1      3752 1.10026E-04-1.11353E-05-4.25243E-05 4.43272E-06 4.64240E-19 4.25902E-19
 -1      3753 1.09401E-04-1.12855E-05-4.21119E-05-1.14863E-06 5.45675E-19 1.16512E-19
 -1      3754 9.52363E-05-2.85699E-05-2.85713E-05-7.70051E-10-8.13237E-19 2.23331E-18
 -1      3755 9.52362E-05-2.85698E-05-2.85713E-05-6.44378E-10-1.10039E-18 3.11640E-18
 -1      3756 9.52360E-05-2.85696E-05-2.85713E-05-6.24290E-10-1.07562E-18-1.55527E-19
 -1      3757 8.90057E-05-2.36470E-05-2.80779E-05 4.64889E-06-2.53761E-19 6.50886E-19
 -1      3758 9.05171E-05-2.45944E-05-2.82429E-05 3.67491E-06 3.82323E-19 4.39518E-19
 -1      3759 9.16840E-05-2.56514E-05-2.82741E-05 4.18931E-06-2.31276E-19-3.86186E-19
 -1      3760 1.19366E-04-2.88564E-05-3.90997E-05-1.23749E-05-4.49126E-20 5.89490E-20
 -1      3761 1.24345E-04-3.64083E-05-3.74219E-05-1.06861E-05-2.60860E-19 3.79960E-19
 -1      3762 9.59797E-05-2.95585E-05-2.84623E-05-2.77768E-07-1.96812E-19-6.59292E-20
 -1      3763 9.61543E-05-2.97609E-05-2.84528E-05-3.48630E-07-2.96070E-19 4.12766E-19
 -1      3764 9.59525E-05-2.95217E-05-2.84753E-05-1.38714E-07 3.05033E-19 3.85671E-20
 -1      3765 1.13919E-04-2.38632E-05-3.86530E-05 1.37201E-05 1.39197E-19 8.02282E-19
 -1      3766 1.18661E-04-2.59888E-05-3.96282E-05 1.33486E-05 1.05598E-20 7.48446E-19
 -1      3767 1.21663E-04-2.88343E-05-4.00953E-05 1.26811E-05-1.38821E-19 3.09458E-19
 -1      3768 1.12727E-04-2.23610E-05-3.87722E-05 1.37032E-05 1.59202E-19 8.37339E-19
 -1      3769 1.04460E-04-1.62284E-05-3.77898E-05 6.41835E-06 2.91204E-19 7.01302E-19
 -1      3770 1.02507E-04-1.78482E-05-3.62731E-05 7.32097E-06 3.45371E-19 3.86788E-19
 -1      3771 1.03384E-04-1.87555E-05-3.63342E-05 9.15120E-06 2.60549E-19 3.05468E-19
 -1      3772 8.98824E-05-2.45189E-05-2.79829E-05 6.89846E-06-3.22778E-20 7.28515E-20
 -1      3773 9.52364E-05-2.85700E-05-2.85713E-05-9.24339E-10-3.76821E-19 6.37876E-19
 -1      3774 9.52362E-05-2.85698E-05-2.85713E-05-9.58616E-10-9.84312E-19 2.28284E-18
 -1      3775 1.07514E-04-3.54965E-05-3.08725E-05-8.95483E-06 3.94733E-19 8.82952E-19
 -1      3776 1.07443E-04-3.43034E-05-3.13502E-05-9.85697E-06 4.79516E-19 1.03428E-18
 -1      3777 1.03296E-04-3.50734E-05-2.92408E-05-6.03746E-06-5.43616E-19 2.83177E-19
 -1      3778 9.52358E-05-2.85695E-05-2.85713E-05-2.30842E-10-4.54423E-19-6.20886E-19
 -1      3779 9.52360E-05-2.85696E-05-2.85713E-05-9.96425E-11 3.22814E-19 2.81466E-19
 -1      3780 9.52360E-05-2.85696E-05-2.85713E-05 7.38573E-11 2.18253E-19 3.71333E-19
 -1      3781 9.52366E-05-2.85702E-05-2.85713E-05-9.29371E-10 3.72175E-19 5.18452E-19
 -1      3782 1.09905E-04-1.38333E-05-4.12488E-05 7.00928E-06 2.78250E-19 6.06993E-19
 -1      3783 9.52365E-05-2.85700E-05-2.85713E-05 9.04632E-10 1.23311E-18-4.60223E-18
 -1      3784 1.07018E-04-2.43547E-05-3.54418E-05-1.04839E-05 3.22508E-19 7.06662E-19
 -1      3785 1.03485E-04-2.27676E-05-3.46554E-05-9.42146E-06 4.24205E-19 8.19699E-19
 -1      3786 1.02480E-04-2.03482E-05-3.51453E-05-7.50640E-06 3.84543E-19 7.29130E-19
 -1      3787 1.06404E-04-3.64377E-05-2.99687E-05-6.59137E-06 8.17958E-20 4.92090E-19
 -1      3788 1.06811E-04-3.60772E-05-3.03316E-05-7.63295E-06 4.44465E-19 8.56375E-19
 -1      3789 1.09509E-04-3.70852E-05-3.10185E-05-7.50745E-06 3.73282E-19 8.52588E-19
 -1      3790 1.13336E-04-4.50482E-05-2.92819E-05 2.12597E-05-2.91075E-19-1.44002E-19
 -1      3791 9.78595E-05-3.14116E-05-2.84923E-05-3.13824E-07-2.45272E-19 1.29414E-18
 -1      3792 9.79196E-05-3.14646E-05-2.84680E-05-7.88210E-07-5.39894E-19 1.53727E-18
 -1      3793 9.84069E-05-3.19374E-05-2.84866E-05-1.01589E-06-6.02656E-19 1.47087E-18
 -1      3794 1.23271E-04-4.76083E-05-3.24396E-05 6.48550E-06-2.95045E-19 1.81437E-19
 -1      3795 9.52362E-05-2.85698E-05-2.85713E-05 1.04423E-09 5.81902E-19-3.93007E-18
 -1      3796 9.52360E-05-2.85695E-05-2.85713E-05 9.87672E-10 1.85737E-18-1.67803E-18
 -1      3797 1.22321E-04-3.96153E-05-3.54729E-05-7.36802E-06-1.46130E-19 6.19247E-19
 -1      3798 9.40548E-05-3.30935E-05-2.59042E-05 2.97263E-05-4.34938E-19-9.52204E-19
 -1      3799 8.81615E-05-2.87473E-05-2.55453E-05 2.82598E-05-3.06785E-20-1.51956E-18
 -1      3800 1.00412E-04-3.71429E-05-2.70743E-05 2.67346E-05-3.47853E-19-7.24461E-20
 -1      3801 1.08639E-04-1.46553E-05-4.03326E-05-4.04255E-06 5.38409E-19 5.51124E-19
 -1      3802 1.02549E-04-3.50164E-05-2.89163E-05-2.93319E-06-7.41247E-19 7.00856E-19
 -1      3803 1.03335E-04-3.55242E-05-2.90757E-05-3.64275E-06-7.98199E-19 2.19199E-19
 -1      3804 1.02785E-04-3.52932E-05-2.89504E-05-1.70434E-06-6.97858E-19 3.65707E-19
 -1      3805 1.10514E-04-1.92624E-05-3.91110E-05 1.17614E-05 1.57429E-19 8.09545E-19
 -1      3806 1.09274E-04-1.65295E-05-3.98645E-05 1.05650E-05 2.08596E-19 6.13158E-19
 -1      3807 1.07599E-04-1.95660E-05-3.76847E-05 1.15246E-05 1.93479E-19 6.43533E-19
 -1      3808 7.87545E-05-1.92857E-05-2.53125E-05 1.98875E-05-2.62051E-21-7.29732E-19
 -1      3809 8.43329E-05-2.32388E-05-2.59624E-05 2.05454E-05-2.06001E-19-1.47290E-18
 -1      3810 9.91244E-05-3.25095E-05-2.85317E-05-1.20088E-06-4.50019E-19 1.12863E-18
 -1      3811 9.97470E-05-3.30692E-05-2.85786E-05-1.54373E-06-3.36123E-19 9.24415E-19
 -1      3812 1.00725E-04-3.38180E-05-2.86974E-05-9.37408E-07-5.82992E-19 3.65912E-19
 -1      3813 9.90871E-05-3.24940E-05-2.85591E-05-5.21392E-07-8.79542E-19 1.56236E-18
 -1      3814 1.01430E-04-1.82856E-05-3.56700E-05-4.53867E-06 4.66629E-19 4.64471E-19
 -1      3815 1.01120E-04-1.71622E-05-3.59675E-05-1.65361E-06 5.38591E-19 4.56685E-19
 -1      3816 1.03480E-04-1.59041E-05-3.75859E-05 3.64884E-07 5.28239E-19 5.55641E-19
 -1      3817 1.04415E-04-1.84584E-05-3.68343E-05-6.41033E-06 2.61014E-19 7.39804E-19
 -1      3818 1.05509E-04-2.08543E-05-3.62481E-05 1.16026E-05 2.42228E-19 2.70275E-19
 -1      3819 9.63662E-05-2.99632E-05-2.84658E-05-1.67152E-07-5.54055E-19 4.31771E-19
 -1      3820 1.15054E-04-2.54960E-05-3.84714E-05-1.14689E-05 1.63967E-19 1.14442E-19
 -1      3821 1.06777E-04-3.06583E-05-3.26002E-05-1.12853E-05 2.37712E-19 1.11928E-18
 -1      3822 1.09335E-04-3.02515E-05-3.38658E-05-1.16479E-05 1.64892E-19 1.17418E-18
 -1      3823 1.07409E-04-3.27556E-05-3.20349E-05-1.09358E-05 4.10875E-19 1.07353E-18
 -1      3824 9.52360E-05-2.85696E-05-2.85713E-05 2.80957E-10 1.33348E-18 1.73421E-19
 -1      3825 9.52361E-05-2.85697E-05-2.85713E-05 4.45997E-10 1.29694E-18-1.77523E-18
 -1      3826 9.52360E-05-2.85696E-05-2.85713E-05 5.98870E-10 1.80293E-18-3.18063E-18
 -1      3827 9.52358E-05-2.85694E-05-2.85713E-05 1.94934E-10 5.91348E-20-4.03693E-19
 -1      3828 1.14165E-04-4.49387E-05-2.98784E-05 1.61053E-05-8.90410E-20 1.41282E-19
 -1      3829 1.07747E-04-4.10577E-05-2.84444E-05 2.16146E-05-1.41941E-19-7.92398E-20
 -1      3830 1.10262E-04-3.47937E-05-3.23171E-05-1.00688E-05 6.25247E-19 1.08894E-18
 -1      3831 1.04577E-04-3.60781E-05-2.93308E-05-4.50242E-06-8.56591E-19 2.07765E-19
 -1      3832 1.05267E-04-3.62864E-05-2.95819E-05-5.42617E-06-4.97721E-19 1.21186E-19
 -1      3833 1.05179E-04-3.66892E-05-2.93763E-05-3.00885E-06-8.67061E-19 6.54033E-20
 -1      3834 9.40553E-05-2.76473E-05-2.84804E-05 1.98609E-06-1.21663E-19-8.37457E-19
 -1      3835 9.44320E-05-2.79044E-05-2.85050E-05 1.56957E-06-2.42520E-19-6.52469E-19
 -1      3836 9.45725E-05-2.80600E-05-2.85182E-05 1.20806E-06 4.42913E-20 1.39506E-20
 -1      3837 9.47957E-05-2.82220E-05-2.85282E-05 9.71265E-07-2.91865E-19-2.03662E-19
 -1      3838 9.47820E-05-2.82595E-05-2.85043E-05 1.59748E-06 3.87955E-19-1.38292E-18
 -1      3839 9.48872E-05-2.83247E-05-2.85346E-05 7.44809E-07-8.39519E-19 2.98575E-19
 -1      3840 9.50201E-05-2.84255E-05-2.85387E-05 6.01256E-07-2.95281E-19-1.97513E-20
 -1      3841 9.50044E-05-2.84398E-05-2.85240E-05 9.85477E-07-2.41649E-19-7.62786E-19
 -1      3842 9.50734E-05-2.84868E-05-2.85419E-05 4.60478E-07-7.60294E-20 1.47681E-19
 -1      3843 9.51481E-05-2.85439E-05-2.85436E-05 3.72354E-07-3.73113E-19 2.20728E-19
 -1      3844 9.51410E-05-2.85563E-05-2.85339E-05 6.04242E-07-4.40047E-19-1.10734E-18
 -1      3845 9.51755E-05-2.85761E-05-2.85455E-05 2.85016E-07-1.02733E-18 4.46161E-19
 -1      3846 9.52147E-05-2.86046E-05-2.85465E-05 2.30137E-07-8.64525E-19 6.00168E-19
 -1      3847 9.52162E-05-2.86207E-05-2.85395E-05 3.68191E-07-5.31620E-19 3.26058E-20
 -1      3848 9.52260E-05-2.86180E-05-2.85480E-05 1.75952E-07-6.98278E-19 8.76483E-19
 -1      3849 9.52445E-05-2.86292E-05-2.85489E-05 1.41233E-07-3.33255E-19 7.36707E-19
 -1      3850 9.52516E-05-2.86486E-05-2.85433E-05 2.22481E-07-4.43290E-19 5.14450E-19
 -1      3851 9.52470E-05-2.86317E-05-2.85504E-05 1.07600E-07-8.77841E-19 7.43201E-20
 -1      3852 9.52541E-05-2.86332E-05-2.85515E-05 8.53152E-08-8.92994E-19-1.23921E-19
 -1      3853 9.52634E-05-2.86536E-05-2.85467E-05 1.32687E-07-9.64335E-19 5.97784E-19
 -1      3854 9.52523E-05-2.86299E-05-2.85530E-05 6.44507E-08-1.22131E-18-1.82205E-19
 -1      3855 9.52537E-05-2.86265E-05-2.85542E-05 4.99936E-08-1.39422E-18 6.87519E-20
 -1      3856 9.52629E-05-2.86460E-05-2.85499E-05 7.74293E-08-9.96428E-19-7.15385E-19
 -1      3857 9.52502E-05-2.86209E-05-2.85557E-05 3.70914E-08-6.23054E-19 7.77254E-19
 -1      3858 9.52491E-05-2.86157E-05-2.85570E-05 2.76719E-08 2.82984E-19 2.26721E-19
 -1      3859 9.52569E-05-2.86328E-05-2.85532E-05 4.35078E-08-6.48479E-19 2.88469E-19
 -1      3860 9.52454E-05-2.86096E-05-2.85584E-05 1.97583E-08 3.34887E-19-7.83605E-19
 -1      3861 9.52436E-05-2.86041E-05-2.85596E-05 1.36468E-08-4.90137E-19-1.34332E-18
 -1      3862 9.52495E-05-2.86182E-05-2.85563E-05 2.27953E-08-5.91529E-19-2.83409E-19
 -1      3863 9.52405E-05-2.85985E-05-2.85609E-05 8.87246E-09-8.87816E-19 1.22434E-19
 -1      3864 9.52387E-05-2.85937E-05-2.85620E-05 4.96801E-09-1.00976E-18 3.00518E-19
 -1      3865 9.52426E-05-2.86047E-05-2.85591E-05 1.02841E-08 5.85213E-19 5.39410E-19
 -1      3866 9.52364E-05-2.85891E-05-2.85632E-05 2.17477E-09-8.33741E-19 3.99248E-19
 -1      3867 9.52350E-05-2.85852E-05-2.85641E-05-2.42783E-10-6.10746E-19 5.21732E-19
 -1      3868 9.52372E-05-2.85933E-05-2.85617E-05 2.87921E-09-7.34995E-19 9.63288E-19
 -1      3869 9.52334E-05-2.85816E-05-2.85651E-05-1.78658E-09-9.86104E-19 1.08496E-18
 -1      3870 9.52325E-05-2.85786E-05-2.85659E-05-3.20056E-09-4.68825E-19 1.17262E-18
 -1      3871 9.52334E-05-2.85844E-05-2.85639E-05-1.34234E-09-6.05596E-19 1.79350E-18
 -1      3872 9.52317E-05-2.85761E-05-2.85667E-05-3.96107E-09-7.44215E-19 6.65176E-19
 -1      3873 9.52311E-05-2.85740E-05-2.85673E-05-4.70557E-09-1.96957E-18 3.55906E-19
 -1      3874 9.52310E-05-2.85778E-05-2.85657E-05-3.58352E-09-1.05921E-18 9.31082E-19
 -1      3875 9.52308E-05-2.85721E-05-2.85680E-05-4.99221E-09-2.03373E-18 1.60167E-18
 -1      3876 9.52306E-05-2.85707E-05-2.85685E-05-5.29287E-09-1.27296E-18 1.99095E-18
 -1      3877 9.52299E-05-2.85730E-05-2.85672E-05-4.61053E-09-1.19906E-18 5.59972E-19
 -1      3878 9.52307E-05-2.85696E-05-2.85690E-05-5.26481E-09-1.49256E-18 1.62919E-18
 -1      3879 9.52307E-05-2.85688E-05-2.85694E-05-5.27099E-09-2.19826E-18 2.16750E-19
 -1      3880 9.52296E-05-2.85699E-05-2.85684E-05-4.87885E-09-1.64241E-18 1.32446E-18
 -1      3881 9.52310E-05-2.85682E-05-2.85698E-05-5.08695E-09-2.66661E-18 2.64402E-19
 -1      3882 9.52312E-05-2.85678E-05-2.85700E-05-4.92677E-09-1.72777E-18-7.88946E-19
 -1      3883 9.52299E-05-2.85682E-05-2.85693E-05-4.70534E-09-2.22465E-18 8.88319E-19
 -1      3884 9.52316E-05-2.85675E-05-2.85703E-05-4.66197E-09-3.21602E-19-5.07318E-19
 -1      3885 9.52319E-05-2.85674E-05-2.85705E-05-4.41156E-09 4.70216E-19 4.78594E-19
 -1      3886 9.52305E-05-2.85673E-05-2.85700E-05-4.30237E-09-7.46402E-19 1.76249E-18
 -1      3887 9.52323E-05-2.85673E-05-2.85707E-05-4.11618E-09 1.61898E-18 9.68233E-19
 -1      3888 9.52326E-05-2.85674E-05-2.85708E-05-3.82651E-09 2.87295E-18 1.56262E-18
 -1      3889 9.52313E-05-2.85670E-05-2.85704E-05-3.79172E-09 1.98861E-18 1.30048E-18
 -1      3890 9.52331E-05-2.85675E-05-2.85710E-05-3.53158E-09 1.57796E-18 1.54837E-18
 -1      3891 9.52334E-05-2.85676E-05-2.85711E-05-3.23587E-09-2.56255E-19 1.50611E-18
 -1      3892 9.52322E-05-2.85671E-05-2.85708E-05-3.24987E-09 1.72593E-18-2.80670E-19
 -1      3893 9.52338E-05-2.85678E-05-2.85711E-05-2.95960E-09 9.65783E-20 2.27200E-18
 -1      3894 9.52341E-05-2.85680E-05-2.85712E-05-2.67841E-09 1.11630E-18 1.48498E-18
 -1      3895 9.52331E-05-2.85674E-05-2.85710E-05-2.72312E-09 7.26093E-19 1.75821E-18
 -1      3896 9.52345E-05-2.85682E-05-2.85713E-05-2.43047E-09 6.78225E-19 2.52369E-18
 -1      3897 9.52347E-05-2.85684E-05-2.85713E-05-2.17542E-09 6.00583E-19 2.76765E-18
 -1      3898 9.52339E-05-2.85678E-05-2.85712E-05-2.23786E-09 1.65599E-18 3.31411E-18
 -1      3899 9.52350E-05-2.85687E-05-2.85713E-05-1.95993E-09 3.13812E-19 3.77893E-18
 -1      3900 9.52353E-05-2.85689E-05-2.85713E-05-1.73660E-09 3.41378E-19 4.84740E-18
 -1      3901 9.52345E-05-2.85683E-05-2.85712E-05-1.80723E-09 1.33444E-18 4.69487E-18
 -1      3902 9.52355E-05-2.85691E-05-2.85713E-05-1.55301E-09 1.08964E-18 4.56101E-18
 -1      3903 9.52357E-05-2.85693E-05-2.85713E-05-1.36551E-09 2.75818E-18 4.10885E-18
 -1      3904 9.52351E-05-2.85688E-05-2.85713E-05-1.43535E-09 9.62902E-19 4.36404E-18
 -1      3905 9.52359E-05-2.85694E-05-2.85713E-05-1.22822E-09 2.12641E-18 3.55794E-18
 -1      3906 9.52361E-05-2.85696E-05-2.85713E-05-1.06978E-09 1.63867E-19 2.44670E-18
 -1      3907 9.52359E-05-2.85695E-05-2.85713E-05-9.08883E-10-7.06708E-19 2.76953E-18
 -1      3908 9.52356E-05-2.85692E-05-2.85713E-05-1.13653E-09 1.43207E-18 2.56617E-18
 -1      3909 9.22897E-05-2.64679E-05-2.82513E-05 5.24520E-06-3.19326E-19-5.83341E-19
 -1      3910 9.30669E-05-2.68641E-05-2.83503E-05 4.15792E-06-7.91217E-19-1.10255E-18
 -1      3911 9.54793E-05-2.89514E-05-2.85111E-05-3.63070E-08-1.36125E-18 1.69238E-19
 -1      3912 9.55504E-05-2.90369E-05-2.85042E-05-4.21622E-08-9.00020E-19-5.62979E-20
 -1      3913 9.56400E-05-2.91404E-05-2.84985E-05-2.33577E-08 9.48732E-20 2.50490E-19
 -1      3914 9.57509E-05-2.92652E-05-2.84915E-05-2.69575E-08 4.30899E-19 5.19785E-19
 -1      3915 9.55992E-05-2.90917E-05-2.85059E-05 3.94577E-08-4.41878E-19 5.53172E-19
 -1      3916 9.53131E-05-2.87347E-05-2.85332E-05-3.43382E-08-4.92426E-19 4.83136E-20
 -1      3917 9.53405E-05-2.87740E-05-2.85280E-05-4.14824E-08-2.70907E-19-3.50875E-19
 -1      3918 9.52737E-05-2.86755E-05-2.85418E-05-2.75359E-08-6.11771E-19 7.68606E-20
 -1      3919 9.52902E-05-2.87019E-05-2.85375E-05-3.40802E-08-4.97932E-19-3.41278E-19
 -1      3920 9.53067E-05-2.87237E-05-2.85362E-05-1.89026E-08-1.31615E-19-6.23132E-20
 -1      3921 9.52502E-05-2.86358E-05-2.85488E-05-2.01706E-08 5.78276E-19 3.84140E-19
 -1      3922 9.52597E-05-2.86535E-05-2.85454E-05-2.57224E-08-3.52616E-19-1.30184E-19
 -1      3923 9.52707E-05-2.86692E-05-2.85439E-05-1.82821E-08-2.48851E-19-8.09776E-19
 -1      3924 9.52367E-05-2.86094E-05-2.85544E-05-1.34529E-08 6.19787E-19 8.89227E-19
 -1      3925 9.52419E-05-2.86211E-05-2.85517E-05-1.78810E-08 1.10499E-18 1.17713E-18
 -1      3926 9.52489E-05-2.86323E-05-2.85502E-05-1.49051E-08 4.44706E-19 1.20351E-19
 -1      3927 9.52295E-05-2.85921E-05-2.85588E-05-7.92693E-09-2.65686E-19 1.33824E-18
 -1      3928 9.52320E-05-2.85997E-05-2.85567E-05-1.12713E-08-2.67589E-19 1.33376E-18
 -1      3929 9.52362E-05-2.86074E-05-2.85553E-05-1.07419E-08 2.57421E-19 1.50013E-18
 -1      3930 9.52261E-05-2.85809E-05-2.85622E-05-3.72378E-09-7.77683E-19 1.17116E-18
 -1      3931 9.52270E-05-2.85857E-05-2.85606E-05-6.11843E-09-3.37680E-21 1.27820E-18
 -1      3932 9.52293E-05-2.85909E-05-2.85593E-05-6.82664E-09-6.28905E-19 1.36925E-18
 -1      3933 9.52250E-05-2.85739E-05-2.85647E-05-7.47521E-10-2.02703E-20 1.54239E-18
 -1      3934 9.52251E-05-2.85769E-05-2.85635E-05-2.36432E-09-9.08944E-19 1.99871E-18
 -1      3935 9.52260E-05-2.85802E-05-2.85625E-05-3.61018E-09-9.82189E-19 9.23769E-19
 -1      3936 9.52252E-05-2.85696E-05-2.85667E-05 1.20095E-09-3.19272E-20 1.93400E-18
 -1      3937 9.52248E-05-2.85714E-05-2.85658E-05 1.87227E-10 8.73462E-20 1.55179E-18
 -1      3938 9.52249E-05-2.85734E-05-2.85649E-05-1.20881E-09 2.50437E-19 1.59924E-18
 -1      3939 9.52262E-05-2.85673E-05-2.85681E-05 2.34845E-09-2.89174E-19 1.67960E-18
 -1      3940 9.52256E-05-2.85683E-05-2.85675E-05 1.78075E-09-1.41484E-19 1.80084E-18
 -1      3941 9.52251E-05-2.85693E-05-2.85668E-05 4.35693E-10 1.53593E-19 1.81038E-18
 -1      3942 9.52275E-05-2.85662E-05-2.85691E-05 2.90882E-09-1.14917E-18 1.73429E-18
 -1      3943 9.52268E-05-2.85666E-05-2.85687E-05 2.65528E-09 3.45513E-20 1.70906E-18
 -1      3944 9.52261E-05-2.85671E-05-2.85681E-05 1.45422E-09-3.34258E-19 1.50593E-18
 -1      3945 9.52289E-05-2.85658E-05-2.85699E-05 3.06389E-09-9.22529E-19 1.30274E-18
 -1      3946 9.52282E-05-2.85659E-05-2.85696E-05 3.02005E-09-1.45319E-18 1.68170E-18
 -1      3947 9.52274E-05-2.85660E-05-2.85691E-05 1.99542E-09-9.91053E-19 8.33082E-19
 -1      3948 9.52303E-05-2.85660E-05-2.85704E-05 2.95793E-09-2.10600E-18 2.51830E-18
 -1      3949 9.52296E-05-2.85659E-05-2.85702E-05 3.04474E-09-1.49592E-18 1.30139E-18
 -1      3950 9.52288E-05-2.85657E-05-2.85699E-05 2.19704E-09-1.39818E-18 2.28535E-18
 -1      3951 9.52315E-05-2.85664E-05-2.85708E-05 2.69921E-09-1.41450E-18 7.95692E-19
 -1      3952 9.52310E-05-2.85662E-05-2.85706E-05 2.85934E-09-1.36191E-18 1.59657E-18
 -1      3953 9.52301E-05-2.85659E-05-2.85704E-05 2.17361E-09-1.39361E-18 2.39467E-18
 -1      3954 9.52326E-05-2.85670E-05-2.85710E-05 2.36503E-09-1.10009E-18-7.99141E-19
 -1      3955 9.52321E-05-2.85667E-05-2.85709E-05 2.55866E-09-2.06090E-18-4.33541E-19
 -1      3956 9.52314E-05-2.85663E-05-2.85707E-05 2.01372E-09-7.88684E-19-2.06994E-19
 -1      3957 9.52336E-05-2.85676E-05-2.85712E-05 2.00772E-09 1.74122E-18-5.14951E-19
 -1      3958 9.52332E-05-2.85673E-05-2.85711E-05 2.20854E-09-2.59882E-19-4.71190E-19
 -1      3959 9.52325E-05-2.85669E-05-2.85710E-05 1.78196E-09-5.78846E-19-1.47320E-18
 -1      3960 9.52344E-05-2.85681E-05-2.85713E-05 1.66053E-09 2.11256E-18-1.27222E-18
 -1      3961 9.52340E-05-2.85679E-05-2.85712E-05 1.85226E-09 2.02124E-18-4.05114E-19
 -1      3962 9.52335E-05-2.85675E-05-2.85711E-05 1.52288E-09 2.18789E-18-1.05634E-18
 -1      3963 9.52350E-05-2.85687E-05-2.85713E-05 1.34312E-09 1.69535E-18-1.91669E-18
 -1      3964 9.52348E-05-2.85684E-05-2.85713E-05 1.51641E-09 2.64148E-18-1.36890E-18
 -1      3965 9.52343E-05-2.85681E-05-2.85712E-05 1.26539E-09 2.60243E-18-1.18253E-18
 -1      3966 9.52356E-05-2.85692E-05-2.85713E-05 1.06485E-09 7.46140E-19-3.47847E-18
 -1      3967 9.52354E-05-2.85689E-05-2.85713E-05 1.21361E-09 5.72440E-19-3.31747E-18
 -1      3968 9.52350E-05-2.85687E-05-2.85713E-05 1.02766E-09 2.12257E-18-2.34181E-18
 -1      3969 9.52364E-05-2.85700E-05-2.85713E-05 1.00196E-09 1.29872E-18-3.65358E-18
 -1      3970 1.17747E-04-3.60141E-05-3.51377E-05-1.02881E-05 5.46204E-20 5.11107E-19
 -1      3971 1.20882E-04-4.18377E-05-3.38156E-05-5.39345E-06 7.48962E-20 6.90976E-19
 -1      3972 9.52358E-05-2.85694E-05-2.85713E-05 7.10147E-10 1.24946E-18-3.13859E-18
 -1      3973 9.52357E-05-2.85693E-05-2.85713E-05 9.21093E-10 1.66190E-18-2.91890E-18
 -1      3974 9.52354E-05-2.85691E-05-2.85713E-05 7.72854E-10 1.24553E-18-3.16445E-18
 -1      3975 9.52357E-05-2.85693E-05-2.85713E-05 5.17323E-10 1.14671E-18-2.33902E-18
 -1      3976 9.53771E-05-2.88223E-05-2.85229E-05-3.83999E-08-5.36689E-19-3.61055E-19
 -1      3977 9.54218E-05-2.88805E-05-2.85167E-05-4.54186E-08-1.09935E-18-1.25784E-19
 -1      3978 9.53645E-05-2.88037E-05-2.85271E-05-1.34004E-08-4.31076E-19-2.14819E-19
 -1      3979 1.21153E-04-4.55535E-05-3.25277E-05 1.72927E-06 1.16507E-19 4.29193E-19
 -1      3980 1.19793E-04-4.64975E-05-3.11463E-05 9.26140E-06 1.66637E-19 2.57955E-19
 -1      3981 9.68394E-05-3.03730E-05-2.84800E-05 1.25198E-07-7.40906E-19 7.40996E-19
 -1      3982 9.72116E-05-3.07307E-05-2.84860E-05 1.18203E-07-6.55991E-20 1.12906E-18
 -1      3983 8.99523E-05-2.58284E-05-2.74639E-05 1.33055E-05-1.79118E-19-9.46136E-19
 -1      3984 9.11950E-05-2.60741E-05-2.78273E-05 1.03664E-05-3.77819E-19-5.84278E-19
 -1      3985 9.11135E-05-2.59396E-05-2.79776E-05 8.39135E-06-1.57698E-20-5.72466E-19
 -1      3986 9.20982E-05-2.62969E-05-2.81600E-05 6.63692E-06 2.13079E-19-5.84929E-19
 -1      3987 9.33916E-05-2.80135E-05-2.80371E-05 1.00029E-05-9.73112E-20-1.05193E-18
 -1      3988 9.33014E-05-2.70991E-05-2.84021E-05 3.24637E-06-5.74100E-19-1.26123E-18
 -1      3989 9.38512E-05-2.74323E-05-2.84525E-05 2.58162E-06-5.26956E-19-9.63914E-19
 -1      3990 9.40288E-05-2.77745E-05-2.83893E-05 4.14743E-06-7.13527E-19-9.00270E-19
 -1      3991 9.52358E-05-2.85694E-05-2.85713E-05-6.94094E-10-3.45689E-19 4.09275E-19
 -1      3992 9.52357E-05-2.85693E-05-2.85713E-05-5.03435E-10-4.42364E-19-2.32469E-18
 -1      3993 9.52356E-05-2.85692E-05-2.85713E-05-7.91035E-10 6.47425E-19 1.76479E-19
 -1      3994 9.58888E-05-2.94153E-05-2.84866E-05 5.88370E-09-6.76344E-20 1.77612E-19
 -1      3995 9.60586E-05-2.95955E-05-2.84808E-05 4.93139E-09-2.27331E-19-1.51542E-19
 -1      3996 9.58204E-05-2.93402E-05-2.84957E-05 1.04454E-07-2.90935E-21 4.35670E-19
 -1      3997 1.09828E-04-2.31830E-05-3.72228E-05-1.09291E-05 3.01858E-19 4.75505E-19
 -1      3998 1.13145E-04-2.95122E-05-3.57711E-05-1.20381E-05 7.56705E-20 6.30172E-19
 -1      3999 9.62687E-05-2.98110E-05-2.84784E-05 5.57383E-08-2.43405E-19 1.55022E-19
 -1      4000 9.65231E-05-3.00675E-05-2.84763E-05 5.54713E-08-7.54163E-19 4.81899E-19
 -1      4001 9.61593E-05-2.97000E-05-2.84890E-05 2.09792E-07-1.82178E-19 1.38452E-19
 -1      4002 1.14266E-04-3.30992E-05-3.48164E-05-1.14857E-05-1.46014E-20 8.06003E-19
 -1      4003 1.13443E-04-3.75075E-05-3.25613E-05-8.60843E-06 5.55032E-19 8.33509E-19
 -1      4004 1.13354E-04-3.56747E-05-3.33137E-05-9.69896E-06 3.72354E-19 9.72189E-19
 -1      4005 9.44521E-05-2.80214E-05-2.84646E-05 2.58918E-06-2.60055E-19-1.47680E-18
 -1      4006 9.52356E-05-2.85693E-05-2.85713E-05-2.53619E-10-2.70060E-19-1.23115E-18
 -1      4007 9.52356E-05-2.85692E-05-2.85713E-05-3.17404E-11 4.10923E-20-6.14340E-19
 -1      4008 9.52354E-05-2.85691E-05-2.85713E-05-3.04150E-10-4.03570E-19-9.52610E-19
 -1      4009 9.54561E-05-2.89208E-05-2.85168E-05 3.50765E-09-6.20115E-19-2.25758E-19
 -1      4010 1.14151E-04-4.37221E-05-3.02091E-05 1.10136E-05 2.25810E-19 3.94206E-19
 -1      4011 1.07601E-04-3.75051E-05-3.00455E-05-4.97121E-06-5.05469E-20 3.22726E-19
 -1      4012 9.76800E-05-3.11552E-05-2.85015E-05 1.99657E-07 4.78108E-20 6.54839E-19
 -1      4013 9.82085E-05-3.16399E-05-2.85229E-05 1.68048E-07-4.79725E-19 8.65342E-19
 -1      4014 9.74389E-05-3.09489E-05-2.85101E-05 5.69311E-07-4.79277E-19 4.81472E-19
 -1      4015 1.11760E-04-3.91732E-05-3.10833E-05-5.39963E-06 6.47634E-19 9.45516E-19
 -1      4016 1.12440E-04-3.85667E-05-3.16844E-05-6.76810E-06 7.76878E-19 1.08835E-18
 -1      4017 1.15758E-04-3.95256E-05-3.26274E-05-6.71427E-06 5.70821E-19 1.13457E-18
 -1      4018 1.03665E-04-3.84871E-05-2.79969E-05 2.27198E-05-3.88351E-19 1.02733E-19
 -1      4019 9.87530E-05-3.46860E-05-2.74112E-05 2.27876E-05-3.64926E-19-1.73000E-19
 -1      4020 1.05707E-04-3.87028E-05-2.86626E-05 1.74871E-05-3.19140E-19 3.52258E-19
 -1      4021 9.35209E-05-2.92941E-05-2.74902E-05 1.71426E-05-2.17449E-20-6.34151E-19
 -1      4022 9.70972E-05-3.20307E-05-2.79437E-05 1.55886E-05 3.58095E-20-2.21314E-19
 -1      4023 1.02782E-04-3.52344E-05-2.89185E-05-2.21980E-07-6.06006E-19 3.58716E-19
 -1      4024 1.03930E-04-3.60732E-05-2.90848E-05-6.35835E-07-6.85705E-19 4.39598E-19
 -1      4025 1.05869E-04-1.46843E-05-3.90814E-05 5.64036E-06 4.05993E-19 7.89024E-19
 -1      4026 1.04921E-04-1.43144E-05-3.88650E-05-8.73023E-07 5.57824E-19 7.54009E-19
 -1      4027 1.07065E-04-1.66045E-05-3.87566E-05-6.33661E-06 4.12882E-19 5.51301E-19
 -1      4028 9.66724E-05-3.02167E-05-2.84908E-05 3.64780E-07-2.79464E-19 9.54657E-19
 -1      4029 1.00564E-04-3.35822E-05-2.86848E-05 1.48875E-07-9.86019E-19 6.50428E-19
 -1      4030 1.01503E-04-3.43480E-05-2.87792E-05-6.16760E-08-8.23913E-19 1.28043E-19
 -1      4031 1.02382E-04-3.50585E-05-2.88881E-05 9.84588E-07-6.08441E-19 4.10987E-19
 -1      4032 1.19698E-04-4.32286E-05-3.27573E-05-3.09287E-06 2.21274E-19 7.15596E-19
 -1      4033 1.16420E-04-4.28934E-05-3.15670E-05-1.78385E-07 4.49797E-19 8.17337E-19
 -1      4034 9.36104E-05-2.76752E-05-2.82568E-05 6.51460E-06-4.40729E-19-1.31391E-18
 -1      4035 1.08404E-04-1.96520E-05-3.80377E-05-9.38683E-06 4.56670E-19 4.17705E-19
 -1      4036 9.49058E-05-2.85361E-05-2.84617E-05 2.96246E-06-2.89993E-19-5.45234E-19
 -1      4037 9.50958E-05-2.85908E-05-2.84873E-05 2.33469E-06-1.23221E-19-5.13864E-19
 -1      4038 1.05523E-04-3.70181E-05-2.93237E-05-1.06904E-06-9.18657E-19 9.15007E-20
 -1      4039 1.06791E-04-3.77804E-05-2.95940E-05-1.76917E-06-7.79431E-19 2.37769E-19
 -1      4040 1.05213E-04-3.70423E-05-2.92676E-05 5.34890E-07-8.77870E-19 4.04694E-20
 -1      4041 9.54219E-05-2.88685E-05-2.85227E-05 3.77970E-08-9.78262E-19-8.26379E-19
 -1      4042 9.54788E-05-2.89340E-05-2.85175E-05 5.37670E-08-8.12137E-19-7.38664E-19
 -1      4043 9.51551E-05-2.86372E-05-2.85163E-05 1.14325E-06 2.37656E-19-9.85926E-19
 -1      4044 9.52423E-05-2.86758E-05-2.85231E-05 9.00063E-07-4.35995E-19-2.79437E-19
 -1      4045 9.52293E-05-2.86795E-05-2.85270E-05 7.00000E-07-6.44012E-19-4.43795E-20
 -1      4046 9.52801E-05-2.87007E-05-2.85307E-05 5.48911E-07-2.52245E-19-2.65509E-19
 -1      4047 9.53923E-05-2.88455E-05-2.85202E-05 8.28264E-07 1.42008E-19 2.52508E-19
 -1      4048 9.52688E-05-2.86987E-05-2.85336E-05 4.23481E-07-5.06872E-19 1.94855E-19
 -1      4049 9.52948E-05-2.87059E-05-2.85360E-05 3.30223E-07-5.44255E-19 6.62230E-19
 -1      4050 9.53658E-05-2.88022E-05-2.85273E-05 5.00382E-07-2.00805E-19 7.11304E-19
 -1      4051 9.52834E-05-2.86987E-05-2.85385E-05 2.52743E-07-2.91384E-19 4.91601E-19
 -1      4052 9.52941E-05-2.86967E-05-2.85404E-05 1.95425E-07-1.71429E-19 6.45317E-19
 -1      4053 9.53413E-05-2.87643E-05-2.85330E-05 2.96356E-07-4.18480E-19 1.02135E-18
 -1      4054 9.52829E-05-2.86862E-05-2.85427E-05 1.48240E-07-1.17708E-18 6.10241E-20
 -1      4055 9.52850E-05-2.86791E-05-2.85446E-05 1.13124E-07-1.43488E-18-1.28665E-19
 -1      4056 9.53175E-05-2.87286E-05-2.85382E-05 1.71446E-07-1.25806E-18 6.71185E-19
 -1      4057 9.52748E-05-2.86675E-05-2.85467E-05 8.48077E-08-1.03317E-18-4.02294E-19
 -1      4058 9.52727E-05-2.86583E-05-2.85485E-05 6.33622E-08-4.07927E-19 4.75941E-19
 -1      4059 9.52955E-05-2.86953E-05-2.85430E-05 9.61876E-08-1.44686E-18 1.11185E-18
 -1      4060 9.52640E-05-2.86470E-05-2.85506E-05 4.66518E-08-4.35860E-19 4.20706E-19
 -1      4061 9.52604E-05-2.86376E-05-2.85523E-05 3.36142E-08-1.54287E-20 6.36827E-19
 -1      4062 9.52762E-05-2.86655E-05-2.85475E-05 5.16080E-08-5.90688E-19 5.42261E-19
 -1      4063 9.52535E-05-2.86276E-05-2.85542E-05 2.39560E-08-4.35308E-19-1.70305E-19
 -1      4064 9.52498E-05-2.86192E-05-2.85557E-05 1.60918E-08-3.19441E-19-2.01952E-19
 -1      4065 9.52605E-05-2.86401E-05-2.85517E-05 2.57134E-08-4.00886E-19-2.49032E-19
 -1      4066 9.52446E-05-2.86109E-05-2.85574E-05 1.06670E-08 6.69419E-19-6.66367E-21
 -1      4067 9.52415E-05-2.86038E-05-2.85588E-05 5.99012E-09 6.50902E-19 4.96452E-19
 -1      4068 9.52483E-05-2.86192E-05-2.85554E-05 1.10389E-08-6.06654E-20 4.23829E-19
 -1      4069 9.52379E-05-2.85973E-05-2.85603E-05 3.07295E-09-3.72327E-19-1.02078E-19
 -1      4070 9.52355E-05-2.85918E-05-2.85615E-05 3.62139E-10-1.14657E-18-2.66165E-19
 -1      4071 9.52396E-05-2.86028E-05-2.85587E-05 3.00433E-09-5.40845E-19-1.45412E-18
 -1      4072 9.52332E-05-2.85868E-05-2.85628E-05-1.09252E-09-1.16028E-18 2.14748E-19
 -1      4073 9.52317E-05-2.85827E-05-2.85638E-05-2.59074E-09-5.33343E-19 4.15808E-19
 -1      4074 9.52337E-05-2.85903E-05-2.85615E-05-1.16414E-09-9.32186E-19-1.09718E-18
 -1      4075 9.52304E-05-2.85791E-05-2.85648E-05-3.21058E-09-1.08899E-18-3.54478E-19
 -1      4076 9.52295E-05-2.85762E-05-2.85657E-05-3.96763E-09-1.57676E-18-1.05411E-18
 -1      4077 9.52302E-05-2.85813E-05-2.85638E-05-3.12537E-09-1.15158E-18-1.19652E-18
 -1      4078 9.52289E-05-2.85737E-05-2.85665E-05-4.12861E-09-7.31872E-19-9.08046E-19
 -1      4079 9.52286E-05-2.85717E-05-2.85672E-05-4.43109E-09 1.49996E-19 4.26900E-19
 -1      4080 9.52283E-05-2.85749E-05-2.85657E-05-3.85943E-09-6.31250E-19-1.59858E-18
 -1      4081 9.52285E-05-2.85702E-05-2.85679E-05-4.32860E-09-9.85836E-19-5.93038E-20
 -1      4082 9.52286E-05-2.85690E-05-2.85684E-05-4.35094E-09-1.89929E-18-2.31342E-20
 -1      4083 9.52277E-05-2.85707E-05-2.85673E-05-3.92137E-09-4.51960E-19-8.19839E-19
 -1      4084 9.52288E-05-2.85681E-05-2.85689E-05-4.13873E-09-1.58906E-18-3.86516E-19
 -1      4085 9.52291E-05-2.85674E-05-2.85693E-05-4.01178E-09-1.68960E-18 2.61889E-20
 -1      4086 9.52279E-05-2.85682E-05-2.85684E-05-3.64940E-09-1.86958E-18-1.07752E-18
 -1      4087 9.52296E-05-2.85670E-05-2.85697E-05-3.75557E-09-1.21455E-18 1.45747E-18
 -1      4088 9.52299E-05-2.85667E-05-2.85699E-05-3.55158E-09 1.91321E-19 2.13996E-18
 -1      4089 9.52286E-05-2.85669E-05-2.85693E-05-3.23712E-09-4.74235E-19-2.20258E-19
 -1      4090 9.52305E-05-2.85666E-05-2.85702E-05-3.29009E-09 1.32246E-18 9.24482E-19
 -1      4091 9.52309E-05-2.85666E-05-2.85704E-05-3.05406E-09 2.36810E-18 9.50907E-19
 -1      4092 9.52296E-05-2.85664E-05-2.85699E-05-2.78259E-09 3.88980E-19 7.89412E-19
 -1      4093 9.52315E-05-2.85667E-05-2.85706E-05-2.80775E-09 2.08779E-18 2.89406E-19
 -1      4094 9.52319E-05-2.85668E-05-2.85708E-05-2.56742E-09 1.56284E-18 7.82249E-19
 -1      4095 9.52307E-05-2.85664E-05-2.85704E-05-2.33815E-09 1.86702E-18 6.34864E-19
 -1      4096 9.52324E-05-2.85670E-05-2.85709E-05-2.34611E-09 1.66451E-18-7.80188E-20
 -1      4097 9.52328E-05-2.85672E-05-2.85710E-05-2.11790E-09 1.80774E-18 8.66082E-19
 -1      4098 9.52318E-05-2.85666E-05-2.85708E-05-1.92978E-09 1.50815E-18 3.97760E-19
 -1      4099 9.52333E-05-2.85675E-05-2.85711E-05-1.92527E-09 1.94276E-18 9.70098E-19
 -1      4100 9.52337E-05-2.85677E-05-2.85711E-05-1.71817E-09 1.90285E-18 1.31358E-18
 -1      4101 9.52328E-05-2.85671E-05-2.85710E-05-1.56862E-09 1.77593E-18-1.53004E-18
 -1      4102 9.52341E-05-2.85680E-05-2.85712E-05-1.55458E-09 2.15544E-18 4.09639E-19
 -1      4103 9.52344E-05-2.85682E-05-2.85712E-05-1.37268E-09 2.09195E-18 1.11239E-18
 -1      4104 9.52336E-05-2.85677E-05-2.85711E-05-1.25769E-09 2.42797E-18-1.09074E-18
 -1      4105 9.52348E-05-2.85685E-05-2.85713E-05-1.23600E-09 1.06569E-18 1.86436E-18
 -1      4106 9.52351E-05-2.85687E-05-2.85713E-05-1.07799E-09 9.96264E-19 2.75699E-18
 -1      4107 9.52344E-05-2.85682E-05-2.85712E-05-9.96594E-10 2.34815E-18-1.21491E-18
 -1      4108 9.52354E-05-2.85691E-05-2.85713E-05-9.00363E-10 9.20717E-19 9.47421E-19
 -1      4109 1.09987E-04-3.89986E-05-3.04548E-05-3.79142E-06 4.11501E-19 7.21458E-19
 -1      4110 1.12894E-04-4.04526E-05-3.10609E-05-3.02447E-06 5.52088E-19 9.49499E-19
 -1      4111 9.52656E-05-2.86571E-05-2.85464E-05-8.89042E-09-2.71703E-19 2.29645E-19
 -1      4112 9.52795E-05-2.86784E-05-2.85430E-05-9.46486E-09-6.13126E-19-1.05595E-19
 -1      4113 9.52965E-05-2.87037E-05-2.85396E-05-4.22705E-09-5.62247E-19-3.33176E-19
 -1      4114 9.53191E-05-2.87348E-05-2.85355E-05-2.17975E-09-4.58886E-20-2.86554E-19
 -1      4115 9.52885E-05-2.86910E-05-2.85423E-05 4.90731E-09-8.16713E-19-5.94898E-19
 -1      4116 9.52353E-05-2.86031E-05-2.85566E-05-7.42035E-09 2.19073E-19 1.34976E-18
 -1      4117 9.52399E-05-2.86130E-05-2.85543E-05-9.36970E-09 3.33225E-19 7.18455E-19
 -1      4118 9.52290E-05-2.85884E-05-2.85602E-05-5.16824E-09-8.03415E-19 5.65841E-19
 -1      4119 9.52314E-05-2.85949E-05-2.85585E-05-6.95040E-09-8.32215E-20 9.47952E-19
 -1      4120 9.52346E-05-2.86005E-05-2.85576E-05-5.76056E-09 2.27993E-19 2.44808E-20
 -1      4121 9.52260E-05-2.85787E-05-2.85631E-05-3.04873E-09-8.13438E-19 7.43476E-19
 -1      4122 9.52270E-05-2.85830E-05-2.85617E-05-4.48861E-09-1.18224E-18 1.05048E-18
 -1      4123 9.52289E-05-2.85869E-05-2.85609E-05-4.59343E-09-1.03649E-18-2.54889E-19
 -1      4124 9.52250E-05-2.85725E-05-2.85653E-05-1.34430E-09-9.81306E-19 1.77613E-18
 -1      4125 9.52251E-05-2.85752E-05-2.85643E-05-2.40431E-09-6.89330E-19 5.70421E-19
 -1      4126 9.52262E-05-2.85778E-05-2.85636E-05-3.16750E-09-9.85899E-19 9.14695E-21
 -1      4127 9.52252E-05-2.85688E-05-2.85670E-05-1.09545E-10 8.28303E-19 1.11129E-18
 -1      4128 9.52249E-05-2.85704E-05-2.85662E-05-8.29516E-10 6.87692E-19 2.03537E-18
 -1      4129 9.52253E-05-2.85721E-05-2.85656E-05-1.88256E-09-7.39328E-19 1.04652E-18
 -1      4130 9.52262E-05-2.85668E-05-2.85683E-05 6.94377E-10-9.01436E-19 1.54034E-18
 -1      4131 9.52256E-05-2.85676E-05-2.85677E-05 2.49340E-10-2.90620E-19 6.97559E-19
 -1      4132 9.52255E-05-2.85686E-05-2.85672E-05-8.73540E-10-2.94812E-20 1.03277E-18
 -1      4133 9.52274E-05-2.85658E-05-2.85692E-05 1.15304E-09-1.34701E-18 1.47207E-18
 -1      4134 9.52267E-05-2.85662E-05-2.85688E-05 9.15049E-10-1.32549E-18 1.07261E-18
 -1      4135 9.52264E-05-2.85667E-05-2.85684E-05-1.59770E-10-1.00949E-18 8.38021E-19
 -1      4136 9.52288E-05-2.85656E-05-2.85699E-05 1.35730E-09-1.91088E-18 1.74026E-18
 -1      4137 9.52281E-05-2.85657E-05-2.85696E-05 1.26531E-09-6.66295E-19 1.56903E-18
 -1      4138 9.52276E-05-2.85658E-05-2.85693E-05 2.96349E-10-1.49221E-18 1.24452E-18
 -1      4139 9.52302E-05-2.85659E-05-2.85704E-05 1.38806E-09-5.00321E-19 1.25655E-19
 -1      4140 9.52295E-05-2.85657E-05-2.85702E-05 1.39220E-09-1.58992E-18 1.16158E-18
 -1      4141 9.52290E-05-2.85656E-05-2.85700E-05 5.51999E-10-1.25936E-18-3.83106E-19
 -1      4142 9.52314E-05-2.85663E-05-2.85708E-05 1.31028E-09-5.38993E-19-7.49972E-19
 -1      4143 9.52308E-05-2.85661E-05-2.85706E-05 1.37247E-09-2.60851E-19 5.31943E-20
 -1      4144 9.52303E-05-2.85659E-05-2.85705E-05 6.64029E-10-4.71108E-19-1.98159E-18
 -1      4145 9.52326E-05-2.85669E-05-2.85710E-05 1.17244E-09-4.17830E-20-1.58648E-18
 -1      4146 9.52320E-05-2.85666E-05-2.85709E-05 1.26518E-09-1.28588E-19-1.29798E-18
 -1      4147 9.52316E-05-2.85664E-05-2.85708E-05 6.80754E-10 3.12255E-19-1.29897E-18
 -1      4148 9.52335E-05-2.85675E-05-2.85711E-05 1.00853E-09 2.20811E-18-1.39196E-18
 -1      4149 9.52331E-05-2.85672E-05-2.85711E-05 1.11302E-09 5.60189E-19-2.33077E-18
 -1      4150 9.52327E-05-2.85670E-05-2.85710E-05 6.39621E-10 2.68208E-19-2.87370E-18
 -1      4151 9.52343E-05-2.85682E-05-2.85712E-05 8.41016E-10 2.98890E-18-1.60304E-18
 -1      4152 9.52340E-05-2.85679E-05-2.85712E-05 9.45021E-10 3.30189E-18-2.02201E-18
 -1      4153 9.52336E-05-2.85676E-05-2.85711E-05 5.67735E-10 2.69747E-18-4.08661E-18
 -1      4154 9.52350E-05-2.85687E-05-2.85713E-05 6.87342E-10 1.69831E-18-2.36551E-18
 -1      4155 9.52347E-05-2.85684E-05-2.85713E-05 7.79300E-10 2.62898E-18-2.10913E-18
 -1      4156 9.52344E-05-2.85682E-05-2.85712E-05 4.83212E-10 2.84441E-18-3.39797E-18
 -1      4157 9.53454E-05-2.87712E-05-2.85317E-05 9.09552E-09-3.44855E-19-8.08543E-19
 -1      4158 9.53816E-05-2.88163E-05-2.85270E-05 1.62293E-08-6.72357E-19-7.01646E-19
 -1      4159 9.53944E-05-2.88341E-05-2.85274E-05 5.95005E-08-1.29229E-18-1.48620E-18
 -1      4160 9.53302E-05-2.87501E-05-2.85353E-05 2.32888E-08-4.23077E-19-1.44676E-18
 -1      4161 9.60036E-05-2.95083E-05-2.84968E-05 3.37571E-07-2.92269E-20-1.02020E-19
 -1      4162 9.62121E-05-2.97093E-05-2.84952E-05 4.17030E-07 2.42185E-19 2.14425E-19
 -1      4163 1.14761E-04-4.24730E-05-3.08811E-05 1.28435E-06 4.76453E-19 9.47128E-19
 -1      4164 9.57247E-05-2.99597E-05-2.81567E-05 1.06820E-05-3.09696E-20-4.62444E-19
 -1      4165 9.56723E-05-2.95566E-05-2.82764E-05 8.59619E-06-2.33570E-19-5.83061E-19
 -1      4166 8.94873E-05-2.71996E-05-2.67241E-05 2.04697E-05-2.24192E-19-1.39297E-18
 -1      4167 9.88874E-05-3.22129E-05-2.85603E-05 2.37184E-07-8.74261E-19 7.74665E-19
 -1      4168 9.96101E-05-3.28424E-05-2.86092E-05 1.45701E-07-9.83080E-19 5.24335E-19
 -1      4169 1.00169E-04-3.33270E-05-2.86744E-05 9.87662E-07-1.00306E-18-1.73963E-19
 -1      4170 9.85629E-05-3.19646E-05-2.85626E-05 7.99963E-07-5.30641E-19-4.06768E-19
 -1      4171 1.05177E-04-1.42651E-05-3.90049E-05 2.89450E-06 5.61850E-19 7.71979E-19
 -1      4172 9.64335E-05-2.99374E-05-2.84960E-05 5.68175E-07-5.13368E-19 4.35254E-19
 -1      4173 9.67477E-05-3.02279E-05-2.85003E-05 6.82186E-07-5.60198E-19 4.72620E-19
 -1      4174 9.62216E-05-2.97387E-05-2.85024E-05 6.96400E-07-2.93011E-19-4.00033E-19
 -1      4175 1.13266E-04-4.26382E-05-3.03797E-05 5.91921E-06 3.43520E-19 7.13016E-19
 -1      4176 1.09411E-04-4.05822E-05-2.94070E-05 1.15494E-05 2.22273E-19 6.90141E-19
 -1      4177 1.10459E-04-4.04443E-05-3.00298E-05 2.87347E-06 4.10758E-19 8.70938E-19
 -1      4178 9.49801E-05-2.89890E-05-2.83023E-05 7.13288E-06-1.24832E-19-4.80430E-19
 -1      4179 9.51367E-05-2.88347E-05-2.83776E-05 5.71320E-06-2.14289E-19-2.47088E-19
 -1      4180 9.70304E-05-3.08117E-05-2.84097E-05 7.63932E-06 7.73774E-20 4.98203E-20
 -1      4181 9.52466E-05-2.86250E-05-2.85520E-05-9.12062E-09 6.54733E-20 4.84957E-19
 -1      4182 9.52548E-05-2.86396E-05-2.85492E-05-1.08082E-08 1.92818E-19 2.61707E-19
 -1      4183 9.52448E-05-2.86206E-05-2.85534E-05-5.83459E-09 4.59231E-19 6.74820E-19
 -1      4184 9.55403E-05-2.90091E-05-2.85130E-05 9.19599E-08-6.02866E-19-6.80204E-19
 -1      4185 9.56290E-05-2.91043E-05-2.85079E-05 1.22058E-07-2.16640E-19-3.68226E-19
 -1      4186 9.54923E-05-2.89539E-05-2.85190E-05 1.25108E-07-8.19951E-19-1.62300E-18
 -1      4187 9.48259E-05-2.86087E-05-2.84006E-05 4.65255E-06-7.62438E-19-1.94533E-19
 -1      4188 9.50392E-05-2.86100E-05-2.84456E-05 3.70323E-06-7.63363E-19-2.58310E-19
 -1      4189 9.61059E-05-2.97740E-05-2.84425E-05 5.16931E-06-4.12710E-19 5.90244E-19
 -1      4190 9.57229E-05-2.92127E-05-2.85037E-05 1.85767E-07 2.56853E-19-4.44525E-19
 -1      4191 9.58596E-05-2.93512E-05-2.84995E-05 2.36783E-07 1.71522E-19-4.16886E-19
 -1      4192 9.56418E-05-2.91260E-05-2.85108E-05 2.36897E-07-5.14036E-20-1.32126E-18
 -1      4193 9.52356E-05-2.85693E-05-2.85713E-05 1.40269E-10 1.13500E-19-1.48765E-18
 -1      4194 9.52357E-05-2.85693E-05-2.85713E-05 3.58187E-10 7.52028E-19-1.18034E-18
 -1      4195 9.52355E-05-2.85691E-05-2.85713E-05 4.71306E-10 9.29545E-19-2.03943E-18
 -1      4196 9.52354E-05-2.85691E-05-2.85713E-05 1.38237E-10 1.57832E-18-1.97970E-18
 -1      4197 1.08890E-04-3.87057E-05-3.00314E-05-2.72808E-06-6.69437E-20 4.79833E-19
 -1      4198 9.50421E-05-2.85784E-05-2.84972E-05 1.84505E-06 6.04485E-19-9.49785E-19
 -1      4199 9.51773E-05-2.86324E-05-2.85103E-05 1.45714E-06 6.61891E-19-3.00074E-19
 -1      4200 9.54295E-05-2.89068E-05-2.85105E-05 1.34596E-06 4.14941E-19-1.63778E-19
 -1      4201 9.52351E-05-2.85688E-05-2.85713E-05-7.12859E-10 4.58601E-20-7.20524E-19
 -1      4202 1.09034E-04-3.93100E-05-2.99524E-05-5.86453E-07-2.90311E-19 7.36925E-19
 -1      4203 9.58705E-05-2.93751E-05-2.85043E-05 4.17782E-07 1.39198E-19-8.49454E-19
 -1      4204 9.52616E-05-2.86496E-05-2.85484E-05-3.22073E-09-7.26422E-19 4.50869E-19
 -1      4205 9.70886E-05-3.05586E-05-2.85081E-05 8.95723E-07-8.53002E-19 2.92109E-19
 -1      4206 9.75545E-05-3.09738E-05-2.85240E-05 1.04368E-06-1.07433E-18-4.74991E-19
 -1      4207 9.67620E-05-3.02724E-05-2.85105E-05 1.10373E-06-9.68587E-19-4.38648E-19
 -1      4208 9.52352E-05-2.85689E-05-2.85713E-05 5.43436E-10 2.42424E-18-2.41269E-18
 -1      4209 9.56836E-05-2.92612E-05-2.84733E-05 3.38297E-06-6.48172E-19 4.54659E-19
 -1      4210 1.01902E-04-3.54880E-05-2.84341E-05 1.47000E-05-4.45000E-19 9.90426E-19
 -1      4211 9.74029E-05-3.16219E-05-2.82021E-05 1.22619E-05-2.14617E-19-1.41200E-20
 -1      4212 1.07122E-04-3.94009E-05-2.91138E-05 1.31190E-05-2.24307E-19 1.11007E-18
 -1      4213 1.04145E-04-3.71283E-05-2.87349E-05 1.38706E-05-6.45830E-19 1.18222E-18
 -1      4214 1.03749E-04-3.63063E-05-2.88561E-05 1.06506E-05-4.66560E-19 1.46316E-18
 -1      4215 1.07625E-04-3.89393E-05-2.93645E-05 8.14912E-06-1.05327E-19 1.32368E-18
 -1      4216 9.55042E-05-2.90194E-05-2.84957E-05 2.15349E-06-5.38934E-21 5.26409E-19
 -1      4217 1.01669E-04-3.44063E-05-2.88004E-05 2.27257E-06-8.58322E-19 1.06940E-19
 -1      4218 1.02962E-04-3.54134E-05-2.89392E-05 2.28353E-06-6.16133E-19-8.02704E-20
 -1      4219 1.03530E-04-3.59789E-05-2.90036E-05 3.88090E-06-9.40455E-19 3.40902E-19
 -1      4220 1.04648E-04-3.65965E-05-2.91197E-05 2.45250E-06-8.61795E-19 5.74982E-20
 -1      4221 1.06358E-04-3.77433E-05-2.93737E-05 2.12013E-06-9.43329E-19-2.20511E-19
 -1      4222 9.95419E-05-3.32642E-05-2.84747E-05 1.04399E-05-7.09986E-20 1.79825E-19
 -1      4223 9.52352E-05-2.85689E-05-2.85713E-05-4.72370E-10-8.61822E-19-1.52938E-18
 -1      4224 9.52351E-05-2.85688E-05-2.85713E-05-2.11082E-10 3.18670E-19-2.17949E-18
 -1      4225 1.08245E-04-3.90286E-05-2.96081E-05 3.31373E-06-2.53911E-19 3.69083E-19
 -1      4226 9.54653E-05-2.89227E-05-2.85212E-05 5.32508E-07-7.73428E-20-2.13909E-19
 -1      4227 9.54510E-05-2.88857E-05-2.85245E-05 4.07280E-07-1.92145E-19-4.30849E-20
 -1      4228 9.54005E-05-2.88407E-05-2.85276E-05 3.13473E-07-6.03755E-19 1.35157E-19
 -1      4229 9.53873E-05-2.88111E-05-2.85305E-05 2.36297E-07-2.33255E-19-1.44249E-19
 -1      4230 9.54928E-05-2.89472E-05-2.85217E-05 3.34233E-07-3.17707E-19-9.17158E-19
 -1      4231 9.53526E-05-2.87770E-05-2.85336E-05 1.79232E-07-4.94394E-19 1.73133E-19
 -1      4232 9.53403E-05-2.87525E-05-2.85363E-05 1.32473E-07-1.35645E-18 5.57752E-19
 -1      4233 9.54074E-05-2.88444E-05-2.85283E-05 1.89134E-07-3.94068E-19-9.39973E-19
 -1      4234 9.53160E-05-2.87260E-05-2.85393E-05 9.87660E-08-1.81698E-18 6.91638E-19
 -1      4235 9.53051E-05-2.87057E-05-2.85417E-05 7.09187E-08-1.01851E-18 1.05403E-18
 -1      4236 9.53480E-05-2.87687E-05-2.85348E-05 1.02109E-07-1.00837E-18-4.92595E-19
 -1      4237 9.52880E-05-2.86850E-05-2.85445E-05 5.16692E-08-1.50143E-18 1.01848E-18
 -1      4238 9.52789E-05-2.86685E-05-2.85468E-05 3.53902E-08-1.15240E-18-8.61516E-20
 -1      4239 9.53064E-05-2.87122E-05-2.85409E-05 5.15833E-08-1.29807E-18 8.73028E-20
 -1      4240 9.52670E-05-2.86524E-05-2.85493E-05 2.48510E-08-2.34613E-19-3.45797E-19
 -1      4241 9.52598E-05-2.86393E-05-2.85514E-05 1.55393E-08 9.11865E-22-1.07456E-19
 -1      4242 9.52773E-05-2.86697E-05-2.85464E-05 2.33516E-08-1.10502E-18-4.64311E-19
 -1      4243 9.52517E-05-2.86270E-05-2.85536E-05 1.00966E-08-1.10899E-19-4.89544E-19
 -1      4244 9.52464E-05-2.86168E-05-2.85554E-05 4.91635E-09-4.41404E-19-1.01751E-18
 -1      4245 9.52572E-05-2.86380E-05-2.85513E-05 8.33777E-09-1.84470E-19-1.12794E-18
 -1      4246 9.52411E-05-2.86076E-05-2.85572E-05 2.35571E-09-7.54803E-19-5.90809E-19
 -1      4247 9.52374E-05-2.86000E-05-2.85588E-05-4.14420E-10-4.47539E-19-9.37049E-19
 -1      4248 9.52437E-05-2.86146E-05-2.85555E-05 9.04866E-10-4.63093E-19-1.24402E-18
 -1      4249 9.52341E-05-2.85933E-05-2.85604E-05-1.41395E-09 4.66771E-19-9.59685E-19
 -1      4250 9.52317E-05-2.85877E-05-2.85617E-05-2.80371E-09-1.79254E-19-6.06909E-20
 -1      4251 9.52351E-05-2.85976E-05-2.85590E-05-2.35092E-09 2.60456E-19-6.90753E-19
 -1      4252 9.52299E-05-2.85830E-05-2.85629E-05-3.00600E-09-1.68624E-18-3.45326E-19
 -1      4253 9.52285E-05-2.85791E-05-2.85640E-05-3.62662E-09-1.24162E-18-7.04590E-19
 -1      4254 9.52300E-05-2.85856E-05-2.85619E-05-3.42437E-09-1.04542E-18-1.21596E-18
 -1      4255 9.52277E-05-2.85758E-05-2.85651E-05-3.45898E-09-9.86860E-19-9.69792E-19
 -1      4256 9.52270E-05-2.85731E-05-2.85660E-05-3.64577E-09 5.15003E-20-8.57759E-19
 -1      4257 9.52273E-05-2.85773E-05-2.85643E-05-3.43790E-09-1.30447E-18-8.74468E-19
 -1      4258 9.52269E-05-2.85711E-05-2.85668E-05-3.33918E-09 7.04523E-19-1.13823E-18
 -1      4259 9.52268E-05-2.85695E-05-2.85674E-05-3.30439E-09-6.11478E-19-9.76859E-19
 -1      4260 9.52263E-05-2.85719E-05-2.85662E-05-2.99869E-09-2.74874E-20-8.05897E-19
 -1      4261 9.52271E-05-2.85683E-05-2.85680E-05-2.98020E-09-1.55923E-18-3.56667E-19
 -1      4262 9.52274E-05-2.85674E-05-2.85686E-05-2.84477E-09-2.10546E-18 1.18389E-19
 -1      4263 9.52264E-05-2.85686E-05-2.85676E-05-2.44605E-09-8.41663E-19-2.39892E-19
 -1      4264 9.52278E-05-2.85668E-05-2.85690E-05-2.54825E-09-1.18865E-18-8.37325E-20
 -1      4265 9.52283E-05-2.85664E-05-2.85694E-05-2.37283E-09-1.23100E-19-1.83051E-20
 -1      4266 9.52271E-05-2.85668E-05-2.85687E-05-1.91694E-09-1.26832E-18 1.23337E-18
 -1      4267 9.52289E-05-2.85662E-05-2.85697E-05-2.12182E-09 4.79217E-19-9.91209E-19
 -1      4268 9.52294E-05-2.85661E-05-2.85700E-05-1.93865E-09 6.97477E-19-2.34502E-19
 -1      4269 9.52282E-05-2.85660E-05-2.85695E-05-1.46492E-09-6.77772E-19-1.40093E-18
 -1      4270 9.52301E-05-2.85661E-05-2.85703E-05-1.73525E-09 1.50151E-18-6.27420E-19
 -1      4271 9.52306E-05-2.85662E-05-2.85705E-05-1.56079E-09 1.73911E-18-6.84913E-19
 -1      4272 9.52295E-05-2.85659E-05-2.85701E-05-1.10188E-09 6.30191E-19-1.32135E-18
 -1      4273 9.52312E-05-2.85664E-05-2.85707E-05-1.40031E-09 1.33413E-18-1.15090E-18
 -1      4274 9.52317E-05-2.85666E-05-2.85708E-05-1.24228E-09 8.83200E-19-1.80544E-18
 -1      4275 9.52307E-05-2.85661E-05-2.85705E-05-8.20788E-10 9.86657E-19-2.78871E-18
 -1      4276 9.52323E-05-2.85668E-05-2.85709E-05-1.11775E-09 2.18169E-18-2.69001E-18
 -1      4277 9.52328E-05-2.85671E-05-2.85710E-05-9.79091E-10 2.24166E-18-2.19138E-18
 -1      4278 9.52319E-05-2.85666E-05-2.85708E-05-6.07915E-10 1.20696E-18-2.36848E-18
 -1      4279 9.52333E-05-2.85674E-05-2.85711E-05-8.83453E-10 2.42799E-18-1.87301E-18
 -1      4280 9.52337E-05-2.85677E-05-2.85711E-05-7.64738E-10 2.54623E-18-2.28924E-18
 -1      4281 9.52329E-05-2.85671E-05-2.85710E-05-4.48784E-10 2.69131E-18-3.71714E-18
 -1      4282 9.52341E-05-2.85680E-05-2.85712E-05-6.91142E-10 3.42256E-18-2.13243E-18
 -1      4283 9.52345E-05-2.85683E-05-2.85712E-05-5.93754E-10 2.91455E-18-1.21579E-18
 -1      4284 9.52338E-05-2.85677E-05-2.85712E-05-3.30328E-10 2.92612E-18-3.41087E-18
 -1      4285 9.57050E-05-2.92033E-05-2.85068E-05 1.42670E-06-1.04775E-19 2.39545E-19
 -1      4286 9.56760E-05-2.91274E-05-2.85122E-05 1.11515E-06 2.46898E-19-2.18955E-19
 -1      4287 9.52267E-05-2.85774E-05-2.85639E-05-3.13701E-09-1.21802E-18-6.35475E-19
 -1      4288 9.52276E-05-2.85812E-05-2.85628E-05-3.82153E-09-7.89485E-19-5.89606E-19
 -1      4289 9.59608E-05-2.94817E-05-2.84985E-05 2.26556E-06-3.58015E-19 4.35526E-19
 -1      4290 9.58971E-05-2.93518E-05-2.85063E-05 1.78281E-06 5.78946E-20 1.27632E-19
 -1      4291 9.61165E-05-2.96170E-05-2.85084E-05 1.50370E-06-3.59049E-19-3.28679E-19
 -1      4292 9.52294E-05-2.85859E-05-2.85614E-05-3.71079E-09-1.43987E-18-5.80823E-19
 -1      4293 9.52315E-05-2.85916E-05-2.85600E-05-4.33497E-09-2.21517E-19-9.75042E-19
 -1      4294 9.52348E-05-2.85985E-05-2.85583E-05-3.55733E-09 2.10950E-19-5.30318E-19
 -1      4295 9.52388E-05-2.86068E-05-2.85565E-05-3.81317E-09 2.85488E-19 7.64654E-20
 -1      4296 9.52257E-05-2.85718E-05-2.85659E-05-2.34783E-09-2.00610E-19-7.20652E-19
 -1      4297 9.52258E-05-2.85742E-05-2.85650E-05-2.94591E-09-2.21441E-18-6.62893E-19
 -1      4298 9.52259E-05-2.85685E-05-2.85674E-05-1.62536E-09-3.33347E-19-6.25609E-19
 -1      4299 9.52256E-05-2.85699E-05-2.85667E-05-2.08821E-09 1.03043E-18-2.69985E-19
 -1      4300 9.52267E-05-2.85667E-05-2.85686E-05-1.04107E-09-1.39422E-18 5.84089E-19
 -1      4301 9.52261E-05-2.85674E-05-2.85680E-05-1.37111E-09-1.23370E-18 6.82533E-19
 -1      4302 9.52279E-05-2.85659E-05-2.85694E-05-6.08914E-10-1.02355E-18 3.46588E-19
 -1      4303 9.52272E-05-2.85662E-05-2.85690E-05-8.26241E-10-1.16109E-18 4.89671E-19
 -1      4304 9.52292E-05-2.85657E-05-2.85700E-05-3.11094E-10-1.10458E-18-9.84820E-19
 -1      4305 9.52285E-05-2.85657E-05-2.85698E-05-4.41647E-10-8.20264E-19-7.32593E-19
 -1      4306 9.52304E-05-2.85660E-05-2.85705E-05-1.19132E-10 5.17918E-19-2.05121E-18
 -1      4307 9.52298E-05-2.85658E-05-2.85703E-05-1.87437E-10-4.16304E-19-2.19072E-18
 -1      4308 9.52317E-05-2.85665E-05-2.85708E-05-4.50295E-12 8.57576E-20-2.01106E-18
 -1      4309 9.52311E-05-2.85662E-05-2.85707E-05-3.09223E-11 8.36370E-20-2.68634E-18
 -1      4310 9.52327E-05-2.85671E-05-2.85710E-05 5.69945E-11 1.19227E-18-3.99246E-18
 -1      4311 9.52322E-05-2.85668E-05-2.85709E-05 5.68531E-11 9.86526E-19-2.64831E-18
 -1      4312 9.52337E-05-2.85677E-05-2.85711E-05 8.40731E-11 3.84113E-18-5.54500E-18
 -1      4313 9.52332E-05-2.85674E-05-2.85711E-05 9.89240E-11 1.61531E-18-5.25111E-18
 -1      4314 9.52345E-05-2.85683E-05-2.85712E-05 8.94867E-11 2.40166E-18-3.96579E-18
 -1      4315 9.52341E-05-2.85680E-05-2.85712E-05 1.12211E-10 3.67263E-18-4.10385E-18
 -1      4316 9.52590E-05-2.86422E-05-2.85500E-05 3.81090E-09-4.16632E-19-2.10765E-19
 -1      4317 9.52701E-05-2.86592E-05-2.85473E-05 6.64776E-09-9.23960E-19-4.70026E-19
 -1      4318 9.88781E-05-3.22942E-05-2.85281E-05 7.49125E-06 4.06509E-19 1.29139E-19
 -1      4319 9.81900E-05-3.15374E-05-2.85281E-05 6.14930E-06 1.38988E-19 5.22680E-19
 -1      4320 9.52348E-05-2.85686E-05-2.85713E-05-6.22465E-10 3.81442E-19-1.10859E-18
 -1      4321 9.52441E-05-2.86166E-05-2.85546E-05-1.66552E-09 6.02643E-19-6.68809E-19
 -1      4322 9.52509E-05-2.86286E-05-2.85523E-05-9.35787E-10-1.41817E-19-3.52809E-19
 -1      4323 9.55585E-05-2.90352E-05-2.85144E-05 8.82056E-07 1.56284E-19-7.21907E-20
 -1      4324 9.55408E-05-2.89851E-05-2.85184E-05 6.82486E-07-2.11595E-19-5.55560E-21
 -1      4325 9.56189E-05-2.90908E-05-2.85154E-05 5.69033E-07-6.91419E-20-9.02554E-19
 -1      4326 9.58108E-05-2.92993E-05-2.85104E-05 9.37917E-07 2.35140E-20-5.42398E-19
 -1      4327 9.57340E-05-2.92077E-05-2.85100E-05 5.11776E-07 9.27749E-20-1.48745E-18
 -1      4328 9.58808E-05-2.93478E-05-2.85078E-05 6.33017E-07 2.24774E-19-1.52785E-18
 -1      4329 9.64310E-05-2.99670E-05-2.84917E-05 3.50194E-06-6.60549E-19 1.01542E-18
 -1      4330 9.62819E-05-2.97315E-05-2.85020E-05 2.78528E-06-4.88318E-19 9.72761E-19
 -1      4331 9.66201E-05-3.01208E-05-2.85136E-05 2.34090E-06-8.39075E-19 4.76246E-19
 -1      4332 9.54454E-05-2.88883E-05-2.85240E-05 1.64417E-07-8.26169E-19-1.31614E-18
 -1      4333 9.55082E-05-2.89552E-05-2.85200E-05 2.10290E-07-4.50187E-19-1.31168E-18
 -1      4334 9.72945E-05-3.08162E-05-2.84940E-05 5.22054E-06 1.21503E-19 4.43137E-19
 -1      4335 9.69658E-05-3.03897E-05-2.85045E-05 4.21504E-06-3.44659E-19 8.55097E-19
 -1      4336 9.88415E-05-3.22073E-05-2.85919E-05 5.04125E-06 1.72899E-19 1.93494E-19
 -1      4337 9.60016E-05-2.94823E-05-2.85060E-05 8.46623E-07 6.02306E-20-1.29192E-18
 -1      4338 9.62274E-05-2.96896E-05-2.85070E-05 1.03069E-06-4.34560E-19-7.46191E-19
 -1      4339 9.55602E-05-2.90198E-05-2.85166E-05 2.97096E-07-3.39000E-19-1.32673E-18
 -1      4340 9.56560E-05-2.91159E-05-2.85130E-05 3.73377E-07-8.19510E-20-1.18188E-18
 -1      4341 1.00499E-04-3.34906E-05-2.87053E-05 1.95552E-06-7.39153E-19-4.13954E-20
 -1      4342 1.00757E-04-3.37950E-05-2.87400E-05 3.16601E-06-7.75059E-19-1.60914E-19
 -1      4343 9.95444E-05-3.27026E-05-2.86305E-05 1.81791E-06-5.82823E-19-6.38607E-19
 -1      4344 9.52821E-05-2.86777E-05-2.85446E-05 1.60702E-08-1.47776E-18-2.86561E-19
 -1      4345 9.52995E-05-2.87016E-05-2.85414E-05 2.29403E-08-8.33388E-19-9.54917E-19
 -1      4346 1.01967E-04-3.49196E-05-2.86937E-05 9.57352E-06-5.59724E-19 1.18142E-18
 -1      4347 1.00026E-04-3.32838E-05-2.85834E-05 8.57363E-06-3.29615E-20 5.30413E-19
 -1      4348 1.00898E-04-3.40460E-05-2.87075E-05 6.84714E-06-1.65585E-19 1.01649E-18
 -1      4349 1.03794E-04-3.64274E-05-2.89247E-05 8.74837E-06-6.08727E-19 1.76456E-18
 -1      4350 1.06934E-04-3.85585E-05-2.93933E-05 5.42323E-06-1.21477E-19 7.57143E-19
 -1      4351 9.52346E-05-2.85683E-05-2.85712E-05-3.36768E-10 1.76240E-18-2.54870E-18
 -1      4352 9.64239E-05-2.98951E-05-2.85080E-05 1.35286E-06-8.20536E-19 1.85916E-20
 -1      4353 9.67716E-05-3.02057E-05-2.85155E-05 1.61992E-06-9.83135E-19-4.05319E-19
 -1      4354 1.05598E-04-3.74875E-05-2.91570E-05 6.78693E-06-5.65168E-19 1.21351E-18
 -1      4355 9.52348E-05-2.85686E-05-2.85713E-05 1.71407E-11 1.09139E-18-3.54292E-18
 -1      4356 9.52351E-05-2.85688E-05-2.85713E-05 1.85498E-10 1.61115E-18-2.62618E-18
 -1      4357 9.80769E-05-3.14496E-05-2.85457E-05 1.32376E-06-6.62237E-19-5.09104E-19
 -1      4358 9.87535E-05-3.20314E-05-2.85828E-05 1.48945E-06-4.60915E-19-5.68174E-19
 -1      4359 9.88592E-05-3.21902E-05-2.86039E-05 2.37444E-06-4.83179E-19-5.63109E-19
 -1      4360 9.75924E-05-3.10546E-05-2.85383E-05 1.66401E-06-1.18778E-18-7.89430E-19
 -1      4361 1.02222E-04-3.48805E-05-2.88273E-05 5.58338E-06-6.77415E-19 1.13618E-18
 -1      4362 1.03872E-04-3.61688E-05-2.89964E-05 6.01580E-06-4.24610E-19 1.43742E-18
 -1      4363 9.52351E-05-2.85688E-05-2.85713E-05 3.65962E-10 2.27955E-18-1.92717E-18
 -1      4364 9.74548E-05-3.09254E-05-2.85349E-05 3.50935E-06-3.26449E-19 4.99966E-19
 -1      4365 9.54097E-05-2.88417E-05-2.85275E-05 1.11688E-07-1.18821E-18-1.27829E-18
 -1      4366 9.53686E-05-2.87945E-05-2.85315E-05 8.54652E-08-1.11161E-18-1.98834E-18
 -1      4367 1.01049E-04-3.39216E-05-2.87463E-05 4.78125E-06-4.60453E-19 7.08951E-19
 -1      4368 9.98549E-05-3.29377E-05-2.86555E-05 4.27219E-06-2.11527E-19 2.21110E-19
 -1      4369 9.53169E-05-2.87268E-05-2.85384E-05 4.04372E-08-5.56237E-19-1.13627E-18
 -1      4370 9.53438E-05-2.87604E-05-2.85348E-05 5.44997E-08-1.02322E-18-1.70725E-18
 -1      4371 9.81622E-05-3.14815E-05-2.85631E-05 3.05640E-06-3.35080E-19-3.09096E-19
 -1      4372 9.76282E-05-3.09896E-05-2.85429E-05 2.44535E-06-8.38506E-19-3.86092E-19
 -1      4373 9.89658E-05-3.21700E-05-2.86075E-05 3.51753E-06-3.10439E-19-7.48758E-20
 -1      4374 9.70960E-05-3.05242E-05-2.85227E-05 2.07964E-06-1.27321E-18-1.51861E-19
 -3
    1PSTEP                         4           1           1          
  100CL  101 1.000000000        4374                     0    1           1
 -4  ERROR       1    1
 -5  STR(%)      1    1    0    0
 -1         1 2.61643E+01
 -1         2 2.46351E+01
 -1         3 6.25739E-06
 -1         4 6.19769E-06
 -1         5 1.56228E+01
 -1         6 1.09087E+01
 -1         7 1.09087E+01
 -1         8 6.68450E+00
 -1         9 5.92595E+00
 -1        10 3.51134E+00
 -1        11 2.95325E+00
 -1        12 2.95325E+00
 -1        13 2.43764E+00
 -1        14 1.92559E+00
 -1        15 1.75021E+00
 -1        16 1.54593E+00
 -1        17 1.50517E+00
 -1        18 1.37044E+00
 -1        19 1.21127E+00
 -1        20 1.07702E+00
 -1        21 2.94040E+00
 -1        22 9.62630E+00
 -1        23 1.09087E+01
 -1        24 5.40662E+00
 -1        25 8.13234E+00
 -1        26 9.46567E+00
 -1        27 9.46567E+00
 -1        28 7.40931E+00
 -1        29 1.77325E+01
 -1        30 2.46346E+01
 -1        31 2.46346E+01
 -1        32 2.06085E+01
 -1        33 7.50045E+00
 -1        34 6.89669E+00
 -1        35 6.89669E+00
 -1        36 6.57076E+00
 -1        37 5.33066E+00
 -1        38 3.74833E+00
 -1        39 2.66430E+00
 -1        40 1.73444E+00
 -1        41 1.04444E+00
 -1        42 5.91966E-01
 -1        43 3.18242E-01
 -1        44 1.61584E-01
 -1        45 7.58796E-02
 -1        46 4.04727E-02
 -1        47 1.93602E-02
 -1        48 1.17389E-02
 -1        49 6.74581E-03
 -1        50 4.85531E-03
 -1        51 3.59607E-03
 -1        52 2.90721E-03
 -1        53 2.63172E-03
 -1        54 2.16658E-03
 -1        55 1.95117E-03
 -1        56 1.80949E-03
 -1        57 1.58305E-03
 -1        58 1.32720E-03
 -1        59 1.07680E-03
 -1        60 8.85625E-04
 -1        61 7.35315E-04
 -1        62 5.45620E-04
 -1        63 4.49664E-04
 -1        64 3.64426E-04
 -1        65 2.88848E-04
 -1        66 2.24254E-04
 -1        67 1.70597E-04
 -1        68 1.26990E-04
 -1        69 9.20358E-05
 -1        70 6.40136E-05
 -1        71 4.48912E-05
 -1        72 3.23500E-05
 -1        73 1.68232E-05
 -1        74 1.56228E+01
 -1        75 4.68720E+00
 -1        76 4.23576E+00
 -1        77 3.83896E+00
 -1        78 3.62359E+00
 -1        79 3.51198E+00
 -1        80 3.52888E+00
 -1        81 3.52888E+00
 -1        82 3.52196E+00
 -1        83 3.28253E+00
 -1        84 2.85736E+00
 -1        85 2.33303E+00
 -1        86 1.84448E+00
 -1        87 1.40345E+00
 -1        88 1.02238E+00
 -1        89 7.14937E-01
 -1        90 4.80313E-01
 -1        91 3.35715E-01
 -1        92 2.34301E-01
 -1        93 1.58549E-01
 -1        94 1.04090E-01
 -1        95 6.62336E-02
 -1        96 4.07041E-02
 -1        97 3.08101E-02
 -1        98 2.29132E-02
 -1        99 1.67878E-02
 -1       100 1.21602E-02
 -1       101 9.26302E-03
 -1       102 7.54592E-03
 -1       103 6.03769E-03
 -1       104 4.76491E-03
 -1       105 3.71746E-03
 -1       106 2.90348E-03
 -1       107 2.28283E-03
 -1       108 1.77198E-03
 -1       109 1.35809E-03
 -1       110 1.02723E-03
 -1       111 7.65982E-04
 -1       112 5.62131E-04
 -1       113 4.04971E-04
 -1       114 2.98341E-04
 -1       115 2.27245E-04
 -1       116 1.70342E-04
 -1       117 1.25341E-04
 -1       118 8.99930E-05
 -1       119 6.20659E-05
 -1       120 4.66168E-05
 -1       121 3.56315E-05
 -1       122 1.97700E-05
 -1       123 7.04633E-06
 -1       124 8.47115E-06
 -1       125 8.47115E-06
 -1       126 5.96050E-06
 -1       127 2.76132E-06
 -1       128 5.72647E-06
 -1       129 7.82002E-06
 -1       130 8.46379E-06
 -1       131 8.46379E-06
 -1       132 7.81034E-06
 -1       133 5.68167E-06
 -1       134 2.85637E-06
 -1       135 5.76776E-06
 -1       136 8.13424E-06
 -1       137 8.13424E-06
 -1       138 5.94682E-06
 -1       139 2.43012E+01
 -1       140 4.12421E+01
 -1       141 4.12421E+01
 -1       142 1.55244E+01
 -1       143 1.18331E+01
 -1       144 1.18331E+01
 -1       145 1.17827E+01
 -1       146 1.17827E+01
 -1       147 1.17277E+01
 -1       148 1.17277E+01
 -1       149 1.73623E+01
 -1       150 4.39146E+01
 -1       151 4.39146E+01
 -1       152 2.50263E+01
 -1       153 2.52526E+01
 -1       154 2.72199E+01
 -1       155 4.53427E+01
 -1       156 4.53427E+01
 -1       157 1.86931E+01
 -1       158 1.46470E+01
 -1       159 1.46470E+01
 -1       160 1.46194E+01
 -1       161 1.46194E+01
 -1       162 1.95250E+01
 -1       163 4.70837E+01
 -1       164 4.70837E+01
 -1       165 2.77793E+01
 -1       166 2.77047E+01
 -1       167 8.46986E+00
 -1       168 6.89575E+00
 -1       169 6.00960E+00
 -1       170 3.33895E+00
 -1       171 3.33895E+00
 -1       172 3.16430E+00
 -1       173 2.58249E+00
 -1       174 1.94650E+00
 -1       175 1.75021E+00
 -1       176 1.54593E+00
 -1       177 1.50517E+00
 -1       178 1.37044E+00
 -1       179 1.21127E+00
 -1       180 1.46268E+00
 -1       181 3.63011E+00
 -1       182 1.56228E+01
 -1       183 8.49487E+00
 -1       184 8.96023E+00
 -1       185 1.04869E+01
 -1       186 1.33031E+01
 -1       187 8.16063E+00
 -1       188 1.77325E+01
 -1       189 2.46346E+01
 -1       190 2.06085E+01
 -1       191 7.50045E+00
 -1       192 1.02731E+01
 -1       193 8.59947E+00
 -1       194 7.39670E+00
 -1       195 6.60192E+00
 -1       196 5.04961E+00
 -1       197 3.43380E+00
 -1       198 2.11989E+00
 -1       199 1.21271E+00
 -1       200 6.81148E-01
 -1       201 3.82801E-01
 -1       202 2.05355E-01
 -1       203 1.04221E-01
 -1       204 4.87903E-02
 -1       205 2.14102E-02
 -1       206 1.17389E-02
 -1       207 6.74581E-03
 -1       208 4.85531E-03
 -1       209 3.59607E-03
 -1       210 2.90721E-03
 -1       211 2.76202E-03
 -1       212 2.42980E-03
 -1       213 1.98707E-03
 -1       214 1.81727E-03
 -1       215 1.62173E-03
 -1       216 1.38373E-03
 -1       217 1.13960E-03
 -1       218 9.51020E-04
 -1       219 7.92302E-04
 -1       220 6.01585E-04
 -1       221 4.63148E-04
 -1       222 3.64426E-04
 -1       223 2.88848E-04
 -1       224 2.24859E-04
 -1       225 1.74654E-04
 -1       226 1.32880E-04
 -1       227 9.88045E-05
 -1       228 7.13022E-05
 -1       229 4.90136E-05
 -1       230 3.49355E-05
 -1       231 2.05724E-05
 -1       232 1.04348E-05
 -1       233 4.68720E+00
 -1       234 4.23576E+00
 -1       235 3.83896E+00
 -1       236 3.62359E+00
 -1       237 3.51198E+00
 -1       238 3.37711E+00
 -1       239 3.52888E+00
 -1       240 3.52196E+00
 -1       241 3.28253E+00
 -1       242 2.85736E+00
 -1       243 2.33303E+00
 -1       244 1.84448E+00
 -1       245 1.42435E+00
 -1       246 1.07242E+00
 -1       247 7.76250E-01
 -1       248 5.41189E-01
 -1       249 3.63588E-01
 -1       250 2.35065E-01
 -1       251 1.58549E-01
 -1       252 1.04530E-01
 -1       253 6.90018E-02
 -1       254 4.42545E-02
 -1       255 3.08101E-02
 -1       256 2.29611E-02
 -1       257 1.72347E-02
 -1       258 1.27430E-02
 -1       259 9.30457E-03
 -1       260 7.54592E-03
 -1       261 6.03769E-03
 -1       262 4.76491E-03
 -1       263 3.71746E-03
 -1       264 2.90348E-03
 -1       265 2.28283E-03
 -1       266 1.77400E-03
 -1       267 1.38430E-03
 -1       268 1.06571E-03
 -1       269 8.09147E-04
 -1       270 6.05311E-04
 -1       271 4.45436E-04
 -1       272 3.21625E-04
 -1       273 2.27245E-04
 -1       274 1.70342E-04
 -1       275 1.25341E-04
 -1       276 8.99930E-05
 -1       277 6.35939E-05
 -1       278 4.66168E-05
 -1       279 3.56315E-05
 -1       280 1.97700E-05
 -1       281 1.30728E-05
 -1       282 1.46630E-05
 -1       283 1.46630E-05
 -1       284 8.46542E-06
 -1       285 1.12834E-05
 -1       286 1.54555E-05
 -1       287 1.71856E-05
 -1       288 1.71856E-05
 -1       289 1.71687E-05
 -1       290 1.53422E-05
 -1       291 1.13115E-05
 -1       292 8.57087E-06
 -1       293 1.41015E-05
 -1       294 1.41015E-05
 -1       295 1.12630E-05
 -1       296 2.91226E+01
 -1       297 3.72534E+01
 -1       298 4.12421E+01
 -1       299 1.55244E+01
 -1       300 1.07613E+01
 -1       301 1.18331E+01
 -1       302 1.16652E+01
 -1       303 1.17827E+01
 -1       304 1.16244E+01
 -1       305 1.17277E+01
 -1       306 1.02181E+01
 -1       307 1.80254E+01
 -1       308 4.39146E+01
 -1       309 3.82238E+01
 -1       310 3.07256E+01
 -1       311 3.27687E+01
 -1       312 3.27687E+01
 -1       313 3.81468E+01
 -1       314 4.53427E+01
 -1       315 1.86931E+01
 -1       316 1.27054E+01
 -1       317 1.46470E+01
 -1       318 1.27751E+01
 -1       319 1.46194E+01
 -1       320 1.34608E+01
 -1       321 2.03201E+01
 -1       322 4.70837E+01
 -1       323 3.90807E+01
 -1       324 3.24029E+01
 -1       325 3.24029E+01
 -1       326 1.67743E+01
 -1       327 1.02589E+01
 -1       328 1.02589E+01
 -1       329 4.72816E+00
 -1       330 4.57389E+00
 -1       331 3.81708E+00
 -1       332 2.88763E+00
 -1       333 1.80174E+00
 -1       334 1.27325E+00
 -1       335 1.13132E+00
 -1       336 1.13132E+00
 -1       337 1.06931E+00
 -1       338 1.05160E+00
 -1       339 1.30966E+00
 -1       340 3.05401E+00
 -1       341 2.93978E+00
 -1       342 1.25723E+01
 -1       343 1.67354E+01
 -1       344 1.16199E+01
 -1       345 9.84763E+00
 -1       346 9.18981E+00
 -1       347 7.12855E+00
 -1       348 4.81567E+00
 -1       349 3.00337E+00
 -1       350 1.76977E+00
 -1       351 9.98760E-01
 -1       352 5.42817E-01
 -1       353 2.83814E-01
 -1       354 1.41725E-01
 -1       355 6.65365E-02
 -1       356 2.87829E-02
 -1       357 1.04278E-02
 -1       358 5.43390E-03
 -1       359 3.52493E-03
 -1       360 3.18522E-03
 -1       361 2.79812E-03
 -1       362 2.76202E-03
 -1       363 2.42980E-03
 -1       364 1.99699E-03
 -1       365 1.81727E-03
 -1       366 1.62173E-03
 -1       367 1.42841E-03
 -1       368 1.23085E-03
 -1       369 1.02978E-03
 -1       370 8.75600E-04
 -1       371 6.92228E-04
 -1       372 5.48496E-04
 -1       373 4.24098E-04
 -1       374 3.20259E-04
 -1       375 2.35886E-04
 -1       376 1.74654E-04
 -1       377 1.32880E-04
 -1       378 9.88045E-05
 -1       379 7.32151E-05
 -1       380 5.32836E-05
 -1       381 3.72944E-05
 -1       382 2.41189E-05
 -1       383 1.41623E-05
 -1       384 3.53966E+00
 -1       385 3.33226E+00
 -1       386 3.08627E+00
 -1       387 2.96219E+00
 -1       388 2.88795E+00
 -1       389 2.68185E+00
 -1       390 2.35989E+00
 -1       391 1.96528E+00
 -1       392 1.63406E+00
 -1       393 1.29876E+00
 -1       394 1.00805E+00
 -1       395 7.76523E-01
 -1       396 5.76462E-01
 -1       397 4.12873E-01
 -1       398 2.85447E-01
 -1       399 1.90419E-01
 -1       400 1.22309E-01
 -1       401 7.52634E-02
 -1       402 4.55174E-02
 -1       403 3.05867E-02
 -1       404 2.29611E-02
 -1       405 1.72347E-02
 -1       406 1.27430E-02
 -1       407 9.30457E-03
 -1       408 7.17514E-03
 -1       409 5.52514E-03
 -1       410 4.29918E-03
 -1       411 3.38454E-03
 -1       412 2.70408E-03
 -1       413 2.12866E-03
 -1       414 1.66383E-03
 -1       415 1.33053E-03
 -1       416 1.04722E-03
 -1       417 8.11983E-04
 -1       418 6.20270E-04
 -1       419 4.66508E-04
 -1       420 3.44965E-04
 -1       421 2.50223E-04
 -1       422 1.77419E-04
 -1       423 1.22344E-04
 -1       424 8.92774E-05
 -1       425 6.37775E-05
 -1       426 4.66435E-05
 -1       427 3.34609E-05
 -1       428 1.99311E-05
 -1       429 1.71946E-05
 -1       430 3.00767E-05
 -1       431 1.59553E-05
 -1       432 2.23160E-05
 -1       433 2.54444E-05
 -1       434 2.54444E-05
 -1       435 2.52943E-05
 -1       436 2.52943E-05
 -1       437 2.22508E-05
 -1       438 1.57961E-05
 -1       439 1.67651E-05
 -1       440 1.67651E-05
 -1       441 3.21003E+00
 -1       442 2.43129E+01
 -1       443 7.70772E+00
 -1       444 2.73537E+01
 -1       445 1.15043E+01
 -1       446 6.48668E+00
 -1       447 7.48207E+00
 -1       448 9.80771E+00
 -1       449 1.04362E+01
 -1       450 1.04585E+01
 -1       451 9.79284E+00
 -1       452 6.88881E+00
 -1       453 8.89849E+00
 -1       454 1.55326E+01
 -1       455 2.63443E+01
 -1       456 2.82323E+01
 -1       457 5.18301E+01
 -1       458 5.18301E+01
 -1       459 2.82712E+01
 -1       460 2.65430E+01
 -1       461 2.70697E+01
 -1       462 3.16706E+01
 -1       463 4.98780E+01
 -1       464 1.40211E+01
 -1       465 4.98780E+01
 -1       466 1.52849E+01
 -1       467 1.52386E-05
 -1       468 7.07188E+00
 -1       469 8.22736E+00
 -1       470 2.37078E+00
 -1       471 1.59727E+00
 -1       472 1.19340E+00
 -1       473 1.18422E+00
 -1       474 1.22863E+00
 -1       475 1.73483E+00
 -1       476 1.72867E+00
 -1       477 1.96608E+00
 -1       478 2.05548E+01
 -1       479 4.83080E+00
 -1       480 1.40563E+01
 -1       481 1.11488E+01
 -1       482 6.63593E+00
 -1       483 3.72765E+00
 -1       484 2.11941E+00
 -1       485 1.19510E+00
 -1       486 6.62688E-01
 -1       487 3.70229E-01
 -1       488 2.02513E-01
 -1       489 1.06471E-01
 -1       490 5.22490E-02
 -1       491 2.35934E-02
 -1       492 1.01004E-02
 -1       493 4.82840E-03
 -1       494 3.00242E-03
 -1       495 1.99919E-03
 -1       496 2.19949E-03
 -1       497 2.19349E-03
 -1       498 1.99699E-03
 -1       499 1.70933E-03
 -1       500 1.58958E-03
 -1       501 1.42841E-03
 -1       502 1.23085E-03
 -1       503 1.07775E-03
 -1       504 9.19575E-04
 -1       505 7.53525E-04
 -1       506 6.18048E-04
 -1       507 4.94533E-04
 -1       508 3.86782E-04
 -1       509 2.95793E-04
 -1       510 2.21028E-04
 -1       511 1.61083E-04
 -1       512 1.14145E-04
 -1       513 7.83135E-05
 -1       514 5.32836E-05
 -1       515 3.95386E-05
 -1       516 2.48352E+00
 -1       517 2.61022E+00
 -1       518 2.21988E+00
 -1       519 2.17127E+00
 -1       520 2.03440E+00
 -1       521 1.81594E+00
 -1       522 1.58729E+00
 -1       523 1.34005E+00
 -1       524 1.07616E+00
 -1       525 8.25628E-01
 -1       526 6.09816E-01
 -1       527 4.53694E-01
 -1       528 3.27147E-01
 -1       529 2.28899E-01
 -1       530 1.55488E-01
 -1       531 1.02490E-01
 -1       532 6.54085E-02
 -1       533 4.02054E-02
 -1       534 2.35485E-02
 -1       535 1.28490E-02
 -1       536 9.91689E-03
 -1       537 8.13516E-03
 -1       538 6.48558E-03
 -1       539 5.05990E-03
 -1       540 3.96889E-03
 -1       541 3.24217E-03
 -1       542 2.58582E-03
 -1       543 2.05321E-03
 -1       544 1.66383E-03
 -1       545 1.33053E-03
 -1       546 1.04978E-03
 -1       547 8.17544E-04
 -1       548 6.47851E-04
 -1       549 5.04976E-04
 -1       550 3.87217E-04
 -1       551 2.91916E-04
 -1       552 2.16069E-04
 -1       553 1.56684E-04
 -1       554 1.10981E-04
 -1       555 7.63392E-05
 -1       556 5.21006E-05
 -1       557 3.38299E-05
 -1       558 2.91659E-05
 -1       559 3.57594E-05
 -1       560 3.57594E-05
 -1       561 1.22892E+01
 -1       562 3.41973E-05
 -1       563 3.43956E-05
 -1       564 3.43956E-05
 -1       565 3.43016E-05
 -1       566 3.39703E-05
 -1       567 2.88597E-05
 -1       568 2.38808E-05
 -1       569 3.95386E-05
 -1       570 2.28158E+00
 -1       571 1.23241E+01
 -1       572 1.76014E+01
 -1       573 1.75051E+01
 -1       574 7.69787E+00
 -1       575 4.35958E+00
 -1       576 5.90536E+00
 -1       577 7.34682E+00
 -1       578 6.59463E+00
 -1       579 4.98780E+01
 -1       580 4.97236E+00
 -1       581 9.00638E+00
 -1       582 1.22720E+01
 -1       583 1.88271E+01
 -1       584 2.82323E+01
 -1       585 5.18301E+01
 -1       586 2.73537E+01
 -1       587 5.54544E+00
 -1       588 7.81815E+00
 -1       589 3.16706E+01
 -1       590 9.50318E+00
 -1       591 1.77247E+00
 -1       592 2.82712E+01
 -1       593 2.85707E-05
 -1       594 2.06821E+00
 -1       595 1.00953E+01
 -1       596 2.02180E+01
 -1       597 1.39159E+00
 -1       598 2.92437E+00
 -1       599 1.40255E+00
 -1       600 2.11396E+00
 -1       601 2.11396E+00
 -1       602 5.26141E+00
 -1       603 2.99284E+00
 -1       604 1.70678E+00
 -1       605 9.63764E-01
 -1       606 5.35275E-01
 -1       607 2.90686E-01
 -1       608 1.53560E-01
 -1       609 8.14560E-02
 -1       610 4.18292E-02
 -1       611 2.10136E-02
 -1       612 1.01489E-02
 -1       613 4.82840E-03
 -1       614 2.67670E-03
 -1       615 1.43513E-03
 -1       616 1.60302E-03
 -1       617 1.64553E-03
 -1       618 1.57635E-03
 -1       619 1.42981E-03
 -1       620 1.34813E-03
 -1       621 1.23078E-03
 -1       622 1.07775E-03
 -1       623 9.30229E-04
 -1       624 7.73153E-04
 -1       625 6.32875E-04
 -1       626 5.06006E-04
 -1       627 4.00604E-04
 -1       628 3.16041E-04
 -1       629 2.44107E-04
 -1       630 1.84525E-04
 -1       631 1.36347E-04
 -1       632 9.82850E-05
 -1       633 6.82654E-05
 -1       634 5.25731E-05
 -1       635 2.03544E+00
 -1       636 5.63773E-05
 -1       637 7.67356E+00
 -1       638 1.73998E+00
 -1       639 1.75957E+00
 -1       640 1.50476E+00
 -1       641 1.31883E+00
 -1       642 1.09034E+00
 -1       643 8.56517E-01
 -1       644 6.74984E-01
 -1       645 5.13351E-01
 -1       646 3.73417E-01
 -1       647 2.60589E-01
 -1       648 1.74696E-01
 -1       649 1.15488E-01
 -1       650 7.38375E-02
 -1       651 4.70870E-02
 -1       652 2.99335E-02
 -1       653 1.83944E-02
 -1       654 1.07777E-02
 -1       655 5.85523E-03
 -1       656 4.73554E-03
 -1       657 4.25614E-03
 -1       658 3.63285E-03
 -1       659 2.99531E-03
 -1       660 2.41263E-03
 -1       661 2.04349E-03
 -1       662 1.68242E-03
 -1       663 1.35536E-03
 -1       664 1.07245E-03
 -1       665 8.35206E-04
 -1       666 6.47851E-04
 -1       667 5.04976E-04
 -1       668 3.87217E-04
 -1       669 2.97934E-04
 -1       670 2.27759E-04
 -1       671 1.70894E-04
 -1       672 1.25674E-04
 -1       673 8.97359E-05
 -1       674 6.51755E-05
 -1       675 4.76373E-05
 -1       676 2.02180E+01
 -1       677 4.47240E-05
 -1       678 4.70758E-05
 -1       679 4.70758E-05
 -1       680 4.45161E-05
 -1       681 3.41601E-05
 -1       682 3.37696E-05
 -1       683 1.92207E+00
 -1       684 8.03798E+00
 -1       685 3.17017E+00
 -1       686 3.43329E+00
 -1       687 1.75387E+00
 -1       688 1.45004E+01
 -1       689 4.76373E-05
 -1       690 5.63773E-05
 -1       691 4.51841E+00
 -1       692 4.65620E+00
 -1       693 1.63924E+00
 -1       694 5.69728E+00
 -1       695 9.74446E+00
 -1       696 4.08831E+00
 -1       697 1.02010E+01
 -1       698 1.07575E+01
 -1       699 1.40666E+00
 -1       700 6.31408E+00
 -1       701 1.45070E+01
 -1       702 5.17606E+00
 -1       703 1.74374E+01
 -1       704 2.92437E+00
 -1       705 2.11396E+00
 -1       706 1.26824E+01
 -1       707 4.51703E+00
 -1       708 1.71578E+00
 -1       709 1.53126E+00
 -1       710 3.16105E+00
 -1       711 1.66994E+00
 -1       712 6.34872E-05
 -1       713 1.86094E+00
 -1       714 1.04719E+00
 -1       715 5.80803E-01
 -1       716 3.29530E-01
 -1       717 1.88311E-01
 -1       718 1.03711E-01
 -1       719 5.30391E-02
 -1       720 2.83959E-02
 -1       721 1.54880E-02
 -1       722 8.17025E-03
 -1       723 4.15153E-03
 -1       724 2.06403E-03
 -1       725 1.04757E-03
 -1       726 1.13882E-03
 -1       727 1.21043E-03
 -1       728 1.21455E-03
 -1       729 1.15450E-03
 -1       730 1.08216E-03
 -1       731 9.91569E-04
 -1       732 8.73913E-04
 -1       733 7.42942E-04
 -1       734 6.21984E-04
 -1       735 5.08451E-04
 -1       736 4.06489E-04
 -1       737 3.18182E-04
 -1       738 2.44107E-04
 -1       739 1.86271E-04
 -1       740 1.41356E-04
 -1       741 1.04913E-04
 -1       742 7.58190E-05
 -1       743 5.62479E-05
 -1       744 1.12367E+00
 -1       745 1.29516E+00
 -1       746 8.18207E-01
 -1       747 6.42142E-01
 -1       748 4.81184E-01
 -1       749 3.46498E-01
 -1       750 2.40733E-01
 -1       751 1.61811E-01
 -1       752 1.05324E-01
 -1       753 6.70122E-02
 -1       754 4.21973E-02
 -1       755 2.56269E-02
 -1       756 1.50177E-02
 -1       757 8.31782E-03
 -1       758 4.32669E-03
 -1       759 2.58583E-03
 -1       760 2.62921E-03
 -1       761 2.49748E-03
 -1       762 2.22052E-03
 -1       763 1.89316E-03
 -1       764 1.56716E-03
 -1       765 1.34415E-03
 -1       766 1.12371E-03
 -1       767 9.18545E-04
 -1       768 7.36782E-04
 -1       769 5.81055E-04
 -1       770 4.50923E-04
 -1       771 3.44337E-04
 -1       772 2.58523E-04
 -1       773 1.90494E-04
 -1       774 1.37356E-04
 -1       775 9.69046E-05
 -1       776 6.16618E-05
 -1       777 2.85443E+00
 -1       778 6.34872E-05
 -1       779 6.20182E-05
 -1       780 6.20182E-05
 -1       781 9.91238E+00
 -1       782 2.76317E+00
 -1       783 7.46071E+00
 -1       784 6.13245E-05
 -1       785 3.69654E+00
 -1       786 5.55261E-05
 -1       787 2.64902E+00
 -1       788 5.67696E-05
 -1       789 5.36519E+00
 -1       790 8.99757E+00
 -1       791 3.26797E+00
 -1       792 9.87954E-01
 -1       793 3.89924E+00
 -1       794 4.30637E+00
 -1       795 3.32764E+00
 -1       796 3.08147E+00
 -1       797 1.48202E+00
 -1       798 1.71578E+00
 -1       799 1.44344E+00
 -1       800 4.23284E+00
 -1       801 7.22405E-05
 -1       802 9.88624E+00
 -1       803 3.11494E+00
 -1       804 1.06530E+01
 -1       805 4.46206E-05
 -1       806 1.55309E+00
 -1       807 1.48593E+00
 -1       808 8.27494E+00
 -1       809 1.49968E+00
 -1       810 1.75127E+00
 -1       811 2.28050E+00
 -1       812 1.29449E+00
 -1       813 7.40449E-01
 -1       814 4.49396E-01
 -1       815 2.64896E-01
 -1       816 1.57551E-01
 -1       817 8.28837E-02
 -1       818 4.48230E-02
 -1       819 2.43911E-02
 -1       820 1.29498E-02
 -1       821 6.53915E-03
 -1       822 3.07748E-03
 -1       823 1.29763E-03
 -1       824 7.20570E-04
 -1       825 8.47481E-04
 -1       826 9.52727E-04
 -1       827 9.96125E-04
 -1       828 9.78148E-04
 -1       829 9.12340E-04
 -1       830 8.44497E-04
 -1       831 7.63496E-04
 -1       832 6.66842E-04
 -1       833 5.65636E-04
 -1       834 4.67412E-04
 -1       835 3.77254E-04
 -1       836 2.97819E-04
 -1       837 2.30065E-04
 -1       838 1.73770E-04
 -1       839 1.28126E-04
 -1       840 9.14137E-05
 -1       841 1.24552E+00
 -1       842 5.53166E-01
 -1       843 7.37282E-01
 -1       844 2.79218E-01
 -1       845 1.89857E-01
 -1       846 1.26025E-01
 -1       847 8.17950E-02
 -1       848 5.18728E-02
 -1       849 3.26830E-02
 -1       850 2.04210E-02
 -1       851 1.23504E-02
 -1       852 7.28193E-03
 -1       853 3.99363E-03
 -1       854 1.90926E-03
 -1       855 1.53317E-03
 -1       856 1.65667E-03
 -1       857 1.59297E-03
 -1       858 1.43605E-03
 -1       859 1.24180E-03
 -1       860 1.04225E-03
 -1       861 8.93079E-04
 -1       862 7.49238E-04
 -1       863 6.14651E-04
 -1       864 4.94516E-04
 -1       865 3.90801E-04
 -1       866 3.03534E-04
 -1       867 2.31625E-04
 -1       868 1.73416E-04
 -1       869 1.26833E-04
 -1       870 2.76317E+00
 -1       871 8.38132E-05
 -1       872 8.51408E-05
 -1       873 8.02778E-05
 -1       874 3.99486E-01
 -1       875 3.21091E+00
 -1       876 2.34309E+00
 -1       877 3.27802E+00
 -1       878 1.74674E+00
 -1       879 8.38132E-05
 -1       880 4.12847E+00
 -1       881 2.92576E+00
 -1       882 1.63355E+00
 -1       883 1.57265E+00
 -1       884 5.58805E+00
 -1       885 1.99814E+00
 -1       886 2.64825E+00
 -1       887 1.37006E+00
 -1       888 1.11119E+00
 -1       889 8.12335E-05
 -1       890 7.22405E-05
 -1       891 9.34186E-01
 -1       892 1.64650E+00
 -1       893 8.22376E-05
 -1       894 2.92576E+00
 -1       895 3.08147E+00
 -1       896 3.48931E+00
 -1       897 8.02778E-05
 -1       898 1.54381E+00
 -1       899 9.65709E-05
 -1       900 5.12920E+00
 -1       901 1.43405E+00
 -1       902 5.86462E-01
 -1       903 1.63355E+00
 -1       904 6.14869E-01
 -1       905 3.59551E-01
 -1       906 2.07598E-01
 -1       907 1.10767E-01
 -1       908 6.11067E-02
 -1       909 3.32964E-02
 -1       910 1.77414E-02
 -1       911 9.49071E-03
 -1       912 4.80468E-03
 -1       913 2.14560E-03
 -1       914 1.24393E-03
 -1       915 9.67402E-04
 -1       916 8.59457E-04
 -1       917 8.63636E-04
 -1       918 8.63636E-04
 -1       919 8.55366E-04
 -1       920 8.03097E-04
 -1       921 7.53036E-04
 -1       922 6.76947E-04
 -1       923 5.88983E-04
 -1       924 4.98321E-04
 -1       925 4.11498E-04
 -1       926 3.32413E-04
 -1       927 2.63007E-04
 -1       928 2.03905E-04
 -1       929 1.54825E-04
 -1       930 1.16211E-04
 -1       931 1.20975E-04
 -1       932 2.11062E+00
 -1       933 1.44637E-01
 -1       934 2.13458E-01
 -1       935 6.08449E-02
 -1       936 3.79263E-02
 -1       937 2.33933E-02
 -1       938 1.43633E-02
 -1       939 8.77584E-03
 -1       940 5.50524E-03
 -1       941 3.27031E-03
 -1       942 1.77093E-03
 -1       943 9.03122E-04
 -1       944 1.06128E-03
 -1       945 1.10638E-03
 -1       946 1.05171E-03
 -1       947 9.45927E-04
 -1       948 8.19128E-04
 -1       949 6.89361E-04
 -1       950 5.80542E-04
 -1       951 4.84602E-04
 -1       952 3.95626E-04
 -1       953 3.16593E-04
 -1       954 2.48609E-04
 -1       955 1.91601E-04
 -1       956 1.45902E-04
 -1       957 2.53256E+00
 -1       958 3.78055E+00
 -1       959 3.35685E+00
 -1       960 2.28008E+00
 -1       961 1.69189E+00
 -1       962 1.99814E+00
 -1       963 1.12917E-04
 -1       964 2.47781E+00
 -1       965 1.22317E-04
 -1       966 1.02062E+00
 -1       967 2.11062E+00
 -1       968 9.50862E-02
 -1       969 2.28008E+00
 -1       970 1.52225E+00
 -1       971 9.69282E-05
 -1       972 1.71145E+00
 -1       973 1.32077E+00
 -1       974 3.03882E-01
 -1       975 3.78055E+00
 -1       976 8.07269E-01
 -1       977 4.13598E-01
 -1       978 2.10168E+00
 -1       979 2.10383E+00
 -1       980 1.03512E-04
 -1       981 2.48124E+00
 -1       982 1.04779E+00
 -1       983 2.71962E-01
 -1       984 1.62573E-01
 -1       985 9.50864E-02
 -1       986 5.40531E-02
 -1       987 2.97009E-02
 -1       988 1.56423E-02
 -1       989 7.78033E-03
 -1       990 4.01784E-03
 -1       991 2.43107E-03
 -1       992 1.68188E-03
 -1       993 1.07889E-03
 -1       994 9.05719E-04
 -1       995 8.42857E-04
 -1       996 7.68475E-04
 -1       997 7.57945E-04
 -1       998 7.20762E-04
 -1       999 6.62133E-04
 -1      1000 5.86483E-04
 -1      1001 5.04248E-04
 -1      1002 4.22872E-04
 -1      1003 3.46951E-04
 -1      1004 2.79011E-04
 -1      1005 2.20066E-04
 -1      1006 1.69894E-04
 -1      1007 1.31202E-04
 -1      1008 6.54661E-01
 -1      1009 3.14468E-02
 -1      1010 5.04466E-02
 -1      1011 1.22514E-02
 -1      1012 7.43104E-03
 -1      1013 4.35122E-03
 -1      1014 2.43025E-03
 -1      1015 1.46930E-03
 -1      1016 7.88228E-04
 -1      1017 6.91769E-04
 -1      1018 7.34658E-04
 -1      1019 7.36055E-04
 -1      1020 6.86833E-04
 -1      1021 6.11566E-04
 -1      1022 5.26170E-04
 -1      1023 4.40552E-04
 -1      1024 3.60494E-04
 -1      1025 2.93958E-04
 -1      1026 2.37255E-04
 -1      1027 1.87593E-04
 -1      1028 1.58065E-04
 -1      1029 2.10383E+00
 -1      1030 1.71091E-04
 -1      1031 1.97078E-02
 -1      1032 2.48124E+00
 -1      1033 1.84531E-01
 -1      1034 2.89926E+00
 -1      1035 1.02062E+00
 -1      1036 4.33326E-01
 -1      1037 1.54629E-04
 -1      1038 7.93308E-02
 -1      1039 1.22323E-01
 -1      1040 1.39613E-04
 -1      1041 2.72546E-01
 -1      1042 2.09512E+00
 -1      1043 3.78055E+00
 -1      1044 7.08571E-01
 -1      1045 5.56425E-01
 -1      1046 3.18608E-01
 -1      1047 1.02064E+00
 -1      1048 2.16057E-02
 -1      1049 1.10825E-01
 -1      1050 6.53686E-02
 -1      1051 3.83443E-02
 -1      1052 2.23444E-02
 -1      1053 1.28968E-02
 -1      1054 7.31702E-03
 -1      1055 4.01784E-03
 -1      1056 2.55768E-03
 -1      1057 1.68188E-03
 -1      1058 1.07889E-03
 -1      1059 9.05719E-04
 -1      1060 7.52099E-04
 -1      1061 6.80654E-04
 -1      1062 6.61912E-04
 -1      1063 6.09934E-04
 -1      1064 5.40961E-04
 -1      1065 4.65859E-04
 -1      1066 3.91731E-04
 -1      1067 3.22728E-04
 -1      1068 2.61026E-04
 -1      1069 2.07501E-04
 -1      1070 1.62463E-04
 -1      1071 1.99303E+00
 -1      1072 5.49737E-03
 -1      1073 8.81116E-03
 -1      1074 2.30063E-03
 -1      1075 1.46598E-03
 -1      1076 8.41737E-04
 -1      1077 5.60544E-04
 -1      1078 5.93255E-04
 -1      1079 5.68820E-04
 -1      1080 5.15027E-04
 -1      1081 4.68144E-04
 -1      1082 4.15449E-04
 -1      1083 3.57266E-04
 -1      1084 2.99609E-04
 -1      1085 2.47004E-04
 -1      1086 2.00706E-04
 -1      1087 1.71091E-04
 -1      1088 1.38563E-02
 -1      1089 8.59173E-02
 -1      1090 1.37781E+00
 -1      1091 3.97366E-01
 -1      1092 1.34514E-01
 -1      1093 1.99303E+00
 -1      1094 8.33084E-01
 -1      1095 3.35968E-03
 -1      1096 3.44507E-02
 -1      1097 5.26311E-01
 -1      1098 5.45540E-02
 -1      1099 1.71091E-04
 -1      1100 1.88686E-01
 -1      1101 2.08638E-01
 -1      1102 2.06385E+00
 -1      1103 1.31432E+00
 -1      1104 7.00941E-01
 -1      1105 8.89527E-01
 -1      1106 1.61495E-04
 -1      1107 5.71221E-02
 -1      1108 3.33981E-02
 -1      1109 1.90273E-02
 -1      1110 1.07442E-02
 -1      1111 6.07354E-03
 -1      1112 4.00710E-03
 -1      1113 2.55768E-03
 -1      1114 1.54308E-03
 -1      1115 1.07571E-03
 -1      1116 7.55872E-04
 -1      1117 6.27226E-04
 -1      1118 6.03816E-04
 -1      1119 5.45937E-04
 -1      1120 4.75677E-04
 -1      1121 4.32106E-04
 -1      1122 3.88524E-04
 -1      1123 3.37418E-04
 -1      1124 2.85038E-04
 -1      1125 2.35241E-04
 -1      1126 1.89863E-04
 -1      1127 1.58310E-01
 -1      1128 2.55163E-01
 -1      1129 7.50287E-01
 -1      1130 9.56515E-02
 -1      1131 3.95558E-01
 -1      1132 5.92786E-01
 -1      1133 4.80328E-01
 -1      1134 9.76907E-01
 -1      1135 3.18304E-01
 -1      1136 1.09087E+01
 -1      1137 8.79660E+00
 -1      1138 6.30523E+00
 -1      1139 4.71865E+00
 -1      1140 3.23230E+00
 -1      1141 2.95325E+00
 -1      1142 2.69545E+00
 -1      1143 2.18162E+00
 -1      1144 1.83790E+00
 -1      1145 1.64807E+00
 -1      1146 1.52555E+00
 -1      1147 1.43780E+00
 -1      1148 1.29085E+00
 -1      1149 1.14415E+00
 -1      1150 2.00871E+00
 -1      1151 6.28335E+00
 -1      1152 1.26246E+01
 -1      1153 1.09087E+01
 -1      1154 8.15766E+00
 -1      1155 6.76948E+00
 -1      1156 8.79901E+00
 -1      1157 9.46567E+00
 -1      1158 8.43749E+00
 -1      1159 1.25709E+01
 -1      1160 2.11835E+01
 -1      1161 2.46346E+01
 -1      1162 2.26215E+01
 -1      1163 1.40545E+01
 -1      1164 7.19857E+00
 -1      1165 6.89669E+00
 -1      1166 6.73372E+00
 -1      1167 5.95071E+00
 -1      1168 4.53950E+00
 -1      1169 3.20631E+00
 -1      1170 2.19937E+00
 -1      1171 1.38944E+00
 -1      1172 8.18201E-01
 -1      1173 4.55104E-01
 -1      1174 2.39913E-01
 -1      1175 1.18732E-01
 -1      1176 5.81762E-02
 -1      1177 2.99165E-02
 -1      1178 1.55495E-02
 -1      1179 9.24234E-03
 -1      1180 5.80056E-03
 -1      1181 4.22569E-03
 -1      1182 3.25164E-03
 -1      1183 2.76947E-03
 -1      1184 2.39915E-03
 -1      1185 2.05887E-03
 -1      1186 1.88033E-03
 -1      1187 1.69627E-03
 -1      1188 1.45512E-03
 -1      1189 1.20200E-03
 -1      1190 9.81213E-04
 -1      1191 8.10470E-04
 -1      1192 6.40468E-04
 -1      1193 4.97642E-04
 -1      1194 4.07045E-04
 -1      1195 3.26637E-04
 -1      1196 2.56551E-04
 -1      1197 1.97425E-04
 -1      1198 1.48794E-04
 -1      1199 1.09513E-04
 -1      1200 7.80247E-05
 -1      1201 5.44524E-05
 -1      1202 3.86206E-05
 -1      1203 2.45866E-05
 -1      1204 1.15104E-05
 -1      1205 1.56228E+01
 -1      1206 1.01550E+01
 -1      1207 4.46148E+00
 -1      1208 4.03736E+00
 -1      1209 3.73128E+00
 -1      1210 3.56779E+00
 -1      1211 3.52043E+00
 -1      1212 3.52888E+00
 -1      1213 3.52542E+00
 -1      1214 3.40225E+00
 -1      1215 3.06994E+00
 -1      1216 2.59520E+00
 -1      1217 2.08876E+00
 -1      1218 1.62396E+00
 -1      1219 1.21291E+00
 -1      1220 8.68659E-01
 -1      1221 5.97625E-01
 -1      1222 4.08014E-01
 -1      1223 2.85008E-01
 -1      1224 1.96425E-01
 -1      1225 1.31319E-01
 -1      1226 8.51618E-02
 -1      1227 5.34689E-02
 -1      1228 3.57571E-02
 -1      1229 2.68616E-02
 -1      1230 1.98505E-02
 -1      1231 1.44740E-02
 -1      1232 1.07116E-02
 -1      1233 8.40447E-03
 -1      1234 6.79180E-03
 -1      1235 5.40130E-03
 -1      1236 4.24118E-03
 -1      1237 3.31047E-03
 -1      1238 2.59315E-03
 -1      1239 2.02740E-03
 -1      1240 1.56503E-03
 -1      1241 1.19266E-03
 -1      1242 8.96608E-04
 -1      1243 6.64056E-04
 -1      1244 4.83551E-04
 -1      1245 3.51656E-04
 -1      1246 2.62793E-04
 -1      1247 1.98793E-04
 -1      1248 1.47841E-04
 -1      1249 1.07667E-04
 -1      1250 7.60295E-05
 -1      1251 5.43414E-05
 -1      1252 4.11242E-05
 -1      1253 2.77008E-05
 -1      1254 1.30137E-05
 -1      1255 6.65186E-06
 -1      1256 7.75874E-06
 -1      1257 8.47115E-06
 -1      1258 7.21583E-06
 -1      1259 4.36091E-06
 -1      1260 4.24390E-06
 -1      1261 6.77324E-06
 -1      1262 8.14190E-06
 -1      1263 8.46379E-06
 -1      1264 8.13707E-06
 -1      1265 6.74600E-06
 -1      1266 4.26902E-06
 -1      1267 4.31206E-06
 -1      1268 6.95100E-06
 -1      1269 8.13424E-06
 -1      1270 7.04053E-06
 -1      1271 6.07226E-06
 -1      1272 2.44681E+01
 -1      1273 3.27717E+01
 -1      1274 4.12421E+01
 -1      1275 2.83833E+01
 -1      1276 1.36788E+01
 -1      1277 1.18331E+01
 -1      1278 1.18079E+01
 -1      1279 1.17827E+01
 -1      1280 1.17552E+01
 -1      1281 1.17277E+01
 -1      1282 1.45450E+01
 -1      1283 3.06385E+01
 -1      1284 4.39146E+01
 -1      1285 3.44705E+01
 -1      1286 2.51395E+01
 -1      1287 2.57084E+01
 -1      1288 2.66921E+01
 -1      1289 3.62813E+01
 -1      1290 4.53427E+01
 -1      1291 3.20179E+01
 -1      1292 1.66701E+01
 -1      1293 1.46470E+01
 -1      1294 1.46332E+01
 -1      1295 1.46194E+01
 -1      1296 1.70722E+01
 -1      1297 3.33043E+01
 -1      1298 4.70837E+01
 -1      1299 3.74315E+01
 -1      1300 2.77420E+01
 -1      1301 2.61699E+01
 -1      1302 1.09087E+01
 -1      1303 7.57718E+00
 -1      1304 9.68928E+00
 -1      1305 6.41085E+00
 -1      1306 6.79013E+00
 -1      1307 7.68281E+00
 -1      1308 4.76047E+00
 -1      1309 5.96777E+00
 -1      1310 6.45267E+00
 -1      1311 3.14610E+00
 -1      1312 3.42514E+00
 -1      1313 4.67427E+00
 -1      1314 3.14610E+00
 -1      1315 3.14610E+00
 -1      1316 3.33895E+00
 -1      1317 2.80097E+00
 -1      1318 3.05877E+00
 -1      1319 3.25162E+00
 -1      1320 2.25404E+00
 -1      1321 2.51006E+00
 -1      1322 2.87339E+00
 -1      1323 1.84836E+00
 -1      1324 1.93605E+00
 -1      1325 2.26449E+00
 -1      1326 1.64807E+00
 -1      1327 1.75021E+00
 -1      1328 1.84836E+00
 -1      1329 1.52555E+00
 -1      1330 1.54593E+00
 -1      1331 1.64807E+00
 -1      1332 1.43780E+00
 -1      1333 1.50517E+00
 -1      1334 1.52555E+00
 -1      1335 1.29085E+00
 -1      1336 1.37044E+00
 -1      1337 1.43780E+00
 -1      1338 1.14415E+00
 -1      1339 1.21127E+00
 -1      1340 1.29085E+00
 -1      1341 2.20154E+00
 -1      1342 1.26985E+00
 -1      1343 1.33697E+00
 -1      1344 6.62821E+00
 -1      1345 3.28526E+00
 -1      1346 2.54640E+00
 -1      1347 1.56228E+01
 -1      1348 1.26246E+01
 -1      1349 9.62647E+00
 -1      1350 1.56228E+01
 -1      1351 9.70178E+00
 -1      1352 6.95074E+00
 -1      1353 7.18343E+00
 -1      1354 8.54629E+00
 -1      1355 8.72755E+00
 -1      1356 9.30963E+00
 -1      1357 9.97630E+00
 -1      1358 9.72358E+00
 -1      1359 1.13844E+01
 -1      1360 1.13844E+01
 -1      1361 1.18950E+01
 -1      1362 7.78497E+00
 -1      1363 1.29466E+01
 -1      1364 1.77325E+01
 -1      1365 2.11835E+01
 -1      1366 1.29466E+01
 -1      1367 2.46346E+01
 -1      1368 2.46346E+01
 -1      1369 2.11835E+01
 -1      1370 2.26215E+01
 -1      1371 2.06085E+01
 -1      1372 2.26215E+01
 -1      1373 1.40545E+01
 -1      1374 7.50045E+00
 -1      1375 1.40545E+01
 -1      1376 8.88677E+00
 -1      1377 8.58489E+00
 -1      1378 8.88677E+00
 -1      1379 7.74808E+00
 -1      1380 7.74808E+00
 -1      1381 9.43628E+00
 -1      1382 7.14669E+00
 -1      1383 6.98373E+00
 -1      1384 7.99808E+00
 -1      1385 6.58634E+00
 -1      1386 5.96629E+00
 -1      1387 6.99931E+00
 -1      1388 5.19014E+00
 -1      1389 4.39897E+00
 -1      1390 5.82576E+00
 -1      1391 3.59106E+00
 -1      1392 3.04905E+00
 -1      1393 4.24170E+00
 -1      1394 2.39209E+00
 -1      1395 1.92717E+00
 -1      1396 2.77684E+00
 -1      1397 1.47358E+00
 -1      1398 1.12857E+00
 -1      1399 1.66630E+00
 -1      1400 8.62792E-01
 -1      1401 6.36557E-01
 -1      1402 9.46929E-01
 -1      1403 4.87383E-01
 -1      1404 3.50522E-01
 -1      1405 5.31975E-01
 -1      1406 2.61798E-01
 -1      1407 1.83470E-01
 -1      1408 2.94078E-01
 -1      1409 1.32903E-01
 -1      1410 9.00503E-02
 -1      1411 1.54788E-01
 -1      1412 6.23350E-02
 -1      1413 4.46315E-02
 -1      1414 7.65057E-02
 -1      1415 3.09415E-02
 -1      1416 2.03852E-02
 -1      1417 3.51003E-02
 -1      1418 1.55495E-02
 -1      1419 1.17389E-02
 -1      1420 1.65745E-02
 -1      1421 9.24234E-03
 -1      1422 6.74581E-03
 -1      1423 9.24234E-03
 -1      1424 5.80056E-03
 -1      1425 4.85531E-03
 -1      1426 5.80056E-03
 -1      1427 4.22569E-03
 -1      1428 3.59607E-03
 -1      1429 4.22569E-03
 -1      1430 3.25164E-03
 -1      1431 2.90721E-03
 -1      1432 3.25164E-03
 -1      1433 2.83462E-03
 -1      1434 2.69687E-03
 -1      1435 2.83462E-03
 -1      1436 2.53076E-03
 -1      1437 2.29819E-03
 -1      1438 2.59591E-03
 -1      1439 2.07683E-03
 -1      1440 1.96912E-03
 -1      1441 2.20844E-03
 -1      1442 1.88422E-03
 -1      1443 1.81338E-03
 -1      1444 1.90217E-03
 -1      1445 1.71561E-03
 -1      1446 1.60239E-03
 -1      1447 1.71950E-03
 -1      1448 1.48339E-03
 -1      1449 1.35547E-03
 -1      1450 1.50273E-03
 -1      1451 1.23340E-03
 -1      1452 1.10820E-03
 -1      1453 1.26166E-03
 -1      1454 1.01391E-03
 -1      1455 9.18323E-04
 -1      1456 1.04531E-03
 -1      1457 8.38964E-04
 -1      1458 7.63809E-04
 -1      1459 8.71661E-04
 -1      1460 6.68450E-04
 -1      1461 5.73603E-04
 -1      1462 6.96944E-04
 -1      1463 5.04384E-04
 -1      1464 4.56406E-04
 -1      1465 5.32367E-04
 -1      1466 4.07045E-04
 -1      1467 3.64426E-04
 -1      1468 4.13787E-04
 -1      1469 3.26637E-04
 -1      1470 2.88848E-04
 -1      1471 3.26637E-04
 -1      1472 2.56854E-04
 -1      1473 2.24557E-04
 -1      1474 2.56854E-04
 -1      1475 1.99454E-04
 -1      1476 1.72625E-04
 -1      1477 1.99757E-04
 -1      1478 1.51739E-04
 -1      1479 1.29935E-04
 -1      1480 1.53767E-04
 -1      1481 1.12897E-04
 -1      1482 9.54201E-05
 -1      1483 1.15842E-04
 -1      1484 8.16690E-05
 -1      1485 6.76579E-05
 -1      1486 8.50534E-05
 -1      1487 5.65136E-05
 -1      1488 4.69524E-05
 -1      1489 6.01579E-05
 -1      1490 3.99134E-05
 -1      1491 3.36428E-05
 -1      1492 4.19746E-05
 -1      1493 2.64612E-05
 -1      1494 1.86978E-05
 -1      1495 2.77540E-05
 -1      1496 1.36290E-05
 -1      1497 8.31626E-06
 -1      1498 8.19082E-06
 -1      1499 1.55036E-05
 -1      1500 4.68720E+00
 -1      1501 1.01550E+01
 -1      1502 1.01550E+01
 -1      1503 4.23576E+00
 -1      1504 4.46148E+00
 -1      1505 4.46148E+00
 -1      1506 3.83896E+00
 -1      1507 4.03736E+00
 -1      1508 4.03736E+00
 -1      1509 3.62359E+00
 -1      1510 3.73128E+00
 -1      1511 3.73128E+00
 -1      1512 3.51198E+00
 -1      1513 3.56779E+00
 -1      1514 3.56779E+00
 -1      1515 3.45300E+00
 -1      1516 3.44455E+00
 -1      1517 3.44455E+00
 -1      1518 3.52888E+00
 -1      1519 3.52888E+00
 -1      1520 3.45300E+00
 -1      1521 3.52196E+00
 -1      1522 3.52542E+00
 -1      1523 3.52542E+00
 -1      1524 3.28253E+00
 -1      1525 3.40225E+00
 -1      1526 3.40225E+00
 -1      1527 2.85736E+00
 -1      1528 3.06994E+00
 -1      1529 3.06994E+00
 -1      1530 2.33303E+00
 -1      1531 2.59520E+00
 -1      1532 2.59520E+00
 -1      1533 1.84448E+00
 -1      1534 2.08876E+00
 -1      1535 2.08876E+00
 -1      1536 1.41390E+00
 -1      1537 1.63442E+00
 -1      1538 1.63442E+00
 -1      1539 1.04740E+00
 -1      1540 1.23794E+00
 -1      1541 1.24839E+00
 -1      1542 7.45593E-01
 -1      1543 8.99315E-01
 -1      1544 9.24337E-01
 -1      1545 5.10751E-01
 -1      1546 6.28063E-01
 -1      1547 6.58719E-01
 -1      1548 3.49652E-01
 -1      1549 4.21951E-01
 -1      1550 4.52389E-01
 -1      1551 2.34683E-01
 -1      1552 2.85390E-01
 -1      1553 2.99326E-01
 -1      1554 1.58549E-01
 -1      1555 1.96425E-01
 -1      1556 1.96807E-01
 -1      1557 1.04310E-01
 -1      1558 1.31539E-01
 -1      1559 1.31539E-01
 -1      1560 6.76177E-02
 -1      1561 8.65459E-02
 -1      1562 8.67657E-02
 -1      1563 4.24793E-02
 -1      1564 5.52440E-02
 -1      1565 5.66281E-02
 -1      1566 3.08101E-02
 -1      1567 3.57571E-02
 -1      1568 3.75323E-02
 -1      1569 2.29371E-02
 -1      1570 2.68856E-02
 -1      1571 2.68856E-02
 -1      1572 1.70112E-02
 -1      1573 2.00740E-02
 -1      1574 2.00979E-02
 -1      1575 1.24516E-02
 -1      1576 1.47654E-02
 -1      1577 1.49889E-02
 -1      1578 9.28380E-03
 -1      1579 1.07324E-02
 -1      1580 1.10238E-02
 -1      1581 7.54592E-03
 -1      1582 8.40447E-03
 -1      1583 8.42524E-03
 -1      1584 6.03769E-03
 -1      1585 6.79180E-03
 -1      1586 6.79180E-03
 -1      1587 4.76491E-03
 -1      1588 5.40130E-03
 -1      1589 5.40130E-03
 -1      1590 3.71746E-03
 -1      1591 4.24118E-03
 -1      1592 4.24118E-03
 -1      1593 2.90348E-03
 -1      1594 3.31047E-03
 -1      1595 3.31047E-03
 -1      1596 2.28283E-03
 -1      1597 2.59315E-03
 -1      1598 2.59315E-03
 -1      1599 1.77299E-03
 -1      1600 2.02841E-03
 -1      1601 2.02841E-03
 -1      1602 1.37119E-03
 -1      1603 1.57814E-03
 -1      1604 1.57915E-03
 -1      1605 1.04647E-03
 -1      1606 1.21190E-03
 -1      1607 1.22500E-03
 -1      1608 7.87564E-04
 -1      1609 9.18191E-04
 -1      1610 9.37428E-04
 -1      1611 5.83721E-04
 -1      1612 6.85647E-04
 -1      1613 7.07229E-04
 -1      1614 4.25203E-04
 -1      1615 5.03783E-04
 -1      1616 5.25373E-04
 -1      1617 3.09983E-04
 -1      1618 3.63298E-04
 -1      1619 3.83530E-04
 -1      1620 2.27245E-04
 -1      1621 2.62793E-04
 -1      1622 2.74435E-04
 -1      1623 1.70342E-04
 -1      1624 1.98793E-04
 -1      1625 1.98793E-04
 -1      1626 1.25341E-04
 -1      1627 1.47841E-04
 -1      1628 1.47841E-04
 -1      1629 8.99930E-05
 -1      1630 1.07667E-04
 -1      1631 1.07667E-04
 -1      1632 6.28299E-05
 -1      1633 7.67935E-05
 -1      1634 7.67935E-05
 -1      1635 4.66168E-05
 -1      1636 5.43414E-05
 -1      1637 5.51053E-05
 -1      1638 3.56315E-05
 -1      1639 4.11242E-05
 -1      1640 4.11242E-05
 -1      1641 1.97700E-05
 -1      1642 2.77008E-05
 -1      1643 2.77008E-05
 -1      1644 1.34082E-05
 -1      1645 1.07720E-05
 -1      1646 1.00596E-05
 -1      1647 1.15671E-05
 -1      1648 1.15671E-05
 -1      1649 1.38679E-05
 -1      1650 1.03117E-05
 -1      1651 1.15671E-05
 -1      1652 1.46630E-05
 -1      1653 5.61337E-06
 -1      1654 7.21296E-06
 -1      1655 1.15642E-05
 -1      1656 8.50495E-06
 -1      1657 7.02237E-06
 -1      1658 9.87442E-06
 -1      1659 1.16378E-05
 -1      1660 1.05910E-05
 -1      1661 1.33695E-05
 -1      1662 1.28247E-05
 -1      1663 1.25028E-05
 -1      1664 1.63206E-05
 -1      1665 1.28247E-05
 -1      1666 1.28247E-05
 -1      1667 1.71856E-05
 -1      1668 1.24895E-05
 -1      1669 1.28162E-05
 -1      1670 1.71771E-05
 -1      1671 1.05119E-05
 -1      1672 1.15763E-05
 -1      1673 1.62554E-05
 -1      1674 7.08392E-06
 -1      1675 8.49657E-06
 -1      1676 1.33268E-05
 -1      1677 7.16931E-06
 -1      1678 5.71362E-06
 -1      1679 9.94118E-06
 -1      1680 1.11178E-05
 -1      1681 9.93461E-06
 -1      1682 1.13362E-05
 -1      1683 1.11178E-05
 -1      1684 1.11178E-05
 -1      1685 1.41015E-05
 -1      1686 8.60493E-06
 -1      1687 9.69863E-06
 -1      1688 1.26822E-05
 -1      1689 1.08489E-05
 -1      1690 2.67119E+01
 -1      1691 2.68789E+01
 -1      1692 3.92478E+01
 -1      1693 3.07773E+01
 -1      1694 4.12421E+01
 -1      1695 4.12421E+01
 -1      1696 1.55244E+01
 -1      1697 2.83833E+01
 -1      1698 1.12972E+01
 -1      1699 1.31429E+01
 -1      1700 1.18331E+01
 -1      1701 1.18331E+01
 -1      1702 1.17239E+01
 -1      1703 1.17491E+01
 -1      1704 1.17827E+01
 -1      1705 1.17827E+01
 -1      1706 1.16761E+01
 -1      1707 1.17035E+01
 -1      1708 1.17277E+01
 -1      1709 1.17277E+01
 -1      1710 1.37902E+01
 -1      1711 1.09729E+01
 -1      1712 3.09700E+01
 -1      1713 1.76939E+01
 -1      1714 4.39146E+01
 -1      1715 4.39146E+01
 -1      1716 3.16251E+01
 -1      1717 4.10692E+01
 -1      1718 2.79891E+01
 -1      1719 2.78760E+01
 -1      1720 2.94665E+01
 -1      1721 2.90106E+01
 -1      1722 2.99943E+01
 -1      1723 2.94665E+01
 -1      1724 4.17448E+01
 -1      1725 3.26834E+01
 -1      1726 4.53427E+01
 -1      1727 4.53427E+01
 -1      1728 1.86931E+01
 -1      1729 3.20179E+01
 -1      1730 1.36762E+01
 -1      1731 1.56993E+01
 -1      1732 1.46470E+01
 -1      1733 1.46470E+01
 -1      1734 1.36972E+01
 -1      1735 1.37110E+01
 -1      1736 1.37110E+01
 -1      1737 1.46194E+01
 -1      1738 1.46194E+01
 -1      1739 1.64929E+01
 -1      1740 1.40401E+01
 -1      1741 3.37019E+01
 -1      1742 1.99226E+01
 -1      1743 4.70837E+01
 -1      1744 4.70837E+01
 -1      1745 3.34300E+01
 -1      1746 4.30822E+01
 -1      1747 3.00538E+01
 -1      1748 3.00911E+01
 -1      1749 2.85190E+01
 -1      1750 3.00538E+01
 -1      1751 1.50387E+01
 -1      1752 1.31200E+01
 -1      1753 1.20918E+01
 -1      1754 1.24674E+01
 -1      1755 3.07628E+01
 -1      1756 2.83833E+01
 -1      1757 1.34082E-05
 -1      1758 1.64214E-05
 -1      1759 3.31880E+01
 -1      1760 3.92478E+01
 -1      1761 1.31429E+01
 -1      1762 1.12972E+01
 -1      1763 1.17491E+01
 -1      1764 1.17239E+01
 -1      1765 1.17035E+01
 -1      1766 1.16761E+01
 -1      1767 1.09729E+01
 -1      1768 1.41217E+01
 -1      1769 3.09700E+01
 -1      1770 4.10692E+01
 -1      1771 3.44747E+01
 -1      1772 3.17472E+01
 -1      1773 3.27687E+01
 -1      1774 3.54578E+01
 -1      1775 4.17448E+01
 -1      1776 3.20179E+01
 -1      1777 1.56993E+01
 -1      1778 1.36762E+01
 -1      1779 1.40401E+01
 -1      1780 1.68905E+01
 -1      1781 3.37019E+01
 -1      1782 4.30822E+01
 -1      1783 3.57418E+01
 -1      1784 3.24029E+01
 -1      1785 9.68928E+00
 -1      1786 1.36972E+01
 -1      1787 8.13423E+00
 -1      1788 8.57730E+00
 -1      1789 8.57730E+00
 -1      1790 9.36436E+00
 -1      1791 1.02589E+01
 -1      1792 4.03355E+00
 -1      1793 4.03355E+00
 -1      1794 3.86909E+00
 -1      1795 3.95642E+00
 -1      1796 4.65102E+00
 -1      1797 3.19978E+00
 -1      1798 3.49069E+00
 -1      1799 4.19548E+00
 -1      1800 2.41707E+00
 -1      1801 2.73506E+00
 -1      1802 3.35236E+00
 -1      1803 1.77598E+00
 -1      1804 1.87412E+00
 -1      1805 2.34469E+00
 -1      1806 1.40959E+00
 -1      1807 1.51173E+00
 -1      1808 1.53750E+00
 -1      1809 1.31825E+00
 -1      1810 1.33863E+00
 -1      1811 1.20229E+00
 -1      1812 1.25088E+00
 -1      1813 1.31825E+00
 -1      1814 1.13132E+00
 -1      1815 1.14029E+00
 -1      1816 1.21987E+00
 -1      1817 1.10032E+00
 -1      1818 1.25714E+00
 -1      1819 1.13144E+00
 -1      1820 1.06046E+00
 -1      1821 2.46989E+00
 -1      1822 1.38617E+00
 -1      1823 1.18063E+00
 -1      1824 9.33842E+00
 -1      1825 3.34206E+00
 -1      1826 2.18184E+00
 -1      1827 3.87061E+00
 -1      1828 8.48236E+00
 -1      1829 3.58777E+00
 -1      1830 3.81349E+00
 -1      1831 2.99690E+00
 -1      1832 1.77337E+01
 -1      1833 1.34269E+01
 -1      1834 1.07663E+01
 -1      1835 1.15296E+01
 -1      1836 1.36112E+01
 -1      1837 1.50192E+01
 -1      1838 1.46539E+01
 -1      1839 1.61898E+01
 -1      1840 1.96408E+01
 -1      1841 1.96270E+01
 -1      1842 1.76139E+01
 -1      1843 1.09465E+01
 -1      1844 1.01097E+01
 -1      1845 9.22355E+00
 -1      1846 8.62216E+00
 -1      1847 1.07338E+01
 -1      1848 8.29326E+00
 -1      1849 7.89587E+00
 -1      1850 9.51872E+00
 -1      1851 6.86523E+00
 -1      1852 6.08908E+00
 -1      1853 8.15918E+00
 -1      1854 4.93264E+00
 -1      1855 4.12473E+00
 -1      1856 5.97211E+00
 -1      1857 3.21858E+00
 -1      1858 2.56163E+00
 -1      1859 3.90952E+00
 -1      1860 1.94483E+00
 -1      1861 1.49124E+00
 -1      1862 2.38657E+00
 -1      1863 1.10573E+00
 -1      1864 8.39954E-01
 -1      1865 1.38426E+00
 -1      1866 6.11982E-01
 -1      1867 4.62809E-01
 -1      1868 7.70788E-01
 -1      1869 3.33307E-01
 -1      1870 2.44584E-01
 -1      1871 4.13315E-01
 -1      1872 1.73540E-01
 -1      1873 1.22973E-01
 -1      1874 2.12769E-01
 -1      1875 8.53788E-02
 -1      1876 5.76634E-02
 -1      1877 1.04131E-01
 -1      1878 3.87866E-02
 -1      1879 2.50966E-02
 -1      1880 4.76597E-02
 -1      1881 1.59190E-02
 -1      1882 1.10833E-02
 -1      1883 1.96054E-02
 -1      1884 8.58639E-03
 -1      1885 6.08985E-03
 -1      1886 7.93085E-03
 -1      1887 5.13537E-03
 -1      1888 4.19012E-03
 -1      1889 4.47942E-03
 -1      1890 4.02026E-03
 -1      1891 3.39064E-03
 -1      1892 3.35508E-03
 -1      1893 3.19709E-03
 -1      1894 2.85267E-03
 -1      1895 2.99167E-03
 -1      1896 2.83462E-03
 -1      1897 2.76202E-03
 -1      1898 2.78007E-03
 -1      1899 2.59591E-03
 -1      1900 2.42980E-03
 -1      1901 2.59591E-03
 -1      1902 2.21340E-03
 -1      1903 1.99203E-03
 -1      1904 2.21340E-03
 -1      1905 1.90217E-03
 -1      1906 1.81727E-03
 -1      1907 1.90713E-03
 -1      1908 1.71950E-03
 -1      1909 1.62173E-03
 -1      1910 1.71950E-03
 -1      1911 1.52507E-03
 -1      1912 1.40607E-03
 -1      1913 1.52507E-03
 -1      1914 1.30729E-03
 -1      1915 1.18522E-03
 -1      1916 1.32963E-03
 -1      1917 1.08469E-03
 -1      1918 9.90401E-04
 -1      1919 1.13032E-03
 -1      1920 9.13310E-04
 -1      1921 8.33951E-04
 -1      1922 9.52690E-04
 -1      1923 7.42265E-04
 -1      1924 6.46907E-04
 -1      1925 7.83914E-04
 -1      1926 5.75041E-04
 -1      1927 5.05822E-04
 -1      1928 6.20362E-04
 -1      1929 4.43623E-04
 -1      1930 3.94262E-04
 -1      1931 4.86297E-04
 -1      1932 3.42343E-04
 -1      1933 3.04553E-04
 -1      1934 3.72178E-04
 -1      1935 2.62367E-04
 -1      1936 2.30373E-04
 -1      1937 2.78072E-04
 -1      1938 1.99757E-04
 -1      1939 1.74654E-04
 -1      1940 2.05270E-04
 -1      1941 1.53767E-04
 -1      1942 1.32880E-04
 -1      1943 1.53767E-04
 -1      1944 1.15842E-04
 -1      1945 9.88045E-05
 -1      1946 1.15842E-04
 -1      1947 8.60098E-05
 -1      1948 7.22587E-05
 -1      1949 8.60098E-05
 -1      1950 6.22929E-05
 -1      1951 5.11486E-05
 -1      1952 6.32494E-05
 -1      1953 4.31540E-05
 -1      1954 3.61150E-05
 -1      1955 4.52890E-05
 -1      1956 2.95272E-05
 -1      1957 2.23456E-05
 -1      1958 3.07066E-05
 -1      1959 1.73674E-05
 -1      1960 1.22986E-05
 -1      1961 1.27127E-05
 -1      1962 1.91406E-05
 -1      1963 9.37686E+00
 -1      1964 3.58163E+00
 -1      1965 3.68931E+00
 -1      1966 3.42212E+00
 -1      1967 3.47793E+00
 -1      1968 3.43596E+00
 -1      1969 3.23169E+00
 -1      1970 3.29913E+00
 -1      1971 3.20927E+00
 -1      1972 3.24554E+00
 -1      1973 3.16965E+00
 -1      1974 3.02423E+00
 -1      1975 3.20495E+00
 -1      1976 3.20841E+00
 -1      1977 2.92507E+00
 -1      1978 2.98219E+00
 -1      1979 3.10191E+00
 -1      1980 2.78490E+00
 -1      1981 2.60862E+00
 -1      1982 2.82121E+00
 -1      1983 2.52087E+00
 -1      1984 2.14916E+00
 -1      1985 2.41132E+00
 -1      1986 2.16259E+00
 -1      1987 1.73927E+00
 -1      1988 1.98355E+00
 -1      1989 1.79967E+00
 -1      1990 1.36156E+00
 -1      1991 1.57162E+00
 -1      1992 1.46641E+00
 -1      1993 1.04024E+00
 -1      1994 1.21620E+00
 -1      1995 1.15340E+00
 -1      1996 7.76386E-01
 -1      1997 9.24474E-01
 -1      1998 8.92284E-01
 -1      1999 5.58825E-01
 -1      2000 6.76356E-01
 -1      2001 6.76492E-01
 -1      2002 3.88231E-01
 -1      2003 4.77031E-01
 -1      2004 4.94668E-01
 -1      2005 2.60256E-01
 -1      2006 3.24518E-01
 -1      2007 3.49160E-01
 -1      2008 1.74484E-01
 -1      2009 2.12742E-01
 -1      2010 2.37933E-01
 -1      2011 1.13419E-01
 -1      2012 1.40429E-01
 -1      2013 1.56364E-01
 -1      2014 7.21326E-02
 -1      2015 8.98965E-02
 -1      2016 9.87860E-02
 -1      2017 4.48859E-02
 -1      2018 5.72596E-02
 -1      2019 6.03904E-02
 -1      2020 3.06984E-02
 -1      2021 3.74206E-02
 -1      2022 3.80521E-02
 -1      2023 2.29611E-02
 -1      2024 2.68856E-02
 -1      2025 2.67739E-02
 -1      2026 1.72347E-02
 -1      2027 2.00979E-02
 -1      2028 2.00979E-02
 -1      2029 1.27430E-02
 -1      2030 1.49889E-02
 -1      2031 1.49889E-02
 -1      2032 9.30457E-03
 -1      2033 1.10238E-02
 -1      2034 1.10238E-02
 -1      2035 7.36053E-03
 -1      2036 8.23985E-03
 -1      2037 8.23985E-03
 -1      2038 5.78142E-03
 -1      2039 6.53553E-03
 -1      2040 6.35014E-03
 -1      2041 4.53205E-03
 -1      2042 5.16843E-03
 -1      2043 4.91216E-03
 -1      2044 3.55100E-03
 -1      2045 4.07472E-03
 -1      2046 3.84186E-03
 -1      2047 2.80378E-03
 -1      2048 3.21077E-03
 -1      2049 3.04431E-03
 -1      2050 2.20574E-03
 -1      2051 2.51607E-03
 -1      2052 2.41637E-03
 -1      2053 1.71891E-03
 -1      2054 1.97333E-03
 -1      2055 1.89624E-03
 -1      2056 1.35741E-03
 -1      2057 1.55227E-03
 -1      2058 1.49718E-03
 -1      2059 1.05647E-03
 -1      2060 1.21576E-03
 -1      2061 1.18888E-03
 -1      2062 8.10565E-04
 -1      2063 9.38846E-04
 -1      2064 9.29604E-04
 -1      2065 6.12791E-04
 -1      2066 7.14708E-04
 -1      2067 7.16127E-04
 -1      2068 4.55972E-04
 -1      2069 5.35910E-04
 -1      2070 5.43389E-04
 -1      2071 3.33295E-04
 -1      2072 3.95200E-04
 -1      2073 4.05736E-04
 -1      2074 2.38734E-04
 -1      2075 2.85924E-04
 -1      2076 2.97594E-04
 -1      2077 1.73881E-04
 -1      2078 2.02332E-04
 -1      2079 2.13821E-04
 -1      2080 1.23843E-04
 -1      2081 1.46343E-04
 -1      2082 1.49882E-04
 -1      2083 8.96352E-05
 -1      2084 1.07309E-04
 -1      2085 1.05811E-04
 -1      2086 6.36857E-05
 -1      2087 7.68853E-05
 -1      2088 7.65274E-05
 -1      2089 4.66301E-05
 -1      2090 5.51187E-05
 -1      2091 5.52105E-05
 -1      2092 3.45462E-05
 -1      2093 4.00389E-05
 -1      2094 4.00522E-05
 -1      2095 1.98506E-05
 -1      2096 2.77813E-05
 -1      2097 2.66960E-05
 -1      2098 1.65020E-05
 -1      2099 1.28300E-05
 -1      2100 1.59288E-05
 -1      2101 2.23698E-05
 -1      2102 2.23698E-05
 -1      2103 2.36357E-05
 -1      2104 1.72971E-05
 -1      2105 1.36194E-05
 -1      2106 1.22104E-05
 -1      2107 1.65750E-05
 -1      2108 1.88858E-05
 -1      2109 1.67997E-05
 -1      2110 1.91357E-05
 -1      2111 2.13150E-05
 -1      2112 2.04499E-05
 -1      2113 2.38802E-05
 -1      2114 2.13150E-05
 -1      2115 2.13150E-05
 -1      2116 2.54444E-05
 -1      2117 2.12315E-05
 -1      2118 2.12399E-05
 -1      2119 2.53693E-05
 -1      2120 2.03182E-05
 -1      2121 2.12315E-05
 -1      2122 2.52943E-05
 -1      2123 1.67812E-05
 -1      2124 1.87965E-05
 -1      2125 2.37726E-05
 -1      2126 1.21835E-05
 -1      2127 1.35538E-05
 -1      2128 1.90235E-05
 -1      2129 1.54333E-05
 -1      2130 1.26680E-05
 -1      2131 1.62806E-05
 -1      2132 1.54333E-05
 -1      2133 1.54333E-05
 -1      2134 1.67651E-05
 -1      2135 3.52450E+00
 -1      2136 3.72289E+00
 -1      2137 3.07491E+00
 -1      2138 3.37484E+00
 -1      2139 3.27775E+01
 -1      2140 3.07832E+01
 -1      2141 9.23450E+00
 -1      2142 1.16161E+01
 -1      2143 3.23035E+01
 -1      2144 2.82382E+01
 -1      2145 1.59122E+01
 -1      2146 1.24826E+01
 -1      2147 4.91281E+00
 -1      2148 6.24814E+00
 -1      2149 8.37277E+00
 -1      2150 5.60742E+00
 -1      2151 9.65758E+00
 -1      2152 9.12168E+00
 -1      2153 1.07365E+01
 -1      2154 1.08204E+01
 -1      2155 1.11094E+01
 -1      2156 1.10507E+01
 -1      2157 1.10415E+01
 -1      2158 1.11206E+01
 -1      2159 1.07603E+01
 -1      2160 1.07086E+01
 -1      2161 1.01257E+01
 -1      2162 8.55344E+00
 -1      2163 9.30825E+00
 -1      2164 1.34619E+01
 -1      2165 9.55828E+00
 -1      2166 2.97236E+01
 -1      2167 1.67790E+01
 -1      2168 3.22840E+01
 -1      2169 3.51295E+01
 -1      2170 2.94790E+01
 -1      2171 3.32281E+01
 -1      2172 4.22994E+01
 -1      2173 4.12779E+01
 -1      2174 4.22994E+01
 -1      2175 4.22994E+01
 -1      2176 3.32090E+01
 -1      2177 3.05200E+01
 -1      2178 3.59429E+01
 -1      2179 3.23449E+01
 -1      2180 3.10585E+01
 -1      2181 1.04330E+01
 -1      2182 1.52189E+01
 -1      2183 1.70346E+01
 -1      2184 3.30752E+01
 -1      2185 3.70767E+01
 -1      2186 3.20368E+01
 -1      2187 3.53756E+01
 -1      2188 4.11405E+01
 -1      2189 4.11405E+01
 -1      2190 1.47727E+01
 -1      2191 2.76316E+01
 -1      2192 3.95003E+01
 -1      2193 4.11405E+01
 -1      2194 2.16586E+01
 -1      2195 2.58333E+01
 -1      2196 1.91670E+01
 -1      2197 1.99231E+01
 -1      2198 9.60954E+00
 -1      2199 1.87048E+01
 -1      2200 2.16392E+01
 -1      2201 1.04806E+01
 -1      2202 2.11773E+01
 -1      2203 3.11843E+01
 -1      2204 1.78025E+01
 -1      2205 1.33946E+01
 -1      2206 2.50039E-05
 -1      2207 1.32508E-05
 -1      2208 1.46700E-05
 -1      2209 1.60018E-05
 -1      2210 1.47004E-05
 -1      2211 7.59489E+00
 -1      2212 1.08644E+01
 -1      2213 3.86159E+01
 -1      2214 2.74071E+01
 -1      2215 4.00507E+01
 -1      2216 5.18301E+01
 -1      2217 4.00312E+01
 -1      2218 2.72883E+01
 -1      2219 2.09385E+01
 -1      2220 1.22155E+01
 -1      2221 8.34082E+00
 -1      2222 1.04473E+01
 -1      2223 1.01220E+01
 -1      2224 8.64489E+00
 -1      2225 7.89365E+00
 -1      2226 4.98780E+01
 -1      2227 4.07743E+01
 -1      2228 2.93702E+01
 -1      2229 9.50240E+00
 -1      2230 1.14156E+01
 -1      2231 5.44448E+00
 -1      2232 5.82288E+00
 -1      2233 6.40062E+00
 -1      2234 6.47776E+00
 -1      2235 7.64962E+00
 -1      2236 2.08626E+00
 -1      2237 2.62921E+00
 -1      2238 1.43526E+00
 -1      2239 1.69950E+00
 -1      2240 1.98402E+00
 -1      2241 1.16236E+00
 -1      2242 1.23332E+00
 -1      2243 1.39533E+00
 -1      2244 1.15777E+00
 -1      2245 1.15777E+00
 -1      2246 1.18881E+00
 -1      2247 1.14897E+00
 -1      2248 1.17998E+00
 -1      2249 1.20643E+00
 -1      2250 1.39322E+00
 -1      2251 1.40207E+00
 -1      2252 1.48173E+00
 -1      2253 1.51917E+00
 -1      2254 1.39014E+00
 -1      2255 1.73175E+00
 -1      2256 2.51005E+00
 -1      2257 1.63787E+00
 -1      2258 1.84737E+00
 -1      2259 2.45293E+00
 -1      2260 1.65635E+01
 -1      2261 1.86451E+01
 -1      2262 1.93448E+01
 -1      2263 1.34524E+01
 -1      2264 2.25033E+01
 -1      2265 1.08887E+01
 -1      2266 6.15643E+00
 -1      2267 6.26926E+00
 -1      2268 1.19520E+01
 -1      2269 1.16230E+01
 -1      2270 1.01693E+01
 -1      2271 9.13867E+00
 -1      2272 6.88224E+00
 -1      2273 5.72580E+00
 -1      2274 8.89236E+00
 -1      2275 4.27166E+00
 -1      2276 3.36551E+00
 -1      2277 5.18179E+00
 -1      2278 2.56139E+00
 -1      2279 1.94459E+00
 -1      2280 2.92353E+00
 -1      2281 1.48243E+00
 -1      2282 1.09693E+00
 -1      2283 1.65725E+00
 -1      2284 8.30724E-01
 -1      2285 6.02752E-01
 -1      2286 9.28892E-01
 -1      2287 4.56523E-01
 -1      2288 3.27021E-01
 -1      2289 5.16459E-01
 -1      2290 2.43163E-01
 -1      2291 1.72119E-01
 -1      2292 2.86371E-01
 -1      2293 1.24098E-01
 -1      2294 8.65037E-02
 -1      2295 1.54492E-01
 -1      2296 5.93928E-02
 -1      2297 4.05160E-02
 -1      2298 7.93599E-02
 -1      2299 2.61882E-02
 -1      2300 1.70106E-02
 -1      2301 3.79212E-02
 -1      2302 1.02641E-02
 -1      2303 7.76715E-03
 -1      2304 1.68469E-02
 -1      2305 5.13115E-03
 -1      2306 4.17667E-03
 -1      2307 7.46440E-03
 -1      2308 3.26368E-03
 -1      2309 3.09382E-03
 -1      2310 3.91541E-03
 -1      2311 2.59221E-03
 -1      2312 2.39866E-03
 -1      2313 2.50081E-03
 -1      2314 2.49881E-03
 -1      2315 2.48076E-03
 -1      2316 2.09934E-03
 -1      2317 2.47776E-03
 -1      2318 2.31165E-03
 -1      2319 2.19649E-03
 -1      2320 2.21340E-03
 -1      2321 1.99699E-03
 -1      2322 2.09524E-03
 -1      2323 1.85316E-03
 -1      2324 1.76330E-03
 -1      2325 1.85316E-03
 -1      2326 1.70343E-03
 -1      2327 1.60566E-03
 -1      2328 1.64945E-03
 -1      2329 1.52507E-03
 -1      2330 1.42841E-03
 -1      2331 1.50899E-03
 -1      2332 1.32963E-03
 -1      2333 1.23085E-03
 -1      2334 1.32963E-03
 -1      2335 1.15430E-03
 -1      2336 1.05377E-03
 -1      2337 1.15430E-03
 -1      2338 9.74678E-04
 -1      2339 8.97587E-04
 -1      2340 9.98663E-04
 -1      2341 8.14562E-04
 -1      2342 7.22877E-04
 -1      2343 8.36550E-04
 -1      2344 6.55138E-04
 -1      2345 5.83272E-04
 -1      2346 6.85786E-04
 -1      2347 5.21515E-04
 -1      2348 4.59316E-04
 -1      2349 5.56291E-04
 -1      2350 4.05440E-04
 -1      2351 3.53520E-04
 -1      2352 4.40658E-04
 -1      2353 3.08026E-04
 -1      2354 2.65840E-04
 -1      2355 3.41288E-04
 -1      2356 2.28457E-04
 -1      2357 1.97841E-04
 -1      2358 2.58411E-04
 -1      2359 1.67868E-04
 -1      2360 1.46982E-04
 -1      2361 1.91055E-04
 -1      2362 1.23513E-04
 -1      2363 1.06475E-04
 -1      2364 1.37614E-04
 -1      2365 8.85590E-05
 -1      2366 7.57643E-05
 -1      2367 9.62292E-05
 -1      2368 6.32494E-05
 -1      2369 5.32836E-05
 -1      2370 6.57985E-05
 -1      2371 4.64111E-05
 -1      2372 3.84165E-05
 -1      2373 4.64111E-05
 -1      2374 3.17688E-05
 -1      2375 2.78489E+00
 -1      2376 2.90789E+00
 -1      2377 2.97124E+00
 -1      2378 3.07494E+00
 -1      2379 2.54687E+00
 -1      2380 2.55391E+00
 -1      2381 2.59104E+00
 -1      2382 2.42656E+00
 -1      2383 2.52961E+00
 -1      2384 2.19557E+00
 -1      2385 2.19715E+00
 -1      2386 2.35813E+00
 -1      2387 2.10283E+00
 -1      2388 1.89061E+00
 -1      2389 2.08792E+00
 -1      2390 1.92517E+00
 -1      2391 1.61067E+00
 -1      2392 1.77628E+00
 -1      2393 1.70161E+00
 -1      2394 1.31940E+00
 -1      2395 1.48705E+00
 -1      2396 1.46367E+00
 -1      2397 1.04210E+00
 -1      2398 1.18746E+00
 -1      2399 1.20811E+00
 -1      2400 8.01075E-01
 -1      2401 9.16837E-01
 -1      2402 9.50896E-01
 -1      2403 5.93139E-01
 -1      2404 6.93169E-01
 -1      2405 7.17722E-01
 -1      2406 4.33284E-01
 -1      2407 5.15078E-01
 -1      2408 5.31755E-01
 -1      2409 3.06297E-01
 -1      2410 3.70010E-01
 -1      2411 3.90421E-01
 -1      2412 2.09659E-01
 -1      2413 2.57173E-01
 -1      2414 2.78023E-01
 -1      2415 1.38898E-01
 -1      2416 1.72953E-01
 -1      2417 1.92194E-01
 -1      2418 8.88769E-02
 -1      2419 1.12400E-01
 -1      2420 1.28989E-01
 -1      2421 5.54630E-02
 -1      2422 7.03359E-02
 -1      2423 8.39495E-02
 -1      2424 3.53961E-02
 -1      2425 4.28614E-02
 -1      2426 5.28070E-02
 -1      2427 2.32548E-02
 -1      2428 2.70676E-02
 -1      2429 3.18770E-02
 -1      2430 1.50419E-02
 -1      2431 1.79050E-02
 -1      2432 1.81987E-02
 -1      2433 1.13300E-02
 -1      2434 1.35758E-02
 -1      2435 1.13829E-02
 -1      2436 8.71986E-03
 -1      2437 1.04391E-02
 -1      2438 9.02603E-03
 -1      2439 6.83036E-03
 -1      2440 7.89508E-03
 -1      2441 7.31037E-03
 -1      2442 5.29252E-03
 -1      2443 6.11752E-03
 -1      2444 5.77274E-03
 -1      2445 4.13403E-03
 -1      2446 4.74702E-03
 -1      2447 4.51439E-03
 -1      2448 3.31336E-03
 -1      2449 3.77068E-03
 -1      2450 3.60553E-03
 -1      2451 2.64495E-03
 -1      2452 2.98518E-03
 -1      2453 2.91400E-03
 -1      2454 2.09093E-03
 -1      2455 2.37865E-03
 -1      2456 2.31952E-03
 -1      2457 1.66383E-03
 -1      2458 1.89624E-03
 -1      2459 1.85852E-03
 -1      2460 1.33053E-03
 -1      2461 1.49718E-03
 -1      2462 1.49718E-03
 -1      2463 1.04850E-03
 -1      2464 1.19015E-03
 -1      2465 1.19015E-03
 -1      2466 8.14763E-04
 -1      2467 9.32384E-04
 -1      2468 9.33660E-04
 -1      2469 6.34060E-04
 -1      2470 7.29917E-04
 -1      2471 7.32697E-04
 -1      2472 4.85742E-04
 -1      2473 5.62623E-04
 -1      2474 5.76413E-04
 -1      2475 3.66091E-04
 -1      2476 4.26862E-04
 -1      2477 4.46096E-04
 -1      2478 2.71069E-04
 -1      2479 3.18440E-04
 -1      2480 3.39566E-04
 -1      2481 1.96744E-04
 -1      2482 2.33146E-04
 -1      2483 2.53992E-04
 -1      2484 1.39514E-04
 -1      2485 1.67051E-04
 -1      2486 1.86376E-04
 -1      2487 1.00129E-04
 -1      2488 1.16662E-04
 -1      2489 1.33832E-04
 -1      2490 7.00584E-05
 -1      2491 8.28083E-05
 -1      2492 9.36599E-05
 -1      2493 4.93720E-05
 -1      2494 5.79391E-05
 -1      2495 6.42199E-05
 -1      2496 3.36454E-05
 -1      2497 4.02367E-05
 -1      2498 4.29652E-05
 -1      2499 2.57410E-05
 -1      2500 2.25606E-05
 -1      2501 2.58574E-05
 -1      2502 2.64770E-05
 -1      2503 3.24626E-05
 -1      2504 2.64770E-05
 -1      2505 3.29180E-05
 -1      2506 3.57594E-05
 -1      2507 1.31551E+01
 -1      2508 1.83010E+01
 -1      2509 2.98208E-05
 -1      2510 2.82566E-05
 -1      2511 3.16816E-05
 -1      2512 2.99200E-05
 -1      2513 2.99200E-05
 -1      2514 3.42964E-05
 -1      2515 2.98450E-05
 -1      2516 2.99200E-05
 -1      2517 3.43956E-05
 -1      2518 2.97980E-05
 -1      2519 2.97980E-05
 -1      2520 3.43486E-05
 -1      2521 2.81106E-05
 -1      2522 2.96323E-05
 -1      2523 3.41360E-05
 -1      2524 2.23279E-05
 -1      2525 2.55553E-05
 -1      2526 3.14150E-05
 -1      2527 2.03230E-05
 -1      2528 1.98384E-05
 -1      2529 2.63702E-05
 -1      2530 2.81518E-05
 -1      2531 2.81518E-05
 -1      2532 3.17097E-05
 -1      2533 2.62189E+00
 -1      2534 2.68392E+00
 -1      2535 2.38255E+00
 -1      2536 1.12915E+01
 -1      2537 1.24482E+01
 -1      2538 1.64395E+01
 -1      2539 1.12915E+01
 -1      2540 1.27790E+01
 -1      2541 2.23356E+01
 -1      2542 1.46107E+01
 -1      2543 1.37245E+01
 -1      2544 2.46360E+01
 -1      2545 3.19533E-05
 -1      2546 2.09090E+01
 -1      2547 2.24294E+01
 -1      2548 9.07818E+00
 -1      2549 9.06704E+00
 -1      2550 3.62361E+00
 -1      2551 4.08833E+00
 -1      2552 5.71573E+00
 -1      2553 3.36518E+00
 -1      2554 7.85653E+00
 -1      2555 6.69371E+00
 -1      2556 8.89152E+00
 -1      2557 8.57726E+00
 -1      2558 6.62609E+00
 -1      2559 8.19374E+00
 -1      2560 8.52656E+00
 -1      2561 4.98780E+01
 -1      2562 4.98780E+01
 -1      2563 5.93058E+00
 -1      2564 7.38260E+00
 -1      2565 1.22695E+01
 -1      2566 8.95243E+00
 -1      2567 1.93082E+01
 -1      2568 1.39023E+01
 -1      2569 2.35297E+01
 -1      2570 2.25857E+01
 -1      2571 1.55496E+01
 -1      2572 4.00312E+01
 -1      2573 2.82323E+01
 -1      2574 5.18301E+01
 -1      2575 5.18301E+01
 -1      2576 2.73537E+01
 -1      2577 3.86159E+01
 -1      2578 7.22196E+00
 -1      2579 6.21712E+00
 -1      2580 7.76294E+00
 -1      2581 1.09196E+01
 -1      2582 4.07743E+01
 -1      2583 3.16706E+01
 -1      2584 8.86527E+00
 -1      2585 7.11567E+00
 -1      2586 7.99493E+00
 -1      2587 2.35297E+01
 -1      2588 2.35612E+00
 -1      2589 1.86927E+00
 -1      2590 2.49125E+00
 -1      2591 5.36808E+00
 -1      2592 2.46360E+01
 -1      2593 2.25033E+01
 -1      2594 2.82712E+01
 -1      2595 1.58289E+01
 -1      2596 1.26025E+01
 -1      2597 1.48971E+01
 -1      2598 3.29326E-05
 -1      2599 2.63448E-05
 -1      2600 3.47946E-05
 -1      2601 2.24294E+01
 -1      2602 2.25073E+00
 -1      2603 1.00537E+01
 -1      2604 2.19046E-05
 -1      2605 2.26679E-05
 -1      2606 3.40546E-05
 -1      2607 2.80393E+00
 -1      2608 2.63912E+00
 -1      2609 1.92034E+00
 -1      2610 2.33921E+00
 -1      2611 1.06392E+01
 -1      2612 7.52234E+00
 -1      2613 4.07743E+01
 -1      2614 6.32447E+00
 -1      2615 7.27591E+00
 -1      2616 4.00507E+01
 -1      2617 4.00507E+01
 -1      2618 8.29100E+00
 -1      2619 1.01771E+01
 -1      2620 1.12097E+01
 -1      2621 9.79925E+00
 -1      2622 7.14625E+00
 -1      2623 3.50480E+01
 -1      2624 3.50480E+01
 -1      2625 2.37859E+01
 -1      2626 5.78350E+00
 -1      2627 4.00312E+01
 -1      2628 5.25890E+00
 -1      2629 2.44130E+01
 -1      2630 3.40546E-05
 -1      2631 1.29249E+00
 -1      2632 1.49443E+00
 -1      2633 2.26082E+00
 -1      2634 2.64757E+00
 -1      2635 2.15798E+00
 -1      2636 1.31559E+00
 -1      2637 1.29338E+00
 -1      2638 1.92439E+00
 -1      2639 1.67129E+00
 -1      2640 1.75825E+00
 -1      2641 2.04002E+00
 -1      2642 1.92131E+00
 -1      2643 1.94321E+00
 -1      2644 3.95386E-05
 -1      2645 2.28634E+01
 -1      2646 5.94867E+00
 -1      2647 4.49453E+00
 -1      2648 3.36025E+00
 -1      2649 2.55613E+00
 -1      2650 4.12713E+00
 -1      2651 1.91310E+00
 -1      2652 1.45094E+00
 -1      2653 2.34981E+00
 -1      2654 1.07943E+00
 -1      2655 8.13226E-01
 -1      2656 1.33527E+00
 -1      2657 5.98981E-01
 -1      2658 4.52752E-01
 -1      2659 7.49519E-01
 -1      2660 3.30457E-01
 -1      2661 2.46600E-01
 -1      2662 4.12980E-01
 -1      2663 1.78037E-01
 -1      2664 1.30015E-01
 -1      2665 2.22123E-01
 -1      2666 9.39634E-02
 -1      2667 6.68525E-02
 -1      2668 1.17508E-01
 -1      2669 4.70391E-02
 -1      2670 3.27113E-02
 -1      2671 6.16426E-02
 -1      2672 2.23035E-02
 -1      2673 1.55570E-02
 -1      2674 3.14214E-02
 -1      2675 1.01246E-02
 -1      2676 7.48865E-03
 -1      2677 1.55813E-02
 -1      2678 4.82840E-03
 -1      2679 3.91541E-03
 -1      2680 7.48865E-03
 -1      2681 2.83956E-03
 -1      2682 2.33795E-03
 -1      2683 3.75255E-03
 -1      2684 1.71716E-03
 -1      2685 1.81731E-03
 -1      2686 2.05592E-03
 -1      2687 1.90126E-03
 -1      2688 1.89826E-03
 -1      2689 1.51908E-03
 -1      2690 1.91951E-03
 -1      2691 1.82126E-03
 -1      2692 1.62427E-03
 -1      2693 1.78667E-03
 -1      2694 1.64284E-03
 -1      2695 1.61094E-03
 -1      2696 1.56957E-03
 -1      2697 1.50969E-03
 -1      2698 1.50308E-03
 -1      2699 1.46885E-03
 -1      2700 1.38827E-03
 -1      2701 1.38897E-03
 -1      2702 1.32959E-03
 -1      2703 1.23081E-03
 -1      2704 1.28945E-03
 -1      2705 1.15430E-03
 -1      2706 1.07775E-03
 -1      2707 1.15426E-03
 -1      2708 1.00399E-03
 -1      2709 9.24902E-04
 -1      2710 1.00399E-03
 -1      2711 8.46364E-04
 -1      2712 7.63339E-04
 -1      2713 8.51691E-04
 -1      2714 6.93200E-04
 -1      2715 6.25462E-04
 -1      2716 7.03014E-04
 -1      2717 5.62027E-04
 -1      2718 5.00270E-04
 -1      2719 5.69440E-04
 -1      2720 4.47568E-04
 -1      2721 3.93693E-04
 -1      2722 4.53305E-04
 -1      2723 3.51412E-04
 -1      2724 3.05917E-04
 -1      2725 3.58322E-04
 -1      2726 2.69950E-04
 -1      2727 2.32568E-04
 -1      2728 2.80074E-04
 -1      2729 2.02777E-04
 -1      2730 1.72804E-04
 -1      2731 2.14316E-04
 -1      2732 1.48715E-04
 -1      2733 1.25246E-04
 -1      2734 1.60436E-04
 -1      2735 1.06215E-04
 -1      2736 8.82992E-05
 -1      2737 1.17316E-04
 -1      2738 7.32894E-05
 -1      2739 6.07745E-05
 -1      2740 8.32752E-05
 -1      2741 5.29284E-05
 -1      2742 4.60558E-05
 -1      2743 4.60558E-05
 -1      2744 6.04192E-05
 -1      2745 2.25948E+00
 -1      2746 2.32283E+00
 -1      2747 4.60683E-05
 -1      2748 4.51036E-05
 -1      2749 5.42389E-05
 -1      2750 1.96787E-05
 -1      2751 9.97280E+00
 -1      2752 8.33997E+00
 -1      2753 1.88719E+00
 -1      2754 1.95562E+00
 -1      2755 1.96542E+00
 -1      2756 1.98972E+00
 -1      2757 1.74977E+00
 -1      2758 1.54602E+00
 -1      2759 1.66035E+00
 -1      2760 1.32944E+00
 -1      2761 1.45306E+00
 -1      2762 1.41180E+00
 -1      2763 1.08325E+00
 -1      2764 1.21519E+00
 -1      2765 1.20459E+00
 -1      2766 8.41072E-01
 -1      2767 9.66340E-01
 -1      2768 9.73428E-01
 -1      2769 6.42400E-01
 -1      2770 7.50306E-01
 -1      2771 7.65751E-01
 -1      2772 4.83523E-01
 -1      2773 5.61583E-01
 -1      2774 5.94167E-01
 -1      2775 3.50282E-01
 -1      2776 4.13556E-01
 -1      2777 4.43384E-01
 -1      2778 2.44744E-01
 -1      2779 2.93868E-01
 -1      2780 3.17003E-01
 -1      2781 1.65092E-01
 -1      2782 2.01798E-01
 -1      2783 2.17642E-01
 -1      2784 1.08989E-01
 -1      2785 1.35488E-01
 -1      2786 1.45092E-01
 -1      2787 6.96230E-02
 -1      2788 8.81640E-02
 -1      2789 9.46626E-02
 -1      2790 4.36462E-02
 -1      2791 5.62478E-02
 -1      2792 6.04623E-02
 -1      2793 2.67410E-02
 -1      2794 3.50695E-02
 -1      2795 3.85103E-02
 -1      2796 1.56217E-02
 -1      2797 2.09714E-02
 -1      2798 2.41640E-02
 -1      2799 1.03473E-02
 -1      2800 1.18133E-02
 -1      2801 1.45861E-02
 -1      2802 6.99519E-03
 -1      2803 7.88606E-03
 -1      2804 8.31647E-03
 -1      2805 5.61056E-03
 -1      2806 6.43535E-03
 -1      2807 5.29539E-03
 -1      2808 4.65802E-03
 -1      2809 5.37086E-03
 -1      2810 4.49584E-03
 -1      2811 3.80087E-03
 -1      2812 4.34637E-03
 -1      2813 3.94450E-03
 -1      2814 3.11874E-03
 -1      2815 3.48210E-03
 -1      2816 3.31408E-03
 -1      2817 2.49923E-03
 -1      2818 2.82740E-03
 -1      2819 2.70397E-03
 -1      2820 2.04835E-03
 -1      2821 2.31466E-03
 -1      2822 2.22806E-03
 -1      2823 1.67312E-03
 -1      2824 1.86781E-03
 -1      2825 1.86295E-03
 -1      2826 1.34294E-03
 -1      2827 1.50959E-03
 -1      2828 1.51889E-03
 -1      2829 1.06111E-03
 -1      2830 1.20149E-03
 -1      2831 1.21390E-03
 -1      2832 8.26375E-04
 -1      2833 9.42491E-04
 -1      2834 9.53827E-04
 -1      2835 6.47851E-04
 -1      2836 7.32697E-04
 -1      2837 7.41528E-04
 -1      2838 5.04976E-04
 -1      2839 5.76413E-04
 -1      2840 5.76413E-04
 -1      2841 3.87217E-04
 -1      2842 4.46096E-04
 -1      2843 4.46096E-04
 -1      2844 2.94925E-04
 -1      2845 3.42575E-04
 -1      2846 3.42575E-04
 -1      2847 2.21914E-04
 -1      2848 2.59837E-04
 -1      2849 2.62846E-04
 -1      2850 1.63789E-04
 -1      2851 1.93482E-04
 -1      2852 1.99327E-04
 -1      2853 1.18327E-04
 -1      2854 1.41179E-04
 -1      2855 1.48284E-04
 -1      2856 8.30376E-05
 -1      2857 1.00358E-04
 -1      2858 1.07705E-04
 -1      2859 5.86381E-05
 -1      2860 7.07574E-05
 -1      2861 7.74557E-05
 -1      2862 6.07764E-05
 -1      2863 4.10165E-05
 -1      2864 4.09173E-05
 -1      2865 4.60683E-05
 -1      2866 2.59443E+01
 -1      2867 1.71371E+01
 -1      2868 3.50480E+01
 -1      2869 3.94606E-05
 -1      2870 3.69449E-05
 -1      2871 4.61807E-05
 -1      2872 4.06887E-05
 -1      2873 4.07357E-05
 -1      2874 4.05230E-05
 -1      2875 4.06887E-05
 -1      2876 4.70758E-05
 -1      2877 3.66879E-05
 -1      2878 3.92432E-05
 -1      2879 4.57959E-05
 -1      2880 2.90204E-05
 -1      2881 3.15099E-05
 -1      2882 3.93381E-05
 -1      2883 3.66541E-05
 -1      2884 2.88252E-05
 -1      2885 3.39648E-05
 -1      2886 4.31713E-05
 -1      2887 2.10182E+00
 -1      2888 2.20280E+00
 -1      2889 1.97875E+00
 -1      2890 7.92807E+00
 -1      2891 1.01636E+01
 -1      2892 4.53776E+00
 -1      2893 4.00048E+00
 -1      2894 4.48937E+00
 -1      2895 4.20283E+00
 -1      2896 1.98688E+00
 -1      2897 2.01773E+00
 -1      2898 1.83797E+00
 -1      2899 1.75672E+00
 -1      2900 2.13664E+01
 -1      2901 1.66638E+01
 -1      2902 1.56834E+01
 -1      2903 4.10165E-05
 -1      2904 4.10165E-05
 -1      2905 4.73565E-05
 -1      2906 4.27716E-05
 -1      2907 4.60683E-05
 -1      2908 5.05506E-05
 -1      2909 5.93261E+00
 -1      2910 5.21188E+00
 -1      2911 4.74350E+00
 -1      2912 6.23717E+00
 -1      2913 1.72759E+00
 -1      2914 1.83682E+00
 -1      2915 1.68961E+00
 -1      2916 1.57200E+00
 -1      2917 3.61924E+01
 -1      2918 6.69757E+00
 -1      2919 6.52205E+00
 -1      2920 5.10784E+00
 -1      2921 1.42858E+01
 -1      2922 1.10083E+01
 -1      2923 4.53033E+00
 -1      2924 5.34147E+00
 -1      2925 1.06749E+01
 -1      2926 8.41848E+00
 -1      2927 7.73122E+00
 -1      2928 1.15233E+01
 -1      2929 1.41313E+01
 -1      2930 1.29544E+00
 -1      2931 1.30003E+00
 -1      2932 1.39912E+00
 -1      2933 1.40460E+00
 -1      2934 7.66023E+00
 -1      2935 5.92976E+00
 -1      2936 1.60061E+01
 -1      2937 2.09304E+01
 -1      2938 7.37272E+00
 -1      2939 7.95046E+00
 -1      2940 5.88534E+00
 -1      2941 6.43696E+00
 -1      2942 1.89961E+01
 -1      2943 3.46338E+01
 -1      2944 2.28349E+01
 -1      2945 1.48808E+01
 -1      2946 2.92437E+00
 -1      2947 2.64757E+00
 -1      2948 3.64197E+00
 -1      2949 1.92439E+00
 -1      2950 2.11396E+00
 -1      2951 1.26323E+01
 -1      2952 4.87369E+00
 -1      2953 6.99382E+00
 -1      2954 2.07470E+00
 -1      2955 2.36209E+00
 -1      2956 4.76373E-05
 -1      2957 3.76080E+00
 -1      2958 8.70901E+00
 -1      2959 1.21224E+01
 -1      2960 5.63773E-05
 -1      2961 2.02180E+01
 -1      2962 2.09108E+00
 -1      2963 3.84429E+00
 -1      2964 6.34709E+00
 -1      2965 3.91318E+00
 -1      2966 9.39774E+00
 -1      2967 1.13639E+01
 -1      2968 1.20018E+01
 -1      2969 1.37664E+01
 -1      2970 1.52095E+01
 -1      2971 2.00181E+01
 -1      2972 1.64502E+01
 -1      2973 1.35947E+01
 -1      2974 5.43667E+00
 -1      2975 4.63218E+00
 -1      2976 5.79446E+00
 -1      2977 6.09530E+00
 -1      2978 5.41555E+00
 -1      2979 4.43830E+00
 -1      2980 1.91487E+00
 -1      2981 1.55916E+00
 -1      2982 2.09108E+00
 -1      2983 2.11396E+00
 -1      2984 2.11396E+00
 -1      2985 1.63562E+00
 -1      2986 1.64541E+00
 -1      2987 4.21123E+00
 -1      2988 3.07694E+00
 -1      2989 1.79601E+00
 -1      2990 1.85269E+00
 -1      2991 5.55623E-05
 -1      2992 5.55623E-05
 -1      2993 2.42689E+00
 -1      2994 1.78386E+00
 -1      2995 2.51100E+00
 -1      2996 1.37699E+00
 -1      2997 1.00548E+00
 -1      2998 1.45407E+00
 -1      2999 7.72283E-01
 -1      3000 5.58039E-01
 -1      3001 8.13999E-01
 -1      3002 4.32402E-01
 -1      3003 3.10108E-01
 -1      3004 4.55166E-01
 -1      3005 2.39498E-01
 -1      3006 1.70935E-01
 -1      3007 2.58920E-01
 -1      3008 1.28636E-01
 -1      3009 9.25837E-02
 -1      3010 1.46011E-01
 -1      3011 6.72475E-02
 -1      3012 4.74341E-02
 -1      3013 7.83752E-02
 -1      3014 3.51125E-02
 -1      3015 2.47048E-02
 -1      3016 4.07175E-02
 -1      3017 1.82508E-02
 -1      3018 1.28185E-02
 -1      3019 2.19420E-02
 -1      3020 9.15958E-03
 -1      3021 6.49933E-03
 -1      3022 1.18291E-02
 -1      3023 4.48996E-03
 -1      3024 3.41411E-03
 -1      3025 6.16089E-03
 -1      3026 2.37037E-03
 -1      3027 1.74958E-03
 -1      3028 3.10778E-03
 -1      3029 1.24135E-03
 -1      3030 1.32529E-03
 -1      3031 1.55580E-03
 -1      3032 1.37092E-03
 -1      3033 1.39217E-03
 -1      3034 1.09319E-03
 -1      3035 1.42798E-03
 -1      3036 1.39339E-03
 -1      3037 1.17462E-03
 -1      3038 1.39545E-03
 -1      3039 1.32218E-03
 -1      3040 1.21249E-03
 -1      3041 1.29216E-03
 -1      3042 1.25132E-03
 -1      3043 1.18453E-03
 -1      3044 1.21515E-03
 -1      3045 1.15647E-03
 -1      3046 1.11833E-03
 -1      3047 1.11117E-03
 -1      3048 1.03466E-03
 -1      3049 1.03687E-03
 -1      3050 9.75832E-04
 -1      3051 9.02071E-04
 -1      3052 9.32741E-04
 -1      3053 8.36585E-04
 -1      3054 7.58047E-04
 -1      3055 8.08427E-04
 -1      3056 6.97569E-04
 -1      3057 6.27430E-04
 -1      3058 6.82463E-04
 -1      3059 5.70663E-04
 -1      3060 5.07228E-04
 -1      3061 5.65218E-04
 -1      3062 4.56247E-04
 -1      3063 4.03546E-04
 -1      3064 4.57470E-04
 -1      3065 3.59393E-04
 -1      3066 3.17112E-04
 -1      3067 3.62336E-04
 -1      3068 2.80074E-04
 -1      3069 2.44107E-04
 -1      3070 2.81145E-04
 -1      3071 2.15189E-04
 -1      3072 1.85398E-04
 -1      3073 2.15189E-04
 -1      3074 1.62940E-04
 -1      3075 1.38851E-04
 -1      3076 1.63813E-04
 -1      3077 1.20630E-04
 -1      3078 1.01599E-04
 -1      3079 1.23134E-04
 -1      3080 8.70520E-05
 -1      3081 7.20422E-05
 -1      3082 9.03661E-05
 -1      3083 6.22566E-05
 -1      3084 5.44105E-05
 -1      3085 4.50087E-05
 -1      3086 6.60334E-05
 -1      3087 1.10700E+00
 -1      3088 1.22125E+00
 -1      3089 1.30700E+00
 -1      3090 1.39996E+00
 -1      3091 1.20941E+00
 -1      3092 7.46595E-01
 -1      3093 8.37362E-01
 -1      3094 5.77747E-01
 -1      3095 6.58563E-01
 -1      3096 7.30175E-01
 -1      3097 4.27300E-01
 -1      3098 4.97267E-01
 -1      3099 5.61663E-01
 -1      3100 3.03543E-01
 -1      3101 3.59957E-01
 -1      3102 4.13841E-01
 -1      3103 2.07715E-01
 -1      3104 2.50661E-01
 -1      3105 2.93615E-01
 -1      3106 1.38650E-01
 -1      3107 1.68254E-01
 -1      3108 2.01272E-01
 -1      3109 8.95809E-02
 -1      3110 1.10406E-01
 -1      3111 1.33568E-01
 -1      3112 5.70496E-02
 -1      3113 7.04249E-02
 -1      3114 8.61682E-02
 -1      3115 3.60654E-02
 -1      3116 4.46422E-02
 -1      3117 5.46048E-02
 -1      3118 2.20107E-02
 -1      3119 2.77802E-02
 -1      3120 3.39121E-02
 -1      3121 1.28977E-02
 -1      3122 1.67061E-02
 -1      3123 2.03223E-02
 -1      3124 7.08652E-03
 -1      3125 9.54776E-03
 -1      3126 1.16678E-02
 -1      3127 4.53111E-03
 -1      3128 5.09096E-03
 -1      3129 6.32225E-03
 -1      3130 3.42098E-03
 -1      3131 3.66068E-03
 -1      3132 3.45626E-03
 -1      3133 3.13103E-03
 -1      3134 3.44268E-03
 -1      3135 2.60752E-03
 -1      3136 2.74640E-03
 -1      3137 3.06517E-03
 -1      3138 2.56335E-03
 -1      3139 2.31657E-03
 -1      3140 2.60792E-03
 -1      3141 2.35900E-03
 -1      3142 1.96833E-03
 -1      3143 2.15290E-03
 -1      3144 2.05684E-03
 -1      3145 1.62479E-03
 -1      3146 1.80532E-03
 -1      3147 1.73016E-03
 -1      3148 1.34975E-03
 -1      3149 1.51328E-03
 -1      3150 1.45565E-03
 -1      3151 1.09808E-03
 -1      3152 1.23953E-03
 -1      3153 1.23393E-03
 -1      3154 8.76876E-04
 -1      3155 9.95496E-04
 -1      3156 1.02113E-03
 -1      3157 6.92316E-04
 -1      3158 7.85994E-04
 -1      3159 8.27664E-04
 -1      3160 5.43016E-04
 -1      3161 6.14453E-04
 -1      3162 6.58919E-04
 -1      3163 4.19070E-04
 -1      3164 4.77949E-04
 -1      3165 5.15989E-04
 -1      3166 3.21136E-04
 -1      3167 3.65777E-04
 -1      3168 3.97630E-04
 -1      3169 2.43141E-04
 -1      3170 2.78228E-04
 -1      3171 3.01430E-04
 -1      3172 1.80694E-04
 -1      3173 2.09126E-04
 -1      3174 2.24508E-04
 -1      3175 1.31515E-04
 -1      3176 1.54125E-04
 -1      3177 1.63925E-04
 -1      3178 9.33203E-05
 -1      3179 1.11289E-04
 -1      3180 1.17130E-04
 -1      3181 4.79109E-05
 -1      3182 5.30889E-05
 -1      3183 3.14386E+00
 -1      3184 3.47137E+00
 -1      3185 5.55623E-05
 -1      3186 5.41056E-05
 -1      3187 6.34872E-05
 -1      3188 5.32671E-05
 -1      3189 5.45470E-05
 -1      3190 6.18400E-05
 -1      3191 5.45470E-05
 -1      3192 5.45470E-05
 -1      3193 6.20182E-05
 -1      3194 1.90724E+01
 -1      3195 1.22064E+01
 -1      3196 3.64079E+00
 -1      3197 2.96667E+00
 -1      3198 8.98591E+00
 -1      3199 7.74935E+00
 -1      3200 9.10910E+00
 -1      3201 5.42001E-05
 -1      3202 5.44809E-05
 -1      3203 6.24059E-05
 -1      3204 6.16714E-05
 -1      3205 4.17637E+00
 -1      3206 5.86726E+00
 -1      3207 5.01251E-05
 -1      3208 5.59517E-05
 -1      3209 5.95067E-05
 -1      3210 2.90959E+00
 -1      3211 3.65261E+00
 -1      3212 5.65734E-05
 -1      3213 5.65734E-05
 -1      3214 6.09725E-05
 -1      3215 5.61479E-05
 -1      3216 7.78311E+00
 -1      3217 5.31330E+00
 -1      3218 4.26312E+00
 -1      3219 9.87754E+00
 -1      3220 1.17523E+01
 -1      3221 4.79103E+00
 -1      3222 3.35063E+00
 -1      3223 1.91487E+00
 -1      3224 9.22235E-01
 -1      3225 1.03915E+00
 -1      3226 1.05581E+00
 -1      3227 9.03080E-01
 -1      3228 4.79826E+00
 -1      3229 4.20883E+00
 -1      3230 4.74122E+00
 -1      3231 5.00182E+00
 -1      3232 3.70797E+00
 -1      3233 4.25185E+00
 -1      3234 3.81700E+00
 -1      3235 2.23653E+00
 -1      3236 3.00292E+00
 -1      3237 1.36749E+01
 -1      3238 1.00038E+01
 -1      3239 9.70778E+00
 -1      3240 1.50664E+00
 -1      3241 1.62080E+00
 -1      3242 1.61795E+00
 -1      3243 3.33121E+00
 -1      3244 1.87561E+00
 -1      3245 1.91487E+00
 -1      3246 3.72070E+00
 -1      3247 1.36930E+00
 -1      3248 1.47410E+00
 -1      3249 1.54134E+00
 -1      3250 3.96469E+00
 -1      3251 6.13541E+00
 -1      3252 5.84677E+00
 -1      3253 6.87080E-05
 -1      3254 8.09882E-05
 -1      3255 8.45725E-05
 -1      3256 6.45050E-05
 -1      3257 1.00436E+01
 -1      3258 7.62571E+00
 -1      3259 2.98469E+00
 -1      3260 3.60163E+00
 -1      3261 3.22129E+00
 -1      3262 3.17278E+00
 -1      3263 1.71578E+00
 -1      3264 1.54355E+01
 -1      3265 1.54355E+01
 -1      3266 3.91951E-05
 -1      3267 3.93903E-05
 -1      3268 5.31412E-05
 -1      3269 5.04343E-05
 -1      3270 2.70609E+00
 -1      3271 4.10281E+00
 -1      3272 3.06120E+00
 -1      3273 1.65348E+00
 -1      3274 1.73758E+00
 -1      3275 1.51755E+00
 -1      3276 1.60086E+00
 -1      3277 1.44424E+00
 -1      3278 1.44630E+00
 -1      3279 1.13910E+01
 -1      3280 1.04787E+01
 -1      3281 8.63625E+00
 -1      3282 1.61151E+00
 -1      3283 8.22914E+00
 -1      3284 1.04270E+01
 -1      3285 1.56946E+00
 -1      3286 1.61983E+00
 -1      3287 1.47156E+00
 -1      3288 1.16677E+01
 -1      3289 3.89250E+00
 -1      3290 1.51547E+00
 -1      3291 1.57896E+00
 -1      3292 1.57143E+00
 -1      3293 2.41637E+00
 -1      3294 1.61860E+00
 -1      3295 3.17472E+00
 -1      3296 3.09617E+00
 -1      3297 1.69286E+00
 -1      3298 3.09617E+00
 -1      3299 2.52183E+00
 -1      3300 2.46476E+00
 -1      3301 1.57771E+00
 -1      3302 1.17084E+00
 -1      3303 8.93822E-01
 -1      3304 6.60626E-01
 -1      3305 1.01747E+00
 -1      3306 5.15100E-01
 -1      3307 3.89463E-01
 -1      3308 5.94923E-01
 -1      3309 2.97213E-01
 -1      3310 2.26603E-01
 -1      3311 3.57146E-01
 -1      3312 1.72931E-01
 -1      3313 1.30631E-01
 -1      3314 2.11224E-01
 -1      3315 9.32976E-02
 -1      3316 6.79614E-02
 -1      3317 1.20218E-01
 -1      3318 4.89311E-02
 -1      3319 3.66095E-02
 -1      3320 6.38534E-02
 -1      3321 2.63935E-02
 -1      3322 1.99396E-02
 -1      3323 3.46071E-02
 -1      3324 1.42189E-02
 -1      3325 1.05600E-02
 -1      3326 1.86705E-02
 -1      3327 7.35470E-03
 -1      3328 5.34534E-03
 -1      3329 9.74448E-03
 -1      3330 3.61451E-03
 -1      3331 2.57076E-03
 -1      3332 4.80831E-03
 -1      3333 1.68083E-03
 -1      3334 1.17260E-03
 -1      3335 2.18756E-03
 -1      3336 8.84069E-04
 -1      3337 9.29693E-04
 -1      3338 1.00910E-03
 -1      3339 9.93148E-04
 -1      3340 1.02896E-03
 -1      3341 7.84025E-04
 -1      3342 1.08158E-03
 -1      3343 1.08364E-03
 -1      3344 9.00104E-04
 -1      3345 1.10534E-03
 -1      3346 1.07532E-03
 -1      3347 9.74426E-04
 -1      3348 1.06633E-03
 -1      3349 1.03016E-03
 -1      3350 9.87137E-04
 -1      3351 9.97252E-04
 -1      3352 9.51955E-04
 -1      3353 9.45244E-04
 -1      3354 9.18033E-04
 -1      3355 8.59205E-04
 -1      3356 8.78418E-04
 -1      3357 8.18705E-04
 -1      3358 7.53219E-04
 -1      3359 8.03996E-04
 -1      3360 7.04892E-04
 -1      3361 6.44413E-04
 -1      3362 7.15169E-04
 -1      3363 5.93810E-04
 -1      3364 5.37043E-04
 -1      3365 6.16239E-04
 -1      3366 4.87932E-04
 -1      3367 4.36950E-04
 -1      3368 5.16524E-04
 -1      3369 3.91871E-04
 -1      3370 3.47718E-04
 -1      3371 4.22333E-04
 -1      3372 3.08001E-04
 -1      3373 2.70963E-04
 -1      3374 3.37536E-04
 -1      3375 2.37086E-04
 -1      3376 2.08168E-04
 -1      3377 2.63942E-04
 -1      3378 1.80020E-04
 -1      3379 1.57563E-04
 -1      3380 2.01918E-04
 -1      3381 1.34741E-04
 -1      3382 1.16519E-04
 -1      3383 1.50948E-04
 -1      3384 9.81635E-05
 -1      3385 8.36163E-05
 -1      3386 1.09770E-04
 -1      3387 1.18460E+00
 -1      3388 1.27034E+00
 -1      3389 5.17175E-01
 -1      3390 5.97654E-01
 -1      3391 6.89712E-01
 -1      3392 7.77744E-01
 -1      3393 6.45224E-01
 -1      3394 2.59975E-01
 -1      3395 3.12858E-01
 -1      3396 1.75834E-01
 -1      3397 2.15295E-01
 -1      3398 2.34537E-01
 -1      3399 1.15674E-01
 -1      3400 1.43918E-01
 -1      3401 1.57941E-01
 -1      3402 7.44036E-02
 -1      3403 9.35596E-02
 -1      3404 1.03910E-01
 -1      3405 4.70351E-02
 -1      3406 5.94425E-02
 -1      3407 6.68339E-02
 -1      3408 2.91550E-02
 -1      3409 3.74402E-02
 -1      3410 4.22779E-02
 -1      3411 1.77194E-02
 -1      3412 2.30240E-02
 -1      3413 2.65520E-02
 -1      3414 1.03341E-02
 -1      3415 1.36841E-02
 -1      3416 1.63857E-02
 -1      3417 5.80431E-03
 -1      3418 7.79988E-03
 -1      3419 9.81614E-03
 -1      3420 3.28973E-03
 -1      3421 4.16016E-03
 -1      3422 5.63778E-03
 -1      3423 2.26924E-03
 -1      3424 2.24754E-03
 -1      3425 2.95145E-03
 -1      3426 2.01532E-03
 -1      3427 2.08119E-03
 -1      3428 1.72121E-03
 -1      3429 1.93860E-03
 -1      3430 2.07708E-03
 -1      3431 1.59492E-03
 -1      3432 1.74307E-03
 -1      3433 1.90675E-03
 -1      3434 1.62482E-03
 -1      3435 1.50160E-03
 -1      3436 1.66461E-03
 -1      3437 1.51451E-03
 -1      3438 1.29297E-03
 -1      3439 1.40448E-03
 -1      3440 1.33892E-03
 -1      3441 1.08298E-03
 -1      3442 1.19320E-03
 -1      3443 1.14202E-03
 -1      3444 9.05812E-04
 -1      3445 1.00839E-03
 -1      3446 9.67664E-04
 -1      3447 7.43010E-04
 -1      3448 8.33891E-04
 -1      3449 8.21159E-04
 -1      3450 5.97853E-04
 -1      3451 6.75717E-04
 -1      3452 6.81944E-04
 -1      3453 4.72719E-04
 -1      3454 5.37786E-04
 -1      3455 5.54584E-04
 -1      3456 3.67569E-04
 -1      3457 4.20862E-04
 -1      3458 4.42659E-04
 -1      3459 2.81028E-04
 -1      3460 3.23936E-04
 -1      3461 3.47167E-04
 -1      3462 2.11059E-04
 -1      3463 2.45074E-04
 -1      3464 2.67579E-04
 -1      3465 1.55386E-04
 -1      3466 1.81955E-04
 -1      3467 2.02520E-04
 -1      3468 1.11869E-04
 -1      3469 1.32094E-04
 -1      3470 1.50124E-04
 -1      3471 1.02696E+01
 -1      3472 3.33121E+00
 -1      3473 2.76317E+00
 -1      3474 7.36502E-05
 -1      3475 7.36502E-05
 -1      3476 7.34013E-05
 -1      3477 7.35795E-05
 -1      3478 7.11480E-05
 -1      3479 7.11480E-05
 -1      3480 8.27093E-05
 -1      3481 3.72992E-01
 -1      3482 4.40335E-01
 -1      3483 4.76326E-01
 -1      3484 3.39352E-01
 -1      3485 3.26927E+00
 -1      3486 3.75864E+00
 -1      3487 2.75207E+00
 -1      3488 2.10201E+00
 -1      3489 1.81879E+00
 -1      3490 2.96352E+00
 -1      3491 3.48728E+00
 -1      3492 1.73126E+00
 -1      3493 1.73126E+00
 -1      3494 1.61633E+00
 -1      3495 7.36502E-05
 -1      3496 6.96697E-05
 -1      3497 8.38132E-05
 -1      3498 4.74683E+00
 -1      3499 3.64476E+00
 -1      3500 3.23578E+00
 -1      3501 3.61607E+00
 -1      3502 3.41250E+00
 -1      3503 3.06834E+00
 -1      3504 1.59332E+00
 -1      3505 1.65175E+00
 -1      3506 1.12843E+01
 -1      3507 1.53616E+00
 -1      3508 1.55195E+00
 -1      3509 6.52438E+00
 -1      3510 7.29281E+00
 -1      3511 1.83404E+00
 -1      3512 1.85696E+00
 -1      3513 1.87244E+00
 -1      3514 1.81585E+00
 -1      3515 9.08059E+00
 -1      3516 2.52183E+00
 -1      3517 2.98794E+00
 -1      3518 2.92958E+00
 -1      3519 2.88160E+00
 -1      3520 3.75543E+00
 -1      3521 1.30779E+00
 -1      3522 1.33261E+00
 -1      3523 1.40675E+00
 -1      3524 1.11743E+00
 -1      3525 1.17836E+00
 -1      3526 1.04957E+00
 -1      3527 7.85262E-05
 -1      3528 6.87407E-05
 -1      3529 6.29271E-05
 -1      3530 8.63236E-05
 -1      3531 6.82006E+00
 -1      3532 6.38833E-05
 -1      3533 6.45050E-05
 -1      3534 7.22405E-05
 -1      3535 7.80268E-05
 -1      3536 8.35734E-01
 -1      3537 8.76197E-01
 -1      3538 9.61070E-01
 -1      3539 1.60957E+00
 -1      3540 1.58888E+00
 -1      3541 1.56426E+00
 -1      3542 7.28624E-05
 -1      3543 8.30254E-05
 -1      3544 7.17811E-05
 -1      3545 3.41250E+00
 -1      3546 2.84447E+00
 -1      3547 2.92576E+00
 -1      3548 2.96795E+00
 -1      3549 3.09821E+00
 -1      3550 3.86107E+00
 -1      3551 5.47501E+00
 -1      3552 4.53868E+00
 -1      3553 7.11480E-05
 -1      3554 7.08012E-05
 -1      3555 8.12577E-05
 -1      3556 2.77926E+00
 -1      3557 7.14476E-05
 -1      3558 8.02778E-05
 -1      3559 1.51292E+00
 -1      3560 1.54845E+00
 -1      3561 1.59515E+00
 -1      3562 8.31871E-05
 -1      3563 8.44057E-05
 -1      3564 9.67377E-05
 -1      3565 1.11702E-04
 -1      3566 8.44057E-05
 -1      3567 7.06338E+00
 -1      3568 6.70207E+00
 -1      3569 5.35862E+00
 -1      3570 6.20170E+00
 -1      3571 1.58868E+00
 -1      3572 1.43875E+00
 -1      3573 1.46686E+00
 -1      3574 1.40206E+00
 -1      3575 1.50335E+00
 -1      3576 3.17472E+00
 -1      3577 5.69814E-01
 -1      3578 6.61872E-01
 -1      3579 1.58868E+00
 -1      3580 1.63355E+00
 -1      3581 6.77659E-01
 -1      3582 5.32133E-01
 -1      3583 4.04474E-01
 -1      3584 3.12224E-01
 -1      3585 4.87210E-01
 -1      3586 2.36247E-01
 -1      3587 1.82575E-01
 -1      3588 2.83575E-01
 -1      3589 1.34159E-01
 -1      3590 9.68253E-02
 -1      3591 1.59183E-01
 -1      3592 7.19952E-02
 -1      3593 5.29649E-02
 -1      3594 8.59368E-02
 -1      3595 3.90597E-02
 -1      3596 2.88437E-02
 -1      3597 4.72015E-02
 -1      3598 2.10662E-02
 -1      3599 1.53456E-02
 -1      3600 2.55189E-02
 -1      3601 1.12203E-02
 -1      3602 8.01493E-03
 -1      3603 1.36161E-02
 -1      3604 5.67191E-03
 -1      3605 3.94108E-03
 -1      3606 7.14769E-03
 -1      3607 2.61154E-03
 -1      3608 1.72161E-03
 -1      3609 3.47514E-03
 -1      3610 1.27078E-03
 -1      3611 9.82251E-04
 -1      3612 1.69476E-03
 -1      3613 8.43986E-04
 -1      3614 9.07441E-04
 -1      3615 1.10567E-03
 -1      3616 8.53469E-04
 -1      3617 9.06092E-04
 -1      3618 9.13429E-04
 -1      3619 9.08182E-04
 -1      3620 9.29881E-04
 -1      3621 8.61547E-04
 -1      3622 9.29881E-04
 -1      3623 9.20892E-04
 -1      3624 8.63636E-04
 -1      3625 9.16757E-04
 -1      3626 8.83853E-04
 -1      3627 8.59501E-04
 -1      3628 8.57719E-04
 -1      3629 8.23797E-04
 -1      3630 8.29232E-04
 -1      3631 7.98766E-04
 -1      3632 7.58266E-04
 -1      3633 7.78067E-04
 -1      3634 7.20222E-04
 -1      3635 6.71894E-04
 -1      3636 7.14992E-04
 -1      3637 6.27912E-04
 -1      3638 5.77309E-04
 -1      3639 6.32965E-04
 -1      3640 5.31978E-04
 -1      3641 4.82866E-04
 -1      3642 5.43652E-04
 -1      3643 4.39455E-04
 -1      3644 3.94376E-04
 -1      3645 4.54909E-04
 -1      3646 3.54833E-04
 -1      3647 3.15116E-04
 -1      3648 3.71955E-04
 -1      3649 2.80413E-04
 -1      3650 2.46536E-04
 -1      3651 2.97710E-04
 -1      3652 2.16985E-04
 -1      3653 1.88837E-04
 -1      3654 2.33456E-04
 -1      3655 1.64298E-04
 -1      3656 1.41475E-04
 -1      3657 1.79365E-04
 -1      3658 1.22168E-04
 -1      3659 1.03812E-04
 -1      3660 1.35518E-04
 -1      3661 1.00626E-04
 -1      3662 1.00626E-04
 -1      3663 1.77233E+00
 -1      3664 1.84163E+00
 -1      3665 1.35331E-01
 -1      3666 1.67247E-01
 -1      3667 2.01657E-01
 -1      3668 2.46338E-01
 -1      3669 1.79047E-01
 -1      3670 5.63589E-02
 -1      3671 7.13199E-02
 -1      3672 3.53047E-02
 -1      3673 4.48996E-02
 -1      3674 4.93856E-02
 -1      3675 2.19072E-02
 -1      3676 2.80382E-02
 -1      3677 3.06598E-02
 -1      3678 1.33568E-02
 -1      3679 1.73922E-02
 -1      3680 1.88783E-02
 -1      3681 8.02889E-03
 -1      3682 1.05631E-02
 -1      3683 1.15696E-02
 -1      3684 4.74943E-03
 -1      3685 6.39359E-03
 -1      3686 7.14054E-03
 -1      3687 2.58979E-03
 -1      3688 3.63197E-03
 -1      3689 4.38778E-03
 -1      3690 1.65205E-03
 -1      3691 1.84010E-03
 -1      3692 2.52062E-03
 -1      3693 1.27990E-03
 -1      3694 1.21814E-03
 -1      3695 1.33703E-03
 -1      3696 1.32713E-03
 -1      3697 1.35898E-03
 -1      3698 9.82203E-04
 -1      3699 1.27121E-03
 -1      3700 1.34968E-03
 -1      3701 1.08383E-03
 -1      3702 1.14676E-03
 -1      3703 1.24388E-03
 -1      3704 1.07905E-03
 -1      3705 9.94087E-04
 -1      3706 1.09386E-03
 -1      3707 9.98820E-04
 -1      3708 8.56104E-04
 -1      3709 9.30688E-04
 -1      3710 8.82527E-04
 -1      3711 7.19299E-04
 -1      3712 7.91220E-04
 -1      3713 7.54244E-04
 -1      3714 5.97596E-04
 -1      3715 6.64890E-04
 -1      3716 6.34951E-04
 -1      3717 4.89559E-04
 -1      3718 5.49626E-04
 -1      3719 5.32572E-04
 -1      3720 3.93214E-04
 -1      3721 4.45071E-04
 -1      3722 4.40114E-04
 -1      3723 3.10064E-04
 -1      3724 3.53697E-04
 -1      3725 3.56110E-04
 -1      3726 2.40117E-04
 -1      3727 2.76072E-04
 -1      3728 2.82601E-04
 -1      3729 1.82509E-04
 -1      3730 2.11613E-04
 -1      3731 2.20105E-04
 -1      3732 1.36367E-04
 -1      3733 1.59659E-04
 -1      3734 1.68752E-04
 -1      3735 2.40653E+00
 -1      3736 2.90529E+00
 -1      3737 3.95451E+00
 -1      3738 3.06182E+00
 -1      3739 3.31743E+00
 -1      3740 3.79484E+00
 -1      3741 2.68077E+00
 -1      3742 2.69751E+00
 -1      3743 2.46416E+00
 -1      3744 2.01749E+00
 -1      3745 1.49319E+00
 -1      3746 2.73622E+00
 -1      3747 1.87244E+00
 -1      3748 1.74204E+00
 -1      3749 1.87470E+00
 -1      3750 9.83650E-05
 -1      3751 9.83650E-05
 -1      3752 2.84436E+00
 -1      3753 2.70179E+00
 -1      3754 1.03729E-04
 -1      3755 1.01297E-04
 -1      3756 1.21646E-04
 -1      3757 1.15755E+00
 -1      3758 8.80533E-01
 -1      3759 8.17742E-01
 -1      3760 2.43689E+00
 -1      3761 2.19556E+00
 -1      3762 8.84406E-02
 -1      3763 1.10555E-01
 -1      3764 7.79655E-02
 -1      3765 2.01567E+00
 -1      3766 2.68077E+00
 -1      3767 3.08147E+00
 -1      3768 2.13911E+00
 -1      3769 1.95681E+00
 -1      3770 1.95681E+00
 -1      3771 2.13911E+00
 -1      3772 1.35625E+00
 -1      3773 1.00676E-04
 -1      3774 1.19264E-04
 -1      3775 1.38389E+00
 -1      3776 1.44616E+00
 -1      3777 1.02269E+00
 -1      3778 1.08951E-04
 -1      3779 8.86030E-05
 -1      3780 8.95829E-05
 -1      3781 8.82772E-05
 -1      3782 2.56303E+00
 -1      3783 9.01920E-05
 -1      3784 1.91103E+00
 -1      3785 1.64205E+00
 -1      3786 1.67897E+00
 -1      3787 1.21598E+00
 -1      3788 1.28315E+00
 -1      3789 1.42151E+00
 -1      3790 3.42308E+00
 -1      3791 2.58670E-01
 -1      3792 2.91550E-01
 -1      3793 3.51684E-01
 -1      3794 2.94470E+00
 -1      3795 1.19875E-04
 -1      3796 1.29409E-04
 -1      3797 2.32159E+00
 -1      3798 4.68430E+00
 -1      3799 4.45487E+00
 -1      3800 3.63493E+00
 -1      3801 2.70179E+00
 -1      3802 7.72276E-01
 -1      3803 8.70728E-01
 -1      3804 6.96866E-01
 -1      3805 2.28008E+00
 -1      3806 2.46416E+00
 -1      3807 2.13911E+00
 -1      3808 4.62883E+00
 -1      3809 4.45487E+00
 -1      3810 4.06542E-01
 -1      3811 4.83382E-01
 -1      3812 5.00030E-01
 -1      3813 3.58740E-01
 -1      3814 1.87409E+00
 -1      3815 1.82274E+00
 -1      3816 1.86762E+00
 -1      3817 1.90656E+00
 -1      3818 1.99814E+00
 -1      3819 1.19861E-01
 -1      3820 2.51819E+00
 -1      3821 1.76894E+00
 -1      3822 2.10722E+00
 -1      3823 1.73695E+00
 -1      3824 9.28750E-05
 -1      3825 9.36628E-05
 -1      3826 1.08215E-04
 -1      3827 1.00220E-04
 -1      3828 2.91904E+00
 -1      3829 2.98527E+00
 -1      3830 1.81304E+00
 -1      3831 9.90987E-01
 -1      3832 1.07949E+00
 -1      3833 9.27528E-01
 -1      3834 3.15757E-01
 -1      3835 2.39780E-01
 -1      3836 1.85085E-01
 -1      3837 1.36670E-01
 -1      3838 2.17267E-01
 -1      3839 1.02927E-01
 -1      3840 7.80965E-02
 -1      3841 1.28830E-01
 -1      3842 5.75799E-02
 -1      3843 4.36747E-02
 -1      3844 7.45697E-02
 -1      3845 3.14986E-02
 -1      3846 2.37211E-02
 -1      3847 4.18770E-02
 -1      3848 1.66919E-02
 -1      3849 1.25665E-02
 -1      3850 2.26716E-02
 -1      3851 8.63552E-03
 -1      3852 6.29251E-03
 -1      3853 1.17113E-02
 -1      3854 4.41126E-03
 -1      3855 3.08172E-03
 -1      3856 5.89909E-03
 -1      3857 2.28833E-03
 -1      3858 1.83750E-03
 -1      3859 3.22446E-03
 -1      3860 1.46290E-03
 -1      3861 1.32464E-03
 -1      3862 2.05647E-03
 -1      3863 1.02315E-03
 -1      3864 9.69174E-04
 -1      3865 1.38038E-03
 -1      3866 8.82588E-04
 -1      3867 8.84678E-04
 -1      3868 9.92306E-04
 -1      3869 8.53247E-04
 -1      3870 8.53247E-04
 -1      3871 8.74288E-04
 -1      3872 8.16056E-04
 -1      3873 8.11921E-04
 -1      3874 8.05666E-04
 -1      3875 8.06655E-04
 -1      3876 7.80521E-04
 -1      3877 7.63210E-04
 -1      3878 7.61929E-04
 -1      3879 7.36899E-04
 -1      3880 7.39353E-04
 -1      3881 7.07585E-04
 -1      3882 6.69540E-04
 -1      3883 6.91447E-04
 -1      3884 6.31715E-04
 -1      3885 5.87733E-04
 -1      3886 6.24308E-04
 -1      3887 5.46616E-04
 -1      3888 5.01285E-04
 -1      3889 5.45366E-04
 -1      3890 4.60596E-04
 -1      3891 4.17185E-04
 -1      3892 4.63560E-04
 -1      3893 3.79224E-04
 -1      3894 3.39682E-04
 -1      3895 3.84911E-04
 -1      3896 3.05712E-04
 -1      3897 2.71009E-04
 -1      3898 3.12981E-04
 -1      3899 2.41537E-04
 -1      3900 2.11985E-04
 -1      3901 2.49539E-04
 -1      3902 1.86899E-04
 -1      3903 1.62360E-04
 -1      3904 1.94980E-04
 -1      3905 1.43014E-04
 -1      3906 1.23707E-04
 -1      3907 1.26759E-04
 -1      3908 1.50548E-04
 -1      3909 8.37638E-01
 -1      3910 6.34765E-01
 -1      3911 2.74201E-02
 -1      3912 3.46865E-02
 -1      3913 4.41865E-02
 -1      3914 5.56458E-02
 -1      3915 4.09467E-02
 -1      3916 1.05136E-02
 -1      3917 1.33074E-02
 -1      3918 6.46814E-03
 -1      3919 8.10344E-03
 -1      3920 9.84124E-03
 -1      3921 3.81077E-03
 -1      3922 4.92823E-03
 -1      3923 5.89113E-03
 -1      3924 2.10059E-03
 -1      3925 2.85028E-03
 -1      3926 3.39074E-03
 -1      3927 1.18621E-03
 -1      3928 1.62012E-03
 -1      3929 1.94978E-03
 -1      3930 9.24756E-04
 -1      3931 8.45675E-04
 -1      3932 1.12876E-03
 -1      3933 8.99073E-04
 -1      3934 8.76526E-04
 -1      3935 7.39999E-04
 -1      3936 8.93186E-04
 -1      3937 9.20518E-04
 -1      3938 7.13213E-04
 -1      3939 8.40991E-04
 -1      3940 8.93884E-04
 -1      3941 7.35356E-04
 -1      3942 7.52981E-04
 -1      3943 8.16380E-04
 -1      3944 7.11444E-04
 -1      3945 6.50463E-04
 -1      3946 7.15347E-04
 -1      3947 6.49199E-04
 -1      3948 5.53356E-04
 -1      3949 6.07766E-04
 -1      3950 5.68868E-04
 -1      3951 4.62577E-04
 -1      3952 5.10547E-04
 -1      3953 4.83361E-04
 -1      3954 3.78060E-04
 -1      3955 4.22548E-04
 -1      3956 4.00523E-04
 -1      3957 3.05276E-04
 -1      3958 3.44792E-04
 -1      3959 3.27226E-04
 -1      3960 2.42932E-04
 -1      3961 2.76924E-04
 -1      3962 2.65606E-04
 -1      3963 1.89597E-04
 -1      3964 2.18101E-04
 -1      3965 2.12424E-04
 -1      3966 1.51983E-04
 -1      3967 1.74833E-04
 -1      3968 1.72829E-04
 -1      3969 1.05323E-04
 -1      3970 2.10722E+00
 -1      3971 2.31820E+00
 -1      3972 1.42004E-04
 -1      3973 1.58497E-04
 -1      3974 1.64578E-04
 -1      3975 1.37302E-04
 -1      3976 1.70356E-02
 -1      3977 2.15506E-02
 -1      3978 1.59796E-02
 -1      3979 2.50690E+00
 -1      3980 2.91904E+00
 -1      3981 1.64584E-01
 -1      3982 1.98994E-01
 -1      3983 3.33991E+00
 -1      3984 2.29558E+00
 -1      3985 1.35625E+00
 -1      3986 1.02062E+00
 -1      3987 1.95994E+00
 -1      3988 5.24097E-01
 -1      3989 3.96439E-01
 -1      3990 5.43993E-01
 -1      3991 1.38473E-04
 -1      3992 1.37802E-04
 -1      3993 1.42916E-04
 -1      3994 7.00879E-02
 -1      3995 8.72085E-02
 -1      3996 6.48887E-02
 -1      3997 2.51819E+00
 -1      3998 2.11062E+00
 -1      3999 1.08705E-01
 -1      4000 1.33480E-01
 -1      4001 1.00827E-01
 -1      4002 2.10722E+00
 -1      4003 1.81304E+00
 -1      4004 2.10383E+00
 -1      4005 3.52644E-01
 -1      4006 1.30294E-04
 -1      4007 1.18271E-04
 -1      4008 1.47121E-04
 -1      4009 2.55773E-02
 -1      4010 2.48124E+00
 -1      4011 1.18428E+00
 -1      4012 2.43002E-01
 -1      4013 2.88214E-01
 -1      4014 2.28539E-01
 -1      4015 1.70795E+00
 -1      4016 1.80868E+00
 -1      4017 2.09948E+00
 -1      4018 3.63493E+00
 -1      4019 3.78055E+00
 -1      4020 3.13089E+00
 -1      4021 3.78055E+00
 -1      4022 3.33991E+00
 -1      4023 6.47517E-01
 -1      4024 7.57920E-01
 -1      4025 2.37894E+00
 -1      4026 2.28974E+00
 -1      4027 2.51372E+00
 -1      4028 1.53427E-01
 -1      4029 4.85012E-01
 -1      4030 5.71444E-01
 -1      4031 6.32498E-01
 -1      4032 2.31384E+00
 -1      4033 2.28818E+00
 -1      4034 8.37638E-01
 -1      4035 2.31860E+00
 -1      4036 3.75967E-01
 -1      4037 2.95285E-01
 -1      4038 9.13957E-01
 -1      4039 1.03422E+00
 -1      4040 8.64608E-01
 -1      4041 2.06568E-02
 -1      4042 2.65263E-02
 -1      4043 1.36699E-01
 -1      4044 1.02956E-01
 -1      4045 8.02275E-02
 -1      4046 5.97108E-02
 -1      4047 8.80967E-02
 -1      4048 4.61987E-02
 -1      4049 3.40226E-02
 -1      4050 5.18565E-02
 -1      4051 2.60226E-02
 -1      4052 1.89934E-02
 -1      4053 3.03444E-02
 -1      4054 1.42695E-02
 -1      4055 1.03385E-02
 -1      4056 1.76206E-02
 -1      4057 7.54868E-03
 -1      4058 5.66743E-03
 -1      4059 1.01069E-02
 -1      4060 4.01784E-03
 -1      4061 3.22446E-03
 -1      4062 5.66743E-03
 -1      4063 2.49437E-03
 -1      4064 2.11978E-03
 -1      4065 3.28776E-03
 -1      4066 1.68188E-03
 -1      4067 1.38038E-03
 -1      4068 2.11978E-03
 -1      4069 1.07889E-03
 -1      4070 9.92306E-04
 -1      4071 1.38038E-03
 -1      4072 9.05719E-04
 -1      4073 8.74288E-04
 -1      4074 9.92306E-04
 -1      4075 7.97478E-04
 -1      4076 7.60287E-04
 -1      4077 8.28909E-04
 -1      4078 7.24564E-04
 -1      4079 7.19299E-04
 -1      4080 7.16376E-04
 -1      4081 7.09928E-04
 -1      4082 6.91337E-04
 -1      4083 6.71283E-04
 -1      4084 6.65348E-04
 -1      4085 6.36034E-04
 -1      4086 6.35923E-04
 -1      4087 6.01547E-04
 -1      4088 5.63722E-04
 -1      4089 5.75447E-04
 -1      4090 5.26171E-04
 -1      4091 4.85054E-04
 -1      4092 5.03410E-04
 -1      4093 4.47990E-04
 -1      4094 4.07301E-04
 -1      4095 4.28795E-04
 -1      4096 3.72800E-04
 -1      4097 3.34839E-04
 -1      4098 3.57229E-04
 -1      4099 3.03988E-04
 -1      4100 2.70019E-04
 -1      4101 2.91877E-04
 -1      4102 2.43256E-04
 -1      4103 2.13784E-04
 -1      4104 2.34264E-04
 -1      4105 1.91265E-04
 -1      4106 1.66179E-04
 -1      4107 1.84982E-04
 -1      4108 1.62262E-04
 -1      4109 1.65690E+00
 -1      4110 2.04407E+00
 -1      4111 4.92430E-03
 -1      4112 6.46421E-03
 -1      4113 8.12110E-03
 -1      4114 1.05313E-02
 -1      4115 7.15427E-03
 -1      4116 1.88496E-03
 -1      4117 2.36544E-03
 -1      4118 1.12711E-03
 -1      4119 1.46764E-03
 -1      4120 1.88330E-03
 -1      4121 7.66753E-04
 -1      4122 8.14982E-04
 -1      4123 1.15386E-03
 -1      4124 6.47601E-04
 -1      4125 6.26157E-04
 -1      4126 7.01140E-04
 -1      4127 6.64655E-04
 -1      4128 6.63957E-04
 -1      4129 5.76900E-04
 -1      4130 6.27827E-04
 -1      4131 6.52437E-04
 -1      4132 5.81038E-04
 -1      4133 5.63296E-04
 -1      4134 6.00930E-04
 -1      4135 5.41924E-04
 -1      4136 4.97157E-04
 -1      4137 5.39855E-04
 -1      4138 4.91586E-04
 -1      4139 4.28001E-04
 -1      4140 4.70810E-04
 -1      4141 4.41797E-04
 -1      4142 3.58880E-04
 -1      4143 3.98909E-04
 -1      4144 3.86358E-04
 -1      4145 2.96783E-04
 -1      4146 3.30052E-04
 -1      4147 3.28437E-04
 -1      4148 2.42129E-04
 -1      4149 2.70481E-04
 -1      4150 2.73306E-04
 -1      4151 1.94150E-04
 -1      4152 2.18981E-04
 -1      4153 2.23855E-04
 -1      4154 1.64578E-04
 -1      4155 1.79342E-04
 -1      4156 1.85899E-04
 -1      4157 1.30538E-02
 -1      4158 1.67821E-02
 -1      4159 1.77310E-02
 -1      4160 1.13337E-02
 -1      4161 8.26241E-02
 -1      4162 1.04120E-01
 -1      4163 2.23713E+00
 -1      4164 2.13854E+00
 -1      4165 1.19921E+00
 -1      4166 3.78055E+00
 -1      4167 3.50624E-01
 -1      4168 4.05482E-01
 -1      4169 4.76896E-01
 -1      4170 3.34956E-01
 -1      4171 2.05568E+00
 -1      4172 1.28419E-01
 -1      4173 1.59523E-01
 -1      4174 1.10216E-01
 -1      4175 2.23713E+00
 -1      4176 2.23713E+00
 -1      4177 1.99303E+00
 -1      4178 9.26850E-01
 -1      4179 7.43872E-01
 -1      4180 1.10545E+00
 -1      4181 2.89497E-03
 -1      4182 3.85545E-03
 -1      4183 2.83015E-03
 -1      4184 3.29487E-02
 -1      4185 4.24486E-02
 -1      4186 2.80282E-02
 -1      4187 5.90486E-01
 -1      4188 4.79818E-01
 -1      4189 6.79698E-01
 -1      4190 5.25003E-02
 -1      4191 6.69424E-02
 -1      4192 4.45023E-02
 -1      4193 1.34010E-04
 -1      4194 1.37302E-04
 -1      4195 1.71091E-04
 -1      4196 1.55352E-04
 -1      4197 1.52041E+00
 -1      4198 2.30324E-01
 -1      4199 1.75629E-01
 -1      4200 1.49755E-01
 -1      4201 1.58546E-04
 -1      4202 1.50683E+00
 -1      4203 7.02356E-02
 -1      4204 4.42853E-03
 -1      4205 1.96584E-01
 -1      4206 2.40592E-01
 -1      4207 1.71576E-01
 -1      4208 1.71091E-04
 -1      4209 4.22460E-01
 -1      4210 2.92220E+00
 -1      4211 2.48155E+00
 -1      4212 1.89778E+00
 -1      4213 2.54744E+00
 -1      4214 1.68908E+00
 -1      4215 1.65367E+00
 -1      4216 2.53647E-01
 -1      4217 6.28683E-01
 -1      4218 7.04756E-01
 -1      4219 7.95234E-01
 -1      4220 7.99049E-01
 -1      4221 9.55085E-01
 -1      4222 1.72083E+00
 -1      4223 1.58062E-04
 -1      4224 1.50554E-04
 -1      4225 1.50683E+00
 -1      4226 6.12454E-02
 -1      4227 4.77332E-02
 -1      4228 3.58712E-02
 -1      4229 2.78713E-02
 -1      4230 4.52601E-02
 -1      4231 2.06858E-02
 -1      4232 1.59620E-02
 -1      4233 2.62127E-02
 -1      4234 1.18205E-02
 -1      4235 9.03061E-03
 -1      4236 1.48857E-02
 -1      4237 6.69528E-03
 -1      4238 5.04569E-03
 -1      4239 8.40887E-03
 -1      4240 4.01247E-03
 -1      4241 3.28239E-03
 -1      4242 5.04032E-03
 -1      4243 2.55768E-03
 -1      4244 2.11978E-03
 -1      4245 3.28239E-03
 -1      4246 1.61248E-03
 -1      4247 1.31099E-03
 -1      4248 2.05038E-03
 -1      4249 1.07730E-03
 -1      4250 9.90714E-04
 -1      4251 1.30940E-03
 -1      4252 8.30796E-04
 -1      4253 7.53985E-04
 -1      4254 9.15790E-04
 -1      4255 6.89662E-04
 -1      4256 6.53940E-04
 -1      4257 6.91549E-04
 -1      4258 6.42235E-04
 -1      4259 6.32864E-04
 -1      4260 6.15521E-04
 -1      4261 6.03924E-04
 -1      4262 5.77935E-04
 -1      4263 5.74876E-04
 -1      4264 5.42805E-04
 -1      4265 5.08319E-04
 -1      4266 5.10807E-04
 -1      4267 4.86533E-04
 -1      4268 4.48982E-04
 -1      4269 4.53891E-04
 -1      4270 4.27191E-04
 -1      4271 3.90127E-04
 -1      4272 4.10315E-04
 -1      4273 3.64574E-04
 -1      4274 3.30073E-04
 -1      4275 3.62971E-04
 -1      4276 3.03883E-04
 -1      4277 2.73032E-04
 -1      4278 3.11228E-04
 -1      4279 2.48134E-04
 -1      4280 2.21371E-04
 -1      4281 2.60140E-04
 -1      4282 1.98682E-04
 -1      4283 1.76163E-04
 -1      4284 2.12552E-04
 -1      4285 1.73498E-01
 -1      4286 1.34567E-01
 -1      4287 6.58208E-04
 -1      4288 7.98804E-04
 -1      4289 2.86886E-01
 -1      4290 2.21925E-01
 -1      4291 2.06737E-01
 -1      4292 9.58722E-04
 -1      4293 1.27085E-03
 -1      4294 1.50453E-03
 -1      4295 1.92185E-03
 -1      4296 6.10241E-04
 -1      4297 5.93885E-04
 -1      4298 5.86318E-04
 -1      4299 5.98536E-04
 -1      4300 5.30482E-04
 -1      4301 5.57378E-04
 -1      4302 4.71910E-04
 -1      4303 4.95352E-04
 -1      4304 4.23777E-04
 -1      4305 4.50125E-04
 -1      4306 3.72895E-04
 -1      4307 4.01987E-04
 -1      4308 3.18514E-04
 -1      4309 3.47342E-04
 -1      4310 2.66021E-04
 -1      4311 2.92324E-04
 -1      4312 2.17974E-04
 -1      4313 2.41122E-04
 -1      4314 1.80477E-04
 -1      4315 1.95285E-04
 -1      4316 3.68339E-03
 -1      4317 4.75224E-03
 -1      4318 1.06405E+00
 -1      4319 7.91686E-01
 -1      4320 1.61979E-04
 -1      4321 2.42915E-03
 -1      4322 2.95868E-03
 -1      4323 1.03238E-01
 -1      4324 8.05101E-02
 -1      4325 7.63868E-02
 -1      4326 1.26981E-01
 -1      4327 7.51028E-02
 -1      4328 9.07844E-02
 -1      4329 4.60934E-01
 -1      4330 3.57083E-01
 -1      4331 3.25361E-01
 -1      4332 2.75019E-02
 -1      4333 3.39244E-02
 -1      4334 7.12935E-01
 -1      4335 5.59549E-01
 -1      4336 6.71537E-01
 -1      4337 1.22113E-01
 -1      4338 1.46412E-01
 -1      4339 4.57864E-02
 -1      4340 5.58381E-02
 -1      4341 5.18377E-01
 -1      4342 5.90635E-01
 -1      4343 4.38847E-01
 -1      4344 5.78545E-03
 -1      4345 7.44235E-03
 -1      4346 1.52038E+00
 -1      4347 1.17736E+00
 -1      4348 8.63597E-01
 -1      4349 1.14561E+00
 -1      4350 1.44128E+00
 -1      4351 1.75679E-04
 -1      4352 1.94839E-01
 -1      4353 2.31901E-01
 -1      4354 1.10192E+00
 -1      4355 1.66293E-04
 -1      4356 1.55352E-04
 -1      4357 2.95425E-01
 -1      4358 3.57835E-01
 -1      4359 3.99316E-01
 -1      4360 2.63471E-01
 -1      4361 8.38924E-01
 -1      4362 9.33217E-01
 -1      4363 1.71091E-04
 -1      4364 4.94172E-01
 -1      4365 2.03165E-02
 -1      4366 1.64418E-02
 -1      4367 7.25614E-01
 -1      4368 6.15308E-01
 -1      4369 9.77768E-03
 -1      4370 1.23002E-02
 -1      4371 4.55545E-01
 -1      4372 3.56931E-01
 -1      4373 5.36557E-01
 -1      4374 3.02098E-01
 -3
 9999
