    1C
    1UUSER                                                              
    1UDATE              27.october.2022                                 
    1UTIME              00:28:57                                        
    1UHOST                                                              
    1UPGM               CalculiX                                        
    1UVERSION           Version 2.17                             
    1UCOMPILETIME       Thu Jul 23 21:43:50 CEST 2020                    
    1UDIR                                                               
    1UDBN                                                               
    1UMAT    1SOLIDMATERIAL                                             
    2C                          4303                                     1
 -1         1 3.15130E+01 1.91366E+01 0.00000E+00
 -1         2 3.85132E+01 1.21366E+01 0.00000E+00
 -1         3 1.50000E+02 0.00000E+00 0.00000E+00
 -1         4 1.50000E+02 5.00000E+01 0.00000E+00
 -1         5 0.00000E+00 0.00000E+00 0.00000E+00
 -1         6 0.00000E+00 5.00000E+01 0.00000E+00
 -1         7 0.00000E+00 4.70500E+01 0.00000E+00
 -1         8 0.00000E+00 4.41000E+01 0.00000E+00
 -1         9 0.00000E+00 4.11500E+01 0.00000E+00
 -1        10 0.00000E+00 3.82000E+01 0.00000E+00
 -1        11 0.00000E+00 3.52500E+01 0.00000E+00
 -1        12 0.00000E+00 3.23500E+01 0.00000E+00
 -1        13 0.00000E+00 2.94000E+01 0.00000E+00
 -1        14 0.00000E+00 2.64500E+01 0.00000E+00
 -1        15 0.00000E+00 2.35000E+01 0.00000E+00
 -1        16 0.00000E+00 2.05500E+01 0.00000E+00
 -1        17 0.00000E+00 1.76000E+01 0.00000E+00
 -1        18 0.00000E+00 1.47000E+01 0.00000E+00
 -1        19 0.00000E+00 1.17500E+01 0.00000E+00
 -1        20 0.00000E+00 8.80000E+00 0.00000E+00
 -1        21 0.00000E+00 5.85000E+00 0.00000E+00
 -1        22 0.00000E+00 2.90000E+00 0.00000E+00
 -1        23 3.15000E+00 5.00000E+01 0.00000E+00
 -1        24 6.15000E+00 5.00000E+01 0.00000E+00
 -1        25 9.15000E+00 5.00000E+01 0.00000E+00
 -1        26 1.21500E+01 5.00000E+01 0.00000E+00
 -1        27 1.51500E+01 5.00000E+01 0.00000E+00
 -1        28 1.81500E+01 5.00000E+01 0.00000E+00
 -1        29 2.11500E+01 5.00000E+01 0.00000E+00
 -1        30 2.41500E+01 5.00000E+01 0.00000E+00
 -1        31 2.71500E+01 5.00000E+01 0.00000E+00
 -1        32 3.01500E+01 5.00000E+01 0.00000E+00
 -1        33 3.31500E+01 5.00000E+01 0.00000E+00
 -1        34 3.61500E+01 5.00000E+01 0.00000E+00
 -1        35 3.91500E+01 5.00000E+01 0.00000E+00
 -1        36 4.21500E+01 5.00000E+01 0.00000E+00
 -1        37 4.51500E+01 5.00000E+01 0.00000E+00
 -1        38 4.81500E+01 5.00000E+01 0.00000E+00
 -1        39 5.11500E+01 5.00000E+01 0.00000E+00
 -1        40 5.41500E+01 5.00000E+01 0.00000E+00
 -1        41 5.71500E+01 5.00000E+01 0.00000E+00
 -1        42 6.01500E+01 5.00000E+01 0.00000E+00
 -1        43 6.31500E+01 5.00000E+01 0.00000E+00
 -1        44 6.61500E+01 5.00000E+01 0.00000E+00
 -1        45 6.91500E+01 5.00000E+01 0.00000E+00
 -1        46 7.21500E+01 5.00000E+01 0.00000E+00
 -1        47 7.51500E+01 5.00000E+01 0.00000E+00
 -1        48 7.81500E+01 5.00000E+01 0.00000E+00
 -1        49 8.11500E+01 5.00000E+01 0.00000E+00
 -1        50 8.41500E+01 5.00000E+01 0.00000E+00
 -1        51 8.71500E+01 5.00000E+01 0.00000E+00
 -1        52 9.01500E+01 5.00000E+01 0.00000E+00
 -1        53 9.31500E+01 5.00000E+01 0.00000E+00
 -1        54 9.61500E+01 5.00000E+01 0.00000E+00
 -1        55 9.91500E+01 5.00000E+01 0.00000E+00
 -1        56 1.02150E+02 5.00000E+01 0.00000E+00
 -1        57 1.05150E+02 5.00000E+01 0.00000E+00
 -1        58 1.08150E+02 5.00000E+01 0.00000E+00
 -1        59 1.11150E+02 5.00000E+01 0.00000E+00
 -1        60 1.14150E+02 5.00000E+01 0.00000E+00
 -1        61 1.17150E+02 5.00000E+01 0.00000E+00
 -1        62 1.20150E+02 5.00000E+01 0.00000E+00
 -1        63 1.23150E+02 5.00000E+01 0.00000E+00
 -1        64 1.26150E+02 5.00000E+01 0.00000E+00
 -1        65 1.29150E+02 5.00000E+01 0.00000E+00
 -1        66 1.32150E+02 5.00000E+01 0.00000E+00
 -1        67 1.35150E+02 5.00000E+01 0.00000E+00
 -1        68 1.38150E+02 5.00000E+01 0.00000E+00
 -1        69 1.41150E+02 5.00000E+01 0.00000E+00
 -1        70 1.44150E+02 5.00000E+01 0.00000E+00
 -1        71 1.47150E+02 5.00000E+01 0.00000E+00
 -1        72 3.00000E+00 0.00000E+00 0.00000E+00
 -1        73 6.00000E+00 0.00000E+00 0.00000E+00
 -1        74 9.00000E+00 0.00000E+00 0.00000E+00
 -1        75 1.20000E+01 0.00000E+00 0.00000E+00
 -1        76 1.50000E+01 0.00000E+00 0.00000E+00
 -1        77 1.80000E+01 0.00000E+00 0.00000E+00
 -1        78 2.08500E+01 0.00000E+00 0.00000E+00
 -1        79 2.34000E+01 0.00000E+00 0.00000E+00
 -1        80 2.58000E+01 0.00000E+00 0.00000E+00
 -1        81 2.79000E+01 0.00000E+00 0.00000E+00
 -1        82 3.00000E+01 0.00000E+00 0.00000E+00
 -1        83 3.19500E+01 0.00000E+00 0.00000E+00
 -1        84 3.43500E+01 0.00000E+00 0.00000E+00
 -1        85 3.69000E+01 0.00000E+00 0.00000E+00
 -1        86 3.97500E+01 0.00000E+00 0.00000E+00
 -1        87 4.27500E+01 0.00000E+00 0.00000E+00
 -1        88 4.57500E+01 0.00000E+00 0.00000E+00
 -1        89 4.87500E+01 0.00000E+00 0.00000E+00
 -1        90 5.17500E+01 0.00000E+00 0.00000E+00
 -1        91 5.46000E+01 0.00000E+00 0.00000E+00
 -1        92 5.76000E+01 0.00000E+00 0.00000E+00
 -1        93 6.06000E+01 0.00000E+00 0.00000E+00
 -1        94 6.36000E+01 0.00000E+00 0.00000E+00
 -1        95 6.66000E+01 0.00000E+00 0.00000E+00
 -1        96 6.96000E+01 0.00000E+00 0.00000E+00
 -1        97 7.26000E+01 0.00000E+00 0.00000E+00
 -1        98 7.56000E+01 0.00000E+00 0.00000E+00
 -1        99 7.84500E+01 0.00000E+00 0.00000E+00
 -1       100 8.14500E+01 0.00000E+00 0.00000E+00
 -1       101 8.44500E+01 0.00000E+00 0.00000E+00
 -1       102 8.74500E+01 0.00000E+00 0.00000E+00
 -1       103 9.04500E+01 0.00000E+00 0.00000E+00
 -1       104 9.34500E+01 0.00000E+00 0.00000E+00
 -1       105 9.64500E+01 0.00000E+00 0.00000E+00
 -1       106 9.94500E+01 0.00000E+00 0.00000E+00
 -1       107 1.02300E+02 0.00000E+00 0.00000E+00
 -1       108 1.05300E+02 0.00000E+00 0.00000E+00
 -1       109 1.08300E+02 0.00000E+00 0.00000E+00
 -1       110 1.11300E+02 0.00000E+00 0.00000E+00
 -1       111 1.14300E+02 0.00000E+00 0.00000E+00
 -1       112 1.17300E+02 0.00000E+00 0.00000E+00
 -1       113 1.20300E+02 0.00000E+00 0.00000E+00
 -1       114 1.23300E+02 0.00000E+00 0.00000E+00
 -1       115 1.26150E+02 0.00000E+00 0.00000E+00
 -1       116 1.29150E+02 0.00000E+00 0.00000E+00
 -1       117 1.32150E+02 0.00000E+00 0.00000E+00
 -1       118 1.35150E+02 0.00000E+00 0.00000E+00
 -1       119 1.38150E+02 0.00000E+00 0.00000E+00
 -1       120 1.41150E+02 0.00000E+00 0.00000E+00
 -1       121 1.44150E+02 0.00000E+00 0.00000E+00
 -1       122 1.47150E+02 0.00000E+00 0.00000E+00
 -1       123 1.50000E+02 2.95000E+00 0.00000E+00
 -1       124 1.50000E+02 5.90000E+00 0.00000E+00
 -1       125 1.50000E+02 8.85000E+00 0.00000E+00
 -1       126 1.50000E+02 1.18000E+01 0.00000E+00
 -1       127 1.50000E+02 1.47500E+01 0.00000E+00
 -1       128 1.50000E+02 1.76500E+01 0.00000E+00
 -1       129 1.50000E+02 2.06000E+01 0.00000E+00
 -1       130 1.50000E+02 2.35500E+01 0.00000E+00
 -1       131 1.50000E+02 2.65000E+01 0.00000E+00
 -1       132 1.50000E+02 2.94500E+01 0.00000E+00
 -1       133 1.50000E+02 3.24000E+01 0.00000E+00
 -1       134 1.50000E+02 3.53000E+01 0.00000E+00
 -1       135 1.50000E+02 3.82500E+01 0.00000E+00
 -1       136 1.50000E+02 4.12000E+01 0.00000E+00
 -1       137 1.50000E+02 4.41500E+01 0.00000E+00
 -1       138 1.50000E+02 4.71000E+01 0.00000E+00
 -1       139 3.83445E+01 1.06090E+01 0.00000E+00
 -1       140 3.78431E+01 9.14802E+00 0.00000E+00
 -1       141 3.71216E+01 7.94783E+00 0.00000E+00
 -1       142 3.61865E+01 6.92503E+00 0.00000E+00
 -1       143 3.48566E+01 5.98668E+00 0.00000E+00
 -1       144 3.34403E+01 5.40710E+00 0.00000E+00
 -1       145 3.20885E+01 5.16029E+00 0.00000E+00
 -1       146 3.05751E+01 5.19975E+00 0.00000E+00
 -1       147 2.90363E+01 5.58947E+00 0.00000E+00
 -1       148 2.77045E+01 6.26347E+00 0.00000E+00
 -1       149 2.64123E+01 7.34272E+00 0.00000E+00
 -1       150 2.55220E+01 8.51647E+00 0.00000E+00
 -1       151 2.48740E+01 9.91829E+00 0.00000E+00
 -1       152 2.45644E+01 1.12916E+01 0.00000E+00
 -1       153 2.45443E+01 1.27958E+01 0.00000E+00
 -1       154 2.48076E+01 1.41454E+01 0.00000E+00
 -1       155 2.53627E+01 1.54789E+01 0.00000E+00
 -1       156 2.61651E+01 1.66530E+01 0.00000E+00
 -1       157 2.72358E+01 1.76777E+01 0.00000E+00
 -1       158 2.86049E+01 1.85039E+01 0.00000E+00
 -1       159 3.00142E+01 1.89742E+01 0.00000E+00
 -1       160 3.30362E+01 1.89689E+01 0.00000E+00
 -1       161 3.45854E+01 1.84264E+01 0.00000E+00
 -1       162 3.58767E+01 1.76101E+01 0.00000E+00
 -1       163 3.70449E+01 1.64262E+01 0.00000E+00
 -1       164 3.78386E+01 1.51348E+01 0.00000E+00
 -1       165 3.83485E+01 1.36459E+01 0.00000E+00
 -1       166 2.59800E+00 4.55750E+01 0.00000E+00
 -1       167 2.59800E+00 4.26250E+01 0.00000E+00
 -1       168 2.59800E+00 3.96750E+01 0.00000E+00
 -1       169 2.59800E+00 3.67250E+01 0.00000E+00
 -1       170 2.59800E+00 3.38250E+01 0.00000E+00
 -1       171 2.59800E+00 3.08750E+01 0.00000E+00
 -1       172 2.59800E+00 2.79250E+01 0.00000E+00
 -1       173 2.59800E+00 2.49750E+01 0.00000E+00
 -1       174 2.59800E+00 2.20250E+01 0.00000E+00
 -1       175 2.59800E+00 1.90750E+01 0.00000E+00
 -1       176 2.59800E+00 1.61750E+01 0.00000E+00
 -1       177 2.59800E+00 1.32250E+01 0.00000E+00
 -1       178 2.59800E+00 1.02750E+01 0.00000E+00
 -1       179 2.59800E+00 7.32500E+00 0.00000E+00
 -1       180 2.59800E+00 4.37500E+00 0.00000E+00
 -1       181 4.65000E+00 4.74020E+01 0.00000E+00
 -1       182 7.65000E+00 4.74020E+01 0.00000E+00
 -1       183 1.06500E+01 4.74020E+01 0.00000E+00
 -1       184 1.36500E+01 4.74020E+01 0.00000E+00
 -1       185 1.66500E+01 4.74020E+01 0.00000E+00
 -1       186 1.96500E+01 4.74020E+01 0.00000E+00
 -1       187 2.26500E+01 4.74020E+01 0.00000E+00
 -1       188 2.56500E+01 4.74020E+01 0.00000E+00
 -1       189 2.86500E+01 4.74020E+01 0.00000E+00
 -1       190 3.16500E+01 4.74020E+01 0.00000E+00
 -1       191 3.46500E+01 4.74020E+01 0.00000E+00
 -1       192 3.76500E+01 4.74020E+01 0.00000E+00
 -1       193 4.06500E+01 4.74020E+01 0.00000E+00
 -1       194 4.36500E+01 4.74020E+01 0.00000E+00
 -1       195 4.66500E+01 4.74020E+01 0.00000E+00
 -1       196 4.96500E+01 4.74020E+01 0.00000E+00
 -1       197 5.26500E+01 4.74020E+01 0.00000E+00
 -1       198 5.56500E+01 4.74020E+01 0.00000E+00
 -1       199 5.86500E+01 4.74020E+01 0.00000E+00
 -1       200 6.16500E+01 4.74020E+01 0.00000E+00
 -1       201 6.46500E+01 4.74020E+01 0.00000E+00
 -1       202 6.76500E+01 4.74020E+01 0.00000E+00
 -1       203 7.06500E+01 4.74020E+01 0.00000E+00
 -1       204 7.36500E+01 4.74020E+01 0.00000E+00
 -1       205 7.66500E+01 4.74020E+01 0.00000E+00
 -1       206 7.96500E+01 4.74020E+01 0.00000E+00
 -1       207 8.26500E+01 4.74020E+01 0.00000E+00
 -1       208 8.56500E+01 4.74020E+01 0.00000E+00
 -1       209 8.86500E+01 4.74020E+01 0.00000E+00
 -1       210 9.16500E+01 4.74020E+01 0.00000E+00
 -1       211 9.46500E+01 4.74020E+01 0.00000E+00
 -1       212 9.76500E+01 4.74020E+01 0.00000E+00
 -1       213 1.00650E+02 4.74020E+01 0.00000E+00
 -1       214 1.03650E+02 4.74020E+01 0.00000E+00
 -1       215 1.06650E+02 4.74020E+01 0.00000E+00
 -1       216 1.09650E+02 4.74020E+01 0.00000E+00
 -1       217 1.12650E+02 4.74020E+01 0.00000E+00
 -1       218 1.15650E+02 4.74020E+01 0.00000E+00
 -1       219 1.18650E+02 4.74020E+01 0.00000E+00
 -1       220 1.21650E+02 4.74020E+01 0.00000E+00
 -1       221 1.24650E+02 4.74020E+01 0.00000E+00
 -1       222 1.27650E+02 4.74020E+01 0.00000E+00
 -1       223 1.30650E+02 4.74020E+01 0.00000E+00
 -1       224 1.33650E+02 4.74020E+01 0.00000E+00
 -1       225 1.36650E+02 4.74020E+01 0.00000E+00
 -1       226 1.39650E+02 4.74020E+01 0.00000E+00
 -1       227 1.42650E+02 4.74020E+01 0.00000E+00
 -1       228 1.45650E+02 4.74020E+01 0.00000E+00
 -1       229 4.50000E+00 2.59800E+00 0.00000E+00
 -1       230 7.50000E+00 2.59800E+00 0.00000E+00
 -1       231 1.05000E+01 2.59800E+00 0.00000E+00
 -1       232 1.35000E+01 2.59800E+00 0.00000E+00
 -1       233 1.65000E+01 2.59800E+00 0.00000E+00
 -1       234 1.93500E+01 2.59800E+00 0.00000E+00
 -1       235 2.19000E+01 2.59800E+00 0.00000E+00
 -1       236 2.43000E+01 2.59800E+00 0.00000E+00
 -1       237 2.89500E+01 1.63133E+00 0.00000E+00
 -1       238 3.09000E+01 1.63133E+00 0.00000E+00
 -1       239 3.33000E+01 1.63133E+00 0.00000E+00
 -1       240 3.58500E+01 1.63133E+00 0.00000E+00
 -1       241 3.87000E+01 1.63133E+00 0.00000E+00
 -1       242 4.17000E+01 1.63133E+00 0.00000E+00
 -1       243 4.47000E+01 1.63133E+00 0.00000E+00
 -1       244 4.77000E+01 1.63133E+00 0.00000E+00
 -1       245 5.07000E+01 1.63133E+00 0.00000E+00
 -1       246 5.35500E+01 1.63133E+00 0.00000E+00
 -1       247 5.65500E+01 1.63133E+00 0.00000E+00
 -1       248 5.95500E+01 1.63133E+00 0.00000E+00
 -1       249 6.25500E+01 1.63133E+00 0.00000E+00
 -1       250 6.55500E+01 1.63133E+00 0.00000E+00
 -1       251 6.85500E+01 1.63133E+00 0.00000E+00
 -1       252 7.15500E+01 1.63133E+00 0.00000E+00
 -1       253 7.45500E+01 1.63133E+00 0.00000E+00
 -1       254 7.74000E+01 1.63133E+00 0.00000E+00
 -1       255 8.04000E+01 1.63133E+00 0.00000E+00
 -1       256 8.34000E+01 1.63133E+00 0.00000E+00
 -1       257 8.64000E+01 1.63133E+00 0.00000E+00
 -1       258 8.94000E+01 1.63133E+00 0.00000E+00
 -1       259 9.24000E+01 1.63133E+00 0.00000E+00
 -1       260 9.54000E+01 1.63133E+00 0.00000E+00
 -1       261 9.84000E+01 1.63133E+00 0.00000E+00
 -1       262 1.01250E+02 1.63133E+00 0.00000E+00
 -1       263 1.04250E+02 1.63133E+00 0.00000E+00
 -1       264 1.07250E+02 1.63133E+00 0.00000E+00
 -1       265 1.10250E+02 1.63133E+00 0.00000E+00
 -1       266 1.13250E+02 1.63133E+00 0.00000E+00
 -1       267 1.16250E+02 1.63133E+00 0.00000E+00
 -1       268 1.19250E+02 1.63133E+00 0.00000E+00
 -1       269 1.22250E+02 1.63133E+00 0.00000E+00
 -1       270 1.25100E+02 1.63133E+00 0.00000E+00
 -1       271 1.28100E+02 1.63133E+00 0.00000E+00
 -1       272 1.31100E+02 1.63133E+00 0.00000E+00
 -1       273 1.34100E+02 1.63133E+00 0.00000E+00
 -1       274 1.37100E+02 1.63133E+00 0.00000E+00
 -1       275 1.40100E+02 1.63133E+00 0.00000E+00
 -1       276 1.43100E+02 1.63133E+00 0.00000E+00
 -1       277 1.46100E+02 1.63133E+00 0.00000E+00
 -1       278 1.48050E+02 2.29066E+00 0.00000E+00
 -1       279 1.48050E+02 5.24066E+00 0.00000E+00
 -1       280 1.48050E+02 8.19066E+00 0.00000E+00
 -1       281 1.48050E+02 1.11407E+01 0.00000E+00
 -1       282 1.48050E+02 1.40907E+01 0.00000E+00
 -1       283 1.48050E+02 1.69907E+01 0.00000E+00
 -1       284 1.48050E+02 1.99407E+01 0.00000E+00
 -1       285 1.48050E+02 2.28907E+01 0.00000E+00
 -1       286 1.48050E+02 2.58407E+01 0.00000E+00
 -1       287 1.48050E+02 2.87907E+01 0.00000E+00
 -1       288 1.48050E+02 3.17407E+01 0.00000E+00
 -1       289 1.48050E+02 3.46407E+01 0.00000E+00
 -1       290 1.48050E+02 3.75907E+01 0.00000E+00
 -1       291 1.48050E+02 4.05407E+01 0.00000E+00
 -1       292 1.48050E+02 4.34907E+01 0.00000E+00
 -1       293 3.98004E+01 1.12213E+01 0.00000E+00
 -1       294 3.94783E+01 9.40339E+00 0.00000E+00
 -1       295 3.85214E+01 7.92323E+00 0.00000E+00
 -1       296 3.75488E+01 6.61834E+00 0.00000E+00
 -1       297 3.64137E+01 5.19139E+00 0.00000E+00
 -1       298 3.47346E+01 4.26464E+00 0.00000E+00
 -1       299 3.29822E+01 4.09101E+00 0.00000E+00
 -1       300 3.12980E+01 3.88427E+00 0.00000E+00
 -1       301 2.94463E+01 3.97566E+00 0.00000E+00
 -1       302 2.77851E+01 4.76995E+00 0.00000E+00
 -1       303 2.60664E+01 5.61536E+00 0.00000E+00
 -1       304 2.49345E+01 7.14624E+00 0.00000E+00
 -1       305 2.38693E+01 8.60320E+00 0.00000E+00
 -1       306 2.35365E+01 1.03383E+01 0.00000E+00
 -1       307 2.31745E+01 1.20253E+01 0.00000E+00
 -1       308 2.34860E+01 1.37027E+01 0.00000E+00
 -1       309 2.38885E+01 1.53102E+01 0.00000E+00
 -1       310 2.47629E+01 1.67501E+01 0.00000E+00
 -1       311 2.58622E+01 1.80413E+01 0.00000E+00
 -1       312 2.72074E+01 1.92723E+01 0.00000E+00
 -1       313 2.89258E+01 1.98891E+01 0.00000E+00
 -1       314 3.06150E+01 2.04274E+01 0.00000E+00
 -1       315 3.24072E+01 2.02579E+01 0.00000E+00
 -1       316 3.42392E+01 1.99210E+01 0.00000E+00
 -1       317 3.58789E+01 1.90431E+01 0.00000E+00
 -1       318 3.74431E+01 1.79874E+01 0.00000E+00
 -1       319 3.84746E+01 1.64154E+01 0.00000E+00
 -1       320 3.92405E+01 1.47832E+01 0.00000E+00
 -1       321 3.96361E+01 1.30227E+01 0.00000E+00
 -1       322 2.65353E+01 2.15657E+00 0.00000E+00
 -1       323 1.47402E+02 4.56250E+01 0.00000E+00
 -1       324 5.19600E+00 4.11500E+01 0.00000E+00
 -1       325 5.19600E+00 4.41000E+01 0.00000E+00
 -1       326 5.19600E+00 3.52750E+01 0.00000E+00
 -1       327 5.19600E+00 3.23250E+01 0.00000E+00
 -1       328 5.19600E+00 2.93750E+01 0.00000E+00
 -1       329 5.19600E+00 2.64250E+01 0.00000E+00
 -1       330 5.19600E+00 2.34750E+01 0.00000E+00
 -1       331 5.19600E+00 2.05250E+01 0.00000E+00
 -1       332 5.19600E+00 1.76250E+01 0.00000E+00
 -1       333 5.19600E+00 1.46750E+01 0.00000E+00
 -1       334 5.19600E+00 1.17250E+01 0.00000E+00
 -1       335 5.19600E+00 8.77500E+00 0.00000E+00
 -1       336 5.19600E+00 5.82500E+00 0.00000E+00
 -1       337 4.01588E+01 7.91413E+00 0.00000E+00
 -1       338 2.57499E+01 4.05990E+00 0.00000E+00
 -1       339 9.15000E+00 4.48040E+01 0.00000E+00
 -1       340 1.21500E+01 4.48040E+01 0.00000E+00
 -1       341 1.51500E+01 4.48040E+01 0.00000E+00
 -1       342 1.81500E+01 4.48040E+01 0.00000E+00
 -1       343 2.11500E+01 4.48040E+01 0.00000E+00
 -1       344 2.41500E+01 4.48040E+01 0.00000E+00
 -1       345 2.71500E+01 4.48040E+01 0.00000E+00
 -1       346 3.01500E+01 4.48040E+01 0.00000E+00
 -1       347 3.31500E+01 4.48040E+01 0.00000E+00
 -1       348 3.61500E+01 4.48040E+01 0.00000E+00
 -1       349 3.91500E+01 4.48040E+01 0.00000E+00
 -1       350 4.21500E+01 4.48040E+01 0.00000E+00
 -1       351 4.51500E+01 4.48040E+01 0.00000E+00
 -1       352 4.81500E+01 4.48040E+01 0.00000E+00
 -1       353 5.11500E+01 4.48040E+01 0.00000E+00
 -1       354 5.41500E+01 4.48040E+01 0.00000E+00
 -1       355 5.71500E+01 4.48040E+01 0.00000E+00
 -1       356 6.01500E+01 4.48040E+01 0.00000E+00
 -1       357 6.31500E+01 4.48040E+01 0.00000E+00
 -1       358 6.61500E+01 4.48040E+01 0.00000E+00
 -1       359 6.91500E+01 4.48040E+01 0.00000E+00
 -1       360 7.21500E+01 4.48040E+01 0.00000E+00
 -1       361 7.51500E+01 4.48040E+01 0.00000E+00
 -1       362 7.81500E+01 4.48040E+01 0.00000E+00
 -1       363 8.11500E+01 4.48040E+01 0.00000E+00
 -1       364 8.41500E+01 4.48040E+01 0.00000E+00
 -1       365 8.71500E+01 4.48040E+01 0.00000E+00
 -1       366 9.01500E+01 4.48040E+01 0.00000E+00
 -1       367 9.31500E+01 4.48040E+01 0.00000E+00
 -1       368 9.61500E+01 4.48040E+01 0.00000E+00
 -1       369 9.91500E+01 4.48040E+01 0.00000E+00
 -1       370 1.02150E+02 4.48040E+01 0.00000E+00
 -1       371 1.05150E+02 4.48040E+01 0.00000E+00
 -1       372 1.08150E+02 4.48040E+01 0.00000E+00
 -1       373 1.11150E+02 4.48040E+01 0.00000E+00
 -1       374 1.14150E+02 4.48040E+01 0.00000E+00
 -1       375 1.17150E+02 4.48040E+01 0.00000E+00
 -1       376 1.20150E+02 4.48040E+01 0.00000E+00
 -1       377 1.23150E+02 4.48040E+01 0.00000E+00
 -1       378 1.26150E+02 4.48040E+01 0.00000E+00
 -1       379 1.29150E+02 4.48040E+01 0.00000E+00
 -1       380 1.32150E+02 4.48040E+01 0.00000E+00
 -1       381 1.35150E+02 4.48040E+01 0.00000E+00
 -1       382 1.38150E+02 4.48040E+01 0.00000E+00
 -1       383 1.41150E+02 4.48040E+01 0.00000E+00
 -1       384 1.44150E+02 4.48040E+01 0.00000E+00
 -1       385 1.20000E+01 5.19600E+00 0.00000E+00
 -1       386 9.00000E+00 5.19600E+00 0.00000E+00
 -1       387 1.50000E+01 5.19600E+00 0.00000E+00
 -1       388 1.78500E+01 5.19600E+00 0.00000E+00
 -1       389 2.04000E+01 5.19600E+00 0.00000E+00
 -1       390 4.02000E+01 3.84915E+00 0.00000E+00
 -1       391 4.32000E+01 3.84915E+00 0.00000E+00
 -1       392 4.62000E+01 3.84915E+00 0.00000E+00
 -1       393 4.92000E+01 3.84915E+00 0.00000E+00
 -1       394 5.20500E+01 3.84915E+00 0.00000E+00
 -1       395 5.50500E+01 3.84915E+00 0.00000E+00
 -1       396 5.80500E+01 3.84915E+00 0.00000E+00
 -1       397 6.10500E+01 3.84915E+00 0.00000E+00
 -1       398 6.40500E+01 3.84915E+00 0.00000E+00
 -1       399 6.70500E+01 3.84915E+00 0.00000E+00
 -1       400 7.00500E+01 3.84915E+00 0.00000E+00
 -1       401 7.30500E+01 3.84915E+00 0.00000E+00
 -1       402 7.59000E+01 3.84915E+00 0.00000E+00
 -1       403 7.89000E+01 3.84915E+00 0.00000E+00
 -1       404 8.19000E+01 3.84915E+00 0.00000E+00
 -1       405 8.49000E+01 3.84915E+00 0.00000E+00
 -1       406 8.79000E+01 3.84915E+00 0.00000E+00
 -1       407 9.09000E+01 3.84915E+00 0.00000E+00
 -1       408 9.39000E+01 3.84915E+00 0.00000E+00
 -1       409 9.69000E+01 3.84915E+00 0.00000E+00
 -1       410 9.97500E+01 3.84915E+00 0.00000E+00
 -1       411 1.02750E+02 3.84915E+00 0.00000E+00
 -1       412 1.05750E+02 3.84915E+00 0.00000E+00
 -1       413 1.08750E+02 3.84915E+00 0.00000E+00
 -1       414 1.11750E+02 3.84915E+00 0.00000E+00
 -1       415 1.14750E+02 3.84915E+00 0.00000E+00
 -1       416 1.17750E+02 3.84915E+00 0.00000E+00
 -1       417 1.20750E+02 3.84915E+00 0.00000E+00
 -1       418 1.23600E+02 3.84915E+00 0.00000E+00
 -1       419 1.26600E+02 3.84915E+00 0.00000E+00
 -1       420 1.29600E+02 3.84915E+00 0.00000E+00
 -1       421 1.32600E+02 3.84915E+00 0.00000E+00
 -1       422 1.35600E+02 3.84915E+00 0.00000E+00
 -1       423 1.38600E+02 3.84915E+00 0.00000E+00
 -1       424 1.41600E+02 3.84915E+00 0.00000E+00
 -1       425 1.44600E+02 3.84915E+00 0.00000E+00
 -1       426 1.46325E+02 4.54491E+00 0.00000E+00
 -1       427 1.45452E+02 9.66566E+00 0.00000E+00
 -1       428 1.45889E+02 7.10528E+00 0.00000E+00
 -1       429 1.45452E+02 1.26157E+01 0.00000E+00
 -1       430 1.45452E+02 1.55157E+01 0.00000E+00
 -1       431 1.45452E+02 1.84657E+01 0.00000E+00
 -1       432 1.45452E+02 2.14157E+01 0.00000E+00
 -1       433 1.45452E+02 2.43657E+01 0.00000E+00
 -1       434 1.45452E+02 2.73157E+01 0.00000E+00
 -1       435 1.45452E+02 3.02657E+01 0.00000E+00
 -1       436 1.45452E+02 3.31657E+01 0.00000E+00
 -1       437 1.45452E+02 3.61157E+01 0.00000E+00
 -1       438 1.45452E+02 3.90657E+01 0.00000E+00
 -1       439 1.45452E+02 4.20157E+01 0.00000E+00
 -1       440 3.91861E+01 6.60924E+00 0.00000E+00
 -1       441 4.10925E+01 1.22474E+01 0.00000E+00
 -1       442 5.19600E+00 3.82125E+01 0.00000E+00
 -1       443 3.80612E+01 5.04580E+00 0.00000E+00
 -1       444 2.42561E+01 5.46076E+00 0.00000E+00
 -1       445 2.31909E+01 6.91772E+00 0.00000E+00
 -1       446 2.23476E+01 9.21077E+00 0.00000E+00
 -1       447 2.19857E+01 1.08977E+01 0.00000E+00
 -1       448 2.19735E+01 1.31160E+01 0.00000E+00
 -1       449 2.23759E+01 1.47234E+01 0.00000E+00
 -1       450 2.30030E+01 1.68335E+01 0.00000E+00
 -1       451 2.41342E+01 1.83988E+01 0.00000E+00
 -1       452 2.54900E+01 1.97984E+01 0.00000E+00
 -1       453 2.73739E+01 2.15104E+01 0.00000E+00
 -1       454 2.90631E+01 2.20487E+01 0.00000E+00
 -1       455 3.16647E+01 2.19667E+01 0.00000E+00
 -1       456 3.34966E+01 2.16298E+01 0.00000E+00
 -1       457 3.57895E+01 2.08463E+01 0.00000E+00
 -1       458 3.75267E+01 1.97980E+01 0.00000E+00
 -1       459 3.92527E+01 1.80504E+01 0.00000E+00
 -1       460 4.01068E+01 1.61855E+01 0.00000E+00
 -1       461 4.09482E+01 1.42422E+01 0.00000E+00
 -1       462 4.11632E+01 1.00423E+01 0.00000E+00
 -1       463 3.75569E+01 3.41136E+00 0.00000E+00
 -1       464 2.80894E+01 3.48800E+00 0.00000E+00
 -1       465 2.27804E+01 4.83836E+00 0.00000E+00
 -1       466 7.79400E+00 3.08500E+01 0.00000E+00
 -1       467 7.79400E+00 3.38000E+01 0.00000E+00
 -1       468 7.79400E+00 2.49500E+01 0.00000E+00
 -1       469 7.79400E+00 2.20000E+01 0.00000E+00
 -1       470 7.79400E+00 1.91000E+01 0.00000E+00
 -1       471 7.79400E+00 1.61500E+01 0.00000E+00
 -1       472 7.79400E+00 1.32000E+01 0.00000E+00
 -1       473 7.79400E+00 1.02500E+01 0.00000E+00
 -1       474 8.39700E+00 7.72300E+00 0.00000E+00
 -1       475 2.18450E+01 6.71325E+00 0.00000E+00
 -1       476 1.06500E+01 4.22060E+01 0.00000E+00
 -1       477 7.92300E+00 4.16780E+01 0.00000E+00
 -1       478 1.36500E+01 4.22060E+01 0.00000E+00
 -1       479 1.66500E+01 4.22060E+01 0.00000E+00
 -1       480 1.96500E+01 4.22060E+01 0.00000E+00
 -1       481 2.26500E+01 4.22060E+01 0.00000E+00
 -1       482 2.56500E+01 4.22060E+01 0.00000E+00
 -1       483 2.86500E+01 4.22060E+01 0.00000E+00
 -1       484 3.16500E+01 4.22060E+01 0.00000E+00
 -1       485 3.46500E+01 4.22060E+01 0.00000E+00
 -1       486 3.76500E+01 4.22060E+01 0.00000E+00
 -1       487 4.06500E+01 4.22060E+01 0.00000E+00
 -1       488 4.36500E+01 4.22060E+01 0.00000E+00
 -1       489 4.66500E+01 4.22060E+01 0.00000E+00
 -1       490 4.96500E+01 4.22060E+01 0.00000E+00
 -1       491 5.26500E+01 4.22060E+01 0.00000E+00
 -1       492 5.56500E+01 4.22060E+01 0.00000E+00
 -1       493 5.86500E+01 4.22060E+01 0.00000E+00
 -1       494 6.16500E+01 4.22060E+01 0.00000E+00
 -1       495 6.46500E+01 4.22060E+01 0.00000E+00
 -1       496 6.76500E+01 4.22060E+01 0.00000E+00
 -1       497 7.06500E+01 4.22060E+01 0.00000E+00
 -1       498 7.36500E+01 4.22060E+01 0.00000E+00
 -1       499 7.66500E+01 4.22060E+01 0.00000E+00
 -1       500 7.96500E+01 4.22060E+01 0.00000E+00
 -1       501 8.26500E+01 4.22060E+01 0.00000E+00
 -1       502 8.56500E+01 4.22060E+01 0.00000E+00
 -1       503 8.86500E+01 4.22060E+01 0.00000E+00
 -1       504 9.16500E+01 4.22060E+01 0.00000E+00
 -1       505 9.46500E+01 4.22060E+01 0.00000E+00
 -1       506 9.76500E+01 4.22060E+01 0.00000E+00
 -1       507 1.00650E+02 4.22060E+01 0.00000E+00
 -1       508 1.03650E+02 4.22060E+01 0.00000E+00
 -1       509 1.06650E+02 4.22060E+01 0.00000E+00
 -1       510 1.09650E+02 4.22060E+01 0.00000E+00
 -1       511 1.12650E+02 4.22060E+01 0.00000E+00
 -1       512 1.15650E+02 4.22060E+01 0.00000E+00
 -1       513 1.18650E+02 4.22060E+01 0.00000E+00
 -1       514 1.21650E+02 4.22060E+01 0.00000E+00
 -1       515 1.24650E+02 4.22060E+01 0.00000E+00
 -1       516 1.27650E+02 4.22060E+01 0.00000E+00
 -1       517 1.30650E+02 4.22060E+01 0.00000E+00
 -1       518 1.33650E+02 4.22060E+01 0.00000E+00
 -1       519 1.36650E+02 4.22060E+01 0.00000E+00
 -1       520 1.39650E+02 4.22060E+01 0.00000E+00
 -1       521 1.42551E+02 4.21108E+01 0.00000E+00
 -1       522 1.35000E+01 7.58139E+00 0.00000E+00
 -1       523 1.91250E+01 7.07868E+00 0.00000E+00
 -1       524 2.21785E+01 1.86207E+01 0.00000E+00
 -1       525 4.19089E+01 8.38924E+00 0.00000E+00
 -1       526 4.17000E+01 5.89940E+00 0.00000E+00
 -1       527 5.06250E+01 6.44715E+00 0.00000E+00
 -1       528 5.36250E+01 6.44715E+00 0.00000E+00
 -1       529 5.66250E+01 6.44715E+00 0.00000E+00
 -1       530 5.96250E+01 6.44715E+00 0.00000E+00
 -1       531 6.26250E+01 6.44715E+00 0.00000E+00
 -1       532 6.56250E+01 6.44715E+00 0.00000E+00
 -1       533 6.86250E+01 6.44715E+00 0.00000E+00
 -1       534 7.16250E+01 6.44715E+00 0.00000E+00
 -1       535 7.44750E+01 6.44715E+00 0.00000E+00
 -1       536 7.74750E+01 6.44715E+00 0.00000E+00
 -1       537 8.04750E+01 6.44715E+00 0.00000E+00
 -1       538 8.34750E+01 6.44715E+00 0.00000E+00
 -1       539 8.64750E+01 6.44715E+00 0.00000E+00
 -1       540 8.94750E+01 6.44715E+00 0.00000E+00
 -1       541 9.24750E+01 6.44715E+00 0.00000E+00
 -1       542 9.54750E+01 6.44715E+00 0.00000E+00
 -1       543 9.83250E+01 6.44715E+00 0.00000E+00
 -1       544 1.01325E+02 6.44715E+00 0.00000E+00
 -1       545 1.04325E+02 6.44715E+00 0.00000E+00
 -1       546 1.07325E+02 6.44715E+00 0.00000E+00
 -1       547 1.10325E+02 6.44715E+00 0.00000E+00
 -1       548 1.13325E+02 6.44715E+00 0.00000E+00
 -1       549 1.16325E+02 6.44715E+00 0.00000E+00
 -1       550 1.19325E+02 6.44715E+00 0.00000E+00
 -1       551 1.22175E+02 6.44715E+00 0.00000E+00
 -1       552 1.25175E+02 6.44715E+00 0.00000E+00
 -1       553 1.28175E+02 6.44715E+00 0.00000E+00
 -1       554 1.31175E+02 6.44715E+00 0.00000E+00
 -1       555 1.34175E+02 6.44715E+00 0.00000E+00
 -1       556 1.37175E+02 6.44715E+00 0.00000E+00
 -1       557 1.40175E+02 6.44715E+00 0.00000E+00
 -1       558 1.44163E+02 6.40953E+00 0.00000E+00
 -1       559 1.42854E+02 1.40657E+01 0.00000E+00
 -1       560 1.42854E+02 1.70157E+01 0.00000E+00
 -1       561 1.42854E+02 1.11157E+01 0.00000E+00
 -1       562 1.42854E+02 1.99657E+01 0.00000E+00
 -1       563 1.42854E+02 2.29157E+01 0.00000E+00
 -1       564 1.42854E+02 2.58657E+01 0.00000E+00
 -1       565 1.42854E+02 2.88157E+01 0.00000E+00
 -1       566 1.42854E+02 3.17157E+01 0.00000E+00
 -1       567 1.42854E+02 3.46657E+01 0.00000E+00
 -1       568 1.42854E+02 3.76157E+01 0.00000E+00
 -1       569 1.42702E+02 3.98632E+01 0.00000E+00
 -1       570 4.09363E+01 7.08435E+00 0.00000E+00
 -1       571 4.19477E+01 1.58287E+01 0.00000E+00
 -1       572 2.52785E+01 2.19237E+01 0.00000E+00
 -1       573 4.76250E+01 6.44715E+00 0.00000E+00
 -1       574 4.46250E+01 6.44715E+00 0.00000E+00
 -1       575 1.09485E+01 7.65219E+00 0.00000E+00
 -1       576 1.63500E+01 7.58139E+00 0.00000E+00
 -1       577 7.79400E+00 2.79000E+01 0.00000E+00
 -1       578 2.04320E+01 1.19983E+01 0.00000E+00
 -1       579 2.04897E+01 9.69442E+00 0.00000E+00
 -1       580 2.06735E+01 1.42956E+01 0.00000E+00
 -1       581 3.77174E+01 2.20775E+01 0.00000E+00
 -1       582 2.13006E+01 1.64056E+01 0.00000E+00
 -1       583 2.35802E+01 2.02920E+01 0.00000E+00
 -1       584 2.76978E+01 2.34137E+01 0.00000E+00
 -1       585 3.04153E+01 2.36382E+01 0.00000E+00
 -1       586 3.28454E+01 2.32379E+01 0.00000E+00
 -1       587 3.51976E+01 2.28610E+01 0.00000E+00
 -1       588 3.96100E+01 2.01294E+01 0.00000E+00
 -1       589 4.10936E+01 1.76936E+01 0.00000E+00
 -1       590 4.30096E+01 1.12051E+01 0.00000E+00
 -1       591 4.24803E+01 1.33504E+01 0.00000E+00
 -1       592 7.79400E+00 3.67375E+01 0.00000E+00
 -1       593 4.37553E+01 9.55205E+00 0.00000E+00
 -1       594 1.42887E+02 8.12208E+00 0.00000E+00
 -1       595 4.14508E+01 1.97726E+01 0.00000E+00
 -1       596 1.03920E+01 2.05500E+01 0.00000E+00
 -1       597 1.03920E+01 2.35000E+01 0.00000E+00
 -1       598 1.03920E+01 1.46750E+01 0.00000E+00
 -1       599 1.03920E+01 1.17250E+01 0.00000E+00
 -1       600 1.06702E+01 9.68860E+00 0.00000E+00
 -1       601 5.51250E+01 9.04515E+00 0.00000E+00
 -1       602 9.78035E+00 3.93914E+01 0.00000E+00
 -1       603 5.81250E+01 9.04515E+00 0.00000E+00
 -1       604 1.51500E+01 3.96080E+01 0.00000E+00
 -1       605 1.81500E+01 3.96080E+01 0.00000E+00
 -1       606 2.11500E+01 3.96080E+01 0.00000E+00
 -1       607 2.41500E+01 3.96080E+01 0.00000E+00
 -1       608 2.71500E+01 3.96080E+01 0.00000E+00
 -1       609 3.01500E+01 3.96080E+01 0.00000E+00
 -1       610 3.31500E+01 3.96080E+01 0.00000E+00
 -1       611 3.61500E+01 3.96080E+01 0.00000E+00
 -1       612 3.91500E+01 3.96080E+01 0.00000E+00
 -1       613 4.21500E+01 3.96080E+01 0.00000E+00
 -1       614 4.51500E+01 3.96080E+01 0.00000E+00
 -1       615 4.81500E+01 3.96080E+01 0.00000E+00
 -1       616 5.11500E+01 3.96080E+01 0.00000E+00
 -1       617 5.41500E+01 3.96080E+01 0.00000E+00
 -1       618 5.71500E+01 3.96080E+01 0.00000E+00
 -1       619 6.01500E+01 3.96080E+01 0.00000E+00
 -1       620 6.31500E+01 3.96080E+01 0.00000E+00
 -1       621 6.61500E+01 3.96080E+01 0.00000E+00
 -1       622 6.91500E+01 3.96080E+01 0.00000E+00
 -1       623 7.21500E+01 3.96080E+01 0.00000E+00
 -1       624 7.51500E+01 3.96080E+01 0.00000E+00
 -1       625 7.81500E+01 3.96080E+01 0.00000E+00
 -1       626 8.11500E+01 3.96080E+01 0.00000E+00
 -1       627 8.41500E+01 3.96080E+01 0.00000E+00
 -1       628 8.71500E+01 3.96080E+01 0.00000E+00
 -1       629 9.01500E+01 3.96080E+01 0.00000E+00
 -1       630 9.31500E+01 3.96080E+01 0.00000E+00
 -1       631 9.61500E+01 3.96080E+01 0.00000E+00
 -1       632 9.91500E+01 3.96080E+01 0.00000E+00
 -1       633 1.02150E+02 3.96080E+01 0.00000E+00
 -1       634 1.05150E+02 3.96080E+01 0.00000E+00
 -1       635 1.08150E+02 3.96080E+01 0.00000E+00
 -1       636 1.11150E+02 3.96080E+01 0.00000E+00
 -1       637 1.14150E+02 3.96080E+01 0.00000E+00
 -1       638 1.17150E+02 3.96080E+01 0.00000E+00
 -1       639 1.20150E+02 3.96080E+01 0.00000E+00
 -1       640 1.23150E+02 3.96080E+01 0.00000E+00
 -1       641 1.26150E+02 3.96080E+01 0.00000E+00
 -1       642 1.29150E+02 3.96080E+01 0.00000E+00
 -1       643 1.32150E+02 3.96080E+01 0.00000E+00
 -1       644 1.35150E+02 3.96080E+01 0.00000E+00
 -1       645 1.38150E+02 3.96080E+01 0.00000E+00
 -1       646 1.40426E+02 3.97356E+01 0.00000E+00
 -1       647 1.99893E+01 1.82068E+01 0.00000E+00
 -1       648 2.55009E+01 2.42718E+01 0.00000E+00
 -1       649 5.21250E+01 9.04515E+00 0.00000E+00
 -1       650 6.11250E+01 9.04515E+00 0.00000E+00
 -1       651 6.41250E+01 9.04515E+00 0.00000E+00
 -1       652 6.71250E+01 9.04515E+00 0.00000E+00
 -1       653 7.01250E+01 9.04515E+00 0.00000E+00
 -1       654 7.29750E+01 9.04515E+00 0.00000E+00
 -1       655 7.59750E+01 9.04515E+00 0.00000E+00
 -1       656 7.89750E+01 9.04515E+00 0.00000E+00
 -1       657 8.19750E+01 9.04515E+00 0.00000E+00
 -1       658 8.49750E+01 9.04515E+00 0.00000E+00
 -1       659 8.79750E+01 9.04515E+00 0.00000E+00
 -1       660 9.09750E+01 9.04515E+00 0.00000E+00
 -1       661 9.39750E+01 9.04515E+00 0.00000E+00
 -1       662 9.68250E+01 9.04515E+00 0.00000E+00
 -1       663 9.98250E+01 9.04515E+00 0.00000E+00
 -1       664 1.02825E+02 9.04515E+00 0.00000E+00
 -1       665 1.05825E+02 9.04515E+00 0.00000E+00
 -1       666 1.08825E+02 9.04515E+00 0.00000E+00
 -1       667 1.11825E+02 9.04515E+00 0.00000E+00
 -1       668 1.14825E+02 9.04515E+00 0.00000E+00
 -1       669 1.17825E+02 9.04515E+00 0.00000E+00
 -1       670 1.20675E+02 9.04515E+00 0.00000E+00
 -1       671 1.23675E+02 9.04515E+00 0.00000E+00
 -1       672 1.26675E+02 9.04515E+00 0.00000E+00
 -1       673 1.29675E+02 9.04515E+00 0.00000E+00
 -1       674 1.32675E+02 9.04515E+00 0.00000E+00
 -1       675 1.35675E+02 9.04515E+00 0.00000E+00
 -1       676 1.38675E+02 9.04515E+00 0.00000E+00
 -1       677 1.40273E+02 9.59036E+00 0.00000E+00
 -1       678 1.40256E+02 1.55407E+01 0.00000E+00
 -1       679 1.40256E+02 1.25907E+01 0.00000E+00
 -1       680 1.40256E+02 1.84907E+01 0.00000E+00
 -1       681 1.40256E+02 2.43907E+01 0.00000E+00
 -1       682 1.40256E+02 2.73407E+01 0.00000E+00
 -1       683 1.40256E+02 3.02407E+01 0.00000E+00
 -1       684 1.40256E+02 3.31907E+01 0.00000E+00
 -1       685 1.40256E+02 3.61407E+01 0.00000E+00
 -1       686 4.30800E+01 1.74754E+01 0.00000E+00
 -1       687 4.61250E+01 9.00011E+00 0.00000E+00
 -1       688 1.49250E+01 9.63164E+00 0.00000E+00
 -1       689 2.04971E+01 8.28384E+00 0.00000E+00
 -1       690 1.80731E+01 9.18256E+00 0.00000E+00
 -1       691 2.31250E+01 2.24654E+01 0.00000E+00
 -1       692 2.17232E+01 2.07942E+01 0.00000E+00
 -1       693 4.91250E+01 9.04515E+00 0.00000E+00
 -1       694 1.40256E+02 2.14407E+01 0.00000E+00
 -1       695 1.03920E+01 1.76125E+01 0.00000E+00
 -1       696 1.90137E+01 1.33087E+01 0.00000E+00
 -1       697 3.42928E+01 2.47430E+01 0.00000E+00
 -1       698 1.03920E+01 3.23250E+01 0.00000E+00
 -1       699 1.93622E+01 1.60968E+01 0.00000E+00
 -1       700 4.42185E+01 1.50204E+01 0.00000E+00
 -1       701 4.00141E+01 2.24153E+01 0.00000E+00
 -1       702 2.89015E+01 2.54022E+01 0.00000E+00
 -1       703 3.19091E+01 2.51303E+01 0.00000E+00
 -1       704 1.84113E+01 1.07951E+01 0.00000E+00
 -1       705 3.71161E+01 2.45871E+01 0.00000E+00
 -1       706 1.24652E+01 3.94997E+01 0.00000E+00
 -1       707 4.47477E+01 1.28751E+01 0.00000E+00
 -1       708 1.03920E+01 2.64500E+01 0.00000E+00
 -1       709 4.26634E+01 6.81195E+00 0.00000E+00
 -1       710 1.03920E+01 3.52625E+01 0.00000E+00
 -1       711 3.94127E+01 2.49249E+01 0.00000E+00
 -1       712 2.67046E+01 2.62603E+01 0.00000E+00
 -1       713 4.54935E+01 1.12220E+01 0.00000E+00
 -1       714 4.18549E+01 2.20585E+01 0.00000E+00
 -1       715 1.27976E+01 9.66012E+00 0.00000E+00
 -1       716 1.03920E+01 2.93875E+01 0.00000E+00
 -1       717 1.29450E+01 1.32000E+01 0.00000E+00
 -1       718 4.61483E+01 1.43586E+01 0.00000E+00
 -1       719 5.66250E+01 1.16431E+01 0.00000E+00
 -1       720 1.37658E+02 1.40657E+01 0.00000E+00
 -1       721 1.66500E+01 3.70100E+01 0.00000E+00
 -1       722 1.96500E+01 3.70100E+01 0.00000E+00
 -1       723 2.26500E+01 3.70100E+01 0.00000E+00
 -1       724 2.56500E+01 3.70100E+01 0.00000E+00
 -1       725 2.86500E+01 3.70100E+01 0.00000E+00
 -1       726 3.16500E+01 3.70100E+01 0.00000E+00
 -1       727 3.46500E+01 3.70100E+01 0.00000E+00
 -1       728 3.76500E+01 3.70100E+01 0.00000E+00
 -1       729 4.06500E+01 3.70100E+01 0.00000E+00
 -1       730 4.36500E+01 3.70100E+01 0.00000E+00
 -1       731 4.66500E+01 3.70100E+01 0.00000E+00
 -1       732 4.96500E+01 3.70100E+01 0.00000E+00
 -1       733 5.26500E+01 3.70100E+01 0.00000E+00
 -1       734 5.56500E+01 3.70100E+01 0.00000E+00
 -1       735 5.86500E+01 3.70100E+01 0.00000E+00
 -1       736 6.16500E+01 3.70100E+01 0.00000E+00
 -1       737 6.46500E+01 3.70100E+01 0.00000E+00
 -1       738 6.76500E+01 3.70100E+01 0.00000E+00
 -1       739 7.06500E+01 3.70100E+01 0.00000E+00
 -1       740 7.36500E+01 3.70100E+01 0.00000E+00
 -1       741 7.66500E+01 3.70100E+01 0.00000E+00
 -1       742 7.96500E+01 3.70100E+01 0.00000E+00
 -1       743 8.26500E+01 3.70100E+01 0.00000E+00
 -1       744 8.56500E+01 3.70100E+01 0.00000E+00
 -1       745 8.86500E+01 3.70100E+01 0.00000E+00
 -1       746 9.16500E+01 3.70100E+01 0.00000E+00
 -1       747 9.46500E+01 3.70100E+01 0.00000E+00
 -1       748 9.76500E+01 3.70100E+01 0.00000E+00
 -1       749 1.00650E+02 3.70100E+01 0.00000E+00
 -1       750 1.03650E+02 3.70100E+01 0.00000E+00
 -1       751 1.06650E+02 3.70100E+01 0.00000E+00
 -1       752 1.09650E+02 3.70100E+01 0.00000E+00
 -1       753 1.12650E+02 3.70100E+01 0.00000E+00
 -1       754 1.15650E+02 3.70100E+01 0.00000E+00
 -1       755 1.18650E+02 3.70100E+01 0.00000E+00
 -1       756 1.21650E+02 3.70100E+01 0.00000E+00
 -1       757 1.24650E+02 3.70100E+01 0.00000E+00
 -1       758 1.27650E+02 3.70100E+01 0.00000E+00
 -1       759 1.30650E+02 3.70100E+01 0.00000E+00
 -1       760 1.33650E+02 3.70100E+01 0.00000E+00
 -1       761 1.36650E+02 3.70100E+01 0.00000E+00
 -1       762 5.36250E+01 1.16431E+01 0.00000E+00
 -1       763 1.91531E+01 2.06419E+01 0.00000E+00
 -1       764 6.56250E+01 1.16431E+01 0.00000E+00
 -1       765 6.86250E+01 1.16431E+01 0.00000E+00
 -1       766 7.14750E+01 1.16431E+01 0.00000E+00
 -1       767 7.44750E+01 1.16431E+01 0.00000E+00
 -1       768 7.74750E+01 1.16431E+01 0.00000E+00
 -1       769 8.04750E+01 1.16431E+01 0.00000E+00
 -1       770 8.34750E+01 1.16431E+01 0.00000E+00
 -1       771 8.64750E+01 1.16431E+01 0.00000E+00
 -1       772 8.94750E+01 1.16431E+01 0.00000E+00
 -1       773 9.24750E+01 1.16431E+01 0.00000E+00
 -1       774 9.53250E+01 1.16431E+01 0.00000E+00
 -1       775 9.83250E+01 1.16431E+01 0.00000E+00
 -1       776 1.01325E+02 1.16431E+01 0.00000E+00
 -1       777 1.04325E+02 1.16431E+01 0.00000E+00
 -1       778 1.07325E+02 1.16431E+01 0.00000E+00
 -1       779 1.10325E+02 1.16431E+01 0.00000E+00
 -1       780 1.13325E+02 1.16431E+01 0.00000E+00
 -1       781 1.16325E+02 1.16431E+01 0.00000E+00
 -1       782 1.19175E+02 1.16431E+01 0.00000E+00
 -1       783 1.22175E+02 1.16431E+01 0.00000E+00
 -1       784 1.25175E+02 1.16431E+01 0.00000E+00
 -1       785 1.28175E+02 1.16431E+01 0.00000E+00
 -1       786 1.31175E+02 1.16431E+01 0.00000E+00
 -1       787 1.34175E+02 1.16431E+01 0.00000E+00
 -1       788 1.38167E+02 1.15554E+01 0.00000E+00
 -1       789 1.37658E+02 1.70157E+01 0.00000E+00
 -1       790 1.37658E+02 2.87907E+01 0.00000E+00
 -1       791 1.37658E+02 2.58407E+01 0.00000E+00
 -1       792 1.37658E+02 3.46657E+01 0.00000E+00
 -1       793 2.27406E+01 2.54368E+01 0.00000E+00
 -1       794 3.33761E+01 2.66296E+01 0.00000E+00
 -1       795 1.69873E+01 1.49779E+01 0.00000E+00
 -1       796 5.96250E+01 1.16431E+01 0.00000E+00
 -1       797 3.05748E+01 2.71413E+01 0.00000E+00
 -1       798 1.37658E+02 3.17282E+01 0.00000E+00
 -1       799 6.26250E+01 1.16431E+01 0.00000E+00
 -1       800 4.55092E+01 1.71105E+01 0.00000E+00
 -1       801 2.05965E+01 2.31627E+01 0.00000E+00
 -1       802 1.77105E+01 1.77359E+01 0.00000E+00
 -1       803 5.06250E+01 1.16431E+01 0.00000E+00
 -1       804 1.29900E+01 2.20250E+01 0.00000E+00
 -1       805 3.58082E+01 2.65448E+01 0.00000E+00
 -1       806 1.63848E+01 1.24642E+01 0.00000E+00
 -1       807 4.39378E+01 1.98100E+01 0.00000E+00
 -1       808 1.28713E+01 1.14301E+01 0.00000E+00
 -1       809 4.75860E+01 1.16203E+01 0.00000E+00
 -1       810 2.83779E+01 2.79994E+01 0.00000E+00
 -1       811 1.29900E+01 3.37938E+01 0.00000E+00
 -1       812 3.81049E+01 2.68826E+01 0.00000E+00
 -1       813 1.37658E+02 1.99657E+01 0.00000E+00
 -1       814 4.12536E+01 2.45681E+01 0.00000E+00
 -1       815 1.29450E+01 1.61375E+01 0.00000E+00
 -1       816 2.39443E+01 2.74253E+01 0.00000E+00
 -1       817 1.29900E+01 2.49750E+01 0.00000E+00
 -1       818 1.29675E+01 1.90812E+01 0.00000E+00
 -1       819 1.37658E+02 2.29032E+01 0.00000E+00
 -1       820 4.68671E+01 1.29894E+01 0.00000E+00
 -1       821 1.39652E+01 3.69017E+01 0.00000E+00
 -1       822 1.29900E+01 3.08563E+01 0.00000E+00
 -1       823 7.29750E+01 1.42411E+01 0.00000E+00
 -1       824 1.35060E+02 1.55407E+01 0.00000E+00
 -1       825 1.76202E+01 2.31932E+01 0.00000E+00
 -1       826 2.11500E+01 3.44120E+01 0.00000E+00
 -1       827 2.41500E+01 3.44120E+01 0.00000E+00
 -1       828 2.71500E+01 3.44120E+01 0.00000E+00
 -1       829 3.01500E+01 3.44120E+01 0.00000E+00
 -1       830 3.31500E+01 3.44120E+01 0.00000E+00
 -1       831 3.61500E+01 3.44120E+01 0.00000E+00
 -1       832 3.91500E+01 3.44120E+01 0.00000E+00
 -1       833 4.21500E+01 3.44120E+01 0.00000E+00
 -1       834 4.51500E+01 3.44120E+01 0.00000E+00
 -1       835 4.81500E+01 3.44120E+01 0.00000E+00
 -1       836 5.11500E+01 3.44120E+01 0.00000E+00
 -1       837 5.41500E+01 3.44120E+01 0.00000E+00
 -1       838 5.71500E+01 3.44120E+01 0.00000E+00
 -1       839 6.01500E+01 3.44120E+01 0.00000E+00
 -1       840 6.31500E+01 3.44120E+01 0.00000E+00
 -1       841 6.61500E+01 3.44120E+01 0.00000E+00
 -1       842 6.91500E+01 3.44120E+01 0.00000E+00
 -1       843 7.21500E+01 3.44120E+01 0.00000E+00
 -1       844 7.51500E+01 3.44120E+01 0.00000E+00
 -1       845 7.81500E+01 3.44120E+01 0.00000E+00
 -1       846 8.11500E+01 3.44120E+01 0.00000E+00
 -1       847 8.41500E+01 3.44120E+01 0.00000E+00
 -1       848 8.71500E+01 3.44120E+01 0.00000E+00
 -1       849 9.01500E+01 3.44120E+01 0.00000E+00
 -1       850 9.31500E+01 3.44120E+01 0.00000E+00
 -1       851 9.61500E+01 3.44120E+01 0.00000E+00
 -1       852 9.91500E+01 3.44120E+01 0.00000E+00
 -1       853 1.02150E+02 3.44120E+01 0.00000E+00
 -1       854 1.05150E+02 3.44120E+01 0.00000E+00
 -1       855 1.08150E+02 3.44120E+01 0.00000E+00
 -1       856 1.11150E+02 3.44120E+01 0.00000E+00
 -1       857 1.14150E+02 3.44120E+01 0.00000E+00
 -1       858 1.17150E+02 3.44120E+01 0.00000E+00
 -1       859 1.20150E+02 3.44120E+01 0.00000E+00
 -1       860 1.23150E+02 3.44120E+01 0.00000E+00
 -1       861 1.26150E+02 3.44120E+01 0.00000E+00
 -1       862 1.29150E+02 3.44120E+01 0.00000E+00
 -1       863 1.32150E+02 3.44120E+01 0.00000E+00
 -1       864 1.34904E+02 3.45388E+01 0.00000E+00
 -1       865 7.01250E+01 1.42411E+01 0.00000E+00
 -1       866 5.51250E+01 1.42411E+01 0.00000E+00
 -1       867 6.71250E+01 1.42411E+01 0.00000E+00
 -1       868 7.59750E+01 1.42411E+01 0.00000E+00
 -1       869 7.89750E+01 1.42411E+01 0.00000E+00
 -1       870 8.19750E+01 1.42411E+01 0.00000E+00
 -1       871 8.49750E+01 1.42411E+01 0.00000E+00
 -1       872 8.79750E+01 1.42411E+01 0.00000E+00
 -1       873 9.09750E+01 1.42411E+01 0.00000E+00
 -1       874 9.38250E+01 1.42411E+01 0.00000E+00
 -1       875 9.68250E+01 1.42411E+01 0.00000E+00
 -1       876 9.98250E+01 1.42411E+01 0.00000E+00
 -1       877 1.02825E+02 1.42411E+01 0.00000E+00
 -1       878 1.05825E+02 1.42411E+01 0.00000E+00
 -1       879 1.08825E+02 1.42411E+01 0.00000E+00
 -1       880 1.11825E+02 1.42411E+01 0.00000E+00
 -1       881 1.14825E+02 1.42411E+01 0.00000E+00
 -1       882 1.17675E+02 1.42411E+01 0.00000E+00
 -1       883 1.20675E+02 1.42411E+01 0.00000E+00
 -1       884 1.23675E+02 1.42411E+01 0.00000E+00
 -1       885 1.26675E+02 1.42411E+01 0.00000E+00
 -1       886 1.29675E+02 1.42411E+01 0.00000E+00
 -1       887 1.32675E+02 1.42411E+01 0.00000E+00
 -1       888 1.35060E+02 2.73157E+01 0.00000E+00
 -1       889 6.41250E+01 1.42411E+01 0.00000E+00
 -1       890 3.23439E+01 2.89023E+01 0.00000E+00
 -1       891 1.98110E+01 2.60511E+01 0.00000E+00
 -1       892 5.21250E+01 1.42411E+01 0.00000E+00
 -1       893 6.11250E+01 1.42411E+01 0.00000E+00
 -1       894 4.45234E+01 2.24414E+01 0.00000E+00
 -1       895 5.81250E+01 1.42411E+01 0.00000E+00
 -1       896 1.61776E+01 2.02872E+01 0.00000E+00
 -1       897 1.53657E+01 1.68769E+01 0.00000E+00
 -1       898 4.66402E+01 1.95759E+01 0.00000E+00
 -1       899 4.79891E+01 1.62362E+01 0.00000E+00
 -1       900 1.81500E+01 3.44120E+01 0.00000E+00
 -1       901 3.47761E+01 2.88176E+01 0.00000E+00
 -1       902 1.29900E+01 2.79188E+01 0.00000E+00
 -1       903 4.94961E+01 1.36153E+01 0.00000E+00
 -1       904 1.35060E+02 1.84907E+01 0.00000E+00
 -1       905 3.01470E+01 2.97604E+01 0.00000E+00
 -1       906 4.06030E+01 2.71357E+01 0.00000E+00
 -1       907 3.70728E+01 2.91554E+01 0.00000E+00
 -1       908 4.39220E+01 2.49510E+01 0.00000E+00
 -1       909 1.35060E+02 3.02532E+01 0.00000E+00
 -1       910 1.35060E+02 2.43782E+01 0.00000E+00
 -1       911 2.56176E+01 2.91644E+01 0.00000E+00
 -1       912 4.87426E+01 1.49258E+01 0.00000E+00
 -1       913 1.53051E+01 2.40841E+01 0.00000E+00
 -1       914 1.48552E+01 1.41598E+01 0.00000E+00
 -1       915 1.56748E+01 3.39021E+01 0.00000E+00
 -1       916 1.56748E+01 3.09646E+01 0.00000E+00
 -1       917 2.10148E+01 2.80397E+01 0.00000E+00
 -1       918 7.44750E+01 1.68391E+01 0.00000E+00
 -1       919 2.56500E+01 3.18140E+01 0.00000E+00
 -1       920 3.16500E+01 3.18140E+01 0.00000E+00
 -1       921 3.46500E+01 3.18140E+01 0.00000E+00
 -1       922 3.76500E+01 3.18140E+01 0.00000E+00
 -1       923 4.06500E+01 3.18140E+01 0.00000E+00
 -1       924 4.36500E+01 3.18140E+01 0.00000E+00
 -1       925 4.66500E+01 3.18140E+01 0.00000E+00
 -1       926 4.96500E+01 3.18140E+01 0.00000E+00
 -1       927 5.26500E+01 3.18140E+01 0.00000E+00
 -1       928 5.56500E+01 3.18140E+01 0.00000E+00
 -1       929 5.86500E+01 3.18140E+01 0.00000E+00
 -1       930 6.16500E+01 3.18140E+01 0.00000E+00
 -1       931 6.46500E+01 3.18140E+01 0.00000E+00
 -1       932 6.76500E+01 3.18140E+01 0.00000E+00
 -1       933 7.06500E+01 3.18140E+01 0.00000E+00
 -1       934 7.36500E+01 3.18140E+01 0.00000E+00
 -1       935 7.66500E+01 3.18140E+01 0.00000E+00
 -1       936 7.96500E+01 3.18140E+01 0.00000E+00
 -1       937 8.26500E+01 3.18140E+01 0.00000E+00
 -1       938 8.56500E+01 3.18140E+01 0.00000E+00
 -1       939 8.86500E+01 3.18140E+01 0.00000E+00
 -1       940 9.16500E+01 3.18140E+01 0.00000E+00
 -1       941 9.46500E+01 3.18140E+01 0.00000E+00
 -1       942 9.76500E+01 3.18140E+01 0.00000E+00
 -1       943 1.00650E+02 3.18140E+01 0.00000E+00
 -1       944 1.03650E+02 3.18140E+01 0.00000E+00
 -1       945 1.06650E+02 3.18140E+01 0.00000E+00
 -1       946 1.09650E+02 3.18140E+01 0.00000E+00
 -1       947 1.12650E+02 3.18140E+01 0.00000E+00
 -1       948 1.15650E+02 3.18140E+01 0.00000E+00
 -1       949 1.18650E+02 3.18140E+01 0.00000E+00
 -1       950 1.21650E+02 3.18140E+01 0.00000E+00
 -1       951 1.24650E+02 3.18140E+01 0.00000E+00
 -1       952 1.27650E+02 3.18140E+01 0.00000E+00
 -1       953 1.30650E+02 3.18140E+01 0.00000E+00
 -1       954 6.86250E+01 1.68391E+01 0.00000E+00
 -1       955 1.74959E+01 2.69420E+01 0.00000E+00
 -1       956 8.04750E+01 1.68391E+01 0.00000E+00
 -1       957 8.34750E+01 1.68391E+01 0.00000E+00
 -1       958 8.64750E+01 1.68391E+01 0.00000E+00
 -1       959 8.94750E+01 1.68391E+01 0.00000E+00
 -1       960 9.23250E+01 1.68391E+01 0.00000E+00
 -1       961 9.53250E+01 1.68391E+01 0.00000E+00
 -1       962 9.83250E+01 1.68391E+01 0.00000E+00
 -1       963 1.01325E+02 1.68391E+01 0.00000E+00
 -1       964 1.04325E+02 1.68391E+01 0.00000E+00
 -1       965 1.07325E+02 1.68391E+01 0.00000E+00
 -1       966 1.10325E+02 1.68391E+01 0.00000E+00
 -1       967 1.13325E+02 1.68391E+01 0.00000E+00
 -1       968 1.16175E+02 1.68391E+01 0.00000E+00
 -1       969 1.19175E+02 1.68391E+01 0.00000E+00
 -1       970 1.22175E+02 1.68391E+01 0.00000E+00
 -1       971 1.25175E+02 1.68391E+01 0.00000E+00
 -1       972 1.28175E+02 1.68391E+01 0.00000E+00
 -1       973 1.31175E+02 1.68391E+01 0.00000E+00
 -1       974 6.56250E+01 1.68391E+01 0.00000E+00
 -1       975 6.26250E+01 1.68391E+01 0.00000E+00
 -1       976 7.74750E+01 1.68391E+01 0.00000E+00
 -1       977 7.15500E+01 1.68391E+01 0.00000E+00
 -1       978 4.92157E+01 1.86739E+01 0.00000E+00
 -1       979 4.32715E+01 2.75186E+01 0.00000E+00
 -1       980 1.96500E+01 3.18140E+01 0.00000E+00
 -1       981 4.76715E+01 2.25524E+01 0.00000E+00
 -1       982 5.36250E+01 1.67941E+01 0.00000E+00
 -1       983 1.33117E+02 1.76649E+01 0.00000E+00
 -1       984 1.35060E+02 2.14344E+01 0.00000E+00
 -1       985 1.76624E+01 3.13893E+01 0.00000E+00
 -1       986 2.26500E+01 3.18140E+01 0.00000E+00
 -1       987 5.96250E+01 1.68391E+01 0.00000E+00
 -1       988 2.86500E+01 3.18140E+01 0.00000E+00
 -1       989 5.02469E+01 2.16503E+01 0.00000E+00
 -1       990 4.70701E+01 2.50619E+01 0.00000E+00
 -1       991 1.32462E+02 2.58469E+01 0.00000E+00
 -1       992 1.31556E+02 2.88305E+01 0.00000E+00
 -1       993 3.90921E+01 2.95939E+01 0.00000E+00
 -1       994 5.66250E+01 1.68391E+01 0.00000E+00
 -1       995 4.99692E+01 1.73634E+01 0.00000E+00
 -1       996 4.81500E+01 2.92160E+01 0.00000E+00
 -1       997 5.11500E+01 2.92160E+01 0.00000E+00
 -1       998 5.41500E+01 2.92160E+01 0.00000E+00
 -1       999 5.71500E+01 2.92160E+01 0.00000E+00
 -1      1000 6.01500E+01 2.92160E+01 0.00000E+00
 -1      1001 6.31500E+01 2.92160E+01 0.00000E+00
 -1      1002 6.61500E+01 2.92160E+01 0.00000E+00
 -1      1003 6.91500E+01 2.92160E+01 0.00000E+00
 -1      1004 7.21500E+01 2.92160E+01 0.00000E+00
 -1      1005 7.51500E+01 2.92160E+01 0.00000E+00
 -1      1006 7.81500E+01 2.92160E+01 0.00000E+00
 -1      1007 8.11500E+01 2.92160E+01 0.00000E+00
 -1      1008 8.41500E+01 2.92160E+01 0.00000E+00
 -1      1009 8.71500E+01 2.92160E+01 0.00000E+00
 -1      1010 9.01500E+01 2.92160E+01 0.00000E+00
 -1      1011 9.31500E+01 2.92160E+01 0.00000E+00
 -1      1012 9.61500E+01 2.92160E+01 0.00000E+00
 -1      1013 9.91500E+01 2.92160E+01 0.00000E+00
 -1      1014 1.02150E+02 2.92160E+01 0.00000E+00
 -1      1015 1.05150E+02 2.92160E+01 0.00000E+00
 -1      1016 1.08150E+02 2.92160E+01 0.00000E+00
 -1      1017 1.11150E+02 2.92160E+01 0.00000E+00
 -1      1018 1.14150E+02 2.92160E+01 0.00000E+00
 -1      1019 1.17150E+02 2.92160E+01 0.00000E+00
 -1      1020 1.20150E+02 2.92160E+01 0.00000E+00
 -1      1021 1.23150E+02 2.92160E+01 0.00000E+00
 -1      1022 1.26150E+02 2.92160E+01 0.00000E+00
 -1      1023 1.28853E+02 2.90232E+01 0.00000E+00
 -1      1024 8.79750E+01 1.94371E+01 0.00000E+00
 -1      1025 8.49750E+01 1.94371E+01 0.00000E+00
 -1      1026 8.19750E+01 1.94371E+01 0.00000E+00
 -1      1027 9.08250E+01 1.94371E+01 0.00000E+00
 -1      1028 9.38250E+01 1.94371E+01 0.00000E+00
 -1      1029 9.68250E+01 1.94371E+01 0.00000E+00
 -1      1030 9.98250E+01 1.94371E+01 0.00000E+00
 -1      1031 1.02825E+02 1.94371E+01 0.00000E+00
 -1      1032 1.05825E+02 1.94371E+01 0.00000E+00
 -1      1033 1.08825E+02 1.94371E+01 0.00000E+00
 -1      1034 1.11825E+02 1.94371E+01 0.00000E+00
 -1      1035 1.14675E+02 1.94371E+01 0.00000E+00
 -1      1036 1.17675E+02 1.94371E+01 0.00000E+00
 -1      1037 1.20675E+02 1.94371E+01 0.00000E+00
 -1      1038 1.23675E+02 1.94371E+01 0.00000E+00
 -1      1039 1.26675E+02 1.94371E+01 0.00000E+00
 -1      1040 1.29675E+02 1.94371E+01 0.00000E+00
 -1      1041 6.71250E+01 1.94371E+01 0.00000E+00
 -1      1042 6.41250E+01 1.94371E+01 0.00000E+00
 -1      1043 1.32462E+02 2.29032E+01 0.00000E+00
 -1      1044 5.19360E+01 1.92222E+01 0.00000E+00
 -1      1045 5.49360E+01 1.92672E+01 0.00000E+00
 -1      1046 6.11250E+01 1.94371E+01 0.00000E+00
 -1      1047 7.30125E+01 1.94371E+01 0.00000E+00
 -1      1048 1.29759E+02 2.60397E+01 0.00000E+00
 -1      1049 4.51500E+01 2.92160E+01 0.00000E+00
 -1      1050 7.60125E+01 1.94371E+01 0.00000E+00
 -1      1051 1.29759E+02 2.30959E+01 0.00000E+00
 -1      1052 4.96456E+01 2.41599E+01 0.00000E+00
 -1      1053 7.00500E+01 1.94371E+01 0.00000E+00
 -1      1054 5.81250E+01 1.94371E+01 0.00000E+00
 -1      1055 7.89938E+01 1.94371E+01 0.00000E+00
 -1      1056 4.61152E+01 2.68729E+01 0.00000E+00
 -1      1057 1.32790E+02 2.02840E+01 0.00000E+00
 -1      1058 4.88978E+01 2.66879E+01 0.00000E+00
 -1      1059 5.26500E+01 2.66180E+01 0.00000E+00
 -1      1060 5.56500E+01 2.66180E+01 0.00000E+00
 -1      1061 5.86500E+01 2.66180E+01 0.00000E+00
 -1      1062 6.16500E+01 2.66180E+01 0.00000E+00
 -1      1063 6.46500E+01 2.66180E+01 0.00000E+00
 -1      1064 6.76500E+01 2.66180E+01 0.00000E+00
 -1      1065 7.06500E+01 2.66180E+01 0.00000E+00
 -1      1066 7.36500E+01 2.66180E+01 0.00000E+00
 -1      1067 7.66500E+01 2.66180E+01 0.00000E+00
 -1      1068 7.96500E+01 2.66180E+01 0.00000E+00
 -1      1069 8.26500E+01 2.66180E+01 0.00000E+00
 -1      1070 8.56500E+01 2.66180E+01 0.00000E+00
 -1      1071 8.86500E+01 2.66180E+01 0.00000E+00
 -1      1072 9.16500E+01 2.66180E+01 0.00000E+00
 -1      1073 9.46500E+01 2.66180E+01 0.00000E+00
 -1      1074 9.76500E+01 2.66180E+01 0.00000E+00
 -1      1075 1.00650E+02 2.66180E+01 0.00000E+00
 -1      1076 1.03650E+02 2.66180E+01 0.00000E+00
 -1      1077 1.06650E+02 2.66180E+01 0.00000E+00
 -1      1078 1.09650E+02 2.66180E+01 0.00000E+00
 -1      1079 1.12650E+02 2.66180E+01 0.00000E+00
 -1      1080 1.15650E+02 2.66180E+01 0.00000E+00
 -1      1081 1.18650E+02 2.66180E+01 0.00000E+00
 -1      1082 1.21650E+02 2.66180E+01 0.00000E+00
 -1      1083 1.24650E+02 2.66180E+01 0.00000E+00
 -1      1084 8.64750E+01 2.20351E+01 0.00000E+00
 -1      1085 8.93250E+01 2.20351E+01 0.00000E+00
 -1      1086 8.34750E+01 2.20351E+01 0.00000E+00
 -1      1087 9.53250E+01 2.20351E+01 0.00000E+00
 -1      1088 9.83250E+01 2.20351E+01 0.00000E+00
 -1      1089 1.01325E+02 2.20351E+01 0.00000E+00
 -1      1090 1.04325E+02 2.20351E+01 0.00000E+00
 -1      1091 1.07325E+02 2.20351E+01 0.00000E+00
 -1      1092 1.10325E+02 2.20351E+01 0.00000E+00
 -1      1093 1.13175E+02 2.20351E+01 0.00000E+00
 -1      1094 1.16175E+02 2.20351E+01 0.00000E+00
 -1      1095 1.19175E+02 2.20351E+01 0.00000E+00
 -1      1096 1.22175E+02 2.20351E+01 0.00000E+00
 -1      1097 1.25175E+02 2.20351E+01 0.00000E+00
 -1      1098 9.23250E+01 2.20351E+01 0.00000E+00
 -1      1099 5.32469E+01 2.16953E+01 0.00000E+00
 -1      1100 5.64360E+01 2.18652E+01 0.00000E+00
 -1      1101 6.56250E+01 2.20351E+01 0.00000E+00
 -1      1102 1.27161E+02 2.45678E+01 0.00000E+00
 -1      1103 7.45125E+01 2.20351E+01 0.00000E+00
 -1      1104 8.04938E+01 2.20351E+01 0.00000E+00
 -1      1105 7.15500E+01 2.20351E+01 0.00000E+00
 -1      1106 5.94360E+01 2.18652E+01 0.00000E+00
 -1      1107 6.85875E+01 2.20351E+01 0.00000E+00
 -1      1108 6.26250E+01 2.20351E+01 0.00000E+00
 -1      1109 1.02825E+02 2.46331E+01 0.00000E+00
 -1      1110 7.75031E+01 2.20351E+01 0.00000E+00
 -1      1111 1.05825E+02 2.46331E+01 0.00000E+00
 -1      1112 1.08825E+02 2.46331E+01 0.00000E+00
 -1      1113 1.11825E+02 2.46331E+01 0.00000E+00
 -1      1114 1.14825E+02 2.46331E+01 0.00000E+00
 -1      1115 1.17825E+02 2.46331E+01 0.00000E+00
 -1      1116 1.20825E+02 2.46331E+01 0.00000E+00
 -1      1117 1.23825E+02 2.46331E+01 0.00000E+00
 -1      1118 0.00000E+00 4.85250E+01 0.00000E+00
 -1      1119 0.00000E+00 4.55750E+01 0.00000E+00
 -1      1120 0.00000E+00 4.26250E+01 0.00000E+00
 -1      1121 0.00000E+00 3.96750E+01 0.00000E+00
 -1      1122 0.00000E+00 3.67250E+01 0.00000E+00
 -1      1123 0.00000E+00 3.38000E+01 0.00000E+00
 -1      1124 0.00000E+00 3.08750E+01 0.00000E+00
 -1      1125 0.00000E+00 2.79250E+01 0.00000E+00
 -1      1126 0.00000E+00 2.49750E+01 0.00000E+00
 -1      1127 0.00000E+00 2.20250E+01 0.00000E+00
 -1      1128 0.00000E+00 1.90750E+01 0.00000E+00
 -1      1129 0.00000E+00 1.61500E+01 0.00000E+00
 -1      1130 0.00000E+00 1.32250E+01 0.00000E+00
 -1      1131 0.00000E+00 1.02750E+01 0.00000E+00
 -1      1132 0.00000E+00 7.32500E+00 0.00000E+00
 -1      1133 0.00000E+00 4.37500E+00 0.00000E+00
 -1      1134 0.00000E+00 1.45000E+00 0.00000E+00
 -1      1135 1.57500E+00 5.00000E+01 0.00000E+00
 -1      1136 4.65000E+00 5.00000E+01 0.00000E+00
 -1      1137 7.65000E+00 5.00000E+01 0.00000E+00
 -1      1138 1.06500E+01 5.00000E+01 0.00000E+00
 -1      1139 1.36500E+01 5.00000E+01 0.00000E+00
 -1      1140 1.66500E+01 5.00000E+01 0.00000E+00
 -1      1141 1.96500E+01 5.00000E+01 0.00000E+00
 -1      1142 2.26500E+01 5.00000E+01 0.00000E+00
 -1      1143 2.56500E+01 5.00000E+01 0.00000E+00
 -1      1144 2.86500E+01 5.00000E+01 0.00000E+00
 -1      1145 3.16500E+01 5.00000E+01 0.00000E+00
 -1      1146 3.46500E+01 5.00000E+01 0.00000E+00
 -1      1147 3.76500E+01 5.00000E+01 0.00000E+00
 -1      1148 4.06500E+01 5.00000E+01 0.00000E+00
 -1      1149 4.36500E+01 5.00000E+01 0.00000E+00
 -1      1150 4.66500E+01 5.00000E+01 0.00000E+00
 -1      1151 4.96500E+01 5.00000E+01 0.00000E+00
 -1      1152 5.26500E+01 5.00000E+01 0.00000E+00
 -1      1153 5.56500E+01 5.00000E+01 0.00000E+00
 -1      1154 5.86500E+01 5.00000E+01 0.00000E+00
 -1      1155 6.16500E+01 5.00000E+01 0.00000E+00
 -1      1156 6.46500E+01 5.00000E+01 0.00000E+00
 -1      1157 6.76500E+01 5.00000E+01 0.00000E+00
 -1      1158 7.06500E+01 5.00000E+01 0.00000E+00
 -1      1159 7.36500E+01 5.00000E+01 0.00000E+00
 -1      1160 7.66500E+01 5.00000E+01 0.00000E+00
 -1      1161 7.96500E+01 5.00000E+01 0.00000E+00
 -1      1162 8.26500E+01 5.00000E+01 0.00000E+00
 -1      1163 8.56500E+01 5.00000E+01 0.00000E+00
 -1      1164 8.86500E+01 5.00000E+01 0.00000E+00
 -1      1165 9.16500E+01 5.00000E+01 0.00000E+00
 -1      1166 9.46500E+01 5.00000E+01 0.00000E+00
 -1      1167 9.76500E+01 5.00000E+01 0.00000E+00
 -1      1168 1.00650E+02 5.00000E+01 0.00000E+00
 -1      1169 1.03650E+02 5.00000E+01 0.00000E+00
 -1      1170 1.06650E+02 5.00000E+01 0.00000E+00
 -1      1171 1.09650E+02 5.00000E+01 0.00000E+00
 -1      1172 1.12650E+02 5.00000E+01 0.00000E+00
 -1      1173 1.15650E+02 5.00000E+01 0.00000E+00
 -1      1174 1.18650E+02 5.00000E+01 0.00000E+00
 -1      1175 1.21650E+02 5.00000E+01 0.00000E+00
 -1      1176 1.24650E+02 5.00000E+01 0.00000E+00
 -1      1177 1.27650E+02 5.00000E+01 0.00000E+00
 -1      1178 1.30650E+02 5.00000E+01 0.00000E+00
 -1      1179 1.33650E+02 5.00000E+01 0.00000E+00
 -1      1180 1.36650E+02 5.00000E+01 0.00000E+00
 -1      1181 1.39650E+02 5.00000E+01 0.00000E+00
 -1      1182 1.42650E+02 5.00000E+01 0.00000E+00
 -1      1183 1.45650E+02 5.00000E+01 0.00000E+00
 -1      1184 1.48575E+02 5.00000E+01 0.00000E+00
 -1      1185 1.50000E+00 0.00000E+00 0.00000E+00
 -1      1186 4.50000E+00 0.00000E+00 0.00000E+00
 -1      1187 7.50000E+00 0.00000E+00 0.00000E+00
 -1      1188 1.05000E+01 0.00000E+00 0.00000E+00
 -1      1189 1.35000E+01 0.00000E+00 0.00000E+00
 -1      1190 1.65000E+01 0.00000E+00 0.00000E+00
 -1      1191 1.94250E+01 0.00000E+00 0.00000E+00
 -1      1192 2.21250E+01 0.00000E+00 0.00000E+00
 -1      1193 2.46000E+01 0.00000E+00 0.00000E+00
 -1      1194 2.68500E+01 0.00000E+00 0.00000E+00
 -1      1195 2.89500E+01 0.00000E+00 0.00000E+00
 -1      1196 3.09750E+01 0.00000E+00 0.00000E+00
 -1      1197 3.31500E+01 0.00000E+00 0.00000E+00
 -1      1198 3.56250E+01 0.00000E+00 0.00000E+00
 -1      1199 3.83250E+01 0.00000E+00 0.00000E+00
 -1      1200 4.12500E+01 0.00000E+00 0.00000E+00
 -1      1201 4.42500E+01 0.00000E+00 0.00000E+00
 -1      1202 4.72500E+01 0.00000E+00 0.00000E+00
 -1      1203 5.02500E+01 0.00000E+00 0.00000E+00
 -1      1204 5.31750E+01 0.00000E+00 0.00000E+00
 -1      1205 5.61000E+01 0.00000E+00 0.00000E+00
 -1      1206 5.91000E+01 0.00000E+00 0.00000E+00
 -1      1207 6.21000E+01 0.00000E+00 0.00000E+00
 -1      1208 6.51000E+01 0.00000E+00 0.00000E+00
 -1      1209 6.81000E+01 0.00000E+00 0.00000E+00
 -1      1210 7.11000E+01 0.00000E+00 0.00000E+00
 -1      1211 7.41000E+01 0.00000E+00 0.00000E+00
 -1      1212 7.70250E+01 0.00000E+00 0.00000E+00
 -1      1213 7.99500E+01 0.00000E+00 0.00000E+00
 -1      1214 8.29500E+01 0.00000E+00 0.00000E+00
 -1      1215 8.59500E+01 0.00000E+00 0.00000E+00
 -1      1216 8.89500E+01 0.00000E+00 0.00000E+00
 -1      1217 9.19500E+01 0.00000E+00 0.00000E+00
 -1      1218 9.49500E+01 0.00000E+00 0.00000E+00
 -1      1219 9.79500E+01 0.00000E+00 0.00000E+00
 -1      1220 1.00875E+02 0.00000E+00 0.00000E+00
 -1      1221 1.03800E+02 0.00000E+00 0.00000E+00
 -1      1222 1.06800E+02 0.00000E+00 0.00000E+00
 -1      1223 1.09800E+02 0.00000E+00 0.00000E+00
 -1      1224 1.12800E+02 0.00000E+00 0.00000E+00
 -1      1225 1.15800E+02 0.00000E+00 0.00000E+00
 -1      1226 1.18800E+02 0.00000E+00 0.00000E+00
 -1      1227 1.21800E+02 0.00000E+00 0.00000E+00
 -1      1228 1.24725E+02 0.00000E+00 0.00000E+00
 -1      1229 1.27650E+02 0.00000E+00 0.00000E+00
 -1      1230 1.30650E+02 0.00000E+00 0.00000E+00
 -1      1231 1.33650E+02 0.00000E+00 0.00000E+00
 -1      1232 1.36650E+02 0.00000E+00 0.00000E+00
 -1      1233 1.39650E+02 0.00000E+00 0.00000E+00
 -1      1234 1.42650E+02 0.00000E+00 0.00000E+00
 -1      1235 1.45650E+02 0.00000E+00 0.00000E+00
 -1      1236 1.48575E+02 0.00000E+00 0.00000E+00
 -1      1237 1.50000E+02 1.47500E+00 0.00000E+00
 -1      1238 1.50000E+02 4.42500E+00 0.00000E+00
 -1      1239 1.50000E+02 7.37500E+00 0.00000E+00
 -1      1240 1.50000E+02 1.03250E+01 0.00000E+00
 -1      1241 1.50000E+02 1.32750E+01 0.00000E+00
 -1      1242 1.50000E+02 1.62000E+01 0.00000E+00
 -1      1243 1.50000E+02 1.91250E+01 0.00000E+00
 -1      1244 1.50000E+02 2.20750E+01 0.00000E+00
 -1      1245 1.50000E+02 2.50250E+01 0.00000E+00
 -1      1246 1.50000E+02 2.79750E+01 0.00000E+00
 -1      1247 1.50000E+02 3.09250E+01 0.00000E+00
 -1      1248 1.50000E+02 3.38500E+01 0.00000E+00
 -1      1249 1.50000E+02 3.67750E+01 0.00000E+00
 -1      1250 1.50000E+02 3.97250E+01 0.00000E+00
 -1      1251 1.50000E+02 4.26750E+01 0.00000E+00
 -1      1252 1.50000E+02 4.56250E+01 0.00000E+00
 -1      1253 1.50000E+02 4.85500E+01 0.00000E+00
 -1      1254 3.84709E+01 1.13681E+01 0.00000E+00
 -1      1255 3.81342E+01 9.86462E+00 0.00000E+00
 -1      1256 3.75125E+01 8.52984E+00 0.00000E+00
 -1      1257 3.66794E+01 7.41323E+00 0.00000E+00
 -1      1258 3.55489E+01 6.41707E+00 0.00000E+00
 -1      1259 3.41643E+01 5.65807E+00 0.00000E+00
 -1      1260 3.27705E+01 5.25044E+00 0.00000E+00
 -1      1261 3.13307E+01 5.13898E+00 0.00000E+00
 -1      1262 2.97946E+01 5.35085E+00 0.00000E+00
 -1      1263 2.83524E+01 5.89087E+00 0.00000E+00
 -1      1264 2.70258E+01 6.76410E+00 0.00000E+00
 -1      1265 2.59362E+01 7.90610E+00 0.00000E+00
 -1      1266 2.51592E+01 9.19945E+00 0.00000E+00
 -1      1267 2.46846E+01 1.05971E+01 0.00000E+00
 -1      1268 2.45138E+01 1.20431E+01 0.00000E+00
 -1      1269 2.46427E+01 1.34771E+01 0.00000E+00
 -1      1270 2.50506E+01 1.48265E+01 0.00000E+00
 -1      1271 2.57340E+01 1.60864E+01 0.00000E+00
 -1      1272 2.66732E+01 1.71938E+01 0.00000E+00
 -1      1273 2.78967E+01 1.81300E+01 0.00000E+00
 -1      1274 2.92971E+01 1.87765E+01 0.00000E+00
 -1      1275 3.07592E+01 1.90959E+01 0.00000E+00
 -1      1276 3.22792E+01 1.90946E+01 0.00000E+00
 -1      1277 3.38268E+01 1.87432E+01 0.00000E+00
 -1      1278 3.52534E+01 1.80536E+01 0.00000E+00
 -1      1279 3.64961E+01 1.70530E+01 0.00000E+00
 -1      1280 3.74768E+01 1.58021E+01 0.00000E+00
 -1      1281 3.81355E+01 1.44047E+01 0.00000E+00
 -1      1282 3.84719E+01 1.28957E+01 0.00000E+00
 -1      1283 1.57500E+00 4.85250E+01 0.00000E+00
 -1      1284 1.29900E+00 4.48375E+01 0.00000E+00
 -1      1285 1.29900E+00 4.63125E+01 0.00000E+00
 -1      1286 1.29900E+00 4.18875E+01 0.00000E+00
 -1      1287 1.29900E+00 4.33625E+01 0.00000E+00
 -1      1288 2.59800E+00 4.41000E+01 0.00000E+00
 -1      1289 1.29900E+00 3.89375E+01 0.00000E+00
 -1      1290 1.29900E+00 4.04125E+01 0.00000E+00
 -1      1291 2.59800E+00 4.11500E+01 0.00000E+00
 -1      1292 1.29900E+00 3.59875E+01 0.00000E+00
 -1      1293 1.29900E+00 3.74625E+01 0.00000E+00
 -1      1294 2.59800E+00 3.82000E+01 0.00000E+00
 -1      1295 1.29900E+00 3.30875E+01 0.00000E+00
 -1      1296 1.29900E+00 3.45375E+01 0.00000E+00
 -1      1297 2.59800E+00 3.52750E+01 0.00000E+00
 -1      1298 1.29900E+00 3.01375E+01 0.00000E+00
 -1      1299 1.29900E+00 3.16125E+01 0.00000E+00
 -1      1300 2.59800E+00 3.23500E+01 0.00000E+00
 -1      1301 1.29900E+00 2.71875E+01 0.00000E+00
 -1      1302 1.29900E+00 2.86625E+01 0.00000E+00
 -1      1303 2.59800E+00 2.94000E+01 0.00000E+00
 -1      1304 1.29900E+00 2.42375E+01 0.00000E+00
 -1      1305 1.29900E+00 2.57125E+01 0.00000E+00
 -1      1306 2.59800E+00 2.64500E+01 0.00000E+00
 -1      1307 1.29900E+00 2.12875E+01 0.00000E+00
 -1      1308 1.29900E+00 2.27625E+01 0.00000E+00
 -1      1309 2.59800E+00 2.35000E+01 0.00000E+00
 -1      1310 1.29900E+00 1.83375E+01 0.00000E+00
 -1      1311 1.29900E+00 1.98125E+01 0.00000E+00
 -1      1312 2.59800E+00 2.05500E+01 0.00000E+00
 -1      1313 1.29900E+00 1.54375E+01 0.00000E+00
 -1      1314 1.29900E+00 1.68875E+01 0.00000E+00
 -1      1315 2.59800E+00 1.76250E+01 0.00000E+00
 -1      1316 1.29900E+00 1.24875E+01 0.00000E+00
 -1      1317 1.29900E+00 1.39625E+01 0.00000E+00
 -1      1318 2.59800E+00 1.47000E+01 0.00000E+00
 -1      1319 1.29900E+00 9.53750E+00 0.00000E+00
 -1      1320 1.29900E+00 1.10125E+01 0.00000E+00
 -1      1321 2.59800E+00 1.17500E+01 0.00000E+00
 -1      1322 1.29900E+00 6.58750E+00 0.00000E+00
 -1      1323 1.29900E+00 8.06250E+00 0.00000E+00
 -1      1324 2.59800E+00 8.80000E+00 0.00000E+00
 -1      1325 1.29900E+00 3.63750E+00 0.00000E+00
 -1      1326 1.29900E+00 5.11250E+00 0.00000E+00
 -1      1327 2.59800E+00 5.85000E+00 0.00000E+00
 -1      1328 1.50000E+00 1.45000E+00 0.00000E+00
 -1      1329 3.90000E+00 4.87010E+01 0.00000E+00
 -1      1330 5.40000E+00 4.87010E+01 0.00000E+00
 -1      1331 6.90000E+00 4.87010E+01 0.00000E+00
 -1      1332 8.40000E+00 4.87010E+01 0.00000E+00
 -1      1333 6.15000E+00 4.74020E+01 0.00000E+00
 -1      1334 9.90000E+00 4.87010E+01 0.00000E+00
 -1      1335 1.14000E+01 4.87010E+01 0.00000E+00
 -1      1336 9.15000E+00 4.74020E+01 0.00000E+00
 -1      1337 1.29000E+01 4.87010E+01 0.00000E+00
 -1      1338 1.44000E+01 4.87010E+01 0.00000E+00
 -1      1339 1.21500E+01 4.74020E+01 0.00000E+00
 -1      1340 1.59000E+01 4.87010E+01 0.00000E+00
 -1      1341 1.74000E+01 4.87010E+01 0.00000E+00
 -1      1342 1.51500E+01 4.74020E+01 0.00000E+00
 -1      1343 1.89000E+01 4.87010E+01 0.00000E+00
 -1      1344 2.04000E+01 4.87010E+01 0.00000E+00
 -1      1345 1.81500E+01 4.74020E+01 0.00000E+00
 -1      1346 2.19000E+01 4.87010E+01 0.00000E+00
 -1      1347 2.34000E+01 4.87010E+01 0.00000E+00
 -1      1348 2.11500E+01 4.74020E+01 0.00000E+00
 -1      1349 2.49000E+01 4.87010E+01 0.00000E+00
 -1      1350 2.64000E+01 4.87010E+01 0.00000E+00
 -1      1351 2.41500E+01 4.74020E+01 0.00000E+00
 -1      1352 2.79000E+01 4.87010E+01 0.00000E+00
 -1      1353 2.94000E+01 4.87010E+01 0.00000E+00
 -1      1354 2.71500E+01 4.74020E+01 0.00000E+00
 -1      1355 3.09000E+01 4.87010E+01 0.00000E+00
 -1      1356 3.24000E+01 4.87010E+01 0.00000E+00
 -1      1357 3.01500E+01 4.74020E+01 0.00000E+00
 -1      1358 3.39000E+01 4.87010E+01 0.00000E+00
 -1      1359 3.54000E+01 4.87010E+01 0.00000E+00
 -1      1360 3.31500E+01 4.74020E+01 0.00000E+00
 -1      1361 3.69000E+01 4.87010E+01 0.00000E+00
 -1      1362 3.84000E+01 4.87010E+01 0.00000E+00
 -1      1363 3.61500E+01 4.74020E+01 0.00000E+00
 -1      1364 3.99000E+01 4.87010E+01 0.00000E+00
 -1      1365 4.14000E+01 4.87010E+01 0.00000E+00
 -1      1366 3.91500E+01 4.74020E+01 0.00000E+00
 -1      1367 4.29000E+01 4.87010E+01 0.00000E+00
 -1      1368 4.44000E+01 4.87010E+01 0.00000E+00
 -1      1369 4.21500E+01 4.74020E+01 0.00000E+00
 -1      1370 4.59000E+01 4.87010E+01 0.00000E+00
 -1      1371 4.74000E+01 4.87010E+01 0.00000E+00
 -1      1372 4.51500E+01 4.74020E+01 0.00000E+00
 -1      1373 4.89000E+01 4.87010E+01 0.00000E+00
 -1      1374 5.04000E+01 4.87010E+01 0.00000E+00
 -1      1375 4.81500E+01 4.74020E+01 0.00000E+00
 -1      1376 5.19000E+01 4.87010E+01 0.00000E+00
 -1      1377 5.34000E+01 4.87010E+01 0.00000E+00
 -1      1378 5.11500E+01 4.74020E+01 0.00000E+00
 -1      1379 5.49000E+01 4.87010E+01 0.00000E+00
 -1      1380 5.64000E+01 4.87010E+01 0.00000E+00
 -1      1381 5.41500E+01 4.74020E+01 0.00000E+00
 -1      1382 5.79000E+01 4.87010E+01 0.00000E+00
 -1      1383 5.94000E+01 4.87010E+01 0.00000E+00
 -1      1384 5.71500E+01 4.74020E+01 0.00000E+00
 -1      1385 6.09000E+01 4.87010E+01 0.00000E+00
 -1      1386 6.24000E+01 4.87010E+01 0.00000E+00
 -1      1387 6.01500E+01 4.74020E+01 0.00000E+00
 -1      1388 6.39000E+01 4.87010E+01 0.00000E+00
 -1      1389 6.54000E+01 4.87010E+01 0.00000E+00
 -1      1390 6.31500E+01 4.74020E+01 0.00000E+00
 -1      1391 6.69000E+01 4.87010E+01 0.00000E+00
 -1      1392 6.84000E+01 4.87010E+01 0.00000E+00
 -1      1393 6.61500E+01 4.74020E+01 0.00000E+00
 -1      1394 6.99000E+01 4.87010E+01 0.00000E+00
 -1      1395 7.14000E+01 4.87010E+01 0.00000E+00
 -1      1396 6.91500E+01 4.74020E+01 0.00000E+00
 -1      1397 7.29000E+01 4.87010E+01 0.00000E+00
 -1      1398 7.44000E+01 4.87010E+01 0.00000E+00
 -1      1399 7.21500E+01 4.74020E+01 0.00000E+00
 -1      1400 7.59000E+01 4.87010E+01 0.00000E+00
 -1      1401 7.74000E+01 4.87010E+01 0.00000E+00
 -1      1402 7.51500E+01 4.74020E+01 0.00000E+00
 -1      1403 7.89000E+01 4.87010E+01 0.00000E+00
 -1      1404 8.04000E+01 4.87010E+01 0.00000E+00
 -1      1405 7.81500E+01 4.74020E+01 0.00000E+00
 -1      1406 8.19000E+01 4.87010E+01 0.00000E+00
 -1      1407 8.34000E+01 4.87010E+01 0.00000E+00
 -1      1408 8.11500E+01 4.74020E+01 0.00000E+00
 -1      1409 8.49000E+01 4.87010E+01 0.00000E+00
 -1      1410 8.64000E+01 4.87010E+01 0.00000E+00
 -1      1411 8.41500E+01 4.74020E+01 0.00000E+00
 -1      1412 8.79000E+01 4.87010E+01 0.00000E+00
 -1      1413 8.94000E+01 4.87010E+01 0.00000E+00
 -1      1414 8.71500E+01 4.74020E+01 0.00000E+00
 -1      1415 9.09000E+01 4.87010E+01 0.00000E+00
 -1      1416 9.24000E+01 4.87010E+01 0.00000E+00
 -1      1417 9.01500E+01 4.74020E+01 0.00000E+00
 -1      1418 9.39000E+01 4.87010E+01 0.00000E+00
 -1      1419 9.54000E+01 4.87010E+01 0.00000E+00
 -1      1420 9.31500E+01 4.74020E+01 0.00000E+00
 -1      1421 9.69000E+01 4.87010E+01 0.00000E+00
 -1      1422 9.84000E+01 4.87010E+01 0.00000E+00
 -1      1423 9.61500E+01 4.74020E+01 0.00000E+00
 -1      1424 9.99000E+01 4.87010E+01 0.00000E+00
 -1      1425 1.01400E+02 4.87010E+01 0.00000E+00
 -1      1426 9.91500E+01 4.74020E+01 0.00000E+00
 -1      1427 1.02900E+02 4.87010E+01 0.00000E+00
 -1      1428 1.04400E+02 4.87010E+01 0.00000E+00
 -1      1429 1.02150E+02 4.74020E+01 0.00000E+00
 -1      1430 1.05900E+02 4.87010E+01 0.00000E+00
 -1      1431 1.07400E+02 4.87010E+01 0.00000E+00
 -1      1432 1.05150E+02 4.74020E+01 0.00000E+00
 -1      1433 1.08900E+02 4.87010E+01 0.00000E+00
 -1      1434 1.10400E+02 4.87010E+01 0.00000E+00
 -1      1435 1.08150E+02 4.74020E+01 0.00000E+00
 -1      1436 1.11900E+02 4.87010E+01 0.00000E+00
 -1      1437 1.13400E+02 4.87010E+01 0.00000E+00
 -1      1438 1.11150E+02 4.74020E+01 0.00000E+00
 -1      1439 1.14900E+02 4.87010E+01 0.00000E+00
 -1      1440 1.16400E+02 4.87010E+01 0.00000E+00
 -1      1441 1.14150E+02 4.74020E+01 0.00000E+00
 -1      1442 1.17900E+02 4.87010E+01 0.00000E+00
 -1      1443 1.19400E+02 4.87010E+01 0.00000E+00
 -1      1444 1.17150E+02 4.74020E+01 0.00000E+00
 -1      1445 1.20900E+02 4.87010E+01 0.00000E+00
 -1      1446 1.22400E+02 4.87010E+01 0.00000E+00
 -1      1447 1.20150E+02 4.74020E+01 0.00000E+00
 -1      1448 1.23900E+02 4.87010E+01 0.00000E+00
 -1      1449 1.25400E+02 4.87010E+01 0.00000E+00
 -1      1450 1.23150E+02 4.74020E+01 0.00000E+00
 -1      1451 1.26900E+02 4.87010E+01 0.00000E+00
 -1      1452 1.28400E+02 4.87010E+01 0.00000E+00
 -1      1453 1.26150E+02 4.74020E+01 0.00000E+00
 -1      1454 1.29900E+02 4.87010E+01 0.00000E+00
 -1      1455 1.31400E+02 4.87010E+01 0.00000E+00
 -1      1456 1.29150E+02 4.74020E+01 0.00000E+00
 -1      1457 1.32900E+02 4.87010E+01 0.00000E+00
 -1      1458 1.34400E+02 4.87010E+01 0.00000E+00
 -1      1459 1.32150E+02 4.74020E+01 0.00000E+00
 -1      1460 1.35900E+02 4.87010E+01 0.00000E+00
 -1      1461 1.37400E+02 4.87010E+01 0.00000E+00
 -1      1462 1.35150E+02 4.74020E+01 0.00000E+00
 -1      1463 1.38900E+02 4.87010E+01 0.00000E+00
 -1      1464 1.40400E+02 4.87010E+01 0.00000E+00
 -1      1465 1.38150E+02 4.74020E+01 0.00000E+00
 -1      1466 1.41900E+02 4.87010E+01 0.00000E+00
 -1      1467 1.43400E+02 4.87010E+01 0.00000E+00
 -1      1468 1.41150E+02 4.74020E+01 0.00000E+00
 -1      1469 1.44900E+02 4.87010E+01 0.00000E+00
 -1      1470 1.46400E+02 4.87010E+01 0.00000E+00
 -1      1471 1.44150E+02 4.74020E+01 0.00000E+00
 -1      1472 1.48575E+02 4.85500E+01 0.00000E+00
 -1      1473 1.47825E+02 4.72510E+01 0.00000E+00
 -1      1474 5.25000E+00 1.29900E+00 0.00000E+00
 -1      1475 3.75000E+00 1.29900E+00 0.00000E+00
 -1      1476 8.25000E+00 1.29900E+00 0.00000E+00
 -1      1477 6.75000E+00 1.29900E+00 0.00000E+00
 -1      1478 6.00000E+00 2.59800E+00 0.00000E+00
 -1      1479 1.12500E+01 1.29900E+00 0.00000E+00
 -1      1480 9.75000E+00 1.29900E+00 0.00000E+00
 -1      1481 9.00000E+00 2.59800E+00 0.00000E+00
 -1      1482 1.42500E+01 1.29900E+00 0.00000E+00
 -1      1483 1.27500E+01 1.29900E+00 0.00000E+00
 -1      1484 1.20000E+01 2.59800E+00 0.00000E+00
 -1      1485 1.72500E+01 1.29900E+00 0.00000E+00
 -1      1486 1.57500E+01 1.29900E+00 0.00000E+00
 -1      1487 1.50000E+01 2.59800E+00 0.00000E+00
 -1      1488 2.01000E+01 1.29900E+00 0.00000E+00
 -1      1489 1.86750E+01 1.29900E+00 0.00000E+00
 -1      1490 1.79250E+01 2.59800E+00 0.00000E+00
 -1      1491 2.26500E+01 1.29900E+00 0.00000E+00
 -1      1492 2.13750E+01 1.29900E+00 0.00000E+00
 -1      1493 2.06250E+01 2.59800E+00 0.00000E+00
 -1      1494 2.50500E+01 1.29900E+00 0.00000E+00
 -1      1495 2.38500E+01 1.29900E+00 0.00000E+00
 -1      1496 2.31000E+01 2.59800E+00 0.00000E+00
 -1      1497 2.94750E+01 8.15663E-01 0.00000E+00
 -1      1498 2.84250E+01 8.15663E-01 0.00000E+00
 -1      1499 3.14250E+01 8.15663E-01 0.00000E+00
 -1      1500 3.04500E+01 8.15663E-01 0.00000E+00
 -1      1501 2.99250E+01 1.63133E+00 0.00000E+00
 -1      1502 3.38250E+01 8.15663E-01 0.00000E+00
 -1      1503 3.26250E+01 8.15663E-01 0.00000E+00
 -1      1504 3.21000E+01 1.63133E+00 0.00000E+00
 -1      1505 3.63750E+01 8.15663E-01 0.00000E+00
 -1      1506 3.51000E+01 8.15663E-01 0.00000E+00
 -1      1507 3.45750E+01 1.63133E+00 0.00000E+00
 -1      1508 3.92250E+01 8.15663E-01 0.00000E+00
 -1      1509 3.78000E+01 8.15663E-01 0.00000E+00
 -1      1510 3.72750E+01 1.63133E+00 0.00000E+00
 -1      1511 4.22250E+01 8.15663E-01 0.00000E+00
 -1      1512 4.07250E+01 8.15663E-01 0.00000E+00
 -1      1513 4.02000E+01 1.63133E+00 0.00000E+00
 -1      1514 4.52250E+01 8.15663E-01 0.00000E+00
 -1      1515 4.37250E+01 8.15663E-01 0.00000E+00
 -1      1516 4.32000E+01 1.63133E+00 0.00000E+00
 -1      1517 4.82250E+01 8.15663E-01 0.00000E+00
 -1      1518 4.67250E+01 8.15663E-01 0.00000E+00
 -1      1519 4.62000E+01 1.63133E+00 0.00000E+00
 -1      1520 5.12250E+01 8.15663E-01 0.00000E+00
 -1      1521 4.97250E+01 8.15663E-01 0.00000E+00
 -1      1522 4.92000E+01 1.63133E+00 0.00000E+00
 -1      1523 5.40750E+01 8.15663E-01 0.00000E+00
 -1      1524 5.26500E+01 8.15663E-01 0.00000E+00
 -1      1525 5.21250E+01 1.63133E+00 0.00000E+00
 -1      1526 5.70750E+01 8.15663E-01 0.00000E+00
 -1      1527 5.55750E+01 8.15663E-01 0.00000E+00
 -1      1528 5.50500E+01 1.63133E+00 0.00000E+00
 -1      1529 6.00750E+01 8.15663E-01 0.00000E+00
 -1      1530 5.85750E+01 8.15663E-01 0.00000E+00
 -1      1531 5.80500E+01 1.63133E+00 0.00000E+00
 -1      1532 6.30750E+01 8.15663E-01 0.00000E+00
 -1      1533 6.15750E+01 8.15663E-01 0.00000E+00
 -1      1534 6.10500E+01 1.63133E+00 0.00000E+00
 -1      1535 6.60750E+01 8.15663E-01 0.00000E+00
 -1      1536 6.45750E+01 8.15663E-01 0.00000E+00
 -1      1537 6.40500E+01 1.63133E+00 0.00000E+00
 -1      1538 6.90750E+01 8.15663E-01 0.00000E+00
 -1      1539 6.75750E+01 8.15663E-01 0.00000E+00
 -1      1540 6.70500E+01 1.63133E+00 0.00000E+00
 -1      1541 7.20750E+01 8.15663E-01 0.00000E+00
 -1      1542 7.05750E+01 8.15663E-01 0.00000E+00
 -1      1543 7.00500E+01 1.63133E+00 0.00000E+00
 -1      1544 7.50750E+01 8.15663E-01 0.00000E+00
 -1      1545 7.35750E+01 8.15663E-01 0.00000E+00
 -1      1546 7.30500E+01 1.63133E+00 0.00000E+00
 -1      1547 7.79250E+01 8.15663E-01 0.00000E+00
 -1      1548 7.65000E+01 8.15663E-01 0.00000E+00
 -1      1549 7.59750E+01 1.63133E+00 0.00000E+00
 -1      1550 8.09250E+01 8.15663E-01 0.00000E+00
 -1      1551 7.94250E+01 8.15663E-01 0.00000E+00
 -1      1552 7.89000E+01 1.63133E+00 0.00000E+00
 -1      1553 8.39250E+01 8.15663E-01 0.00000E+00
 -1      1554 8.24250E+01 8.15663E-01 0.00000E+00
 -1      1555 8.19000E+01 1.63133E+00 0.00000E+00
 -1      1556 8.69250E+01 8.15663E-01 0.00000E+00
 -1      1557 8.54250E+01 8.15663E-01 0.00000E+00
 -1      1558 8.49000E+01 1.63133E+00 0.00000E+00
 -1      1559 8.99250E+01 8.15663E-01 0.00000E+00
 -1      1560 8.84250E+01 8.15663E-01 0.00000E+00
 -1      1561 8.79000E+01 1.63133E+00 0.00000E+00
 -1      1562 9.29250E+01 8.15663E-01 0.00000E+00
 -1      1563 9.14250E+01 8.15663E-01 0.00000E+00
 -1      1564 9.09000E+01 1.63133E+00 0.00000E+00
 -1      1565 9.59250E+01 8.15663E-01 0.00000E+00
 -1      1566 9.44250E+01 8.15663E-01 0.00000E+00
 -1      1567 9.39000E+01 1.63133E+00 0.00000E+00
 -1      1568 9.89250E+01 8.15663E-01 0.00000E+00
 -1      1569 9.74250E+01 8.15663E-01 0.00000E+00
 -1      1570 9.69000E+01 1.63133E+00 0.00000E+00
 -1      1571 1.01775E+02 8.15663E-01 0.00000E+00
 -1      1572 1.00350E+02 8.15663E-01 0.00000E+00
 -1      1573 9.98250E+01 1.63133E+00 0.00000E+00
 -1      1574 1.04775E+02 8.15663E-01 0.00000E+00
 -1      1575 1.03275E+02 8.15663E-01 0.00000E+00
 -1      1576 1.02750E+02 1.63133E+00 0.00000E+00
 -1      1577 1.07775E+02 8.15663E-01 0.00000E+00
 -1      1578 1.06275E+02 8.15663E-01 0.00000E+00
 -1      1579 1.05750E+02 1.63133E+00 0.00000E+00
 -1      1580 1.10775E+02 8.15663E-01 0.00000E+00
 -1      1581 1.09275E+02 8.15663E-01 0.00000E+00
 -1      1582 1.08750E+02 1.63133E+00 0.00000E+00
 -1      1583 1.13775E+02 8.15663E-01 0.00000E+00
 -1      1584 1.12275E+02 8.15663E-01 0.00000E+00
 -1      1585 1.11750E+02 1.63133E+00 0.00000E+00
 -1      1586 1.16775E+02 8.15663E-01 0.00000E+00
 -1      1587 1.15275E+02 8.15663E-01 0.00000E+00
 -1      1588 1.14750E+02 1.63133E+00 0.00000E+00
 -1      1589 1.19775E+02 8.15663E-01 0.00000E+00
 -1      1590 1.18275E+02 8.15663E-01 0.00000E+00
 -1      1591 1.17750E+02 1.63133E+00 0.00000E+00
 -1      1592 1.22775E+02 8.15663E-01 0.00000E+00
 -1      1593 1.21275E+02 8.15663E-01 0.00000E+00
 -1      1594 1.20750E+02 1.63133E+00 0.00000E+00
 -1      1595 1.25625E+02 8.15663E-01 0.00000E+00
 -1      1596 1.24200E+02 8.15663E-01 0.00000E+00
 -1      1597 1.23675E+02 1.63133E+00 0.00000E+00
 -1      1598 1.28625E+02 8.15663E-01 0.00000E+00
 -1      1599 1.27125E+02 8.15663E-01 0.00000E+00
 -1      1600 1.26600E+02 1.63133E+00 0.00000E+00
 -1      1601 1.31625E+02 8.15663E-01 0.00000E+00
 -1      1602 1.30125E+02 8.15663E-01 0.00000E+00
 -1      1603 1.29600E+02 1.63133E+00 0.00000E+00
 -1      1604 1.34625E+02 8.15663E-01 0.00000E+00
 -1      1605 1.33125E+02 8.15663E-01 0.00000E+00
 -1      1606 1.32600E+02 1.63133E+00 0.00000E+00
 -1      1607 1.37625E+02 8.15663E-01 0.00000E+00
 -1      1608 1.36125E+02 8.15663E-01 0.00000E+00
 -1      1609 1.35600E+02 1.63133E+00 0.00000E+00
 -1      1610 1.40625E+02 8.15663E-01 0.00000E+00
 -1      1611 1.39125E+02 8.15663E-01 0.00000E+00
 -1      1612 1.38600E+02 1.63133E+00 0.00000E+00
 -1      1613 1.43625E+02 8.15663E-01 0.00000E+00
 -1      1614 1.42125E+02 8.15663E-01 0.00000E+00
 -1      1615 1.41600E+02 1.63133E+00 0.00000E+00
 -1      1616 1.46625E+02 8.15663E-01 0.00000E+00
 -1      1617 1.45125E+02 8.15663E-01 0.00000E+00
 -1      1618 1.44600E+02 1.63133E+00 0.00000E+00
 -1      1619 1.49025E+02 1.14533E+00 0.00000E+00
 -1      1620 1.47600E+02 1.14533E+00 0.00000E+00
 -1      1621 1.47075E+02 1.96099E+00 0.00000E+00
 -1      1622 1.49025E+02 2.62033E+00 0.00000E+00
 -1      1623 1.49025E+02 5.57033E+00 0.00000E+00
 -1      1624 1.49025E+02 4.09533E+00 0.00000E+00
 -1      1625 1.48050E+02 3.76566E+00 0.00000E+00
 -1      1626 1.49025E+02 8.52033E+00 0.00000E+00
 -1      1627 1.49025E+02 7.04533E+00 0.00000E+00
 -1      1628 1.48050E+02 6.71566E+00 0.00000E+00
 -1      1629 1.49025E+02 1.14703E+01 0.00000E+00
 -1      1630 1.49025E+02 9.99533E+00 0.00000E+00
 -1      1631 1.48050E+02 9.66566E+00 0.00000E+00
 -1      1632 1.49025E+02 1.44203E+01 0.00000E+00
 -1      1633 1.49025E+02 1.29453E+01 0.00000E+00
 -1      1634 1.48050E+02 1.26157E+01 0.00000E+00
 -1      1635 1.49025E+02 1.73203E+01 0.00000E+00
 -1      1636 1.49025E+02 1.58703E+01 0.00000E+00
 -1      1637 1.48050E+02 1.55407E+01 0.00000E+00
 -1      1638 1.49025E+02 2.02703E+01 0.00000E+00
 -1      1639 1.49025E+02 1.87953E+01 0.00000E+00
 -1      1640 1.48050E+02 1.84657E+01 0.00000E+00
 -1      1641 1.49025E+02 2.32203E+01 0.00000E+00
 -1      1642 1.49025E+02 2.17453E+01 0.00000E+00
 -1      1643 1.48050E+02 2.14157E+01 0.00000E+00
 -1      1644 1.49025E+02 2.61703E+01 0.00000E+00
 -1      1645 1.49025E+02 2.46953E+01 0.00000E+00
 -1      1646 1.48050E+02 2.43657E+01 0.00000E+00
 -1      1647 1.49025E+02 2.91203E+01 0.00000E+00
 -1      1648 1.49025E+02 2.76453E+01 0.00000E+00
 -1      1649 1.48050E+02 2.73157E+01 0.00000E+00
 -1      1650 1.49025E+02 3.20703E+01 0.00000E+00
 -1      1651 1.49025E+02 3.05953E+01 0.00000E+00
 -1      1652 1.48050E+02 3.02657E+01 0.00000E+00
 -1      1653 1.49025E+02 3.49703E+01 0.00000E+00
 -1      1654 1.49025E+02 3.35203E+01 0.00000E+00
 -1      1655 1.48050E+02 3.31907E+01 0.00000E+00
 -1      1656 1.49025E+02 3.79203E+01 0.00000E+00
 -1      1657 1.49025E+02 3.64453E+01 0.00000E+00
 -1      1658 1.48050E+02 3.61157E+01 0.00000E+00
 -1      1659 1.49025E+02 4.08703E+01 0.00000E+00
 -1      1660 1.49025E+02 3.93953E+01 0.00000E+00
 -1      1661 1.48050E+02 3.90657E+01 0.00000E+00
 -1      1662 1.49025E+02 4.38203E+01 0.00000E+00
 -1      1663 1.49025E+02 4.23453E+01 0.00000E+00
 -1      1664 1.48050E+02 4.20157E+01 0.00000E+00
 -1      1665 3.90725E+01 1.09151E+01 0.00000E+00
 -1      1666 3.91568E+01 1.16789E+01 0.00000E+00
 -1      1667 3.86607E+01 9.27571E+00 0.00000E+00
 -1      1668 3.89114E+01 1.00062E+01 0.00000E+00
 -1      1669 3.78215E+01 7.93553E+00 0.00000E+00
 -1      1670 3.81823E+01 8.53563E+00 0.00000E+00
 -1      1671 3.68676E+01 6.77169E+00 0.00000E+00
 -1      1672 3.73352E+01 7.28309E+00 0.00000E+00
 -1      1673 3.56352E+01 5.58904E+00 0.00000E+00
 -1      1674 3.63001E+01 6.05821E+00 0.00000E+00
 -1      1675 3.40875E+01 4.83587E+00 0.00000E+00
 -1      1676 3.47956E+01 5.12566E+00 0.00000E+00
 -1      1677 3.25354E+01 4.62565E+00 0.00000E+00
 -1      1678 3.32113E+01 4.74906E+00 0.00000E+00
 -1      1679 3.09365E+01 4.54201E+00 0.00000E+00
 -1      1680 3.16933E+01 4.52228E+00 0.00000E+00
 -1      1681 2.92413E+01 4.78256E+00 0.00000E+00
 -1      1682 3.00107E+01 4.58770E+00 0.00000E+00
 -1      1683 2.77448E+01 5.51671E+00 0.00000E+00
 -1      1684 2.84107E+01 5.17971E+00 0.00000E+00
 -1      1685 2.62393E+01 6.47904E+00 0.00000E+00
 -1      1686 2.68854E+01 5.93941E+00 0.00000E+00
 -1      1687 2.52282E+01 7.83135E+00 0.00000E+00
 -1      1688 2.56734E+01 7.24448E+00 0.00000E+00
 -1      1689 2.43716E+01 9.26074E+00 0.00000E+00
 -1      1690 2.46956E+01 8.55983E+00 0.00000E+00
 -1      1691 2.40504E+01 1.08150E+01 0.00000E+00
 -1      1692 2.42052E+01 1.01283E+01 0.00000E+00
 -1      1693 2.38594E+01 1.24105E+01 0.00000E+00
 -1      1694 2.38694E+01 1.16584E+01 0.00000E+00
 -1      1695 2.41468E+01 1.39241E+01 0.00000E+00
 -1      1696 2.40151E+01 1.32493E+01 0.00000E+00
 -1      1697 2.46256E+01 1.53946E+01 0.00000E+00
 -1      1698 2.43480E+01 1.47278E+01 0.00000E+00
 -1      1699 2.54640E+01 1.67016E+01 0.00000E+00
 -1      1700 2.50628E+01 1.61145E+01 0.00000E+00
 -1      1701 2.65490E+01 1.78595E+01 0.00000E+00
 -1      1702 2.60136E+01 1.73471E+01 0.00000E+00
 -1      1703 2.79062E+01 1.88881E+01 0.00000E+00
 -1      1704 2.72216E+01 1.84750E+01 0.00000E+00
 -1      1705 2.94700E+01 1.94317E+01 0.00000E+00
 -1      1706 2.87654E+01 1.91965E+01 0.00000E+00
 -1      1707 3.10640E+01 1.97820E+01 0.00000E+00
 -1      1708 3.03146E+01 1.97008E+01 0.00000E+00
 -1      1709 3.27217E+01 1.96134E+01 0.00000E+00
 -1      1710 3.19601E+01 1.96972E+01 0.00000E+00
 -1      1711 3.44123E+01 1.91737E+01 0.00000E+00
 -1      1712 3.36377E+01 1.94450E+01 0.00000E+00
 -1      1713 3.58778E+01 1.83266E+01 0.00000E+00
 -1      1714 3.52322E+01 1.87347E+01 0.00000E+00
 -1      1715 3.72440E+01 1.72068E+01 0.00000E+00
 -1      1716 3.66599E+01 1.77987E+01 0.00000E+00
 -1      1717 3.81566E+01 1.57751E+01 0.00000E+00
 -1      1718 3.77597E+01 1.64208E+01 0.00000E+00
 -1      1719 3.87945E+01 1.42145E+01 0.00000E+00
 -1      1720 3.85396E+01 1.49590E+01 0.00000E+00
 -1      1721 3.90746E+01 1.25797E+01 0.00000E+00
 -1      1722 3.89923E+01 1.33343E+01 0.00000E+00
 -1      1723 2.79900E+00 2.18750E+00 0.00000E+00
 -1      1724 2.61677E+01 1.07829E+00 0.00000E+00
 -1      1725 2.54177E+01 2.37729E+00 0.00000E+00
 -1      1726 2.72177E+01 1.07829E+00 0.00000E+00
 -1      1727 3.89999E+01 8.66331E+00 0.00000E+00
 -1      1728 3.97183E+01 1.21220E+01 0.00000E+00
 -1      1729 3.96394E+01 1.03123E+01 0.00000E+00
 -1      1730 1.48701E+02 4.63625E+01 0.00000E+00
 -1      1731 1.48701E+02 4.48875E+01 0.00000E+00
 -1      1732 1.47726E+02 4.45578E+01 0.00000E+00
 -1      1733 3.80351E+01 7.27079E+00 0.00000E+00
 -1      1734 3.69813E+01 5.90487E+00 0.00000E+00
 -1      1735 3.55742E+01 4.72801E+00 0.00000E+00
 -1      1736 3.38584E+01 4.17782E+00 0.00000E+00
 -1      1737 3.21401E+01 3.98764E+00 0.00000E+00
 -1      1738 3.03722E+01 3.92996E+00 0.00000E+00
 -1      1739 2.86157E+01 4.37280E+00 0.00000E+00
 -1      1740 2.69257E+01 5.19265E+00 0.00000E+00
 -1      1741 2.55004E+01 6.38080E+00 0.00000E+00
 -1      1742 2.44019E+01 7.87472E+00 0.00000E+00
 -1      1743 2.37029E+01 9.47075E+00 0.00000E+00
 -1      1744 2.33555E+01 1.11818E+01 0.00000E+00
 -1      1745 2.33302E+01 1.28640E+01 0.00000E+00
 -1      1746 2.36872E+01 1.45065E+01 0.00000E+00
 -1      1747 2.43257E+01 1.60302E+01 0.00000E+00
 -1      1748 2.53126E+01 1.73957E+01 0.00000E+00
 -1      1749 2.65348E+01 1.86568E+01 0.00000E+00
 -1      1750 2.80666E+01 1.95807E+01 0.00000E+00
 -1      1751 2.97704E+01 2.01582E+01 0.00000E+00
 -1      1752 3.15111E+01 2.03426E+01 0.00000E+00
 -1      1753 3.33232E+01 2.00894E+01 0.00000E+00
 -1      1754 3.50590E+01 1.94820E+01 0.00000E+00
 -1      1755 3.66610E+01 1.85152E+01 0.00000E+00
 -1      1756 3.79589E+01 1.72014E+01 0.00000E+00
 -1      1757 3.88576E+01 1.55993E+01 0.00000E+00
 -1      1758 3.94383E+01 1.39030E+01 0.00000E+00
 -1      1759 2.87400E+00 4.77875E+01 0.00000E+00
 -1      1760 2.77427E+01 1.89395E+00 0.00000E+00
 -1      1761 3.89700E+00 4.04125E+01 0.00000E+00
 -1      1762 3.89700E+00 4.18875E+01 0.00000E+00
 -1      1763 3.89700E+00 4.33625E+01 0.00000E+00
 -1      1764 3.89700E+00 4.48375E+01 0.00000E+00
 -1      1765 5.19600E+00 4.26250E+01 0.00000E+00
 -1      1766 3.89700E+00 3.45500E+01 0.00000E+00
 -1      1767 3.89700E+00 3.60000E+01 0.00000E+00
 -1      1768 3.89700E+00 3.16000E+01 0.00000E+00
 -1      1769 3.89700E+00 3.30750E+01 0.00000E+00
 -1      1770 5.19600E+00 3.38000E+01 0.00000E+00
 -1      1771 3.89700E+00 2.86500E+01 0.00000E+00
 -1      1772 3.89700E+00 3.01250E+01 0.00000E+00
 -1      1773 5.19600E+00 3.08500E+01 0.00000E+00
 -1      1774 3.89700E+00 2.57000E+01 0.00000E+00
 -1      1775 3.89700E+00 2.71750E+01 0.00000E+00
 -1      1776 5.19600E+00 2.79000E+01 0.00000E+00
 -1      1777 3.89700E+00 2.27500E+01 0.00000E+00
 -1      1778 3.89700E+00 2.42250E+01 0.00000E+00
 -1      1779 5.19600E+00 2.49500E+01 0.00000E+00
 -1      1780 3.89700E+00 1.98000E+01 0.00000E+00
 -1      1781 3.89700E+00 2.12750E+01 0.00000E+00
 -1      1782 5.19600E+00 2.20000E+01 0.00000E+00
 -1      1783 3.89700E+00 1.69000E+01 0.00000E+00
 -1      1784 3.89700E+00 1.83500E+01 0.00000E+00
 -1      1785 5.19600E+00 1.90750E+01 0.00000E+00
 -1      1786 3.89700E+00 1.39500E+01 0.00000E+00
 -1      1787 3.89700E+00 1.54250E+01 0.00000E+00
 -1      1788 5.19600E+00 1.61500E+01 0.00000E+00
 -1      1789 3.89700E+00 1.10000E+01 0.00000E+00
 -1      1790 3.89700E+00 1.24750E+01 0.00000E+00
 -1      1791 5.19600E+00 1.32000E+01 0.00000E+00
 -1      1792 3.89700E+00 8.05000E+00 0.00000E+00
 -1      1793 3.89700E+00 9.52500E+00 0.00000E+00
 -1      1794 5.19600E+00 1.02500E+01 0.00000E+00
 -1      1795 3.89700E+00 5.10000E+00 0.00000E+00
 -1      1796 3.89700E+00 6.57500E+00 0.00000E+00
 -1      1797 5.19600E+00 7.30000E+00 0.00000E+00
 -1      1798 3.93401E+01 7.91868E+00 0.00000E+00
 -1      1799 3.98185E+01 8.65876E+00 0.00000E+00
 -1      1800 2.61426E+01 3.10824E+00 0.00000E+00
 -1      1801 2.50250E+01 3.32895E+00 0.00000E+00
 -1      1802 3.62400E+00 4.64885E+01 0.00000E+00
 -1      1803 3.54900E+00 3.48650E+00 0.00000E+00
 -1      1804 8.40000E+00 4.61030E+01 0.00000E+00
 -1      1805 9.90000E+00 4.61030E+01 0.00000E+00
 -1      1806 1.14000E+01 4.61030E+01 0.00000E+00
 -1      1807 1.29000E+01 4.61030E+01 0.00000E+00
 -1      1808 1.06500E+01 4.48040E+01 0.00000E+00
 -1      1809 1.44000E+01 4.61030E+01 0.00000E+00
 -1      1810 1.59000E+01 4.61030E+01 0.00000E+00
 -1      1811 1.36500E+01 4.48040E+01 0.00000E+00
 -1      1812 1.74000E+01 4.61030E+01 0.00000E+00
 -1      1813 1.89000E+01 4.61030E+01 0.00000E+00
 -1      1814 1.66500E+01 4.48040E+01 0.00000E+00
 -1      1815 2.04000E+01 4.61030E+01 0.00000E+00
 -1      1816 2.19000E+01 4.61030E+01 0.00000E+00
 -1      1817 1.96500E+01 4.48040E+01 0.00000E+00
 -1      1818 2.34000E+01 4.61030E+01 0.00000E+00
 -1      1819 2.49000E+01 4.61030E+01 0.00000E+00
 -1      1820 2.26500E+01 4.48040E+01 0.00000E+00
 -1      1821 2.64000E+01 4.61030E+01 0.00000E+00
 -1      1822 2.79000E+01 4.61030E+01 0.00000E+00
 -1      1823 2.56500E+01 4.48040E+01 0.00000E+00
 -1      1824 2.94000E+01 4.61030E+01 0.00000E+00
 -1      1825 3.09000E+01 4.61030E+01 0.00000E+00
 -1      1826 2.86500E+01 4.48040E+01 0.00000E+00
 -1      1827 3.24000E+01 4.61030E+01 0.00000E+00
 -1      1828 3.39000E+01 4.61030E+01 0.00000E+00
 -1      1829 3.16500E+01 4.48040E+01 0.00000E+00
 -1      1830 3.54000E+01 4.61030E+01 0.00000E+00
 -1      1831 3.69000E+01 4.61030E+01 0.00000E+00
 -1      1832 3.46500E+01 4.48040E+01 0.00000E+00
 -1      1833 3.84000E+01 4.61030E+01 0.00000E+00
 -1      1834 3.99000E+01 4.61030E+01 0.00000E+00
 -1      1835 3.76500E+01 4.48040E+01 0.00000E+00
 -1      1836 4.14000E+01 4.61030E+01 0.00000E+00
 -1      1837 4.29000E+01 4.61030E+01 0.00000E+00
 -1      1838 4.06500E+01 4.48040E+01 0.00000E+00
 -1      1839 4.44000E+01 4.61030E+01 0.00000E+00
 -1      1840 4.59000E+01 4.61030E+01 0.00000E+00
 -1      1841 4.36500E+01 4.48040E+01 0.00000E+00
 -1      1842 4.74000E+01 4.61030E+01 0.00000E+00
 -1      1843 4.89000E+01 4.61030E+01 0.00000E+00
 -1      1844 4.66500E+01 4.48040E+01 0.00000E+00
 -1      1845 5.04000E+01 4.61030E+01 0.00000E+00
 -1      1846 5.19000E+01 4.61030E+01 0.00000E+00
 -1      1847 4.96500E+01 4.48040E+01 0.00000E+00
 -1      1848 5.34000E+01 4.61030E+01 0.00000E+00
 -1      1849 5.49000E+01 4.61030E+01 0.00000E+00
 -1      1850 5.26500E+01 4.48040E+01 0.00000E+00
 -1      1851 5.64000E+01 4.61030E+01 0.00000E+00
 -1      1852 5.79000E+01 4.61030E+01 0.00000E+00
 -1      1853 5.56500E+01 4.48040E+01 0.00000E+00
 -1      1854 5.94000E+01 4.61030E+01 0.00000E+00
 -1      1855 6.09000E+01 4.61030E+01 0.00000E+00
 -1      1856 5.86500E+01 4.48040E+01 0.00000E+00
 -1      1857 6.24000E+01 4.61030E+01 0.00000E+00
 -1      1858 6.39000E+01 4.61030E+01 0.00000E+00
 -1      1859 6.16500E+01 4.48040E+01 0.00000E+00
 -1      1860 6.54000E+01 4.61030E+01 0.00000E+00
 -1      1861 6.69000E+01 4.61030E+01 0.00000E+00
 -1      1862 6.46500E+01 4.48040E+01 0.00000E+00
 -1      1863 6.84000E+01 4.61030E+01 0.00000E+00
 -1      1864 6.99000E+01 4.61030E+01 0.00000E+00
 -1      1865 6.76500E+01 4.48040E+01 0.00000E+00
 -1      1866 7.14000E+01 4.61030E+01 0.00000E+00
 -1      1867 7.29000E+01 4.61030E+01 0.00000E+00
 -1      1868 7.06500E+01 4.48040E+01 0.00000E+00
 -1      1869 7.44000E+01 4.61030E+01 0.00000E+00
 -1      1870 7.59000E+01 4.61030E+01 0.00000E+00
 -1      1871 7.36500E+01 4.48040E+01 0.00000E+00
 -1      1872 7.74000E+01 4.61030E+01 0.00000E+00
 -1      1873 7.89000E+01 4.61030E+01 0.00000E+00
 -1      1874 7.66500E+01 4.48040E+01 0.00000E+00
 -1      1875 8.04000E+01 4.61030E+01 0.00000E+00
 -1      1876 8.19000E+01 4.61030E+01 0.00000E+00
 -1      1877 7.96500E+01 4.48040E+01 0.00000E+00
 -1      1878 8.34000E+01 4.61030E+01 0.00000E+00
 -1      1879 8.49000E+01 4.61030E+01 0.00000E+00
 -1      1880 8.26500E+01 4.48040E+01 0.00000E+00
 -1      1881 8.64000E+01 4.61030E+01 0.00000E+00
 -1      1882 8.79000E+01 4.61030E+01 0.00000E+00
 -1      1883 8.56500E+01 4.48040E+01 0.00000E+00
 -1      1884 8.94000E+01 4.61030E+01 0.00000E+00
 -1      1885 9.09000E+01 4.61030E+01 0.00000E+00
 -1      1886 8.86500E+01 4.48040E+01 0.00000E+00
 -1      1887 9.24000E+01 4.61030E+01 0.00000E+00
 -1      1888 9.39000E+01 4.61030E+01 0.00000E+00
 -1      1889 9.16500E+01 4.48040E+01 0.00000E+00
 -1      1890 9.54000E+01 4.61030E+01 0.00000E+00
 -1      1891 9.69000E+01 4.61030E+01 0.00000E+00
 -1      1892 9.46500E+01 4.48040E+01 0.00000E+00
 -1      1893 9.84000E+01 4.61030E+01 0.00000E+00
 -1      1894 9.99000E+01 4.61030E+01 0.00000E+00
 -1      1895 9.76500E+01 4.48040E+01 0.00000E+00
 -1      1896 1.01400E+02 4.61030E+01 0.00000E+00
 -1      1897 1.02900E+02 4.61030E+01 0.00000E+00
 -1      1898 1.00650E+02 4.48040E+01 0.00000E+00
 -1      1899 1.04400E+02 4.61030E+01 0.00000E+00
 -1      1900 1.05900E+02 4.61030E+01 0.00000E+00
 -1      1901 1.03650E+02 4.48040E+01 0.00000E+00
 -1      1902 1.07400E+02 4.61030E+01 0.00000E+00
 -1      1903 1.08900E+02 4.61030E+01 0.00000E+00
 -1      1904 1.06650E+02 4.48040E+01 0.00000E+00
 -1      1905 1.10400E+02 4.61030E+01 0.00000E+00
 -1      1906 1.11900E+02 4.61030E+01 0.00000E+00
 -1      1907 1.09650E+02 4.48040E+01 0.00000E+00
 -1      1908 1.13400E+02 4.61030E+01 0.00000E+00
 -1      1909 1.14900E+02 4.61030E+01 0.00000E+00
 -1      1910 1.12650E+02 4.48040E+01 0.00000E+00
 -1      1911 1.16400E+02 4.61030E+01 0.00000E+00
 -1      1912 1.17900E+02 4.61030E+01 0.00000E+00
 -1      1913 1.15650E+02 4.48040E+01 0.00000E+00
 -1      1914 1.19400E+02 4.61030E+01 0.00000E+00
 -1      1915 1.20900E+02 4.61030E+01 0.00000E+00
 -1      1916 1.18650E+02 4.48040E+01 0.00000E+00
 -1      1917 1.22400E+02 4.61030E+01 0.00000E+00
 -1      1918 1.23900E+02 4.61030E+01 0.00000E+00
 -1      1919 1.21650E+02 4.48040E+01 0.00000E+00
 -1      1920 1.25400E+02 4.61030E+01 0.00000E+00
 -1      1921 1.26900E+02 4.61030E+01 0.00000E+00
 -1      1922 1.24650E+02 4.48040E+01 0.00000E+00
 -1      1923 1.28400E+02 4.61030E+01 0.00000E+00
 -1      1924 1.29900E+02 4.61030E+01 0.00000E+00
 -1      1925 1.27650E+02 4.48040E+01 0.00000E+00
 -1      1926 1.31400E+02 4.61030E+01 0.00000E+00
 -1      1927 1.32900E+02 4.61030E+01 0.00000E+00
 -1      1928 1.30650E+02 4.48040E+01 0.00000E+00
 -1      1929 1.34400E+02 4.61030E+01 0.00000E+00
 -1      1930 1.35900E+02 4.61030E+01 0.00000E+00
 -1      1931 1.33650E+02 4.48040E+01 0.00000E+00
 -1      1932 1.37400E+02 4.61030E+01 0.00000E+00
 -1      1933 1.38900E+02 4.61030E+01 0.00000E+00
 -1      1934 1.36650E+02 4.48040E+01 0.00000E+00
 -1      1935 1.40400E+02 4.61030E+01 0.00000E+00
 -1      1936 1.41900E+02 4.61030E+01 0.00000E+00
 -1      1937 1.39650E+02 4.48040E+01 0.00000E+00
 -1      1938 1.43400E+02 4.61030E+01 0.00000E+00
 -1      1939 1.44900E+02 4.61030E+01 0.00000E+00
 -1      1940 1.42650E+02 4.48040E+01 0.00000E+00
 -1      1941 3.52923E+01 2.94798E+00 0.00000E+00
 -1      1942 3.40173E+01 2.94798E+00 0.00000E+00
 -1      1943 1.27500E+01 3.89700E+00 0.00000E+00
 -1      1944 1.12500E+01 3.89700E+00 0.00000E+00
 -1      1945 9.75000E+00 3.89700E+00 0.00000E+00
 -1      1946 8.25000E+00 3.89700E+00 0.00000E+00
 -1      1947 1.05000E+01 5.19600E+00 0.00000E+00
 -1      1948 1.57500E+01 3.89700E+00 0.00000E+00
 -1      1949 1.42500E+01 3.89700E+00 0.00000E+00
 -1      1950 1.35000E+01 5.19600E+00 0.00000E+00
 -1      1951 1.86000E+01 3.89700E+00 0.00000E+00
 -1      1952 1.71750E+01 3.89700E+00 0.00000E+00
 -1      1953 1.64250E+01 5.19600E+00 0.00000E+00
 -1      1954 2.11500E+01 3.89700E+00 0.00000E+00
 -1      1955 1.98750E+01 3.89700E+00 0.00000E+00
 -1      1956 1.91250E+01 5.19600E+00 0.00000E+00
 -1      1957 3.01731E+01 2.80349E+00 0.00000E+00
 -1      1958 2.91981E+01 2.80349E+00 0.00000E+00
 -1      1959 4.09500E+01 2.74024E+00 0.00000E+00
 -1      1960 3.94500E+01 2.74024E+00 0.00000E+00
 -1      1961 4.39500E+01 2.74024E+00 0.00000E+00
 -1      1962 4.24500E+01 2.74024E+00 0.00000E+00
 -1      1963 4.17000E+01 3.84915E+00 0.00000E+00
 -1      1964 4.69500E+01 2.74024E+00 0.00000E+00
 -1      1965 4.54500E+01 2.74024E+00 0.00000E+00
 -1      1966 4.47000E+01 3.84915E+00 0.00000E+00
 -1      1967 4.99500E+01 2.74024E+00 0.00000E+00
 -1      1968 4.84500E+01 2.74024E+00 0.00000E+00
 -1      1969 4.77000E+01 3.84915E+00 0.00000E+00
 -1      1970 5.28000E+01 2.74024E+00 0.00000E+00
 -1      1971 5.13750E+01 2.74024E+00 0.00000E+00
 -1      1972 5.06250E+01 3.84915E+00 0.00000E+00
 -1      1973 5.58000E+01 2.74024E+00 0.00000E+00
 -1      1974 5.43000E+01 2.74024E+00 0.00000E+00
 -1      1975 5.35500E+01 3.84915E+00 0.00000E+00
 -1      1976 5.88000E+01 2.74024E+00 0.00000E+00
 -1      1977 5.73000E+01 2.74024E+00 0.00000E+00
 -1      1978 5.65500E+01 3.84915E+00 0.00000E+00
 -1      1979 6.18000E+01 2.74024E+00 0.00000E+00
 -1      1980 6.03000E+01 2.74024E+00 0.00000E+00
 -1      1981 5.95500E+01 3.84915E+00 0.00000E+00
 -1      1982 6.48000E+01 2.74024E+00 0.00000E+00
 -1      1983 6.33000E+01 2.74024E+00 0.00000E+00
 -1      1984 6.25500E+01 3.84915E+00 0.00000E+00
 -1      1985 6.78000E+01 2.74024E+00 0.00000E+00
 -1      1986 6.63000E+01 2.74024E+00 0.00000E+00
 -1      1987 6.55500E+01 3.84915E+00 0.00000E+00
 -1      1988 7.08000E+01 2.74024E+00 0.00000E+00
 -1      1989 6.93000E+01 2.74024E+00 0.00000E+00
 -1      1990 6.85500E+01 3.84915E+00 0.00000E+00
 -1      1991 7.38000E+01 2.74024E+00 0.00000E+00
 -1      1992 7.23000E+01 2.74024E+00 0.00000E+00
 -1      1993 7.15500E+01 3.84915E+00 0.00000E+00
 -1      1994 7.66500E+01 2.74024E+00 0.00000E+00
 -1      1995 7.52250E+01 2.74024E+00 0.00000E+00
 -1      1996 7.44750E+01 3.84915E+00 0.00000E+00
 -1      1997 7.96500E+01 2.74024E+00 0.00000E+00
 -1      1998 7.81500E+01 2.74024E+00 0.00000E+00
 -1      1999 7.74000E+01 3.84915E+00 0.00000E+00
 -1      2000 8.26500E+01 2.74024E+00 0.00000E+00
 -1      2001 8.11500E+01 2.74024E+00 0.00000E+00
 -1      2002 8.04000E+01 3.84915E+00 0.00000E+00
 -1      2003 8.56500E+01 2.74024E+00 0.00000E+00
 -1      2004 8.41500E+01 2.74024E+00 0.00000E+00
 -1      2005 8.34000E+01 3.84915E+00 0.00000E+00
 -1      2006 8.86500E+01 2.74024E+00 0.00000E+00
 -1      2007 8.71500E+01 2.74024E+00 0.00000E+00
 -1      2008 8.64000E+01 3.84915E+00 0.00000E+00
 -1      2009 9.16500E+01 2.74024E+00 0.00000E+00
 -1      2010 9.01500E+01 2.74024E+00 0.00000E+00
 -1      2011 8.94000E+01 3.84915E+00 0.00000E+00
 -1      2012 9.46500E+01 2.74024E+00 0.00000E+00
 -1      2013 9.31500E+01 2.74024E+00 0.00000E+00
 -1      2014 9.24000E+01 3.84915E+00 0.00000E+00
 -1      2015 9.76500E+01 2.74024E+00 0.00000E+00
 -1      2016 9.61500E+01 2.74024E+00 0.00000E+00
 -1      2017 9.54000E+01 3.84915E+00 0.00000E+00
 -1      2018 1.00500E+02 2.74024E+00 0.00000E+00
 -1      2019 9.90750E+01 2.74024E+00 0.00000E+00
 -1      2020 9.83250E+01 3.84915E+00 0.00000E+00
 -1      2021 1.03500E+02 2.74024E+00 0.00000E+00
 -1      2022 1.02000E+02 2.74024E+00 0.00000E+00
 -1      2023 1.01250E+02 3.84915E+00 0.00000E+00
 -1      2024 1.06500E+02 2.74024E+00 0.00000E+00
 -1      2025 1.05000E+02 2.74024E+00 0.00000E+00
 -1      2026 1.04250E+02 3.84915E+00 0.00000E+00
 -1      2027 1.09500E+02 2.74024E+00 0.00000E+00
 -1      2028 1.08000E+02 2.74024E+00 0.00000E+00
 -1      2029 1.07250E+02 3.84915E+00 0.00000E+00
 -1      2030 1.12500E+02 2.74024E+00 0.00000E+00
 -1      2031 1.11000E+02 2.74024E+00 0.00000E+00
 -1      2032 1.10250E+02 3.84915E+00 0.00000E+00
 -1      2033 1.15500E+02 2.74024E+00 0.00000E+00
 -1      2034 1.14000E+02 2.74024E+00 0.00000E+00
 -1      2035 1.13250E+02 3.84915E+00 0.00000E+00
 -1      2036 1.18500E+02 2.74024E+00 0.00000E+00
 -1      2037 1.17000E+02 2.74024E+00 0.00000E+00
 -1      2038 1.16250E+02 3.84915E+00 0.00000E+00
 -1      2039 1.21500E+02 2.74024E+00 0.00000E+00
 -1      2040 1.20000E+02 2.74024E+00 0.00000E+00
 -1      2041 1.19250E+02 3.84915E+00 0.00000E+00
 -1      2042 1.24350E+02 2.74024E+00 0.00000E+00
 -1      2043 1.22925E+02 2.74024E+00 0.00000E+00
 -1      2044 1.22175E+02 3.84915E+00 0.00000E+00
 -1      2045 1.27350E+02 2.74024E+00 0.00000E+00
 -1      2046 1.25850E+02 2.74024E+00 0.00000E+00
 -1      2047 1.25100E+02 3.84915E+00 0.00000E+00
 -1      2048 1.30350E+02 2.74024E+00 0.00000E+00
 -1      2049 1.28850E+02 2.74024E+00 0.00000E+00
 -1      2050 1.28100E+02 3.84915E+00 0.00000E+00
 -1      2051 1.33350E+02 2.74024E+00 0.00000E+00
 -1      2052 1.31850E+02 2.74024E+00 0.00000E+00
 -1      2053 1.31100E+02 3.84915E+00 0.00000E+00
 -1      2054 1.36350E+02 2.74024E+00 0.00000E+00
 -1      2055 1.34850E+02 2.74024E+00 0.00000E+00
 -1      2056 1.34100E+02 3.84915E+00 0.00000E+00
 -1      2057 1.39350E+02 2.74024E+00 0.00000E+00
 -1      2058 1.37850E+02 2.74024E+00 0.00000E+00
 -1      2059 1.37100E+02 3.84915E+00 0.00000E+00
 -1      2060 1.42350E+02 2.74024E+00 0.00000E+00
 -1      2061 1.40850E+02 2.74024E+00 0.00000E+00
 -1      2062 1.40100E+02 3.84915E+00 0.00000E+00
 -1      2063 1.45350E+02 2.74024E+00 0.00000E+00
 -1      2064 1.43850E+02 2.74024E+00 0.00000E+00
 -1      2065 1.43100E+02 3.84915E+00 0.00000E+00
 -1      2066 1.47188E+02 3.41778E+00 0.00000E+00
 -1      2067 1.46212E+02 3.08812E+00 0.00000E+00
 -1      2068 1.45462E+02 4.19703E+00 0.00000E+00
 -1      2069 1.47188E+02 4.89278E+00 0.00000E+00
 -1      2070 1.46751E+02 1.04032E+01 0.00000E+00
 -1      2071 1.46751E+02 8.92816E+00 0.00000E+00
 -1      2072 1.46969E+02 7.64797E+00 0.00000E+00
 -1      2073 1.46969E+02 6.17297E+00 0.00000E+00
 -1      2074 1.46107E+02 5.82509E+00 0.00000E+00
 -1      2075 1.45670E+02 8.38547E+00 0.00000E+00
 -1      2076 1.46751E+02 1.33532E+01 0.00000E+00
 -1      2077 1.46751E+02 1.18782E+01 0.00000E+00
 -1      2078 1.45452E+02 1.11407E+01 0.00000E+00
 -1      2079 1.46751E+02 1.62532E+01 0.00000E+00
 -1      2080 1.46751E+02 1.48032E+01 0.00000E+00
 -1      2081 1.45452E+02 1.40657E+01 0.00000E+00
 -1      2082 1.46751E+02 1.92032E+01 0.00000E+00
 -1      2083 1.46751E+02 1.77282E+01 0.00000E+00
 -1      2084 1.45452E+02 1.69907E+01 0.00000E+00
 -1      2085 1.46751E+02 2.21532E+01 0.00000E+00
 -1      2086 1.46751E+02 2.06782E+01 0.00000E+00
 -1      2087 1.45452E+02 1.99407E+01 0.00000E+00
 -1      2088 1.46751E+02 2.51032E+01 0.00000E+00
 -1      2089 1.46751E+02 2.36282E+01 0.00000E+00
 -1      2090 1.45452E+02 2.28907E+01 0.00000E+00
 -1      2091 1.46751E+02 2.80532E+01 0.00000E+00
 -1      2092 1.46751E+02 2.65782E+01 0.00000E+00
 -1      2093 1.45452E+02 2.58407E+01 0.00000E+00
 -1      2094 1.46751E+02 3.10032E+01 0.00000E+00
 -1      2095 1.46751E+02 2.95282E+01 0.00000E+00
 -1      2096 1.45452E+02 2.87907E+01 0.00000E+00
 -1      2097 1.46751E+02 3.39032E+01 0.00000E+00
 -1      2098 1.46751E+02 3.24532E+01 0.00000E+00
 -1      2099 1.45452E+02 3.17157E+01 0.00000E+00
 -1      2100 1.46751E+02 3.68532E+01 0.00000E+00
 -1      2101 1.46751E+02 3.53782E+01 0.00000E+00
 -1      2102 1.45452E+02 3.46407E+01 0.00000E+00
 -1      2103 1.46751E+02 3.98032E+01 0.00000E+00
 -1      2104 1.46751E+02 3.83282E+01 0.00000E+00
 -1      2105 1.45452E+02 3.75907E+01 0.00000E+00
 -1      2106 1.46751E+02 4.27532E+01 0.00000E+00
 -1      2107 1.46751E+02 4.12782E+01 0.00000E+00
 -1      2108 1.45452E+02 4.05407E+01 0.00000E+00
 -1      2109 3.83675E+01 6.61379E+00 0.00000E+00
 -1      2110 3.88538E+01 7.26624E+00 0.00000E+00
 -1      2111 3.96725E+01 7.26169E+00 0.00000E+00
 -1      2112 1.46526E+02 4.65135E+01 0.00000E+00
 -1      2113 4.04465E+01 1.17343E+01 0.00000E+00
 -1      2114 4.03643E+01 1.26350E+01 0.00000E+00
 -1      2115 3.31411E+01 2.86117E+00 0.00000E+00
 -1      2116 3.89700E+00 3.74688E+01 0.00000E+00
 -1      2117 3.89700E+00 3.89437E+01 0.00000E+00
 -1      2118 5.19600E+00 3.96813E+01 0.00000E+00
 -1      2119 5.19600E+00 3.67438E+01 0.00000E+00
 -1      2120 3.72375E+01 5.11860E+00 0.00000E+00
 -1      2121 3.78050E+01 5.83207E+00 0.00000E+00
 -1      2122 3.10990E+01 2.75780E+00 0.00000E+00
 -1      2123 2.59081E+01 4.83763E+00 0.00000E+00
 -1      2124 2.67675E+01 4.41493E+00 0.00000E+00
 -1      2125 2.45953E+01 6.30350E+00 0.00000E+00
 -1      2126 2.51612E+01 5.53806E+00 0.00000E+00
 -1      2127 2.35301E+01 7.76046E+00 0.00000E+00
 -1      2128 2.40627E+01 7.03198E+00 0.00000E+00
 -1      2129 2.37235E+01 6.18924E+00 0.00000E+00
 -1      2130 2.29420E+01 9.77454E+00 0.00000E+00
 -1      2131 2.31085E+01 8.90698E+00 0.00000E+00
 -1      2132 2.25801E+01 1.14615E+01 0.00000E+00
 -1      2133 2.27611E+01 1.06180E+01 0.00000E+00
 -1      2134 2.21666E+01 1.00542E+01 0.00000E+00
 -1      2135 2.27297E+01 1.34094E+01 0.00000E+00
 -1      2136 2.25740E+01 1.25706E+01 0.00000E+00
 -1      2137 2.31322E+01 1.50168E+01 0.00000E+00
 -1      2138 2.29310E+01 1.42131E+01 0.00000E+00
 -1      2139 2.21747E+01 1.39197E+01 0.00000E+00
 -1      2140 2.38830E+01 1.67918E+01 0.00000E+00
 -1      2141 2.34457E+01 1.60719E+01 0.00000E+00
 -1      2142 2.49982E+01 1.82200E+01 0.00000E+00
 -1      2143 2.44486E+01 1.75745E+01 0.00000E+00
 -1      2144 2.63487E+01 1.95354E+01 0.00000E+00
 -1      2145 2.56761E+01 1.89199E+01 0.00000E+00
 -1      2146 2.81498E+01 2.06997E+01 0.00000E+00
 -1      2147 2.72907E+01 2.03914E+01 0.00000E+00
 -1      2148 2.98390E+01 2.12380E+01 0.00000E+00
 -1      2149 2.89944E+01 2.09689E+01 0.00000E+00
 -1      2150 2.82185E+01 2.17795E+01 0.00000E+00
 -1      2151 3.20359E+01 2.11123E+01 0.00000E+00
 -1      2152 3.11398E+01 2.11970E+01 0.00000E+00
 -1      2153 3.38679E+01 2.07754E+01 0.00000E+00
 -1      2154 3.29519E+01 2.09438E+01 0.00000E+00
 -1      2155 3.25806E+01 2.17983E+01 0.00000E+00
 -1      2156 3.58342E+01 1.99447E+01 0.00000E+00
 -1      2157 3.50144E+01 2.03837E+01 0.00000E+00
 -1      2158 3.74849E+01 1.88927E+01 0.00000E+00
 -1      2159 3.67028E+01 1.94205E+01 0.00000E+00
 -1      2160 3.88637E+01 1.72329E+01 0.00000E+00
 -1      2161 3.83479E+01 1.80189E+01 0.00000E+00
 -1      2162 3.96737E+01 1.54843E+01 0.00000E+00
 -1      2163 3.92907E+01 1.63004E+01 0.00000E+00
 -1      2164 4.02922E+01 1.36325E+01 0.00000E+00
 -1      2165 4.00944E+01 1.45127E+01 0.00000E+00
 -1      2166 4.84800E+00 4.21150E+00 0.00000E+00
 -1      2167 4.03207E+01 9.72285E+00 0.00000E+00
 -1      2168 4.04818E+01 1.06318E+01 0.00000E+00
 -1      2169 1.45776E+02 4.52145E+01 0.00000E+00
 -1      2170 4.92300E+00 4.57510E+01 0.00000E+00
 -1      2171 3.67034E+01 2.52134E+00 0.00000E+00
 -1      2172 3.61457E+01 3.83800E+00 0.00000E+00
 -1      2173 3.69853E+01 4.30138E+00 0.00000E+00
 -1      2174 3.81284E+01 2.52134E+00 0.00000E+00
 -1      2175 3.78091E+01 4.22858E+00 0.00000E+00
 -1      2176 4.06610E+01 8.97822E+00 0.00000E+00
 -1      2177 4.11279E+01 1.11448E+01 0.00000E+00
 -1      2178 3.88784E+01 3.63025E+00 0.00000E+00
 -1      2179 6.42300E+00 4.57510E+01 0.00000E+00
 -1      2180 2.85197E+01 2.55966E+00 0.00000E+00
 -1      2181 2.73124E+01 2.82229E+00 0.00000E+00
 -1      2182 7.17300E+00 4.44520E+01 0.00000E+00
 -1      2183 7.09800E+00 5.51050E+00 0.00000E+00
 -1      2184 6.34800E+00 4.21150E+00 0.00000E+00
 -1      2185 2.87678E+01 3.73183E+00 0.00000E+00
 -1      2186 2.23402E+01 3.71818E+00 0.00000E+00
 -1      2187 2.15902E+01 5.01718E+00 0.00000E+00
 -1      2188 2.35402E+01 3.71818E+00 0.00000E+00
 -1      2189 3.86237E+01 5.82752E+00 0.00000E+00
 -1      2190 3.22990E+01 2.75780E+00 0.00000E+00
 -1      2191 2.19796E+01 1.20068E+01 0.00000E+00
 -1      2192 2.27693E+01 8.06424E+00 0.00000E+00
 -1      2193 1.46100E+02 4.41473E+01 0.00000E+00
 -1      2194 4.10204E+01 1.32448E+01 0.00000E+00
 -1      2195 4.05275E+01 1.52139E+01 0.00000E+00
 -1      2196 3.96798E+01 1.71179E+01 0.00000E+00
 -1      2197 3.83897E+01 1.89242E+01 0.00000E+00
 -1      2198 3.46431E+01 2.12381E+01 0.00000E+00
 -1      2199 3.03639E+01 2.20077E+01 0.00000E+00
 -1      2200 2.64320E+01 2.06544E+01 0.00000E+00
 -1      2201 2.48121E+01 1.90986E+01 0.00000E+00
 -1      2202 2.26895E+01 1.57785E+01 0.00000E+00
 -1      2203 1.44801E+02 4.34098E+01 0.00000E+00
 -1      2204 2.50030E+01 4.76033E+00 0.00000E+00
 -1      2205 2.79372E+01 4.12897E+00 0.00000E+00
 -1      2206 2.69197E+01 3.77395E+00 0.00000E+00
 -1      2207 2.35686E+01 1.76162E+01 0.00000E+00
 -1      2208 3.66581E+01 2.03221E+01 0.00000E+00
 -1      2209 6.49500E+00 3.01125E+01 0.00000E+00
 -1      2210 6.49500E+00 3.15875E+01 0.00000E+00
 -1      2211 6.49500E+00 3.30625E+01 0.00000E+00
 -1      2212 6.49500E+00 3.45375E+01 0.00000E+00
 -1      2213 7.79400E+00 3.23250E+01 0.00000E+00
 -1      2214 6.49500E+00 2.42125E+01 0.00000E+00
 -1      2215 6.49500E+00 2.56875E+01 0.00000E+00
 -1      2216 6.49500E+00 2.12625E+01 0.00000E+00
 -1      2217 6.49500E+00 2.27375E+01 0.00000E+00
 -1      2218 7.79400E+00 2.34750E+01 0.00000E+00
 -1      2219 6.49500E+00 1.83625E+01 0.00000E+00
 -1      2220 6.49500E+00 1.98125E+01 0.00000E+00
 -1      2221 7.79400E+00 2.05500E+01 0.00000E+00
 -1      2222 6.49500E+00 1.54125E+01 0.00000E+00
 -1      2223 6.49500E+00 1.68875E+01 0.00000E+00
 -1      2224 7.79400E+00 1.76250E+01 0.00000E+00
 -1      2225 6.49500E+00 1.24625E+01 0.00000E+00
 -1      2226 6.49500E+00 1.39375E+01 0.00000E+00
 -1      2227 7.79400E+00 1.46750E+01 0.00000E+00
 -1      2228 6.49500E+00 9.51250E+00 0.00000E+00
 -1      2229 6.49500E+00 1.09875E+01 0.00000E+00
 -1      2230 7.79400E+00 1.17250E+01 0.00000E+00
 -1      2231 6.79650E+00 6.77400E+00 0.00000E+00
 -1      2232 6.79650E+00 8.24900E+00 0.00000E+00
 -1      2233 8.09550E+00 8.98650E+00 0.00000E+00
 -1      2234 8.69850E+00 6.45950E+00 0.00000E+00
 -1      2235 2.42652E+01 4.44913E+00 0.00000E+00
 -1      2236 2.23127E+01 5.77581E+00 0.00000E+00
 -1      2237 2.11225E+01 5.95463E+00 0.00000E+00
 -1      2238 9.90000E+00 4.35050E+01 0.00000E+00
 -1      2239 1.14000E+01 4.35050E+01 0.00000E+00
 -1      2240 6.55950E+00 4.28890E+01 0.00000E+00
 -1      2241 8.53650E+00 4.32410E+01 0.00000E+00
 -1      2242 9.28650E+00 4.19420E+01 0.00000E+00
 -1      2243 6.55950E+00 4.14140E+01 0.00000E+00
 -1      2244 1.29000E+01 4.35050E+01 0.00000E+00
 -1      2245 1.44000E+01 4.35050E+01 0.00000E+00
 -1      2246 1.21500E+01 4.22060E+01 0.00000E+00
 -1      2247 1.59000E+01 4.35050E+01 0.00000E+00
 -1      2248 1.74000E+01 4.35050E+01 0.00000E+00
 -1      2249 1.51500E+01 4.22060E+01 0.00000E+00
 -1      2250 1.89000E+01 4.35050E+01 0.00000E+00
 -1      2251 2.04000E+01 4.35050E+01 0.00000E+00
 -1      2252 1.81500E+01 4.22060E+01 0.00000E+00
 -1      2253 2.19000E+01 4.35050E+01 0.00000E+00
 -1      2254 2.34000E+01 4.35050E+01 0.00000E+00
 -1      2255 2.11500E+01 4.22060E+01 0.00000E+00
 -1      2256 2.49000E+01 4.35050E+01 0.00000E+00
 -1      2257 2.64000E+01 4.35050E+01 0.00000E+00
 -1      2258 2.41500E+01 4.22060E+01 0.00000E+00
 -1      2259 2.79000E+01 4.35050E+01 0.00000E+00
 -1      2260 2.94000E+01 4.35050E+01 0.00000E+00
 -1      2261 2.71500E+01 4.22060E+01 0.00000E+00
 -1      2262 3.09000E+01 4.35050E+01 0.00000E+00
 -1      2263 3.24000E+01 4.35050E+01 0.00000E+00
 -1      2264 3.01500E+01 4.22060E+01 0.00000E+00
 -1      2265 3.39000E+01 4.35050E+01 0.00000E+00
 -1      2266 3.54000E+01 4.35050E+01 0.00000E+00
 -1      2267 3.31500E+01 4.22060E+01 0.00000E+00
 -1      2268 3.69000E+01 4.35050E+01 0.00000E+00
 -1      2269 3.84000E+01 4.35050E+01 0.00000E+00
 -1      2270 3.61500E+01 4.22060E+01 0.00000E+00
 -1      2271 3.99000E+01 4.35050E+01 0.00000E+00
 -1      2272 4.14000E+01 4.35050E+01 0.00000E+00
 -1      2273 3.91500E+01 4.22060E+01 0.00000E+00
 -1      2274 4.29000E+01 4.35050E+01 0.00000E+00
 -1      2275 4.44000E+01 4.35050E+01 0.00000E+00
 -1      2276 4.21500E+01 4.22060E+01 0.00000E+00
 -1      2277 4.59000E+01 4.35050E+01 0.00000E+00
 -1      2278 4.74000E+01 4.35050E+01 0.00000E+00
 -1      2279 4.51500E+01 4.22060E+01 0.00000E+00
 -1      2280 4.89000E+01 4.35050E+01 0.00000E+00
 -1      2281 5.04000E+01 4.35050E+01 0.00000E+00
 -1      2282 4.81500E+01 4.22060E+01 0.00000E+00
 -1      2283 5.19000E+01 4.35050E+01 0.00000E+00
 -1      2284 5.34000E+01 4.35050E+01 0.00000E+00
 -1      2285 5.11500E+01 4.22060E+01 0.00000E+00
 -1      2286 5.49000E+01 4.35050E+01 0.00000E+00
 -1      2287 5.64000E+01 4.35050E+01 0.00000E+00
 -1      2288 5.41500E+01 4.22060E+01 0.00000E+00
 -1      2289 5.79000E+01 4.35050E+01 0.00000E+00
 -1      2290 5.94000E+01 4.35050E+01 0.00000E+00
 -1      2291 5.71500E+01 4.22060E+01 0.00000E+00
 -1      2292 6.09000E+01 4.35050E+01 0.00000E+00
 -1      2293 6.24000E+01 4.35050E+01 0.00000E+00
 -1      2294 6.01500E+01 4.22060E+01 0.00000E+00
 -1      2295 6.39000E+01 4.35050E+01 0.00000E+00
 -1      2296 6.54000E+01 4.35050E+01 0.00000E+00
 -1      2297 6.31500E+01 4.22060E+01 0.00000E+00
 -1      2298 6.69000E+01 4.35050E+01 0.00000E+00
 -1      2299 6.84000E+01 4.35050E+01 0.00000E+00
 -1      2300 6.61500E+01 4.22060E+01 0.00000E+00
 -1      2301 6.99000E+01 4.35050E+01 0.00000E+00
 -1      2302 7.14000E+01 4.35050E+01 0.00000E+00
 -1      2303 6.91500E+01 4.22060E+01 0.00000E+00
 -1      2304 7.29000E+01 4.35050E+01 0.00000E+00
 -1      2305 7.44000E+01 4.35050E+01 0.00000E+00
 -1      2306 7.21500E+01 4.22060E+01 0.00000E+00
 -1      2307 7.59000E+01 4.35050E+01 0.00000E+00
 -1      2308 7.74000E+01 4.35050E+01 0.00000E+00
 -1      2309 7.51500E+01 4.22060E+01 0.00000E+00
 -1      2310 7.89000E+01 4.35050E+01 0.00000E+00
 -1      2311 8.04000E+01 4.35050E+01 0.00000E+00
 -1      2312 7.81500E+01 4.22060E+01 0.00000E+00
 -1      2313 8.19000E+01 4.35050E+01 0.00000E+00
 -1      2314 8.34000E+01 4.35050E+01 0.00000E+00
 -1      2315 8.11500E+01 4.22060E+01 0.00000E+00
 -1      2316 8.49000E+01 4.35050E+01 0.00000E+00
 -1      2317 8.64000E+01 4.35050E+01 0.00000E+00
 -1      2318 8.41500E+01 4.22060E+01 0.00000E+00
 -1      2319 8.79000E+01 4.35050E+01 0.00000E+00
 -1      2320 8.94000E+01 4.35050E+01 0.00000E+00
 -1      2321 8.71500E+01 4.22060E+01 0.00000E+00
 -1      2322 9.09000E+01 4.35050E+01 0.00000E+00
 -1      2323 9.24000E+01 4.35050E+01 0.00000E+00
 -1      2324 9.01500E+01 4.22060E+01 0.00000E+00
 -1      2325 9.39000E+01 4.35050E+01 0.00000E+00
 -1      2326 9.54000E+01 4.35050E+01 0.00000E+00
 -1      2327 9.31500E+01 4.22060E+01 0.00000E+00
 -1      2328 9.69000E+01 4.35050E+01 0.00000E+00
 -1      2329 9.84000E+01 4.35050E+01 0.00000E+00
 -1      2330 9.61500E+01 4.22060E+01 0.00000E+00
 -1      2331 9.99000E+01 4.35050E+01 0.00000E+00
 -1      2332 1.01400E+02 4.35050E+01 0.00000E+00
 -1      2333 9.91500E+01 4.22060E+01 0.00000E+00
 -1      2334 1.02900E+02 4.35050E+01 0.00000E+00
 -1      2335 1.04400E+02 4.35050E+01 0.00000E+00
 -1      2336 1.02150E+02 4.22060E+01 0.00000E+00
 -1      2337 1.05900E+02 4.35050E+01 0.00000E+00
 -1      2338 1.07400E+02 4.35050E+01 0.00000E+00
 -1      2339 1.05150E+02 4.22060E+01 0.00000E+00
 -1      2340 1.08900E+02 4.35050E+01 0.00000E+00
 -1      2341 1.10400E+02 4.35050E+01 0.00000E+00
 -1      2342 1.08150E+02 4.22060E+01 0.00000E+00
 -1      2343 1.11900E+02 4.35050E+01 0.00000E+00
 -1      2344 1.13400E+02 4.35050E+01 0.00000E+00
 -1      2345 1.11150E+02 4.22060E+01 0.00000E+00
 -1      2346 1.14900E+02 4.35050E+01 0.00000E+00
 -1      2347 1.16400E+02 4.35050E+01 0.00000E+00
 -1      2348 1.14150E+02 4.22060E+01 0.00000E+00
 -1      2349 1.17900E+02 4.35050E+01 0.00000E+00
 -1      2350 1.19400E+02 4.35050E+01 0.00000E+00
 -1      2351 1.17150E+02 4.22060E+01 0.00000E+00
 -1      2352 1.20900E+02 4.35050E+01 0.00000E+00
 -1      2353 1.22400E+02 4.35050E+01 0.00000E+00
 -1      2354 1.20150E+02 4.22060E+01 0.00000E+00
 -1      2355 1.23900E+02 4.35050E+01 0.00000E+00
 -1      2356 1.25400E+02 4.35050E+01 0.00000E+00
 -1      2357 1.23150E+02 4.22060E+01 0.00000E+00
 -1      2358 1.26900E+02 4.35050E+01 0.00000E+00
 -1      2359 1.28400E+02 4.35050E+01 0.00000E+00
 -1      2360 1.26150E+02 4.22060E+01 0.00000E+00
 -1      2361 1.29900E+02 4.35050E+01 0.00000E+00
 -1      2362 1.31400E+02 4.35050E+01 0.00000E+00
 -1      2363 1.29150E+02 4.22060E+01 0.00000E+00
 -1      2364 1.32900E+02 4.35050E+01 0.00000E+00
 -1      2365 1.34400E+02 4.35050E+01 0.00000E+00
 -1      2366 1.32150E+02 4.22060E+01 0.00000E+00
 -1      2367 1.35900E+02 4.35050E+01 0.00000E+00
 -1      2368 1.37400E+02 4.35050E+01 0.00000E+00
 -1      2369 1.35150E+02 4.22060E+01 0.00000E+00
 -1      2370 1.38900E+02 4.35050E+01 0.00000E+00
 -1      2371 1.40400E+02 4.35050E+01 0.00000E+00
 -1      2372 1.38150E+02 4.22060E+01 0.00000E+00
 -1      2373 1.41850E+02 4.34574E+01 0.00000E+00
 -1      2374 1.43350E+02 4.34574E+01 0.00000E+00
 -1      2375 1.44001E+02 4.20632E+01 0.00000E+00
 -1      2376 1.41100E+02 4.21584E+01 0.00000E+00
 -1      2377 1.42500E+01 6.38869E+00 0.00000E+00
 -1      2378 1.27500E+01 6.38869E+00 0.00000E+00
 -1      2379 1.97625E+01 6.13734E+00 0.00000E+00
 -1      2380 1.84875E+01 6.13734E+00 0.00000E+00
 -1      2381 2.31563E+01 1.85098E+01 0.00000E+00
 -1      2382 2.25907E+01 1.77271E+01 0.00000E+00
 -1      2383 4.10339E+01 8.15169E+00 0.00000E+00
 -1      2384 4.15361E+01 9.21578E+00 0.00000E+00
 -1      2385 3.91306E+01 4.44747E+00 0.00000E+00
 -1      2386 4.24500E+01 4.87427E+00 0.00000E+00
 -1      2387 4.09500E+01 4.87427E+00 0.00000E+00
 -1      2388 5.13375E+01 5.14815E+00 0.00000E+00
 -1      2389 4.99125E+01 5.14815E+00 0.00000E+00
 -1      2390 5.43375E+01 5.14815E+00 0.00000E+00
 -1      2391 5.28375E+01 5.14815E+00 0.00000E+00
 -1      2392 5.21250E+01 6.44715E+00 0.00000E+00
 -1      2393 5.73375E+01 5.14815E+00 0.00000E+00
 -1      2394 5.58375E+01 5.14815E+00 0.00000E+00
 -1      2395 5.51250E+01 6.44715E+00 0.00000E+00
 -1      2396 6.03375E+01 5.14815E+00 0.00000E+00
 -1      2397 5.88375E+01 5.14815E+00 0.00000E+00
 -1      2398 5.81250E+01 6.44715E+00 0.00000E+00
 -1      2399 6.33375E+01 5.14815E+00 0.00000E+00
 -1      2400 6.18375E+01 5.14815E+00 0.00000E+00
 -1      2401 6.11250E+01 6.44715E+00 0.00000E+00
 -1      2402 6.63375E+01 5.14815E+00 0.00000E+00
 -1      2403 6.48375E+01 5.14815E+00 0.00000E+00
 -1      2404 6.41250E+01 6.44715E+00 0.00000E+00
 -1      2405 6.93375E+01 5.14815E+00 0.00000E+00
 -1      2406 6.78375E+01 5.14815E+00 0.00000E+00
 -1      2407 6.71250E+01 6.44715E+00 0.00000E+00
 -1      2408 7.23375E+01 5.14815E+00 0.00000E+00
 -1      2409 7.08375E+01 5.14815E+00 0.00000E+00
 -1      2410 7.01250E+01 6.44715E+00 0.00000E+00
 -1      2411 7.51875E+01 5.14815E+00 0.00000E+00
 -1      2412 7.37625E+01 5.14815E+00 0.00000E+00
 -1      2413 7.30500E+01 6.44715E+00 0.00000E+00
 -1      2414 7.81875E+01 5.14815E+00 0.00000E+00
 -1      2415 7.66875E+01 5.14815E+00 0.00000E+00
 -1      2416 7.59750E+01 6.44715E+00 0.00000E+00
 -1      2417 8.11875E+01 5.14815E+00 0.00000E+00
 -1      2418 7.96875E+01 5.14815E+00 0.00000E+00
 -1      2419 7.89750E+01 6.44715E+00 0.00000E+00
 -1      2420 8.41875E+01 5.14815E+00 0.00000E+00
 -1      2421 8.26875E+01 5.14815E+00 0.00000E+00
 -1      2422 8.19750E+01 6.44715E+00 0.00000E+00
 -1      2423 8.71875E+01 5.14815E+00 0.00000E+00
 -1      2424 8.56875E+01 5.14815E+00 0.00000E+00
 -1      2425 8.49750E+01 6.44715E+00 0.00000E+00
 -1      2426 9.01875E+01 5.14815E+00 0.00000E+00
 -1      2427 8.86875E+01 5.14815E+00 0.00000E+00
 -1      2428 8.79750E+01 6.44715E+00 0.00000E+00
 -1      2429 9.31875E+01 5.14815E+00 0.00000E+00
 -1      2430 9.16875E+01 5.14815E+00 0.00000E+00
 -1      2431 9.09750E+01 6.44715E+00 0.00000E+00
 -1      2432 9.61875E+01 5.14815E+00 0.00000E+00
 -1      2433 9.46875E+01 5.14815E+00 0.00000E+00
 -1      2434 9.39750E+01 6.44715E+00 0.00000E+00
 -1      2435 9.90375E+01 5.14815E+00 0.00000E+00
 -1      2436 9.76125E+01 5.14815E+00 0.00000E+00
 -1      2437 9.69000E+01 6.44715E+00 0.00000E+00
 -1      2438 1.02037E+02 5.14815E+00 0.00000E+00
 -1      2439 1.00537E+02 5.14815E+00 0.00000E+00
 -1      2440 9.98250E+01 6.44715E+00 0.00000E+00
 -1      2441 1.05037E+02 5.14815E+00 0.00000E+00
 -1      2442 1.03537E+02 5.14815E+00 0.00000E+00
 -1      2443 1.02825E+02 6.44715E+00 0.00000E+00
 -1      2444 1.08037E+02 5.14815E+00 0.00000E+00
 -1      2445 1.06537E+02 5.14815E+00 0.00000E+00
 -1      2446 1.05825E+02 6.44715E+00 0.00000E+00
 -1      2447 1.11037E+02 5.14815E+00 0.00000E+00
 -1      2448 1.09537E+02 5.14815E+00 0.00000E+00
 -1      2449 1.08825E+02 6.44715E+00 0.00000E+00
 -1      2450 1.14037E+02 5.14815E+00 0.00000E+00
 -1      2451 1.12537E+02 5.14815E+00 0.00000E+00
 -1      2452 1.11825E+02 6.44715E+00 0.00000E+00
 -1      2453 1.17037E+02 5.14815E+00 0.00000E+00
 -1      2454 1.15537E+02 5.14815E+00 0.00000E+00
 -1      2455 1.14825E+02 6.44715E+00 0.00000E+00
 -1      2456 1.20037E+02 5.14815E+00 0.00000E+00
 -1      2457 1.18537E+02 5.14815E+00 0.00000E+00
 -1      2458 1.17825E+02 6.44715E+00 0.00000E+00
 -1      2459 1.22887E+02 5.14815E+00 0.00000E+00
 -1      2460 1.21463E+02 5.14815E+00 0.00000E+00
 -1      2461 1.20750E+02 6.44715E+00 0.00000E+00
 -1      2462 1.25887E+02 5.14815E+00 0.00000E+00
 -1      2463 1.24387E+02 5.14815E+00 0.00000E+00
 -1      2464 1.23675E+02 6.44715E+00 0.00000E+00
 -1      2465 1.28887E+02 5.14815E+00 0.00000E+00
 -1      2466 1.27387E+02 5.14815E+00 0.00000E+00
 -1      2467 1.26675E+02 6.44715E+00 0.00000E+00
 -1      2468 1.31887E+02 5.14815E+00 0.00000E+00
 -1      2469 1.30387E+02 5.14815E+00 0.00000E+00
 -1      2470 1.29675E+02 6.44715E+00 0.00000E+00
 -1      2471 1.34887E+02 5.14815E+00 0.00000E+00
 -1      2472 1.33387E+02 5.14815E+00 0.00000E+00
 -1      2473 1.32675E+02 6.44715E+00 0.00000E+00
 -1      2474 1.37887E+02 5.14815E+00 0.00000E+00
 -1      2475 1.36387E+02 5.14815E+00 0.00000E+00
 -1      2476 1.35675E+02 6.44715E+00 0.00000E+00
 -1      2477 1.40887E+02 5.14815E+00 0.00000E+00
 -1      2478 1.39387E+02 5.14815E+00 0.00000E+00
 -1      2479 1.38675E+02 6.44715E+00 0.00000E+00
 -1      2480 1.45244E+02 5.47722E+00 0.00000E+00
 -1      2481 1.44382E+02 5.12934E+00 0.00000E+00
 -1      2482 1.45026E+02 6.75741E+00 0.00000E+00
 -1      2483 1.44153E+02 1.47907E+01 0.00000E+00
 -1      2484 1.44153E+02 1.33407E+01 0.00000E+00
 -1      2485 1.44153E+02 1.77407E+01 0.00000E+00
 -1      2486 1.44153E+02 1.62657E+01 0.00000E+00
 -1      2487 1.42854E+02 1.55407E+01 0.00000E+00
 -1      2488 1.44153E+02 1.18657E+01 0.00000E+00
 -1      2489 1.44153E+02 1.03907E+01 0.00000E+00
 -1      2490 1.42854E+02 1.25907E+01 0.00000E+00
 -1      2491 1.44153E+02 2.06907E+01 0.00000E+00
 -1      2492 1.44153E+02 1.92157E+01 0.00000E+00
 -1      2493 1.42854E+02 1.84907E+01 0.00000E+00
 -1      2494 1.44153E+02 2.36407E+01 0.00000E+00
 -1      2495 1.44153E+02 2.21657E+01 0.00000E+00
 -1      2496 1.42854E+02 2.14407E+01 0.00000E+00
 -1      2497 1.44153E+02 2.65907E+01 0.00000E+00
 -1      2498 1.44153E+02 2.51157E+01 0.00000E+00
 -1      2499 1.42854E+02 2.43907E+01 0.00000E+00
 -1      2500 1.44153E+02 2.95407E+01 0.00000E+00
 -1      2501 1.44153E+02 2.80657E+01 0.00000E+00
 -1      2502 1.42854E+02 2.73407E+01 0.00000E+00
 -1      2503 1.44153E+02 3.24407E+01 0.00000E+00
 -1      2504 1.44153E+02 3.09907E+01 0.00000E+00
 -1      2505 1.42854E+02 3.02657E+01 0.00000E+00
 -1      2506 1.44153E+02 3.53907E+01 0.00000E+00
 -1      2507 1.44153E+02 3.39157E+01 0.00000E+00
 -1      2508 1.42854E+02 3.31907E+01 0.00000E+00
 -1      2509 1.44153E+02 3.83407E+01 0.00000E+00
 -1      2510 1.44153E+02 3.68657E+01 0.00000E+00
 -1      2511 1.42854E+02 3.61407E+01 0.00000E+00
 -1      2512 1.44077E+02 4.09395E+01 0.00000E+00
 -1      2513 1.44077E+02 3.94645E+01 0.00000E+00
 -1      2514 1.42778E+02 3.87395E+01 0.00000E+00
 -1      2515 1.42627E+02 4.09870E+01 0.00000E+00
 -1      2516 4.00612E+01 6.84680E+00 0.00000E+00
 -1      2517 4.05475E+01 7.49924E+00 0.00000E+00
 -1      2518 4.14226E+01 7.73679E+00 0.00000E+00
 -1      2519 4.14479E+01 1.50355E+01 0.00000E+00
 -1      2520 4.10273E+01 1.60071E+01 0.00000E+00
 -1      2521 2.63262E+01 2.17171E+01 0.00000E+00
 -1      2522 2.53843E+01 2.08611E+01 0.00000E+00
 -1      2523 4.84125E+01 5.14815E+00 0.00000E+00
 -1      2524 4.69125E+01 5.14815E+00 0.00000E+00
 -1      2525 4.91250E+01 6.44715E+00 0.00000E+00
 -1      2526 4.54125E+01 5.14815E+00 0.00000E+00
 -1      2527 4.39125E+01 5.14815E+00 0.00000E+00
 -1      2528 4.61250E+01 6.44715E+00 0.00000E+00
 -1      2529 1.14742E+01 6.42410E+00 0.00000E+00
 -1      2530 9.97425E+00 6.42410E+00 0.00000E+00
 -1      2531 9.67275E+00 7.68760E+00 0.00000E+00
 -1      2532 1.22242E+01 7.61679E+00 0.00000E+00
 -1      2533 1.71000E+01 6.38869E+00 0.00000E+00
 -1      2534 1.56750E+01 6.38869E+00 0.00000E+00
 -1      2535 1.49250E+01 7.58139E+00 0.00000E+00
 -1      2536 6.49500E+00 2.71625E+01 0.00000E+00
 -1      2537 6.49500E+00 2.86375E+01 0.00000E+00
 -1      2538 7.79400E+00 2.93750E+01 0.00000E+00
 -1      2539 7.79400E+00 2.64250E+01 0.00000E+00
 -1      2540 2.12028E+01 1.25571E+01 0.00000E+00
 -1      2541 2.12088E+01 1.14480E+01 0.00000E+00
 -1      2542 2.20963E+01 7.96201E+00 0.00000E+00
 -1      2543 2.25180E+01 6.81549E+00 0.00000E+00
 -1      2544 2.12377E+01 1.02961E+01 0.00000E+00
 -1      2545 2.14187E+01 9.45259E+00 0.00000E+00
 -1      2546 2.15247E+01 1.45095E+01 0.00000E+00
 -1      2547 2.13235E+01 1.37058E+01 0.00000E+00
 -1      2548 3.76221E+01 2.09377E+01 0.00000E+00
 -1      2549 3.67535E+01 2.14619E+01 0.00000E+00
 -1      2550 2.21518E+01 1.66195E+01 0.00000E+00
 -1      2551 2.18383E+01 1.55645E+01 0.00000E+00
 -1      2552 2.09870E+01 1.53506E+01 0.00000E+00
 -1      2553 2.45351E+01 2.00452E+01 0.00000E+00
 -1      2554 2.38572E+01 1.93454E+01 0.00000E+00
 -1      2555 2.83805E+01 2.27312E+01 0.00000E+00
 -1      2556 2.75359E+01 2.24620E+01 0.00000E+00
 -1      2557 3.10400E+01 2.28025E+01 0.00000E+00
 -1      2558 2.97392E+01 2.28434E+01 0.00000E+00
 -1      2559 3.31710E+01 2.24338E+01 0.00000E+00
 -1      2560 3.22550E+01 2.26023E+01 0.00000E+00
 -1      2561 3.54936E+01 2.18537E+01 0.00000E+00
 -1      2562 3.43471E+01 2.22454E+01 0.00000E+00
 -1      2563 3.94314E+01 1.90899E+01 0.00000E+00
 -1      2564 3.85684E+01 1.99637E+01 0.00000E+00
 -1      2565 4.06002E+01 1.69396E+01 0.00000E+00
 -1      2566 4.01731E+01 1.78720E+01 0.00000E+00
 -1      2567 4.15206E+01 1.67612E+01 0.00000E+00
 -1      2568 4.20864E+01 1.06237E+01 0.00000E+00
 -1      2569 4.20511E+01 1.17262E+01 0.00000E+00
 -1      2570 4.17864E+01 1.27989E+01 0.00000E+00
 -1      2571 4.17143E+01 1.37963E+01 0.00000E+00
 -1      2572 3.96931E+01 5.22919E+00 0.00000E+00
 -1      2573 7.79400E+00 3.52687E+01 0.00000E+00
 -1      2574 6.49500E+00 3.60062E+01 0.00000E+00
 -1      2575 6.49500E+00 3.74750E+01 0.00000E+00
 -1      2576 1.77375E+01 7.33003E+00 0.00000E+00
 -1      2577 6.55950E+00 3.99453E+01 0.00000E+00
 -1      2578 2.29857E+01 5.87804E+00 0.00000E+00
 -1      2579 2.28794E+01 1.94564E+01 0.00000E+00
 -1      2580 2.04850E+01 6.89596E+00 0.00000E+00
 -1      2581 2.17395E+01 1.75132E+01 0.00000E+00
 -1      2582 4.28321E+01 8.97064E+00 0.00000E+00
 -1      2583 4.24593E+01 9.79718E+00 0.00000E+00
 -1      2584 4.33825E+01 1.03786E+01 0.00000E+00
 -1      2585 4.31625E+01 6.17327E+00 0.00000E+00
 -1      2586 1.42882E+02 5.12934E+00 0.00000E+00
 -1      2587 1.42169E+02 6.42834E+00 0.00000E+00
 -1      2588 1.42870E+02 9.61887E+00 0.00000E+00
 -1      2589 1.44169E+02 8.89387E+00 0.00000E+00
 -1      2590 1.44388E+02 7.61368E+00 0.00000E+00
 -1      2591 2.64882E+01 2.26687E+01 0.00000E+00
 -1      2592 4.22140E+01 1.45896E+01 0.00000E+00
 -1      2593 4.27449E+01 1.22778E+01 0.00000E+00
 -1      2594 2.44294E+01 2.11079E+01 0.00000E+00
 -1      2595 4.03518E+01 1.89115E+01 0.00000E+00
 -1      2596 4.05304E+01 1.99510E+01 0.00000E+00
 -1      2597 4.12722E+01 1.87331E+01 0.00000E+00
 -1      2598 3.64575E+01 2.24693E+01 0.00000E+00
 -1      2599 3.40215E+01 2.30495E+01 0.00000E+00
 -1      2600 3.16303E+01 2.34380E+01 0.00000E+00
 -1      2601 2.90565E+01 2.35259E+01 0.00000E+00
 -1      2602 3.86637E+01 2.11034E+01 0.00000E+00
 -1      2603 2.04609E+01 1.08464E+01 0.00000E+00
 -1      2604 2.35182E+01 5.14956E+00 0.00000E+00
 -1      2605 2.05528E+01 1.31470E+01 0.00000E+00
 -1      2606 4.04431E+01 6.25432E+00 0.00000E+00
 -1      2607 9.09300E+00 1.98250E+01 0.00000E+00
 -1      2608 9.09300E+00 2.12750E+01 0.00000E+00
 -1      2609 9.09300E+00 2.27500E+01 0.00000E+00
 -1      2610 9.09300E+00 2.42250E+01 0.00000E+00
 -1      2611 1.03920E+01 2.20250E+01 0.00000E+00
 -1      2612 9.09300E+00 1.39375E+01 0.00000E+00
 -1      2613 9.09300E+00 1.54125E+01 0.00000E+00
 -1      2614 9.09300E+00 1.09875E+01 0.00000E+00
 -1      2615 9.09300E+00 1.24625E+01 0.00000E+00
 -1      2616 1.03920E+01 1.32000E+01 0.00000E+00
 -1      2617 9.53362E+00 8.70580E+00 0.00000E+00
 -1      2618 9.23213E+00 9.96930E+00 0.00000E+00
 -1      2619 1.05311E+01 1.07068E+01 0.00000E+00
 -1      2620 1.08094E+01 8.67040E+00 0.00000E+00
 -1      2621 5.58750E+01 7.74615E+00 0.00000E+00
 -1      2622 5.43750E+01 7.74615E+00 0.00000E+00
 -1      2623 8.85168E+00 4.05347E+01 0.00000E+00
 -1      2624 1.02152E+01 4.07987E+01 0.00000E+00
 -1      2625 5.88750E+01 7.74615E+00 0.00000E+00
 -1      2626 5.73750E+01 7.74615E+00 0.00000E+00
 -1      2627 5.66250E+01 9.04515E+00 0.00000E+00
 -1      2628 1.44000E+01 4.09070E+01 0.00000E+00
 -1      2629 1.59000E+01 4.09070E+01 0.00000E+00
 -1      2630 1.74000E+01 4.09070E+01 0.00000E+00
 -1      2631 1.89000E+01 4.09070E+01 0.00000E+00
 -1      2632 1.66500E+01 3.96080E+01 0.00000E+00
 -1      2633 2.04000E+01 4.09070E+01 0.00000E+00
 -1      2634 2.19000E+01 4.09070E+01 0.00000E+00
 -1      2635 1.96500E+01 3.96080E+01 0.00000E+00
 -1      2636 2.34000E+01 4.09070E+01 0.00000E+00
 -1      2637 2.49000E+01 4.09070E+01 0.00000E+00
 -1      2638 2.26500E+01 3.96080E+01 0.00000E+00
 -1      2639 2.64000E+01 4.09070E+01 0.00000E+00
 -1      2640 2.79000E+01 4.09070E+01 0.00000E+00
 -1      2641 2.56500E+01 3.96080E+01 0.00000E+00
 -1      2642 2.94000E+01 4.09070E+01 0.00000E+00
 -1      2643 3.09000E+01 4.09070E+01 0.00000E+00
 -1      2644 2.86500E+01 3.96080E+01 0.00000E+00
 -1      2645 3.24000E+01 4.09070E+01 0.00000E+00
 -1      2646 3.39000E+01 4.09070E+01 0.00000E+00
 -1      2647 3.16500E+01 3.96080E+01 0.00000E+00
 -1      2648 3.54000E+01 4.09070E+01 0.00000E+00
 -1      2649 3.69000E+01 4.09070E+01 0.00000E+00
 -1      2650 3.46500E+01 3.96080E+01 0.00000E+00
 -1      2651 3.84000E+01 4.09070E+01 0.00000E+00
 -1      2652 3.99000E+01 4.09070E+01 0.00000E+00
 -1      2653 3.76500E+01 3.96080E+01 0.00000E+00
 -1      2654 4.14000E+01 4.09070E+01 0.00000E+00
 -1      2655 4.29000E+01 4.09070E+01 0.00000E+00
 -1      2656 4.06500E+01 3.96080E+01 0.00000E+00
 -1      2657 4.44000E+01 4.09070E+01 0.00000E+00
 -1      2658 4.59000E+01 4.09070E+01 0.00000E+00
 -1      2659 4.36500E+01 3.96080E+01 0.00000E+00
 -1      2660 4.74000E+01 4.09070E+01 0.00000E+00
 -1      2661 4.89000E+01 4.09070E+01 0.00000E+00
 -1      2662 4.66500E+01 3.96080E+01 0.00000E+00
 -1      2663 5.04000E+01 4.09070E+01 0.00000E+00
 -1      2664 5.19000E+01 4.09070E+01 0.00000E+00
 -1      2665 4.96500E+01 3.96080E+01 0.00000E+00
 -1      2666 5.34000E+01 4.09070E+01 0.00000E+00
 -1      2667 5.49000E+01 4.09070E+01 0.00000E+00
 -1      2668 5.26500E+01 3.96080E+01 0.00000E+00
 -1      2669 5.64000E+01 4.09070E+01 0.00000E+00
 -1      2670 5.79000E+01 4.09070E+01 0.00000E+00
 -1      2671 5.56500E+01 3.96080E+01 0.00000E+00
 -1      2672 5.94000E+01 4.09070E+01 0.00000E+00
 -1      2673 6.09000E+01 4.09070E+01 0.00000E+00
 -1      2674 5.86500E+01 3.96080E+01 0.00000E+00
 -1      2675 6.24000E+01 4.09070E+01 0.00000E+00
 -1      2676 6.39000E+01 4.09070E+01 0.00000E+00
 -1      2677 6.16500E+01 3.96080E+01 0.00000E+00
 -1      2678 6.54000E+01 4.09070E+01 0.00000E+00
 -1      2679 6.69000E+01 4.09070E+01 0.00000E+00
 -1      2680 6.46500E+01 3.96080E+01 0.00000E+00
 -1      2681 6.84000E+01 4.09070E+01 0.00000E+00
 -1      2682 6.99000E+01 4.09070E+01 0.00000E+00
 -1      2683 6.76500E+01 3.96080E+01 0.00000E+00
 -1      2684 7.14000E+01 4.09070E+01 0.00000E+00
 -1      2685 7.29000E+01 4.09070E+01 0.00000E+00
 -1      2686 7.06500E+01 3.96080E+01 0.00000E+00
 -1      2687 7.44000E+01 4.09070E+01 0.00000E+00
 -1      2688 7.59000E+01 4.09070E+01 0.00000E+00
 -1      2689 7.36500E+01 3.96080E+01 0.00000E+00
 -1      2690 7.74000E+01 4.09070E+01 0.00000E+00
 -1      2691 7.89000E+01 4.09070E+01 0.00000E+00
 -1      2692 7.66500E+01 3.96080E+01 0.00000E+00
 -1      2693 8.04000E+01 4.09070E+01 0.00000E+00
 -1      2694 8.19000E+01 4.09070E+01 0.00000E+00
 -1      2695 7.96500E+01 3.96080E+01 0.00000E+00
 -1      2696 8.34000E+01 4.09070E+01 0.00000E+00
 -1      2697 8.49000E+01 4.09070E+01 0.00000E+00
 -1      2698 8.26500E+01 3.96080E+01 0.00000E+00
 -1      2699 8.64000E+01 4.09070E+01 0.00000E+00
 -1      2700 8.79000E+01 4.09070E+01 0.00000E+00
 -1      2701 8.56500E+01 3.96080E+01 0.00000E+00
 -1      2702 8.94000E+01 4.09070E+01 0.00000E+00
 -1      2703 9.09000E+01 4.09070E+01 0.00000E+00
 -1      2704 8.86500E+01 3.96080E+01 0.00000E+00
 -1      2705 9.24000E+01 4.09070E+01 0.00000E+00
 -1      2706 9.39000E+01 4.09070E+01 0.00000E+00
 -1      2707 9.16500E+01 3.96080E+01 0.00000E+00
 -1      2708 9.54000E+01 4.09070E+01 0.00000E+00
 -1      2709 9.69000E+01 4.09070E+01 0.00000E+00
 -1      2710 9.46500E+01 3.96080E+01 0.00000E+00
 -1      2711 9.84000E+01 4.09070E+01 0.00000E+00
 -1      2712 9.99000E+01 4.09070E+01 0.00000E+00
 -1      2713 9.76500E+01 3.96080E+01 0.00000E+00
 -1      2714 1.01400E+02 4.09070E+01 0.00000E+00
 -1      2715 1.02900E+02 4.09070E+01 0.00000E+00
 -1      2716 1.00650E+02 3.96080E+01 0.00000E+00
 -1      2717 1.04400E+02 4.09070E+01 0.00000E+00
 -1      2718 1.05900E+02 4.09070E+01 0.00000E+00
 -1      2719 1.03650E+02 3.96080E+01 0.00000E+00
 -1      2720 1.07400E+02 4.09070E+01 0.00000E+00
 -1      2721 1.08900E+02 4.09070E+01 0.00000E+00
 -1      2722 1.06650E+02 3.96080E+01 0.00000E+00
 -1      2723 1.10400E+02 4.09070E+01 0.00000E+00
 -1      2724 1.11900E+02 4.09070E+01 0.00000E+00
 -1      2725 1.09650E+02 3.96080E+01 0.00000E+00
 -1      2726 1.13400E+02 4.09070E+01 0.00000E+00
 -1      2727 1.14900E+02 4.09070E+01 0.00000E+00
 -1      2728 1.12650E+02 3.96080E+01 0.00000E+00
 -1      2729 1.16400E+02 4.09070E+01 0.00000E+00
 -1      2730 1.17900E+02 4.09070E+01 0.00000E+00
 -1      2731 1.15650E+02 3.96080E+01 0.00000E+00
 -1      2732 1.19400E+02 4.09070E+01 0.00000E+00
 -1      2733 1.20900E+02 4.09070E+01 0.00000E+00
 -1      2734 1.18650E+02 3.96080E+01 0.00000E+00
 -1      2735 1.22400E+02 4.09070E+01 0.00000E+00
 -1      2736 1.23900E+02 4.09070E+01 0.00000E+00
 -1      2737 1.21650E+02 3.96080E+01 0.00000E+00
 -1      2738 1.25400E+02 4.09070E+01 0.00000E+00
 -1      2739 1.26900E+02 4.09070E+01 0.00000E+00
 -1      2740 1.24650E+02 3.96080E+01 0.00000E+00
 -1      2741 1.28400E+02 4.09070E+01 0.00000E+00
 -1      2742 1.29900E+02 4.09070E+01 0.00000E+00
 -1      2743 1.27650E+02 3.96080E+01 0.00000E+00
 -1      2744 1.31400E+02 4.09070E+01 0.00000E+00
 -1      2745 1.32900E+02 4.09070E+01 0.00000E+00
 -1      2746 1.30650E+02 3.96080E+01 0.00000E+00
 -1      2747 1.34400E+02 4.09070E+01 0.00000E+00
 -1      2748 1.35900E+02 4.09070E+01 0.00000E+00
 -1      2749 1.33650E+02 3.96080E+01 0.00000E+00
 -1      2750 1.37400E+02 4.09070E+01 0.00000E+00
 -1      2751 1.38900E+02 4.09070E+01 0.00000E+00
 -1      2752 1.36650E+02 3.96080E+01 0.00000E+00
 -1      2753 1.40038E+02 4.09708E+01 0.00000E+00
 -1      2754 1.41489E+02 4.09232E+01 0.00000E+00
 -1      2755 1.41564E+02 3.97994E+01 0.00000E+00
 -1      2756 1.39288E+02 3.96718E+01 0.00000E+00
 -1      2757 7.48818E+00 3.88019E+01 0.00000E+00
 -1      2758 2.10839E+01 1.84138E+01 0.00000E+00
 -1      2759 2.06449E+01 1.73062E+01 0.00000E+00
 -1      2760 2.65994E+01 2.38427E+01 0.00000E+00
 -1      2761 2.53897E+01 2.30977E+01 0.00000E+00
 -1      2762 5.28750E+01 7.74615E+00 0.00000E+00
 -1      2763 5.13750E+01 7.74615E+00 0.00000E+00
 -1      2764 5.36250E+01 9.04515E+00 0.00000E+00
 -1      2765 6.18750E+01 7.74615E+00 0.00000E+00
 -1      2766 6.03750E+01 7.74615E+00 0.00000E+00
 -1      2767 5.96250E+01 9.04515E+00 0.00000E+00
 -1      2768 6.48750E+01 7.74615E+00 0.00000E+00
 -1      2769 6.33750E+01 7.74615E+00 0.00000E+00
 -1      2770 6.26250E+01 9.04515E+00 0.00000E+00
 -1      2771 6.78750E+01 7.74615E+00 0.00000E+00
 -1      2772 6.63750E+01 7.74615E+00 0.00000E+00
 -1      2773 6.56250E+01 9.04515E+00 0.00000E+00
 -1      2774 7.08750E+01 7.74615E+00 0.00000E+00
 -1      2775 6.93750E+01 7.74615E+00 0.00000E+00
 -1      2776 6.86250E+01 9.04515E+00 0.00000E+00
 -1      2777 7.37250E+01 7.74615E+00 0.00000E+00
 -1      2778 7.23000E+01 7.74615E+00 0.00000E+00
 -1      2779 7.15500E+01 9.04515E+00 0.00000E+00
 -1      2780 7.67250E+01 7.74615E+00 0.00000E+00
 -1      2781 7.52250E+01 7.74615E+00 0.00000E+00
 -1      2782 7.44750E+01 9.04515E+00 0.00000E+00
 -1      2783 7.97250E+01 7.74615E+00 0.00000E+00
 -1      2784 7.82250E+01 7.74615E+00 0.00000E+00
 -1      2785 7.74750E+01 9.04515E+00 0.00000E+00
 -1      2786 8.27250E+01 7.74615E+00 0.00000E+00
 -1      2787 8.12250E+01 7.74615E+00 0.00000E+00
 -1      2788 8.04750E+01 9.04515E+00 0.00000E+00
 -1      2789 8.57250E+01 7.74615E+00 0.00000E+00
 -1      2790 8.42250E+01 7.74615E+00 0.00000E+00
 -1      2791 8.34750E+01 9.04515E+00 0.00000E+00
 -1      2792 8.87250E+01 7.74615E+00 0.00000E+00
 -1      2793 8.72250E+01 7.74615E+00 0.00000E+00
 -1      2794 8.64750E+01 9.04515E+00 0.00000E+00
 -1      2795 9.17250E+01 7.74615E+00 0.00000E+00
 -1      2796 9.02250E+01 7.74615E+00 0.00000E+00
 -1      2797 8.94750E+01 9.04515E+00 0.00000E+00
 -1      2798 9.47250E+01 7.74615E+00 0.00000E+00
 -1      2799 9.32250E+01 7.74615E+00 0.00000E+00
 -1      2800 9.24750E+01 9.04515E+00 0.00000E+00
 -1      2801 9.75750E+01 7.74615E+00 0.00000E+00
 -1      2802 9.61500E+01 7.74615E+00 0.00000E+00
 -1      2803 9.54000E+01 9.04515E+00 0.00000E+00
 -1      2804 1.00575E+02 7.74615E+00 0.00000E+00
 -1      2805 9.90750E+01 7.74615E+00 0.00000E+00
 -1      2806 9.83250E+01 9.04515E+00 0.00000E+00
 -1      2807 1.03575E+02 7.74615E+00 0.00000E+00
 -1      2808 1.02075E+02 7.74615E+00 0.00000E+00
 -1      2809 1.01325E+02 9.04515E+00 0.00000E+00
 -1      2810 1.06575E+02 7.74615E+00 0.00000E+00
 -1      2811 1.05075E+02 7.74615E+00 0.00000E+00
 -1      2812 1.04325E+02 9.04515E+00 0.00000E+00
 -1      2813 1.09575E+02 7.74615E+00 0.00000E+00
 -1      2814 1.08075E+02 7.74615E+00 0.00000E+00
 -1      2815 1.07325E+02 9.04515E+00 0.00000E+00
 -1      2816 1.12575E+02 7.74615E+00 0.00000E+00
 -1      2817 1.11075E+02 7.74615E+00 0.00000E+00
 -1      2818 1.10325E+02 9.04515E+00 0.00000E+00
 -1      2819 1.15575E+02 7.74615E+00 0.00000E+00
 -1      2820 1.14075E+02 7.74615E+00 0.00000E+00
 -1      2821 1.13325E+02 9.04515E+00 0.00000E+00
 -1      2822 1.18575E+02 7.74615E+00 0.00000E+00
 -1      2823 1.17075E+02 7.74615E+00 0.00000E+00
 -1      2824 1.16325E+02 9.04515E+00 0.00000E+00
 -1      2825 1.21425E+02 7.74615E+00 0.00000E+00
 -1      2826 1.20000E+02 7.74615E+00 0.00000E+00
 -1      2827 1.19250E+02 9.04515E+00 0.00000E+00
 -1      2828 1.24425E+02 7.74615E+00 0.00000E+00
 -1      2829 1.22925E+02 7.74615E+00 0.00000E+00
 -1      2830 1.22175E+02 9.04515E+00 0.00000E+00
 -1      2831 1.27425E+02 7.74615E+00 0.00000E+00
 -1      2832 1.25925E+02 7.74615E+00 0.00000E+00
 -1      2833 1.25175E+02 9.04515E+00 0.00000E+00
 -1      2834 1.30425E+02 7.74615E+00 0.00000E+00
 -1      2835 1.28925E+02 7.74615E+00 0.00000E+00
 -1      2836 1.28175E+02 9.04515E+00 0.00000E+00
 -1      2837 1.33425E+02 7.74615E+00 0.00000E+00
 -1      2838 1.31925E+02 7.74615E+00 0.00000E+00
 -1      2839 1.31175E+02 9.04515E+00 0.00000E+00
 -1      2840 1.36425E+02 7.74615E+00 0.00000E+00
 -1      2841 1.34925E+02 7.74615E+00 0.00000E+00
 -1      2842 1.34175E+02 9.04515E+00 0.00000E+00
 -1      2843 1.39425E+02 7.74615E+00 0.00000E+00
 -1      2844 1.37925E+02 7.74615E+00 0.00000E+00
 -1      2845 1.37175E+02 9.04515E+00 0.00000E+00
 -1      2846 1.41563E+02 1.03530E+01 0.00000E+00
 -1      2847 1.41580E+02 8.85622E+00 0.00000E+00
 -1      2848 1.41555E+02 1.62782E+01 0.00000E+00
 -1      2849 1.41555E+02 1.48032E+01 0.00000E+00
 -1      2850 1.41555E+02 1.33282E+01 0.00000E+00
 -1      2851 1.41555E+02 1.18532E+01 0.00000E+00
 -1      2852 1.40256E+02 1.40657E+01 0.00000E+00
 -1      2853 1.41555E+02 1.92282E+01 0.00000E+00
 -1      2854 1.41555E+02 1.77532E+01 0.00000E+00
 -1      2855 1.40256E+02 1.70157E+01 0.00000E+00
 -1      2856 1.41555E+02 2.51282E+01 0.00000E+00
 -1      2857 1.41555E+02 2.36532E+01 0.00000E+00
 -1      2858 1.41555E+02 2.80782E+01 0.00000E+00
 -1      2859 1.41555E+02 2.66032E+01 0.00000E+00
 -1      2860 1.40256E+02 2.58657E+01 0.00000E+00
 -1      2861 1.41555E+02 3.09782E+01 0.00000E+00
 -1      2862 1.41555E+02 2.95282E+01 0.00000E+00
 -1      2863 1.40256E+02 2.87907E+01 0.00000E+00
 -1      2864 1.41555E+02 3.39282E+01 0.00000E+00
 -1      2865 1.41555E+02 3.24532E+01 0.00000E+00
 -1      2866 1.40256E+02 3.17157E+01 0.00000E+00
 -1      2867 1.41555E+02 3.68782E+01 0.00000E+00
 -1      2868 1.41555E+02 3.54032E+01 0.00000E+00
 -1      2869 1.40256E+02 3.46657E+01 0.00000E+00
 -1      2870 4.13182E+01 6.49187E+00 0.00000E+00
 -1      2871 4.25138E+01 1.66520E+01 0.00000E+00
 -1      2872 4.20868E+01 1.75845E+01 0.00000E+00
 -1      2873 4.68750E+01 7.72363E+00 0.00000E+00
 -1      2874 4.53750E+01 7.72363E+00 0.00000E+00
 -1      2875 1.56375E+01 8.60651E+00 0.00000E+00
 -1      2876 1.42125E+01 8.60651E+00 0.00000E+00
 -1      2877 2.14223E+01 8.74730E+00 0.00000E+00
 -1      2878 2.11711E+01 7.49854E+00 0.00000E+00
 -1      2879 1.85990E+01 8.13062E+00 0.00000E+00
 -1      2880 1.72115E+01 8.38197E+00 0.00000E+00
 -1      2881 2.42018E+01 2.21946E+01 0.00000E+00
 -1      2882 2.33526E+01 2.13787E+01 0.00000E+00
 -1      2883 1.98110E+01 7.68126E+00 0.00000E+00
 -1      2884 2.26517E+01 2.05431E+01 0.00000E+00
 -1      2885 2.19508E+01 1.97074E+01 0.00000E+00
 -1      2886 2.24241E+01 2.16298E+01 0.00000E+00
 -1      2887 2.04934E+01 8.98913E+00 0.00000E+00
 -1      2888 4.98750E+01 7.74615E+00 0.00000E+00
 -1      2889 4.83750E+01 7.74615E+00 0.00000E+00
 -1      2890 5.06250E+01 9.04515E+00 0.00000E+00
 -1      2891 1.41555E+02 2.21782E+01 0.00000E+00
 -1      2892 1.41555E+02 2.07032E+01 0.00000E+00
 -1      2893 1.40256E+02 1.99657E+01 0.00000E+00
 -1      2894 1.40256E+02 2.29157E+01 0.00000E+00
 -1      2895 9.09300E+00 1.68813E+01 0.00000E+00
 -1      2896 9.09300E+00 1.83563E+01 0.00000E+00
 -1      2897 1.03920E+01 1.90812E+01 0.00000E+00
 -1      2898 1.03920E+01 1.61437E+01 0.00000E+00
 -1      2899 1.98436E+01 1.38022E+01 0.00000E+00
 -1      2900 1.97229E+01 1.26535E+01 0.00000E+00
 -1      2901 3.47452E+01 2.38020E+01 0.00000E+00
 -1      2902 3.35691E+01 2.39904E+01 0.00000E+00
 -1      2903 9.09300E+00 3.15875E+01 0.00000E+00
 -1      2904 9.09300E+00 3.30625E+01 0.00000E+00
 -1      2905 2.03314E+01 1.62512E+01 0.00000E+00
 -1      2906 2.00179E+01 1.51962E+01 0.00000E+00
 -1      2907 1.96758E+01 1.71518E+01 0.00000E+00
 -1      2908 4.33494E+01 1.41854E+01 0.00000E+00
 -1      2909 4.30831E+01 1.54246E+01 0.00000E+00
 -1      2910 3.98121E+01 2.12723E+01 0.00000E+00
 -1      2911 3.88658E+01 2.22464E+01 0.00000E+00
 -1      2912 2.96584E+01 2.45202E+01 0.00000E+00
 -1      2913 2.82997E+01 2.44080E+01 0.00000E+00
 -1      2914 3.23773E+01 2.41841E+01 0.00000E+00
 -1      2915 3.11622E+01 2.43843E+01 0.00000E+00
 -1      2916 1.94217E+01 1.13967E+01 0.00000E+00
 -1      2917 1.94505E+01 1.02448E+01 0.00000E+00
 -1      2918 3.74168E+01 2.33323E+01 0.00000E+00
 -1      2919 3.61569E+01 2.37241E+01 0.00000E+00
 -1      2920 1.15576E+01 4.08528E+01 0.00000E+00
 -1      2921 1.30576E+01 4.08528E+01 0.00000E+00
 -1      2922 1.38076E+01 3.95538E+01 0.00000E+00
 -1      2923 1.11228E+01 3.94455E+01 0.00000E+00
 -1      2924 4.38787E+01 1.20401E+01 0.00000E+00
 -1      2925 4.36140E+01 1.31128E+01 0.00000E+00
 -1      2926 4.44831E+01 1.39477E+01 0.00000E+00
 -1      2927 1.92851E+01 8.73320E+00 0.00000E+00
 -1      2928 1.03920E+01 2.49750E+01 0.00000E+00
 -1      2929 9.09300E+00 2.57000E+01 0.00000E+00
 -1      2930 9.09300E+00 2.71750E+01 0.00000E+00
 -1      2931 4.36492E+01 1.62479E+01 0.00000E+00
 -1      2932 4.17999E+01 6.94815E+00 0.00000E+00
 -1      2933 4.22862E+01 7.60059E+00 0.00000E+00
 -1      2934 8.78718E+00 3.80644E+01 0.00000E+00
 -1      2935 2.08563E+01 1.95005E+01 0.00000E+00
 -1      2936 4.32094E+01 8.18200E+00 0.00000E+00
 -1      2937 2.43129E+01 2.33686E+01 0.00000E+00
 -1      2938 9.09300E+00 3.45313E+01 0.00000E+00
 -1      2939 9.09300E+00 3.60000E+01 0.00000E+00
 -1      2940 1.03920E+01 3.37938E+01 0.00000E+00
 -1      2941 1.40224E+02 8.01875E+00 0.00000E+00
 -1      2942 1.39474E+02 9.31775E+00 0.00000E+00
 -1      2943 1.40264E+02 1.10905E+01 0.00000E+00
 -1      2944 1.43525E+02 7.26580E+00 0.00000E+00
 -1      2945 1.41531E+02 7.28461E+00 0.00000E+00
 -1      2946 3.85651E+01 2.35012E+01 0.00000E+00
 -1      2947 3.82644E+01 2.47560E+01 0.00000E+00
 -1      2948 3.97134E+01 2.36701E+01 0.00000E+00
 -1      2949 4.21817E+01 6.35567E+00 0.00000E+00
 -1      2950 4.76250E+01 9.02263E+00 0.00000E+00
 -1      2951 1.41640E+02 3.86756E+01 0.00000E+00
 -1      2952 2.72012E+01 2.48370E+01 0.00000E+00
 -1      2953 2.61028E+01 2.52660E+01 0.00000E+00
 -1      2954 2.78031E+01 2.58313E+01 0.00000E+00
 -1      2955 1.87125E+01 1.20519E+01 0.00000E+00
 -1      2956 3.31010E+01 2.49367E+01 0.00000E+00
 -1      2957 4.42515E+01 1.12136E+01 0.00000E+00
 -1      2958 4.51206E+01 1.20485E+01 0.00000E+00
 -1      2959 4.46244E+01 1.03870E+01 0.00000E+00
 -1      2960 3.04053E+01 2.52663E+01 0.00000E+00
 -1      2961 4.22654E+01 1.86240E+01 0.00000E+00
 -1      2962 4.07325E+01 2.10940E+01 0.00000E+00
 -1      2963 4.09345E+01 2.22369E+01 0.00000E+00
 -1      2964 4.16529E+01 2.09156E+01 0.00000E+00
 -1      2965 1.40341E+02 3.79381E+01 0.00000E+00
 -1      2966 1.64990E+01 9.40710E+00 0.00000E+00
 -1      2967 1.31488E+01 8.62075E+00 0.00000E+00
 -1      2968 1.18731E+01 8.65616E+00 0.00000E+00
 -1      2969 1.17339E+01 9.67436E+00 0.00000E+00
 -1      2970 1.38613E+01 9.64588E+00 0.00000E+00
 -1      2971 1.92814E+01 9.43849E+00 0.00000E+00
 -1      2972 3.57044E+01 2.46650E+01 0.00000E+00
 -1      2973 9.09300E+00 2.86437E+01 0.00000E+00
 -1      2974 9.09300E+00 3.01187E+01 0.00000E+00
 -1      2975 1.03920E+01 3.08563E+01 0.00000E+00
 -1      2976 1.03920E+01 2.79188E+01 0.00000E+00
 -1      2977 1.91880E+01 1.47028E+01 0.00000E+00
 -1      2978 1.82422E+01 9.98882E+00 0.00000E+00
 -1      2979 1.16685E+01 1.24625E+01 0.00000E+00
 -1      2980 1.16685E+01 1.39375E+01 0.00000E+00
 -1      2981 4.54480E+01 1.36168E+01 0.00000E+00
 -1      2982 4.51834E+01 1.46895E+01 0.00000E+00
 -1      2983 1.00862E+01 3.73269E+01 0.00000E+00
 -1      2984 5.73750E+01 1.03441E+01 0.00000E+00
 -1      2985 5.58750E+01 1.03441E+01 0.00000E+00
 -1      2986 1.38957E+02 1.48032E+01 0.00000E+00
 -1      2987 1.38957E+02 1.33282E+01 0.00000E+00
 -1      2988 1.59000E+01 3.83090E+01 0.00000E+00
 -1      2989 1.74000E+01 3.83090E+01 0.00000E+00
 -1      2990 1.89000E+01 3.83090E+01 0.00000E+00
 -1      2991 2.04000E+01 3.83090E+01 0.00000E+00
 -1      2992 1.81500E+01 3.70100E+01 0.00000E+00
 -1      2993 2.19000E+01 3.83090E+01 0.00000E+00
 -1      2994 2.34000E+01 3.83090E+01 0.00000E+00
 -1      2995 2.11500E+01 3.70100E+01 0.00000E+00
 -1      2996 2.49000E+01 3.83090E+01 0.00000E+00
 -1      2997 2.64000E+01 3.83090E+01 0.00000E+00
 -1      2998 2.41500E+01 3.70100E+01 0.00000E+00
 -1      2999 2.79000E+01 3.83090E+01 0.00000E+00
 -1      3000 2.94000E+01 3.83090E+01 0.00000E+00
 -1      3001 2.71500E+01 3.70100E+01 0.00000E+00
 -1      3002 3.09000E+01 3.83090E+01 0.00000E+00
 -1      3003 3.24000E+01 3.83090E+01 0.00000E+00
 -1      3004 3.01500E+01 3.70100E+01 0.00000E+00
 -1      3005 3.39000E+01 3.83090E+01 0.00000E+00
 -1      3006 3.54000E+01 3.83090E+01 0.00000E+00
 -1      3007 3.31500E+01 3.70100E+01 0.00000E+00
 -1      3008 3.69000E+01 3.83090E+01 0.00000E+00
 -1      3009 3.84000E+01 3.83090E+01 0.00000E+00
 -1      3010 3.61500E+01 3.70100E+01 0.00000E+00
 -1      3011 3.99000E+01 3.83090E+01 0.00000E+00
 -1      3012 4.14000E+01 3.83090E+01 0.00000E+00
 -1      3013 3.91500E+01 3.70100E+01 0.00000E+00
 -1      3014 4.29000E+01 3.83090E+01 0.00000E+00
 -1      3015 4.44000E+01 3.83090E+01 0.00000E+00
 -1      3016 4.21500E+01 3.70100E+01 0.00000E+00
 -1      3017 4.59000E+01 3.83090E+01 0.00000E+00
 -1      3018 4.74000E+01 3.83090E+01 0.00000E+00
 -1      3019 4.51500E+01 3.70100E+01 0.00000E+00
 -1      3020 4.89000E+01 3.83090E+01 0.00000E+00
 -1      3021 5.04000E+01 3.83090E+01 0.00000E+00
 -1      3022 4.81500E+01 3.70100E+01 0.00000E+00
 -1      3023 5.19000E+01 3.83090E+01 0.00000E+00
 -1      3024 5.34000E+01 3.83090E+01 0.00000E+00
 -1      3025 5.11500E+01 3.70100E+01 0.00000E+00
 -1      3026 5.49000E+01 3.83090E+01 0.00000E+00
 -1      3027 5.64000E+01 3.83090E+01 0.00000E+00
 -1      3028 5.41500E+01 3.70100E+01 0.00000E+00
 -1      3029 5.79000E+01 3.83090E+01 0.00000E+00
 -1      3030 5.94000E+01 3.83090E+01 0.00000E+00
 -1      3031 5.71500E+01 3.70100E+01 0.00000E+00
 -1      3032 6.09000E+01 3.83090E+01 0.00000E+00
 -1      3033 6.24000E+01 3.83090E+01 0.00000E+00
 -1      3034 6.01500E+01 3.70100E+01 0.00000E+00
 -1      3035 6.39000E+01 3.83090E+01 0.00000E+00
 -1      3036 6.54000E+01 3.83090E+01 0.00000E+00
 -1      3037 6.31500E+01 3.70100E+01 0.00000E+00
 -1      3038 6.69000E+01 3.83090E+01 0.00000E+00
 -1      3039 6.84000E+01 3.83090E+01 0.00000E+00
 -1      3040 6.61500E+01 3.70100E+01 0.00000E+00
 -1      3041 6.99000E+01 3.83090E+01 0.00000E+00
 -1      3042 7.14000E+01 3.83090E+01 0.00000E+00
 -1      3043 6.91500E+01 3.70100E+01 0.00000E+00
 -1      3044 7.29000E+01 3.83090E+01 0.00000E+00
 -1      3045 7.44000E+01 3.83090E+01 0.00000E+00
 -1      3046 7.21500E+01 3.70100E+01 0.00000E+00
 -1      3047 7.59000E+01 3.83090E+01 0.00000E+00
 -1      3048 7.74000E+01 3.83090E+01 0.00000E+00
 -1      3049 7.51500E+01 3.70100E+01 0.00000E+00
 -1      3050 7.89000E+01 3.83090E+01 0.00000E+00
 -1      3051 8.04000E+01 3.83090E+01 0.00000E+00
 -1      3052 7.81500E+01 3.70100E+01 0.00000E+00
 -1      3053 8.19000E+01 3.83090E+01 0.00000E+00
 -1      3054 8.34000E+01 3.83090E+01 0.00000E+00
 -1      3055 8.11500E+01 3.70100E+01 0.00000E+00
 -1      3056 8.49000E+01 3.83090E+01 0.00000E+00
 -1      3057 8.64000E+01 3.83090E+01 0.00000E+00
 -1      3058 8.41500E+01 3.70100E+01 0.00000E+00
 -1      3059 8.79000E+01 3.83090E+01 0.00000E+00
 -1      3060 8.94000E+01 3.83090E+01 0.00000E+00
 -1      3061 8.71500E+01 3.70100E+01 0.00000E+00
 -1      3062 9.09000E+01 3.83090E+01 0.00000E+00
 -1      3063 9.24000E+01 3.83090E+01 0.00000E+00
 -1      3064 9.01500E+01 3.70100E+01 0.00000E+00
 -1      3065 9.39000E+01 3.83090E+01 0.00000E+00
 -1      3066 9.54000E+01 3.83090E+01 0.00000E+00
 -1      3067 9.31500E+01 3.70100E+01 0.00000E+00
 -1      3068 9.69000E+01 3.83090E+01 0.00000E+00
 -1      3069 9.84000E+01 3.83090E+01 0.00000E+00
 -1      3070 9.61500E+01 3.70100E+01 0.00000E+00
 -1      3071 9.99000E+01 3.83090E+01 0.00000E+00
 -1      3072 1.01400E+02 3.83090E+01 0.00000E+00
 -1      3073 9.91500E+01 3.70100E+01 0.00000E+00
 -1      3074 1.02900E+02 3.83090E+01 0.00000E+00
 -1      3075 1.04400E+02 3.83090E+01 0.00000E+00
 -1      3076 1.02150E+02 3.70100E+01 0.00000E+00
 -1      3077 1.05900E+02 3.83090E+01 0.00000E+00
 -1      3078 1.07400E+02 3.83090E+01 0.00000E+00
 -1      3079 1.05150E+02 3.70100E+01 0.00000E+00
 -1      3080 1.08900E+02 3.83090E+01 0.00000E+00
 -1      3081 1.10400E+02 3.83090E+01 0.00000E+00
 -1      3082 1.08150E+02 3.70100E+01 0.00000E+00
 -1      3083 1.11900E+02 3.83090E+01 0.00000E+00
 -1      3084 1.13400E+02 3.83090E+01 0.00000E+00
 -1      3085 1.11150E+02 3.70100E+01 0.00000E+00
 -1      3086 1.14900E+02 3.83090E+01 0.00000E+00
 -1      3087 1.16400E+02 3.83090E+01 0.00000E+00
 -1      3088 1.14150E+02 3.70100E+01 0.00000E+00
 -1      3089 1.17900E+02 3.83090E+01 0.00000E+00
 -1      3090 1.19400E+02 3.83090E+01 0.00000E+00
 -1      3091 1.17150E+02 3.70100E+01 0.00000E+00
 -1      3092 1.20900E+02 3.83090E+01 0.00000E+00
 -1      3093 1.22400E+02 3.83090E+01 0.00000E+00
 -1      3094 1.20150E+02 3.70100E+01 0.00000E+00
 -1      3095 1.23900E+02 3.83090E+01 0.00000E+00
 -1      3096 1.25400E+02 3.83090E+01 0.00000E+00
 -1      3097 1.23150E+02 3.70100E+01 0.00000E+00
 -1      3098 1.26900E+02 3.83090E+01 0.00000E+00
 -1      3099 1.28400E+02 3.83090E+01 0.00000E+00
 -1      3100 1.26150E+02 3.70100E+01 0.00000E+00
 -1      3101 1.29900E+02 3.83090E+01 0.00000E+00
 -1      3102 1.31400E+02 3.83090E+01 0.00000E+00
 -1      3103 1.29150E+02 3.70100E+01 0.00000E+00
 -1      3104 1.32900E+02 3.83090E+01 0.00000E+00
 -1      3105 1.34400E+02 3.83090E+01 0.00000E+00
 -1      3106 1.32150E+02 3.70100E+01 0.00000E+00
 -1      3107 1.35900E+02 3.83090E+01 0.00000E+00
 -1      3108 1.37400E+02 3.83090E+01 0.00000E+00
 -1      3109 1.35150E+02 3.70100E+01 0.00000E+00
 -1      3110 1.39203E+02 3.78743E+01 0.00000E+00
 -1      3111 5.43750E+01 1.03441E+01 0.00000E+00
 -1      3112 5.28750E+01 1.03441E+01 0.00000E+00
 -1      3113 5.51250E+01 1.16431E+01 0.00000E+00
 -1      3114 2.04382E+01 2.07180E+01 0.00000E+00
 -1      3115 1.95712E+01 1.94244E+01 0.00000E+00
 -1      3116 6.63750E+01 1.03441E+01 0.00000E+00
 -1      3117 6.48750E+01 1.03441E+01 0.00000E+00
 -1      3118 6.93750E+01 1.03441E+01 0.00000E+00
 -1      3119 6.78750E+01 1.03441E+01 0.00000E+00
 -1      3120 6.71250E+01 1.16431E+01 0.00000E+00
 -1      3121 7.22250E+01 1.03441E+01 0.00000E+00
 -1      3122 7.08000E+01 1.03441E+01 0.00000E+00
 -1      3123 7.00500E+01 1.16431E+01 0.00000E+00
 -1      3124 7.52250E+01 1.03441E+01 0.00000E+00
 -1      3125 7.37250E+01 1.03441E+01 0.00000E+00
 -1      3126 7.29750E+01 1.16431E+01 0.00000E+00
 -1      3127 7.82250E+01 1.03441E+01 0.00000E+00
 -1      3128 7.67250E+01 1.03441E+01 0.00000E+00
 -1      3129 7.59750E+01 1.16431E+01 0.00000E+00
 -1      3130 8.12250E+01 1.03441E+01 0.00000E+00
 -1      3131 7.97250E+01 1.03441E+01 0.00000E+00
 -1      3132 7.89750E+01 1.16431E+01 0.00000E+00
 -1      3133 8.42250E+01 1.03441E+01 0.00000E+00
 -1      3134 8.27250E+01 1.03441E+01 0.00000E+00
 -1      3135 8.19750E+01 1.16431E+01 0.00000E+00
 -1      3136 8.72250E+01 1.03441E+01 0.00000E+00
 -1      3137 8.57250E+01 1.03441E+01 0.00000E+00
 -1      3138 8.49750E+01 1.16431E+01 0.00000E+00
 -1      3139 9.02250E+01 1.03441E+01 0.00000E+00
 -1      3140 8.87250E+01 1.03441E+01 0.00000E+00
 -1      3141 8.79750E+01 1.16431E+01 0.00000E+00
 -1      3142 9.32250E+01 1.03441E+01 0.00000E+00
 -1      3143 9.17250E+01 1.03441E+01 0.00000E+00
 -1      3144 9.09750E+01 1.16431E+01 0.00000E+00
 -1      3145 9.60750E+01 1.03441E+01 0.00000E+00
 -1      3146 9.46500E+01 1.03441E+01 0.00000E+00
 -1      3147 9.39000E+01 1.16431E+01 0.00000E+00
 -1      3148 9.90750E+01 1.03441E+01 0.00000E+00
 -1      3149 9.75750E+01 1.03441E+01 0.00000E+00
 -1      3150 9.68250E+01 1.16431E+01 0.00000E+00
 -1      3151 1.02075E+02 1.03441E+01 0.00000E+00
 -1      3152 1.00575E+02 1.03441E+01 0.00000E+00
 -1      3153 9.98250E+01 1.16431E+01 0.00000E+00
 -1      3154 1.05075E+02 1.03441E+01 0.00000E+00
 -1      3155 1.03575E+02 1.03441E+01 0.00000E+00
 -1      3156 1.02825E+02 1.16431E+01 0.00000E+00
 -1      3157 1.08075E+02 1.03441E+01 0.00000E+00
 -1      3158 1.06575E+02 1.03441E+01 0.00000E+00
 -1      3159 1.05825E+02 1.16431E+01 0.00000E+00
 -1      3160 1.11075E+02 1.03441E+01 0.00000E+00
 -1      3161 1.09575E+02 1.03441E+01 0.00000E+00
 -1      3162 1.08825E+02 1.16431E+01 0.00000E+00
 -1      3163 1.14075E+02 1.03441E+01 0.00000E+00
 -1      3164 1.12575E+02 1.03441E+01 0.00000E+00
 -1      3165 1.11825E+02 1.16431E+01 0.00000E+00
 -1      3166 1.17075E+02 1.03441E+01 0.00000E+00
 -1      3167 1.15575E+02 1.03441E+01 0.00000E+00
 -1      3168 1.14825E+02 1.16431E+01 0.00000E+00
 -1      3169 1.19925E+02 1.03441E+01 0.00000E+00
 -1      3170 1.18500E+02 1.03441E+01 0.00000E+00
 -1      3171 1.17750E+02 1.16431E+01 0.00000E+00
 -1      3172 1.22925E+02 1.03441E+01 0.00000E+00
 -1      3173 1.21425E+02 1.03441E+01 0.00000E+00
 -1      3174 1.20675E+02 1.16431E+01 0.00000E+00
 -1      3175 1.25925E+02 1.03441E+01 0.00000E+00
 -1      3176 1.24425E+02 1.03441E+01 0.00000E+00
 -1      3177 1.23675E+02 1.16431E+01 0.00000E+00
 -1      3178 1.28925E+02 1.03441E+01 0.00000E+00
 -1      3179 1.27425E+02 1.03441E+01 0.00000E+00
 -1      3180 1.26675E+02 1.16431E+01 0.00000E+00
 -1      3181 1.31925E+02 1.03441E+01 0.00000E+00
 -1      3182 1.30425E+02 1.03441E+01 0.00000E+00
 -1      3183 1.29675E+02 1.16431E+01 0.00000E+00
 -1      3184 1.34925E+02 1.03441E+01 0.00000E+00
 -1      3185 1.33425E+02 1.03441E+01 0.00000E+00
 -1      3186 1.32675E+02 1.16431E+01 0.00000E+00
 -1      3187 1.39211E+02 1.20730E+01 0.00000E+00
 -1      3188 1.39220E+02 1.05729E+01 0.00000E+00
 -1      3189 1.38421E+02 1.03003E+01 0.00000E+00
 -1      3190 1.37912E+02 1.28105E+01 0.00000E+00
 -1      3191 1.38957E+02 1.77532E+01 0.00000E+00
 -1      3192 1.38957E+02 1.62782E+01 0.00000E+00
 -1      3193 1.37658E+02 1.55407E+01 0.00000E+00
 -1      3194 1.38957E+02 2.95157E+01 0.00000E+00
 -1      3195 1.38957E+02 2.80657E+01 0.00000E+00
 -1      3196 1.38957E+02 2.65907E+01 0.00000E+00
 -1      3197 1.38957E+02 2.51157E+01 0.00000E+00
 -1      3198 1.37658E+02 2.73157E+01 0.00000E+00
 -1      3199 1.38957E+02 3.54032E+01 0.00000E+00
 -1      3200 1.38957E+02 3.39282E+01 0.00000E+00
 -1      3201 2.41207E+01 2.48543E+01 0.00000E+00
 -1      3202 2.29328E+01 2.39511E+01 0.00000E+00
 -1      3203 3.38344E+01 2.56863E+01 0.00000E+00
 -1      3204 3.26426E+01 2.58799E+01 0.00000E+00
 -1      3205 4.49402E+01 9.27608E+00 0.00000E+00
 -1      3206 4.41902E+01 7.99960E+00 0.00000E+00
 -1      3207 4.58092E+01 1.01111E+01 0.00000E+00
 -1      3208 1.81748E+01 1.55373E+01 0.00000E+00
 -1      3209 1.80005E+01 1.41433E+01 0.00000E+00
 -1      3210 6.03750E+01 1.03441E+01 0.00000E+00
 -1      3211 5.88750E+01 1.03441E+01 0.00000E+00
 -1      3212 5.81250E+01 1.16431E+01 0.00000E+00
 -1      3213 3.12420E+01 2.61358E+01 0.00000E+00
 -1      3214 2.97382E+01 2.62718E+01 0.00000E+00
 -1      3215 1.38957E+02 3.24594E+01 0.00000E+00
 -1      3216 1.38957E+02 3.09844E+01 0.00000E+00
 -1      3217 1.37658E+02 3.02594E+01 0.00000E+00
 -1      3218 1.37658E+02 3.31969E+01 0.00000E+00
 -1      3219 6.33750E+01 1.03441E+01 0.00000E+00
 -1      3220 6.18750E+01 1.03441E+01 0.00000E+00
 -1      3221 6.41250E+01 1.16431E+01 0.00000E+00
 -1      3222 4.48638E+01 1.60654E+01 0.00000E+00
 -1      3223 4.42946E+01 1.72929E+01 0.00000E+00
 -1      3224 2.18607E+01 2.28141E+01 0.00000E+00
 -1      3225 2.11599E+01 2.19784E+01 0.00000E+00
 -1      3226 1.88499E+01 1.79713E+01 0.00000E+00
 -1      3227 1.85363E+01 1.69163E+01 0.00000E+00
 -1      3228 5.13750E+01 1.03441E+01 0.00000E+00
 -1      3229 4.98750E+01 1.03441E+01 0.00000E+00
 -1      3230 5.21250E+01 1.16431E+01 0.00000E+00
 -1      3231 1.16910E+01 2.12875E+01 0.00000E+00
 -1      3232 1.16910E+01 2.27625E+01 0.00000E+00
 -1      3233 3.64622E+01 2.55660E+01 0.00000E+00
 -1      3234 3.50505E+01 2.56439E+01 0.00000E+00
 -1      3235 1.76993E+01 1.28865E+01 0.00000E+00
 -1      3236 1.73980E+01 1.16297E+01 0.00000E+00
 -1      3237 1.66861E+01 1.37210E+01 0.00000E+00
 -1      3238 4.35089E+01 1.86427E+01 0.00000E+00
 -1      3239 4.26943E+01 1.97913E+01 0.00000E+00
 -1      3240 1.17708E+01 1.05593E+01 0.00000E+00
 -1      3241 1.16316E+01 1.15775E+01 0.00000E+00
 -1      3242 1.29081E+01 1.23150E+01 0.00000E+00
 -1      3243 1.28345E+01 1.05451E+01 0.00000E+00
 -1      3244 4.58287E+01 1.57345E+01 0.00000E+00
 -1      3245 4.83555E+01 1.03327E+01 0.00000E+00
 -1      3246 4.68555E+01 1.03102E+01 0.00000E+00
 -1      3247 1.14286E+01 3.73811E+01 0.00000E+00
 -1      3248 2.94764E+01 2.75704E+01 0.00000E+00
 -1      3249 2.86397E+01 2.67008E+01 0.00000E+00
 -1      3250 2.75413E+01 2.71298E+01 0.00000E+00
 -1      3251 1.38453E+02 3.65753E+01 0.00000E+00
 -1      3252 1.98748E+01 2.19023E+01 0.00000E+00
 -1      3253 4.47235E+01 1.84602E+01 0.00000E+00
 -1      3254 1.16910E+01 3.30594E+01 0.00000E+00
 -1      3255 1.16910E+01 3.45281E+01 0.00000E+00
 -1      3256 3.87588E+01 2.59037E+01 0.00000E+00
 -1      3257 3.76105E+01 2.57348E+01 0.00000E+00
 -1      3258 3.69566E+01 2.67137E+01 0.00000E+00
 -1      3259 1.38957E+02 2.07032E+01 0.00000E+00
 -1      3260 1.38957E+02 1.92282E+01 0.00000E+00
 -1      3261 1.37658E+02 1.84907E+01 0.00000E+00
 -1      3262 1.36921E+02 1.03003E+01 0.00000E+00
 -1      3263 1.36171E+02 1.15993E+01 0.00000E+00
 -1      3264 4.06338E+01 2.34917E+01 0.00000E+00
 -1      3265 4.03332E+01 2.47465E+01 0.00000E+00
 -1      3266 4.15543E+01 2.33133E+01 0.00000E+00
 -1      3267 1.16685E+01 1.54063E+01 0.00000E+00
 -1      3268 1.16685E+01 1.68750E+01 0.00000E+00
 -1      3269 1.29450E+01 1.46687E+01 0.00000E+00
 -1      3270 1.37154E+02 3.58378E+01 0.00000E+00
 -1      3271 2.16685E+01 2.42997E+01 0.00000E+00
 -1      3272 1.72290E+01 1.08234E+01 0.00000E+00
 -1      3273 1.56549E+01 1.10479E+01 0.00000E+00
 -1      3274 3.19755E+01 2.68854E+01 0.00000E+00
 -1      3275 1.84318E+01 1.91889E+01 0.00000E+00
 -1      3276 4.28964E+01 2.09343E+01 0.00000E+00
 -1      3277 6.11250E+01 1.16431E+01 0.00000E+00
 -1      3278 4.65397E+01 1.14212E+01 0.00000E+00
 -1      3279 1.73489E+01 1.63569E+01 0.00000E+00
 -1      3280 3.45922E+01 2.65872E+01 0.00000E+00
 -1      3281 1.38981E+01 1.05308E+01 0.00000E+00
 -1      3282 1.46281E+01 1.19471E+01 0.00000E+00
 -1      3283 2.47226E+01 2.58485E+01 0.00000E+00
 -1      3284 2.33424E+01 2.64310E+01 0.00000E+00
 -1      3285 2.53245E+01 2.68428E+01 0.00000E+00
 -1      3286 1.16910E+01 2.42375E+01 0.00000E+00
 -1      3287 1.16910E+01 2.57125E+01 0.00000E+00
 -1      3288 1.29900E+01 2.35000E+01 0.00000E+00
 -1      3289 4.91055E+01 1.16317E+01 0.00000E+00
 -1      3290 1.16797E+01 1.83469E+01 0.00000E+00
 -1      3291 1.16797E+01 1.98156E+01 0.00000E+00
 -1      3292 1.29787E+01 2.05531E+01 0.00000E+00
 -1      3293 1.29562E+01 1.76094E+01 0.00000E+00
 -1      3294 1.38957E+02 2.36469E+01 0.00000E+00
 -1      3295 1.38957E+02 2.21719E+01 0.00000E+00
 -1      3296 1.37658E+02 2.14344E+01 0.00000E+00
 -1      3297 1.37658E+02 2.43719E+01 0.00000E+00
 -1      3298 4.61803E+01 1.21057E+01 0.00000E+00
 -1      3299 4.58074E+01 1.29323E+01 0.00000E+00
 -1      3300 4.65077E+01 1.36740E+01 0.00000E+00
 -1      3301 4.72266E+01 1.23049E+01 0.00000E+00
 -1      3302 1.45576E+01 3.82548E+01 0.00000E+00
 -1      3303 1.53076E+01 3.69558E+01 0.00000E+00
 -1      3304 1.32152E+01 3.82007E+01 0.00000E+00
 -1      3305 1.16910E+01 3.01219E+01 0.00000E+00
 -1      3306 1.16910E+01 3.15906E+01 0.00000E+00
 -1      3307 1.29900E+01 3.23250E+01 0.00000E+00
 -1      3308 4.36442E+01 6.62955E+00 0.00000E+00
 -1      3309 7.37250E+01 1.29421E+01 0.00000E+00
 -1      3310 7.22250E+01 1.29421E+01 0.00000E+00
 -1      3311 1.21786E+01 3.60821E+01 0.00000E+00
 -1      3312 1.36359E+02 1.62782E+01 0.00000E+00
 -1      3313 1.36359E+02 1.48032E+01 0.00000E+00
 -1      3314 1.91083E+01 2.31780E+01 0.00000E+00
 -1      3315 1.83867E+01 2.19176E+01 0.00000E+00
 -1      3316 2.04000E+01 3.57110E+01 0.00000E+00
 -1      3317 2.19000E+01 3.57110E+01 0.00000E+00
 -1      3318 2.34000E+01 3.57110E+01 0.00000E+00
 -1      3319 2.49000E+01 3.57110E+01 0.00000E+00
 -1      3320 2.26500E+01 3.44120E+01 0.00000E+00
 -1      3321 2.64000E+01 3.57110E+01 0.00000E+00
 -1      3322 2.79000E+01 3.57110E+01 0.00000E+00
 -1      3323 2.56500E+01 3.44120E+01 0.00000E+00
 -1      3324 2.94000E+01 3.57110E+01 0.00000E+00
 -1      3325 3.09000E+01 3.57110E+01 0.00000E+00
 -1      3326 2.86500E+01 3.44120E+01 0.00000E+00
 -1      3327 3.24000E+01 3.57110E+01 0.00000E+00
 -1      3328 3.39000E+01 3.57110E+01 0.00000E+00
 -1      3329 3.16500E+01 3.44120E+01 0.00000E+00
 -1      3330 3.54000E+01 3.57110E+01 0.00000E+00
 -1      3331 3.69000E+01 3.57110E+01 0.00000E+00
 -1      3332 3.46500E+01 3.44120E+01 0.00000E+00
 -1      3333 3.84000E+01 3.57110E+01 0.00000E+00
 -1      3334 3.99000E+01 3.57110E+01 0.00000E+00
 -1      3335 3.76500E+01 3.44120E+01 0.00000E+00
 -1      3336 4.14000E+01 3.57110E+01 0.00000E+00
 -1      3337 4.29000E+01 3.57110E+01 0.00000E+00
 -1      3338 4.06500E+01 3.44120E+01 0.00000E+00
 -1      3339 4.44000E+01 3.57110E+01 0.00000E+00
 -1      3340 4.59000E+01 3.57110E+01 0.00000E+00
 -1      3341 4.36500E+01 3.44120E+01 0.00000E+00
 -1      3342 4.74000E+01 3.57110E+01 0.00000E+00
 -1      3343 4.89000E+01 3.57110E+01 0.00000E+00
 -1      3344 4.66500E+01 3.44120E+01 0.00000E+00
 -1      3345 5.04000E+01 3.57110E+01 0.00000E+00
 -1      3346 5.19000E+01 3.57110E+01 0.00000E+00
 -1      3347 4.96500E+01 3.44120E+01 0.00000E+00
 -1      3348 5.34000E+01 3.57110E+01 0.00000E+00
 -1      3349 5.49000E+01 3.57110E+01 0.00000E+00
 -1      3350 5.26500E+01 3.44120E+01 0.00000E+00
 -1      3351 5.64000E+01 3.57110E+01 0.00000E+00
 -1      3352 5.79000E+01 3.57110E+01 0.00000E+00
 -1      3353 5.56500E+01 3.44120E+01 0.00000E+00
 -1      3354 5.94000E+01 3.57110E+01 0.00000E+00
 -1      3355 6.09000E+01 3.57110E+01 0.00000E+00
 -1      3356 5.86500E+01 3.44120E+01 0.00000E+00
 -1      3357 6.24000E+01 3.57110E+01 0.00000E+00
 -1      3358 6.39000E+01 3.57110E+01 0.00000E+00
 -1      3359 6.16500E+01 3.44120E+01 0.00000E+00
 -1      3360 6.54000E+01 3.57110E+01 0.00000E+00
 -1      3361 6.69000E+01 3.57110E+01 0.00000E+00
 -1      3362 6.46500E+01 3.44120E+01 0.00000E+00
 -1      3363 6.84000E+01 3.57110E+01 0.00000E+00
 -1      3364 6.99000E+01 3.57110E+01 0.00000E+00
 -1      3365 6.76500E+01 3.44120E+01 0.00000E+00
 -1      3366 7.14000E+01 3.57110E+01 0.00000E+00
 -1      3367 7.29000E+01 3.57110E+01 0.00000E+00
 -1      3368 7.06500E+01 3.44120E+01 0.00000E+00
 -1      3369 7.44000E+01 3.57110E+01 0.00000E+00
 -1      3370 7.59000E+01 3.57110E+01 0.00000E+00
 -1      3371 7.36500E+01 3.44120E+01 0.00000E+00
 -1      3372 7.74000E+01 3.57110E+01 0.00000E+00
 -1      3373 7.89000E+01 3.57110E+01 0.00000E+00
 -1      3374 7.66500E+01 3.44120E+01 0.00000E+00
 -1      3375 8.04000E+01 3.57110E+01 0.00000E+00
 -1      3376 8.19000E+01 3.57110E+01 0.00000E+00
 -1      3377 7.96500E+01 3.44120E+01 0.00000E+00
 -1      3378 8.34000E+01 3.57110E+01 0.00000E+00
 -1      3379 8.49000E+01 3.57110E+01 0.00000E+00
 -1      3380 8.26500E+01 3.44120E+01 0.00000E+00
 -1      3381 8.64000E+01 3.57110E+01 0.00000E+00
 -1      3382 8.79000E+01 3.57110E+01 0.00000E+00
 -1      3383 8.56500E+01 3.44120E+01 0.00000E+00
 -1      3384 8.94000E+01 3.57110E+01 0.00000E+00
 -1      3385 9.09000E+01 3.57110E+01 0.00000E+00
 -1      3386 8.86500E+01 3.44120E+01 0.00000E+00
 -1      3387 9.24000E+01 3.57110E+01 0.00000E+00
 -1      3388 9.39000E+01 3.57110E+01 0.00000E+00
 -1      3389 9.16500E+01 3.44120E+01 0.00000E+00
 -1      3390 9.54000E+01 3.57110E+01 0.00000E+00
 -1      3391 9.69000E+01 3.57110E+01 0.00000E+00
 -1      3392 9.46500E+01 3.44120E+01 0.00000E+00
 -1      3393 9.84000E+01 3.57110E+01 0.00000E+00
 -1      3394 9.99000E+01 3.57110E+01 0.00000E+00
 -1      3395 9.76500E+01 3.44120E+01 0.00000E+00
 -1      3396 1.01400E+02 3.57110E+01 0.00000E+00
 -1      3397 1.02900E+02 3.57110E+01 0.00000E+00
 -1      3398 1.00650E+02 3.44120E+01 0.00000E+00
 -1      3399 1.04400E+02 3.57110E+01 0.00000E+00
 -1      3400 1.05900E+02 3.57110E+01 0.00000E+00
 -1      3401 1.03650E+02 3.44120E+01 0.00000E+00
 -1      3402 1.07400E+02 3.57110E+01 0.00000E+00
 -1      3403 1.08900E+02 3.57110E+01 0.00000E+00
 -1      3404 1.06650E+02 3.44120E+01 0.00000E+00
 -1      3405 1.10400E+02 3.57110E+01 0.00000E+00
 -1      3406 1.11900E+02 3.57110E+01 0.00000E+00
 -1      3407 1.09650E+02 3.44120E+01 0.00000E+00
 -1      3408 1.13400E+02 3.57110E+01 0.00000E+00
 -1      3409 1.14900E+02 3.57110E+01 0.00000E+00
 -1      3410 1.12650E+02 3.44120E+01 0.00000E+00
 -1      3411 1.16400E+02 3.57110E+01 0.00000E+00
 -1      3412 1.17900E+02 3.57110E+01 0.00000E+00
 -1      3413 1.15650E+02 3.44120E+01 0.00000E+00
 -1      3414 1.19400E+02 3.57110E+01 0.00000E+00
 -1      3415 1.20900E+02 3.57110E+01 0.00000E+00
 -1      3416 1.18650E+02 3.44120E+01 0.00000E+00
 -1      3417 1.22400E+02 3.57110E+01 0.00000E+00
 -1      3418 1.23900E+02 3.57110E+01 0.00000E+00
 -1      3419 1.21650E+02 3.44120E+01 0.00000E+00
 -1      3420 1.25400E+02 3.57110E+01 0.00000E+00
 -1      3421 1.26900E+02 3.57110E+01 0.00000E+00
 -1      3422 1.24650E+02 3.44120E+01 0.00000E+00
 -1      3423 1.28400E+02 3.57110E+01 0.00000E+00
 -1      3424 1.29900E+02 3.57110E+01 0.00000E+00
 -1      3425 1.27650E+02 3.44120E+01 0.00000E+00
 -1      3426 1.31400E+02 3.57110E+01 0.00000E+00
 -1      3427 1.32900E+02 3.57110E+01 0.00000E+00
 -1      3428 1.30650E+02 3.44120E+01 0.00000E+00
 -1      3429 1.34277E+02 3.57744E+01 0.00000E+00
 -1      3430 1.35777E+02 3.57744E+01 0.00000E+00
 -1      3431 1.36281E+02 3.46022E+01 0.00000E+00
 -1      3432 1.33527E+02 3.44754E+01 0.00000E+00
 -1      3433 7.08000E+01 1.29421E+01 0.00000E+00
 -1      3434 6.93750E+01 1.29421E+01 0.00000E+00
 -1      3435 7.15500E+01 1.42411E+01 0.00000E+00
 -1      3436 5.58750E+01 1.29421E+01 0.00000E+00
 -1      3437 5.43750E+01 1.29421E+01 0.00000E+00
 -1      3438 6.78750E+01 1.29421E+01 0.00000E+00
 -1      3439 6.63750E+01 1.29421E+01 0.00000E+00
 -1      3440 6.86250E+01 1.42411E+01 0.00000E+00
 -1      3441 7.67250E+01 1.29421E+01 0.00000E+00
 -1      3442 7.52250E+01 1.29421E+01 0.00000E+00
 -1      3443 7.44750E+01 1.42411E+01 0.00000E+00
 -1      3444 7.97250E+01 1.29421E+01 0.00000E+00
 -1      3445 7.82250E+01 1.29421E+01 0.00000E+00
 -1      3446 7.74750E+01 1.42411E+01 0.00000E+00
 -1      3447 8.27250E+01 1.29421E+01 0.00000E+00
 -1      3448 8.12250E+01 1.29421E+01 0.00000E+00
 -1      3449 8.04750E+01 1.42411E+01 0.00000E+00
 -1      3450 8.57250E+01 1.29421E+01 0.00000E+00
 -1      3451 8.42250E+01 1.29421E+01 0.00000E+00
 -1      3452 8.34750E+01 1.42411E+01 0.00000E+00
 -1      3453 8.87250E+01 1.29421E+01 0.00000E+00
 -1      3454 8.72250E+01 1.29421E+01 0.00000E+00
 -1      3455 8.64750E+01 1.42411E+01 0.00000E+00
 -1      3456 9.17250E+01 1.29421E+01 0.00000E+00
 -1      3457 9.02250E+01 1.29421E+01 0.00000E+00
 -1      3458 8.94750E+01 1.42411E+01 0.00000E+00
 -1      3459 9.45750E+01 1.29421E+01 0.00000E+00
 -1      3460 9.31500E+01 1.29421E+01 0.00000E+00
 -1      3461 9.24000E+01 1.42411E+01 0.00000E+00
 -1      3462 9.75750E+01 1.29421E+01 0.00000E+00
 -1      3463 9.60750E+01 1.29421E+01 0.00000E+00
 -1      3464 9.53250E+01 1.42411E+01 0.00000E+00
 -1      3465 1.00575E+02 1.29421E+01 0.00000E+00
 -1      3466 9.90750E+01 1.29421E+01 0.00000E+00
 -1      3467 9.83250E+01 1.42411E+01 0.00000E+00
 -1      3468 1.03575E+02 1.29421E+01 0.00000E+00
 -1      3469 1.02075E+02 1.29421E+01 0.00000E+00
 -1      3470 1.01325E+02 1.42411E+01 0.00000E+00
 -1      3471 1.06575E+02 1.29421E+01 0.00000E+00
 -1      3472 1.05075E+02 1.29421E+01 0.00000E+00
 -1      3473 1.04325E+02 1.42411E+01 0.00000E+00
 -1      3474 1.09575E+02 1.29421E+01 0.00000E+00
 -1      3475 1.08075E+02 1.29421E+01 0.00000E+00
 -1      3476 1.07325E+02 1.42411E+01 0.00000E+00
 -1      3477 1.12575E+02 1.29421E+01 0.00000E+00
 -1      3478 1.11075E+02 1.29421E+01 0.00000E+00
 -1      3479 1.10325E+02 1.42411E+01 0.00000E+00
 -1      3480 1.15575E+02 1.29421E+01 0.00000E+00
 -1      3481 1.14075E+02 1.29421E+01 0.00000E+00
 -1      3482 1.13325E+02 1.42411E+01 0.00000E+00
 -1      3483 1.18425E+02 1.29421E+01 0.00000E+00
 -1      3484 1.17000E+02 1.29421E+01 0.00000E+00
 -1      3485 1.16250E+02 1.42411E+01 0.00000E+00
 -1      3486 1.21425E+02 1.29421E+01 0.00000E+00
 -1      3487 1.19925E+02 1.29421E+01 0.00000E+00
 -1      3488 1.19175E+02 1.42411E+01 0.00000E+00
 -1      3489 1.24425E+02 1.29421E+01 0.00000E+00
 -1      3490 1.22925E+02 1.29421E+01 0.00000E+00
 -1      3491 1.22175E+02 1.42411E+01 0.00000E+00
 -1      3492 1.27425E+02 1.29421E+01 0.00000E+00
 -1      3493 1.25925E+02 1.29421E+01 0.00000E+00
 -1      3494 1.25175E+02 1.42411E+01 0.00000E+00
 -1      3495 1.30425E+02 1.29421E+01 0.00000E+00
 -1      3496 1.28925E+02 1.29421E+01 0.00000E+00
 -1      3497 1.28175E+02 1.42411E+01 0.00000E+00
 -1      3498 1.33425E+02 1.29421E+01 0.00000E+00
 -1      3499 1.31925E+02 1.29421E+01 0.00000E+00
 -1      3500 1.31175E+02 1.42411E+01 0.00000E+00
 -1      3501 1.35917E+02 1.28544E+01 0.00000E+00
 -1      3502 1.36359E+02 2.80532E+01 0.00000E+00
 -1      3503 1.36359E+02 2.65782E+01 0.00000E+00
 -1      3504 6.48750E+01 1.29421E+01 0.00000E+00
 -1      3505 6.33750E+01 1.29421E+01 0.00000E+00
 -1      3506 6.56250E+01 1.42411E+01 0.00000E+00
 -1      3507 3.28600E+01 2.77659E+01 0.00000E+00
 -1      3508 3.14594E+01 2.80218E+01 0.00000E+00
 -1      3509 2.12758E+01 2.57439E+01 0.00000E+00
 -1      3510 2.02038E+01 2.46069E+01 0.00000E+00
 -1      3511 5.28750E+01 1.29421E+01 0.00000E+00
 -1      3512 5.13750E+01 1.29421E+01 0.00000E+00
 -1      3513 5.36250E+01 1.42411E+01 0.00000E+00
 -1      3514 6.18750E+01 1.29421E+01 0.00000E+00
 -1      3515 6.03750E+01 1.29421E+01 0.00000E+00
 -1      3516 6.26250E+01 1.42411E+01 0.00000E+00
 -1      3517 4.42306E+01 2.11257E+01 0.00000E+00
 -1      3518 4.31892E+01 2.22500E+01 0.00000E+00
 -1      3519 5.88750E+01 1.29421E+01 0.00000E+00
 -1      3520 5.73750E+01 1.29421E+01 0.00000E+00
 -1      3521 5.66250E+01 1.42411E+01 0.00000E+00
 -1      3522 5.96250E+01 1.42411E+01 0.00000E+00
 -1      3523 1.76653E+01 2.04645E+01 0.00000E+00
 -1      3524 1.69440E+01 1.90115E+01 0.00000E+00
 -1      3525 1.68989E+01 2.17402E+01 0.00000E+00
 -1      3526 1.65381E+01 1.73064E+01 0.00000E+00
 -1      3527 1.61765E+01 1.59274E+01 0.00000E+00
 -1      3528 4.60747E+01 1.83432E+01 0.00000E+00
 -1      3529 4.52890E+01 1.96930E+01 0.00000E+00
 -1      3530 4.70687E+01 1.52974E+01 0.00000E+00
 -1      3531 4.67491E+01 1.66733E+01 0.00000E+00
 -1      3532 1.74000E+01 3.57110E+01 0.00000E+00
 -1      3533 1.89000E+01 3.57110E+01 0.00000E+00
 -1      3534 1.96500E+01 3.44120E+01 0.00000E+00
 -1      3535 3.52922E+01 2.76812E+01 0.00000E+00
 -1      3536 3.40761E+01 2.77236E+01 0.00000E+00
 -1      3537 3.35600E+01 2.88600E+01 0.00000E+00
 -1      3538 1.16910E+01 2.71844E+01 0.00000E+00
 -1      3539 1.16910E+01 2.86531E+01 0.00000E+00
 -1      3540 1.29900E+01 2.93875E+01 0.00000E+00
 -1      3541 5.00605E+01 1.26292E+01 0.00000E+00
 -1      3542 4.85410E+01 1.26178E+01 0.00000E+00
 -1      3543 4.81816E+01 1.33024E+01 0.00000E+00
 -1      3544 5.08105E+01 1.39282E+01 0.00000E+00
 -1      3545 1.34776E+01 3.53477E+01 0.00000E+00
 -1      3546 1.45725E+01 1.96842E+01 0.00000E+00
 -1      3547 1.45838E+01 2.11561E+01 0.00000E+00
 -1      3548 1.36359E+02 1.77532E+01 0.00000E+00
 -1      3549 1.35060E+02 1.70157E+01 0.00000E+00
 -1      3550 1.36359E+02 1.92282E+01 0.00000E+00
 -1      3551 3.03609E+01 2.84508E+01 0.00000E+00
 -1      3552 2.92625E+01 2.88799E+01 0.00000E+00
 -1      3553 3.12455E+01 2.93313E+01 0.00000E+00
 -1      3554 1.36281E+02 3.31335E+01 0.00000E+00
 -1      3555 4.00079E+01 2.60303E+01 0.00000E+00
 -1      3556 3.93540E+01 2.70092E+01 0.00000E+00
 -1      3557 1.87156E+01 2.46222E+01 0.00000E+00
 -1      3558 3.75888E+01 2.80190E+01 0.00000E+00
 -1      3559 3.64405E+01 2.78501E+01 0.00000E+00
 -1      3560 3.59244E+01 2.89865E+01 0.00000E+00
 -1      3561 1.34617E+02 1.35919E+01 0.00000E+00
 -1      3562 1.33867E+02 1.48909E+01 0.00000E+00
 -1      3563 4.28885E+01 2.35047E+01 0.00000E+00
 -1      3564 4.25878E+01 2.47595E+01 0.00000E+00
 -1      3565 4.42227E+01 2.36962E+01 0.00000E+00
 -1      3566 1.36359E+02 2.95219E+01 0.00000E+00
 -1      3567 1.35060E+02 2.87844E+01 0.00000E+00
 -1      3568 1.36359E+02 3.09907E+01 0.00000E+00
 -1      3569 1.35060E+02 2.58469E+01 0.00000E+00
 -1      3570 1.36359E+02 2.51094E+01 0.00000E+00
 -1      3571 1.36359E+02 2.36407E+01 0.00000E+00
 -1      3572 2.69978E+01 2.85819E+01 0.00000E+00
 -1      3573 2.61611E+01 2.77123E+01 0.00000E+00
 -1      3574 2.47810E+01 2.82948E+01 0.00000E+00
 -1      3575 1.46649E+01 1.28321E+01 0.00000E+00
 -1      3576 4.78049E+01 1.39576E+01 0.00000E+00
 -1      3577 4.74454E+01 1.46422E+01 0.00000E+00
 -1      3578 4.83658E+01 1.55810E+01 0.00000E+00
 -1      3579 4.91193E+01 1.42705E+01 0.00000E+00
 -1      3580 1.57413E+01 2.21857E+01 0.00000E+00
 -1      3581 1.41476E+01 2.30546E+01 0.00000E+00
 -1      3582 1.41476E+01 2.45296E+01 0.00000E+00
 -1      3583 1.64627E+01 2.36387E+01 0.00000E+00
 -1      3584 1.59213E+01 1.45688E+01 0.00000E+00
 -1      3585 1.56200E+01 1.33120E+01 0.00000E+00
 -1      3586 1.43324E+01 3.38479E+01 0.00000E+00
 -1      3587 1.48200E+01 3.54019E+01 0.00000E+00
 -1      3588 1.61624E+01 3.54560E+01 0.00000E+00
 -1      3589 4.55818E+01 2.10087E+01 0.00000E+00
 -1      3590 4.73146E+01 1.79061E+01 0.00000E+00
 -1      3591 1.57716E+01 1.85820E+01 0.00000E+00
 -1      3592 4.09283E+01 2.58519E+01 0.00000E+00
 -1      3593 1.43324E+01 3.23792E+01 0.00000E+00
 -1      3594 1.56748E+01 3.24333E+01 0.00000E+00
 -1      3595 1.43324E+01 3.09104E+01 0.00000E+00
 -1      3596 1.69124E+01 3.41570E+01 0.00000E+00
 -1      3597 1.39001E+01 1.36799E+01 0.00000E+00
 -1      3598 1.51104E+01 1.55184E+01 0.00000E+00
 -1      3599 1.39001E+01 1.51487E+01 0.00000E+00
 -1      3600 1.29900E+01 2.64469E+01 0.00000E+00
 -1      3601 2.24795E+01 2.77325E+01 0.00000E+00
 -1      3602 2.18777E+01 2.67382E+01 0.00000E+00
 -1      3603 2.04129E+01 2.70454E+01 0.00000E+00
 -1      3604 1.41553E+01 1.65072E+01 0.00000E+00
 -1      3605 7.52250E+01 1.55401E+01 0.00000E+00
 -1      3606 7.37250E+01 1.55401E+01 0.00000E+00
 -1      3607 2.49000E+01 3.31130E+01 0.00000E+00
 -1      3608 2.64000E+01 3.31130E+01 0.00000E+00
 -1      3609 3.09000E+01 3.31130E+01 0.00000E+00
 -1      3610 3.24000E+01 3.31130E+01 0.00000E+00
 -1      3611 3.39000E+01 3.31130E+01 0.00000E+00
 -1      3612 3.54000E+01 3.31130E+01 0.00000E+00
 -1      3613 3.31500E+01 3.18140E+01 0.00000E+00
 -1      3614 3.69000E+01 3.31130E+01 0.00000E+00
 -1      3615 3.84000E+01 3.31130E+01 0.00000E+00
 -1      3616 3.61500E+01 3.18140E+01 0.00000E+00
 -1      3617 3.99000E+01 3.31130E+01 0.00000E+00
 -1      3618 4.14000E+01 3.31130E+01 0.00000E+00
 -1      3619 3.91500E+01 3.18140E+01 0.00000E+00
 -1      3620 4.29000E+01 3.31130E+01 0.00000E+00
 -1      3621 4.44000E+01 3.31130E+01 0.00000E+00
 -1      3622 4.21500E+01 3.18140E+01 0.00000E+00
 -1      3623 4.59000E+01 3.31130E+01 0.00000E+00
 -1      3624 4.74000E+01 3.31130E+01 0.00000E+00
 -1      3625 4.51500E+01 3.18140E+01 0.00000E+00
 -1      3626 4.89000E+01 3.31130E+01 0.00000E+00
 -1      3627 5.04000E+01 3.31130E+01 0.00000E+00
 -1      3628 4.81500E+01 3.18140E+01 0.00000E+00
 -1      3629 5.19000E+01 3.31130E+01 0.00000E+00
 -1      3630 5.34000E+01 3.31130E+01 0.00000E+00
 -1      3631 5.11500E+01 3.18140E+01 0.00000E+00
 -1      3632 5.49000E+01 3.31130E+01 0.00000E+00
 -1      3633 5.64000E+01 3.31130E+01 0.00000E+00
 -1      3634 5.41500E+01 3.18140E+01 0.00000E+00
 -1      3635 5.79000E+01 3.31130E+01 0.00000E+00
 -1      3636 5.94000E+01 3.31130E+01 0.00000E+00
 -1      3637 5.71500E+01 3.18140E+01 0.00000E+00
 -1      3638 6.09000E+01 3.31130E+01 0.00000E+00
 -1      3639 6.24000E+01 3.31130E+01 0.00000E+00
 -1      3640 6.01500E+01 3.18140E+01 0.00000E+00
 -1      3641 6.39000E+01 3.31130E+01 0.00000E+00
 -1      3642 6.54000E+01 3.31130E+01 0.00000E+00
 -1      3643 6.31500E+01 3.18140E+01 0.00000E+00
 -1      3644 6.69000E+01 3.31130E+01 0.00000E+00
 -1      3645 6.84000E+01 3.31130E+01 0.00000E+00
 -1      3646 6.61500E+01 3.18140E+01 0.00000E+00
 -1      3647 6.99000E+01 3.31130E+01 0.00000E+00
 -1      3648 7.14000E+01 3.31130E+01 0.00000E+00
 -1      3649 6.91500E+01 3.18140E+01 0.00000E+00
 -1      3650 7.29000E+01 3.31130E+01 0.00000E+00
 -1      3651 7.44000E+01 3.31130E+01 0.00000E+00
 -1      3652 7.21500E+01 3.18140E+01 0.00000E+00
 -1      3653 7.59000E+01 3.31130E+01 0.00000E+00
 -1      3654 7.74000E+01 3.31130E+01 0.00000E+00
 -1      3655 7.51500E+01 3.18140E+01 0.00000E+00
 -1      3656 7.89000E+01 3.31130E+01 0.00000E+00
 -1      3657 8.04000E+01 3.31130E+01 0.00000E+00
 -1      3658 7.81500E+01 3.18140E+01 0.00000E+00
 -1      3659 8.19000E+01 3.31130E+01 0.00000E+00
 -1      3660 8.34000E+01 3.31130E+01 0.00000E+00
 -1      3661 8.11500E+01 3.18140E+01 0.00000E+00
 -1      3662 8.49000E+01 3.31130E+01 0.00000E+00
 -1      3663 8.64000E+01 3.31130E+01 0.00000E+00
 -1      3664 8.41500E+01 3.18140E+01 0.00000E+00
 -1      3665 8.79000E+01 3.31130E+01 0.00000E+00
 -1      3666 8.94000E+01 3.31130E+01 0.00000E+00
 -1      3667 8.71500E+01 3.18140E+01 0.00000E+00
 -1      3668 9.09000E+01 3.31130E+01 0.00000E+00
 -1      3669 9.24000E+01 3.31130E+01 0.00000E+00
 -1      3670 9.01500E+01 3.18140E+01 0.00000E+00
 -1      3671 9.39000E+01 3.31130E+01 0.00000E+00
 -1      3672 9.54000E+01 3.31130E+01 0.00000E+00
 -1      3673 9.31500E+01 3.18140E+01 0.00000E+00
 -1      3674 9.69000E+01 3.31130E+01 0.00000E+00
 -1      3675 9.84000E+01 3.31130E+01 0.00000E+00
 -1      3676 9.61500E+01 3.18140E+01 0.00000E+00
 -1      3677 9.99000E+01 3.31130E+01 0.00000E+00
 -1      3678 1.01400E+02 3.31130E+01 0.00000E+00
 -1      3679 9.91500E+01 3.18140E+01 0.00000E+00
 -1      3680 1.02900E+02 3.31130E+01 0.00000E+00
 -1      3681 1.04400E+02 3.31130E+01 0.00000E+00
 -1      3682 1.02150E+02 3.18140E+01 0.00000E+00
 -1      3683 1.05900E+02 3.31130E+01 0.00000E+00
 -1      3684 1.07400E+02 3.31130E+01 0.00000E+00
 -1      3685 1.05150E+02 3.18140E+01 0.00000E+00
 -1      3686 1.08900E+02 3.31130E+01 0.00000E+00
 -1      3687 1.10400E+02 3.31130E+01 0.00000E+00
 -1      3688 1.08150E+02 3.18140E+01 0.00000E+00
 -1      3689 1.11900E+02 3.31130E+01 0.00000E+00
 -1      3690 1.13400E+02 3.31130E+01 0.00000E+00
 -1      3691 1.11150E+02 3.18140E+01 0.00000E+00
 -1      3692 1.14900E+02 3.31130E+01 0.00000E+00
 -1      3693 1.16400E+02 3.31130E+01 0.00000E+00
 -1      3694 1.14150E+02 3.18140E+01 0.00000E+00
 -1      3695 1.17900E+02 3.31130E+01 0.00000E+00
 -1      3696 1.19400E+02 3.31130E+01 0.00000E+00
 -1      3697 1.17150E+02 3.18140E+01 0.00000E+00
 -1      3698 1.20900E+02 3.31130E+01 0.00000E+00
 -1      3699 1.22400E+02 3.31130E+01 0.00000E+00
 -1      3700 1.20150E+02 3.18140E+01 0.00000E+00
 -1      3701 1.23900E+02 3.31130E+01 0.00000E+00
 -1      3702 1.25400E+02 3.31130E+01 0.00000E+00
 -1      3703 1.23150E+02 3.18140E+01 0.00000E+00
 -1      3704 1.26900E+02 3.31130E+01 0.00000E+00
 -1      3705 1.28400E+02 3.31130E+01 0.00000E+00
 -1      3706 1.26150E+02 3.18140E+01 0.00000E+00
 -1      3707 1.29900E+02 3.31130E+01 0.00000E+00
 -1      3708 1.31400E+02 3.31130E+01 0.00000E+00
 -1      3709 1.29150E+02 3.18140E+01 0.00000E+00
 -1      3710 1.33605E+02 3.23326E+01 0.00000E+00
 -1      3711 1.34982E+02 3.23960E+01 0.00000E+00
 -1      3712 6.93750E+01 1.55401E+01 0.00000E+00
 -1      3713 6.78750E+01 1.55401E+01 0.00000E+00
 -1      3714 1.86535E+01 2.64966E+01 0.00000E+00
 -1      3715 1.75581E+01 2.50676E+01 0.00000E+00
 -1      3716 1.64005E+01 2.55131E+01 0.00000E+00
 -1      3717 8.12250E+01 1.55401E+01 0.00000E+00
 -1      3718 7.97250E+01 1.55401E+01 0.00000E+00
 -1      3719 8.42250E+01 1.55401E+01 0.00000E+00
 -1      3720 8.27250E+01 1.55401E+01 0.00000E+00
 -1      3721 8.19750E+01 1.68391E+01 0.00000E+00
 -1      3722 8.72250E+01 1.55401E+01 0.00000E+00
 -1      3723 8.57250E+01 1.55401E+01 0.00000E+00
 -1      3724 8.49750E+01 1.68391E+01 0.00000E+00
 -1      3725 9.02250E+01 1.55401E+01 0.00000E+00
 -1      3726 8.87250E+01 1.55401E+01 0.00000E+00
 -1      3727 8.79750E+01 1.68391E+01 0.00000E+00
 -1      3728 9.30750E+01 1.55401E+01 0.00000E+00
 -1      3729 9.16500E+01 1.55401E+01 0.00000E+00
 -1      3730 9.09000E+01 1.68391E+01 0.00000E+00
 -1      3731 9.60750E+01 1.55401E+01 0.00000E+00
 -1      3732 9.45750E+01 1.55401E+01 0.00000E+00
 -1      3733 9.38250E+01 1.68391E+01 0.00000E+00
 -1      3734 9.90750E+01 1.55401E+01 0.00000E+00
 -1      3735 9.75750E+01 1.55401E+01 0.00000E+00
 -1      3736 9.68250E+01 1.68391E+01 0.00000E+00
 -1      3737 1.02075E+02 1.55401E+01 0.00000E+00
 -1      3738 1.00575E+02 1.55401E+01 0.00000E+00
 -1      3739 9.98250E+01 1.68391E+01 0.00000E+00
 -1      3740 1.05075E+02 1.55401E+01 0.00000E+00
 -1      3741 1.03575E+02 1.55401E+01 0.00000E+00
 -1      3742 1.02825E+02 1.68391E+01 0.00000E+00
 -1      3743 1.08075E+02 1.55401E+01 0.00000E+00
 -1      3744 1.06575E+02 1.55401E+01 0.00000E+00
 -1      3745 1.05825E+02 1.68391E+01 0.00000E+00
 -1      3746 1.11075E+02 1.55401E+01 0.00000E+00
 -1      3747 1.09575E+02 1.55401E+01 0.00000E+00
 -1      3748 1.08825E+02 1.68391E+01 0.00000E+00
 -1      3749 1.14075E+02 1.55401E+01 0.00000E+00
 -1      3750 1.12575E+02 1.55401E+01 0.00000E+00
 -1      3751 1.11825E+02 1.68391E+01 0.00000E+00
 -1      3752 1.16925E+02 1.55401E+01 0.00000E+00
 -1      3753 1.15500E+02 1.55401E+01 0.00000E+00
 -1      3754 1.14750E+02 1.68391E+01 0.00000E+00
 -1      3755 1.19925E+02 1.55401E+01 0.00000E+00
 -1      3756 1.18425E+02 1.55401E+01 0.00000E+00
 -1      3757 1.17675E+02 1.68391E+01 0.00000E+00
 -1      3758 1.22925E+02 1.55401E+01 0.00000E+00
 -1      3759 1.21425E+02 1.55401E+01 0.00000E+00
 -1      3760 1.20675E+02 1.68391E+01 0.00000E+00
 -1      3761 1.25925E+02 1.55401E+01 0.00000E+00
 -1      3762 1.24425E+02 1.55401E+01 0.00000E+00
 -1      3763 1.23675E+02 1.68391E+01 0.00000E+00
 -1      3764 1.28925E+02 1.55401E+01 0.00000E+00
 -1      3765 1.27425E+02 1.55401E+01 0.00000E+00
 -1      3766 1.26675E+02 1.68391E+01 0.00000E+00
 -1      3767 1.31925E+02 1.55401E+01 0.00000E+00
 -1      3768 1.30425E+02 1.55401E+01 0.00000E+00
 -1      3769 1.29675E+02 1.68391E+01 0.00000E+00
 -1      3770 6.63750E+01 1.55401E+01 0.00000E+00
 -1      3771 6.48750E+01 1.55401E+01 0.00000E+00
 -1      3772 6.71250E+01 1.68391E+01 0.00000E+00
 -1      3773 1.43324E+01 2.94417E+01 0.00000E+00
 -1      3774 6.33750E+01 1.55401E+01 0.00000E+00
 -1      3775 6.18750E+01 1.55401E+01 0.00000E+00
 -1      3776 6.41250E+01 1.68391E+01 0.00000E+00
 -1      3777 7.82250E+01 1.55401E+01 0.00000E+00
 -1      3778 7.67250E+01 1.55401E+01 0.00000E+00
 -1      3779 7.59750E+01 1.68391E+01 0.00000E+00
 -1      3780 7.89750E+01 1.68391E+01 0.00000E+00
 -1      3781 7.22625E+01 1.55401E+01 0.00000E+00
 -1      3782 7.08375E+01 1.55401E+01 0.00000E+00
 -1      3783 7.00875E+01 1.68391E+01 0.00000E+00
 -1      3784 7.30125E+01 1.68391E+01 0.00000E+00
 -1      3785 4.86024E+01 1.74550E+01 0.00000E+00
 -1      3786 4.79280E+01 1.91249E+01 0.00000E+00
 -1      3787 1.41666E+01 1.79791E+01 0.00000E+00
 -1      3788 4.22625E+01 2.60433E+01 0.00000E+00
 -1      3789 4.19372E+01 2.73271E+01 0.00000E+00
 -1      3790 4.35968E+01 2.62348E+01 0.00000E+00
 -1      3791 1.89000E+01 3.31130E+01 0.00000E+00
 -1      3792 2.04000E+01 3.31130E+01 0.00000E+00
 -1      3793 4.71558E+01 2.10642E+01 0.00000E+00
 -1      3794 4.60974E+01 2.24969E+01 0.00000E+00
 -1      3795 5.43750E+01 1.55176E+01 0.00000E+00
 -1      3796 5.28750E+01 1.55176E+01 0.00000E+00
 -1      3797 1.34089E+02 1.66028E+01 0.00000E+00
 -1      3798 1.32896E+02 1.59530E+01 0.00000E+00
 -1      3799 1.32146E+02 1.72520E+01 0.00000E+00
 -1      3800 1.34089E+02 1.80778E+01 0.00000E+00
 -1      3801 3.47130E+01 3.03158E+01 0.00000E+00
 -1      3802 3.34970E+01 3.03582E+01 0.00000E+00
 -1      3803 1.36359E+02 2.21688E+01 0.00000E+00
 -1      3804 1.36359E+02 2.07000E+01 0.00000E+00
 -1      3805 1.35060E+02 1.99625E+01 0.00000E+00
 -1      3806 1.35060E+02 2.29063E+01 0.00000E+00
 -1      3807 1.66686E+01 3.26457E+01 0.00000E+00
 -1      3808 1.79062E+01 3.29006E+01 0.00000E+00
 -1      3809 1.86562E+01 3.16016E+01 0.00000E+00
 -1      3810 1.66686E+01 3.11769E+01 0.00000E+00
 -1      3811 2.19000E+01 3.31130E+01 0.00000E+00
 -1      3812 2.34000E+01 3.31130E+01 0.00000E+00
 -1      3813 2.11500E+01 3.18140E+01 0.00000E+00
 -1      3814 3.19970E+01 3.03582E+01 0.00000E+00
 -1      3815 3.08985E+01 3.07872E+01 0.00000E+00
 -1      3816 6.11250E+01 1.68391E+01 0.00000E+00
 -1      3817 6.03750E+01 1.55401E+01 0.00000E+00
 -1      3818 5.88750E+01 1.55401E+01 0.00000E+00
 -1      3819 1.92553E+01 2.74908E+01 0.00000E+00
 -1      3820 2.79000E+01 3.31130E+01 0.00000E+00
 -1      3821 2.94000E+01 3.31130E+01 0.00000E+00
 -1      3822 1.32855E+02 3.10336E+01 0.00000E+00
 -1      3823 1.52430E+01 2.74304E+01 0.00000E+00
 -1      3824 1.65854E+01 2.89533E+01 0.00000E+00
 -1      3825 4.97313E+01 2.01621E+01 0.00000E+00
 -1      3826 4.84436E+01 2.06131E+01 0.00000E+00
 -1      3827 4.89592E+01 2.21013E+01 0.00000E+00
 -1      3828 3.62130E+01 3.03158E+01 0.00000E+00
 -1      3829 4.57967E+01 2.37517E+01 0.00000E+00
 -1      3830 4.54961E+01 2.50064E+01 0.00000E+00
 -1      3831 4.73708E+01 2.38071E+01 0.00000E+00
 -1      3832 1.33761E+02 2.65813E+01 0.00000E+00
 -1      3833 1.33761E+02 2.51125E+01 0.00000E+00
 -1      3834 2.85140E+01 2.99067E+01 0.00000E+00
 -1      3835 2.71338E+01 3.04892E+01 0.00000E+00
 -1      3836 1.52430E+01 2.59585E+01 0.00000E+00
 -1      3837 1.33308E+02 2.95418E+01 0.00000E+00
 -1      3838 1.33308E+02 2.80731E+01 0.00000E+00
 -1      3839 1.32009E+02 2.73387E+01 0.00000E+00
 -1      3840 1.31103E+02 3.03222E+01 0.00000E+00
 -1      3841 2.93985E+01 3.07872E+01 0.00000E+00
 -1      3842 3.98476E+01 2.83648E+01 0.00000E+00
 -1      3843 3.85985E+01 2.82383E+01 0.00000E+00
 -1      3844 5.73750E+01 1.55401E+01 0.00000E+00
 -1      3845 5.58750E+01 1.55401E+01 0.00000E+00
 -1      3846 5.81250E+01 1.68391E+01 0.00000E+00
 -1      3847 4.89791E+01 1.67998E+01 0.00000E+00
 -1      3848 4.95925E+01 1.80186E+01 0.00000E+00
 -1      3849 4.93559E+01 1.61446E+01 0.00000E+00
 -1      3850 3.01500E+01 3.18140E+01 0.00000E+00
 -1      3851 2.32972E+01 2.96197E+01 0.00000E+00
 -1      3852 2.18324E+01 2.99268E+01 0.00000E+00
 -1      3853 5.51250E+01 1.68166E+01 0.00000E+00
 -1      3854 2.41338E+01 3.04892E+01 0.00000E+00
 -1      3855 5.17971E+01 1.70788E+01 0.00000E+00
 -1      3856 5.10471E+01 1.58023E+01 0.00000E+00
 -1      3857 2.41500E+01 3.18140E+01 0.00000E+00
 -1      3858 4.19607E+01 2.96663E+01 0.00000E+00
 -1      3859 4.06265E+01 2.94748E+01 0.00000E+00
 -1      3860 2.71500E+01 3.18140E+01 0.00000E+00
 -1      3861 3.80824E+01 2.93746E+01 0.00000E+00
 -1      3862 4.34607E+01 2.96663E+01 0.00000E+00
 -1      3863 4.74000E+01 3.05150E+01 0.00000E+00
 -1      3864 4.89000E+01 3.05150E+01 0.00000E+00
 -1      3865 5.04000E+01 3.05150E+01 0.00000E+00
 -1      3866 5.19000E+01 3.05150E+01 0.00000E+00
 -1      3867 4.96500E+01 2.92160E+01 0.00000E+00
 -1      3868 5.34000E+01 3.05150E+01 0.00000E+00
 -1      3869 5.49000E+01 3.05150E+01 0.00000E+00
 -1      3870 5.26500E+01 2.92160E+01 0.00000E+00
 -1      3871 5.64000E+01 3.05150E+01 0.00000E+00
 -1      3872 5.79000E+01 3.05150E+01 0.00000E+00
 -1      3873 5.56500E+01 2.92160E+01 0.00000E+00
 -1      3874 5.94000E+01 3.05150E+01 0.00000E+00
 -1      3875 6.09000E+01 3.05150E+01 0.00000E+00
 -1      3876 5.86500E+01 2.92160E+01 0.00000E+00
 -1      3877 6.24000E+01 3.05150E+01 0.00000E+00
 -1      3878 6.39000E+01 3.05150E+01 0.00000E+00
 -1      3879 6.16500E+01 2.92160E+01 0.00000E+00
 -1      3880 6.54000E+01 3.05150E+01 0.00000E+00
 -1      3881 6.69000E+01 3.05150E+01 0.00000E+00
 -1      3882 6.46500E+01 2.92160E+01 0.00000E+00
 -1      3883 6.84000E+01 3.05150E+01 0.00000E+00
 -1      3884 6.99000E+01 3.05150E+01 0.00000E+00
 -1      3885 6.76500E+01 2.92160E+01 0.00000E+00
 -1      3886 7.14000E+01 3.05150E+01 0.00000E+00
 -1      3887 7.29000E+01 3.05150E+01 0.00000E+00
 -1      3888 7.06500E+01 2.92160E+01 0.00000E+00
 -1      3889 7.44000E+01 3.05150E+01 0.00000E+00
 -1      3890 7.59000E+01 3.05150E+01 0.00000E+00
 -1      3891 7.36500E+01 2.92160E+01 0.00000E+00
 -1      3892 7.74000E+01 3.05150E+01 0.00000E+00
 -1      3893 7.89000E+01 3.05150E+01 0.00000E+00
 -1      3894 7.66500E+01 2.92160E+01 0.00000E+00
 -1      3895 8.04000E+01 3.05150E+01 0.00000E+00
 -1      3896 8.19000E+01 3.05150E+01 0.00000E+00
 -1      3897 7.96500E+01 2.92160E+01 0.00000E+00
 -1      3898 8.34000E+01 3.05150E+01 0.00000E+00
 -1      3899 8.49000E+01 3.05150E+01 0.00000E+00
 -1      3900 8.26500E+01 2.92160E+01 0.00000E+00
 -1      3901 8.64000E+01 3.05150E+01 0.00000E+00
 -1      3902 8.79000E+01 3.05150E+01 0.00000E+00
 -1      3903 8.56500E+01 2.92160E+01 0.00000E+00
 -1      3904 8.94000E+01 3.05150E+01 0.00000E+00
 -1      3905 9.09000E+01 3.05150E+01 0.00000E+00
 -1      3906 8.86500E+01 2.92160E+01 0.00000E+00
 -1      3907 9.24000E+01 3.05150E+01 0.00000E+00
 -1      3908 9.39000E+01 3.05150E+01 0.00000E+00
 -1      3909 9.16500E+01 2.92160E+01 0.00000E+00
 -1      3910 9.54000E+01 3.05150E+01 0.00000E+00
 -1      3911 9.69000E+01 3.05150E+01 0.00000E+00
 -1      3912 9.46500E+01 2.92160E+01 0.00000E+00
 -1      3913 9.84000E+01 3.05150E+01 0.00000E+00
 -1      3914 9.99000E+01 3.05150E+01 0.00000E+00
 -1      3915 9.76500E+01 2.92160E+01 0.00000E+00
 -1      3916 1.01400E+02 3.05150E+01 0.00000E+00
 -1      3917 1.02900E+02 3.05150E+01 0.00000E+00
 -1      3918 1.00650E+02 2.92160E+01 0.00000E+00
 -1      3919 1.04400E+02 3.05150E+01 0.00000E+00
 -1      3920 1.05900E+02 3.05150E+01 0.00000E+00
 -1      3921 1.03650E+02 2.92160E+01 0.00000E+00
 -1      3922 1.07400E+02 3.05150E+01 0.00000E+00
 -1      3923 1.08900E+02 3.05150E+01 0.00000E+00
 -1      3924 1.06650E+02 2.92160E+01 0.00000E+00
 -1      3925 1.10400E+02 3.05150E+01 0.00000E+00
 -1      3926 1.11900E+02 3.05150E+01 0.00000E+00
 -1      3927 1.09650E+02 2.92160E+01 0.00000E+00
 -1      3928 1.13400E+02 3.05150E+01 0.00000E+00
 -1      3929 1.14900E+02 3.05150E+01 0.00000E+00
 -1      3930 1.12650E+02 2.92160E+01 0.00000E+00
 -1      3931 1.16400E+02 3.05150E+01 0.00000E+00
 -1      3932 1.17900E+02 3.05150E+01 0.00000E+00
 -1      3933 1.15650E+02 2.92160E+01 0.00000E+00
 -1      3934 1.19400E+02 3.05150E+01 0.00000E+00
 -1      3935 1.20900E+02 3.05150E+01 0.00000E+00
 -1      3936 1.18650E+02 2.92160E+01 0.00000E+00
 -1      3937 1.22400E+02 3.05150E+01 0.00000E+00
 -1      3938 1.23900E+02 3.05150E+01 0.00000E+00
 -1      3939 1.21650E+02 2.92160E+01 0.00000E+00
 -1      3940 1.25400E+02 3.05150E+01 0.00000E+00
 -1      3941 1.26900E+02 3.05150E+01 0.00000E+00
 -1      3942 1.24650E+02 2.92160E+01 0.00000E+00
 -1      3943 1.28251E+02 3.04186E+01 0.00000E+00
 -1      3944 1.29751E+02 3.04186E+01 0.00000E+00
 -1      3945 1.30204E+02 2.89268E+01 0.00000E+00
 -1      3946 1.27502E+02 2.91196E+01 0.00000E+00
 -1      3947 8.87250E+01 1.81381E+01 0.00000E+00
 -1      3948 8.72250E+01 1.81381E+01 0.00000E+00
 -1      3949 8.57250E+01 1.81381E+01 0.00000E+00
 -1      3950 8.42250E+01 1.81381E+01 0.00000E+00
 -1      3951 8.64750E+01 1.94371E+01 0.00000E+00
 -1      3952 8.27250E+01 1.81381E+01 0.00000E+00
 -1      3953 8.12250E+01 1.81381E+01 0.00000E+00
 -1      3954 8.34750E+01 1.94371E+01 0.00000E+00
 -1      3955 9.15750E+01 1.81381E+01 0.00000E+00
 -1      3956 9.01500E+01 1.81381E+01 0.00000E+00
 -1      3957 8.94000E+01 1.94371E+01 0.00000E+00
 -1      3958 9.45750E+01 1.81381E+01 0.00000E+00
 -1      3959 9.30750E+01 1.81381E+01 0.00000E+00
 -1      3960 9.23250E+01 1.94371E+01 0.00000E+00
 -1      3961 9.75750E+01 1.81381E+01 0.00000E+00
 -1      3962 9.60750E+01 1.81381E+01 0.00000E+00
 -1      3963 9.53250E+01 1.94371E+01 0.00000E+00
 -1      3964 1.00575E+02 1.81381E+01 0.00000E+00
 -1      3965 9.90750E+01 1.81381E+01 0.00000E+00
 -1      3966 9.83250E+01 1.94371E+01 0.00000E+00
 -1      3967 1.03575E+02 1.81381E+01 0.00000E+00
 -1      3968 1.02075E+02 1.81381E+01 0.00000E+00
 -1      3969 1.01325E+02 1.94371E+01 0.00000E+00
 -1      3970 1.06575E+02 1.81381E+01 0.00000E+00
 -1      3971 1.05075E+02 1.81381E+01 0.00000E+00
 -1      3972 1.04325E+02 1.94371E+01 0.00000E+00
 -1      3973 1.09575E+02 1.81381E+01 0.00000E+00
 -1      3974 1.08075E+02 1.81381E+01 0.00000E+00
 -1      3975 1.07325E+02 1.94371E+01 0.00000E+00
 -1      3976 1.12575E+02 1.81381E+01 0.00000E+00
 -1      3977 1.11075E+02 1.81381E+01 0.00000E+00
 -1      3978 1.10325E+02 1.94371E+01 0.00000E+00
 -1      3979 1.15425E+02 1.81381E+01 0.00000E+00
 -1      3980 1.14000E+02 1.81381E+01 0.00000E+00
 -1      3981 1.13250E+02 1.94371E+01 0.00000E+00
 -1      3982 1.18425E+02 1.81381E+01 0.00000E+00
 -1      3983 1.16925E+02 1.81381E+01 0.00000E+00
 -1      3984 1.16175E+02 1.94371E+01 0.00000E+00
 -1      3985 1.21425E+02 1.81381E+01 0.00000E+00
 -1      3986 1.19925E+02 1.81381E+01 0.00000E+00
 -1      3987 1.19175E+02 1.94371E+01 0.00000E+00
 -1      3988 1.24425E+02 1.81381E+01 0.00000E+00
 -1      3989 1.22925E+02 1.81381E+01 0.00000E+00
 -1      3990 1.22175E+02 1.94371E+01 0.00000E+00
 -1      3991 1.27425E+02 1.81381E+01 0.00000E+00
 -1      3992 1.25925E+02 1.81381E+01 0.00000E+00
 -1      3993 1.25175E+02 1.94371E+01 0.00000E+00
 -1      3994 1.30425E+02 1.81381E+01 0.00000E+00
 -1      3995 1.28925E+02 1.81381E+01 0.00000E+00
 -1      3996 1.28175E+02 1.94371E+01 0.00000E+00
 -1      3997 6.78750E+01 1.81381E+01 0.00000E+00
 -1      3998 6.63750E+01 1.81381E+01 0.00000E+00
 -1      3999 6.48750E+01 1.81381E+01 0.00000E+00
 -1      4000 6.33750E+01 1.81381E+01 0.00000E+00
 -1      4001 6.56250E+01 1.94371E+01 0.00000E+00
 -1      4002 1.32462E+02 2.43750E+01 0.00000E+00
 -1      4003 1.33761E+02 2.36407E+01 0.00000E+00
 -1      4004 1.33761E+02 2.21688E+01 0.00000E+00
 -1      4005 2.03324E+01 2.99268E+01 0.00000E+00
 -1      4006 5.09526E+01 1.82928E+01 0.00000E+00
 -1      4007 5.05758E+01 1.89480E+01 0.00000E+00
 -1      4008 5.10915E+01 2.04362E+01 0.00000E+00
 -1      4009 5.27805E+01 1.80082E+01 0.00000E+00
 -1      4010 5.04338E+01 1.45835E+01 0.00000E+00
 -1      4011 5.57805E+01 1.80532E+01 0.00000E+00
 -1      4012 5.42805E+01 1.80307E+01 0.00000E+00
 -1      4013 5.34360E+01 1.92447E+01 0.00000E+00
 -1      4014 1.85730E+01 2.93780E+01 0.00000E+00
 -1      4015 3.73614E+01 3.04847E+01 0.00000E+00
 -1      4016 3.83710E+01 3.07040E+01 0.00000E+00
 -1      4017 6.18750E+01 1.81381E+01 0.00000E+00
 -1      4018 6.03750E+01 1.81381E+01 0.00000E+00
 -1      4019 6.26250E+01 1.94371E+01 0.00000E+00
 -1      4020 7.37438E+01 1.81381E+01 0.00000E+00
 -1      4021 7.22813E+01 1.81381E+01 0.00000E+00
 -1      4022 1.30658E+02 2.74351E+01 0.00000E+00
 -1      4023 1.31111E+02 2.59433E+01 0.00000E+00
 -1      4024 1.29306E+02 2.75315E+01 0.00000E+00
 -1      4025 3.98710E+01 3.07040E+01 0.00000E+00
 -1      4026 4.44000E+01 3.05150E+01 0.00000E+00
 -1      4027 4.59000E+01 3.05150E+01 0.00000E+00
 -1      4028 7.52438E+01 1.81381E+01 0.00000E+00
 -1      4029 7.45125E+01 1.94371E+01 0.00000E+00
 -1      4030 7.67438E+01 1.81381E+01 0.00000E+00
 -1      4031 1.29759E+02 2.45678E+01 0.00000E+00
 -1      4032 1.31111E+02 2.44714E+01 0.00000E+00
 -1      4033 1.31111E+02 2.29995E+01 0.00000E+00
 -1      4034 1.75792E+01 2.91656E+01 0.00000E+00
 -1      4035 4.99462E+01 2.29051E+01 0.00000E+00
 -1      4036 4.86585E+01 2.33561E+01 0.00000E+00
 -1      4037 4.83578E+01 2.46109E+01 0.00000E+00
 -1      4038 6.93375E+01 1.81381E+01 0.00000E+00
 -1      4039 6.85875E+01 1.94371E+01 0.00000E+00
 -1      4040 7.08000E+01 1.81381E+01 0.00000E+00
 -1      4041 5.88750E+01 1.81381E+01 0.00000E+00
 -1      4042 5.73750E+01 1.81381E+01 0.00000E+00
 -1      4043 5.96250E+01 1.94371E+01 0.00000E+00
 -1      4044 2.56338E+01 3.04892E+01 0.00000E+00
 -1      4045 4.66500E+01 2.92160E+01 0.00000E+00
 -1      4046 7.97344E+01 1.81381E+01 0.00000E+00
 -1      4047 7.82344E+01 1.81381E+01 0.00000E+00
 -1      4048 7.75031E+01 1.94371E+01 0.00000E+00
 -1      4049 8.04844E+01 1.94371E+01 0.00000E+00
 -1      4050 4.50186E+01 2.59119E+01 0.00000E+00
 -1      4051 4.46933E+01 2.71957E+01 0.00000E+00
 -1      4052 5.65305E+01 1.93522E+01 0.00000E+00
 -1      4053 1.33925E+02 2.08592E+01 0.00000E+00
 -1      4054 1.33925E+02 1.93873E+01 0.00000E+00
 -1      4055 1.32954E+02 1.89745E+01 0.00000E+00
 -1      4056 1.32626E+02 2.15936E+01 0.00000E+00
 -1      4057 4.42107E+01 2.83673E+01 0.00000E+00
 -1      4058 4.65926E+01 2.59674E+01 0.00000E+00
 -1      4059 4.56326E+01 2.80444E+01 0.00000E+00
 -1      4060 4.71326E+01 2.80444E+01 0.00000E+00
 -1      4061 4.79839E+01 2.58749E+01 0.00000E+00
 -1      4062 4.75065E+01 2.67804E+01 0.00000E+00
 -1      4063 4.85239E+01 2.79520E+01 0.00000E+00
 -1      4064 4.92717E+01 2.54239E+01 0.00000E+00
 -1      4065 5.19000E+01 2.79170E+01 0.00000E+00
 -1      4066 5.34000E+01 2.79170E+01 0.00000E+00
 -1      4067 5.49000E+01 2.79170E+01 0.00000E+00
 -1      4068 5.64000E+01 2.79170E+01 0.00000E+00
 -1      4069 5.41500E+01 2.66180E+01 0.00000E+00
 -1      4070 5.79000E+01 2.79170E+01 0.00000E+00
 -1      4071 5.94000E+01 2.79170E+01 0.00000E+00
 -1      4072 5.71500E+01 2.66180E+01 0.00000E+00
 -1      4073 6.09000E+01 2.79170E+01 0.00000E+00
 -1      4074 6.24000E+01 2.79170E+01 0.00000E+00
 -1      4075 6.01500E+01 2.66180E+01 0.00000E+00
 -1      4076 6.39000E+01 2.79170E+01 0.00000E+00
 -1      4077 6.54000E+01 2.79170E+01 0.00000E+00
 -1      4078 6.31500E+01 2.66180E+01 0.00000E+00
 -1      4079 6.69000E+01 2.79170E+01 0.00000E+00
 -1      4080 6.84000E+01 2.79170E+01 0.00000E+00
 -1      4081 6.61500E+01 2.66180E+01 0.00000E+00
 -1      4082 6.99000E+01 2.79170E+01 0.00000E+00
 -1      4083 7.14000E+01 2.79170E+01 0.00000E+00
 -1      4084 6.91500E+01 2.66180E+01 0.00000E+00
 -1      4085 7.29000E+01 2.79170E+01 0.00000E+00
 -1      4086 7.44000E+01 2.79170E+01 0.00000E+00
 -1      4087 7.21500E+01 2.66180E+01 0.00000E+00
 -1      4088 7.59000E+01 2.79170E+01 0.00000E+00
 -1      4089 7.74000E+01 2.79170E+01 0.00000E+00
 -1      4090 7.51500E+01 2.66180E+01 0.00000E+00
 -1      4091 7.89000E+01 2.79170E+01 0.00000E+00
 -1      4092 8.04000E+01 2.79170E+01 0.00000E+00
 -1      4093 7.81500E+01 2.66180E+01 0.00000E+00
 -1      4094 8.19000E+01 2.79170E+01 0.00000E+00
 -1      4095 8.34000E+01 2.79170E+01 0.00000E+00
 -1      4096 8.11500E+01 2.66180E+01 0.00000E+00
 -1      4097 8.49000E+01 2.79170E+01 0.00000E+00
 -1      4098 8.64000E+01 2.79170E+01 0.00000E+00
 -1      4099 8.41500E+01 2.66180E+01 0.00000E+00
 -1      4100 8.79000E+01 2.79170E+01 0.00000E+00
 -1      4101 8.94000E+01 2.79170E+01 0.00000E+00
 -1      4102 8.71500E+01 2.66180E+01 0.00000E+00
 -1      4103 9.09000E+01 2.79170E+01 0.00000E+00
 -1      4104 9.24000E+01 2.79170E+01 0.00000E+00
 -1      4105 9.01500E+01 2.66180E+01 0.00000E+00
 -1      4106 9.39000E+01 2.79170E+01 0.00000E+00
 -1      4107 9.54000E+01 2.79170E+01 0.00000E+00
 -1      4108 9.31500E+01 2.66180E+01 0.00000E+00
 -1      4109 9.69000E+01 2.79170E+01 0.00000E+00
 -1      4110 9.84000E+01 2.79170E+01 0.00000E+00
 -1      4111 9.61500E+01 2.66180E+01 0.00000E+00
 -1      4112 9.99000E+01 2.79170E+01 0.00000E+00
 -1      4113 1.01400E+02 2.79170E+01 0.00000E+00
 -1      4114 9.91500E+01 2.66180E+01 0.00000E+00
 -1      4115 1.02900E+02 2.79170E+01 0.00000E+00
 -1      4116 1.04400E+02 2.79170E+01 0.00000E+00
 -1      4117 1.02150E+02 2.66180E+01 0.00000E+00
 -1      4118 1.05900E+02 2.79170E+01 0.00000E+00
 -1      4119 1.07400E+02 2.79170E+01 0.00000E+00
 -1      4120 1.05150E+02 2.66180E+01 0.00000E+00
 -1      4121 1.08900E+02 2.79170E+01 0.00000E+00
 -1      4122 1.10400E+02 2.79170E+01 0.00000E+00
 -1      4123 1.08150E+02 2.66180E+01 0.00000E+00
 -1      4124 1.11900E+02 2.79170E+01 0.00000E+00
 -1      4125 1.13400E+02 2.79170E+01 0.00000E+00
 -1      4126 1.11150E+02 2.66180E+01 0.00000E+00
 -1      4127 1.14900E+02 2.79170E+01 0.00000E+00
 -1      4128 1.16400E+02 2.79170E+01 0.00000E+00
 -1      4129 1.14150E+02 2.66180E+01 0.00000E+00
 -1      4130 1.17900E+02 2.79170E+01 0.00000E+00
 -1      4131 1.19400E+02 2.79170E+01 0.00000E+00
 -1      4132 1.17150E+02 2.66180E+01 0.00000E+00
 -1      4133 1.20900E+02 2.79170E+01 0.00000E+00
 -1      4134 1.22400E+02 2.79170E+01 0.00000E+00
 -1      4135 1.20150E+02 2.66180E+01 0.00000E+00
 -1      4136 1.23900E+02 2.79170E+01 0.00000E+00
 -1      4137 1.25400E+02 2.79170E+01 0.00000E+00
 -1      4138 1.23150E+02 2.66180E+01 0.00000E+00
 -1      4139 8.72250E+01 2.07361E+01 0.00000E+00
 -1      4140 8.57250E+01 2.07361E+01 0.00000E+00
 -1      4141 9.00750E+01 2.07361E+01 0.00000E+00
 -1      4142 8.86500E+01 2.07361E+01 0.00000E+00
 -1      4143 8.79000E+01 2.20351E+01 0.00000E+00
 -1      4144 8.42250E+01 2.07361E+01 0.00000E+00
 -1      4145 8.27250E+01 2.07361E+01 0.00000E+00
 -1      4146 8.49750E+01 2.20351E+01 0.00000E+00
 -1      4147 9.60750E+01 2.07361E+01 0.00000E+00
 -1      4148 9.45750E+01 2.07361E+01 0.00000E+00
 -1      4149 9.90750E+01 2.07361E+01 0.00000E+00
 -1      4150 9.75750E+01 2.07361E+01 0.00000E+00
 -1      4151 9.68250E+01 2.20351E+01 0.00000E+00
 -1      4152 1.02075E+02 2.07361E+01 0.00000E+00
 -1      4153 1.00575E+02 2.07361E+01 0.00000E+00
 -1      4154 9.98250E+01 2.20351E+01 0.00000E+00
 -1      4155 1.05075E+02 2.07361E+01 0.00000E+00
 -1      4156 1.03575E+02 2.07361E+01 0.00000E+00
 -1      4157 1.02825E+02 2.20351E+01 0.00000E+00
 -1      4158 1.08075E+02 2.07361E+01 0.00000E+00
 -1      4159 1.06575E+02 2.07361E+01 0.00000E+00
 -1      4160 1.05825E+02 2.20351E+01 0.00000E+00
 -1      4161 1.11075E+02 2.07361E+01 0.00000E+00
 -1      4162 1.09575E+02 2.07361E+01 0.00000E+00
 -1      4163 1.08825E+02 2.20351E+01 0.00000E+00
 -1      4164 1.13925E+02 2.07361E+01 0.00000E+00
 -1      4165 1.12500E+02 2.07361E+01 0.00000E+00
 -1      4166 1.11750E+02 2.20351E+01 0.00000E+00
 -1      4167 1.16925E+02 2.07361E+01 0.00000E+00
 -1      4168 1.15425E+02 2.07361E+01 0.00000E+00
 -1      4169 1.14675E+02 2.20351E+01 0.00000E+00
 -1      4170 1.19925E+02 2.07361E+01 0.00000E+00
 -1      4171 1.18425E+02 2.07361E+01 0.00000E+00
 -1      4172 1.17675E+02 2.20351E+01 0.00000E+00
 -1      4173 1.22925E+02 2.07361E+01 0.00000E+00
 -1      4174 1.21425E+02 2.07361E+01 0.00000E+00
 -1      4175 1.20675E+02 2.20351E+01 0.00000E+00
 -1      4176 1.25925E+02 2.07361E+01 0.00000E+00
 -1      4177 1.24425E+02 2.07361E+01 0.00000E+00
 -1      4178 1.23675E+02 2.20351E+01 0.00000E+00
 -1      4179 1.29717E+02 2.12665E+01 0.00000E+00
 -1      4180 1.28217E+02 2.12665E+01 0.00000E+00
 -1      4181 1.31982E+02 1.85616E+01 0.00000E+00
 -1      4182 1.31232E+02 1.98606E+01 0.00000E+00
 -1      4183 7.15313E+01 1.94371E+01 0.00000E+00
 -1      4184 9.30750E+01 2.07361E+01 0.00000E+00
 -1      4185 9.15750E+01 2.07361E+01 0.00000E+00
 -1      4186 9.38250E+01 2.20351E+01 0.00000E+00
 -1      4187 1.31068E+02 2.11702E+01 0.00000E+00
 -1      4188 5.40915E+01 2.04813E+01 0.00000E+00
 -1      4189 5.25915E+01 2.04588E+01 0.00000E+00
 -1      4190 5.17469E+01 2.16728E+01 0.00000E+00
 -1      4191 5.00239E+01 2.79520E+01 0.00000E+00
 -1      4192 5.72805E+01 2.06512E+01 0.00000E+00
 -1      4193 5.56860E+01 2.05662E+01 0.00000E+00
 -1      4194 5.48415E+01 2.17803E+01 0.00000E+00
 -1      4195 6.63750E+01 2.07361E+01 0.00000E+00
 -1      4196 6.48750E+01 2.07361E+01 0.00000E+00
 -1      4197 1.28460E+02 2.53037E+01 0.00000E+00
 -1      4198 1.28460E+02 2.38319E+01 0.00000E+00
 -1      4199 7.52625E+01 2.07361E+01 0.00000E+00
 -1      4200 7.37625E+01 2.07361E+01 0.00000E+00
 -1      4201 8.19844E+01 2.20351E+01 0.00000E+00
 -1      4202 8.12344E+01 2.07361E+01 0.00000E+00
 -1      4203 7.97438E+01 2.07361E+01 0.00000E+00
 -1      4204 9.08250E+01 2.20351E+01 0.00000E+00
 -1      4205 1.27467E+02 2.25655E+01 0.00000E+00
 -1      4206 5.29485E+01 2.41567E+01 0.00000E+00
 -1      4207 5.14485E+01 2.41341E+01 0.00000E+00
 -1      4208 7.22813E+01 2.07361E+01 0.00000E+00
 -1      4209 7.08000E+01 2.07361E+01 0.00000E+00
 -1      4210 7.30313E+01 2.20351E+01 0.00000E+00
 -1      4211 6.02805E+01 2.06512E+01 0.00000E+00
 -1      4212 5.87805E+01 2.06512E+01 0.00000E+00
 -1      4213 5.79360E+01 2.18652E+01 0.00000E+00
 -1      4214 6.93187E+01 2.07361E+01 0.00000E+00
 -1      4215 6.78562E+01 2.07361E+01 0.00000E+00
 -1      4216 6.71062E+01 2.20351E+01 0.00000E+00
 -1      4217 7.00687E+01 2.20351E+01 0.00000E+00
 -1      4218 5.07739E+01 2.66530E+01 0.00000E+00
 -1      4219 6.33750E+01 2.07361E+01 0.00000E+00
 -1      4220 6.18750E+01 2.07361E+01 0.00000E+00
 -1      4221 6.41250E+01 2.20351E+01 0.00000E+00
 -1      4222 1.25906E+02 2.55929E+01 0.00000E+00
 -1      4223 1.26656E+02 2.68919E+01 0.00000E+00
 -1      4224 1.28007E+02 2.67955E+01 0.00000E+00
 -1      4225 1.03575E+02 2.33341E+01 0.00000E+00
 -1      4226 1.02075E+02 2.33341E+01 0.00000E+00
 -1      4227 5.44485E+01 2.41567E+01 0.00000E+00
 -1      4228 7.82484E+01 2.07361E+01 0.00000E+00
 -1      4229 7.67578E+01 2.07361E+01 0.00000E+00
 -1      4230 7.60078E+01 2.20351E+01 0.00000E+00
 -1      4231 7.89984E+01 2.20351E+01 0.00000E+00
 -1      4232 5.60430E+01 2.42416E+01 0.00000E+00
 -1      4233 5.75430E+01 2.42416E+01 0.00000E+00
 -1      4234 5.90430E+01 2.42416E+01 0.00000E+00
 -1      4235 6.05430E+01 2.42416E+01 0.00000E+00
 -1      4236 6.21375E+01 2.43266E+01 0.00000E+00
 -1      4237 6.36375E+01 2.43266E+01 0.00000E+00
 -1      4238 6.51375E+01 2.43266E+01 0.00000E+00
 -1      4239 6.66375E+01 2.43266E+01 0.00000E+00
 -1      4240 6.81188E+01 2.43266E+01 0.00000E+00
 -1      4241 6.96188E+01 2.43266E+01 0.00000E+00
 -1      4242 7.11000E+01 2.43266E+01 0.00000E+00
 -1      4243 7.26000E+01 2.43266E+01 0.00000E+00
 -1      4244 7.40813E+01 2.43266E+01 0.00000E+00
 -1      4245 7.55813E+01 2.43266E+01 0.00000E+00
 -1      4246 7.70766E+01 2.43266E+01 0.00000E+00
 -1      4247 7.85766E+01 2.43266E+01 0.00000E+00
 -1      4248 8.00719E+01 2.43266E+01 0.00000E+00
 -1      4249 8.15719E+01 2.43266E+01 0.00000E+00
 -1      4250 8.30625E+01 2.43266E+01 0.00000E+00
 -1      4251 8.45625E+01 2.43266E+01 0.00000E+00
 -1      4252 8.60625E+01 2.43266E+01 0.00000E+00
 -1      4253 8.75625E+01 2.43266E+01 0.00000E+00
 -1      4254 8.89875E+01 2.43266E+01 0.00000E+00
 -1      4255 9.04875E+01 2.43266E+01 0.00000E+00
 -1      4256 9.19875E+01 2.43266E+01 0.00000E+00
 -1      4257 9.34875E+01 2.43266E+01 0.00000E+00
 -1      4258 9.49875E+01 2.43266E+01 0.00000E+00
 -1      4259 9.64875E+01 2.43266E+01 0.00000E+00
 -1      4260 9.79875E+01 2.43266E+01 0.00000E+00
 -1      4261 9.94875E+01 2.43266E+01 0.00000E+00
 -1      4262 1.01738E+02 2.56256E+01 0.00000E+00
 -1      4263 1.03238E+02 2.56256E+01 0.00000E+00
 -1      4264 1.04738E+02 2.56256E+01 0.00000E+00
 -1      4265 1.06238E+02 2.56256E+01 0.00000E+00
 -1      4266 1.04325E+02 2.46331E+01 0.00000E+00
 -1      4267 1.07738E+02 2.56256E+01 0.00000E+00
 -1      4268 1.09238E+02 2.56256E+01 0.00000E+00
 -1      4269 1.07325E+02 2.46331E+01 0.00000E+00
 -1      4270 1.10738E+02 2.56256E+01 0.00000E+00
 -1      4271 1.12238E+02 2.56256E+01 0.00000E+00
 -1      4272 1.10325E+02 2.46331E+01 0.00000E+00
 -1      4273 1.13738E+02 2.56256E+01 0.00000E+00
 -1      4274 1.15238E+02 2.56256E+01 0.00000E+00
 -1      4275 1.13325E+02 2.46331E+01 0.00000E+00
 -1      4276 1.16738E+02 2.56256E+01 0.00000E+00
 -1      4277 1.18238E+02 2.56256E+01 0.00000E+00
 -1      4278 1.16325E+02 2.46331E+01 0.00000E+00
 -1      4279 1.19738E+02 2.56256E+01 0.00000E+00
 -1      4280 1.21238E+02 2.56256E+01 0.00000E+00
 -1      4281 1.19325E+02 2.46331E+01 0.00000E+00
 -1      4282 1.22738E+02 2.56256E+01 0.00000E+00
 -1      4283 1.24238E+02 2.56256E+01 0.00000E+00
 -1      4284 1.22325E+02 2.46331E+01 0.00000E+00
 -1      4285 1.06575E+02 2.33341E+01 0.00000E+00
 -1      4286 1.05075E+02 2.33341E+01 0.00000E+00
 -1      4287 1.09575E+02 2.33341E+01 0.00000E+00
 -1      4288 1.08075E+02 2.33341E+01 0.00000E+00
 -1      4289 1.12500E+02 2.33341E+01 0.00000E+00
 -1      4290 1.11075E+02 2.33341E+01 0.00000E+00
 -1      4291 1.15500E+02 2.33341E+01 0.00000E+00
 -1      4292 1.14000E+02 2.33341E+01 0.00000E+00
 -1      4293 1.18500E+02 2.33341E+01 0.00000E+00
 -1      4294 1.17000E+02 2.33341E+01 0.00000E+00
 -1      4295 1.21500E+02 2.33341E+01 0.00000E+00
 -1      4296 1.20000E+02 2.33341E+01 0.00000E+00
 -1      4297 1.24500E+02 2.33341E+01 0.00000E+00
 -1      4298 1.23000E+02 2.33341E+01 0.00000E+00
 -1      4299 1.25493E+02 2.46005E+01 0.00000E+00
 -1      4300 5.11478E+01 2.53889E+01 0.00000E+00
 -1      4301 1.00988E+02 2.43266E+01 0.00000E+00
 -1      4302 1.26168E+02 2.33015E+01 0.00000E+00
 -1      4303 6.10305E+01 2.19502E+01 0.00000E+00
 -3
    3C                          2069                                     1
 -1       166    8    0    1
 -2         6         7        23      1118      1283      1135
 -1       167    8    0    1
 -2         7         8       166      1119      1284      1285
 -1       168    8    0    1
 -2         8         9       167      1120      1286      1287
 -1       169    8    0    1
 -2         8       167       166      1287      1288      1284
 -1       170    8    0    1
 -2         9        10       168      1121      1289      1290
 -1       171    8    0    1
 -2         9       168       167      1290      1291      1286
 -1       172    8    0    1
 -2        10        11       169      1122      1292      1293
 -1       173    8    0    1
 -2        10       169       168      1293      1294      1289
 -1       174    8    0    1
 -2        11        12       170      1123      1295      1296
 -1       175    8    0    1
 -2        11       170       169      1296      1297      1292
 -1       176    8    0    1
 -2        12        13       171      1124      1298      1299
 -1       177    8    0    1
 -2        12       171       170      1299      1300      1295
 -1       178    8    0    1
 -2        13        14       172      1125      1301      1302
 -1       179    8    0    1
 -2        13       172       171      1302      1303      1298
 -1       180    8    0    1
 -2        14        15       173      1126      1304      1305
 -1       181    8    0    1
 -2        14       173       172      1305      1306      1301
 -1       182    8    0    1
 -2        15        16       174      1127      1307      1308
 -1       183    8    0    1
 -2        15       174       173      1308      1309      1304
 -1       184    8    0    1
 -2        16        17       175      1128      1310      1311
 -1       185    8    0    1
 -2        16       175       174      1311      1312      1307
 -1       186    8    0    1
 -2        17        18       176      1129      1313      1314
 -1       187    8    0    1
 -2        17       176       175      1314      1315      1310
 -1       188    8    0    1
 -2        18        19       177      1130      1316      1317
 -1       189    8    0    1
 -2        18       177       176      1317      1318      1313
 -1       190    8    0    1
 -2        19        20       178      1131      1319      1320
 -1       191    8    0    1
 -2        19       178       177      1320      1321      1316
 -1       192    8    0    1
 -2        20        21       179      1132      1322      1323
 -1       193    8    0    1
 -2        20       179       178      1323      1324      1319
 -1       194    8    0    1
 -2        21        22       180      1133      1325      1326
 -1       195    8    0    1
 -2        21       180       179      1326      1327      1322
 -1       196    8    0    1
 -2        22         5        72      1134      1185      1328
 -1       197    8    0    1
 -2        24        23       181      1136      1329      1330
 -1       198    8    0    1
 -2        25        24       182      1137      1331      1332
 -1       199    8    0    1
 -2        24       181       182      1330      1333      1331
 -1       200    8    0    1
 -2        26        25       183      1138      1334      1335
 -1       201    8    0    1
 -2        25       182       183      1332      1336      1334
 -1       202    8    0    1
 -2        27        26       184      1139      1337      1338
 -1       203    8    0    1
 -2        26       183       184      1335      1339      1337
 -1       204    8    0    1
 -2        28        27       185      1140      1340      1341
 -1       205    8    0    1
 -2        27       184       185      1338      1342      1340
 -1       206    8    0    1
 -2        29        28       186      1141      1343      1344
 -1       207    8    0    1
 -2        28       185       186      1341      1345      1343
 -1       208    8    0    1
 -2        30        29       187      1142      1346      1347
 -1       209    8    0    1
 -2        29       186       187      1344      1348      1346
 -1       210    8    0    1
 -2        31        30       188      1143      1349      1350
 -1       211    8    0    1
 -2        30       187       188      1347      1351      1349
 -1       212    8    0    1
 -2        32        31       189      1144      1352      1353
 -1       213    8    0    1
 -2        31       188       189      1350      1354      1352
 -1       214    8    0    1
 -2        33        32       190      1145      1355      1356
 -1       215    8    0    1
 -2        32       189       190      1353      1357      1355
 -1       216    8    0    1
 -2        34        33       191      1146      1358      1359
 -1       217    8    0    1
 -2        33       190       191      1356      1360      1358
 -1       218    8    0    1
 -2        35        34       192      1147      1361      1362
 -1       219    8    0    1
 -2        34       191       192      1359      1363      1361
 -1       220    8    0    1
 -2        36        35       193      1148      1364      1365
 -1       221    8    0    1
 -2        35       192       193      1362      1366      1364
 -1       222    8    0    1
 -2        37        36       194      1149      1367      1368
 -1       223    8    0    1
 -2        36       193       194      1365      1369      1367
 -1       224    8    0    1
 -2        38        37       195      1150      1370      1371
 -1       225    8    0    1
 -2        37       194       195      1368      1372      1370
 -1       226    8    0    1
 -2        39        38       196      1151      1373      1374
 -1       227    8    0    1
 -2        38       195       196      1371      1375      1373
 -1       228    8    0    1
 -2        40        39       197      1152      1376      1377
 -1       229    8    0    1
 -2        39       196       197      1374      1378      1376
 -1       230    8    0    1
 -2        41        40       198      1153      1379      1380
 -1       231    8    0    1
 -2        40       197       198      1377      1381      1379
 -1       232    8    0    1
 -2        42        41       199      1154      1382      1383
 -1       233    8    0    1
 -2        41       198       199      1380      1384      1382
 -1       234    8    0    1
 -2        43        42       200      1155      1385      1386
 -1       235    8    0    1
 -2        42       199       200      1383      1387      1385
 -1       236    8    0    1
 -2        44        43       201      1156      1388      1389
 -1       237    8    0    1
 -2        43       200       201      1386      1390      1388
 -1       238    8    0    1
 -2        45        44       202      1157      1391      1392
 -1       239    8    0    1
 -2        44       201       202      1389      1393      1391
 -1       240    8    0    1
 -2        46        45       203      1158      1394      1395
 -1       241    8    0    1
 -2        45       202       203      1392      1396      1394
 -1       242    8    0    1
 -2        47        46       204      1159      1397      1398
 -1       243    8    0    1
 -2        46       203       204      1395      1399      1397
 -1       244    8    0    1
 -2        48        47       205      1160      1400      1401
 -1       245    8    0    1
 -2        47       204       205      1398      1402      1400
 -1       246    8    0    1
 -2        49        48       206      1161      1403      1404
 -1       247    8    0    1
 -2        48       205       206      1401      1405      1403
 -1       248    8    0    1
 -2        50        49       207      1162      1406      1407
 -1       249    8    0    1
 -2        49       206       207      1404      1408      1406
 -1       250    8    0    1
 -2        51        50       208      1163      1409      1410
 -1       251    8    0    1
 -2        50       207       208      1407      1411      1409
 -1       252    8    0    1
 -2        52        51       209      1164      1412      1413
 -1       253    8    0    1
 -2        51       208       209      1410      1414      1412
 -1       254    8    0    1
 -2        53        52       210      1165      1415      1416
 -1       255    8    0    1
 -2        52       209       210      1413      1417      1415
 -1       256    8    0    1
 -2        54        53       211      1166      1418      1419
 -1       257    8    0    1
 -2        53       210       211      1416      1420      1418
 -1       258    8    0    1
 -2        55        54       212      1167      1421      1422
 -1       259    8    0    1
 -2        54       211       212      1419      1423      1421
 -1       260    8    0    1
 -2        56        55       213      1168      1424      1425
 -1       261    8    0    1
 -2        55       212       213      1422      1426      1424
 -1       262    8    0    1
 -2        57        56       214      1169      1427      1428
 -1       263    8    0    1
 -2        56       213       214      1425      1429      1427
 -1       264    8    0    1
 -2        58        57       215      1170      1430      1431
 -1       265    8    0    1
 -2        57       214       215      1428      1432      1430
 -1       266    8    0    1
 -2        59        58       216      1171      1433      1434
 -1       267    8    0    1
 -2        58       215       216      1431      1435      1433
 -1       268    8    0    1
 -2        60        59       217      1172      1436      1437
 -1       269    8    0    1
 -2        59       216       217      1434      1438      1436
 -1       270    8    0    1
 -2        61        60       218      1173      1439      1440
 -1       271    8    0    1
 -2        60       217       218      1437      1441      1439
 -1       272    8    0    1
 -2        62        61       219      1174      1442      1443
 -1       273    8    0    1
 -2        61       218       219      1440      1444      1442
 -1       274    8    0    1
 -2        63        62       220      1175      1445      1446
 -1       275    8    0    1
 -2        62       219       220      1443      1447      1445
 -1       276    8    0    1
 -2        64        63       221      1176      1448      1449
 -1       277    8    0    1
 -2        63       220       221      1446      1450      1448
 -1       278    8    0    1
 -2        65        64       222      1177      1451      1452
 -1       279    8    0    1
 -2        64       221       222      1449      1453      1451
 -1       280    8    0    1
 -2        66        65       223      1178      1454      1455
 -1       281    8    0    1
 -2        65       222       223      1452      1456      1454
 -1       282    8    0    1
 -2        67        66       224      1179      1457      1458
 -1       283    8    0    1
 -2        66       223       224      1455      1459      1457
 -1       284    8    0    1
 -2        68        67       225      1180      1460      1461
 -1       285    8    0    1
 -2        67       224       225      1458      1462      1460
 -1       286    8    0    1
 -2        69        68       226      1181      1463      1464
 -1       287    8    0    1
 -2        68       225       226      1461      1465      1463
 -1       288    8    0    1
 -2        70        69       227      1182      1466      1467
 -1       289    8    0    1
 -2        69       226       227      1464      1468      1466
 -1       290    8    0    1
 -2        71        70       228      1183      1469      1470
 -1       291    8    0    1
 -2        70       227       228      1467      1471      1469
 -1       292    8    0    1
 -2         4        71       138      1184      1472      1253
 -1       293    8    0    1
 -2       138        71       228      1472      1470      1473
 -1       294    8    0    1
 -2        72        73       229      1186      1474      1475
 -1       295    8    0    1
 -2        73        74       230      1187      1476      1477
 -1       296    8    0    1
 -2        73       230       229      1477      1478      1474
 -1       297    8    0    1
 -2        74        75       231      1188      1479      1480
 -1       298    8    0    1
 -2        74       231       230      1480      1481      1476
 -1       299    8    0    1
 -2        75        76       232      1189      1482      1483
 -1       300    8    0    1
 -2        75       232       231      1483      1484      1479
 -1       301    8    0    1
 -2        76        77       233      1190      1485      1486
 -1       302    8    0    1
 -2        76       233       232      1486      1487      1482
 -1       303    8    0    1
 -2        77        78       234      1191      1488      1489
 -1       304    8    0    1
 -2        77       234       233      1489      1490      1485
 -1       305    8    0    1
 -2        78        79       235      1192      1491      1492
 -1       306    8    0    1
 -2        78       235       234      1492      1493      1488
 -1       307    8    0    1
 -2        79        80       236      1193      1494      1495
 -1       308    8    0    1
 -2        79       236       235      1495      1496      1491
 -1       309    8    0    1
 -2        81        82       237      1195      1497      1498
 -1       310    8    0    1
 -2        82        83       238      1196      1499      1500
 -1       311    8    0    1
 -2        82       238       237      1500      1501      1497
 -1       312    8    0    1
 -2        83        84       239      1197      1502      1503
 -1       313    8    0    1
 -2        83       239       238      1503      1504      1499
 -1       314    8    0    1
 -2        84        85       240      1198      1505      1506
 -1       315    8    0    1
 -2        84       240       239      1506      1507      1502
 -1       316    8    0    1
 -2        85        86       241      1199      1508      1509
 -1       317    8    0    1
 -2        85       241       240      1509      1510      1505
 -1       318    8    0    1
 -2        86        87       242      1200      1511      1512
 -1       319    8    0    1
 -2        86       242       241      1512      1513      1508
 -1       320    8    0    1
 -2        87        88       243      1201      1514      1515
 -1       321    8    0    1
 -2        87       243       242      1515      1516      1511
 -1       322    8    0    1
 -2        88        89       244      1202      1517      1518
 -1       323    8    0    1
 -2        88       244       243      1518      1519      1514
 -1       324    8    0    1
 -2        89        90       245      1203      1520      1521
 -1       325    8    0    1
 -2        89       245       244      1521      1522      1517
 -1       326    8    0    1
 -2        90        91       246      1204      1523      1524
 -1       327    8    0    1
 -2        90       246       245      1524      1525      1520
 -1       328    8    0    1
 -2        91        92       247      1205      1526      1527
 -1       329    8    0    1
 -2        91       247       246      1527      1528      1523
 -1       330    8    0    1
 -2        92        93       248      1206      1529      1530
 -1       331    8    0    1
 -2        92       248       247      1530      1531      1526
 -1       332    8    0    1
 -2        93        94       249      1207      1532      1533
 -1       333    8    0    1
 -2        93       249       248      1533      1534      1529
 -1       334    8    0    1
 -2        94        95       250      1208      1535      1536
 -1       335    8    0    1
 -2        94       250       249      1536      1537      1532
 -1       336    8    0    1
 -2        95        96       251      1209      1538      1539
 -1       337    8    0    1
 -2        95       251       250      1539      1540      1535
 -1       338    8    0    1
 -2        96        97       252      1210      1541      1542
 -1       339    8    0    1
 -2        96       252       251      1542      1543      1538
 -1       340    8    0    1
 -2        97        98       253      1211      1544      1545
 -1       341    8    0    1
 -2        97       253       252      1545      1546      1541
 -1       342    8    0    1
 -2        98        99       254      1212      1547      1548
 -1       343    8    0    1
 -2        98       254       253      1548      1549      1544
 -1       344    8    0    1
 -2        99       100       255      1213      1550      1551
 -1       345    8    0    1
 -2        99       255       254      1551      1552      1547
 -1       346    8    0    1
 -2       100       101       256      1214      1553      1554
 -1       347    8    0    1
 -2       100       256       255      1554      1555      1550
 -1       348    8    0    1
 -2       101       102       257      1215      1556      1557
 -1       349    8    0    1
 -2       101       257       256      1557      1558      1553
 -1       350    8    0    1
 -2       102       103       258      1216      1559      1560
 -1       351    8    0    1
 -2       102       258       257      1560      1561      1556
 -1       352    8    0    1
 -2       103       104       259      1217      1562      1563
 -1       353    8    0    1
 -2       103       259       258      1563      1564      1559
 -1       354    8    0    1
 -2       104       105       260      1218      1565      1566
 -1       355    8    0    1
 -2       104       260       259      1566      1567      1562
 -1       356    8    0    1
 -2       105       106       261      1219      1568      1569
 -1       357    8    0    1
 -2       105       261       260      1569      1570      1565
 -1       358    8    0    1
 -2       106       107       262      1220      1571      1572
 -1       359    8    0    1
 -2       106       262       261      1572      1573      1568
 -1       360    8    0    1
 -2       107       108       263      1221      1574      1575
 -1       361    8    0    1
 -2       107       263       262      1575      1576      1571
 -1       362    8    0    1
 -2       108       109       264      1222      1577      1578
 -1       363    8    0    1
 -2       108       264       263      1578      1579      1574
 -1       364    8    0    1
 -2       109       110       265      1223      1580      1581
 -1       365    8    0    1
 -2       109       265       264      1581      1582      1577
 -1       366    8    0    1
 -2       110       111       266      1224      1583      1584
 -1       367    8    0    1
 -2       110       266       265      1584      1585      1580
 -1       368    8    0    1
 -2       111       112       267      1225      1586      1587
 -1       369    8    0    1
 -2       111       267       266      1587      1588      1583
 -1       370    8    0    1
 -2       112       113       268      1226      1589      1590
 -1       371    8    0    1
 -2       112       268       267      1590      1591      1586
 -1       372    8    0    1
 -2       113       114       269      1227      1592      1593
 -1       373    8    0    1
 -2       113       269       268      1593      1594      1589
 -1       374    8    0    1
 -2       114       115       270      1228      1595      1596
 -1       375    8    0    1
 -2       114       270       269      1596      1597      1592
 -1       376    8    0    1
 -2       115       116       271      1229      1598      1599
 -1       377    8    0    1
 -2       115       271       270      1599      1600      1595
 -1       378    8    0    1
 -2       116       117       272      1230      1601      1602
 -1       379    8    0    1
 -2       116       272       271      1602      1603      1598
 -1       380    8    0    1
 -2       117       118       273      1231      1604      1605
 -1       381    8    0    1
 -2       117       273       272      1605      1606      1601
 -1       382    8    0    1
 -2       118       119       274      1232      1607      1608
 -1       383    8    0    1
 -2       118       274       273      1608      1609      1604
 -1       384    8    0    1
 -2       119       120       275      1233      1610      1611
 -1       385    8    0    1
 -2       119       275       274      1611      1612      1607
 -1       386    8    0    1
 -2       120       121       276      1234      1613      1614
 -1       387    8    0    1
 -2       120       276       275      1614      1615      1610
 -1       388    8    0    1
 -2       121       122       277      1235      1616      1617
 -1       389    8    0    1
 -2       121       277       276      1617      1618      1613
 -1       390    8    0    1
 -2       122         3       278      1236      1619      1620
 -1       391    8    0    1
 -2       277       122       278      1616      1620      1621
 -1       392    8    0    1
 -2         3       123       278      1237      1622      1619
 -1       393    8    0    1
 -2       123       124       279      1238      1623      1624
 -1       394    8    0    1
 -2       123       279       278      1624      1625      1622
 -1       395    8    0    1
 -2       124       125       280      1239      1626      1627
 -1       396    8    0    1
 -2       124       280       279      1627      1628      1623
 -1       397    8    0    1
 -2       125       126       281      1240      1629      1630
 -1       398    8    0    1
 -2       125       281       280      1630      1631      1626
 -1       399    8    0    1
 -2       126       127       282      1241      1632      1633
 -1       400    8    0    1
 -2       126       282       281      1633      1634      1629
 -1       401    8    0    1
 -2       127       128       283      1242      1635      1636
 -1       402    8    0    1
 -2       127       283       282      1636      1637      1632
 -1       403    8    0    1
 -2       128       129       284      1243      1638      1639
 -1       404    8    0    1
 -2       128       284       283      1639      1640      1635
 -1       405    8    0    1
 -2       129       130       285      1244      1641      1642
 -1       406    8    0    1
 -2       129       285       284      1642      1643      1638
 -1       407    8    0    1
 -2       130       131       286      1245      1644      1645
 -1       408    8    0    1
 -2       130       286       285      1645      1646      1641
 -1       409    8    0    1
 -2       131       132       287      1246      1647      1648
 -1       410    8    0    1
 -2       131       287       286      1648      1649      1644
 -1       411    8    0    1
 -2       132       133       288      1247      1650      1651
 -1       412    8    0    1
 -2       132       288       287      1651      1652      1647
 -1       413    8    0    1
 -2       133       134       289      1248      1653      1654
 -1       414    8    0    1
 -2       133       289       288      1654      1655      1650
 -1       415    8    0    1
 -2       134       135       290      1249      1656      1657
 -1       416    8    0    1
 -2       134       290       289      1657      1658      1653
 -1       417    8    0    1
 -2       135       136       291      1250      1659      1660
 -1       418    8    0    1
 -2       135       291       290      1660      1661      1656
 -1       419    8    0    1
 -2       136       137       292      1251      1662      1663
 -1       420    8    0    1
 -2       136       292       291      1663      1664      1659
 -1       421    8    0    1
 -2         2       139       293      1254      1665      1666
 -1       422    8    0    1
 -2       139       140       294      1255      1667      1668
 -1       423    8    0    1
 -2       140       141       295      1256      1669      1670
 -1       424    8    0    1
 -2       141       142       296      1257      1671      1672
 -1       425    8    0    1
 -2       142       143       297      1258      1673      1674
 -1       426    8    0    1
 -2       143       144       298      1259      1675      1676
 -1       427    8    0    1
 -2       144       145       299      1260      1677      1678
 -1       428    8    0    1
 -2       145       146       300      1261      1679      1680
 -1       429    8    0    1
 -2       146       147       301      1262      1681      1682
 -1       430    8    0    1
 -2       147       148       302      1263      1683      1684
 -1       431    8    0    1
 -2       148       149       303      1264      1685      1686
 -1       432    8    0    1
 -2       149       150       304      1265      1687      1688
 -1       433    8    0    1
 -2       150       151       305      1266      1689      1690
 -1       434    8    0    1
 -2       151       152       306      1267      1691      1692
 -1       435    8    0    1
 -2       152       153       307      1268      1693      1694
 -1       436    8    0    1
 -2       153       154       308      1269      1695      1696
 -1       437    8    0    1
 -2       154       155       309      1270      1697      1698
 -1       438    8    0    1
 -2       155       156       310      1271      1699      1700
 -1       439    8    0    1
 -2       156       157       311      1272      1701      1702
 -1       440    8    0    1
 -2       157       158       312      1273      1703      1704
 -1       441    8    0    1
 -2       158       159       313      1274      1705      1706
 -1       442    8    0    1
 -2       159         1       314      1275      1707      1708
 -1       443    8    0    1
 -2         1       160       315      1276      1709      1710
 -1       444    8    0    1
 -2       160       161       316      1277      1711      1712
 -1       445    8    0    1
 -2       161       162       317      1278      1713      1714
 -1       446    8    0    1
 -2       162       163       318      1279      1715      1716
 -1       447    8    0    1
 -2       163       164       319      1280      1717      1718
 -1       448    8    0    1
 -2       164       165       320      1281      1719      1720
 -1       449    8    0    1
 -2       165         2       321      1282      1721      1722
 -1       450    8    0    1
 -2        22        72       180      1328      1723      1325
 -1       451    8    0    1
 -2       236        80       322      1494      1724      1725
 -1       452    8    0    1
 -2        80        81       322      1194      1726      1724
 -1       453    8    0    1
 -2       294       140       295      1667      1670      1727
 -1       454    8    0    1
 -2         2       293       321      1666      1728      1721
 -1       455    8    0    1
 -2       293       139       294      1665      1668      1729
 -1       456    8    0    1
 -2       137       138       323      1252      1730      1731
 -1       457    8    0    1
 -2       137       323       292      1731      1732      1662
 -1       458    8    0    1
 -2       141       296       295      1672      1733      1669
 -1       459    8    0    1
 -2       142       297       296      1674      1734      1671
 -1       460    8    0    1
 -2       143       298       297      1676      1735      1673
 -1       461    8    0    1
 -2       144       299       298      1678      1736      1675
 -1       462    8    0    1
 -2       145       300       299      1680      1737      1677
 -1       463    8    0    1
 -2       146       301       300      1682      1738      1679
 -1       464    8    0    1
 -2       147       302       301      1684      1739      1681
 -1       465    8    0    1
 -2       148       303       302      1686      1740      1683
 -1       466    8    0    1
 -2       149       304       303      1688      1741      1685
 -1       467    8    0    1
 -2       150       305       304      1690      1742      1687
 -1       468    8    0    1
 -2       151       306       305      1692      1743      1689
 -1       469    8    0    1
 -2       152       307       306      1694      1744      1691
 -1       470    8    0    1
 -2       153       308       307      1696      1745      1693
 -1       471    8    0    1
 -2       154       309       308      1698      1746      1695
 -1       472    8    0    1
 -2       155       310       309      1700      1747      1697
 -1       473    8    0    1
 -2       156       311       310      1702      1748      1699
 -1       474    8    0    1
 -2       157       312       311      1704      1749      1701
 -1       475    8    0    1
 -2       158       313       312      1706      1750      1703
 -1       476    8    0    1
 -2       159       314       313      1708      1751      1705
 -1       477    8    0    1
 -2         1       315       314      1710      1752      1707
 -1       478    8    0    1
 -2       160       316       315      1712      1753      1709
 -1       479    8    0    1
 -2       161       317       316      1714      1754      1711
 -1       480    8    0    1
 -2       162       318       317      1716      1755      1713
 -1       481    8    0    1
 -2       163       319       318      1718      1756      1715
 -1       482    8    0    1
 -2       164       320       319      1720      1757      1717
 -1       483    8    0    1
 -2       165       321       320      1722      1758      1719
 -1       484    8    0    1
 -2        23         7       166      1283      1285      1759
 -1       485    8    0    1
 -2       322        81       237      1726      1498      1760
 -1       486    8    0    1
 -2       167       168       324      1291      1761      1762
 -1       487    8    0    1
 -2       166       167       325      1288      1763      1764
 -1       488    8    0    1
 -2       167       324       325      1762      1765      1763
 -1       489    8    0    1
 -2       169       170       326      1297      1766      1767
 -1       490    8    0    1
 -2       170       171       327      1300      1768      1769
 -1       491    8    0    1
 -2       170       327       326      1769      1770      1766
 -1       492    8    0    1
 -2       171       172       328      1303      1771      1772
 -1       493    8    0    1
 -2       171       328       327      1772      1773      1768
 -1       494    8    0    1
 -2       172       173       329      1306      1774      1775
 -1       495    8    0    1
 -2       172       329       328      1775      1776      1771
 -1       496    8    0    1
 -2       173       174       330      1309      1777      1778
 -1       497    8    0    1
 -2       173       330       329      1778      1779      1774
 -1       498    8    0    1
 -2       174       175       331      1312      1780      1781
 -1       499    8    0    1
 -2       174       331       330      1781      1782      1777
 -1       500    8    0    1
 -2       175       176       332      1315      1783      1784
 -1       501    8    0    1
 -2       175       332       331      1784      1785      1780
 -1       502    8    0    1
 -2       176       177       333      1318      1786      1787
 -1       503    8    0    1
 -2       176       333       332      1787      1788      1783
 -1       504    8    0    1
 -2       177       178       334      1321      1789      1790
 -1       505    8    0    1
 -2       177       334       333      1790      1791      1786
 -1       506    8    0    1
 -2       178       179       335      1324      1792      1793
 -1       507    8    0    1
 -2       178       335       334      1793      1794      1789
 -1       508    8    0    1
 -2       179       180       336      1327      1795      1796
 -1       509    8    0    1
 -2       179       336       335      1796      1797      1792
 -1       510    8    0    1
 -2       294       295       337      1727      1798      1799
 -1       511    8    0    1
 -2       236       322       338      1725      1800      1801
 -1       512    8    0    1
 -2       181        23       166      1329      1759      1802
 -1       513    8    0    1
 -2        72       229       180      1475      1803      1723
 -1       514    8    0    1
 -2       183       182       339      1336      1804      1805
 -1       515    8    0    1
 -2       184       183       340      1339      1806      1807
 -1       516    8    0    1
 -2       183       339       340      1805      1808      1806
 -1       517    8    0    1
 -2       185       184       341      1342      1809      1810
 -1       518    8    0    1
 -2       184       340       341      1807      1811      1809
 -1       519    8    0    1
 -2       186       185       342      1345      1812      1813
 -1       520    8    0    1
 -2       185       341       342      1810      1814      1812
 -1       521    8    0    1
 -2       187       186       343      1348      1815      1816
 -1       522    8    0    1
 -2       186       342       343      1813      1817      1815
 -1       523    8    0    1
 -2       188       187       344      1351      1818      1819
 -1       524    8    0    1
 -2       187       343       344      1816      1820      1818
 -1       525    8    0    1
 -2       189       188       345      1354      1821      1822
 -1       526    8    0    1
 -2       188       344       345      1819      1823      1821
 -1       527    8    0    1
 -2       190       189       346      1357      1824      1825
 -1       528    8    0    1
 -2       189       345       346      1822      1826      1824
 -1       529    8    0    1
 -2       191       190       347      1360      1827      1828
 -1       530    8    0    1
 -2       190       346       347      1825      1829      1827
 -1       531    8    0    1
 -2       192       191       348      1363      1830      1831
 -1       532    8    0    1
 -2       191       347       348      1828      1832      1830
 -1       533    8    0    1
 -2       193       192       349      1366      1833      1834
 -1       534    8    0    1
 -2       192       348       349      1831      1835      1833
 -1       535    8    0    1
 -2       194       193       350      1369      1836      1837
 -1       536    8    0    1
 -2       193       349       350      1834      1838      1836
 -1       537    8    0    1
 -2       195       194       351      1372      1839      1840
 -1       538    8    0    1
 -2       194       350       351      1837      1841      1839
 -1       539    8    0    1
 -2       196       195       352      1375      1842      1843
 -1       540    8    0    1
 -2       195       351       352      1840      1844      1842
 -1       541    8    0    1
 -2       197       196       353      1378      1845      1846
 -1       542    8    0    1
 -2       196       352       353      1843      1847      1845
 -1       543    8    0    1
 -2       198       197       354      1381      1848      1849
 -1       544    8    0    1
 -2       197       353       354      1846      1850      1848
 -1       545    8    0    1
 -2       199       198       355      1384      1851      1852
 -1       546    8    0    1
 -2       198       354       355      1849      1853      1851
 -1       547    8    0    1
 -2       200       199       356      1387      1854      1855
 -1       548    8    0    1
 -2       199       355       356      1852      1856      1854
 -1       549    8    0    1
 -2       201       200       357      1390      1857      1858
 -1       550    8    0    1
 -2       200       356       357      1855      1859      1857
 -1       551    8    0    1
 -2       202       201       358      1393      1860      1861
 -1       552    8    0    1
 -2       201       357       358      1858      1862      1860
 -1       553    8    0    1
 -2       203       202       359      1396      1863      1864
 -1       554    8    0    1
 -2       202       358       359      1861      1865      1863
 -1       555    8    0    1
 -2       204       203       360      1399      1866      1867
 -1       556    8    0    1
 -2       203       359       360      1864      1868      1866
 -1       557    8    0    1
 -2       205       204       361      1402      1869      1870
 -1       558    8    0    1
 -2       204       360       361      1867      1871      1869
 -1       559    8    0    1
 -2       206       205       362      1405      1872      1873
 -1       560    8    0    1
 -2       205       361       362      1870      1874      1872
 -1       561    8    0    1
 -2       207       206       363      1408      1875      1876
 -1       562    8    0    1
 -2       206       362       363      1873      1877      1875
 -1       563    8    0    1
 -2       208       207       364      1411      1878      1879
 -1       564    8    0    1
 -2       207       363       364      1876      1880      1878
 -1       565    8    0    1
 -2       209       208       365      1414      1881      1882
 -1       566    8    0    1
 -2       208       364       365      1879      1883      1881
 -1       567    8    0    1
 -2       210       209       366      1417      1884      1885
 -1       568    8    0    1
 -2       209       365       366      1882      1886      1884
 -1       569    8    0    1
 -2       211       210       367      1420      1887      1888
 -1       570    8    0    1
 -2       210       366       367      1885      1889      1887
 -1       571    8    0    1
 -2       212       211       368      1423      1890      1891
 -1       572    8    0    1
 -2       211       367       368      1888      1892      1890
 -1       573    8    0    1
 -2       213       212       369      1426      1893      1894
 -1       574    8    0    1
 -2       212       368       369      1891      1895      1893
 -1       575    8    0    1
 -2       214       213       370      1429      1896      1897
 -1       576    8    0    1
 -2       213       369       370      1894      1898      1896
 -1       577    8    0    1
 -2       215       214       371      1432      1899      1900
 -1       578    8    0    1
 -2       214       370       371      1897      1901      1899
 -1       579    8    0    1
 -2       216       215       372      1435      1902      1903
 -1       580    8    0    1
 -2       215       371       372      1900      1904      1902
 -1       581    8    0    1
 -2       217       216       373      1438      1905      1906
 -1       582    8    0    1
 -2       216       372       373      1903      1907      1905
 -1       583    8    0    1
 -2       218       217       374      1441      1908      1909
 -1       584    8    0    1
 -2       217       373       374      1906      1910      1908
 -1       585    8    0    1
 -2       219       218       375      1444      1911      1912
 -1       586    8    0    1
 -2       218       374       375      1909      1913      1911
 -1       587    8    0    1
 -2       220       219       376      1447      1914      1915
 -1       588    8    0    1
 -2       219       375       376      1912      1916      1914
 -1       589    8    0    1
 -2       221       220       377      1450      1917      1918
 -1       590    8    0    1
 -2       220       376       377      1915      1919      1917
 -1       591    8    0    1
 -2       222       221       378      1453      1920      1921
 -1       592    8    0    1
 -2       221       377       378      1918      1922      1920
 -1       593    8    0    1
 -2       223       222       379      1456      1923      1924
 -1       594    8    0    1
 -2       222       378       379      1921      1925      1923
 -1       595    8    0    1
 -2       224       223       380      1459      1926      1927
 -1       596    8    0    1
 -2       223       379       380      1924      1928      1926
 -1       597    8    0    1
 -2       225       224       381      1462      1929      1930
 -1       598    8    0    1
 -2       224       380       381      1927      1931      1929
 -1       599    8    0    1
 -2       226       225       382      1465      1932      1933
 -1       600    8    0    1
 -2       225       381       382      1930      1934      1932
 -1       601    8    0    1
 -2       227       226       383      1468      1935      1936
 -1       602    8    0    1
 -2       226       382       383      1933      1937      1935
 -1       603    8    0    1
 -2       228       227       384      1471      1938      1939
 -1       604    8    0    1
 -2       227       383       384      1936      1940      1938
 -1       605    8    0    1
 -2       239       240       298      1507      1941      1942
 -1       606    8    0    1
 -2       231       232       385      1484      1943      1944
 -1       607    8    0    1
 -2       230       231       386      1481      1945      1946
 -1       608    8    0    1
 -2       231       385       386      1944      1947      1945
 -1       609    8    0    1
 -2       232       233       387      1487      1948      1949
 -1       610    8    0    1
 -2       232       387       385      1949      1950      1943
 -1       611    8    0    1
 -2       233       234       388      1490      1951      1952
 -1       612    8    0    1
 -2       233       388       387      1952      1953      1948
 -1       613    8    0    1
 -2       234       235       389      1493      1954      1955
 -1       614    8    0    1
 -2       234       389       388      1955      1956      1951
 -1       615    8    0    1
 -2       237       238       301      1501      1957      1958
 -1       616    8    0    1
 -2       241       242       390      1513      1959      1960
 -1       617    8    0    1
 -2       242       243       391      1516      1961      1962
 -1       618    8    0    1
 -2       242       391       390      1962      1963      1959
 -1       619    8    0    1
 -2       243       244       392      1519      1964      1965
 -1       620    8    0    1
 -2       243       392       391      1965      1966      1961
 -1       621    8    0    1
 -2       244       245       393      1522      1967      1968
 -1       622    8    0    1
 -2       244       393       392      1968      1969      1964
 -1       623    8    0    1
 -2       245       246       394      1525      1970      1971
 -1       624    8    0    1
 -2       245       394       393      1971      1972      1967
 -1       625    8    0    1
 -2       246       247       395      1528      1973      1974
 -1       626    8    0    1
 -2       246       395       394      1974      1975      1970
 -1       627    8    0    1
 -2       247       248       396      1531      1976      1977
 -1       628    8    0    1
 -2       247       396       395      1977      1978      1973
 -1       629    8    0    1
 -2       248       249       397      1534      1979      1980
 -1       630    8    0    1
 -2       248       397       396      1980      1981      1976
 -1       631    8    0    1
 -2       249       250       398      1537      1982      1983
 -1       632    8    0    1
 -2       249       398       397      1983      1984      1979
 -1       633    8    0    1
 -2       250       251       399      1540      1985      1986
 -1       634    8    0    1
 -2       250       399       398      1986      1987      1982
 -1       635    8    0    1
 -2       251       252       400      1543      1988      1989
 -1       636    8    0    1
 -2       251       400       399      1989      1990      1985
 -1       637    8    0    1
 -2       252       253       401      1546      1991      1992
 -1       638    8    0    1
 -2       252       401       400      1992      1993      1988
 -1       639    8    0    1
 -2       253       254       402      1549      1994      1995
 -1       640    8    0    1
 -2       253       402       401      1995      1996      1991
 -1       641    8    0    1
 -2       254       255       403      1552      1997      1998
 -1       642    8    0    1
 -2       254       403       402      1998      1999      1994
 -1       643    8    0    1
 -2       255       256       404      1555      2000      2001
 -1       644    8    0    1
 -2       255       404       403      2001      2002      1997
 -1       645    8    0    1
 -2       256       257       405      1558      2003      2004
 -1       646    8    0    1
 -2       256       405       404      2004      2005      2000
 -1       647    8    0    1
 -2       257       258       406      1561      2006      2007
 -1       648    8    0    1
 -2       257       406       405      2007      2008      2003
 -1       649    8    0    1
 -2       258       259       407      1564      2009      2010
 -1       650    8    0    1
 -2       258       407       406      2010      2011      2006
 -1       651    8    0    1
 -2       259       260       408      1567      2012      2013
 -1       652    8    0    1
 -2       259       408       407      2013      2014      2009
 -1       653    8    0    1
 -2       260       261       409      1570      2015      2016
 -1       654    8    0    1
 -2       260       409       408      2016      2017      2012
 -1       655    8    0    1
 -2       261       262       410      1573      2018      2019
 -1       656    8    0    1
 -2       261       410       409      2019      2020      2015
 -1       657    8    0    1
 -2       262       263       411      1576      2021      2022
 -1       658    8    0    1
 -2       262       411       410      2022      2023      2018
 -1       659    8    0    1
 -2       263       264       412      1579      2024      2025
 -1       660    8    0    1
 -2       263       412       411      2025      2026      2021
 -1       661    8    0    1
 -2       264       265       413      1582      2027      2028
 -1       662    8    0    1
 -2       264       413       412      2028      2029      2024
 -1       663    8    0    1
 -2       265       266       414      1585      2030      2031
 -1       664    8    0    1
 -2       265       414       413      2031      2032      2027
 -1       665    8    0    1
 -2       266       267       415      1588      2033      2034
 -1       666    8    0    1
 -2       266       415       414      2034      2035      2030
 -1       667    8    0    1
 -2       267       268       416      1591      2036      2037
 -1       668    8    0    1
 -2       267       416       415      2037      2038      2033
 -1       669    8    0    1
 -2       268       269       417      1594      2039      2040
 -1       670    8    0    1
 -2       268       417       416      2040      2041      2036
 -1       671    8    0    1
 -2       269       270       418      1597      2042      2043
 -1       672    8    0    1
 -2       269       418       417      2043      2044      2039
 -1       673    8    0    1
 -2       270       271       419      1600      2045      2046
 -1       674    8    0    1
 -2       270       419       418      2046      2047      2042
 -1       675    8    0    1
 -2       271       272       420      1603      2048      2049
 -1       676    8    0    1
 -2       271       420       419      2049      2050      2045
 -1       677    8    0    1
 -2       272       273       421      1606      2051      2052
 -1       678    8    0    1
 -2       272       421       420      2052      2053      2048
 -1       679    8    0    1
 -2       273       274       422      1609      2054      2055
 -1       680    8    0    1
 -2       273       422       421      2055      2056      2051
 -1       681    8    0    1
 -2       274       275       423      1612      2057      2058
 -1       682    8    0    1
 -2       274       423       422      2058      2059      2054
 -1       683    8    0    1
 -2       275       276       424      1615      2060      2061
 -1       684    8    0    1
 -2       275       424       423      2061      2062      2057
 -1       685    8    0    1
 -2       276       277       425      1618      2063      2064
 -1       686    8    0    1
 -2       276       425       424      2064      2065      2060
 -1       687    8    0    1
 -2       277       278       426      1621      2066      2067
 -1       688    8    0    1
 -2       425       277       426      2063      2067      2068
 -1       689    8    0    1
 -2       278       279       426      1625      2069      2066
 -1       690    8    0    1
 -2       280       281       427      1631      2070      2071
 -1       691    8    0    1
 -2       279       280       428      1628      2072      2073
 -1       692    8    0    1
 -2       426       279       428      2069      2073      2074
 -1       693    8    0    1
 -2       280       427       428      2071      2075      2072
 -1       694    8    0    1
 -2       281       282       429      1634      2076      2077
 -1       695    8    0    1
 -2       281       429       427      2077      2078      2070
 -1       696    8    0    1
 -2       282       283       430      1637      2079      2080
 -1       697    8    0    1
 -2       282       430       429      2080      2081      2076
 -1       698    8    0    1
 -2       283       284       431      1640      2082      2083
 -1       699    8    0    1
 -2       283       431       430      2083      2084      2079
 -1       700    8    0    1
 -2       284       285       432      1643      2085      2086
 -1       701    8    0    1
 -2       284       432       431      2086      2087      2082
 -1       702    8    0    1
 -2       285       286       433      1646      2088      2089
 -1       703    8    0    1
 -2       285       433       432      2089      2090      2085
 -1       704    8    0    1
 -2       286       287       434      1649      2091      2092
 -1       705    8    0    1
 -2       286       434       433      2092      2093      2088
 -1       706    8    0    1
 -2       287       288       435      1652      2094      2095
 -1       707    8    0    1
 -2       287       435       434      2095      2096      2091
 -1       708    8    0    1
 -2       288       289       436      1655      2097      2098
 -1       709    8    0    1
 -2       288       436       435      2098      2099      2094
 -1       710    8    0    1
 -2       289       290       437      1658      2100      2101
 -1       711    8    0    1
 -2       289       437       436      2101      2102      2097
 -1       712    8    0    1
 -2       290       291       438      1661      2103      2104
 -1       713    8    0    1
 -2       290       438       437      2104      2105      2100
 -1       714    8    0    1
 -2       291       292       439      1664      2106      2107
 -1       715    8    0    1
 -2       291       439       438      2107      2108      2103
 -1       716    8    0    1
 -2       295       296       440      1733      2109      2110
 -1       717    8    0    1
 -2       295       440       337      2110      2111      1798
 -1       718    8    0    1
 -2       323       138       228      1730      1473      2112
 -1       719    8    0    1
 -2       321       293       441      1728      2113      2114
 -1       720    8    0    1
 -2       239       298       299      1942      1736      2115
 -1       721    8    0    1
 -2       168       169       442      1294      2116      2117
 -1       722    8    0    1
 -2       324       168       442      1761      2117      2118
 -1       723    8    0    1
 -2       169       326       442      1767      2119      2116
 -1       724    8    0    1
 -2       296       297       443      1734      2120      2121
 -1       725    8    0    1
 -2       300       301       238      1738      1957      2122
 -1       726    8    0    1
 -2       302       303       338      1740      2123      2124
 -1       727    8    0    1
 -2       303       304       444      1741      2125      2126
 -1       728    8    0    1
 -2       304       305       445      1742      2127      2128
 -1       729    8    0    1
 -2       304       445       444      2128      2129      2125
 -1       730    8    0    1
 -2       305       306       446      1743      2130      2131
 -1       731    8    0    1
 -2       306       307       447      1744      2132      2133
 -1       732    8    0    1
 -2       306       447       446      2133      2134      2130
 -1       733    8    0    1
 -2       307       308       448      1745      2135      2136
 -1       734    8    0    1
 -2       308       309       449      1746      2137      2138
 -1       735    8    0    1
 -2       308       449       448      2138      2139      2135
 -1       736    8    0    1
 -2       309       310       450      1747      2140      2141
 -1       737    8    0    1
 -2       310       311       451      1748      2142      2143
 -1       738    8    0    1
 -2       311       312       452      1749      2144      2145
 -1       739    8    0    1
 -2       312       313       453      1750      2146      2147
 -1       740    8    0    1
 -2       313       314       454      1751      2148      2149
 -1       741    8    0    1
 -2       313       454       453      2149      2150      2146
 -1       742    8    0    1
 -2       314       315       455      1752      2151      2152
 -1       743    8    0    1
 -2       315       316       456      1753      2153      2154
 -1       744    8    0    1
 -2       315       456       455      2154      2155      2151
 -1       745    8    0    1
 -2       316       317       457      1754      2156      2157
 -1       746    8    0    1
 -2       317       318       458      1755      2158      2159
 -1       747    8    0    1
 -2       318       319       459      1756      2160      2161
 -1       748    8    0    1
 -2       319       320       460      1757      2162      2163
 -1       749    8    0    1
 -2       320       321       461      1758      2164      2165
 -1       750    8    0    1
 -2       180       229       336      1803      2166      1795
 -1       751    8    0    1
 -2       293       294       462      1729      2167      2168
 -1       752    8    0    1
 -2       323       228       384      2112      1939      2169
 -1       753    8    0    1
 -2       181       166       325      1802      1764      2170
 -1       754    8    0    1
 -2       298       240       463      1941      2171      2172
 -1       755    8    0    1
 -2       297       298       463      1735      2172      2173
 -1       756    8    0    1
 -2       240       241       463      1510      2174      2171
 -1       757    8    0    1
 -2       297       463       443      2173      2175      2120
 -1       758    8    0    1
 -2       294       337       462      1799      2176      2167
 -1       759    8    0    1
 -2       293       462       441      2168      2177      2113
 -1       760    8    0    1
 -2       463       241       390      2174      1960      2178
 -1       761    8    0    1
 -2       182       181       325      1333      2170      2179
 -1       762    8    0    1
 -2       322       237       464      1760      2180      2181
 -1       763    8    0    1
 -2       339       182       325      1804      2179      2182
 -1       764    8    0    1
 -2       230       386       336      1946      2183      2184
 -1       765    8    0    1
 -2       229       230       336      1478      2184      2166
 -1       766    8    0    1
 -2       237       301       464      1958      2185      2180
 -1       767    8    0    1
 -2       389       235       465      1954      2186      2187
 -1       768    8    0    1
 -2       235       236       465      1496      2188      2186
 -1       769    8    0    1
 -2       296       443       440      2121      2189      2109
 -1       770    8    0    1
 -2       238       239       300      1504      2190      2122
 -1       771    8    0    1
 -2       447       307       448      2132      2136      2191
 -1       772    8    0    1
 -2       300       239       299      2190      2115      1737
 -1       773    8    0    1
 -2       445       305       446      2127      2131      2192
 -1       774    8    0    1
 -2       292       323       384      1732      2169      2193
 -1       775    8    0    1
 -2       321       441       461      2114      2194      2164
 -1       776    8    0    1
 -2       460       320       461      2162      2165      2195
 -1       777    8    0    1
 -2       459       319       460      2160      2163      2196
 -1       778    8    0    1
 -2       458       318       459      2158      2161      2197
 -1       779    8    0    1
 -2       456       316       457      2153      2157      2198
 -1       780    8    0    1
 -2       454       314       455      2148      2152      2199
 -1       781    8    0    1
 -2       452       312       453      2144      2147      2200
 -1       782    8    0    1
 -2       451       311       452      2142      2145      2201
 -1       783    8    0    1
 -2       449       309       450      2137      2141      2202
 -1       784    8    0    1
 -2       292       384       439      2193      2203      2106
 -1       785    8    0    1
 -2       338       303       444      2123      2126      2204
 -1       786    8    0    1
 -2       301       302       464      1739      2205      2185
 -1       787    8    0    1
 -2       464       302       338      2205      2124      2206
 -1       788    8    0    1
 -2       450       310       451      2140      2143      2207
 -1       789    8    0    1
 -2       457       317       458      2156      2159      2208
 -1       790    8    0    1
 -2       327       328       466      1773      2209      2210
 -1       791    8    0    1
 -2       326       327       467      1770      2211      2212
 -1       792    8    0    1
 -2       327       466       467      2210      2213      2211
 -1       793    8    0    1
 -2       329       330       468      1779      2214      2215
 -1       794    8    0    1
 -2       330       331       469      1782      2216      2217
 -1       795    8    0    1
 -2       330       469       468      2217      2218      2214
 -1       796    8    0    1
 -2       331       332       470      1785      2219      2220
 -1       797    8    0    1
 -2       331       470       469      2220      2221      2216
 -1       798    8    0    1
 -2       332       333       471      1788      2222      2223
 -1       799    8    0    1
 -2       332       471       470      2223      2224      2219
 -1       800    8    0    1
 -2       333       334       472      1791      2225      2226
 -1       801    8    0    1
 -2       333       472       471      2226      2227      2222
 -1       802    8    0    1
 -2       334       335       473      1794      2228      2229
 -1       803    8    0    1
 -2       334       473       472      2229      2230      2225
 -1       804    8    0    1
 -2       335       336       474      1797      2231      2232
 -1       805    8    0    1
 -2       473       335       474      2228      2232      2233
 -1       806    8    0    1
 -2       336       386       474      2183      2234      2231
 -1       807    8    0    1
 -2       236       338       465      1801      2235      2188
 -1       808    8    0    1
 -2       389       465       475      2187      2236      2237
 -1       809    8    0    1
 -2       340       339       476      1808      2238      2239
 -1       810    8    0    1
 -2       339       325       477      2182      2240      2241
 -1       811    8    0    1
 -2       476       339       477      2238      2241      2242
 -1       812    8    0    1
 -2       325       324       477      1765      2243      2240
 -1       813    8    0    1
 -2       322       464       338      2181      2206      1800
 -1       814    8    0    1
 -2       341       340       478      1811      2244      2245
 -1       815    8    0    1
 -2       340       476       478      2239      2246      2244
 -1       816    8    0    1
 -2       342       341       479      1814      2247      2248
 -1       817    8    0    1
 -2       341       478       479      2245      2249      2247
 -1       818    8    0    1
 -2       343       342       480      1817      2250      2251
 -1       819    8    0    1
 -2       342       479       480      2248      2252      2250
 -1       820    8    0    1
 -2       344       343       481      1820      2253      2254
 -1       821    8    0    1
 -2       343       480       481      2251      2255      2253
 -1       822    8    0    1
 -2       345       344       482      1823      2256      2257
 -1       823    8    0    1
 -2       344       481       482      2254      2258      2256
 -1       824    8    0    1
 -2       346       345       483      1826      2259      2260
 -1       825    8    0    1
 -2       345       482       483      2257      2261      2259
 -1       826    8    0    1
 -2       347       346       484      1829      2262      2263
 -1       827    8    0    1
 -2       346       483       484      2260      2264      2262
 -1       828    8    0    1
 -2       348       347       485      1832      2265      2266
 -1       829    8    0    1
 -2       347       484       485      2263      2267      2265
 -1       830    8    0    1
 -2       349       348       486      1835      2268      2269
 -1       831    8    0    1
 -2       348       485       486      2266      2270      2268
 -1       832    8    0    1
 -2       350       349       487      1838      2271      2272
 -1       833    8    0    1
 -2       349       486       487      2269      2273      2271
 -1       834    8    0    1
 -2       351       350       488      1841      2274      2275
 -1       835    8    0    1
 -2       350       487       488      2272      2276      2274
 -1       836    8    0    1
 -2       352       351       489      1844      2277      2278
 -1       837    8    0    1
 -2       351       488       489      2275      2279      2277
 -1       838    8    0    1
 -2       353       352       490      1847      2280      2281
 -1       839    8    0    1
 -2       352       489       490      2278      2282      2280
 -1       840    8    0    1
 -2       354       353       491      1850      2283      2284
 -1       841    8    0    1
 -2       353       490       491      2281      2285      2283
 -1       842    8    0    1
 -2       355       354       492      1853      2286      2287
 -1       843    8    0    1
 -2       354       491       492      2284      2288      2286
 -1       844    8    0    1
 -2       356       355       493      1856      2289      2290
 -1       845    8    0    1
 -2       355       492       493      2287      2291      2289
 -1       846    8    0    1
 -2       357       356       494      1859      2292      2293
 -1       847    8    0    1
 -2       356       493       494      2290      2294      2292
 -1       848    8    0    1
 -2       358       357       495      1862      2295      2296
 -1       849    8    0    1
 -2       357       494       495      2293      2297      2295
 -1       850    8    0    1
 -2       359       358       496      1865      2298      2299
 -1       851    8    0    1
 -2       358       495       496      2296      2300      2298
 -1       852    8    0    1
 -2       360       359       497      1868      2301      2302
 -1       853    8    0    1
 -2       359       496       497      2299      2303      2301
 -1       854    8    0    1
 -2       361       360       498      1871      2304      2305
 -1       855    8    0    1
 -2       360       497       498      2302      2306      2304
 -1       856    8    0    1
 -2       362       361       499      1874      2307      2308
 -1       857    8    0    1
 -2       361       498       499      2305      2309      2307
 -1       858    8    0    1
 -2       363       362       500      1877      2310      2311
 -1       859    8    0    1
 -2       362       499       500      2308      2312      2310
 -1       860    8    0    1
 -2       364       363       501      1880      2313      2314
 -1       861    8    0    1
 -2       363       500       501      2311      2315      2313
 -1       862    8    0    1
 -2       365       364       502      1883      2316      2317
 -1       863    8    0    1
 -2       364       501       502      2314      2318      2316
 -1       864    8    0    1
 -2       366       365       503      1886      2319      2320
 -1       865    8    0    1
 -2       365       502       503      2317      2321      2319
 -1       866    8    0    1
 -2       367       366       504      1889      2322      2323
 -1       867    8    0    1
 -2       366       503       504      2320      2324      2322
 -1       868    8    0    1
 -2       368       367       505      1892      2325      2326
 -1       869    8    0    1
 -2       367       504       505      2323      2327      2325
 -1       870    8    0    1
 -2       369       368       506      1895      2328      2329
 -1       871    8    0    1
 -2       368       505       506      2326      2330      2328
 -1       872    8    0    1
 -2       370       369       507      1898      2331      2332
 -1       873    8    0    1
 -2       369       506       507      2329      2333      2331
 -1       874    8    0    1
 -2       371       370       508      1901      2334      2335
 -1       875    8    0    1
 -2       370       507       508      2332      2336      2334
 -1       876    8    0    1
 -2       372       371       509      1904      2337      2338
 -1       877    8    0    1
 -2       371       508       509      2335      2339      2337
 -1       878    8    0    1
 -2       373       372       510      1907      2340      2341
 -1       879    8    0    1
 -2       372       509       510      2338      2342      2340
 -1       880    8    0    1
 -2       374       373       511      1910      2343      2344
 -1       881    8    0    1
 -2       373       510       511      2341      2345      2343
 -1       882    8    0    1
 -2       375       374       512      1913      2346      2347
 -1       883    8    0    1
 -2       374       511       512      2344      2348      2346
 -1       884    8    0    1
 -2       376       375       513      1916      2349      2350
 -1       885    8    0    1
 -2       375       512       513      2347      2351      2349
 -1       886    8    0    1
 -2       377       376       514      1919      2352      2353
 -1       887    8    0    1
 -2       376       513       514      2350      2354      2352
 -1       888    8    0    1
 -2       378       377       515      1922      2355      2356
 -1       889    8    0    1
 -2       377       514       515      2353      2357      2355
 -1       890    8    0    1
 -2       379       378       516      1925      2358      2359
 -1       891    8    0    1
 -2       378       515       516      2356      2360      2358
 -1       892    8    0    1
 -2       380       379       517      1928      2361      2362
 -1       893    8    0    1
 -2       379       516       517      2359      2363      2361
 -1       894    8    0    1
 -2       381       380       518      1931      2364      2365
 -1       895    8    0    1
 -2       380       517       518      2362      2366      2364
 -1       896    8    0    1
 -2       382       381       519      1934      2367      2368
 -1       897    8    0    1
 -2       381       518       519      2365      2369      2367
 -1       898    8    0    1
 -2       383       382       520      1937      2370      2371
 -1       899    8    0    1
 -2       382       519       520      2368      2372      2370
 -1       900    8    0    1
 -2       384       383       521      1940      2373      2374
 -1       901    8    0    1
 -2       439       384       521      2203      2374      2375
 -1       902    8    0    1
 -2       383       520       521      2371      2376      2373
 -1       903    8    0    1
 -2       385       387       522      1950      2377      2378
 -1       904    8    0    1
 -2       388       389       523      1956      2379      2380
 -1       905    8    0    1
 -2       450       451       524      2207      2381      2382
 -1       906    8    0    1
 -2       462       337       525      2176      2383      2384
 -1       907    8    0    1
 -2       443       463       390      2175      2178      2385
 -1       908    8    0    1
 -2       390       391       526      1963      2386      2387
 -1       909    8    0    1
 -2       393       394       527      1972      2388      2389
 -1       910    8    0    1
 -2       394       395       528      1975      2390      2391
 -1       911    8    0    1
 -2       394       528       527      2391      2392      2388
 -1       912    8    0    1
 -2       395       396       529      1978      2393      2394
 -1       913    8    0    1
 -2       395       529       528      2394      2395      2390
 -1       914    8    0    1
 -2       396       397       530      1981      2396      2397
 -1       915    8    0    1
 -2       396       530       529      2397      2398      2393
 -1       916    8    0    1
 -2       397       398       531      1984      2399      2400
 -1       917    8    0    1
 -2       397       531       530      2400      2401      2396
 -1       918    8    0    1
 -2       398       399       532      1987      2402      2403
 -1       919    8    0    1
 -2       398       532       531      2403      2404      2399
 -1       920    8    0    1
 -2       399       400       533      1990      2405      2406
 -1       921    8    0    1
 -2       399       533       532      2406      2407      2402
 -1       922    8    0    1
 -2       400       401       534      1993      2408      2409
 -1       923    8    0    1
 -2       400       534       533      2409      2410      2405
 -1       924    8    0    1
 -2       401       402       535      1996      2411      2412
 -1       925    8    0    1
 -2       401       535       534      2412      2413      2408
 -1       926    8    0    1
 -2       402       403       536      1999      2414      2415
 -1       927    8    0    1
 -2       402       536       535      2415      2416      2411
 -1       928    8    0    1
 -2       403       404       537      2002      2417      2418
 -1       929    8    0    1
 -2       403       537       536      2418      2419      2414
 -1       930    8    0    1
 -2       404       405       538      2005      2420      2421
 -1       931    8    0    1
 -2       404       538       537      2421      2422      2417
 -1       932    8    0    1
 -2       405       406       539      2008      2423      2424
 -1       933    8    0    1
 -2       405       539       538      2424      2425      2420
 -1       934    8    0    1
 -2       406       407       540      2011      2426      2427
 -1       935    8    0    1
 -2       406       540       539      2427      2428      2423
 -1       936    8    0    1
 -2       407       408       541      2014      2429      2430
 -1       937    8    0    1
 -2       407       541       540      2430      2431      2426
 -1       938    8    0    1
 -2       408       409       542      2017      2432      2433
 -1       939    8    0    1
 -2       408       542       541      2433      2434      2429
 -1       940    8    0    1
 -2       409       410       543      2020      2435      2436
 -1       941    8    0    1
 -2       409       543       542      2436      2437      2432
 -1       942    8    0    1
 -2       410       411       544      2023      2438      2439
 -1       943    8    0    1
 -2       410       544       543      2439      2440      2435
 -1       944    8    0    1
 -2       411       412       545      2026      2441      2442
 -1       945    8    0    1
 -2       411       545       544      2442      2443      2438
 -1       946    8    0    1
 -2       412       413       546      2029      2444      2445
 -1       947    8    0    1
 -2       412       546       545      2445      2446      2441
 -1       948    8    0    1
 -2       413       414       547      2032      2447      2448
 -1       949    8    0    1
 -2       413       547       546      2448      2449      2444
 -1       950    8    0    1
 -2       414       415       548      2035      2450      2451
 -1       951    8    0    1
 -2       414       548       547      2451      2452      2447
 -1       952    8    0    1
 -2       415       416       549      2038      2453      2454
 -1       953    8    0    1
 -2       415       549       548      2454      2455      2450
 -1       954    8    0    1
 -2       416       417       550      2041      2456      2457
 -1       955    8    0    1
 -2       416       550       549      2457      2458      2453
 -1       956    8    0    1
 -2       417       418       551      2044      2459      2460
 -1       957    8    0    1
 -2       417       551       550      2460      2461      2456
 -1       958    8    0    1
 -2       418       419       552      2047      2462      2463
 -1       959    8    0    1
 -2       418       552       551      2463      2464      2459
 -1       960    8    0    1
 -2       419       420       553      2050      2465      2466
 -1       961    8    0    1
 -2       419       553       552      2466      2467      2462
 -1       962    8    0    1
 -2       420       421       554      2053      2468      2469
 -1       963    8    0    1
 -2       420       554       553      2469      2470      2465
 -1       964    8    0    1
 -2       421       422       555      2056      2471      2472
 -1       965    8    0    1
 -2       421       555       554      2472      2473      2468
 -1       966    8    0    1
 -2       422       423       556      2059      2474      2475
 -1       967    8    0    1
 -2       422       556       555      2475      2476      2471
 -1       968    8    0    1
 -2       423       424       557      2062      2477      2478
 -1       969    8    0    1
 -2       423       557       556      2478      2479      2474
 -1       970    8    0    1
 -2       425       426       558      2068      2480      2481
 -1       971    8    0    1
 -2       426       428       558      2074      2482      2480
 -1       972    8    0    1
 -2       429       430       559      2081      2483      2484
 -1       973    8    0    1
 -2       430       431       560      2084      2485      2486
 -1       974    8    0    1
 -2       430       560       559      2486      2487      2483
 -1       975    8    0    1
 -2       427       429       561      2078      2488      2489
 -1       976    8    0    1
 -2       429       559       561      2484      2490      2488
 -1       977    8    0    1
 -2       431       432       562      2087      2491      2492
 -1       978    8    0    1
 -2       431       562       560      2492      2493      2485
 -1       979    8    0    1
 -2       432       433       563      2090      2494      2495
 -1       980    8    0    1
 -2       432       563       562      2495      2496      2491
 -1       981    8    0    1
 -2       433       434       564      2093      2497      2498
 -1       982    8    0    1
 -2       433       564       563      2498      2499      2494
 -1       983    8    0    1
 -2       434       435       565      2096      2500      2501
 -1       984    8    0    1
 -2       434       565       564      2501      2502      2497
 -1       985    8    0    1
 -2       435       436       566      2099      2503      2504
 -1       986    8    0    1
 -2       435       566       565      2504      2505      2500
 -1       987    8    0    1
 -2       436       437       567      2102      2506      2507
 -1       988    8    0    1
 -2       436       567       566      2507      2508      2503
 -1       989    8    0    1
 -2       437       438       568      2105      2509      2510
 -1       990    8    0    1
 -2       437       568       567      2510      2511      2506
 -1       991    8    0    1
 -2       438       439       569      2108      2512      2513
 -1       992    8    0    1
 -2       568       438       569      2509      2513      2514
 -1       993    8    0    1
 -2       439       521       569      2375      2515      2512
 -1       994    8    0    1
 -2       337       440       570      2111      2516      2517
 -1       995    8    0    1
 -2       337       570       525      2517      2518      2383
 -1       996    8    0    1
 -2       460       461       571      2195      2519      2520
 -1       997    8    0    1
 -2       452       453       572      2200      2521      2522
 -1       998    8    0    1
 -2       392       393       573      1969      2523      2524
 -1       999    8    0    1
 -2       393       527       573      2389      2525      2523
 -1      1000    8    0    1
 -2       391       392       574      1966      2526      2527
 -1      1001    8    0    1
 -2       392       573       574      2524      2528      2526
 -1      1002    8    0    1
 -2       386       385       575      1947      2529      2530
 -1      1003    8    0    1
 -2       474       386       575      2234      2530      2531
 -1      1004    8    0    1
 -2       385       522       575      2378      2532      2529
 -1      1005    8    0    1
 -2       387       388       576      1953      2533      2534
 -1      1006    8    0    1
 -2       387       576       522      2534      2535      2377
 -1      1007    8    0    1
 -2       328       329       577      1776      2536      2537
 -1      1008    8    0    1
 -2       466       328       577      2209      2537      2538
 -1      1009    8    0    1
 -2       329       468       577      2215      2539      2536
 -1      1010    8    0    1
 -2       447       448       578      2191      2540      2541
 -1      1011    8    0    1
 -2       445       446       475      2192      2542      2543
 -1      1012    8    0    1
 -2       446       447       579      2134      2544      2545
 -1      1013    8    0    1
 -2       448       449       580      2139      2546      2547
 -1      1014    8    0    1
 -2       457       458       581      2208      2548      2549
 -1      1015    8    0    1
 -2       449       450       582      2202      2550      2551
 -1      1016    8    0    1
 -2       449       582       580      2551      2552      2546
 -1      1017    8    0    1
 -2       451       452       583      2201      2553      2554
 -1      1018    8    0    1
 -2       453       454       584      2150      2555      2556
 -1      1019    8    0    1
 -2       454       455       585      2199      2557      2558
 -1      1020    8    0    1
 -2       455       456       586      2155      2559      2560
 -1      1021    8    0    1
 -2       456       457       587      2198      2561      2562
 -1      1022    8    0    1
 -2       458       459       588      2197      2563      2564
 -1      1023    8    0    1
 -2       459       460       589      2196      2565      2566
 -1      1024    8    0    1
 -2       460       571       589      2520      2567      2565
 -1      1025    8    0    1
 -2       441       462       590      2177      2568      2569
 -1      1026    8    0    1
 -2       461       441       591      2194      2570      2571
 -1      1027    8    0    1
 -2       443       390       440      2385      2572      2189
 -1      1028    8    0    1
 -2       326       467       592      2212      2573      2574
 -1      1029    8    0    1
 -2       326       592       442      2574      2575      2119
 -1      1030    8    0    1
 -2       576       388       523      2533      2380      2576
 -1      1031    8    0    1
 -2       477       324       442      2243      2118      2577
 -1      1032    8    0    1
 -2       475       465       445      2236      2578      2543
 -1      1033    8    0    1
 -2       524       451       583      2381      2554      2579
 -1      1034    8    0    1
 -2       523       389       475      2379      2237      2580
 -1      1035    8    0    1
 -2       450       524       582      2382      2581      2550
 -1      1036    8    0    1
 -2       462       525       593      2384      2582      2583
 -1      1037    8    0    1
 -2       462       593       590      2583      2584      2568
 -1      1038    8    0    1
 -2       526       391       574      2386      2527      2585
 -1      1039    8    0    1
 -2       425       558       424      2481      2586      2065
 -1      1040    8    0    1
 -2       557       424       558      2477      2586      2587
 -1      1041    8    0    1
 -2       427       561       594      2489      2588      2589
 -1      1042    8    0    1
 -2       428       427       594      2075      2589      2590
 -1      1043    8    0    1
 -2       572       453       584      2521      2556      2591
 -1      1044    8    0    1
 -2       571       461       591      2519      2571      2592
 -1      1045    8    0    1
 -2       591       441       590      2570      2569      2593
 -1      1046    8    0    1
 -2       452       572       583      2522      2594      2553
 -1      1047    8    0    1
 -2       588       459       595      2563      2595      2596
 -1      1048    8    0    1
 -2       459       589       595      2566      2597      2595
 -1      1049    8    0    1
 -2       587       457       581      2561      2549      2598
 -1      1050    8    0    1
 -2       586       456       587      2559      2562      2599
 -1      1051    8    0    1
 -2       585       455       586      2557      2560      2600
 -1      1052    8    0    1
 -2       584       454       585      2555      2558      2601
 -1      1053    8    0    1
 -2       581       458       588      2548      2564      2602
 -1      1054    8    0    1
 -2       579       447       578      2544      2541      2603
 -1      1055    8    0    1
 -2       445       465       444      2578      2604      2129
 -1      1056    8    0    1
 -2       448       580       578      2547      2605      2540
 -1      1057    8    0    1
 -2       440       390       526      2572      2387      2606
 -1      1058    8    0    1
 -2       469       470       596      2221      2607      2608
 -1      1059    8    0    1
 -2       468       469       597      2218      2609      2610
 -1      1060    8    0    1
 -2       469       596       597      2608      2611      2609
 -1      1061    8    0    1
 -2       471       472       598      2227      2612      2613
 -1      1062    8    0    1
 -2       472       473       599      2230      2614      2615
 -1      1063    8    0    1
 -2       472       599       598      2615      2616      2612
 -1      1064    8    0    1
 -2       473       474       600      2233      2617      2618
 -1      1065    8    0    1
 -2       599       473       600      2614      2618      2619
 -1      1066    8    0    1
 -2       474       575       600      2531      2620      2617
 -1      1067    8    0    1
 -2       528       529       601      2395      2621      2622
 -1      1068    8    0    1
 -2       476       477       602      2242      2623      2624
 -1      1069    8    0    1
 -2       529       530       603      2398      2625      2626
 -1      1070    8    0    1
 -2       529       603       601      2626      2627      2621
 -1      1071    8    0    1
 -2       465       338       444      2235      2204      2604
 -1      1072    8    0    1
 -2       479       478       604      2249      2628      2629
 -1      1073    8    0    1
 -2       480       479       605      2252      2630      2631
 -1      1074    8    0    1
 -2       479       604       605      2629      2632      2630
 -1      1075    8    0    1
 -2       481       480       606      2255      2633      2634
 -1      1076    8    0    1
 -2       480       605       606      2631      2635      2633
 -1      1077    8    0    1
 -2       482       481       607      2258      2636      2637
 -1      1078    8    0    1
 -2       481       606       607      2634      2638      2636
 -1      1079    8    0    1
 -2       483       482       608      2261      2639      2640
 -1      1080    8    0    1
 -2       482       607       608      2637      2641      2639
 -1      1081    8    0    1
 -2       484       483       609      2264      2642      2643
 -1      1082    8    0    1
 -2       483       608       609      2640      2644      2642
 -1      1083    8    0    1
 -2       485       484       610      2267      2645      2646
 -1      1084    8    0    1
 -2       484       609       610      2643      2647      2645
 -1      1085    8    0    1
 -2       486       485       611      2270      2648      2649
 -1      1086    8    0    1
 -2       485       610       611      2646      2650      2648
 -1      1087    8    0    1
 -2       487       486       612      2273      2651      2652
 -1      1088    8    0    1
 -2       486       611       612      2649      2653      2651
 -1      1089    8    0    1
 -2       488       487       613      2276      2654      2655
 -1      1090    8    0    1
 -2       487       612       613      2652      2656      2654
 -1      1091    8    0    1
 -2       489       488       614      2279      2657      2658
 -1      1092    8    0    1
 -2       488       613       614      2655      2659      2657
 -1      1093    8    0    1
 -2       490       489       615      2282      2660      2661
 -1      1094    8    0    1
 -2       489       614       615      2658      2662      2660
 -1      1095    8    0    1
 -2       491       490       616      2285      2663      2664
 -1      1096    8    0    1
 -2       490       615       616      2661      2665      2663
 -1      1097    8    0    1
 -2       492       491       617      2288      2666      2667
 -1      1098    8    0    1
 -2       491       616       617      2664      2668      2666
 -1      1099    8    0    1
 -2       493       492       618      2291      2669      2670
 -1      1100    8    0    1
 -2       492       617       618      2667      2671      2669
 -1      1101    8    0    1
 -2       494       493       619      2294      2672      2673
 -1      1102    8    0    1
 -2       493       618       619      2670      2674      2672
 -1      1103    8    0    1
 -2       495       494       620      2297      2675      2676
 -1      1104    8    0    1
 -2       494       619       620      2673      2677      2675
 -1      1105    8    0    1
 -2       496       495       621      2300      2678      2679
 -1      1106    8    0    1
 -2       495       620       621      2676      2680      2678
 -1      1107    8    0    1
 -2       497       496       622      2303      2681      2682
 -1      1108    8    0    1
 -2       496       621       622      2679      2683      2681
 -1      1109    8    0    1
 -2       498       497       623      2306      2684      2685
 -1      1110    8    0    1
 -2       497       622       623      2682      2686      2684
 -1      1111    8    0    1
 -2       499       498       624      2309      2687      2688
 -1      1112    8    0    1
 -2       498       623       624      2685      2689      2687
 -1      1113    8    0    1
 -2       500       499       625      2312      2690      2691
 -1      1114    8    0    1
 -2       499       624       625      2688      2692      2690
 -1      1115    8    0    1
 -2       501       500       626      2315      2693      2694
 -1      1116    8    0    1
 -2       500       625       626      2691      2695      2693
 -1      1117    8    0    1
 -2       502       501       627      2318      2696      2697
 -1      1118    8    0    1
 -2       501       626       627      2694      2698      2696
 -1      1119    8    0    1
 -2       503       502       628      2321      2699      2700
 -1      1120    8    0    1
 -2       502       627       628      2697      2701      2699
 -1      1121    8    0    1
 -2       504       503       629      2324      2702      2703
 -1      1122    8    0    1
 -2       503       628       629      2700      2704      2702
 -1      1123    8    0    1
 -2       505       504       630      2327      2705      2706
 -1      1124    8    0    1
 -2       504       629       630      2703      2707      2705
 -1      1125    8    0    1
 -2       506       505       631      2330      2708      2709
 -1      1126    8    0    1
 -2       505       630       631      2706      2710      2708
 -1      1127    8    0    1
 -2       507       506       632      2333      2711      2712
 -1      1128    8    0    1
 -2       506       631       632      2709      2713      2711
 -1      1129    8    0    1
 -2       508       507       633      2336      2714      2715
 -1      1130    8    0    1
 -2       507       632       633      2712      2716      2714
 -1      1131    8    0    1
 -2       509       508       634      2339      2717      2718
 -1      1132    8    0    1
 -2       508       633       634      2715      2719      2717
 -1      1133    8    0    1
 -2       510       509       635      2342      2720      2721
 -1      1134    8    0    1
 -2       509       634       635      2718      2722      2720
 -1      1135    8    0    1
 -2       511       510       636      2345      2723      2724
 -1      1136    8    0    1
 -2       510       635       636      2721      2725      2723
 -1      1137    8    0    1
 -2       512       511       637      2348      2726      2727
 -1      1138    8    0    1
 -2       511       636       637      2724      2728      2726
 -1      1139    8    0    1
 -2       513       512       638      2351      2729      2730
 -1      1140    8    0    1
 -2       512       637       638      2727      2731      2729
 -1      1141    8    0    1
 -2       514       513       639      2354      2732      2733
 -1      1142    8    0    1
 -2       513       638       639      2730      2734      2732
 -1      1143    8    0    1
 -2       515       514       640      2357      2735      2736
 -1      1144    8    0    1
 -2       514       639       640      2733      2737      2735
 -1      1145    8    0    1
 -2       516       515       641      2360      2738      2739
 -1      1146    8    0    1
 -2       515       640       641      2736      2740      2738
 -1      1147    8    0    1
 -2       517       516       642      2363      2741      2742
 -1      1148    8    0    1
 -2       516       641       642      2739      2743      2741
 -1      1149    8    0    1
 -2       518       517       643      2366      2744      2745
 -1      1150    8    0    1
 -2       517       642       643      2742      2746      2744
 -1      1151    8    0    1
 -2       519       518       644      2369      2747      2748
 -1      1152    8    0    1
 -2       518       643       644      2745      2749      2747
 -1      1153    8    0    1
 -2       520       519       645      2372      2750      2751
 -1      1154    8    0    1
 -2       519       644       645      2748      2752      2750
 -1      1155    8    0    1
 -2       521       520       646      2376      2753      2754
 -1      1156    8    0    1
 -2       569       521       646      2515      2754      2755
 -1      1157    8    0    1
 -2       520       645       646      2751      2756      2753
 -1      1158    8    0    1
 -2       477       442       602      2577      2757      2623
 -1      1159    8    0    1
 -2       582       524       647      2581      2758      2759
 -1      1160    8    0    1
 -2       572       584       648      2591      2760      2761
 -1      1161    8    0    1
 -2       527       528       649      2392      2762      2763
 -1      1162    8    0    1
 -2       528       601       649      2622      2764      2762
 -1      1163    8    0    1
 -2       530       531       650      2401      2765      2766
 -1      1164    8    0    1
 -2       530       650       603      2766      2767      2625
 -1      1165    8    0    1
 -2       531       532       651      2404      2768      2769
 -1      1166    8    0    1
 -2       531       651       650      2769      2770      2765
 -1      1167    8    0    1
 -2       532       533       652      2407      2771      2772
 -1      1168    8    0    1
 -2       532       652       651      2772      2773      2768
 -1      1169    8    0    1
 -2       533       534       653      2410      2774      2775
 -1      1170    8    0    1
 -2       533       653       652      2775      2776      2771
 -1      1171    8    0    1
 -2       534       535       654      2413      2777      2778
 -1      1172    8    0    1
 -2       534       654       653      2778      2779      2774
 -1      1173    8    0    1
 -2       535       536       655      2416      2780      2781
 -1      1174    8    0    1
 -2       535       655       654      2781      2782      2777
 -1      1175    8    0    1
 -2       536       537       656      2419      2783      2784
 -1      1176    8    0    1
 -2       536       656       655      2784      2785      2780
 -1      1177    8    0    1
 -2       537       538       657      2422      2786      2787
 -1      1178    8    0    1
 -2       537       657       656      2787      2788      2783
 -1      1179    8    0    1
 -2       538       539       658      2425      2789      2790
 -1      1180    8    0    1
 -2       538       658       657      2790      2791      2786
 -1      1181    8    0    1
 -2       539       540       659      2428      2792      2793
 -1      1182    8    0    1
 -2       539       659       658      2793      2794      2789
 -1      1183    8    0    1
 -2       540       541       660      2431      2795      2796
 -1      1184    8    0    1
 -2       540       660       659      2796      2797      2792
 -1      1185    8    0    1
 -2       541       542       661      2434      2798      2799
 -1      1186    8    0    1
 -2       541       661       660      2799      2800      2795
 -1      1187    8    0    1
 -2       542       543       662      2437      2801      2802
 -1      1188    8    0    1
 -2       542       662       661      2802      2803      2798
 -1      1189    8    0    1
 -2       543       544       663      2440      2804      2805
 -1      1190    8    0    1
 -2       543       663       662      2805      2806      2801
 -1      1191    8    0    1
 -2       544       545       664      2443      2807      2808
 -1      1192    8    0    1
 -2       544       664       663      2808      2809      2804
 -1      1193    8    0    1
 -2       545       546       665      2446      2810      2811
 -1      1194    8    0    1
 -2       545       665       664      2811      2812      2807
 -1      1195    8    0    1
 -2       546       547       666      2449      2813      2814
 -1      1196    8    0    1
 -2       546       666       665      2814      2815      2810
 -1      1197    8    0    1
 -2       547       548       667      2452      2816      2817
 -1      1198    8    0    1
 -2       547       667       666      2817      2818      2813
 -1      1199    8    0    1
 -2       548       549       668      2455      2819      2820
 -1      1200    8    0    1
 -2       548       668       667      2820      2821      2816
 -1      1201    8    0    1
 -2       549       550       669      2458      2822      2823
 -1      1202    8    0    1
 -2       549       669       668      2823      2824      2819
 -1      1203    8    0    1
 -2       550       551       670      2461      2825      2826
 -1      1204    8    0    1
 -2       550       670       669      2826      2827      2822
 -1      1205    8    0    1
 -2       551       552       671      2464      2828      2829
 -1      1206    8    0    1
 -2       551       671       670      2829      2830      2825
 -1      1207    8    0    1
 -2       552       553       672      2467      2831      2832
 -1      1208    8    0    1
 -2       552       672       671      2832      2833      2828
 -1      1209    8    0    1
 -2       553       554       673      2470      2834      2835
 -1      1210    8    0    1
 -2       553       673       672      2835      2836      2831
 -1      1211    8    0    1
 -2       554       555       674      2473      2837      2838
 -1      1212    8    0    1
 -2       554       674       673      2838      2839      2834
 -1      1213    8    0    1
 -2       555       556       675      2476      2840      2841
 -1      1214    8    0    1
 -2       555       675       674      2841      2842      2837
 -1      1215    8    0    1
 -2       556       557       676      2479      2843      2844
 -1      1216    8    0    1
 -2       556       676       675      2844      2845      2840
 -1      1217    8    0    1
 -2       594       561       677      2588      2846      2847
 -1      1218    8    0    1
 -2       559       560       678      2487      2848      2849
 -1      1219    8    0    1
 -2       561       559       679      2490      2850      2851
 -1      1220    8    0    1
 -2       559       678       679      2849      2852      2850
 -1      1221    8    0    1
 -2       560       562       680      2493      2853      2854
 -1      1222    8    0    1
 -2       560       680       678      2854      2855      2848
 -1      1223    8    0    1
 -2       563       564       681      2499      2856      2857
 -1      1224    8    0    1
 -2       564       565       682      2502      2858      2859
 -1      1225    8    0    1
 -2       564       682       681      2859      2860      2856
 -1      1226    8    0    1
 -2       565       566       683      2505      2861      2862
 -1      1227    8    0    1
 -2       565       683       682      2862      2863      2858
 -1      1228    8    0    1
 -2       566       567       684      2508      2864      2865
 -1      1229    8    0    1
 -2       566       684       683      2865      2866      2861
 -1      1230    8    0    1
 -2       567       568       685      2511      2867      2868
 -1      1231    8    0    1
 -2       567       685       684      2868      2869      2864
 -1      1232    8    0    1
 -2       570       440       526      2516      2606      2870
 -1      1233    8    0    1
 -2       589       571       686      2567      2871      2872
 -1      1234    8    0    1
 -2       574       573       687      2528      2873      2874
 -1      1235    8    0    1
 -2       522       576       688      2535      2875      2876
 -1      1236    8    0    1
 -2       475       446       689      2542      2877      2878
 -1      1237    8    0    1
 -2       576       523       690      2576      2879      2880
 -1      1238    8    0    1
 -2       583       572       691      2594      2881      2882
 -1      1239    8    0    1
 -2       523       475       689      2580      2878      2883
 -1      1240    8    0    1
 -2       524       583       692      2579      2884      2885
 -1      1241    8    0    1
 -2       583       691       692      2882      2886      2884
 -1      1242    8    0    1
 -2       446       579       689      2545      2887      2877
 -1      1243    8    0    1
 -2       573       527       693      2525      2888      2889
 -1      1244    8    0    1
 -2       527       649       693      2763      2890      2888
 -1      1245    8    0    1
 -2       562       563       694      2496      2891      2892
 -1      1246    8    0    1
 -2       680       562       694      2853      2892      2893
 -1      1247    8    0    1
 -2       563       681       694      2857      2894      2891
 -1      1248    8    0    1
 -2       470       471       695      2224      2895      2896
 -1      1249    8    0    1
 -2       596       470       695      2607      2896      2897
 -1      1250    8    0    1
 -2       471       598       695      2613      2898      2895
 -1      1251    8    0    1
 -2       578       580       696      2605      2899      2900
 -1      1252    8    0    1
 -2       586       587       697      2599      2901      2902
 -1      1253    8    0    1
 -2       467       466       698      2213      2903      2904
 -1      1254    8    0    1
 -2       580       582       699      2552      2905      2906
 -1      1255    8    0    1
 -2       582       647       699      2759      2907      2905
 -1      1256    8    0    1
 -2       571       591       700      2592      2908      2909
 -1      1257    8    0    1
 -2       581       588       701      2602      2910      2911
 -1      1258    8    0    1
 -2       584       585       702      2601      2912      2913
 -1      1259    8    0    1
 -2       585       586       703      2600      2914      2915
 -1      1260    8    0    1
 -2       579       578       704      2603      2916      2917
 -1      1261    8    0    1
 -2       587       581       705      2598      2918      2919
 -1      1262    8    0    1
 -2       478       476       706      2246      2920      2921
 -1      1263    8    0    1
 -2       604       478       706      2628      2921      2922
 -1      1264    8    0    1
 -2       476       602       706      2624      2923      2920
 -1      1265    8    0    1
 -2       591       590       707      2593      2924      2925
 -1      1266    8    0    1
 -2       591       707       700      2925      2926      2908
 -1      1267    8    0    1
 -2       523       689       690      2883      2927      2879
 -1      1268    8    0    1
 -2       468       597       708      2610      2928      2929
 -1      1269    8    0    1
 -2       468       708       577      2929      2930      2539
 -1      1270    8    0    1
 -2       571       700       686      2909      2931      2871
 -1      1271    8    0    1
 -2       525       570       709      2518      2932      2933
 -1      1272    8    0    1
 -2       602       442       592      2757      2575      2934
 -1      1273    8    0    1
 -2       647       524       692      2758      2885      2935
 -1      1274    8    0    1
 -2       593       525       709      2582      2933      2936
 -1      1275    8    0    1
 -2       572       648       691      2761      2937      2881
 -1      1276    8    0    1
 -2       592       467       710      2573      2938      2939
 -1      1277    8    0    1
 -2       467       698       710      2904      2940      2938
 -1      1278    8    0    1
 -2       676       557       677      2843      2941      2942
 -1      1279    8    0    1
 -2       677       561       679      2846      2851      2943
 -1      1280    8    0    1
 -2       558       428       594      2482      2590      2944
 -1      1281    8    0    1
 -2       557       558       594      2587      2944      2945
 -1      1282    8    0    1
 -2       557       594       677      2945      2847      2941
 -1      1283    8    0    1
 -2       705       581       711      2918      2946      2947
 -1      1284    8    0    1
 -2       581       701       711      2911      2948      2946
 -1      1285    8    0    1
 -2       570       526       709      2870      2949      2932
 -1      1286    8    0    1
 -2       687       573       693      2873      2889      2950
 -1      1287    8    0    1
 -2       568       569       646      2514      2755      2951
 -1      1288    8    0    1
 -2       648       584       712      2760      2952      2953
 -1      1289    8    0    1
 -2       584       702       712      2913      2954      2952
 -1      1290    8    0    1
 -2       704       578       696      2916      2900      2955
 -1      1291    8    0    1
 -2       703       586       697      2914      2902      2956
 -1      1292    8    0    1
 -2       707       590       713      2924      2957      2958
 -1      1293    8    0    1
 -2       590       593       713      2584      2959      2957
 -1      1294    8    0    1
 -2       702       585       703      2912      2915      2960
 -1      1295    8    0    1
 -2       595       589       686      2597      2872      2961
 -1      1296    8    0    1
 -2       701       588       714      2910      2962      2963
 -1      1297    8    0    1
 -2       588       595       714      2596      2964      2962
 -1      1298    8    0    1
 -2       568       646       685      2951      2965      2867
 -1      1299    8    0    1
 -2       688       576       690      2875      2880      2966
 -1      1300    8    0    1
 -2       575       522       715      2532      2967      2968
 -1      1301    8    0    1
 -2       600       575       715      2620      2968      2969
 -1      1302    8    0    1
 -2       522       688       715      2876      2970      2967
 -1      1303    8    0    1
 -2       689       579       690      2887      2971      2927
 -1      1304    8    0    1
 -2       697       587       705      2901      2919      2972
 -1      1305    8    0    1
 -2       466       577       716      2538      2973      2974
 -1      1306    8    0    1
 -2       698       466       716      2903      2974      2975
 -1      1307    8    0    1
 -2       577       708       716      2930      2976      2973
 -1      1308    8    0    1
 -2       580       699       696      2906      2977      2899
 -1      1309    8    0    1
 -2       579       704       690      2917      2978      2971
 -1      1310    8    0    1
 -2       598       599       717      2616      2979      2980
 -1      1311    8    0    1
 -2       700       707       718      2926      2981      2982
 -1      1312    8    0    1
 -2       602       592       710      2934      2939      2983
 -1      1313    8    0    1
 -2       601       603       719      2627      2984      2985
 -1      1314    8    0    1
 -2       679       678       720      2852      2986      2987
 -1      1315    8    0    1
 -2       605       604       721      2632      2988      2989
 -1      1316    8    0    1
 -2       606       605       722      2635      2990      2991
 -1      1317    8    0    1
 -2       605       721       722      2989      2992      2990
 -1      1318    8    0    1
 -2       607       606       723      2638      2993      2994
 -1      1319    8    0    1
 -2       606       722       723      2991      2995      2993
 -1      1320    8    0    1
 -2       608       607       724      2641      2996      2997
 -1      1321    8    0    1
 -2       607       723       724      2994      2998      2996
 -1      1322    8    0    1
 -2       609       608       725      2644      2999      3000
 -1      1323    8    0    1
 -2       608       724       725      2997      3001      2999
 -1      1324    8    0    1
 -2       610       609       726      2647      3002      3003
 -1      1325    8    0    1
 -2       609       725       726      3000      3004      3002
 -1      1326    8    0    1
 -2       611       610       727      2650      3005      3006
 -1      1327    8    0    1
 -2       610       726       727      3003      3007      3005
 -1      1328    8    0    1
 -2       612       611       728      2653      3008      3009
 -1      1329    8    0    1
 -2       611       727       728      3006      3010      3008
 -1      1330    8    0    1
 -2       613       612       729      2656      3011      3012
 -1      1331    8    0    1
 -2       612       728       729      3009      3013      3011
 -1      1332    8    0    1
 -2       614       613       730      2659      3014      3015
 -1      1333    8    0    1
 -2       613       729       730      3012      3016      3014
 -1      1334    8    0    1
 -2       615       614       731      2662      3017      3018
 -1      1335    8    0    1
 -2       614       730       731      3015      3019      3017
 -1      1336    8    0    1
 -2       616       615       732      2665      3020      3021
 -1      1337    8    0    1
 -2       615       731       732      3018      3022      3020
 -1      1338    8    0    1
 -2       617       616       733      2668      3023      3024
 -1      1339    8    0    1
 -2       616       732       733      3021      3025      3023
 -1      1340    8    0    1
 -2       618       617       734      2671      3026      3027
 -1      1341    8    0    1
 -2       617       733       734      3024      3028      3026
 -1      1342    8    0    1
 -2       619       618       735      2674      3029      3030
 -1      1343    8    0    1
 -2       618       734       735      3027      3031      3029
 -1      1344    8    0    1
 -2       620       619       736      2677      3032      3033
 -1      1345    8    0    1
 -2       619       735       736      3030      3034      3032
 -1      1346    8    0    1
 -2       621       620       737      2680      3035      3036
 -1      1347    8    0    1
 -2       620       736       737      3033      3037      3035
 -1      1348    8    0    1
 -2       622       621       738      2683      3038      3039
 -1      1349    8    0    1
 -2       621       737       738      3036      3040      3038
 -1      1350    8    0    1
 -2       623       622       739      2686      3041      3042
 -1      1351    8    0    1
 -2       622       738       739      3039      3043      3041
 -1      1352    8    0    1
 -2       624       623       740      2689      3044      3045
 -1      1353    8    0    1
 -2       623       739       740      3042      3046      3044
 -1      1354    8    0    1
 -2       625       624       741      2692      3047      3048
 -1      1355    8    0    1
 -2       624       740       741      3045      3049      3047
 -1      1356    8    0    1
 -2       626       625       742      2695      3050      3051
 -1      1357    8    0    1
 -2       625       741       742      3048      3052      3050
 -1      1358    8    0    1
 -2       627       626       743      2698      3053      3054
 -1      1359    8    0    1
 -2       626       742       743      3051      3055      3053
 -1      1360    8    0    1
 -2       628       627       744      2701      3056      3057
 -1      1361    8    0    1
 -2       627       743       744      3054      3058      3056
 -1      1362    8    0    1
 -2       629       628       745      2704      3059      3060
 -1      1363    8    0    1
 -2       628       744       745      3057      3061      3059
 -1      1364    8    0    1
 -2       630       629       746      2707      3062      3063
 -1      1365    8    0    1
 -2       629       745       746      3060      3064      3062
 -1      1366    8    0    1
 -2       631       630       747      2710      3065      3066
 -1      1367    8    0    1
 -2       630       746       747      3063      3067      3065
 -1      1368    8    0    1
 -2       632       631       748      2713      3068      3069
 -1      1369    8    0    1
 -2       631       747       748      3066      3070      3068
 -1      1370    8    0    1
 -2       633       632       749      2716      3071      3072
 -1      1371    8    0    1
 -2       632       748       749      3069      3073      3071
 -1      1372    8    0    1
 -2       634       633       750      2719      3074      3075
 -1      1373    8    0    1
 -2       633       749       750      3072      3076      3074
 -1      1374    8    0    1
 -2       635       634       751      2722      3077      3078
 -1      1375    8    0    1
 -2       634       750       751      3075      3079      3077
 -1      1376    8    0    1
 -2       636       635       752      2725      3080      3081
 -1      1377    8    0    1
 -2       635       751       752      3078      3082      3080
 -1      1378    8    0    1
 -2       637       636       753      2728      3083      3084
 -1      1379    8    0    1
 -2       636       752       753      3081      3085      3083
 -1      1380    8    0    1
 -2       638       637       754      2731      3086      3087
 -1      1381    8    0    1
 -2       637       753       754      3084      3088      3086
 -1      1382    8    0    1
 -2       639       638       755      2734      3089      3090
 -1      1383    8    0    1
 -2       638       754       755      3087      3091      3089
 -1      1384    8    0    1
 -2       640       639       756      2737      3092      3093
 -1      1385    8    0    1
 -2       639       755       756      3090      3094      3092
 -1      1386    8    0    1
 -2       641       640       757      2740      3095      3096
 -1      1387    8    0    1
 -2       640       756       757      3093      3097      3095
 -1      1388    8    0    1
 -2       642       641       758      2743      3098      3099
 -1      1389    8    0    1
 -2       641       757       758      3096      3100      3098
 -1      1390    8    0    1
 -2       643       642       759      2746      3101      3102
 -1      1391    8    0    1
 -2       642       758       759      3099      3103      3101
 -1      1392    8    0    1
 -2       644       643       760      2749      3104      3105
 -1      1393    8    0    1
 -2       643       759       760      3102      3106      3104
 -1      1394    8    0    1
 -2       645       644       761      2752      3107      3108
 -1      1395    8    0    1
 -2       644       760       761      3105      3109      3107
 -1      1396    8    0    1
 -2       646       645       685      2756      3110      2965
 -1      1397    8    0    1
 -2       649       601       762      2764      3111      3112
 -1      1398    8    0    1
 -2       601       719       762      2985      3113      3111
 -1      1399    8    0    1
 -2       647       692       763      2935      3114      3115
 -1      1400    8    0    1
 -2       651       652       764      2773      3116      3117
 -1      1401    8    0    1
 -2       652       653       765      2776      3118      3119
 -1      1402    8    0    1
 -2       652       765       764      3119      3120      3116
 -1      1403    8    0    1
 -2       653       654       766      2779      3121      3122
 -1      1404    8    0    1
 -2       653       766       765      3122      3123      3118
 -1      1405    8    0    1
 -2       654       655       767      2782      3124      3125
 -1      1406    8    0    1
 -2       654       767       766      3125      3126      3121
 -1      1407    8    0    1
 -2       655       656       768      2785      3127      3128
 -1      1408    8    0    1
 -2       655       768       767      3128      3129      3124
 -1      1409    8    0    1
 -2       656       657       769      2788      3130      3131
 -1      1410    8    0    1
 -2       656       769       768      3131      3132      3127
 -1      1411    8    0    1
 -2       657       658       770      2791      3133      3134
 -1      1412    8    0    1
 -2       657       770       769      3134      3135      3130
 -1      1413    8    0    1
 -2       658       659       771      2794      3136      3137
 -1      1414    8    0    1
 -2       658       771       770      3137      3138      3133
 -1      1415    8    0    1
 -2       659       660       772      2797      3139      3140
 -1      1416    8    0    1
 -2       659       772       771      3140      3141      3136
 -1      1417    8    0    1
 -2       660       661       773      2800      3142      3143
 -1      1418    8    0    1
 -2       660       773       772      3143      3144      3139
 -1      1419    8    0    1
 -2       661       662       774      2803      3145      3146
 -1      1420    8    0    1
 -2       661       774       773      3146      3147      3142
 -1      1421    8    0    1
 -2       662       663       775      2806      3148      3149
 -1      1422    8    0    1
 -2       662       775       774      3149      3150      3145
 -1      1423    8    0    1
 -2       663       664       776      2809      3151      3152
 -1      1424    8    0    1
 -2       663       776       775      3152      3153      3148
 -1      1425    8    0    1
 -2       664       665       777      2812      3154      3155
 -1      1426    8    0    1
 -2       664       777       776      3155      3156      3151
 -1      1427    8    0    1
 -2       665       666       778      2815      3157      3158
 -1      1428    8    0    1
 -2       665       778       777      3158      3159      3154
 -1      1429    8    0    1
 -2       666       667       779      2818      3160      3161
 -1      1430    8    0    1
 -2       666       779       778      3161      3162      3157
 -1      1431    8    0    1
 -2       667       668       780      2821      3163      3164
 -1      1432    8    0    1
 -2       667       780       779      3164      3165      3160
 -1      1433    8    0    1
 -2       668       669       781      2824      3166      3167
 -1      1434    8    0    1
 -2       668       781       780      3167      3168      3163
 -1      1435    8    0    1
 -2       669       670       782      2827      3169      3170
 -1      1436    8    0    1
 -2       669       782       781      3170      3171      3166
 -1      1437    8    0    1
 -2       670       671       783      2830      3172      3173
 -1      1438    8    0    1
 -2       670       783       782      3173      3174      3169
 -1      1439    8    0    1
 -2       671       672       784      2833      3175      3176
 -1      1440    8    0    1
 -2       671       784       783      3176      3177      3172
 -1      1441    8    0    1
 -2       672       673       785      2836      3178      3179
 -1      1442    8    0    1
 -2       672       785       784      3179      3180      3175
 -1      1443    8    0    1
 -2       673       674       786      2839      3181      3182
 -1      1444    8    0    1
 -2       673       786       785      3182      3183      3178
 -1      1445    8    0    1
 -2       674       675       787      2842      3184      3185
 -1      1446    8    0    1
 -2       674       787       786      3185      3186      3181
 -1      1447    8    0    1
 -2       677       679       788      2943      3187      3188
 -1      1448    8    0    1
 -2       676       677       788      2942      3188      3189
 -1      1449    8    0    1
 -2       679       720       788      2987      3190      3187
 -1      1450    8    0    1
 -2       678       680       789      2855      3191      3192
 -1      1451    8    0    1
 -2       678       789       720      3192      3193      2986
 -1      1452    8    0    1
 -2       682       683       790      2863      3194      3195
 -1      1453    8    0    1
 -2       681       682       791      2860      3196      3197
 -1      1454    8    0    1
 -2       682       790       791      3195      3198      3196
 -1      1455    8    0    1
 -2       684       685       792      2869      3199      3200
 -1      1456    8    0    1
 -2       691       648       793      2937      3201      3202
 -1      1457    8    0    1
 -2       703       697       794      2956      3203      3204
 -1      1458    8    0    1
 -2       574       687       593      2874      3205      3206
 -1      1459    8    0    1
 -2       593       687       713      3205      3207      2959
 -1      1460    8    0    1
 -2       696       699       795      2977      3208      3209
 -1      1461    8    0    1
 -2       603       650       796      2767      3210      3211
 -1      1462    8    0    1
 -2       603       796       719      3211      3212      2984
 -1      1463    8    0    1
 -2       702       703       797      2960      3213      3214
 -1      1464    8    0    1
 -2       683       684       798      2866      3215      3216
 -1      1465    8    0    1
 -2       790       683       798      3194      3216      3217
 -1      1466    8    0    1
 -2       684       792       798      3200      3218      3215
 -1      1467    8    0    1
 -2       650       651       799      2770      3219      3220
 -1      1468    8    0    1
 -2       651       764       799      3117      3221      3219
 -1      1469    8    0    1
 -2       686       700       800      2931      3222      3223
 -1      1470    8    0    1
 -2       692       691       801      2886      3224      3225
 -1      1471    8    0    1
 -2       699       647       802      2907      3226      3227
 -1      1472    8    0    1
 -2       693       649       803      2890      3228      3229
 -1      1473    8    0    1
 -2       649       762       803      3112      3230      3228
 -1      1474    8    0    1
 -2       597       596       804      2611      3231      3232
 -1      1475    8    0    1
 -2       697       705       805      2972      3233      3234
 -1      1476    8    0    1
 -2       704       696       806      2955      3235      3236
 -1      1477    8    0    1
 -2       696       795       806      3209      3237      3235
 -1      1478    8    0    1
 -2       595       686       807      2961      3238      3239
 -1      1479    8    0    1
 -2       599       600       808      2619      3240      3241
 -1      1480    8    0    1
 -2       717       599       808      2979      3241      3242
 -1      1481    8    0    1
 -2       600       715       808      2969      3243      3240
 -1      1482    8    0    1
 -2       700       718       800      2982      3244      3222
 -1      1483    8    0    1
 -2       687       693       809      2950      3245      3246
 -1      1484    8    0    1
 -2       602       710       706      2983      3247      2923
 -1      1485    8    0    1
 -2       702       797       810      3214      3248      3249
 -1      1486    8    0    1
 -2       702       810       712      3249      3250      2954
 -1      1487    8    0    1
 -2       685       645       761      3110      3108      3251
 -1      1488    8    0    1
 -2       763       692       801      3114      3225      3252
 -1      1489    8    0    1
 -2       686       800       807      3223      3253      3238
 -1      1490    8    0    1
 -2       710       698       811      2940      3254      3255
 -1      1491    8    0    1
 -2       705       711       812      2947      3256      3257
 -1      1492    8    0    1
 -2       705       812       805      3257      3258      3233
 -1      1493    8    0    1
 -2       680       694       813      2893      3259      3260
 -1      1494    8    0    1
 -2       680       813       789      3260      3261      3191
 -1      1495    8    0    1
 -2       676       788       675      3189      3262      2845
 -1      1496    8    0    1
 -2       787       675       788      3184      3262      3263
 -1      1497    8    0    1
 -2       711       701       814      2948      3264      3265
 -1      1498    8    0    1
 -2       701       714       814      2963      3266      3264
 -1      1499    8    0    1
 -2       695       598       815      2898      3267      3268
 -1      1500    8    0    1
 -2       598       717       815      2980      3269      3267
 -1      1501    8    0    1
 -2       792       685       761      3199      3251      3270
 -1      1502    8    0    1
 -2       691       793       801      3202      3271      3224
 -1      1503    8    0    1
 -2       688       690       806      2966      3272      3273
 -1      1504    8    0    1
 -2       703       794       797      3204      3274      3213
 -1      1505    8    0    1
 -2       802       647       763      3226      3115      3275
 -1      1506    8    0    1
 -2       595       807       714      3239      3276      2964
 -1      1507    8    0    1
 -2       796       650       799      3210      3220      3277
 -1      1508    8    0    1
 -2       713       687       809      3207      3246      3278
 -1      1509    8    0    1
 -2       795       699       802      3208      3227      3279
 -1      1510    8    0    1
 -2       794       697       805      3203      3234      3280
 -1      1511    8    0    1
 -2       715       688       808      2970      3281      3243
 -1      1512    8    0    1
 -2       688       806       808      3273      3282      3281
 -1      1513    8    0    1
 -2       793       648       816      3201      3283      3284
 -1      1514    8    0    1
 -2       648       712       816      2953      3285      3283
 -1      1515    8    0    1
 -2       708       597       817      2928      3286      3287
 -1      1516    8    0    1
 -2       597       804       817      3232      3288      3286
 -1      1517    8    0    1
 -2       693       803       809      3229      3289      3245
 -1      1518    8    0    1
 -2       596       695       818      2897      3290      3291
 -1      1519    8    0    1
 -2       804       596       818      3231      3291      3292
 -1      1520    8    0    1
 -2       695       815       818      3268      3293      3290
 -1      1521    8    0    1
 -2       694       681       819      2894      3294      3295
 -1      1522    8    0    1
 -2       813       694       819      3259      3295      3296
 -1      1523    8    0    1
 -2       681       791       819      3197      3297      3294
 -1      1524    8    0    1
 -2       707       713       820      2958      3298      3299
 -1      1525    8    0    1
 -2       718       707       820      2981      3299      3300
 -1      1526    8    0    1
 -2       713       809       820      3278      3301      3298
 -1      1527    8    0    1
 -2       721       604       821      2988      3302      3303
 -1      1528    8    0    1
 -2       604       706       821      2922      3304      3302
 -1      1529    8    0    1
 -2       698       716       822      2975      3305      3306
 -1      1530    8    0    1
 -2       698       822       811      3306      3307      3254
 -1      1531    8    0    1
 -2       526       574       709      2585      3308      2949
 -1      1532    8    0    1
 -2       709       574       593      3308      3206      2936
 -1      1533    8    0    1
 -2       766       767       823      3126      3309      3310
 -1      1534    8    0    1
 -2       706       710       821      3247      3311      3304
 -1      1535    8    0    1
 -2       720       789       824      3193      3312      3313
 -1      1536    8    0    1
 -2       763       801       825      3252      3314      3315
 -1      1537    8    0    1
 -2       723       722       826      2995      3316      3317
 -1      1538    8    0    1
 -2       724       723       827      2998      3318      3319
 -1      1539    8    0    1
 -2       723       826       827      3317      3320      3318
 -1      1540    8    0    1
 -2       725       724       828      3001      3321      3322
 -1      1541    8    0    1
 -2       724       827       828      3319      3323      3321
 -1      1542    8    0    1
 -2       726       725       829      3004      3324      3325
 -1      1543    8    0    1
 -2       725       828       829      3322      3326      3324
 -1      1544    8    0    1
 -2       727       726       830      3007      3327      3328
 -1      1545    8    0    1
 -2       726       829       830      3325      3329      3327
 -1      1546    8    0    1
 -2       728       727       831      3010      3330      3331
 -1      1547    8    0    1
 -2       727       830       831      3328      3332      3330
 -1      1548    8    0    1
 -2       729       728       832      3013      3333      3334
 -1      1549    8    0    1
 -2       728       831       832      3331      3335      3333
 -1      1550    8    0    1
 -2       730       729       833      3016      3336      3337
 -1      1551    8    0    1
 -2       729       832       833      3334      3338      3336
 -1      1552    8    0    1
 -2       731       730       834      3019      3339      3340
 -1      1553    8    0    1
 -2       730       833       834      3337      3341      3339
 -1      1554    8    0    1
 -2       732       731       835      3022      3342      3343
 -1      1555    8    0    1
 -2       731       834       835      3340      3344      3342
 -1      1556    8    0    1
 -2       733       732       836      3025      3345      3346
 -1      1557    8    0    1
 -2       732       835       836      3343      3347      3345
 -1      1558    8    0    1
 -2       734       733       837      3028      3348      3349
 -1      1559    8    0    1
 -2       733       836       837      3346      3350      3348
 -1      1560    8    0    1
 -2       735       734       838      3031      3351      3352
 -1      1561    8    0    1
 -2       734       837       838      3349      3353      3351
 -1      1562    8    0    1
 -2       736       735       839      3034      3354      3355
 -1      1563    8    0    1
 -2       735       838       839      3352      3356      3354
 -1      1564    8    0    1
 -2       737       736       840      3037      3357      3358
 -1      1565    8    0    1
 -2       736       839       840      3355      3359      3357
 -1      1566    8    0    1
 -2       738       737       841      3040      3360      3361
 -1      1567    8    0    1
 -2       737       840       841      3358      3362      3360
 -1      1568    8    0    1
 -2       739       738       842      3043      3363      3364
 -1      1569    8    0    1
 -2       738       841       842      3361      3365      3363
 -1      1570    8    0    1
 -2       740       739       843      3046      3366      3367
 -1      1571    8    0    1
 -2       739       842       843      3364      3368      3366
 -1      1572    8    0    1
 -2       741       740       844      3049      3369      3370
 -1      1573    8    0    1
 -2       740       843       844      3367      3371      3369
 -1      1574    8    0    1
 -2       742       741       845      3052      3372      3373
 -1      1575    8    0    1
 -2       741       844       845      3370      3374      3372
 -1      1576    8    0    1
 -2       743       742       846      3055      3375      3376
 -1      1577    8    0    1
 -2       742       845       846      3373      3377      3375
 -1      1578    8    0    1
 -2       744       743       847      3058      3378      3379
 -1      1579    8    0    1
 -2       743       846       847      3376      3380      3378
 -1      1580    8    0    1
 -2       745       744       848      3061      3381      3382
 -1      1581    8    0    1
 -2       744       847       848      3379      3383      3381
 -1      1582    8    0    1
 -2       746       745       849      3064      3384      3385
 -1      1583    8    0    1
 -2       745       848       849      3382      3386      3384
 -1      1584    8    0    1
 -2       747       746       850      3067      3387      3388
 -1      1585    8    0    1
 -2       746       849       850      3385      3389      3387
 -1      1586    8    0    1
 -2       748       747       851      3070      3390      3391
 -1      1587    8    0    1
 -2       747       850       851      3388      3392      3390
 -1      1588    8    0    1
 -2       749       748       852      3073      3393      3394
 -1      1589    8    0    1
 -2       748       851       852      3391      3395      3393
 -1      1590    8    0    1
 -2       750       749       853      3076      3396      3397
 -1      1591    8    0    1
 -2       749       852       853      3394      3398      3396
 -1      1592    8    0    1
 -2       751       750       854      3079      3399      3400
 -1      1593    8    0    1
 -2       750       853       854      3397      3401      3399
 -1      1594    8    0    1
 -2       752       751       855      3082      3402      3403
 -1      1595    8    0    1
 -2       751       854       855      3400      3404      3402
 -1      1596    8    0    1
 -2       753       752       856      3085      3405      3406
 -1      1597    8    0    1
 -2       752       855       856      3403      3407      3405
 -1      1598    8    0    1
 -2       754       753       857      3088      3408      3409
 -1      1599    8    0    1
 -2       753       856       857      3406      3410      3408
 -1      1600    8    0    1
 -2       755       754       858      3091      3411      3412
 -1      1601    8    0    1
 -2       754       857       858      3409      3413      3411
 -1      1602    8    0    1
 -2       756       755       859      3094      3414      3415
 -1      1603    8    0    1
 -2       755       858       859      3412      3416      3414
 -1      1604    8    0    1
 -2       757       756       860      3097      3417      3418
 -1      1605    8    0    1
 -2       756       859       860      3415      3419      3417
 -1      1606    8    0    1
 -2       758       757       861      3100      3420      3421
 -1      1607    8    0    1
 -2       757       860       861      3418      3422      3420
 -1      1608    8    0    1
 -2       759       758       862      3103      3423      3424
 -1      1609    8    0    1
 -2       758       861       862      3421      3425      3423
 -1      1610    8    0    1
 -2       760       759       863      3106      3426      3427
 -1      1611    8    0    1
 -2       759       862       863      3424      3428      3426
 -1      1612    8    0    1
 -2       761       760       864      3109      3429      3430
 -1      1613    8    0    1
 -2       792       761       864      3270      3430      3431
 -1      1614    8    0    1
 -2       760       863       864      3427      3432      3429
 -1      1615    8    0    1
 -2       765       766       865      3123      3433      3434
 -1      1616    8    0    1
 -2       766       823       865      3310      3435      3433
 -1      1617    8    0    1
 -2       762       719       866      3113      3436      3437
 -1      1618    8    0    1
 -2       764       765       867      3120      3438      3439
 -1      1619    8    0    1
 -2       765       865       867      3434      3440      3438
 -1      1620    8    0    1
 -2       767       768       868      3129      3441      3442
 -1      1621    8    0    1
 -2       767       868       823      3442      3443      3309
 -1      1622    8    0    1
 -2       768       769       869      3132      3444      3445
 -1      1623    8    0    1
 -2       768       869       868      3445      3446      3441
 -1      1624    8    0    1
 -2       769       770       870      3135      3447      3448
 -1      1625    8    0    1
 -2       769       870       869      3448      3449      3444
 -1      1626    8    0    1
 -2       770       771       871      3138      3450      3451
 -1      1627    8    0    1
 -2       770       871       870      3451      3452      3447
 -1      1628    8    0    1
 -2       771       772       872      3141      3453      3454
 -1      1629    8    0    1
 -2       771       872       871      3454      3455      3450
 -1      1630    8    0    1
 -2       772       773       873      3144      3456      3457
 -1      1631    8    0    1
 -2       772       873       872      3457      3458      3453
 -1      1632    8    0    1
 -2       773       774       874      3147      3459      3460
 -1      1633    8    0    1
 -2       773       874       873      3460      3461      3456
 -1      1634    8    0    1
 -2       774       775       875      3150      3462      3463
 -1      1635    8    0    1
 -2       774       875       874      3463      3464      3459
 -1      1636    8    0    1
 -2       775       776       876      3153      3465      3466
 -1      1637    8    0    1
 -2       775       876       875      3466      3467      3462
 -1      1638    8    0    1
 -2       776       777       877      3156      3468      3469
 -1      1639    8    0    1
 -2       776       877       876      3469      3470      3465
 -1      1640    8    0    1
 -2       777       778       878      3159      3471      3472
 -1      1641    8    0    1
 -2       777       878       877      3472      3473      3468
 -1      1642    8    0    1
 -2       778       779       879      3162      3474      3475
 -1      1643    8    0    1
 -2       778       879       878      3475      3476      3471
 -1      1644    8    0    1
 -2       779       780       880      3165      3477      3478
 -1      1645    8    0    1
 -2       779       880       879      3478      3479      3474
 -1      1646    8    0    1
 -2       780       781       881      3168      3480      3481
 -1      1647    8    0    1
 -2       780       881       880      3481      3482      3477
 -1      1648    8    0    1
 -2       781       782       882      3171      3483      3484
 -1      1649    8    0    1
 -2       781       882       881      3484      3485      3480
 -1      1650    8    0    1
 -2       782       783       883      3174      3486      3487
 -1      1651    8    0    1
 -2       782       883       882      3487      3488      3483
 -1      1652    8    0    1
 -2       783       784       884      3177      3489      3490
 -1      1653    8    0    1
 -2       783       884       883      3490      3491      3486
 -1      1654    8    0    1
 -2       784       785       885      3180      3492      3493
 -1      1655    8    0    1
 -2       784       885       884      3493      3494      3489
 -1      1656    8    0    1
 -2       785       786       886      3183      3495      3496
 -1      1657    8    0    1
 -2       785       886       885      3496      3497      3492
 -1      1658    8    0    1
 -2       786       787       887      3186      3498      3499
 -1      1659    8    0    1
 -2       786       887       886      3499      3500      3495
 -1      1660    8    0    1
 -2       788       720       787      3190      3501      3263
 -1      1661    8    0    1
 -2       791       790       888      3198      3502      3503
 -1      1662    8    0    1
 -2       799       764       889      3221      3504      3505
 -1      1663    8    0    1
 -2       764       867       889      3439      3506      3504
 -1      1664    8    0    1
 -2       797       794       890      3274      3507      3508
 -1      1665    8    0    1
 -2       801       793       891      3271      3509      3510
 -1      1666    8    0    1
 -2       803       762       892      3230      3511      3512
 -1      1667    8    0    1
 -2       762       866       892      3437      3513      3511
 -1      1668    8    0    1
 -2       796       799       893      3277      3514      3515
 -1      1669    8    0    1
 -2       799       889       893      3505      3516      3514
 -1      1670    8    0    1
 -2       714       807       894      3276      3517      3518
 -1      1671    8    0    1
 -2       719       796       895      3212      3519      3520
 -1      1672    8    0    1
 -2       866       719       895      3436      3520      3521
 -1      1673    8    0    1
 -2       796       893       895      3515      3522      3519
 -1      1674    8    0    1
 -2       802       763       896      3275      3523      3524
 -1      1675    8    0    1
 -2       763       825       896      3315      3525      3523
 -1      1676    8    0    1
 -2       795       802       897      3279      3526      3527
 -1      1677    8    0    1
 -2       807       800       898      3253      3528      3529
 -1      1678    8    0    1
 -2       800       718       899      3244      3530      3531
 -1      1679    8    0    1
 -2       722       721       900      2992      3532      3533
 -1      1680    8    0    1
 -2       722       900       826      3533      3534      3316
 -1      1681    8    0    1
 -2       794       805       901      3280      3535      3536
 -1      1682    8    0    1
 -2       794       901       890      3536      3537      3507
 -1      1683    8    0    1
 -2       716       708       902      2976      3538      3539
 -1      1684    8    0    1
 -2       716       902       822      3539      3540      3305
 -1      1685    8    0    1
 -2       809       803       903      3289      3541      3542
 -1      1686    8    0    1
 -2       820       809       903      3301      3542      3543
 -1      1687    8    0    1
 -2       803       892       903      3512      3544      3541
 -1      1688    8    0    1
 -2       710       811       821      3255      3545      3311
 -1      1689    8    0    1
 -2       690       704       806      2978      3236      3272
 -1      1690    8    0    1
 -2       804       818       896      3292      3546      3547
 -1      1691    8    0    1
 -2       824       789       904      3312      3548      3549
 -1      1692    8    0    1
 -2       789       813       904      3261      3550      3548
 -1      1693    8    0    1
 -2       810       797       905      3248      3551      3552
 -1      1694    8    0    1
 -2       797       890       905      3508      3553      3551
 -1      1695    8    0    1
 -2       792       864       798      3431      3554      3218
 -1      1696    8    0    1
 -2       812       711       906      3256      3555      3556
 -1      1697    8    0    1
 -2       825       801       891      3314      3510      3557
 -1      1698    8    0    1
 -2       805       812       907      3258      3558      3559
 -1      1699    8    0    1
 -2       805       907       901      3559      3560      3535
 -1      1700    8    0    1
 -2       787       720       824      3501      3313      3561
 -1      1701    8    0    1
 -2       887       787       824      3498      3561      3562
 -1      1702    8    0    1
 -2       814       714       908      3266      3563      3564
 -1      1703    8    0    1
 -2       714       894       908      3518      3565      3563
 -1      1704    8    0    1
 -2       888       790       909      3502      3566      3567
 -1      1705    8    0    1
 -2       790       798       909      3217      3568      3566
 -1      1706    8    0    1
 -2       791       888       910      3503      3569      3570
 -1      1707    8    0    1
 -2       791       910       819      3570      3571      3297
 -1      1708    8    0    1
 -2       712       810       911      3250      3572      3573
 -1      1709    8    0    1
 -2       712       911       816      3573      3574      3285
 -1      1710    8    0    1
 -2       808       806       717      3282      3575      3242
 -1      1711    8    0    1
 -2       718       820       912      3300      3576      3577
 -1      1712    8    0    1
 -2       899       718       912      3530      3577      3578
 -1      1713    8    0    1
 -2       820       903       912      3543      3579      3576
 -1      1714    8    0    1
 -2       804       896       913      3547      3580      3581
 -1      1715    8    0    1
 -2       817       804       913      3288      3581      3582
 -1      1716    8    0    1
 -2       896       825       913      3525      3583      3580
 -1      1717    8    0    1
 -2       806       795       914      3237      3584      3585
 -1      1718    8    0    1
 -2       821       811       915      3545      3586      3587
 -1      1719    8    0    1
 -2       821       915       721      3587      3588      3303
 -1      1720    8    0    1
 -2       894       807       898      3517      3529      3589
 -1      1721    8    0    1
 -2       898       800       899      3528      3531      3590
 -1      1722    8    0    1
 -2       897       802       896      3526      3524      3591
 -1      1723    8    0    1
 -2       906       711       814      3555      3265      3592
 -1      1724    8    0    1
 -2       915       811       916      3586      3593      3594
 -1      1725    8    0    1
 -2       811       822       916      3307      3595      3593
 -1      1726    8    0    1
 -2       721       915       900      3588      3596      3532
 -1      1727    8    0    1
 -2       717       806       914      3575      3585      3597
 -1      1728    8    0    1
 -2       914       795       897      3584      3527      3598
 -1      1729    8    0    1
 -2       717       914       815      3597      3599      3269
 -1      1730    8    0    1
 -2       902       708       817      3538      3287      3600
 -1      1731    8    0    1
 -2       793       816       917      3284      3601      3602
 -1      1732    8    0    1
 -2       793       917       891      3602      3603      3509
 -1      1733    8    0    1
 -2       815       914       897      3599      3598      3604
 -1      1734    8    0    1
 -2       823       868       918      3443      3605      3606
 -1      1735    8    0    1
 -2       828       827       919      3323      3607      3608
 -1      1736    8    0    1
 -2       830       829       920      3329      3609      3610
 -1      1737    8    0    1
 -2       831       830       921      3332      3611      3612
 -1      1738    8    0    1
 -2       830       920       921      3610      3613      3611
 -1      1739    8    0    1
 -2       832       831       922      3335      3614      3615
 -1      1740    8    0    1
 -2       831       921       922      3612      3616      3614
 -1      1741    8    0    1
 -2       833       832       923      3338      3617      3618
 -1      1742    8    0    1
 -2       832       922       923      3615      3619      3617
 -1      1743    8    0    1
 -2       834       833       924      3341      3620      3621
 -1      1744    8    0    1
 -2       833       923       924      3618      3622      3620
 -1      1745    8    0    1
 -2       835       834       925      3344      3623      3624
 -1      1746    8    0    1
 -2       834       924       925      3621      3625      3623
 -1      1747    8    0    1
 -2       836       835       926      3347      3626      3627
 -1      1748    8    0    1
 -2       835       925       926      3624      3628      3626
 -1      1749    8    0    1
 -2       837       836       927      3350      3629      3630
 -1      1750    8    0    1
 -2       836       926       927      3627      3631      3629
 -1      1751    8    0    1
 -2       838       837       928      3353      3632      3633
 -1      1752    8    0    1
 -2       837       927       928      3630      3634      3632
 -1      1753    8    0    1
 -2       839       838       929      3356      3635      3636
 -1      1754    8    0    1
 -2       838       928       929      3633      3637      3635
 -1      1755    8    0    1
 -2       840       839       930      3359      3638      3639
 -1      1756    8    0    1
 -2       839       929       930      3636      3640      3638
 -1      1757    8    0    1
 -2       841       840       931      3362      3641      3642
 -1      1758    8    0    1
 -2       840       930       931      3639      3643      3641
 -1      1759    8    0    1
 -2       842       841       932      3365      3644      3645
 -1      1760    8    0    1
 -2       841       931       932      3642      3646      3644
 -1      1761    8    0    1
 -2       843       842       933      3368      3647      3648
 -1      1762    8    0    1
 -2       842       932       933      3645      3649      3647
 -1      1763    8    0    1
 -2       844       843       934      3371      3650      3651
 -1      1764    8    0    1
 -2       843       933       934      3648      3652      3650
 -1      1765    8    0    1
 -2       845       844       935      3374      3653      3654
 -1      1766    8    0    1
 -2       844       934       935      3651      3655      3653
 -1      1767    8    0    1
 -2       846       845       936      3377      3656      3657
 -1      1768    8    0    1
 -2       845       935       936      3654      3658      3656
 -1      1769    8    0    1
 -2       847       846       937      3380      3659      3660
 -1      1770    8    0    1
 -2       846       936       937      3657      3661      3659
 -1      1771    8    0    1
 -2       848       847       938      3383      3662      3663
 -1      1772    8    0    1
 -2       847       937       938      3660      3664      3662
 -1      1773    8    0    1
 -2       849       848       939      3386      3665      3666
 -1      1774    8    0    1
 -2       848       938       939      3663      3667      3665
 -1      1775    8    0    1
 -2       850       849       940      3389      3668      3669
 -1      1776    8    0    1
 -2       849       939       940      3666      3670      3668
 -1      1777    8    0    1
 -2       851       850       941      3392      3671      3672
 -1      1778    8    0    1
 -2       850       940       941      3669      3673      3671
 -1      1779    8    0    1
 -2       852       851       942      3395      3674      3675
 -1      1780    8    0    1
 -2       851       941       942      3672      3676      3674
 -1      1781    8    0    1
 -2       853       852       943      3398      3677      3678
 -1      1782    8    0    1
 -2       852       942       943      3675      3679      3677
 -1      1783    8    0    1
 -2       854       853       944      3401      3680      3681
 -1      1784    8    0    1
 -2       853       943       944      3678      3682      3680
 -1      1785    8    0    1
 -2       855       854       945      3404      3683      3684
 -1      1786    8    0    1
 -2       854       944       945      3681      3685      3683
 -1      1787    8    0    1
 -2       856       855       946      3407      3686      3687
 -1      1788    8    0    1
 -2       855       945       946      3684      3688      3686
 -1      1789    8    0    1
 -2       857       856       947      3410      3689      3690
 -1      1790    8    0    1
 -2       856       946       947      3687      3691      3689
 -1      1791    8    0    1
 -2       858       857       948      3413      3692      3693
 -1      1792    8    0    1
 -2       857       947       948      3690      3694      3692
 -1      1793    8    0    1
 -2       859       858       949      3416      3695      3696
 -1      1794    8    0    1
 -2       858       948       949      3693      3697      3695
 -1      1795    8    0    1
 -2       860       859       950      3419      3698      3699
 -1      1796    8    0    1
 -2       859       949       950      3696      3700      3698
 -1      1797    8    0    1
 -2       861       860       951      3422      3701      3702
 -1      1798    8    0    1
 -2       860       950       951      3699      3703      3701
 -1      1799    8    0    1
 -2       862       861       952      3425      3704      3705
 -1      1800    8    0    1
 -2       861       951       952      3702      3706      3704
 -1      1801    8    0    1
 -2       863       862       953      3428      3707      3708
 -1      1802    8    0    1
 -2       862       952       953      3705      3709      3707
 -1      1803    8    0    1
 -2       864       863       909      3432      3710      3711
 -1      1804    8    0    1
 -2       867       865       954      3440      3712      3713
 -1      1805    8    0    1
 -2       798       864       909      3554      3711      3568
 -1      1806    8    0    1
 -2       825       891       955      3557      3714      3715
 -1      1807    8    0    1
 -2       825       955       913      3715      3716      3583
 -1      1808    8    0    1
 -2       869       870       956      3449      3717      3718
 -1      1809    8    0    1
 -2       870       871       957      3452      3719      3720
 -1      1810    8    0    1
 -2       870       957       956      3720      3721      3717
 -1      1811    8    0    1
 -2       871       872       958      3455      3722      3723
 -1      1812    8    0    1
 -2       871       958       957      3723      3724      3719
 -1      1813    8    0    1
 -2       872       873       959      3458      3725      3726
 -1      1814    8    0    1
 -2       872       959       958      3726      3727      3722
 -1      1815    8    0    1
 -2       873       874       960      3461      3728      3729
 -1      1816    8    0    1
 -2       873       960       959      3729      3730      3725
 -1      1817    8    0    1
 -2       874       875       961      3464      3731      3732
 -1      1818    8    0    1
 -2       874       961       960      3732      3733      3728
 -1      1819    8    0    1
 -2       875       876       962      3467      3734      3735
 -1      1820    8    0    1
 -2       875       962       961      3735      3736      3731
 -1      1821    8    0    1
 -2       876       877       963      3470      3737      3738
 -1      1822    8    0    1
 -2       876       963       962      3738      3739      3734
 -1      1823    8    0    1
 -2       877       878       964      3473      3740      3741
 -1      1824    8    0    1
 -2       877       964       963      3741      3742      3737
 -1      1825    8    0    1
 -2       878       879       965      3476      3743      3744
 -1      1826    8    0    1
 -2       878       965       964      3744      3745      3740
 -1      1827    8    0    1
 -2       879       880       966      3479      3746      3747
 -1      1828    8    0    1
 -2       879       966       965      3747      3748      3743
 -1      1829    8    0    1
 -2       880       881       967      3482      3749      3750
 -1      1830    8    0    1
 -2       880       967       966      3750      3751      3746
 -1      1831    8    0    1
 -2       881       882       968      3485      3752      3753
 -1      1832    8    0    1
 -2       881       968       967      3753      3754      3749
 -1      1833    8    0    1
 -2       882       883       969      3488      3755      3756
 -1      1834    8    0    1
 -2       882       969       968      3756      3757      3752
 -1      1835    8    0    1
 -2       883       884       970      3491      3758      3759
 -1      1836    8    0    1
 -2       883       970       969      3759      3760      3755
 -1      1837    8    0    1
 -2       884       885       971      3494      3761      3762
 -1      1838    8    0    1
 -2       884       971       970      3762      3763      3758
 -1      1839    8    0    1
 -2       885       886       972      3497      3764      3765
 -1      1840    8    0    1
 -2       885       972       971      3765      3766      3761
 -1      1841    8    0    1
 -2       886       887       973      3500      3767      3768
 -1      1842    8    0    1
 -2       886       973       972      3768      3769      3764
 -1      1843    8    0    1
 -2       889       867       974      3506      3770      3771
 -1      1844    8    0    1
 -2       867       954       974      3713      3772      3770
 -1      1845    8    0    1
 -2       822       902       916      3540      3773      3595
 -1      1846    8    0    1
 -2       893       889       975      3516      3774      3775
 -1      1847    8    0    1
 -2       889       974       975      3771      3776      3774
 -1      1848    8    0    1
 -2       868       869       976      3446      3777      3778
 -1      1849    8    0    1
 -2       918       868       976      3605      3778      3779
 -1      1850    8    0    1
 -2       869       956       976      3718      3780      3777
 -1      1851    8    0    1
 -2       865       823       977      3435      3781      3782
 -1      1852    8    0    1
 -2       954       865       977      3712      3782      3783
 -1      1853    8    0    1
 -2       823       918       977      3606      3784      3781
 -1      1854    8    0    1
 -2       898       899       978      3590      3785      3786
 -1      1855    8    0    1
 -2       897       896       818      3591      3546      3787
 -1      1856    8    0    1
 -2       906       814       979      3592      3788      3789
 -1      1857    8    0    1
 -2       814       908       979      3564      3790      3788
 -1      1858    8    0    1
 -2       826       900       980      3534      3791      3792
 -1      1859    8    0    1
 -2       818       815       897      3293      3604      3787
 -1      1860    8    0    1
 -2       894       898       981      3589      3793      3794
 -1      1861    8    0    1
 -2       892       866       982      3513      3795      3796
 -1      1862    8    0    1
 -2       887       824       983      3562      3797      3798
 -1      1863    8    0    1
 -2       973       887       983      3767      3798      3799
 -1      1864    8    0    1
 -2       824       904       983      3549      3800      3797
 -1      1865    8    0    1
 -2       890       901       921      3537      3801      3802
 -1      1866    8    0    1
 -2       813       819       984      3296      3803      3804
 -1      1867    8    0    1
 -2       904       813       984      3550      3804      3805
 -1      1868    8    0    1
 -2       819       910       984      3571      3806      3803
 -1      1869    8    0    1
 -2       900       915       985      3596      3807      3808
 -1      1870    8    0    1
 -2       980       900       985      3791      3808      3809
 -1      1871    8    0    1
 -2       915       916       985      3594      3810      3807
 -1      1872    8    0    1
 -2       827       826       986      3320      3811      3812
 -1      1873    8    0    1
 -2       826       980       986      3792      3813      3811
 -1      1874    8    0    1
 -2       890       921       920      3802      3613      3814
 -1      1875    8    0    1
 -2       905       890       920      3553      3814      3815
 -1      1876    8    0    1
 -2       893       975       987      3775      3816      3817
 -1      1877    8    0    1
 -2       893       987       895      3817      3818      3522
 -1      1878    8    0    1
 -2       955       891       917      3714      3603      3819
 -1      1879    8    0    1
 -2       829       828       988      3326      3820      3821
 -1      1880    8    0    1
 -2       863       953       909      3708      3822      3710
 -1      1881    8    0    1
 -2       916       902       955      3773      3823      3824
 -1      1882    8    0    1
 -2       898       978       989      3786      3825      3826
 -1      1883    8    0    1
 -2       898       989       981      3826      3827      3793
 -1      1884    8    0    1
 -2       921       901       922      3801      3828      3616
 -1      1885    8    0    1
 -2       908       894       990      3565      3829      3830
 -1      1886    8    0    1
 -2       894       981       990      3794      3831      3829
 -1      1887    8    0    1
 -2       910       888       991      3569      3832      3833
 -1      1888    8    0    1
 -2       911       810       988      3572      3834      3835
 -1      1889    8    0    1
 -2       902       817       955      3600      3836      3823
 -1      1890    8    0    1
 -2       888       909       992      3567      3837      3838
 -1      1891    8    0    1
 -2       991       888       992      3832      3838      3839
 -1      1892    8    0    1
 -2       909       953       992      3822      3840      3837
 -1      1893    8    0    1
 -2       810       905       988      3552      3841      3834
 -1      1894    8    0    1
 -2       812       906       993      3556      3842      3843
 -1      1895    8    0    1
 -2       866       895       994      3521      3844      3845
 -1      1896    8    0    1
 -2       895       987       994      3818      3846      3844
 -1      1897    8    0    1
 -2       978       899       995      3785      3847      3848
 -1      1898    8    0    1
 -2       899       912       995      3578      3849      3847
 -1      1899    8    0    1
 -2       920       829       988      3609      3821      3850
 -1      1900    8    0    1
 -2       917       816       986      3601      3851      3852
 -1      1901    8    0    1
 -2       982       866       994      3795      3845      3853
 -1      1902    8    0    1
 -2       816       911       986      3574      3854      3851
 -1      1903    8    0    1
 -2       892       982       995      3796      3855      3856
 -1      1904    8    0    1
 -2       919       827       986      3607      3812      3857
 -1      1905    8    0    1
 -2       906       979       923      3789      3858      3859
 -1      1906    8    0    1
 -2       988       828       919      3820      3608      3860
 -1      1907    8    0    1
 -2       812       993       907      3843      3861      3558
 -1      1908    8    0    1
 -2       988       905       920      3841      3815      3850
 -1      1909    8    0    1
 -2       924       923       979      3622      3858      3862
 -1      1910    8    0    1
 -2       926       925       996      3628      3863      3864
 -1      1911    8    0    1
 -2       927       926       997      3631      3865      3866
 -1      1912    8    0    1
 -2       926       996       997      3864      3867      3865
 -1      1913    8    0    1
 -2       928       927       998      3634      3868      3869
 -1      1914    8    0    1
 -2       927       997       998      3866      3870      3868
 -1      1915    8    0    1
 -2       929       928       999      3637      3871      3872
 -1      1916    8    0    1
 -2       928       998       999      3869      3873      3871
 -1      1917    8    0    1
 -2       930       929      1000      3640      3874      3875
 -1      1918    8    0    1
 -2       929       999      1000      3872      3876      3874
 -1      1919    8    0    1
 -2       931       930      1001      3643      3877      3878
 -1      1920    8    0    1
 -2       930      1000      1001      3875      3879      3877
 -1      1921    8    0    1
 -2       932       931      1002      3646      3880      3881
 -1      1922    8    0    1
 -2       931      1001      1002      3878      3882      3880
 -1      1923    8    0    1
 -2       933       932      1003      3649      3883      3884
 -1      1924    8    0    1
 -2       932      1002      1003      3881      3885      3883
 -1      1925    8    0    1
 -2       934       933      1004      3652      3886      3887
 -1      1926    8    0    1
 -2       933      1003      1004      3884      3888      3886
 -1      1927    8    0    1
 -2       935       934      1005      3655      3889      3890
 -1      1928    8    0    1
 -2       934      1004      1005      3887      3891      3889
 -1      1929    8    0    1
 -2       936       935      1006      3658      3892      3893
 -1      1930    8    0    1
 -2       935      1005      1006      3890      3894      3892
 -1      1931    8    0    1
 -2       937       936      1007      3661      3895      3896
 -1      1932    8    0    1
 -2       936      1006      1007      3893      3897      3895
 -1      1933    8    0    1
 -2       938       937      1008      3664      3898      3899
 -1      1934    8    0    1
 -2       937      1007      1008      3896      3900      3898
 -1      1935    8    0    1
 -2       939       938      1009      3667      3901      3902
 -1      1936    8    0    1
 -2       938      1008      1009      3899      3903      3901
 -1      1937    8    0    1
 -2       940       939      1010      3670      3904      3905
 -1      1938    8    0    1
 -2       939      1009      1010      3902      3906      3904
 -1      1939    8    0    1
 -2       941       940      1011      3673      3907      3908
 -1      1940    8    0    1
 -2       940      1010      1011      3905      3909      3907
 -1      1941    8    0    1
 -2       942       941      1012      3676      3910      3911
 -1      1942    8    0    1
 -2       941      1011      1012      3908      3912      3910
 -1      1943    8    0    1
 -2       943       942      1013      3679      3913      3914
 -1      1944    8    0    1
 -2       942      1012      1013      3911      3915      3913
 -1      1945    8    0    1
 -2       944       943      1014      3682      3916      3917
 -1      1946    8    0    1
 -2       943      1013      1014      3914      3918      3916
 -1      1947    8    0    1
 -2       945       944      1015      3685      3919      3920
 -1      1948    8    0    1
 -2       944      1014      1015      3917      3921      3919
 -1      1949    8    0    1
 -2       946       945      1016      3688      3922      3923
 -1      1950    8    0    1
 -2       945      1015      1016      3920      3924      3922
 -1      1951    8    0    1
 -2       947       946      1017      3691      3925      3926
 -1      1952    8    0    1
 -2       946      1016      1017      3923      3927      3925
 -1      1953    8    0    1
 -2       948       947      1018      3694      3928      3929
 -1      1954    8    0    1
 -2       947      1017      1018      3926      3930      3928
 -1      1955    8    0    1
 -2       949       948      1019      3697      3931      3932
 -1      1956    8    0    1
 -2       948      1018      1019      3929      3933      3931
 -1      1957    8    0    1
 -2       950       949      1020      3700      3934      3935
 -1      1958    8    0    1
 -2       949      1019      1020      3932      3936      3934
 -1      1959    8    0    1
 -2       951       950      1021      3703      3937      3938
 -1      1960    8    0    1
 -2       950      1020      1021      3935      3939      3937
 -1      1961    8    0    1
 -2       952       951      1022      3706      3940      3941
 -1      1962    8    0    1
 -2       951      1021      1022      3938      3942      3940
 -1      1963    8    0    1
 -2       953       952      1023      3709      3943      3944
 -1      1964    8    0    1
 -2       992       953      1023      3840      3944      3945
 -1      1965    8    0    1
 -2       952      1022      1023      3941      3946      3943
 -1      1966    8    0    1
 -2       958       959      1024      3727      3947      3948
 -1      1967    8    0    1
 -2       957       958      1025      3724      3949      3950
 -1      1968    8    0    1
 -2       958      1024      1025      3948      3951      3949
 -1      1969    8    0    1
 -2       956       957      1026      3721      3952      3953
 -1      1970    8    0    1
 -2       957      1025      1026      3950      3954      3952
 -1      1971    8    0    1
 -2       959       960      1027      3730      3955      3956
 -1      1972    8    0    1
 -2       959      1027      1024      3956      3957      3947
 -1      1973    8    0    1
 -2       960       961      1028      3733      3958      3959
 -1      1974    8    0    1
 -2       960      1028      1027      3959      3960      3955
 -1      1975    8    0    1
 -2       961       962      1029      3736      3961      3962
 -1      1976    8    0    1
 -2       961      1029      1028      3962      3963      3958
 -1      1977    8    0    1
 -2       962       963      1030      3739      3964      3965
 -1      1978    8    0    1
 -2       962      1030      1029      3965      3966      3961
 -1      1979    8    0    1
 -2       963       964      1031      3742      3967      3968
 -1      1980    8    0    1
 -2       963      1031      1030      3968      3969      3964
 -1      1981    8    0    1
 -2       964       965      1032      3745      3970      3971
 -1      1982    8    0    1
 -2       964      1032      1031      3971      3972      3967
 -1      1983    8    0    1
 -2       965       966      1033      3748      3973      3974
 -1      1984    8    0    1
 -2       965      1033      1032      3974      3975      3970
 -1      1985    8    0    1
 -2       966       967      1034      3751      3976      3977
 -1      1986    8    0    1
 -2       966      1034      1033      3977      3978      3973
 -1      1987    8    0    1
 -2       967       968      1035      3754      3979      3980
 -1      1988    8    0    1
 -2       967      1035      1034      3980      3981      3976
 -1      1989    8    0    1
 -2       968       969      1036      3757      3982      3983
 -1      1990    8    0    1
 -2       968      1036      1035      3983      3984      3979
 -1      1991    8    0    1
 -2       969       970      1037      3760      3985      3986
 -1      1992    8    0    1
 -2       969      1037      1036      3986      3987      3982
 -1      1993    8    0    1
 -2       970       971      1038      3763      3988      3989
 -1      1994    8    0    1
 -2       970      1038      1037      3989      3990      3985
 -1      1995    8    0    1
 -2       971       972      1039      3766      3991      3992
 -1      1996    8    0    1
 -2       971      1039      1038      3992      3993      3988
 -1      1997    8    0    1
 -2       972       973      1040      3769      3994      3995
 -1      1998    8    0    1
 -2       972      1040      1039      3995      3996      3991
 -1      1999    8    0    1
 -2       974       954      1041      3772      3997      3998
 -1      2000    8    0    1
 -2       955       817       913      3836      3582      3716
 -1      2001    8    0    1
 -2       975       974      1042      3776      3999      4000
 -1      2002    8    0    1
 -2       974      1041      1042      3998      4001      3999
 -1      2003    8    0    1
 -2       910       991      1043      3833      4002      4003
 -1      2004    8    0    1
 -2       910      1043       984      4003      4004      3806
 -1      2005    8    0    1
 -2       986       980       917      3813      4005      3852
 -1      2006    8    0    1
 -2       978       995      1044      3848      4006      4007
 -1      2007    8    0    1
 -2       989       978      1044      3825      4007      4008
 -1      2008    8    0    1
 -2       995       982      1044      3855      4009      4006
 -1      2009    8    0    1
 -2       892       995       912      3856      3849      4010
 -1      2010    8    0    1
 -2       982       994      1045      3853      4011      4012
 -1      2011    8    0    1
 -2       982      1045      1044      4012      4013      4009
 -1      2012    8    0    1
 -2       955       917       980      3819      4005      4014
 -1      2013    8    0    1
 -2       922       901       907      3828      3560      4015
 -1      2014    8    0    1
 -2       922       907       993      4015      3861      4016
 -1      2015    8    0    1
 -2       987       975      1046      3816      4017      4018
 -1      2016    8    0    1
 -2       975      1042      1046      4000      4019      4017
 -1      2017    8    0    1
 -2       977       918      1047      3784      4020      4021
 -1      2018    8    0    1
 -2       991       992      1048      3839      4022      4023
 -1      2019    8    0    1
 -2       992      1023      1048      3945      4024      4022
 -1      2020    8    0    1
 -2       923       922       993      3619      4016      4025
 -1      2021    8    0    1
 -2       925       924      1049      3625      4026      4027
 -1      2022    8    0    1
 -2      1047       918      1050      4020      4028      4029
 -1      2023    8    0    1
 -2       918       976      1050      3779      4030      4028
 -1      2024    8    0    1
 -2       991      1048      1051      4023      4031      4032
 -1      2025    8    0    1
 -2       991      1051      1043      4032      4033      4002
 -1      2026    8    0    1
 -2       916       955       985      3824      4034      3810
 -1      2027    8    0    1
 -2       981       989      1052      3827      4035      4036
 -1      2028    8    0    1
 -2       981      1052       990      4036      4037      3831
 -1      2029    8    0    1
 -2      1041       954      1053      3997      4038      4039
 -1      2030    8    0    1
 -2       954       977      1053      3783      4040      4038
 -1      2031    8    0    1
 -2       994       987      1054      3846      4041      4042
 -1      2032    8    0    1
 -2       987      1046      1054      4018      4043      4041
 -1      2033    8    0    1
 -2       911       988       919      3835      3860      4044
 -1      2034    8    0    1
 -2       925      1049       996      4027      4045      3863
 -1      2035    8    0    1
 -2       993       906       923      3842      3859      4025
 -1      2036    8    0    1
 -2       976       956      1055      3780      4046      4047
 -1      2037    8    0    1
 -2      1050       976      1055      4030      4047      4048
 -1      2038    8    0    1
 -2       956      1026      1055      3953      4049      4046
 -1      2039    8    0    1
 -2       986       911       919      3854      4044      3857
 -1      2040    8    0    1
 -2       979       908      1056      3790      4050      4051
 -1      2041    8    0    1
 -2      1045       994      1054      4011      4042      4052
 -1      2042    8    0    1
 -2       892       912       903      4010      3579      3544
 -1      2043    8    0    1
 -2       904       984      1057      3805      4053      4054
 -1      2044    8    0    1
 -2       983       904      1057      3800      4054      4055
 -1      2045    8    0    1
 -2       984      1043      1057      4004      4056      4053
 -1      2046    8    0    1
 -2       924       979      1049      3862      4057      4026
 -1      2047    8    0    1
 -2      1056       908       990      4050      3830      4058
 -1      2048    8    0    1
 -2      1049       979      1056      4057      4051      4059
 -1      2049    8    0    1
 -2      1049      1056       996      4059      4060      4045
 -1      2050    8    0    1
 -2      1056       990      1058      4058      4061      4062
 -1      2051    8    0    1
 -2       996      1056      1058      4060      4062      4063
 -1      2052    8    0    1
 -2       990      1052      1058      4037      4064      4061
 -1      2053    8    0    1
 -2       998       997      1059      3870      4065      4066
 -1      2054    8    0    1
 -2       999       998      1060      3873      4067      4068
 -1      2055    8    0    1
 -2       998      1059      1060      4066      4069      4067
 -1      2056    8    0    1
 -2      1000       999      1061      3876      4070      4071
 -1      2057    8    0    1
 -2       999      1060      1061      4068      4072      4070
 -1      2058    8    0    1
 -2      1001      1000      1062      3879      4073      4074
 -1      2059    8    0    1
 -2      1000      1061      1062      4071      4075      4073
 -1      2060    8    0    1
 -2      1002      1001      1063      3882      4076      4077
 -1      2061    8    0    1
 -2      1001      1062      1063      4074      4078      4076
 -1      2062    8    0    1
 -2      1003      1002      1064      3885      4079      4080
 -1      2063    8    0    1
 -2      1002      1063      1064      4077      4081      4079
 -1      2064    8    0    1
 -2      1004      1003      1065      3888      4082      4083
 -1      2065    8    0    1
 -2      1003      1064      1065      4080      4084      4082
 -1      2066    8    0    1
 -2      1005      1004      1066      3891      4085      4086
 -1      2067    8    0    1
 -2      1004      1065      1066      4083      4087      4085
 -1      2068    8    0    1
 -2      1006      1005      1067      3894      4088      4089
 -1      2069    8    0    1
 -2      1005      1066      1067      4086      4090      4088
 -1      2070    8    0    1
 -2      1007      1006      1068      3897      4091      4092
 -1      2071    8    0    1
 -2      1006      1067      1068      4089      4093      4091
 -1      2072    8    0    1
 -2      1008      1007      1069      3900      4094      4095
 -1      2073    8    0    1
 -2      1007      1068      1069      4092      4096      4094
 -1      2074    8    0    1
 -2      1009      1008      1070      3903      4097      4098
 -1      2075    8    0    1
 -2      1008      1069      1070      4095      4099      4097
 -1      2076    8    0    1
 -2      1010      1009      1071      3906      4100      4101
 -1      2077    8    0    1
 -2      1009      1070      1071      4098      4102      4100
 -1      2078    8    0    1
 -2      1011      1010      1072      3909      4103      4104
 -1      2079    8    0    1
 -2      1010      1071      1072      4101      4105      4103
 -1      2080    8    0    1
 -2      1012      1011      1073      3912      4106      4107
 -1      2081    8    0    1
 -2      1011      1072      1073      4104      4108      4106
 -1      2082    8    0    1
 -2      1013      1012      1074      3915      4109      4110
 -1      2083    8    0    1
 -2      1012      1073      1074      4107      4111      4109
 -1      2084    8    0    1
 -2      1014      1013      1075      3918      4112      4113
 -1      2085    8    0    1
 -2      1013      1074      1075      4110      4114      4112
 -1      2086    8    0    1
 -2      1015      1014      1076      3921      4115      4116
 -1      2087    8    0    1
 -2      1014      1075      1076      4113      4117      4115
 -1      2088    8    0    1
 -2      1016      1015      1077      3924      4118      4119
 -1      2089    8    0    1
 -2      1015      1076      1077      4116      4120      4118
 -1      2090    8    0    1
 -2      1017      1016      1078      3927      4121      4122
 -1      2091    8    0    1
 -2      1016      1077      1078      4119      4123      4121
 -1      2092    8    0    1
 -2      1018      1017      1079      3930      4124      4125
 -1      2093    8    0    1
 -2      1017      1078      1079      4122      4126      4124
 -1      2094    8    0    1
 -2      1019      1018      1080      3933      4127      4128
 -1      2095    8    0    1
 -2      1018      1079      1080      4125      4129      4127
 -1      2096    8    0    1
 -2      1020      1019      1081      3936      4130      4131
 -1      2097    8    0    1
 -2      1019      1080      1081      4128      4132      4130
 -1      2098    8    0    1
 -2      1021      1020      1082      3939      4133      4134
 -1      2099    8    0    1
 -2      1020      1081      1082      4131      4135      4133
 -1      2100    8    0    1
 -2      1022      1021      1083      3942      4136      4137
 -1      2101    8    0    1
 -2      1021      1082      1083      4134      4138      4136
 -1      2102    8    0    1
 -2      1025      1024      1084      3951      4139      4140
 -1      2103    8    0    1
 -2      1024      1027      1085      3957      4141      4142
 -1      2104    8    0    1
 -2      1024      1085      1084      4142      4143      4139
 -1      2105    8    0    1
 -2      1026      1025      1086      3954      4144      4145
 -1      2106    8    0    1
 -2      1025      1084      1086      4140      4146      4144
 -1      2107    8    0    1
 -2      1028      1029      1087      3963      4147      4148
 -1      2108    8    0    1
 -2      1029      1030      1088      3966      4149      4150
 -1      2109    8    0    1
 -2      1029      1088      1087      4150      4151      4147
 -1      2110    8    0    1
 -2      1030      1031      1089      3969      4152      4153
 -1      2111    8    0    1
 -2      1030      1089      1088      4153      4154      4149
 -1      2112    8    0    1
 -2      1031      1032      1090      3972      4155      4156
 -1      2113    8    0    1
 -2      1031      1090      1089      4156      4157      4152
 -1      2114    8    0    1
 -2      1032      1033      1091      3975      4158      4159
 -1      2115    8    0    1
 -2      1032      1091      1090      4159      4160      4155
 -1      2116    8    0    1
 -2      1033      1034      1092      3978      4161      4162
 -1      2117    8    0    1
 -2      1033      1092      1091      4162      4163      4158
 -1      2118    8    0    1
 -2      1034      1035      1093      3981      4164      4165
 -1      2119    8    0    1
 -2      1034      1093      1092      4165      4166      4161
 -1      2120    8    0    1
 -2      1035      1036      1094      3984      4167      4168
 -1      2121    8    0    1
 -2      1035      1094      1093      4168      4169      4164
 -1      2122    8    0    1
 -2      1036      1037      1095      3987      4170      4171
 -1      2123    8    0    1
 -2      1036      1095      1094      4171      4172      4167
 -1      2124    8    0    1
 -2      1037      1038      1096      3990      4173      4174
 -1      2125    8    0    1
 -2      1037      1096      1095      4174      4175      4170
 -1      2126    8    0    1
 -2      1038      1039      1097      3993      4176      4177
 -1      2127    8    0    1
 -2      1038      1097      1096      4177      4178      4173
 -1      2128    8    0    1
 -2      1039      1040      1051      3996      4179      4180
 -1      2129    8    0    1
 -2      1040       973      1057      3994      4181      4182
 -1      2130    8    0    1
 -2       977      1047      1053      4021      4183      4040
 -1      2131    8    0    1
 -2      1027      1028      1098      3960      4184      4185
 -1      2132    8    0    1
 -2      1028      1087      1098      4148      4186      4184
 -1      2133    8    0    1
 -2      1057      1043      1040      4056      4187      4182
 -1      2134    8    0    1
 -2      1044      1045      1099      4013      4188      4189
 -1      2135    8    0    1
 -2      1044      1099       989      4189      4190      4008
 -1      2136    8    0    1
 -2       997       996      1058      3867      4063      4191
 -1      2137    8    0    1
 -2      1045      1054      1100      4052      4192      4193
 -1      2138    8    0    1
 -2      1045      1100      1099      4193      4194      4188
 -1      2139    8    0    1
 -2       955       980       985      4014      3809      4034
 -1      2140    8    0    1
 -2       973       983      1057      3799      4055      4181
 -1      2141    8    0    1
 -2      1042      1041      1101      4001      4195      4196
 -1      2142    8    0    1
 -2      1040      1043      1051      4187      4033      4179
 -1      2143    8    0    1
 -2      1051      1048      1102      4031      4197      4198
 -1      2144    8    0    1
 -2      1047      1050      1103      4029      4199      4200
 -1      2145    8    0    1
 -2      1026      1086      1104      4145      4201      4202
 -1      2146    8    0    1
 -2      1026      1104      1055      4202      4203      4049
 -1      2147    8    0    1
 -2      1027      1098      1085      4185      4204      4141
 -1      2148    8    0    1
 -2      1039      1051      1097      4180      4205      4176
 -1      2149    8    0    1
 -2       989      1099      1059      4190      4206      4207
 -1      2150    8    0    1
 -2      1053      1047      1105      4183      4208      4209
 -1      2151    8    0    1
 -2      1047      1103      1105      4200      4210      4208
 -1      2152    8    0    1
 -2      1054      1046      1106      4043      4211      4212
 -1      2153    8    0    1
 -2      1054      1106      1100      4212      4213      4192
 -1      2154    8    0    1
 -2      1041      1053      1107      4039      4214      4215
 -1      2155    8    0    1
 -2      1101      1041      1107      4195      4215      4216
 -1      2156    8    0    1
 -2      1053      1105      1107      4209      4217      4214
 -1      2157    8    0    1
 -2      1059       997      1058      4065      4191      4218
 -1      2158    8    0    1
 -2      1046      1042      1108      4019      4219      4220
 -1      2159    8    0    1
 -2      1042      1101      1108      4196      4221      4219
 -1      2160    8    0    1
 -2      1022      1083      1102      4137      4222      4223
 -1      2161    8    0    1
 -2      1022      1102      1023      4223      4224      3946
 -1      2162    8    0    1
 -2      1089      1090      1109      4157      4225      4226
 -1      2163    8    0    1
 -2      1060      1059      1099      4069      4206      4227
 -1      2164    8    0    1
 -2      1050      1055      1110      4048      4228      4229
 -1      2165    8    0    1
 -2      1103      1050      1110      4199      4229      4230
 -1      2166    8    0    1
 -2      1055      1104      1110      4203      4231      4228
 -1      2167    8    0    1
 -2      1061      1060      1100      4072      4232      4233
 -1      2168    8    0    1
 -2      1062      1061      1106      4075      4234      4235
 -1      2169    8    0    1
 -2      1063      1062      1108      4078      4236      4237
 -1      2170    8    0    1
 -2      1064      1063      1101      4081      4238      4239
 -1      2171    8    0    1
 -2      1065      1064      1107      4084      4240      4241
 -1      2172    8    0    1
 -2      1066      1065      1105      4087      4242      4243
 -1      2173    8    0    1
 -2      1067      1066      1103      4090      4244      4245
 -1      2174    8    0    1
 -2      1068      1067      1110      4093      4246      4247
 -1      2175    8    0    1
 -2      1069      1068      1104      4096      4248      4249
 -1      2176    8    0    1
 -2      1070      1069      1086      4099      4250      4251
 -1      2177    8    0    1
 -2      1071      1070      1084      4102      4252      4253
 -1      2178    8    0    1
 -2      1072      1071      1085      4105      4254      4255
 -1      2179    8    0    1
 -2      1073      1072      1098      4108      4256      4257
 -1      2180    8    0    1
 -2      1074      1073      1087      4111      4258      4259
 -1      2181    8    0    1
 -2      1075      1074      1088      4114      4260      4261
 -1      2182    8    0    1
 -2      1076      1075      1109      4117      4262      4263
 -1      2183    8    0    1
 -2      1077      1076      1111      4120      4264      4265
 -1      2184    8    0    1
 -2      1076      1109      1111      4263      4266      4264
 -1      2185    8    0    1
 -2      1078      1077      1112      4123      4267      4268
 -1      2186    8    0    1
 -2      1077      1111      1112      4265      4269      4267
 -1      2187    8    0    1
 -2      1079      1078      1113      4126      4270      4271
 -1      2188    8    0    1
 -2      1078      1112      1113      4268      4272      4270
 -1      2189    8    0    1
 -2      1080      1079      1114      4129      4273      4274
 -1      2190    8    0    1
 -2      1079      1113      1114      4271      4275      4273
 -1      2191    8    0    1
 -2      1081      1080      1115      4132      4276      4277
 -1      2192    8    0    1
 -2      1080      1114      1115      4274      4278      4276
 -1      2193    8    0    1
 -2      1082      1081      1116      4135      4279      4280
 -1      2194    8    0    1
 -2      1081      1115      1116      4277      4281      4279
 -1      2195    8    0    1
 -2      1083      1082      1117      4138      4282      4283
 -1      2196    8    0    1
 -2      1082      1116      1117      4280      4284      4282
 -1      2197    8    0    1
 -2      1084      1085      1071      4143      4254      4253
 -1      2198    8    0    1
 -2      1086      1084      1070      4146      4252      4251
 -1      2199    8    0    1
 -2      1087      1088      1074      4151      4260      4259
 -1      2200    8    0    1
 -2      1090      1091      1111      4160      4285      4286
 -1      2201    8    0    1
 -2      1091      1092      1112      4163      4287      4288
 -1      2202    8    0    1
 -2      1092      1093      1113      4166      4289      4290
 -1      2203    8    0    1
 -2      1093      1094      1114      4169      4291      4292
 -1      2204    8    0    1
 -2      1094      1095      1115      4172      4293      4294
 -1      2205    8    0    1
 -2      1095      1096      1116      4175      4295      4296
 -1      2206    8    0    1
 -2      1096      1097      1117      4178      4297      4298
 -1      2207    8    0    1
 -2      1102      1048      1023      4197      4024      4224
 -1      2208    8    0    1
 -2      1101      1063      1108      4238      4237      4221
 -1      2209    8    0    1
 -2      1098      1087      1073      4186      4258      4257
 -1      2210    8    0    1
 -2      1098      1072      1085      4256      4255      4204
 -1      2211    8    0    1
 -2      1103      1066      1105      4244      4243      4210
 -1      2212    8    0    1
 -2      1086      1069      1104      4250      4249      4201
 -1      2213    8    0    1
 -2      1102      1083      1117      4222      4283      4299
 -1      2214    8    0    1
 -2      1099      1100      1060      4194      4232      4227
 -1      2215    8    0    1
 -2      1061      1100      1106      4233      4213      4234
 -1      2216    8    0    1
 -2      1064      1101      1107      4239      4216      4240
 -1      2217    8    0    1
 -2      1067      1103      1110      4245      4230      4246
 -1      2218    8    0    1
 -2      1058      1052      1059      4064      4300      4218
 -1      2219    8    0    1
 -2      1065      1107      1105      4241      4217      4242
 -1      2220    8    0    1
 -2      1068      1110      1104      4247      4231      4248
 -1      2221    8    0    1
 -2      1113      1093      1114      4289      4292      4275
 -1      2222    8    0    1
 -2      1116      1096      1117      4295      4298      4284
 -1      2223    8    0    1
 -2      1090      1111      1109      4286      4266      4225
 -1      2224    8    0    1
 -2      1075      1088      1089      4261      4154      4301
 -1      2225    8    0    1
 -2      1052       989      1059      4035      4207      4300
 -1      2226    8    0    1
 -2      1115      1095      1116      4293      4296      4281
 -1      2227    8    0    1
 -2      1112      1092      1113      4287      4290      4272
 -1      2228    8    0    1
 -2      1091      1112      1111      4288      4269      4285
 -1      2229    8    0    1
 -2      1094      1115      1114      4294      4278      4291
 -1      2230    8    0    1
 -2      1051      1102      1097      4198      4302      4205
 -1      2231    8    0    1
 -2      1106      1046      1108      4211      4220      4303
 -1      2232    8    0    1
 -2      1117      1097      1102      4297      4302      4299
 -1      2233    8    0    1
 -2      1108      1062      1106      4236      4235      4303
 -1      2234    8    0    1
 -2      1075      1089      1109      4301      4226      4262
 -3
    1PSTEP                         1           1           1          
  100CL  101 1.000000000        4303                     0    1           1
 -4  DISP        4    1
 -5  D1          1    2    1    0
 -5  D2          1    2    2    0
 -5  D3          1    2    3    0
 -5  ALL         1    2    0    0    1ALL
 -1         1 3.69982E-03 9.33803E-05-3.27883E-15
 -1         2 6.57135E-03 1.19198E-03-4.65431E-15
 -1         3 1.71933E-02 9.27508E-03-7.02798E-14
 -1         4 1.35709E-02 7.84643E-03-7.47726E-14
 -1         5 0.00000E+00 0.00000E+00 0.00000E+00
 -1         6 0.00000E+00 0.00000E+00 0.00000E+00
 -1         7 0.00000E+00 0.00000E+00 0.00000E+00
 -1         8 0.00000E+00 0.00000E+00 0.00000E+00
 -1         9 0.00000E+00 0.00000E+00 0.00000E+00
 -1        10 0.00000E+00 0.00000E+00 0.00000E+00
 -1        11 0.00000E+00 0.00000E+00 0.00000E+00
 -1        12 0.00000E+00 0.00000E+00 0.00000E+00
 -1        13 0.00000E+00 0.00000E+00 0.00000E+00
 -1        14 0.00000E+00 0.00000E+00 0.00000E+00
 -1        15 0.00000E+00 0.00000E+00 0.00000E+00
 -1        16 0.00000E+00 0.00000E+00 0.00000E+00
 -1        17 0.00000E+00 0.00000E+00 0.00000E+00
 -1        18 0.00000E+00 0.00000E+00 0.00000E+00
 -1        19 0.00000E+00 0.00000E+00 0.00000E+00
 -1        20 0.00000E+00 0.00000E+00 0.00000E+00
 -1        21 0.00000E+00 0.00000E+00 0.00000E+00
 -1        22 0.00000E+00 0.00000E+00 0.00000E+00
 -1        23 4.14153E-04-2.68749E-04 4.17757E-18
 -1        24 7.03397E-04-4.16806E-04-8.05935E-17
 -1        25 9.66061E-04-5.21014E-04-2.50566E-16
 -1        26 1.21756E-03-5.94670E-04-5.02135E-16
 -1        27 1.46066E-03-6.45130E-04-8.32782E-16
 -1        28 1.69558E-03-6.74684E-04-1.24216E-15
 -1        29 1.92195E-03-6.82739E-04-1.73031E-15
 -1        30 2.14000E-03-6.66894E-04-2.29534E-15
 -1        31 2.35112E-03-6.24025E-04-2.93792E-15
 -1        32 2.55812E-03-5.51433E-04-3.65611E-15
 -1        33 2.76488E-03-4.47879E-04-4.44744E-15
 -1        34 2.97571E-03-3.14232E-04-5.30551E-15
 -1        35 3.19444E-03-1.53522E-04-6.23294E-15
 -1        36 3.42376E-03 2.95727E-05-7.22382E-15
 -1        37 3.66484E-03 2.29584E-04-8.27858E-15
 -1        38 3.91740E-03 4.41147E-04-9.39709E-15
 -1        39 4.18009E-03 6.59667E-04-1.05733E-14
 -1        40 4.45100E-03 8.81650E-04-1.18082E-14
 -1        41 4.72807E-03 1.10474E-03-1.31002E-14
 -1        42 5.00943E-03 1.32754E-03-1.44452E-14
 -1        43 5.29354E-03 1.54937E-03-1.58489E-14
 -1        44 5.57925E-03 1.77004E-03-1.73133E-14
 -1        45 5.86577E-03 1.98962E-03-1.88388E-14
 -1        46 6.15259E-03 2.20829E-03-2.04211E-14
 -1        47 6.43942E-03 2.42629E-03-2.20552E-14
 -1        48 6.72611E-03 2.64382E-03-2.37348E-14
 -1        49 7.01261E-03 2.86105E-03-2.54726E-14
 -1        50 7.29891E-03 3.07812E-03-2.72786E-14
 -1        51 7.58502E-03 3.29511E-03-2.91520E-14
 -1        52 7.87100E-03 3.51209E-03-3.10871E-14
 -1        53 8.15686E-03 3.72909E-03-3.30619E-14
 -1        54 8.44265E-03 3.94614E-03-3.50783E-14
 -1        55 8.72838E-03 4.16323E-03-3.71278E-14
 -1        56 9.01407E-03 4.38036E-03-3.91890E-14
 -1        57 9.29975E-03 4.59755E-03-4.12682E-14
 -1        58 9.58542E-03 4.81477E-03-4.33699E-14
 -1        59 9.87109E-03 5.03202E-03-4.54970E-14
 -1        60 1.01568E-02 5.24929E-03-4.76440E-14
 -1        61 1.04424E-02 5.46659E-03-4.98210E-14
 -1        62 1.07281E-02 5.68390E-03-5.20256E-14
 -1        63 1.10138E-02 5.90123E-03-5.42589E-14
 -1        64 1.12995E-02 6.11856E-03-5.64984E-14
 -1        65 1.15852E-02 6.33590E-03-5.87465E-14
 -1        66 1.18709E-02 6.55324E-03-6.10114E-14
 -1        67 1.21566E-02 6.77059E-03-6.33004E-14
 -1        68 1.24423E-02 6.98793E-03-6.56015E-14
 -1        69 1.27280E-02 7.20527E-03-6.79112E-14
 -1        70 1.30137E-02 7.42262E-03-7.02189E-14
 -1        71 1.32994E-02 7.63996E-03-7.25477E-14
 -1        72 4.13977E-04 2.36538E-04 4.84096E-17
 -1        73 7.45658E-04 3.61486E-04 5.70324E-17
 -1        74 1.07589E-03 4.51398E-04 1.97935E-17
 -1        75 1.43098E-03 5.29163E-04-6.74713E-17
 -1        76 1.83250E-03 6.20775E-04-2.05483E-16
 -1        77 2.30305E-03 7.66289E-04-3.97909E-16
 -1        78 2.82544E-03 1.01200E-03-6.31717E-16
 -1        79 3.33637E-03 1.37319E-03-8.88538E-16
 -1        80 3.79791E-03 1.84492E-03-1.17169E-15
 -1        81 4.12504E-03 2.30102E-03-1.46325E-15
 -1        82 4.34679E-03 2.66702E-03-1.80867E-15
 -1        83 4.49049E-03 2.80001E-03-2.17903E-15
 -1        84 4.70550E-03 2.64938E-03-2.70398E-15
 -1        85 5.07968E-03 2.29293E-03-3.33297E-15
 -1        86 5.63749E-03 1.94702E-03-4.11309E-15
 -1        87 6.24719E-03 1.78712E-03-5.00044E-15
 -1        88 6.79205E-03 1.80867E-03-5.94545E-15
 -1        89 7.25675E-03 1.93935E-03-6.95364E-15
 -1        90 7.65734E-03 2.12501E-03-8.02873E-15
 -1        91 7.99708E-03 2.32449E-03-9.11439E-15
 -1        92 8.32718E-03 2.54431E-03-1.03264E-14
 -1        93 8.63972E-03 2.76741E-03-1.15960E-14
 -1        94 8.94161E-03 2.99088E-03-1.29094E-14
 -1        95 9.23708E-03 3.21364E-03-1.42611E-14
 -1        96 9.52866E-03 3.43542E-03-1.56661E-14
 -1        97 9.81790E-03 3.65626E-03-1.71248E-14
 -1        98 1.01057E-02 3.87632E-03-1.86359E-14
 -1        99 1.03783E-02 4.08478E-03-2.01187E-14
 -1       100 1.06648E-02 4.30374E-03-2.17421E-14
 -1       101 1.09509E-02 4.52232E-03-2.34338E-14
 -1       102 1.12368E-02 4.74060E-03-2.51810E-14
 -1       103 1.15225E-02 4.95866E-03-2.69976E-14
 -1       104 1.18082E-02 5.17655E-03-2.88710E-14
 -1       105 1.20939E-02 5.39431E-03-3.08035E-14
 -1       106 1.23795E-02 5.61197E-03-3.27870E-14
 -1       107 1.26509E-02 5.81868E-03-3.47197E-14
 -1       108 1.29365E-02 6.03620E-03-3.68236E-14
 -1       109 1.32222E-02 6.25367E-03-3.89849E-14
 -1       110 1.35078E-02 6.47111E-03-4.11973E-14
 -1       111 1.37935E-02 6.68852E-03-4.34304E-14
 -1       112 1.40792E-02 6.90592E-03-4.56976E-14
 -1       113 1.43648E-02 7.12329E-03-4.79899E-14
 -1       114 1.46505E-02 7.34066E-03-5.02853E-14
 -1       115 1.49219E-02 7.54715E-03-5.24645E-14
 -1       116 1.52076E-02 7.76450E-03-5.47585E-14
 -1       117 1.54933E-02 7.98185E-03-5.70499E-14
 -1       118 1.57790E-02 8.19920E-03-5.93263E-14
 -1       119 1.60647E-02 8.41655E-03-6.15791E-14
 -1       120 1.63504E-02 8.63390E-03-6.37987E-14
 -1       121 1.66362E-02 8.85125E-03-6.60061E-14
 -1       122 1.69219E-02 9.06860E-03-6.81981E-14
 -1       123 1.69796E-02 9.19080E-03-7.05158E-14
 -1       124 1.67658E-02 9.10651E-03-7.07786E-14
 -1       125 1.65521E-02 9.02222E-03-7.10580E-14
 -1       126 1.63384E-02 8.93794E-03-7.13543E-14
 -1       127 1.61246E-02 8.85365E-03-7.16743E-14
 -1       128 1.59145E-02 8.77078E-03-7.19423E-14
 -1       129 1.57008E-02 8.68649E-03-7.21906E-14
 -1       130 1.54871E-02 8.60219E-03-7.24579E-14
 -1       131 1.52733E-02 8.51789E-03-7.27147E-14
 -1       132 1.50596E-02 8.43360E-03-7.29648E-14
 -1       133 1.48459E-02 8.34931E-03-7.32169E-14
 -1       134 1.46358E-02 8.26644E-03-7.34841E-14
 -1       135 1.44221E-02 8.18215E-03-7.37218E-14
 -1       136 1.42084E-02 8.09786E-03-7.39578E-14
 -1       137 1.39947E-02 8.01357E-03-7.42253E-14
 -1       138 1.37810E-02 7.92929E-03-7.45054E-14
 -1       139 6.63008E-03 1.39914E-03-4.51374E-15
 -1       140 6.56660E-03 1.61520E-03-4.28365E-15
 -1       141 6.39803E-03 1.82484E-03-4.01112E-15
 -1       142 6.12177E-03 2.04204E-03-3.69724E-15
 -1       143 5.66037E-03 2.29283E-03-3.30674E-15
 -1       144 5.10511E-03 2.48142E-03-2.94357E-15
 -1       145 4.53033E-03 2.55287E-03-2.63105E-15
 -1       146 3.86479E-03 2.48494E-03-2.31983E-15
 -1       147 3.19435E-03 2.25534E-03-2.04363E-15
 -1       148 2.63179E-03 1.95570E-03-1.83773E-15
 -1       149 2.11575E-03 1.59922E-03-1.66876E-15
 -1       150 1.77642E-03 1.30729E-03-1.57583E-15
 -1       151 1.53486E-03 1.03739E-03-1.53347E-15
 -1       152 1.41848E-03 8.19143E-04-1.54545E-15
 -1       153 1.40103E-03 6.18534E-04-1.61034E-15
 -1       154 1.47957E-03 4.58844E-04-1.71562E-15
 -1       155 1.65471E-03 3.18453E-04-1.87065E-15
 -1       156 1.91254E-03 2.07122E-04-2.06506E-15
 -1       157 2.26187E-03 1.22856E-04-2.31063E-15
 -1       158 2.71336E-03 7.08561E-05-2.62069E-15
 -1       159 3.18805E-03 6.24448E-05-2.93901E-15
 -1       160 4.23618E-03 1.65282E-04-3.62522E-15
 -1       161 4.79842E-03 2.84031E-04-3.97340E-15
 -1       162 5.28975E-03 4.26567E-04-4.25649E-15
 -1       163 5.76365E-03 6.08868E-04-4.49925E-15
 -1       164 6.12201E-03 7.91750E-04-4.64123E-15
 -1       165 6.40238E-03 9.92006E-04-4.69895E-15
 -1       166 2.40121E-04-1.32792E-04-2.38355E-17
 -1       167 2.26689E-04-1.01606E-04-3.15333E-17
 -1       168 2.23396E-04-7.76259E-05-3.45488E-17
 -1       169 2.22783E-04-5.57717E-05-3.52061E-17
 -1       170 2.22361E-04-3.48250E-05-3.44742E-17
 -1       171 2.20827E-04-1.39069E-05-3.31495E-17
 -1       172 2.17481E-04 5.90674E-06-3.15977E-17
 -1       173 2.12277E-04 2.33095E-05-3.02763E-17
 -1       174 2.06013E-04 3.68430E-05-2.86433E-17
 -1       175 2.00422E-04 4.55878E-05-2.64444E-17
 -1       176 1.97938E-04 4.99582E-05-2.35611E-17
 -1       177 2.00886E-04 5.25501E-05-1.93090E-17
 -1       178 2.10903E-04 5.77957E-05-1.31764E-17
 -1       179 2.28320E-04 7.18216E-05-4.06576E-18
 -1       180 2.55469E-04 1.02627E-04 9.47999E-18
 -1       181 4.67109E-04-2.76365E-04-6.38561E-17
 -1       182 7.61588E-04-4.03133E-04-2.00611E-16
 -1       183 1.03829E-03-4.93240E-04-4.15622E-16
 -1       184 1.30383E-03-5.57033E-04-7.08082E-16
 -1       185 1.56061E-03-5.99081E-04-1.07676E-15
 -1       186 1.80967E-03-6.20215E-04-1.52196E-15
 -1       187 2.05170E-03-6.18711E-04-2.04383E-15
 -1       188 2.28772E-03-5.91413E-04-2.64053E-15
 -1       189 2.51950E-03-5.34957E-04-3.31257E-15
 -1       190 2.74953E-03-4.47012E-04-4.05778E-15
 -1       191 2.98076E-03-3.27256E-04-4.87337E-15
 -1       192 3.21608E-03-1.77784E-04-5.75601E-15
 -1       193 3.45779E-03-2.82235E-06-6.70752E-15
 -1       194 3.70724E-03 1.92083E-04-7.72131E-15
 -1       195 3.96477E-03 4.01083E-04-8.79947E-15
 -1       196 4.22985E-03 6.18897E-04-9.93880E-15
 -1       197 4.50140E-03 8.41338E-04-1.11362E-14
 -1       198 4.77807E-03 1.06547E-03-1.23932E-14
 -1       199 5.05853E-03 1.28948E-03-1.37072E-14
 -1       200 5.34162E-03 1.51246E-03-1.50757E-14
 -1       201 5.62638E-03 1.73407E-03-1.65049E-14
 -1       202 5.91213E-03 1.95436E-03-1.79926E-14
 -1       203 6.19838E-03 2.17353E-03-1.95396E-14
 -1       204 6.48483E-03 2.39184E-03-2.11418E-14
 -1       205 6.77128E-03 2.60955E-03-2.27933E-14
 -1       206 7.05765E-03 2.82687E-03-2.44980E-14
 -1       207 7.34390E-03 3.04396E-03-2.62583E-14
 -1       208 7.63003E-03 3.26094E-03-2.80856E-14
 -1       209 7.91603E-03 3.47789E-03-2.99708E-14
 -1       210 8.20194E-03 3.69485E-03-3.19098E-14
 -1       211 8.48777E-03 3.91186E-03-3.38923E-14
 -1       212 8.77355E-03 4.12891E-03-3.59089E-14
 -1       213 9.05929E-03 4.34602E-03-3.79502E-14
 -1       214 9.34501E-03 4.56317E-03-4.00125E-14
 -1       215 9.63071E-03 4.78037E-03-4.21022E-14
 -1       216 9.91639E-03 4.99761E-03-4.42192E-14
 -1       217 1.02021E-02 5.21487E-03-4.63586E-14
 -1       218 1.04878E-02 5.43216E-03-4.85184E-14
 -1       219 1.07735E-02 5.64947E-03-5.07023E-14
 -1       220 1.10591E-02 5.86679E-03-5.29146E-14
 -1       221 1.13448E-02 6.08412E-03-5.51475E-14
 -1       222 1.16305E-02 6.30145E-03-5.73883E-14
 -1       223 1.19162E-02 6.51880E-03-5.96464E-14
 -1       224 1.22019E-02 6.73614E-03-6.19265E-14
 -1       225 1.24877E-02 6.95348E-03-6.42256E-14
 -1       226 1.27734E-02 7.17083E-03-6.65332E-14
 -1       227 1.30591E-02 7.38817E-03-6.88380E-14
 -1       228 1.33448E-02 7.60552E-03-7.11534E-14
 -1       229 4.90406E-04 2.21830E-04 2.06710E-17
 -1       230 8.24764E-04 3.24620E-04-1.41522E-17
 -1       231 1.15869E-03 4.01280E-04-9.50947E-17
 -1       232 1.50653E-03 4.73756E-04-2.25243E-16
 -1       233 1.88017E-03 5.72536E-04-4.07131E-16
 -1       234 2.26929E-03 7.37023E-04-6.30342E-16
 -1       235 2.65279E-03 9.96968E-04-8.74653E-16
 -1       236 3.04702E-03 1.38300E-03-1.14808E-15
 -1       237 4.00958E-03 2.44744E-03-1.75986E-15
 -1       238 4.31048E-03 2.71215E-03-2.11385E-15
 -1       239 4.67440E-03 2.69712E-03-2.61186E-15
 -1       240 5.09241E-03 2.36878E-03-3.21260E-15
 -1       241 5.59442E-03 1.95888E-03-3.96455E-15
 -1       242 6.12267E-03 1.72591E-03-4.83011E-15
 -1       243 6.61045E-03 1.70383E-03-5.75645E-15
 -1       244 7.04561E-03 1.81516E-03-6.74661E-15
 -1       245 7.43405E-03 1.99447E-03-7.79982E-15
 -1       246 7.77037E-03 2.19319E-03-8.86530E-15
 -1       247 8.10050E-03 2.41416E-03-1.00525E-14
 -1       248 8.41438E-03 2.63889E-03-1.13037E-14
 -1       249 8.71782E-03 2.86383E-03-1.26048E-14
 -1       250 9.01466E-03 3.08777E-03-1.39505E-14
 -1       251 9.30734E-03 3.31044E-03-1.53488E-14
 -1       252 9.59741E-03 3.53193E-03-1.67953E-14
 -1       253 9.88584E-03 3.75244E-03-1.82918E-14
 -1       254 1.01589E-02 3.96123E-03-1.97616E-14
 -1       255 1.04457E-02 4.18043E-03-2.13664E-14
 -1       256 1.07320E-02 4.39918E-03-2.30380E-14
 -1       257 1.10181E-02 4.61759E-03-2.47712E-14
 -1       258 1.13040E-02 4.83574E-03-2.65561E-14
 -1       259 1.15898E-02 5.05370E-03-2.84045E-14
 -1       260 1.18755E-02 5.27151E-03-3.03130E-14
 -1       261 1.21612E-02 5.48920E-03-3.22772E-14
 -1       262 1.24326E-02 5.69593E-03-3.41926E-14
 -1       263 1.27183E-02 5.91347E-03-3.62693E-14
 -1       264 1.30039E-02 6.13096E-03-3.84022E-14
 -1       265 1.32896E-02 6.34841E-03-4.05848E-14
 -1       266 1.35753E-02 6.56583E-03-4.27990E-14
 -1       267 1.38610E-02 6.78323E-03-4.50460E-14
 -1       268 1.41466E-02 7.00061E-03-4.73199E-14
 -1       269 1.44323E-02 7.21798E-03-4.96067E-14
 -1       270 1.47037E-02 7.42447E-03-5.17788E-14
 -1       271 1.49894E-02 7.64182E-03-5.40740E-14
 -1       272 1.52751E-02 7.85917E-03-5.63637E-14
 -1       273 1.55608E-02 8.07652E-03-5.86405E-14
 -1       274 1.58465E-02 8.29387E-03-6.09009E-14
 -1       275 1.61323E-02 8.51122E-03-6.31421E-14
 -1       276 1.64180E-02 8.72857E-03-6.53562E-14
 -1       277 1.67037E-02 8.94592E-03-6.75614E-14
 -1       278 1.68416E-02 9.06836E-03-6.90414E-14
 -1       279 1.66279E-02 8.98407E-03-6.92910E-14
 -1       280 1.64142E-02 8.89978E-03-6.95598E-14
 -1       281 1.62004E-02 8.81550E-03-6.98413E-14
 -1       282 1.59867E-02 8.73121E-03-7.01298E-14
 -1       283 1.57766E-02 8.64834E-03-7.03998E-14
 -1       284 1.55629E-02 8.56405E-03-7.06561E-14
 -1       285 1.53491E-02 8.47976E-03-7.09122E-14
 -1       286 1.51354E-02 8.39546E-03-7.11654E-14
 -1       287 1.49217E-02 8.31117E-03-7.14073E-14
 -1       288 1.47080E-02 8.22687E-03-7.16508E-14
 -1       289 1.44979E-02 8.14401E-03-7.18950E-14
 -1       290 1.42841E-02 8.05972E-03-7.21438E-14
 -1       291 1.40704E-02 7.97543E-03-7.23974E-14
 -1       292 1.38567E-02 7.89114E-03-7.26551E-14
 -1       293 6.65155E-03 1.32198E-03-4.99136E-15
 -1       294 6.61811E-03 1.42694E-03-4.77819E-15
 -1       295 6.43167E-03 1.58381E-03-4.40298E-15
 -1       296 6.13013E-03 1.78205E-03-4.04451E-15
 -1       297 5.67124E-03 2.04674E-03-3.64106E-15
 -1       298 5.16709E-03 2.38848E-03-3.15597E-15
 -1       299 4.72267E-03 2.60907E-03-2.74043E-15
 -1       300 4.26502E-03 2.64818E-03-2.36862E-15
 -1       301 3.77717E-03 2.42498E-03-2.01566E-15
 -1       302 3.20766E-03 2.02192E-03-1.77444E-15
 -1       303 2.66314E-03 1.55332E-03-1.54978E-15
 -1       304 2.10621E-03 1.21431E-03-1.45629E-15
 -1       305 1.71941E-03 9.43422E-04-1.37596E-15
 -1       306 1.46174E-03 8.04034E-04-1.39848E-15
 -1       307 1.36425E-03 6.81062E-04-1.42247E-15
 -1       308 1.41675E-03 5.90284E-04-1.53053E-15
 -1       309 1.59171E-03 4.96467E-04-1.65700E-15
 -1       310 1.86629E-03 3.77957E-04-1.85181E-15
 -1       311 2.21369E-03 2.47789E-04-2.09094E-15
 -1       312 2.63123E-03 1.15498E-04-2.38880E-15
 -1       313 3.04029E-03 1.90730E-05-2.75392E-15
 -1       314 3.44891E-03-1.46084E-05-3.14053E-15
 -1       315 3.87651E-03 5.36759E-05-3.54373E-15
 -1       316 4.33389E-03 2.06971E-04-3.97620E-15
 -1       317 4.83390E-03 4.26275E-04-4.35446E-15
 -1       318 5.32342E-03 6.85311E-04-4.72324E-15
 -1       319 5.82517E-03 8.95679E-04-4.92164E-15
 -1       320 6.22699E-03 1.07314E-03-5.04557E-15
 -1       321 6.51377E-03 1.20857E-03-5.05326E-15
 -1       322 3.51708E-03 1.89178E-03-1.41870E-15
 -1       323 1.36404E-02 7.78322E-03-7.23499E-14
 -1       324 4.61861E-04-1.76424E-04-1.19150E-16
 -1       325 4.75073E-04-2.27208E-04-1.08654E-16
 -1       326 4.57530E-04-9.04655E-05-1.22332E-16
 -1       327 4.55787E-04-4.95612E-05-1.19337E-16
 -1       328 4.50527E-04-9.86188E-06-1.15220E-16
 -1       329 4.40594E-04 2.70173E-05-1.10755E-16
 -1       330 4.26529E-04 5.86208E-05-1.05469E-16
 -1       331 4.11114E-04 8.25754E-05-9.91401E-17
 -1       332 3.99584E-04 9.78274E-05-9.11712E-17
 -1       333 3.97859E-04 1.07085E-04-8.09221E-17
 -1       334 4.11760E-04 1.16119E-04-6.71528E-17
 -1       335 4.43811E-04 1.34254E-04-4.82504E-17
 -1       336 4.93017E-04 1.72569E-04-2.26463E-17
 -1       337 6.51724E-03 1.46512E-03-4.87854E-15
 -1       338 3.00750E-03 1.58477E-03-1.42365E-15
 -1       339 8.61367E-04-3.82489E-04-3.28960E-16
 -1       340 1.14408E-03-4.58410E-04-5.85225E-16
 -1       341 1.41985E-03-5.12111E-04-9.15859E-16
 -1       342 1.68913E-03-5.45536E-04-1.32031E-15
 -1       343 1.95218E-03-5.57817E-04-1.79971E-15
 -1       344 2.20947E-03-5.46034E-04-2.35288E-15
 -1       345 2.46197E-03-5.06310E-04-2.97934E-15
 -1       346 2.71141E-03-4.35192E-04-3.67928E-15
 -1       347 2.96017E-03-3.30969E-04-4.45067E-15
 -1       348 3.21080E-03-1.94534E-04-5.29105E-15
 -1       349 3.46549E-03-2.94310E-05-6.19955E-15
 -1       350 3.72565E-03 1.58853E-04-7.17398E-15
 -1       351 3.99173E-03 3.64037E-04-8.21168E-15
 -1       352 4.26336E-03 5.80154E-04-9.31352E-15
 -1       353 4.53967E-03 8.02299E-04-1.04732E-14
 -1       354 4.81961E-03 1.02692E-03-1.16942E-14
 -1       355 5.10216E-03 1.25178E-03-1.29755E-14
 -1       356 5.38645E-03 1.47566E-03-1.43106E-14
 -1       357 5.67181E-03 1.69809E-03-1.57045E-14
 -1       358 5.95779E-03 1.91903E-03-1.71570E-14
 -1       359 6.24406E-03 2.13868E-03-1.86666E-14
 -1       360 6.53042E-03 2.35731E-03-2.02344E-14
 -1       361 6.81676E-03 2.57522E-03-2.18561E-14
 -1       362 7.10303E-03 2.79265E-03-2.35278E-14
 -1       363 7.38920E-03 3.00978E-03-2.52530E-14
 -1       364 7.67527E-03 3.22677E-03-2.70359E-14
 -1       365 7.96124E-03 3.44369E-03-2.88799E-14
 -1       366 8.24714E-03 3.66062E-03-3.07767E-14
 -1       367 8.53298E-03 3.87759E-03-3.27213E-14
 -1       368 8.81878E-03 4.09461E-03-3.47084E-14
 -1       369 9.10453E-03 4.31168E-03-3.67270E-14
 -1       370 9.39027E-03 4.52881E-03-3.87702E-14
 -1       371 9.67598E-03 4.74599E-03-4.08405E-14
 -1       372 9.96169E-03 4.96320E-03-4.29413E-14
 -1       373 1.02474E-02 5.18046E-03-4.50695E-14
 -1       374 1.05331E-02 5.39774E-03-4.72196E-14
 -1       375 1.08188E-02 5.61503E-03-4.93875E-14
 -1       376 1.11045E-02 5.83235E-03-5.15821E-14
 -1       377 1.13902E-02 6.04968E-03-5.38021E-14
 -1       378 1.16759E-02 6.26701E-03-5.60384E-14
 -1       379 1.19616E-02 6.48435E-03-5.82901E-14
 -1       380 1.22473E-02 6.70169E-03-6.05590E-14
 -1       381 1.25330E-02 6.91904E-03-6.28497E-14
 -1       382 1.28187E-02 7.13639E-03-6.51515E-14
 -1       383 1.31044E-02 7.35373E-03-6.74538E-14
 -1       384 1.33901E-02 7.57107E-03-6.97613E-14
 -1       385 1.19363E-03 3.63729E-04-2.28862E-16
 -1       386 8.91854E-04 2.93573E-04-1.05110E-16
 -1       387 1.49305E-03 4.40127E-04-4.02791E-16
 -1       388 1.77966E-03 5.47868E-04-6.16291E-16
 -1       389 2.04781E-03 7.10995E-04-8.48944E-16
 -1       390 6.06305E-03 1.68123E-03-4.57841E-15
 -1       391 6.47524E-03 1.59030E-03-5.47746E-15
 -1       392 6.84302E-03 1.66298E-03-6.44046E-15
 -1       393 7.18504E-03 1.82390E-03-7.46578E-15
 -1       394 7.49475E-03 2.01561E-03-8.50051E-15
 -1       395 7.80934E-03 2.23468E-03-9.65672E-15
 -1       396 8.11528E-03 2.45984E-03-1.08773E-14
 -1       397 8.41496E-03 2.68599E-03-1.21577E-14
 -1       398 8.71019E-03 2.91121E-03-1.34883E-14
 -1       399 9.00233E-03 3.13498E-03-1.48696E-14
 -1       400 9.29235E-03 3.35735E-03-1.63029E-14
 -1       401 9.58094E-03 3.57853E-03-1.77836E-14
 -1       402 9.85418E-03 3.78779E-03-1.92341E-14
 -1       403 1.01412E-02 4.00736E-03-2.08152E-14
 -1       404 1.04277E-02 4.22638E-03-2.24584E-14
 -1       405 1.07140E-02 4.44499E-03-2.41631E-14
 -1       406 1.10000E-02 4.66329E-03-2.59199E-14
 -1       407 1.12859E-02 4.88136E-03-2.77330E-14
 -1       408 1.15717E-02 5.09925E-03-2.96057E-14
 -1       409 1.18575E-02 5.31700E-03-3.15385E-14
 -1       410 1.21289E-02 5.52377E-03-3.34292E-14
 -1       411 1.24146E-02 5.74135E-03-3.54740E-14
 -1       412 1.27003E-02 5.95887E-03-3.75760E-14
 -1       413 1.29860E-02 6.17633E-03-3.97181E-14
 -1       414 1.32717E-02 6.39377E-03-4.19002E-14
 -1       415 1.35574E-02 6.61117E-03-4.41187E-14
 -1       416 1.38431E-02 6.82856E-03-4.63687E-14
 -1       417 1.41288E-02 7.04593E-03-4.86374E-14
 -1       418 1.44002E-02 7.25243E-03-5.07994E-14
 -1       419 1.46859E-02 7.46978E-03-5.30885E-14
 -1       420 1.49716E-02 7.68714E-03-5.53792E-14
 -1       421 1.52573E-02 7.90448E-03-5.76636E-14
 -1       422 1.55430E-02 8.12183E-03-5.99306E-14
 -1       423 1.58287E-02 8.33918E-03-6.21843E-14
 -1       424 1.61144E-02 8.55653E-03-6.44206E-14
 -1       425 1.64001E-02 8.77387E-03-6.66373E-14
 -1       426 1.65140E-02 8.87897E-03-6.79633E-14
 -1       427 1.60599E-02 8.66941E-03-6.77695E-14
 -1       428 1.62869E-02 8.77419E-03-6.78644E-14
 -1       429 1.58461E-02 8.58512E-03-6.80353E-14
 -1       430 1.56360E-02 8.50226E-03-6.82968E-14
 -1       431 1.54223E-02 8.41797E-03-6.85556E-14
 -1       432 1.52086E-02 8.33368E-03-6.88036E-14
 -1       433 1.49948E-02 8.24939E-03-6.90483E-14
 -1       434 1.47811E-02 8.16509E-03-6.92861E-14
 -1       435 1.45674E-02 8.08080E-03-6.95210E-14
 -1       436 1.43573E-02 7.99794E-03-6.97561E-14
 -1       437 1.41436E-02 7.91365E-03-7.00032E-14
 -1       438 1.39299E-02 7.82936E-03-7.02559E-14
 -1       439 1.37161E-02 7.74507E-03-7.05117E-14
 -1       440 6.28114E-03 1.58845E-03-4.50152E-15
 -1       441 6.60892E-03 1.32600E-03-5.45335E-15
 -1       442 4.58206E-04-1.32083E-04-1.22871E-16
 -1       443 5.90021E-03 1.80747E-03-4.07025E-15
 -1       444 2.45694E-03 1.18258E-03-1.29548E-15
 -1       445 2.01901E-03 9.28042E-04-1.22967E-15
 -1       446 1.56958E-03 7.37587E-04-1.22342E-15
 -1       447 1.39490E-03 6.63890E-04-1.24614E-15
 -1       448 1.36007E-03 6.08513E-04-1.32797E-15
 -1       449 1.46757E-03 5.65755E-04-1.43819E-15
 -1       450 1.74524E-03 4.73577E-04-1.60455E-15
 -1       451 2.07446E-03 3.53091E-04-1.83287E-15
 -1       452 2.44044E-03 2.06463E-04-2.11004E-15
 -1       453 2.89056E-03 3.06318E-05-2.52263E-15
 -1       454 3.18622E-03-4.20177E-05-2.88322E-15
 -1       455 3.62762E-03-2.26188E-05-3.45480E-15
 -1       456 3.96802E-03 9.32041E-05-3.88054E-15
 -1       457 4.45964E-03 3.54987E-04-4.43554E-15
 -1       458 4.91776E-03 6.24817E-04-4.85929E-15
 -1       459 5.50848E-03 9.35958E-04-5.25851E-15
 -1       460 5.98386E-03 1.11856E-03-5.39959E-15
 -1       461 6.37496E-03 1.26295E-03-5.53545E-15
 -1       462 6.67833E-03 1.38126E-03-5.32943E-15
 -1       463 5.58542E-03 1.99109E-03-3.80414E-15
 -1       464 3.56943E-03 2.17276E-03-1.74655E-15
 -1       465 2.39330E-03 9.87071E-04-1.08648E-15
 -1       466 6.98526E-04-4.60599E-05-2.52196E-16
 -1       467 7.03108E-04-1.04579E-04-2.58968E-16
 -1       468 6.66111E-04 6.31925E-05-2.33039E-16
 -1       469 6.39174E-04 1.07339E-04-2.21076E-16
 -1       470 6.12683E-04 1.39401E-04-2.06947E-16
 -1       471 5.96225E-04 1.60002E-04-1.89366E-16
 -1       472 6.02235E-04 1.73212E-04-1.66957E-16
 -1       473 6.39129E-04 1.89470E-04-1.38307E-16
 -1       474 7.49751E-04 2.31520E-04-1.28092E-16
 -1       475 1.94356E-03 7.79620E-04-1.06733E-15
 -1       476 9.86975E-04-3.54936E-04-4.66454E-16
 -1       477 7.22137E-04-2.70374E-04-2.64095E-16
 -1       478 1.27557E-03-4.16664E-04-7.60185E-16
 -1       479 1.56118E-03-4.60240E-04-1.12592E-15
 -1       480 1.84254E-03-4.85131E-04-1.56437E-15
 -1       481 2.11885E-03-4.88642E-04-2.07496E-15
 -1       482 2.38995E-03-4.66402E-04-2.65712E-15
 -1       483 2.65668E-03-4.13614E-04-3.31251E-15
 -1       484 2.92094E-03-3.26743E-04-4.03885E-15
 -1       485 3.18535E-03-2.04998E-04-4.83612E-15
 -1       486 3.45244E-03-5.09560E-05-5.70317E-15
 -1       487 3.72395E-03 1.29966E-04-6.63673E-15
 -1       488 4.00039E-03 3.30874E-04-7.63513E-15
 -1       489 4.28125E-03 5.44905E-04-8.69757E-15
 -1       490 4.56544E-03 7.66309E-04-9.82088E-15
 -1       491 4.85173E-03 9.90907E-04-1.10033E-14
 -1       492 5.13911E-03 1.21605E-03-1.22491E-14
 -1       493 5.42684E-03 1.44031E-03-1.35521E-14
 -1       494 5.71452E-03 1.66309E-03-1.49129E-14
 -1       495 6.00193E-03 1.88433E-03-1.63306E-14
 -1       496 6.28901E-03 2.10419E-03-1.78043E-14
 -1       497 6.57578E-03 2.32298E-03-1.93369E-14
 -1       498 6.86229E-03 2.54098E-03-2.09242E-14
 -1       499 7.14858E-03 2.75845E-03-2.25641E-14
 -1       500 7.43471E-03 2.97560E-03-2.42584E-14
 -1       501 7.72072E-03 3.19257E-03-2.60056E-14
 -1       502 8.00664E-03 3.40948E-03-2.78085E-14
 -1       503 8.29249E-03 3.62638E-03-2.96643E-14
 -1       504 8.57830E-03 3.84331E-03-3.15729E-14
 -1       505 8.86407E-03 4.06030E-03-3.35259E-14
 -1       506 9.14982E-03 4.27735E-03-3.55179E-14
 -1       507 9.43555E-03 4.49445E-03-3.75400E-14
 -1       508 9.72127E-03 4.71161E-03-3.95867E-14
 -1       509 1.00070E-02 4.92881E-03-4.16695E-14
 -1       510 1.02927E-02 5.14605E-03-4.37848E-14
 -1       511 1.05784E-02 5.36331E-03-4.59237E-14
 -1       512 1.08641E-02 5.58061E-03-4.80799E-14
 -1       513 1.11498E-02 5.79792E-03-5.02580E-14
 -1       514 1.14355E-02 6.01524E-03-5.24629E-14
 -1       515 1.17212E-02 6.23257E-03-5.46943E-14
 -1       516 1.20069E-02 6.44991E-03-5.69414E-14
 -1       517 1.22927E-02 6.66725E-03-5.92013E-14
 -1       518 1.25784E-02 6.88460E-03-6.14777E-14
 -1       519 1.28641E-02 7.10194E-03-6.37706E-14
 -1       520 1.31498E-02 7.31929E-03-6.60718E-14
 -1       521 1.34330E-02 7.53218E-03-6.82881E-14
 -1       522 1.19554E-03 3.57086E-04-3.77333E-16
 -1       523 1.67356E-03 5.66577E-04-8.04573E-16
 -1       524 1.87737E-03 4.02504E-04-1.55826E-15
 -1       525 6.64400E-03 1.42743E-03-5.43987E-15
 -1       526 6.44672E-03 1.51193E-03-5.18607E-15
 -1       527 7.26594E-03 1.85344E-03-8.20182E-15
 -1       528 7.54147E-03 2.06341E-03-9.32668E-15
 -1       529 7.82345E-03 2.28372E-03-1.05180E-14
 -1       530 8.10890E-03 2.50763E-03-1.17743E-14
 -1       531 8.39589E-03 2.73202E-03-1.30864E-14
 -1       532 8.68336E-03 2.95567E-03-1.44537E-14
 -1       533 8.97078E-03 3.17820E-03-1.58716E-14
 -1       534 9.25796E-03 3.39965E-03-1.73420E-14
 -1       535 9.53050E-03 3.60917E-03-1.87802E-14
 -1       536 9.81711E-03 3.82898E-03-2.03435E-14
 -1       537 1.01035E-02 4.04821E-03-2.19622E-14
 -1       538 1.03897E-02 4.26698E-03-2.36410E-14
 -1       539 1.06757E-02 4.48541E-03-2.53736E-14
 -1       540 1.09617E-02 4.70358E-03-2.71571E-14
 -1       541 1.12475E-02 4.92155E-03-2.90019E-14
 -1       542 1.15333E-02 5.13936E-03-3.09004E-14
 -1       543 1.18048E-02 5.34618E-03-3.27616E-14
 -1       544 1.20906E-02 5.56379E-03-3.47799E-14
 -1       545 1.23763E-02 5.78133E-03-3.68518E-14
 -1       546 1.26620E-02 5.99882E-03-3.89643E-14
 -1       547 1.29477E-02 6.21627E-03-4.11123E-14
 -1       548 1.32334E-02 6.43369E-03-4.32974E-14
 -1       549 1.35191E-02 6.65108E-03-4.55201E-14
 -1       550 1.38048E-02 6.86846E-03-4.77669E-14
 -1       551 1.40762E-02 7.07496E-03-4.99153E-14
 -1       552 1.43619E-02 7.29231E-03-5.21941E-14
 -1       553 1.46476E-02 7.50967E-03-5.44827E-14
 -1       554 1.49333E-02 7.72702E-03-5.67659E-14
 -1       555 1.52191E-02 7.94436E-03-5.90394E-14
 -1       556 1.55048E-02 8.16171E-03-6.13001E-14
 -1       557 1.57905E-02 8.37906E-03-6.35578E-14
 -1       558 1.61731E-02 8.66910E-03-6.65242E-14
 -1       559 1.54936E-02 8.35547E-03-6.62057E-14
 -1       560 1.52799E-02 8.27118E-03-6.64606E-14
 -1       561 1.57074E-02 8.43976E-03-6.59547E-14
 -1       562 1.50662E-02 8.18689E-03-6.67070E-14
 -1       563 1.48525E-02 8.10260E-03-6.69465E-14
 -1       564 1.46387E-02 8.01830E-03-6.71796E-14
 -1       565 1.44250E-02 7.93401E-03-6.74090E-14
 -1       566 1.42149E-02 7.85115E-03-6.76360E-14
 -1       567 1.40012E-02 7.76686E-03-6.78762E-14
 -1       568 1.37875E-02 7.68257E-03-6.81276E-14
 -1       569 1.36102E-02 7.60737E-03-6.82071E-14
 -1       570 6.48705E-03 1.47647E-03-5.04835E-15
 -1       571 6.16701E-03 1.28141E-03-5.94928E-15
 -1       572 2.58580E-03 1.13371E-04-2.15993E-15
 -1       573 7.00019E-03 1.66726E-03-7.14028E-15
 -1       574 6.74388E-03 1.53023E-03-6.14260E-15
 -1       575 9.77343E-04 2.94391E-04-2.35363E-16
 -1       576 1.41769E-03 4.39729E-04-5.81366E-16
 -1       577 6.86591E-04 1.07830E-05-2.43430E-16
 -1       578 1.32755E-03 5.72895E-04-1.11531E-15
 -1       579 1.45766E-03 5.98084E-04-1.03998E-15
 -1       580 1.37609E-03 5.52123E-04-1.22010E-15
 -1       581 4.59455E-03 5.37689E-04-5.03942E-15
 -1       582 1.56859E-03 5.05639E-04-1.36656E-15
 -1       583 2.21845E-03 2.72087E-04-1.82212E-15
 -1       584 2.99483E-03-3.59042E-05-2.66545E-15
 -1       585 3.38487E-03-6.68196E-05-3.24629E-15
 -1       586 3.75191E-03 2.55588E-05-3.79873E-15
 -1       587 4.13000E-03 2.28066E-04-4.38232E-15
 -1       588 5.15579E-03 8.60118E-04-5.48791E-15
 -1       589 5.76977E-03 1.14003E-03-5.79721E-15
 -1       590 6.70014E-03 1.41290E-03-5.98469E-15
 -1       591 6.53290E-03 1.36910E-03-5.96036E-15
 -1       592 7.03641E-04-1.63515E-04-2.62567E-16
 -1       593 6.75416E-03 1.45196E-03-6.10417E-15
 -1       594 1.59274E-02 8.52767E-03-6.57211E-14
 -1       595 5.45099E-03 1.05880E-03-6.02996E-15
 -1       596 8.46333E-04 1.70642E-04-3.72437E-16
 -1       597 8.91182E-04 1.14830E-04-3.94267E-16
 -1       598 7.88299E-04 2.31612E-04-3.15842E-16
 -1       599 8.13246E-04 2.45633E-04-2.77153E-16
 -1       600 8.81739E-04 2.65603E-04-2.59880E-16
 -1       601 7.54608E-03 2.11852E-03-1.01278E-14
 -1       602 8.97235E-04-2.64322E-04-4.03211E-16
 -1       603 7.81086E-03 2.33436E-03-1.13552E-14
 -1       604 1.42682E-03-3.67153E-04-9.40715E-16
 -1       605 1.72316E-03-4.01695E-04-1.33917E-15
 -1       606 2.01662E-03-4.19130E-04-1.80761E-15
 -1       607 2.30534E-03-4.14696E-04-2.34695E-15
 -1       608 2.58865E-03-3.82056E-04-2.95773E-15
 -1       609 2.86755E-03-3.15141E-04-3.63995E-15
 -1       610 3.14467E-03-2.10500E-04-4.39267E-15
 -1       611 3.42328E-03-6.90013E-05-5.21714E-15
 -1       612 3.70592E-03 1.04161E-04-6.11077E-15
 -1       613 3.99351E-03 3.01107E-04-7.06957E-15
 -1       614 4.28531E-03 5.13527E-04-8.09223E-15
 -1       615 4.57967E-03 7.34422E-04-9.17786E-15
 -1       616 4.87482E-03 9.58844E-04-1.03231E-14
 -1       617 5.16938E-03 1.18380E-03-1.15304E-14
 -1       618 5.46259E-03 1.40778E-03-1.28005E-14
 -1       619 5.75418E-03 1.63023E-03-1.41283E-14
 -1       620 6.04422E-03 1.85113E-03-1.55127E-14
 -1       621 6.33296E-03 2.07071E-03-1.69530E-14
 -1       622 6.62069E-03 2.28926E-03-1.84492E-14
 -1       623 6.90769E-03 2.50708E-03-2.00035E-14
 -1       624 7.19420E-03 2.72442E-03-2.16088E-14
 -1       625 7.48038E-03 2.94148E-03-2.32699E-14
 -1       626 7.76635E-03 3.15839E-03-2.49846E-14
 -1       627 8.05220E-03 3.37524E-03-2.67528E-14
 -1       628 8.33799E-03 3.59210E-03-2.85732E-14
 -1       629 8.62373E-03 3.80901E-03-3.04436E-14
 -1       630 8.90945E-03 4.02597E-03-3.23633E-14
 -1       631 9.19517E-03 4.24299E-03-3.43238E-14
 -1       632 9.48088E-03 4.46008E-03-3.63205E-14
 -1       633 9.76659E-03 4.67722E-03-3.83466E-14
 -1       634 1.00523E-02 4.89441E-03-4.04082E-14
 -1       635 1.03380E-02 5.11163E-03-4.25039E-14
 -1       636 1.06237E-02 5.32889E-03-4.46312E-14
 -1       637 1.09094E-02 5.54618E-03-4.67766E-14
 -1       638 1.11951E-02 5.76348E-03-4.89433E-14
 -1       639 1.14809E-02 5.98080E-03-5.11365E-14
 -1       640 1.17666E-02 6.19813E-03-5.33531E-14
 -1       641 1.20523E-02 6.41547E-03-5.55918E-14
 -1       642 1.23380E-02 6.63281E-03-5.78453E-14
 -1       643 1.26237E-02 6.85015E-03-6.01151E-14
 -1       644 1.29094E-02 7.06750E-03-6.23964E-14
 -1       645 1.31951E-02 7.28484E-03-6.46891E-14
 -1       646 1.34027E-02 7.44611E-03-6.64482E-14
 -1       647 1.61633E-03 4.22559E-04-1.25956E-15
 -1       648 2.69160E-03 5.70675E-06-2.28426E-15
 -1       649 7.29615E-03 1.91096E-03-8.96739E-15
 -1       650 8.08480E-03 2.55398E-03-1.26460E-14
 -1       651 8.36417E-03 2.77493E-03-1.39920E-14
 -1       652 8.64665E-03 2.99603E-03-1.53908E-14
 -1       653 8.93083E-03 3.21676E-03-1.68463E-14
 -1       654 9.20167E-03 3.42596E-03-1.82730E-14
 -1       655 9.48721E-03 3.64566E-03-1.98215E-14
 -1       656 9.77296E-03 3.86487E-03-2.14168E-14
 -1       657 1.00588E-02 4.08368E-03-2.30697E-14
 -1       658 1.03447E-02 4.30217E-03-2.47800E-14
 -1       659 1.06305E-02 4.52040E-03-2.65395E-14
 -1       660 1.09163E-02 4.73842E-03-2.83531E-14
 -1       661 1.12021E-02 4.95629E-03-3.02210E-14
 -1       662 1.14736E-02 5.16314E-03-3.20476E-14
 -1       663 1.17594E-02 5.38079E-03-3.40338E-14
 -1       664 1.20451E-02 5.59835E-03-3.60772E-14
 -1       665 1.23308E-02 5.81586E-03-3.81633E-14
 -1       666 1.26165E-02 6.03333E-03-4.02824E-14
 -1       667 1.29023E-02 6.25076E-03-4.24387E-14
 -1       668 1.31880E-02 6.46816E-03-4.46298E-14
 -1       669 1.34737E-02 6.68554E-03-4.68567E-14
 -1       670 1.37451E-02 6.89205E-03-4.89873E-14
 -1       671 1.40308E-02 7.10941E-03-5.12573E-14
 -1       672 1.43165E-02 7.32676E-03-5.35399E-14
 -1       673 1.46023E-02 7.54411E-03-5.58229E-14
 -1       674 1.48880E-02 7.76146E-03-5.80958E-14
 -1       675 1.51737E-02 7.97881E-03-6.03633E-14
 -1       676 1.54594E-02 8.19615E-03-6.26326E-14
 -1       677 1.55720E-02 8.29632E-03-6.38841E-14
 -1       678 1.51393E-02 8.12510E-03-6.43663E-14
 -1       679 1.53531E-02 8.20939E-03-6.41203E-14
 -1       680 1.49256E-02 8.04081E-03-6.46092E-14
 -1       681 1.44982E-02 7.87223E-03-6.50805E-14
 -1       682 1.42844E-02 7.78794E-03-6.53063E-14
 -1       683 1.40743E-02 7.70507E-03-6.55297E-14
 -1       684 1.38606E-02 7.62078E-03-6.57612E-14
 -1       685 1.36469E-02 7.53649E-03-6.60036E-14
 -1       686 5.98643E-03 1.29237E-03-6.41235E-15
 -1       687 6.87535E-03 1.55571E-03-6.83635E-15
 -1       688 1.18853E-03 3.78052E-04-5.31391E-16
 -1       689 1.61304E-03 6.21990E-04-9.87820E-16
 -1       690 1.39753E-03 4.88057E-04-7.83187E-16
 -1       691 2.30034E-03 1.65842E-04-1.82538E-15
 -1       692 2.01125E-03 2.90058E-04-1.56469E-15
 -1       693 7.06910E-03 1.71924E-03-7.87472E-15
 -1       694 1.47119E-02 7.95652E-03-6.48470E-14
 -1       695 8.05703E-04 2.09451E-04-3.46982E-16
 -1       696 1.28574E-03 5.09665E-04-1.00613E-15
 -1       697 3.86754E-03 1.11976E-04-4.23370E-15
 -1       698 9.58778E-04-1.00409E-04-4.42626E-16
 -1       699 1.41515E-03 4.80060E-04-1.12552E-15
 -1       700 6.40963E-03 1.42451E-03-6.62929E-15
 -1       701 4.88674E-03 7.70942E-04-5.73331E-15
 -1       702 3.14602E-03-8.97801E-05-2.99058E-15
 -1       703 3.53826E-03-3.42022E-05-3.65691E-15
 -1       704 1.31165E-03 4.95179E-04-8.67834E-16
 -1       705 4.26058E-03 3.72358E-04-4.99204E-15
 -1       706 1.16132E-03-3.20861E-04-6.44006E-16
 -1       707 6.65097E-03 1.47399E-03-6.66118E-15
 -1       708 9.27212E-04 4.72114E-05-4.13372E-16
 -1       709 6.60068E-03 1.47760E-03-5.55197E-15
 -1       710 9.59517E-04-1.74257E-04-4.51323E-16
 -1       711 4.54558E-03 5.85606E-04-5.67736E-15
 -1       712 2.85259E-03-8.34001E-05-2.57625E-15
 -1       713 6.78331E-03 1.51448E-03-6.79292E-15
 -1       714 5.17977E-03 9.64061E-04-6.28261E-15
 -1       715 1.04240E-03 3.19556E-04-3.82954E-16
 -1       716 9.49398E-04-2.58897E-05-4.29513E-16
 -1       717 9.69902E-04 3.08633E-04-4.63080E-16
 -1       718 6.58541E-03 1.52455E-03-7.22964E-15
 -1       719 7.51983E-03 2.17515E-03-1.09371E-14
 -1       720 1.49988E-02 7.97903E-03-6.22737E-14
 -1       721 1.59334E-03-3.09563E-04-1.12598E-15
 -1       722 1.90172E-03-3.37374E-04-1.55305E-15
 -1       723 2.20758E-03-3.49551E-04-2.04893E-15
 -1       724 2.50803E-03-3.38532E-04-2.61583E-15
 -1       725 2.80218E-03-2.95079E-04-3.25363E-15
 -1       726 3.09200E-03-2.11531E-04-3.96253E-15
 -1       727 3.38155E-03-8.53445E-05-4.74364E-15
 -1       728 3.67487E-03 7.92881E-05-5.59526E-15
 -1       729 3.97387E-03 2.73117E-04-6.51513E-15
 -1       730 4.27783E-03 4.85386E-04-7.49779E-15
 -1       731 4.58425E-03 7.06953E-04-8.54458E-15
 -1       732 4.89037E-03 9.31694E-04-9.65279E-15
 -1       733 5.19414E-03 1.15628E-03-1.08221E-14
 -1       734 5.49453E-03 1.37935E-03-1.20560E-14
 -1       735 5.79135E-03 1.60063E-03-1.33501E-14
 -1       736 6.08499E-03 1.82036E-03-1.47019E-14
 -1       737 6.37605E-03 2.03890E-03-1.61099E-14
 -1       738 6.66519E-03 2.25663E-03-1.75739E-14
 -1       739 6.95297E-03 2.47385E-03-1.90927E-14
 -1       740 7.23985E-03 2.69077E-03-2.06663E-14
 -1       741 7.52616E-03 2.90754E-03-2.22935E-14
 -1       742 7.81213E-03 3.12426E-03-2.39740E-14
 -1       743 8.09792E-03 3.34100E-03-2.57090E-14
 -1       744 8.38362E-03 3.55779E-03-2.74954E-14
 -1       745 8.66928E-03 3.77466E-03-2.93319E-14
 -1       746 8.95493E-03 3.99159E-03-3.12171E-14
 -1       747 9.24059E-03 4.20860E-03-3.31468E-14
 -1       748 9.52626E-03 4.42567E-03-3.51186E-14
 -1       749 9.81194E-03 4.64281E-03-3.71210E-14
 -1       750 1.00976E-02 4.85999E-03-3.91559E-14
 -1       751 1.03833E-02 5.07721E-03-4.12315E-14
 -1       752 1.06690E-02 5.29447E-03-4.33421E-14
 -1       753 1.09548E-02 5.51175E-03-4.54790E-14
 -1       754 1.12405E-02 5.72905E-03-4.76374E-14
 -1       755 1.15262E-02 5.94636E-03-4.98208E-14
 -1       756 1.18119E-02 6.16369E-03-5.20226E-14
 -1       757 1.20976E-02 6.38103E-03-5.42504E-14
 -1       758 1.23833E-02 6.59837E-03-5.64978E-14
 -1       759 1.26691E-02 6.81571E-03-5.87580E-14
 -1       760 1.29548E-02 7.03306E-03-6.10316E-14
 -1       761 1.32405E-02 7.25040E-03-6.33193E-14
 -1       762 7.27514E-03 1.97313E-03-9.73990E-15
 -1       763 1.69292E-03 3.08172E-04-1.21895E-15
 -1       764 8.32626E-03 2.81797E-03-1.49053E-14
 -1       765 8.60644E-03 3.03650E-03-1.63377E-14
 -1       766 8.87480E-03 3.24446E-03-1.77541E-14
 -1       767 9.15868E-03 3.46340E-03-1.92893E-14
 -1       768 9.44339E-03 3.68220E-03-2.08664E-14
 -1       769 9.72858E-03 3.90080E-03-2.24929E-14
 -1       770 1.00140E-02 4.11918E-03-2.41797E-14
 -1       771 1.02996E-02 4.33737E-03-2.59212E-14
 -1       772 1.05853E-02 4.55539E-03-2.77094E-14
 -1       773 1.08710E-02 4.77327E-03-2.95502E-14
 -1       774 1.11425E-02 4.98014E-03-3.13470E-14
 -1       775 1.14282E-02 5.19780E-03-3.32981E-14
 -1       776 1.17139E-02 5.41539E-03-3.53094E-14
 -1       777 1.19997E-02 5.63291E-03-3.73669E-14
 -1       778 1.22854E-02 5.85039E-03-3.94656E-14
 -1       779 1.25711E-02 6.06783E-03-4.15946E-14
 -1       780 1.28568E-02 6.28524E-03-4.37606E-14
 -1       781 1.31426E-02 6.50263E-03-4.59624E-14
 -1       782 1.34140E-02 6.70914E-03-4.80805E-14
 -1       783 1.36997E-02 6.92650E-03-5.03345E-14
 -1       784 1.39854E-02 7.14386E-03-5.26083E-14
 -1       785 1.42712E-02 7.36121E-03-5.48888E-14
 -1       786 1.45569E-02 7.57856E-03-5.71653E-14
 -1       787 1.48426E-02 7.79590E-03-5.94324E-14
 -1       788 1.52291E-02 8.08759E-03-6.24543E-14
 -1       789 1.47850E-02 7.89473E-03-6.25135E-14
 -1       790 1.39320E-02 7.55828E-03-6.34331E-14
 -1       791 1.41457E-02 7.64257E-03-6.32078E-14
 -1       792 1.35063E-02 7.39041E-03-6.38944E-14
 -1       793 2.33218E-03 3.06356E-05-1.85095E-15
 -1       794 3.65710E-03 2.75417E-05-4.08050E-15
 -1       795 1.22453E-03 4.25612E-04-8.44885E-16
 -1       796 7.77992E-03 2.38551E-03-1.22020E-14
 -1       797 3.30602E-03-9.01676E-05-3.42546E-15
 -1       798 1.37191E-02 7.47435E-03-6.36618E-14
 -1       799 8.04995E-03 2.60053E-03-1.35291E-14
 -1       800 6.23394E-03 1.43953E-03-7.18923E-15
 -1       801 1.99085E-03 1.78783E-04-1.47091E-15
 -1       802 1.38725E-03 3.95306E-04-9.83839E-16
 -1       803 7.05380E-03 1.78481E-03-8.61113E-15
 -1       804 1.11117E-03 1.83253E-04-5.89413E-16
 -1       805 3.95927E-03 2.00634E-04-4.71608E-15
 -1       806 1.17629E-03 4.18838E-04-7.26239E-16
 -1       807 5.72872E-03 1.24423E-03-6.82797E-15
 -1       808 9.92317E-04 3.13055E-04-4.24763E-16
 -1       809 6.86569E-03 1.61479E-03-7.53123E-15
 -1       810 3.02515E-03-1.28323E-04-2.97238E-15
 -1       811 1.22628E-03-1.68615E-04-6.86222E-16
 -1       812 4.22729E-03 3.88093E-04-5.37994E-15
 -1       813 1.45713E-02 7.81044E-03-6.27531E-14
 -1       814 4.82406E-03 7.75679E-04-6.22227E-15
 -1       815 9.80234E-04 2.90168E-04-5.10879E-16
 -1       816 2.49457E-03-7.10496E-05-2.10406E-15
 -1       817 1.16998E-03 9.98963E-05-6.20204E-16
 -1       818 1.03889E-03 2.48903E-04-5.52791E-16
 -1       819 1.43585E-02 7.72651E-03-6.29835E-14
 -1       820 6.73961E-03 1.57091E-03-7.38040E-15
 -1       821 1.31863E-03-2.72028E-04-8.00819E-16
 -1       822 1.22454E-03-8.10254E-05-6.69590E-16
 -1       823 8.83113E-03 3.28266E-03-1.87447E-14
 -1       824 1.46445E-02 7.74866E-03-6.04206E-14
 -1       825 1.63012E-03 1.88148E-04-1.08558E-15
 -1       826 2.09339E-03-2.69014E-04-1.76655E-15
 -1       827 2.41236E-03-2.79237E-04-2.28788E-15
 -1       828 2.72419E-03-2.63001E-04-2.88124E-15
 -1       829 3.02856E-03-2.06639E-04-3.54559E-15
 -1       830 3.32956E-03-1.01167E-04-4.28277E-15
 -1       831 3.63337E-03 5.26589E-05-5.09266E-15
 -1       832 3.94403E-03 2.44274E-04-5.97084E-15
 -1       833 4.26133E-03 4.58942E-04-6.91573E-15
 -1       834 4.58171E-03 6.83565E-04-7.92353E-15
 -1       835 4.90085E-03 9.10022E-04-8.99391E-15
 -1       836 5.21562E-03 1.13451E-03-1.01267E-14
 -1       837 5.52452E-03 1.35613E-03-1.13232E-14
 -1       838 5.82749E-03 1.57531E-03-1.25819E-14
 -1       839 6.12529E-03 1.79283E-03-1.38997E-14
 -1       840 6.41900E-03 2.00941E-03-1.52759E-14
 -1       841 6.70973E-03 2.22556E-03-1.67082E-14
 -1       842 6.99837E-03 2.44159E-03-1.81947E-14
 -1       843 7.28566E-03 2.65767E-03-1.97350E-14
 -1       844 7.57211E-03 2.87388E-03-2.13274E-14
 -1       845 7.85808E-03 3.09025E-03-2.29752E-14
 -1       846 8.14378E-03 3.30678E-03-2.46763E-14
 -1       847 8.42937E-03 3.52345E-03-2.64303E-14
 -1       848 8.71493E-03 3.74025E-03-2.82342E-14
 -1       849 9.00049E-03 3.95716E-03-3.00859E-14
 -1       850 9.28607E-03 4.17415E-03-3.19838E-14
 -1       851 9.57169E-03 4.39123E-03-3.39251E-14
 -1       852 9.85733E-03 4.60836E-03-3.59057E-14
 -1       853 1.01430E-02 4.82555E-03-3.79225E-14
 -1       854 1.04287E-02 5.04277E-03-3.99743E-14
 -1       855 1.07144E-02 5.26003E-03-4.20625E-14
 -1       856 1.10001E-02 5.47731E-03-4.41864E-14
 -1       857 1.12858E-02 5.69461E-03-4.63341E-14
 -1       858 1.15715E-02 5.91193E-03-4.85095E-14
 -1       859 1.18572E-02 6.12925E-03-5.07042E-14
 -1       860 1.21430E-02 6.34659E-03-5.29211E-14
 -1       861 1.24287E-02 6.56393E-03-5.51580E-14
 -1       862 1.27144E-02 6.78127E-03-5.74106E-14
 -1       863 1.30001E-02 6.99861E-03-5.96784E-14
 -1       864 1.32532E-02 7.19451E-03-6.17831E-14
 -1       865 8.56317E-03 3.07610E-03-1.72979E-14
 -1       866 7.22164E-03 2.02844E-03-1.05243E-14
 -1       867 8.28330E-03 2.85958E-03-1.58257E-14
 -1       868 9.11459E-03 3.50053E-03-2.03105E-14
 -1       869 9.39894E-03 3.71856E-03-2.19177E-14
 -1       870 9.68385E-03 3.93662E-03-2.35767E-14
 -1       871 9.96909E-03 4.15462E-03-2.52948E-14
 -1       872 1.02545E-02 4.37254E-03-2.70633E-14
 -1       873 1.05401E-02 4.59036E-03-2.88801E-14
 -1       874 1.08115E-02 4.79721E-03-3.06531E-14
 -1       875 1.10971E-02 5.01486E-03-3.25730E-14
 -1       876 1.13828E-02 5.23244E-03-3.45527E-14
 -1       877 1.16685E-02 5.44997E-03-3.65827E-14
 -1       878 1.19543E-02 5.66745E-03-3.86533E-14
 -1       879 1.22400E-02 5.88490E-03-4.07600E-14
 -1       880 1.25257E-02 6.10232E-03-4.29040E-14
 -1       881 1.28114E-02 6.31971E-03-4.50830E-14
 -1       882 1.30829E-02 6.52622E-03-4.71828E-14
 -1       883 1.33686E-02 6.74359E-03-4.94248E-14
 -1       884 1.36543E-02 6.96095E-03-5.16853E-14
 -1       885 1.39401E-02 7.17830E-03-5.39591E-14
 -1       886 1.42258E-02 7.39565E-03-5.62339E-14
 -1       887 1.45115E-02 7.61300E-03-5.85073E-14
 -1       888 1.37914E-02 7.41221E-03-6.13377E-14
 -1       889 8.00692E-03 2.64479E-03-1.44166E-14
 -1       890 3.44653E-03-4.87001E-05-3.91009E-15
 -1       891 1.96607E-03 4.96923E-05-1.42573E-15
 -1       892 6.98707E-03 1.84260E-03-9.35486E-15
 -1       893 7.73589E-03 2.43310E-03-1.30602E-14
 -1       894 5.46572E-03 1.15519E-03-7.16840E-15
 -1       895 7.47289E-03 2.22661E-03-1.17601E-14
 -1       896 1.36629E-03 2.85348E-04-8.71180E-16
 -1       897 1.17109E-03 3.49996E-04-7.29678E-16
 -1       898 6.03179E-03 1.41957E-03-7.72251E-15
 -1       899 6.51676E-03 1.58521E-03-7.98489E-15
 -1       900 1.77130E-03-2.44323E-04-1.31299E-15
 -1       901 3.72343E-03 8.28471E-05-4.52926E-15
 -1       902 1.20746E-03 9.41292E-06-6.47248E-16
 -1       903 6.84892E-03 1.70104E-03-8.34243E-15
 -1       904 1.44307E-02 7.66437E-03-6.06576E-14
 -1       905 3.17529E-03-1.30069E-04-3.41839E-15
 -1       906 4.52507E-03 5.99674E-04-6.14017E-15
 -1       907 3.97154E-03 2.37277E-04-5.17534E-15
 -1       908 5.12917E-03 9.82981E-04-7.09818E-15
 -1       909 1.35786E-02 7.32827E-03-6.15632E-14
 -1       910 1.40042E-02 7.49614E-03-6.11150E-14
 -1       911 2.67790E-03-1.45204E-04-2.45369E-15
 -1       912 6.69239E-03 1.64505E-03-8.16308E-15
 -1       913 1.39657E-03 1.42908E-04-8.38576E-16
 -1       914 1.08755E-03 3.62439E-04-6.31260E-16
 -1       915 1.50928E-03-2.02145E-04-9.85933E-16
 -1       916 1.51515E-03-1.05551E-04-9.62131E-16
 -1       917 2.13044E-03-4.88279E-05-1.64161E-15
 -1       918 8.78607E-03 3.32002E-03-1.97422E-14
 -1       919 2.62875E-03-2.12075E-04-2.52418E-15
 -1       920 3.26775E-03-1.15542E-04-3.83540E-15
 -1       921 3.58302E-03 2.15873E-05-4.60152E-15
 -1       922 3.90604E-03 2.10878E-04-5.43941E-15
 -1       923 4.23849E-03 4.31501E-04-6.34413E-15
 -1       924 4.57518E-03 6.63193E-04-7.31405E-15
 -1       925 4.90973E-03 8.94127E-04-8.34722E-15
 -1       926 5.23727E-03 1.11937E-03-9.44290E-15
 -1       927 5.55563E-03 1.33910E-03-1.06020E-14
 -1       928 5.86506E-03 1.55510E-03-1.18239E-14
 -1       929 6.16697E-03 1.76920E-03-1.31068E-14
 -1       930 6.46313E-03 1.98269E-03-1.44493E-14
 -1       931 6.75517E-03 2.19633E-03-1.58505E-14
 -1       932 7.04445E-03 2.41049E-03-1.73049E-14
 -1       933 7.33196E-03 2.62525E-03-1.88132E-14
 -1       934 7.61841E-03 2.84058E-03-2.03742E-14
 -1       935 7.90427E-03 3.05639E-03-2.19891E-14
 -1       936 8.18983E-03 3.27258E-03-2.36566E-14
 -1       937 8.47526E-03 3.48907E-03-2.53761E-14
 -1       938 8.76068E-03 3.70578E-03-2.71459E-14
 -1       939 9.04612E-03 3.92265E-03-2.89663E-14
 -1       940 9.33162E-03 4.13964E-03-3.08345E-14
 -1       941 9.61716E-03 4.35672E-03-3.27445E-14
 -1       942 9.90275E-03 4.57386E-03-3.46993E-14
 -1       943 1.01884E-02 4.79106E-03-3.66945E-14
 -1       944 1.04740E-02 5.00830E-03-3.87293E-14
 -1       945 1.07597E-02 5.22557E-03-4.07974E-14
 -1       946 1.10454E-02 5.44286E-03-4.29006E-14
 -1       947 1.13311E-02 5.66017E-03-4.50326E-14
 -1       948 1.16169E-02 5.87748E-03-4.71970E-14
 -1       949 1.19026E-02 6.09481E-03-4.93884E-14
 -1       950 1.21883E-02 6.31215E-03-5.15995E-14
 -1       951 1.24740E-02 6.52949E-03-5.38258E-14
 -1       952 1.27598E-02 6.74683E-03-5.60713E-14
 -1       953 1.30455E-02 6.96417E-03-5.83311E-14
 -1       954 8.23711E-03 2.89911E-03-1.67626E-14
 -1       955 1.69882E-03 3.13447E-05-1.13370E-15
 -1       956 9.35395E-03 3.75461E-03-2.29730E-14
 -1       957 9.63879E-03 3.97225E-03-2.46686E-14
 -1       958 9.92395E-03 4.18994E-03-2.64147E-14
 -1       959 1.02093E-02 4.40763E-03-2.82112E-14
 -1       960 1.04806E-02 4.61439E-03-2.99611E-14
 -1       961 1.07661E-02 4.83200E-03-3.18553E-14
 -1       962 1.10518E-02 5.04956E-03-3.38035E-14
 -1       963 1.13375E-02 5.26707E-03-3.58076E-14
 -1       964 1.16232E-02 5.48454E-03-3.78515E-14
 -1       965 1.19089E-02 5.70199E-03-3.99364E-14
 -1       966 1.21946E-02 5.91940E-03-4.20591E-14
 -1       967 1.24803E-02 6.13680E-03-4.42143E-14
 -1       968 1.27518E-02 6.34331E-03-4.62958E-14
 -1       969 1.30375E-02 6.56068E-03-4.85211E-14
 -1       970 1.33232E-02 6.77804E-03-5.07709E-14
 -1       971 1.36090E-02 6.99539E-03-5.30380E-14
 -1       972 1.38947E-02 7.21274E-03-5.53057E-14
 -1       973 1.41804E-02 7.43009E-03-5.75787E-14
 -1       974 7.95902E-03 2.68582E-03-1.53168E-14
 -1       975 7.68468E-03 2.47578E-03-1.39284E-14
 -1       976 9.06962E-03 3.53713E-03-2.13356E-14
 -1       977 8.51075E-03 3.10899E-03-1.82302E-14
 -1       978 6.36489E-03 1.59192E-03-8.57652E-15
 -1       979 4.82721E-03 8.08771E-04-7.00538E-15
 -1       980 1.95705E-03-1.72582E-04-1.49992E-15
 -1       981 5.80764E-03 1.36356E-03-8.25549E-15
 -1       982 6.90461E-03 1.88749E-03-1.01098E-14
 -1       983 1.43056E-02 7.54723E-03-5.91162E-14
 -1       984 1.42175E-02 7.58025E-03-6.08891E-14
 -1       985 1.73557E-03-1.38298E-04-1.21583E-15
 -1       986 2.29498E-03-1.99393E-04-1.97741E-15
 -1       987 7.41561E-03 2.27080E-03-1.25953E-14
 -1       988 2.95222E-03-1.90628E-04-3.14272E-15
 -1       989 6.16154E-03 1.55776E-03-9.13720E-15
 -1       990 5.49271E-03 1.21295E-03-8.17997E-15
 -1       991 1.36503E-02 7.26595E-03-5.92521E-14
 -1       992 1.33479E-02 7.11506E-03-5.87841E-14
 -1       993 4.18344E-03 3.82231E-04-5.78341E-15
 -1       994 7.15366E-03 2.07335E-03-1.13214E-14
 -1       995 6.55743E-03 1.66609E-03-8.76654E-15
 -1       996 5.26423E-03 1.11181E-03-8.77160E-15
 -1       997 5.59237E-03 1.32914E-03-9.89173E-15
 -1       998 5.90771E-03 1.54061E-03-1.10768E-14
 -1       999 6.21277E-03 1.74978E-03-1.23242E-14
 -1      1000 6.51033E-03 1.95887E-03-1.36317E-14
 -1      1001 6.80280E-03 2.16900E-03-1.49994E-14
 -1      1002 7.09200E-03 2.38054E-03-1.64221E-14
 -1      1003 7.37923E-03 2.59347E-03-1.78986E-14
 -1      1004 7.66533E-03 2.80759E-03-1.94292E-14
 -1      1005 7.95085E-03 3.02264E-03-2.10130E-14
 -1      1006 8.23611E-03 3.23838E-03-2.26461E-14
 -1      1007 8.52130E-03 3.45462E-03-2.43339E-14
 -1      1008 8.80653E-03 3.67121E-03-2.60691E-14
 -1      1009 9.09182E-03 3.88804E-03-2.78532E-14
 -1      1010 9.37720E-03 4.10503E-03-2.96927E-14
 -1      1011 9.66267E-03 4.32213E-03-3.15746E-14
 -1      1012 9.94820E-03 4.53931E-03-3.35038E-14
 -1      1013 1.02338E-02 4.75653E-03-3.54746E-14
 -1      1014 1.05194E-02 4.97380E-03-3.74868E-14
 -1      1015 1.08051E-02 5.19108E-03-3.95369E-14
 -1      1016 1.10908E-02 5.40839E-03-4.16242E-14
 -1      1017 1.13765E-02 5.62571E-03-4.37428E-14
 -1      1018 1.16622E-02 5.84303E-03-4.58885E-14
 -1      1019 1.19479E-02 6.06037E-03-4.80736E-14
 -1      1020 1.22337E-02 6.27770E-03-5.02797E-14
 -1      1021 1.25194E-02 6.49505E-03-5.25026E-14
 -1      1022 1.28051E-02 6.71239E-03-5.47386E-14
 -1      1023 1.30765E-02 6.91373E-03-5.67529E-14
 -1      1024 9.87865E-03 4.22511E-03-2.75381E-14
 -1      1025 9.59348E-03 4.00764E-03-2.57644E-14
 -1      1026 9.30858E-03 3.79030E-03-2.40388E-14
 -1      1027 1.01497E-02 4.43174E-03-2.92715E-14
 -1      1028 1.04352E-02 4.64925E-03-3.11397E-14
 -1      1029 1.07208E-02 4.86675E-03-3.30637E-14
 -1      1030 1.10064E-02 5.08422E-03-3.50397E-14
 -1      1031 1.12921E-02 5.30167E-03-3.70622E-14
 -1      1032 1.15778E-02 5.51910E-03-3.91220E-14
 -1      1033 1.18635E-02 5.73650E-03-4.12252E-14
 -1      1034 1.21492E-02 5.95389E-03-4.33626E-14
 -1      1035 1.24207E-02 6.16040E-03-4.54202E-14
 -1      1036 1.27064E-02 6.37777E-03-4.76253E-14
 -1      1037 1.29921E-02 6.59513E-03-4.98617E-14
 -1      1038 1.32779E-02 6.81249E-03-5.21205E-14
 -1      1039 1.35636E-02 7.02984E-03-5.43834E-14
 -1      1040 1.38493E-02 7.24719E-03-5.66481E-14
 -1      1041 7.90901E-03 2.72378E-03-1.62311E-14
 -1      1042 7.63088E-03 2.51394E-03-1.48100E-14
 -1      1043 1.38636E-02 7.35006E-03-5.90301E-14
 -1      1044 6.54984E-03 1.73150E-03-9.62047E-15
 -1      1045 6.81161E-03 1.91081E-03-1.07990E-14
 -1      1046 7.35549E-03 2.30849E-03-1.34430E-14
 -1      1047 8.46066E-03 3.14327E-03-1.91882E-14
 -1      1048 1.33789E-02 7.06461E-03-5.72145E-14
 -1      1049 4.92238E-03 8.84460E-04-7.71176E-15
 -1      1050 8.74373E-03 3.35921E-03-2.07666E-14
 -1      1051 1.35922E-02 7.14873E-03-5.69952E-14
 -1      1052 5.86078E-03 1.42586E-03-9.06065E-15
 -1      1053 8.18229E-03 2.93125E-03-1.76753E-14
 -1      1054 7.08330E-03 2.10925E-03-1.21338E-14
 -1      1055 9.02587E-03 3.57454E-03-2.23783E-14
 -1      1056 5.22030E-03 1.06135E-03-7.93695E-15
 -1      1057 1.40846E-02 7.44865E-03-5.90754E-14
 -1      1058 5.55274E-03 1.27149E-03-8.92022E-15
 -1      1059 5.96036E-03 1.53200E-03-1.03403E-14
 -1      1060 6.26637E-03 1.73442E-03-1.15497E-14
 -1      1061 6.56310E-03 1.93762E-03-1.28227E-14
 -1      1062 6.85422E-03 2.14315E-03-1.41555E-14
 -1      1063 7.14202E-03 2.35139E-03-1.55461E-14
 -1      1064 7.42804E-03 2.56205E-03-1.69912E-14
 -1      1065 7.71317E-03 2.77470E-03-1.84901E-14
 -1      1066 7.99797E-03 2.98885E-03-2.00435E-14
 -1      1067 8.28270E-03 3.20407E-03-2.16472E-14
 -1      1068 8.56751E-03 3.42004E-03-2.33019E-14
 -1      1069 8.85246E-03 3.63651E-03-2.50024E-14
 -1      1070 9.13757E-03 3.85331E-03-2.67501E-14
 -1      1071 9.42282E-03 4.07032E-03-2.85566E-14
 -1      1072 9.70819E-03 4.28746E-03-3.04100E-14
 -1      1073 9.99366E-03 4.50468E-03-3.23102E-14
 -1      1074 1.02792E-02 4.72195E-03-3.42569E-14
 -1      1075 1.05648E-02 4.93925E-03-3.62438E-14
 -1      1076 1.08505E-02 5.15657E-03-3.82775E-14
 -1      1077 1.11361E-02 5.37390E-03-4.03470E-14
 -1      1078 1.14218E-02 5.59123E-03-4.24535E-14
 -1      1079 1.17076E-02 5.80857E-03-4.45887E-14
 -1      1080 1.19933E-02 6.02591E-03-4.67557E-14
 -1      1081 1.22790E-02 6.24326E-03-4.89563E-14
 -1      1082 1.25647E-02 6.46060E-03-5.11809E-14
 -1      1083 1.28505E-02 6.67795E-03-5.34160E-14
 -1      1084 9.54801E-03 4.04282E-03-2.68688E-14
 -1      1085 9.81898E-03 4.24925E-03-2.85811E-14
 -1      1086 9.26298E-03 3.82565E-03-2.51127E-14
 -1      1087 1.03899E-02 4.68403E-03-3.23341E-14
 -1      1088 1.06754E-02 4.90144E-03-3.42846E-14
 -1      1089 1.09611E-02 5.11884E-03-3.62831E-14
 -1      1090 1.12467E-02 5.33624E-03-3.83206E-14
 -1      1091 1.15324E-02 5.55363E-03-4.04032E-14
 -1      1092 1.18181E-02 5.77100E-03-4.25216E-14
 -1      1093 1.20896E-02 5.97750E-03-4.45625E-14
 -1      1094 1.23753E-02 6.19487E-03-4.67442E-14
 -1      1095 1.26610E-02 6.41222E-03-4.89612E-14
 -1      1096 1.29468E-02 6.62958E-03-5.12041E-14
 -1      1097 1.32325E-02 6.84693E-03-5.34570E-14
 -1      1098 1.01044E-02 4.46663E-03-3.04312E-14
 -1      1099 6.44695E-03 1.73939E-03-1.02854E-14
 -1      1100 6.73251E-03 1.93534E-03-1.15862E-14
 -1      1101 7.57731E-03 2.54876E-03-1.57010E-14
 -1      1102 1.32381E-02 6.91845E-03-5.51412E-14
 -1      1103 8.41366E-03 3.17914E-03-2.01720E-14
 -1      1104 8.98003E-03 3.61008E-03-2.34224E-14
 -1      1105 8.13404E-03 2.96711E-03-1.86307E-14
 -1      1106 7.01248E-03 2.13134E-03-1.28660E-14
 -1      1107 7.85523E-03 2.75673E-03-1.71382E-14
 -1      1108 7.29676E-03 2.34165E-03-1.43025E-14
 -1      1109 1.09157E-02 5.15343E-03-3.75348E-14
 -1      1110 8.69659E-03 3.39426E-03-2.17741E-14
 -1      1111 1.12014E-02 5.37078E-03-3.95946E-14
 -1      1112 1.14871E-02 5.58814E-03-4.16917E-14
 -1      1113 1.17728E-02 5.80549E-03-4.38233E-14
 -1      1114 1.20585E-02 6.02284E-03-4.59846E-14
 -1      1115 1.23442E-02 6.24019E-03-4.81806E-14
 -1      1116 1.26300E-02 6.45754E-03-5.04049E-14
 -1      1117 1.29157E-02 6.67489E-03-5.26471E-14
 -1      1118 0.00000E+00 0.00000E+00 0.00000E+00
 -1      1119 0.00000E+00 0.00000E+00 0.00000E+00
 -1      1120 0.00000E+00 0.00000E+00 0.00000E+00
 -1      1121 0.00000E+00 0.00000E+00 0.00000E+00
 -1      1122 0.00000E+00 0.00000E+00 0.00000E+00
 -1      1123 0.00000E+00 0.00000E+00 0.00000E+00
 -1      1124 0.00000E+00 0.00000E+00 0.00000E+00
 -1      1125 0.00000E+00 0.00000E+00 0.00000E+00
 -1      1126 0.00000E+00 0.00000E+00 0.00000E+00
 -1      1127 0.00000E+00 0.00000E+00 0.00000E+00
 -1      1128 0.00000E+00 0.00000E+00 0.00000E+00
 -1      1129 0.00000E+00 0.00000E+00 0.00000E+00
 -1      1130 0.00000E+00 0.00000E+00 0.00000E+00
 -1      1131 0.00000E+00 0.00000E+00 0.00000E+00
 -1      1132 0.00000E+00 0.00000E+00 0.00000E+00
 -1      1133 0.00000E+00 0.00000E+00 0.00000E+00
 -1      1134 0.00000E+00 0.00000E+00 0.00000E+00
 -1      1135 2.13429E-04-1.52038E-04 6.09864E-19
 -1      1136 5.52716E-04-3.49653E-04-4.99953E-17
 -1      1137 8.29197E-04-4.79043E-04-1.75559E-16
 -1      1138 1.08849E-03-5.67260E-04-3.86965E-16
 -1      1139 1.33716E-03-6.28553E-04-6.78541E-16
 -1      1140 1.57688E-03-6.68427E-04-1.04886E-15
 -1      1141 1.80792E-03-6.87748E-04-1.49780E-15
 -1      1142 2.03041E-03-6.84741E-04-2.02395E-15
 -1      1143 2.24524E-03-6.56293E-04-2.62708E-15
 -1      1144 2.45453E-03-5.99149E-04-3.30760E-15
 -1      1145 2.66162E-03-5.11077E-04-4.06244E-15
 -1      1146 2.87062E-03-3.91782E-04-4.88661E-15
 -1      1147 3.08558E-03-2.43280E-04-5.77880E-15
 -1      1148 3.30974E-03-6.96341E-05-6.73817E-15
 -1      1149 3.54503E-03 1.23809E-04-7.76054E-15
 -1      1150 3.79188E-03 3.31381E-04-8.84699E-15
 -1      1151 4.04947E-03 5.47925E-04-9.99443E-15
 -1      1152 4.31619E-03 7.69319E-04-1.11991E-14
 -1      1153 4.59007E-03 9.92639E-04-1.24618E-14
 -1      1154 4.86917E-03 1.21606E-03-1.37820E-14
 -1      1155 5.15179E-03 1.43863E-03-1.51563E-14
 -1      1156 5.43660E-03 1.65999E-03-1.65910E-14
 -1      1157 5.72264E-03 1.88012E-03-1.80844E-14
 -1      1158 6.00925E-03 2.09921E-03-1.96387E-14
 -1      1159 6.29604E-03 2.31749E-03-2.12472E-14
 -1      1160 6.58278E-03 2.53519E-03-2.29022E-14
 -1      1161 6.86936E-03 2.75252E-03-2.46093E-14
 -1      1162 7.15575E-03 2.96963E-03-2.63809E-14
 -1      1163 7.44195E-03 3.18664E-03-2.82232E-14
 -1      1164 7.72800E-03 3.40361E-03-3.01315E-14
 -1      1165 8.01392E-03 3.62059E-03-3.20825E-14
 -1      1166 8.29974E-03 3.83760E-03-3.40752E-14
 -1      1167 8.58551E-03 4.05467E-03-3.61075E-14
 -1      1168 8.87122E-03 4.27178E-03-3.81646E-14
 -1      1169 9.15691E-03 4.48894E-03-4.02319E-14
 -1      1170 9.44258E-03 4.70614E-03-4.23217E-14
 -1      1171 9.72825E-03 4.92338E-03-4.44362E-14
 -1      1172 1.00139E-02 5.14065E-03-4.65744E-14
 -1      1173 1.02996E-02 5.35794E-03-4.87357E-14
 -1      1174 1.05853E-02 5.57524E-03-5.09276E-14
 -1      1175 1.08709E-02 5.79256E-03-5.31467E-14
 -1      1176 1.11566E-02 6.00989E-03-5.53829E-14
 -1      1177 1.14423E-02 6.22723E-03-5.76275E-14
 -1      1178 1.17280E-02 6.44457E-03-5.98831E-14
 -1      1179 1.20137E-02 6.66191E-03-6.21583E-14
 -1      1180 1.22994E-02 6.87926E-03-6.44520E-14
 -1      1181 1.25851E-02 7.09660E-03-6.67550E-14
 -1      1182 1.28709E-02 7.31395E-03-6.90633E-14
 -1      1183 1.31566E-02 7.53129E-03-7.13831E-14
 -1      1184 1.34351E-02 7.74320E-03-7.36631E-14
 -1      1185 2.10961E-04 1.36383E-04 2.28089E-17
 -1      1186 5.75425E-04 3.02207E-04 4.72306E-17
 -1      1187 9.08085E-04 4.08419E-04 3.30275E-17
 -1      1188 1.25328E-03 4.84919E-04-3.03170E-17
 -1      1189 1.63216E-03 5.57361E-04-1.44483E-16
 -1      1190 2.06684E-03 6.58444E-04-3.11559E-16
 -1      1191 2.56323E-03 8.37060E-04-5.26868E-16
 -1      1192 3.08487E-03 1.13822E-03-7.76397E-16
 -1      1193 3.58086E-03 1.57504E-03-1.04834E-15
 -1      1194 3.98348E-03 2.08316E-03-1.33595E-15
 -1      1195 4.25836E-03 2.54540E-03-1.65387E-15
 -1      1196 4.42396E-03 2.81964E-03-2.01053E-15
 -1      1197 4.57770E-03 2.80824E-03-2.45545E-15
 -1      1198 4.86216E-03 2.49577E-03-3.03287E-15
 -1      1199 5.34014E-03 2.07938E-03-3.73483E-15
 -1      1200 5.94073E-03 1.80120E-03-4.56829E-15
 -1      1201 6.52236E-03 1.74362E-03-5.48330E-15
 -1      1202 7.02523E-03 1.83929E-03-6.46060E-15
 -1      1203 7.45582E-03 2.01289E-03-7.50066E-15
 -1      1204 7.82481E-03 2.21502E-03-8.58397E-15
 -1      1205 8.16022E-03 2.42960E-03-9.73137E-15
 -1      1206 8.48195E-03 2.65379E-03-1.09686E-14
 -1      1207 8.78959E-03 2.87838E-03-1.22613E-14
 -1      1208 9.08861E-03 3.10208E-03-1.35919E-14
 -1      1209 9.38237E-03 3.32460E-03-1.49698E-14
 -1      1210 9.67295E-03 3.54599E-03-1.63992E-14
 -1      1211 9.96159E-03 3.76646E-03-1.78859E-14
 -1      1212 1.02419E-02 3.98070E-03-1.93866E-14
 -1      1213 1.05214E-02 4.19439E-03-2.09424E-14
 -1      1214 1.08077E-02 4.41313E-03-2.25995E-14
 -1      1215 1.10938E-02 4.63154E-03-2.43129E-14
 -1      1216 1.13796E-02 4.84970E-03-2.60950E-14
 -1      1217 1.16654E-02 5.06766E-03-2.79482E-14
 -1      1218 1.19511E-02 5.28548E-03-2.98525E-14
 -1      1219 1.22367E-02 5.50318E-03-3.18064E-14
 -1      1220 1.25152E-02 5.71535E-03-3.37632E-14
 -1      1221 1.27937E-02 5.92746E-03-3.57814E-14
 -1      1222 1.30794E-02 6.14495E-03-3.79135E-14
 -1      1223 1.33650E-02 6.36241E-03-4.01006E-14
 -1      1224 1.36507E-02 6.57983E-03-4.23189E-14
 -1      1225 1.39363E-02 6.79723E-03-4.45672E-14
 -1      1226 1.42220E-02 7.01461E-03-4.68484E-14
 -1      1227 1.45077E-02 7.23198E-03-4.91429E-14
 -1      1228 1.47862E-02 7.44391E-03-5.13711E-14
 -1      1229 1.50648E-02 7.65583E-03-5.36120E-14
 -1      1230 1.53505E-02 7.87318E-03-5.59066E-14
 -1      1231 1.56362E-02 8.09053E-03-5.81833E-14
 -1      1232 1.59219E-02 8.30788E-03-6.04531E-14
 -1      1233 1.62076E-02 8.52522E-03-6.26911E-14
 -1      1234 1.64933E-02 8.74257E-03-6.49006E-14
 -1      1235 1.67790E-02 8.95992E-03-6.71018E-14
 -1      1236 1.70576E-02 9.17184E-03-6.92412E-14
 -1      1237 1.70864E-02 9.23294E-03-7.03959E-14
 -1      1238 1.68727E-02 9.14865E-03-7.06475E-14
 -1      1239 1.66590E-02 9.06437E-03-7.09214E-14
 -1      1240 1.64452E-02 8.98008E-03-7.12036E-14
 -1      1241 1.62315E-02 8.89579E-03-7.15114E-14
 -1      1242 1.60196E-02 8.81221E-03-7.18117E-14
 -1      1243 1.58077E-02 8.72863E-03-7.20683E-14
 -1      1244 1.55939E-02 8.64434E-03-7.23269E-14
 -1      1245 1.53802E-02 8.56004E-03-7.25815E-14
 -1      1246 1.51665E-02 8.47575E-03-7.28391E-14
 -1      1247 1.49528E-02 8.39145E-03-7.30875E-14
 -1      1248 1.47409E-02 8.30787E-03-7.33596E-14
 -1      1249 1.45290E-02 8.22430E-03-7.36143E-14
 -1      1250 1.43152E-02 8.14001E-03-7.38402E-14
 -1      1251 1.41015E-02 8.05572E-03-7.40857E-14
 -1      1252 1.38878E-02 7.97143E-03-7.43662E-14
 -1      1253 1.36759E-02 7.88786E-03-7.46485E-14
 -1      1254 6.66757E-03 1.28171E-03-4.60057E-15
 -1      1255 6.65462E-03 1.46323E-03-4.41520E-15
 -1      1256 6.51248E-03 1.66028E-03-4.16216E-15
 -1      1257 6.26055E-03 1.87967E-03-3.86960E-15
 -1      1258 5.87123E-03 2.14494E-03-3.52153E-15
 -1      1259 5.35306E-03 2.41856E-03-3.15221E-15
 -1      1260 4.79827E-03 2.59217E-03-2.81833E-15
 -1      1261 4.20286E-03 2.61152E-03-2.50505E-15
 -1      1262 3.55556E-03 2.43607E-03-2.20681E-15
 -1      1263 2.94566E-03 2.11847E-03-1.95983E-15
 -1      1264 2.38889E-03 1.73936E-03-1.76111E-15
 -1      1265 1.93439E-03 1.39223E-03-1.62364E-15
 -1      1266 1.61261E-03 1.11563E-03-1.54980E-15
 -1      1267 1.41500E-03 8.95197E-04-1.53337E-15
 -1      1268 1.34360E-03 7.16408E-04-1.57303E-15
 -1      1269 1.38876E-03 5.64380E-04-1.66464E-15
 -1      1270 1.53978E-03 4.29770E-04-1.80102E-15
 -1      1271 1.78619E-03 3.03865E-04-1.98135E-15
 -1      1272 2.11373E-03 1.89713E-04-2.20693E-15
 -1      1273 2.52503E-03 9.37061E-05-2.49104E-15
 -1      1274 2.98303E-03 3.52703E-05-2.81109E-15
 -1      1275 3.45569E-03 2.95786E-05-3.14120E-15
 -1      1276 3.95348E-03 8.01698E-05-3.48373E-15
 -1      1277 4.48163E-03 1.94148E-04-3.82997E-15
 -1      1278 5.00251E-03 3.55003E-04-4.13951E-15
 -1      1279 5.50083E-03 5.46012E-04-4.39873E-15
 -1      1280 5.94464E-03 7.44273E-04-4.58411E-15
 -1      1281 6.29707E-03 9.31587E-04-4.68454E-15
 -1      1282 6.54573E-03 1.10971E-03-4.69293E-15
 -1      1283 1.66815E-04-1.14041E-04-1.01644E-17
 -1      1284 1.12403E-04-6.08428E-05-2.03423E-17
 -1      1285 1.17310E-04-7.12377E-05-1.74285E-17
 -1      1286 1.09185E-04-4.72367E-05-2.45436E-17
 -1      1287 1.10564E-04-5.35889E-05-2.34459E-17
 -1      1288 2.26422E-04-1.15309E-04-5.59448E-17
 -1      1289 1.08681E-04-3.60215E-05-2.62106E-17
 -1      1290 1.08999E-04-4.15581E-05-2.58311E-17
 -1      1291 2.21489E-04-8.90921E-05-6.27889E-17
 -1      1292 1.08731E-04-2.51947E-05-2.66036E-17
 -1      1293 1.08799E-04-3.05873E-05-2.66443E-17
 -1      1294 2.20688E-04-6.66350E-05-6.54587E-17
 -1      1295 1.08562E-04-1.44664E-05-2.61835E-17
 -1      1296 1.08766E-04-1.97544E-05-2.64003E-17
 -1      1297 2.20732E-04-4.51712E-05-6.56349E-17
 -1      1298 1.07723E-04-3.66232E-06-2.54788E-17
 -1      1299 1.08282E-04-8.90701E-06-2.57498E-17
 -1      1300 2.20078E-04-2.38266E-05-6.43610E-17
 -1      1301 1.06022E-04 6.42301E-06-2.45436E-17
 -1      1302 1.07009E-04 1.62362E-06-2.48011E-17
 -1      1303 2.17823E-04-2.87392E-06-6.23010E-17
 -1      1304 1.03567E-04 1.49049E-05-2.34323E-17
 -1      1305 1.04887E-04 1.09663E-05-2.37034E-17
 -1      1306 2.13611E-04 1.62803E-05-5.99157E-17
 -1      1307 1.00846E-04 2.09036E-05-2.21719E-17
 -1      1308 1.02202E-04 1.81961E-05-2.24701E-17
 -1      1309 2.07806E-04 3.19927E-05-5.70290E-17
 -1      1310 9.87262E-05 2.39834E-05-2.04643E-17
 -1      1311 9.96386E-05 2.26130E-05-2.08980E-17
 -1      1312 2.01665E-04 4.28067E-05-5.35731E-17
 -1      1313 9.82758E-05 2.46451E-05-1.81604E-17
 -1      1314 9.82046E-05 2.42321E-05-1.88380E-17
 -1      1315 1.97320E-04 4.82969E-05-4.90737E-17
 -1      1316 1.00414E-04 2.46238E-05-1.51246E-17
 -1      1317 9.89148E-05 2.42125E-05-1.61682E-17
 -1      1318 1.97161E-04 5.00622E-05-4.32732E-17
 -1      1319 1.05611E-04 2.67738E-05-1.09775E-17
 -1      1320 1.02517E-04 2.49153E-05-1.24954E-17
 -1      1321 2.03254E-04 5.18999E-05-3.56703E-17
 -1      1322 1.13805E-04 3.48266E-05-5.02799E-18
 -1      1323 1.09126E-04 2.96761E-05-7.60297E-18
 -1      1324 2.16385E-04 5.96536E-05-2.54381E-17
 -1      1325 1.26303E-04 5.48315E-05 3.69984E-18
 -1      1326 1.19042E-04 4.27327E-05-2.71051E-19
 -1      1327 2.36528E-04 8.06621E-05-1.12350E-17
 -1      1328 1.70301E-04 9.59727E-05 1.44199E-17
 -1      1329 4.20886E-04-2.72128E-04-5.13099E-17
 -1      1330 5.72414E-04-3.51578E-04-9.45153E-17
 -1      1331 7.17192E-04-4.16358E-04-1.60638E-16
 -1      1332 8.56973E-04-4.69567E-04-2.47672E-16
 -1      1333 6.08136E-04-3.48333E-04-1.44334E-16
 -1      1334 9.92458E-04-5.14252E-04-3.54209E-16
 -1      1335 1.12445E-03-5.51382E-04-4.80125E-16
 -1      1336 8.95851E-04-4.57288E-04-3.20206E-16
 -1      1337 1.25360E-03-5.82669E-04-6.25734E-16
 -1      1338 1.38021E-03-6.08248E-04-7.91454E-16
 -1      1339 1.16869E-03-5.33616E-04-5.73733E-16
 -1      1340 1.50456E-03-6.28817E-04-9.76365E-16
 -1      1341 1.62676E-03-6.44213E-04-1.18032E-15
 -1      1342 1.43072E-03-5.86247E-04-9.04292E-16
 -1      1343 1.74693E-03-6.54494E-04-1.40382E-15
 -1      1344 1.86510E-03-6.59336E-04-1.64672E-15
 -1      1345 1.68408E-03-6.18178E-04-1.31130E-15
 -1      1346 1.98142E-03-6.58420E-04-1.90837E-15
 -1      1347 2.09598E-03-6.51333E-04-2.18924E-15
 -1      1348 1.92990E-03-6.28806E-04-1.79452E-15
 -1      1349 2.20900E-03-6.37595E-04-2.48944E-15
 -1      1350 2.32068E-03-6.16806E-04-2.80835E-15
 -1      1351 2.16919E-03-6.15398E-04-2.35343E-15
 -1      1352 2.43137E-03-5.88525E-04-3.14651E-15
 -1      1353 2.54138E-03-5.52491E-04-3.50322E-15
 -1      1354 2.40335E-03-5.74347E-04-2.98782E-15
 -1      1355 2.65115E-03-5.08479E-04-3.87748E-15
 -1      1356 2.76108E-03-4.56463E-04-4.27008E-15
 -1      1357 2.63454E-03-5.02489E-04-3.69581E-15
 -1      1358 2.87161E-03-3.96542E-04-4.67990E-15
 -1      1359 2.98315E-03-3.28973E-04-5.10653E-15
 -1      1360 2.86545E-03-3.98302E-04-4.47571E-15
 -1      1361 3.09611E-03-2.54185E-04-5.55065E-15
 -1      1362 3.21080E-03-1.72683E-04-6.01151E-15
 -1      1363 3.09898E-03-2.62653E-04-5.32467E-15
 -1      1364 3.32751E-03-8.51426E-05-6.48874E-15
 -1      1365 3.44642E-03 7.77422E-06-6.98208E-15
 -1      1366 3.33770E-03-9.88552E-05-6.24196E-15
 -1      1367 3.56768E-03 1.05288E-04-7.49129E-15
 -1      1368 3.69132E-03 2.06692E-04-8.01635E-15
 -1      1369 3.58341E-03 8.79427E-05-7.22431E-15
 -1      1370 3.81734E-03 3.11247E-04-8.55755E-15
 -1      1371 3.94566E-03 4.18298E-04-9.11399E-15
 -1      1372 3.83695E-03 2.91764E-04-8.27016E-15
 -1      1373 4.07615E-03 5.27245E-04-9.68461E-15
 -1      1374 4.20867E-03 6.37549E-04-1.02712E-14
 -1      1375 4.09822E-03 5.06825E-04-9.37847E-15
 -1      1376 4.34301E-03 7.48791E-04-1.08725E-14
 -1      1377 4.47899E-03 8.60569E-04-1.14868E-14
 -1      1378 4.36644E-03 7.28267E-04-1.05460E-14
 -1      1379 4.61640E-03 9.72637E-04-1.21166E-14
 -1      1380 4.75504E-03 1.08472E-03-1.27617E-14
 -1      1381 4.64041E-03 9.52497E-04-1.17741E-14
 -1      1382 4.89472E-03 1.19672E-03-1.34192E-14
 -1      1383 5.03528E-03 1.30846E-03-1.40910E-14
 -1      1384 4.91883E-03 1.17718E-03-1.30591E-14
 -1      1385 5.17653E-03 1.41993E-03-1.47778E-14
 -1      1386 5.31836E-03 1.53104E-03-1.54797E-14
 -1      1387 5.20046E-03 1.40103E-03-1.44006E-14
 -1      1388 5.46063E-03 1.64182E-03-1.61945E-14
 -1      1389 5.60324E-03 1.75225E-03-1.69245E-14
 -1      1390 5.48426E-03 1.62349E-03-1.57998E-14
 -1      1391 5.74609E-03 1.86237E-03-1.76709E-14
 -1      1392 5.88913E-03 1.97219E-03-1.84309E-14
 -1      1393 5.76942E-03 1.84449E-03-1.72580E-14
 -1      1394 6.03229E-03 2.08175E-03-1.92053E-14
 -1      1395 6.17553E-03 2.19108E-03-1.99950E-14
 -1      1396 6.05535E-03 2.06420E-03-1.87755E-14
 -1      1397 6.31880E-03 2.30022E-03-2.07966E-14
 -1      1398 6.46209E-03 2.40919E-03-2.16117E-14
 -1      1399 6.34165E-03 2.28290E-03-2.03490E-14
 -1      1400 6.60537E-03 2.51804E-03-2.24392E-14
 -1      1401 6.74863E-03 2.62677E-03-2.32769E-14
 -1      1402 6.62807E-03 2.50085E-03-2.19755E-14
 -1      1403 6.89186E-03 2.73543E-03-2.41306E-14
 -1      1404 7.03505E-03 2.84402E-03-2.49988E-14
 -1      1405 6.91446E-03 2.71832E-03-2.36532E-14
 -1      1406 7.17821E-03 2.95256E-03-2.58835E-14
 -1      1407 7.32133E-03 3.06107E-03-2.67843E-14
 -1      1408 7.20077E-03 2.93548E-03-2.53871E-14
 -1      1409 7.46442E-03 3.16956E-03-2.76999E-14
 -1      1410 7.60746E-03 3.27804E-03-2.86336E-14
 -1      1411 7.48695E-03 3.15249E-03-2.71820E-14
 -1      1412 7.75048E-03 3.38651E-03-2.95816E-14
 -1      1413 7.89347E-03 3.49499E-03-3.05424E-14
 -1      1414 7.77301E-03 3.36943E-03-2.90378E-14
 -1      1415 8.03643E-03 3.60347E-03-3.15154E-14
 -1      1416 8.17937E-03 3.71197E-03-3.24969E-14
 -1      1417 8.05897E-03 3.58637E-03-3.09505E-14
 -1      1418 8.32229E-03 3.82047E-03-3.34904E-14
 -1      1419 8.46519E-03 3.92899E-03-3.44930E-14
 -1      1420 8.34485E-03 3.80335E-03-3.29095E-14
 -1      1421 8.60807E-03 4.03751E-03-3.55042E-14
 -1      1422 8.75095E-03 4.14606E-03-3.65228E-14
 -1      1423 8.63066E-03 4.02037E-03-3.49068E-14
 -1      1424 8.89382E-03 4.25461E-03-3.75476E-14
 -1      1425 9.03668E-03 4.36318E-03-3.85760E-14
 -1      1426 8.91642E-03 4.23745E-03-3.69355E-14
 -1      1427 9.17953E-03 4.47176E-03-3.96094E-14
 -1      1428 9.32238E-03 4.58035E-03-4.06475E-14
 -1      1429 9.20215E-03 4.45458E-03-3.89885E-14
 -1      1430 9.46522E-03 4.68895E-03-4.16927E-14
 -1      1431 9.60806E-03 4.79756E-03-4.27440E-14
 -1      1432 9.48785E-03 4.67176E-03-4.10647E-14
 -1      1433 9.75090E-03 4.90618E-03-4.38005E-14
 -1      1434 9.89374E-03 5.01480E-03-4.48635E-14
 -1      1435 9.77355E-03 4.88898E-03-4.31656E-14
 -1      1436 1.00366E-02 5.12344E-03-4.59320E-14
 -1      1437 1.01794E-02 5.23208E-03-4.70093E-14
 -1      1438 1.00592E-02 5.10623E-03-4.52921E-14
 -1      1439 1.03223E-02 5.34072E-03-4.80897E-14
 -1      1440 1.04651E-02 5.44937E-03-4.91740E-14
 -1      1441 1.03449E-02 5.32351E-03-4.74404E-14
 -1      1442 1.06079E-02 5.55803E-03-5.02695E-14
 -1      1443 1.07508E-02 5.66668E-03-5.13734E-14
 -1      1444 1.06306E-02 5.54081E-03-4.96151E-14
 -1      1445 1.08936E-02 5.77534E-03-5.24792E-14
 -1      1446 1.10365E-02 5.88401E-03-5.35900E-14
 -1      1447 1.09163E-02 5.75812E-03-5.18124E-14
 -1      1448 1.11793E-02 5.99267E-03-5.47064E-14
 -1      1449 1.13222E-02 6.10134E-03-5.58271E-14
 -1      1450 1.12020E-02 5.97545E-03-5.40345E-14
 -1      1451 1.14650E-02 6.21001E-03-5.69513E-14
 -1      1452 1.16079E-02 6.31868E-03-5.80754E-14
 -1      1453 1.14877E-02 6.19278E-03-5.62737E-14
 -1      1454 1.17507E-02 6.42735E-03-5.92036E-14
 -1      1455 1.18936E-02 6.53602E-03-6.03365E-14
 -1      1456 1.17734E-02 6.41012E-03-5.85247E-14
 -1      1457 1.20364E-02 6.64469E-03-6.14732E-14
 -1      1458 1.21793E-02 6.75336E-03-6.26194E-14
 -1      1459 1.20591E-02 6.62747E-03-6.07922E-14
 -1      1460 1.23221E-02 6.86203E-03-6.37653E-14
 -1      1461 1.24650E-02 6.97071E-03-6.49136E-14
 -1      1462 1.23448E-02 6.84481E-03-6.30767E-14
 -1      1463 1.26078E-02 7.07938E-03-6.60664E-14
 -1      1464 1.27507E-02 7.18805E-03-6.72193E-14
 -1      1465 1.26305E-02 7.06216E-03-6.53782E-14
 -1      1466 1.28935E-02 7.29672E-03-6.83757E-14
 -1      1467 1.30364E-02 7.40540E-03-6.95310E-14
 -1      1468 1.29162E-02 7.27950E-03-6.76857E-14
 -1      1469 1.31793E-02 7.51407E-03-7.06884E-14
 -1      1470 1.33221E-02 7.62274E-03-7.18534E-14
 -1      1471 1.32019E-02 7.49685E-03-6.99957E-14
 -1      1472 1.35402E-02 7.78462E-03-7.35304E-14
 -1      1473 1.35629E-02 7.76740E-03-7.28296E-14
 -1      1474 6.11626E-04 2.91486E-04 2.49366E-17
 -1      1475 4.39151E-04 2.26348E-04 2.60751E-17
 -1      1476 9.52102E-04 3.85876E-04-1.18043E-17
 -1      1477 7.81622E-04 3.43333E-04 1.23057E-17
 -1      1478 6.54400E-04 2.76038E-04-2.98156E-18
 -1      1479 1.30208E-03 4.56005E-04-9.69006E-17
 -1      1480 1.12482E-03 4.22593E-04-4.80437E-17
 -1      1481 9.91559E-04 3.61399E-04-6.12710E-17
 -1      1482 1.67863E-03 5.26473E-04-2.32263E-16
 -1      1483 1.48595E-03 4.89436E-04-1.57887E-16
 -1      1484 1.33461E-03 4.27138E-04-1.67726E-16
 -1      1485 2.09775E-03 6.33483E-04-4.20874E-16
 -1      1486 1.88191E-03 5.72288E-04-3.19894E-16
 -1      1487 1.69554E-03 4.98580E-04-3.24881E-16
 -1      1488 2.54598E-03 8.25752E-04-6.51429E-16
 -1      1489 2.31543E-03 7.13793E-04-5.29308E-16
 -1      1490 2.07571E-03 6.12378E-04-5.29429E-16
 -1      1491 2.98753E-03 1.13736E-03-9.04360E-16
 -1      1492 2.76286E-03 9.60038E-04-7.71627E-16
 -1      1493 2.46154E-03 8.11019E-04-7.65203E-16
 -1      1494 3.42097E-03 1.59215E-03-1.18544E-15
 -1      1495 3.20489E-03 1.34419E-03-1.03921E-15
 -1      1496 2.85355E-03 1.13400E-03-1.02576E-15
 -1      1497 4.19899E-03 2.61904E-03-1.81033E-15
 -1      1498 4.06157E-03 2.41232E-03-1.63464E-15
 -1      1499 4.42213E-03 2.83276E-03-2.17163E-15
 -1      1500 4.31447E-03 2.76018E-03-1.98591E-15
 -1      1501 4.17040E-03 2.66293E-03-1.95650E-15
 -1      1502 4.70033E-03 2.72458E-03-2.68141E-15
 -1      1503 4.55451E-03 2.82465E-03-2.41736E-15
 -1      1504 4.48829E-03 2.81565E-03-2.37934E-15
 -1      1505 5.08437E-03 2.33073E-03-3.29633E-15
 -1      1506 4.88103E-03 2.54321E-03-2.97959E-15
 -1      1507 4.86762E-03 2.58682E-03-2.92735E-15
 -1      1508 5.60504E-03 1.91380E-03-4.05703E-15
 -1      1509 5.33688E-03 2.10158E-03-3.66764E-15
 -1      1510 5.33161E-03 2.13652E-03-3.60009E-15
 -1      1511 6.16806E-03 1.71090E-03-4.93304E-15
 -1      1512 5.88920E-03 1.78174E-03-4.48697E-15
 -1      1513 5.85672E-03 1.77471E-03-4.40777E-15
 -1      1514 6.68290E-03 1.72132E-03-5.86955E-15
 -1      1515 6.43294E-03 1.69537E-03-5.39374E-15
 -1      1516 6.36676E-03 1.65429E-03-5.30366E-15
 -1      1517 7.13502E-03 1.85542E-03-6.86902E-15
 -1      1518 6.91659E-03 1.77769E-03-6.36190E-15
 -1      1519 6.82594E-03 1.71890E-03-6.26289E-15
 -1      1520 7.53333E-03 2.04761E-03-7.93395E-15
 -1      1521 7.34018E-03 1.94683E-03-7.39271E-15
 -1      1522 7.23614E-03 1.88136E-03-7.28467E-15
 -1      1523 7.87493E-03 2.25235E-03-9.00907E-15
 -1      1524 7.70797E-03 2.14838E-03-8.46340E-15
 -1      1525 7.59811E-03 2.08149E-03-8.34447E-15
 -1      1526 8.20802E-03 2.47610E-03-1.02076E-14
 -1      1527 8.04428E-03 2.36367E-03-9.60026E-15
 -1      1528 7.93239E-03 2.29733E-03-9.46897E-15
 -1      1529 8.52333E-03 2.70174E-03-1.14611E-14
 -1      1530 8.36746E-03 2.58890E-03-1.08282E-14
 -1      1531 8.25525E-03 2.52359E-03-1.06871E-14
 -1      1532 8.82739E-03 2.92679E-03-1.27704E-14
 -1      1533 8.67647E-03 2.81442E-03-1.21096E-14
 -1      1534 8.56463E-03 2.75013E-03-1.19613E-14
 -1      1535 9.12442E-03 3.15054E-03-1.41209E-14
 -1      1536 8.97659E-03 3.03885E-03-1.34396E-14
 -1      1537 8.86528E-03 2.97539E-03-1.32850E-14
 -1      1538 9.41710E-03 3.37294E-03-1.55183E-14
 -1      1539 9.27118E-03 3.26191E-03-1.48140E-14
 -1      1540 9.16039E-03 3.19905E-03-1.46556E-14
 -1      1541 9.70710E-03 3.59417E-03-1.69701E-14
 -1      1542 9.56236E-03 3.48369E-03-1.62366E-14
 -1      1543 9.45199E-03 3.42128E-03-1.60748E-14
 -1      1544 9.99543E-03 3.81448E-03-1.84765E-14
 -1      1545 9.85142E-03 3.70443E-03-1.77180E-14
 -1      1546 9.74138E-03 3.64233E-03-1.75471E-14
 -1      1547 1.02684E-02 4.02310E-03-1.99570E-14
 -1      1548 1.01320E-02 3.91886E-03-1.92099E-14
 -1      1549 1.00222E-02 3.85697E-03-1.90346E-14
 -1      1550 1.05551E-02 4.24216E-03-2.15752E-14
 -1      1551 1.04118E-02 4.13269E-03-2.07574E-14
 -1      1552 1.03022E-02 4.07096E-03-2.05725E-14
 -1      1553 1.08413E-02 4.46081E-03-2.32522E-14
 -1      1554 1.06982E-02 4.35153E-03-2.24064E-14
 -1      1555 1.05888E-02 4.28991E-03-2.22114E-14
 -1      1556 1.11274E-02 4.67915E-03-2.49858E-14
 -1      1557 1.09844E-02 4.57002E-03-2.41126E-14
 -1      1558 1.08750E-02 4.50847E-03-2.39107E-14
 -1      1559 1.14132E-02 4.89725E-03-2.67916E-14
 -1      1560 1.12703E-02 4.78822E-03-2.58792E-14
 -1      1561 1.11610E-02 4.72673E-03-2.56676E-14
 -1      1562 1.16990E-02 5.11516E-03-2.86580E-14
 -1      1563 1.15561E-02 5.00622E-03-2.77173E-14
 -1      1564 1.14469E-02 4.94477E-03-2.74895E-14
 -1      1565 1.19847E-02 5.33294E-03-3.05758E-14
 -1      1566 1.18419E-02 5.22406E-03-2.96114E-14
 -1      1567 1.17326E-02 5.16265E-03-2.93692E-14
 -1      1568 1.22704E-02 5.55061E-03-3.25468E-14
 -1      1569 1.21275E-02 5.44179E-03-3.15546E-14
 -1      1570 1.20184E-02 5.38039E-03-3.13044E-14
 -1      1571 1.25418E-02 5.75732E-03-3.44733E-14
 -1      1572 1.24061E-02 5.65397E-03-3.35031E-14
 -1      1573 1.22969E-02 5.59259E-03-3.32441E-14
 -1      1574 1.28274E-02 5.97485E-03-3.65618E-14
 -1      1575 1.26846E-02 5.86609E-03-3.55094E-14
 -1      1576 1.25754E-02 5.80472E-03-3.52394E-14
 -1      1577 1.31131E-02 6.19233E-03-3.87073E-14
 -1      1578 1.29702E-02 6.08359E-03-3.76281E-14
 -1      1579 1.28611E-02 6.02223E-03-3.73439E-14
 -1      1580 1.33987E-02 6.40977E-03-4.08996E-14
 -1      1581 1.32559E-02 6.30105E-03-3.97994E-14
 -1      1582 1.31468E-02 6.23970E-03-3.95002E-14
 -1      1583 1.36844E-02 6.62718E-03-4.31214E-14
 -1      1584 1.35416E-02 6.51848E-03-4.20075E-14
 -1      1585 1.34324E-02 6.45713E-03-4.16977E-14
 -1      1586 1.39701E-02 6.84458E-03-4.53792E-14
 -1      1587 1.38272E-02 6.73588E-03-4.42461E-14
 -1      1588 1.37181E-02 6.67454E-03-4.39273E-14
 -1      1589 1.42557E-02 7.06196E-03-4.76571E-14
 -1      1590 1.41129E-02 6.95327E-03-4.65153E-14
 -1      1591 1.40038E-02 6.89192E-03-4.61861E-14
 -1      1592 1.45414E-02 7.27932E-03-4.99491E-14
 -1      1593 1.43986E-02 7.17064E-03-4.88053E-14
 -1      1594 1.42895E-02 7.10930E-03-4.84670E-14
 -1      1595 1.48128E-02 7.48581E-03-5.21194E-14
 -1      1596 1.46771E-02 7.38257E-03-5.10318E-14
 -1      1597 1.45680E-02 7.32123E-03-5.06931E-14
 -1      1598 1.50985E-02 7.70317E-03-5.44173E-14
 -1      1599 1.49557E-02 7.59449E-03-5.32684E-14
 -1      1600 1.48466E-02 7.53315E-03-5.29259E-14
 -1      1601 1.53842E-02 7.92051E-03-5.67013E-14
 -1      1602 1.52414E-02 7.81184E-03-5.55608E-14
 -1      1603 1.51323E-02 7.75050E-03-5.52169E-14
 -1      1604 1.56699E-02 8.13786E-03-5.89784E-14
 -1      1605 1.55271E-02 8.02919E-03-5.78420E-14
 -1      1606 1.54180E-02 7.96785E-03-5.74998E-14
 -1      1607 1.59556E-02 8.35521E-03-6.12401E-14
 -1      1608 1.58128E-02 8.24654E-03-6.01129E-14
 -1      1609 1.57037E-02 8.18520E-03-5.97734E-14
 -1      1610 1.62413E-02 8.57256E-03-6.34674E-14
 -1      1611 1.60985E-02 8.46388E-03-6.23546E-14
 -1      1612 1.59894E-02 8.40254E-03-6.20216E-14
 -1      1613 1.65271E-02 8.78991E-03-6.56791E-14
 -1      1614 1.63842E-02 8.68123E-03-6.45775E-14
 -1      1615 1.62751E-02 8.61989E-03-6.42472E-14
 -1      1616 1.68128E-02 9.00726E-03-6.78819E-14
 -1      1617 1.66699E-02 8.89858E-03-6.67809E-14
 -1      1618 1.65608E-02 8.83724E-03-6.64612E-14
 -1      1619 1.70175E-02 9.17172E-03-6.96597E-14
 -1      1620 1.68817E-02 9.06848E-03-6.86206E-14
 -1      1621 1.67726E-02 9.00714E-03-6.83022E-14
 -1      1622 1.69106E-02 9.12958E-03-6.97809E-14
 -1      1623 1.66969E-02 9.04529E-03-7.00393E-14
 -1      1624 1.68037E-02 9.08743E-03-6.99070E-14
 -1      1625 1.67348E-02 9.02621E-03-6.91656E-14
 -1      1626 1.64831E-02 8.96100E-03-7.03105E-14
 -1      1627 1.65900E-02 9.00315E-03-7.01734E-14
 -1      1628 1.65210E-02 8.94193E-03-6.94262E-14
 -1      1629 1.62694E-02 8.87671E-03-7.05945E-14
 -1      1630 1.63763E-02 8.91886E-03-7.04518E-14
 -1      1631 1.63073E-02 8.85764E-03-6.96980E-14
 -1      1632 1.60557E-02 8.79242E-03-7.08975E-14
 -1      1633 1.61625E-02 8.83457E-03-7.07453E-14
 -1      1634 1.60936E-02 8.77335E-03-6.99837E-14
 -1      1635 1.58456E-02 8.70956E-03-7.11673E-14
 -1      1636 1.59506E-02 8.75099E-03-7.10362E-14
 -1      1637 1.58816E-02 8.68977E-03-7.02640E-14
 -1      1638 1.56318E-02 8.62527E-03-7.14288E-14
 -1      1639 1.57387E-02 8.66742E-03-7.12972E-14
 -1      1640 1.56697E-02 8.60620E-03-7.05276E-14
 -1      1641 1.54181E-02 8.54097E-03-7.16813E-14
 -1      1642 1.55250E-02 8.58312E-03-7.15555E-14
 -1      1643 1.54560E-02 8.52190E-03-7.07818E-14
 -1      1644 1.52044E-02 8.45668E-03-7.19307E-14
 -1      1645 1.53112E-02 8.49883E-03-7.18077E-14
 -1      1646 1.52423E-02 8.43761E-03-7.10332E-14
 -1      1647 1.49907E-02 8.37238E-03-7.21861E-14
 -1      1648 1.50975E-02 8.41453E-03-7.20588E-14
 -1      1649 1.50285E-02 8.35331E-03-7.12809E-14
 -1      1650 1.47769E-02 8.28809E-03-7.24344E-14
 -1      1651 1.48838E-02 8.33024E-03-7.23098E-14
 -1      1652 1.48148E-02 8.26902E-03-7.15292E-14
 -1      1653 1.45668E-02 8.20523E-03-7.27004E-14
 -1      1654 1.46719E-02 8.24666E-03-7.25678E-14
 -1      1655 1.46029E-02 8.18544E-03-7.17806E-14
 -1      1656 1.43531E-02 8.12094E-03-7.29392E-14
 -1      1657 1.44600E-02 8.16308E-03-7.28231E-14
 -1      1658 1.43910E-02 8.10186E-03-7.20324E-14
 -1      1659 1.41394E-02 8.03665E-03-7.31800E-14
 -1      1660 1.42463E-02 8.07879E-03-7.30572E-14
 -1      1661 1.41773E-02 8.01757E-03-7.22751E-14
 -1      1662 1.39257E-02 7.95236E-03-7.34397E-14
 -1      1663 1.40326E-02 7.99450E-03-7.33077E-14
 -1      1664 1.39636E-02 7.93329E-03-7.25258E-14
 -1      1665 6.69756E-03 1.31922E-03-4.75658E-15
 -1      1666 6.67345E-03 1.26974E-03-4.82830E-15
 -1      1667 6.62516E-03 1.44356E-03-4.53553E-15
 -1      1668 6.67995E-03 1.38298E-03-4.65329E-15
 -1      1669 6.41471E-03 1.62078E-03-4.21490E-15
 -1      1670 6.52740E-03 1.53786E-03-4.35317E-15
 -1      1671 6.09083E-03 1.84478E-03-3.88048E-15
 -1      1672 6.25328E-03 1.73297E-03-4.03869E-15
 -1      1673 5.60432E-03 2.14725E-03-3.49306E-15
 -1      1674 5.83533E-03 1.98722E-03-3.68866E-15
 -1      1675 5.08746E-03 2.48113E-03-3.07561E-15
 -1      1676 5.31941E-03 2.33606E-03-3.25857E-15
 -1      1677 4.62418E-03 2.66940E-03-2.71856E-15
 -1      1678 4.84077E-03 2.60568E-03-2.87457E-15
 -1      1679 4.11749E-03 2.65574E-03-2.37803E-15
 -1      1680 4.35683E-03 2.69453E-03-2.53218E-15
 -1      1681 3.57588E-03 2.38138E-03-2.06164E-15
 -1      1682 3.83363E-03 2.53893E-03-2.19659E-15
 -1      1683 2.99761E-03 1.96880E-03-1.83203E-15
 -1      1684 3.25274E-03 2.16442E-03-1.93346E-15
 -1      1685 2.43542E-03 1.50753E-03-1.62759E-15
 -1      1686 2.70641E-03 1.71183E-03-1.70839E-15
 -1      1687 1.93532E-03 1.19150E-03-1.52561E-15
 -1      1688 2.13399E-03 1.32802E-03-1.57028E-15
 -1      1689 1.58395E-03 9.40782E-04-1.45955E-15
 -1      1690 1.73456E-03 1.03857E-03-1.47843E-15
 -1      1691 1.37862E-03 7.99486E-04-1.47356E-15
 -1      1692 1.45035E-03 8.63302E-04-1.46699E-15
 -1      1693 1.32531E-03 6.79778E-04-1.51962E-15
 -1      1694 1.33109E-03 7.28495E-04-1.48706E-15
 -1      1695 1.41277E-03 5.80144E-04-1.63072E-15
 -1      1696 1.35739E-03 6.24482E-04-1.57807E-15
 -1      1697 1.62222E-03 4.76150E-04-1.77677E-15
 -1      1698 1.51075E-03 5.27334E-04-1.70100E-15
 -1      1699 1.91988E-03 3.48966E-04-1.97618E-15
 -1      1700 1.77224E-03 4.07597E-04-1.88068E-15
 -1      1701 2.28840E-03 2.12464E-04-2.22425E-15
 -1      1702 2.11024E-03 2.76576E-04-2.10201E-15
 -1      1703 2.72373E-03 8.12739E-05-2.53327E-15
 -1      1704 2.52189E-03 1.42025E-04-2.38015E-15
 -1      1705 3.14042E-03-3.72735E-06-2.87845E-15
 -1      1706 2.94825E-03 2.70767E-05-2.72059E-15
 -1      1707 3.56322E-03-1.91996E-05-3.24095E-15
 -1      1708 3.37077E-03-2.33907E-05-3.07228E-15
 -1      1709 4.00738E-03 6.15431E-05-3.61394E-15
 -1      1710 3.80058E-03 1.49051E-05-3.44012E-15
 -1      1711 4.49020E-03 2.30800E-04-4.00052E-15
 -1      1712 4.25909E-03 1.40763E-04-3.82553E-15
 -1      1713 4.99069E-03 4.48411E-04-4.32274E-15
 -1      1714 4.76501E-03 3.44879E-04-4.18123E-15
 -1      1715 5.49646E-03 7.01899E-04-4.62160E-15
 -1      1716 5.25383E-03 5.86685E-04-4.50013E-15
 -1      1717 5.96973E-03 9.01873E-04-4.78619E-15
 -1      1718 5.76906E-03 8.11294E-04-4.71560E-15
 -1      1719 6.34924E-03 1.07192E-03-4.87646E-15
 -1      1720 6.18480E-03 9.97839E-04-4.84666E-15
 -1      1721 6.59976E-03 1.20352E-03-4.86095E-15
 -1      1722 6.50224E-03 1.14751E-03-4.88240E-15
 -1      1723 3.01312E-04 1.50012E-04 1.35254E-17
 -1      1724 3.65995E-03 1.86269E-03-1.31961E-15
 -1      1725 3.29367E-03 1.60885E-03-1.30068E-15
 -1      1726 3.83530E-03 2.11747E-03-1.46828E-15
 -1      1727 6.56703E-03 1.44316E-03-4.59730E-15
 -1      1728 6.64772E-03 1.27198E-03-5.02980E-15
 -1      1729 6.69846E-03 1.34451E-03-4.89086E-15
 -1      1730 1.37107E-02 7.85625E-03-7.34270E-14
 -1      1731 1.38175E-02 7.89839E-03-7.32882E-14
 -1      1732 1.37486E-02 7.83718E-03-7.25042E-14
 -1      1733 6.29376E-03 1.61617E-03-4.23203E-15
 -1      1734 5.88265E-03 1.86377E-03-3.85591E-15
 -1      1735 5.38199E-03 2.20971E-03-3.41732E-15
 -1      1736 4.91593E-03 2.55665E-03-2.97269E-15
 -1      1737 4.47851E-03 2.72338E-03-2.58311E-15
 -1      1738 4.03562E-03 2.62908E-03-2.21909E-15
 -1      1739 3.53576E-03 2.26163E-03-1.92058E-15
 -1      1740 2.96529E-03 1.76370E-03-1.68066E-15
 -1      1741 2.39003E-03 1.32369E-03-1.51670E-15
 -1      1742 1.88547E-03 1.01157E-03-1.42229E-15
 -1      1743 1.53559E-03 8.30581E-04-1.39050E-15
 -1      1744 1.34785E-03 7.24326E-04-1.41290E-15
 -1      1745 1.33144E-03 6.55337E-04-1.48128E-15
 -1      1746 1.46638E-03 5.83618E-04-1.60395E-15
 -1      1747 1.72094E-03 4.87756E-04-1.76904E-15
 -1      1748 2.06105E-03 3.53855E-04-1.99045E-15
 -1      1749 2.46468E-03 1.99181E-04-2.26364E-15
 -1      1750 2.87628E-03 5.16349E-05-2.59826E-15
 -1      1751 3.27658E-03-3.72157E-05-2.97581E-15
 -1      1752 3.65886E-03-3.11619E-05-3.36897E-15
 -1      1753 4.07930E-03 8.80810E-05-3.78327E-15
 -1      1754 4.53824E-03 3.02568E-04-4.18339E-15
 -1      1755 5.04040E-03 5.73138E-04-4.54958E-15
 -1      1756 5.55718E-03 8.33013E-04-4.82946E-15
 -1      1757 6.04278E-03 1.03230E-03-4.98842E-15
 -1      1758 6.41779E-03 1.17445E-03-5.05639E-15
 -1      1759 2.84366E-04-1.83849E-04-4.20128E-17
 -1      1760 3.78608E-03 2.20316E-03-1.60679E-15
 -1      1761 3.37351E-04-1.25293E-04-9.83371E-17
 -1      1762 3.39382E-04-1.43148E-04-9.53149E-17
 -1      1763 3.43246E-04-1.63052E-04-9.06935E-17
 -1      1764 3.51223E-04-1.85312E-04-8.36733E-17
 -1      1765 4.61305E-04-2.01949E-04-1.39456E-16
 -1      1766 3.36302E-04-6.02695E-05-1.00140E-16
 -1      1767 3.36461E-04-7.59002E-05-1.00804E-16
 -1      1768 3.34743E-04-2.87111E-05-9.77950E-17
 -1      1769 3.35841E-04-4.43719E-05-9.91367E-17
 -1      1770 4.54638E-04-6.99325E-05-1.47357E-16
 -1      1771 3.30331E-04 1.61821E-06-9.44205E-17
 -1      1772 3.32948E-04-1.32766E-05-9.61823E-17
 -1      1773 4.51639E-04-2.89144E-05-1.43399E-16
 -1      1774 3.22624E-04 2.89777E-05-9.05715E-17
 -1      1775 3.26843E-04 1.58255E-05-9.26451E-17
 -1      1776 4.44203E-04 1.02039E-05-1.38385E-16
 -1      1777 3.12451E-04 5.11483E-05-8.60043E-17
 -1      1778 3.17674E-04 4.08631E-05-8.83760E-17
 -1      1779 4.31961E-04 4.51362E-05-1.32503E-16
 -1      1780 3.02223E-04 6.63535E-05-8.03665E-17
 -1      1781 3.07051E-04 5.96925E-05-8.34158E-17
 -1      1782 4.16522E-04 7.31208E-05-1.25456E-16
 -1      1783 2.95821E-04 7.44405E-05-7.32514E-17
 -1      1784 2.98227E-04 7.11575E-05-7.71003E-17
 -1      1785 4.02009E-04 9.20622E-05-1.16796E-16
 -1      1786 2.97293E-04 7.84617E-05-6.40492E-17
 -1      1787 2.95266E-04 7.66805E-05-6.90501E-17
 -1      1788 3.94193E-04 1.02708E-04-1.06049E-16
 -1      1789 3.10024E-04 8.43053E-05-5.20417E-17
 -1      1790 3.02153E-04 8.06860E-05-5.87367E-17
 -1      1791 3.99397E-04 1.09394E-04-9.24147E-17
 -1      1792 3.34982E-04 1.00659E-04-3.55347E-17
 -1      1793 3.21140E-04 9.06250E-05-4.45743E-17
 -1      1794 4.21968E-04 1.20432E-04-7.44169E-17
 -1      1795 3.72197E-04 1.37476E-04-1.33221E-17
 -1      1796 3.52059E-04 1.15994E-04-2.56956E-17
 -1      1797 4.62404E-04 1.46827E-04-5.03883E-17
 -1      1798 6.48776E-03 1.45049E-03-4.64891E-15
 -1      1799 6.59924E-03 1.39840E-03-4.83841E-15
 -1      1800 3.29541E-03 1.72344E-03-1.44551E-15
 -1      1801 3.05291E-03 1.44831E-03-1.30371E-15
 -1      1802 3.38460E-04-2.01159E-04-6.58382E-17
 -1      1803 3.60150E-04 1.55271E-04 2.95445E-18
 -1      1804 8.01632E-04-3.98236E-04-2.85877E-16
 -1      1805 9.44294E-04-4.43455E-04-3.94501E-16
 -1      1806 1.08375E-03-4.81860E-04-5.21948E-16
 -1      1807 1.22096E-03-5.13948E-04-6.68112E-16
 -1      1808 9.99689E-04-4.28020E-04-4.70435E-16
 -1      1809 1.35584E-03-5.40774E-04-8.33101E-16
 -1      1810 1.48865E-03-5.62270E-04-1.01729E-15
 -1      1811 1.28010E-03-4.92789E-04-7.63360E-16
 -1      1812 1.61960E-03-5.78807E-04-1.22049E-15
 -1      1813 1.74870E-03-5.90102E-04-1.44217E-15
 -1      1814 1.55338E-03-5.36661E-04-1.13067E-15
 -1      1815 1.87615E-03-5.96020E-04-1.68228E-15
 -1      1816 2.00198E-03-5.96127E-04-1.94136E-15
 -1      1817 1.82004E-03-5.60258E-04-1.57227E-15
 -1      1818 2.12633E-03-5.89997E-04-2.21982E-15
 -1      1819 2.24940E-03-5.77144E-04-2.51628E-15
 -1      1820 2.08054E-03-5.61525E-04-2.08812E-15
 -1      1821 2.37128E-03-5.57066E-04-2.83143E-15
 -1      1822 2.49238E-03-5.29354E-04-3.16533E-15
 -1      1823 2.33564E-03-5.36772E-04-2.67788E-15
 -1      1824 2.61276E-03-4.93643E-04-3.51688E-15
 -1      1825 2.73300E-03-4.49732E-04-3.88639E-15
 -1      1826 2.58672E-03-4.82005E-04-3.34058E-15
 -1      1827 2.85312E-03-3.97563E-04-4.27474E-15
 -1      1828 2.97380E-03-3.37223E-04-4.67965E-15
 -1      1829 2.83585E-03-3.94375E-04-4.07591E-15
 -1      1830 3.09502E-03-2.69033E-04-5.10175E-15
 -1      1831 3.21739E-03-1.93374E-04-5.54133E-15
 -1      1832 3.08556E-03-2.73363E-04-4.88153E-15
 -1      1833 3.34088E-03-1.10894E-04-5.99767E-15
 -1      1834 3.46590E-03-2.21911E-05-6.47075E-15
 -1      1835 3.33826E-03-1.21266E-04-5.75627E-15
 -1      1836 3.59245E-03 7.18890E-05-6.95925E-15
 -1      1837 3.72069E-03 1.70659E-04-7.46426E-15
 -1      1838 3.59577E-03 5.71693E-05-6.69723E-15
 -1      1839 3.85062E-03 2.73239E-04-7.98581E-15
 -1      1840 3.98218E-03 3.78972E-04-8.52285E-15
 -1      1841 3.85900E-03 2.55771E-04-7.70324E-15
 -1      1842 4.11537E-03 4.87081E-04-9.07409E-15
 -1      1843 4.25000E-03 5.97019E-04-9.64074E-15
 -1      1844 4.12796E-03 4.68162E-04-8.77279E-15
 -1      1845 4.38606E-03 7.08192E-04-1.02238E-14
 -1      1846 4.52328E-03 8.20194E-04-1.08210E-14
 -1      1847 4.40199E-03 6.88741E-04-9.90317E-15
 -1      1848 4.66167E-03 9.32632E-04-1.14326E-14
 -1      1849 4.80093E-03 1.04524E-03-1.20593E-14
 -1      1850 4.68012E-03 9.13218E-04-1.10935E-14
 -1      1851 4.94108E-03 1.15779E-03-1.27005E-14
 -1      1852 5.08183E-03 1.27014E-03-1.33556E-14
 -1      1853 4.96133E-03 1.13871E-03-1.23435E-14
 -1      1854 5.22323E-03 1.38219E-03-1.40250E-14
 -1      1855 5.36503E-03 1.49387E-03-1.47095E-14
 -1      1856 5.24467E-03 1.36355E-03-1.36521E-14
 -1      1857 5.50725E-03 1.60517E-03-1.54080E-14
 -1      1858 5.64971E-03 1.71606E-03-1.61202E-14
 -1      1859 5.52942E-03 1.58696E-03-1.50167E-14
 -1      1860 5.79244E-03 1.82659E-03-1.68485E-14
 -1      1861 5.93530E-03 1.93676E-03-1.75911E-14
 -1      1862 5.81501E-03 1.80875E-03-1.64414E-14
 -1      1863 6.07831E-03 2.04663E-03-1.83472E-14
 -1      1864 6.22138E-03 2.15620E-03-1.91179E-14
 -1      1865 6.10106E-03 2.02907E-03-1.79214E-14
 -1      1866 6.36452E-03 2.26554E-03-1.99029E-14
 -1      1867 6.50767E-03 2.37467E-03-2.07009E-14
 -1      1868 6.38732E-03 2.24819E-03-1.94592E-14
 -1      1869 6.65084E-03 2.48364E-03-2.15129E-14
 -1      1870 6.79401E-03 2.59247E-03-2.23379E-14
 -1      1871 6.67364E-03 2.46642E-03-2.10519E-14
 -1      1872 6.93716E-03 2.70119E-03-2.31754E-14
 -1      1873 7.08030E-03 2.80982E-03-2.40260E-14
 -1      1874 6.95992E-03 2.68405E-03-2.26993E-14
 -1      1875 7.22341E-03 2.91839E-03-2.48921E-14
 -1      1876 7.36650E-03 3.02691E-03-2.57723E-14
 -1      1877 7.24612E-03 2.90129E-03-2.43993E-14
 -1      1878 7.50956E-03 3.13540E-03-2.66669E-14
 -1      1879 7.65259E-03 3.24388E-03-2.75770E-14
 -1      1880 7.53223E-03 3.11832E-03-2.61545E-14
 -1      1881 7.79560E-03 3.35234E-03-2.85016E-14
 -1      1882 7.93859E-03 3.46080E-03-2.94405E-14
 -1      1883 7.81825E-03 3.33525E-03-2.79700E-14
 -1      1884 8.08156E-03 3.56927E-03-3.03924E-14
 -1      1885 8.22450E-03 3.67774E-03-3.13565E-14
 -1      1886 8.10418E-03 3.55216E-03-2.98393E-14
 -1      1887 8.36744E-03 3.78622E-03-3.23319E-14
 -1      1888 8.51035E-03 3.89472E-03-3.33177E-14
 -1      1889 8.39005E-03 3.76910E-03-3.17593E-14
 -1      1890 8.65325E-03 4.00323E-03-3.43139E-14
 -1      1891 8.79615E-03 4.11175E-03-3.53165E-14
 -1      1892 8.67587E-03 3.98609E-03-3.37245E-14
 -1      1893 8.93903E-03 4.22029E-03-3.63275E-14
 -1      1894 9.08190E-03 4.32884E-03-3.73464E-14
 -1      1895 8.96165E-03 4.20313E-03-3.57251E-14
 -1      1896 9.22477E-03 4.43741E-03-3.83699E-14
 -1      1897 9.36763E-03 4.54598E-03-3.93999E-14
 -1      1898 9.24740E-03 4.42023E-03-3.77558E-14
 -1      1899 9.51049E-03 4.65457E-03-4.04376E-14
 -1      1900 9.65334E-03 4.76317E-03-4.14814E-14
 -1      1901 9.53312E-03 4.63739E-03-3.98124E-14
 -1      1902 9.79619E-03 4.87178E-03-4.25310E-14
 -1      1903 9.93904E-03 4.98040E-03-4.35880E-14
 -1      1904 9.81884E-03 4.85458E-03-4.18977E-14
 -1      1905 1.00819E-02 5.08902E-03-4.46512E-14
 -1      1906 1.02247E-02 5.19766E-03-4.57203E-14
 -1      1907 1.01045E-02 5.07182E-03-4.40120E-14
 -1      1908 1.03676E-02 5.30630E-03-4.67943E-14
 -1      1909 1.05104E-02 5.41494E-03-4.78738E-14
 -1      1910 1.03902E-02 5.28909E-03-4.61487E-14
 -1      1911 1.06533E-02 5.52359E-03-4.89613E-14
 -1      1912 1.07961E-02 5.63225E-03-5.00539E-14
 -1      1913 1.06759E-02 5.50638E-03-4.83094E-14
 -1      1914 1.09390E-02 5.74090E-03-5.11518E-14
 -1      1915 1.10818E-02 5.84957E-03-5.22557E-14
 -1      1916 1.09616E-02 5.72369E-03-5.04910E-14
 -1      1917 1.12247E-02 5.95823E-03-5.33646E-14
 -1      1918 1.13675E-02 6.06689E-03-5.44783E-14
 -1      1919 1.12473E-02 5.94101E-03-5.26979E-14
 -1      1920 1.15104E-02 6.17556E-03-5.55980E-14
 -1      1921 1.16532E-02 6.28423E-03-5.67223E-14
 -1      1922 1.15330E-02 6.15834E-03-5.49258E-14
 -1      1923 1.17961E-02 6.39290E-03-5.78483E-14
 -1      1924 1.19389E-02 6.50157E-03-5.89764E-14
 -1      1925 1.18187E-02 6.37568E-03-5.71717E-14
 -1      1926 1.20818E-02 6.61024E-03-6.01119E-14
 -1      1927 1.22246E-02 6.71892E-03-6.12514E-14
 -1      1928 1.21044E-02 6.59302E-03-5.94337E-14
 -1      1929 1.23675E-02 6.82759E-03-6.23921E-14
 -1      1930 1.25103E-02 6.93626E-03-6.35389E-14
 -1      1931 1.23902E-02 6.81037E-03-6.17098E-14
 -1      1932 1.26532E-02 7.04493E-03-6.46893E-14
 -1      1933 1.27960E-02 7.15361E-03-6.58408E-14
 -1      1934 1.26759E-02 7.02771E-03-6.40004E-14
 -1      1935 1.29389E-02 7.26228E-03-6.69935E-14
 -1      1936 1.30818E-02 7.37095E-03-6.81484E-14
 -1      1937 1.29616E-02 7.24506E-03-6.63036E-14
 -1      1938 1.32246E-02 7.47962E-03-6.93036E-14
 -1      1939 1.33675E-02 7.58830E-03-7.04604E-14
 -1      1940 1.32473E-02 7.46240E-03-6.86093E-14
 -1      1941 5.08624E-03 2.39025E-03-3.21078E-15
 -1      1942 4.83965E-03 2.59900E-03-2.90818E-15
 -1      1943 1.34774E-03 4.03396E-04-2.43525E-16
 -1      1944 1.18370E-03 3.72330E-04-1.73296E-16
 -1      1945 1.02228E-03 3.39897E-04-1.15617E-16
 -1      1946 8.59619E-04 3.04298E-04-6.99717E-17
 -1      1947 1.04189E-03 3.22508E-04-1.74814E-16
 -1      1948 1.68121E-03 4.78655E-04-4.22324E-16
 -1      1949 1.51231E-03 4.37762E-04-3.25992E-16
 -1      1950 1.34213E-03 3.86326E-04-3.23905E-16
 -1      1951 2.01427E-03 5.99914E-04-6.41563E-16
 -1      1952 1.84465E-03 5.29922E-04-5.25567E-16
 -1      1953 1.63271E-03 4.64682E-04-5.18655E-16
 -1      1954 2.33993E-03 7.99752E-04-8.80589E-16
 -1      1955 2.17333E-03 6.84269E-04-7.55431E-16
 -1      1956 1.90742E-03 5.84895E-04-7.42936E-16
 -1      1957 4.11194E-03 2.65338E-03-2.09506E-15
 -1      1958 3.92444E-03 2.48567E-03-1.91663E-15
 -1      1959 6.07154E-03 1.65541E-03-4.72083E-15
 -1      1960 5.82719E-03 1.77155E-03-4.28844E-15
 -1      1961 6.52215E-03 1.60559E-03-5.63427E-15
 -1      1962 6.30535E-03 1.60604E-03-5.16953E-15
 -1      1963 6.27216E-03 1.56664E-03-5.03649E-15
 -1      1964 6.92509E-03 1.71036E-03-6.61184E-15
 -1      1965 6.72868E-03 1.64437E-03-6.11537E-15
 -1      1966 6.66137E-03 1.57798E-03-5.96810E-15
 -1      1967 7.29389E-03 1.89162E-03-7.65269E-15
 -1      1968 7.11271E-03 1.79474E-03-7.12420E-15
 -1      1969 7.01314E-03 1.71385E-03-6.96421E-15
 -1      1970 7.62089E-03 2.09418E-03-8.70243E-15
 -1      1971 7.45942E-03 1.99070E-03-8.17055E-15
 -1      1972 7.33732E-03 1.90330E-03-7.99613E-15
 -1      1973 7.94691E-03 2.31893E-03-9.87283E-15
 -1      1974 7.78556E-03 2.20582E-03-9.27879E-15
 -1      1975 7.64946E-03 2.11612E-03-9.09045E-15
 -1      1976 8.25957E-03 2.54654E-03-1.11042E-14
 -1      1977 8.10442E-03 2.43272E-03-1.04811E-14
 -1      1978 7.96017E-03 2.34271E-03-1.02759E-14
 -1      1979 8.56302E-03 2.77353E-03-1.23946E-14
 -1      1980 8.41211E-03 2.66026E-03-1.17436E-14
 -1      1981 8.26355E-03 2.57075E-03-1.15257E-14
 -1      1982 8.86030E-03 2.99886E-03-1.37344E-14
 -1      1983 8.71221E-03 2.88646E-03-1.30576E-14
 -1      1984 8.56149E-03 2.79765E-03-1.28306E-14
 -1      1985 9.15350E-03 3.22246E-03-1.51215E-14
 -1      1986 9.00727E-03 3.11089E-03-1.44216E-14
 -1      1987 8.85553E-03 3.02275E-03-1.41853E-14
 -1      1988 9.44405E-03 3.44457E-03-1.65591E-14
 -1      1989 9.29902E-03 3.33370E-03-1.58341E-14
 -1      1990 9.14686E-03 3.24610E-03-1.55904E-14
 -1      1991 9.73287E-03 3.66551E-03-1.80481E-14
 -1      1992 9.58862E-03 3.55518E-03-1.72963E-14
 -1      1993 9.43633E-03 3.46800E-03-1.70458E-14
 -1      1994 1.00062E-02 3.87456E-03-1.95128E-14
 -1      1995 9.86963E-03 3.77013E-03-1.87758E-14
 -1      1996 9.71734E-03 3.68325E-03-1.85138E-14
 -1      1997 1.02932E-02 4.09395E-03-2.11090E-14
 -1      1998 1.01498E-02 3.98434E-03-2.03028E-14
 -1      1999 9.99754E-03 3.89768E-03-2.00325E-14
 -1      2000 1.05797E-02 4.31284E-03-2.27640E-14
 -1      2001 1.04365E-02 4.20345E-03-2.19282E-14
 -1      2002 1.02844E-02 4.11697E-03-2.16450E-14
 -1      2003 1.08659E-02 4.53134E-03-2.44778E-14
 -1      2004 1.07229E-02 4.42213E-03-2.36144E-14
 -1      2005 1.05708E-02 4.33577E-03-2.33173E-14
 -1      2006 1.11519E-02 4.74956E-03-2.62505E-14
 -1      2007 1.10090E-02 4.64048E-03-2.53574E-14
 -1      2008 1.08569E-02 4.55421E-03-2.50478E-14
 -1      2009 1.14378E-02 4.96756E-03-2.80860E-14
 -1      2010 1.12949E-02 4.85859E-03-2.71601E-14
 -1      2011 1.11429E-02 4.77238E-03-2.68336E-14
 -1      2012 1.17236E-02 5.18541E-03-2.99752E-14
 -1      2013 1.15807E-02 5.07650E-03-2.90223E-14
 -1      2014 1.14288E-02 4.99035E-03-2.86792E-14
 -1      2015 1.20093E-02 5.40313E-03-3.19226E-14
 -1      2016 1.18665E-02 5.29428E-03-3.09435E-14
 -1      2017 1.17146E-02 5.20816E-03-3.05821E-14
 -1      2018 1.22808E-02 5.60987E-03-3.38264E-14
 -1      2019 1.21451E-02 5.50651E-03-3.28668E-14
 -1      2020 1.19932E-02 5.42042E-03-3.24930E-14
 -1      2021 1.25665E-02 5.82743E-03-3.58853E-14
 -1      2022 1.24236E-02 5.71866E-03-3.48492E-14
 -1      2023 1.22718E-02 5.63259E-03-3.44595E-14
 -1      2024 1.28521E-02 6.04493E-03-3.79988E-14
 -1      2025 1.27093E-02 5.93618E-03-3.69346E-14
 -1      2026 1.25575E-02 5.85013E-03-3.65303E-14
 -1      2027 1.31378E-02 6.26238E-03-4.01590E-14
 -1      2028 1.29950E-02 6.15366E-03-3.90737E-14
 -1      2029 1.28432E-02 6.06761E-03-3.86516E-14
 -1      2030 1.34235E-02 6.47981E-03-4.23580E-14
 -1      2031 1.32807E-02 6.37110E-03-4.12557E-14
 -1      2032 1.31289E-02 6.28506E-03-4.08164E-14
 -1      2033 1.37092E-02 6.69721E-03-4.45908E-14
 -1      2034 1.35663E-02 6.58851E-03-4.34698E-14
 -1      2035 1.34146E-02 6.50248E-03-4.30184E-14
 -1      2036 1.39949E-02 6.91459E-03-4.68459E-14
 -1      2037 1.38520E-02 6.80590E-03-4.57149E-14
 -1      2038 1.37002E-02 6.71987E-03-4.52478E-14
 -1      2039 1.42806E-02 7.13196E-03-4.91246E-14
 -1      2040 1.41377E-02 7.02328E-03-4.79837E-14
 -1      2041 1.39859E-02 6.93725E-03-4.75065E-14
 -1      2042 1.45520E-02 7.33845E-03-5.12914E-14
 -1      2043 1.44163E-02 7.23521E-03-5.02095E-14
 -1      2044 1.42645E-02 7.14918E-03-4.97225E-14
 -1      2045 1.48377E-02 7.55581E-03-5.35807E-14
 -1      2046 1.46948E-02 7.44713E-03-5.24336E-14
 -1      2047 1.45430E-02 7.36111E-03-5.19474E-14
 -1      2048 1.51234E-02 7.77316E-03-5.58667E-14
 -1      2049 1.49805E-02 7.66448E-03-5.47248E-14
 -1      2050 1.48287E-02 7.57846E-03-5.42318E-14
 -1      2051 1.54091E-02 7.99050E-03-5.81459E-14
 -1      2052 1.52662E-02 7.88183E-03-5.70062E-14
 -1      2053 1.51144E-02 7.79581E-03-5.65167E-14
 -1      2054 1.56948E-02 8.20785E-03-6.04156E-14
 -1      2055 1.55519E-02 8.09918E-03-5.92840E-14
 -1      2056 1.54001E-02 8.01316E-03-5.87940E-14
 -1      2057 1.59805E-02 8.42520E-03-6.26591E-14
 -1      2058 1.58376E-02 8.31652E-03-6.15397E-14
 -1      2059 1.56859E-02 8.23050E-03-6.10548E-14
 -1      2060 1.62662E-02 8.64255E-03-6.48880E-14
 -1      2061 1.61233E-02 8.53387E-03-6.37738E-14
 -1      2062 1.59716E-02 8.44785E-03-6.33016E-14
 -1      2063 1.65519E-02 8.85990E-03-6.70993E-14
 -1      2064 1.64090E-02 8.75122E-03-6.59949E-14
 -1      2065 1.62573E-02 8.66520E-03-6.55275E-14
 -1      2066 1.66778E-02 8.97366E-03-6.85061E-14
 -1      2067 1.66088E-02 8.91244E-03-6.77642E-14
 -1      2068 1.64571E-02 8.82642E-03-6.73037E-14
 -1      2069 1.65709E-02 8.93152E-03-6.86318E-14
 -1      2070 1.61301E-02 8.74245E-03-6.87979E-14
 -1      2071 1.62370E-02 8.78460E-03-6.86615E-14
 -1      2072 1.63505E-02 8.83699E-03-6.87121E-14
 -1      2073 1.64574E-02 8.87913E-03-6.85814E-14
 -1      2074 1.64005E-02 8.82658E-03-6.79168E-14
 -1      2075 1.61734E-02 8.72180E-03-6.78116E-14
 -1      2076 1.59164E-02 8.65816E-03-6.90769E-14
 -1      2077 1.60233E-02 8.70031E-03-6.89394E-14
 -1      2078 1.59530E-02 8.62727E-03-6.78952E-14
 -1      2079 1.57063E-02 8.57530E-03-6.93441E-14
 -1      2080 1.58114E-02 8.61673E-03-6.92131E-14
 -1      2081 1.57411E-02 8.54369E-03-6.81628E-14
 -1      2082 1.54926E-02 8.49101E-03-6.96048E-14
 -1      2083 1.55994E-02 8.53316E-03-6.94739E-14
 -1      2084 1.55292E-02 8.46012E-03-6.84249E-14
 -1      2085 1.52788E-02 8.40672E-03-6.98518E-14
 -1      2086 1.53857E-02 8.44886E-03-6.97291E-14
 -1      2087 1.53154E-02 8.37583E-03-6.86762E-14
 -1      2088 1.50651E-02 8.32242E-03-7.01010E-14
 -1      2089 1.51720E-02 8.36457E-03-6.99810E-14
 -1      2090 1.51017E-02 8.29153E-03-6.89248E-14
 -1      2091 1.48514E-02 8.23813E-03-7.03464E-14
 -1      2092 1.49583E-02 8.28028E-03-7.02219E-14
 -1      2093 1.48880E-02 8.20724E-03-6.91701E-14
 -1      2094 1.46377E-02 8.15384E-03-7.05866E-14
 -1      2095 1.47445E-02 8.19598E-03-7.04656E-14
 -1      2096 1.46742E-02 8.12295E-03-6.94054E-14
 -1      2097 1.44276E-02 8.07097E-03-7.08357E-14
 -1      2098 1.45326E-02 8.11241E-03-7.07092E-14
 -1      2099 1.44623E-02 8.03937E-03-6.96433E-14
 -1      2100 1.42139E-02 7.98668E-03-7.10825E-14
 -1      2101 1.43207E-02 8.02883E-03-7.09598E-14
 -1      2102 1.42504E-02 7.95579E-03-6.98881E-14
 -1      2103 1.40001E-02 7.90239E-03-7.13282E-14
 -1      2104 1.41070E-02 7.94454E-03-7.12053E-14
 -1      2105 1.40367E-02 7.87150E-03-7.01377E-14
 -1      2106 1.37864E-02 7.81811E-03-7.15892E-14
 -1      2107 1.38933E-02 7.86025E-03-7.14581E-14
 -1      2108 1.38230E-02 7.78721E-03-7.03901E-14
 -1      2109 6.19448E-03 1.61019E-03-4.28106E-15
 -1      2110 6.35736E-03 1.52055E-03-4.46409E-15
 -1      2111 6.41980E-03 1.46325E-03-4.70031E-15
 -1      2112 1.34926E-02 7.69437E-03-7.17536E-14
 -1      2113 6.68011E-03 1.31237E-03-5.22890E-15
 -1      2114 6.60723E-03 1.29145E-03-5.26263E-15
 -1      2115 4.66951E-03 2.72058E-03-2.70679E-15
 -1      2116 3.36368E-04-9.20005E-05-1.00668E-16
 -1      2117 3.36572E-04-1.08280E-04-9.98415E-17
 -1      2118 4.55608E-04-1.54679E-04-1.47126E-16
 -1      2119 4.54963E-04-1.11645E-04-1.48956E-16
 -1      2120 5.75618E-03 1.87880E-03-3.87032E-15
 -1      2121 5.98023E-03 1.73484E-03-4.07150E-15
 -1      2122 4.28379E-03 2.75820E-03-2.27181E-15
 -1      2123 2.88346E-03 1.52711E-03-1.50724E-15
 -1      2124 3.14623E-03 1.78254E-03-1.61546E-15
 -1      2125 2.30493E-03 1.13543E-03-1.39055E-15
 -1      2126 2.58523E-03 1.30608E-03-1.43525E-15
 -1      2127 1.85476E-03 8.77582E-04-1.31271E-15
 -1      2128 2.06700E-03 9.94893E-04-1.35112E-15
 -1      2129 2.23209E-03 9.93907E-04-1.27619E-15
 -1      2130 1.47402E-03 7.38347E-04-1.31621E-15
 -1      2131 1.61240E-03 7.79641E-04-1.30457E-15
 -1      2132 1.32862E-03 6.73893E-04-1.33909E-15
 -1      2133 1.38178E-03 7.00452E-04-1.32676E-15
 -1      2134 1.43016E-03 6.71343E-04-1.24215E-15
 -1      2135 1.34843E-03 6.35399E-04-1.43639E-15
 -1      2136 1.31529E-03 6.49223E-04-1.38248E-15
 -1      2137 1.50957E-03 5.85802E-04-1.55855E-15
 -1      2138 1.41232E-03 6.12823E-04-1.49575E-15
 -1      2139 1.37161E-03 6.15927E-04-1.39306E-15
 -1      2140 1.81982E-03 4.86352E-04-1.74350E-15
 -1      2141 1.66976E-03 5.37099E-04-1.64832E-15
 -1      2142 2.18245E-03 3.44914E-04-1.98101E-15
 -1      2143 2.00506E-03 4.16924E-04-1.86377E-15
 -1      2144 2.58161E-03 1.75243E-04-2.27292E-15
 -1      2145 2.38799E-03 2.59930E-04-2.12607E-15
 -1      2146 3.00768E-03 4.07489E-06-2.66697E-15
 -1      2147 2.83502E-03 7.26052E-05-2.48567E-15
 -1      2148 3.32806E-03-7.01310E-05-3.04064E-15
 -1      2149 3.17336E-03-4.11889E-05-2.85048E-15
 -1      2150 3.07203E-03-2.98014E-05-2.72793E-15
 -1      2151 3.72699E-03-3.21146E-05-3.52813E-15
 -1      2152 3.56289E-03-6.44977E-05-3.32617E-15
 -1      2153 4.09443E-03 1.19461E-04-3.95468E-15
 -1      2154 3.91034E-03 2.92538E-05-3.73814E-15
 -1      2155 3.78180E-03-8.61120E-06-3.69114E-15
 -1      2156 4.57585E-03 3.92864E-04-4.41506E-15
 -1      2157 4.35706E-03 2.62529E-04-4.22557E-15
 -1      2158 5.06247E-03 6.87531E-04-4.80509E-15
 -1      2159 4.82498E-03 5.40889E-04-4.61998E-15
 -1      2160 5.63684E-03 9.69196E-04-5.10004E-15
 -1      2161 5.38331E-03 8.56756E-04-4.99951E-15
 -1      2162 6.11327E-03 1.14412E-03-5.23180E-15
 -1      2163 5.89889E-03 1.06652E-03-5.16861E-15
 -1      2164 6.48082E-03 1.26034E-03-5.30539E-15
 -1      2165 6.32577E-03 1.22073E-03-5.29867E-15
 -1      2166 4.85220E-04 1.90582E-04-1.30646E-17
 -1      2167 6.68907E-03 1.35509E-03-5.05903E-15
 -1      2168 6.71274E-03 1.33804E-03-5.16787E-15
 -1      2169 1.35153E-02 7.67715E-03-7.10559E-14
 -1      2170 4.57086E-04-2.50880E-04-1.10575E-16
 -1      2171 5.31348E-03 2.16965E-03-3.52816E-15
 -1      2172 5.35205E-03 2.17504E-03-3.49362E-15
 -1      2173 5.57650E-03 1.98368E-03-3.74387E-15
 -1      2174 5.57059E-03 1.94233E-03-3.90454E-15
 -1      2175 5.71369E-03 1.85911E-03-3.95601E-15
 -1      2176 6.65353E-03 1.37325E-03-5.11303E-15
 -1      2177 6.70708E-03 1.34403E-03-5.40191E-15
 -1      2178 5.81955E-03 1.77255E-03-4.20241E-15
 -1      2179 6.05018E-04-3.16700E-04-1.75709E-16
 -1      2180 3.83206E-03 2.34737E-03-1.78088E-15
 -1      2181 3.56594E-03 2.03952E-03-1.60435E-15
 -1      2182 6.63012E-04-3.12854E-04-2.26734E-16
 -1      2183 6.87198E-04 2.32362E-04-6.94567E-17
 -1      2184 6.46286E-04 2.41710E-04-3.39897E-17
 -1      2185 3.70069E-03 2.34051E-03-1.90641E-15
 -1      2186 2.54066E-03 9.47049E-04-9.98415E-16
 -1      2187 2.21325E-03 7.87668E-04-9.79143E-16
 -1      2188 2.72341E-03 1.13371E-03-1.13688E-15
 -1      2189 6.08772E-03 1.63541E-03-4.29892E-15
 -1      2190 4.51452E-03 2.77512E-03-2.51654E-15
 -1      2191 1.31306E-03 6.37344E-04-1.29473E-15
 -1      2192 1.74933E-03 7.75289E-04-1.23681E-15
 -1      2193 1.36234E-02 7.73111E-03-7.12108E-14
 -1      2194 6.54360E-03 1.31346E-03-5.50665E-15
 -1      2195 6.21032E-03 1.23351E-03-5.48020E-15
 -1      2196 5.74281E-03 1.07191E-03-5.34100E-15
 -1      2197 5.18452E-03 8.10583E-04-5.06982E-15
 -1      2198 4.17638E-03 1.92620E-04-4.17561E-15
 -1      2199 3.41563E-03-8.23582E-05-3.18964E-15
 -1      2200 2.71493E-03 1.16565E-04-2.33702E-15
 -1      2201 2.28979E-03 3.08597E-04-1.99060E-15
 -1      2202 1.58221E-03 5.63871E-04-1.53479E-15
 -1      2203 1.35531E-02 7.65807E-03-7.01429E-14
 -1      2204 2.74829E-03 1.33349E-03-1.37681E-15
 -1      2205 3.44671E-03 2.10612E-03-1.78809E-15
 -1      2206 3.31412E-03 1.87152E-03-1.60185E-15
 -1      2207 1.91782E-03 4.57928E-04-1.73482E-15
 -1      2208 4.64534E-03 4.91819E-04-4.66193E-15
 -1      2209 5.70934E-04-2.49033E-05-2.02488E-16
 -1      2210 5.74143E-04-4.97128E-05-2.05646E-16
 -1      2211 5.75969E-04-7.49612E-05-2.08451E-16
 -1      2212 5.76732E-04-1.00327E-04-2.10579E-16
 -1      2213 6.99686E-04-7.52249E-05-2.81228E-16
 -1      2214 5.41743E-04 6.49080E-05-1.86496E-16
 -1      2215 5.51314E-04 4.47285E-05-1.91091E-16
 -1      2216 5.20114E-04 9.84031E-05-1.76020E-16
 -1      2217 5.30991E-04 8.29810E-05-1.81428E-16
 -1      2218 6.50897E-04 8.84415E-05-2.50220E-16
 -1      2219 5.01080E-04 1.20658E-04-1.63579E-16
 -1      2220 5.09708E-04 1.10902E-04-1.70166E-16
 -1      2221 6.22371E-04 1.26696E-04-2.35814E-16
 -1      2222 4.92664E-04 1.33556E-04-1.48061E-16
 -1      2223 4.94819E-04 1.28064E-04-1.56328E-16
 -1      2224 5.98511E-04 1.52036E-04-2.18575E-16
 -1      2225 5.03941E-04 1.42691E-04-1.28315E-16
 -1      2226 4.95413E-04 1.37932E-04-1.38737E-16
 -1      2227 5.91198E-04 1.66438E-04-1.97216E-16
 -1      2228 5.39784E-04 1.59040E-04-1.02782E-16
 -1      2229 5.18895E-04 1.49037E-04-1.16538E-16
 -1      2230 6.11729E-04 1.77758E-04-1.70206E-16
 -1      2231 6.22903E-04 2.00090E-04-7.99870E-17
 -1      2232 5.89755E-04 1.79230E-04-9.82016E-17
 -1      2233 6.85665E-04 2.04516E-04-1.49891E-16
 -1      2234 8.14217E-04 2.55292E-04-1.32368E-16
 -1      2235 2.69937E-03 1.21258E-03-1.26471E-15
 -1      2236 2.15735E-03 8.27820E-04-1.09239E-15
 -1      2237 1.99785E-03 7.00074E-04-9.70605E-16
 -1      2238 9.17804E-04-3.73625E-04-4.19518E-16
 -1      2239 1.06170E-03-4.10928E-04-5.47969E-16
 -1      2240 5.91962E-04-2.55598E-04-2.02881E-16
 -1      2241 7.84730E-04-3.28075E-04-3.20680E-16
 -1      2242 8.50722E-04-3.17098E-04-3.81666E-16
 -1      2243 5.86689E-04-2.25886E-04-2.09224E-16
 -1      2244 1.20433E-03-4.42941E-04-6.94648E-16
 -1      2245 1.34576E-03-4.69807E-04-8.59406E-16
 -1      2246 1.12879E-03-3.91981E-04-6.27238E-16
 -1      2247 1.48583E-03-4.91963E-04-1.04257E-15
 -1      2248 1.62450E-03-5.09210E-04-1.24447E-15
 -1      2249 1.41702E-03-4.45179E-04-9.56646E-16
 -1      2250 1.76177E-03-5.21584E-04-1.46440E-15
 -1      2251 1.89759E-03-5.28629E-04-1.70231E-15
 -1      2252 1.70133E-03-4.80222E-04-1.35823E-15
 -1      2253 2.03199E-03-5.30041E-04-1.95842E-15
 -1      2254 2.16503E-03-5.25198E-04-2.23351E-15
 -1      2255 1.98073E-03-4.95551E-04-1.83188E-15
 -1      2256 2.29671E-03-5.13616E-04-2.52646E-15
 -1      2257 2.42732E-03-4.94656E-04-2.83768E-15
 -1      2258 2.25474E-03-4.87443E-04-2.37756E-15
 -1      2259 2.55685E-03-4.67858E-04-3.16751E-15
 -1      2260 2.68581E-03-4.32759E-04-3.51466E-15
 -1      2261 2.52366E-03-4.50982E-04-2.99655E-15
 -1      2262 2.81421E-03-3.89132E-04-3.87998E-15
 -1      2263 2.94269E-03-3.36852E-04-4.26352E-15
 -1      2264 2.78892E-03-3.81648E-04-3.68766E-15
 -1      2265 3.07124E-03-2.76059E-04-4.66412E-15
 -1      2266 3.20052E-03-2.07039E-04-5.08212E-15
 -1      2267 3.05291E-03-2.77047E-04-4.44931E-15
 -1      2268 3.33050E-03-1.30309E-04-5.51718E-15
 -1      2269 3.46165E-03-4.64974E-05-5.96931E-15
 -1      2270 3.31839E-03-1.38063E-04-5.28103E-15
 -1      2271 3.59394E-03 4.36061E-05-6.43792E-15
 -1      2272 3.72759E-03 1.39192E-04-6.92243E-15
 -1      2273 3.58758E-03 3.10952E-05-6.18123E-15
 -1      2274 3.86254E-03 2.39371E-04-7.42341E-15
 -1      2275 3.99878E-03 3.43331E-04-7.94102E-15
 -1      2276 3.86164E-03 2.23939E-04-7.14716E-15
 -1      2277 4.13626E-03 4.50240E-04-8.47389E-15
 -1      2278 4.27480E-03 5.59418E-04-9.02136E-15
 -1      2279 4.14051E-03 4.33273E-04-8.17654E-15
 -1      2280 4.41437E-03 6.70194E-04-9.58409E-15
 -1      2281 4.55471E-03 7.82072E-04-1.01634E-14
 -1      2282 4.42328E-03 6.52577E-04-9.26905E-15
 -1      2283 4.69582E-03 8.94579E-04-1.07574E-14
 -1      2284 4.83742E-03 1.00740E-03-1.13654E-14
 -1      2285 4.70872E-03 8.76796E-04-1.04220E-14
 -1      2286 4.97956E-03 1.12025E-03-1.19881E-14
 -1      2287 5.12197E-03 1.23295E-03-1.26267E-14
 -1      2288 4.99567E-03 1.10252E-03-1.16358E-14
 -1      2289 5.26473E-03 1.34537E-03-1.32803E-14
 -1      2290 5.40761E-03 1.45742E-03-1.39474E-14
 -1      2291 5.28327E-03 1.32778E-03-1.29098E-14
 -1      2292 5.55070E-03 1.56907E-03-1.46287E-14
 -1      2293 5.69382E-03 1.68030E-03-1.53251E-14
 -1      2294 5.57097E-03 1.55162E-03-1.42422E-14
 -1      2295 5.83705E-03 1.79112E-03-1.60346E-14
 -1      2296 5.98027E-03 1.90156E-03-1.67592E-14
 -1      2297 5.85847E-03 1.77380E-03-1.56310E-14
 -1      2298 6.12354E-03 2.01164E-03-1.74998E-14
 -1      2299 6.26677E-03 2.12141E-03-1.82521E-14
 -1      2300 6.14566E-03 1.99441E-03-1.70779E-14
 -1      2301 6.41001E-03 2.23091E-03-1.90190E-14
 -1      2302 6.55322E-03 2.34017E-03-1.97995E-14
 -1      2303 6.43254E-03 2.21374E-03-1.85815E-14
 -1      2304 6.69641E-03 2.44924E-03-2.05946E-14
 -1      2305 6.83957E-03 2.55814E-03-2.14034E-14
 -1      2306 6.71913E-03 2.43212E-03-2.01397E-14
 -1      2307 6.98270E-03 2.66692E-03-2.22248E-14
 -1      2308 7.12580E-03 2.77559E-03-2.30605E-14
 -1      2309 7.00549E-03 2.64982E-03-2.17528E-14
 -1      2310 7.26888E-03 2.88419E-03-2.39084E-14
 -1      2311 7.41193E-03 2.99273E-03-2.47708E-14
 -1      2312 7.29168E-03 2.86710E-03-2.34203E-14
 -1      2313 7.55495E-03 3.10123E-03-2.56465E-14
 -1      2314 7.69796E-03 3.20970E-03-2.65367E-14
 -1      2315 7.57773E-03 3.08413E-03-2.51410E-14
 -1      2316 7.84094E-03 3.31815E-03-2.74404E-14
 -1      2317 7.98390E-03 3.42660E-03-2.83587E-14
 -1      2318 7.86368E-03 3.30105E-03-2.69160E-14
 -1      2319 8.12685E-03 3.53505E-03-2.92910E-14
 -1      2320 8.26978E-03 3.64351E-03-3.02356E-14
 -1      2321 8.14956E-03 3.51794E-03-2.87464E-14
 -1      2322 8.41270E-03 3.75198E-03-3.11921E-14
 -1      2323 8.55561E-03 3.86046E-03-3.21599E-14
 -1      2324 8.43539E-03 3.73485E-03-3.06292E-14
 -1      2325 8.69851E-03 3.96895E-03-3.31388E-14
 -1      2326 8.84140E-03 4.07745E-03-3.41280E-14
 -1      2327 8.72118E-03 3.95180E-03-3.25582E-14
 -1      2328 8.98428E-03 4.18597E-03-3.51257E-14
 -1      2329 9.12716E-03 4.29451E-03-3.61307E-14
 -1      2330 9.00694E-03 4.16881E-03-3.45295E-14
 -1      2331 9.27003E-03 4.40306E-03-3.71444E-14
 -1      2332 9.41290E-03 4.51163E-03-3.81638E-14
 -1      2333 9.29268E-03 4.38589E-03-3.65361E-14
 -1      2334 9.55576E-03 4.62020E-03-3.91905E-14
 -1      2335 9.69862E-03 4.72879E-03-4.02249E-14
 -1      2336 9.57841E-03 4.60302E-03-3.85716E-14
 -1      2337 9.84148E-03 4.83739E-03-4.12666E-14
 -1      2338 9.98434E-03 4.94600E-03-4.23148E-14
 -1      2339 9.86413E-03 4.82020E-03-4.06361E-14
 -1      2340 1.01272E-02 5.05462E-03-4.33719E-14
 -1      2341 1.02700E-02 5.16325E-03-4.44348E-14
 -1      2342 1.01498E-02 5.03742E-03-4.27333E-14
 -1      2343 1.04129E-02 5.27188E-03-4.55028E-14
 -1      2344 1.05557E-02 5.38052E-03-4.65763E-14
 -1      2345 1.04356E-02 5.25467E-03-4.48587E-14
 -1      2346 1.06986E-02 5.48917E-03-4.76559E-14
 -1      2347 1.08415E-02 5.59782E-03-4.87411E-14
 -1      2348 1.07213E-02 5.47195E-03-4.70050E-14
 -1      2349 1.09843E-02 5.70647E-03-4.98340E-14
 -1      2350 1.11272E-02 5.81513E-03-5.09315E-14
 -1      2351 1.10070E-02 5.68926E-03-4.91749E-14
 -1      2352 1.12700E-02 5.92379E-03-5.20328E-14
 -1      2353 1.14129E-02 6.03245E-03-5.31398E-14
 -1      2354 1.12927E-02 5.90657E-03-5.13700E-14
 -1      2355 1.15557E-02 6.14112E-03-5.42529E-14
 -1      2356 1.16986E-02 6.24979E-03-5.53736E-14
 -1      2357 1.15784E-02 6.12390E-03-5.35840E-14
 -1      2358 1.18414E-02 6.35846E-03-5.64965E-14
 -1      2359 1.19843E-02 6.46713E-03-5.76250E-14
 -1      2360 1.18641E-02 6.34124E-03-5.58227E-14
 -1      2361 1.21271E-02 6.57580E-03-5.87540E-14
 -1      2362 1.22700E-02 6.68447E-03-5.98891E-14
 -1      2363 1.21498E-02 6.55858E-03-5.80767E-14
 -1      2364 1.24128E-02 6.79314E-03-6.10287E-14
 -1      2365 1.25557E-02 6.90182E-03-6.21678E-14
 -1      2366 1.24355E-02 6.77592E-03-6.03448E-14
 -1      2367 1.26985E-02 7.01049E-03-6.33138E-14
 -1      2368 1.28414E-02 7.11916E-03-6.44619E-14
 -1      2369 1.27212E-02 6.99327E-03-6.26280E-14
 -1      2370 1.29843E-02 7.22784E-03-6.56105E-14
 -1      2371 1.31271E-02 7.33651E-03-6.67620E-14
 -1      2372 1.30069E-02 7.21061E-03-6.49206E-14
 -1      2373 1.32687E-02 7.44295E-03-6.78746E-14
 -1      2374 1.34116E-02 7.55163E-03-6.90290E-14
 -1      2375 1.35746E-02 7.63862E-03-6.94060E-14
 -1      2376 1.32914E-02 7.42573E-03-6.71822E-14
 -1      2377 1.33036E-03 3.80651E-04-4.06196E-16
 -1      2378 1.19527E-03 3.46938E-04-3.14988E-16
 -1      2379 1.83925E-03 5.95169E-04-8.41924E-16
 -1      2380 1.72404E-03 5.25724E-04-7.23610E-16
 -1      2381 1.99403E-03 4.20242E-04-1.71208E-15
 -1      2382 1.82781E-03 4.78264E-04-1.60103E-15
 -1      2383 6.60531E-03 1.39094E-03-5.16929E-15
 -1      2384 6.69594E-03 1.37391E-03-5.39694E-15
 -1      2385 5.95708E-03 1.68328E-03-4.33667E-15
 -1      2386 6.45099E-03 1.50601E-03-5.34836E-15
 -1      2387 6.26816E-03 1.53706E-03-4.89726E-15
 -1      2388 7.37233E-03 1.92009E-03-8.37148E-15
 -1      2389 7.23078E-03 1.82042E-03-7.85256E-15
 -1      2390 7.66883E-03 2.14030E-03-9.51116E-15
 -1      2391 7.52013E-03 2.02866E-03-8.93311E-15
 -1      2392 7.40323E-03 1.94737E-03-8.77483E-15
 -1      2393 7.96443E-03 2.36669E-03-1.07141E-14
 -1      2394 7.81646E-03 2.25307E-03-1.01059E-14
 -1      2395 7.68126E-03 2.16742E-03-9.93387E-15
 -1      2396 8.25842E-03 2.59392E-03-1.19829E-14
 -1      2397 8.11144E-03 2.48034E-03-1.13414E-14
 -1      2398 7.96496E-03 2.39239E-03-1.11570E-14
 -1      2399 8.55063E-03 2.82002E-03-1.33026E-14
 -1      2400 8.40462E-03 2.70717E-03-1.26352E-14
 -1      2401 8.25140E-03 2.61815E-03-1.24404E-14
 -1      2402 8.84122E-03 3.04447E-03-1.46749E-14
 -1      2403 8.69604E-03 2.93246E-03-1.39827E-14
 -1      2404 8.53888E-03 2.84303E-03-1.37773E-14
 -1      2405 9.13049E-03 3.26733E-03-1.60999E-14
 -1      2406 8.98596E-03 3.15609E-03-1.53814E-14
 -1      2407 8.82654E-03 3.06658E-03-1.51680E-14
 -1      2408 9.41874E-03 3.48888E-03-1.75727E-14
 -1      2409 9.27470E-03 3.37826E-03-1.68301E-14
 -1      2410 9.11400E-03 3.28880E-03-1.66107E-14
 -1      2411 9.69187E-03 3.69838E-03-1.90204E-14
 -1      2412 9.55536E-03 3.59374E-03-1.82898E-14
 -1      2413 9.39397E-03 3.50439E-03-1.80644E-14
 -1      2414 9.97883E-03 3.91814E-03-2.05961E-14
 -1      2415 9.83540E-03 3.80835E-03-1.98016E-14
 -1      2416 9.67363E-03 3.71911E-03-1.95663E-14
 -1      2417 1.02654E-02 4.13729E-03-2.22253E-14
 -1      2418 1.01222E-02 4.02779E-03-2.14028E-14
 -1      2419 9.96019E-03 3.93865E-03-2.11585E-14
 -1      2420 1.05517E-02 4.35600E-03-2.39143E-14
 -1      2421 1.04086E-02 4.24670E-03-2.30632E-14
 -1      2422 1.02465E-02 4.15765E-03-2.28069E-14
 -1      2423 1.08378E-02 4.57437E-03-2.56593E-14
 -1      2424 1.06947E-02 4.46523E-03-2.47811E-14
 -1      2425 1.05327E-02 4.37625E-03-2.45131E-14
 -1      2426 1.11237E-02 4.79249E-03-2.74631E-14
 -1      2427 1.09808E-02 4.68346E-03-2.65535E-14
 -1      2428 1.08187E-02 4.59454E-03-2.62734E-14
 -1      2429 1.14096E-02 5.01042E-03-2.93192E-14
 -1      2430 1.12667E-02 4.90148E-03-2.83844E-14
 -1      2431 1.11046E-02 4.81260E-03-2.80896E-14
 -1      2432 1.16954E-02 5.22820E-03-3.12365E-14
 -1      2433 1.15525E-02 5.11933E-03-3.02708E-14
 -1      2434 1.13904E-02 5.03049E-03-2.99611E-14
 -1      2435 1.19669E-02 5.43499E-03-3.31115E-14
 -1      2436 1.18311E-02 5.33161E-03-3.21678E-14
 -1      2437 1.16691E-02 5.24280E-03-3.18417E-14
 -1      2438 1.22526E-02 5.65258E-03-3.51421E-14
 -1      2439 1.21097E-02 5.54380E-03-3.41198E-14
 -1      2440 1.19477E-02 5.45501E-03-3.37806E-14
 -1      2441 1.25383E-02 5.87011E-03-3.72229E-14
 -1      2442 1.23954E-02 5.76135E-03-3.61761E-14
 -1      2443 1.22334E-02 5.67258E-03-3.58235E-14
 -1      2444 1.28240E-02 6.08759E-03-3.93486E-14
 -1      2445 1.26812E-02 5.97885E-03-3.82800E-14
 -1      2446 1.25191E-02 5.89009E-03-3.79129E-14
 -1      2447 1.31097E-02 6.30503E-03-4.15157E-14
 -1      2448 1.29669E-02 6.19631E-03-4.04273E-14
 -1      2449 1.28048E-02 6.10756E-03-4.00420E-14
 -1      2450 1.33954E-02 6.52244E-03-4.37187E-14
 -1      2451 1.32526E-02 6.41373E-03-4.26146E-14
 -1      2452 1.30906E-02 6.32499E-03-4.22111E-14
 -1      2453 1.36811E-02 6.73983E-03-4.59493E-14
 -1      2454 1.35382E-02 6.63113E-03-4.48315E-14
 -1      2455 1.33763E-02 6.54239E-03-4.44157E-14
 -1      2456 1.39668E-02 6.95720E-03-4.82055E-14
 -1      2457 1.38239E-02 6.84851E-03-4.70744E-14
 -1      2458 1.36620E-02 6.75977E-03-4.66482E-14
 -1      2459 1.42382E-02 7.16370E-03-5.03633E-14
 -1      2460 1.41025E-02 7.06045E-03-4.92822E-14
 -1      2461 1.39405E-02 6.97171E-03-4.88453E-14
 -1      2462 1.45239E-02 7.38105E-03-5.26442E-14
 -1      2463 1.43811E-02 7.27237E-03-5.15047E-14
 -1      2464 1.42191E-02 7.18364E-03-5.10604E-14
 -1      2465 1.48096E-02 7.59840E-03-5.49279E-14
 -1      2466 1.46668E-02 7.48973E-03-5.37858E-14
 -1      2467 1.45048E-02 7.40099E-03-5.33429E-14
 -1      2468 1.50953E-02 7.81575E-03-5.72092E-14
 -1      2469 1.49525E-02 7.70708E-03-5.60717E-14
 -1      2470 1.47905E-02 7.61834E-03-5.56265E-14
 -1      2471 1.53810E-02 8.03310E-03-5.94851E-14
 -1      2472 1.52382E-02 7.92442E-03-5.83480E-14
 -1      2473 1.50762E-02 7.83569E-03-5.79051E-14
 -1      2474 1.56667E-02 8.25044E-03-6.17437E-14
 -1      2475 1.55239E-02 8.14177E-03-6.06175E-14
 -1      2476 1.53619E-02 8.05304E-03-6.01758E-14
 -1      2477 1.59525E-02 8.46779E-03-6.39874E-14
 -1      2478 1.58096E-02 8.35912E-03-6.28669E-14
 -1      2479 1.56476E-02 8.27038E-03-6.24344E-14
 -1      2480 1.63435E-02 8.77403E-03-6.72512E-14
 -1      2481 1.62866E-02 8.72149E-03-6.65806E-14
 -1      2482 1.62300E-02 8.72164E-03-6.71974E-14
 -1      2483 1.55648E-02 8.42887E-03-6.72463E-14
 -1      2484 1.56699E-02 8.47030E-03-6.71182E-14
 -1      2485 1.53511E-02 8.34457E-03-6.75037E-14
 -1      2486 1.54580E-02 8.38672E-03-6.73777E-14
 -1      2487 1.53868E-02 8.31332E-03-6.63305E-14
 -1      2488 1.57768E-02 8.51244E-03-6.69882E-14
 -1      2489 1.58836E-02 8.55459E-03-6.68566E-14
 -1      2490 1.56005E-02 8.39761E-03-6.60756E-14
 -1      2491 1.51374E-02 8.26028E-03-6.77501E-14
 -1      2492 1.52442E-02 8.30243E-03-6.76275E-14
 -1      2493 1.51730E-02 8.22903E-03-6.65803E-14
 -1      2494 1.49236E-02 8.17599E-03-6.79961E-14
 -1      2495 1.50305E-02 8.21814E-03-6.78725E-14
 -1      2496 1.49593E-02 8.14474E-03-6.68247E-14
 -1      2497 1.47099E-02 8.09170E-03-6.82322E-14
 -1      2498 1.48168E-02 8.13384E-03-6.81156E-14
 -1      2499 1.47456E-02 8.06045E-03-6.70638E-14
 -1      2500 1.44962E-02 8.00741E-03-6.84661E-14
 -1      2501 1.46031E-02 8.04955E-03-6.83510E-14
 -1      2502 1.45319E-02 7.97616E-03-6.72974E-14
 -1      2503 1.42861E-02 7.92454E-03-6.87023E-14
 -1      2504 1.43911E-02 7.96597E-03-6.85822E-14
 -1      2505 1.43200E-02 7.89258E-03-6.75279E-14
 -1      2506 1.40724E-02 7.84025E-03-6.89480E-14
 -1      2507 1.41792E-02 7.88240E-03-6.88230E-14
 -1      2508 1.41081E-02 7.80900E-03-6.77631E-14
 -1      2509 1.38587E-02 7.75596E-03-6.91943E-14
 -1      2510 1.39655E-02 7.79811E-03-6.90716E-14
 -1      2511 1.38943E-02 7.72471E-03-6.80066E-14
 -1      2512 1.36632E-02 7.67622E-03-6.93665E-14
 -1      2513 1.37700E-02 7.71837E-03-6.92363E-14
 -1      2514 1.36989E-02 7.64497E-03-6.81733E-14
 -1      2515 1.35216E-02 7.56978E-03-6.82549E-14
 -1      2516 6.39651E-03 1.46439E-03-4.78509E-15
 -1      2517 6.51523E-03 1.41871E-03-4.97626E-15
 -1      2518 6.59319E-03 1.40257E-03-5.25771E-15
 -1      2519 6.28874E-03 1.30310E-03-5.75678E-15
 -1      2520 6.08527E-03 1.24546E-03-5.68590E-15
 -1      2521 2.76896E-03 7.06118E-05-2.36256E-15
 -1      2522 2.56609E-03 1.71272E-04-2.16035E-15
 -1      2523 7.08309E-03 1.72278E-03-7.32132E-15
 -1      2524 6.93346E-03 1.63503E-03-6.80636E-15
 -1      2525 7.13481E-03 1.74111E-03-7.68095E-15
 -1      2526 6.78372E-03 1.56306E-03-6.30991E-15
 -1      2527 6.62897E-03 1.51362E-03-5.82707E-15
 -1      2528 6.87830E-03 1.56621E-03-6.65170E-15
 -1      2529 1.07700E-03 3.18358E-04-2.48377E-16
 -1      2530 9.36223E-04 2.85796E-04-1.79991E-16
 -1      2531 8.60046E-04 2.57865E-04-1.91985E-16
 -1      2532 1.08224E-03 3.16500E-04-3.16357E-16
 -1      2533 1.57691E-03 4.63232E-04-6.15163E-16
 -1      2534 1.45420E-03 4.18342E-04-5.04547E-16
 -1      2535 1.30041E-03 3.81129E-04-4.87932E-16
 -1      2536 5.59583E-04 2.26846E-05-1.95251E-16
 -1      2537 5.66083E-04-5.97538E-07-1.99100E-16
 -1      2538 6.91920E-04-1.65164E-05-2.72839E-16
 -1      2539 6.75575E-04 3.92431E-05-2.62553E-16
 -1      2540 1.30297E-03 6.04447E-04-1.22956E-15
 -1      2541 1.31962E-03 6.05557E-04-1.18937E-15
 -1      2542 1.72706E-03 7.14168E-04-1.15720E-15
 -1      2543 1.97446E-03 7.97529E-04-1.15937E-15
 -1      2544 1.39004E-03 6.13405E-04-1.15067E-15
 -1      2545 1.48064E-03 6.28764E-04-1.13929E-15
 -1      2546 1.39593E-03 5.93596E-04-1.33945E-15
 -1      2547 1.33711E-03 5.98322E-04-1.28523E-15
 -1      2548 4.70083E-03 5.91057E-04-4.96733E-15
 -1      2549 4.48959E-03 4.47442E-04-4.75360E-15
 -1      2550 1.65062E-03 5.35180E-04-1.49921E-15
 -1      2551 1.50595E-03 5.71434E-04-1.41789E-15
 -1      2552 1.44113E-03 5.61320E-04-1.30642E-15
 -1      2553 2.36193E-03 2.65189E-04-1.98599E-15
 -1      2554 2.18557E-03 3.44059E-04-1.85001E-15
 -1      2555 3.11365E-03-6.05396E-05-2.80093E-15
 -1      2556 2.98400E-03-1.81316E-05-2.62141E-15
 -1      2557 3.50159E-03-8.14561E-05-3.37786E-15
 -1      2558 3.31446E-03-8.86766E-05-3.09095E-15
 -1      2559 3.83272E-03 2.62356E-05-3.86599E-15
 -1      2560 3.68911E-03-3.53541E-05-3.65211E-15
 -1      2561 4.24285E-03 2.75666E-04-4.43176E-15
 -1      2562 4.02781E-03 1.34369E-04-4.15296E-15
 -1      2563 5.29394E-03 9.29717E-04-5.38847E-15
 -1      2564 5.00531E-03 7.68782E-04-5.18512E-15
 -1      2565 5.86680E-03 1.17135E-03-5.61224E-15
 -1      2566 5.62927E-03 1.08184E-03-5.53897E-15
 -1      2567 5.97947E-03 1.24819E-03-5.88842E-15
 -1      2568 6.72981E-03 1.37270E-03-5.66471E-15
 -1      2569 6.69168E-03 1.37171E-03-5.72908E-15
 -1      2570 6.60639E-03 1.35471E-03-5.71660E-15
 -1      2571 6.48674E-03 1.34354E-03-5.75998E-15
 -1      2572 6.14449E-03 1.57921E-03-4.55650E-15
 -1      2573 7.01273E-04-1.34724E-04-2.86595E-16
 -1      2574 5.76803E-04-1.25869E-04-2.11636E-16
 -1      2575 5.76720E-04-1.51546E-04-2.11812E-16
 -1      2576 1.53013E-03 4.71390E-04-7.02414E-16
 -1      2577 5.83883E-04-1.98072E-04-2.12761E-16
 -1      2578 2.21289E-03 9.03411E-04-1.17376E-15
 -1      2579 2.06400E-03 3.67881E-04-1.70750E-15
 -1      2580 1.79062E-03 6.18969E-04-9.44272E-16
 -1      2581 1.71747E-03 4.92261E-04-1.47824E-15
 -1      2582 6.73174E-03 1.40326E-03-5.78319E-15
 -1      2583 6.73916E-03 1.38754E-03-5.72404E-15
 -1      2584 6.76103E-03 1.41835E-03-6.05847E-15
 -1      2585 6.61307E-03 1.46565E-03-5.67469E-15
 -1      2586 1.61437E-02 8.61281E-03-6.54685E-14
 -1      2587 1.59818E-02 8.52408E-03-6.50452E-14
 -1      2588 1.58174E-02 8.48372E-03-6.58326E-14
 -1      2589 1.59936E-02 8.59854E-03-6.67387E-14
 -1      2590 1.61072E-02 8.65093E-03-6.67942E-14
 -1      2591 2.82721E-03 2.32020E-05-2.42956E-15
 -1      2592 6.39053E-03 1.35352E-03-5.96926E-15
 -1      2593 6.66439E-03 1.39658E-03-5.98574E-15
 -1      2594 2.43487E-03 2.04897E-04-2.00946E-15
 -1      2595 5.44682E-03 1.03774E-03-5.65706E-15
 -1      2596 5.28795E-03 9.86882E-04-5.77342E-15
 -1      2597 5.59248E-03 1.12994E-03-5.93134E-15
 -1      2598 4.33013E-03 3.68505E-04-4.72558E-15
 -1      2599 3.91932E-03 9.14985E-05-4.10915E-15
 -1      2600 3.56379E-03-6.41915E-05-3.54296E-15
 -1      2601 3.20798E-03-8.78316E-05-2.97383E-15
 -1      2602 4.83926E-03 7.09263E-04-5.27851E-15
 -1      2603 1.33936E-03 5.72749E-04-1.08895E-15
 -1      2604 2.43863E-03 1.02848E-03-1.20496E-15
 -1      2605 1.30175E-03 5.75869E-04-1.17920E-15
 -1      2606 6.35991E-03 1.47868E-03-4.85361E-15
 -1      2607 7.22890E-04 1.59028E-04-3.04024E-16
 -1      2608 7.40836E-04 1.39593E-04-3.14039E-16
 -1      2609 7.59659E-04 1.15967E-04-3.23309E-16
 -1      2610 7.77018E-04 8.92395E-05-3.31996E-16
 -1      2611 8.66609E-04 1.47453E-04-4.05071E-16
 -1      2612 6.89429E-04 2.01489E-04-2.52700E-16
 -1      2613 6.87580E-04 1.95089E-04-2.67866E-16
 -1      2614 7.22566E-04 2.13808E-04-2.17694E-16
 -1      2615 7.00886E-04 2.06720E-04-2.36180E-16
 -1      2616 7.87786E-04 2.37465E-04-3.14486E-16
 -1      2617 8.13982E-04 2.42468E-04-2.03573E-16
 -1      2618 7.55052E-04 2.23486E-04-2.09834E-16
 -1      2619 8.37246E-04 2.50941E-04-2.85105E-16
 -1      2620 9.20723E-04 2.72726E-04-2.63380E-16
 -1      2621 7.68306E-03 2.19463E-03-1.03416E-14
 -1      2622 7.54870E-03 2.08463E-03-9.74603E-15
 -1      2623 8.04927E-04-2.71819E-04-3.54886E-16
 -1      2624 9.38108E-04-3.11647E-04-4.58916E-16
 -1      2625 7.95804E-03 2.41695E-03-1.15836E-14
 -1      2626 7.81941E-03 2.30532E-03-1.09544E-14
 -1      2627 7.67794E-03 2.22236E-03-1.07527E-14
 -1      2628 1.34731E-03-3.96873E-04-8.72715E-16
 -1      2629 1.49345E-03-4.18686E-04-1.05481E-15
 -1      2630 1.63891E-03-4.36406E-04-1.25435E-15
 -1      2631 1.78344E-03-4.49626E-04-1.47224E-15
 -1      2632 1.57436E-03-3.90502E-04-1.15360E-15
 -1      2633 1.92687E-03-4.58118E-04-1.70811E-15
 -1      2634 2.06905E-03-4.61163E-04-1.96097E-15
 -1      2635 1.87019E-03-4.17773E-04-1.58647E-15
 -1      2636 2.20984E-03-4.58289E-04-2.23240E-15
 -1      2637 2.34930E-03-4.48589E-04-2.52165E-15
 -1      2638 2.16187E-03-4.25863E-04-2.09006E-15
 -1      2639 2.48735E-03-4.31501E-04-2.82881E-15
 -1      2640 2.62436E-03-4.06181E-04-3.15439E-15
 -1      2641 2.44799E-03-4.08930E-04-2.66462E-15
 -1      2642 2.76029E-03-3.72202E-04-3.49798E-15
 -1      2643 2.89582E-03-3.29076E-04-3.85872E-15
 -1      2644 2.72869E-03-3.60306E-04-3.31129E-15
 -1      2645 3.03094E-03-2.76726E-04-4.23783E-15
 -1      2646 3.16645E-03-2.15229E-04-4.63414E-15
 -1      2647 3.00594E-03-2.74798E-04-4.02925E-15
 -1      2648 3.30233E-03-1.44949E-04-5.04781E-15
 -1      2649 3.43923E-03-6.65245E-05-5.47915E-15
 -1      2650 3.28303E-03-1.50935E-04-4.81771E-15
 -1      2651 3.57711E-03 1.93121E-05-5.92655E-15
 -1      2652 3.71630E-03 1.11564E-04-6.39153E-15
 -1      2653 3.56316E-03 8.07311E-06-5.67550E-15
 -1      2654 3.85670E-03 2.09325E-04-6.87261E-15
 -1      2655 3.99833E-03 3.11528E-04-7.36977E-15
 -1      2656 3.84820E-03 1.95260E-04-6.60107E-15
 -1      2657 4.14104E-03 4.17292E-04-7.88298E-15
 -1      2658 4.28463E-03 5.25713E-04-8.41185E-15
 -1      2659 4.13816E-03 4.02070E-04-7.59165E-15
 -1      2660 4.42900E-03 6.36066E-04-8.95560E-15
 -1      2661 4.57381E-03 7.47712E-04-9.51442E-15
 -1      2662 4.43169E-03 6.20535E-04-8.64505E-15
 -1      2663 4.71905E-03 8.60129E-04-1.00902E-14
 -1      2664 4.86438E-03 9.72940E-04-1.06809E-14
 -1      2665 4.72688E-03 8.44558E-04-9.76083E-15
 -1      2666 5.00984E-03 1.08582E-03-1.12865E-14
 -1      2667 5.15516E-03 1.19857E-03-1.19060E-14
 -1      2668 5.02207E-03 1.07018E-03-1.09374E-14
 -1      2669 5.30042E-03 1.31104E-03-1.25412E-14
 -1      2670 5.44543E-03 1.42315E-03-1.31923E-14
 -1      2671 5.31616E-03 1.29525E-03-1.21760E-14
 -1      2672 5.59029E-03 1.53483E-03-1.38564E-14
 -1      2673 5.73487E-03 1.64610E-03-1.45361E-14
 -1      2674 5.60865E-03 1.51881E-03-1.34734E-14
 -1      2675 5.87928E-03 1.75695E-03-1.52290E-14
 -1      2676 6.02344E-03 1.86741E-03-1.59358E-14
 -1      2677 5.89947E-03 1.74067E-03-1.48281E-14
 -1      2678 6.16743E-03 1.97750E-03-1.66577E-14
 -1      2679 6.31122E-03 2.08728E-03-1.73954E-14
 -1      2680 6.18883E-03 1.96100E-03-1.62410E-14
 -1      2681 6.45487E-03 2.19678E-03-1.81458E-14
 -1      2682 6.59837E-03 2.30605E-03-1.89083E-14
 -1      2683 6.47701E-03 2.18009E-03-1.77105E-14
 -1      2684 6.74177E-03 2.41511E-03-1.96865E-14
 -1      2685 6.88506E-03 2.52401E-03-2.04774E-14
 -1      2686 6.76433E-03 2.39827E-03-1.92355E-14
 -1      2687 7.02827E-03 2.63278E-03-2.12836E-14
 -1      2688 7.17141E-03 2.74145E-03-2.21015E-14
 -1      2689 7.05104E-03 2.61584E-03-2.08160E-14
 -1      2690 7.31450E-03 2.85003E-03-2.29335E-14
 -1      2691 7.45754E-03 2.95856E-03-2.37790E-14
 -1      2692 7.33735E-03 2.83301E-03-2.24499E-14
 -1      2693 7.60054E-03 3.06705E-03-2.46381E-14
 -1      2694 7.74352E-03 3.17550E-03-2.55114E-14
 -1      2695 7.62340E-03 3.04997E-03-2.41373E-14
 -1      2696 7.88647E-03 3.28394E-03-2.63968E-14
 -1      2697 8.02940E-03 3.39238E-03-2.72944E-14
 -1      2698 7.90929E-03 3.26684E-03-2.58790E-14
 -1      2699 8.17231E-03 3.50081E-03-2.82072E-14
 -1      2700 8.31521E-03 3.60925E-03-2.91345E-14
 -1      2701 8.19510E-03 3.48368E-03-2.76727E-14
 -1      2702 8.45811E-03 3.71771E-03-3.00722E-14
 -1      2703 8.60099E-03 3.82617E-03-3.10215E-14
 -1      2704 8.48086E-03 3.70056E-03-2.95189E-14
 -1      2705 8.74387E-03 3.93465E-03-3.19838E-14
 -1      2706 8.88674E-03 4.04314E-03-3.29557E-14
 -1      2707 8.76659E-03 3.91748E-03-3.14129E-14
 -1      2708 9.02961E-03 4.15165E-03-3.39384E-14
 -1      2709 9.17248E-03 4.26017E-03-3.49301E-14
 -1      2710 9.05231E-03 4.13447E-03-3.33523E-14
 -1      2711 9.31534E-03 4.36871E-03-3.59305E-14
 -1      2712 9.45820E-03 4.47726E-03-3.69394E-14
 -1      2713 9.33802E-03 4.35152E-03-3.53304E-14
 -1      2714 9.60106E-03 4.58583E-03-3.79560E-14
 -1      2715 9.74392E-03 4.69441E-03-3.89788E-14
 -1      2716 9.62373E-03 4.56864E-03-3.73420E-14
 -1      2717 9.88678E-03 4.80300E-03-4.00108E-14
 -1      2718 1.00296E-02 4.91160E-03-4.10505E-14
 -1      2719 9.90944E-03 4.78580E-03-3.93872E-14
 -1      2720 1.01725E-02 5.02021E-03-4.20971E-14
 -1      2721 1.03154E-02 5.12884E-03-4.31536E-14
 -1      2722 1.01952E-02 5.00301E-03-4.14653E-14
 -1      2723 1.04582E-02 5.23746E-03-4.42150E-14
 -1      2724 1.06011E-02 5.34610E-03-4.52828E-14
 -1      2725 1.04809E-02 5.22026E-03-4.35735E-14
 -1      2726 1.07439E-02 5.45474E-03-4.63584E-14
 -1      2727 1.08868E-02 5.56339E-03-4.74349E-14
 -1      2728 1.07666E-02 5.43753E-03-4.57098E-14
 -1      2729 1.10296E-02 5.67204E-03-4.85185E-14
 -1      2730 1.11725E-02 5.78070E-03-4.96128E-14
 -1      2731 1.10523E-02 5.65482E-03-4.78671E-14
 -1      2732 1.13153E-02 5.88935E-03-5.07092E-14
 -1      2733 1.14582E-02 5.99802E-03-5.18088E-14
 -1      2734 1.13380E-02 5.87214E-03-5.00489E-14
 -1      2735 1.16011E-02 6.10668E-03-5.29181E-14
 -1      2736 1.17439E-02 6.21535E-03-5.40310E-14
 -1      2737 1.16237E-02 6.08946E-03-5.22520E-14
 -1      2738 1.18868E-02 6.32402E-03-5.51499E-14
 -1      2739 1.20296E-02 6.43269E-03-5.62738E-14
 -1      2740 1.19094E-02 6.30680E-03-5.44800E-14
 -1      2741 1.21725E-02 6.54136E-03-5.73997E-14
 -1      2742 1.23153E-02 6.65003E-03-5.85306E-14
 -1      2743 1.21951E-02 6.52414E-03-5.67243E-14
 -1      2744 1.24582E-02 6.75870E-03-5.96644E-14
 -1      2745 1.26010E-02 6.86737E-03-6.08028E-14
 -1      2746 1.24809E-02 6.74148E-03-5.89858E-14
 -1      2747 1.27439E-02 6.97605E-03-6.19443E-14
 -1      2748 1.28868E-02 7.08472E-03-6.30877E-14
 -1      2749 1.27666E-02 6.95882E-03-6.12610E-14
 -1      2750 1.30296E-02 7.19339E-03-6.42330E-14
 -1      2751 1.31725E-02 7.30207E-03-6.53802E-14
 -1      2752 1.30523E-02 7.17617E-03-6.35468E-14
 -1      2753 1.32762E-02 7.38270E-03-6.62583E-14
 -1      2754 1.34178E-02 7.48914E-03-6.73713E-14
 -1      2755 1.35065E-02 7.52674E-03-6.73324E-14
 -1      2756 1.32989E-02 7.36548E-03-6.55699E-14
 -1      2757 6.71799E-04-1.99750E-04-2.67811E-16
 -1      2758 1.74589E-03 4.46728E-04-1.42294E-15
 -1      2759 1.59573E-03 4.93256E-04-1.33092E-15
 -1      2760 2.86326E-03-2.48708E-05-2.49525E-15
 -1      2761 2.67627E-03 5.56123E-05-2.24611E-15
 -1      2762 7.41818E-03 1.97706E-03-9.16717E-15
 -1      2763 7.29098E-03 1.87152E-03-8.60428E-15
 -1      2764 7.42145E-03 2.00792E-03-9.55942E-15
 -1      2765 8.23875E-03 2.64054E-03-1.28828E-14
 -1      2766 8.09775E-03 2.52864E-03-1.22262E-14
 -1      2767 7.94710E-03 2.44181E-03-1.20110E-14
 -1      2768 8.52251E-03 2.86382E-03-1.42357E-14
 -1      2769 8.38029E-03 2.75224E-03-1.35519E-14
 -1      2770 8.22381E-03 2.66314E-03-1.33275E-14
 -1      2771 8.80778E-03 3.08625E-03-1.56463E-14
 -1      2772 8.66497E-03 2.97515E-03-1.49353E-14
 -1      2773 8.50486E-03 2.88477E-03-1.46986E-14
 -1      2774 9.09372E-03 3.30771E-03-1.71051E-14
 -1      2775 8.95067E-03 3.19709E-03-1.63693E-14
 -1      2776 8.78833E-03 3.10603E-03-1.61249E-14
 -1      2777 9.36560E-03 3.51728E-03-1.85380E-14
 -1      2778 9.22963E-03 3.41259E-03-1.78158E-14
 -1      2779 9.06596E-03 3.32119E-03-1.75653E-14
 -1      2780 9.65182E-03 3.73716E-03-2.00958E-14
 -1      2781 9.50870E-03 3.62731E-03-1.93097E-14
 -1      2782 9.34422E-03 3.53574E-03-1.90515E-14
 -1      2783 9.93800E-03 3.95646E-03-2.17035E-14
 -1      2784 9.79491E-03 3.84688E-03-2.08939E-14
 -1      2785 9.62994E-03 3.75525E-03-2.06245E-14
 -1      2786 1.02241E-02 4.17530E-03-2.33683E-14
 -1      2787 1.00810E-02 4.06593E-03-2.25292E-14
 -1      2788 9.91578E-03 3.97429E-03-2.22492E-14
 -1      2789 1.05101E-02 4.39378E-03-2.50887E-14
 -1      2790 1.03671E-02 4.28458E-03-2.42211E-14
 -1      2791 1.02017E-02 4.19295E-03-2.39294E-14
 -1      2792 1.07960E-02 4.61199E-03-2.68644E-14
 -1      2793 1.06531E-02 4.50292E-03-2.59691E-14
 -1      2794 1.04875E-02 4.41132E-03-2.56658E-14
 -1      2795 1.10819E-02 4.82999E-03-2.86910E-14
 -1      2796 1.09390E-02 4.72102E-03-2.77708E-14
 -1      2797 1.07734E-02 4.62944E-03-2.74529E-14
 -1      2798 1.13677E-02 5.04784E-03-3.05776E-14
 -1      2799 1.12248E-02 4.93893E-03-2.96281E-14
 -1      2800 1.10592E-02 4.84738E-03-2.92958E-14
 -1      2801 1.16392E-02 5.25467E-03-3.24238E-14
 -1      2802 1.15034E-02 5.15127E-03-3.14942E-14
 -1      2803 1.13378E-02 5.05974E-03-3.11467E-14
 -1      2804 1.19249E-02 5.47230E-03-3.44226E-14
 -1      2805 1.17821E-02 5.36350E-03-3.34147E-14
 -1      2806 1.16165E-02 5.27199E-03-3.30519E-14
 -1      2807 1.22107E-02 5.68985E-03-3.64748E-14
 -1      2808 1.20678E-02 5.58108E-03-3.54426E-14
 -1      2809 1.19022E-02 5.48959E-03-3.50627E-14
 -1      2810 1.24964E-02 5.90735E-03-3.85702E-14
 -1      2811 1.23535E-02 5.79861E-03-3.75181E-14
 -1      2812 1.21880E-02 5.70712E-03-3.71246E-14
 -1      2813 1.27821E-02 6.12480E-03-4.07041E-14
 -1      2814 1.26393E-02 6.01608E-03-3.96329E-14
 -1      2815 1.24737E-02 5.92461E-03-3.92273E-14
 -1      2816 1.30678E-02 6.34223E-03-4.28805E-14
 -1      2817 1.29250E-02 6.23352E-03-4.17886E-14
 -1      2818 1.27594E-02 6.14205E-03-4.13674E-14
 -1      2819 1.33535E-02 6.55963E-03-4.50823E-14
 -1      2820 1.32107E-02 6.45093E-03-4.39757E-14
 -1      2821 1.30451E-02 6.35947E-03-4.35416E-14
 -1      2822 1.36393E-02 6.77701E-03-4.73139E-14
 -1      2823 1.34964E-02 6.66832E-03-4.61954E-14
 -1      2824 1.33308E-02 6.57686E-03-4.57478E-14
 -1      2825 1.39107E-02 6.98351E-03-4.94610E-14
 -1      2826 1.37750E-02 6.88026E-03-4.83865E-14
 -1      2827 1.36094E-02 6.78880E-03-4.79286E-14
 -1      2828 1.41964E-02 7.20086E-03-5.17330E-14
 -1      2829 1.40535E-02 7.09219E-03-5.05925E-14
 -1      2830 1.38880E-02 7.00073E-03-5.01327E-14
 -1      2831 1.44821E-02 7.41822E-03-5.40129E-14
 -1      2832 1.43392E-02 7.30954E-03-5.28720E-14
 -1      2833 1.41737E-02 7.21809E-03-5.24040E-14
 -1      2834 1.47678E-02 7.63557E-03-5.62912E-14
 -1      2835 1.46249E-02 7.52689E-03-5.51517E-14
 -1      2836 1.44594E-02 7.43544E-03-5.46834E-14
 -1      2837 1.50535E-02 7.85291E-03-5.85706E-14
 -1      2838 1.49107E-02 7.74424E-03-5.74330E-14
 -1      2839 1.47451E-02 7.65279E-03-5.69614E-14
 -1      2840 1.53392E-02 8.07026E-03-6.08376E-14
 -1      2841 1.51964E-02 7.96159E-03-5.97026E-14
 -1      2842 1.50308E-02 7.87013E-03-5.92344E-14
 -1      2843 1.56249E-02 8.28761E-03-6.30927E-14
 -1      2844 1.54821E-02 8.17893E-03-6.19650E-14
 -1      2845 1.53165E-02 8.08748E-03-6.14996E-14
 -1      2846 1.56397E-02 8.36804E-03-6.49128E-14
 -1      2847 1.57497E-02 8.41200E-03-6.48006E-14
 -1      2848 1.52096E-02 8.19814E-03-6.54089E-14
 -1      2849 1.53165E-02 8.24029E-03-6.52842E-14
 -1      2850 1.54234E-02 8.28243E-03-6.51602E-14
 -1      2851 1.55302E-02 8.32458E-03-6.50337E-14
 -1      2852 1.52462E-02 8.16725E-03-6.42373E-14
 -1      2853 1.49959E-02 8.11385E-03-6.56540E-14
 -1      2854 1.51028E-02 8.15600E-03-6.55344E-14
 -1      2855 1.50325E-02 8.08296E-03-6.44865E-14
 -1      2856 1.45684E-02 7.94527E-03-6.61290E-14
 -1      2857 1.46753E-02 7.98741E-03-6.60111E-14
 -1      2858 1.43547E-02 7.86097E-03-6.63596E-14
 -1      2859 1.44616E-02 7.90312E-03-6.62439E-14
 -1      2860 1.43913E-02 7.83008E-03-6.51929E-14
 -1      2861 1.41446E-02 7.77811E-03-6.65883E-14
 -1      2862 1.42497E-02 7.81954E-03-6.64745E-14
 -1      2863 1.41794E-02 7.74650E-03-6.54211E-14
 -1      2864 1.39309E-02 7.69382E-03-6.68253E-14
 -1      2865 1.40378E-02 7.73596E-03-6.67063E-14
 -1      2866 1.39675E-02 7.66293E-03-6.56529E-14
 -1      2867 1.37172E-02 7.60953E-03-6.70696E-14
 -1      2868 1.38240E-02 7.65167E-03-6.69462E-14
 -1      2869 1.37538E-02 7.57864E-03-6.58891E-14
 -1      2870 6.47300E-03 1.44593E-03-5.13301E-15
 -1      2871 6.07888E-03 1.31517E-03-6.19590E-15
 -1      2872 5.87987E-03 1.25056E-03-6.11696E-15
 -1      2873 6.94516E-03 1.58917E-03-7.00517E-15
 -1      2874 6.84171E-03 1.51230E-03-6.50559E-15
 -1      2875 1.28129E-03 3.92732E-04-5.71700E-16
 -1      2876 1.18345E-03 3.54990E-04-4.66600E-16
 -1      2877 1.57102E-03 6.40159E-04-1.11344E-15
 -1      2878 1.74651E-03 6.51798E-04-1.03961E-15
 -1      2879 1.50390E-03 4.97932E-04-8.08517E-16
 -1      2880 1.39619E-03 4.43695E-04-6.93015E-16
 -1      2881 2.46602E-03 1.50471E-04-2.01148E-15
 -1      2882 2.29373E-03 2.33016E-04-1.84694E-15
 -1      2883 1.62941E-03 5.61268E-04-9.07572E-16
 -1      2884 2.13337E-03 3.05177E-04-1.71193E-15
 -1      2885 1.96633E-03 3.71376E-04-1.58246E-15
 -1      2886 2.17543E-03 2.43030E-04-1.71339E-15
 -1      2887 1.50296E-03 5.81147E-04-1.02549E-15
 -1      2888 7.16973E-03 1.77114E-03-8.05484E-15
 -1      2889 7.05328E-03 1.67524E-03-7.52268E-15
 -1      2890 7.18520E-03 1.80413E-03-8.43077E-15
 -1      2891 1.47822E-02 8.02956E-03-6.58967E-14
 -1      2892 1.48890E-02 8.07170E-03-6.57759E-14
 -1      2893 1.48187E-02 7.99867E-03-6.47293E-14
 -1      2894 1.46050E-02 7.91437E-03-6.49641E-14
 -1      2895 6.94081E-04 1.86734E-04-2.81079E-16
 -1      2896 7.06349E-04 1.74790E-04-2.93019E-16
 -1      2897 8.20160E-04 1.94947E-04-3.80013E-16
 -1      2898 7.86962E-04 2.23540E-04-3.50523E-16
 -1      2899 1.30086E-03 5.48161E-04-1.12340E-15
 -1      2900 1.27534E-03 5.43723E-04-1.07280E-15
 -1      2901 3.96888E-03 1.46757E-04-4.33166E-15
 -1      2902 3.79970E-03 4.25381E-05-4.03857E-15
 -1      2903 8.25955E-04-7.11442E-05-3.65579E-16
 -1      2904 8.28098E-04-1.04977E-04-3.70241E-16
 -1      2905 1.47842E-03 5.23494E-04-1.25885E-15
 -1      2906 1.37816E-03 5.37460E-04-1.18780E-15
 -1      2907 1.50218E-03 4.78046E-04-1.20864E-15
 -1      2908 6.49096E-03 1.41155E-03-6.30601E-15
 -1      2909 6.30859E-03 1.38137E-03-6.30109E-15
 -1      2910 4.98457E-03 8.29846E-04-5.62843E-15
 -1      2911 4.71764E-03 6.64623E-04-5.39961E-15
 -1      2912 3.27213E-03-1.03084E-04-3.14389E-15
 -1      2913 3.09719E-03-8.73383E-05-2.85202E-15
 -1      2914 3.63237E-03-3.40773E-05-3.75351E-15
 -1      2915 3.47045E-03-8.17634E-05-3.47538E-15
 -1      2916 1.29068E-03 5.29808E-04-1.00009E-15
 -1      2917 1.35268E-03 5.25240E-04-9.64289E-16
 -1      2918 4.38715E-03 4.46033E-04-5.03663E-15
 -1      2919 4.17246E-03 2.90409E-04-4.70582E-15
 -1      2920 1.06934E-03-3.42861E-04-5.76511E-16
 -1      2921 1.21618E-03-3.72337E-04-7.24898E-16
 -1      2922 1.29244E-03-3.48771E-04-8.08503E-16
 -1      2923 1.02642E-03-2.96392E-04-5.40258E-16
 -1      2924 6.70713E-03 1.43885E-03-6.33398E-15
 -1      2925 6.61563E-03 1.43053E-03-6.32094E-15
 -1      2926 6.56186E-03 1.46143E-03-6.66036E-15
 -1      2927 1.47781E-03 5.21842E-04-8.95022E-16
 -1      2928 9.09254E-04 8.43542E-05-4.26823E-16
 -1      2929 7.92453E-04 5.97236E-05-3.39924E-16
 -1      2930 8.05052E-04 2.84793E-05-3.47351E-16
 -1      2931 6.22276E-03 1.38637E-03-6.53608E-15
 -1      2932 6.55484E-03 1.42667E-03-5.31349E-15
 -1      2933 6.63908E-03 1.41394E-03-5.51198E-15
 -1      2934 7.97226E-04-2.13377E-04-3.54236E-16
 -1      2935 1.81467E-03 3.87244E-04-1.42647E-15
 -1      2936 6.72223E-03 1.42445E-03-5.84355E-15
 -1      2937 2.52425E-03 8.44329E-05-2.06947E-15
 -1      2938 8.28616E-04-1.38739E-04-3.73589E-16
 -1      2939 8.28106E-04-1.72387E-04-3.75771E-16
 -1      2940 9.58503E-04-1.38242E-04-4.72075E-16
 -1      2941 1.56813E-02 8.33769E-03-6.37150E-14
 -1      2942 1.55157E-02 8.24624E-03-6.32534E-14
 -1      2943 1.54626E-02 8.25286E-03-6.39981E-14
 -1      2944 1.60502E-02 8.59838E-03-6.61230E-14
 -1      2945 1.58589E-02 8.45336E-03-6.46351E-14
 -1      2946 4.53682E-03 5.65073E-04-5.37556E-15
 -1      2947 4.38535E-03 4.75518E-04-5.34918E-15
 -1      2948 4.68566E-03 6.78543E-04-5.72436E-15
 -1      2949 6.53902E-03 1.44963E-03-5.38490E-15
 -1      2950 6.97969E-03 1.61991E-03-7.36330E-15
 -1      2951 1.35951E-02 7.56434E-03-6.72892E-14
 -1      2952 2.94668E-03-7.16746E-05-2.64778E-15
 -1      2953 2.79663E-03-5.24289E-05-2.45156E-15
 -1      2954 3.01061E-03-1.04205E-04-2.80329E-15
 -1      2955 1.25503E-03 5.03133E-04-9.49978E-16
 -1      2956 3.69205E-03 5.36164E-06-3.96330E-15
 -1      2957 6.76167E-03 1.45342E-03-6.39650E-15
 -1      2958 6.74525E-03 1.49243E-03-6.74141E-15
 -1      2959 6.79995E-03 1.46640E-03-6.45961E-15
 -1      2960 3.34646E-03-9.98548E-05-3.33853E-15
 -1      2961 5.72238E-03 1.20840E-03-6.23679E-15
 -1      2962 5.14024E-03 9.33704E-04-5.89960E-15
 -1      2963 5.01796E-03 8.81022E-04-6.02415E-15
 -1      2964 5.29262E-03 1.02846E-03-6.17629E-15
 -1      2965 1.35248E-02 7.49130E-03-6.62291E-14
 -1      2966 1.28008E-03 4.16022E-04-6.64928E-16
 -1      2967 1.10545E-03 3.28015E-04-3.96086E-16
 -1      2968 1.00573E-03 2.97780E-04-3.20097E-16
 -1      2969 9.55895E-04 2.86322E-04-3.33284E-16
 -1      2970 1.10676E-03 3.39994E-04-4.68633E-16
 -1      2971 1.40898E-03 5.18994E-04-9.19397E-16
 -1      2972 4.04441E-03 2.20068E-04-4.62658E-15
 -1      2973 8.14810E-04-4.10469E-06-3.54128E-16
 -1      2974 8.21687E-04-3.74445E-05-3.60091E-16
 -1      2975 9.54469E-04-6.29619E-05-4.60799E-16
 -1      2976 9.39042E-04 1.23059E-05-4.45377E-16
 -1      2977 1.31263E-03 5.14985E-04-1.08050E-15
 -1      2978 1.32714E-03 4.77688E-04-8.38617E-16
 -1      2979 8.83732E-04 2.74179E-04-3.80352E-16
 -1      2980 8.71741E-04 2.69348E-04-4.03716E-16
 -1      2981 6.63684E-03 1.50379E-03-6.95900E-15
 -1      2982 6.51483E-03 1.48548E-03-6.94173E-15
 -1      2983 9.25324E-04-2.21938E-04-4.53047E-16
 -1      2984 7.66640E-03 2.25055E-03-1.11659E-14
 -1      2985 7.53793E-03 2.14395E-03-1.05508E-14
 -1      2986 1.50691E-02 8.05206E-03-6.33164E-14
 -1      2987 1.51759E-02 8.09421E-03-6.31943E-14
 -1      2988 1.50777E-03-3.42934E-04-1.05565E-15
 -1      2989 1.65938E-03-3.60511E-04-1.25303E-15
 -1      2990 1.81071E-03-3.74664E-04-1.46785E-15
 -1      2991 1.96129E-03-3.84694E-04-1.70034E-15
 -1      2992 1.74793E-03-3.29011E-04-1.35298E-15
 -1      2993 2.11082E-03-3.90150E-04-1.95038E-15
 -1      2994 2.25901E-03-3.89891E-04-2.21791E-15
 -1      2995 2.05610E-03-3.50890E-04-1.81409E-15
 -1      2996 2.40562E-03-3.83245E-04-2.50348E-15
 -1      2997 2.55073E-03-3.68869E-04-2.80676E-15
 -1      2998 2.35976E-03-3.53742E-04-2.34539E-15
 -1      2999 2.69420E-03-3.46084E-04-3.12767E-15
 -1      3000 2.83664E-03-3.13784E-04-3.46678E-15
 -1      3001 2.65673E-03-3.28637E-04-2.94778E-15
 -1      3002 2.97803E-03-2.71582E-04-3.82311E-15
 -1      3003 3.11935E-03-2.19097E-04-4.19790E-15
 -1      3004 2.94757E-03-2.66364E-04-3.62063E-15
 -1      3005 3.26062E-03-1.56456E-04-4.59061E-15
 -1      3006 3.40281E-03-8.42125E-05-5.00048E-15
 -1      3007 3.23576E-03-1.61257E-04-4.36562E-15
 -1      3008 3.54589E-03-3.03046E-06-5.42725E-15
 -1      3009 3.69045E-03 8.58639E-05-5.87124E-15
 -1      3010 3.52600E-03-1.41698E-05-5.18216E-15
 -1      3011 3.83633E-03 1.81493E-04-6.33216E-15
 -1      3012 3.98365E-03 2.82385E-04-6.80947E-15
 -1      3013 3.82170E-03 1.67596E-04-6.06649E-15
 -1      3014 4.13216E-03 3.87553E-04-7.30306E-15
 -1      3015 4.28158E-03 4.95722E-04-7.81244E-15
 -1      3016 4.12342E-03 3.73305E-04-7.01711E-15
 -1      3017 4.43170E-03 6.06100E-04-8.33792E-15
 -1      3018 4.58207E-03 7.17807E-04-8.87806E-15
 -1      3019 4.42927E-03 5.92453E-04-8.03228E-15
 -1      3020 4.73257E-03 8.30292E-04-9.43345E-15
 -1      3021 4.88278E-03 9.43094E-04-1.00052E-14
 -1      3022 4.73628E-03 8.17203E-04-9.11058E-15
 -1      3023 5.03269E-03 1.05587E-03-1.05925E-14
 -1      3024 5.18199E-03 1.16845E-03-1.11950E-14
 -1      3025 5.04183E-03 1.04288E-03-1.02491E-14
 -1      3026 5.33076E-03 1.28064E-03-1.18123E-14
 -1      3027 5.47880E-03 1.39244E-03-1.24447E-14
 -1      3028 5.34431E-03 1.26730E-03-1.14515E-14
 -1      3029 5.62624E-03 1.50377E-03-1.30921E-14
 -1      3030 5.77298E-03 1.61468E-03-1.37545E-14
 -1      3031 5.64314E-03 1.48979E-03-1.27135E-14
 -1      3032 5.91918E-03 1.72515E-03-1.44315E-14
 -1      3033 6.06478E-03 1.83526E-03-1.51218E-14
 -1      3034 5.93845E-03 1.71046E-03-1.40355E-14
 -1      3035 6.20994E-03 1.94502E-03-1.58267E-14
 -1      3036 6.35464E-03 2.05451E-03-1.65467E-14
 -1      3037 6.23080E-03 1.92966E-03-1.54152E-14
 -1      3038 6.49900E-03 2.16375E-03-1.72803E-14
 -1      3039 6.64303E-03 2.27279E-03-1.80273E-14
 -1      3040 6.52086E-03 2.14782E-03-1.68514E-14
 -1      3041 6.78682E-03 2.38165E-03-1.87884E-14
 -1      3042 6.93039E-03 2.49039E-03-1.95628E-14
 -1      3043 6.80926E-03 2.36530E-03-1.83435E-14
 -1      3044 7.07379E-03 2.59902E-03-2.03505E-14
 -1      3045 7.21705E-03 2.70757E-03-2.11528E-14
 -1      3046 7.09654E-03 2.58235E-03-1.98897E-14
 -1      3047 7.36021E-03 2.81606E-03-2.19699E-14
 -1      3048 7.50327E-03 2.92451E-03-2.27976E-14
 -1      3049 7.38309E-03 2.79919E-03-2.14900E-14
 -1      3050 7.64628E-03 3.03293E-03-2.36391E-14
 -1      3051 7.78923E-03 3.14133E-03-2.44955E-14
 -1      3052 7.66920E-03 3.01592E-03-2.31454E-14
 -1      3053 7.93215E-03 3.24973E-03-2.53644E-14
 -1      3054 8.07505E-03 3.35814E-03-2.62457E-14
 -1      3055 7.95505E-03 3.23264E-03-2.48522E-14
 -1      3056 8.21792E-03 3.46654E-03-2.71403E-14
 -1      3057 8.36078E-03 3.57496E-03-2.80487E-14
 -1      3058 8.24078E-03 3.44940E-03-2.66118E-14
 -1      3059 8.50364E-03 3.68339E-03-2.89696E-14
 -1      3060 8.64648E-03 3.79184E-03-2.99017E-14
 -1      3061 8.52645E-03 3.66622E-03-2.84232E-14
 -1      3062 8.78933E-03 3.90031E-03-3.08461E-14
 -1      3063 8.93217E-03 4.00879E-03-3.18029E-14
 -1      3064 8.81210E-03 3.88312E-03-3.02836E-14
 -1      3065 9.07502E-03 4.11728E-03-3.27689E-14
 -1      3066 9.21786E-03 4.22580E-03-3.37458E-14
 -1      3067 9.09775E-03 4.10009E-03-3.21900E-14
 -1      3068 9.36071E-03 4.33433E-03-3.47327E-14
 -1      3069 9.50356E-03 4.44288E-03-3.57280E-14
 -1      3070 9.38342E-03 4.31713E-03-3.41389E-14
 -1      3071 9.64641E-03 4.55144E-03-3.67323E-14
 -1      3072 9.78926E-03 4.66001E-03-3.77454E-14
 -1      3073 9.66909E-03 4.53423E-03-3.61261E-14
 -1      3074 9.93211E-03 4.76860E-03-3.87668E-14
 -1      3075 1.00750E-02 4.87720E-03-3.97954E-14
 -1      3076 9.95478E-03 4.75139E-03-3.81484E-14
 -1      3077 1.02178E-02 4.98580E-03-4.08336E-14
 -1      3078 1.03607E-02 5.09442E-03-4.18801E-14
 -1      3079 1.02405E-02 4.96859E-03-4.02044E-14
 -1      3080 1.05035E-02 5.20304E-03-4.29346E-14
 -1      3081 1.06464E-02 5.31168E-03-4.39946E-14
 -1      3082 1.05262E-02 5.18583E-03-4.22960E-14
 -1      3083 1.07892E-02 5.42032E-03-4.50629E-14
 -1      3084 1.09321E-02 5.52896E-03-4.61374E-14
 -1      3085 1.08119E-02 5.40310E-03-4.44189E-14
 -1      3086 1.10750E-02 5.63761E-03-4.72153E-14
 -1      3087 1.12178E-02 5.74626E-03-4.83006E-14
 -1      3088 1.10976E-02 5.62039E-03-4.65664E-14
 -1      3089 1.13607E-02 5.85492E-03-4.93911E-14
 -1      3090 1.15035E-02 5.96358E-03-5.04875E-14
 -1      3091 1.13833E-02 5.83770E-03-4.87361E-14
 -1      3092 1.16464E-02 6.07224E-03-5.15908E-14
 -1      3093 1.17892E-02 6.18091E-03-5.26984E-14
 -1      3094 1.16691E-02 6.05502E-03-5.09307E-14
 -1      3095 1.19321E-02 6.28958E-03-5.38121E-14
 -1      3096 1.20750E-02 6.39824E-03-5.49296E-14
 -1      3097 1.19548E-02 6.27236E-03-5.31470E-14
 -1      3098 1.22178E-02 6.50691E-03-5.60510E-14
 -1      3099 1.23607E-02 6.61559E-03-5.71770E-14
 -1      3100 1.22405E-02 6.48969E-03-5.53815E-14
 -1      3101 1.25035E-02 6.72426E-03-5.83065E-14
 -1      3102 1.26464E-02 6.83293E-03-5.94418E-14
 -1      3103 1.25262E-02 6.70704E-03-5.76314E-14
 -1      3104 1.27892E-02 6.94160E-03-6.05811E-14
 -1      3105 1.29321E-02 7.05028E-03-6.17214E-14
 -1      3106 1.28119E-02 6.92438E-03-5.99010E-14
 -1      3107 1.30750E-02 7.15895E-03-6.28634E-14
 -1      3108 1.32178E-02 7.26762E-03-6.40062E-14
 -1      3109 1.30976E-02 7.14173E-03-6.21826E-14
 -1      3110 1.34210E-02 7.41067E-03-6.53509E-14
 -1      3111 7.41388E-03 2.03979E-03-9.95405E-15
 -1      3112 7.29486E-03 1.93748E-03-9.37381E-15
 -1      3113 7.39801E-03 2.07012E-03-1.03512E-14
 -1      3114 1.85539E-03 3.22185E-04-1.40631E-15
 -1      3115 1.66422E-03 3.84832E-04-1.25979E-15
 -1      3116 8.48600E-03 2.90582E-03-1.51649E-14
 -1      3117 8.34584E-03 2.79576E-03-1.44626E-14
 -1      3118 8.76821E-03 3.12589E-03-1.66087E-14
 -1      3119 8.62681E-03 3.01585E-03-1.58807E-14
 -1      3120 8.46596E-03 2.92663E-03-1.56315E-14
 -1      3121 9.03788E-03 3.33475E-03-1.80260E-14
 -1      3122 8.90289E-03 3.23035E-03-1.73107E-14
 -1      3123 8.74033E-03 3.14014E-03-1.70554E-14
 -1      3124 9.32266E-03 3.55424E-03-1.95670E-14
 -1      3125 9.18017E-03 3.44454E-03-1.87904E-14
 -1      3126 9.01651E-03 3.35374E-03-1.85272E-14
 -1      3127 9.60796E-03 3.77336E-03-2.11554E-14
 -1      3128 9.46526E-03 3.66385E-03-2.03553E-14
 -1      3129 9.30086E-03 3.57271E-03-2.00838E-14
 -1      3130 9.89353E-03 3.99214E-03-2.27974E-14
 -1      3131 9.75072E-03 3.88279E-03-2.19703E-14
 -1      3132 9.58586E-03 3.79146E-03-2.16884E-14
 -1      3133 1.01792E-02 4.21062E-03-2.44933E-14
 -1      3134 1.00364E-02 4.10142E-03-2.36381E-14
 -1      3135 9.87122E-03 4.00998E-03-2.33463E-14
 -1      3136 1.04650E-02 4.42886E-03-2.62450E-14
 -1      3137 1.03221E-02 4.31977E-03-2.53622E-14
 -1      3138 1.01568E-02 4.22829E-03-2.50584E-14
 -1      3139 1.07508E-02 4.64690E-03-2.80444E-14
 -1      3140 1.06079E-02 4.53790E-03-2.71374E-14
 -1      3141 1.04424E-02 4.44640E-03-2.68219E-14
 -1      3142 1.10365E-02 4.86477E-03-2.99018E-14
 -1      3143 1.08936E-02 4.75585E-03-2.89660E-14
 -1      3144 1.07281E-02 4.66435E-03-2.86375E-14
 -1      3145 1.13080E-02 5.07164E-03-3.17158E-14
 -1      3146 1.11723E-02 4.96822E-03-3.08010E-14
 -1      3147 1.10067E-02 4.87672E-03-3.04584E-14
 -1      3148 1.15938E-02 5.28930E-03-3.36826E-14
 -1      3149 1.14509E-02 5.18048E-03-3.26933E-14
 -1      3150 1.12853E-02 5.08899E-03-3.23333E-14
 -1      3151 1.18795E-02 5.50688E-03-3.57046E-14
 -1      3152 1.17366E-02 5.39810E-03-3.46874E-14
 -1      3153 1.15711E-02 5.30661E-03-3.43155E-14
 -1      3154 1.21652E-02 5.72439E-03-3.77759E-14
 -1      3155 1.20224E-02 5.61564E-03-3.67350E-14
 -1      3156 1.18568E-02 5.52416E-03-3.63471E-14
 -1      3157 1.24510E-02 5.94186E-03-3.98806E-14
 -1      3158 1.23081E-02 5.83313E-03-3.88236E-14
 -1      3159 1.21425E-02 5.74166E-03-3.84232E-14
 -1      3160 1.27367E-02 6.15930E-03-4.20278E-14
 -1      3161 1.25938E-02 6.05058E-03-4.09478E-14
 -1      3162 1.24283E-02 5.95911E-03-4.05350E-14
 -1      3163 1.30224E-02 6.37670E-03-4.42049E-14
 -1      3164 1.28796E-02 6.26800E-03-4.31137E-14
 -1      3165 1.27140E-02 6.17654E-03-4.26844E-14
 -1      3166 1.33081E-02 6.59409E-03-4.64147E-14
 -1      3167 1.31653E-02 6.48540E-03-4.53070E-14
 -1      3168 1.29997E-02 6.39394E-03-4.48694E-14
 -1      3169 1.35796E-02 6.80059E-03-4.85460E-14
 -1      3170 1.34438E-02 6.69734E-03-4.74765E-14
 -1      3171 1.32783E-02 6.60589E-03-4.70299E-14
 -1      3172 1.38653E-02 7.01796E-03-5.08040E-14
 -1      3173 1.37224E-02 6.90928E-03-4.96726E-14
 -1      3174 1.35569E-02 6.81782E-03-4.92157E-14
 -1      3175 1.41510E-02 7.23531E-03-5.30771E-14
 -1      3176 1.40081E-02 7.12663E-03-5.19394E-14
 -1      3177 1.38426E-02 7.03518E-03-5.14772E-14
 -1      3178 1.44367E-02 7.45266E-03-5.53511E-14
 -1      3179 1.42938E-02 7.34399E-03-5.42146E-14
 -1      3180 1.41283E-02 7.25253E-03-5.37493E-14
 -1      3181 1.47224E-02 7.67001E-03-5.76306E-14
 -1      3182 1.45796E-02 7.56134E-03-5.64905E-14
 -1      3183 1.44140E-02 7.46988E-03-5.60252E-14
 -1      3184 1.50081E-02 7.88736E-03-5.99013E-14
 -1      3185 1.48653E-02 7.77868E-03-5.87676E-14
 -1      3186 1.46997E-02 7.68723E-03-5.82991E-14
 -1      3187 1.52911E-02 8.14849E-03-6.32821E-14
 -1      3188 1.54006E-02 8.19195E-03-6.31657E-14
 -1      3189 1.53442E-02 8.14187E-03-6.25394E-14
 -1      3190 1.51139E-02 8.03331E-03-6.23612E-14
 -1      3191 1.48553E-02 7.96777E-03-6.35610E-14
 -1      3192 1.49622E-02 8.00992E-03-6.34378E-14
 -1      3193 1.48919E-02 7.93688E-03-6.23917E-14
 -1      3194 1.40031E-02 7.63168E-03-6.44840E-14
 -1      3195 1.41082E-02 7.67311E-03-6.43705E-14
 -1      3196 1.42151E-02 7.71525E-03-6.42573E-14
 -1      3197 1.43219E-02 7.75740E-03-6.41436E-14
 -1      3198 1.40388E-02 7.60043E-03-6.33206E-14
 -1      3199 1.35766E-02 7.46345E-03-6.49539E-14
 -1      3200 1.36835E-02 7.50560E-03-6.48357E-14
 -1      3201 2.52603E-03 2.05277E-05-2.08481E-15
 -1      3202 2.34497E-03 9.95766E-05-1.86265E-15
 -1      3203 3.74687E-03 4.75230E-05-4.18071E-15
 -1      3204 3.59565E-03-2.68163E-05-3.89058E-15
 -1      3205 6.82860E-03 1.48146E-03-6.48075E-15
 -1      3206 6.77323E-03 1.46073E-03-6.14219E-15
 -1      3207 6.85519E-03 1.52186E-03-6.83003E-15
 -1      3208 1.29851E-03 4.71135E-04-9.95677E-16
 -1      3209 1.23808E-03 4.75795E-04-9.39556E-16
 -1      3210 7.93240E-03 2.46692E-03-1.24415E-14
 -1      3211 7.79801E-03 2.35812E-03-1.17958E-14
 -1      3212 7.64967E-03 2.27767E-03-1.15802E-14
 -1      3213 3.41917E-03-8.52617E-05-3.56534E-15
 -1      3214 3.23834E-03-1.14924E-04-3.22951E-15
 -1      3215 1.37899E-02 7.54756E-03-6.47174E-14
 -1      3216 1.38967E-02 7.58971E-03-6.45991E-14
 -1      3217 1.38255E-02 7.51631E-03-6.35483E-14
 -1      3218 1.36127E-02 7.43238E-03-6.37814E-14
 -1      3219 8.20671E-03 2.68589E-03-1.37737E-14
 -1      3220 8.06870E-03 2.57613E-03-1.31019E-14
 -1      3221 8.18765E-03 2.70823E-03-1.42258E-14
 -1      3222 6.33064E-03 1.44792E-03-6.92363E-15
 -1      3223 6.11940E-03 1.38771E-03-6.81220E-15
 -1      3224 2.15788E-03 1.85727E-04-1.66490E-15
 -1      3225 2.02230E-03 2.46539E-04-1.53968E-15
 -1      3226 1.49269E-03 4.31740E-04-1.13506E-15
 -1      3227 1.39636E-03 4.55197E-04-1.07144E-15
 -1      3228 7.18259E-03 1.83959E-03-8.80884E-15
 -1      3229 7.07804E-03 1.74482E-03-8.25915E-15
 -1      3230 7.16669E-03 1.87321E-03-9.18662E-15
 -1      3231 9.71565E-04 1.83679E-04-4.95304E-16
 -1      3232 1.00010E-03 1.50576E-04-5.09589E-16
 -1      3233 4.08554E-03 2.69796E-04-4.87472E-15
 -1      3234 3.90069E-03 1.41009E-04-4.49566E-15
 -1      3235 1.21107E-03 4.66526E-04-8.74612E-16
 -1      3236 1.21752E-03 4.49665E-04-8.10292E-16
 -1      3237 1.17096E-03 4.28672E-04-8.00629E-16
 -1      3238 5.85019E-03 1.28973E-03-6.63718E-15
 -1      3239 5.58593E-03 1.17667E-03-6.44217E-15
 -1      3240 9.30730E-04 2.82930E-04-3.52745E-16
 -1      3241 8.96182E-04 2.75217E-04-3.62977E-16
 -1      3242 9.67588E-04 3.08527E-04-4.60203E-16
 -1      3243 1.00461E-03 3.10038E-04-4.19451E-16
 -1      3244 6.43258E-03 1.49752E-03-7.22601E-15
 -1      3245 6.98266E-03 1.65629E-03-7.71638E-15
 -1      3246 6.89994E-03 1.57302E-03-7.19737E-15
 -1      3247 1.05922E-03-2.47759E-04-5.68908E-16
 -1      3248 3.16948E-03-1.29903E-04-3.21874E-15
 -1      3249 3.09578E-03-1.24158E-04-3.00796E-15
 -1      3250 2.95407E-03-1.24475E-04-2.79437E-15
 -1      3251 1.34437E-02 7.39345E-03-6.46669E-14
 -1      3252 1.85184E-03 2.59380E-04-1.36234E-15
 -1      3253 5.99333E-03 1.36583E-03-7.02556E-15
 -1      3254 1.09119E-03-1.33925E-04-5.81756E-16
 -1      3255 1.09041E-03-1.74583E-04-5.87068E-16
 -1      3256 4.36498E-03 4.78325E-04-5.54724E-15
 -1      3257 4.22466E-03 3.73715E-04-5.20604E-15
 -1      3258 4.08035E-03 2.82494E-04-5.06368E-15
 -1      3259 1.46416E-02 7.88348E-03-6.37973E-14
 -1      3260 1.47485E-02 7.92563E-03-6.36790E-14
 -1      3261 1.46782E-02 7.85259E-03-6.26303E-14
 -1      3262 1.52014E-02 8.03320E-03-6.14070E-14
 -1      3263 1.50358E-02 7.94175E-03-6.09431E-14
 -1      3264 4.83260E-03 7.79788E-04-5.99609E-15
 -1      3265 4.66990E-03 6.82539E-04-5.96586E-15
 -1      3266 4.97973E-03 8.75408E-04-6.27361E-15
 -1      3267 8.74715E-04 2.62689E-04-4.25061E-16
 -1      3268 8.88916E-04 2.51262E-04-4.44347E-16
 -1      3269 9.58343E-04 3.02759E-04-5.05170E-16
 -1      3270 1.33734E-02 7.32041E-03-6.36116E-14
 -1      3271 2.17971E-03 1.09665E-04-1.67695E-15
 -1      3272 1.24089E-03 4.40461E-04-7.71288E-16
 -1      3273 1.15668E-03 3.91130E-04-6.41163E-16
 -1      3274 3.47776E-03-6.18526E-05-3.76858E-15
 -1      3275 1.53140E-03 3.76224E-04-1.11709E-15
 -1      3276 5.44905E-03 1.12569E-03-6.57211E-15
 -1      3277 7.91449E-03 2.49134E-03-1.28742E-14
 -1      3278 6.83922E-03 1.55690E-03-7.17150E-15
 -1      3279 1.28320E-03 4.28947E-04-9.30496E-16
 -1      3280 3.79690E-03 9.12678E-05-4.41478E-15
 -1      3281 1.07401E-03 3.38183E-04-4.92607E-16
 -1      3282 1.07669E-03 3.59659E-04-5.80306E-16
 -1      3283 2.61247E-03-3.57999E-05-2.21916E-15
 -1      3284 2.43052E-03-2.54552E-05-1.99882E-15
 -1      3285 2.68363E-03-8.42827E-05-2.35730E-15
 -1      3286 1.02613E-03 1.13536E-04-5.22816E-16
 -1      3287 1.04774E-03 7.41244E-05-5.35189E-16
 -1      3288 1.14169E-03 1.46823E-04-6.26994E-16
 -1      3289 6.96529E-03 1.69221E-03-8.07894E-15
 -1      3290 9.13199E-04 2.34736E-04-4.62887E-16
 -1      3291 9.40732E-04 2.12024E-04-4.79163E-16
 -1      3292 1.07173E-03 2.23674E-04-5.92137E-16
 -1      3293 9.99854E-04 2.76979E-04-5.51479E-16
 -1      3294 1.44283E-02 7.79937E-03-6.40296E-14
 -1      3295 1.45352E-02 7.84151E-03-6.39155E-14
 -1      3296 1.44649E-02 7.76848E-03-6.28643E-14
 -1      3297 1.42521E-02 7.68454E-03-6.30953E-14
 -1      3298 6.78420E-03 1.53922E-03-7.09917E-15
 -1      3299 6.71057E-03 1.52235E-03-7.03182E-15
 -1      3300 6.68147E-03 1.55136E-03-7.32000E-15
 -1      3301 6.82039E-03 1.59043E-03-7.46912E-15
 -1      3302 1.37236E-03-3.22893E-04-8.93491E-16
 -1      3303 1.45530E-03-2.94738E-04-9.79428E-16
 -1      3304 1.23720E-03-3.00615E-04-7.45050E-16
 -1      3305 1.08544E-03-5.09912E-05-5.66455E-16
 -1      3306 1.08983E-03-9.26181E-05-5.74803E-16
 -1      3307 1.22663E-03-1.25863E-04-7.02089E-16
 -1      3308 6.68124E-03 1.46428E-03-5.86238E-15
 -1      3309 8.99477E-03 3.37266E-03-1.90285E-14
 -1      3310 8.85312E-03 3.26344E-03-1.82596E-14
 -1      3311 1.13762E-03-2.24556E-04-6.37565E-16
 -1      3312 1.47148E-02 7.82170E-03-6.14645E-14
 -1      3313 1.48216E-02 7.86384E-03-6.13463E-14
 -1      3314 1.81254E-03 1.96438E-04-1.29179E-15
 -1      3315 1.67314E-03 2.57590E-04-1.17373E-15
 -1      3316 1.99753E-03-3.08096E-04-1.68176E-15
 -1      3317 2.15453E-03-3.16441E-04-1.92743E-15
 -1      3318 2.31023E-03-3.20244E-04-2.19105E-15
 -1      3319 2.46423E-03-3.17712E-04-2.47218E-15
 -1      3320 2.25590E-03-2.82077E-04-2.04035E-15
 -1      3321 2.61612E-03-3.07900E-04-2.77107E-15
 -1      3322 2.76624E-03-2.88703E-04-3.08763E-15
 -1      3323 2.57153E-03-2.82477E-04-2.59795E-15
 -1      3324 2.91440E-03-2.59341E-04-3.42192E-15
 -1      3325 3.06175E-03-2.18457E-04-3.77420E-15
 -1      3326 2.87837E-03-2.49052E-04-3.22640E-15
 -1      3327 3.20827E-03-1.65752E-04-4.14473E-15
 -1      3328 3.35546E-03-1.01378E-04-4.53360E-15
 -1      3329 3.17869E-03-1.69136E-04-3.92726E-15
 -1      3330 3.50331E-03-2.58087E-05-4.93999E-15
 -1      3331 3.65296E-03 5.94234E-05-5.36303E-15
 -1      3332 3.47872E-03-3.80025E-05-4.70031E-15
 -1      3333 3.80422E-03 1.53241E-04-5.80387E-15
 -1      3334 3.95736E-03 2.53586E-04-6.26096E-15
 -1      3335 3.78465E-03 1.37887E-04-5.54403E-15
 -1      3336 4.11206E-03 3.59238E-04-6.73425E-15
 -1      3337 4.26797E-03 4.68257E-04-7.22426E-15
 -1      3338 4.09865E-03 3.44625E-04-6.45474E-15
 -1      3339 4.42475E-03 5.79730E-04-7.73013E-15
 -1      3340 4.58164E-03 6.92339E-04-8.25190E-15
 -1      3341 4.41843E-03 5.67351E-04-7.43090E-15
 -1      3342 4.73847E-03 8.05499E-04-8.78944E-15
 -1      3343 4.89459E-03 9.18645E-04-9.34124E-15
 -1      3344 4.73936E-03 7.94922E-04-8.47064E-15
 -1      3345 5.04998E-03 1.03145E-03-9.90852E-15
 -1      3346 5.20417E-03 1.14376E-03-1.04931E-14
 -1      3347 5.05731E-03 1.02151E-03-9.57223E-15
 -1      3348 5.35728E-03 1.25543E-03-1.10928E-14
 -1      3349 5.50906E-03 1.36656E-03-1.17072E-14
 -1      3350 5.36982E-03 1.24509E-03-1.07367E-14
 -1      3351 5.65971E-03 1.47707E-03-1.23374E-14
 -1      3352 5.80915E-03 1.58714E-03-1.29823E-14
 -1      3353 5.67613E-03 1.46570E-03-1.19632E-14
 -1      3354 5.95757E-03 1.69674E-03-1.36420E-14
 -1      3355 6.10500E-03 1.80604E-03-1.43166E-14
 -1      3356 5.97668E-03 1.68410E-03-1.32514E-14
 -1      3357 6.25161E-03 1.91501E-03-1.50053E-14
 -1      3358 6.39747E-03 2.02380E-03-1.57083E-14
 -1      3359 6.27247E-03 1.90116E-03-1.45971E-14
 -1      3360 6.54272E-03 2.13239E-03-1.64245E-14
 -1      3361 6.68744E-03 2.24088E-03-1.71557E-14
 -1      3362 6.56466E-03 2.11751E-03-1.60011E-14
 -1      3363 6.83173E-03 2.34926E-03-1.79005E-14
 -1      3364 6.97567E-03 2.45760E-03-1.86588E-14
 -1      3365 6.85428E-03 2.33358E-03-1.74599E-14
 -1      3366 7.11933E-03 2.56588E-03-1.94298E-14
 -1      3367 7.26276E-03 2.67416E-03-2.02142E-14
 -1      3368 7.14219E-03 2.54963E-03-1.89729E-14
 -1      3369 7.40601E-03 2.78242E-03-2.10129E-14
 -1      3370 7.54913E-03 2.89069E-03-2.18267E-14
 -1      3371 7.42900E-03 2.76577E-03-2.05399E-14
 -1      3372 7.69215E-03 2.99896E-03-2.26527E-14
 -1      3373 7.83510E-03 3.10725E-03-2.34909E-14
 -1      3374 7.71517E-03 2.98206E-03-2.21610E-14
 -1      3375 7.97799E-03 3.21557E-03-2.43432E-14
 -1      3376 8.12084E-03 3.32390E-03-2.52085E-14
 -1      3377 8.00097E-03 3.19851E-03-2.38367E-14
 -1      3378 8.26367E-03 3.43225E-03-2.60861E-14
 -1      3379 8.40648E-03 3.54063E-03-2.69762E-14
 -1      3380 8.28660E-03 3.41510E-03-2.55629E-14
 -1      3381 8.54929E-03 3.64904E-03-2.78803E-14
 -1      3382 8.69209E-03 3.75746E-03-2.87968E-14
 -1      3383 8.57216E-03 3.63184E-03-2.73406E-14
 -1      3384 8.83489E-03 3.86591E-03-2.97240E-14
 -1      3385 8.97769E-03 3.97438E-03-3.06639E-14
 -1      3386 8.85771E-03 3.84869E-03-2.91679E-14
 -1      3387 9.12050E-03 4.08287E-03-3.16158E-14
 -1      3388 9.26332E-03 4.19138E-03-3.25769E-14
 -1      3389 9.14327E-03 4.06564E-03-3.10435E-14
 -1      3390 9.40614E-03 4.29991E-03-3.35492E-14
 -1      3391 9.54896E-03 4.40845E-03-3.45314E-14
 -1      3392 9.42887E-03 4.28268E-03-3.29623E-14
 -1      3393 9.69179E-03 4.51701E-03-3.55229E-14
 -1      3394 9.83463E-03 4.62559E-03-3.65244E-14
 -1      3395 9.71450E-03 4.49978E-03-3.49231E-14
 -1      3396 9.97747E-03 4.73417E-03-3.75333E-14
 -1      3397 1.01203E-02 4.84277E-03-3.85524E-14
 -1      3398 1.00002E-02 4.71694E-03-3.69217E-14
 -1      3399 1.02632E-02 4.95137E-03-3.95807E-14
 -1      3400 1.04060E-02 5.05999E-03-4.06158E-14
 -1      3401 1.02858E-02 4.93415E-03-3.89579E-14
 -1      3402 1.05489E-02 5.16861E-03-4.16605E-14
 -1      3403 1.06917E-02 5.27725E-03-4.27136E-14
 -1      3404 1.05715E-02 5.15139E-03-4.10285E-14
 -1      3405 1.08346E-02 5.38588E-03-4.37735E-14
 -1      3406 1.09774E-02 5.49453E-03-4.48415E-14
 -1      3407 1.08572E-02 5.36866E-03-4.31322E-14
 -1      3408 1.11203E-02 5.60318E-03-4.59173E-14
 -1      3409 1.12631E-02 5.71183E-03-4.69981E-14
 -1      3410 1.11429E-02 5.58596E-03-4.52674E-14
 -1      3411 1.14060E-02 5.82048E-03-4.80833E-14
 -1      3412 1.15489E-02 5.92914E-03-4.91738E-14
 -1      3413 1.14287E-02 5.80327E-03-4.74298E-14
 -1      3414 1.16917E-02 6.03781E-03-5.02703E-14
 -1      3415 1.18346E-02 6.14647E-03-5.13743E-14
 -1      3416 1.17144E-02 6.02059E-03-4.96137E-14
 -1      3417 1.19774E-02 6.25514E-03-5.24817E-14
 -1      3418 1.21203E-02 6.36381E-03-5.35946E-14
 -1      3419 1.20001E-02 6.23792E-03-5.18190E-14
 -1      3420 1.22632E-02 6.47247E-03-5.47122E-14
 -1      3421 1.24060E-02 6.58115E-03-5.58331E-14
 -1      3422 1.22858E-02 6.45526E-03-5.40442E-14
 -1      3423 1.25489E-02 6.68982E-03-5.69612E-14
 -1      3424 1.26917E-02 6.79849E-03-5.80884E-14
 -1      3425 1.25715E-02 6.67260E-03-5.62886E-14
 -1      3426 1.28346E-02 6.90716E-03-5.92244E-14
 -1      3427 1.29775E-02 7.01583E-03-6.03635E-14
 -1      3428 1.28573E-02 6.88994E-03-5.85509E-14
 -1      3429 1.31040E-02 7.11378E-03-6.14170E-14
 -1      3430 1.32469E-02 7.22246E-03-6.25595E-14
 -1      3431 1.33798E-02 7.29246E-03-6.28480E-14
 -1      3432 1.31267E-02 7.09656E-03-6.07398E-14
 -1      3433 8.71891E-03 3.15974E-03-1.75411E-14
 -1      3434 8.58512E-03 3.05611E-03-1.68340E-14
 -1      3435 8.69695E-03 3.17908E-03-1.80301E-14
 -1      3436 7.37509E-03 2.09893E-03-1.07523E-14
 -1      3437 7.25470E-03 1.99990E-03-1.01533E-14
 -1      3438 8.44489E-03 2.94721E-03-1.61021E-14
 -1      3439 8.30539E-03 2.83848E-03-1.53834E-14
 -1      3440 8.42297E-03 2.96734E-03-1.65735E-14
 -1      3441 9.27885E-03 3.59112E-03-2.06011E-14
 -1      3442 9.13669E-03 3.48188E-03-1.98095E-14
 -1      3443 8.97269E-03 3.39141E-03-1.95331E-14
 -1      3444 9.56364E-03 3.80953E-03-2.22226E-14
 -1      3445 9.42118E-03 3.70033E-03-2.14050E-14
 -1      3446 9.25663E-03 3.60944E-03-2.11212E-14
 -1      3447 9.84885E-03 4.02781E-03-2.38948E-14
 -1      3448 9.70620E-03 3.91868E-03-2.30534E-14
 -1      3449 9.54130E-03 3.82754E-03-2.27567E-14
 -1      3450 1.01343E-02 4.24594E-03-2.56218E-14
 -1      3451 9.99154E-03 4.13689E-03-2.47505E-14
 -1      3452 9.82640E-03 4.04560E-03-2.44447E-14
 -1      3453 1.04199E-02 4.46393E-03-2.73999E-14
 -1      3454 1.02771E-02 4.35495E-03-2.65057E-14
 -1      3455 1.01118E-02 4.26357E-03-2.61874E-14
 -1      3456 1.07055E-02 4.68179E-03-2.92300E-14
 -1      3457 1.05627E-02 4.57288E-03-2.83081E-14
 -1      3458 1.03973E-02 4.48145E-03-2.79798E-14
 -1      3459 1.09769E-02 4.88866E-03-3.10168E-14
 -1      3460 1.08412E-02 4.78524E-03-3.01171E-14
 -1      3461 1.06758E-02 4.69379E-03-2.97765E-14
 -1      3462 1.12626E-02 5.10633E-03-3.29544E-14
 -1      3463 1.11198E-02 4.99751E-03-3.19780E-14
 -1      3464 1.09543E-02 4.90604E-03-3.16241E-14
 -1      3465 1.15484E-02 5.32392E-03-3.49456E-14
 -1      3466 1.14055E-02 5.21513E-03-3.39431E-14
 -1      3467 1.12400E-02 5.12366E-03-3.35727E-14
 -1      3468 1.18341E-02 5.54144E-03-3.69873E-14
 -1      3469 1.16912E-02 5.43269E-03-3.59604E-14
 -1      3470 1.15257E-02 5.34122E-03-3.55761E-14
 -1      3471 1.21198E-02 5.75892E-03-3.90673E-14
 -1      3472 1.19770E-02 5.65019E-03-3.80238E-14
 -1      3473 1.18114E-02 5.55872E-03-3.76250E-14
 -1      3474 1.24056E-02 5.97637E-03-4.11881E-14
 -1      3475 1.22627E-02 5.86765E-03-4.01236E-14
 -1      3476 1.20971E-02 5.77618E-03-3.97148E-14
 -1      3477 1.26913E-02 6.19378E-03-4.33442E-14
 -1      3478 1.25484E-02 6.08508E-03-4.22615E-14
 -1      3479 1.23829E-02 5.99361E-03-4.18409E-14
 -1      3480 1.29770E-02 6.41117E-03-4.55310E-14
 -1      3481 1.28341E-02 6.30248E-03-4.44339E-14
 -1      3482 1.26686E-02 6.21102E-03-4.40013E-14
 -1      3483 1.32484E-02 6.61768E-03-4.76448E-14
 -1      3484 1.31127E-02 6.51443E-03-4.65837E-14
 -1      3485 1.29472E-02 6.42297E-03-4.61406E-14
 -1      3486 1.35342E-02 6.83505E-03-4.98879E-14
 -1      3487 1.33913E-02 6.72636E-03-4.87636E-14
 -1      3488 1.32257E-02 6.63491E-03-4.83131E-14
 -1      3489 1.38199E-02 7.05240E-03-5.21521E-14
 -1      3490 1.36770E-02 6.94373E-03-5.10177E-14
 -1      3491 1.35115E-02 6.85227E-03-5.05609E-14
 -1      3492 1.41056E-02 7.26976E-03-5.44214E-14
 -1      3493 1.39627E-02 7.16108E-03-5.32885E-14
 -1      3494 1.37972E-02 7.06963E-03-5.28264E-14
 -1      3495 1.43913E-02 7.48711E-03-5.66989E-14
 -1      3496 1.42485E-02 7.37843E-03-5.55598E-14
 -1      3497 1.40829E-02 7.28698E-03-5.50969E-14
 -1      3498 1.46770E-02 7.70445E-03-5.89730E-14
 -1      3499 1.45342E-02 7.59578E-03-5.78347E-14
 -1      3500 1.43686E-02 7.50433E-03-5.73720E-14
 -1      3501 1.49207E-02 7.88746E-03-6.08545E-14
 -1      3502 1.38617E-02 7.48524E-03-6.23879E-14
 -1      3503 1.39685E-02 7.52739E-03-6.22741E-14
 -1      3504 8.16689E-03 2.73017E-03-1.46781E-14
 -1      3505 8.02958E-03 2.62224E-03-1.39866E-14
 -1      3506 8.14483E-03 2.75140E-03-1.51339E-14
 -1      3507 3.54437E-03-2.86198E-05-4.01915E-15
 -1      3508 3.37931E-03-8.94305E-05-3.68812E-15
 -1      3509 2.15619E-03 4.56936E-05-1.65392E-15
 -1      3510 1.99505E-03 1.17348E-04-1.47130E-15
 -1      3511 7.13956E-03 1.90484E-03-9.56932E-15
 -1      3512 7.03113E-03 1.81298E-03-9.00246E-15
 -1      3513 7.10615E-03 1.93286E-03-9.95430E-15
 -1      3514 7.89383E-03 2.51511E-03-1.33101E-14
 -1      3515 7.75997E-03 2.40872E-03-1.26481E-14
 -1      3516 7.87117E-03 2.53776E-03-1.37492E-14
 -1      3517 5.58438E-03 1.21263E-03-7.01648E-15
 -1      3518 5.31644E-03 1.07448E-03-6.73773E-15
 -1      3519 7.62851E-03 2.30376E-03-1.19996E-14
 -1      3520 7.49999E-03 2.20012E-03-1.13676E-14
 -1      3521 7.34782E-03 2.12522E-03-1.11563E-14
 -1      3522 7.60437E-03 2.32814E-03-1.24219E-14
 -1      3523 1.52436E-03 3.13673E-04-1.05741E-15
 -1      3524 1.37905E-03 3.52316E-04-9.47267E-16
 -1      3525 1.49817E-03 2.51858E-04-9.95785E-16
 -1      3526 1.26633E-03 3.86103E-04-8.69571E-16
 -1      3527 1.18824E-03 3.96546E-04-8.04187E-16
 -1      3528 6.13248E-03 1.44277E-03-7.47221E-15
 -1      3529 5.88382E-03 1.34792E-03-7.28802E-15
 -1      3530 6.55931E-03 1.56159E-03-7.62223E-15
 -1      3531 6.38733E-03 1.52290E-03-7.60079E-15
 -1      3532 1.68177E-03-2.81101E-04-1.24153E-15
 -1      3533 1.83969E-03-2.95926E-04-1.45307E-15
 -1      3534 1.93415E-03-2.61787E-04-1.55326E-15
 -1      3535 3.82693E-03 1.25299E-04-4.64602E-15
 -1      3536 3.68473E-03 4.04905E-05-4.32704E-15
 -1      3537 3.57971E-03-2.99990E-06-4.23687E-15
 -1      3538 1.06487E-03 3.26794E-05-5.46601E-16
 -1      3539 1.07729E-03-8.92318E-06-5.57104E-16
 -1      3540 1.21873E-03-3.54149E-05-6.82248E-16
 -1      3541 6.96330E-03 1.74009E-03-8.49663E-15
 -1      3542 6.87131E-03 1.65609E-03-7.95101E-15
 -1      3543 6.80228E-03 1.63413E-03-7.87354E-15
 -1      3544 6.92241E-03 1.77009E-03-8.86395E-15
 -1      3545 1.27292E-03-2.21929E-04-7.66761E-16
 -1      3546 1.19167E-03 2.78702E-04-7.22106E-16
 -1      3547 1.23959E-03 2.38629E-04-7.45375E-16
 -1      3548 1.46079E-02 7.77955E-03-6.15852E-14
 -1      3549 1.45376E-02 7.70651E-03-6.05394E-14
 -1      3550 1.45010E-02 7.73741E-03-6.17031E-14
 -1      3551 3.24264E-03-1.24428E-04-3.44713E-15
 -1      3552 3.10781E-03-1.47657E-04-3.21498E-15
 -1      3553 3.30985E-03-1.08588E-04-3.68271E-15
 -1      3554 1.34862E-02 7.33443E-03-6.27282E-14
 -1      3555 4.51927E-03 5.91312E-04-5.92667E-15
 -1      3556 4.36486E-03 4.89753E-04-5.77415E-15
 -1      3557 1.80721E-03 1.28473E-04-1.27096E-15
 -1      3558 4.08375E-03 3.00492E-04-5.29789E-15
 -1      3559 3.95461E-03 2.09826E-04-4.96627E-15
 -1      3560 3.83963E-03 1.46022E-04-4.86887E-15
 -1      3561 1.47435E-02 7.77228E-03-5.99285E-14
 -1      3562 1.45780E-02 7.68083E-03-5.94632E-14
 -1      3563 5.13506E-03 9.80882E-04-6.70735E-15
 -1      3564 4.96869E-03 8.86712E-04-6.67313E-15
 -1      3565 5.28467E-03 1.07607E-03-7.15274E-15
 -1      3566 1.37553E-02 7.44328E-03-6.25005E-14
 -1      3567 1.36850E-02 7.37024E-03-6.14547E-14
 -1      3568 1.36489E-02 7.40131E-03-6.26151E-14
 -1      3569 1.38978E-02 7.45417E-03-6.12291E-14
 -1      3570 1.40749E-02 7.56936E-03-6.21609E-14
 -1      3571 1.41813E-02 7.61133E-03-6.20480E-14
 -1      3572 2.85789E-03-1.50373E-04-2.73029E-15
 -1      3573 2.77663E-03-1.22707E-04-2.54026E-15
 -1      3574 2.59933E-03-1.18800E-04-2.29886E-15
 -1      3575 1.06519E-03 3.60479E-04-6.03196E-16
 -1      3576 6.72806E-03 1.61018E-03-7.78665E-15
 -1      3577 6.64631E-03 1.58752E-03-7.70892E-15
 -1      3578 6.61563E-03 1.62015E-03-8.09373E-15
 -1      3579 6.78220E-03 1.67445E-03-8.27305E-15
 -1      3580 1.39016E-03 2.21487E-04-8.77594E-16
 -1      3581 1.24955E-03 1.72907E-04-7.29343E-16
 -1      3582 1.28302E-03 1.24925E-04-7.47747E-16
 -1      3583 1.51488E-03 1.71830E-04-9.80119E-16
 -1      3584 1.14094E-03 3.99602E-04-7.50146E-16
 -1      3585 1.11493E-03 3.91214E-04-6.94316E-16
 -1      3586 1.36699E-03-1.87193E-04-8.52603E-16
 -1      3587 1.41264E-03-2.41123E-04-9.16002E-16
 -1      3588 1.55323E-03-2.59157E-04-1.07843E-15
 -1      3589 5.75099E-03 1.30558E-03-7.46202E-15
 -1      3590 6.28986E-03 1.51884E-03-7.87409E-15
 -1      3591 1.25684E-03 3.34213E-04-8.18546E-16
 -1      3592 4.65485E-03 6.84981E-04-6.20176E-15
 -1      3593 1.36970E-03-1.40753E-04-8.42967E-16
 -1      3594 1.51478E-03-1.56013E-04-9.97398E-16
 -1      3595 1.36897E-03-9.29365E-05-8.31963E-16
 -1      3596 1.64133E-03-2.26145E-04-1.16611E-15
 -1      3597 1.01694E-03 3.35773E-04-5.60126E-16
 -1      3598 1.10957E-03 3.65023E-04-6.97528E-16
 -1      3599 1.02451E-03 3.29111E-04-5.87760E-16
 -1      3600 1.19181E-03 5.71637E-05-6.56823E-16
 -1      3601 2.31949E-03-6.14955E-05-1.88838E-15
 -1      3602 2.24313E-03-9.29501E-06-1.76934E-15
 -1      3603 2.05905E-03 3.87326E-07-1.55387E-15
 -1      3604 1.06537E-03 3.25683E-04-6.33066E-16
 -1      3605 8.95032E-03 3.41001E-03-2.00374E-14
 -1      3606 8.80874E-03 3.30130E-03-1.92526E-14
 -1      3607 2.52245E-03-2.52047E-04-2.42956E-15
 -1      3608 2.68217E-03-2.48376E-04-2.72330E-15
 -1      3609 3.14652E-03-1.71723E-04-3.71301E-15
 -1      3610 3.29914E-03-1.18733E-04-4.07973E-15
 -1      3611 3.45155E-03-5.12777E-05-4.46449E-15
 -1      3612 3.60613E-03 2.90232E-05-4.86711E-15
 -1      3613 3.42302E-03-6.51603E-05-4.23134E-15
 -1      3614 3.76242E-03 1.21168E-04-5.28687E-15
 -1      3615 3.92157E-03 2.21785E-04-5.72399E-15
 -1      3616 3.73898E-03 1.02186E-04-5.03247E-15
 -1      3617 4.08307E-03 3.29359E-04-6.17743E-15
 -1      3618 4.24620E-03 4.41077E-04-6.64730E-15
 -1      3619 4.06594E-03 3.12569E-04-5.90330E-15
 -1      3620 4.41075E-03 5.55622E-04-7.13419E-15
 -1      3621 4.57523E-03 6.70664E-04-7.63678E-15
 -1      3622 4.40202E-03 5.43517E-04-6.84027E-15
 -1      3623 4.73954E-03 7.85743E-04-8.15504E-15
 -1      3624 4.90267E-03 9.00058E-04-8.68893E-15
 -1      3625 4.73935E-03 7.77546E-04-7.84235E-15
 -1      3626 5.06455E-03 1.01334E-03-9.23794E-15
 -1      3627 5.22448E-03 1.12550E-03-9.80285E-15
 -1      3628 5.07195E-03 1.00682E-03-8.90676E-15
 -1      3629 5.38263E-03 1.23649E-03-1.03837E-14
 -1      3630 5.53869E-03 1.34659E-03-1.09806E-14
 -1      3631 5.39595E-03 1.22967E-03-1.00337E-14
 -1      3632 5.69295E-03 1.45580E-03-1.15926E-14
 -1      3633 5.84536E-03 1.56448E-03-1.22196E-14
 -1      3634 5.71043E-03 1.44750E-03-1.12241E-14
 -1      3635 5.99619E-03 1.67262E-03-1.28629E-14
 -1      3636 6.14555E-03 1.78051E-03-1.35205E-14
 -1      3637 6.01635E-03 1.66239E-03-1.24768E-14
 -1      3638 6.29369E-03 1.88814E-03-1.41919E-14
 -1      3639 6.44073E-03 1.99571E-03-1.48780E-14
 -1      3640 6.31544E-03 1.87605E-03-1.37888E-14
 -1      3641 6.58687E-03 2.10320E-03-1.55790E-14
 -1      3642 6.73226E-03 2.21073E-03-1.62937E-14
 -1      3643 6.60950E-03 2.08952E-03-1.51587E-14
 -1      3644 6.87704E-03 2.31828E-03-1.70212E-14
 -1      3645 7.02131E-03 2.42591E-03-1.77632E-14
 -1      3646 6.90009E-03 2.30338E-03-1.65856E-14
 -1      3647 7.16520E-03 2.53360E-03-1.85204E-14
 -1      3648 7.30876E-03 2.64139E-03-1.92891E-14
 -1      3649 7.18841E-03 2.51782E-03-1.80676E-14
 -1      3650 7.45209E-03 2.74925E-03-2.00697E-14
 -1      3651 7.59524E-03 2.85720E-03-2.08659E-14
 -1      3652 7.47533E-03 2.73286E-03-1.96036E-14
 -1      3653 7.73825E-03 2.96522E-03-2.16748E-14
 -1      3654 7.88116E-03 3.07331E-03-2.24977E-14
 -1      3655 7.76143E-03 2.94844E-03-2.11920E-14
 -1      3656 8.02400E-03 3.18147E-03-2.33319E-14
 -1      3657 8.16680E-03 3.28968E-03-2.41808E-14
 -1      3658 8.04710E-03 3.16445E-03-2.28315E-14
 -1      3659 8.30956E-03 3.39795E-03-2.50424E-14
 -1      3660 8.45231E-03 3.50627E-03-2.59160E-14
 -1      3661 8.33257E-03 3.38080E-03-2.45244E-14
 -1      3662 8.59505E-03 3.61463E-03-2.68033E-14
 -1      3663 8.73780E-03 3.72302E-03-2.77036E-14
 -1      3664 8.61798E-03 3.59740E-03-2.62687E-14
 -1      3665 8.88054E-03 3.83145E-03-2.86147E-14
 -1      3666 9.02330E-03 3.93991E-03-2.95383E-14
 -1      3667 8.90340E-03 3.81419E-03-2.80636E-14
 -1      3668 9.16606E-03 4.04839E-03-3.04734E-14
 -1      3669 9.30883E-03 4.15690E-03-3.14205E-14
 -1      3670 9.18886E-03 4.03113E-03-2.99068E-14
 -1      3671 9.45162E-03 4.26543E-03-3.23782E-14
 -1      3672 9.59441E-03 4.37398E-03-3.33455E-14
 -1      3673 9.47438E-03 4.24816E-03-3.17960E-14
 -1      3674 9.73722E-03 4.48254E-03-3.43253E-14
 -1      3675 9.88003E-03 4.59112E-03-3.53141E-14
 -1      3676 9.75995E-03 4.46528E-03-3.37303E-14
 -1      3677 1.00229E-02 4.69971E-03-3.63119E-14
 -1      3678 1.01657E-02 4.80831E-03-3.73213E-14
 -1      3679 1.00456E-02 4.68246E-03-3.57055E-14
 -1      3680 1.03085E-02 4.91692E-03-3.83367E-14
 -1      3681 1.04514E-02 5.02554E-03-3.93627E-14
 -1      3682 1.03312E-02 4.89968E-03-3.77190E-14
 -1      3683 1.05942E-02 5.13416E-03-4.03999E-14
 -1      3684 1.07371E-02 5.24280E-03-4.14427E-14
 -1      3685 1.06169E-02 5.11693E-03-3.97699E-14
 -1      3686 1.08799E-02 5.35144E-03-4.24938E-14
 -1      3687 1.10228E-02 5.46008E-03-4.35516E-14
 -1      3688 1.09026E-02 5.33421E-03-4.18569E-14
 -1      3689 1.11656E-02 5.56873E-03-4.46191E-14
 -1      3690 1.13085E-02 5.67739E-03-4.56948E-14
 -1      3691 1.11883E-02 5.55151E-03-4.39748E-14
 -1      3692 1.14513E-02 5.78604E-03-4.67760E-14
 -1      3693 1.15942E-02 5.89470E-03-4.78631E-14
 -1      3694 1.14740E-02 5.76882E-03-4.61224E-14
 -1      3695 1.17371E-02 6.00337E-03-4.89553E-14
 -1      3696 1.18799E-02 6.11203E-03-5.00551E-14
 -1      3697 1.17597E-02 5.98615E-03-4.82992E-14
 -1      3698 1.20228E-02 6.22070E-03-5.11583E-14
 -1      3699 1.21656E-02 6.32937E-03-5.22661E-14
 -1      3700 1.20454E-02 6.20348E-03-5.04985E-14
 -1      3701 1.23085E-02 6.43804E-03-5.33812E-14
 -1      3702 1.24514E-02 6.54671E-03-5.44982E-14
 -1      3703 1.23312E-02 6.42082E-03-5.27179E-14
 -1      3704 1.25942E-02 6.65538E-03-5.56211E-14
 -1      3705 1.27371E-02 6.76405E-03-5.67473E-14
 -1      3706 1.26169E-02 6.63816E-03-5.49551E-14
 -1      3707 1.28799E-02 6.87272E-03-5.78778E-14
 -1      3708 1.30228E-02 6.98139E-03-5.90150E-14
 -1      3709 1.29026E-02 6.85550E-03-5.72077E-14
 -1      3710 1.32893E-02 7.16344E-03-6.06232E-14
 -1      3711 1.34159E-02 7.26139E-03-6.16777E-14
 -1      3712 8.40037E-03 2.98708E-03-1.70485E-14
 -1      3713 8.26065E-03 2.87929E-03-1.63138E-14
 -1      3714 1.83650E-03 4.39029E-05-1.29788E-15
 -1      3715 1.67808E-03 1.13157E-04-1.13284E-15
 -1      3716 1.55229E-03 9.52411E-05-1.00214E-15
 -1      3717 9.51885E-03 3.84549E-03-2.32935E-14
 -1      3718 9.37647E-03 3.73656E-03-2.24608E-14
 -1      3719 9.80389E-03 4.06335E-03-2.49964E-14
 -1      3720 9.66132E-03 3.95442E-03-2.41388E-14
 -1      3721 9.49630E-03 3.86337E-03-2.38309E-14
 -1      3722 1.00892E-02 4.28119E-03-2.67535E-14
 -1      3723 9.94651E-03 4.17228E-03-2.58685E-14
 -1      3724 9.78131E-03 4.08106E-03-2.55504E-14
 -1      3725 1.03747E-02 4.49896E-03-2.85601E-14
 -1      3726 1.02319E-02 4.39008E-03-2.76504E-14
 -1      3727 1.00666E-02 4.29877E-03-2.73205E-14
 -1      3728 1.06460E-02 4.70578E-03-3.03235E-14
 -1      3729 1.05103E-02 4.60238E-03-2.94360E-14
 -1      3730 1.03449E-02 4.51101E-03-2.90958E-14
 -1      3731 1.09316E-02 4.92342E-03-3.22313E-14
 -1      3732 1.07888E-02 4.81461E-03-3.12704E-14
 -1      3733 1.06233E-02 4.72320E-03-3.09176E-14
 -1      3734 1.12173E-02 5.14100E-03-3.41928E-14
 -1      3735 1.10744E-02 5.03221E-03-3.32060E-14
 -1      3736 1.09089E-02 4.94078E-03-3.28391E-14
 -1      3737 1.15030E-02 5.35852E-03-3.62069E-14
 -1      3738 1.13601E-02 5.24976E-03-3.51939E-14
 -1      3739 1.11946E-02 5.15832E-03-3.48139E-14
 -1      3740 1.17887E-02 5.57600E-03-3.82645E-14
 -1      3741 1.16458E-02 5.46726E-03-3.72312E-14
 -1      3742 1.14803E-02 5.37581E-03-3.68384E-14
 -1      3743 1.20744E-02 5.79344E-03-4.03602E-14
 -1      3744 1.19316E-02 5.68472E-03-3.93073E-14
 -1      3745 1.17660E-02 5.59327E-03-3.89030E-14
 -1      3746 1.23602E-02 6.01086E-03-4.24931E-14
 -1      3747 1.22173E-02 5.90215E-03-4.14214E-14
 -1      3748 1.20517E-02 5.81070E-03-4.10062E-14
 -1      3749 1.26459E-02 6.22826E-03-4.46603E-14
 -1      3750 1.25030E-02 6.11956E-03-4.35742E-14
 -1      3751 1.23375E-02 6.02810E-03-4.31462E-14
 -1      3752 1.29173E-02 6.43477E-03-4.67531E-14
 -1      3753 1.27816E-02 6.33151E-03-4.57024E-14
 -1      3754 1.26160E-02 6.24006E-03-4.52660E-14
 -1      3755 1.32031E-02 6.65214E-03-4.89825E-14
 -1      3756 1.30602E-02 6.54345E-03-4.78642E-14
 -1      3757 1.28946E-02 6.45200E-03-4.74182E-14
 -1      3758 1.34888E-02 6.86949E-03-5.12334E-14
 -1      3759 1.33459E-02 6.76082E-03-5.01048E-14
 -1      3760 1.31804E-02 6.66936E-03-4.96513E-14
 -1      3761 1.37745E-02 7.08685E-03-5.34988E-14
 -1      3762 1.36316E-02 6.97817E-03-5.23656E-14
 -1      3763 1.34661E-02 6.88672E-03-5.19065E-14
 -1      3764 1.40602E-02 7.30420E-03-5.57716E-14
 -1      3765 1.39174E-02 7.19552E-03-5.46360E-14
 -1      3766 1.37518E-02 7.10407E-03-5.41745E-14
 -1      3767 1.43459E-02 7.52155E-03-5.80439E-14
 -1      3768 1.42031E-02 7.41287E-03-5.69058E-14
 -1      3769 1.40375E-02 7.32142E-03-5.64435E-14
 -1      3770 8.12171E-03 2.77201E-03-1.55923E-14
 -1      3771 7.98373E-03 2.66528E-03-1.48831E-14
 -1      3772 8.09791E-03 2.79188E-03-1.60520E-14
 -1      3773 1.36395E-03-4.39371E-05-8.19264E-16
 -1      3774 7.84693E-03 2.55943E-03-1.41897E-14
 -1      3775 7.71157E-03 2.45449E-03-1.35112E-14
 -1      3776 7.82176E-03 2.57998E-03-1.46348E-14
 -1      3777 9.23424E-03 3.62767E-03-2.16397E-14
 -1      3778 9.09217E-03 3.51880E-03-2.08328E-14
 -1      3779 8.92773E-03 3.42841E-03-2.05435E-14
 -1      3780 9.21169E-03 3.64577E-03-2.21613E-14
 -1      3781 8.67102E-03 3.19546E-03-1.85004E-14
 -1      3782 8.53721E-03 3.09249E-03-1.77789E-14
 -1      3783 8.37378E-03 3.00366E-03-1.75075E-14
 -1      3784 8.64828E-03 3.21425E-03-1.89927E-14
 -1      3785 6.44404E-03 1.59610E-03-8.29964E-15
 -1      3786 6.20528E-03 1.51521E-03-8.16412E-15
 -1      3787 1.10350E-03 3.04770E-04-6.58477E-16
 -1      3788 4.81122E-03 7.93894E-04-6.63109E-15
 -1      3789 4.66827E-03 7.04877E-04-6.58573E-15
 -1      3790 4.96445E-03 8.96647E-04-7.07301E-15
 -1      3791 1.86573E-03-2.12185E-04-1.42878E-15
 -1      3792 2.03106E-03-2.26478E-04-1.65297E-15
 -1      3793 5.91221E-03 1.40012E-03-8.00755E-15
 -1      3794 5.63662E-03 1.27021E-03-7.72154E-15
 -1      3795 7.06970E-03 1.95782E-03-1.03396E-14
 -1      3796 6.95101E-03 1.86677E-03-9.75350E-15
 -1      3797 1.44750E-02 7.64795E-03-5.97688E-14
 -1      3798 1.44085E-02 7.58012E-03-5.88130E-14
 -1      3799 1.42430E-02 7.48866E-03-5.83473E-14
 -1      3800 1.43682E-02 7.60580E-03-5.98877E-14
 -1      3801 3.64651E-03 4.13304E-05-4.59001E-15
 -1      3802 3.51462E-03-2.69459E-05-4.27280E-15
 -1      3803 1.42880E-02 7.65338E-03-6.19346E-14
 -1      3804 1.43944E-02 7.69535E-03-6.18194E-14
 -1      3805 1.43241E-02 7.62231E-03-6.07742E-14
 -1      3806 1.41108E-02 7.53820E-03-6.10038E-14
 -1      3807 1.62288E-03-1.73299E-04-1.12192E-15
 -1      3808 1.75758E-03-1.94681E-04-1.28707E-15
 -1      3809 1.84901E-03-1.57460E-04-1.37599E-15
 -1      3810 1.62681E-03-1.22611E-04-1.10707E-15
 -1      3811 2.19636E-03-2.38999E-04-1.89425E-15
 -1      3812 2.36038E-03-2.47874E-04-2.15293E-15
 -1      3813 2.12980E-03-1.90828E-04-1.75233E-15
 -1      3814 3.35441E-03-9.42321E-05-3.89757E-15
 -1      3815 3.22406E-03-1.36915E-04-3.64712E-15
 -1      3816 7.55024E-03 2.37220E-03-1.32746E-14
 -1      3817 7.57789E-03 2.35100E-03-1.28471E-14
 -1      3818 7.44636E-03 2.24897E-03-1.21972E-14
 -1      3819 1.91980E-03-5.23892E-06-1.39728E-15
 -1      3820 2.83895E-03-2.35482E-04-3.03501E-15
 -1      3821 2.99379E-03-2.10243E-04-3.36507E-15
 -1      3822 1.33120E-02 7.14622E-03-5.99525E-14
 -1      3823 1.44952E-03 2.32297E-05-8.97069E-16
 -1      3824 1.61366E-03-4.01851E-05-1.07108E-15
 -1      3825 6.26159E-03 1.58155E-03-8.87673E-15
 -1      3826 6.09142E-03 1.49343E-03-8.43660E-15
 -1      3827 5.98729E-03 1.46766E-03-8.71067E-15
 -1      3828 3.81129E-03 1.38028E-04-4.99859E-15
 -1      3829 5.46881E-03 1.18947E-03-7.68622E-15
 -1      3830 5.30889E-03 1.10542E-03-7.64993E-15
 -1      3831 5.64446E-03 1.29467E-03-8.23797E-15
 -1      3832 1.37209E-02 7.33908E-03-6.02969E-14
 -1      3833 1.38273E-02 7.38105E-03-6.01858E-14
 -1      3834 2.99580E-03-1.71279E-04-3.08404E-15
 -1      3835 2.82801E-03-1.88766E-04-2.81079E-15
 -1      3836 1.42930E-03 7.73300E-05-8.78814E-16
 -1      3837 1.34632E-02 7.22167E-03-6.01798E-14
 -1      3838 1.35696E-02 7.26363E-03-6.00672E-14
 -1      3839 1.34991E-02 7.19051E-03-5.90238E-14
 -1      3840 1.31967E-02 7.03962E-03-5.85666E-14
 -1      3841 3.06472E-03-1.72515E-04-3.30297E-15
 -1      3842 4.33860E-03 4.82465E-04-5.98084E-15
 -1      3843 4.19332E-03 3.79153E-04-5.60153E-15
 -1      3844 7.31715E-03 2.14919E-03-1.15612E-14
 -1      3845 7.19103E-03 2.05165E-03-1.09430E-14
 -1      3846 7.28514E-03 2.17080E-03-1.19717E-14
 -1      3847 6.54076E-03 1.63010E-03-8.39253E-15
 -1      3848 6.46692E-03 1.63467E-03-8.69265E-15
 -1      3849 6.63222E-03 1.66106E-03-8.48433E-15
 -1      3850 3.11161E-03-1.71546E-04-3.50276E-15
 -1      3851 2.40520E-03-1.41053E-04-2.06786E-15
 -1      3852 2.22814E-03-1.32820E-04-1.82936E-15
 -1      3853 7.03032E-03 1.97923E-03-1.07292E-14
 -1      3854 2.48966E-03-1.77525E-04-2.23446E-15
 -1      3855 6.73494E-03 1.77650E-03-9.44817E-15
 -1      3856 6.78752E-03 1.75778E-03-9.08087E-15
 -1      3857 2.46699E-03-2.14971E-04-2.26490E-15
 -1      3858 4.51039E-03 6.09330E-04-6.69438E-15
 -1      3859 4.36343E-03 5.06953E-04-6.26554E-15
 -1      3860 2.79497E-03-2.16216E-04-2.84754E-15
 -1      3861 4.06936E-03 3.01433E-04-5.49521E-15
 -1      3862 4.68714E-03 7.31151E-04-7.18287E-15
 -1      3863 5.08058E-03 1.00235E-03-8.57912E-15
 -1      3864 5.24707E-03 1.11470E-03-9.12530E-15
 -1      3865 5.41082E-03 1.22484E-03-9.68739E-15
 -1      3866 5.57144E-03 1.33354E-03-1.02646E-14
 -1      3867 5.42755E-03 1.22208E-03-9.34367E-15
 -1      3868 5.72938E-03 1.44086E-03-1.08586E-14
 -1      3869 5.88467E-03 1.54747E-03-1.14681E-14
 -1      3870 5.75017E-03 1.43603E-03-1.04959E-14
 -1      3871 6.03773E-03 1.65342E-03-1.20934E-14
 -1      3872 6.18878E-03 1.75922E-03-1.27333E-14
 -1      3873 6.06068E-03 1.64583E-03-1.17117E-14
 -1      3874 6.33814E-03 1.86484E-03-1.33877E-14
 -1      3875 6.48606E-03 1.97059E-03-1.40569E-14
 -1      3876 6.36204E-03 1.85459E-03-1.29888E-14
 -1      3877 6.63281E-03 2.07644E-03-1.47413E-14
 -1      3878 6.77860E-03 2.18254E-03-1.54396E-14
 -1      3879 6.65700E-03 2.06397E-03-1.43253E-14
 -1      3880 6.92361E-03 2.28885E-03-1.61514E-14
 -1      3881 7.06802E-03 2.39543E-03-1.68769E-14
 -1      3882 6.94773E-03 2.27469E-03-1.57192E-14
 -1      3883 7.21193E-03 2.50225E-03-1.76167E-14
 -1      3884 7.35549E-03 2.60931E-03-1.83713E-14
 -1      3885 7.23585E-03 2.48689E-03-1.71687E-14
 -1      3886 7.49876E-03 2.71658E-03-1.91371E-14
 -1      3887 7.64182E-03 2.82406E-03-1.99159E-14
 -1      3888 7.52243E-03 2.70041E-03-1.86719E-14
 -1      3889 7.78473E-03 2.93171E-03-2.07088E-14
 -1      3890 7.92754E-03 3.03951E-03-2.15154E-14
 -1      3891 7.80818E-03 2.91501E-03-2.02284E-14
 -1      3892 8.07027E-03 3.14744E-03-2.23349E-14
 -1      3893 8.21296E-03 3.25549E-03-2.31655E-14
 -1      3894 8.09353E-03 3.13043E-03-2.18380E-14
 -1      3895 8.35562E-03 3.36363E-03-2.40097E-14
 -1      3896 8.49828E-03 3.47185E-03-2.48664E-14
 -1      3897 8.37873E-03 3.34644E-03-2.34984E-14
 -1      3898 8.64093E-03 3.58015E-03-2.57380E-14
 -1      3899 8.78360E-03 3.68850E-03-2.66209E-14
 -1      3900 8.66392E-03 3.56287E-03-2.52090E-14
 -1      3901 8.92628E-03 3.79691E-03-2.75167E-14
 -1      3902 9.06897E-03 3.90535E-03-2.84238E-14
 -1      3903 8.94917E-03 3.77960E-03-2.69707E-14
 -1      3904 9.21168E-03 4.01383E-03-2.93433E-14
 -1      3905 9.35440E-03 4.12234E-03-3.02751E-14
 -1      3906 9.23450E-03 3.99651E-03-2.87822E-14
 -1      3907 9.49715E-03 4.23088E-03-3.12174E-14
 -1      3908 9.63991E-03 4.33943E-03-3.21715E-14
 -1      3909 9.51992E-03 4.21357E-03-3.06411E-14
 -1      3910 9.78268E-03 4.44800E-03-3.31363E-14
 -1      3911 9.92547E-03 4.55659E-03-3.41127E-14
 -1      3912 9.80542E-03 4.43071E-03-3.25452E-14
 -1      3913 1.00683E-02 4.66519E-03-3.51008E-14
 -1      3914 1.02111E-02 4.77380E-03-3.60967E-14
 -1      3915 1.00910E-02 4.64791E-03-3.44968E-14
 -1      3916 1.03539E-02 4.88242E-03-3.71022E-14
 -1      3917 1.04967E-02 4.99105E-03-3.81174E-14
 -1      3918 1.03766E-02 4.86516E-03-3.64864E-14
 -1      3919 1.06396E-02 5.09969E-03-3.91432E-14
 -1      3920 1.07824E-02 5.20833E-03-4.01789E-14
 -1      3921 1.06622E-02 5.08244E-03-3.85180E-14
 -1      3922 1.09253E-02 5.31697E-03-4.12207E-14
 -1      3923 1.10681E-02 5.42562E-03-4.22708E-14
 -1      3924 1.09479E-02 5.29973E-03-4.05854E-14
 -1      3925 1.12110E-02 5.53428E-03-4.33306E-14
 -1      3926 1.13538E-02 5.64294E-03-4.43967E-14
 -1      3927 1.12336E-02 5.51705E-03-4.26878E-14
 -1      3928 1.14967E-02 5.75160E-03-4.54720E-14
 -1      3929 1.16395E-02 5.86026E-03-4.65541E-14
 -1      3930 1.15193E-02 5.73437E-03-4.48222E-14
 -1      3931 1.17824E-02 5.96892E-03-4.76414E-14
 -1      3932 1.19253E-02 6.07759E-03-4.87365E-14
 -1      3933 1.18051E-02 5.95170E-03-4.69847E-14
 -1      3934 1.20681E-02 6.18626E-03-4.98392E-14
 -1      3935 1.22110E-02 6.29493E-03-5.09447E-14
 -1      3936 1.20908E-02 6.16903E-03-4.91783E-14
 -1      3937 1.23538E-02 6.40359E-03-5.20559E-14
 -1      3938 1.24967E-02 6.51227E-03-5.31708E-14
 -1      3939 1.23765E-02 6.38637E-03-5.13946E-14
 -1      3940 1.26396E-02 6.62094E-03-5.42907E-14
 -1      3941 1.27824E-02 6.72961E-03-5.54124E-14
 -1      3942 1.26622E-02 6.60372E-03-5.36262E-14
 -1      3943 1.29181E-02 6.83028E-03-5.64206E-14
 -1      3944 1.30610E-02 6.93895E-03-5.75507E-14
 -1      3945 1.32122E-02 7.01439E-03-5.77785E-14
 -1      3946 1.29408E-02 6.81306E-03-5.57559E-14
 -1      3947 1.00440E-02 4.31632E-03-2.78894E-14
 -1      3948 9.90130E-03 4.20752E-03-2.69900E-14
 -1      3949 9.75869E-03 4.09873E-03-2.61037E-14
 -1      3950 9.61614E-03 3.98994E-03-2.52308E-14
 -1      3951 9.73602E-03 4.11634E-03-2.66602E-14
 -1      3952 9.47367E-03 3.88118E-03-2.43707E-14
 -1      3953 9.33129E-03 3.77245E-03-2.35233E-14
 -1      3954 9.45098E-03 3.89892E-03-2.49118E-14
 -1      3955 1.03151E-02 4.52304E-03-2.96324E-14
 -1      3956 1.01795E-02 4.41968E-03-2.87560E-14
 -1      3957 1.00142E-02 4.32841E-03-2.84151E-14
 -1      3958 1.06007E-02 4.74061E-03-3.15152E-14
 -1      3959 1.04579E-02 4.63183E-03-3.05677E-14
 -1      3960 1.02925E-02 4.54049E-03-3.02166E-14
 -1      3961 1.08863E-02 4.95814E-03-3.34503E-14
 -1      3962 1.07435E-02 4.84938E-03-3.24754E-14
 -1      3963 1.05780E-02 4.75800E-03-3.21147E-14
 -1      3964 1.11719E-02 5.17564E-03-3.54371E-14
 -1      3965 1.10291E-02 5.06689E-03-3.44373E-14
 -1      3966 1.08636E-02 4.97548E-03-3.40624E-14
 -1      3967 1.14576E-02 5.39310E-03-3.74699E-14
 -1      3968 1.13148E-02 5.28437E-03-3.64494E-14
 -1      3969 1.11493E-02 5.19295E-03-3.60621E-14
 -1      3970 1.17433E-02 5.61054E-03-3.95437E-14
 -1      3971 1.16005E-02 5.50182E-03-3.85015E-14
 -1      3972 1.14349E-02 5.41039E-03-3.81016E-14
 -1      3973 1.20290E-02 5.82795E-03-4.16531E-14
 -1      3974 1.18862E-02 5.71925E-03-4.05935E-14
 -1      3975 1.17206E-02 5.62780E-03-4.01846E-14
 -1      3976 1.23148E-02 6.04535E-03-4.38016E-14
 -1      3977 1.21719E-02 5.93665E-03-4.27238E-14
 -1      3978 1.20064E-02 5.84520E-03-4.23039E-14
 -1      3979 1.25862E-02 6.25186E-03-4.58717E-14
 -1      3980 1.24505E-02 6.14860E-03-4.48323E-14
 -1      3981 1.22849E-02 6.05715E-03-4.44037E-14
 -1      3982 1.28719E-02 6.46922E-03-4.80835E-14
 -1      3983 1.27291E-02 6.36054E-03-4.69737E-14
 -1      3984 1.25635E-02 6.26909E-03-4.65326E-14
 -1      3985 1.31577E-02 6.68659E-03-5.03234E-14
 -1      3986 1.30148E-02 6.57791E-03-4.92007E-14
 -1      3987 1.28493E-02 6.48645E-03-4.87510E-14
 -1      3988 1.34434E-02 6.90394E-03-5.25775E-14
 -1      3989 1.33005E-02 6.79526E-03-5.14468E-14
 -1      3990 1.31350E-02 6.70381E-03-5.09931E-14
 -1      3991 1.37291E-02 7.12129E-03-5.48440E-14
 -1      3992 1.35863E-02 7.01262E-03-5.37102E-14
 -1      3993 1.34207E-02 6.92116E-03-5.32490E-14
 -1      3994 1.40148E-02 7.33864E-03-5.71140E-14
 -1      3995 1.38720E-02 7.22997E-03-5.59807E-14
 -1      3996 1.37064E-02 7.13851E-03-5.55134E-14
 -1      3997 8.07362E-03 2.81112E-03-1.65157E-14
 -1      3998 7.93443E-03 2.70493E-03-1.57910E-14
 -1      3999 7.79596E-03 2.59957E-03-1.50812E-14
 -1      4000 7.65841E-03 2.49514E-03-1.43853E-14
 -1      4001 7.76997E-03 2.61829E-03-1.55304E-14
 -1      4002 1.37570E-02 7.30801E-03-5.91430E-14
 -1      4003 1.39339E-02 7.42310E-03-6.00726E-14
 -1      4004 1.40405E-02 7.46516E-03-5.99591E-14
 -1      4005 2.05151E-03-1.14843E-04-1.59509E-15
 -1      4006 6.55472E-03 1.70232E-03-9.21026E-15
 -1      4007 6.45901E-03 1.66489E-03-9.11204E-15
 -1      4008 6.36115E-03 1.65109E-03-9.39850E-15
 -1      4009 6.73430E-03 1.81275E-03-9.88638E-15
 -1      4010 6.84530E-03 1.74172E-03-8.77067E-15
 -1      4011 6.98718E-03 1.99320E-03-1.10813E-14
 -1      4012 6.86005E-03 1.90127E-03-1.04762E-14
 -1      4013 6.68262E-03 1.82187E-03-1.02235E-14
 -1      4014 1.84498E-03-7.40491E-05-1.33373E-15
 -1      4015 3.93110E-03 2.16290E-04-5.32843E-15
 -1      4016 4.03398E-03 2.86413E-04-5.63086E-15
 -1      4017 7.52182E-03 2.39199E-03-1.37037E-14
 -1      4018 7.38648E-03 2.29023E-03-1.30371E-14
 -1      4019 7.49336E-03 2.41053E-03-1.41373E-14
 -1      4020 8.62351E-03 3.23142E-03-1.94777E-14
 -1      4021 8.48587E-03 3.12615E-03-1.87228E-14
 -1      4022 1.33634E-02 7.08984E-03-5.80054E-14
 -1      4023 1.35146E-02 7.16528E-03-5.82347E-14
 -1      4024 1.32277E-02 6.98917E-03-5.69907E-14
 -1      4025 4.20451E-03 4.02310E-04-6.08120E-15
 -1      4026 4.73931E-03 7.70801E-04-7.53282E-15
 -1      4027 4.91094E-03 8.87772E-04-8.04828E-15
 -1      4028 8.76499E-03 3.33962E-03-2.02647E-14
 -1      4029 8.60212E-03 3.25103E-03-1.99848E-14
 -1      4030 8.90673E-03 3.44800E-03-2.10630E-14
 -1      4031 1.34856E-02 7.10667E-03-5.71052E-14
 -1      4032 1.36213E-02 7.20734E-03-5.81241E-14
 -1      4033 1.37279E-02 7.24940E-03-5.80104E-14
 -1      4034 1.72898E-03-5.62987E-05-1.19861E-15
 -1      4035 6.01030E-03 1.49741E-03-9.11960E-15
 -1      4036 5.83058E-03 1.39869E-03-8.67400E-15
 -1      4037 5.67688E-03 1.32526E-03-8.63457E-15
 -1      4038 8.20997E-03 2.91523E-03-1.72356E-14
 -1      4039 8.04562E-03 2.82710E-03-1.69618E-14
 -1      4040 8.34682E-03 3.01984E-03-1.79666E-14
 -1      4041 7.25233E-03 2.19033E-03-1.23849E-14
 -1      4042 7.11979E-03 2.09245E-03-1.17469E-14
 -1      4043 7.21988E-03 2.20818E-03-1.28001E-14
 -1      4044 2.66041E-03-1.87233E-04-2.51393E-15
 -1      4045 5.09077E-03 9.99626E-04-8.25381E-15
 -1      4046 9.18992E-03 3.66445E-03-2.26924E-14
 -1      4047 9.04780E-03 3.55583E-03-2.18682E-14
 -1      4048 8.88473E-03 3.46673E-03-2.15802E-14
 -1      4049 9.16716E-03 3.68233E-03-2.32185E-14
 -1      4050 5.16768E-03 1.02532E-03-7.53209E-15
 -1      4051 5.01875E-03 9.38252E-04-7.48373E-15
 -1      4052 6.94825E-03 2.00945E-03-1.14791E-14
 -1      4053 1.41510E-02 7.51445E-03-5.99828E-14
 -1      4054 1.42577E-02 7.55651E-03-5.98662E-14
 -1      4055 1.41951E-02 7.49794E-03-5.90966E-14
 -1      4056 1.39741E-02 7.39936E-03-5.90534E-14
 -1      4057 4.86889E-03 8.46702E-04-7.37575E-15
 -1      4058 5.35067E-03 1.14060E-03-8.07727E-15
 -1      4059 5.06293E-03 9.73101E-04-7.84392E-15
 -1      4060 5.23733E-03 1.08702E-03-8.36949E-15
 -1      4061 5.51873E-03 1.24459E-03-8.56658E-15
 -1      4062 5.38497E-03 1.17013E-03-8.44116E-15
 -1      4063 5.40291E-03 1.19310E-03-8.86690E-15
 -1      4064 5.70275E-03 1.35245E-03-9.01158E-15
 -1      4065 5.77393E-03 1.43300E-03-1.01365E-14
 -1      4066 5.93143E-03 1.53661E-03-1.07268E-14
 -1      4067 6.08597E-03 1.63947E-03-1.13323E-14
 -1      4068 6.23788E-03 1.74232E-03-1.19545E-14
 -1      4069 6.11402E-03 1.63458E-03-1.09567E-14
 -1      4070 6.38766E-03 1.84513E-03-1.25924E-14
 -1      4071 6.53571E-03 1.94838E-03-1.32448E-14
 -1      4072 6.41535E-03 1.83657E-03-1.21972E-14
 -1      4073 6.68236E-03 2.05197E-03-1.39115E-14
 -1      4074 6.82793E-03 2.15615E-03-1.45928E-14
 -1      4075 6.70914E-03 2.04049E-03-1.35000E-14
 -1      4076 6.97263E-03 2.26080E-03-1.52895E-14
 -1      4077 7.11670E-03 2.36600E-03-1.59980E-14
 -1      4078 6.99846E-03 2.24716E-03-1.48605E-14
 -1      4079 7.26026E-03 2.47166E-03-1.67222E-14
 -1      4080 7.40347E-03 2.57778E-03-1.74600E-14
 -1      4081 7.28525E-03 2.45653E-03-1.62779E-14
 -1      4082 7.54641E-03 2.68429E-03-1.82111E-14
 -1      4083 7.68918E-03 2.79116E-03-1.89746E-14
 -1      4084 7.57074E-03 2.66819E-03-1.77507E-14
 -1      4085 7.83181E-03 2.89832E-03-1.97506E-14
 -1      4086 7.97437E-03 3.00575E-03-2.05413E-14
 -1      4087 7.85565E-03 2.88161E-03-1.92758E-14
 -1      4088 8.11689E-03 3.11340E-03-2.13457E-14
 -1      4089 8.25939E-03 3.22124E-03-2.21618E-14
 -1      4090 8.14037E-03 3.09633E-03-2.08552E-14
 -1      4091 8.40189E-03 3.32922E-03-2.29892E-14
 -1      4092 8.54440E-03 3.43734E-03-2.38293E-14
 -1      4093 8.42511E-03 3.31196E-03-2.24826E-14
 -1      4094 8.68694E-03 3.54556E-03-2.46831E-14
 -1      4095 8.82949E-03 3.65387E-03-2.55491E-14
 -1      4096 8.70998E-03 3.52821E-03-2.41609E-14
 -1      4097 8.97208E-03 3.76225E-03-2.64269E-14
 -1      4098 9.11469E-03 3.87068E-03-2.73181E-14
 -1      4099 8.99500E-03 3.74486E-03-2.58870E-14
 -1      4100 9.25734E-03 3.97916E-03-2.82229E-14
 -1      4101 9.40001E-03 4.08768E-03-2.91384E-14
 -1      4102 9.28018E-03 3.96178E-03-2.76649E-14
 -1      4103 9.54270E-03 4.19623E-03-3.00647E-14
 -1      4104 9.68542E-03 4.30480E-03-3.10035E-14
 -1      4105 9.56549E-03 4.17886E-03-2.94929E-14
 -1      4106 9.82816E-03 4.41339E-03-3.19564E-14
 -1      4107 9.97092E-03 4.52200E-03-3.29192E-14
 -1      4108 9.85091E-03 4.39605E-03-3.13682E-14
 -1      4109 1.01137E-02 4.63062E-03-3.38942E-14
 -1      4110 1.02565E-02 4.73925E-03-3.48794E-14
 -1      4111 1.01364E-02 4.61330E-03-3.32930E-14
 -1      4112 1.03993E-02 4.84788E-03-3.58750E-14
 -1      4113 1.05421E-02 4.95653E-03-3.68786E-14
 -1      4114 1.04220E-02 4.83059E-03-3.52618E-14
 -1      4115 1.06849E-02 5.06517E-03-3.78930E-14
 -1      4116 1.08278E-02 5.17383E-03-3.89197E-14
 -1      4117 1.07076E-02 5.04790E-03-3.72713E-14
 -1      4118 1.09706E-02 5.28248E-03-3.99539E-14
 -1      4119 1.11135E-02 5.39114E-03-4.09956E-14
 -1      4120 1.09933E-02 5.26523E-03-3.93200E-14
 -1      4121 1.12563E-02 5.49981E-03-4.20466E-14
 -1      4122 1.13992E-02 5.60847E-03-4.31072E-14
 -1      4123 1.12790E-02 5.48256E-03-4.14057E-14
 -1      4124 1.15420E-02 5.71714E-03-4.41744E-14
 -1      4125 1.16849E-02 5.82580E-03-4.52493E-14
 -1      4126 1.15647E-02 5.69990E-03-4.35270E-14
 -1      4127 1.18277E-02 5.93447E-03-4.63329E-14
 -1      4128 1.19706E-02 6.04314E-03-4.74212E-14
 -1      4129 1.18504E-02 5.91724E-03-4.56764E-14
 -1      4130 1.21135E-02 6.15181E-03-4.85204E-14
 -1      4131 1.22563E-02 6.26048E-03-4.96255E-14
 -1      4132 1.21361E-02 6.13459E-03-4.78614E-14
 -1      4133 1.23992E-02 6.36915E-03-5.07330E-14
 -1      4134 1.25421E-02 6.47782E-03-5.18466E-14
 -1      4135 1.24219E-02 6.35193E-03-5.00731E-14
 -1      4136 1.26849E-02 6.58650E-03-5.29642E-14
 -1      4137 1.28278E-02 6.69517E-03-5.40848E-14
 -1      4138 1.27076E-02 6.56928E-03-5.23031E-14
 -1      4139 9.71332E-03 4.13392E-03-2.72196E-14
 -1      4140 9.57075E-03 4.02523E-03-2.63311E-14
 -1      4141 9.98435E-03 4.34046E-03-2.89423E-14
 -1      4142 9.84882E-03 4.23718E-03-2.80747E-14
 -1      4143 9.68346E-03 4.14601E-03-2.77364E-14
 -1      4144 9.42824E-03 3.91658E-03-2.54539E-14
 -1      4145 9.28580E-03 3.80797E-03-2.45924E-14
 -1      4146 9.40546E-03 3.93418E-03-2.60006E-14
 -1      4147 1.05553E-02 4.77537E-03-3.27166E-14
 -1      4148 1.04125E-02 4.66664E-03-3.17552E-14
 -1      4149 1.08409E-02 4.99282E-03-3.46765E-14
 -1      4150 1.06981E-02 4.88410E-03-3.36890E-14
 -1      4151 1.05326E-02 4.79273E-03-3.33201E-14
 -1      4152 1.11266E-02 5.21025E-03-3.66864E-14
 -1      4153 1.09837E-02 5.10154E-03-3.56769E-14
 -1      4154 1.08182E-02 5.01014E-03-3.52928E-14
 -1      4155 1.14123E-02 5.42766E-03-3.87376E-14
 -1      4156 1.12694E-02 5.31896E-03-3.77066E-14
 -1      4157 1.11039E-02 5.22754E-03-3.73139E-14
 -1      4158 1.16980E-02 5.64506E-03-4.08264E-14
 -1      4159 1.15551E-02 5.53636E-03-3.97773E-14
 -1      4160 1.13896E-02 5.44493E-03-3.93740E-14
 -1      4161 1.19837E-02 5.86245E-03-4.29539E-14
 -1      4162 1.18408E-02 5.75376E-03-4.18844E-14
 -1      4163 1.16753E-02 5.66232E-03-4.14711E-14
 -1      4164 1.22551E-02 6.06895E-03-4.50038E-14
 -1      4165 1.21194E-02 5.96570E-03-4.39753E-14
 -1      4166 1.19539E-02 5.87426E-03-4.35498E-14
 -1      4167 1.25408E-02 6.28632E-03-4.71956E-14
 -1      4168 1.23980E-02 6.17764E-03-4.60964E-14
 -1      4169 1.22324E-02 6.08619E-03-4.56612E-14
 -1      4170 1.28266E-02 6.50368E-03-4.94207E-14
 -1      4171 1.26837E-02 6.39500E-03-4.83045E-14
 -1      4172 1.25182E-02 6.30355E-03-4.78598E-14
 -1      4173 1.31123E-02 6.72103E-03-5.16605E-14
 -1      4174 1.29694E-02 6.61236E-03-5.05392E-14
 -1      4175 1.28039E-02 6.52090E-03-5.00849E-14
 -1      4176 1.33980E-02 6.93838E-03-5.39187E-14
 -1      4177 1.32552E-02 6.82971E-03-5.27895E-14
 -1      4178 1.30896E-02 6.73825E-03-5.23300E-14
 -1      4179 1.37208E-02 7.19796E-03-5.68239E-14
 -1      4180 1.35779E-02 7.08928E-03-5.56880E-14
 -1      4181 1.41325E-02 7.43937E-03-5.83278E-14
 -1      4182 1.39669E-02 7.34792E-03-5.78628E-14
 -1      4183 8.32141E-03 3.03695E-03-1.84402E-14
 -1      4184 1.02698E-02 4.55791E-03-3.08043E-14
 -1      4185 1.01270E-02 4.44919E-03-2.98666E-14
 -1      4186 1.02471E-02 4.57532E-03-3.13955E-14
 -1      4187 1.38565E-02 7.29863E-03-5.78395E-14
 -1      4188 6.63328E-03 1.82841E-03-1.05628E-14
 -1      4189 6.49801E-03 1.73875E-03-9.97268E-15
 -1      4190 6.30609E-03 1.65109E-03-9.72357E-15
 -1      4191 5.56894E-03 1.30047E-03-9.42172E-15
 -1      4192 6.91069E-03 2.02382E-03-1.18800E-14
 -1      4193 6.77199E-03 1.92478E-03-1.12124E-14
 -1      4194 6.59089E-03 1.83789E-03-1.09469E-14
 -1      4195 7.74394E-03 2.63628E-03-1.59832E-14
 -1      4196 7.60430E-03 2.53163E-03-1.52708E-14
 -1      4197 1.33085E-02 6.99153E-03-5.61821E-14
 -1      4198 1.34152E-02 7.03359E-03-5.60714E-14
 -1      4199 8.57885E-03 3.26905E-03-2.04834E-14
 -1      4200 8.43724E-03 3.16124E-03-1.96943E-14
 -1      4201 9.12147E-03 3.71779E-03-2.42760E-14
 -1      4202 9.14434E-03 3.70011E-03-2.37463E-14
 -1      4203 9.00298E-03 3.59232E-03-2.29130E-14
 -1      4204 9.96164E-03 4.35792E-03-2.95174E-14
 -1      4205 1.34123E-02 6.99783E-03-5.52225E-14
 -1      4206 6.20069E-03 1.64195E-03-1.03385E-14
 -1      4207 6.05070E-03 1.54693E-03-9.75571E-15
 -1      4208 8.29763E-03 3.05508E-03-1.89236E-14
 -1      4209 8.15829E-03 2.94925E-03-1.81661E-14
 -1      4210 8.27385E-03 3.07289E-03-1.94104E-14
 -1      4211 7.18586E-03 2.22053E-03-1.31706E-14
 -1      4212 7.04821E-03 2.12122E-03-1.25171E-14
 -1      4213 6.87334E-03 2.03320E-03-1.22366E-14
 -1      4214 8.01923E-03 2.84391E-03-1.74215E-14
 -1      4215 7.88229E-03 2.74040E-03-1.67002E-14
 -1      4216 7.71639E-03 2.65235E-03-1.64282E-14
 -1      4217 7.99468E-03 2.86161E-03-1.78925E-14
 -1      4218 5.75792E-03 1.40489E-03-9.63844E-15
 -1      4219 7.46505E-03 2.42804E-03-1.45734E-14
 -1      4220 7.32635E-03 2.32558E-03-1.38892E-14
 -1      4221 7.43729E-03 2.44474E-03-1.50113E-14
 -1      4222 1.30443E-02 6.79820E-03-5.42847E-14
 -1      4223 1.30216E-02 6.81542E-03-5.49472E-14
 -1      4224 1.31573E-02 6.91609E-03-5.59584E-14
 -1      4225 1.10812E-02 5.24483E-03-3.79423E-14
 -1      4226 1.09384E-02 5.13614E-03-3.69223E-14
 -1      4227 6.34995E-03 1.73874E-03-1.09344E-14
 -1      4228 8.86130E-03 3.48430E-03-2.20915E-14
 -1      4229 8.72021E-03 3.37675E-03-2.12814E-14
 -1      4230 8.55510E-03 3.28653E-03-2.09814E-14
 -1      4231 8.83828E-03 3.50206E-03-2.26060E-14
 -1      4232 6.49887E-03 1.83936E-03-1.15922E-14
 -1      4233 6.64420E-03 1.93796E-03-1.22228E-14
 -1      4234 6.78810E-03 2.03754E-03-1.28662E-14
 -1      4235 6.93129E-03 2.13839E-03-1.35263E-14
 -1      4236 7.07621E-03 2.24429E-03-1.42508E-14
 -1      4237 7.21846E-03 2.34732E-03-1.49397E-14
 -1      4238 7.36037E-03 2.45124E-03-1.56429E-14
 -1      4239 7.50223E-03 2.55597E-03-1.63607E-14
 -1      4240 7.64221E-03 2.66008E-03-1.70830E-14
 -1      4241 7.78401E-03 2.76610E-03-1.78297E-14
 -1      4242 7.92404E-03 2.87130E-03-1.85795E-14
 -1      4243 8.06594E-03 2.97824E-03-1.93501E-14
 -1      4244 8.20612E-03 3.08420E-03-2.01269E-14
 -1      4245 8.34818E-03 3.19178E-03-2.09254E-14
 -1      4246 8.48986E-03 3.29927E-03-2.17304E-14
 -1      4247 8.63207E-03 3.40727E-03-2.25500E-14
 -1      4248 8.77392E-03 3.51510E-03-2.33804E-14
 -1      4249 8.91628E-03 3.62338E-03-2.42253E-14
 -1      4250 9.05782E-03 3.73109E-03-2.50770E-14
 -1      4251 9.20030E-03 3.83954E-03-2.59473E-14
 -1      4252 9.34284E-03 3.94805E-03-2.68307E-14
 -1      4253 9.48543E-03 4.05661E-03-2.77262E-14
 -1      4254 9.62093E-03 4.15977E-03-2.85892E-14
 -1      4255 9.76359E-03 4.26839E-03-2.95065E-14
 -1      4256 9.90629E-03 4.37703E-03-3.04385E-14
 -1      4257 1.00490E-02 4.48568E-03-3.13841E-14
 -1      4258 1.01918E-02 4.59434E-03-3.23416E-14
 -1      4259 1.03345E-02 4.70301E-03-3.33101E-14
 -1      4260 1.04773E-02 4.81168E-03-3.42862E-14
 -1      4261 1.06201E-02 4.92036E-03-3.52787E-14
 -1      4262 1.07402E-02 5.04633E-03-3.69025E-14
 -1      4263 1.08831E-02 5.15500E-03-3.79184E-14
 -1      4264 1.10259E-02 5.26367E-03-3.89472E-14
 -1      4265 1.11687E-02 5.37234E-03-3.99839E-14
 -1      4266 1.10585E-02 5.26210E-03-3.85732E-14
 -1      4267 1.13116E-02 5.48101E-03-4.10289E-14
 -1      4268 1.14544E-02 5.58968E-03-4.20826E-14
 -1      4269 1.13442E-02 5.47946E-03-4.06523E-14
 -1      4270 1.15973E-02 5.69836E-03-4.31459E-14
 -1      4271 1.17402E-02 5.80703E-03-4.42161E-14
 -1      4272 1.16299E-02 5.69681E-03-4.27653E-14
 -1      4273 1.18830E-02 5.91570E-03-4.52946E-14
 -1      4274 1.20259E-02 6.02438E-03-4.63815E-14
 -1      4275 1.19156E-02 5.91417E-03-4.49119E-14
 -1      4276 1.21687E-02 6.13305E-03-4.74759E-14
 -1      4277 1.23116E-02 6.24173E-03-4.85794E-14
 -1      4278 1.22014E-02 6.13152E-03-4.70900E-14
 -1      4279 1.24545E-02 6.35040E-03-4.96848E-14
 -1      4280 1.25973E-02 6.45907E-03-5.07979E-14
 -1      4281 1.24871E-02 6.34887E-03-4.92978E-14
 -1      4282 1.27402E-02 6.56775E-03-5.19145E-14
 -1      4283 1.28831E-02 6.67642E-03-5.30357E-14
 -1      4284 1.27728E-02 6.56622E-03-5.15279E-14
 -1      4285 1.13669E-02 5.46220E-03-4.00117E-14
 -1      4286 1.12240E-02 5.35351E-03-3.89729E-14
 -1      4287 1.16526E-02 5.67957E-03-4.21172E-14
 -1      4288 1.15097E-02 5.57088E-03-4.10606E-14
 -1      4289 1.19312E-02 5.89150E-03-4.42020E-14
 -1      4290 1.17955E-02 5.78825E-03-4.31822E-14
 -1      4291 1.22169E-02 6.10885E-03-4.63759E-14
 -1      4292 1.20740E-02 6.00017E-03-4.52852E-14
 -1      4293 1.25026E-02 6.32621E-03-4.85808E-14
 -1      4294 1.23598E-02 6.21753E-03-4.74741E-14
 -1      4295 1.27884E-02 6.54356E-03-5.08060E-14
 -1      4296 1.26455E-02 6.43488E-03-4.96906E-14
 -1      4297 1.30741E-02 6.76091E-03-5.30506E-14
 -1      4298 1.29312E-02 6.65224E-03-5.19281E-14
 -1      4299 1.30769E-02 6.79667E-03-5.38970E-14
 -1      4300 5.90692E-03 1.47980E-03-9.71212E-15
 -1      4301 1.07629E-02 5.02904E-03-3.62812E-14
 -1      4302 1.32353E-02 6.88269E-03-5.43049E-14
 -1      4303 7.15501E-03 2.23597E-03-1.35925E-14
 -3
    1PSTEP                         2           1           1          
  100CL  101 1.000000000        4303                     0    1           1
 -4  STRESS      6    1
 -5  SXX         1    4    1    1
 -5  SYY         1    4    2    2
 -5  SZZ         1    4    3    3
 -5  SXY         1    4    1    2
 -5  SYZ         1    4    2    3
 -5  SZX         1    4    3    1
 -1         1 7.28248E+01 8.95383E-01 3.66007E+00 1.54426E-01 3.19883E-15 4.90916E-13
 -1         2-7.61424E-01-2.78677E+01-3.48808E+00-3.42267E-01 3.06366E-13-1.43982E-14
 -1         3 1.99998E+01 5.25399E-06-1.05780E-05 4.92909E-06-7.66752E-14-3.64572E-14
 -1         4 1.99998E+01 4.29112E-06-1.13900E-05-4.35189E-06 8.90464E-14 1.82688E-13
 -1         5 3.65885E+01 1.24804E+01 5.01264E+00 8.52239E+00 3.14193E-14 1.73611E-12
 -1         6 3.62218E+01 1.24467E+01 5.26716E+00-8.82644E+00-1.11078E-13 1.19249E-12
 -1         7 2.07631E+01 6.09209E+00-1.63546E-01-4.92686E+00-1.31145E-14 2.00499E-14
 -1         8 1.96969E+01 5.94789E+00 4.04243E-02-3.51790E+00-1.42143E-14-2.73503E-13
 -1         9 1.93146E+01 5.82797E+00 5.50882E-02-2.74576E+00-7.75595E-15-3.94119E-13
 -1        10 1.92378E+01 5.79604E+00 7.26740E-02-2.06652E+00-2.25861E-15-4.34138E-13
 -1        11 1.92257E+01 5.78678E+00 8.46228E-02-1.39267E+00-8.32667E-16-4.24597E-13
 -1        12 1.91610E+01 5.76461E+00 9.06357E-02-7.24300E-01 2.78770E-15-4.01229E-13
 -1        13 1.89773E+01 5.70865E+00 8.84435E-02-5.91755E-02 7.44196E-15-3.74927E-13
 -1        14 1.86553E+01 5.61283E+00 7.51216E-02 5.46969E-01 9.78037E-15-3.54025E-13
 -1        15 1.82305E+01 5.48744E+00 4.95925E-02 1.03675E+00 1.24987E-14-3.33483E-13
 -1        16 1.78021E+01 5.36166E+00 1.51177E-02 1.35984E+00 1.24258E-14-3.12927E-13
 -1        17 1.75257E+01 5.28161E+00-1.89124E-02 1.50204E+00 1.36653E-14-2.73837E-13
 -1        18 1.75689E+01 5.29604E+00-3.91686E-02 1.51531E+00 1.68823E-14-2.09005E-13
 -1        19 1.80662E+01 5.44583E+00-3.26598E-02 1.52636E+00 2.05981E-14-1.03666E-13
 -1        20 1.90582E+01 5.74297E+00 7.14518E-03 1.72812E+00 2.52853E-14 5.35251E-14
 -1        21 2.05142E+01 6.16919E+00 8.35935E-02 2.37261E+00 2.27318E-14 3.43692E-13
 -1        22 2.24172E+01 6.55353E+00 2.34609E-02 4.07366E+00 3.24740E-15 7.63726E-13
 -1        23 2.29921E+01-1.37301E+00-9.39073E-01-7.60676E-01-7.39339E-14 8.26228E-13
 -1        24 1.90052E+01-9.58653E-02-3.10243E-01 5.83577E-02-2.64944E-14 4.89220E-13
 -1        25 1.79775E+01-5.00734E-02-6.01718E-02 5.41960E-02 1.13061E-15 1.83549E-13
 -1        26 1.73235E+01-1.49126E-02 5.90402E-03 2.00517E-02 5.28581E-15 3.86661E-14
 -1        27 1.67459E+01-5.96405E-03 1.27446E-02 2.93387E-03 7.95398E-16-8.13980E-14
 -1        28 1.61545E+01-3.93988E-03 7.68593E-03-8.86417E-03-4.19795E-15-1.61593E-13
 -1        29 1.55531E+01-6.07160E-03-8.95568E-04-1.54460E-02 1.02931E-14-2.21208E-13
 -1        30 1.50055E+01-1.02699E-02-1.08862E-02-1.61988E-02-1.04593E-15-3.27162E-13
 -1        31 1.46059E+01-1.45343E-02-1.99779E-02-1.10355E-02-1.62229E-15-4.48500E-13
 -1        32 1.44454E+01-1.70685E-02-2.54776E-02-1.24891E-03-2.82858E-14-5.47019E-13
 -1        33 1.45795E+01-1.67485E-02-2.55569E-02 1.04659E-02 4.54714E-14-5.33894E-13
 -1        34 1.50062E+01-1.34903E-02-2.02335E-02 2.08686E-02-2.67191E-14-5.49127E-13
 -1        35 1.56662E+01-8.20647E-03-1.13781E-02 2.74122E-02 5.80688E-15-6.41551E-13
 -1        36 1.64617E+01-2.34087E-03-1.77170E-03 2.91082E-02 1.20706E-14-6.34820E-13
 -1        37 1.72860E+01 2.74683E-03 6.12989E-03 2.65753E-02-1.05265E-14-6.25774E-13
 -1        38 1.80492E+01 6.22264E-03 1.10058E-02 2.14079E-02 1.46205E-16-6.14717E-13
 -1        39 1.86938E+01 7.89061E-03 1.27692E-02 1.53563E-02-1.76317E-14-6.95148E-13
 -1        40 1.91960E+01 8.03693E-03 1.21513E-02 9.74956E-03-5.41853E-14-7.33442E-13
 -1        41 1.95588E+01 7.17161E-03 1.01606E-02 5.30181E-03 8.57208E-14-7.37890E-13
 -1        42 1.98016E+01 5.80854E-03 7.68509E-03 2.19686E-03-4.50989E-14-6.48339E-13
 -1        43 1.99507E+01 4.34315E-03 5.32264E-03 2.87807E-04-2.72670E-14-5.99722E-13
 -1        44 2.00324E+01 3.01876E-03 3.37641E-03-7.13178E-04 4.21864E-14-4.37390E-13
 -1        45 2.00693E+01 1.94750E-03 1.93261E-03-1.10658E-03-5.92290E-14-5.82185E-13
 -1        46 2.00789E+01 1.15116E-03 9.51572E-04-1.14137E-03 2.44815E-14-6.75087E-13
 -1        47 2.00736E+01 6.01031E-04 3.39634E-04-9.96165E-04 6.51837E-14-2.81899E-13
 -1        48 2.00614E+01 2.47485E-04-5.96076E-06-7.84893E-04-4.60339E-14-2.16735E-13
 -1        49 2.00473E+01 3.82818E-05-1.74686E-04-5.71890E-04-7.33019E-16-5.08353E-13
 -1        50 2.00340E+01-7.21760E-05-2.35095E-04-3.87920E-04-7.82453E-14-9.11889E-13
 -1        51 2.00227E+01-1.19552E-04-2.35167E-04-2.43328E-04 1.06504E-14-1.05856E-12
 -1        52 2.00138E+01-1.29615E-04-2.06021E-04-1.37431E-04 1.31545E-13-6.30956E-13
 -1        53 2.00073E+01-1.19790E-04-1.66375E-04-6.45446E-05-8.29864E-14-5.01289E-13
 -1        54 2.00027E+01-1.01133E-04-1.26522E-04-1.74842E-05 5.28742E-15-7.75785E-13
 -1        55 1.99996E+01-8.01745E-05-9.14103E-05 1.06233E-05 5.80384E-14-8.20662E-13
 -1        56 1.99978E+01-6.04262E-05-6.28269E-05 2.55647E-05 7.15471E-14-2.00135E-13
 -1        57 1.99969E+01-4.34946E-05-4.08390E-05 3.18417E-05-6.02113E-14-8.52216E-14
 -1        58 1.99965E+01-2.98635E-05-2.46938E-05 3.27600E-05 2.28389E-14-1.29511E-13
 -1        59 1.99965E+01-1.94085E-05-1.33416E-05 3.06327E-05-3.89485E-14-2.02990E-13
 -1        60 1.99967E+01-1.17191E-05-5.71622E-06 2.70071E-05-3.68245E-14-1.48548E-13
 -1        61 1.99971E+01-6.28726E-06-8.67311E-07 2.28687E-05-5.38415E-14-4.08788E-13
 -1        62 1.99975E+01-2.61019E-06 1.99221E-06 1.88083E-05 8.62487E-15-3.04847E-13
 -1        63 1.99979E+01-2.38969E-07 3.48443E-06 1.51501E-05-8.74816E-15-1.41450E-13
 -1        64 1.99983E+01 1.20487E-06 4.08778E-06 1.20433E-05 1.19742E-13 1.64122E-13
 -1        65 1.99987E+01 2.03045E-06 4.17031E-06 9.52541E-06-7.85123E-14 5.67670E-13
 -1        66 1.99990E+01 2.48704E-06 4.03091E-06 7.55705E-06 7.27363E-14 4.97835E-13
 -1        67 1.99993E+01 2.77382E-06 3.94780E-06 6.03013E-06-3.51986E-14 5.21308E-13
 -1        68 1.99995E+01 3.03946E-06 4.22096E-06 4.73686E-06 5.53132E-14 8.07101E-13
 -1        69 1.99996E+01 3.36610E-06 5.07547E-06 3.28940E-06 2.09981E-14 4.65417E-13
 -1        70 1.99998E+01 3.13394E-06 5.72579E-06 6.04379E-07-5.36139E-14 2.18132E-13
 -1        71 1.99998E+01-1.60910E-07 1.01128E-06-3.71106E-06 1.28550E-13 2.35864E-13
 -1        72 2.53092E+01-1.46514E+00-9.82620E-01 6.07090E-01 1.87211E-14 1.59722E-12
 -1        73 2.28198E+01-1.36389E-01-3.62647E-01-1.04081E-01 2.08887E-14 1.46124E-12
 -1        74 2.38291E+01-1.01360E-01-1.63949E-01-1.18750E-01 1.73993E-15 1.23757E-12
 -1        75 2.62767E+01-7.72539E-02-1.47701E-01-1.60189E-01 1.04456E-14 1.12570E-12
 -1        76 3.03053E+01-5.29421E-02-1.22063E-01-2.63332E-01-6.20467E-15 1.12330E-12
 -1        77 3.57613E+01 1.66139E-02 9.54813E-02-3.79812E-01 1.12768E-15 1.28439E-12
 -1        78 4.08596E+01 1.08151E-01 5.56906E-01-2.66517E-01-1.67210E-14 1.48482E-12
 -1        79 4.22979E+01 1.76014E-01 8.97704E-01 3.53123E-01-5.34954E-14 1.85896E-12
 -1        80 3.73864E+01 2.05324E-01 3.59845E-01 1.30594E+00 5.69293E-15 2.25686E-12
 -1        81 2.71635E+01 1.06395E-01-1.24639E+00 1.32624E+00 5.65728E-14 2.01777E-12
 -1        82 1.66407E+01-1.23859E-01-3.18353E+00 6.30072E-01 5.14172E-15 1.59700E-12
 -1        83 1.40947E+01-1.14394E-01-3.76610E+00-1.87049E-01 8.81031E-14 8.52221E-13
 -1        84 2.37503E+01-5.96923E-02-1.90118E+00-9.87361E-01-7.21471E-15 2.75002E-13
 -1        85 3.74185E+01 1.12637E-02 3.50371E-01-8.18452E-01 2.42497E-14 3.11418E-14
 -1        86 4.37778E+01 5.87506E-02 9.94023E-01-1.15741E-01-6.07847E-15 5.13478E-15
 -1        87 4.10170E+01 4.23523E-02 4.61221E-01 1.83447E-01-5.14226E-14 4.26235E-13
 -1        88 3.51709E+01 3.58149E-04-8.98668E-03 1.76555E-01-5.97526E-14 6.10553E-13
 -1        89 2.99468E+01-2.17517E-02-1.56673E-01 1.09397E-01 3.17871E-14 5.89737E-13
 -1        90 2.62367E+01-2.53900E-02-1.42440E-01 5.54456E-02 2.36235E-14 5.66387E-13
 -1        91 2.39117E+01-2.19867E-02-9.90157E-02 3.01346E-02 1.61446E-14 3.72511E-13
 -1        92 2.23724E+01-1.52244E-02-5.90890E-02 1.37382E-02-1.91833E-14 3.32729E-13
 -1        93 2.14336E+01-1.02380E-02-3.37805E-02 6.15007E-03 5.43596E-14 4.07552E-13
 -1        94 2.08652E+01-6.65397E-03-1.91598E-02 2.56390E-03-1.06311E-13 5.73148E-13
 -1        95 2.05218E+01-4.24543E-03-1.09112E-02 9.21711E-04-3.29134E-14 5.01760E-13
 -1        96 2.03140E+01-2.68447E-03-6.25946E-03 2.03972E-04 5.36534E-14 5.03627E-13
 -1        97 2.01879E+01-1.68725E-03-3.61356E-03-8.69691E-05-4.71711E-15 5.00095E-14
 -1        98 2.01113E+01-1.05549E-03-2.08372E-03-2.37498E-04-4.58976E-14 1.60241E-14
 -1        99 2.00661E+01-7.00448E-04-1.27591E-03-1.53668E-04 8.20238E-14-7.95568E-14
 -1       100 2.00366E+01-4.36954E-04-7.49533E-04-1.64292E-04-4.88260E-14 8.00920E-14
 -1       101 2.00186E+01-2.79866E-04-4.45325E-04-1.36441E-04-5.81382E-15 4.84946E-13
 -1       102 2.00077E+01-1.80144E-04-2.67379E-04-1.09174E-04 9.55318E-14-4.54010E-13
 -1       103 2.00012E+01-1.16658E-04-1.61448E-04-8.61763E-05 1.43754E-14-1.15160E-12
 -1       104 1.99975E+01-7.58477E-05-9.72848E-05-6.78995E-05-2.23476E-14-8.05500E-13
 -1       105 1.99955E+01-4.92594E-05-5.76241E-05-5.39445E-05-6.77801E-14-4.07457E-13
 -1       106 1.99946E+01-3.13386E-05-3.30437E-05-4.45456E-05 8.29545E-14-3.06752E-13
 -1       107 1.99944E+01-2.08285E-05-1.76000E-05-3.33937E-05-1.45790E-13-7.85902E-13
 -1       108 1.99946E+01-1.28153E-05-7.49368E-06-2.76787E-05 1.15633E-13-9.26370E-13
 -1       109 1.99951E+01-7.57822E-06-1.01723E-06-2.22860E-05 3.63978E-14-1.02998E-12
 -1       110 1.99956E+01-4.05582E-06 2.96329E-06-1.79073E-05-1.12634E-13-8.72979E-13
 -1       111 1.99962E+01-1.74356E-06 5.23798E-06-1.43434E-05-5.48237E-14-9.37724E-13
 -1       112 1.99968E+01-2.66836E-07 6.34785E-06-1.14379E-05 6.38435E-14-1.37594E-12
 -1       113 1.99973E+01 6.15009E-07 6.66830E-06-9.08994E-06-4.20656E-14-1.00298E-12
 -1       114 1.99978E+01 1.11656E-06 6.37255E-06-7.09070E-06 8.22164E-14-3.56498E-13
 -1       115 1.99983E+01 1.47236E-06 6.08434E-06-5.73369E-06-2.64616E-14-1.37845E-12
 -1       116 1.99987E+01 1.50236E-06 5.42623E-06-4.55230E-06 8.79170E-14-1.39089E-12
 -1       117 1.99990E+01 1.52796E-06 4.85159E-06-3.67360E-06-5.42814E-14-9.18835E-13
 -1       118 1.99993E+01 1.54461E-06 4.51827E-06-3.03063E-06 3.70548E-15-1.09048E-12
 -1       119 1.99995E+01 1.59138E-06 4.69716E-06-2.53896E-06-7.79994E-14-1.79495E-13
 -1       120 1.99997E+01 1.67836E-06 5.59047E-06-2.04743E-06 3.39841E-14-5.76712E-13
 -1       121 1.99998E+01 1.69489E-06 6.26598E-06-9.90397E-07-1.04539E-14 2.40273E-13
 -1       122 1.99998E+01 1.27787E-07 1.28335E-06 2.83216E-06 1.30227E-13-2.43742E-13
 -1       123 1.99998E+01 1.37248E-05 2.34358E-06 4.35319E-06-4.35616E-13 2.64594E-14
 -1       124 1.99998E+01-3.42013E-05 5.74741E-06 2.12881E-08-8.90957E-13-1.76892E-14
 -1       125 1.99998E+01-1.45363E-04 3.65134E-06-2.37204E-06-6.90702E-13 6.27271E-14
 -1       126 1.99998E+01-2.90966E-04 7.82061E-07-3.51900E-06-1.74165E-12 3.79106E-13
 -1       127 1.99998E+01-4.42688E-04-1.60737E-06-3.78321E-06-2.16396E-12-3.26448E-13
 -1       128 1.99998E+01-5.75045E-04-3.31759E-06-3.51574E-06-3.75217E-13 3.43116E-13
 -1       129 1.99998E+01-6.74328E-04-4.40174E-06-2.79337E-06-4.48294E-13-1.62739E-13
 -1       130 1.99998E+01-7.26107E-04-4.90725E-06-1.77574E-06-4.90294E-13 1.97717E-13
 -1       131 1.99998E+01-7.24550E-04-4.85655E-06-5.76095E-07-1.00844E-12-8.24185E-14
 -1       132 1.99998E+01-6.70033E-04-4.26420E-06 7.03267E-07-1.28701E-12-6.35663E-14
 -1       133 1.99998E+01-5.69026E-04-3.11985E-06 1.97887E-06-2.29903E-12-1.18948E-13
 -1       134 1.99998E+01-4.36293E-04-1.43567E-06 2.99577E-06-1.20419E-12 8.62420E-14
 -1       135 1.99998E+01-2.85323E-04 9.12476E-07 3.74759E-06-1.04354E-14 9.25226E-14
 -1       136 1.99998E+01-1.41559E-04 3.81846E-06 3.88438E-06-4.89297E-13-4.25281E-15
 -1       137 1.99998E+01-3.52645E-05 5.17212E-06 2.69032E-06-5.69660E-13-2.65140E-13
 -1       138 1.99998E+01 5.49719E-06 7.25519E-07-5.52642E-06-6.56993E-13-4.73694E-14
 -1       139-2.16876E+00-2.66481E+01-3.68190E+00-5.69301E+00 9.14296E-13 2.93883E-13
 -1       140-3.77128E+00-1.71435E+01-3.53060E+00-7.05923E+00 1.12654E-12 4.82309E-13
 -1       141-1.76415E+00-4.70877E+00-2.95794E+00-2.41383E+00 1.13087E-12 7.51177E-13
 -1       142 9.63539E+00 5.21240E+00-1.55632E+00 7.51969E+00 1.10079E-12 1.48448E-12
 -1       143 3.71716E+01 8.89473E+00 1.47282E+00 1.75518E+01 1.02995E-12 1.87728E-12
 -1       144 6.97384E+01 5.95371E+00 5.21233E+00 1.83990E+01 4.71262E-13 1.43552E-12
 -1       145 9.04490E+01 2.02911E+00 7.63207E+00 6.41349E+00 9.93580E-14 3.75644E-13
 -1       146 8.72148E+01 3.05944E+00 7.31312E+00-1.08523E+01 1.20536E-13-7.51843E-13
 -1       147 5.91426E+01 7.75458E+00 4.01646E+00-1.98523E+01 6.34381E-13-1.63103E-12
 -1       148 2.70776E+01 9.20008E+00 4.06698E-01-1.57428E+01 1.40282E-12-2.02360E-12
 -1       149 4.06821E+00 2.22210E+00-2.13294E+00-3.72132E+00 1.80422E-12-1.74505E-12
 -1       150-3.18556E+00-1.01648E+01-3.24556E+00 4.88574E+00 1.71435E-12-1.06753E-12
 -1       151-3.14333E+00-2.23911E+01-3.65085E+00 7.12017E+00 9.61731E-13-3.55396E-13
 -1       152-1.13792E+00-2.83748E+01-3.65541E+00 3.23470E+00-1.65261E-13-4.37810E-14
 -1       153-8.27801E-01-2.53182E+01-3.30289E+00-1.83455E+00-1.23726E-12-1.41657E-13
 -1       154-1.50755E+00-1.50454E+01-2.62733E+00-3.82074E+00-1.83559E-12-5.58470E-13
 -1       155 1.96253E-01-1.45869E+00-1.62053E+00 1.72570E-01-1.87395E-12-9.79772E-13
 -1       156 8.00764E+00 9.33762E+00-3.69078E-01 8.74772E+00-1.64352E-12-1.34232E-12
 -1       157 2.45214E+01 1.32425E+01 1.07457E+00 1.77252E+01-1.20559E-12-1.62442E-12
 -1       158 4.69719E+01 9.80271E+00 2.41538E+00 2.06652E+01-6.51285E-13-1.30473E-12
 -1       159 6.54219E+01 3.68316E+00 3.32247E+00 1.35878E+01-1.34996E-13-3.98070E-13
 -1       160 6.55768E+01 3.89833E+00 3.35477E+00-1.42559E+01-2.45221E-13 1.18933E-12
 -1       161 4.53914E+01 1.05188E+01 2.38756E+00-2.11848E+01-8.10491E-13 1.79728E-12
 -1       162 2.33243E+01 1.37274E+01 1.02749E+00-1.76421E+01-1.16263E-12 1.43702E-12
 -1       163 6.21915E+00 8.17794E+00-5.34830E-01-7.28062E+00-1.04339E-12 7.43794E-13
 -1       164-6.76584E-01-4.53223E+00-1.88182E+00 1.34539E+00-5.14255E-13 3.43364E-13
 -1       165-1.30666E+00-1.92576E+01-2.90383E+00 3.72148E+00 1.07914E-13-1.21791E-13
 -1       166 2.09560E+01 3.72539E+00-6.28944E-02-3.87507E+00-2.00635E-13-1.11994E-13
 -1       167 2.01105E+01 4.16578E+00-5.01625E-02-3.07159E+00-1.51257E-13-2.68591E-13
 -1       168 1.98612E+01 4.35415E+00-3.51256E-02-2.39249E+00-8.22376E-14-3.43238E-13
 -1       169 1.98299E+01 4.40650E+00-2.71637E-02-1.73454E+00-2.97982E-14-3.65406E-13
 -1       170 1.98041E+01 4.41516E+00-2.30108E-02-1.07976E+00 1.03502E-14-3.44181E-13
 -1       171 1.96735E+01 4.41803E+00-2.04581E-02-4.09257E-01 4.79456E-14-3.10911E-13
 -1       172 1.93726E+01 4.45072E+00-1.85033E-02 2.38815E-01 1.03302E-13-2.82600E-13
 -1       173 1.88946E+01 4.54129E+00-1.68917E-02 8.14296E-01 1.37472E-13-2.75828E-13
 -1       174 1.83101E+01 4.69997E+00-1.58034E-02 1.25636E+00 1.66720E-13-2.63499E-13
 -1       175 1.77780E+01 4.90342E+00-1.56652E-02 1.51709E+00 1.85833E-13-2.39813E-13
 -1       176 1.75257E+01 5.08485E+00-1.68748E-02 1.59704E+00 2.03014E-13-1.99683E-13
 -1       177 1.77725E+01 5.15883E+00-2.04392E-02 1.57544E+00 2.32324E-13-1.21412E-13
 -1       178 1.86757E+01 5.02572E+00-2.67133E-02 1.60757E+00 2.47521E-13-2.99500E-15
 -1       179 2.02497E+01 4.59276E+00-3.50374E-02 1.89875E+00 2.35078E-13 1.97186E-13
 -1       180 2.24516E+01 3.77466E+00-3.44037E-02 2.65649E+00 1.86151E-13 4.76508E-13
 -1       181 2.18064E+01 8.63475E-01-1.74209E-03-2.17630E+00-1.89876E-13 1.61780E-13
 -1       182 2.00685E+01 1.62832E-01-1.19987E-02-1.03083E+00-1.74475E-13 8.86981E-14
 -1       183 1.90012E+01 6.17863E-02 1.22795E-02-6.36500E-01-9.78722E-14 2.67451E-14
 -1       184 1.82880E+01 7.37576E-03 9.27041E-03-5.18479E-01-6.65865E-14-3.67965E-14
 -1       185 1.77064E+01-5.11501E-03 4.98123E-03-4.95084E-01-4.31771E-14-6.01576E-14
 -1       186 1.71903E+01 5.59916E-03 3.01691E-03-4.80940E-01-3.27081E-14-5.68802E-14
 -1       187 1.67366E+01 3.02914E-02 2.58582E-03-4.26641E-01-6.63283E-14-9.38762E-14
 -1       188 1.63808E+01 5.95121E-02 2.74657E-03-3.07245E-01-7.50433E-14-1.24317E-13
 -1       189 1.61732E+01 8.27558E-02 2.96316E-03-1.23567E-01-4.69943E-14-1.13860E-13
 -1       190 1.61550E+01 9.12379E-02 2.97874E-03 9.88975E-02-3.51563E-15-1.06398E-13
 -1       191 1.63394E+01 8.14011E-02 2.69282E-03 3.18864E-01-5.01704E-14-2.37919E-13
 -1       192 1.67036E+01 5.63743E-02 2.10639E-03 4.94367E-01-4.95129E-14-2.58796E-13
 -1       193 1.71946E+01 2.41528E-02 1.29882E-03 5.97367E-01-1.32713E-14-2.68492E-13
 -1       194 1.77445E+01-6.30904E-03 4.06807E-04 6.21092E-01-1.69467E-14-3.15024E-13
 -1       195 1.82883E+01-2.86417E-02-4.14866E-04 5.77971E-01-3.71013E-14-2.73732E-13
 -1       196 1.87767E+01-4.05316E-02-1.04002E-03 4.91304E-01-4.68711E-15-3.15059E-13
 -1       197 1.91815E+01-4.30833E-02-1.40582E-03 3.85926E-01-5.13745E-14-3.24972E-13
 -1       198 1.94938E+01-3.91804E-02-1.51732E-03 2.81737E-01 3.00956E-14-3.19719E-13
 -1       199 1.97191E+01-3.19546E-02-1.43107E-03 1.91158E-01 3.77801E-15-3.70646E-13
 -1       200 1.98706E+01-2.38814E-02-1.22248E-03 1.19617E-01 8.08598E-16-3.55345E-13
 -1       201 1.99650E+01-1.65021E-02-9.62856E-04 6.74865E-02 6.44199E-14-2.40061E-13
 -1       202 2.00179E+01-1.05335E-02-7.05253E-04 3.22603E-02-1.55279E-13-2.96895E-13
 -1       203 2.00430E+01-6.12555E-03-4.81216E-04 1.02852E-02 5.89391E-14-2.05986E-13
 -1       204 2.00507E+01-3.11438E-03-3.03991E-04-2.12786E-03 8.83202E-14-1.72754E-13
 -1       205 2.00485E+01-1.20947E-03-1.74301E-04-8.13601E-03 3.79077E-14-3.42643E-13
 -1       206 2.00415E+01-1.06708E-04-8.59668E-05-1.01712E-02-9.24401E-14-3.17594E-13
 -1       207 2.00328E+01 4.56113E-04-3.01306E-05-9.96241E-03-2.72513E-13-4.10284E-13
 -1       208 2.00243E+01 6.80943E-04 2.10867E-06-8.65424E-03 3.11035E-14-3.46102E-13
 -1       209 2.00169E+01 7.11121E-04 1.83740E-05-6.95178E-03 1.77351E-13-2.01866E-13
 -1       210 2.00109E+01 6.41611E-04 2.45661E-05-5.25294E-03 3.44457E-14-2.31757E-13
 -1       211 2.00063E+01 5.31221E-04 2.49167E-05-3.75478E-03 5.85710E-14-3.97642E-14
 -1       212 2.00030E+01 4.13651E-04 2.22654E-05-2.53157E-03-4.82966E-14 1.79260E-13
 -1       213 2.00007E+01 3.06219E-04 1.83956E-05-1.58837E-03 2.46852E-13 6.95329E-14
 -1       214 1.99993E+01 2.16198E-04 1.43444E-05-8.95591E-04 1.08351E-13 3.37569E-14
 -1       215 1.99984E+01 1.45138E-04 1.06531E-05-4.10032E-04-1.08550E-13-1.23093E-13
 -1       216 1.99980E+01 9.16380E-05 7.55270E-06-8.66748E-05 4.18846E-14 2.35250E-14
 -1       217 1.99978E+01 5.30273E-05 5.09355E-06 1.15340E-04-6.59004E-14 3.44172E-15
 -1       218 1.99979E+01 2.63201E-05 3.23015E-06 2.30266E-04-1.36695E-13 1.39065E-13
 -1       219 1.99981E+01 8.70413E-06 1.87390E-06 2.85278E-04-3.68666E-14 6.80001E-14
 -1       220 1.99983E+01-2.24660E-06 9.23586E-07 3.00997E-04 8.84475E-14 6.18157E-14
 -1       221 1.99985E+01-8.51889E-06 2.81631E-07 2.92433E-04 1.03374E-13 1.67158E-15
 -1       222 1.99988E+01-1.16940E-05-1.38408E-07 2.70003E-04 2.78629E-13-8.06702E-14
 -1       223 1.99990E+01-1.30252E-05-4.07865E-07 2.40444E-04 1.30019E-13 3.29542E-13
 -1       224 1.99992E+01-1.35315E-05-5.78051E-07 2.07545E-04 6.91574E-14 4.12977E-13
 -1       225 1.99994E+01-1.40911E-05-6.70779E-07 1.72679E-04 1.97318E-13 2.60112E-13
 -1       226 1.99996E+01-1.54998E-05-6.64743E-07 1.35205E-04-1.02911E-13 2.43665E-13
 -1       227 1.99997E+01-1.82436E-05-5.37630E-07 9.29950E-05-1.86621E-13 2.53454E-13
 -1       228 1.99998E+01-2.31356E-05-4.95295E-07 4.52867E-05-7.88086E-14 3.50846E-13
 -1       229 2.42184E+01 9.66272E-01 1.32226E-02 1.13769E+00 1.42473E-13 7.19421E-13
 -1       230 2.34967E+01 4.04963E-01-2.93019E-03-4.75672E-01 1.23686E-13 6.32813E-13
 -1       231 2.39497E+01 4.40796E-01 1.80149E-02-1.60796E+00 8.08676E-14 5.57700E-13
 -1       232 2.53161E+01 4.74130E-01 1.05409E-02-2.71113E+00-5.15993E-15 5.26176E-13
 -1       233 2.74246E+01 3.27637E-01 1.64998E-02-3.66635E+00-9.01389E-14 5.42429E-13
 -1       234 2.99620E+01-3.48422E-01 5.37045E-02-3.76568E+00-1.89496E-13 6.43043E-13
 -1       235 3.25667E+01-1.65287E+00 8.88909E-02-2.13985E+00-2.62516E-13 7.96177E-13
 -1       236 3.52014E+01-2.90851E+00 6.34612E-02 1.39615E+00-2.28713E-13 8.90567E-13
 -1       237 3.37427E+01 8.45342E-01-5.87536E-01 5.73501E+00 3.21854E-13 1.04959E-12
 -1       238 3.17679E+01 2.45840E+00-1.02083E+00 1.64853E+00 4.19831E-13 7.22346E-13
 -1       239 3.20968E+01 1.87074E+00-1.01631E+00-5.11302E+00 2.48662E-13 3.85612E-13
 -1       240 3.60371E+01-9.33889E-01-1.81923E-01-6.11042E+00 1.53405E-13 1.32540E-13
 -1       241 3.74807E+01-1.46146E+00 2.29514E-01-1.84092E+00-9.31581E-14 1.90022E-13
 -1       242 3.57264E+01-5.78518E-01 2.10247E-01 1.77271E+00-1.31069E-13 3.74971E-13
 -1       243 3.22460E+01 1.25856E-02 4.55281E-02 2.78745E+00-3.53051E-14 3.75304E-13
 -1       244 2.87095E+01 1.80332E-01-2.84671E-02 2.41851E+00 8.72566E-14 3.47451E-13
 -1       245 2.58658E+01 1.72115E-01-3.21442E-02 1.72791E+00-1.20377E-13 3.54876E-13
 -1       246 2.39044E+01 1.24847E-01-1.99420E-02 1.15840E+00 1.22756E-13 3.58865E-13
 -1       247 2.24932E+01 8.15972E-02-8.48444E-03 7.31396E-01 5.10312E-15 4.19726E-13
 -1       248 2.15767E+01 5.03086E-02-2.74398E-03 4.52183E-01-6.65848E-14 4.01145E-13
 -1       249 2.09915E+01 3.04348E-02-4.12769E-04 2.77156E-01-9.79368E-14 4.35357E-13
 -1       250 2.06218E+01 1.82595E-02 3.31609E-04 1.69464E-01 3.11550E-14 3.41111E-13
 -1       251 2.03893E+01 1.09334E-02 4.69086E-04 1.03711E-01 1.07339E-13 1.95358E-13
 -1       252 2.02431E+01 6.55222E-03 4.15982E-04 6.36478E-02 1.38652E-13 2.16609E-14
 -1       253 2.01512E+01 3.94543E-03 3.36094E-04 3.91755E-02 5.76259E-15-6.08942E-14
 -1       254 2.00954E+01 2.44180E-03 2.17632E-04 2.48008E-02 1.23118E-13-2.62048E-13
 -1       255 2.00577E+01 1.49100E-03 1.65433E-04 1.53692E-02-1.10865E-13-2.67881E-13
 -1       256 2.00339E+01 9.17709E-04 1.15027E-04 9.50755E-03-1.24163E-13-2.32121E-13
 -1       257 2.00188E+01 5.69153E-04 7.89417E-05 5.84446E-03 3.55618E-13-1.22638E-13
 -1       258 2.00093E+01 3.55636E-04 5.39289E-05 3.53508E-03 3.60005E-13-5.41399E-13
 -1       259 2.00035E+01 2.23266E-04 3.69358E-05 2.06917E-03-2.94241E-13-7.61279E-13
 -1       260 1.99999E+01 1.39750E-04 2.55843E-05 1.13560E-03-3.99410E-14-5.04855E-13
 -1       261 1.99979E+01 8.67052E-05 1.79917E-05 5.41663E-04 7.10140E-14-6.10119E-13
 -1       262 1.99968E+01 5.36982E-05 1.24031E-05 1.84832E-04 6.58535E-14-5.47984E-13
 -1       263 1.99964E+01 3.04381E-05 9.08646E-06-4.75066E-05 1.21411E-13-4.12330E-13
 -1       264 1.99963E+01 1.56225E-05 6.59079E-06-1.82726E-04 1.22981E-13-4.44491E-13
 -1       265 1.99965E+01 5.88461E-06 4.82162E-06-2.53295E-04-9.10609E-14-3.55794E-13
 -1       266 1.99968E+01-2.70462E-07 3.55093E-06-2.81839E-04 2.58466E-14-4.48366E-13
 -1       267 1.99972E+01-3.95873E-06 2.62266E-06-2.83707E-04 2.41708E-13-6.63866E-13
 -1       268 1.99976E+01-5.96612E-06 1.93751E-06-2.69462E-04-1.85941E-13-9.22371E-13
 -1       269 1.99980E+01-6.88407E-06 1.36996E-06-2.46329E-04-1.98645E-13-7.76070E-13
 -1       270 1.99984E+01-6.86439E-06 1.03861E-06-2.20540E-04 2.46606E-13-7.42822E-13
 -1       271 1.99987E+01-6.72679E-06 6.96053E-07-1.92462E-04 8.27891E-14-7.96080E-13
 -1       272 1.99990E+01-6.25663E-06 4.57722E-07-1.64927E-04-1.45305E-13-9.34660E-13
 -1       273 1.99992E+01-5.87250E-06 3.06394E-07-1.38530E-04-1.27229E-13-7.29653E-13
 -1       274 1.99994E+01-5.79429E-06 2.93172E-07-1.12761E-04-2.45231E-13-7.54160E-13
 -1       275 1.99996E+01-6.25128E-06 5.29791E-07-8.60769E-05 3.01760E-13-7.05705E-13
 -1       276 1.99997E+01-7.58929E-06 8.78338E-07-5.60860E-05-4.66907E-13-6.43756E-13
 -1       277 1.99998E+01-8.41702E-06 3.81748E-08-2.19299E-05 2.46180E-13-4.39987E-13
 -1       278 1.99998E+01-1.11205E-05-4.81930E-07-6.72843E-06-1.63215E-14-2.00648E-13
 -1       279 1.99998E+01-6.11407E-05 6.23533E-07-4.31935E-05-5.79241E-13-2.34112E-13
 -1       280 1.99998E+01-1.45522E-04 4.08503E-07-7.43724E-05-4.08347E-13 5.99569E-14
 -1       281 1.99998E+01-2.52981E-04 7.36945E-08-9.01615E-05-6.92838E-13-4.08292E-13
 -1       282 1.99998E+01-3.67136E-04-8.96852E-08-9.00255E-05-1.03408E-12-1.67224E-13
 -1       283 1.99998E+01-4.69907E-04-1.16353E-07-7.68406E-05-7.87758E-13 8.96225E-13
 -1       284 1.99998E+01-5.51029E-04-9.69015E-08-5.34559E-05-4.65490E-13-1.53918E-13
 -1       285 1.99998E+01-5.98304E-04-6.67443E-08-2.36316E-05-2.44422E-13 1.30580E-13
 -1       286 1.99998E+01-6.06223E-04-4.60627E-08 8.82929E-06-4.70935E-13-4.13304E-13
 -1       287 1.99998E+01-5.73968E-04-3.61597E-08 4.01604E-05-9.48456E-13-3.36244E-13
 -1       288 1.99998E+01-5.05471E-04-2.78797E-08 6.66962E-05-8.66748E-13-1.14953E-13
 -1       289 1.99998E+01-4.10961E-04 7.42529E-10 8.46653E-05-8.07163E-13 5.25378E-13
 -1       290 1.99998E+01-2.99464E-04 1.24176E-07 9.13914E-05-7.10660E-13 4.52991E-13
 -1       291 1.99998E+01-1.88010E-04 3.71685E-07 8.37760E-05-7.24376E-13-2.86612E-13
 -1       292 1.99998E+01-9.51857E-05 4.55317E-07 6.01627E-05-5.54178E-13 9.93710E-14
 -1       293-1.84833E+00-1.16214E+01-8.79793E-01-1.04526E+00 2.76924E-13 3.45196E-13
 -1       294 1.15109E+00-1.02459E+01-8.32947E-01 1.71341E+00 2.29733E-13 1.12424E-13
 -1       295 6.90399E+00-8.78908E+00-1.04430E+00 2.97518E+00 2.40696E-13 3.09523E-13
 -1       296 1.74718E+01-5.64656E+00-7.78722E-01 4.89999E+00 3.26017E-13 6.67855E-13
 -1       297 3.41657E+01-4.04871E+00-4.67074E-02 3.30557E+00 2.37199E-13 5.39846E-13
 -1       298 4.60605E+01 5.05417E-01 6.62620E-01-1.22224E+00 4.28858E-13 3.68983E-13
 -1       299 5.67596E+01 5.62263E+00 2.07098E+00-1.52668E-03 5.58942E-13 4.51583E-13
 -1       300 5.73379E+01 7.48563E+00 2.16499E+00 3.80331E-02 4.94660E-13 3.40429E-13
 -1       301 5.22062E+01 4.49518E+00 1.42963E+00 9.77388E-01 5.27300E-13 1.75082E-13
 -1       302 4.29589E+01 1.96011E-01 6.26677E-01-3.09745E+00 5.96384E-13-3.25073E-13
 -1       303 2.89686E+01-4.67947E+00-2.60438E-01-4.41200E+00 3.70010E-13-3.49443E-13
 -1       304 1.32910E+01-6.82030E+00-7.99058E-01-4.72700E+00 5.34961E-13-6.17298E-13
 -1       305 4.41154E+00-9.14864E+00-8.32947E-01-3.21792E+00 2.29899E-13-6.33327E-13
 -1       306-1.07856E+00-1.23331E+01-1.09289E+00 1.59769E-02 5.60663E-14-5.83700E-13
 -1       307-1.70181E+00-1.12453E+01-8.63103E-01 1.90310E+00-2.20726E-13-5.20417E-13
 -1       308 6.86285E-01-1.04047E+01-8.67780E-01 3.60898E+00-5.48311E-13-4.71942E-13
 -1       309 6.23121E+00-6.50164E+00-5.78408E-01 5.94431E+00-6.84008E-13-4.06460E-13
 -1       310 1.40183E+01-2.16401E+00-2.97634E-01 7.73757E+00-7.81597E-13-5.85532E-13
 -1       311 2.43638E+01 1.91399E+00 1.00251E-01 9.21217E+00-6.94250E-13-7.03992E-13
 -1       312 3.59976E+01 4.30502E+00 4.41878E-01 8.01427E+00-6.05530E-13-4.51861E-13
 -1       313 4.55749E+01 6.68870E+00 8.21653E-01 6.38609E+00-6.02789E-13-2.44776E-13
 -1       314 4.93777E+01 7.88183E+00 8.66048E-01 1.94760E+00-4.83946E-13-3.74839E-14
 -1       315 5.13710E+01 7.43221E+00 1.04878E+00-2.63195E+00-3.52801E-13 2.25500E-13
 -1       316 4.50772E+01 6.79433E+00 8.17427E-01-6.61989E+00-4.20386E-13 3.91021E-13
 -1       317 3.52010E+01 5.00020E+00 5.13790E-01-9.38758E+00-4.08465E-13 6.15397E-13
 -1       318 2.38291E+01 8.66047E-01 6.09643E-02-8.95981E+00-2.02810E-13 6.17978E-13
 -1       319 1.20688E+01-2.96872E+00-3.61750E-01-7.46097E+00-7.76046E-14 4.49502E-13
 -1       320 3.96813E+00-7.97892E+00-7.38756E-01-5.03858E+00-8.58202E-14 2.69656E-13
 -1       321-6.98231E-01-1.17388E+01-9.64848E-01-2.98120E+00 1.38667E-13 8.93313E-14
 -1       322 3.69447E+01-1.70065E+00-5.24936E-02 5.41536E+00 1.15311E-13 1.07741E-12
 -1       323 1.99998E+01-5.18587E-05-6.43659E-07 4.75089E-05-3.31981E-13 1.12611E-13
 -1       324 2.04347E+01 2.80057E+00-1.97508E-02-2.45551E+00-1.34535E-13-1.99609E-13
 -1       325 2.07539E+01 2.12987E+00-2.08244E-02-2.71415E+00-1.87861E-13-1.34490E-13
 -1       326 2.04046E+01 3.16263E+00-1.96344E-02-1.38088E+00-1.28619E-14-2.53019E-13
 -1       327 2.03639E+01 3.20519E+00-1.81468E-02-7.18583E-01 3.59886E-14-2.34624E-13
 -1       328 2.01487E+01 3.27120E+00-1.66184E-02-1.45351E-02 1.08676E-13-1.95382E-13
 -1       329 1.97001E+01 3.42461E+00-1.46600E-02 6.80181E-01 1.66024E-13-1.85092E-13
 -1       330 1.90304E+01 3.70399E+00-1.22469E-02 1.28238E+00 2.05508E-13-1.98723E-13
 -1       331 1.82593E+01 4.09259E+00-9.70653E-03 1.68754E+00 2.25685E-13-1.84592E-13
 -1       332 1.76373E+01 4.48603E+00-7.96870E-03 1.81250E+00 2.47718E-13-1.61166E-13
 -1       333 1.74616E+01 4.72555E+00-8.05971E-03 1.66083E+00 2.73357E-13-1.01783E-13
 -1       334 1.80338E+01 4.60250E+00-1.17022E-02 1.35079E+00 2.78444E-13-2.21663E-14
 -1       335 1.94657E+01 3.96375E+00-1.47838E-02 1.09081E+00 2.65316E-13 9.52858E-14
 -1       336 2.16043E+01 2.70129E+00-7.71813E-03 1.02451E+00 2.22117E-13 2.84238E-13
 -1       337 9.81664E+00-5.94178E+00-1.00512E-01 5.51494E+00-5.46230E-14 2.97401E-14
 -1       338 3.53728E+01-5.16014E+00-6.91909E-02 8.60820E-01 2.73392E-15 3.08531E-13
 -1       339 2.02494E+01 5.35211E-01 1.09661E-02-1.52880E+00-1.54449E-13-5.20852E-14
 -1       340 1.96256E+01 1.80590E-01 5.88494E-03-1.12145E+00-1.11849E-13-4.99077E-14
 -1       341 1.91072E+01 4.47339E-02 3.28230E-03-9.68063E-01-6.78165E-14-3.93811E-14
 -1       342 1.86506E+01 2.85587E-02 1.72784E-03-9.02981E-01-4.00725E-14-5.30110E-14
 -1       343 1.82421E+01 8.86974E-02 1.59760E-03-8.22519E-01-5.39247E-14-4.83323E-14
 -1       344 1.78942E+01 1.89066E-01 2.13331E-03-6.61098E-01-6.32203E-14-4.95572E-14
 -1       345 1.76412E+01 2.89358E-01 2.75622E-03-3.93677E-01-4.23181E-14-3.82858E-14
 -1       346 1.75227E+01 3.49974E-01 3.11852E-03-3.99965E-02-3.43656E-14-4.44128E-14
 -1       347 1.75626E+01 3.45287E-01 3.05908E-03 3.42723E-01-1.08781E-13-1.44262E-13
 -1       348 1.77550E+01 2.74181E-01 2.54693E-03 6.81671E-01-7.78076E-14-1.61154E-13
 -1       349 1.80631E+01 1.59272E-01 1.68356E-03 9.16421E-01-5.60038E-14-1.83090E-13
 -1       350 1.84321E+01 3.47258E-02 6.62029E-04 1.01900E+00-1.25787E-14-1.79454E-13
 -1       351 1.88070E+01-6.91729E-02-3.01273E-04 9.97407E-01-1.03627E-14-1.45088E-13
 -1       352 1.91467E+01-1.35896E-01-1.03297E-03 8.84750E-01-4.86730E-14-1.48593E-13
 -1       353 1.94281E+01-1.63768E-01-1.45283E-03 7.22842E-01-6.47610E-14-2.06117E-13
 -1       354 1.96447E+01-1.61009E-01-1.57085E-03 5.48888E-01-8.16464E-14-2.69584E-13
 -1       355 1.98009E+01-1.39441E-01-1.46766E-03 3.88768E-01 5.46899E-14-3.10611E-13
 -1       356 1.99066E+01-1.09870E-01-1.23545E-03 2.56190E-01 4.37581E-14-3.59373E-13
 -1       357 1.99734E+01-7.99670E-02-9.56294E-04 1.55203E-01 1.09237E-13-2.35164E-13
 -1       358 2.00120E+01-5.40361E-02-6.87031E-04 8.37159E-02-1.55342E-14-2.43465E-13
 -1       359 2.00313E+01-3.37495E-02-4.58734E-04 3.66282E-02 1.46358E-14-5.03007E-14
 -1       360 2.00383E+01-1.91160E-02-2.82418E-04 8.01870E-03 2.16882E-14-3.45417E-14
 -1       361 2.00379E+01-9.30371E-03-1.56424E-04-7.58889E-03-1.02932E-13-2.06762E-13
 -1       362 2.00337E+01-3.20213E-03-7.27315E-05-1.46646E-02-7.52869E-15-3.60009E-13
 -1       363 2.00279E+01 2.59575E-04-2.13321E-05-1.65524E-02-1.36393E-13-2.39137E-13
 -1       364 2.00218E+01 1.96934E-03 7.24312E-06-1.55828E-02-3.02921E-14 5.42089E-14
 -1       365 2.00162E+01 2.59599E-03 2.07860E-05-1.32759E-02 9.22136E-14-4.42848E-14
 -1       366 2.00114E+01 2.60770E-03 2.51385E-05-1.05557E-02 9.07726E-14-5.85348E-14
 -1       367 2.00075E+01 2.31166E-03 2.43703E-05-7.93501E-03 1.08759E-13 7.05865E-14
 -1       368 2.00046E+01 1.89664E-03 2.11343E-05-5.66044E-03 6.07225E-14 1.98565E-13
 -1       369 2.00024E+01 1.46984E-03 1.70434E-05-3.81706E-03 1.79006E-13 3.52023E-13
 -1       370 2.00009E+01 1.08556E-03 1.29977E-05-2.39958E-03 1.37825E-14 1.15038E-13
 -1       371 1.99999E+01 7.65777E-04 9.43761E-06-1.35828E-03-2.45451E-13-6.36963E-14
 -1       372 1.99992E+01 5.14113E-04 6.52550E-06-6.26745E-04 1.74548E-13 3.27569E-14
 -1       373 1.99989E+01 3.24801E-04 4.26824E-06-1.37477E-04 4.32429E-14 8.38726E-14
 -1       374 1.99988E+01 1.88105E-04 2.59564E-06 1.70239E-04 6.03284E-14 2.57578E-13
 -1       375 1.99987E+01 9.33925E-05 1.40735E-06 3.47169E-04-1.34451E-13 3.64556E-13
 -1       376 1.99988E+01 3.07182E-05 5.98883E-07 4.33598E-04 2.48104E-13 6.35098E-13
 -1       377 1.99989E+01-8.49938E-06 7.43134E-08 4.60132E-04-3.36399E-14 4.02747E-13
 -1       378 1.99990E+01-3.13226E-05-2.48557E-07 4.49064E-04-8.04831E-14 2.34488E-13
 -1       379 1.99992E+01-4.34219E-05-4.37719E-07 4.15841E-04 5.34911E-13 1.46681E-13
 -1       380 1.99993E+01-4.93368E-05-5.46529E-07 3.70399E-04 2.06200E-13 3.03428E-13
 -1       381 1.99994E+01-5.27409E-05-6.13738E-07 3.18282E-04-1.32359E-14 1.49944E-13
 -1       382 1.99996E+01-5.66046E-05-6.67071E-07 2.61678E-04-1.11537E-13-2.24309E-16
 -1       383 1.99996E+01-6.28912E-05-7.20510E-07 2.00519E-04 1.43136E-13 3.31739E-13
 -1       384 1.99997E+01-7.16659E-05-7.15807E-07 1.34324E-04-2.73647E-13 4.30362E-13
 -1       385 2.15185E+01 1.62092E+00 2.05518E-02-2.63701E+00 6.61151E-14 2.41432E-13
 -1       386 2.17951E+01 1.63401E+00 2.33027E-02-1.09605E+00 1.39232E-13 2.69658E-13
 -1       387 2.13661E+01 1.50614E+00 2.65649E-02-4.12031E+00-5.01573E-14 1.99074E-13
 -1       388 2.15436E+01 6.03876E-01 5.90750E-02-5.30115E+00-1.60663E-13 1.58869E-13
 -1       389 2.25537E+01-1.63342E+00 1.01141E-01-5.68873E+00-2.99809E-13 1.50713E-13
 -1       390 3.02725E+01-3.89841E+00 7.57041E-02 2.73853E+00-1.84665E-13 2.85560E-13
 -1       391 2.67372E+01-8.41988E-01 8.44263E-02 4.79894E+00-7.22825E-14 2.55867E-13
 -1       392 2.48023E+01 5.85635E-01 2.84459E-02 4.60547E+00 7.86793E-14 1.47553E-13
 -1       393 2.35436E+01 8.65976E-01 1.17532E-02 3.57795E+00 8.91596E-14 6.94744E-14
 -1       394 2.26211E+01 7.39378E-01 9.80474E-03 2.56409E+00-4.56050E-14 3.21970E-14
 -1       395 2.18628E+01 5.27479E-01 9.62410E-03 1.71191E+00-7.33814E-14 1.31828E-13
 -1       396 2.12953E+01 3.48066E-01 8.18440E-03 1.10894E+00-6.73368E-14 2.59714E-13
 -1       397 2.08848E+01 2.21043E-01 6.05120E-03 7.06643E-01 4.71704E-14 2.22348E-13
 -1       398 2.05970E+01 1.37783E-01 4.12696E-03 4.46639E-01-1.09973E-13 1.27280E-13
 -1       399 2.03993E+01 8.51491E-02 2.68544E-03 2.81430E-01 2.04825E-13 1.39838E-13
 -1       400 2.02654E+01 5.24745E-02 1.70578E-03 1.77346E-01 2.13372E-13 9.48696E-14
 -1       401 2.01756E+01 3.23362E-02 1.08705E-03 1.11986E-01 6.44413E-14-1.12219E-14
 -1       402 2.01177E+01 2.05025E-02 6.71486E-04 7.25242E-02 1.10784E-13-1.73185E-13
 -1       403 2.00766E+01 1.27493E-02 4.31674E-04 4.60460E-02-4.70604E-14-3.12428E-14
 -1       404 2.00492E+01 7.98105E-03 2.71752E-04 2.92713E-02-1.11301E-13-1.46847E-13
 -1       405 2.00309E+01 5.03616E-03 1.71692E-04 1.85838E-02 2.02962E-13-3.60595E-13
 -1       406 2.00188E+01 3.20341E-03 1.09175E-04 1.17224E-02 4.76744E-13-4.33436E-13
 -1       407 2.00108E+01 2.05132E-03 6.98705E-05 7.28617E-03 1.32814E-13-1.62035E-13
 -1       408 2.00056E+01 1.31828E-03 4.51032E-05 4.40286E-03-2.64974E-13-3.74895E-13
 -1       409 2.00022E+01 8.44924E-04 2.94200E-05 2.52437E-03 1.31513E-13-4.01122E-13
 -1       410 2.00002E+01 5.48356E-04 1.85805E-05 1.35555E-03-2.62569E-14-4.31598E-13
 -1       411 1.99990E+01 3.40826E-04 1.22078E-05 5.57598E-04-3.52104E-13-3.05990E-13
 -1       412 1.99983E+01 2.02325E-04 7.59875E-06 5.71916E-05 1.85323E-13 7.51075E-14
 -1       413 1.99980E+01 1.10430E-04 4.57531E-06-2.42498E-04-1.67415E-13-9.04440E-14
 -1       414 1.99979E+01 5.00037E-05 2.56508E-06-4.08111E-04 9.05004E-14-1.09123E-14
 -1       415 1.99980E+01 1.11991E-05 1.24397E-06-4.85131E-04 1.73796E-13-3.73608E-13
 -1       416 1.99982E+01-1.26729E-05 4.04727E-07-5.05005E-04 2.55661E-13 1.55198E-14
 -1       417 1.99984E+01-2.62697E-05-1.37100E-07-4.89582E-04 9.34011E-15-5.56633E-13
 -1       418 1.99986E+01-3.28534E-05-4.53461E-07-4.55838E-04 7.22146E-14-8.61057E-13
 -1       419 1.99988E+01-3.52784E-05-6.20058E-07-4.10038E-04 1.73334E-13-9.85087E-13
 -1       420 1.99990E+01-3.52279E-05-7.20023E-07-3.59874E-04-6.18397E-14-1.17159E-12
 -1       421 1.99992E+01-3.41978E-05-7.64817E-07-3.08785E-04-3.31293E-13-1.13079E-12
 -1       422 1.99994E+01-3.36121E-05-7.92134E-07-2.57878E-04-2.21985E-13-8.42151E-13
 -1       423 1.99995E+01-3.47190E-05-8.20420E-07-2.06266E-04-9.02333E-14-2.84233E-13
 -1       424 1.99996E+01-3.83648E-05-6.91346E-07-1.51916E-04 7.97264E-14-2.57418E-13
 -1       425 1.99997E+01-4.32263E-05-6.38201E-07-9.34560E-05-2.49222E-13-7.22719E-13
 -1       426 1.99998E+01-5.67763E-05-3.77869E-07-7.09432E-05-9.63186E-14-6.16713E-13
 -1       427 1.99998E+01-1.94094E-04-3.05302E-07-1.69590E-04-3.96117E-14-5.59710E-13
 -1       428 1.99998E+01-1.21464E-04-3.71069E-07-1.26206E-04 1.19803E-13 1.72263E-13
 -1       429 1.99998E+01-2.81434E-04-9.30861E-09-1.80132E-04-5.01475E-14-5.32143E-13
 -1       430 1.99998E+01-3.62820E-04 2.74733E-07-1.64660E-04-4.95096E-13 4.50194E-13
 -1       431 1.99998E+01-4.31608E-04 5.05348E-07-1.27282E-04-5.06085E-13 5.14560E-13
 -1       432 1.99998E+01-4.78496E-04 6.61256E-07-7.42879E-05-3.03947E-13-4.01614E-16
 -1       433 1.99999E+01-4.98413E-04 7.24540E-07-1.27649E-05-6.20111E-13-3.85565E-13
 -1       434 1.99998E+01-4.89305E-04 6.93767E-07 4.99922E-05-5.40497E-13-5.50069E-13
 -1       435 1.99998E+01-4.52289E-04 5.72710E-07 1.06781E-04-4.70216E-13-1.33944E-13
 -1       436 1.99998E+01-3.92741E-04 3.69142E-07 1.50153E-04-2.98423E-13 1.71684E-13
 -1       437 1.99998E+01-3.15155E-04 1.24076E-07 1.75327E-04-2.89487E-13 4.21008E-13
 -1       438 1.99998E+01-2.29332E-04-1.42744E-07 1.76398E-04-4.12132E-13-7.79706E-14
 -1       439 1.99998E+01-1.44500E-04-4.88679E-07 1.50552E-04-4.78015E-13 6.27935E-14
 -1       440 1.79565E+01-6.98716E+00-2.02854E-01 5.63440E+00-1.64563E-13 2.16135E-13
 -1       441 6.15757E-01-4.37353E+00-3.08843E-02-2.87218E+00 1.20078E-13 2.16743E-13
 -1       442 2.03994E+01 3.04995E+00-2.07593E-02-1.98674E+00-6.63357E-14-2.47170E-13
 -1       443 2.94199E+01-6.44240E+00-1.16367E-01 2.67499E+00-1.86157E-13 2.47080E-13
 -1       444 2.60446E+01-6.67702E+00-1.10701E-01-4.37080E+00-7.79099E-14 6.24570E-14
 -1       445 1.61766E+01-6.03781E+00-3.15262E-02-6.29140E+00-1.74194E-13-2.22173E-13
 -1       446 4.62351E+00-4.90659E+00-9.19707E-02-4.19643E+00-1.16837E-13-5.64659E-13
 -1       447 8.72882E-01-4.21477E+00-5.20651E-02-5.00240E-01-5.35301E-14-6.07653E-13
 -1       448 1.81322E+00-4.22131E+00-2.88715E-02 4.56528E+00-7.38298E-15-5.19501E-13
 -1       449 6.14969E+00-4.87769E+00-6.03499E-02 7.37724E+00-5.07372E-14-3.38465E-13
 -1       450 1.57115E+01-4.85618E+00 2.33095E-02 8.84497E+00-1.59928E-13-2.62306E-13
 -1       451 2.41094E+01-3.98454E+00 4.29522E-03 7.39853E+00-2.39905E-13-2.13940E-13
 -1       452 3.12107E+01-1.31521E+00-2.27494E-02 4.50077E+00-2.99656E-13-1.15824E-13
 -1       453 3.52774E+01 3.50148E+00-7.93817E-02 9.88310E-02-4.78173E-13 8.99558E-14
 -1       454 3.60633E+01 7.23168E+00-1.54487E-01-6.77157E-01-5.38139E-13-1.03653E-13
 -1       455 3.83100E+01 9.53237E+00-4.67685E-02-1.50705E-01-4.28768E-13-1.25865E-13
 -1       456 3.86595E+01 8.05119E+00 1.89221E-02-2.62673E-01-3.33122E-13-1.46119E-13
 -1       457 3.60555E+01 3.26643E+00-1.95756E-03-1.88803E+00-1.56326E-13-1.25663E-13
 -1       458 3.14139E+01-1.22781E+00 1.88000E-02-4.61778E+00 1.21951E-13-7.96446E-14
 -1       459 2.24565E+01-4.62008E+00 5.17715E-03-7.99368E+00 2.23072E-13 1.95920E-13
 -1       460 1.25948E+01-5.20085E+00-3.50273E-02-8.77649E+00 1.52323E-13 3.12646E-13
 -1       461 4.80091E+00-4.56533E+00-8.56666E-03-6.90964E+00 1.22360E-13 1.94844E-13
 -1       462 2.62103E+00-3.70952E+00 4.34629E-02 2.32345E+00-9.34253E-14 1.57818E-13
 -1       463 3.56705E+01-4.56311E+00-5.66674E-02-2.30304E+00-1.08157E-13 1.25559E-13
 -1       464 4.22847E+01 6.17274E-02 1.84649E-01 4.02744E+00 4.83086E-13 4.09395E-13
 -1       465 2.64950E+01-4.73727E+00 5.73250E-02-4.35545E+00-3.23394E-13 2.59660E-13
 -1       466 2.09327E+01 2.12611E+00-7.13888E-03-3.10041E-01 8.04475E-14-1.69165E-13
 -1       467 2.09817E+01 2.08062E+00-7.73015E-03-1.01364E+00 2.67157E-14-1.87868E-13
 -1       468 1.99860E+01 2.49610E+00-5.70924E-03 1.28564E+00 1.85300E-13-1.51901E-13
 -1       469 1.90466E+01 2.95546E+00-4.49780E-03 1.93267E+00 2.25522E-13-1.82717E-13
 -1       470 1.80111E+01 3.54726E+00-3.17218E-03 2.23341E+00 2.37690E-13-1.65372E-13
 -1       471 1.72194E+01 4.09910E+00-1.91340E-03 2.05732E+00 2.67593E-13-1.26041E-13
 -1       472 1.71600E+01 4.30603E+00-1.92626E-03 1.42042E+00 2.55145E-13-8.47801E-14
 -1       473 1.81838E+01 3.89582E+00-2.33125E-03 5.67017E-01 2.38394E-13 1.40950E-14
 -1       474 1.97431E+01 2.91154E+00 3.23745E-03-3.41995E-01 2.01360E-13 1.19197E-13
 -1       475 1.68961E+01-3.62571E+00 1.16249E-01-6.48557E+00-3.20924E-13-1.12119E-13
 -1       476 2.04800E+01 6.54918E-01 2.12243E-03-1.63679E+00-1.11039E-13-8.96426E-14
 -1       477 2.06487E+01 1.45662E+00-7.45798E-03-2.04933E+00-1.25184E-13-1.41342E-13
 -1       478 2.02093E+01 2.35522E-01 1.79810E-03-1.38288E+00-8.97073E-14-6.30914E-14
 -1       479 1.99012E+01 8.83004E-02 8.70648E-04-1.27008E+00-5.14335E-14-4.94201E-14
 -1       480 1.95779E+01 1.30922E-01 6.55712E-04-1.18944E+00-3.09776E-14-1.89142E-14
 -1       481 1.92550E+01 2.98010E-01 8.51844E-04-1.04081E+00-6.60285E-14 1.03306E-14
 -1       482 1.89668E+01 5.13494E-01 1.14379E-03-7.59460E-01-8.67658E-14-3.18841E-14
 -1       483 1.87647E+01 6.89071E-01 1.32632E-03-3.37036E-01-3.58482E-14-1.03576E-13
 -1       484 1.86954E+01 7.49152E-01 1.36197E-03 1.71503E-01-1.20815E-13-1.30292E-13
 -1       485 1.87747E+01 6.62243E-01 1.26401E-03 6.67651E-01-9.13112E-14-1.23489E-13
 -1       486 1.89752E+01 4.54377E-01 1.00806E-03 1.05117E+00-6.61341E-14-8.21355E-14
 -1       487 1.92391E+01 1.92310E-01 6.20209E-04 1.26075E+00 1.90706E-14-7.76643E-14
 -1       488 1.95040E+01-5.11994E-02 1.56888E-04 1.29054E+00 5.69336E-15-4.57508E-14
 -1       489 1.97257E+01-2.26842E-01-2.75086E-04 1.17925E+00-1.15095E-14-1.03048E-14
 -1       490 1.98859E+01-3.19011E-01-5.79426E-04 9.84832E-01-9.36790E-14 1.10176E-14
 -1       491 1.99870E+01-3.38452E-01-7.03987E-04 7.61900E-01-1.22441E-13 1.75562E-14
 -1       492 2.00416E+01-3.08442E-01-7.00971E-04 5.49716E-01-6.04510E-14-3.89445E-14
 -1       493 2.00651E+01-2.53126E-01-6.12766E-04 3.70061E-01-2.80138E-14-1.48186E-13
 -1       494 2.00700E+01-1.91187E-01-4.86914E-04 2.30595E-01 1.15776E-13-9.17873E-14
 -1       495 2.00653E+01-1.34179E-01-3.57409E-04 1.29918E-01 4.61652E-14-1.40365E-13
 -1       496 2.00567E+01-8.75506E-02-2.43761E-04 6.20434E-02 3.95907E-14-8.01530E-14
 -1       497 2.00470E+01-5.25749E-02-1.53894E-04 1.95115E-02 5.39193E-14-9.67493E-14
 -1       498 2.00379E+01-2.81888E-02-8.84015E-05-4.80366E-03-1.13310E-13-1.33913E-13
 -1       499 2.00298E+01-1.23392E-02-4.40441E-05-1.68553E-02-1.80280E-13-6.95180E-14
 -1       500 2.00230E+01-2.81100E-03-1.61749E-05-2.11956E-02-4.29529E-14-2.29548E-13
 -1       501 2.00174E+01 2.35289E-03-1.71228E-07-2.10734E-02 4.41173E-14-1.14505E-13
 -1       502 2.00129E+01 4.69651E-03 7.87834E-06-1.86687E-02 4.83783E-14 2.41600E-15
 -1       503 2.00093E+01 5.34499E-03 1.09642E-05-1.53553E-02 7.53114E-14 1.57570E-13
 -1       504 2.00065E+01 5.06640E-03 1.12039E-05-1.19359E-02 1.38387E-13 1.49607E-13
 -1       505 2.00043E+01 4.35384E-03 9.99951E-06-8.83218E-03 9.72635E-14 1.43735E-13
 -1       506 2.00027E+01 3.50349E-03 8.21929E-06-6.22509E-03 1.09829E-13 1.35639E-13
 -1       507 2.00015E+01 2.67861E-03 6.36022E-06-4.15380E-03-3.02506E-14 2.07414E-13
 -1       508 2.00007E+01 1.95767E-03 4.67702E-06-2.58135E-03-2.54595E-13 6.30267E-14
 -1       509 2.00001E+01 1.36831E-03 3.27509E-06-1.43619E-03-1.29291E-14 1.16614E-13
 -1       510 1.99997E+01 9.09934E-04 2.17394E-06-6.36738E-04 4.50291E-14 7.21598E-14
 -1       511 1.99995E+01 5.68090E-04 1.34894E-06-1.04794E-04 2.35344E-13 5.63154E-14
 -1       512 1.99994E+01 3.22957E-04 7.56785E-07 2.27975E-04-8.24922E-14 1.10129E-13
 -1       513 1.99993E+01 1.54143E-04 3.49835E-07 4.17799E-04 9.46281E-14 2.32499E-13
 -1       514 1.99993E+01 4.30600E-05 8.33196E-08 5.08865E-04-7.60472E-14 1.77662E-13
 -1       515 1.99994E+01-2.61358E-05-8.20177E-08 5.34519E-04-8.64544E-15 2.78796E-13
 -1       516 1.99994E+01-6.64212E-05-1.78536E-07 5.18912E-04-6.94273E-14 2.41799E-13
 -1       517 1.99995E+01-8.82032E-05-2.32940E-07 4.78680E-04 3.98342E-13 3.43314E-14
 -1       518 1.99996E+01-9.98163E-05-2.64076E-07 4.24462E-04-2.13863E-13 2.76775E-13
 -1       519 1.99996E+01-1.07802E-04-2.70935E-07 3.62146E-04-1.27079E-13 2.88892E-13
 -1       520 1.99997E+01-1.17059E-04-3.52406E-07 2.94436E-04 9.09476E-14 1.35908E-13
 -1       521 1.99997E+01-1.31387E-04-4.12316E-07 2.25627E-04 8.50730E-14-6.65366E-14
 -1       522 1.79026E+01 2.77173E+00 2.29093E-02-2.66270E+00 4.68981E-14 2.26746E-14
 -1       523 1.58157E+01 4.02661E-01 1.40109E-01-5.56672E+00-1.86125E-13-8.37594E-14
 -1       524 2.22359E+01-4.67963E+00 6.70157E-02 7.44845E+00 1.11910E-13-1.89692E-14
 -1       525 9.33423E+00-1.99791E+00 1.37060E-01 5.22149E+00-7.41490E-14-8.61256E-14
 -1       526 2.02401E+01-2.83293E+00 1.25184E-01 6.02284E+00-9.77274E-14 9.89764E-14
 -1       527 1.94483E+01 1.76914E+00 1.39969E-02 3.19374E+00 6.23264E-14 2.41315E-13
 -1       528 1.99371E+01 1.36917E+00 8.33372E-03 2.25954E+00 4.24595E-14 1.61419E-13
 -1       529 2.01703E+01 9.58947E-01 6.07896E-03 1.55245E+00-2.87437E-14-1.20897E-14
 -1       530 2.02462E+01 6.38261E-01 4.35921E-03 1.04410E+00 1.23895E-14-1.14694E-13
 -1       531 2.02434E+01 4.13223E-01 2.94389E-03 6.92466E-01-1.23264E-14 4.12506E-14
 -1       532 2.02087E+01 2.63549E-01 1.89914E-03 4.55391E-01-6.29379E-15-1.16720E-13
 -1       533 2.01663E+01 1.66823E-01 1.19172E-03 2.98184E-01 3.03685E-13-1.97106E-13
 -1       534 2.01268E+01 1.05304E-01 7.51710E-04 1.95044E-01 7.90990E-14-1.32765E-13
 -1       535 2.00951E+01 6.80797E-02 4.63706E-04 1.30275E-01 1.93553E-13-1.12558E-14
 -1       536 2.00687E+01 4.31129E-02 2.94769E-04 8.52897E-02-4.37380E-14 2.35551E-15
 -1       537 2.00486E+01 2.74489E-02 1.82997E-04 5.59153E-02 6.48412E-14-1.72098E-13
 -1       538 2.00338E+01 1.75920E-02 1.14480E-04 3.66501E-02 1.52288E-13-4.77455E-13
 -1       539 2.00229E+01 1.13575E-02 7.19365E-05 2.39486E-02 2.91578E-13-2.51366E-13
 -1       540 2.00151E+01 7.38339E-03 4.55126E-05 1.55275E-02 2.53673E-13-5.37479E-14
 -1       541 2.00096E+01 4.82444E-03 2.90534E-05 9.91729E-03-4.62748E-14-3.73889E-14
 -1       542 2.00058E+01 3.15625E-03 1.88560E-05 6.16963E-03 6.02793E-14-2.21119E-13
 -1       543 2.00033E+01 2.10245E-03 1.16165E-05 3.76877E-03-2.39616E-15-5.01627E-14
 -1       544 2.00015E+01 1.35483E-03 7.73364E-06 2.07276E-03-1.80468E-13 7.44233E-14
 -1       545 2.00004E+01 8.52251E-04 4.71167E-06 9.61063E-04-1.99057E-13-1.20807E-13
 -1       546 1.99997E+01 5.13560E-04 2.79227E-06 2.49395E-04 1.09197E-14 7.70395E-14
 -1       547 1.99993E+01 2.86122E-04 1.52959E-06-1.88780E-04 3.72118E-14-3.29193E-13
 -1       548 1.99991E+01 1.35302E-04 7.05456E-07-4.40952E-04 4.23380E-13-9.04140E-14
 -1       549 1.99990E+01 3.77098E-05 1.91595E-07-5.68338E-04 1.17214E-13-2.06919E-14
 -1       550 1.99990E+01-2.28799E-05-1.36582E-07-6.14028E-04 6.06995E-13-2.91460E-13
 -1       551 1.99991E+01-5.67474E-05-3.42025E-07-6.09211E-04 3.49412E-13-6.83282E-13
 -1       552 1.99992E+01-7.54814E-05-4.17915E-07-5.73685E-04 3.14721E-13-8.46717E-13
 -1       553 1.99993E+01-8.32805E-05-4.71302E-07-5.20665E-04 2.48839E-14-8.34636E-13
 -1       554 1.99994E+01-8.50724E-05-4.87875E-07-4.59100E-04-2.09847E-13-8.95323E-13
 -1       555 1.99995E+01-8.48625E-05-4.86658E-07-3.93896E-04-4.97243E-13-1.06936E-12
 -1       556 1.99996E+01-8.61223E-05-5.30736E-07-3.27026E-04-5.83687E-13-6.01735E-13
 -1       557 1.99996E+01-9.11308E-05-6.88315E-07-2.58415E-04 1.48722E-13-2.91046E-13
 -1       558 1.99997E+01-1.01086E-04-6.63481E-07-1.59537E-04 2.75076E-14-7.07044E-14
 -1       559 1.99998E+01-2.93429E-04 5.78185E-08-2.41925E-04 2.84248E-14-5.72155E-13
 -1       560 1.99999E+01-3.56247E-04 1.94643E-07-2.02233E-04-4.00047E-13 4.68138E-13
 -1       561 1.99998E+01-2.19794E-04-1.45095E-07-2.50445E-04 3.42781E-13-5.19193E-13
 -1       562 1.99999E+01-4.02560E-04 2.94944E-07-1.38251E-04-6.45442E-13 4.21585E-13
 -1       563 1.99999E+01-4.28419E-04 3.49157E-07-5.86843E-05-6.44076E-13-2.33721E-13
 -1       564 1.99999E+01-4.31769E-04 3.56578E-07 2.70510E-05-4.31738E-13-5.42292E-13
 -1       565 1.99999E+01-4.12518E-04 3.16678E-07 1.09445E-04-7.50763E-14-2.11745E-13
 -1       566 1.99999E+01-3.73404E-04 2.38238E-07 1.78248E-04-1.56103E-13 2.67963E-13
 -1       567 1.99998E+01-3.16607E-04 1.29844E-07 2.27660E-04-2.14354E-13 3.65498E-13
 -1       568 1.99998E+01-2.47114E-04-1.06568E-08 2.48286E-04-2.37935E-13 3.50877E-13
 -1       569 1.99998E+01-1.89443E-04-2.46209E-07 2.46985E-04 3.42462E-14-1.89525E-13
 -1       570 1.47808E+01-4.03331E+00 1.13233E-01 6.05614E+00-1.13756E-13 8.06646E-14
 -1       571 1.17444E+01-3.29495E+00 1.50312E-01-8.45269E+00 2.37241E-13 5.95635E-14
 -1       572 3.16714E+01-7.39239E-01-9.90666E-02 4.30280E-01-1.92488E-13 1.98910E-13
 -1       573 1.86525E+01 1.81495E+00 3.59059E-02 4.33731E+00 2.29291E-14 2.13529E-13
 -1       574 1.77526E+01 7.07654E-01 1.20178E-01 5.57408E+00 4.56579E-15 1.22447E-13
 -1       575 1.89996E+01 2.80322E+00 1.07427E-02-1.50127E+00 1.23135E-13 8.24912E-14
 -1       576 1.61518E+01 2.38971E+00 6.08037E-02-3.95037E+00-4.74985E-14-6.63497E-14
 -1       577 2.06236E+01 2.23456E+00-6.60118E-03 4.86790E-01 1.40225E-13-1.45392E-13
 -1       578 3.85660E+00-5.72761E-02 2.03051E-01 1.91364E+00 5.72754E-14-4.98004E-13
 -1       579 6.54843E+00-2.02018E-01 2.23134E-01-3.12702E+00-1.12819E-13-4.57787E-13
 -1       580 7.04533E+00-1.37587E+00 1.74345E-01 6.59529E+00 1.79350E-13-3.67872E-13
 -1       581 3.15801E+01-7.24655E-01-1.04310E-01-2.38277E-01 1.69222E-13-3.61523E-13
 -1       582 1.37935E+01-3.44794E+00 1.25100E-01 8.67415E+00 1.39833E-13-2.29851E-13
 -1       583 2.82846E+01-3.99922E+00-1.53475E-02 4.30299E+00-9.99201E-16 4.44852E-14
 -1       584 3.17990E+01 4.47895E+00-1.67634E-01-1.90950E+00-3.72882E-13-2.68605E-14
 -1       585 3.20290E+01 8.45790E+00-1.83243E-01-9.16697E-01-4.49862E-13-1.85397E-13
 -1       586 3.30454E+01 8.41298E+00-1.86800E-01 7.34774E-01-2.74475E-13-3.02081E-13
 -1       587 3.28743E+01 4.83780E+00-1.60388E-01 1.38253E+00-1.58609E-13-3.75977E-13
 -1       588 2.77764E+01-4.38745E+00-3.42457E-02-4.61583E+00 3.57450E-13-1.25358E-13
 -1       589 1.88760E+01-4.76927E+00 6.74384E-02-8.34782E+00 3.30895E-13 2.59709E-13
 -1       590 4.88080E+00 5.07191E-01 2.36625E-01-2.37964E-01 6.86309E-14 5.41234E-16
 -1       591 5.12819E+00-1.11799E+00 1.87345E-01-5.00747E+00 1.42594E-13 1.82521E-13
 -1       592 2.08633E+01 1.99748E+00-1.34654E-02-1.56512E+00-3.06065E-14-2.24236E-13
 -1       593 8.57800E+00 1.17084E+00 1.89533E-01 3.04289E+00-4.97519E-14 6.06876E-14
 -1       594 1.99997E+01-1.41667E-04-5.80527E-07-2.22018E-04-6.16836E-14 2.03754E-13
 -1       595 2.44241E+01-4.89774E+00 5.39983E-02-5.96342E+00 3.72848E-13-1.12560E-13
 -1       596 1.88470E+01 2.24153E+00-3.47459E-04 2.75908E+00 2.31564E-13-1.70765E-13
 -1       597 2.02280E+01 1.57921E+00-1.13871E-03 2.06507E+00 1.84950E-13-1.36875E-13
 -1       598 1.62952E+01 3.82426E+00 4.02979E-03 2.09064E+00 2.42528E-13-1.31923E-13
 -1       599 1.64929E+01 3.96804E+00 8.08672E-03 6.89015E-01 2.20214E-13-5.97536E-14
 -1       600 1.74054E+01 3.54916E+00 6.34749E-03-4.58225E-01 1.70455E-13-1.32044E-14
 -1       601 1.85476E+01 1.64914E+00 2.60299E-03 1.37004E+00 7.28150E-14-4.60113E-14
 -1       602 2.09100E+01 1.15486E+00 3.89390E-04-1.76737E+00-7.18172E-14-1.40332E-13
 -1       603 1.92368E+01 1.15466E+00 1.61803E-03 1.00774E+00-3.53153E-14-4.20725E-15
 -1       604 2.08727E+01 2.10362E-01 2.62013E-04-1.49461E+00-5.60454E-14-4.07694E-14
 -1       605 2.07299E+01 1.42946E-01 2.63669E-04-1.45652E+00-3.59992E-14-3.95423E-14
 -1       606 2.05026E+01 3.26023E-01 3.97497E-04-1.38324E+00-2.47945E-14-3.97100E-14
 -1       607 2.02227E+01 6.64602E-01 5.52213E-04-1.16826E+00-1.09699E-13-5.94381E-14
 -1       608 1.99552E+01 1.02002E+00 5.79802E-04-7.52132E-01-7.40569E-14-7.59178E-14
 -1       609 1.97831E+01 1.23779E+00 4.92759E-04-1.61611E-01-8.25431E-14-5.80909E-14
 -1       610 1.97650E+01 1.21191E+00 3.59176E-04 4.88556E-01-1.01537E-13-2.60155E-14
 -1       611 1.98962E+01 9.38640E-01 4.02765E-04 1.04483E+00-6.43444E-14-1.01372E-14
 -1       612 2.01102E+01 5.13878E-01 4.82422E-04 1.39010E+00-6.03865E-14-1.68368E-14
 -1       613 2.03201E+01 7.34041E-02 3.93110E-04 1.49002E+00 2.93152E-15-5.81074E-14
 -1       614 2.04619E+01-2.73438E-01 1.38805E-04 1.38750E+00 2.41595E-15-6.75487E-14
 -1       615 2.05148E+01-4.78857E-01-1.34372E-04 1.16351E+00 1.45139E-14-4.90066E-14
 -1       616 2.04927E+01-5.50218E-01-2.27466E-04 8.96351E-01-9.93412E-14-2.05502E-14
 -1       617 2.04241E+01-5.24371E-01-2.62891E-04 6.41120E-01-7.42455E-14 7.08496E-14
 -1       618 2.03372E+01-4.44106E-01-2.40943E-04 4.26854E-01-1.04552E-13 1.06519E-13
 -1       619 2.02520E+01-3.44403E-01-1.93495E-04 2.62570E-01 1.60740E-14-7.75471E-15
 -1       620 2.01792E+01-2.47963E-01-1.41462E-04 1.45456E-01 2.89257E-14-1.80471E-13
 -1       621 2.01223E+01-1.66416E-01-9.60041E-05 6.73667E-02-6.78652E-14-3.24068E-13
 -1       622 2.00809E+01-1.03548E-01-6.06222E-05 1.88788E-02 8.15199E-14-2.68572E-13
 -1       623 2.00521E+01-5.85424E-02-3.51731E-05-8.62498E-03-1.63239E-14-1.82511E-13
 -1       624 2.00331E+01-2.84330E-02-1.80612E-05-2.21307E-02-8.82910E-14-1.26108E-13
 -1       625 2.00208E+01-9.66940E-03-7.31148E-06-2.68727E-02-1.52748E-13-7.90890E-15
 -1       626 2.00131E+01 1.04527E-03-1.08411E-06-2.65407E-02 3.55443E-14 5.94461E-14
 -1       627 2.00083E+01 6.40259E-03 2.12722E-06-2.35976E-02 2.11291E-13 2.18605E-13
 -1       628 2.00054E+01 8.42097E-03 3.45538E-06-1.95971E-02 1.19191E-13 2.60559E-13
 -1       629 2.00035E+01 8.51710E-03 3.69579E-06-1.54552E-02 9.96097E-14 2.23244E-13
 -1       630 2.00024E+01 7.62828E-03 3.37320E-06-1.16614E-02 2.14074E-13 1.93214E-13
 -1       631 2.00016E+01 6.33835E-03 2.81083E-06-8.43437E-03 8.63244E-14 1.90670E-13
 -1       632 2.00011E+01 4.98575E-03 2.19576E-06-5.83059E-03 2.02612E-14 1.07955E-14
 -1       633 2.00007E+01 3.74753E-03 1.62591E-06-3.81691E-03-2.30388E-13 1.02164E-13
 -1       634 2.00004E+01 2.70031E-03 1.14582E-06-2.31736E-03-6.21681E-14 4.48489E-13
 -1       635 2.00002E+01 1.86221E-03 7.66750E-07-1.24135E-03-1.10196E-13 3.22731E-13
 -1       636 2.00000E+01 1.22024E-03 4.81537E-07-4.99559E-04-1.07312E-13-6.86149E-14
 -1       637 1.99999E+01 7.47155E-04 2.75411E-07-1.20783E-05 2.46721E-13-2.73600E-13
 -1       638 1.99998E+01 4.11396E-04 1.32732E-07 2.88308E-04 1.75554E-13 1.20805E-13
 -1       639 1.99998E+01 1.82418E-04 3.83731E-08 4.55599E-04-2.23836E-14 1.10940E-13
 -1       640 1.99998E+01 3.32170E-05-2.03506E-08 5.31562E-04 3.26990E-14-1.54652E-13
 -1       641 1.99997E+01-5.88490E-05-5.56222E-08 5.47356E-04-8.73716E-14-1.24061E-13
 -1       642 1.99997E+01-1.12162E-04-7.56171E-08 5.25321E-04 1.83370E-13 1.74609E-13
 -1       643 1.99997E+01-1.41341E-04-8.66410E-08 4.80760E-04 1.02491E-13-4.39687E-14
 -1       644 1.99997E+01-1.58025E-04-1.16660E-07 4.23357E-04-7.13256E-14 1.17313E-13
 -1       645 1.99997E+01-1.71148E-04-2.01793E-07 3.58597E-04-2.60965E-13 3.49686E-13
 -1       646 1.99998E+01-1.79206E-04-2.07375E-07 3.04819E-04-4.20898E-14 1.32108E-13
 -1       647 1.89993E+01-3.06419E+00 7.23780E-02 7.43040E+00 2.54470E-13-4.87371E-14
 -1       648 2.96623E+01 9.90322E-01-8.25498E-02-1.67318E+00-9.42024E-14 1.57933E-13
 -1       649 1.73845E+01 2.21600E+00 6.81449E-03 1.80865E+00 6.32447E-14-1.03429E-13
 -1       650 1.96269E+01 7.80168E-01 1.15508E-03 7.22929E-01 3.57923E-14-5.85770E-14
 -1       651 1.98381E+01 5.15929E-01 7.81675E-04 5.08765E-01 2.29251E-14-3.20265E-13
 -1       652 1.99467E+01 3.36859E-01 4.99658E-04 3.53256E-01 2.71747E-13-4.68087E-13
 -1       653 1.99986E+01 2.18497E-01 3.22585E-04 2.43358E-01 3.60818E-14-3.82590E-13
 -1       654 2.00197E+01 1.44435E-01 2.05218E-04 1.69779E-01-1.64688E-13-2.42578E-13
 -1       655 2.00266E+01 9.33952E-02 1.27426E-04 1.15862E-01-6.87842E-14 6.34826E-14
 -1       656 2.00260E+01 6.06032E-02 8.03859E-05 7.89438E-02 1.44476E-13 3.26620E-14
 -1       657 2.00223E+01 3.95166E-02 5.04272E-05 5.36717E-02 1.15120E-13 7.29001E-14
 -1       658 2.00179E+01 2.59248E-02 3.17262E-05 3.63597E-02 3.08394E-13-1.17309E-13
 -1       659 2.00136E+01 1.71162E-02 2.00348E-05 2.44761E-02 1.13570E-13-1.99649E-13
 -1       660 2.00099E+01 1.13615E-02 1.27258E-05 1.63013E-02-3.65084E-14-1.82410E-13
 -1       661 2.00070E+01 7.56396E-03 8.46671E-06 1.06745E-02-1.09580E-13-6.83935E-14
 -1       662 2.00049E+01 5.13617E-03 4.90970E-06 6.96073E-03-1.27828E-13 3.62100E-13
 -1       663 2.00031E+01 3.39425E-03 3.46706E-06 4.25569E-03-4.31858E-14 2.83034E-13
 -1       664 2.00019E+01 2.21149E-03 2.09819E-06 2.42068E-03-5.70353E-14 1.70510E-13
 -1       665 2.00010E+01 1.40388E-03 1.25631E-06 1.19466E-03 1.15764E-13-1.29517E-13
 -1       666 2.00005E+01 8.52595E-04 7.02888E-07 3.95186E-04 1.35557E-13-3.68934E-13
 -1       667 2.00001E+01 4.78914E-04 3.42619E-07-1.06676E-04 5.51001E-14-1.88572E-13
 -1       668 1.99998E+01 2.29492E-04 1.24098E-07-4.02898E-04 1.16371E-13-1.75172E-13
 -1       669 1.99997E+01 6.73395E-05-1.59483E-08-5.59326E-04 4.43268E-13-3.71081E-13
 -1       670 1.99996E+01-2.98686E-05-1.36127E-07-6.21515E-04 4.28733E-13 1.36743E-13
 -1       671 1.99996E+01-9.07224E-05-1.47330E-07-6.28259E-04 4.09485E-13 1.88543E-13
 -1       672 1.99996E+01-1.23017E-04-1.78307E-07-5.97701E-04 2.14862E-13 3.83276E-13
 -1       673 1.99996E+01-1.37575E-04-1.86220E-07-5.45743E-04 1.42712E-14 6.16882E-14
 -1       674 1.99996E+01-1.42747E-04-2.18292E-07-4.82534E-04-2.23430E-13 6.84775E-14
 -1       675 1.99997E+01-1.45488E-04-1.93887E-07-4.13327E-04-7.10820E-13 2.99168E-13
 -1       676 1.99997E+01-1.49890E-04 7.42669E-08-3.41472E-04-4.66365E-13 1.09030E-13
 -1       677 1.99997E+01-1.68227E-04-5.57101E-08-3.07726E-04-8.43446E-14 3.28906E-14
 -1       678 1.99999E+01-3.03112E-04 4.20788E-08-2.77657E-04-2.10387E-13-4.52914E-14
 -1       679 1.99998E+01-2.40666E-04 6.99024E-08-3.12656E-04-1.84687E-13-8.04180E-13
 -1       680 2.00000E+01-3.51015E-04 1.01885E-07-2.10444E-04-3.73605E-13 7.11904E-14
 -1       681 2.00000E+01-3.92975E-04 1.34574E-07-1.82119E-05-2.81613E-14-7.55055E-15
 -1       682 2.00000E+01-3.85092E-04 1.22936E-07 8.53047E-05 2.01345E-13-1.85210E-14
 -1       683 2.00000E+01-3.59283E-04 7.62516E-08 1.77954E-04 2.91134E-13 2.54509E-14
 -1       684 1.99999E+01-3.16614E-04 9.35075E-08 2.52982E-04 1.53046E-13 3.05817E-13
 -1       685 1.99998E+01-2.59917E-04 6.80002E-08 3.00935E-04-1.14081E-13 4.08449E-13
 -1       686 1.71155E+01-3.28627E+00 1.00139E-01-7.78372E+00 3.59390E-13 1.13569E-13
 -1       687 1.27938E+01 2.40298E+00 9.00436E-02 3.03789E+00 5.40765E-14-3.34281E-14
 -1       688 1.43053E+01 3.44013E+00 5.01659E-02-1.63892E+00 6.87879E-14-1.53537E-13
 -1       689 1.09006E+01-8.28883E-01 1.79953E-01-5.14784E+00-2.17951E-13-3.15845E-13
 -1       690 1.13085E+01 2.30703E+00 1.43110E-01-3.05037E+00-3.90035E-14-2.73601E-13
 -1       691 2.88826E+01-2.82171E+00-4.44116E-02 1.36295E+00 1.32597E-14 2.59875E-13
 -1       692 2.60818E+01-4.17266E+00 1.83928E-02 4.53518E+00 1.43056E-13 6.41171E-14
 -1       693 1.55162E+01 2.66465E+00 2.66223E-02 2.33720E+00 7.28061E-14-1.82024E-13
 -1       694 2.00000E+01-3.81524E-04 1.25098E-07-1.20425E-04-4.71302E-13 9.34900E-14
 -1       695 1.73279E+01 3.10506E+00 3.87523E-03 2.83107E+00 2.52553E-13-1.16907E-13
 -1       696 7.73998E+00 1.34443E+00 1.79182E-01 4.09350E+00 1.74600E-13-3.36210E-13
 -1       697 2.95001E+01 5.99323E+00-1.53326E-01 1.76659E+00-1.93179E-13-2.90868E-13
 -1       698 2.16070E+01 1.13996E+00-2.30491E-03-6.66787E-01 4.87329E-14-1.39216E-13
 -1       699 1.31901E+01-9.74305E-01 1.41978E-01 7.39056E+00 2.73476E-13-2.08743E-13
 -1       700 1.09984E+01-3.25449E-01 1.43353E-01-6.21326E+00 2.65040E-13-2.09832E-14
 -1       701 2.85669E+01-3.13016E+00-4.34953E-02-1.48013E+00 2.55516E-13-2.53447E-13
 -1       702 2.85052E+01 5.94652E+00-1.45675E-01-1.84309E+00-3.23207E-13-4.14026E-14
 -1       703 2.88614E+01 7.70789E+00-1.59039E-01 2.03047E-01-2.34479E-13-2.09257E-13
 -1       704 8.34487E+00 2.44821E+00 1.53091E-01-7.34876E-01 3.71543E-14-3.83665E-13
 -1       705 2.92372E+01 1.67356E+00-1.14781E-01 1.88548E+00 1.07025E-13-3.38739E-13
 -1       706 2.09488E+01 5.30614E-01-1.08571E-03-1.58827E+00-5.36891E-14-1.04878E-13
 -1       707 8.53487E+00 1.56902E+00 1.74488E-01-2.98823E+00 7.40658E-14 1.87420E-14
 -1       708 2.11487E+01 1.22811E+00-1.48398E-03 1.09956E+00 1.28373E-13-1.05826E-13
 -1       709 1.63604E+01-1.42663E+00 1.71665E-01 6.01312E+00-9.11771E-15 5.73916E-14
 -1       710 2.14231E+01 1.14566E+00-1.84447E-03-1.28324E+00 1.31077E-15-1.71363E-13
 -1       711 2.80801E+01-1.08717E+00-4.42112E-02 9.69852E-01 1.60755E-13-2.90061E-13
 -1       712 2.76026E+01 3.06356E+00-6.79338E-02-2.28710E+00-9.92002E-14 1.23995E-13
 -1       713 9.52049E+00 2.42421E+00 1.41007E-01-5.27119E-03 2.15217E-14-9.32587E-14
 -1       714 2.64998E+01-4.11493E+00 1.45995E-02-3.05974E+00 2.61778E-13-1.63807E-13
 -1       715 1.61386E+01 3.51244E+00 2.44757E-02-1.05261E+00 1.33288E-13-8.88915E-14
 -1       716 2.15718E+01 1.12515E+00-1.06561E-03 1.42576E-01 8.94868E-14-1.10112E-13
 -1       717 1.47327E+01 3.70023E+00 1.74799E-02 1.70324E+00 2.23642E-13-1.22391E-13
 -1       718 1.18636E+01 1.26732E+00 9.09328E-02-4.08183E+00 8.64968E-14-2.25864E-13
 -1       719 1.81683E+01 1.54612E+00 1.95818E-04 4.51903E-01 2.69073E-14 3.97062E-14
 -1       720 1.99999E+01-2.61375E-04-2.64833E-07-3.52065E-04-6.61524E-13-5.80258E-13
 -1       721 2.16472E+01 1.28371E-01-3.03007E-04-1.51488E+00-6.60972E-15-7.89177E-14
 -1       722 2.16256E+01 2.29164E-01 2.06588E-04-1.57811E+00-1.75366E-14-2.32520E-14
 -1       723 2.14481E+01 6.47327E-01 4.49639E-04-1.52800E+00-7.56694E-14-3.33680E-14
 -1       724 2.11653E+01 1.22698E+00 5.14767E-04-1.23225E+00-1.13498E-13-2.42234E-14
 -1       725 2.08949E+01 1.72250E+00 5.55689E-04-6.42175E-01-9.83519E-14-4.53886E-14
 -1       726 2.07642E+01 1.89465E+00 1.13423E-04 1.43239E-01-7.39255E-14-1.16284E-13
 -1       727 2.08292E+01 1.63693E+00-4.22838E-04 9.08308E-01-2.50222E-14-1.74771E-14
 -1       728 2.10282E+01 1.04743E+00 2.37825E-04 1.43700E+00-5.34202E-14 5.08592E-14
 -1       729 2.12320E+01 3.48370E-01 7.74494E-04 1.63280E+00-5.20271E-14 7.64332E-14
 -1       730 2.13326E+01-2.47939E-01 5.03239E-04 1.53562E+00 2.11225E-14-1.67486E-15
 -1       731 2.12925E+01-6.27545E-01-4.77537E-05 1.26526E+00-5.77879E-15 5.31698E-14
 -1       732 2.11400E+01-7.86025E-01-6.08133E-05 9.39904E-01-1.38173E-13-9.15857E-14
 -1       733 2.09273E+01-7.77960E-01-1.21327E-04 6.38256E-01-3.04885E-14-8.82086E-14
 -1       734 2.07044E+01-6.73163E-01-1.21822E-04 3.96876E-01-8.54408E-14-1.44719E-13
 -1       735 2.05045E+01-5.30104E-01-9.47221E-05 2.22118E-01-6.73170E-14-9.11800E-14
 -1       736 2.03426E+01-3.86940E-01-6.18164E-05 1.05229E-01-9.32224E-14-1.61251E-13
 -1       737 2.02213E+01-2.63572E-01-3.66259E-05 3.26738E-02 2.18527E-14-1.81530E-13
 -1       738 2.01359E+01-1.67090E-01-2.02481E-05-8.64240E-03 5.95279E-14-9.57043E-14
 -1       739 2.00790E+01-9.70637E-02-1.03988E-05-2.93429E-02 4.36981E-14-1.92034E-13
 -1       740 2.00430E+01-4.94803E-02-4.72990E-06-3.72436E-02 1.08048E-14-2.37695E-13
 -1       741 2.00215E+01-1.92340E-02-1.58205E-06-3.77286E-02 3.29946E-14-6.96110E-14
 -1       742 2.00094E+01-1.46557E-03 5.29207E-08-3.43192E-02-4.39543E-14 7.29669E-14
 -1       743 2.00031E+01 7.85784E-03 7.94058E-07-2.92114E-02 1.75995E-13 6.14731E-14
 -1       744 2.00002E+01 1.18057E-02 1.02999E-06-2.37022E-02 1.32864E-13 5.65087E-14
 -1       745 1.99992E+01 1.25665E-02 1.00492E-06-1.85016E-02 1.07834E-13 1.70886E-13
 -1       746 1.99991E+01 1.16143E-02 8.66012E-07-1.39509E-02 9.17598E-14 3.30758E-13
 -1       747 1.99993E+01 9.88818E-03 6.92733E-07-1.01687E-02 1.76743E-14 3.48324E-14
 -1       748 1.99996E+01 7.94928E-03 5.18845E-07-7.14675E-03-2.01365E-14-1.52234E-13
 -1       749 1.99999E+01 6.10538E-03 3.62985E-07-4.81142E-03-6.25982E-14-2.86580E-13
 -1       750 2.00001E+01 4.50264E-03 2.36999E-07-3.06110E-03 1.72804E-13-8.71214E-14
 -1       751 2.00002E+01 3.19012E-03 1.45994E-07-1.78878E-03-1.85812E-13 9.01410E-14
 -1       752 2.00003E+01 2.16295E-03 8.51077E-08-8.93975E-04-2.70910E-13 2.69471E-13
 -1       753 2.00003E+01 1.38944E-03 4.30518E-08-2.88458E-04-1.73041E-13 3.18759E-13
 -1       754 2.00002E+01 8.27406E-04 1.49542E-08 1.01593E-04 2.76081E-13 8.71041E-14
 -1       755 2.00002E+01 4.33602E-04-3.32822E-09 3.35665E-04 1.00515E-13-8.04496E-14
 -1       756 2.00001E+01 1.68443E-04-1.52635E-08 4.60224E-04-1.51340E-13 2.21887E-14
 -1       757 2.00000E+01-2.01774E-06-2.09863E-08 5.10510E-04 1.83168E-13 1.87247E-13
 -1       758 2.00000E+01-1.05765E-04-2.88575E-08 5.12445E-04 2.77026E-13 3.41956E-13
 -1       759 1.99999E+01-1.65339E-04-1.34902E-08 4.84246E-04 6.83510E-14 1.93650E-13
 -1       760 1.99999E+01-1.98380E-04-2.62906E-08 4.38518E-04 3.10626E-14 3.07652E-13
 -1       761 1.99999E+01-2.19032E-04 5.82619E-08 3.82690E-04 2.90902E-13 5.42134E-13
 -1       762 1.69706E+01 2.07319E+00 2.43508E-03 3.93652E-01 4.82884E-14 1.91740E-13
 -1       763 2.28547E+01-2.96833E+00 3.29567E-02 5.13809E+00 2.21404E-13 3.44256E-14
 -1       764 1.96501E+01 5.17528E-01 9.53912E-05 2.83404E-01 2.65268E-13-4.16398E-13
 -1       765 1.98110E+01 3.47130E-01 8.54792E-05 2.16583E-01 1.10770E-13-2.18105E-13
 -1       766 1.98998E+01 2.35875E-01 4.62112E-05 1.63856E-01-2.34608E-13-7.64591E-14
 -1       767 1.99527E+01 1.56540E-01 2.33577E-05 1.20112E-01-2.54998E-13-1.11685E-13
 -1       768 1.99811E+01 1.03963E-01 2.00089E-05 8.69681E-02-7.39786E-14 2.41440E-15
 -1       769 1.99956E+01 6.92316E-02 1.33275E-05 6.23490E-02 1.11348E-13 2.58058E-13
 -1       770 2.00023E+01 4.63066E-02 8.74908E-06 4.42929E-02 2.77374E-13 3.23889E-13
 -1       771 2.00049E+01 3.11320E-02 5.71971E-06 3.11573E-02 1.63227E-13 5.08284E-13
 -1       772 2.00054E+01 2.10298E-02 3.61818E-06 2.16564E-02 1.30795E-13 3.53930E-13
 -1       773 2.00049E+01 1.42521E-02 2.71467E-06 1.48252E-02-6.55275E-14 1.50967E-13
 -1       774 2.00041E+01 9.85136E-03 1.41164E-06 1.01380E-02-2.06697E-13 4.22873E-14
 -1       775 2.00033E+01 6.64967E-03 1.14042E-06 6.59985E-03-2.47396E-13-2.85276E-14
 -1       776 2.00025E+01 4.44689E-03 6.95735E-07 4.11437E-03 9.12178E-15 8.59586E-14
 -1       777 2.00018E+01 2.92173E-03 4.23008E-07 2.39117E-03 1.03128E-13 2.65759E-14
 -1       778 2.00013E+01 1.86455E-03 2.42977E-07 1.21953E-03 1.39633E-13 2.38875E-13
 -1       779 2.00009E+01 1.13484E-03 1.23702E-07 4.44269E-04 3.91096E-14 1.35269E-13
 -1       780 2.00005E+01 6.36521E-04 5.71432E-08-4.90590E-05 1.69498E-14 8.32691E-14
 -1       781 2.00003E+01 3.02512E-04 2.09636E-08-3.44594E-04 4.31842E-13-2.19539E-13
 -1       782 2.00002E+01 9.36165E-05-5.49042E-08-4.98954E-04-7.70969E-14-1.62298E-13
 -1       783 2.00000E+01-4.57017E-05-3.08773E-08-5.71600E-04 2.40050E-13 2.82189E-13
 -1       784 1.99999E+01-1.27544E-04-5.17748E-08-5.83843E-04 8.26789E-14 5.48125E-13
 -1       785 1.99999E+01-1.71464E-04-5.35687E-08-5.58679E-04 3.18244E-13 5.04509E-13
 -1       786 1.99998E+01-1.92258E-04-1.02667E-07-5.11869E-04 1.47611E-13 6.57546E-14
 -1       787 1.99998E+01-2.01675E-04-1.45318E-07-4.53617E-04-6.24062E-13-4.60405E-13
 -1       788 1.99998E+01-2.08363E-04-3.59235E-08-3.64706E-04-5.18340E-13-7.06135E-13
 -1       789 2.00000E+01-3.11679E-04 3.62002E-08-2.87619E-04-4.91280E-13 2.94979E-13
 -1       790 2.00001E+01-3.47308E-04 3.25518E-08 1.55815E-04 5.52529E-14-2.49200E-14
 -1       791 2.00001E+01-3.63690E-04 5.88010E-08 4.02338E-05-9.36761E-14 7.23282E-14
 -1       792 1.99999E+01-2.68349E-04-3.68511E-09 3.27932E-04 1.29492E-13 3.39141E-13
 -1       793 2.74747E+01-1.15134E+00-2.52031E-02-7.43230E-01 7.08981E-15 1.40859E-13
 -1       794 2.68491E+01 5.95586E+00-9.63940E-02 1.18847E+00-1.55941E-13-2.27814E-13
 -1       795 1.24692E+01 1.75475E+00 8.68771E-02 4.87861E+00 2.63131E-13-2.08798E-13
 -1       796 1.89170E+01 1.10207E+00 9.36296E-05 4.23013E-01-1.05811E-14-1.52328E-13
 -1       797 2.62740E+01 6.10011E+00-9.16291E-02-6.92872E-01-2.63092E-13-1.35109E-13
 -1       798 2.00000E+01-3.15348E-04-5.54417E-08 2.54306E-04-1.59566E-14-1.24491E-13
 -1       799 1.93753E+01 7.62568E-01 1.08976E-04 3.56938E-01 2.11109E-13-2.61464E-13
 -1       800 1.58936E+01-1.12796E+00 6.42901E-02-6.17984E+00 2.96586E-13 1.26210E-13
 -1       801 2.63117E+01-2.98872E+00-1.13880E-03 2.15254E+00 1.14982E-13 1.69544E-13
 -1       802 1.70210E+01-7.32631E-01 4.91200E-02 6.38712E+00 2.97921E-13-1.12377E-13
 -1       803 1.51173E+01 2.56239E+00 1.14789E-02 1.65899E-01-4.18361E-15 1.52374E-13
 -1       804 2.03725E+01 6.07452E-01 2.18483E-03 3.07847E+00 2.01632E-13-1.08301E-13
 -1       805 2.71571E+01 3.60365E+00-7.89420E-02 2.11378E+00-2.17673E-14-3.18734E-13
 -1       806 1.11028E+01 3.33095E+00 1.15504E-01 1.74653E+00 1.65942E-13-2.58855E-13
 -1       807 2.16146E+01-3.67226E+00 3.23999E-02-5.84941E+00 3.54477E-13-1.40079E-14
 -1       808 1.49712E+01 3.82708E+00 1.32548E-02 3.21255E-01 1.86341E-13-1.17534E-13
 -1       809 1.21994E+01 2.77913E+00 6.33699E-02-2.28157E-01-2.59021E-14 5.81670E-14
 -1       810 2.57498E+01 4.39688E+00-4.65034E-02-1.75888E+00-1.10426E-13-1.48618E-14
 -1       811 2.20287E+01 4.36176E-01-2.93774E-03-1.04254E+00 3.03413E-14-1.03967E-13
 -1       812 2.68441E+01 1.04693E+00-3.53223E-02 2.01717E+00 7.34551E-14-2.63811E-13
 -1       813 2.00001E+01-3.46417E-04 6.22927E-08-1.92561E-04-6.09724E-14-1.97159E-15
 -1       814 2.71216E+01-2.55776E+00-2.40361E-02-3.34023E-01 2.20542E-13-3.17732E-13
 -1       815 1.59131E+01 2.81637E+00 1.51047E-02 3.40187E+00 2.47720E-13-1.39945E-13
 -1       816 2.64633E+01 5.38259E-01-2.00141E-02-1.87250E+00-1.17432E-14 6.55066E-14
 -1       817 2.17547E+01 1.63972E-01 4.72753E-03 1.87580E+00 1.20125E-13-4.52266E-14
 -1       818 1.82082E+01 1.57838E+00 1.08198E-02 3.77585E+00 2.59882E-13-1.27429E-13
 -1       819 2.00001E+01-3.63656E-04 4.72653E-08-7.94676E-05-1.68069E-13 1.15941E-13
 -1       820 1.15694E+01 2.23067E+00 7.87226E-02-2.13277E+00-8.78325E-14 7.29972E-15
 -1       821 2.15780E+01 3.44822E-01 1.35678E-03-1.46602E+00-2.14120E-14-1.21958E-13
 -1       822 2.23455E+01 3.05722E-01 3.06790E-05-3.65052E-01 5.25115E-14-1.02176E-13
 -1       823 1.98632E+01 2.17107E-01 1.05887E-05 8.38254E-02-1.36533E-14 2.01964E-13
 -1       824 2.00000E+01-2.76441E-04-1.14136E-07-3.67545E-04-1.94080E-13 1.26660E-13
 -1       825 2.37621E+01-2.04056E+00 9.22598E-03 2.90132E+00 1.49947E-13 5.59975E-14
 -1       826 2.26290E+01 3.74076E-01 5.24412E-05-1.68290E+00-2.55752E-14-7.48805E-14
 -1       827 2.24531E+01 1.15036E+00-6.35335E-04-1.66288E+00-8.19409E-14-4.75792E-14
 -1       828 2.21272E+01 2.04658E+00 3.58181E-04-1.23278E+00-1.59300E-13-5.69874E-14
 -1       829 2.18573E+01 2.62886E+00 3.40008E-04-3.93893E-01-1.02564E-13-3.90684E-14
 -1       830 2.18178E+01 2.56759E+00-1.91038E-03 6.12242E-01-6.96654E-15-3.88287E-14
 -1       831 2.20084E+01 1.85832E+00-2.10023E-03 1.40653E+00-1.36934E-14-1.16096E-13
 -1       832 2.22496E+01 8.31257E-01 8.23297E-04 1.75024E+00-1.81550E-14-6.02977E-14
 -1       833 2.23497E+01-1.30049E-01 5.63605E-04 1.65629E+00-1.17814E-14-3.79930E-14
 -1       834 2.22196E+01-7.62494E-01-8.78753E-04 1.30364E+00-1.52054E-14-1.58264E-13
 -1       835 2.19195E+01-1.05023E+00-5.27157E-05 8.84358E-01-1.06562E-13-1.46793E-13
 -1       836 2.15312E+01-1.06969E+00-9.24720E-05 5.18217E-01-9.24020E-14 4.66533E-14
 -1       837 2.11409E+01-9.33997E-01-1.13399E-04 2.51645E-01-4.86563E-14-5.02831E-14
 -1       838 2.08012E+01-7.37187E-01-9.42051E-05 8.15722E-02-8.70527E-14 3.64904E-14
 -1       839 2.05328E+01-5.38339E-01-5.26666E-05-1.44444E-02-3.05449E-14 6.29590E-14
 -1       840 2.03356E+01-3.66950E-01-2.31592E-05-6.07186E-02-3.29545E-14 1.87307E-13
 -1       841 2.01992E+01-2.33157E-01-8.45131E-06-7.69206E-02 1.68170E-13 1.85473E-14
 -1       842 2.01099E+01-1.36131E-01-2.37507E-06-7.67414E-02 8.60048E-14 2.33939E-14
 -1       843 2.00546E+01-7.01228E-02-3.48711E-07-6.87700E-02-4.06874E-14 7.25849E-14
 -1       844 2.00224E+01-2.79903E-02 2.84216E-07-5.79585E-02 6.77976E-14-8.60764E-14
 -1       845 2.00051E+01-3.03109E-03 4.50687E-07-4.69195E-02-2.45608E-14-9.02678E-14
 -1       846 1.99969E+01 1.02734E-02 4.33583E-07-3.68817E-02 1.33787E-13 1.61894E-15
 -1       847 1.99939E+01 1.61109E-02 3.41760E-07-2.83082E-02 1.16421E-13 5.11845E-14
 -1       848 1.99936E+01 1.74702E-02 2.26158E-07-2.12677E-02 1.71013E-13 5.47752E-14
 -1       849 1.99946E+01 1.63746E-02 1.29598E-07-1.56441E-02 2.76574E-13-5.36129E-14
 -1       850 1.99959E+01 1.41246E-02 6.88403E-08-1.12495E-02-1.04768E-13 2.00658E-14
 -1       851 1.99973E+01 1.15086E-02 3.68920E-08-7.88021E-03-1.72896E-13-1.41606E-15
 -1       852 1.99984E+01 8.96896E-03-6.71341E-09-5.34420E-03-2.12736E-13-3.14614E-13
 -1       853 1.99992E+01 6.72526E-03-4.41655E-08-3.47113E-03 1.65194E-13-2.39728E-13
 -1       854 1.99998E+01 4.85979E-03-6.02874E-08-2.11616E-03 2.00336E-13-2.47994E-13
 -1       855 2.00002E+01 3.37741E-03-4.78023E-08-1.15982E-03 1.19943E-13 1.49157E-13
 -1       856 2.00004E+01 2.24304E-03-3.54413E-08-5.04598E-04-2.17298E-13 3.78042E-13
 -1       857 2.00005E+01 1.40401E-03-2.64122E-08-7.25692E-05-3.91720E-13 2.82520E-13
 -1       858 2.00005E+01 8.03866E-04-2.06096E-08 1.97351E-04 4.23623E-14-8.43115E-14
 -1       859 2.00004E+01 3.89644E-04-1.82151E-08 3.52285E-04 3.72710E-14-1.10279E-13
 -1       860 2.00003E+01 1.15078E-04-2.03485E-08 4.27911E-04-2.76588E-14 6.34606E-14
 -1       861 2.00002E+01-5.83877E-05-1.10301E-08 4.50659E-04 2.68923E-13-1.00851E-13
 -1       862 2.00002E+01-1.61921E-04-4.20140E-08 4.39702E-04 2.10435E-13-2.23322E-13
 -1       863 2.00001E+01-2.21632E-04-1.57930E-07 4.08386E-04 4.23988E-13 1.25367E-13
 -1       864 2.00000E+01-2.49585E-04-7.19183E-08 3.72182E-04 1.24653E-14 3.79196E-13
 -1       865 1.97714E+01 3.10209E-01-3.82919E-05 9.32817E-02-9.45410E-14 3.57221E-13
 -1       866 1.74887E+01 1.55918E+00 4.54891E-04-5.75184E-01 1.22356E-13-1.14890E-13
 -1       867 1.96164E+01 4.48230E-01-1.99369E-05 9.14550E-02 4.95919E-14 2.09235E-13
 -1       868 1.99224E+01 1.48489E-01-4.15160E-06 6.98846E-02-2.66545E-13-3.50384E-15
 -1       869 1.99576E+01 1.01584E-01-1.68766E-06 5.56406E-02-1.10590E-13 1.09435E-13
 -1       870 1.99780E+01 6.96311E-02-6.40129E-07 4.29246E-02 1.10695E-13 2.78384E-13
 -1       871 1.99896E+01 4.78793E-02-1.98127E-07 3.23005E-02 4.04431E-14 4.14742E-13
 -1       872 1.99960E+01 3.30301E-02-2.48924E-07 2.37784E-02 2.68479E-13 4.93804E-13
 -1       873 1.99993E+01 2.28419E-02 1.96840E-07 1.71401E-02 1.37910E-13 6.16653E-13
 -1       874 2.00009E+01 1.60895E-02 1.22589E-07 1.22864E-02 5.23688E-14 4.08165E-13
 -1       875 2.00016E+01 1.10861E-02 8.54829E-08 8.42597E-03-5.54320E-14 9.70488E-14
 -1       876 2.00018E+01 7.58405E-03 9.56866E-08 5.58767E-03 6.47421E-15-2.43292E-13
 -1       877 2.00017E+01 5.11893E-03 6.51370E-08 3.53599E-03 4.20172E-14-8.99453E-14
 -1       878 2.00015E+01 3.38149E-03 4.67549E-08 2.08375E-03 9.91063E-14-3.11587E-15
 -1       879 2.00013E+01 2.16111E-03 2.31051E-08 1.08092E-03 1.84908E-14 9.01474E-14
 -1       880 2.00010E+01 1.31116E-03 1.39920E-08 4.09414E-04 1.34212E-13 9.79566E-14
 -1       881 2.00008E+01 7.27810E-04 2.40540E-08-2.16718E-05 4.25018E-13 6.61492E-16
 -1       882 2.00006E+01 3.51840E-04-3.11419E-08-2.72744E-04 3.84565E-13-2.06209E-14
 -1       883 2.00005E+01 9.07593E-05 2.09003E-09-4.20319E-04-8.17213E-15-3.22779E-13
 -1       884 2.00003E+01-7.19009E-05-1.42346E-08-4.86124E-04 1.06438E-13-1.49532E-13
 -1       885 2.00002E+01-1.67205E-04-1.92989E-08-4.98763E-04 2.63861E-13-1.16353E-13
 -1       886 2.00001E+01-2.18643E-04-2.66206E-08-4.78261E-04 3.54969E-13-6.94414E-15
 -1       887 2.00000E+01-2.44212E-04 2.16838E-07-4.38678E-04 4.28872E-14 7.42393E-15
 -1       888 2.00002E+01-3.30816E-04 6.43884E-08 1.14183E-04-7.76815E-14 1.72772E-13
 -1       889 1.93686E+01 6.39214E-01-3.82365E-05 6.20940E-02 2.05291E-13 5.34910E-15
 -1       890 2.47207E+01 5.03643E+00-4.58830E-02 4.56996E-01-1.18567E-13-1.09247E-13
 -1       891 2.56725E+01-1.75313E+00-7.25098E-03 3.26956E-01 4.99776E-14 7.09069E-14
 -1       892 1.61511E+01 1.90078E+00 8.78085E-03-1.21102E+00-4.81196E-15-1.97327E-13
 -1       893 1.89800E+01 8.92813E-01-1.04656E-04-2.24306E-02 1.30772E-13-1.74856E-13
 -1       894 2.39623E+01-3.46415E+00 1.26301E-02-3.42475E+00 3.06564E-13-6.37298E-14
 -1       895 1.83833E+01 1.20842E+00-1.33384E-04-2.09277E-01 1.01123E-13-8.52209E-14
 -1       896 2.02959E+01-7.84752E-01 2.32966E-02 4.73224E+00 2.52584E-13-6.11611E-14
 -1       897 1.58520E+01 1.41150E+00 2.91748E-02 4.85768E+00 2.78719E-13-1.38974E-13
 -1       898 1.96380E+01-1.94985E+00 2.65921E-02-5.00956E+00 2.54088E-13-3.00560E-14
 -1       899 1.53252E+01 6.04218E-01 3.30448E-02-4.17664E+00 4.08840E-14-4.72495E-14
 -1       900 2.25516E+01 6.40200E-03-7.05533E-04-1.48404E+00-2.42895E-16-7.90390E-14
 -1       901 2.49887E+01 3.92406E+00-4.07279E-02 1.61357E+00-7.45124E-14-9.14815E-14
 -1       902 2.23366E+01 1.40286E-01 2.84506E-03 6.35046E-01 6.10094E-14-7.76007E-14
 -1       903 1.43841E+01 2.19872E+00 3.60225E-02-1.63703E+00-2.02835E-14-1.57582E-13
 -1       904 2.00001E+01-3.13841E-04 7.74582E-08-2.71778E-04-2.35145E-13 4.53916E-13
 -1       905 2.42039E+01 4.47064E+00-3.53194E-02-7.06617E-01-1.33586E-13 6.44077E-14
 -1       906 2.61683E+01-8.92015E-01-8.80183E-03 1.27475E+00 1.10054E-13-9.48282E-14
 -1       907 2.50162E+01 2.13783E+00-2.40033E-02 2.03663E+00-3.53523E-14-3.14280E-14
 -1       908 2.51873E+01-2.94762E+00-6.41201E-03-1.26598E+00 1.98596E-13-1.28849E-13
 -1       909 2.00001E+01-3.08652E-04 1.07552E-07 2.36263E-04 1.43086E-13-4.04895E-15
 -1       910 2.00002E+01-3.40183E-04 2.09392E-08-1.84317E-05-7.82152E-14 3.80197E-13
 -1       911 2.51850E+01 2.08393E+00-2.29176E-02-2.07925E+00-5.45312E-14 2.50585E-14
 -1       912 1.45272E+01 1.52850E+00 1.83805E-02-2.99060E+00-9.92002E-15-3.19906E-13
 -1       913 2.25800E+01-9.15272E-01-1.67141E-02 2.42983E+00 1.29574E-13 1.00701E-15
 -1       914 1.34708E+01 3.04388E+00 3.04998E-02 3.06819E+00 2.45918E-13-1.52600E-13
 -1       915 2.24410E+01 3.40117E-02 6.18054E-05-1.22957E+00 2.10641E-14-8.30999E-14
 -1       916 2.31116E+01-2.84136E-01 1.99511E-04-6.59924E-01 3.32560E-14-1.09598E-13
 -1       917 2.55206E+01-7.64559E-01 1.95381E-03-1.04441E+00 3.07094E-14 3.78799E-14
 -1       918 1.98657E+01 1.80560E-01 4.22595E-06 2.27856E-02 6.60217E-14 3.98370E-13
 -1       919 2.36064E+01 1.93548E+00-1.10470E-03-1.81392E+00-1.11229E-13 2.34938E-14
 -1       920 2.29887E+01 3.67054E+00-1.04835E-02 8.19008E-02-4.25014E-14 6.94349E-14
 -1       921 2.31047E+01 3.02017E+00-1.07703E-02 1.26552E+00-9.73754E-14 2.72740E-14
 -1       922 2.34077E+01 1.60260E+00-3.65322E-03 1.87239E+00-9.97282E-15-1.92468E-15
 -1       923 2.35631E+01 1.59830E-01-3.40896E-03 1.83405E+00 1.51525E-14-2.18020E-14
 -1       924 2.33498E+01-8.65433E-01 2.64890E-03 1.31982E+00-8.71009E-14-2.56353E-14
 -1       925 2.28426E+01-1.36631E+00 5.31361E-04 7.15412E-01-1.83799E-15 1.14146E-14
 -1       926 2.22165E+01-1.41257E+00 1.26808E-04 2.49205E-01 4.65436E-14 7.00125E-14
 -1       927 2.16117E+01-1.22546E+00-2.73404E-05-4.27729E-02-9.52429E-14 1.34006E-13
 -1       928 2.11025E+01-9.53428E-01-4.72433E-05-1.88237E-01-1.11786E-14 5.47317E-14
 -1       929 2.07132E+01-6.85229E-01-3.53708E-06-2.35863E-01 9.37004E-14 2.29724E-13
 -1       930 2.04353E+01-4.59181E-01 2.33368E-05-2.28779E-01 5.36243E-14 3.61310E-13
 -1       931 2.02484E+01-2.86590E-01 2.19693E-05-1.96816E-01 6.15774E-15 2.83716E-13
 -1       932 2.01292E+01-1.63767E-01 1.64663E-05-1.57980E-01 7.40199E-14 2.63022E-13
 -1       933 2.00575E+01-8.15825E-02 9.67130E-06-1.21293E-01 5.55547E-15 5.20682E-14
 -1       934 2.00171E+01-2.98968E-02 5.00236E-06-9.03995E-02 1.05136E-13 1.05748E-13
 -1       935 1.99965E+01 2.72173E-04 2.39129E-06-6.60149E-02 3.29601E-14 1.75983E-13
 -1       936 1.99877E+01 1.60482E-02 9.92344E-07-4.75180E-02 7.03005E-14 1.09660E-13
 -1       937 1.99854E+01 2.27027E-02 2.84490E-07-3.38359E-02 1.62002E-13 1.51013E-14
 -1       938 1.99865E+01 2.39341E-02-9.75159E-08-2.38728E-02 7.63238E-14-2.69350E-14
 -1       939 1.99890E+01 2.22188E-02-2.59426E-07-1.66860E-02 9.08670E-14-8.50647E-14
 -1       940 1.99918E+01 1.91361E-02-3.15368E-07-1.15316E-02 1.76069E-13-9.66151E-14
 -1       941 1.99943E+01 1.56420E-02-2.69191E-07-7.84941E-03-7.55149E-14-9.78831E-14
 -1       942 1.99964E+01 1.22716E-02-1.75532E-07-5.22962E-03-1.48492E-13 9.73419E-14
 -1       943 1.99980E+01 9.29193E-03-1.97154E-07-3.37678E-03-5.61604E-14 3.18707E-13
 -1       944 1.99991E+01 6.80404E-03-1.60418E-07-2.07645E-03 1.76855E-13 1.81662E-13
 -1       945 1.99999E+01 4.81128E-03-9.44935E-08-1.17627E-03 1.43414E-13 6.48936E-14
 -1       946 2.00003E+01 3.27143E-03-5.19346E-08-5.65215E-04 2.78654E-13 1.47444E-13
 -1       947 2.00006E+01 2.11850E-03-3.00222E-08-1.61564E-04-4.41700E-13 1.96959E-13
 -1       948 2.00007E+01 1.28129E-03-1.98521E-08 9.41813E-05-4.20597E-13 1.32963E-13
 -1       949 2.00007E+01 6.92642E-04-1.55163E-08 2.45837E-04 7.49803E-14 2.45025E-13
 -1       950 2.00006E+01 2.93382E-04-2.24295E-08 3.25692E-04 1.85430E-15 7.57413E-15
 -1       951 2.00005E+01 3.36346E-05-2.05250E-08 3.57235E-04 1.87800E-13 1.68362E-13
 -1       952 2.00004E+01-1.26782E-04 2.90390E-08 3.57352E-04 1.85658E-13 2.35501E-13
 -1       953 2.00003E+01-2.21328E-04 3.48230E-07 3.39100E-04 3.66002E-13 2.55632E-13
 -1       954 1.96687E+01 3.45769E-01-9.19116E-06-3.88207E-02-8.07735E-14 3.27923E-13
 -1       955 2.43808E+01-1.32619E+00-3.65147E-03 4.97552E-01 6.96708E-14 2.26870E-14
 -1       956 1.99502E+01 9.07044E-02-4.73322E-06 2.87614E-02 2.69307E-15 1.74939E-13
 -1       957 1.99706E+01 6.42307E-02-3.07870E-06 2.52298E-02 6.97172E-14 4.34052E-13
 -1       958 1.99833E+01 4.55080E-02-2.45023E-06 2.06816E-02 1.50682E-13 3.34314E-13
 -1       959 1.99910E+01 3.22547E-02-1.44163E-06 1.61750E-02 1.66310E-13 2.70708E-13
 -1       960 1.99955E+01 2.32212E-02-6.35528E-07 1.23521E-02 2.70999E-13 4.04615E-13
 -1       961 1.99983E+01 1.63596E-02-7.70944E-07 8.98454E-03 1.81304E-13 2.32498E-13
 -1       962 1.99999E+01 1.14451E-02-3.93802E-07 6.31075E-03 1.32244E-13 1.54461E-14
 -1       963 2.00007E+01 7.91386E-03-1.69648E-07 4.25745E-03-2.35424E-13 1.19610E-13
 -1       964 2.00011E+01 5.37507E-03-4.50428E-08 2.72845E-03 1.53662E-13 4.09073E-14
 -1       965 2.00012E+01 3.55780E-03-1.31135E-08 1.62407E-03 7.49660E-14-1.59616E-13
 -1       966 2.00012E+01 2.26777E-03-5.32335E-09 8.50129E-04 2.07181E-13-3.56410E-13
 -1       967 2.00011E+01 1.36369E-03 2.46442E-08 3.27089E-04-1.67668E-14-1.88746E-13
 -1       968 2.00010E+01 7.66709E-04-1.53323E-08 1.76813E-06 5.08059E-13 1.82540E-13
 -1       969 2.00008E+01 3.39680E-04 1.05071E-08-2.09702E-04 3.99841E-13 1.65903E-13
 -1       970 2.00006E+01 6.28183E-05-5.22092E-09-3.26029E-04 9.10131E-14-5.82913E-14
 -1       971 2.00005E+01-1.08719E-04-1.17504E-08-3.78056E-04 1.13725E-13-8.95945E-14
 -1       972 2.00003E+01-2.08533E-04-6.07413E-08-3.88116E-04 1.34076E-13 4.16191E-13
 -1       973 2.00002E+01-2.62225E-04 3.93157E-08-3.71726E-04 2.61010E-13 5.89066E-13
 -1       974 1.94861E+01 4.72284E-01 1.47255E-05-1.24752E-01-1.72918E-14 2.93846E-13
 -1       975 1.92172E+01 6.28439E-01 7.34989E-05-2.83329E-01-2.08198E-14 1.46480E-13
 -1       976 1.99174E+01 1.28082E-01-5.48480E-06 2.92175E-02-2.20298E-13 5.48496E-15
 -1       977 1.97874E+01 2.51079E-01-7.77126E-06 3.65931E-03-7.69244E-14 4.06358E-13
 -1       978 1.80931E+01-3.90042E-01 4.37125E-03-3.85363E+00 1.28780E-13 5.65450E-14
 -1       979 2.51020E+01-1.94438E+00-2.74580E-03 3.91431E-01 5.77206E-14 9.11920E-14
 -1       980 2.36666E+01-1.53919E-01-4.68164E-03-1.46532E+00-2.66727E-14-1.06034E-13
 -1       981 2.18404E+01-2.26423E+00-1.08906E-03-3.20499E+00 6.00795E-14 1.19210E-14
 -1       982 1.75749E+01 1.04262E+00 2.39326E-04-1.76329E+00 8.89241E-15-1.38224E-13
 -1       983 2.00002E+01-2.89359E-04-1.33666E-07-3.22335E-04 2.08113E-13 5.27592E-13
 -1       984 2.00002E+01-3.34972E-04 6.85945E-08-1.50889E-04-3.56391E-13-1.17185E-13
 -1       985 2.34514E+01-3.29884E-01-2.91486E-03-1.04434E+00 5.86814E-15-9.23552E-14
 -1       986 2.37733E+01 6.33285E-01-4.45236E-03-1.83430E+00 9.44649E-15-4.90956E-14
 -1       987 1.88320E+01 8.03473E-01 1.83825E-04-5.60927E-01 5.80388E-14-1.21334E-14
 -1       988 2.31815E+01 3.22635E+00-7.30782E-03-1.14210E+00-1.19997E-13 1.15576E-13
 -1       989 2.03459E+01-1.21471E+00 1.23262E-03-2.98969E+00 9.70663E-14 6.10156E-14
 -1       990 2.32692E+01-2.52146E+00-2.80401E-03-1.84938E+00-3.04949E-14-1.92975E-14
 -1       991 2.00003E+01-3.00084E-04-1.44118E-07 5.74610E-05 3.25675E-14 4.42707E-13
 -1       992 2.00003E+01-2.65114E-04-1.55175E-07 2.04722E-04 1.22657E-13 2.84406E-14
 -1       993 2.47942E+01 7.09776E-01-1.74439E-02 1.90219E+00 5.13052E-14 3.04524E-14
 -1       994 1.83021E+01 9.63312E-01 1.26046E-03-1.02518E+00 6.39358E-14-1.10869E-13
 -1       995 1.70276E+01 4.95011E-01 2.19331E-02-3.34955E+00 3.40695E-14-7.85847E-14
 -1       996 2.29441E+01-1.82981E+00 8.01629E-05-2.22362E-01 3.15632E-14 8.38426E-14
 -1       997 2.20596E+01-1.55233E+00-5.03831E-04-5.33224E-01-5.76762E-14 2.26794E-14
 -1       998 2.13471E+01-1.16295E+00 3.61680E-04-6.20951E-01-4.50382E-14 5.60215E-15
 -1       999 2.08299E+01-8.05299E-01 4.90656E-04-5.79540E-01 1.20709E-13 1.53291E-13
 -1      1000 2.04765E+01-5.16988E-01 3.12019E-04-4.82849E-01 1.35103E-13 9.44772E-14
 -1      1001 2.02509E+01-3.07023E-01 2.04343E-04-3.73493E-01 7.22299E-14 1.56940E-13
 -1      1002 2.01143E+01-1.63893E-01 1.20307E-04-2.75071E-01 2.98783E-14 1.74664E-13
 -1      1003 2.00368E+01-7.20630E-02 6.68946E-05-1.95283E-01-1.40958E-13 7.94039E-16
 -1      1004 1.99964E+01-1.67722E-02 3.37714E-05-1.34898E-01 8.10219E-15-2.50694E-14
 -1      1005 1.99782E+01 1.38409E-02 1.52377E-05-9.12548E-02 1.69474E-13-1.54668E-13
 -1      1006 1.99726E+01 2.85668E-02 5.52019E-06-6.07475E-02 2.71246E-14 1.10552E-13
 -1      1007 1.99735E+01 3.35835E-02 6.40574E-07-3.99482E-02-2.04273E-14-2.02093E-14
 -1      1008 1.99774E+01 3.30558E-02-1.67510E-06-2.60244E-02 8.13983E-14-4.55075E-14
 -1      1009 1.99822E+01 2.96796E-02-2.60024E-06-1.68248E-02-1.54006E-14 1.09584E-13
 -1      1010 1.99869E+01 2.51246E-02-2.86852E-06-1.07944E-02 1.36169E-13 2.45735E-13
 -1      1011 1.99909E+01 2.03725E-02-2.52079E-06-6.86238E-03-4.87981E-14 1.14301E-13
 -1      1012 1.99940E+01 1.59530E-02-2.18495E-06-4.30043E-03 3.15357E-14 2.07219E-13
 -1      1013 1.99965E+01 1.21083E-02-1.33924E-06-2.63117E-03-2.08564E-14 2.25276E-13
 -1      1014 1.99982E+01 8.93102E-03-3.41896E-07-1.54804E-03 3.05731E-14 2.57630E-13
 -1      1015 1.99994E+01 6.38371E-03-1.74377E-07-8.41896E-04 9.53137E-14 1.88801E-13
 -1      1016 2.00001E+01 4.41095E-03-1.02350E-07-3.88387E-04 3.39724E-13 3.56734E-13
 -1      1017 2.00006E+01 2.92459E-03-5.98663E-08-1.00413E-04-8.71793E-14 2.46850E-13
 -1      1018 2.00008E+01 1.83463E-03-3.64467E-08 7.64963E-05-3.68438E-13 4.01568E-13
 -1      1019 2.00008E+01 1.05808E-03-2.13377E-08 1.78931E-04-1.37335E-13 1.74674E-13
 -1      1020 2.00008E+01 5.22303E-04-1.46486E-08 2.31774E-04 3.21736E-15-2.10715E-16
 -1      1021 2.00007E+01 1.66397E-04-4.40337E-08 2.52140E-04 1.53072E-13 1.98796E-13
 -1      1022 2.00006E+01-5.89748E-05-1.48494E-07 2.52171E-04 3.22119E-13 1.64741E-13
 -1      1023 2.00004E+01-1.86317E-04 2.34007E-08 2.32411E-04 3.44489E-13 2.48361E-13
 -1      1024 1.99816E+01 4.07687E-02-7.46793E-06 1.09656E-02 1.15249E-13 2.78924E-15
 -1      1025 1.99701E+01 5.57314E-02-1.02831E-05 1.12966E-02 4.65499E-14 1.10971E-13
 -1      1026 1.99527E+01 7.58961E-02-1.26152E-05 8.94629E-03-1.36579E-13 9.45370E-14
 -1      1027 1.99888E+01 3.01500E-02-4.76278E-06 9.52439E-03 1.74088E-13-9.62730E-14
 -1      1028 1.99938E+01 2.17990E-02-4.06765E-06 7.63342E-03 2.17359E-13 1.28558E-13
 -1      1029 1.99969E+01 1.56257E-02-2.77740E-06 5.78820E-03 1.94174E-13 1.53664E-13
 -1      1030 1.99989E+01 1.10621E-02-1.67268E-06 4.18207E-03-7.34253E-14 1.28703E-13
 -1      1031 2.00001E+01 7.70999E-03-1.05203E-07 2.87595E-03 1.70266E-14 9.56866E-14
 -1      1032 2.00007E+01 5.24936E-03 1.32133E-07 1.87240E-03 3.79953E-13 1.08503E-13
 -1      1033 2.00010E+01 3.46912E-03 1.43504E-08 1.12796E-03 1.92798E-13-1.22805E-13
 -1      1034 2.00011E+01 2.19521E-03 5.00795E-08 5.98448E-04-8.62319E-14 4.69560E-14
 -1      1035 2.00011E+01 1.33553E-03 1.85255E-08 2.50962E-04 6.22786E-14 2.21281E-14
 -1      1036 2.00010E+01 7.05506E-04 2.04930E-08 9.63972E-06 4.27966E-13 1.92122E-13
 -1      1037 2.00009E+01 2.84504E-04 1.86528E-08-1.37550E-04 2.78075E-13 4.25419E-13
 -1      1038 2.00007E+01 1.35304E-05 1.32324E-08-2.18783E-04 1.74271E-13 4.02425E-13
 -1      1039 2.00005E+01-1.54338E-04-2.46460E-07-2.55042E-04 5.44470E-14 3.68159E-14
 -1      1040 2.00004E+01-2.46581E-04 2.28167E-07-2.62535E-04 1.70721E-13-1.41964E-13
 -1      1041 1.96409E+01 3.08243E-01 2.96879E-05-2.12852E-01-1.30306E-13 3.12890E-14
 -1      1042 1.94876E+01 3.80618E-01 6.77865E-05-3.86865E-01-9.00792E-14 6.58224E-14
 -1      1043 2.00003E+01-3.05836E-04-2.04477E-07-8.69266E-05 1.10328E-13 1.91519E-13
 -1      1044 1.85567E+01 4.97223E-02 3.55994E-03-2.72612E+00 2.54133E-14 3.21162E-14
 -1      1045 1.87574E+01 3.65831E-01 1.57336E-03-1.78364E+00-1.06681E-13-2.30865E-14
 -1      1046 1.92916E+01 4.39452E-01 3.63116E-04-6.66229E-01 1.59359E-15 1.58188E-13
 -1      1047 1.98317E+01 1.84379E-01-2.42235E-05-4.95054E-02 6.39768E-14 1.29720E-13
 -1      1048 2.00005E+01-2.31779E-04 2.69209E-08 7.82412E-05 6.81776E-14 3.98965E-13
 -1      1049 2.38892E+01-1.76827E+00-4.64377E-03 3.59613E-01 1.37240E-14 3.86911E-14
 -1      1050 1.98883E+01 1.38137E-01-1.87901E-05-1.57109E-02 1.40032E-13 1.28421E-13
 -1      1051 2.00005E+01-2.48351E-04 2.58837E-08-7.44354E-05 2.29604E-13 1.40645E-13
 -1      1052 2.18279E+01-1.83393E+00 1.68356E-02-2.26639E+00 2.18178E-14 1.12227E-13
 -1      1053 1.97514E+01 2.41634E-01-1.68303E-06-1.10186E-01-1.90919E-13 1.58188E-14
 -1      1054 1.90589E+01 4.48725E-01 4.01280E-04-1.09903E+00 2.53461E-14 1.60716E-13
 -1      1055 1.99268E+01 1.02707E-01-1.47691E-05 1.36872E-03-1.12248E-13-1.43774E-13
 -1      1056 2.39093E+01-2.37198E+00-2.56495E-03-7.73152E-01 4.82576E-14 4.77322E-14
 -1      1057 2.00003E+01-3.03614E-04 1.10079E-07-2.13422E-04 1.16307E-13-2.11403E-13
 -1      1058 2.26600E+01-2.02056E+00-7.94094E-04-1.22936E+00-2.58963E-14 1.46028E-14
 -1      1059 2.14810E+01-1.36602E+00-1.78344E-03-1.25434E+00-7.08547E-14 2.16854E-13
 -1      1060 2.08261E+01-8.81066E-01-3.72977E-04-1.06827E+00 6.42125E-14 2.82874E-13
 -1      1061 2.04120E+01-5.18577E-01 1.63431E-04-8.28329E-01 7.78501E-14 2.24513E-13
 -1      1062 2.01715E+01-2.74694E-01 9.85096E-05-6.06399E-01 2.93967E-14 1.48965E-13
 -1      1063 2.00403E+01-1.20159E-01 2.01105E-04-4.25067E-01-1.68497E-14-1.70433E-14
 -1      1064 1.99763E+01-2.94804E-02 1.94549E-04-2.87473E-01-1.72201E-13-1.15415E-13
 -1      1065 1.99500E+01 1.98328E-02 1.26636E-04-1.88638E-01-1.14768E-13-1.02751E-13
 -1      1066 1.99440E+01 4.33249E-02 7.74802E-05-1.20496E-01 4.55759E-14-1.22667E-13
 -1      1067 1.99480E+01 5.14508E-02 4.48574E-05-7.50707E-02 1.57446E-13-3.35349E-13
 -1      1068 1.99562E+01 5.09754E-02 2.51250E-05-4.56543E-02 1.39083E-13-2.74752E-13
 -1      1069 1.99654E+01 4.61242E-02 1.37775E-05-2.70943E-02-2.34557E-14-2.05908E-13
 -1      1070 1.99739E+01 3.94515E-02 6.75814E-06-1.56654E-02 2.03367E-13-1.64977E-13
 -1      1071 1.99812E+01 3.24146E-02 2.32150E-06-8.80005E-03 2.23120E-13 1.30935E-13
 -1      1072 1.99871E+01 2.58118E-02 1.38078E-06-4.76873E-03-5.30692E-14 1.62607E-13
 -1      1073 1.99916E+01 2.00135E-02 7.50022E-07-2.45507E-03-3.19863E-14-1.96009E-14
 -1      1074 1.99949E+01 1.51393E-02 9.16972E-07-1.16998E-03-2.07952E-13-1.29105E-13
 -1      1075 1.99972E+01 1.11765E-02 5.69431E-06-4.51194E-04-2.65651E-14-1.11659E-13
 -1      1076 1.99989E+01 7.98399E-03 1.55764E-06-7.64776E-05 2.83168E-14 6.37084E-14
 -1      1077 1.99999E+01 5.57289E-03 1.12039E-07 8.80379E-05 1.88423E-13 3.42105E-14
 -1      1078 2.00005E+01 3.75395E-03 2.33287E-07 1.61633E-04 1.64553E-14 1.43411E-13
 -1      1079 2.00008E+01 2.41417E-03 2.30227E-07 1.85016E-04-1.46693E-13 4.75396E-14
 -1      1080 2.00009E+01 1.45172E-03 1.93902E-07 1.83879E-04-3.12585E-13 1.93547E-13
 -1      1081 2.00009E+01 7.79812E-04 1.67537E-07 1.71712E-04 8.31027E-15 1.89849E-13
 -1      1082 2.00008E+01 3.25862E-04 1.59143E-07 1.55158E-04 9.02641E-14 1.65226E-13
 -1      1083 2.00007E+01 3.26654E-05 6.98244E-07 1.38428E-04 3.61805E-13 1.12237E-13
 -1      1084 1.99732E+01 4.64309E-02-2.82526E-06 1.25466E-03 2.59962E-13-2.56266E-13
 -1      1085 1.99822E+01 3.55727E-02 1.06688E-06 3.42058E-03 1.49567E-13-3.46307E-13
 -1      1086 1.99599E+01 6.07287E-02-9.87705E-06-4.25950E-03 8.37230E-14-1.59832E-13
 -1      1087 1.99935E+01 1.96005E-02 9.62445E-07 3.66663E-03 1.50801E-13-2.20906E-13
 -1      1088 1.99965E+01 1.42457E-02 3.04619E-07 3.01699E-03-9.87927E-14 8.69025E-14
 -1      1089 1.99986E+01 1.01641E-02 7.14003E-06 2.31307E-03 1.46750E-13-9.86045E-14
 -1      1090 1.99998E+01 7.07918E-03-6.00279E-07 1.64914E-03 2.10696E-13 7.53639E-14
 -1      1091 2.00005E+01 4.82068E-03 3.79282E-08 1.09972E-03 4.36424E-13-1.28548E-14
 -1      1092 2.00009E+01 3.16476E-03 4.15118E-08 6.83385E-04-5.84349E-14-1.50190E-13
 -1      1093 2.00011E+01 2.02504E-03 6.36379E-08 3.92798E-04 1.92996E-14-2.26353E-13
 -1      1094 2.00011E+01 1.17118E-03 1.80579E-08 1.78240E-04-1.55995E-13-1.43623E-13
 -1      1095 2.00010E+01 5.86211E-04 2.96623E-08 3.67036E-05 3.18535E-13 2.80886E-13
 -1      1096 2.00009E+01 1.97977E-04 3.06179E-08-5.12563E-05 2.79653E-13 2.82106E-13
 -1      1097 2.00007E+01-5.01778E-05 2.44426E-07-1.02674E-04 2.93324E-13 6.62047E-14
 -1      1098 1.99889E+01 2.65717E-02 5.12500E-07 3.97532E-03 3.95211E-14-3.07597E-13
 -1      1099 1.98164E+01-5.17529E-01-6.61341E-04-2.20498E+00-2.46323E-14 1.03539E-13
 -1      1100 1.96445E+01-1.13131E-01-2.26739E-04-1.50002E+00-3.63697E-14 6.63582E-14
 -1      1101 1.97228E+01 1.81087E-01-3.23927E-04-3.90591E-01-6.34355E-14-4.23811E-15
 -1      1102 2.00006E+01-1.41592E-04-3.95651E-07 1.94211E-05 3.49123E-13 4.92745E-13
 -1      1103 1.98817E+01 1.23916E-01-7.35425E-05-7.36609E-02-1.12273E-13-1.25332E-13
 -1      1104 1.99413E+01 7.83270E-02-2.15432E-05-1.55149E-02-2.84023E-13-6.72846E-14
 -1      1105 1.98378E+01 1.49346E-01-1.27298E-04-1.35347E-01-1.16786E-13-2.59738E-13
 -1      1106 1.96046E+01 8.87829E-02-6.06189E-04-1.00170E+00-4.00825E-14-2.37474E-14
 -1      1107 1.97838E+01 1.71541E-01-2.09985E-04-2.34960E-01-1.25058E-13-4.34967E-14
 -1      1108 1.96646E+01 1.60432E-01-2.71074E-04-6.29234E-01-5.71254E-14 2.37627E-14
 -1      1109 1.99986E+01 8.83411E-03-1.26677E-05 7.77504E-04 1.04431E-13-4.19985E-14
 -1      1110 1.99159E+01 9.95565E-02-4.10488E-05-3.65846E-02 7.27292E-14 1.83972E-13
 -1      1111 1.99998E+01 6.16885E-03 6.00408E-08 6.51025E-04 1.92471E-13 3.37794E-14
 -1      1112 2.00005E+01 4.16899E-03-3.10198E-07 4.92096E-04 2.71462E-13 1.19488E-13
 -1      1113 2.00009E+01 2.70252E-03-3.07796E-07 3.49279E-04-1.20719E-13 1.37276E-13
 -1      1114 2.00010E+01 1.64839E-03-2.70091E-07 2.35150E-04-1.88071E-13 1.34655E-13
 -1      1115 2.00010E+01 9.10653E-04-1.87297E-07 1.50247E-04-8.29701E-14 1.58830E-13
 -1      1116 2.00009E+01 4.09615E-04-1.36378E-07 9.00120E-05 1.88560E-13 3.43795E-13
 -1      1117 2.00008E+01 8.18100E-05-1.17240E-07 4.89130E-05 3.23981E-13 5.25690E-13
 -1      1118 2.81477E+01 9.15361E+00 2.36416E+00-6.87789E+00-3.28071E-14 5.91610E-13
 -1      1119 2.05468E+01 6.22215E+00 1.93657E-01-4.13057E+00-1.37945E-14-8.91856E-14
 -1      1120 1.95357E+01 5.88260E+00 7.28983E-02-3.12423E+00-7.99361E-15-3.23292E-13
 -1      1121 1.92875E+01 5.80910E+00 7.61729E-02-2.40735E+00-3.45557E-15-4.05821E-13
 -1      1122 1.92395E+01 5.79868E+00 8.94119E-02-1.73157E+00-1.06339E-15-4.21409E-13
 -1      1123 1.91998E+01 5.78947E+00 9.84117E-02-1.05933E+00 2.70617E-16-4.04126E-13
 -1      1124 1.90733E+01 5.75175E+00 9.91566E-02-3.90173E-01 1.58207E-15-3.78945E-13
 -1      1125 1.88171E+01 5.67180E+00 8.88393E-02 2.48845E-01 3.99680E-15-3.57291E-13
 -1      1126 1.84402E+01 5.55174E+00 6.56274E-02 8.00397E-01 4.20497E-15-3.35051E-13
 -1      1127 1.80113E+01 5.41287E+00 3.15734E-02 1.20916E+00 4.66294E-15-3.17323E-13
 -1      1128 1.76590E+01 5.29600E+00-5.70746E-03 1.44111E+00 6.02643E-15-2.87741E-13
 -1      1129 1.75467E+01 5.25402E+00-3.33445E-02 1.51389E+00 7.05339E-15-2.32302E-13
 -1      1130 1.78238E+01 5.33618E+00-3.65754E-02 1.51651E+00 8.03524E-15-1.49464E-13
 -1      1131 1.85788E+01 5.57224E+00-4.65236E-03 1.61078E+00 9.56180E-15-1.48779E-14
 -1      1132 1.98282E+01 5.97144E+00 7.65837E-02 2.01596E+00 1.22680E-14 2.02763E-13
 -1      1133 2.17528E+01 6.61387E+00 2.93410E-01 3.10182E+00 1.08802E-14 5.87225E-13
 -1      1134 2.92010E+01 9.47170E+00 2.37111E+00 6.34643E+00 4.99600E-16 1.23429E-12
 -1      1135 2.90372E+01 3.70240E+00 1.33631E+00-4.33190E+00-1.25205E-13 1.01263E-12
 -1      1136 2.00360E+01-1.70418E-01-6.12325E-01-1.28844E-01-4.76910E-14 7.18897E-13
 -1      1137 1.83184E+01-8.56774E-02-2.26437E-01 5.65153E-02-1.59490E-14 3.13204E-13
 -1      1138 1.75970E+01-3.45537E-02-4.13378E-02 3.03232E-02 3.29901E-15 1.15262E-13
 -1      1139 1.70213E+01-1.15242E-02 4.06962E-03 1.01353E-02-5.85903E-15-2.68015E-14
 -1      1140 1.64481E+01-4.30212E-03 8.60838E-03-3.60381E-03-5.68203E-15-1.14042E-13
 -1      1141 1.58468E+01-6.03739E-03 5.97507E-04-1.24136E-02-3.68846E-16-2.08011E-13
 -1      1142 1.52582E+01-1.31447E-02-1.28819E-02-1.58701E-02-8.58905E-16-2.67978E-13
 -1      1143 1.47675E+01-2.21493E-02-2.76633E-02-1.35561E-02-5.27790E-15-3.98126E-13
 -1      1144 1.44739E+01-2.93901E-02-3.91663E-02-6.04314E-03-1.15884E-14-5.10255E-13
 -1      1145 1.44558E+01-3.18781E-02-4.34315E-02 4.70489E-03 1.17124E-14-5.85248E-13
 -1      1146 1.47422E+01-2.83833E-02-3.88592E-02 1.57542E-02 1.16053E-15-4.99191E-13
 -1      1147 1.53007E+01-1.98778E-02-2.69568E-02 2.42404E-02-7.30752E-17-6.42167E-13
 -1      1148 1.60480E+01-8.94224E-03-1.15312E-02 2.84086E-02 2.17274E-16-6.36963E-13
 -1      1149 1.68767E+01 1.49385E-03 3.12257E-03 2.80663E-02 1.48030E-15-6.36522E-13
 -1      1150 1.76846E+01 9.30157E-03 1.39037E-02 2.42974E-02 1.40686E-15-6.42254E-13
 -1      1151 1.83963E+01 1.36508E-02 1.96427E-02 1.87487E-02-2.91739E-14-6.34888E-13
 -1      1152 1.89718E+01 1.48336E-02 2.08389E-02 1.29433E-02-1.28422E-14-6.89388E-13
 -1      1153 1.94022E+01 1.37567E-02 1.88868E-02 7.90057E-03 4.11715E-15-7.77010E-13
 -1      1154 1.97007E+01 1.14456E-02 1.53218E-02 4.07823E-03-3.75925E-15-7.12696E-13
 -1      1155 1.98917E+01 8.74149E-03 1.13638E-02 1.50873E-03-3.61499E-14-6.35722E-13
 -1      1156 2.00024E+01 6.19227E-03 7.77055E-03-1.20658E-05 7.23548E-15-5.22665E-13
 -1      1157 2.00580E+01 4.07415E-03 4.88833E-03-7.68945E-04 1.99488E-15-5.02669E-13
 -1      1158 2.00784E+01 2.46765E-03 2.78166E-03-1.03178E-03-4.37534E-14-6.81874E-13
 -1      1159 2.00785E+01 1.33830E-03 1.36113E-03-1.01315E-03 4.58565E-14-5.19115E-13
 -1      1160 2.00684E+01 5.99500E-04 4.77574E-04-8.60375E-04-1.21417E-14-1.52812E-13
 -1      1161 2.00545E+01 1.52726E-04-2.17422E-05-6.64706E-04-3.32267E-14-3.45824E-13
 -1      1162 2.00404E+01-9.11278E-05-2.66383E-04-4.76026E-04 8.77463E-15-7.53234E-13
 -1      1163 2.00279E+01-2.03284E-04-3.54621E-04-3.16980E-04-5.04842E-14-1.02831E-12
 -1      1164 2.00178E+01-2.36029E-04-3.55115E-04-1.94053E-04 6.92606E-14-9.38861E-13
 -1      1165 2.00101E+01-2.25205E-04-3.12563E-04-1.05263E-04 2.78166E-16-4.77816E-13
 -1      1166 2.00046E+01-1.93872E-04-2.54074E-04-4.49870E-05-1.93218E-14-5.97035E-13
 -1      1167 2.00009E+01-1.55888E-04-1.94749E-04-6.70630E-06 3.19754E-14-9.08699E-13
 -1      1168 1.99985E+01-1.18889E-04-1.42013E-04 1.56130E-05 8.27026E-14-4.63751E-13
 -1      1169 1.99972E+01-8.65459E-05-9.86832E-05 2.69603E-05-6.85571E-15-1.65709E-13
 -1      1170 1.99966E+01-6.01518E-05-6.50266E-05 3.11727E-05-1.32100E-14-4.38529E-14
 -1      1171 1.99964E+01-3.96873E-05-4.00569E-05 3.10431E-05-3.94608E-14-1.77064E-13
 -1      1172 1.99966E+01-2.44891E-05-2.23000E-05 2.85116E-05-1.94534E-14-1.46598E-13
 -1      1173 1.99969E+01-1.36491E-05-1.02148E-05 2.48654E-05-3.47554E-14-2.93271E-13
 -1      1174 1.99973E+01-6.23552E-06-2.39965E-06 2.09165E-05-1.06702E-15-3.69970E-13
 -1      1175 1.99977E+01-1.40201E-06 2.32665E-06 1.71441E-05 3.68267E-14-2.32142E-13
 -1      1176 1.99981E+01 1.57066E-06 4.91522E-06 1.38031E-05 1.66182E-14 1.48520E-14
 -1      1177 1.99985E+01 3.27032E-06 6.11444E-06 1.10009E-05-7.58910E-15 3.59151E-13
 -1      1178 1.99988E+01 4.16930E-06 6.51787E-06 8.74624E-06 3.22358E-14 6.30557E-13
 -1      1179 1.99991E+01 4.64718E-06 6.62299E-06 6.97189E-06-1.98566E-15 4.54018E-13
 -1      1180 1.99994E+01 5.00733E-06 6.88885E-06 5.52529E-06 3.16603E-14 7.74468E-13
 -1      1181 1.99996E+01 5.47656E-06 7.71097E-06 4.11171E-06 2.46765E-14 5.55377E-13
 -1      1182 1.99997E+01 6.07456E-06 8.95655E-06 2.17202E-06 4.65314E-14 4.32018E-13
 -1      1183 1.99998E+01 7.35797E-06 7.87076E-06-1.92777E-06-6.24028E-14-6.90865E-14
 -1      1184 1.99998E+01-2.56917E-06-5.75013E-06-2.97384E-06 1.69701E-13 3.53740E-13
 -1      1185 3.03495E+01 3.60733E+00 1.18331E+00 4.09272E+00 4.26603E-14 1.68598E-12
 -1      1186 2.29790E+01-2.22966E-01-6.96352E-01 4.55882E-02 1.16920E-14 1.58791E-12
 -1      1187 2.30028E+01-1.64068E-01-3.48335E-01-1.12691E-01 1.20980E-14 1.37546E-12
 -1      1188 2.47704E+01-1.46367E-01-2.37116E-01-1.36702E-01 4.37671E-15 1.17842E-12
 -1      1189 2.80148E+01-1.38564E-01-2.19018E-01-2.13240E-01 3.96558E-15 1.12971E-12
 -1      1190 3.28911E+01-8.43624E-02-6.96436E-02-3.21354E-01-8.03437E-15 1.18944E-12
 -1      1191 3.86166E+01 7.00202E-02 3.86043E-01-3.28775E-01 4.16507E-15 1.40882E-12
 -1      1192 4.24650E+01 3.03032E-01 9.79029E-01 3.42368E-02-1.40964E-14 1.65024E-12
 -1      1193 4.08776E+01 5.56646E-01 9.93185E-01 8.35990E-01-3.15459E-14 2.14528E-12
 -1      1194 3.28413E+01 5.12662E-01-1.76836E-01 1.35319E+00 3.44724E-14 2.23244E-12
 -1      1195 2.13702E+01-1.68308E-01-2.36648E+00 1.00772E+00 7.41768E-15 1.77636E-12
 -1      1196 1.40096E+01-5.30478E-01-3.94289E+00 2.07959E-01 4.92106E-14 1.28841E-12
 -1      1197 1.76721E+01-3.13896E-01-3.20339E+00-6.46166E-01 2.40502E-14 5.21361E-13
 -1      1198 3.06370E+01 1.03183E-01-7.23247E-01-9.56042E-01 1.46549E-14 1.45883E-13
 -1      1199 4.15119E+01 3.04114E-01 9.44594E-01-5.11550E-01 2.05912E-14-9.21485E-15
 -1      1200 4.29621E+01 9.70604E-02 8.40825E-01-2.69915E-02-1.76682E-14 1.75110E-13
 -1      1201 3.81861E+01-2.93265E-02 2.17091E-01 1.49458E-01-2.98845E-14 5.18835E-13
 -1      1202 3.24748E+01-5.73307E-02-1.16130E-01 1.45780E-01-5.59448E-15 6.58695E-13
 -1      1203 2.79814E+01-5.00204E-02-1.77060E-01 9.86622E-02-3.88752E-15 5.61495E-13
 -1      1204 2.49910E+01-3.81545E-02-1.41330E-01 5.65745E-02 1.51771E-14 4.50279E-13
 -1      1205 2.30835E+01-2.44111E-02-9.11663E-02 3.43230E-02 1.66488E-14 3.27197E-13
 -1      1206 2.18654E+01-1.59667E-02-5.44067E-02 1.84180E-02-3.98726E-15 4.46854E-13
 -1      1207 2.11259E+01-1.01953E-02-3.15723E-02 9.75233E-03 7.64113E-15 3.32406E-13
 -1      1208 2.06789E+01-6.44088E-03-1.82673E-02 5.08093E-03-1.73128E-14 6.77490E-13
 -1      1209 2.04089E+01-4.04854E-03-1.06210E-02 2.59770E-03 2.65982E-15 5.40924E-13
 -1      1210 2.02454E+01-2.53599E-03-6.21658E-03 1.29315E-03 2.14481E-14 2.85893E-13
 -1      1211 2.01461E+01-1.54366E-03-3.63326E-03 6.14631E-04-3.26975E-14-2.56347E-14
 -1      1212 2.00866E+01-1.10671E-03-2.24175E-03 1.86214E-04 8.18489E-15 6.95838E-14
 -1      1213 2.00500E+01-6.53865E-04-1.34604E-03 1.03618E-04 1.50776E-14-7.03211E-14
 -1      1214 2.00268E+01-4.17484E-04-8.11016E-04 1.78542E-05-3.56008E-15 2.63961E-13
 -1      1215 2.00126E+01-2.68674E-04-4.94786E-04-2.02667E-05 7.74927E-14 1.68946E-13
 -1      1216 2.00041E+01-1.74093E-04-3.04976E-04-3.51449E-05-1.87961E-14-9.62258E-13
 -1      1217 1.99991E+01-1.13354E-04-1.89043E-04-3.88763E-05 2.01760E-14-9.79686E-13
 -1      1218 1.99963E+01-7.35883E-05-1.16881E-04-3.76029E-05 1.43250E-14-5.39094E-13
 -1      1219 1.99950E+01-4.49979E-05-7.02027E-05-3.37450E-05 3.48667E-14-3.77270E-13
 -1      1220 1.99945E+01-3.37182E-05-4.32542E-05-3.26827E-05-1.52728E-15-5.41601E-13
 -1      1221 1.99945E+01-1.96262E-05-2.41061E-05-2.66316E-05 3.12479E-14-7.81137E-13
 -1      1222 1.99948E+01-1.15660E-05-1.12883E-05-2.27020E-05 6.67148E-16-9.81872E-13
 -1      1223 1.99953E+01-6.24511E-06-3.15024E-06-1.92552E-05 5.60589E-16-1.06970E-12
 -1      1224 1.99959E+01-2.73897E-06 1.92900E-06-1.61827E-05-3.47210E-14-8.59665E-13
 -1      1225 1.99965E+01-4.90501E-07 4.90951E-06-1.34755E-05-2.47439E-14-1.17009E-12
 -1      1226 1.99971E+01 9.00297E-07 6.45283E-06-1.11302E-05 2.65332E-14-1.16974E-12
 -1      1227 1.99976E+01 1.83694E-06 7.03179E-06-9.02430E-06-3.70542E-14-8.13722E-13
 -1      1228 1.99981E+01 2.02032E-06 7.06195E-06-7.31341E-06 9.31386E-14-8.31835E-13
 -1      1229 1.99985E+01 2.15222E-06 6.52871E-06-6.15092E-06-4.25313E-14-1.39929E-12
 -1      1230 1.99988E+01 2.18024E-06 6.01495E-06-5.00749E-06 2.99398E-14-1.06599E-12
 -1      1231 1.99991E+01 2.15897E-06 5.58956E-06-4.14600E-06-1.40279E-14-1.05236E-12
 -1      1232 1.99994E+01 2.18500E-06 5.56259E-06-3.47578E-06-6.90629E-14-8.13155E-13
 -1      1233 1.99996E+01 2.34193E-06 6.23459E-06-2.87956E-06 6.06213E-14-2.64526E-13
 -1      1234 1.99997E+01 2.61859E-06 7.33627E-06-2.05727E-06-4.59941E-14-1.80134E-13
 -1      1235 1.99998E+01 1.58823E-06 5.73989E-06-5.03944E-07 1.10220E-13 2.02421E-14
 -1      1236 1.99998E+01 2.83178E-06-4.60580E-06 3.96595E-06-4.51649E-14-2.42636E-13
 -1      1237 1.99998E+01 8.79428E-06-3.84403E-06 4.21841E-06-1.73127E-13-9.46373E-14
 -1      1238 1.99998E+01-2.00206E-06 6.52495E-06 2.60766E-06-6.49793E-13 1.78749E-13
 -1      1239 1.99998E+01-8.30945E-05 6.36020E-06-2.18291E-07-7.61258E-13-7.28002E-15
 -1      1240 1.99998E+01-2.14276E-04 3.03822E-06-2.20882E-06-1.13782E-12 2.54461E-13
 -1      1241 1.99998E+01-3.65987E-04-4.49889E-07-3.30228E-06-2.24659E-12-1.74696E-13
 -1      1242 1.99998E+01-5.10682E-04-3.24369E-06-3.68697E-06-1.33743E-12 1.14932E-13
 -1      1243 1.99998E+01-6.28722E-04-5.21033E-06-3.56031E-06-1.87662E-13-7.39581E-14
 -1      1244 1.99998E+01-7.05916E-04-6.42456E-06-2.95852E-06-6.27355E-13-9.96257E-15
 -1      1245 1.99998E+01-7.31972E-04-6.85217E-06-2.02633E-06-6.44138E-13 2.41517E-14
 -1      1246 1.99998E+01-7.04121E-04-6.50647E-06-8.61455E-07-1.18196E-12 4.53799E-14
 -1      1247 1.99998E+01-6.25703E-04-5.36330E-06 4.33173E-07-1.77330E-12-1.92246E-13
 -1      1248 1.99998E+01-5.07324E-04-3.47633E-06 1.76277E-06-1.99300E-12 2.10978E-14
 -1      1249 1.99998E+01-3.63168E-04-7.24839E-07 2.88335E-06-3.70989E-13 7.60585E-14
 -1      1250 1.99998E+01-2.12418E-04 2.84265E-06 3.63263E-06-2.05057E-13-5.39875E-14
 -1      1251 1.99998E+01-8.11789E-05 6.63791E-06 4.32840E-06-6.16947E-13-1.37820E-13
 -1      1252 1.99998E+01-4.21489E-06 6.21009E-06-1.98247E-06-5.64619E-13-6.35686E-14
 -1      1253 1.99998E+01 7.86084E-06-5.80918E-06-2.49612E-06-4.60379E-13 1.01141E-14
 -1      1254-1.52777E+00-2.93307E+01-4.16245E+00-3.27088E+00 6.66772E-13 2.19089E-13
 -1      1255-3.42296E+00-2.35062E+01-4.16013E+00-7.11102E+00 1.05271E-12 4.25465E-13
 -1      1256-3.59019E+00-1.18638E+01-3.73199E+00-5.68375E+00 1.16662E-12 6.53366E-13
 -1      1257 2.91837E+00 2.84120E-01-2.49869E+00 1.91130E+00 1.06937E-12 1.02651E-12
 -1      1258 2.27078E+01 7.99255E+00 6.20368E-02 1.28661E+01 1.21281E-12 1.80878E-12
 -1      1259 5.47962E+01 8.45125E+00 3.98063E+00 1.91305E+01 7.46514E-13 1.84563E-12
 -1      1260 8.39688E+01 4.38796E+00 7.61638E+00 1.36342E+01 2.94348E-13 9.32587E-13
 -1      1261 9.40989E+01 2.82160E+00 9.00491E+00-2.40421E+00 6.81399E-14-2.17826E-13
 -1      1262 7.64129E+01 6.20960E+00 6.76694E+00-1.66277E+01 3.74034E-13-1.27010E-12
 -1      1263 4.36978E+01 9.39123E+00 2.63534E+00-1.89772E+01 1.06937E-12-1.93268E-12
 -1      1264 1.44362E+01 6.30109E+00-9.91043E-01-9.60766E+00 1.65090E-12-2.02283E-12
 -1      1265-6.71695E-01-4.46367E+00-3.11515E+00 1.58156E+00 1.86362E-12-1.45217E-12
 -1      1266-3.78078E+00-1.74592E+01-3.91948E+00 6.85026E+00 1.38400E-12-7.47402E-13
 -1      1267-2.23126E+00-2.74101E+01-4.23915E+00 5.76077E+00 4.06897E-13-1.77740E-13
 -1      1268-1.09932E+00-2.86203E+01-3.98494E+00 6.35744E-01-7.39075E-13-9.48755E-14
 -1      1269-1.33489E+00-2.17056E+01-3.43744E+00-3.37203E+00-1.61959E-12-3.71342E-13
 -1      1270-1.08961E+00-8.86201E+00-2.40282E+00-2.44714E+00-1.92468E-12-8.11684E-13
 -1      1271 3.55131E+00 4.11008E+00-1.09597E+00 4.08030E+00-1.78568E-12-1.19593E-12
 -1      1272 1.60246E+01 1.21169E+01 5.32522E-01 1.34913E+01-1.46327E-12-1.52389E-12
 -1      1273 3.63674E+01 1.24413E+01 2.16984E+00 1.99736E+01-9.61009E-13-1.55542E-12
 -1      1274 5.81233E+01 7.12964E+00 3.51452E+00 1.81047E+01-3.63154E-13-9.03722E-13
 -1      1275 7.14544E+01 2.65858E+00 4.24184E+00 7.22492E+00-5.05082E-14 8.81517E-14
 -1      1276 7.19023E+01 2.36017E+00 4.24250E+00-7.42668E+00-8.65003E-14 8.06799E-13
 -1      1277 5.71676E+01 7.68393E+00 3.45528E+00-1.86539E+01-5.54334E-13 1.54765E-12
 -1      1278 3.49164E+01 1.29825E+01 2.10279E+00-2.02776E+01-1.03673E-12 1.76370E-12
 -1      1279 1.44303E+01 1.17897E+01 3.89456E-01-1.26334E+01-1.09757E-12 1.10734E-12
 -1      1280 2.25186E+00 1.95259E+00-1.29959E+00-2.48359E+00-8.96616E-13 5.86087E-13
 -1      1281-1.30090E+00-1.27405E+01-2.69470E+00 3.23116E+00-9.30367E-14 1.11133E-13
 -1      1282-1.01068E+00-2.53352E+01-3.66912E+00 2.08394E+00 1.92291E-13-7.35523E-14
 -1      1283 2.22365E+01 1.84537E+00-7.41855E-01-2.91830E+00-4.56857E-14 4.13336E-13
 -1      1284 2.03561E+01 4.71926E+00-5.15849E-02-3.55109E+00-9.69780E-14-2.08771E-13
 -1      1285 2.08106E+01 4.83337E+00-1.29552E-01-4.39992E+00-1.34254E-13-8.24479E-14
 -1      1286 1.96893E+01 5.00591E+00-1.50913E-02-2.89291E+00-7.92977E-14-3.64833E-13
 -1      1287 1.98936E+01 5.07704E+00-9.94580E-03-3.29852E+00-9.70821E-14-3.05721E-13
 -1      1288 2.05582E+01 3.94219E+00-3.06994E-02-3.33559E+00-1.63106E-13-1.70128E-13
 -1      1289 1.95402E+01 5.07521E+00 7.38352E-03-2.22664E+00-3.94528E-14-4.22343E-13
 -1      1290 1.95880E+01 5.10149E+00 6.53898E-03-2.57037E+00-5.23956E-14-4.00305E-13
 -1      1291 1.99907E+01 4.28398E+00-2.74721E-02-2.72249E+00-1.13156E-13-3.03840E-13
 -1      1292 1.95207E+01 5.09105E+00 1.82077E-02-1.56358E+00-1.36844E-14-4.26090E-13
 -1      1293 1.95279E+01 5.10035E+00 1.49041E-02-1.89903E+00-2.13987E-14-4.29184E-13
 -1      1294 1.98521E+01 4.39344E+00-2.15464E-02-2.06386E+00-5.36040E-14-3.49304E-13
 -1      1295 1.94745E+01 5.07982E+00 2.24627E-02-9.03524E-01 1.21856E-14-4.05467E-13
 -1      1296 1.95082E+01 5.09372E+00 2.12726E-02-1.23319E+00 2.89786E-15-4.14477E-13
 -1      1297 1.98233E+01 4.42287E+00-1.73499E-02-1.40735E+00-1.14134E-14-3.48936E-13
 -1      1298 1.93135E+01 5.05074E+00 2.12063E-02-2.36238E-01 3.27811E-14-3.73219E-13
 -1      1299 1.94135E+01 5.08247E+00 2.63212E-02-5.63845E-01 2.66610E-14-3.91479E-13
 -1      1300 1.97443E+01 4.42623E+00-1.58760E-02-7.44453E-01 2.96291E-14-3.30423E-13
 -1      1301 1.89967E+01 5.01891E+00 1.42721E-02 3.91075E-01 6.34319E-14-3.48093E-13
 -1      1302 1.91779E+01 5.07341E+00 2.94137E-02 9.09812E-02 5.54071E-14-3.57870E-13
 -1      1303 1.95267E+01 4.43958E+00-1.58087E-02-8.33749E-02 6.84773E-14-2.88436E-13
 -1      1304 1.85407E+01 5.00451E+00 2.32938E-03 9.24513E-01 8.18547E-14-3.32803E-13
 -1      1305 1.87871E+01 5.07731E+00 2.87490E-02 6.78393E-01 7.56374E-14-3.46181E-13
 -1      1306 1.91342E+01 4.49456E+00-1.66286E-02 5.31028E-01 1.17893E-13-2.77119E-13
 -1      1307 1.80335E+01 5.02789E+00-1.19418E-02 1.30838E+00 9.72313E-14-3.15267E-13
 -1      1308 1.82912E+01 5.10321E+00 2.23789E-02 1.14008E+00 9.39700E-14-3.28480E-13
 -1      1309 1.85996E+01 4.61206E+00-1.75234E-02 1.04260E+00 1.44095E-13-2.67820E-13
 -1      1310 1.76356E+01 5.09998E+00-2.33167E-02 1.51154E+00 1.10613E-13-2.81651E-13
 -1      1311 1.78145E+01 5.15122E+00 9.36176E-03 1.42860E+00 1.03903E-13-3.03216E-13
 -1      1312 1.80387E+01 4.78835E+00-1.76528E-02 1.39563E+00 1.66063E-13-2.48081E-13
 -1      1313 1.75459E+01 5.20992E+00-2.57266E-02 1.55995E+00 1.22166E-13-2.26747E-13
 -1      1314 1.75447E+01 5.20729E+00-8.57166E-03 1.53828E+00 1.14083E-13-2.62443E-13
 -1      1315 1.76464E+01 4.98054E+00-1.69729E-02 1.56452E+00 1.86690E-13-2.17779E-13
 -1      1316 1.79391E+01 5.33153E+00-1.52077E-02 1.55673E+00 1.39957E-13-1.33179E-13
 -1      1317 1.76711E+01 5.24859E+00-2.75761E-02 1.53677E+00 1.30243E-13-1.88305E-13
 -1      1318 1.76461E+01 5.11511E+00-1.51190E-02 1.58824E+00 2.06656E-13-1.55246E-13
 -1      1319 1.89074E+01 5.41845E+00 8.42965E-03 1.67439E+00 1.55126E-13 8.85403E-15
 -1      1320 1.83416E+01 5.24581E+00-4.16440E-02 1.56343E+00 1.41387E-13-7.53356E-14
 -1      1321 1.82256E+01 5.09969E+00-1.40201E-02 1.58398E+00 2.26173E-13-6.12097E-14
 -1      1322 2.04200E+01 5.40112E+00 3.53621E-02 2.13945E+00 1.44121E-13 2.54848E-13
 -1      1323 1.95871E+01 5.15765E+00-4.78948E-02 1.81018E+00 1.36835E-13 1.06980E-13
 -1      1324 1.94702E+01 4.84450E+00-1.16241E-02 1.73119E+00 2.29657E-13 1.04351E-13
 -1      1325 2.24147E+01 5.05043E+00-2.85606E-02 3.34348E+00 1.14353E-13 6.05571E-13
 -1      1326 2.14376E+01 4.81164E+00-4.91336E-02 2.41781E+00 1.09537E-13 4.09207E-13
 -1      1327 2.13767E+01 4.21732E+00-4.31251E-03 2.14488E+00 2.01443E-13 3.55785E-13
 -1      1328 2.41437E+01 1.94626E+00-6.92786E-01 2.41856E+00 1.13520E-14 1.16368E-12
 -1      1329 2.18669E+01 1.30838E-01-4.10108E-01-1.41359E+00-1.17462E-13 4.78062E-13
 -1      1330 2.04030E+01 3.07171E-01-1.71601E-01-9.16945E-01-1.12077E-13 3.26530E-13
 -1      1331 1.97027E+01 1.41729E-01-7.55150E-02-5.34857E-01-9.83554E-14 2.75715E-13
 -1      1332 1.90616E+01 7.67467E-02-1.63071E-02-4.68770E-01-8.58480E-14 1.34299E-13
 -1      1333 2.07092E+01 3.57738E-01-1.04513E-01-1.51363E+00-1.99570E-13 1.29889E-13
 -1      1334 1.85555E+01 4.60195E-02 4.01678E-03-3.09906E-01-5.16202E-14 1.09121E-13
 -1      1335 1.81779E+01 2.28318E-02 1.37033E-02-3.02911E-01-4.55139E-14 4.37705E-14
 -1      1336 1.94125E+01 1.08542E-01-3.00392E-02-8.11310E-01-1.39794E-13 5.60905E-14
 -1      1337 1.78251E+01 1.14653E-02 1.54593E-02-2.54976E-01-3.16836E-14-2.64719E-15
 -1      1338 1.75197E+01 2.91531E-03 1.21159E-02-2.56337E-01-3.28630E-14-5.76162E-14
 -1      1339 1.86036E+01 2.35309E-02-2.82845E-03-5.71082E-01-8.66911E-14-3.43649E-15
 -1      1340 1.72298E+01 9.39427E-06 1.11908E-02-2.47628E-01-1.68988E-14-7.04163E-14
 -1      1341 1.69338E+01 4.10027E-05 7.41574E-03-2.50647E-01-2.33830E-14-9.87478E-14
 -1      1342 1.79785E+01-2.65163E-03 1.51773E-03-5.05576E-01-5.54643E-14-5.21206E-14
 -1      1343 1.66728E+01 1.61400E-03 6.63132E-03-2.45446E-01-2.54319E-14-1.18350E-13
 -1      1344 1.63811E+01 6.92659E-03 4.10872E-03-2.45030E-01-1.28625E-14-1.41508E-13
 -1      1345 1.74361E+01-2.37749E-03 3.76328E-04-4.89524E-01-4.78595E-14-5.78840E-14
 -1      1346 1.61491E+01 1.13031E-02 3.43072E-03-2.22835E-01-1.51272E-14-1.49774E-13
 -1      1347 1.58886E+01 1.91819E-02 1.82856E-03-2.15566E-01-3.41695E-14-2.05772E-13
 -1      1348 1.69474E+01 1.26391E-02-2.66620E-03-4.56998E-01-3.32720E-14-7.22005E-14
 -1      1349 1.57052E+01 2.46835E-02 1.05913E-03-1.66120E-01-4.09534E-14-2.23085E-13
 -1      1350 1.55177E+01 3.21531E-02 1.04503E-04-1.50858E-01-3.57500E-14-2.73486E-13
 -1      1351 1.65334E+01 3.47232E-02-6.66196E-03-3.70671E-01-8.66729E-14-1.16662E-13
 -1      1352 1.54103E+01 3.67976E-02-6.84100E-04-7.45953E-02-2.28550E-14-2.80142E-13
 -1      1353 1.53366E+01 4.10237E-02-1.04015E-03-5.29704E-02-3.19024E-14-3.26059E-13
 -1      1354 1.62421E+01 5.59548E-02-1.04837E-02-2.18325E-01-5.82121E-14-1.31586E-13
 -1      1355 1.53274E+01 4.30913E-02-1.66301E-03 3.94693E-02-2.35870E-14-3.11427E-13
 -1      1356 1.53921E+01 4.22695E-02-1.40689E-03 6.34383E-02 1.50366E-14-3.37700E-13
 -1      1357 1.61234E+01 6.87965E-02-1.27695E-02-1.33261E-02-2.55395E-14-1.04250E-13
 -1      1358 1.54884E+01 4.10683E-02-1.79130E-03 1.54901E-01 1.07687E-14-3.66716E-13
 -1      1359 1.56905E+01 3.51039E-02-9.60798E-04 1.76227E-01-3.11791E-14-3.88616E-13
 -1      1360 1.62074E+01 6.84745E-02-1.25666E-02 2.10272E-01-2.14065E-14-1.84316E-13
 -1      1361 1.58804E+01 3.12965E-02-1.24537E-03 2.49278E-01-5.72936E-14-3.93406E-13
 -1      1362 1.61926E+01 2.17526E-02 3.54895E-05 2.63864E-01-4.09547E-14-4.48953E-13
 -1      1363 1.64896E+01 5.48375E-02-9.85364E-03 4.09991E-01-5.47227E-14-2.59803E-13
 -1      1364 1.64484E+01 1.69557E-02-4.19567E-04 3.06823E-01 9.99634E-15-4.45586E-13
 -1      1365 1.68258E+01 6.26942E-03 1.12957E-03 3.12798E-01 8.31843E-15-4.41792E-13
 -1      1366 1.69299E+01 3.22239E-02-5.53431E-03 5.50208E-01-2.46435E-14-2.91875E-13
 -1      1367 1.71118E+01 2.20841E-03 2.78776E-04 3.22785E-01 6.52565E-15-4.71262E-13
 -1      1368 1.75050E+01-7.33995E-03 1.90886E-03 3.20731E-01-2.71828E-15-4.67279E-13
 -1      1369 1.74642E+01 7.29424E-03-9.41468E-04 6.13394E-01-2.09588E-14-2.88012E-13
 -1      1370 1.77872E+01-9.56201E-03 6.13382E-04 3.02853E-01-2.21112E-14-4.56156E-13
 -1      1371 1.81540E+01-1.65687E-02 2.17468E-03 2.95041E-01-1.16812E-14-4.61839E-13
 -1      1372 1.80229E+01-1.38468E-02 2.78410E-03 6.02700E-01-2.13592E-14-3.14686E-13
 -1      1373 1.84067E+01-1.67205E-02 5.69971E-04 2.58962E-01-8.32494E-15-4.72962E-13
 -1      1374 1.87191E+01-2.08201E-02 1.96823E-03 2.48216E-01-2.64420E-14-5.10132E-13
 -1      1375 1.85471E+01-2.76524E-02 5.06815E-03 5.36500E-01-2.95111E-14-3.10957E-13
 -1      1376 1.89279E+01-1.93368E-02 2.84202E-04 2.04278E-01-3.54686E-14-5.23852E-13
 -1      1377 1.91737E+01-2.09328E-02 1.47494E-03 1.93056E-01-5.44402E-14-5.34222E-13
 -1      1378 1.89975E+01-3.35428E-02 5.91135E-03 4.39288E-01-2.81706E-14-3.02849E-13
 -1      1379 1.93341E+01-1.85281E-02-7.06760E-05 1.49575E-01-2.17417E-14-5.21852E-13
 -1      1380 1.95137E+01-1.83788E-02 9.03288E-04 1.39520E-01 6.54080E-14-5.13931E-13
 -1      1381 1.93563E+01-3.30557E-02 5.67063E-03 3.33656E-01-2.27218E-14-3.26928E-13
 -1      1382 1.96288E+01-1.57244E-02-3.64763E-04 1.01701E-01 5.17717E-14-5.37573E-13
 -1      1383 1.97507E+01-1.46038E-02 4.02741E-04 9.36151E-02-2.08286E-14-5.37858E-13
 -1      1384 1.96231E+01-2.85938E-02 4.80443E-03 2.35801E-01 1.80268E-14-3.68981E-13
 -1      1385 1.98277E+01-1.21656E-02-5.38752E-04 6.37405E-02 1.00983E-15-5.00487E-13
 -1      1386 1.99038E+01-1.06792E-02 4.38235E-05 5.77812E-02-1.74478E-14-4.96451E-13
 -1      1387 1.98083E+01-2.24241E-02 3.70735E-03 1.54575E-01 4.19803E-15-3.63049E-13
 -1      1388 1.99514E+01-8.69450E-03-5.91437E-04 3.60162E-02 2.08726E-14-3.72927E-13
 -1      1389 1.99942E+01-7.22974E-03-1.66916E-04 3.19593E-02 4.69417E-14-3.41054E-13
 -1      1390 1.99279E+01-1.61836E-02 2.64300E-03 9.27697E-02 2.95994E-14-3.03521E-13
 -1      1391 2.00206E+01-5.75818E-03-5.53657E-04 1.72594E-02-4.24587E-14-3.53610E-13
 -1      1392 2.00410E+01-4.51347E-03-2.58200E-04 1.47143E-02-1.05172E-13-4.36911E-13
 -1      1393 1.99985E+01-1.07959E-02 1.74762E-03 4.92198E-02-4.19917E-14-2.75551E-13
 -1      1394 2.00532E+01-3.50809E-03-4.64561E-04 5.55225E-03-1.26321E-14-4.20145E-13
 -1      1395 2.00596E+01-2.54983E-03-2.69620E-04 4.10603E-03 5.06771E-14-4.49787E-13
 -1      1396 2.00351E+01-6.61571E-03 1.06466E-03 2.07773E-02-7.78984E-14-2.72014E-13
 -1      1397 2.00630E+01-1.91668E-03-3.57514E-04-1.06175E-03 7.97942E-14-3.93676E-13
 -1      1398 2.00615E+01-1.23444E-03-2.37023E-04-1.76927E-03 7.89402E-14-2.70917E-13
 -1      1399 2.00496E+01-3.63690E-03 5.83093E-04 3.73179E-03 9.94604E-14-1.56337E-13
 -1      1400 2.00601E+01-8.71746E-04-2.54897E-04-4.26369E-03 5.91526E-14-2.91616E-13
 -1      1401 2.00548E+01-4.19566E-04-1.86656E-04-4.51213E-03-2.43751E-14-3.03282E-13
 -1      1402 2.00510E+01-1.67270E-03 2.67183E-04-5.35746E-03 5.91776E-14-2.66559E-13
 -1      1403 2.00510E+01-2.38183E-04-1.68465E-04-5.35036E-03-4.20509E-14-3.08337E-13
 -1      1404 2.00445E+01 3.95656E-05-1.34773E-04-5.33907E-03-6.11668E-14-4.11727E-13
 -1      1405 2.00456E+01-4.79461E-04 7.52596E-05-9.28887E-03-4.42757E-14-3.52970E-13
 -1      1406 2.00399E+01 1.08691E-04-1.02105E-04-5.24358E-03-1.18749E-13-4.46961E-13
 -1      1407 2.00336E+01 2.63555E-04-8.97045E-05-5.10455E-03-1.56631E-13-6.49938E-13
 -1      1408 2.00373E+01 1.74122E-04-3.04920E-05-1.01397E-02-1.89091E-13-3.32255E-13
 -1      1409 2.00292E+01 2.69351E-04-5.49264E-05-4.55322E-03-5.60640E-14-6.28598E-13
 -1      1410 2.00238E+01 3.43180E-04-5.44835E-05-4.36761E-03 3.32457E-14-6.67597E-13
 -1      1411 2.00284E+01 4.76876E-04-8.02426E-05-9.34107E-03-1.33577E-13-4.79943E-13
 -1      1412 2.00200E+01 3.17775E-04-2.37441E-05-3.65429E-03 4.08644E-14-5.53788E-13
 -1      1413 2.00156E+01 3.41722E-04-2.90974E-05-3.46780E-03 1.51100E-13-4.26546E-13
 -1      1414 2.00204E+01 5.68591E-04-9.60861E-05-7.81174E-03 9.25505E-14-2.33353E-13
 -1      1415 2.00126E+01 3.04670E-04-4.72467E-06-2.75795E-03 1.08655E-13-3.85577E-13
 -1      1416 2.00093E+01 3.00417E-04-1.20925E-05-2.59319E-03-1.92053E-14-3.15268E-13
 -1      1417 2.00136E+01 5.45170E-04-9.31459E-05-6.09805E-03 1.42863E-13-2.79538E-13
 -1      1418 2.00070E+01 2.62598E-04 5.70842E-06-1.96842E-03 1.95087E-15-3.00926E-13
 -1      1419 2.00047E+01 2.44353E-04-1.56273E-06-1.83391E-03 3.94350E-14-3.09227E-13
 -1      1420 2.00083E+01 4.68039E-04-8.11594E-05-4.49352E-03 2.28293E-14-1.57519E-13
 -1      1421 2.00030E+01 2.11062E-04 1.04818E-05-1.32468E-03-5.71566E-14-2.91264E-13
 -1      1422 2.00014E+01 1.87577E-04 4.32231E-06-1.22107E-03 2.73531E-14-2.99215E-13
 -1      1423 2.00044E+01 3.73787E-04-6.60040E-05-3.13097E-03-4.41223E-14 1.00773E-13
 -1      1424 2.00003E+01 1.60770E-04 1.17894E-05-8.29070E-04 1.79189E-13-3.54606E-13
 -1      1425 1.99994E+01 1.37044E-04 7.08778E-06-7.53077E-04 1.79466E-13-1.21104E-13
 -1      1426 2.00017E+01 2.82303E-04-5.09529E-05-2.04819E-03 1.56042E-13 1.35826E-13
 -1      1427 1.99986E+01 1.16835E-04 1.11657E-05-4.65681E-04 9.07334E-14-9.50006E-14
 -1      1428 1.99981E+01 9.54259E-05 7.89662E-06-4.12501E-04 3.47932E-14-8.21217E-14
 -1      1429 1.99998E+01 2.02930E-04-3.76162E-05-1.23170E-03 1.43339E-13 4.16355E-14
 -1      1430 1.99977E+01 8.10448E-05 9.61790E-06-2.11492E-04-9.05270E-14-5.72348E-14
 -1      1431 1.99975E+01 6.30063E-05 7.57772E-06-1.76131E-04 5.27195E-15-9.11266E-14
 -1      1432 1.99987E+01 1.38787E-04-2.66025E-05-6.44402E-04-1.23543E-14-5.21772E-14
 -1      1433 1.99973E+01 5.33608E-05 7.76345E-06-4.26213E-05 1.49987E-14-7.83017E-14
 -1      1434 1.99973E+01 3.88790E-05 6.68761E-06-2.05593E-05-1.70798E-14-8.13408E-14
 -1      1435 1.99981E+01 8.96252E-05-1.79606E-05-2.41795E-04 3.88304E-16-7.42656E-14
 -1      1436 1.99972E+01 3.28574E-05 5.95021E-06 6.25445E-05 1.70269E-14-1.13085E-13
 -1      1437 1.99973E+01 2.16637E-05 5.57791E-06 7.50849E-05-4.70092E-14-8.98881E-14
 -1      1438 1.99979E+01 5.36001E-05-1.14586E-05 1.92499E-05 1.67091E-15 6.06446E-14
 -1      1439 1.99973E+01 1.82805E-05 4.34982E-06 1.22082E-04-7.92619E-14-4.55375E-16
 -1      1440 1.99975E+01 9.90315E-06 4.45516E-06 1.28090E-04-9.17167E-14-1.51329E-13
 -1      1441 1.99978E+01 2.83113E-05-6.75086E-06 1.76360E-04-1.26916E-13 4.65305E-14
 -1      1442 1.99976E+01 8.35155E-06 3.02561E-06 1.50303E-04-3.96229E-14-2.04701E-13
 -1      1443 1.99978E+01 2.26213E-06 3.42826E-06 1.52042E-04 1.52790E-14-1.64317E-13
 -1      1444 1.99980E+01 1.13596E-05-3.47225E-06 2.60254E-04-1.12585E-13 6.44702E-14
 -1      1445 1.99979E+01 1.91593E-06 1.97909E-06 1.58049E-04 2.70115E-14-1.32948E-13
 -1      1446 1.99981E+01-2.39318E-06 2.54369E-06 1.57168E-04 2.64583E-14-1.35385E-13
 -1      1447 1.99982E+01 6.10265E-07-1.28553E-06 2.94805E-04 6.85232E-14 6.85007E-14
 -1      1448 1.99982E+01-2.00129E-06 1.18031E-06 1.53200E-04-1.86192E-15-8.35720E-14
 -1      1449 1.99984E+01-4.98210E-06 1.81058E-06 1.50848E-04 1.32353E-13 5.35722E-14
 -1      1450 1.99984E+01-5.71486E-06 9.84809E-08 2.97789E-04 5.04759E-14 9.54446E-15
 -1      1451 1.99986E+01-4.19279E-06 5.87499E-07 1.41221E-04 1.77313E-13 8.81115E-14
 -1      1452 1.99987E+01-6.23196E-06 1.21922E-06 1.38155E-04 6.50931E-14 2.38314E-13
 -1      1453 1.99987E+01-9.04103E-06 9.17082E-07 2.81881E-04 2.05000E-13-5.48175E-14
 -1      1454 1.99988E+01-5.29443E-06 1.61367E-07 1.25651E-04 1.92903E-14 4.63862E-13
 -1      1455 1.99990E+01-6.71724E-06 7.57345E-07 1.22318E-04 9.52833E-14 3.83193E-13
 -1      1456 1.99989E+01-1.04942E-05 1.36090E-06 2.55623E-04 2.06659E-13 1.70490E-13
 -1      1457 1.99991E+01-5.82383E-06-1.20346E-07 1.08489E-04 4.45499E-14 3.72800E-13
 -1      1458 1.99992E+01-6.90239E-06 4.29520E-07 1.05082E-04-3.20347E-14 4.08689E-13
 -1      1459 1.99991E+01-1.09768E-05 1.58508E-06 2.24253E-04 9.02531E-14 3.34921E-13
 -1      1460 1.99993E+01-6.22139E-06-2.42407E-07 9.04707E-05 9.14713E-14 3.93195E-13
 -1      1461 1.99994E+01-7.17888E-06 2.79843E-07 8.69632E-05 1.49437E-13 5.32651E-13
 -1      1462 1.99993E+01-1.12496E-05 1.72281E-06 1.90333E-04 7.63841E-14 3.75099E-13
 -1      1463 1.99995E+01-6.88181E-06-1.29425E-07 7.12590E-05 2.18980E-15 4.95254E-13
 -1      1464 1.99996E+01-7.86022E-06 3.72371E-07 6.74058E-05-1.87718E-14 3.67850E-13
 -1      1465 1.99995E+01-1.20097E-05 1.89130E-06 1.54219E-04 6.25301E-14 2.15951E-13
 -1      1466 1.99997E+01-8.05901E-06 2.90850E-07 4.97284E-05-8.16145E-14 3.19602E-13
 -1      1467 1.99997E+01-8.85734E-06 5.89243E-07 4.49773E-05-7.28326E-14 2.52658E-13
 -1      1468 1.99996E+01-1.38176E-05 2.14707E-06 1.14550E-04-1.75060E-13 2.59700E-13
 -1      1469 1.99998E+01-1.09637E-05 3.25267E-07 2.49273E-05-1.10604E-13 2.89207E-13
 -1      1470 1.99998E+01-9.40211E-06-2.31027E-07 1.86514E-05-9.06847E-15 2.94847E-13
 -1      1471 1.99997E+01-1.68039E-05 2.09627E-06 6.99149E-05-7.29797E-14 2.91547E-13
 -1      1472 1.99998E+01-2.11314E-06-1.45957E-06-1.85241E-06-2.62495E-13 2.04732E-13
 -1      1473 1.99998E+01-1.39431E-05 6.31772E-07 1.80390E-05-2.55585E-13 1.76386E-13
 -1      1474 2.35984E+01 3.53109E-01-1.56885E-01 3.72162E-01 8.84570E-14 1.07253E-12
 -1      1475 2.43852E+01 2.06997E-01-3.77543E-01 8.37874E-01 7.78405E-14 1.15072E-12
 -1      1476 2.37865E+01 1.96592E-01-2.22734E-02-3.36635E-01 6.16313E-14 9.28327E-13
 -1      1477 2.34022E+01 2.44031E-01-8.38225E-02-2.21011E-01 7.33441E-14 1.03101E-12
 -1      1478 2.35658E+01 5.33929E-01-1.05779E-01 2.56127E-01 1.43219E-13 6.88644E-13
 -1      1479 2.52208E+01 1.99384E-01-7.61405E-03-9.18712E-01 4.54706E-14 8.29614E-13
 -1      1480 2.40682E+01 2.13763E-01-2.30967E-02-8.12404E-01 4.84716E-14 8.78325E-13
 -1      1481 2.34968E+01 3.66523E-01-6.63979E-02-1.04791E+00 1.00954E-13 6.04530E-13
 -1      1482 2.78709E+01 1.93396E-01-1.02875E-02-1.51368E+00-8.95117E-15 8.10796E-13
 -1      1483 2.59711E+01 2.30040E-01-3.10871E-02-1.38656E+00 6.12357E-15 8.12808E-13
 -1      1484 2.44706E+01 3.89669E-01-4.78326E-02-2.15854E+00 3.89064E-14 5.51559E-13
 -1      1485 3.15161E+01 8.14518E-02 4.40985E-02-2.01758E+00-5.92961E-14 8.89344E-13
 -1      1486 2.90190E+01 1.91284E-01-2.54812E-02-1.91899E+00-5.02786E-14 8.32390E-13
 -1      1487 2.62524E+01 3.48212E-01-3.42702E-02-3.21049E+00-4.79287E-14 5.36279E-13
 -1      1488 3.51143E+01-2.93801E-01 1.80972E-01-1.95337E+00-1.00177E-13 1.05259E-12
 -1      1489 3.28694E+01-5.23373E-02 7.02053E-02-2.05213E+00-8.78464E-14 9.57678E-13
 -1      1490 2.86632E+01-1.87575E-02 2.32148E-02-3.79184E+00-1.41831E-13 5.91575E-13
 -1      1491 3.70087E+01-9.00368E-01 2.79783E-01-7.49364E-01-1.35114E-13 1.28955E-12
 -1      1492 3.63984E+01-5.80198E-01 2.65503E-01-1.19527E+00-1.35031E-13 1.14637E-12
 -1      1493 3.13276E+01-9.57162E-01 1.13791E-01-3.07513E+00-2.20352E-13 7.46598E-13
 -1      1494 3.62066E+01-1.27710E+00 8.14879E-02 1.66098E+00-9.44939E-14 1.50174E-12
 -1      1495 3.81340E+01-1.18901E+00 3.70608E-01 9.42346E-01-1.63196E-13 1.36643E-12
 -1      1496 3.39277E+01-2.18624E+00 1.48322E-01-4.96682E-01-2.50952E-13 8.67303E-13
 -1      1497 2.54862E+01 6.98613E-01-1.69669E+00 2.85267E+00 1.64979E-13 1.27354E-12
 -1      1498 3.01104E+01 1.61233E-01-9.84840E-01 3.29950E+00 1.74527E-13 1.51312E-12
 -1      1499 2.36802E+01 9.76929E-01-2.14001E+00 5.02029E-01 2.53908E-13 8.16805E-13
 -1      1500 2.47658E+01 8.82130E-01-1.89739E+00 1.17993E+00 2.04003E-13 1.13021E-12
 -1      1501 3.25352E+01 1.62588E+00-8.95570E-01 3.92606E+00 3.49165E-13 8.26325E-13
 -1      1502 2.84024E+01 1.55200E-01-1.35934E+00-2.96554E+00 6.78346E-14 3.23741E-13
 -1      1503 2.40279E+01 1.01901E+00-2.02044E+00-2.28502E+00 1.49158E-13 6.05321E-13
 -1      1504 3.22176E+01 2.51293E+00-7.96167E-01-1.50974E+00 3.69704E-13 6.07073E-13
 -1      1505 3.62198E+01-6.24447E-01-2.03900E-02-3.16539E+00 8.74301E-14 1.03473E-13
 -1      1506 3.02539E+01 1.89508E-01-8.19836E-01-3.25259E+00 1.02529E-13 2.18603E-13
 -1      1507 3.42650E+01 1.18307E-01-6.46966E-01-6.10857E+00 1.83908E-13 2.43153E-13
 -1      1508 4.03948E+01-5.81496E-01 5.95676E-01-7.78134E-01-9.39977E-14 9.87266E-14
 -1      1509 3.75079E+01-4.81623E-01 2.84723E-01-1.41593E+00-1.38917E-14 1.18572E-13
 -1      1510 3.67015E+01-1.12870E+00 3.40241E-02-4.07785E+00 6.43513E-14 1.56902E-13
 -1      1511 3.83365E+01-7.76399E-02 3.67033E-01 1.04356E+00-1.05679E-13 3.98320E-13
 -1      1512 3.94803E+01-3.93256E-01 4.53426E-01 6.92063E-01-5.14311E-14 1.93276E-13
 -1      1513 3.68015E+01-9.10640E-01 3.00769E-01 8.88187E-02-1.26205E-13 2.40780E-13
 -1      1514 3.37439E+01 1.20587E-01 4.66513E-02 1.45856E+00-4.03792E-14 4.72039E-13
 -1      1515 3.64133E+01-1.60452E-01 1.54387E-01 1.39737E+00-4.76459E-14 4.20136E-13
 -1      1516 3.40896E+01-2.70612E-01 1.54756E-01 2.39146E+00-9.30714E-14 3.79752E-13
 -1      1517 2.93714E+01 1.31624E-01-7.71282E-02 1.21767E+00 7.63634E-14 4.68903E-13
 -1      1518 3.18640E+01-8.13368E-03-3.92884E-02 1.26923E+00-2.03657E-15 4.80505E-13
 -1      1519 3.04704E+01 6.39416E-02 1.24552E-04 2.64535E+00 2.64545E-14 3.34288E-13
 -1      1520 2.60827E+01 9.41666E-02-7.99144E-02 8.52132E-01-5.04284E-14 4.88956E-13
 -1      1521 2.79031E+01 4.64019E-02-7.97098E-02 9.22415E-01-7.01557E-14 4.86611E-13
 -1      1522 2.72228E+01 1.39743E-01-5.34924E-02 2.08238E+00-2.06796E-14 3.78864E-13
 -1      1523 2.39319E+01 6.06010E-02-5.55853E-02 5.64593E-01 4.08510E-14 3.74714E-13
 -1      1524 2.50979E+01 5.22147E-02-5.97103E-02 6.19763E-01 9.42024E-14 4.76133E-13
 -1      1525 2.48135E+01 1.15715E-01-5.30007E-02 1.44122E+00 4.63917E-14 3.96572E-13
 -1      1526 2.24466E+01 3.64303E-02-3.21578E-02 3.53514E-01-1.98548E-14 3.61832E-13
 -1      1527 2.32250E+01 4.08043E-02-3.57518E-02 3.94779E-01 1.46957E-14 3.86587E-13
 -1      1528 2.31370E+01 8.16149E-02-3.44727E-02 9.41974E-01 3.01998E-14 3.58939E-13
 -1      1529 2.15136E+01 2.12204E-02-1.73176E-02 2.17299E-01-3.73026E-14 4.54463E-13
 -1      1530 2.19929E+01 2.84874E-02-1.82306E-02 2.44077E-01-3.49512E-14 3.66308E-13
 -1      1531 2.19905E+01 5.03995E-02-2.08723E-02 5.89237E-01-2.95389E-14 4.07644E-13
 -1      1532 2.09335E+01 1.22569E-02-9.19732E-03 1.32630E-01-1.00012E-13 4.39667E-13
 -1      1533 2.12254E+01 1.89252E-02-8.72565E-03 1.49657E-01 3.61508E-14 4.08834E-13
 -1      1534 2.12536E+01 3.00023E-02-1.20623E-02 3.62844E-01-5.01908E-14 4.49539E-13
 -1      1535 2.05749E+01 7.06163E-03-4.90740E-03 8.08215E-02 7.97062E-14 4.45630E-13
 -1      1536 2.07520E+01 1.22191E-02-4.05611E-03 9.14899E-02-2.26095E-14 5.07335E-13
 -1      1537 2.07865E+01 1.75550E-02-6.97564E-03 2.22116E-01-1.08772E-13 3.58816E-13
 -1      1538 2.03535E+01 4.06917E-03-2.64352E-03 4.93196E-02 2.82994E-14 3.26935E-13
 -1      1539 2.04611E+01 7.78040E-03-1.84208E-03 5.59627E-02-3.79675E-14 2.76535E-13
 -1      1540 2.04925E+01 1.02009E-02-4.09236E-03 1.35827E-01 1.26293E-13 2.86724E-13
 -1      1541 2.02167E+01 2.35231E-03-1.43091E-03 3.01917E-02 8.02214E-14 6.00266E-14
 -1      1542 2.02821E+01 4.92127E-03-8.06437E-04 3.43198E-02 1.09511E-13 2.57203E-13
 -1      1543 2.03078E+01 5.91966E-03-2.43694E-03 8.31998E-02 1.32837E-13 1.47106E-13
 -1      1544 2.01319E+01 1.37941E-03-7.45146E-04 1.85666E-02 4.90710E-15-2.46988E-14
 -1      1545 2.01718E+01 3.07841E-03-3.37513E-04 2.11046E-02-2.81616E-15-5.24027E-15
 -1      1546 2.01918E+01 3.48769E-03-1.45185E-03 5.11174E-02 1.33999E-14-2.76412E-14
 -1      1547 2.00812E+01 8.75549E-04-4.24188E-04 1.17337E-02 9.83940E-14-1.76899E-13
 -1      1548 2.01048E+01 1.99073E-03-1.18180E-04 1.32629E-02 1.39461E-14-1.04011E-13
 -1      1549 2.01200E+01 1.87045E-03-9.67030E-04 3.17728E-02 8.06562E-14-1.36335E-13
 -1      1550 2.00475E+01 4.69050E-04-2.42401E-04 7.22907E-03-1.11115E-13-1.17058E-13
 -1      1551 2.00629E+01 1.25803E-03-3.16395E-05 8.27332E-03-1.57678E-14-2.63010E-13
 -1      1552 2.00743E+01 1.23568E-03-5.58430E-04 1.99669E-02 5.08881E-15-3.14395E-13
 -1      1553 2.00264E+01 2.70721E-04-1.32219E-04 4.45588E-03-9.83460E-14 8.31946E-14
 -1      1554 2.00359E+01 8.27670E-04 2.05949E-05 5.11850E-03-9.14314E-14-8.42440E-14
 -1      1555 2.00444E+01 7.08725E-04-3.52992E-04 1.23599E-02-8.61755E-14-2.19609E-13
 -1      1556 2.00134E+01 1.55943E-04-7.22177E-05 2.72464E-03 2.65034E-13-1.82705E-13
 -1      1557 2.00191E+01 5.37254E-04 3.25787E-05 3.15038E-03 1.87240E-13 1.55790E-13
 -1      1558 2.00254E+01 4.19701E-04-2.22281E-04 7.62673E-03 8.43903E-14-2.63046E-13
 -1      1559 2.00053E+01 8.85040E-05-3.90946E-05 1.63496E-03 1.17349E-13-9.58142E-13
 -1      1560 2.00088E+01 3.52150E-04 3.22775E-05 1.91125E-03 1.85638E-13-5.49416E-13
 -1      1561 2.00135E+01 2.49918E-04-1.41612E-04 4.65758E-03 3.96858E-13-1.58340E-13
 -1      1562 2.00005E+01 4.85500E-05-2.04927E-05 9.44613E-04-1.88073E-13-8.01445E-13
 -1      1563 2.00025E+01 2.33184E-04 2.81363E-05 1.12552E-03-8.85886E-14-9.97102E-13
 -1      1564 2.00060E+01 1.49190E-04-9.10462E-05 2.78063E-03 2.63625E-14-8.16054E-13
 -1      1565 1.99977E+01 2.49381E-05-9.63089E-06 5.06295E-04-8.93156E-14-4.41118E-13
 -1      1566 1.99988E+01 1.55557E-04 2.33050E-05 6.25271E-04-1.98549E-14-6.65939E-13
 -1      1567 2.00014E+01 8.87945E-05-5.86946E-05 1.58755E-03-1.75406E-13-5.83735E-13
 -1      1568 1.99963E+01 1.19334E-05-2.84774E-06 2.30202E-04 5.65664E-14-4.40662E-13
 -1      1569 1.99968E+01 1.02309E-04 1.81880E-05 3.06445E-04 1.71285E-14-5.10249E-13
 -1      1570 1.99987E+01 5.41106E-05-3.70243E-05 8.28688E-04 5.23315E-14-5.12325E-13
 -1      1571 1.99957E+01 5.56870E-06 8.81773E-07 6.40422E-05-2.80865E-14-7.00585E-13
 -1      1572 1.99958E+01 6.94698E-05 1.44971E-05 1.11660E-04 1.24551E-13-4.17613E-13
 -1      1573 1.99972E+01 2.47796E-05-2.50923E-05 3.55018E-04 6.39219E-14-5.69620E-13
 -1      1574 1.99955E+01-3.08221E-06 2.08394E-06-4.46119E-05 1.76312E-13-6.48971E-13
 -1      1575 1.99955E+01 4.61761E-05 1.22788E-05-1.07411E-05-6.18549E-14-6.48726E-13
 -1      1576 1.99965E+01 1.66179E-05-1.47525E-05 6.34699E-05-7.09701E-15-5.12536E-13
 -1      1577 1.99957E+01-5.99172E-06 3.29834E-06-1.05603E-04 4.60413E-14-7.43077E-13
 -1      1578 1.99955E+01 3.16958E-05 1.06743E-05-8.41885E-05 1.22315E-13-7.38510E-13
 -1      1579 1.99963E+01 6.05901E-06-8.72253E-06-1.19359E-04 1.68852E-13-4.20146E-13
 -1      1580 1.99961E+01-7.37866E-06 3.92485E-06-1.36281E-04-1.32600E-13-6.24931E-13
 -1      1581 1.99958E+01 2.04496E-05 8.90521E-06-1.23474E-04-1.34475E-14-7.03812E-13
 -1      1582 1.99964E+01 3.97352E-07-4.47792E-06-2.21121E-04 1.25059E-14-3.91737E-13
 -1      1583 1.99965E+01-7.82622E-06 4.13594E-06-1.47287E-04 2.41217E-14-6.33573E-13
 -1      1584 1.99962E+01 1.26624E-05 7.43757E-06-1.40306E-04 7.09061E-15-6.53972E-13
 -1      1585 1.99967E+01-3.01045E-06-1.67546E-06-2.69913E-04-3.31256E-14-4.72239E-13
 -1      1586 1.99970E+01-7.67907E-06 4.06564E-06-1.45919E-04 1.05334E-13-1.01790E-12
 -1      1587 1.99967E+01 7.32514E-06 6.20372E-06-1.42808E-04 4.28153E-14-8.10640E-13
 -1      1588 1.99970E+01-4.90289E-06 1.15065E-07-2.84537E-04 1.19878E-13-5.19413E-13
 -1      1589 1.99975E+01-7.15279E-06 3.82120E-06-1.37190E-04-7.55698E-14-8.71541E-13
 -1      1590 1.99972E+01 3.72283E-06 5.14374E-06-1.36578E-04-2.35019E-14-1.13192E-12
 -1      1591 1.99974E+01-5.77248E-06 1.19819E-06-2.77910E-04 3.44597E-14-8.48251E-13
 -1      1592 1.99979E+01-6.32804E-06 3.39459E-06-1.24443E-04-1.33075E-13-4.75749E-13
 -1      1593 1.99977E+01 1.20664E-06 4.16701E-06-1.25515E-04-1.70173E-13-8.93822E-13
 -1      1594 1.99978E+01-5.89703E-06 1.79048E-06-2.58865E-04-1.48080E-13-8.94094E-13
 -1      1595 1.99983E+01-5.52692E-06 3.07369E-06-1.10856E-04 1.50777E-13-1.06594E-12
 -1      1596 1.99981E+01-3.05857E-07 3.31708E-06-1.12674E-04 2.61232E-13-6.09110E-13
 -1      1597 1.99982E+01-5.78879E-06 2.16081E-06-2.34046E-04 1.16945E-13-7.25014E-13
 -1      1598 1.99987E+01-5.03936E-06 2.58781E-06-9.64470E-05 1.26833E-14-1.12554E-12
 -1      1599 1.99985E+01-1.07276E-06 2.75725E-06-9.86662E-05-2.40907E-14-1.13744E-12
 -1      1600 1.99985E+01-5.29540E-06 2.05973E-06-2.07007E-04 1.28942E-13-7.53760E-13
 -1      1601 1.99990E+01-4.39491E-06 2.19271E-06-8.23717E-05-1.20250E-13-9.65447E-13
 -1      1602 1.99988E+01-1.44245E-06 2.22576E-06-8.47053E-05-4.65423E-14-1.13438E-12
 -1      1603 1.99988E+01-4.83139E-06 1.97582E-06-1.79104E-04-6.92139E-14-7.79410E-13
 -1      1604 1.99992E+01-3.89134E-06 1.94274E-06-6.89602E-05-1.70588E-14-8.80330E-13
 -1      1605 1.99991E+01-1.75557E-06 1.80831E-06-7.13790E-05-2.51234E-14-8.53300E-13
 -1      1606 1.99991E+01-4.36439E-06 1.86695E-06-1.52060E-04-1.29284E-13-8.71545E-13
 -1      1607 1.99994E+01-3.56680E-06 1.97937E-06-5.58562E-05-2.51673E-13-5.61683E-13
 -1      1608 1.99993E+01-2.07523E-06 1.60704E-06-5.84412E-05-1.15915E-13-9.23773E-13
 -1      1609 1.99993E+01-4.11951E-06 1.83493E-06-1.25970E-04-9.51471E-14-7.51078E-13
 -1      1610 1.99996E+01-3.40353E-06 2.44753E-06-4.21886E-05 2.56698E-13-6.68451E-13
 -1      1611 1.99995E+01-2.60671E-06 1.75494E-06-4.51885E-05 1.63807E-13-4.27505E-13
 -1      1612 1.99995E+01-4.28255E-06 2.00837E-06-9.97960E-05-5.98774E-14-7.71938E-13
 -1      1613 1.99997E+01-3.38182E-06 2.89389E-06-2.66230E-05-2.06526E-13-1.70729E-13
 -1      1614 1.99997E+01-3.59293E-06 2.23003E-06-3.04947E-05-2.50490E-13-4.94485E-13
 -1      1615 1.99996E+01-5.04135E-06 2.41656E-06-7.15921E-05-1.04829E-13-5.69397E-13
 -1      1616 1.99998E+01-4.02980E-06 1.39698E-07-9.59546E-06 1.98921E-13-2.30730E-13
 -1      1617 1.99998E+01-3.97461E-06 2.30973E-06-1.35749E-05 1.25537E-13-1.06150E-13
 -1      1618 1.99997E+01-6.69442E-06 2.19030E-06-3.92958E-05-7.31733E-14-6.35376E-13
 -1      1619 1.99998E+01-3.61968E-06-5.80295E-06-8.77029E-07-1.45125E-13-9.09163E-14
 -1      1620 1.99998E+01-5.72514E-06-5.67231E-08-2.13870E-06-1.76362E-14-1.38157E-13
 -1      1621 1.99998E+01-8.92867E-06 4.93246E-07-1.43356E-05 1.01090E-13-2.30670E-13
 -1      1622 1.99998E+01-9.45232E-07 6.45775E-07-2.35218E-06-2.27640E-13-2.15128E-13
 -1      1623 1.99998E+01-5.01693E-05 2.84397E-06-2.33379E-05-7.29396E-13-1.46542E-13
 -1      1624 1.99998E+01-2.52165E-05 5.10913E-07-1.79900E-05-5.01116E-13-5.89765E-14
 -1      1625 1.99998E+01-3.30875E-05 9.74357E-07-2.42230E-05-1.56195E-13-2.58392E-13
 -1      1626 1.99998E+01-1.47028E-04 1.81975E-06-3.94346E-05-5.31989E-13 7.15151E-14
 -1      1627 1.99998E+01-9.36763E-05 1.36862E-06-3.53229E-05-6.94018E-13 6.71145E-14
 -1      1628 1.99998E+01-9.93790E-05 1.80575E-06-5.90581E-05-6.06082E-13-1.57847E-14
 -1      1629 1.99998E+01-2.72421E-04 4.20289E-07-4.68905E-05-1.18958E-12 1.38650E-13
 -1      1630 1.99998E+01-2.02884E-04 6.09692E-07-4.47096E-05-7.46957E-13-1.08430E-13
 -1      1631 1.99998E+01-1.96386E-04 1.27575E-06-8.29107E-05-5.06815E-13-1.99187E-13
 -1      1632 1.99998E+01-4.04420E-04-6.38689E-07-4.62185E-05-1.55576E-12-2.70349E-13
 -1      1633 1.99998E+01-3.31731E-04-1.54445E-07-4.60389E-05-1.49101E-12-1.38537E-14
 -1      1634 1.99998E+01-3.09319E-04 2.33703E-07-9.07804E-05-9.68405E-13-3.60375E-13
 -1      1635 1.99998E+01-5.21159E-04-1.31382E-06-3.89230E-05-6.14397E-13 7.36857E-13
 -1      1636 1.99998E+01-4.57533E-04-6.25099E-07-4.03983E-05-1.35088E-12 3.27079E-13
 -1      1637 1.99998E+01-4.20244E-04-7.58510E-07-8.40348E-05-8.69031E-13 3.90634E-13
 -1      1638 1.99998E+01-6.10793E-04-1.70603E-06-2.65179E-05-3.93678E-13-1.83305E-13
 -1      1639 1.99998E+01-5.62959E-04-8.76122E-07-2.93677E-05-4.50236E-13 6.68000E-14
 -1      1640 1.99998E+01-5.14327E-04-1.51153E-06-6.57009E-05-7.03176E-13 3.96523E-13
 -1      1641 1.99998E+01-6.59962E-04-1.85861E-06-1.09443E-05-3.90948E-13 2.47127E-13
 -1      1642 1.99998E+01-6.34952E-04-9.60499E-07-1.47194E-05-4.16877E-13-6.68231E-16
 -1      1643 1.99998E+01-5.80054E-04-2.03815E-06-3.89723E-05-3.00688E-13-1.81115E-13
 -1      1644 1.99998E+01-6.63046E-04-1.80927E-06 5.83085E-06-7.26944E-13-1.91139E-13
 -1      1645 1.99998E+01-6.63727E-04-9.32340E-07 1.58197E-06-4.70894E-13-7.59271E-14
 -1      1646 1.99998E+01-6.08508E-04-2.31238E-06-7.68289E-06-3.33916E-13-1.18655E-13
 -1      1647 1.99998E+01-6.19841E-04-1.57141E-06 2.18805E-05-1.19205E-12-2.04991E-13
 -1      1648 1.99998E+01-6.46045E-04-8.17493E-07 1.76363E-05-1.00964E-12-1.93916E-13
 -1      1649 1.99998E+01-5.96447E-04-2.32950E-06 2.43857E-05-6.90299E-13-2.83781E-13
 -1      1650 1.99998E+01-5.35548E-04-1.13522E-06 3.53110E-05-1.57558E-12-1.45275E-13
 -1      1651 1.99998E+01-5.84142E-04-6.29774E-07 3.15910E-05-1.16831E-12-2.30640E-13
 -1      1652 1.99998E+01-5.45421E-04-2.07807E-06 5.35150E-05-9.97714E-13-3.10833E-13
 -1      1653 1.99998E+01-4.22727E-04-5.04693E-07 4.42293E-05-1.05773E-12 3.85149E-13
 -1      1654 1.99998E+01-4.86428E-04-3.32203E-07 4.15459E-05-1.49645E-12 2.21571E-13
 -1      1655 1.99998E+01-4.62468E-04-1.58511E-06 7.59864E-05-8.62084E-13 2.01084E-13
 -1      1656 1.99998E+01-2.92585E-04 4.06420E-07 4.72520E-05-3.65874E-13 2.90930E-13
 -1      1657 1.99998E+01-3.64879E-04 1.08289E-07 4.60116E-05-8.72325E-13 2.69817E-13
 -1      1658 1.99998E+01-3.57486E-04-7.73015E-07 8.85745E-05-8.20663E-13 5.51915E-13
 -1      1659 1.99998E+01-1.66330E-04 1.56202E-06 4.26844E-05-6.14125E-13-1.63726E-13
 -1      1660 1.99998E+01-2.34860E-04 7.70676E-07 4.34694E-05-5.45682E-13-1.83867E-13
 -1      1661 1.99998E+01-2.43468E-04 3.05990E-07 8.83630E-05-7.58751E-13-4.16500E-14
 -1      1662 1.99998E+01-6.93334E-05 1.22670E-06 2.99381E-05-6.36274E-13-3.09397E-14
 -1      1663 1.99998E+01-1.17999E-04 1.62219E-06 3.26872E-05-5.41011E-13 9.97006E-14
 -1      1664 1.99998E+01-1.37554E-04 1.62987E-06 7.30109E-05-5.28749E-13-4.49806E-14
 -1      1665-1.43725E+00-1.82929E+01-1.85279E+00-2.90922E+00 5.55306E-13 2.96763E-13
 -1      1666-1.04306E+00-1.88690E+01-1.83137E+00-1.01546E+00 3.14831E-13 1.57541E-13
 -1      1667-3.90248E-01-1.32015E+01-1.72481E+00-2.32434E+00 6.44929E-13 2.73670E-13
 -1      1668-4.93878E-01-1.72607E+01-1.91536E+00-2.00451E+00 5.42011E-13 2.17937E-13
 -1      1669 3.36558E+00-6.42860E+00-1.62257E+00 2.74414E-01 6.75904E-13 5.28466E-13
 -1      1670 1.39629E+00-1.20245E+01-2.08956E+00-1.74555E+00 6.83231E-13 4.01346E-13
 -1      1671 1.37834E+01-3.96699E-02-9.75580E-01 5.81987E+00 6.77458E-13 1.00409E-12
 -1      1672 7.61562E+00-4.79022E+00-1.86659E+00 1.77299E+00 7.37188E-13 6.47371E-13
 -1      1673 3.48642E+01 2.53156E+00 6.02397E-01 9.83647E+00 6.59917E-13 1.15552E-12
 -1      1674 2.22093E+01 2.07663E-01-9.36091E-01 6.14357E+00 6.34826E-13 1.08136E-12
 -1      1675 5.61695E+01 3.18945E+00 2.47350E+00 8.42104E+00 4.93994E-13 9.07496E-13
 -1      1676 4.19604E+01 3.52508E+00 6.70776E-01 8.37369E+00 6.76237E-13 1.10445E-12
 -1      1677 7.14466E+01 3.88582E+00 4.24369E+00 3.91239E+00 3.41394E-13 4.28657E-13
 -1      1678 6.20881E+01 4.94749E+00 2.97755E+00 8.97367E+00 4.80602E-13 8.83071E-13
 -1      1679 7.07376E+01 4.30290E+00 3.91399E+00-4.62029E+00 2.92710E-13-1.82854E-13
 -1      1680 7.22808E+01 4.02762E+00 4.13428E+00 2.24667E+00 2.95985E-13 3.36731E-13
 -1      1681 5.53821E+01 4.94294E+00 2.16939E+00-9.09232E+00 5.15893E-13-6.82121E-13
 -1      1682 6.71017E+01 3.59372E+00 3.58034E+00-5.41399E+00 3.23630E-13-2.92877E-13
 -1      1683 3.50487E+01 4.02850E+00 2.19871E-01-9.74397E+00 9.63785E-13-1.11333E-12
 -1      1684 4.94860E+01 4.03381E+00 1.93203E+00-1.11364E+01 6.42153E-13-9.45466E-13
 -1      1685 1.69097E+01-1.35624E+00-1.21935E+00-4.90502E+00 1.01896E-12-1.06448E-12
 -1      1686 2.80168E+01 2.18547E+00 1.59120E-01-9.40097E+00 8.79519E-13-1.11267E-12
 -1      1687 4.75232E+00-7.74330E+00-1.92483E+00-3.61066E-01 1.10267E-12-8.51874E-13
 -1      1688 9.26253E+00-2.01237E+00-1.13535E+00-3.96078E+00 1.17772E-12-1.11244E-12
 -1      1689 5.99534E-01-1.47366E+01-1.97235E+00 1.68347E+00 5.92193E-13-5.24560E-13
 -1      1690 1.67564E+00-9.39796E+00-1.58925E+00 6.28527E-01 9.36140E-13-7.97196E-13
 -1      1691-1.02441E+00-1.94180E+01-2.06997E+00 1.82882E+00-4.22440E-14-3.04257E-13
 -1      1692-1.45163E+00-1.67598E+01-1.97717E+00 3.23370E+00 4.96825E-13-4.25243E-13
 -1      1693-8.49289E-01-1.75611E+01-1.72176E+00 4.03068E-01-6.92113E-13-3.19467E-13
 -1      1694-1.11655E+00-1.89149E+01-1.90408E+00 2.20610E+00-2.05419E-13-2.92821E-13
 -1      1695 1.73250E-01-1.23396E+01-1.42666E+00 9.08231E-02-1.17784E-12-4.73149E-13
 -1      1696-1.03233E-01-1.69209E+01-1.83578E+00 7.19546E-01-8.80185E-13-3.14443E-13
 -1      1697 3.89096E+00-3.93339E+00-8.30771E-01 3.04913E+00-1.26965E-12-6.59639E-13
 -1      1698 2.19643E+00-1.00446E+01-1.47507E+00 1.28373E+00-1.21836E-12-5.06262E-13
 -1      1699 1.13119E+01 3.68022E+00-1.62616E-01 7.90126E+00-1.21836E-12-9.34919E-13
 -1      1700 6.84165E+00-1.48611E+00-9.88221E-01 4.28702E+00-1.28764E-12-7.77378E-13
 -1      1701 2.40214E+01 7.73599E+00 5.63485E-01 1.30186E+01-9.69114E-13-1.13332E-12
 -1      1702 1.59138E+01 5.37789E+00-3.39409E-01 9.33876E+00-1.15485E-12-1.00864E-12
 -1      1703 4.05274E+01 7.25833E+00 1.25842E+00 1.40653E+01-6.56586E-13-8.58869E-13
 -1      1704 3.02321E+01 7.88709E+00 4.22571E-01 1.30562E+01-8.56648E-13-1.03584E-12
 -1      1705 5.43218E+01 5.24810E+00 1.75176E+00 1.02194E+01-3.75967E-13-3.49720E-13
 -1      1706 4.58542E+01 7.33047E+00 1.17168E+00 1.33749E+01-5.79425E-13-7.35634E-13
 -1      1707 5.99500E+01 4.06044E+00 1.82372E+00 1.48769E+00-2.42584E-13 2.08389E-13
 -1      1708 5.66450E+01 4.96204E+00 1.59666E+00 7.14326E+00-3.23325E-13-1.82021E-13
 -1      1709 5.77828E+01 4.95854E+00 1.76097E+00-7.94878E+00-2.71533E-13 6.83009E-13
 -1      1710 6.09693E+01 3.81714E+00 1.91142E+00-1.70304E+00-1.73972E-13 3.52884E-13
 -1      1711 4.49926E+01 7.63749E+00 1.17925E+00-1.36519E+01-5.90666E-13 1.06215E-12
 -1      1712 5.41034E+01 5.43238E+00 1.77504E+00-1.05769E+01-3.79852E-13 7.90035E-13
 -1      1713 2.90247E+01 8.66884E+00 4.39817E-01-1.37102E+01-7.89036E-13 1.06692E-12
 -1      1714 3.93851E+01 8.05727E+00 1.31037E+00-1.50479E+01-6.42153E-13 1.19926E-12
 -1      1715 1.49856E+01 4.23435E+00-4.04681E-01-8.60633E+00-5.77982E-13 6.73683E-13
 -1      1716 2.33908E+01 7.30866E+00 5.60683E-01-1.27425E+01-6.51812E-13 9.89875E-13
 -1      1717 5.32426E+00-3.35895E+00-1.16150E+00-3.35325E+00-3.24851E-13 3.88578E-13
 -1      1718 9.42422E+00 2.64208E+00-2.96004E-01-7.02070E+00-5.62661E-13 5.63549E-13
 -1      1719 1.08340E+00-1.28403E+01-1.69878E+00-6.35773E-01-1.45439E-14 8.67501E-14
 -1      1720 2.31116E+00-6.15767E+00-1.03487E+00-1.83476E+00-2.36922E-13 3.14637E-13
 -1      1721-6.05712E-01-1.89204E+01-1.94076E+00-1.36015E+00 2.01283E-13-2.18436E-14
 -1      1722-4.09701E-01-1.50778E+01-1.60037E+00 6.80707E-02 1.12355E-13-3.84415E-14
 -1      1723 2.47572E+01 2.00057E+00-2.20219E-02 2.15200E+00 9.70959E-14 9.79661E-13
 -1      1724 3.65837E+01-8.79748E-01 2.25119E-02 3.26131E+00 4.52416E-14 1.61621E-12
 -1      1725 3.64261E+01-2.18285E+00 1.41606E-01 3.52069E+00-8.30794E-14 1.00419E-12
 -1      1726 3.24133E+01-4.47910E-01-5.64408E-01 3.50946E+00 1.30701E-13 1.53011E-12
 -1      1727 3.39150E+00-1.04779E+01-1.35693E+00 2.09794E+00 2.60014E-13 1.76609E-13
 -1      1728-1.80894E+00-1.28026E+01-1.35962E+00-2.03169E+00 2.63123E-13 2.46247E-13
 -1      1729-9.60388E-01-1.19120E+01-1.28691E+00 2.19672E-01 2.36450E-13 3.18412E-13
 -1      1730 1.99998E+01-2.28776E-05-3.96195E-09 1.88155E-05-4.63008E-13 3.25966E-14
 -1      1731 1.99998E+01-4.58877E-05 1.67317E-06 2.63342E-05-4.14141E-13-9.63070E-14
 -1      1732 1.99998E+01-6.98018E-05 2.08267E-06 5.44370E-05-5.29161E-13 7.84345E-14
 -1      1733 1.16864E+01-7.62334E+00-1.14707E+00 3.82356E+00 3.10862E-13 4.55802E-13
 -1      1734 2.61697E+01-4.57988E+00-2.94924E-01 4.57859E+00 2.45026E-13 7.14984E-13
 -1      1735 4.11450E+01-1.25080E+00 7.72473E-01 1.47985E+00 3.99236E-13 5.00489E-13
 -1      1736 5.22858E+01 3.65565E+00 1.71763E+00-7.43875E-01 5.16365E-13 4.78728E-13
 -1      1737 5.94751E+01 7.70793E+00 3.14305E+00 1.87913E-02 5.45564E-13 3.98903E-13
 -1      1738 5.68257E+01 7.27789E+00 2.70532E+00 7.34780E-01 4.84057E-13 1.83298E-13
 -1      1739 4.95344E+01 2.89811E+00 1.66611E+00-1.46275E+00 5.55334E-13-1.24345E-13
 -1      1740 3.61423E+01-2.21271E+00 2.82882E-01-3.69152E+00 5.11480E-13-3.49498E-13
 -1      1741 2.10500E+01-5.80291E+00-6.00126E-01-4.90016E+00 4.93605E-13-5.68101E-13
 -1      1742 8.21326E+00-8.73537E+00-1.16543E+00-3.68712E+00 3.91243E-13-6.56114E-13
 -1      1743 1.06884E+00-1.15270E+01-1.34312E+00-1.47575E+00 1.84464E-13-6.41487E-13
 -1      1744-1.94787E+00-1.28277E+01-1.40697E+00 1.02471E+00-1.15713E-13-5.68767E-13
 -1      1745-9.88968E-01-1.18425E+01-1.26448E+00 2.72611E+00-3.92242E-13-5.16254E-13
 -1      1746 3.04319E+00-9.05744E+00-1.00336E+00 4.71066E+00-6.61360E-13-4.64934E-13
 -1      1747 9.87755E+00-4.74070E+00-6.02959E-01 6.70516E+00-7.67830E-13-5.04541E-13
 -1      1748 1.92129E+01-3.49978E-02-5.63454E-02 8.50937E+00-7.69829E-13-6.67355E-13
 -1      1749 3.09118E+01 3.56547E+00 5.92113E-01 8.94790E+00-6.39322E-13-6.38045E-13
 -1      1750 4.17251E+01 6.22551E+00 1.10987E+00 7.33242E+00-6.26929E-13-3.77032E-13
 -1      1751 4.90996E+01 8.09614E+00 1.51433E+00 4.33904E+00-5.59164E-13-1.27232E-13
 -1      1752 5.19782E+01 8.42257E+00 1.61251E+00-2.90017E-01-3.99236E-13 7.79168E-14
 -1      1753 4.96253E+01 7.84792E+00 1.51981E+00-4.77682E+00-4.02567E-13 3.31457E-13
 -1      1754 4.12279E+01 6.48948E+00 1.11994E+00-8.26764E+00-4.17756E-13 5.30131E-13
 -1      1755 2.98343E+01 3.27023E+00 4.93308E-01-9.16837E+00-3.12750E-13 6.95333E-13
 -1      1756 1.81009E+01-9.24913E-01-8.14248E-02-8.39968E+00-1.65645E-13 5.33906E-13
 -1      1757 7.73902E+00-5.85840E+00-7.15130E-01-6.15782E+00-4.77396E-14 3.58491E-13
 -1      1758 1.16384E+00-1.06637E+01-1.18870E+00-3.93031E+00 1.02141E-14 1.68254E-13
 -1      1759 2.28081E+01 2.01084E+00-2.40521E-02-2.89468E+00-1.40759E-13 3.22714E-13
 -1      1760 3.58285E+01-5.08829E-01-2.49169E-01 5.86263E+00 2.48190E-13 1.11584E-12
 -1      1761 2.01556E+01 3.54712E+00-3.40377E-02-2.42220E+00-1.06477E-13-2.44617E-13
 -1      1762 2.02514E+01 3.42753E+00-4.84807E-02-2.74738E+00-1.45090E-13-2.08812E-13
 -1      1763 2.04329E+01 3.12444E+00-4.55496E-02-2.88641E+00-1.62918E-13-1.60226E-13
 -1      1764 2.05381E+01 2.77998E+00-1.52750E-01-3.15491E+00-1.96031E-13-9.66310E-14
 -1      1765 2.05587E+01 2.54742E+00-8.17955E-03-2.57367E+00-1.59399E-13-1.65326E-13
 -1      1766 2.01062E+01 3.78626E+00-1.96075E-02-1.23230E+00-2.76775E-15-2.62349E-13
 -1      1767 2.01100E+01 3.77454E+00-2.46576E-02-1.55278E+00-2.33492E-14-2.77566E-13
 -1      1768 2.00183E+01 3.81076E+00-1.73943E-02-5.65781E-01 4.45820E-14-2.42525E-13
 -1      1769 2.00802E+01 3.80541E+00-1.94374E-02-8.96467E-01 2.03214E-14-2.63581E-13
 -1      1770 2.03900E+01 3.19675E+00-1.46566E-02-1.05230E+00 7.09307E-15-2.45954E-13
 -1      1771 1.97550E+01 3.86056E+00-1.72363E-02 1.10830E-01 1.05565E-13-2.07112E-13
 -1      1772 1.99136E+01 3.84555E+00-1.40614E-02-2.12040E-01 7.65494E-14-2.19050E-13
 -1      1773 2.02581E+01 3.24189E+00-1.72032E-02-3.67696E-01 7.14896E-14-2.12488E-13
 -1      1774 1.92837E+01 3.98156E+00-1.87526E-02 7.46459E-01 1.52186E-13-2.03918E-13
 -1      1775 1.95482E+01 3.94590E+00-7.66135E-03 4.55233E-01 1.35426E-13-2.09709E-13
 -1      1776 1.99217E+01 3.34183E+00-1.93642E-02 3.34447E-01 1.36453E-13-1.89829E-13
 -1      1777 1.86478E+01 4.19781E+00-2.13500E-02 1.26856E+00 1.89596E-13-2.01391E-13
 -1      1778 1.89852E+01 4.13816E+00-1.25187E-03 1.03983E+00 1.73844E-13-2.10885E-13
 -1      1779 1.93584E+01 3.55043E+00-1.97799E-02 9.87342E-01 1.79442E-13-1.97651E-13
 -1      1780 1.79916E+01 4.49034E+00-2.33937E-02 1.60068E+00 2.07284E-13-1.84953E-13
 -1      1781 1.83153E+01 4.41572E+00 2.59425E-03 1.46135E+00 1.98314E-13-1.98050E-13
 -1      1782 1.86367E+01 3.88292E+00-1.66182E-02 1.49612E+00 2.11131E-13-1.87798E-13
 -1      1783 1.75590E+01 4.77498E+00-2.32471E-02 1.70217E+00 2.29051E-13-1.54403E-13
 -1      1784 1.77374E+01 4.71144E+00 7.05063E-04 1.65542E+00 2.16371E-13-1.75370E-13
 -1      1785 1.79434E+01 4.28213E+00-9.51253E-03 1.76373E+00 2.28402E-13-1.73503E-13
 -1      1786 1.76108E+01 4.93140E+00-2.01399E-02 1.61546E+00 2.56169E-13-8.93305E-14
 -1      1787 1.75084E+01 4.90971E+00-9.25689E-03 1.62712E+00 2.37459E-13-1.27853E-13
 -1      1788 1.75535E+01 4.61729E+00 1.02452E-03 1.74846E+00 2.57978E-13-1.30451E-13
 -1      1789 1.83694E+01 4.80106E+00-1.75580E-02 1.47724E+00 2.63317E-13 1.31145E-15
 -1      1790 1.78911E+01 4.86579E+00-2.70600E-02 1.47147E+00 2.54528E-13-5.86978E-14
 -1      1791 1.77625E+01 4.69926E+00 9.58419E-03 1.50819E+00 2.70331E-13-6.27033E-14
 -1      1792 1.98820E+01 4.24501E+00-2.12875E-02 1.48066E+00 2.55029E-13 1.58776E-13
 -1      1793 1.90322E+01 4.45656E+00-4.61865E-02 1.36624E+00 2.54033E-13 6.29913E-14
 -1      1794 1.87657E+01 4.34998E+00 1.38439E-02 1.21417E+00 2.66667E-13 4.13992E-14
 -1      1795 2.18060E+01 3.12167E+00-9.93814E-02 1.73364E+00 2.02357E-13 4.04288E-13
 -1      1796 2.08675E+01 3.59490E+00-5.79929E-02 1.49508E+00 2.28219E-13 2.58293E-13
 -1      1797 2.05586E+01 3.44678E+00 2.32546E-02 1.04552E+00 2.45757E-13 1.97776E-13
 -1      1798 8.88471E+00-7.36005E+00-4.19856E-01 4.43149E+00 8.71525E-14 1.66672E-13
 -1      1799 5.37479E+00-7.73196E+00-4.35570E-01 3.61706E+00 1.13631E-13 2.64233E-14
 -1      1800 3.61945E+01-3.11284E+00-8.19016E-02 3.18672E+00 2.67945E-14 7.10598E-13
 -1      1801 3.54414E+01-4.27475E+00 2.59211E-02 9.36238E-01-1.46050E-13 6.15064E-13
 -1      1802 2.17031E+01 2.48346E+00 9.33710E-02-3.29659E+00-1.85381E-13 6.18811E-14
 -1      1803 2.35569E+01 2.51730E+00 7.67225E-02 2.13328E+00 1.51960E-13 6.10900E-13
 -1      1804 2.02220E+01 4.19037E-01 3.08580E-02-1.30180E+00-1.53714E-13 1.61814E-14
 -1      1805 1.96399E+01 2.56234E-01 7.61209E-04-1.05898E+00-1.15637E-13-2.29729E-14
 -1      1806 1.93484E+01 1.57359E-01 2.57571E-02-8.94829E-01-9.90701E-14-1.78572E-14
 -1      1807 1.89707E+01 7.82832E-02 5.50042E-03-8.14241E-01-8.17844E-14-4.12378E-14
 -1      1808 1.99022E+01 3.41517E-01-1.83175E-03-1.30499E+00-1.41291E-13-5.34622E-14
 -1      1809 1.87168E+01 4.13678E-02 1.50383E-02-7.50983E-01-6.23230E-14-3.44412E-14
 -1      1810 1.84157E+01 1.69730E-02 4.30333E-03-7.28309E-01-4.74757E-14-5.61130E-14
 -1      1811 1.93415E+01 1.05072E-01-2.28473E-03-1.03822E+00-9.00738E-14-4.57043E-14
 -1      1812 1.81885E+01 1.44077E-02 7.37571E-03-7.02560E-01-4.28352E-14-5.25176E-14
 -1      1813 1.79295E+01 2.30821E-02 4.63703E-03-6.88342E-01-2.65956E-14-5.26762E-14
 -1      1814 1.88625E+01 3.21143E-02-1.88388E-03-9.34725E-01-6.40172E-14-4.24962E-14
 -1      1815 1.77232E+01 4.28458E-02 4.09147E-03-6.54375E-01-3.88868E-14-4.10799E-14
 -1      1816 1.75014E+01 7.16681E-02 6.64301E-03-6.18976E-01-6.07019E-14-8.65284E-14
 -1      1817 1.84322E+01 5.45212E-02-2.39060E-03-8.65732E-01-4.48971E-14-4.91015E-14
 -1      1818 1.73235E+01 1.03184E-01 3.76752E-03-5.47839E-01-7.51638E-14-8.43533E-14
 -1      1819 1.71533E+01 1.39163E-01 8.88066E-03-4.76041E-01-6.12696E-14-9.22877E-14
 -1      1820 1.80508E+01 1.32623E-01-3.95071E-03-7.46914E-01-6.98426E-14-6.08435E-14
 -1      1821 1.70225E+01 1.70292E-01 5.17051E-03-3.56917E-01-5.61196E-14-6.82137E-14
 -1      1822 1.69253E+01 1.99322E-01 1.00604E-02-2.48661E-01-4.11823E-14-6.38134E-14
 -1      1823 1.77444E+01 2.29487E-01-6.21470E-03-5.32564E-01-4.56206E-14-4.03798E-14
 -1      1824 1.68632E+01 2.18004E-01 7.15445E-03-9.06539E-02-4.66714E-14-5.77056E-14
 -1      1825 1.68564E+01 2.28390E-01 9.54827E-03 3.95789E-02-1.01633E-14-6.60819E-14
 -1      1826 1.75534E+01 3.06904E-01-8.18659E-03-2.19968E-01-3.61785E-14-3.88473E-14
 -1      1827 1.68763E+01 2.26797E-01 8.56279E-03 2.10780E-01-5.15334E-14-1.24766E-13
 -1      1828 1.69651E+01 2.13744E-01 7.51969E-03 3.39164E-01-9.22461E-14-1.63355E-13
 -1      1829 1.75128E+01 3.33935E-01-8.75575E-03 1.51678E-01-7.23453E-14-1.15490E-13
 -1      1830 1.70639E+01 1.91565E-01 8.47463E-03 4.90997E-01-8.24267E-14-1.83749E-13
 -1      1831 1.72380E+01 1.59041E-01 4.72536E-03 5.93251E-01-2.84677E-14-2.14259E-13
 -1      1832 1.76329E+01 2.97946E-01-7.42169E-03 5.16011E-01-1.04783E-13-1.31835E-13
 -1      1833 1.73963E+01 1.23263E-01 6.59509E-03 6.98635E-01-3.30007E-14-2.13171E-13
 -1      1834 1.76317E+01 8.15894E-02 2.02379E-03 7.58615E-01-5.07138E-14-2.13615E-13
 -1      1835 1.78915E+01 2.09065E-01-4.62921E-03 8.05106E-01-4.89062E-14-1.96382E-13
 -1      1836 1.78206E+01 4.27404E-02 3.37886E-03 8.04864E-01-3.45878E-14-2.32083E-13
 -1      1837 1.80863E+01 3.48742E-03-1.67882E-05 8.18805E-01-1.52298E-14-2.37742E-13
 -1      1838 1.82401E+01 9.42143E-02-1.41101E-03 9.74171E-01-4.90731E-14-1.85277E-13
 -1      1839 1.82770E+01-2.91084E-02-2.44293E-04 8.09303E-01-3.22288E-14-2.08676E-13
 -1      1840 1.85425E+01-5.77250E-02-1.23910E-03 7.84528E-01-1.57747E-14-1.92860E-13
 -1      1841 1.86212E+01-1.58129E-02 1.24522E-03 1.01350E+00-3.50155E-15-1.61057E-13
 -1      1842 1.87137E+01-7.89749E-02-3.34348E-03 7.33985E-01-5.22321E-14-1.77678E-13
 -1      1843 1.89550E+01-9.39851E-02-1.77263E-03 6.84012E-01-2.36311E-14-2.07657E-13
 -1      1844 1.89849E+01-9.83798E-02 2.84669E-03 9.44419E-01-3.06800E-14-1.91058E-13
 -1      1845 1.90954E+01-1.03351E-01-5.35243E-03 6.11184E-01-2.87006E-14-2.30772E-13
 -1      1846 1.92979E+01-1.06197E-01-1.84877E-03 5.50336E-01-5.52722E-14-2.38614E-13
 -1      1847 1.92988E+01-1.44440E-01 3.42280E-03 8.05174E-01-4.80113E-14-1.70001E-13
 -1      1848 1.94047E+01-1.06162E-01-6.16019E-03 4.72003E-01-6.62994E-14-3.13044E-13
 -1      1849 1.95630E+01-1.00584E-01-1.67365E-03 4.11729E-01-2.84872E-14-3.06691E-13
 -1      1850 1.95485E+01-1.56906E-01 3.28611E-03 6.35743E-01-8.53601E-14-2.59267E-13
 -1      1851 1.96391E+01-9.47296E-02-5.98848E-03 3.39606E-01 5.48587E-14-3.69606E-13
 -1      1852 1.97548E+01-8.47999E-02-1.39371E-03 2.87065E-01 3.68084E-14-3.64947E-13
 -1      1853 1.97340E+01-1.45353E-01 2.77644E-03 4.67810E-01-7.88735E-15-2.98063E-13
 -1      1854 1.98056E+01-7.64004E-02-5.19677E-03 2.27374E-01 1.09828E-14-3.21016E-13
 -1      1855 1.98847E+01-6.53549E-02-1.09176E-03 1.85722E-01 1.84965E-15-3.24068E-13
 -1      1856 1.98632E+01-1.20702E-01 2.15155E-03 3.21092E-01 4.18990E-14-3.27434E-13
 -1      1857 1.99162E+01-5.67383E-02-4.13086E-03 1.40302E-01 3.53199E-14-2.66011E-13
 -1      1858 1.99663E+01-4.66117E-02-8.10971E-04 1.09805E-01 9.77277E-14-2.65535E-13
 -1      1859 1.99474E+01-9.19329E-02 1.56109E-03 2.04302E-01 6.58804E-14-3.04483E-13
 -1      1860 1.99841E+01-3.90905E-02-3.04675E-03 7.77049E-02 6.07457E-14-2.41320E-13
 -1      1861 2.00130E+01-3.08465E-02-5.70951E-04 5.69691E-02-7.56700E-14-2.43184E-13
 -1      1862 1.99981E+01-6.48857E-02 1.06979E-03 1.18254E-01 7.06240E-14-2.64614E-13
 -1      1863 2.00216E+01-2.49412E-02-2.09483E-03 3.58734E-02-1.11253E-13-1.56161E-13
 -1      1864 2.00359E+01-1.87979E-02-3.78143E-04 2.28302E-02 4.23154E-14-8.73416E-14
 -1      1865 2.00254E+01-4.24859E-02 6.92068E-04 5.92305E-02-5.32553E-14-1.63163E-13
 -1      1866 2.00387E+01-1.45281E-02-1.33845E-03 1.00542E-02 4.45057E-14-9.54701E-14
 -1      1867 2.00438E+01-1.02832E-02-2.31496E-04 2.59662E-03 4.37997E-14-1.08531E-13
 -1      1868 2.00372E+01-2.55630E-02 4.17916E-04 2.16437E-02 4.51828E-14-3.28074E-14
 -1      1869 2.00431E+01-7.41472E-03-7.83136E-04-4.33867E-03-2.02312E-14-2.15186E-13
 -1      1870 2.00428E+01-4.68949E-03-1.25813E-04-8.02644E-03 3.08518E-15-2.47610E-13
 -1      1871 2.00395E+01-1.37225E-02 2.28427E-04-2.42190E-04-4.15801E-14-1.42063E-13
 -1      1872 2.00405E+01-2.90230E-03-4.03235E-04-1.11402E-02-3.18538E-15-3.61381E-13
 -1      1873 2.00375E+01-1.29224E-03-5.39549E-05-1.24670E-02-4.86074E-14-3.25087E-13
 -1      1874 2.00366E+01-6.02175E-03 1.03674E-04-1.14125E-02-6.75241E-14-3.16493E-13
 -1      1875 2.00344E+01-2.75689E-04-1.61261E-04-1.32661E-02-9.27601E-14-2.79042E-13
 -1      1876 2.00304E+01 5.73327E-04-8.36682E-06-1.32411E-02-1.93800E-13-3.17632E-13
 -1      1877 2.00311E+01-1.40076E-03 2.60829E-05-1.57720E-02-4.48774E-14-3.04395E-13
 -1      1878 2.00272E+01 1.07758E-03-1.95076E-05-1.27725E-02-1.91078E-13-2.04876E-13
 -1      1879 2.00231E+01 1.44219E-03 1.79509E-05-1.20698E-02 3.72491E-17-1.60799E-13
 -1      1880 2.00249E+01 1.09247E-03-1.85440E-05-1.61496E-02-1.07975E-13-1.03442E-13
 -1      1881 2.00203E+01 1.62906E-03 5.42516E-05-1.10141E-02 8.24146E-14-1.53263E-13
 -1      1882 2.00166E+01 1.70849E-03 3.09223E-05-1.00534E-02 1.91758E-13-1.58427E-13
 -1      1883 2.00189E+01 2.21408E-03-4.10736E-05-1.44606E-02 2.72803E-14 4.89231E-15
 -1      1884 2.00143E+01 1.71462E-03 8.49163E-05-8.82255E-03 1.43000E-13-1.50648E-13
 -1      1885 2.00113E+01 1.64293E-03 3.52190E-05-7.84423E-03 8.25380E-14-1.84335E-13
 -1      1886 2.00136E+01 2.51576E-03-4.94916E-05-1.19179E-02 1.01618E-13-5.80855E-14
 -1      1887 2.00094E+01 1.55811E-03 9.03291E-05-6.66528E-03 5.41099E-15-1.16782E-13
 -1      1888 2.00070E+01 1.41987E-03 3.43077E-05-5.79130E-03 6.90276E-14-1.48455E-14
 -1      1889 2.00093E+01 2.37320E-03-4.94570E-05-9.23254E-03 1.25456E-13 2.52902E-14
 -1      1890 2.00056E+01 1.29940E-03 8.24731E-05-4.77235E-03 2.60178E-14 6.81640E-14
 -1      1891 2.00039E+01 1.14421E-03 3.06178E-05-4.05143E-03-2.49486E-15 1.97163E-13
 -1      1892 2.00059E+01 2.02630E-03-4.48316E-05-6.77887E-03 5.81222E-14 1.51623E-13
 -1      1893 2.00028E+01 1.01960E-03 6.88988E-05-3.22860E-03 1.05062E-13 2.58984E-13
 -1      1894 2.00016E+01 8.73873E-04 2.57538E-05-2.66752E-03 2.31759E-13 2.67937E-13
 -1      1895 2.00033E+01 1.61786E-03-3.81397E-05-4.71897E-03 1.34436E-13 2.99552E-13
 -1      1896 2.00009E+01 7.61175E-04 5.40296E-05-2.03695E-03 1.20987E-13 1.40231E-13
 -1      1897 2.00001E+01 6.36815E-04 2.07054E-05-1.62099E-03 8.34088E-14 1.21264E-13
 -1      1898 2.00015E+01 1.22554E-03-3.09426E-05-3.09026E-03 6.86775E-14 2.14828E-13
 -1      1899 1.99996E+01 5.42626E-04 4.02103E-05-1.15940E-03-6.67379E-14-6.07267E-14
 -1      1900 1.99992E+01 4.43058E-04 1.60287E-05-8.64860E-04-1.84900E-13-1.50165E-13
 -1      1901 2.00003E+01 8.85786E-04-2.41334E-05-1.86372E-03-1.12763E-13 2.66116E-15
 -1      1902 1.99989E+01 3.68584E-04 2.84838E-05-5.41874E-04 4.68865E-15-5.23005E-14
 -1      1903 1.99986E+01 2.92703E-04 1.19905E-05-3.43290E-04 1.69262E-13 4.04744E-14
 -1      1904 1.99995E+01 6.10616E-04-1.81600E-05-9.80396E-04-1.15643E-14 2.53589E-14
 -1      1905 1.99985E+01 2.36372E-04 1.91312E-05-1.28323E-04 4.13978E-14 1.33914E-13
 -1      1906 1.99984E+01 1.80985E-04 8.67472E-06-2.17999E-06-7.40408E-14 1.21017E-13
 -1      1907 1.99990E+01 3.98723E-04-1.31891E-05-3.72880E-04 1.35448E-13 3.28008E-14
 -1      1908 1.99983E+01 1.40033E-04 1.20264E-05 1.32117E-04-3.61496E-14 1.48743E-13
 -1      1909 1.99983E+01 1.01280E-04 6.05828E-06 2.05775E-04-1.93551E-14 2.14856E-13
 -1      1910 1.99988E+01 2.42430E-04-9.21959E-06 2.31428E-05-7.99484E-15 1.81127E-13
 -1      1911 1.99983E+01 7.26543E-05 6.85680E-06 2.82172E-04-1.30073E-13 2.93799E-13
 -1      1912 1.99984E+01 4.67645E-05 4.06172E-06 3.19335E-04-1.21580E-13 3.40569E-13
 -1      1913 1.99987E+01 1.31776E-04-6.15899E-06 2.63471E-04-1.03350E-14 2.05591E-13
 -1      1914 1.99984E+01 2.75901E-05 3.25167E-06 3.55834E-04 1.12451E-13 4.36920E-13
 -1      1915 1.99986E+01 1.12374E-05 2.58108E-06 3.68744E-04 2.27836E-13 4.70371E-13
 -1      1916 1.99988E+01 5.67555E-05-3.87349E-06 3.93609E-04 7.22417E-14 4.93426E-13
 -1      1917 1.99986E+01-9.79337E-07 8.51673E-07 3.78977E-04 1.17657E-14 3.52213E-13
 -1      1918 1.99987E+01-1.05625E-05 1.50637E-06 3.76622E-04 3.64278E-14 2.93819E-13
 -1      1919 1.99988E+01 8.39149E-06-2.21900E-06 4.48947E-04 9.87567E-14 5.64723E-13
 -1      1920 1.99988E+01-1.78839E-05-6.58206E-07 3.70484E-04 4.67856E-15 1.53942E-13
 -1      1921 1.99989E+01-2.29234E-05 7.31216E-07 3.59163E-04 1.17769E-13 6.72999E-14
 -1      1922 1.99990E+01-2.08775E-05-1.05873E-06 4.55868E-04-5.20769E-14 2.76820E-13
 -1      1923 1.99990E+01-2.70138E-05-1.53685E-06 3.43482E-04 3.89204E-13-3.70905E-14
 -1      1924 1.99991E+01-2.92782E-05 1.57579E-07 3.27326E-04 3.76556E-13 2.18036E-13
 -1      1925 1.99991E+01-3.71929E-05-2.72293E-07 4.33179E-04 1.95032E-13 1.35336E-13
 -1      1926 1.99992E+01-3.14783E-05-1.98447E-06 3.06465E-04 2.16344E-13 2.69732E-13
 -1      1927 1.99993E+01-3.23853E-05-2.98385E-07 2.87868E-04 1.92573E-13 4.02366E-13
 -1      1928 1.99993E+01-4.54768E-05 2.39737E-07 3.93518E-04 4.17056E-13 2.74520E-13
 -1      1929 1.99993E+01-3.37919E-05-2.14299E-06 2.64222E-04 1.09655E-13 3.63307E-13
 -1      1930 1.99994E+01-3.44962E-05-6.94165E-07 2.44169E-04 8.60335E-14 2.68342E-13
 -1      1931 1.99994E+01-4.96899E-05 5.57355E-07 3.44583E-04 7.38154E-14 1.80901E-13
 -1      1932 1.99995E+01-3.60197E-05-2.09646E-06 2.18608E-04 2.74321E-14 1.15395E-13
 -1      1933 1.99996E+01-3.74453E-05-1.04318E-06 1.96970E-04-9.19838E-14 9.47850E-14
 -1      1934 1.99995E+01-5.30376E-05 7.36898E-07 2.90194E-04-1.12448E-13 7.61402E-14
 -1      1935 1.99996E+01-3.97337E-05-1.86490E-06 1.69270E-04-5.60866E-14 2.59861E-13
 -1      1936 1.99997E+01-4.22727E-05-1.26856E-06 1.45268E-04-9.22337E-14 3.66280E-13
 -1      1937 1.99996E+01-5.79544E-05 8.13228E-07 2.31330E-04 6.96487E-15 9.09011E-14
 -1      1938 1.99997E+01-4.48568E-05-1.39436E-06 1.14902E-04-1.45237E-13 4.45887E-13
 -1      1939 1.99997E+01-4.61096E-05-5.28711E-07 8.90145E-05-9.71532E-14 3.77020E-13
 -1      1940 1.99997E+01-6.51128E-05 7.25001E-07 1.67436E-04-6.26370E-14 4.69863E-13
 -1      1941 4.06988E+01-8.87584E-01 8.77404E-02-4.53110E+00 2.13690E-13 1.88294E-13
 -1      1942 4.02027E+01 2.19352E+00 7.04807E-02-3.89228E+00 3.38729E-13 3.26461E-13
 -1      1943 2.34603E+01 1.06423E+00 5.30087E-02-2.70084E+00 3.98917E-14 3.86207E-13
 -1      1944 2.27826E+01 1.04661E+00 1.58392E-02-2.09673E+00 7.39304E-14 4.02085E-13
 -1      1945 2.29395E+01 1.05251E+00 5.19974E-02-1.39067E+00 1.05867E-13 4.08821E-13
 -1      1946 2.27148E+01 1.06159E+00 2.56419E-02-7.35765E-01 1.27599E-13 4.48577E-13
 -1      1947 2.16054E+01 1.58766E+00-3.78278E-03-1.87238E+00 1.00248E-13 2.52823E-13
 -1      1948 2.44244E+01 8.81017E-01 5.43248E-02-3.91176E+00-7.07107E-14 3.61582E-13
 -1      1949 2.33839E+01 1.02284E+00 1.03284E-02-3.40480E+00-2.97843E-14 3.70433E-13
 -1      1950 2.14242E+01 1.55905E+00 1.22533E-02-3.38056E+00 1.43600E-14 2.31574E-13
 -1      1951 2.58040E+01-9.01660E-03 7.50292E-02-4.55724E+00-1.77990E-13 3.91642E-13
 -1      1952 2.45474E+01 5.60554E-01 4.68018E-02-4.47842E+00-1.21399E-13 3.63997E-13
 -1      1953 2.14259E+01 1.05599E+00 2.38289E-02-4.73620E+00-1.09822E-13 1.79993E-13
 -1      1954 2.77183E+01-1.89946E+00 9.61993E-02-3.99567E+00-2.88936E-13 4.53452E-13
 -1      1955 2.64382E+01-8.42060E-01 1.37181E-01-4.69823E+00-2.43777E-13 3.93834E-13
 -1      1956 2.19254E+01-5.55371E-01 2.57819E-02-5.55538E+00-2.13912E-13 1.52350E-13
 -1      1957 4.15603E+01 3.81076E+00 3.39792E-03 2.05639E+00 4.60854E-13 4.55413E-13
 -1      1958 4.22660E+01 2.40301E+00 2.45812E-01 3.92919E+00 4.39204E-13 6.09068E-13
 -1      1959 3.29787E+01-1.90624E+00 2.16468E-01 2.20901E+00-1.60705E-13 3.34028E-13
 -1      1960 3.38728E+01-2.78814E+00 7.84131E-02 3.95500E-01-1.19460E-13 2.33875E-13
 -1      1961 2.95675E+01-1.85138E-01 1.11669E-01 3.76766E+00-4.36456E-14 3.12993E-13
 -1      1962 3.11329E+01-9.87622E-01 6.68104E-02 3.28352E+00-8.76799E-14 2.86641E-13
 -1      1963 2.82321E+01-2.26870E+00 5.85907E-02 3.95020E+00-1.19835E-13 2.76265E-13
 -1      1964 2.68293E+01 4.60350E-01 1.18956E-02 3.49099E+00 6.47980E-14 2.29837E-13
 -1      1965 2.85129E+01 1.52192E-01 2.71110E-02 3.70810E+00 5.33254E-15 2.71838E-13
 -1      1966 2.57010E+01-1.37551E-01 2.57131E-02 4.78062E+00-2.94209E-15 2.39066E-13
 -1      1967 2.47647E+01 5.25403E-01-1.33835E-02 2.63088E+00-2.00742E-14 1.37838E-13
 -1      1968 2.61736E+01 4.90863E-01 1.84751E-02 3.01781E+00 8.31054E-14 2.23294E-13
 -1      1969 2.41484E+01 7.19223E-01 7.77419E-03 4.10470E+00 1.18316E-13 9.23584E-14
 -1      1970 2.33109E+01 4.16406E-01-1.09751E-02 1.84205E+00 8.23785E-14 1.65012E-13
 -1      1971 2.43167E+01 4.69381E-01 2.26480E-02 2.16714E+00-6.52429E-14 1.15845E-13
 -1      1972 2.30559E+01 7.89237E-01-1.07564E-03 3.06349E+00-9.29812E-15 3.54092E-14
 -1      1973 2.22095E+01 2.87611E-01-4.45016E-03 1.20538E+00-6.74096E-14 2.72116E-13
 -1      1974 2.29386E+01 3.49358E-01 2.27446E-02 1.45372E+00 4.08180E-15 2.28777E-13
 -1      1975 2.22125E+01 6.22704E-01-4.45339E-04 2.12722E+00-1.02834E-14 1.10224E-13
 -1      1976 2.14570E+01 1.86283E-01-2.26926E-04 7.68611E-01-6.58570E-14 3.65615E-13
 -1      1977 2.19371E+01 2.36220E-01 2.01177E-02 9.33853E-01 4.85723E-16 3.85737E-13
 -1      1978 2.15499E+01 4.27280E-01-1.00469E-03 1.40107E+00-9.92557E-14 1.78982E-13
 -1      1979 2.09517E+01 1.17075E-01 1.28061E-03 4.83590E-01-3.98223E-14 3.60675E-13
 -1      1980 2.12604E+01 1.51943E-01 1.53807E-02 5.89051E-01-7.48360E-15 3.16581E-13
 -1      1981 2.10651E+01 2.75954E-01-1.14636E-03 9.00986E-01 7.16354E-15 2.37396E-13
 -1      1982 2.06180E+01 7.25477E-02 1.51581E-03 3.02469E-01-8.82393E-14 1.75018E-13
 -1      1983 2.08140E+01 9.54728E-02 1.08181E-02 3.68403E-01-1.21472E-13 2.41272E-13
 -1      1984 2.07216E+01 1.72956E-01-1.21088E-03 5.72075E-01-1.68641E-14 1.79136E-13
 -1      1985 2.03997E+01 4.46872E-02 1.29857E-03 1.88891E-01 2.25689E-13 1.96804E-13
 -1      1986 2.05234E+01 5.93121E-02 7.23458E-03 2.29734E-01 9.15643E-14 2.31048E-13
 -1      1987 2.04841E+01 1.06834E-01-1.14959E-03 3.61091E-01 8.49321E-15 1.62263E-13
 -1      1988 2.02577E+01 2.75014E-02 9.96391E-04 1.18094E-01 1.67237E-13 2.10350E-14
 -1      1989 2.03355E+01 3.66811E-02 4.70127E-03 1.43315E-01 1.88567E-13 1.68804E-13
 -1      1990 2.03225E+01 6.55790E-02-9.93327E-04 2.27525E-01 2.13729E-13 1.03822E-13
 -1      1991 2.01656E+01 1.70177E-02 7.79913E-04 7.40432E-02 5.18596E-15-9.71117E-14
 -1      1992 2.02144E+01 2.26292E-02 2.99486E-03 8.95994E-02 8.37636E-14-5.18379E-15
 -1      1993 2.02137E+01 4.02243E-02-7.94699E-04 1.43482E-01 1.49747E-13 7.69864E-14
 -1      1994 2.01080E+01 1.08243E-02 5.54253E-04 4.76644E-02 1.25755E-13-1.47829E-13
 -1      1995 2.01379E+01 1.42932E-02 1.93226E-03 5.69920E-02 8.35030E-14-1.33128E-13
 -1      1996 2.01421E+01 2.46822E-02-7.26798E-04 9.15294E-02 8.93919E-14-1.40318E-13
 -1      1997 2.00680E+01 6.69035E-03 3.66317E-04 3.00330E-02-7.97064E-14-1.11870E-13
 -1      1998 2.00881E+01 8.91445E-03 1.22378E-03 3.61939E-02 3.58624E-14-1.30257E-13
 -1      1999 2.00940E+01 1.56223E-02-4.54335E-04 5.88118E-02 1.32360E-14-7.63138E-14
 -1      2000 2.00421E+01 4.18986E-03 2.53194E-04 1.89496E-02-8.89979E-14-1.30285E-13
 -1      2001 2.00548E+01 5.61067E-03 7.88185E-04 2.28159E-02-1.04734E-13-1.27179E-13
 -1      2002 2.00608E+01 9.66156E-03-3.35933E-04 3.73657E-02-1.11877E-13-1.32481E-13
 -1      2003 2.00252E+01 2.64790E-03 1.75680E-04 1.19252E-02 2.38407E-13-3.10243E-13
 -1      2004 2.00333E+01 3.54314E-03 5.02456E-04 1.43690E-02 8.94311E-14-2.52993E-13
 -1      2005 2.00387E+01 6.02993E-03-2.42606E-04 2.37453E-02 1.00959E-13-2.15979E-13
 -1      2006 2.00143E+01 1.68631E-03 1.21907E-04 7.43770E-03 4.95751E-13-3.43956E-13
 -1      2007 2.00194E+01 2.25526E-03 3.21345E-04 8.99525E-03 3.99595E-13-2.32914E-13
 -1      2008 2.00239E+01 3.79419E-03-1.73525E-04 1.50376E-02 2.84680E-13-4.52607E-13
 -1      2009 2.00073E+01 1.08017E-03 8.47311E-05 4.55072E-03-1.04620E-13-4.52233E-13
 -1      2010 2.00104E+01 1.44616E-03 2.06484E-04 5.55019E-03 3.07106E-13-2.74667E-13
 -1      2011 2.00142E+01 2.40515E-03-1.23465E-04 9.43022E-03 3.75108E-13-3.06016E-13
 -1      2012 2.00028E+01 6.93746E-04 5.93300E-05 2.68465E-03-1.21164E-13-4.82399E-13
 -1      2013 2.00047E+01 9.31928E-04 1.33227E-04 3.32831E-03-2.77088E-13-4.69010E-13
 -1      2014 2.00078E+01 1.53282E-03-8.74119E-05 5.79613E-03-1.36516E-13-2.67346E-13
 -1      2015 2.00001E+01 4.45518E-04 4.25375E-05 1.47855E-03 8.08005E-14-5.06721E-13
 -1      2016 2.00012E+01 5.97894E-04 8.52028E-05 1.89076E-03 4.98646E-14-4.40171E-13
 -1      2017 2.00036E+01 9.80289E-04-6.09820E-05 3.43167E-03-3.39846E-14-4.25424E-13
 -1      2018 1.99986E+01 2.88784E-04 3.01123E-05 7.33251E-04 1.99243E-14-5.08770E-13
 -1      2019 1.99991E+01 3.89366E-04 5.53673E-05 9.86708E-04 3.64379E-14-5.43905E-13
 -1      2020 2.00010E+01 6.17989E-04-4.58093E-05 1.91879E-03 6.82227E-14-3.70125E-13
 -1      2021 1.99977E+01 1.74730E-04 2.03398E-05 2.30178E-04-8.95000E-14-2.96376E-13
 -1      2022 1.99980E+01 2.46140E-04 3.58275E-05 3.98233E-04-1.49042E-13-4.13735E-13
 -1      2023 1.99994E+01 3.97610E-04-3.01882E-05 9.41464E-04-1.81071E-13-4.17909E-13
 -1      2024 1.99973E+01 1.00791E-04 1.38503E-05-7.85534E-05 9.38678E-14-1.55158E-13
 -1      2025 1.99974E+01 1.50968E-04 2.30609E-05 2.21244E-05 1.28635E-13-1.56777E-13
 -1      2026 1.99985E+01 2.38907E-04-2.08553E-05 2.97052E-04-1.17064E-13-9.85532E-14
 -1      2027 1.99973E+01 5.20964E-05 9.40554E-06-2.57512E-04-1.29220E-13-1.79770E-13
 -1      2028 1.99972E+01 8.64841E-05 1.41828E-05-2.01866E-04 1.32887E-14-1.90421E-13
 -1      2029 1.99981E+01 1.34960E-04-1.40352E-05-9.96695E-05 5.68174E-14-5.84733E-14
 -1      2030 1.99974E+01 2.03175E-05 6.26256E-06-3.50417E-04-2.02861E-14-2.59620E-13
 -1      2031 1.99972E+01 4.36530E-05 8.24469E-06-3.24414E-04 2.93120E-14-1.68515E-13
 -1      2032 1.99979E+01 6.66837E-05-9.16435E-06-3.30120E-04-3.92376E-14-5.95265E-14
 -1      2033 1.99976E+01 1.93646E-07 4.05600E-06-3.87077E-04 2.09592E-13-4.77068E-13
 -1      2034 1.99974E+01 1.57568E-05 4.31896E-06-3.80185E-04 9.82336E-14-3.89385E-13
 -1      2035 1.99979E+01 2.25130E-05-5.74219E-06-4.49890E-04 1.62425E-13-2.57883E-13
 -1      2036 1.99979E+01-1.18559E-05 2.54029E-06-3.88077E-04-3.56780E-14-5.52148E-13
 -1      2037 1.99977E+01-1.81116E-06 1.75965E-06-3.93027E-04 3.31567E-13-3.26918E-13
 -1      2038 1.99981E+01-5.11489E-06-3.36500E-06-4.97252E-04 2.07184E-13-1.78945E-13
 -1      2039 1.99982E+01-1.82932E-05 1.44279E-06-3.67597E-04-4.71139E-14-7.44895E-13
 -1      2040 1.99980E+01-1.23992E-05 8.44521E-08-3.79492E-04-1.54219E-13-8.05251E-13
 -1      2041 1.99983E+01-2.12661E-05-1.72483E-06-4.98695E-04 8.03888E-14-3.68041E-13
 -1      2042 1.99985E+01-2.11169E-05 7.56371E-07-3.37296E-04 1.16096E-13-7.17043E-13
 -1      2043 1.99983E+01-1.81119E-05-9.94650E-07-3.51843E-04-2.71286E-14-8.87813E-13
 -1      2044 1.99985E+01-2.99530E-05-5.57991E-07-4.73375E-04 6.98292E-14-6.81265E-13
 -1      2045 1.99988E+01-2.21354E-05 2.42278E-07-2.99932E-04 1.28571E-13-8.21678E-13
 -1      2046 1.99986E+01-2.01819E-05-1.40349E-06-3.16432E-04 3.68171E-14-8.42525E-13
 -1      2047 1.99987E+01-3.33608E-05-3.30221E-08-4.33479E-04 1.19546E-13-9.56447E-13
 -1      2048 1.99990E+01-2.17271E-05-1.53530E-07-2.60890E-04-1.24300E-13-9.85091E-13
 -1      2049 1.99989E+01-2.07345E-05-1.68317E-06-2.77483E-04 2.37444E-14-9.21751E-13
 -1      2050 1.99989E+01-3.40205E-05 4.06299E-07-3.85239E-04 1.15131E-13-9.92886E-13
 -1      2051 1.99992E+01-2.10033E-05-4.53137E-07-2.22042E-04-3.60317E-13-8.66999E-13
 -1      2052 1.99991E+01-2.03777E-05-1.77792E-06-2.38268E-04-2.25130E-13-1.00881E-12
 -1      2053 1.99991E+01-3.31438E-05 6.59616E-07-3.34487E-04-2.09793E-13-1.12964E-12
 -1      2054 1.99994E+01-2.07994E-05-7.02644E-07-1.83613E-04-2.06284E-13-6.51985E-13
 -1      2055 1.99993E+01-2.00210E-05-1.74868E-06-1.99656E-04-2.62349E-13-8.08256E-13
 -1      2056 1.99993E+01-3.21423E-05 8.08417E-07-2.83469E-04-2.98720E-13-1.07109E-12
 -1      2057 1.99995E+01-2.18010E-05-8.67887E-07-1.44346E-04 5.99366E-14-5.08848E-13
 -1      2058 1.99995E+01-2.04831E-05-1.60052E-06-1.61001E-04-1.84728E-13-6.26227E-13
 -1      2059 1.99995E+01-3.22661E-05 8.99603E-07-2.32266E-04-2.29668E-13-5.28814E-13
 -1      2060 1.99997E+01-2.44737E-05-8.87637E-07-1.02033E-04-2.66057E-13-5.22159E-13
 -1      2061 1.99996E+01-2.24071E-05-1.23273E-06-1.20458E-04 8.17233E-14-4.71384E-13
 -1      2062 1.99996E+01-3.46040E-05 9.82413E-07-1.79454E-04 7.27727E-14-1.53433E-13
 -1      2063 1.99997E+01-2.68063E-05-1.21325E-06-5.56839E-05 2.14040E-14-6.70652E-13
 -1      2064 1.99997E+01-2.51000E-05-6.63579E-07-7.59996E-05-3.71664E-13-8.22429E-13
 -1      2065 1.99997E+01-3.94597E-05 5.34517E-07-1.22854E-04-9.77334E-14-4.77999E-13
 -1      2066 1.99998E+01-3.50537E-05-1.37360E-06-3.78043E-05-2.04998E-14-4.27210E-13
 -1      2067 1.99998E+01-3.15936E-05-9.18923E-08-4.57556E-05 2.86009E-15-5.33312E-13
 -1      2068 1.99997E+01-4.98239E-05 6.82783E-08-8.20515E-05-1.95390E-13-6.41529E-13
 -1      2069 1.99998E+01-5.96701E-05 2.85572E-07-5.78183E-05-2.67193E-13-4.14438E-13
 -1      2070 1.99998E+01-2.22843E-04 1.94459E-07-1.30527E-04-3.09465E-13-5.94548E-13
 -1      2071 1.99998E+01-1.71671E-04-7.00342E-07-1.21440E-04-8.35444E-14-2.64107E-13
 -1      2072 1.99998E+01-1.34280E-04 1.08411E-07-1.01042E-04-8.37726E-14 1.75029E-13
 -1      2073 1.99998E+01-9.33868E-05-8.68328E-07-8.39269E-05-2.51503E-13 7.73967E-15
 -1      2074 1.99998E+01-8.76707E-05 1.72817E-07-9.87588E-05-1.88682E-15-2.12350E-13
 -1      2075 1.99998E+01-1.56931E-04 2.87437E-07-1.48721E-04 8.36878E-14-2.94957E-14
 -1      2076 1.99998E+01-3.22312E-04 5.13543E-07-1.34787E-04-5.08532E-13-3.47923E-13
 -1      2077 1.99998E+01-2.67852E-04-3.62070E-07-1.35152E-04-3.44734E-13-6.07880E-13
 -1      2078 1.99998E+01-2.37456E-04-4.19261E-08-1.76374E-04-1.42831E-13-6.27842E-13
 -1      2079 1.99998E+01-4.13158E-04 9.18831E-07-1.19759E-04-5.94351E-13 6.62809E-13
 -1      2080 1.99998E+01-3.63779E-04 2.97349E-07-1.27844E-04-6.29914E-13 2.40078E-13
 -1      2081 1.99998E+01-3.23893E-04-5.60180E-07-1.73514E-04-2.80643E-13-6.50087E-14
 -1      2082 1.99998E+01-4.87298E-04 1.26407E-06-8.87913E-05-5.10964E-13 2.04211E-13
 -1      2083 1.99998E+01-4.48114E-04 8.90596E-07-1.03033E-04-7.26836E-13 6.38415E-13
 -1      2084 1.99998E+01-4.00857E-04-1.02124E-06-1.46873E-04-5.64070E-13 5.28268E-13
 -1      2085 1.99998E+01-5.34065E-04 1.47586E-06-4.69976E-05-2.55858E-13 9.02651E-15
 -1      2086 1.99998E+01-5.10964E-04 1.34527E-06-6.51116E-05-2.63000E-13-8.10922E-14
 -1      2087 1.99998E+01-4.60101E-04-1.36470E-06-1.01351E-04-2.91744E-13 2.08444E-13
 -1      2088 1.99998E+01-5.48182E-04 1.51496E-06 1.53565E-07-5.11728E-13-3.84465E-13
 -1      2089 1.99998E+01-5.43953E-04 1.59497E-06-1.95530E-05-3.83182E-13-4.61979E-14
 -1      2090 1.99998E+01-4.94302E-04-1.55189E-06-4.37516E-05-4.88449E-13-1.96776E-13
 -1      2091 1.99998E+01-5.28189E-04 1.36811E-06 4.71136E-05-6.39120E-13-3.94571E-13
 -1      2092 1.99998E+01-5.43292E-04 1.63150E-06 2.81027E-05-4.59654E-13-5.62759E-13
 -1      2093 1.99998E+01-4.99825E-04-1.57661E-06 1.87316E-05-6.06280E-13-4.66836E-13
 -1      2094 1.99998E+01-4.76558E-04 1.04284E-06 8.84301E-05-5.97130E-13-9.67882E-14
 -1      2095 1.99998E+01-5.09128E-04 1.46236E-06 7.23625E-05-6.17627E-13-3.90887E-13
 -1      2096 1.99998E+01-4.76211E-04-1.43442E-06 7.88406E-05-4.40763E-13-3.93297E-13
 -1      2097 1.99998E+01-4.00997E-04 5.30624E-07 1.18536E-04-5.05982E-13 2.80599E-13
 -1      2098 1.99998E+01-4.46058E-04 1.14310E-06 1.07648E-04-4.98963E-13 6.48673E-14
 -1      2099 1.99998E+01-4.26687E-04-1.16308E-06 1.29199E-04-4.29761E-13 7.65841E-14
 -1      2100 1.99998E+01-3.08094E-04-5.98070E-08 1.33691E-04-4.81165E-13 5.03835E-13
 -1      2101 1.99998E+01-3.61328E-04 7.22575E-07 1.29587E-04-4.79743E-13 4.76150E-13
 -1      2102 1.99998E+01-3.56497E-04-7.38942E-07 1.63789E-04-3.30389E-13 3.01654E-13
 -1      2103 1.99998E+01-2.10878E-04-6.17341E-07 1.29598E-04-5.65153E-13-1.79779E-13
 -1      2104 1.99998E+01-2.64334E-04 2.54885E-07 1.33967E-04-5.65024E-13 1.41947E-13
 -1      2105 1.99998E+01-2.72854E-04-1.92170E-07 1.77052E-04-3.61175E-13 1.75572E-13
 -1      2106 1.99998E+01-1.22922E-04-1.33088E-06 1.04023E-04-4.57575E-13 5.39949E-14
 -1      2107 1.99998E+01-1.68005E-04-1.54228E-07 1.17517E-04-4.74469E-13-8.93968E-14
 -1      2108 1.99998E+01-1.85885E-04 6.14563E-08 1.64620E-04-3.96979E-13-1.03748E-13
 -1      2109 1.77762E+01-6.33686E+00-4.05565E-01 5.22810E+00 1.15574E-13 4.36484E-13
 -1      2110 1.22748E+01-7.70513E+00-6.67126E-01 4.31716E+00 3.45279E-14 2.78472E-13
 -1      2111 1.36883E+01-6.71504E+00-2.60501E-01 5.58592E+00-1.35669E-13 1.36002E-13
 -1      2112 1.99998E+01-3.95297E-05-1.08869E-06 4.64073E-05-2.13644E-13 2.40980E-13
 -1      2113-4.76821E-01-7.65203E+00-3.36265E-01-1.72831E+00 2.23647E-13 2.43472E-13
 -1      2114 9.40494E-02-7.74558E+00-3.75763E-01-3.21289E+00 1.47049E-13 2.03726E-13
 -1      2115 4.38914E+01 3.48277E+00 2.84951E-01-3.25217E+00 4.25660E-13 4.16556E-13
 -1      2116 2.01083E+01 3.72792E+00-2.39735E-02-1.85310E+00-4.58622E-14-2.83218E-13
 -1      2117 2.01088E+01 3.68710E+00-3.28551E-02-2.17490E+00-7.98554E-14-2.63584E-13
 -1      2118 2.04104E+01 2.94465E+00-1.97333E-02-2.22736E+00-9.78217E-14-2.20456E-13
 -1      2119 2.04037E+01 3.13988E+00-9.60308E-03-1.67877E+00-4.13107E-14-2.57894E-13
 -1      2120 3.12189E+01-5.35670E+00-1.99223E-01 2.75207E+00 3.45834E-14 3.54716E-13
 -1      2121 2.35215E+01-6.39244E+00-5.98389E-01 3.58260E+00 3.38618E-14 5.13811E-13
 -1      2122 4.36155E+01 4.92843E+00 3.32074E-01 6.40321E-01 4.62630E-13 5.43038E-13
 -1      2123 3.19643E+01-5.02310E+00-3.11881E-01-1.41273E+00 1.73361E-13-3.10862E-15
 -1      2124 3.86727E+01-2.93178E+00 1.82501E-01-1.10119E+00 3.23575E-13 1.07692E-14
 -1      2125 1.97385E+01-6.91900E+00-5.74718E-01-4.52748E+00 2.01728E-13-2.73115E-13
 -1      2126 2.72447E+01-5.47095E+00-1.28859E-01-4.41837E+00 1.70419E-13-1.17129E-13
 -1      2127 1.01025E+01-7.39906E+00-4.78492E-01-4.70882E+00 6.66134E-15-4.22440E-13
 -1      2128 1.52289E+01-6.49293E+00-2.55125E-01-5.57568E+00 1.71529E-13-3.74964E-13
 -1      2129 2.11303E+01-6.42937E+00-9.53433E-02-5.26228E+00-1.26454E-13-9.87960E-14
 -1      2130 1.77176E+00-8.32629E+00-5.47029E-01-1.88412E+00-3.24740E-14-5.71765E-13
 -1      2131 4.75800E+00-6.78094E+00-2.95040E-01-3.82478E+00 5.82867E-14-5.53224E-13
 -1      2132-3.83110E-01-7.37688E+00-3.53208E-01 8.69770E-01-1.31839E-13-5.44786E-13
 -1      2133 1.98809E-01-8.05949E+00-4.50104E-01-5.36604E-01-7.27196E-15-5.92415E-13
 -1      2134 2.52383E+00-4.94905E+00-2.34481E-01-2.25452E+00-8.18789E-14-6.11400E-13
 -1      2135 1.46425E+00-7.11505E+00-3.34736E-01 4.35914E+00-2.67231E-13-4.83280E-13
 -1      2136 1.52875E-01-7.40025E+00-3.51872E-01 3.04217E+00-1.13715E-13-5.04430E-13
 -1      2137 6.29638E+00-5.55103E+00-2.09239E-01 6.77418E+00-3.68705E-13-3.38868E-13
 -1      2138 3.43558E+00-7.41432E+00-4.41436E-01 5.37825E+00-2.84939E-13-4.13614E-13
 -1      2139 3.84032E+00-4.89565E+00-1.75622E-01 5.96066E+00-3.15858E-14-4.49474E-13
 -1      2140 1.51251E+01-3.55795E+00-2.93235E-02 8.38270E+00-4.63962E-13-4.03011E-13
 -1      2141 1.09829E+01-5.54307E+00-2.98688E-01 7.42027E+00-3.87912E-13-3.28997E-13
 -1      2142 2.42297E+01-1.14022E+00 8.67341E-02 8.21821E+00-4.59355E-13-4.42590E-13
 -1      2143 1.90708E+01-3.20953E+00-2.52785E-01 7.62188E+00-4.72844E-13-4.01346E-13
 -1      2144 3.30541E+01 1.41229E+00 8.64809E-02 6.14790E+00-4.48197E-13-2.65787E-13
 -1      2145 2.78141E+01-1.11133E-01-1.19769E-01 6.70148E+00-4.57856E-13-4.09894E-13
 -1      2146 3.95833E+01 4.94435E+00 1.76240E-01 3.04114E+00-5.68101E-13-6.62248E-14
 -1      2147 3.54810E+01 3.43201E+00-6.56482E-02 3.59307E+00-5.31845E-13-1.27010E-13
 -1      2148 4.16944E+01 7.52939E+00 9.94189E-02 8.05818E-01-5.15588E-13-7.11375E-14
 -1      2149 4.02370E+01 6.49330E+00 4.38111E-02 2.25812E+00-5.59580E-13-1.28120E-13
 -1      2150 3.62433E+01 5.78757E+00 1.99013E-01-3.07025E-01-5.02959E-13-1.45994E-14
 -1      2151 4.41761E+01 8.31112E+00 2.90061E-01-9.67378E-01-3.94129E-13 1.48770E-14
 -1      2152 4.30363E+01 8.54168E+00 1.32755E-01 5.74450E-01-4.46421E-13-1.04541E-13
 -1      2153 4.14687E+01 7.06972E+00 1.67457E-01-2.98099E+00-3.48221E-13 1.02585E-13
 -1      2154 4.42409E+01 7.65801E+00 3.31536E-01-1.65303E+00-3.57825E-13 4.11338E-14
 -1      2155 3.91714E+01 9.28712E+00 3.22050E-01-2.04150E-01-3.75755E-13-1.14533E-13
 -1      2156 3.55530E+01 3.60218E+00 3.71176E-02-5.31771E+00-2.33966E-13 2.03615E-13
 -1      2157 3.99056E+01 5.05432E+00 2.79684E-01-4.30658E+00-2.81275E-13 1.46494E-13
 -1      2158 2.75534E+01-4.29678E-01-1.18069E-01-6.69134E+00-4.05787E-14 2.64344E-13
 -1      2159 3.30342E+01 1.84944E+00 2.48756E-01-6.89953E+00-1.51323E-13 2.66787E-13
 -1      2160 1.73192E+01-3.88117E+00-2.55712E-01-7.76490E+00 7.26086E-14 3.00371E-13
 -1      2161 2.29213E+01-1.88245E+00 4.02257E-02-8.45128E+00-2.60902E-15 3.85858E-13
 -1      2162 8.21488E+00-6.35874E+00-3.97659E-01-6.89382E+00 2.96430E-14 2.62276E-13
 -1      2163 1.24891E+01-4.07288E+00-1.05310E-01-8.18838E+00 2.34257E-14 4.03386E-13
 -1      2164 2.09362E+00-7.69007E+00-4.03000E-01-4.84911E+00 1.24289E-13 1.82521E-13
 -1      2165 4.65345E+00-6.08566E+00-2.14591E-01-6.26849E+00-2.77556E-14 2.12108E-13
 -1      2166 2.30292E+01 2.02935E+00 7.67153E-02 1.22219E+00 1.70100E-13 5.02084E-13
 -1      2167 2.18141E+00-6.76654E+00-2.42517E-01 2.26416E+00 7.06102E-14 1.24567E-13
 -1      2168 3.59487E-01-7.31401E+00-3.51415E-01 4.22028E-01 5.79814E-14 2.45470E-13
 -1      2169 1.99998E+01-6.35643E-05-1.04436E-06 8.87863E-05-2.81021E-13 3.00702E-13
 -1      2170 2.14267E+01 1.71174E+00 8.02317E-02-2.62816E+00-1.88488E-13 8.43076E-15
 -1      2171 3.65401E+01-2.42171E+00 4.56168E-02-4.09860E+00 3.92360E-14 1.60191E-13
 -1      2172 3.93635E+01-2.53694E+00 4.77096E-02-1.97383E+00 1.31464E-13 2.10498E-13
 -1      2173 3.45280E+01-4.95035E+00-2.96125E-01-3.16704E-01 4.06897E-14 2.27485E-13
 -1      2174 3.68100E+01-3.17913E+00 1.10566E-01-1.98706E+00-1.03195E-13 2.43291E-13
 -1      2175 3.30517E+01-4.97693E+00 1.54559E-01 3.99097E-01-1.08802E-13 1.57374E-13
 -1      2176 5.77627E+00-5.24013E+00-1.76624E-01 3.95201E+00-3.30291E-14 6.39488E-14
 -1      2177 1.22568E+00-4.46963E+00-1.63281E-01-2.67007E-01 2.09728E-14 1.72362E-13
 -1      2178 3.29418E+01-4.32762E+00 1.88777E-02 2.83355E-01-1.34587E-13 2.11997E-13
 -1      2179 2.05491E+01 1.04932E+00-2.60064E-02-1.93821E+00-1.76893E-13-2.94313E-14
 -1      2180 3.81859E+01 9.37171E-01-1.19729E-01 5.03611E+00 3.99458E-13 7.68469E-13
 -1      2181 3.94075E+01-1.33543E+00-1.62533E-02 4.46697E+00 2.86715E-13 7.62113E-13
 -1      2182 2.05456E+01 1.22248E+00-1.48676E-02-2.10332E+00-1.72782E-13-8.25590E-14
 -1      2183 2.16359E+01 2.04218E+00-3.06612E-02-3.95753E-02 1.82430E-13 2.87917E-13
 -1      2184 2.26498E+01 1.50228E+00 1.96905E-03 2.70405E-01 1.70211E-13 4.54910E-13
 -1      2185 4.67159E+01 2.18742E+00 7.03973E-01 2.20224E+00 5.48561E-13 2.89102E-13
 -1      2186 2.99224E+01-3.05980E+00 1.87337E-01-3.15090E+00-3.01870E-13 5.06269E-13
 -1      2187 2.41786E+01-3.18648E+00 2.28357E-03-5.16236E+00-3.16080E-13 2.14537E-13
 -1      2188 3.10463E+01-4.03286E+00 4.44771E-02-1.60954E+00-2.44610E-13 5.77609E-13
 -1      2189 2.39793E+01-6.72664E+00-9.01588E-02 4.19657E+00-1.74416E-13 2.89657E-13
 -1      2190 4.30146E+01 4.50919E+00 1.68469E-01-2.16728E+00 4.03011E-13 4.41966E-13
 -1      2191 9.96588E-01-4.65738E+00-1.87270E-01 2.06822E+00-4.27297E-14-5.72431E-13
 -1      2192 9.96665E+00-5.80783E+00-1.91871E-01-5.32059E+00-1.37224E-13-4.26825E-13
 -1      2193 1.99998E+01-8.54933E-05 2.83699E-08 9.80576E-05-4.18809E-13 1.99474E-13
 -1      2194 2.43508E+00-4.85998E+00-1.83005E-01-4.93962E+00 1.53960E-13 2.85660E-13
 -1      2195 8.53429E+00-5.25713E+00-1.24720E-01-7.84934E+00 1.18849E-13 1.82132E-13
 -1      2196 1.75943E+01-4.84577E+00 2.48902E-02-8.53282E+00 1.72862E-13 2.56489E-13
 -1      2197 2.71707E+01-3.03042E+00 5.20536E-02-6.43183E+00 2.12275E-13 1.00975E-13
 -1      2198 3.81409E+01 6.02549E+00 2.72822E-01-1.11078E+00-2.68313E-13-1.00253E-13
 -1      2199 3.80399E+01 8.82876E+00 1.98493E-01-4.03430E-01-4.94105E-13-1.25899E-13
 -1      2200 3.40492E+01 1.30935E+00 1.59678E-01 2.46823E+00-3.88953E-13-1.75970E-14
 -1      2201 2.79821E+01-2.51709E+00 1.30980E-01 6.01275E+00-2.83246E-13-1.95177E-13
 -1      2202 1.08163E+01-5.03368E+00-6.85619E-02 8.23725E+00-1.26454E-13-2.97790E-13
 -1      2203 1.99997E+01-1.06131E-04 2.01483E-09 1.43710E-04-5.21133E-13 2.09107E-13
 -1      2204 3.08770E+01-5.81173E+00-1.81480E-02-2.02844E+00 2.49800E-15 1.74638E-13
 -1      2205 4.28930E+01 1.05747E-01 4.15886E-01 8.40625E-01 5.17406E-13 2.05391E-14
 -1      2206 3.93247E+01-2.61209E+00 1.95953E-01 2.67331E+00 2.49852E-13 3.32068E-13
 -1      2207 1.99753E+01-4.54891E+00 9.99740E-03 8.13731E+00-2.21656E-13-2.54310E-13
 -1      2208 3.42104E+01 1.25296E+00 2.09486E-01-3.22764E+00-3.38566E-14-9.07607E-14
 -1      2209 2.05459E+01 2.70139E+00-8.33748E-03-1.61416E-01 9.98282E-14-1.79154E-13
 -1      2210 2.06396E+01 2.65972E+00-1.44674E-02-5.10911E-01 6.09308E-14-1.97923E-13
 -1      2211 2.06819E+01 2.64195E+00-9.73834E-03-8.67606E-01 3.24883E-14-2.11834E-13
 -1      2212 2.06778E+01 2.60683E+00-1.94998E-02-1.19089E+00 2.98573E-15-2.23682E-13
 -1      2213 2.09619E+01 2.11575E+00-4.92086E-03-6.67236E-01 5.44281E-14-1.78795E-13
 -1      2214 1.94886E+01 3.10013E+00-1.33221E-02 1.28625E+00 1.98581E-13-1.78389E-13
 -1      2215 1.98606E+01 2.97457E+00-2.59763E-05 9.75375E-01 1.75163E-13-1.63744E-13
 -1      2216 1.86159E+01 3.51545E+00-1.94345E-02 1.80893E+00 2.28582E-13-1.80776E-13
 -1      2217 1.90741E+01 3.35216E+00 8.03602E-03 1.59515E+00 2.13222E-13-1.90051E-13
 -1      2218 1.95035E+01 2.70207E+00-1.62481E-02 1.61990E+00 2.02157E-13-1.74299E-13
 -1      2219 1.77764E+01 3.99612E+00-2.52573E-02 2.01582E+00 2.45935E-13-1.64385E-13
 -1      2220 1.81831E+01 3.84325E+00 1.21964E-02 1.94717E+00 2.31259E-13-1.79001E-13
 -1      2221 1.85173E+01 3.23352E+00-1.09820E-02 2.10283E+00 2.25742E-13-1.74725E-13
 -1      2222 1.72991E+01 4.38285E+00-2.64207E-02 1.84536E+00 2.72643E-13-1.15374E-13
 -1      2223 1.74727E+01 4.30388E+00 7.89997E-03 1.92886E+00 2.58215E-13-1.46488E-13
 -1      2224 1.76160E+01 3.82788E+00 2.90178E-03 2.17015E+00 2.53403E-13-1.44895E-13
 -1      2225 1.75800E+01 4.42094E+00-2.27823E-02 1.36940E+00 2.72256E-13-4.88273E-14
 -1      2226 1.73302E+01 4.50409E+00-6.28308E-03 1.54730E+00 2.64380E-13-9.58430E-14
 -1      2227 1.72061E+01 4.24034E+00 1.92483E-02 1.75667E+00 2.54675E-13-1.07018E-13
 -1      2228 1.88170E+01 3.87485E+00-2.52281E-02 8.26037E-01 2.55872E-13 5.13834E-14
 -1      2229 1.80958E+01 4.21203E+00-2.23457E-02 9.78350E-01 2.57252E-13 1.69569E-15
 -1      2230 1.76845E+01 4.16884E+00 2.70873E-02 9.92354E-01 2.42734E-13-3.14612E-14
 -1      2231 2.06878E+01 2.75218E+00-7.79140E-03 3.12481E-01 2.15591E-13 1.98983E-13
 -1      2232 1.95980E+01 3.38054E+00-2.07903E-02 4.07049E-01 2.30226E-13 1.00722E-13
 -1      2233 1.89879E+01 3.46998E+00 2.97029E-02 1.22427E-01 2.22317E-13 6.47655E-14
 -1      2234 2.07800E+01 2.31538E+00 3.01021E-02-7.26845E-01 1.67446E-13 2.04723E-13
 -1      2235 3.06294E+01-5.18409E+00-2.71304E-02-1.87644E+00-1.65673E-13 2.88186E-13
 -1      2236 2.17426E+01-4.30262E+00 5.57580E-02-5.49277E+00-3.06977E-13 7.49817E-14
 -1      2237 1.99914E+01-2.47776E+00 1.92336E-01-5.91202E+00-3.20272E-13 4.15779E-14
 -1      2238 2.03582E+01 6.25924E-01 1.14740E-02-1.59745E+00-1.28187E-13-6.92235E-14
 -1      2239 2.00461E+01 3.86600E-01-9.81198E-03-1.37347E+00-1.13076E-13-6.51500E-14
 -1      2240 2.06617E+01 1.76291E+00-1.81631E-02-2.31925E+00-1.44782E-13-1.41255E-13
 -1      2241 2.04231E+01 9.89176E-01-1.34166E-02-1.80448E+00-1.41213E-13-1.01295E-13
 -1      2242 2.05882E+01 1.08711E+00 1.45069E-02-1.84297E+00-1.19620E-13-1.15313E-13
 -1      2243 2.05711E+01 2.13890E+00 1.67133E-04-2.26172E+00-1.29509E-13-1.65964E-13
 -1      2244 1.99334E+01 2.32946E-01 1.48563E-02-1.26115E+00-1.00980E-13-4.81785E-14
 -1      2245 1.96619E+01 1.26189E-01-2.82550E-03-1.17193E+00-7.54739E-14-5.16500E-14
 -1      2246 2.03412E+01 4.38914E-01 2.88252E-03-1.49970E+00-1.09832E-13-7.06383E-14
 -1      2247 1.95152E+01 7.64952E-02 8.31967E-03-1.12412E+00-6.74328E-14-3.89995E-14
 -1      2248 1.92821E+01 5.90920E-02 8.95341E-04-1.08338E+00-4.89181E-14-4.50300E-14
 -1      2249 2.00455E+01 1.56821E-01-4.44128E-04-1.32239E+00-7.16996E-14-6.40560E-14
 -1      2250 1.91198E+01 7.72639E-02 2.94140E-03-1.04821E+00-3.43314E-14-2.92505E-14
 -1      2251 1.89194E+01 1.21095E-01 4.70593E-03-1.00160E+00-4.05016E-14-1.95403E-14
 -1      2252 1.97310E+01 1.07296E-01-6.09158E-04-1.23105E+00-3.98831E-14-3.34247E-14
 -1      2253 1.87515E+01 1.83168E-01 2.89188E-04-9.32690E-01-6.11331E-14-2.37136E-14
 -1      2254 1.85875E+01 2.61156E-01 8.11112E-03-8.44698E-01-7.22784E-14-1.86577E-14
 -1      2255 1.94075E+01 2.11964E-01-1.36124E-03-1.12047E+00-5.30323E-14-2.59040E-15
 -1      2256 1.84343E+01 3.39691E-01 3.76309E-04-7.12353E-01-8.25618E-14-1.98157E-14
 -1      2257 1.83190E+01 4.19281E-01 9.83884E-03-5.68761E-01-6.87419E-14-5.32107E-14
 -1      2258 1.90981E+01 4.01029E-01-3.37836E-03-9.07349E-01-7.86546E-14 1.78002E-14
 -1      2259 1.82102E+01 4.82826E-01 2.66774E-03-3.69807E-01-3.75984E-14-8.50164E-14
 -1      2260 1.81580E+01 5.31122E-01 9.04132E-03-1.80552E-01-2.47053E-14-7.84425E-14
 -1      2261 1.88476E+01 5.93338E-01-6.06692E-03-5.54307E-01-6.10670E-14-8.66809E-14
 -1      2262 1.81204E+01 5.52899E-01 5.91797E-03 5.89185E-02-8.36805E-14-9.87768E-14
 -1      2263 1.81394E+01 5.48312E-01 6.00715E-03 2.63326E-01-1.14863E-13-1.47204E-13
 -1      2264 1.87085E+01 7.08980E-01-7.86975E-03-8.48340E-02-8.06047E-14-1.10511E-13
 -1      2265 1.81825E+01 5.17212E-01 8.41957E-03 4.97304E-01-1.00128E-13-1.45572E-13
 -1      2266 1.82695E+01 4.58753E-01 2.06176E-03 6.77710E-01-8.86682E-14-1.36160E-13
 -1      2267 1.87149E+01 6.96078E-01-7.45083E-03 4.22717E-01-1.07360E-13-1.35651E-13
 -1      2268 1.83783E+01 3.84023E-01 8.79481E-03 8.59380E-01-7.60657E-14-1.42587E-13
 -1      2269 1.85183E+01 2.90659E-01-1.24276E-03 9.83501E-01-4.08886E-14-1.58435E-13
 -1      2270 1.88610E+01 5.51945E-01-4.79648E-03 8.66678E-01-8.63311E-14-1.05591E-13
 -1      2271 1.86608E+01 1.96045E-01 6.79272E-03 1.08380E+00-2.16504E-14-1.17578E-13
 -1      2272 1.88311E+01 9.60785E-02-2.97650E-03 1.13718E+00-2.97256E-15-7.62912E-14
 -1      2273 1.91016E+01 3.21304E-01-1.24724E-03 1.16476E+00-6.76504E-15-8.99635E-14
 -1      2274 1.89728E+01 7.59976E-03 3.26797E-03 1.15269E+00-1.86125E-15-1.02197E-13
 -1      2275 1.91496E+01-7.44470E-02-3.13463E-03 1.14026E+00 1.23183E-14-8.35369E-14
 -1      2276 1.93734E+01 7.20882E-02 1.65854E-03 1.28339E+00-6.69278E-16-6.41031E-14
 -1      2277 1.92664E+01-1.38951E-01-4.61364E-04 1.08854E+00-2.17539E-14-8.29705E-14
 -1      2278 1.94306E+01-1.90327E-01-2.30756E-03 1.02840E+00-1.94054E-14-7.73918E-14
 -1      2279 1.96212E+01-1.35604E-01 3.09960E-03 1.24008E+00-1.46001E-15-4.01549E-14
 -1      2280 1.95129E+01-2.24970E-01-3.34722E-03 9.36505E-01-7.78199E-14-6.06753E-14
 -1      2281 1.96527E+01-2.45098E-01-1.17936E-03 8.50933E-01-7.79265E-14-9.04235E-14
 -1      2282 1.98136E+01-2.69149E-01 3.19864E-03 1.08445E+00-4.45359E-14 1.18828E-14
 -1      2283 1.97023E+01-2.53470E-01-4.95645E-03 7.44808E-01-9.80375E-14-8.43190E-14
 -1      2284 1.98129E+01-2.49485E-01-2.02338E-04 6.53326E-01-1.00207E-13-8.48024E-14
 -1      2285 1.99437E+01-3.25436E-01 2.56873E-03 8.73592E-01-1.09416E-13 5.69107E-15
 -1      2286 1.98374E+01-2.39805E-01-5.38856E-03 5.51881E-01-5.28418E-14-1.22655E-13
 -1      2287 1.99196E+01-2.21369E-01 4.22288E-04 4.67897E-01 6.55671E-15-1.37813E-13
 -1      2288 2.00201E+01-3.20945E-01 1.73361E-03 6.54693E-01-9.17210E-14-7.58221E-15
 -1      2289 1.99276E+01-2.02285E-01-4.99657E-03 3.81777E-01-1.89799E-14-1.97934E-13
 -1      2290 1.99850E+01-1.77980E-01 7.07921E-04 3.12310E-01 1.04083E-14-2.82415E-13
 -1      2291 2.00576E+01-2.79032E-01 1.00951E-03 4.58182E-01-5.82580E-14-1.29907E-13
 -1      2292 1.99838E+01-1.56257E-01-4.16618E-03 2.45366E-01 1.12765E-13-2.61173E-13
 -1      2293 2.00213E+01-1.32044E-01 7.52216E-04 1.92433E-01 1.35263E-13-1.76368E-13
 -1      2294 2.00705E+01-2.20992E-01 5.05128E-04 2.98544E-01 4.93220E-14-1.42036E-13
 -1      2295 2.00159E+01-1.11903E-01-3.20189E-03 1.44096E-01 7.31357E-14-1.92685E-13
 -1      2296 2.00385E+01-9.10578E-02 6.63025E-04 1.06569E-01 3.08927E-15-2.01872E-13
 -1      2297 2.00696E+01-1.61939E-01 2.03686E-04 1.78678E-01 7.71429E-14-1.37545E-13
 -1      2298 2.00318E+01-7.45214E-02-2.29456E-03 7.40039E-02-1.61166E-14-1.53077E-13
 -1      2299 2.00440E+01-5.82653E-02 5.22458E-04 4.92177E-02 3.29612E-14-5.22349E-14
 -1      2300 2.00623E+01-1.10407E-01 4.61442E-05 9.47233E-02 3.68675E-14-1.46996E-13
 -1      2301 2.00374E+01-4.58374E-02-1.53780E-03 2.88445E-02 5.67970E-14-7.08697E-14
 -1      2302 2.00427E+01-3.41178E-02 3.80289E-04 1.37229E-02 4.63298E-14-4.51248E-14
 -1      2303 2.00526E+01-6.97968E-02-2.51346E-05 3.98510E-02 4.17097E-14-5.83679E-14
 -1      2304 2.00369E+01-2.54458E-02-9.58364E-04 2.10687E-03-2.05175E-14-8.62664E-14
 -1      2305 2.00380E+01-1.75757E-02 2.60184E-04-6.19546E-03-1.14496E-13-1.24251E-13
 -1      2306 2.00429E+01-4.02432E-02-5.14881E-05 6.71561E-03-2.16052E-14-1.30262E-13
 -1      2307 2.00332E+01-1.19395E-02-5.44719E-04-1.19264E-02-1.75860E-13-1.29626E-13
 -1      2308 2.00318E+01-7.02855E-03 1.69063E-04-1.57358E-02-1.09517E-13-1.81437E-13
 -1      2309 2.00341E+01-2.02088E-02-5.75677E-05-1.12411E-02-1.49719E-13-8.92966E-14
 -1      2310 2.00280E+01-3.64253E-03-2.67997E-04-1.77764E-02 9.46686E-15-2.50644E-13
 -1      2311 2.00255E+01-8.39675E-04 1.05037E-04-1.88384E-02-6.03243E-14-1.89640E-13
 -1      2312 2.00265E+01-7.57316E-03-5.59431E-05-1.92715E-02-1.23359E-13-1.58996E-13
 -1      2313 2.00225E+01 9.92760E-04-9.51588E-05-1.87524E-02-4.64309E-14-1.43971E-13
 -1      2314 2.00197E+01 2.39194E-03 6.27204E-05-1.82885E-02 8.08244E-14-1.31760E-14
 -1      2315 2.00202E+01-2.59106E-04-5.20098E-05-2.12671E-02-1.36877E-14-1.93233E-13
 -1      2316 2.00173E+01 3.22115E-03 4.02442E-06-1.71219E-02 1.07823E-14 1.47602E-14
 -1      2317 2.00146E+01 3.74787E-03 3.61954E-05-1.59333E-02 1.60711E-14-1.06080E-14
 -1      2318 2.00151E+01 3.47755E-03-4.75919E-05-1.99305E-02 4.63843E-14-7.07140E-14
 -1      2319 2.00128E+01 3.97490E-03 5.41089E-05-1.43429E-02 3.31004E-14 5.02422E-14
 -1      2320 2.00104E+01 4.00223E-03 2.03627E-05-1.29197E-02 5.80626E-14 2.35406E-14
 -1      2321 2.00110E+01 4.96677E-03-4.30724E-05-1.70275E-02 6.72677E-14 1.24638E-13
 -1      2322 2.00090E+01 3.90062E-03 7.34957E-05-1.12871E-02 6.41943E-14 2.02554E-14
 -1      2323 2.00070E+01 3.67464E-03 1.13500E-05-9.90419E-03 1.95762E-13 7.97213E-14
 -1      2324 2.00077E+01 5.15164E-03-3.84363E-05-1.36369E-02 6.38272E-14 1.43323E-13
 -1      2325 2.00060E+01 3.41975E-03 7.51197E-05-8.42841E-03 9.02899E-14 5.13091E-14
 -1      2326 2.00045E+01 3.09273E-03 6.45526E-06-7.22011E-03 8.74273E-14 1.37262E-13
 -1      2327 2.00053E+01 4.66010E-03-3.36743E-05-1.03640E-02 1.52834E-13 1.54032E-13
 -1      2328 2.00037E+01 2.78970E-03 6.75644E-05-5.98505E-03 9.05795E-14 1.39470E-13
 -1      2329 2.00026E+01 2.44901E-03 3.91414E-06-4.99987E-03 1.12445E-13 2.49568E-13
 -1      2330 2.00034E+01 3.88487E-03-2.88726E-05-7.50499E-03 8.89654E-14 1.35855E-13
 -1      2331 2.00020E+01 2.15563E-03 5.61982E-05-4.02220E-03 8.03133E-14 2.43966E-13
 -1      2332 2.00012E+01 1.84621E-03 2.63978E-06-3.26007E-03-2.40242E-15 1.92129E-13
 -1      2333 2.00020E+01 3.05431E-03-2.41830E-05-5.16646E-03 4.58738E-14 1.41305E-13
 -1      2334 2.00008E+01 1.59012E-03 4.41496E-05-2.52070E-03-1.16773E-13 1.13383E-13
 -1      2335 2.00003E+01 1.33081E-03 2.00137E-06-1.95719E-03-2.56836E-13 4.22647E-14
 -1      2336 2.00010E+01 2.28841E-03-1.97676E-05-3.34736E-03-1.65371E-13 1.83878E-13
 -1      2337 2.00000E+01 1.12165E-03 3.30672E-05-1.42101E-03-1.61374E-13 7.39790E-14
 -1      2338 1.99997E+01 9.16250E-04 1.65646E-06-1.02218E-03 1.27702E-13 6.98563E-14
 -1      2339 2.00003E+01 1.63969E-03-1.57582E-05-1.99209E-03-1.78686E-13 6.93645E-14
 -1      2340 1.99995E+01 7.53684E-04 2.36748E-05-6.49716E-04 7.04591E-14 2.59694E-14
 -1      2341 1.99993E+01 5.98185E-04 1.43283E-06-3.80508E-04 1.06717E-13-3.97648E-15
 -1      2342 1.99999E+01 1.12142E-03-1.22409E-05-1.02335E-03 7.68485E-14 9.55297E-14
 -1      2343 1.99992E+01 4.76989E-04 1.61546E-05-1.34231E-04 1.47983E-13 6.34057E-14
 -1      2344 1.99991E+01 3.63959E-04 1.25195E-06 3.72197E-05 1.02047E-13 2.29381E-13
 -1      2345 1.99996E+01 7.25983E-04-9.25408E-06-3.60852E-04 1.69131E-13 6.31883E-14
 -1      2346 1.99991E+01 2.77053E-04 1.03993E-05 1.89932E-04 2.57884E-14 2.21386E-13
 -1      2347 1.99991E+01 1.98157E-04 1.08297E-06 2.90475E-04-1.36210E-13 2.13368E-13
 -1      2348 1.99994E+01 4.36252E-04-6.79266E-06 6.88140E-05 1.01221E-13 1.01238E-13
 -1      2349 1.99991E+01 1.38283E-04 6.16775E-06 3.76342E-04-1.26213E-14 2.73091E-13
 -1      2350 1.99991E+01 8.56107E-05 9.16323E-07 4.27425E-04 2.01327E-13 3.63634E-13
 -1      2351 1.99993E+01 2.32211E-04-4.81958E-06 3.27962E-04-6.98496E-14 1.42866E-13
 -1      2352 1.99991E+01 4.61698E-05 3.17728E-06 4.67358E-04 3.97283E-15 3.43129E-13
 -1      2353 1.99991E+01 1.28296E-05 7.48926E-07 4.85378E-04-5.30121E-14 2.68322E-13
 -1      2354 1.99993E+01 9.44890E-05-3.27894E-06 4.66759E-04 3.11832E-14 2.83210E-13
 -1      2355 1.99991E+01-1.17964E-05 1.15464E-06 4.95093E-04-2.30079E-14 2.56082E-13
 -1      2356 1.99992E+01-3.15159E-05 5.76779E-07 4.92074E-04-5.61924E-15 2.90287E-13
 -1      2357 1.99994E+01 5.99458E-06-2.10666E-06 5.23904E-04-3.65723E-14 2.24018E-13
 -1      2358 1.99992E+01-4.59273E-05-1.39212E-07 4.82902E-04-1.02402E-14 2.71933E-13
 -1      2359 1.99993E+01-5.66258E-05 3.92795E-07 4.67243E-04 2.91794E-13 2.71309E-13
 -1      2360 1.99994E+01-4.75624E-05-1.23881E-06 5.28071E-04-3.60219E-14 2.79454E-13
 -1      2361 1.99993E+01-6.45191E-05-9.00023E-07 4.46944E-04 5.05535E-13 1.47693E-13
 -1      2362 1.99994E+01-6.98688E-05 1.86326E-07 4.24120E-04 3.29724E-13 2.09329E-13
 -1      2363 1.99995E+01-7.77645E-05-6.16753E-07 4.99581E-04 1.97933E-13 1.35855E-13
 -1      2364 1.99994E+01-7.42183E-05-1.27729E-06 3.97597E-04-2.38043E-14 1.79863E-13
 -1      2365 1.99995E+01-7.71526E-05-5.09533E-08 3.70755E-04-1.23987E-13 1.46764E-13
 -1      2366 1.99995E+01-9.39008E-05-1.95817E-07 4.52015E-04 7.66043E-14 1.20262E-13
 -1      2367 1.99995E+01-8.03190E-05-1.38174E-06 3.40659E-04-6.73696E-14 1.59745E-13
 -1      2368 1.99996E+01-8.30772E-05-2.99502E-07 3.11181E-04-9.47229E-14 1.58587E-13
 -1      2369 1.99996E+01-1.03356E-04 6.45131E-08 3.93598E-04-1.72734E-13 3.16525E-13
 -1      2370 1.99996E+01-8.69596E-05-1.36536E-06 2.78598E-04 1.65493E-15 1.26676E-13
 -1      2371 1.99997E+01-9.09497E-05-6.15575E-07 2.46647E-04 2.28348E-13 2.83540E-13
 -1      2372 1.99996E+01-1.11656E-04 1.85353E-07 3.28483E-04-5.39085E-14 1.75542E-13
 -1      2373 1.99997E+01-9.71597E-05-1.23689E-06 2.13760E-04 1.28847E-13 1.20622E-13
 -1      2374 1.99997E+01-1.02764E-04-1.07391E-06 1.79230E-04-1.76701E-13 1.48262E-13
 -1      2375 1.99997E+01-1.36505E-04 5.12321E-07 1.88183E-04-2.10877E-13 1.46138E-13
 -1      2376 1.99997E+01-1.23309E-04 3.59816E-07 2.60037E-04 9.98543E-14 5.82293E-14
 -1      2377 1.96010E+01 2.14254E+00 4.09193E-02-3.36597E+00 2.93862E-15 1.14751E-13
 -1      2378 1.96760E+01 2.19632E+00-1.24366E-03-2.65250E+00 5.12398E-14 1.41019E-13
 -1      2379 1.91867E+01-7.15053E-01 1.26219E-01-5.66274E+00-2.32633E-13 3.58047E-14
 -1      2380 1.87434E+01 6.09704E-01 1.21738E-01-5.37847E+00-1.69961E-13 4.78506E-14
 -1      2381 2.29335E+01-4.44695E+00-2.42529E-02 7.48155E+00-7.60225E-14-9.54514E-14
 -1      2382 1.91453E+01-4.67268E+00 6.60449E-02 8.03298E+00-1.75415E-14-1.41959E-13
 -1      2383 9.59048E+00-3.98811E+00 3.11460E-02 5.38762E+00-3.68039E-14-5.65104E-14
 -1      2384 5.97203E+00-2.82254E+00 7.44977E-02 3.86058E+00-6.28386E-14 5.52891E-14
 -1      2385 2.99888E+01-5.31523E+00 1.83998E-02 2.76890E+00-1.86018E-13 2.45262E-13
 -1      2386 2.36868E+01-1.62133E+00 1.93819E-01 5.32642E+00-8.50847E-14 1.89460E-13
 -1      2387 2.53846E+01-3.58947E+00 8.47982E-02 4.52730E+00-1.39666E-13 2.25753E-13
 -1      2388 2.10181E+01 1.21919E+00-1.65188E-02 2.89842E+00-4.97285E-14 1.95097E-13
 -1      2389 2.14956E+01 1.32995E+00 3.72702E-02 3.38607E+00 5.26454E-14 1.87812E-13
 -1      2390 2.08882E+01 9.14354E-01-1.35478E-02 1.99661E+00 3.86323E-15 1.82227E-13
 -1      2391 2.12743E+01 1.08250E+00 2.91601E-02 2.41703E+00-2.23328E-14 1.54637E-13
 -1      2392 1.97637E+01 1.59465E+00 3.38453E-02 2.71561E+00 8.70137E-15 2.15674E-13
 -1      2393 2.07283E+01 6.27024E-01-7.84253E-03 1.33529E+00-1.19210E-13 6.98914E-14
 -1      2394 2.10227E+01 7.71022E-01 2.41642E-02 1.64012E+00-6.25125E-14 3.90879E-14
 -1      2395 2.00930E+01 1.17612E+00 1.99986E-02 1.89641E+00 3.96150E-14 9.82185E-14
 -1      2396 2.05653E+01 4.11003E-01-4.04815E-03 8.76795E-01 2.41118E-14 7.78488E-14
 -1      2397 2.07807E+01 5.16013E-01 1.88502E-02 1.08429E+00-5.38302E-14 1.06453E-14
 -1      2398 2.02253E+01 8.03228E-01 1.11498E-02 1.29039E+00-5.03434E-14-1.25637E-13
 -1      2399 2.04217E+01 2.63105E-01-1.94133E-03 5.69553E-01-1.54807E-14 5.34984E-14
 -1      2400 2.05741E+01 3.34114E-01 1.36878E-02 7.05967E-01 4.77335E-14 1.12498E-13
 -1      2401 2.02499E+01 5.26711E-01 5.72220E-03 8.62458E-01 2.79074E-14 2.65110E-14
 -1      2402 2.03060E+01 1.66382E-01-8.55772E-04 3.67888E-01 8.51025E-14 1.53674E-14
 -1      2403 2.04113E+01 2.12602E-01 9.46616E-03 4.55853E-01-1.20343E-13 3.46936E-14
 -1      2404 2.02257E+01 3.37812E-01 2.62217E-03 5.69856E-01-4.50109E-14-6.91041E-14
 -1      2405 2.02177E+01 1.04637E-01-3.19954E-04 2.37127E-01 2.59153E-13-4.82737E-14
 -1      2406 2.02893E+01 1.34103E-01 6.34547E-03 2.93274E-01 2.62492E-13-5.79948E-14
 -1      2407 2.01851E+01 2.14113E-01 9.84697E-04 3.74035E-01 1.77765E-13-1.58263E-13
 -1      2408 2.01528E+01 6.58418E-02 1.76281E-05 1.52917E-01 7.44526E-14-7.16699E-14
 -1      2409 2.02008E+01 8.42846E-02 4.17219E-03 1.88563E-01 1.74436E-13-3.10808E-14
 -1      2410 2.01436E+01 1.34944E-01 1.83390E-04 2.44748E-01 2.09985E-13-1.59520E-13
 -1      2411 2.01077E+01 4.24271E-02 1.04839E-04 1.00969E-01 1.56235E-13-1.35493E-13
 -1      2412 2.01390E+01 5.37862E-02 2.76277E-03 1.22851E-01 1.27647E-13-4.65394E-15
 -1      2413 2.01082E+01 8.55234E-02-2.88200E-04 1.61505E-01 1.10584E-13-7.59370E-14
 -1      2414 2.00735E+01 2.67331E-02 8.92431E-05 6.52985E-02-6.09456E-14-1.04554E-14
 -1      2415 2.00956E+01 3.41391E-02 1.78330E-03 8.00334E-02 2.68939E-14-1.71796E-13
 -1      2416 2.00797E+01 5.48419E-02-2.47478E-04 1.06978E-01 1.01740E-13-2.16518E-14
 -1      2417 2.00496E+01 1.69758E-02 9.15937E-05 4.23153E-02-7.88846E-14-1.96700E-13
 -1      2418 2.00643E+01 2.16508E-02 1.16551E-03 5.17457E-02 1.98486E-14-8.74524E-14
 -1      2419 2.00570E+01 3.46898E-02-2.63077E-04 7.00946E-02 1.52161E-14-4.33867E-14
 -1      2420 2.00328E+01 1.08609E-02 8.33348E-05 2.74121E-02 1.72458E-13-4.52289E-13
 -1      2421 2.00426E+01 1.38015E-02 7.55999E-04 3.34770E-02 5.30953E-14-3.58710E-13
 -1      2422 2.00400E+01 2.20777E-02-2.34896E-04 4.59558E-02 9.23161E-14-3.76074E-13
 -1      2423 2.00212E+01 7.00163E-03 6.98954E-05 1.76864E-02 3.69422E-13-2.94357E-13
 -1      2424 2.00277E+01 8.86286E-03 4.91260E-04 2.16141E-02 2.44163E-13-3.00921E-13
 -1      2425 2.00274E+01 1.41484E-02-1.93452E-04 3.00872E-02 1.96829E-13-3.61855E-13
 -1      2426 2.00132E+01 4.54454E-03 5.60102E-05 1.12991E-02 2.16439E-13-1.59845E-13
 -1      2427 2.00175E+01 5.73313E-03 3.20554E-04 1.38600E-02 3.73084E-13-2.89634E-13
 -1      2428 2.00184E+01 9.13250E-03-1.52314E-04 1.95995E-02 2.67372E-13-1.16664E-13
 -1      2429 2.00078E+01 2.96361E-03 4.38632E-05 7.08268E-03-2.21454E-13-2.02014E-13
 -1      2430 2.00106E+01 3.73038E-03 2.10041E-04 8.76095E-03 4.26202E-15-1.15163E-13
 -1      2431 2.00119E+01 5.93165E-03-1.16542E-04 1.26308E-02 1.18960E-13-3.35575E-14
 -1      2432 2.00041E+01 1.93667E-03 3.56519E-05 4.29325E-03 5.60293E-14-3.17288E-13
 -1      2433 2.00059E+01 2.43083E-03 1.37061E-04 5.39331E-03-1.72550E-13-3.11096E-13
 -1      2434 2.00074E+01 3.86871E-03-8.70938E-05 7.98155E-03-2.00888E-14-1.33083E-13
 -1      2435 2.00018E+01 1.28517E-03 2.70690E-05 2.52445E-03-7.17452E-14-2.09343E-13
 -1      2436 2.00029E+01 1.60524E-03 9.12404E-05 3.21900E-03 9.05076E-14-2.86547E-13
 -1      2437 2.00043E+01 2.52985E-03-6.97805E-05 4.92898E-03 6.64776E-14-2.14291E-13
 -1      2438 2.00003E+01 8.18612E-04 1.87642E-05 1.28712E-03-3.17247E-13-1.36106E-13
 -1      2439 2.00010E+01 1.04058E-03 5.97355E-05 1.76451E-03-1.30448E-13-2.25984E-13
 -1      2440 2.00022E+01 1.66683E-03-4.74986E-05 2.89146E-03-1.19556E-13 4.74509E-14
 -1      2441 1.99994E+01 5.07599E-04 1.33881E-05 4.89702E-04-2.89171E-14-5.75292E-14
 -1      2442 1.99997E+01 6.58778E-04 3.93964E-05 7.93281E-04-3.86404E-13-2.36301E-13
 -1      2443 2.00008E+01 1.05857E-03-3.44979E-05 1.49712E-03-2.12817E-13 2.97412E-15
 -1      2444 1.99988E+01 2.98826E-04 9.53772E-06-9.85661E-06-1.26268E-13-1.62023E-15
 -1      2445 1.99990E+01 4.00117E-04 2.50775E-05 1.75853E-04 1.55121E-13 3.45190E-14
 -1      2446 1.99999E+01 6.51684E-04-2.45693E-05 5.91721E-04-2.74911E-14-3.68641E-14
 -1      2447 1.99986E+01 1.59269E-04 6.67257E-06-3.07363E-04 3.57979E-14-8.01625E-14
 -1      2448 1.99986E+01 2.26541E-04 1.54035E-05-2.01063E-04-8.31374E-14-1.12814E-13
 -1      2449 1.99994E+01 3.78542E-04-1.72034E-05 2.10129E-05 7.87295E-15-9.63016E-14
 -1      2450 1.99985E+01 6.74414E-05 4.57008E-06-4.68847E-04 3.10364E-13-1.17055E-13
 -1      2451 1.99985E+01 1.11232E-04 8.89169E-06-4.15468E-04 3.06110E-13-6.75298E-15
 -1      2452 1.99991E+01 1.96533E-04-1.18132E-05-3.21200E-04 1.68097E-13-3.09920E-13
 -1      2453 1.99986E+01 8.81646E-06 3.07961E-06-5.40294E-04 1.04321E-13 2.42443E-14
 -1      2454 1.99985E+01 3.62834E-05 4.55187E-06-5.21458E-04 9.21283E-14-2.08599E-13
 -1      2455 1.99990E+01 7.73889E-05-7.90650E-06-5.08904E-04 3.05936E-13-2.49878E-14
 -1      2456 1.99987E+01-2.66875E-05 1.98871E-06-5.53786E-04 3.32017E-13-3.42596E-13
 -1      2457 1.99986E+01-1.08218E-05 1.64671E-06-5.56850E-04 4.44329E-13-1.23497E-13
 -1      2458 1.99990E+01 2.01596E-06-5.08379E-06-5.93964E-04 3.69784E-13-1.74129E-13
 -1      2459 1.99988E+01-4.58873E-05 1.25965E-06-5.33593E-04 2.78078E-13-7.73210E-13
 -1      2460 1.99987E+01-3.78980E-05-2.06833E-07-5.48503E-04 2.08292E-13-5.66720E-13
 -1      2461 1.99990E+01-4.32224E-05-3.14698E-06-6.13165E-04 4.29069E-13-5.05662E-13
 -1      2462 1.99990E+01-5.61321E-05 6.78877E-07-4.92282E-04 2.83261E-13-9.92044E-13
 -1      2463 1.99989E+01-5.23557E-05-1.16091E-06-5.14819E-04 2.22905E-13-8.83469E-13
 -1      2464 1.99991E+01-6.75200E-05-1.81909E-06-5.92554E-04 3.75816E-13-7.77278E-13
 -1      2465 1.99992E+01-5.97017E-05 2.36853E-07-4.40197E-04 7.72489E-15-1.07638E-12
 -1      2466 1.99991E+01-5.87211E-05-1.73023E-06-4.66025E-04 9.74044E-14-9.62488E-13
 -1      2467 1.99992E+01-7.97770E-05-8.82979E-07-5.47756E-04 1.42994E-13-8.70946E-13
 -1      2468 1.99993E+01-6.00020E-05-1.11302E-07-3.83541E-04-2.57507E-13-1.03304E-12
 -1      2469 1.99992E+01-6.03596E-05-2.00388E-06-4.10530E-04-1.58973E-13-1.16254E-12
 -1      2470 1.99993E+01-8.38395E-05-2.54661E-07-4.90165E-04-5.99782E-14-8.36266E-13
 -1      2471 1.99994E+01-5.97309E-05-4.27803E-07-3.25248E-04-3.69384E-13-1.07660E-12
 -1      2472 1.99993E+01-6.00652E-05-2.04634E-06-3.52568E-04-3.85949E-13-1.22911E-12
 -1      2473 1.99994E+01-8.41954E-05 1.43283E-07-4.26648E-04-2.60027E-13-9.82773E-13
 -1      2474 1.99995E+01-6.12365E-05-7.83408E-07-2.65807E-04-3.82706E-13-5.27526E-13
 -1      2475 1.99995E+01-6.03745E-05-1.95103E-06-2.93689E-04-3.88400E-13-7.62109E-13
 -1      2476 1.99995E+01-8.44043E-05 3.65567E-07-3.60587E-04-6.05998E-13-8.41816E-13
 -1      2477 1.99996E+01-6.56516E-05-9.67006E-07-2.04116E-04 1.01448E-13-3.34163E-13
 -1      2478 1.99996E+01-6.29428E-05-1.71779E-06-2.33061E-04 5.51190E-14-3.22646E-13
 -1      2479 1.99996E+01-8.73084E-05 5.02289E-07-2.92650E-04-1.98988E-13-4.98127E-13
 -1      2480 1.99997E+01-7.95928E-05-9.30283E-07-1.14197E-04 9.61749E-15-3.74356E-13
 -1      2481 1.99997E+01-7.22788E-05-6.46540E-07-1.26285E-04-6.87605E-14-3.40804E-13
 -1      2482 1.99997E+01-1.11105E-04-2.07261E-07-1.41830E-04 6.04363E-14 5.37267E-14
 -1      2483 1.99998E+01-3.26059E-04 1.29842E-06-2.02203E-04-3.25493E-13-1.36299E-13
 -1      2484 1.99998E+01-2.87845E-04-5.64296E-07-2.10814E-04 4.66307E-15-5.72661E-13
 -1      2485 1.99999E+01-3.91481E-04 1.49150E-06-1.63459E-04-5.02078E-13 5.11180E-13
 -1      2486 1.99998E+01-3.59078E-04 1.10795E-07-1.83754E-04-6.18709E-13 3.85814E-13
 -1      2487 1.99998E+01-3.27130E-04-8.06657E-07-2.23369E-04-2.86368E-13-1.90953E-14
 -1      2488 1.99998E+01-2.48993E-04 9.93456E-07-2.14515E-04 1.80499E-13-4.69178E-13
 -1      2489 1.99998E+01-2.08007E-04-1.15078E-06-2.09489E-04 1.47096E-13-5.99963E-13
 -1      2490 1.99998E+01-2.57779E-04-4.87915E-07-2.47740E-04 2.23927E-13-5.66559E-13
 -1      2491 1.99999E+01-4.37936E-04 1.54540E-06-1.04878E-04-5.04975E-13 2.33337E-13
 -1      2492 1.99999E+01-4.15745E-04 7.08995E-07-1.33520E-04-5.58948E-13 5.93059E-13
 -1      2493 1.99999E+01-3.82656E-04-1.07083E-06-1.71165E-04-5.03654E-13 5.85679E-13
 -1      2494 1.99999E+01-4.60922E-04 1.45699E-06-3.43778E-05-7.05874E-13-3.90135E-13
 -1      2495 1.99999E+01-4.51441E-04 1.16493E-06-6.75967E-05-6.26619E-13-1.45476E-13
 -1      2496 1.99999E+01-4.19378E-04-1.23704E-06-9.89696E-05-5.82222E-13-7.27658E-14
 -1      2497 1.99999E+01-4.58393E-04 1.22143E-06 3.96877E-05-6.04388E-13-4.68844E-13
 -1      2498 1.99999E+01-4.62647E-04 1.44994E-06 5.81051E-06-5.91547E-13-5.76388E-13
 -1      2499 1.99999E+01-4.34223E-04-1.29340E-06-1.58833E-05-5.29688E-13-3.83431E-13
 -1      2500 1.99999E+01-4.30835E-04 8.52560E-07 1.08957E-04-3.20329E-13-1.52785E-13
 -1      2501 1.99999E+01-4.48321E-04 1.55640E-06 7.83117E-05-4.17212E-13-4.44808E-13
 -1      2502 1.99999E+01-4.26114E-04-1.23749E-06 6.86163E-05-3.09761E-13-3.09782E-13
 -1      2503 1.99999E+01-3.82265E-04 3.37854E-07 1.64633E-04-2.95951E-13 2.57490E-13
 -1      2504 1.99999E+01-4.10356E-04 1.51943E-06 1.41189E-04-3.69941E-13 1.58574E-13
 -1      2505 1.99999E+01-3.96317E-04-1.09184E-06 1.44589E-04-1.31956E-14 4.08855E-14
 -1      2506 1.99998E+01-3.15992E-04-2.96081E-07 2.01490E-04-2.36424E-13 3.33877E-13
 -1      2507 1.99998E+01-3.52471E-04 1.36290E-06 1.87743E-04-2.44614E-13 2.78946E-13
 -1      2508 1.99999E+01-3.47550E-04-8.31398E-07 2.04067E-04-2.07893E-13 3.06311E-13
 -1      2509 1.99998E+01-2.38936E-04-5.91918E-07 2.11487E-04-3.01328E-13 1.70220E-13
 -1      2510 1.99998E+01-2.79419E-04 1.02786E-06 2.11240E-04-2.86773E-13 2.34195E-13
 -1      2511 1.99998E+01-2.83323E-04-5.38369E-07 2.39871E-04-2.76952E-13 3.24480E-13
 -1      2512 1.99998E+01-1.67956E-04-7.39547E-07 1.97986E-04-2.10010E-13-8.15998E-14
 -1      2513 1.99998E+01-2.08662E-04 5.19512E-07 2.11548E-04-2.27913E-13-9.79444E-14
 -1      2514 1.99998E+01-2.18570E-04 2.23654E-08 2.48268E-04-1.43235E-13 1.81559E-13
 -1      2515 1.99997E+01-1.60360E-04-6.48449E-07 2.36392E-04 1.39330E-13-1.78607E-13
 -1      2516 1.62350E+01-5.67183E+00-6.99132E-02 5.79345E+00-1.53821E-13 1.63425E-13
 -1      2517 1.23582E+01-4.95245E+00 9.63725E-04 5.63884E+00-1.09357E-13 7.28584E-14
 -1      2518 1.21059E+01-3.17087E+00 1.16490E-01 5.60749E+00-9.20375E-14-4.14668E-14
 -1      2519 8.40431E+00-3.79021E+00 1.06068E-01-7.59610E+00 1.80023E-13 1.12299E-13
 -1      2520 1.20636E+01-4.33011E+00 2.47831E-02-8.69540E+00 1.85185E-13 1.82326E-13
 -1      2521 3.31156E+01 1.19009E+00-2.12191E-01 4.11717E-01-3.41990E-13 1.28397E-13
 -1      2522 3.17013E+01-9.73743E-01-5.33925E-03 2.30756E+00-2.40578E-13 5.75096E-14
 -1      2523 2.11094E+01 1.33214E+00 7.01251E-04 3.97945E+00 1.08146E-13 1.64559E-13
 -1      2524 2.17405E+01 1.15660E+00 5.70017E-02 4.46357E+00 1.07336E-13 1.65386E-13
 -1      2525 1.91449E+01 1.83675E+00 5.27524E-02 3.75488E+00 6.72166E-14 1.98661E-13
 -1      2526 2.13968E+01 7.13479E-01 7.76434E-02 5.07489E+00 5.30409E-14 1.82448E-13
 -1      2527 2.22414E+01-2.94191E-01 7.60701E-02 5.22884E+00-4.50751E-14 2.07348E-13
 -1      2528 1.83314E+01 1.31130E+00 9.80390E-02 4.95939E+00 2.54657E-14 2.20921E-13
 -1      2529 2.02523E+01 2.22295E+00 2.84682E-02-2.06438E+00 8.96470E-14 1.63482E-13
 -1      2530 2.03885E+01 2.21415E+00-1.04536E-03-1.30009E+00 1.30399E-13 1.74263E-13
 -1      2531 1.93790E+01 2.85588E+00 5.73241E-03-9.19694E-01 1.63915E-13 1.00460E-13
 -1      2532 1.84996E+01 2.79655E+00 2.94623E-02-2.08242E+00 8.44638E-14 5.91393E-14
 -1      2533 1.87923E+01 1.45670E+00 7.62964E-02-4.64898E+00-1.04708E-13 3.73104E-14
 -1      2534 1.87373E+01 1.96213E+00 2.54503E-02-4.06732E+00-5.25517E-14 6.12219E-14
 -1      2535 1.71391E+01 2.61127E+00 6.56840E-02-3.29645E+00-1.48666E-15-1.92155E-14
 -1      2536 2.01577E+01 2.83342E+00-9.29150E-03 5.85859E-01 1.58255E-13-1.61982E-13
 -1      2537 2.03879E+01 2.75658E+00-8.14245E-03 2.34584E-01 1.25742E-13-1.74241E-13
 -1      2538 2.07773E+01 2.17817E+00-1.01229E-02 8.52263E-02 1.08509E-13-1.57121E-13
 -1      2539 2.02969E+01 2.34948E+00-1.49145E-02 8.88148E-01 1.57733E-13-1.45550E-13
 -1      2540 2.77333E+00-2.06941E+00 9.35775E-02 3.31562E+00 2.41196E-14-5.07094E-13
 -1      2541 2.39512E+00-2.02298E+00 1.00005E-01 6.25550E-01 5.05845E-15-5.38680E-13
 -1      2542 1.06715E+01-4.21387E+00-8.21788E-03-5.54761E+00-2.07501E-13-3.47500E-13
 -1      2543 1.66596E+01-4.79587E+00 8.18995E-02-6.38507E+00-2.35700E-13-1.64604E-13
 -1      2544 3.74080E+00-2.02085E+00 1.18626E-01-1.76432E+00-9.28979E-14-5.29410E-13
 -1      2545 5.64031E+00-2.44147E+00 8.82312E-02-3.71211E+00-1.22180E-13-5.00378E-13
 -1      2546 6.57299E+00-3.07620E+00 5.34013E-02 7.08457E+00 6.23668E-14-3.51608E-13
 -1      2547 4.56046E+00-2.62108E+00 1.13847E-01 5.49897E+00 1.00642E-13-4.32931E-13
 -1      2548 3.16127E+01-9.33767E-01-4.43063E-02-2.20351E+00 1.35277E-13-2.65010E-13
 -1      2549 3.34287E+01 1.05726E+00-1.52857E-01-1.16396E+00 2.15453E-14-2.85466E-13
 -1      2550 1.45132E+01-4.20795E+00 1.74969E-02 8.80756E+00-2.13163E-14-2.36283E-13
 -1      2551 1.01165E+01-3.99817E+00 7.31258E-02 7.98863E+00 4.64073E-14-2.79832E-13
 -1      2552 1.04263E+01-2.50008E+00 1.56103E-01 7.66637E+00 1.50546E-13-3.07115E-13
 -1      2553 2.93657E+01-2.82336E+00-1.13432E-01 4.49752E+00-1.56611E-13-3.30014E-14
 -1      2554 2.63179E+01-3.93887E+00 3.77687E-04 5.72225E+00-1.02862E-13-9.42024E-14
 -1      2555 3.37726E+01 5.64232E+00-2.24864E-01-1.08279E+00-4.54137E-13-7.92144E-14
 -1      2556 3.35545E+01 4.06374E+00-9.49021E-02-1.03406E+00-4.08951E-13 1.88738E-14
 -1      2557 3.51005E+01 8.87436E+00-1.42770E-01-3.70054E-01-4.31655E-13-1.70326E-13
 -1      2558 3.40771E+01 7.89746E+00-1.71814E-01-8.50486E-01-4.98490E-13-1.50630E-13
 -1      2559 3.57078E+01 8.16937E+00-1.19971E-01 4.01813E-01-3.11362E-13-2.18686E-13
 -1      2560 3.54374E+01 8.86414E+00-1.90301E-01 1.53951E-01-3.64875E-13-1.98369E-13
 -1      2561 3.44412E+01 4.08629E+00-1.09992E-01-6.82554E-02-1.67505E-13-2.72782E-13
 -1      2562 3.54522E+01 6.31115E+00-1.62953E-01 4.09607E-01-2.49079E-13-2.69729E-13
 -1      2563 2.53353E+01-4.32915E+00 3.54353E-02-6.27626E+00 2.97318E-13 2.63678E-14
 -1      2564 2.92830E+01-2.93216E+00-7.26128E-02-4.73030E+00 2.68882E-13-1.23068E-13
 -1      2565 1.59712E+01-4.98560E+00 2.81788E-02-8.47532E+00 2.41474E-13 2.55532E-13
 -1      2566 2.03786E+01-4.76526E+00-1.78152E-02-8.10918E+00 2.67203E-13 1.98903E-13
 -1      2567 1.54852E+01-4.18262E+00 1.28679E-01-8.45626E+00 2.64788E-13 1.61773E-13
 -1      2568 3.71283E+00-1.42265E+00 1.60590E-01 1.05962E+00-2.17049E-14 7.29417E-14
 -1      2569 2.77536E+00-1.77789E+00 1.39689E-01-1.63721E+00 6.68077E-14 1.01252E-13
 -1      2570 2.96447E+00-2.61159E+00 1.05263E-01-3.80654E+00 1.11494E-13 2.02671E-13
 -1      2571 4.85154E+00-2.81680E+00 7.63708E-02-6.03889E+00 1.54210E-13 2.16382E-13
 -1      2572 2.47148E+01-5.36540E+00 1.61004E-02 4.23027E+00-1.95954E-13 2.39373E-13
 -1      2573 2.09361E+01 2.06174E+00-2.01572E-03-1.30075E+00-5.08998E-15-2.05860E-13
 -1      2574 2.06500E+01 2.57243E+00-1.34968E-02-1.48319E+00-1.78090E-14-2.41633E-13
 -1      2575 2.06225E+01 2.49400E+00-2.25356E-02-1.75757E+00-5.04476E-14-2.35624E-13
 -1      2576 1.59231E+01 1.39459E+00 7.18927E-02-4.77047E+00-1.10356E-13-7.56201E-14
 -1      2577 2.05537E+01 2.26449E+00-1.32942E-02-2.06311E+00-9.73014E-14-1.90698E-13
 -1      2578 2.14493E+01-5.24073E+00 7.91388E-03-5.31968E+00-2.47247E-13 4.27158E-14
 -1      2579 2.54844E+01-4.35971E+00 9.22296E-02 5.86516E+00 5.93969E-14-7.13318E-15
 -1      2580 1.62480E+01-1.56749E+00 1.20388E-01-6.07239E+00-2.59098E-13-9.57290E-14
 -1      2581 1.81007E+01-4.16216E+00 1.01718E-01 8.22271E+00 1.13548E-13-1.40041E-13
 -1      2582 8.85124E+00-3.29486E-01 1.64256E-01 4.11197E+00-9.16073E-14 2.60902E-15
 -1      2583 6.09009E+00-1.00425E+00 2.06737E-01 2.59089E+00-6.83065E-14 1.31950E-13
 -1      2584 6.72274E+00 7.33487E-01 1.61793E-01 1.47277E+00 6.96665E-14 3.30846E-14
 -1      2585 1.87511E+01-1.02059E+00 7.31791E-02 5.77986E+00-3.79280E-14 8.02552E-14
 -1      2586 1.99997E+01-6.90505E-05-1.00643E-06-1.57703E-04 1.13255E-13-1.71136E-13
 -1      2587 1.99997E+01-9.54145E-05-1.74901E-07-2.09333E-04 1.01986E-14-2.61400E-13
 -1      2588 1.99998E+01-1.80758E-04-3.22655E-07-2.38293E-04 1.55257E-13-1.67132E-13
 -1      2589 1.99998E+01-1.66655E-04 3.82379E-07-1.95701E-04-5.92368E-14-1.09605E-13
 -1      2590 1.99997E+01-1.32323E-04-9.21937E-07-1.73793E-04 3.57159E-14 9.80378E-14
 -1      2591 3.20535E+01 1.96321E+00-6.94731E-02-7.70155E-01-2.94306E-13 7.33580E-14
 -1      2592 8.26953E+00-2.32699E+00 1.43375E-01-6.87455E+00 1.91791E-13 1.57124E-13
 -1      2593 4.82130E+00-4.82352E-01 1.59892E-01-2.55652E+00 1.08556E-13 1.05416E-13
 -1      2594 3.02801E+01-2.36234E+00 2.33759E-02 2.41007E+00-9.86780E-14 1.30118E-13
 -1      2595 2.36589E+01-4.90509E+00 2.35530E-02-6.90945E+00 2.83384E-13 1.65978E-14
 -1      2596 2.58650E+01-4.70603E+00-5.06573E-02-5.16680E+00 3.75880E-13-9.00599E-14
 -1      2597 2.19798E+01-4.69513E+00 1.58193E-01-7.20092E+00 3.42310E-13 5.00780E-14
 -1      2598 3.24973E+01 2.10278E+00-5.50638E-02 6.61478E-01 3.24046E-14-3.65125E-13
 -1      2599 3.32546E+01 6.81617E+00-6.84256E-02 1.07536E+00-2.22738E-13-3.09919E-13
 -1      2600 3.27816E+01 8.63020E+00-9.77382E-02-9.55352E-02-3.56992E-13-2.76541E-13
 -1      2601 3.21064E+01 6.59937E+00-1.27895E-01-1.50925E+00-4.25382E-13-8.48766E-14
 -1      2602 3.00626E+01-2.60864E+00-1.35994E-02-2.52016E+00 2.68945E-13-2.13968E-13
 -1      2603 5.01515E+00-2.86121E-01 1.72280E-01-6.61581E-01-2.44110E-14-4.97491E-13
 -1      2604 2.63529E+01-5.74998E+00 1.12625E-02-4.30579E+00-2.19713E-13 1.65978E-13
 -1      2605 5.31310E+00-8.31809E-01 1.68995E-01 4.32458E+00 1.21458E-13-4.42257E-13
 -1      2606 1.93050E+01-5.03613E+00-1.78557E-02 5.82451E+00-1.54154E-13 1.22333E-13
 -1      2607 1.83609E+01 2.87562E+00-2.44661E-02 2.49108E+00 2.31534E-13-1.68962E-13
 -1      2608 1.90067E+01 2.63290E+00 2.20522E-02 2.32514E+00 2.29808E-13-1.72631E-13
 -1      2609 1.96019E+01 2.26598E+00-1.06717E-02 2.00308E+00 2.08547E-13-1.63693E-13
 -1      2610 2.01349E+01 2.05994E+00 1.03972E-02 1.66317E+00 1.87029E-13-1.45721E-13
 -1      2611 1.95151E+01 1.87413E+00-1.86052E-02 2.43171E+00 2.08172E-13-1.57661E-13
 -1      2612 1.66656E+01 4.02242E+00-3.11067E-02 1.73222E+00 2.47511E-13-1.12754E-13
 -1      2613 1.68221E+01 3.97283E+00 1.74677E-02 2.07019E+00 2.54008E-13-1.26628E-13
 -1      2614 1.73113E+01 3.88784E+00-2.26337E-02 6.11811E-01 2.28355E-13-2.20542E-14
 -1      2615 1.68468E+01 4.12183E+00 3.05343E-03 1.07482E+00 2.34537E-13-6.99588E-14
 -1      2616 1.63910E+01 3.95027E+00 3.15603E-02 1.41017E+00 2.28884E-13-1.03772E-13
 -1      2617 1.85386E+01 3.21128E+00-1.80462E-02-4.16918E-01 1.88952E-13 5.20773E-14
 -1      2618 1.78271E+01 3.71169E+00 5.61426E-03 6.01187E-02 2.05032E-13 9.94701E-16
 -1      2619 1.69669E+01 3.77613E+00 2.31153E-02 1.32065E-01 1.97151E-13-3.63129E-14
 -1      2620 1.81941E+01 3.19746E+00 1.89908E-02-9.68449E-01 1.48857E-13 3.50227E-14
 -1      2621 1.93189E+01 1.27331E+00-2.07506E-02 1.47875E+00 9.40086E-14-2.19354E-14
 -1      2622 1.92071E+01 1.51710E+00 6.40866E-03 1.79629E+00 1.07297E-13 4.61684E-14
 -1      2623 2.07526E+01 1.29793E+00-1.12954E-02-1.89506E+00-1.01772E-13-1.37338E-13
 -1      2624 2.06550E+01 9.05220E-01-1.27313E-02-1.69398E+00-1.00618E-13-1.21997E-13
 -1      2625 1.97177E+01 8.73890E-01-1.36445E-02 1.03556E+00-1.37978E-14-7.21699E-14
 -1      2626 1.96860E+01 1.06752E+00 6.78626E-03 1.27128E+00-1.06096E-14 1.19502E-14
 -1      2627 1.89621E+01 1.42500E+00 2.60665E-02 1.18533E+00 2.43614E-14-5.33688E-14
 -1      2628 2.05463E+01 2.33950E-01 6.06799E-03-1.44193E+00-7.25166E-14-5.08525E-14
 -1      2629 2.03869E+01 1.42248E-01-4.27859E-03-1.38052E+00-4.78788E-14-5.12065E-14
 -1      2630 2.03185E+01 1.16483E-01 2.56001E-03-1.36442E+00-3.29714E-14-4.33680E-14
 -1      2631 2.01579E+01 1.43716E-01 7.01907E-04-1.32091E+00-2.51369E-14-5.45237E-14
 -1      2632 2.08024E+01 1.75390E-01 2.74279E-03-1.47411E+00-4.59545E-14-2.58417E-14
 -1      2633 2.00387E+01 2.17081E-01-1.86219E-03-1.28493E+00-2.44189E-14-2.68674E-14
 -1      2634 1.98877E+01 3.29985E-01 5.77429E-03-1.20811E+00-4.47314E-14-1.04618E-14
 -1      2635 2.06172E+01 2.35948E-01 2.68332E-03-1.42423E+00-2.99963E-14-4.02480E-14
 -1      2636 1.97356E+01 4.62639E-01-4.05938E-03-1.10258E+00-7.64553E-14-1.51376E-14
 -1      2637 1.96076E+01 6.11943E-01 9.22568E-03-9.57752E-01-8.53225E-14-3.80329E-14
 -1      2638 2.03616E+01 4.96117E-01 1.19832E-03-1.28458E+00-7.01245E-14-4.83886E-14
 -1      2639 1.94602E+01 7.49636E-01-2.91569E-03-7.55863E-01-7.76623E-14-6.53497E-14
 -1      2640 1.93735E+01 8.73018E-01 9.34773E-03-5.37352E-01-5.71726E-14-7.92253E-14
 -1      2641 2.00820E+01 8.39664E-01-2.35002E-03-9.70163E-01-9.63962E-14-6.28362E-14
 -1      2642 1.92789E+01 9.56990E-01 1.15942E-03-2.52900E-01-6.07669E-14-8.53055E-14
 -1      2643 1.92491E+01 9.99050E-01 5.80806E-03 1.09481E-02-9.23676E-14-9.33627E-14
 -1      2644 1.98555E+01 1.12221E+00-6.21739E-03-4.63277E-01-7.44801E-14-6.69869E-14
 -1      2645 1.92409E+01 9.89417E-01 6.09328E-03 3.23560E-01-1.07420E-13-9.68830E-14
 -1      2646 1.92726E+01 9.26798E-01 2.69956E-04 5.80479E-01-9.79815E-14-8.62132E-14
 -1      2647 1.97582E+01 1.21650E+00-7.81547E-03 1.64199E-01-8.71850E-14-3.37218E-14
 -1      2648 1.93486E+01 8.22064E-01 9.26672E-03 8.49233E-01-7.57520E-14-6.59548E-14
 -1      2649 1.94312E+01 6.74553E-01-4.49008E-03 1.04608E+00-7.57730E-14-4.91151E-14
 -1      2650 1.98194E+01 1.06946E+00-5.64032E-03 7.74598E-01-7.53199E-14-1.27903E-14
 -1      2651 1.95541E+01 5.10558E-01 9.10256E-03 1.21533E+00-6.83591E-14-1.20341E-14
 -1      2652 1.96658E+01 3.27702E-01-6.57697E-03 1.32058E+00-6.63391E-15-6.79889E-14
 -1      2653 2.00009E+01 7.25474E-01-1.02250E-03 1.22906E+00-7.54002E-14-8.19906E-15
 -1      2654 1.97864E+01 1.55880E-01 6.06851E-03 1.37271E+00-7.08553E-16-8.74257E-14
 -1      2655 1.99026E+01-1.00837E-02-5.87870E-03 1.38477E+00-1.16470E-15-5.56101E-14
 -1      2656 2.02207E+01 2.96970E-01 3.06740E-03 1.45103E+00-2.59231E-14-4.96178E-14
 -1      2657 1.99848E+01-1.47520E-01 1.90423E-03 1.33858E+00 1.39622E-14-7.16280E-14
 -1      2658 2.00866E+01-2.63240E-01-3.54468E-03 1.27902E+00 9.20049E-15-5.66703E-14
 -1      2659 2.04000E+01-9.52092E-02 4.80185E-03 1.44623E+00 1.98178E-14-6.78085E-14
 -1      2660 2.01186E+01-3.46834E-01-1.65243E-03 1.17222E+00-2.00831E-14-4.24610E-14
 -1      2661 2.01965E+01-4.03930E-01-9.39628E-04 1.07164E+00-4.03777E-14-3.56027E-14
 -1      2662 2.04964E+01-3.72265E-01 4.18840E-03 1.27896E+00 2.02529E-15-5.24425E-14
 -1      2663 2.01858E+01-4.35282E-01-3.75953E-03 9.41905E-01-7.00111E-14-2.79617E-14
 -1      2664 2.02390E+01-4.43327E-01 1.11799E-03 8.28240E-01-8.56252E-14-3.64448E-15
 -1      2665 2.05086E+01-5.12344E-01 2.57062E-03 1.03030E+00-6.06483E-14-6.24067E-14
 -1      2666 2.02017E+01-4.35950E-01-4.48869E-03 7.02822E-01-1.09889E-13 2.26877E-14
 -1      2667 2.02340E+01-4.12010E-01 2.26515E-03 5.95627E-01-8.78580E-14 3.81196E-14
 -1      2668 2.04599E+01-5.36765E-01 8.84982E-04 7.67298E-01-7.22378E-14 3.96263E-14
 -1      2669 2.01860E+01-3.82302E-01-4.27665E-03 4.89398E-01-8.55613E-14 1.01442E-14
 -1      2670 2.02032E+01-3.42983E-01 2.62399E-03 3.99202E-01-5.26894E-14-1.38699E-14
 -1      2671 2.03797E+01-4.84774E-01-3.29495E-04 5.31833E-01-9.02646E-14 1.06061E-13
 -1      2672 2.01558E+01-3.04732E-01-3.58453E-03 3.17195E-01 2.00252E-14-4.82265E-14
 -1      2673 2.01632E+01-2.62307E-01 2.46192E-03 2.47465E-01 6.75328E-14-3.26590E-14
 -1      2674 2.02924E+01-3.95265E-01-9.59600E-04 3.42529E-01-6.36897E-14 5.22273E-14
 -1      2675 2.01225E+01-2.24691E-01-2.75329E-03 1.88693E-01 5.22555E-14-5.12288E-14
 -1      2676 2.01243E+01-1.86420E-01 2.04122E-03 1.38488E-01 4.78194E-14-1.00317E-13
 -1      2677 2.02131E+01-2.97262E-01-1.13843E-03 2.02135E-01 2.99163E-14-9.95784E-14
 -1      2678 2.00924E+01-1.54295E-01-1.97472E-03 9.91354E-02-2.55274E-14-1.65219E-13
 -1      2679 2.00911E+01-1.23390E-01 1.54980E-03 6.53383E-02-2.52654E-14-2.12961E-13
 -1      2680 2.01486E+01-2.08126E-01-1.05167E-03 1.04948E-01-1.42807E-14-2.59165E-13
 -1      2681 2.00678E+01-9.84562E-02-1.33167E-03 4.08138E-02 2.62009E-14-1.79014E-13
 -1      2682 2.00651E+01-7.54772E-02 1.09600E-03 1.96522E-02 2.81199E-14-1.92609E-13
 -1      2683 2.00999E+01-1.35704E-01-8.49922E-04 4.20621E-02-2.35575E-15-3.07163E-13
 -1      2684 2.00490E+01-5.75425E-02-8.42260E-04 5.68444E-03 2.19104E-14-1.78141E-13
 -1      2685 2.00458E+01-4.16211E-02 7.27093E-04-6.40626E-03-5.22393E-14-1.60371E-13
 -1      2686 2.00653E+01-8.15582E-02-6.28490E-04 4.40404E-03 4.34269E-14-2.44156E-13
 -1      2687 2.00351E+01-2.95798E-02-4.92477E-04-1.33129E-02-1.26245E-13-1.34339E-13
 -1      2688 2.00319E+01-1.92812E-02 4.52269E-04-1.92964E-02-1.17090E-13-1.11350E-13
 -1      2689 2.00418E+01-4.38316E-02-4.35169E-04-1.58415E-02-7.03787E-14-1.11843E-13
 -1      2690 2.00251E+01-1.17550E-02-2.56064E-04-2.17754E-02-1.62184E-13-6.66474E-14
 -1      2691 2.00222E+01-5.59026E-03 2.61235E-04-2.39142E-02-1.23025E-13-1.36441E-13
 -1      2692 2.00264E+01-1.92726E-02-2.86329E-04-2.47789E-02-1.14588E-13-1.00013E-13
 -1      2693 2.00180E+01-1.27922E-03-1.05175E-04-2.38272E-02-1.99551E-14-1.28620E-13
 -1      2694 2.00154E+01 2.04402E-03 1.36446E-04-2.37364E-02 3.94656E-14-8.06750E-14
 -1      2695 2.00166E+01-4.45156E-03-1.81156E-04-2.68572E-02-5.37761E-14 4.10491E-14
 -1      2696 2.00128E+01 4.20987E-03-1.52529E-05-2.23272E-02 9.91148E-14 1.74626E-14
 -1      2697 2.00107E+01 5.70182E-03 5.99298E-05-2.10925E-02 1.42767E-13 8.69836E-14
 -1      2698 2.00105E+01 3.63599E-03-1.11581E-04-2.51379E-02 1.18228E-13 1.21486E-13
 -1      2699 2.00092E+01 6.52849E-03 3.33408E-05-1.91453E-02 1.43127E-13 1.68841E-13
 -1      2700 2.00074E+01 6.92158E-03 1.63699E-05-1.74529E-02 1.30055E-13 2.10676E-13
 -1      2701 2.00067E+01 7.35473E-03-6.79898E-05-2.16165E-02 1.82179E-13 2.58681E-13
 -1      2702 2.00065E+01 6.97622E-03 5.53236E-05-1.54292E-02 9.22341E-14 2.12656E-13
 -1      2703 2.00050E+01 6.76926E-03-5.98272E-06-1.36818E-02 1.12155E-13 2.45891E-13
 -1      2704 2.00044E+01 8.42991E-03-4.18993E-05-1.75176E-02 8.34693E-14 2.48003E-13
 -1      2705 2.00045E+01 6.42754E-03 6.11743E-05-1.18277E-02 1.67721E-13 1.87450E-13
 -1      2706 2.00033E+01 5.94062E-03-1.54997E-05-1.02381E-02 1.98684E-13 2.10936E-13
 -1      2707 2.00029E+01 8.04389E-03-2.68373E-05-1.35363E-02 1.40534E-13 1.89515E-13
 -1      2708 2.00030E+01 5.43662E-03 5.80189E-05-8.66302E-03 5.85104E-14 1.78836E-13
 -1      2709 2.00021E+01 4.86215E-03-1.77981E-05-7.32374E-03 7.73646E-14 1.35004E-13
 -1      2710 2.00019E+01 6.96068E-03-1.83203E-05-1.00211E-02 1.74579E-13 2.08831E-13
 -1      2711 2.00019E+01 4.33153E-03 5.04852E-05-6.05562E-03 8.50766E-14 6.66786E-14
 -1      2712 2.00013E+01 3.77574E-03-1.64432E-05-4.98764E-03-6.52367E-14 6.65620E-14
 -1      2713 2.00013E+01 5.64346E-03-1.34692E-05-7.10590E-03 5.16831E-14 9.13372E-14
 -1      2714 2.00011E+01 3.28945E-03 4.14227E-05-4.00974E-03-1.76943E-13 1.31356E-13
 -1      2715 2.00007E+01 2.80353E-03-1.35685E-05-3.19543E-03-2.60506E-13 7.15985E-14
 -1      2716 2.00008E+01 4.35106E-03-1.05578E-05-4.79993E-03-1.11107E-13 7.96232E-15
 -1      2717 2.00006E+01 2.39228E-03 3.24657E-05-2.46980E-03-1.37639E-13 1.53732E-13
 -1      2718 2.00002E+01 1.99430E-03-1.03591E-05-1.87370E-03-5.29817E-14 2.48290E-13
 -1      2719 2.00005E+01 3.21086E-03-8.61625E-06-3.04712E-03-1.34329E-13 2.96638E-13
 -1      2720 2.00002E+01 1.66540E-03 2.44503E-05-1.35527E-03-2.38044E-14 2.83456E-13
 -1      2721 2.00000E+01 1.35500E-03-7.40657E-06-9.36481E-04-3.85168E-14 2.09785E-13
 -1      2722 2.00003E+01 2.27043E-03-7.13950E-06-1.76330E-03-4.88340E-14 4.88693E-13
 -1      2723 1.99999E+01 1.10334E-03 1.77177E-05-5.81020E-04-1.03225E-14-6.56324E-15
 -1      2724 1.99998E+01 8.71003E-04-4.95546E-06-3.00082E-04 1.14246E-13-6.25745E-14
 -1      2725 2.00001E+01 1.53241E-03-5.89915E-06-8.58055E-04-1.49141E-13 4.88873E-14
 -1      2726 1.99997E+01 6.85797E-04 1.23219E-05-6.81641E-05 2.25304E-13-1.69308E-13
 -1      2727 1.99997E+01 5.18442E-04-3.05903E-06 1.09613E-04 1.01100E-13-1.37828E-13
 -1      2728 2.00000E+01 9.76680E-04-4.80656E-06-2.46569E-04 7.82198E-14-1.51601E-13
 -1      2729 1.99996E+01 3.87207E-04 8.16143E-06 2.51023E-04 3.30574E-14 1.13354E-14
 -1      2730 1.99996E+01 2.71309E-04-1.67443E-06 3.54328E-04 1.28411E-13 1.07209E-13
 -1      2731 1.99999E+01 5.73834E-04-3.83421E-06 1.44791E-04 2.19646E-13-1.45041E-13
 -1      2732 1.99996E+01 1.81981E-04 5.06459E-06 4.31671E-04 2.60265E-14 1.98670E-13
 -1      2733 1.99996E+01 1.05167E-04-7.20240E-07 4.83161E-04-3.15922E-14 1.48241E-13
 -1      2734 1.99998E+01 2.92807E-04-2.97957E-06 3.76610E-04 7.05116E-14 2.22858E-13
 -1      2735 1.99996E+01 4.70920E-05 2.84079E-06 5.16807E-04-6.17644E-15 2.83626E-14
 -1      2736 1.99996E+01-1.21772E-06-1.08324E-07 5.33670E-04 2.99711E-14 6.08755E-14
 -1      2737 1.99998E+01 1.04831E-04-2.24554E-06 4.96707E-04-2.20671E-14-2.65507E-14
 -1      2738 1.99996E+01-3.69648E-05 1.30831E-06 5.38751E-04-6.81398E-14 6.49139E-14
 -1      2739 1.99996E+01-6.54609E-05 2.40187E-07 5.33508E-04-1.50546E-13-6.74424E-16
 -1      2740 1.99997E+01-1.49006E-05-1.63339E-06 5.41467E-04-1.88859E-14-1.90718E-13
 -1      2741 1.99996E+01-8.61241E-05 3.09451E-07 5.20818E-04-4.39222E-14 1.50258E-13
 -1      2742 1.99996E+01-1.01766E-04 3.94120E-07 5.02157E-04 2.42902E-13 4.34007E-14
 -1      2743 1.99997E+01-8.68853E-05-1.14204E-06 5.37568E-04 9.27467E-15 4.96596E-14
 -1      2744 1.99996E+01-1.13131E-04-2.86193E-07 4.79032E-04 2.65243E-13 3.71596E-14
 -1      2745 1.99996E+01-1.21474E-04 4.05850E-07 4.52594E-04 1.17466E-14 1.07276E-13
 -1      2746 1.99997E+01-1.27582E-04-7.59296E-07 5.03744E-04 2.15519E-13 1.32104E-13
 -1      2747 1.99996E+01-1.28173E-04-5.81664E-07 4.23607E-04-1.63285E-13 3.05957E-13
 -1      2748 1.99997E+01-1.33543E-04 3.26207E-07 3.92618E-04-1.47784E-13 2.76078E-13
 -1      2749 1.99997E+01-1.50128E-04-4.87154E-07 4.52445E-04-2.41146E-14-3.81437E-14
 -1      2750 1.99997E+01-1.39084E-04-6.12620E-07 3.60252E-04-2.27862E-13 4.00780E-13
 -1      2751 1.99997E+01-1.44600E-04 1.83989E-07 3.26337E-04-1.70399E-13 1.87078E-13
 -1      2752 1.99997E+01-1.64654E-04-3.06686E-07 3.91272E-04-1.29674E-13 3.00919E-13
 -1      2753 1.99997E+01-1.48162E-04-7.24164E-07 2.99212E-04-4.12960E-14 6.48824E-14
 -1      2754 1.99997E+01-1.55890E-04-3.76781E-07 2.64481E-04 7.50704E-14-5.83545E-14
 -1      2755 1.99998E+01-1.83980E-04-4.16215E-07 2.75221E-04 5.57671E-14-5.83186E-14
 -1      2756 1.99997E+01-1.75897E-04-5.89765E-07 3.31769E-04-2.21627E-13 2.45547E-13
 -1      2757 2.07087E+01 2.06163E+00-2.33517E-03-1.89005E+00-6.90564E-14-1.84956E-13
 -1      2758 2.02400E+01-4.05900E+00-5.89258E-02 7.52098E+00 1.82271E-13-2.76029E-14
 -1      2759 1.66547E+01-3.10372E+00 1.68877E-01 7.95029E+00 2.12705E-13-1.24331E-13
 -1      2760 3.05493E+01 2.60516E+00-1.86146E-01-1.75188E+00-2.36033E-13 6.17839E-14
 -1      2761 3.08355E+01 3.29707E-01-1.64227E-02-7.51189E-01-1.49117E-13 1.64202E-13
 -1      2762 1.85967E+01 1.75206E+00-2.89153E-02 2.06465E+00 4.36569E-14-6.03771E-15
 -1      2763 1.83539E+01 1.99842E+00 9.99229E-03 2.46655E+00 7.64926E-14 7.33606E-14
 -1      2764 1.80836E+01 1.97230E+00 4.36330E-02 1.58660E+00 5.95097E-14-6.83221E-14
 -1      2765 1.99217E+01 5.80732E-01-8.62323E-03 7.12783E-01-1.34042E-14 2.87549E-14
 -1      2766 1.99293E+01 7.19881E-01 6.46217E-03 8.80069E-01 6.80636E-14-2.99913E-14
 -1      2767 1.94712E+01 9.80197E-01 1.53297E-02 8.61936E-01-6.06795E-15-7.57207E-16
 -1      2768 2.00161E+01 3.78809E-01-5.34756E-03 4.84644E-01 5.83789E-14-2.35110E-13
 -1      2769 2.00389E+01 4.73713E-01 5.43448E-03 5.99789E-01-2.08063E-14-5.03004E-14
 -1      2770 1.97536E+01 6.54815E-01 8.73550E-03 6.12939E-01 3.24469E-14-1.85636E-13
 -1      2771 2.00527E+01 2.44528E-01-3.27691E-03 3.26933E-01 2.86517E-13-3.39530E-13
 -1      2772 2.00783E+01 3.07367E-01 4.20573E-03 4.04619E-01 1.69219E-13-2.83550E-13
 -1      2773 1.99032E+01 4.29800E-01 4.78981E-03 4.28735E-01 1.24458E-13-4.23608E-13
 -1      2774 2.00609E+01 1.57265E-01-1.88479E-03 2.19641E-01 5.39012E-14-2.67356E-13
 -1      2775 2.00839E+01 1.97988E-01 3.11382E-03 2.71368E-01 2.02697E-13-3.21294E-13
 -1      2776 1.99778E+01 2.79149E-01 2.48859E-03 2.96553E-01 1.83383E-13-4.07789E-13
 -1      2777 2.00567E+01 1.03192E-01-1.12047E-03 1.50245E-01 4.55594E-14-1.20321E-13
 -1      2778 2.00750E+01 1.28720E-01 2.25092E-03 1.83315E-01-4.68887E-14-1.52413E-13
 -1      2779 2.00110E+01 1.82038E-01 1.12439E-03 2.05406E-01-1.04154E-13-3.20463E-13
 -1      2780 2.00473E+01 6.62376E-02-7.01114E-04 1.00597E-01-2.13686E-14 1.10756E-13
 -1      2781 2.00622E+01 8.34177E-02 1.55658E-03 1.23660E-01 5.51672E-14 7.00183E-14
 -1      2782 2.00238E+01 1.19062E-01 5.82968E-04 1.41940E-01-1.20701E-13-1.37328E-13
 -1      2783 2.00372E+01 4.27361E-02-4.07146E-04 6.73778E-02 1.22889E-13-5.39686E-14
 -1      2784 2.00485E+01 5.37246E-02 1.07730E-03 8.26233E-02 4.84719E-14 4.24235E-14
 -1      2785 2.00263E+01 7.69674E-02 2.27479E-04 9.68155E-02 6.31384E-14 8.96307E-14
 -1      2786 2.00281E+01 2.77332E-02-2.31317E-04 4.50868E-02 1.29654E-13-1.04612E-13
 -1      2787 2.00363E+01 3.47620E-02 7.37262E-04 5.51846E-02 1.35138E-13-1.90714E-14
 -1      2788 2.00239E+01 4.99384E-02 4.73744E-05 6.59075E-02 1.54654E-13 4.85876E-15
 -1      2789 2.00205E+01 1.81176E-02-1.28715E-04 3.00801E-02 2.63353E-13-2.42646E-13
 -1      2790 2.00265E+01 2.26328E-02 5.02682E-04 3.67983E-02 1.93937E-13-1.65882E-13
 -1      2791 2.00197E+01 3.25767E-02-3.41831E-05 4.47438E-02 1.62683E-13 5.99573E-14
 -1      2792 2.00145E+01 1.19143E-02-6.96369E-05 1.99370E-02 1.60463E-13-1.78487E-13
 -1      2793 2.00187E+01 1.48349E-02 3.42463E-04 2.44290E-02 2.01657E-13-2.87419E-13
 -1      2794 2.00154E+01 2.13841E-02-6.45680E-05 3.02330E-02 2.23516E-13-1.79796E-13
 -1      2795 2.00099E+01 7.87665E-03-3.59843E-05 1.30561E-02 9.37838E-15-1.70558E-13
 -1      2796 2.00129E+01 9.78295E-03 2.33534E-04 1.60727E-02 1.23205E-13-1.34120E-13
 -1      2797 2.00115E+01 1.41215E-02-6.98804E-05 2.02622E-02 4.37271E-14-2.02988E-13
 -1      2798 2.00065E+01 5.22599E-03-1.38189E-05 8.38068E-03 4.12008E-14-1.27448E-13
 -1      2799 2.00086E+01 6.47519E-03 1.58824E-04 1.04087E-02-5.61247E-14-6.03659E-14
 -1      2800 2.00082E+01 9.36758E-03-6.41472E-05 1.33989E-02-9.46247E-14-1.74502E-13
 -1      2801 2.00041E+01 3.53065E-03-4.64259E-06 5.33515E-03-1.32920E-14 1.68540E-13
 -1      2802 2.00055E+01 4.34237E-03 1.09934E-04 6.65063E-03 5.69436E-14 1.06803E-13
 -1      2803 2.00057E+01 6.26333E-03-6.10844E-05 8.75911E-03-8.20056E-14 1.34320E-13
 -1      2804 2.00024E+01 2.31172E-03-2.10708E-06 3.14041E-03-7.53783E-14 2.02210E-13
 -1      2805 2.00034E+01 2.88417E-03 7.45977E-05 4.07205E-03-8.36823E-15 2.64856E-13
 -1      2806 2.00038E+01 4.20835E-03-4.35309E-05 5.56421E-03-1.07438E-13 3.92436E-13
 -1      2807 2.00012E+01 1.48930E-03 2.22161E-07 1.67359E-03-1.09512E-13 3.88794E-14
 -1      2808 2.00018E+01 1.87994E-03 5.13476E-05 2.29015E-03-8.22299E-14 1.43414E-13
 -1      2809 2.00024E+01 2.75906E-03-3.40257E-05 3.30800E-03-1.45952E-14 1.36408E-13
 -1      2810 2.00004E+01 9.30004E-04 1.42041E-06 7.09684E-04 1.11185E-13-1.18866E-13
 -1      2811 2.00008E+01 1.19543E-03 3.44928E-05 1.10879E-03 2.37456E-15-6.63685E-14
 -1      2812 2.00014E+01 1.77525E-03-2.58605E-05 1.78660E-03-3.06242E-14 1.28411E-13
 -1      2813 1.99999E+01 5.50031E-04 1.84897E-06 9.45672E-05 1.46929E-13-4.37619E-13
 -1      2814 2.00001E+01 7.29670E-04 2.27624E-05 3.44042E-04 1.17230E-13-1.22037E-13
 -1      2815 2.00007E+01 1.10462E-03-1.92310E-05 7.80143E-04 1.80430E-13-2.66165E-13
 -1      2816 1.99996E+01 2.94236E-04 1.90012E-06-2.79717E-04 1.41048E-13-2.37600E-13
 -1      2817 1.99997E+01 4.14368E-04 1.46095E-05-1.32633E-04-1.70325E-15-2.94978E-13
 -1      2818 2.00002E+01 6.48850E-04-1.40337E-05 1.33968E-04 5.36046E-14-3.12222E-13
 -1      2819 1.99994E+01 1.25258E-04 1.80947E-06-4.89546E-04 2.21258E-13-1.80430E-13
 -1      2820 1.99995E+01 2.03765E-04 8.96732E-06-4.11654E-04 3.80517E-13-1.43226E-13
 -1      2821 1.99999E+01 3.42325E-04-1.00464E-05-2.61874E-04 9.98090E-14-1.08299E-13
 -1      2822 1.99993E+01 1.73016E-05 1.69358E-06-5.89043E-04 5.13286E-13-2.57952E-13
 -1      2823 1.99993E+01 6.62047E-05 5.01995E-06-5.57114E-04 3.56634E-13-1.49075E-13
 -1      2824 1.99997E+01 1.40416E-04-7.02260E-06-4.85933E-04 2.82709E-13-3.71429E-13
 -1      2825 1.99993E+01-4.61065E-05 1.48283E-06-6.16787E-04 4.35598E-13-1.70010E-13
 -1      2826 1.99993E+01-1.79462E-05 2.42079E-06-6.13534E-04 5.50447E-13-4.46183E-14
 -1      2827 1.99996E+01 1.27386E-05-5.01836E-06-5.93342E-04 3.26149E-13-1.09154E-13
 -1      2828 1.99994E+01-8.48604E-05 1.17349E-06-6.01812E-04 3.45244E-13-3.29488E-13
 -1      2829 1.99993E+01-6.86991E-05 7.99593E-07-6.16106E-04 3.27931E-13-2.31690E-13
 -1      2830 1.99996E+01-6.37268E-05-3.24756E-06-6.26971E-04 4.61859E-13 1.68431E-13
 -1      2831 1.99994E+01-1.04041E-04 9.20452E-07-5.59512E-04 8.28559E-14-2.64020E-13
 -1      2832 1.99994E+01-9.64781E-05-2.25002E-07-5.84209E-04 2.32895E-13-2.58382E-13
 -1      2833 1.99996E+01-1.09026E-04-2.08125E-06-6.14186E-04 2.86089E-13 2.58855E-13
 -1      2834 1.99995E+01-1.11730E-04 6.85519E-07-5.02401E-04-6.60281E-14-4.40928E-13
 -1      2835 1.99994E+01-1.09231E-04-8.55839E-07-5.32528E-04 4.45147E-14-3.53527E-13
 -1      2836 1.99996E+01-1.31458E-04-1.24739E-06-5.72380E-04 1.08299E-13 3.10662E-13
 -1      2837 1.99996E+01-1.14144E-04 3.98950E-07-4.37979E-04-3.08859E-13-3.90908E-13
 -1      2838 1.99995E+01-1.13628E-04-1.15890E-06-4.70656E-04-2.10069E-13-3.95157E-13
 -1      2839 1.99996E+01-1.40654E-04-6.84350E-07-5.14439E-04-9.00496E-14-5.98341E-14
 -1      2840 1.99996E+01-1.16094E-04 1.20660E-07-3.69988E-04-5.66993E-13-1.25998E-13
 -1      2841 1.99996E+01-1.15036E-04-1.12179E-06-4.03823E-04-5.19757E-13-3.09780E-13
 -1      2842 1.99996E+01-1.44407E-04-3.88933E-07-4.48305E-04-4.92268E-13 2.13049E-13
 -1      2843 1.99997E+01-1.21504E-04-6.54756E-07-2.99325E-04-3.61668E-14-1.37801E-13
 -1      2844 1.99996E+01-1.18180E-04-1.14114E-06-3.34218E-04-4.54743E-13-2.32662E-13
 -1      2845 1.99997E+01-1.47704E-04-3.54785E-07-3.77475E-04-6.10357E-13 1.88645E-13
 -1      2846 1.99998E+01-1.92285E-04 1.29338E-06-2.77911E-04 1.17877E-13-1.94115E-13
 -1      2847 1.99997E+01-1.55696E-04-1.38639E-06-2.64530E-04-8.85599E-14 1.26528E-13
 -1      2848 1.99999E+01-3.27317E-04 1.53031E-06-2.38740E-04-1.74364E-13 2.07728E-13
 -1      2849 1.99999E+01-2.98678E-04-6.71844E-07-2.59595E-04-6.63512E-14-3.46850E-13
 -1      2850 1.99998E+01-2.64940E-04 1.54724E-06-2.76107E-04-6.11767E-14-6.64339E-13
 -1      2851 1.99998E+01-2.31243E-04-1.14213E-06-2.81119E-04-5.14995E-15-6.86717E-13
 -1      2852 1.99999E+01-2.73578E-04-6.35428E-07-2.96717E-04-2.11257E-13-4.34449E-13
 -1      2853 1.99999E+01-3.74564E-04 1.39752E-06-1.73195E-04-5.55243E-13 3.43363E-13
 -1      2854 1.99999E+01-3.53368E-04-1.21922E-07-2.06511E-04-2.69351E-13 3.79433E-13
 -1      2855 1.99999E+01-3.29167E-04-8.72282E-07-2.45288E-04-2.90341E-13 7.03051E-14
 -1      2856 2.00000E+01-4.10819E-04 8.44702E-07 5.24783E-06-1.69459E-13-3.45910E-13
 -1      2857 2.00000E+01-4.09239E-04 7.89070E-07-3.92098E-05-3.40763E-13-6.97434E-14
 -1      2858 1.99999E+01-3.97779E-04 4.67385E-07 9.79416E-05 9.82726E-14-2.09665E-14
 -1      2859 2.00000E+01-4.06586E-04 1.09623E-06 5.52267E-05-1.61558E-14-2.63065E-13
 -1      2860 2.00000E+01-3.91685E-04-1.03735E-06 3.37313E-05 1.35701E-13-8.61490E-14
 -1      2861 1.99999E+01-3.65903E-04 1.22412E-08 1.78323E-04 1.43861E-13 9.44783E-14
 -1      2862 1.99999E+01-3.83790E-04 1.30066E-06 1.42647E-04 1.82789E-13-2.17024E-14
 -1      2863 2.00000E+01-3.74544E-04-9.81361E-07 1.32263E-04 1.70644E-13 2.46960E-14
 -1      2864 1.99999E+01-3.16852E-04-4.54527E-07 2.40210E-04-7.35919E-14 4.05853E-13
 -1      2865 1.99999E+01-3.42818E-04 1.43596E-06 2.14490E-04 4.60134E-15 2.57648E-13
 -1      2866 1.99999E+01-3.39903E-04-7.84678E-07 2.16531E-04 2.56519E-13 5.75641E-14
 -1      2867 1.99998E+01-2.54528E-04-1.02970E-06 2.74421E-04-1.39740E-13 3.54028E-13
 -1      2868 1.99999E+01-2.86202E-04 1.51316E-06 2.62808E-04-1.70038E-13 3.61064E-13
 -1      2869 1.99999E+01-2.89580E-04-3.76619E-07 2.78028E-04-2.64599E-15 3.89721E-13
 -1      2870 1.75964E+01-3.22201E+00 1.87925E-01 6.06598E+00-1.12466E-13 1.02113E-13
 -1      2871 1.46219E+01-3.15807E+00 1.73799E-01-8.01507E+00 2.80886E-13 3.36675E-14
 -1      2872 1.77967E+01-4.13849E+00 1.02900E-02-8.16135E+00 3.35010E-13 2.10484E-13
 -1      2873 1.55804E+01 2.08164E+00-1.03921E-03 3.75957E+00 4.02230E-14 7.96585E-14
 -1      2874 1.50494E+01 1.51138E+00 7.42725E-02 4.31020E+00 4.36838E-14 7.37466E-14
 -1      2875 1.52440E+01 2.88905E+00 6.26044E-02-2.69162E+00 1.18594E-14-1.06356E-13
 -1      2876 1.60493E+01 3.06062E+00 8.68907E-04-2.17654E+00 5.34312E-14-6.43201E-14
 -1      2877 8.17138E+00-2.70837E+00 1.34505E-01-4.70777E+00-1.72640E-13-4.40148E-13
 -1      2878 1.36233E+01-2.33173E+00 8.92548E-02-5.87241E+00-2.75224E-13-2.15356E-13
 -1      2879 1.35314E+01 1.22132E+00 1.29674E-01-4.37971E+00-1.14984E-13-1.81494E-13
 -1      2880 1.37095E+01 2.37464E+00 7.26636E-02-3.53900E+00-4.45477E-14-1.56264E-13
 -1      2881 2.99317E+01-2.00424E+00-1.89588E-01 1.01421E+00-8.36310E-14 2.40460E-13
 -1      2882 2.87295E+01-3.22423E+00 3.79855E-02 2.71637E+00-2.73739E-15 1.69864E-13
 -1      2883 1.33680E+01-6.41211E-02 1.93134E-01-5.30922E+00-2.09888E-13-1.91402E-13
 -1      2884 2.68584E+01-4.21255E+00-1.09680E-01 4.49584E+00 5.52752E-14 5.70793E-14
 -1      2885 2.44214E+01-4.26974E+00 1.24332E-01 5.86708E+00 1.36155E-13 1.66533E-15
 -1      2886 2.76183E+01-3.49498E+00 1.92279E-02 2.94851E+00 6.71685E-14 1.73563E-13
 -1      2887 8.76074E+00-6.73094E-01 1.58090E-01-4.25722E+00-1.53239E-13-3.88661E-13
 -1      2888 1.73885E+01 2.16506E+00-2.94620E-02 2.81329E+00 8.07982E-14-3.65923E-14
 -1      2889 1.69858E+01 2.24053E+00 3.10239E-02 3.28586E+00 6.44927E-15-9.28771E-15
 -1      2890 1.66358E+01 2.50444E+00 7.46939E-02 2.06723E+00 3.72209E-14-1.32240E-13
 -1      2891 2.00000E+01-4.03015E-04 1.15890E-06-8.85289E-05-4.53640E-13-8.57425E-14
 -1      2892 1.99999E+01-3.91119E-04 3.77176E-07-1.29837E-04-6.04387E-13 1.66853E-13
 -1      2893 2.00000E+01-3.68785E-04-1.00187E-06-1.66222E-04-5.35071E-13 1.10492E-13
 -1      2894 2.00000E+01-3.89930E-04-1.05185E-06-6.96206E-05-2.53463E-13-1.33160E-14
 -1      2895 1.71920E+01 3.56407E+00-3.29985E-02 2.42840E+00 2.65007E-13-1.25494E-13
 -1      2896 1.77484E+01 3.35639E+00 2.68925E-02 2.51364E+00 2.48045E-13-1.39731E-13
 -1      2897 1.80763E+01 2.65240E+00-4.86695E-03 2.83136E+00 2.39611E-13-1.40938E-13
 -1      2898 1.68223E+01 3.48279E+00 1.84883E-02 2.49902E+00 2.47090E-13-1.25701E-13
 -1      2899 7.22106E+00-9.17272E-02 1.16492E-01 5.38399E+00 1.77941E-13-3.61738E-13
 -1      2900 5.84517E+00 6.78906E-01 1.93654E-01 2.95162E+00 1.19134E-13-4.07535E-13
 -1      2901 3.11526E+01 5.53830E+00-1.37896E-01 1.63031E+00-1.82215E-13-3.27890E-13
 -1      2902 3.11285E+01 7.11170E+00-2.11225E-01 1.17781E+00-2.09055E-13-2.81233E-13
 -1      2903 2.12879E+01 1.63582E+00 2.07656E-03-4.88869E-01 6.35833E-14-1.61070E-13
 -1      2904 2.12701E+01 1.59371E+00-1.44649E-02-8.31128E-01 3.75597E-14-1.61290E-13
 -1      2905 1.32977E+01-2.27780E+00 5.89951E-02 8.05324E+00 2.08306E-13-2.14828E-13
 -1      2906 1.02831E+01-1.08468E+00 1.94645E-01 6.96704E+00 2.28553E-13-2.89130E-13
 -1      2907 1.62341E+01-2.03299E+00 1.44648E-01 7.44777E+00 2.58432E-13-1.28342E-13
 -1      2908 8.18337E+00-5.89409E-01 1.85246E-01-5.62012E+00 1.96829E-13 1.01530E-13
 -1      2909 1.11225E+01-1.82890E+00 8.65358E-02-7.37938E+00 2.67980E-13 5.90639E-14
 -1      2910 2.83913E+01-3.69943E+00 2.97684E-03-2.98456E+00 2.99042E-13-1.94247E-13
 -1      2911 2.99043E+01-2.04890E+00-1.12743E-01-9.41311E-01 2.03997E-13-2.89574E-13
 -1      2912 3.01701E+01 7.03903E+00-2.09659E-01-1.33484E+00-3.93047E-13-9.19959E-14
 -1      2913 3.01123E+01 5.39070E+00-1.30159E-01-1.89471E+00-3.50719E-13-2.00812E-14
 -1      2914 3.08891E+01 8.02738E+00-1.79079E-01 5.42368E-01-2.40946E-13-2.72678E-13
 -1      2915 3.03547E+01 8.14799E+00-1.70430E-01-3.92709E-01-3.45668E-13-2.05197E-13
 -1      2916 6.17066E+00 1.29002E+00 1.89006E-01 5.88295E-01 3.72103E-14-4.38594E-13
 -1      2917 7.36377E+00 1.19499E+00 1.69236E-01-1.89115E+00-3.68594E-14-4.15362E-13
 -1      2918 3.04064E+01 6.73236E-01-8.80280E-02 8.89357E-01 1.41248E-13-3.54147E-13
 -1      2919 3.09060E+01 3.02430E+00-1.93319E-01 1.54270E+00-1.91930E-14-3.40408E-13
 -1      2920 2.07106E+01 6.02118E-01 4.95702E-03-1.61149E+00-8.14984E-14-1.00551E-13
 -1      2921 2.05656E+01 3.72353E-01-8.60531E-03-1.48307E+00-7.20277E-14-8.22710E-14
 -1      2922 2.09135E+01 3.80787E-01 6.67929E-03-1.53705E+00-5.89800E-14-6.19116E-14
 -1      2923 2.09227E+01 8.50938E-01 1.55396E-03-1.66319E+00-6.85597E-14-1.24573E-13
 -1      2924 6.62665E+00 1.07878E+00 1.85841E-01-1.67693E+00 5.87898E-14 1.59317E-14
 -1      2925 6.89754E+00 3.26371E-01 1.95036E-01-4.02777E+00 1.07865E-13 1.04056E-13
 -1      2926 9.76357E+00 5.80655E-01 1.68971E-01-4.58073E+00 1.42386E-13 3.12805E-14
 -1      2927 1.10295E+01 7.96574E-01 1.51647E-01-4.15511E+00-1.21098E-13-2.89324E-13
 -1      2928 2.06752E+01 1.37816E+00-1.50440E-02 1.58624E+00 1.50769E-13-1.13215E-13
 -1      2929 2.05600E+01 1.86986E+00-1.12526E-03 1.19851E+00 1.57264E-13-1.26856E-13
 -1      2930 2.08854E+01 1.73789E+00-1.38341E-03 7.90080E-01 1.33749E-13-1.27738E-13
 -1      2931 1.40410E+01-1.81663E+00 1.59069E-01-7.09879E+00 3.03924E-13 6.54893E-14
 -1      2932 1.56834E+01-2.78030E+00 1.26004E-01 6.11612E+00-5.31519E-14 7.03326E-14
 -1      2933 1.28773E+01-1.65130E+00 1.68168E-01 5.58864E+00-4.21052E-14 1.94289E-14
 -1      2934 2.09185E+01 1.58282E+00 8.48510E-04-1.68613E+00-4.46652E-14-1.86557E-13
 -1      2935 2.27038E+01-3.74134E+00 8.00536E-02 6.11575E+00 1.93151E-13-1.37026E-14
 -1      2936 1.20633E+01-1.77861E-01 1.51577E-01 4.64986E+00-3.76782E-14 5.65104E-14
 -1      2937 2.95480E+01-9.56789E-01-3.16346E-02-2.22408E-01-4.55538E-14 1.93345E-13
 -1      2938 2.12151E+01 1.61469E+00 1.54235E-03-1.14130E+00 1.65516E-14-1.75638E-13
 -1      2939 2.11057E+01 1.57102E+00-1.50306E-02-1.40778E+00-1.74770E-14-1.97698E-13
 -1      2940 2.15156E+01 1.17032E+00 5.22647E-03-9.75508E-01 2.82105E-14-1.43992E-13
 -1      2941 1.99997E+01-1.30507E-04-8.15672E-07-2.84892E-04 1.11112E-13-2.30874E-14
 -1      2942 1.99997E+01-1.57132E-04 1.51611E-06-3.24193E-04-2.69763E-13 6.48209E-14
 -1      2943 1.99998E+01-2.05938E-04-5.77948E-07-3.11786E-04-1.69239E-13-5.01057E-13
 -1      2944 1.99997E+01-1.22603E-04-4.64988E-07-1.90010E-04-2.34814E-14 1.19458E-13
 -1      2945 1.99997E+01-1.14760E-04 1.82714E-07-2.39527E-04 7.21211E-14 2.74113E-14
 -1      2946 2.97486E+01-9.47210E-01-6.51330E-02 4.01474E-01 1.47209E-13-3.36772E-13
 -1      2947 2.86603E+01 2.77863E-01-6.30206E-02 1.45381E+00 1.42844E-13-3.09947E-13
 -1      2948 2.84060E+01-2.09989E+00-4.22098E-02-2.79565E-01 1.99726E-13-2.81435E-13
 -1      2949 1.81079E+01-2.29123E+00 3.65861E-02 6.05101E+00-6.08680E-14 8.08520E-14
 -1      2950 1.44104E+01 2.64000E+00 1.30315E-01 2.68021E+00 1.07424E-13-1.33171E-13
 -1      2951 1.99998E+01-2.11664E-04 8.24073E-07 2.76306E-04-1.11555E-13 3.29636E-13
 -1      2952 2.96033E+01 3.67912E+00-1.10462E-01-2.11236E+00-2.35589E-13 5.05429E-14
 -1      2953 2.86168E+01 2.11453E+00-6.76250E-02-1.93306E+00-9.04277E-14 1.42754E-13
 -1      2954 2.80602E+01 4.50899E+00-8.94183E-02-2.12208E+00-2.16133E-13 3.64847E-14
 -1      2955 8.06571E+00 1.87215E+00 2.06219E-01 1.61326E+00 1.05631E-13-3.68205E-13
 -1      2956 2.93014E+01 6.91208E+00-1.28851E-01 9.94829E-01-2.07501E-13-2.55178E-13
 -1      2957 7.54339E+00 1.53959E+00 2.50413E-01-1.57288E-01 4.62729E-14-6.11733E-14
 -1      2958 8.91618E+00 1.91574E+00 1.10551E-01-1.41067E+00 5.71704E-14-6.59195E-14
 -1      2959 8.87713E+00 1.81259E+00 1.16608E-01 1.36153E+00-5.84428E-15-2.73392E-14
 -1      2960 2.87897E+01 6.93960E+00-1.36297E-01-8.94339E-01-2.92599E-13-1.20876E-13
 -1      2961 2.08426E+01-4.24075E+00 8.44472E-02-6.97639E+00 3.71411E-13 1.16348E-14
 -1      2962 2.71262E+01-4.35565E+00-2.39071E-02-3.84489E+00 2.80782E-13-1.77039E-13
 -1      2963 2.74520E+01-3.66774E+00-3.67689E-02-2.23104E+00 2.58362E-13-2.32266E-13
 -1      2964 2.55561E+01-4.30015E+00 9.94478E-02-4.46541E+00 3.25611E-13-1.38310E-13
 -1      2965 1.99998E+01-2.20276E-04 1.11226E-07 3.05142E-04-1.46470E-13 4.05828E-13
 -1      2966 1.29444E+01 2.99708E+00 1.42289E-01-2.33073E+00 2.16667E-14-2.07563E-13
 -1      2967 1.69714E+01 3.14311E+00 2.10433E-02-1.83051E+00 9.05361E-14-3.62089E-14
 -1      2968 1.75130E+01 3.14873E+00-9.57305E-03-1.29307E+00 1.22550E-13 5.70139E-15
 -1      2969 1.68030E+01 3.53312E+00 1.98234E-02-7.70120E-01 1.48701E-13-4.18254E-14
 -1      2970 1.53252E+01 3.47122E+00 5.89384E-02-1.31814E+00 1.01464E-13-1.22081E-13
 -1      2971 9.28971E+00 1.17430E+00 2.54613E-01-2.95420E+00-7.68691E-14-3.62099E-13
 -1      2972 2.95276E+01 3.83355E+00-9.99618E-02 1.91992E+00-5.43732E-14-3.00926E-13
 -1      2973 2.11074E+01 1.68761E+00 2.77064E-03 3.17324E-01 1.15396E-13-1.21790E-13
 -1      2974 2.12355E+01 1.61866E+00-9.13621E-03-8.05949E-02 8.28764E-14-1.38519E-13
 -1      2975 2.15959E+01 1.14413E+00 2.92768E-04-2.72364E-01 6.40285E-14-1.32110E-13
 -1      2976 2.13606E+01 1.17282E+00-5.52973E-03 6.14885E-01 1.09393E-13-1.09957E-13
 -1      2977 1.03622E+01 1.81614E-01 1.76832E-01 5.89252E+00 2.29303E-13-2.89796E-13
 -1      2978 9.64922E+00 2.23219E+00 6.19383E-02-1.88911E+00 5.33601E-15-3.37813E-13
 -1      2979 1.55335E+01 3.80257E+00-1.92077E-02 1.16513E+00 2.23340E-13-9.95671E-14
 -1      2980 1.55695E+01 3.77492E+00 3.03620E-02 1.91324E+00 2.32369E-13-1.28376E-13
 -1      2981 1.01908E+01 1.39345E+00 1.18997E-01-3.51786E+00 3.73208E-14-7.22616E-14
 -1      2982 1.13430E+01 4.39244E-01 8.26960E-02-5.13515E+00 1.83256E-13-1.86157E-13
 -1      2983 2.11685E+01 1.18097E+00 2.87597E-03-1.55180E+00-2.86509E-14-1.66835E-13
 -1      2984 1.86617E+01 1.33617E+00-1.63112E-02 7.47469E-01 1.86332E-14-3.18165E-14
 -1      2985 1.83065E+01 1.58098E+00-1.25040E-02 8.87047E-01 3.17485E-14-2.47750E-14
 -1      2986 1.99999E+01-2.79463E-04 1.60446E-06-3.13830E-04-4.51472E-13-3.03860E-13
 -1      2987 1.99998E+01-2.52129E-04-1.19962E-06-3.31631E-04-3.64371E-13-6.00727E-13
 -1      2988 2.12571E+01 1.70247E-01 6.73731E-04-1.50353E+00-3.14549E-14-7.63685E-14
 -1      2989 2.11868E+01 1.34853E-01-3.85829E-03-1.48471E+00-2.33743E-14-6.20356E-14
 -1      2990 2.11725E+01 1.76313E-01-2.56781E-03-1.51409E+00-3.70032E-14-2.76165E-14
 -1      2991 2.10668E+01 2.92441E-01 1.89720E-03-1.48002E+00-2.90981E-14-4.48838E-14
 -1      2992 2.16477E+01 1.80263E-01 6.47084E-03-1.54782E+00 2.73653E-16-3.78467E-14
 -1      2993 2.09651E+01 4.63028E-01-7.22479E-03-1.44953E+00-5.84561E-14-5.12069E-14
 -1      2994 2.08443E+01 6.83332E-01 8.05481E-03-1.34492E+00-1.02823E-13-6.30989E-14
 -1      2995 2.15489E+01 4.44901E-01 7.12484E-03-1.56161E+00-5.54930E-14-2.78832E-14
 -1      2996 2.06835E+01 9.15714E-01-8.73818E-03-1.19457E+00-1.07523E-13-4.49311E-14
 -1      2997 2.05732E+01 1.15263E+00 1.10326E-02-9.85886E-01-9.30963E-14-5.65737E-14
 -1      2998 2.13149E+01 9.42086E-01 4.17529E-03-1.39437E+00-8.74052E-14-2.45781E-14
 -1      2999 2.04205E+01 1.34913E+00-5.03852E-03-6.95827E-01-7.91523E-14-6.53956E-14
 -1      3000 2.03503E+01 1.49651E+00 8.49083E-03-3.95160E-01-9.36770E-14-5.16218E-14
 -1      3001 2.10283E+01 1.47361E+00-1.86345E-03-9.50565E-01-1.09633E-13-3.25167E-14
 -1      3002 2.02786E+01 1.56427E+00 2.18333E-03-1.33963E-02-8.63731E-14-6.91208E-14
 -1      3003 2.02677E+01 1.54679E+00 9.85459E-04 3.19158E-01-9.65238E-14-5.42790E-14
 -1      3004 2.08195E+01 1.80232E+00-6.92684E-03-2.54681E-01-8.68644E-14-7.75649E-14
 -1      3005 2.03092E+01 1.44506E+00 8.83212E-03 6.91365E-01-6.93731E-14-1.53888E-14
 -1      3006 2.03554E+01 1.26070E+00-6.98031E-03 9.73591E-01-3.91336E-14 1.20123E-14
 -1      3007 2.07876E+01 1.75968E+00-7.24198E-03 5.32716E-01-5.43814E-14-8.78399E-14
 -1      3008 2.04751E+01 1.02629E+00 1.14579E-02 1.23495E+00-6.62918E-14 3.96210E-14
 -1      3009 2.05547E+01 7.44968E-01-1.07686E-02 1.40582E+00-6.57239E-14 3.63326E-14
 -1      3010 2.09297E+01 1.34209E+00-1.73886E-03 1.18776E+00-4.01408E-14 3.61525E-14
 -1      3011 2.06795E+01 4.63111E-01 9.05861E-03 1.50860E+00-5.87776E-14 2.20020E-14
 -1      3012 2.07608E+01 1.79728E-01-9.71974E-03 1.55261E+00-2.57318E-14 1.76253E-14
 -1      3013 2.11417E+01 7.04271E-01 5.14022E-03 1.55074E+00-4.86901E-14 6.67483E-14
 -1      3014 2.08287E+01-6.57560E-02 3.83441E-03 1.51282E+00 5.00820E-15-3.64342E-14
 -1      3015 2.08863E+01-2.79525E-01-5.75472E-03 1.45518E+00 3.87288E-15-5.53098E-14
 -1      3016 2.12980E+01 5.86999E-02 8.20383E-03 1.59522E+00-1.72466E-14 5.90635E-14
 -1      3017 2.08756E+01-4.41426E-01-1.03160E-03 1.32739E+00-1.95945E-14 4.19012E-15
 -1      3018 2.08989E+01-5.59639E-01-1.38653E-03 1.21145E+00 2.83536E-14 8.07984E-15
 -1      3019 2.13243E+01-4.32481E-01 6.30643E-03 1.40505E+00 1.59584E-14 9.19485E-16
 -1      3020 2.08243E+01-6.32602E-01-3.70949E-03 1.05267E+00-5.93851E-14-6.42175E-14
 -1      3021 2.08170E+01-6.65704E-01 2.12627E-03 9.18179E-01-1.37036E-13-9.08456E-14
 -1      3022 2.12208E+01-7.04784E-01 3.18817E-03 1.10265E+00-8.86663E-14-6.13002E-15
 -1      3023 2.07072E+01-6.69231E-01-4.44985E-03 7.67717E-01-8.02937E-14-5.24160E-14
 -1      3024 2.06797E+01-6.44160E-01 3.96077E-03 6.41543E-01-3.44002E-14-4.26999E-14
 -1      3025 2.10315E+01-7.83293E-01 7.12151E-05 7.86725E-01-7.19994E-14-1.14217E-13
 -1      3026 2.05626E+01-6.05471E-01-4.00548E-03 5.18886E-01-6.78759E-14-2.99748E-14
 -1      3027 2.05262E+01-5.50351E-01 4.43355E-03 4.14404E-01-9.68116E-14-1.01847E-14
 -1      3028 2.08094E+01-7.28632E-01-2.01891E-03 5.14523E-01-5.94686E-14-1.13262E-13
 -1      3029 2.04201E+01-4.93409E-01-3.08563E-03 3.24080E-01-1.08693E-13 3.23359E-15
 -1      3030 2.03835E+01-4.29602E-01 4.06066E-03 2.44830E-01-7.50209E-14-5.08360E-14
 -1      3031 2.05964E+01-6.05222E-01-2.92840E-03 3.06710E-01-7.10066E-14-1.18487E-13
 -1      3032 2.02973E+01-3.70777E-01-2.14881E-03 1.83410E-01-3.34619E-14-7.34048E-14
 -1      3033 2.02654E+01-3.11239E-01 3.30637E-03 1.27419E-01-1.43001E-14-2.03336E-13
 -1      3034 2.04158E+01-4.61841E-01-2.98457E-03 1.61478E-01-1.07808E-13-1.07908E-13
 -1      3035 2.02005E+01-2.59539E-01-1.38571E-03 8.86185E-02-1.30690E-14-2.29646E-13
 -1      3036 2.01753E+01-2.10365E-01 2.47568E-03 5.15868E-02-5.07371E-14-3.02501E-13
 -1      3037 2.02754E+01-3.27959E-01-2.58418E-03 6.73724E-02-2.39650E-14-1.71437E-13
 -1      3038 2.01295E+01-1.69357E-01-8.33392E-04 2.90134E-02 2.12968E-15-2.41205E-13
 -1      3039 2.01109E+01-1.32093E-01 1.73227E-03 6.21228E-03 9.20800E-14-1.90340E-13
 -1      3040 2.01736E+01-2.17343E-01-2.01826E-03 1.09549E-02 2.34342E-14-1.42100E-13
 -1      3041 2.00803E+01-1.02000E-01-4.62967E-04-5.47828E-03 1.16451E-13-1.84956E-13
 -1      3042 2.00672E+01-7.56847E-02 1.13982E-03-1.82685E-02 1.25899E-14-2.17197E-13
 -1      3043 2.01039E+01-1.33475E-01-1.46178E-03-1.96645E-02 8.73200E-14-9.60918E-14
 -1      3044 2.00479E+01-5.50463E-02-2.28018E-04-2.30959E-02-3.01583E-14-1.92985E-13
 -1      3045 2.00391E+01-3.76488E-02 7.04037E-04-2.92478E-02-6.58654E-14-1.69470E-13
 -1      3046 2.00587E+01-7.41872E-02-9.95294E-04-3.36932E-02 5.25806E-15-2.26505E-13
 -1      3047 2.00275E+01-2.44157E-02-8.61636E-05-3.00310E-02 9.41524E-15-1.04511E-13
 -1      3048 2.00218E+01-1.37027E-02 4.03363E-04-3.20486E-02-3.23654E-14 6.76298E-15
 -1      3049 2.00308E+01-3.49240E-02-6.41256E-04-3.77056E-02 1.70541E-14-2.05731E-13
 -1      3050 2.00153E+01-5.85290E-03-5.07229E-06-3.06590E-02-7.21246E-14 1.75521E-14
 -1      3051 2.00116E+01 1.73321E-04 2.07577E-04-3.02973E-02-3.57217E-15 9.51123E-14
 -1      3052 2.00146E+01-1.06817E-02-3.91510E-04-3.61291E-02 6.77579E-15 2.01006E-14
 -1      3053 2.00082E+01 4.35134E-03 3.77218E-05-2.79170E-02 1.02899E-13 1.06233E-13
 -1      3054 2.00059E+01 7.28750E-03 8.75113E-05-2.63431E-02 1.96498E-13 2.02973E-13
 -1      3055 2.00058E+01 3.01362E-03-2.25714E-04-3.18014E-02 8.16226E-14 7.77332E-14
 -1      3056 2.00044E+01 9.11245E-03 5.70756E-05-2.36792E-02 1.88762E-13 1.79562E-13
 -1      3057 2.00029E+01 1.01397E-02 1.90085E-05-2.16279E-02 1.18494E-13 1.41320E-13
 -1      3058 2.00014E+01 9.73880E-03-1.21654E-04-2.64537E-02 1.46421E-13 6.19395E-14
 -1      3059 2.00024E+01 1.05597E-02 6.25603E-05-1.90730E-02 8.08314E-14 1.91268E-13
 -1      3060 2.00014E+01 1.04994E-02-1.62198E-05-1.69767E-02 1.43871E-13 1.46168E-13
 -1      3061 1.99996E+01 1.21434E-02-5.99949E-05-2.10787E-02 1.04431E-13 8.55489E-14
 -1      3062 2.00014E+01 1.01569E-02 6.02454E-05-1.47240E-02 7.22191E-14 2.18328E-13
 -1      3063 2.00007E+01 9.54873E-03-3.11527E-05-1.28130E-02 1.41038E-13 2.73423E-13
 -1      3064 1.99991E+01 1.20738E-02-2.57819E-05-1.61947E-02 1.17001E-13 2.34894E-13
 -1      3065 2.00009E+01 8.85493E-03 5.39266E-05-1.09343E-02 8.54725E-14 1.51371E-13
 -1      3066 2.00004E+01 8.03313E-03-3.45280E-05-9.31071E-03 9.08236E-14 1.35027E-13
 -1      3067 1.99992E+01 1.07466E-02-8.35654E-06-1.20267E-02 6.69531E-14 2.21476E-13
 -1      3068 2.00006E+01 7.23495E-03 4.59359E-05-7.80841E-03 6.13652E-14 1.42394E-14
 -1      3069 2.00003E+01 6.39197E-03-3.19422E-05-6.49723E-03-2.11505E-14-1.38434E-14
 -1      3070 1.99994E+01 8.91856E-03-5.88881E-07-8.62680E-03 2.99589E-14-1.18686E-13
 -1      3071 2.00005E+01 5.62562E-03 3.76696E-05-5.33723E-03 2.68219E-14-1.45449E-13
 -1      3072 2.00003E+01 4.86114E-03-2.67975E-05-4.32092E-03-1.33789E-13-1.29152E-13
 -1      3073 1.99997E+01 7.02794E-03 2.02270E-06-5.95215E-03-6.16167E-14-1.88205E-13
 -1      3074 2.00004E+01 4.19205E-03 2.99224E-05-3.45339E-03-6.32885E-14 6.46110E-14
 -1      3075 2.00002E+01 3.54816E-03-2.10297E-05-2.69399E-03-1.60878E-14 2.04896E-13
 -1      3076 2.00000E+01 5.30392E-03 2.16209E-06-3.91388E-03 9.94973E-15-1.72772E-13
 -1      3077 2.00003E+01 2.99914E-03 2.30915E-05-2.06546E-03-1.58938E-13 2.95182E-13
 -1      3078 2.00002E+01 2.48452E-03-1.56335E-05-1.51807E-03-1.68179E-13 1.79385E-13
 -1      3079 2.00001E+01 3.84525E-03 1.35485E-06-2.40700E-03 1.24706E-14-2.07980E-14
 -1      3080 2.00002E+01 2.05461E-03 1.73202E-05-1.07802E-03-2.50314E-13 1.83441E-13
 -1      3081 2.00001E+01 1.66027E-03-1.10465E-05-6.98401E-04-2.70467E-13 1.25337E-13
 -1      3082 2.00002E+01 2.67453E-03 3.73026E-07-1.32745E-03-2.32619E-13 1.13437E-13
 -1      3083 2.00002E+01 1.33662E-03 1.26098E-05-4.02442E-04-1.27789E-13 1.82976E-13
 -1      3084 2.00001E+01 1.04556E-03-7.39363E-06-1.50928E-04 4.19693E-14 5.84326E-14
 -1      3085 2.00003E+01 1.77364E-03-4.56524E-07-5.80714E-04-2.06183E-13 3.35209E-13
 -1      3086 2.00001E+01 8.10624E-04 8.87956E-06 3.80788E-05 3.16666E-13-4.83782E-14
 -1      3087 2.00000E+01 6.03473E-04-4.62805E-06 1.94920E-04 2.94962E-13 8.26964E-14
 -1      3088 2.00002E+01 1.10565E-03-1.02107E-06-8.57305E-05 2.18718E-14 2.17111E-13
 -1      3089 2.00000E+01 4.39123E-04 6.00623E-06 3.06842E-04 1.65754E-13 4.68429E-14
 -1      3090 2.00000E+01 2.97288E-04-2.62717E-06 3.95965E-04 4.80666E-14 2.31236E-14
 -1      3091 2.00002E+01 6.27790E-04-1.32460E-06 2.24114E-04 2.55143E-13-7.72064E-14
 -1      3092 2.00000E+01 1.86869E-04 3.85373E-06 4.54061E-04-9.32443E-14 6.64416E-14
 -1      3093 1.99999E+01 9.39455E-05-1.24549E-06 4.96395E-04-5.29771E-14-4.81145E-14
 -1      3094 2.00001E+01 2.98539E-04-1.41998E-06 4.01727E-04-8.11054E-14 4.27192E-14
 -1      3095 1.99999E+01 2.31611E-05 2.29183E-06 5.18241E-04 7.85480E-14-1.38818E-14
 -1      3096 1.99999E+01-3.45972E-05-3.43460E-07 5.29472E-04 6.59414E-14 6.82049E-14
 -1      3097 2.00001E+01 8.10619E-05-1.36975E-06 4.87878E-04 1.72528E-14 5.54486E-14
 -1      3098 1.99999E+01-7.75396E-05 1.20054E-06 5.27937E-04 1.00519E-13 1.33227E-13
 -1      3099 1.99999E+01-1.11306E-04 1.92193E-07 5.19382E-04 2.28025E-13 2.47780E-13
 -1      3100 2.00000E+01-5.56631E-05-1.23437E-06 5.13068E-04 2.28758E-13 3.08784E-13
 -1      3101 1.99998E+01-1.35871E-04 4.86888E-07 5.03474E-04 2.05951E-13 1.72308E-13
 -1      3102 1.99998E+01-1.54449E-04 4.88945E-07 4.82915E-04 4.27612E-14 4.27803E-14
 -1      3103 2.00000E+01-1.36969E-04-1.07153E-06 4.99347E-04 2.09838E-13 3.11845E-13
 -1      3104 1.99998E+01-1.68279E-04 3.72305E-08 4.58772E-04-4.98245E-14 2.86455E-14
 -1      3105 1.99998E+01-1.78820E-04 5.07174E-07 4.31160E-04 3.80842E-15 3.55782E-14
 -1      3106 1.99999E+01-1.82911E-04-8.91925E-07 4.61865E-04-9.86847E-15 2.25510E-13
 -1      3107 1.99998E+01-1.87614E-04-2.37852E-07 4.02144E-04 9.60842E-14 3.23780E-13
 -1      3108 1.99998E+01-1.95422E-04 3.33644E-07 3.70407E-04 1.42067E-14 4.23380E-13
 -1      3109 1.99999E+01-2.09556E-04-6.05891E-07 4.10841E-04 2.24480E-13 4.31297E-13
 -1      3110 1.99998E+01-2.14178E-04 1.88398E-07 3.30563E-04-2.52617E-13 4.09516E-13
 -1      3111 1.76929E+01 1.84254E+00-2.27916E-02 9.11147E-01 3.03006E-14 6.05425E-14
 -1      3112 1.70923E+01 2.11441E+00-1.90361E-02 1.06112E+00 8.10393E-14 5.37157E-15
 -1      3113 1.76792E+01 1.84643E+00 3.80518E-02 4.27753E-01 4.84273E-14 1.42986E-13
 -1      3114 2.41374E+01-3.74798E+00-8.86756E-02 4.91319E+00 1.93651E-13 5.95895E-14
 -1      3115 2.12046E+01-2.86750E+00 1.46142E-01 6.20983E+00 2.38344E-13-5.02376E-15
 -1      3116 1.97894E+01 4.20699E-01-4.92507E-03 3.21842E-01 2.48763E-13-4.37986E-13
 -1      3117 1.97357E+01 5.17480E-01-5.88083E-04 3.92424E-01 9.82795E-14-4.08222E-13
 -1      3118 1.98997E+01 2.78115E-01-3.17149E-03 2.31946E-01 8.11426E-14-2.32991E-13
 -1      3119 1.98749E+01 3.43678E-01 2.94967E-04 2.83152E-01 2.16928E-13-4.01387E-13
 -1      3120 1.97446E+01 4.37062E-01 5.32888E-03 2.49456E-01 2.07638E-13-3.41023E-13
 -1      3121 1.99569E+01 1.86883E-01-2.03262E-03 1.67953E-01-2.41270E-13-1.50236E-13
 -1      3122 1.99476E+01 2.29217E-01 6.41124E-04 2.03213E-01-1.16204E-13-2.25191E-13
 -1      3123 1.98630E+01 2.94386E-01 3.08742E-03 1.89642E-01-7.27515E-14-1.39483E-13
 -1      3124 1.99879E+01 1.22689E-01-1.33899E-03 1.18599E-01-1.78372E-13-5.27884E-14
 -1      3125 1.99856E+01 1.52173E-01 6.41486E-04 1.44665E-01-2.16882E-13-1.64643E-13
 -1      3126 1.99308E+01 1.97548E-01 1.76570E-03 1.41471E-01-2.22417E-13-8.16032E-14
 -1      3127 2.00026E+01 8.07396E-02-8.41924E-04 8.32693E-02 5.18091E-14 5.32949E-14
 -1      3128 2.00038E+01 1.00039E-01 5.62432E-04 1.01427E-01-5.68880E-14 3.45985E-14
 -1      3129 1.99693E+01 1.31062E-01 1.00631E-03 1.03124E-01-1.82416E-13-1.01618E-13
 -1      3130 2.00084E+01 5.33374E-02-5.26010E-04 5.81615E-02 1.29758E-13 4.67389E-14
 -1      3131 2.00110E+01 6.59681E-02 4.60491E-04 7.07545E-02 1.63584E-13 1.60632E-13
 -1      3132 1.99895E+01 8.69986E-02 5.39180E-04 7.43365E-02 3.95812E-14 1.79309E-13
 -1      3133 2.00098E+01 3.54214E-02-3.27048E-04 4.03907E-02 3.01361E-13 1.55708E-14
 -1      3134 2.00126E+01 4.37011E-02 3.59410E-04 4.91176E-02 1.56027E-13 1.71911E-13
 -1      3135 1.99995E+01 5.79470E-02 2.72102E-04 5.30795E-02 1.32215E-13 2.81229E-13
 -1      3136 2.00091E+01 2.36587E-02-2.02678E-04 2.78367E-02 1.26050E-13 2.28917E-13
 -1      3137 2.00116E+01 2.91118E-02 2.72601E-04 3.38890E-02 2.68520E-13 1.62695E-13
 -1      3138 2.00038E+01 3.87796E-02 1.24438E-04 3.75471E-02 2.33038E-13 3.78127E-13
 -1      3139 2.00076E+01 1.58822E-02-1.25441E-04 1.89774E-02 2.05776E-15 1.69988E-13
 -1      3140 2.00097E+01 1.95002E-02 2.03078E-04 2.31793E-02 8.76869E-14 2.14329E-13
 -1      3141 2.00051E+01 2.60827E-02 4.57148E-05 2.62766E-02 1.51894E-13 4.98676E-13
 -1      3142 2.00059E+01 1.07037E-02-7.30574E-05 1.27383E-02-1.20068E-13 6.06457E-14
 -1      3143 2.00076E+01 1.31172E-02 1.49687E-04 1.56528E-02-8.88061E-14 5.17566E-14
 -1      3144 2.00051E+01 1.76140E-02 5.18648E-06 1.81429E-02 7.14668E-15 1.45925E-13
 -1      3145 2.00045E+01 7.35260E-03-4.47613E-05 8.53895E-03-1.90181E-13 1.36062E-13
 -1      3146 2.00057E+01 8.93559E-03 1.10633E-04 1.04866E-02-1.43092E-13-3.85520E-15
 -1      3147 2.00044E+01 1.20108E-02-1.96907E-05 1.24147E-02-9.05198E-14 1.27942E-13
 -1      3148 2.00032E+01 4.92113E-03-2.96593E-05 5.41571E-03-1.82856E-13 1.47146E-13
 -1      3149 2.00042E+01 6.05699E-03 7.93415E-05 6.83590E-03-2.08881E-13 1.09631E-13
 -1      3150 2.00036E+01 8.21718E-03-1.82410E-05 8.31627E-03-2.23100E-13-2.65299E-14
 -1      3151 2.00022E+01 3.25922E-03-1.82325E-05 3.25699E-03-4.92831E-14 7.66154E-14
 -1      3152 2.00029E+01 4.04123E-03 5.74599E-05 4.22880E-03-1.31559E-14 7.95783E-14
 -1      3153 2.00028E+01 5.51901E-03-1.90801E-05 5.31989E-03-7.88688E-14 9.86467E-14
 -1      3154 2.00014E+01 2.11447E-03-1.08698E-05 1.78429E-03 1.52405E-13-3.81985E-14
 -1      3155 2.00019E+01 2.65361E-03 4.08154E-05 2.43885E-03 4.97135E-14 1.27895E-13
 -1      3156 2.00021E+01 3.65970E-03-1.74348E-05 3.22584E-03 1.94190E-15 9.87342E-14
 -1      3157 2.00009E+01 1.32530E-03-6.23487E-06 8.00567E-04 1.03521E-13-2.56489E-14
 -1      3158 2.00012E+01 1.69654E-03 2.86015E-05 1.23148E-03 1.40631E-13 8.59402E-14
 -1      3159 2.00015E+01 2.37334E-03-1.47553E-05 1.78591E-03 1.05391E-13 8.02289E-14
 -1      3160 2.00005E+01 7.84196E-04-3.30465E-06 1.63586E-04 1.02465E-13-7.86807E-14
 -1      3161 2.00007E+01 1.03793E-03 1.96972E-05 4.37571E-04 2.08065E-14-1.83887E-13
 -1      3162 2.00010E+01 1.48420E-03-1.19342E-05 8.17994E-04 1.06727E-13 2.02891E-13
 -1      3163 2.00002E+01 4.17854E-04-1.42922E-06-2.29912E-04-4.24396E-15-5.91654E-14
 -1      3164 2.00003E+01 5.88653E-04 1.32520E-05-6.50012E-05 1.26893E-13-3.98988E-14
 -1      3165 2.00007E+01 8.73809E-04-9.35644E-06 1.87762E-04 4.23052E-14 1.40235E-13
 -1      3166 2.00000E+01 1.75538E-04-1.00609E-07-4.54751E-04 4.95383E-13-2.89766E-13
 -1      3167 2.00001E+01 2.86962E-04 8.55335E-06-3.64772E-04 2.05790E-13-1.55691E-13
 -1      3168 2.00004E+01 4.60668E-04-7.16272E-06-2.03781E-04 1.92313E-13-8.35460E-14
 -1      3169 1.99999E+01 2.60871E-05 5.52905E-07-5.62193E-04 4.96495E-14-5.46364E-14
 -1      3170 1.99999E+01 9.45255E-05 5.32982E-06-5.22734E-04 1.35390E-13-3.20755E-13
 -1      3171 2.00002E+01 1.90736E-04-5.77780E-06-4.26210E-04 2.11578E-13-2.71259E-13
 -1      3172 1.99998E+01-7.19244E-05 7.63497E-07-6.01461E-04 3.75461E-13 2.47650E-13
 -1      3173 1.99998E+01-2.86739E-05 3.08518E-06-5.92255E-04 3.32225E-13 8.02860E-14
 -1      3174 2.00001E+01 1.92126E-05-4.00652E-06-5.38514E-04 9.27880E-14 7.44464E-14
 -1      3175 1.99998E+01-1.27308E-04 9.05902E-07-5.91819E-04 9.30020E-14 4.58844E-13
 -1      3176 1.99998E+01-1.03337E-04 1.59213E-06-6.03147E-04 2.59020E-13 4.21476E-13
 -1      3177 2.00000E+01-9.00787E-05-2.91705E-06-5.79720E-04 2.06884E-13 5.05233E-13
 -1      3178 1.99997E+01-1.55450E-04 9.42401E-07-5.52891E-04 1.30316E-13 3.89463E-13
 -1      3179 1.99997E+01-1.43896E-04 5.64541E-07-5.76351E-04 3.39708E-13 5.98890E-13
 -1      3180 1.99999E+01-1.51906E-04-2.08032E-06-5.72457E-04 1.83236E-13 5.79286E-13
 -1      3181 1.99997E+01-1.67986E-04 7.99420E-07-4.97514E-04-2.18120E-14 6.80376E-14
 -1      3182 1.99997E+01-1.63220E-04-7.51339E-08-5.27641E-04-9.77628E-15 1.30913E-13
 -1      3183 1.99999E+01-1.83435E-04-1.44564E-06-5.35871E-04 1.27366E-13 2.03791E-13
 -1      3184 1.99997E+01-1.74136E-04 5.55403E-07-4.33718E-04-7.36752E-13-7.43904E-14
 -1      3185 1.99997E+01-1.70838E-04-2.40208E-07-4.66862E-04-2.98561E-13-1.67111E-13
 -1      3186 1.99998E+01-1.97574E-04-7.18364E-07-4.82926E-04-1.07278E-13-1.67525E-13
 -1      3187 1.99998E+01-2.22312E-04 1.77964E-06-3.37654E-04-2.52390E-13-7.38389E-13
 -1      3188 1.99998E+01-1.89743E-04-1.02169E-06-3.35353E-04-2.51952E-13-3.99972E-13
 -1      3189 1.99997E+01-1.80435E-04-2.65584E-07-3.53931E-04-5.10069E-13-2.11211E-13
 -1      3190 1.99998E+01-2.36277E-04-1.08404E-07-3.60189E-04-6.31549E-13-6.76664E-13
 -1      3191 2.00000E+01-3.29257E-04 1.44946E-06-2.48021E-04-4.05239E-13 8.14655E-14
 -1      3192 1.99999E+01-3.08034E-04-7.16376E-07-2.82427E-04-4.06948E-13 7.97056E-14
 -1      3193 1.99999E+01-2.87338E-04-7.13702E-07-3.21887E-04-5.48995E-13-1.63885E-13
 -1      3194 2.00000E+01-3.53275E-04-2.30687E-07 1.66961E-04 1.63068E-13 5.17555E-14
 -1      3195 2.00000E+01-3.64649E-04 9.88818E-07 1.19822E-04 1.62439E-13 1.42559E-14
 -1      3196 2.00000E+01-3.73753E-04 2.99233E-07 6.31138E-05 1.17064E-13-1.42069E-14
 -1      3197 2.00001E+01-3.77246E-04 6.51372E-07 1.04964E-05 6.74291E-14 1.09555E-13
 -1      3198 2.00001E+01-3.56762E-04-6.92064E-07 9.84146E-05 1.50680E-14-1.23278E-15
 -1      3199 1.99999E+01-2.64987E-04-4.40707E-07 3.13019E-04 1.39613E-14 3.39685E-13
 -1      3200 1.99999E+01-2.91047E-04 1.39203E-06 2.90125E-04 1.47384E-13 2.66201E-13
 -1      3201 2.83900E+01-2.29374E-01-1.10575E-01-1.16551E+00-3.84137E-14 1.62589E-13
 -1      3202 2.83226E+01-1.81509E+00 2.90291E-02 1.86525E-01 1.70385E-14 1.89675E-13
 -1      3203 2.81749E+01 6.03911E+00-1.03848E-01 1.49776E+00-1.98008E-13-2.63140E-13
 -1      3204 2.78141E+01 6.82759E+00-1.29062E-01 6.77407E-01-2.00659E-13-2.16747E-13
 -1      3205 1.10536E+01 1.91338E+00 2.38964E-01 3.00144E+00-2.15210E-14 6.41986E-14
 -1      3206 1.29909E+01 7.97043E-01 8.62750E-02 4.56388E+00-3.39589E-14 6.40044E-14
 -1      3207 1.09207E+01 2.31214E+00 3.79868E-02 1.62379E+00-3.42781E-15-6.68632E-14
 -1      3208 1.25388E+01 3.40616E-01 3.15219E-02 6.13962E+00 2.70367E-13-2.09721E-13
 -1      3209 1.02304E+01 1.62415E+00 1.48959E-01 4.48833E+00 2.12490E-13-2.57350E-13
 -1      3210 1.92469E+01 9.29831E-01-1.11135E-02 5.83404E-01 1.61861E-14-1.27273E-13
 -1      3211 1.90475E+01 1.12102E+00-6.34034E-03 7.01964E-01 1.36289E-14-9.61203E-14
 -1      3212 1.86100E+01 1.34727E+00 2.35797E-02 4.39892E-01 3.42131E-15-8.24714E-14
 -1      3213 2.75163E+01 6.84762E+00-1.43205E-01-2.39453E-01-2.35312E-13-1.59895E-13
 -1      3214 2.74013E+01 6.12858E+00-9.94685E-02-1.27066E+00-2.97096E-13-9.73943E-14
 -1      3215 2.00000E+01-3.16975E-04-8.27025E-07 2.53153E-04 8.60974E-14 1.22577E-14
 -1      3216 2.00000E+01-3.35219E-04 1.21092E-06 2.15345E-04 1.38472E-13-1.64235E-14
 -1      3217 2.00000E+01-3.31998E-04-6.92172E-07 2.06470E-04-2.34159E-14-1.62982E-14
 -1      3218 2.00000E+01-2.92884E-04 2.48870E-07 2.92992E-04 5.18178E-14 4.85915E-14
 -1      3219 1.95916E+01 6.30513E-01-7.45295E-03 4.38945E-01 8.17455E-14-2.30946E-13
 -1      3220 1.94850E+01 7.69489E-01-2.54088E-03 5.32736E-01 9.10465E-14-1.85683E-13
 -1      3221 1.95368E+01 6.48356E-01 8.93003E-03 3.19975E-01 2.30636E-13-3.43452E-13
 -1      3222 1.35576E+01-6.72059E-01 1.25899E-01-6.17835E+00 2.91052E-13-4.87110E-15
 -1      3223 1.62656E+01-2.29720E+00-8.84923E-03-7.01308E+00 3.42330E-13 1.32672E-13
 -1      3224 2.73062E+01-3.03526E+00-1.12647E-01 1.84207E+00 5.87776E-14 2.10502E-13
 -1      3225 2.63517E+01-3.37949E+00 9.41750E-02 3.19242E+00 1.40882E-13 1.44405E-13
 -1      3226 1.76607E+01-2.00702E+00-6.37208E-02 6.93849E+00 2.72372E-13-8.03108E-14
 -1      3227 1.53378E+01-7.54805E-01 1.58896E-01 6.77796E+00 2.80338E-13-1.34143E-13
 -1      3228 1.61314E+01 2.37202E+00-2.76797E-02 1.04402E+00 1.73646E-14 4.66007E-14
 -1      3229 1.51823E+01 2.58805E+00-9.93422E-03 1.19436E+00 5.18249E-15-1.00024E-14
 -1      3230 1.62008E+01 2.38162E+00 6.10777E-02 2.90658E-01 4.11515E-14 1.78745E-13
 -1      3231 1.95360E+01 1.42080E+00-1.46716E-02 2.92535E+00 2.18832E-13-1.44635E-13
 -1      3232 2.03440E+01 1.12820E+00 2.18108E-02 2.54843E+00 1.92982E-13-1.26423E-13
 -1      3233 2.82465E+01 2.77245E+00-7.20557E-02 2.01686E+00 3.09891E-14-3.53016E-13
 -1      3234 2.82596E+01 4.64780E+00-1.52697E-01 1.90887E+00-9.47575E-14-3.01335E-13
 -1      3235 9.41265E+00 2.38440E+00 1.23744E-01 2.90667E+00 1.65562E-13-2.89546E-13
 -1      3236 9.76814E+00 2.97668E+00 1.88030E-01 6.07330E-01 1.07622E-13-3.23644E-13
 -1      3237 1.18143E+01 2.51014E+00 1.21379E-01 3.30354E+00 2.07983E-13-2.27152E-13
 -1      3238 1.95689E+01-3.36216E+00 1.21576E-01-6.74303E+00 3.71980E-13 3.62210E-15
 -1      3239 2.26628E+01-4.40252E+00-6.63580E-02-5.97321E+00 3.70731E-13-7.01869E-14
 -1      3240 1.61554E+01 3.68670E+00-1.79662E-03-1.06564E-01 1.73617E-13-7.02979E-14
 -1      3241 1.58000E+01 3.89329E+00 2.61852E-02 4.79758E-01 2.08021E-13-8.56294E-14
 -1      3242 1.49190E+01 3.75650E+00 3.24520E-02 1.02203E+00 2.11190E-13-1.20755E-13
 -1      3243 1.54935E+01 3.68285E+00 1.83943E-02-3.74455E-01 1.55344E-13-1.09830E-13
 -1      3244 1.38554E+01 1.10957E-01 1.12669E-01-5.20849E+00 2.20435E-13-1.14027E-13
 -1      3245 1.36714E+01 2.69758E+00-1.04854E-02 1.14720E+00 4.59910E-14-5.53689E-14
 -1      3246 1.22902E+01 2.57765E+00 4.97446E-02 1.33594E+00-3.12250E-16-6.41362E-14
 -1      3247 2.12226E+01 8.33861E-01-3.27054E-03-1.47088E+00-3.23771E-14-1.54480E-13
 -1      3248 2.60451E+01 5.27989E+00-5.13234E-02-1.28888E+00-1.94025E-13-8.67223E-14
 -1      3249 2.71040E+01 5.02309E+00-1.11489E-01-1.78725E+00-2.08548E-13-5.74402E-14
 -1      3250 2.66849E+01 3.81895E+00-5.25375E-02-1.98558E+00-1.09482E-13 4.54740E-14
 -1      3251 1.99999E+01-2.39200E-04 5.77566E-08 3.41678E-04 6.51022E-14 5.03095E-13
 -1      3252 2.46721E+01-3.06614E+00 9.80874E-03 3.69093E+00 1.75499E-13 1.01104E-13
 -1      3253 1.88671E+01-2.39651E+00 1.04912E-01-6.09009E+00 3.16080E-13 4.22301E-14
 -1      3254 2.18494E+01 7.83638E-01 5.40332E-03-8.57943E-01 4.34506E-14-1.13681E-13
 -1      3255 2.16934E+01 7.61530E-01-1.57492E-02-1.14304E+00 1.60644E-14-1.37177E-13
 -1      3256 2.74633E+01 3.35861E-02-4.02674E-02 1.45745E+00 1.08774E-13-2.76848E-13
 -1      3257 2.80306E+01 1.26353E+00-8.79785E-02 1.91985E+00 7.36217E-14-3.26149E-13
 -1      3258 2.70443E+01 2.34653E+00-3.67892E-02 2.11365E+00 1.84575E-14-3.04930E-13
 -1      3259 2.00000E+01-3.62302E-04 1.09419E-06-1.55659E-04-2.44937E-13 1.20691E-13
 -1      3260 2.00000E+01-3.48662E-04-1.80304E-07-2.01565E-04-1.81465E-13-2.68670E-14
 -1      3261 2.00000E+01-3.30638E-04-7.87840E-07-2.41179E-04-3.23863E-13 1.80527E-13
 -1      3262 1.99997E+01-1.75535E-04-2.65312E-08-3.87986E-04-6.89666E-13-1.34541E-13
 -1      3263 1.99998E+01-2.05151E-04-1.00082E-06-4.08440E-04-7.69413E-13-6.55407E-13
 -1      3264 2.79506E+01-2.84815E+00-7.41939E-03-9.32292E-01 2.29549E-13-2.95403E-13
 -1      3265 2.75824E+01-1.81761E+00-4.20927E-02 3.36564E-01 1.93191E-13-3.14901E-13
 -1      3266 2.68613E+01-3.29270E+00-5.25454E-03-1.68840E+00 2.55336E-13-2.36557E-13
 -1      3267 1.59772E+01 3.28424E+00-3.71700E-02 2.71188E+00 2.44028E-13-1.33331E-13
 -1      3268 1.67403E+01 3.00065E+00 4.58535E-02 3.09882E+00 2.48562E-13-1.23946E-13
 -1      3269 1.52962E+01 3.30935E+00 4.55603E-02 2.59994E+00 2.31037E-13-1.35839E-13
 -1      3270 1.99999E+01-2.42913E-04-1.31501E-07 3.54913E-04 1.87812E-13 4.69917E-13
 -1      3271 2.70805E+01-2.12539E+00 2.81375E-03 6.51391E-01 5.18825E-14 1.38788E-13
 -1      3272 1.07990E+01 2.82694E+00 9.75074E-02-5.70542E-01 6.88980E-14-2.92502E-13
 -1      3273 1.24599E+01 3.42037E+00 4.79530E-02-8.12582E-02 1.15945E-13-2.24439E-13
 -1      3274 2.66064E+01 6.09839E+00-9.20219E-02 2.24978E-01-2.02033E-13-1.80714E-13
 -1      3275 2.00744E+01-1.88384E+00 8.57979E-02 5.85655E+00 2.61145E-13-5.15473E-14
 -1      3276 2.41871E+01-4.00741E+00 4.32902E-02-4.51329E+00 3.21652E-13-4.07278E-14
 -1      3277 1.91869E+01 9.46338E-01 1.46393E-02 3.90637E-01 7.78670E-14-2.72370E-13
 -1      3278 1.10879E+01 2.70106E+00 1.91449E-01-1.48295E-01 2.26633E-14-2.46261E-14
 -1      3279 1.47373E+01 5.42976E-01 1.02754E-01 5.73720E+00 2.81129E-13-1.66665E-13
 -1      3280 2.70858E+01 4.77773E+00-7.61305E-02 1.71159E+00-9.83935E-14-2.58911E-13
 -1      3281 1.45107E+01 3.60833E+00-3.20656E-03-6.16516E-01 1.20910E-13-1.38011E-13
 -1      3282 1.32175E+01 3.59221E+00 7.00300E-02 9.51370E-01 1.75585E-13-1.81886E-13
 -1      3283 2.79962E+01 7.35082E-01-4.23713E-02-1.77889E+00-3.35010E-14 1.43358E-13
 -1      3284 2.69517E+01-2.83656E-01-3.05866E-02-1.25948E+00-8.75862E-15 1.30429E-13
 -1      3285 2.70028E+01 1.76003E+00-5.04838E-02-2.11158E+00-3.83027E-14 9.67768E-14
 -1      3286 2.09703E+01 8.97714E-01 4.63450E-03 1.96807E+00 1.57588E-13-8.51235E-14
 -1      3287 2.14451E+01 6.99352E-01-2.96632E-03 1.47841E+00 1.24140E-13-7.78253E-14
 -1      3288 2.10412E+01 3.65276E-01-1.48170E-02 2.47214E+00 1.56976E-13-7.27467E-14
 -1      3289 1.38936E+01 2.74004E+00 9.71328E-02-2.68853E-02-3.31801E-14 1.13680E-13
 -1      3290 1.76449E+01 2.30367E+00-3.42030E-02 3.28380E+00 2.58971E-13-1.21242E-13
 -1      3291 1.86217E+01 1.96664E+00 4.29169E-02 3.23487E+00 2.44730E-13-1.52309E-13
 -1      3292 1.92431E+01 1.04973E+00-1.83898E-02 3.47655E+00 2.25315E-13-1.22883E-13
 -1      3293 1.71298E+01 2.17555E+00 2.75269E-02 3.64168E+00 2.56146E-13-1.23407E-13
 -1      3294 2.00000E+01-3.77136E-04 6.98640E-07-4.82478E-05-5.81138E-14 1.32202E-13
 -1      3295 2.00000E+01-3.71982E-04 2.58687E-07-1.00246E-04-2.55283E-13 1.33520E-13
 -1      3296 2.00001E+01-3.56597E-04-8.00400E-07-1.36557E-04-1.35593E-13 1.02120E-13
 -1      3297 2.00001E+01-3.65124E-04-7.71179E-07-1.96642E-05-1.48682E-13 1.07723E-13
 -1      3298 1.04637E+01 2.29840E+00 8.81917E-02-1.14606E+00-1.12375E-14-1.05194E-14
 -1      3299 1.02258E+01 1.93557E+00 1.69065E-01-2.56245E+00 1.24761E-14 5.84255E-15
 -1      3300 1.16673E+01 1.73926E+00 7.31422E-02-3.01549E+00-5.55979E-14-3.19883E-14
 -1      3301 1.17638E+01 2.43076E+00 2.06020E-02-1.13664E+00-4.90827E-14 2.37865E-14
 -1      3302 2.12055E+01 2.72694E-01-9.19175E-03-1.47475E+00-4.08850E-14-1.00681E-13
 -1      3303 2.16170E+01 2.46233E-01 7.44616E-03-1.48505E+00-2.33351E-14-1.03166E-13
 -1      3304 2.12543E+01 4.38426E-01-2.10135E-03-1.52641E+00-3.57778E-14-1.20328E-13
 -1      3305 2.19957E+01 7.14369E-01 1.12490E-02-1.16715E-01 7.83613E-14-1.09233E-13
 -1      3306 2.19458E+01 6.99371E-01-1.38592E-02-5.06223E-01 5.13414E-14-1.22604E-13
 -1      3307 2.21789E+01 3.82026E-01-3.45071E-03-7.03849E-01 3.60213E-14-1.01553E-13
 -1      3308 1.72175E+01-1.00211E-01 2.55928E-01 5.71395E+00-4.01068E-15 5.74124E-14
 -1      3309 1.99052E+01 1.85292E-01-1.45132E-03 1.03149E-01-1.48111E-13 6.03541E-16
 -1      3310 1.98782E+01 2.25742E-01-8.30384E-04 1.22437E-01-1.02935E-13 2.61613E-14
 -1      3311 2.15414E+01 7.25084E-01 6.59745E-03-1.37857E+00-1.40603E-14-1.41400E-13
 -1      3312 2.00000E+01-2.92372E-04 1.63305E-06-3.26293E-04-3.01574E-13 2.37247E-13
 -1      3313 1.99999E+01-2.69881E-04-1.16915E-06-3.59806E-04-4.05895E-13-2.48839E-13
 -1      3314 2.47648E+01-2.62976E+00-8.27975E-02 2.61561E+00 1.36437E-13 1.09664E-13
 -1      3315 2.34552E+01-2.36106E+00 8.77010E-02 3.91765E+00 1.84116E-13 4.94956E-14
 -1      3316 2.21119E+01 2.80157E-01-8.03091E-03-1.62184E+00-1.84128E-14-5.59884E-14
 -1      3317 2.20394E+01 5.38357E-01 4.02795E-03-1.60659E+00-4.37799E-14-4.01278E-14
 -1      3318 2.19300E+01 8.57413E-01-1.43636E-02-1.58274E+00-8.12109E-14-2.90015E-14
 -1      3319 2.18197E+01 1.23033E+00 1.16160E-02-1.44492E+00-1.08632E-13-2.98238E-14
 -1      3320 2.25662E+01 7.75407E-01 1.15861E-02-1.68882E+00-5.13926E-14-4.62438E-14
 -1      3321 2.16273E+01 1.59181E+00-1.40500E-02-1.22364E+00-1.31400E-13-4.73996E-14
 -1      3322 2.15242E+01 1.91962E+00 1.31759E-02-9.30532E-01-1.26130E-13-3.58504E-14
 -1      3323 2.23085E+01 1.60799E+00 6.01966E-03-1.47075E+00-1.21527E-13-6.02459E-14
 -1      3324 2.13700E+01 2.15082E+00-5.45011E-03-5.16957E-01-1.13061E-13-5.52930E-14
 -1      3325 2.13172E+01 2.26818E+00 5.26100E-03-1.19456E-01-8.79620E-14-9.61067E-14
 -1      3326 2.19959E+01 2.33791E+00-2.46583E-03-8.30220E-01-1.30579E-13-3.32593E-14
 -1      3327 2.12988E+01 2.24252E+00 5.68279E-03 3.71259E-01-3.97746E-14-9.78769E-14
 -1      3328 2.13154E+01 2.07226E+00-8.33609E-03 7.58057E-01-1.48126E-14-7.42559E-14
 -1      3329 2.18336E+01 2.59448E+00-8.16949E-03 1.09850E-01-6.37376E-14-2.18594E-14
 -1      3330 2.14329E+01 1.78736E+00 1.26516E-02 1.15027E+00-1.17024E-14-7.95035E-14
 -1      3331 2.14976E+01 1.40297E+00-1.65179E-02 1.41075E+00-1.52487E-14-7.04281E-14
 -1      3332 2.19184E+01 2.21352E+00-4.48748E-03 1.02775E+00 3.56703E-15-8.05084E-14
 -1      3333 2.16495E+01 9.84607E-01 1.29346E-02 1.59072E+00-5.12856E-14-3.40691E-14
 -1      3334 2.17165E+01 5.43537E-01-1.53233E-02 1.67764E+00-4.42727E-14-5.27069E-15
 -1      3335 2.21496E+01 1.35286E+00 5.50581E-03 1.60222E+00-2.13187E-14-9.55173E-14
 -1      3336 2.17920E+01 1.43005E-01 6.22177E-03 1.64646E+00-4.20301E-14 5.60055E-15
 -1      3337 2.18235E+01-2.14622E-01-8.94810E-03 1.58549E+00 1.89555E-14 6.59206E-15
 -1      3338 2.23244E+01 3.66329E-01 1.26309E-02 1.72190E+00-2.22192E-14-2.80897E-14
 -1      3339 2.17727E+01-4.92726E-01-1.61626E-03 1.42128E+00 1.36002E-14-6.02830E-14
 -1      3340 2.17496E+01-7.02661E-01-2.41172E-03 1.28002E+00 1.47409E-14-2.78831E-14
 -1      3341 2.23008E+01-4.41030E-01 7.63886E-03 1.48444E+00-1.13633E-14-9.56091E-14
 -1      3342 2.16016E+01-8.39955E-01-5.00653E-03 1.07613E+00-7.64858E-14-4.48085E-14
 -1      3343 2.15320E+01-9.12573E-01 3.43972E-03 9.13179E-01-1.43900E-13-6.02547E-14
 -1      3344 2.20752E+01-9.03897E-01 4.05009E-03 1.09308E+00-4.20597E-14-1.75277E-13
 -1      3345 2.13330E+01-9.35589E-01-5.52392E-03 7.28842E-01-1.10114E-13-2.79546E-14
 -1      3346 2.12368E+01-9.12234E-01 6.13925E-03 5.82222E-01-3.58189E-14-2.34870E-14
 -1      3347 2.17190E+01-1.06372E+00-1.00196E-03 6.96912E-01-1.12621E-13-1.93589E-14
 -1      3348 2.10339E+01-8.64772E-01-4.36352E-03 4.43556E-01-4.04596E-14-7.22445E-14
 -1      3349 2.09321E+01-7.91252E-01 6.58013E-03 3.29112E-01-7.74444E-14-8.25028E-14
 -1      3350 2.13225E+01-1.00821E+00-4.33099E-03 3.80179E-01-4.30440E-14-4.83139E-14
 -1      3351 2.07545E+01-7.12397E-01-2.76405E-03 2.37304E-01-8.72708E-14-5.69690E-14
 -1      3352 2.06618E+01-6.23166E-01 5.77270E-03 1.56318E-01-4.39076E-14-2.67076E-14
 -1      3353 2.09555E+01-8.42479E-01-5.58560E-03 1.62811E-01-6.52795E-14 2.50076E-14
 -1      3354 2.05212E+01-5.39250E-01-1.42183E-03 1.01912E-01-4.15310E-14-6.46492E-14
 -1      3355 2.04451E+01-4.54751E-01 4.51990E-03 4.89894E-02-8.89927E-14-8.45416E-14
 -1      3356 2.06526E+01-6.43832E-01-5.38510E-03 3.09599E-02-6.03315E-14 4.98272E-14
 -1      3357 2.03417E+01-3.80067E-01-5.27777E-04 2.05962E-02-6.33765E-14-3.72967E-14
 -1      3358 2.02840E+01-3.09803E-01 3.26282E-03-1.13850E-02 3.75477E-14-5.13042E-14
 -1      3359 2.04224E+01-4.57463E-01-4.51259E-03-3.91942E-02-2.09014E-14 1.54124E-13
 -1      3360 2.02125E+01-2.50104E-01-2.66679E-05-2.34102E-02 1.34187E-13-6.91721E-14
 -1      3361 2.01714E+01-1.96592E-01 2.20577E-03-4.09802E-02 9.33188E-14-3.24466E-14
 -1      3362 2.02586E+01-3.03573E-01-3.44399E-03-6.97193E-02 7.47941E-14 9.06696E-14
 -1      3363 2.01247E+01-1.52464E-01 2.01711E-04-4.36169E-02 7.19125E-14-3.58837E-14
 -1      3364 2.00970E+01-1.14453E-01 1.40405E-03-5.18863E-02 7.33872E-14-9.08308E-14
 -1      3365 2.01484E+01-1.87061E-01-2.45566E-03-7.72788E-02 1.00024E-13-5.43344E-15
 -1      3366 2.00681E+01-8.39247E-02 2.71857E-04-4.96807E-02-1.23569E-14-1.07731E-13
 -1      3367 2.00504E+01-5.85907E-02 8.38338E-04-5.23103E-02 2.29159E-15-6.38568E-14
 -1      3368 2.00782E+01-1.04696E-01-1.65343E-03-7.29383E-02 7.08893E-14 8.11131E-14
 -1      3369 2.00336E+01-3.87848E-02 2.63401E-04-4.79999E-02 5.47008E-14-1.79410E-13
 -1      3370 2.00229E+01-2.29955E-02 4.61789E-04-4.74532E-02 2.89609E-15-1.51140E-13
 -1      3371 2.00359E+01-5.00213E-02-1.05570E-03-6.34044E-02-1.36759E-15 2.07558E-14
 -1      3372 2.00139E+01-1.10438E-02 2.24132E-04-4.25666E-02 1.32108E-15-1.11143E-13
 -1      3373 2.00077E+01-1.99106E-03 2.24205E-04-4.04216E-02-3.64374E-14-6.69012E-14
 -1      3374 2.00122E+01-1.60692E-02-6.37948E-04-5.24097E-02 2.18253E-14-9.00565E-14
 -1      3375 2.00035E+01 4.55023E-03 1.78689E-04-3.57413E-02 6.91558E-15-1.51762E-14
 -1      3376 2.00002E+01 9.11827E-03 8.26987E-05-3.29629E-02 1.57415E-13-2.04942E-14
 -1      3377 2.00001E+01 3.32159E-03-3.61465E-04-4.18426E-02 1.02353E-14-5.26000E-14
 -1      3378 1.99987E+01 1.21457E-02 1.37724E-04-2.88383E-02 1.30967E-13-1.72703E-14
 -1      3379 1.99971E+01 1.39040E-02 4.42727E-06-2.59842E-02 1.38002E-13 4.63869E-14
 -1      3380 1.99950E+01 1.30488E-02-1.87818E-04-3.25296E-02 1.34827E-13 2.28920E-14
 -1      3381 1.99971E+01 1.47933E-02 1.04516E-04-2.25275E-02 1.61252E-13 4.86112E-14
 -1      3382 1.99964E+01 1.49162E-02-3.41380E-05-1.98946E-02 1.46031E-13 1.47884E-13
 -1      3383 1.99936E+01 1.67355E-02-8.47270E-05-2.47255E-02 1.56844E-13 3.71971E-14
 -1      3384 1.99970E+01 1.46104E-02 7.89763E-05-1.70961E-02 1.71599E-13 9.97729E-14
 -1      3385 1.99968E+01 1.38786E-02-4.90291E-05-1.48200E-02 2.18659E-13 1.81414E-13
 -1      3386 1.99940E+01 1.69132E-02-2.76086E-05-1.84006E-02 1.94423E-13-2.11566E-14
 -1      3387 1.99976E+01 1.29905E-02 5.97821E-05-1.26138E-02-1.04930E-14 1.62316E-13
 -1      3388 1.99976E+01 1.18952E-02-5.07242E-05-1.07339E-02-3.36702E-14 1.35522E-14
 -1      3389 1.99953E+01 1.52611E-02 1.11239E-06-1.34000E-02 7.31382E-14-1.67427E-14
 -1      3390 1.99983E+01 1.08002E-02 4.54218E-05-9.03371E-03-7.13640E-14-5.88742E-15
 -1      3391 1.99984E+01 9.63102E-03-4.58006E-05-7.53586E-03-6.93469E-14-7.64518E-14
 -1      3392 1.99967E+01 1.28347E-02 1.32106E-05-9.52642E-03-1.16869E-13 2.90594E-14
 -1      3393 1.99990E+01 8.54295E-03 3.45845E-05-6.25297E-03-1.21015E-13-2.30046E-13
 -1      3394 1.99991E+01 7.45569E-03-3.81887E-05-5.09589E-03-1.54502E-13-2.91137E-13
 -1      3395 1.99979E+01 1.02565E-02 1.62997E-05-6.58133E-03-2.17935E-13-1.59245E-13
 -1      3396 1.99996E+01 6.48297E-03 2.63120E-05-4.14808E-03 2.12839E-14-2.77721E-13
 -1      3397 1.99996E+01 5.54887E-03-3.01069E-05-3.27962E-03 1.81049E-13-1.74798E-13
 -1      3398 1.99989E+01 7.86154E-03 1.49645E-05-4.38333E-03-8.31176E-15-3.14587E-13
 -1      3399 2.00000E+01 4.73485E-03 1.99451E-05-2.59509E-03 2.37689E-13-1.94613E-13
 -1      3400 2.00000E+01 3.97467E-03-2.26748E-05-1.96193E-03 2.35458E-14-5.03498E-14
 -1      3401 1.99996E+01 5.80281E-03 1.18679E-05-2.77475E-03 1.74783E-13-2.05292E-13
 -1      3402 2.00002E+01 3.32550E-03 1.49942E-05-1.48036E-03-8.66763E-14 1.57202E-13
 -1      3403 2.00002E+01 2.73251E-03-1.63559E-05-1.03308E-03-9.23459E-14 2.67733E-13
 -1      3404 2.00000E+01 4.12515E-03 8.52328E-06-1.62356E-03 1.86447E-13-6.86977E-14
 -1      3405 2.00003E+01 2.23483E-03 1.11226E-05-7.04845E-04-1.62040E-13 3.32124E-13
 -1      3406 2.00003E+01 1.78885E-03-1.12894E-05-4.00225E-04-2.01543E-13 3.18259E-13
 -1      3407 2.00003E+01 2.81371E-03 5.52879E-06-8.21415E-04-6.10973E-15 2.41572E-13
 -1      3408 2.00004E+01 1.42051E-03 8.10543E-06-1.85446E-04-2.59539E-13 2.76754E-13
 -1      3409 2.00003E+01 1.09640E-03-7.40466E-06 1.25793E-05-1.00893E-13 2.07268E-13
 -1      3410 2.00004E+01 1.82479E-03 3.15298E-06-2.80660E-04-2.89502E-13 3.60974E-13
 -1      3411 2.00004E+01 8.33007E-04 5.76793E-06 1.45236E-04 1.30666E-13-3.91482E-14
 -1      3412 2.00003E+01 6.05591E-04-4.53864E-06 2.65759E-04 1.65063E-13-1.13356E-13
 -1      3413 2.00005E+01 1.10372E-03 1.42115E-06 6.80819E-05-2.42143E-13 7.89990E-14
 -1      3414 2.00003E+01 4.23989E-04 3.97773E-06 3.40450E-04-2.14155E-14-6.90980E-14
 -1      3415 2.00003E+01 2.70471E-04-2.50501E-06 4.06248E-04-5.65776E-14-6.50577E-14
 -1      3416 2.00004E+01 5.95657E-04 2.50865E-07 2.78799E-04 1.06946E-13-4.41435E-14
 -1      3417 2.00002E+01 1.50306E-04 2.62991E-06 4.41222E-04-9.53259E-14 2.32340E-14
 -1      3418 2.00002E+01 5.12456E-05-1.12102E-06 4.69620E-04 1.03011E-13 9.72395E-14
 -1      3419 2.00004E+01 2.50819E-04-4.76821E-07 3.92800E-04-2.44700E-14 1.13897E-14
 -1      3420 2.00002E+01-2.45028E-05 1.64487E-06 4.78354E-04 2.56529E-13 5.81111E-14
 -1      3421 2.00001E+01-8.50780E-05-2.22853E-07 4.82152E-04 2.90023E-13 1.31473E-13
 -1      3422 2.00003E+01 2.66617E-05-8.69637E-07 4.41049E-04 1.46969E-13-1.58030E-14
 -1      3423 2.00001E+01-1.30230E-04 9.39308E-07 4.74371E-04 2.00606E-13 9.69876E-14
 -1      3424 2.00000E+01-1.65167E-04 3.44603E-07 4.62674E-04 1.44496E-13 1.55919E-13
 -1      3425 2.00002E+01-1.11806E-04-1.03480E-06 4.46244E-04 1.97309E-13-1.70474E-13
 -1      3426 2.00000E+01-1.90655E-04 5.43953E-07 4.45239E-04 2.25923E-13 2.07576E-13
 -1      3427 2.00000E+01-2.10007E-04 9.44169E-07 4.24588E-04 2.57742E-13 4.06558E-13
 -1      3428 2.00001E+01-1.92822E-04-1.24255E-06 4.24689E-04 3.62201E-13-3.44667E-14
 -1      3429 1.99999E+01-2.22912E-04 1.62509E-07 4.03371E-04 7.06991E-14 5.12620E-13
 -1      3430 1.99999E+01-2.34868E-04 4.74226E-07 3.77466E-04 2.15307E-13 5.16818E-13
 -1      3431 2.00000E+01-2.60365E-04-1.21829E-06 3.49948E-04 9.14320E-14 4.49327E-13
 -1      3432 2.00000E+01-2.38093E-04-1.67043E-06 3.90081E-04 1.95609E-13 2.93673E-13
 -1      3433 1.98307E+01 2.71349E-01-2.11017E-03 1.30137E-01-1.90059E-13 1.15338E-13
 -1      3434 1.97855E+01 3.26475E-01-1.79656E-03 1.52468E-01-2.65639E-14 7.51825E-14
 -1      3435 1.98247E+01 2.66706E-01 2.93768E-03 8.87434E-02-4.27881E-14 2.90153E-13
 -1      3436 1.77842E+01 1.55940E+00-8.85251E-03-4.08909E-02 6.06813E-14 4.13862E-14
 -1      3437 1.71566E+01 1.76798E+00-2.93181E-02-1.24970E-01 7.57866E-14 7.19123E-14
 -1      3438 1.97066E+01 3.95692E-01-2.94234E-03 1.57088E-01 6.30353E-14 2.72822E-14
 -1      3439 1.96233E+01 4.78140E-01-3.45247E-03 1.82963E-01 1.77458E-13-5.33355E-14
 -1      3440 1.97063E+01 3.83420E-01 4.52898E-03 9.30810E-02-2.91853E-14 3.03517E-13
 -1      3441 1.99501E+01 1.25036E-01-9.93187E-04 7.90958E-02-1.85671E-13-4.75919E-15
 -1      3442 1.99359E+01 1.52435E-01-3.30279E-04 9.42690E-02-2.60064E-13-6.59734E-14
 -1      3443 1.98975E+01 1.84374E-01 1.77991E-03 7.69208E-02-1.41390E-13 7.61449E-14
 -1      3444 1.99755E+01 8.45158E-02-6.64108E-04 5.93837E-02-4.42460E-14 2.36765E-13
 -1      3445 1.99685E+01 1.02996E-01-6.90164E-05 7.09549E-02-1.53579E-13 8.68454E-14
 -1      3446 1.99427E+01 1.26004E-01 1.07264E-03 6.27033E-02-2.26681E-13 3.36545E-14
 -1      3447 1.99895E+01 5.73146E-02-4.40494E-04 4.38293E-02 1.66121E-13 3.38376E-13
 -1      3448 1.99864E+01 6.97533E-02 4.98302E-05 5.24915E-02 1.01642E-13 3.14781E-13
 -1      3449 1.99693E+01 8.61599E-02 6.31422E-04 4.91906E-02 5.25013E-14 1.96475E-13
 -1      3450 1.99969E+01 3.90318E-02-2.91005E-04 3.18509E-02 9.79010E-14 4.12464E-13
 -1      3451 1.99958E+01 4.74204E-02 9.50663E-05 3.82569E-02 2.09250E-13 4.11332E-13
 -1      3452 1.99847E+01 5.90603E-02 3.62879E-04 3.75160E-02 8.69021E-14 3.59376E-13
 -1      3453 2.00005E+01 2.66880E-02-1.92411E-04 2.27822E-02 2.26965E-13 4.38583E-13
 -1      3454 2.00004E+01 3.23741E-02 1.03760E-04 2.74788E-02 1.99620E-13 5.25873E-13
 -1      3455 1.99932E+01 4.06154E-02 2.02209E-04 2.79519E-02 1.09055E-13 4.07515E-13
 -1      3456 2.00020E+01 1.83081E-02-1.22871E-04 1.60126E-02 1.97176E-14 3.24787E-13
 -1      3457 2.00024E+01 2.21824E-02 9.72420E-05 1.94269E-02 1.69893E-13 4.63462E-13
 -1      3458 1.99979E+01 2.80070E-02 1.06279E-04 2.03816E-02 2.41635E-13 5.97924E-13
 -1      3459 2.00025E+01 1.27957E-02-8.14486E-05 1.12293E-02-9.92890E-14 2.34258E-13
 -1      3460 2.00030E+01 1.53738E-02 8.36884E-05 1.36055E-02 1.60075E-14 3.20886E-13
 -1      3461 2.00002E+01 1.94986E-02 4.76946E-05 1.46544E-02 9.33831E-14 4.91184E-13
 -1      3462 2.00024E+01 8.73961E-03-5.62366E-05 7.51932E-03-1.53315E-13-3.66067E-14
 -1      3463 2.00030E+01 1.06254E-02 6.67411E-05 9.31608E-03-1.23021E-13 7.01125E-14
 -1      3464 2.00013E+01 1.35940E-02 2.47074E-05 1.03061E-02-2.35600E-14 2.55404E-13
 -1      3465 2.00021E+01 5.92327E-03-3.71659E-05 4.85220E-03-1.13486E-14-7.34894E-14
 -1      3466 2.00026E+01 7.23893E-03 5.23258E-05 6.12629E-03-1.22729E-13-1.75017E-13
 -1      3467 2.00017E+01 9.33289E-03 8.82027E-06 6.96918E-03-9.97243E-15-5.27357E-14
 -1      3468 2.00018E+01 3.95444E-03-2.43176E-05 2.96233E-03 7.34272E-14 4.66700E-14
 -1      3469 2.00022E+01 4.87577E-03 4.00069E-05 3.85234E-03 3.42692E-15-3.05206E-14
 -1      3470 2.00017E+01 6.34378E-03 3.22136E-07 4.53299E-03-5.97212E-14-2.74132E-13
 -1      3471 2.00014E+01 2.57629E-03-1.56705E-05 1.64936E-03 8.40230E-14 6.05416E-14
 -1      3472 2.00017E+01 3.22130E-03 2.99141E-05 2.25929E-03 9.92934E-14 5.13777E-14
 -1      3473 2.00016E+01 4.24076E-03-3.59672E-06 2.78810E-03 1.75720E-13 8.93208E-14
 -1      3474 2.00011E+01 1.61522E-03-9.83072E-06 7.60009E-04 7.78169E-14 2.24867E-13
 -1      3475 2.00013E+01 2.06434E-03 2.18937E-05 1.16735E-03 1.52692E-13 1.83300E-13
 -1      3476 2.00014E+01 2.76189E-03-5.09527E-06 1.56619E-03 9.69424E-15-4.90417E-14
 -1      3477 2.00008E+01 9.51285E-04-5.86816E-06 1.77623E-04 3.68605E-14 1.72610E-13
 -1      3478 2.00010E+01 1.26050E-03 1.56868E-05 4.40003E-04 7.48211E-14 2.27338E-13
 -1      3479 2.00011E+01 1.72759E-03-5.33909E-06 7.33375E-04 9.90862E-14 1.44181E-13
 -1      3480 2.00006E+01 5.00595E-04-2.94259E-06-1.85398E-04 4.03259E-13-1.56040E-13
 -1      3481 2.00007E+01 7.08729E-04 1.09369E-05-2.56578E-05 2.11985E-13 5.39701E-14
 -1      3482 2.00009E+01 1.01204E-03-5.00515E-06 1.85222E-04 2.18205E-13 8.45046E-14
 -1      3483 2.00004E+01 2.13238E-04-1.26265E-06-3.87668E-04 2.06845E-13-2.25424E-13
 -1      3484 2.00005E+01 3.45987E-04 7.50786E-06-3.00958E-04 4.75577E-13-2.23442E-13
 -1      3485 2.00007E+01 5.33000E-04-4.91036E-06-1.52935E-04 4.36055E-13-5.09479E-14
 -1      3486 2.00002E+01 1.62599E-05-3.78739E-07-4.97686E-04 3.29569E-14-6.44491E-14
 -1      3487 2.00003E+01 1.04968E-04 4.91618E-06-4.54308E-04-4.77699E-14-1.75160E-13
 -1      3488 2.00005E+01 2.16330E-04-3.68181E-06-3.50814E-04 1.65590E-13-1.41670E-13
 -1      3489 2.00001E+01-1.03404E-04 2.88063E-07-5.36405E-04 1.69858E-13 2.10510E-13
 -1      3490 2.00002E+01-5.01183E-05 3.11987E-06-5.24911E-04 1.54190E-13 1.84033E-13
 -1      3491 2.00004E+01 5.46643E-06-3.02870E-06-4.55981E-04 1.99300E-15-2.68029E-13
 -1      3492 2.00000E+01-1.71260E-04 6.81517E-07-5.29864E-04 2.95209E-13 1.99312E-13
 -1      3493 2.00001E+01-1.41837E-04 1.80785E-06-5.38506E-04 1.86108E-13 2.06040E-13
 -1      3494 2.00002E+01-1.22647E-04-2.44824E-06-4.94186E-04 2.56022E-13-9.54213E-14
 -1      3495 2.00000E+01-2.06308E-04 7.57613E-07-4.95850E-04 2.82210E-13-8.04443E-15
 -1      3496 2.00000E+01-1.91704E-04 9.10536E-07-5.16507E-04 3.04428E-13 1.31020E-13
 -1      3497 2.00001E+01-1.95238E-04-1.92924E-06-4.89563E-04 2.68704E-13-7.06747E-14
 -1      3498 1.99999E+01-2.24289E-04 1.98343E-08-4.46096E-04-2.75443E-13-1.11893E-13
 -1      3499 1.99999E+01-2.16468E-04 1.05746E-07-4.73124E-04 1.71327E-13 9.43550E-15
 -1      3500 2.00000E+01-2.32587E-04-1.05660E-06-4.58985E-04 2.65739E-13-7.87808E-14
 -1      3501 1.99999E+01-2.29525E-04 9.76678E-07-4.01300E-04-7.59772E-13-5.88718E-13
 -1      3502 2.00001E+01-3.39210E-04-2.55443E-07 1.34534E-04-5.78031E-14 5.44315E-14
 -1      3503 2.00001E+01-3.46237E-04 6.49859E-07 7.67471E-05-1.49974E-13 1.43754E-13
 -1      3504 1.94979E+01 5.76616E-01-4.12822E-03 1.77720E-01 2.52827E-13-1.78233E-13
 -1      3505 1.93549E+01 6.91383E-01-6.42933E-03 2.01811E-01 2.55098E-13-1.47274E-13
 -1      3506 1.95123E+01 5.50840E-01 7.21865E-03 7.83020E-02 1.52844E-13 1.32205E-13
 -1      3507 2.57537E+01 5.50200E+00-7.34903E-02 8.18311E-01-1.12202E-13-1.87505E-13
 -1      3508 2.54965E+01 5.61030E+00-6.08552E-02-1.02541E-01-2.08507E-13-1.19849E-13
 -1      3509 2.64277E+01-1.52604E+00-5.89358E-02-1.59446E-01 2.42601E-14 1.00914E-13
 -1      3510 2.61567E+01-2.23331E+00 6.72963E-02 1.15263E+00 7.51569E-14 1.17246E-13
 -1      3511 1.65066E+01 1.97737E+00-7.81283E-03-3.82154E-01-8.81933E-15 8.06590E-14
 -1      3512 1.55623E+01 2.14793E+00-2.70230E-02-5.90697E-01-1.09947E-14 4.75002E-14
 -1      3513 1.69393E+01 1.74990E+00 3.85048E-02-8.82478E-01 6.96544E-14-1.61135E-13
 -1      3514 1.91598E+01 8.27080E-01-5.55025E-03 1.75237E-01 1.93860E-13-2.31443E-13
 -1      3515 1.89201E+01 9.79787E-01-1.14131E-02 1.87342E-01 7.24546E-14-1.39352E-13
 -1      3516 1.92055E+01 7.77278E-01 1.11227E-02 2.28752E-02 1.43538E-13-1.16375E-13
 -1      3517 2.29646E+01-3.47963E+00 7.47887E-02-4.55147E+00 3.38393E-13 1.00657E-15
 -1      3518 2.49915E+01-3.88062E+00-5.91798E-02-3.28432E+00 2.87364E-13-8.84631E-14
 -1      3519 1.86224E+01 1.15724E+00-7.19122E-03 1.19520E-01 2.31363E-14-8.17876E-14
 -1      3520 1.82298E+01 1.34663E+00-1.92689E-02 1.00117E-01 4.25866E-14 2.79987E-14
 -1      3521 1.80078E+01 1.41059E+00 2.49960E-02-3.81880E-01 1.22476E-13-3.37178E-14
 -1      3522 1.87298E+01 1.06793E+00 1.67401E-02-1.10216E-01 1.06171E-13-2.20983E-13
 -1      3523 2.12559E+01-1.95848E+00-6.62960E-02 4.97882E+00 2.28597E-13-1.70523E-14
 -1      3524 1.88946E+01-6.53904E-01 1.11382E-01 5.50980E+00 2.84271E-13-9.05560E-14
 -1      3525 2.21283E+01-1.45386E+00 3.91925E-02 3.86721E+00 1.94494E-13 3.02015E-15
 -1      3526 1.61791E+01 2.29724E-01-5.92635E-02 5.64294E+00 2.86705E-13-1.29050E-13
 -1      3527 1.42973E+01 1.62946E+00 9.61168E-02 4.83904E+00 2.75364E-13-1.73556E-13
 -1      3528 1.79054E+01-1.48395E+00 8.48332E-02-5.55461E+00 3.09853E-13 5.78218E-14
 -1      3529 2.03464E+01-2.92378E+00-7.09498E-02-5.48439E+00 2.88929E-13 1.47556E-14
 -1      3530 1.36804E+01 9.57421E-01 7.46171E-02-4.11795E+00 7.28775E-14-1.88780E-13
 -1      3531 1.54002E+01-2.97256E-01-1.60020E-02-5.17641E+00 1.56198E-13 4.49085E-14
 -1      3532 2.20888E+01 5.94303E-02-4.69631E-03-1.49501E+00-2.00317E-15-6.44719E-14
 -1      3533 2.20854E+01 1.23664E-01-3.37989E-03-1.53074E+00-6.36665E-15-5.29616E-14
 -1      3534 2.26127E+01 1.93926E-01 1.03526E-02-1.58596E+00-1.92730E-14-9.13891E-14
 -1      3535 2.60633E+01 3.85480E+00-4.58112E-02 1.86221E+00-5.84255E-14-2.07342E-13
 -1      3536 2.58778E+01 4.87875E+00-8.12963E-02 1.37819E+00-8.81795E-14-1.59164E-13
 -1      3537 2.49013E+01 4.48029E+00-4.44126E-02 1.04461E+00-7.76081E-14-1.20467E-13
 -1      3538 2.17543E+01 7.07919E-01 1.12950E-02 8.54765E-01 1.03462E-13-8.90787E-14
 -1      3539 2.19179E+01 6.25275E-01-1.22926E-02 3.95231E-01 7.95618E-14-9.87483E-14
 -1      3540 2.23940E+01 2.47547E-01 1.56316E-02 1.18531E-01 5.79900E-14-8.81515E-14
 -1      3541 1.46488E+01 2.37278E+00-1.05245E-03-7.07960E-01 1.50236E-14 5.26489E-15
 -1      3542 1.32572E+01 2.43364E+00 1.59210E-02-1.02064E+00-4.96972E-14-1.21188E-14
 -1      3543 1.31355E+01 2.22787E+00 8.79290E-02-1.91368E+00-6.36366E-14-1.11931E-13
 -1      3544 1.53365E+01 2.07003E+00 3.96971E-02-1.39535E+00-1.70189E-14-1.98249E-13
 -1      3545 2.18084E+01 4.03169E-01-2.46395E-04-1.26908E+00 1.71570E-15-1.19276E-13
 -1      3546 1.90456E+01 3.76407E-01-2.89198E-02 4.25195E+00 2.62035E-13-1.04311E-13
 -1      3547 2.03894E+01-4.67054E-02 2.74245E-02 3.83514E+00 2.28076E-13-7.81415E-14
 -1      3548 2.00001E+01-3.13134E-04-4.61339E-07-2.79489E-04-4.30668E-13 4.47182E-13
 -1      3549 2.00001E+01-2.96199E-04-7.71682E-07-3.20319E-04-2.42365E-13 3.05341E-13
 -1      3550 2.00001E+01-3.28878E-04 1.11490E-06-2.31376E-04-2.12375E-13 2.33008E-13
 -1      3551 2.52201E+01 5.17005E+00-7.80225E-02-6.90572E-01-2.05447E-13-5.23965E-14
 -1      3552 2.49813E+01 4.45565E+00-4.16238E-02-1.19441E+00-1.28834E-13 2.88840E-14
 -1      3553 2.44835E+01 4.76857E+00-3.94896E-02-1.78326E-01-1.41130E-13-2.54033E-14
 -1      3554 2.00000E+01-2.80680E-04 1.44141E-06 3.13357E-04-9.83342E-15 3.18242E-14
 -1      3555 2.70967E+01-1.00834E+00-3.31721E-02 1.06784E+00 1.42986E-13-2.12962E-13
 -1      3556 2.65084E+01 5.02734E-02-1.98963E-02 1.65972E+00 8.91787E-14-1.91038E-13
 -1      3557 2.48564E+01-1.95655E+00 1.75395E-02 1.60788E+00 9.95445E-14 5.37660E-14
 -1      3558 2.59093E+01 1.66124E+00-2.74083E-02 2.01692E+00 3.80772E-14-1.30206E-13
 -1      3559 2.60420E+01 2.77884E+00-6.74884E-02 2.03872E+00-2.06710E-14-1.38767E-13
 -1      3560 2.50403E+01 3.01864E+00-2.67546E-02 1.85049E+00-6.71147E-14-5.95479E-14
 -1      3561 1.99999E+01-2.39301E-04-2.56722E-07-4.13721E-04-3.76630E-13-1.89162E-13
 -1      3562 2.00000E+01-2.58984E-04 9.54802E-07-4.03190E-04-9.30582E-14 1.45660E-13
 -1      3563 2.58685E+01-3.41730E+00 2.97492E-02-2.05472E+00 2.48036E-13-1.54056E-13
 -1      3564 2.60703E+01-2.78239E+00-3.04044E-02-8.02578E-01 2.09208E-13-2.06777E-13
 -1      3565 2.46418E+01-3.23755E+00-2.75972E-03-2.34327E+00 2.65888E-13-1.19735E-13
 -1      3566 2.00001E+01-3.25957E-04 1.22714E-06 1.94991E-04 3.85103E-14-1.66271E-14
 -1      3567 2.00002E+01-3.18186E-04 2.14955E-07 1.75706E-04 1.07032E-14 6.12863E-14
 -1      3568 2.00001E+01-3.13755E-04-1.61847E-06 2.44799E-04 7.03495E-14-3.82490E-14
 -1      3569 2.00002E+01-3.35131E-04-2.49596E-07 4.81292E-05-7.01076E-15 3.50145E-13
 -1      3570 2.00002E+01-3.51563E-04 2.40794E-07 1.10212E-05-1.78984E-13 2.03319E-13
 -1      3571 2.00002E+01-3.51565E-04 2.65184E-07-4.90558E-05-1.66661E-13 9.02799E-14
 -1      3572 2.54824E+01 3.27348E+00-1.91365E-02-1.96627E+00-7.49401E-14 1.24727E-14
 -1      3573 2.64007E+01 2.49094E+00-4.96819E-02-2.17245E+00-6.38135E-14 6.45924E-14
 -1      3574 2.58746E+01 1.31030E+00-1.62741E-02-1.94794E+00-3.63251E-14 2.37770E-14
 -1      3575 1.31235E+01 3.45431E+00 4.69816E-02 1.68532E+00 1.92708E-13-1.72966E-13
 -1      3576 1.30702E+01 1.84901E+00 3.76680E-02-2.62375E+00-3.48107E-14-1.98418E-13
 -1      3577 1.33232E+01 1.42020E+00 7.11008E-02-3.54218E+00 2.71814E-14-2.39815E-13
 -1      3578 1.48749E+01 1.08130E+00 1.63361E-02-3.50049E+00-2.96946E-14-1.71488E-13
 -1      3579 1.44548E+01 1.83027E+00 2.20676E-02-2.28354E+00 5.13001E-15-2.46164E-13
 -1      3580 2.15581E+01-8.61007E-01 5.60173E-03 3.53823E+00 1.88936E-13-1.60306E-14
 -1      3581 2.15014E+01-1.10556E-01 1.84178E-02 2.73730E+00 1.69063E-13-4.93347E-14
 -1      3582 2.21636E+01-3.49409E-01 9.80556E-03 2.16795E+00 1.21219E-13-2.55833E-14
 -1      3583 2.30616E+01-1.54908E+00-5.75956E-02 2.67291E+00 1.39553E-13 2.30232E-14
 -1      3584 1.28914E+01 2.36830E+00 2.50545E-02 3.93442E+00 2.50763E-13-1.88669E-13
 -1      3585 1.23645E+01 3.10569E+00 6.24771E-02 2.45337E+00 2.07449E-13-1.91881E-13
 -1      3586 2.22435E+01 2.47221E-01 7.69913E-03-1.13818E+00 2.86575E-14-9.02353E-14
 -1      3587 2.19982E+01 1.86065E-01-2.53242E-03-1.35046E+00 7.58096E-15-9.27567E-14
 -1      3588 2.20422E+01 8.19811E-02-6.05467E-03-1.37955E+00 3.34943E-15-7.42121E-14
 -1      3589 2.18925E+01-2.78215E+00 4.25926E-02-4.30815E+00 2.56201E-13-2.27834E-14
 -1      3590 1.74184E+01-6.37845E-01 5.41305E-02-4.71551E+00 2.04343E-13-2.01367E-14
 -1      3591 1.81169E+01 2.92761E-01 4.51272E-02 4.90490E+00 2.72338E-13-1.13312E-13
 -1      3592 2.66136E+01-1.72322E+00-3.67334E-02 4.44862E-01 1.67789E-13-2.24680E-13
 -1      3593 2.25415E+01 7.55659E-02-3.50447E-03-8.42889E-01 3.84167E-14-1.02170E-13
 -1      3594 2.27404E+01-9.38064E-02-2.91979E-03-9.41269E-01 2.76836E-14-1.01114E-13
 -1      3595 2.27111E+01-3.44428E-02-1.30736E-02-4.96870E-01 4.37252E-14-1.02385E-13
 -1      3596 2.25220E+01 2.44217E-02 9.62076E-03-1.35882E+00 7.13405E-15-7.79989E-14
 -1      3597 1.40412E+01 3.34972E+00-1.01745E-02 2.35299E+00 2.38121E-13-1.24588E-13
 -1      3598 1.47083E+01 2.29682E+00 8.30599E-02 3.98097E+00 2.55348E-13-1.61645E-13
 -1      3599 1.47704E+01 2.94324E+00 4.31923E-02 3.24464E+00 2.45358E-13-1.51018E-13
 -1      3600 2.20632E+01 1.52527E-01 6.70210E-03 1.23063E+00 8.73949E-14-6.56042E-14
 -1      3601 2.59845E+01-1.08401E-01-5.20747E-03-1.45469E+00-5.96398E-15 5.49370E-14
 -1      3602 2.64809E+01-9.48722E-01 8.74380E-04-8.87284E-01 1.99042E-14 8.82280E-14
 -1      3603 2.55488E+01-1.22928E+00-5.30966E-03-3.44908E-01 4.22234E-14 6.58102E-14
 -1      3604 1.57433E+01 2.06297E+00-3.62058E-02 4.10087E+00 2.66087E-13-1.43795E-13
 -1      3605 1.98921E+01 1.64434E-01-7.10143E-04 4.72370E-02-8.76519E-14 1.89006E-13
 -1      3606 1.98611E+01 1.96622E-01-1.39727E-03 5.18351E-02 6.19810E-14 3.02032E-13
 -1      3607 2.29907E+01 1.47705E+00-2.41045E-02-1.72116E+00-8.14780E-14-3.21279E-14
 -1      3608 2.28655E+01 2.06087E+00 1.51466E-02-1.52198E+00-1.42866E-13-2.01911E-14
 -1      3609 2.24143E+01 3.14097E+00-6.31990E-03-1.57301E-01-6.01823E-14 2.88593E-14
 -1      3610 2.23994E+01 3.10839E+00-6.47384E-03 3.42579E-01-3.05632E-14 5.05524E-14
 -1      3611 2.24685E+01 2.83956E+00 4.55722E-03 9.30883E-01-2.88988E-14 6.95472E-15
 -1      3612 2.25425E+01 2.38104E+00-2.33175E-02 1.31852E+00-5.21219E-14-2.72014E-14
 -1      3613 2.30539E+01 3.36816E+00-1.28548E-02 6.79956E-01-6.93521E-14 4.95558E-14
 -1      3614 2.27184E+01 1.80148E+00 1.14254E-02 1.63356E+00-3.88760E-14-7.62476E-14
 -1      3615 2.28021E+01 1.15264E+00-2.52679E-02 1.78910E+00 2.08821E-14-3.75062E-14
 -1      3616 2.32889E+01 2.30843E+00-3.39341E-03 1.58728E+00-7.36696E-14-4.38018E-16
 -1      3617 2.29097E+01 5.38516E-01 1.27527E-02 1.76705E+00-6.20814E-16-3.27876E-14
 -1      3618 2.29356E+01-3.65037E-02-1.04536E-02 1.70784E+00-1.78815E-14-4.08966E-14
 -1      3619 2.35399E+01 8.80808E-01 1.38761E-02 1.85865E+00 4.08659E-14 3.56442E-15
 -1      3620 2.28243E+01-4.90968E-01-5.69243E-03 1.46699E+00-5.68105E-14-4.89658E-14
 -1      3621 2.27641E+01-8.25797E-01-2.42123E-03 1.29292E+00-7.70436E-14-1.12413E-13
 -1      3622 2.34585E+01-3.82753E-01-7.07140E-03 1.57563E+00-4.45460E-14-4.00964E-14
 -1      3623 2.25223E+01-1.06895E+00-8.67020E-03 1.01073E+00-2.03858E-14-1.01802E-13
 -1      3624 2.23846E+01-1.19553E+00 6.06257E-03 8.02786E-01-3.73825E-14-1.05192E-13
 -1      3625 2.30858E+01-1.13400E+00-4.44679E-04 1.01370E+00-4.78935E-14-6.22202E-15
 -1      3626 2.20650E+01-1.24533E+00-7.95528E-03 5.65820E-01-2.42577E-14-3.40256E-14
 -1      3627 2.18870E+01-1.22154E+00 9.72558E-03 3.91345E-01-4.90575E-14 8.14604E-14
 -1      3628 2.25150E+01-1.39728E+00-2.73270E-03 4.74163E-01 2.57501E-14 3.48237E-14
 -1      3629 2.15732E+01-1.16068E+00-5.26467E-03 2.34721E-01-9.59588E-14 1.15568E-13
 -1      3630 2.13917E+01-1.06095E+00 9.74209E-03 1.12714E-01-7.19535E-14 5.05673E-14
 -1      3631 2.18897E+01-1.32994E+00-7.67164E-03 9.57504E-02-3.18660E-14 9.51563E-14
 -1      3632 2.11265E+01-9.52850E-01-2.44369E-03 2.77868E-02-2.62376E-14 5.16369E-14
 -1      3633 2.09657E+01-8.30921E-01 7.96001E-03-4.62142E-02-3.73057E-14 3.25991E-14
 -1      3634 2.13309E+01-1.10099E+00-9.34518E-03-1.20938E-01-6.56425E-14 1.21621E-13
 -1      3635 2.07631E+01-7.16159E-01-3.76633E-04-8.08851E-02-1.97425E-14 1.16363E-13
 -1      3636 2.06339E+01-6.02030E-01 5.81668E-03-1.19729E-01 1.19614E-14 1.68587E-13
 -1      3637 2.08849E+01-8.28859E-01-8.46748E-03-2.15111E-01 4.58646E-14 1.07965E-13
 -1      3638 2.04897E+01-5.00779E-01 7.44618E-04-1.24780E-01 4.48734E-14 2.83674E-13
 -1      3639 2.03933E+01-4.07098E-01 3.91105E-03-1.40935E-01 3.02756E-14 3.22591E-13
 -1      3640 2.05562E+01-5.79498E-01-6.79851E-03-2.33840E-01 7.17911E-14 3.16398E-13
 -1      3641 2.02967E+01-3.27002E-01 1.18547E-03-1.31197E-01-3.09267E-14 2.76733E-13
 -1      3642 2.02290E+01-2.56551E-01 2.44918E-03-1.34373E-01 9.39143E-14 1.66514E-13
 -1      3643 2.03288E+01-3.78017E-01-5.00374E-03-2.13295E-01 9.75549E-15 2.81353E-13
 -1      3644 2.01678E+01-1.97846E-01 1.20507E-03-1.19196E-01 1.25426E-13 1.47218E-13
 -1      3645 2.01229E+01-1.48307E-01 1.43192E-03-1.15821E-01 5.82164E-14 7.73049E-14
 -1      3646 2.01799E+01-2.28604E-01-3.46398E-03-1.77389E-01 6.71187E-14 2.77522E-13
 -1      3647 2.00863E+01-1.07951E-01 1.03298E-03-1.00200E-01 9.94798E-14 4.66668E-14
 -1      3648 2.00580E+01-7.51920E-02 7.70514E-04-9.41408E-02 2.13433E-15 3.41976E-14
 -1      3649 2.00876E+01-1.24843E-01-2.27397E-03-1.39403E-01 4.57918E-14 1.44266E-13
 -1      3650 2.00376E+01-4.91116E-02 8.03250E-04-8.03475E-02-2.51637E-14 7.86812E-14
 -1      3651 2.00208E+01-2.88104E-02 3.65429E-04-7.37039E-02 8.27492E-14 2.57729E-14
 -1      3652 2.00338E+01-5.70444E-02-1.42051E-03-1.05553E-01 2.69183E-14 6.75072E-14
 -1      3653 2.00106E+01-1.30937E-02 5.86109E-04-6.24546E-02 1.28353E-13 4.71530E-14
 -1      3654 2.00013E+01-1.50153E-03 1.31399E-04-5.62441E-02 5.64434E-14 6.86125E-14
 -1      3655 2.00048E+01-1.55504E-02-8.40155E-04-7.79324E-02 6.19460E-14 1.00659E-13
 -1      3656 1.99971E+01 7.11075E-03 4.08781E-04-4.74909E-02-1.38320E-14-1.12387E-14
 -1      3657 1.99925E+01 1.29366E-02 5.49782E-06-4.21207E-02 1.00280E-13 6.23558E-14
 -1      3658 1.99910E+01 7.77684E-03-4.63831E-04-5.65380E-02 5.63909E-14 1.42039E-13
 -1      3659 1.99916E+01 1.69405E-02 2.75802E-04-3.55075E-02 1.82369E-13 6.19404E-14
 -1      3660 1.99897E+01 1.91609E-02-5.50865E-05-3.10688E-02 1.41830E-13 9.80327E-14
 -1      3661 1.99861E+01 1.92032E-02-2.31141E-04-4.04991E-02 9.89543E-14 4.85465E-14
 -1      3662 1.99904E+01 2.03536E-02 1.81726E-04-2.61654E-02 1.10390E-13 5.87749E-14
 -1      3663 1.99900E+01 2.04728E-02-7.80587E-05-2.26020E-02 1.22071E-13 2.87261E-15
 -1      3664 1.99858E+01 2.32641E-02-9.48979E-05-2.87211E-02 1.27444E-13-2.29328E-14
 -1      3665 1.99914E+01 2.00837E-02 1.17984E-04-1.90105E-02 9.11265E-14-4.06474E-14
 -1      3666 1.99917E+01 1.90991E-02-8.06767E-05-1.62088E-02 2.04523E-13-1.01324E-13
 -1      3667 1.99877E+01 2.30821E-02-2.05900E-05-2.01819E-02 6.70538E-14-5.81616E-14
 -1      3668 1.99932E+01 1.79280E-02 7.62008E-05-1.36000E-02 2.23640E-13-8.17695E-14
 -1      3669 1.99938E+01 1.64681E-02-7.32468E-05-1.14340E-02 6.01834E-14-9.75025E-15
 -1      3670 1.99904E+01 2.07092E-02 1.58269E-05-1.40381E-02 1.37003E-13-1.10654E-13
 -1      3671 1.99952E+01 1.50085E-02 4.94466E-05-9.55190E-03-9.12534E-14 3.30820E-14
 -1      3672 1.99957E+01 1.34462E-02-6.17803E-05-7.90254E-03-1.00542E-13-9.04969E-15
 -1      3673 1.99931E+01 1.74279E-02 3.01288E-05-9.63961E-03 6.25992E-14-6.07831E-14
 -1      3674 1.99968E+01 1.19817E-02 3.25874E-05-6.55395E-03-2.20721E-13-6.66658E-15
 -1      3675 1.99973E+01 1.05201E-02-4.95519E-05-5.31713E-03-2.02107E-13-5.81501E-14
 -1      3676 1.99954E+01 1.39931E-02 3.24804E-05-6.50276E-03-1.28159E-13-6.01572E-14
 -1      3677 1.99982E+01 9.19810E-03 2.18940E-05-4.35902E-03-1.05000E-13 3.69966E-14
 -1      3678 1.99986E+01 7.93253E-03-3.82016E-05-3.44666E-03 5.86013E-14 5.93918E-14
 -1      3679 1.99973E+01 1.08120E-02 2.92293E-05-4.27668E-03-9.22216E-14 2.87468E-13
 -1      3680 1.99992E+01 6.81500E-03 1.51168E-05-2.77326E-03 1.91098E-13 1.39528E-14
 -1      3681 1.99994E+01 5.77502E-03-2.84950E-05-2.11253E-03 1.62358E-13 4.82171E-15
 -1      3682 1.99986E+01 8.07066E-03 2.34718E-05-2.70757E-03 7.97710E-14 1.91856E-13
 -1      3683 1.99999E+01 4.87332E-03 1.07556E-05-1.64674E-03 2.09910E-13-1.34973E-13
 -1      3684 2.00000E+01 4.05274E-03-2.05301E-05-1.17903E-03 2.31929E-13 5.80268E-14
 -1      3685 1.99995E+01 5.82368E-03 1.76581E-05-1.61241E-03 1.44868E-13 9.18424E-14
 -1      3686 2.00003E+01 3.35267E-03 7.79796E-06-8.64017E-04 2.64561E-13 1.01344E-13
 -1      3687 2.00003E+01 2.72746E-03-1.42746E-05-5.41872E-04 9.21400E-16 2.74002E-13
 -1      3688 2.00001E+01 4.05167E-03 1.23673E-05-8.60736E-04 2.24616E-13 8.16754E-14
 -1      3689 2.00005E+01 2.20182E-03 5.73869E-06-3.35218E-04-3.66730E-13 3.16178E-13
 -1      3690 2.00005E+01 1.74043E-03-9.52877E-06-1.21124E-04-4.33004E-13 1.76178E-13
 -1      3691 2.00005E+01 2.70100E-03 8.08172E-06-3.56200E-04-1.23442E-13 2.02925E-13
 -1      3692 2.00006E+01 1.35820E-03 4.23239E-06 8.36116E-06-4.41279E-13 1.76816E-13
 -1      3693 2.00006E+01 1.02845E-03-6.02992E-06 1.43726E-04-2.37648E-13 2.46357E-14
 -1      3694 2.00006E+01 1.70285E-03 4.82322E-06-2.85789E-05-4.45258E-13 9.35859E-14
 -1      3695 2.00006E+01 7.59567E-04 3.09454E-06 2.19103E-04-8.26677E-15 8.49498E-14
 -1      3696 2.00005E+01 5.31914E-04-3.52510E-06 2.98352E-04 4.83699E-14 2.91541E-14
 -1      3697 2.00007E+01 9.87833E-04 2.47780E-06 1.73581E-04-1.26934E-13 2.14129E-13
 -1      3698 2.00005E+01 3.49589E-04 2.22035E-06 3.36633E-04 5.36452E-15-9.13582E-14
 -1      3699 2.00005E+01 1.98499E-04-1.80212E-06 3.76920E-04-9.11751E-15 2.55371E-14
 -1      3700 2.00006E+01 4.92571E-04 8.79650E-07 2.88195E-04-6.08998E-15 1.21686E-13
 -1      3701 2.00004E+01 8.00222E-05 1.55150E-06 3.90472E-04 8.55863E-14 9.54567E-14
 -1      3702 2.00004E+01-1.56303E-05-6.45120E-07 4.04526E-04 1.80899E-13 3.21378E-14
 -1      3703 2.00005E+01 1.62326E-04-1.54998E-07 3.43100E-04 1.31241E-13 1.07304E-13
 -1      3704 2.00003E+01-8.88289E-05 1.07362E-06 4.02223E-04 2.47490E-13 3.25124E-14
 -1      3705 2.00003E+01-1.46185E-04 1.49742E-08 3.99308E-04 2.53178E-13-4.75247E-14
 -1      3706 2.00004E+01-4.82448E-05-7.57480E-07 3.58242E-04 1.67024E-13 2.12878E-13
 -1      3707 2.00002E+01-1.88827E-04 7.13897E-07 3.86979E-04 3.62851E-13-4.10464E-14
 -1      3708 2.00002E+01-2.22288E-04 5.34757E-07 3.73688E-04 4.13726E-13 1.21476E-13
 -1      3709 2.00003E+01-1.75961E-04-9.78857E-07 3.48648E-04 2.82674E-13 3.14668E-13
 -1      3710 2.00001E+01-2.63226E-04 9.14002E-07 3.22452E-04 3.05381E-13-8.54951E-14
 -1      3711 2.00001E+01-2.78409E-04 7.30626E-07 3.07630E-04 1.10702E-13-6.07047E-14
 -1      3712 1.97156E+01 3.29151E-01-1.06107E-03 2.93070E-02-7.68297E-14 3.68031E-13
 -1      3713 1.96338E+01 3.89947E-01-4.15243E-03 2.23612E-02-1.44659E-14 2.92889E-13
 -1      3714 2.49239E+01-1.63422E+00-5.47439E-02 4.52395E-01 7.75053E-14 4.84942E-14
 -1      3715 2.41568E+01-1.56864E+00 3.56795E-02 1.63472E+00 1.21177E-13 4.04063E-14
 -1      3716 2.35677E+01-1.13795E+00 1.32955E-02 1.49967E+00 1.04279E-13 1.58052E-14
 -1      3717 1.99633E+01 7.98641E-02-4.00392E-04 3.61810E-02 3.98123E-14 2.05777E-13
 -1      3718 1.99528E+01 9.56324E-02-3.96605E-04 4.17236E-02 3.36115E-14 9.96515E-14
 -1      3719 1.99796E+01 5.57641E-02-2.90071E-04 2.89728E-02-1.64265E-14 4.18639E-13
 -1      3720 1.99737E+01 6.67509E-02-1.82255E-04 3.38190E-02 7.65600E-14 3.20354E-13
 -1      3721 1.99618E+01 7.79920E-02 5.65927E-04 2.70598E-02 7.47824E-14 3.17386E-13
 -1      3722 1.99893E+01 3.90165E-02-2.08083E-04 2.23565E-02 2.14004E-13 3.85945E-13
 -1      3723 1.99861E+01 4.66846E-02-6.57329E-05 2.63614E-02 8.08389E-14 3.53107E-13
 -1      3724 1.99778E+01 5.51861E-02 3.49561E-04 2.29639E-02 5.35611E-14 3.99323E-13
 -1      3725 1.99950E+01 2.73434E-02-1.45243E-04 1.67300E-02 1.07977E-13 4.53474E-13
 -1      3726 1.99934E+01 3.27143E-02-3.42387E-06 1.99161E-02 2.16876E-13 3.43552E-13
 -1      3727 1.99877E+01 3.90569E-02 2.10134E-04 1.84068E-02 2.31465E-13 2.70745E-13
 -1      3728 1.99981E+01 1.94885E-02-1.03296E-04 1.23659E-02 1.90742E-13 3.89865E-13
 -1      3729 1.99974E+01 2.31382E-02 2.37554E-05 1.47421E-02 1.78730E-13 4.75137E-13
 -1      3730 1.99935E+01 2.78588E-02 1.24467E-04 1.42339E-02 1.56227E-13 3.64889E-13
 -1      3731 1.99999E+01 1.35931E-02-7.43481E-05 8.73332E-03 2.47800E-14 1.84179E-13
 -1      3732 1.99996E+01 1.63264E-02 3.19420E-05 1.06329E-02 1.65890E-13 2.65199E-13
 -1      3733 1.99970E+01 1.98452E-02 7.54813E-05 1.06363E-02 3.22970E-13 3.25263E-13
 -1      3734 2.00008E+01 9.41558E-03-5.18364E-05 5.96531E-03 1.36768E-13-4.38598E-14
 -1      3735 2.00008E+01 1.13579E-02 3.20697E-05 7.37852E-03 4.80402E-14 8.31267E-14
 -1      3736 1.99992E+01 1.39356E-02 4.40126E-05 7.61912E-03 7.60356E-14 6.70971E-14
 -1      3737 2.00012E+01 6.44177E-03-3.58633E-05 3.90552E-03-1.66298E-13-2.63778E-15
 -1      3738 2.00013E+01 7.82730E-03 2.90714E-05 4.93602E-03-8.44174E-14-4.60945E-14
 -1      3739 2.00003E+01 9.69588E-03 2.44979E-05 5.25961E-03-1.22207E-15 3.84053E-14
 -1      3740 2.00013E+01 4.32307E-03-2.44697E-05 2.41061E-03 1.07147E-13 2.57056E-14
 -1      3741 2.00014E+01 5.31095E-03 2.44875E-05 3.14591E-03 4.48349E-14-7.93208E-15
 -1      3742 2.00009E+01 6.65089E-03 1.27425E-05 3.47272E-03-9.66181E-14 1.39201E-13
 -1      3743 2.00012E+01 2.81940E-03-1.63721E-05 1.35430E-03 8.92028E-15-8.91265E-14
 -1      3744 2.00014E+01 3.51999E-03 1.95715E-05 1.86638E-03 1.38994E-13-1.03446E-13
 -1      3745 2.00012E+01 4.46739E-03 5.82979E-06 2.16037E-03 1.75298E-13-2.19951E-14
 -1      3746 2.00011E+01 1.76095E-03-1.06394E-05 6.29953E-04 2.03455E-13-2.51608E-13
 -1      3747 2.00013E+01 2.25301E-03 1.50848E-05 9.76241E-04 5.76770E-14-1.66534E-13
 -1      3748 2.00012E+01 2.91077E-03 1.76693E-06 1.22498E-03 8.08233E-14-2.36791E-13
 -1      3749 2.00010E+01 1.02658E-03-6.27715E-06 1.51971E-04 2.31735E-13-8.70087E-14
 -1      3750 2.00011E+01 1.36611E-03 1.13199E-05 3.76786E-04 8.82520E-14-1.23385E-13
 -1      3751 2.00011E+01 1.81200E-03-5.49180E-07 5.79301E-04 9.72714E-14-2.90521E-13
 -1      3752 2.00008E+01 5.46251E-04-3.58564E-06-1.36428E-04 3.49999E-13 2.17161E-14
 -1      3753 2.00009E+01 7.68683E-04 8.33986E-06-2.19366E-06 5.29622E-13-2.46666E-14
 -1      3754 2.00010E+01 1.06092E-03-2.25932E-06 1.58018E-04 3.37840E-13-5.39794E-14
 -1      3755 2.00006E+01 2.06413E-04-1.97369E-06-3.16361E-04 2.22209E-13-3.28077E-14
 -1      3756 2.00007E+01 3.60833E-04 5.85949E-06-2.35807E-04 3.21957E-13 1.24551E-13
 -1      3757 2.00009E+01 5.49216E-04-2.11500E-06-1.08874E-04 3.62024E-13 2.20897E-13
 -1      3758 2.00005E+01-9.99446E-06-7.35105E-07-4.07466E-04 3.49503E-15-1.68688E-13
 -1      3759 2.00005E+01 8.75016E-05 4.05223E-06-3.68801E-04 9.48277E-14-1.33287E-13
 -1      3760 2.00007E+01 1.97723E-04-2.23889E-06-2.71126E-04 2.67788E-13 5.73663E-14
 -1      3761 2.00003E+01-1.40994E-04 7.17010E-08-4.39725E-04 1.74305E-13-5.55623E-14
 -1      3762 2.00004E+01-8.30155E-05 2.67664E-06-4.28767E-04 1.12166E-13-1.39877E-13
 -1      3763 2.00005E+01-2.60693E-05-2.19334E-06-3.54234E-04 8.86291E-14-1.49555E-13
 -1      3764 2.00002E+01-2.15055E-04 5.11537E-07-4.34360E-04 1.92423E-13 3.07510E-13
 -1      3765 2.00003E+01-1.83084E-04 1.66527E-06-4.40976E-04 2.01626E-13 1.15890E-13
 -1      3766 2.00004E+01-1.61219E-04-2.02574E-06-3.84436E-04 1.51953E-13 2.39566E-13
 -1      3767 2.00001E+01-2.53590E-04 7.76417E-07-4.06495E-04 1.47152E-13 2.91069E-13
 -1      3768 2.00001E+01-2.37603E-04 7.74093E-07-4.23054E-04 3.07045E-13 3.34958E-13
 -1      3769 2.00003E+01-2.37423E-04-1.68451E-06-3.80899E-04 1.62956E-13 4.68046E-13
 -1      3770 1.95447E+01 4.63192E-01-1.04516E-03-1.35172E-02 3.74294E-14 2.54596E-13
 -1      3771 1.94134E+01 5.43651E-01-6.92547E-03-3.76848E-02 1.02901E-13 1.46604E-13
 -1      3772 1.95906E+01 4.13873E-01 4.81097E-03-7.95197E-02-6.90967E-14 3.41920E-13
 -1      3773 2.27852E+01-1.28690E-01 3.03287E-04-1.90303E-03 4.06914E-14-9.72855E-14
 -1      3774 1.92835E+01 6.39929E-01-6.79351E-04-1.05959E-01 8.61831E-14 5.59763E-14
 -1      3775 1.90772E+01 7.40722E-01-1.11463E-02-1.62848E-01 6.50206E-14 2.64360E-14
 -1      3776 1.93709E+01 5.57596E-01 6.91500E-03-2.00175E-01-5.69176E-15 1.80855E-13
 -1      3777 1.99362E+01 1.14579E-01-5.42316E-04 4.29762E-02-1.09846E-13 2.21276E-14
 -1      3778 1.99180E+01 1.37163E-01-7.75363E-04 4.87036E-02-2.41605E-13-2.30794E-14
 -1      3779 1.98953E+01 1.55642E-01 1.41131E-03 2.63965E-02-1.29211E-13 1.90593E-13
 -1      3780 1.99361E+01 1.10237E-01 8.99895E-04 2.91616E-02-9.24796E-14 8.10940E-14
 -1      3781 1.98222E+01 2.34299E-01-9.38520E-04 4.49890E-02-4.39578E-14 3.47625E-13
 -1      3782 1.97740E+01 2.76794E-01-2.43672E-03 4.61697E-02-6.44568E-14 3.78231E-13
 -1      3783 1.97368E+01 3.01882E-01 3.31921E-03-1.63139E-02-8.43213E-14 3.42986E-13
 -1      3784 1.98323E+01 2.17987E-01 2.19088E-03 1.39129E-02 4.21320E-14 3.84135E-13
 -1      3785 1.68284E+01 1.01214E-01 4.88313E-02-4.06574E+00 1.11856E-13-2.03587E-14
 -1      3786 1.87216E+01-1.13327E+00-2.71120E-03-4.42448E+00 2.03198E-13-5.13478E-15
 -1      3787 1.72077E+01 1.55633E+00 6.84044E-02 4.29992E+00 2.73487E-13-1.22750E-13
 -1      3788 2.60941E+01-2.24870E+00-8.84509E-04 3.99444E-02 1.56819E-13-1.12010E-13
 -1      3789 2.56057E+01-1.45989E+00-1.75428E-02 8.15465E-01 8.87077E-14 2.84547E-14
 -1      3790 2.51418E+01-2.45403E+00-1.09674E-02-4.63971E-01 1.25350E-13-4.32290E-14
 -1      3791 2.30894E+01-8.36398E-02-2.77249E-03-1.45299E+00-1.30620E-14-8.90700E-14
 -1      3792 2.31206E+01 1.28137E-01-4.40688E-03-1.55750E+00-3.87072E-14-9.03906E-14
 -1      3793 2.08757E+01-2.10654E+00 3.07670E-02-4.07327E+00 1.23534E-13-1.09496E-14
 -1      3794 2.27642E+01-2.90607E+00-2.81315E-02-3.34820E+00 1.69901E-13-2.63539E-14
 -1      3795 1.75147E+01 1.33209E+00 8.32244E-03-1.15144E+00 6.17794E-14-1.49616E-13
 -1      3796 1.67988E+01 1.40385E+00-3.02682E-02-1.52125E+00 4.03046E-14-1.98033E-13
 -1      3797 2.00001E+01-2.83880E-04-4.95486E-07-3.44316E-04-9.69323E-14 3.01128E-13
 -1      3798 2.00001E+01-2.67146E-04-5.43244E-07-3.81557E-04 6.30702E-14 2.68578E-13
 -1      3799 2.00002E+01-2.76428E-04-6.86946E-07-3.46458E-04 2.30836E-13 6.71727E-13
 -1      3800 2.00001E+01-3.00676E-04 9.78372E-07-2.97149E-04 9.07028E-14 4.22490E-13
 -1      3801 2.40409E+01 3.46339E+00-1.92295E-02 1.45083E+00-9.86745E-14-2.09034E-14
 -1      3802 2.38791E+01 4.00884E+00-2.81176E-02 8.77958E-01-1.02675E-13-3.56520E-14
 -1      3803 2.00001E+01-3.48511E-04 6.66586E-07-1.14779E-04-2.09447E-13 1.72631E-14
 -1      3804 2.00001E+01-3.40767E-04-5.86876E-08-1.71683E-04-1.43025E-13-1.49984E-13
 -1      3805 2.00002E+01-3.25187E-04-4.81708E-07-2.11893E-04-3.71111E-13 1.04349E-13
 -1      3806 2.00002E+01-3.37824E-04-3.43819E-07-8.49368E-05-2.04483E-13 1.77074E-13
 -1      3807 2.29204E+01-1.69730E-01-7.93570E-03-1.11816E+00 1.44719E-14-9.41624E-14
 -1      3808 2.29738E+01-1.62175E-01-1.08188E-02-1.25388E+00 8.56953E-15-8.19950E-14
 -1      3809 2.35835E+01-2.56410E-01-3.09775E-03-1.24924E+00-1.93443E-14-9.46898E-14
 -1      3810 2.32877E+01-2.78399E-01 8.46776E-03-8.61899E-01 2.05808E-14-9.92418E-14
 -1      3811 2.31899E+01 4.64337E-01-1.55601E-02-1.72970E+00-9.13831E-15-6.73447E-14
 -1      3812 2.31301E+01 9.35563E-01 6.18157E-03-1.73517E+00-2.88621E-14-6.08346E-14
 -1      3813 2.37490E+01 2.73849E-01 1.53974E-02-1.65555E+00-7.32205E-15-6.56417E-14
 -1      3814 2.38367E+01 4.30457E+00-3.27192E-02 2.75618E-01-8.32997E-14-1.72405E-14
 -1      3815 2.36038E+01 4.11573E+00-8.78311E-03-3.21744E-01-8.26821E-14 5.88262E-14
 -1      3816 1.90518E+01 7.26438E-01 9.65184E-03-4.15918E-01-4.99524E-15 9.93522E-14
 -1      3817 1.88929E+01 8.59429E-01 3.62302E-04-2.84884E-01 6.73045E-14-1.08231E-13
 -1      3818 1.85758E+01 9.74209E-01-1.73105E-02-4.00179E-01 1.03326E-13-1.11436E-13
 -1      3819 2.49958E+01-1.10410E+00 3.87102E-03-2.61583E-01 5.48745E-14 5.07285E-14
 -1      3820 2.26333E+01 2.56051E+00-2.35838E-02-1.16193E+00-1.41830E-13 1.45322E-14
 -1      3821 2.25364E+01 2.94936E+00 9.29107E-03-7.53600E-01-9.66677E-14 3.80791E-14
 -1      3822 2.00002E+01-2.67632E-04-6.12985E-07 2.87957E-04 1.81462E-13 2.41006E-13
 -1      3823 2.32239E+01-6.27710E-01-1.86395E-02 6.50268E-01 5.31808E-14-3.37629E-14
 -1      3824 2.37125E+01-7.36213E-01 2.58353E-03-1.11667E-01 3.56282E-14-5.25365E-14
 -1      3825 1.92380E+01-8.37638E-01-9.14856E-03-3.47675E+00 8.79834E-14 7.85830E-14
 -1      3826 2.00549E+01-1.54854E+00 1.47871E-02-3.91602E+00 1.51141E-13 1.66629E-14
 -1      3827 2.10178E+01-1.71556E+00-9.40040E-03-3.05775E+00 8.70619E-14 4.41418E-14
 -1      3828 2.41581E+01 2.68805E+00-2.62287E-02 1.74688E+00-5.32239E-14-6.51302E-15
 -1      3829 2.36742E+01-2.90211E+00 3.52950E-02-2.55103E+00 1.28173E-13-5.17511E-14
 -1      3830 2.41455E+01-2.75223E+00-1.93585E-02-1.57227E+00 7.98697E-14-3.51824E-14
 -1      3831 2.25977E+01-2.46072E+00-1.42621E-02-2.55552E+00 2.27323E-14 2.60122E-15
 -1      3832 2.00003E+01-3.16027E-04-8.96285E-08 8.52500E-05 1.75713E-14 2.97791E-13
 -1      3833 2.00003E+01-3.20794E-04-4.14429E-08 2.01159E-05-2.84236E-14 4.66098E-13
 -1      3834 2.44141E+01 3.76244E+00-3.71954E-02-1.43973E+00-1.06803E-13 7.45411E-14
 -1      3835 2.41930E+01 2.77223E+00-8.99982E-03-1.64664E+00-9.54566E-14 7.26016E-14
 -1      3836 2.30575E+01-6.67132E-01 5.10533E-03 1.28517E+00 9.38104E-14-5.26879E-15
 -1      3837 2.00002E+01-2.89636E-04-6.24109E-07 2.18715E-04 1.70330E-14 1.27628E-13
 -1      3838 2.00003E+01-2.99904E-04 7.73692E-08 1.59398E-04-2.05362E-14 1.74182E-14
 -1      3839 2.00003E+01-2.80604E-04 5.90937E-07 1.30514E-04 1.10286E-13 1.29362E-13
 -1      3840 2.00003E+01-2.40002E-04 5.38112E-07 2.71828E-04 2.02882E-13 1.70841E-13
 -1      3841 2.36769E+01 3.84528E+00-1.70240E-02-9.20579E-01-1.18620E-13 1.05297E-13
 -1      3842 2.55471E+01-7.06804E-02-1.06593E-03 1.63306E+00 7.48065E-14-2.79911E-14
 -1      3843 2.58248E+01 8.39441E-01-2.55989E-02 1.94364E+00 6.52950E-14-1.10504E-13
 -1      3844 1.83247E+01 1.10396E+00 2.70559E-03-6.08052E-01 1.19802E-13-9.66295E-14
 -1      3845 1.78523E+01 1.21267E+00-2.45422E-02-8.22893E-01 8.78173E-14-1.27994E-13
 -1      3846 1.86035E+01 8.96791E-01 1.29173E-02-7.83243E-01 1.22369E-13-1.11914E-13
 -1      3847 1.63017E+01 5.16275E-01 3.84777E-02-3.75954E+00 6.93837E-14-9.43273E-14
 -1      3848 1.76184E+01 4.38899E-02 2.72015E-02-3.56299E+00 1.26831E-13-1.80489E-14
 -1      3849 1.57296E+01 9.65793E-01-1.81244E-03-3.20930E+00-1.70992E-14-2.09020E-13
 -1      3850 2.31062E+01 3.46806E+00-8.09257E-03-5.41307E-01-7.33354E-14 8.52408E-14
 -1      3851 2.50771E+01 6.15288E-01-1.07079E-02-1.85472E+00-3.15026E-15-1.02141E-14
 -1      3852 2.46423E+01-2.62301E-02-1.75306E-02-1.46720E+00 1.99667E-14-1.60397E-14
 -1      3853 1.79873E+01 1.02350E+00 1.70284E-02-1.37981E+00-1.14190E-14-7.81941E-14
 -1      3854 2.44240E+01 1.31072E+00-1.69336E-02-1.92793E+00-2.56310E-14 4.02456E-16
 -1      3855 1.72907E+01 8.21025E-01 2.04344E-02-2.52554E+00-1.62413E-16-1.11566E-13
 -1      3856 1.64658E+01 1.26118E+00 1.92860E-02-2.30101E+00-4.32553E-15-1.70130E-13
 -1      3857 2.37351E+01 1.24014E+00 3.04187E-03-1.82408E+00-5.05659E-14-2.48577E-14
 -1      3858 2.44175E+01-8.51485E-01-3.97206E-03 1.21257E+00 8.53408E-15 1.43037E-14
 -1      3859 2.48776E+01-2.67574E-01 1.28623E-02 1.61311E+00 5.62501E-14-3.57310E-14
 -1      3860 2.34224E+01 2.63328E+00 5.33269E-03-1.50967E+00-1.24762E-13 7.66887E-14
 -1      3861 2.49172E+01 1.47404E+00-3.98967E-03 1.98912E+00 2.80245E-15-2.41517E-14
 -1      3862 2.42420E+01-1.33694E+00 6.71051E-03 9.05008E-01-1.54165E-14 2.82500E-14
 -1      3863 2.29036E+01-1.62340E+00-8.42451E-03 2.47252E-01 3.87156E-14 6.59711E-14
 -1      3864 2.26065E+01-1.59363E+00 1.44600E-02 2.41299E-02 6.26938E-14 8.54165E-14
 -1      3865 2.21454E+01-1.50088E+00-5.90330E-03-1.45785E-01-1.82059E-15 3.45934E-14
 -1      3866 2.18619E+01-1.36017E+00 1.44583E-02-2.74689E-01-7.29928E-14 5.05088E-14
 -1      3867 2.24689E+01-1.69419E+00-7.51285E-03-3.86139E-01-1.40655E-14 6.62534E-14
 -1      3868 2.14889E+01-1.20648E+00-1.62164E-03-3.38843E-01-5.73311E-14 1.44776E-14
 -1      3869 2.12459E+01-1.03855E+00 1.11486E-02-3.94027E-01-3.52976E-14 1.78704E-14
 -1      3870 2.16619E+01-1.37739E+00-1.55923E-02-5.86820E-01-5.03415E-14-1.28720E-14
 -1      3871 2.09767E+01-8.83468E-01 1.61157E-03-3.90078E-01 6.40902E-14 7.20812E-14
 -1      3872 2.07863E+01-7.33291E-01 7.37367E-03-4.00222E-01 1.32302E-13 2.00465E-13
 -1      3873 2.10537E+01-9.99045E-01-1.26023E-02-6.03316E-01 3.64371E-14 8.01835E-14
 -1      3874 2.06046E+01-6.01090E-01 2.84949E-03-3.64400E-01 1.28237E-13 1.92487E-13
 -1      3875 2.04659E+01-4.82083E-01 4.39611E-03-3.50880E-01 7.12206E-14 2.29193E-13
 -1      3876 2.06270E+01-6.71587E-01-9.48385E-03-5.32369E-01 1.22409E-13 1.45878E-13
 -1      3877 2.03509E+01-3.80731E-01 3.07643E-03-3.04901E-01 4.90081E-14 2.25117E-13
 -1      3878 2.02558E+01-2.94425E-01 2.35557E-03-2.82190E-01 5.41759E-14 2.37659E-13
 -1      3879 2.03458E+01-4.18753E-01-6.57228E-03-4.27764E-01 7.32479E-14 5.73013E-14
 -1      3880 2.01872E+01-2.22284E-01 2.68241E-03-2.38580E-01 3.11667E-14 2.78681E-13
 -1      3881 2.01254E+01-1.63424E-01 1.10379E-03-2.14821E-01 6.68209E-14 2.55927E-13
 -1      3882 2.01711E+01-2.39691E-01-4.29317E-03-3.23445E-01 4.65884E-14 2.18400E-13
 -1      3883 2.00871E+01-1.15092E-01 2.11591E-03-1.78387E-01-4.85306E-14 1.50853E-13
 -1      3884 2.00491E+01-7.73153E-02 3.97813E-04-1.57394E-01-1.03152E-13 6.10184E-14
 -1      3885 2.00686E+01-1.20486E-01-2.67155E-03-2.34208E-01-4.03182E-14 3.90747E-14
 -1      3886 2.00297E+01-4.68378E-02 1.55187E-03-1.29217E-01-1.17531E-14 7.41091E-14
 -1      3887 2.00077E+01-2.41357E-02 3.46140E-05-1.12235E-01 1.07821E-13 1.05345E-13
 -1      3888 2.00125E+01-4.58368E-02-1.59101E-03-1.64238E-01-5.94708E-14 3.06303E-14
 -1      3889 1.99994E+01-6.24304E-03 1.08038E-03-9.15115E-02 1.48660E-13 4.06304E-15
 -1      3890 1.99877E+01 6.23716E-03-1.29280E-04-7.84902E-02 3.33852E-14 2.77135E-14
 -1      3891 1.99851E+01-2.21083E-03-8.94376E-04-1.12402E-01 9.54997E-14-1.35464E-13
 -1      3892 1.99856E+01 1.57075E-02 7.20868E-04-6.37778E-02-3.16544E-14 2.27515E-13
 -1      3893 1.99802E+01 2.15923E-02-1.85487E-04-5.41275E-02 8.28662E-14 1.47189E-13
 -1      3894 1.99743E+01 2.08587E-02-4.62260E-04-7.55008E-02 1.01501E-13-3.19959E-15
 -1      3895 1.99812E+01 2.57081E-02 4.63328E-04-4.39476E-02 3.03957E-14 9.05610E-14
 -1      3896 1.99794E+01 2.75677E-02-1.87965E-04-3.69500E-02 8.71876E-14 1.38701E-14
 -1      3897 1.99726E+01 3.09556E-02-2.05676E-04-4.99927E-02 1.04643E-14-3.42458E-14
 -1      3898 1.99818E+01 2.84788E-02 2.87634E-04-3.00351E-02 1.75539E-13-2.32273E-14
 -1      3899 1.99818E+01 2.80536E-02-1.67010E-04-2.50282E-02 1.00498E-13-5.96435E-15
 -1      3900 1.99754E+01 3.33177E-02-6.22926E-05-3.27421E-02 7.72073E-14-9.58072E-14
 -1      3901 1.99845E+01 2.72010E-02 1.72634E-04-2.03914E-02-2.42446E-15 1.06536E-14
 -1      3902 1.99854E+01 2.56215E-02-1.38381E-04-1.68348E-02 4.50444E-14 2.49794E-14
 -1      3903 1.99799E+01 3.14193E-02 1.12348E-05-2.12604E-02-2.52379E-14 4.64021E-14
 -1      3904 1.99880E+01 2.39274E-02 1.00263E-04-1.37503E-02 1.22121E-13 3.16300E-14
 -1      3905 1.99892E+01 2.18915E-02-1.09824E-04-1.12331E-02 1.90036E-13 4.61401E-14
 -1      3906 1.99847E+01 2.74714E-02 4.32512E-05-1.37013E-02 6.05162E-14 1.53221E-13
 -1      3907 1.99913E+01 1.99187E-02 5.62699E-05-9.19215E-03 2.39751E-14 9.93524E-15
 -1      3908 1.99925E+01 1.78357E-02-8.44473E-05-7.41284E-03-7.19312E-14-5.61485E-14
 -1      3909 1.99890E+01 2.28169E-02 5.28377E-05-8.75774E-03 5.96818E-14 2.25916E-13
 -1      3910 1.99942E+01 1.59034E-02 3.06268E-05-6.06489E-03-4.97861E-14-8.47103E-15
 -1      3911 1.99951E+01 1.39897E-02-6.35129E-05-4.80873E-03-2.00930E-14 7.31832E-14
 -1      3912 1.99926E+01 1.82225E-02 5.07610E-05-5.53576E-03-2.70558E-15 1.69966E-13
 -1      3913 1.99964E+01 1.22598E-02 1.63086E-05-3.92047E-03 1.58980E-14 1.34793E-13
 -1      3914 1.99972E+01 1.06145E-02-4.64155E-05-3.03694E-03-4.60653E-14 2.63186E-13
 -1      3915 1.99954E+01 1.40787E-02 4.31874E-05-3.43533E-03 4.62209E-14 1.85510E-13
 -1      3916 1.99981E+01 9.15559E-03 8.34767E-06-2.45400E-03 1.18108E-14 2.66277E-13
 -1      3917 1.99986E+01 7.80606E-03-3.30840E-05-1.83481E-03 1.13851E-13 2.57412E-13
 -1      3918 1.99974E+01 1.05583E-02 3.62354E-05-2.07249E-03-3.71805E-14 2.78999E-13
 -1      3919 1.99992E+01 6.62462E-03 4.55831E-06-1.45333E-03 1.40394E-13 2.23320E-13
 -1      3920 1.99996E+01 5.55513E-03-2.31997E-05-1.02465E-03 3.85250E-14 2.21316E-13
 -1      3921 1.99988E+01 7.68287E-03 2.70744E-05-1.18243E-03 1.14612E-13 2.11842E-13
 -1      3922 2.00000E+01 4.63235E-03 2.60946E-06-7.79066E-04 2.19115E-13 3.09162E-13
 -1      3923 2.00002E+01 3.81217E-03-1.58789E-05-4.86791E-04 3.66818E-13 3.33469E-13
 -1      3924 1.99998E+01 5.41396E-03 1.90534E-05-6.07360E-04 1.85575E-13 2.87583E-13
 -1      3925 2.00004E+01 3.11321E-03 1.77926E-06-3.31472E-04 3.95545E-14 2.43132E-13
 -1      3926 2.00005E+01 2.50190E-03-1.05318E-05-1.37004E-04-2.71466E-13 3.10113E-13
 -1      3927 2.00004E+01 3.67839E-03 1.28970E-05-2.39171E-04 1.43570E-13 2.36439E-13
 -1      3928 2.00007E+01 1.98763E-03 1.38436E-06-4.25709E-05-4.18377E-13 3.27186E-13
 -1      3929 2.00007E+01 1.54499E-03-6.67948E-06 8.21003E-05-4.84723E-13 2.80605E-13
 -1      3930 2.00007E+01 2.38565E-03 8.18923E-06-8.44330E-06-2.00646E-13 4.05284E-13
 -1      3931 2.00007E+01 1.17781E-03 1.17170E-06 1.35629E-04-2.60421E-13 2.57286E-13
 -1      3932 2.00007E+01 8.67095E-04-3.95721E-06 2.11015E-04 3.01405E-14 2.90889E-13
 -1      3933 2.00008E+01 1.44921E-03 4.74936E-06 1.30064E-04-2.45869E-13 2.64454E-13
 -1      3934 2.00007E+01 6.13428E-04 1.01977E-06 2.37385E-04-1.21438E-14 1.06196E-13
 -1      3935 2.00007E+01 4.02867E-04-2.08471E-06 2.78543E-04-4.22053E-14 7.42717E-14
 -1      3936 2.00008E+01 7.90917E-04 2.33551E-06 2.06913E-04-9.53763E-14 2.39347E-14
 -1      3937 2.00006E+01 2.34175E-04 8.66886E-07 2.87306E-04 1.03366E-13 7.78262E-14
 -1      3938 2.00006E+01 9.72761E-05-8.10479E-07 3.05231E-04 2.05001E-13 7.25378E-14
 -1      3939 2.00007E+01 3.43743E-04 7.26507E-07 2.42941E-04 7.15855E-14 1.61582E-13
 -1      3940 2.00005E+01-1.00903E-05 7.23640E-07 3.03236E-04 2.79763E-13 1.55574E-13
 -1      3941 2.00005E+01-9.47906E-05 1.78155E-07 3.05854E-04 1.89565E-13 2.07426E-13
 -1      3942 2.00006E+01 5.20048E-05-4.28206E-07 2.52749E-04 2.58992E-13 1.86184E-13
 -1      3943 2.00004E+01-1.53753E-04 9.05055E-07 2.92225E-04 2.58337E-13 2.72967E-13
 -1      3944 2.00004E+01-2.04970E-04 3.23431E-07 2.86051E-04 3.82046E-13 2.19874E-13
 -1      3945 2.00004E+01-2.27134E-04-1.50596E-06 2.20064E-04 3.37082E-13 1.42155E-13
 -1      3946 2.00005E+01-1.24768E-04-1.35028E-06 2.43075E-04 2.97164E-13 2.93018E-13
 -1      3947 1.99861E+01 3.64326E-02-1.24092E-04 1.36723E-02 2.22860E-13 1.37433E-13
 -1      3948 1.99821E+01 4.29367E-02-1.44124E-04 1.56640E-02 1.72213E-13 1.87631E-13
 -1      3949 1.99763E+01 5.06015E-02-1.49555E-04 1.61488E-02 5.26333E-14 2.10163E-13
 -1      3950 1.99697E+01 5.95349E-02-2.85167E-04 1.79875E-02 7.38506E-14 3.02441E-13
 -1      3951 1.99766E+01 4.84933E-02 2.71030E-04 1.12040E-02 8.53193E-14 4.18420E-14
 -1      3952 1.99611E+01 7.01781E-02-1.67558E-04 1.73309E-02 1.85257E-14 2.54959E-13
 -1      3953 1.99504E+01 8.24401E-02-5.14955E-04 1.83874E-02-8.77533E-14 1.04222E-13
 -1      3954 1.99625E+01 6.62124E-02 4.15579E-04 1.02813E-02-6.08381E-15 1.15882E-13
 -1      3955 1.99920E+01 2.65866E-02-9.92320E-05 1.10080E-02 1.57772E-13 9.75309E-14
 -1      3956 1.99897E+01 3.11441E-02-6.65473E-05 1.27768E-02 1.50413E-13 1.03559E-13
 -1      3957 1.99856E+01 3.56540E-02 1.81333E-04 1.02686E-02 1.74739E-13-1.63290E-14
 -1      3958 1.99959E+01 1.89877E-02-7.63054E-05 8.35634E-03 2.79665E-13 2.33238E-13
 -1      3959 1.99945E+01 2.25078E-02-2.52990E-05 9.94398E-03 3.41048E-13 2.76137E-13
 -1      3960 1.99916E+01 2.60712E-02 1.15648E-04 8.58381E-03 1.65927E-13-6.78430E-14
 -1      3961 1.99983E+01 1.34543E-02-5.73149E-05 6.07993E-03 1.67986E-13 4.82357E-14
 -1      3962 1.99975E+01 1.60210E-02-4.50782E-06 7.36561E-03 1.64724E-13 2.48773E-13
 -1      3963 1.99955E+01 1.87799E-02 7.50280E-05 6.70360E-03 2.17976E-13 2.18700E-13
 -1      3964 1.99997E+01 9.42191E-03-4.19420E-05 4.23966E-03-1.07498E-13 3.45540E-14
 -1      3965 1.99994E+01 1.12952E-02 6.56097E-06 5.23927E-03 5.64005E-14 9.90363E-14
 -1      3966 1.99980E+01 1.33849E-02 4.70701E-05 4.97185E-03 7.57779E-14 6.93355E-14
 -1      3967 2.00005E+01 6.48757E-03-3.00124E-05 2.81470E-03 8.75375E-14 1.02198E-13
 -1      3968 2.00004E+01 7.85323E-03 1.10689E-05 3.56744E-03-1.41182E-13 1.35456E-13
 -1      3969 1.99995E+01 9.41102E-03 3.02343E-05 3.51778E-03-5.05586E-14 9.33459E-14
 -1      3970 2.00010E+01 4.36235E-03-2.11793E-05 1.75533E-03 2.15125E-13-4.37001E-14
 -1      3971 2.00009E+01 5.35036E-03 1.18028E-05 2.30437E-03 3.44023E-13 9.58466E-14
 -1      3972 2.00004E+01 6.49237E-03 1.91220E-05 2.36145E-03 2.22710E-13 1.47576E-13
 -1      3973 2.00011E+01 2.83760E-03-1.45741E-05 9.92838E-04 1.86822E-13-2.31633E-13
 -1      3974 2.00011E+01 3.54545E-03 1.06525E-05 1.38150E-03 1.12963E-13-1.16132E-13
 -1      3975 2.00009E+01 4.36621E-03 1.10142E-05 1.49015E-03 3.08430E-13 3.43478E-14
 -1      3976 2.00011E+01 1.75775E-03-9.32399E-06 4.64281E-04-1.17944E-13 1.72514E-14
 -1      3977 2.00012E+01 2.25715E-03 9.06613E-06 7.29592E-04 8.12161E-14-1.02238E-13
 -1      3978 2.00011E+01 2.83420E-03 5.77924E-06 8.54805E-04 3.11515E-14-1.27448E-13
 -1      3979 2.00010E+01 1.03579E-03-5.87172E-06 1.26870E-04 3.15132E-13 1.82372E-13
 -1      3980 2.00011E+01 1.37024E-03 7.31898E-06 2.95328E-04 2.61806E-14-3.73924E-14
 -1      3981 2.00011E+01 1.76555E-03 1.99977E-06 4.18603E-04-4.04746E-15 2.08258E-14
 -1      3982 2.00009E+01 5.12038E-04-3.62351E-06-1.00535E-04 4.56796E-13 1.58549E-13
 -1      3983 2.00010E+01 7.51115E-04 5.52693E-06 1.01193E-05 4.66163E-13 2.76852E-13
 -1      3984 2.00011E+01 1.01866E-03 6.01554E-07 1.25525E-04 2.32939E-13 1.52647E-13
 -1      3985 2.00007E+01 1.66894E-04-1.87349E-06-2.32775E-04 2.25058E-13 1.99046E-13
 -1      3986 2.00008E+01 3.23241E-04 4.10391E-06-1.69601E-04 4.26604E-13 2.98666E-13
 -1      3987 2.00009E+01 4.92813E-04-5.66439E-07-6.72337E-05 3.50020E-13 3.27033E-13
 -1      3988 2.00006E+01-5.15820E-05-6.46409E-07-2.99676E-04 7.68489E-14 6.18119E-14
 -1      3989 2.00007E+01 4.61074E-05 2.96288E-06-2.69096E-04 1.42953E-13 1.57690E-13
 -1      3990 2.00008E+01 1.46473E-04-1.25302E-06-1.80432E-04 2.47370E-13 4.50229E-13
 -1      3991 2.00004E+01-1.82583E-04 4.05051E-07-3.23576E-04 9.95069E-14 2.16074E-13
 -1      3992 2.00005E+01-1.25103E-04 2.03097E-06-3.14327E-04 9.36581E-14-2.07473E-14
 -1      3993 2.00006E+01-7.20489E-05-1.80406E-06-2.38481E-04 8.97333E-14 2.76577E-13
 -1      3994 2.00003E+01-2.55295E-04 1.04026E-06-3.18694E-04 2.20601E-13 2.01727E-13
 -1      3995 2.00004E+01-2.24694E-04 1.15942E-06-3.22613E-04 1.30887E-13 1.23731E-13
 -1      3996 2.00005E+01-2.03370E-04-2.03947E-06-2.58015E-04 6.33731E-14-1.29508E-13
 -1      3997 1.96523E+01 3.32113E-01 9.15021E-04-1.24366E-01-1.02239E-13 1.78231E-13
 -1      3998 1.95539E+01 3.79066E-01-5.78932E-03-1.73199E-01-7.05696E-14 1.62052E-13
 -1      3999 1.94842E+01 4.35302E-01 2.24292E-03-2.53859E-01-5.45179E-14 1.69434E-13
 -1      4000 1.93387E+01 4.87206E-01-8.70171E-03-3.41433E-01-7.63258E-14 5.59307E-14
 -1      4001 1.95735E+01 3.47896E-01 3.19148E-03-2.96107E-01-8.85833E-14 8.41052E-14
 -1      4002 2.00003E+01-3.00587E-04 5.69394E-07-1.61901E-05-1.58457E-14 3.38802E-13
 -1      4003 2.00003E+01-3.22696E-04 6.66637E-08-5.34152E-05-1.11157E-14 3.98136E-13
 -1      4004 2.00003E+01-3.21584E-04-4.62711E-07-1.18248E-04-1.51497E-13 1.60430E-13
 -1      4005 2.45745E+01-4.48424E-01-9.73558E-03-1.26307E+00 2.71413E-14-4.44835E-14
 -1      4006 1.77746E+01 2.36682E-01-1.27956E-02-3.01413E+00 3.87052E-14-3.01794E-14
 -1      4007 1.83373E+01-1.77478E-01-4.78208E-04-3.28077E+00 7.84245E-14 7.76532E-14
 -1      4008 1.94584E+01-5.61428E-01 2.48834E-02-2.91403E+00 3.90859E-14 4.93328E-14
 -1      4009 1.80824E+01 5.84622E-01 2.43544E-02-2.24529E+00 1.32354E-14-6.67394E-14
 -1      4010 1.53825E+01 1.78068E+00 3.69778E-02-2.04102E+00-6.81096E-16-3.04166E-13
 -1      4011 1.85309E+01 6.99363E-01 1.50435E-02-1.40009E+00-4.23463E-14-1.99066E-14
 -1      4012 1.81392E+01 6.53080E-01-2.29001E-02-1.79240E+00-5.06318E-14-4.87008E-14
 -1      4013 1.86599E+01 2.11359E-01 3.63949E-03-2.24001E+00-2.44533E-14-5.31714E-15
 -1      4014 2.41291E+01-7.39550E-01-8.88266E-03-5.89303E-01 2.01965E-14-5.70960E-14
 -1      4015 2.41960E+01 1.84987E+00-1.67436E-02 1.95064E+00-4.00201E-14-6.25411E-15
 -1      4016 2.40985E+01 1.21649E+00-4.35326E-03 1.89251E+00 2.19269E-14 2.03969E-14
 -1      4017 1.92519E+01 5.47941E-01 4.45079E-03-4.72674E-01-2.92142E-14 1.12342E-13
 -1      4018 1.90435E+01 5.95950E-01-1.23884E-02-6.23063E-01 2.21043E-14 1.13508E-13
 -1      4019 1.94001E+01 4.14056E-01 3.64721E-03-5.20686E-01-4.87792E-14 7.24240E-14
 -1      4020 1.98472E+01 1.84087E-01 4.35417E-06-1.26276E-02 4.52686E-14 3.54489E-13
 -1      4021 1.98052E+01 2.13405E-01-2.37737E-03-2.48019E-02-2.08425E-15 2.84940E-13
 -1      4022 2.00004E+01-2.49678E-04 4.63083E-07 1.42979E-04 1.52709E-13 8.39349E-14
 -1      4023 2.00004E+01-2.67798E-04-1.06088E-06 6.92232E-05 1.23590E-13 3.48510E-13
 -1      4024 2.00005E+01-2.07993E-04 1.04946E-06 1.54697E-04 1.62284E-13 2.34229E-13
 -1      4025 2.40872E+01 3.93440E-01-4.11519E-02 1.83974E+00 6.69280E-14 3.02857E-14
 -1      4026 2.36728E+01-1.32478E+00 3.03369E-03 8.64806E-01-3.91722E-14 9.02663E-15
 -1      4027 2.33984E+01-1.55028E+00 1.27913E-02 5.42528E-01-1.78369E-14 3.58635E-14
 -1      4028 1.98742E+01 1.56642E-01-1.47961E-03 2.28860E-03 7.80392E-14 2.84349E-13
 -1      4029 1.98637E+01 1.62531E-01 1.30345E-03-3.16891E-02 1.19038E-13 1.54828E-13
 -1      4030 1.99018E+01 1.33969E-01-1.08952E-04 7.27034E-03-5.69772E-14 1.20880E-13
 -1      4031 2.00005E+01-2.34882E-04 1.22808E-06 2.19540E-06 1.53330E-13 3.53781E-13
 -1      4032 2.00004E+01-2.74177E-04-4.87206E-08-6.38818E-06 1.39900E-13 3.61570E-13
 -1      4033 2.00004E+01-2.79323E-04-2.13593E-06-7.84895E-05 1.74714E-13 4.56101E-14
 -1      4034 2.39713E+01-7.69356E-01 5.09444E-06-3.72167E-01 2.80505E-14-5.52238E-14
 -1      4035 2.11282E+01-1.53295E+00 1.85163E-02-2.61312E+00 6.13641E-14 1.26985E-13
 -1      4036 2.19081E+01-2.00041E+00 4.22747E-02-2.72388E+00 2.86505E-14 4.41357E-14
 -1      4037 2.24977E+01-2.19350E+00-5.32549E-03-2.07766E+00 1.11521E-14 2.96737E-14
 -1      4038 1.97034E+01 2.86706E-01-3.76707E-03-7.74178E-02-1.17754E-13 1.61974E-13
 -1      4039 1.97032E+01 2.77737E-01 2.56445E-03-1.59173E-01-1.64569E-13 1.08104E-14
 -1      4040 1.97674E+01 2.49264E-01 2.67727E-04-5.22077E-02-1.54697E-13 2.63451E-13
 -1      4041 1.89442E+01 6.48088E-01 8.14844E-03-8.28610E-01 4.28792E-14 9.03565E-14
 -1      4042 1.86561E+01 6.67503E-01-1.79526E-02-1.07438E+00 8.36809E-14 3.26137E-14
 -1      4043 1.91869E+01 4.50991E-01 4.69444E-03-8.75057E-01 2.67581E-15 1.89849E-13
 -1      4044 2.43674E+01 2.02054E+00-1.93658E-02-1.93899E+00-8.79106E-14 3.89437E-14
 -1      4045 2.34037E+01-1.79958E+00 5.36042E-04 6.18407E-02 2.47918E-14 4.82210E-14
 -1      4046 1.99377E+01 9.70785E-02-1.65241E-04 1.54204E-02-9.93393E-14-3.69232E-14
 -1      4047 1.99204E+01 1.13828E-01-8.90971E-04 1.45151E-02-1.54621E-13-6.23305E-14
 -1      4048 1.99100E+01 1.21338E-01 9.17002E-04-6.63486E-03 2.65885E-14-3.80606E-14
 -1      4049 1.99414E+01 8.99110E-02 6.22415E-04 5.45671E-03-1.68762E-13-4.35190E-14
 -1      4050 2.45459E+01-2.63120E+00 7.94951E-03-1.02777E+00 1.14579E-13-3.09574E-14
 -1      4051 2.45264E+01-2.17460E+00 9.73779E-03-2.15574E-01 5.67465E-14 7.42054E-14
 -1      4052 1.89203E+01 4.13171E-01 3.93745E-03-1.42828E+00-3.93619E-14 4.62779E-14
 -1      4053 2.00002E+01-3.19231E-04 6.24387E-07-1.82497E-04-2.13687E-13-1.47368E-13
 -1      4054 2.00002E+01-3.09852E-04-1.27600E-07-2.42074E-04-5.94912E-14 1.29022E-13
 -1      4055 2.00002E+01-2.95984E-04 3.98188E-07-2.67717E-04 1.56380E-13 2.11079E-13
 -1      4056 2.00003E+01-3.04481E-04 7.67119E-07-1.51138E-04 2.13878E-13 1.23939E-14
 -1      4057 2.44325E+01-1.85115E+00-1.24212E-02 3.44969E-01 4.45100E-14 9.16927E-14
 -1      4058 2.35559E+01-2.47622E+00-2.05399E-02-1.34252E+00 1.37303E-14-9.97466E-16
 -1      4059 2.38897E+01-2.08050E+00-1.37896E-02-1.95736E-01 5.46867E-14 4.28180E-14
 -1      4060 2.34393E+01-2.06812E+00 1.13239E-02-4.85794E-01 1.10263E-14 5.71390E-14
 -1      4061 2.29972E+01-2.21535E+00 2.40132E-02-1.53952E+00-1.67945E-14-1.64061E-14
 -1      4062 2.32565E+01-2.19230E+00-3.84560E-03-1.01326E+00 5.17682E-15 2.96612E-14
 -1      4063 2.28027E+01-1.95543E+00-1.37268E-02-7.26882E-01-2.30982E-14 6.23485E-14
 -1      4064 2.22048E+01-1.95974E+00-1.40815E-02-1.77088E+00 3.19180E-14 4.62729E-14
 -1      4065 2.17525E+01-1.46454E+00-3.04526E-03-9.09412E-01-4.76390E-14 1.00597E-13
 -1      4066 2.14290E+01-1.22017E+00 1.93479E-02-9.16882E-01-3.65371E-14 1.39475E-13
 -1      4067 2.10923E+01-1.01482E+00 6.49855E-03-8.55493E-01 9.46617E-15 1.59637E-13
 -1      4068 2.08332E+01-8.19091E-01 9.91538E-03-8.10868E-01 8.89580E-14 2.01199E-13
 -1      4069 2.10631E+01-1.16966E+00-3.62078E-02-1.16692E+00 1.51660E-14 2.81588E-13
 -1      4070 2.06304E+01-6.50740E-01 7.99889E-03-7.11314E-01 8.50971E-14 1.97201E-13
 -1      4071 2.04464E+01-5.06976E-01 4.42360E-03-6.47082E-01 1.20673E-13 1.76304E-13
 -1      4072 2.05459E+01-7.30754E-01-2.78635E-02-9.44577E-01 7.22189E-14 2.43986E-13
 -1      4073 2.03339E+01-3.84007E-01 7.47743E-03-5.49326E-01 7.99671E-14 1.50364E-13
 -1      4074 2.02114E+01-2.86725E-01 1.47055E-03-4.84648E-01 3.43347E-14 1.59925E-13
 -1      4075 2.02491E+01-4.16407E-01-1.70328E-02-7.12662E-01 3.97587E-14 1.92606E-13
 -1      4076 2.01537E+01-2.04260E-01 5.72818E-03-4.01589E-01 8.37471E-14 9.31024E-14
 -1      4077 2.00769E+01-1.42171E-01-1.15956E-04-3.46581E-01 2.42512E-14 6.29300E-14
 -1      4078 2.00807E+01-2.07832E-01-9.80255E-03-5.11052E-01 2.66204E-14 1.04377E-14
 -1      4079 2.00513E+01-8.93347E-02 4.26609E-03-2.82388E-01-3.15196E-14-4.20355E-14
 -1      4080 2.00056E+01-5.23280E-02-7.05775E-04-2.39230E-01-1.10039E-13-9.60302E-14
 -1      4081 1.99951E+01-8.04885E-02-5.27295E-03-3.52488E-01-1.14265E-13-6.58410E-14
 -1      4082 1.99976E+01-2.06933E-02 3.00333E-03-1.92509E-01-1.09598E-13-8.15097E-14
 -1      4083 1.99722E+01-3.12484E-04-8.37282E-04-1.60521E-01-7.80682E-14-1.42808E-13
 -1      4084 1.99562E+01-7.89131E-03-2.83551E-03-2.35159E-01-1.42212E-13-1.24706E-13
 -1      4085 1.99730E+01 1.70812E-02 2.02478E-03-1.27934E-01-4.83728E-15-1.60612E-13
 -1      4086 1.99602E+01 2.69002E-02-7.69948E-04-1.05193E-01 1.21739E-13-2.14727E-13
 -1      4087 1.99436E+01 3.00192E-02-1.43579E-03-1.52459E-01-5.13824E-14-7.48303E-14
 -1      4088 1.99650E+01 3.52032E-02 1.31428E-03-8.32324E-02 2.03735E-13-1.99938E-13
 -1      4089 1.99596E+01 3.86347E-02-6.33762E-04-6.75689E-02 1.17398E-13-1.09966E-13
 -1      4090 1.99447E+01 4.66768E-02-6.38140E-04-9.63154E-02 1.14683E-13-2.33081E-13
 -1      4091 1.99656E+01 4.14219E-02 8.21461E-04-5.31784E-02 1.05429E-13-6.03846E-14
 -1      4092 1.99643E+01 4.12196E-02-4.90760E-04-4.26530E-02 5.20141E-14-6.40941E-14
 -1      4093 1.99518E+01 5.09987E-02-1.90865E-04-5.93728E-02 1.76380E-13-3.84931E-13
 -1      4094 1.99702E+01 4.08835E-02 4.94708E-04-3.34574E-02-1.26692E-14-6.52522E-14
 -1      4095 1.99710E+01 3.88075E-02-3.64449E-04-2.65122E-02 6.36561E-14-1.01982E-13
 -1      4096 1.99610E+01 4.85829E-02 3.52981E-05-3.57288E-02 1.54611E-14-2.13532E-13
 -1      4097 1.99761E+01 3.68717E-02 2.85620E-04-2.07701E-02 2.84485E-14-7.13723E-14
 -1      4098 1.99778E+01 3.40026E-02-2.63949E-04-1.62477E-02 6.34343E-14 5.86552E-15
 -1      4099 1.99701E+01 4.29221E-02 1.32001E-04-2.09704E-02 7.51199E-14-1.62494E-13
 -1      4100 1.99819E+01 3.14127E-02 1.58260E-04-1.27370E-02 7.32056E-14 1.94257E-13
 -1      4101 1.99838E+01 2.83800E-02-1.85791E-04-9.81146E-03 1.22188E-13 3.06176E-13
 -1      4102 1.99780E+01 3.61026E-02 1.59367E-04-1.19778E-02 2.27932E-13-1.37890E-14
 -1      4103 1.99871E+01 2.56703E-02 8.21060E-05-7.71837E-03 4.83075E-15 3.23615E-13
 -1      4104 1.99888E+01 2.28225E-02-1.30674E-04-5.83680E-03-4.61499E-14 2.10875E-13
 -1      4105 1.99846E+01 2.92452E-02 1.44438E-04-6.63040E-03 1.06944E-13 2.45884E-13
 -1      4106 1.99913E+01 2.02992E-02 3.91428E-05-4.60747E-03-2.81407E-14 1.59674E-13
 -1      4107 1.99927E+01 1.77967E-02-9.08370E-05-3.39819E-03-2.79718E-14 1.81528E-13
 -1      4108 1.99897E+01 2.30377E-02 1.27564E-04-3.51587E-03-5.48050E-14 1.04048E-13
 -1      4109 1.99945E+01 1.55979E-02 1.59346E-05-2.69386E-03-4.61296E-14 1.15749E-13
 -1      4110 1.99956E+01 1.34986E-02-6.09523E-05-1.91398E-03-1.12264E-13 7.02840E-14
 -1      4111 1.99935E+01 1.76757E-02 1.03865E-04-1.75427E-03-1.08186E-13-8.17430E-14
 -1      4112 1.99968E+01 1.16486E-02-3.57039E-07-1.51281E-03-4.79851E-14 1.68174E-13
 -1      4113 1.99977E+01 9.96235E-03-3.51598E-05-1.01923E-03-5.43016E-14 8.65771E-14
 -1      4114 1.99962E+01 1.32287E-02 7.45971E-05-7.82934E-04-1.26828E-13-1.25368E-13
 -1      4115 1.99985E+01 8.48105E-03-4.94738E-06-8.03497E-04 6.28855E-14 1.43699E-13
 -1      4116 1.99991E+01 7.15046E-03-2.16563E-05-4.80915E-04 1.00766E-13 8.26679E-14
 -1      4117 1.99981E+01 9.57205E-03 2.97990E-05-2.39196E-04-3.32054E-14-1.09654E-14
 -1      4118 1.99996E+01 5.98987E-03-5.55554E-06-3.72119E-04 1.33017E-13 2.64542E-14
 -1      4119 2.00000E+01 4.97137E-03-1.41766E-05-1.63402E-04 2.32418E-13 1.53364E-13
 -1      4120 1.99994E+01 6.79180E-03 2.04379E-05 6.25077E-06 6.57410E-14 9.09848E-15
 -1      4121 2.00003E+01 4.08973E-03-4.33453E-06-1.10666E-04 1.75291E-13 1.53187E-13
 -1      4122 2.00005E+01 3.32705E-03-8.89918E-06 2.26735E-05 3.20019E-14 1.06116E-13
 -1      4123 2.00002E+01 4.67082E-03 1.32574E-05 1.25928E-04 1.51924E-13 1.69223E-13
 -1      4124 2.00007E+01 2.67396E-03-3.19456E-06 4.33218E-05-6.94528E-14 1.62790E-13
 -1      4125 2.00008E+01 2.11737E-03-5.32188E-06 1.26499E-04-2.40110E-13 2.59432E-13
 -1      4126 2.00007E+01 3.08712E-03 8.38413E-06 1.73279E-04-3.07802E-14 8.28140E-14
 -1      4127 2.00008E+01 1.64630E-03-2.09499E-06 1.30081E-04-2.99632E-13 2.62470E-13
 -1      4128 2.00009E+01 1.25113E-03-2.91358E-06 1.79580E-04-2.35571E-13 1.39757E-13
 -1      4129 2.00009E+01 1.93354E-03 4.97320E-06 1.84019E-04-3.14714E-13 7.84223E-14
 -1      4130 2.00009E+01 9.21237E-04-1.20290E-06 1.74480E-04-1.69676E-13 7.72789E-14
 -1      4131 2.00009E+01 6.49279E-04-1.32455E-06 2.01446E-04 1.46035E-14 6.21859E-14
 -1      4132 2.00009E+01 1.11487E-03 2.58532E-06 1.77189E-04-1.67297E-13 1.91965E-13
 -1      4133 2.00008E+01 4.25857E-04-5.43698E-07 1.92206E-04 9.56181E-14 5.88370E-14
 -1      4134 2.00008E+01 2.45514E-04-3.63998E-07 2.04184E-04 9.79661E-14 2.31994E-13
 -1      4135 2.00009E+01 5.51107E-04 1.00027E-06 1.62819E-04 5.95328E-14 1.57363E-13
 -1      4136 2.00007E+01 1.00212E-04-1.03474E-07 1.92992E-04 2.63697E-13 2.20031E-13
 -1      4137 2.00006E+01-1.39089E-05 1.05170E-07 1.94810E-04 3.73952E-13 1.32803E-13
 -1      4138 2.00008E+01 1.76840E-04 3.57779E-07 1.45851E-04 1.82590E-13 1.68877E-13
 -1      4139 1.99773E+01 4.37245E-02-2.32731E-05 6.29780E-03 1.09585E-13-7.71327E-14
 -1      4140 1.99711E+01 5.04745E-02-3.39351E-04 6.15486E-03 1.40281E-13-1.91051E-14
 -1      4141 1.99855E+01 3.28759E-02-4.42033E-05 6.59669E-03 2.11583E-13-1.25696E-13
 -1      4142 1.99816E+01 3.78436E-02-1.94298E-04 7.12666E-03 9.77747E-14-1.44180E-13
 -1      4143 1.99784E+01 4.11951E-02 2.51581E-04 2.49941E-03 1.64619E-13-2.59523E-13
 -1      4144 1.99649E+01 5.86130E-02 4.09455E-05 3.81810E-03 1.17599E-13 4.95422E-14
 -1      4145 1.99554E+01 6.72977E-02-5.70009E-04 2.17577E-03 3.20265E-14 6.87831E-14
 -1      4146 1.99675E+01 5.37815E-02 3.11379E-04-1.19679E-03 1.88065E-13-2.28708E-13
 -1      4147 1.99951E+01 1.75543E-02-4.31389E-05 4.77782E-03 1.97542E-13 2.40826E-14
 -1      4148 1.99935E+01 2.05952E-02-6.12851E-05 5.61667E-03 1.76370E-13 2.68953E-14
 -1      4149 1.99977E+01 1.25931E-02-3.62002E-05 3.62558E-03-8.24762E-14 1.34635E-13
 -1      4150 1.99967E+01 1.48890E-02-3.03006E-05 4.37962E-03 3.44685E-14 6.59416E-14
 -1      4151 1.99953E+01 1.69996E-02 1.02946E-04 3.36372E-03 1.95284E-14-2.15150E-14
 -1      4152 1.99993E+01 8.89117E-03-2.31696E-05 2.59656E-03 8.80745E-14-1.66764E-14
 -1      4153 1.99987E+01 1.06008E-02-1.36505E-05 3.22170E-03-2.27066E-14 6.30736E-14
 -1      4154 1.99977E+01 1.22428E-02 5.93431E-05 2.67288E-03-1.08167E-14 3.07549E-14
 -1      4155 2.00002E+01 6.13043E-03-2.24274E-05 1.77128E-03 2.69503E-13-3.40739E-14
 -1      4156 1.99999E+01 7.40424E-03-2.99597E-06 2.25419E-03 2.12525E-13 6.03879E-15
 -1      4157 1.99993E+01 8.62691E-03 3.86738E-05 1.97567E-03 2.16469E-13 4.24448E-14
 -1      4158 2.00008E+01 4.11734E-03-1.64177E-05 1.12155E-03 3.27761E-13-1.20590E-13
 -1      4159 2.00006E+01 5.05258E-03 2.88076E-06 1.48395E-03 3.91976E-13-1.56344E-14
 -1      4160 2.00002E+01 5.96923E-03 2.07895E-05 1.36708E-03 3.08074E-13-9.50766E-15
 -1      4161 2.00010E+01 2.65946E-03-1.11795E-05 6.45540E-04-3.15146E-14-1.03081E-13
 -1      4162 2.00010E+01 3.33362E-03 3.87391E-06 9.05889E-04 8.92192E-14-1.44857E-13
 -1      4163 2.00007E+01 4.00218E-03 1.29504E-05 8.85734E-04 1.62149E-13-7.18022E-14
 -1      4164 2.00011E+01 1.66511E-03-7.36217E-06 3.24494E-04 2.93125E-14-1.38725E-13
 -1      4165 2.00011E+01 2.12559E-03 4.01670E-06 4.99042E-04 3.01534E-15-1.83880E-14
 -1      4166 2.00010E+01 2.60183E-03 7.46438E-06 5.33893E-04-1.44805E-14-1.76873E-13
 -1      4167 2.00010E+01 9.27760E-04-4.75650E-06 9.47882E-05 1.30938E-13 3.20208E-14
 -1      4168 2.00011E+01 1.26500E-03 3.49798E-06 2.17026E-04-5.22348E-14-5.83932E-14
 -1      4169 2.00011E+01 1.59911E-03 4.08102E-06 2.82233E-04-7.87261E-14-2.44862E-13
 -1      4170 2.00009E+01 4.28371E-04-2.71167E-06-5.06406E-05 2.60830E-13 2.97695E-13
 -1      4171 2.00010E+01 6.55076E-04 2.93505E-06 2.60696E-05 3.64880E-13 2.10013E-13
 -1      4172 2.00010E+01 8.78519E-04 1.76683E-06 1.05129E-04 9.53298E-14 4.71793E-14
 -1      4173 2.00008E+01 1.01366E-04-1.31368E-06-1.35829E-04 3.20456E-13 3.39678E-13
 -1      4174 2.00009E+01 2.48234E-04 2.42161E-06-9.16394E-05 2.75895E-13 3.23735E-13
 -1      4175 2.00009E+01 3.90790E-04 2.37139E-07-8.93421E-06 2.72201E-13 3.40676E-13
 -1      4176 2.00006E+01-1.05163E-04-2.08138E-07-1.79954E-04 2.25637E-13 1.07411E-13
 -1      4177 2.00007E+01-1.25938E-05 2.02960E-06-1.57368E-04 3.13925E-13 2.69806E-13
 -1      4178 2.00008E+01 7.25258E-05-6.36149E-07-7.73771E-05 3.76526E-13 2.43404E-13
 -1      4179 2.00004E+01-2.43910E-04 1.32691E-06-1.71259E-04 2.06867E-13-8.55039E-15
 -1      4180 2.00005E+01-1.98450E-04 1.55832E-06-1.64043E-04 1.97046E-13 9.22418E-14
 -1      4181 2.00002E+01-2.82018E-04-4.83752E-08-2.91267E-04 1.84806E-13 1.80102E-13
 -1      4182 2.00003E+01-2.77973E-04-1.52797E-06-2.37846E-04 2.24226E-13-2.24079E-13
 -1      4183 1.97967E+01 2.14866E-01 1.83735E-03-7.83450E-02-6.50577E-14 3.23482E-14
 -1      4184 1.99913E+01 2.41503E-02-4.61766E-05 5.88587E-03 4.50702E-14-5.51367E-14
 -1      4185 1.99887E+01 2.81666E-02-1.10729E-04 6.69737E-03 1.79688E-13-7.13106E-14
 -1      4186 1.99916E+01 2.31899E-02 1.42881E-04 3.86809E-03 7.73030E-14-3.02776E-13
 -1      4187 2.00004E+01-2.76115E-04 4.71815E-07-1.73807E-04 2.58899E-13-1.09346E-14
 -1      4188 1.92925E+01-2.58085E-02 2.42836E-02-1.99827E+00-6.78737E-14 5.49624E-14
 -1      4189 1.91593E+01-2.48638E-01-9.11035E-03-2.45704E+00 3.97512E-15 4.49786E-14
 -1      4190 1.99953E+01-9.03287E-01-2.99666E-02-2.59805E+00 3.80087E-14 4.48400E-14
 -1      4191 2.23906E+01-1.75327E+00 1.63059E-02-8.59791E-01-3.81127E-14 4.70332E-14
 -1      4192 1.93560E+01 2.07012E-01 1.69058E-02-1.29522E+00-1.80114E-14 9.22990E-14
 -1      4193 1.91769E+01 1.04478E-01-1.27193E-02-1.63392E+00-7.43074E-14 8.99931E-15
 -1      4194 1.96539E+01-3.37446E-01-2.81917E-02-1.83977E+00-4.02597E-14 9.92164E-14
 -1      4195 1.96835E+01 2.56317E-01 4.18498E-03-2.98939E-01-9.99086E-14 3.50719E-15
 -1      4196 1.95939E+01 2.69001E-01-6.81934E-03-3.88497E-01-6.15538E-14 1.76690E-14
 -1      4197 2.00005E+01-1.89030E-04-1.53473E-06 4.80562E-05 1.17850E-13 5.39493E-13
 -1      4198 2.00005E+01-1.99685E-04-5.54374E-07-2.83331E-05 2.52731E-13 2.42720E-13
 -1      4199 1.98852E+01 1.33735E-01 7.63731E-04-4.36550E-02 4.42646E-14 1.78714E-14
 -1      4200 1.98530E+01 1.50221E-01-2.23340E-03-6.18911E-02 5.84289E-15-8.58922E-14
 -1      4201 1.99518E+01 6.97362E-02 3.57618E-04-9.37800E-03-9.95513E-14-1.17384E-13
 -1      4202 1.99470E+01 7.79157E-02 1.58399E-04-2.83591E-03-2.59137E-13 8.96255E-14
 -1      4203 1.99325E+01 8.88792E-02-9.24456E-04-7.29011E-03-2.55191E-13 2.61924E-14
 -1      4204 1.99861E+01 3.11919E-02 1.86867E-04 3.79280E-03 1.40060E-13-2.60643E-13
 -1      4205 2.00006E+01-1.55467E-04-1.12448E-06-9.03629E-05 2.32495E-13 6.89281E-14
 -1      4206 2.07744E+01-9.61212E-01 2.26290E-02-1.77096E+00-3.21648E-14 2.30501E-13
 -1      4207 2.10481E+01-1.28960E+00 1.79232E-02-2.08431E+00 1.08628E-14 1.45399E-13
 -1      4208 1.98352E+01 1.71416E-01 1.41676E-03-9.09861E-02-4.78683E-14-1.76282E-13
 -1      4209 1.97891E+01 1.89647E-01-3.31366E-03-1.23067E-01-1.46748E-13-1.91734E-13
 -1      4210 1.98611E+01 1.36255E-01-7.02184E-06-1.02410E-01-1.20861E-13-2.98506E-13
 -1      4211 1.94504E+01 2.92126E-01 1.08729E-02-8.28087E-01-2.84581E-14 6.29790E-14
 -1      4212 1.93080E+01 2.50195E-01-1.18772E-02-1.04534E+00-1.33158E-14 4.81871E-14
 -1      4213 1.95836E+01-2.79609E-02-1.67080E-02-1.24118E+00-4.35405E-14 1.04348E-14
 -1      4214 1.97684E+01 2.13898E-01 2.45462E-03-1.70561E-01-1.72403E-13-7.56709E-14
 -1      4215 1.97042E+01 2.31452E-01-4.83563E-03-2.24111E-01-1.44607E-13-4.35304E-14
 -1      4216 1.97511E+01 1.74153E-01-1.86144E-03-3.08200E-01-8.02027E-14 9.08659E-15
 -1      4217 1.98111E+01 1.59383E-01-6.35447E-04-1.82004E-01-9.69863E-14-1.61859E-13
 -1      4218 2.19817E+01-1.68938E+00-1.47879E-02-1.24802E+00-6.69326E-14 7.29863E-14
 -1      4219 1.95785E+01 2.88824E-01 7.03899E-03-5.05002E-01-3.82635E-14 3.97070E-14
 -1      4220 1.94611E+01 2.83403E-01-9.63959E-03-6.45916E-01-9.68624E-15 6.77262E-14
 -1      4221 1.96861E+01 1.65960E-01-4.26023E-03-5.03721E-01-5.65084E-14 2.64619E-15
 -1      4222 2.00007E+01-5.72973E-05-9.74213E-07 7.99720E-05 4.38791E-13 3.59052E-13
 -1      4223 2.00006E+01-9.46614E-05 8.24593E-07 1.35550E-04 3.57147E-13 2.68374E-13
 -1      4224 2.00005E+01-1.61365E-04 5.94685E-07 1.27247E-04 2.25964E-13 3.84100E-13
 -1      4225 1.99992E+01 7.94989E-03-2.43399E-05 1.23807E-03 6.94099E-14 5.55597E-14
 -1      4226 1.99985E+01 9.47558E-03-2.96149E-05 1.54248E-03 1.41667E-13-8.10383E-14
 -1      4227 2.04373E+01-6.93059E-01 2.18659E-02-1.62944E+00 1.17935E-14 2.13806E-13
 -1      4228 1.99214E+01 1.02656E-01 3.77659E-04-1.69226E-02 3.86122E-15 6.29949E-14
 -1      4229 1.98997E+01 1.16276E-01-1.46376E-03-2.64107E-02 8.07879E-14 9.27637E-14
 -1      4230 1.99004E+01 1.11738E-01 2.78631E-04-5.37581E-02-3.50518E-14 7.05866E-14
 -1      4231 1.99301E+01 8.90950E-02 3.64895E-04-2.52041E-02-8.32999E-14 1.31589E-13
 -1      4232 2.03231E+01-4.89862E-01 2.44599E-02-1.30956E+00 5.55545E-16 2.03821E-13
 -1      4233 2.01033E+01-3.19219E-01 1.43304E-02-1.17079E+00 1.44888E-14 1.51927E-13
 -1      4234 2.00613E+01-2.03911E-01 1.74960E-02-9.35901E-01 5.22011E-15 1.06884E-13
 -1      4235 1.99312E+01-1.02331E-01 6.30066E-03-8.13682E-01-5.28012E-15 6.79750E-14
 -1      4236 1.99467E+01-4.52435E-02 1.17107E-02-6.31041E-01-3.01738E-14 7.46826E-14
 -1      4237 1.98737E+01 1.11894E-02 2.34877E-03-5.35550E-01-9.32524E-14 4.42628E-14
 -1      4238 1.98961E+01 4.01292E-02 7.29835E-03-4.17320E-01-7.83113E-14 2.23623E-14
 -1      4239 1.98600E+01 6.83503E-02 3.78850E-04-3.45993E-01-1.39705E-13-2.47671E-14
 -1      4240 1.98873E+01 7.82525E-02 4.52605E-03-2.67586E-01-1.80634E-13-1.52850E-14
 -1      4241 1.98716E+01 8.99518E-02-3.68982E-04-2.17059E-01-1.19463E-13-1.84475E-14
 -1      4242 1.98972E+01 8.97471E-02 2.72759E-03-1.66091E-01-9.90929E-14-1.37355E-14
 -1      4243 1.98927E+01 9.21818E-02-6.07528E-04-1.31730E-01-3.97502E-14-6.36143E-14
 -1      4244 1.99140E+01 8.71612E-02 1.58446E-03-9.96241E-02-3.25995E-14-8.81737E-14
 -1      4245 1.99151E+01 8.47662E-02-6.28450E-04-7.70307E-02-5.28358E-14-1.65331E-13
 -1      4246 1.99320E+01 7.78772E-02 8.70898E-04-5.73362E-02 9.62185E-14-1.12362E-13
 -1      4247 1.99356E+01 7.32839E-02-5.59472E-04-4.29285E-02 1.18586E-13-1.32187E-13
 -1      4248 1.99484E+01 6.61917E-02 4.37861E-04-3.14481E-02-4.09674E-14-2.65296E-13
 -1      4249 1.99527E+01 6.09197E-02-4.56490E-04-2.25021E-02-1.44258E-13-2.99409E-13
 -1      4250 1.99621E+01 5.44005E-02 1.90450E-04-1.61511E-02-4.02996E-14-2.75154E-13
 -1      4251 1.99662E+01 4.92471E-02-3.54134E-04-1.07440E-02 1.25983E-13-2.54500E-13
 -1      4252 1.99730E+01 4.35438E-02 5.74843E-05-7.43851E-03 3.01907E-13-2.77379E-13
 -1      4253 1.99766E+01 3.88996E-02-2.62599E-04-4.27943E-03 2.89875E-13-2.12083E-13
 -1      4254 1.99812E+01 3.43615E-02-5.36962E-06-2.81865E-03 1.89932E-13-2.47368E-13
 -1      4255 1.99842E+01 3.03601E-02-1.87918E-04-1.00984E-03 7.47171E-14-2.21505E-13
 -1      4256 1.99876E+01 2.64275E-02-2.92351E-05-4.44172E-04-3.20029E-14-2.60561E-13
 -1      4257 1.99898E+01 2.30893E-02-1.37868E-04 5.43443E-04-1.80584E-14-3.40947E-13
 -1      4258 1.99922E+01 1.99521E-02-3.84960E-05 5.94416E-04 4.82661E-14-3.03893E-13
 -1      4259 1.99939E+01 1.72486E-02-9.69429E-05 1.10935E-03-1.25175E-13-2.08917E-13
 -1      4260 1.99955E+01 1.47829E-02-3.47582E-05 9.26856E-04-1.95776E-13-7.97485E-14
 -1      4261 1.99967E+01 1.26601E-02-5.65442E-05 1.17264E-03-7.44207E-14-7.62277E-14
 -1      4262 1.99980E+01 1.00517E-02 2.09748E-05 2.13083E-04 6.80028E-14-4.32635E-14
 -1      4263 1.99988E+01 8.40037E-03-4.75286E-06 3.32488E-04 6.12579E-14 9.73323E-15
 -1      4264 1.99993E+01 7.04854E-03-1.13863E-05 3.06022E-04 6.72251E-14 3.22747E-14
 -1      4265 1.99998E+01 5.87439E-03-2.46927E-06 3.62884E-04 2.04058E-13 5.34281E-14
 -1      4266 1.99993E+01 7.52332E-03 2.08488E-05 7.14747E-04 1.15387E-13-6.17472E-14
 -1      4267 2.00002E+01 4.84498E-03-1.15683E-05 3.04570E-04 2.96955E-13 8.83146E-14
 -1      4268 2.00005E+01 3.96955E-03 4.67182E-07 3.23848E-04 1.18130E-13 1.23905E-13
 -1      4269 2.00002E+01 5.18136E-03 1.57385E-05 5.68716E-04 2.87934E-13 1.14339E-13
 -1      4270 2.00007E+01 3.20696E-03-8.69076E-06 2.65022E-04-1.06751E-13 8.48129E-14
 -1      4271 2.00008E+01 2.56739E-03 1.69424E-06 2.66288E-04-5.82203E-14 7.93117E-14
 -1      4272 2.00007E+01 3.44217E-03 9.42551E-06 4.17710E-04-1.44201E-14 9.72304E-14
 -1      4273 2.00009E+01 2.01513E-03-6.16003E-06 2.16367E-04-2.17335E-13 8.31965E-15
 -1      4274 2.00010E+01 1.55844E-03 1.98634E-06 2.09947E-04-1.74477E-13 1.35412E-13
 -1      4275 2.00009E+01 2.17883E-03 5.58659E-06 2.89755E-04-1.78722E-13 1.10437E-13
 -1      4276 2.00010E+01 1.16953E-03-4.15839E-06 1.70669E-04-2.18143E-13 1.55827E-13
 -1      4277 2.00010E+01 8.52576E-04 2.03637E-06 1.62095E-04 4.01679E-14 2.00951E-13
 -1      4278 2.00010E+01 1.28108E-03 2.94908E-06 1.90626E-04-9.74979E-14 1.73575E-13
 -1      4279 2.00009E+01 5.86599E-04-2.66898E-06 1.32594E-04 5.56598E-14 2.89047E-13
 -1      4280 2.00009E+01 3.73877E-04 1.89369E-06 1.24042E-04 1.30567E-13 2.38672E-13
 -1      4281 2.00010E+01 6.60101E-04 1.12076E-06 1.18429E-04 3.46834E-14 3.06711E-13
 -1      4282 2.00008E+01 1.98308E-04-1.72060E-06 1.02651E-04 1.48900E-13 3.49984E-13
 -1      4283 2.00007E+01 6.15846E-05 1.74501E-06 9.53312E-05 3.05371E-13 3.25144E-13
 -1      4284 2.00008E+01 2.44905E-04-2.36073E-08 6.83495E-05 2.78699E-13 3.37443E-13
 -1      4285 2.00001E+01 5.47948E-03-1.66582E-05 8.83016E-04 3.19526E-13 6.75821E-14
 -1      4286 1.99998E+01 6.62608E-03-7.61203E-06 1.13665E-03 1.45711E-13 6.37799E-14
 -1      4287 2.00007E+01 3.65498E-03-1.17552E-05 5.92209E-04 6.96614E-14 3.15744E-14
 -1      4288 2.00005E+01 4.50107E-03-2.85941E-06 7.89278E-04 3.78132E-13 1.55448E-13
 -1      4289 2.00009E+01 2.35712E-03-7.85825E-06 3.72272E-04-5.14715E-14-2.73032E-14
 -1      4290 2.00009E+01 2.94075E-03-7.57117E-07 5.13896E-04-1.04184E-13 4.66791E-14
 -1      4291 2.00010E+01 1.40549E-03-5.08217E-06 2.06833E-04-1.78975E-13 2.22542E-14
 -1      4292 2.00010E+01 1.84183E-03 1.07876E-07 3.12434E-04-9.45751E-14-4.43013E-14
 -1      4293 2.00010E+01 7.45698E-04-3.09690E-06 9.28129E-05 9.63936E-14 1.51540E-13
 -1      4294 2.00010E+01 1.04580E-03 7.21532E-07 1.64595E-04-1.15575E-13 2.23211E-14
 -1      4295 2.00009E+01 3.02270E-04-1.69365E-06 1.83070E-05 1.93219E-13 2.36621E-13
 -1      4296 2.00010E+01 5.02175E-04 1.09161E-06 6.45892E-05 2.81886E-13 3.72483E-13
 -1      4297 2.00007E+01 1.44936E-05-1.12631E-06-2.81357E-05 3.48068E-13 3.16406E-13
 -1      4298 2.00008E+01 1.43547E-04 1.16487E-06 6.50313E-07 3.14751E-13 3.67681E-13
 -1      4299 2.00007E+01-3.08106E-05-5.54769E-07 3.19991E-05 4.06166E-13 6.07565E-13
 -1      4300 2.16258E+01-1.60308E+00-7.78264E-03-1.72694E+00-6.15944E-14 1.62559E-13
 -1      4301 1.99977E+01 1.07539E-02-2.10379E-05 9.43963E-04 1.17286E-13-1.52795E-13
 -1      4302 2.00007E+01-9.23608E-05 1.20666E-06-4.11527E-05 2.93916E-13 2.02832E-13
 -1      4303 1.96163E+01 1.16427E-01-8.69299E-03-8.05794E-01-5.00447E-14-2.25220E-14
 -3
    1PSTEP                         3           1           1          
  100CL  101 1.000000000        4303                     0    1           1
 -4  TOSTRAIN    6    1
 -5  EXX         1    4    1    1
 -5  EYY         1    4    2    2
 -5  EZZ         1    4    3    3
 -5  EXY         1    4    1    2
 -5  EYZ         1    4    2    3
 -5  EZX         1    4    3    1
 -1         1 3.40277E-04-1.05000E-04-8.78856E-05 9.55970E-07 1.98788E-20 3.03907E-18
 -1         2 4.11682E-05-1.26633E-04 2.42889E-05-2.11880E-06 1.89651E-18-8.90973E-20
 -1         3 9.52372E-05-2.85711E-05-2.85712E-05 3.05134E-11-4.74656E-19-2.25688E-19
 -1         4 9.52372E-05-2.85711E-05-2.85712E-05-2.69403E-11 5.51239E-19 1.13093E-18
 -1         5 1.49241E-04 2.78693E-10-4.62288E-05 5.27577E-05 1.95029E-19 1.07463E-17
 -1         6 1.47179E-04 2.57604E-10-4.44448E-05-5.46399E-05-6.87791E-19 7.38316E-18
 -1         7 9.04027E-05-4.18046E-07-3.91434E-05-3.04996E-05-8.07858E-20 1.24090E-19
 -1         8 8.52400E-05 1.27120E-07-3.64429E-05-2.17775E-05-8.78267E-20-1.69308E-18
 -1         9 8.35699E-05 8.12456E-08-3.56556E-05-1.69976E-05-4.80426E-20-2.43978E-18
 -1        10 8.32249E-05 1.37304E-08-3.54166E-05-1.27927E-05-1.39694E-20-2.68751E-18
 -1        11 8.31631E-05-3.00673E-08-3.53291E-05-8.62126E-06-5.15334E-21-2.62845E-18
 -1        12 8.28781E-05-5.17963E-08-3.51764E-05-4.48376E-06 1.72848E-20-2.48379E-18
 -1        13 8.20863E-05-5.26700E-08-3.48444E-05-3.66325E-07 4.60707E-20-2.32097E-18
 -1        14 8.07090E-05-2.99484E-08-3.43110E-05 3.38600E-06 6.06026E-20-2.19157E-18
 -1        15 7.89018E-05 1.62649E-08-3.36466E-05 6.41798E-06 7.73976E-20-2.06441E-18
 -1        16 7.70908E-05 7.85356E-08-3.30191E-05 8.41803E-06 7.68815E-20-1.93716E-18
 -1        17 7.59375E-05 1.40865E-07-3.26719E-05 9.29831E-06 8.45809E-20-1.69518E-18
 -1        18 7.61515E-05 1.76792E-07-3.28507E-05 9.38047E-06 1.04476E-19-1.29384E-18
 -1        19 7.82964E-05 1.70333E-07-3.37441E-05 9.44886E-06 1.27267E-19-6.41743E-19
 -1        20 8.25387E-05 1.11336E-07-3.53962E-05 1.06979E-05 1.56489E-19 3.31344E-19
 -1        21 8.87544E-05-4.83955E-08-3.77211E-05 1.46876E-05 1.40660E-19 2.12762E-18
 -1        22 9.73527E-05-8.50733E-07-4.12750E-05 2.52179E-05 2.01170E-20 4.72769E-18
 -1        23 1.12789E-04-3.80424E-05-3.53561E-05-4.70894E-06-4.57689E-19 5.11470E-18
 -1        24 9.10811E-05-2.71636E-05-2.84907E-05 3.61262E-07-1.64020E-19 3.02847E-18
 -1        25 8.57647E-05-2.58347E-05-2.58972E-05 3.35499E-07 7.01118E-21 1.13627E-18
 -1        26 8.25055E-05-2.48272E-05-2.46984E-05 1.24130E-07 3.27220E-20 2.39346E-19
 -1        27 7.97326E-05-2.39693E-05-2.38535E-05 1.81621E-08 4.92421E-21-5.03884E-19
 -1        28 7.69209E-05-2.31076E-05-2.30357E-05-5.48734E-08-2.59877E-20-1.00033E-18
 -1        29 7.40724E-05-2.22464E-05-2.22143E-05-9.56180E-08 6.37192E-20-1.36939E-18
 -1        30 7.14850E-05-2.14698E-05-2.14736E-05-1.00278E-07-6.47476E-21-2.02530E-18
 -1        31 6.96011E-05-2.09062E-05-2.09399E-05-6.83151E-08-1.00387E-20-2.77643E-18
 -1        32 6.88486E-05-2.06812E-05-2.07333E-05-7.73133E-09-1.75101E-19-3.38631E-18
 -1        33 6.94864E-05-2.08710E-05-2.09256E-05 6.47887E-08 2.81494E-19-3.30506E-18
 -1        34 7.15061E-05-2.14727E-05-2.15144E-05 1.29187E-07-1.65403E-19-3.39933E-18
 -1        35 7.46288E-05-2.24031E-05-2.24227E-05 1.69695E-07 3.59497E-20-3.97155E-18
 -1        36 7.83950E-05-2.35254E-05-2.35218E-05 1.80194E-07 7.47236E-20-3.92982E-18
 -1        37 8.23014E-05-2.46899E-05-2.46690E-05 1.64513E-07-6.51631E-20-3.87380E-18
 -1        38 8.59241E-05-2.57707E-05-2.57411E-05 1.32525E-07 9.05970E-22-3.80539E-18
 -1        39 8.89888E-05-2.66862E-05-2.66560E-05 9.50627E-08-1.09149E-19-4.30331E-18
 -1        40 9.13808E-05-2.74020E-05-2.73765E-05 6.03544E-08-3.35434E-19-4.54035E-18
 -1        41 9.31123E-05-2.79215E-05-2.79030E-05 3.28207E-08 5.30652E-19-4.56789E-18
 -1        42 9.42738E-05-2.82713E-05-2.82596E-05 1.35996E-08-2.79184E-19-4.01353E-18
 -1        43 9.49893E-05-2.84879E-05-2.84818E-05 1.78166E-09-1.68796E-19-3.71257E-18
 -1        44 9.53832E-05-2.86082E-05-2.86059E-05-4.41491E-09 2.61153E-19-2.70765E-18
 -1        45 9.55628E-05-2.86640E-05-2.86641E-05-6.85024E-09-3.66656E-19-3.60400E-18
 -1        46 9.56110E-05-2.86801E-05-2.86813E-05-7.06561E-09 1.51552E-19-4.17911E-18
 -1        47 9.55871E-05-2.86742E-05-2.86758E-05-6.16674E-09 4.03518E-19-1.74509E-18
 -1        48 9.55300E-05-2.86579E-05-2.86595E-05-4.85886E-09-2.84972E-19-1.34169E-18
 -1        49 9.54634E-05-2.86385E-05-2.86398E-05-3.54027E-09-4.53775E-21-3.14694E-18
 -1        50 9.54002E-05-2.86200E-05-2.86210E-05-2.40141E-09-4.84375E-19-5.64503E-18
 -1        51 9.53466E-05-2.86041E-05-2.86048E-05-1.50631E-09 6.59309E-20-6.55297E-18
 -1        52 9.53044E-05-2.85915E-05-2.85920E-05-8.50763E-10 8.14326E-19-3.90592E-18
 -1        53 9.52731E-05-2.85821E-05-2.85824E-05-3.99562E-10-5.13725E-19-3.10322E-18
 -1        54 9.52511E-05-2.85755E-05-2.85757E-05-1.08236E-10 3.27316E-20-4.80248E-18
 -1        55 9.52367E-05-2.85712E-05-2.85712E-05 6.57633E-11 3.59285E-19-5.08029E-18
 -1        56 9.52279E-05-2.85685E-05-2.85685E-05 1.58258E-10 4.42911E-19-1.23893E-18
 -1        57 9.52233E-05-2.85671E-05-2.85671E-05 1.97115E-10-3.72736E-19-5.27562E-19
 -1        58 9.52214E-05-2.85665E-05-2.85665E-05 2.02800E-10 1.41383E-19-8.01734E-19
 -1        59 9.52214E-05-2.85665E-05-2.85665E-05 1.89631E-10-2.41109E-19-1.25660E-18
 -1        60 9.52225E-05-2.85668E-05-2.85668E-05 1.67187E-10-2.27961E-19-9.19582E-19
 -1        61 9.52242E-05-2.85673E-05-2.85673E-05 1.41568E-10-3.33305E-19-2.53059E-18
 -1        62 9.52262E-05-2.85679E-05-2.85678E-05 1.16433E-10 5.33920E-20-1.88715E-18
 -1        63 9.52282E-05-2.85685E-05-2.85684E-05 9.37860E-11-5.41553E-20-8.75642E-19
 -1        64 9.52300E-05-2.85690E-05-2.85690E-05 7.45536E-11 7.41260E-19 1.01599E-18
 -1        65 9.52317E-05-2.85695E-05-2.85695E-05 5.89668E-11-4.86028E-19 3.51415E-18
 -1        66 9.52332E-05-2.85700E-05-2.85700E-05 4.67818E-11 4.50272E-19 3.08183E-18
 -1        67 9.52345E-05-2.85704E-05-2.85703E-05 3.73294E-11-2.17896E-19 3.22714E-18
 -1        68 9.52356E-05-2.85707E-05-2.85707E-05 2.93234E-11 3.42415E-19 4.99634E-18
 -1        69 9.52364E-05-2.85709E-05-2.85709E-05 2.03630E-11 1.29988E-19 2.88116E-18
 -1        70 9.52370E-05-2.85711E-05-2.85711E-05 3.74139E-12-3.31896E-19 1.35034E-18
 -1        71 9.52372E-05-2.85712E-05-2.85712E-05-2.29732E-11 7.95788E-19 1.46011E-18
 -1        72 1.24017E-04-4.17291E-05-3.87421E-05 3.75817E-06 1.15832E-19 9.88816E-18
 -1        73 1.09379E-04-3.27311E-05-3.41318E-05-6.44311E-07 1.29325E-19 9.04578E-18
 -1        74 1.13851E-04-3.42900E-05-3.46774E-05-7.35118E-07 1.07765E-20 7.66117E-18
 -1        75 1.25448E-04-3.76950E-05-3.81311E-05-9.91648E-07 6.46557E-20 6.96859E-18
 -1        76 1.44561E-04-4.33710E-05-4.37989E-05-1.63015E-06-3.84308E-20 6.95393E-18
 -1        77 1.70132E-04-5.11448E-05-5.06566E-05-2.35122E-06 6.98099E-21 7.95078E-18
 -1        78 1.93619E-04-5.86514E-05-5.58734E-05-1.64987E-06-1.03500E-19 9.19182E-18
 -1        79 1.99885E-04-6.08699E-05-5.64022E-05 2.18600E-06-3.31256E-19 1.15081E-17
 -1        80 1.77223E-04-5.29454E-05-5.19889E-05 8.08440E-06 3.52296E-20 1.39710E-17
 -1        81 1.30979E-04-3.65178E-05-4.48922E-05 8.21004E-06 3.50155E-19 1.24903E-17
 -1        82 8.39662E-05-1.98143E-05-3.87551E-05 3.90044E-06 3.18961E-20 9.88593E-18
 -1        83 7.26613E-05-1.52999E-05-3.79057E-05-1.15792E-06 5.45436E-19 5.27511E-18
 -1        84 1.15898E-04-3.14973E-05-4.28970E-05-6.11223E-06-4.48266E-20 1.70296E-18
 -1        85 1.77667E-04-5.39019E-05-5.18027E-05-5.06661E-06 1.50090E-19 1.93124E-19
 -1        86 2.06962E-04-6.36800E-05-5.78902E-05-7.16493E-07-3.75606E-20 3.16579E-20
 -1        87 1.94600E-04-5.90530E-05-5.64600E-05 1.13562E-06-3.18335E-19 2.63861E-18
 -1        88 1.67493E-04-5.02296E-05-5.02875E-05 1.09296E-06-3.69895E-19 3.77999E-18
 -1        89 1.42859E-04-4.26610E-05-4.34962E-05 6.77219E-07 1.96765E-19 3.65055E-18
 -1        90 1.25176E-04-3.73984E-05-3.81230E-05 3.43235E-07 1.46234E-19 3.50629E-18
 -1        91 1.14038E-04-3.41228E-05-3.45996E-05 1.86548E-07 9.99441E-20 2.30605E-18
 -1        92 1.06641E-04-3.19486E-05-3.22201E-05 8.50463E-08-1.18751E-19 2.05972E-18
 -1        93 1.02128E-04-3.06200E-05-3.07657E-05 3.80719E-08 3.36511E-19 2.52295E-18
 -1        94 9.93951E-05-2.98118E-05-2.98892E-05 1.58718E-08-6.58115E-19 3.54806E-18
 -1        95 9.77444E-05-2.93214E-05-2.93627E-05 5.70583E-09-2.03750E-19 3.10613E-18
 -1        96 9.67461E-05-2.90238E-05-2.90460E-05 1.26268E-09 3.32140E-19 3.11769E-18
 -1        97 9.61405E-05-2.88428E-05-2.88547E-05-5.38380E-10-2.92008E-20 3.09583E-19
 -1        98 9.57724E-05-2.87324E-05-2.87388E-05-1.47023E-09-2.84128E-19 9.91967E-20
 -1        99 9.55559E-05-2.86674E-05-2.86710E-05-9.51280E-10 5.07766E-19-4.92494E-19
 -1       100 9.54142E-05-2.86248E-05-2.86267E-05-1.01705E-09-3.02256E-19 4.95808E-19
 -1       101 9.53279E-05-2.85987E-05-2.85998E-05-8.44633E-10-3.59903E-20 3.00204E-18
 -1       102 9.52755E-05-2.85829E-05-2.85835E-05-6.75838E-10 5.91387E-19-2.81054E-18
 -1       103 9.52443E-05-2.85735E-05-2.85738E-05-5.33472E-10 8.89907E-20-7.12895E-18
 -1       104 9.52264E-05-2.85681E-05-2.85682E-05-4.20330E-10-1.38342E-19-4.98643E-18
 -1       105 9.52169E-05-2.85652E-05-2.85652E-05-3.33942E-10-4.19591E-19-2.52235E-18
 -1       106 9.52126E-05-2.85639E-05-2.85639E-05-2.75759E-10 5.13528E-19-1.89894E-18
 -1       107 9.52117E-05-2.85636E-05-2.85635E-05-2.06723E-10-9.02508E-19-4.86511E-18
 -1       108 9.52126E-05-2.85638E-05-2.85638E-05-1.71344E-10 7.15825E-19-5.73467E-18
 -1       109 9.52146E-05-2.85644E-05-2.85644E-05-1.37961E-10 2.25320E-19-6.37607E-18
 -1       110 9.52172E-05-2.85652E-05-2.85651E-05-1.10855E-10-6.97256E-19-5.40415E-18
 -1       111 9.52200E-05-2.85660E-05-2.85660E-05-8.87927E-11-3.39385E-19-5.80496E-18
 -1       112 9.52228E-05-2.85669E-05-2.85668E-05-7.08062E-11 3.95222E-19-8.51773E-18
 -1       113 9.52255E-05-2.85676E-05-2.85676E-05-5.62711E-11-2.60406E-19-6.20895E-18
 -1       114 9.52278E-05-2.85684E-05-2.85683E-05-4.38948E-11 5.08958E-19-2.20689E-18
 -1       115 9.52298E-05-2.85690E-05-2.85689E-05-3.54943E-11-1.63810E-19-8.53329E-18
 -1       116 9.52317E-05-2.85695E-05-2.85695E-05-2.81809E-11 5.44248E-19-8.61028E-18
 -1       117 9.52332E-05-2.85700E-05-2.85699E-05-2.27413E-11-3.36028E-19-5.68802E-18
 -1       118 9.52345E-05-2.85704E-05-2.85703E-05-1.87610E-11 2.29387E-20-6.75058E-18
 -1       119 9.52356E-05-2.85707E-05-2.85707E-05-1.57174E-11-4.82853E-19-1.11116E-18
 -1       120 9.52364E-05-2.85709E-05-2.85709E-05-1.26746E-11 2.10378E-19-3.57012E-18
 -1       121 9.52370E-05-2.85711E-05-2.85711E-05-6.13103E-12-6.47147E-20 1.48741E-18
 -1       122 9.52372E-05-2.85712E-05-2.85712E-05 1.75324E-11 8.06166E-19-1.50888E-18
 -1       123 9.52371E-05-2.85711E-05-2.85712E-05 2.69483E-11-2.69667E-18 1.63796E-19
 -1       124 9.52372E-05-2.85713E-05-2.85711E-05 1.31783E-13-5.51545E-18-1.09504E-19
 -1       125 9.52374E-05-2.85718E-05-2.85709E-05-1.46841E-11-4.27577E-18 3.88311E-19
 -1       126 9.52376E-05-2.85725E-05-2.85707E-05-2.17843E-11-1.07817E-17 2.34685E-18
 -1       127 9.52378E-05-2.85732E-05-2.85705E-05-2.34199E-11-1.33960E-17-2.02087E-18
 -1       128 9.52380E-05-2.85739E-05-2.85703E-05-2.17641E-11-2.32277E-18 2.12405E-18
 -1       129 9.52381E-05-2.85743E-05-2.85702E-05-1.72923E-11-2.77516E-18-1.00743E-18
 -1       130 9.52382E-05-2.85746E-05-2.85701E-05-1.09927E-11-3.03515E-18 1.22396E-18
 -1       131 9.52382E-05-2.85746E-05-2.85701E-05-3.56630E-12-6.24271E-18-5.10210E-19
 -1       132 9.52381E-05-2.85743E-05-2.85702E-05 4.35356E-12-7.96722E-18-3.93506E-19
 -1       133 9.52380E-05-2.85738E-05-2.85703E-05 1.22501E-11-1.42321E-17-7.36343E-19
 -1       134 9.52378E-05-2.85732E-05-2.85705E-05 1.85453E-11-7.45452E-18 5.33879E-19
 -1       135 9.52375E-05-2.85725E-05-2.85707E-05 2.31994E-11-6.46000E-20 5.72759E-19
 -1       136 9.52373E-05-2.85718E-05-2.85709E-05 2.40462E-11-3.02898E-18-2.63270E-20
 -1       137 9.52372E-05-2.85713E-05-2.85711E-05 1.66544E-11-3.52647E-18-1.64134E-18
 -1       138 9.52371E-05-2.85711E-05-2.85712E-05-3.42112E-11-4.06710E-18-2.93239E-19
 -1       139 3.30012E-05-1.18538E-04 2.36341E-05-3.52424E-05 5.66030E-18 1.81931E-18
 -1       140 1.15760E-05-7.12044E-05 1.30658E-05-4.37000E-05 6.97447E-18 2.98579E-18
 -1       141 2.55175E-06-1.56769E-05-4.83841E-06-1.49428E-05 7.00030E-18 4.64894E-18
 -1       142 4.06598E-05 1.32794E-05-2.86222E-05 4.65504E-05 6.81311E-18 9.18777E-18
 -1       143 1.62197E-04-1.28505E-05-5.87957E-05 1.08654E-04 6.37562E-18 1.16213E-17
 -1       144 3.16136E-04-7.87214E-05-8.33110E-05 1.13898E-04 2.91739E-18 8.88961E-18
 -1       145 4.16908E-04-1.30453E-04-9.57684E-05 3.97026E-05 6.15581E-19 2.32616E-18
 -1       146 4.00491E-04-1.20471E-04-9.41388E-05-6.71811E-05 7.46289E-19-4.65445E-18
 -1       147 2.64816E-04-5.33007E-05-7.64415E-05-1.22895E-04 3.92727E-18-1.00941E-17
 -1       148 1.15217E-04 4.54667E-06-4.98886E-05-9.74553E-05 8.68293E-18-1.25268E-17
 -1       149 1.92451E-05 7.81673E-06-1.91430E-05-2.30367E-05 1.11686E-17-1.08035E-17
 -1       150 3.98831E-06-3.92166E-05 3.61694E-06 3.02450E-05 1.06129E-17-6.60919E-18
 -1       151 2.22345E-05-9.69181E-05 1.90927E-05 4.40773E-05 5.95252E-18-2.20017E-18
 -1       152 4.03387E-05-1.28270E-04 2.47543E-05 2.00244E-05-1.02315E-18-2.70998E-19
 -1       153 3.69454E-05-1.14662E-04 2.16234E-05-1.13568E-05-7.65993E-18-8.76954E-19
 -1       154 1.80679E-05-6.57376E-05 1.11359E-05-2.36522E-05-1.13613E-17-3.45716E-18
 -1       155 5.33342E-06-4.91146E-06-5.91332E-06 1.06829E-06-1.15988E-17-6.06476E-18
 -1       156 2.53194E-05 3.35526E-05-2.65365E-05 5.41525E-05-1.01746E-17-8.30982E-18
 -1       157 9.63157E-05 2.64937E-05-4.88314E-05 1.09727E-04-7.46363E-18-1.00556E-17
 -1       158 2.06221E-04-2.38737E-05-6.96048E-05 1.27927E-04-4.03167E-18-8.07604E-18
 -1       159 3.01525E-04-8.06674E-05-8.29002E-05 8.41149E-05-8.35783E-19-2.46444E-18
 -1       160 3.01909E-04-7.99102E-05-8.32751E-05-8.82507E-05-1.51783E-18 7.36262E-18
 -1       161 1.97712E-04-1.81663E-05-6.85024E-05-1.31144E-04-5.01719E-18 1.11270E-17
 -1       162 8.99896E-05 3.05801E-05-4.80381E-05-1.09213E-04-7.19851E-18 8.89469E-18
 -1       163 1.86963E-05 3.08221E-05-2.31141E-05-4.50705E-05-6.45905E-18 4.60278E-18
 -1       164 5.94110E-06-1.79272E-05-1.51990E-06 8.32859E-06-3.18315E-18 2.12648E-18
 -1       165 2.54371E-05-8.56881E-05 1.55498E-05 2.30377E-05 6.66615E-19-7.53965E-19
 -1       166 9.45581E-05-1.21073E-05-3.55586E-05-2.39885E-05-1.24199E-18-6.93164E-19
 -1       167 8.98848E-05-8.82056E-06-3.49193E-05-1.90146E-05-9.36342E-19-1.66267E-18
 -1       168 8.84069E-05-7.58885E-06-3.47606E-05-1.48107E-05-5.09083E-19-2.12480E-18
 -1       169 8.81717E-05-7.30621E-06-3.47527E-05-1.07377E-05-1.84466E-19-2.26205E-18
 -1       170 8.80305E-05-7.23406E-06-3.47084E-05-6.68420E-06 6.40726E-20-2.13065E-18
 -1       171 8.74012E-05-7.03757E-06-3.45139E-05-2.53350E-06 2.96805E-19-1.92471E-18
 -1       172 8.59188E-05-6.45482E-06-3.41214E-05 1.47838E-06 6.39485E-19-1.74943E-18
 -1       173 8.35111E-05-5.34303E-06-3.35603E-05 5.04088E-06 8.51007E-19-1.70749E-18
 -1       174 8.04993E-05-3.75393E-06-3.29468E-05 7.77745E-06 1.03207E-18-1.63121E-18
 -1       175 7.76747E-05-2.02513E-06-3.24766E-05 9.39150E-06 1.15038E-18-1.48457E-18
 -1       176 7.62159E-05-7.99074E-07-3.23812E-05 9.88643E-06 1.25675E-18-1.23613E-18
 -1       177 7.72905E-05-7.94257E-07-3.28564E-05 9.75274E-06 1.43819E-18-7.51606E-19
 -1       178 8.17903E-05-2.70937E-06-3.39863E-05 9.95163E-06 1.53228E-18-1.85222E-20
 -1       179 8.99163E-05-7.00787E-06-3.56561E-05 1.17542E-05 1.45523E-18 1.22068E-18
 -1       180 1.01569E-04-1.40500E-05-3.76300E-05 1.64449E-05 1.15239E-18 2.94979E-18
 -1       181 1.02609E-04-2.70377E-05-3.23938E-05-1.34723E-05-1.17536E-18 1.00146E-18
 -1       182 9.53486E-05-2.78767E-05-2.89590E-05-6.38131E-06-1.08009E-18 5.49086E-19
 -1       183 9.03759E-05-2.68678E-05-2.71743E-05-3.94024E-06-6.05870E-19 1.65562E-19
 -1       184 8.70621E-05-2.61039E-05-2.60921E-05-3.20963E-06-4.12201E-19-2.27797E-19
 -1       185 8.43162E-05-2.53263E-05-2.52638E-05-3.06480E-06-2.67287E-19-3.72405E-19
 -1       186 8.18464E-05-2.45353E-05-2.45513E-05-2.97725E-06-2.02478E-19-3.52118E-19
 -1       187 7.96513E-05-2.37689E-05-2.39404E-05-2.64111E-06-4.10601E-19-5.81137E-19
 -1       188 7.79151E-05-2.31217E-05-2.34731E-05-1.90199E-06-4.64556E-19-7.69586E-19
 -1       189 7.68930E-05-2.27148E-05-2.32087E-05-7.64936E-07-2.90918E-19-7.04846E-19
 -1       190 7.67942E-05-2.26484E-05-2.31948E-05 6.12223E-07-2.17664E-20-6.58656E-19
 -1       191 7.76865E-05-2.29582E-05-2.34455E-05 1.97392E-06-3.10577E-19-1.47282E-18
 -1       192 7.94574E-05-2.35968E-05-2.39328E-05 3.06036E-06-3.06508E-19-1.60207E-18
 -1       193 8.18426E-05-2.44505E-05-2.45920E-05 3.69799E-06-8.21572E-20-1.66209E-18
 -1       194 8.45061E-05-2.53799E-05-2.53383E-05 3.84485E-06-1.04908E-19-1.95015E-18
 -1       195 8.71287E-05-2.62619E-05-2.60872E-05 3.57792E-06-2.29675E-19-1.69454E-18
 -1       196 8.94724E-05-2.70154E-05-2.67710E-05 3.04141E-06-2.90158E-20-1.95036E-18
 -1       197 9.14041E-05-2.76053E-05-2.73473E-05 2.38907E-06-3.18035E-19-2.01174E-18
 -1       198 9.28859E-05-2.80327E-05-2.77996E-05 1.74408E-06 1.86306E-19-1.97921E-18
 -1       199 9.39480E-05-2.83202E-05-2.81312E-05 1.18336E-06 2.33861E-20-2.29448E-18
 -1       200 9.46579E-05-2.84986E-05-2.83583E-05 7.40487E-07 5.00486E-21-2.19975E-18
 -1       201 9.50962E-05-2.85986E-05-2.85024E-05 4.17774E-07 3.98790E-19-1.48609E-18
 -1       202 9.53394E-05-2.86462E-05-2.85853E-05 1.99707E-07-9.61251E-19-1.83792E-18
 -1       203 9.54522E-05-2.86613E-05-2.86264E-05 6.36704E-08 3.64861E-19-1.27515E-18
 -1       204 9.54842E-05-2.86582E-05-2.86408E-05-1.31725E-08 5.46744E-19-1.06943E-18
 -1       205 9.54709E-05-2.86462E-05-2.86398E-05-5.03658E-08 2.34667E-19-2.12112E-18
 -1       206 9.54358E-05-2.86310E-05-2.86309E-05-6.29649E-08-5.72248E-19-1.96606E-18
 -1       207 9.53938E-05-2.86161E-05-2.86191E-05-6.16721E-08-1.68698E-18-2.53985E-18
 -1       208 9.53530E-05-2.86030E-05-2.86072E-05-5.35738E-08 1.92546E-19-2.14253E-18
 -1       209 9.53177E-05-2.85923E-05-2.85965E-05-4.30348E-08 1.09789E-18-1.24965E-18
 -1       210 9.52891E-05-2.85840E-05-2.85878E-05-3.25182E-08 2.13235E-19-1.43468E-18
 -1       211 9.52674E-05-2.85780E-05-2.85811E-05-2.32439E-08 3.62583E-19-2.46159E-19
 -1       212 9.52518E-05-2.85738E-05-2.85762E-05-1.56716E-08-2.98979E-19 1.10971E-18
 -1       213 9.52411E-05-2.85710E-05-2.85728E-05-9.83276E-09 1.52813E-18 4.30442E-19
 -1       214 9.52342E-05-2.85694E-05-2.85706E-05-5.54413E-09 6.70742E-19 2.08971E-19
 -1       215 9.52302E-05-2.85685E-05-2.85693E-05-2.53829E-09-6.71974E-19-7.62002E-19
 -1       216 9.52283E-05-2.85681E-05-2.85686E-05-5.36558E-10 2.59285E-19 1.45631E-19
 -1       217 9.52277E-05-2.85681E-05-2.85684E-05 7.14010E-10-4.07955E-19 2.13059E-20
 -1       218 9.52280E-05-2.85683E-05-2.85684E-05 1.42546E-09-8.46205E-19 8.60876E-19
 -1       219 9.52289E-05-2.85686E-05-2.85687E-05 1.76600E-09-2.28222E-19 4.20953E-19
 -1       220 9.52300E-05-2.85690E-05-2.85690E-05 1.86331E-09 5.47532E-19 3.82669E-19
 -1       221 9.52312E-05-2.85694E-05-2.85693E-05 1.81030E-09 6.39937E-19 1.03479E-20
 -1       222 9.52324E-05-2.85698E-05-2.85697E-05 1.67144E-09 1.72485E-18-4.99387E-19
 -1       223 9.52335E-05-2.85701E-05-2.85700E-05 1.48846E-09 8.04879E-19 2.04002E-18
 -1       224 9.52345E-05-2.85704E-05-2.85703E-05 1.28480E-09 4.28118E-19 2.55653E-18
 -1       225 9.52353E-05-2.85707E-05-2.85706E-05 1.06896E-09 1.22149E-18 1.61022E-18
 -1       226 9.52360E-05-2.85709E-05-2.85708E-05 8.36982E-10-6.37067E-19 1.50840E-18
 -1       227 9.52366E-05-2.85710E-05-2.85709E-05 5.75683E-10-1.15527E-18 1.56900E-18
 -1       228 9.52369E-05-2.85712E-05-2.85710E-05 2.80346E-10-4.87863E-19 2.17190E-18
 -1       229 1.13926E-04-3.00153E-05-3.59151E-05 7.04286E-06 8.81894E-19 4.45354E-18
 -1       230 1.11315E-04-3.16342E-05-3.41592E-05-2.94464E-06 7.65691E-19 3.91740E-18
 -1       231 1.13391E-04-3.21406E-05-3.47578E-05-9.95404E-06 5.00610E-19 3.45245E-18
 -1       232 1.19860E-04-3.39231E-05-3.67930E-05-1.67832E-05-3.19358E-20 3.25728E-18
 -1       233 1.30102E-04-3.76414E-05-3.95675E-05-2.26965E-05-5.58012E-19 3.35793E-18
 -1       234 1.43097E-04-4.45387E-05-4.20494E-05-2.33113E-05-1.17311E-18 3.98070E-18
 -1       235 1.57314E-04-5.45217E-05-4.37393E-05-1.32467E-05-1.62509E-18 4.92872E-18
 -1       236 1.71690E-04-6.42284E-05-4.58305E-05 8.64280E-06-1.41595E-18 5.51297E-18
 -1       237 1.60311E-04-4.33390E-05-5.22092E-05 3.55024E-05 1.99222E-18 6.49740E-18
 -1       238 1.49222E-04-3.22178E-05-5.37559E-05 1.02052E-05 2.59954E-18 4.47180E-18
 -1       239 1.51621E-04-3.54924E-05-5.33646E-05-3.16520E-05 1.54075E-18 2.38715E-18
 -1       240 1.73199E-04-5.56688E-05-5.10138E-05-3.78264E-05 9.49630E-19 8.20404E-19
 -1       241 1.80239E-04-6.08310E-05-5.03631E-05-1.13962E-05-5.76710E-19 1.17626E-18
 -1       242 1.70652E-04-5.40930E-05-4.92101E-05 1.09739E-05-8.11378E-19 2.32128E-18
 -1       243 1.53469E-04-4.60708E-05-4.58668E-05 1.72557E-05-2.18548E-19 2.32323E-18
 -1       244 1.36495E-04-4.01142E-05-4.14068E-05 1.49718E-05 5.40156E-19 2.15088E-18
 -1       245 1.22971E-04-3.60857E-05-3.73501E-05 1.06966E-05-7.45210E-19 2.19685E-18
 -1       246 1.13681E-04-3.35262E-05-3.44225E-05 7.17102E-06 7.59934E-19 2.22156E-18
 -1       247 1.07006E-04-3.17324E-05-3.22901E-05 4.52769E-06 3.15950E-20 2.59830E-18
 -1       248 1.02678E-04-3.05803E-05-3.09088E-05 2.79923E-06-4.12187E-19 2.48328E-18
 -1       249 9.99167E-05-2.98424E-05-3.00333E-05 1.71573E-06-6.06284E-19 2.69506E-18
 -1       250 9.81726E-05-2.93733E-05-2.94843E-05 1.04906E-06 1.92865E-19 2.11164E-18
 -1       251 9.70756E-05-2.90762E-05-2.91409E-05 6.42018E-07 6.64478E-19 1.20936E-18
 -1       252 9.63859E-05-2.88882E-05-2.89261E-05 3.94010E-07 8.58323E-19 1.34091E-19
 -1       253 9.59521E-05-2.87692E-05-2.87915E-05 2.42515E-07 3.56732E-20-3.76964E-19
 -1       254 9.56886E-05-2.86964E-05-2.87102E-05 1.53529E-07 7.62159E-19-1.62220E-18
 -1       255 9.55107E-05-2.86471E-05-2.86553E-05 9.51429E-08-6.86307E-19-1.65831E-18
 -1       256 9.53981E-05-2.86157E-05-2.86206E-05 5.88563E-08-7.68630E-19-1.43694E-18
 -1       257 9.53268E-05-2.85957E-05-2.85988E-05 3.61800E-08 2.20144E-18-7.59187E-19
 -1       258 9.52820E-05-2.85832E-05-2.85850E-05 2.18838E-08 2.22860E-18-3.35152E-18
 -1       259 9.52542E-05-2.85754E-05-2.85765E-05 1.28091E-08-1.82149E-18-4.71268E-18
 -1       260 9.52374E-05-2.85707E-05-2.85714E-05 7.02991E-09-2.47254E-19-3.12529E-18
 -1       261 9.52278E-05-2.85680E-05-2.85684E-05 3.35315E-09 4.39610E-19-3.77693E-18
 -1       262 9.52230E-05-2.85667E-05-2.85669E-05 1.14419E-09 4.07665E-19-3.39228E-18
 -1       263 9.52209E-05-2.85661E-05-2.85663E-05-2.94088E-10 7.51591E-19-2.55252E-18
 -1       264 9.52206E-05-2.85661E-05-2.85662E-05-1.13116E-09 7.61309E-19-2.75161E-18
 -1       265 9.52215E-05-2.85664E-05-2.85665E-05-1.56802E-09-5.63710E-19-2.20254E-18
 -1       266 9.52231E-05-2.85669E-05-2.85669E-05-1.74472E-09 1.60003E-19-2.77560E-18
 -1       267 9.52249E-05-2.85675E-05-2.85675E-05-1.75628E-09 1.49629E-18-4.10964E-18
 -1       268 9.52268E-05-2.85681E-05-2.85680E-05-1.66810E-09-1.15106E-18-5.70991E-18
 -1       269 9.52287E-05-2.85686E-05-2.85686E-05-1.52489E-09-1.22971E-18-4.80424E-18
 -1       270 9.52303E-05-2.85691E-05-2.85691E-05-1.36525E-09 1.52661E-18-4.59842E-18
 -1       271 9.52318E-05-2.85696E-05-2.85695E-05-1.19143E-09 5.12504E-19-4.92812E-18
 -1       272 9.52332E-05-2.85700E-05-2.85699E-05-1.02097E-09-8.99506E-19-5.78599E-18
 -1       273 9.52343E-05-2.85703E-05-2.85703E-05-8.57569E-10-7.87606E-19-4.51690E-18
 -1       274 9.52353E-05-2.85706E-05-2.85706E-05-6.98041E-10-1.51810E-18-4.66861E-18
 -1       275 9.52361E-05-2.85709E-05-2.85708E-05-5.32857E-10 1.86804E-18-4.36865E-18
 -1       276 9.52367E-05-2.85710E-05-2.85710E-05-3.47199E-10-2.89037E-18-3.98516E-18
 -1       277 9.52370E-05-2.85711E-05-2.85711E-05-1.35757E-10 1.52397E-18-2.72373E-18
 -1       278 9.52371E-05-2.85712E-05-2.85711E-05-4.16522E-11-1.01038E-19-1.24211E-18
 -1       279 9.52372E-05-2.85714E-05-2.85710E-05-2.67388E-10-3.58578E-18-1.44926E-18
 -1       280 9.52373E-05-2.85718E-05-2.85709E-05-4.60400E-10-2.52786E-18 3.71162E-19
 -1       281 9.52375E-05-2.85723E-05-2.85708E-05-5.58142E-10-4.28900E-18-2.52752E-18
 -1       282 9.52377E-05-2.85729E-05-2.85706E-05-5.57300E-10-6.40146E-18-1.03520E-18
 -1       283 9.52378E-05-2.85734E-05-2.85705E-05-4.75680E-10-4.87660E-18 5.54806E-18
 -1       284 9.52380E-05-2.85738E-05-2.85704E-05-3.30917E-10-2.88161E-18-9.52824E-19
 -1       285 9.52380E-05-2.85740E-05-2.85703E-05-1.46291E-10-1.51309E-18 8.08351E-19
 -1       286 9.52381E-05-2.85740E-05-2.85703E-05 5.46575E-11-2.91531E-18-2.55855E-18
 -1       287 9.52380E-05-2.85739E-05-2.85703E-05 2.48612E-10-5.87139E-18-2.08151E-18
 -1       288 9.52379E-05-2.85736E-05-2.85704E-05 4.12881E-10-5.36558E-18-7.11613E-19
 -1       289 9.52377E-05-2.85731E-05-2.85706E-05 5.24119E-10-4.99672E-18 3.25234E-18
 -1       290 9.52376E-05-2.85726E-05-2.85707E-05 5.65756E-10-4.39932E-18 2.80423E-18
 -1       291 9.52374E-05-2.85720E-05-2.85709E-05 5.18613E-10-4.48423E-18-1.77426E-18
 -1       292 9.52372E-05-2.85716E-05-2.85710E-05 3.72436E-10-3.43063E-18 6.15154E-19
 -1       293 9.05723E-06-5.14425E-05 1.50529E-05-6.47065E-06 1.71427E-18 2.13685E-18
 -1       294 2.13082E-05-4.92443E-05 9.02612E-06 1.06068E-05 1.42153E-18 6.96579E-19
 -1       295 4.69238E-05-5.02237E-05-2.27986E-06 1.84178E-05 1.49035E-18 1.91625E-18
 -1       296 9.23779E-05-5.07356E-05-2.06014E-05 3.03333E-05 2.01890E-18 4.13416E-18
 -1       297 1.68544E-04-6.80210E-05-4.32467E-05 2.04630E-05 1.46876E-18 3.34070E-18
 -1       298 2.17667E-04-6.43406E-05-6.33674E-05-7.56625E-06 2.65487E-18 2.28402E-18
 -1       299 2.59293E-04-5.72692E-05-7.92556E-05-9.45090E-09 3.45971E-18 2.79479E-18
 -1       300 2.59251E-04-4.93582E-05-8.22955E-05 2.35443E-07 3.06097E-18 2.10734E-18
 -1       301 2.40137E-04-5.52170E-05-7.41942E-05 6.05050E-06 3.26425E-18 1.08357E-18
 -1       302 2.03391E-04-6.13317E-05-5.86657E-05-1.91747E-05 3.69222E-18-2.01086E-18
 -1       303 1.45003E-04-6.32949E-05-3.59390E-05-2.73124E-05 2.29059E-18-2.16396E-18
 -1       304 7.41752E-05-5.03232E-05-1.30489E-05-2.92624E-05 3.31211E-18-3.82171E-18
 -1       305 3.52667E-05-4.86772E-05 2.80087E-06-1.99204E-05 1.42302E-18-3.92054E-18
 -1       306 1.40440E-05-5.56271E-05 1.39553E-05 9.89046E-08 3.47178E-19-3.61355E-18
 -1       307 9.19383E-06-4.98848E-05 1.43858E-05 1.17811E-05-1.36669E-18-3.22169E-18
 -1       308 1.93716E-05-4.92870E-05 9.75118E-06 2.23413E-05-3.39406E-18-2.92184E-18
 -1       309 3.97868E-05-3.90356E-05-2.36800E-06 3.67981E-05-4.23474E-18-2.51625E-18
 -1       310 7.02702E-05-2.99057E-05-1.83519E-05 4.78992E-05-4.83825E-18-3.62414E-18
 -1       311 1.13141E-04-2.58345E-05-3.70623E-05 5.70277E-05-4.29827E-18-4.35714E-18
 -1       312 1.64636E-04-3.15563E-05-5.54710E-05 4.96122E-05-3.74849E-18-2.79627E-18
 -1       313 2.06294E-04-3.44298E-05-7.07496E-05 3.95329E-05-3.73155E-18-1.51555E-18
 -1       314 2.22635E-04-3.42443E-05-7.76753E-05 1.20565E-05-2.99553E-18-2.32087E-19
 -1       315 2.32508E-04-3.94939E-05-7.90104E-05-1.62930E-05-2.18418E-18 1.39591E-18
 -1       316 2.03779E-04-3.32098E-05-7.02096E-05-4.09803E-05-2.60267E-18 2.42018E-18
 -1       317 1.59747E-04-2.72106E-05-5.49837E-05-5.81136E-05-2.52903E-18 3.80953E-18
 -1       318 1.12148E-04-3.00047E-05-3.49885E-05-5.54655E-05-1.25551E-18 3.82541E-18
 -1       319 6.22282E-05-3.08611E-05-1.47227E-05-4.61869E-05-4.80479E-19 2.78293E-18
 -1       320 3.13497E-05-4.26082E-05 2.21180E-06-3.11912E-05-5.31725E-19 1.66918E-18
 -1       321 1.48232E-05-5.35234E-05 1.31727E-05-1.84550E-05 8.58256E-19 5.52901E-19
 -1       322 1.78432E-04-6.08016E-05-5.05987E-05 3.35237E-05 7.14049E-19 6.66974E-18
 -1       323 9.52371E-05-2.85714E-05-2.85710E-05 2.94103E-10-2.05512E-18 6.97116E-19
 -1       324 9.33357E-05-1.58282E-05-3.32874E-05-1.52008E-05-8.32836E-19-1.23572E-18
 -1       325 9.58150E-05-1.94764E-05-3.27902E-05-1.68019E-05-1.16296E-18-8.32541E-19
 -1       326 9.26747E-05-1.40612E-05-3.37609E-05-8.54828E-06-7.96203E-20-1.56632E-18
 -1       327 9.24180E-05-1.38025E-05-3.37565E-05-4.44837E-06 2.22786E-19-1.45244E-18
 -1       328 9.12969E-05-1.31830E-05-3.35362E-05-8.99790E-08 6.72756E-19-1.20952E-18
 -1       329 8.89387E-05-1.18144E-05-3.31051E-05 4.21064E-06 1.02777E-18-1.14581E-18
 -1       330 8.53469E-05-9.53072E-06-3.25360E-05 7.93856E-06 1.27220E-18-1.23019E-18
 -1       331 8.11164E-05-6.58233E-06-3.19775E-05 1.04467E-05 1.39709E-18-1.14272E-18
 -1       332 7.75901E-05-3.82278E-06-3.16428E-05 1.12203E-05 1.53350E-18-9.97689E-19
 -1       333 7.64111E-05-2.43095E-06-3.17343E-05 1.02813E-05 1.69221E-18-6.30083E-19
 -1       334 7.93170E-05-3.82920E-06-3.23933E-05 8.36206E-06 1.72370E-18-1.37223E-19
 -1       335 8.70525E-05-8.91205E-06-3.35411E-05 6.75264E-06 1.64243E-18 5.89889E-19
 -1       336 9.90295E-05-1.79889E-05-3.47590E-05 6.34218E-06 1.37501E-18 1.75956E-18
 -1       337 5.53778E-05-4.21744E-05-6.01415E-06 3.41401E-05-3.38496E-19 1.84124E-19
 -1       338 1.75912E-04-7.50058E-05-4.34904E-05 5.32889E-06 1.69407E-20 1.91017E-18
 -1       339 9.56454E-05-2.63947E-05-2.96401E-05-9.46401E-06-9.56122E-19-3.22428E-19
 -1       340 9.31889E-05-2.71851E-05-2.82666E-05-6.94233E-06-6.92398E-19-3.08949E-19
 -1       341 9.09183E-05-2.70877E-05-2.73443E-05-5.99277E-06-4.19816E-19-2.43787E-19
 -1       342 8.87693E-05-2.65102E-05-2.66763E-05-5.58988E-06-2.48068E-19-3.28163E-19
 -1       343 8.67382E-05-2.56401E-05-2.61792E-05-5.09178E-06-3.33820E-19-2.99199E-19
 -1       344 8.49373E-05-2.46659E-05-2.58231E-05-4.09251E-06-3.91364E-19-3.06782E-19
 -1       345 8.35885E-05-2.38278E-05-2.56020E-05-2.43705E-06-2.61969E-19-2.37007E-19
 -1       346 8.29370E-05-2.33703E-05-2.55175E-05-2.47598E-07-2.12738E-19-2.74937E-19
 -1       347 8.31339E-05-2.34496E-05-2.55682E-05 2.12162E-06-6.73406E-19-8.93050E-19
 -1       348 8.41523E-05-2.40623E-05-2.57438E-05 4.21987E-06-4.81667E-19-9.97620E-19
 -1       349 8.57847E-05-2.50484E-05-2.60239E-05 5.67308E-06-3.46689E-19-1.13342E-18
 -1       350 8.77211E-05-2.61671E-05-2.63780E-05 6.30808E-06-7.78685E-20-1.11091E-18
 -1       351 8.96566E-05-2.71962E-05-2.67698E-05 6.17443E-06-6.41501E-20-8.98166E-19
 -1       352 9.13703E-05-2.79980E-05-2.71632E-05 5.47703E-06-3.01310E-19-9.19864E-19
 -1       353 9.27506E-05-2.85322E-05-2.75273E-05 4.47474E-06-4.00900E-19-1.27596E-18
 -1       354 9.37783E-05-2.88283E-05-2.78413E-05 3.39788E-06-5.05431E-19-1.66885E-18
 -1       355 9.44912E-05-2.89489E-05-2.80948E-05 2.40666E-06 3.38556E-19-1.92283E-18
 -1       356 9.49523E-05-2.89595E-05-2.82870E-05 1.58594E-06 2.70884E-19-2.22469E-18
 -1       357 9.52272E-05-2.89129E-05-2.84238E-05 9.60779E-07 6.76231E-19-1.45577E-18
 -1       358 9.53735E-05-2.88449E-05-2.85147E-05 5.18242E-07-9.61644E-20-1.50717E-18
 -1       359 9.54361E-05-2.87762E-05-2.85701E-05 2.26746E-07 9.06031E-20-3.11385E-19
 -1       360 9.54482E-05-2.87168E-05-2.86002E-05 4.96396E-08 1.34261E-19-2.13829E-19
 -1       361 9.54323E-05-2.86697E-05-2.86131E-05-4.69789E-08-6.37196E-19-1.27996E-18
 -1       362 9.54034E-05-2.86348E-05-2.86154E-05-9.07808E-08-4.66062E-20-2.22862E-18
 -1       363 9.53706E-05-2.86100E-05-2.86117E-05-1.02467E-07-8.44335E-19-1.48037E-18
 -1       364 9.53390E-05-2.85932E-05-2.86053E-05-9.64648E-08-1.87523E-19 3.35579E-19
 -1       365 9.53113E-05-2.85822E-05-2.85981E-05-8.21844E-08 5.70846E-19-2.74144E-19
 -1       366 9.52885E-05-2.85753E-05-2.85913E-05-6.53450E-08 5.61926E-19-3.62358E-19
 -1       367 9.52706E-05-2.85712E-05-2.85854E-05-4.91215E-08 6.73269E-19 4.36964E-19
 -1       368 9.52571E-05-2.85690E-05-2.85806E-05-3.50408E-08 3.75901E-19 1.22921E-18
 -1       369 9.52474E-05-2.85679E-05-2.85769E-05-2.36294E-08 1.10813E-18 2.17919E-18
 -1       370 9.52407E-05-2.85675E-05-2.85742E-05-1.48545E-08 8.53201E-20 7.12139E-19
 -1       371 9.52364E-05-2.85676E-05-2.85723E-05-8.40841E-09-1.51946E-18-3.94310E-19
 -1       372 9.52338E-05-2.85679E-05-2.85711E-05-3.87985E-09 1.08053E-18 2.02781E-19
 -1       373 9.52324E-05-2.85683E-05-2.85703E-05-8.51049E-10 2.67694E-19 5.19211E-19
 -1       374 9.52319E-05-2.85688E-05-2.85699E-05 1.05386E-09 3.73462E-19 1.59453E-18
 -1       375 9.52319E-05-2.85692E-05-2.85697E-05 2.14914E-09-8.32317E-19 2.25678E-18
 -1       376 9.52323E-05-2.85696E-05-2.85698E-05 2.68418E-09 1.53588E-18 3.93156E-18
 -1       377 9.52329E-05-2.85699E-05-2.85699E-05 2.84844E-09-2.08247E-19 2.49320E-18
 -1       378 9.52336E-05-2.85702E-05-2.85700E-05 2.77992E-09-4.98229E-19 1.45159E-18
 -1       379 9.52343E-05-2.85705E-05-2.85702E-05 2.57425E-09 3.31135E-18 9.08027E-19
 -1       380 9.52349E-05-2.85707E-05-2.85704E-05 2.29295E-09 1.27647E-18 1.87836E-18
 -1       381 9.52355E-05-2.85709E-05-2.85706E-05 1.97032E-09-8.19368E-20 9.28223E-19
 -1       382 9.52360E-05-2.85711E-05-2.85707E-05 1.61991E-09-6.90465E-19-1.38858E-21
 -1       383 9.52365E-05-2.85712E-05-2.85708E-05 1.24131E-09 8.86079E-19 2.05362E-18
 -1       384 9.52369E-05-2.85714E-05-2.85709E-05 8.31529E-10-1.69400E-18 2.66415E-18
 -1       385 1.00124E-04-2.30514E-05-3.29584E-05-1.63243E-05 4.09276E-19 1.49458E-18
 -1       386 1.01419E-04-2.33882E-05-3.33592E-05-6.78508E-06 8.61882E-19 1.66931E-18
 -1       387 9.95536E-05-2.33888E-05-3.25481E-05-2.55067E-05-3.10503E-19 1.23237E-18
 -1       388 1.01641E-04-2.79853E-05-3.13579E-05-3.28166E-05-9.94615E-19 9.83445E-19
 -1       389 1.09587E-04-4.01422E-05-2.94044E-05-3.52160E-05-1.85596E-18 9.33007E-19
 -1       390 1.49616E-04-6.19184E-05-3.73168E-05 1.69528E-05-1.14291E-18 1.76776E-18
 -1       391 1.28402E-04-4.23260E-05-3.65911E-05 2.97077E-05-4.47392E-19 1.58394E-18
 -1       392 1.17229E-04-3.26838E-05-3.61330E-05 2.85100E-05 4.87054E-19 9.13421E-19
 -1       393 1.10858E-04-2.95268E-05-3.48148E-05 2.21492E-05 5.51948E-19 4.30081E-19
 -1       394 1.06649E-04-2.88090E-05-3.33254E-05 1.58730E-05-2.82313E-19 1.99314E-19
 -1       395 1.03341E-04-2.87345E-05-3.19403E-05 1.05975E-05-4.54264E-19 8.16076E-19
 -1       396 1.00897E-04-2.87760E-05-3.08801E-05 6.86489E-06-4.16843E-19 1.60775E-18
 -1       397 9.91272E-05-2.87915E-05-3.01224E-05 4.37446E-06 2.92005E-19 1.37644E-18
 -1       398 9.78781E-05-2.87740E-05-2.96014E-05 2.76491E-06-6.80785E-19 7.87925E-19
 -1       399 9.70142E-05-2.87403E-05-2.92507E-05 1.74219E-06 1.26796E-18 8.65661E-19
 -1       400 9.64246E-05-2.87032E-05-2.90174E-05 1.09786E-06 1.32088E-18 5.87288E-19
 -1       401 9.60265E-05-2.86698E-05-2.88633E-05 6.93249E-07 3.98923E-19-6.94689E-20
 -1       402 9.57684E-05-2.86429E-05-2.87657E-05 4.48959E-07 6.85809E-19-1.07209E-18
 -1       403 9.55841E-05-2.86208E-05-2.86970E-05 2.85046E-07-2.91326E-19-1.93408E-19
 -1       404 9.54606E-05-2.86041E-05-2.86518E-05 1.81203E-07-6.89007E-19-9.09054E-19
 -1       405 9.53780E-05-2.85919E-05-2.86220E-05 1.15042E-07 1.25643E-18-2.23225E-18
 -1       406 9.53230E-05-2.85832E-05-2.86024E-05 7.25673E-08 2.95127E-18-2.68317E-18
 -1       407 9.52865E-05-2.85772E-05-2.85895E-05 4.51049E-08 8.22184E-19-1.00308E-18
 -1       408 9.52627E-05-2.85732E-05-2.85811E-05 2.72558E-08-1.64031E-18-2.32078E-18
 -1       409 9.52474E-05-2.85706E-05-2.85757E-05 1.56271E-08 8.14129E-19-2.48314E-18
 -1       410 9.52383E-05-2.85692E-05-2.85724E-05 8.39152E-09-1.62543E-19-2.67180E-18
 -1       411 9.52326E-05-2.85683E-05-2.85704E-05 3.45179E-09-2.17969E-18-1.89422E-18
 -1       412 9.52296E-05-2.85680E-05-2.85692E-05 3.54043E-10 1.14723E-18 4.64951E-19
 -1       413 9.52282E-05-2.85680E-05-2.85687E-05-1.50118E-09-1.03638E-18-5.59892E-19
 -1       414 9.52281E-05-2.85682E-05-2.85685E-05-2.52640E-09 5.60240E-19-6.75524E-20
 -1       415 9.52286E-05-2.85685E-05-2.85686E-05-3.00319E-09 1.07588E-18-2.31281E-18
 -1       416 9.52294E-05-2.85689E-05-2.85688E-05-3.12622E-09 1.58266E-18 9.60748E-20
 -1       417 9.52305E-05-2.85693E-05-2.85691E-05-3.03074E-09 5.78198E-20-3.44582E-18
 -1       418 9.52315E-05-2.85696E-05-2.85694E-05-2.82185E-09 4.47043E-19-5.33035E-18
 -1       419 9.52326E-05-2.85699E-05-2.85697E-05-2.53833E-09 1.07302E-18-6.09816E-18
 -1       420 9.52336E-05-2.85702E-05-2.85700E-05-2.22779E-09-3.82817E-19-7.25270E-18
 -1       421 9.52345E-05-2.85705E-05-2.85703E-05-1.91153E-09-2.05086E-18-7.00013E-18
 -1       422 9.52352E-05-2.85707E-05-2.85705E-05-1.59639E-09-1.37419E-18-5.21332E-18
 -1       423 9.52359E-05-2.85709E-05-2.85707E-05-1.27689E-09-5.58587E-19-1.75954E-18
 -1       424 9.52364E-05-2.85711E-05-2.85709E-05-9.40432E-10 4.93544E-19-1.59354E-18
 -1       425 9.52368E-05-2.85712E-05-2.85710E-05-5.78537E-10-1.54280E-18-4.47397E-18
 -1       426 9.52370E-05-2.85714E-05-2.85710E-05-4.39172E-10-5.96258E-19-3.81774E-18
 -1       427 9.52373E-05-2.85720E-05-2.85708E-05-1.04984E-09-2.45215E-19-3.46487E-18
 -1       428 9.52371E-05-2.85717E-05-2.85709E-05-7.81275E-10 7.41641E-19 1.06639E-18
 -1       429 9.52376E-05-2.85725E-05-2.85707E-05-1.11510E-09-3.10437E-19-3.29422E-18
 -1       430 9.52378E-05-2.85729E-05-2.85707E-05-1.01932E-09-3.06488E-18 2.78692E-18
 -1       431 9.52379E-05-2.85733E-05-2.85706E-05-7.87934E-10-3.13291E-18 3.18537E-18
 -1       432 9.52381E-05-2.85735E-05-2.85705E-05-4.59877E-10-1.88158E-18-2.48618E-21
 -1       433 9.52381E-05-2.85736E-05-2.85705E-05-7.90211E-11-3.83878E-18-2.38683E-18
 -1       434 9.52381E-05-2.85735E-05-2.85705E-05 3.09475E-10-3.34593E-18-3.40519E-18
 -1       435 9.52380E-05-2.85734E-05-2.85706E-05 6.61027E-10-2.91086E-18-8.29178E-19
 -1       436 9.52378E-05-2.85731E-05-2.85706E-05 9.29516E-10-1.84738E-18 1.06281E-18
 -1       437 9.52376E-05-2.85727E-05-2.85707E-05 1.08536E-09-1.79206E-18 2.60624E-18
 -1       438 9.52374E-05-2.85722E-05-2.85708E-05 1.09199E-09-2.55129E-18-4.82675E-19
 -1       439 9.52372E-05-2.85718E-05-2.85709E-05 9.31990E-10-2.95914E-18 3.88722E-19
 -1       440 9.57788E-05-5.86346E-05-1.66365E-05 3.48796E-05-1.01877E-18 1.33786E-18
 -1       441 9.22419E-06-2.16619E-05 5.22118E-06-1.77802E-05 7.43271E-19 1.34170E-18
 -1       442 9.28125E-05-1.45888E-05-3.35979E-05-1.22989E-05-4.10650E-19-1.53010E-18
 -1       443 1.49465E-04-7.25403E-05-3.33792E-05 1.65594E-05-1.15292E-18 1.52985E-18
 -1       444 1.33719E-04-6.88437E-05-2.81951E-05-2.70573E-05-4.82385E-19 3.86776E-19
 -1       445 8.57017E-05-5.18158E-05-1.46341E-05-3.89468E-05-1.07806E-18-1.37529E-18
 -1       446 2.91575E-05-2.98384E-05-3.35446E-08-2.59779E-05-7.23154E-19-3.49528E-18
 -1       447 1.02521E-05-2.12429E-05 4.52620E-06-3.09673E-06-3.31349E-19-3.76136E-18
 -1       448 1.47061E-05-2.26506E-05 3.30265E-06 2.82613E-05-4.57927E-20-3.21629E-18
 -1       449 3.63386E-05-3.19261E-05-2.10453E-06 4.56686E-05-3.13932E-19-2.09524E-18
 -1       450 8.17208E-05-4.56030E-05-1.53966E-05 5.47546E-05-9.90182E-19-1.62374E-18
 -1       451 1.20493E-04-5.34222E-05-2.87294E-05 4.58004E-05-1.48517E-18-1.32449E-18
 -1       452 1.50534E-04-5.08172E-05-4.28162E-05 2.78619E-05-1.85511E-18-7.16908E-19
 -1       453 1.63099E-04-3.36092E-05-5.57764E-05 6.11811E-07-2.95996E-18 5.57348E-19
 -1       454 1.61620E-04-1.68618E-05-6.25856E-05-4.19193E-06-3.33149E-18-6.41892E-19
 -1       455 1.68878E-04-9.26954E-06-6.85690E-05-9.32935E-07-2.65460E-18-7.79166E-19
 -1       456 1.72564E-04-1.69159E-05-6.66395E-05-1.62607E-06-2.06231E-18-9.04790E-19
 -1       457 1.67029E-04-3.59506E-05-5.61835E-05-1.16878E-05-9.67735E-19-7.78000E-19
 -1       458 1.51317E-04-5.07505E-05-4.30334E-05-2.85863E-05 7.54812E-19-4.92656E-19
 -1       459 1.13529E-04-5.40886E-05-2.54560E-05-4.94847E-05 1.38066E-18 1.21285E-18
 -1       460 6.74551E-05-4.27085E-05-1.07296E-05-5.43307E-05 9.42642E-19 1.93535E-18
 -1       461 2.93956E-05-2.85859E-05-3.77327E-07-4.27739E-05 7.57565E-19 1.20586E-18
 -1       462 1.77183E-05-2.14708E-05 1.76194E-06 1.43832E-05-5.78524E-19 9.77370E-19
 -1       463 1.76459E-04-7.26059E-05-4.47089E-05-1.42569E-05-6.69474E-19 7.77417E-19
 -1       464 2.01004E-04-6.03765E-05-5.96156E-05 2.49317E-05 2.99056E-18 2.53453E-18
 -1       465 1.32852E-04-6.04903E-05-3.08095E-05-2.69623E-05-2.00212E-18 1.60742E-18
 -1       466 9.66526E-05-1.97694E-05-3.29752E-05-1.91930E-06 4.98009E-19-1.04720E-18
 -1       467 9.69514E-05-2.00550E-05-3.29829E-05-6.27488E-06 1.65383E-19-1.16300E-18
 -1       468 9.16137E-05-1.66571E-05-3.21445E-05 7.95870E-06 1.14709E-18-9.40336E-19
 -1       469 8.64823E-05-1.31294E-05-3.14529E-05 1.19642E-05 1.39609E-18-1.13110E-18
 -1       470 8.07042E-05-8.83391E-06-3.08128E-05 1.38259E-05 1.47141E-18-1.02374E-18
 -1       471 7.61440E-05-5.07688E-06-3.04641E-05 1.27358E-05 1.65653E-18-7.80258E-19
 -1       472 7.55657E-05-4.00666E-06-3.06750E-05 8.79305E-06 1.57947E-18-5.24833E-19
 -1       473 8.10274E-05-7.42198E-06-3.15534E-05 3.51011E-06 1.47577E-18 8.72551E-20
 -1       474 8.98509E-05-1.43446E-05-3.23484E-05-2.11711E-06 1.24650E-18 7.37886E-19
 -1       475 8.54713E-05-4.15687E-05-1.84042E-05-4.01488E-05-1.98672E-18-6.93932E-19
 -1       476 9.65854E-05-2.61416E-05-3.01827E-05-1.01325E-05-6.87381E-19-5.54931E-19
 -1       477 9.62571E-05-2.25513E-05-3.16146E-05-1.26863E-05-7.74951E-19-8.74979E-19
 -1       478 9.58957E-05-2.77514E-05-2.91983E-05-8.56067E-06-5.55330E-19-3.90564E-19
 -1       479 9.46400E-05-2.80110E-05-2.85522E-05-7.86237E-06-3.18397E-19-3.05934E-19
 -1       480 9.30400E-05-2.73459E-05-2.81523E-05-7.36317E-06-1.91766E-19-1.17088E-19
 -1       481 9.12633E-05-2.60892E-05-2.79288E-05-6.44309E-06-4.08748E-19 6.39508E-20
 -1       482 8.95828E-05-2.46518E-05-2.78235E-05-4.70142E-06-5.37121E-19-1.97379E-19
 -1       483 8.83694E-05-2.35273E-05-2.77848E-05-2.08642E-06-2.21918E-19-6.41186E-19
 -1       484 8.79537E-05-2.31423E-05-2.77715E-05 1.06169E-06-7.47906E-19-8.06572E-19
 -1       485 8.84554E-05-2.36693E-05-2.77610E-05 4.13308E-06-5.65260E-19-7.64458E-19
 -1       486 8.97077E-05-2.49452E-05-2.77518E-05 6.50724E-06-4.09401E-19-5.08459E-19
 -1       487 9.13390E-05-2.65695E-05-2.77562E-05 7.80462E-06 1.18056E-19-4.80780E-19
 -1       488 9.29489E-05-2.81068E-05-2.77889E-05 7.98908E-06 3.52447E-20-2.83219E-19
 -1       489 9.42562E-05-2.92593E-05-2.78568E-05 7.30010E-06-7.12499E-20-6.37919E-20
 -1       490 9.51514E-05-2.99267E-05-2.79555E-05 6.09658E-06-5.79918E-19 6.82044E-20
 -1       491 9.56605E-05-3.01635E-05-2.80726E-05 4.71652E-06-7.57965E-19 1.08681E-19
 -1       492 9.58780E-05-3.00987E-05-2.81936E-05 3.40301E-06-3.74220E-19-2.41085E-19
 -1       493 9.59104E-05-2.98689E-05-2.83057E-05 2.29086E-06-1.73419E-19-9.17339E-19
 -1       494 9.58451E-05-2.95811E-05-2.84006E-05 1.42749E-06 7.16707E-19-5.68207E-19
 -1       495 9.57414E-05-2.93032E-05-2.84748E-05 8.04252E-07 2.85785E-19-8.68926E-19
 -1       496 9.56334E-05-2.90690E-05-2.85285E-05 3.84078E-07 2.45085E-19-4.96185E-19
 -1       497 9.55374E-05-2.88887E-05-2.85642E-05 1.20786E-07 3.33786E-19-5.98924E-19
 -1       498 9.54589E-05-2.87596E-05-2.85857E-05-2.97370E-08-7.01442E-19-8.28987E-19
 -1       499 9.53978E-05-2.86727E-05-2.85966E-05-1.04342E-07-1.11602E-18-4.30350E-19
 -1       500 9.53517E-05-2.86177E-05-2.86004E-05-1.31211E-07-2.65899E-19-1.42101E-18
 -1       501 9.53176E-05-2.85851E-05-2.85996E-05-1.30454E-07 2.73107E-19-7.08843E-19
 -1       502 9.52926E-05-2.85675E-05-2.85965E-05-1.15568E-07 2.99484E-19 1.49562E-20
 -1       503 9.52746E-05-2.85592E-05-2.85923E-05-9.50564E-08 4.66213E-19 9.75433E-19
 -1       504 9.52616E-05-2.85565E-05-2.85878E-05-7.38889E-08 8.56680E-19 9.26138E-19
 -1       505 9.52524E-05-2.85569E-05-2.85838E-05-5.46754E-08 6.02108E-19 8.89791E-19
 -1       506 9.52459E-05-2.85586E-05-2.85802E-05-3.85363E-08 6.79897E-19 8.39669E-19
 -1       507 9.52414E-05-2.85608E-05-2.85774E-05-2.57140E-08-1.87266E-19 1.28399E-18
 -1       508 9.52385E-05-2.85631E-05-2.85752E-05-1.59798E-08-1.57606E-18 3.90165E-19
 -1       509 9.52366E-05-2.85651E-05-2.85735E-05-8.89073E-09-8.00372E-20 7.21899E-19
 -1       510 9.52355E-05-2.85667E-05-2.85723E-05-3.94171E-09 2.78752E-19 4.46703E-19
 -1       511 9.52349E-05-2.85680E-05-2.85715E-05-6.48727E-10 1.45689E-18 3.48619E-19
 -1       512 9.52347E-05-2.85690E-05-2.85710E-05 1.41127E-09-5.10666E-19 6.81749E-19
 -1       513 9.52347E-05-2.85698E-05-2.85707E-05 2.58638E-09 5.85793E-19 1.43928E-18
 -1       514 9.52349E-05-2.85703E-05-2.85706E-05 3.15012E-09-4.70768E-19 1.09981E-18
 -1       515 9.52352E-05-2.85707E-05-2.85705E-05 3.30893E-09-5.35194E-20 1.72588E-18
 -1       516 9.52355E-05-2.85709E-05-2.85705E-05 3.21231E-09-4.29788E-19 1.49685E-18
 -1       517 9.52358E-05-2.85711E-05-2.85706E-05 2.96325E-09 2.46593E-18 2.12528E-19
 -1       518 9.52361E-05-2.85713E-05-2.85707E-05 2.62762E-09-1.32392E-18 1.71337E-18
 -1       519 9.52364E-05-2.85714E-05-2.85707E-05 2.24186E-09-7.86677E-19 1.78838E-18
 -1       520 9.52367E-05-2.85715E-05-2.85708E-05 1.82270E-09 5.63009E-19 8.41338E-19
 -1       521 9.52370E-05-2.85717E-05-2.85708E-05 1.39674E-09 5.26642E-19-4.11893E-19
 -1       522 8.12579E-05-1.24091E-05-2.94256E-05-1.64834E-05 2.90326E-19 1.40363E-19
 -1       523 7.45374E-05-2.08766E-05-2.25019E-05-3.44607E-05-1.15212E-18-5.18490E-19
 -1       524 1.12474E-04-5.41452E-05-2.47612E-05 4.61094E-05 6.92555E-19-1.17450E-19
 -1       525 4.71071E-05-2.30443E-05-9.82779E-06 3.23235E-05-4.59092E-19-5.33207E-19
 -1       526 1.00250E-04-4.25834E-05-2.42713E-05 3.72842E-05-6.05046E-19 6.12696E-19
 -1       527 9.00637E-05-1.93788E-05-3.02440E-05 1.97708E-05 3.85842E-19 1.49386E-18
 -1       528 9.29706E-05-2.19736E-05-3.03978E-05 1.39876E-05 2.62837E-19 9.99258E-19
 -1       529 9.46705E-05-2.42570E-05-3.01557E-05 9.61039E-06-1.77936E-19-7.48385E-20
 -1       530 9.54922E-05-2.58900E-05-2.98141E-05 6.46345E-06 7.66962E-20-7.10013E-19
 -1       531 9.58024E-05-2.69555E-05-2.94954E-05 4.28669E-06-7.63053E-20 2.55361E-19
 -1       532 9.58528E-05-2.76173E-05-2.92371E-05 2.81908E-06-3.89614E-20-7.22554E-19
 -1       533 9.57899E-05-2.80163E-05-2.90416E-05 1.84590E-06 1.87996E-18-1.22018E-18
 -1       534 9.56903E-05-2.82522E-05-2.88994E-05 1.20741E-06 4.89660E-19-8.21878E-19
 -1       535 9.55932E-05-2.83838E-05-2.88024E-05 8.06467E-07 1.19818E-18-6.96787E-20
 -1       536 9.55032E-05-2.84647E-05-2.87297E-05 5.27984E-07-2.70759E-19 1.45817E-20
 -1       537 9.54302E-05-2.85105E-05-2.86792E-05 3.46142E-07 4.01398E-19-1.06537E-18
 -1       538 9.53736E-05-2.85360E-05-2.86442E-05 2.26882E-07 9.42734E-19-2.95567E-18
 -1       539 9.53309E-05-2.85502E-05-2.86201E-05 1.48253E-07 1.80501E-18-1.55607E-18
 -1       540 9.52996E-05-2.85580E-05-2.86034E-05 9.61223E-08 1.57036E-18-3.32725E-19
 -1       541 9.52771E-05-2.85623E-05-2.85920E-05 6.13928E-08-2.86463E-19-2.31455E-19
 -1       542 9.52613E-05-2.85647E-05-2.85842E-05 3.81929E-08 3.73157E-19-1.36883E-18
 -1       543 9.52508E-05-2.85662E-05-2.85791E-05 2.33305E-08-1.48334E-20-3.10531E-19
 -1       544 9.52434E-05-2.85672E-05-2.85755E-05 1.28313E-08-1.11718E-18 4.60716E-19
 -1       545 9.52387E-05-2.85679E-05-2.85732E-05 5.94944E-09-1.23226E-18-7.47854E-19
 -1       546 9.52358E-05-2.85685E-05-2.85717E-05 1.54388E-09 6.75985E-20 4.76911E-19
 -1       547 9.52341E-05-2.85690E-05-2.85708E-05-1.16864E-09 2.30359E-19-2.03786E-18
 -1       548 9.52334E-05-2.85694E-05-2.85703E-05-2.72970E-09 2.62092E-18-5.59706E-19
 -1       549 9.52332E-05-2.85698E-05-2.85700E-05-3.51829E-09 7.25613E-19-1.28093E-19
 -1       550 9.52334E-05-2.85701E-05-2.85700E-05-3.80112E-09 3.75759E-18-1.80428E-18
 -1       551 9.52338E-05-2.85704E-05-2.85700E-05-3.77130E-09 2.16303E-18-4.22984E-18
 -1       552 9.52342E-05-2.85706E-05-2.85701E-05-3.55138E-09 1.94827E-18-5.24158E-18
 -1       553 9.52347E-05-2.85708E-05-2.85703E-05-3.22316E-09 1.54043E-19-5.16680E-18
 -1       554 9.52352E-05-2.85709E-05-2.85704E-05-2.84205E-09-1.29905E-18-5.54248E-18
 -1       555 9.52357E-05-2.85711E-05-2.85706E-05-2.43841E-09-3.07817E-18-6.61982E-18
 -1       556 9.52361E-05-2.85712E-05-2.85707E-05-2.02445E-09-3.61330E-18-3.72503E-18
 -1       557 9.52365E-05-2.85713E-05-2.85708E-05-1.59971E-09 9.20662E-19-1.80171E-18
 -1       558 9.52370E-05-2.85715E-05-2.85709E-05-9.87610E-10 1.70285E-19-4.37694E-19
 -1       559 9.52377E-05-2.85726E-05-2.85708E-05-1.49763E-09 1.75963E-19-3.54191E-18
 -1       560 9.52380E-05-2.85729E-05-2.85707E-05-1.25192E-09-2.47648E-18 2.89800E-18
 -1       561 9.52374E-05-2.85722E-05-2.85708E-05-1.55037E-09 2.12198E-18-3.21405E-18
 -1       562 9.52382E-05-2.85732E-05-2.85707E-05-8.55842E-10-3.99560E-18 2.60981E-18
 -1       563 9.52383E-05-2.85733E-05-2.85707E-05-3.63284E-10-3.98714E-18-1.44685E-18
 -1       564 9.52383E-05-2.85734E-05-2.85707E-05 1.67459E-10-2.67267E-18-3.35705E-18
 -1       565 9.52382E-05-2.85733E-05-2.85707E-05 6.77518E-10-4.64758E-19-1.31080E-18
 -1       566 9.52381E-05-2.85730E-05-2.85707E-05 1.10344E-09-9.66352E-19 1.65882E-18
 -1       567 9.52378E-05-2.85727E-05-2.85708E-05 1.40933E-09-1.32695E-18 2.26261E-18
 -1       568 9.52375E-05-2.85723E-05-2.85708E-05 1.53701E-09-1.47293E-18 2.17210E-18
 -1       569 9.52372E-05-2.85720E-05-2.85708E-05 1.52895E-09 2.12000E-19-1.17325E-18
 -1       570 7.59850E-05-4.04835E-05-1.48144E-05 3.74904E-05-7.03937E-19 4.99326E-19
 -1       571 6.04179E-05-3.26826E-05-1.13548E-05-5.23262E-05 1.46881E-18 3.68777E-19
 -1       572 1.52014E-04-4.86235E-05-4.46606E-05 2.66364E-06-1.19159E-18 1.23137E-18
 -1       573 8.61771E-05-1.80550E-05-2.90682E-05 2.68500E-05 1.41957E-19 1.32183E-18
 -1       574 8.33538E-05-2.21628E-05-2.57996E-05 3.45062E-05 2.82433E-20 7.57909E-19
 -1       575 8.64543E-05-1.38089E-05-3.10957E-05-9.29360E-06 7.62272E-19 5.10659E-19
 -1       576 7.34125E-05-1.17813E-05-2.61983E-05-2.44547E-05-2.94036E-19-4.10745E-19
 -1       577 9.50246E-05-1.88120E-05-3.26859E-05 3.01346E-06 8.68059E-19-9.00050E-19
 -1       578 1.81565E-05-6.07225E-06-4.46070E-06 1.18463E-05 3.54576E-19-3.08267E-18
 -1       579 3.11528E-05-1.06357E-05-8.00376E-06-1.93578E-05-6.98432E-19-2.83364E-18
 -1       580 3.52657E-05-1.68656E-05-7.26901E-06 4.08280E-05 1.11025E-18-2.27757E-18
 -1       581 1.51566E-04-4.84162E-05-4.45759E-05-1.47505E-06 1.04759E-18-2.23802E-18
 -1       582 7.04304E-05-3.63025E-05-1.41837E-05 5.36971E-05 8.65668E-19-1.42286E-18
 -1       583 1.40423E-04-5.94285E-05-3.47664E-05 2.66375E-05-6.22040E-21 2.75471E-19
 -1       584 1.45265E-04-2.38594E-05-5.26239E-05-1.18207E-05-2.30827E-18-1.66283E-19
 -1       585 1.40698E-04-5.21827E-06-5.87111E-05-5.67479E-06-2.78494E-18-1.14770E-18
 -1       586 1.45608E-04-6.87910E-06-6.01158E-05 4.54860E-06-1.69904E-18-1.87009E-18
 -1       587 1.49862E-04-2.36970E-05-5.46381E-05 8.55850E-06-9.82294E-19-2.32749E-18
 -1       588 1.38585E-04-6.05242E-05-3.35758E-05-2.85742E-05 2.21277E-18-7.75935E-19
 -1       589 9.66025E-05-4.97728E-05-1.98313E-05-5.16770E-05 2.04871E-18 1.60775E-18
 -1       590 2.21793E-05-4.89541E-06-6.57034E-06-1.47311E-06 4.24847E-19 3.28225E-21
 -1       591 2.57494E-05-1.29174E-05-4.83673E-06-3.09986E-05 8.82767E-19 1.12994E-18
 -1       592 9.65148E-05-2.02737E-05-3.27224E-05-9.68882E-06-1.89470E-19-1.38813E-18
 -1       593 3.89042E-05-6.94960E-06-1.30244E-05 1.88370E-05-3.08016E-19 3.75765E-19
 -1       594 9.52370E-05-2.85717E-05-2.85708E-05-1.37440E-09-3.81851E-19 1.26133E-18
 -1       595 1.23225E-04-5.82912E-05-2.76377E-05-3.69164E-05 2.30814E-18-6.96797E-19
 -1       596 8.65459E-05-1.62498E-05-3.01281E-05 1.70800E-05 1.43349E-18-1.05712E-18
 -1       597 9.40694E-05-2.13755E-05-3.11586E-05 1.27838E-05 1.14493E-18-8.47321E-19
 -1       598 7.21274E-05-5.07390E-06-2.87230E-05 1.29421E-05 1.50137E-18-8.16666E-19
 -1       599 7.28574E-05-4.67738E-06-2.91914E-05 4.26533E-06 1.36323E-18-3.69906E-19
 -1       600 7.78034E-05-7.97313E-06-2.99048E-05-2.83663E-06 1.05520E-18-8.17416E-20
 -1       601 8.59622E-05-1.86472E-05-2.88401E-05 8.48123E-06 4.50758E-19-2.84829E-19
 -1       602 9.79211E-05-2.43726E-05-3.15194E-05-1.09409E-05-4.44580E-19-8.68721E-19
 -1       603 8.99522E-05-2.19852E-05-2.91230E-05 6.23836E-06-2.18615E-19-2.60432E-20
 -1       604 9.90931E-05-2.88168E-05-3.01175E-05-9.25237E-06-3.46947E-19-2.52382E-19
 -1       605 9.85091E-05-2.89338E-05-2.98171E-05-9.01655E-06-2.22852E-19-2.44785E-19
 -1       606 9.71653E-05-2.77375E-05-2.97533E-05-8.56291E-06-1.53491E-19-2.45824E-19
 -1       607 9.53485E-05-2.57256E-05-2.98364E-05-7.23207E-06-6.79092E-19-3.67950E-19
 -1       608 9.35666E-05-2.36510E-05-2.99618E-05-4.65605E-06-4.58447E-19-4.69969E-19
 -1       609 9.24365E-05-2.23681E-05-3.00276E-05-1.00045E-06-5.10980E-19-3.59611E-19
 -1       610 9.23873E-05-2.24652E-05-2.99653E-05 3.02439E-06-6.28560E-19-1.61049E-19
 -1       611 9.34022E-05-2.39540E-05-2.97621E-05 6.46797E-06-3.98323E-19-6.27529E-20
 -1       612 9.50282E-05-2.62825E-05-2.94607E-05 8.60540E-06-3.73822E-19-1.04228E-19
 -1       613 9.66570E-05-2.86797E-05-2.91317E-05 9.22393E-06 1.81472E-20-3.59711E-19
 -1       614 9.78281E-05-3.05336E-05-2.88400E-05 8.58928E-06 1.49556E-20-4.18159E-19
 -1       615 9.83739E-05-3.15870E-05-2.86234E-05 7.20268E-06 8.98478E-20-3.03374E-19
 -1       616 9.83706E-05-3.18950E-05-2.84903E-05 5.54884E-06-6.14969E-19-1.27216E-19
 -1       617 9.80071E-05-3.16739E-05-2.84294E-05 3.96884E-06-4.59615E-19 4.38593E-19
 -1       618 9.74786E-05-3.11676E-05-2.84198E-05 2.64243E-06-6.47227E-19 6.59400E-19
 -1       619 9.69303E-05-3.05711E-05-2.84403E-05 1.62544E-06 9.95060E-20-4.80055E-20
 -1       620 9.64456E-05-3.00079E-05-2.84738E-05 9.00440E-07 1.79064E-19-1.11720E-18
 -1       621 9.60585E-05-2.95385E-05-2.85089E-05 4.17032E-07-4.20118E-19-2.00613E-18
 -1       622 9.57712E-05-2.91800E-05-2.85393E-05 1.16869E-07 5.04647E-19-1.66259E-18
 -1       623 9.55701E-05-2.89246E-05-2.85625E-05-5.33927E-08-1.01053E-19-1.12983E-18
 -1       624 9.54362E-05-2.87540E-05-2.85781E-05-1.36999E-07-5.46563E-19-7.80671E-19
 -1       625 9.53509E-05-2.86471E-05-2.85873E-05-1.66355E-07-9.45580E-19-4.89598E-20
 -1       626 9.52988E-05-2.85851E-05-2.85916E-05-1.64300E-07 2.20036E-19 3.68000E-19
 -1       627 9.52685E-05-2.85528E-05-2.85924E-05-1.46080E-07 1.30799E-18 1.35327E-18
 -1       628 9.52516E-05-2.85390E-05-2.85911E-05-1.21316E-07 7.37852E-19 1.61298E-18
 -1       629 9.52428E-05-2.85359E-05-2.85886E-05-9.56749E-08 6.16631E-19 1.38198E-18
 -1       630 9.52385E-05-2.85385E-05-2.85857E-05-7.21894E-08 1.32522E-18 1.19608E-18
 -1       631 9.52366E-05-2.85435E-05-2.85828E-05-5.22128E-08 5.34389E-19 1.18034E-18
 -1       632 9.52360E-05-2.85492E-05-2.85801E-05-3.60941E-08 1.25426E-19 6.68295E-20
 -1       633 9.52360E-05-2.85546E-05-2.85777E-05-2.36285E-08-1.42621E-18 6.32443E-19
 -1       634 9.52361E-05-2.85591E-05-2.85758E-05-1.43456E-08-3.84850E-19 2.77636E-18
 -1       635 9.52363E-05-2.85628E-05-2.85743E-05-7.68453E-09-6.82164E-19 1.99786E-18
 -1       636 9.52365E-05-2.85657E-05-2.85732E-05-3.09251E-09-6.64310E-19-4.24759E-19
 -1       637 9.52366E-05-2.85677E-05-2.85724E-05-7.47704E-11 1.52732E-18-1.69372E-18
 -1       638 9.52367E-05-2.85692E-05-2.85718E-05 1.78476E-09 1.08676E-18 7.47839E-19
 -1       639 9.52368E-05-2.85702E-05-2.85714E-05 2.82038E-09-1.38565E-19 6.86770E-19
 -1       640 9.52369E-05-2.85709E-05-2.85711E-05 3.29062E-09 2.02422E-19-9.57369E-19
 -1       641 9.52369E-05-2.85713E-05-2.85710E-05 3.38840E-09-5.40872E-19-7.67995E-19
 -1       642 9.52370E-05-2.85716E-05-2.85709E-05 3.25199E-09 1.13515E-18 1.08091E-18
 -1       643 9.52370E-05-2.85717E-05-2.85708E-05 2.97613E-09 6.34468E-19-2.72187E-19
 -1       644 9.52371E-05-2.85718E-05-2.85708E-05 2.62078E-09-4.41539E-19 7.26223E-19
 -1       645 9.52371E-05-2.85719E-05-2.85708E-05 2.21989E-09-1.61550E-18 2.16472E-18
 -1       646 9.52372E-05-2.85719E-05-2.85708E-05 1.88697E-09-2.60556E-19 8.17812E-19
 -1       647 9.47468E-05-4.18366E-05-2.24198E-05 4.59977E-05 1.57538E-18-3.01676E-19
 -1       648 1.39952E-04-3.75409E-05-4.41825E-05-1.03578E-05-5.83076E-19 9.77648E-19
 -1       649 7.96081E-05-1.42924E-05-2.79683E-05 1.11964E-05 3.91506E-19-6.40270E-19
 -1       650 9.23450E-05-2.43249E-05-2.91474E-05 4.47527E-06 2.21571E-19-3.62620E-19
 -1       651 9.37288E-05-2.58844E-05-2.90734E-05 3.14950E-06 1.41917E-19-1.98260E-18
 -1       652 9.45023E-05-2.68919E-05-2.89741E-05 2.18682E-06 1.68224E-18-2.89768E-18
 -1       653 9.49189E-05-2.75295E-05-2.88801E-05 1.50650E-06 2.23363E-19-2.36841E-18
 -1       654 9.51252E-05-2.79121E-05-2.88049E-05 1.05101E-06-1.01950E-18-1.50167E-18
 -1       655 9.52309E-05-2.81648E-05-2.87422E-05 7.17240E-07-4.25807E-19 3.92988E-19
 -1       656 9.52751E-05-2.83201E-05-2.86947E-05 4.88700E-07 8.94374E-19 2.02193E-19
 -1       657 9.52879E-05-2.84152E-05-2.86595E-05 3.32254E-07 7.12651E-19 4.51287E-19
 -1       658 9.52860E-05-2.84735E-05-2.86338E-05 2.25084E-07 1.90911E-18-7.26196E-19
 -1       659 9.52783E-05-2.85094E-05-2.86152E-05 1.51519E-07 7.03052E-19-1.23593E-18
 -1       660 9.52692E-05-2.85315E-05-2.86018E-05 1.00913E-07-2.26005E-19-1.12921E-18
 -1       661 9.52607E-05-2.85454E-05-2.85922E-05 6.60801E-08-6.78353E-19-4.23388E-19
 -1       662 9.52538E-05-2.85539E-05-2.85857E-05 4.30902E-08-7.91316E-19 2.24157E-18
 -1       663 9.52482E-05-2.85598E-05-2.85808E-05 2.63447E-08-2.67341E-19 1.75212E-18
 -1       664 9.52440E-05-2.85636E-05-2.85773E-05 1.49852E-08-3.53076E-19 1.05554E-18
 -1       665 9.52411E-05-2.85662E-05-2.85749E-05 7.39551E-09 7.16632E-19-8.01770E-19
 -1       666 9.52390E-05-2.85680E-05-2.85733E-05 2.44639E-09 8.39160E-19-2.28388E-18
 -1       667 9.52377E-05-2.85692E-05-2.85722E-05-6.60373E-10 3.41096E-19-1.16735E-18
 -1       668 9.52369E-05-2.85701E-05-2.85715E-05-2.49413E-09 7.20391E-19-1.08440E-18
 -1       669 9.52365E-05-2.85707E-05-2.85711E-05-3.46249E-09 2.74404E-18-2.29717E-18
 -1       670 9.52363E-05-2.85710E-05-2.85708E-05-3.84747E-09 2.65406E-18 8.46503E-19
 -1       671 9.52362E-05-2.85713E-05-2.85707E-05-3.88922E-09 2.53490E-18 1.16717E-18
 -1       672 9.52363E-05-2.85714E-05-2.85707E-05-3.70005E-09 1.33010E-18 2.37266E-18
 -1       673 9.52364E-05-2.85715E-05-2.85707E-05-3.37841E-09 8.83455E-20 3.81879E-19
 -1       674 9.52365E-05-2.85716E-05-2.85707E-05-2.98711E-09-1.38314E-18 4.23908E-19
 -1       675 9.52367E-05-2.85716E-05-2.85707E-05-2.55869E-09-4.40031E-18 1.85199E-18
 -1       676 9.52369E-05-2.85717E-05-2.85708E-05-2.11387E-09-2.88702E-18 6.74947E-19
 -1       677 9.52371E-05-2.85718E-05-2.85708E-05-1.90497E-09-5.22133E-19 2.03609E-19
 -1       678 9.52380E-05-2.85727E-05-2.85708E-05-1.71883E-09-1.30239E-18-2.80375E-19
 -1       679 9.52376E-05-2.85723E-05-2.85708E-05-1.93549E-09-1.14330E-18-4.97826E-18
 -1       680 9.52384E-05-2.85730E-05-2.85709E-05-1.30275E-09-2.31279E-18 4.40702E-19
 -1       681 9.52387E-05-2.85733E-05-2.85709E-05-1.12740E-10-1.74332E-19-4.67415E-20
 -1       682 9.52386E-05-2.85733E-05-2.85709E-05 5.28077E-10 1.24642E-18-1.14654E-19
 -1       683 9.52384E-05-2.85731E-05-2.85709E-05 1.10162E-09 1.80226E-18 1.57553E-19
 -1       684 9.52381E-05-2.85728E-05-2.85709E-05 1.56608E-09 9.47427E-19 1.89315E-18
 -1       685 9.52378E-05-2.85725E-05-2.85708E-05 1.86293E-09-7.06217E-19 2.52849E-18
 -1       686 8.60539E-05-4.02426E-05-1.92791E-05-4.81849E-05 2.22478E-18 7.03037E-19
 -1       687 5.73612E-05-6.96267E-06-2.12809E-05 1.88060E-05 3.34757E-19-2.06967E-19
 -1       688 6.31343E-05-4.12624E-06-2.51117E-05-1.01457E-05 4.25849E-19-9.50470E-19
 -1       689 5.28344E-05-1.97763E-05-1.35312E-05-3.18676E-05-1.34932E-18-1.95500E-18
 -1       690 5.03498E-05-5.37359E-06-1.87693E-05-1.88833E-05-2.41457E-19-1.69380E-18
 -1       691 1.41631E-04-5.46342E-05-3.74414E-05 8.43733E-06 8.20775E-20 1.60879E-18
 -1       692 1.30134E-04-5.71558E-05-3.12112E-05 2.80749E-05 8.85573E-19 3.96954E-19
 -1       693 7.00418E-05-9.51519E-06-2.58458E-05 1.44684E-05 4.50704E-19-1.12681E-18
 -1       694 9.52386E-05-2.85732E-05-2.85709E-05-7.45490E-10-2.91758E-18 5.78748E-19
 -1       695 7.80727E-05-9.97373E-06-2.91715E-05 1.75256E-05 1.56342E-18-7.23707E-19
 -1       696 3.46805E-05-4.91103E-06-1.21245E-05 2.53407E-05 1.08092E-18-2.08121E-18
 -1       697 1.32134E-04-1.33848E-05-5.14349E-05 1.09360E-05-1.19590E-18-1.80061E-18
 -1       698 1.01265E-04-2.54355E-05-3.25067E-05-4.12773E-06 3.01681E-19-8.61813E-19
 -1       699 6.39992E-05-2.36854E-05-1.67751E-05 4.57511E-05 1.69298E-18-1.29231E-18
 -1       700 5.26336E-05-1.74666E-05-1.45645E-05-3.84631E-05 1.64080E-18-1.30178E-19
 -1       701 1.40567E-04-5.56532E-05-3.65453E-05-9.16273E-06 1.58177E-18-1.56898E-18
 -1       702 1.27452E-04-1.21969E-05-4.99105E-05-1.14096E-05-2.00080E-18-2.56320E-19
 -1       703 1.26651E-04-4.29907E-06-5.29991E-05 1.25696E-06-1.45139E-18-1.29541E-18
 -1       704 3.60213E-05-4.81796E-07-1.46897E-05-4.54923E-06 2.29983E-19-2.37529E-18
 -1       705 1.36998E-04-3.36341E-05-4.47048E-05 1.16720E-05 6.62565E-19-2.09691E-18
 -1       706 9.89997E-05-2.73986E-05-3.06901E-05-9.83212E-06-3.32361E-19-6.49241E-19
 -1       707 3.81515E-05-4.97040E-06-1.36032E-05-1.84985E-05 4.58536E-19 1.15938E-19
 -1       708 9.89556E-05-2.43621E-05-3.19739E-05 6.80680E-06 7.94688E-19-6.55111E-19
 -1       709 7.96994E-05-3.04107E-05-2.05165E-05 3.72241E-05-5.64865E-20 3.55277E-19
 -1       710 1.00381E-04-2.51462E-05-3.22498E-05-7.94387E-06 8.11423E-21-1.06082E-18
 -1       711 1.35331E-04-4.52283E-05-3.87719E-05 6.00384E-06 9.95138E-19-1.79562E-18
 -1       712 1.27161E-04-2.47468E-05-4.41322E-05-1.41582E-05-6.14099E-19 7.67584E-19
 -1       713 4.16711E-05-2.25830E-06-1.63924E-05-3.26312E-08 1.33215E-19-5.77359E-19
 -1       714 1.32047E-04-5.74727E-05-3.19089E-05-1.89412E-05 1.62053E-18-1.01402E-18
 -1       715 7.17977E-05-6.36416E-06-2.79563E-05-6.51614E-06 8.25121E-19-5.50281E-19
 -1       716 1.01117E-04-2.54575E-05-3.24293E-05 8.82615E-07 5.53965E-19-6.81645E-19
 -1       717 6.48445E-05-3.45148E-06-2.62495E-05 1.05438E-05 1.38445E-18-7.57662E-19
 -1       718 5.45532E-05-1.10431E-05-1.83255E-05-2.52685E-05 5.35457E-19-1.39821E-18
 -1       719 8.43065E-05-1.85925E-05-2.81625E-05 2.79749E-06 1.66570E-19 2.45800E-19
 -1       720 9.52380E-05-2.85725E-05-2.85709E-05-2.17945E-09-4.09515E-18-3.59207E-18
 -1       721 1.02899E-04-3.03129E-05-3.11094E-05-9.37785E-06-4.09173E-20-4.88538E-19
 -1       722 1.02651E-04-2.98027E-05-3.12201E-05-9.76927E-06-1.08560E-19-1.43940E-19
 -1       723 1.01208E-04-2.75583E-05-3.15627E-05-9.45908E-06-4.68431E-19-2.06565E-19
 -1       724 9.90337E-05-2.43941E-05-3.19866E-05-7.62820E-06-7.02609E-19-1.49953E-19
 -1       725 9.70380E-05-2.16483E-05-3.23079E-05-3.97537E-06-6.08845E-19-2.80979E-19
 -1       726 9.61703E-05-2.06411E-05-3.23692E-05 8.86720E-07-4.57634E-19-7.19852E-19
 -1       727 9.68489E-05-2.19605E-05-3.20965E-05 5.62286E-06-1.54900E-19-1.08190E-19
 -1       728 9.86376E-05-2.50529E-05-3.15355E-05 8.89574E-06-3.30697E-19 3.14842E-19
 -1       729 1.00606E-04-2.86736E-05-3.08254E-05 1.01078E-05-3.22073E-19 4.73159E-19
 -1       730 1.01937E-04-3.16565E-05-3.01186E-05 9.50621E-06 1.30759E-19-1.03680E-20
 -1       731 1.02290E-04-3.34061E-05-2.95216E-05 7.83258E-06-3.57736E-20 3.29146E-19
 -1       732 1.01790E-04-3.39429E-05-2.90774E-05 5.81846E-06-8.55357E-19-5.66959E-19
 -1       733 1.00765E-04-3.36005E-05-2.87853E-05 3.95111E-06-1.88738E-19-5.46053E-19
 -1       734 9.95544E-05-3.27831E-05-2.86167E-05 2.45685E-06-5.28919E-19-8.95877E-19
 -1       735 9.83978E-05-3.18163E-05-2.85353E-05 1.37502E-06-4.16724E-19-5.64448E-19
 -1       736 9.74225E-05-3.09034E-05-2.85084E-05 6.51419E-07-5.77091E-19-9.98221E-19
 -1       737 9.66684E-05-3.01426E-05-2.85112E-05 2.02266E-07 1.35278E-19-1.12376E-18
 -1       738 9.61238E-05-2.95612E-05-2.85269E-05-5.35006E-08 3.68506E-19-5.92455E-19
 -1       739 9.57528E-05-2.91464E-05-2.85456E-05-1.81646E-07 2.70512E-19-1.18878E-18
 -1       740 9.55136E-05-2.88685E-05-2.85622E-05-2.30556E-07 6.68869E-20-1.47145E-18
 -1       741 9.53680E-05-2.86937E-05-2.85747E-05-2.33558E-07 2.04252E-19-4.30925E-19
 -1       742 9.52850E-05-2.85919E-05-2.85828E-05-2.12452E-07-2.72098E-19 4.51700E-19
 -1       743 9.52418E-05-2.85385E-05-2.85871E-05-1.80833E-07 1.08949E-18 3.80548E-19
 -1       744 9.52224E-05-2.85156E-05-2.85886E-05-1.46728E-07 8.22490E-19 3.49816E-19
 -1       745 9.52163E-05-2.85104E-05-2.85882E-05-1.14534E-07 6.67546E-19 1.05786E-18
 -1       746 9.52170E-05-2.85148E-05-2.85867E-05-8.63629E-08 5.68037E-19 2.04755E-18
 -1       747 9.52205E-05-2.85233E-05-2.85845E-05-6.29490E-08 1.09413E-19 2.15629E-19
 -1       748 9.52249E-05-2.85330E-05-2.85822E-05-4.42418E-08-1.24655E-19-9.42400E-19
 -1       749 9.52288E-05-2.85422E-05-2.85800E-05-2.97850E-08-3.87513E-19-1.77407E-18
 -1       750 9.52321E-05-2.85501E-05-2.85780E-05-1.89497E-08 1.06974E-18-5.39323E-19
 -1       751 9.52346E-05-2.85565E-05-2.85763E-05-1.10734E-08-1.15027E-18 5.58015E-19
 -1       752 9.52363E-05-2.85615E-05-2.85749E-05-5.53413E-09-1.67706E-18 1.66815E-18
 -1       753 9.52373E-05-2.85652E-05-2.85738E-05-1.78569E-09-1.07120E-18 1.97327E-18
 -1       754 9.52380E-05-2.85678E-05-2.85729E-05 6.28907E-10 1.70907E-18 5.39216E-19
 -1       755 9.52383E-05-2.85696E-05-2.85723E-05 2.07792E-09 6.22235E-19-4.98021E-19
 -1       756 9.52384E-05-2.85708E-05-2.85718E-05 2.84901E-09-9.36868E-19 1.37358E-19
 -1       757 9.52383E-05-2.85715E-05-2.85715E-05 3.16030E-09 1.13390E-18 1.15915E-18
 -1       758 9.52382E-05-2.85719E-05-2.85713E-05 3.17228E-09 1.71492E-18 2.11687E-18
 -1       759 9.52380E-05-2.85721E-05-2.85711E-05 2.99771E-09 4.23125E-19 1.19879E-18
 -1       760 9.52379E-05-2.85722E-05-2.85710E-05 2.71464E-09 1.92293E-19 1.90451E-18
 -1       761 9.52377E-05-2.85723E-05-2.85709E-05 2.36904E-09 1.80082E-18 3.35607E-18
 -1       762 7.78473E-05-1.43749E-05-2.71939E-05 2.43689E-06 2.98926E-19 1.18697E-18
 -1       763 1.13025E-04-4.68316E-05-2.82522E-05 3.18072E-05 1.37057E-18 2.13128E-19
 -1       764 9.28323E-05-2.56072E-05-2.88104E-05 1.75441E-06 1.64214E-18-2.57770E-18
 -1       765 9.38421E-05-2.66486E-05-2.87969E-05 1.34075E-06 6.85718E-19-1.35017E-18
 -1       766 9.44239E-05-2.73051E-05-2.87650E-05 1.01435E-06-1.45234E-18-4.73319E-19
 -1       767 9.47894E-05-2.77585E-05-2.87274E-05 7.43551E-07-1.57856E-18-6.91382E-19
 -1       768 9.49997E-05-2.80494E-05-2.86929E-05 5.38374E-07-4.57963E-19 1.49462E-20
 -1       769 9.51181E-05-2.82354E-05-2.86639E-05 3.85970E-07 6.89298E-19 1.59750E-18
 -1       770 9.51828E-05-2.83542E-05-2.86408E-05 2.74194E-07 1.71708E-18 2.00503E-18
 -1       771 9.52167E-05-2.84301E-05-2.86228E-05 1.92879E-07 1.01045E-18 3.14652E-18
 -1       772 9.52336E-05-2.84789E-05-2.86091E-05 1.34063E-07 8.09684E-19 2.19099E-18
 -1       773 9.52411E-05-2.85106E-05-2.85988E-05 9.17750E-08-4.05646E-19 9.34559E-19
 -1       774 9.52437E-05-2.85304E-05-2.85914E-05 6.27591E-08-1.27955E-18 2.61779E-19
 -1       775 9.52442E-05-2.85444E-05-2.85856E-05 4.08562E-08-1.53150E-18-1.76599E-19
 -1       776 9.52435E-05-2.85538E-05-2.85813E-05 2.54699E-08 5.64682E-20 5.32125E-19
 -1       777 9.52425E-05-2.85601E-05-2.85782E-05 1.48025E-08 6.38414E-19 1.64517E-19
 -1       778 9.52415E-05-2.85644E-05-2.85759E-05 7.54945E-09 8.64394E-19 1.47875E-18
 -1       779 9.52406E-05-2.85673E-05-2.85743E-05 2.75024E-09 2.42107E-19 8.37376E-19
 -1       780 9.52398E-05-2.85692E-05-2.85731E-05-3.03699E-10 1.04927E-19 5.15475E-19
 -1       781 9.52392E-05-2.85704E-05-2.85723E-05-2.13320E-09 2.67331E-18-1.35905E-18
 -1       782 9.52387E-05-2.85712E-05-2.85718E-05-3.08876E-09-4.77267E-19-1.00470E-18
 -1       783 9.52383E-05-2.85717E-05-2.85714E-05-3.53847E-09 1.48603E-18 1.74689E-18
 -1       784 9.52380E-05-2.85720E-05-2.85712E-05-3.61427E-09 5.11822E-19 3.39315E-18
 -1       785 9.52378E-05-2.85721E-05-2.85710E-05-3.45849E-09 1.97008E-18 3.12315E-18
 -1       786 9.52376E-05-2.85721E-05-2.85709E-05-3.16871E-09 9.13783E-19 4.07052E-19
 -1       787 9.52375E-05-2.85721E-05-2.85709E-05-2.80811E-09-3.86324E-18-2.85012E-18
 -1       788 9.52374E-05-2.85721E-05-2.85708E-05-2.25770E-09-3.20877E-18-4.37131E-18
 -1       789 9.52385E-05-2.85729E-05-2.85710E-05-1.78050E-09-3.04126E-18 1.82606E-18
 -1       790 9.52389E-05-2.85732E-05-2.85710E-05 9.64570E-10 3.42042E-19-1.54267E-19
 -1       791 9.52391E-05-2.85733E-05-2.85711E-05 2.49067E-10-5.79900E-19 4.47746E-19
 -1       792 9.52381E-05-2.85726E-05-2.85709E-05 2.03006E-09 8.01616E-19 2.09945E-18
 -1       793 1.32513E-04-4.46961E-05-3.77248E-05-4.60095E-06 4.38670E-20 8.71987E-19
 -1       794 1.19482E-04-9.85695E-06-4.73233E-05 7.35722E-06-9.65273E-19-1.41026E-18
 -1       795 5.67464E-05-9.58134E-06-1.99063E-05 3.02009E-05 1.62892E-18-1.29255E-18
 -1       796 8.85062E-05-2.17764E-05-2.85981E-05 2.61865E-06-6.55024E-20-9.42984E-19
 -1       797 1.16531E-04-8.35527E-06-4.66851E-05-4.28921E-06-1.62863E-18-8.36390E-19
 -1       798 9.52386E-05-2.85730E-05-2.85710E-05 1.57427E-09-9.87787E-20-7.70656E-19
 -1       799 9.11740E-05-2.40479E-05-2.87679E-05 2.20961E-06 1.30686E-18-1.61859E-18
 -1       800 7.72031E-05-2.81682E-05-2.07876E-05-3.82562E-05 1.83601E-18 7.81335E-19
 -1       801 1.29565E-04-5.18186E-05-3.33240E-05 1.33253E-05 7.11789E-19 1.04957E-18
 -1       802 8.20290E-05-2.78747E-05-2.30353E-05 3.95393E-05 1.84426E-18-6.95666E-19
 -1       803 6.83102E-05-9.41070E-06-2.52020E-05 1.02699E-06-2.58982E-20 9.43264E-19
 -1       804 9.61409E-05-2.62140E-05-2.99609E-05 1.90572E-05 1.24820E-18-6.70432E-19
 -1       805 1.24284E-04-2.15228E-05-4.43198E-05 1.30853E-05-1.34758E-19-1.97310E-18
 -1       806 4.79470E-05-1.64498E-07-2.00696E-05 1.08118E-05 1.02727E-18-1.60251E-18
 -1       807 1.08127E-04-4.84113E-05-2.54777E-05-3.62106E-05 2.19434E-18-8.67282E-20
 -1       808 6.58055E-05-3.18222E-06-2.67916E-05 1.98872E-06 1.15355E-18-7.27605E-19
 -1       809 5.40316E-05-4.28427E-06-2.10961E-05-1.41240E-06-1.60345E-19 3.60015E-19
 -1       810 1.16404E-04-1.57816E-05-4.32882E-05-1.08883E-05-6.83595E-19-9.19891E-20
 -1       811 1.04280E-04-2.93883E-05-3.21066E-05-6.45380E-06 1.87826E-19-6.43609E-19
 -1       812 1.26384E-04-3.33128E-05-4.00125E-05 1.24872E-05 4.54731E-19-1.63311E-18
 -1       813 9.52389E-05-2.85732E-05-2.85710E-05-1.19204E-09-3.77448E-19-1.22051E-20
 -1       814 1.32839E-04-5.08906E-05-3.52057E-05-2.06776E-06 1.36526E-18-1.96690E-18
 -1       815 7.17315E-05-9.34324E-06-2.66844E-05 2.10592E-05 1.53350E-18-8.66319E-19
 -1       816 1.25275E-04-3.52130E-05-3.86689E-05-1.15917E-05-7.27026E-20 4.05510E-19
 -1       817 1.03353E-04-3.03040E-05-3.12898E-05 1.16121E-05 7.43633E-19-2.79975E-19
 -1       818 8.44353E-05-1.85111E-05-2.82150E-05 2.33743E-05 1.60879E-18-7.88842E-19
 -1       819 9.52391E-05-2.85733E-05-2.85710E-05-4.91942E-10-1.04043E-18 7.17728E-19
 -1       820 5.17933E-05-6.01794E-06-1.93395E-05-1.32028E-05-5.43752E-19 4.52369E-20
 -1       821 1.02258E-04-2.91857E-05-3.13119E-05-9.07535E-06-1.32551E-19-7.54975E-19
 -1       822 1.05970E-04-3.04663E-05-3.23587E-05-2.25985E-06 3.25070E-19-6.32521E-19
 -1       823 9.42763E-05-2.73421E-05-2.86861E-05 5.18919E-07-8.45201E-20 1.25025E-18
 -1       824 9.52385E-05-2.85728E-05-2.85710E-05-2.27528E-09-1.20144E-18 7.84087E-19
 -1       825 1.16055E-04-4.36760E-05-3.09869E-05 1.79605E-05 9.28256E-19 3.46649E-19
 -1       826 1.07223E-04-3.05459E-05-3.28613E-05-1.04180E-05-1.58322E-19-4.63546E-19
 -1       827 1.05277E-04-2.65970E-05-3.37222E-05-1.02940E-05-5.07252E-19-2.94540E-19
 -1       828 1.02443E-04-2.18652E-05-3.45322E-05-7.63147E-06-9.86145E-19-3.52777E-19
 -1       829 1.00326E-04-1.87069E-05-3.49786E-05-2.43838E-06-6.34922E-19-2.41853E-19
 -1       830 1.00229E-04-1.89390E-05-3.48454E-05 3.79007E-06-4.31234E-20-2.40369E-19
 -1       831 1.02150E-04-2.25884E-05-3.41053E-05 8.70709E-06-8.47686E-20-7.18688E-19
 -1       832 1.04762E-04-2.78280E-05-3.29688E-05 1.08348E-05-1.12387E-19-3.73273E-19
 -1       833 1.06612E-04-3.25483E-05-3.17397E-05 1.02532E-05-7.29309E-20-2.35195E-19
 -1       834 1.06898E-04-3.53720E-05-3.06573E-05 8.07018E-06-9.41296E-20-9.79727E-19
 -1       835 1.05879E-04-3.63146E-05-2.98135E-05 5.47459E-06-6.59670E-19-9.08721E-19
 -1       836 1.04058E-04-3.58525E-05-2.92312E-05 3.20801E-06-5.72013E-19 2.88806E-19
 -1       837 1.02005E-04-3.46487E-05-2.88675E-05 1.55780E-06-3.01206E-19-3.11276E-19
 -1       838 1.00107E-04-3.32263E-05-2.86633E-05 5.04971E-07-5.38898E-19 2.25893E-19
 -1       839 9.85444E-05-3.18960E-05-2.85638E-05-8.94178E-08-1.89087E-19 3.89746E-19
 -1       840 9.73603E-05-3.07982E-05-2.85267E-05-3.75877E-07-2.04004E-19 1.15952E-18
 -1       841 9.65196E-05-2.99662E-05-2.85229E-05-4.76175E-07 1.04105E-18 1.14817E-19
 -1       842 9.59558E-05-2.93766E-05-2.85339E-05-4.75066E-07 5.32411E-19 1.44819E-19
 -1       843 9.55981E-05-2.89833E-05-2.85492E-05-4.25719E-07-2.51874E-19 4.49335E-19
 -1       844 9.53846E-05-2.87367E-05-2.85634E-05-3.58791E-07 4.19699E-19-5.32854E-19
 -1       845 9.52666E-05-2.85931E-05-2.85743E-05-2.90454E-07-1.52043E-19-5.58801E-19
 -1       846 9.52085E-05-2.85180E-05-2.85816E-05-2.28315E-07 8.28204E-19 1.00220E-20
 -1       847 9.51859E-05-2.84859E-05-2.85857E-05-1.75241E-07 7.20700E-19 3.16856E-19
 -1       848 9.51827E-05-2.84791E-05-2.85872E-05-1.31657E-07 1.05865E-18 3.39085E-19
 -1       849 9.51889E-05-2.84857E-05-2.85871E-05-9.68445E-08 1.71212E-18-3.31890E-19
 -1       850 9.51986E-05-2.84984E-05-2.85858E-05-6.96395E-08-6.48563E-19 1.24217E-19
 -1       851 9.52087E-05-2.85127E-05-2.85840E-05-4.87823E-08-1.07031E-18-8.76606E-21
 -1       852 9.52177E-05-2.85264E-05-2.85820E-05-3.30831E-08-1.31693E-18-1.94761E-18
 -1       853 9.52249E-05-2.85383E-05-2.85800E-05-2.14879E-08 1.02263E-18-1.48403E-18
 -1       854 9.52303E-05-2.85480E-05-2.85781E-05-1.31000E-08 1.24017E-18-1.53520E-18
 -1       855 9.52342E-05-2.85556E-05-2.85765E-05-7.17982E-09 7.42504E-19 9.23355E-19
 -1       856 9.52367E-05-2.85613E-05-2.85752E-05-3.12370E-09-1.34518E-18 2.34026E-18
 -1       857 9.52383E-05-2.85654E-05-2.85741E-05-4.49238E-10-2.42494E-18 1.74893E-18
 -1       858 9.52392E-05-2.85683E-05-2.85732E-05 1.22170E-09 2.62243E-19-5.21928E-19
 -1       859 9.52395E-05-2.85702E-05-2.85726E-05 2.18081E-09 2.30725E-19-6.82679E-19
 -1       860 9.52395E-05-2.85714E-05-2.85721E-05 2.64897E-09-1.71221E-19 3.92851E-19
 -1       861 9.52394E-05-2.85721E-05-2.85717E-05 2.78979E-09 1.66476E-18-6.24316E-19
 -1       862 9.52391E-05-2.85724E-05-2.85714E-05 2.72196E-09 1.30269E-18-1.38247E-18
 -1       863 9.52388E-05-2.85726E-05-2.85712E-05 2.52811E-09 2.62469E-18 7.76081E-19
 -1       864 9.52384E-05-2.85726E-05-2.85711E-05 2.30398E-09 7.71662E-20 2.34740E-18
 -1       865 9.37062E-05-2.67676E-05-2.86881E-05 5.77458E-07-5.85254E-19 2.21137E-18
 -1       866 8.10514E-05-1.75598E-05-2.72091E-05-3.56066E-06 7.57438E-19-7.11219E-19
 -1       867 9.27712E-05-2.58890E-05-2.86639E-05 5.66150E-07 3.06997E-19 1.29527E-18
 -1       868 9.46566E-05-2.77535E-05-2.86728E-05 4.32619E-07-1.65004E-18-2.16905E-20
 -1       869 9.48909E-05-2.80271E-05-2.86559E-05 3.44442E-07-6.84605E-19 6.77456E-19
 -1       870 9.50338E-05-2.82084E-05-2.86395E-05 2.65724E-07 6.85255E-19 1.72333E-18
 -1       871 9.51202E-05-2.83286E-05-2.86250E-05 1.99956E-07 2.50362E-19 2.56745E-18
 -1       872 9.51718E-05-2.84084E-05-2.86129E-05 1.47200E-07 1.66202E-18 3.05688E-18
 -1       873 9.52023E-05-2.84617E-05-2.86031E-05 1.06106E-07 8.53729E-19 3.81738E-18
 -1       874 9.52195E-05-2.84961E-05-2.85957E-05 7.60589E-08 3.24188E-19 2.52673E-18
 -1       875 9.52300E-05-2.85209E-05-2.85896E-05 5.21608E-08-3.43151E-19 6.00778E-19
 -1       876 9.52358E-05-2.85379E-05-2.85848E-05 3.45903E-08 4.00784E-20-1.50609E-18
 -1       877 9.52390E-05-2.85495E-05-2.85812E-05 2.18895E-08 2.60106E-19-5.56804E-19
 -1       878 9.52405E-05-2.85575E-05-2.85784E-05 1.28994E-08 6.13515E-19-1.92887E-20
 -1       879 9.52411E-05-2.85630E-05-2.85763E-05 6.69142E-09 1.14467E-19 5.58055E-19
 -1       880 9.52412E-05-2.85667E-05-2.85748E-05 2.53447E-09 8.30839E-19 6.06398E-19
 -1       881 9.52409E-05-2.85691E-05-2.85736E-05-1.34159E-10 2.63107E-18 4.09495E-21
 -1       882 9.52406E-05-2.85706E-05-2.85728E-05-1.68841E-09 2.38064E-18-1.27653E-19
 -1       883 9.52401E-05-2.85716E-05-2.85722E-05-2.60198E-09-5.05894E-20-1.99816E-18
 -1       884 9.52397E-05-2.85722E-05-2.85718E-05-3.00934E-09 6.58901E-19-9.25672E-19
 -1       885 9.52392E-05-2.85725E-05-2.85715E-05-3.08758E-09 1.63343E-18-7.20280E-19
 -1       886 9.52388E-05-2.85726E-05-2.85712E-05-2.96067E-09 2.19743E-18-4.29875E-20
 -1       887 9.52385E-05-2.85726E-05-2.85711E-05-2.71563E-09 2.65492E-19 4.59576E-20
 -1       888 9.52395E-05-2.85733E-05-2.85712E-05 7.06845E-10-4.80885E-19 1.06954E-18
 -1       889 9.13183E-05-2.46255E-05-2.85828E-05 3.84391E-07 1.27085E-18 3.31133E-20
 -1       890 1.10588E-04-1.12667E-05-4.27287E-05 2.82903E-06-7.34007E-19-6.76291E-19
 -1       891 1.24765E-04-4.50129E-05-3.42051E-05 2.02402E-06 3.09379E-19 4.38944E-19
 -1       892 7.41823E-05-1.40343E-05-2.57466E-05-7.49681E-06-2.97870E-20-1.22155E-18
 -1       893 8.91057E-05-2.28627E-05-2.83902E-05-1.38856E-07 8.09542E-19-1.08244E-18
 -1       894 1.19037E-04-5.07458E-05-2.92229E-05-2.12008E-05 1.89778E-18-3.94520E-19
 -1       895 8.58134E-05-2.05073E-05-2.79888E-05-1.29552E-06 6.26001E-19-5.27558E-19
 -1       896 9.77347E-05-3.27643E-05-2.77621E-05 2.92948E-05 1.56361E-18-3.78624E-19
 -1       897 7.34276E-05-1.59660E-05-2.45232E-05 3.00713E-05 1.72540E-18-8.60327E-19
 -1       898 9.62616E-05-3.73772E-05-2.51421E-05-3.10116E-05 1.57291E-18-1.86074E-19
 -1       899 7.20666E-05-1.90631E-05-2.25989E-05-2.58554E-05 2.53091E-19-2.92511E-19
 -1       900 1.07380E-04-3.21851E-05-3.22291E-05-9.18691E-06-1.50423E-21-4.89290E-19
 -1       901 1.13446E-04-1.69540E-05-4.14980E-05 9.98877E-06-4.61276E-19-5.66313E-19
 -1       902 1.06160E-04-3.12455E-05-3.20964E-05 3.93124E-06 3.77679E-19-4.80385E-19
 -1       903 6.53032E-05-1.01301E-05-2.35182E-05-1.01340E-05-1.25569E-19-9.75507E-19
 -1       904 9.52391E-05-2.85731E-05-2.85711E-05-1.68244E-09-1.45566E-18 2.80995E-18
 -1       905 1.08921E-04-1.32378E-05-4.11318E-05-4.37430E-06-8.26969E-19 3.98710E-19
 -1       906 1.25898E-04-4.16184E-05-3.61509E-05 7.89130E-06 6.81279E-19-5.87040E-19
 -1       907 1.16105E-04-2.55229E-05-3.89057E-05 1.26077E-05-2.18846E-19-1.94541E-19
 -1       908 1.24159E-04-5.00089E-05-3.18014E-05-7.83700E-06 1.22941E-18-7.97628E-19
 -1       909 9.52392E-05-2.85731E-05-2.85712E-05 1.46258E-09 8.85773E-19-2.50650E-20
 -1       910 9.52396E-05-2.85734E-05-2.85712E-05-1.14101E-10-4.84189E-19 2.35360E-18
 -1       911 1.16984E-04-2.60223E-05-3.90647E-05-1.28715E-05-3.37577E-19 1.55120E-19
 -1       912 6.69671E-05-1.35008E-05-2.28491E-05-1.85133E-05-6.14132E-20-1.98040E-18
 -1       913 1.08855E-04-3.65917E-05-3.10292E-05 1.50418E-05 8.02119E-19 6.23694E-21
 -1       914 5.97546E-05-4.79288E-06-2.34471E-05 1.89936E-05 1.52235E-18-9.44706E-19
 -1       915 1.06813E-04-3.18967E-05-3.21069E-05-7.61160E-06 1.30396E-19-5.14429E-19
 -1       916 1.10461E-04-3.43700E-05-3.26098E-05-4.08524E-06 2.05867E-19-6.78463E-19
 -1       917 1.22616E-04-4.01015E-05-3.53564E-05-6.46539E-06 1.90103E-19 2.34496E-19
 -1       918 9.43404E-05-2.75197E-05-2.86374E-05 1.41054E-07 4.08706E-19 2.46610E-18
 -1       919 1.09648E-04-2.45053E-05-3.64937E-05-1.12290E-05-6.88562E-19 1.45435E-19
 -1       920 1.04241E-04-1.53473E-05-3.81346E-05 5.07005E-07-2.63105E-19 4.29833E-19
 -1       921 1.05723E-04-1.86095E-05-3.73725E-05 7.83414E-06-6.02805E-19 1.68841E-19
 -1       922 1.09181E-04-2.58030E-05-3.57464E-05 1.15910E-05-6.17350E-20-1.19188E-20
 -1       923 1.11982E-04-3.28956E-05-3.39062E-05 1.13537E-05 9.37998E-20-1.34964E-19
 -1       924 1.12422E-04-3.74818E-05-3.21079E-05 8.17032E-06-5.39194E-19-1.58698E-19
 -1       925 1.10725E-04-3.91393E-05-3.06778E-05 4.42874E-06-1.13795E-20 7.06627E-20
 -1       926 1.07811E-04-3.84645E-05-2.97193E-05 1.54270E-06 2.88127E-19 4.33411E-19
 -1       927 1.04663E-04-3.67093E-05-2.91233E-05-2.64784E-07-5.89598E-19 8.29560E-19
 -1       928 1.01850E-04-3.46865E-05-2.87846E-05-1.16528E-06-6.92012E-20 3.38815E-19
 -1       929 9.96133E-05-3.28533E-05-2.86114E-05-1.46010E-06 5.80050E-19 1.42210E-18
 -1       930 9.79668E-05-3.13799E-05-2.85372E-05-1.41625E-06 3.31960E-19 2.23668E-18
 -1       931 9.68301E-05-3.02910E-05-2.85167E-05-1.21838E-06 3.81192E-20 1.75634E-18
 -1       932 9.60873E-05-2.95359E-05-2.85220E-05-9.77974E-07 4.58219E-19 1.62823E-18
 -1       933 9.56282E-05-2.90420E-05-2.85369E-05-7.50859E-07 3.43909E-20 3.22327E-19
 -1       934 9.53622E-05-2.87382E-05-2.85531E-05-5.59616E-07 6.50841E-19 6.54629E-19
 -1       935 9.52210E-05-2.85651E-05-2.85668E-05-4.08664E-07 2.04039E-19 1.08942E-18
 -1       936 9.51565E-05-2.84774E-05-2.85768E-05-2.94159E-07 4.35194E-19 6.78846E-19
 -1       937 9.51364E-05-2.84425E-05-2.85831E-05-2.09460E-07 1.00287E-18 9.34840E-20
 -1       938 9.51398E-05-2.84382E-05-2.85864E-05-1.47784E-07 4.72481E-19-1.66741E-19
 -1       939 9.51539E-05-2.84499E-05-2.85874E-05-1.03294E-07 5.62510E-19-5.26591E-19
 -1       940 9.51715E-05-2.84685E-05-2.85870E-05-7.13859E-08 1.08995E-18-5.98093E-19
 -1       941 9.51886E-05-2.84888E-05-2.85856E-05-4.85916E-08-4.67473E-19-6.05943E-19
 -1       942 9.52034E-05-2.85078E-05-2.85838E-05-3.23738E-08-9.19238E-19 6.02592E-19
 -1       943 9.52152E-05-2.85243E-05-2.85818E-05-2.09039E-08-3.47659E-19 1.97295E-18
 -1       944 9.52241E-05-2.85378E-05-2.85799E-05-1.28542E-08 1.09482E-18 1.12457E-18
 -1       945 9.52306E-05-2.85483E-05-2.85781E-05-7.28168E-09 8.87802E-19 4.01722E-19
 -1       946 9.52350E-05-2.85563E-05-2.85766E-05-3.49895E-09 1.72500E-18 9.12751E-19
 -1       947 9.52378E-05-2.85622E-05-2.85753E-05-1.00016E-09-2.73433E-18 1.21927E-18
 -1       948 9.52394E-05-2.85663E-05-2.85742E-05 5.83027E-10-2.60370E-18 8.23107E-19
 -1       949 9.52402E-05-2.85691E-05-2.85734E-05 1.52185E-09 4.64164E-19 1.51682E-18
 -1       950 9.52405E-05-2.85709E-05-2.85727E-05 2.01619E-09 1.14790E-20 4.68875E-20
 -1       951 9.52404E-05-2.85720E-05-2.85722E-05 2.21145E-09 1.16257E-18 1.04224E-18
 -1       952 9.52400E-05-2.85726E-05-2.85718E-05 2.21218E-09 1.14931E-18 1.45786E-18
 -1       953 9.52396E-05-2.85728E-05-2.85715E-05 2.09919E-09 2.26573E-18 1.58249E-18
 -1       954 9.31664E-05-2.64516E-05-2.85921E-05-2.40319E-07-5.00026E-19 2.03000E-18
 -1       955 1.17999E-04-4.11397E-05-3.29526E-05 3.08008E-06 4.31300E-19 1.40445E-19
 -1       956 9.48713E-05-2.80683E-05-2.86298E-05 1.78047E-07 1.66714E-20 1.08295E-18
 -1       957 9.50066E-05-2.82236E-05-2.86213E-05 1.56184E-07 4.31583E-19 2.68699E-18
 -1       958 9.50936E-05-2.83309E-05-2.86126E-05 1.28029E-07 9.32795E-19 2.06956E-18
 -1       959 9.51492E-05-2.84050E-05-2.86047E-05 1.00131E-07 1.02954E-18 1.67581E-18
 -1       960 9.51834E-05-2.84544E-05-2.85981E-05 7.64652E-08 1.67761E-18 2.50476E-18
 -1       961 9.52065E-05-2.84911E-05-2.85923E-05 5.56185E-08 1.12236E-18 1.43927E-18
 -1       962 9.52211E-05-2.85167E-05-2.85876E-05 3.90666E-08 8.18655E-19 9.56186E-20
 -1       963 9.52302E-05-2.85348E-05-2.85837E-05 2.63557E-08-1.45738E-18 7.40442E-19
 -1       964 9.52357E-05-2.85474E-05-2.85807E-05 1.68904E-08 9.51243E-19 2.53235E-19
 -1       965 9.52389E-05-2.85563E-05-2.85783E-05 1.00538E-08 4.64075E-19-9.88100E-19
 -1       966 9.52406E-05-2.85624E-05-2.85764E-05 5.26271E-09 1.28255E-18-2.20635E-18
 -1       967 9.52414E-05-2.85665E-05-2.85750E-05 2.02484E-09-1.03794E-19-1.16843E-18
 -1       968 9.52416E-05-2.85691E-05-2.85739E-05 1.09455E-11 3.14513E-18 1.13001E-18
 -1       969 9.52414E-05-2.85709E-05-2.85730E-05-1.29815E-09 2.47521E-18 1.02702E-18
 -1       970 9.52410E-05-2.85720E-05-2.85724E-05-2.01828E-09 5.63415E-19-3.60851E-19
 -1       971 9.52405E-05-2.85726E-05-2.85719E-05-2.34035E-09 7.04013E-19-5.54633E-19
 -1       972 9.52399E-05-2.85729E-05-2.85716E-05-2.40262E-09 8.29995E-19 2.57642E-18
 -1       973 9.52394E-05-2.85730E-05-2.85713E-05-2.30116E-09 1.61578E-18 3.64660E-18
 -1       974 9.21162E-05-2.55883E-05-2.85119E-05-7.72272E-07-1.07044E-19 1.81905E-18
 -1       975 9.06127E-05-2.44607E-05-2.83506E-05-1.75394E-06-1.28884E-19 9.06780E-19
 -1       976 9.46619E-05-2.78436E-05-2.86365E-05 1.80871E-07-1.36375E-18 3.39545E-20
 -1       977 9.38670E-05-2.70721E-05-2.86264E-05 2.26529E-08-4.76199E-19 2.51555E-18
 -1       978 8.67088E-05-2.77109E-05-2.52693E-05-2.38558E-05 7.97212E-19 3.50030E-19
 -1       979 1.22315E-04-4.51150E-05-3.30953E-05 2.42315E-06 3.57318E-19 5.64523E-19
 -1       980 1.12925E-04-3.45357E-05-3.36118E-05-9.07103E-06-1.65116E-19-6.56397E-19
 -1       981 1.07238E-04-4.19811E-05-2.79712E-05-1.98404E-05 3.71920E-19 7.37911E-20
 -1       982 8.22000E-05-2.01425E-05-2.65953E-05-1.09156E-05 5.50530E-20-8.55673E-19
 -1       983 9.52393E-05-2.85730E-05-2.85712E-05-1.99541E-09 1.28832E-18 3.26605E-18
 -1       984 9.52395E-05-2.85733E-05-2.85712E-05-9.34072E-10-2.20623E-18-7.25431E-19
 -1       985 1.12149E-04-3.50687E-05-3.30446E-05-6.46499E-06 3.63314E-20-5.71721E-19
 -1       986 1.12308E-04-3.09399E-05-3.48878E-05-1.13552E-05 5.84829E-20-3.03924E-19
 -1       987 8.85282E-05-2.30771E-05-2.80498E-05-3.47241E-06 3.59288E-19-7.51117E-20
 -1       988 1.05790E-04-1.77424E-05-3.77603E-05-7.07015E-06-7.42839E-19 7.15476E-19
 -1       989 9.86190E-05-3.48518E-05-2.73245E-05-1.85076E-05 6.00889E-19 3.77718E-19
 -1       990 1.14412E-04-4.52446E-05-2.96530E-05-1.14485E-05-1.88781E-19-1.19465E-19
 -1       991 9.52401E-05-2.85733E-05-2.85715E-05 3.55711E-10 2.01608E-19 2.74057E-18
 -1       992 9.52400E-05-2.85732E-05-2.85715E-05 1.26733E-09 7.59306E-19 1.76061E-19
 -1       993 1.17078E-04-3.20154E-05-3.65173E-05 1.17755E-05 3.17600E-19 1.88519E-19
 -1       994 8.57748E-05-2.15604E-05-2.75160E-05-6.34638E-06 3.95794E-19-6.86331E-19
 -1       995 8.03454E-05-2.19993E-05-2.49279E-05-2.07353E-05 2.10912E-19-4.86481E-19
 -1       996 1.11871E-04-4.14907E-05-3.01629E-05-1.37653E-06 1.95391E-19 5.19024E-19
 -1       997 1.07264E-04-3.89051E-05-2.92986E-05-3.30091E-06-3.57043E-19 1.40396E-19
 -1       998 1.03314E-04-3.60342E-05-2.88328E-05-3.84398E-06-2.78808E-19 3.46806E-20
 -1       999 1.00340E-04-3.35924E-05-2.86042E-05-3.58763E-06 7.47246E-19 9.48945E-19
 -1      1000 9.82451E-05-3.17144E-05-2.85121E-05-2.98906E-06 8.36351E-19 5.84858E-19
 -1      1001 9.68711E-05-3.03922E-05-2.84903E-05-2.31210E-06 4.47137E-19 9.71533E-19
 -1      1002 9.60165E-05-2.95154E-05-2.85001E-05-1.70282E-06 1.84960E-19 1.08126E-18
 -1      1003 9.55163E-05-2.89673E-05-2.85208E-05-1.20890E-06-8.72599E-19 4.91534E-21
 -1      1004 9.52448E-05-2.86462E-05-2.85422E-05-8.35084E-07 5.01565E-20-1.55192E-19
 -1      1005 9.51145E-05-2.84744E-05-2.85600E-05-5.64911E-07 1.04913E-18-9.57467E-19
 -1      1006 9.50668E-05-2.83962E-05-2.85731E-05-3.76056E-07 1.67914E-19 6.84369E-19
 -1      1007 9.50641E-05-2.83737E-05-2.85816E-05-2.47298E-07-1.26455E-19-1.25105E-19
 -1      1008 9.50833E-05-2.83818E-05-2.85864E-05-1.61103E-07 5.03894E-19-2.81713E-19
 -1      1009 9.51110E-05-2.84047E-05-2.85884E-05-1.04153E-07-9.53371E-20 6.78377E-19
 -1      1010 9.51396E-05-2.84330E-05-2.85886E-05-6.68222E-08 8.42953E-19 1.52122E-18
 -1      1011 9.51654E-05-2.84613E-05-2.85875E-05-4.24814E-08-3.02083E-19 7.07577E-19
 -1      1012 9.51870E-05-2.84870E-05-2.85857E-05-2.66217E-08 1.95221E-19 1.28279E-18
 -1      1013 9.52040E-05-2.85087E-05-2.85837E-05-1.62882E-08-1.29111E-19 1.39457E-18
 -1      1014 9.52167E-05-2.85263E-05-2.85816E-05-9.58310E-09 1.89262E-19 1.59485E-18
 -1      1015 9.52260E-05-2.85401E-05-2.85797E-05-5.21174E-09 5.90037E-19 1.16877E-18
 -1      1016 9.52324E-05-2.85506E-05-2.85779E-05-2.40430E-09 2.10306E-18 2.20835E-18
 -1      1017 9.52366E-05-2.85583E-05-2.85764E-05-6.21606E-10-5.39682E-19 1.52812E-18
 -1      1018 9.52391E-05-2.85638E-05-2.85751E-05 4.73548E-10-2.28081E-18 2.48590E-18
 -1      1019 9.52405E-05-2.85676E-05-2.85741E-05 1.10767E-09-8.50171E-19 1.08131E-18
 -1      1020 9.52411E-05-2.85701E-05-2.85733E-05 1.43479E-09 1.99170E-20-1.30443E-21
 -1      1021 9.52411E-05-2.85716E-05-2.85726E-05 1.56086E-09 9.47588E-19 1.23064E-18
 -1      1022 9.52409E-05-2.85725E-05-2.85721E-05 1.56106E-09 1.99407E-18 1.01982E-18
 -1      1023 9.52405E-05-2.85730E-05-2.85718E-05 1.43873E-09 2.13255E-18 1.53747E-18
 -1      1024 9.50922E-05-2.83510E-05-2.86034E-05 6.78825E-08 7.13447E-19 1.72667E-20
 -1      1025 9.50162E-05-2.82633E-05-2.86084E-05 6.99314E-08 2.88166E-19 6.86966E-19
 -1      1026 9.49045E-05-2.81424E-05-2.86124E-05 5.53818E-08-8.45486E-19 5.85229E-19
 -1      1027 9.51417E-05-2.84119E-05-2.85985E-05 5.89605E-08 1.07769E-18-5.95976E-19
 -1      1028 9.51773E-05-2.84587E-05-2.85937E-05 4.72545E-08 1.34556E-18 7.95837E-19
 -1      1029 9.52011E-05-2.84926E-05-2.85894E-05 3.58317E-08 1.20203E-18 9.51255E-19
 -1      1030 9.52170E-05-2.85172E-05-2.85856E-05 2.58890E-08-4.54537E-19 7.96731E-19
 -1      1031 9.52273E-05-2.85348E-05-2.85825E-05 1.78035E-08 1.05403E-19 5.92345E-19
 -1      1032 9.52340E-05-2.85474E-05-2.85799E-05 1.15910E-08 2.35209E-18 6.71683E-19
 -1      1033 9.52380E-05-2.85564E-05-2.85778E-05 6.98261E-09 1.19351E-18-7.60224E-19
 -1      1034 9.52403E-05-2.85626E-05-2.85762E-05 3.70468E-09-5.33817E-19 2.90680E-19
 -1      1035 9.52414E-05-2.85666E-05-2.85749E-05 1.55357E-09 3.85534E-19 1.36984E-19
 -1      1036 9.52419E-05-2.85695E-05-2.85739E-05 5.96744E-11 2.64932E-18 1.18932E-18
 -1      1037 9.52418E-05-2.85713E-05-2.85731E-05-8.51502E-10 1.72142E-18 2.63355E-18
 -1      1038 9.52414E-05-2.85724E-05-2.85725E-05-1.35437E-09 1.07882E-18 2.49120E-18
 -1      1039 9.52409E-05-2.85729E-05-2.85720E-05-1.57883E-09 3.37053E-19 2.27908E-19
 -1      1040 9.52403E-05-2.85732E-05-2.85716E-05-1.62522E-09 1.05685E-18-8.78822E-19
 -1      1041 9.30879E-05-2.65907E-05-2.84987E-05-1.31765E-06-8.06655E-19 1.93694E-19
 -1      1042 9.22544E-05-2.60271E-05-2.83829E-05-2.39488E-06-5.57633E-19 4.07472E-19
 -1      1043 9.52401E-05-2.85734E-05-2.85715E-05-5.38117E-10 6.82980E-19 1.18560E-18
 -1      1044 8.82889E-05-2.62778E-05-2.65636E-05-1.68760E-05 1.57321E-19 1.98813E-19
 -1      1045 8.87959E-05-2.50564E-05-2.73114E-05-1.10416E-05-6.60405E-19-1.42918E-19
 -1      1046 9.12364E-05-2.54673E-05-2.81855E-05-4.12428E-06 9.86516E-21 9.79257E-19
 -1      1047 9.41734E-05-2.74530E-05-2.85946E-05-3.06462E-07 3.96047E-19 8.03029E-19
 -1      1048 9.52406E-05-2.85732E-05-2.85718E-05 4.84350E-10 4.22052E-19 2.46978E-18
 -1      1049 1.16291E-04-4.25411E-05-3.16234E-05 2.22618E-06 8.49630E-20 2.39513E-19
 -1      1050 9.45091E-05-2.77541E-05-2.86093E-05-9.72582E-08 8.66866E-19 7.94985E-19
 -1      1051 9.52407E-05-2.85733E-05-2.85717E-05-4.60791E-10 1.42136E-18 8.70662E-19
 -1      1052 1.06538E-04-3.99398E-05-2.84827E-05-1.40300E-05 1.35061E-19 6.94741E-19
 -1      1053 9.37093E-05-2.70657E-05-2.85616E-05-6.82101E-07-1.18188E-18 9.79260E-20
 -1      1054 9.01149E-05-2.50907E-05-2.78661E-05-6.80353E-06 1.56905E-19 9.94909E-19
 -1      1055 9.47427E-05-2.79777E-05-2.86136E-05 8.47301E-09-6.94866E-19-8.90032E-19
 -1      1056 1.17246E-04-4.54476E-05-3.07798E-05-4.78618E-06 2.98738E-19 2.95490E-19
 -1      1057 9.52398E-05-2.85733E-05-2.85714E-05-1.32118E-09 7.19994E-19-1.30868E-18
 -1      1058 1.10792E-04-4.19920E-05-2.94887E-05-7.61032E-06-1.60311E-19 9.03974E-20
 -1      1059 1.04245E-04-3.71895E-05-2.87442E-05-7.76498E-06-4.38624E-19 1.34243E-18
 -1      1060 1.00431E-04-3.39466E-05-2.84947E-05-6.61311E-06 3.97504E-19 1.75112E-18
 -1      1061 9.79404E-05-3.16296E-05-2.84184E-05-5.12775E-06 4.81930E-19 1.38984E-18
 -1      1062 9.64468E-05-3.01246E-05-2.84235E-05-3.75390E-06 1.81978E-19 9.22164E-19
 -1      1063 9.56012E-05-2.92014E-05-2.84563E-05-2.63137E-06-1.04308E-19-1.05507E-19
 -1      1064 9.51672E-05-2.86783E-05-2.84946E-05-1.77960E-06-1.06601E-18-7.14472E-19
 -1      1065 9.49714E-05-2.84057E-05-2.85277E-05-1.16776E-06-7.10466E-19-6.36075E-19
 -1      1066 9.49094E-05-2.82852E-05-2.85530E-05-7.45929E-07 2.82137E-19-7.59366E-19
 -1      1067 9.49171E-05-2.82523E-05-2.85705E-05-4.64723E-07 9.74664E-19-2.07597E-18
 -1      1068 9.49568E-05-2.82662E-05-2.85816E-05-2.82622E-07 8.60990E-19-1.70085E-18
 -1      1069 9.50074E-05-2.83024E-05-2.85878E-05-1.67727E-07-1.45202E-19-1.27467E-18
 -1      1070 9.50576E-05-2.83463E-05-2.85905E-05-9.69762E-08 1.25894E-18-1.02129E-18
 -1      1071 9.51024E-05-2.83903E-05-2.85909E-05-5.44765E-08 1.38122E-18 8.10553E-19
 -1      1072 9.51397E-05-2.84300E-05-2.85898E-05-2.95207E-08-3.28523E-19 1.00661E-18
 -1      1073 9.51693E-05-2.84641E-05-2.85880E-05-1.51980E-08-1.98011E-19-1.21339E-19
 -1      1074 9.51920E-05-2.84920E-05-2.85857E-05-7.24271E-09-1.28732E-18-7.99224E-19
 -1      1075 9.52089E-05-2.85143E-05-2.85834E-05-2.79311E-09-1.64450E-19-6.91225E-19
 -1      1076 9.52213E-05-2.85318E-05-2.85812E-05-4.73433E-10 1.75295E-19 3.94385E-19
 -1      1077 9.52296E-05-2.85447E-05-2.85792E-05 5.44996E-10 1.16643E-18 2.11779E-19
 -1      1078 9.52351E-05-2.85543E-05-2.85775E-05 1.00058E-09 1.01866E-19 8.87783E-19
 -1      1079 9.52385E-05-2.85611E-05-2.85760E-05 1.14534E-09-9.08101E-19 2.94293E-19
 -1      1080 9.52405E-05-2.85658E-05-2.85748E-05 1.13830E-09-1.93505E-18 1.19815E-18
 -1      1081 9.52414E-05-2.85690E-05-2.85739E-05 1.06298E-09 5.14445E-20 1.17526E-18
 -1      1082 9.52416E-05-2.85711E-05-2.85731E-05 9.60499E-10 5.58778E-19 1.02283E-18
 -1      1083 9.52415E-05-2.85723E-05-2.85725E-05 8.56936E-10 2.23975E-18 6.94799E-19
 -1      1084 9.50441E-05-2.83120E-05-2.85995E-05 7.76695E-09 1.60929E-18-1.58641E-18
 -1      1085 9.51026E-05-2.83766E-05-2.85969E-05 2.11750E-08 9.25891E-19-2.14381E-18
 -1      1086 9.49602E-05-2.82249E-05-2.86009E-05-2.63684E-08 5.18285E-19-9.89439E-19
 -1      1087 9.51789E-05-2.84687E-05-2.85901E-05 2.26982E-08 9.33530E-19-1.36751E-18
 -1      1088 9.52011E-05-2.84986E-05-2.85868E-05 1.86766E-08-6.11574E-19 5.37968E-19
 -1      1089 9.52167E-05-2.85210E-05-2.85838E-05 1.43190E-08 9.08452E-19-6.10409E-19
 -1      1090 9.52270E-05-2.85374E-05-2.85812E-05 1.02090E-08 1.30431E-18 4.66538E-19
 -1      1091 9.52337E-05-2.85492E-05-2.85791E-05 6.80778E-09 2.70168E-18-7.95776E-20
 -1      1092 9.52379E-05-2.85577E-05-2.85772E-05 4.23048E-09-3.61740E-19-9.29745E-19
 -1      1093 9.52402E-05-2.85633E-05-2.85758E-05 2.43161E-09 1.19473E-19-1.40123E-18
 -1      1094 9.52415E-05-2.85674E-05-2.85746E-05 1.10339E-09-9.65682E-19-8.89097E-19
 -1      1095 9.52420E-05-2.85700E-05-2.85737E-05 2.27213E-10 1.97188E-18 1.73882E-18
 -1      1096 9.52419E-05-2.85717E-05-2.85729E-05-3.17301E-10 1.73118E-18 1.74637E-18
 -1      1097 9.52415E-05-2.85727E-05-2.85724E-05-6.35604E-10 1.81582E-18 4.09838E-19
 -1      1098 9.51472E-05-2.84290E-05-2.85935E-05 2.46091E-08 2.44654E-19-1.90417E-18
 -1      1099 9.51043E-05-3.07727E-05-2.75730E-05-1.36499E-05-1.52485E-19 6.40957E-19
 -1      1100 9.37073E-05-2.86020E-05-2.79031E-05-9.28582E-06-2.25148E-19 4.10788E-19
 -1      1101 9.36600E-05-2.73127E-05-2.84357E-05-2.41795E-06-3.92696E-19-2.62357E-20
 -1      1102 9.52412E-05-2.85730E-05-2.85721E-05 1.20226E-10 2.16124E-18 3.05033E-18
 -1      1103 9.44979E-05-2.78123E-05-2.85798E-05-4.55996E-07-6.95021E-19-7.75864E-19
 -1      1104 9.48469E-05-2.81146E-05-2.85996E-05-9.60447E-08-1.75824E-18-4.16523E-19
 -1      1105 9.42526E-05-2.76284E-05-2.85537E-05-8.37864E-07-7.22960E-19-1.60790E-18
 -1      1106 9.32290E-05-2.75829E-05-2.81362E-05-6.20099E-06-2.48131E-19-1.47010E-19
 -1      1107 9.39637E-05-2.74454E-05-2.85086E-05-1.45452E-06-7.74169E-19-2.69265E-19
 -1      1108 9.34122E-05-2.73280E-05-2.83228E-05-3.89526E-06-3.53633E-19 1.47102E-19
 -1      1109 9.52190E-05-2.85274E-05-2.85822E-05 4.81312E-09 6.46479E-19-2.59991E-19
 -1      1110 9.46953E-05-2.79771E-05-2.85937E-05-2.26476E-07 4.50228E-19 1.13888E-18
 -1      1111 9.52284E-05-2.85418E-05-2.85800E-05 4.03016E-09 1.19148E-18 2.09110E-19
 -1      1112 9.52345E-05-2.85523E-05-2.85781E-05 3.04631E-09 1.68048E-18 7.39689E-19
 -1      1113 9.52383E-05-2.85598E-05-2.85765E-05 2.16220E-09-7.47308E-19 8.49805E-19
 -1      1114 9.52405E-05-2.85650E-05-2.85752E-05 1.45569E-09-1.16425E-18 8.33579E-19
 -1      1115 9.52416E-05-2.85685E-05-2.85742E-05 9.30103E-10-5.13625E-19 9.83233E-19
 -1      1116 9.52419E-05-2.85708E-05-2.85733E-05 5.57217E-10 1.16727E-18 2.12825E-18
 -1      1117 9.52417E-05-2.85722E-05-2.85727E-05 3.02795E-10 2.00560E-18 3.25427E-18
 -1      1118 1.17583E-04 2.57604E-10-4.20297E-05-4.25774E-05-2.02441E-19 3.66278E-18
 -1      1119 8.86765E-05 7.04738E-11-3.73192E-05-2.55702E-05-8.52327E-20-5.52213E-19
 -1      1120 8.45194E-05 4.30658E-11-3.59648E-05-1.93405E-05-4.94455E-20-2.00129E-18
 -1      1121 8.34375E-05 3.75361E-11-3.54895E-05-1.49027E-05-2.13743E-20-2.51222E-18
 -1      1122 8.32050E-05 3.65601E-11-3.53430E-05-1.07192E-05-6.57774E-21-2.60872E-18
 -1      1123 8.30163E-05 3.64689E-11-3.52303E-05-6.55777E-06 1.68083E-21-2.50173E-18
 -1      1124 8.24668E-05 3.55573E-11-3.49922E-05-2.41536E-06 9.79382E-21-2.34583E-18
 -1      1125 8.13759E-05 3.25382E-11-3.45612E-05 1.54047E-06 2.48287E-20-2.21179E-18
 -1      1126 7.97855E-05 2.67019E-11-3.39617E-05 4.95484E-06 2.60463E-20-2.07411E-18
 -1      1127 7.79904E-05 1.83555E-11-3.33128E-05 7.48527E-06 2.88521E-20-1.96437E-18
 -1      1128 7.65331E-05 9.29074E-12-3.28201E-05 8.92113E-06 3.72694E-20-1.78126E-18
 -1      1129 7.60978E-05 2.84839E-12-3.27313E-05 9.37173E-06 4.36619E-20-1.43806E-18
 -1      1130 7.73046E-05 2.78883E-12-3.32599E-05 9.38793E-06 4.97102E-20-9.25254E-19
 -1      1131 8.05166E-05 1.26000E-11-3.45236E-05 9.97152E-06 5.88688E-20-9.21049E-20
 -1      1132 8.57799E-05 3.49184E-11-3.64919E-05 1.24798E-05 7.60212E-20 1.25523E-18
 -1      1133 9.37171E-05 8.20264E-11-3.91266E-05 1.92017E-05 6.79744E-20 3.63515E-18
 -1      1134 1.22134E-04 2.78693E-10-4.39558E-05 3.92874E-05 2.96462E-21 7.64003E-18
 -1      1135 1.31074E-04-2.57603E-05-4.04075E-05-2.68165E-05-7.75141E-19 6.26931E-18
 -1      1136 9.65277E-05-2.85596E-05-3.12952E-05-7.97605E-07-2.95217E-19 4.45042E-18
 -1      1137 8.76763E-05-2.62536E-05-2.71250E-05 3.49856E-07-9.87323E-20 1.93887E-18
 -1      1138 8.39036E-05-2.52440E-05-2.52860E-05 1.87715E-07 2.04214E-20 7.13519E-19
 -1      1139 8.10646E-05-2.43769E-05-2.42803E-05 6.27424E-08-3.62702E-20-1.65939E-19
 -1      1140 7.83181E-05-2.35301E-05-2.34501E-05-2.23093E-08-3.51738E-20-7.05969E-19
 -1      1141 7.54688E-05-2.26679E-05-2.26268E-05-7.68462E-08-2.28509E-21-1.28768E-18
 -1      1142 7.26953E-05-2.18416E-05-2.18400E-05-9.82435E-08-5.31629E-21-1.65893E-18
 -1      1143 7.03926E-05-2.11624E-05-2.11965E-05-8.39186E-08-3.26736E-20-2.46460E-18
 -1      1144 6.90212E-05-2.07610E-05-2.08215E-05-3.74099E-08-7.17314E-20-3.15873E-18
 -1      1145 6.89449E-05-2.07409E-05-2.08125E-05 2.91255E-08 7.25090E-20-3.62296E-18
 -1      1146 7.02970E-05-2.11399E-05-2.12048E-05 9.75261E-08 7.18324E-21-3.09023E-18
 -1      1147 7.29273E-05-2.19142E-05-2.19581E-05 1.50059E-07-4.48332E-22-3.97534E-18
 -1      1148 7.64485E-05-2.29519E-05-2.29679E-05 1.75863E-07 1.34748E-21-3.94307E-18
 -1      1149 8.03587E-05-2.41070E-05-2.40969E-05 1.73744E-07 9.16392E-21-3.94037E-18
 -1      1150 8.41790E-05-2.52392E-05-2.52107E-05 1.50412E-07 8.71104E-21-3.97584E-18
 -1      1151 8.75540E-05-2.62435E-05-2.62064E-05 1.16063E-07-1.80601E-19-3.93025E-18
 -1      1152 9.02909E-05-2.70617E-05-2.70245E-05 8.01254E-08-7.95003E-20-4.26764E-18
 -1      1153 9.23448E-05-2.76789E-05-2.76472E-05 4.89083E-08 2.54854E-20-4.81006E-18
 -1      1154 9.37746E-05-2.81112E-05-2.80872E-05 2.52462E-08-2.32719E-20-4.41192E-18
 -1      1155 9.46935E-05-2.83913E-05-2.83750E-05 9.33974E-09-2.23785E-19-3.93542E-18
 -1      1156 9.52298E-05-2.85565E-05-2.85468E-05-7.46930E-11 4.47906E-20-3.23555E-18
 -1      1157 9.55013E-05-2.86418E-05-2.86368E-05-4.76013E-09 1.23490E-20-3.11176E-18
 -1      1158 9.56038E-05-2.86756E-05-2.86737E-05-6.38721E-09-2.70854E-19-4.22112E-18
 -1      1159 9.56080E-05-2.86791E-05-2.86790E-05-6.27187E-09 2.83873E-19-3.21357E-18
 -1      1160 9.55623E-05-2.86670E-05-2.86677E-05-5.32613E-09-7.51629E-20-9.45977E-19
 -1      1161 9.54974E-05-2.86485E-05-2.86496E-05-4.11484E-09-2.05689E-19-2.14082E-18
 -1      1162 9.54309E-05-2.86292E-05-2.86303E-05-2.94683E-09 5.43191E-20-4.66288E-18
 -1      1163 9.53719E-05-2.86118E-05-2.86127E-05-1.96225E-09-3.12521E-19-6.36574E-18
 -1      1164 9.53238E-05-2.85975E-05-2.85982E-05-1.20128E-09 4.28756E-19-5.81200E-18
 -1      1165 9.52871E-05-2.85865E-05-2.85871E-05-6.51627E-10 1.72198E-21-2.95791E-18
 -1      1166 9.52607E-05-2.85786E-05-2.85790E-05-2.78491E-10-1.19611E-19-3.69593E-18
 -1      1167 9.52428E-05-2.85732E-05-2.85734E-05-4.15152E-11 1.97943E-19-5.62528E-18
 -1      1168 9.52315E-05-2.85697E-05-2.85698E-05 9.66517E-11 5.11969E-19-2.87084E-18
 -1      1169 9.52250E-05-2.85677E-05-2.85678E-05 1.66897E-10-4.24401E-20-1.02582E-18
 -1      1170 9.52220E-05-2.85667E-05-2.85668E-05 1.92974E-10-8.17763E-20-2.71471E-19
 -1      1171 9.52212E-05-2.85665E-05-2.85665E-05 1.92172E-10-2.44281E-19-1.09611E-18
 -1      1172 9.52218E-05-2.85666E-05-2.85666E-05 1.76500E-10-1.20426E-19-9.07514E-19
 -1      1173 9.52233E-05-2.85670E-05-2.85670E-05 1.53929E-10-2.15152E-19-1.81549E-18
 -1      1174 9.52252E-05-2.85676E-05-2.85676E-05 1.29483E-10-6.60534E-21-2.29029E-18
 -1      1175 9.52272E-05-2.85682E-05-2.85681E-05 1.06130E-10 2.27975E-19-1.43707E-18
 -1      1176 9.52291E-05-2.85687E-05-2.85687E-05 8.54477E-11 1.02875E-19 9.19408E-20
 -1      1177 9.52309E-05-2.85693E-05-2.85693E-05 6.81007E-11-4.69801E-20 2.22331E-18
 -1      1178 9.52325E-05-2.85698E-05-2.85697E-05 5.41434E-11 1.99555E-19 3.90345E-18
 -1      1179 9.52339E-05-2.85702E-05-2.85702E-05 4.31593E-11-1.22922E-20 2.81059E-18
 -1      1180 9.52351E-05-2.85705E-05-2.85705E-05 3.42042E-11 1.95992E-19 4.79433E-18
 -1      1181 9.52360E-05-2.85708E-05-2.85708E-05 2.54535E-11 1.52759E-19 3.43805E-18
 -1      1182 9.52367E-05-2.85710E-05-2.85710E-05 1.34458E-11 2.88052E-19 2.67440E-18
 -1      1183 9.52371E-05-2.85711E-05-2.85711E-05-1.19338E-11-3.86303E-19-4.27679E-19
 -1      1184 9.52372E-05-2.85712E-05-2.85712E-05-1.84095E-11 1.05053E-18 2.18982E-18
 -1      1185 1.37678E-04-2.78692E-05-4.28750E-05 2.53359E-05 2.64168E-19 1.04371E-17
 -1      1186 1.10737E-04-3.28940E-05-3.58245E-05 2.82213E-07 7.23154E-20 9.83024E-18
 -1      1187 1.10269E-04-3.31448E-05-3.42855E-05-6.97612E-07 7.49095E-20 8.51480E-18
 -1      1188 1.18502E-04-3.57445E-05-3.63063E-05-8.46250E-07 2.70786E-20 7.29486E-18
 -1      1189 1.33915E-04-4.03681E-05-4.08662E-05-1.32006E-06 2.45243E-20 6.99353E-18
 -1      1190 1.56844E-04-4.72895E-05-4.71984E-05-1.98933E-06-4.97235E-20 7.36283E-18
 -1      1191 1.83237E-04-5.53846E-05-5.34282E-05-2.03527E-06 2.58014E-20 8.72126E-18
 -1      1192 2.00383E-04-6.06199E-05-5.64352E-05 2.11942E-07-8.72973E-20 1.02162E-17
 -1      1193 1.92441E-04-5.71647E-05-5.44623E-05 5.17518E-06-1.95287E-19 1.32802E-17
 -1      1194 1.55907E-04-4.42222E-05-4.84906E-05 8.37690E-06 2.13399E-19 1.38219E-17
 -1      1195 1.05384E-04-2.79497E-05-4.15575E-05 6.23830E-06 4.58457E-20 1.09962E-17
 -1      1196 7.31027E-05-1.69070E-05-3.80315E-05 1.28736E-06 3.04932E-19 7.97513E-18
 -1      1197 8.91777E-05-2.21644E-05-4.00517E-05-4.00007E-06 1.48813E-19 3.22720E-18
 -1      1198 1.46776E-04-4.22426E-05-4.73586E-05-5.91836E-06 9.06590E-20 9.04631E-19
 -1      1199 1.95892E-04-5.92040E-05-5.52391E-05-3.16674E-06 1.27472E-19-5.84453E-20
 -1      1200 2.03241E-04-6.21133E-05-5.75091E-05-1.67090E-07-1.09340E-19 1.08388E-18
 -1      1201 1.81570E-04-5.50013E-05-5.34759E-05 9.25217E-07-1.84996E-19 3.21216E-18
 -1      1202 1.54890E-04-4.64997E-05-4.68637E-05 9.02447E-07-3.46357E-20 4.07762E-18
 -1      1203 1.33569E-04-3.99587E-05-4.07451E-05 6.10766E-07-2.40743E-20 3.47601E-18
 -1      1204 1.19261E-04-3.56812E-05-3.63199E-05 3.50223E-07 9.39512E-20 2.78759E-18
 -1      1205 1.10087E-04-3.29625E-05-3.33757E-05 2.12476E-07 1.03072E-19 2.02557E-18
 -1      1206 1.04222E-04-3.12346E-05-3.14726E-05 1.14016E-07-2.46806E-20 2.76622E-18
 -1      1207 1.00659E-04-3.01833E-05-3.03156E-05 6.03716E-08 4.73015E-20 2.05775E-18
 -1      1208 9.85063E-05-2.95459E-05-2.96191E-05 3.14534E-08-1.07174E-19 4.19398E-18
 -1      1209 9.72062E-05-2.91597E-05-2.92004E-05 1.60810E-08 1.64654E-20 3.34858E-18
 -1      1210 9.64192E-05-2.89252E-05-2.89480E-05 8.00522E-09 1.32774E-19 1.76981E-18
 -1      1211 9.59414E-05-2.87824E-05-2.87953E-05 3.80486E-09-2.02413E-19-1.58690E-19
 -1      1212 9.56553E-05-2.86972E-05-2.87043E-05 1.15275E-09 5.06680E-20 4.30757E-19
 -1      1213 9.54790E-05-2.86440E-05-2.86483E-05 6.41447E-10 9.33373E-20-4.35320E-19
 -1      1214 9.53673E-05-2.86105E-05-2.86129E-05 1.10526E-10-2.20385E-20 1.63404E-18
 -1      1215 9.52993E-05-2.85900E-05-2.85914E-05-1.25461E-10 4.79717E-19 1.04585E-18
 -1      1216 9.52584E-05-2.85777E-05-2.85785E-05-2.17564E-10-1.16357E-19-5.95683E-18
 -1      1217 9.52343E-05-2.85704E-05-2.85709E-05-2.40663E-10 1.24899E-19-6.06472E-18
 -1      1218 9.52210E-05-2.85664E-05-2.85667E-05-2.32780E-10 8.86788E-20-3.33725E-18
 -1      1219 9.52143E-05-2.85644E-05-2.85645E-05-2.08897E-10 2.15842E-19-2.33548E-18
 -1      1220 9.52119E-05-2.85636E-05-2.85637E-05-2.02322E-10-9.45461E-21-3.35277E-18
 -1      1221 9.52119E-05-2.85636E-05-2.85636E-05-1.64862E-10 1.93439E-19-4.83561E-18
 -1      1222 9.52135E-05-2.85641E-05-2.85641E-05-1.40536E-10 4.12996E-21-6.07826E-18
 -1      1223 9.52159E-05-2.85648E-05-2.85648E-05-1.19199E-10 3.47031E-21-6.62197E-18
 -1      1224 9.52186E-05-2.85656E-05-2.85656E-05-1.00178E-10-2.14939E-19-5.32174E-18
 -1      1225 9.52214E-05-2.85664E-05-2.85664E-05-8.34196E-11-1.53176E-19-7.24338E-18
 -1      1226 9.52241E-05-2.85673E-05-2.85672E-05-6.89010E-11 1.64253E-19-7.24125E-18
 -1      1227 9.52266E-05-2.85680E-05-2.85680E-05-5.58647E-11-2.29383E-19-5.03733E-18
 -1      1228 9.52288E-05-2.85687E-05-2.85686E-05-4.52735E-11 5.76572E-19-5.14945E-18
 -1      1229 9.52308E-05-2.85692E-05-2.85692E-05-3.80771E-11-2.63289E-19-8.66230E-18
 -1      1230 9.52325E-05-2.85697E-05-2.85697E-05-3.09988E-11 1.85342E-19-6.59900E-18
 -1      1231 9.52339E-05-2.85702E-05-2.85701E-05-2.56657E-11-8.68391E-20-6.51462E-18
 -1      1232 9.52351E-05-2.85705E-05-2.85705E-05-2.15168E-11-4.27533E-19-5.03382E-18
 -1      1233 9.52360E-05-2.85708E-05-2.85708E-05-1.78258E-11 3.75275E-19-1.63754E-18
 -1      1234 9.52367E-05-2.85710E-05-2.85710E-05-1.27355E-11-2.84725E-19-1.11511E-18
 -1      1235 9.52371E-05-2.85711E-05-2.85711E-05-3.11966E-12 6.82312E-19 1.25308E-19
 -1      1236 9.52372E-05-2.85711E-05-2.85712E-05 2.45511E-11-2.79592E-19-1.50203E-18
 -1      1237 9.52372E-05-2.85711E-05-2.85712E-05 2.61140E-11-1.07174E-18-5.85850E-19
 -1      1238 9.52372E-05-2.85712E-05-2.85711E-05 1.61426E-11-4.02253E-18 1.10654E-18
 -1      1239 9.52373E-05-2.85716E-05-2.85710E-05-1.35133E-12-4.71255E-18-4.50668E-20
 -1      1240 9.52374E-05-2.85722E-05-2.85708E-05-1.36736E-11-7.04368E-18 1.57523E-18
 -1      1241 9.52377E-05-2.85729E-05-2.85706E-05-2.04427E-11-1.39075E-17-1.08145E-18
 -1      1242 9.52379E-05-2.85736E-05-2.85704E-05-2.28241E-11-8.27934E-18 7.11482E-19
 -1      1243 9.52380E-05-2.85741E-05-2.85703E-05-2.20400E-11-1.16172E-18-4.57836E-19
 -1      1244 9.52381E-05-2.85745E-05-2.85702E-05-1.83147E-11-3.88363E-18-6.16730E-20
 -1      1245 9.52382E-05-2.85746E-05-2.85701E-05-1.25440E-11-3.98752E-18 1.49510E-19
 -1      1246 9.52381E-05-2.85745E-05-2.85702E-05-5.33282E-12-7.31691E-18 2.80923E-19
 -1      1247 9.52380E-05-2.85741E-05-2.85703E-05 2.68155E-12-1.09776E-17-1.19010E-18
 -1      1248 9.52379E-05-2.85736E-05-2.85704E-05 1.09124E-11-1.23376E-17 1.30605E-19
 -1      1249 9.52377E-05-2.85729E-05-2.85706E-05 1.78493E-11-2.29660E-18 4.70838E-19
 -1      1250 9.52375E-05-2.85722E-05-2.85708E-05 2.24877E-11-1.26940E-18-3.34209E-19
 -1      1251 9.52373E-05-2.85715E-05-2.85710E-05 2.67948E-11-3.81920E-18-8.53171E-19
 -1      1252 9.52372E-05-2.85712E-05-2.85711E-05-1.22724E-11-3.49526E-18-3.93520E-19
 -1      1253 9.52371E-05-2.85711E-05-2.85712E-05-1.54521E-11-2.84997E-18 6.26110E-20
 -1      1254 4.05723E-05-1.31541E-04 2.42624E-05-2.02483E-05 4.12770E-18 1.35599E-18
 -1      1255 2.32236E-05-1.01101E-04 1.86602E-05-4.40206E-05 6.51792E-18 2.63385E-18
 -1      1256 5.18358E-06-4.60342E-05 4.30581E-06-3.51851E-05 7.22350E-18 4.04374E-18
 -1      1257 1.70607E-05 7.53410E-07-1.64735E-05 1.18319E-05 6.62041E-18 6.35275E-18
 -1      1258 9.66259E-05 5.53141E-06-4.35623E-05 7.96472E-05 7.50471E-18 1.11978E-17
 -1      1259 2.43174E-04-4.37229E-05-7.13981E-05 1.18427E-04 4.62311E-18 1.14248E-17
 -1      1260 3.82702E-04-1.09941E-04-8.99554E-05 8.44023E-05 1.82197E-18 5.77676E-18
 -1      1261 4.31195E-04-1.33855E-04-9.55773E-05-1.48832E-05 4.22034E-19-1.34848E-18
 -1      1262 3.45333E-04-8.92589E-05-8.58087E-05-1.02933E-04 2.31579E-18-7.85877E-18
 -1      1263 1.90904E-04-2.14700E-05-6.32922E-05-1.17478E-04 6.61787E-18-1.19618E-17
 -1      1264 6.11581E-05 1.07978E-05-3.43440E-05-5.94760E-05 1.02186E-17-1.25191E-17
 -1      1265 7.62833E-06-1.58458E-05-7.49780E-06 9.79061E-06 1.15332E-17-8.99041E-18
 -1      1266 1.25373E-05-7.21388E-05 1.16787E-05 4.24064E-05 8.57028E-18-4.62776E-18
 -1      1267 3.45882E-05-1.21281E-04 2.21584E-05 3.56619E-05 2.51823E-18-1.10016E-18
 -1      1268 4.13441E-05-1.29024E-04 2.34808E-05 3.93556E-06-4.57525E-18-5.87311E-19
 -1      1269 2.95621E-05-9.65425E-05 1.65462E-05-2.08745E-05-1.00255E-17-2.29842E-18
 -1      1270 1.09040E-05-3.72108E-05 2.77458E-06-1.51490E-05-1.19144E-17-5.02460E-18
 -1      1271 1.26051E-05 1.60642E-05-1.61637E-05 2.52590E-05-1.10521E-17-7.40391E-18
 -1      1272 5.82370E-05 3.40466E-05-3.76664E-05 8.35175E-05-9.05986E-18-9.43256E-18
 -1      1273 1.52305E-04 4.19132E-06-5.93942E-05 1.23646E-04-5.94871E-18-9.62907E-18
 -1      1274 2.61572E-04-5.41033E-05-7.64827E-05 1.12077E-04-2.24803E-18-5.59126E-18
 -1      1275 3.30402E-04-9.54777E-05-8.56765E-05 4.47257E-05-3.12740E-19 5.45489E-19
 -1      1276 3.32960E-04-9.75394E-05-8.58869E-05-4.59747E-05-5.35590E-19 4.99495E-18
 -1      1277 2.56313E-04-5.00139E-05-7.61913E-05-1.15476E-04-3.43133E-18 9.58079E-18
 -1      1278 1.44718E-04 8.93676E-06-5.84136E-05-1.25528E-04-6.41882E-18 1.09166E-17
 -1      1279 5.13169E-05 3.49702E-05-3.56025E-05-7.82065E-05-6.79490E-18 6.85758E-18
 -1      1280 9.79026E-06 7.93766E-06-1.21949E-05-1.53746E-05-5.54637E-18 3.62869E-18
 -1      1281 1.58555E-05-5.49609E-05 7.22716E-06 2.00024E-05-5.79371E-19 6.88638E-19
 -1      1282 3.66219E-05-1.13958E-04 2.01650E-05 1.29006E-05 1.18923E-18-4.55174E-19
 -1      1283 1.04312E-04-2.19192E-05-3.79354E-05-1.80657E-05-2.82485E-19 2.55889E-18
 -1      1284 9.02659E-05-6.53383E-06-3.60676E-05-2.19830E-05-6.00123E-19-1.29241E-18
 -1      1285 9.23782E-05-6.52827E-06-3.72511E-05-2.72376E-05-8.30939E-19-5.10390E-19
 -1      1286 8.66291E-05-4.26842E-06-3.53508E-05-1.79085E-05-4.90909E-19-2.25851E-18
 -1      1287 8.74928E-05-4.22889E-06-3.57197E-05-2.04194E-05-6.00917E-19-1.89246E-18
 -1      1288 9.23086E-05-1.05527E-05-3.51468E-05-2.06489E-05-1.00969E-18-1.05302E-18
 -1      1289 8.57875E-05-3.75738E-06-3.51297E-05-1.37840E-05-2.44217E-19-2.61453E-18
 -1      1290 8.59789E-05-3.69936E-06-3.52395E-05-1.59118E-05-3.24334E-19-2.47810E-18
 -1      1291 8.91132E-05-8.11903E-06-3.48089E-05-1.68535E-05-7.00483E-19-1.88094E-18
 -1      1292 8.56569E-05-3.66969E-06-3.50730E-05-9.67932E-06-8.47165E-20-2.63769E-18
 -1      1293 8.56826E-05-3.63095E-06-3.51123E-05-1.17559E-05-1.32455E-19-2.65688E-18
 -1      1294 8.82881E-05-7.40817E-06-3.47390E-05-1.27763E-05-3.31833E-19-2.16237E-18
 -1      1295 8.54468E-05-3.66322E-06-3.49707E-05-5.59324E-06 7.54455E-20-2.51005E-18
 -1      1296 8.55889E-05-3.64338E-06-3.50442E-05-7.63402E-06 1.79333E-20-2.56582E-18
 -1      1297 8.81032E-05-7.23296E-06-3.47200E-05-8.71215E-06-7.06561E-20-2.16012E-18
 -1      1298 8.47232E-05-3.56981E-06-3.47050E-05-1.46242E-06 2.02917E-19-2.31038E-18
 -1      1299 8.51468E-05-3.56890E-06-3.48689E-05-3.49047E-06 1.65052E-19-2.42341E-18
 -1      1300 8.77199E-05-7.10616E-06-3.46049E-05-4.60852E-06 1.83422E-19-2.04548E-18
 -1      1301 8.32701E-05-3.25890E-06-3.42400E-05 2.42094E-06 3.92706E-19-2.15484E-18
 -1      1302 8.40335E-05-3.27992E-06-3.45046E-05 5.63217E-07 3.42969E-19-2.21537E-18
 -1      1303 8.66646E-05-6.73184E-06-3.43128E-05-5.16130E-07 4.23900E-19-1.78557E-18
 -1      1304 8.11365E-05-2.65905E-06-3.36249E-05 5.72318E-06 5.06711E-19-2.06021E-18
 -1      1305 8.21681E-05-2.70215E-06-3.39551E-05 4.19957E-06 4.68224E-19-2.14302E-18
 -1      1306 8.47183E-05-5.90819E-06-3.38346E-05 3.28732E-06 7.29812E-19-1.71545E-18
 -1      1307 7.87083E-05-1.80278E-06-3.30017E-05 8.09947E-06 6.01923E-19-1.95167E-18
 -1      1308 7.97786E-05-1.86123E-06-3.33140E-05 7.05762E-06 5.81726E-19-2.03346E-18
 -1      1309 8.20057E-05-4.58356E-06-3.32429E-05 6.45420E-06 8.92012E-19-1.65792E-18
 -1      1310 7.67265E-05-8.74738E-07-3.25904E-05 9.35718E-06 6.84727E-19-1.74357E-18
 -1      1311 7.74589E-05-9.33088E-07-3.27636E-05 8.84369E-06 6.43216E-19-1.87706E-18
 -1      1312 7.90833E-05-2.94269E-06-3.26941E-05 8.63961E-06 1.02799E-18-1.53575E-18
 -1      1313 7.61460E-05-2.19688E-07-3.26308E-05 9.65683E-06 7.56268E-19-1.40367E-18
 -1      1314 7.61192E-05-2.54930E-07-3.25436E-05 9.52268E-06 7.06234E-19-1.62464E-18
 -1      1315 7.69396E-05-1.46800E-06-3.24050E-05 9.68514E-06 1.15569E-18-1.34817E-18
 -1      1316 7.78295E-05-2.17321E-07-3.33162E-05 9.63692E-06 8.66409E-19-8.24441E-19
 -1      1317 7.66893E-05-2.11699E-07-3.28737E-05 9.51336E-06 8.06269E-19-1.16570E-18
 -1      1318 7.67433E-05-8.29417E-07-3.25880E-05 9.83194E-06 1.27930E-18-9.61038E-19
 -1      1319 8.22826E-05-1.22050E-06-3.47111E-05 1.03652E-05 9.60218E-19 5.48057E-20
 -1      1320 7.99065E-05-1.16276E-06-3.38946E-05 9.67839E-06 8.75091E-19-4.66371E-19
 -1      1321 7.95232E-05-1.73225E-06-3.33886E-05 9.80561E-06 1.40011E-18-3.78941E-19
 -1      1322 8.94715E-05-3.50227E-06-3.67189E-05 1.32442E-05 8.92032E-19 1.57768E-18
 -1      1323 8.59722E-05-3.35291E-06-3.55777E-05 1.12059E-05 8.47139E-19 6.62274E-19
 -1      1324 8.58112E-05-4.72894E-06-3.47907E-05 1.07169E-05 1.42169E-18 6.45995E-19
 -1      1325 9.95626E-05-7.93054E-06-3.93719E-05 2.06977E-05 7.07908E-19 3.74876E-18
 -1      1326 9.52801E-05-7.64237E-06-3.77329E-05 1.49674E-05 6.78050E-19 2.53316E-18
 -1      1327 9.57752E-05-1.04495E-05-3.65834E-05 1.32778E-05 1.24696E-18 2.20250E-18
 -1      1328 1.13179E-04-2.42334E-05-4.05704E-05 1.49720E-05 6.98802E-20 7.20444E-18
 -1      1329 1.04527E-04-3.00295E-05-3.33782E-05-8.75081E-06-7.26966E-19 2.95932E-18
 -1      1330 9.69634E-05-2.74393E-05-3.04031E-05-5.67632E-06-6.93826E-19 2.02129E-18
 -1      1331 9.37277E-05-2.73639E-05-2.87087E-05-3.31102E-06-6.08858E-19 1.70681E-18
 -1      1332 9.06830E-05-2.68421E-05-2.74181E-05-2.90191E-06-5.31434E-19 8.31376E-19
 -1      1333 9.82535E-05-2.77318E-05-3.05933E-05-9.37008E-06-1.23540E-18 8.04099E-19
 -1      1334 8.82881E-05-2.62945E-05-2.65545E-05-1.91847E-06-3.19556E-19 6.75482E-19
 -1      1335 8.65091E-05-2.58792E-05-2.59357E-05-1.87516E-06-2.81744E-19 2.70931E-19
 -1      1336 9.23284E-05-2.71724E-05-2.80303E-05-5.02239E-06-8.65403E-19 3.47204E-19
 -1      1337 8.48429E-05-2.54319E-05-2.54072E-05-1.57842E-06-1.96136E-19-1.64245E-20
 -1      1338 8.34058E-05-2.50316E-05-2.49747E-05-1.58685E-06-2.03433E-19-3.56680E-19
 -1      1339 8.85589E-05-2.64605E-05-2.66236E-05-3.53527E-06-5.36668E-19-2.12817E-20
 -1      1340 8.20309E-05-2.46300E-05-2.45608E-05-1.53294E-06-1.04611E-19-4.35911E-19
 -1      1341 8.06263E-05-2.42015E-05-2.41558E-05-1.55163E-06-1.44752E-19-6.11293E-19
 -1      1342 8.56136E-05-2.56984E-05-2.56726E-05-3.12976E-06-3.43353E-19-3.22653E-19
 -1      1343 7.93825E-05-2.38201E-05-2.37890E-05-1.51943E-06-1.57436E-19-7.32637E-19
 -1      1344 7.79896E-05-2.33745E-05-2.33919E-05-1.51685E-06-7.96252E-20-8.76011E-19
 -1      1345 8.30321E-05-2.49206E-05-2.49036E-05-3.03038E-06-2.96273E-19-3.58330E-19
 -1      1346 7.68792E-05-2.30211E-05-2.30699E-05-1.37946E-06-9.36435E-20-9.27177E-19
 -1      1347 7.56298E-05-2.26092E-05-2.27166E-05-1.33445E-06-2.11523E-19-1.27383E-18
 -1      1348 8.06877E-05-2.41466E-05-2.42413E-05-2.82904E-06-2.05965E-19-4.46957E-19
 -1      1349 7.47498E-05-2.23199E-05-2.24662E-05-1.02836E-06-2.53521E-19-1.38101E-18
 -1      1350 7.38478E-05-2.20152E-05-2.22136E-05-9.33882E-07-2.21311E-19-1.69301E-18
 -1      1351 7.86906E-05-2.34443E-05-2.37005E-05-2.29463E-06-5.36546E-19-7.22190E-19
 -1      1352 7.33308E-05-2.18385E-05-2.20705E-05-4.61781E-07-1.41481E-19-1.73422E-18
 -1      1353 7.29744E-05-2.17126E-05-2.19730E-05-3.27912E-07-1.97488E-19-2.01847E-18
 -1      1354 7.72781E-05-2.29215E-05-2.33328E-05-1.35154E-06-3.60366E-19-8.14581E-19
 -1      1355 7.29285E-05-2.16887E-05-2.19658E-05 2.44334E-07-1.46017E-19-1.92788E-18
 -1      1356 7.32376E-05-2.17855E-05-2.20559E-05 3.92713E-07 9.30843E-20-2.09052E-18
 -1      1357 7.66980E-05-2.26876E-05-2.31925E-05-8.24951E-08-1.58111E-19-6.45358E-19
 -1      1358 7.36983E-05-2.19282E-05-2.21935E-05 9.58909E-07 6.66641E-20-2.27015E-18
 -1      1359 7.46678E-05-2.22464E-05-2.24697E-05 1.09093E-06-1.93018E-19-2.40571E-18
 -1      1360 7.70984E-05-2.28095E-05-2.33111E-05 1.30168E-06-1.32511E-19-1.14100E-18
 -1      1361 7.55782E-05-2.25355E-05-2.27370E-05 1.54315E-06-3.54674E-19-2.43537E-18
 -1      1362 7.70765E-05-2.30288E-05-2.31632E-05 1.63344E-06-2.53528E-19-2.77926E-18
 -1      1363 7.84579E-05-2.32814E-05-2.36819E-05 2.53804E-06-3.38757E-19-1.60830E-18
 -1      1364 7.83021E-05-2.34164E-05-2.35239E-05 1.89938E-06 6.18830E-20-2.75842E-18
 -1      1365 8.01125E-05-2.40087E-05-2.40405E-05 1.93637E-06 5.14961E-20-2.73488E-18
 -1      1366 8.05804E-05-2.40242E-05-2.42579E-05 3.40605E-06-1.52562E-19-1.80685E-18
 -1      1367 8.14814E-05-2.44354E-05-2.44473E-05 1.99819E-06 4.03970E-20-2.91733E-18
 -1      1368 8.33651E-05-2.50449E-05-2.49876E-05 1.98548E-06-1.68273E-20-2.89266E-18
 -1      1369 8.31538E-05-2.49128E-05-2.49638E-05 3.79720E-06-1.29745E-19-1.78292E-18
 -1      1370 8.47138E-05-2.54567E-05-2.53937E-05 1.87481E-06-1.36879E-19-2.82382E-18
 -1      1371 8.64681E-05-2.60163E-05-2.59002E-05 1.82644E-06-7.23121E-20-2.85899E-18
 -1      1372 8.58394E-05-2.58170E-05-2.57140E-05 3.73100E-06-1.32223E-19-1.94805E-18
 -1      1373 8.76740E-05-2.63757E-05-2.62687E-05 1.60310E-06-5.15383E-20-2.92785E-18
 -1      1374 8.91657E-05-2.68436E-05-2.67025E-05 1.53657E-06-1.63687E-19-3.15797E-18
 -1      1375 8.83517E-05-2.66348E-05-2.64322E-05 3.32119E-06-1.82691E-19-1.92498E-18
 -1      1376 9.01599E-05-2.71323E-05-2.70108E-05 1.26458E-06-2.19567E-19-3.24291E-18
 -1      1377 9.13311E-05-2.74928E-05-2.73541E-05 1.19511E-06-3.37008E-19-3.30709E-18
 -1      1378 9.05037E-05-2.73074E-05-2.70632E-05 2.71940E-06-1.74386E-19-1.87478E-18
 -1      1379 9.20937E-05-2.77083E-05-2.75940E-05 9.25939E-07-1.34592E-19-3.23051E-18
 -1      1380 9.29473E-05-2.79655E-05-2.78461E-05 8.63697E-07 4.04907E-19-3.18148E-18
 -1      1381 9.22121E-05-2.78174E-05-2.75777E-05 2.06549E-06-1.40655E-19-2.02384E-18
 -1      1382 9.34936E-05-2.81155E-05-2.80204E-05 6.29580E-07 3.20491E-19-3.32783E-18
 -1      1383 9.40710E-05-2.82853E-05-2.81924E-05 5.79522E-07-1.28938E-19-3.32960E-18
 -1      1384 9.34773E-05-2.81760E-05-2.79693E-05 1.45972E-06 1.11597E-19-2.28417E-18
 -1      1385 9.44357E-05-2.83824E-05-2.83105E-05 3.94584E-07 6.24935E-21-3.09825E-18
 -1      1386 9.47953E-05-2.84849E-05-2.84186E-05 3.57693E-07-1.08012E-19-3.07327E-18
 -1      1387 9.43522E-05-2.84097E-05-2.82480E-05 9.56896E-07 2.59851E-20-2.24745E-18
 -1      1388 9.50200E-05-2.85426E-05-2.84924E-05 2.22957E-07 1.29211E-19-2.30860E-18
 -1      1389 9.52211E-05-2.85974E-05-2.85536E-05 1.97843E-07 2.90590E-19-2.11129E-18
 -1      1390 9.49143E-05-2.85493E-05-2.84328E-05 5.74289E-07 1.83234E-19-1.87894E-18
 -1      1391 9.53454E-05-2.86275E-05-2.85953E-05 1.06844E-07-2.62840E-19-2.18901E-18
 -1      1392 9.54400E-05-2.86511E-05-2.86247E-05 9.10887E-08-6.51066E-19-2.70469E-18
 -1      1393 9.52440E-05-2.86232E-05-2.85456E-05 3.04694E-07-2.59949E-19-1.70579E-18
 -1      1394 9.54972E-05-2.86635E-05-2.86446E-05 3.43711E-08-7.81988E-20-2.60089E-18
 -1      1395 9.55257E-05-2.86683E-05-2.86541E-05 2.54183E-08 3.13716E-19-2.78440E-18
 -1      1396 9.54130E-05-2.86545E-05-2.86070E-05 1.28622E-07-4.82228E-19-1.68390E-18
 -1      1397 9.55415E-05-2.86701E-05-2.86604E-05-6.57276E-09 4.93964E-19-2.43704E-18
 -1      1398 9.55331E-05-2.86648E-05-2.86587E-05-1.09526E-08 4.88677E-19-1.67711E-18
 -1      1399 9.54786E-05-2.86604E-05-2.86343E-05 2.31015E-08 6.15707E-19-9.67803E-19
 -1      1400 9.55257E-05-2.86610E-05-2.86572E-05-2.63943E-08 3.66183E-19-1.80524E-18
 -1      1401 9.54999E-05-2.86514E-05-2.86500E-05-2.79323E-08-1.50893E-19-1.87746E-18
 -1      1402 9.54831E-05-2.86527E-05-2.86407E-05-3.31653E-08 3.66337E-19-1.65013E-18
 -1      1403 9.54815E-05-2.86452E-05-2.86447E-05-3.31213E-08-2.60315E-19-1.90875E-18
 -1      1404 9.54501E-05-2.86346E-05-2.86357E-05-3.30514E-08-3.78652E-19-2.54878E-18
 -1      1405 9.54558E-05-2.86390E-05-2.86355E-05-5.75025E-08-2.74088E-19-2.18505E-18
 -1      1406 9.54283E-05-2.86278E-05-2.86291E-05-3.24603E-08-7.35114E-19-2.76690E-18
 -1      1407 9.53980E-05-2.86181E-05-2.86203E-05-3.15996E-08-9.69621E-19-4.02343E-18
 -1      1408 9.54154E-05-2.86238E-05-2.86251E-05-6.27698E-08-1.17056E-18-2.05682E-18
 -1      1409 9.53770E-05-2.86118E-05-2.86138E-05-2.81866E-08-3.47063E-19-3.89132E-18
 -1      1410 9.53509E-05-2.86037E-05-2.86061E-05-2.70376E-08 2.05807E-19-4.13275E-18
 -1      1411 9.53729E-05-2.86097E-05-2.86131E-05-5.78257E-08-8.26905E-19-2.97108E-18
 -1      1412 9.53328E-05-2.85984E-05-2.86005E-05-2.26218E-08 2.52970E-19-3.42821E-18
 -1      1413 9.53120E-05-2.85921E-05-2.85944E-05-2.14674E-08 9.35378E-19-2.64053E-18
 -1      1414 9.53344E-05-2.85977E-05-2.86018E-05-4.83584E-08 5.72932E-19-1.44456E-18
 -1      1415 9.52974E-05-2.85879E-05-2.85898E-05-1.70730E-08 6.72625E-19-2.38691E-18
 -1      1416 9.52819E-05-2.85833E-05-2.85852E-05-1.60531E-08-1.18890E-19-1.95166E-18
 -1      1417 9.53023E-05-2.85882E-05-2.85921E-05-3.77499E-08 8.84391E-19-1.73047E-18
 -1      1418 9.52709E-05-2.85801E-05-2.85817E-05-1.21854E-08 1.20768E-20-1.86287E-18
 -1      1419 9.52599E-05-2.85769E-05-2.85784E-05-1.13528E-08 2.44122E-19-1.91426E-18
 -1      1420 9.52773E-05-2.85810E-05-2.85844E-05-2.78170E-08 1.41324E-19-9.75115E-19
 -1      1421 9.52520E-05-2.85747E-05-2.85759E-05-8.20040E-09-3.53827E-19-1.80306E-18
 -1      1422 9.52447E-05-2.85726E-05-2.85737E-05-7.55899E-09 1.69329E-19-1.85228E-18
 -1      1423 9.52587E-05-2.85759E-05-2.85786E-05-1.93822E-08-2.73138E-19 6.23835E-19
 -1      1424 9.52393E-05-2.85711E-05-2.85720E-05-5.13234E-09 1.10927E-18-2.19518E-18
 -1      1425 9.52348E-05-2.85699E-05-2.85707E-05-4.66190E-09 1.11098E-18-7.49694E-19
 -1      1426 9.52457E-05-2.85724E-05-2.85745E-05-1.26793E-08 9.65977E-19 8.40825E-19
 -1      1427 9.52314E-05-2.85689E-05-2.85696E-05-2.88279E-09 5.61683E-19-5.88099E-19
 -1      1428 9.52290E-05-2.85683E-05-2.85688E-05-2.55358E-09 2.15386E-19-5.08372E-19
 -1      1429 9.52371E-05-2.85702E-05-2.85717E-05-7.62480E-09 8.87338E-19 2.57744E-19
 -1      1430 9.52270E-05-2.85678E-05-2.85682E-05-1.30923E-09-5.60406E-19-3.54311E-19
 -1      1431 9.52260E-05-2.85675E-05-2.85679E-05-1.09033E-09 3.26359E-20-5.64117E-19
 -1      1432 9.52318E-05-2.85689E-05-2.85699E-05-3.98915E-09-7.64787E-20-3.23002E-19
 -1      1433 9.52250E-05-2.85673E-05-2.85676E-05-2.63846E-10 9.28491E-20-4.84725E-19
 -1      1434 9.52249E-05-2.85673E-05-2.85675E-05-1.27272E-10-1.05732E-19-5.03538E-19
 -1      1435 9.52290E-05-2.85683E-05-2.85689E-05-1.49683E-09 2.40380E-21-4.59740E-19
 -1      1436 9.52247E-05-2.85673E-05-2.85674E-05 3.87180E-10 1.05405E-19-7.00053E-19
 -1      1437 9.52252E-05-2.85675E-05-2.85676E-05 4.64811E-10-2.91009E-19-5.56450E-19
 -1      1438 9.52278E-05-2.85681E-05-2.85685E-05 1.19166E-10 1.03437E-20 3.75419E-19
 -1      1439 9.52254E-05-2.85675E-05-2.85676E-05 7.55747E-10-4.90669E-19-2.81901E-21
 -1      1440 9.52262E-05-2.85678E-05-2.85678E-05 7.92936E-10-5.67770E-19-9.36796E-19
 -1      1441 9.52278E-05-2.85682E-05-2.85684E-05 1.09175E-09-7.85668E-19 2.88046E-19
 -1      1442 9.52266E-05-2.85680E-05-2.85680E-05 9.30448E-10-2.45285E-19-1.26720E-18
 -1      1443 9.52275E-05-2.85683E-05-2.85682E-05 9.41212E-10 9.45843E-20-1.01720E-18
 -1      1444 9.52284E-05-2.85685E-05-2.85686E-05 1.61110E-09-6.96957E-19 3.99101E-19
 -1      1445 9.52281E-05-2.85684E-05-2.85684E-05 9.78399E-10 1.67214E-19-8.23014E-19
 -1      1446 9.52291E-05-2.85687E-05-2.85687E-05 9.72942E-10 1.63790E-19-8.38097E-19
 -1      1447 9.52294E-05-2.85688E-05-2.85688E-05 1.82498E-09 4.24191E-19 4.24052E-19
 -1      1448 9.52297E-05-2.85689E-05-2.85689E-05 9.48381E-10-1.15262E-20-5.17350E-19
 -1      1449 9.52306E-05-2.85692E-05-2.85692E-05 9.33821E-10 8.19331E-19 3.31637E-19
 -1      1450 9.52306E-05-2.85692E-05-2.85692E-05 1.84346E-09 3.12470E-19 5.90848E-20
 -1      1451 9.52312E-05-2.85694E-05-2.85693E-05 8.74225E-10 1.09765E-18 5.45452E-19
 -1      1452 9.52320E-05-2.85696E-05-2.85696E-05 8.55247E-10 4.02957E-19 1.47527E-18
 -1      1453 9.52318E-05-2.85696E-05-2.85695E-05 1.74498E-09 1.26905E-18-3.39347E-19
 -1      1454 9.52326E-05-2.85698E-05-2.85698E-05 7.77839E-10 1.19416E-19 2.87153E-18
 -1      1455 9.52333E-05-2.85700E-05-2.85700E-05 7.57205E-10 5.89849E-19 2.37214E-18
 -1      1456 9.52329E-05-2.85699E-05-2.85699E-05 1.58243E-09 1.27932E-18 1.05542E-18
 -1      1457 9.52338E-05-2.85702E-05-2.85701E-05 6.71597E-10 2.75785E-19 2.30781E-18
 -1      1458 9.52345E-05-2.85704E-05-2.85703E-05 6.50510E-10-1.98310E-19 2.52998E-18
 -1      1459 9.52340E-05-2.85702E-05-2.85702E-05 1.38823E-09 5.58710E-19 2.07332E-18
 -1      1460 9.52349E-05-2.85705E-05-2.85705E-05 5.60057E-10 5.66251E-19 2.43407E-18
 -1      1461 9.52354E-05-2.85707E-05-2.85706E-05 5.38343E-10 9.25084E-19 3.29737E-18
 -1      1462 9.52349E-05-2.85705E-05-2.85704E-05 1.17825E-09 4.72854E-19 2.32204E-18
 -1      1463 9.52358E-05-2.85708E-05-2.85707E-05 4.41127E-10 1.35559E-20 3.06586E-18
 -1      1464 9.52362E-05-2.85709E-05-2.85708E-05 4.17274E-10-1.16206E-19 2.27717E-18
 -1      1465 9.52357E-05-2.85708E-05-2.85707E-05 9.54688E-10 3.87091E-19 1.33684E-18
 -1      1466 9.52365E-05-2.85710E-05-2.85709E-05 3.07842E-10-5.05232E-19 1.97849E-18
 -1      1467 9.52367E-05-2.85711E-05-2.85710E-05 2.78431E-10-4.50868E-19 1.56407E-18
 -1      1468 9.52363E-05-2.85710E-05-2.85709E-05 7.09120E-10-1.08371E-18 1.60767E-18
 -1      1469 9.52369E-05-2.85711E-05-2.85711E-05 1.54312E-10-6.84691E-19 1.79033E-18
 -1      1470 9.52370E-05-2.85712E-05-2.85711E-05 1.15461E-10-5.61381E-20 1.82524E-18
 -1      1471 9.52368E-05-2.85711E-05-2.85710E-05 4.32806E-10-4.51779E-19 1.80481E-18
 -1      1472 9.52371E-05-2.85712E-05-2.85711E-05-1.14673E-11-1.62497E-18 1.26739E-18
 -1      1473 9.52371E-05-2.85712E-05-2.85711E-05 1.11670E-10-1.58219E-18 1.09192E-18
 -1      1474 1.12093E-04-3.18064E-05-3.49635E-05 2.30386E-06 5.47607E-19 6.63949E-18
 -1      1475 1.16364E-04-3.33110E-05-3.69296E-05 5.18684E-06 4.81962E-19 7.12344E-18
 -1      1476 1.13020E-04-3.30127E-05-3.43676E-05-2.08393E-06 3.81535E-19 5.74675E-18
 -1      1477 1.11210E-04-3.21500E-05-3.41795E-05-1.36816E-06 4.54116E-19 6.38249E-18
 -1      1478 1.11606E-04-3.09718E-05-3.49319E-05 1.58555E-06 8.86579E-19 4.26301E-18
 -1      1479 1.19825E-04-3.50693E-05-3.63507E-05-5.68727E-06 2.81480E-19 5.13577E-18
 -1      1480 1.14338E-04-3.33323E-05-3.47985E-05-5.02917E-06 3.00088E-19 5.43716E-18
 -1      1481 1.11461E-04-3.17267E-05-3.44067E-05-6.48704E-06 6.24951E-19 3.74235E-18
 -1      1482 1.32457E-04-3.88800E-05-4.01409E-05-9.37039E-06-5.54277E-20 5.01931E-18
 -1      1483 1.23387E-04-3.59617E-05-3.75782E-05-8.58347E-06 3.79180E-20 5.03159E-18
 -1      1484 1.16038E-04-3.30341E-05-3.57425E-05-1.33624E-05 2.40822E-19 3.41444E-18
 -1      1485 1.49897E-04-4.46981E-05-4.49293E-05-1.24898E-05-3.67074E-19 5.50550E-18
 -1      1486 1.37949E-04-4.05084E-05-4.18503E-05-1.18795E-05-3.11252E-19 5.15292E-18
 -1      1487 1.24563E-04-3.57963E-05-3.81641E-05-1.98745E-05-2.96700E-19 3.31981E-18
 -1      1488 1.67372E-04-5.18208E-05-4.88817E-05-1.20923E-05-6.20187E-19 6.51591E-18
 -1      1489 1.56496E-04-4.73058E-05-4.65472E-05-1.27037E-05-5.43875E-19 5.92860E-18
 -1      1490 1.36485E-04-4.10699E-05-4.08101E-05-2.34733E-05-8.77976E-19 3.66215E-18
 -1      1491 1.77119E-04-5.75568E-05-5.02511E-05-4.63892E-06-8.36657E-19 7.98307E-18
 -1      1492 1.73775E-04-5.51398E-05-4.99045E-05-7.39932E-06-8.35969E-19 7.09655E-18
 -1      1493 1.50384E-04-4.94742E-05-4.28445E-05-1.90365E-05-1.36399E-18 4.62177E-18
 -1      1494 1.74120E-04-5.79215E-05-4.95112E-05 1.02822E-05-5.84982E-19 9.29619E-18
 -1      1495 1.82760E-04-6.06685E-05-5.10137E-05 5.83357E-06-1.01030E-18 8.45889E-18
 -1      1496 1.64472E-04-5.90907E-05-4.46386E-05-3.07470E-06-1.55367E-18 5.36904E-18
 -1      1497 1.22788E-04-3.06582E-05-4.54863E-05 1.76594E-05 1.02152E-18 7.88376E-18
 -1      1498 1.44560E-04-4.08402E-05-4.79350E-05 2.04255E-05 1.08018E-18 9.36607E-18
 -1      1499 1.14424E-04-2.61196E-05-4.54149E-05 3.10780E-06 1.57209E-18 5.05626E-18
 -1      1500 1.19383E-04-2.84685E-05-4.56750E-05 7.30434E-06 1.26335E-18 6.99649E-18
 -1      1501 1.53886E-04-3.74571E-05-5.30661E-05 2.43042E-05 2.16163E-18 5.11534E-18
 -1      1502 1.36970E-04-3.78939E-05-4.72696E-05-1.83581E-05 4.20340E-19 2.00493E-18
 -1      1503 1.15849E-04-2.65868E-05-4.54025E-05-1.41454E-05 9.24113E-19 3.74706E-18
 -1      1504 1.50965E-04-3.29215E-05-5.34064E-05-9.34603E-06 2.28953E-18 3.75805E-18
 -1      1505 1.73396E-04-5.46870E-05-5.09476E-05-1.95953E-05 5.41360E-19 6.41204E-19
 -1      1506 1.44967E-04-4.11463E-05-4.73946E-05-2.01351E-05 6.34639E-19 1.35356E-18
 -1      1507 1.63922E-04-4.74624E-05-5.21998E-05-3.78150E-05 1.13926E-18 1.50528E-18
 -1      1508 1.92336E-04-6.13269E-05-5.40397E-05-4.81702E-06-5.81885E-19 6.11134E-19
 -1      1509 1.78890E-04-5.62829E-05-5.15388E-05-8.76530E-06-8.60797E-20 7.33954E-19
 -1      1510 1.76333E-04-5.78541E-05-5.06562E-05-2.52438E-05 3.98476E-19 9.71335E-19
 -1      1511 1.82141E-04-5.56604E-05-5.29077E-05 6.46015E-06-6.54174E-19 2.46571E-18
 -1      1512 1.87916E-04-5.89209E-05-5.36795E-05 4.28420E-06-3.18273E-19 1.19654E-18
 -1      1513 1.76117E-04-5.73397E-05-4.98405E-05 5.49830E-07-7.81335E-19 1.49057E-18
 -1      1514 1.60446E-04-4.76979E-05-4.81556E-05 9.02919E-06-2.49941E-19 2.92226E-18
 -1      1515 1.73405E-04-5.30036E-05-5.10546E-05 8.65038E-06-2.94926E-19 2.60103E-18
 -1      1516 1.62497E-04-5.02091E-05-4.75759E-05 1.48043E-05-5.76141E-19 2.35078E-18
 -1      1517 1.39786E-04-4.12222E-05-4.25144E-05 7.53793E-06 4.72724E-19 2.90289E-18
 -1      1518 1.51801E-04-4.55027E-05-4.56955E-05 7.85716E-06-1.25996E-20 2.97478E-18
 -1      1519 1.45006E-04-4.32248E-05-4.36199E-05 1.63760E-05 1.63769E-19 2.06930E-18
 -1      1520 1.24183E-04-3.66984E-05-3.77760E-05 5.27510E-06-3.12198E-19 3.02708E-18
 -1      1521 1.32920E-04-3.95268E-05-4.03075E-05 5.71019E-06-4.34316E-19 3.01226E-18
 -1      1522 1.29509E-04-3.81478E-05-3.93440E-05 1.28909E-05-1.28021E-19 2.34528E-18
 -1      1523 1.13954E-04-3.38204E-05-3.45396E-05 3.49510E-06 2.52879E-19 2.31976E-18
 -1      1524 1.19525E-04-3.55202E-05-3.62131E-05 3.83663E-06 5.83156E-19 2.94762E-18
 -1      1525 1.18070E-04-3.48211E-05-3.58655E-05 8.92183E-06 2.87171E-19 2.45491E-18
 -1      1526 1.06882E-04-3.18472E-05-3.22717E-05 2.18842E-06-1.22912E-19 2.23993E-18
 -1      1527 1.10588E-04-3.29332E-05-3.34071E-05 2.44387E-06 9.09634E-20 2.39313E-18
 -1      1528 1.10109E-04-3.26149E-05-3.33335E-05 5.83127E-06 1.86969E-19 2.22201E-18
 -1      1529 1.02440E-04-3.06080E-05-3.08465E-05 1.34519E-06-2.30922E-19 2.81334E-18
 -1      1530 1.04713E-04-3.12567E-05-3.15459E-05 1.51095E-06-2.16361E-19 2.26760E-18
 -1      1531 1.04675E-04-3.11453E-05-3.15865E-05 3.64766E-06-1.82853E-19 2.52351E-18
 -1      1532 9.96790E-05-2.98335E-05-2.99663E-05 8.21044E-07-6.19118E-19 2.72175E-18
 -1      1533 1.01059E-04-3.02194E-05-3.03906E-05 9.26451E-07 2.23782E-19 2.53088E-18
 -1      1534 1.01182E-04-3.02022E-05-3.04626E-05 2.24617E-06-3.10709E-19 2.78286E-18
 -1      1535 9.79727E-05-2.93521E-05-2.94262E-05 5.00323E-07 4.93417E-19 2.75866E-18
 -1      1536 9.88076E-05-2.95818E-05-2.96826E-05 5.66366E-07-1.39962E-19 3.14064E-18
 -1      1537 9.89682E-05-2.96014E-05-2.97533E-05 1.37500E-06-6.73351E-19 2.22124E-18
 -1      1538 9.69195E-05-2.90533E-05-2.90949E-05 3.05312E-07 1.75190E-19 2.02389E-18
 -1      1539 9.74251E-05-2.91904E-05-2.92500E-05 3.46436E-07-2.35035E-19 1.71188E-18
 -1      1540 9.75746E-05-2.92206E-05-2.93091E-05 8.40837E-07 7.81811E-19 1.77496E-18
 -1      1541 9.62685E-05-2.88677E-05-2.88911E-05 1.86901E-07 4.96608E-19 3.71594E-19
 -1      1542 9.65756E-05-2.89499E-05-2.89853E-05 2.12456E-07 6.77924E-19 1.59221E-18
 -1      1543 9.66990E-05-2.89795E-05-2.90313E-05 5.15047E-07 8.22323E-19 9.10652E-19
 -1      1544 9.58655E-05-2.87523E-05-2.87654E-05 1.14936E-07 3.03774E-20-1.52896E-19
 -1      1545 9.60521E-05-2.88017E-05-2.88228E-05 1.30647E-07-1.74328E-20-3.24395E-20
 -1      1546 9.61485E-05-2.88267E-05-2.88573E-05 3.16441E-07 8.29513E-20-1.71111E-19
 -1      1547 9.56242E-05-2.86827E-05-2.86907E-05 7.26375E-08 6.09105E-19-1.09509E-18
 -1      1548 9.57346E-05-2.87115E-05-2.87246E-05 8.21039E-08 8.63326E-20-6.43878E-19
 -1      1549 9.58081E-05-2.87325E-05-2.87501E-05 1.96689E-07 4.99300E-19-8.43979E-19
 -1      1550 9.54638E-05-2.86367E-05-2.86411E-05 4.47514E-08-6.87857E-19-7.24645E-19
 -1      1551 9.55357E-05-2.86552E-05-2.86632E-05 5.12158E-08-9.76104E-20-1.62815E-18
 -1      1552 9.55911E-05-2.86709E-05-2.86820E-05 1.23605E-07 3.15015E-20-1.94626E-18
 -1      1553 9.53638E-05-2.86077E-05-2.86102E-05 2.75840E-08-6.08808E-19 5.15014E-19
 -1      1554 9.54078E-05-2.86188E-05-2.86238E-05 3.16860E-08-5.66004E-19-5.21511E-19
 -1      1555 9.54490E-05-2.86310E-05-2.86376E-05 7.65138E-08-5.33467E-19-1.35949E-18
 -1      1556 9.53017E-05-2.85897E-05-2.85911E-05 1.68668E-08 1.64069E-18-1.13103E-18
 -1      1557 9.53284E-05-2.85963E-05-2.85994E-05 1.95023E-08 1.15910E-18 9.64416E-19
 -1      1558 9.53590E-05-2.86055E-05-2.86094E-05 4.72131E-08 5.22416E-19-1.62838E-18
 -1      1559 9.52635E-05-2.85786E-05-2.85794E-05 1.01212E-08 7.26446E-19-5.93135E-18
 -1      1560 9.52794E-05-2.85824E-05-2.85843E-05 1.18315E-08 1.14919E-18-3.40115E-18
 -1      1561 9.53021E-05-2.85893E-05-2.85917E-05 2.88327E-08 2.45674E-18-9.80200E-19
 -1      1562 9.52405E-05-2.85719E-05-2.85723E-05 5.84760E-09-1.16426E-18-4.96133E-18
 -1      1563 9.52497E-05-2.85739E-05-2.85752E-05 6.96750E-09-5.48406E-19-6.17254E-18
 -1      1564 9.52666E-05-2.85792E-05-2.85806E-05 1.72134E-08 1.63196E-19-5.05177E-18
 -1      1565 9.52273E-05-2.85681E-05-2.85683E-05 3.13421E-09-5.52906E-19-2.73073E-18
 -1      1566 9.52322E-05-2.85690E-05-2.85698E-05 3.87072E-09-1.22911E-19-4.12248E-18
 -1      1567 9.52448E-05-2.85729E-05-2.85739E-05 9.82768E-09-1.08585E-18-3.61360E-18
 -1      1568 9.52203E-05-2.85660E-05-2.85661E-05 1.42506E-09 3.50173E-19-2.72791E-18
 -1      1569 9.52225E-05-2.85664E-05-2.85669E-05 1.89704E-09 1.06034E-19-3.15869E-18
 -1      1570 9.52319E-05-2.85693E-05-2.85698E-05 5.12997E-09 3.23957E-19-3.17154E-18
 -1      1571 9.52174E-05-2.85652E-05-2.85652E-05 3.96452E-10-1.73869E-19-4.33696E-18
 -1      1572 9.52180E-05-2.85651E-05-2.85655E-05 6.91232E-10 7.71033E-19-2.58523E-18
 -1      1573 9.52250E-05-2.85673E-05-2.85677E-05 2.19773E-09 3.95707E-19-3.52622E-18
 -1      1574 9.52168E-05-2.85650E-05-2.85650E-05-2.76169E-10 1.09145E-18-4.01744E-18
 -1      1575 9.52164E-05-2.85647E-05-2.85649E-05-6.64927E-11-3.82911E-19-4.01593E-18
 -1      1576 9.52216E-05-2.85664E-05-2.85666E-05 3.92909E-10-4.39339E-20-3.17284E-18
 -1      1577 9.52177E-05-2.85653E-05-2.85653E-05-6.53733E-10 2.85017E-19-4.60000E-18
 -1      1578 9.52167E-05-2.85649E-05-2.85650E-05-5.21167E-10 7.57185E-19-4.57173E-18
 -1      1579 9.52206E-05-2.85661E-05-2.85662E-05-7.38887E-10 1.04527E-18-2.60090E-18
 -1      1580 9.52194E-05-2.85659E-05-2.85658E-05-8.43641E-10-8.20857E-19-3.86862E-18
 -1      1581 9.52181E-05-2.85654E-05-2.85654E-05-7.64366E-10-8.32466E-20-4.35693E-18
 -1      1582 9.52210E-05-2.85663E-05-2.85663E-05-1.36884E-09 7.74174E-20-2.42504E-18
 -1      1583 9.52216E-05-2.85665E-05-2.85664E-05-9.11774E-10 1.49325E-19-3.92212E-18
 -1      1584 9.52202E-05-2.85660E-05-2.85660E-05-8.68562E-10 4.38942E-20-4.04840E-18
 -1      1585 9.52222E-05-2.85667E-05-2.85667E-05-1.67089E-09-2.05063E-19-2.92339E-18
 -1      1586 9.52239E-05-2.85672E-05-2.85671E-05-9.03311E-10 6.52066E-19-6.30127E-18
 -1      1587 9.52225E-05-2.85667E-05-2.85667E-05-8.84052E-10 2.65047E-19-5.01825E-18
 -1      1588 9.52240E-05-2.85672E-05-2.85672E-05-1.76142E-09 7.42100E-19-3.21542E-18
 -1      1589 9.52261E-05-2.85679E-05-2.85678E-05-8.49274E-10-4.67813E-19-5.39526E-18
 -1      1590 9.52248E-05-2.85674E-05-2.85674E-05-8.45485E-10-1.45488E-19-7.00712E-18
 -1      1591 9.52258E-05-2.85678E-05-2.85677E-05-1.72039E-09 2.13322E-19-5.25108E-18
 -1      1592 9.52282E-05-2.85685E-05-2.85684E-05-7.70360E-10-8.23798E-19-2.94511E-18
 -1      1593 9.52271E-05-2.85681E-05-2.85681E-05-7.77000E-10-1.05345E-18-5.53318E-18
 -1      1594 9.52277E-05-2.85683E-05-2.85683E-05-1.60250E-09-9.16684E-19-5.53487E-18
 -1      1595 9.52300E-05-2.85690E-05-2.85690E-05-6.86251E-10 9.33379E-19-6.59871E-18
 -1      1596 9.52291E-05-2.85687E-05-2.85687E-05-6.97509E-10 1.61715E-18-3.77068E-18
 -1      1597 9.52295E-05-2.85689E-05-2.85688E-05-1.44886E-09 7.23948E-19-4.48818E-18
 -1      1598 9.52317E-05-2.85695E-05-2.85695E-05-5.97053E-10 7.85158E-20-6.96764E-18
 -1      1599 9.52308E-05-2.85693E-05-2.85692E-05-6.10791E-10-1.49133E-19-7.04132E-18
 -1      1600 9.52311E-05-2.85693E-05-2.85693E-05-1.28147E-09 7.98213E-19-4.66613E-18
 -1      1601 9.52332E-05-2.85700E-05-2.85699E-05-5.09920E-10-7.44405E-19-5.97658E-18
 -1      1602 9.52324E-05-2.85697E-05-2.85697E-05-5.24366E-10-2.88119E-19-7.02232E-18
 -1      1603 9.52325E-05-2.85698E-05-2.85697E-05-1.10874E-09-4.28467E-19-4.82492E-18
 -1      1604 9.52344E-05-2.85704E-05-2.85703E-05-4.26897E-10-1.05602E-19-5.44966E-18
 -1      1605 9.52338E-05-2.85701E-05-2.85701E-05-4.41870E-10-1.55526E-19-5.28233E-18
 -1      1606 9.52338E-05-2.85702E-05-2.85701E-05-9.41325E-10-8.00330E-19-5.39528E-18
 -1      1607 9.52355E-05-2.85707E-05-2.85706E-05-3.45776E-10-1.55797E-18-3.47709E-18
 -1      1608 9.52349E-05-2.85705E-05-2.85705E-05-3.61779E-10-7.17566E-19-5.71859E-18
 -1      1609 9.52348E-05-2.85705E-05-2.85704E-05-7.79813E-10-5.89006E-19-4.64953E-18
 -1      1610 9.52363E-05-2.85709E-05-2.85709E-05-2.61167E-10 1.58908E-18-4.13803E-18
 -1      1611 9.52359E-05-2.85708E-05-2.85707E-05-2.79738E-10 1.01404E-18-2.64646E-18
 -1      1612 9.52357E-05-2.85707E-05-2.85707E-05-6.17784E-10-3.70669E-19-4.77866E-18
 -1      1613 9.52368E-05-2.85711E-05-2.85710E-05-1.64809E-10-1.27849E-18-1.05689E-18
 -1      1614 9.52365E-05-2.85710E-05-2.85709E-05-1.88776E-10-1.55065E-18-3.06110E-18
 -1      1615 9.52364E-05-2.85709E-05-2.85709E-05-4.43189E-10-6.48943E-19-3.52484E-18
 -1      1616 9.52371E-05-2.85711E-05-2.85711E-05-5.94004E-11 1.23142E-18-1.42833E-18
 -1      1617 9.52370E-05-2.85711E-05-2.85711E-05-8.40351E-11 7.77137E-19-6.57121E-19
 -1      1618 9.52369E-05-2.85711E-05-2.85710E-05-2.43260E-10-4.52977E-19-3.93328E-18
 -1      1619 9.52371E-05-2.85711E-05-2.85712E-05-5.42922E-12-8.98391E-19-5.62815E-19
 -1      1620 9.52371E-05-2.85712E-05-2.85711E-05-1.32396E-11-1.09176E-19-8.55259E-19
 -1      1621 9.52371E-05-2.85712E-05-2.85711E-05-8.87440E-11 6.25795E-19-1.42796E-18
 -1      1622 9.52371E-05-2.85711E-05-2.85711E-05-1.45611E-11-1.40920E-18-1.33175E-18
 -1      1623 9.52372E-05-2.85714E-05-2.85711E-05-1.44473E-10-4.51531E-18-9.07167E-19
 -1      1624 9.52371E-05-2.85713E-05-2.85711E-05-1.11366E-10-3.10215E-18-3.65093E-19
 -1      1625 9.52371E-05-2.85713E-05-2.85711E-05-1.49952E-10-9.66923E-19-1.59957E-18
 -1      1626 9.52373E-05-2.85718E-05-2.85709E-05-2.44119E-10-3.29326E-18 4.42712E-19
 -1      1627 9.52373E-05-2.85716E-05-2.85710E-05-2.18665E-10-4.29630E-18 4.15471E-19
 -1      1628 9.52372E-05-2.85716E-05-2.85710E-05-3.65597E-10-3.75194E-18-9.77151E-20
 -1      1629 9.52375E-05-2.85724E-05-2.85708E-05-2.90274E-10-7.36409E-18 8.58307E-19
 -1      1630 9.52374E-05-2.85721E-05-2.85708E-05-2.76774E-10-4.62402E-18-6.71234E-19
 -1      1631 9.52374E-05-2.85721E-05-2.85709E-05-5.13256E-10-3.13743E-18-1.23306E-18
 -1      1632 9.52377E-05-2.85731E-05-2.85706E-05-2.86114E-10-9.63090E-18-1.67359E-18
 -1      1633 9.52376E-05-2.85727E-05-2.85707E-05-2.85003E-10-9.23008E-18-8.57608E-20
 -1      1634 9.52376E-05-2.85726E-05-2.85707E-05-5.61974E-10-5.99489E-18-2.23089E-18
 -1      1635 9.52379E-05-2.85736E-05-2.85704E-05-2.40952E-10-3.80341E-18 4.56150E-18
 -1      1636 9.52378E-05-2.85733E-05-2.85705E-05-2.50085E-10-8.36256E-18 2.02478E-18
 -1      1637 9.52378E-05-2.85731E-05-2.85706E-05-5.20215E-10-5.37972E-18 2.41821E-18
 -1      1638 9.52380E-05-2.85741E-05-2.85703E-05-1.64159E-10-2.43705E-18-1.13475E-18
 -1      1639 9.52380E-05-2.85738E-05-2.85703E-05-1.81800E-10-2.78717E-18 4.13524E-19
 -1      1640 9.52379E-05-2.85736E-05-2.85704E-05-4.06720E-10-4.35299E-18 2.45466E-18
 -1      1641 9.52381E-05-2.85743E-05-2.85702E-05-6.77504E-11-2.42015E-18 1.52983E-18
 -1      1642 9.52381E-05-2.85742E-05-2.85702E-05-9.11199E-11-2.58067E-18-4.13667E-21
 -1      1643 9.52380E-05-2.85739E-05-2.85703E-05-2.41257E-10-1.86140E-18-1.12119E-18
 -1      1644 9.52381E-05-2.85743E-05-2.85702E-05 3.60957E-11-4.50013E-18-1.18324E-18
 -1      1645 9.52381E-05-2.85743E-05-2.85702E-05 9.79317E-12-2.91506E-18-4.70025E-19
 -1      1646 9.52380E-05-2.85740E-05-2.85703E-05-4.75608E-11-2.06710E-18-7.34529E-19
 -1      1647 9.52380E-05-2.85741E-05-2.85703E-05 1.35451E-10-7.37934E-18-1.26899E-18
 -1      1648 9.52381E-05-2.85742E-05-2.85702E-05 1.09177E-10-6.25016E-18-1.20043E-18
 -1      1649 9.52380E-05-2.85740E-05-2.85703E-05 1.50959E-10-4.27328E-18-1.75674E-18
 -1      1650 9.52379E-05-2.85737E-05-2.85704E-05 2.18592E-10-9.75358E-18-8.99320E-19
 -1      1651 9.52380E-05-2.85739E-05-2.85703E-05 1.95563E-10-7.23237E-18-1.42777E-18
 -1      1652 9.52379E-05-2.85737E-05-2.85704E-05 3.31283E-10-6.17633E-18-1.92420E-18
 -1      1653 9.52378E-05-2.85732E-05-2.85705E-05 2.73801E-10-6.54786E-18 2.38426E-18
 -1      1654 9.52379E-05-2.85735E-05-2.85705E-05 2.57189E-10-9.26373E-18 1.37163E-18
 -1      1655 9.52378E-05-2.85733E-05-2.85705E-05 4.70392E-10-5.33671E-18 1.24481E-18
 -1      1656 9.52376E-05-2.85725E-05-2.85707E-05 2.92512E-10-2.26494E-18 1.80100E-18
 -1      1657 9.52377E-05-2.85729E-05-2.85706E-05 2.84833E-10-5.40011E-18 1.67029E-18
 -1      1658 9.52377E-05-2.85728E-05-2.85706E-05 5.48318E-10-5.08029E-18 3.41662E-18
 -1      1659 9.52374E-05-2.85719E-05-2.85709E-05 2.64237E-10-3.80172E-18-1.01354E-18
 -1      1660 9.52375E-05-2.85723E-05-2.85708E-05 2.69096E-10-3.37803E-18-1.13823E-18
 -1      1661 9.52375E-05-2.85723E-05-2.85708E-05 5.47009E-10-4.69703E-18-2.57833E-19
 -1      1662 9.52372E-05-2.85715E-05-2.85710E-05 1.85331E-10-3.93884E-18-1.91531E-19
 -1      1663 9.52373E-05-2.85717E-05-2.85710E-05 2.02349E-10-3.34911E-18 6.17194E-19
 -1      1664 9.52373E-05-2.85718E-05-2.85709E-05 4.51972E-10-3.27321E-18-2.78451E-19
 -1      1665 2.19356E-05-8.24092E-05 1.93632E-05-1.80095E-05 3.43768E-18 1.83721E-18
 -1      1666 2.46050E-05-8.57460E-05 1.97250E-05-6.28620E-06 1.94860E-18 9.74723E-19
 -1      1667 1.94650E-05-5.98429E-05 1.12034E-05-1.43888E-05 3.99291E-18 1.69449E-18
 -1      1668 2.50426E-05-7.87520E-05 1.62429E-05-1.24089E-05 3.35552E-18 1.34932E-18
 -1      1669 2.75282E-05-3.31024E-05-3.35076E-06 1.69875E-06 4.18434E-18 3.27039E-18
 -1      1670 2.68120E-05-5.62692E-05 5.23291E-06-1.08058E-05 4.22924E-18 2.48456E-18
 -1      1671 6.70856E-05-1.84858E-05-2.42795E-05 3.60278E-05 4.19451E-18 6.21468E-18
 -1      1672 4.57746E-05-3.10235E-05-1.29248E-05 1.09757E-05 4.56381E-18 4.00647E-18
 -1      1673 1.61543E-04-3.86115E-05-5.05539E-05 6.08924E-05 4.08609E-18 7.15573E-18
 -1      1674 1.06799E-04-2.94014E-05-3.64818E-05 3.80317E-05 3.92769E-18 6.69156E-18
 -1      1675 2.59384E-04-6.85879E-05-7.30200E-05 5.21302E-05 3.05842E-18 5.61752E-18
 -1      1676 1.93817E-04-4.41156E-05-6.17851E-05 5.18371E-05 4.18604E-18 6.83894E-18
 -1      1677 3.28608E-04-8.96251E-05-8.74097E-05 2.42196E-05 2.11335E-18 2.65375E-18
 -1      1678 2.84336E-04-6.93914E-05-8.15862E-05 5.55513E-05 2.97499E-18 5.46844E-18
 -1      1679 3.25107E-04-8.61552E-05-8.85627E-05-2.86018E-05 1.81180E-18-1.13248E-18
 -1      1680 3.32534E-04-8.99852E-05-8.93249E-05 1.39080E-05 1.83256E-18 2.08412E-18
 -1      1681 2.53564E-04-5.86786E-05-7.58482E-05-5.62858E-05 3.19395E-18-4.21992E-18
 -1      1682 3.09283E-04-8.38614E-05-8.39443E-05-3.35152E-05 2.00323E-18-1.81350E-18
 -1      1683 1.60830E-04-3.12004E-05-5.47776E-05-6.03198E-05 5.96650E-18-6.88977E-18
 -1      1684 2.27125E-04-5.42457E-05-6.72567E-05-6.89397E-05 3.97428E-18-5.85469E-18
 -1      1685 8.42019E-05-2.88731E-05-2.80257E-05-3.03644E-05 6.30701E-18-6.58907E-18
 -1      1686 1.30064E-04-2.98443E-05-4.23883E-05-5.81965E-05 5.44388E-18-6.88807E-18
 -1      1687 3.64417E-05-4.09121E-05-4.89302E-06-2.23517E-06 6.82709E-18-5.27363E-18
 -1      1688 4.86040E-05-2.11930E-05-1.57638E-05-2.45191E-05 7.29126E-18-6.88638E-18
 -1      1689 2.67248E-05-6.82129E-05 1.08036E-05 1.04215E-05 3.66681E-18-3.24747E-18
 -1      1690 2.36752E-05-4.48756E-05 3.46401E-06 3.89088E-06 5.79709E-18-4.93587E-18
 -1      1691 2.58190E-05-8.80463E-05 1.93465E-05 1.13212E-05-2.61945E-19-1.88359E-18
 -1      1692 1.98546E-05-7.49104E-05 1.66013E-05 2.00181E-05 3.07515E-18-2.63268E-18
 -1      1693 2.35027E-05-7.99513E-05 1.81017E-05 2.49518E-06-4.28514E-18-1.97740E-18
 -1      1694 2.44245E-05-8.57557E-05 1.95493E-05 1.36568E-05-1.27193E-18-1.81223E-18
 -1      1695 2.04911E-05-5.69694E-05 1.05869E-05 5.62238E-07-7.28957E-18-2.92883E-18
 -1      1696 2.63037E-05-7.78057E-05 1.55784E-05 4.45433E-06-5.44812E-18-1.94648E-18
 -1      1697 2.53343E-05-2.31021E-05-3.89545E-06 1.88755E-05-7.86047E-18-4.08312E-18
 -1      1698 2.69159E-05-4.88620E-05 4.18755E-06 7.94691E-06-7.54198E-18-3.13423E-18
 -1      1699 4.88412E-05 1.59726E-06-2.21917E-05 4.89126E-05-7.54198E-18-5.78862E-18
 -1      1700 3.61140E-05-1.54387E-05-1.23566E-05 2.65387E-05-7.96804E-18-4.81199E-18
 -1      1701 1.02531E-04 1.71682E-06-4.26844E-05 8.05914E-05-6.00038E-18-7.01343E-18
 -1      1702 6.85823E-05 3.35983E-06-3.20330E-05 5.78114E-05-7.14896E-18-6.24263E-18
 -1      1703 1.80821E-04-2.51305E-05-6.22728E-05 8.70711E-05-4.06491E-18-5.31598E-18
 -1      1704 1.32091E-04-6.23480E-06-5.24437E-05 8.08243E-05-5.30327E-18-6.41204E-18
 -1      1705 2.48675E-04-5.51141E-05-7.67581E-05 6.32627E-05-2.32751E-18-2.16502E-18
 -1      1706 2.06208E-04-3.22729E-05-7.03987E-05 8.27969E-05-3.58676E-18-4.55196E-18
 -1      1707 2.77070E-04-6.89127E-05-8.27591E-05 9.20952E-06-1.50115E-18 1.29035E-18
 -1      1708 2.60368E-04-5.95736E-05-8.04069E-05 4.42202E-05-2.00133E-18-1.12698E-18
 -1      1709 2.65557E-04-6.14505E-05-8.12450E-05-4.92067E-05-1.68157E-18 4.22754E-18
 -1      1710 2.82146E-04-7.16527E-05-8.34500E-05-1.05427E-05-1.07721E-18 2.18460E-18
 -1      1711 2.01655E-04-2.95908E-05-6.95704E-05-8.45116E-05-3.65685E-18 6.57636E-18
 -1      1712 2.47339E-04-5.39578E-05-7.65985E-05-6.54763E-05-2.35155E-18 4.88992E-18
 -1      1713 1.25200E-04-8.11954E-07-5.17535E-05-8.48729E-05-4.88484E-18 6.60516E-18
 -1      1714 1.74166E-04-1.97684E-05-6.15350E-05-9.31539E-05-3.97555E-18 7.42509E-18
 -1      1715 6.58892E-05-6.66386E-07-2.93842E-05-5.32773E-05-3.57787E-18 4.17079E-18
 -1      1716 1.00143E-04 5.86706E-07-4.11865E-05-7.88824E-05-4.03526E-18 6.12744E-18
 -1      1717 3.18114E-05-2.19418E-05-8.33854E-06-2.07582E-05-2.01001E-18 2.40600E-18
 -1      1718 4.15257E-05-4.58988E-07-1.86471E-05-4.34614E-05-3.48131E-18 3.48723E-18
 -1      1719 2.59291E-05-6.02650E-05 8.70609E-06-3.93574E-06-9.14796E-20 5.36860E-19
 -1      1720 2.12806E-05-3.11455E-05 5.67058E-07-1.13580E-05-1.46621E-18 1.94818E-18
 -1      1721 2.69173E-05-8.64593E-05 1.86527E-05-8.41998E-06 1.24599E-18-1.35525E-19
 -1      1722 2.18750E-05-6.89275E-05 1.45042E-05 4.21390E-07 6.94567E-19-2.37699E-19
 -1      1723 1.15065E-04-2.58094E-05-3.83302E-05 1.33219E-05 6.01129E-19 6.06497E-18
 -1      1724 1.75433E-04-5.64839E-05-5.08985E-05 2.01890E-05 2.80156E-19 1.00052E-17
 -1      1725 1.76374E-04-6.26342E-05-4.82447E-05 2.17947E-05-5.14149E-19 6.21632E-18
 -1      1726 1.55795E-04-4.76313E-05-4.83525E-05 2.17252E-05 8.09022E-19 9.47237E-18
 -1      1727 3.30569E-05-5.28014E-05 3.66187E-06 1.29873E-05 1.60936E-18 1.09384E-18
 -1      1728 1.16178E-05-5.64382E-05 1.43992E-05-1.25772E-05 1.62863E-18 1.52381E-18
 -1      1729 1.42822E-05-5.35132E-05 1.22609E-05 1.35988E-06 1.46346E-18 1.97105E-18
 -1      1730 9.52371E-05-2.85712E-05-2.85711E-05 1.16477E-10-2.86624E-18 2.01789E-19
 -1      1731 9.52372E-05-2.85714E-05-2.85711E-05 1.63021E-10-2.56373E-18-5.96186E-19
 -1      1732 9.52372E-05-2.85715E-05-2.85710E-05 3.36991E-10-3.27576E-18 4.85547E-19
 -1      1733 6.81786E-05-5.13578E-05-1.12666E-05 2.36696E-05 1.92446E-18 2.82147E-18
 -1      1734 1.31582E-04-5.87730E-05-3.22471E-05 2.83437E-05 1.51619E-18 4.42490E-18
 -1      1735 1.96612E-04-6.58382E-05-5.33132E-05 9.16100E-06 2.47228E-18 3.09591E-18
 -1      1736 2.41304E-04-5.97399E-05-7.17372E-05-4.60494E-06 3.19628E-18 2.96462E-18
 -1      1737 2.67713E-04-5.27501E-05-8.10088E-05 1.16327E-07 3.37712E-18 2.46952E-18
 -1      1738 2.56337E-04-5.03877E-05-7.86940E-05 4.54864E-06 2.99596E-18 1.13418E-18
 -1      1739 2.29358E-04-5.93430E-05-6.69697E-05-9.05513E-06 3.43789E-18-7.70800E-19
 -1      1740 1.74863E-04-6.25726E-05-4.71237E-05-2.28522E-05 3.16663E-18-2.16163E-18
 -1      1741 1.09385E-04-5.68470E-05-2.46393E-05-3.03343E-05 3.05525E-18-3.51773E-18
 -1      1742 5.32547E-05-5.16653E-05-4.80378E-06-2.28250E-05 2.42251E-18-4.06195E-18
 -1      1743 2.34756E-05-5.44987E-05 8.54445E-06-9.13562E-06 1.14180E-18-3.97153E-18
 -1      1744 1.10597E-05-5.62919E-05 1.44082E-05 6.34342E-06-7.16590E-19-3.52112E-18
 -1      1745 1.40149E-05-5.31738E-05 1.23094E-05 1.68759E-05-2.42887E-18-3.19628E-18
 -1      1746 2.88640E-05-4.60447E-05 3.81388E-06 2.91612E-05-4.09371E-18-2.87811E-18
 -1      1747 5.46698E-05-3.58242E-05-1.02096E-05 4.15081E-05-4.75270E-18-3.12343E-18
 -1      1748 9.16207E-05-2.75332E-05-2.76654E-05 5.26771E-05-4.76541E-18-4.13056E-18
 -1      1749 1.41260E-04-2.80272E-05-4.64337E-05 5.53918E-05-3.95734E-18-3.94887E-18
 -1      1750 1.88212E-04-3.15476E-05-6.32158E-05 4.53912E-05-3.88095E-18-2.33273E-18
 -1      1751 2.20078E-04-3.37525E-05-7.44971E-05 2.68607E-05-3.46140E-18-7.88164E-19
 -1      1752 2.33180E-04-3.64507E-05-7.86082E-05-1.79534E-06-2.47080E-18 4.82279E-19
 -1      1753 2.22929E-04-3.56934E-05-7.48674E-05-2.95708E-05-2.49239E-18 2.05194E-18
 -1      1754 1.85453E-04-2.95946E-05-6.28346E-05-5.11806E-05-2.58642E-18 3.28141E-18
 -1      1755 1.36692E-04-2.77526E-05-4.49431E-05-5.67566E-05-1.93589E-18 4.30377E-18
 -1      1756 8.76325E-05-3.01465E-05-2.49249E-05-5.19980E-05-1.02406E-18 3.30639E-18
 -1      1757 4.62432E-05-3.79313E-05-6.09197E-06-3.81198E-05-2.95614E-19 2.21933E-18
 -1      1758 2.24741E-05-5.07441E-05 7.91079E-06-2.43305E-05 6.26804E-20 1.04185E-18
 -1      1759 1.05772E-04-2.29732E-05-3.55701E-05-1.79195E-05-8.71293E-19 1.99752E-18
 -1      1760 1.71695E-04-5.32507E-05-5.16433E-05 3.62925E-05 1.53652E-18 6.90778E-18
 -1      1761 9.09602E-05-1.18540E-05-3.40231E-05-1.49946E-05-6.59141E-19-1.51431E-18
 -1      1762 9.16081E-05-1.25398E-05-3.40579E-05-1.70076E-05-8.98179E-19-1.29268E-18
 -1      1763 9.29012E-05-1.42465E-05-3.38703E-05-1.78683E-05-1.00855E-18-9.91902E-19
 -1      1764 9.40473E-05-1.58839E-05-3.40389E-05-1.95304E-05-1.21351E-18-5.98058E-19
 -1      1765 9.42709E-05-1.72273E-05-3.30476E-05-1.59322E-05-9.86757E-19-1.02345E-18
 -1      1766 9.03629E-05-1.06653E-05-3.42255E-05-7.62849E-06-1.71359E-20-1.62407E-18
 -1      1767 9.04051E-05-1.07194E-05-3.42383E-05-9.61247E-06-1.44542E-19-1.71829E-18
 -1      1768 8.99061E-05-1.04262E-05-3.41243E-05-3.50245E-06 2.75987E-19-1.50135E-18
 -1      1769 9.02113E-05-1.05372E-05-3.42148E-05-5.54956E-06 1.25798E-19-1.63169E-18
 -1      1770 9.25493E-05-1.38850E-05-3.37651E-05-6.51424E-06 4.39101E-20-1.52258E-18
 -1      1771 8.85811E-05-9.81324E-06-3.38186E-05 6.86093E-07 6.53499E-19-1.28212E-18
 -1      1772 8.93530E-05-1.01158E-05-3.40086E-05-1.31263E-06 4.73877E-19-1.35603E-18
 -1      1773 9.18603E-05-1.34780E-05-3.36533E-05-2.27621E-06 4.42554E-19-1.31540E-18
 -1      1774 8.61659E-05-8.56154E-06-3.33254E-05 4.62094E-06 9.42106E-19-1.26234E-18
 -1      1775 8.74607E-05-9.12508E-06-3.35995E-05 2.81811E-06 8.38344E-19-1.29820E-18
 -1      1776 9.01188E-05-1.25184E-05-3.33258E-05 2.07038E-06 8.44712E-19-1.17515E-18
 -1      1777 8.28327E-05-6.61965E-06-3.27382E-05 7.85297E-06 1.17370E-18-1.24670E-18
 -1      1778 8.44961E-05-7.41445E-06-3.30394E-05 6.43706E-06 1.07617E-18-1.30548E-18
 -1      1779 8.71391E-05-1.07198E-05-3.28211E-05 6.11212E-06 1.11084E-18-1.22356E-18
 -1      1780 7.92930E-05-4.28632E-06-3.22285E-05 9.90898E-06 1.28318E-18-1.14495E-18
 -1      1781 8.09040E-05-5.14122E-06-3.24606E-05 9.04642E-06 1.22765E-18-1.22601E-18
 -1      1782 8.32231E-05-8.11006E-06-3.22501E-05 9.26172E-06 1.30699E-18-1.16255E-18
 -1      1783 7.68260E-05-2.31304E-06-3.20164E-05 1.05373E-05 1.41793E-18-9.55824E-19
 -1      1784 7.77323E-05-2.90478E-06-3.20664E-05 1.02478E-05 1.33944E-18-1.08564E-18
 -1      1785 7.93410E-05-5.22875E-06-3.17960E-05 1.09184E-05 1.41392E-18-1.07406E-18
 -1      1786 7.68447E-05-1.64661E-06-3.22990E-05 1.00005E-05 1.58581E-18-5.53000E-19
 -1      1787 7.63727E-05-1.61921E-06-3.20700E-05 1.00726E-05 1.46998E-18-7.91479E-19
 -1      1788 7.69905E-05-3.09078E-06-3.16677E-05 1.08238E-05 1.59701E-18-8.07557E-19
 -1      1789 8.06396E-05-3.35468E-06-3.31842E-05 9.14479E-06 1.63008E-18 8.15269E-21
 -1      1790 7.82835E-05-2.34968E-06-3.26388E-05 9.10910E-06 1.57565E-18-3.63384E-19
 -1      1791 7.78563E-05-3.01122E-06-3.20425E-05 9.33640E-06 1.67348E-18-3.88159E-19
 -1      1792 8.86422E-05-8.15811E-06-3.45685E-05 9.16600E-06 1.57872E-18 9.82876E-19
 -1      1793 8.43290E-05-5.90118E-06-3.37753E-05 8.45770E-06 1.57260E-18 3.89966E-19
 -1      1794 8.31265E-05-6.11372E-06-3.29565E-05 7.51629E-06 1.65079E-18 2.56267E-19
 -1      1795 9.95203E-05-1.61443E-05-3.60841E-05 1.07320E-05 1.25267E-18 2.50277E-18
 -1      1796 9.43162E-05-1.26093E-05-3.52224E-05 9.25528E-06 1.41281E-18 1.59891E-18
 -1      1797 9.29408E-05-1.29894E-05-3.41826E-05 6.47227E-06 1.52135E-18 1.22436E-18
 -1      1798 5.34223E-05-4.71405E-05-4.17740E-06 2.74330E-05 5.39560E-19 1.03190E-18
 -1      1799 3.72622E-05-4.38749E-05 1.29324E-06 2.23914E-05 7.03037E-19 1.63901E-19
 -1      1800 1.76919E-04-6.64125E-05-4.76495E-05 1.97273E-05 1.66018E-19 4.39907E-18
 -1      1801 1.74838E-04-7.10235E-05-4.44003E-05 5.79576E-06-9.03996E-19 3.80784E-18
 -1      1802 9.96670E-05-1.93119E-05-3.41076E-05-2.04074E-05-1.14748E-18 3.83177E-19
 -1      1803 1.08470E-04-2.17752E-05-3.68835E-05 1.32060E-05 9.40657E-19 3.78168E-18
 -1      1804 9.56526E-05-2.69372E-05-2.93403E-05-8.05877E-06-9.51589E-19 1.00183E-19
 -1      1805 9.31564E-05-2.68380E-05-2.84195E-05-6.55558E-06-7.15835E-19-1.42196E-19
 -1      1806 9.18735E-05-2.69280E-05-2.77427E-05-5.53942E-06-6.13292E-19-1.10544E-19
 -1      1807 9.02170E-05-2.67361E-05-2.71867E-05-5.04054E-06-5.06281E-19-2.55281E-19
 -1      1808 9.42871E-05-2.68028E-05-2.89283E-05-8.07850E-06-8.74667E-19-3.30955E-19
 -1      1809 8.90470E-05-2.65628E-05-2.67257E-05-4.64894E-06-3.85807E-19-2.13207E-19
 -1      1810 8.76635E-05-2.62335E-05-2.63119E-05-4.50858E-06-2.93896E-19-3.47368E-19
 -1      1811 9.19553E-05-2.71270E-05-2.77916E-05-6.42706E-06-5.57602E-19-2.82932E-19
 -1      1812 8.65810E-05-2.59256E-05-2.59691E-05-4.34918E-06-2.65170E-19-3.25110E-19
 -1      1813 8.53390E-05-2.55103E-05-2.56245E-05-4.26116E-06-1.64639E-19-3.26090E-19
 -1      1814 8.97784E-05-2.67909E-05-2.70013E-05-5.78639E-06-3.96295E-19-2.63071E-19
 -1      1815 8.43292E-05-2.51207E-05-2.53606E-05-4.05090E-06-2.40726E-19-2.54303E-19
 -1      1816 8.32282E-05-2.46702E-05-2.50728E-05-3.83175E-06-3.75772E-19-5.35652E-19
 -1      1817 8.76981E-05-2.60687E-05-2.64211E-05-5.35929E-06-2.77935E-19-3.03962E-19
 -1      1818 8.23400E-05-2.42619E-05-2.48773E-05-3.39138E-06-4.65297E-19-5.22188E-19
 -1      1819 8.14707E-05-2.38547E-05-2.46612E-05-2.94692E-06-3.79289E-19-5.71307E-19
 -1      1820 8.57725E-05-2.51497E-05-2.59952E-05-4.62376E-06-4.32359E-19-3.76650E-19
 -1      1821 8.08091E-05-2.35144E-05-2.45366E-05-2.20949E-06-3.47409E-19-4.22279E-19
 -1      1822 8.02974E-05-2.32442E-05-2.44158E-05-1.53933E-06-2.54930E-19-3.95034E-19
 -1      1823 8.41781E-05-2.42475E-05-2.57066E-05-3.29682E-06-2.82413E-19-2.49969E-19
 -1      1824 7.99795E-05-2.30625E-05-2.43677E-05-5.61191E-07-2.88918E-19-3.57223E-19
 -1      1825 7.99286E-05-2.30066E-05-2.43614E-05 2.45012E-07-6.29220E-20-4.09078E-19
 -1      1826 8.31609E-05-2.36031E-05-2.55537E-05-1.36171E-06-2.23961E-19-2.40484E-19
 -1      1827 8.00269E-05-2.30412E-05-2.43922E-05 1.30483E-06-3.19014E-19-7.72362E-19
 -1      1828 8.04701E-05-2.32288E-05-2.45054E-05 2.09959E-06-5.71046E-19-1.01124E-18
 -1      1829 8.29297E-05-2.34156E-05-2.55370E-05 9.38957E-07-4.47849E-19-7.14939E-19
 -1      1830 8.09708E-05-2.34769E-05-2.46103E-05 3.03950E-06-5.10255E-19-1.13749E-18
 -1      1831 8.18518E-05-2.38751E-05-2.48304E-05 3.67251E-06-1.76229E-19-1.32636E-18
 -1      1832 8.35514E-05-2.37605E-05-2.56509E-05 3.19436E-06-6.48658E-19-8.16122E-19
 -1      1833 8.26539E-05-2.42743E-05-2.49965E-05 4.32488E-06-2.04290E-19-1.31963E-18
 -1      1834 8.38413E-05-2.48026E-05-2.52951E-05 4.69619E-06-3.13943E-19-1.32238E-18
 -1      1835 8.49056E-05-2.45571E-05-2.58800E-05 4.98399E-06-3.02753E-19-1.21570E-18
 -1      1836 8.47940E-05-2.52593E-05-2.55029E-05 4.98249E-06-2.14115E-19-1.43670E-18
 -1      1837 8.61205E-05-2.58210E-05-2.58427E-05 5.06879E-06-9.42804E-20-1.47174E-18
 -1      1838 8.67251E-05-2.56067E-05-2.61986E-05 6.03058E-06-3.03785E-19-1.14696E-18
 -1      1839 8.70753E-05-2.62483E-05-2.60696E-05 5.00997E-06-1.99511E-19-1.29181E-18
 -1      1840 8.83819E-05-2.67624E-05-2.64127E-05 4.85660E-06-9.76520E-20-1.19389E-18
 -1      1841 8.86932E-05-2.66788E-05-2.65732E-05 6.27403E-06-2.16764E-20-9.97015E-19
 -1      1842 8.92306E-05-2.71052E-05-2.66370E-05 4.54371E-06-3.23342E-19-1.09991E-18
 -1      1843 9.03987E-05-2.75236E-05-2.69528E-05 4.23436E-06-1.46289E-19-1.28550E-18
 -1      1844 9.05409E-05-2.75939E-05-2.69672E-05 5.84641E-06-1.89926E-19-1.18274E-18
 -1      1845 9.10858E-05-2.77637E-05-2.71570E-05 3.78352E-06-1.77672E-19-1.42859E-18
 -1      1846 9.20490E-05-2.80715E-05-2.74255E-05 3.40684E-06-3.42165E-19-1.47714E-18
 -1      1847 9.21004E-05-2.82624E-05-2.73470E-05 4.98441E-06-2.97213E-19-1.05239E-18
 -1      1848 9.25640E-05-2.82178E-05-2.75987E-05 2.92192E-06-4.10427E-19-1.93789E-18
 -1      1849 9.33032E-05-2.84237E-05-2.78114E-05 2.54880E-06-1.76350E-19-1.89856E-18
 -1      1850 9.33078E-05-2.86784E-05-2.76867E-05 3.93555E-06-5.28420E-19-1.60499E-18
 -1      1851 9.36634E-05-2.84984E-05-2.79490E-05 2.10233E-06 3.39602E-19-2.28804E-18
 -1      1852 9.41936E-05-2.86230E-05-2.81066E-05 1.77707E-06 2.27862E-19-2.25919E-18
 -1      1853 9.41753E-05-2.88876E-05-2.79706E-05 2.89597E-06-4.88260E-20-1.84515E-18
 -1      1854 9.44289E-05-2.86501E-05-2.82093E-05 1.40755E-06 6.79876E-20-1.98724E-18
 -1      1855 9.47837E-05-2.87163E-05-2.83185E-05 1.14971E-06 1.14515E-20-2.00614E-18
 -1      1856 9.47561E-05-2.89539E-05-2.81933E-05 1.98771E-06 2.59373E-19-2.02698E-18
 -1      1857 9.49260E-05-2.87160E-05-2.83903E-05 8.68534E-07 2.18649E-19-1.64673E-18
 -1      1858 9.51454E-05-2.87441E-05-2.84606E-05 6.79746E-07 6.04982E-19-1.64379E-18
 -1      1859 9.51167E-05-2.89363E-05-2.83575E-05 1.26472E-06 4.07831E-19-1.88489E-18
 -1      1860 9.52227E-05-2.87305E-05-2.85074E-05 4.81030E-07 3.76044E-19-1.49388E-18
 -1      1861 9.53449E-05-2.87361E-05-2.85487E-05 3.52666E-07-4.68432E-19-1.50542E-18
 -1      1862 9.53202E-05-2.88792E-05-2.84709E-05 7.32050E-07 4.37196E-19-1.63809E-18
 -1      1863 9.53795E-05-2.87180E-05-2.85766E-05 2.22074E-07-6.88706E-19-9.66710E-19
 -1      1864 9.54365E-05-2.87117E-05-2.85977E-05 1.41330E-07 2.61952E-19-5.40686E-19
 -1      1865 9.54186E-05-2.88110E-05-2.85437E-05 3.66665E-07-3.29675E-19-1.01006E-18
 -1      1866 9.54449E-05-2.86939E-05-2.86123E-05 6.22402E-08 2.75511E-19-5.91005E-19
 -1      1867 9.54615E-05-2.86826E-05-2.86204E-05 1.60743E-08 2.71141E-19-6.71859E-19
 -1      1868 9.54511E-05-2.87469E-05-2.85861E-05 1.33985E-07 2.79703E-19-2.03094E-19
 -1      1869 9.54551E-05-2.86672E-05-2.86262E-05-2.68584E-08-1.25240E-19-1.33211E-18
 -1      1870 9.54490E-05-2.86548E-05-2.86265E-05-4.96875E-08 1.90987E-20-1.53283E-18
 -1      1871 9.54456E-05-2.86936E-05-2.86072E-05-1.49927E-09-2.57400E-19-8.79436E-19
 -1      1872 9.54355E-05-2.86425E-05-2.86270E-05-6.89632E-08-1.97190E-20-2.23712E-18
 -1      1873 9.54184E-05-2.86310E-05-2.86234E-05-7.71768E-08-3.00903E-19-2.01244E-18
 -1      1874 9.54207E-05-2.86525E-05-2.86146E-05-7.06487E-08-4.18007E-19-1.95924E-18
 -1      1875 9.54025E-05-2.86217E-05-2.86210E-05-8.21233E-08-5.74229E-19-1.72741E-18
 -1      1876 9.53818E-05-2.86121E-05-2.86157E-05-8.19686E-08-1.19971E-18-1.96630E-18
 -1      1877 9.53882E-05-2.86226E-05-2.86138E-05-9.76363E-08-2.77812E-19-1.88435E-18
 -1      1878 9.53663E-05-2.86052E-05-2.86120E-05-7.90676E-08-1.18286E-18-1.26828E-18
 -1      1879 9.53462E-05-2.85976E-05-2.86064E-05-7.47177E-08 2.30602E-22-9.95422E-19
 -1      1880 9.53550E-05-2.86017E-05-2.86086E-05-9.99737E-08-6.68416E-19-6.40357E-19
 -1      1881 9.53324E-05-2.85928E-05-2.86025E-05-6.81827E-08 5.10186E-19-9.48769E-19
 -1      1882 9.53149E-05-2.85871E-05-2.85975E-05-6.22356E-08 1.18707E-18-9.80738E-19
 -1      1883 9.53248E-05-2.85878E-05-2.86017E-05-8.95179E-08 1.68878E-19 3.02858E-20
 -1      1884 9.53035E-05-2.85838E-05-2.85939E-05-5.46158E-08 8.85240E-19-9.32582E-19
 -1      1885 9.52893E-05-2.85797E-05-2.85897E-05-4.85595E-08 5.10949E-19-1.14112E-18
 -1      1886 9.52993E-05-2.85788E-05-2.85947E-05-7.37774E-08 6.29061E-19-3.59577E-19
 -1      1887 9.52803E-05-2.85775E-05-2.85866E-05-4.12613E-08 3.34966E-20-7.22934E-19
 -1      1888 9.52695E-05-2.85748E-05-2.85833E-05-3.58509E-08 4.27314E-19-9.19005E-20
 -1      1889 9.52789E-05-2.85733E-05-2.85883E-05-5.71538E-08 7.76631E-19 1.56558E-19
 -1      1890 9.52627E-05-2.85733E-05-2.85809E-05-2.95431E-08 1.61063E-19 4.21968E-19
 -1      1891 9.52549E-05-2.85716E-05-2.85784E-05-2.50803E-08-1.54443E-20 1.22053E-18
 -1      1892 9.52632E-05-2.85701E-05-2.85829E-05-4.19644E-08 3.59804E-19 9.38616E-19
 -1      1893 9.52499E-05-2.85707E-05-2.85766E-05-1.99865E-08 6.50386E-19 1.60323E-18
 -1      1894 9.52446E-05-2.85696E-05-2.85749E-05-1.65132E-08 1.43470E-18 1.65866E-18
 -1      1895 9.52517E-05-2.85684E-05-2.85787E-05-2.92127E-08 8.32225E-19 1.85437E-18
 -1      1896 9.52412E-05-2.85692E-05-2.85735E-05-1.26097E-08 7.48967E-19 8.68099E-19
 -1      1897 9.52377E-05-2.85686E-05-2.85724E-05-1.00347E-08 5.16340E-19 7.50684E-19
 -1      1898 9.52436E-05-2.85677E-05-2.85755E-05-1.91302E-08 4.25147E-19 1.32989E-18
 -1      1899 9.52355E-05-2.85684E-05-2.85715E-05-7.17725E-09-4.13139E-19-3.75928E-19
 -1      1900 9.52335E-05-2.85682E-05-2.85708E-05-5.35390E-09-1.14462E-18-9.29591E-19
 -1      1901 9.52382E-05-2.85676E-05-2.85732E-05-1.15373E-08-6.98055E-19 1.64738E-20
 -1      1902 9.52321E-05-2.85681E-05-2.85702E-05-3.35446E-09 2.90250E-20-3.23765E-19
 -1      1903 9.52312E-05-2.85681E-05-2.85698E-05-2.12513E-09 1.04781E-18 2.50556E-19
 -1      1904 9.52348E-05-2.85678E-05-2.85717E-05-6.06912E-09-7.15883E-20 1.56983E-19
 -1      1905 9.52304E-05-2.85681E-05-2.85695E-05-7.94381E-10 2.56272E-19 8.28989E-19
 -1      1906 9.52301E-05-2.85683E-05-2.85693E-05-1.34952E-11-4.58348E-19 7.49153E-19
 -1      1907 9.52329E-05-2.85681E-05-2.85707E-05-2.30830E-09 8.38487E-19 2.03052E-19
 -1      1908 9.52299E-05-2.85684E-05-2.85692E-05 8.17865E-10-2.23783E-19 9.20789E-19
 -1      1909 9.52300E-05-2.85686E-05-2.85692E-05 1.27385E-09-1.19817E-19 1.33006E-18
 -1      1910 9.52320E-05-2.85685E-05-2.85701E-05 1.43265E-10-4.94919E-20 1.12126E-18
 -1      1911 9.52300E-05-2.85687E-05-2.85691E-05 1.74678E-09-8.05211E-19 1.81876E-18
 -1      1912 9.52304E-05-2.85689E-05-2.85692E-05 1.97684E-09-7.52637E-19 2.10828E-18
 -1      1913 9.52318E-05-2.85690E-05-2.85698E-05 1.63101E-09-6.39785E-20 1.27271E-18
 -1      1914 9.52306E-05-2.85691E-05-2.85692E-05 2.20278E-09 6.96124E-19 2.70474E-18
 -1      1915 9.52312E-05-2.85693E-05-2.85694E-05 2.28270E-09 1.41041E-18 2.91182E-18
 -1      1916 9.52321E-05-2.85694E-05-2.85697E-05 2.43663E-09 4.47211E-19 3.05454E-18
 -1      1917 9.52315E-05-2.85694E-05-2.85694E-05 2.34605E-09 7.28352E-20 2.18037E-18
 -1      1918 9.52321E-05-2.85697E-05-2.85696E-05 2.33147E-09 2.25506E-19 1.81888E-18
 -1      1919 9.52326E-05-2.85697E-05-2.85698E-05 2.77919E-09 6.11351E-19 3.49591E-18
 -1      1920 9.52324E-05-2.85698E-05-2.85697E-05 2.29347E-09 2.89625E-20 9.52976E-19
 -1      1921 9.52330E-05-2.85700E-05-2.85698E-05 2.22339E-09 7.29043E-19 4.16618E-19
 -1      1922 9.52332E-05-2.85701E-05-2.85699E-05 2.82204E-09-3.22381E-19 1.71365E-18
 -1      1923 9.52333E-05-2.85701E-05-2.85700E-05 2.12632E-09 2.40936E-18-2.29608E-19
 -1      1924 9.52339E-05-2.85703E-05-2.85701E-05 2.02631E-09 2.33106E-18 1.34975E-18
 -1      1925 9.52339E-05-2.85703E-05-2.85701E-05 2.68158E-09 1.20734E-18 8.37796E-19
 -1      1926 9.52342E-05-2.85704E-05-2.85702E-05 1.89716E-09 1.33927E-18 1.66977E-18
 -1      1927 9.52347E-05-2.85705E-05-2.85703E-05 1.78204E-09 1.19212E-18 2.49083E-18
 -1      1928 9.52346E-05-2.85706E-05-2.85703E-05 2.43607E-09 2.58177E-18 1.69941E-18
 -1      1929 9.52350E-05-2.85706E-05-2.85704E-05 1.63566E-09 6.78818E-19 2.24905E-18
 -1      1930 9.52354E-05-2.85708E-05-2.85706E-05 1.51152E-09 5.32588E-19 1.66116E-18
 -1      1931 9.52352E-05-2.85708E-05-2.85705E-05 2.13314E-09 4.56953E-19 1.11986E-18
 -1      1932 9.52357E-05-2.85709E-05-2.85706E-05 1.35329E-09 1.69818E-19 7.14352E-19
 -1      1933 9.52360E-05-2.85710E-05-2.85707E-05 1.21934E-09-5.69424E-19 5.86764E-19
 -1      1934 9.52358E-05-2.85710E-05-2.85706E-05 1.79644E-09-6.96105E-19 4.71344E-19
 -1      1935 9.52362E-05-2.85710E-05-2.85708E-05 1.04786E-09-3.47203E-19 1.60866E-18
 -1      1936 9.52365E-05-2.85711E-05-2.85709E-05 8.99275E-10-5.70970E-19 2.26745E-18
 -1      1937 9.52363E-05-2.85711E-05-2.85708E-05 1.43204E-09 4.31159E-20 5.62721E-19
 -1      1938 9.52367E-05-2.85712E-05-2.85709E-05 7.11296E-10-8.99084E-19 2.76025E-18
 -1      1939 9.52369E-05-2.85713E-05-2.85710E-05 5.51042E-10-6.01425E-19 2.33394E-18
 -1      1940 9.52367E-05-2.85713E-05-2.85709E-05 1.03651E-09-3.87753E-19 2.90868E-18
 -1      1941 1.94947E-04-6.24931E-05-5.64554E-05-2.80496E-05 1.32264E-18 1.16552E-18
 -1      1942 1.88207E-04-4.70878E-05-6.02304E-05-2.40951E-05 2.09810E-18 2.02102E-18
 -1      1943 1.10120E-04-2.85227E-05-3.47826E-05-1.67195E-05 2.46963E-19 2.39080E-18
 -1      1944 1.06971E-04-2.75854E-05-3.39664E-05-1.29798E-05 4.57676E-19 2.48909E-18
 -1      1945 1.07658E-04-2.78331E-05-3.40267E-05-8.60893E-06 6.55392E-19 2.53081E-18
 -1      1946 1.06613E-04-2.74312E-05-3.38442E-05-4.55473E-06 7.89858E-19 2.77690E-18
 -1      1947 1.00620E-04-2.32992E-05-3.31510E-05-1.15909E-05 6.20571E-19 1.56509E-18
 -1      1948 1.14971E-04-3.07743E-05-3.58919E-05-2.42156E-05-4.37734E-19 2.23839E-18
 -1      1949 1.09876E-04-2.85497E-05-3.48176E-05-2.10773E-05-1.84369E-19 2.29316E-18
 -1      1950 9.97752E-05-2.31994E-05-3.27748E-05-2.09273E-05 8.88888E-20 1.43355E-18
 -1      1951 1.22782E-04-3.70130E-05-3.64928E-05-2.82115E-05-1.10183E-18 2.42442E-18
 -1      1952 1.16025E-04-3.24653E-05-3.56457E-05-2.77236E-05-7.51583E-19 2.25333E-18
 -1      1953 1.00485E-04-2.56139E-05-3.20035E-05-2.93193E-05-6.79850E-19 1.11425E-18
 -1      1954 1.34568E-04-4.87801E-05-3.64260E-05-2.47351E-05-1.78862E-18 2.80715E-18
 -1      1955 1.26903E-04-4.19746E-05-3.59126E-05-2.90843E-05-1.50904E-18 2.43800E-18
 -1      1956 1.05163E-04-3.40035E-05-3.04059E-05-3.43904E-05-1.32423E-18 9.43065E-19
 -1      1957 1.92458E-04-4.12303E-05-6.47997E-05 1.27301E-05 2.85281E-18 2.81935E-18
 -1      1958 1.97483E-04-4.92883E-05-6.26424E-05 2.43235E-05 2.71813E-18 3.77057E-18
 -1      1959 1.59455E-04-5.64989E-05-4.33584E-05 1.36748E-05-9.94840E-19 2.06787E-18
 -1      1960 1.65170E-04-6.17786E-05-4.40333E-05 2.44833E-06-7.39460E-19 1.44779E-18
 -1      1961 1.40903E-04-4.32804E-05-4.14430E-05 2.33236E-05-2.70151E-19 1.93759E-18
 -1      1962 1.49567E-04-4.92739E-05-4.27465E-05 2.03265E-05-5.42736E-19 1.77454E-18
 -1      1963 1.37596E-04-5.12186E-05-3.68116E-05 2.44536E-05-7.41895E-19 1.71032E-18
 -1      1964 1.27084E-04-3.61524E-05-3.89286E-05 2.16109E-05 4.01123E-19 1.42280E-18
 -1      1965 1.35520E-04-4.00468E-05-4.08211E-05 2.29549E-05 3.29946E-20 1.68274E-18
 -1      1966 1.22545E-04-3.74074E-05-3.63968E-05 2.95943E-05-1.82112E-20 1.47995E-18
 -1      1967 1.17196E-04-3.28572E-05-3.61925E-05 1.62864E-05-1.24262E-19 8.53280E-19
 -1      1968 1.23909E-04-3.50798E-05-3.80041E-05 1.86817E-05 5.14467E-19 1.38230E-18
 -1      1969 1.13954E-04-3.10840E-05-3.54882E-05 2.54100E-05 7.32429E-19 5.71741E-19
 -1      1970 1.10425E-04-3.13028E-05-3.39485E-05 1.14032E-05 5.09940E-19 1.02150E-18
 -1      1971 1.15091E-04-3.25354E-05-3.53009E-05 1.34156E-05-4.03876E-19 7.17119E-19
 -1      1972 1.08664E-04-2.91773E-05-3.40697E-05 1.89645E-05-5.75585E-20 2.19209E-19
 -1      1973 1.05355E-04-3.03519E-05-3.21599E-05 7.46188E-06-4.17296E-19 1.68452E-18
 -1      1974 1.08700E-04-3.11383E-05-3.31602E-05 8.99924E-06 2.52786E-20 1.41624E-18
 -1      1975 1.04885E-04-2.87662E-05-3.26238E-05 1.31685E-05-6.36598E-20 6.82341E-19
 -1      1976 1.01910E-04-2.97654E-05-3.09200E-05 4.75807E-06-4.07681E-19 2.26333E-18
 -1      1977 1.04096E-04-3.02426E-05-3.15804E-05 5.78100E-06 3.00432E-21 2.38789E-18
 -1      1978 1.02009E-04-2.87494E-05-3.14007E-05 8.67327E-06-6.14436E-19 1.10798E-18
 -1      1979 9.96010E-05-2.93754E-05-3.00922E-05 2.99365E-06-2.46526E-19 2.23275E-18
 -1      1980 1.01001E-04-2.96705E-05-3.05159E-05 3.64650E-06-4.63221E-20 1.95979E-18
 -1      1981 9.99172E-05-2.87772E-05-3.04926E-05 5.57753E-06 4.43501E-20 1.46960E-18
 -1      1982 9.80752E-05-2.91110E-05-2.95507E-05 1.87243E-06-5.46250E-19 1.08345E-18
 -1      1983 9.89623E-05-2.92951E-05-2.98191E-05 2.28059E-06-7.51970E-19 1.49359E-18
 -1      1984 9.84289E-05-2.87770E-05-2.98551E-05 3.54142E-06-1.04403E-19 1.10894E-18
 -1      1985 9.70759E-05-2.89315E-05-2.92001E-05 1.16932E-06 1.39712E-18 1.21831E-18
 -1      1986 9.76352E-05-2.90470E-05-2.93694E-05 1.42216E-06 5.66826E-19 1.43030E-18
 -1      1987 9.73924E-05-2.87526E-05-2.94211E-05 2.23533E-06 5.25756E-20 1.00449E-18
 -1      1988 9.64244E-05-2.88100E-05-2.89741E-05 7.31057E-07 1.03528E-18 1.30216E-19
 -1      1989 9.67767E-05-2.88828E-05-2.90808E-05 8.87185E-07 1.16732E-18 1.04498E-18
 -1      1990 9.66817E-05-2.87185E-05-2.91306E-05 1.40849E-06 1.32308E-18 6.42709E-19
 -1      1991 9.60011E-05-2.87280E-05-2.88285E-05 4.58363E-07 3.21054E-20-6.01168E-19
 -1      1992 9.62227E-05-2.87743E-05-2.88958E-05 5.54663E-07 5.18537E-19-3.20896E-20
 -1      1993 9.61992E-05-2.86840E-05-2.89379E-05 8.88220E-07 9.27006E-19 4.76582E-19
 -1      1994 9.57361E-05-2.86749E-05-2.87385E-05 2.95066E-07 7.78482E-19-9.15132E-19
 -1      1995 9.58715E-05-2.87031E-05-2.87796E-05 3.52808E-07 5.16924E-19-8.24124E-19
 -1      1996 9.58803E-05-2.86558E-05-2.88131E-05 5.66611E-07 5.53378E-19-8.68636E-19
 -1      1997 9.55521E-05-2.86373E-05-2.86765E-05 1.85919E-07-4.93421E-19-6.92528E-19
 -1      1998 9.56431E-05-2.86566E-05-2.87042E-05 2.24057E-07 2.22005E-19-8.06350E-19
 -1      1999 9.56640E-05-2.86307E-05-2.87302E-05 3.64073E-07 8.19376E-20-4.72419E-19
 -1      2000 9.54323E-05-2.86120E-05-2.86364E-05 1.17307E-07-5.50940E-19-8.06527E-19
 -1      2001 9.54900E-05-2.86242E-05-2.86540E-05 1.41241E-07-6.48352E-19-7.87300E-19
 -1      2002 9.55143E-05-2.86118E-05-2.86737E-05 2.31311E-07-6.92572E-19-8.20121E-19
 -1      2003 9.53543E-05-2.85951E-05-2.86104E-05 7.38224E-08 1.47585E-18-1.92055E-18
 -1      2004 9.53909E-05-2.86028E-05-2.86217E-05 8.89508E-08 5.53621E-19-1.56614E-18
 -1      2005 9.54139E-05-2.85976E-05-2.86364E-05 1.46995E-07 6.24986E-19-1.33701E-18
 -1      2006 9.53036E-05-2.85840E-05-2.85937E-05 4.60429E-08 3.06894E-18-2.12925E-18
 -1      2007 9.53267E-05-2.85888E-05-2.86008E-05 5.56849E-08 2.47368E-18-1.44185E-18
 -1      2008 9.53469E-05-2.85873E-05-2.86119E-05 9.30899E-08 1.76231E-18-2.80185E-18
 -1      2009 9.52711E-05-2.85768E-05-2.85830E-05 2.81711E-08-6.47649E-19-2.79954E-18
 -1      2010 9.52854E-05-2.85797E-05-2.85874E-05 3.43583E-08 1.90113E-18-1.70032E-18
 -1      2011 9.53023E-05-2.85800E-05-2.85957E-05 5.83775E-08 2.32210E-18-1.89438E-18
 -1      2012 9.52505E-05-2.85723E-05-2.85762E-05 1.66192E-08-7.50064E-19-2.98628E-18
 -1      2013 9.52592E-05-2.85740E-05-2.85789E-05 2.06038E-08-1.71531E-18-2.90340E-18
 -1      2014 9.52730E-05-2.85751E-05-2.85851E-05 3.58808E-08-8.45096E-19-1.65500E-18
 -1      2015 9.52379E-05-2.85695E-05-2.85720E-05 9.15294E-09 5.00194E-19-3.13685E-18
 -1      2016 9.52429E-05-2.85704E-05-2.85736E-05 1.17047E-08 3.08686E-19-2.72487E-18
 -1      2017 9.52539E-05-2.85718E-05-2.85783E-05 2.12437E-08-2.10381E-19-2.63357E-18
 -1      2018 9.52308E-05-2.85681E-05-2.85697E-05 4.53917E-09 1.23341E-19-3.14953E-18
 -1      2019 9.52334E-05-2.85684E-05-2.85705E-05 6.10819E-09 2.25568E-19-3.36703E-18
 -1      2020 9.52422E-05-2.85699E-05-2.85740E-05 1.18782E-08 4.22331E-19-2.29125E-18
 -1      2021 9.52268E-05-2.85673E-05-2.85683E-05 1.42491E-09-5.54047E-19-1.83471E-18
 -1      2022 9.52280E-05-2.85674E-05-2.85687E-05 2.46525E-09-9.22644E-19-2.56121E-18
 -1      2023 9.52349E-05-2.85687E-05-2.85713E-05 5.82811E-09-1.12092E-18-2.58706E-18
 -1      2024 9.52252E-05-2.85671E-05-2.85677E-05-4.86283E-10 5.81086E-19-9.60500E-19
 -1      2025 9.52253E-05-2.85670E-05-2.85678E-05 1.36961E-10 7.96313E-19-9.70522E-19
 -1      2026 9.52307E-05-2.85681E-05-2.85698E-05 1.83889E-09-7.24685E-19-6.10091E-19
 -1      2027 9.52249E-05-2.85673E-05-2.85675E-05-1.59412E-09-7.99932E-19-1.11286E-18
 -1      2028 9.52245E-05-2.85670E-05-2.85675E-05-1.24965E-09 8.22632E-20-1.17880E-18
 -1      2029 9.52287E-05-2.85680E-05-2.85689E-05-6.17002E-10 3.51727E-19-3.61977E-19
 -1      2030 9.52256E-05-2.85676E-05-2.85677E-05-2.16925E-09-1.25581E-19-1.60717E-18
 -1      2031 9.52248E-05-2.85673E-05-2.85675E-05-2.00828E-09 1.81455E-19-1.04319E-18
 -1      2032 9.52280E-05-2.85681E-05-2.85686E-05-2.04360E-09-2.42899E-19-3.68497E-19
 -1      2033 9.52267E-05-2.85680E-05-2.85680E-05-2.39619E-09 1.29747E-18-2.95328E-18
 -1      2034 9.52258E-05-2.85677E-05-2.85678E-05-2.35353E-09 6.08113E-19-2.41048E-18
 -1      2035 9.52282E-05-2.85684E-05-2.85685E-05-2.78503E-09 1.00549E-18-1.59642E-18
 -1      2036 9.52281E-05-2.85685E-05-2.85684E-05-2.40238E-09-2.20864E-19-3.41806E-18
 -1      2037 9.52272E-05-2.85682E-05-2.85681E-05-2.43302E-09 2.05256E-18-2.02378E-18
 -1      2038 9.52289E-05-2.85687E-05-2.85687E-05-3.07823E-09 1.28257E-18-1.10775E-18
 -1      2039 9.52295E-05-2.85689E-05-2.85688E-05-2.27560E-09-2.91658E-19-4.61126E-18
 -1      2040 9.52286E-05-2.85686E-05-2.85686E-05-2.34924E-09-9.54689E-19-4.98489E-18
 -1      2041 9.52299E-05-2.85691E-05-2.85689E-05-3.08716E-09 4.97645E-19-2.27835E-18
 -1      2042 9.52309E-05-2.85694E-05-2.85692E-05-2.08802E-09 7.18691E-19-4.43884E-18
 -1      2043 9.52301E-05-2.85691E-05-2.85690E-05-2.17807E-09-1.67939E-19-5.49598E-18
 -1      2044 9.52310E-05-2.85694E-05-2.85692E-05-2.93042E-09 4.32276E-19-4.21735E-18
 -1      2045 9.52322E-05-2.85698E-05-2.85696E-05-1.85672E-09 7.95919E-19-5.08658E-18
 -1      2046 9.52314E-05-2.85695E-05-2.85694E-05-1.95887E-09 2.27915E-19-5.21563E-18
 -1      2047 9.52321E-05-2.85698E-05-2.85696E-05-2.68344E-09 7.40047E-19-5.92086E-18
 -1      2048 9.52334E-05-2.85701E-05-2.85700E-05-1.61503E-09-7.69477E-19-6.09818E-18
 -1      2049 9.52327E-05-2.85699E-05-2.85698E-05-1.71775E-09 1.46989E-19-5.70608E-18
 -1      2050 9.52331E-05-2.85701E-05-2.85699E-05-2.38481E-09 7.12715E-19-6.14644E-18
 -1      2051 9.52344E-05-2.85704E-05-2.85703E-05-1.37454E-09-2.23053E-18-5.36714E-18
 -1      2052 9.52338E-05-2.85702E-05-2.85701E-05-1.47499E-09-1.39366E-18-6.24499E-18
 -1      2053 9.52340E-05-2.85704E-05-2.85701E-05-2.07064E-09-1.29872E-18-6.99304E-18
 -1      2054 9.52353E-05-2.85707E-05-2.85705E-05-1.13665E-09-1.27700E-18-4.03610E-18
 -1      2055 9.52348E-05-2.85705E-05-2.85704E-05-1.23596E-09-1.62407E-18-5.00349E-18
 -1      2056 9.52349E-05-2.85706E-05-2.85704E-05-1.75481E-09-1.84922E-18-6.63058E-18
 -1      2057 9.52360E-05-2.85709E-05-2.85708E-05-8.93571E-10 3.71036E-19-3.15001E-18
 -1      2058 9.52356E-05-2.85708E-05-2.85706E-05-9.96674E-10-1.14355E-18-3.87664E-18
 -1      2059 9.52356E-05-2.85708E-05-2.85706E-05-1.43784E-09-1.42176E-18-3.27361E-18
 -1      2060 9.52365E-05-2.85711E-05-2.85709E-05-6.31630E-10-1.64702E-18-3.23241E-18
 -1      2061 9.52362E-05-2.85710E-05-2.85708E-05-7.45695E-10 5.05906E-19-2.91809E-18
 -1      2062 9.52362E-05-2.85710E-05-2.85708E-05-1.11091E-09 4.50498E-19-9.49825E-19
 -1      2063 9.52369E-05-2.85712E-05-2.85710E-05-3.44710E-10 1.32501E-19-4.15166E-18
 -1      2064 9.52367E-05-2.85711E-05-2.85710E-05-4.70474E-10-2.30078E-18-5.09123E-18
 -1      2065 9.52367E-05-2.85712E-05-2.85709E-05-7.60527E-10-6.05016E-19-2.95904E-18
 -1      2066 9.52371E-05-2.85713E-05-2.85711E-05-2.34027E-10-1.26903E-19-2.64464E-18
 -1      2067 9.52370E-05-2.85712E-05-2.85710E-05-2.83249E-10 1.77053E-20-3.30145E-18
 -1      2068 9.52369E-05-2.85713E-05-2.85710E-05-5.07938E-10-1.20956E-18-3.97137E-18
 -1      2069 9.52371E-05-2.85714E-05-2.85710E-05-3.57923E-10-1.65405E-18-2.56557E-18
 -1      2070 9.52374E-05-2.85722E-05-2.85708E-05-8.08027E-10-1.91574E-18-3.68053E-18
 -1      2071 9.52373E-05-2.85719E-05-2.85709E-05-7.51769E-10-5.17179E-19-1.63495E-18
 -1      2072 9.52372E-05-2.85718E-05-2.85709E-05-6.25498E-10-5.18592E-19 1.08351E-18
 -1      2073 9.52372E-05-2.85715E-05-2.85710E-05-5.19547E-10-1.55692E-18 4.79122E-20
 -1      2074 9.52371E-05-2.85715E-05-2.85710E-05-6.11364E-10-1.16803E-20-1.31455E-18
 -1      2075 9.52372E-05-2.85719E-05-2.85709E-05-9.20653E-10 5.18067E-19-1.82592E-19
 -1      2076 9.52376E-05-2.85727E-05-2.85707E-05-8.34396E-10-3.14806E-18-2.15381E-18
 -1      2077 9.52375E-05-2.85724E-05-2.85708E-05-8.36656E-10-2.13407E-18-3.76307E-18
 -1      2078 9.52374E-05-2.85723E-05-2.85708E-05-1.09184E-09-8.84189E-19-3.88664E-18
 -1      2079 9.52378E-05-2.85731E-05-2.85706E-05-7.41365E-10-3.67932E-18 4.10310E-18
 -1      2080 9.52377E-05-2.85729E-05-2.85706E-05-7.91416E-10-3.89947E-18 1.48620E-18
 -1      2081 9.52377E-05-2.85727E-05-2.85707E-05-1.07413E-09-1.73731E-18-4.02435E-19
 -1      2082 9.52380E-05-2.85735E-05-2.85705E-05-5.49660E-10-3.16311E-18 1.26416E-18
 -1      2083 9.52379E-05-2.85733E-05-2.85705E-05-6.37824E-10-4.49946E-18 3.95209E-18
 -1      2084 9.52378E-05-2.85731E-05-2.85706E-05-9.09213E-10-3.49186E-18 3.27023E-18
 -1      2085 9.52380E-05-2.85737E-05-2.85704E-05-2.90938E-10-1.58389E-18 5.58784E-20
 -1      2086 9.52380E-05-2.85736E-05-2.85704E-05-4.03072E-10-1.62810E-18-5.01999E-19
 -1      2087 9.52380E-05-2.85734E-05-2.85705E-05-6.27409E-10-1.80604E-18 1.29037E-18
 -1      2088 9.52381E-05-2.85738E-05-2.85704E-05 9.50640E-13-3.16784E-18-2.38002E-18
 -1      2089 9.52381E-05-2.85738E-05-2.85704E-05-1.21043E-10-2.37208E-18-2.85987E-19
 -1      2090 9.52381E-05-2.85736E-05-2.85705E-05-2.70843E-10-3.02373E-18-1.21813E-18
 -1      2091 9.52380E-05-2.85737E-05-2.85704E-05 2.91656E-10-3.95646E-18-2.44258E-18
 -1      2092 9.52381E-05-2.85738E-05-2.85704E-05 1.73969E-10-2.84548E-18-3.48375E-18
 -1      2093 9.52381E-05-2.85736E-05-2.85705E-05 1.15957E-10-3.75316E-18-2.88994E-18
 -1      2094 9.52379E-05-2.85734E-05-2.85705E-05 5.47425E-10-3.69652E-18-5.99165E-19
 -1      2095 9.52380E-05-2.85736E-05-2.85704E-05 4.47958E-10-3.82340E-18-2.41978E-18
 -1      2096 9.52380E-05-2.85735E-05-2.85705E-05 4.88061E-10-2.72853E-18-2.43470E-18
 -1      2097 9.52378E-05-2.85731E-05-2.85706E-05 7.33794E-10-3.13227E-18 1.73704E-18
 -1      2098 9.52379E-05-2.85733E-05-2.85705E-05 6.66393E-10-3.08882E-18 4.01560E-19
 -1      2099 9.52379E-05-2.85732E-05-2.85706E-05 7.99804E-10-2.66043E-18 4.74092E-19
 -1      2100 9.52376E-05-2.85726E-05-2.85707E-05 8.27613E-10-2.97864E-18 3.11898E-18
 -1      2101 9.52377E-05-2.85729E-05-2.85706E-05 8.02206E-10-2.96984E-18 2.94760E-18
 -1      2102 9.52377E-05-2.85729E-05-2.85707E-05 1.01393E-09-2.04526E-18 1.86738E-18
 -1      2103 9.52374E-05-2.85721E-05-2.85708E-05 8.02276E-10-3.49857E-18-1.11292E-18
 -1      2104 9.52375E-05-2.85724E-05-2.85708E-05 8.29318E-10-3.49777E-18 8.78719E-19
 -1      2105 9.52375E-05-2.85724E-05-2.85708E-05 1.09604E-09-2.23585E-18 1.08687E-18
 -1      2106 9.52372E-05-2.85717E-05-2.85709E-05 6.43951E-10-2.83261E-18 3.34254E-19
 -1      2107 9.52373E-05-2.85719E-05-2.85709E-05 7.27484E-10-2.93719E-18-5.53408E-19
 -1      2108 9.52373E-05-2.85720E-05-2.85708E-05 1.01907E-09-2.45749E-18-6.42251E-19
 -1      2109 9.42807E-05-5.49907E-05-1.82732E-05 3.23644E-05 7.17437E-19 2.70161E-18
 -1      2110 7.04120E-05-5.32735E-05-9.70494E-06 2.67253E-05 2.15146E-19 1.72376E-18
 -1      2111 7.51473E-05-5.11589E-05-1.12022E-05 3.45795E-05-8.39410E-19 8.41845E-19
 -1      2112 9.52370E-05-2.85713E-05-2.85710E-05 2.87283E-10-1.32256E-18 1.49178E-18
 -1      2113 9.14127E-06-3.52767E-05 1.00114E-05-1.06991E-05 1.38453E-18 1.50772E-18
 -1      2114 1.20498E-05-3.64813E-05 9.14140E-06-1.98893E-05 9.09925E-19 1.26081E-18
 -1      2115 2.03624E-04-4.65245E-05-6.63205E-05-2.01325E-05 2.63512E-18 2.57837E-18
 -1      2116 9.04625E-05-1.09399E-05-3.41659E-05-1.14716E-05-2.83908E-19-1.75325E-18
 -1      2117 9.05359E-05-1.11223E-05-3.41506E-05-1.34637E-05-4.94343E-19-1.63170E-18
 -1      2118 9.30138E-05-1.51073E-05-3.34583E-05-1.37884E-05-6.05562E-19-1.36472E-18
 -1      2119 9.26887E-05-1.41826E-05-3.36794E-05-1.03924E-05-2.55732E-19-1.59650E-18
 -1      2120 1.56598E-04-6.98219E-05-3.78947E-05 1.70366E-05 2.14299E-19 2.19593E-18
 -1      2121 1.21994E-04-6.31875E-05-2.73196E-05 2.21780E-05 2.10911E-19 3.18103E-18
 -1      2122 2.00178E-04-3.93135E-05-6.77671E-05 3.96389E-06 2.86212E-18 3.36198E-18
 -1      2123 1.59833E-04-6.91373E-05-3.99726E-05-8.74549E-06 1.07319E-18-1.94818E-20
 -1      2124 1.88083E-04-6.94683E-05-5.01895E-05-6.81689E-06 2.00323E-18 6.77626E-20
 -1      2125 1.04698E-04-6.03244E-05-2.10503E-05-2.80273E-05 1.24853E-18-1.69110E-18
 -1      2126 1.37736E-04-6.47890E-05-3.17189E-05-2.73518E-05 1.05540E-18-7.25060E-19
 -1      2127 5.93607E-05-4.89822E-05-6.14056E-06-2.91499E-05 4.15046E-20-2.61500E-18
 -1      2128 8.21587E-05-5.23098E-05-1.36949E-05-3.45161E-05 1.06049E-18-2.32161E-18
 -1      2129 1.09942E-04-6.06660E-05-2.14554E-05-3.25760E-05-7.82658E-19-6.11558E-19
 -1      2130 2.11132E-05-4.13986E-05 6.75872E-06-1.16636E-05-2.00747E-19-3.53975E-18
 -1      2131 3.27657E-05-3.86658E-05 1.48495E-06-2.36772E-05 3.60836E-19-3.42455E-18
 -1      2132 9.21865E-06-3.40761E-05 9.40376E-06 5.38429E-06-8.16275E-19-3.37246E-18
 -1      2133 1.31033E-05-3.80195E-05 9.08619E-06-3.32183E-06-4.55280E-20-3.66723E-18
 -1      2134 1.94233E-05-2.68374E-05 2.34802E-06-1.39565E-05-5.06526E-19-3.78539E-18
 -1      2135 1.76152E-05-3.54948E-05 6.47858E-06 2.69851E-05-1.65468E-18-2.99214E-18
 -1      2136 1.18024E-05-3.49550E-05 8.67781E-06 1.88325E-05-7.04096E-19-3.12259E-18
 -1      2137 3.82117E-05-3.51294E-05-2.06117E-06 4.19354E-05-2.28191E-18-2.09768E-18
 -1      2138 2.75824E-05-3.95836E-05 3.58185E-06 3.32939E-05-1.76395E-18-2.56037E-18
 -1      2139 2.55319E-05-2.85479E-05 6.71319E-07 3.68993E-05-1.95241E-19-2.78250E-18
 -1      2140 7.71489E-05-3.85080E-05-1.66641E-05 5.18929E-05-2.87187E-18-2.49462E-18
 -1      2141 6.06449E-05-4.16588E-05-9.19351E-06 4.59350E-05-2.40176E-18-2.03666E-18
 -1      2142 1.16884E-04-4.01674E-05-3.25719E-05 5.08746E-05-2.84434E-18-2.74015E-18
 -1      2143 9.57595E-05-4.21664E-05-2.38627E-05 4.71831E-05-2.92692E-18-2.48435E-18
 -1      2144 1.55259E-04-4.06185E-05-4.88259E-05 3.80584E-05-2.77446E-18-1.64451E-18
 -1      2145 1.32778E-04-4.00926E-05-4.01461E-05 4.14853E-05-2.83587E-18-2.53729E-18
 -1      2146 1.81177E-04-3.32548E-05-6.27716E-05 1.88261E-05-3.51677E-18-4.09540E-19
 -1      2147 1.64148E-04-3.42505E-05-5.59026E-05 2.22428E-05-3.29231E-18-7.86470E-19
 -1      2148 1.87646E-04-2.38512E-05-6.98463E-05 4.98840E-06-3.19247E-18-4.40669E-19
 -1      2149 1.82266E-04-2.66235E-05-6.65489E-05 1.39788E-05-3.46394E-18-7.93246E-19
 -1      2150 1.64035E-04-2.45006E-05-5.90964E-05-1.90063E-06-3.11327E-18-9.02090E-20
 -1      2151 1.98075E-04-2.39463E-05-7.36005E-05-5.98853E-06-2.44030E-18 9.20090E-20
 -1      2152 1.92543E-04-2.09954E-05-7.30506E-05 3.55612E-06-2.76302E-18-6.47133E-19
 -1      2153 1.87131E-04-2.58149E-05-6.85432E-05-1.84537E-05-2.15612E-18 6.34851E-19
 -1      2154 1.99257E-04-2.72083E-05-7.25626E-05-1.02330E-05-2.21499E-18 2.54533E-19
 -1      2155 1.72803E-04-1.21948E-05-6.76928E-05-1.26379E-06-2.32595E-18-7.09178E-19
 -1      2156 1.64101E-04-3.36898E-05-5.57592E-05-3.29192E-05-1.44853E-18 1.26123E-18
 -1      2157 1.82407E-04-3.33394E-05-6.28966E-05-2.66598E-05-1.74129E-18 9.06325E-19
 -1      2158 1.31989E-04-4.12394E-05-3.93104E-05-4.14226E-05-2.51357E-19 1.63647E-18
 -1      2159 1.54308E-04-3.87403E-05-4.86493E-05-4.27114E-05-9.37030E-19 1.65171E-18
 -1      2160 8.83822E-05-4.28582E-05-2.04149E-05-4.80685E-05 4.49774E-19 1.85924E-18
 -1      2161 1.11781E-04-4.17662E-05-2.98639E-05-5.23175E-05-1.56701E-20 2.38863E-18
 -1      2162 4.87705E-05-4.14472E-05-4.54525E-06-4.26760E-05 1.83806E-19 1.62355E-18
 -1      2163 6.54409E-05-3.70859E-05-1.25247E-05-5.06899E-05 1.44843E-19 2.49726E-18
 -1      2164 2.15311E-05-3.90345E-05 6.07588E-06-3.00183E-05 7.69106E-19 1.12994E-18
 -1      2165 3.11596E-05-3.53206E-05 1.02415E-06-3.88049E-05-1.71948E-19 1.31311E-18
 -1      2166 1.06654E-04-2.33448E-05-3.54326E-05 7.56591E-06 1.05299E-18 3.10819E-18
 -1      2167 2.04006E-05-3.49915E-05 5.39534E-06 1.40163E-05 4.37069E-19 7.71647E-19
 -1      2168 1.26624E-05-3.48401E-05 8.26163E-06 2.61256E-06 3.58877E-19 1.52000E-18
 -1      2169 9.52370E-05-2.85714E-05-2.85710E-05 5.49630E-10-1.73965E-18 1.86149E-18
 -1      2170 9.94722E-05-2.25731E-05-3.26729E-05-1.62695E-05-1.16679E-18 5.21984E-20
 -1      2171 1.77395E-04-6.37972E-05-4.85233E-05-2.53723E-05 2.42754E-19 9.91584E-19
 -1      2172 1.91001E-04-6.83823E-05-5.23821E-05-1.22189E-05 8.13880E-19 1.30231E-18
 -1      2173 1.71914E-04-7.24757E-05-4.36639E-05-1.96055E-06 2.52416E-19 1.40777E-18
 -1      2174 1.79669E-04-6.78823E-05-4.75175E-05-1.23009E-05-6.38822E-19 1.50597E-18
 -1      2175 1.64278E-04-7.11371E-05-3.93708E-05 2.47060E-06-6.73815E-19 9.74300E-19
 -1      2176 3.52443E-05-3.29525E-05-1.60698E-06 2.44648E-05-2.04558E-19 3.95988E-19
 -1      2177 1.24550E-05-2.28017E-05 3.85669E-06-1.65290E-06 1.29887E-19 1.06641E-18
 -1      2178 1.63021E-04-6.76945E-05-4.07876E-05 1.75410E-06-8.32951E-19 1.31248E-18
 -1      2179 9.63911E-05-2.43220E-05-3.09788E-05-1.19984E-05-1.09505E-18-1.82152E-19
 -1      2180 1.80670E-04-4.99175E-05-5.64602E-05 3.11759E-05 2.47249E-18 4.75757E-18
 -1      2181 1.89586E-04-6.26323E-05-5.44660E-05 2.76527E-05 1.77496E-18 4.71819E-18
 -1      2182 9.61110E-05-2.35083E-05-3.11681E-05-1.30206E-05-1.06962E-18-5.11079E-19
 -1      2183 1.00154E-04-2.11399E-05-3.39718E-05-2.44990E-07 1.12931E-18 1.78234E-18
 -1      2184 1.05707E-04-2.52060E-05-3.44937E-05 1.67394E-06 1.05376E-18 2.81612E-18
 -1      2185 2.18326E-04-5.73264E-05-6.65097E-05 1.36329E-05 3.39618E-18 1.79147E-18
 -1      2186 1.46591E-04-5.75844E-05-3.74830E-05-1.95056E-05-1.86887E-18 3.13402E-18
 -1      2187 1.19685E-04-4.97179E-05-2.99779E-05-3.19575E-05-1.95643E-18 1.32815E-18
 -1      2188 1.53537E-04-6.36195E-05-3.83788E-05-9.96379E-06-1.51428E-18 3.57562E-18
 -1      2189 1.23925E-04-6.61590E-05-2.50760E-05 2.59787E-05-1.08039E-18 1.79296E-18
 -1      2190 1.98149E-04-4.02178E-05-6.70889E-05-1.34165E-05 2.49536E-18 2.73602E-18
 -1      2191 1.16666E-05-2.33342E-05 4.33795E-06 1.28033E-05-2.64380E-19-3.54399E-18
 -1      2192 5.60313E-05-4.16203E-05-6.85484E-06-3.29370E-05-8.49574E-19-2.64211E-18
 -1      2193 9.52371E-05-2.85715E-05-2.85710E-05 6.07023E-10-2.59262E-18 1.23484E-18
 -1      2194 1.87999E-05-2.63600E-05 2.59270E-06-3.05786E-05 9.53336E-19 1.76776E-18
 -1      2195 4.83278E-05-3.70476E-05-5.27556E-06-4.85911E-05 7.36072E-19 1.12761E-18
 -1      2196 9.06694E-05-4.82454E-05-1.80937E-05-5.28222E-05 1.07023E-18 1.58787E-18
 -1      2197 1.33639E-04-5.33203E-05-3.42383E-05-3.98161E-05 1.31375E-18 6.25110E-19
 -1      2198 1.72626E-04-2.61839E-05-6.17956E-05-6.87628E-06-1.66082E-18-6.21299E-19
 -1      2199 1.68246E-04-1.25845E-05-6.60100E-05-2.49742E-06-3.05906E-18-7.79270E-19
 -1      2200 1.60040E-04-4.26348E-05-4.97519E-05 1.52795E-05-2.40785E-18-1.08420E-19
 -1      2201 1.36657E-04-5.21477E-05-3.57549E-05 3.72218E-05-1.75315E-18-1.20872E-18
 -1      2202 5.87949E-05-3.93238E-05-8.58732E-06 5.09925E-05-7.82658E-19-1.84336E-18
 -1      2203 9.52370E-05-2.85716E-05-2.85709E-05 8.89633E-10-3.22606E-18 1.29447E-18
 -1      2204 1.55362E-04-7.17591E-05-3.58940E-05-1.25570E-05 1.52466E-20 1.08124E-18
 -1      2205 2.03507E-04-6.13662E-05-5.94463E-05 5.20387E-06 3.20306E-18 1.27902E-19
 -1      2206 1.90712E-04-6.88967E-05-5.15135E-05 1.65491E-05 1.54679E-18 2.05617E-18
 -1      2207 1.01605E-04-5.02120E-05-2.19902E-05 5.03738E-05-1.37177E-18-1.57432E-18
 -1      2208 1.60817E-04-4.32048E-05-4.96644E-05-1.99807E-05-2.09654E-19-5.61583E-19
 -1      2209 9.39904E-05-1.64756E-05-3.32501E-05-9.99241E-07 6.17985E-19-1.10904E-18
 -1      2210 9.45047E-05-1.67991E-05-3.33536E-05-3.16278E-06 3.77191E-19-1.22523E-18
 -1      2211 9.47247E-05-1.69509E-05-3.33661E-05-5.37089E-06 2.01118E-19-1.31137E-18
 -1      2212 9.47697E-05-1.70984E-05-3.33567E-05-7.37221E-06 1.84829E-20-1.38470E-18
 -1      2213 9.68029E-05-1.98635E-05-3.29914E-05-4.13051E-06 3.36936E-19-1.10683E-18
 -1      2214 8.83930E-05-1.30593E-05-3.23330E-05 7.96250E-06 1.22931E-18-1.10432E-18
 -1      2215 9.03251E-05-1.42077E-05-3.26218E-05 6.03803E-06 1.08434E-18-1.01365E-18
 -1      2216 8.36530E-05-9.82616E-06-3.17088E-05 1.11981E-05 1.41503E-18-1.11909E-18
 -1      2217 8.60289E-05-1.12976E-05-3.19993E-05 9.87471E-06 1.31994E-18-1.17650E-18
 -1      2218 8.90368E-05-1.49719E-05-3.17996E-05 1.00279E-05 1.25145E-18-1.07900E-18
 -1      2219 7.89771E-05-6.32969E-06-3.12239E-05 1.24789E-05 1.52246E-18-1.01762E-18
 -1      2220 8.10785E-05-7.69209E-06-3.14082E-05 1.20539E-05 1.43160E-18-1.10810E-18
 -1      2221 8.35742E-05-1.10399E-05-3.11250E-05 1.30175E-05 1.39745E-18-1.08163E-18
 -1      2222 7.61532E-05-3.80454E-06-3.11000E-05 1.14237E-05 1.68779E-18-7.14224E-19
 -1      2223 7.70437E-05-4.47763E-06-3.10718E-05 1.19405E-05 1.59847E-18-9.06833E-19
 -1      2224 7.84131E-05-6.94182E-06-3.06203E-05 1.34343E-05 1.56869E-18-8.96976E-19
 -1      2225 7.74313E-05-4.02968E-06-3.15384E-05 8.47721E-06 1.68539E-18-3.02265E-19
 -1      2226 7.60991E-05-3.30033E-06-3.12217E-05 9.57851E-06 1.63664E-18-5.93313E-19
 -1      2227 7.58485E-05-4.41548E-06-3.05460E-05 1.08747E-05 1.57656E-18-6.62496E-19
 -1      2228 8.41053E-05-8.39374E-06-3.25371E-05 5.11356E-06 1.58397E-18 3.18101E-19
 -1      2229 8.01851E-05-5.76189E-06-3.19747E-05 6.05645E-06 1.59251E-18 1.04953E-20
 -1      2230 7.82179E-05-5.45069E-06-3.10901E-05 6.14314E-06 1.50264E-18-1.94761E-19
 -1      2231 9.45926E-05-1.64372E-05-3.35227E-05 1.93440E-06 1.33458E-18 1.23180E-18
 -1      2232 8.85241E-05-1.18696E-05-3.29255E-05 2.51983E-06 1.42521E-18 6.23549E-19
 -1      2233 8.54189E-05-1.06443E-05-3.19412E-05 7.57880E-07 1.37625E-18 4.00930E-19
 -1      2234 9.56019E-05-1.87031E-05-3.28501E-05-4.49952E-06 1.03656E-18 1.26733E-18
 -1      2235 1.53299E-04-6.84037E-05-3.64796E-05-1.16161E-05-1.02533E-18 1.78417E-18
 -1      2236 1.09603E-04-5.16291E-05-2.46487E-05-3.40028E-05-1.90053E-18 4.64280E-19
 -1      2237 9.84619E-05-4.06327E-05-2.41036E-05-3.65982E-05-1.98269E-18 2.57286E-19
 -1      2238 9.60331E-05-2.61189E-05-2.99227E-05-9.88898E-06-7.93538E-19-4.28528E-19
 -1      2239 9.49195E-05-2.67824E-05-2.92363E-05-8.50245E-06-6.99997E-19-4.03308E-19
 -1      2240 9.58965E-05-2.10959E-05-3.21216E-05-1.43573E-05-8.96280E-19-8.74429E-19
 -1      2241 9.58590E-05-2.44464E-05-3.06529E-05-1.11706E-05-8.74178E-19-6.27066E-19
 -1      2242 9.64651E-05-2.42557E-05-3.08956E-05-1.14089E-05-7.40505E-19-7.13840E-19
 -1      2243 9.49017E-05-1.92022E-05-3.24420E-05-1.40012E-05-8.01725E-19-1.02741E-18
 -1      2244 9.45670E-05-2.73883E-05-2.87383E-05-7.80710E-06-6.25115E-19-2.98247E-19
 -1      2245 9.34519E-05-2.74835E-05-2.82822E-05-7.25480E-06-4.67218E-19-3.19737E-19
 -1      2246 9.62319E-05-2.69730E-05-2.96722E-05-9.28385E-06-6.79911E-19-4.37284E-19
 -1      2247 9.28086E-05-2.75265E-05-2.79486E-05-6.95884E-06-4.17441E-19-2.41425E-19
 -1      2248 9.17336E-05-2.72657E-05-2.76260E-05-6.70661E-06-3.02826E-19-2.78758E-19
 -1      2249 9.52312E-05-2.78890E-05-2.88625E-05-8.18622E-06-4.43854E-19-3.96536E-19
 -1      2250 9.09322E-05-2.69503E-05-2.74104E-05-6.48894E-06-2.12528E-19-1.81074E-19
 -1      2251 8.99127E-05-2.64578E-05-2.71783E-05-6.20035E-06-2.50725E-19-1.20963E-19
 -1      2252 9.38047E-05-2.76753E-05-2.83433E-05-7.62077E-06-2.46895E-19-2.06914E-19
 -1      2253 8.90308E-05-2.59160E-05-2.70482E-05-5.77379E-06-3.78443E-19-1.46798E-19
 -1      2254 8.81272E-05-2.53215E-05-2.68880E-05-5.22908E-06-4.47439E-19-1.15499E-19
 -1      2255 9.21156E-05-2.67136E-05-2.80342E-05-6.93621E-06-3.28294E-19-1.60359E-20
 -1      2256 8.72966E-05-2.47177E-05-2.68182E-05-4.40981E-06-5.11098E-19-1.22668E-19
 -1      2257 8.66204E-05-2.41875E-05-2.67221E-05-3.52090E-06-4.25543E-19-3.29400E-19
 -1      2258 9.03751E-05-2.53685E-05-2.78719E-05-5.61692E-06-4.86910E-19 1.10191E-19
 -1      2259 8.60218E-05-2.37192E-05-2.66917E-05-2.28928E-06-2.32749E-19-5.26292E-19
 -1      2260 8.56948E-05-2.34237E-05-2.66556E-05-1.11770E-06-1.52936E-19-4.85596E-19
 -1      2261 8.89113E-05-2.40910E-05-2.78016E-05-3.43143E-06-3.78035E-19-5.36596E-19
 -1      2262 8.54894E-05-2.32619E-05-2.66480E-05 3.64734E-07-5.18020E-19-6.11476E-19
 -1      2263 8.55863E-05-2.33110E-05-2.66682E-05 1.63011E-06-7.11061E-19-9.11262E-19
 -1      2264 8.80864E-05-2.33391E-05-2.77767E-05-5.25163E-07-4.98983E-19-6.84115E-19
 -1      2265 8.58323E-05-2.35241E-05-2.66738E-05 3.07855E-06-6.19848E-19-9.01160E-19
 -1      2266 8.63395E-05-2.39177E-05-2.67449E-05 4.19535E-06-5.48896E-19-8.42897E-19
 -1      2267 8.81346E-05-2.34102E-05-2.77654E-05 2.61682E-06-6.64611E-19-8.39744E-19
 -1      2268 8.69547E-05-2.44386E-05-2.67615E-05 5.31997E-06-4.70884E-19-8.82681E-19
 -1      2269 8.77691E-05-2.50689E-05-2.68759E-05 6.08834E-06-2.53121E-19-9.80791E-19
 -1      2270 8.90326E-05-2.43091E-05-2.77556E-05 5.36515E-06-5.34432E-19-6.53656E-19
 -1      2271 8.85712E-05-2.57344E-05-2.69060E-05 6.70926E-06-1.34026E-19-7.27864E-19
 -1      2272 8.95387E-05-2.64398E-05-2.70530E-05 7.03967E-06-1.84015E-20-4.72279E-19
 -1      2273 9.05029E-05-2.57562E-05-2.77530E-05 7.21044E-06-4.18785E-20-5.56917E-19
 -1      2274 9.03310E-05-2.70724E-05-2.70993E-05 7.13572E-06-1.15219E-20-6.32648E-19
 -1      2275 9.12994E-05-2.77066E-05-2.72651E-05 7.05877E-06 7.62563E-20-5.17133E-19
 -1      2276 9.21490E-05-2.73354E-05-2.77714E-05 7.94482E-06-4.14293E-21-3.96829E-19
 -1      2277 9.19438E-05-2.81844E-05-2.73271E-05 6.73858E-06-1.34667E-19-5.13626E-19
 -1      2278 9.28020E-05-2.86611E-05-2.74971E-05 6.36626E-06-1.20129E-19-4.79092E-19
 -1      2279 9.36235E-05-2.86804E-05-2.78218E-05 7.67670E-06-9.03840E-21-2.48578E-19
 -1      2280 9.32447E-05-2.89421E-05-2.75701E-05 5.79741E-06-4.81742E-19-3.75610E-19
 -1      2281 9.39361E-05-2.92407E-05-2.77308E-05 5.26768E-06-4.82402E-19-5.59764E-19
 -1      2282 9.47304E-05-2.95914E-05-2.79054E-05 6.71326E-06-2.75699E-19 7.35599E-20
 -1      2283 9.41894E-05-2.93460E-05-2.78076E-05 4.61071E-06-6.06897E-19-5.21975E-19
 -1      2284 9.47040E-05-2.94919E-05-2.79487E-05 4.04440E-06-6.20326E-19-5.24967E-19
 -1      2285 9.54311E-05-3.00443E-05-2.80138E-05 5.40795E-06-6.77337E-19 3.52309E-20
 -1      2286 9.48141E-05-2.94734E-05-2.80222E-05 3.41640E-06-3.27115E-19-7.59291E-19
 -1      2287 9.51706E-05-2.95112E-05-2.81383E-05 2.89650E-06 4.05881E-20-8.53129E-19
 -1      2288 9.57898E-05-3.01309E-05-2.81334E-05 4.05286E-06-5.67796E-19-4.69375E-20
 -1      2289 9.51895E-05-2.94242E-05-2.82028E-05 2.36338E-06-1.17494E-19-1.22531E-18
 -1      2290 9.54197E-05-2.93985E-05-2.82923E-05 1.93334E-06 6.44324E-20-1.74829E-18
 -1      2291 9.59096E-05-2.99839E-05-2.82503E-05 2.83636E-06-3.60645E-19-8.04184E-19
 -1      2292 9.53902E-05-2.92864E-05-2.83449E-05 1.51893E-06 6.98065E-19-1.61678E-18
 -1      2293 9.55271E-05-2.92317E-05-2.84096E-05 1.19125E-06 8.37341E-19-1.09180E-18
 -1      2294 9.58886E-05-2.97252E-05-2.83540E-05 1.84813E-06 3.05327E-19-8.79269E-19
 -1      2295 9.54781E-05-2.91224E-05-2.84495E-05 8.92024E-07 4.52744E-19-1.19281E-18
 -1      2296 9.55507E-05-2.90610E-05-2.84932E-05 6.59710E-07 1.91236E-20-1.24968E-18
 -1      2297 9.58007E-05-2.94423E-05-2.84386E-05 1.10610E-06 4.77551E-19-8.51472E-19
 -1      2298 9.54991E-05-2.89684E-05-2.85213E-05 4.58119E-07-9.97696E-20-9.47622E-19
 -1      2299 9.55300E-05-2.89125E-05-2.85485E-05 3.04681E-07 2.04046E-19-3.23359E-19
 -1      2300 9.56923E-05-2.91862E-05-2.85025E-05 5.86382E-07 2.28228E-19-9.09974E-19
 -1      2301 9.54839E-05-2.88409E-05-2.85667E-05 1.78561E-07 3.51601E-19-4.38717E-19
 -1      2302 9.54896E-05-2.87954E-05-2.85819E-05 8.49511E-08 2.86804E-19-2.79344E-19
 -1      2303 9.55885E-05-2.89790E-05-2.85470E-05 2.46697E-07 2.58203E-19-3.61325E-19
 -1      2304 9.54518E-05-2.87440E-05-2.85924E-05 1.30425E-08-1.27014E-19-5.34030E-19
 -1      2305 9.54437E-05-2.87097E-05-2.85993E-05-3.83529E-08-7.08782E-19-7.69172E-19
 -1      2306 9.55000E-05-2.88243E-05-2.85755E-05 4.15728E-08-1.33747E-19-8.06384E-19
 -1      2307 9.54140E-05-2.86749E-05-2.86044E-05-7.38301E-08-1.08866E-18-8.02447E-19
 -1      2308 9.53995E-05-2.86506E-05-2.86061E-05-9.74118E-08-6.77965E-19-1.12318E-18
 -1      2309 9.54293E-05-2.87163E-05-2.85915E-05-6.95876E-08-9.26834E-19-5.52788E-19
 -1      2310 9.53771E-05-2.86284E-05-2.86075E-05-1.10045E-07 5.86044E-20-1.55161E-18
 -1      2311 9.53607E-05-2.86120E-05-2.86062E-05-1.16619E-07-3.73436E-19-1.17396E-18
 -1      2312 9.53752E-05-2.86453E-05-2.85987E-05-1.19300E-07-7.63651E-19-9.84262E-19
 -1      2313 9.53439E-05-2.85987E-05-2.86054E-05-1.16086E-07-2.87430E-19-8.91251E-19
 -1      2314 9.53282E-05-2.85882E-05-2.86026E-05-1.13214E-07 5.00341E-19-8.15657E-20
 -1      2315 9.53347E-05-2.86014E-05-2.86001E-05-1.31653E-07-8.47331E-20-1.19620E-18
 -1      2316 9.53159E-05-2.85808E-05-2.86007E-05-1.05993E-07 6.67475E-20 9.13724E-20
 -1      2317 9.53021E-05-2.85745E-05-2.85974E-05-9.86347E-08 9.94875E-20-6.56688E-20
 -1      2318 9.53049E-05-2.85763E-05-2.85981E-05-1.23379E-07 2.87141E-19-4.37753E-19
 -1      2319 9.52931E-05-2.85708E-05-2.85951E-05-8.87892E-08 2.04907E-19 3.11023E-19
 -1      2320 9.52818E-05-2.85672E-05-2.85919E-05-7.99788E-08 3.59435E-19 1.45727E-19
 -1      2321 9.52833E-05-2.85634E-05-2.85944E-05-1.05408E-07 4.16419E-19 7.71567E-19
 -1      2322 9.52753E-05-2.85658E-05-2.85895E-05-6.98728E-08 3.97393E-19 1.25390E-19
 -1      2323 9.52664E-05-2.85640E-05-2.85867E-05-6.13116E-08 1.21186E-18 4.93513E-19
 -1      2324 9.52677E-05-2.85579E-05-2.85900E-05-8.44192E-08 3.95121E-19 8.87236E-19
 -1      2325 9.52617E-05-2.85638E-05-2.85845E-05-5.21759E-08 5.58938E-19 3.17628E-19
 -1      2326 9.52550E-05-2.85631E-05-2.85822E-05-4.46959E-08 5.41216E-19 8.49715E-19
 -1      2327 9.52566E-05-2.85567E-05-2.85858E-05-6.41583E-08 9.46112E-19 9.53529E-19
 -1      2328 9.52517E-05-2.85636E-05-2.85804E-05-3.70503E-08 5.60730E-19 8.63383E-19
 -1      2329 9.52469E-05-2.85635E-05-2.85786E-05-3.09516E-08 6.96088E-19 1.54495E-18
 -1      2330 9.52488E-05-2.85577E-05-2.85820E-05-4.64595E-08 5.50738E-19 8.41009E-19
 -1      2331 9.52446E-05-2.85642E-05-2.85771E-05-2.48994E-08 4.97178E-19 1.51027E-18
 -1      2332 9.52413E-05-2.85644E-05-2.85758E-05-2.01814E-08-1.48721E-20 1.18937E-18
 -1      2333 9.52433E-05-2.85597E-05-2.85788E-05-3.19829E-08 2.83981E-19 8.74746E-19
 -1      2334 9.52398E-05-2.85651E-05-2.85747E-05-1.56043E-08-7.22882E-19 7.01894E-19
 -1      2335 9.52376E-05-2.85655E-05-2.85737E-05-1.21160E-08-1.58994E-18 2.61639E-19
 -1      2336 9.52397E-05-2.85620E-05-2.85762E-05-2.07217E-08-1.02372E-18 1.13829E-18
 -1      2337 9.52366E-05-2.85662E-05-2.85729E-05-8.79671E-09-9.98984E-19 4.57965E-19
 -1      2338 9.52353E-05-2.85666E-05-2.85723E-05-6.32779E-09 7.90538E-19 4.32444E-19
 -1      2339 9.52373E-05-2.85641E-05-2.85743E-05-1.23320E-08-1.10615E-18 4.29399E-19
 -1      2340 9.52347E-05-2.85672E-05-2.85717E-05-4.02205E-09 4.36176E-19 1.60763E-19
 -1      2341 9.52340E-05-2.85676E-05-2.85713E-05-2.35553E-09 6.60631E-19-2.46163E-20
 -1      2342 9.52359E-05-2.85659E-05-2.85729E-05-6.33501E-09 4.75729E-19 5.91374E-19
 -1      2343 9.52337E-05-2.85681E-05-2.85709E-05-8.30955E-10 9.16085E-19 3.92511E-19
 -1      2344 9.52335E-05-2.85685E-05-2.85707E-05 2.30408E-10 6.31722E-19 1.41998E-18
 -1      2345 9.52351E-05-2.85674E-05-2.85719E-05-2.23385E-09 1.04700E-18 3.91166E-19
 -1      2346 9.52333E-05-2.85688E-05-2.85705E-05 1.17577E-09 1.59642E-19 1.37048E-18
 -1      2347 9.52334E-05-2.85692E-05-2.85704E-05 1.79818E-09-8.43207E-19 1.32085E-18
 -1      2348 9.52347E-05-2.85685E-05-2.85713E-05 4.25992E-10 6.26608E-19 6.26709E-19
 -1      2349 9.52334E-05-2.85694E-05-2.85702E-05 2.32974E-09-7.81318E-20 1.69056E-18
 -1      2350 9.52336E-05-2.85697E-05-2.85702E-05 2.64596E-09 1.24631E-18 2.25107E-18
 -1      2351 9.52346E-05-2.85694E-05-2.85708E-05 2.03024E-09-4.32402E-19 8.84406E-19
 -1      2352 9.52336E-05-2.85699E-05-2.85702E-05 2.89317E-09 2.45937E-20 2.12413E-18
 -1      2353 9.52339E-05-2.85701E-05-2.85702E-05 3.00472E-09-3.28170E-19 1.66104E-18
 -1      2354 9.52348E-05-2.85700E-05-2.85706E-05 2.88946E-09 1.93039E-19 1.75320E-18
 -1      2355 9.52341E-05-2.85703E-05-2.85702E-05 3.06486E-09-1.42430E-19 1.58527E-18
 -1      2356 9.52344E-05-2.85705E-05-2.85703E-05 3.04617E-09-3.47858E-20 1.79702E-18
 -1      2357 9.52350E-05-2.85705E-05-2.85705E-05 3.24322E-09-2.26400E-19 1.38678E-18
 -1      2358 9.52346E-05-2.85706E-05-2.85703E-05 2.98939E-09-6.33917E-20 1.68339E-18
 -1      2359 9.52349E-05-2.85707E-05-2.85704E-05 2.89246E-09 1.80634E-18 1.67953E-18
 -1      2360 9.52353E-05-2.85708E-05-2.85705E-05 3.26901E-09-2.22993E-19 1.72995E-18
 -1      2361 9.52350E-05-2.85708E-05-2.85704E-05 2.76679E-09 3.12950E-18 9.14288E-19
 -1      2362 9.52354E-05-2.85709E-05-2.85705E-05 2.62550E-09 2.04115E-18 1.29585E-18
 -1      2363 9.52356E-05-2.85710E-05-2.85706E-05 3.09264E-09 1.22530E-18 8.41005E-19
 -1      2364 9.52355E-05-2.85710E-05-2.85705E-05 2.46132E-09-1.47360E-19 1.11344E-18
 -1      2365 9.52358E-05-2.85711E-05-2.85706E-05 2.29515E-09-7.67540E-19 9.08538E-19
 -1      2366 9.52360E-05-2.85712E-05-2.85706E-05 2.79819E-09 4.74217E-19 7.44477E-19
 -1      2367 9.52360E-05-2.85711E-05-2.85706E-05 2.10884E-09-4.17050E-19 9.88898E-19
 -1      2368 9.52362E-05-2.85712E-05-2.85707E-05 1.92636E-09-5.86380E-19 9.81727E-19
 -1      2369 9.52363E-05-2.85713E-05-2.85707E-05 2.43656E-09-1.06931E-18 1.95944E-18
 -1      2370 9.52364E-05-2.85713E-05-2.85708E-05 1.72465E-09 1.02448E-20 7.84184E-19
 -1      2371 9.52366E-05-2.85714E-05-2.85708E-05 1.52686E-09 1.41358E-18 1.75524E-18
 -1      2372 9.52366E-05-2.85715E-05-2.85708E-05 2.03346E-09-3.33720E-19 1.08669E-18
 -1      2373 9.52367E-05-2.85714E-05-2.85708E-05 1.32328E-09 7.97622E-19 7.46709E-19
 -1      2374 9.52369E-05-2.85715E-05-2.85709E-05 1.10952E-09-1.09386E-18 9.17812E-19
 -1      2375 9.52371E-05-2.85717E-05-2.85709E-05 1.16494E-09-1.30543E-18 9.04666E-19
 -1      2376 9.52368E-05-2.85716E-05-2.85708E-05 1.60975E-09 6.18146E-19 3.60467E-19
 -1      2377 9.02190E-05-1.78573E-05-3.08674E-05-2.08370E-05 1.81847E-20 7.10369E-19
 -1      2378 9.05594E-05-1.76481E-05-3.12521E-05-1.64203E-05 3.17199E-19 8.72967E-19
 -1      2379 9.22066E-05-3.09950E-05-2.57871E-05-3.50551E-05-1.44027E-18 2.21711E-19
 -1      2380 8.82096E-05-2.40469E-05-2.70676E-05-3.32953E-05-1.05212E-18 2.96197E-19
 -1      2381 1.15595E-04-5.39035E-05-2.65249E-05 4.63144E-05-4.70739E-19-5.90858E-19
 -1      2382 9.77490E-05-4.96957E-05-2.03607E-05 4.97279E-05-1.08844E-19-8.78770E-19
 -1      2383 5.13218E-05-3.27362E-05-7.85508E-06 3.33519E-05-2.27852E-19-3.49401E-19
 -1      2384 3.23640E-05-2.20786E-05-4.14453E-06 2.38989E-05-3.89000E-19 3.42201E-19
 -1      2385 1.50371E-04-6.81781E-05-3.51603E-05 1.71408E-05-1.15196E-18 1.51841E-18
 -1      2386 1.14834E-04-4.18358E-05-3.05992E-05 3.29731E-05-5.26854E-19 1.17277E-18
 -1      2387 1.25886E-04-5.34776E-05-3.07322E-05 2.80261E-05-8.64397E-19 1.39755E-18
 -1      2388 9.83680E-05-2.41966E-05-3.18462E-05 1.79426E-05-3.07830E-19 1.20774E-18
 -1      2389 1.00407E-04-2.44282E-05-3.24305E-05 2.09614E-05 3.25896E-19 1.16265E-18
 -1      2390 9.81807E-05-2.54668E-05-3.12110E-05 1.23599E-05 2.38956E-20 1.12807E-18
 -1      2391 9.97180E-05-2.52787E-05-3.17994E-05 1.49625E-05-1.38265E-19 9.57275E-19
 -1      2392 9.17866E-05-2.06887E-05-3.03508E-05 1.68109E-05 5.38726E-20 1.33513E-18
 -1      2393 9.78219E-05-2.66149E-05-3.05450E-05 8.26608E-06-7.37964E-19 4.32660E-19
 -1      2394 9.89722E-05-2.63954E-05-3.10188E-05 1.01531E-05-3.86968E-19 2.41974E-19
 -1      2395 9.39720E-05-2.31322E-05-3.02892E-05 1.17397E-05 2.45229E-19 6.08021E-19
 -1      2396 9.73484E-05-2.74160E-05-2.99854E-05 5.42778E-06 1.49256E-19 4.81920E-19
 -1      2397 9.81914E-05-2.72564E-05-3.03340E-05 6.71227E-06-3.33241E-19 6.59023E-20
 -1      2398 9.51478E-05-2.50844E-05-2.99877E-05 7.98814E-06-3.11645E-19-7.77751E-19
 -1      2399 9.68731E-05-2.79182E-05-2.95590E-05 3.52580E-06-9.58338E-20 3.31180E-19
 -1      2400 9.74751E-05-2.78201E-05-2.98037E-05 4.37027E-06 2.95492E-19 6.96417E-19
 -1      2401 9.56675E-05-2.64285E-05-2.96536E-05 5.33902E-06 1.72762E-19 1.64116E-19
 -1      2402 9.64589E-05-2.82151E-05-2.92504E-05 2.27740E-06 5.26825E-19 9.51299E-20
 -1      2403 9.68795E-05-2.81601E-05-2.94177E-05 2.82195E-06-7.44975E-19 2.14768E-19
 -1      2404 9.58264E-05-2.72889E-05-2.93639E-05 3.52768E-06-2.78637E-19-4.27788E-19
 -1      2405 9.61258E-05-2.83837E-05-2.90334E-05 1.46793E-06 1.60428E-18-2.98838E-19
 -1      2406 9.64152E-05-2.83552E-05-2.91461E-05 1.81550E-06 1.62495E-18-3.59017E-19
 -1      2407 9.58121E-05-2.78176E-05-2.91370E-05 2.31546E-06 1.10045E-18-9.79726E-19
 -1      2408 9.58715E-05-2.84762E-05-2.88836E-05 9.46626E-07 4.60896E-19-4.43672E-19
 -1      2409 9.60680E-05-2.84629E-05-2.89588E-05 1.16729E-06 1.07984E-18-1.92405E-19
 -1      2410 9.57289E-05-2.81343E-05-2.89685E-05 1.51510E-06 1.29991E-18-9.87504E-19
 -1      2411 9.56904E-05-2.85235E-05-2.87855E-05 6.25049E-07 9.67169E-19-8.38768E-19
 -1      2412 9.58191E-05-2.85178E-05-2.88336E-05 7.60505E-07 7.90194E-19-2.88103E-20
 -1      2413 9.56316E-05-2.83183E-05-2.88496E-05 9.99794E-07 6.84569E-19-4.70086E-19
 -1      2414 9.55499E-05-2.85493E-05-2.87142E-05 4.04229E-07-3.77282E-19-6.47243E-20
 -1      2415 9.56419E-05-2.85479E-05-2.87482E-05 4.95445E-07 1.66486E-19-1.06350E-18
 -1      2416 9.55398E-05-2.84238E-05-2.87649E-05 6.62243E-07 6.29818E-19-1.34035E-19
 -1      2417 9.54497E-05-2.85615E-05-2.86660E-05 2.61952E-07-4.88333E-19-1.21767E-18
 -1      2418 9.55116E-05-2.85618E-05-2.86886E-05 3.20330E-07 1.22872E-19-5.41372E-19
 -1      2419 9.54604E-05-2.84873E-05-2.87037E-05 4.33919E-07 9.41952E-20-2.68584E-19
 -1      2420 9.53787E-05-2.85667E-05-2.86334E-05 1.69694E-07 1.06760E-18-2.79988E-18
 -1      2421 9.54202E-05-2.85677E-05-2.86484E-05 2.07238E-07 3.28685E-19-2.22058E-18
 -1      2422 9.53972E-05-2.85230E-05-2.86612E-05 2.84488E-07 5.71481E-19-2.32808E-18
 -1      2423 9.53289E-05-2.85685E-05-2.86114E-05 1.09487E-07 2.28690E-18-1.82221E-18
 -1      2424 9.53567E-05-2.85695E-05-2.86213E-05 1.33801E-07 1.51149E-18-1.86285E-18
 -1      2425 9.53488E-05-2.85430E-05-2.86317E-05 1.86254E-07 1.21847E-18-2.24006E-18
 -1      2426 9.52944E-05-2.85687E-05-2.85965E-05 6.99469E-08 1.33986E-18-9.89517E-19
 -1      2427 9.53128E-05-2.85696E-05-2.86031E-05 8.58002E-08 2.30956E-18-1.79297E-18
 -1      2428 9.53128E-05-2.85540E-05-2.86114E-05 1.21330E-07 1.65516E-18-7.22204E-19
 -1      2429 9.52708E-05-2.85685E-05-2.85866E-05 4.38451E-08-1.37090E-18-1.25056E-18
 -1      2430 9.52829E-05-2.85691E-05-2.85909E-05 5.42345E-08 2.63840E-20-7.12915E-19
 -1      2431 9.52865E-05-2.85600E-05-2.85975E-05 7.81907E-08 7.36419E-19-2.07737E-19
 -1      2432 9.52550E-05-2.85682E-05-2.85799E-05 2.65773E-08 3.46848E-19-1.96416E-18
 -1      2433 9.52627E-05-2.85685E-05-2.85827E-05 3.33871E-08-1.06817E-18-1.92583E-18
 -1      2434 9.52679E-05-2.85634E-05-2.85879E-05 4.94096E-08-1.24359E-19-8.23848E-19
 -1      2435 9.52450E-05-2.85680E-05-2.85758E-05 1.56275E-08-4.44137E-19-1.29593E-18
 -1      2436 9.52497E-05-2.85681E-05-2.85775E-05 1.99271E-08 5.60285E-19-1.77386E-18
 -1      2437 9.52552E-05-2.85655E-05-2.85815E-05 3.05127E-08 4.11528E-19-1.32656E-18
 -1      2438 9.52383E-05-2.85680E-05-2.85729E-05 7.96791E-09-1.96391E-18-8.42563E-19
 -1      2439 9.52413E-05-2.85680E-05-2.85740E-05 1.09232E-08-8.07536E-19-1.39895E-18
 -1      2440 9.52465E-05-2.85666E-05-2.85772E-05 1.78995E-08-7.40107E-19 2.93743E-19
 -1      2441 9.52343E-05-2.85681E-05-2.85712E-05 3.03149E-09-1.79011E-19-3.56133E-19
 -1      2442 9.52359E-05-2.85680E-05-2.85718E-05 4.91079E-09-2.39203E-18-1.46282E-18
 -1      2443 9.52406E-05-2.85675E-05-2.85743E-05 9.26790E-09-1.31744E-18 1.84113E-20
 -1      2444 9.52321E-05-2.85684E-05-2.85702E-05-6.10171E-11-7.81656E-19-1.00300E-20
 -1      2445 9.52328E-05-2.85682E-05-2.85705E-05 1.08861E-09 9.60271E-19 2.13689E-19
 -1      2446 9.52369E-05-2.85682E-05-2.85724E-05 3.66303E-09-1.70183E-19-2.28206E-19
 -1      2447 9.52312E-05-2.85687E-05-2.85696E-05-1.90272E-09 2.21606E-19-4.96244E-19
 -1      2448 9.52313E-05-2.85684E-05-2.85697E-05-1.24468E-09-5.14660E-19-6.98371E-19
 -1      2449 9.52347E-05-2.85687E-05-2.85712E-05 1.30080E-10 4.87373E-20-5.96153E-19
 -1      2450 9.52310E-05-2.85690E-05-2.85694E-05-2.90239E-09 1.92130E-18-7.24629E-19
 -1      2451 9.52308E-05-2.85688E-05-2.85694E-05-2.57195E-09 1.89496E-18-4.18042E-20
 -1      2452 9.52336E-05-2.85692E-05-2.85705E-05-1.98838E-09 1.04060E-18-1.91855E-18
 -1      2453 9.52313E-05-2.85694E-05-2.85694E-05-3.34468E-09 6.45796E-19 1.50084E-19
 -1      2454 9.52309E-05-2.85691E-05-2.85693E-05-3.22807E-09 5.70318E-19-1.29133E-18
 -1      2455 9.52332E-05-2.85696E-05-2.85701E-05-3.15036E-09 1.89389E-18-1.54686E-19
 -1      2456 9.52319E-05-2.85697E-05-2.85695E-05-3.42820E-09 2.05534E-18-2.12083E-18
 -1      2457 9.52314E-05-2.85695E-05-2.85694E-05-3.44717E-09 2.75061E-18-7.64506E-19
 -1      2458 9.52332E-05-2.85700E-05-2.85700E-05-3.67692E-09 2.28914E-18-1.07794E-18
 -1      2459 9.52326E-05-2.85700E-05-2.85697E-05-3.30319E-09 1.72143E-18-4.78654E-18
 -1      2460 9.52321E-05-2.85698E-05-2.85696E-05-3.39549E-09 1.28942E-18-3.50827E-18
 -1      2461 9.52335E-05-2.85702E-05-2.85700E-05-3.79578E-09 2.65614E-18-3.13029E-18
 -1      2462 9.52334E-05-2.85703E-05-2.85699E-05-3.04746E-09 1.75352E-18-6.14122E-18
 -1      2463 9.52329E-05-2.85701E-05-2.85698E-05-3.18698E-09 1.37989E-18-5.46909E-18
 -1      2464 9.52340E-05-2.85705E-05-2.85701E-05-3.66819E-09 2.32648E-18-4.81172E-18
 -1      2465 9.52342E-05-2.85705E-05-2.85701E-05-2.72503E-09 4.78207E-20-6.66333E-18
 -1      2466 9.52337E-05-2.85703E-05-2.85700E-05-2.88491E-09 6.02980E-19-5.95826E-18
 -1      2467 9.52345E-05-2.85707E-05-2.85702E-05-3.39087E-09 8.85200E-19-5.39157E-18
 -1      2468 9.52348E-05-2.85707E-05-2.85703E-05-2.37430E-09-1.59409E-18-6.39502E-18
 -1      2469 9.52344E-05-2.85706E-05-2.85702E-05-2.54137E-09-9.84121E-19-7.19671E-18
 -1      2470 9.52350E-05-2.85709E-05-2.85703E-05-3.03435E-09-3.71294E-19-5.17689E-18
 -1      2471 9.52355E-05-2.85709E-05-2.85705E-05-2.01344E-09-2.28666E-18-6.66468E-18
 -1      2472 9.52351E-05-2.85708E-05-2.85704E-05-2.18257E-09-2.38921E-18-7.60876E-18
 -1      2473 9.52355E-05-2.85710E-05-2.85705E-05-2.64116E-09-1.60969E-18-6.08383E-18
 -1      2474 9.52360E-05-2.85711E-05-2.85707E-05-1.64547E-09-2.36913E-18-3.26564E-18
 -1      2475 9.52357E-05-2.85710E-05-2.85706E-05-1.81808E-09-2.40438E-18-4.71782E-18
 -1      2476 9.52359E-05-2.85711E-05-2.85706E-05-2.23221E-09-3.75142E-18-5.21124E-18
 -1      2477 9.52365E-05-2.85712E-05-2.85708E-05-1.26358E-09 6.28010E-19-2.06863E-18
 -1      2478 9.52362E-05-2.85711E-05-2.85708E-05-1.44276E-09 3.41213E-19-1.99733E-18
 -1      2479 9.52363E-05-2.85713E-05-2.85707E-05-1.81164E-09-1.23183E-18-3.08364E-18
 -1      2480 9.52370E-05-2.85714E-05-2.85710E-05-7.06936E-10 5.95368E-20-2.31744E-18
 -1      2481 9.52369E-05-2.85714E-05-2.85709E-05-7.81766E-10-4.25660E-19-2.10974E-18
 -1      2482 9.52370E-05-2.85716E-05-2.85709E-05-8.77995E-10 3.74130E-19 3.32594E-19
 -1      2483 9.52377E-05-2.85727E-05-2.85707E-05-1.25173E-09-2.01496E-18-8.43758E-19
 -1      2484 9.52376E-05-2.85725E-05-2.85708E-05-1.30504E-09 2.88666E-20-3.54504E-18
 -1      2485 9.52380E-05-2.85731E-05-2.85707E-05-1.01189E-09-3.10810E-18 3.16445E-18
 -1      2486 9.52379E-05-2.85729E-05-2.85707E-05-1.13753E-09-3.83010E-18 2.38837E-18
 -1      2487 9.52378E-05-2.85728E-05-2.85708E-05-1.38276E-09-1.77275E-18-1.18209E-19
 -1      2488 9.52375E-05-2.85723E-05-2.85708E-05-1.32795E-09 1.11738E-18-2.90443E-18
 -1      2489 9.52373E-05-2.85721E-05-2.85708E-05-1.29684E-09 9.10593E-19-3.71406E-18
 -1      2490 9.52375E-05-2.85724E-05-2.85708E-05-1.53363E-09 1.38621E-18-3.50727E-18
 -1      2491 9.52381E-05-2.85733E-05-2.85706E-05-6.49246E-10-3.12603E-18 1.44447E-18
 -1      2492 9.52381E-05-2.85732E-05-2.85706E-05-8.26555E-10-3.46015E-18 3.67132E-18
 -1      2493 9.52381E-05-2.85731E-05-2.85707E-05-1.05959E-09-3.11786E-18 3.62563E-18
 -1      2494 9.52382E-05-2.85735E-05-2.85706E-05-2.12815E-10-4.36970E-18-2.41512E-18
 -1      2495 9.52382E-05-2.85734E-05-2.85706E-05-4.18456E-10-3.87907E-18-9.00569E-19
 -1      2496 9.52382E-05-2.85733E-05-2.85707E-05-6.12669E-10-3.60423E-18-4.50455E-19
 -1      2497 9.52382E-05-2.85734E-05-2.85706E-05 2.45686E-10-3.74145E-18-2.90237E-18
 -1      2498 9.52382E-05-2.85735E-05-2.85706E-05 3.59698E-11-3.66196E-18-3.56811E-18
 -1      2499 9.52383E-05-2.85734E-05-2.85707E-05-9.83254E-11-3.27902E-18-2.37362E-18
 -1      2500 9.52381E-05-2.85733E-05-2.85706E-05 6.74498E-10-1.98299E-18-9.45810E-19
 -1      2501 9.52382E-05-2.85734E-05-2.85706E-05 4.84787E-10-2.58274E-18-2.75357E-18
 -1      2502 9.52383E-05-2.85733E-05-2.85707E-05 4.24767E-10-1.91757E-18-1.91770E-18
 -1      2503 9.52379E-05-2.85730E-05-2.85707E-05 1.01916E-09-1.83208E-18 1.59399E-18
 -1      2504 9.52380E-05-2.85732E-05-2.85706E-05 8.74029E-10-2.29011E-18 9.81646E-19
 -1      2505 9.52382E-05-2.85732E-05-2.85707E-05 8.95075E-10-8.16871E-20 2.53101E-19
 -1      2506 9.52377E-05-2.85727E-05-2.85707E-05 1.24732E-09-1.46358E-18 2.06685E-18
 -1      2507 9.52378E-05-2.85729E-05-2.85707E-05 1.16222E-09-1.51428E-18 1.72681E-18
 -1      2508 9.52379E-05-2.85729E-05-2.85707E-05 1.26327E-09-1.28696E-18 1.89621E-18
 -1      2509 9.52374E-05-2.85723E-05-2.85708E-05 1.30920E-09-1.86537E-18 1.05374E-18
 -1      2510 9.52376E-05-2.85725E-05-2.85708E-05 1.30767E-09-1.77526E-18 1.44978E-18
 -1      2511 9.52377E-05-2.85725E-05-2.85708E-05 1.48491E-09-1.71447E-18 2.00868E-18
 -1      2512 9.52372E-05-2.85719E-05-2.85709E-05 1.22562E-09-1.30006E-18-5.05141E-19
 -1      2513 9.52373E-05-2.85721E-05-2.85708E-05 1.30958E-09-1.41089E-18-6.06322E-19
 -1      2514 9.52374E-05-2.85722E-05-2.85708E-05 1.53690E-09-8.86691E-19 1.12394E-18
 -1      2515 9.52371E-05-2.85718E-05-2.85708E-05 1.46338E-09 8.62520E-19-1.10566E-18
 -1      2516 8.55118E-05-5.01017E-05-1.54231E-05 3.58642E-05-9.52489E-19 1.01157E-18
 -1      2517 6.59219E-05-4.12390E-05-1.05750E-05 3.49071E-05-6.76991E-19 4.51045E-19
 -1      2518 6.20104E-05-3.25599E-05-1.22096E-05 3.47130E-05-5.69418E-19-2.56863E-19
 -1      2519 4.52836E-05-3.02063E-05-6.08649E-06-4.70235E-05 1.11448E-18 6.95202E-19
 -1      2520 6.35962E-05-3.78887E-05-1.09298E-05-5.38287E-05 1.14646E-18 1.12867E-18
 -1      2521 1.56296E-04-4.13377E-05-5.00185E-05 2.54873E-06-2.11716E-18 7.94940E-19
 -1      2522 1.52357E-04-4.99169E-05-4.39220E-05 1.42849E-05-1.48931E-18 3.56177E-19
 -1      2523 9.86169E-05-2.38138E-05-3.20560E-05 2.46347E-05 6.69474E-19 1.01870E-18
 -1      2524 1.01792E-04-2.56317E-05-3.24387E-05 2.76316E-05 6.64484E-19 1.02382E-18
 -1      2525 8.84667E-05-1.86787E-05-2.97225E-05 2.32445E-05 4.16108E-19 1.22981E-18
 -1      2526 1.00759E-04-2.72803E-05-3.12164E-05 3.14160E-05 3.28331E-19 1.12947E-18
 -1      2527 1.06223E-04-3.32830E-05-3.09909E-05 3.23690E-05-2.78939E-19 1.28360E-18
 -1      2528 8.52790E-05-2.00835E-05-2.75942E-05 3.07010E-05 1.57628E-19 1.36759E-18
 -1      2529 9.32233E-05-1.83871E-05-3.19720E-05-1.27795E-05 5.54965E-19 1.01203E-18
 -1      2530 9.39266E-05-1.85814E-05-3.22945E-05-8.04815E-06 8.07236E-19 1.07877E-18
 -1      2531 8.81930E-05-1.40931E-05-3.17368E-05-5.69335E-06 1.01471E-18 6.21891E-19
 -1      2532 8.40564E-05-1.31533E-05-3.02828E-05-1.28912E-05 5.22873E-19 3.66102E-19
 -1      2533 8.72971E-05-2.00185E-05-2.85638E-05-2.87794E-05-6.48218E-19 2.30896E-19
 -1      2534 8.63859E-05-1.74605E-05-2.94495E-05-2.51786E-05-3.25314E-19 3.78994E-19
 -1      2535 7.77906E-05-1.21437E-05-2.79021E-05-2.04066E-05-9.18501E-21-1.18968E-19
 -1      2536 9.19547E-05-1.52910E-05-3.28887E-05 3.62674E-06 9.79675E-19-1.00275E-18
 -1      2537 9.31589E-05-1.59874E-05-3.31023E-05 1.45219E-06 7.78402E-19-1.07864E-18
 -1      2538 9.58423E-05-1.92951E-05-3.28417E-05 5.27591E-07 6.71720E-19-9.72652E-19
 -1      2539 9.33170E-05-1.77863E-05-3.24230E-05 5.49806E-06 9.76443E-19-9.01028E-19
 -1      2540 1.60290E-05-1.39499E-05-5.60003E-07 2.05253E-05 1.49395E-19-3.13995E-18
 -1      2541 1.41525E-05-1.31977E-05-5.54086E-08 3.87245E-06 3.13402E-20-3.33392E-18
 -1      2542 5.68484E-05-3.52993E-05-9.26437E-06-3.43424E-05-1.28453E-18-2.15104E-18
 -1      2543 8.60655E-05-4.67538E-05-1.65581E-05-3.95266E-05-1.45901E-18-1.01877E-18
 -1      2544 2.05308E-05-1.51366E-05-1.89219E-06-1.09220E-05-5.75029E-19-3.27717E-18
 -1      2545 3.02204E-05-1.98097E-05-4.14962E-06-2.29797E-05-7.56189E-19-3.09675E-18
 -1      2546 3.56182E-05-2.41148E-05-4.74113E-06 4.38569E-05 3.86035E-19-2.17687E-18
 -1      2547 2.52982E-05-1.91589E-05-2.22841E-06 3.40412E-05 6.23204E-19-2.68086E-18
 -1      2548 1.51934E-04-4.95442E-05-4.40380E-05-1.36408E-05 8.37385E-19-1.64049E-18
 -1      2549 1.57892E-04-4.25024E-05-4.99936E-05-7.20546E-06 1.33302E-19-1.76733E-18
 -1      2550 7.50970E-05-4.07961E-05-1.46385E-05 5.45230E-05-1.31925E-19-1.46272E-18
 -1      2551 5.37811E-05-3.35955E-05-8.39227E-06 4.94534E-05 2.87568E-19-1.73218E-18
 -1      2552 5.29975E-05-2.70228E-05-1.05798E-05 4.74585E-05 9.32160E-19-1.90138E-18
 -1      2553 1.44032E-04-5.52335E-05-3.84577E-05 2.78418E-05-9.69641E-19-2.04135E-19
 -1      2554 1.30950E-04-5.63541E-05-3.19683E-05 3.54234E-05-6.36969E-19-5.83182E-19
 -1      2555 1.53083E-04-2.10571E-05-5.73778E-05-6.70301E-06-2.81151E-18-4.90326E-19
 -1      2556 1.54114E-04-2.84483E-05-5.41923E-05-6.40135E-06-2.53136E-18 1.16891E-19
 -1      2557 1.54671E-04-7.68070E-06-6.35011E-05-2.29081E-06-2.67239E-18-1.05440E-18
 -1      2558 1.51235E-04-1.08291E-05-6.07818E-05-5.26491E-06-3.08616E-18-9.32477E-19
 -1      2559 1.58538E-04-1.19380E-05-6.32530E-05 2.48742E-06-1.92742E-18-1.35377E-18
 -1      2560 1.56358E-04-8.14284E-06-6.41942E-05 9.53027E-07-2.25904E-18-1.22799E-18
 -1      2561 1.58325E-04-2.95861E-05-5.55631E-05-4.22533E-07-1.03719E-18-1.68920E-18
 -1      2562 1.60037E-04-2.03601E-05-6.04379E-05 2.53567E-06-1.54224E-18-1.66971E-18
 -1      2563 1.26778E-04-5.68589E-05-2.98401E-05-3.88530E-05 1.84039E-18 1.63371E-19
 -1      2564 1.43736E-04-5.56918E-05-3.79899E-05-2.92828E-05 1.66442E-18-7.61694E-19
 -1      2565 8.31354E-05-4.65972E-05-1.55596E-05-5.24663E-05 1.49501E-18 1.58191E-18
 -1      2566 1.03874E-04-5.17785E-05-2.23895E-05-5.01997E-05 1.65383E-18 1.23132E-18
 -1      2567 7.95305E-05-4.22228E-05-1.55338E-05-5.23483E-05 1.63964E-18 1.00119E-18
 -1      2568 1.94831E-05-1.23080E-05-2.50698E-06 6.55953E-06-1.34361E-19 4.50622E-19
 -1      2569 1.55563E-05-1.26305E-05-7.59780E-07-1.01351E-05 4.13564E-19 6.26804E-19
 -1      2570 1.76970E-05-1.68215E-05-2.85628E-09-2.35643E-05 6.90120E-19 1.25446E-18
 -1      2571 2.70175E-05-2.04532E-05-2.54310E-06-3.73836E-05 9.55030E-19 1.33916E-18
 -1      2572 1.25331E-04-6.08794E-05-2.75653E-05 2.61874E-05-1.21316E-18 1.48179E-18
 -1      2573 9.67531E-05-2.00880E-05-3.28636E-05-8.05227E-06-3.15098E-20-1.27437E-18
 -1      2574 9.46778E-05-1.72311E-05-3.32392E-05-9.18165E-06-1.10246E-19-1.49583E-18
 -1      2575 9.46718E-05-1.75524E-05-3.31309E-05-1.08802E-05-3.12295E-19-1.45864E-18
 -1      2576 7.37294E-05-1.62091E-05-2.43972E-05-2.95315E-05-6.83132E-19-4.68092E-19
 -1      2577 9.46589E-05-1.85602E-05-3.26608E-05-1.27716E-05-6.02343E-19-1.18051E-18
 -1      2578 1.09615E-04-5.56091E-05-2.31175E-05-3.29313E-05-1.53017E-18 2.64433E-19
 -1      2579 1.27451E-04-5.72986E-05-2.97390E-05 3.63081E-05 3.67718E-19-4.41516E-20
 -1      2580 7.94387E-05-3.08476E-05-2.03989E-05-3.75910E-05-1.60386E-18-5.92711E-19
 -1      2581 9.19947E-05-4.58233E-05-1.94279E-05 5.09025E-05 7.02826E-19-8.66885E-19
 -1      2582 4.23848E-05-1.44483E-05-1.13918E-05 2.54550E-05-5.67089E-19 1.65171E-20
 -1      2583 3.01397E-05-1.37776E-05-6.28102E-06 1.60388E-05-4.22881E-19 8.17175E-19
 -1      2584 3.07341E-05-6.34226E-06-9.88132E-06 9.11718E-06 4.31246E-19 2.04558E-19
 -1      2585 9.06444E-05-3.17518E-05-2.49808E-05 3.57801E-05-2.35052E-19 4.96679E-19
 -1      2586 9.52367E-05-2.85713E-05-2.85709E-05-9.76254E-10 7.01102E-19-1.05941E-18
 -1      2587 9.52367E-05-2.85714E-05-2.85708E-05-1.29587E-09 6.31340E-20-1.61819E-18
 -1      2588 9.52372E-05-2.85719E-05-2.85708E-05-1.47515E-09 9.61114E-19-1.03463E-18
 -1      2589 9.52372E-05-2.85719E-05-2.85708E-05-1.21148E-09-3.66704E-19-6.78508E-19
 -1      2590 9.52371E-05-2.85717E-05-2.85709E-05-1.07586E-09 2.21098E-19 6.06901E-19
 -1      2591 1.49930E-04-3.63428E-05-4.89261E-05-4.76763E-06-1.82176E-18 4.54433E-19
 -1      2592 4.24982E-05-2.30993E-05-7.80660E-06-4.25567E-05 1.18754E-18 9.72394E-19
 -1      2593 2.34192E-05-9.41290E-06-5.43710E-06-1.58261E-05 6.71962E-19 6.52851E-19
 -1      2594 1.47532E-04-5.45399E-05-3.97711E-05 1.49195E-05-6.10896E-19 8.05952E-19
 -1      2595 1.19635E-04-5.71897E-05-2.66790E-05-4.27728E-05 1.75421E-18 1.02809E-19
 -1      2596 1.29962E-04-5.92872E-05-3.04683E-05-3.19850E-05 2.32701E-18-5.57454E-19
 -1      2597 1.11147E-04-5.39835E-05-2.39391E-05-4.45772E-05 2.11906E-18 3.10001E-19
 -1      2598 1.51824E-04-3.63328E-05-4.96909E-05 4.09487E-06 2.00535E-19-2.26010E-18
 -1      2599 1.48716E-04-1.49508E-05-5.75698E-05 6.65701E-06-1.37897E-18-1.91853E-18
 -1      2600 1.43914E-04-5.59503E-06-5.96251E-05-5.91408E-07-2.20991E-18-1.71191E-18
 -1      2601 1.43643E-04-1.42580E-05-5.59030E-05-9.34295E-06-2.63406E-18-5.25584E-19
 -1      2602 1.46901E-04-5.53492E-05-3.92846E-05-1.56010E-05 1.66490E-18-1.32455E-18
 -1      2603 2.40443E-05-8.77309E-06-5.93538E-06-4.09550E-06-1.51037E-19-3.07981E-18
 -1      2604 1.33688E-04-6.50439E-05-2.93791E-05-2.66549E-05-1.36033E-18 1.02756E-18
 -1      2605 2.62473E-05-1.17926E-05-5.59710E-06 2.67712E-05 7.51848E-19-2.73803E-18
 -1      2606 9.91488E-05-5.15347E-05-2.04692E-05 3.60565E-05-9.54606E-19 7.57247E-19
 -1      2607 8.33597E-05-1.25014E-05-3.04544E-05 1.54209E-05 1.43331E-18-1.04595E-18
 -1      2608 8.67155E-05-1.46464E-05-3.08088E-05 1.43937E-05 1.42262E-18-1.06867E-18
 -1      2609 9.01207E-05-1.71971E-05-3.12907E-05 1.24000E-05 1.29100E-18-1.01334E-18
 -1      2610 9.29230E-05-1.89698E-05-3.16574E-05 1.02958E-05 1.15779E-18-9.02079E-19
 -1      2611 9.02784E-05-1.89278E-05-3.06447E-05 1.50534E-05 1.28868E-18-9.75993E-19
 -1      2612 7.36583E-05-4.60922E-06-2.97025E-05 1.07232E-05 1.53221E-18-6.97998E-19
 -1      2613 7.44048E-05-5.13826E-06-2.96239E-05 1.28154E-05 1.57243E-18-7.83886E-19
 -1      2614 7.69130E-05-6.18453E-06-3.03922E-05 3.78740E-06 1.41362E-18-1.36525E-19
 -1      2615 7.43303E-05-4.44349E-06-2.99407E-05 6.65366E-06 1.45189E-18-4.33079E-19
 -1      2616 7.23642E-05-4.65002E-06-2.89087E-05 8.72961E-06 1.41689E-18-6.42400E-19
 -1      2617 8.37172E-05-1.11661E-05-3.11572E-05-2.58092E-06 1.16970E-18 3.22380E-19
 -1      2618 7.95805E-05-7.80058E-06-3.07430E-05 3.72163E-07 1.26924E-18 6.15733E-21
 -1      2619 7.53675E-05-6.28995E-06-2.95229E-05 8.17548E-07 1.22046E-18-2.24791E-19
 -1      2620 8.20438E-05-1.07928E-05-3.04690E-05-5.99516E-06 9.21499E-19 2.16807E-19
 -1      2621 9.02054E-05-2.15054E-05-2.95162E-05 9.15416E-06 5.81958E-19-1.35789E-19
 -1      2622 8.92858E-05-2.02236E-05-2.95754E-05 1.11199E-05 6.64213E-19 2.85804E-19
 -1      2623 9.69837E-05-2.34498E-05-3.15545E-05-1.17313E-05-6.30014E-19-8.50186E-19
 -1      2624 9.70824E-05-2.51784E-05-3.08610E-05-1.04866E-05-6.22874E-19-7.55221E-19
 -1      2625 9.26651E-05-2.39873E-05-2.94816E-05 6.41061E-06-8.54130E-20-4.46765E-19
 -1      2626 9.22080E-05-2.30491E-05-2.96155E-05 7.86980E-06-6.56748E-20 7.39801E-20
 -1      2627 8.82228E-05-2.03403E-05-2.90003E-05 7.33776E-06 1.50812E-19-3.30374E-19
 -1      2628 9.74968E-05-2.82465E-05-2.96572E-05-8.92621E-06-4.48912E-19-3.14801E-19
 -1      2629 9.68833E-05-2.84407E-05-2.93477E-05-8.54607E-06-2.96392E-19-3.16993E-19
 -1      2630 9.65846E-05-2.84754E-05-2.91806E-05-8.44642E-06-2.04108E-19-2.68468E-19
 -1      2631 9.57838E-05-2.81137E-05-2.89990E-05-8.17705E-06-1.55609E-19-3.37528E-19
 -1      2632 9.88048E-05-2.88865E-05-2.99553E-05-9.12542E-06-2.84479E-19-1.59973E-19
 -1      2633 9.51147E-05-2.75903E-05-2.89456E-05-7.95434E-06-1.51165E-19-1.66322E-19
 -1      2634 9.42237E-05-2.68479E-05-2.88549E-05-7.47877E-06-2.76908E-19-6.47645E-20
 -1      2635 9.78364E-05-2.83335E-05-2.97775E-05-8.81663E-06-1.85692E-19-2.49154E-19
 -1      2636 9.33237E-05-2.59848E-05-2.88739E-05-6.82549E-06-4.73295E-19-9.37088E-20
 -1      2637 9.24821E-05-2.51100E-05-2.88411E-05-5.92894E-06-5.28186E-19-2.35444E-19
 -1      2638 9.62498E-05-2.67273E-05-2.97911E-05-7.95214E-06-4.34106E-19-2.99547E-19
 -1      2639 9.16010E-05-2.42265E-05-2.88851E-05-4.67915E-06-4.80766E-19-4.04548E-19
 -1      2640 9.09942E-05-2.35326E-05-2.88791E-05-3.32646E-06-3.53927E-19-4.90443E-19
 -1      2641 9.44322E-05-2.46868E-05-2.98992E-05-6.00577E-06-5.96738E-19-3.88986E-19
 -1      2642 9.04353E-05-2.29858E-05-2.89028E-05-1.56557E-06-3.76178E-19-5.28082E-19
 -1      2643 9.02270E-05-2.27497E-05-2.88983E-05 6.77741E-08-5.71803E-19-5.77960E-19
 -1      2644 9.29559E-05-2.30123E-05-2.99978E-05-2.86790E-06-4.61067E-19-4.14682E-19
 -1      2645 9.02009E-05-2.27841E-05-2.88714E-05 2.00299E-06-6.64980E-19-5.99752E-19
 -1      2646 9.04500E-05-2.31194E-05-2.88550E-05 3.59344E-06-6.06553E-19-5.33701E-19
 -1      2647 9.23600E-05-2.24220E-05-3.00011E-05 1.01647E-06-5.39715E-19-2.08755E-19
 -1      2648 9.09485E-05-2.37395E-05-2.87711E-05 5.25716E-06-4.68942E-19-4.08292E-19
 -1      2649 9.15724E-05-2.45403E-05-2.87439E-05 6.47575E-06-4.69071E-19-3.04046E-19
 -1      2650 9.28582E-05-2.32127E-05-2.98681E-05 4.79513E-06-4.66267E-19-7.91779E-20
 -1      2651 9.23724E-05-2.55162E-05-2.86205E-05 7.52350E-06-4.23174E-19-7.44977E-20
 -1      2652 9.31878E-05-2.65241E-05-2.85934E-05 8.17504E-06-4.10672E-20-4.20884E-19
 -1      2653 9.42072E-05-2.51165E-05-2.96139E-05 7.60848E-06-4.66764E-19-5.07558E-20
 -1      2654 9.39897E-05-2.75327E-05-2.84601E-05 8.49774E-06-4.38623E-21-5.41208E-19
 -1      2655 9.47969E-05-2.84718E-05-2.84458E-05 8.57240E-06-7.21012E-21-3.44253E-19
 -1      2656 9.58605E-05-2.74770E-05-2.92964E-05 8.98258E-06-1.60477E-19-3.07158E-19
 -1      2657 9.53738E-05-2.92549E-05-2.83299E-05 8.28646E-06 8.64326E-20-4.43411E-19
 -1      2658 9.60315E-05-2.99436E-05-2.83359E-05 7.91773E-06 5.69551E-20-3.50816E-19
 -1      2659 9.72721E-05-2.96031E-05-2.89840E-05 8.95287E-06 1.22681E-19-4.19767E-19
 -1      2660 9.63005E-05-3.03900E-05-2.82532E-05 7.25658E-06-1.24324E-19-2.62854E-19
 -1      2661 9.67522E-05-3.07743E-05-2.82796E-05 6.63395E-06-2.49958E-19-2.20398E-19
 -1      2662 9.81279E-05-3.10593E-05-2.87289E-05 7.91736E-06 1.25371E-20-3.24644E-19
 -1      2663 9.67502E-05-3.09043E-05-2.82330E-05 5.83084E-06-4.33402E-19-1.73096E-19
 -1      2664 9.70077E-05-3.10255E-05-2.82741E-05 5.12720E-06-5.30061E-19-2.25609E-20
 -1      2665 9.83884E-05-3.17415E-05-2.85539E-05 6.37802E-06-3.75442E-19-3.86327E-19
 -1      2666 9.68277E-05-3.09291E-05-2.82581E-05 4.35080E-06-6.80264E-19 1.40448E-19
 -1      2667 9.69377E-05-3.08709E-05-2.83063E-05 3.68722E-06-5.43883E-19 2.35978E-19
 -1      2668 9.81936E-05-3.17857E-05-2.84574E-05 4.74994E-06-4.47187E-19 2.45305E-19
 -1      2669 9.66759E-05-3.06515E-05-2.83113E-05 3.02961E-06-5.29666E-19 6.27970E-20
 -1      2670 9.66920E-05-3.04987E-05-2.83593E-05 2.47125E-06-3.26172E-19-8.58616E-20
 -1      2671 9.77393E-05-3.14219E-05-2.84229E-05 3.29230E-06-5.58781E-19 6.56566E-19
 -1      2672 9.64203E-05-3.02399E-05-2.83757E-05 1.96359E-06 1.23965E-19-2.98545E-19
 -1      2673 9.63866E-05-3.00572E-05-2.84182E-05 1.53192E-06 4.18060E-19-2.02175E-19
 -1      2674 9.71968E-05-3.08701E-05-2.84291E-05 2.12042E-06-3.94270E-19 3.23312E-19
 -1      2675 9.61464E-05-2.98125E-05-2.84386E-05 1.16810E-06 3.23486E-19-3.17130E-19
 -1      2676 9.60932E-05-2.96396E-05-2.84729E-05 8.57304E-07 2.96025E-19-6.21009E-19
 -1      2677 9.66794E-05-3.02898E-05-2.84567E-05 1.25131E-06 1.85196E-19-6.16438E-19
 -1      2678 9.59013E-05-2.94353E-05-2.84924E-05 6.13696E-07-1.58027E-19-1.02278E-18
 -1      2679 9.58459E-05-2.92913E-05-2.85179E-05 4.04475E-07-1.56405E-19-1.31833E-18
 -1      2680 9.62444E-05-2.97732E-05-2.84914E-05 6.49677E-07-8.84045E-20-1.60436E-18
 -1      2681 9.57035E-05-2.91352E-05-2.85340E-05 2.52657E-07 1.62196E-19-1.10818E-18
 -1      2682 9.56544E-05-2.90254E-05-2.85514E-05 1.21656E-07 1.74076E-19-1.19234E-18
 -1      2683 9.59089E-05-2.93591E-05-2.85243E-05 2.60384E-07-1.45835E-20-1.90148E-18
 -1      2684 9.55546E-05-2.89142E-05-2.85632E-05 3.51894E-08 1.35636E-19-1.10277E-18
 -1      2685 9.55146E-05-2.88361E-05-2.85739E-05-3.96578E-08-3.23386E-19-9.92773E-19
 -1      2686 9.56664E-05-2.90522E-05-2.85512E-05 2.72631E-08 2.68833E-19-1.51144E-18
 -1      2687 9.54481E-05-2.87617E-05-2.85816E-05-8.24129E-08-7.81518E-19-8.31620E-19
 -1      2688 9.54170E-05-2.87095E-05-2.85873E-05-1.19454E-07-7.24846E-19-6.89307E-19
 -1      2689 9.55002E-05-2.88392E-05-2.85706E-05-9.80662E-08-4.35678E-19-6.92364E-19
 -1      2690 9.53748E-05-2.86629E-05-2.85917E-05-1.34800E-07-1.00400E-18-4.12579E-19
 -1      2691 9.53514E-05-2.86301E-05-2.85939E-05-1.48040E-07-7.61585E-19-8.44633E-19
 -1      2692 9.53917E-05-2.87005E-05-2.85830E-05-1.53393E-07-7.09356E-19-6.19126E-19
 -1      2693 9.53256E-05-2.86030E-05-2.85958E-05-1.47502E-07-1.23532E-19-7.96216E-19
 -1      2694 9.53083E-05-2.85839E-05-2.85957E-05-1.46940E-07 2.44311E-19-4.99416E-19
 -1      2695 9.53237E-05-2.86161E-05-2.85896E-05-1.66259E-07-3.32900E-19 2.54114E-19
 -1      2696 9.52933E-05-2.85697E-05-2.85959E-05-1.38216E-07 6.13568E-19 1.08102E-19
 -1      2697 9.52807E-05-2.85596E-05-2.85945E-05-1.30573E-07 8.83793E-19 5.38470E-19
 -1      2698 9.52830E-05-2.85689E-05-2.85921E-05-1.55615E-07 7.31890E-19 7.52056E-19
 -1      2699 9.52723E-05-2.85535E-05-2.85937E-05-1.18519E-07 8.86023E-19 1.04520E-18
 -1      2700 9.52632E-05-2.85490E-05-2.85918E-05-1.08042E-07 8.05103E-19 1.30419E-18
 -1      2701 9.52596E-05-2.85459E-05-2.85918E-05-1.33816E-07 1.12778E-18 1.60136E-18
 -1      2702 9.52588E-05-2.85475E-05-2.85904E-05-9.55141E-08 5.70973E-19 1.31644E-18
 -1      2703 9.52523E-05-2.85464E-05-2.85883E-05-8.46969E-08 6.94294E-19 1.52219E-18
 -1      2704 9.52469E-05-2.85375E-05-2.85899E-05-1.08442E-07 5.16715E-19 1.53525E-18
 -1      2705 9.52502E-05-2.85473E-05-2.85867E-05-7.32190E-08 1.03827E-18 1.16040E-18
 -1      2706 9.52456E-05-2.85479E-05-2.85848E-05-6.33789E-08 1.22995E-18 1.30580E-18
 -1      2707 9.52404E-05-2.85372E-05-2.85872E-05-8.37959E-08 8.69971E-19 1.17319E-18
 -1      2708 9.52446E-05-2.85499E-05-2.85832E-05-5.36282E-08 3.62207E-19 1.10708E-18
 -1      2709 9.52414E-05-2.85513E-05-2.85815E-05-4.53375E-08 4.78924E-19 8.35741E-19
 -1      2710 9.52374E-05-2.85410E-05-2.85842E-05-6.20353E-08 1.08073E-18 1.29276E-18
 -1      2711 9.52411E-05-2.85536E-05-2.85801E-05-3.74872E-08 5.26665E-19 4.12772E-19
 -1      2712 9.52389E-05-2.85553E-05-2.85787E-05-3.08758E-08-4.03846E-19 4.12051E-19
 -1      2713 9.52362E-05-2.85464E-05-2.85814E-05-4.39889E-08 3.19943E-19 5.65421E-19
 -1      2714 9.52388E-05-2.85575E-05-2.85776E-05-2.48222E-08-1.09536E-18 8.13156E-19
 -1      2715 9.52373E-05-2.85590E-05-2.85765E-05-1.97813E-08-1.61266E-18 4.43229E-19
 -1      2716 9.52359E-05-2.85519E-05-2.85789E-05-2.97139E-08-6.87806E-19 4.92906E-20
 -1      2717 9.52374E-05-2.85609E-05-2.85755E-05-1.52893E-08-8.52051E-19 9.51671E-19
 -1      2718 9.52364E-05-2.85623E-05-2.85747E-05-1.15991E-08-3.27982E-19 1.53703E-18
 -1      2719 9.52359E-05-2.85568E-05-2.85768E-05-1.88631E-08-8.31561E-19 1.83633E-18
 -1      2720 9.52365E-05-2.85638E-05-2.85739E-05-8.38976E-09-1.47361E-19 1.75473E-18
 -1      2721 9.52360E-05-2.85649E-05-2.85733E-05-5.79726E-09-2.38437E-19 1.29867E-18
 -1      2722 9.52361E-05-2.85610E-05-2.85751E-05-1.09156E-08-3.02306E-19 3.02524E-18
 -1      2723 9.52360E-05-2.85661E-05-2.85728E-05-3.59679E-09-6.39013E-20-4.06296E-20
 -1      2724 9.52357E-05-2.85669E-05-2.85724E-05-1.85765E-09 7.07238E-19-3.87366E-19
 -1      2725 9.52363E-05-2.85642E-05-2.85738E-05-5.31177E-09-9.23255E-19 3.02636E-19
 -1      2726 9.52358E-05-2.85678E-05-2.85720E-05-4.21968E-10 1.39474E-18-1.04810E-18
 -1      2727 9.52357E-05-2.85685E-05-2.85717E-05 6.78556E-10 6.25856E-19-8.53222E-19
 -1      2728 9.52365E-05-2.85667E-05-2.85728E-05-1.52638E-09 4.84218E-19-9.38483E-19
 -1      2729 9.52357E-05-2.85691E-05-2.85714E-05 1.55395E-09 2.04641E-19 7.01717E-20
 -1      2730 9.52358E-05-2.85695E-05-2.85712E-05 2.19346E-09 7.94924E-19 6.63672E-19
 -1      2731 9.52366E-05-2.85685E-05-2.85721E-05 8.96327E-10 1.35971E-18-8.97873E-19
 -1      2732 9.52358E-05-2.85700E-05-2.85711E-05 2.67225E-09 1.61116E-19 1.22986E-18
 -1      2733 9.52359E-05-2.85703E-05-2.85710E-05 2.99100E-09-1.95571E-19 9.17681E-19
 -1      2734 9.52367E-05-2.85697E-05-2.85716E-05 2.33140E-09 4.36501E-19 1.37960E-18
 -1      2735 9.52359E-05-2.85706E-05-2.85708E-05 3.19928E-09-3.82351E-20 1.75578E-19
 -1      2736 9.52360E-05-2.85708E-05-2.85708E-05 3.30367E-09 1.85535E-19 3.76848E-19
 -1      2737 9.52368E-05-2.85706E-05-2.85712E-05 3.07485E-09-1.36606E-19-1.64361E-19
 -1      2738 9.52361E-05-2.85710E-05-2.85707E-05 3.33513E-09-4.21818E-19 4.01848E-19
 -1      2739 9.52362E-05-2.85711E-05-2.85707E-05 3.30267E-09-9.31954E-19-4.17501E-21
 -1      2740 9.52369E-05-2.85711E-05-2.85710E-05 3.35194E-09-1.16913E-19-1.18064E-18
 -1      2741 9.52362E-05-2.85712E-05-2.85707E-05 3.22411E-09-2.71900E-19 9.30170E-19
 -1      2742 9.52364E-05-2.85714E-05-2.85707E-05 3.10859E-09 1.50368E-18 2.68671E-19
 -1      2743 9.52369E-05-2.85714E-05-2.85709E-05 3.32780E-09 5.74146E-20 3.07416E-19
 -1      2744 9.52364E-05-2.85714E-05-2.85707E-05 2.96543E-09 1.64198E-18 2.30036E-19
 -1      2745 9.52366E-05-2.85715E-05-2.85707E-05 2.80177E-09 7.27168E-20 6.64091E-19
 -1      2746 9.52370E-05-2.85716E-05-2.85709E-05 3.11842E-09 1.33417E-18 8.17786E-19
 -1      2747 9.52366E-05-2.85715E-05-2.85707E-05 2.62233E-09-1.01081E-18 1.89402E-18
 -1      2748 9.52367E-05-2.85716E-05-2.85708E-05 2.43049E-09-9.14852E-19 1.70905E-18
 -1      2749 9.52370E-05-2.85718E-05-2.85708E-05 2.80085E-09-1.49281E-19-2.36128E-19
 -1      2750 9.52368E-05-2.85716E-05-2.85708E-05 2.23013E-09-1.41058E-18 2.48102E-18
 -1      2751 9.52369E-05-2.85717E-05-2.85708E-05 2.02018E-09-1.05485E-18 1.15810E-18
 -1      2752 9.52371E-05-2.85718E-05-2.85708E-05 2.42216E-09-8.02742E-19 1.86283E-18
 -1      2753 9.52369E-05-2.85717E-05-2.85708E-05 1.85226E-09-2.55642E-19 4.01653E-19
 -1      2754 9.52371E-05-2.85718E-05-2.85708E-05 1.63726E-09 4.64722E-19-3.61242E-19
 -1      2755 9.52372E-05-2.85720E-05-2.85708E-05 1.70375E-09 3.45225E-19-3.61020E-19
 -1      2756 9.52371E-05-2.85719E-05-2.85708E-05 2.05381E-09-1.37198E-18 1.52005E-18
 -1      2757 9.56711E-05-1.97633E-05-3.25402E-05-1.17003E-05-4.27492E-19-1.14496E-18
 -1      2758 1.02264E-04-4.81587E-05-2.33963E-05 4.65585E-05 1.12825E-18-1.70889E-19
 -1      2759 8.35010E-05-3.88134E-05-1.85544E-05 4.92161E-05 1.31671E-18-7.69635E-19
 -1      2760 1.42017E-04-3.09704E-05-4.82499E-05-1.08450E-05-1.46092E-18 3.82435E-19
 -1      2761 1.46388E-04-4.24573E-05-4.46000E-05-4.65022E-06-9.23054E-19 1.01644E-18
 -1      2762 8.60942E-05-1.81823E-05-2.92074E-05 1.27811E-05 2.70254E-19-3.73753E-20
 -1      2763 8.45301E-05-1.67178E-05-2.90271E-05 1.52692E-05 4.73518E-19 4.54132E-19
 -1      2764 8.32327E-05-1.65042E-05-2.84436E-05 9.82179E-06 3.68394E-19-4.22941E-19
 -1      2765 9.40479E-05-2.56819E-05-2.93302E-05 4.41247E-06-8.29786E-20 1.78007E-19
 -1      2766 9.38640E-05-2.50517E-05-2.94681E-05 5.44805E-06 4.21344E-19-1.85660E-19
 -1      2767 9.12979E-05-2.31703E-05-2.91433E-05 5.33580E-06-3.75614E-20-4.68929E-21
 -1      2768 9.47813E-05-2.67830E-05-2.91611E-05 3.00018E-06 3.61393E-19-1.45544E-18
 -1      2769 9.47390E-05-2.63790E-05-2.92779E-05 3.71298E-06-1.28800E-19-3.11384E-19
 -1      2770 9.31170E-05-2.51138E-05-2.91133E-05 3.79438E-06 2.00861E-19-1.14917E-18
 -1      2771 9.51444E-05-2.74776E-05-2.90116E-05 2.02387E-06 1.77368E-18-2.10185E-18
 -1      2772 9.51660E-05-2.72257E-05-2.91024E-05 2.50478E-06 1.04755E-18-1.75531E-18
 -1      2773 9.41563E-05-2.63933E-05-2.90243E-05 2.65408E-06 7.70452E-19-2.62234E-18
 -1      2774 9.53062E-05-2.79069E-05-2.88921E-05 1.35968E-06 3.33674E-19-1.65506E-18
 -1      2775 9.53505E-05-2.77530E-05-2.89593E-05 1.67990E-06 1.25479E-18-1.98896E-18
 -1      2776 9.47301E-05-2.72140E-05-2.89267E-05 1.83581E-06 1.13523E-18-2.52441E-18
 -1      2777 9.53623E-05-2.81594E-05-2.88052E-05 9.30091E-07 2.82035E-19-7.44843E-19
 -1      2778 9.54084E-05-2.80689E-05-2.88518E-05 1.13481E-06-2.90263E-19-9.43508E-19
 -1      2779 9.50290E-05-2.77220E-05-2.88419E-05 1.27156E-06-6.44764E-19-1.98382E-18
 -1      2780 9.53696E-05-2.83225E-05-2.87369E-05 6.22745E-07-1.32281E-19 6.85635E-19
 -1      2781 9.54129E-05-2.82653E-05-2.87720E-05 7.65515E-07 3.41511E-19 4.33446E-19
 -1      2782 9.51807E-05-2.80394E-05-2.87728E-05 8.78678E-07-7.47196E-19-8.50126E-19
 -1      2783 9.53548E-05-2.84205E-05-2.86876E-05 4.17101E-07 7.60744E-19-3.34091E-19
 -1      2784 9.53905E-05-2.83864E-05-2.87123E-05 5.11478E-07 3.00064E-19 2.62622E-19
 -1      2785 9.52530E-05-2.82428E-05-2.87179E-05 5.99334E-07 3.90857E-19 5.54857E-19
 -1      2786 9.53325E-05-2.84791E-05-2.86523E-05 2.79109E-07 8.02619E-19-6.47600E-19
 -1      2787 9.53605E-05-2.84589E-05-2.86695E-05 3.41619E-07 8.36569E-19-1.18061E-19
 -1      2788 9.52804E-05-2.83678E-05-2.86767E-05 4.07999E-07 9.57381E-19 3.00780E-20
 -1      2789 9.53098E-05-2.85142E-05-2.86272E-05 1.86210E-07 1.63028E-18-1.50209E-18
 -1      2790 9.53310E-05-2.85022E-05-2.86392E-05 2.27799E-07 1.20056E-18-1.02689E-18
 -1      2791 9.52856E-05-2.84444E-05-2.86463E-05 2.76985E-07 1.00708E-18 3.71164E-19
 -1      2792 9.52900E-05-2.85352E-05-2.86094E-05 1.23420E-07 9.93345E-19-1.10492E-18
 -1      2793 9.53056E-05-2.85280E-05-2.86178E-05 1.51227E-07 1.24835E-18-1.77926E-18
 -1      2794 9.52808E-05-2.84915E-05-2.86242E-05 1.87156E-07 1.38367E-18-1.11302E-18
 -1      2795 9.52739E-05-2.85480E-05-2.85970E-05 8.08236E-08 5.80566E-20-1.05583E-18
 -1      2796 9.52852E-05-2.85436E-05-2.86027E-05 9.94975E-08 7.62699E-19-8.30265E-19
 -1      2797 9.52726E-05-2.85204E-05-2.86083E-05 1.25433E-07 2.70692E-19-1.25659E-18
 -1      2798 9.52615E-05-2.85558E-05-2.85882E-05 5.18804E-08 2.55053E-19-7.88963E-19
 -1      2799 9.52695E-05-2.85531E-05-2.85922E-05 6.44350E-08-3.47439E-19-3.73694E-19
 -1      2800 9.52639E-05-2.85385E-05-2.85969E-05 8.29456E-08-5.85772E-19-1.08025E-18
 -1      2801 9.52528E-05-2.85605E-05-2.85824E-05 3.30271E-08-8.22838E-20 1.04334E-18
 -1      2802 9.52580E-05-2.85588E-05-2.85850E-05 4.11705E-08 3.52508E-19 6.61160E-19
 -1      2803 9.52565E-05-2.85497E-05-2.85888E-05 5.42231E-08-5.07654E-19 8.31506E-19
 -1      2804 9.52461E-05-2.85638E-05-2.85781E-05 1.94406E-08-4.66627E-19 1.25178E-18
 -1      2805 9.52499E-05-2.85626E-05-2.85800E-05 2.52079E-08-5.18033E-20 1.63958E-18
 -1      2806 9.52504E-05-2.85568E-05-2.85831E-05 3.44451E-08-6.65092E-19 2.42937E-18
 -1      2807 9.52416E-05-2.85660E-05-2.85752E-05 1.03603E-08-6.77934E-19 2.40682E-19
 -1      2808 9.52440E-05-2.85651E-05-2.85765E-05 1.41771E-08-5.09042E-19 8.87800E-19
 -1      2809 9.52457E-05-2.85617E-05-2.85790E-05 2.04781E-08-9.03515E-20 8.44427E-19
 -1      2810 9.52386E-05-2.85675E-05-2.85733E-05 4.39328E-09 6.88286E-19-7.35840E-19
 -1      2811 9.52400E-05-2.85669E-05-2.85741E-05 6.86394E-09 1.46997E-20-4.10852E-19
 -1      2812 9.52422E-05-2.85649E-05-2.85761E-05 1.10599E-08-1.89579E-19 7.94925E-19
 -1      2813 9.52367E-05-2.85686E-05-2.85720E-05 5.85416E-10 9.09560E-19-2.70907E-18
 -1      2814 9.52375E-05-2.85681E-05-2.85725E-05 2.12978E-09 7.25707E-19-7.55469E-19
 -1      2815 9.52398E-05-2.85671E-05-2.85741E-05 4.82945E-09 1.11695E-18-1.64769E-18
 -1      2816 9.52356E-05-2.85694E-05-2.85712E-05-1.73158E-09 8.73154E-19-1.47086E-18
 -1      2817 9.52360E-05-2.85690E-05-2.85715E-05-8.21064E-10-1.05439E-20-1.82606E-18
 -1      2818 9.52382E-05-2.85686E-05-2.85727E-05 8.29323E-10 3.31838E-19-1.93280E-18
 -1      2819 9.52351E-05-2.85700E-05-2.85708E-05-3.03052E-09 1.36969E-18-1.11695E-18
 -1      2820 9.52352E-05-2.85697E-05-2.85709E-05-2.54833E-09 2.35558E-18-8.86635E-19
 -1      2821 9.52372E-05-2.85697E-05-2.85718E-05-1.62112E-09 6.17865E-19-6.70425E-19
 -1      2822 9.52350E-05-2.85704E-05-2.85705E-05-3.64646E-09 3.17749E-18-1.59684E-18
 -1      2823 9.52349E-05-2.85702E-05-2.85706E-05-3.44880E-09 2.20774E-18-9.22846E-19
 -1      2824 9.52366E-05-2.85704E-05-2.85713E-05-3.00816E-09 1.75010E-18-2.29932E-18
 -1      2825 9.52350E-05-2.85707E-05-2.85704E-05-3.81820E-09 2.69656E-18-1.05244E-18
 -1      2826 9.52349E-05-2.85705E-05-2.85704E-05-3.79807E-09 3.40753E-18-2.76209E-19
 -1      2827 9.52363E-05-2.85708E-05-2.85709E-05-3.67307E-09 2.01902E-18-6.75714E-19
 -1      2828 9.52352E-05-2.85709E-05-2.85704E-05-3.72550E-09 2.13722E-18-2.03969E-18
 -1      2829 9.52350E-05-2.85708E-05-2.85704E-05-3.81399E-09 2.03005E-18-1.43427E-18
 -1      2830 9.52362E-05-2.85711E-05-2.85708E-05-3.88125E-09 2.85913E-18 1.04267E-18
 -1      2831 9.52355E-05-2.85711E-05-2.85705E-05-3.46364E-09 5.12917E-19-1.63441E-18
 -1      2832 9.52353E-05-2.85710E-05-2.85704E-05-3.61653E-09 1.44173E-18-1.59951E-18
 -1      2833 9.52362E-05-2.85713E-05-2.85707E-05-3.80210E-09 1.77103E-18 1.60243E-18
 -1      2834 9.52358E-05-2.85712E-05-2.85705E-05-3.11010E-09-4.08745E-19-2.72955E-18
 -1      2835 9.52356E-05-2.85711E-05-2.85705E-05-3.29660E-09 2.75567E-19-2.18850E-18
 -1      2836 9.52363E-05-2.85715E-05-2.85707E-05-3.54330E-09 6.70420E-19 1.92314E-18
 -1      2837 9.52361E-05-2.85713E-05-2.85706E-05-2.71130E-09-1.91198E-18-2.41991E-18
 -1      2838 9.52359E-05-2.85713E-05-2.85706E-05-2.91359E-09-1.30043E-18-2.44621E-18
 -1      2839 9.52365E-05-2.85715E-05-2.85707E-05-3.18463E-09-5.57450E-19-3.70402E-19
 -1      2840 9.52364E-05-2.85714E-05-2.85707E-05-2.29040E-09-3.50996E-18-7.79989E-19
 -1      2841 9.52362E-05-2.85714E-05-2.85707E-05-2.49986E-09-3.21754E-18-1.91769E-18
 -1      2842 9.52366E-05-2.85716E-05-2.85707E-05-2.77522E-09-3.04737E-18 1.31887E-18
 -1      2843 9.52367E-05-2.85715E-05-2.85708E-05-1.85296E-09-2.23890E-19-8.53051E-19
 -1      2844 9.52365E-05-2.85715E-05-2.85707E-05-2.06897E-09-2.81508E-18-1.44029E-18
 -1      2845 9.52368E-05-2.85717E-05-2.85708E-05-2.33675E-09-3.77840E-18 1.16780E-18
 -1      2846 9.52372E-05-2.85720E-05-2.85708E-05-1.72040E-09 7.29718E-19-1.20166E-18
 -1      2847 9.52370E-05-2.85718E-05-2.85708E-05-1.63757E-09-5.48228E-19 7.83269E-19
 -1      2848 9.52380E-05-2.85728E-05-2.85708E-05-1.47792E-09-1.07940E-18 1.28594E-18
 -1      2849 9.52378E-05-2.85726E-05-2.85708E-05-1.60702E-09-4.10746E-19-2.14717E-18
 -1      2850 9.52377E-05-2.85724E-05-2.85708E-05-1.70923E-09-3.78713E-19-4.11258E-18
 -1      2851 9.52375E-05-2.85722E-05-2.85708E-05-1.74026E-09-3.18806E-20-4.25111E-18
 -1      2852 9.52378E-05-2.85725E-05-2.85708E-05-1.83682E-09-1.30778E-18-2.68945E-18
 -1      2853 9.52383E-05-2.85731E-05-2.85708E-05-1.07216E-09-3.43722E-18 2.12558E-18
 -1      2854 9.52382E-05-2.85730E-05-2.85708E-05-1.27840E-09-1.66741E-18 2.34887E-18
 -1      2855 9.52382E-05-2.85729E-05-2.85708E-05-1.51845E-09-1.79735E-18 4.35222E-19
 -1      2856 9.52385E-05-2.85733E-05-2.85708E-05 3.24865E-11-1.04903E-18-2.14135E-18
 -1      2857 9.52385E-05-2.85733E-05-2.85708E-05-2.42727E-10-2.10949E-18-4.31745E-19
 -1      2858 9.52384E-05-2.85732E-05-2.85708E-05 6.06305E-10 6.08354E-19-1.29793E-19
 -1      2859 9.52385E-05-2.85733E-05-2.85708E-05 3.41879E-10-1.00012E-19-1.62850E-18
 -1      2860 9.52386E-05-2.85733E-05-2.85709E-05 2.08813E-10 8.40054E-19-5.33303E-19
 -1      2861 9.52382E-05-2.85731E-05-2.85708E-05 1.10390E-09 8.90568E-19 5.84866E-19
 -1      2862 9.52383E-05-2.85732E-05-2.85708E-05 8.83055E-10 1.13155E-18-1.34348E-19
 -1      2863 9.52385E-05-2.85732E-05-2.85709E-05 8.18772E-10 1.05637E-18 1.52880E-19
 -1      2864 9.52380E-05-2.85728E-05-2.85708E-05 1.48702E-09-4.55569E-19 2.51242E-18
 -1      2865 9.52381E-05-2.85729E-05-2.85708E-05 1.32780E-09 2.84845E-20 1.59496E-18
 -1      2866 9.52383E-05-2.85730E-05-2.85709E-05 1.34043E-09 1.58798E-18 3.56349E-19
 -1      2867 9.52376E-05-2.85724E-05-2.85708E-05 1.69880E-09-8.65058E-19 2.19160E-18
 -1      2868 9.52378E-05-2.85726E-05-2.85708E-05 1.62691E-09-1.05262E-18 2.23516E-18
 -1      2869 9.52379E-05-2.85726E-05-2.85708E-05 1.72113E-09-1.63800E-20 2.41256E-18
 -1      2870 8.81266E-05-4.07490E-05-1.96399E-05 3.75513E-05-6.95838E-19 6.32098E-19
 -1      2871 7.38911E-05-3.61751E-05-1.55492E-05-4.96171E-05 1.73896E-18 2.08476E-19
 -1      2872 9.06438E-05-4.51457E-05-1.94628E-05-5.05226E-05 2.07396E-18 1.30305E-18
 -1      2873 7.12202E-05-1.23437E-05-2.52365E-05 2.32736E-05 2.49028E-19 4.93185E-19
 -1      2874 6.93987E-05-1.44082E-05-2.33046E-05 2.66822E-05 2.70389E-19 4.56392E-19
 -1      2875 6.83739E-05-8.10920E-06-2.56063E-05-1.66624E-05 7.34106E-20-6.58409E-19
 -1      2876 7.20517E-05-8.35443E-06-2.72957E-05-1.34738E-05 3.30753E-19-3.98185E-19
 -1      2877 4.25883E-05-2.47626E-05-7.16380E-06-2.91433E-05-1.06917E-18-2.72448E-18
 -1      2878 6.80763E-05-3.06928E-05-1.57057E-05-3.63530E-05-1.70381E-18-1.33302E-18
 -1      2879 6.25054E-05-1.37000E-05-2.04579E-05-2.71125E-05-7.11772E-19-1.12370E-18
 -1      2880 6.17873E-05-8.38103E-06-2.26313E-05-2.19081E-05-2.75762E-19-9.67418E-19
 -1      2881 1.45666E-04-5.20327E-05-4.07991E-05 6.27842E-06-5.17696E-19 1.48866E-18
 -1      2882 1.41359E-04-5.64498E-05-3.62552E-05 1.68156E-05-1.69407E-20 1.05159E-18
 -1      2883 6.34727E-05-1.96784E-05-1.80858E-05-3.28666E-05-1.29935E-18-1.18521E-18
 -1      2884 1.34072E-04-5.82722E-05-3.28735E-05 2.78314E-05 3.42307E-19 3.53319E-19
 -1      2885 1.22214E-04-5.53974E-05-2.81960E-05 3.63200E-05 8.42692E-19 1.02967E-20
 -1      2886 1.36481E-04-5.61250E-05-3.43704E-05 1.82527E-05 4.15840E-19 1.07451E-18
 -1      2887 4.24535E-05-1.59464E-05-1.08010E-05-2.63542E-05-9.48677E-19-2.40557E-18
 -1      2888 7.97515E-05-1.44888E-05-2.80739E-05 1.74156E-05 5.00193E-19-2.26528E-19
 -1      2889 7.76397E-05-1.36406E-05-2.73185E-05 2.03410E-05 3.99230E-20-5.74924E-20
 -1      2890 7.55338E-05-1.19463E-05-2.69876E-05 1.27971E-05 2.30405E-19-8.18631E-19
 -1      2891 9.52384E-05-2.85733E-05-2.85708E-05-5.48036E-10-2.80825E-18-5.30787E-19
 -1      2892 9.52384E-05-2.85732E-05-2.85708E-05-8.03751E-10-3.74144E-18 1.03290E-18
 -1      2893 9.52385E-05-2.85731E-05-2.85709E-05-1.02899E-09-3.31234E-18 6.84000E-19
 -1      2894 9.52386E-05-2.85733E-05-2.85709E-05-4.30985E-10-1.56906E-18-8.24325E-20
 -1      2895 7.68222E-05-7.54107E-06-2.98086E-05 1.50330E-05 1.64052E-18-7.76865E-19
 -1      2896 7.96829E-05-9.41045E-06-3.00216E-05 1.55607E-05 1.53552E-18-8.65000E-19
 -1      2897 8.22955E-05-1.31859E-05-2.96356E-05 1.75275E-05 1.48331E-18-8.72473E-19
 -1      2898 7.51042E-05-7.47351E-06-2.89192E-05 1.54701E-05 1.52960E-18-7.78150E-19
 -1      2899 3.43506E-05-1.09190E-05-9.63004E-06 3.33295E-05 1.10157E-18-2.23913E-18
 -1      2900 2.65876E-05-5.39401E-06-8.39795E-06 1.82719E-05 7.37501E-19-2.52289E-18
 -1      2901 1.40631E-04-1.79339E-05-5.30722E-05 1.00924E-05-1.12804E-18-2.02970E-18
 -1      2902 1.38373E-04-1.03023E-05-5.56347E-05 7.29122E-06-1.29405E-18-1.74097E-18
 -1      2903 9.90311E-05-2.26246E-05-3.27383E-05-3.02633E-06 3.93610E-19-9.97093E-19
 -1      2904 9.90299E-05-2.27760E-05-3.27314E-05-5.14508E-06 2.32512E-19-9.98467E-19
 -1      2905 6.64920E-05-2.99276E-05-1.54618E-05 4.98534E-05 1.28950E-18-1.33027E-18
 -1      2906 5.02388E-05-2.01334E-05-1.22138E-05 4.31293E-05 1.41476E-18-1.78999E-18
 -1      2907 8.00030E-05-3.30792E-05-1.95985E-05 4.61052E-05 1.60005E-18-7.94623E-19
 -1      2908 3.95458E-05-1.47619E-05-9.96639E-06-3.47912E-05 1.21851E-18 6.28498E-19
 -1      2909 5.54532E-05-2.47219E-05-1.28644E-05-4.56819E-05 1.65891E-18 3.65706E-19
 -1      2910 1.40477E-04-5.81796E-05-3.52600E-05-1.84758E-05 1.85116E-18-1.20258E-18
 -1      2911 1.45490E-04-5.23161E-05-4.03303E-05-5.82716E-06 1.26287E-18-1.79243E-18
 -1      2912 1.33911E-04-9.28144E-06-5.41542E-05-8.26329E-06-2.43353E-18-5.69471E-19
 -1      2913 1.35877E-04-1.71616E-05-5.13384E-05-1.17292E-05-2.17137E-18-1.24355E-19
 -1      2914 1.35879E-04-5.64579E-06-5.64477E-05 3.35752E-06-1.49141E-18-1.68798E-18
 -1      2915 1.33150E-04-4.32044E-06-5.58154E-05-2.43105E-06-2.14003E-18-1.27028E-18
 -1      2916 2.72712E-05-2.94227E-06-9.75810E-06 3.64182E-06 2.30363E-19-2.71559E-18
 -1      2917 3.31167E-05-5.07102E-06-1.14209E-05-1.17071E-05-2.28170E-19-2.57138E-18
 -1      2918 1.43957E-04-4.01061E-05-4.48187E-05 5.50554E-06 8.74509E-19-2.19233E-18
 -1      2919 1.43127E-04-2.94738E-05-4.93924E-05 9.55005E-06-1.18690E-19-2.10731E-18
 -1      2920 9.77545E-05-2.67264E-05-3.04231E-05-9.97588E-06-5.04514E-19-6.22459E-19
 -1      2921 9.74117E-05-2.75940E-05-2.99523E-05-9.18093E-06-4.45886E-19-5.09297E-19
 -1      2922 9.90344E-05-2.80726E-05-3.03885E-05-9.51506E-06-3.65114E-19-3.83261E-19
 -1      2923 9.84140E-05-2.58397E-05-3.10978E-05-1.02959E-05-4.24416E-19-7.71169E-19
 -1      2924 2.97489E-05-4.59510E-06-1.01228E-05-1.03810E-05 3.63986E-19 9.84676E-20
 -1      2925 3.21006E-05-8.57811E-06-9.39114E-06-2.49338E-05 6.67833E-19 6.43745E-19
 -1      2926 4.54223E-05-1.14243E-05-1.39728E-05-2.83569E-05 8.81417E-19 1.93547E-19
 -1      2927 5.11669E-05-1.21799E-05-1.61723E-05-2.57221E-05-7.49836E-19-1.79105E-18
 -1      2928 9.65059E-05-2.29518E-05-3.15764E-05 9.81957E-06 9.33331E-19-7.00852E-19
 -1      2929 9.52352E-05-2.04657E-05-3.20480E-05 7.41932E-06 9.73542E-19-7.85295E-19
 -1      2930 9.69737E-05-2.15587E-05-3.23256E-05 4.89097E-06 8.27972E-19-7.90758E-19
 -1      2931 6.92298E-05-2.89364E-05-1.67059E-05-4.39449E-05 1.88147E-18 4.05305E-19
 -1      2932 7.84746E-05-3.58243E-05-1.78330E-05 3.78617E-05-3.28861E-19 4.35163E-19
 -1      2933 6.34391E-05-2.64997E-05-1.52363E-05 3.45963E-05-2.60674E-19 1.20279E-19
 -1      2934 9.73495E-05-2.23476E-05-3.21407E-05-1.04380E-05-2.76498E-19-1.15488E-18
 -1      2935 1.13344E-04-5.03642E-05-2.67080E-05 3.78594E-05 1.19559E-18-8.47496E-20
 -1      2936 5.74818E-05-1.82968E-05-1.62574E-05 2.87849E-05-2.33146E-19 3.49825E-19
 -1      2937 1.42117E-04-4.67224E-05-4.09952E-05-1.37681E-06-2.81956E-19 1.19696E-18
 -1      2938 9.87156E-05-2.26205E-05-3.26067E-05-7.06519E-06 1.02460E-19-1.08728E-18
 -1      2939 9.82806E-05-2.26485E-05-3.24669E-05-8.71486E-06-1.08192E-19-1.22385E-18
 -1      2940 1.00776E-04-2.51710E-05-3.23835E-05-6.03886E-06 1.74637E-19-8.91380E-19
 -1      2941 9.52368E-05-2.85716E-05-2.85708E-05-1.76362E-09 6.87839E-19-1.42922E-19
 -1      2942 9.52370E-05-2.85718E-05-2.85708E-05-2.00691E-09-1.66996E-18 4.01272E-19
 -1      2943 9.52373E-05-2.85721E-05-2.85708E-05-1.93011E-09-1.04767E-18-3.10178E-18
 -1      2944 9.52370E-05-2.85716E-05-2.85709E-05-1.17625E-09-1.45361E-19 7.39502E-19
 -1      2945 9.52368E-05-2.85715E-05-2.85708E-05-1.48278E-09 4.46464E-19 1.69689E-19
 -1      2946 1.43106E-04-4.69155E-05-4.14550E-05 2.48531E-06 9.11328E-19-2.08481E-18
 -1      2947 1.36171E-04-3.95301E-05-4.16403E-05 8.99978E-06 8.84302E-19-1.91864E-18
 -1      2948 1.38327E-04-5.05192E-05-3.77812E-05-1.73064E-06 1.23640E-18-1.74219E-18
 -1      2949 8.94489E-05-3.68313E-05-2.24210E-05 3.74587E-05-3.76718E-19 5.00596E-19
 -1      2950 6.46633E-05-8.20100E-06-2.37371E-05 1.65918E-05 6.65020E-19-8.24375E-19
 -1      2951 9.52374E-05-2.85721E-05-2.85708E-05 1.71047E-09-6.90576E-19 2.04060E-18
 -1      2952 1.35870E-04-2.46130E-05-4.80724E-05-1.30765E-05-1.45827E-18 3.12873E-19
 -1      2953 1.33346E-04-3.07153E-05-4.42239E-05-1.19666E-05-5.59730E-19 8.83667E-19
 -1      2954 1.27307E-04-1.84869E-05-4.69533E-05-1.31367E-05-1.33799E-18 2.25814E-19
 -1      2955 3.54390E-05-2.90203E-06-1.32149E-05 9.98683E-06 6.53890E-19-2.27937E-18
 -1      2956 1.29840E-04-8.76037E-06-5.23471E-05 6.15847E-06-1.28453E-18-1.57961E-18
 -1      2957 3.33637E-05-3.80264E-06-1.17832E-05-9.73687E-07 2.86439E-19-3.79047E-19
 -1      2958 3.95633E-05-3.77275E-06-1.49477E-05-8.73272E-06 3.53901E-19-4.08058E-19
 -1      2959 3.95160E-05-4.21681E-06-1.47158E-05 8.42850E-06-3.61908E-20-1.69407E-19
 -1      2960 1.27375E-04-7.88768E-06-5.16909E-05-5.53639E-06-1.81138E-18-7.48301E-19
 -1      2961 1.05188E-04-5.00899E-05-2.33148E-05-4.31872E-05 2.29917E-18 7.20507E-20
 -1      2962 1.35429E-04-5.94588E-05-3.26432E-05-2.38017E-05 1.73822E-18-1.09595E-18
 -1      2963 1.36016E-04-5.66300E-05-3.41526E-05-1.38112E-05 1.59940E-18-1.43794E-18
 -1      2964 1.27697E-04-5.71277E-05-2.98921E-05-2.76430E-05 2.01573E-18-8.56152E-19
 -1      2965 9.52375E-05-2.85722E-05-2.85708E-05 1.88897E-09-9.06718E-19 2.51227E-18
 -1      2966 5.71553E-05-4.42347E-06-2.20960E-05-1.44283E-05 1.34149E-19-1.28495E-18
 -1      2967 7.62961E-05-9.30777E-06-2.86349E-05-1.13317E-05 5.60471E-19-2.24153E-19
 -1      2968 7.89109E-05-1.00110E-05-2.95624E-05-8.00475E-06 7.58644E-19 3.52958E-20
 -1      2969 7.49386E-05-7.20821E-06-2.89572E-05-4.76741E-06 9.20527E-19-2.58919E-19
 -1      2970 6.79341E-05-5.44771E-06-2.65714E-05-8.15990E-06 6.28120E-19-7.55752E-19
 -1      2971 4.21954E-05-8.04286E-06-1.37361E-05-1.82879E-05-4.75821E-19-2.24167E-18
 -1      2972 1.35274E-04-2.37845E-05-4.81348E-05 1.18852E-05-3.36907E-19-1.86294E-18
 -1      2973 9.80965E-05-2.21211E-05-3.25511E-05 1.96439E-06 7.14357E-19-7.53939E-19
 -1      2974 9.88221E-05-2.26155E-05-3.26923E-05-4.98921E-07 5.13043E-19-8.57498E-19
 -1      2975 1.01203E-04-2.54035E-05-3.24844E-05-1.68606E-06 3.96367E-19-8.17825E-19
 -1      2976 1.00049E-04-2.49223E-05-3.22169E-05 3.80643E-06 6.77196E-19-6.80684E-19
 -1      2977 4.88318E-05-1.41909E-05-1.42205E-05 3.64775E-05 1.41963E-18-1.79412E-18
 -1      2978 4.26714E-05-3.24361E-06-1.66785E-05-1.16945E-05 3.29284E-20-2.09101E-18
 -1      2979 6.85643E-05-4.05582E-06-2.77144E-05 7.21270E-06 1.38258E-18-6.16362E-19
 -1      2980 6.87046E-05-4.30977E-06-2.74904E-05 1.18439E-05 1.43848E-18-7.94715E-19
 -1      2981 4.63672E-05-8.09287E-06-1.59823E-05-2.17772E-05 2.31028E-19-4.47339E-19
 -1      2982 5.32689E-05-1.42308E-05-1.64380E-05-3.17890E-05 1.13447E-18-1.15260E-18
 -1      2983 9.91111E-05-2.46212E-05-3.19141E-05-9.60639E-06-1.77362E-19-1.03279E-18
 -1      2984 8.69795E-05-2.02735E-05-2.86460E-05 4.62719E-06 1.15350E-19-1.96956E-19
 -1      2985 8.49333E-05-1.86059E-05-2.84703E-05 5.49124E-06 1.96538E-19-1.53369E-19
 -1      2986 9.52380E-05-2.85726E-05-2.85709E-05-1.94276E-09-2.79483E-18-1.88104E-18
 -1      2987 9.52377E-05-2.85724E-05-2.85709E-05-2.05296E-09-2.25563E-18-3.71878E-18
 -1      2988 1.00980E-04-2.95576E-05-3.06073E-05-9.30754E-06-1.94720E-19-4.72757E-19
 -1      2989 1.00702E-04-2.96192E-05-3.04779E-05-9.19109E-06-1.44698E-19-3.84029E-19
 -1      2990 1.00573E-04-2.94032E-05-3.05106E-05-9.37293E-06-2.29068E-19-1.70960E-19
 -1      2991 9.98975E-05-2.87055E-05-3.05041E-05-9.16202E-06-1.80130E-19-2.77852E-19
 -1      2992 1.02818E-04-3.00762E-05-3.11521E-05-9.58177E-06 1.69427E-21-2.34289E-19
 -1      2993 9.91824E-05-2.77349E-05-3.06459E-05-8.97325E-06-3.61872E-19-3.16995E-19
 -1      2994 9.82707E-05-2.65351E-05-3.07154E-05-8.32567E-06-6.36524E-19-3.90613E-19
 -1      2995 1.01968E-04-2.86757E-05-3.13857E-05-9.66708E-06-3.43528E-19-1.72609E-19
 -1      2996 9.71971E-05-2.51748E-05-3.08976E-05-7.39497E-06-6.65617E-19-2.78146E-19
 -1      2997 9.63054E-05-2.39174E-05-3.09844E-05-6.10310E-06-5.76310E-19-3.50218E-19
 -1      2998 1.00148E-04-2.59697E-05-3.17759E-05-8.63182E-06-5.41081E-19-1.52152E-19
 -1      2999 9.53205E-05-2.27406E-05-3.11235E-05-4.30750E-06-4.89990E-19-4.04831E-19
 -1      3000 9.47561E-05-2.19578E-05-3.11693E-05-2.44623E-06-5.79905E-19-3.19565E-19
 -1      3001 9.80324E-05-2.30206E-05-3.21545E-05-5.88445E-06-6.78679E-19-2.01295E-19
 -1      3002 9.43270E-05-2.15237E-05-3.11937E-05-8.29295E-08-5.34690E-19-4.27891E-19
 -1      3003 9.43020E-05-2.15897E-05-3.11589E-05 1.97574E-06-5.97527E-19-3.36014E-19
 -1      3004 9.65758E-05-2.11498E-05-3.23499E-05-1.57660E-06-5.37732E-19-4.80165E-19
 -1      3005 9.46335E-05-2.21445E-05-3.10355E-05 4.27988E-06-4.29454E-19-9.52643E-20
 -1      3006 9.51394E-05-2.30658E-05-3.09134E-05 6.02699E-06-2.42256E-19 7.43635E-20
 -1      3007 9.64851E-05-2.13068E-05-3.22449E-05 3.29776E-06-3.36648E-19-5.43771E-19
 -1      3008 9.60180E-05-2.43794E-05-3.06617E-05 7.64492E-06-4.10378E-19 2.45275E-19
 -1      3009 9.68306E-05-2.58010E-05-3.04794E-05 8.70268E-06-4.06862E-19 2.24916E-19
 -1      3010 9.77503E-05-2.35061E-05-3.18251E-05 7.35278E-06-2.48492E-19 2.23802E-19
 -1      3011 9.77993E-05-2.73498E-05-3.01606E-05 9.33892E-06-3.63862E-19 1.36202E-19
 -1      3012 9.86180E-05-2.87885E-05-2.99613E-05 9.61138E-06-1.59291E-19 1.09110E-19
 -1      3013 9.96615E-05-2.68562E-05-3.11841E-05 9.59984E-06-3.01415E-19 4.13204E-19
 -1      3014 9.92729E-05-3.00739E-05-2.96431E-05 9.36507E-06 3.10028E-20-2.25543E-19
 -1      3015 9.98662E-05-3.11604E-05-2.94657E-05 9.00824E-06 2.39750E-20-3.42393E-19
 -1      3016 1.01324E-04-3.01580E-05-3.04706E-05 9.87519E-06-1.06765E-19 3.65632E-19
 -1      3017 1.00040E-04-3.19228E-05-2.91966E-05 8.21720E-06-1.21300E-19 2.59385E-20
 -1      3018 1.00320E-04-3.25186E-05-2.90627E-05 7.49948E-06 1.75522E-19 5.00180E-20
 -1      3019 1.02153E-04-3.25317E-05-2.98154E-05 8.69791E-06 9.87900E-20 5.69245E-21
 -1      3020 1.00072E-04-3.27561E-05-2.88629E-05 6.51652E-06-3.67622E-19-3.97537E-19
 -1      3021 1.00076E-04-3.29116E-05-2.87774E-05 5.68397E-06-8.48319E-19-5.62378E-19
 -1      3022 1.02054E-04-3.36761E-05-2.92934E-05 6.82596E-06-5.48886E-19-3.79479E-20
 -1      3023 9.95682E-05-3.27622E-05-2.86469E-05 4.75254E-06-4.97057E-19-3.24481E-19
 -1      3024 9.93892E-05-3.26155E-05-2.86033E-05 3.97146E-06-2.12953E-19-2.64333E-19
 -1      3025 1.01269E-04-3.37750E-05-2.89256E-05 4.87020E-06-4.45710E-19-7.07059E-19
 -1      3026 9.87876E-05-3.22525E-05-2.85292E-05 3.21215E-06-4.20184E-19-1.85559E-19
 -1      3027 9.85235E-05-3.19501E-05-2.85157E-05 2.56536E-06-5.99310E-19-6.30481E-20
 -1      3028 1.00136E-04-3.31945E-05-2.86964E-05 3.18514E-06-3.68138E-19-7.01146E-19
 -1      3029 9.79480E-05-3.15168E-05-2.84814E-05 2.00621E-06-6.72861E-19 2.00174E-20
 -1      3030 9.76723E-05-3.11708E-05-2.84863E-05 1.51561E-06-4.64415E-19-3.14699E-19
 -1      3031 9.89469E-05-3.23013E-05-2.85728E-05 1.89868E-06-4.39565E-19-7.33493E-19
 -1      3032 9.71863E-05-3.07586E-05-2.84766E-05 1.13540E-06-2.07145E-19-4.54411E-19
 -1      3033 9.69418E-05-3.04374E-05-2.84902E-05 7.88786E-07-8.85245E-20-1.25874E-18
 -1      3034 9.78821E-05-3.13604E-05-2.85199E-05 9.99623E-07-6.67386E-19-6.68004E-19
 -1      3035 9.65656E-05-3.00918E-05-2.84937E-05 5.48591E-07-8.09033E-20-1.42162E-18
 -1      3036 9.63698E-05-2.98271E-05-2.85095E-05 3.19347E-07-3.14087E-19-1.87263E-18
 -1      3037 9.70220E-05-3.05229E-05-2.85087E-05 4.17067E-07-1.48355E-19-1.06128E-18
 -1      3038 9.60978E-05-2.95617E-05-2.85184E-05 1.79607E-07 1.31837E-20-1.49317E-18
 -1      3039 9.59522E-05-2.93613E-05-2.85328E-05 3.84570E-08 5.70019E-19-1.17830E-18
 -1      3040 9.63783E-05-2.98515E-05-2.85186E-05 6.78162E-08 1.45069E-19-8.79669E-19
 -1      3041 9.57668E-05-2.91712E-05-2.85426E-05-3.39132E-08 7.20887E-19-1.14497E-18
 -1      3042 9.56647E-05-2.90295E-05-2.85539E-05-1.13090E-07 7.79376E-20-1.34455E-18
 -1      3043 9.59257E-05-2.93534E-05-2.85362E-05-1.21733E-07 5.40552E-19-5.94854E-19
 -1      3044 9.55450E-05-2.89016E-05-2.85623E-05-1.42975E-07-1.86694E-19-1.19467E-18
 -1      3045 9.54770E-05-2.88075E-05-2.85701E-05-1.81058E-07-4.07738E-19-1.04910E-18
 -1      3046 9.56249E-05-2.90071E-05-2.85540E-05-2.08577E-07 3.25499E-20-1.40217E-18
 -1      3047 9.54041E-05-2.87269E-05-2.85763E-05-1.85906E-07 5.82848E-20-6.46970E-19
 -1      3048 9.53607E-05-2.86683E-05-2.85810E-05-1.98396E-07-2.00358E-19 4.18660E-20
 -1      3049 9.54356E-05-2.87808E-05-2.85686E-05-2.33416E-07 1.05573E-19-1.27357E-18
 -1      3050 9.53191E-05-2.86211E-05-2.85849E-05-1.89794E-07-4.46486E-19 1.08656E-19
 -1      3051 9.52926E-05-2.85874E-05-2.85872E-05-1.87555E-07-2.21134E-20 5.88790E-19
 -1      3052 9.53234E-05-2.86426E-05-2.85789E-05-2.23656E-07 4.19454E-20 1.24432E-19
 -1      3053 9.52710E-05-2.85625E-05-2.85892E-05-1.72820E-07 6.36996E-19 6.57630E-19
 -1      3054 9.52555E-05-2.85452E-05-2.85898E-05-1.63077E-07 1.21642E-18 1.25650E-18
 -1      3055 9.52617E-05-2.85650E-05-2.85851E-05-1.96866E-07 5.05283E-19 4.81206E-19
 -1      3056 9.52458E-05-2.85344E-05-2.85904E-05-1.46585E-07 1.16853E-18 1.11157E-18
 -1      3057 9.52372E-05-2.85273E-05-2.85899E-05-1.33887E-07 7.33532E-19 8.74836E-19
 -1      3058 9.52312E-05-2.85269E-05-2.85880E-05-1.63761E-07 9.06416E-19 3.83435E-19
 -1      3059 9.52342E-05-2.85246E-05-2.85896E-05-1.18071E-07 5.00385E-19 1.18404E-18
 -1      3060 9.52297E-05-2.85234E-05-2.85885E-05-1.05094E-07 8.90630E-19 9.04848E-19
 -1      3061 9.52189E-05-2.85129E-05-2.85885E-05-1.30487E-07 6.46479E-19 5.29588E-19
 -1      3062 9.52300E-05-2.85251E-05-2.85876E-05-9.11484E-08 4.47071E-19 1.35156E-18
 -1      3063 9.52278E-05-2.85269E-05-2.85862E-05-7.93185E-08 8.73094E-19 1.69262E-18
 -1      3064 9.52165E-05-2.85126E-05-2.85875E-05-1.00253E-07 7.24292E-19 1.45411E-18
 -1      3065 9.52296E-05-2.85306E-05-2.85851E-05-6.76887E-08 5.29115E-19 9.37056E-19
 -1      3066 9.52286E-05-2.85337E-05-2.85837E-05-5.76377E-08 5.62241E-19 8.35879E-19
 -1      3067 9.52187E-05-2.85190E-05-2.85856E-05-7.44509E-08 4.14471E-19 1.37104E-18
 -1      3068 9.52308E-05-2.85380E-05-2.85825E-05-4.83378E-08 3.79880E-19 8.81487E-20
 -1      3069 9.52305E-05-2.85414E-05-2.85812E-05-4.02209E-08-1.30932E-19-8.56971E-20
 -1      3070 9.52227E-05-2.85282E-05-2.85834E-05-5.34040E-08 1.85460E-19-7.34726E-19
 -1      3071 9.52325E-05-2.85454E-05-2.85800E-05-3.30400E-08 1.66041E-19-9.00397E-19
 -1      3072 9.52324E-05-2.85486E-05-2.85789E-05-2.67486E-08-8.28218E-19-7.99512E-19
 -1      3073 9.52268E-05-2.85376E-05-2.85811E-05-3.68467E-08-3.81436E-19-1.16508E-18
 -1      3074 9.52341E-05-2.85521E-05-2.85779E-05-2.13781E-08-3.91786E-19 3.99973E-19
 -1      3075 9.52341E-05-2.85548E-05-2.85769E-05-1.66771E-08-9.95910E-20 1.26840E-18
 -1      3076 9.52305E-05-2.85462E-05-2.85790E-05-2.42288E-08 6.15936E-20-1.06954E-18
 -1      3077 9.52354E-05-2.85577E-05-2.85761E-05-1.27862E-08-9.83903E-19 1.82732E-18
 -1      3078 9.52355E-05-2.85598E-05-2.85753E-05-9.39756E-09-1.04111E-18 1.11048E-18
 -1      3079 9.52333E-05-2.85533E-05-2.85771E-05-1.49005E-08 7.71992E-20-1.28750E-19
 -1      3080 9.52363E-05-2.85620E-05-2.85746E-05-6.67348E-09-1.54957E-18 1.13559E-18
 -1      3081 9.52364E-05-2.85637E-05-2.85740E-05-4.32344E-09-1.67432E-18 7.75895E-19
 -1      3082 9.52354E-05-2.85590E-05-2.85756E-05-8.21756E-09-1.44002E-18 7.02231E-19
 -1      3083 9.52369E-05-2.85653E-05-2.85735E-05-2.49131E-09-7.91073E-19 1.13271E-18
 -1      3084 9.52370E-05-2.85666E-05-2.85731E-05-9.34319E-10 2.59810E-19 3.61726E-19
 -1      3085 9.52368E-05-2.85633E-05-2.85743E-05-3.59490E-09-1.27637E-18 2.07510E-18
 -1      3086 9.52373E-05-2.85677E-05-2.85727E-05 2.35726E-10 1.96032E-18-2.99484E-19
 -1      3087 9.52374E-05-2.85686E-05-2.85724E-05 1.20665E-09 1.82595E-18 5.11930E-19
 -1      3088 9.52376E-05-2.85665E-05-2.85733E-05-5.30713E-10 1.35397E-19 1.34402E-18
 -1      3089 9.52375E-05-2.85694E-05-2.85720E-05 1.89950E-09 1.02610E-18 2.89980E-19
 -1      3090 9.52376E-05-2.85700E-05-2.85718E-05 2.45121E-09 2.97555E-19 1.43146E-19
 -1      3091 9.52381E-05-2.85687E-05-2.85726E-05 1.38737E-09 1.57946E-18-4.77945E-19
 -1      3092 9.52376E-05-2.85705E-05-2.85716E-05 2.81086E-09-5.77227E-19 4.11305E-19
 -1      3093 9.52376E-05-2.85709E-05-2.85715E-05 3.07292E-09-3.27953E-19-2.97851E-19
 -1      3094 9.52383E-05-2.85702E-05-2.85720E-05 2.48688E-09-5.02081E-19 2.64452E-19
 -1      3095 9.52376E-05-2.85712E-05-2.85713E-05 3.20816E-09 4.86249E-19-8.59352E-20
 -1      3096 9.52376E-05-2.85714E-05-2.85712E-05 3.27768E-09 4.08209E-19 4.22221E-19
 -1      3097 9.52383E-05-2.85711E-05-2.85716E-05 3.02020E-09 1.06803E-19 3.43253E-19
 -1      3098 9.52375E-05-2.85716E-05-2.85711E-05 3.26818E-09 6.22263E-19 8.24741E-19
 -1      3099 9.52376E-05-2.85718E-05-2.85711E-05 3.21522E-09 1.41158E-18 1.53388E-18
 -1      3100 9.52382E-05-2.85717E-05-2.85714E-05 3.17613E-09 1.41612E-18 1.91152E-18
 -1      3101 9.52375E-05-2.85718E-05-2.85710E-05 3.11674E-09 1.27494E-18 1.06667E-18
 -1      3102 9.52375E-05-2.85719E-05-2.85710E-05 2.98947E-09 2.64712E-19 2.64830E-19
 -1      3103 9.52381E-05-2.85720E-05-2.85712E-05 3.09120E-09 1.29900E-18 1.93047E-18
 -1      3104 9.52374E-05-2.85720E-05-2.85709E-05 2.84002E-09-3.08437E-19 1.77329E-19
 -1      3105 9.52375E-05-2.85720E-05-2.85709E-05 2.66909E-09 2.35759E-20 2.20246E-19
 -1      3106 9.52379E-05-2.85722E-05-2.85710E-05 2.85917E-09-6.10906E-20 1.39602E-18
 -1      3107 9.52374E-05-2.85720E-05-2.85709E-05 2.48946E-09 5.94807E-19 2.00435E-18
 -1      3108 9.52374E-05-2.85721E-05-2.85709E-05 2.29300E-09 8.79462E-20 2.62093E-18
 -1      3109 9.52378E-05-2.85722E-05-2.85709E-05 2.54330E-09 1.38964E-18 2.66993E-18
 -1      3110 9.52375E-05-2.85722E-05-2.85708E-05 2.04634E-09-1.56382E-18 2.53510E-18
 -1      3111 8.16521E-05-1.64690E-05-2.80163E-05 5.64044E-06 1.87576E-19 3.74789E-19
 -1      3112 7.83985E-05-1.43218E-05-2.75288E-05 6.56881E-06 5.01665E-19 3.32576E-20
 -1      3113 8.14946E-05-1.65179E-05-2.77126E-05 2.64800E-06 2.99788E-19 8.85153E-19
 -1      3114 1.20421E-04-5.22028E-05-2.95500E-05 3.04150E-05 1.19879E-18 3.68909E-19
 -1      3115 1.04862E-04-4.41559E-05-2.55000E-05 3.84418E-05 1.47548E-18-3.10755E-20
 -1      3116 9.36413E-05-2.62602E-05-2.88950E-05 1.99236E-06 1.53996E-18-2.71134E-18
 -1      3117 9.32410E-05-2.57288E-05-2.89359E-05 2.42929E-06 6.08397E-19-2.52709E-18
 -1      3118 9.43675E-05-2.70992E-05-2.88405E-05 1.43585E-06 5.02311E-19-1.44233E-18
 -1      3119 9.41508E-05-2.67565E-05-2.88822E-05 1.75285E-06 1.34289E-18-2.48478E-18
 -1      3120 9.33898E-05-2.61329E-05-2.88055E-05 1.54425E-06 1.28538E-18-2.11110E-18
 -1      3121 9.47685E-05-2.76170E-05-2.87864E-05 1.03971E-06-1.49358E-18-9.30034E-19
 -1      3122 9.46603E-05-2.74060E-05-2.88210E-05 1.25799E-06-7.19359E-19-1.39404E-18
 -1      3123 9.41608E-05-2.69783E-05-2.87816E-05 1.17397E-06-4.50366E-19-8.63465E-19
 -1      3124 9.50071E-05-2.79680E-05-2.87358E-05 7.34186E-07-1.10421E-18-3.26785E-19
 -1      3125 9.49511E-05-2.78271E-05-2.87651E-05 8.95548E-07-1.34260E-18-1.01922E-18
 -1      3126 9.46237E-05-2.75344E-05-2.87463E-05 8.75774E-07-1.37687E-18-5.05162E-19
 -1      3127 9.51362E-05-2.81894E-05-2.86945E-05 5.15476E-07 3.20723E-19 3.29921E-19
 -1      3128 9.51124E-05-2.81013E-05-2.87171E-05 6.27879E-07-3.52164E-19 2.14181E-19
 -1      3129 9.49033E-05-2.79049E-05-2.87100E-05 6.38385E-07-1.12924E-18-6.29061E-19
 -1      3130 9.52028E-05-2.83287E-05-2.86622E-05 3.60047E-07 8.03265E-19 2.89336E-19
 -1      3131 9.51954E-05-2.82736E-05-2.86791E-05 4.38004E-07 1.01266E-18 9.94389E-19
 -1      3132 9.50632E-05-2.81430E-05-2.86782E-05 4.60178E-07 2.45027E-19 1.11001E-18
 -1      3133 9.52346E-05-2.84163E-05-2.86376E-05 2.50038E-07 1.86557E-18 9.63904E-20
 -1      3134 9.52350E-05-2.83818E-05-2.86501E-05 3.04062E-07 9.65878E-19 1.06421E-18
 -1      3135 9.51524E-05-2.82951E-05-2.86521E-05 3.28587E-07 8.18471E-19 1.74094E-18
 -1      3136 9.52479E-05-2.84715E-05-2.86192E-05 1.72323E-07 7.80309E-19 1.41711E-18
 -1      3137 9.52515E-05-2.84498E-05-2.86283E-05 2.09789E-07 1.66227E-18 1.00716E-18
 -1      3138 9.52004E-05-2.83923E-05-2.86316E-05 2.32434E-07 1.44262E-18 2.34079E-18
 -1      3139 9.52518E-05-2.85065E-05-2.86056E-05 1.17479E-07 1.27385E-20 1.05231E-18
 -1      3140 9.52562E-05-2.84927E-05-2.86122E-05 1.43491E-07 5.42823E-19 1.32680E-18
 -1      3141 9.52252E-05-2.84546E-05-2.86158E-05 1.62665E-07 9.40295E-19 3.08704E-18
 -1      3142 9.52512E-05-2.85289E-05-2.85956E-05 7.88564E-08-7.43277E-19 3.75426E-19
 -1      3143 9.52554E-05-2.85201E-05-2.86003E-05 9.68985E-08-5.49752E-19 3.20398E-19
 -1      3144 9.52371E-05-2.84948E-05-2.86038E-05 1.12313E-07 4.42413E-20 9.03347E-19
 -1      3145 9.52491E-05-2.85428E-05-2.85886E-05 5.28602E-08-1.17731E-18 8.42286E-19
 -1      3146 9.52525E-05-2.85372E-05-2.85919E-05 6.49172E-08-8.85806E-19-2.38655E-20
 -1      3147 9.52421E-05-2.85205E-05-2.85950E-05 7.68527E-08-5.60361E-19 7.92023E-19
 -1      3148 9.52464E-05-2.85525E-05-2.85832E-05 3.35258E-08-1.13196E-18 9.10903E-19
 -1      3149 9.52492E-05-2.85487E-05-2.85857E-05 4.23175E-08-1.29307E-18 6.78665E-19
 -1      3150 9.52436E-05-2.85374E-05-2.85884E-05 5.14817E-08-1.38109E-18-1.64233E-19
 -1      3151 9.52440E-05-2.85590E-05-2.85793E-05 2.01623E-08-3.05086E-19 4.74286E-19
 -1      3152 9.52461E-05-2.85564E-05-2.85811E-05 2.61783E-08-8.14413E-20 4.92627E-19
 -1      3153 9.52436E-05-2.85491E-05-2.85834E-05 3.29326E-08-4.88235E-19 6.10670E-19
 -1      3154 9.52419E-05-2.85634E-05-2.85766E-05 1.10456E-08 9.43461E-19-2.36467E-19
 -1      3155 9.52434E-05-2.85616E-05-2.85778E-05 1.50977E-08 3.07750E-19 7.91728E-19
 -1      3156 9.52428E-05-2.85569E-05-2.85797E-05 1.99695E-08 1.20213E-20 6.11212E-19
 -1      3157 9.52404E-05-2.85664E-05-2.85746E-05 4.95589E-09 6.40846E-19-1.58779E-19
 -1      3158 9.52414E-05-2.85651E-05-2.85754E-05 7.62346E-09 8.70570E-19 5.32011E-19
 -1      3159 9.52418E-05-2.85622E-05-2.85770E-05 1.10556E-08 6.52424E-19 4.96655E-19
 -1      3160 9.52392E-05-2.85684E-05-2.85732E-05 1.01268E-09 6.34305E-19-4.87071E-19
 -1      3161 9.52399E-05-2.85675E-05-2.85738E-05 2.70877E-09 1.28802E-19-1.13835E-18
 -1      3162 9.52409E-05-2.85658E-05-2.85751E-05 5.06377E-09 6.60693E-19 1.25599E-18
 -1      3163 9.52384E-05-2.85697E-05-2.85723E-05-1.42327E-09-2.62721E-20-3.66262E-19
 -1      3164 9.52388E-05-2.85691E-05-2.85727E-05-4.02388E-10 7.85528E-19-2.46993E-19
 -1      3165 9.52401E-05-2.85682E-05-2.85737E-05 1.16234E-09 2.61890E-19 8.68124E-19
 -1      3166 9.52379E-05-2.85706E-05-2.85717E-05-2.81513E-09 3.06665E-18-1.79379E-18
 -1      3167 9.52381E-05-2.85702E-05-2.85719E-05-2.25811E-09 1.27394E-18-9.63804E-19
 -1      3168 9.52394E-05-2.85698E-05-2.85727E-05-1.26150E-09 1.19051E-18-5.17190E-19
 -1      3169 9.52375E-05-2.85711E-05-2.85713E-05-3.48025E-09 3.07354E-19-3.38226E-19
 -1      3170 9.52376E-05-2.85709E-05-2.85714E-05-3.23597E-09 8.38129E-19-1.98563E-18
 -1      3171 9.52389E-05-2.85708E-05-2.85720E-05-2.63844E-09 1.30977E-18-1.67923E-18
 -1      3172 9.52373E-05-2.85715E-05-2.85711E-05-3.72333E-09 2.32428E-18 1.53307E-18
 -1      3173 9.52373E-05-2.85713E-05-2.85711E-05-3.66634E-09 2.05663E-18 4.97009E-19
 -1      3174 9.52385E-05-2.85714E-05-2.85716E-05-3.33366E-09 5.74402E-19 4.60859E-19
 -1      3175 9.52372E-05-2.85717E-05-2.85709E-05-3.66364E-09 5.75727E-19 2.84046E-18
 -1      3176 9.52371E-05-2.85716E-05-2.85709E-05-3.73377E-09 1.60346E-18 2.60914E-18
 -1      3177 9.52381E-05-2.85718E-05-2.85713E-05-3.58875E-09 1.28071E-18 3.12763E-18
 -1      3178 9.52371E-05-2.85718E-05-2.85708E-05-3.42266E-09 8.06721E-19 2.41096E-18
 -1      3179 9.52370E-05-2.85717E-05-2.85708E-05-3.56789E-09 2.10296E-18 3.70741E-18
 -1      3180 9.52379E-05-2.85720E-05-2.85711E-05-3.54378E-09 1.13432E-18 3.58606E-18
 -1      3181 9.52371E-05-2.85719E-05-2.85708E-05-3.07985E-09-1.35027E-19 4.21185E-19
 -1      3182 9.52370E-05-2.85718E-05-2.85708E-05-3.26635E-09-6.05198E-20 8.10411E-19
 -1      3183 9.52377E-05-2.85721E-05-2.85710E-05-3.31730E-09 7.88457E-19 1.26157E-18
 -1      3184 9.52371E-05-2.85719E-05-2.85708E-05-2.68492E-09-4.56085E-18-4.60512E-19
 -1      3185 9.52370E-05-2.85718E-05-2.85708E-05-2.89010E-09-1.84824E-18-1.03450E-18
 -1      3186 9.52375E-05-2.85721E-05-2.85709E-05-2.98954E-09-6.64100E-19-1.03706E-18
 -1      3187 9.52375E-05-2.85722E-05-2.85708E-05-2.09024E-09-1.56241E-18-4.57098E-18
 -1      3188 9.52372E-05-2.85720E-05-2.85708E-05-2.07599E-09-1.55970E-18-2.47602E-18
 -1      3189 9.52371E-05-2.85719E-05-2.85708E-05-2.19100E-09-3.15757E-18-1.30750E-18
 -1      3190 9.52377E-05-2.85723E-05-2.85709E-05-2.22974E-09-3.90959E-18-4.18887E-18
 -1      3191 9.52384E-05-2.85730E-05-2.85709E-05-1.53537E-09-2.50862E-18 5.04310E-19
 -1      3192 9.52382E-05-2.85728E-05-2.85709E-05-1.74836E-09-2.51920E-18 4.93416E-19
 -1      3193 9.52382E-05-2.85727E-05-2.85709E-05-1.99263E-09-3.39854E-18-1.01453E-18
 -1      3194 9.52387E-05-2.85731E-05-2.85709E-05 1.03357E-09 1.00947E-18 3.20392E-19
 -1      3195 9.52388E-05-2.85732E-05-2.85710E-05 7.41758E-10 1.00557E-18 8.82510E-20
 -1      3196 9.52388E-05-2.85733E-05-2.85710E-05 3.90704E-10 7.24682E-19-8.79474E-20
 -1      3197 9.52389E-05-2.85733E-05-2.85710E-05 6.49780E-11 4.17418E-19 6.78199E-19
 -1      3198 9.52390E-05-2.85732E-05-2.85710E-05 6.09233E-10 9.32783E-20-7.63147E-21
 -1      3199 9.52379E-05-2.85725E-05-2.85709E-05 1.93774E-09 8.64273E-20 2.10281E-18
 -1      3200 9.52382E-05-2.85727E-05-2.85709E-05 1.79601E-09 9.12375E-19 1.64791E-18
 -1      3201 1.35676E-04-4.14914E-05-4.07559E-05-7.21504E-06-2.37804E-19 1.00651E-18
 -1      3202 1.37421E-04-4.91457E-05-3.77297E-05 1.15468E-06 1.05456E-19 1.17415E-18
 -1      3203 1.25687E-04-1.13438E-05-4.93717E-05 9.27186E-06-1.22544E-18-1.62892E-18
 -1      3204 1.22879E-04-7.03776E-06-5.01028E-05 4.19347E-06-1.24217E-18-1.34177E-18
 -1      3205 4.95614E-05-7.02090E-06-1.73863E-05 1.85803E-05-1.33222E-19 3.97576E-19
 -1      3206 6.05994E-05-1.48862E-05-1.92862E-05 2.82526E-05-2.10276E-19 3.96094E-19
 -1      3207 4.86461E-05-4.64511E-06-1.87232E-05 1.00520E-05-2.12288E-20-4.13987E-19
 -1      3208 5.91771E-05-1.63357E-05-1.82491E-05 3.80072E-05 1.67374E-18-1.29829E-18
 -1      3209 4.61832E-05-7.09362E-06-1.62258E-05 2.77849E-05 1.31550E-18-1.59306E-18
 -1      3210 9.03395E-05-2.30519E-05-2.88768E-05 3.61155E-06 1.00200E-19-7.87879E-19
 -1      3211 8.91099E-05-2.18634E-05-2.88423E-05 4.34549E-06 8.43708E-20-5.95029E-19
 -1      3212 8.66607E-05-2.02038E-05-2.83981E-05 2.72314E-06 2.11800E-20-5.10533E-19
 -1      3213 1.21452E-04-6.49675E-06-4.97733E-05-1.48233E-06-1.45679E-18-9.89824E-19
 -1      3214 1.21869E-04-9.81884E-06-4.83734E-05-7.86597E-06-1.83912E-18-6.02955E-19
 -1      3215 9.52384E-05-2.85729E-05-2.85709E-05 1.56714E-09 5.32984E-19 7.58808E-20
 -1      3216 9.52385E-05-2.85730E-05-2.85709E-05 1.33309E-09 8.57205E-19-1.01669E-19
 -1      3217 9.52388E-05-2.85731E-05-2.85710E-05 1.27815E-09-1.44956E-19-1.00893E-19
 -1      3218 9.52384E-05-2.85728E-05-2.85710E-05 1.81376E-09 3.20777E-19 3.00805E-19
 -1      3219 9.24033E-05-2.49749E-05-2.89242E-05 2.71728E-06 5.06043E-19-1.42967E-18
 -1      3220 9.16900E-05-2.41678E-05-2.89471E-05 3.29789E-06 5.63621E-19-1.14947E-18
 -1      3221 9.20936E-05-2.48351E-05-2.87935E-05 1.98080E-06 1.42775E-18-2.12613E-18
 -1      3222 6.53400E-05-2.27481E-05-1.78083E-05-3.82470E-05 1.80174E-18-3.01755E-20
 -1      3223 8.07498E-05-3.41630E-05-1.99971E-05-4.34143E-05 2.11917E-18 8.21357E-19
 -1      3224 1.34527E-04-5.33016E-05-3.52092E-05 1.14033E-05 3.63827E-19 1.30311E-18
 -1      3225 1.30177E-04-5.38726E-05-3.23690E-05 1.97626E-05 8.72113E-19 8.93937E-19
 -1      3226 8.70566E-05-3.46957E-05-2.26658E-05 4.29525E-05 1.68618E-18-4.97261E-19
 -1      3227 7.38883E-05-2.57324E-05-2.00761E-05 4.19588E-05 1.73546E-18-8.30410E-19
 -1      3228 7.34670E-05-1.17099E-05-2.65652E-05 6.46297E-06 1.07500E-19 2.88481E-19
 -1      3229 6.86138E-05-9.35081E-06-2.54336E-05 7.39368E-06 3.20880E-20-6.19260E-20
 -1      3230 7.36569E-05-1.18901E-05-2.62554E-05 1.79931E-06 2.54744E-19 1.10652E-18
 -1      3231 9.10198E-05-2.11219E-05-3.00082E-05 1.81093E-05 1.35467E-18-8.95358E-19
 -1      3232 9.52336E-05-2.37217E-05-3.05708E-05 1.57760E-05 1.19465E-18-7.82619E-19
 -1      3233 1.30649E-04-2.70470E-05-4.46559E-05 1.24853E-05 1.91853E-19-2.18527E-18
 -1      3234 1.28148E-04-1.80203E-05-4.77377E-05 1.18168E-05-5.86570E-19-1.86538E-18
 -1      3235 4.12391E-05-2.26912E-06-1.62637E-05 1.79937E-05 1.02494E-18-1.79243E-18
 -1      3236 4.19939E-05-4.84211E-08-1.73115E-05 3.75966E-06 6.66231E-19-2.00366E-18
 -1      3237 5.24993E-05-5.09794E-06-1.98855E-05 2.04505E-05 1.28750E-18-1.40618E-18
 -1      3238 9.78149E-05-4.41396E-05-2.25736E-05-4.17426E-05 2.30266E-18 2.24464E-20
 -1      3239 1.14302E-04-5.32450E-05-2.64021E-05-3.69770E-05 2.29498E-18-4.34475E-19
 -1      3240 7.16665E-05-5.52093E-06-2.83545E-05-6.59684E-07 1.07478E-18-4.35163E-19
 -1      3241 6.96388E-05-4.06936E-06-2.80086E-05 2.96993E-06 1.28776E-18-5.30084E-19
 -1      3242 6.56301E-05-3.47112E-06-2.65248E-05 6.32684E-06 1.30738E-18-7.47521E-19
 -1      3243 6.84913E-05-4.62251E-06-2.73073E-05-2.31806E-06 9.61654E-19-6.79903E-19
 -1      3244 6.56586E-05-1.94260E-05-1.94154E-05-3.22430E-05 1.36457E-18-7.05843E-19
 -1      3245 6.12630E-05-6.66991E-06-2.34341E-05 7.10168E-06 2.84722E-19-3.42757E-19
 -1      3246 5.47715E-05-5.35404E-06-2.10030E-05 8.27008E-06-1.93229E-21-3.97047E-19
 -1      3247 9.98736E-05-2.63426E-05-3.15249E-05-9.10544E-06-2.00430E-19-9.56307E-19
 -1      3248 1.16555E-04-1.19916E-05-4.49944E-05-7.97878E-06-1.20120E-18-5.36860E-19
 -1      3249 1.22050E-04-1.46412E-05-4.64267E-05-1.10639E-05-1.29098E-18-3.55595E-19
 -1      3250 1.21691E-04-1.98608E-05-4.38272E-05-1.22917E-05-6.77785E-19 2.81480E-19
 -1      3251 9.52377E-05-2.85724E-05-2.85709E-05 2.11515E-09 4.03014E-19 3.11440E-18
 -1      3252 1.21853E-04-4.98606E-05-3.08190E-05 2.28486E-05 1.08640E-18 6.25901E-19
 -1      3253 9.31172E-05-3.85149E-05-2.30299E-05-3.77005E-05 1.95665E-18 2.61389E-19
 -1      3254 1.02918E-04-2.74896E-05-3.23073E-05-5.31107E-06 2.68980E-19-7.03738E-19
 -1      3255 1.02236E-04-2.73417E-05-3.21534E-05-7.07599E-06 9.94474E-20-8.49189E-19
 -1      3256 1.30787E-04-3.90158E-05-3.94730E-05 9.02228E-06 6.73299E-19-1.71384E-18
 -1      3257 1.31800E-04-3.39012E-05-4.22677E-05 1.18848E-05 4.55757E-19-2.01893E-18
 -1      3258 1.25483E-04-2.74082E-05-4.21621E-05 1.30845E-05 1.14244E-19-1.88767E-18
 -1      3259 9.52387E-05-2.85732E-05-2.85709E-05-9.63606E-10-1.51627E-18 7.47132E-19
 -1      3260 9.52386E-05-2.85731E-05-2.85709E-05-1.24778E-09-1.12335E-18-1.66320E-19
 -1      3261 9.52387E-05-2.85730E-05-2.85710E-05-1.49302E-09-2.00487E-18 1.11755E-18
 -1      3262 9.52371E-05-2.85719E-05-2.85708E-05-2.40182E-09-4.26936E-18-8.32875E-19
 -1      3263 9.52374E-05-2.85721E-05-2.85709E-05-2.52844E-09-4.76303E-18-4.05728E-18
 -1      3264 1.37177E-04-5.34814E-05-3.58959E-05-5.77133E-06 1.42099E-18-1.82869E-18
 -1      3265 1.34001E-04-4.79986E-05-3.70073E-05 2.08349E-06 1.19593E-18-1.94939E-18
 -1      3266 1.32622E-04-5.40453E-05-3.36945E-05-1.04520E-05 1.58064E-18-1.46439E-18
 -1      3267 7.14430E-05-7.13219E-06-2.76933E-05 1.67878E-05 1.51065E-18-8.25401E-19
 -1      3268 7.53636E-05-9.69141E-06-2.79830E-05 1.91832E-05 1.53872E-18-7.67283E-19
 -1      3269 6.80462E-05-6.15795E-06-2.63624E-05 1.60948E-05 1.43023E-18-8.40918E-19
 -1      3270 9.52379E-05-2.85724E-05-2.85709E-05 2.19708E-09 1.16265E-18 2.90901E-18
 -1      3271 1.31987E-04-4.88113E-05-3.56368E-05 4.03242E-06 3.21164E-19 8.59209E-19
 -1      3272 4.72459E-05-2.10480E-06-1.90013E-05-3.53193E-06 4.26534E-19-1.81074E-18
 -1      3273 5.43781E-05-1.58091E-06-2.24577E-05-5.03027E-07 7.17781E-19-1.38935E-18
 -1      3274 1.18117E-04-8.83780E-06-4.71594E-05 1.39272E-06-1.25070E-18-1.11870E-18
 -1      3275 9.81609E-05-3.77709E-05-2.55779E-05 3.62548E-05 1.61659E-18-3.19133E-19
 -1      3276 1.20840E-04-5.36977E-05-2.86220E-05-2.79394E-05 1.99111E-18-2.52085E-19
 -1      3277 8.99933E-05-2.29244E-05-2.86920E-05 2.41823E-06 4.82034E-19-1.68610E-18
 -1      3278 4.86676E-05-3.25124E-06-1.87869E-05-9.18020E-07 1.40287E-19-1.52413E-19
 -1      3279 6.92550E-05-1.86144E-05-2.13396E-05 3.55160E-05 1.74031E-18-1.03169E-18
 -1      3280 1.22263E-04-1.58341E-05-4.58818E-05 1.05955E-05-6.09123E-19-1.60275E-18
 -1      3281 6.39485E-05-3.54249E-06-2.58996E-05-3.81653E-06 7.48507E-19-8.54365E-19
 -1      3282 5.77086E-05-1.87639E-06-2.36804E-05 5.88943E-06 1.08697E-18-1.12597E-18
 -1      3283 1.32325E-04-3.64336E-05-4.12464E-05-1.10122E-05-2.07364E-19 8.87426E-19
 -1      3284 1.28791E-04-3.98095E-05-3.82429E-05-7.79678E-06-5.42366E-20 8.07414E-19
 -1      3285 1.26143E-04-3.01222E-05-4.13302E-05-1.30717E-05-2.37116E-19 5.99091E-19
 -1      3286 9.85693E-05-2.56893E-05-3.12179E-05 1.21833E-05 9.75544E-19-5.26954E-19
 -1      3287 1.01125E-04-2.73014E-05-3.16491E-05 9.15209E-06 7.68488E-19-4.81775E-19
 -1      3288 9.96954E-05-2.82983E-05-3.06512E-05 1.53037E-05 9.71757E-19-4.50336E-19
 -1      3289 6.21071E-05-6.93904E-06-2.32999E-05-1.66433E-07-2.05399E-19 7.03726E-19
 -1      3290 8.07812E-05-1.41883E-05-2.86608E-05 2.03283E-05 1.60316E-18-7.50537E-19
 -1      3291 8.58040E-05-1.72988E-05-2.92076E-05 2.00254E-05 1.51499E-18-9.42863E-19
 -1      3292 9.01603E-05-2.24651E-05-2.90773E-05 2.15215E-05 1.39480E-18-7.60705E-19
 -1      3293 7.84230E-05-1.41506E-05-2.74479E-05 2.25437E-05 1.58565E-18-7.63934E-19
 -1      3294 9.52389E-05-2.85733E-05-2.85710E-05-2.98677E-10-3.59752E-19 8.18392E-19
 -1      3295 9.52388E-05-2.85733E-05-2.85710E-05-6.20573E-10-1.58032E-18 8.26554E-19
 -1      3296 9.52390E-05-2.85732E-05-2.85710E-05-8.45351E-10-8.39385E-19 6.32173E-19
 -1      3297 9.52391E-05-2.85733E-05-2.85710E-05-1.21730E-10-9.20411E-19 6.66854E-19
 -1      3298 4.64176E-05-4.12934E-06-1.78116E-05-7.09469E-06-6.95758E-20-6.51157E-20
 -1      3299 4.56879E-05-5.63288E-06-1.65684E-05-1.58628E-05 7.72256E-20 3.61048E-20
 -1      3300 5.29693E-05-8.48982E-06-1.88039E-05-1.86673E-05-3.44180E-19-1.97888E-19
 -1      3301 5.25163E-05-5.25983E-06-2.01799E-05-7.03632E-06-3.03841E-19 1.47225E-19
 -1      3302 1.00602E-04-2.89819E-05-3.07269E-05-9.12938E-06-2.53098E-19-6.23261E-19
 -1      3303 1.02576E-04-2.97195E-05-3.11977E-05-9.19316E-06-1.44456E-19-6.38645E-19
 -1      3304 1.00587E-04-2.82725E-05-3.09996E-05-9.44923E-06-2.21482E-19-7.44888E-19
 -1      3305 1.03705E-04-2.80368E-05-3.23894E-05-7.22523E-07 4.85089E-19-6.76205E-19
 -1      3306 1.03525E-04-2.80010E-05-3.24162E-05-3.13376E-06 3.17828E-19-7.58981E-19
 -1      3307 1.05073E-04-2.98600E-05-3.22463E-05-4.35716E-06 2.22988E-19-6.28661E-19
 -1      3308 8.17655E-05-2.54392E-05-2.32345E-05 3.53721E-05-2.49875E-20 3.55330E-19
 -1      3309 9.45239E-05-2.75515E-05-2.87076E-05 6.38540E-07-9.16877E-19 3.73614E-21
 -1      3310 9.43369E-05-2.73213E-05-2.87239E-05 7.57943E-07-6.37216E-19 1.61951E-19
 -1      3311 1.01533E-04-2.73300E-05-3.17778E-05-8.53400E-06-8.70393E-20-8.75331E-19
 -1      3312 9.52385E-05-2.85728E-05-2.85710E-05-2.01991E-09-1.86689E-18 1.46867E-18
 -1      3313 9.52382E-05-2.85726E-05-2.85710E-05-2.22737E-09-2.51268E-18-1.54043E-18
 -1      3314 1.21803E-04-4.77826E-05-3.20157E-05 1.61919E-05 8.44624E-19 6.78864E-19
 -1      3315 1.14939E-04-4.48759E-05-2.97169E-05 2.42521E-05 1.13977E-18 3.06408E-19
 -1      3316 1.04906E-04-3.02429E-05-3.20269E-05-1.00400E-05-1.13985E-19-3.46593E-19
 -1      3317 1.04175E-04-2.89270E-05-3.22348E-05-9.94554E-06-2.71018E-19-2.48411E-19
 -1      3318 1.03224E-04-2.72251E-05-3.26218E-05-9.79791E-06-5.02734E-19-1.79534E-19
 -1      3319 1.02129E-04-2.53289E-05-3.28733E-05-8.94472E-06-6.72485E-19-1.84622E-19
 -1      3320 1.06334E-04-2.85616E-05-3.32900E-05-1.04546E-05-3.18145E-19-2.86271E-19
 -1      3321 1.00733E-04-2.32960E-05-3.32371E-05-7.57490E-06-8.13426E-19-2.93422E-19
 -1      3322 9.97351E-05-2.16267E-05-3.34285E-05-5.76044E-06-7.80805E-19-2.21935E-19
 -1      3323 1.03925E-04-2.42208E-05-3.41377E-05-9.10464E-06-7.52309E-19-3.72951E-19
 -1      3324 9.86969E-05-2.02787E-05-3.36271E-05-3.20021E-06-6.99902E-19-3.42292E-19
 -1      3325 9.82625E-05-1.96598E-05-3.36683E-05-7.39490E-07-5.44526E-19-5.94947E-19
 -1      3326 1.01406E-04-2.02862E-05-3.47743E-05-5.13946E-06-8.08346E-19-2.05890E-19
 -1      3327 9.82111E-05-1.97563E-05-3.36034E-05 2.29827E-06-2.46225E-19-6.05905E-19
 -1      3328 9.85535E-05-2.05708E-05-3.34507E-05 4.69274E-06-9.16971E-20-4.59678E-19
 -1      3329 1.00275E-04-1.88245E-05-3.49362E-05 6.80022E-07-3.94566E-19-1.35320E-19
 -1      3330 9.94899E-05-2.21252E-05-3.31115E-05 7.12072E-06-7.24445E-20-4.92163E-19
 -1      3331 1.00389E-04-2.40065E-05-3.27938E-05 8.73320E-06-9.43970E-20-4.35985E-19
 -1      3332 1.01218E-04-2.07650E-05-3.44955E-05 6.36226E-06 2.20824E-20-4.98385E-19
 -1      3333 1.01668E-04-2.62577E-05-3.22728E-05 9.84731E-06-3.17482E-19-2.10905E-19
 -1      3334 1.02657E-04-2.84134E-05-3.18730E-05 1.03854E-05-2.74070E-19-3.26281E-20
 -1      3335 1.03534E-04-2.52080E-05-3.35487E-05 9.91853E-06-1.31977E-19-5.91298E-19
 -1      3336 1.03558E-04-3.04593E-05-3.13060E-05 1.01924E-05-2.60185E-19 3.46721E-20
 -1      3337 1.04241E-04-3.21857E-05-3.09125E-05 9.81493E-06 1.17344E-19 4.08081E-20
 -1      3338 1.05765E-04-3.01656E-05-3.23551E-05 1.06594E-05-1.37549E-19-1.73890E-19
 -1      3339 1.04386E-04-3.34479E-05-3.04077E-05 8.79837E-06 8.41904E-20-3.73180E-19
 -1      3340 1.04577E-04-3.44134E-05-3.00785E-05 7.92396E-06 9.12533E-20-1.72610E-19
 -1      3341 1.06813E-04-3.39694E-05-3.11919E-05 9.18940E-06-7.03451E-20-5.91866E-19
 -1      3342 1.04072E-04-3.48521E-05-2.96834E-05 6.66179E-06-4.73483E-19-2.77386E-19
 -1      3343 1.03832E-04-3.51105E-05-2.94399E-05 5.65301E-06-8.90808E-19-3.73005E-19
 -1      3344 1.06406E-04-3.58461E-05-3.02255E-05 6.76667E-06-2.60370E-19-1.08505E-18
 -1      3345 1.02930E-04-3.49230E-05-2.91654E-05 4.51188E-06-6.81659E-19-1.73052E-19
 -1      3346 1.02422E-04-3.46911E-05-2.90059E-05 3.60423E-06-2.21736E-19-1.45396E-19
 -1      3347 1.04945E-04-3.60910E-05-2.95123E-05 4.31422E-06-6.97177E-19-1.19841E-19
 -1      3348 1.01403E-04-3.41602E-05-2.88339E-05 2.74582E-06-2.50464E-19-4.47227E-19
 -1      3349 1.00798E-04-3.36803E-05-2.87413E-05 2.03736E-06-4.79417E-19-5.10732E-19
 -1      3350 1.02982E-04-3.52556E-05-2.90411E-05 2.35349E-06-2.66463E-19-2.99087E-19
 -1      3351 9.98525E-05-3.30377E-05-2.86447E-05 1.46902E-06-5.40248E-19-3.52666E-19
 -1      3352 9.92716E-05-3.24926E-05-2.85991E-05 9.67686E-07-2.71809E-19-1.65333E-19
 -1      3353 1.00999E-04-3.39402E-05-2.87594E-05 1.00788E-06-4.04112E-19 1.54809E-19
 -1      3354 9.84922E-05-3.18818E-05-2.85523E-05 6.30886E-07-2.57097E-19-4.00210E-19
 -1      3355 9.80009E-05-3.13793E-05-2.85361E-05 3.03268E-07-5.50907E-19-5.23353E-19
 -1      3356 9.92732E-05-3.25619E-05-2.86096E-05 1.91657E-07-3.73480E-19 3.08455E-19
 -1      3357 9.74090E-05-3.08687E-05-2.85191E-05 1.27500E-07-3.92331E-19-2.30884E-19
 -1      3358 9.70284E-05-3.04571E-05-2.85190E-05-7.04783E-08 2.32438E-19-3.17597E-19
 -1      3359 9.79097E-05-3.13469E-05-2.85429E-05-2.42631E-07-1.29390E-19 9.54100E-19
 -1      3360 9.66074E-05-3.00660E-05-2.85179E-05-1.44921E-07 8.30681E-19-4.28209E-19
 -1      3361 9.63321E-05-2.97556E-05-2.85250E-05-2.53687E-07 5.77688E-19-2.00860E-19
 -1      3362 9.69080E-05-3.03815E-05-2.85236E-05-4.31596E-07 4.63011E-19 5.61288E-19
 -1      3363 9.60493E-05-2.94758E-05-2.85308E-05-2.70009E-07 4.45173E-19-2.22137E-19
 -1      3364 9.58615E-05-2.92570E-05-2.85398E-05-3.21201E-07 4.54302E-19-5.62286E-19
 -1      3365 9.62154E-05-2.96706E-05-2.85278E-05-4.78393E-07 6.19194E-19-3.36356E-20
 -1      3366 9.56818E-05-2.90687E-05-2.85475E-05-3.07547E-07-7.64952E-20-6.66908E-19
 -1      3367 9.55605E-05-2.89236E-05-2.85557E-05-3.23826E-07 1.41861E-20-3.95304E-19
 -1      3368 9.57622E-05-2.91793E-05-2.85414E-05-4.51523E-07 4.38839E-19 5.02129E-19
 -1      3369 9.54531E-05-2.88045E-05-2.85628E-05-2.97142E-07 3.38624E-19-1.11063E-18
 -1      3370 9.53791E-05-2.87142E-05-2.85690E-05-2.93758E-07 1.79282E-20-9.35630E-19
 -1      3371 9.54821E-05-2.88594E-05-2.85563E-05-3.92503E-07-8.46604E-21 1.28488E-19
 -1      3372 9.53196E-05-2.86442E-05-2.85744E-05-2.63507E-07 8.17812E-21-6.88025E-19
 -1      3373 9.52774E-05-2.85923E-05-2.85786E-05-2.50229E-07-2.25565E-19-4.14150E-19
 -1      3374 9.53201E-05-2.86645E-05-2.85690E-05-3.24441E-07 1.35109E-19-5.57493E-19
 -1      3375 9.52480E-05-2.85550E-05-2.85821E-05-2.21256E-07 4.28107E-20-9.39477E-20
 -1      3376 9.52260E-05-2.85284E-05-2.85844E-05-2.04056E-07 9.74473E-19-1.26869E-19
 -1      3377 9.52346E-05-2.85553E-05-2.85781E-05-2.59026E-07 6.33611E-20-3.25619E-19
 -1      3378 9.52145E-05-2.85120E-05-2.85863E-05-1.78523E-07 8.10750E-19-1.06911E-19
 -1      3379 9.52045E-05-2.85011E-05-2.85872E-05-1.60855E-07 8.54301E-19 2.87157E-19
 -1      3380 9.51957E-05-2.85018E-05-2.85838E-05-2.01373E-07 8.34645E-19 1.41712E-19
 -1      3381 9.52028E-05-2.84969E-05-2.85879E-05-1.39456E-07 9.98227E-19 3.00926E-19
 -1      3382 9.51996E-05-2.84952E-05-2.85877E-05-1.23157E-07 9.04001E-19 9.15474E-19
 -1      3383 9.51837E-05-2.84824E-05-2.85865E-05-1.53062E-07 9.70936E-19 2.30268E-19
 -1      3384 9.52027E-05-2.84976E-05-2.85876E-05-1.05833E-07 1.06228E-18 6.17642E-19
 -1      3385 9.52030E-05-2.85007E-05-2.85869E-05-9.17426E-08 1.35360E-18 1.12304E-18
 -1      3386 9.51856E-05-2.84823E-05-2.85872E-05-1.13909E-07 1.20357E-18-1.30969E-19
 -1      3387 9.52078E-05-2.85062E-05-2.85862E-05-7.80855E-08-6.49570E-20 1.00481E-18
 -1      3388 9.52096E-05-2.85112E-05-2.85852E-05-6.64479E-08-2.08435E-19 8.38947E-20
 -1      3389 9.51938E-05-2.84920E-05-2.85865E-05-8.29526E-08 4.52760E-19-1.03645E-19
 -1      3390 9.52146E-05-2.85177E-05-2.85842E-05-5.59230E-08-4.41777E-19-3.64459E-20
 -1      3391 9.52168E-05-2.85232E-05-2.85831E-05-4.66506E-08-4.29290E-19-4.73273E-19
 -1      3392 9.52038E-05-2.85055E-05-2.85849E-05-5.89731E-08-7.23477E-19 1.79892E-19
 -1      3393 9.52212E-05-2.85294E-05-2.85821E-05-3.87088E-08-7.49142E-19-1.42410E-18
 -1      3394 9.52232E-05-2.85346E-05-2.85810E-05-3.15460E-08-9.56441E-19-1.80228E-18
 -1      3395 9.52133E-05-2.85196E-05-2.85830E-05-4.07416E-08-1.34912E-18-9.85803E-19
 -1      3396 9.52268E-05-2.85400E-05-2.85800E-05-2.56786E-08 1.31757E-19-1.71923E-18
 -1      3397 9.52285E-05-2.85444E-05-2.85790E-05-2.03024E-08 1.12078E-18-1.08208E-18
 -1      3398 9.52214E-05-2.85324E-05-2.85810E-05-2.71349E-08-5.14538E-20-1.94744E-18
 -1      3399 9.52312E-05-2.85489E-05-2.85781E-05-1.60648E-08 1.47141E-18-1.20475E-18
 -1      3400 9.52324E-05-2.85525E-05-2.85772E-05-1.21453E-08 1.45760E-19-3.11689E-19
 -1      3401 9.52277E-05-2.85432E-05-2.85790E-05-1.71770E-08 1.08199E-18-1.27085E-18
 -1      3402 9.52344E-05-2.85559E-05-2.85764E-05-9.16414E-09-5.36567E-19 9.73153E-19
 -1      3403 9.52352E-05-2.85587E-05-2.85757E-05-6.39523E-09-5.71665E-19 1.65740E-18
 -1      3404 9.52323E-05-2.85518E-05-2.85773E-05-1.00506E-08 1.15419E-18-4.25271E-19
 -1      3405 9.52365E-05-2.85613E-05-2.85751E-05-4.36332E-09-1.00311E-18 2.05601E-18
 -1      3406 9.52371E-05-2.85633E-05-2.85745E-05-2.47758E-09-1.24765E-18 1.97017E-18
 -1      3407 9.52355E-05-2.85585E-05-2.85759E-05-5.08495E-09-3.78221E-20 1.49544E-18
 -1      3408 9.52378E-05-2.85652E-05-2.85740E-05-1.14800E-09-1.60667E-18 1.71324E-18
 -1      3409 9.52382E-05-2.85667E-05-2.85735E-05 7.78717E-11-6.24576E-19 1.28309E-18
 -1      3410 9.52375E-05-2.85634E-05-2.85746E-05-1.73742E-09-1.79216E-18 2.23460E-18
 -1      3411 9.52386E-05-2.85680E-05-2.85731E-05 8.99080E-10 8.08888E-19-2.42346E-19
 -1      3412 9.52387E-05-2.85690E-05-2.85728E-05 1.64518E-09 1.02182E-18-7.01729E-19
 -1      3413 9.52387E-05-2.85668E-05-2.85737E-05 4.21459E-10-1.49898E-18 4.89042E-19
 -1      3414 9.52389E-05-2.85698E-05-2.85724E-05 2.10755E-09-1.32572E-19-4.27750E-19
 -1      3415 9.52389E-05-2.85705E-05-2.85722E-05 2.51487E-09-3.50243E-19-4.02738E-19
 -1      3416 9.52393E-05-2.85692E-05-2.85729E-05 1.72590E-09 6.62047E-19-2.73269E-19
 -1      3417 9.52390E-05-2.85710E-05-2.85720E-05 2.73137E-09-5.90113E-19 1.43830E-19
 -1      3418 9.52389E-05-2.85715E-05-2.85718E-05 2.90717E-09 6.37684E-19 6.01959E-19
 -1      3419 9.52395E-05-2.85708E-05-2.85723E-05 2.43162E-09-1.51481E-19 7.05076E-20
 -1      3420 9.52388E-05-2.85718E-05-2.85716E-05 2.96124E-09 1.58804E-18 3.59736E-19
 -1      3421 9.52388E-05-2.85720E-05-2.85715E-05 2.98475E-09 1.79538E-18 8.13881E-19
 -1      3422 9.52394E-05-2.85717E-05-2.85719E-05 2.73030E-09 9.09810E-19-9.78280E-20
 -1      3423 9.52386E-05-2.85722E-05-2.85713E-05 2.93658E-09 1.24185E-18 6.00400E-19
 -1      3424 9.52386E-05-2.85723E-05-2.85713E-05 2.86417E-09 8.94498E-19 9.65211E-19
 -1      3425 9.52392E-05-2.85722E-05-2.85716E-05 2.76246E-09 1.22144E-18-1.05531E-18
 -1      3426 9.52384E-05-2.85723E-05-2.85712E-05 2.75624E-09 1.39857E-18 1.28499E-18
 -1      3427 9.52383E-05-2.85724E-05-2.85711E-05 2.62840E-09 1.59555E-18 2.51679E-18
 -1      3428 9.52389E-05-2.85725E-05-2.85713E-05 2.62903E-09 2.24219E-18-2.13365E-19
 -1      3429 9.52381E-05-2.85724E-05-2.85710E-05 2.49706E-09 4.37661E-19 3.17336E-18
 -1      3430 9.52381E-05-2.85724E-05-2.85710E-05 2.33669E-09 1.33285E-18 3.19935E-18
 -1      3431 9.52383E-05-2.85726E-05-2.85710E-05 2.16634E-09 5.66007E-19 2.78155E-18
 -1      3432 9.52386E-05-2.85726E-05-2.85711E-05 2.41479E-09 1.21091E-18 1.81797E-18
 -1      3433 9.40473E-05-2.70344E-05-2.87273E-05 8.05610E-07-1.17656E-18 7.13999E-19
 -1      3434 9.37526E-05-2.67077E-05-2.87399E-05 9.43848E-07-1.64443E-19 4.65416E-19
 -1      3435 9.40180E-05-2.70551E-05-2.86880E-05 5.49364E-07-2.64879E-19 1.79618E-18
 -1      3436 8.24718E-05-1.79677E-05-2.76759E-05-2.53134E-07 3.75646E-19 2.56202E-19
 -1      3437 7.92141E-05-1.60486E-05-2.71747E-05-7.73624E-07 4.69150E-19 4.45175E-19
 -1      3438 9.32797E-05-2.62638E-05-2.87315E-05 9.72449E-07 3.90218E-19 1.68890E-19
 -1      3439 9.27660E-05-2.57515E-05-2.87327E-05 1.13263E-06 1.09855E-18-3.30172E-19
 -1      3440 9.32855E-05-2.63326E-05-2.86781E-05 5.76216E-07-1.80671E-19 1.87891E-18
 -1      3441 9.48230E-05-2.79032E-05-2.86834E-05 4.89640E-07-1.14939E-18-2.94617E-20
 -1      3442 9.47155E-05-2.77535E-05-2.86992E-05 5.83570E-07-1.60992E-18-4.08407E-19
 -1      3443 9.44839E-05-2.75495E-05-2.86799E-05 4.76177E-07-8.75271E-19 4.71373E-19
 -1      3444 9.50017E-05-2.81331E-05-2.86604E-05 3.67614E-07-2.73904E-19 1.46569E-18
 -1      3445 9.49411E-05-2.80359E-05-2.86739E-05 4.39244E-07-9.50726E-19 5.37614E-19
 -1      3446 9.47837E-05-2.78911E-05-2.86645E-05 3.88163E-07-1.40326E-18 2.08338E-19
 -1      3447 9.51069E-05-2.82829E-05-2.86404E-05 2.71325E-07 1.02837E-18 2.09471E-18
 -1      3448 9.50737E-05-2.82199E-05-2.86514E-05 3.24947E-07 6.29211E-19 1.94865E-18
 -1      3449 9.49680E-05-2.81182E-05-2.86477E-05 3.04513E-07 3.25008E-19 1.21627E-18
 -1      3450 9.51679E-05-2.83807E-05-2.86241E-05 1.97172E-07 6.06054E-19 2.55335E-18
 -1      3451 9.51503E-05-2.83398E-05-2.86328E-05 2.36828E-07 1.29535E-18 2.54634E-18
 -1      3452 9.50801E-05-2.82688E-05-2.86322E-05 2.32242E-07 5.37965E-19 2.22471E-18
 -1      3453 9.52025E-05-2.84447E-05-2.86111E-05 1.41033E-07 1.40502E-18 2.71504E-18
 -1      3454 9.51937E-05-2.84180E-05-2.86178E-05 1.70107E-07 1.23575E-18 3.25541E-18
 -1      3455 9.51476E-05-2.83687E-05-2.86188E-05 1.73036E-07 6.75102E-19 2.52271E-18
 -1      3456 9.52217E-05-2.84869E-05-2.86010E-05 9.91256E-08 1.22062E-19 2.01059E-18
 -1      3457 9.52177E-05-2.84694E-05-2.86061E-05 1.20262E-07 1.05172E-18 2.86905E-18
 -1      3458 9.51879E-05-2.84352E-05-2.86079E-05 1.26172E-07 1.49584E-18 3.70143E-18
 -1      3459 9.52317E-05-2.85139E-05-2.85936E-05 6.95145E-08-6.14646E-19 1.45017E-18
 -1      3460 9.52303E-05-2.85026E-05-2.85973E-05 8.42247E-08 9.90942E-20 1.98644E-18
 -1      3461 9.52111E-05-2.84789E-05-2.85993E-05 9.07177E-08 5.78086E-19 3.04066E-18
 -1      3462 9.52372E-05-2.85332E-05-2.85876E-05 4.65482E-08-9.49091E-19-2.26613E-19
 -1      3463 9.52369E-05-2.85251E-05-2.85905E-05 5.76709E-08-7.61556E-19 4.34030E-19
 -1      3464 9.52248E-05-2.85086E-05-2.85926E-05 6.37996E-08-1.45848E-19 1.58107E-18
 -1      3465 9.52398E-05-2.85462E-05-2.85831E-05 3.00374E-08-7.02535E-20-4.54934E-19
 -1      3466 9.52401E-05-2.85408E-05-2.85852E-05 3.79247E-08-7.59753E-19-1.08344E-18
 -1      3467 9.52329E-05-2.85294E-05-2.85872E-05 4.31425E-08-6.17341E-20-3.26459E-19
 -1      3468 9.52409E-05-2.85551E-05-2.85797E-05 1.83383E-08 4.54549E-19 2.88909E-19
 -1      3469 9.52413E-05-2.85513E-05-2.85813E-05 2.38478E-08 2.12143E-20-1.88937E-19
 -1      3470 9.52373E-05-2.85437E-05-2.85830E-05 2.80614E-08-3.69703E-19-1.69701E-18
 -1      3471 9.52411E-05-2.85611E-05-2.85772E-05 1.02104E-08 5.20142E-19 3.74782E-19
 -1      3472 9.52416E-05-2.85586E-05-2.85783E-05 1.39861E-08 6.14674E-19 3.18053E-19
 -1      3473 9.52396E-05-2.85535E-05-2.85798E-05 1.72597E-08 1.08779E-18 5.52938E-19
 -1      3474 9.52409E-05-2.85653E-05-2.85753E-05 4.70482E-09 4.81724E-19 1.39203E-18
 -1      3475 9.52414E-05-2.85635E-05-2.85761E-05 7.22644E-09 9.45235E-19 1.13472E-18
 -1      3476 9.52407E-05-2.85602E-05-2.85774E-05 9.69547E-09 6.00119E-20-3.03591E-19
 -1      3477 9.52405E-05-2.85680E-05-2.85740E-05 1.09957E-09 2.28184E-19 1.06854E-18
 -1      3478 9.52409E-05-2.85668E-05-2.85746E-05 2.72383E-09 4.63178E-19 1.40733E-18
 -1      3479 9.52411E-05-2.85648E-05-2.85755E-05 4.53994E-09 6.13391E-19 8.92548E-19
 -1      3480 9.52401E-05-2.85699E-05-2.85730E-05-1.14770E-09 2.49636E-18-9.65965E-19
 -1      3481 9.52404E-05-2.85691E-05-2.85734E-05-1.58834E-10 1.31229E-18 3.34100E-19
 -1      3482 9.52410E-05-2.85679E-05-2.85742E-05 1.14661E-09 1.35079E-18 5.23123E-19
 -1      3483 9.52397E-05-2.85710E-05-2.85723E-05-2.39985E-09 1.28047E-18-1.39548E-18
 -1      3484 9.52399E-05-2.85705E-05-2.85726E-05-1.86308E-09 2.94405E-18-1.38322E-18
 -1      3485 9.52407E-05-2.85699E-05-2.85732E-05-9.46743E-10 2.69939E-18-3.15392E-19
 -1      3486 9.52393E-05-2.85717E-05-2.85718E-05-3.08091E-09 2.04019E-19-3.98971E-19
 -1      3487 9.52394E-05-2.85714E-05-2.85720E-05-2.81238E-09-2.95718E-19-1.08432E-18
 -1      3488 9.52403E-05-2.85711E-05-2.85725E-05-2.17170E-09 1.02508E-18-8.77006E-19
 -1      3489 9.52389E-05-2.85721E-05-2.85715E-05-3.32060E-09 1.05150E-18 1.30316E-18
 -1      3490 9.52390E-05-2.85719E-05-2.85716E-05-3.24945E-09 9.54509E-19 1.13925E-18
 -1      3491 9.52399E-05-2.85719E-05-2.85720E-05-2.82274E-09 1.23376E-20-1.65923E-18
 -1      3492 9.52385E-05-2.85723E-05-2.85712E-05-3.28011E-09 1.82749E-18 1.23384E-18
 -1      3493 9.52386E-05-2.85722E-05-2.85713E-05-3.33361E-09 1.15210E-18 1.27549E-18
 -1      3494 9.52394E-05-2.85724E-05-2.85716E-05-3.05925E-09 1.58490E-18-5.90703E-19
 -1      3495 9.52382E-05-2.85724E-05-2.85711E-05-3.06955E-09 1.74701E-18-4.97989E-20
 -1      3496 9.52383E-05-2.85723E-05-2.85711E-05-3.19742E-09 1.88456E-18 8.11079E-19
 -1      3497 9.52390E-05-2.85725E-05-2.85713E-05-3.03063E-09 1.66340E-18-4.37510E-19
 -1      3498 9.52380E-05-2.85724E-05-2.85710E-05-2.76155E-09-1.70513E-18-6.92670E-19
 -1      3499 9.52380E-05-2.85724E-05-2.85710E-05-2.92887E-09 1.06060E-18 5.84103E-20
 -1      3500 9.52386E-05-2.85726E-05-2.85712E-05-2.84133E-09 1.64505E-18-4.87691E-19
 -1      3501 9.52378E-05-2.85723E-05-2.85709E-05-2.48424E-09-4.70335E-18-3.64445E-18
 -1      3502 9.52392E-05-2.85732E-05-2.85711E-05 8.32831E-10-3.57829E-19 3.36957E-19
 -1      3503 9.52393E-05-2.85733E-05-2.85711E-05 4.75101E-10-9.28410E-19 8.89905E-19
 -1      3504 9.20292E-05-2.51024E-05-2.86975E-05 1.10017E-06 1.56512E-18-1.10335E-18
 -1      3505 9.11878E-05-2.43484E-05-2.86682E-05 1.24931E-06 1.57918E-18-9.11696E-19
 -1      3506 9.21186E-05-2.52620E-05-2.86273E-05 4.84727E-07 9.46174E-19 8.18415E-19
 -1      3507 1.14882E-04-1.04861E-05-4.50010E-05 5.06573E-06-6.94567E-19-1.16075E-18
 -1      3508 1.13484E-04-9.62096E-06-4.47281E-05-6.34776E-07-1.29072E-18-7.41921E-19
 -1      3509 1.28110E-04-4.49365E-05-3.58544E-05-9.87045E-07 1.50170E-19 6.24710E-19
 -1      3510 1.27650E-04-4.80977E-05-3.38559E-05 7.13534E-06 4.65253E-19 7.25815E-19
 -1      3511 7.57894E-05-1.41537E-05-2.64429E-05-2.36571E-06-5.45972E-20 4.99319E-19
 -1      3512 7.10762E-05-1.19650E-05-2.54290E-05-3.65670E-06-6.80670E-20 2.94046E-19
 -1      3513 7.81086E-05-1.59212E-05-2.65155E-05-5.46296E-06 4.31190E-19-9.97500E-19
 -1      3514 9.00635E-05-2.34247E-05-2.85791E-05 1.08480E-06 1.20009E-18-1.43274E-18
 -1      3515 8.87125E-05-2.23468E-05-2.84828E-05 1.15974E-06 4.48527E-19-8.62654E-19
 -1      3516 9.03286E-05-2.37510E-05-2.84939E-05 1.41608E-07 8.88571E-19-7.20420E-19
 -1      3517 1.14219E-04-4.94830E-05-2.74795E-05-2.81758E-05 2.09479E-18 6.23032E-21
 -1      3518 1.24635E-04-5.40968E-05-3.04402E-05-2.03315E-05 1.77891E-18-5.47633E-19
 -1      3519 8.70351E-05-2.10825E-05-2.82909E-05 7.39885E-07 1.43225E-19-5.06304E-19
 -1      3520 8.49122E-05-1.96025E-05-2.80580E-05 6.19773E-07 2.63632E-19 1.73323E-19
 -1      3521 8.37007E-05-1.90441E-05-2.76216E-05-2.36402E-06 7.58188E-19-2.08729E-19
 -1      3522 8.76400E-05-2.16954E-05-2.82028E-05-6.82289E-07 6.57247E-19-1.36799E-18
 -1      3523 1.04111E-04-3.95970E-05-2.78834E-05 3.08213E-05 1.41510E-18-1.05561E-19
 -1      3524 9.07495E-05-3.02653E-05-2.55278E-05 3.41083E-05 1.75974E-18-5.60617E-19
 -1      3525 1.07394E-04-3.85910E-05-2.93483E-05 2.39399E-05 1.20402E-18 1.87092E-20
 -1      3526 7.67998E-05-2.19344E-05-2.37234E-05 3.49325E-05 1.77480E-18-7.98884E-19
 -1      3527 6.56173E-05-1.28027E-05-2.22948E-05 2.99560E-05 1.70464E-18-1.07438E-18
 -1      3528 8.72624E-05-3.27668E-05-2.30552E-05-3.43857E-05 1.91813E-18 3.57924E-19
 -1      3529 1.01166E-04-4.28877E-05-2.52273E-05-3.39510E-05 1.78862E-18 9.12943E-20
 -1      3530 6.36702E-05-1.50908E-05-2.05558E-05-2.54921E-05 4.51164E-19-1.16864E-18
 -1      3531 7.37817E-05-2.33929E-05-2.16518E-05-3.20444E-05 9.66968E-19 2.77933E-19
 -1      3532 1.05107E-04-3.12657E-05-3.16627E-05-9.25481E-06-1.24003E-20-3.99113E-19
 -1      3533 1.04997E-04-3.09568E-05-3.17433E-05-9.47602E-06-3.94143E-20-3.27856E-19
 -1      3534 1.07388E-04-3.13952E-05-3.25316E-05-9.81787E-06-1.19308E-19-5.65741E-19
 -1      3535 1.18670E-04-1.88117E-05-4.29584E-05 1.15280E-05-3.61736E-19-1.28356E-18
 -1      3536 1.16374E-04-1.36200E-05-4.43250E-05 8.53165E-06-5.45860E-19-9.85295E-19
 -1      3537 1.12241E-04-1.41752E-05-4.21852E-05 6.46662E-06-4.80426E-19-7.45740E-19
 -1      3538 1.02565E-04-2.77227E-05-3.20351E-05 5.29140E-06 6.40477E-19-5.51437E-19
 -1      3539 1.03495E-04-2.83162E-05-3.22630E-05 2.44667E-06 4.92523E-19-6.11300E-19
 -1      3540 1.06262E-04-3.08350E-05-3.22707E-05 7.33764E-07 3.58989E-19-5.45699E-19
 -1      3541 6.63680E-05-9.62637E-06-2.43215E-05-4.38261E-06 9.30016E-20 3.25975E-20
 -1      3542 5.96302E-05-7.37287E-06-2.23397E-05-6.31822E-06-3.07658E-19-7.50154E-20
 -1      3543 5.92416E-05-8.28171E-06-2.15289E-05-1.18466E-05-3.93976E-19-6.92899E-19
 -1      3544 7.00169E-05-1.21087E-05-2.46774E-05-8.63788E-06-1.05356E-19-1.22725E-18
 -1      3545 1.03274E-04-2.92346E-05-3.17320E-05-7.85623E-06 1.06209E-20-7.38374E-19
 -1      3546 9.01969E-05-2.53743E-05-2.78834E-05 2.63216E-05 1.62212E-18-6.45757E-19
 -1      3547 9.71201E-05-2.93894E-05-2.89305E-05 2.37413E-05 1.41191E-18-4.83727E-19
 -1      3548 9.52388E-05-2.85730E-05-2.85711E-05-1.73017E-09-2.66604E-18 2.76827E-18
 -1      3549 9.52388E-05-2.85729E-05-2.85711E-05-1.98293E-09-1.50036E-18 1.89021E-18
 -1      3550 9.52390E-05-2.85731E-05-2.85711E-05-1.43233E-09-1.31470E-18 1.44243E-18
 -1      3551 1.12821E-04-1.12979E-05-4.37860E-05-4.27497E-06-1.27177E-18-3.24364E-19
 -1      3552 1.12653E-04-1.44108E-05-4.22510E-05-7.39400E-06-7.97508E-19 1.78807E-19
 -1      3553 1.09832E-04-1.22125E-05-4.19767E-05-1.10392E-06-8.73688E-19-1.57257E-19
 -1      3554 9.52386E-05-2.85728E-05-2.85710E-05 1.93983E-09-6.08735E-20 1.97007E-19
 -1      3555 1.30520E-04-4.34638E-05-3.74271E-05 6.61045E-06 8.85136E-19-1.31831E-18
 -1      3556 1.26187E-04-3.76013E-05-3.80356E-05 1.02744E-05 5.52040E-19-1.18264E-18
 -1      3557 1.21134E-04-4.48511E-05-3.26305E-05 9.95357E-06 6.16243E-19 3.32838E-19
 -1      3558 1.21043E-04-2.90634E-05-3.95169E-05 1.24857E-05 2.35740E-19-8.06051E-19
 -1      3559 1.20136E-04-2.38739E-05-4.14940E-05 1.26206E-05-1.27955E-19-8.59011E-19
 -1      3560 1.14966E-04-2.13592E-05-4.02116E-05 1.14554E-05-4.15470E-19-3.68618E-19
 -1      3561 9.52380E-05-2.85724E-05-2.85710E-05-2.56113E-09-2.33152E-18-1.17100E-18
 -1      3562 9.52385E-05-2.85727E-05-2.85711E-05-2.49594E-09-5.76074E-19 9.01708E-19
 -1      3563 1.28023E-04-5.32704E-05-3.19315E-05-1.27197E-05 1.53547E-18-9.53666E-19
 -1      3564 1.28162E-04-5.04493E-05-3.34132E-05-4.96834E-06 1.29509E-18-1.28005E-18
 -1      3565 1.21971E-04-5.06156E-05-3.05907E-05-1.45060E-05 1.64597E-18-7.41225E-19
 -1      3566 9.52391E-05-2.85731E-05-2.85711E-05 1.20709E-09 2.38397E-19-1.02930E-19
 -1      3567 9.52394E-05-2.85732E-05-2.85712E-05 1.08771E-09 6.62579E-20 3.79392E-19
 -1      3568 9.52389E-05-2.85730E-05-2.85711E-05 1.51542E-09 4.35497E-19-2.36780E-19
 -1      3569 9.52395E-05-2.85733E-05-2.85712E-05 2.97943E-10-4.33999E-20 2.16756E-18
 -1      3570 9.52393E-05-2.85733E-05-2.85711E-05 6.82264E-11-1.10799E-18 1.25864E-18
 -1      3571 9.52393E-05-2.85733E-05-2.85711E-05-3.03679E-10-1.03171E-18 5.58876E-19
 -1      3572 1.16696E-04-2.07881E-05-4.11710E-05-1.21722E-05-4.63909E-19 7.72256E-20
 -1      3573 1.22230E-04-2.57826E-05-4.15103E-05-1.34485E-05-3.95061E-19 3.99826E-19
 -1      3574 1.21364E-04-3.07010E-05-3.89131E-05-1.20587E-05-2.24874E-19 1.47192E-19
 -1      3575 5.74912E-05-2.36594E-06-2.34589E-05 1.04330E-05 1.19295E-18-1.07073E-18
 -1      3576 5.95439E-05-9.92077E-06-2.11338E-05-1.62423E-05-2.15530E-19-1.22828E-18
 -1      3577 6.13133E-05-1.23718E-05-2.07234E-05-2.19278E-05 1.68295E-19-1.48456E-18
 -1      3578 6.92648E-05-1.61242E-05-2.27168E-05-2.16697E-05-1.83823E-19-1.06157E-18
 -1      3579 6.61863E-05-1.19657E-05-2.31593E-05-1.41362E-05 3.17588E-20-1.52387E-18
 -1      3580 1.03879E-04-3.49053E-05-2.95406E-05 2.19033E-05 1.16961E-18-9.92352E-20
 -1      3581 1.02519E-04-3.12690E-05-3.04706E-05 1.69452E-05 1.04658E-18-3.05405E-19
 -1      3582 1.06026E-04-3.33402E-05-3.11165E-05 1.34206E-05 7.50402E-19-1.58372E-19
 -1      3583 1.12113E-04-4.02395E-05-3.10065E-05 1.65466E-05 8.63894E-19 1.42533E-19
 -1      3584 5.79684E-05-7.17442E-06-2.16802E-05 2.43559E-05 1.55237E-18-1.16795E-18
 -1      3585 5.43527E-05-2.96387E-06-2.18028E-05 1.51875E-05 1.28419E-18-1.18786E-18
 -1      3586 1.05557E-04-3.06101E-05-3.20929E-05-7.04589E-06 1.77403E-19-5.58600E-19
 -1      3587 1.04491E-04-3.05364E-05-3.17039E-05-8.36001E-06 4.69293E-20-5.74208E-19
 -1      3588 1.04855E-04-3.10899E-05-3.16349E-05-8.54008E-06 2.07333E-20-4.59408E-19
 -1      3589 1.08164E-04-4.45842E-05-2.70977E-05-2.66695E-05 1.58596E-18-1.41054E-19
 -1      3590 8.37789E-05-2.79982E-05-2.37145E-05-2.91912E-05 1.26498E-18-1.24673E-19
 -1      3591 8.57881E-05-2.45516E-05-2.60846E-05 3.03637E-05 1.68590E-18-7.01482E-19
 -1      3592 1.29246E-04-4.61728E-05-3.57326E-05 2.75391E-06 1.03867E-18-1.39088E-18
 -1      3593 1.07237E-04-3.18373E-05-3.23267E-05-5.21788E-06 2.37816E-19-6.32485E-19
 -1      3594 1.08426E-04-3.29288E-05-3.23661E-05-5.82690E-06 1.71373E-19-6.25941E-19
 -1      3595 1.08216E-04-3.25897E-05-3.24575E-05-3.07586E-06 2.70677E-19-6.33806E-19
 -1      3596 1.07199E-04-3.20718E-05-3.21634E-05-8.41176E-06 4.41636E-20-4.82851E-19
 -1      3597 6.20921E-05-4.09327E-06-2.48926E-05 1.45661E-05 1.47408E-18-7.71276E-19
 -1      3598 6.66399E-05-1.01933E-05-2.38976E-05 2.46441E-05 1.58072E-18-1.00066E-18
 -1      3599 6.60688E-05-7.14681E-06-2.50995E-05 2.00859E-05 1.51889E-18-9.34860E-19
 -1      3600 1.04836E-04-3.08021E-05-3.17049E-05 7.61821E-06 5.41016E-19-4.06113E-19
 -1      3601 1.23898E-04-3.76294E-05-3.69906E-05-9.00520E-06-3.69121E-20 3.40057E-19
 -1      3602 1.27454E-04-4.23489E-05-3.64704E-05-5.49271E-06 1.23210E-19 5.46177E-19
 -1      3603 1.23425E-04-4.23444E-05-3.47674E-05-2.13514E-06 2.61381E-19 4.07396E-19
 -1      3604 7.20726E-05-1.26150E-05-2.56099E-05 2.53864E-05 1.64720E-18-8.90126E-19
 -1      3605 9.44902E-05-2.76332E-05-2.86555E-05 2.92419E-07-5.42607E-19 1.17004E-18
 -1      3606 9.42979E-05-2.74347E-05-2.86606E-05 3.20884E-07 3.83692E-19 1.86972E-18
 -1      3607 1.07404E-04-2.57758E-05-3.50687E-05-1.06548E-05-5.04387E-19-1.98894E-19
 -1      3608 1.05918E-04-2.28730E-05-3.55370E-05-9.42181E-06-8.84405E-19-1.24989E-19
 -1      3609 1.02257E-04-1.70544E-05-3.65376E-05-9.73769E-07-3.72559E-19 1.78651E-19
 -1      3610 1.02232E-04-1.71880E-05-3.64705E-05 2.12072E-06-1.89199E-19 3.12941E-19
 -1      3611 1.02930E-04-1.85826E-05-3.61326E-05 5.76261E-06-1.78899E-19 4.30552E-20
 -1      3612 1.03977E-04-2.08320E-05-3.57161E-05 8.16228E-06-3.22660E-19-1.68392E-19
 -1      3613 1.04987E-04-1.68770E-05-3.78071E-05 4.20925E-06-4.29330E-19 3.06778E-19
 -1      3614 1.05593E-04-2.38927E-05-3.49741E-05 1.01125E-05-2.40663E-19-4.72006E-19
 -1      3615 1.06971E-04-2.70496E-05-3.43414E-05 1.10754E-05 1.29268E-19-2.32183E-19
 -1      3616 1.07607E-04-2.22725E-05-3.65838E-05 9.82601E-06-4.56054E-19-2.71315E-21
 -1      3617 1.08306E-04-3.01820E-05-3.34367E-05 1.09389E-05-3.84639E-21-2.02972E-19
 -1      3618 1.09284E-04-3.29240E-05-3.27628E-05 1.05723E-05-1.10700E-19-2.53171E-19
 -1      3619 1.10816E-04-2.94539E-05-3.48206E-05 1.15059E-05 2.52977E-19 2.20642E-20
 -1      3620 1.09397E-04-3.49359E-05-3.19319E-05 9.08134E-06-3.51684E-19-3.03123E-19
 -1      3621 1.09584E-04-3.64490E-05-3.13519E-05 8.00381E-06-4.76939E-19-6.95892E-19
 -1      3622 1.12264E-04-3.53247E-05-3.29990E-05 9.75391E-06-2.75761E-19-2.48214E-19
 -1      3623 1.08789E-04-3.72526E-05-3.06889E-05 6.25692E-06-1.26197E-19-6.30205E-19
 -1      3624 1.08293E-04-3.76797E-05-3.02413E-05 4.96963E-06-2.31416E-19-6.51189E-19
 -1      3625 1.11553E-04-3.83790E-05-3.13618E-05 6.27527E-06-2.96481E-19-3.85201E-20
 -1      3626 1.06862E-04-3.74402E-05-2.97802E-05 3.50270E-06-1.50167E-19-2.10636E-19
 -1      3627 1.05955E-04-3.70979E-05-2.94758E-05 2.42261E-06-3.03690E-19 5.04278E-19
 -1      3628 1.09214E-04-3.88140E-05-3.01812E-05 2.93530E-06 1.59405E-19 2.15576E-19
 -1      3629 1.04395E-04-3.63384E-05-2.91858E-05 1.45304E-06-5.94031E-19 7.15420E-19
 -1      3630 1.03367E-04-3.56256E-05-2.89976E-05 6.97754E-07-4.45426E-19 3.13037E-19
 -1      3631 1.06148E-04-3.75931E-05-2.94076E-05 5.92741E-07-1.97266E-19 5.89063E-19
 -1      3632 1.01967E-04-3.47146E-05-2.88311E-05 1.72013E-07-1.62424E-19 3.19658E-19
 -1      3633 1.01012E-04-3.39192E-05-2.87261E-05-2.86088E-07-2.30941E-19 2.01804E-19
 -1      3634 1.03162E-04-3.57021E-05-2.89443E-05-7.48662E-07-4.06358E-19 7.52893E-19
 -1      3635 9.98956E-05-3.30713E-05-2.86403E-05-5.00718E-07-1.22215E-19 7.20340E-19
 -1      3636 9.91084E-05-3.23521E-05-2.85893E-05-7.41181E-07 7.40471E-20 1.04364E-18
 -1      3637 1.00648E-04-3.37704E-05-2.86918E-05-1.33164E-06 2.83923E-19 6.68352E-19
 -1      3638 9.82843E-05-3.16567E-05-2.85521E-05-7.72445E-07 2.77788E-19 1.75608E-18
 -1      3639 9.76868E-05-3.10774E-05-2.85330E-05-8.72457E-07 1.87420E-19 1.99699E-18
 -1      3640 9.87243E-05-3.21158E-05-2.85706E-05-1.44758E-06 4.44421E-19 1.95865E-18
 -1      3641 9.71165E-05-3.05542E-05-2.85225E-05-8.12172E-07-1.91451E-19 1.71311E-18
 -1      3642 9.66917E-05-3.01238E-05-2.85205E-05-8.31834E-07 5.81374E-19 1.03080E-18
 -1      3643 9.73508E-05-3.08340E-05-2.85249E-05-1.32039E-06 6.03910E-20 1.74171E-18
 -1      3644 9.63182E-05-2.97550E-05-2.85228E-05-7.37878E-07 7.76447E-19 9.11349E-19
 -1      3645 9.60331E-05-2.94552E-05-2.85283E-05-7.16989E-07 3.60387E-19 4.78554E-19
 -1      3646 9.64263E-05-2.99121E-05-2.85184E-05-1.09812E-06 4.15497E-19 1.71800E-18
 -1      3647 9.58017E-05-2.92102E-05-2.85355E-05-6.20286E-07 6.15827E-19 2.88890E-19
 -1      3648 9.56206E-05-2.90134E-05-2.85432E-05-5.82776E-07 1.32125E-20 2.11699E-19
 -1      3649 9.58369E-05-2.92878E-05-2.85291E-05-8.62968E-07 2.83473E-19 8.93076E-19
 -1      3650 9.54861E-05-2.88601E-05-2.85512E-05-4.97389E-07-1.55775E-19 4.87074E-19
 -1      3651 9.53779E-05-2.87389E-05-2.85583E-05-4.56262E-07 5.12257E-19 1.59546E-19
 -1      3652 9.54824E-05-2.88893E-05-2.85449E-05-6.53424E-07 1.66637E-19 4.17901E-19
 -1      3653 9.53063E-05-2.86497E-05-2.85650E-05-3.86624E-07 7.94565E-19 2.91899E-19
 -1      3654 9.52463E-05-2.85807E-05-2.85705E-05-3.48178E-07 3.49411E-19 4.24744E-19
 -1      3655 9.52842E-05-2.86511E-05-2.85600E-05-4.82439E-07 3.83475E-19 6.23125E-19
 -1      3656 9.52135E-05-2.85340E-05-2.85755E-05-2.93991E-07-8.56264E-20-6.95732E-20
 -1      3657 9.51838E-05-2.84991E-05-2.85792E-05-2.60747E-07 6.20783E-19 3.86012E-19
 -1      3658 9.51848E-05-2.85209E-05-2.85719E-05-3.49997E-07 3.49086E-19 8.79287E-19
 -1      3659 9.51734E-05-2.84791E-05-2.85823E-05-2.19808E-07 1.12895E-18 3.83440E-19
 -1      3660 9.51617E-05-2.84654E-05-2.85843E-05-1.92331E-07 8.77995E-19 6.06869E-19
 -1      3661 9.51446E-05-2.84597E-05-2.85800E-05-2.50709E-07 6.12574E-19 3.00526E-19
 -1      3662 9.51632E-05-2.84611E-05-2.85860E-05-1.61977E-07 6.83368E-19 3.63845E-19
 -1      3663 9.51614E-05-2.84596E-05-2.85868E-05-1.39917E-07 7.55675E-19 1.77828E-20
 -1      3664 9.51374E-05-2.84402E-05-2.85848E-05-1.77797E-07 7.88939E-19-1.41965E-19
 -1      3665 9.51684E-05-2.84637E-05-2.85873E-05-1.17684E-07 5.64117E-19-2.51627E-19
 -1      3666 9.51714E-05-2.84685E-05-2.85872E-05-1.00340E-07 1.26609E-18-6.27241E-19
 -1      3667 9.51468E-05-2.84440E-05-2.85870E-05-1.24935E-07 4.15095E-19-3.60048E-19
 -1      3668 9.51801E-05-2.84765E-05-2.85870E-05-8.41907E-08 1.38444E-18-5.06192E-19
 -1      3669 9.51850E-05-2.84840E-05-2.85864E-05-7.07820E-08 3.72564E-19-6.03587E-20
 -1      3670 9.51629E-05-2.84592E-05-2.85873E-05-8.69026E-08 8.48116E-19-6.85002E-19
 -1      3671 9.51935E-05-2.84931E-05-2.85857E-05-5.91308E-08-5.64902E-19 2.04793E-19
 -1      3672 9.51986E-05-2.85012E-05-2.85848E-05-4.89205E-08-6.22401E-19-5.60219E-20
 -1      3673 9.51804E-05-2.84786E-05-2.85863E-05-5.96738E-08 3.87519E-19-3.76277E-19
 -1      3674 9.52059E-05-2.85099E-05-2.85839E-05-4.05721E-08-1.36637E-18-4.12693E-20
 -1      3675 9.52104E-05-2.85174E-05-2.85829E-05-3.29156E-08-1.25114E-18-3.59977E-19
 -1      3676 9.51963E-05-2.84983E-05-2.85847E-05-4.02552E-08-7.93367E-19-3.72402E-19
 -1      3677 9.52163E-05-2.85251E-05-2.85819E-05-2.69844E-08-6.49998E-19 2.29027E-19
 -1      3678 9.52200E-05-2.85315E-05-2.85809E-05-2.13365E-08 3.62770E-19 3.67663E-19
 -1      3679 9.52095E-05-2.85161E-05-2.85828E-05-2.64747E-08-5.70895E-19 1.77956E-18
 -1      3680 9.52245E-05-2.85378E-05-2.85799E-05-1.71678E-08 1.18299E-18 8.63745E-20
 -1      3681 9.52272E-05-2.85431E-05-2.85790E-05-1.30776E-08 1.00507E-18 2.98487E-20
 -1      3682 9.52199E-05-2.85310E-05-2.85808E-05-1.67612E-08 4.93821E-19 1.18768E-18
 -1      3683 9.52304E-05-2.85480E-05-2.85781E-05-1.01941E-08 1.29944E-18-8.35548E-19
 -1      3684 9.52324E-05-2.85521E-05-2.85773E-05-7.29875E-09 1.43575E-18 3.59213E-19
 -1      3685 9.52275E-05-2.85430E-05-2.85790E-05-9.98160E-09 8.96799E-19 5.68548E-19
 -1      3686 9.52346E-05-2.85559E-05-2.85766E-05-5.34868E-09 1.63776E-18 6.27368E-19
 -1      3687 9.52358E-05-2.85589E-05-2.85759E-05-3.35444E-09 5.70391E-21 1.69620E-18
 -1      3688 9.52329E-05-2.85523E-05-2.85773E-05-5.32836E-09 1.39048E-18 5.05610E-19
 -1      3689 9.52373E-05-2.85616E-05-2.85752E-05-2.07516E-09-2.27024E-18 1.95729E-18
 -1      3690 9.52380E-05-2.85639E-05-2.85747E-05-7.49813E-10-2.68050E-18 1.09062E-18
 -1      3691 9.52364E-05-2.85592E-05-2.85759E-05-2.20505E-09-7.64164E-19 1.25620E-18
 -1      3692 9.52389E-05-2.85658E-05-2.85742E-05 5.17596E-11-2.73173E-18 1.09458E-18
 -1      3693 9.52393E-05-2.85673E-05-2.85737E-05 8.89733E-10-1.47115E-18 1.52507E-19
 -1      3694 9.52386E-05-2.85642E-05-2.85747E-05-1.76917E-10-2.75636E-18 5.79341E-19
 -1      3695 9.52397E-05-2.85686E-05-2.85733E-05 1.35635E-09-5.11753E-20 5.25880E-19
 -1      3696 9.52399E-05-2.85697E-05-2.85730E-05 1.84694E-09 2.99433E-19 1.80478E-19
 -1      3697 9.52398E-05-2.85677E-05-2.85738E-05 1.07455E-09-7.85782E-19 1.32556E-18
 -1      3698 9.52400E-05-2.85705E-05-2.85726E-05 2.08392E-09 3.32089E-20-5.65551E-19
 -1      3699 9.52400E-05-2.85711E-05-2.85724E-05 2.33332E-09-5.64417E-20 1.58087E-19
 -1      3700 9.52403E-05-2.85700E-05-2.85730E-05 1.78407E-09-3.76999E-20 7.53295E-19
 -1      3701 9.52400E-05-2.85716E-05-2.85721E-05 2.41721E-09 5.29820E-19 5.90923E-19
 -1      3702 9.52399E-05-2.85720E-05-2.85719E-05 2.50421E-09 1.11985E-18 1.98948E-19
 -1      3703 9.52404E-05-2.85714E-05-2.85724E-05 2.12395E-09 8.12442E-19 6.64266E-19
 -1      3704 9.52397E-05-2.85723E-05-2.85717E-05 2.48995E-09 1.53208E-18 2.01267E-19
 -1      3705 9.52396E-05-2.85725E-05-2.85716E-05 2.47191E-09 1.56729E-18-2.94201E-19
 -1      3706 9.52402E-05-2.85723E-05-2.85720E-05 2.21769E-09 1.03396E-18 1.31782E-18
 -1      3707 9.52394E-05-2.85726E-05-2.85715E-05 2.39558E-09 2.24622E-18-2.54097E-19
 -1      3708 9.52392E-05-2.85727E-05-2.85713E-05 2.31331E-09 2.56116E-18 7.51991E-19
 -1      3709 9.52398E-05-2.85727E-05-2.85716E-05 2.15829E-09 1.74988E-18 1.94795E-18
 -1      3710 9.52390E-05-2.85728E-05-2.85712E-05 1.99613E-09 1.89045E-18-5.29255E-19
 -1      3711 9.52389E-05-2.85729E-05-2.85711E-05 1.90438E-09 6.85298E-19-3.75791E-19
 -1      3712 9.34152E-05-2.65963E-05-2.86404E-05 1.81424E-07-4.75612E-19 2.27829E-18
 -1      3713 9.29433E-05-2.61855E-05-2.86252E-05 1.38427E-07-8.95508E-20 1.81312E-18
 -1      3714 1.21098E-04-4.33093E-05-3.35316E-05 2.80054E-06 4.79798E-19 3.00204E-19
 -1      3715 1.17222E-04-4.20304E-05-3.20990E-05 1.01197E-05 7.50140E-19 2.50144E-19
 -1      3716 1.13834E-04-3.91059E-05-3.19791E-05 9.28370E-06 6.45522E-19 9.78480E-20
 -1      3717 9.49496E-05-2.81381E-05-2.86349E-05 2.23978E-07 2.46457E-19 1.27386E-18
 -1      3718 9.48771E-05-2.80480E-05-2.86424E-05 2.58289E-07 2.08071E-19 6.16890E-19
 -1      3719 9.50617E-05-2.82763E-05-2.86233E-05 1.79355E-07-1.01688E-19 2.59158E-18
 -1      3720 9.50179E-05-2.82158E-05-2.86301E-05 2.09356E-07 4.73943E-19 1.98314E-18
 -1      3721 9.49442E-05-2.81463E-05-2.86256E-05 1.67513E-07 4.62939E-19 1.96477E-18
 -1      3722 9.51318E-05-2.83701E-05-2.86129E-05 1.38397E-07 1.32478E-18 2.38919E-18
 -1      3723 9.51055E-05-2.83292E-05-2.86186E-05 1.63190E-07 5.00431E-19 2.18590E-18
 -1      3724 9.50532E-05-2.82775E-05-2.86169E-05 1.42157E-07 3.31569E-19 2.47200E-18
 -1      3725 9.51753E-05-2.84338E-05-2.86040E-05 1.03567E-07 6.68432E-19 2.80722E-18
 -1      3726 9.51598E-05-2.84062E-05-2.86087E-05 1.23290E-07 1.34257E-18 2.12675E-18
 -1      3727 9.51233E-05-2.83681E-05-2.86086E-05 1.13947E-07 1.43288E-18 1.67604E-18
 -1      3728 9.52012E-05-2.84757E-05-2.85970E-05 7.65510E-08 1.18079E-18 2.41345E-18
 -1      3729 9.51925E-05-2.84575E-05-2.86006E-05 9.12604E-08 1.10642E-18 2.94133E-18
 -1      3730 9.51673E-05-2.84297E-05-2.86014E-05 8.81148E-08 9.67119E-19 2.25884E-18
 -1      3731 9.52181E-05-2.85064E-05-2.85910E-05 5.40634E-08 1.53400E-19 1.14016E-18
 -1      3732 9.52128E-05-2.84931E-05-2.85940E-05 6.58226E-08 1.02694E-18 1.64171E-18
 -1      3733 9.51956E-05-2.84728E-05-2.85952E-05 6.58438E-08 1.99934E-18 2.01353E-18
 -1      3734 9.52284E-05-2.85276E-05-2.85862E-05 3.69281E-08 8.46657E-19-2.71513E-19
 -1      3735 9.52254E-05-2.85185E-05-2.85886E-05 4.56765E-08 2.97392E-19 5.14594E-19
 -1      3736 9.52141E-05-2.85039E-05-2.85899E-05 4.71660E-08 4.70697E-19 4.15363E-19
 -1      3737 9.52346E-05-2.85424E-05-2.85825E-05 2.41770E-08-1.02946E-18-1.63291E-20
 -1      3738 9.52330E-05-2.85360E-05-2.85843E-05 3.05563E-08-5.22584E-19-2.85347E-19
 -1      3739 9.52258E-05-2.85258E-05-2.85856E-05 3.25595E-08-7.56520E-21 2.37747E-19
 -1      3740 9.52381E-05-2.85527E-05-2.85796E-05 1.49228E-08 6.63291E-19 1.59130E-19
 -1      3741 9.52373E-05-2.85482E-05-2.85810E-05 1.94747E-08 2.77549E-19-4.91033E-20
 -1      3742 9.52330E-05-2.85411E-05-2.85822E-05 2.14978E-08-5.98112E-19 8.61722E-19
 -1      3743 9.52400E-05-2.85598E-05-2.85773E-05 8.38375E-09 5.52208E-20-5.51736E-19
 -1      3744 9.52397E-05-2.85567E-05-2.85784E-05 1.15538E-08 8.60441E-19-6.40378E-19
 -1      3745 9.52373E-05-2.85518E-05-2.85795E-05 1.33737E-08 1.08518E-18-1.36160E-19
 -1      3746 9.52409E-05-2.85646E-05-2.85756E-05 3.89971E-09 1.25949E-18-1.55757E-18
 -1      3747 9.52409E-05-2.85625E-05-2.85764E-05 6.04340E-09 3.57048E-19-1.03093E-18
 -1      3748 9.52397E-05-2.85593E-05-2.85773E-05 7.58323E-09 5.00335E-19-1.46585E-18
 -1      3749 9.52412E-05-2.85679E-05-2.85743E-05 9.40771E-10 1.43455E-18-5.38625E-19
 -1      3750 9.52413E-05-2.85665E-05-2.85749E-05 2.33249E-09 5.46322E-19-7.63812E-19
 -1      3751 9.52410E-05-2.85644E-05-2.85757E-05 3.58615E-09 6.02156E-19-1.79846E-18
 -1      3752 9.52411E-05-2.85700E-05-2.85734E-05-8.44556E-10 2.16666E-18 1.34433E-19
 -1      3753 9.52413E-05-2.85691E-05-2.85738E-05-1.35798E-11 3.27861E-18-1.52698E-19
 -1      3754 9.52414E-05-2.85678E-05-2.85744E-05 9.78205E-10 2.09139E-18-3.34158E-19
 -1      3755 9.52408E-05-2.85713E-05-2.85726E-05-1.95843E-09 1.37558E-18-2.03095E-19
 -1      3756 9.52410E-05-2.85707E-05-2.85729E-05-1.45976E-09 1.99307E-18 7.71027E-19
 -1      3757 9.52414E-05-2.85700E-05-2.85735E-05-6.73985E-10 2.24110E-18 1.36746E-18
 -1      3758 9.52403E-05-2.85721E-05-2.85721E-05-2.52241E-09 2.16359E-20-1.04426E-18
 -1      3759 9.52406E-05-2.85718E-05-2.85723E-05-2.28305E-09 5.87029E-19-8.25107E-19
 -1      3760 9.52412E-05-2.85715E-05-2.85727E-05-1.67840E-09 1.65773E-18 3.55124E-19
 -1      3761 9.52399E-05-2.85726E-05-2.85717E-05-2.72211E-09 1.07903E-18-3.43957E-19
 -1      3762 9.52401E-05-2.85724E-05-2.85719E-05-2.65427E-09 6.94362E-19-8.65908E-19
 -1      3763 9.52407E-05-2.85723E-05-2.85722E-05-2.19288E-09 5.48656E-19-9.25815E-19
 -1      3764 9.52394E-05-2.85728E-05-2.85714E-05-2.68889E-09 1.19119E-18 1.90363E-18
 -1      3765 9.52396E-05-2.85727E-05-2.85715E-05-2.72985E-09 1.24816E-18 7.17415E-19
 -1      3766 9.52402E-05-2.85728E-05-2.85718E-05-2.37984E-09 9.40662E-19 1.48303E-18
 -1      3767 9.52389E-05-2.85728E-05-2.85712E-05-2.51640E-09 9.10942E-19 1.80185E-18
 -1      3768 9.52391E-05-2.85728E-05-2.85713E-05-2.61891E-09 1.90075E-18 2.07355E-18
 -1      3769 9.52397E-05-2.85729E-05-2.85715E-05-2.35795E-09 1.00877E-18 2.89743E-18
 -1      3770 9.24097E-05-2.57138E-05-2.85877E-05-8.36780E-08 2.31706E-19 1.57607E-18
 -1      3771 9.16782E-05-2.51348E-05-2.85431E-05-2.33287E-07 6.37008E-19 9.07551E-19
 -1      3772 9.26907E-05-2.60227E-05-2.85550E-05-4.92265E-07-4.27741E-19 2.11664E-18
 -1      3773 1.08684E-04-3.31635E-05-3.23649E-05-1.17807E-08 2.51906E-19-6.02244E-19
 -1      3774 9.09129E-05-2.44996E-05-2.84652E-05-6.55935E-07 5.33513E-19 3.46520E-19
 -1      3775 8.98015E-05-2.37100E-05-2.83644E-05-1.00811E-06 4.02509E-19 1.63651E-19
 -1      3776 9.14359E-05-2.50274E-05-2.84363E-05-1.23918E-06-3.52346E-20 1.11958E-18
 -1      3777 9.47713E-05-2.79339E-05-2.86465E-05 2.66043E-07-6.80002E-19 1.36981E-19
 -1      3778 9.46526E-05-2.78000E-05-2.86539E-05 3.01499E-07-1.49565E-18-1.42873E-19
 -1      3779 9.45150E-05-2.76827E-05-2.86374E-05 1.63407E-07-7.99877E-19 1.17986E-18
 -1      3780 9.47752E-05-2.79565E-05-2.86334E-05 1.80524E-07-5.72493E-19 5.02010E-19
 -1      3781 9.40579E-05-2.72003E-05-2.86566E-05 2.78503E-07-2.72120E-19 2.15196E-18
 -1      3782 9.37697E-05-2.69270E-05-2.86555E-05 2.85812E-07-3.99018E-19 2.34143E-18
 -1      3783 9.35488E-05-2.67626E-05-2.86109E-05-1.00991E-07-5.21989E-19 2.12325E-18
 -1      3784 9.41249E-05-2.72969E-05-2.86328E-05 8.61274E-08 2.60817E-19 2.37798E-18
 -1      3785 7.99209E-05-2.36284E-05-2.39526E-05-2.51689E-05 6.92443E-19-1.26023E-19
 -1      3786 9.07734E-05-3.21378E-05-2.51391E-05-2.73896E-05 1.25788E-18-3.17637E-20
 -1      3787 7.96203E-05-1.72690E-05-2.64800E-05 2.66185E-05 1.69302E-18-7.59881E-19
 -1      3788 1.27472E-04-4.79842E-05-3.40691E-05 2.47275E-07 9.70782E-19-6.93399E-19
 -1      3789 1.24042E-04-4.35063E-05-3.45775E-05 5.04811E-06 5.49122E-19 1.76146E-19
 -1      3790 1.23244E-04-4.75870E-05-3.24633E-05-2.87220E-06 7.75973E-19-2.67608E-19
 -1      3791 1.10073E-04-3.33792E-05-3.28786E-05-8.99468E-06-8.08602E-20-5.51386E-19
 -1      3792 1.09921E-04-3.24130E-05-3.32335E-05-9.64165E-06-2.39615E-19-5.59559E-19
 -1      3793 1.02373E-04-3.98975E-05-2.66666E-05-2.52155E-05 7.64725E-19-6.78023E-20
 -1      3794 1.12593E-04-4.63185E-05-2.85027E-05-2.07269E-05 1.05176E-18-1.63133E-19
 -1      3795 8.14883E-05-1.86895E-05-2.68843E-05-7.12796E-06 3.82443E-19-9.26201E-19
 -1      3796 7.80319E-05-1.72700E-05-2.61479E-05-9.41727E-06 2.49507E-19-1.22592E-18
 -1      3797 9.52389E-05-2.85729E-05-2.85711E-05-2.13148E-09-6.00057E-19 1.86412E-18
 -1      3798 9.52389E-05-2.85728E-05-2.85712E-05-2.36202E-09 3.90435E-19 1.66263E-18
 -1      3799 9.52394E-05-2.85730E-05-2.85713E-05-2.14474E-09 1.42899E-18 4.15831E-18
 -1      3800 9.52392E-05-2.85731E-05-2.85712E-05-1.83949E-09 5.61494E-19 2.61541E-18
 -1      3801 1.09560E-04-1.78244E-05-3.93835E-05 8.98132E-06-6.10843E-19-1.29404E-19
 -1      3802 1.08023E-04-1.49832E-05-3.99739E-05 5.43498E-06-6.35645E-19-2.20712E-19
 -1      3803 9.52393E-05-2.85733E-05-2.85711E-05-7.10539E-10-1.29658E-18 1.06867E-19
 -1      3804 9.52392E-05-2.85732E-05-2.85711E-05-1.06280E-09-8.85395E-19-9.28470E-19
 -1      3805 9.52393E-05-2.85732E-05-2.85712E-05-1.31172E-09-2.29736E-18 6.45971E-19
 -1      3806 9.52395E-05-2.85733E-05-2.85712E-05-5.25799E-10-1.26584E-18 1.09617E-18
 -1      3807 1.09399E-04-3.35404E-05-3.25388E-05-6.92194E-06 8.95936E-20-5.82911E-19
 -1      3808 1.09646E-04-3.35765E-05-3.26395E-05-7.76210E-06 5.30521E-20-5.07588E-19
 -1      3809 1.12673E-04-3.49073E-05-3.33391E-05-7.73340E-06-1.19749E-19-5.86176E-19
 -1      3810 1.11279E-04-3.46059E-05-3.28301E-05-5.33557E-06 1.27402E-19-6.14347E-19
 -1      3811 1.09787E-04-3.08950E-05-3.38658E-05-1.07077E-05-5.65676E-20-4.16894E-19
 -1      3812 1.08798E-04-2.85967E-05-3.43501E-05-1.07415E-05-1.78669E-19-3.76600E-19
 -1      3813 1.12677E-04-3.26450E-05-3.42450E-05-1.02486E-05-4.53266E-20-4.06352E-19
 -1      3814 1.07405E-04-1.35077E-05-4.03576E-05 1.70621E-06-5.15697E-19-1.06726E-19
 -1      3815 1.06532E-04-1.41084E-05-3.96411E-05-1.99175E-06-5.11873E-19 3.64158E-19
 -1      3816 8.96713E-05-2.37714E-05-2.82087E-05-2.57473E-06-3.09227E-20 6.15037E-19
 -1      3817 8.87379E-05-2.28979E-05-2.82159E-05-1.76357E-06 4.16648E-19-6.70000E-19
 -1      3818 8.70893E-05-2.18731E-05-2.80110E-05-2.47730E-06 6.39638E-19-6.89841E-19
 -1      3819 1.20599E-04-4.09714E-05-3.41125E-05-1.61932E-06 3.39703E-19 3.14024E-19
 -1      3820 1.04153E-04-2.01066E-05-3.61034E-05-7.19291E-06-8.78003E-19 8.99691E-20
 -1      3821 1.03090E-04-1.81636E-05-3.63640E-05-4.66514E-06-5.98421E-19 2.35727E-19
 -1      3822 9.52394E-05-2.85730E-05-2.85713E-05 1.78259E-09 1.12334E-18 1.49194E-18
 -1      3823 1.11513E-04-3.61395E-05-3.23691E-05 4.02547E-06 3.29215E-19-2.09005E-19
 -1      3824 1.13965E-04-3.73844E-05-3.28109E-05-6.91269E-07 2.20559E-19-3.25226E-19
 -1      3825 9.28193E-05-3.14586E-05-2.63298E-05-2.15228E-05 5.44662E-19 4.86462E-19
 -1      3826 9.76904E-05-3.60449E-05-2.63672E-05-2.42420E-05 9.35632E-19 1.03154E-19
 -1      3827 1.02549E-04-3.81814E-05-2.76195E-05-1.89289E-05 5.38954E-19 2.73248E-19
 -1      3828 1.11236E-04-2.16738E-05-3.84765E-05 1.08140E-05-3.29496E-19-4.03217E-20
 -1      3829 1.16830E-04-4.76902E-05-2.95063E-05-1.57921E-05 7.93445E-19-3.20364E-19
 -1      3830 1.18938E-04-4.75718E-05-3.06540E-05-9.73313E-06 4.94429E-19-2.17795E-19
 -1      3831 1.11144E-04-4.39798E-05-2.88350E-05-1.58199E-05 1.40725E-19 1.61002E-20
 -1      3832 9.52398E-05-2.85733E-05-2.85714E-05 5.27738E-10 1.08775E-19 1.84347E-18
 -1      3833 9.52399E-05-2.85733E-05-2.85714E-05 1.24527E-10-1.75956E-19 2.88537E-18
 -1      3834 1.10936E-04-1.69078E-05-4.04293E-05-8.91261E-06-6.61162E-19 4.61448E-19
 -1      3835 1.11257E-04-2.13475E-05-3.85646E-05-1.01935E-05-5.90925E-19 4.49427E-19
 -1      3836 1.10743E-04-3.61234E-05-3.19619E-05 7.95580E-06 5.80734E-19-3.26174E-20
 -1      3837 9.52396E-05-2.85731E-05-2.85713E-05 1.35395E-09 1.05443E-19 7.90075E-19
 -1      3838 9.52398E-05-2.85732E-05-2.85714E-05 9.86751E-10-1.27129E-19 1.07827E-19
 -1      3839 9.52401E-05-2.85732E-05-2.85715E-05 8.07945E-10 6.82722E-19 8.00810E-19
 -1      3840 9.52398E-05-2.85730E-05-2.85715E-05 1.68275E-09 1.25593E-18 1.05759E-18
 -1      3841 1.07278E-04-1.54890E-05-3.93985E-05-5.69882E-06-7.34318E-19 6.51837E-19
 -1      3842 1.21755E-04-3.68309E-05-3.64000E-05 1.01094E-05 4.63089E-19-1.73274E-19
 -1      3843 1.21813E-04-3.28587E-05-3.82137E-05 1.20321E-05 4.04220E-19-6.84065E-19
 -1      3844 8.56797E-05-2.09251E-05-2.77424E-05-3.76413E-06 7.41634E-19-5.98180E-19
 -1      3845 8.33135E-05-1.96936E-05-2.73525E-05-5.09410E-06 5.43633E-19-7.92345E-19
 -1      3846 8.72884E-05-2.23244E-05-2.77960E-05-4.84865E-06 7.57522E-19-6.92802E-19
 -1      3847 7.68344E-05-2.08846E-05-2.38424E-05-2.32733E-05 4.29512E-19-5.83923E-19
 -1      3848 8.37955E-05-2.49990E-05-2.51023E-05-2.20566E-05 7.85147E-19-1.11729E-19
 -1      3849 7.35257E-05-1.78692E-05-2.38592E-05-1.98671E-05-1.05846E-19-1.29395E-18
 -1      3850 1.05087E-04-1.64827E-05-3.80017E-05-3.35095E-06-4.53983E-19 5.27677E-19
 -1      3851 1.18551E-04-3.28791E-05-3.67544E-05-1.14816E-05-1.94884E-20-6.32396E-20
 -1      3852 1.17407E-04-3.53032E-05-3.52493E-05-9.08266E-06 1.23607E-19-9.92923E-20
 -1      3853 8.41675E-05-2.08467E-05-2.70772E-05-8.54169E-06-7.06884E-20-4.84059E-19
 -1      3854 1.14456E-04-2.86257E-05-3.68445E-05-1.19348E-05-1.58666E-19 2.49478E-21
 -1      3855 8.11344E-05-2.08205E-05-2.57765E-05-1.56343E-05-9.96753E-22-6.90649E-19
 -1      3856 7.65793E-05-1.75445E-05-2.52324E-05-1.42444E-05-2.67742E-20-1.05318E-18
 -1      3857 1.11248E-04-2.80062E-05-3.56644E-05-1.12919E-05-3.13025E-19-1.53882E-19
 -1      3858 1.17496E-04-3.89312E-05-3.36847E-05 7.50639E-06 5.28316E-20 8.85464E-20
 -1      3859 1.18829E-04-3.68319E-05-3.50959E-05 9.98589E-06 3.48210E-19-2.21191E-19
 -1      3860 1.07766E-04-2.09288E-05-3.71970E-05-9.34556E-06-7.72335E-19 4.74749E-19
 -1      3861 1.16553E-04-2.85711E-05-3.77208E-05 1.23136E-05 1.73443E-20-1.49508E-19
 -1      3862 1.17338E-04-4.10074E-05-3.26895E-05 5.60243E-06-9.54368E-20 1.74886E-19
 -1      3863 1.11396E-04-4.04379E-05-3.04404E-05 1.53061E-06 2.39666E-19 4.08392E-19
 -1      3864 1.09906E-04-3.99043E-05-2.99495E-05 1.49376E-07 3.88105E-19 5.28769E-19
 -1      3865 1.07607E-04-3.87749E-05-2.95202E-05-9.02479E-07-1.12695E-20 2.14151E-19
 -1      3866 1.06027E-04-3.77289E-05-2.92194E-05-1.70046E-06-4.51859E-19 3.12674E-19
 -1      3867 1.09426E-04-4.01553E-05-2.97139E-05-2.39038E-06-8.70715E-20 4.10143E-19
 -1      3868 1.04054E-04-3.64413E-05-2.89827E-05-2.09760E-06-3.54908E-19 8.96225E-20
 -1      3869 1.02639E-04-3.53127E-05-2.88145E-05-2.43921E-06-2.18509E-19 1.10627E-19
 -1      3870 1.05142E-04-3.74823E-05-2.90521E-05-3.63270E-06-3.11639E-19-7.96840E-20
 -1      3871 1.01149E-04-3.41760E-05-2.86969E-05-2.41477E-06 3.96748E-19 4.46216E-19
 -1      3872 1.00020E-04-3.31972E-05-2.86121E-05-2.47757E-06 8.19015E-19 1.24097E-18
 -1      3873 1.01701E-04-3.48161E-05-2.87095E-05-3.73481E-06 2.25563E-19 4.96374E-19
 -1      3874 9.89716E-05-3.23015E-05-2.85628E-05-2.25581E-06 7.93846E-19 1.19159E-18
 -1      3875 9.81390E-05-3.15389E-05-2.85274E-05-2.17211E-06 4.40889E-19 1.41881E-18
 -1      3876 9.91966E-05-3.26516E-05-2.85529E-05-3.29561E-06 7.57772E-19 9.03055E-19
 -1      3877 9.74486E-05-3.08901E-05-2.85142E-05-1.88748E-06 3.03383E-19 1.39358E-18
 -1      3878 9.68735E-05-3.03423E-05-2.85051E-05-1.74689E-06 3.35375E-19 1.47122E-18
 -1      3879 9.74925E-05-3.10501E-05-2.84985E-05-2.64806E-06 4.53440E-19 3.54722E-19
 -1      3880 9.64432E-05-2.99012E-05-2.85085E-05-1.47692E-06 1.92936E-19 1.72517E-18
 -1      3881 9.60670E-05-2.95303E-05-2.85118E-05-1.32984E-06 4.13653E-19 1.58431E-18
 -1      3882 9.64016E-05-2.99512E-05-2.84939E-05-2.00228E-06 2.88405E-19 1.35200E-18
 -1      3883 9.58143E-05-2.92470E-05-2.85214E-05-1.10430E-06-3.00427E-19 9.33853E-19
 -1      3884 9.55816E-05-2.90103E-05-2.85292E-05-9.74343E-07-6.38559E-19 3.77733E-19
 -1      3885 9.57406E-05-2.92393E-05-2.85100E-05-1.44986E-06-2.49589E-19 2.41891E-19
 -1      3886 9.54440E-05-2.88391E-05-2.85395E-05-7.99912E-07-7.27570E-20 4.58771E-19
 -1      3887 9.53090E-05-2.86973E-05-2.85477E-05-6.94790E-07 6.67466E-19 6.52139E-19
 -1      3888 9.53655E-05-2.88053E-05-2.85314E-05-1.01671E-06-3.68153E-19 1.89616E-19
 -1      3889 9.52426E-05-2.86018E-05-2.85565E-05-5.66500E-07 9.20274E-19 2.51522E-20
 -1      3890 9.51707E-05-2.85240E-05-2.85634E-05-4.85892E-07 2.06671E-19 1.71560E-19
 -1      3891 9.51714E-05-2.85593E-05-2.85512E-05-6.95822E-07 5.91188E-19-8.38586E-19
 -1      3892 9.51461E-05-2.84771E-05-2.85699E-05-3.94815E-07-1.95956E-19 1.40843E-18
 -1      3893 9.51131E-05-2.84400E-05-2.85748E-05-3.35075E-07 5.12981E-19 9.11168E-19
 -1      3894 9.50865E-05-2.84347E-05-2.85667E-05-4.67386E-07 6.28339E-19-1.98070E-20
 -1      3895 9.51113E-05-2.84228E-05-2.85791E-05-2.72057E-07 1.88164E-19 5.60616E-19
 -1      3896 9.51008E-05-2.84104E-05-2.85823E-05-2.28738E-07 5.39733E-19 8.58626E-20
 -1      3897 9.50637E-05-2.83846E-05-2.85775E-05-3.09478E-07 6.47787E-20-2.11998E-19
 -1      3898 9.51102E-05-2.84102E-05-2.85847E-05-1.85932E-07 1.08667E-18-1.43788E-19
 -1      3899 9.51117E-05-2.84116E-05-2.85863E-05-1.54936E-07 6.22131E-19-3.69222E-20
 -1      3900 9.50733E-05-2.83775E-05-2.85841E-05-2.02689E-07 4.77950E-19-5.93092E-19
 -1      3901 9.51254E-05-2.84201E-05-2.85874E-05-1.26232E-07-1.50085E-20 6.59509E-20
 -1      3902 9.51324E-05-2.84284E-05-2.85879E-05-1.04215E-07 2.78846E-19 1.54634E-19
 -1      3903 9.50974E-05-2.83931E-05-2.85875E-05-1.31612E-07-1.56235E-19 2.87251E-19
 -1      3904 9.51466E-05-2.84405E-05-2.85880E-05-8.51208E-08 7.55987E-19 1.95804E-19
 -1      3905 9.51554E-05-2.84515E-05-2.85877E-05-6.95380E-08 1.17641E-18 2.85629E-19
 -1      3906 9.51258E-05-2.84188E-05-2.85886E-05-8.48173E-08 3.74624E-19 9.48512E-19
 -1      3907 9.51683E-05-2.84643E-05-2.85872E-05-5.69038E-08 1.48417E-19 6.15039E-20
 -1      3908 9.51768E-05-2.84756E-05-2.85865E-05-4.58890E-08-4.45288E-19-3.47586E-19
 -1      3909 9.51531E-05-2.84471E-05-2.85881E-05-5.42146E-08 3.69459E-19 1.39853E-18
 -1      3910 9.51876E-05-2.84874E-05-2.85857E-05-3.75446E-08-3.08200E-19-5.24397E-20
 -1      3911 9.51950E-05-2.84978E-05-2.85847E-05-2.97684E-08-1.24385E-19 4.53039E-19
 -1      3912 9.51767E-05-2.84741E-05-2.85866E-05-3.42690E-08-1.67488E-20 1.05217E-18
 -1      3913 9.52035E-05-2.85080E-05-2.85837E-05-2.42696E-08 9.84164E-20 8.34436E-19
 -1      3914 9.52094E-05-2.85167E-05-2.85827E-05-1.88001E-08-2.85166E-19 1.62925E-18
 -1      3915 9.51959E-05-2.84978E-05-2.85847E-05-2.12664E-08 2.86129E-19 1.14839E-18
 -1      3916 9.52158E-05-2.85251E-05-2.85817E-05-1.51914E-08 7.31142E-20 1.64838E-18
 -1      3917 9.52203E-05-2.85322E-05-2.85807E-05-1.13583E-08 7.04793E-19 1.59350E-18
 -1      3918 9.52107E-05-2.85175E-05-2.85826E-05-1.28297E-08-2.30165E-19 1.72713E-18
 -1      3919 9.52250E-05-2.85388E-05-2.85798E-05-8.99683E-09 8.69105E-19 1.38246E-18
 -1      3920 9.52282E-05-2.85444E-05-2.85789E-05-6.34305E-09 2.38488E-19 1.37005E-18
 -1      3921 9.52216E-05-2.85332E-05-2.85806E-05-7.31983E-09 7.09502E-19 1.31140E-18
 -1      3922 9.52314E-05-2.85494E-05-2.85780E-05-4.82279E-09 1.35643E-18 1.91386E-18
 -1      3923 9.52336E-05-2.85535E-05-2.85772E-05-3.01347E-09 2.27078E-18 2.06433E-18
 -1      3924 9.52293E-05-2.85454E-05-2.85788E-05-3.75985E-09 1.14880E-18 1.78027E-18
 -1      3925 9.52357E-05-2.85572E-05-2.85765E-05-2.05197E-09 2.44861E-19 1.50510E-18
 -1      3926 9.52371E-05-2.85603E-05-2.85758E-05-8.48120E-10-1.68050E-18 1.91975E-18
 -1      3927 9.52346E-05-2.85545E-05-2.85771E-05-1.48058E-09 8.88764E-19 1.46367E-18
 -1      3928 9.52384E-05-2.85629E-05-2.85752E-05-2.63534E-10-2.58995E-18 2.02544E-18
 -1      3929 9.52393E-05-2.85651E-05-2.85747E-05 5.08240E-10-3.00067E-18 1.73708E-18
 -1      3930 9.52379E-05-2.85610E-05-2.85758E-05-5.22681E-11-1.24209E-18 2.50890E-18
 -1      3931 9.52400E-05-2.85669E-05-2.85742E-05 8.39606E-10-1.61213E-18 1.59273E-18
 -1      3932 9.52404E-05-2.85683E-05-2.85737E-05 1.30628E-09 1.86584E-19 1.80074E-18
 -1      3933 9.52398E-05-2.85657E-05-2.85746E-05 8.05160E-10-1.52204E-18 1.63710E-18
 -1      3934 9.52407E-05-2.85695E-05-2.85733E-05 1.46952E-09-7.51762E-20 6.57406E-19
 -1      3935 9.52408E-05-2.85705E-05-2.85730E-05 1.72431E-09-2.61271E-19 4.59777E-19
 -1      3936 9.52408E-05-2.85688E-05-2.85737E-05 1.28089E-09-5.90425E-19 1.48167E-19
 -1      3937 9.52408E-05-2.85712E-05-2.85727E-05 1.77856E-09 6.39884E-19 4.81781E-19
 -1      3938 9.52408E-05-2.85718E-05-2.85724E-05 1.88952E-09 1.26905E-18 4.49043E-19
 -1      3939 9.52411E-05-2.85708E-05-2.85730E-05 1.50392E-09 4.43148E-19 1.00027E-18
 -1      3940 9.52406E-05-2.85722E-05-2.85722E-05 1.87717E-09 1.73186E-18 9.63078E-19
 -1      3941 9.52405E-05-2.85725E-05-2.85720E-05 1.89338E-09 1.17350E-18 1.28407E-18
 -1      3942 9.52410E-05-2.85721E-05-2.85724E-05 1.56464E-09 1.60328E-18 1.15257E-18
 -1      3943 9.52403E-05-2.85727E-05-2.85718E-05 1.80901E-09 1.59923E-18 1.68980E-18
 -1      3944 9.52401E-05-2.85729E-05-2.85716E-05 1.77079E-09 2.36504E-18 1.36112E-18
 -1      3945 9.52402E-05-2.85731E-05-2.85717E-05 1.36230E-09 2.08670E-18 8.80010E-19
 -1      3946 9.52407E-05-2.85727E-05-2.85720E-05 1.50475E-09 1.83959E-18 1.81392E-18
 -1      3947 9.51198E-05-2.83778E-05-2.86041E-05 8.46378E-08 1.37961E-18 8.50773E-19
 -1      3948 9.50917E-05-2.83412E-05-2.86079E-05 9.69677E-08 1.06608E-18 1.16153E-18
 -1      3949 9.50534E-05-2.82965E-05-2.86106E-05 9.99687E-08 3.25825E-19 1.30101E-18
 -1      3950 9.50094E-05-2.82443E-05-2.86146E-05 1.11351E-07 4.57170E-19 1.87225E-18
 -1      3951 9.50569E-05-2.83074E-05-2.86059E-05 6.93578E-08 5.28167E-19 2.59022E-19
 -1      3952 9.49531E-05-2.81815E-05-2.86170E-05 1.07286E-07 1.14683E-19 1.57832E-18
 -1      3953 9.48847E-05-2.81072E-05-2.86207E-05 1.13827E-07-5.43235E-19 6.45181E-19
 -1      3954 9.49644E-05-2.82032E-05-2.86105E-05 6.36461E-08-3.76617E-20 7.17368E-19
 -1      3955 9.51620E-05-2.84332E-05-2.85984E-05 6.81447E-08 9.76681E-19 6.03763E-19
 -1      3956 9.51447E-05-2.84083E-05-2.86015E-05 7.90947E-08 9.31126E-19 6.41077E-19
 -1      3957 9.51185E-05-2.83814E-05-2.86010E-05 6.35675E-08 1.08172E-18-1.01084E-19
 -1      3958 9.51916E-05-2.84750E-05-2.85931E-05 5.17297E-08 1.73126E-18 1.44385E-18
 -1      3959 9.51799E-05-2.84564E-05-2.85959E-05 6.15580E-08 2.11125E-18 1.70942E-18
 -1      3960 9.51606E-05-2.84354E-05-2.85961E-05 5.31379E-08 1.02717E-18-4.19981E-19
 -1      3961 9.52109E-05-2.85049E-05-2.85885E-05 3.76376E-08 1.03991E-18 2.98602E-19
 -1      3962 9.52035E-05-2.84916E-05-2.85908E-05 4.55966E-08 1.01972E-18 1.54002E-18
 -1      3963 9.51898E-05-2.84757E-05-2.85915E-05 4.14985E-08 1.34938E-18 1.35386E-18
 -1      3964 9.52235E-05-2.85261E-05-2.85847E-05 2.62455E-08-6.65462E-19 2.13906E-19
 -1      3965 9.52189E-05-2.85167E-05-2.85866E-05 3.24336E-08 3.49146E-19 6.13082E-19
 -1      3966 9.52094E-05-2.85049E-05-2.85875E-05 3.07781E-08 4.69101E-19 4.29220E-19
 -1      3967 9.52315E-05-2.85413E-05-2.85816E-05 1.74243E-08 5.41899E-19 6.32656E-19
 -1      3968 9.52287E-05-2.85346E-05-2.85831E-05 2.20841E-08-8.73982E-19 8.38538E-19
 -1      3969 9.52224E-05-2.85260E-05-2.85841E-05 2.17767E-08-3.12982E-19 5.77856E-19
 -1      3970 9.52364E-05-2.85520E-05-2.85791E-05 1.08664E-08 1.33173E-18-2.70525E-19
 -1      3971 9.52348E-05-2.85473E-05-2.85803E-05 1.42651E-08 2.12966E-18 5.93336E-19
 -1      3972 9.52308E-05-2.85411E-05-2.85812E-05 1.46185E-08 1.37868E-18 9.13566E-19
 -1      3973 9.52393E-05-2.85595E-05-2.85771E-05 6.14614E-09 1.15652E-18-1.43392E-18
 -1      3974 9.52385E-05-2.85562E-05-2.85781E-05 8.55214E-09 6.99296E-19-7.18914E-19
 -1      3975 9.52361E-05-2.85519E-05-2.85789E-05 9.22474E-09 1.90933E-18 2.12629E-19
 -1      3976 9.52409E-05-2.85646E-05-2.85756E-05 2.87412E-09-7.30127E-19 1.06795E-19
 -1      3977 9.52405E-05-2.85624E-05-2.85763E-05 4.51652E-09 5.02766E-19-6.32901E-19
 -1      3978 9.52392E-05-2.85595E-05-2.85770E-05 5.29165E-09 1.92843E-19-7.88966E-19
 -1      3979 9.52415E-05-2.85680E-05-2.85744E-05 7.85387E-10 1.95082E-18 1.12897E-18
 -1      3980 9.52414E-05-2.85665E-05-2.85749E-05 1.82822E-09 1.62070E-19-2.31477E-19
 -1      3981 9.52409E-05-2.85646E-05-2.85755E-05 2.59135E-09-2.50557E-20 1.28921E-19
 -1      3982 9.52416E-05-2.85703E-05-2.85735E-05-6.22362E-10 2.82778E-18 9.81497E-19
 -1      3983 9.52417E-05-2.85693E-05-2.85739E-05 6.26432E-11 2.88577E-18 1.71385E-18
 -1      3984 9.52416E-05-2.85681E-05-2.85744E-05 7.77057E-10 1.44201E-18 9.44957E-19
 -1      3985 9.52414E-05-2.85717E-05-2.85727E-05-1.44099E-09 1.39322E-18 1.23219E-18
 -1      3986 9.52416E-05-2.85711E-05-2.85731E-05-1.04991E-09 2.64088E-18 1.84889E-18
 -1      3987 9.52418E-05-2.85704E-05-2.85735E-05-4.16209E-10 2.16679E-18 2.02449E-18
 -1      3988 9.52410E-05-2.85725E-05-2.85722E-05-1.85514E-09 4.75731E-19 3.82645E-19
 -1      3989 9.52412E-05-2.85722E-05-2.85724E-05-1.66583E-09 8.84950E-19 9.76178E-19
 -1      3990 9.52416E-05-2.85718E-05-2.85728E-05-1.11696E-09 1.53134E-18 2.78713E-18
 -1      3991 9.52404E-05-2.85729E-05-2.85718E-05-2.00309E-09 6.15995E-19 1.33760E-18
 -1      3992 9.52407E-05-2.85728E-05-2.85720E-05-1.94584E-09 5.79789E-19-1.28436E-19
 -1      3993 9.52411E-05-2.85726E-05-2.85722E-05-1.47631E-09 5.55492E-19 1.71215E-18
 -1      3994 9.52399E-05-2.85731E-05-2.85715E-05-1.97287E-09 1.36562E-18 1.24879E-18
 -1      3995 9.52401E-05-2.85730E-05-2.85716E-05-1.99713E-09 8.10253E-19 7.65955E-19
 -1      3996 9.52406E-05-2.85730E-05-2.85718E-05-1.59724E-09 3.92310E-19-8.01719E-19
 -1      3997 9.31067E-05-2.64946E-05-2.85448E-05-7.69886E-07-6.32909E-19 1.10333E-18
 -1      3998 9.25804E-05-2.61208E-05-2.85032E-05-1.07219E-06-4.36860E-19 1.00318E-18
 -1      3999 9.21571E-05-2.57650E-05-2.84458E-05-1.57151E-06-3.37492E-19 1.04888E-18
 -1      4000 9.14056E-05-2.52943E-05-2.83642E-05-2.11364E-06-4.72493E-19 3.46237E-19
 -1      4001 9.27055E-05-2.63100E-05-2.84439E-05-1.83305E-06-5.48373E-19 5.20651E-19
 -1      4002 9.52401E-05-2.85733E-05-2.85715E-05-1.00224E-10-9.80921E-20 2.09734E-18
 -1      4003 9.52398E-05-2.85734E-05-2.85714E-05-3.30665E-10-6.88113E-20 2.46465E-18
 -1      4004 9.52398E-05-2.85733E-05-2.85713E-05-7.32010E-10-9.37836E-19 9.93136E-19
 -1      4005 1.17676E-04-3.72278E-05-3.45121E-05-7.81900E-06 1.68016E-19-2.75378E-19
 -1      4006 8.43211E-05-2.42469E-05-2.57913E-05-1.86589E-05 2.39608E-19-1.86829E-19
 -1      4007 8.75749E-05-2.70406E-05-2.59449E-05-2.03095E-05 4.85487E-19 4.80711E-19
 -1      4008 9.34256E-05-3.05067E-05-2.68772E-05-1.80392E-05 2.41962E-19 3.05395E-19
 -1      4009 8.52366E-05-2.30828E-05-2.65512E-05-1.38994E-05 8.19347E-20-4.13148E-19
 -1      4010 7.06534E-05-1.35484E-05-2.43428E-05-1.26349E-05-4.21035E-21-1.88293E-18
 -1      4011 8.72217E-05-2.31639E-05-2.74001E-05-8.66724E-06-2.62146E-19-1.23233E-19
 -1      4012 8.54768E-05-2.27705E-05-2.69551E-05-1.10958E-05-3.13432E-19-3.01483E-19
 -1      4013 8.85496E-05-2.56557E-05-2.69416E-05-1.38667E-05-1.51377E-19-3.29152E-20
 -1      4014 1.15969E-04-3.79790E-05-3.34559E-05-3.64807E-06 1.25023E-19-3.53451E-19
 -1      4015 1.12600E-04-2.57328E-05-3.72881E-05 1.20754E-05-2.47744E-19-3.87253E-20
 -1      4016 1.13023E-04-2.86274E-05-3.61851E-05 1.17156E-05 1.35744E-19 1.26261E-19
 -1      4017 9.08868E-05-2.48999E-05-2.82644E-05-2.92608E-06-1.80849E-19 6.95448E-19
 -1      4018 8.98497E-05-2.43495E-05-2.81154E-05-3.85706E-06 1.36836E-19 7.02669E-19
 -1      4019 9.17847E-05-2.57480E-05-2.82886E-05-3.22329E-06-3.01966E-19 4.48339E-19
 -1      4020 9.42475E-05-2.74765E-05-2.86161E-05-7.81711E-08 2.80234E-19 2.19446E-18
 -1      4021 9.40091E-05-2.72735E-05-2.86093E-05-1.53536E-07-1.29024E-20 1.76391E-18
 -1      4022 9.52404E-05-2.85732E-05-2.85716E-05 8.85109E-10 9.45344E-19 5.19597E-19
 -1      4023 9.52404E-05-2.85733E-05-2.85716E-05 4.28525E-10 7.65081E-19 2.15744E-18
 -1      4024 9.52406E-05-2.85731E-05-2.85718E-05 9.57648E-10 1.00462E-18 1.44999E-18
 -1      4025 1.14197E-04-3.24779E-05-3.51682E-05 1.13888E-05 4.14316E-19 1.87485E-19
 -1      4026 1.14616E-04-4.01311E-05-3.19113E-05 5.35356E-06-2.42491E-19 5.58761E-20
 -1      4027 1.13617E-04-4.08269E-05-3.11507E-05 3.35851E-06-1.10419E-19 2.22011E-19
 -1      4028 9.44176E-05-2.76437E-05-2.86226E-05 1.41675E-08 4.83100E-19 1.76025E-18
 -1      4029 9.43549E-05-2.76046E-05-2.86027E-05-1.96170E-07 7.36904E-19 9.58459E-19
 -1      4030 9.45794E-05-2.77931E-05-2.86231E-05 4.50069E-08-3.52716E-19 7.48304E-19
 -1      4031 9.52407E-05-2.85732E-05-2.85718E-05 1.35906E-11 9.49183E-19 2.19007E-18
 -1      4032 9.52404E-05-2.85733E-05-2.85716E-05-3.95459E-11 8.66048E-19 2.23829E-18
 -1      4033 9.52404E-05-2.85733E-05-2.85716E-05-4.85888E-10 1.08156E-18 2.82348E-19
 -1      4034 1.15248E-04-3.79083E-05-3.31456E-05-2.30389E-06 1.73648E-19-3.41859E-19
 -1      4035 1.02774E-04-3.75093E-05-2.79050E-05-1.61765E-05 3.79868E-19 7.86100E-19
 -1      4036 1.07122E-04-4.08835E-05-2.82383E-05-1.68621E-05 1.77362E-19 2.73226E-19
 -1      4037 1.10273E-04-4.25772E-05-2.90314E-05-1.28617E-05 6.90357E-20 1.83694E-19
 -1      4038 9.34214E-05-2.67770E-05-2.85752E-05-4.79253E-07-7.28953E-19 1.00270E-18
 -1      4039 9.34243E-05-2.68285E-05-2.85320E-05-9.85354E-07-1.01876E-18 6.69215E-20
 -1      4040 9.37739E-05-2.70525E-05-2.85939E-05-3.23191E-07-9.57651E-19 1.63089E-18
 -1      4041 8.92731E-05-2.39887E-05-2.79502E-05-5.12949E-06 2.65443E-19 5.59350E-19
 -1      4042 8.79104E-05-2.34473E-05-2.76906E-05-6.65094E-06 5.18025E-19 2.01895E-19
 -1      4043 9.07153E-05-2.52690E-05-2.80318E-05-5.41702E-06 1.65649E-20 1.17526E-18
 -1      4044 1.13176E-04-2.51613E-05-3.77892E-05-1.20033E-05-5.44212E-19 2.41074E-19
 -1      4045 1.14016E-04-4.20040E-05-3.08605E-05 3.82823E-07 1.53475E-19 2.98510E-19
 -1      4046 9.48030E-05-2.80199E-05-2.86219E-05 9.54594E-08-6.14957E-19-2.28572E-19
 -1      4047 9.46975E-05-2.79143E-05-2.86245E-05 8.98554E-08-9.57178E-19-3.85855E-19
 -1      4048 9.46350E-05-2.78664E-05-2.86119E-05-4.10729E-08 1.64595E-19-2.35613E-19
 -1      4049 9.48297E-05-2.80605E-05-2.86132E-05 3.37796E-08-1.04472E-18-2.69403E-19
 -1      4050 1.20633E-04-4.76064E-05-3.12688E-05-6.36240E-06 7.09300E-19-1.91638E-19
 -1      4051 1.19885E-04-4.54069E-05-3.18848E-05-1.33451E-06 3.51287E-19 4.59366E-19
 -1      4052 8.95009E-05-2.50672E-05-2.76005E-05-8.84176E-06-2.43668E-19 2.86483E-19
 -1      4053 9.52396E-05-2.85733E-05-2.85713E-05-1.12974E-09-1.32283E-18-9.12277E-19
 -1      4054 9.52394E-05-2.85732E-05-2.85713E-05-1.49855E-09-3.68279E-19 7.98709E-19
 -1      4055 9.52395E-05-2.85731E-05-2.85713E-05-1.65730E-09 9.68065E-19 1.30668E-18
 -1      4056 9.52400E-05-2.85733E-05-2.85714E-05-9.35619E-10 1.32401E-18 7.67240E-20
 -1      4057 1.19007E-04-4.37008E-05-3.23182E-05 2.13552E-06 2.75540E-19 5.67621E-19
 -1      4058 1.15738E-04-4.54135E-05-3.02117E-05-8.31085E-06 8.49978E-20-6.17077E-21
 -1      4059 1.16752E-04-4.40155E-05-3.12216E-05-1.21170E-06 3.38539E-19 2.65068E-19
 -1      4060 1.14554E-04-4.33491E-05-3.04763E-05-3.00730E-06 6.82581E-20 3.53716E-19
 -1      4061 1.12641E-04-4.34367E-05-2.95740E-05-9.53037E-06-1.03965E-19-1.01568E-19
 -1      4062 1.13882E-04-4.36575E-05-3.01100E-05-6.27255E-06 3.20475E-20 1.83618E-19
 -1      4063 1.11397E-04-4.18672E-05-2.98471E-05-4.49974E-06-1.42989E-19 3.85966E-19
 -1      4064 1.08557E-04-4.10331E-05-2.89886E-05-1.09626E-05 1.97587E-19 2.86453E-19
 -1      4065 1.05680E-04-3.80447E-05-2.89973E-05-5.62969E-06-2.94906E-19 6.22742E-19
 -1      4066 1.03758E-04-3.64508E-05-2.87776E-05-5.67594E-06-2.26181E-19 8.63419E-19
 -1      4067 1.01880E-04-3.49736E-05-2.86511E-05-5.29591E-06 5.85991E-20 9.88228E-19
 -1      4068 1.00361E-04-3.36762E-05-2.85443E-05-5.01966E-06 5.50692E-19 1.24552E-18
 -1      4069 1.02023E-04-3.56083E-05-2.85917E-05-7.22378E-06 9.38850E-20 1.74316E-18
 -1      4070 9.91583E-05-3.25822E-05-2.85043E-05-4.40337E-06 5.26793E-19 1.22077E-18
 -1      4071 9.80819E-05-3.16297E-05-2.84639E-05-4.00575E-06 7.47027E-19 1.09141E-18
 -1      4072 9.89214E-05-3.27913E-05-2.84401E-05-5.84738E-06 4.47070E-19 1.51039E-18
 -1      4073 9.73662E-05-3.08878E-05-2.84643E-05-3.40059E-06 4.95035E-19 9.30823E-19
 -1      4074 9.66523E-05-3.02409E-05-2.84568E-05-3.00020E-06 2.12548E-19 9.90010E-19
 -1      4075 9.70435E-05-3.08858E-05-2.84135E-05-4.41172E-06 2.46124E-19 1.19232E-18
 -1      4076 9.62534E-05-2.97718E-05-2.84719E-05-2.48603E-06 5.18434E-19 5.76348E-19
 -1      4077 9.58074E-05-2.93581E-05-2.84787E-05-2.14550E-06 1.50127E-19 3.89566E-19
 -1      4078 9.59335E-05-2.96624E-05-2.84365E-05-3.16366E-06 1.64792E-19 6.46127E-20
 -1      4079 9.56040E-05-2.90762E-05-2.84968E-05-1.74811E-06-1.95121E-19-2.60220E-19
 -1      4080 9.53406E-05-2.88276E-05-2.85081E-05-1.48095E-06-6.81191E-19-5.94473E-19
 -1      4081 9.53372E-05-2.89401E-05-2.84745E-05-2.18207E-06-7.07352E-19-4.07587E-19
 -1      4082 9.52520E-05-2.86709E-05-2.85242E-05-1.19172E-06-6.78466E-19-5.04584E-19
 -1      4083 9.51072E-05-2.85320E-05-2.85352E-05-9.93703E-07-4.83280E-19-8.84048E-19
 -1      4084 9.50448E-05-2.85424E-05-2.85111E-05-1.45575E-06-8.80359E-19-7.71988E-19
 -1      4085 9.50824E-05-2.84545E-05-2.85477E-05-7.91970E-07-2.99451E-20-9.94266E-19
 -1      4086 9.50112E-05-2.83854E-05-2.85567E-05-6.51198E-07 7.53622E-19-1.32926E-18
 -1      4087 9.49288E-05-2.83459E-05-2.85406E-05-9.43797E-07-3.18082E-19-4.63235E-19
 -1      4088 9.50191E-05-2.83556E-05-2.85654E-05-5.15248E-07 1.26121E-18-1.23771E-18
 -1      4089 9.49913E-05-2.83288E-05-2.85719E-05-4.18284E-07 7.26752E-19-6.80741E-19
 -1      4090 9.49088E-05-2.82692E-05-2.85621E-05-5.96238E-07 7.09943E-19-1.44288E-18
 -1      4091 9.50138E-05-2.83262E-05-2.85775E-05-3.29200E-07 6.52655E-19-3.73810E-19
 -1      4092 9.50100E-05-2.83235E-05-2.85817E-05-2.64042E-07 3.21992E-19-3.96773E-19
 -1      4093 9.49362E-05-2.82595E-05-2.85764E-05-3.67546E-07 1.09188E-18-2.38291E-18
 -1      4094 9.50369E-05-2.83348E-05-2.85849E-05-2.07117E-07-7.84286E-20-4.03942E-19
 -1      4095 9.50450E-05-2.83447E-05-2.85872E-05-1.64123E-07 3.94061E-19-6.31319E-19
 -1      4096 9.49831E-05-2.82845E-05-2.85850E-05-2.21178E-07 9.57114E-20-1.32187E-18
 -1      4097 9.50711E-05-2.83621E-05-2.85886E-05-1.28577E-07 1.76110E-19-4.41828E-19
 -1      4098 9.50841E-05-2.83774E-05-2.85895E-05-1.00581E-07 3.92688E-19 3.63104E-20
 -1      4099 9.50342E-05-2.83245E-05-2.85894E-05-1.29817E-07 4.65028E-19-1.00591E-18
 -1      4100 9.51070E-05-2.83963E-05-2.85898E-05-7.88479E-08 4.53178E-19 1.20255E-18
 -1      4101 9.51208E-05-2.84129E-05-2.85898E-05-6.07376E-08 7.56402E-19 1.89537E-18
 -1      4102 9.50817E-05-2.83684E-05-2.85909E-05-7.41485E-08 1.41101E-18-8.53603E-20
 -1      4103 9.51398E-05-2.84309E-05-2.85893E-05-4.77804E-08 2.99046E-20 2.00333E-18
 -1      4104 9.51524E-05-2.84466E-05-2.85887E-05-3.61326E-08-2.85690E-19 1.30542E-18
 -1      4105 9.51226E-05-2.84103E-05-2.85905E-05-4.10453E-08 6.62035E-19 1.52214E-18
 -1      4106 9.51674E-05-2.84623E-05-2.85878E-05-2.85225E-08-1.74205E-19 9.88458E-19
 -1      4107 9.51780E-05-2.84761E-05-2.85868E-05-2.10364E-08-1.73159E-19 1.12374E-18
 -1      4108 9.51558E-05-2.84471E-05-2.85890E-05-2.17649E-08-3.39269E-19 6.44108E-19
 -1      4109 9.51895E-05-2.84893E-05-2.85857E-05-1.66763E-08-2.85564E-19 7.16543E-19
 -1      4110 9.51979E-05-2.85008E-05-2.85847E-05-1.18485E-08-6.94970E-19 4.35092E-19
 -1      4111 9.51816E-05-2.84781E-05-2.85869E-05-1.08598E-08-6.69726E-19-5.06028E-19
 -1      4112 9.52064E-05-2.85114E-05-2.85836E-05-9.36504E-09-2.97051E-19 1.04108E-18
 -1      4113 9.52128E-05-2.85206E-05-2.85825E-05-6.30955E-09-3.36153E-19 5.35953E-19
 -1      4114 9.52011E-05-2.85031E-05-2.85846E-05-4.84673E-09-7.85125E-19-7.76085E-19
 -1      4115 9.52188E-05-2.85289E-05-2.85814E-05-4.97403E-09 3.89291E-19 8.89566E-19
 -1      4116 9.52235E-05-2.85360E-05-2.85804E-05-2.97709E-09 6.23792E-19 5.11754E-19
 -1      4117 9.52155E-05-2.85232E-05-2.85823E-05-1.48074E-09-2.05557E-19-6.78810E-20
 -1      4118 9.52277E-05-2.85423E-05-2.85794E-05-2.30359E-09 8.23441E-19 1.63764E-19
 -1      4119 9.52309E-05-2.85477E-05-2.85786E-05-1.01154E-09 1.43878E-18 9.49397E-19
 -1      4120 9.52256E-05-2.85383E-05-2.85802E-05 3.86952E-11 4.06968E-19 5.63239E-20
 -1      4121 9.52336E-05-2.85524E-05-2.85777E-05-6.85077E-10 1.08513E-18 9.48303E-19
 -1      4122 9.52358E-05-2.85563E-05-2.85769E-05 1.40360E-10 1.98107E-19 6.56908E-19
 -1      4123 9.52324E-05-2.85495E-05-2.85783E-05 7.79557E-10 9.40481E-19 1.04757E-18
 -1      4124 9.52375E-05-2.85597E-05-2.85762E-05 2.68183E-10-4.29946E-19 1.00775E-18
 -1      4125 9.52388E-05-2.85625E-05-2.85756E-05 7.83092E-10-1.48639E-18 1.60601E-18
 -1      4126 9.52368E-05-2.85577E-05-2.85768E-05 1.07268E-09-1.90544E-19 5.12658E-19
 -1      4127 9.52398E-05-2.85648E-05-2.85750E-05 8.05265E-10-1.85487E-18 1.62482E-18
 -1      4128 9.52405E-05-2.85667E-05-2.85745E-05 1.11169E-09-1.45829E-18 8.65159E-19
 -1      4129 9.52395E-05-2.85635E-05-2.85754E-05 1.13916E-09-1.94823E-18 4.85471E-19
 -1      4130 9.52409E-05-2.85683E-05-2.85740E-05 1.08011E-09-1.05038E-18 4.78393E-19
 -1      4131 9.52412E-05-2.85696E-05-2.85736E-05 1.24705E-09 9.04028E-20 3.84960E-19
 -1      4132 9.52409E-05-2.85675E-05-2.85743E-05 1.09688E-09-1.03565E-18 1.18836E-18
 -1      4133 9.52414E-05-2.85706E-05-2.85732E-05 1.18984E-09 5.91922E-19 3.64229E-19
 -1      4134 9.52414E-05-2.85714E-05-2.85729E-05 1.26400E-09 6.06457E-19 1.43615E-18
 -1      4135 9.52415E-05-2.85701E-05-2.85735E-05 1.00793E-09 3.68536E-19 9.74155E-19
 -1      4136 9.52413E-05-2.85720E-05-2.85726E-05 1.19471E-09 1.63241E-18 1.36209E-18
 -1      4137 9.52412E-05-2.85724E-05-2.85723E-05 1.20597E-09 2.31494E-18 8.22114E-19
 -1      4138 9.52415E-05-2.85717E-05-2.85728E-05 9.02885E-10 1.13032E-18 1.04543E-18
 -1      4139 9.50677E-05-2.83308E-05-2.86016E-05 3.89864E-08 6.78383E-19-4.77488E-19
 -1      4140 9.50289E-05-2.82893E-05-2.86039E-05 3.81015E-08 8.68407E-19-1.18270E-19
 -1      4141 9.51219E-05-2.83940E-05-2.85978E-05 4.08366E-08 1.30980E-18-7.78116E-19
 -1      4142 9.50966E-05-2.83646E-05-2.86001E-05 4.41174E-08 6.05272E-19-8.92545E-19
 -1      4143 9.50762E-05-2.83448E-05-2.85983E-05 1.54725E-08 1.01907E-18-1.60657E-18
 -1      4144 9.49874E-05-2.82423E-05-2.86049E-05 2.36359E-08 7.27996E-19 3.06690E-19
 -1      4145 9.49302E-05-2.81864E-05-2.86065E-05 1.34690E-08 1.98259E-19 4.25800E-19
 -1      4146 9.50062E-05-2.82694E-05-2.86004E-05-7.40868E-09 1.16421E-18-1.41581E-18
 -1      4147 9.51900E-05-2.84808E-05-2.85898E-05 2.95770E-08 1.22288E-18 1.49083E-19
 -1      4148 9.51778E-05-2.84640E-05-2.85919E-05 3.47699E-08 1.09181E-18 1.66494E-19
 -1      4149 9.52090E-05-2.85081E-05-2.85863E-05 2.24441E-08-5.10567E-19 8.33453E-19
 -1      4150 9.52010E-05-2.84957E-05-2.85881E-05 2.71120E-08 2.13377E-19 4.08210E-19
 -1      4151 9.51911E-05-2.84838E-05-2.85884E-05 2.08230E-08 1.20890E-19-1.33188E-19
 -1      4152 9.52220E-05-2.85280E-05-2.85832E-05 1.60739E-08 5.45223E-19-1.03235E-19
 -1      4153 9.52166E-05-2.85190E-05-2.85847E-05 1.99438E-08-1.40564E-19 3.90456E-19
 -1      4154 9.52094E-05-2.85099E-05-2.85853E-05 1.65464E-08-6.69605E-20 1.90387E-19
 -1      4155 9.52304E-05-2.85425E-05-2.85806E-05 1.09651E-08 1.66835E-18-2.10933E-19
 -1      4156 9.52271E-05-2.85360E-05-2.85819E-05 1.39545E-08 1.31563E-18 3.73830E-20
 -1      4157 9.52223E-05-2.85294E-05-2.85825E-05 1.22304E-08 1.34005E-18 2.62754E-19
 -1      4158 9.52358E-05-2.85529E-05-2.85785E-05 6.94293E-09 2.02900E-18-7.46509E-19
 -1      4159 9.52338E-05-2.85482E-05-2.85795E-05 9.18633E-09 2.42652E-18-9.67843E-20
 -1      4160 9.52305E-05-2.85433E-05-2.85801E-05 8.46287E-09 1.90712E-18-5.88569E-20
 -1      4161 9.52391E-05-2.85602E-05-2.85767E-05 3.99620E-09-1.95090E-19-6.38119E-19
 -1      4162 9.52379E-05-2.85569E-05-2.85776E-05 5.60788E-09 5.52309E-19-8.96733E-19
 -1      4163 9.52359E-05-2.85534E-05-2.85781E-05 5.48311E-09 1.00378E-18-4.44490E-19
 -1      4164 9.52408E-05-2.85650E-05-2.85754E-05 2.00877E-09 1.81458E-19-8.58776E-19
 -1      4165 9.52403E-05-2.85629E-05-2.85760E-05 3.08931E-09 1.86664E-20-1.13830E-19
 -1      4166 9.52391E-05-2.85605E-05-2.85765E-05 3.30505E-09-8.96410E-20-1.09493E-18
 -1      4167 9.52417E-05-2.85685E-05-2.85743E-05 5.86784E-10 8.10567E-19 1.98224E-19
 -1      4168 9.52415E-05-2.85670E-05-2.85748E-05 1.34350E-09-3.23358E-19-3.61482E-19
 -1      4169 9.52409E-05-2.85653E-05-2.85752E-05 1.74716E-09-4.87352E-19-1.51581E-18
 -1      4170 9.52419E-05-2.85707E-05-2.85734E-05-3.13490E-10 1.61466E-18 1.84288E-18
 -1      4171 9.52419E-05-2.85697E-05-2.85738E-05 1.61383E-10 2.25878E-18 1.30008E-18
 -1      4172 9.52417E-05-2.85687E-05-2.85741E-05 6.50798E-10 5.90137E-19 2.92062E-19
 -1      4173 9.52417E-05-2.85721E-05-2.85727E-05-8.40845E-10 1.98378E-18 2.10277E-18
 -1      4174 9.52418E-05-2.85715E-05-2.85730E-05-5.67291E-10 1.70792E-18 2.00408E-18
 -1      4175 9.52419E-05-2.85709E-05-2.85733E-05-5.53070E-11 1.68506E-18 2.10894E-18
 -1      4176 9.52412E-05-2.85728E-05-2.85722E-05-1.11400E-09 1.39680E-18 6.64927E-19
 -1      4177 9.52415E-05-2.85725E-05-2.85724E-05-9.74182E-10 1.94334E-18 1.67023E-18
 -1      4178 9.52417E-05-2.85722E-05-2.85726E-05-4.79001E-10 2.33088E-18 1.50679E-18
 -1      4179 9.52405E-05-2.85732E-05-2.85717E-05-1.06018E-09 1.28061E-18-5.29310E-20
 -1      4180 9.52408E-05-2.85731E-05-2.85719E-05-1.01550E-09 1.21981E-18 5.71021E-19
 -1      4181 9.52396E-05-2.85731E-05-2.85714E-05-1.80308E-09 1.14403E-18 1.11492E-18
 -1      4182 9.52400E-05-2.85732E-05-2.85715E-05-1.47238E-09 1.38807E-18-1.38716E-18
 -1      4183 9.39606E-05-2.72605E-05-2.85793E-05-4.84993E-07-4.02738E-19 2.00251E-19
 -1      4184 9.51621E-05-2.84439E-05-2.85937E-05 3.64363E-08 2.79006E-19-3.41322E-19
 -1      4185 9.51440E-05-2.84209E-05-2.85960E-05 4.14599E-08 1.11235E-18-4.41447E-19
 -1      4186 9.51646E-05-2.84492E-05-2.85918E-05 2.39453E-08 4.78542E-19-1.87433E-18
 -1      4187 9.52402E-05-2.85733E-05-2.85716E-05-1.07595E-09 1.60271E-18-6.76901E-20
 -1      4188 9.18712E-05-2.77183E-05-2.74082E-05-1.23702E-05-4.20170E-19 3.40244E-19
 -1      4189 9.16031E-05-2.85414E-05-2.70587E-05-1.52102E-05 2.46169E-20 2.78439E-19
 -1      4190 9.65488E-05-3.28232E-05-2.74169E-05-1.60832E-05 2.35292E-19 2.77582E-19
 -1      4191 1.09103E-04-4.03587E-05-2.94042E-05-5.32251E-06-2.35937E-19 2.91157E-19
 -1      4192 9.18516E-05-2.66898E-05-2.78667E-05-8.01804E-06-1.11500E-19 5.71375E-19
 -1      4193 9.11874E-05-2.68798E-05-2.76054E-05-1.01148E-05-4.59999E-19 5.57106E-20
 -1      4194 9.41122E-05-2.96436E-05-2.77291E-05-1.13890E-05-2.49226E-19 6.14195E-19
 -1      4195 9.33586E-05-2.69047E-05-2.84655E-05-1.85057E-06-6.18481E-19 2.17115E-20
 -1      4196 9.29296E-05-2.67005E-05-2.84080E-05-2.40498E-06-3.81047E-19 1.09380E-19
 -1      4197 9.52409E-05-2.85731E-05-2.85719E-05 2.97491E-10 7.29548E-19 3.33972E-18
 -1      4198 9.52410E-05-2.85732E-05-2.85719E-05-1.75395E-10 1.56452E-18 1.50255E-18
 -1      4199 9.44993E-05-2.77717E-05-2.85948E-05-2.70245E-07 2.74019E-19 1.10633E-19
 -1      4200 9.43268E-05-2.76429E-05-2.85867E-05-3.83135E-07 3.61704E-20-5.31714E-19
 -1      4201 9.49086E-05-2.81711E-05-2.86006E-05-5.80543E-08-6.16270E-19-7.26661E-19
 -1      4202 9.48742E-05-2.81249E-05-2.86063E-05-1.75556E-08-1.60418E-18 5.54824E-19
 -1      4203 9.47912E-05-2.80505E-05-2.86064E-05-4.51292E-08-1.57975E-18 1.62143E-19
 -1      4204 9.51271E-05-2.84033E-05-2.85952E-05 2.34793E-08 8.67038E-19-1.61350E-18
 -1      4205 9.52411E-05-2.85730E-05-2.85720E-05-5.59389E-10 1.43926E-18 4.26698E-19
 -1      4206 1.00267E-04-3.42873E-05-2.81969E-05-1.09631E-05-1.99114E-19 1.42692E-18
 -1      4207 1.02046E-04-3.62353E-05-2.81410E-05-1.29028E-05 6.72465E-20 9.00085E-19
 -1      4208 9.42064E-05-2.75218E-05-2.85741E-05-5.63247E-07-2.96328E-19-1.09127E-18
 -1      4209 9.39679E-05-2.73624E-05-2.85569E-05-7.61843E-07-9.08443E-19-1.18692E-18
 -1      4210 9.43819E-05-2.77241E-05-2.85676E-05-6.33966E-07-7.48187E-19-1.84789E-18
 -1      4211 9.21882E-05-2.64108E-05-2.81519E-05-5.12625E-06-1.76170E-19 3.89869E-19
 -1      4212 9.16025E-05-2.63745E-05-2.79969E-05-6.47117E-06-8.24305E-20 2.98300E-19
 -1      4213 9.33189E-05-2.80858E-05-2.80161E-05-7.68350E-06-2.69537E-19 6.45962E-20
 -1      4214 9.38263E-05-2.72256E-05-2.85345E-05-1.05586E-06-1.06726E-18-4.68439E-19
 -1      4215 9.35060E-05-2.70399E-05-2.85026E-05-1.38735E-06-8.95185E-19-2.69474E-19
 -1      4216 9.38067E-05-2.73839E-05-2.84735E-05-1.90791E-06-4.96493E-19 5.62503E-20
 -1      4217 9.41118E-05-2.75417E-05-2.85323E-05-1.12669E-06-6.00391E-19-1.00198E-18
 -1      4218 1.07109E-04-3.94260E-05-2.90594E-05-7.72585E-06-4.14348E-19 4.51826E-19
 -1      4219 9.28085E-05-2.66040E-05-2.83484E-05-3.12621E-06-2.36869E-19 2.45805E-19
 -1      4220 9.22807E-05-2.64382E-05-2.82523E-05-3.99853E-06-5.99618E-20 4.19256E-19
 -1      4221 9.35124E-05-2.73267E-05-2.83804E-05-3.11827E-06-3.49815E-19 1.63811E-20
 -1      4222 9.52413E-05-2.85727E-05-2.85723E-05 4.95065E-10 2.71632E-18 2.22270E-18
 -1      4223 9.52411E-05-2.85727E-05-2.85721E-05 8.39120E-10 2.21091E-18 1.66137E-18
 -1      4224 9.52409E-05-2.85730E-05-2.85720E-05 7.87719E-10 1.39883E-18 2.37776E-18
 -1      4225 9.52228E-05-2.85323E-05-2.85817E-05 7.66426E-09 4.29680E-19 3.43941E-19
 -1      4226 9.52176E-05-2.85241E-05-2.85830E-05 9.54870E-09 8.76987E-19-5.01665E-19
 -1      4227 9.82791E-05-3.25276E-05-2.81019E-05-1.00870E-05 7.30061E-20 1.32356E-18
 -1      4228 9.47165E-05-2.79708E-05-2.86039E-05-1.04759E-07 2.39027E-20 3.89968E-19
 -1      4229 9.45963E-05-2.78723E-05-2.86012E-05-1.63495E-07 5.00116E-19 5.74252E-19
 -1      4230 9.46036E-05-2.78974E-05-2.85874E-05-3.32788E-07-2.16987E-19 4.36965E-19
 -1      4231 9.47774E-05-2.80478E-05-2.85971E-05-1.56026E-07-5.15666E-19 8.14596E-19
 -1      4232 9.74417E-05-3.14007E-05-2.82168E-05-8.10678E-06 3.43942E-21 1.26175E-18
 -1      4233 9.61656E-05-3.02596E-05-2.81948E-05-7.24777E-06 8.96953E-20 9.40499E-19
 -1      4234 9.57964E-05-2.96550E-05-2.82844E-05-5.79367E-06 3.23130E-20 6.61657E-19
 -1      4235 9.50479E-05-2.89695E-05-2.82970E-05-5.03708E-06-3.26881E-20 4.20796E-19
 -1      4236 9.50321E-05-2.87274E-05-2.83749E-05-3.90644E-06-1.86792E-19 4.62320E-19
 -1      4237 9.46175E-05-2.83411E-05-2.83959E-05-3.31531E-06-5.77278E-19 2.74008E-19
 -1      4238 9.46758E-05-2.82424E-05-2.84456E-05-2.58341E-06-4.84783E-19 1.38433E-19
 -1      4239 9.44732E-05-2.80465E-05-2.84672E-05-2.14186E-06-8.64843E-19-1.53321E-19
 -1      4240 9.45832E-05-2.80443E-05-2.85007E-05-1.65648E-06-1.11821E-18-9.46211E-20
 -1      4241 9.44989E-05-2.79592E-05-2.85183E-05-1.34370E-06-7.39534E-19-1.14199E-19
 -1      4242 9.46163E-05-2.80011E-05-2.85398E-05-1.02818E-06-6.13432E-19-8.50293E-20
 -1      4243 9.45962E-05-2.79783E-05-2.85527E-05-8.15474E-07-2.46072E-19-3.93803E-19
 -1      4244 9.47019E-05-2.80358E-05-2.85656E-05-6.16721E-07-2.01806E-19-5.45837E-19
 -1      4245 9.47138E-05-2.80456E-05-2.85743E-05-4.76857E-07-3.27079E-19-1.02348E-18
 -1      4246 9.48020E-05-2.81047E-05-2.85814E-05-3.54938E-07 5.95638E-19-6.95572E-19
 -1      4247 9.48275E-05-2.81296E-05-2.85868E-05-2.65748E-07 7.34105E-19-8.18302E-19
 -1      4248 9.48971E-05-2.81831E-05-2.85902E-05-1.94679E-07-2.53608E-19-1.64231E-18
 -1      4249 9.49263E-05-2.82131E-05-2.85930E-05-1.39299E-07-8.93027E-19-1.85349E-18
 -1      4250 9.49794E-05-2.82584E-05-2.85940E-05-9.99833E-08-2.49474E-19-1.70333E-18
 -1      4251 9.50072E-05-2.82881E-05-2.85952E-05-6.65107E-08 7.79894E-19-1.57548E-18
 -1      4252 9.50472E-05-2.83256E-05-2.85948E-05-4.60479E-08 1.86895E-18-1.71711E-18
 -1      4253 9.50714E-05-2.83524E-05-2.85948E-05-2.64917E-08 1.79446E-18-1.31290E-18
 -1      4254 9.50996E-05-2.83810E-05-2.85937E-05-1.74488E-08 1.17577E-18-1.53132E-18
 -1      4255 9.51195E-05-2.84039E-05-2.85931E-05-6.25138E-09 4.62535E-19-1.37122E-18
 -1      4256 9.51413E-05-2.84278E-05-2.85916E-05-2.74964E-09-1.98113E-19-1.61299E-18
 -1      4257 9.51569E-05-2.84468E-05-2.85906E-05 3.36417E-09-1.11790E-19-2.11063E-18
 -1      4258 9.51725E-05-2.84652E-05-2.85890E-05 3.67972E-09 2.98790E-19-1.88125E-18
 -1      4259 9.51844E-05-2.84804E-05-2.85878E-05 6.86742E-09-7.74892E-19-1.29330E-18
 -1      4260 9.51955E-05-2.84945E-05-2.85863E-05 5.73768E-09-1.21195E-18-4.93681E-19
 -1      4261 9.52043E-05-2.85063E-05-2.85850E-05 7.25919E-09-4.60700E-19-4.71886E-19
 -1      4262 9.52141E-05-2.85207E-05-2.85828E-05 1.31908E-09 4.20970E-19-2.67821E-19
 -1      4263 9.52202E-05-2.85297E-05-2.85817E-05 2.05826E-09 3.79215E-19 6.02533E-20
 -1      4264 9.52249E-05-2.85369E-05-2.85806E-05 1.89442E-09 4.16155E-19 1.99795E-19
 -1      4265 9.52289E-05-2.85432E-05-2.85796E-05 2.24643E-09 1.26322E-18 3.30745E-19
 -1      4266 9.52239E-05-2.85346E-05-2.85811E-05 4.42462E-09 7.14301E-19-3.82245E-19
 -1      4267 9.52320E-05-2.85486E-05-2.85787E-05 1.88543E-09 1.83830E-18 5.46710E-19
 -1      4268 9.52347E-05-2.85532E-05-2.85778E-05 2.00477E-09 7.31284E-19 7.67029E-19
 -1      4269 9.52316E-05-2.85471E-05-2.85790E-05 3.52062E-09 1.78245E-18 7.07814E-19
 -1      4270 9.52367E-05-2.85571E-05-2.85770E-05 1.64061E-09-6.60838E-19 5.25032E-19
 -1      4271 9.52384E-05-2.85604E-05-2.85763E-05 1.64845E-09-3.60411E-19 4.90977E-19
 -1      4272 9.52365E-05-2.85560E-05-2.85773E-05 2.58582E-09-8.92676E-20 6.01902E-19
 -1      4273 9.52395E-05-2.85631E-05-2.85756E-05 1.33941E-09-1.34541E-18 5.15026E-20
 -1      4274 9.52405E-05-2.85654E-05-2.85750E-05 1.29967E-09-1.08010E-18 8.38266E-19
 -1      4275 9.52394E-05-2.85624E-05-2.85759E-05 1.79372E-09-1.10638E-18 6.83659E-19
 -1      4276 9.52410E-05-2.85672E-05-2.85745E-05 1.05652E-09-1.35041E-18 9.64643E-19
 -1      4277 9.52415E-05-2.85687E-05-2.85740E-05 1.00344E-09 2.48659E-19 1.24398E-18
 -1      4278 9.52410E-05-2.85668E-05-2.85747E-05 1.18007E-09-6.03558E-19 1.07451E-18
 -1      4279 9.52416E-05-2.85699E-05-2.85736E-05 8.20820E-10 3.44560E-19 1.78934E-18
 -1      4280 9.52417E-05-2.85709E-05-2.85732E-05 7.67878E-10 8.08270E-19 1.47750E-18
 -1      4281 9.52417E-05-2.85697E-05-2.85737E-05 7.33134E-10 2.14707E-19 1.89869E-18
 -1      4282 9.52417E-05-2.85716E-05-2.85729E-05 6.35461E-10 9.21764E-19 2.16657E-18
 -1      4283 9.52416E-05-2.85722E-05-2.85726E-05 5.90145E-10 1.89039E-18 2.01279E-18
 -1      4284 9.52418E-05-2.85715E-05-2.85730E-05 4.23116E-10 1.72528E-18 2.08893E-18
 -1      4285 9.52309E-05-2.85455E-05-2.85795E-05 5.46629E-09 1.97802E-18 4.18365E-19
 -1      4286 9.52276E-05-2.85395E-05-2.85806E-05 7.03639E-09 9.02019E-19 3.94828E-19
 -1      4287 9.52361E-05-2.85550E-05-2.85777E-05 3.66605E-09 4.31237E-19 1.95460E-19
 -1      4288 9.52340E-05-2.85507E-05-2.85786E-05 4.88601E-09 2.34082E-18 9.62299E-19
 -1      4289 9.52392E-05-2.85615E-05-2.85762E-05 2.30454E-09-3.18633E-19-1.69020E-19
 -1      4290 9.52381E-05-2.85587E-05-2.85769E-05 3.18126E-09-6.44946E-19 2.88966E-19
 -1      4291 9.52410E-05-2.85662E-05-2.85749E-05 1.28039E-09-1.10794E-18 1.37764E-19
 -1      4292 9.52403E-05-2.85641E-05-2.85755E-05 1.93412E-09-5.85465E-19-2.74246E-19
 -1      4293 9.52418E-05-2.85693E-05-2.85739E-05 5.74556E-10 5.96722E-19 9.38102E-19
 -1      4294 9.52415E-05-2.85679E-05-2.85744E-05 1.01892E-09-7.15465E-19 1.38178E-19
 -1      4295 9.52419E-05-2.85713E-05-2.85731E-05 1.13329E-10 1.19612E-18 1.46480E-18
 -1      4296 9.52419E-05-2.85704E-05-2.85735E-05 3.99838E-10 1.74501E-18 2.30585E-18
 -1      4297 9.52416E-05-2.85724E-05-2.85725E-05-1.74173E-10 2.15471E-18 1.95871E-18
 -1      4298 9.52418E-05-2.85719E-05-2.85728E-05 4.02575E-12 1.94846E-18 2.27612E-18
 -1      4299 9.52414E-05-2.85726E-05-2.85724E-05 1.98090E-10 2.51436E-18 3.76112E-18
 -1      4300 1.05281E-04-3.85166E-05-2.86409E-05-1.06906E-05-3.81304E-19 1.00632E-18
 -1      4301 9.52119E-05-2.85169E-05-2.85836E-05 5.84358E-09 7.26056E-19-9.45876E-19
 -1      4302 9.52414E-05-2.85728E-05-2.85722E-05-2.54755E-10 1.81948E-18 1.25563E-18
 -1      4303 9.32573E-05-2.74565E-05-2.82311E-05-4.98825E-06-3.09800E-19-1.39422E-19
 -3
    1PSTEP                         4           1           1          
  100CL  101 1.000000000        4303                     0    1           1
 -4  ERROR       1    1
 -5  STR(%)      1    1    0    0
 -1         1 1.22813E+01
 -1         2 2.48234E+01
 -1         3 3.11092E-05
 -1         4 2.74815E-05
 -1         5 1.20652E+01
 -1         6 1.34707E+01
 -1         7 1.34707E+01
 -1         8 3.64823E+00
 -1         9 1.68021E+00
 -1        10 1.31044E+00
 -1        11 1.22329E+00
 -1        12 1.23626E+00
 -1        13 1.23685E+00
 -1        14 1.20050E+00
 -1        15 1.13116E+00
 -1        16 9.65164E-01
 -1        17 7.24681E-01
 -1        18 1.12948E+00
 -1        19 1.96064E+00
 -1        20 2.79557E+00
 -1        21 4.12114E+00
 -1        22 1.20652E+01
 -1        23 1.34707E+01
 -1        24 4.50347E+00
 -1        25 3.70775E+00
 -1        26 2.66789E+00
 -1        27 2.21754E+00
 -1        28 2.34864E+00
 -1        29 2.62480E+00
 -1        30 2.85150E+00
 -1        31 2.90624E+00
 -1        32 2.90640E+00
 -1        33 2.90640E+00
 -1        34 2.89992E+00
 -1        35 2.64582E+00
 -1        36 2.20889E+00
 -1        37 1.69074E+00
 -1        38 1.24831E+00
 -1        39 8.62715E-01
 -1        40 6.38584E-01
 -1        41 4.67473E-01
 -1        42 3.20409E-01
 -1        43 2.04319E-01
 -1        44 1.40525E-01
 -1        45 1.01620E-01
 -1        46 6.78690E-02
 -1        47 4.71293E-02
 -1        48 3.54434E-02
 -1        49 2.46063E-02
 -1        50 1.56813E-02
 -1        51 1.30976E-02
 -1        52 1.07444E-02
 -1        53 8.25337E-03
 -1        54 6.12445E-03
 -1        55 5.42854E-03
 -1        56 4.55195E-03
 -1        57 3.65961E-03
 -1        58 2.84076E-03
 -1        59 2.13582E-03
 -1        60 1.79254E-03
 -1        61 1.47363E-03
 -1        62 1.17827E-03
 -1        63 9.17965E-04
 -1        64 7.02065E-04
 -1        65 5.34976E-04
 -1        66 3.92077E-04
 -1        67 3.17901E-04
 -1        68 2.69375E-04
 -1        69 2.16646E-04
 -1        70 1.68360E-04
 -1        71 1.22379E-04
 -1        72 1.20652E+01
 -1        73 3.18814E+00
 -1        74 2.60686E+00
 -1        75 3.44622E+00
 -1        76 5.19255E+00
 -1        77 6.90046E+00
 -1        78 6.94633E+00
 -1        79 6.94633E+00
 -1        80 5.80465E+00
 -1        81 1.39240E+01
 -1        82 1.90027E+01
 -1        83 1.90027E+01
 -1        84 1.77325E+01
 -1        85 8.14107E+00
 -1        86 5.11310E+00
 -1        87 5.33628E+00
 -1        88 5.33628E+00
 -1        89 4.25152E+00
 -1        90 3.19161E+00
 -1        91 2.28773E+00
 -1        92 1.72734E+00
 -1        93 1.15801E+00
 -1        94 7.47957E-01
 -1        95 4.72153E-01
 -1        96 2.94432E-01
 -1        97 1.82630E-01
 -1        98 1.13058E-01
 -1        99 6.80781E-02
 -1       100 4.45910E-02
 -1       101 2.76707E-02
 -1       102 1.89555E-02
 -1       103 1.33700E-02
 -1       104 9.50581E-03
 -1       105 6.79799E-03
 -1       106 4.87329E-03
 -1       107 3.53406E-03
 -1       108 2.68008E-03
 -1       109 2.22805E-03
 -1       110 1.83373E-03
 -1       111 1.49326E-03
 -1       112 1.20248E-03
 -1       113 9.56791E-04
 -1       114 7.70326E-04
 -1       115 5.93808E-04
 -1       116 4.89101E-04
 -1       117 3.93438E-04
 -1       118 3.35609E-04
 -1       119 2.79688E-04
 -1       120 2.22075E-04
 -1       121 1.54789E-04
 -1       122 8.96712E-05
 -1       123 2.74692E-05
 -1       124 2.74692E-05
 -1       125 2.05370E-05
 -1       126 9.66766E-06
 -1       127 1.24653E-05
 -1       128 1.79506E-05
 -1       129 2.25200E-05
 -1       130 2.43840E-05
 -1       131 2.43840E-05
 -1       132 2.34756E-05
 -1       133 1.95243E-05
 -1       134 1.31976E-05
 -1       135 1.08774E-05
 -1       136 1.95598E-05
 -1       137 3.71705E-05
 -1       138 6.67746E-05
 -1       139 2.70524E+01
 -1       140 2.70524E+01
 -1       141 4.24191E+01
 -1       142 4.24191E+01
 -1       143 1.75607E+01
 -1       144 1.40760E+01
 -1       145 1.40760E+01
 -1       146 1.51628E+01
 -1       147 1.51628E+01
 -1       148 2.21479E+01
 -1       149 4.90877E+01
 -1       150 4.90877E+01
 -1       151 2.66522E+01
 -1       152 2.50129E+01
 -1       153 2.50129E+01
 -1       154 2.70693E+01
 -1       155 3.37571E+01
 -1       156 3.37571E+01
 -1       157 1.37332E+01
 -1       158 1.18806E+01
 -1       159 1.22813E+01
 -1       160 1.21286E+01
 -1       161 1.21286E+01
 -1       162 1.57723E+01
 -1       163 4.16626E+01
 -1       164 4.16626E+01
 -1       165 2.46874E+01
 -1       166 6.13101E+00
 -1       167 2.20421E+00
 -1       168 1.49769E+00
 -1       169 1.26621E+00
 -1       170 1.23626E+00
 -1       171 1.23685E+00
 -1       172 1.23685E+00
 -1       173 1.17483E+00
 -1       174 1.07208E+00
 -1       175 8.81837E-01
 -1       176 6.70519E-01
 -1       177 1.45354E+00
 -1       178 2.21069E+00
 -1       179 3.12193E+00
 -1       180 6.30852E+00
 -1       181 4.50347E+00
 -1       182 3.70775E+00
 -1       183 2.66789E+00
 -1       184 2.21754E+00
 -1       185 2.16417E+00
 -1       186 2.34864E+00
 -1       187 2.62480E+00
 -1       188 2.85150E+00
 -1       189 2.90624E+00
 -1       190 2.90640E+00
 -1       191 2.89992E+00
 -1       192 2.64582E+00
 -1       193 2.20889E+00
 -1       194 1.74811E+00
 -1       195 1.36122E+00
 -1       196 1.05386E+00
 -1       197 7.82798E-01
 -1       198 5.47585E-01
 -1       199 3.58744E-01
 -1       200 2.17346E-01
 -1       201 1.40525E-01
 -1       202 1.01620E-01
 -1       203 6.78690E-02
 -1       204 4.71293E-02
 -1       205 3.54434E-02
 -1       206 2.46063E-02
 -1       207 1.77200E-02
 -1       208 1.30976E-02
 -1       209 1.07444E-02
 -1       210 8.25337E-03
 -1       211 6.15101E-03
 -1       212 5.42854E-03
 -1       213 4.55195E-03
 -1       214 3.65961E-03
 -1       215 2.84076E-03
 -1       216 2.13582E-03
 -1       217 1.79254E-03
 -1       218 1.47363E-03
 -1       219 1.17827E-03
 -1       220 9.34874E-04
 -1       221 7.40427E-04
 -1       222 5.85212E-04
 -1       223 4.58077E-04
 -1       224 3.44519E-04
 -1       225 2.69375E-04
 -1       226 2.16646E-04
 -1       227 1.68360E-04
 -1       228 1.22379E-04
 -1       229 3.30877E+00
 -1       230 2.59814E+00
 -1       231 3.78331E+00
 -1       232 5.21393E+00
 -1       233 6.18499E+00
 -1       234 6.94688E+00
 -1       235 8.84517E+00
 -1       236 8.34944E+00
 -1       237 1.39240E+01
 -1       238 1.90027E+01
 -1       239 1.77325E+01
 -1       240 8.50307E+00
 -1       241 6.32314E+00
 -1       242 6.60242E+00
 -1       243 5.91605E+00
 -1       244 5.15626E+00
 -1       245 4.19538E+00
 -1       246 2.98356E+00
 -1       247 2.08569E+00
 -1       248 1.31927E+00
 -1       249 8.10621E-01
 -1       250 5.23687E-01
 -1       251 3.33437E-01
 -1       252 2.10859E-01
 -1       253 1.33029E-01
 -1       254 8.14806E-02
 -1       255 5.43264E-02
 -1       256 3.44948E-02
 -1       257 2.19388E-02
 -1       258 1.60591E-02
 -1       259 1.18057E-02
 -1       260 8.70828E-03
 -1       261 6.43610E-03
 -1       262 4.80278E-03
 -1       263 3.55583E-03
 -1       264 2.60393E-03
 -1       265 2.08216E-03
 -1       266 1.70244E-03
 -1       267 1.37435E-03
 -1       268 1.09667E-03
 -1       269 8.85945E-04
 -1       270 6.87749E-04
 -1       271 5.53706E-04
 -1       272 4.19893E-04
 -1       273 3.35609E-04
 -1       274 2.79688E-04
 -1       275 2.22075E-04
 -1       276 1.60814E-04
 -1       277 1.02478E-04
 -1       278 5.07437E-05
 -1       279 4.42321E-05
 -1       280 4.42321E-05
 -1       281 3.34280E-05
 -1       282 3.08065E-05
 -1       283 4.72366E-05
 -1       284 5.67310E-05
 -1       285 5.94382E-05
 -1       286 5.94382E-05
 -1       287 5.86484E-05
 -1       288 5.14410E-05
 -1       289 3.84985E-05
 -1       290 2.03094E-05
 -1       291 4.75898E-05
 -1       292 1.00779E-04
 -1       293 3.02312E+01
 -1       294 3.02312E+01
 -1       295 3.66947E+01
 -1       296 4.24191E+01
 -1       297 1.76417E+01
 -1       298 1.35249E+01
 -1       299 1.64468E+01
 -1       300 1.64468E+01
 -1       301 1.61826E+01
 -1       302 1.29894E+01
 -1       303 2.41525E+01
 -1       304 4.90877E+01
 -1       305 2.92801E+01
 -1       306 3.16276E+01
 -1       307 3.16276E+01
 -1       308 2.45151E+01
 -1       309 3.24548E+01
 -1       310 3.37571E+01
 -1       311 1.37332E+01
 -1       312 1.13961E+01
 -1       313 1.18806E+01
 -1       314 1.22813E+01
 -1       315 1.15722E+01
 -1       316 1.21286E+01
 -1       317 1.10777E+01
 -1       318 1.60413E+01
 -1       319 4.16626E+01
 -1       320 3.75682E+01
 -1       321 2.77967E+01
 -1       322 7.95656E+00
 -1       323 1.00779E-04
 -1       324 9.04278E-01
 -1       325 2.60717E+00
 -1       326 9.01221E-01
 -1       327 9.56858E-01
 -1       328 1.07514E+00
 -1       329 1.16798E+00
 -1       330 1.16798E+00
 -1       331 1.12463E+00
 -1       332 1.01918E+00
 -1       333 1.41819E+00
 -1       334 1.92832E+00
 -1       335 2.37491E+00
 -1       336 3.30877E+00
 -1       337 2.61000E+01
 -1       338 9.25160E+00
 -1       339 2.23903E+00
 -1       340 2.00575E+00
 -1       341 1.91788E+00
 -1       342 1.97414E+00
 -1       343 2.09502E+00
 -1       344 2.19954E+00
 -1       345 2.22239E+00
 -1       346 2.12923E+00
 -1       347 2.18107E+00
 -1       348 2.13122E+00
 -1       349 1.95007E+00
 -1       350 1.66557E+00
 -1       351 1.39705E+00
 -1       352 1.11939E+00
 -1       353 8.51198E-01
 -1       354 6.41265E-01
 -1       355 4.57399E-01
 -1       356 3.07516E-01
 -1       357 1.93076E-01
 -1       358 1.11046E-01
 -1       359 5.59422E-02
 -1       360 3.17103E-02
 -1       361 2.41361E-02
 -1       362 2.11998E-02
 -1       363 1.66706E-02
 -1       364 1.35238E-02
 -1       365 1.00905E-02
 -1       366 7.85441E-03
 -1       367 6.15101E-03
 -1       368 4.55813E-03
 -1       369 3.20132E-03
 -1       370 2.79121E-03
 -1       371 2.36742E-03
 -1       372 1.93430E-03
 -1       373 1.53071E-03
 -1       374 1.24704E-03
 -1       375 1.07633E-03
 -1       376 8.97244E-04
 -1       377 7.25107E-04
 -1       378 5.88274E-04
 -1       379 4.63484E-04
 -1       380 3.61628E-04
 -1       381 2.76224E-04
 -1       382 2.01579E-04
 -1       383 1.52129E-04
 -1       384 1.07443E-04
 -1       385 4.56828E+00
 -1       386 3.24511E+00
 -1       387 6.46341E+00
 -1       388 7.15726E+00
 -1       389 8.84517E+00
 -1       390 1.19442E+01
 -1       391 8.72191E+00
 -1       392 7.46453E+00
 -1       393 5.96696E+00
 -1       394 4.41311E+00
 -1       395 3.08372E+00
 -1       396 2.00784E+00
 -1       397 1.26424E+00
 -1       398 7.77863E-01
 -1       399 4.71211E-01
 -1       400 2.82125E-01
 -1       401 1.67130E-01
 -1       402 9.55076E-02
 -1       403 5.97057E-02
 -1       404 3.95370E-02
 -1       405 2.61456E-02
 -1       406 1.72701E-02
 -1       407 1.18057E-02
 -1       408 8.70828E-03
 -1       409 6.43610E-03
 -1       410 4.98653E-03
 -1       411 3.87710E-03
 -1       412 3.03077E-03
 -1       413 2.34827E-03
 -1       414 1.80146E-03
 -1       415 1.46391E-03
 -1       416 1.21763E-03
 -1       417 9.94254E-04
 -1       418 7.98937E-04
 -1       419 6.54325E-04
 -1       420 5.12489E-04
 -1       421 3.90089E-04
 -1       422 2.86195E-04
 -1       423 2.11173E-04
 -1       424 1.60814E-04
 -1       425 1.11752E-04
 -1       426 5.41237E-05
 -1       427 6.76531E-05
 -1       428 6.76531E-05
 -1       429 4.52230E-05
 -1       430 6.67620E-05
 -1       431 8.10915E-05
 -1       432 8.60160E-05
 -1       433 8.60160E-05
 -1       434 8.54950E-05
 -1       435 8.28845E-05
 -1       436 7.20509E-05
 -1       437 5.25511E-05
 -1       438 4.27833E-05
 -1       439 6.95342E-05
 -1       440 2.34625E+01
 -1       441 4.94132E+01
 -1       442 9.01284E-01
 -1       443 1.41474E+01
 -1       444 1.71268E+01
 -1       445 2.92801E+01
 -1       446 3.30216E+01
 -1       447 3.95008E+01
 -1       448 3.95008E+01
 -1       449 2.45585E+01
 -1       450 2.19459E+01
 -1       451 1.29874E+01
 -1       452 7.02562E+00
 -1       453 9.69373E+00
 -1       454 1.14791E+01
 -1       455 1.14720E+01
 -1       456 1.08382E+01
 -1       457 8.78696E+00
 -1       458 8.29186E+00
 -1       459 1.44701E+01
 -1       460 2.58033E+01
 -1       461 2.39026E+01
 -1       462 4.94132E+01
 -1       463 7.71585E+00
 -1       464 8.24767E+00
 -1       465 1.25736E+01
 -1       466 1.10496E+00
 -1       467 7.80756E-01
 -1       468 1.54458E+00
 -1       469 1.54458E+00
 -1       470 1.47930E+00
 -1       471 1.75137E+00
 -1       472 2.51610E+00
 -1       473 3.01780E+00
 -1       474 3.12707E+00
 -1       475 2.43917E+01
 -1       476 1.33076E+00
 -1       477 1.09422E+00
 -1       478 1.52237E+00
 -1       479 1.63331E+00
 -1       480 1.73413E+00
 -1       481 1.80215E+00
 -1       482 1.80562E+00
 -1       483 1.73164E+00
 -1       484 1.65747E+00
 -1       485 1.69157E+00
 -1       486 1.65152E+00
 -1       487 1.52163E+00
 -1       488 1.35997E+00
 -1       489 1.16220E+00
 -1       490 9.27329E-01
 -1       491 6.93330E-01
 -1       492 4.86721E-01
 -1       493 3.37558E-01
 -1       494 2.22399E-01
 -1       495 1.36713E-01
 -1       496 8.04368E-02
 -1       497 4.33881E-02
 -1       498 2.62229E-02
 -1       499 1.72131E-02
 -1       500 1.41997E-02
 -1       501 1.33286E-02
 -1       502 1.11915E-02
 -1       503 8.59534E-03
 -1       504 6.43320E-03
 -1       505 4.69173E-03
 -1       506 3.17173E-03
 -1       507 2.17689E-03
 -1       508 1.52770E-03
 -1       509 1.43696E-03
 -1       510 1.27823E-03
 -1       511 1.08975E-03
 -1       512 8.96682E-04
 -1       513 7.84421E-04
 -1       514 6.77989E-04
 -1       515 5.63964E-04
 -1       516 4.58740E-04
 -1       517 3.65654E-04
 -1       518 2.79803E-04
 -1       519 2.09377E-04
 -1       520 1.53648E-04
 -1       521 1.00909E-04
 -1       522 5.47906E+00
 -1       523 1.07067E+01
 -1       524 1.08035E+01
 -1       525 2.61000E+01
 -1       526 1.12474E+01
 -1       527 5.44983E+00
 -1       528 3.39235E+00
 -1       529 2.10442E+00
 -1       530 1.34262E+00
 -1       531 8.61081E-01
 -1       532 5.48882E-01
 -1       533 3.47614E-01
 -1       534 2.18717E-01
 -1       535 1.36418E-01
 -1       536 8.69910E-02
 -1       537 5.36710E-02
 -1       538 3.26703E-02
 -1       539 1.95298E-02
 -1       540 1.17342E-02
 -1       541 8.18338E-03
 -1       542 6.11904E-03
 -1       543 4.90179E-03
 -1       544 3.87710E-03
 -1       545 3.03077E-03
 -1       546 2.34827E-03
 -1       547 1.88027E-03
 -1       548 1.50767E-03
 -1       549 1.21763E-03
 -1       550 9.94254E-04
 -1       551 7.98937E-04
 -1       552 6.54325E-04
 -1       553 5.13316E-04
 -1       554 3.92564E-04
 -1       555 3.01384E-04
 -1       556 2.23207E-04
 -1       557 1.56776E-04
 -1       558 1.18042E-04
 -1       559 8.50507E-05
 -1       560 1.04649E-04
 -1       561 8.30525E-05
 -1       562 1.12265E-04
 -1       563 1.12265E-04
 -1       564 1.11532E-04
 -1       565 1.11532E-04
 -1       566 1.06759E-04
 -1       567 9.17602E-05
 -1       568 8.74708E-05
 -1       569 7.16657E-05
 -1       570 1.49016E+01
 -1       571 1.83352E+01
 -1       572 4.21719E+00
 -1       573 8.81421E+00
 -1       574 1.55261E+01
 -1       575 3.95622E+00
 -1       576 8.14304E+00
 -1       577 1.39293E+00
 -1       578 3.95008E+01
 -1       579 3.30216E+01
 -1       580 2.45585E+01
 -1       581 4.50117E+00
 -1       582 1.71401E+01
 -1       583 6.61393E+00
 -1       584 5.20670E+00
 -1       585 7.66129E+00
 -1       586 7.50677E+00
 -1       587 6.39183E+00
 -1       588 6.95155E+00
 -1       589 1.12106E+01
 -1       590 4.94132E+01
 -1       591 2.39026E+01
 -1       592 6.37138E-01
 -1       593 1.97180E+01
 -1       594 1.11190E-04
 -1       595 8.00081E+00
 -1       596 2.21809E+00
 -1       597 2.07394E+00
 -1       598 3.22889E+00
 -1       599 3.67181E+00
 -1       600 3.95622E+00
 -1       601 2.93845E+00
 -1       602 6.90339E-01
 -1       603 1.81270E+00
 -1       604 1.23517E+00
 -1       605 1.41173E+00
 -1       606 1.52551E+00
 -1       607 1.56161E+00
 -1       608 1.50883E+00
 -1       609 1.43215E+00
 -1       610 1.38113E+00
 -1       611 1.41665E+00
 -1       612 1.38922E+00
 -1       613 1.31962E+00
 -1       614 1.17362E+00
 -1       615 9.61116E-01
 -1       616 7.87151E-01
 -1       617 6.28200E-01
 -1       618 4.69499E-01
 -1       619 3.29618E-01
 -1       620 2.17241E-01
 -1       621 1.33585E-01
 -1       622 7.63870E-02
 -1       623 4.33995E-02
 -1       624 2.66191E-02
 -1       625 1.72131E-02
 -1       626 1.38407E-02
 -1       627 1.19724E-02
 -1       628 9.59414E-03
 -1       629 7.17689E-03
 -1       630 5.06838E-03
 -1       631 3.62595E-03
 -1       632 2.43164E-03
 -1       633 1.49895E-03
 -1       634 9.24934E-04
 -1       635 8.32285E-04
 -1       636 8.36225E-04
 -1       637 7.79146E-04
 -1       638 6.88198E-04
 -1       639 5.82466E-04
 -1       640 5.10882E-04
 -1       641 4.31431E-04
 -1       642 3.49727E-04
 -1       643 2.76592E-04
 -1       644 2.10287E-04
 -1       645 1.53648E-04
 -1       646 1.33817E-04
 -1       647 8.44233E+00
 -1       648 3.00659E+00
 -1       649 4.73696E+00
 -1       650 1.11294E+00
 -1       651 6.78750E-01
 -1       652 4.10342E-01
 -1       653 2.46311E-01
 -1       654 1.54906E-01
 -1       655 9.56442E-02
 -1       656 6.27329E-02
 -1       657 4.11761E-02
 -1       658 2.67187E-02
 -1       659 1.70833E-02
 -1       660 1.06966E-02
 -1       661 6.48502E-03
 -1       662 3.71670E-03
 -1       663 2.95280E-03
 -1       664 2.53094E-03
 -1       665 2.11693E-03
 -1       666 1.73732E-03
 -1       667 1.40259E-03
 -1       668 1.13249E-03
 -1       669 9.43230E-04
 -1       670 7.71723E-04
 -1       671 6.19831E-04
 -1       672 4.94191E-04
 -1       673 3.91958E-04
 -1       674 3.01384E-04
 -1       675 2.23753E-04
 -1       676 1.61898E-04
 -1       677 1.22706E-04
 -1       678 1.29228E-04
 -1       679 1.21080E-04
 -1       680 1.40054E-04
 -1       681 1.37024E-04
 -1       682 1.38209E-04
 -1       683 1.38209E-04
 -1       684 1.28016E-04
 -1       685 1.33817E-04
 -1       686 9.93678E+00
 -1       687 1.17172E+01
 -1       688 8.81100E+00
 -1       689 1.90185E+01
 -1       690 1.09238E+01
 -1       691 3.81572E+00
 -1       692 7.64209E+00
 -1       693 7.98118E+00
 -1       694 1.40054E-04
 -1       695 2.36247E+00
 -1       696 1.83636E+01
 -1       697 4.75303E+00
 -1       698 9.27814E-01
 -1       699 1.30637E+01
 -1       700 1.56697E+01
 -1       701 3.24669E+00
 -1       702 4.39994E+00
 -1       703 5.89959E+00
 -1       704 1.46070E+01
 -1       705 3.26938E+00
 -1       706 9.78081E-01
 -1       707 1.74404E+01
 -1       708 1.80868E+00
 -1       709 1.55261E+01
 -1       710 7.90220E-01
 -1       711 3.24669E+00
 -1       712 3.84909E+00
 -1       713 1.27869E+01
 -1       714 5.11476E+00
 -1       715 5.06536E+00
 -1       716 1.29591E+00
 -1       717 6.67332E+00
 -1       718 9.01999E+00
 -1       719 1.88587E+00
 -1       720 1.91928E-04
 -1       721 1.10620E+00
 -1       722 1.32968E+00
 -1       723 1.42316E+00
 -1       724 1.52077E+00
 -1       725 1.55774E+00
 -1       726 1.38329E+00
 -1       727 1.52234E+00
 -1       728 1.46047E+00
 -1       729 1.32572E+00
 -1       730 1.21016E+00
 -1       731 1.09387E+00
 -1       732 9.40333E-01
 -1       733 7.75142E-01
 -1       734 5.93358E-01
 -1       735 4.25506E-01
 -1       736 2.86676E-01
 -1       737 1.81001E-01
 -1       738 1.06418E-01
 -1       739 6.90638E-02
 -1       740 4.33995E-02
 -1       741 2.66191E-02
 -1       742 1.78654E-02
 -1       743 1.38407E-02
 -1       744 1.07364E-02
 -1       745 7.92481E-03
 -1       746 5.61126E-03
 -1       747 4.18110E-03
 -1       748 2.86831E-03
 -1       749 1.83209E-03
 -1       750 1.08179E-03
 -1       751 5.67948E-04
 -1       752 4.68539E-04
 -1       753 5.55842E-04
 -1       754 5.69806E-04
 -1       755 5.37193E-04
 -1       756 4.77878E-04
 -1       757 4.19071E-04
 -1       758 3.65792E-04
 -1       759 3.04658E-04
 -1       760 2.42589E-04
 -1       761 1.83679E-04
 -1       762 3.05519E+00
 -1       763 6.81071E+00
 -1       764 4.96898E-01
 -1       765 3.16760E-01
 -1       766 2.01726E-01
 -1       767 1.28536E-01
 -1       768 7.97149E-02
 -1       769 5.07480E-02
 -1       770 3.21880E-02
 -1       771 2.01025E-02
 -1       772 1.25904E-02
 -1       773 8.40006E-03
 -1       774 5.45840E-03
 -1       775 3.47655E-03
 -1       776 2.05112E-03
 -1       777 1.47104E-03
 -1       778 1.37081E-03
 -1       779 1.21940E-03
 -1       780 1.04956E-03
 -1       781 8.80383E-04
 -1       782 7.26261E-04
 -1       783 6.23119E-04
 -1       784 5.17986E-04
 -1       785 4.18026E-04
 -1       786 3.26852E-04
 -1       787 2.48876E-04
 -1       788 1.67862E-04
 -1       789 1.70045E-04
 -1       790 1.69211E-04
 -1       791 1.61467E-04
 -1       792 1.58903E-04
 -1       793 2.80797E+00
 -1       794 4.01541E+00
 -1       795 1.08274E+01
 -1       796 1.20605E+00
 -1       797 3.68545E+00
 -1       798 1.69211E-04
 -1       799 7.74729E-01
 -1       800 8.94389E+00
 -1       801 4.23107E+00
 -1       802 7.70061E+00
 -1       803 5.36052E+00
 -1       804 3.06057E+00
 -1       805 2.88915E+00
 -1       806 9.00330E+00
 -1       807 6.81858E+00
 -1       808 6.67332E+00
 -1       809 7.98118E+00
 -1       810 3.02514E+00
 -1       811 1.28056E+00
 -1       812 2.39141E+00
 -1       813 1.70045E-04
 -1       814 2.83188E+00
 -1       815 4.41411E+00
 -1       816 2.84839E+00
 -1       817 2.51764E+00
 -1       818 3.86689E+00
 -1       819 1.68099E-04
 -1       820 7.36046E+00
 -1       821 1.03680E+00
 -1       822 1.28056E+00
 -1       823 1.28894E-01
 -1       824 2.48876E-04
 -1       825 4.02570E+00
 -1       826 1.36669E+00
 -1       827 1.52077E+00
 -1       828 1.77785E+00
 -1       829 1.75645E+00
 -1       830 1.75407E+00
 -1       831 1.76447E+00
 -1       832 1.49426E+00
 -1       833 1.44135E+00
 -1       834 1.26900E+00
 -1       835 1.09387E+00
 -1       836 9.10473E-01
 -1       837 6.91357E-01
 -1       838 4.88453E-01
 -1       839 3.39523E-01
 -1       840 2.44509E-01
 -1       841 1.65724E-01
 -1       842 1.06061E-01
 -1       843 6.38971E-02
 -1       844 3.69338E-02
 -1       845 2.52597E-02
 -1       846 1.82322E-02
 -1       847 1.27898E-02
 -1       848 9.28475E-03
 -1       849 7.30991E-03
 -1       850 5.60146E-03
 -1       851 4.03252E-03
 -1       852 2.71932E-03
 -1       853 1.72377E-03
 -1       854 1.03037E-03
 -1       855 6.51356E-04
 -1       856 3.90147E-04
 -1       857 3.91626E-04
 -1       858 4.34646E-04
 -1       859 4.29627E-04
 -1       860 3.95143E-04
 -1       861 3.51610E-04
 -1       862 3.09931E-04
 -1       863 2.59166E-04
 -1       864 2.17106E-04
 -1       865 1.95770E-01
 -1       866 1.99034E+00
 -1       867 3.16374E-01
 -1       868 9.10664E-02
 -1       869 6.02654E-02
 -1       870 3.93932E-02
 -1       871 2.59363E-02
 -1       872 1.71536E-02
 -1       873 1.11653E-02
 -1       874 7.21201E-03
 -1       875 4.48845E-03
 -1       876 2.65396E-03
 -1       877 1.67643E-03
 -1       878 9.85040E-04
 -1       879 8.13650E-04
 -1       880 8.12014E-04
 -1       881 7.56469E-04
 -1       882 6.75419E-04
 -1       883 5.81722E-04
 -1       884 4.88059E-04
 -1       885 4.19748E-04
 -1       886 3.48537E-04
 -1       887 2.80940E-04
 -1       888 2.33978E-04
 -1       889 5.17194E-01
 -1       890 3.09000E+00
 -1       891 2.90652E+00
 -1       892 3.44808E+00
 -1       893 8.31559E-01
 -1       894 4.79126E+00
 -1       895 1.30898E+00
 -1       896 5.75123E+00
 -1       897 6.02398E+00
 -1       898 5.89588E+00
 -1       899 6.57403E+00
 -1       900 1.39928E+00
 -1       901 2.88915E+00
 -1       902 2.44984E+00
 -1       903 5.50930E+00
 -1       904 2.02924E-04
 -1       905 2.99456E+00
 -1       906 2.68427E+00
 -1       907 1.97254E+00
 -1       908 2.81297E+00
 -1       909 2.33978E-04
 -1       910 1.78737E-04
 -1       911 2.64369E+00
 -1       912 5.69839E+00
 -1       913 2.88066E+00
 -1       914 5.47055E+00
 -1       915 1.22492E+00
 -1       916 2.04675E+00
 -1       917 2.72668E+00
 -1       918 9.76704E-02
 -1       919 1.93209E+00
 -1       920 2.33467E+00
 -1       921 2.57332E+00
 -1       922 1.88670E+00
 -1       923 2.68427E+00
 -1       924 1.79826E+00
 -1       925 1.26900E+00
 -1       926 1.09447E+00
 -1       927 8.72144E-01
 -1       928 6.36527E-01
 -1       929 4.78491E-01
 -1       930 3.36623E-01
 -1       931 2.22213E-01
 -1       932 1.39209E-01
 -1       933 8.68598E-02
 -1       934 5.83631E-02
 -1       935 3.94267E-02
 -1       936 2.57486E-02
 -1       937 1.63878E-02
 -1       938 1.18502E-02
 -1       939 9.28475E-03
 -1       940 6.95280E-03
 -1       941 4.99003E-03
 -1       942 3.42244E-03
 -1       943 2.21968E-03
 -1       944 1.46659E-03
 -1       945 9.98681E-04
 -1       946 6.51356E-04
 -1       947 3.90147E-04
 -1       948 3.21939E-04
 -1       949 3.47913E-04
 -1       950 3.50649E-04
 -1       951 3.27023E-04
 -1       952 2.92558E-04
 -1       953 2.58711E-04
 -1       954 2.41347E-01
 -1       955 2.51764E+00
 -1       956 3.89337E-02
 -1       957 2.74872E-02
 -1       958 1.90175E-02
 -1       959 1.30764E-02
 -1       960 9.10682E-03
 -1       961 6.17291E-03
 -1       962 4.03652E-03
 -1       963 2.53193E-03
 -1       964 1.49515E-03
 -1       965 7.96376E-04
 -1       966 4.85839E-04
 -1       967 5.15904E-04
 -1       968 5.29166E-04
 -1       969 5.02315E-04
 -1       970 4.51696E-04
 -1       971 3.89744E-04
 -1       972 3.30751E-04
 -1       973 2.81093E-04
 -1       974 3.65544E-01
 -1       975 5.60717E-01
 -1       976 6.28633E-02
 -1       977 1.52679E-01
 -1       978 4.72189E+00
 -1       979 2.42717E+00
 -1       980 2.01680E+00
 -1       981 3.61795E+00
 -1       982 2.33228E+00
 -1       983 2.47727E-04
 -1       984 1.89069E-04
 -1       985 1.39928E+00
 -1       986 2.72668E+00
 -1       987 9.61875E-01
 -1       988 2.99456E+00
 -1       989 2.65199E+00
 -1       990 2.40364E+00
 -1       991 1.90090E-04
 -1       992 2.33978E-04
 -1       993 2.68427E+00
 -1       994 1.51756E+00
 -1       995 4.06796E+00
 -1       996 1.47691E+00
 -1       997 1.46925E+00
 -1       998 8.72144E-01
 -1       999 6.25272E-01
 -1      1000 4.20578E-01
 -1      1001 3.02367E-01
 -1      1002 2.13811E-01
 -1      1003 1.42712E-01
 -1      1004 9.08810E-02
 -1      1005 5.70643E-02
 -1      1006 3.51446E-02
 -1      1007 2.35711E-02
 -1      1008 1.63878E-02
 -1      1009 1.18298E-02
 -1      1010 8.34856E-03
 -1      1011 5.91602E-03
 -1      1012 4.20034E-03
 -1      1013 2.98315E-03
 -1      1014 2.10524E-03
 -1      1015 1.46659E-03
 -1      1016 9.68610E-04
 -1      1017 5.98521E-04
 -1      1018 3.55661E-04
 -1      1019 2.81157E-04
 -1      1020 2.86984E-04
 -1      1021 2.86660E-04
 -1      1022 2.67291E-04
 -1      1023 2.59904E-04
 -1      1024 1.34361E-02
 -1      1025 2.09909E-02
 -1      1026 3.21712E-02
 -1      1027 9.29449E-03
 -1      1028 6.68600E-03
 -1      1029 4.73725E-03
 -1      1030 3.25180E-03
 -1      1031 2.13687E-03
 -1      1032 1.33289E-03
 -1      1033 7.80129E-04
 -1      1034 3.94706E-04
 -1      1035 3.11070E-04
 -1      1036 3.59519E-04
 -1      1037 3.64167E-04
 -1      1038 3.41205E-04
 -1      1039 3.03270E-04
 -1      1040 2.56487E-04
 -1      1041 2.83446E-01
 -1      1042 4.57795E-01
 -1      1043 1.83774E-04
 -1      1044 2.21208E+00
 -1      1045 1.54668E+00
 -1      1046 6.69400E-01
 -1      1047 1.07602E-01
 -1      1048 2.10533E-04
 -1      1049 1.53371E+00
 -1      1050 7.40064E-02
 -1      1051 2.98742E-04
 -1      1052 2.16605E+00
 -1      1053 1.67218E-01
 -1      1054 1.06628E+00
 -1      1055 4.89894E-02
 -1      1056 2.22569E+00
 -1      1057 2.23465E-04
 -1      1058 1.78624E+00
 -1      1059 2.20174E+00
 -1      1060 1.66902E+00
 -1      1061 1.18274E+00
 -1      1062 7.95217E-01
 -1      1063 5.22127E-01
 -1      1064 3.43240E-01
 -1      1065 2.18136E-01
 -1      1066 1.34446E-01
 -1      1067 8.03237E-02
 -1      1068 4.85844E-02
 -1      1069 3.12984E-02
 -1      1070 1.99745E-02
 -1      1071 1.25563E-02
 -1      1072 8.19464E-03
 -1      1073 5.91602E-03
 -1      1074 4.20034E-03
 -1      1075 2.89033E-03
 -1      1076 1.86049E-03
 -1      1077 1.22646E-03
 -1      1078 7.71966E-04
 -1      1079 4.61141E-04
 -1      1080 3.00558E-04
 -1      1081 2.26105E-04
 -1      1082 2.34178E-04
 -1      1083 2.40976E-04
 -1      1084 1.61288E-02
 -1      1085 1.06490E-02
 -1      1086 2.55156E-02
 -1      1087 5.27458E-03
 -1      1088 3.58334E-03
 -1      1089 2.35035E-03
 -1      1090 1.75382E-03
 -1      1091 1.09343E-03
 -1      1092 6.68706E-04
 -1      1093 3.72290E-04
 -1      1094 2.26351E-04
 -1      1095 2.48373E-04
 -1      1096 2.56196E-04
 -1      1097 2.98742E-04
 -1      1098 7.69123E-03
 -1      1099 2.20174E+00
 -1      1100 1.66902E+00
 -1      1101 5.22127E-01
 -1      1102 2.98742E-04
 -1      1103 1.34446E-01
 -1      1104 4.61428E-02
 -1      1105 2.18136E-01
 -1      1106 1.18274E+00
 -1      1107 3.43240E-01
 -1      1108 7.95217E-01
 -1      1109 1.77492E-03
 -1      1110 8.03237E-02
 -1      1111 1.42987E-03
 -1      1112 8.92018E-04
 -1      1113 5.56663E-04
 -1      1114 3.18022E-04
 -1      1115 1.81287E-04
 -1      1116 2.21600E-04
 -1      1117 2.40976E-04
 -1      1118 1.34707E+01
 -1      1119 8.55947E+00
 -1      1120 2.66422E+00
 -1      1121 1.49533E+00
 -1      1122 1.26687E+00
 -1      1123 1.22978E+00
 -1      1124 1.23655E+00
 -1      1125 1.21867E+00
 -1      1126 1.16583E+00
 -1      1127 1.04816E+00
 -1      1128 8.44923E-01
 -1      1129 9.27079E-01
 -1      1130 1.54506E+00
 -1      1131 2.37811E+00
 -1      1132 3.45836E+00
 -1      1133 8.09318E+00
 -1      1134 1.20652E+01
 -1      1135 1.34707E+01
 -1      1136 8.98709E+00
 -1      1137 4.10561E+00
 -1      1138 3.18782E+00
 -1      1139 2.44271E+00
 -1      1140 2.28309E+00
 -1      1141 2.48672E+00
 -1      1142 2.73815E+00
 -1      1143 2.87887E+00
 -1      1144 2.90632E+00
 -1      1145 2.90640E+00
 -1      1146 2.90316E+00
 -1      1147 2.77287E+00
 -1      1148 2.42736E+00
 -1      1149 1.94981E+00
 -1      1150 1.46952E+00
 -1      1151 1.05551E+00
 -1      1152 7.50650E-01
 -1      1153 5.53028E-01
 -1      1154 3.93941E-01
 -1      1155 2.62364E-01
 -1      1156 1.72422E-01
 -1      1157 1.21072E-01
 -1      1158 8.47443E-02
 -1      1159 5.74992E-02
 -1      1160 4.12864E-02
 -1      1161 3.00248E-02
 -1      1162 2.01438E-02
 -1      1163 1.43895E-02
 -1      1164 1.19210E-02
 -1      1165 9.49890E-03
 -1      1166 7.18891E-03
 -1      1167 5.77649E-03
 -1      1168 4.99024E-03
 -1      1169 4.10578E-03
 -1      1170 3.25019E-03
 -1      1171 2.48829E-03
 -1      1172 1.96418E-03
 -1      1173 1.63309E-03
 -1      1174 1.32595E-03
 -1      1175 1.04812E-03
 -1      1176 8.10015E-04
 -1      1177 6.18521E-04
 -1      1178 4.63527E-04
 -1      1179 3.54989E-04
 -1      1180 2.93638E-04
 -1      1181 2.43010E-04
 -1      1182 1.92503E-04
 -1      1183 1.45370E-04
 -1      1184 7.49304E-05
 -1      1185 1.20652E+01
 -1      1186 7.62668E+00
 -1      1187 2.89750E+00
 -1      1188 3.02654E+00
 -1      1189 4.31938E+00
 -1      1190 6.04650E+00
 -1      1191 6.92339E+00
 -1      1192 6.94633E+00
 -1      1193 6.37549E+00
 -1      1194 9.86432E+00
 -1      1195 1.64634E+01
 -1      1196 1.90027E+01
 -1      1197 1.83676E+01
 -1      1198 1.29368E+01
 -1      1199 6.62709E+00
 -1      1200 5.22469E+00
 -1      1201 5.33628E+00
 -1      1202 4.79390E+00
 -1      1203 3.72157E+00
 -1      1204 2.73967E+00
 -1      1205 2.00753E+00
 -1      1206 1.44268E+00
 -1      1207 9.52983E-01
 -1      1208 6.10055E-01
 -1      1209 3.83292E-01
 -1      1210 2.38531E-01
 -1      1211 1.47844E-01
 -1      1212 9.05679E-02
 -1      1213 5.63345E-02
 -1      1214 3.61308E-02
 -1      1215 2.33131E-02
 -1      1216 1.61627E-02
 -1      1217 1.14379E-02
 -1      1218 8.15190E-03
 -1      1219 5.83564E-03
 -1      1220 4.20368E-03
 -1      1221 3.10707E-03
 -1      1222 2.45406E-03
 -1      1223 2.03089E-03
 -1      1224 1.66349E-03
 -1      1225 1.34787E-03
 -1      1226 1.07963E-03
 -1      1227 8.63559E-04
 -1      1228 6.82067E-04
 -1      1229 5.41454E-04
 -1      1230 4.41269E-04
 -1      1231 3.64523E-04
 -1      1232 3.07649E-04
 -1      1233 2.50882E-04
 -1      1234 1.88432E-04
 -1      1235 1.22230E-04
 -1      1236 6.03902E-05
 -1      1237 2.92892E-05
 -1      1238 2.74692E-05
 -1      1239 2.40031E-05
 -1      1240 1.51023E-05
 -1      1241 1.10665E-05
 -1      1242 1.52079E-05
 -1      1243 2.02353E-05
 -1      1244 2.34520E-05
 -1      1245 2.43840E-05
 -1      1246 2.39298E-05
 -1      1247 2.14999E-05
 -1      1248 1.63609E-05
 -1      1249 1.20375E-05
 -1      1250 1.52186E-05
 -1      1251 2.83652E-05
 -1      1252 5.19726E-05
 -1      1253 4.71280E-05
 -1      1254 2.59379E+01
 -1      1255 2.70524E+01
 -1      1256 3.47358E+01
 -1      1257 4.24191E+01
 -1      1258 2.99899E+01
 -1      1259 1.58183E+01
 -1      1260 1.40760E+01
 -1      1261 1.46194E+01
 -1      1262 1.51628E+01
 -1      1263 1.86553E+01
 -1      1264 3.56178E+01
 -1      1265 4.90877E+01
 -1      1266 3.78700E+01
 -1      1267 2.58326E+01
 -1      1268 2.50129E+01
 -1      1269 2.60411E+01
 -1      1270 3.04132E+01
 -1      1271 3.37571E+01
 -1      1272 2.37451E+01
 -1      1273 1.28069E+01
 -1      1274 1.20809E+01
 -1      1275 1.22813E+01
 -1      1276 1.22049E+01
 -1      1277 1.21286E+01
 -1      1278 1.39504E+01
 -1      1279 2.87175E+01
 -1      1280 4.16626E+01
 -1      1281 3.31750E+01
 -1      1282 2.47554E+01
 -1      1283 1.34707E+01
 -1      1284 4.88962E+00
 -1      1285 9.80086E+00
 -1      1286 1.94221E+00
 -1      1287 2.92622E+00
 -1      1288 4.16761E+00
 -1      1289 1.40407E+00
 -1      1290 1.58895E+00
 -1      1291 1.85095E+00
 -1      1292 1.24475E+00
 -1      1293 1.28833E+00
 -1      1294 1.38195E+00
 -1      1295 1.23626E+00
 -1      1296 1.22978E+00
 -1      1297 1.25124E+00
 -1      1298 1.23685E+00
 -1      1299 1.23655E+00
 -1      1300 1.23655E+00
 -1      1301 1.21867E+00
 -1      1302 1.23685E+00
 -1      1303 1.23685E+00
 -1      1304 1.15299E+00
 -1      1305 1.18766E+00
 -1      1306 1.20584E+00
 -1      1307 1.01862E+00
 -1      1308 1.10162E+00
 -1      1309 1.12345E+00
 -1      1310 8.03259E-01
 -1      1311 9.23501E-01
 -1      1312 9.76959E-01
 -1      1313 8.99998E-01
 -1      1314 6.97600E-01
 -1      1315 7.76178E-01
 -1      1316 1.70709E+00
 -1      1317 1.29151E+00
 -1      1318 1.06203E+00
 -1      1319 2.50313E+00
 -1      1320 2.08567E+00
 -1      1321 1.83212E+00
 -1      1322 3.62154E+00
 -1      1323 2.95875E+00
 -1      1324 2.66631E+00
 -1      1325 9.18687E+00
 -1      1326 5.21483E+00
 -1      1327 4.71522E+00
 -1      1328 1.20652E+01
 -1      1329 8.98709E+00
 -1      1330 4.50347E+00
 -1      1331 4.10561E+00
 -1      1332 3.70775E+00
 -1      1333 4.10561E+00
 -1      1334 3.18782E+00
 -1      1335 2.66789E+00
 -1      1336 3.18782E+00
 -1      1337 2.44271E+00
 -1      1338 2.21754E+00
 -1      1339 2.44271E+00
 -1      1340 2.19086E+00
 -1      1341 2.25641E+00
 -1      1342 2.19086E+00
 -1      1343 2.34864E+00
 -1      1344 2.48672E+00
 -1      1345 2.25641E+00
 -1      1346 2.62480E+00
 -1      1347 2.73815E+00
 -1      1348 2.48672E+00
 -1      1349 2.85150E+00
 -1      1350 2.87887E+00
 -1      1351 2.73815E+00
 -1      1352 2.90624E+00
 -1      1353 2.90632E+00
 -1      1354 2.87887E+00
 -1      1355 2.90640E+00
 -1      1356 2.90640E+00
 -1      1357 2.90632E+00
 -1      1358 2.90316E+00
 -1      1359 2.89992E+00
 -1      1360 2.90316E+00
 -1      1361 2.77287E+00
 -1      1362 2.64582E+00
 -1      1363 2.77287E+00
 -1      1364 2.42736E+00
 -1      1365 2.20889E+00
 -1      1366 2.42736E+00
 -1      1367 1.97850E+00
 -1      1368 1.71942E+00
 -1      1369 1.97850E+00
 -1      1370 1.52598E+00
 -1      1371 1.30476E+00
 -1      1372 1.55466E+00
 -1      1373 1.15109E+00
 -1      1374 9.58287E-01
 -1      1375 1.20754E+00
 -1      1376 8.22756E-01
 -1      1377 7.10691E-01
 -1      1378 9.18328E-01
 -1      1379 5.93085E-01
 -1      1380 5.07529E-01
 -1      1381 6.65191E-01
 -1      1382 4.13108E-01
 -1      1383 3.39577E-01
 -1      1384 4.53164E-01
 -1      1385 2.68878E-01
 -1      1386 2.10832E-01
 -1      1387 2.88045E-01
 -1      1388 1.72422E-01
 -1      1389 1.40525E-01
 -1      1390 1.78935E-01
 -1      1391 1.21072E-01
 -1      1392 1.01620E-01
 -1      1393 1.21072E-01
 -1      1394 8.47443E-02
 -1      1395 6.78690E-02
 -1      1396 8.47443E-02
 -1      1397 5.74992E-02
 -1      1398 4.71293E-02
 -1      1399 5.74992E-02
 -1      1400 4.12864E-02
 -1      1401 3.54434E-02
 -1      1402 4.12864E-02
 -1      1403 3.00248E-02
 -1      1404 2.46063E-02
 -1      1405 3.00248E-02
 -1      1406 2.11631E-02
 -1      1407 1.67006E-02
 -1      1408 2.11631E-02
 -1      1409 1.43895E-02
 -1      1410 1.30976E-02
 -1      1411 1.54088E-02
 -1      1412 1.19210E-02
 -1      1413 1.07444E-02
 -1      1414 1.19210E-02
 -1      1415 9.49890E-03
 -1      1416 8.25337E-03
 -1      1417 9.49890E-03
 -1      1418 7.20219E-03
 -1      1419 6.13773E-03
 -1      1420 7.20219E-03
 -1      1421 5.77649E-03
 -1      1422 5.42854E-03
 -1      1423 5.78977E-03
 -1      1424 4.99024E-03
 -1      1425 4.55195E-03
 -1      1426 4.99024E-03
 -1      1427 4.10578E-03
 -1      1428 3.65961E-03
 -1      1429 4.10578E-03
 -1      1430 3.25019E-03
 -1      1431 2.84076E-03
 -1      1432 3.25019E-03
 -1      1433 2.48829E-03
 -1      1434 2.13582E-03
 -1      1435 2.48829E-03
 -1      1436 1.96418E-03
 -1      1437 1.79254E-03
 -1      1438 1.96418E-03
 -1      1439 1.63309E-03
 -1      1440 1.47363E-03
 -1      1441 1.63309E-03
 -1      1442 1.32595E-03
 -1      1443 1.17827E-03
 -1      1444 1.32595E-03
 -1      1445 1.05657E-03
 -1      1446 9.26419E-04
 -1      1447 1.05657E-03
 -1      1448 8.29196E-04
 -1      1449 7.21246E-04
 -1      1450 8.37650E-04
 -1      1451 6.43638E-04
 -1      1452 5.60094E-04
 -1      1453 6.62819E-04
 -1      1454 4.96527E-04
 -1      1455 4.25077E-04
 -1      1456 5.21644E-04
 -1      1457 3.68298E-04
 -1      1458 3.31210E-04
 -1      1459 4.01298E-04
 -1      1460 2.93638E-04
 -1      1461 2.69375E-04
 -1      1462 3.06947E-04
 -1      1463 2.43010E-04
 -1      1464 2.16646E-04
 -1      1465 2.43010E-04
 -1      1466 1.92503E-04
 -1      1467 1.68360E-04
 -1      1468 1.92503E-04
 -1      1469 1.45370E-04
 -1      1470 1.22379E-04
 -1      1471 1.45370E-04
 -1      1472 9.45770E-05
 -1      1473 9.45770E-05
 -1      1474 3.24846E+00
 -1      1475 7.68700E+00
 -1      1476 2.60250E+00
 -1      1477 2.89314E+00
 -1      1478 2.95346E+00
 -1      1479 3.61477E+00
 -1      1480 3.19509E+00
 -1      1481 3.19073E+00
 -1      1482 5.20324E+00
 -1      1483 4.33007E+00
 -1      1484 4.49862E+00
 -1      1485 6.54273E+00
 -1      1486 5.68877E+00
 -1      1487 5.69946E+00
 -1      1488 6.94660E+00
 -1      1489 6.92367E+00
 -1      1490 6.56593E+00
 -1      1491 7.89575E+00
 -1      1492 7.89575E+00
 -1      1493 7.89602E+00
 -1      1494 7.07705E+00
 -1      1495 7.64789E+00
 -1      1496 8.59731E+00
 -1      1497 1.64634E+01
 -1      1498 1.39240E+01
 -1      1499 1.90027E+01
 -1      1500 1.90027E+01
 -1      1501 1.64634E+01
 -1      1502 1.77325E+01
 -1      1503 1.83676E+01
 -1      1504 1.83676E+01
 -1      1505 8.32207E+00
 -1      1506 1.31178E+01
 -1      1507 1.31178E+01
 -1      1508 5.71812E+00
 -1      1509 7.23211E+00
 -1      1510 7.41311E+00
 -1      1511 5.96935E+00
 -1      1512 5.85776E+00
 -1      1513 6.46278E+00
 -1      1514 5.62616E+00
 -1      1515 5.62616E+00
 -1      1516 6.25923E+00
 -1      1517 4.70389E+00
 -1      1518 5.24627E+00
 -1      1519 5.53615E+00
 -1      1520 3.69350E+00
 -1      1521 4.22345E+00
 -1      1522 4.67582E+00
 -1      1523 2.63564E+00
 -1      1524 3.08758E+00
 -1      1525 3.58947E+00
 -1      1526 1.90652E+00
 -1      1527 2.18671E+00
 -1      1528 2.53462E+00
 -1      1529 1.23864E+00
 -1      1530 1.52331E+00
 -1      1531 1.70248E+00
 -1      1532 7.79289E-01
 -1      1533 9.84316E-01
 -1      1534 1.06495E+00
 -1      1535 4.97920E-01
 -1      1536 6.35822E-01
 -1      1537 6.67154E-01
 -1      1538 3.13935E-01
 -1      1539 4.02795E-01
 -1      1540 4.28562E-01
 -1      1541 1.96744E-01
 -1      1542 2.52645E-01
 -1      1543 2.72148E-01
 -1      1544 1.23043E-01
 -1      1545 1.57829E-01
 -1      1546 1.71944E-01
 -1      1547 7.47793E-02
 -1      1548 9.72691E-02
 -1      1549 1.07255E-01
 -1      1550 4.94587E-02
 -1      1551 6.12023E-02
 -1      1552 6.79035E-02
 -1      1553 3.10828E-02
 -1      1554 3.95429E-02
 -1      1555 4.44106E-02
 -1      1556 2.04471E-02
 -1      1557 2.48048E-02
 -1      1558 2.82168E-02
 -1      1559 1.47146E-02
 -1      1560 1.75073E-02
 -1      1561 1.89990E-02
 -1      1562 1.06558E-02
 -1      1563 1.25878E-02
 -1      1564 1.39324E-02
 -1      1565 7.75314E-03
 -1      1566 9.10705E-03
 -1      1567 1.02570E-02
 -1      1568 5.65469E-03
 -1      1569 6.61705E-03
 -1      1570 7.57219E-03
 -1      1571 4.16842E-03
 -1      1572 4.83803E-03
 -1      1573 5.61944E-03
 -1      1574 3.11795E-03
 -1      1575 3.54495E-03
 -1      1576 4.17930E-03
 -1      1577 2.41599E-03
 -1      1578 2.64200E-03
 -1      1579 3.07988E-03
 -1      1580 1.95794E-03
 -1      1581 2.15511E-03
 -1      1582 2.34305E-03
 -1      1583 1.59785E-03
 -1      1584 1.76808E-03
 -1      1585 1.89230E-03
 -1      1586 1.28842E-03
 -1      1587 1.43380E-03
 -1      1588 1.53839E-03
 -1      1589 1.02673E-03
 -1      1590 1.14958E-03
 -1      1591 1.23551E-03
 -1      1592 8.28136E-04
 -1      1593 9.21368E-04
 -1      1594 9.91309E-04
 -1      1595 6.40779E-04
 -1      1596 7.29038E-04
 -1      1597 7.86847E-04
 -1      1598 5.21404E-04
 -1      1599 5.73757E-04
 -1      1600 6.20728E-04
 -1      1601 4.06665E-04
 -1      1602 4.54497E-04
 -1      1603 4.86800E-04
 -1      1604 3.35609E-04
 -1      1605 3.64523E-04
 -1      1606 3.77751E-04
 -1      1607 2.79688E-04
 -1      1608 3.07649E-04
 -1      1609 3.07649E-04
 -1      1610 2.22075E-04
 -1      1611 2.50882E-04
 -1      1612 2.50882E-04
 -1      1613 1.57801E-04
 -1      1614 1.91444E-04
 -1      1615 1.91444E-04
 -1      1616 9.60745E-05
 -1      1617 1.28633E-04
 -1      1618 1.31646E-04
 -1      1619 4.09264E-05
 -1      1620 7.02074E-05
 -1      1621 7.66108E-05
 -1      1622 3.91064E-05
 -1      1623 3.58506E-05
 -1      1624 3.58506E-05
 -1      1625 4.74879E-05
 -1      1626 3.23845E-05
 -1      1627 3.58506E-05
 -1      1628 4.42321E-05
 -1      1629 2.15478E-05
 -1      1630 2.69825E-05
 -1      1631 3.88300E-05
 -1      1632 2.16359E-05
 -1      1633 2.02371E-05
 -1      1634 3.21173E-05
 -1      1635 3.25936E-05
 -1      1636 2.98509E-05
 -1      1637 3.90216E-05
 -1      1638 3.96255E-05
 -1      1639 3.73408E-05
 -1      1640 5.19838E-05
 -1      1641 4.19111E-05
 -1      1642 4.09791E-05
 -1      1643 5.80846E-05
 -1      1644 4.19111E-05
 -1      1645 4.19111E-05
 -1      1646 5.94382E-05
 -1      1647 4.10620E-05
 -1      1648 4.15162E-05
 -1      1649 5.90433E-05
 -1      1650 3.54826E-05
 -1      1651 3.74583E-05
 -1      1652 5.50447E-05
 -1      1653 2.58481E-05
 -1      1654 2.90114E-05
 -1      1655 4.49698E-05
 -1      1656 1.55934E-05
 -1      1657 1.67535E-05
 -1      1658 2.94039E-05
 -1      1659 3.35748E-05
 -1      1660 2.92336E-05
 -1      1661 3.39496E-05
 -1      1662 6.89746E-05
 -1      1663 6.01693E-05
 -1      1664 7.41842E-05
 -1      1665 2.86418E+01
 -1      1666 2.75273E+01
 -1      1667 2.86418E+01
 -1      1668 2.86418E+01
 -1      1669 3.95569E+01
 -1      1670 3.18736E+01
 -1      1671 4.24191E+01
 -1      1672 4.24191E+01
 -1      1673 1.76012E+01
 -1      1674 3.00304E+01
 -1      1675 1.38005E+01
 -1      1676 1.55428E+01
 -1      1677 1.52614E+01
 -1      1678 1.52614E+01
 -1      1679 1.58048E+01
 -1      1680 1.52614E+01
 -1      1681 1.56727E+01
 -1      1682 1.56727E+01
 -1      1683 1.75687E+01
 -1      1684 1.40761E+01
 -1      1685 3.66201E+01
 -1      1686 2.31502E+01
 -1      1687 4.90877E+01
 -1      1688 4.90877E+01
 -1      1689 2.79661E+01
 -1      1690 3.91839E+01
 -1      1691 2.83203E+01
 -1      1692 2.91399E+01
 -1      1693 2.83203E+01
 -1      1694 2.83203E+01
 -1      1695 2.57922E+01
 -1      1696 2.47640E+01
 -1      1697 3.31060E+01
 -1      1698 2.97621E+01
 -1      1699 3.37571E+01
 -1      1700 3.37571E+01
 -1      1701 1.37332E+01
 -1      1702 2.37451E+01
 -1      1703 1.16383E+01
 -1      1704 1.25646E+01
 -1      1705 1.20809E+01
 -1      1706 1.18806E+01
 -1      1707 1.22813E+01
 -1      1708 1.22813E+01
 -1      1709 1.18504E+01
 -1      1710 1.19268E+01
 -1      1711 1.21286E+01
 -1      1712 1.21286E+01
 -1      1713 1.34250E+01
 -1      1714 1.16031E+01
 -1      1715 2.88520E+01
 -1      1716 1.59068E+01
 -1      1717 4.16626E+01
 -1      1718 4.16626E+01
 -1      1719 3.11278E+01
 -1      1720 3.96154E+01
 -1      1721 2.63100E+01
 -1      1722 2.62420E+01
 -1      1723 9.18687E+00
 -1      1724 6.88061E+00
 -1      1725 8.15300E+00
 -1      1726 1.09403E+01
 -1      1727 3.34629E+01
 -1      1728 2.90139E+01
 -1      1729 3.02312E+01
 -1      1730 8.37767E-05
 -1      1731 6.89746E-05
 -1      1732 1.00779E-04
 -1      1733 3.95569E+01
 -1      1734 3.00304E+01
 -1      1735 1.55833E+01
 -1      1736 1.49859E+01
 -1      1737 1.64468E+01
 -1      1738 1.63147E+01
 -1      1739 1.45860E+01
 -1      1740 1.85710E+01
 -1      1741 3.66201E+01
 -1      1742 3.91839E+01
 -1      1743 3.04538E+01
 -1      1744 3.16276E+01
 -1      1745 2.80714E+01
 -1      1746 2.84849E+01
 -1      1747 3.31060E+01
 -1      1748 2.37451E+01
 -1      1749 1.25646E+01
 -1      1750 1.16383E+01
 -1      1751 1.20809E+01
 -1      1752 1.19268E+01
 -1      1753 1.18504E+01
 -1      1754 1.16031E+01
 -1      1755 1.35595E+01
 -1      1756 2.88520E+01
 -1      1757 3.96154E+01
 -1      1758 3.26824E+01
 -1      1759 9.80086E+00
 -1      1760 1.09403E+01
 -1      1761 1.20098E+00
 -1      1762 1.55425E+00
 -1      1763 2.40569E+00
 -1      1764 4.36909E+00
 -1      1765 1.75572E+00
 -1      1766 1.06874E+00
 -1      1767 1.08372E+00
 -1      1768 1.09685E+00
 -1      1769 1.09656E+00
 -1      1770 9.29040E-01
 -1      1771 1.15599E+00
 -1      1772 1.15599E+00
 -1      1773 1.01600E+00
 -1      1774 1.17140E+00
 -1      1775 1.20241E+00
 -1      1776 1.12156E+00
 -1      1777 1.12003E+00
 -1      1778 1.17140E+00
 -1      1779 1.16798E+00
 -1      1780 1.00323E+00
 -1      1781 1.09835E+00
 -1      1782 1.14630E+00
 -1      1783 8.44848E-01
 -1      1784 9.50508E-01
 -1      1785 1.07190E+00
 -1      1786 1.43587E+00
 -1      1787 1.04435E+00
 -1      1788 1.21868E+00
 -1      1789 2.06950E+00
 -1      1790 1.69093E+00
 -1      1791 1.67325E+00
 -1      1792 2.74842E+00
 -1      1793 2.29280E+00
 -1      1794 2.15161E+00
 -1      1795 4.80864E+00
 -1      1796 3.21535E+00
 -1      1797 2.84184E+00
 -1      1798 3.13974E+01
 -1      1799 2.81656E+01
 -1      1800 8.60408E+00
 -1      1801 8.80052E+00
 -1      1802 5.31724E+00
 -1      1803 4.80864E+00
 -1      1804 2.97339E+00
 -1      1805 2.45346E+00
 -1      1806 2.33682E+00
 -1      1807 2.11165E+00
 -1      1808 2.12239E+00
 -1      1809 2.06771E+00
 -1      1810 2.04103E+00
 -1      1811 1.96182E+00
 -1      1812 2.06916E+00
 -1      1813 2.16139E+00
 -1      1814 1.94601E+00
 -1      1815 2.22183E+00
 -1      1816 2.35991E+00
 -1      1817 2.03458E+00
 -1      1818 2.41217E+00
 -1      1819 2.52552E+00
 -1      1820 2.14728E+00
 -1      1821 2.53694E+00
 -1      1822 2.56431E+00
 -1      1823 2.21096E+00
 -1      1824 2.51774E+00
 -1      1825 2.51781E+00
 -1      1826 2.17581E+00
 -1      1827 2.54374E+00
 -1      1828 2.54050E+00
 -1      1829 2.15515E+00
 -1      1830 2.51557E+00
 -1      1831 2.38852E+00
 -1      1832 2.15614E+00
 -1      1833 2.29794E+00
 -1      1834 2.07948E+00
 -1      1835 2.04064E+00
 -1      1836 1.93723E+00
 -1      1837 1.70684E+00
 -1      1838 1.80782E+00
 -1      1839 1.57258E+00
 -1      1840 1.37914E+00
 -1      1841 1.53131E+00
 -1      1842 1.24030E+00
 -1      1843 1.08662E+00
 -1      1844 1.25822E+00
 -1      1845 9.52528E-01
 -1      1846 8.16998E-01
 -1      1847 9.85294E-01
 -1      1848 7.12031E-01
 -1      1849 5.94425E-01
 -1      1850 7.46232E-01
 -1      1851 5.02492E-01
 -1      1852 4.08071E-01
 -1      1853 5.49332E-01
 -1      1854 3.33130E-01
 -1      1855 2.62431E-01
 -1      1856 3.82458E-01
 -1      1857 2.05211E-01
 -1      1858 1.66800E-01
 -1      1859 2.50296E-01
 -1      1860 1.25785E-01
 -1      1861 1.06333E-01
 -1      1862 1.52061E-01
 -1      1863 7.87809E-02
 -1      1864 6.19056E-02
 -1      1865 8.34939E-02
 -1      1866 4.97897E-02
 -1      1867 3.94198E-02
 -1      1868 4.38262E-02
 -1      1869 3.56327E-02
 -1      1870 2.97897E-02
 -1      1871 2.79232E-02
 -1      1872 2.83216E-02
 -1      1873 2.29030E-02
 -1      1874 2.26680E-02
 -1      1875 2.06384E-02
 -1      1876 1.71953E-02
 -1      1877 1.89352E-02
 -1      1878 1.56219E-02
 -1      1879 1.33107E-02
 -1      1880 1.50972E-02
 -1      1881 1.15941E-02
 -1      1882 1.04175E-02
 -1      1883 1.18072E-02
 -1      1884 9.29942E-03
 -1      1885 8.05389E-03
 -1      1886 8.97246E-03
 -1      1887 7.20219E-03
 -1      1888 6.15101E-03
 -1      1889 7.00271E-03
 -1      1890 5.35457E-03
 -1      1891 4.99333E-03
 -1      1892 5.35457E-03
 -1      1893 4.31493E-03
 -1      1894 3.87663E-03
 -1      1895 3.87972E-03
 -1      1896 3.67158E-03
 -1      1897 3.22541E-03
 -1      1898 2.99626E-03
 -1      1899 3.01352E-03
 -1      1900 2.60409E-03
 -1      1901 2.57932E-03
 -1      1902 2.38753E-03
 -1      1903 2.03506E-03
 -1      1904 2.15086E-03
 -1      1905 1.83327E-03
 -1      1906 1.66163E-03
 -1      1907 1.73251E-03
 -1      1908 1.51979E-03
 -1      1909 1.36033E-03
 -1      1910 1.38888E-03
 -1      1911 1.27498E-03
 -1      1912 1.12730E-03
 -1      1913 1.16168E-03
 -1      1914 1.03776E-03
 -1      1915 9.16059E-04
 -1      1916 9.86786E-04
 -1      1917 8.29990E-04
 -1      1918 7.32767E-04
 -1      1919 8.11175E-04
 -1      1920 6.64351E-04
 -1      1921 5.86743E-04
 -1      1922 6.56691E-04
 -1      1923 5.24348E-04
 -1      1924 4.60781E-04
 -1      1925 5.25879E-04
 -1      1926 4.09852E-04
 -1      1927 3.53073E-04
 -1      1928 4.12556E-04
 -1      1929 3.10372E-04
 -1      1930 2.72799E-04
 -1      1931 3.18926E-04
 -1      1932 2.35477E-04
 -1      1933 2.09112E-04
 -1      1934 2.38902E-04
 -1      1935 1.84388E-04
 -1      1936 1.60245E-04
 -1      1937 1.76854E-04
 -1      1938 1.37902E-04
 -1      1939 1.14911E-04
 -1      1940 1.29786E-04
 -1      1941 1.10140E+01
 -1      1942 1.56287E+01
 -1      1943 4.89110E+00
 -1      1944 4.17580E+00
 -1      1945 3.51421E+00
 -1      1946 2.92163E+00
 -1      1947 3.90670E+00
 -1      1948 6.32420E+00
 -1      1949 5.83867E+00
 -1      1950 5.51585E+00
 -1      1951 7.05207E+00
 -1      1952 6.67113E+00
 -1      1953 6.81034E+00
 -1      1954 8.84517E+00
 -1      1955 7.89602E+00
 -1      1956 8.00121E+00
 -1      1957 1.75927E+01
 -1      1958 1.50533E+01
 -1      1959 9.27331E+00
 -1      1960 9.13367E+00
 -1      1961 7.31898E+00
 -1      1962 7.66217E+00
 -1      1963 1.03331E+01
 -1      1964 6.31039E+00
 -1      1965 6.69029E+00
 -1      1966 8.09322E+00
 -1      1967 5.08117E+00
 -1      1968 5.56161E+00
 -1      1969 6.71574E+00
 -1      1970 3.69834E+00
 -1      1971 4.30425E+00
 -1      1972 5.19004E+00
 -1      1973 2.58470E+00
 -1      1974 3.03364E+00
 -1      1975 3.74842E+00
 -1      1976 1.66356E+00
 -1      1977 2.04677E+00
 -1      1978 2.54578E+00
 -1      1979 1.03743E+00
 -1      1980 1.29176E+00
 -1      1981 1.63604E+00
 -1      1982 6.50775E-01
 -1      1983 7.94242E-01
 -1      1984 1.02105E+00
 -1      1985 4.02324E-01
 -1      1986 4.97449E-01
 -1      1987 6.24537E-01
 -1      1988 2.46492E-01
 -1      1989 3.07781E-01
 -1      1990 3.76668E-01
 -1      1991 1.50080E-01
 -1      1992 1.88994E-01
 -1      1993 2.24627E-01
 -1      1994 8.84941E-02
 -1      1995 1.14268E-01
 -1      1996 1.31319E-01
 -1      1997 5.70161E-02
 -1      1998 7.05931E-02
 -1      1999 7.76066E-02
 -1      2000 3.70159E-02
 -1      2001 4.69317E-02
 -1      2002 4.96213E-02
 -1      2003 2.40422E-02
 -1      2004 3.03202E-02
 -1      2005 3.28413E-02
 -1      2006 1.66646E-02
 -1      2007 1.96044E-02
 -1      2008 2.17079E-02
 -1      2009 1.18057E-02
 -1      2010 1.39324E-02
 -1      2011 1.45379E-02
 -1      2012 8.70828E-03
 -1      2013 1.02570E-02
 -1      2014 1.02570E-02
 -1      2015 6.43610E-03
 -1      2016 7.57219E-03
 -1      2017 7.57219E-03
 -1      2018 4.89465E-03
 -1      2019 5.71131E-03
 -1      2020 5.71131E-03
 -1      2021 3.71646E-03
 -1      2022 4.33994E-03
 -1      2023 4.43181E-03
 -1      2024 2.81735E-03
 -1      2025 3.29330E-03
 -1      2026 3.45393E-03
 -1      2027 2.21521E-03
 -1      2028 2.47610E-03
 -1      2029 2.68952E-03
 -1      2030 1.75195E-03
 -1      2031 1.94181E-03
 -1      2032 2.07486E-03
 -1      2033 1.41913E-03
 -1      2034 1.58317E-03
 -1      2035 1.63268E-03
 -1      2036 1.15715E-03
 -1      2037 1.29599E-03
 -1      2038 1.34077E-03
 -1      2039 9.40100E-04
 -1      2040 1.04546E-03
 -1      2041 1.10594E-03
 -1      2042 7.43343E-04
 -1      2043 8.42441E-04
 -1      2044 8.96596E-04
 -1      2045 6.04016E-04
 -1      2046 6.71037E-04
 -1      2047 7.26631E-04
 -1      2048 4.66191E-04
 -1      2049 5.33098E-04
 -1      2050 5.83407E-04
 -1      2051 3.62849E-04
 -1      2052 4.04991E-04
 -1      2053 4.51289E-04
 -1      2054 2.82942E-04
 -1      2055 3.10902E-04
 -1      2056 3.38142E-04
 -1      2057 2.16624E-04
 -1      2058 2.45431E-04
 -1      2059 2.48684E-04
 -1      2060 1.60814E-04
 -1      2061 1.91444E-04
 -1      2062 1.85993E-04
 -1      2063 1.07115E-04
 -1      2064 1.36283E-04
 -1      2065 1.36283E-04
 -1      2066 5.24337E-05
 -1      2067 7.83008E-05
 -1      2068 8.29380E-05
 -1      2069 4.91779E-05
 -1      2070 5.05405E-05
 -1      2071 5.59426E-05
 -1      2072 5.59426E-05
 -1      2073 5.59426E-05
 -1      2074 6.08884E-05
 -1      2075 6.76531E-05
 -1      2076 3.80148E-05
 -1      2077 3.93255E-05
 -1      2078 5.64380E-05
 -1      2079 5.69993E-05
 -1      2080 4.87843E-05
 -1      2081 5.59925E-05
 -1      2082 6.89113E-05
 -1      2083 6.41641E-05
 -1      2084 7.39268E-05
 -1      2085 7.27271E-05
 -1      2086 7.13735E-05
 -1      2087 8.35538E-05
 -1      2088 7.27271E-05
 -1      2089 7.27271E-05
 -1      2090 8.60160E-05
 -1      2091 7.20717E-05
 -1      2092 7.24666E-05
 -1      2093 8.57555E-05
 -1      2094 6.71627E-05
 -1      2095 7.07665E-05
 -1      2096 8.41898E-05
 -1      2097 5.52747E-05
 -1      2098 6.17460E-05
 -1      2099 7.74677E-05
 -1      2100 3.64302E-05
 -1      2101 4.55248E-05
 -1      2102 6.23010E-05
 -1      2103 4.51865E-05
 -1      2104 3.15463E-05
 -1      2105 4.76672E-05
 -1      2106 8.51564E-05
 -1      2107 5.85620E-05
 -1      2108 5.61587E-05
 -1      2109 3.29408E+01
 -1      2110 3.00786E+01
 -1      2111 2.47813E+01
 -1      2112 1.11579E-04
 -1      2113 3.98222E+01
 -1      2114 3.86049E+01
 -1      2115 1.70896E+01
 -1      2116 1.08375E+00
 -1      2117 1.19949E+00
 -1      2118 9.02781E-01
 -1      2119 9.01252E-01
 -1      2120 1.58946E+01
 -1      2121 2.82833E+01
 -1      2122 1.77248E+01
 -1      2123 1.67021E+01
 -1      2124 1.11205E+01
 -1      2125 3.31073E+01
 -1      2126 2.06397E+01
 -1      2127 2.92801E+01
 -1      2128 3.91839E+01
 -1      2129 2.32034E+01
 -1      2130 3.23246E+01
 -1      2131 3.11508E+01
 -1      2132 3.55642E+01
 -1      2133 3.55642E+01
 -1      2134 3.62612E+01
 -1      2135 3.20079E+01
 -1      2136 3.55642E+01
 -1      2137 2.85067E+01
 -1      2138 2.45368E+01
 -1      2139 3.20297E+01
 -1      2140 2.78515E+01
 -1      2141 2.72004E+01
 -1      2142 1.33603E+01
 -1      2143 2.33723E+01
 -1      2144 9.21087E+00
 -1      2145 1.03794E+01
 -1      2146 1.07871E+01
 -1      2147 1.05449E+01
 -1      2148 1.18802E+01
 -1      2149 1.16798E+01
 -1      2150 1.05864E+01
 -1      2151 1.15221E+01
 -1      2152 1.18766E+01
 -1      2153 1.14834E+01
 -1      2154 1.12052E+01
 -1      2155 1.11551E+01
 -1      2156 9.93232E+00
 -1      2157 1.04578E+01
 -1      2158 1.21666E+01
 -1      2159 9.68477E+00
 -1      2160 2.80664E+01
 -1      2161 1.52557E+01
 -1      2162 3.16857E+01
 -1      2163 3.37330E+01
 -1      2164 2.58496E+01
 -1      2165 3.07354E+01
 -1      2166 3.30877E+00
 -1      2167 3.98222E+01
 -1      2168 3.98222E+01
 -1      2169 1.04111E-04
 -1      2170 3.55532E+00
 -1      2171 8.10946E+00
 -1      2172 1.06204E+01
 -1      2173 1.26788E+01
 -1      2174 7.01950E+00
 -1      2175 1.09316E+01
 -1      2176 3.77566E+01
 -1      2177 4.94132E+01
 -1      2178 9.83003E+00
 -1      2179 3.15746E+00
 -1      2180 1.10858E+01
 -1      2181 8.10212E+00
 -1      2182 2.42310E+00
 -1      2183 3.27694E+00
 -1      2184 2.95346E+00
 -1      2185 1.22151E+01
 -1      2186 1.07094E+01
 -1      2187 1.07094E+01
 -1      2188 1.04615E+01
 -1      2189 1.88050E+01
 -1      2190 1.70896E+01
 -1      2191 3.95008E+01
 -1      2192 3.11508E+01
 -1      2193 1.04111E-04
 -1      2194 3.66579E+01
 -1      2195 2.48529E+01
 -1      2196 2.01367E+01
 -1      2197 1.13810E+01
 -1      2198 9.81258E+00
 -1      2199 1.14756E+01
 -1      2200 8.35968E+00
 -1      2201 1.00065E+01
 -1      2202 2.32522E+01
 -1      2203 8.84888E-05
 -1      2204 1.31892E+01
 -1      2205 1.06186E+01
 -1      2206 8.74964E+00
 -1      2207 1.74667E+01
 -1      2208 8.53941E+00
 -1      2209 1.09005E+00
 -1      2210 1.03091E+00
 -1      2211 8.68807E-01
 -1      2212 8.40988E-01
 -1      2213 9.42860E-01
 -1      2214 1.35628E+00
 -1      2215 1.35628E+00
 -1      2216 1.33460E+00
 -1      2217 1.35628E+00
 -1      2218 1.54458E+00
 -1      2219 1.24924E+00
 -1      2220 1.30196E+00
 -1      2221 1.51194E+00
 -1      2222 1.58478E+00
 -1      2223 1.38527E+00
 -1      2224 1.61533E+00
 -1      2225 2.22221E+00
 -1      2226 1.96714E+00
 -1      2227 2.13373E+00
 -1      2228 2.69635E+00
 -1      2229 2.47306E+00
 -1      2230 2.76695E+00
 -1      2231 3.21792E+00
 -1      2232 2.75099E+00
 -1      2233 3.07243E+00
 -1      2234 3.18609E+00
 -1      2235 1.09126E+01
 -1      2236 1.84827E+01
 -1      2237 1.66184E+01
 -1      2238 1.78490E+00
 -1      2239 1.66826E+00
 -1      2240 1.85069E+00
 -1      2241 1.66663E+00
 -1      2242 1.21249E+00
 -1      2243 9.99250E-01
 -1      2244 1.76406E+00
 -1      2245 1.72013E+00
 -1      2246 1.42657E+00
 -1      2247 1.77559E+00
 -1      2248 1.80373E+00
 -1      2249 1.57784E+00
 -1      2250 1.85414E+00
 -1      2251 1.91458E+00
 -1      2252 1.68372E+00
 -1      2253 1.94859E+00
 -1      2254 2.00085E+00
 -1      2255 1.76814E+00
 -1      2256 2.00258E+00
 -1      2257 2.01400E+00
 -1      2258 1.80389E+00
 -1      2259 1.97701E+00
 -1      2260 1.93043E+00
 -1      2261 1.76863E+00
 -1      2262 1.89335E+00
 -1      2263 1.91927E+00
 -1      2264 1.69455E+00
 -1      2265 1.93632E+00
 -1      2266 1.91139E+00
 -1      2267 1.67452E+00
 -1      2268 1.89137E+00
 -1      2269 1.80079E+00
 -1      2270 1.67154E+00
 -1      2271 1.73585E+00
 -1      2272 1.59360E+00
 -1      2273 1.58658E+00
 -1      2274 1.51277E+00
 -1      2275 1.37851E+00
 -1      2276 1.44080E+00
 -1      2277 1.27962E+00
 -1      2278 1.14079E+00
 -1      2279 1.26108E+00
 -1      2280 1.02336E+00
 -1      2281 8.89264E-01
 -1      2282 1.04476E+00
 -1      2283 7.72264E-01
 -1      2284 6.67297E-01
 -1      2285 8.10329E-01
 -1      2286 5.63993E-01
 -1      2287 4.72060E-01
 -1      2288 5.90025E-01
 -1      2289 3.97479E-01
 -1      2290 3.22537E-01
 -1      2291 4.12139E-01
 -1      2292 2.64958E-01
 -1      2293 2.07737E-01
 -1      2294 2.79978E-01
 -1      2295 1.64895E-01
 -1      2296 1.23879E-01
 -1      2297 1.79556E-01
 -1      2298 9.57411E-02
 -1      2299 6.81895E-02
 -1      2300 1.08575E-01
 -1      2301 4.96652E-02
 -1      2302 3.75492E-02
 -1      2303 6.19124E-02
 -1      2304 2.89666E-02
 -1      2305 2.51795E-02
 -1      2306 3.48055E-02
 -1      2307 2.06746E-02
 -1      2308 1.92065E-02
 -1      2309 2.17180E-02
 -1      2310 1.76998E-02
 -1      2311 1.54352E-02
 -1      2312 1.57064E-02
 -1      2313 1.49996E-02
 -1      2314 1.34262E-02
 -1      2315 1.37642E-02
 -1      2316 1.23576E-02
 -1      2317 1.06410E-02
 -1      2318 1.22600E-02
 -1      2319 9.34293E-03
 -1      2320 8.22487E-03
 -1      2321 9.89341E-03
 -1      2322 7.14380E-03
 -1      2323 6.29210E-03
 -1      2324 7.51427E-03
 -1      2325 5.42137E-03
 -1      2326 4.62493E-03
 -1      2327 5.56246E-03
 -1      2328 3.86493E-03
 -1      2329 3.18652E-03
 -1      2330 3.93173E-03
 -1      2331 2.68910E-03
 -1      2332 2.48405E-03
 -1      2333 2.67431E-03
 -1      2334 2.15945E-03
 -1      2335 1.94756E-03
 -1      2336 1.85229E-03
 -1      2337 1.90219E-03
 -1      2338 1.68563E-03
 -1      2339 1.48233E-03
 -1      2340 1.60627E-03
 -1      2341 1.40447E-03
 -1      2342 1.35760E-03
 -1      2343 1.31023E-03
 -1      2344 1.16839E-03
 -1      2345 1.18399E-03
 -1      2346 1.07186E-03
 -1      2347 9.86505E-04
 -1      2348 9.93215E-04
 -1      2349 9.30374E-04
 -1      2350 8.40832E-04
 -1      2351 8.40552E-04
 -1      2352 7.87616E-04
 -1      2353 7.01548E-04
 -1      2354 7.31205E-04
 -1      2355 6.44536E-04
 -1      2356 5.76119E-04
 -1      2357 6.20977E-04
 -1      2358 5.23507E-04
 -1      2359 4.61112E-04
 -1      2360 5.11352E-04
 -1      2361 4.14569E-04
 -1      2362 3.63641E-04
 -1      2363 4.12197E-04
 -1      2364 3.20716E-04
 -1      2365 2.78014E-04
 -1      2366 3.22729E-04
 -1      2367 2.42800E-04
 -1      2368 2.05478E-04
 -1      2369 2.44590E-04
 -1      2370 1.77613E-04
 -1      2371 1.52889E-04
 -1      2372 1.81512E-04
 -1      2373 1.26519E-04
 -1      2374 1.04176E-04
 -1      2375 8.52215E-05
 -1      2376 1.27278E-04
 -1      2377 5.97123E+00
 -1      2378 5.02367E+00
 -1      2379 9.77596E+00
 -1      2380 8.93200E+00
 -1      2381 1.18955E+01
 -1      2382 1.63747E+01
 -1      2383 2.61000E+01
 -1      2384 3.77566E+01
 -1      2385 1.30458E+01
 -1      2386 9.98466E+00
 -1      2387 1.15958E+01
 -1      2388 4.93147E+00
 -1      2389 5.70840E+00
 -1      2390 3.23804E+00
 -1      2391 3.90273E+00
 -1      2392 4.42109E+00
 -1      2393 2.05613E+00
 -1      2394 2.59407E+00
 -1      2395 2.74839E+00
 -1      2396 1.30343E+00
 -1      2397 1.67523E+00
 -1      2398 1.72352E+00
 -1      2399 8.19472E-01
 -1      2400 1.06266E+00
 -1      2401 1.10185E+00
 -1      2402 5.10046E-01
 -1      2403 6.63373E-01
 -1      2404 7.04981E-01
 -1      2405 3.14869E-01
 -1      2406 4.09413E-01
 -1      2407 4.48248E-01
 -1      2408 1.92924E-01
 -1      2409 2.50421E-01
 -1      2410 2.83166E-01
 -1      2411 1.15963E-01
 -1      2412 1.51774E-01
 -1      2413 1.77568E-01
 -1      2414 7.33484E-02
 -1      2415 9.12493E-02
 -1      2416 1.11704E-01
 -1      2417 4.66040E-02
 -1      2418 5.66883E-02
 -1      2419 7.03310E-02
 -1      2420 2.94080E-02
 -1      2421 3.61037E-02
 -1      2422 4.31706E-02
 -1      2423 1.83999E-02
 -1      2424 2.28377E-02
 -1      2425 2.61001E-02
 -1      2426 1.17699E-02
 -1      2427 1.45021E-02
 -1      2428 1.56320E-02
 -1      2429 8.44583E-03
 -1      2430 9.99453E-03
 -1      2431 9.95877E-03
 -1      2432 6.27757E-03
 -1      2433 7.41366E-03
 -1      2434 7.15121E-03
 -1      2435 4.94416E-03
 -1      2436 5.66895E-03
 -1      2437 5.51041E-03
 -1      2438 3.87710E-03
 -1      2439 4.43181E-03
 -1      2440 4.38945E-03
 -1      2441 3.03077E-03
 -1      2442 3.45393E-03
 -1      2443 3.45393E-03
 -1      2444 2.34827E-03
 -1      2445 2.68952E-03
 -1      2446 2.68952E-03
 -1      2447 1.84087E-03
 -1      2448 2.11427E-03
 -1      2449 2.11427E-03
 -1      2450 1.48579E-03
 -1      2451 1.65457E-03
 -1      2452 1.69397E-03
 -1      2453 1.21763E-03
 -1      2454 1.34077E-03
 -1      2455 1.36265E-03
 -1      2456 9.94254E-04
 -1      2457 1.10594E-03
 -1      2458 1.10594E-03
 -1      2459 7.98937E-04
 -1      2460 8.96596E-04
 -1      2461 8.96596E-04
 -1      2462 6.54325E-04
 -1      2463 7.26631E-04
 -1      2464 7.26631E-04
 -1      2465 5.12903E-04
 -1      2466 5.83820E-04
 -1      2467 5.83820E-04
 -1      2468 3.91326E-04
 -1      2469 4.52526E-04
 -1      2470 4.52940E-04
 -1      2471 2.93790E-04
 -1      2472 3.45737E-04
 -1      2473 3.46974E-04
 -1      2474 2.17190E-04
 -1      2475 2.54701E-04
 -1      2476 2.62295E-04
 -1      2477 1.58795E-04
 -1      2478 1.83974E-04
 -1      2479 1.89991E-04
 -1      2480 8.60827E-05
 -1      2481 1.14897E-04
 -1      2482 9.28474E-05
 -1      2483 7.59063E-05
 -1      2484 6.51368E-05
 -1      2485 9.28700E-05
 -1      2486 8.57053E-05
 -1      2487 9.48496E-05
 -1      2488 6.41377E-05
 -1      2489 7.53528E-05
 -1      2490 8.40516E-05
 -1      2491 9.91407E-05
 -1      2492 9.66785E-05
 -1      2493 1.08457E-04
 -1      2494 9.91407E-05
 -1      2495 9.91407E-05
 -1      2496 1.12265E-04
 -1      2497 9.85137E-05
 -1      2498 9.87741E-05
 -1      2499 1.11899E-04
 -1      2500 9.72084E-05
 -1      2501 9.85137E-05
 -1      2502 1.11532E-04
 -1      2503 8.94049E-05
 -1      2504 9.48216E-05
 -1      2505 1.09146E-04
 -1      2506 7.21557E-05
 -1      2507 8.19056E-05
 -1      2508 9.92595E-05
 -1      2509 6.51270E-05
 -1      2510 7.00110E-05
 -1      2511 8.96155E-05
 -1      2512 7.05999E-05
 -1      2513 5.72245E-05
 -1      2514 7.95682E-05
 -1      2515 8.62872E-05
 -1      2516 1.91821E+01
 -1      2517 2.05008E+01
 -1      2518 2.05008E+01
 -1      2519 2.11189E+01
 -1      2520 2.20692E+01
 -1      2521 6.95546E+00
 -1      2522 5.62141E+00
 -1      2523 7.39058E+00
 -1      2524 8.13937E+00
 -1      2525 7.13202E+00
 -1      2526 1.14953E+01
 -1      2527 1.21240E+01
 -1      2528 1.21701E+01
 -1      2529 4.26225E+00
 -1      2530 3.60066E+00
 -1      2531 3.54165E+00
 -1      2532 4.71764E+00
 -1      2533 7.65015E+00
 -1      2534 7.30323E+00
 -1      2535 6.81105E+00
 -1      2536 1.28046E+00
 -1      2537 1.23404E+00
 -1      2538 1.24895E+00
 -1      2539 1.46876E+00
 -1      2540 3.95008E+01
 -1      2541 3.95008E+01
 -1      2542 2.87066E+01
 -1      2543 2.68359E+01
 -1      2544 3.62612E+01
 -1      2545 3.30216E+01
 -1      2546 2.45585E+01
 -1      2547 3.20297E+01
 -1      2548 6.39651E+00
 -1      2549 6.64406E+00
 -1      2550 1.95430E+01
 -1      2551 2.08493E+01
 -1      2552 2.08493E+01
 -1      2553 6.81978E+00
 -1      2554 9.80066E+00
 -1      2555 8.34291E+00
 -1      2556 7.45022E+00
 -1      2557 9.56663E+00
 -1      2558 9.57021E+00
 -1      2559 9.17249E+00
 -1      2560 9.48938E+00
 -1      2561 7.58940E+00
 -1      2562 8.61501E+00
 -1      2563 1.07108E+01
 -1      2564 7.62170E+00
 -1      2565 1.85070E+01
 -1      2566 1.28404E+01
 -1      2567 1.47729E+01
 -1      2568 4.94132E+01
 -1      2569 4.94132E+01
 -1      2570 3.66579E+01
 -1      2571 2.39026E+01
 -1      2572 1.77034E+01
 -1      2573 7.08947E-01
 -1      2574 7.69179E-01
 -1      2575 7.69211E-01
 -1      2576 9.42489E+00
 -1      2577 9.97753E-01
 -1      2578 2.09268E+01
 -1      2579 8.70871E+00
 -1      2580 1.75492E+01
 -1      2581 1.39718E+01
 -1      2582 2.29090E+01
 -1      2583 3.45656E+01
 -1      2584 3.45656E+01
 -1      2585 1.33867E+01
 -1      2586 1.39428E-04
 -1      2587 1.37409E-04
 -1      2588 9.71212E-05
 -1      2589 8.94215E-05
 -1      2590 8.94215E-05
 -1      2591 4.71194E+00
 -1      2592 2.11189E+01
 -1      2593 3.66579E+01
 -1      2594 5.41556E+00
 -1      2595 1.12355E+01
 -1      2596 7.47618E+00
 -1      2597 9.60573E+00
 -1      2598 5.44650E+00
 -1      2599 6.94930E+00
 -1      2600 7.58403E+00
 -1      2601 6.43399E+00
 -1      2602 5.72636E+00
 -1      2603 3.62612E+01
 -1      2604 1.48502E+01
 -1      2605 3.20297E+01
 -1      2606 1.73550E+01
 -1      2607 1.84870E+00
 -1      2608 1.88133E+00
 -1      2609 1.80926E+00
 -1      2610 1.80926E+00
 -1      2611 2.14602E+00
 -1      2612 2.87250E+00
 -1      2613 2.49013E+00
 -1      2614 3.34480E+00
 -1      2615 3.09396E+00
 -1      2616 3.45035E+00
 -1      2617 3.54165E+00
 -1      2618 3.48701E+00
 -1      2619 3.81402E+00
 -1      2620 3.95622E+00
 -1      2621 2.52144E+00
 -1      2622 3.16540E+00
 -1      2623 8.92281E-01
 -1      2624 1.01055E+00
 -1      2625 1.57766E+00
 -1      2626 1.95856E+00
 -1      2627 2.37557E+00
 -1      2628 1.37877E+00
 -1      2629 1.43424E+00
 -1      2630 1.52252E+00
 -1      2631 1.57293E+00
 -1      2632 1.32345E+00
 -1      2633 1.62982E+00
 -1      2634 1.66383E+00
 -1      2635 1.46862E+00
 -1      2636 1.68188E+00
 -1      2637 1.68362E+00
 -1      2638 1.54356E+00
 -1      2639 1.65722E+00
 -1      2640 1.62023E+00
 -1      2641 1.53522E+00
 -1      2642 1.58189E+00
 -1      2643 1.54481E+00
 -1      2644 1.47049E+00
 -1      2645 1.51930E+00
 -1      2646 1.53635E+00
 -1      2647 1.40664E+00
 -1      2648 1.55411E+00
 -1      2649 1.53409E+00
 -1      2650 1.39889E+00
 -1      2651 1.52037E+00
 -1      2652 1.45542E+00
 -1      2653 1.40293E+00
 -1      2654 1.42063E+00
 -1      2655 1.33979E+00
 -1      2656 1.35442E+00
 -1      2657 1.26679E+00
 -1      2658 1.16791E+00
 -1      2659 1.24662E+00
 -1      2660 1.06166E+00
 -1      2661 9.44222E-01
 -1      2662 1.06737E+00
 -1      2663 8.57240E-01
 -1      2664 7.40241E-01
 -1      2665 8.74134E-01
 -1      2666 6.60765E-01
 -1      2667 5.57460E-01
 -1      2668 7.07675E-01
 -1      2669 4.78110E-01
 -1      2670 4.03528E-01
 -1      2671 5.48849E-01
 -1      2672 3.33588E-01
 -1      2673 2.76009E-01
 -1      2674 3.99559E-01
 -1      2675 2.19820E-01
 -1      2676 1.76977E-01
 -1      2677 2.73430E-01
 -1      2678 1.35149E-01
 -1      2679 1.07011E-01
 -1      2680 1.75413E-01
 -1      2681 7.84119E-02
 -1      2682 5.98876E-02
 -1      2683 1.04986E-01
 -1      2684 4.33938E-02
 -1      2685 3.48112E-02
 -1      2686 5.98933E-02
 -1      2687 2.64210E-02
 -1      2688 2.19161E-02
 -1      2689 3.50093E-02
 -1      2690 1.72131E-02
 -1      2691 1.57064E-02
 -1      2692 2.19161E-02
 -1      2693 1.40202E-02
 -1      2694 1.35846E-02
 -1      2695 1.55269E-02
 -1      2696 1.26505E-02
 -1      2697 1.15820E-02
 -1      2698 1.29066E-02
 -1      2699 1.03928E-02
 -1      2700 9.09474E-03
 -1      2701 1.07833E-02
 -1      2702 7.88612E-03
 -1      2703 6.80504E-03
 -1      2704 8.38551E-03
 -1      2705 5.75079E-03
 -1      2706 4.88005E-03
 -1      2707 6.12263E-03
 -1      2708 4.15884E-03
 -1      2709 3.39884E-03
 -1      2710 4.34717E-03
 -1      2711 2.80168E-03
 -1      2712 2.30426E-03
 -1      2713 3.02880E-03
 -1      2714 1.83792E-03
 -1      2715 1.51332E-03
 -1      2716 1.96529E-03
 -1      2717 1.22631E-03
 -1      2718 1.18095E-03
 -1      2719 1.21194E-03
 -1      2720 1.13462E-03
 -1      2721 1.05526E-03
 -1      2722 8.78609E-04
 -1      2723 1.05723E-03
 -1      2724 9.62986E-04
 -1      2725 8.34255E-04
 -1      2726 9.34447E-04
 -1      2727 8.37914E-04
 -1      2728 8.07685E-04
 -1      2729 7.92440E-04
 -1      2730 7.36309E-04
 -1      2731 7.33672E-04
 -1      2732 6.83444E-04
 -1      2733 6.30228E-04
 -1      2734 6.35332E-04
 -1      2735 5.94436E-04
 -1      2736 5.37423E-04
 -1      2737 5.46674E-04
 -1      2738 4.97697E-04
 -1      2739 4.45085E-04
 -1      2740 4.71156E-04
 -1      2741 4.04234E-04
 -1      2742 3.57691E-04
 -1      2743 3.90579E-04
 -1      2744 3.21123E-04
 -1      2745 2.78198E-04
 -1      2746 3.13160E-04
 -1      2747 2.45045E-04
 -1      2748 2.09832E-04
 -1      2749 2.43440E-04
 -1      2750 1.81512E-04
 -1      2751 1.53648E-04
 -1      2752 1.81968E-04
 -1      2753 1.43733E-04
 -1      2754 1.17363E-04
 -1      2755 1.02742E-04
 -1      2756 1.43733E-04
 -1      2757 7.95812E-01
 -1      2758 9.62292E+00
 -1      2759 1.27912E+01
 -1      2760 4.10665E+00
 -1      2761 3.61189E+00
 -1      2762 4.06465E+00
 -1      2763 5.09340E+00
 -1      2764 3.83770E+00
 -1      2765 9.87011E-01
 -1      2766 1.22778E+00
 -1      2767 1.46282E+00
 -1      2768 6.13816E-01
 -1      2769 7.69916E-01
 -1      2770 8.95846E-01
 -1      2771 3.78978E-01
 -1      2772 4.79612E-01
 -1      2773 5.44546E-01
 -1      2774 2.32514E-01
 -1      2775 2.96962E-01
 -1      2776 3.28326E-01
 -1      2777 1.45662E-01
 -1      2778 1.86812E-01
 -1      2779 2.00608E-01
 -1      2780 9.13176E-02
 -1      2781 1.16031E-01
 -1      2782 1.25275E-01
 -1      2783 5.82019E-02
 -1      2784 7.48620E-02
 -1      2785 7.91885E-02
 -1      2786 3.69232E-02
 -1      2787 4.74236E-02
 -1      2788 5.19545E-02
 -1      2789 2.31242E-02
 -1      2790 2.96945E-02
 -1      2791 3.39474E-02
 -1      2792 1.44087E-02
 -1      2793 1.83065E-02
 -1      2794 2.19010E-02
 -1      2795 9.43999E-03
 -1      2796 1.12154E-02
 -1      2797 1.38899E-02
 -1      2798 6.30203E-03
 -1      2799 7.33420E-03
 -1      2800 8.59081E-03
 -1      2801 4.30925E-03
 -1      2802 4.91787E-03
 -1      2803 5.10086E-03
 -1      2804 3.41495E-03
 -1      2805 3.92730E-03
 -1      2806 3.33475E-03
 -1      2807 2.78086E-03
 -1      2808 3.20402E-03
 -1      2809 2.74187E-03
 -1      2810 2.23260E-03
 -1      2811 2.57385E-03
 -1      2812 2.32394E-03
 -1      2813 1.80880E-03
 -1      2814 2.04279E-03
 -1      2815 1.92713E-03
 -1      2816 1.45513E-03
 -1      2817 1.64143E-03
 -1      2818 1.56995E-03
 -1      2819 1.17506E-03
 -1      2820 1.32008E-03
 -1      2821 1.26754E-03
 -1      2822 9.68742E-04
 -1      2823 1.08043E-03
 -1      2824 1.03786E-03
 -1      2825 7.85330E-04
 -1      2826 8.82989E-04
 -1      2827 8.57477E-04
 -1      2828 6.37078E-04
 -1      2829 7.09384E-04
 -1      2830 6.95777E-04
 -1      2831 5.03754E-04
 -1      2832 5.74258E-04
 -1      2833 5.57011E-04
 -1      2834 3.92261E-04
 -1      2835 4.52637E-04
 -1      2836 4.43075E-04
 -1      2837 3.01384E-04
 -1      2838 3.46974E-04
 -1      2839 3.46671E-04
 -1      2840 2.23480E-04
 -1      2841 2.62569E-04
 -1      2842 2.62569E-04
 -1      2843 1.59337E-04
 -1      2844 1.92552E-04
 -1      2845 1.92825E-04
 -1      2846 1.02879E-04
 -1      2847 1.16948E-04
 -1      2848 1.16938E-04
 -1      2849 1.07139E-04
 -1      2850 1.03065E-04
 -1      2851 1.02066E-04
 -1      2852 1.25154E-04
 -1      2853 1.26160E-04
 -1      2854 1.22351E-04
 -1      2855 1.34641E-04
 -1      2856 1.24278E-04
 -1      2857 1.24645E-04
 -1      2858 1.24870E-04
 -1      2859 1.24870E-04
 -1      2860 1.37616E-04
 -1      2861 1.22484E-04
 -1      2862 1.24870E-04
 -1      2863 1.38209E-04
 -1      2864 1.09888E-04
 -1      2865 1.17388E-04
 -1      2866 1.33112E-04
 -1      2867 1.10644E-04
 -1      2868 1.12789E-04
 -1      2869 1.30917E-04
 -1      2870 1.30745E+01
 -1      2871 1.41360E+01
 -1      2872 1.05737E+01
 -1      2873 1.02657E+01
 -1      2874 1.36216E+01
 -1      2875 8.47702E+00
 -1      2876 7.14503E+00
 -1      2877 2.60200E+01
 -1      2878 2.17051E+01
 -1      2879 1.08153E+01
 -1      2880 9.53343E+00
 -1      2881 4.01646E+00
 -1      2882 5.21482E+00
 -1      2883 1.48626E+01
 -1      2884 7.12801E+00
 -1      2885 9.22279E+00
 -1      2886 5.72890E+00
 -1      2887 2.60200E+01
 -1      2888 6.71551E+00
 -1      2889 8.39770E+00
 -1      2890 6.35907E+00
 -1      2891 1.26160E-04
 -1      2892 1.26160E-04
 -1      2893 1.40054E-04
 -1      2894 1.38539E-04
 -1      2895 2.05692E+00
 -1      2896 1.92089E+00
 -1      2897 2.29028E+00
 -1      2898 2.79568E+00
 -1      2899 2.14611E+01
 -1      2900 2.89322E+01
 -1      2901 5.57243E+00
 -1      2902 6.12990E+00
 -1      2903 1.01639E+00
 -1      2904 8.54285E-01
 -1      2905 1.51019E+01
 -1      2906 1.88111E+01
 -1      2907 1.07530E+01
 -1      2908 1.97862E+01
 -1      2909 1.70025E+01
 -1      2910 5.09912E+00
 -1      2911 3.87393E+00
 -1      2912 6.03062E+00
 -1      2913 4.80332E+00
 -1      2914 6.70318E+00
 -1      2915 6.78044E+00
 -1      2916 2.70539E+01
 -1      2917 2.38143E+01
 -1      2918 3.88528E+00
 -1      2919 4.83061E+00
 -1      2920 1.15442E+00
 -1      2921 1.25023E+00
 -1      2922 1.10662E+00
 -1      2923 8.34210E-01
 -1      2924 3.34268E+01
 -1      2925 2.06715E+01
 -1      2926 1.65550E+01
 -1      2927 1.49711E+01
 -1      2928 1.94131E+00
 -1      2929 1.67663E+00
 -1      2930 1.60081E+00
 -1      2931 1.28032E+01
 -1      2932 1.52138E+01
 -1      2933 2.08130E+01
 -1      2934 6.63739E-01
 -1      2935 8.04221E+00
 -1      2936 1.76220E+01
 -1      2937 3.41116E+00
 -1      2938 7.85488E-01
 -1      2939 7.13679E-01
 -1      2940 8.59017E-01
 -1      2941 1.39741E-04
 -1      2942 1.42302E-04
 -1      2943 1.21893E-04
 -1      2944 1.14616E-04
 -1      2945 1.33983E-04
 -1      2946 3.87393E+00
 -1      2947 3.25804E+00
 -1      2948 3.24669E+00
 -1      2949 1.33867E+01
 -1      2950 9.84920E+00
 -1      2951 1.10644E-04
 -1      2952 4.52789E+00
 -1      2953 3.42784E+00
 -1      2954 4.12452E+00
 -1      2955 1.64853E+01
 -1      2956 5.32631E+00
 -1      2957 3.11000E+01
 -1      2958 1.51136E+01
 -1      2959 1.62525E+01
 -1      2960 5.14976E+00
 -1      2961 8.96879E+00
 -1      2962 6.03316E+00
 -1      2963 4.18073E+00
 -1      2964 6.55778E+00
 -1      2965 1.33817E-04
 -1      2966 9.86741E+00
 -1      2967 5.27221E+00
 -1      2968 4.51079E+00
 -1      2969 4.51079E+00
 -1      2970 6.93818E+00
 -1      2971 2.19727E+01
 -1      2972 4.01121E+00
 -1      2973 1.34442E+00
 -1      2974 1.20044E+00
 -1      2975 1.11186E+00
 -1      2976 1.55230E+00
 -1      2977 1.57137E+01
 -1      2978 1.27654E+01
 -1      2979 5.17257E+00
 -1      2980 4.95111E+00
 -1      2981 1.32302E+01
 -1      2982 1.23448E+01
 -1      2983 7.40280E-01
 -1      2984 1.84928E+00
 -1      2985 2.41216E+00
 -1      2986 1.60578E-04
 -1      2987 1.56504E-04
 -1      2988 1.17068E+00
 -1      2989 1.25896E+00
 -1      2990 1.37071E+00
 -1      2991 1.42759E+00
 -1      2992 1.21794E+00
 -1      2993 1.47434E+00
 -1      2994 1.49239E+00
 -1      2995 1.37642E+00
 -1      2996 1.54119E+00
 -1      2997 1.51480E+00
 -1      2998 1.47197E+00
 -1      2999 1.53328E+00
 -1      3000 1.49495E+00
 -1      3001 1.53926E+00
 -1      3002 1.40772E+00
 -1      3003 1.38221E+00
 -1      3004 1.47052E+00
 -1      3005 1.45174E+00
 -1      3006 1.46950E+00
 -1      3007 1.45281E+00
 -1      3008 1.43856E+00
 -1      3009 1.42484E+00
 -1      3010 1.49140E+00
 -1      3011 1.35747E+00
 -1      3012 1.32267E+00
 -1      3013 1.39309E+00
 -1      3014 1.26489E+00
 -1      3015 1.19189E+00
 -1      3016 1.26794E+00
 -1      3017 1.13374E+00
 -1      3018 1.02749E+00
 -1      3019 1.15202E+00
 -1      3020 9.50725E-01
 -1      3021 8.63742E-01
 -1      3022 1.01710E+00
 -1      3023 7.81147E-01
 -1      3024 7.01671E-01
 -1      3025 8.57737E-01
 -1      3026 6.10779E-01
 -1      3027 5.31428E-01
 -1      3028 6.84250E-01
 -1      3029 4.47502E-01
 -1      3030 3.77562E-01
 -1      3031 5.09432E-01
 -1      3032 3.08147E-01
 -1      3033 2.51958E-01
 -1      3034 3.56091E-01
 -1      3035 1.99121E-01
 -1      3036 1.57293E-01
 -1      3037 2.33838E-01
 -1      3038 1.20002E-01
 -1      3039 9.14027E-02
 -1      3040 1.43710E-01
 -1      3041 7.27254E-02
 -1      3042 5.62317E-02
 -1      3043 8.77412E-02
 -1      3044 4.33995E-02
 -1      3045 3.50093E-02
 -1      3046 5.62317E-02
 -1      3047 2.66191E-02
 -1      3048 2.19161E-02
 -1      3049 3.50093E-02
 -1      3050 1.75393E-02
 -1      3051 1.58530E-02
 -1      3052 2.22422E-02
 -1      3053 1.38407E-02
 -1      3054 1.29066E-02
 -1      3055 1.58530E-02
 -1      3056 1.13544E-02
 -1      3057 1.01653E-02
 -1      3058 1.22885E-02
 -1      3059 8.75948E-03
 -1      3060 7.55085E-03
 -1      3061 9.33061E-03
 -1      3062 6.39407E-03
 -1      3063 5.33982E-03
 -1      3064 6.76804E-03
 -1      3065 4.62474E-03
 -1      3066 3.90353E-03
 -1      3067 4.89618E-03
 -1      3068 3.24713E-03
 -1      3069 2.64998E-03
 -1      3070 3.52471E-03
 -1      3071 2.13187E-03
 -1      3072 1.66552E-03
 -1      3073 2.35020E-03
 -1      3074 1.29037E-03
 -1      3075 1.00336E-03
 -1      3076 1.45694E-03
 -1      3077 7.46441E-04
 -1      3078 7.00116E-04
 -1      3079 8.24867E-04
 -1      3080 6.50412E-04
 -1      3081 6.52382E-04
 -1      3082 5.18244E-04
 -1      3083 6.96033E-04
 -1      3084 6.67494E-04
 -1      3085 5.12190E-04
 -1      3086 6.74476E-04
 -1      3087 6.29002E-04
 -1      3088 5.62824E-04
 -1      3089 6.12695E-04
 -1      3090 5.59830E-04
 -1      3091 5.53499E-04
 -1      3092 5.30172E-04
 -1      3093 4.94380E-04
 -1      3094 5.07536E-04
 -1      3095 4.64976E-04
 -1      3096 4.25251E-04
 -1      3097 4.48475E-04
 -1      3098 3.98611E-04
 -1      3099 3.57760E-04
 -1      3100 3.92432E-04
 -1      3101 3.27192E-04
 -1      3102 2.90625E-04
 -1      3103 3.35225E-04
 -1      3104 2.59591E-04
 -1      3105 2.26438E-04
 -1      3106 2.73623E-04
 -1      3107 1.96983E-04
 -1      3108 1.68664E-04
 -1      3109 2.13134E-04
 -1      3110 1.43733E-04
 -1      3111 2.99682E+00
 -1      3112 3.89607E+00
 -1      3113 2.47053E+00
 -1      3114 7.22640E+00
 -1      3115 7.62652E+00
 -1      3116 4.53620E-01
 -1      3117 5.87824E-01
 -1      3118 2.81535E-01
 -1      3119 3.63551E-01
 -1      3120 4.06829E-01
 -1      3121 1.78316E-01
 -1      3122 2.24018E-01
 -1      3123 2.59243E-01
 -1      3124 1.12090E-01
 -1      3125 1.41721E-01
 -1      3126 1.65131E-01
 -1      3127 7.12239E-02
 -1      3128 8.76795E-02
 -1      3129 1.04126E-01
 -1      3130 4.59621E-02
 -1      3131 5.67404E-02
 -1      3132 6.52314E-02
 -1      3133 2.94534E-02
 -1      3134 3.66821E-02
 -1      3135 4.14680E-02
 -1      3136 1.85929E-02
 -1      3137 2.34106E-02
 -1      3138 2.61453E-02
 -1      3139 1.16435E-02
 -1      3140 1.48368E-02
 -1      3141 1.63464E-02
 -1      3142 7.44254E-03
 -1      3143 9.54834E-03
 -1      3144 1.04952E-02
 -1      3145 4.58755E-03
 -1      3146 5.97171E-03
 -1      3147 6.92923E-03
 -1      3148 3.21468E-03
 -1      3149 3.59663E-03
 -1      3150 4.46748E-03
 -1      3151 2.29103E-03
 -1      3152 2.50196E-03
 -1      3153 2.76384E-03
 -1      3154 1.79398E-03
 -1      3155 2.00099E-03
 -1      3156 1.76108E-03
 -1      3157 1.55407E-03
 -1      3158 1.74387E-03
 -1      3159 1.42093E-03
 -1      3160 1.31099E-03
 -1      3161 1.47836E-03
 -1      3162 1.29510E-03
 -1      3163 1.09103E-03
 -1      3164 1.22608E-03
 -1      3165 1.13448E-03
 -1      3166 9.11807E-04
 -1      3167 1.00644E-03
 -1      3168 9.64973E-04
 -1      3169 7.48992E-04
 -1      3170 8.34745E-04
 -1      3171 8.03322E-04
 -1      3172 6.21475E-04
 -1      3173 6.97421E-04
 -1      3174 6.74690E-04
 -1      3175 5.06088E-04
 -1      3176 5.68908E-04
 -1      3177 5.70552E-04
 -1      3178 4.04992E-04
 -1      3179 4.56108E-04
 -1      3180 4.68006E-04
 -1      3181 3.14118E-04
 -1      3182 3.59405E-04
 -1      3183 3.72439E-04
 -1      3184 2.36315E-04
 -1      3185 2.75130E-04
 -1      3186 2.87864E-04
 -1      3187 1.44471E-04
 -1      3188 1.45284E-04
 -1      3189 1.64880E-04
 -1      3190 1.79895E-04
 -1      3191 1.55049E-04
 -1      3192 1.49636E-04
 -1      3193 1.80986E-04
 -1      3194 1.53710E-04
 -1      3195 1.53710E-04
 -1      3196 1.49838E-04
 -1      3197 1.49245E-04
 -1      3198 1.65339E-04
 -1      3199 1.46360E-04
 -1      3200 1.43459E-04
 -1      3201 2.90728E+00
 -1      3202 3.31184E+00
 -1      3203 4.38422E+00
 -1      3204 4.95750E+00
 -1      3205 1.57176E+01
 -1      3206 1.76220E+01
 -1      3207 1.22521E+01
 -1      3208 1.19455E+01
 -1      3209 1.45955E+01
 -1      3210 1.15949E+00
 -1      3211 1.50937E+00
 -1      3212 1.54596E+00
 -1      3213 4.79252E+00
 -1      3214 4.04270E+00
 -1      3215 1.48614E-04
 -1      3216 1.53710E-04
 -1      3217 1.69211E-04
 -1      3218 1.64057E-04
 -1      3219 7.26739E-01
 -1      3220 9.43835E-01
 -1      3221 6.35813E-01
 -1      3222 1.23068E+01
 -1      3223 9.44033E+00
 -1      3224 4.02340E+00
 -1      3225 5.93658E+00
 -1      3226 8.07147E+00
 -1      3227 1.03821E+01
 -1      3228 5.04874E+00
 -1      3229 6.67085E+00
 -1      3230 4.20785E+00
 -1      3231 2.63933E+00
 -1      3232 2.56726E+00
 -1      3233 3.07926E+00
 -1      3234 3.82109E+00
 -1      3235 1.36835E+01
 -1      3236 1.18052E+01
 -1      3237 9.91536E+00
 -1      3238 8.37768E+00
 -1      3239 7.40969E+00
 -1      3240 5.31477E+00
 -1      3241 5.17257E+00
 -1      3242 6.67332E+00
 -1      3243 5.86934E+00
 -1      3244 8.98194E+00
 -1      3245 7.98118E+00
 -1      3246 9.84920E+00
 -1      3247 8.84150E-01
 -1      3248 3.35530E+00
 -1      3249 3.71254E+00
 -1      3250 3.43711E+00
 -1      3251 1.58748E-04
 -1      3252 5.52089E+00
 -1      3253 7.88124E+00
 -1      3254 1.10419E+00
 -1      3255 1.03539E+00
 -1      3256 2.81905E+00
 -1      3257 2.83040E+00
 -1      3258 2.64028E+00
 -1      3259 1.55049E-04
 -1      3260 1.55049E-04
 -1      3261 1.70045E-04
 -1      3262 1.95807E-04
 -1      3263 2.08369E-04
 -1      3264 3.03929E+00
 -1      3265 3.03929E+00
 -1      3266 3.97332E+00
 -1      3267 3.82150E+00
 -1      3268 3.38829E+00
 -1      3269 5.54372E+00
 -1      3270 1.71291E-04
 -1      3271 3.51952E+00
 -1      3272 9.96356E+00
 -1      3273 8.90715E+00
 -1      3274 3.85043E+00
 -1      3275 7.25566E+00
 -1      3276 5.96667E+00
 -1      3277 9.90388E-01
 -1      3278 1.03840E+01
 -1      3279 9.26401E+00
 -1      3280 3.45228E+00
 -1      3281 7.74216E+00
 -1      3282 7.83831E+00
 -1      3283 2.92749E+00
 -1      3284 2.82818E+00
 -1      3285 3.34874E+00
 -1      3286 2.29579E+00
 -1      3287 2.16316E+00
 -1      3288 2.78910E+00
 -1      3289 6.67085E+00
 -1      3290 3.11468E+00
 -1      3291 3.04249E+00
 -1      3292 3.46373E+00
 -1      3293 4.14050E+00
 -1      3294 1.52561E-04
 -1      3295 1.54077E-04
 -1      3296 1.69072E-04
 -1      3297 1.64783E-04
 -1      3298 1.00737E+01
 -1      3299 1.24004E+01
 -1      3300 8.19022E+00
 -1      3301 7.67082E+00
 -1      3302 1.13598E+00
 -1      3303 1.07150E+00
 -1      3304 1.00744E+00
 -1      3305 1.28823E+00
 -1      3306 1.10419E+00
 -1      3307 1.28056E+00
 -1      3308 1.55261E+01
 -1      3309 1.28715E-01
 -1      3310 1.65310E-01
 -1      3311 9.13509E-01
 -1      3312 2.09460E-04
 -1      3313 2.20402E-04
 -1      3314 4.12838E+00
 -1      3315 5.41820E+00
 -1      3316 1.34818E+00
 -1      3317 1.39493E+00
 -1      3318 1.47197E+00
 -1      3319 1.52077E+00
 -1      3320 1.44373E+00
 -1      3321 1.64931E+00
 -1      3322 1.66779E+00
 -1      3323 1.64931E+00
 -1      3324 1.65710E+00
 -1      3325 1.56987E+00
 -1      3326 1.76715E+00
 -1      3327 1.56868E+00
 -1      3328 1.63820E+00
 -1      3329 1.75526E+00
 -1      3330 1.64341E+00
 -1      3331 1.61247E+00
 -1      3332 1.75927E+00
 -1      3333 1.47736E+00
 -1      3334 1.40999E+00
 -1      3335 1.62937E+00
 -1      3336 1.38354E+00
 -1      3337 1.32576E+00
 -1      3338 1.46780E+00
 -1      3339 1.23958E+00
 -1      3340 1.18144E+00
 -1      3341 1.35518E+00
 -1      3342 1.09387E+00
 -1      3343 1.01710E+00
 -1      3344 1.18144E+00
 -1      3345 9.25403E-01
 -1      3346 8.42807E-01
 -1      3347 1.00217E+00
 -1      3348 7.33249E-01
 -1      3349 6.42357E-01
 -1      3350 8.00915E-01
 -1      3351 5.40905E-01
 -1      3352 4.56979E-01
 -1      3353 5.89905E-01
 -1      3354 3.82515E-01
 -1      3355 3.13099E-01
 -1      3356 4.13988E-01
 -1      3357 2.65593E-01
 -1      3358 2.12755E-01
 -1      3359 2.92016E-01
 -1      3360 1.73363E-01
 -1      3361 1.36071E-01
 -1      3362 2.05117E-01
 -1      3363 1.06240E-01
 -1      3364 8.75625E-02
 -1      3365 1.35893E-01
 -1      3366 6.64805E-02
 -1      3367 5.36483E-02
 -1      3368 8.49791E-02
 -1      3369 4.01666E-02
 -1      3370 3.17764E-02
 -1      3371 5.04154E-02
 -1      3372 2.59394E-02
 -1      3373 2.15626E-02
 -1      3374 3.10967E-02
 -1      3375 1.80488E-02
 -1      3376 1.60364E-02
 -1      3377 2.17459E-02
 -1      3378 1.33152E-02
 -1      3379 1.17631E-02
 -1      3380 1.55110E-02
 -1      3381 1.00106E-02
 -1      3382 8.60478E-03
 -1      3383 1.10373E-02
 -1      3384 7.61736E-03
 -1      3385 6.46059E-03
 -1      3386 8.29733E-03
 -1      3387 5.60636E-03
 -1      3388 4.89128E-03
 -1      3389 6.45569E-03
 -1      3390 4.10681E-03
 -1      3391 3.45042E-03
 -1      3392 4.81699E-03
 -1      3393 2.79381E-03
 -1      3394 2.27570E-03
 -1      3395 3.37592E-03
 -1      3396 1.77793E-03
 -1      3397 1.40278E-03
 -1      3398 2.22154E-03
 -1      3399 1.05608E-03
 -1      3400 7.99159E-04
 -1      3401 1.37707E-03
 -1      3402 6.09652E-04
 -1      3403 5.59948E-04
 -1      3404 8.40863E-04
 -1      3405 4.29343E-04
 -1      3406 4.72994E-04
 -1      3407 5.20751E-04
 -1      3408 4.73734E-04
 -1      3409 4.80716E-04
 -1      3410 3.90886E-04
 -1      3411 5.02226E-04
 -1      3412 4.85919E-04
 -1      3413 4.13136E-04
 -1      3414 4.83410E-04
 -1      3415 4.53753E-04
 -1      3416 4.32136E-04
 -1      3417 4.36511E-04
 -1      3418 4.07107E-04
 -1      3419 4.12385E-04
 -1      3420 3.85341E-04
 -1      3421 3.58701E-04
 -1      3422 3.73377E-04
 -1      3423 3.37862E-04
 -1      3424 3.07294E-04
 -1      3425 3.30771E-04
 -1      3426 2.81912E-04
 -1      3427 2.50877E-04
 -1      3428 2.84548E-04
 -1      3429 2.29848E-04
 -1      3430 2.00393E-04
 -1      3431 1.88004E-04
 -1      3432 2.38136E-04
 -1      3433 1.98748E-01
 -1      3434 2.56265E-01
 -1      3435 1.62332E-01
 -1      3436 1.93811E+00
 -1      3437 2.52277E+00
 -1      3438 3.16567E-01
 -1      3439 4.06636E-01
 -1      3440 2.56072E-01
 -1      3441 8.53907E-02
 -1      3442 1.09801E-01
 -1      3443 1.09980E-01
 -1      3444 5.55067E-02
 -1      3445 6.99902E-02
 -1      3446 7.56659E-02
 -1      3447 3.57906E-02
 -1      3448 4.50706E-02
 -1      3449 4.98293E-02
 -1      3450 2.30194E-02
 -1      3451 2.90622E-02
 -1      3452 3.26648E-02
 -1      3453 1.48720E-02
 -1      3454 1.86281E-02
 -1      3455 2.15450E-02
 -1      3456 9.78266E-03
 -1      3457 1.18778E-02
 -1      3458 1.41595E-02
 -1      3459 6.33520E-03
 -1      3460 7.80604E-03
 -1      3461 9.18864E-03
 -1      3462 3.98250E-03
 -1      3463 4.97342E-03
 -1      3464 5.85023E-03
 -1      3465 2.35254E-03
 -1      3466 3.06526E-03
 -1      3467 3.57121E-03
 -1      3468 1.57373E-03
 -1      3469 1.86377E-03
 -1      3470 2.16520E-03
 -1      3471 1.17793E-03
 -1      3472 1.22804E-03
 -1      3473 1.33073E-03
 -1      3474 1.01652E-03
 -1      3475 1.09223E-03
 -1      3476 8.99345E-04
 -1      3477 9.30788E-04
 -1      3478 1.01571E-03
 -1      3479 8.12832E-04
 -1      3480 8.18426E-04
 -1      3481 9.03015E-04
 -1      3482 7.84242E-04
 -1      3483 7.00840E-04
 -1      3484 7.77901E-04
 -1      3485 7.15944E-04
 -1      3486 6.02420E-04
 -1      3487 6.53991E-04
 -1      3488 6.28571E-04
 -1      3489 5.03023E-04
 -1      3490 5.55589E-04
 -1      3491 5.34891E-04
 -1      3492 4.18887E-04
 -1      3493 4.68867E-04
 -1      3494 4.53904E-04
 -1      3495 3.37695E-04
 -1      3496 3.83281E-04
 -1      3497 3.84142E-04
 -1      3498 2.64908E-04
 -1      3499 3.03896E-04
 -1      3500 3.14738E-04
 -1      3501 2.20402E-04
 -1      3502 2.01595E-04
 -1      3503 1.97723E-04
 -1      3504 5.07046E-01
 -1      3505 6.45961E-01
 -1      3506 4.16784E-01
 -1      3507 3.55270E+00
 -1      3508 3.38772E+00
 -1      3509 2.85724E+00
 -1      3510 3.56879E+00
 -1      3511 3.25163E+00
 -1      3512 4.40430E+00
 -1      3513 2.71921E+00
 -1      3514 8.03144E-01
 -1      3515 1.01880E+00
 -1      3516 6.74376E-01
 -1      3517 5.80492E+00
 -1      3518 4.95301E+00
 -1      3519 1.25751E+00
 -1      3520 1.59742E+00
 -1      3521 1.64966E+00
 -1      3522 1.07027E+00
 -1      3523 6.28097E+00
 -1      3524 6.72592E+00
 -1      3525 4.88846E+00
 -1      3526 6.86229E+00
 -1      3527 8.42569E+00
 -1      3528 7.41988E+00
 -1      3529 6.35723E+00
 -1      3530 7.79701E+00
 -1      3531 7.75896E+00
 -1      3532 1.25274E+00
 -1      3533 1.36448E+00
 -1      3534 1.38298E+00
 -1      3535 2.88915E+00
 -1      3536 3.45228E+00
 -1      3537 2.98957E+00
 -1      3538 2.12926E+00
 -1      3539 1.87288E+00
 -1      3540 1.86520E+00
 -1      3541 5.43491E+00
 -1      3542 6.74524E+00
 -1      3543 6.43488E+00
 -1      3544 4.47869E+00
 -1      3545 1.15868E+00
 -1      3546 4.80906E+00
 -1      3547 4.40590E+00
 -1      3548 1.86484E-04
 -1      3549 2.25900E-04
 -1      3550 1.86484E-04
 -1      3551 3.34001E+00
 -1      3552 3.00985E+00
 -1      3553 3.04228E+00
 -1      3554 1.93159E-04
 -1      3555 2.96548E+00
 -1      3556 2.53784E+00
 -1      3557 3.46611E+00
 -1      3558 2.18198E+00
 -1      3559 2.43084E+00
 -1      3560 2.43084E+00
 -1      3561 2.48876E-04
 -1      3562 2.64908E-04
 -1      3563 3.96386E+00
 -1      3564 2.82242E+00
 -1      3565 3.80211E+00
 -1      3566 2.01595E-04
 -1      3567 2.33978E-04
 -1      3568 2.01595E-04
 -1      3569 2.06358E-04
 -1      3570 1.70102E-04
 -1      3571 1.73418E-04
 -1      3572 2.83441E+00
 -1      3573 3.24639E+00
 -1      3574 2.74604E+00
 -1      3575 7.83831E+00
 -1      3576 6.52942E+00
 -1      3577 7.35919E+00
 -1      3578 6.13621E+00
 -1      3579 5.60384E+00
 -1      3580 4.31594E+00
 -1      3581 2.97061E+00
 -1      3582 2.69915E+00
 -1      3583 3.45318E+00
 -1      3584 8.14898E+00
 -1      3585 7.23692E+00
 -1      3586 1.25274E+00
 -1      3587 1.13086E+00
 -1      3588 1.16556E+00
 -1      3589 5.34357E+00
 -1      3590 6.23495E+00
 -1      3591 5.88760E+00
 -1      3592 2.75808E+00
 -1      3593 1.66366E+00
 -1      3594 1.63584E+00
 -1      3595 1.66366E+00
 -1      3596 1.31210E+00
 -1      3597 6.07194E+00
 -1      3598 5.74726E+00
 -1      3599 4.94233E+00
 -1      3600 2.48374E+00
 -1      3601 2.78754E+00
 -1      3602 2.76732E+00
 -1      3603 2.81660E+00
 -1      3604 5.21904E+00
 -1      3605 9.43684E-02
 -1      3606 1.13282E-01
 -1      3607 1.72643E+00
 -1      3608 1.85497E+00
 -1      3609 2.04556E+00
 -1      3610 2.04437E+00
 -1      3611 2.16369E+00
 -1      3612 2.16890E+00
 -1      3613 2.45400E+00
 -1      3614 1.82558E+00
 -1      3615 1.69048E+00
 -1      3616 2.23001E+00
 -1      3617 2.08927E+00
 -1      3618 2.06281E+00
 -1      3619 2.28549E+00
 -1      3620 1.61980E+00
 -1      3621 1.53363E+00
 -1      3622 2.24127E+00
 -1      3623 1.26900E+00
 -1      3624 1.18144E+00
 -1      3625 1.53363E+00
 -1      3626 1.09417E+00
 -1      3627 1.00247E+00
 -1      3628 1.18174E+00
 -1      3629 8.91308E-01
 -1      3630 7.81750E-01
 -1      3631 9.83307E-01
 -1      3632 6.63942E-01
 -1      3633 5.62490E-01
 -1      3634 7.54335E-01
 -1      3635 4.83472E-01
 -1      3636 4.09007E-01
 -1      3637 5.57509E-01
 -1      3638 3.38073E-01
 -1      3639 2.90566E-01
 -1      3640 4.07557E-01
 -1      3641 2.33361E-01
 -1      3642 1.93968E-01
 -1      3643 2.79418E-01
 -1      3644 1.52467E-01
 -1      3645 1.22635E-01
 -1      3646 1.80711E-01
 -1      3647 9.64604E-02
 -1      3648 7.53784E-02
 -1      3649 1.13035E-01
 -1      3650 6.11301E-02
 -1      3651 4.76484E-02
 -1      3652 7.26114E-02
 -1      3653 3.81802E-02
 -1      3654 3.23432E-02
 -1      3655 4.88949E-02
 -1      3656 2.55042E-02
 -1      3657 2.19904E-02
 -1      3658 3.25877E-02
 -1      3659 1.73100E-02
 -1      3660 1.45888E-02
 -1      3661 2.10682E-02
 -1      3662 1.23200E-02
 -1      3663 1.05675E-02
 -1      3664 1.41190E-02
 -1      3665 9.28475E-03
 -1      3666 8.29733E-03
 -1      3667 1.05675E-02
 -1      3668 7.13136E-03
 -1      3669 6.27713E-03
 -1      3670 8.11877E-03
 -1      3671 5.29575E-03
 -1      3672 4.51128E-03
 -1      3673 5.97141E-03
 -1      3674 3.72748E-03
 -1      3675 3.07088E-03
 -1      3676 4.20624E-03
 -1      3677 2.46950E-03
 -1      3678 1.97172E-03
 -1      3679 2.82106E-03
 -1      3680 1.59518E-03
 -1      3681 1.24848E-03
 -1      3682 1.84314E-03
 -1      3683 1.01452E-03
 -1      3684 8.25018E-04
 -1      3685 1.23264E-03
 -1      3686 6.51356E-04
 -1      3687 5.20751E-04
 -1      3688 8.25018E-04
 -1      3689 3.90147E-04
 -1      3690 3.90886E-04
 -1      3691 5.20751E-04
 -1      3692 3.56782E-04
 -1      3693 3.78292E-04
 -1      3694 3.56043E-04
 -1      3695 3.91280E-04
 -1      3696 3.88770E-04
 -1      3697 3.34926E-04
 -1      3698 3.90138E-04
 -1      3699 3.72896E-04
 -1      3700 3.49281E-04
 -1      3701 3.61083E-04
 -1      3702 3.39317E-04
 -1      3703 3.38836E-04
 -1      3704 3.22084E-04
 -1      3705 3.01244E-04
 -1      3706 3.09791E-04
 -1      3707 2.84321E-04
 -1      3708 2.58938E-04
 -1      3709 2.75634E-04
 -1      3710 2.46572E-04
 -1      3711 2.25542E-04
 -1      3712 2.18558E-01
 -1      3713 2.78860E-01
 -1      3714 2.71208E+00
 -1      3715 3.27167E+00
 -1      3716 2.69915E+00
 -1      3717 3.91635E-02
 -1      3718 4.95995E-02
 -1      3719 2.67117E-02
 -1      3720 3.34402E-02
 -1      3721 3.32104E-02
 -1      3722 1.80856E-02
 -1      3723 2.24769E-02
 -1      3724 2.32523E-02
 -1      3725 1.21208E-02
 -1      3726 1.51150E-02
 -1      3727 1.60469E-02
 -1      3728 8.15941E-03
 -1      3729 1.01360E-02
 -1      3730 1.10916E-02
 -1      3731 5.33068E-03
 -1      3732 6.69246E-03
 -1      3733 7.63986E-03
 -1      3734 3.34524E-03
 -1      3735 4.26249E-03
 -1      3736 5.10471E-03
 -1      3737 2.10418E-03
 -1      3738 2.59295E-03
 -1      3739 3.28423E-03
 -1      3740 1.24009E-03
 -1      3741 1.58579E-03
 -1      3742 2.01354E-03
 -1      3743 8.05013E-04
 -1      3744 8.90708E-04
 -1      3745 1.14576E-03
 -1      3746 6.48927E-04
 -1      3747 6.49744E-04
 -1      3748 6.41107E-04
 -1      3749 6.36186E-04
 -1      3750 6.63959E-04
 -1      3751 5.00872E-04
 -1      3752 6.02293E-04
 -1      3753 6.42818E-04
 -1      3754 5.22535E-04
 -1      3755 5.42018E-04
 -1      3756 5.88867E-04
 -1      3757 5.15741E-04
 -1      3758 4.69878E-04
 -1      3759 5.16709E-04
 -1      3760 4.77005E-04
 -1      3761 4.04746E-04
 -1      3762 4.38902E-04
 -1      3763 4.20720E-04
 -1      3764 3.39644E-04
 -1      3765 3.75249E-04
 -1      3766 3.60247E-04
 -1      3767 2.81016E-04
 -1      3768 3.14815E-04
 -1      3769 3.05922E-04
 -1      3770 3.40959E-01
 -1      3771 4.41369E-01
 -1      3772 3.03445E-01
 -1      3773 2.24830E+00
 -1      3774 5.38955E-01
 -1      3775 6.96138E-01
 -1      3776 4.63130E-01
 -1      3777 6.15644E-02
 -1      3778 7.69649E-02
 -1      3779 8.02668E-02
 -1      3780 5.08985E-02
 -1      3781 1.40786E-01
 -1      3782 1.74224E-01
 -1      3783 1.97013E-01
 -1      3784 1.25175E-01
 -1      3785 5.64796E+00
 -1      3786 5.30889E+00
 -1      3787 4.94543E+00
 -1      3788 2.62953E+00
 -1      3789 2.55572E+00
 -1      3790 2.62007E+00
 -1      3791 1.70804E+00
 -1      3792 1.69174E+00
 -1      3793 4.75692E+00
 -1      3794 4.20461E+00
 -1      3795 2.16131E+00
 -1      3796 2.89018E+00
 -1      3797 2.48302E-04
 -1      3798 2.64334E-04
 -1      3799 2.64410E-04
 -1      3800 2.25325E-04
 -1      3801 2.73124E+00
 -1      3802 2.83166E+00
 -1      3803 1.78584E-04
 -1      3804 1.79557E-04
 -1      3805 1.95996E-04
 -1      3806 1.83903E-04
 -1      3807 1.31210E+00
 -1      3808 1.39928E+00
 -1      3809 1.70804E+00
 -1      3810 1.72302E+00
 -1      3811 2.04668E+00
 -1      3812 2.12373E+00
 -1      3813 2.37174E+00
 -1      3814 2.71234E+00
 -1      3815 2.66462E+00
 -1      3816 7.61296E-01
 -1      3817 8.96717E-01
 -1      3818 1.13543E+00
 -1      3819 2.62216E+00
 -1      3820 2.38621E+00
 -1      3821 2.37551E+00
 -1      3822 2.46345E-04
 -1      3823 2.48374E+00
 -1      3824 2.28220E+00
 -1      3825 3.68694E+00
 -1      3826 4.27393E+00
 -1      3827 3.13497E+00
 -1      3828 2.38792E+00
 -1      3829 3.59745E+00
 -1      3830 2.60830E+00
 -1      3831 3.01080E+00
 -1      3832 2.12034E-04
 -1      3833 1.84413E-04
 -1      3834 3.00985E+00
 -1      3835 2.81913E+00
 -1      3836 2.51764E+00
 -1      3837 2.33978E-04
 -1      3838 2.33978E-04
 -1      3839 2.12034E-04
 -1      3840 2.46345E-04
 -1      3841 2.99456E+00
 -1      3842 2.68427E+00
 -1      3843 2.53784E+00
 -1      3844 1.41327E+00
 -1      3845 1.75395E+00
 -1      3846 1.23972E+00
 -1      3847 5.32099E+00
 -1      3848 4.39493E+00
 -1      3849 4.88318E+00
 -1      3850 2.66462E+00
 -1      3851 2.78754E+00
 -1      3852 2.72668E+00
 -1      3853 1.92492E+00
 -1      3854 2.68518E+00
 -1      3855 3.20012E+00
 -1      3856 3.75802E+00
 -1      3857 2.32939E+00
 -1      3858 2.55572E+00
 -1      3859 2.68427E+00
 -1      3860 2.46333E+00
 -1      3861 2.32841E+00
 -1      3862 2.11272E+00
 -1      3863 1.37296E+00
 -1      3864 1.28569E+00
 -1      3865 1.28186E+00
 -1      3866 1.17070E+00
 -1      3867 1.47308E+00
 -1      3868 8.72144E-01
 -1      3869 7.54335E-01
 -1      3870 1.17070E+00
 -1      3871 6.30899E-01
 -1      3872 5.51882E-01
 -1      3873 7.48708E-01
 -1      3874 4.49534E-01
 -1      3875 3.78600E-01
 -1      3876 5.22925E-01
 -1      3877 3.19495E-01
 -1      3878 2.62290E-01
 -1      3879 3.61472E-01
 -1      3880 2.18012E-01
 -1      3881 1.76510E-01
 -1      3882 2.58089E-01
 -1      3883 1.40961E-01
 -1      3884 1.14786E-01
 -1      3885 1.78262E-01
 -1      3886 8.88704E-02
 -1      3887 7.46220E-02
 -1      3888 1.16797E-01
 -1      3889 5.77137E-02
 -1      3890 4.82455E-02
 -1      3891 7.39726E-02
 -1      3892 3.72856E-02
 -1      3893 3.04466E-02
 -1      3894 4.61044E-02
 -1      3895 2.46598E-02
 -1      3896 1.99794E-02
 -1      3897 2.93578E-02
 -1      3898 1.63878E-02
 -1      3899 1.41190E-02
 -1      3900 1.99794E-02
 -1      3901 1.18400E-02
 -1      3902 1.05573E-02
 -1      3903 1.41088E-02
 -1      3904 8.81666E-03
 -1      3905 7.65068E-03
 -1      3906 1.00892E-02
 -1      3907 6.43441E-03
 -1      3908 5.45303E-03
 -1      3909 7.13229E-03
 -1      3910 4.59519E-03
 -1      3911 3.81139E-03
 -1      3912 5.05818E-03
 -1      3913 3.20280E-03
 -1      3914 2.60141E-03
 -1      3915 3.59174E-03
 -1      3916 2.16246E-03
 -1      3917 1.78592E-03
 -1      3918 2.54420E-03
 -1      3919 1.46659E-03
 -1      3920 1.23264E-03
 -1      3921 1.78592E-03
 -1      3922 9.83645E-04
 -1      3923 8.09983E-04
 -1      3924 1.21760E-03
 -1      3925 6.24938E-04
 -1      3926 4.94334E-04
 -1      3927 7.83566E-04
 -1      3928 3.72904E-04
 -1      3929 3.38800E-04
 -1      3930 4.77091E-04
 -1      3931 3.01548E-04
 -1      3932 3.14535E-04
 -1      3933 3.18409E-04
 -1      3934 3.17448E-04
 -1      3935 3.18817E-04
 -1      3936 2.84070E-04
 -1      3937 3.18655E-04
 -1      3938 3.06842E-04
 -1      3939 2.86822E-04
 -1      3940 2.97157E-04
 -1      3941 2.79925E-04
 -1      3942 2.76976E-04
 -1      3943 2.76231E-04
 -1      3944 2.59308E-04
 -1      3945 2.46941E-04
 -1      3946 2.63598E-04
 -1      3947 1.32562E-02
 -1      3948 1.62268E-02
 -1      3949 2.00042E-02
 -1      3950 2.42391E-02
 -1      3951 1.72135E-02
 -1      3952 2.98292E-02
 -1      3953 3.55524E-02
 -1      3954 2.65810E-02
 -1      3955 9.20065E-03
 -1      3956 1.11854E-02
 -1      3957 1.13653E-02
 -1      3958 6.42945E-03
 -1      3959 7.89641E-03
 -1      3960 7.99024E-03
 -1      3961 4.38689E-03
 -1      3962 5.45508E-03
 -1      3963 5.71162E-03
 -1      3964 2.89187E-03
 -1      3965 3.64416E-03
 -1      3966 3.99453E-03
 -1      3967 1.81601E-03
 -1      3968 2.33440E-03
 -1      3969 2.69434E-03
 -1      3970 1.06463E-03
 -1      3971 1.41402E-03
 -1      3972 1.73488E-03
 -1      3973 6.32984E-04
 -1      3974 7.88252E-04
 -1      3975 1.05651E-03
 -1      3976 4.55305E-04
 -1      3977 4.40273E-04
 -1      3978 5.87418E-04
 -1      3979 4.20118E-04
 -1      3980 4.13487E-04
 -1      3981 3.52888E-04
 -1      3982 4.30917E-04
 -1      3983 4.44343E-04
 -1      3984 3.35295E-04
 -1      3985 4.07932E-04
 -1      3986 4.33241E-04
 -1      3987 3.61843E-04
 -1      3988 3.65475E-04
 -1      3989 3.96450E-04
 -1      3990 3.52686E-04
 -1      3991 3.17010E-04
 -1      3992 3.46507E-04
 -1      3993 3.22237E-04
 -1      3994 2.68790E-04
 -1      3995 2.93619E-04
 -1      3996 2.79878E-04
 -1      3997 2.62397E-01
 -1      3998 3.24495E-01
 -1      3999 4.11669E-01
 -1      4000 5.09256E-01
 -1      4001 3.70620E-01
 -1      4002 1.86932E-04
 -1      4003 1.81256E-04
 -1      4004 1.86422E-04
 -1      4005 2.37174E+00
 -1      4006 3.14002E+00
 -1      4007 3.46699E+00
 -1      4008 2.43203E+00
 -1      4009 2.27218E+00
 -1      4010 4.57324E+00
 -1      4011 1.53212E+00
 -1      4012 1.93948E+00
 -1      4013 1.87938E+00
 -1      4014 2.26722E+00
 -1      4015 1.92962E+00
 -1      4016 2.28549E+00
 -1      4017 6.15059E-01
 -1      4018 8.15637E-01
 -1      4019 5.63597E-01
 -1      4020 1.02636E-01
 -1      4021 1.30140E-01
 -1      4022 2.22256E-04
 -1      4023 2.00311E-04
 -1      4024 2.35219E-04
 -1      4025 2.68427E+00
 -1      4026 1.66598E+00
 -1      4027 1.40135E+00
 -1      4028 8.58384E-02
 -1      4029 9.08042E-02
 -1      4030 6.84348E-02
 -1      4031 2.54638E-04
 -1      4032 2.44416E-04
 -1      4033 2.41258E-04
 -1      4034 1.95846E+00
 -1      4035 2.40902E+00
 -1      4036 2.89200E+00
 -1      4037 2.28484E+00
 -1      4038 2.04282E-01
 -1      4039 2.25332E-01
 -1      4040 1.59948E-01
 -1      4041 1.01408E+00
 -1      4042 1.29192E+00
 -1      4043 8.67841E-01
 -1      4044 2.28789E+00
 -1      4045 1.50531E+00
 -1      4046 4.39616E-02
 -1      4047 5.59264E-02
 -1      4048 6.14979E-02
 -1      4049 4.05803E-02
 -1      4050 2.51933E+00
 -1      4051 2.32643E+00
 -1      4052 1.30648E+00
 -1      4053 2.06267E-04
 -1      4054 2.13194E-04
 -1      4055 2.35596E-04
 -1      4056 2.03620E-04
 -1      4057 1.98044E+00
 -1      4058 2.31466E+00
 -1      4059 1.87970E+00
 -1      4060 1.85130E+00
 -1      4061 2.09494E+00
 -1      4062 2.00597E+00
 -1      4063 1.63158E+00
 -1      4064 1.97615E+00
 -1      4065 1.83550E+00
 -1      4066 1.53694E+00
 -1      4067 1.27058E+00
 -1      4068 1.14714E+00
 -1      4069 1.93538E+00
 -1      4070 9.04007E-01
 -1      4071 8.01660E-01
 -1      4072 1.42588E+00
 -1      4073 6.07897E-01
 -1      4074 5.48792E-01
 -1      4075 9.88979E-01
 -1      4076 4.12247E-01
 -1      4077 3.67969E-01
 -1      4078 6.58672E-01
 -1      4079 2.78525E-01
 -1      4080 2.42976E-01
 -1      4081 4.32684E-01
 -1      4082 1.80424E-01
 -1      4083 1.54509E-01
 -1      4084 2.80688E-01
 -1      4085 1.12663E-01
 -1      4086 9.57549E-02
 -1      4087 1.76291E-01
 -1      4088 6.86940E-02
 -1      4089 5.77342E-02
 -1      4090 1.07385E-01
 -1      4091 4.18645E-02
 -1      4092 3.60778E-02
 -1      4093 6.44541E-02
 -1      4094 2.74347E-02
 -1      4095 2.38431E-02
 -1      4096 3.99414E-02
 -1      4097 1.81811E-02
 -1      4098 1.59021E-02
 -1      4099 2.56364E-02
 -1      4100 1.21930E-02
 -1      4101 1.04524E-02
 -1      4102 1.62654E-02
 -1      4103 8.27160E-03
 -1      4104 7.05533E-03
 -1      4105 1.03755E-02
 -1      4106 5.91602E-03
 -1      4107 5.05818E-03
 -1      4108 7.05533E-03
 -1      4109 4.20034E-03
 -1      4110 3.59174E-03
 -1      4111 5.05818E-03
 -1      4112 2.93674E-03
 -1      4113 2.49779E-03
 -1      4114 3.54534E-03
 -1      4115 1.98287E-03
 -1      4116 1.66354E-03
 -1      4117 2.37541E-03
 -1      4118 1.34653E-03
 -1      4119 1.09754E-03
 -1      4120 1.54348E-03
 -1      4121 8.70288E-04
 -1      4122 6.85244E-04
 -1      4123 9.99215E-04
 -1      4124 5.29831E-04
 -1      4125 4.08401E-04
 -1      4126 6.16554E-04
 -1      4127 3.28110E-04
 -1      4128 2.90858E-04
 -1      4129 3.80850E-04
 -1      4130 2.53631E-04
 -1      4131 2.56545E-04
 -1      4132 2.63332E-04
 -1      4133 2.60581E-04
 -1      4134 2.60419E-04
 -1      4135 2.30142E-04
 -1      4136 2.63818E-04
 -1      4137 2.54134E-04
 -1      4138 2.37577E-04
 -1      4139 1.47825E-02
 -1      4140 1.85599E-02
 -1      4141 9.97176E-03
 -1      4142 1.20426E-02
 -1      4143 1.33889E-02
 -1      4144 2.32532E-02
 -1      4145 2.88434E-02
 -1      4146 2.08222E-02
 -1      4147 5.00591E-03
 -1      4148 5.98029E-03
 -1      4149 3.41757E-03
 -1      4150 4.16029E-03
 -1      4151 4.42896E-03
 -1      4152 2.24361E-03
 -1      4153 2.80108E-03
 -1      4154 2.96685E-03
 -1      4155 1.54335E-03
 -1      4156 1.94534E-03
 -1      4157 2.05209E-03
 -1      4158 9.36779E-04
 -1      4159 1.21316E-03
 -1      4160 1.42362E-03
 -1      4161 5.31706E-04
 -1      4162 7.24418E-04
 -1      4163 8.81068E-04
 -1      4164 3.41680E-04
 -1      4165 3.83498E-04
 -1      4166 5.20498E-04
 -1      4167 2.92935E-04
 -1      4168 2.68711E-04
 -1      4169 2.99321E-04
 -1      4170 3.06270E-04
 -1      4171 3.03946E-04
 -1      4172 2.37362E-04
 -1      4173 2.98700E-04
 -1      4174 3.10182E-04
 -1      4175 2.52285E-04
 -1      4176 3.01006E-04
 -1      4177 3.19974E-04
 -1      4178 2.77469E-04
 -1      4179 2.77614E-04
 -1      4180 3.01006E-04
 -1      4181 2.52279E-04
 -1      4182 2.39976E-04
 -1      4183 1.37410E-01
 -1      4184 7.18862E-03
 -1      4185 8.49286E-03
 -1      4186 6.48291E-03
 -1      4187 2.20130E-04
 -1      4188 1.87421E+00
 -1      4189 2.20691E+00
 -1      4190 2.42686E+00
 -1      4191 1.62775E+00
 -1      4192 1.36765E+00
 -1      4193 1.60785E+00
 -1      4194 1.93538E+00
 -1      4195 4.02787E-01
 -1      4196 4.89961E-01
 -1      4197 2.54638E-04
 -1      4198 2.98742E-04
 -1      4199 1.04226E-01
 -1      4200 1.21024E-01
 -1      4201 3.58292E-02
 -1      4202 3.91570E-02
 -1      4203 4.75661E-02
 -1      4204 9.17013E-03
 -1      4205 2.98742E-04
 -1      4206 2.20174E+00
 -1      4207 2.42686E+00
 -1      4208 1.62869E-01
 -1      4209 1.92677E-01
 -1      4210 1.76291E-01
 -1      4211 9.26071E-01
 -1      4212 1.12451E+00
 -1      4213 1.42588E+00
 -1      4214 2.55229E-01
 -1      4215 3.13343E-01
 -1      4216 4.32684E-01
 -1      4217 2.80688E-01
 -1      4218 1.99399E+00
 -1      4219 6.26506E-01
 -1      4220 7.32308E-01
 -1      4221 6.58672E-01
 -1      4222 2.69859E-04
 -1      4223 2.83017E-04
 -1      4224 2.79323E-04
 -1      4225 1.76437E-03
 -1      4226 2.06264E-03
 -1      4227 1.93538E+00
 -1      4228 6.46566E-02
 -1      4229 7.71651E-02
 -1      4230 1.07385E-01
 -1      4231 6.32333E-02
 -1      4232 1.66902E+00
 -1      4233 1.42588E+00
 -1      4234 1.18274E+00
 -1      4235 9.88979E-01
 -1      4236 7.95217E-01
 -1      4237 6.58672E-01
 -1      4238 5.22127E-01
 -1      4239 4.32684E-01
 -1      4240 3.43240E-01
 -1      4241 2.80688E-01
 -1      4242 2.18136E-01
 -1      4243 1.76291E-01
 -1      4244 1.34446E-01
 -1      4245 1.07385E-01
 -1      4246 8.03237E-02
 -1      4247 6.44541E-02
 -1      4248 4.73636E-02
 -1      4249 3.87206E-02
 -1      4250 2.84070E-02
 -1      4251 2.27450E-02
 -1      4252 1.80516E-02
 -1      4253 1.43426E-02
 -1      4254 1.16027E-02
 -1      4255 9.42184E-03
 -1      4256 7.94294E-03
 -1      4257 6.80363E-03
 -1      4258 5.59530E-03
 -1      4259 4.73746E-03
 -1      4260 3.89184E-03
 -1      4261 3.23684E-03
 -1      4262 2.33263E-03
 -1      4263 1.81771E-03
 -1      4264 1.64518E-03
 -1      4265 1.32817E-03
 -1      4266 1.60240E-03
 -1      4267 1.05924E-03
 -1      4268 8.31992E-04
 -1      4269 1.16094E-03
 -1      4270 6.64315E-04
 -1      4271 5.08902E-04
 -1      4272 7.24340E-04
 -1      4273 3.89582E-04
 -1      4274 3.09290E-04
 -1      4275 4.37343E-04
 -1      4276 2.40923E-04
 -1      4277 2.03696E-04
 -1      4278 2.49655E-04
 -1      4279 2.23853E-04
 -1      4280 2.27889E-04
 -1      4281 2.01443E-04
 -1      4282 2.37577E-04
 -1      4283 2.40976E-04
 -1      4284 2.31288E-04
 -1      4285 1.26165E-03
 -1      4286 1.59184E-03
 -1      4287 7.80362E-04
 -1      4288 9.92723E-04
 -1      4289 4.64476E-04
 -1      4290 6.12685E-04
 -1      4291 2.72187E-04
 -1      4292 3.45156E-04
 -1      4293 2.14830E-04
 -1      4294 2.03819E-04
 -1      4295 2.38898E-04
 -1      4296 2.34986E-04
 -1      4297 2.69859E-04
 -1      4298 2.48586E-04
 -1      4299 2.69859E-04
 -1      4300 2.18389E+00
 -1      4301 2.62034E-03
 -1      4302 2.98742E-04
 -1      4303 9.88979E-01
 -3
 9999
